    1C
    1UUSER                                                              
    1UDATE              27.october.2022                                 
    1UTIME              00:07:32                                        
    1UHOST                                                              
    1UPGM               CalculiX                                        
    1UVERSION           Version 2.17                             
    1UCOMPILETIME       Thu Jul 23 21:43:50 CEST 2020                    
    1UDIR                                                               
    1UDBN                                                               
    1UMAT    1SOLIDMATERIAL                                             
    2C                          4281                                     1
 -1         1 8.44955E+01 2.82186E+01 0.00000E+00
 -1         2 9.07942E+01 2.12538E+01 0.00000E+00
 -1         3 1.50000E+02 0.00000E+00 0.00000E+00
 -1         4 1.50000E+02 5.00000E+01 0.00000E+00
 -1         5 0.00000E+00 0.00000E+00 0.00000E+00
 -1         6 0.00000E+00 5.00000E+01 0.00000E+00
 -1         7 0.00000E+00 4.70500E+01 0.00000E+00
 -1         8 0.00000E+00 4.41000E+01 0.00000E+00
 -1         9 0.00000E+00 4.11500E+01 0.00000E+00
 -1        10 0.00000E+00 3.82000E+01 0.00000E+00
 -1        11 0.00000E+00 3.52500E+01 0.00000E+00
 -1        12 0.00000E+00 3.23500E+01 0.00000E+00
 -1        13 0.00000E+00 2.94000E+01 0.00000E+00
 -1        14 0.00000E+00 2.64500E+01 0.00000E+00
 -1        15 0.00000E+00 2.35000E+01 0.00000E+00
 -1        16 0.00000E+00 2.05500E+01 0.00000E+00
 -1        17 0.00000E+00 1.76000E+01 0.00000E+00
 -1        18 0.00000E+00 1.47000E+01 0.00000E+00
 -1        19 0.00000E+00 1.17500E+01 0.00000E+00
 -1        20 0.00000E+00 8.80000E+00 0.00000E+00
 -1        21 0.00000E+00 5.85000E+00 0.00000E+00
 -1        22 0.00000E+00 2.90000E+00 0.00000E+00
 -1        23 3.15000E+00 5.00000E+01 0.00000E+00
 -1        24 6.15000E+00 5.00000E+01 0.00000E+00
 -1        25 9.15000E+00 5.00000E+01 0.00000E+00
 -1        26 1.21500E+01 5.00000E+01 0.00000E+00
 -1        27 1.51500E+01 5.00000E+01 0.00000E+00
 -1        28 1.81500E+01 5.00000E+01 0.00000E+00
 -1        29 2.11500E+01 5.00000E+01 0.00000E+00
 -1        30 2.41500E+01 5.00000E+01 0.00000E+00
 -1        31 2.71500E+01 5.00000E+01 0.00000E+00
 -1        32 3.01500E+01 5.00000E+01 0.00000E+00
 -1        33 3.31500E+01 5.00000E+01 0.00000E+00
 -1        34 3.61500E+01 5.00000E+01 0.00000E+00
 -1        35 3.91500E+01 5.00000E+01 0.00000E+00
 -1        36 4.21500E+01 5.00000E+01 0.00000E+00
 -1        37 4.51500E+01 5.00000E+01 0.00000E+00
 -1        38 4.81500E+01 5.00000E+01 0.00000E+00
 -1        39 5.11500E+01 5.00000E+01 0.00000E+00
 -1        40 5.41500E+01 5.00000E+01 0.00000E+00
 -1        41 5.71500E+01 5.00000E+01 0.00000E+00
 -1        42 6.01500E+01 5.00000E+01 0.00000E+00
 -1        43 6.31500E+01 5.00000E+01 0.00000E+00
 -1        44 6.61500E+01 5.00000E+01 0.00000E+00
 -1        45 6.91500E+01 5.00000E+01 0.00000E+00
 -1        46 7.21500E+01 5.00000E+01 0.00000E+00
 -1        47 7.51500E+01 5.00000E+01 0.00000E+00
 -1        48 7.81500E+01 5.00000E+01 0.00000E+00
 -1        49 8.11500E+01 5.00000E+01 0.00000E+00
 -1        50 8.41500E+01 5.00000E+01 0.00000E+00
 -1        51 8.71500E+01 5.00000E+01 0.00000E+00
 -1        52 9.01500E+01 5.00000E+01 0.00000E+00
 -1        53 9.31500E+01 5.00000E+01 0.00000E+00
 -1        54 9.61500E+01 5.00000E+01 0.00000E+00
 -1        55 9.91500E+01 5.00000E+01 0.00000E+00
 -1        56 1.02150E+02 5.00000E+01 0.00000E+00
 -1        57 1.05150E+02 5.00000E+01 0.00000E+00
 -1        58 1.08150E+02 5.00000E+01 0.00000E+00
 -1        59 1.11150E+02 5.00000E+01 0.00000E+00
 -1        60 1.14150E+02 5.00000E+01 0.00000E+00
 -1        61 1.17150E+02 5.00000E+01 0.00000E+00
 -1        62 1.20150E+02 5.00000E+01 0.00000E+00
 -1        63 1.23150E+02 5.00000E+01 0.00000E+00
 -1        64 1.26150E+02 5.00000E+01 0.00000E+00
 -1        65 1.29150E+02 5.00000E+01 0.00000E+00
 -1        66 1.32150E+02 5.00000E+01 0.00000E+00
 -1        67 1.35150E+02 5.00000E+01 0.00000E+00
 -1        68 1.38150E+02 5.00000E+01 0.00000E+00
 -1        69 1.41150E+02 5.00000E+01 0.00000E+00
 -1        70 1.44150E+02 5.00000E+01 0.00000E+00
 -1        71 1.47150E+02 5.00000E+01 0.00000E+00
 -1        72 3.15000E+00 0.00000E+00 0.00000E+00
 -1        73 6.15000E+00 0.00000E+00 0.00000E+00
 -1        74 9.15000E+00 0.00000E+00 0.00000E+00
 -1        75 1.21500E+01 0.00000E+00 0.00000E+00
 -1        76 1.51500E+01 0.00000E+00 0.00000E+00
 -1        77 1.81500E+01 0.00000E+00 0.00000E+00
 -1        78 2.11500E+01 0.00000E+00 0.00000E+00
 -1        79 2.41500E+01 0.00000E+00 0.00000E+00
 -1        80 2.71500E+01 0.00000E+00 0.00000E+00
 -1        81 3.01500E+01 0.00000E+00 0.00000E+00
 -1        82 3.31500E+01 0.00000E+00 0.00000E+00
 -1        83 3.61500E+01 0.00000E+00 0.00000E+00
 -1        84 3.91500E+01 0.00000E+00 0.00000E+00
 -1        85 4.21500E+01 0.00000E+00 0.00000E+00
 -1        86 4.51500E+01 0.00000E+00 0.00000E+00
 -1        87 4.81500E+01 0.00000E+00 0.00000E+00
 -1        88 5.11500E+01 0.00000E+00 0.00000E+00
 -1        89 5.41500E+01 0.00000E+00 0.00000E+00
 -1        90 5.71500E+01 0.00000E+00 0.00000E+00
 -1        91 6.01500E+01 0.00000E+00 0.00000E+00
 -1        92 6.31500E+01 0.00000E+00 0.00000E+00
 -1        93 6.61500E+01 0.00000E+00 0.00000E+00
 -1        94 6.91500E+01 0.00000E+00 0.00000E+00
 -1        95 7.21500E+01 0.00000E+00 0.00000E+00
 -1        96 7.51500E+01 0.00000E+00 0.00000E+00
 -1        97 7.81500E+01 0.00000E+00 0.00000E+00
 -1        98 8.11500E+01 0.00000E+00 0.00000E+00
 -1        99 8.41500E+01 0.00000E+00 0.00000E+00
 -1       100 8.71500E+01 0.00000E+00 0.00000E+00
 -1       101 9.01500E+01 0.00000E+00 0.00000E+00
 -1       102 9.31500E+01 0.00000E+00 0.00000E+00
 -1       103 9.61500E+01 0.00000E+00 0.00000E+00
 -1       104 9.91500E+01 0.00000E+00 0.00000E+00
 -1       105 1.02150E+02 0.00000E+00 0.00000E+00
 -1       106 1.05150E+02 0.00000E+00 0.00000E+00
 -1       107 1.08150E+02 0.00000E+00 0.00000E+00
 -1       108 1.11150E+02 0.00000E+00 0.00000E+00
 -1       109 1.14150E+02 0.00000E+00 0.00000E+00
 -1       110 1.17150E+02 0.00000E+00 0.00000E+00
 -1       111 1.20150E+02 0.00000E+00 0.00000E+00
 -1       112 1.23150E+02 0.00000E+00 0.00000E+00
 -1       113 1.26150E+02 0.00000E+00 0.00000E+00
 -1       114 1.29150E+02 0.00000E+00 0.00000E+00
 -1       115 1.32150E+02 0.00000E+00 0.00000E+00
 -1       116 1.35150E+02 0.00000E+00 0.00000E+00
 -1       117 1.38150E+02 0.00000E+00 0.00000E+00
 -1       118 1.41150E+02 0.00000E+00 0.00000E+00
 -1       119 1.44150E+02 0.00000E+00 0.00000E+00
 -1       120 1.47150E+02 0.00000E+00 0.00000E+00
 -1       121 1.50000E+02 2.95000E+00 0.00000E+00
 -1       122 1.50000E+02 5.90000E+00 0.00000E+00
 -1       123 1.50000E+02 8.85000E+00 0.00000E+00
 -1       124 1.50000E+02 1.18000E+01 0.00000E+00
 -1       125 1.50000E+02 1.47500E+01 0.00000E+00
 -1       126 1.50000E+02 1.76500E+01 0.00000E+00
 -1       127 1.50000E+02 2.06000E+01 0.00000E+00
 -1       128 1.50000E+02 2.35500E+01 0.00000E+00
 -1       129 1.50000E+02 2.65000E+01 0.00000E+00
 -1       130 1.50000E+02 2.94500E+01 0.00000E+00
 -1       131 1.50000E+02 3.24000E+01 0.00000E+00
 -1       132 1.50000E+02 3.53000E+01 0.00000E+00
 -1       133 1.50000E+02 3.82500E+01 0.00000E+00
 -1       134 1.50000E+02 4.12000E+01 0.00000E+00
 -1       135 1.50000E+02 4.41500E+01 0.00000E+00
 -1       136 1.50000E+02 4.71000E+01 0.00000E+00
 -1       137 9.06194E+01 1.96993E+01 0.00000E+00
 -1       138 9.01766E+01 1.83789E+01 0.00000E+00
 -1       139 8.93708E+01 1.70227E+01 0.00000E+00
 -1       140 8.83805E+01 1.59655E+01 0.00000E+00
 -1       141 8.71303E+01 1.50999E+01 0.00000E+00
 -1       142 8.56857E+01 1.45142E+01 0.00000E+00
 -1       143 8.42662E+01 1.42698E+01 0.00000E+00
 -1       144 8.26880E+01 1.43418E+01 0.00000E+00
 -1       145 8.11772E+01 1.47615E+01 0.00000E+00
 -1       146 7.99065E+01 1.54327E+01 0.00000E+00
 -1       147 7.87270E+01 1.64244E+01 0.00000E+00
 -1       148 7.78137E+01 1.76161E+01 0.00000E+00
 -1       149 7.71814E+01 1.89581E+01 0.00000E+00
 -1       150 7.68351E+01 2.04982E+01 0.00000E+00
 -1       151 7.68440E+01 2.20867E+01 0.00000E+00
 -1       152 7.71687E+01 2.35125E+01 0.00000E+00
 -1       153 7.78740E+01 2.49890E+01 0.00000E+00
 -1       154 7.87888E+01 2.61472E+01 0.00000E+00
 -1       155 8.00470E+01 2.71664E+01 0.00000E+00
 -1       156 8.13443E+01 2.78111E+01 0.00000E+00
 -1       157 8.29950E+01 2.82081E+01 0.00000E+00
 -1       158 8.59446E+01 2.79154E+01 0.00000E+00
 -1       159 8.72714E+01 2.73291E+01 0.00000E+00
 -1       160 8.84882E+01 2.64468E+01 0.00000E+00
 -1       161 8.94697E+01 2.53513E+01 0.00000E+00
 -1       162 9.02088E+01 2.40561E+01 0.00000E+00
 -1       163 9.06391E+01 2.27195E+01 0.00000E+00
 -1       164 2.59800E+00 4.55750E+01 0.00000E+00
 -1       165 2.59800E+00 4.26250E+01 0.00000E+00
 -1       166 2.59800E+00 3.96750E+01 0.00000E+00
 -1       167 2.59800E+00 3.67250E+01 0.00000E+00
 -1       168 2.59800E+00 3.38250E+01 0.00000E+00
 -1       169 2.59800E+00 3.08750E+01 0.00000E+00
 -1       170 2.59800E+00 2.79250E+01 0.00000E+00
 -1       171 2.59800E+00 2.49750E+01 0.00000E+00
 -1       172 2.59800E+00 2.20250E+01 0.00000E+00
 -1       173 2.59800E+00 1.90750E+01 0.00000E+00
 -1       174 2.59800E+00 1.61750E+01 0.00000E+00
 -1       175 2.59800E+00 1.32250E+01 0.00000E+00
 -1       176 2.59800E+00 1.02750E+01 0.00000E+00
 -1       177 2.59800E+00 7.32500E+00 0.00000E+00
 -1       178 2.59800E+00 4.37500E+00 0.00000E+00
 -1       179 2.87400E+00 2.18750E+00 0.00000E+00
 -1       180 4.65000E+00 4.74020E+01 0.00000E+00
 -1       181 7.65000E+00 4.74020E+01 0.00000E+00
 -1       182 1.06500E+01 4.74020E+01 0.00000E+00
 -1       183 1.36500E+01 4.74020E+01 0.00000E+00
 -1       184 1.66500E+01 4.74020E+01 0.00000E+00
 -1       185 1.96500E+01 4.74020E+01 0.00000E+00
 -1       186 2.26500E+01 4.74020E+01 0.00000E+00
 -1       187 2.56500E+01 4.74020E+01 0.00000E+00
 -1       188 2.86500E+01 4.74020E+01 0.00000E+00
 -1       189 3.16500E+01 4.74020E+01 0.00000E+00
 -1       190 3.46500E+01 4.74020E+01 0.00000E+00
 -1       191 3.76500E+01 4.74020E+01 0.00000E+00
 -1       192 4.06500E+01 4.74020E+01 0.00000E+00
 -1       193 4.36500E+01 4.74020E+01 0.00000E+00
 -1       194 4.66500E+01 4.74020E+01 0.00000E+00
 -1       195 4.96500E+01 4.74020E+01 0.00000E+00
 -1       196 5.26500E+01 4.74020E+01 0.00000E+00
 -1       197 5.56500E+01 4.74020E+01 0.00000E+00
 -1       198 5.86500E+01 4.74020E+01 0.00000E+00
 -1       199 6.16500E+01 4.74020E+01 0.00000E+00
 -1       200 6.46500E+01 4.74020E+01 0.00000E+00
 -1       201 6.76500E+01 4.74020E+01 0.00000E+00
 -1       202 7.06500E+01 4.74020E+01 0.00000E+00
 -1       203 7.36500E+01 4.74020E+01 0.00000E+00
 -1       204 7.66500E+01 4.74020E+01 0.00000E+00
 -1       205 7.96500E+01 4.74020E+01 0.00000E+00
 -1       206 8.26500E+01 4.74020E+01 0.00000E+00
 -1       207 8.56500E+01 4.74020E+01 0.00000E+00
 -1       208 8.86500E+01 4.74020E+01 0.00000E+00
 -1       209 9.16500E+01 4.74020E+01 0.00000E+00
 -1       210 9.46500E+01 4.74020E+01 0.00000E+00
 -1       211 9.76500E+01 4.74020E+01 0.00000E+00
 -1       212 1.00650E+02 4.74020E+01 0.00000E+00
 -1       213 1.03650E+02 4.74020E+01 0.00000E+00
 -1       214 1.06650E+02 4.74020E+01 0.00000E+00
 -1       215 1.09650E+02 4.74020E+01 0.00000E+00
 -1       216 1.12650E+02 4.74020E+01 0.00000E+00
 -1       217 1.15650E+02 4.74020E+01 0.00000E+00
 -1       218 1.18650E+02 4.74020E+01 0.00000E+00
 -1       219 1.21650E+02 4.74020E+01 0.00000E+00
 -1       220 1.24650E+02 4.74020E+01 0.00000E+00
 -1       221 1.27650E+02 4.74020E+01 0.00000E+00
 -1       222 1.30650E+02 4.74020E+01 0.00000E+00
 -1       223 1.33650E+02 4.74020E+01 0.00000E+00
 -1       224 1.36650E+02 4.74020E+01 0.00000E+00
 -1       225 1.39650E+02 4.74020E+01 0.00000E+00
 -1       226 1.42650E+02 4.74020E+01 0.00000E+00
 -1       227 1.45650E+02 4.74020E+01 0.00000E+00
 -1       228 5.87400E+00 2.18750E+00 0.00000E+00
 -1       229 8.87400E+00 2.18750E+00 0.00000E+00
 -1       230 1.18740E+01 2.18750E+00 0.00000E+00
 -1       231 1.48740E+01 2.18750E+00 0.00000E+00
 -1       232 1.78740E+01 2.18750E+00 0.00000E+00
 -1       233 2.08740E+01 2.18750E+00 0.00000E+00
 -1       234 2.38740E+01 2.18750E+00 0.00000E+00
 -1       235 2.68740E+01 2.18750E+00 0.00000E+00
 -1       236 2.98740E+01 2.18750E+00 0.00000E+00
 -1       237 3.28740E+01 2.18750E+00 0.00000E+00
 -1       238 3.58740E+01 2.18750E+00 0.00000E+00
 -1       239 3.88740E+01 2.18750E+00 0.00000E+00
 -1       240 4.18740E+01 2.18750E+00 0.00000E+00
 -1       241 4.48740E+01 2.18750E+00 0.00000E+00
 -1       242 4.78740E+01 2.18750E+00 0.00000E+00
 -1       243 5.08740E+01 2.18750E+00 0.00000E+00
 -1       244 5.38740E+01 2.18750E+00 0.00000E+00
 -1       245 5.68740E+01 2.18750E+00 0.00000E+00
 -1       246 5.98740E+01 2.18750E+00 0.00000E+00
 -1       247 6.28740E+01 2.18750E+00 0.00000E+00
 -1       248 6.58740E+01 2.18750E+00 0.00000E+00
 -1       249 6.88740E+01 2.18750E+00 0.00000E+00
 -1       250 7.18740E+01 2.18750E+00 0.00000E+00
 -1       251 7.48740E+01 2.18750E+00 0.00000E+00
 -1       252 7.78740E+01 2.18750E+00 0.00000E+00
 -1       253 8.08740E+01 2.18750E+00 0.00000E+00
 -1       254 8.38740E+01 2.18750E+00 0.00000E+00
 -1       255 8.68740E+01 2.18750E+00 0.00000E+00
 -1       256 8.98740E+01 2.18750E+00 0.00000E+00
 -1       257 9.28740E+01 2.18750E+00 0.00000E+00
 -1       258 9.58740E+01 2.18750E+00 0.00000E+00
 -1       259 9.88740E+01 2.18750E+00 0.00000E+00
 -1       260 1.01874E+02 2.18750E+00 0.00000E+00
 -1       261 1.04874E+02 2.18750E+00 0.00000E+00
 -1       262 1.07874E+02 2.18750E+00 0.00000E+00
 -1       263 1.10874E+02 2.18750E+00 0.00000E+00
 -1       264 1.13874E+02 2.18750E+00 0.00000E+00
 -1       265 1.16874E+02 2.18750E+00 0.00000E+00
 -1       266 1.19874E+02 2.18750E+00 0.00000E+00
 -1       267 1.22874E+02 2.18750E+00 0.00000E+00
 -1       268 1.25874E+02 2.18750E+00 0.00000E+00
 -1       269 1.28874E+02 2.18750E+00 0.00000E+00
 -1       270 1.31874E+02 2.18750E+00 0.00000E+00
 -1       271 1.34874E+02 2.18750E+00 0.00000E+00
 -1       272 1.37874E+02 2.18750E+00 0.00000E+00
 -1       273 1.40874E+02 2.18750E+00 0.00000E+00
 -1       274 1.43874E+02 2.18750E+00 0.00000E+00
 -1       275 1.46874E+02 2.18750E+00 0.00000E+00
 -1       276 1.47402E+02 4.42500E+00 0.00000E+00
 -1       277 1.47402E+02 7.37500E+00 0.00000E+00
 -1       278 1.47402E+02 1.03250E+01 0.00000E+00
 -1       279 1.47402E+02 1.32750E+01 0.00000E+00
 -1       280 1.47402E+02 1.61750E+01 0.00000E+00
 -1       281 1.47402E+02 1.91250E+01 0.00000E+00
 -1       282 1.47402E+02 2.20750E+01 0.00000E+00
 -1       283 1.47402E+02 2.50250E+01 0.00000E+00
 -1       284 1.47402E+02 2.79750E+01 0.00000E+00
 -1       285 1.47402E+02 3.09250E+01 0.00000E+00
 -1       286 1.47402E+02 3.38250E+01 0.00000E+00
 -1       287 1.47402E+02 3.67750E+01 0.00000E+00
 -1       288 1.47402E+02 3.97250E+01 0.00000E+00
 -1       289 1.47402E+02 4.26750E+01 0.00000E+00
 -1       290 1.46526E+02 4.50385E+01 0.00000E+00
 -1       291 9.20782E+01 2.03224E+01 0.00000E+00
 -1       292 9.15475E+01 1.86536E+01 0.00000E+00
 -1       293 9.09600E+01 1.69959E+01 0.00000E+00
 -1       294 8.98216E+01 1.56080E+01 0.00000E+00
 -1       295 8.84932E+01 1.44670E+01 0.00000E+00
 -1       296 8.68635E+01 1.36835E+01 0.00000E+00
 -1       297 8.51817E+01 1.31972E+01 0.00000E+00
 -1       298 8.34180E+01 1.30109E+01 0.00000E+00
 -1       299 8.15857E+01 1.33027E+01 0.00000E+00
 -1       300 7.99755E+01 1.40251E+01 0.00000E+00
 -1       301 7.85365E+01 1.50006E+01 0.00000E+00
 -1       302 7.73081E+01 1.62828E+01 0.00000E+00
 -1       303 7.64008E+01 1.77704E+01 0.00000E+00
 -1       304 7.56619E+01 1.94255E+01 0.00000E+00
 -1       305 7.52920E+01 2.13011E+01 0.00000E+00
 -1       306 7.58242E+01 2.30688E+01 0.00000E+00
 -1       307 7.61250E+01 2.49179E+01 0.00000E+00
 -1       308 7.73799E+01 2.63195E+01 0.00000E+00
 -1       309 7.85493E+01 2.77291E+01 0.00000E+00
 -1       310 8.01561E+01 2.85745E+01 0.00000E+00
 -1       311 8.18079E+01 2.95142E+01 0.00000E+00
 -1       312 8.37361E+01 2.95095E+01 0.00000E+00
 -1       313 8.54684E+01 2.92537E+01 0.00000E+00
 -1       314 8.70980E+01 2.87312E+01 0.00000E+00
 -1       315 8.86407E+01 2.79373E+01 0.00000E+00
 -1       316 8.98820E+01 2.67080E+01 0.00000E+00
 -1       317 9.09650E+01 2.53461E+01 0.00000E+00
 -1       318 9.15781E+01 2.37593E+01 0.00000E+00
 -1       319 9.20056E+01 2.21231E+01 0.00000E+00
 -1       320 5.19600E+00 4.11500E+01 0.00000E+00
 -1       321 5.19600E+00 4.41000E+01 0.00000E+00
 -1       322 5.19600E+00 3.52750E+01 0.00000E+00
 -1       323 5.19600E+00 3.23250E+01 0.00000E+00
 -1       324 5.19600E+00 2.93750E+01 0.00000E+00
 -1       325 5.19600E+00 2.64250E+01 0.00000E+00
 -1       326 5.19600E+00 2.34750E+01 0.00000E+00
 -1       327 5.19600E+00 2.05250E+01 0.00000E+00
 -1       328 5.19600E+00 1.76250E+01 0.00000E+00
 -1       329 5.19600E+00 1.46750E+01 0.00000E+00
 -1       330 5.19600E+00 1.17250E+01 0.00000E+00
 -1       331 5.19600E+00 8.77500E+00 0.00000E+00
 -1       332 5.19600E+00 5.82500E+00 0.00000E+00
 -1       333 5.53500E+00 4.00625E+00 0.00000E+00
 -1       334 8.53500E+00 4.00625E+00 0.00000E+00
 -1       335 9.15000E+00 4.48040E+01 0.00000E+00
 -1       336 1.21500E+01 4.48040E+01 0.00000E+00
 -1       337 1.51500E+01 4.48040E+01 0.00000E+00
 -1       338 1.81500E+01 4.48040E+01 0.00000E+00
 -1       339 2.11500E+01 4.48040E+01 0.00000E+00
 -1       340 2.41500E+01 4.48040E+01 0.00000E+00
 -1       341 2.71500E+01 4.48040E+01 0.00000E+00
 -1       342 3.01500E+01 4.48040E+01 0.00000E+00
 -1       343 3.31500E+01 4.48040E+01 0.00000E+00
 -1       344 3.61500E+01 4.48040E+01 0.00000E+00
 -1       345 3.91500E+01 4.48040E+01 0.00000E+00
 -1       346 4.21500E+01 4.48040E+01 0.00000E+00
 -1       347 4.51500E+01 4.48040E+01 0.00000E+00
 -1       348 4.81500E+01 4.48040E+01 0.00000E+00
 -1       349 5.11500E+01 4.48040E+01 0.00000E+00
 -1       350 5.41500E+01 4.48040E+01 0.00000E+00
 -1       351 5.71500E+01 4.48040E+01 0.00000E+00
 -1       352 6.01500E+01 4.48040E+01 0.00000E+00
 -1       353 6.31500E+01 4.48040E+01 0.00000E+00
 -1       354 6.61500E+01 4.48040E+01 0.00000E+00
 -1       355 6.91500E+01 4.48040E+01 0.00000E+00
 -1       356 7.21500E+01 4.48040E+01 0.00000E+00
 -1       357 7.51500E+01 4.48040E+01 0.00000E+00
 -1       358 7.81500E+01 4.48040E+01 0.00000E+00
 -1       359 8.11500E+01 4.48040E+01 0.00000E+00
 -1       360 8.41500E+01 4.48040E+01 0.00000E+00
 -1       361 8.71500E+01 4.48040E+01 0.00000E+00
 -1       362 9.01500E+01 4.48040E+01 0.00000E+00
 -1       363 9.31500E+01 4.48040E+01 0.00000E+00
 -1       364 9.61500E+01 4.48040E+01 0.00000E+00
 -1       365 9.91500E+01 4.48040E+01 0.00000E+00
 -1       366 1.02150E+02 4.48040E+01 0.00000E+00
 -1       367 1.05150E+02 4.48040E+01 0.00000E+00
 -1       368 1.08150E+02 4.48040E+01 0.00000E+00
 -1       369 1.11150E+02 4.48040E+01 0.00000E+00
 -1       370 1.14150E+02 4.48040E+01 0.00000E+00
 -1       371 1.17150E+02 4.48040E+01 0.00000E+00
 -1       372 1.20150E+02 4.48040E+01 0.00000E+00
 -1       373 1.23150E+02 4.48040E+01 0.00000E+00
 -1       374 1.26150E+02 4.48040E+01 0.00000E+00
 -1       375 1.29150E+02 4.48040E+01 0.00000E+00
 -1       376 1.32150E+02 4.48040E+01 0.00000E+00
 -1       377 1.35150E+02 4.48040E+01 0.00000E+00
 -1       378 1.38150E+02 4.48040E+01 0.00000E+00
 -1       379 1.41150E+02 4.48040E+01 0.00000E+00
 -1       380 1.43838E+02 4.49212E+01 0.00000E+00
 -1       381 1.15350E+01 4.00625E+00 0.00000E+00
 -1       382 1.45350E+01 4.00625E+00 0.00000E+00
 -1       383 1.75350E+01 4.00625E+00 0.00000E+00
 -1       384 2.05350E+01 4.00625E+00 0.00000E+00
 -1       385 2.35350E+01 4.00625E+00 0.00000E+00
 -1       386 2.65350E+01 4.00625E+00 0.00000E+00
 -1       387 2.95350E+01 4.00625E+00 0.00000E+00
 -1       388 3.25350E+01 4.00625E+00 0.00000E+00
 -1       389 3.55350E+01 4.00625E+00 0.00000E+00
 -1       390 3.85350E+01 4.00625E+00 0.00000E+00
 -1       391 4.15350E+01 4.00625E+00 0.00000E+00
 -1       392 4.45350E+01 4.00625E+00 0.00000E+00
 -1       393 4.75350E+01 4.00625E+00 0.00000E+00
 -1       394 5.05350E+01 4.00625E+00 0.00000E+00
 -1       395 5.35350E+01 4.00625E+00 0.00000E+00
 -1       396 5.65350E+01 4.00625E+00 0.00000E+00
 -1       397 5.95350E+01 4.00625E+00 0.00000E+00
 -1       398 6.25350E+01 4.00625E+00 0.00000E+00
 -1       399 6.55350E+01 4.00625E+00 0.00000E+00
 -1       400 6.85350E+01 4.00625E+00 0.00000E+00
 -1       401 7.15350E+01 4.00625E+00 0.00000E+00
 -1       402 7.45350E+01 4.00625E+00 0.00000E+00
 -1       403 7.75350E+01 4.00625E+00 0.00000E+00
 -1       404 8.05350E+01 4.00625E+00 0.00000E+00
 -1       405 8.35350E+01 4.00625E+00 0.00000E+00
 -1       406 8.65350E+01 4.00625E+00 0.00000E+00
 -1       407 8.95350E+01 4.00625E+00 0.00000E+00
 -1       408 9.25350E+01 4.00625E+00 0.00000E+00
 -1       409 9.55350E+01 4.00625E+00 0.00000E+00
 -1       410 9.85350E+01 4.00625E+00 0.00000E+00
 -1       411 1.01535E+02 4.00625E+00 0.00000E+00
 -1       412 1.04535E+02 4.00625E+00 0.00000E+00
 -1       413 1.07535E+02 4.00625E+00 0.00000E+00
 -1       414 1.10535E+02 4.00625E+00 0.00000E+00
 -1       415 1.13535E+02 4.00625E+00 0.00000E+00
 -1       416 1.16535E+02 4.00625E+00 0.00000E+00
 -1       417 1.19535E+02 4.00625E+00 0.00000E+00
 -1       418 1.22535E+02 4.00625E+00 0.00000E+00
 -1       419 1.25535E+02 4.00625E+00 0.00000E+00
 -1       420 1.28535E+02 4.00625E+00 0.00000E+00
 -1       421 1.31535E+02 4.00625E+00 0.00000E+00
 -1       422 1.34535E+02 4.00625E+00 0.00000E+00
 -1       423 1.37535E+02 4.00625E+00 0.00000E+00
 -1       424 1.40535E+02 4.00625E+00 0.00000E+00
 -1       425 1.43535E+02 4.00625E+00 0.00000E+00
 -1       426 1.45469E+02 4.21562E+00 0.00000E+00
 -1       427 1.44804E+02 1.18000E+01 0.00000E+00
 -1       428 1.44804E+02 8.85000E+00 0.00000E+00
 -1       429 1.45136E+02 6.53281E+00 0.00000E+00
 -1       430 1.44804E+02 1.47000E+01 0.00000E+00
 -1       431 1.44804E+02 1.76500E+01 0.00000E+00
 -1       432 1.44804E+02 2.06000E+01 0.00000E+00
 -1       433 1.44804E+02 2.35500E+01 0.00000E+00
 -1       434 1.44804E+02 2.65000E+01 0.00000E+00
 -1       435 1.44804E+02 2.94500E+01 0.00000E+00
 -1       436 1.44804E+02 3.23500E+01 0.00000E+00
 -1       437 1.44804E+02 3.53000E+01 0.00000E+00
 -1       438 1.44804E+02 3.82500E+01 0.00000E+00
 -1       439 1.44804E+02 4.12000E+01 0.00000E+00
 -1       440 9.27914E+01 1.72798E+01 0.00000E+00
 -1       441 9.37556E+01 2.12918E+01 0.00000E+00
 -1       442 9.33221E+01 1.89486E+01 0.00000E+00
 -1       443 9.14578E+01 1.54268E+01 0.00000E+00
 -1       444 9.01112E+01 1.39271E+01 0.00000E+00
 -1       445 5.19600E+00 3.82125E+01 0.00000E+00
 -1       446 8.64758E+01 1.18732E+01 0.00000E+00
 -1       447 8.44448E+01 1.17317E+01 0.00000E+00
 -1       448 8.22321E+01 1.14631E+01 0.00000E+00
 -1       449 8.01472E+01 1.22519E+01 0.00000E+00
 -1       450 7.84817E+01 1.33706E+01 0.00000E+00
 -1       451 7.68049E+01 1.45710E+01 0.00000E+00
 -1       452 7.57478E+01 1.63517E+01 0.00000E+00
 -1       453 7.46182E+01 1.79671E+01 0.00000E+00
 -1       454 7.41231E+01 2.00963E+01 0.00000E+00
 -1       455 7.39158E+01 2.26793E+01 0.00000E+00
 -1       456 7.42166E+01 2.45284E+01 0.00000E+00
 -1       457 7.57868E+01 2.64833E+01 0.00000E+00
 -1       458 7.68381E+01 2.79589E+01 0.00000E+00
 -1       459 7.86712E+01 2.94472E+01 0.00000E+00
 -1       460 8.03229E+01 3.03870E+01 0.00000E+00
 -1       461 8.27762E+01 3.12270E+01 0.00000E+00
 -1       462 8.47916E+01 3.06639E+01 0.00000E+00
 -1       463 8.67045E+01 3.03065E+01 0.00000E+00
 -1       464 8.85391E+01 2.96358E+01 0.00000E+00
 -1       465 9.02324E+01 2.83032E+01 0.00000E+00
 -1       466 9.14380E+01 2.68339E+01 0.00000E+00
 -1       467 9.26369E+01 2.50802E+01 0.00000E+00
 -1       468 9.30459E+01 2.32689E+01 0.00000E+00
 -1       469 8.83126E+01 1.27561E+01 0.00000E+00
 -1       470 7.27468E+01 2.14745E+01 0.00000E+00
 -1       471 1.00350E+01 6.60425E+00 0.00000E+00
 -1       472 7.79400E+00 3.08500E+01 0.00000E+00
 -1       473 7.79400E+00 3.38000E+01 0.00000E+00
 -1       474 7.79400E+00 2.49500E+01 0.00000E+00
 -1       475 7.79400E+00 2.20000E+01 0.00000E+00
 -1       476 7.79400E+00 1.91000E+01 0.00000E+00
 -1       477 7.79400E+00 1.61500E+01 0.00000E+00
 -1       478 7.79400E+00 1.32000E+01 0.00000E+00
 -1       479 7.79400E+00 1.02500E+01 0.00000E+00
 -1       480 1.30350E+01 6.60425E+00 0.00000E+00
 -1       481 1.06500E+01 4.22060E+01 0.00000E+00
 -1       482 8.81009E+01 1.08443E+01 0.00000E+00
 -1       483 1.36500E+01 4.22060E+01 0.00000E+00
 -1       484 1.66500E+01 4.22060E+01 0.00000E+00
 -1       485 1.96500E+01 4.22060E+01 0.00000E+00
 -1       486 2.26500E+01 4.22060E+01 0.00000E+00
 -1       487 2.56500E+01 4.22060E+01 0.00000E+00
 -1       488 2.86500E+01 4.22060E+01 0.00000E+00
 -1       489 3.16500E+01 4.22060E+01 0.00000E+00
 -1       490 3.46500E+01 4.22060E+01 0.00000E+00
 -1       491 3.76500E+01 4.22060E+01 0.00000E+00
 -1       492 4.06500E+01 4.22060E+01 0.00000E+00
 -1       493 4.36500E+01 4.22060E+01 0.00000E+00
 -1       494 4.66500E+01 4.22060E+01 0.00000E+00
 -1       495 4.96500E+01 4.22060E+01 0.00000E+00
 -1       496 5.26500E+01 4.22060E+01 0.00000E+00
 -1       497 5.56500E+01 4.22060E+01 0.00000E+00
 -1       498 5.86500E+01 4.22060E+01 0.00000E+00
 -1       499 6.16500E+01 4.22060E+01 0.00000E+00
 -1       500 6.46500E+01 4.22060E+01 0.00000E+00
 -1       501 6.76500E+01 4.22060E+01 0.00000E+00
 -1       502 7.06500E+01 4.22060E+01 0.00000E+00
 -1       503 7.36500E+01 4.22060E+01 0.00000E+00
 -1       504 7.66500E+01 4.22060E+01 0.00000E+00
 -1       505 7.96500E+01 4.22060E+01 0.00000E+00
 -1       506 8.26500E+01 4.22060E+01 0.00000E+00
 -1       507 8.56500E+01 4.22060E+01 0.00000E+00
 -1       508 8.86500E+01 4.22060E+01 0.00000E+00
 -1       509 9.16500E+01 4.22060E+01 0.00000E+00
 -1       510 9.46500E+01 4.22060E+01 0.00000E+00
 -1       511 9.76500E+01 4.22060E+01 0.00000E+00
 -1       512 1.00650E+02 4.22060E+01 0.00000E+00
 -1       513 1.03650E+02 4.22060E+01 0.00000E+00
 -1       514 1.06650E+02 4.22060E+01 0.00000E+00
 -1       515 1.09650E+02 4.22060E+01 0.00000E+00
 -1       516 1.12650E+02 4.22060E+01 0.00000E+00
 -1       517 1.15650E+02 4.22060E+01 0.00000E+00
 -1       518 1.18650E+02 4.22060E+01 0.00000E+00
 -1       519 1.21650E+02 4.22060E+01 0.00000E+00
 -1       520 1.24650E+02 4.22060E+01 0.00000E+00
 -1       521 1.27650E+02 4.22060E+01 0.00000E+00
 -1       522 1.30650E+02 4.22060E+01 0.00000E+00
 -1       523 1.33650E+02 4.22060E+01 0.00000E+00
 -1       524 1.36650E+02 4.22060E+01 0.00000E+00
 -1       525 1.39650E+02 4.22060E+01 0.00000E+00
 -1       526 9.46912E+01 1.75945E+01 0.00000E+00
 -1       527 1.90350E+01 6.60425E+00 0.00000E+00
 -1       528 2.20350E+01 6.60425E+00 0.00000E+00
 -1       529 2.50350E+01 6.60425E+00 0.00000E+00
 -1       530 2.80350E+01 6.60425E+00 0.00000E+00
 -1       531 3.10350E+01 6.60425E+00 0.00000E+00
 -1       532 3.40350E+01 6.60425E+00 0.00000E+00
 -1       533 3.70350E+01 6.60425E+00 0.00000E+00
 -1       534 4.00350E+01 6.60425E+00 0.00000E+00
 -1       535 4.30350E+01 6.60425E+00 0.00000E+00
 -1       536 4.60350E+01 6.60425E+00 0.00000E+00
 -1       537 4.90350E+01 6.60425E+00 0.00000E+00
 -1       538 5.20350E+01 6.60425E+00 0.00000E+00
 -1       539 5.50350E+01 6.60425E+00 0.00000E+00
 -1       540 5.80350E+01 6.60425E+00 0.00000E+00
 -1       541 6.10350E+01 6.60425E+00 0.00000E+00
 -1       542 6.40350E+01 6.60425E+00 0.00000E+00
 -1       543 6.70350E+01 6.60425E+00 0.00000E+00
 -1       544 7.00350E+01 6.60425E+00 0.00000E+00
 -1       545 7.30350E+01 6.60425E+00 0.00000E+00
 -1       546 7.60350E+01 6.60425E+00 0.00000E+00
 -1       547 7.90350E+01 6.60425E+00 0.00000E+00
 -1       548 8.20350E+01 6.60425E+00 0.00000E+00
 -1       549 8.50350E+01 6.60425E+00 0.00000E+00
 -1       550 8.80350E+01 6.60425E+00 0.00000E+00
 -1       551 9.10350E+01 6.60425E+00 0.00000E+00
 -1       552 9.40350E+01 6.60425E+00 0.00000E+00
 -1       553 9.70350E+01 6.60425E+00 0.00000E+00
 -1       554 1.00035E+02 6.60425E+00 0.00000E+00
 -1       555 1.03035E+02 6.60425E+00 0.00000E+00
 -1       556 1.06035E+02 6.60425E+00 0.00000E+00
 -1       557 1.09035E+02 6.60425E+00 0.00000E+00
 -1       558 1.12035E+02 6.60425E+00 0.00000E+00
 -1       559 1.15035E+02 6.60425E+00 0.00000E+00
 -1       560 1.18035E+02 6.60425E+00 0.00000E+00
 -1       561 1.21035E+02 6.60425E+00 0.00000E+00
 -1       562 1.24035E+02 6.60425E+00 0.00000E+00
 -1       563 1.27035E+02 6.60425E+00 0.00000E+00
 -1       564 1.30035E+02 6.60425E+00 0.00000E+00
 -1       565 1.33035E+02 6.60425E+00 0.00000E+00
 -1       566 1.36035E+02 6.60425E+00 0.00000E+00
 -1       567 1.39035E+02 6.60425E+00 0.00000E+00
 -1       568 1.42035E+02 6.60425E+00 0.00000E+00
 -1       569 1.42206E+02 1.61750E+01 0.00000E+00
 -1       570 1.42206E+02 1.91250E+01 0.00000E+00
 -1       571 1.42206E+02 1.03250E+01 0.00000E+00
 -1       572 1.42206E+02 1.32500E+01 0.00000E+00
 -1       573 1.42206E+02 2.20750E+01 0.00000E+00
 -1       574 1.42206E+02 2.50250E+01 0.00000E+00
 -1       575 1.42206E+02 2.79750E+01 0.00000E+00
 -1       576 1.42206E+02 3.08750E+01 0.00000E+00
 -1       577 1.42206E+02 3.38250E+01 0.00000E+00
 -1       578 1.42206E+02 3.67750E+01 0.00000E+00
 -1       579 1.42206E+02 3.97250E+01 0.00000E+00
 -1       580 9.50150E+01 2.28598E+01 0.00000E+00
 -1       581 1.60350E+01 6.60425E+00 0.00000E+00
 -1       582 9.36527E+01 1.52536E+01 0.00000E+00
 -1       583 9.46060E+01 2.46710E+01 0.00000E+00
 -1       584 7.92300E+00 4.16780E+01 0.00000E+00
 -1       585 9.20606E+01 1.35310E+01 0.00000E+00
 -1       586 7.67264E+01 2.99695E+01 0.00000E+00
 -1       587 7.79400E+00 2.79000E+01 0.00000E+00
 -1       588 8.35250E+01 1.00611E+01 0.00000E+00
 -1       589 7.46426E+01 2.84107E+01 0.00000E+00
 -1       590 8.55560E+01 1.02026E+01 0.00000E+00
 -1       591 8.05234E+01 1.00966E+01 0.00000E+00
 -1       592 7.83582E+01 1.13875E+01 0.00000E+00
 -1       593 7.66813E+01 1.25880E+01 0.00000E+00
 -1       594 7.48015E+01 1.45858E+01 0.00000E+00
 -1       595 7.36719E+01 1.62013E+01 0.00000E+00
 -1       596 7.25369E+01 1.86052E+01 0.00000E+00
 -1       597 7.20425E+01 2.39331E+01 0.00000E+00
 -1       598 8.42004E+01 3.24359E+01 0.00000E+00
 -1       599 7.30724E+01 2.64558E+01 0.00000E+00
 -1       600 7.86904E+01 3.13350E+01 0.00000E+00
 -1       601 8.10211E+01 3.23503E+01 0.00000E+00
 -1       602 8.61132E+01 3.20786E+01 0.00000E+00
 -1       603 8.81820E+01 3.15033E+01 0.00000E+00
 -1       604 9.03947E+01 3.02514E+01 0.00000E+00
 -1       605 9.19668E+01 2.84970E+01 0.00000E+00
 -1       606 9.31766E+01 2.67359E+01 0.00000E+00
 -1       607 9.51429E+01 1.98234E+01 0.00000E+00
 -1       608 7.61550E+00 6.21462E+00 0.00000E+00
 -1       609 9.03306E+01 1.16235E+01 0.00000E+00
 -1       610 7.79400E+00 3.67375E+01 0.00000E+00
 -1       611 1.41678E+02 4.22645E+01 0.00000E+00
 -1       612 9.64023E+01 2.13914E+01 0.00000E+00
 -1       613 8.24453E+01 3.35592E+01 0.00000E+00
 -1       614 8.25536E+01 9.30950E+00 0.00000E+00
 -1       615 1.03920E+01 2.05500E+01 0.00000E+00
 -1       616 1.03920E+01 2.35000E+01 0.00000E+00
 -1       617 1.03920E+01 1.46750E+01 0.00000E+00
 -1       618 1.03920E+01 1.17250E+01 0.00000E+00
 -1       619 1.15350E+01 9.20225E+00 0.00000E+00
 -1       620 9.43623E+01 1.30007E+01 0.00000E+00
 -1       621 1.45350E+01 9.20225E+00 0.00000E+00
 -1       622 9.26323E+01 1.10931E+01 0.00000E+00
 -1       623 9.78035E+00 3.93914E+01 0.00000E+00
 -1       624 1.51500E+01 3.96080E+01 0.00000E+00
 -1       625 1.81500E+01 3.96080E+01 0.00000E+00
 -1       626 2.11500E+01 3.96080E+01 0.00000E+00
 -1       627 2.41500E+01 3.96080E+01 0.00000E+00
 -1       628 2.71500E+01 3.96080E+01 0.00000E+00
 -1       629 3.01500E+01 3.96080E+01 0.00000E+00
 -1       630 3.31500E+01 3.96080E+01 0.00000E+00
 -1       631 3.61500E+01 3.96080E+01 0.00000E+00
 -1       632 3.91500E+01 3.96080E+01 0.00000E+00
 -1       633 4.21500E+01 3.96080E+01 0.00000E+00
 -1       634 4.51500E+01 3.96080E+01 0.00000E+00
 -1       635 4.81500E+01 3.96080E+01 0.00000E+00
 -1       636 5.11500E+01 3.96080E+01 0.00000E+00
 -1       637 5.41500E+01 3.96080E+01 0.00000E+00
 -1       638 5.71500E+01 3.96080E+01 0.00000E+00
 -1       639 6.01500E+01 3.96080E+01 0.00000E+00
 -1       640 6.31500E+01 3.96080E+01 0.00000E+00
 -1       641 6.61500E+01 3.96080E+01 0.00000E+00
 -1       642 6.91500E+01 3.96080E+01 0.00000E+00
 -1       643 7.21500E+01 3.96080E+01 0.00000E+00
 -1       644 7.51500E+01 3.96080E+01 0.00000E+00
 -1       645 7.81500E+01 3.96080E+01 0.00000E+00
 -1       646 8.11500E+01 3.96080E+01 0.00000E+00
 -1       647 8.41500E+01 3.96080E+01 0.00000E+00
 -1       648 8.71500E+01 3.96080E+01 0.00000E+00
 -1       649 9.01500E+01 3.96080E+01 0.00000E+00
 -1       650 9.31500E+01 3.96080E+01 0.00000E+00
 -1       651 9.61500E+01 3.96080E+01 0.00000E+00
 -1       652 9.91500E+01 3.96080E+01 0.00000E+00
 -1       653 1.02150E+02 3.96080E+01 0.00000E+00
 -1       654 1.05150E+02 3.96080E+01 0.00000E+00
 -1       655 1.08150E+02 3.96080E+01 0.00000E+00
 -1       656 1.11150E+02 3.96080E+01 0.00000E+00
 -1       657 1.14150E+02 3.96080E+01 0.00000E+00
 -1       658 1.17150E+02 3.96080E+01 0.00000E+00
 -1       659 1.20150E+02 3.96080E+01 0.00000E+00
 -1       660 1.23150E+02 3.96080E+01 0.00000E+00
 -1       661 1.26150E+02 3.96080E+01 0.00000E+00
 -1       662 1.29150E+02 3.96080E+01 0.00000E+00
 -1       663 1.32150E+02 3.96080E+01 0.00000E+00
 -1       664 1.35150E+02 3.96080E+01 0.00000E+00
 -1       665 1.38150E+02 3.96080E+01 0.00000E+00
 -1       666 9.65980E+01 1.83682E+01 0.00000E+00
 -1       667 1.40178E+02 3.96665E+01 0.00000E+00
 -1       668 2.05350E+01 9.20225E+00 0.00000E+00
 -1       669 2.95350E+01 9.20225E+00 0.00000E+00
 -1       670 3.25350E+01 9.20225E+00 0.00000E+00
 -1       671 3.55350E+01 9.20225E+00 0.00000E+00
 -1       672 3.85350E+01 9.20225E+00 0.00000E+00
 -1       673 4.15350E+01 9.20225E+00 0.00000E+00
 -1       674 4.45350E+01 9.20225E+00 0.00000E+00
 -1       675 4.75350E+01 9.20225E+00 0.00000E+00
 -1       676 5.05350E+01 9.20225E+00 0.00000E+00
 -1       677 5.35350E+01 9.20225E+00 0.00000E+00
 -1       678 5.65350E+01 9.20225E+00 0.00000E+00
 -1       679 5.95350E+01 9.20225E+00 0.00000E+00
 -1       680 6.25350E+01 9.20225E+00 0.00000E+00
 -1       681 6.55350E+01 9.20225E+00 0.00000E+00
 -1       682 6.85350E+01 9.20225E+00 0.00000E+00
 -1       683 7.15350E+01 9.20225E+00 0.00000E+00
 -1       684 7.45350E+01 9.20225E+00 0.00000E+00
 -1       685 9.85350E+01 9.20225E+00 0.00000E+00
 -1       686 1.01535E+02 9.20225E+00 0.00000E+00
 -1       687 1.04535E+02 9.20225E+00 0.00000E+00
 -1       688 1.07535E+02 9.20225E+00 0.00000E+00
 -1       689 1.10535E+02 9.20225E+00 0.00000E+00
 -1       690 1.13535E+02 9.20225E+00 0.00000E+00
 -1       691 1.16535E+02 9.20225E+00 0.00000E+00
 -1       692 1.19535E+02 9.20225E+00 0.00000E+00
 -1       693 1.22535E+02 9.20225E+00 0.00000E+00
 -1       694 1.25535E+02 9.20225E+00 0.00000E+00
 -1       695 1.28535E+02 9.20225E+00 0.00000E+00
 -1       696 1.31535E+02 9.20225E+00 0.00000E+00
 -1       697 1.34535E+02 9.20225E+00 0.00000E+00
 -1       698 1.37535E+02 9.20225E+00 0.00000E+00
 -1       699 1.39870E+02 9.76363E+00 0.00000E+00
 -1       700 1.39608E+02 2.35500E+01 0.00000E+00
 -1       701 1.39608E+02 1.76500E+01 0.00000E+00
 -1       702 1.39608E+02 2.65000E+01 0.00000E+00
 -1       703 1.39608E+02 2.06000E+01 0.00000E+00
 -1       704 9.64835E+01 2.41432E+01 0.00000E+00
 -1       705 1.39608E+02 2.94000E+01 0.00000E+00
 -1       706 1.39608E+02 3.23500E+01 0.00000E+00
 -1       707 1.39608E+02 3.53000E+01 0.00000E+00
 -1       708 1.75350E+01 9.20225E+00 0.00000E+00
 -1       709 7.25203E+01 2.85073E+01 0.00000E+00
 -1       710 7.02626E+01 2.20930E+01 0.00000E+00
 -1       711 2.65350E+01 9.20225E+00 0.00000E+00
 -1       712 2.35350E+01 9.20225E+00 0.00000E+00
 -1       713 1.24652E+01 3.94997E+01 0.00000E+00
 -1       714 8.76071E+01 3.34433E+01 0.00000E+00
 -1       715 9.39163E+01 2.85401E+01 0.00000E+00
 -1       716 7.64423E+01 3.24732E+01 0.00000E+00
 -1       717 1.03920E+01 1.76125E+01 0.00000E+00
 -1       718 1.03920E+01 3.23250E+01 0.00000E+00
 -1       719 7.43585E+01 3.09144E+01 0.00000E+00
 -1       720 7.84767E+01 9.12495E+00 0.00000E+00
 -1       721 7.87731E+01 3.34886E+01 0.00000E+00
 -1       722 7.67999E+01 1.03254E+01 0.00000E+00
 -1       723 7.42482E+01 1.21819E+01 0.00000E+00
 -1       724 7.26938E+01 1.43147E+01 0.00000E+00
 -1       725 7.00527E+01 1.92237E+01 0.00000E+00
 -1       726 7.08145E+01 2.59060E+01 0.00000E+00
 -1       727 7.11877E+01 1.68197E+01 0.00000E+00
 -1       728 9.02979E+01 3.26618E+01 0.00000E+00
 -1       729 9.53457E+01 2.64753E+01 0.00000E+00
 -1       730 9.58929E+01 1.56605E+01 0.00000E+00
 -1       731 8.56942E+01 3.38007E+01 0.00000E+00
 -1       732 9.24580E+01 3.05188E+01 0.00000E+00
 -1       733 7.97792E+01 8.35045E+00 0.00000E+00
 -1       734 1.03920E+01 3.52625E+01 0.00000E+00
 -1       735 1.03920E+01 2.64500E+01 0.00000E+00
 -1       736 9.78574E+01 1.99362E+01 0.00000E+00
 -1       737 6.90345E+01 2.40660E+01 0.00000E+00
 -1       738 9.55350E+01 9.20225E+00 0.00000E+00
 -1       739 1.39870E+02 1.26886E+01 0.00000E+00
 -1       740 1.38879E+02 3.74540E+01 0.00000E+00
 -1       741 8.01973E+01 3.46975E+01 0.00000E+00
 -1       742 8.39391E+01 3.49240E+01 0.00000E+00
 -1       743 1.03920E+01 2.93875E+01 0.00000E+00
 -1       744 1.39739E+02 1.51693E+01 0.00000E+00
 -1       745 1.29900E+01 1.32000E+01 0.00000E+00
 -1       746 1.96500E+01 3.70100E+01 0.00000E+00
 -1       747 2.26500E+01 3.70100E+01 0.00000E+00
 -1       748 2.56500E+01 3.70100E+01 0.00000E+00
 -1       749 2.86500E+01 3.70100E+01 0.00000E+00
 -1       750 3.16500E+01 3.70100E+01 0.00000E+00
 -1       751 3.46500E+01 3.70100E+01 0.00000E+00
 -1       752 3.76500E+01 3.70100E+01 0.00000E+00
 -1       753 4.06500E+01 3.70100E+01 0.00000E+00
 -1       754 4.36500E+01 3.70100E+01 0.00000E+00
 -1       755 4.66500E+01 3.70100E+01 0.00000E+00
 -1       756 4.96500E+01 3.70100E+01 0.00000E+00
 -1       757 5.26500E+01 3.70100E+01 0.00000E+00
 -1       758 5.56500E+01 3.70100E+01 0.00000E+00
 -1       759 5.86500E+01 3.70100E+01 0.00000E+00
 -1       760 6.16500E+01 3.70100E+01 0.00000E+00
 -1       761 6.46500E+01 3.70100E+01 0.00000E+00
 -1       762 6.76500E+01 3.70100E+01 0.00000E+00
 -1       763 7.06500E+01 3.70100E+01 0.00000E+00
 -1       764 7.36500E+01 3.70100E+01 0.00000E+00
 -1       765 7.66500E+01 3.70100E+01 0.00000E+00
 -1       766 8.86500E+01 3.70100E+01 0.00000E+00
 -1       767 9.16500E+01 3.70100E+01 0.00000E+00
 -1       768 9.46500E+01 3.70100E+01 0.00000E+00
 -1       769 9.76500E+01 3.70100E+01 0.00000E+00
 -1       770 1.00650E+02 3.70100E+01 0.00000E+00
 -1       771 1.03650E+02 3.70100E+01 0.00000E+00
 -1       772 1.06650E+02 3.70100E+01 0.00000E+00
 -1       773 1.09650E+02 3.70100E+01 0.00000E+00
 -1       774 1.12650E+02 3.70100E+01 0.00000E+00
 -1       775 1.15650E+02 3.70100E+01 0.00000E+00
 -1       776 1.18650E+02 3.70100E+01 0.00000E+00
 -1       777 1.21650E+02 3.70100E+01 0.00000E+00
 -1       778 1.24650E+02 3.70100E+01 0.00000E+00
 -1       779 1.27650E+02 3.70100E+01 0.00000E+00
 -1       780 1.30650E+02 3.70100E+01 0.00000E+00
 -1       781 1.33650E+02 3.70100E+01 0.00000E+00
 -1       782 1.36264E+02 3.72320E+01 0.00000E+00
 -1       783 3.10350E+01 1.18003E+01 0.00000E+00
 -1       784 4.00350E+01 1.18003E+01 0.00000E+00
 -1       785 4.30350E+01 1.18003E+01 0.00000E+00
 -1       786 4.60350E+01 1.18003E+01 0.00000E+00
 -1       787 4.90350E+01 1.18003E+01 0.00000E+00
 -1       788 5.20350E+01 1.18003E+01 0.00000E+00
 -1       789 5.50350E+01 1.18003E+01 0.00000E+00
 -1       790 5.80350E+01 1.18003E+01 0.00000E+00
 -1       791 6.10350E+01 1.18003E+01 0.00000E+00
 -1       792 6.40350E+01 1.18003E+01 0.00000E+00
 -1       793 6.70350E+01 1.18003E+01 0.00000E+00
 -1       794 7.00350E+01 1.18003E+01 0.00000E+00
 -1       795 1.00035E+02 1.18003E+01 0.00000E+00
 -1       796 1.09035E+02 1.18003E+01 0.00000E+00
 -1       797 1.12035E+02 1.18003E+01 0.00000E+00
 -1       798 1.15035E+02 1.18003E+01 0.00000E+00
 -1       799 1.18035E+02 1.18003E+01 0.00000E+00
 -1       800 1.21035E+02 1.18003E+01 0.00000E+00
 -1       801 1.24035E+02 1.18003E+01 0.00000E+00
 -1       802 1.27035E+02 1.18003E+01 0.00000E+00
 -1       803 1.30035E+02 1.18003E+01 0.00000E+00
 -1       804 1.33035E+02 1.18003E+01 0.00000E+00
 -1       805 1.36035E+02 1.18003E+01 0.00000E+00
 -1       806 1.37953E+02 1.22444E+01 0.00000E+00
 -1       807 7.18100E+01 3.09552E+01 0.00000E+00
 -1       808 1.37010E+02 2.50250E+01 0.00000E+00
 -1       809 9.84923E+01 2.27068E+01 0.00000E+00
 -1       810 1.37010E+02 3.38250E+01 0.00000E+00
 -1       811 8.69964E+01 3.54727E+01 0.00000E+00
 -1       812 6.89177E+01 1.72179E+01 0.00000E+00
 -1       813 6.79457E+01 2.08202E+01 0.00000E+00
 -1       814 7.01041E+01 2.83539E+01 0.00000E+00
 -1       815 1.37010E+02 3.08750E+01 0.00000E+00
 -1       816 1.06035E+02 1.18003E+01 0.00000E+00
 -1       817 1.03035E+02 1.18003E+01 0.00000E+00
 -1       818 9.71986E+01 1.24005E+01 0.00000E+00
 -1       819 9.74561E+01 2.60613E+01 0.00000E+00
 -1       820 2.80350E+01 1.18003E+01 0.00000E+00
 -1       821 3.70350E+01 1.18003E+01 0.00000E+00
 -1       822 3.40350E+01 1.18003E+01 0.00000E+00
 -1       823 9.85538E+01 1.64132E+01 0.00000E+00
 -1       824 1.66500E+01 3.70100E+01 0.00000E+00
 -1       825 2.50350E+01 1.18003E+01 0.00000E+00
 -1       826 2.20350E+01 1.18003E+01 0.00000E+00
 -1       827 7.41723E+01 3.33356E+01 0.00000E+00
 -1       828 9.47027E+01 3.06464E+01 0.00000E+00
 -1       829 7.66551E+01 3.51678E+01 0.00000E+00
 -1       830 1.37625E+01 1.12011E+01 0.00000E+00
 -1       831 9.27039E+01 3.29268E+01 0.00000E+00
 -1       832 6.94764E+01 1.45091E+01 0.00000E+00
 -1       833 9.63167E+01 2.86747E+01 0.00000E+00
 -1       834 8.95244E+01 3.50214E+01 0.00000E+00
 -1       835 1.29900E+01 2.20250E+01 0.00000E+00
 -1       836 1.37010E+02 2.79500E+01 0.00000E+00
 -1       837 1.29900E+01 2.49750E+01 0.00000E+00
 -1       838 1.36637E+02 3.55285E+01 0.00000E+00
 -1       839 9.94648E+01 2.46249E+01 0.00000E+00
 -1       840 9.98132E+01 1.79813E+01 0.00000E+00
 -1       841 6.83242E+01 2.65139E+01 0.00000E+00
 -1       842 8.56500E+01 3.70100E+01 0.00000E+00
 -1       843 1.67625E+01 1.12011E+01 0.00000E+00
 -1       844 1.29900E+01 3.37938E+01 0.00000E+00
 -1       845 1.29900E+01 1.61375E+01 0.00000E+00
 -1       846 1.37010E+02 1.91250E+01 0.00000E+00
 -1       847 1.37141E+02 1.66443E+01 0.00000E+00
 -1       848 1.37010E+02 2.20750E+01 0.00000E+00
 -1       849 1.93988E+01 1.15007E+01 0.00000E+00
 -1       850 1.27276E+01 3.66467E+01 0.00000E+00
 -1       851 6.68108E+01 1.88144E+01 0.00000E+00
 -1       852 1.29900E+01 1.90812E+01 0.00000E+00
 -1       853 1.29900E+01 3.08563E+01 0.00000E+00
 -1       854 9.12764E+01 3.48322E+01 0.00000E+00
 -1       855 2.41500E+01 3.44120E+01 0.00000E+00
 -1       856 2.71500E+01 3.44120E+01 0.00000E+00
 -1       857 3.01500E+01 3.44120E+01 0.00000E+00
 -1       858 3.31500E+01 3.44120E+01 0.00000E+00
 -1       859 3.61500E+01 3.44120E+01 0.00000E+00
 -1       860 3.91500E+01 3.44120E+01 0.00000E+00
 -1       861 4.21500E+01 3.44120E+01 0.00000E+00
 -1       862 4.51500E+01 3.44120E+01 0.00000E+00
 -1       863 4.81500E+01 3.44120E+01 0.00000E+00
 -1       864 5.11500E+01 3.44120E+01 0.00000E+00
 -1       865 5.41500E+01 3.44120E+01 0.00000E+00
 -1       866 5.71500E+01 3.44120E+01 0.00000E+00
 -1       867 6.01500E+01 3.44120E+01 0.00000E+00
 -1       868 6.31500E+01 3.44120E+01 0.00000E+00
 -1       869 6.61500E+01 3.44120E+01 0.00000E+00
 -1       870 6.91500E+01 3.44120E+01 0.00000E+00
 -1       871 9.42764E+01 3.48322E+01 0.00000E+00
 -1       872 9.72764E+01 3.48322E+01 0.00000E+00
 -1       873 1.00276E+02 3.48322E+01 0.00000E+00
 -1       874 1.03276E+02 3.48322E+01 0.00000E+00
 -1       875 1.06276E+02 3.48322E+01 0.00000E+00
 -1       876 1.09276E+02 3.48322E+01 0.00000E+00
 -1       877 1.12276E+02 3.48322E+01 0.00000E+00
 -1       878 1.15276E+02 3.48322E+01 0.00000E+00
 -1       879 1.18276E+02 3.48322E+01 0.00000E+00
 -1       880 1.21276E+02 3.48322E+01 0.00000E+00
 -1       881 1.24276E+02 3.48322E+01 0.00000E+00
 -1       882 1.27276E+02 3.48322E+01 0.00000E+00
 -1       883 1.30276E+02 3.48322E+01 0.00000E+00
 -1       884 1.33276E+02 3.48322E+01 0.00000E+00
 -1       885 4.45350E+01 1.43982E+01 0.00000E+00
 -1       886 9.90731E+01 2.83213E+01 0.00000E+00
 -1       887 4.15350E+01 1.43982E+01 0.00000E+00
 -1       888 5.05350E+01 1.43982E+01 0.00000E+00
 -1       889 5.35350E+01 1.43982E+01 0.00000E+00
 -1       890 5.65350E+01 1.43982E+01 0.00000E+00
 -1       891 5.95350E+01 1.43982E+01 0.00000E+00
 -1       892 6.25350E+01 1.43982E+01 0.00000E+00
 -1       893 6.55350E+01 1.43982E+01 0.00000E+00
 -1       894 1.16535E+02 1.43982E+01 0.00000E+00
 -1       895 2.11500E+01 3.44120E+01 0.00000E+00
 -1       896 1.13535E+02 1.43982E+01 0.00000E+00
 -1       897 1.10535E+02 1.43982E+01 0.00000E+00
 -1       898 1.19535E+02 1.43982E+01 0.00000E+00
 -1       899 1.22535E+02 1.43982E+01 0.00000E+00
 -1       900 1.25535E+02 1.43982E+01 0.00000E+00
 -1       901 1.28535E+02 1.43982E+01 0.00000E+00
 -1       902 1.31535E+02 1.43982E+01 0.00000E+00
 -1       903 1.34535E+02 1.43982E+01 0.00000E+00
 -1       904 9.70962E+01 3.09593E+01 0.00000E+00
 -1       905 4.75350E+01 1.43982E+01 0.00000E+00
 -1       906 8.23231E+01 3.61070E+01 0.00000E+00
 -1       907 7.12980E+01 3.38257E+01 0.00000E+00
 -1       908 1.34412E+02 3.23500E+01 0.00000E+00
 -1       909 1.07535E+02 1.43982E+01 0.00000E+00
 -1       910 1.29900E+01 2.79188E+01 0.00000E+00
 -1       911 2.95350E+01 1.43982E+01 0.00000E+00
 -1       912 3.85350E+01 1.43982E+01 0.00000E+00
 -1       913 1.81500E+01 3.44120E+01 0.00000E+00
 -1       914 1.00448E+02 2.07518E+01 0.00000E+00
 -1       915 2.65350E+01 1.43982E+01 0.00000E+00
 -1       916 2.35350E+01 1.43982E+01 0.00000E+00
 -1       917 6.91024E+01 3.08708E+01 0.00000E+00
 -1       918 6.62286E+01 2.32017E+01 0.00000E+00
 -1       919 1.59900E+01 1.32000E+01 0.00000E+00
 -1       920 1.55700E+01 3.26341E+01 0.00000E+00
 -1       921 1.01725E+02 1.48872E+01 0.00000E+00
 -1       922 1.37547E+02 1.44444E+01 0.00000E+00
 -1       923 6.73225E+01 2.90308E+01 0.00000E+00
 -1       924 1.01421E+02 2.26699E+01 0.00000E+00
 -1       925 3.25350E+01 1.43982E+01 0.00000E+00
 -1       926 1.34412E+02 2.64875E+01 0.00000E+00
 -1       927 9.54972E+01 3.33590E+01 0.00000E+00
 -1       928 1.34481E+02 1.77474E+01 0.00000E+00
 -1       929 1.34481E+02 2.06974E+01 0.00000E+00
 -1       930 1.55880E+01 2.35000E+01 0.00000E+00
 -1       931 1.34447E+02 2.35924E+01 0.00000E+00
 -1       932 2.08988E+01 1.40987E+01 0.00000E+00
 -1       933 1.04630E+02 1.46427E+01 0.00000E+00
 -1       934 3.55350E+01 1.43982E+01 0.00000E+00
 -1       935 1.55880E+01 2.05562E+01 0.00000E+00
 -1       936 6.55182E+01 2.56497E+01 0.00000E+00
 -1       937 6.50937E+01 2.11959E+01 0.00000E+00
 -1       938 6.66261E+01 1.63821E+01 0.00000E+00
 -1       939 1.34412E+02 2.94125E+01 0.00000E+00
 -1       940 2.86500E+01 3.18140E+01 0.00000E+00
 -1       941 3.16500E+01 3.18140E+01 0.00000E+00
 -1       942 3.46500E+01 3.18140E+01 0.00000E+00
 -1       943 3.76500E+01 3.18140E+01 0.00000E+00
 -1       944 4.06500E+01 3.18140E+01 0.00000E+00
 -1       945 4.36500E+01 3.18140E+01 0.00000E+00
 -1       946 4.66500E+01 3.18140E+01 0.00000E+00
 -1       947 4.96500E+01 3.18140E+01 0.00000E+00
 -1       948 5.26500E+01 3.18140E+01 0.00000E+00
 -1       949 5.56500E+01 3.18140E+01 0.00000E+00
 -1       950 5.86500E+01 3.18140E+01 0.00000E+00
 -1       951 6.16500E+01 3.18140E+01 0.00000E+00
 -1       952 6.46500E+01 3.18140E+01 0.00000E+00
 -1       953 4.30350E+01 1.69963E+01 0.00000E+00
 -1       954 1.02798E+02 1.76882E+01 0.00000E+00
 -1       955 9.84972E+01 3.33590E+01 0.00000E+00
 -1       956 1.01776E+02 3.22342E+01 0.00000E+00
 -1       957 1.04776E+02 3.22342E+01 0.00000E+00
 -1       958 1.07776E+02 3.22342E+01 0.00000E+00
 -1       959 1.10776E+02 3.22342E+01 0.00000E+00
 -1       960 1.13776E+02 3.22342E+01 0.00000E+00
 -1       961 1.16776E+02 3.22342E+01 0.00000E+00
 -1       962 1.19776E+02 3.22342E+01 0.00000E+00
 -1       963 1.22776E+02 3.22342E+01 0.00000E+00
 -1       964 1.25776E+02 3.22342E+01 0.00000E+00
 -1       965 1.28776E+02 3.22342E+01 0.00000E+00
 -1       966 5.50350E+01 1.69963E+01 0.00000E+00
 -1       967 5.20350E+01 1.69963E+01 0.00000E+00
 -1       968 6.10350E+01 1.69963E+01 0.00000E+00
 -1       969 1.21035E+02 1.69963E+01 0.00000E+00
 -1       970 2.26500E+01 3.18140E+01 0.00000E+00
 -1       971 1.18035E+02 1.69963E+01 0.00000E+00
 -1       972 1.63076E+01 1.65250E+01 0.00000E+00
 -1       973 1.12035E+02 1.69963E+01 0.00000E+00
 -1       974 1.55880E+01 2.64438E+01 0.00000E+00
 -1       975 1.01641E+02 2.67245E+01 0.00000E+00
 -1       976 1.24035E+02 1.69963E+01 0.00000E+00
 -1       977 1.27035E+02 1.69963E+01 0.00000E+00
 -1       978 1.30035E+02 1.69963E+01 0.00000E+00
 -1       979 1.09035E+02 1.69963E+01 0.00000E+00
 -1       980 4.00350E+01 1.69963E+01 0.00000E+00
 -1       981 1.84444E+01 1.36493E+01 0.00000E+00
 -1       982 2.80350E+01 1.69963E+01 0.00000E+00
 -1       983 2.50350E+01 1.69963E+01 0.00000E+00
 -1       984 6.45070E+01 1.77662E+01 0.00000E+00
 -1       985 1.31814E+02 3.08813E+01 0.00000E+00
 -1       986 1.15035E+02 1.69963E+01 0.00000E+00
 -1       987 1.31814E+02 2.79562E+01 0.00000E+00
 -1       988 2.56500E+01 3.18140E+01 0.00000E+00
 -1       989 1.55880E+01 2.93813E+01 0.00000E+00
 -1       990 5.80350E+01 1.69963E+01 0.00000E+00
 -1       991 1.96500E+01 3.18140E+01 0.00000E+00
 -1       992 4.60350E+01 1.69963E+01 0.00000E+00
 -1       993 1.03771E+02 1.96063E+01 0.00000E+00
 -1       994 1.03209E+02 2.94794E+01 0.00000E+00
 -1       995 1.31849E+02 2.50612E+01 0.00000E+00
 -1       996 1.81860E+01 2.49719E+01 0.00000E+00
 -1       997 1.06130E+02 1.72407E+01 0.00000E+00
 -1       998 1.30035E+02 1.99463E+01 0.00000E+00
 -1       999 6.33783E+01 2.37017E+01 0.00000E+00
 -1      1000 4.90350E+01 1.69963E+01 0.00000E+00
 -1      1001 3.10350E+01 1.69963E+01 0.00000E+00
 -1      1002 2.23988E+01 1.66967E+01 0.00000E+00
 -1      1003 3.70350E+01 1.69963E+01 0.00000E+00
 -1      1004 1.81860E+01 2.20281E+01 0.00000E+00
 -1      1005 1.19535E+02 1.95942E+01 0.00000E+00
 -1      1006 5.35350E+01 1.95942E+01 0.00000E+00
 -1      1007 3.01500E+01 2.92160E+01 0.00000E+00
 -1      1008 3.31500E+01 2.92160E+01 0.00000E+00
 -1      1009 3.61500E+01 2.92160E+01 0.00000E+00
 -1      1010 3.91500E+01 2.92160E+01 0.00000E+00
 -1      1011 4.21500E+01 2.92160E+01 0.00000E+00
 -1      1012 4.51500E+01 2.92160E+01 0.00000E+00
 -1      1013 4.81500E+01 2.92160E+01 0.00000E+00
 -1      1014 5.11500E+01 2.92160E+01 0.00000E+00
 -1      1015 5.41500E+01 2.92160E+01 0.00000E+00
 -1      1016 5.71500E+01 2.92160E+01 0.00000E+00
 -1      1017 6.01500E+01 2.92160E+01 0.00000E+00
 -1      1018 6.31500E+01 2.92160E+01 0.00000E+00
 -1      1019 1.06209E+02 2.94794E+01 0.00000E+00
 -1      1020 1.09209E+02 2.94794E+01 0.00000E+00
 -1      1021 1.12209E+02 2.94794E+01 0.00000E+00
 -1      1022 1.15209E+02 2.94794E+01 0.00000E+00
 -1      1023 1.18209E+02 2.94794E+01 0.00000E+00
 -1      1024 1.21209E+02 2.94794E+01 0.00000E+00
 -1      1025 1.24209E+02 2.94794E+01 0.00000E+00
 -1      1026 1.27209E+02 2.94794E+01 0.00000E+00
 -1      1027 3.40350E+01 1.69963E+01 0.00000E+00
 -1      1028 1.25535E+02 1.95942E+01 0.00000E+00
 -1      1029 6.16217E+01 2.04260E+01 0.00000E+00
 -1      1030 1.03745E+02 2.45768E+01 0.00000E+00
 -1      1031 1.22535E+02 1.95942E+01 0.00000E+00
 -1      1032 2.71500E+01 2.92160E+01 0.00000E+00
 -1      1033 1.10535E+02 1.95942E+01 0.00000E+00
 -1      1034 6.26994E+01 2.65969E+01 0.00000E+00
 -1      1035 2.11500E+01 2.92160E+01 0.00000E+00
 -1      1036 1.29511E+02 2.87178E+01 0.00000E+00
 -1      1037 1.87620E+01 1.69744E+01 0.00000E+00
 -1      1038 5.65350E+01 1.95942E+01 0.00000E+00
 -1      1039 2.65350E+01 1.95942E+01 0.00000E+00
 -1      1040 1.84740E+01 1.95013E+01 0.00000E+00
 -1      1041 1.30942E+02 2.25037E+01 0.00000E+00
 -1      1042 2.41500E+01 2.92160E+01 0.00000E+00
 -1      1043 1.83690E+01 2.78299E+01 0.00000E+00
 -1      1044 4.15350E+01 1.95942E+01 0.00000E+00
 -1      1045 5.90783E+01 2.00101E+01 0.00000E+00
 -1      1046 5.05350E+01 1.95942E+01 0.00000E+00
 -1      1047 1.27785E+02 1.97703E+01 0.00000E+00
 -1      1048 2.35351E+01 1.95943E+01 0.00000E+00
 -1      1049 2.95350E+01 1.95942E+01 0.00000E+00
 -1      1050 4.45350E+01 1.95942E+01 0.00000E+00
 -1      1051 1.16535E+02 1.95942E+01 0.00000E+00
 -1      1052 1.04977E+02 2.70281E+01 0.00000E+00
 -1      1053 2.09670E+01 2.63580E+01 0.00000E+00
 -1      1054 1.29546E+02 2.58228E+01 0.00000E+00
 -1      1055 1.06096E+02 2.15132E+01 0.00000E+00
 -1      1056 1.13535E+02 1.95942E+01 0.00000E+00
 -1      1057 6.05095E+01 2.45561E+01 0.00000E+00
 -1      1058 4.75350E+01 1.95942E+01 0.00000E+00
 -1      1059 3.85350E+01 1.95942E+01 0.00000E+00
 -1      1060 2.09670E+01 2.34142E+01 0.00000E+00
 -1      1061 1.27243E+02 2.65843E+01 0.00000E+00
 -1      1062 3.46500E+01 2.66180E+01 0.00000E+00
 -1      1063 3.76500E+01 2.66180E+01 0.00000E+00
 -1      1064 4.06500E+01 2.66180E+01 0.00000E+00
 -1      1065 4.36500E+01 2.66180E+01 0.00000E+00
 -1      1066 4.66500E+01 2.66180E+01 0.00000E+00
 -1      1067 4.96500E+01 2.66180E+01 0.00000E+00
 -1      1068 5.26500E+01 2.66180E+01 0.00000E+00
 -1      1069 5.56500E+01 2.66180E+01 0.00000E+00
 -1      1070 5.86500E+01 2.66180E+01 0.00000E+00
 -1      1071 1.07977E+02 2.70281E+01 0.00000E+00
 -1      1072 1.10977E+02 2.70281E+01 0.00000E+00
 -1      1073 1.13977E+02 2.70281E+01 0.00000E+00
 -1      1074 1.16977E+02 2.70281E+01 0.00000E+00
 -1      1075 1.19977E+02 2.70281E+01 0.00000E+00
 -1      1076 1.22977E+02 2.70281E+01 0.00000E+00
 -1      1077 1.25110E+02 2.68062E+01 0.00000E+00
 -1      1078 4.90350E+01 2.21922E+01 0.00000E+00
 -1      1079 2.50351E+01 2.21923E+01 0.00000E+00
 -1      1080 2.56500E+01 2.66180E+01 0.00000E+00
 -1      1081 1.07327E+02 2.39645E+01 0.00000E+00
 -1      1082 2.10045E+01 1.95478E+01 0.00000E+00
 -1      1083 1.21035E+02 2.21922E+01 0.00000E+00
 -1      1084 3.55350E+01 1.95942E+01 0.00000E+00
 -1      1085 3.25350E+01 1.95942E+01 0.00000E+00
 -1      1086 5.50350E+01 2.21922E+01 0.00000E+00
 -1      1087 1.24035E+02 2.21922E+01 0.00000E+00
 -1      1088 3.16500E+01 2.66180E+01 0.00000E+00
 -1      1089 2.86500E+01 2.66180E+01 0.00000E+00
 -1      1090 5.20350E+01 2.21922E+01 0.00000E+00
 -1      1091 1.26285E+02 2.23682E+01 0.00000E+00
 -1      1092 5.73158E+01 2.30633E+01 0.00000E+00
 -1      1093 2.80351E+01 2.21923E+01 0.00000E+00
 -1      1094 1.18035E+02 2.21922E+01 0.00000E+00
 -1      1095 1.28692E+02 2.23277E+01 0.00000E+00
 -1      1096 4.30350E+01 2.21922E+01 0.00000E+00
 -1      1097 4.00350E+01 2.21922E+01 0.00000E+00
 -1      1098 1.09346E+02 2.29385E+01 0.00000E+00
 -1      1099 4.60350E+01 2.21922E+01 0.00000E+00
 -1      1100 1.12346E+02 2.29385E+01 0.00000E+00
 -1      1101 3.91500E+01 2.40200E+01 0.00000E+00
 -1      1102 1.18477E+02 2.44301E+01 0.00000E+00
 -1      1103 1.15191E+02 2.25654E+01 0.00000E+00
 -1      1104 1.27579E+02 2.37369E+01 0.00000E+00
 -1      1105 3.70350E+01 2.21922E+01 0.00000E+00
 -1      1106 3.10351E+01 2.21923E+01 0.00000E+00
 -1      1107 3.40350E+01 2.21923E+01 0.00000E+00
 -1      1108 2.34525E+01 2.38940E+01 0.00000E+00
 -1      1109 1.10194E+02 2.49573E+01 0.00000E+00
 -1      1110 1.15477E+02 2.44301E+01 0.00000E+00
 -1      1111 1.26044E+02 2.51654E+01 0.00000E+00
 -1      1112 0.00000E+00 4.85250E+01 0.00000E+00
 -1      1113 0.00000E+00 4.55750E+01 0.00000E+00
 -1      1114 0.00000E+00 4.26250E+01 0.00000E+00
 -1      1115 0.00000E+00 3.96750E+01 0.00000E+00
 -1      1116 0.00000E+00 3.67250E+01 0.00000E+00
 -1      1117 0.00000E+00 3.38000E+01 0.00000E+00
 -1      1118 0.00000E+00 3.08750E+01 0.00000E+00
 -1      1119 0.00000E+00 2.79250E+01 0.00000E+00
 -1      1120 0.00000E+00 2.49750E+01 0.00000E+00
 -1      1121 0.00000E+00 2.20250E+01 0.00000E+00
 -1      1122 0.00000E+00 1.90750E+01 0.00000E+00
 -1      1123 0.00000E+00 1.61500E+01 0.00000E+00
 -1      1124 0.00000E+00 1.32250E+01 0.00000E+00
 -1      1125 0.00000E+00 1.02750E+01 0.00000E+00
 -1      1126 0.00000E+00 7.32500E+00 0.00000E+00
 -1      1127 0.00000E+00 4.37500E+00 0.00000E+00
 -1      1128 0.00000E+00 1.45000E+00 0.00000E+00
 -1      1129 1.57500E+00 5.00000E+01 0.00000E+00
 -1      1130 4.65000E+00 5.00000E+01 0.00000E+00
 -1      1131 7.65000E+00 5.00000E+01 0.00000E+00
 -1      1132 1.06500E+01 5.00000E+01 0.00000E+00
 -1      1133 1.36500E+01 5.00000E+01 0.00000E+00
 -1      1134 1.66500E+01 5.00000E+01 0.00000E+00
 -1      1135 1.96500E+01 5.00000E+01 0.00000E+00
 -1      1136 2.26500E+01 5.00000E+01 0.00000E+00
 -1      1137 2.56500E+01 5.00000E+01 0.00000E+00
 -1      1138 2.86500E+01 5.00000E+01 0.00000E+00
 -1      1139 3.16500E+01 5.00000E+01 0.00000E+00
 -1      1140 3.46500E+01 5.00000E+01 0.00000E+00
 -1      1141 3.76500E+01 5.00000E+01 0.00000E+00
 -1      1142 4.06500E+01 5.00000E+01 0.00000E+00
 -1      1143 4.36500E+01 5.00000E+01 0.00000E+00
 -1      1144 4.66500E+01 5.00000E+01 0.00000E+00
 -1      1145 4.96500E+01 5.00000E+01 0.00000E+00
 -1      1146 5.26500E+01 5.00000E+01 0.00000E+00
 -1      1147 5.56500E+01 5.00000E+01 0.00000E+00
 -1      1148 5.86500E+01 5.00000E+01 0.00000E+00
 -1      1149 6.16500E+01 5.00000E+01 0.00000E+00
 -1      1150 6.46500E+01 5.00000E+01 0.00000E+00
 -1      1151 6.76500E+01 5.00000E+01 0.00000E+00
 -1      1152 7.06500E+01 5.00000E+01 0.00000E+00
 -1      1153 7.36500E+01 5.00000E+01 0.00000E+00
 -1      1154 7.66500E+01 5.00000E+01 0.00000E+00
 -1      1155 7.96500E+01 5.00000E+01 0.00000E+00
 -1      1156 8.26500E+01 5.00000E+01 0.00000E+00
 -1      1157 8.56500E+01 5.00000E+01 0.00000E+00
 -1      1158 8.86500E+01 5.00000E+01 0.00000E+00
 -1      1159 9.16500E+01 5.00000E+01 0.00000E+00
 -1      1160 9.46500E+01 5.00000E+01 0.00000E+00
 -1      1161 9.76500E+01 5.00000E+01 0.00000E+00
 -1      1162 1.00650E+02 5.00000E+01 0.00000E+00
 -1      1163 1.03650E+02 5.00000E+01 0.00000E+00
 -1      1164 1.06650E+02 5.00000E+01 0.00000E+00
 -1      1165 1.09650E+02 5.00000E+01 0.00000E+00
 -1      1166 1.12650E+02 5.00000E+01 0.00000E+00
 -1      1167 1.15650E+02 5.00000E+01 0.00000E+00
 -1      1168 1.18650E+02 5.00000E+01 0.00000E+00
 -1      1169 1.21650E+02 5.00000E+01 0.00000E+00
 -1      1170 1.24650E+02 5.00000E+01 0.00000E+00
 -1      1171 1.27650E+02 5.00000E+01 0.00000E+00
 -1      1172 1.30650E+02 5.00000E+01 0.00000E+00
 -1      1173 1.33650E+02 5.00000E+01 0.00000E+00
 -1      1174 1.36650E+02 5.00000E+01 0.00000E+00
 -1      1175 1.39650E+02 5.00000E+01 0.00000E+00
 -1      1176 1.42650E+02 5.00000E+01 0.00000E+00
 -1      1177 1.45650E+02 5.00000E+01 0.00000E+00
 -1      1178 1.48575E+02 5.00000E+01 0.00000E+00
 -1      1179 1.57500E+00 0.00000E+00 0.00000E+00
 -1      1180 4.65000E+00 0.00000E+00 0.00000E+00
 -1      1181 7.65000E+00 0.00000E+00 0.00000E+00
 -1      1182 1.06500E+01 0.00000E+00 0.00000E+00
 -1      1183 1.36500E+01 0.00000E+00 0.00000E+00
 -1      1184 1.66500E+01 0.00000E+00 0.00000E+00
 -1      1185 1.96500E+01 0.00000E+00 0.00000E+00
 -1      1186 2.26500E+01 0.00000E+00 0.00000E+00
 -1      1187 2.56500E+01 0.00000E+00 0.00000E+00
 -1      1188 2.86500E+01 0.00000E+00 0.00000E+00
 -1      1189 3.16500E+01 0.00000E+00 0.00000E+00
 -1      1190 3.46500E+01 0.00000E+00 0.00000E+00
 -1      1191 3.76500E+01 0.00000E+00 0.00000E+00
 -1      1192 4.06500E+01 0.00000E+00 0.00000E+00
 -1      1193 4.36500E+01 0.00000E+00 0.00000E+00
 -1      1194 4.66500E+01 0.00000E+00 0.00000E+00
 -1      1195 4.96500E+01 0.00000E+00 0.00000E+00
 -1      1196 5.26500E+01 0.00000E+00 0.00000E+00
 -1      1197 5.56500E+01 0.00000E+00 0.00000E+00
 -1      1198 5.86500E+01 0.00000E+00 0.00000E+00
 -1      1199 6.16500E+01 0.00000E+00 0.00000E+00
 -1      1200 6.46500E+01 0.00000E+00 0.00000E+00
 -1      1201 6.76500E+01 0.00000E+00 0.00000E+00
 -1      1202 7.06500E+01 0.00000E+00 0.00000E+00
 -1      1203 7.36500E+01 0.00000E+00 0.00000E+00
 -1      1204 7.66500E+01 0.00000E+00 0.00000E+00
 -1      1205 7.96500E+01 0.00000E+00 0.00000E+00
 -1      1206 8.26500E+01 0.00000E+00 0.00000E+00
 -1      1207 8.56500E+01 0.00000E+00 0.00000E+00
 -1      1208 8.86500E+01 0.00000E+00 0.00000E+00
 -1      1209 9.16500E+01 0.00000E+00 0.00000E+00
 -1      1210 9.46500E+01 0.00000E+00 0.00000E+00
 -1      1211 9.76500E+01 0.00000E+00 0.00000E+00
 -1      1212 1.00650E+02 0.00000E+00 0.00000E+00
 -1      1213 1.03650E+02 0.00000E+00 0.00000E+00
 -1      1214 1.06650E+02 0.00000E+00 0.00000E+00
 -1      1215 1.09650E+02 0.00000E+00 0.00000E+00
 -1      1216 1.12650E+02 0.00000E+00 0.00000E+00
 -1      1217 1.15650E+02 0.00000E+00 0.00000E+00
 -1      1218 1.18650E+02 0.00000E+00 0.00000E+00
 -1      1219 1.21650E+02 0.00000E+00 0.00000E+00
 -1      1220 1.24650E+02 0.00000E+00 0.00000E+00
 -1      1221 1.27650E+02 0.00000E+00 0.00000E+00
 -1      1222 1.30650E+02 0.00000E+00 0.00000E+00
 -1      1223 1.33650E+02 0.00000E+00 0.00000E+00
 -1      1224 1.36650E+02 0.00000E+00 0.00000E+00
 -1      1225 1.39650E+02 0.00000E+00 0.00000E+00
 -1      1226 1.42650E+02 0.00000E+00 0.00000E+00
 -1      1227 1.45650E+02 0.00000E+00 0.00000E+00
 -1      1228 1.48575E+02 0.00000E+00 0.00000E+00
 -1      1229 1.50000E+02 1.47500E+00 0.00000E+00
 -1      1230 1.50000E+02 4.42500E+00 0.00000E+00
 -1      1231 1.50000E+02 7.37500E+00 0.00000E+00
 -1      1232 1.50000E+02 1.03250E+01 0.00000E+00
 -1      1233 1.50000E+02 1.32750E+01 0.00000E+00
 -1      1234 1.50000E+02 1.62000E+01 0.00000E+00
 -1      1235 1.50000E+02 1.91250E+01 0.00000E+00
 -1      1236 1.50000E+02 2.20750E+01 0.00000E+00
 -1      1237 1.50000E+02 2.50250E+01 0.00000E+00
 -1      1238 1.50000E+02 2.79750E+01 0.00000E+00
 -1      1239 1.50000E+02 3.09250E+01 0.00000E+00
 -1      1240 1.50000E+02 3.38500E+01 0.00000E+00
 -1      1241 1.50000E+02 3.67750E+01 0.00000E+00
 -1      1242 1.50000E+02 3.97250E+01 0.00000E+00
 -1      1243 1.50000E+02 4.26750E+01 0.00000E+00
 -1      1244 1.50000E+02 4.56250E+01 0.00000E+00
 -1      1245 1.50000E+02 4.85500E+01 0.00000E+00
 -1      1246 9.07504E+01 2.04717E+01 0.00000E+00
 -1      1247 9.04310E+01 1.90281E+01 0.00000E+00
 -1      1248 8.98120E+01 1.76780E+01 0.00000E+00
 -1      1249 8.89031E+01 1.64684E+01 0.00000E+00
 -1      1250 8.77789E+01 1.54987E+01 0.00000E+00
 -1      1251 8.64244E+01 1.47667E+01 0.00000E+00
 -1      1252 8.49823E+01 1.43554E+01 0.00000E+00
 -1      1253 8.34751E+01 1.42611E+01 0.00000E+00
 -1      1254 8.19208E+01 1.45092E+01 0.00000E+00
 -1      1255 8.05246E+01 1.50644E+01 0.00000E+00
 -1      1256 7.92894E+01 1.58960E+01 0.00000E+00
 -1      1257 7.82383E+01 1.69957E+01 0.00000E+00
 -1      1258 7.74619E+01 1.82703E+01 0.00000E+00
 -1      1259 7.69647E+01 1.97184E+01 0.00000E+00
 -1      1260 7.67943E+01 2.12927E+01 0.00000E+00
 -1      1261 7.69690E+01 2.28081E+01 0.00000E+00
 -1      1262 7.74781E+01 2.42714E+01 0.00000E+00
 -1      1263 7.83008E+01 2.55923E+01 0.00000E+00
 -1      1264 7.93883E+01 2.66933E+01 0.00000E+00
 -1      1265 8.06790E+01 2.75224E+01 0.00000E+00
 -1      1266 8.21576E+01 2.80598E+01 0.00000E+00
 -1      1267 8.37450E+01 2.82537E+01 0.00000E+00
 -1      1268 8.52281E+01 2.81054E+01 0.00000E+00
 -1      1269 8.66232E+01 2.76567E+01 0.00000E+00
 -1      1270 8.79036E+01 2.69207E+01 0.00000E+00
 -1      1271 8.90078E+01 2.59249E+01 0.00000E+00
 -1      1272 8.98739E+01 2.47234E+01 0.00000E+00
 -1      1273 9.04576E+01 2.33986E+01 0.00000E+00
 -1      1274 9.07553E+01 2.19907E+01 0.00000E+00
 -1      1275 1.57500E+00 4.85250E+01 0.00000E+00
 -1      1276 1.29900E+00 4.48375E+01 0.00000E+00
 -1      1277 1.29900E+00 4.63125E+01 0.00000E+00
 -1      1278 1.29900E+00 4.18875E+01 0.00000E+00
 -1      1279 1.29900E+00 4.33625E+01 0.00000E+00
 -1      1280 2.59800E+00 4.41000E+01 0.00000E+00
 -1      1281 1.29900E+00 3.89375E+01 0.00000E+00
 -1      1282 1.29900E+00 4.04125E+01 0.00000E+00
 -1      1283 2.59800E+00 4.11500E+01 0.00000E+00
 -1      1284 1.29900E+00 3.59875E+01 0.00000E+00
 -1      1285 1.29900E+00 3.74625E+01 0.00000E+00
 -1      1286 2.59800E+00 3.82000E+01 0.00000E+00
 -1      1287 1.29900E+00 3.30875E+01 0.00000E+00
 -1      1288 1.29900E+00 3.45375E+01 0.00000E+00
 -1      1289 2.59800E+00 3.52750E+01 0.00000E+00
 -1      1290 1.29900E+00 3.01375E+01 0.00000E+00
 -1      1291 1.29900E+00 3.16125E+01 0.00000E+00
 -1      1292 2.59800E+00 3.23500E+01 0.00000E+00
 -1      1293 1.29900E+00 2.71875E+01 0.00000E+00
 -1      1294 1.29900E+00 2.86625E+01 0.00000E+00
 -1      1295 2.59800E+00 2.94000E+01 0.00000E+00
 -1      1296 1.29900E+00 2.42375E+01 0.00000E+00
 -1      1297 1.29900E+00 2.57125E+01 0.00000E+00
 -1      1298 2.59800E+00 2.64500E+01 0.00000E+00
 -1      1299 1.29900E+00 2.12875E+01 0.00000E+00
 -1      1300 1.29900E+00 2.27625E+01 0.00000E+00
 -1      1301 2.59800E+00 2.35000E+01 0.00000E+00
 -1      1302 1.29900E+00 1.83375E+01 0.00000E+00
 -1      1303 1.29900E+00 1.98125E+01 0.00000E+00
 -1      1304 2.59800E+00 2.05500E+01 0.00000E+00
 -1      1305 1.29900E+00 1.54375E+01 0.00000E+00
 -1      1306 1.29900E+00 1.68875E+01 0.00000E+00
 -1      1307 2.59800E+00 1.76250E+01 0.00000E+00
 -1      1308 1.29900E+00 1.24875E+01 0.00000E+00
 -1      1309 1.29900E+00 1.39625E+01 0.00000E+00
 -1      1310 2.59800E+00 1.47000E+01 0.00000E+00
 -1      1311 1.29900E+00 9.53750E+00 0.00000E+00
 -1      1312 1.29900E+00 1.10125E+01 0.00000E+00
 -1      1313 2.59800E+00 1.17500E+01 0.00000E+00
 -1      1314 1.29900E+00 6.58750E+00 0.00000E+00
 -1      1315 1.29900E+00 8.06250E+00 0.00000E+00
 -1      1316 2.59800E+00 8.80000E+00 0.00000E+00
 -1      1317 1.29900E+00 3.63750E+00 0.00000E+00
 -1      1318 1.29900E+00 5.11250E+00 0.00000E+00
 -1      1319 2.59800E+00 5.85000E+00 0.00000E+00
 -1      1320 1.43700E+00 1.09375E+00 0.00000E+00
 -1      1321 1.43700E+00 2.54375E+00 0.00000E+00
 -1      1322 2.73600E+00 3.28125E+00 0.00000E+00
 -1      1323 3.01200E+00 1.09375E+00 0.00000E+00
 -1      1324 3.90000E+00 4.87010E+01 0.00000E+00
 -1      1325 5.40000E+00 4.87010E+01 0.00000E+00
 -1      1326 6.90000E+00 4.87010E+01 0.00000E+00
 -1      1327 8.40000E+00 4.87010E+01 0.00000E+00
 -1      1328 6.15000E+00 4.74020E+01 0.00000E+00
 -1      1329 9.90000E+00 4.87010E+01 0.00000E+00
 -1      1330 1.14000E+01 4.87010E+01 0.00000E+00
 -1      1331 9.15000E+00 4.74020E+01 0.00000E+00
 -1      1332 1.29000E+01 4.87010E+01 0.00000E+00
 -1      1333 1.44000E+01 4.87010E+01 0.00000E+00
 -1      1334 1.21500E+01 4.74020E+01 0.00000E+00
 -1      1335 1.59000E+01 4.87010E+01 0.00000E+00
 -1      1336 1.74000E+01 4.87010E+01 0.00000E+00
 -1      1337 1.51500E+01 4.74020E+01 0.00000E+00
 -1      1338 1.89000E+01 4.87010E+01 0.00000E+00
 -1      1339 2.04000E+01 4.87010E+01 0.00000E+00
 -1      1340 1.81500E+01 4.74020E+01 0.00000E+00
 -1      1341 2.19000E+01 4.87010E+01 0.00000E+00
 -1      1342 2.34000E+01 4.87010E+01 0.00000E+00
 -1      1343 2.11500E+01 4.74020E+01 0.00000E+00
 -1      1344 2.49000E+01 4.87010E+01 0.00000E+00
 -1      1345 2.64000E+01 4.87010E+01 0.00000E+00
 -1      1346 2.41500E+01 4.74020E+01 0.00000E+00
 -1      1347 2.79000E+01 4.87010E+01 0.00000E+00
 -1      1348 2.94000E+01 4.87010E+01 0.00000E+00
 -1      1349 2.71500E+01 4.74020E+01 0.00000E+00
 -1      1350 3.09000E+01 4.87010E+01 0.00000E+00
 -1      1351 3.24000E+01 4.87010E+01 0.00000E+00
 -1      1352 3.01500E+01 4.74020E+01 0.00000E+00
 -1      1353 3.39000E+01 4.87010E+01 0.00000E+00
 -1      1354 3.54000E+01 4.87010E+01 0.00000E+00
 -1      1355 3.31500E+01 4.74020E+01 0.00000E+00
 -1      1356 3.69000E+01 4.87010E+01 0.00000E+00
 -1      1357 3.84000E+01 4.87010E+01 0.00000E+00
 -1      1358 3.61500E+01 4.74020E+01 0.00000E+00
 -1      1359 3.99000E+01 4.87010E+01 0.00000E+00
 -1      1360 4.14000E+01 4.87010E+01 0.00000E+00
 -1      1361 3.91500E+01 4.74020E+01 0.00000E+00
 -1      1362 4.29000E+01 4.87010E+01 0.00000E+00
 -1      1363 4.44000E+01 4.87010E+01 0.00000E+00
 -1      1364 4.21500E+01 4.74020E+01 0.00000E+00
 -1      1365 4.59000E+01 4.87010E+01 0.00000E+00
 -1      1366 4.74000E+01 4.87010E+01 0.00000E+00
 -1      1367 4.51500E+01 4.74020E+01 0.00000E+00
 -1      1368 4.89000E+01 4.87010E+01 0.00000E+00
 -1      1369 5.04000E+01 4.87010E+01 0.00000E+00
 -1      1370 4.81500E+01 4.74020E+01 0.00000E+00
 -1      1371 5.19000E+01 4.87010E+01 0.00000E+00
 -1      1372 5.34000E+01 4.87010E+01 0.00000E+00
 -1      1373 5.11500E+01 4.74020E+01 0.00000E+00
 -1      1374 5.49000E+01 4.87010E+01 0.00000E+00
 -1      1375 5.64000E+01 4.87010E+01 0.00000E+00
 -1      1376 5.41500E+01 4.74020E+01 0.00000E+00
 -1      1377 5.79000E+01 4.87010E+01 0.00000E+00
 -1      1378 5.94000E+01 4.87010E+01 0.00000E+00
 -1      1379 5.71500E+01 4.74020E+01 0.00000E+00
 -1      1380 6.09000E+01 4.87010E+01 0.00000E+00
 -1      1381 6.24000E+01 4.87010E+01 0.00000E+00
 -1      1382 6.01500E+01 4.74020E+01 0.00000E+00
 -1      1383 6.39000E+01 4.87010E+01 0.00000E+00
 -1      1384 6.54000E+01 4.87010E+01 0.00000E+00
 -1      1385 6.31500E+01 4.74020E+01 0.00000E+00
 -1      1386 6.69000E+01 4.87010E+01 0.00000E+00
 -1      1387 6.84000E+01 4.87010E+01 0.00000E+00
 -1      1388 6.61500E+01 4.74020E+01 0.00000E+00
 -1      1389 6.99000E+01 4.87010E+01 0.00000E+00
 -1      1390 7.14000E+01 4.87010E+01 0.00000E+00
 -1      1391 6.91500E+01 4.74020E+01 0.00000E+00
 -1      1392 7.29000E+01 4.87010E+01 0.00000E+00
 -1      1393 7.44000E+01 4.87010E+01 0.00000E+00
 -1      1394 7.21500E+01 4.74020E+01 0.00000E+00
 -1      1395 7.59000E+01 4.87010E+01 0.00000E+00
 -1      1396 7.74000E+01 4.87010E+01 0.00000E+00
 -1      1397 7.51500E+01 4.74020E+01 0.00000E+00
 -1      1398 7.89000E+01 4.87010E+01 0.00000E+00
 -1      1399 8.04000E+01 4.87010E+01 0.00000E+00
 -1      1400 7.81500E+01 4.74020E+01 0.00000E+00
 -1      1401 8.19000E+01 4.87010E+01 0.00000E+00
 -1      1402 8.34000E+01 4.87010E+01 0.00000E+00
 -1      1403 8.11500E+01 4.74020E+01 0.00000E+00
 -1      1404 8.49000E+01 4.87010E+01 0.00000E+00
 -1      1405 8.64000E+01 4.87010E+01 0.00000E+00
 -1      1406 8.41500E+01 4.74020E+01 0.00000E+00
 -1      1407 8.79000E+01 4.87010E+01 0.00000E+00
 -1      1408 8.94000E+01 4.87010E+01 0.00000E+00
 -1      1409 8.71500E+01 4.74020E+01 0.00000E+00
 -1      1410 9.09000E+01 4.87010E+01 0.00000E+00
 -1      1411 9.24000E+01 4.87010E+01 0.00000E+00
 -1      1412 9.01500E+01 4.74020E+01 0.00000E+00
 -1      1413 9.39000E+01 4.87010E+01 0.00000E+00
 -1      1414 9.54000E+01 4.87010E+01 0.00000E+00
 -1      1415 9.31500E+01 4.74020E+01 0.00000E+00
 -1      1416 9.69000E+01 4.87010E+01 0.00000E+00
 -1      1417 9.84000E+01 4.87010E+01 0.00000E+00
 -1      1418 9.61500E+01 4.74020E+01 0.00000E+00
 -1      1419 9.99000E+01 4.87010E+01 0.00000E+00
 -1      1420 1.01400E+02 4.87010E+01 0.00000E+00
 -1      1421 9.91500E+01 4.74020E+01 0.00000E+00
 -1      1422 1.02900E+02 4.87010E+01 0.00000E+00
 -1      1423 1.04400E+02 4.87010E+01 0.00000E+00
 -1      1424 1.02150E+02 4.74020E+01 0.00000E+00
 -1      1425 1.05900E+02 4.87010E+01 0.00000E+00
 -1      1426 1.07400E+02 4.87010E+01 0.00000E+00
 -1      1427 1.05150E+02 4.74020E+01 0.00000E+00
 -1      1428 1.08900E+02 4.87010E+01 0.00000E+00
 -1      1429 1.10400E+02 4.87010E+01 0.00000E+00
 -1      1430 1.08150E+02 4.74020E+01 0.00000E+00
 -1      1431 1.11900E+02 4.87010E+01 0.00000E+00
 -1      1432 1.13400E+02 4.87010E+01 0.00000E+00
 -1      1433 1.11150E+02 4.74020E+01 0.00000E+00
 -1      1434 1.14900E+02 4.87010E+01 0.00000E+00
 -1      1435 1.16400E+02 4.87010E+01 0.00000E+00
 -1      1436 1.14150E+02 4.74020E+01 0.00000E+00
 -1      1437 1.17900E+02 4.87010E+01 0.00000E+00
 -1      1438 1.19400E+02 4.87010E+01 0.00000E+00
 -1      1439 1.17150E+02 4.74020E+01 0.00000E+00
 -1      1440 1.20900E+02 4.87010E+01 0.00000E+00
 -1      1441 1.22400E+02 4.87010E+01 0.00000E+00
 -1      1442 1.20150E+02 4.74020E+01 0.00000E+00
 -1      1443 1.23900E+02 4.87010E+01 0.00000E+00
 -1      1444 1.25400E+02 4.87010E+01 0.00000E+00
 -1      1445 1.23150E+02 4.74020E+01 0.00000E+00
 -1      1446 1.26900E+02 4.87010E+01 0.00000E+00
 -1      1447 1.28400E+02 4.87010E+01 0.00000E+00
 -1      1448 1.26150E+02 4.74020E+01 0.00000E+00
 -1      1449 1.29900E+02 4.87010E+01 0.00000E+00
 -1      1450 1.31400E+02 4.87010E+01 0.00000E+00
 -1      1451 1.29150E+02 4.74020E+01 0.00000E+00
 -1      1452 1.32900E+02 4.87010E+01 0.00000E+00
 -1      1453 1.34400E+02 4.87010E+01 0.00000E+00
 -1      1454 1.32150E+02 4.74020E+01 0.00000E+00
 -1      1455 1.35900E+02 4.87010E+01 0.00000E+00
 -1      1456 1.37400E+02 4.87010E+01 0.00000E+00
 -1      1457 1.35150E+02 4.74020E+01 0.00000E+00
 -1      1458 1.38900E+02 4.87010E+01 0.00000E+00
 -1      1459 1.40400E+02 4.87010E+01 0.00000E+00
 -1      1460 1.38150E+02 4.74020E+01 0.00000E+00
 -1      1461 1.41900E+02 4.87010E+01 0.00000E+00
 -1      1462 1.43400E+02 4.87010E+01 0.00000E+00
 -1      1463 1.41150E+02 4.74020E+01 0.00000E+00
 -1      1464 1.44900E+02 4.87010E+01 0.00000E+00
 -1      1465 1.46400E+02 4.87010E+01 0.00000E+00
 -1      1466 1.44150E+02 4.74020E+01 0.00000E+00
 -1      1467 1.48575E+02 4.85500E+01 0.00000E+00
 -1      1468 1.47825E+02 4.72510E+01 0.00000E+00
 -1      1469 6.01200E+00 1.09375E+00 0.00000E+00
 -1      1470 4.51200E+00 1.09375E+00 0.00000E+00
 -1      1471 4.37400E+00 2.18750E+00 0.00000E+00
 -1      1472 9.01200E+00 1.09375E+00 0.00000E+00
 -1      1473 7.51200E+00 1.09375E+00 0.00000E+00
 -1      1474 7.37400E+00 2.18750E+00 0.00000E+00
 -1      1475 1.20120E+01 1.09375E+00 0.00000E+00
 -1      1476 1.05120E+01 1.09375E+00 0.00000E+00
 -1      1477 1.03740E+01 2.18750E+00 0.00000E+00
 -1      1478 1.50120E+01 1.09375E+00 0.00000E+00
 -1      1479 1.35120E+01 1.09375E+00 0.00000E+00
 -1      1480 1.33740E+01 2.18750E+00 0.00000E+00
 -1      1481 1.80120E+01 1.09375E+00 0.00000E+00
 -1      1482 1.65120E+01 1.09375E+00 0.00000E+00
 -1      1483 1.63740E+01 2.18750E+00 0.00000E+00
 -1      1484 2.10120E+01 1.09375E+00 0.00000E+00
 -1      1485 1.95120E+01 1.09375E+00 0.00000E+00
 -1      1486 1.93740E+01 2.18750E+00 0.00000E+00
 -1      1487 2.40120E+01 1.09375E+00 0.00000E+00
 -1      1488 2.25120E+01 1.09375E+00 0.00000E+00
 -1      1489 2.23740E+01 2.18750E+00 0.00000E+00
 -1      1490 2.70120E+01 1.09375E+00 0.00000E+00
 -1      1491 2.55120E+01 1.09375E+00 0.00000E+00
 -1      1492 2.53740E+01 2.18750E+00 0.00000E+00
 -1      1493 3.00120E+01 1.09375E+00 0.00000E+00
 -1      1494 2.85120E+01 1.09375E+00 0.00000E+00
 -1      1495 2.83740E+01 2.18750E+00 0.00000E+00
 -1      1496 3.30120E+01 1.09375E+00 0.00000E+00
 -1      1497 3.15120E+01 1.09375E+00 0.00000E+00
 -1      1498 3.13740E+01 2.18750E+00 0.00000E+00
 -1      1499 3.60120E+01 1.09375E+00 0.00000E+00
 -1      1500 3.45120E+01 1.09375E+00 0.00000E+00
 -1      1501 3.43740E+01 2.18750E+00 0.00000E+00
 -1      1502 3.90120E+01 1.09375E+00 0.00000E+00
 -1      1503 3.75120E+01 1.09375E+00 0.00000E+00
 -1      1504 3.73740E+01 2.18750E+00 0.00000E+00
 -1      1505 4.20120E+01 1.09375E+00 0.00000E+00
 -1      1506 4.05120E+01 1.09375E+00 0.00000E+00
 -1      1507 4.03740E+01 2.18750E+00 0.00000E+00
 -1      1508 4.50120E+01 1.09375E+00 0.00000E+00
 -1      1509 4.35120E+01 1.09375E+00 0.00000E+00
 -1      1510 4.33740E+01 2.18750E+00 0.00000E+00
 -1      1511 4.80120E+01 1.09375E+00 0.00000E+00
 -1      1512 4.65120E+01 1.09375E+00 0.00000E+00
 -1      1513 4.63740E+01 2.18750E+00 0.00000E+00
 -1      1514 5.10120E+01 1.09375E+00 0.00000E+00
 -1      1515 4.95120E+01 1.09375E+00 0.00000E+00
 -1      1516 4.93740E+01 2.18750E+00 0.00000E+00
 -1      1517 5.40120E+01 1.09375E+00 0.00000E+00
 -1      1518 5.25120E+01 1.09375E+00 0.00000E+00
 -1      1519 5.23740E+01 2.18750E+00 0.00000E+00
 -1      1520 5.70120E+01 1.09375E+00 0.00000E+00
 -1      1521 5.55120E+01 1.09375E+00 0.00000E+00
 -1      1522 5.53740E+01 2.18750E+00 0.00000E+00
 -1      1523 6.00120E+01 1.09375E+00 0.00000E+00
 -1      1524 5.85120E+01 1.09375E+00 0.00000E+00
 -1      1525 5.83740E+01 2.18750E+00 0.00000E+00
 -1      1526 6.30120E+01 1.09375E+00 0.00000E+00
 -1      1527 6.15120E+01 1.09375E+00 0.00000E+00
 -1      1528 6.13740E+01 2.18750E+00 0.00000E+00
 -1      1529 6.60120E+01 1.09375E+00 0.00000E+00
 -1      1530 6.45120E+01 1.09375E+00 0.00000E+00
 -1      1531 6.43740E+01 2.18750E+00 0.00000E+00
 -1      1532 6.90120E+01 1.09375E+00 0.00000E+00
 -1      1533 6.75120E+01 1.09375E+00 0.00000E+00
 -1      1534 6.73740E+01 2.18750E+00 0.00000E+00
 -1      1535 7.20120E+01 1.09375E+00 0.00000E+00
 -1      1536 7.05120E+01 1.09375E+00 0.00000E+00
 -1      1537 7.03740E+01 2.18750E+00 0.00000E+00
 -1      1538 7.50120E+01 1.09375E+00 0.00000E+00
 -1      1539 7.35120E+01 1.09375E+00 0.00000E+00
 -1      1540 7.33740E+01 2.18750E+00 0.00000E+00
 -1      1541 7.80120E+01 1.09375E+00 0.00000E+00
 -1      1542 7.65120E+01 1.09375E+00 0.00000E+00
 -1      1543 7.63740E+01 2.18750E+00 0.00000E+00
 -1      1544 8.10120E+01 1.09375E+00 0.00000E+00
 -1      1545 7.95120E+01 1.09375E+00 0.00000E+00
 -1      1546 7.93740E+01 2.18750E+00 0.00000E+00
 -1      1547 8.40120E+01 1.09375E+00 0.00000E+00
 -1      1548 8.25120E+01 1.09375E+00 0.00000E+00
 -1      1549 8.23740E+01 2.18750E+00 0.00000E+00
 -1      1550 8.70120E+01 1.09375E+00 0.00000E+00
 -1      1551 8.55120E+01 1.09375E+00 0.00000E+00
 -1      1552 8.53740E+01 2.18750E+00 0.00000E+00
 -1      1553 9.00120E+01 1.09375E+00 0.00000E+00
 -1      1554 8.85120E+01 1.09375E+00 0.00000E+00
 -1      1555 8.83740E+01 2.18750E+00 0.00000E+00
 -1      1556 9.30120E+01 1.09375E+00 0.00000E+00
 -1      1557 9.15120E+01 1.09375E+00 0.00000E+00
 -1      1558 9.13740E+01 2.18750E+00 0.00000E+00
 -1      1559 9.60120E+01 1.09375E+00 0.00000E+00
 -1      1560 9.45120E+01 1.09375E+00 0.00000E+00
 -1      1561 9.43740E+01 2.18750E+00 0.00000E+00
 -1      1562 9.90120E+01 1.09375E+00 0.00000E+00
 -1      1563 9.75120E+01 1.09375E+00 0.00000E+00
 -1      1564 9.73740E+01 2.18750E+00 0.00000E+00
 -1      1565 1.02012E+02 1.09375E+00 0.00000E+00
 -1      1566 1.00512E+02 1.09375E+00 0.00000E+00
 -1      1567 1.00374E+02 2.18750E+00 0.00000E+00
 -1      1568 1.05012E+02 1.09375E+00 0.00000E+00
 -1      1569 1.03512E+02 1.09375E+00 0.00000E+00
 -1      1570 1.03374E+02 2.18750E+00 0.00000E+00
 -1      1571 1.08012E+02 1.09375E+00 0.00000E+00
 -1      1572 1.06512E+02 1.09375E+00 0.00000E+00
 -1      1573 1.06374E+02 2.18750E+00 0.00000E+00
 -1      1574 1.11012E+02 1.09375E+00 0.00000E+00
 -1      1575 1.09512E+02 1.09375E+00 0.00000E+00
 -1      1576 1.09374E+02 2.18750E+00 0.00000E+00
 -1      1577 1.14012E+02 1.09375E+00 0.00000E+00
 -1      1578 1.12512E+02 1.09375E+00 0.00000E+00
 -1      1579 1.12374E+02 2.18750E+00 0.00000E+00
 -1      1580 1.17012E+02 1.09375E+00 0.00000E+00
 -1      1581 1.15512E+02 1.09375E+00 0.00000E+00
 -1      1582 1.15374E+02 2.18750E+00 0.00000E+00
 -1      1583 1.20012E+02 1.09375E+00 0.00000E+00
 -1      1584 1.18512E+02 1.09375E+00 0.00000E+00
 -1      1585 1.18374E+02 2.18750E+00 0.00000E+00
 -1      1586 1.23012E+02 1.09375E+00 0.00000E+00
 -1      1587 1.21512E+02 1.09375E+00 0.00000E+00
 -1      1588 1.21374E+02 2.18750E+00 0.00000E+00
 -1      1589 1.26012E+02 1.09375E+00 0.00000E+00
 -1      1590 1.24512E+02 1.09375E+00 0.00000E+00
 -1      1591 1.24374E+02 2.18750E+00 0.00000E+00
 -1      1592 1.29012E+02 1.09375E+00 0.00000E+00
 -1      1593 1.27512E+02 1.09375E+00 0.00000E+00
 -1      1594 1.27374E+02 2.18750E+00 0.00000E+00
 -1      1595 1.32012E+02 1.09375E+00 0.00000E+00
 -1      1596 1.30512E+02 1.09375E+00 0.00000E+00
 -1      1597 1.30374E+02 2.18750E+00 0.00000E+00
 -1      1598 1.35012E+02 1.09375E+00 0.00000E+00
 -1      1599 1.33512E+02 1.09375E+00 0.00000E+00
 -1      1600 1.33374E+02 2.18750E+00 0.00000E+00
 -1      1601 1.38012E+02 1.09375E+00 0.00000E+00
 -1      1602 1.36512E+02 1.09375E+00 0.00000E+00
 -1      1603 1.36374E+02 2.18750E+00 0.00000E+00
 -1      1604 1.41012E+02 1.09375E+00 0.00000E+00
 -1      1605 1.39512E+02 1.09375E+00 0.00000E+00
 -1      1606 1.39374E+02 2.18750E+00 0.00000E+00
 -1      1607 1.44012E+02 1.09375E+00 0.00000E+00
 -1      1608 1.42512E+02 1.09375E+00 0.00000E+00
 -1      1609 1.42374E+02 2.18750E+00 0.00000E+00
 -1      1610 1.47012E+02 1.09375E+00 0.00000E+00
 -1      1611 1.45512E+02 1.09375E+00 0.00000E+00
 -1      1612 1.45374E+02 2.18750E+00 0.00000E+00
 -1      1613 1.48575E+02 1.47500E+00 0.00000E+00
 -1      1614 1.48701E+02 5.16250E+00 0.00000E+00
 -1      1615 1.48701E+02 3.68750E+00 0.00000E+00
 -1      1616 1.48701E+02 8.11250E+00 0.00000E+00
 -1      1617 1.48701E+02 6.63750E+00 0.00000E+00
 -1      1618 1.47402E+02 5.90000E+00 0.00000E+00
 -1      1619 1.48701E+02 1.10625E+01 0.00000E+00
 -1      1620 1.48701E+02 9.58750E+00 0.00000E+00
 -1      1621 1.47402E+02 8.85000E+00 0.00000E+00
 -1      1622 1.48701E+02 1.40125E+01 0.00000E+00
 -1      1623 1.48701E+02 1.25375E+01 0.00000E+00
 -1      1624 1.47402E+02 1.18000E+01 0.00000E+00
 -1      1625 1.48701E+02 1.69125E+01 0.00000E+00
 -1      1626 1.48701E+02 1.54625E+01 0.00000E+00
 -1      1627 1.47402E+02 1.47250E+01 0.00000E+00
 -1      1628 1.48701E+02 1.98625E+01 0.00000E+00
 -1      1629 1.48701E+02 1.83875E+01 0.00000E+00
 -1      1630 1.47402E+02 1.76500E+01 0.00000E+00
 -1      1631 1.48701E+02 2.28125E+01 0.00000E+00
 -1      1632 1.48701E+02 2.13375E+01 0.00000E+00
 -1      1633 1.47402E+02 2.06000E+01 0.00000E+00
 -1      1634 1.48701E+02 2.57625E+01 0.00000E+00
 -1      1635 1.48701E+02 2.42875E+01 0.00000E+00
 -1      1636 1.47402E+02 2.35500E+01 0.00000E+00
 -1      1637 1.48701E+02 2.87125E+01 0.00000E+00
 -1      1638 1.48701E+02 2.72375E+01 0.00000E+00
 -1      1639 1.47402E+02 2.65000E+01 0.00000E+00
 -1      1640 1.48701E+02 3.16625E+01 0.00000E+00
 -1      1641 1.48701E+02 3.01875E+01 0.00000E+00
 -1      1642 1.47402E+02 2.94500E+01 0.00000E+00
 -1      1643 1.48701E+02 3.45625E+01 0.00000E+00
 -1      1644 1.48701E+02 3.31125E+01 0.00000E+00
 -1      1645 1.47402E+02 3.23750E+01 0.00000E+00
 -1      1646 1.48701E+02 3.75125E+01 0.00000E+00
 -1      1647 1.48701E+02 3.60375E+01 0.00000E+00
 -1      1648 1.47402E+02 3.53000E+01 0.00000E+00
 -1      1649 1.48701E+02 4.04625E+01 0.00000E+00
 -1      1650 1.48701E+02 3.89875E+01 0.00000E+00
 -1      1651 1.47402E+02 3.82500E+01 0.00000E+00
 -1      1652 1.48701E+02 4.34125E+01 0.00000E+00
 -1      1653 1.48701E+02 4.19375E+01 0.00000E+00
 -1      1654 1.47402E+02 4.12000E+01 0.00000E+00
 -1      1655 1.48263E+02 4.60692E+01 0.00000E+00
 -1      1656 1.48263E+02 4.45942E+01 0.00000E+00
 -1      1657 1.46964E+02 4.38568E+01 0.00000E+00
 -1      1658 1.46088E+02 4.62202E+01 0.00000E+00
 -1      1659 9.13488E+01 2.00108E+01 0.00000E+00
 -1      1660 9.14362E+01 2.07881E+01 0.00000E+00
 -1      1661 9.08621E+01 1.85163E+01 0.00000E+00
 -1      1662 9.10835E+01 1.91765E+01 0.00000E+00
 -1      1663 9.01654E+01 1.70093E+01 0.00000E+00
 -1      1664 9.05683E+01 1.76874E+01 0.00000E+00
 -1      1665 8.91011E+01 1.57868E+01 0.00000E+00
 -1      1666 8.95962E+01 1.63154E+01 0.00000E+00
 -1      1667 8.78117E+01 1.47835E+01 0.00000E+00
 -1      1668 8.84369E+01 1.52163E+01 0.00000E+00
 -1      1669 8.62746E+01 1.40989E+01 0.00000E+00
 -1      1670 8.69969E+01 1.43917E+01 0.00000E+00
 -1      1671 8.47240E+01 1.37335E+01 0.00000E+00
 -1      1672 8.54337E+01 1.38557E+01 0.00000E+00
 -1      1673 8.30530E+01 1.36764E+01 0.00000E+00
 -1      1674 8.38421E+01 1.36404E+01 0.00000E+00
 -1      1675 8.13814E+01 1.40321E+01 0.00000E+00
 -1      1676 8.21369E+01 1.38223E+01 0.00000E+00
 -1      1677 7.99410E+01 1.47289E+01 0.00000E+00
 -1      1678 8.05763E+01 1.43933E+01 0.00000E+00
 -1      1679 7.86318E+01 1.57125E+01 0.00000E+00
 -1      1680 7.92215E+01 1.52166E+01 0.00000E+00
 -1      1681 7.75609E+01 1.69495E+01 0.00000E+00
 -1      1682 7.80175E+01 1.63536E+01 0.00000E+00
 -1      1683 7.67911E+01 1.83643E+01 0.00000E+00
 -1      1684 7.71072E+01 1.76933E+01 0.00000E+00
 -1      1685 7.62485E+01 1.99618E+01 0.00000E+00
 -1      1686 7.64216E+01 1.91918E+01 0.00000E+00
 -1      1687 7.60680E+01 2.16939E+01 0.00000E+00
 -1      1688 7.60636E+01 2.08996E+01 0.00000E+00
 -1      1689 7.64964E+01 2.32907E+01 0.00000E+00
 -1      1690 7.63341E+01 2.25778E+01 0.00000E+00
 -1      1691 7.69995E+01 2.49534E+01 0.00000E+00
 -1      1692 7.66468E+01 2.42152E+01 0.00000E+00
 -1      1693 7.80843E+01 2.62334E+01 0.00000E+00
 -1      1694 7.76270E+01 2.56542E+01 0.00000E+00
 -1      1695 7.92982E+01 2.74478E+01 0.00000E+00
 -1      1696 7.86690E+01 2.69382E+01 0.00000E+00
 -1      1697 8.07502E+01 2.81928E+01 0.00000E+00
 -1      1698 8.01016E+01 2.78704E+01 0.00000E+00
 -1      1699 8.24014E+01 2.88611E+01 0.00000E+00
 -1      1700 8.15761E+01 2.86627E+01 0.00000E+00
 -1      1701 8.41158E+01 2.88640E+01 0.00000E+00
 -1      1702 8.33656E+01 2.88588E+01 0.00000E+00
 -1      1703 8.57065E+01 2.85845E+01 0.00000E+00
 -1      1704 8.49820E+01 2.87361E+01 0.00000E+00
 -1      1705 8.71847E+01 2.80302E+01 0.00000E+00
 -1      1706 8.65213E+01 2.83233E+01 0.00000E+00
 -1      1707 8.85645E+01 2.71920E+01 0.00000E+00
 -1      1708 8.79561E+01 2.76332E+01 0.00000E+00
 -1      1709 8.96758E+01 2.60296E+01 0.00000E+00
 -1      1710 8.91851E+01 2.65774E+01 0.00000E+00
 -1      1711 9.05869E+01 2.47011E+01 0.00000E+00
 -1      1712 9.02174E+01 2.53487E+01 0.00000E+00
 -1      1713 9.11086E+01 2.32394E+01 0.00000E+00
 -1      1714 9.08935E+01 2.39077E+01 0.00000E+00
 -1      1715 9.13999E+01 2.16885E+01 0.00000E+00
 -1      1716 9.13224E+01 2.24213E+01 0.00000E+00
 -1      1717 8.91574E+01 1.50375E+01 0.00000E+00
 -1      1718 9.03908E+01 1.63019E+01 0.00000E+00
 -1      1719 1.48437E+02 2.56875E+00 0.00000E+00
 -1      1720 1.47138E+02 3.30625E+00 0.00000E+00
 -1      1721 9.18128E+01 1.94880E+01 0.00000E+00
 -1      1722 9.12538E+01 1.78247E+01 0.00000E+00
 -1      1723 9.20419E+01 2.12227E+01 0.00000E+00
 -1      1724 8.76784E+01 1.40753E+01 0.00000E+00
 -1      1725 8.60226E+01 1.34403E+01 0.00000E+00
 -1      1726 8.42999E+01 1.31041E+01 0.00000E+00
 -1      1727 8.25018E+01 1.31568E+01 0.00000E+00
 -1      1728 8.07806E+01 1.36639E+01 0.00000E+00
 -1      1729 7.92560E+01 1.45128E+01 0.00000E+00
 -1      1730 7.79223E+01 1.56417E+01 0.00000E+00
 -1      1731 7.68544E+01 1.70266E+01 0.00000E+00
 -1      1732 7.60313E+01 1.85979E+01 0.00000E+00
 -1      1733 7.54770E+01 2.03633E+01 0.00000E+00
 -1      1734 7.55581E+01 2.21849E+01 0.00000E+00
 -1      1735 7.59746E+01 2.39933E+01 0.00000E+00
 -1      1736 7.67525E+01 2.56187E+01 0.00000E+00
 -1      1737 7.79646E+01 2.70243E+01 0.00000E+00
 -1      1738 7.93527E+01 2.81518E+01 0.00000E+00
 -1      1739 8.09820E+01 2.90444E+01 0.00000E+00
 -1      1740 8.27720E+01 2.95119E+01 0.00000E+00
 -1      1741 8.46023E+01 2.93816E+01 0.00000E+00
 -1      1742 8.62832E+01 2.89925E+01 0.00000E+00
 -1      1743 8.78694E+01 2.83343E+01 0.00000E+00
 -1      1744 8.92614E+01 2.73227E+01 0.00000E+00
 -1      1745 9.04235E+01 2.60271E+01 0.00000E+00
 -1      1746 9.12715E+01 2.45527E+01 0.00000E+00
 -1      1747 9.17919E+01 2.29412E+01 0.00000E+00
 -1      1748 2.87400E+00 4.77875E+01 0.00000E+00
 -1      1749 3.89700E+00 4.04125E+01 0.00000E+00
 -1      1750 3.89700E+00 4.18875E+01 0.00000E+00
 -1      1751 3.89700E+00 4.33625E+01 0.00000E+00
 -1      1752 3.89700E+00 4.48375E+01 0.00000E+00
 -1      1753 5.19600E+00 4.26250E+01 0.00000E+00
 -1      1754 3.89700E+00 3.45500E+01 0.00000E+00
 -1      1755 3.89700E+00 3.60000E+01 0.00000E+00
 -1      1756 3.89700E+00 3.16000E+01 0.00000E+00
 -1      1757 3.89700E+00 3.30750E+01 0.00000E+00
 -1      1758 5.19600E+00 3.38000E+01 0.00000E+00
 -1      1759 3.89700E+00 2.86500E+01 0.00000E+00
 -1      1760 3.89700E+00 3.01250E+01 0.00000E+00
 -1      1761 5.19600E+00 3.08500E+01 0.00000E+00
 -1      1762 3.89700E+00 2.57000E+01 0.00000E+00
 -1      1763 3.89700E+00 2.71750E+01 0.00000E+00
 -1      1764 5.19600E+00 2.79000E+01 0.00000E+00
 -1      1765 3.89700E+00 2.27500E+01 0.00000E+00
 -1      1766 3.89700E+00 2.42250E+01 0.00000E+00
 -1      1767 5.19600E+00 2.49500E+01 0.00000E+00
 -1      1768 3.89700E+00 1.98000E+01 0.00000E+00
 -1      1769 3.89700E+00 2.12750E+01 0.00000E+00
 -1      1770 5.19600E+00 2.20000E+01 0.00000E+00
 -1      1771 3.89700E+00 1.69000E+01 0.00000E+00
 -1      1772 3.89700E+00 1.83500E+01 0.00000E+00
 -1      1773 5.19600E+00 1.90750E+01 0.00000E+00
 -1      1774 3.89700E+00 1.39500E+01 0.00000E+00
 -1      1775 3.89700E+00 1.54250E+01 0.00000E+00
 -1      1776 5.19600E+00 1.61500E+01 0.00000E+00
 -1      1777 3.89700E+00 1.10000E+01 0.00000E+00
 -1      1778 3.89700E+00 1.24750E+01 0.00000E+00
 -1      1779 5.19600E+00 1.32000E+01 0.00000E+00
 -1      1780 3.89700E+00 8.05000E+00 0.00000E+00
 -1      1781 3.89700E+00 9.52500E+00 0.00000E+00
 -1      1782 5.19600E+00 1.02500E+01 0.00000E+00
 -1      1783 3.89700E+00 5.10000E+00 0.00000E+00
 -1      1784 3.89700E+00 6.57500E+00 0.00000E+00
 -1      1785 5.19600E+00 7.30000E+00 0.00000E+00
 -1      1786 4.20450E+00 3.09687E+00 0.00000E+00
 -1      1787 4.06650E+00 4.19063E+00 0.00000E+00
 -1      1788 5.36550E+00 4.91563E+00 0.00000E+00
 -1      1789 5.70450E+00 3.09687E+00 0.00000E+00
 -1      1790 3.62400E+00 4.64885E+01 0.00000E+00
 -1      1791 8.70450E+00 3.09687E+00 0.00000E+00
 -1      1792 7.20450E+00 3.09687E+00 0.00000E+00
 -1      1793 7.03500E+00 4.00625E+00 0.00000E+00
 -1      1794 4.92300E+00 4.57510E+01 0.00000E+00
 -1      1795 8.40000E+00 4.61030E+01 0.00000E+00
 -1      1796 9.90000E+00 4.61030E+01 0.00000E+00
 -1      1797 1.14000E+01 4.61030E+01 0.00000E+00
 -1      1798 1.29000E+01 4.61030E+01 0.00000E+00
 -1      1799 1.06500E+01 4.48040E+01 0.00000E+00
 -1      1800 1.44000E+01 4.61030E+01 0.00000E+00
 -1      1801 1.59000E+01 4.61030E+01 0.00000E+00
 -1      1802 1.36500E+01 4.48040E+01 0.00000E+00
 -1      1803 1.74000E+01 4.61030E+01 0.00000E+00
 -1      1804 1.89000E+01 4.61030E+01 0.00000E+00
 -1      1805 1.66500E+01 4.48040E+01 0.00000E+00
 -1      1806 2.04000E+01 4.61030E+01 0.00000E+00
 -1      1807 2.19000E+01 4.61030E+01 0.00000E+00
 -1      1808 1.96500E+01 4.48040E+01 0.00000E+00
 -1      1809 2.34000E+01 4.61030E+01 0.00000E+00
 -1      1810 2.49000E+01 4.61030E+01 0.00000E+00
 -1      1811 2.26500E+01 4.48040E+01 0.00000E+00
 -1      1812 2.64000E+01 4.61030E+01 0.00000E+00
 -1      1813 2.79000E+01 4.61030E+01 0.00000E+00
 -1      1814 2.56500E+01 4.48040E+01 0.00000E+00
 -1      1815 2.94000E+01 4.61030E+01 0.00000E+00
 -1      1816 3.09000E+01 4.61030E+01 0.00000E+00
 -1      1817 2.86500E+01 4.48040E+01 0.00000E+00
 -1      1818 3.24000E+01 4.61030E+01 0.00000E+00
 -1      1819 3.39000E+01 4.61030E+01 0.00000E+00
 -1      1820 3.16500E+01 4.48040E+01 0.00000E+00
 -1      1821 3.54000E+01 4.61030E+01 0.00000E+00
 -1      1822 3.69000E+01 4.61030E+01 0.00000E+00
 -1      1823 3.46500E+01 4.48040E+01 0.00000E+00
 -1      1824 3.84000E+01 4.61030E+01 0.00000E+00
 -1      1825 3.99000E+01 4.61030E+01 0.00000E+00
 -1      1826 3.76500E+01 4.48040E+01 0.00000E+00
 -1      1827 4.14000E+01 4.61030E+01 0.00000E+00
 -1      1828 4.29000E+01 4.61030E+01 0.00000E+00
 -1      1829 4.06500E+01 4.48040E+01 0.00000E+00
 -1      1830 4.44000E+01 4.61030E+01 0.00000E+00
 -1      1831 4.59000E+01 4.61030E+01 0.00000E+00
 -1      1832 4.36500E+01 4.48040E+01 0.00000E+00
 -1      1833 4.74000E+01 4.61030E+01 0.00000E+00
 -1      1834 4.89000E+01 4.61030E+01 0.00000E+00
 -1      1835 4.66500E+01 4.48040E+01 0.00000E+00
 -1      1836 5.04000E+01 4.61030E+01 0.00000E+00
 -1      1837 5.19000E+01 4.61030E+01 0.00000E+00
 -1      1838 4.96500E+01 4.48040E+01 0.00000E+00
 -1      1839 5.34000E+01 4.61030E+01 0.00000E+00
 -1      1840 5.49000E+01 4.61030E+01 0.00000E+00
 -1      1841 5.26500E+01 4.48040E+01 0.00000E+00
 -1      1842 5.64000E+01 4.61030E+01 0.00000E+00
 -1      1843 5.79000E+01 4.61030E+01 0.00000E+00
 -1      1844 5.56500E+01 4.48040E+01 0.00000E+00
 -1      1845 5.94000E+01 4.61030E+01 0.00000E+00
 -1      1846 6.09000E+01 4.61030E+01 0.00000E+00
 -1      1847 5.86500E+01 4.48040E+01 0.00000E+00
 -1      1848 6.24000E+01 4.61030E+01 0.00000E+00
 -1      1849 6.39000E+01 4.61030E+01 0.00000E+00
 -1      1850 6.16500E+01 4.48040E+01 0.00000E+00
 -1      1851 6.54000E+01 4.61030E+01 0.00000E+00
 -1      1852 6.69000E+01 4.61030E+01 0.00000E+00
 -1      1853 6.46500E+01 4.48040E+01 0.00000E+00
 -1      1854 6.84000E+01 4.61030E+01 0.00000E+00
 -1      1855 6.99000E+01 4.61030E+01 0.00000E+00
 -1      1856 6.76500E+01 4.48040E+01 0.00000E+00
 -1      1857 7.14000E+01 4.61030E+01 0.00000E+00
 -1      1858 7.29000E+01 4.61030E+01 0.00000E+00
 -1      1859 7.06500E+01 4.48040E+01 0.00000E+00
 -1      1860 7.44000E+01 4.61030E+01 0.00000E+00
 -1      1861 7.59000E+01 4.61030E+01 0.00000E+00
 -1      1862 7.36500E+01 4.48040E+01 0.00000E+00
 -1      1863 7.74000E+01 4.61030E+01 0.00000E+00
 -1      1864 7.89000E+01 4.61030E+01 0.00000E+00
 -1      1865 7.66500E+01 4.48040E+01 0.00000E+00
 -1      1866 8.04000E+01 4.61030E+01 0.00000E+00
 -1      1867 8.19000E+01 4.61030E+01 0.00000E+00
 -1      1868 7.96500E+01 4.48040E+01 0.00000E+00
 -1      1869 8.34000E+01 4.61030E+01 0.00000E+00
 -1      1870 8.49000E+01 4.61030E+01 0.00000E+00
 -1      1871 8.26500E+01 4.48040E+01 0.00000E+00
 -1      1872 8.64000E+01 4.61030E+01 0.00000E+00
 -1      1873 8.79000E+01 4.61030E+01 0.00000E+00
 -1      1874 8.56500E+01 4.48040E+01 0.00000E+00
 -1      1875 8.94000E+01 4.61030E+01 0.00000E+00
 -1      1876 9.09000E+01 4.61030E+01 0.00000E+00
 -1      1877 8.86500E+01 4.48040E+01 0.00000E+00
 -1      1878 9.24000E+01 4.61030E+01 0.00000E+00
 -1      1879 9.39000E+01 4.61030E+01 0.00000E+00
 -1      1880 9.16500E+01 4.48040E+01 0.00000E+00
 -1      1881 9.54000E+01 4.61030E+01 0.00000E+00
 -1      1882 9.69000E+01 4.61030E+01 0.00000E+00
 -1      1883 9.46500E+01 4.48040E+01 0.00000E+00
 -1      1884 9.84000E+01 4.61030E+01 0.00000E+00
 -1      1885 9.99000E+01 4.61030E+01 0.00000E+00
 -1      1886 9.76500E+01 4.48040E+01 0.00000E+00
 -1      1887 1.01400E+02 4.61030E+01 0.00000E+00
 -1      1888 1.02900E+02 4.61030E+01 0.00000E+00
 -1      1889 1.00650E+02 4.48040E+01 0.00000E+00
 -1      1890 1.04400E+02 4.61030E+01 0.00000E+00
 -1      1891 1.05900E+02 4.61030E+01 0.00000E+00
 -1      1892 1.03650E+02 4.48040E+01 0.00000E+00
 -1      1893 1.07400E+02 4.61030E+01 0.00000E+00
 -1      1894 1.08900E+02 4.61030E+01 0.00000E+00
 -1      1895 1.06650E+02 4.48040E+01 0.00000E+00
 -1      1896 1.10400E+02 4.61030E+01 0.00000E+00
 -1      1897 1.11900E+02 4.61030E+01 0.00000E+00
 -1      1898 1.09650E+02 4.48040E+01 0.00000E+00
 -1      1899 1.13400E+02 4.61030E+01 0.00000E+00
 -1      1900 1.14900E+02 4.61030E+01 0.00000E+00
 -1      1901 1.12650E+02 4.48040E+01 0.00000E+00
 -1      1902 1.16400E+02 4.61030E+01 0.00000E+00
 -1      1903 1.17900E+02 4.61030E+01 0.00000E+00
 -1      1904 1.15650E+02 4.48040E+01 0.00000E+00
 -1      1905 1.19400E+02 4.61030E+01 0.00000E+00
 -1      1906 1.20900E+02 4.61030E+01 0.00000E+00
 -1      1907 1.18650E+02 4.48040E+01 0.00000E+00
 -1      1908 1.22400E+02 4.61030E+01 0.00000E+00
 -1      1909 1.23900E+02 4.61030E+01 0.00000E+00
 -1      1910 1.21650E+02 4.48040E+01 0.00000E+00
 -1      1911 1.25400E+02 4.61030E+01 0.00000E+00
 -1      1912 1.26900E+02 4.61030E+01 0.00000E+00
 -1      1913 1.24650E+02 4.48040E+01 0.00000E+00
 -1      1914 1.28400E+02 4.61030E+01 0.00000E+00
 -1      1915 1.29900E+02 4.61030E+01 0.00000E+00
 -1      1916 1.27650E+02 4.48040E+01 0.00000E+00
 -1      1917 1.31400E+02 4.61030E+01 0.00000E+00
 -1      1918 1.32900E+02 4.61030E+01 0.00000E+00
 -1      1919 1.30650E+02 4.48040E+01 0.00000E+00
 -1      1920 1.34400E+02 4.61030E+01 0.00000E+00
 -1      1921 1.35900E+02 4.61030E+01 0.00000E+00
 -1      1922 1.33650E+02 4.48040E+01 0.00000E+00
 -1      1923 1.37400E+02 4.61030E+01 0.00000E+00
 -1      1924 1.38900E+02 4.61030E+01 0.00000E+00
 -1      1925 1.36650E+02 4.48040E+01 0.00000E+00
 -1      1926 1.40400E+02 4.61030E+01 0.00000E+00
 -1      1927 1.41900E+02 4.61030E+01 0.00000E+00
 -1      1928 1.39650E+02 4.48040E+01 0.00000E+00
 -1      1929 1.43244E+02 4.61616E+01 0.00000E+00
 -1      1930 1.44744E+02 4.61616E+01 0.00000E+00
 -1      1931 1.45182E+02 4.49799E+01 0.00000E+00
 -1      1932 1.42494E+02 4.48626E+01 0.00000E+00
 -1      1933 1.17045E+01 3.09687E+00 0.00000E+00
 -1      1934 1.02045E+01 3.09687E+00 0.00000E+00
 -1      1935 1.00350E+01 4.00625E+00 0.00000E+00
 -1      1936 1.47045E+01 3.09687E+00 0.00000E+00
 -1      1937 1.32045E+01 3.09687E+00 0.00000E+00
 -1      1938 1.30350E+01 4.00625E+00 0.00000E+00
 -1      1939 1.77045E+01 3.09687E+00 0.00000E+00
 -1      1940 1.62045E+01 3.09687E+00 0.00000E+00
 -1      1941 1.60350E+01 4.00625E+00 0.00000E+00
 -1      1942 2.07045E+01 3.09687E+00 0.00000E+00
 -1      1943 1.92045E+01 3.09687E+00 0.00000E+00
 -1      1944 1.90350E+01 4.00625E+00 0.00000E+00
 -1      1945 2.37045E+01 3.09687E+00 0.00000E+00
 -1      1946 2.22045E+01 3.09687E+00 0.00000E+00
 -1      1947 2.20350E+01 4.00625E+00 0.00000E+00
 -1      1948 2.67045E+01 3.09687E+00 0.00000E+00
 -1      1949 2.52045E+01 3.09687E+00 0.00000E+00
 -1      1950 2.50350E+01 4.00625E+00 0.00000E+00
 -1      1951 2.97045E+01 3.09687E+00 0.00000E+00
 -1      1952 2.82045E+01 3.09687E+00 0.00000E+00
 -1      1953 2.80350E+01 4.00625E+00 0.00000E+00
 -1      1954 3.27045E+01 3.09687E+00 0.00000E+00
 -1      1955 3.12045E+01 3.09687E+00 0.00000E+00
 -1      1956 3.10350E+01 4.00625E+00 0.00000E+00
 -1      1957 3.57045E+01 3.09687E+00 0.00000E+00
 -1      1958 3.42045E+01 3.09687E+00 0.00000E+00
 -1      1959 3.40350E+01 4.00625E+00 0.00000E+00
 -1      1960 3.87045E+01 3.09687E+00 0.00000E+00
 -1      1961 3.72045E+01 3.09687E+00 0.00000E+00
 -1      1962 3.70350E+01 4.00625E+00 0.00000E+00
 -1      1963 4.17045E+01 3.09687E+00 0.00000E+00
 -1      1964 4.02045E+01 3.09687E+00 0.00000E+00
 -1      1965 4.00350E+01 4.00625E+00 0.00000E+00
 -1      1966 4.47045E+01 3.09687E+00 0.00000E+00
 -1      1967 4.32045E+01 3.09687E+00 0.00000E+00
 -1      1968 4.30350E+01 4.00625E+00 0.00000E+00
 -1      1969 4.77045E+01 3.09687E+00 0.00000E+00
 -1      1970 4.62045E+01 3.09687E+00 0.00000E+00
 -1      1971 4.60350E+01 4.00625E+00 0.00000E+00
 -1      1972 5.07045E+01 3.09687E+00 0.00000E+00
 -1      1973 4.92045E+01 3.09687E+00 0.00000E+00
 -1      1974 4.90350E+01 4.00625E+00 0.00000E+00
 -1      1975 5.37045E+01 3.09687E+00 0.00000E+00
 -1      1976 5.22045E+01 3.09687E+00 0.00000E+00
 -1      1977 5.20350E+01 4.00625E+00 0.00000E+00
 -1      1978 5.67045E+01 3.09687E+00 0.00000E+00
 -1      1979 5.52045E+01 3.09687E+00 0.00000E+00
 -1      1980 5.50350E+01 4.00625E+00 0.00000E+00
 -1      1981 5.97045E+01 3.09687E+00 0.00000E+00
 -1      1982 5.82045E+01 3.09687E+00 0.00000E+00
 -1      1983 5.80350E+01 4.00625E+00 0.00000E+00
 -1      1984 6.27045E+01 3.09687E+00 0.00000E+00
 -1      1985 6.12045E+01 3.09687E+00 0.00000E+00
 -1      1986 6.10350E+01 4.00625E+00 0.00000E+00
 -1      1987 6.57045E+01 3.09687E+00 0.00000E+00
 -1      1988 6.42045E+01 3.09687E+00 0.00000E+00
 -1      1989 6.40350E+01 4.00625E+00 0.00000E+00
 -1      1990 6.87045E+01 3.09687E+00 0.00000E+00
 -1      1991 6.72045E+01 3.09687E+00 0.00000E+00
 -1      1992 6.70350E+01 4.00625E+00 0.00000E+00
 -1      1993 7.17045E+01 3.09687E+00 0.00000E+00
 -1      1994 7.02045E+01 3.09687E+00 0.00000E+00
 -1      1995 7.00350E+01 4.00625E+00 0.00000E+00
 -1      1996 7.47045E+01 3.09687E+00 0.00000E+00
 -1      1997 7.32045E+01 3.09687E+00 0.00000E+00
 -1      1998 7.30350E+01 4.00625E+00 0.00000E+00
 -1      1999 7.77045E+01 3.09687E+00 0.00000E+00
 -1      2000 7.62045E+01 3.09687E+00 0.00000E+00
 -1      2001 7.60350E+01 4.00625E+00 0.00000E+00
 -1      2002 8.07045E+01 3.09687E+00 0.00000E+00
 -1      2003 7.92045E+01 3.09687E+00 0.00000E+00
 -1      2004 7.90350E+01 4.00625E+00 0.00000E+00
 -1      2005 8.37045E+01 3.09687E+00 0.00000E+00
 -1      2006 8.22045E+01 3.09687E+00 0.00000E+00
 -1      2007 8.20350E+01 4.00625E+00 0.00000E+00
 -1      2008 8.67045E+01 3.09687E+00 0.00000E+00
 -1      2009 8.52045E+01 3.09687E+00 0.00000E+00
 -1      2010 8.50350E+01 4.00625E+00 0.00000E+00
 -1      2011 8.97045E+01 3.09687E+00 0.00000E+00
 -1      2012 8.82045E+01 3.09687E+00 0.00000E+00
 -1      2013 8.80350E+01 4.00625E+00 0.00000E+00
 -1      2014 9.27045E+01 3.09687E+00 0.00000E+00
 -1      2015 9.12045E+01 3.09687E+00 0.00000E+00
 -1      2016 9.10350E+01 4.00625E+00 0.00000E+00
 -1      2017 9.57045E+01 3.09687E+00 0.00000E+00
 -1      2018 9.42045E+01 3.09687E+00 0.00000E+00
 -1      2019 9.40350E+01 4.00625E+00 0.00000E+00
 -1      2020 9.87045E+01 3.09687E+00 0.00000E+00
 -1      2021 9.72045E+01 3.09687E+00 0.00000E+00
 -1      2022 9.70350E+01 4.00625E+00 0.00000E+00
 -1      2023 1.01704E+02 3.09687E+00 0.00000E+00
 -1      2024 1.00204E+02 3.09687E+00 0.00000E+00
 -1      2025 1.00035E+02 4.00625E+00 0.00000E+00
 -1      2026 1.04704E+02 3.09687E+00 0.00000E+00
 -1      2027 1.03204E+02 3.09687E+00 0.00000E+00
 -1      2028 1.03035E+02 4.00625E+00 0.00000E+00
 -1      2029 1.07704E+02 3.09687E+00 0.00000E+00
 -1      2030 1.06204E+02 3.09687E+00 0.00000E+00
 -1      2031 1.06035E+02 4.00625E+00 0.00000E+00
 -1      2032 1.10704E+02 3.09687E+00 0.00000E+00
 -1      2033 1.09204E+02 3.09687E+00 0.00000E+00
 -1      2034 1.09035E+02 4.00625E+00 0.00000E+00
 -1      2035 1.13704E+02 3.09687E+00 0.00000E+00
 -1      2036 1.12204E+02 3.09687E+00 0.00000E+00
 -1      2037 1.12035E+02 4.00625E+00 0.00000E+00
 -1      2038 1.16704E+02 3.09687E+00 0.00000E+00
 -1      2039 1.15204E+02 3.09687E+00 0.00000E+00
 -1      2040 1.15035E+02 4.00625E+00 0.00000E+00
 -1      2041 1.19704E+02 3.09687E+00 0.00000E+00
 -1      2042 1.18204E+02 3.09687E+00 0.00000E+00
 -1      2043 1.18035E+02 4.00625E+00 0.00000E+00
 -1      2044 1.22704E+02 3.09687E+00 0.00000E+00
 -1      2045 1.21204E+02 3.09687E+00 0.00000E+00
 -1      2046 1.21035E+02 4.00625E+00 0.00000E+00
 -1      2047 1.25704E+02 3.09687E+00 0.00000E+00
 -1      2048 1.24204E+02 3.09687E+00 0.00000E+00
 -1      2049 1.24035E+02 4.00625E+00 0.00000E+00
 -1      2050 1.28704E+02 3.09687E+00 0.00000E+00
 -1      2051 1.27204E+02 3.09687E+00 0.00000E+00
 -1      2052 1.27035E+02 4.00625E+00 0.00000E+00
 -1      2053 1.31704E+02 3.09687E+00 0.00000E+00
 -1      2054 1.30204E+02 3.09687E+00 0.00000E+00
 -1      2055 1.30035E+02 4.00625E+00 0.00000E+00
 -1      2056 1.34704E+02 3.09687E+00 0.00000E+00
 -1      2057 1.33204E+02 3.09687E+00 0.00000E+00
 -1      2058 1.33035E+02 4.00625E+00 0.00000E+00
 -1      2059 1.37704E+02 3.09687E+00 0.00000E+00
 -1      2060 1.36204E+02 3.09687E+00 0.00000E+00
 -1      2061 1.36035E+02 4.00625E+00 0.00000E+00
 -1      2062 1.40704E+02 3.09687E+00 0.00000E+00
 -1      2063 1.39204E+02 3.09687E+00 0.00000E+00
 -1      2064 1.39035E+02 4.00625E+00 0.00000E+00
 -1      2065 1.43704E+02 3.09687E+00 0.00000E+00
 -1      2066 1.42204E+02 3.09687E+00 0.00000E+00
 -1      2067 1.42035E+02 4.00625E+00 0.00000E+00
 -1      2068 1.46171E+02 3.20156E+00 0.00000E+00
 -1      2069 1.44671E+02 3.20156E+00 0.00000E+00
 -1      2070 1.44502E+02 4.11094E+00 0.00000E+00
 -1      2071 1.46435E+02 4.32031E+00 0.00000E+00
 -1      2072 1.46103E+02 1.25375E+01 0.00000E+00
 -1      2073 1.46103E+02 1.10625E+01 0.00000E+00
 -1      2074 1.46103E+02 9.58750E+00 0.00000E+00
 -1      2075 1.46103E+02 8.11250E+00 0.00000E+00
 -1      2076 1.44804E+02 1.03250E+01 0.00000E+00
 -1      2077 1.46269E+02 6.95391E+00 0.00000E+00
 -1      2078 1.46269E+02 5.47891E+00 0.00000E+00
 -1      2079 1.45302E+02 5.37422E+00 0.00000E+00
 -1      2080 1.44970E+02 7.69141E+00 0.00000E+00
 -1      2081 1.46103E+02 1.54375E+01 0.00000E+00
 -1      2082 1.46103E+02 1.39875E+01 0.00000E+00
 -1      2083 1.44804E+02 1.32500E+01 0.00000E+00
 -1      2084 1.46103E+02 1.83875E+01 0.00000E+00
 -1      2085 1.46103E+02 1.69125E+01 0.00000E+00
 -1      2086 1.44804E+02 1.61750E+01 0.00000E+00
 -1      2087 1.46103E+02 2.13375E+01 0.00000E+00
 -1      2088 1.46103E+02 1.98625E+01 0.00000E+00
 -1      2089 1.44804E+02 1.91250E+01 0.00000E+00
 -1      2090 1.46103E+02 2.42875E+01 0.00000E+00
 -1      2091 1.46103E+02 2.28125E+01 0.00000E+00
 -1      2092 1.44804E+02 2.20750E+01 0.00000E+00
 -1      2093 1.46103E+02 2.72375E+01 0.00000E+00
 -1      2094 1.46103E+02 2.57625E+01 0.00000E+00
 -1      2095 1.44804E+02 2.50250E+01 0.00000E+00
 -1      2096 1.46103E+02 3.01875E+01 0.00000E+00
 -1      2097 1.46103E+02 2.87125E+01 0.00000E+00
 -1      2098 1.44804E+02 2.79750E+01 0.00000E+00
 -1      2099 1.46103E+02 3.30875E+01 0.00000E+00
 -1      2100 1.46103E+02 3.16375E+01 0.00000E+00
 -1      2101 1.44804E+02 3.09000E+01 0.00000E+00
 -1      2102 1.46103E+02 3.60375E+01 0.00000E+00
 -1      2103 1.46103E+02 3.45625E+01 0.00000E+00
 -1      2104 1.44804E+02 3.38250E+01 0.00000E+00
 -1      2105 1.46103E+02 3.89875E+01 0.00000E+00
 -1      2106 1.46103E+02 3.75125E+01 0.00000E+00
 -1      2107 1.44804E+02 3.67750E+01 0.00000E+00
 -1      2108 1.46103E+02 4.19375E+01 0.00000E+00
 -1      2109 1.46103E+02 4.04625E+01 0.00000E+00
 -1      2110 1.44804E+02 3.97250E+01 0.00000E+00
 -1      2111 9.18757E+01 1.71379E+01 0.00000E+00
 -1      2112 9.21695E+01 1.79667E+01 0.00000E+00
 -1      2113 9.29169E+01 2.08071E+01 0.00000E+00
 -1      2114 9.28806E+01 2.17074E+01 0.00000E+00
 -1      2115 9.24348E+01 1.88011E+01 0.00000E+00
 -1      2116 9.27001E+01 1.96355E+01 0.00000E+00
 -1      2117 9.30567E+01 1.81142E+01 0.00000E+00
 -1      2118 9.06397E+01 1.55174E+01 0.00000E+00
 -1      2119 9.12089E+01 1.62113E+01 0.00000E+00
 -1      2120 8.93022E+01 1.41971E+01 0.00000E+00
 -1      2121 8.99664E+01 1.47676E+01 0.00000E+00
 -1      2122 3.89700E+00 3.74688E+01 0.00000E+00
 -1      2123 3.89700E+00 3.89437E+01 0.00000E+00
 -1      2124 5.19600E+00 3.96813E+01 0.00000E+00
 -1      2125 5.19600E+00 3.67438E+01 0.00000E+00
 -1      2126 8.58288E+01 1.25352E+01 0.00000E+00
 -1      2127 8.66697E+01 1.27784E+01 0.00000E+00
 -1      2128 8.39314E+01 1.23713E+01 0.00000E+00
 -1      2129 8.48133E+01 1.24645E+01 0.00000E+00
 -1      2130 8.19089E+01 1.23829E+01 0.00000E+00
 -1      2131 8.28251E+01 1.22370E+01 0.00000E+00
 -1      2132 8.00614E+01 1.31385E+01 0.00000E+00
 -1      2133 8.08664E+01 1.27773E+01 0.00000E+00
 -1      2134 7.85091E+01 1.41856E+01 0.00000E+00
 -1      2135 7.92286E+01 1.36978E+01 0.00000E+00
 -1      2136 7.70565E+01 1.54269E+01 0.00000E+00
 -1      2137 7.76707E+01 1.47858E+01 0.00000E+00
 -1      2138 7.60743E+01 1.70610E+01 0.00000E+00
 -1      2139 7.65279E+01 1.63172E+01 0.00000E+00
 -1      2140 7.51401E+01 1.86963E+01 0.00000E+00
 -1      2141 7.55095E+01 1.78687E+01 0.00000E+00
 -1      2142 7.47076E+01 2.06987E+01 0.00000E+00
 -1      2143 7.48925E+01 1.97609E+01 0.00000E+00
 -1      2144 7.48700E+01 2.28741E+01 0.00000E+00
 -1      2145 7.46039E+01 2.19902E+01 0.00000E+00
 -1      2146 7.51708E+01 2.47231E+01 0.00000E+00
 -1      2147 7.50204E+01 2.37986E+01 0.00000E+00
 -1      2148 7.40662E+01 2.36038E+01 0.00000E+00
 -1      2149 7.65833E+01 2.64014E+01 0.00000E+00
 -1      2150 7.59559E+01 2.57006E+01 0.00000E+00
 -1      2151 7.76937E+01 2.78440E+01 0.00000E+00
 -1      2152 7.71090E+01 2.71392E+01 0.00000E+00
 -1      2153 7.94137E+01 2.90109E+01 0.00000E+00
 -1      2154 7.86103E+01 2.85882E+01 0.00000E+00
 -1      2155 8.10654E+01 2.99506E+01 0.00000E+00
 -1      2156 8.02395E+01 2.94807E+01 0.00000E+00
 -1      2157 7.94971E+01 2.99171E+01 0.00000E+00
 -1      2158 8.32562E+01 3.03682E+01 0.00000E+00
 -1      2159 8.22920E+01 3.03706E+01 0.00000E+00
 -1      2160 8.51300E+01 2.99588E+01 0.00000E+00
 -1      2161 8.42639E+01 3.00867E+01 0.00000E+00
 -1      2162 8.69012E+01 2.95189E+01 0.00000E+00
 -1      2163 8.60864E+01 2.97801E+01 0.00000E+00
 -1      2164 8.85899E+01 2.87865E+01 0.00000E+00
 -1      2165 8.78186E+01 2.91835E+01 0.00000E+00
 -1      2166 9.00572E+01 2.75056E+01 0.00000E+00
 -1      2167 8.94366E+01 2.81202E+01 0.00000E+00
 -1      2168 9.12015E+01 2.60900E+01 0.00000E+00
 -1      2169 9.06600E+01 2.67709E+01 0.00000E+00
 -1      2170 9.21075E+01 2.44197E+01 0.00000E+00
 -1      2171 9.18010E+01 2.52132E+01 0.00000E+00
 -1      2172 9.25258E+01 2.26960E+01 0.00000E+00
 -1      2173 9.23120E+01 2.35141E+01 0.00000E+00
 -1      2174 8.75881E+01 1.32198E+01 0.00000E+00
 -1      2175 8.84029E+01 1.36115E+01 0.00000E+00
 -1      2176 8.92119E+01 1.33416E+01 0.00000E+00
 -1      2177 6.42300E+00 4.57510E+01 0.00000E+00
 -1      2178 8.73942E+01 1.23146E+01 0.00000E+00
 -1      2179 7.17300E+00 4.44520E+01 0.00000E+00
 -1      2180 9.35388E+01 2.01202E+01 0.00000E+00
 -1      2181 9.21246E+01 1.63533E+01 0.00000E+00
 -1      2182 1.45665E+02 4.31193E+01 0.00000E+00
 -1      2183 9.34008E+01 2.22803E+01 0.00000E+00
 -1      2184 9.07845E+01 1.46769E+01 0.00000E+00
 -1      2185 9.28414E+01 2.41746E+01 0.00000E+00
 -1      2186 9.20375E+01 2.59570E+01 0.00000E+00
 -1      2187 9.08352E+01 2.75685E+01 0.00000E+00
 -1      2188 8.93858E+01 2.89695E+01 0.00000E+00
 -1      2189 8.76218E+01 2.99712E+01 0.00000E+00
 -1      2190 8.57481E+01 3.04852E+01 0.00000E+00
 -1      2191 8.15496E+01 3.08070E+01 0.00000E+00
 -1      2192 7.77546E+01 2.87031E+01 0.00000E+00
 -1      2193 7.50017E+01 2.55058E+01 0.00000E+00
 -1      2194 7.40194E+01 2.13878E+01 0.00000E+00
 -1      2195 7.34349E+01 2.07854E+01 0.00000E+00
 -1      2196 7.33313E+01 2.20769E+01 0.00000E+00
 -1      2197 7.43706E+01 1.90317E+01 0.00000E+00
 -1      2198 7.51830E+01 1.71594E+01 0.00000E+00
 -1      2199 7.62763E+01 1.54614E+01 0.00000E+00
 -1      2200 7.76433E+01 1.39708E+01 0.00000E+00
 -1      2201 7.93144E+01 1.28113E+01 0.00000E+00
 -1      2202 8.11897E+01 1.18575E+01 0.00000E+00
 -1      2203 8.54603E+01 1.18025E+01 0.00000E+00
 -1      2204 8.33385E+01 1.15974E+01 0.00000E+00
 -1      2205 7.63124E+01 2.72211E+01 0.00000E+00
 -1      2206 8.37839E+01 3.09454E+01 0.00000E+00
 -1      2207 1.07850E+01 5.30525E+00 0.00000E+00
 -1      2208 9.28500E+00 5.30525E+00 0.00000E+00
 -1      2209 6.49500E+00 3.01125E+01 0.00000E+00
 -1      2210 6.49500E+00 3.15875E+01 0.00000E+00
 -1      2211 6.49500E+00 3.30625E+01 0.00000E+00
 -1      2212 6.49500E+00 3.45375E+01 0.00000E+00
 -1      2213 7.79400E+00 3.23250E+01 0.00000E+00
 -1      2214 6.49500E+00 2.42125E+01 0.00000E+00
 -1      2215 6.49500E+00 2.56875E+01 0.00000E+00
 -1      2216 6.49500E+00 2.12625E+01 0.00000E+00
 -1      2217 6.49500E+00 2.27375E+01 0.00000E+00
 -1      2218 7.79400E+00 2.34750E+01 0.00000E+00
 -1      2219 6.49500E+00 1.83625E+01 0.00000E+00
 -1      2220 6.49500E+00 1.98125E+01 0.00000E+00
 -1      2221 7.79400E+00 2.05500E+01 0.00000E+00
 -1      2222 6.49500E+00 1.54125E+01 0.00000E+00
 -1      2223 6.49500E+00 1.68875E+01 0.00000E+00
 -1      2224 7.79400E+00 1.76250E+01 0.00000E+00
 -1      2225 6.49500E+00 1.24625E+01 0.00000E+00
 -1      2226 6.49500E+00 1.39375E+01 0.00000E+00
 -1      2227 7.79400E+00 1.46750E+01 0.00000E+00
 -1      2228 6.49500E+00 9.51250E+00 0.00000E+00
 -1      2229 6.49500E+00 1.09875E+01 0.00000E+00
 -1      2230 7.79400E+00 1.17250E+01 0.00000E+00
 -1      2231 1.37850E+01 5.30525E+00 0.00000E+00
 -1      2232 1.22850E+01 5.30525E+00 0.00000E+00
 -1      2233 1.15350E+01 6.60425E+00 0.00000E+00
 -1      2234 9.90000E+00 4.35050E+01 0.00000E+00
 -1      2235 1.14000E+01 4.35050E+01 0.00000E+00
 -1      2236 8.72883E+01 1.13588E+01 0.00000E+00
 -1      2237 8.82068E+01 1.18002E+01 0.00000E+00
 -1      2238 1.29000E+01 4.35050E+01 0.00000E+00
 -1      2239 1.44000E+01 4.35050E+01 0.00000E+00
 -1      2240 1.21500E+01 4.22060E+01 0.00000E+00
 -1      2241 1.59000E+01 4.35050E+01 0.00000E+00
 -1      2242 1.74000E+01 4.35050E+01 0.00000E+00
 -1      2243 1.51500E+01 4.22060E+01 0.00000E+00
 -1      2244 1.89000E+01 4.35050E+01 0.00000E+00
 -1      2245 2.04000E+01 4.35050E+01 0.00000E+00
 -1      2246 1.81500E+01 4.22060E+01 0.00000E+00
 -1      2247 2.19000E+01 4.35050E+01 0.00000E+00
 -1      2248 2.34000E+01 4.35050E+01 0.00000E+00
 -1      2249 2.11500E+01 4.22060E+01 0.00000E+00
 -1      2250 2.49000E+01 4.35050E+01 0.00000E+00
 -1      2251 2.64000E+01 4.35050E+01 0.00000E+00
 -1      2252 2.41500E+01 4.22060E+01 0.00000E+00
 -1      2253 2.79000E+01 4.35050E+01 0.00000E+00
 -1      2254 2.94000E+01 4.35050E+01 0.00000E+00
 -1      2255 2.71500E+01 4.22060E+01 0.00000E+00
 -1      2256 3.09000E+01 4.35050E+01 0.00000E+00
 -1      2257 3.24000E+01 4.35050E+01 0.00000E+00
 -1      2258 3.01500E+01 4.22060E+01 0.00000E+00
 -1      2259 3.39000E+01 4.35050E+01 0.00000E+00
 -1      2260 3.54000E+01 4.35050E+01 0.00000E+00
 -1      2261 3.31500E+01 4.22060E+01 0.00000E+00
 -1      2262 3.69000E+01 4.35050E+01 0.00000E+00
 -1      2263 3.84000E+01 4.35050E+01 0.00000E+00
 -1      2264 3.61500E+01 4.22060E+01 0.00000E+00
 -1      2265 3.99000E+01 4.35050E+01 0.00000E+00
 -1      2266 4.14000E+01 4.35050E+01 0.00000E+00
 -1      2267 3.91500E+01 4.22060E+01 0.00000E+00
 -1      2268 4.29000E+01 4.35050E+01 0.00000E+00
 -1      2269 4.44000E+01 4.35050E+01 0.00000E+00
 -1      2270 4.21500E+01 4.22060E+01 0.00000E+00
 -1      2271 4.59000E+01 4.35050E+01 0.00000E+00
 -1      2272 4.74000E+01 4.35050E+01 0.00000E+00
 -1      2273 4.51500E+01 4.22060E+01 0.00000E+00
 -1      2274 4.89000E+01 4.35050E+01 0.00000E+00
 -1      2275 5.04000E+01 4.35050E+01 0.00000E+00
 -1      2276 4.81500E+01 4.22060E+01 0.00000E+00
 -1      2277 5.19000E+01 4.35050E+01 0.00000E+00
 -1      2278 5.34000E+01 4.35050E+01 0.00000E+00
 -1      2279 5.11500E+01 4.22060E+01 0.00000E+00
 -1      2280 5.49000E+01 4.35050E+01 0.00000E+00
 -1      2281 5.64000E+01 4.35050E+01 0.00000E+00
 -1      2282 5.41500E+01 4.22060E+01 0.00000E+00
 -1      2283 5.79000E+01 4.35050E+01 0.00000E+00
 -1      2284 5.94000E+01 4.35050E+01 0.00000E+00
 -1      2285 5.71500E+01 4.22060E+01 0.00000E+00
 -1      2286 6.09000E+01 4.35050E+01 0.00000E+00
 -1      2287 6.24000E+01 4.35050E+01 0.00000E+00
 -1      2288 6.01500E+01 4.22060E+01 0.00000E+00
 -1      2289 6.39000E+01 4.35050E+01 0.00000E+00
 -1      2290 6.54000E+01 4.35050E+01 0.00000E+00
 -1      2291 6.31500E+01 4.22060E+01 0.00000E+00
 -1      2292 6.69000E+01 4.35050E+01 0.00000E+00
 -1      2293 6.84000E+01 4.35050E+01 0.00000E+00
 -1      2294 6.61500E+01 4.22060E+01 0.00000E+00
 -1      2295 6.99000E+01 4.35050E+01 0.00000E+00
 -1      2296 7.14000E+01 4.35050E+01 0.00000E+00
 -1      2297 6.91500E+01 4.22060E+01 0.00000E+00
 -1      2298 7.29000E+01 4.35050E+01 0.00000E+00
 -1      2299 7.44000E+01 4.35050E+01 0.00000E+00
 -1      2300 7.21500E+01 4.22060E+01 0.00000E+00
 -1      2301 7.59000E+01 4.35050E+01 0.00000E+00
 -1      2302 7.74000E+01 4.35050E+01 0.00000E+00
 -1      2303 7.51500E+01 4.22060E+01 0.00000E+00
 -1      2304 7.89000E+01 4.35050E+01 0.00000E+00
 -1      2305 8.04000E+01 4.35050E+01 0.00000E+00
 -1      2306 7.81500E+01 4.22060E+01 0.00000E+00
 -1      2307 8.19000E+01 4.35050E+01 0.00000E+00
 -1      2308 8.34000E+01 4.35050E+01 0.00000E+00
 -1      2309 8.11500E+01 4.22060E+01 0.00000E+00
 -1      2310 8.49000E+01 4.35050E+01 0.00000E+00
 -1      2311 8.64000E+01 4.35050E+01 0.00000E+00
 -1      2312 8.41500E+01 4.22060E+01 0.00000E+00
 -1      2313 8.79000E+01 4.35050E+01 0.00000E+00
 -1      2314 8.94000E+01 4.35050E+01 0.00000E+00
 -1      2315 8.71500E+01 4.22060E+01 0.00000E+00
 -1      2316 9.09000E+01 4.35050E+01 0.00000E+00
 -1      2317 9.24000E+01 4.35050E+01 0.00000E+00
 -1      2318 9.01500E+01 4.22060E+01 0.00000E+00
 -1      2319 9.39000E+01 4.35050E+01 0.00000E+00
 -1      2320 9.54000E+01 4.35050E+01 0.00000E+00
 -1      2321 9.31500E+01 4.22060E+01 0.00000E+00
 -1      2322 9.69000E+01 4.35050E+01 0.00000E+00
 -1      2323 9.84000E+01 4.35050E+01 0.00000E+00
 -1      2324 9.61500E+01 4.22060E+01 0.00000E+00
 -1      2325 9.99000E+01 4.35050E+01 0.00000E+00
 -1      2326 1.01400E+02 4.35050E+01 0.00000E+00
 -1      2327 9.91500E+01 4.22060E+01 0.00000E+00
 -1      2328 1.02900E+02 4.35050E+01 0.00000E+00
 -1      2329 1.04400E+02 4.35050E+01 0.00000E+00
 -1      2330 1.02150E+02 4.22060E+01 0.00000E+00
 -1      2331 1.05900E+02 4.35050E+01 0.00000E+00
 -1      2332 1.07400E+02 4.35050E+01 0.00000E+00
 -1      2333 1.05150E+02 4.22060E+01 0.00000E+00
 -1      2334 1.08900E+02 4.35050E+01 0.00000E+00
 -1      2335 1.10400E+02 4.35050E+01 0.00000E+00
 -1      2336 1.08150E+02 4.22060E+01 0.00000E+00
 -1      2337 1.11900E+02 4.35050E+01 0.00000E+00
 -1      2338 1.13400E+02 4.35050E+01 0.00000E+00
 -1      2339 1.11150E+02 4.22060E+01 0.00000E+00
 -1      2340 1.14900E+02 4.35050E+01 0.00000E+00
 -1      2341 1.16400E+02 4.35050E+01 0.00000E+00
 -1      2342 1.14150E+02 4.22060E+01 0.00000E+00
 -1      2343 1.17900E+02 4.35050E+01 0.00000E+00
 -1      2344 1.19400E+02 4.35050E+01 0.00000E+00
 -1      2345 1.17150E+02 4.22060E+01 0.00000E+00
 -1      2346 1.20900E+02 4.35050E+01 0.00000E+00
 -1      2347 1.22400E+02 4.35050E+01 0.00000E+00
 -1      2348 1.20150E+02 4.22060E+01 0.00000E+00
 -1      2349 1.23900E+02 4.35050E+01 0.00000E+00
 -1      2350 1.25400E+02 4.35050E+01 0.00000E+00
 -1      2351 1.23150E+02 4.22060E+01 0.00000E+00
 -1      2352 1.26900E+02 4.35050E+01 0.00000E+00
 -1      2353 1.28400E+02 4.35050E+01 0.00000E+00
 -1      2354 1.26150E+02 4.22060E+01 0.00000E+00
 -1      2355 1.29900E+02 4.35050E+01 0.00000E+00
 -1      2356 1.31400E+02 4.35050E+01 0.00000E+00
 -1      2357 1.29150E+02 4.22060E+01 0.00000E+00
 -1      2358 1.32900E+02 4.35050E+01 0.00000E+00
 -1      2359 1.34400E+02 4.35050E+01 0.00000E+00
 -1      2360 1.32150E+02 4.22060E+01 0.00000E+00
 -1      2361 1.35900E+02 4.35050E+01 0.00000E+00
 -1      2362 1.37400E+02 4.35050E+01 0.00000E+00
 -1      2363 1.35150E+02 4.22060E+01 0.00000E+00
 -1      2364 1.38900E+02 4.35050E+01 0.00000E+00
 -1      2365 1.40400E+02 4.35050E+01 0.00000E+00
 -1      2366 1.38150E+02 4.22060E+01 0.00000E+00
 -1      2367 9.37413E+01 1.74372E+01 0.00000E+00
 -1      2368 9.40066E+01 1.82715E+01 0.00000E+00
 -1      2369 1.97850E+01 5.30525E+00 0.00000E+00
 -1      2370 1.82850E+01 5.30525E+00 0.00000E+00
 -1      2371 2.27850E+01 5.30525E+00 0.00000E+00
 -1      2372 2.12850E+01 5.30525E+00 0.00000E+00
 -1      2373 2.05350E+01 6.60425E+00 0.00000E+00
 -1      2374 2.57850E+01 5.30525E+00 0.00000E+00
 -1      2375 2.42850E+01 5.30525E+00 0.00000E+00
 -1      2376 2.35350E+01 6.60425E+00 0.00000E+00
 -1      2377 2.87850E+01 5.30525E+00 0.00000E+00
 -1      2378 2.72850E+01 5.30525E+00 0.00000E+00
 -1      2379 2.65350E+01 6.60425E+00 0.00000E+00
 -1      2380 3.17850E+01 5.30525E+00 0.00000E+00
 -1      2381 3.02850E+01 5.30525E+00 0.00000E+00
 -1      2382 2.95350E+01 6.60425E+00 0.00000E+00
 -1      2383 3.47850E+01 5.30525E+00 0.00000E+00
 -1      2384 3.32850E+01 5.30525E+00 0.00000E+00
 -1      2385 3.25350E+01 6.60425E+00 0.00000E+00
 -1      2386 3.77850E+01 5.30525E+00 0.00000E+00
 -1      2387 3.62850E+01 5.30525E+00 0.00000E+00
 -1      2388 3.55350E+01 6.60425E+00 0.00000E+00
 -1      2389 4.07850E+01 5.30525E+00 0.00000E+00
 -1      2390 3.92850E+01 5.30525E+00 0.00000E+00
 -1      2391 3.85350E+01 6.60425E+00 0.00000E+00
 -1      2392 4.37850E+01 5.30525E+00 0.00000E+00
 -1      2393 4.22850E+01 5.30525E+00 0.00000E+00
 -1      2394 4.15350E+01 6.60425E+00 0.00000E+00
 -1      2395 4.67850E+01 5.30525E+00 0.00000E+00
 -1      2396 4.52850E+01 5.30525E+00 0.00000E+00
 -1      2397 4.45350E+01 6.60425E+00 0.00000E+00
 -1      2398 4.97850E+01 5.30525E+00 0.00000E+00
 -1      2399 4.82850E+01 5.30525E+00 0.00000E+00
 -1      2400 4.75350E+01 6.60425E+00 0.00000E+00
 -1      2401 5.27850E+01 5.30525E+00 0.00000E+00
 -1      2402 5.12850E+01 5.30525E+00 0.00000E+00
 -1      2403 5.05350E+01 6.60425E+00 0.00000E+00
 -1      2404 5.57850E+01 5.30525E+00 0.00000E+00
 -1      2405 5.42850E+01 5.30525E+00 0.00000E+00
 -1      2406 5.35350E+01 6.60425E+00 0.00000E+00
 -1      2407 5.87850E+01 5.30525E+00 0.00000E+00
 -1      2408 5.72850E+01 5.30525E+00 0.00000E+00
 -1      2409 5.65350E+01 6.60425E+00 0.00000E+00
 -1      2410 6.17850E+01 5.30525E+00 0.00000E+00
 -1      2411 6.02850E+01 5.30525E+00 0.00000E+00
 -1      2412 5.95350E+01 6.60425E+00 0.00000E+00
 -1      2413 6.47850E+01 5.30525E+00 0.00000E+00
 -1      2414 6.32850E+01 5.30525E+00 0.00000E+00
 -1      2415 6.25350E+01 6.60425E+00 0.00000E+00
 -1      2416 6.77850E+01 5.30525E+00 0.00000E+00
 -1      2417 6.62850E+01 5.30525E+00 0.00000E+00
 -1      2418 6.55350E+01 6.60425E+00 0.00000E+00
 -1      2419 7.07850E+01 5.30525E+00 0.00000E+00
 -1      2420 6.92850E+01 5.30525E+00 0.00000E+00
 -1      2421 6.85350E+01 6.60425E+00 0.00000E+00
 -1      2422 7.37850E+01 5.30525E+00 0.00000E+00
 -1      2423 7.22850E+01 5.30525E+00 0.00000E+00
 -1      2424 7.15350E+01 6.60425E+00 0.00000E+00
 -1      2425 7.67850E+01 5.30525E+00 0.00000E+00
 -1      2426 7.52850E+01 5.30525E+00 0.00000E+00
 -1      2427 7.45350E+01 6.60425E+00 0.00000E+00
 -1      2428 7.97850E+01 5.30525E+00 0.00000E+00
 -1      2429 7.82850E+01 5.30525E+00 0.00000E+00
 -1      2430 7.75350E+01 6.60425E+00 0.00000E+00
 -1      2431 8.27850E+01 5.30525E+00 0.00000E+00
 -1      2432 8.12850E+01 5.30525E+00 0.00000E+00
 -1      2433 8.05350E+01 6.60425E+00 0.00000E+00
 -1      2434 8.57850E+01 5.30525E+00 0.00000E+00
 -1      2435 8.42850E+01 5.30525E+00 0.00000E+00
 -1      2436 8.35350E+01 6.60425E+00 0.00000E+00
 -1      2437 8.87850E+01 5.30525E+00 0.00000E+00
 -1      2438 8.72850E+01 5.30525E+00 0.00000E+00
 -1      2439 8.65350E+01 6.60425E+00 0.00000E+00
 -1      2440 9.17850E+01 5.30525E+00 0.00000E+00
 -1      2441 9.02850E+01 5.30525E+00 0.00000E+00
 -1      2442 8.95350E+01 6.60425E+00 0.00000E+00
 -1      2443 9.47850E+01 5.30525E+00 0.00000E+00
 -1      2444 9.32850E+01 5.30525E+00 0.00000E+00
 -1      2445 9.25350E+01 6.60425E+00 0.00000E+00
 -1      2446 9.77850E+01 5.30525E+00 0.00000E+00
 -1      2447 9.62850E+01 5.30525E+00 0.00000E+00
 -1      2448 9.55350E+01 6.60425E+00 0.00000E+00
 -1      2449 1.00785E+02 5.30525E+00 0.00000E+00
 -1      2450 9.92850E+01 5.30525E+00 0.00000E+00
 -1      2451 9.85350E+01 6.60425E+00 0.00000E+00
 -1      2452 1.03785E+02 5.30525E+00 0.00000E+00
 -1      2453 1.02285E+02 5.30525E+00 0.00000E+00
 -1      2454 1.01535E+02 6.60425E+00 0.00000E+00
 -1      2455 1.06785E+02 5.30525E+00 0.00000E+00
 -1      2456 1.05285E+02 5.30525E+00 0.00000E+00
 -1      2457 1.04535E+02 6.60425E+00 0.00000E+00
 -1      2458 1.09785E+02 5.30525E+00 0.00000E+00
 -1      2459 1.08285E+02 5.30525E+00 0.00000E+00
 -1      2460 1.07535E+02 6.60425E+00 0.00000E+00
 -1      2461 1.12785E+02 5.30525E+00 0.00000E+00
 -1      2462 1.11285E+02 5.30525E+00 0.00000E+00
 -1      2463 1.10535E+02 6.60425E+00 0.00000E+00
 -1      2464 1.15785E+02 5.30525E+00 0.00000E+00
 -1      2465 1.14285E+02 5.30525E+00 0.00000E+00
 -1      2466 1.13535E+02 6.60425E+00 0.00000E+00
 -1      2467 1.18785E+02 5.30525E+00 0.00000E+00
 -1      2468 1.17285E+02 5.30525E+00 0.00000E+00
 -1      2469 1.16535E+02 6.60425E+00 0.00000E+00
 -1      2470 1.21785E+02 5.30525E+00 0.00000E+00
 -1      2471 1.20285E+02 5.30525E+00 0.00000E+00
 -1      2472 1.19535E+02 6.60425E+00 0.00000E+00
 -1      2473 1.24785E+02 5.30525E+00 0.00000E+00
 -1      2474 1.23285E+02 5.30525E+00 0.00000E+00
 -1      2475 1.22535E+02 6.60425E+00 0.00000E+00
 -1      2476 1.27785E+02 5.30525E+00 0.00000E+00
 -1      2477 1.26285E+02 5.30525E+00 0.00000E+00
 -1      2478 1.25535E+02 6.60425E+00 0.00000E+00
 -1      2479 1.30785E+02 5.30525E+00 0.00000E+00
 -1      2480 1.29285E+02 5.30525E+00 0.00000E+00
 -1      2481 1.28535E+02 6.60425E+00 0.00000E+00
 -1      2482 1.33785E+02 5.30525E+00 0.00000E+00
 -1      2483 1.32285E+02 5.30525E+00 0.00000E+00
 -1      2484 1.31535E+02 6.60425E+00 0.00000E+00
 -1      2485 1.36785E+02 5.30525E+00 0.00000E+00
 -1      2486 1.35285E+02 5.30525E+00 0.00000E+00
 -1      2487 1.34535E+02 6.60425E+00 0.00000E+00
 -1      2488 1.39785E+02 5.30525E+00 0.00000E+00
 -1      2489 1.38285E+02 5.30525E+00 0.00000E+00
 -1      2490 1.37535E+02 6.60425E+00 0.00000E+00
 -1      2491 1.42785E+02 5.30525E+00 0.00000E+00
 -1      2492 1.41285E+02 5.30525E+00 0.00000E+00
 -1      2493 1.40535E+02 6.60425E+00 0.00000E+00
 -1      2494 1.44336E+02 5.26953E+00 0.00000E+00
 -1      2495 1.43505E+02 1.69125E+01 0.00000E+00
 -1      2496 1.43505E+02 1.54375E+01 0.00000E+00
 -1      2497 1.43505E+02 1.98625E+01 0.00000E+00
 -1      2498 1.43505E+02 1.83875E+01 0.00000E+00
 -1      2499 1.42206E+02 1.76500E+01 0.00000E+00
 -1      2500 1.43505E+02 1.10625E+01 0.00000E+00
 -1      2501 1.43505E+02 9.58750E+00 0.00000E+00
 -1      2502 1.43505E+02 1.39750E+01 0.00000E+00
 -1      2503 1.43505E+02 1.25250E+01 0.00000E+00
 -1      2504 1.42206E+02 1.17875E+01 0.00000E+00
 -1      2505 1.42206E+02 1.47125E+01 0.00000E+00
 -1      2506 1.43505E+02 2.28125E+01 0.00000E+00
 -1      2507 1.43505E+02 2.13375E+01 0.00000E+00
 -1      2508 1.42206E+02 2.06000E+01 0.00000E+00
 -1      2509 1.43505E+02 2.57625E+01 0.00000E+00
 -1      2510 1.43505E+02 2.42875E+01 0.00000E+00
 -1      2511 1.42206E+02 2.35500E+01 0.00000E+00
 -1      2512 1.43505E+02 2.87125E+01 0.00000E+00
 -1      2513 1.43505E+02 2.72375E+01 0.00000E+00
 -1      2514 1.42206E+02 2.65000E+01 0.00000E+00
 -1      2515 1.43505E+02 3.16125E+01 0.00000E+00
 -1      2516 1.43505E+02 3.01625E+01 0.00000E+00
 -1      2517 1.42206E+02 2.94250E+01 0.00000E+00
 -1      2518 1.43505E+02 3.45625E+01 0.00000E+00
 -1      2519 1.43505E+02 3.30875E+01 0.00000E+00
 -1      2520 1.42206E+02 3.23500E+01 0.00000E+00
 -1      2521 1.43505E+02 3.75125E+01 0.00000E+00
 -1      2522 1.43505E+02 3.60375E+01 0.00000E+00
 -1      2523 1.42206E+02 3.53000E+01 0.00000E+00
 -1      2524 1.43505E+02 4.04625E+01 0.00000E+00
 -1      2525 1.43505E+02 3.89875E+01 0.00000E+00
 -1      2526 1.42206E+02 3.82500E+01 0.00000E+00
 -1      2527 1.44321E+02 4.30606E+01 0.00000E+00
 -1      2528 9.43853E+01 2.20758E+01 0.00000E+00
 -1      2529 9.40305E+01 2.30643E+01 0.00000E+00
 -1      2530 1.67850E+01 5.30525E+00 0.00000E+00
 -1      2531 1.52850E+01 5.30525E+00 0.00000E+00
 -1      2532 1.75350E+01 6.60425E+00 0.00000E+00
 -1      2533 9.25552E+01 1.53402E+01 0.00000E+00
 -1      2534 9.32220E+01 1.62667E+01 0.00000E+00
 -1      2535 9.38260E+01 2.39700E+01 0.00000E+00
 -1      2536 9.36215E+01 2.48756E+01 0.00000E+00
 -1      2537 9.48105E+01 2.37654E+01 0.00000E+00
 -1      2538 6.55950E+00 4.28890E+01 0.00000E+00
 -1      2539 8.53650E+00 4.32410E+01 0.00000E+00
 -1      2540 9.28650E+00 4.19420E+01 0.00000E+00
 -1      2541 6.55950E+00 4.14140E+01 0.00000E+00
 -1      2542 9.10859E+01 1.37291E+01 0.00000E+00
 -1      2543 9.17592E+01 1.44789E+01 0.00000E+00
 -1      2544 7.76988E+01 2.97084E+01 0.00000E+00
 -1      2545 7.67822E+01 2.89642E+01 0.00000E+00
 -1      2546 6.49500E+00 2.71625E+01 0.00000E+00
 -1      2547 6.49500E+00 2.86375E+01 0.00000E+00
 -1      2548 7.79400E+00 2.93750E+01 0.00000E+00
 -1      2549 7.79400E+00 2.64250E+01 0.00000E+00
 -1      2550 8.28786E+01 1.07621E+01 0.00000E+00
 -1      2551 8.39849E+01 1.08964E+01 0.00000E+00
 -1      2552 7.57403E+01 2.81848E+01 0.00000E+00
 -1      2553 7.52147E+01 2.74470E+01 0.00000E+00
 -1      2554 8.50004E+01 1.09672E+01 0.00000E+00
 -1      2555 8.60159E+01 1.10379E+01 0.00000E+00
 -1      2556 8.45405E+01 1.01319E+01 0.00000E+00
 -1      2557 8.03353E+01 1.11743E+01 0.00000E+00
 -1      2558 8.13778E+01 1.07799E+01 0.00000E+00
 -1      2559 7.84199E+01 1.23790E+01 0.00000E+00
 -1      2560 7.92527E+01 1.18197E+01 0.00000E+00
 -1      2561 7.67431E+01 1.35795E+01 0.00000E+00
 -1      2562 7.75815E+01 1.29793E+01 0.00000E+00
 -1      2563 7.75197E+01 1.19877E+01 0.00000E+00
 -1      2564 7.52747E+01 1.54687E+01 0.00000E+00
 -1      2565 7.58032E+01 1.45784E+01 0.00000E+00
 -1      2566 7.41451E+01 1.70842E+01 0.00000E+00
 -1      2567 7.47099E+01 1.62765E+01 0.00000E+00
 -1      2568 7.42367E+01 1.53935E+01 0.00000E+00
 -1      2569 7.33300E+01 1.93508E+01 0.00000E+00
 -1      2570 7.35775E+01 1.82862E+01 0.00000E+00
 -1      2571 7.31296E+01 2.42307E+01 0.00000E+00
 -1      2572 7.29792E+01 2.33062E+01 0.00000E+00
 -1      2573 8.44960E+01 3.15499E+01 0.00000E+00
 -1      2574 8.34883E+01 3.18314E+01 0.00000E+00
 -1      2575 7.44296E+01 2.64696E+01 0.00000E+00
 -1      2576 7.36445E+01 2.54921E+01 0.00000E+00
 -1      2577 7.38575E+01 2.74333E+01 0.00000E+00
 -1      2578 7.95066E+01 3.08610E+01 0.00000E+00
 -1      2579 7.86808E+01 3.03911E+01 0.00000E+00
 -1      2580 8.18987E+01 3.17887E+01 0.00000E+00
 -1      2581 8.06720E+01 3.13687E+01 0.00000E+00
 -1      2582 8.64088E+01 3.11925E+01 0.00000E+00
 -1      2583 8.54524E+01 3.13712E+01 0.00000E+00
 -1      2584 8.51568E+01 3.22572E+01 0.00000E+00
 -1      2585 8.83606E+01 3.05695E+01 0.00000E+00
 -1      2586 8.74432E+01 3.09049E+01 0.00000E+00
 -1      2587 9.03135E+01 2.92773E+01 0.00000E+00
 -1      2588 8.94669E+01 2.99436E+01 0.00000E+00
 -1      2589 9.17024E+01 2.76654E+01 0.00000E+00
 -1      2590 9.10996E+01 2.84001E+01 0.00000E+00
 -1      2591 9.29068E+01 2.59080E+01 0.00000E+00
 -1      2592 9.23073E+01 2.67849E+01 0.00000E+00
 -1      2593 9.42325E+01 1.93860E+01 0.00000E+00
 -1      2594 9.44493E+01 2.05576E+01 0.00000E+00
 -1      2595 8.07525E+00 5.11044E+00 0.00000E+00
 -1      2596 6.57525E+00 5.11044E+00 0.00000E+00
 -1      2597 6.40575E+00 6.01981E+00 0.00000E+00
 -1      2598 8.82525E+00 6.40944E+00 0.00000E+00
 -1      2599 8.93216E+01 1.21898E+01 0.00000E+00
 -1      2600 9.02209E+01 1.27753E+01 0.00000E+00
 -1      2601 7.79400E+00 3.52687E+01 0.00000E+00
 -1      2602 6.49500E+00 3.60062E+01 0.00000E+00
 -1      2603 6.49500E+00 3.74750E+01 0.00000E+00
 -1      2604 1.45350E+01 6.60425E+00 0.00000E+00
 -1      2605 6.40575E+00 7.49481E+00 0.00000E+00
 -1      2606 8.92157E+01 1.12339E+01 0.00000E+00
 -1      2607 9.11956E+01 1.25772E+01 0.00000E+00
 -1      2608 9.41719E+01 1.64240E+01 0.00000E+00
 -1      2609 1.43586E+02 6.56853E+00 0.00000E+00
 -1      2610 1.43419E+02 7.72713E+00 0.00000E+00
 -1      2611 1.42758E+02 4.35929E+01 0.00000E+00
 -1      2612 1.43241E+02 4.17323E+01 0.00000E+00
 -1      2613 1.41942E+02 4.09948E+01 0.00000E+00
 -1      2614 1.41414E+02 4.35342E+01 0.00000E+00
 -1      2615 9.49171E+01 1.87089E+01 0.00000E+00
 -1      2616 9.38913E+01 2.57035E+01 0.00000E+00
 -1      2617 9.50790E+01 2.13416E+01 0.00000E+00
 -1      2618 9.57087E+01 2.21256E+01 0.00000E+00
 -1      2619 9.57726E+01 2.06074E+01 0.00000E+00
 -1      2620 7.70475E+00 8.23231E+00 0.00000E+00
 -1      2621 9.28566E+01 1.43923E+01 0.00000E+00
 -1      2622 9.25717E+01 2.76164E+01 0.00000E+00
 -1      2623 9.11807E+01 2.93742E+01 0.00000E+00
 -1      2624 6.55950E+00 3.99453E+01 0.00000E+00
 -1      2625 7.77084E+01 3.06523E+01 0.00000E+00
 -1      2626 7.56845E+01 2.91901E+01 0.00000E+00
 -1      2627 8.71476E+01 3.17909E+01 0.00000E+00
 -1      2628 8.26107E+01 3.23931E+01 0.00000E+00
 -1      2629 8.17332E+01 3.29548E+01 0.00000E+00
 -1      2630 8.33228E+01 3.29976E+01 0.00000E+00
 -1      2631 7.25575E+01 2.51944E+01 0.00000E+00
 -1      2632 7.31044E+01 1.74032E+01 0.00000E+00
 -1      2633 7.57414E+01 1.35869E+01 0.00000E+00
 -1      2634 7.23947E+01 2.27038E+01 0.00000E+00
 -1      2635 7.26419E+01 2.00399E+01 0.00000E+00
 -1      2636 8.68284E+01 1.05235E+01 0.00000E+00
 -1      2637 7.94408E+01 1.07421E+01 0.00000E+00
 -1      2638 7.98558E+01 3.18427E+01 0.00000E+00
 -1      2639 8.92883E+01 3.08773E+01 0.00000E+00
 -1      2640 1.42120E+02 8.46463E+00 0.00000E+00
 -1      2641 1.40664E+02 4.22352E+01 0.00000E+00
 -1      2642 8.15385E+01 9.70308E+00 0.00000E+00
 -1      2643 8.23929E+01 1.03863E+01 0.00000E+00
 -1      2644 9.09300E+00 1.98250E+01 0.00000E+00
 -1      2645 9.09300E+00 2.12750E+01 0.00000E+00
 -1      2646 9.09300E+00 2.27500E+01 0.00000E+00
 -1      2647 9.09300E+00 2.42250E+01 0.00000E+00
 -1      2648 1.03920E+01 2.20250E+01 0.00000E+00
 -1      2649 9.09300E+00 1.39375E+01 0.00000E+00
 -1      2650 9.09300E+00 1.54125E+01 0.00000E+00
 -1      2651 9.09300E+00 1.09875E+01 0.00000E+00
 -1      2652 9.09300E+00 1.24625E+01 0.00000E+00
 -1      2653 1.03920E+01 1.32000E+01 0.00000E+00
 -1      2654 1.22850E+01 7.90325E+00 0.00000E+00
 -1      2655 1.07850E+01 7.90325E+00 0.00000E+00
 -1      2656 9.32114E+01 1.32659E+01 0.00000E+00
 -1      2657 9.40075E+01 1.41271E+01 0.00000E+00
 -1      2658 1.52850E+01 7.90325E+00 0.00000E+00
 -1      2659 1.37850E+01 7.90325E+00 0.00000E+00
 -1      2660 1.30350E+01 9.20225E+00 0.00000E+00
 -1      2661 9.14815E+01 1.13583E+01 0.00000E+00
 -1      2662 9.23464E+01 1.23121E+01 0.00000E+00
 -1      2663 9.34973E+01 1.20469E+01 0.00000E+00
 -1      2664 8.30393E+01 9.68532E+00 0.00000E+00
 -1      2665 8.85168E+00 4.05347E+01 0.00000E+00
 -1      2666 1.02152E+01 4.07987E+01 0.00000E+00
 -1      2667 1.44000E+01 4.09070E+01 0.00000E+00
 -1      2668 1.59000E+01 4.09070E+01 0.00000E+00
 -1      2669 1.74000E+01 4.09070E+01 0.00000E+00
 -1      2670 1.89000E+01 4.09070E+01 0.00000E+00
 -1      2671 1.66500E+01 3.96080E+01 0.00000E+00
 -1      2672 2.04000E+01 4.09070E+01 0.00000E+00
 -1      2673 2.19000E+01 4.09070E+01 0.00000E+00
 -1      2674 1.96500E+01 3.96080E+01 0.00000E+00
 -1      2675 2.34000E+01 4.09070E+01 0.00000E+00
 -1      2676 2.49000E+01 4.09070E+01 0.00000E+00
 -1      2677 2.26500E+01 3.96080E+01 0.00000E+00
 -1      2678 2.64000E+01 4.09070E+01 0.00000E+00
 -1      2679 2.79000E+01 4.09070E+01 0.00000E+00
 -1      2680 2.56500E+01 3.96080E+01 0.00000E+00
 -1      2681 2.94000E+01 4.09070E+01 0.00000E+00
 -1      2682 3.09000E+01 4.09070E+01 0.00000E+00
 -1      2683 2.86500E+01 3.96080E+01 0.00000E+00
 -1      2684 3.24000E+01 4.09070E+01 0.00000E+00
 -1      2685 3.39000E+01 4.09070E+01 0.00000E+00
 -1      2686 3.16500E+01 3.96080E+01 0.00000E+00
 -1      2687 3.54000E+01 4.09070E+01 0.00000E+00
 -1      2688 3.69000E+01 4.09070E+01 0.00000E+00
 -1      2689 3.46500E+01 3.96080E+01 0.00000E+00
 -1      2690 3.84000E+01 4.09070E+01 0.00000E+00
 -1      2691 3.99000E+01 4.09070E+01 0.00000E+00
 -1      2692 3.76500E+01 3.96080E+01 0.00000E+00
 -1      2693 4.14000E+01 4.09070E+01 0.00000E+00
 -1      2694 4.29000E+01 4.09070E+01 0.00000E+00
 -1      2695 4.06500E+01 3.96080E+01 0.00000E+00
 -1      2696 4.44000E+01 4.09070E+01 0.00000E+00
 -1      2697 4.59000E+01 4.09070E+01 0.00000E+00
 -1      2698 4.36500E+01 3.96080E+01 0.00000E+00
 -1      2699 4.74000E+01 4.09070E+01 0.00000E+00
 -1      2700 4.89000E+01 4.09070E+01 0.00000E+00
 -1      2701 4.66500E+01 3.96080E+01 0.00000E+00
 -1      2702 5.04000E+01 4.09070E+01 0.00000E+00
 -1      2703 5.19000E+01 4.09070E+01 0.00000E+00
 -1      2704 4.96500E+01 3.96080E+01 0.00000E+00
 -1      2705 5.34000E+01 4.09070E+01 0.00000E+00
 -1      2706 5.49000E+01 4.09070E+01 0.00000E+00
 -1      2707 5.26500E+01 3.96080E+01 0.00000E+00
 -1      2708 5.64000E+01 4.09070E+01 0.00000E+00
 -1      2709 5.79000E+01 4.09070E+01 0.00000E+00
 -1      2710 5.56500E+01 3.96080E+01 0.00000E+00
 -1      2711 5.94000E+01 4.09070E+01 0.00000E+00
 -1      2712 6.09000E+01 4.09070E+01 0.00000E+00
 -1      2713 5.86500E+01 3.96080E+01 0.00000E+00
 -1      2714 6.24000E+01 4.09070E+01 0.00000E+00
 -1      2715 6.39000E+01 4.09070E+01 0.00000E+00
 -1      2716 6.16500E+01 3.96080E+01 0.00000E+00
 -1      2717 6.54000E+01 4.09070E+01 0.00000E+00
 -1      2718 6.69000E+01 4.09070E+01 0.00000E+00
 -1      2719 6.46500E+01 3.96080E+01 0.00000E+00
 -1      2720 6.84000E+01 4.09070E+01 0.00000E+00
 -1      2721 6.99000E+01 4.09070E+01 0.00000E+00
 -1      2722 6.76500E+01 3.96080E+01 0.00000E+00
 -1      2723 7.14000E+01 4.09070E+01 0.00000E+00
 -1      2724 7.29000E+01 4.09070E+01 0.00000E+00
 -1      2725 7.06500E+01 3.96080E+01 0.00000E+00
 -1      2726 7.44000E+01 4.09070E+01 0.00000E+00
 -1      2727 7.59000E+01 4.09070E+01 0.00000E+00
 -1      2728 7.36500E+01 3.96080E+01 0.00000E+00
 -1      2729 7.74000E+01 4.09070E+01 0.00000E+00
 -1      2730 7.89000E+01 4.09070E+01 0.00000E+00
 -1      2731 7.66500E+01 3.96080E+01 0.00000E+00
 -1      2732 8.04000E+01 4.09070E+01 0.00000E+00
 -1      2733 8.19000E+01 4.09070E+01 0.00000E+00
 -1      2734 7.96500E+01 3.96080E+01 0.00000E+00
 -1      2735 8.34000E+01 4.09070E+01 0.00000E+00
 -1      2736 8.49000E+01 4.09070E+01 0.00000E+00
 -1      2737 8.26500E+01 3.96080E+01 0.00000E+00
 -1      2738 8.64000E+01 4.09070E+01 0.00000E+00
 -1      2739 8.79000E+01 4.09070E+01 0.00000E+00
 -1      2740 8.56500E+01 3.96080E+01 0.00000E+00
 -1      2741 8.94000E+01 4.09070E+01 0.00000E+00
 -1      2742 9.09000E+01 4.09070E+01 0.00000E+00
 -1      2743 8.86500E+01 3.96080E+01 0.00000E+00
 -1      2744 9.24000E+01 4.09070E+01 0.00000E+00
 -1      2745 9.39000E+01 4.09070E+01 0.00000E+00
 -1      2746 9.16500E+01 3.96080E+01 0.00000E+00
 -1      2747 9.54000E+01 4.09070E+01 0.00000E+00
 -1      2748 9.69000E+01 4.09070E+01 0.00000E+00
 -1      2749 9.46500E+01 3.96080E+01 0.00000E+00
 -1      2750 9.84000E+01 4.09070E+01 0.00000E+00
 -1      2751 9.99000E+01 4.09070E+01 0.00000E+00
 -1      2752 9.76500E+01 3.96080E+01 0.00000E+00
 -1      2753 1.01400E+02 4.09070E+01 0.00000E+00
 -1      2754 1.02900E+02 4.09070E+01 0.00000E+00
 -1      2755 1.00650E+02 3.96080E+01 0.00000E+00
 -1      2756 1.04400E+02 4.09070E+01 0.00000E+00
 -1      2757 1.05900E+02 4.09070E+01 0.00000E+00
 -1      2758 1.03650E+02 3.96080E+01 0.00000E+00
 -1      2759 1.07400E+02 4.09070E+01 0.00000E+00
 -1      2760 1.08900E+02 4.09070E+01 0.00000E+00
 -1      2761 1.06650E+02 3.96080E+01 0.00000E+00
 -1      2762 1.10400E+02 4.09070E+01 0.00000E+00
 -1      2763 1.11900E+02 4.09070E+01 0.00000E+00
 -1      2764 1.09650E+02 3.96080E+01 0.00000E+00
 -1      2765 1.13400E+02 4.09070E+01 0.00000E+00
 -1      2766 1.14900E+02 4.09070E+01 0.00000E+00
 -1      2767 1.12650E+02 3.96080E+01 0.00000E+00
 -1      2768 1.16400E+02 4.09070E+01 0.00000E+00
 -1      2769 1.17900E+02 4.09070E+01 0.00000E+00
 -1      2770 1.15650E+02 3.96080E+01 0.00000E+00
 -1      2771 1.19400E+02 4.09070E+01 0.00000E+00
 -1      2772 1.20900E+02 4.09070E+01 0.00000E+00
 -1      2773 1.18650E+02 3.96080E+01 0.00000E+00
 -1      2774 1.22400E+02 4.09070E+01 0.00000E+00
 -1      2775 1.23900E+02 4.09070E+01 0.00000E+00
 -1      2776 1.21650E+02 3.96080E+01 0.00000E+00
 -1      2777 1.25400E+02 4.09070E+01 0.00000E+00
 -1      2778 1.26900E+02 4.09070E+01 0.00000E+00
 -1      2779 1.24650E+02 3.96080E+01 0.00000E+00
 -1      2780 1.28400E+02 4.09070E+01 0.00000E+00
 -1      2781 1.29900E+02 4.09070E+01 0.00000E+00
 -1      2782 1.27650E+02 3.96080E+01 0.00000E+00
 -1      2783 1.31400E+02 4.09070E+01 0.00000E+00
 -1      2784 1.32900E+02 4.09070E+01 0.00000E+00
 -1      2785 1.30650E+02 3.96080E+01 0.00000E+00
 -1      2786 1.34400E+02 4.09070E+01 0.00000E+00
 -1      2787 1.35900E+02 4.09070E+01 0.00000E+00
 -1      2788 1.33650E+02 3.96080E+01 0.00000E+00
 -1      2789 1.37400E+02 4.09070E+01 0.00000E+00
 -1      2790 1.38900E+02 4.09070E+01 0.00000E+00
 -1      2791 1.36650E+02 3.96080E+01 0.00000E+00
 -1      2792 9.56446E+01 1.79814E+01 0.00000E+00
 -1      2793 9.58705E+01 1.90958E+01 0.00000E+00
 -1      2794 1.40928E+02 4.09655E+01 0.00000E+00
 -1      2795 1.41192E+02 3.96958E+01 0.00000E+00
 -1      2796 1.39914E+02 4.09362E+01 0.00000E+00
 -1      2797 2.12850E+01 7.90325E+00 0.00000E+00
 -1      2798 1.97850E+01 7.90325E+00 0.00000E+00
 -1      2799 3.02850E+01 7.90325E+00 0.00000E+00
 -1      2800 2.87850E+01 7.90325E+00 0.00000E+00
 -1      2801 3.32850E+01 7.90325E+00 0.00000E+00
 -1      2802 3.17850E+01 7.90325E+00 0.00000E+00
 -1      2803 3.10350E+01 9.20225E+00 0.00000E+00
 -1      2804 3.62850E+01 7.90325E+00 0.00000E+00
 -1      2805 3.47850E+01 7.90325E+00 0.00000E+00
 -1      2806 3.40350E+01 9.20225E+00 0.00000E+00
 -1      2807 3.92850E+01 7.90325E+00 0.00000E+00
 -1      2808 3.77850E+01 7.90325E+00 0.00000E+00
 -1      2809 3.70350E+01 9.20225E+00 0.00000E+00
 -1      2810 4.22850E+01 7.90325E+00 0.00000E+00
 -1      2811 4.07850E+01 7.90325E+00 0.00000E+00
 -1      2812 4.00350E+01 9.20225E+00 0.00000E+00
 -1      2813 4.52850E+01 7.90325E+00 0.00000E+00
 -1      2814 4.37850E+01 7.90325E+00 0.00000E+00
 -1      2815 4.30350E+01 9.20225E+00 0.00000E+00
 -1      2816 4.82850E+01 7.90325E+00 0.00000E+00
 -1      2817 4.67850E+01 7.90325E+00 0.00000E+00
 -1      2818 4.60350E+01 9.20225E+00 0.00000E+00
 -1      2819 5.12850E+01 7.90325E+00 0.00000E+00
 -1      2820 4.97850E+01 7.90325E+00 0.00000E+00
 -1      2821 4.90350E+01 9.20225E+00 0.00000E+00
 -1      2822 5.42850E+01 7.90325E+00 0.00000E+00
 -1      2823 5.27850E+01 7.90325E+00 0.00000E+00
 -1      2824 5.20350E+01 9.20225E+00 0.00000E+00
 -1      2825 5.72850E+01 7.90325E+00 0.00000E+00
 -1      2826 5.57850E+01 7.90325E+00 0.00000E+00
 -1      2827 5.50350E+01 9.20225E+00 0.00000E+00
 -1      2828 6.02850E+01 7.90325E+00 0.00000E+00
 -1      2829 5.87850E+01 7.90325E+00 0.00000E+00
 -1      2830 5.80350E+01 9.20225E+00 0.00000E+00
 -1      2831 6.32850E+01 7.90325E+00 0.00000E+00
 -1      2832 6.17850E+01 7.90325E+00 0.00000E+00
 -1      2833 6.10350E+01 9.20225E+00 0.00000E+00
 -1      2834 6.62850E+01 7.90325E+00 0.00000E+00
 -1      2835 6.47850E+01 7.90325E+00 0.00000E+00
 -1      2836 6.40350E+01 9.20225E+00 0.00000E+00
 -1      2837 6.92850E+01 7.90325E+00 0.00000E+00
 -1      2838 6.77850E+01 7.90325E+00 0.00000E+00
 -1      2839 6.70350E+01 9.20225E+00 0.00000E+00
 -1      2840 7.22850E+01 7.90325E+00 0.00000E+00
 -1      2841 7.07850E+01 7.90325E+00 0.00000E+00
 -1      2842 7.00350E+01 9.20225E+00 0.00000E+00
 -1      2843 7.52850E+01 7.90325E+00 0.00000E+00
 -1      2844 7.37850E+01 7.90325E+00 0.00000E+00
 -1      2845 7.30350E+01 9.20225E+00 0.00000E+00
 -1      2846 8.37943E+01 7.95688E+00 0.00000E+00
 -1      2847 8.22943E+01 7.95688E+00 0.00000E+00
 -1      2848 8.67955E+01 8.40344E+00 0.00000E+00
 -1      2849 8.52955E+01 8.40344E+00 0.00000E+00
 -1      2850 8.95679E+01 8.72428E+00 0.00000E+00
 -1      2851 8.80679E+01 8.72428E+00 0.00000E+00
 -1      2852 9.33336E+01 8.84867E+00 0.00000E+00
 -1      2853 9.18336E+01 8.84867E+00 0.00000E+00
 -1      2854 9.92850E+01 7.90325E+00 0.00000E+00
 -1      2855 9.77850E+01 7.90325E+00 0.00000E+00
 -1      2856 1.02285E+02 7.90325E+00 0.00000E+00
 -1      2857 1.00785E+02 7.90325E+00 0.00000E+00
 -1      2858 1.00035E+02 9.20225E+00 0.00000E+00
 -1      2859 1.05285E+02 7.90325E+00 0.00000E+00
 -1      2860 1.03785E+02 7.90325E+00 0.00000E+00
 -1      2861 1.03035E+02 9.20225E+00 0.00000E+00
 -1      2862 1.08285E+02 7.90325E+00 0.00000E+00
 -1      2863 1.06785E+02 7.90325E+00 0.00000E+00
 -1      2864 1.06035E+02 9.20225E+00 0.00000E+00
 -1      2865 1.11285E+02 7.90325E+00 0.00000E+00
 -1      2866 1.09785E+02 7.90325E+00 0.00000E+00
 -1      2867 1.09035E+02 9.20225E+00 0.00000E+00
 -1      2868 1.14285E+02 7.90325E+00 0.00000E+00
 -1      2869 1.12785E+02 7.90325E+00 0.00000E+00
 -1      2870 1.12035E+02 9.20225E+00 0.00000E+00
 -1      2871 1.17285E+02 7.90325E+00 0.00000E+00
 -1      2872 1.15785E+02 7.90325E+00 0.00000E+00
 -1      2873 1.15035E+02 9.20225E+00 0.00000E+00
 -1      2874 1.20285E+02 7.90325E+00 0.00000E+00
 -1      2875 1.18785E+02 7.90325E+00 0.00000E+00
 -1      2876 1.18035E+02 9.20225E+00 0.00000E+00
 -1      2877 1.23285E+02 7.90325E+00 0.00000E+00
 -1      2878 1.21785E+02 7.90325E+00 0.00000E+00
 -1      2879 1.21035E+02 9.20225E+00 0.00000E+00
 -1      2880 1.26285E+02 7.90325E+00 0.00000E+00
 -1      2881 1.24785E+02 7.90325E+00 0.00000E+00
 -1      2882 1.24035E+02 9.20225E+00 0.00000E+00
 -1      2883 1.29285E+02 7.90325E+00 0.00000E+00
 -1      2884 1.27785E+02 7.90325E+00 0.00000E+00
 -1      2885 1.27035E+02 9.20225E+00 0.00000E+00
 -1      2886 1.32285E+02 7.90325E+00 0.00000E+00
 -1      2887 1.30785E+02 7.90325E+00 0.00000E+00
 -1      2888 1.30035E+02 9.20225E+00 0.00000E+00
 -1      2889 1.35285E+02 7.90325E+00 0.00000E+00
 -1      2890 1.33785E+02 7.90325E+00 0.00000E+00
 -1      2891 1.33035E+02 9.20225E+00 0.00000E+00
 -1      2892 1.38285E+02 7.90325E+00 0.00000E+00
 -1      2893 1.36785E+02 7.90325E+00 0.00000E+00
 -1      2894 1.36035E+02 9.20225E+00 0.00000E+00
 -1      2895 1.40953E+02 8.18394E+00 0.00000E+00
 -1      2896 1.39453E+02 8.18394E+00 0.00000E+00
 -1      2897 1.38703E+02 9.48294E+00 0.00000E+00
 -1      2898 1.41038E+02 1.00443E+01 0.00000E+00
 -1      2899 1.40907E+02 2.42875E+01 0.00000E+00
 -1      2900 1.40907E+02 2.28125E+01 0.00000E+00
 -1      2901 1.40907E+02 1.83875E+01 0.00000E+00
 -1      2902 1.40907E+02 1.69125E+01 0.00000E+00
 -1      2903 1.40907E+02 2.72375E+01 0.00000E+00
 -1      2904 1.40907E+02 2.57625E+01 0.00000E+00
 -1      2905 1.39608E+02 2.50250E+01 0.00000E+00
 -1      2906 1.40907E+02 2.13375E+01 0.00000E+00
 -1      2907 1.40907E+02 1.98625E+01 0.00000E+00
 -1      2908 1.39608E+02 1.91250E+01 0.00000E+00
 -1      2909 1.39608E+02 2.20750E+01 0.00000E+00
 -1      2910 9.57493E+01 2.35015E+01 0.00000E+00
 -1      2911 9.55448E+01 2.44071E+01 0.00000E+00
 -1      2912 8.91450E+00 8.42712E+00 0.00000E+00
 -1      2913 1.40907E+02 3.01375E+01 0.00000E+00
 -1      2914 1.40907E+02 2.86875E+01 0.00000E+00
 -1      2915 1.39608E+02 2.79500E+01 0.00000E+00
 -1      2916 1.40907E+02 3.30875E+01 0.00000E+00
 -1      2917 1.40907E+02 3.16125E+01 0.00000E+00
 -1      2918 1.39608E+02 3.08750E+01 0.00000E+00
 -1      2919 1.40907E+02 3.60375E+01 0.00000E+00
 -1      2920 1.40907E+02 3.45625E+01 0.00000E+00
 -1      2921 1.39608E+02 3.38250E+01 0.00000E+00
 -1      2922 1.41192E+02 3.82207E+01 0.00000E+00
 -1      2923 1.82850E+01 7.90325E+00 0.00000E+00
 -1      2924 1.67850E+01 7.90325E+00 0.00000E+00
 -1      2925 1.60350E+01 9.20225E+00 0.00000E+00
 -1      2926 1.90350E+01 9.20225E+00 0.00000E+00
 -1      2927 7.35815E+01 2.84590E+01 0.00000E+00
 -1      2928 7.27964E+01 2.74816E+01 0.00000E+00
 -1      2929 7.11526E+01 2.30130E+01 0.00000E+00
 -1      2930 7.15047E+01 2.17838E+01 0.00000E+00
 -1      2931 2.72850E+01 7.90325E+00 0.00000E+00
 -1      2932 2.57850E+01 7.90325E+00 0.00000E+00
 -1      2933 2.80350E+01 9.20225E+00 0.00000E+00
 -1      2934 2.42850E+01 7.90325E+00 0.00000E+00
 -1      2935 2.27850E+01 7.90325E+00 0.00000E+00
 -1      2936 2.50350E+01 9.20225E+00 0.00000E+00
 -1      2937 1.15576E+01 4.08528E+01 0.00000E+00
 -1      2938 1.30576E+01 4.08528E+01 0.00000E+00
 -1      2939 1.38076E+01 3.95538E+01 0.00000E+00
 -1      2940 1.11228E+01 3.94455E+01 0.00000E+00
 -1      2941 8.78945E+01 3.24733E+01 0.00000E+00
 -1      2942 8.68601E+01 3.27609E+01 0.00000E+00
 -1      2943 9.35465E+01 2.76380E+01 0.00000E+00
 -1      2944 9.29415E+01 2.85186E+01 0.00000E+00
 -1      2945 7.75663E+01 3.19041E+01 0.00000E+00
 -1      2946 7.65844E+01 3.12214E+01 0.00000E+00
 -1      2947 9.09300E+00 1.68813E+01 0.00000E+00
 -1      2948 9.09300E+00 1.83563E+01 0.00000E+00
 -1      2949 1.03920E+01 1.90812E+01 0.00000E+00
 -1      2950 1.03920E+01 1.61437E+01 0.00000E+00
 -1      2951 9.09300E+00 3.15875E+01 0.00000E+00
 -1      2952 9.09300E+00 3.30625E+01 0.00000E+00
 -1      2953 7.55425E+01 3.04420E+01 0.00000E+00
 -1      2954 7.45006E+01 2.96626E+01 0.00000E+00
 -1      2955 7.54004E+01 3.16938E+01 0.00000E+00
 -1      2956 7.84174E+01 1.02562E+01 0.00000E+00
 -1      2957 7.95001E+01 9.61080E+00 0.00000E+00
 -1      2958 7.98971E+01 3.29195E+01 0.00000E+00
 -1      2959 7.87317E+01 3.24118E+01 0.00000E+00
 -1      2960 7.76077E+01 3.29809E+01 0.00000E+00
 -1      2961 7.67406E+01 1.14567E+01 0.00000E+00
 -1      2962 7.75790E+01 1.08565E+01 0.00000E+00
 -1      2963 7.76383E+01 9.72519E+00 0.00000E+00
 -1      2964 7.45249E+01 1.33839E+01 0.00000E+00
 -1      2965 7.54648E+01 1.23850E+01 0.00000E+00
 -1      2966 7.31829E+01 1.52580E+01 0.00000E+00
 -1      2967 7.37477E+01 1.44502E+01 0.00000E+00
 -1      2968 7.13997E+01 2.03491E+01 0.00000E+00
 -1      2969 7.12948E+01 1.89145E+01 0.00000E+00
 -1      2970 7.01576E+01 2.06584E+01 0.00000E+00
 -1      2971 7.19434E+01 2.61809E+01 0.00000E+00
 -1      2972 7.14285E+01 2.49195E+01 0.00000E+00
 -1      2973 7.18623E+01 1.77125E+01 0.00000E+00
 -1      2974 7.24298E+01 1.65105E+01 0.00000E+00
 -1      2975 7.06202E+01 1.80217E+01 0.00000E+00
 -1      2976 9.03463E+01 3.14566E+01 0.00000E+00
 -1      2977 8.92400E+01 3.20825E+01 0.00000E+00
 -1      2978 9.49759E+01 2.55732E+01 0.00000E+00
 -1      2979 9.42612E+01 2.66056E+01 0.00000E+00
 -1      2980 9.46310E+01 2.75077E+01 0.00000E+00
 -1      2981 9.47728E+01 1.54571E+01 0.00000E+00
 -1      2982 9.52920E+01 1.66275E+01 0.00000E+00
 -1      2983 8.59037E+01 3.29396E+01 0.00000E+00
 -1      2984 8.49473E+01 3.31183E+01 0.00000E+00
 -1      2985 8.66507E+01 3.36220E+01 0.00000E+00
 -1      2986 7.48818E+00 3.88019E+01 0.00000E+00
 -1      2987 9.22124E+01 2.95079E+01 0.00000E+00
 -1      2988 9.14264E+01 3.03851E+01 0.00000E+00
 -1      2989 8.11664E+01 8.82998E+00 0.00000E+00
 -1      2990 8.09071E+01 7.47735E+00 0.00000E+00
 -1      2991 7.94071E+01 7.47735E+00 0.00000E+00
 -1      2992 8.01513E+01 9.22355E+00 0.00000E+00
 -1      2993 1.03920E+01 3.37938E+01 0.00000E+00
 -1      2994 9.09300E+00 3.45313E+01 0.00000E+00
 -1      2995 9.09300E+00 3.60000E+01 0.00000E+00
 -1      2996 1.03920E+01 2.49750E+01 0.00000E+00
 -1      2997 9.09300E+00 2.57000E+01 0.00000E+00
 -1      2998 9.09300E+00 2.71750E+01 0.00000E+00
 -1      2999 9.51276E+01 1.43306E+01 0.00000E+00
 -1      3000 8.89525E+01 3.30526E+01 0.00000E+00
 -1      3001 9.13780E+01 3.15903E+01 0.00000E+00
 -1      3002 9.72277E+01 1.91522E+01 0.00000E+00
 -1      3003 9.65002E+01 1.98798E+01 0.00000E+00
 -1      3004 9.71299E+01 2.06638E+01 0.00000E+00
 -1      3005 1.39164E+02 3.96372E+01 0.00000E+00
 -1      3006 9.62454E+01 1.70144E+01 0.00000E+00
 -1      3007 2.20350E+01 9.20225E+00 0.00000E+00
 -1      3008 7.64174E+01 8.46484E+00 0.00000E+00
 -1      3009 7.56674E+01 9.76384E+00 0.00000E+00
 -1      3010 7.87559E+01 7.86460E+00 0.00000E+00
 -1      3011 7.72559E+01 7.86460E+00 0.00000E+00
 -1      3012 7.05385E+01 2.39995E+01 0.00000E+00
 -1      3013 6.96486E+01 2.30795E+01 0.00000E+00
 -1      3014 6.99245E+01 2.49860E+01 0.00000E+00
 -1      3015 9.62850E+01 7.90325E+00 0.00000E+00
 -1      3016 9.47850E+01 7.90325E+00 0.00000E+00
 -1      3017 1.41038E+02 1.15068E+01 0.00000E+00
 -1      3018 1.39870E+02 1.12261E+01 0.00000E+00
 -1      3019 1.41038E+02 1.29693E+01 0.00000E+00
 -1      3020 9.64429E+01 2.27673E+01 0.00000E+00
 -1      3021 7.16674E+01 2.72066E+01 0.00000E+00
 -1      3022 7.19408E+01 1.55672E+01 0.00000E+00
 -1      3023 9.66450E+00 9.72612E+00 0.00000E+00
 -1      3024 1.39529E+02 3.85602E+01 0.00000E+00
 -1      3025 1.40542E+02 3.71145E+01 0.00000E+00
 -1      3026 1.39243E+02 3.63770E+01 0.00000E+00
 -1      3027 1.38514E+02 3.85310E+01 0.00000E+00
 -1      3028 8.06092E+01 3.35239E+01 0.00000E+00
 -1      3029 7.94852E+01 3.40930E+01 0.00000E+00
 -1      3030 8.13213E+01 3.41284E+01 0.00000E+00
 -1      3031 9.59146E+01 2.53092E+01 0.00000E+00
 -1      3032 9.40836E+01 1.01477E+01 0.00000E+00
 -1      3033 8.40697E+01 3.36800E+01 0.00000E+00
 -1      3034 8.31922E+01 3.42416E+01 0.00000E+00
 -1      3035 8.48167E+01 3.43623E+01 0.00000E+00
 -1      3036 9.09300E+00 2.86437E+01 0.00000E+00
 -1      3037 9.09300E+00 3.01187E+01 0.00000E+00
 -1      3038 1.03920E+01 3.08563E+01 0.00000E+00
 -1      3039 1.03920E+01 2.79188E+01 0.00000E+00
 -1      3040 1.40973E+02 1.56722E+01 0.00000E+00
 -1      3041 1.40973E+02 1.42097E+01 0.00000E+00
 -1      3042 1.39805E+02 1.39290E+01 0.00000E+00
 -1      3043 1.39674E+02 1.64097E+01 0.00000E+00
 -1      3044 7.34394E+01 2.97109E+01 0.00000E+00
 -1      3045 9.31872E+01 2.95295E+01 0.00000E+00
 -1      3046 7.55241E+01 1.12537E+01 0.00000E+00
 -1      3047 7.34710E+01 1.32483E+01 0.00000E+00
 -1      3048 1.09635E+01 1.04636E+01 0.00000E+00
 -1      3049 8.78718E+00 3.80644E+01 0.00000E+00
 -1      3050 9.70350E+01 9.20225E+00 0.00000E+00
 -1      3051 1.16910E+01 1.24625E+01 0.00000E+00
 -1      3052 1.16910E+01 1.39375E+01 0.00000E+00
 -1      3053 9.49486E+01 1.11015E+01 0.00000E+00
 -1      3054 1.89000E+01 3.83090E+01 0.00000E+00
 -1      3055 2.04000E+01 3.83090E+01 0.00000E+00
 -1      3056 2.19000E+01 3.83090E+01 0.00000E+00
 -1      3057 2.34000E+01 3.83090E+01 0.00000E+00
 -1      3058 2.11500E+01 3.70100E+01 0.00000E+00
 -1      3059 2.49000E+01 3.83090E+01 0.00000E+00
 -1      3060 2.64000E+01 3.83090E+01 0.00000E+00
 -1      3061 2.41500E+01 3.70100E+01 0.00000E+00
 -1      3062 2.79000E+01 3.83090E+01 0.00000E+00
 -1      3063 2.94000E+01 3.83090E+01 0.00000E+00
 -1      3064 2.71500E+01 3.70100E+01 0.00000E+00
 -1      3065 3.09000E+01 3.83090E+01 0.00000E+00
 -1      3066 3.24000E+01 3.83090E+01 0.00000E+00
 -1      3067 3.01500E+01 3.70100E+01 0.00000E+00
 -1      3068 3.39000E+01 3.83090E+01 0.00000E+00
 -1      3069 3.54000E+01 3.83090E+01 0.00000E+00
 -1      3070 3.31500E+01 3.70100E+01 0.00000E+00
 -1      3071 3.69000E+01 3.83090E+01 0.00000E+00
 -1      3072 3.84000E+01 3.83090E+01 0.00000E+00
 -1      3073 3.61500E+01 3.70100E+01 0.00000E+00
 -1      3074 3.99000E+01 3.83090E+01 0.00000E+00
 -1      3075 4.14000E+01 3.83090E+01 0.00000E+00
 -1      3076 3.91500E+01 3.70100E+01 0.00000E+00
 -1      3077 4.29000E+01 3.83090E+01 0.00000E+00
 -1      3078 4.44000E+01 3.83090E+01 0.00000E+00
 -1      3079 4.21500E+01 3.70100E+01 0.00000E+00
 -1      3080 4.59000E+01 3.83090E+01 0.00000E+00
 -1      3081 4.74000E+01 3.83090E+01 0.00000E+00
 -1      3082 4.51500E+01 3.70100E+01 0.00000E+00
 -1      3083 4.89000E+01 3.83090E+01 0.00000E+00
 -1      3084 5.04000E+01 3.83090E+01 0.00000E+00
 -1      3085 4.81500E+01 3.70100E+01 0.00000E+00
 -1      3086 5.19000E+01 3.83090E+01 0.00000E+00
 -1      3087 5.34000E+01 3.83090E+01 0.00000E+00
 -1      3088 5.11500E+01 3.70100E+01 0.00000E+00
 -1      3089 5.49000E+01 3.83090E+01 0.00000E+00
 -1      3090 5.64000E+01 3.83090E+01 0.00000E+00
 -1      3091 5.41500E+01 3.70100E+01 0.00000E+00
 -1      3092 5.79000E+01 3.83090E+01 0.00000E+00
 -1      3093 5.94000E+01 3.83090E+01 0.00000E+00
 -1      3094 5.71500E+01 3.70100E+01 0.00000E+00
 -1      3095 6.09000E+01 3.83090E+01 0.00000E+00
 -1      3096 6.24000E+01 3.83090E+01 0.00000E+00
 -1      3097 6.01500E+01 3.70100E+01 0.00000E+00
 -1      3098 6.39000E+01 3.83090E+01 0.00000E+00
 -1      3099 6.54000E+01 3.83090E+01 0.00000E+00
 -1      3100 6.31500E+01 3.70100E+01 0.00000E+00
 -1      3101 6.69000E+01 3.83090E+01 0.00000E+00
 -1      3102 6.84000E+01 3.83090E+01 0.00000E+00
 -1      3103 6.61500E+01 3.70100E+01 0.00000E+00
 -1      3104 6.99000E+01 3.83090E+01 0.00000E+00
 -1      3105 7.14000E+01 3.83090E+01 0.00000E+00
 -1      3106 6.91500E+01 3.70100E+01 0.00000E+00
 -1      3107 7.29000E+01 3.83090E+01 0.00000E+00
 -1      3108 7.44000E+01 3.83090E+01 0.00000E+00
 -1      3109 7.21500E+01 3.70100E+01 0.00000E+00
 -1      3110 7.59000E+01 3.83090E+01 0.00000E+00
 -1      3111 7.74000E+01 3.83090E+01 0.00000E+00
 -1      3112 7.51500E+01 3.70100E+01 0.00000E+00
 -1      3113 7.91736E+01 3.71527E+01 0.00000E+00
 -1      3114 8.06736E+01 3.71527E+01 0.00000E+00
 -1      3115 8.25446E+01 3.72660E+01 0.00000E+00
 -1      3116 8.40446E+01 3.72660E+01 0.00000E+00
 -1      3117 8.79000E+01 3.83090E+01 0.00000E+00
 -1      3118 8.94000E+01 3.83090E+01 0.00000E+00
 -1      3119 9.09000E+01 3.83090E+01 0.00000E+00
 -1      3120 9.24000E+01 3.83090E+01 0.00000E+00
 -1      3121 9.01500E+01 3.70100E+01 0.00000E+00
 -1      3122 9.39000E+01 3.83090E+01 0.00000E+00
 -1      3123 9.54000E+01 3.83090E+01 0.00000E+00
 -1      3124 9.31500E+01 3.70100E+01 0.00000E+00
 -1      3125 9.69000E+01 3.83090E+01 0.00000E+00
 -1      3126 9.84000E+01 3.83090E+01 0.00000E+00
 -1      3127 9.61500E+01 3.70100E+01 0.00000E+00
 -1      3128 9.99000E+01 3.83090E+01 0.00000E+00
 -1      3129 1.01400E+02 3.83090E+01 0.00000E+00
 -1      3130 9.91500E+01 3.70100E+01 0.00000E+00
 -1      3131 1.02900E+02 3.83090E+01 0.00000E+00
 -1      3132 1.04400E+02 3.83090E+01 0.00000E+00
 -1      3133 1.02150E+02 3.70100E+01 0.00000E+00
 -1      3134 1.05900E+02 3.83090E+01 0.00000E+00
 -1      3135 1.07400E+02 3.83090E+01 0.00000E+00
 -1      3136 1.05150E+02 3.70100E+01 0.00000E+00
 -1      3137 1.08900E+02 3.83090E+01 0.00000E+00
 -1      3138 1.10400E+02 3.83090E+01 0.00000E+00
 -1      3139 1.08150E+02 3.70100E+01 0.00000E+00
 -1      3140 1.11900E+02 3.83090E+01 0.00000E+00
 -1      3141 1.13400E+02 3.83090E+01 0.00000E+00
 -1      3142 1.11150E+02 3.70100E+01 0.00000E+00
 -1      3143 1.14900E+02 3.83090E+01 0.00000E+00
 -1      3144 1.16400E+02 3.83090E+01 0.00000E+00
 -1      3145 1.14150E+02 3.70100E+01 0.00000E+00
 -1      3146 1.17900E+02 3.83090E+01 0.00000E+00
 -1      3147 1.19400E+02 3.83090E+01 0.00000E+00
 -1      3148 1.17150E+02 3.70100E+01 0.00000E+00
 -1      3149 1.20900E+02 3.83090E+01 0.00000E+00
 -1      3150 1.22400E+02 3.83090E+01 0.00000E+00
 -1      3151 1.20150E+02 3.70100E+01 0.00000E+00
 -1      3152 1.23900E+02 3.83090E+01 0.00000E+00
 -1      3153 1.25400E+02 3.83090E+01 0.00000E+00
 -1      3154 1.23150E+02 3.70100E+01 0.00000E+00
 -1      3155 1.26900E+02 3.83090E+01 0.00000E+00
 -1      3156 1.28400E+02 3.83090E+01 0.00000E+00
 -1      3157 1.26150E+02 3.70100E+01 0.00000E+00
 -1      3158 1.29900E+02 3.83090E+01 0.00000E+00
 -1      3159 1.31400E+02 3.83090E+01 0.00000E+00
 -1      3160 1.29150E+02 3.70100E+01 0.00000E+00
 -1      3161 1.32900E+02 3.83090E+01 0.00000E+00
 -1      3162 1.34400E+02 3.83090E+01 0.00000E+00
 -1      3163 1.32150E+02 3.70100E+01 0.00000E+00
 -1      3164 1.35707E+02 3.84200E+01 0.00000E+00
 -1      3165 1.37207E+02 3.84200E+01 0.00000E+00
 -1      3166 1.37572E+02 3.73430E+01 0.00000E+00
 -1      3167 1.34957E+02 3.71210E+01 0.00000E+00
 -1      3168 7.91280E+01 8.73770E+00 0.00000E+00
 -1      3169 7.43916E+01 1.06921E+01 0.00000E+00
 -1      3170 3.17850E+01 1.05013E+01 0.00000E+00
 -1      3171 3.02850E+01 1.05013E+01 0.00000E+00
 -1      3172 4.07850E+01 1.05013E+01 0.00000E+00
 -1      3173 3.92850E+01 1.05013E+01 0.00000E+00
 -1      3174 4.37850E+01 1.05013E+01 0.00000E+00
 -1      3175 4.22850E+01 1.05013E+01 0.00000E+00
 -1      3176 4.15350E+01 1.18003E+01 0.00000E+00
 -1      3177 4.67850E+01 1.05013E+01 0.00000E+00
 -1      3178 4.52850E+01 1.05013E+01 0.00000E+00
 -1      3179 4.45350E+01 1.18003E+01 0.00000E+00
 -1      3180 4.97850E+01 1.05013E+01 0.00000E+00
 -1      3181 4.82850E+01 1.05013E+01 0.00000E+00
 -1      3182 4.75350E+01 1.18003E+01 0.00000E+00
 -1      3183 5.27850E+01 1.05013E+01 0.00000E+00
 -1      3184 5.12850E+01 1.05013E+01 0.00000E+00
 -1      3185 5.05350E+01 1.18003E+01 0.00000E+00
 -1      3186 5.57850E+01 1.05013E+01 0.00000E+00
 -1      3187 5.42850E+01 1.05013E+01 0.00000E+00
 -1      3188 5.35350E+01 1.18003E+01 0.00000E+00
 -1      3189 5.87850E+01 1.05013E+01 0.00000E+00
 -1      3190 5.72850E+01 1.05013E+01 0.00000E+00
 -1      3191 5.65350E+01 1.18003E+01 0.00000E+00
 -1      3192 6.17850E+01 1.05013E+01 0.00000E+00
 -1      3193 6.02850E+01 1.05013E+01 0.00000E+00
 -1      3194 5.95350E+01 1.18003E+01 0.00000E+00
 -1      3195 6.47850E+01 1.05013E+01 0.00000E+00
 -1      3196 6.32850E+01 1.05013E+01 0.00000E+00
 -1      3197 6.25350E+01 1.18003E+01 0.00000E+00
 -1      3198 6.77850E+01 1.05013E+01 0.00000E+00
 -1      3199 6.62850E+01 1.05013E+01 0.00000E+00
 -1      3200 6.55350E+01 1.18003E+01 0.00000E+00
 -1      3201 7.07850E+01 1.05013E+01 0.00000E+00
 -1      3202 6.92850E+01 1.05013E+01 0.00000E+00
 -1      3203 6.85350E+01 1.18003E+01 0.00000E+00
 -1      3204 7.28916E+01 1.06921E+01 0.00000E+00
 -1      3205 8.42800E+01 8.33270E+00 0.00000E+00
 -1      3206 9.06828E+01 9.11385E+00 0.00000E+00
 -1      3207 1.00785E+02 1.05013E+01 0.00000E+00
 -1      3208 9.92850E+01 1.05013E+01 0.00000E+00
 -1      3209 1.09785E+02 1.05013E+01 0.00000E+00
 -1      3210 1.08285E+02 1.05013E+01 0.00000E+00
 -1      3211 1.12785E+02 1.05013E+01 0.00000E+00
 -1      3212 1.11285E+02 1.05013E+01 0.00000E+00
 -1      3213 1.10535E+02 1.18003E+01 0.00000E+00
 -1      3214 1.15785E+02 1.05013E+01 0.00000E+00
 -1      3215 1.14285E+02 1.05013E+01 0.00000E+00
 -1      3216 1.13535E+02 1.18003E+01 0.00000E+00
 -1      3217 1.18785E+02 1.05013E+01 0.00000E+00
 -1      3218 1.17285E+02 1.05013E+01 0.00000E+00
 -1      3219 1.16535E+02 1.18003E+01 0.00000E+00
 -1      3220 1.21785E+02 1.05013E+01 0.00000E+00
 -1      3221 1.20285E+02 1.05013E+01 0.00000E+00
 -1      3222 1.19535E+02 1.18003E+01 0.00000E+00
 -1      3223 1.24785E+02 1.05013E+01 0.00000E+00
 -1      3224 1.23285E+02 1.05013E+01 0.00000E+00
 -1      3225 1.22535E+02 1.18003E+01 0.00000E+00
 -1      3226 1.27785E+02 1.05013E+01 0.00000E+00
 -1      3227 1.26285E+02 1.05013E+01 0.00000E+00
 -1      3228 1.25535E+02 1.18003E+01 0.00000E+00
 -1      3229 1.30785E+02 1.05013E+01 0.00000E+00
 -1      3230 1.29285E+02 1.05013E+01 0.00000E+00
 -1      3231 1.28535E+02 1.18003E+01 0.00000E+00
 -1      3232 1.33785E+02 1.05013E+01 0.00000E+00
 -1      3233 1.32285E+02 1.05013E+01 0.00000E+00
 -1      3234 1.31535E+02 1.18003E+01 0.00000E+00
 -1      3235 1.36785E+02 1.05013E+01 0.00000E+00
 -1      3236 1.35285E+02 1.05013E+01 0.00000E+00
 -1      3237 1.34535E+02 1.18003E+01 0.00000E+00
 -1      3238 1.38912E+02 1.10040E+01 0.00000E+00
 -1      3239 1.37744E+02 1.07233E+01 0.00000E+00
 -1      3240 1.36994E+02 1.20223E+01 0.00000E+00
 -1      3241 1.38912E+02 1.24665E+01 0.00000E+00
 -1      3242 7.30843E+01 3.09348E+01 0.00000E+00
 -1      3243 7.21651E+01 2.97313E+01 0.00000E+00
 -1      3244 1.38309E+02 2.57625E+01 0.00000E+00
 -1      3245 1.38309E+02 2.42875E+01 0.00000E+00
 -1      3246 9.74473E+01 2.20491E+01 0.00000E+00
 -1      3247 9.74879E+01 2.34250E+01 0.00000E+00
 -1      3248 1.38309E+02 3.45625E+01 0.00000E+00
 -1      3249 1.38309E+02 3.30875E+01 0.00000E+00
 -1      3250 8.73017E+01 3.44580E+01 0.00000E+00
 -1      3251 8.63453E+01 3.46367E+01 0.00000E+00
 -1      3252 6.94852E+01 1.82208E+01 0.00000E+00
 -1      3253 7.00527E+01 1.70188E+01 0.00000E+00
 -1      3254 6.91042E+01 2.14566E+01 0.00000E+00
 -1      3255 6.89992E+01 2.00220E+01 0.00000E+00
 -1      3256 7.13122E+01 2.84306E+01 0.00000E+00
 -1      3257 7.04593E+01 2.71300E+01 0.00000E+00
 -1      3258 7.09570E+01 2.96546E+01 0.00000E+00
 -1      3259 1.38309E+02 3.16125E+01 0.00000E+00
 -1      3260 1.38309E+02 3.01375E+01 0.00000E+00
 -1      3261 1.37010E+02 3.23500E+01 0.00000E+00
 -1      3262 1.06785E+02 1.05013E+01 0.00000E+00
 -1      3263 1.05285E+02 1.05013E+01 0.00000E+00
 -1      3264 1.07535E+02 1.18003E+01 0.00000E+00
 -1      3265 1.03785E+02 1.05013E+01 0.00000E+00
 -1      3266 1.02285E+02 1.05013E+01 0.00000E+00
 -1      3267 1.01535E+02 1.18003E+01 0.00000E+00
 -1      3268 1.04535E+02 1.18003E+01 0.00000E+00
 -1      3269 9.78668E+01 1.08014E+01 0.00000E+00
 -1      3270 9.63668E+01 1.08014E+01 0.00000E+00
 -1      3271 9.57805E+01 1.27006E+01 0.00000E+00
 -1      3272 9.86168E+01 1.21004E+01 0.00000E+00
 -1      3273 9.69698E+01 2.51022E+01 0.00000E+00
 -1      3274 9.64009E+01 2.62683E+01 0.00000E+00
 -1      3275 2.87850E+01 1.05013E+01 0.00000E+00
 -1      3276 2.72850E+01 1.05013E+01 0.00000E+00
 -1      3277 2.95350E+01 1.18003E+01 0.00000E+00
 -1      3278 3.77850E+01 1.05013E+01 0.00000E+00
 -1      3279 3.62850E+01 1.05013E+01 0.00000E+00
 -1      3280 3.85350E+01 1.18003E+01 0.00000E+00
 -1      3281 3.47850E+01 1.05013E+01 0.00000E+00
 -1      3282 3.32850E+01 1.05013E+01 0.00000E+00
 -1      3283 3.25350E+01 1.18003E+01 0.00000E+00
 -1      3284 3.55350E+01 1.18003E+01 0.00000E+00
 -1      3285 9.72234E+01 1.60369E+01 0.00000E+00
 -1      3286 9.75759E+01 1.73907E+01 0.00000E+00
 -1      3287 1.59000E+01 3.83090E+01 0.00000E+00
 -1      3288 1.74000E+01 3.83090E+01 0.00000E+00
 -1      3289 1.81500E+01 3.70100E+01 0.00000E+00
 -1      3290 9.65458E+01 1.40305E+01 0.00000E+00
 -1      3291 2.57850E+01 1.05013E+01 0.00000E+00
 -1      3292 2.42850E+01 1.05013E+01 0.00000E+00
 -1      3293 2.65350E+01 1.18003E+01 0.00000E+00
 -1      3294 2.27850E+01 1.05013E+01 0.00000E+00
 -1      3295 2.12850E+01 1.05013E+01 0.00000E+00
 -1      3296 2.35350E+01 1.18003E+01 0.00000E+00
 -1      3297 7.53073E+01 3.29044E+01 0.00000E+00
 -1      3298 7.42654E+01 3.21250E+01 0.00000E+00
 -1      3299 9.43095E+01 2.95933E+01 0.00000E+00
 -1      3300 9.35804E+01 3.05826E+01 0.00000E+00
 -1      3301 7.77141E+01 3.43282E+01 0.00000E+00
 -1      3302 7.65487E+01 3.38205E+01 0.00000E+00
 -1      3303 7.13644E+01 1.30575E+01 0.00000E+00
 -1      3304 7.21416E+01 1.19911E+01 0.00000E+00
 -1      3305 1.26488E+01 1.02017E+01 0.00000E+00
 -1      3306 1.20772E+01 1.14631E+01 0.00000E+00
 -1      3307 1.33763E+01 1.22006E+01 0.00000E+00
 -1      3308 1.41488E+01 1.02017E+01 0.00000E+00
 -1      3309 9.25810E+01 3.17228E+01 0.00000E+00
 -1      3310 9.15009E+01 3.27943E+01 0.00000E+00
 -1      3311 7.03320E+01 1.56644E+01 0.00000E+00
 -1      3312 7.10851E+01 1.44119E+01 0.00000E+00
 -1      3313 6.97557E+01 1.31547E+01 0.00000E+00
 -1      3314 6.91971E+01 1.58635E+01 0.00000E+00
 -1      3315 1.00862E+01 3.73269E+01 0.00000E+00
 -1      3316 9.58312E+01 2.75750E+01 0.00000E+00
 -1      3317 9.51165E+01 2.86074E+01 0.00000E+00
 -1      3318 8.99111E+01 3.38416E+01 0.00000E+00
 -1      3319 8.85657E+01 3.42324E+01 0.00000E+00
 -1      3320 1.16910E+01 2.12875E+01 0.00000E+00
 -1      3321 1.16910E+01 2.27625E+01 0.00000E+00
 -1      3322 1.38309E+02 2.86750E+01 0.00000E+00
 -1      3323 1.38309E+02 2.72250E+01 0.00000E+00
 -1      3324 1.37010E+02 2.64875E+01 0.00000E+00
 -1      3325 1.37010E+02 2.94125E+01 0.00000E+00
 -1      3326 1.16910E+01 2.42375E+01 0.00000E+00
 -1      3327 1.16910E+01 2.57125E+01 0.00000E+00
 -1      3328 1.29900E+01 2.35000E+01 0.00000E+00
 -1      3329 1.37758E+02 3.64912E+01 0.00000E+00
 -1      3330 1.38123E+02 3.54142E+01 0.00000E+00
 -1      3331 1.36824E+02 3.46768E+01 0.00000E+00
 -1      3332 1.36451E+02 3.63802E+01 0.00000E+00
 -1      3333 9.79742E+01 2.43840E+01 0.00000E+00
 -1      3334 9.84604E+01 2.53431E+01 0.00000E+00
 -1      3335 9.89786E+01 2.36659E+01 0.00000E+00
 -1      3336 9.78762E+01 1.44069E+01 0.00000E+00
 -1      3337 9.68864E+01 2.73680E+01 0.00000E+00
 -1      3338 9.82056E+01 1.81747E+01 0.00000E+00
 -1      3339 9.88353E+01 1.89588E+01 0.00000E+00
 -1      3340 9.91835E+01 1.71973E+01 0.00000E+00
 -1      3341 6.95693E+01 2.62100E+01 0.00000E+00
 -1      3342 6.86794E+01 2.52899E+01 0.00000E+00
 -1      3343 6.92141E+01 2.74339E+01 0.00000E+00
 -1      3344 7.84236E+01 3.58537E+01 0.00000E+00
 -1      3345 8.49000E+01 3.83090E+01 0.00000E+00
 -1      3346 8.64000E+01 3.83090E+01 0.00000E+00
 -1      3347 7.54137E+01 3.42517E+01 0.00000E+00
 -1      3348 1.71488E+01 1.02017E+01 0.00000E+00
 -1      3349 1.56488E+01 1.02017E+01 0.00000E+00
 -1      3350 1.52625E+01 1.12011E+01 0.00000E+00
 -1      3351 9.81749E+01 2.13215E+01 0.00000E+00
 -1      3352 6.84901E+01 2.24431E+01 0.00000E+00
 -1      3353 1.16910E+01 3.30594E+01 0.00000E+00
 -1      3354 1.16910E+01 3.45281E+01 0.00000E+00
 -1      3355 9.37033E+01 3.17866E+01 0.00000E+00
 -1      3356 1.29900E+01 1.46687E+01 0.00000E+00
 -1      3357 1.16910E+01 1.54063E+01 0.00000E+00
 -1      3358 1.16910E+01 1.68750E+01 0.00000E+00
 -1      3359 7.29911E+01 3.21454E+01 0.00000E+00
 -1      3360 1.38309E+02 1.98625E+01 0.00000E+00
 -1      3361 1.38309E+02 1.83875E+01 0.00000E+00
 -1      3362 1.38375E+02 1.71472E+01 0.00000E+00
 -1      3363 1.38440E+02 1.59068E+01 0.00000E+00
 -1      3364 1.37076E+02 1.78847E+01 0.00000E+00
 -1      3365 1.37010E+02 2.35500E+01 0.00000E+00
 -1      3366 1.38309E+02 2.28125E+01 0.00000E+00
 -1      3367 1.38309E+02 2.13375E+01 0.00000E+00
 -1      3368 9.55097E+01 2.96606E+01 0.00000E+00
 -1      3369 8.54678E+01 3.51984E+01 0.00000E+00
 -1      3370 1.99669E+01 1.03515E+01 0.00000E+00
 -1      3371 1.84669E+01 1.03515E+01 0.00000E+00
 -1      3372 1.80806E+01 1.13509E+01 0.00000E+00
 -1      3373 2.07169E+01 1.16505E+01 0.00000E+00
 -1      3374 1.15598E+01 3.59546E+01 0.00000E+00
 -1      3375 1.12540E+01 3.80190E+01 0.00000E+00
 -1      3376 1.25964E+01 3.80732E+01 0.00000E+00
 -1      3377 1.28588E+01 3.52202E+01 0.00000E+00
 -1      3378 6.73783E+01 1.98173E+01 0.00000E+00
 -1      3379 6.84317E+01 1.90191E+01 0.00000E+00
 -1      3380 6.78643E+01 1.80162E+01 0.00000E+00
 -1      3381 1.39388E+01 3.81274E+01 0.00000E+00
 -1      3382 1.16910E+01 1.83469E+01 0.00000E+00
 -1      3383 1.16910E+01 1.98156E+01 0.00000E+00
 -1      3384 1.29900E+01 2.05531E+01 0.00000E+00
 -1      3385 1.29900E+01 1.76094E+01 0.00000E+00
 -1      3386 1.46888E+01 3.68284E+01 0.00000E+00
 -1      3387 8.82604E+01 3.52471E+01 0.00000E+00
 -1      3388 1.16910E+01 3.01219E+01 0.00000E+00
 -1      3389 1.16910E+01 3.15906E+01 0.00000E+00
 -1      3390 1.29900E+01 3.23250E+01 0.00000E+00
 -1      3391 8.71500E+01 3.70100E+01 0.00000E+00
 -1      3392 9.19902E+01 3.38795E+01 0.00000E+00
 -1      3393 9.07872E+01 3.37470E+01 0.00000E+00
 -1      3394 2.34000E+01 3.57110E+01 0.00000E+00
 -1      3395 2.49000E+01 3.57110E+01 0.00000E+00
 -1      3396 2.64000E+01 3.57110E+01 0.00000E+00
 -1      3397 2.79000E+01 3.57110E+01 0.00000E+00
 -1      3398 2.56500E+01 3.44120E+01 0.00000E+00
 -1      3399 2.94000E+01 3.57110E+01 0.00000E+00
 -1      3400 3.09000E+01 3.57110E+01 0.00000E+00
 -1      3401 2.86500E+01 3.44120E+01 0.00000E+00
 -1      3402 3.24000E+01 3.57110E+01 0.00000E+00
 -1      3403 3.39000E+01 3.57110E+01 0.00000E+00
 -1      3404 3.16500E+01 3.44120E+01 0.00000E+00
 -1      3405 3.54000E+01 3.57110E+01 0.00000E+00
 -1      3406 3.69000E+01 3.57110E+01 0.00000E+00
 -1      3407 3.46500E+01 3.44120E+01 0.00000E+00
 -1      3408 3.84000E+01 3.57110E+01 0.00000E+00
 -1      3409 3.99000E+01 3.57110E+01 0.00000E+00
 -1      3410 3.76500E+01 3.44120E+01 0.00000E+00
 -1      3411 4.14000E+01 3.57110E+01 0.00000E+00
 -1      3412 4.29000E+01 3.57110E+01 0.00000E+00
 -1      3413 4.06500E+01 3.44120E+01 0.00000E+00
 -1      3414 4.44000E+01 3.57110E+01 0.00000E+00
 -1      3415 4.59000E+01 3.57110E+01 0.00000E+00
 -1      3416 4.36500E+01 3.44120E+01 0.00000E+00
 -1      3417 4.74000E+01 3.57110E+01 0.00000E+00
 -1      3418 4.89000E+01 3.57110E+01 0.00000E+00
 -1      3419 4.66500E+01 3.44120E+01 0.00000E+00
 -1      3420 5.04000E+01 3.57110E+01 0.00000E+00
 -1      3421 5.19000E+01 3.57110E+01 0.00000E+00
 -1      3422 4.96500E+01 3.44120E+01 0.00000E+00
 -1      3423 5.34000E+01 3.57110E+01 0.00000E+00
 -1      3424 5.49000E+01 3.57110E+01 0.00000E+00
 -1      3425 5.26500E+01 3.44120E+01 0.00000E+00
 -1      3426 5.64000E+01 3.57110E+01 0.00000E+00
 -1      3427 5.79000E+01 3.57110E+01 0.00000E+00
 -1      3428 5.56500E+01 3.44120E+01 0.00000E+00
 -1      3429 5.94000E+01 3.57110E+01 0.00000E+00
 -1      3430 6.09000E+01 3.57110E+01 0.00000E+00
 -1      3431 5.86500E+01 3.44120E+01 0.00000E+00
 -1      3432 6.24000E+01 3.57110E+01 0.00000E+00
 -1      3433 6.39000E+01 3.57110E+01 0.00000E+00
 -1      3434 6.16500E+01 3.44120E+01 0.00000E+00
 -1      3435 6.54000E+01 3.57110E+01 0.00000E+00
 -1      3436 6.69000E+01 3.57110E+01 0.00000E+00
 -1      3437 6.46500E+01 3.44120E+01 0.00000E+00
 -1      3438 6.84000E+01 3.57110E+01 0.00000E+00
 -1      3439 6.99000E+01 3.57110E+01 0.00000E+00
 -1      3440 6.76500E+01 3.44120E+01 0.00000E+00
 -1      3441 7.51525E+01 3.60889E+01 0.00000E+00
 -1      3442 7.66525E+01 3.60889E+01 0.00000E+00
 -1      3443 9.04004E+01 3.49268E+01 0.00000E+00
 -1      3444 7.39112E+01 3.51728E+01 0.00000E+00
 -1      3445 9.14632E+01 3.59211E+01 0.00000E+00
 -1      3446 9.05872E+01 3.60157E+01 0.00000E+00
 -1      3447 8.90872E+01 3.60157E+01 0.00000E+00
 -1      3448 1.48200E+01 3.54019E+01 0.00000E+00
 -1      3449 9.29632E+01 3.59211E+01 0.00000E+00
 -1      3450 9.44632E+01 3.59211E+01 0.00000E+00
 -1      3451 9.27764E+01 3.48322E+01 0.00000E+00
 -1      3452 9.59632E+01 3.59211E+01 0.00000E+00
 -1      3453 9.74632E+01 3.59211E+01 0.00000E+00
 -1      3454 9.57764E+01 3.48322E+01 0.00000E+00
 -1      3455 9.89632E+01 3.59211E+01 0.00000E+00
 -1      3456 1.00463E+02 3.59211E+01 0.00000E+00
 -1      3457 9.87764E+01 3.48322E+01 0.00000E+00
 -1      3458 1.01963E+02 3.59211E+01 0.00000E+00
 -1      3459 1.03463E+02 3.59211E+01 0.00000E+00
 -1      3460 1.01776E+02 3.48322E+01 0.00000E+00
 -1      3461 1.04963E+02 3.59211E+01 0.00000E+00
 -1      3462 1.06463E+02 3.59211E+01 0.00000E+00
 -1      3463 1.04776E+02 3.48322E+01 0.00000E+00
 -1      3464 1.07963E+02 3.59211E+01 0.00000E+00
 -1      3465 1.09463E+02 3.59211E+01 0.00000E+00
 -1      3466 1.07776E+02 3.48322E+01 0.00000E+00
 -1      3467 1.10963E+02 3.59211E+01 0.00000E+00
 -1      3468 1.12463E+02 3.59211E+01 0.00000E+00
 -1      3469 1.10776E+02 3.48322E+01 0.00000E+00
 -1      3470 1.13963E+02 3.59211E+01 0.00000E+00
 -1      3471 1.15463E+02 3.59211E+01 0.00000E+00
 -1      3472 1.13776E+02 3.48322E+01 0.00000E+00
 -1      3473 1.16963E+02 3.59211E+01 0.00000E+00
 -1      3474 1.18463E+02 3.59211E+01 0.00000E+00
 -1      3475 1.16776E+02 3.48322E+01 0.00000E+00
 -1      3476 1.19963E+02 3.59211E+01 0.00000E+00
 -1      3477 1.21463E+02 3.59211E+01 0.00000E+00
 -1      3478 1.19776E+02 3.48322E+01 0.00000E+00
 -1      3479 1.22963E+02 3.59211E+01 0.00000E+00
 -1      3480 1.24463E+02 3.59211E+01 0.00000E+00
 -1      3481 1.22776E+02 3.48322E+01 0.00000E+00
 -1      3482 1.25963E+02 3.59211E+01 0.00000E+00
 -1      3483 1.27463E+02 3.59211E+01 0.00000E+00
 -1      3484 1.25776E+02 3.48322E+01 0.00000E+00
 -1      3485 1.28963E+02 3.59211E+01 0.00000E+00
 -1      3486 1.30463E+02 3.59211E+01 0.00000E+00
 -1      3487 1.28776E+02 3.48322E+01 0.00000E+00
 -1      3488 1.31963E+02 3.59211E+01 0.00000E+00
 -1      3489 1.33463E+02 3.59211E+01 0.00000E+00
 -1      3490 1.31776E+02 3.48322E+01 0.00000E+00
 -1      3491 4.52850E+01 1.30992E+01 0.00000E+00
 -1      3492 4.37850E+01 1.30992E+01 0.00000E+00
 -1      3493 9.82646E+01 2.71913E+01 0.00000E+00
 -1      3494 9.76949E+01 2.84980E+01 0.00000E+00
 -1      3495 4.22850E+01 1.30992E+01 0.00000E+00
 -1      3496 4.07850E+01 1.30992E+01 0.00000E+00
 -1      3497 4.30350E+01 1.43982E+01 0.00000E+00
 -1      3498 5.12850E+01 1.30992E+01 0.00000E+00
 -1      3499 4.97850E+01 1.30992E+01 0.00000E+00
 -1      3500 5.42850E+01 1.30992E+01 0.00000E+00
 -1      3501 5.27850E+01 1.30992E+01 0.00000E+00
 -1      3502 5.20350E+01 1.43982E+01 0.00000E+00
 -1      3503 5.72850E+01 1.30992E+01 0.00000E+00
 -1      3504 5.57850E+01 1.30992E+01 0.00000E+00
 -1      3505 5.50350E+01 1.43982E+01 0.00000E+00
 -1      3506 6.02850E+01 1.30992E+01 0.00000E+00
 -1      3507 5.87850E+01 1.30992E+01 0.00000E+00
 -1      3508 5.80350E+01 1.43982E+01 0.00000E+00
 -1      3509 6.32850E+01 1.30992E+01 0.00000E+00
 -1      3510 6.17850E+01 1.30992E+01 0.00000E+00
 -1      3511 6.10350E+01 1.43982E+01 0.00000E+00
 -1      3512 6.62850E+01 1.30992E+01 0.00000E+00
 -1      3513 6.47850E+01 1.30992E+01 0.00000E+00
 -1      3514 6.40350E+01 1.43982E+01 0.00000E+00
 -1      3515 6.82557E+01 1.31547E+01 0.00000E+00
 -1      3516 1.17285E+02 1.30992E+01 0.00000E+00
 -1      3517 1.15785E+02 1.30992E+01 0.00000E+00
 -1      3518 2.04000E+01 3.57110E+01 0.00000E+00
 -1      3519 2.19000E+01 3.57110E+01 0.00000E+00
 -1      3520 2.26500E+01 3.44120E+01 0.00000E+00
 -1      3521 8.63232E+01 3.62413E+01 0.00000E+00
 -1      3522 8.78232E+01 3.62413E+01 0.00000E+00
 -1      3523 1.14285E+02 1.30992E+01 0.00000E+00
 -1      3524 1.12785E+02 1.30992E+01 0.00000E+00
 -1      3525 1.15035E+02 1.43982E+01 0.00000E+00
 -1      3526 1.11285E+02 1.30992E+01 0.00000E+00
 -1      3527 1.09785E+02 1.30992E+01 0.00000E+00
 -1      3528 1.12035E+02 1.43982E+01 0.00000E+00
 -1      3529 1.20285E+02 1.30992E+01 0.00000E+00
 -1      3530 1.18785E+02 1.30992E+01 0.00000E+00
 -1      3531 1.18035E+02 1.43982E+01 0.00000E+00
 -1      3532 1.23285E+02 1.30992E+01 0.00000E+00
 -1      3533 1.21785E+02 1.30992E+01 0.00000E+00
 -1      3534 1.21035E+02 1.43982E+01 0.00000E+00
 -1      3535 1.26285E+02 1.30992E+01 0.00000E+00
 -1      3536 1.24785E+02 1.30992E+01 0.00000E+00
 -1      3537 1.24035E+02 1.43982E+01 0.00000E+00
 -1      3538 1.29285E+02 1.30992E+01 0.00000E+00
 -1      3539 1.27785E+02 1.30992E+01 0.00000E+00
 -1      3540 1.27035E+02 1.43982E+01 0.00000E+00
 -1      3541 1.32285E+02 1.30992E+01 0.00000E+00
 -1      3542 1.30785E+02 1.30992E+01 0.00000E+00
 -1      3543 1.30035E+02 1.43982E+01 0.00000E+00
 -1      3544 1.35285E+02 1.30992E+01 0.00000E+00
 -1      3545 1.33785E+02 1.30992E+01 0.00000E+00
 -1      3546 1.33035E+02 1.43982E+01 0.00000E+00
 -1      3547 1.37010E+02 2.06000E+01 0.00000E+00
 -1      3548 9.92944E+01 1.41067E+01 0.00000E+00
 -1      3549 9.67065E+01 2.98170E+01 0.00000E+00
 -1      3550 9.58995E+01 3.08029E+01 0.00000E+00
 -1      3551 4.82850E+01 1.30992E+01 0.00000E+00
 -1      3552 4.67850E+01 1.30992E+01 0.00000E+00
 -1      3553 4.60350E+01 1.43982E+01 0.00000E+00
 -1      3554 4.90350E+01 1.43982E+01 0.00000E+00
 -1      3555 8.23842E+01 3.48331E+01 0.00000E+00
 -1      3556 8.12602E+01 3.54022E+01 0.00000E+00
 -1      3557 7.27352E+01 3.35806E+01 0.00000E+00
 -1      3558 7.15540E+01 3.23905E+01 0.00000E+00
 -1      3559 7.84262E+01 3.49326E+01 0.00000E+00
 -1      3560 1.35711E+02 3.30875E+01 0.00000E+00
 -1      3561 1.35711E+02 3.16125E+01 0.00000E+00
 -1      3562 1.08285E+02 1.30992E+01 0.00000E+00
 -1      3563 1.06785E+02 1.30992E+01 0.00000E+00
 -1      3564 1.09035E+02 1.43982E+01 0.00000E+00
 -1      3565 1.16910E+01 2.71844E+01 0.00000E+00
 -1      3566 1.16910E+01 2.86531E+01 0.00000E+00
 -1      3567 1.29900E+01 2.93875E+01 0.00000E+00
 -1      3568 3.02850E+01 1.30992E+01 0.00000E+00
 -1      3569 2.87850E+01 1.30992E+01 0.00000E+00
 -1      3570 3.92850E+01 1.30992E+01 0.00000E+00
 -1      3571 3.77850E+01 1.30992E+01 0.00000E+00
 -1      3572 4.00350E+01 1.43982E+01 0.00000E+00
 -1      3573 1.74000E+01 3.57110E+01 0.00000E+00
 -1      3574 1.89000E+01 3.57110E+01 0.00000E+00
 -1      3575 1.96500E+01 3.44120E+01 0.00000E+00
 -1      3576 9.91528E+01 2.03440E+01 0.00000E+00
 -1      3577 9.94702E+01 2.17293E+01 0.00000E+00
 -1      3578 1.00131E+02 1.93665E+01 0.00000E+00
 -1      3579 2.72850E+01 1.30992E+01 0.00000E+00
 -1      3580 2.57850E+01 1.30992E+01 0.00000E+00
 -1      3581 2.80350E+01 1.43982E+01 0.00000E+00
 -1      3582 2.42850E+01 1.30992E+01 0.00000E+00
 -1      3583 2.27850E+01 1.30992E+01 0.00000E+00
 -1      3584 2.50350E+01 1.43982E+01 0.00000E+00
 -1      3585 7.24740E+01 3.54179E+01 0.00000E+00
 -1      3586 7.04562E+01 3.09130E+01 0.00000E+00
 -1      3587 6.96033E+01 2.96124E+01 0.00000E+00
 -1      3588 6.76316E+01 2.36339E+01 0.00000E+00
 -1      3589 6.70872E+01 2.20110E+01 0.00000E+00
 -1      3590 1.48763E+01 1.22006E+01 0.00000E+00
 -1      3591 1.44900E+01 1.32000E+01 0.00000E+00
 -1      3592 1.63762E+01 1.22006E+01 0.00000E+00
 -1      3593 1.42800E+01 3.32139E+01 0.00000E+00
 -1      3594 1.61100E+01 3.48221E+01 0.00000E+00
 -1      3595 1.68600E+01 3.35231E+01 0.00000E+00
 -1      3596 1.42800E+01 3.17452E+01 0.00000E+00
 -1      3597 1.00880E+02 1.33437E+01 0.00000E+00
 -1      3598 1.00139E+02 1.56502E+01 0.00000E+00
 -1      3599 1.38643E+02 1.48068E+01 0.00000E+00
 -1      3600 1.38709E+02 1.35665E+01 0.00000E+00
 -1      3601 1.37750E+02 1.33444E+01 0.00000E+00
 -1      3602 1.37344E+02 1.55443E+01 0.00000E+00
 -1      3603 9.34902E+01 3.38795E+01 0.00000E+00
 -1      3604 1.00769E+02 1.64342E+01 0.00000E+00
 -1      3605 6.87133E+01 2.86923E+01 0.00000E+00
 -1      3606 6.78233E+01 2.77723E+01 0.00000E+00
 -1      3607 6.82125E+01 2.99508E+01 0.00000E+00
 -1      3608 8.47946E+01 3.59670E+01 0.00000E+00
 -1      3609 7.02240E+01 3.41189E+01 0.00000E+00
 -1      3610 7.09740E+01 3.54179E+01 0.00000E+00
 -1      3611 1.34957E+02 3.51804E+01 0.00000E+00
 -1      3612 1.35144E+02 3.62692E+01 0.00000E+00
 -1      3613 1.02380E+02 1.33437E+01 0.00000E+00
 -1      3614 9.92689E+01 2.64731E+01 0.00000E+00
 -1      3615 8.31311E+01 3.55155E+01 0.00000E+00
 -1      3616 9.99565E+01 2.26884E+01 0.00000E+00
 -1      3617 1.00443E+02 2.36474E+01 0.00000E+00
 -1      3618 1.00934E+02 2.17109E+01 0.00000E+00
 -1      3619 9.80846E+01 2.96403E+01 0.00000E+00
 -1      3620 3.32850E+01 1.30992E+01 0.00000E+00
 -1      3621 3.17850E+01 1.30992E+01 0.00000E+00
 -1      3622 3.10350E+01 1.43982E+01 0.00000E+00
 -1      3623 6.75057E+01 1.44537E+01 0.00000E+00
 -1      3624 1.35711E+02 2.72188E+01 0.00000E+00
 -1      3625 1.35711E+02 2.57563E+01 0.00000E+00
 -1      3626 9.50999E+01 3.20027E+01 0.00000E+00
 -1      3627 9.41005E+01 3.31429E+01 0.00000E+00
 -1      3628 1.44900E+01 1.46687E+01 0.00000E+00
 -1      3629 1.35746E+02 1.84362E+01 0.00000E+00
 -1      3630 1.35811E+02 1.71959E+01 0.00000E+00
 -1      3631 1.29900E+01 2.64469E+01 0.00000E+00
 -1      3632 1.35746E+02 2.13862E+01 0.00000E+00
 -1      3633 1.35746E+02 1.99112E+01 0.00000E+00
 -1      3634 1.34481E+02 1.92224E+01 0.00000E+00
 -1      3635 1.36791E+02 1.31223E+01 0.00000E+00
 -1      3636 1.42890E+01 2.27625E+01 0.00000E+00
 -1      3637 1.42890E+01 2.42375E+01 0.00000E+00
 -1      3638 9.48868E+01 3.40956E+01 0.00000E+00
 -1      3639 1.35728E+02 2.43087E+01 0.00000E+00
 -1      3640 1.35728E+02 2.28337E+01 0.00000E+00
 -1      3641 1.34464E+02 2.21449E+01 0.00000E+00
 -1      3642 1.34429E+02 2.50400E+01 0.00000E+00
 -1      3643 9.62967E+01 3.21591E+01 0.00000E+00
 -1      3644 2.14669E+01 1.29495E+01 0.00000E+00
 -1      3645 2.01488E+01 1.27997E+01 0.00000E+00
 -1      3646 2.22169E+01 1.42485E+01 0.00000E+00
 -1      3647 7.02002E+01 3.23482E+01 0.00000E+00
 -1      3648 1.05333E+02 1.32215E+01 0.00000E+00
 -1      3649 1.03833E+02 1.32215E+01 0.00000E+00
 -1      3650 1.03178E+02 1.47650E+01 0.00000E+00
 -1      3651 1.06083E+02 1.45205E+01 0.00000E+00
 -1      3652 3.70350E+01 1.43982E+01 0.00000E+00
 -1      3653 3.62850E+01 1.30992E+01 0.00000E+00
 -1      3654 3.47850E+01 1.30992E+01 0.00000E+00
 -1      3655 1.42890E+01 1.98188E+01 0.00000E+00
 -1      3656 1.42890E+01 2.12906E+01 0.00000E+00
 -1      3657 1.55880E+01 2.20281E+01 0.00000E+00
 -1      3658 6.72764E+01 2.48578E+01 0.00000E+00
 -1      3659 6.58734E+01 2.44257E+01 0.00000E+00
 -1      3660 6.69212E+01 2.60818E+01 0.00000E+00
 -1      3661 6.65197E+01 2.10081E+01 0.00000E+00
 -1      3662 6.59522E+01 2.00052E+01 0.00000E+00
 -1      3663 6.56611E+01 2.21988E+01 0.00000E+00
 -1      3664 6.67184E+01 1.75982E+01 0.00000E+00
 -1      3665 6.77719E+01 1.68000E+01 0.00000E+00
 -1      3666 1.35711E+02 3.01437E+01 0.00000E+00
 -1      3667 1.35711E+02 2.86812E+01 0.00000E+00
 -1      3668 1.34412E+02 2.79500E+01 0.00000E+00
 -1      3669 6.80512E+01 1.54456E+01 0.00000E+00
 -1      3670 1.34412E+02 3.08813E+01 0.00000E+00
 -1      3671 1.36041E+02 1.44213E+01 0.00000E+00
 -1      3672 6.91262E+01 3.26414E+01 0.00000E+00
 -1      3673 2.79000E+01 3.31130E+01 0.00000E+00
 -1      3674 2.94000E+01 3.31130E+01 0.00000E+00
 -1      3675 3.09000E+01 3.31130E+01 0.00000E+00
 -1      3676 3.24000E+01 3.31130E+01 0.00000E+00
 -1      3677 3.01500E+01 3.18140E+01 0.00000E+00
 -1      3678 3.39000E+01 3.31130E+01 0.00000E+00
 -1      3679 3.54000E+01 3.31130E+01 0.00000E+00
 -1      3680 3.31500E+01 3.18140E+01 0.00000E+00
 -1      3681 3.69000E+01 3.31130E+01 0.00000E+00
 -1      3682 3.84000E+01 3.31130E+01 0.00000E+00
 -1      3683 3.61500E+01 3.18140E+01 0.00000E+00
 -1      3684 3.99000E+01 3.31130E+01 0.00000E+00
 -1      3685 4.14000E+01 3.31130E+01 0.00000E+00
 -1      3686 3.91500E+01 3.18140E+01 0.00000E+00
 -1      3687 4.29000E+01 3.31130E+01 0.00000E+00
 -1      3688 4.44000E+01 3.31130E+01 0.00000E+00
 -1      3689 4.21500E+01 3.18140E+01 0.00000E+00
 -1      3690 4.59000E+01 3.31130E+01 0.00000E+00
 -1      3691 4.74000E+01 3.31130E+01 0.00000E+00
 -1      3692 4.51500E+01 3.18140E+01 0.00000E+00
 -1      3693 4.89000E+01 3.31130E+01 0.00000E+00
 -1      3694 5.04000E+01 3.31130E+01 0.00000E+00
 -1      3695 4.81500E+01 3.18140E+01 0.00000E+00
 -1      3696 5.19000E+01 3.31130E+01 0.00000E+00
 -1      3697 5.34000E+01 3.31130E+01 0.00000E+00
 -1      3698 5.11500E+01 3.18140E+01 0.00000E+00
 -1      3699 5.49000E+01 3.31130E+01 0.00000E+00
 -1      3700 5.64000E+01 3.31130E+01 0.00000E+00
 -1      3701 5.41500E+01 3.18140E+01 0.00000E+00
 -1      3702 5.79000E+01 3.31130E+01 0.00000E+00
 -1      3703 5.94000E+01 3.31130E+01 0.00000E+00
 -1      3704 5.71500E+01 3.18140E+01 0.00000E+00
 -1      3705 6.09000E+01 3.31130E+01 0.00000E+00
 -1      3706 6.24000E+01 3.31130E+01 0.00000E+00
 -1      3707 6.01500E+01 3.18140E+01 0.00000E+00
 -1      3708 6.39000E+01 3.31130E+01 0.00000E+00
 -1      3709 6.54000E+01 3.31130E+01 0.00000E+00
 -1      3710 6.31500E+01 3.18140E+01 0.00000E+00
 -1      3711 6.76262E+01 3.26414E+01 0.00000E+00
 -1      3712 4.37850E+01 1.56973E+01 0.00000E+00
 -1      3713 4.22850E+01 1.56973E+01 0.00000E+00
 -1      3714 1.02262E+02 1.62877E+01 0.00000E+00
 -1      3715 1.01306E+02 1.78347E+01 0.00000E+00
 -1      3716 9.63868E+01 3.40956E+01 0.00000E+00
 -1      3717 9.78868E+01 3.40956E+01 0.00000E+00
 -1      3718 9.93868E+01 3.40956E+01 0.00000E+00
 -1      3719 9.69972E+01 3.33590E+01 0.00000E+00
 -1      3720 1.01026E+02 3.35332E+01 0.00000E+00
 -1      3721 1.02526E+02 3.35332E+01 0.00000E+00
 -1      3722 1.04026E+02 3.35332E+01 0.00000E+00
 -1      3723 1.05526E+02 3.35332E+01 0.00000E+00
 -1      3724 1.03276E+02 3.22342E+01 0.00000E+00
 -1      3725 1.07026E+02 3.35332E+01 0.00000E+00
 -1      3726 1.08526E+02 3.35332E+01 0.00000E+00
 -1      3727 1.06276E+02 3.22342E+01 0.00000E+00
 -1      3728 1.10026E+02 3.35332E+01 0.00000E+00
 -1      3729 1.11526E+02 3.35332E+01 0.00000E+00
 -1      3730 1.09276E+02 3.22342E+01 0.00000E+00
 -1      3731 1.13026E+02 3.35332E+01 0.00000E+00
 -1      3732 1.14526E+02 3.35332E+01 0.00000E+00
 -1      3733 1.12276E+02 3.22342E+01 0.00000E+00
 -1      3734 1.16026E+02 3.35332E+01 0.00000E+00
 -1      3735 1.17526E+02 3.35332E+01 0.00000E+00
 -1      3736 1.15276E+02 3.22342E+01 0.00000E+00
 -1      3737 1.19026E+02 3.35332E+01 0.00000E+00
 -1      3738 1.20526E+02 3.35332E+01 0.00000E+00
 -1      3739 1.18276E+02 3.22342E+01 0.00000E+00
 -1      3740 1.22026E+02 3.35332E+01 0.00000E+00
 -1      3741 1.23526E+02 3.35332E+01 0.00000E+00
 -1      3742 1.21276E+02 3.22342E+01 0.00000E+00
 -1      3743 1.25026E+02 3.35332E+01 0.00000E+00
 -1      3744 1.26526E+02 3.35332E+01 0.00000E+00
 -1      3745 1.24276E+02 3.22342E+01 0.00000E+00
 -1      3746 1.28026E+02 3.35332E+01 0.00000E+00
 -1      3747 1.29526E+02 3.35332E+01 0.00000E+00
 -1      3748 1.27276E+02 3.22342E+01 0.00000E+00
 -1      3749 5.57850E+01 1.56973E+01 0.00000E+00
 -1      3750 5.42850E+01 1.56973E+01 0.00000E+00
 -1      3751 5.27850E+01 1.56973E+01 0.00000E+00
 -1      3752 5.12850E+01 1.56973E+01 0.00000E+00
 -1      3753 5.35350E+01 1.69963E+01 0.00000E+00
 -1      3754 6.17850E+01 1.56973E+01 0.00000E+00
 -1      3755 6.02850E+01 1.56973E+01 0.00000E+00
 -1      3756 6.60805E+01 1.53902E+01 0.00000E+00
 -1      3757 9.77967E+01 3.21591E+01 0.00000E+00
 -1      3758 1.00425E+02 3.02777E+01 0.00000E+00
 -1      3759 9.94363E+01 3.15967E+01 0.00000E+00
 -1      3760 1.21785E+02 1.56973E+01 0.00000E+00
 -1      3761 1.20285E+02 1.56973E+01 0.00000E+00
 -1      3762 2.19000E+01 3.31130E+01 0.00000E+00
 -1      3763 2.34000E+01 3.31130E+01 0.00000E+00
 -1      3764 1.18785E+02 1.56973E+01 0.00000E+00
 -1      3765 1.17285E+02 1.56973E+01 0.00000E+00
 -1      3766 1.19535E+02 1.69963E+01 0.00000E+00
 -1      3767 1.61488E+01 1.48625E+01 0.00000E+00
 -1      3768 1.46488E+01 1.63313E+01 0.00000E+00
 -1      3769 1.12785E+02 1.56973E+01 0.00000E+00
 -1      3770 1.11285E+02 1.56973E+01 0.00000E+00
 -1      3771 1.42890E+01 2.57094E+01 0.00000E+00
 -1      3772 1.42890E+01 2.71812E+01 0.00000E+00
 -1      3773 1.55880E+01 2.49719E+01 0.00000E+00
 -1      3774 1.00553E+02 2.56747E+01 0.00000E+00
 -1      3775 1.00357E+02 2.75229E+01 0.00000E+00
 -1      3776 1.24785E+02 1.56973E+01 0.00000E+00
 -1      3777 1.23285E+02 1.56973E+01 0.00000E+00
 -1      3778 1.22535E+02 1.69963E+01 0.00000E+00
 -1      3779 1.27785E+02 1.56973E+01 0.00000E+00
 -1      3780 1.26285E+02 1.56973E+01 0.00000E+00
 -1      3781 1.25535E+02 1.69963E+01 0.00000E+00
 -1      3782 1.30785E+02 1.56973E+01 0.00000E+00
 -1      3783 1.29285E+02 1.56973E+01 0.00000E+00
 -1      3784 1.28535E+02 1.69963E+01 0.00000E+00
 -1      3785 1.09785E+02 1.56973E+01 0.00000E+00
 -1      3786 1.08285E+02 1.56973E+01 0.00000E+00
 -1      3787 1.10535E+02 1.69963E+01 0.00000E+00
 -1      3788 1.35143E+02 3.43286E+01 0.00000E+00
 -1      3789 1.33844E+02 3.35911E+01 0.00000E+00
 -1      3790 4.07850E+01 1.56973E+01 0.00000E+00
 -1      3791 3.92850E+01 1.56973E+01 0.00000E+00
 -1      3792 4.15350E+01 1.69963E+01 0.00000E+00
 -1      3793 1.35838E+02 1.55213E+01 0.00000E+00
 -1      3794 1.89216E+01 1.25750E+01 0.00000E+00
 -1      3795 1.76034E+01 1.24252E+01 0.00000E+00
 -1      3796 1.72172E+01 1.34247E+01 0.00000E+00
 -1      3797 1.96716E+01 1.38740E+01 0.00000E+00
 -1      3798 1.46488E+01 1.78031E+01 0.00000E+00
 -1      3799 1.01623E+02 1.92200E+01 0.00000E+00
 -1      3800 2.87850E+01 1.56973E+01 0.00000E+00
 -1      3801 2.72850E+01 1.56973E+01 0.00000E+00
 -1      3802 2.57850E+01 1.56973E+01 0.00000E+00
 -1      3803 2.42850E+01 1.56973E+01 0.00000E+00
 -1      3804 2.65350E+01 1.69963E+01 0.00000E+00
 -1      3805 6.56589E+01 1.82903E+01 0.00000E+00
 -1      3806 6.55665E+01 1.70741E+01 0.00000E+00
 -1      3807 1.33113E+02 3.16156E+01 0.00000E+00
 -1      3808 1.33113E+02 3.01469E+01 0.00000E+00
 -1      3809 1.15785E+02 1.56973E+01 0.00000E+00
 -1      3810 1.14285E+02 1.56973E+01 0.00000E+00
 -1      3811 1.13535E+02 1.69963E+01 0.00000E+00
 -1      3812 1.16535E+02 1.69963E+01 0.00000E+00
 -1      3813 1.33113E+02 2.86844E+01 0.00000E+00
 -1      3814 1.33113E+02 2.72219E+01 0.00000E+00
 -1      3815 1.31814E+02 2.94188E+01 0.00000E+00
 -1      3816 1.34508E+02 1.60728E+01 0.00000E+00
 -1      3817 2.49000E+01 3.31130E+01 0.00000E+00
 -1      3818 2.64000E+01 3.31130E+01 0.00000E+00
 -1      3819 2.41500E+01 3.18140E+01 0.00000E+00
 -1      3820 1.42890E+01 2.86500E+01 0.00000E+00
 -1      3821 1.42890E+01 3.01187E+01 0.00000E+00
 -1      3822 1.55880E+01 2.79125E+01 0.00000E+00
 -1      3823 5.87850E+01 1.56973E+01 0.00000E+00
 -1      3824 5.72850E+01 1.56973E+01 0.00000E+00
 -1      3825 5.95350E+01 1.69963E+01 0.00000E+00
 -1      3826 1.89000E+01 3.31130E+01 0.00000E+00
 -1      3827 2.04000E+01 3.31130E+01 0.00000E+00
 -1      3828 2.11500E+01 3.18140E+01 0.00000E+00
 -1      3829 8.17365E+01 3.78575E+01 0.00000E+00
 -1      3830 6.68762E+01 3.13424E+01 0.00000E+00
 -1      3831 6.50210E+01 1.60822E+01 0.00000E+00
 -1      3832 1.32545E+02 3.28567E+01 0.00000E+00
 -1      3833 1.33008E+02 1.60728E+01 0.00000E+00
 -1      3834 1.32258E+02 1.73718E+01 0.00000E+00
 -1      3835 2.71500E+01 3.18140E+01 0.00000E+00
 -1      3836 6.59863E+01 3.04224E+01 0.00000E+00
 -1      3837 1.76100E+01 3.22241E+01 0.00000E+00
 -1      3838 1.03714E+02 1.61655E+01 0.00000E+00
 -1      3839 4.52850E+01 1.56973E+01 0.00000E+00
 -1      3840 4.45350E+01 1.69963E+01 0.00000E+00
 -1      3841 4.67850E+01 1.56973E+01 0.00000E+00
 -1      3842 1.31045E+02 3.28567E+01 0.00000E+00
 -1      3843 1.00137E+02 3.27966E+01 0.00000E+00
 -1      3844 1.30295E+02 3.15577E+01 0.00000E+00
 -1      3845 5.65350E+01 1.69963E+01 0.00000E+00
 -1      3846 1.02110E+02 2.01790E+01 0.00000E+00
 -1      3847 1.02596E+02 2.11381E+01 0.00000E+00
 -1      3848 1.03285E+02 1.86472E+01 0.00000E+00
 -1      3849 6.35210E+01 1.60822E+01 0.00000E+00
 -1      3850 3.40350E+01 1.43982E+01 0.00000E+00
 -1      3851 6.27710E+01 1.73812E+01 0.00000E+00
 -1      3852 1.01141E+02 2.89003E+01 0.00000E+00
 -1      3853 1.02493E+02 3.08568E+01 0.00000E+00
 -1      3854 1.03993E+02 3.08568E+01 0.00000E+00
 -1      3855 1.02425E+02 2.81019E+01 0.00000E+00
 -1      3856 1.55790E+01 3.10077E+01 0.00000E+00
 -1      3857 1.31831E+02 2.65087E+01 0.00000E+00
 -1      3858 1.33130E+02 2.57743E+01 0.00000E+00
 -1      3859 1.33148E+02 2.43268E+01 0.00000E+00
 -1      3860 1.73760E+01 1.50872E+01 0.00000E+00
 -1      3861 1.68870E+01 2.42359E+01 0.00000E+00
 -1      3862 1.68870E+01 2.57078E+01 0.00000E+00
 -1      3863 1.01531E+02 2.46972E+01 0.00000E+00
 -1      3864 1.07583E+02 1.71185E+01 0.00000E+00
 -1      3865 1.06833E+02 1.58195E+01 0.00000E+00
 -1      3866 1.05380E+02 1.59417E+01 0.00000E+00
 -1      3867 1.32258E+02 1.88468E+01 0.00000E+00
 -1      3868 1.30035E+02 1.84713E+01 0.00000E+00
 -1      3869 1.32258E+02 2.03218E+01 0.00000E+00
 -1      3870 6.44483E+01 2.46757E+01 0.00000E+00
 -1      3871 6.48035E+01 2.34517E+01 0.00000E+00
 -1      3872 4.97850E+01 1.56973E+01 0.00000E+00
 -1      3873 4.82850E+01 1.56973E+01 0.00000E+00
 -1      3874 4.75350E+01 1.69963E+01 0.00000E+00
 -1      3875 3.17850E+01 1.56973E+01 0.00000E+00
 -1      3876 3.02850E+01 1.56973E+01 0.00000E+00
 -1      3877 2.95350E+01 1.69963E+01 0.00000E+00
 -1      3878 2.29669E+01 1.55475E+01 0.00000E+00
 -1      3879 2.16488E+01 1.53977E+01 0.00000E+00
 -1      3880 2.37169E+01 1.68465E+01 0.00000E+00
 -1      3881 3.85350E+01 1.69963E+01 0.00000E+00
 -1      3882 3.77850E+01 1.56973E+01 0.00000E+00
 -1      3883 3.62850E+01 1.56973E+01 0.00000E+00
 -1      3884 6.42360E+01 2.24488E+01 0.00000E+00
 -1      3885 1.59478E+01 1.85406E+01 0.00000E+00
 -1      3886 6.64204E+01 2.73402E+01 0.00000E+00
 -1      3887 1.68870E+01 2.12922E+01 0.00000E+00
 -1      3888 1.68870E+01 2.27641E+01 0.00000E+00
 -1      3889 1.81860E+01 2.35000E+01 0.00000E+00
 -1      3890 6.48003E+01 1.94811E+01 0.00000E+00
 -1      3891 5.05350E+01 1.69963E+01 0.00000E+00
 -1      3892 1.20285E+02 1.82952E+01 0.00000E+00
 -1      3893 1.18785E+02 1.82952E+01 0.00000E+00
 -1      3894 5.42850E+01 1.82952E+01 0.00000E+00
 -1      3895 5.27850E+01 1.82952E+01 0.00000E+00
 -1      3896 2.94000E+01 3.05150E+01 0.00000E+00
 -1      3897 3.09000E+01 3.05150E+01 0.00000E+00
 -1      3898 3.24000E+01 3.05150E+01 0.00000E+00
 -1      3899 3.39000E+01 3.05150E+01 0.00000E+00
 -1      3900 3.16500E+01 2.92160E+01 0.00000E+00
 -1      3901 3.54000E+01 3.05150E+01 0.00000E+00
 -1      3902 3.69000E+01 3.05150E+01 0.00000E+00
 -1      3903 3.46500E+01 2.92160E+01 0.00000E+00
 -1      3904 3.84000E+01 3.05150E+01 0.00000E+00
 -1      3905 3.99000E+01 3.05150E+01 0.00000E+00
 -1      3906 3.76500E+01 2.92160E+01 0.00000E+00
 -1      3907 4.14000E+01 3.05150E+01 0.00000E+00
 -1      3908 4.29000E+01 3.05150E+01 0.00000E+00
 -1      3909 4.06500E+01 2.92160E+01 0.00000E+00
 -1      3910 4.44000E+01 3.05150E+01 0.00000E+00
 -1      3911 4.59000E+01 3.05150E+01 0.00000E+00
 -1      3912 4.36500E+01 2.92160E+01 0.00000E+00
 -1      3913 4.74000E+01 3.05150E+01 0.00000E+00
 -1      3914 4.89000E+01 3.05150E+01 0.00000E+00
 -1      3915 4.66500E+01 2.92160E+01 0.00000E+00
 -1      3916 5.04000E+01 3.05150E+01 0.00000E+00
 -1      3917 5.19000E+01 3.05150E+01 0.00000E+00
 -1      3918 4.96500E+01 2.92160E+01 0.00000E+00
 -1      3919 5.34000E+01 3.05150E+01 0.00000E+00
 -1      3920 5.49000E+01 3.05150E+01 0.00000E+00
 -1      3921 5.26500E+01 2.92160E+01 0.00000E+00
 -1      3922 5.64000E+01 3.05150E+01 0.00000E+00
 -1      3923 5.79000E+01 3.05150E+01 0.00000E+00
 -1      3924 5.56500E+01 2.92160E+01 0.00000E+00
 -1      3925 5.94000E+01 3.05150E+01 0.00000E+00
 -1      3926 6.09000E+01 3.05150E+01 0.00000E+00
 -1      3927 5.86500E+01 2.92160E+01 0.00000E+00
 -1      3928 6.24000E+01 3.05150E+01 0.00000E+00
 -1      3929 6.39000E+01 3.05150E+01 0.00000E+00
 -1      3930 6.16500E+01 2.92160E+01 0.00000E+00
 -1      3931 1.05493E+02 3.08568E+01 0.00000E+00
 -1      3932 1.06993E+02 3.08568E+01 0.00000E+00
 -1      3933 1.04709E+02 2.94794E+01 0.00000E+00
 -1      3934 1.08493E+02 3.08568E+01 0.00000E+00
 -1      3935 1.09993E+02 3.08568E+01 0.00000E+00
 -1      3936 1.07709E+02 2.94794E+01 0.00000E+00
 -1      3937 1.11493E+02 3.08568E+01 0.00000E+00
 -1      3938 1.12993E+02 3.08568E+01 0.00000E+00
 -1      3939 1.10709E+02 2.94794E+01 0.00000E+00
 -1      3940 1.14493E+02 3.08568E+01 0.00000E+00
 -1      3941 1.15993E+02 3.08568E+01 0.00000E+00
 -1      3942 1.13709E+02 2.94794E+01 0.00000E+00
 -1      3943 1.17493E+02 3.08568E+01 0.00000E+00
 -1      3944 1.18993E+02 3.08568E+01 0.00000E+00
 -1      3945 1.16709E+02 2.94794E+01 0.00000E+00
 -1      3946 1.20493E+02 3.08568E+01 0.00000E+00
 -1      3947 1.21993E+02 3.08568E+01 0.00000E+00
 -1      3948 1.19709E+02 2.94794E+01 0.00000E+00
 -1      3949 1.23493E+02 3.08568E+01 0.00000E+00
 -1      3950 1.24993E+02 3.08568E+01 0.00000E+00
 -1      3951 1.22709E+02 2.94794E+01 0.00000E+00
 -1      3952 1.26493E+02 3.08568E+01 0.00000E+00
 -1      3953 1.27993E+02 3.08568E+01 0.00000E+00
 -1      3954 1.25709E+02 2.94794E+01 0.00000E+00
 -1      3955 3.47850E+01 1.56973E+01 0.00000E+00
 -1      3956 3.32850E+01 1.56973E+01 0.00000E+00
 -1      3957 3.55350E+01 1.69963E+01 0.00000E+00
 -1      3958 1.26285E+02 1.82952E+01 0.00000E+00
 -1      3959 1.24785E+02 1.82952E+01 0.00000E+00
 -1      3960 6.33577E+01 2.08110E+01 0.00000E+00
 -1      3961 6.30643E+01 1.90961E+01 0.00000E+00
 -1      3962 6.13283E+01 1.87111E+01 0.00000E+00
 -1      3963 1.02583E+02 2.36234E+01 0.00000E+00
 -1      3964 1.02693E+02 2.56507E+01 0.00000E+00
 -1      3965 1.23285E+02 1.82952E+01 0.00000E+00
 -1      3966 1.21785E+02 1.82952E+01 0.00000E+00
 -1      3967 1.24035E+02 1.95942E+01 0.00000E+00
 -1      3968 2.64000E+01 3.05150E+01 0.00000E+00
 -1      3969 2.79000E+01 3.05150E+01 0.00000E+00
 -1      3970 2.86500E+01 2.92160E+01 0.00000E+00
 -1      3971 1.11285E+02 1.82952E+01 0.00000E+00
 -1      3972 1.09785E+02 1.82952E+01 0.00000E+00
 -1      3973 6.41088E+01 2.61233E+01 0.00000E+00
 -1      3974 6.30389E+01 2.51493E+01 0.00000E+00
 -1      3975 2.04000E+01 3.05150E+01 0.00000E+00
 -1      3976 2.19000E+01 3.05150E+01 0.00000E+00
 -1      3977 1.29144E+02 3.04760E+01 0.00000E+00
 -1      3978 1.30663E+02 2.97995E+01 0.00000E+00
 -1      3979 1.30663E+02 2.83370E+01 0.00000E+00
 -1      3980 1.28360E+02 2.90986E+01 0.00000E+00
 -1      3981 1.86032E+01 1.53119E+01 0.00000E+00
 -1      3982 1.75348E+01 1.67497E+01 0.00000E+00
 -1      3983 1.98304E+01 1.55365E+01 0.00000E+00
 -1      3984 5.72850E+01 1.82952E+01 0.00000E+00
 -1      3985 5.57850E+01 1.82952E+01 0.00000E+00
 -1      3986 5.50350E+01 1.95942E+01 0.00000E+00
 -1      3987 6.52363E+01 2.91234E+01 0.00000E+00
 -1      3988 2.72850E+01 1.82952E+01 0.00000E+00
 -1      3989 2.57850E+01 1.82952E+01 0.00000E+00
 -1      3990 6.43341E+01 2.74328E+01 0.00000E+00
 -1      3991 1.73908E+01 1.80132E+01 0.00000E+00
 -1      3992 1.70310E+01 2.00288E+01 0.00000E+00
 -1      3993 1.83300E+01 2.07647E+01 0.00000E+00
 -1      3994 1.86180E+01 1.82378E+01 0.00000E+00
 -1      3995 1.32694E+02 2.30481E+01 0.00000E+00
 -1      3996 1.32712E+02 2.16006E+01 0.00000E+00
 -1      3997 1.30488E+02 2.12250E+01 0.00000E+00
 -1      3998 1.31395E+02 2.37825E+01 0.00000E+00
 -1      3999 1.76190E+01 3.05976E+01 0.00000E+00
 -1      4000 1.04464E+02 1.74645E+01 0.00000E+00
 -1      4001 2.34000E+01 3.05150E+01 0.00000E+00
 -1      4002 2.49000E+01 3.05150E+01 0.00000E+00
 -1      4003 2.26500E+01 2.92160E+01 0.00000E+00
 -1      4004 1.69785E+01 2.86056E+01 0.00000E+00
 -1      4005 1.90095E+01 2.98219E+01 0.00000E+00
 -1      4006 1.97595E+01 2.85229E+01 0.00000E+00
 -1      4007 1.69785E+01 2.71368E+01 0.00000E+00
 -1      4008 4.22850E+01 1.82952E+01 0.00000E+00
 -1      4009 4.07850E+01 1.82952E+01 0.00000E+00
 -1      4010 6.00567E+01 1.85032E+01 0.00000E+00
 -1      4011 5.85567E+01 1.85032E+01 0.00000E+00
 -1      4012 5.78067E+01 1.98022E+01 0.00000E+00
 -1      4013 6.03500E+01 2.02180E+01 0.00000E+00
 -1      4014 1.82775E+01 2.64009E+01 0.00000E+00
 -1      4015 6.25000E+01 2.20638E+01 0.00000E+00
 -1      4016 5.12850E+01 1.82952E+01 0.00000E+00
 -1      4017 4.97850E+01 1.82952E+01 0.00000E+00
 -1      4018 5.20350E+01 1.95942E+01 0.00000E+00
 -1      4019 1.28910E+02 1.83832E+01 0.00000E+00
 -1      4020 1.27410E+02 1.83832E+01 0.00000E+00
 -1      4021 1.26660E+02 1.96822E+01 0.00000E+00
 -1      4022 1.28910E+02 1.98582E+01 0.00000E+00
 -1      4023 2.50350E+01 1.95943E+01 0.00000E+00
 -1      4024 2.42850E+01 1.82953E+01 0.00000E+00
 -1      4025 3.02850E+01 1.82952E+01 0.00000E+00
 -1      4026 2.87850E+01 1.82952E+01 0.00000E+00
 -1      4027 2.80350E+01 1.95942E+01 0.00000E+00
 -1      4028 3.25350E+01 1.69963E+01 0.00000E+00
 -1      4029 4.37850E+01 1.82952E+01 0.00000E+00
 -1      4030 4.30350E+01 1.95942E+01 0.00000E+00
 -1      4031 4.52850E+01 1.82952E+01 0.00000E+00
 -1      4032 6.29247E+01 2.79064E+01 0.00000E+00
 -1      4033 1.04951E+02 1.84235E+01 0.00000E+00
 -1      4034 1.18035E+02 1.95942E+01 0.00000E+00
 -1      4035 1.17285E+02 1.82952E+01 0.00000E+00
 -1      4036 1.15785E+02 1.82952E+01 0.00000E+00
 -1      4037 1.03309E+02 2.68763E+01 0.00000E+00
 -1      4038 1.04093E+02 2.82537E+01 0.00000E+00
 -1      4039 1.05593E+02 2.82537E+01 0.00000E+00
 -1      4040 1.04361E+02 2.58025E+01 0.00000E+00
 -1      4041 1.95765E+01 2.56649E+01 0.00000E+00
 -1      4042 1.96680E+01 2.70939E+01 0.00000E+00
 -1      4043 2.10585E+01 2.77870E+01 0.00000E+00
 -1      4044 1.30680E+02 2.68895E+01 0.00000E+00
 -1      4045 1.30697E+02 2.54420E+01 0.00000E+00
 -1      4046 1.29529E+02 2.72703E+01 0.00000E+00
 -1      4047 1.21035E+02 1.95942E+01 0.00000E+00
 -1      4048 1.03758E+02 2.20916E+01 0.00000E+00
 -1      4049 1.04921E+02 2.30450E+01 0.00000E+00
 -1      4050 1.04933E+02 2.05597E+01 0.00000E+00
 -1      4051 2.56500E+01 2.92160E+01 0.00000E+00
 -1      4052 1.12785E+02 1.82952E+01 0.00000E+00
 -1      4053 1.12035E+02 1.95942E+01 0.00000E+00
 -1      4054 1.14285E+02 1.82952E+01 0.00000E+00
 -1      4055 6.16045E+01 2.55765E+01 0.00000E+00
 -1      4056 6.19439E+01 2.41289E+01 0.00000E+00
 -1      4057 2.05804E+01 1.68355E+01 0.00000E+00
 -1      4058 4.82850E+01 1.82952E+01 0.00000E+00
 -1      4059 4.67850E+01 1.82952E+01 0.00000E+00
 -1      4060 4.60350E+01 1.95942E+01 0.00000E+00
 -1      4061 2.29669E+01 1.81455E+01 0.00000E+00
 -1      4062 3.92850E+01 1.82952E+01 0.00000E+00
 -1      4063 3.77850E+01 1.82952E+01 0.00000E+00
 -1      4064 4.00350E+01 1.95942E+01 0.00000E+00
 -1      4065 1.08315E+02 2.05537E+01 0.00000E+00
 -1      4066 1.07565E+02 1.92547E+01 0.00000E+00
 -1      4067 6.10656E+01 2.24910E+01 0.00000E+00
 -1      4068 1.95765E+01 2.27212E+01 0.00000E+00
 -1      4069 1.95765E+01 2.41931E+01 0.00000E+00
 -1      4070 2.09670E+01 2.48861E+01 0.00000E+00
 -1      4071 4.90350E+01 1.95942E+01 0.00000E+00
 -1      4072 1.27226E+02 2.80318E+01 0.00000E+00
 -1      4073 1.28377E+02 2.76511E+01 0.00000E+00
 -1      4074 1.28395E+02 2.62035E+01 0.00000E+00
 -1      4075 3.39000E+01 2.79170E+01 0.00000E+00
 -1      4076 3.54000E+01 2.79170E+01 0.00000E+00
 -1      4077 3.69000E+01 2.79170E+01 0.00000E+00
 -1      4078 3.84000E+01 2.79170E+01 0.00000E+00
 -1      4079 3.61500E+01 2.66180E+01 0.00000E+00
 -1      4080 3.99000E+01 2.79170E+01 0.00000E+00
 -1      4081 4.14000E+01 2.79170E+01 0.00000E+00
 -1      4082 3.91500E+01 2.66180E+01 0.00000E+00
 -1      4083 4.29000E+01 2.79170E+01 0.00000E+00
 -1      4084 4.44000E+01 2.79170E+01 0.00000E+00
 -1      4085 4.21500E+01 2.66180E+01 0.00000E+00
 -1      4086 4.59000E+01 2.79170E+01 0.00000E+00
 -1      4087 4.74000E+01 2.79170E+01 0.00000E+00
 -1      4088 4.51500E+01 2.66180E+01 0.00000E+00
 -1      4089 4.89000E+01 2.79170E+01 0.00000E+00
 -1      4090 5.04000E+01 2.79170E+01 0.00000E+00
 -1      4091 4.81500E+01 2.66180E+01 0.00000E+00
 -1      4092 5.19000E+01 2.79170E+01 0.00000E+00
 -1      4093 5.34000E+01 2.79170E+01 0.00000E+00
 -1      4094 5.11500E+01 2.66180E+01 0.00000E+00
 -1      4095 5.49000E+01 2.79170E+01 0.00000E+00
 -1      4096 5.64000E+01 2.79170E+01 0.00000E+00
 -1      4097 5.41500E+01 2.66180E+01 0.00000E+00
 -1      4098 5.79000E+01 2.79170E+01 0.00000E+00
 -1      4099 5.94000E+01 2.79170E+01 0.00000E+00
 -1      4100 5.71500E+01 2.66180E+01 0.00000E+00
 -1      4101 6.14247E+01 2.79064E+01 0.00000E+00
 -1      4102 1.07093E+02 2.82537E+01 0.00000E+00
 -1      4103 1.08593E+02 2.82537E+01 0.00000E+00
 -1      4104 1.06477E+02 2.70281E+01 0.00000E+00
 -1      4105 1.10093E+02 2.82537E+01 0.00000E+00
 -1      4106 1.11593E+02 2.82537E+01 0.00000E+00
 -1      4107 1.09477E+02 2.70281E+01 0.00000E+00
 -1      4108 1.13093E+02 2.82537E+01 0.00000E+00
 -1      4109 1.14593E+02 2.82537E+01 0.00000E+00
 -1      4110 1.12477E+02 2.70281E+01 0.00000E+00
 -1      4111 1.16093E+02 2.82537E+01 0.00000E+00
 -1      4112 1.17593E+02 2.82537E+01 0.00000E+00
 -1      4113 1.15477E+02 2.70281E+01 0.00000E+00
 -1      4114 1.19093E+02 2.82537E+01 0.00000E+00
 -1      4115 1.20593E+02 2.82537E+01 0.00000E+00
 -1      4116 1.18477E+02 2.70281E+01 0.00000E+00
 -1      4117 1.22093E+02 2.82537E+01 0.00000E+00
 -1      4118 1.23593E+02 2.82537E+01 0.00000E+00
 -1      4119 1.21477E+02 2.70281E+01 0.00000E+00
 -1      4120 1.24659E+02 2.81428E+01 0.00000E+00
 -1      4121 1.26159E+02 2.81428E+01 0.00000E+00
 -1      4122 1.26177E+02 2.66953E+01 0.00000E+00
 -1      4123 1.24044E+02 2.69172E+01 0.00000E+00
 -1      4124 4.97850E+01 2.08932E+01 0.00000E+00
 -1      4125 4.82850E+01 2.08932E+01 0.00000E+00
 -1      4126 2.57850E+01 2.08933E+01 0.00000E+00
 -1      4127 2.42851E+01 2.08933E+01 0.00000E+00
 -1      4128 1.06113E+02 1.93770E+01 0.00000E+00
 -1      4129 2.49000E+01 2.79170E+01 0.00000E+00
 -1      4130 2.64000E+01 2.79170E+01 0.00000E+00
 -1      4131 1.06712E+02 2.27388E+01 0.00000E+00
 -1      4132 1.05536E+02 2.42707E+01 0.00000E+00
 -1      4133 1.06152E+02 2.54963E+01 0.00000E+00
 -1      4134 6.06747E+01 2.66074E+01 0.00000E+00
 -1      4135 5.95798E+01 2.55871E+01 0.00000E+00
 -1      4136 2.17016E+01 1.81222E+01 0.00000E+00
 -1      4137 1.98833E+01 1.82611E+01 0.00000E+00
 -1      4138 1.97393E+01 1.95245E+01 0.00000E+00
 -1      4139 2.22698E+01 1.95710E+01 0.00000E+00
 -1      4140 1.21785E+02 2.08932E+01 0.00000E+00
 -1      4141 1.20285E+02 2.08932E+01 0.00000E+00
 -1      4142 3.62850E+01 1.82952E+01 0.00000E+00
 -1      4143 3.47850E+01 1.82952E+01 0.00000E+00
 -1      4144 3.70350E+01 1.95942E+01 0.00000E+00
 -1      4145 3.32850E+01 1.82952E+01 0.00000E+00
 -1      4146 3.17850E+01 1.82952E+01 0.00000E+00
 -1      4147 3.10350E+01 1.95942E+01 0.00000E+00
 -1      4148 2.25585E+01 2.77870E+01 0.00000E+00
 -1      4149 5.57850E+01 2.08932E+01 0.00000E+00
 -1      4150 5.42850E+01 2.08932E+01 0.00000E+00
 -1      4151 1.24785E+02 2.08932E+01 0.00000E+00
 -1      4152 1.23285E+02 2.08932E+01 0.00000E+00
 -1      4153 1.22535E+02 2.21922E+01 0.00000E+00
 -1      4154 3.09000E+01 2.79170E+01 0.00000E+00
 -1      4155 3.24000E+01 2.79170E+01 0.00000E+00
 -1      4156 3.31500E+01 2.66180E+01 0.00000E+00
 -1      4157 5.97939E+01 2.22831E+01 0.00000E+00
 -1      4158 2.79000E+01 2.79170E+01 0.00000E+00
 -1      4159 2.94000E+01 2.79170E+01 0.00000E+00
 -1      4160 3.01500E+01 2.66180E+01 0.00000E+00
 -1      4161 5.27850E+01 2.08932E+01 0.00000E+00
 -1      4162 5.12850E+01 2.08932E+01 0.00000E+00
 -1      4163 5.35350E+01 2.21922E+01 0.00000E+00
 -1      4164 2.33085E+01 2.64880E+01 0.00000E+00
 -1      4165 1.27035E+02 2.10693E+01 0.00000E+00
 -1      4166 1.25910E+02 2.09813E+01 0.00000E+00
 -1      4167 1.25160E+02 2.22803E+01 0.00000E+00
 -1      4168 5.89127E+01 2.38097E+01 0.00000E+00
 -1      4169 5.81971E+01 2.15367E+01 0.00000E+00
 -1      4170 2.87850E+01 2.08933E+01 0.00000E+00
 -1      4171 2.72850E+01 2.08933E+01 0.00000E+00
 -1      4172 2.65351E+01 2.21923E+01 0.00000E+00
 -1      4173 1.19535E+02 2.21922E+01 0.00000E+00
 -1      4174 1.18785E+02 2.08932E+01 0.00000E+00
 -1      4175 1.17285E+02 2.08932E+01 0.00000E+00
 -1      4176 2.30010E+01 2.28033E+01 0.00000E+00
 -1      4177 2.22510E+01 2.15043E+01 0.00000E+00
 -1      4178 5.79829E+01 2.48406E+01 0.00000E+00
 -1      4179 1.29817E+02 2.24157E+01 0.00000E+00
 -1      4180 1.29363E+02 2.11370E+01 0.00000E+00
 -1      4181 1.28238E+02 2.10490E+01 0.00000E+00
 -1      4182 2.09858E+01 2.14810E+01 0.00000E+00
 -1      4183 1.15035E+02 1.95942E+01 0.00000E+00
 -1      4184 1.30244E+02 2.41632E+01 0.00000E+00
 -1      4185 5.05350E+01 2.21922E+01 0.00000E+00
 -1      4186 3.40350E+01 1.95942E+01 0.00000E+00
 -1      4187 4.37850E+01 2.08932E+01 0.00000E+00
 -1      4188 4.22850E+01 2.08932E+01 0.00000E+00
 -1      4189 4.07850E+01 2.08932E+01 0.00000E+00
 -1      4190 3.92850E+01 2.08932E+01 0.00000E+00
 -1      4191 4.15350E+01 2.21922E+01 0.00000E+00
 -1      4192 1.09941E+02 2.12664E+01 0.00000E+00
 -1      4193 1.07721E+02 2.22258E+01 0.00000E+00
 -1      4194 1.08337E+02 2.34515E+01 0.00000E+00
 -1      4195 5.69254E+01 2.13288E+01 0.00000E+00
 -1      4196 5.61754E+01 2.26278E+01 0.00000E+00
 -1      4197 2.71500E+01 2.66180E+01 0.00000E+00
 -1      4198 4.67850E+01 2.08932E+01 0.00000E+00
 -1      4199 4.52850E+01 2.08932E+01 0.00000E+00
 -1      4200 4.45350E+01 2.21922E+01 0.00000E+00
 -1      4201 1.95953E+01 2.07879E+01 0.00000E+00
 -1      4202 1.12941E+02 2.12664E+01 0.00000E+00
 -1      4203 1.11441E+02 2.12664E+01 0.00000E+00
 -1      4204 1.10846E+02 2.29385E+01 0.00000E+00
 -1      4205 4.75350E+01 2.21922E+01 0.00000E+00
 -1      4206 3.84000E+01 2.53190E+01 0.00000E+00
 -1      4207 3.99000E+01 2.53190E+01 0.00000E+00
 -1      4208 4.18425E+01 2.44051E+01 0.00000E+00
 -1      4209 4.33425E+01 2.44051E+01 0.00000E+00
 -1      4210 4.48425E+01 2.44051E+01 0.00000E+00
 -1      4211 4.63425E+01 2.44051E+01 0.00000E+00
 -1      4212 4.78425E+01 2.44051E+01 0.00000E+00
 -1      4213 4.93425E+01 2.44051E+01 0.00000E+00
 -1      4214 5.08425E+01 2.44051E+01 0.00000E+00
 -1      4215 5.23425E+01 2.44051E+01 0.00000E+00
 -1      4216 5.38425E+01 2.44051E+01 0.00000E+00
 -1      4217 5.53425E+01 2.44051E+01 0.00000E+00
 -1      4218 5.64829E+01 2.48406E+01 0.00000E+00
 -1      4219 1.07652E+02 2.54963E+01 0.00000E+00
 -1      4220 1.11662E+02 2.49833E+01 0.00000E+00
 -1      4221 1.13162E+02 2.49833E+01 0.00000E+00
 -1      4222 1.17727E+02 2.57291E+01 0.00000E+00
 -1      4223 1.19227E+02 2.57291E+01 0.00000E+00
 -1      4224 1.20506E+02 2.46102E+01 0.00000E+00
 -1      4225 1.22006E+02 2.46102E+01 0.00000E+00
 -1      4226 1.15863E+02 2.10798E+01 0.00000E+00
 -1      4227 1.14363E+02 2.10798E+01 0.00000E+00
 -1      4228 1.13768E+02 2.27519E+01 0.00000E+00
 -1      4229 1.16613E+02 2.23788E+01 0.00000E+00
 -1      4230 1.27411E+02 2.51606E+01 0.00000E+00
 -1      4231 1.28562E+02 2.47798E+01 0.00000E+00
 -1      4232 3.77850E+01 2.08932E+01 0.00000E+00
 -1      4233 3.62850E+01 2.08932E+01 0.00000E+00
 -1      4234 3.85350E+01 2.21922E+01 0.00000E+00
 -1      4235 3.17850E+01 2.08933E+01 0.00000E+00
 -1      4236 3.02850E+01 2.08933E+01 0.00000E+00
 -1      4237 2.95351E+01 2.21923E+01 0.00000E+00
 -1      4238 2.68425E+01 2.44051E+01 0.00000E+00
 -1      4239 2.83425E+01 2.44051E+01 0.00000E+00
 -1      4240 1.23506E+02 2.46102E+01 0.00000E+00
 -1      4241 3.47850E+01 2.08933E+01 0.00000E+00
 -1      4242 3.32850E+01 2.08933E+01 0.00000E+00
 -1      4243 3.25350E+01 2.21923E+01 0.00000E+00
 -1      4244 3.55350E+01 2.21923E+01 0.00000E+00
 -1      4245 3.28425E+01 2.44051E+01 0.00000E+00
 -1      4246 3.43425E+01 2.44051E+01 0.00000E+00
 -1      4247 2.22098E+01 2.51260E+01 0.00000E+00
 -1      4248 2.45513E+01 2.52560E+01 0.00000E+00
 -1      4249 2.22098E+01 2.36541E+01 0.00000E+00
 -1      4250 2.98425E+01 2.44051E+01 0.00000E+00
 -1      4251 3.13425E+01 2.44051E+01 0.00000E+00
 -1      4252 3.58425E+01 2.44051E+01 0.00000E+00
 -1      4253 3.73425E+01 2.44051E+01 0.00000E+00
 -1      4254 1.27488E+02 2.23480E+01 0.00000E+00
 -1      4255 1.08761E+02 2.44609E+01 0.00000E+00
 -1      4256 1.09085E+02 2.59927E+01 0.00000E+00
 -1      4257 1.19756E+02 2.33112E+01 0.00000E+00
 -1      4258 1.10585E+02 2.59927E+01 0.00000E+00
 -1      4259 1.14727E+02 2.57291E+01 0.00000E+00
 -1      4260 1.16227E+02 2.57291E+01 0.00000E+00
 -1      4261 1.09770E+02 2.39479E+01 0.00000E+00
 -1      4262 1.25040E+02 2.36788E+01 0.00000E+00
 -1      4263 1.24511E+02 2.60968E+01 0.00000E+00
 -1      4264 1.16977E+02 2.44301E+01 0.00000E+00
 -1      4265 1.26165E+02 2.37668E+01 0.00000E+00
 -1      4266 4.10925E+01 2.31061E+01 0.00000E+00
 -1      4267 1.29260E+02 2.31203E+01 0.00000E+00
 -1      4268 1.18256E+02 2.33112E+01 0.00000E+00
 -1      4269 2.53425E+01 2.44051E+01 0.00000E+00
 -1      4270 2.42438E+01 2.30431E+01 0.00000E+00
 -1      4271 1.13912E+02 2.36843E+01 0.00000E+00
 -1      4272 1.11270E+02 2.39479E+01 0.00000E+00
 -1      4273 1.16756E+02 2.33112E+01 0.00000E+00
 -1      4274 1.26644E+02 2.58749E+01 0.00000E+00
 -1      4275 1.26811E+02 2.44512E+01 0.00000E+00
 -1      4276 3.80925E+01 2.31061E+01 0.00000E+00
 -1      4277 1.25577E+02 2.59858E+01 0.00000E+00
 -1      4278 3.95925E+01 2.31061E+01 0.00000E+00
 -1      4279 1.15334E+02 2.34977E+01 0.00000E+00
 -1      4280 1.26932E+02 2.30526E+01 0.00000E+00
 -1      4281 1.28135E+02 2.30323E+01 0.00000E+00
 -3
    3C                          2059                                     1
 -1       164    8    0    1
 -2         6         7        23      1112      1275      1129
 -1       165    8    0    1
 -2         7         8       164      1113      1276      1277
 -1       166    8    0    1
 -2         8         9       165      1114      1278      1279
 -1       167    8    0    1
 -2         8       165       164      1279      1280      1276
 -1       168    8    0    1
 -2         9        10       166      1115      1281      1282
 -1       169    8    0    1
 -2         9       166       165      1282      1283      1278
 -1       170    8    0    1
 -2        10        11       167      1116      1284      1285
 -1       171    8    0    1
 -2        10       167       166      1285      1286      1281
 -1       172    8    0    1
 -2        11        12       168      1117      1287      1288
 -1       173    8    0    1
 -2        11       168       167      1288      1289      1284
 -1       174    8    0    1
 -2        12        13       169      1118      1290      1291
 -1       175    8    0    1
 -2        12       169       168      1291      1292      1287
 -1       176    8    0    1
 -2        13        14       170      1119      1293      1294
 -1       177    8    0    1
 -2        13       170       169      1294      1295      1290
 -1       178    8    0    1
 -2        14        15       171      1120      1296      1297
 -1       179    8    0    1
 -2        14       171       170      1297      1298      1293
 -1       180    8    0    1
 -2        15        16       172      1121      1299      1300
 -1       181    8    0    1
 -2        15       172       171      1300      1301      1296
 -1       182    8    0    1
 -2        16        17       173      1122      1302      1303
 -1       183    8    0    1
 -2        16       173       172      1303      1304      1299
 -1       184    8    0    1
 -2        17        18       174      1123      1305      1306
 -1       185    8    0    1
 -2        17       174       173      1306      1307      1302
 -1       186    8    0    1
 -2        18        19       175      1124      1308      1309
 -1       187    8    0    1
 -2        18       175       174      1309      1310      1305
 -1       188    8    0    1
 -2        19        20       176      1125      1311      1312
 -1       189    8    0    1
 -2        19       176       175      1312      1313      1308
 -1       190    8    0    1
 -2        20        21       177      1126      1314      1315
 -1       191    8    0    1
 -2        20       177       176      1315      1316      1311
 -1       192    8    0    1
 -2        21        22       178      1127      1317      1318
 -1       193    8    0    1
 -2        21       178       177      1318      1319      1314
 -1       194    8    0    1
 -2        22         5       179      1128      1320      1321
 -1       195    8    0    1
 -2       178        22       179      1317      1321      1322
 -1       196    8    0    1
 -2         5        72       179      1179      1323      1320
 -1       197    8    0    1
 -2        24        23       180      1130      1324      1325
 -1       198    8    0    1
 -2        25        24       181      1131      1326      1327
 -1       199    8    0    1
 -2        24       180       181      1325      1328      1326
 -1       200    8    0    1
 -2        26        25       182      1132      1329      1330
 -1       201    8    0    1
 -2        25       181       182      1327      1331      1329
 -1       202    8    0    1
 -2        27        26       183      1133      1332      1333
 -1       203    8    0    1
 -2        26       182       183      1330      1334      1332
 -1       204    8    0    1
 -2        28        27       184      1134      1335      1336
 -1       205    8    0    1
 -2        27       183       184      1333      1337      1335
 -1       206    8    0    1
 -2        29        28       185      1135      1338      1339
 -1       207    8    0    1
 -2        28       184       185      1336      1340      1338
 -1       208    8    0    1
 -2        30        29       186      1136      1341      1342
 -1       209    8    0    1
 -2        29       185       186      1339      1343      1341
 -1       210    8    0    1
 -2        31        30       187      1137      1344      1345
 -1       211    8    0    1
 -2        30       186       187      1342      1346      1344
 -1       212    8    0    1
 -2        32        31       188      1138      1347      1348
 -1       213    8    0    1
 -2        31       187       188      1345      1349      1347
 -1       214    8    0    1
 -2        33        32       189      1139      1350      1351
 -1       215    8    0    1
 -2        32       188       189      1348      1352      1350
 -1       216    8    0    1
 -2        34        33       190      1140      1353      1354
 -1       217    8    0    1
 -2        33       189       190      1351      1355      1353
 -1       218    8    0    1
 -2        35        34       191      1141      1356      1357
 -1       219    8    0    1
 -2        34       190       191      1354      1358      1356
 -1       220    8    0    1
 -2        36        35       192      1142      1359      1360
 -1       221    8    0    1
 -2        35       191       192      1357      1361      1359
 -1       222    8    0    1
 -2        37        36       193      1143      1362      1363
 -1       223    8    0    1
 -2        36       192       193      1360      1364      1362
 -1       224    8    0    1
 -2        38        37       194      1144      1365      1366
 -1       225    8    0    1
 -2        37       193       194      1363      1367      1365
 -1       226    8    0    1
 -2        39        38       195      1145      1368      1369
 -1       227    8    0    1
 -2        38       194       195      1366      1370      1368
 -1       228    8    0    1
 -2        40        39       196      1146      1371      1372
 -1       229    8    0    1
 -2        39       195       196      1369      1373      1371
 -1       230    8    0    1
 -2        41        40       197      1147      1374      1375
 -1       231    8    0    1
 -2        40       196       197      1372      1376      1374
 -1       232    8    0    1
 -2        42        41       198      1148      1377      1378
 -1       233    8    0    1
 -2        41       197       198      1375      1379      1377
 -1       234    8    0    1
 -2        43        42       199      1149      1380      1381
 -1       235    8    0    1
 -2        42       198       199      1378      1382      1380
 -1       236    8    0    1
 -2        44        43       200      1150      1383      1384
 -1       237    8    0    1
 -2        43       199       200      1381      1385      1383
 -1       238    8    0    1
 -2        45        44       201      1151      1386      1387
 -1       239    8    0    1
 -2        44       200       201      1384      1388      1386
 -1       240    8    0    1
 -2        46        45       202      1152      1389      1390
 -1       241    8    0    1
 -2        45       201       202      1387      1391      1389
 -1       242    8    0    1
 -2        47        46       203      1153      1392      1393
 -1       243    8    0    1
 -2        46       202       203      1390      1394      1392
 -1       244    8    0    1
 -2        48        47       204      1154      1395      1396
 -1       245    8    0    1
 -2        47       203       204      1393      1397      1395
 -1       246    8    0    1
 -2        49        48       205      1155      1398      1399
 -1       247    8    0    1
 -2        48       204       205      1396      1400      1398
 -1       248    8    0    1
 -2        50        49       206      1156      1401      1402
 -1       249    8    0    1
 -2        49       205       206      1399      1403      1401
 -1       250    8    0    1
 -2        51        50       207      1157      1404      1405
 -1       251    8    0    1
 -2        50       206       207      1402      1406      1404
 -1       252    8    0    1
 -2        52        51       208      1158      1407      1408
 -1       253    8    0    1
 -2        51       207       208      1405      1409      1407
 -1       254    8    0    1
 -2        53        52       209      1159      1410      1411
 -1       255    8    0    1
 -2        52       208       209      1408      1412      1410
 -1       256    8    0    1
 -2        54        53       210      1160      1413      1414
 -1       257    8    0    1
 -2        53       209       210      1411      1415      1413
 -1       258    8    0    1
 -2        55        54       211      1161      1416      1417
 -1       259    8    0    1
 -2        54       210       211      1414      1418      1416
 -1       260    8    0    1
 -2        56        55       212      1162      1419      1420
 -1       261    8    0    1
 -2        55       211       212      1417      1421      1419
 -1       262    8    0    1
 -2        57        56       213      1163      1422      1423
 -1       263    8    0    1
 -2        56       212       213      1420      1424      1422
 -1       264    8    0    1
 -2        58        57       214      1164      1425      1426
 -1       265    8    0    1
 -2        57       213       214      1423      1427      1425
 -1       266    8    0    1
 -2        59        58       215      1165      1428      1429
 -1       267    8    0    1
 -2        58       214       215      1426      1430      1428
 -1       268    8    0    1
 -2        60        59       216      1166      1431      1432
 -1       269    8    0    1
 -2        59       215       216      1429      1433      1431
 -1       270    8    0    1
 -2        61        60       217      1167      1434      1435
 -1       271    8    0    1
 -2        60       216       217      1432      1436      1434
 -1       272    8    0    1
 -2        62        61       218      1168      1437      1438
 -1       273    8    0    1
 -2        61       217       218      1435      1439      1437
 -1       274    8    0    1
 -2        63        62       219      1169      1440      1441
 -1       275    8    0    1
 -2        62       218       219      1438      1442      1440
 -1       276    8    0    1
 -2        64        63       220      1170      1443      1444
 -1       277    8    0    1
 -2        63       219       220      1441      1445      1443
 -1       278    8    0    1
 -2        65        64       221      1171      1446      1447
 -1       279    8    0    1
 -2        64       220       221      1444      1448      1446
 -1       280    8    0    1
 -2        66        65       222      1172      1449      1450
 -1       281    8    0    1
 -2        65       221       222      1447      1451      1449
 -1       282    8    0    1
 -2        67        66       223      1173      1452      1453
 -1       283    8    0    1
 -2        66       222       223      1450      1454      1452
 -1       284    8    0    1
 -2        68        67       224      1174      1455      1456
 -1       285    8    0    1
 -2        67       223       224      1453      1457      1455
 -1       286    8    0    1
 -2        69        68       225      1175      1458      1459
 -1       287    8    0    1
 -2        68       224       225      1456      1460      1458
 -1       288    8    0    1
 -2        70        69       226      1176      1461      1462
 -1       289    8    0    1
 -2        69       225       226      1459      1463      1461
 -1       290    8    0    1
 -2        71        70       227      1177      1464      1465
 -1       291    8    0    1
 -2        70       226       227      1462      1466      1464
 -1       292    8    0    1
 -2         4        71       136      1178      1467      1245
 -1       293    8    0    1
 -2       136        71       227      1467      1465      1468
 -1       294    8    0    1
 -2        72        73       228      1180      1469      1470
 -1       295    8    0    1
 -2        72       228       179      1470      1471      1323
 -1       296    8    0    1
 -2        73        74       229      1181      1472      1473
 -1       297    8    0    1
 -2        73       229       228      1473      1474      1469
 -1       298    8    0    1
 -2        74        75       230      1182      1475      1476
 -1       299    8    0    1
 -2        74       230       229      1476      1477      1472
 -1       300    8    0    1
 -2        75        76       231      1183      1478      1479
 -1       301    8    0    1
 -2        75       231       230      1479      1480      1475
 -1       302    8    0    1
 -2        76        77       232      1184      1481      1482
 -1       303    8    0    1
 -2        76       232       231      1482      1483      1478
 -1       304    8    0    1
 -2        77        78       233      1185      1484      1485
 -1       305    8    0    1
 -2        77       233       232      1485      1486      1481
 -1       306    8    0    1
 -2        78        79       234      1186      1487      1488
 -1       307    8    0    1
 -2        78       234       233      1488      1489      1484
 -1       308    8    0    1
 -2        79        80       235      1187      1490      1491
 -1       309    8    0    1
 -2        79       235       234      1491      1492      1487
 -1       310    8    0    1
 -2        80        81       236      1188      1493      1494
 -1       311    8    0    1
 -2        80       236       235      1494      1495      1490
 -1       312    8    0    1
 -2        81        82       237      1189      1496      1497
 -1       313    8    0    1
 -2        81       237       236      1497      1498      1493
 -1       314    8    0    1
 -2        82        83       238      1190      1499      1500
 -1       315    8    0    1
 -2        82       238       237      1500      1501      1496
 -1       316    8    0    1
 -2        83        84       239      1191      1502      1503
 -1       317    8    0    1
 -2        83       239       238      1503      1504      1499
 -1       318    8    0    1
 -2        84        85       240      1192      1505      1506
 -1       319    8    0    1
 -2        84       240       239      1506      1507      1502
 -1       320    8    0    1
 -2        85        86       241      1193      1508      1509
 -1       321    8    0    1
 -2        85       241       240      1509      1510      1505
 -1       322    8    0    1
 -2        86        87       242      1194      1511      1512
 -1       323    8    0    1
 -2        86       242       241      1512      1513      1508
 -1       324    8    0    1
 -2        87        88       243      1195      1514      1515
 -1       325    8    0    1
 -2        87       243       242      1515      1516      1511
 -1       326    8    0    1
 -2        88        89       244      1196      1517      1518
 -1       327    8    0    1
 -2        88       244       243      1518      1519      1514
 -1       328    8    0    1
 -2        89        90       245      1197      1520      1521
 -1       329    8    0    1
 -2        89       245       244      1521      1522      1517
 -1       330    8    0    1
 -2        90        91       246      1198      1523      1524
 -1       331    8    0    1
 -2        90       246       245      1524      1525      1520
 -1       332    8    0    1
 -2        91        92       247      1199      1526      1527
 -1       333    8    0    1
 -2        91       247       246      1527      1528      1523
 -1       334    8    0    1
 -2        92        93       248      1200      1529      1530
 -1       335    8    0    1
 -2        92       248       247      1530      1531      1526
 -1       336    8    0    1
 -2        93        94       249      1201      1532      1533
 -1       337    8    0    1
 -2        93       249       248      1533      1534      1529
 -1       338    8    0    1
 -2        94        95       250      1202      1535      1536
 -1       339    8    0    1
 -2        94       250       249      1536      1537      1532
 -1       340    8    0    1
 -2        95        96       251      1203      1538      1539
 -1       341    8    0    1
 -2        95       251       250      1539      1540      1535
 -1       342    8    0    1
 -2        96        97       252      1204      1541      1542
 -1       343    8    0    1
 -2        96       252       251      1542      1543      1538
 -1       344    8    0    1
 -2        97        98       253      1205      1544      1545
 -1       345    8    0    1
 -2        97       253       252      1545      1546      1541
 -1       346    8    0    1
 -2        98        99       254      1206      1547      1548
 -1       347    8    0    1
 -2        98       254       253      1548      1549      1544
 -1       348    8    0    1
 -2        99       100       255      1207      1550      1551
 -1       349    8    0    1
 -2        99       255       254      1551      1552      1547
 -1       350    8    0    1
 -2       100       101       256      1208      1553      1554
 -1       351    8    0    1
 -2       100       256       255      1554      1555      1550
 -1       352    8    0    1
 -2       101       102       257      1209      1556      1557
 -1       353    8    0    1
 -2       101       257       256      1557      1558      1553
 -1       354    8    0    1
 -2       102       103       258      1210      1559      1560
 -1       355    8    0    1
 -2       102       258       257      1560      1561      1556
 -1       356    8    0    1
 -2       103       104       259      1211      1562      1563
 -1       357    8    0    1
 -2       103       259       258      1563      1564      1559
 -1       358    8    0    1
 -2       104       105       260      1212      1565      1566
 -1       359    8    0    1
 -2       104       260       259      1566      1567      1562
 -1       360    8    0    1
 -2       105       106       261      1213      1568      1569
 -1       361    8    0    1
 -2       105       261       260      1569      1570      1565
 -1       362    8    0    1
 -2       106       107       262      1214      1571      1572
 -1       363    8    0    1
 -2       106       262       261      1572      1573      1568
 -1       364    8    0    1
 -2       107       108       263      1215      1574      1575
 -1       365    8    0    1
 -2       107       263       262      1575      1576      1571
 -1       366    8    0    1
 -2       108       109       264      1216      1577      1578
 -1       367    8    0    1
 -2       108       264       263      1578      1579      1574
 -1       368    8    0    1
 -2       109       110       265      1217      1580      1581
 -1       369    8    0    1
 -2       109       265       264      1581      1582      1577
 -1       370    8    0    1
 -2       110       111       266      1218      1583      1584
 -1       371    8    0    1
 -2       110       266       265      1584      1585      1580
 -1       372    8    0    1
 -2       111       112       267      1219      1586      1587
 -1       373    8    0    1
 -2       111       267       266      1587      1588      1583
 -1       374    8    0    1
 -2       112       113       268      1220      1589      1590
 -1       375    8    0    1
 -2       112       268       267      1590      1591      1586
 -1       376    8    0    1
 -2       113       114       269      1221      1592      1593
 -1       377    8    0    1
 -2       113       269       268      1593      1594      1589
 -1       378    8    0    1
 -2       114       115       270      1222      1595      1596
 -1       379    8    0    1
 -2       114       270       269      1596      1597      1592
 -1       380    8    0    1
 -2       115       116       271      1223      1598      1599
 -1       381    8    0    1
 -2       115       271       270      1599      1600      1595
 -1       382    8    0    1
 -2       116       117       272      1224      1601      1602
 -1       383    8    0    1
 -2       116       272       271      1602      1603      1598
 -1       384    8    0    1
 -2       117       118       273      1225      1604      1605
 -1       385    8    0    1
 -2       117       273       272      1605      1606      1601
 -1       386    8    0    1
 -2       118       119       274      1226      1607      1608
 -1       387    8    0    1
 -2       118       274       273      1608      1609      1604
 -1       388    8    0    1
 -2       119       120       275      1227      1610      1611
 -1       389    8    0    1
 -2       119       275       274      1611      1612      1607
 -1       390    8    0    1
 -2       120         3       121      1228      1229      1613
 -1       391    8    0    1
 -2       121       122       276      1230      1614      1615
 -1       392    8    0    1
 -2       122       123       277      1231      1616      1617
 -1       393    8    0    1
 -2       122       277       276      1617      1618      1614
 -1       394    8    0    1
 -2       123       124       278      1232      1619      1620
 -1       395    8    0    1
 -2       123       278       277      1620      1621      1616
 -1       396    8    0    1
 -2       124       125       279      1233      1622      1623
 -1       397    8    0    1
 -2       124       279       278      1623      1624      1619
 -1       398    8    0    1
 -2       125       126       280      1234      1625      1626
 -1       399    8    0    1
 -2       125       280       279      1626      1627      1622
 -1       400    8    0    1
 -2       126       127       281      1235      1628      1629
 -1       401    8    0    1
 -2       126       281       280      1629      1630      1625
 -1       402    8    0    1
 -2       127       128       282      1236      1631      1632
 -1       403    8    0    1
 -2       127       282       281      1632      1633      1628
 -1       404    8    0    1
 -2       128       129       283      1237      1634      1635
 -1       405    8    0    1
 -2       128       283       282      1635      1636      1631
 -1       406    8    0    1
 -2       129       130       284      1238      1637      1638
 -1       407    8    0    1
 -2       129       284       283      1638      1639      1634
 -1       408    8    0    1
 -2       130       131       285      1239      1640      1641
 -1       409    8    0    1
 -2       130       285       284      1641      1642      1637
 -1       410    8    0    1
 -2       131       132       286      1240      1643      1644
 -1       411    8    0    1
 -2       131       286       285      1644      1645      1640
 -1       412    8    0    1
 -2       132       133       287      1241      1646      1647
 -1       413    8    0    1
 -2       132       287       286      1647      1648      1643
 -1       414    8    0    1
 -2       133       134       288      1242      1649      1650
 -1       415    8    0    1
 -2       133       288       287      1650      1651      1646
 -1       416    8    0    1
 -2       134       135       289      1243      1652      1653
 -1       417    8    0    1
 -2       134       289       288      1653      1654      1649
 -1       418    8    0    1
 -2       135       136       290      1244      1655      1656
 -1       419    8    0    1
 -2       289       135       290      1652      1656      1657
 -1       420    8    0    1
 -2       136       227       290      1468      1658      1655
 -1       421    8    0    1
 -2         2       137       291      1246      1659      1660
 -1       422    8    0    1
 -2       137       138       292      1247      1661      1662
 -1       423    8    0    1
 -2       138       139       293      1248      1663      1664
 -1       424    8    0    1
 -2       139       140       294      1249      1665      1666
 -1       425    8    0    1
 -2       140       141       295      1250      1667      1668
 -1       426    8    0    1
 -2       141       142       296      1251      1669      1670
 -1       427    8    0    1
 -2       142       143       297      1252      1671      1672
 -1       428    8    0    1
 -2       143       144       298      1253      1673      1674
 -1       429    8    0    1
 -2       144       145       299      1254      1675      1676
 -1       430    8    0    1
 -2       145       146       300      1255      1677      1678
 -1       431    8    0    1
 -2       146       147       301      1256      1679      1680
 -1       432    8    0    1
 -2       147       148       302      1257      1681      1682
 -1       433    8    0    1
 -2       148       149       303      1258      1683      1684
 -1       434    8    0    1
 -2       149       150       304      1259      1685      1686
 -1       435    8    0    1
 -2       150       151       305      1260      1687      1688
 -1       436    8    0    1
 -2       151       152       306      1261      1689      1690
 -1       437    8    0    1
 -2       152       153       307      1262      1691      1692
 -1       438    8    0    1
 -2       153       154       308      1263      1693      1694
 -1       439    8    0    1
 -2       154       155       309      1264      1695      1696
 -1       440    8    0    1
 -2       155       156       310      1265      1697      1698
 -1       441    8    0    1
 -2       156       157       311      1266      1699      1700
 -1       442    8    0    1
 -2       157         1       312      1267      1701      1702
 -1       443    8    0    1
 -2         1       158       313      1268      1703      1704
 -1       444    8    0    1
 -2       158       159       314      1269      1705      1706
 -1       445    8    0    1
 -2       159       160       315      1270      1707      1708
 -1       446    8    0    1
 -2       160       161       316      1271      1709      1710
 -1       447    8    0    1
 -2       161       162       317      1272      1711      1712
 -1       448    8    0    1
 -2       162       163       318      1273      1713      1714
 -1       449    8    0    1
 -2       163         2       319      1274      1715      1716
 -1       450    8    0    1
 -2       294       140       295      1665      1668      1717
 -1       451    8    0    1
 -2       293       139       294      1663      1666      1718
 -1       452    8    0    1
 -2       120       121       275      1613      1719      1610
 -1       453    8    0    1
 -2       121       276       275      1615      1720      1719
 -1       454    8    0    1
 -2       291       137       292      1659      1662      1721
 -1       455    8    0    1
 -2       292       138       293      1661      1664      1722
 -1       456    8    0    1
 -2         2       291       319      1660      1723      1715
 -1       457    8    0    1
 -2       141       296       295      1670      1724      1667
 -1       458    8    0    1
 -2       142       297       296      1672      1725      1669
 -1       459    8    0    1
 -2       143       298       297      1674      1726      1671
 -1       460    8    0    1
 -2       144       299       298      1676      1727      1673
 -1       461    8    0    1
 -2       145       300       299      1678      1728      1675
 -1       462    8    0    1
 -2       146       301       300      1680      1729      1677
 -1       463    8    0    1
 -2       147       302       301      1682      1730      1679
 -1       464    8    0    1
 -2       148       303       302      1684      1731      1681
 -1       465    8    0    1
 -2       149       304       303      1686      1732      1683
 -1       466    8    0    1
 -2       150       305       304      1688      1733      1685
 -1       467    8    0    1
 -2       151       306       305      1690      1734      1687
 -1       468    8    0    1
 -2       152       307       306      1692      1735      1689
 -1       469    8    0    1
 -2       153       308       307      1694      1736      1691
 -1       470    8    0    1
 -2       154       309       308      1696      1737      1693
 -1       471    8    0    1
 -2       155       310       309      1698      1738      1695
 -1       472    8    0    1
 -2       156       311       310      1700      1739      1697
 -1       473    8    0    1
 -2       157       312       311      1702      1740      1699
 -1       474    8    0    1
 -2         1       313       312      1704      1741      1701
 -1       475    8    0    1
 -2       158       314       313      1706      1742      1703
 -1       476    8    0    1
 -2       159       315       314      1708      1743      1705
 -1       477    8    0    1
 -2       160       316       315      1710      1744      1707
 -1       478    8    0    1
 -2       161       317       316      1712      1745      1709
 -1       479    8    0    1
 -2       162       318       317      1714      1746      1711
 -1       480    8    0    1
 -2       163       319       318      1716      1747      1713
 -1       481    8    0    1
 -2        23         7       164      1275      1277      1748
 -1       482    8    0    1
 -2       165       166       320      1283      1749      1750
 -1       483    8    0    1
 -2       164       165       321      1280      1751      1752
 -1       484    8    0    1
 -2       165       320       321      1750      1753      1751
 -1       485    8    0    1
 -2       167       168       322      1289      1754      1755
 -1       486    8    0    1
 -2       168       169       323      1292      1756      1757
 -1       487    8    0    1
 -2       168       323       322      1757      1758      1754
 -1       488    8    0    1
 -2       169       170       324      1295      1759      1760
 -1       489    8    0    1
 -2       169       324       323      1760      1761      1756
 -1       490    8    0    1
 -2       170       171       325      1298      1762      1763
 -1       491    8    0    1
 -2       170       325       324      1763      1764      1759
 -1       492    8    0    1
 -2       171       172       326      1301      1765      1766
 -1       493    8    0    1
 -2       171       326       325      1766      1767      1762
 -1       494    8    0    1
 -2       172       173       327      1304      1768      1769
 -1       495    8    0    1
 -2       172       327       326      1769      1770      1765
 -1       496    8    0    1
 -2       173       174       328      1307      1771      1772
 -1       497    8    0    1
 -2       173       328       327      1772      1773      1768
 -1       498    8    0    1
 -2       174       175       329      1310      1774      1775
 -1       499    8    0    1
 -2       174       329       328      1775      1776      1771
 -1       500    8    0    1
 -2       175       176       330      1313      1777      1778
 -1       501    8    0    1
 -2       175       330       329      1778      1779      1774
 -1       502    8    0    1
 -2       176       177       331      1316      1780      1781
 -1       503    8    0    1
 -2       176       331       330      1781      1782      1777
 -1       504    8    0    1
 -2       177       178       332      1319      1783      1784
 -1       505    8    0    1
 -2       177       332       331      1784      1785      1780
 -1       506    8    0    1
 -2       178       179       333      1322      1786      1787
 -1       507    8    0    1
 -2       332       178       333      1783      1787      1788
 -1       508    8    0    1
 -2       179       228       333      1471      1789      1786
 -1       509    8    0    1
 -2       180        23       164      1324      1748      1790
 -1       510    8    0    1
 -2       228       229       334      1474      1791      1792
 -1       511    8    0    1
 -2       228       334       333      1792      1793      1789
 -1       512    8    0    1
 -2       180       164       321      1790      1752      1794
 -1       513    8    0    1
 -2       182       181       335      1331      1795      1796
 -1       514    8    0    1
 -2       183       182       336      1334      1797      1798
 -1       515    8    0    1
 -2       182       335       336      1796      1799      1797
 -1       516    8    0    1
 -2       184       183       337      1337      1800      1801
 -1       517    8    0    1
 -2       183       336       337      1798      1802      1800
 -1       518    8    0    1
 -2       185       184       338      1340      1803      1804
 -1       519    8    0    1
 -2       184       337       338      1801      1805      1803
 -1       520    8    0    1
 -2       186       185       339      1343      1806      1807
 -1       521    8    0    1
 -2       185       338       339      1804      1808      1806
 -1       522    8    0    1
 -2       187       186       340      1346      1809      1810
 -1       523    8    0    1
 -2       186       339       340      1807      1811      1809
 -1       524    8    0    1
 -2       188       187       341      1349      1812      1813
 -1       525    8    0    1
 -2       187       340       341      1810      1814      1812
 -1       526    8    0    1
 -2       189       188       342      1352      1815      1816
 -1       527    8    0    1
 -2       188       341       342      1813      1817      1815
 -1       528    8    0    1
 -2       190       189       343      1355      1818      1819
 -1       529    8    0    1
 -2       189       342       343      1816      1820      1818
 -1       530    8    0    1
 -2       191       190       344      1358      1821      1822
 -1       531    8    0    1
 -2       190       343       344      1819      1823      1821
 -1       532    8    0    1
 -2       192       191       345      1361      1824      1825
 -1       533    8    0    1
 -2       191       344       345      1822      1826      1824
 -1       534    8    0    1
 -2       193       192       346      1364      1827      1828
 -1       535    8    0    1
 -2       192       345       346      1825      1829      1827
 -1       536    8    0    1
 -2       194       193       347      1367      1830      1831
 -1       537    8    0    1
 -2       193       346       347      1828      1832      1830
 -1       538    8    0    1
 -2       195       194       348      1370      1833      1834
 -1       539    8    0    1
 -2       194       347       348      1831      1835      1833
 -1       540    8    0    1
 -2       196       195       349      1373      1836      1837
 -1       541    8    0    1
 -2       195       348       349      1834      1838      1836
 -1       542    8    0    1
 -2       197       196       350      1376      1839      1840
 -1       543    8    0    1
 -2       196       349       350      1837      1841      1839
 -1       544    8    0    1
 -2       198       197       351      1379      1842      1843
 -1       545    8    0    1
 -2       197       350       351      1840      1844      1842
 -1       546    8    0    1
 -2       199       198       352      1382      1845      1846
 -1       547    8    0    1
 -2       198       351       352      1843      1847      1845
 -1       548    8    0    1
 -2       200       199       353      1385      1848      1849
 -1       549    8    0    1
 -2       199       352       353      1846      1850      1848
 -1       550    8    0    1
 -2       201       200       354      1388      1851      1852
 -1       551    8    0    1
 -2       200       353       354      1849      1853      1851
 -1       552    8    0    1
 -2       202       201       355      1391      1854      1855
 -1       553    8    0    1
 -2       201       354       355      1852      1856      1854
 -1       554    8    0    1
 -2       203       202       356      1394      1857      1858
 -1       555    8    0    1
 -2       202       355       356      1855      1859      1857
 -1       556    8    0    1
 -2       204       203       357      1397      1860      1861
 -1       557    8    0    1
 -2       203       356       357      1858      1862      1860
 -1       558    8    0    1
 -2       205       204       358      1400      1863      1864
 -1       559    8    0    1
 -2       204       357       358      1861      1865      1863
 -1       560    8    0    1
 -2       206       205       359      1403      1866      1867
 -1       561    8    0    1
 -2       205       358       359      1864      1868      1866
 -1       562    8    0    1
 -2       207       206       360      1406      1869      1870
 -1       563    8    0    1
 -2       206       359       360      1867      1871      1869
 -1       564    8    0    1
 -2       208       207       361      1409      1872      1873
 -1       565    8    0    1
 -2       207       360       361      1870      1874      1872
 -1       566    8    0    1
 -2       209       208       362      1412      1875      1876
 -1       567    8    0    1
 -2       208       361       362      1873      1877      1875
 -1       568    8    0    1
 -2       210       209       363      1415      1878      1879
 -1       569    8    0    1
 -2       209       362       363      1876      1880      1878
 -1       570    8    0    1
 -2       211       210       364      1418      1881      1882
 -1       571    8    0    1
 -2       210       363       364      1879      1883      1881
 -1       572    8    0    1
 -2       212       211       365      1421      1884      1885
 -1       573    8    0    1
 -2       211       364       365      1882      1886      1884
 -1       574    8    0    1
 -2       213       212       366      1424      1887      1888
 -1       575    8    0    1
 -2       212       365       366      1885      1889      1887
 -1       576    8    0    1
 -2       214       213       367      1427      1890      1891
 -1       577    8    0    1
 -2       213       366       367      1888      1892      1890
 -1       578    8    0    1
 -2       215       214       368      1430      1893      1894
 -1       579    8    0    1
 -2       214       367       368      1891      1895      1893
 -1       580    8    0    1
 -2       216       215       369      1433      1896      1897
 -1       581    8    0    1
 -2       215       368       369      1894      1898      1896
 -1       582    8    0    1
 -2       217       216       370      1436      1899      1900
 -1       583    8    0    1
 -2       216       369       370      1897      1901      1899
 -1       584    8    0    1
 -2       218       217       371      1439      1902      1903
 -1       585    8    0    1
 -2       217       370       371      1900      1904      1902
 -1       586    8    0    1
 -2       219       218       372      1442      1905      1906
 -1       587    8    0    1
 -2       218       371       372      1903      1907      1905
 -1       588    8    0    1
 -2       220       219       373      1445      1908      1909
 -1       589    8    0    1
 -2       219       372       373      1906      1910      1908
 -1       590    8    0    1
 -2       221       220       374      1448      1911      1912
 -1       591    8    0    1
 -2       220       373       374      1909      1913      1911
 -1       592    8    0    1
 -2       222       221       375      1451      1914      1915
 -1       593    8    0    1
 -2       221       374       375      1912      1916      1914
 -1       594    8    0    1
 -2       223       222       376      1454      1917      1918
 -1       595    8    0    1
 -2       222       375       376      1915      1919      1917
 -1       596    8    0    1
 -2       224       223       377      1457      1920      1921
 -1       597    8    0    1
 -2       223       376       377      1918      1922      1920
 -1       598    8    0    1
 -2       225       224       378      1460      1923      1924
 -1       599    8    0    1
 -2       224       377       378      1921      1925      1923
 -1       600    8    0    1
 -2       226       225       379      1463      1926      1927
 -1       601    8    0    1
 -2       225       378       379      1924      1928      1926
 -1       602    8    0    1
 -2       227       226       380      1466      1929      1930
 -1       603    8    0    1
 -2       290       227       380      1658      1930      1931
 -1       604    8    0    1
 -2       226       379       380      1927      1932      1929
 -1       605    8    0    1
 -2       229       230       381      1477      1933      1934
 -1       606    8    0    1
 -2       229       381       334      1934      1935      1791
 -1       607    8    0    1
 -2       230       231       382      1480      1936      1937
 -1       608    8    0    1
 -2       230       382       381      1937      1938      1933
 -1       609    8    0    1
 -2       231       232       383      1483      1939      1940
 -1       610    8    0    1
 -2       231       383       382      1940      1941      1936
 -1       611    8    0    1
 -2       232       233       384      1486      1942      1943
 -1       612    8    0    1
 -2       232       384       383      1943      1944      1939
 -1       613    8    0    1
 -2       233       234       385      1489      1945      1946
 -1       614    8    0    1
 -2       233       385       384      1946      1947      1942
 -1       615    8    0    1
 -2       234       235       386      1492      1948      1949
 -1       616    8    0    1
 -2       234       386       385      1949      1950      1945
 -1       617    8    0    1
 -2       235       236       387      1495      1951      1952
 -1       618    8    0    1
 -2       235       387       386      1952      1953      1948
 -1       619    8    0    1
 -2       236       237       388      1498      1954      1955
 -1       620    8    0    1
 -2       236       388       387      1955      1956      1951
 -1       621    8    0    1
 -2       237       238       389      1501      1957      1958
 -1       622    8    0    1
 -2       237       389       388      1958      1959      1954
 -1       623    8    0    1
 -2       238       239       390      1504      1960      1961
 -1       624    8    0    1
 -2       238       390       389      1961      1962      1957
 -1       625    8    0    1
 -2       239       240       391      1507      1963      1964
 -1       626    8    0    1
 -2       239       391       390      1964      1965      1960
 -1       627    8    0    1
 -2       240       241       392      1510      1966      1967
 -1       628    8    0    1
 -2       240       392       391      1967      1968      1963
 -1       629    8    0    1
 -2       241       242       393      1513      1969      1970
 -1       630    8    0    1
 -2       241       393       392      1970      1971      1966
 -1       631    8    0    1
 -2       242       243       394      1516      1972      1973
 -1       632    8    0    1
 -2       242       394       393      1973      1974      1969
 -1       633    8    0    1
 -2       243       244       395      1519      1975      1976
 -1       634    8    0    1
 -2       243       395       394      1976      1977      1972
 -1       635    8    0    1
 -2       244       245       396      1522      1978      1979
 -1       636    8    0    1
 -2       244       396       395      1979      1980      1975
 -1       637    8    0    1
 -2       245       246       397      1525      1981      1982
 -1       638    8    0    1
 -2       245       397       396      1982      1983      1978
 -1       639    8    0    1
 -2       246       247       398      1528      1984      1985
 -1       640    8    0    1
 -2       246       398       397      1985      1986      1981
 -1       641    8    0    1
 -2       247       248       399      1531      1987      1988
 -1       642    8    0    1
 -2       247       399       398      1988      1989      1984
 -1       643    8    0    1
 -2       248       249       400      1534      1990      1991
 -1       644    8    0    1
 -2       248       400       399      1991      1992      1987
 -1       645    8    0    1
 -2       249       250       401      1537      1993      1994
 -1       646    8    0    1
 -2       249       401       400      1994      1995      1990
 -1       647    8    0    1
 -2       250       251       402      1540      1996      1997
 -1       648    8    0    1
 -2       250       402       401      1997      1998      1993
 -1       649    8    0    1
 -2       251       252       403      1543      1999      2000
 -1       650    8    0    1
 -2       251       403       402      2000      2001      1996
 -1       651    8    0    1
 -2       252       253       404      1546      2002      2003
 -1       652    8    0    1
 -2       252       404       403      2003      2004      1999
 -1       653    8    0    1
 -2       253       254       405      1549      2005      2006
 -1       654    8    0    1
 -2       253       405       404      2006      2007      2002
 -1       655    8    0    1
 -2       254       255       406      1552      2008      2009
 -1       656    8    0    1
 -2       254       406       405      2009      2010      2005
 -1       657    8    0    1
 -2       255       256       407      1555      2011      2012
 -1       658    8    0    1
 -2       255       407       406      2012      2013      2008
 -1       659    8    0    1
 -2       256       257       408      1558      2014      2015
 -1       660    8    0    1
 -2       256       408       407      2015      2016      2011
 -1       661    8    0    1
 -2       257       258       409      1561      2017      2018
 -1       662    8    0    1
 -2       257       409       408      2018      2019      2014
 -1       663    8    0    1
 -2       258       259       410      1564      2020      2021
 -1       664    8    0    1
 -2       258       410       409      2021      2022      2017
 -1       665    8    0    1
 -2       259       260       411      1567      2023      2024
 -1       666    8    0    1
 -2       259       411       410      2024      2025      2020
 -1       667    8    0    1
 -2       260       261       412      1570      2026      2027
 -1       668    8    0    1
 -2       260       412       411      2027      2028      2023
 -1       669    8    0    1
 -2       261       262       413      1573      2029      2030
 -1       670    8    0    1
 -2       261       413       412      2030      2031      2026
 -1       671    8    0    1
 -2       262       263       414      1576      2032      2033
 -1       672    8    0    1
 -2       262       414       413      2033      2034      2029
 -1       673    8    0    1
 -2       263       264       415      1579      2035      2036
 -1       674    8    0    1
 -2       263       415       414      2036      2037      2032
 -1       675    8    0    1
 -2       264       265       416      1582      2038      2039
 -1       676    8    0    1
 -2       264       416       415      2039      2040      2035
 -1       677    8    0    1
 -2       265       266       417      1585      2041      2042
 -1       678    8    0    1
 -2       265       417       416      2042      2043      2038
 -1       679    8    0    1
 -2       266       267       418      1588      2044      2045
 -1       680    8    0    1
 -2       266       418       417      2045      2046      2041
 -1       681    8    0    1
 -2       267       268       419      1591      2047      2048
 -1       682    8    0    1
 -2       267       419       418      2048      2049      2044
 -1       683    8    0    1
 -2       268       269       420      1594      2050      2051
 -1       684    8    0    1
 -2       268       420       419      2051      2052      2047
 -1       685    8    0    1
 -2       269       270       421      1597      2053      2054
 -1       686    8    0    1
 -2       269       421       420      2054      2055      2050
 -1       687    8    0    1
 -2       270       271       422      1600      2056      2057
 -1       688    8    0    1
 -2       270       422       421      2057      2058      2053
 -1       689    8    0    1
 -2       271       272       423      1603      2059      2060
 -1       690    8    0    1
 -2       271       423       422      2060      2061      2056
 -1       691    8    0    1
 -2       272       273       424      1606      2062      2063
 -1       692    8    0    1
 -2       272       424       423      2063      2064      2059
 -1       693    8    0    1
 -2       273       274       425      1609      2065      2066
 -1       694    8    0    1
 -2       273       425       424      2066      2067      2062
 -1       695    8    0    1
 -2       274       275       426      1612      2068      2069
 -1       696    8    0    1
 -2       425       274       426      2065      2069      2070
 -1       697    8    0    1
 -2       275       276       426      1720      2071      2068
 -1       698    8    0    1
 -2       278       279       427      1624      2072      2073
 -1       699    8    0    1
 -2       277       278       428      1621      2074      2075
 -1       700    8    0    1
 -2       278       427       428      2073      2076      2074
 -1       701    8    0    1
 -2       276       277       429      1618      2077      2078
 -1       702    8    0    1
 -2       426       276       429      2071      2078      2079
 -1       703    8    0    1
 -2       277       428       429      2075      2080      2077
 -1       704    8    0    1
 -2       279       280       430      1627      2081      2082
 -1       705    8    0    1
 -2       279       430       427      2082      2083      2072
 -1       706    8    0    1
 -2       280       281       431      1630      2084      2085
 -1       707    8    0    1
 -2       280       431       430      2085      2086      2081
 -1       708    8    0    1
 -2       281       282       432      1633      2087      2088
 -1       709    8    0    1
 -2       281       432       431      2088      2089      2084
 -1       710    8    0    1
 -2       282       283       433      1636      2090      2091
 -1       711    8    0    1
 -2       282       433       432      2091      2092      2087
 -1       712    8    0    1
 -2       283       284       434      1639      2093      2094
 -1       713    8    0    1
 -2       283       434       433      2094      2095      2090
 -1       714    8    0    1
 -2       284       285       435      1642      2096      2097
 -1       715    8    0    1
 -2       284       435       434      2097      2098      2093
 -1       716    8    0    1
 -2       285       286       436      1645      2099      2100
 -1       717    8    0    1
 -2       285       436       435      2100      2101      2096
 -1       718    8    0    1
 -2       286       287       437      1648      2102      2103
 -1       719    8    0    1
 -2       286       437       436      2103      2104      2099
 -1       720    8    0    1
 -2       287       288       438      1651      2105      2106
 -1       721    8    0    1
 -2       287       438       437      2106      2107      2102
 -1       722    8    0    1
 -2       288       289       439      1654      2108      2109
 -1       723    8    0    1
 -2       288       439       438      2109      2110      2105
 -1       724    8    0    1
 -2       292       293       440      1722      2111      2112
 -1       725    8    0    1
 -2       319       291       441      1723      2113      2114
 -1       726    8    0    1
 -2       291       292       442      1721      2115      2116
 -1       727    8    0    1
 -2       292       440       442      2112      2117      2115
 -1       728    8    0    1
 -2       293       294       443      1718      2118      2119
 -1       729    8    0    1
 -2       294       295       444      1717      2120      2121
 -1       730    8    0    1
 -2       166       167       445      1286      2122      2123
 -1       731    8    0    1
 -2       320       166       445      1749      2123      2124
 -1       732    8    0    1
 -2       167       322       445      1755      2125      2122
 -1       733    8    0    1
 -2       296       297       446      1725      2126      2127
 -1       734    8    0    1
 -2       297       298       447      1726      2128      2129
 -1       735    8    0    1
 -2       298       299       448      1727      2130      2131
 -1       736    8    0    1
 -2       299       300       449      1728      2132      2133
 -1       737    8    0    1
 -2       300       301       450      1729      2134      2135
 -1       738    8    0    1
 -2       301       302       451      1730      2136      2137
 -1       739    8    0    1
 -2       302       303       452      1731      2138      2139
 -1       740    8    0    1
 -2       303       304       453      1732      2140      2141
 -1       741    8    0    1
 -2       304       305       454      1733      2142      2143
 -1       742    8    0    1
 -2       305       306       455      1734      2144      2145
 -1       743    8    0    1
 -2       306       307       456      1735      2146      2147
 -1       744    8    0    1
 -2       306       456       455      2147      2148      2144
 -1       745    8    0    1
 -2       307       308       457      1736      2149      2150
 -1       746    8    0    1
 -2       308       309       458      1737      2151      2152
 -1       747    8    0    1
 -2       309       310       459      1738      2153      2154
 -1       748    8    0    1
 -2       310       311       460      1739      2155      2156
 -1       749    8    0    1
 -2       310       460       459      2156      2157      2153
 -1       750    8    0    1
 -2       311       312       461      1740      2158      2159
 -1       751    8    0    1
 -2       312       313       462      1741      2160      2161
 -1       752    8    0    1
 -2       313       314       463      1742      2162      2163
 -1       753    8    0    1
 -2       314       315       464      1743      2164      2165
 -1       754    8    0    1
 -2       315       316       465      1744      2166      2167
 -1       755    8    0    1
 -2       316       317       466      1745      2168      2169
 -1       756    8    0    1
 -2       317       318       467      1746      2170      2171
 -1       757    8    0    1
 -2       318       319       468      1747      2172      2173
 -1       758    8    0    1
 -2       295       296       469      1724      2174      2175
 -1       759    8    0    1
 -2       444       295       469      2120      2175      2176
 -1       760    8    0    1
 -2       180       321       181      1794      2177      1328
 -1       761    8    0    1
 -2       296       446       469      2127      2178      2174
 -1       762    8    0    1
 -2       335       181       321      1795      2177      2179
 -1       763    8    0    1
 -2       441       291       442      2113      2116      2180
 -1       764    8    0    1
 -2       293       443       440      2119      2181      2111
 -1       765    8    0    1
 -2       439       289       290      2108      1657      2182
 -1       766    8    0    1
 -2       319       441       468      2114      2183      2172
 -1       767    8    0    1
 -2       443       294       444      2118      2121      2184
 -1       768    8    0    1
 -2       467       318       468      2170      2173      2185
 -1       769    8    0    1
 -2       466       317       467      2168      2171      2186
 -1       770    8    0    1
 -2       465       316       466      2166      2169      2187
 -1       771    8    0    1
 -2       464       315       465      2164      2167      2188
 -1       772    8    0    1
 -2       463       314       464      2162      2165      2189
 -1       773    8    0    1
 -2       462       313       463      2160      2163      2190
 -1       774    8    0    1
 -2       460       311       461      2155      2159      2191
 -1       775    8    0    1
 -2       458       309       459      2151      2154      2192
 -1       776    8    0    1
 -2       456       307       457      2146      2150      2193
 -1       777    8    0    1
 -2       454       305       470      2142      2194      2195
 -1       778    8    0    1
 -2       305       455       470      2145      2196      2194
 -1       779    8    0    1
 -2       453       304       454      2140      2143      2197
 -1       780    8    0    1
 -2       452       303       453      2138      2141      2198
 -1       781    8    0    1
 -2       451       302       452      2136      2139      2199
 -1       782    8    0    1
 -2       450       301       451      2134      2137      2200
 -1       783    8    0    1
 -2       449       300       450      2132      2135      2201
 -1       784    8    0    1
 -2       448       299       449      2130      2133      2202
 -1       785    8    0    1
 -2       446       297       447      2126      2129      2203
 -1       786    8    0    1
 -2       447       298       448      2128      2131      2204
 -1       787    8    0    1
 -2       457       308       458      2149      2152      2205
 -1       788    8    0    1
 -2       461       312       462      2158      2161      2206
 -1       789    8    0    1
 -2       334       381       471      1935      2207      2208
 -1       790    8    0    1
 -2       323       324       472      1761      2209      2210
 -1       791    8    0    1
 -2       322       323       473      1758      2211      2212
 -1       792    8    0    1
 -2       323       472       473      2210      2213      2211
 -1       793    8    0    1
 -2       325       326       474      1767      2214      2215
 -1       794    8    0    1
 -2       326       327       475      1770      2216      2217
 -1       795    8    0    1
 -2       326       475       474      2217      2218      2214
 -1       796    8    0    1
 -2       327       328       476      1773      2219      2220
 -1       797    8    0    1
 -2       327       476       475      2220      2221      2216
 -1       798    8    0    1
 -2       328       329       477      1776      2222      2223
 -1       799    8    0    1
 -2       328       477       476      2223      2224      2219
 -1       800    8    0    1
 -2       329       330       478      1779      2225      2226
 -1       801    8    0    1
 -2       329       478       477      2226      2227      2222
 -1       802    8    0    1
 -2       330       331       479      1782      2228      2229
 -1       803    8    0    1
 -2       330       479       478      2229      2230      2225
 -1       804    8    0    1
 -2       381       382       480      1938      2231      2232
 -1       805    8    0    1
 -2       381       480       471      2232      2233      2207
 -1       806    8    0    1
 -2       336       335       481      1799      2234      2235
 -1       807    8    0    1
 -2       469       446       482      2178      2236      2237
 -1       808    8    0    1
 -2       337       336       483      1802      2238      2239
 -1       809    8    0    1
 -2       336       481       483      2235      2240      2238
 -1       810    8    0    1
 -2       338       337       484      1805      2241      2242
 -1       811    8    0    1
 -2       337       483       484      2239      2243      2241
 -1       812    8    0    1
 -2       339       338       485      1808      2244      2245
 -1       813    8    0    1
 -2       338       484       485      2242      2246      2244
 -1       814    8    0    1
 -2       340       339       486      1811      2247      2248
 -1       815    8    0    1
 -2       339       485       486      2245      2249      2247
 -1       816    8    0    1
 -2       341       340       487      1814      2250      2251
 -1       817    8    0    1
 -2       340       486       487      2248      2252      2250
 -1       818    8    0    1
 -2       342       341       488      1817      2253      2254
 -1       819    8    0    1
 -2       341       487       488      2251      2255      2253
 -1       820    8    0    1
 -2       343       342       489      1820      2256      2257
 -1       821    8    0    1
 -2       342       488       489      2254      2258      2256
 -1       822    8    0    1
 -2       344       343       490      1823      2259      2260
 -1       823    8    0    1
 -2       343       489       490      2257      2261      2259
 -1       824    8    0    1
 -2       345       344       491      1826      2262      2263
 -1       825    8    0    1
 -2       344       490       491      2260      2264      2262
 -1       826    8    0    1
 -2       346       345       492      1829      2265      2266
 -1       827    8    0    1
 -2       345       491       492      2263      2267      2265
 -1       828    8    0    1
 -2       347       346       493      1832      2268      2269
 -1       829    8    0    1
 -2       346       492       493      2266      2270      2268
 -1       830    8    0    1
 -2       348       347       494      1835      2271      2272
 -1       831    8    0    1
 -2       347       493       494      2269      2273      2271
 -1       832    8    0    1
 -2       349       348       495      1838      2274      2275
 -1       833    8    0    1
 -2       348       494       495      2272      2276      2274
 -1       834    8    0    1
 -2       350       349       496      1841      2277      2278
 -1       835    8    0    1
 -2       349       495       496      2275      2279      2277
 -1       836    8    0    1
 -2       351       350       497      1844      2280      2281
 -1       837    8    0    1
 -2       350       496       497      2278      2282      2280
 -1       838    8    0    1
 -2       352       351       498      1847      2283      2284
 -1       839    8    0    1
 -2       351       497       498      2281      2285      2283
 -1       840    8    0    1
 -2       353       352       499      1850      2286      2287
 -1       841    8    0    1
 -2       352       498       499      2284      2288      2286
 -1       842    8    0    1
 -2       354       353       500      1853      2289      2290
 -1       843    8    0    1
 -2       353       499       500      2287      2291      2289
 -1       844    8    0    1
 -2       355       354       501      1856      2292      2293
 -1       845    8    0    1
 -2       354       500       501      2290      2294      2292
 -1       846    8    0    1
 -2       356       355       502      1859      2295      2296
 -1       847    8    0    1
 -2       355       501       502      2293      2297      2295
 -1       848    8    0    1
 -2       357       356       503      1862      2298      2299
 -1       849    8    0    1
 -2       356       502       503      2296      2300      2298
 -1       850    8    0    1
 -2       358       357       504      1865      2301      2302
 -1       851    8    0    1
 -2       357       503       504      2299      2303      2301
 -1       852    8    0    1
 -2       359       358       505      1868      2304      2305
 -1       853    8    0    1
 -2       358       504       505      2302      2306      2304
 -1       854    8    0    1
 -2       360       359       506      1871      2307      2308
 -1       855    8    0    1
 -2       359       505       506      2305      2309      2307
 -1       856    8    0    1
 -2       361       360       507      1874      2310      2311
 -1       857    8    0    1
 -2       360       506       507      2308      2312      2310
 -1       858    8    0    1
 -2       362       361       508      1877      2313      2314
 -1       859    8    0    1
 -2       361       507       508      2311      2315      2313
 -1       860    8    0    1
 -2       363       362       509      1880      2316      2317
 -1       861    8    0    1
 -2       362       508       509      2314      2318      2316
 -1       862    8    0    1
 -2       364       363       510      1883      2319      2320
 -1       863    8    0    1
 -2       363       509       510      2317      2321      2319
 -1       864    8    0    1
 -2       365       364       511      1886      2322      2323
 -1       865    8    0    1
 -2       364       510       511      2320      2324      2322
 -1       866    8    0    1
 -2       366       365       512      1889      2325      2326
 -1       867    8    0    1
 -2       365       511       512      2323      2327      2325
 -1       868    8    0    1
 -2       367       366       513      1892      2328      2329
 -1       869    8    0    1
 -2       366       512       513      2326      2330      2328
 -1       870    8    0    1
 -2       368       367       514      1895      2331      2332
 -1       871    8    0    1
 -2       367       513       514      2329      2333      2331
 -1       872    8    0    1
 -2       369       368       515      1898      2334      2335
 -1       873    8    0    1
 -2       368       514       515      2332      2336      2334
 -1       874    8    0    1
 -2       370       369       516      1901      2337      2338
 -1       875    8    0    1
 -2       369       515       516      2335      2339      2337
 -1       876    8    0    1
 -2       371       370       517      1904      2340      2341
 -1       877    8    0    1
 -2       370       516       517      2338      2342      2340
 -1       878    8    0    1
 -2       372       371       518      1907      2343      2344
 -1       879    8    0    1
 -2       371       517       518      2341      2345      2343
 -1       880    8    0    1
 -2       373       372       519      1910      2346      2347
 -1       881    8    0    1
 -2       372       518       519      2344      2348      2346
 -1       882    8    0    1
 -2       374       373       520      1913      2349      2350
 -1       883    8    0    1
 -2       373       519       520      2347      2351      2349
 -1       884    8    0    1
 -2       375       374       521      1916      2352      2353
 -1       885    8    0    1
 -2       374       520       521      2350      2354      2352
 -1       886    8    0    1
 -2       376       375       522      1919      2355      2356
 -1       887    8    0    1
 -2       375       521       522      2353      2357      2355
 -1       888    8    0    1
 -2       377       376       523      1922      2358      2359
 -1       889    8    0    1
 -2       376       522       523      2356      2360      2358
 -1       890    8    0    1
 -2       378       377       524      1925      2361      2362
 -1       891    8    0    1
 -2       377       523       524      2359      2363      2361
 -1       892    8    0    1
 -2       379       378       525      1928      2364      2365
 -1       893    8    0    1
 -2       378       524       525      2362      2366      2364
 -1       894    8    0    1
 -2       442       440       526      2117      2367      2368
 -1       895    8    0    1
 -2       383       384       527      1944      2369      2370
 -1       896    8    0    1
 -2       384       385       528      1947      2371      2372
 -1       897    8    0    1
 -2       384       528       527      2372      2373      2369
 -1       898    8    0    1
 -2       385       386       529      1950      2374      2375
 -1       899    8    0    1
 -2       385       529       528      2375      2376      2371
 -1       900    8    0    1
 -2       386       387       530      1953      2377      2378
 -1       901    8    0    1
 -2       386       530       529      2378      2379      2374
 -1       902    8    0    1
 -2       387       388       531      1956      2380      2381
 -1       903    8    0    1
 -2       387       531       530      2381      2382      2377
 -1       904    8    0    1
 -2       388       389       532      1959      2383      2384
 -1       905    8    0    1
 -2       388       532       531      2384      2385      2380
 -1       906    8    0    1
 -2       389       390       533      1962      2386      2387
 -1       907    8    0    1
 -2       389       533       532      2387      2388      2383
 -1       908    8    0    1
 -2       390       391       534      1965      2389      2390
 -1       909    8    0    1
 -2       390       534       533      2390      2391      2386
 -1       910    8    0    1
 -2       391       392       535      1968      2392      2393
 -1       911    8    0    1
 -2       391       535       534      2393      2394      2389
 -1       912    8    0    1
 -2       392       393       536      1971      2395      2396
 -1       913    8    0    1
 -2       392       536       535      2396      2397      2392
 -1       914    8    0    1
 -2       393       394       537      1974      2398      2399
 -1       915    8    0    1
 -2       393       537       536      2399      2400      2395
 -1       916    8    0    1
 -2       394       395       538      1977      2401      2402
 -1       917    8    0    1
 -2       394       538       537      2402      2403      2398
 -1       918    8    0    1
 -2       395       396       539      1980      2404      2405
 -1       919    8    0    1
 -2       395       539       538      2405      2406      2401
 -1       920    8    0    1
 -2       396       397       540      1983      2407      2408
 -1       921    8    0    1
 -2       396       540       539      2408      2409      2404
 -1       922    8    0    1
 -2       397       398       541      1986      2410      2411
 -1       923    8    0    1
 -2       397       541       540      2411      2412      2407
 -1       924    8    0    1
 -2       398       399       542      1989      2413      2414
 -1       925    8    0    1
 -2       398       542       541      2414      2415      2410
 -1       926    8    0    1
 -2       399       400       543      1992      2416      2417
 -1       927    8    0    1
 -2       399       543       542      2417      2418      2413
 -1       928    8    0    1
 -2       400       401       544      1995      2419      2420
 -1       929    8    0    1
 -2       400       544       543      2420      2421      2416
 -1       930    8    0    1
 -2       401       402       545      1998      2422      2423
 -1       931    8    0    1
 -2       401       545       544      2423      2424      2419
 -1       932    8    0    1
 -2       402       403       546      2001      2425      2426
 -1       933    8    0    1
 -2       402       546       545      2426      2427      2422
 -1       934    8    0    1
 -2       403       404       547      2004      2428      2429
 -1       935    8    0    1
 -2       403       547       546      2429      2430      2425
 -1       936    8    0    1
 -2       404       405       548      2007      2431      2432
 -1       937    8    0    1
 -2       404       548       547      2432      2433      2428
 -1       938    8    0    1
 -2       405       406       549      2010      2434      2435
 -1       939    8    0    1
 -2       405       549       548      2435      2436      2431
 -1       940    8    0    1
 -2       406       407       550      2013      2437      2438
 -1       941    8    0    1
 -2       406       550       549      2438      2439      2434
 -1       942    8    0    1
 -2       407       408       551      2016      2440      2441
 -1       943    8    0    1
 -2       407       551       550      2441      2442      2437
 -1       944    8    0    1
 -2       408       409       552      2019      2443      2444
 -1       945    8    0    1
 -2       408       552       551      2444      2445      2440
 -1       946    8    0    1
 -2       409       410       553      2022      2446      2447
 -1       947    8    0    1
 -2       409       553       552      2447      2448      2443
 -1       948    8    0    1
 -2       410       411       554      2025      2449      2450
 -1       949    8    0    1
 -2       410       554       553      2450      2451      2446
 -1       950    8    0    1
 -2       411       412       555      2028      2452      2453
 -1       951    8    0    1
 -2       411       555       554      2453      2454      2449
 -1       952    8    0    1
 -2       412       413       556      2031      2455      2456
 -1       953    8    0    1
 -2       412       556       555      2456      2457      2452
 -1       954    8    0    1
 -2       413       414       557      2034      2458      2459
 -1       955    8    0    1
 -2       413       557       556      2459      2460      2455
 -1       956    8    0    1
 -2       414       415       558      2037      2461      2462
 -1       957    8    0    1
 -2       414       558       557      2462      2463      2458
 -1       958    8    0    1
 -2       415       416       559      2040      2464      2465
 -1       959    8    0    1
 -2       415       559       558      2465      2466      2461
 -1       960    8    0    1
 -2       416       417       560      2043      2467      2468
 -1       961    8    0    1
 -2       416       560       559      2468      2469      2464
 -1       962    8    0    1
 -2       417       418       561      2046      2470      2471
 -1       963    8    0    1
 -2       417       561       560      2471      2472      2467
 -1       964    8    0    1
 -2       418       419       562      2049      2473      2474
 -1       965    8    0    1
 -2       418       562       561      2474      2475      2470
 -1       966    8    0    1
 -2       419       420       563      2052      2476      2477
 -1       967    8    0    1
 -2       419       563       562      2477      2478      2473
 -1       968    8    0    1
 -2       420       421       564      2055      2479      2480
 -1       969    8    0    1
 -2       420       564       563      2480      2481      2476
 -1       970    8    0    1
 -2       421       422       565      2058      2482      2483
 -1       971    8    0    1
 -2       421       565       564      2483      2484      2479
 -1       972    8    0    1
 -2       422       423       566      2061      2485      2486
 -1       973    8    0    1
 -2       422       566       565      2486      2487      2482
 -1       974    8    0    1
 -2       423       424       567      2064      2488      2489
 -1       975    8    0    1
 -2       423       567       566      2489      2490      2485
 -1       976    8    0    1
 -2       424       425       568      2067      2491      2492
 -1       977    8    0    1
 -2       424       568       567      2492      2493      2488
 -1       978    8    0    1
 -2       425       426       429      2070      2079      2494
 -1       979    8    0    1
 -2       430       431       569      2086      2495      2496
 -1       980    8    0    1
 -2       431       432       570      2089      2497      2498
 -1       981    8    0    1
 -2       431       570       569      2498      2499      2495
 -1       982    8    0    1
 -2       428       427       571      2076      2500      2501
 -1       983    8    0    1
 -2       427       430       572      2083      2502      2503
 -1       984    8    0    1
 -2       571       427       572      2500      2503      2504
 -1       985    8    0    1
 -2       430       569       572      2496      2505      2502
 -1       986    8    0    1
 -2       432       433       573      2092      2506      2507
 -1       987    8    0    1
 -2       432       573       570      2507      2508      2497
 -1       988    8    0    1
 -2       433       434       574      2095      2509      2510
 -1       989    8    0    1
 -2       433       574       573      2510      2511      2506
 -1       990    8    0    1
 -2       434       435       575      2098      2512      2513
 -1       991    8    0    1
 -2       434       575       574      2513      2514      2509
 -1       992    8    0    1
 -2       435       436       576      2101      2515      2516
 -1       993    8    0    1
 -2       435       576       575      2516      2517      2512
 -1       994    8    0    1
 -2       436       437       577      2104      2518      2519
 -1       995    8    0    1
 -2       436       577       576      2519      2520      2515
 -1       996    8    0    1
 -2       437       438       578      2107      2521      2522
 -1       997    8    0    1
 -2       437       578       577      2522      2523      2518
 -1       998    8    0    1
 -2       438       439       579      2110      2524      2525
 -1       999    8    0    1
 -2       438       579       578      2525      2526      2521
 -1      1000    8    0    1
 -2       439       290       380      2182      1931      2527
 -1      1001    8    0    1
 -2       468       441       580      2183      2528      2529
 -1      1002    8    0    1
 -2       382       383       581      1941      2530      2531
 -1      1003    8    0    1
 -2       383       527       581      2370      2532      2530
 -1      1004    8    0    1
 -2       440       443       582      2181      2533      2534
 -1      1005    8    0    1
 -2       467       468       583      2185      2535      2536
 -1      1006    8    0    1
 -2       468       580       583      2529      2537      2535
 -1      1007    8    0    1
 -2       335       321       584      2179      2538      2539
 -1      1008    8    0    1
 -2       481       335       584      2234      2539      2540
 -1      1009    8    0    1
 -2       321       320       584      1753      2541      2538
 -1      1010    8    0    1
 -2       443       444       585      2184      2542      2543
 -1      1011    8    0    1
 -2       458       459       586      2192      2544      2545
 -1      1012    8    0    1
 -2       324       325       587      1764      2546      2547
 -1      1013    8    0    1
 -2       472       324       587      2209      2547      2548
 -1      1014    8    0    1
 -2       325       474       587      2215      2549      2546
 -1      1015    8    0    1
 -2       447       448       588      2204      2550      2551
 -1      1016    8    0    1
 -2       457       458       589      2205      2552      2553
 -1      1017    8    0    1
 -2       446       447       590      2203      2554      2555
 -1      1018    8    0    1
 -2       447       588       590      2551      2556      2554
 -1      1019    8    0    1
 -2       448       449       591      2202      2557      2558
 -1      1020    8    0    1
 -2       449       450       592      2201      2559      2560
 -1      1021    8    0    1
 -2       450       451       593      2200      2561      2562
 -1      1022    8    0    1
 -2       450       593       592      2562      2563      2559
 -1      1023    8    0    1
 -2       451       452       594      2199      2564      2565
 -1      1024    8    0    1
 -2       452       453       595      2198      2566      2567
 -1      1025    8    0    1
 -2       452       595       594      2567      2568      2564
 -1      1026    8    0    1
 -2       453       454       596      2197      2569      2570
 -1      1027    8    0    1
 -2       455       456       597      2148      2571      2572
 -1      1028    8    0    1
 -2       461       462       598      2206      2573      2574
 -1      1029    8    0    1
 -2       456       457       599      2193      2575      2576
 -1      1030    8    0    1
 -2       457       589       599      2553      2577      2575
 -1      1031    8    0    1
 -2       459       460       600      2157      2578      2579
 -1      1032    8    0    1
 -2       460       461       601      2191      2580      2581
 -1      1033    8    0    1
 -2       462       463       602      2190      2582      2583
 -1      1034    8    0    1
 -2       462       602       598      2583      2584      2573
 -1      1035    8    0    1
 -2       463       464       603      2189      2585      2586
 -1      1036    8    0    1
 -2       464       465       604      2188      2587      2588
 -1      1037    8    0    1
 -2       465       466       605      2187      2589      2590
 -1      1038    8    0    1
 -2       466       467       606      2186      2591      2592
 -1      1039    8    0    1
 -2       441       442       607      2180      2593      2594
 -1      1040    8    0    1
 -2       333       334       608      1793      2595      2596
 -1      1041    8    0    1
 -2       332       333       608      1788      2596      2597
 -1      1042    8    0    1
 -2       334       471       608      2208      2598      2595
 -1      1043    8    0    1
 -2       444       469       609      2176      2599      2600
 -1      1044    8    0    1
 -2       322       473       610      2212      2601      2602
 -1      1045    8    0    1
 -2       322       610       445      2602      2603      2125
 -1      1046    8    0    1
 -2       480       382       581      2231      2531      2604
 -1      1047    8    0    1
 -2       331       332       608      1785      2597      2605
 -1      1048    8    0    1
 -2       609       469       482      2599      2237      2606
 -1      1049    8    0    1
 -2       585       444       609      2542      2600      2607
 -1      1050    8    0    1
 -2       526       440       582      2367      2534      2608
 -1      1051    8    0    1
 -2       425       429       568      2494      2609      2491
 -1      1052    8    0    1
 -2       429       428       568      2080      2610      2609
 -1      1053    8    0    1
 -2       439       380       611      2527      2611      2612
 -1      1054    8    0    1
 -2       579       439       611      2524      2612      2613
 -1      1055    8    0    1
 -2       380       379       611      1932      2614      2611
 -1      1056    8    0    1
 -2       607       442       526      2593      2368      2615
 -1      1057    8    0    1
 -2       606       467       583      2591      2536      2616
 -1      1058    8    0    1
 -2       580       441       612      2528      2617      2618
 -1      1059    8    0    1
 -2       441       607       612      2594      2619      2617
 -1      1060    8    0    1
 -2       331       608       479      2605      2620      2228
 -1      1061    8    0    1
 -2       582       443       585      2533      2543      2621
 -1      1062    8    0    1
 -2       605       466       606      2589      2592      2622
 -1      1063    8    0    1
 -2       604       465       605      2587      2590      2623
 -1      1064    8    0    1
 -2       584       320       445      2541      2124      2624
 -1      1065    8    0    1
 -2       586       459       600      2544      2579      2625
 -1      1066    8    0    1
 -2       458       586       589      2545      2626      2552
 -1      1067    8    0    1
 -2       602       463       603      2582      2586      2627
 -1      1068    8    0    1
 -2       601       461       613      2580      2628      2629
 -1      1069    8    0    1
 -2       461       598       613      2574      2630      2628
 -1      1070    8    0    1
 -2       597       456       599      2571      2576      2631
 -1      1071    8    0    1
 -2       595       453       596      2566      2570      2632
 -1      1072    8    0    1
 -2       593       451       594      2561      2565      2633
 -1      1073    8    0    1
 -2       470       455       597      2196      2572      2634
 -1      1074    8    0    1
 -2       454       470       596      2195      2635      2569
 -1      1075    8    0    1
 -2       482       446       590      2236      2555      2636
 -1      1076    8    0    1
 -2       591       449       592      2557      2560      2637
 -1      1077    8    0    1
 -2       600       460       601      2578      2581      2638
 -1      1078    8    0    1
 -2       603       464       604      2585      2588      2639
 -1      1079    8    0    1
 -2       568       428       571      2610      2501      2640
 -1      1080    8    0    1
 -2       611       379       525      2614      2365      2641
 -1      1081    8    0    1
 -2       448       591       614      2558      2642      2643
 -1      1082    8    0    1
 -2       475       476       615      2221      2644      2645
 -1      1083    8    0    1
 -2       474       475       616      2218      2646      2647
 -1      1084    8    0    1
 -2       475       615       616      2645      2648      2646
 -1      1085    8    0    1
 -2       477       478       617      2227      2649      2650
 -1      1086    8    0    1
 -2       478       479       618      2230      2651      2652
 -1      1087    8    0    1
 -2       478       618       617      2652      2653      2649
 -1      1088    8    0    1
 -2       471       480       619      2233      2654      2655
 -1      1089    8    0    1
 -2       582       585       620      2621      2656      2657
 -1      1090    8    0    1
 -2       480       581       621      2604      2658      2659
 -1      1091    8    0    1
 -2       480       621       619      2659      2660      2654
 -1      1092    8    0    1
 -2       585       609       622      2607      2661      2662
 -1      1093    8    0    1
 -2       585       622       620      2662      2663      2656
 -1      1094    8    0    1
 -2       448       614       588      2643      2664      2550
 -1      1095    8    0    1
 -2       481       584       623      2540      2665      2666
 -1      1096    8    0    1
 -2       484       483       624      2243      2667      2668
 -1      1097    8    0    1
 -2       485       484       625      2246      2669      2670
 -1      1098    8    0    1
 -2       484       624       625      2668      2671      2669
 -1      1099    8    0    1
 -2       486       485       626      2249      2672      2673
 -1      1100    8    0    1
 -2       485       625       626      2670      2674      2672
 -1      1101    8    0    1
 -2       487       486       627      2252      2675      2676
 -1      1102    8    0    1
 -2       486       626       627      2673      2677      2675
 -1      1103    8    0    1
 -2       488       487       628      2255      2678      2679
 -1      1104    8    0    1
 -2       487       627       628      2676      2680      2678
 -1      1105    8    0    1
 -2       489       488       629      2258      2681      2682
 -1      1106    8    0    1
 -2       488       628       629      2679      2683      2681
 -1      1107    8    0    1
 -2       490       489       630      2261      2684      2685
 -1      1108    8    0    1
 -2       489       629       630      2682      2686      2684
 -1      1109    8    0    1
 -2       491       490       631      2264      2687      2688
 -1      1110    8    0    1
 -2       490       630       631      2685      2689      2687
 -1      1111    8    0    1
 -2       492       491       632      2267      2690      2691
 -1      1112    8    0    1
 -2       491       631       632      2688      2692      2690
 -1      1113    8    0    1
 -2       493       492       633      2270      2693      2694
 -1      1114    8    0    1
 -2       492       632       633      2691      2695      2693
 -1      1115    8    0    1
 -2       494       493       634      2273      2696      2697
 -1      1116    8    0    1
 -2       493       633       634      2694      2698      2696
 -1      1117    8    0    1
 -2       495       494       635      2276      2699      2700
 -1      1118    8    0    1
 -2       494       634       635      2697      2701      2699
 -1      1119    8    0    1
 -2       496       495       636      2279      2702      2703
 -1      1120    8    0    1
 -2       495       635       636      2700      2704      2702
 -1      1121    8    0    1
 -2       497       496       637      2282      2705      2706
 -1      1122    8    0    1
 -2       496       636       637      2703      2707      2705
 -1      1123    8    0    1
 -2       498       497       638      2285      2708      2709
 -1      1124    8    0    1
 -2       497       637       638      2706      2710      2708
 -1      1125    8    0    1
 -2       499       498       639      2288      2711      2712
 -1      1126    8    0    1
 -2       498       638       639      2709      2713      2711
 -1      1127    8    0    1
 -2       500       499       640      2291      2714      2715
 -1      1128    8    0    1
 -2       499       639       640      2712      2716      2714
 -1      1129    8    0    1
 -2       501       500       641      2294      2717      2718
 -1      1130    8    0    1
 -2       500       640       641      2715      2719      2717
 -1      1131    8    0    1
 -2       502       501       642      2297      2720      2721
 -1      1132    8    0    1
 -2       501       641       642      2718      2722      2720
 -1      1133    8    0    1
 -2       503       502       643      2300      2723      2724
 -1      1134    8    0    1
 -2       502       642       643      2721      2725      2723
 -1      1135    8    0    1
 -2       504       503       644      2303      2726      2727
 -1      1136    8    0    1
 -2       503       643       644      2724      2728      2726
 -1      1137    8    0    1
 -2       505       504       645      2306      2729      2730
 -1      1138    8    0    1
 -2       504       644       645      2727      2731      2729
 -1      1139    8    0    1
 -2       506       505       646      2309      2732      2733
 -1      1140    8    0    1
 -2       505       645       646      2730      2734      2732
 -1      1141    8    0    1
 -2       507       506       647      2312      2735      2736
 -1      1142    8    0    1
 -2       506       646       647      2733      2737      2735
 -1      1143    8    0    1
 -2       508       507       648      2315      2738      2739
 -1      1144    8    0    1
 -2       507       647       648      2736      2740      2738
 -1      1145    8    0    1
 -2       509       508       649      2318      2741      2742
 -1      1146    8    0    1
 -2       508       648       649      2739      2743      2741
 -1      1147    8    0    1
 -2       510       509       650      2321      2744      2745
 -1      1148    8    0    1
 -2       509       649       650      2742      2746      2744
 -1      1149    8    0    1
 -2       511       510       651      2324      2747      2748
 -1      1150    8    0    1
 -2       510       650       651      2745      2749      2747
 -1      1151    8    0    1
 -2       512       511       652      2327      2750      2751
 -1      1152    8    0    1
 -2       511       651       652      2748      2752      2750
 -1      1153    8    0    1
 -2       513       512       653      2330      2753      2754
 -1      1154    8    0    1
 -2       512       652       653      2751      2755      2753
 -1      1155    8    0    1
 -2       514       513       654      2333      2756      2757
 -1      1156    8    0    1
 -2       513       653       654      2754      2758      2756
 -1      1157    8    0    1
 -2       515       514       655      2336      2759      2760
 -1      1158    8    0    1
 -2       514       654       655      2757      2761      2759
 -1      1159    8    0    1
 -2       516       515       656      2339      2762      2763
 -1      1160    8    0    1
 -2       515       655       656      2760      2764      2762
 -1      1161    8    0    1
 -2       517       516       657      2342      2765      2766
 -1      1162    8    0    1
 -2       516       656       657      2763      2767      2765
 -1      1163    8    0    1
 -2       518       517       658      2345      2768      2769
 -1      1164    8    0    1
 -2       517       657       658      2766      2770      2768
 -1      1165    8    0    1
 -2       519       518       659      2348      2771      2772
 -1      1166    8    0    1
 -2       518       658       659      2769      2773      2771
 -1      1167    8    0    1
 -2       520       519       660      2351      2774      2775
 -1      1168    8    0    1
 -2       519       659       660      2772      2776      2774
 -1      1169    8    0    1
 -2       521       520       661      2354      2777      2778
 -1      1170    8    0    1
 -2       520       660       661      2775      2779      2777
 -1      1171    8    0    1
 -2       522       521       662      2357      2780      2781
 -1      1172    8    0    1
 -2       521       661       662      2778      2782      2780
 -1      1173    8    0    1
 -2       523       522       663      2360      2783      2784
 -1      1174    8    0    1
 -2       522       662       663      2781      2785      2783
 -1      1175    8    0    1
 -2       524       523       664      2363      2786      2787
 -1      1176    8    0    1
 -2       523       663       664      2784      2788      2786
 -1      1177    8    0    1
 -2       525       524       665      2366      2789      2790
 -1      1178    8    0    1
 -2       524       664       665      2787      2791      2789
 -1      1179    8    0    1
 -2       607       526       666      2615      2792      2793
 -1      1180    8    0    1
 -2       579       611       667      2613      2794      2795
 -1      1181    8    0    1
 -2       611       525       667      2641      2796      2794
 -1      1182    8    0    1
 -2       527       528       668      2373      2797      2798
 -1      1183    8    0    1
 -2       530       531       669      2382      2799      2800
 -1      1184    8    0    1
 -2       531       532       670      2385      2801      2802
 -1      1185    8    0    1
 -2       531       670       669      2802      2803      2799
 -1      1186    8    0    1
 -2       532       533       671      2388      2804      2805
 -1      1187    8    0    1
 -2       532       671       670      2805      2806      2801
 -1      1188    8    0    1
 -2       533       534       672      2391      2807      2808
 -1      1189    8    0    1
 -2       533       672       671      2808      2809      2804
 -1      1190    8    0    1
 -2       534       535       673      2394      2810      2811
 -1      1191    8    0    1
 -2       534       673       672      2811      2812      2807
 -1      1192    8    0    1
 -2       535       536       674      2397      2813      2814
 -1      1193    8    0    1
 -2       535       674       673      2814      2815      2810
 -1      1194    8    0    1
 -2       536       537       675      2400      2816      2817
 -1      1195    8    0    1
 -2       536       675       674      2817      2818      2813
 -1      1196    8    0    1
 -2       537       538       676      2403      2819      2820
 -1      1197    8    0    1
 -2       537       676       675      2820      2821      2816
 -1      1198    8    0    1
 -2       538       539       677      2406      2822      2823
 -1      1199    8    0    1
 -2       538       677       676      2823      2824      2819
 -1      1200    8    0    1
 -2       539       540       678      2409      2825      2826
 -1      1201    8    0    1
 -2       539       678       677      2826      2827      2822
 -1      1202    8    0    1
 -2       540       541       679      2412      2828      2829
 -1      1203    8    0    1
 -2       540       679       678      2829      2830      2825
 -1      1204    8    0    1
 -2       541       542       680      2415      2831      2832
 -1      1205    8    0    1
 -2       541       680       679      2832      2833      2828
 -1      1206    8    0    1
 -2       542       543       681      2418      2834      2835
 -1      1207    8    0    1
 -2       542       681       680      2835      2836      2831
 -1      1208    8    0    1
 -2       543       544       682      2421      2837      2838
 -1      1209    8    0    1
 -2       543       682       681      2838      2839      2834
 -1      1210    8    0    1
 -2       544       545       683      2424      2840      2841
 -1      1211    8    0    1
 -2       544       683       682      2841      2842      2837
 -1      1212    8    0    1
 -2       545       546       684      2427      2843      2844
 -1      1213    8    0    1
 -2       545       684       683      2844      2845      2840
 -1      1214    8    0    1
 -2       548       549       614      2436      2846      2847
 -1      1215    8    0    1
 -2       549       550       590      2439      2848      2849
 -1      1216    8    0    1
 -2       550       551       482      2442      2850      2851
 -1      1217    8    0    1
 -2       551       552       622      2445      2852      2853
 -1      1218    8    0    1
 -2       553       554       685      2451      2854      2855
 -1      1219    8    0    1
 -2       554       555       686      2454      2856      2857
 -1      1220    8    0    1
 -2       554       686       685      2857      2858      2854
 -1      1221    8    0    1
 -2       555       556       687      2457      2859      2860
 -1      1222    8    0    1
 -2       555       687       686      2860      2861      2856
 -1      1223    8    0    1
 -2       556       557       688      2460      2862      2863
 -1      1224    8    0    1
 -2       556       688       687      2863      2864      2859
 -1      1225    8    0    1
 -2       557       558       689      2463      2865      2866
 -1      1226    8    0    1
 -2       557       689       688      2866      2867      2862
 -1      1227    8    0    1
 -2       558       559       690      2466      2868      2869
 -1      1228    8    0    1
 -2       558       690       689      2869      2870      2865
 -1      1229    8    0    1
 -2       559       560       691      2469      2871      2872
 -1      1230    8    0    1
 -2       559       691       690      2872      2873      2868
 -1      1231    8    0    1
 -2       560       561       692      2472      2874      2875
 -1      1232    8    0    1
 -2       560       692       691      2875      2876      2871
 -1      1233    8    0    1
 -2       561       562       693      2475      2877      2878
 -1      1234    8    0    1
 -2       561       693       692      2878      2879      2874
 -1      1235    8    0    1
 -2       562       563       694      2478      2880      2881
 -1      1236    8    0    1
 -2       562       694       693      2881      2882      2877
 -1      1237    8    0    1
 -2       563       564       695      2481      2883      2884
 -1      1238    8    0    1
 -2       563       695       694      2884      2885      2880
 -1      1239    8    0    1
 -2       564       565       696      2484      2886      2887
 -1      1240    8    0    1
 -2       564       696       695      2887      2888      2883
 -1      1241    8    0    1
 -2       565       566       697      2487      2889      2890
 -1      1242    8    0    1
 -2       565       697       696      2890      2891      2886
 -1      1243    8    0    1
 -2       566       567       698      2490      2892      2893
 -1      1244    8    0    1
 -2       566       698       697      2893      2894      2889
 -1      1245    8    0    1
 -2       567       568       699      2493      2895      2896
 -1      1246    8    0    1
 -2       698       567       699      2892      2896      2897
 -1      1247    8    0    1
 -2       568       571       699      2640      2898      2895
 -1      1248    8    0    1
 -2       573       574       700      2511      2899      2900
 -1      1249    8    0    1
 -2       569       570       701      2499      2901      2902
 -1      1250    8    0    1
 -2       574       575       702      2514      2903      2904
 -1      1251    8    0    1
 -2       574       702       700      2904      2905      2899
 -1      1252    8    0    1
 -2       570       573       703      2508      2906      2907
 -1      1253    8    0    1
 -2       701       570       703      2901      2907      2908
 -1      1254    8    0    1
 -2       573       700       703      2900      2909      2906
 -1      1255    8    0    1
 -2       583       580       704      2537      2910      2911
 -1      1256    8    0    1
 -2       608       471       479      2598      2912      2620
 -1      1257    8    0    1
 -2       575       576       705      2517      2913      2914
 -1      1258    8    0    1
 -2       575       705       702      2914      2915      2903
 -1      1259    8    0    1
 -2       576       577       706      2520      2916      2917
 -1      1260    8    0    1
 -2       576       706       705      2917      2918      2913
 -1      1261    8    0    1
 -2       577       578       707      2523      2919      2920
 -1      1262    8    0    1
 -2       577       707       706      2920      2921      2916
 -1      1263    8    0    1
 -2       578       579       667      2526      2795      2922
 -1      1264    8    0    1
 -2       581       527       708      2532      2923      2924
 -1      1265    8    0    1
 -2       621       581       708      2658      2924      2925
 -1      1266    8    0    1
 -2       527       668       708      2798      2926      2923
 -1      1267    8    0    1
 -2       599       589       709      2577      2927      2928
 -1      1268    8    0    1
 -2       590       550       482      2848      2851      2636
 -1      1269    8    0    1
 -2       470       597       710      2634      2929      2930
 -1      1270    8    0    1
 -2       529       530       711      2379      2931      2932
 -1      1271    8    0    1
 -2       530       669       711      2800      2933      2931
 -1      1272    8    0    1
 -2       528       529       712      2376      2934      2935
 -1      1273    8    0    1
 -2       529       711       712      2932      2936      2934
 -1      1274    8    0    1
 -2       483       481       713      2240      2937      2938
 -1      1275    8    0    1
 -2       624       483       713      2667      2938      2939
 -1      1276    8    0    1
 -2       481       623       713      2666      2940      2937
 -1      1277    8    0    1
 -2       602       603       714      2627      2941      2942
 -1      1278    8    0    1
 -2       605       606       715      2622      2943      2944
 -1      1279    8    0    1
 -2       586       600       716      2625      2945      2946
 -1      1280    8    0    1
 -2       476       477       717      2224      2947      2948
 -1      1281    8    0    1
 -2       615       476       717      2644      2948      2949
 -1      1282    8    0    1
 -2       477       617       717      2650      2950      2947
 -1      1283    8    0    1
 -2       473       472       718      2213      2951      2952
 -1      1284    8    0    1
 -2       589       586       719      2626      2953      2954
 -1      1285    8    0    1
 -2       586       716       719      2946      2955      2953
 -1      1286    8    0    1
 -2       591       592       720      2637      2956      2957
 -1      1287    8    0    1
 -2       600       601       721      2638      2958      2959
 -1      1288    8    0    1
 -2       600       721       716      2959      2960      2945
 -1      1289    8    0    1
 -2       592       593       722      2563      2961      2962
 -1      1290    8    0    1
 -2       592       722       720      2962      2963      2956
 -1      1291    8    0    1
 -2       593       594       723      2633      2964      2965
 -1      1292    8    0    1
 -2       594       595       724      2568      2966      2967
 -1      1293    8    0    1
 -2       596       470       725      2635      2968      2969
 -1      1294    8    0    1
 -2       470       710       725      2930      2970      2968
 -1      1295    8    0    1
 -2       597       599       726      2631      2971      2972
 -1      1296    8    0    1
 -2       595       596       727      2632      2973      2974
 -1      1297    8    0    1
 -2       596       725       727      2969      2975      2973
 -1      1298    8    0    1
 -2       603       604       728      2639      2976      2977
 -1      1299    8    0    1
 -2       606       583       729      2616      2978      2979
 -1      1300    8    0    1
 -2       606       729       715      2979      2980      2943
 -1      1301    8    0    1
 -2       526       582       730      2608      2981      2982
 -1      1302    8    0    1
 -2       598       602       731      2584      2983      2984
 -1      1303    8    0    1
 -2       602       714       731      2942      2985      2983
 -1      1304    8    0    1
 -2       584       445       623      2624      2986      2665
 -1      1305    8    0    1
 -2       604       605       732      2623      2987      2988
 -1      1306    8    0    1
 -2       548       614       733      2847      2989      2990
 -1      1307    8    0    1
 -2       547       548       733      2433      2990      2991
 -1      1308    8    0    1
 -2       614       591       733      2642      2992      2989
 -1      1309    8    0    1
 -2       473       718       734      2952      2993      2994
 -1      1310    8    0    1
 -2       473       734       610      2994      2995      2601
 -1      1311    8    0    1
 -2       474       616       735      2647      2996      2997
 -1      1312    8    0    1
 -2       474       735       587      2997      2998      2549
 -1      1313    8    0    1
 -2       582       620       730      2657      2999      2981
 -1      1314    8    0    1
 -2       714       603       728      2941      2977      3000
 -1      1315    8    0    1
 -2       604       732       728      2988      3001      2976
 -1      1316    8    0    1
 -2       607       666       736      2793      3002      3003
 -1      1317    8    0    1
 -2       607       736       612      3003      3004      2619
 -1      1318    8    0    1
 -2       525       665       667      2790      3005      2796
 -1      1319    8    0    1
 -2       666       526       730      2792      2982      3006
 -1      1320    8    0    1
 -2       668       528       712      2797      2935      3007
 -1      1321    8    0    1
 -2       684       546       722      2843      3008      3009
 -1      1322    8    0    1
 -2       546       547       720      2430      3010      3011
 -1      1323    8    0    1
 -2       710       597       737      2929      3012      3013
 -1      1324    8    0    1
 -2       597       726       737      2972      3014      3012
 -1      1325    8    0    1
 -2       552       553       738      2448      3015      3016
 -1      1326    8    0    1
 -2       699       571       739      2898      3017      3018
 -1      1327    8    0    1
 -2       571       572       739      2504      3019      3017
 -1      1328    8    0    1
 -2       704       580       612      2910      2618      3020
 -1      1329    8    0    1
 -2       599       709       726      2928      3021      2971
 -1      1330    8    0    1
 -2       724       595       727      2966      2974      3022
 -1      1331    8    0    1
 -2       479       471       619      2912      2655      3023
 -1      1332    8    0    1
 -2       578       667       740      2922      3024      3025
 -1      1333    8    0    1
 -2       707       578       740      2919      3025      3026
 -1      1334    8    0    1
 -2       667       665       740      3005      3027      3024
 -1      1335    8    0    1
 -2       721       601       741      2958      3028      3029
 -1      1336    8    0    1
 -2       601       613       741      2629      3030      3028
 -1      1337    8    0    1
 -2       729       583       704      2978      2911      3031
 -1      1338    8    0    1
 -2       622       552       738      2852      3016      3032
 -1      1339    8    0    1
 -2       613       598       742      2630      3033      3034
 -1      1340    8    0    1
 -2       598       731       742      2984      3035      3033
 -1      1341    8    0    1
 -2       472       587       743      2548      3036      3037
 -1      1342    8    0    1
 -2       718       472       743      2951      3037      3038
 -1      1343    8    0    1
 -2       587       735       743      2998      3039      3036
 -1      1344    8    0    1
 -2       572       569       744      2505      3040      3041
 -1      1345    8    0    1
 -2       739       572       744      3019      3041      3042
 -1      1346    8    0    1
 -2       569       701       744      2902      3043      3040
 -1      1347    8    0    1
 -2       709       589       719      2927      2954      3044
 -1      1348    8    0    1
 -2       605       715       732      2944      3045      2987
 -1      1349    8    0    1
 -2       593       723       722      2965      3046      2961
 -1      1350    8    0    1
 -2       723       594       724      2964      2967      3047
 -1      1351    8    0    1
 -2       479       619       618      3023      3048      2651
 -1      1352    8    0    1
 -2       623       445       610      2986      2603      3049
 -1      1353    8    0    1
 -2       722       546       720      3008      3011      2963
 -1      1354    8    0    1
 -2       738       553       685      3015      2855      3050
 -1      1355    8    0    1
 -2       617       618       745      2653      3051      3052
 -1      1356    8    0    1
 -2       620       622       738      2663      3032      3053
 -1      1357    8    0    1
 -2       626       625       746      2674      3054      3055
 -1      1358    8    0    1
 -2       627       626       747      2677      3056      3057
 -1      1359    8    0    1
 -2       626       746       747      3055      3058      3056
 -1      1360    8    0    1
 -2       628       627       748      2680      3059      3060
 -1      1361    8    0    1
 -2       627       747       748      3057      3061      3059
 -1      1362    8    0    1
 -2       629       628       749      2683      3062      3063
 -1      1363    8    0    1
 -2       628       748       749      3060      3064      3062
 -1      1364    8    0    1
 -2       630       629       750      2686      3065      3066
 -1      1365    8    0    1
 -2       629       749       750      3063      3067      3065
 -1      1366    8    0    1
 -2       631       630       751      2689      3068      3069
 -1      1367    8    0    1
 -2       630       750       751      3066      3070      3068
 -1      1368    8    0    1
 -2       632       631       752      2692      3071      3072
 -1      1369    8    0    1
 -2       631       751       752      3069      3073      3071
 -1      1370    8    0    1
 -2       633       632       753      2695      3074      3075
 -1      1371    8    0    1
 -2       632       752       753      3072      3076      3074
 -1      1372    8    0    1
 -2       634       633       754      2698      3077      3078
 -1      1373    8    0    1
 -2       633       753       754      3075      3079      3077
 -1      1374    8    0    1
 -2       635       634       755      2701      3080      3081
 -1      1375    8    0    1
 -2       634       754       755      3078      3082      3080
 -1      1376    8    0    1
 -2       636       635       756      2704      3083      3084
 -1      1377    8    0    1
 -2       635       755       756      3081      3085      3083
 -1      1378    8    0    1
 -2       637       636       757      2707      3086      3087
 -1      1379    8    0    1
 -2       636       756       757      3084      3088      3086
 -1      1380    8    0    1
 -2       638       637       758      2710      3089      3090
 -1      1381    8    0    1
 -2       637       757       758      3087      3091      3089
 -1      1382    8    0    1
 -2       639       638       759      2713      3092      3093
 -1      1383    8    0    1
 -2       638       758       759      3090      3094      3092
 -1      1384    8    0    1
 -2       640       639       760      2716      3095      3096
 -1      1385    8    0    1
 -2       639       759       760      3093      3097      3095
 -1      1386    8    0    1
 -2       641       640       761      2719      3098      3099
 -1      1387    8    0    1
 -2       640       760       761      3096      3100      3098
 -1      1388    8    0    1
 -2       642       641       762      2722      3101      3102
 -1      1389    8    0    1
 -2       641       761       762      3099      3103      3101
 -1      1390    8    0    1
 -2       643       642       763      2725      3104      3105
 -1      1391    8    0    1
 -2       642       762       763      3102      3106      3104
 -1      1392    8    0    1
 -2       644       643       764      2728      3107      3108
 -1      1393    8    0    1
 -2       643       763       764      3105      3109      3107
 -1      1394    8    0    1
 -2       645       644       765      2731      3110      3111
 -1      1395    8    0    1
 -2       644       764       765      3108      3112      3110
 -1      1396    8    0    1
 -2       646       645       741      2734      3113      3114
 -1      1397    8    0    1
 -2       647       646       742      2737      3115      3116
 -1      1398    8    0    1
 -2       649       648       766      2743      3117      3118
 -1      1399    8    0    1
 -2       650       649       767      2746      3119      3120
 -1      1400    8    0    1
 -2       649       766       767      3118      3121      3119
 -1      1401    8    0    1
 -2       651       650       768      2749      3122      3123
 -1      1402    8    0    1
 -2       650       767       768      3120      3124      3122
 -1      1403    8    0    1
 -2       652       651       769      2752      3125      3126
 -1      1404    8    0    1
 -2       651       768       769      3123      3127      3125
 -1      1405    8    0    1
 -2       653       652       770      2755      3128      3129
 -1      1406    8    0    1
 -2       652       769       770      3126      3130      3128
 -1      1407    8    0    1
 -2       654       653       771      2758      3131      3132
 -1      1408    8    0    1
 -2       653       770       771      3129      3133      3131
 -1      1409    8    0    1
 -2       655       654       772      2761      3134      3135
 -1      1410    8    0    1
 -2       654       771       772      3132      3136      3134
 -1      1411    8    0    1
 -2       656       655       773      2764      3137      3138
 -1      1412    8    0    1
 -2       655       772       773      3135      3139      3137
 -1      1413    8    0    1
 -2       657       656       774      2767      3140      3141
 -1      1414    8    0    1
 -2       656       773       774      3138      3142      3140
 -1      1415    8    0    1
 -2       658       657       775      2770      3143      3144
 -1      1416    8    0    1
 -2       657       774       775      3141      3145      3143
 -1      1417    8    0    1
 -2       659       658       776      2773      3146      3147
 -1      1418    8    0    1
 -2       658       775       776      3144      3148      3146
 -1      1419    8    0    1
 -2       660       659       777      2776      3149      3150
 -1      1420    8    0    1
 -2       659       776       777      3147      3151      3149
 -1      1421    8    0    1
 -2       661       660       778      2779      3152      3153
 -1      1422    8    0    1
 -2       660       777       778      3150      3154      3152
 -1      1423    8    0    1
 -2       662       661       779      2782      3155      3156
 -1      1424    8    0    1
 -2       661       778       779      3153      3157      3155
 -1      1425    8    0    1
 -2       663       662       780      2785      3158      3159
 -1      1426    8    0    1
 -2       662       779       780      3156      3160      3158
 -1      1427    8    0    1
 -2       664       663       781      2788      3161      3162
 -1      1428    8    0    1
 -2       663       780       781      3159      3163      3161
 -1      1429    8    0    1
 -2       665       664       782      2791      3164      3165
 -1      1430    8    0    1
 -2       740       665       782      3027      3165      3166
 -1      1431    8    0    1
 -2       664       781       782      3162      3167      3164
 -1      1432    8    0    1
 -2       720       547       733      3010      2991      3168
 -1      1433    8    0    1
 -2       684       722       723      3009      3046      3169
 -1      1434    8    0    1
 -2       669       670       783      2803      3170      3171
 -1      1435    8    0    1
 -2       672       673       784      2812      3172      3173
 -1      1436    8    0    1
 -2       673       674       785      2815      3174      3175
 -1      1437    8    0    1
 -2       673       785       784      3175      3176      3172
 -1      1438    8    0    1
 -2       674       675       786      2818      3177      3178
 -1      1439    8    0    1
 -2       674       786       785      3178      3179      3174
 -1      1440    8    0    1
 -2       675       676       787      2821      3180      3181
 -1      1441    8    0    1
 -2       675       787       786      3181      3182      3177
 -1      1442    8    0    1
 -2       676       677       788      2824      3183      3184
 -1      1443    8    0    1
 -2       676       788       787      3184      3185      3180
 -1      1444    8    0    1
 -2       677       678       789      2827      3186      3187
 -1      1445    8    0    1
 -2       677       789       788      3187      3188      3183
 -1      1446    8    0    1
 -2       678       679       790      2830      3189      3190
 -1      1447    8    0    1
 -2       678       790       789      3190      3191      3186
 -1      1448    8    0    1
 -2       679       680       791      2833      3192      3193
 -1      1449    8    0    1
 -2       679       791       790      3193      3194      3189
 -1      1450    8    0    1
 -2       680       681       792      2836      3195      3196
 -1      1451    8    0    1
 -2       680       792       791      3196      3197      3192
 -1      1452    8    0    1
 -2       681       682       793      2839      3198      3199
 -1      1453    8    0    1
 -2       681       793       792      3199      3200      3195
 -1      1454    8    0    1
 -2       682       683       794      2842      3201      3202
 -1      1455    8    0    1
 -2       682       794       793      3202      3203      3198
 -1      1456    8    0    1
 -2       683       684       723      2845      3169      3204
 -1      1457    8    0    1
 -2       549       590       588      2849      2556      3205
 -1      1458    8    0    1
 -2       551       622       609      2853      2661      3206
 -1      1459    8    0    1
 -2       685       686       795      2858      3207      3208
 -1      1460    8    0    1
 -2       688       689       796      2867      3209      3210
 -1      1461    8    0    1
 -2       689       690       797      2870      3211      3212
 -1      1462    8    0    1
 -2       689       797       796      3212      3213      3209
 -1      1463    8    0    1
 -2       690       691       798      2873      3214      3215
 -1      1464    8    0    1
 -2       690       798       797      3215      3216      3211
 -1      1465    8    0    1
 -2       691       692       799      2876      3217      3218
 -1      1466    8    0    1
 -2       691       799       798      3218      3219      3214
 -1      1467    8    0    1
 -2       692       693       800      2879      3220      3221
 -1      1468    8    0    1
 -2       692       800       799      3221      3222      3217
 -1      1469    8    0    1
 -2       693       694       801      2882      3223      3224
 -1      1470    8    0    1
 -2       693       801       800      3224      3225      3220
 -1      1471    8    0    1
 -2       694       695       802      2885      3226      3227
 -1      1472    8    0    1
 -2       694       802       801      3227      3228      3223
 -1      1473    8    0    1
 -2       695       696       803      2888      3229      3230
 -1      1474    8    0    1
 -2       695       803       802      3230      3231      3226
 -1      1475    8    0    1
 -2       696       697       804      2891      3232      3233
 -1      1476    8    0    1
 -2       696       804       803      3233      3234      3229
 -1      1477    8    0    1
 -2       697       698       805      2894      3235      3236
 -1      1478    8    0    1
 -2       697       805       804      3236      3237      3232
 -1      1479    8    0    1
 -2       698       699       806      2897      3238      3239
 -1      1480    8    0    1
 -2       805       698       806      3235      3239      3240
 -1      1481    8    0    1
 -2       699       739       806      3018      3241      3238
 -1      1482    8    0    1
 -2       709       719       807      3044      3242      3243
 -1      1483    8    0    1
 -2       700       702       808      2905      3244      3245
 -1      1484    8    0    1
 -2       704       612       809      3020      3246      3247
 -1      1485    8    0    1
 -2       706       707       810      2921      3248      3249
 -1      1486    8    0    1
 -2       731       714       811      2985      3250      3251
 -1      1487    8    0    1
 -2       727       725       812      2975      3252      3253
 -1      1488    8    0    1
 -2       725       710       813      2970      3254      3255
 -1      1489    8    0    1
 -2       726       709       814      3021      3256      3257
 -1      1490    8    0    1
 -2       709       807       814      3243      3258      3256
 -1      1491    8    0    1
 -2       705       706       815      2918      3259      3260
 -1      1492    8    0    1
 -2       706       810       815      3249      3261      3259
 -1      1493    8    0    1
 -2       687       688       816      2864      3262      3263
 -1      1494    8    0    1
 -2       688       796       816      3210      3264      3262
 -1      1495    8    0    1
 -2       686       687       817      2861      3265      3266
 -1      1496    8    0    1
 -2       795       686       817      3207      3266      3267
 -1      1497    8    0    1
 -2       687       816       817      3263      3268      3265
 -1      1498    8    0    1
 -2       482       551       609      2850      3206      2606
 -1      1499    8    0    1
 -2       738       685       818      3050      3269      3270
 -1      1500    8    0    1
 -2       620       738       818      3053      3270      3271
 -1      1501    8    0    1
 -2       685       795       818      3208      3272      3269
 -1      1502    8    0    1
 -2       729       704       819      3031      3273      3274
 -1      1503    8    0    1
 -2       711       669       820      2933      3275      3276
 -1      1504    8    0    1
 -2       669       783       820      3171      3277      3275
 -1      1505    8    0    1
 -2       671       672       821      2809      3278      3279
 -1      1506    8    0    1
 -2       672       784       821      3173      3280      3278
 -1      1507    8    0    1
 -2       670       671       822      2806      3281      3282
 -1      1508    8    0    1
 -2       783       670       822      3170      3282      3283
 -1      1509    8    0    1
 -2       671       821       822      3279      3284      3281
 -1      1510    8    0    1
 -2       666       730       823      3006      3285      3286
 -1      1511    8    0    1
 -2       625       624       824      2671      3287      3288
 -1      1512    8    0    1
 -2       625       824       746      3288      3289      3054
 -1      1513    8    0    1
 -2       730       620       818      2999      3271      3290
 -1      1514    8    0    1
 -2       712       711       825      2936      3291      3292
 -1      1515    8    0    1
 -2       711       820       825      3276      3293      3291
 -1      1516    8    0    1
 -2       668       712       826      3007      3294      3295
 -1      1517    8    0    1
 -2       712       825       826      3292      3296      3294
 -1      1518    8    0    1
 -2       591       720       733      2957      3168      2992
 -1      1519    8    0    1
 -2       719       716       827      2955      3297      3298
 -1      1520    8    0    1
 -2       732       715       828      3045      3299      3300
 -1      1521    8    0    1
 -2       716       721       829      2960      3301      3302
 -1      1522    8    0    1
 -2       723       724       794      3047      3303      3304
 -1      1523    8    0    1
 -2       618       619       830      3048      3305      3306
 -1      1524    8    0    1
 -2       745       618       830      3051      3306      3307
 -1      1525    8    0    1
 -2       619       621       830      2660      3308      3305
 -1      1526    8    0    1
 -2       728       732       831      3001      3309      3310
 -1      1527    8    0    1
 -2       724       727       832      3022      3311      3312
 -1      1528    8    0    1
 -2       794       724       832      3303      3312      3313
 -1      1529    8    0    1
 -2       727       812       832      3253      3314      3311
 -1      1530    8    0    1
 -2       623       610       734      3049      2995      3315
 -1      1531    8    0    1
 -2       715       729       833      2980      3316      3317
 -1      1532    8    0    1
 -2       714       728       834      3000      3318      3319
 -1      1533    8    0    1
 -2       616       615       835      2648      3320      3321
 -1      1534    8    0    1
 -2       683       723       794      3204      3304      3201
 -1      1535    8    0    1
 -2       702       705       836      2915      3322      3323
 -1      1536    8    0    1
 -2       808       702       836      3244      3323      3324
 -1      1537    8    0    1
 -2       705       815       836      3260      3325      3322
 -1      1538    8    0    1
 -2       735       616       837      2996      3326      3327
 -1      1539    8    0    1
 -2       616       835       837      3321      3328      3326
 -1      1540    8    0    1
 -2       707       740       838      3026      3329      3330
 -1      1541    8    0    1
 -2       810       707       838      3248      3330      3331
 -1      1542    8    0    1
 -2       740       782       838      3166      3332      3329
 -1      1543    8    0    1
 -2       819       704       839      3273      3333      3334
 -1      1544    8    0    1
 -2       704       809       839      3247      3335      3333
 -1      1545    8    0    1
 -2       730       818       823      3290      3336      3285
 -1      1546    8    0    1
 -2       729       819       833      3274      3337      3316
 -1      1547    8    0    1
 -2       736       666       840      3002      3338      3339
 -1      1548    8    0    1
 -2       666       823       840      3286      3340      3338
 -1      1549    8    0    1
 -2       737       726       841      3014      3341      3342
 -1      1550    8    0    1
 -2       726       814       841      3257      3343      3341
 -1      1551    8    0    1
 -2       645       765       741      3111      3344      3113
 -1      1552    8    0    1
 -2       648       647       842      2740      3345      3346
 -1      1553    8    0    1
 -2       827       716       829      3297      3302      3347
 -1      1554    8    0    1
 -2       621       708       843      2925      3348      3349
 -1      1555    8    0    1
 -2       621       843       830      3349      3350      3308
 -1      1556    8    0    1
 -2       809       612       736      3246      3004      3351
 -1      1557    8    0    1
 -2       614       549       588      2846      3205      2664
 -1      1558    8    0    1
 -2       710       737       813      3013      3352      3254
 -1      1559    8    0    1
 -2       734       718       844      2993      3353      3354
 -1      1560    8    0    1
 -2       831       732       828      3309      3300      3355
 -1      1561    8    0    1
 -2       617       745       845      3052      3356      3357
 -1      1562    8    0    1
 -2       617       845       717      3357      3358      2950
 -1      1563    8    0    1
 -2       807       719       827      3242      3298      3359
 -1      1564    8    0    1
 -2       701       703       846      2908      3360      3361
 -1      1565    8    0    1
 -2       744       701       847      3043      3362      3363
 -1      1566    8    0    1
 -2       701       846       847      3361      3364      3362
 -1      1567    8    0    1
 -2       700       808       848      3245      3365      3366
 -1      1568    8    0    1
 -2       700       848       703      3366      3367      2909
 -1      1569    8    0    1
 -2       715       833       828      3317      3368      3299
 -1      1570    8    0    1
 -2       731       811       742      3251      3369      3035
 -1      1571    8    0    1
 -2       708       668       849      2926      3370      3371
 -1      1572    8    0    1
 -2       843       708       849      3348      3371      3372
 -1      1573    8    0    1
 -2       668       826       849      3295      3373      3370
 -1      1574    8    0    1
 -2       623       734       850      3315      3374      3375
 -1      1575    8    0    1
 -2       713       623       850      2940      3375      3376
 -1      1576    8    0    1
 -2       734       844       850      3354      3377      3374
 -1      1577    8    0    1
 -2       725       813       851      3255      3378      3379
 -1      1578    8    0    1
 -2       725       851       812      3379      3380      3252
 -1      1579    8    0    1
 -2       624       713       850      2939      3376      3381
 -1      1580    8    0    1
 -2       615       717       852      2949      3382      3383
 -1      1581    8    0    1
 -2       835       615       852      3320      3383      3384
 -1      1582    8    0    1
 -2       717       845       852      3358      3385      3382
 -1      1583    8    0    1
 -2       624       850       824      3381      3386      3287
 -1      1584    8    0    1
 -2       811       714       834      3250      3319      3387
 -1      1585    8    0    1
 -2       718       743       853      3038      3388      3389
 -1      1586    8    0    1
 -2       718       853       844      3389      3390      3353
 -1      1587    8    0    1
 -2       766       648       842      3117      3346      3391
 -1      1588    8    0    1
 -2       728       831       854      3310      3392      3393
 -1      1589    8    0    1
 -2       748       747       855      3061      3394      3395
 -1      1590    8    0    1
 -2       749       748       856      3064      3396      3397
 -1      1591    8    0    1
 -2       748       855       856      3395      3398      3396
 -1      1592    8    0    1
 -2       750       749       857      3067      3399      3400
 -1      1593    8    0    1
 -2       749       856       857      3397      3401      3399
 -1      1594    8    0    1
 -2       751       750       858      3070      3402      3403
 -1      1595    8    0    1
 -2       750       857       858      3400      3404      3402
 -1      1596    8    0    1
 -2       752       751       859      3073      3405      3406
 -1      1597    8    0    1
 -2       751       858       859      3403      3407      3405
 -1      1598    8    0    1
 -2       753       752       860      3076      3408      3409
 -1      1599    8    0    1
 -2       752       859       860      3406      3410      3408
 -1      1600    8    0    1
 -2       754       753       861      3079      3411      3412
 -1      1601    8    0    1
 -2       753       860       861      3409      3413      3411
 -1      1602    8    0    1
 -2       755       754       862      3082      3414      3415
 -1      1603    8    0    1
 -2       754       861       862      3412      3416      3414
 -1      1604    8    0    1
 -2       756       755       863      3085      3417      3418
 -1      1605    8    0    1
 -2       755       862       863      3415      3419      3417
 -1      1606    8    0    1
 -2       757       756       864      3088      3420      3421
 -1      1607    8    0    1
 -2       756       863       864      3418      3422      3420
 -1      1608    8    0    1
 -2       758       757       865      3091      3423      3424
 -1      1609    8    0    1
 -2       757       864       865      3421      3425      3423
 -1      1610    8    0    1
 -2       759       758       866      3094      3426      3427
 -1      1611    8    0    1
 -2       758       865       866      3424      3428      3426
 -1      1612    8    0    1
 -2       760       759       867      3097      3429      3430
 -1      1613    8    0    1
 -2       759       866       867      3427      3431      3429
 -1      1614    8    0    1
 -2       761       760       868      3100      3432      3433
 -1      1615    8    0    1
 -2       760       867       868      3430      3434      3432
 -1      1616    8    0    1
 -2       762       761       869      3103      3435      3436
 -1      1617    8    0    1
 -2       761       868       869      3433      3437      3435
 -1      1618    8    0    1
 -2       763       762       870      3106      3438      3439
 -1      1619    8    0    1
 -2       762       869       870      3436      3440      3438
 -1      1620    8    0    1
 -2       765       764       829      3112      3441      3442
 -1      1621    8    0    1
 -2       728       854       834      3393      3443      3318
 -1      1622    8    0    1
 -2       829       764       827      3441      3444      3347
 -1      1623    8    0    1
 -2       834       854       767      3443      3445      3446
 -1      1624    8    0    1
 -2       834       767       766      3446      3121      3447
 -1      1625    8    0    1
 -2       850       844       824      3377      3448      3386
 -1      1626    8    0    1
 -2       768       767       871      3124      3449      3450
 -1      1627    8    0    1
 -2       767       854       871      3445      3451      3449
 -1      1628    8    0    1
 -2       769       768       872      3127      3452      3453
 -1      1629    8    0    1
 -2       768       871       872      3450      3454      3452
 -1      1630    8    0    1
 -2       770       769       873      3130      3455      3456
 -1      1631    8    0    1
 -2       769       872       873      3453      3457      3455
 -1      1632    8    0    1
 -2       771       770       874      3133      3458      3459
 -1      1633    8    0    1
 -2       770       873       874      3456      3460      3458
 -1      1634    8    0    1
 -2       772       771       875      3136      3461      3462
 -1      1635    8    0    1
 -2       771       874       875      3459      3463      3461
 -1      1636    8    0    1
 -2       773       772       876      3139      3464      3465
 -1      1637    8    0    1
 -2       772       875       876      3462      3466      3464
 -1      1638    8    0    1
 -2       774       773       877      3142      3467      3468
 -1      1639    8    0    1
 -2       773       876       877      3465      3469      3467
 -1      1640    8    0    1
 -2       775       774       878      3145      3470      3471
 -1      1641    8    0    1
 -2       774       877       878      3468      3472      3470
 -1      1642    8    0    1
 -2       776       775       879      3148      3473      3474
 -1      1643    8    0    1
 -2       775       878       879      3471      3475      3473
 -1      1644    8    0    1
 -2       777       776       880      3151      3476      3477
 -1      1645    8    0    1
 -2       776       879       880      3474      3478      3476
 -1      1646    8    0    1
 -2       778       777       881      3154      3479      3480
 -1      1647    8    0    1
 -2       777       880       881      3477      3481      3479
 -1      1648    8    0    1
 -2       779       778       882      3157      3482      3483
 -1      1649    8    0    1
 -2       778       881       882      3480      3484      3482
 -1      1650    8    0    1
 -2       780       779       883      3160      3485      3486
 -1      1651    8    0    1
 -2       779       882       883      3483      3487      3485
 -1      1652    8    0    1
 -2       781       780       884      3163      3488      3489
 -1      1653    8    0    1
 -2       780       883       884      3486      3490      3488
 -1      1654    8    0    1
 -2       785       786       885      3179      3491      3492
 -1      1655    8    0    1
 -2       833       819       886      3337      3493      3494
 -1      1656    8    0    1
 -2       784       785       887      3176      3495      3496
 -1      1657    8    0    1
 -2       785       885       887      3492      3497      3495
 -1      1658    8    0    1
 -2       787       788       888      3185      3498      3499
 -1      1659    8    0    1
 -2       788       789       889      3188      3500      3501
 -1      1660    8    0    1
 -2       788       889       888      3501      3502      3498
 -1      1661    8    0    1
 -2       789       790       890      3191      3503      3504
 -1      1662    8    0    1
 -2       789       890       889      3504      3505      3500
 -1      1663    8    0    1
 -2       790       791       891      3194      3506      3507
 -1      1664    8    0    1
 -2       790       891       890      3507      3508      3503
 -1      1665    8    0    1
 -2       791       792       892      3197      3509      3510
 -1      1666    8    0    1
 -2       791       892       891      3510      3511      3506
 -1      1667    8    0    1
 -2       792       793       893      3200      3512      3513
 -1      1668    8    0    1
 -2       792       893       892      3513      3514      3509
 -1      1669    8    0    1
 -2       793       794       832      3203      3313      3515
 -1      1670    8    0    1
 -2       798       799       894      3219      3516      3517
 -1      1671    8    0    1
 -2       747       746       895      3058      3518      3519
 -1      1672    8    0    1
 -2       747       895       855      3519      3520      3394
 -1      1673    8    0    1
 -2       766       842       811      3391      3521      3522
 -1      1674    8    0    1
 -2       797       798       896      3216      3523      3524
 -1      1675    8    0    1
 -2       798       894       896      3517      3525      3523
 -1      1676    8    0    1
 -2       796       797       897      3213      3526      3527
 -1      1677    8    0    1
 -2       797       896       897      3524      3528      3526
 -1      1678    8    0    1
 -2       799       800       898      3222      3529      3530
 -1      1679    8    0    1
 -2       799       898       894      3530      3531      3516
 -1      1680    8    0    1
 -2       800       801       899      3225      3532      3533
 -1      1681    8    0    1
 -2       800       899       898      3533      3534      3529
 -1      1682    8    0    1
 -2       801       802       900      3228      3535      3536
 -1      1683    8    0    1
 -2       801       900       899      3536      3537      3532
 -1      1684    8    0    1
 -2       802       803       901      3231      3538      3539
 -1      1685    8    0    1
 -2       802       901       900      3539      3540      3535
 -1      1686    8    0    1
 -2       803       804       902      3234      3541      3542
 -1      1687    8    0    1
 -2       803       902       901      3542      3543      3538
 -1      1688    8    0    1
 -2       804       805       903      3237      3544      3545
 -1      1689    8    0    1
 -2       804       903       902      3545      3546      3541
 -1      1690    8    0    1
 -2       846       703       848      3360      3367      3547
 -1      1691    8    0    1
 -2       823       818       795      3336      3272      3548
 -1      1692    8    0    1
 -2       828       833       904      3368      3549      3550
 -1      1693    8    0    1
 -2       786       787       905      3182      3551      3552
 -1      1694    8    0    1
 -2       885       786       905      3491      3552      3553
 -1      1695    8    0    1
 -2       787       888       905      3499      3554      3551
 -1      1696    8    0    1
 -2       741       613       906      3030      3555      3556
 -1      1697    8    0    1
 -2       807       827       907      3359      3557      3558
 -1      1698    8    0    1
 -2       721       741       829      3029      3559      3301
 -1      1699    8    0    1
 -2       815       810       908      3261      3560      3561
 -1      1700    8    0    1
 -2       816       796       909      3264      3562      3563
 -1      1701    8    0    1
 -2       796       897       909      3527      3564      3562
 -1      1702    8    0    1
 -2       743       735       910      3039      3565      3566
 -1      1703    8    0    1
 -2       743       910       853      3566      3567      3388
 -1      1704    8    0    1
 -2       820       783       911      3277      3568      3569
 -1      1705    8    0    1
 -2       821       784       912      3280      3570      3571
 -1      1706    8    0    1
 -2       784       887       912      3496      3572      3570
 -1      1707    8    0    1
 -2       811       834       766      3387      3447      3522
 -1      1708    8    0    1
 -2       746       824       913      3289      3573      3574
 -1      1709    8    0    1
 -2       746       913       895      3574      3575      3518
 -1      1710    8    0    1
 -2       809       736       914      3351      3576      3577
 -1      1711    8    0    1
 -2       736       840       914      3339      3578      3576
 -1      1712    8    0    1
 -2       825       820       915      3293      3579      3580
 -1      1713    8    0    1
 -2       820       911       915      3569      3581      3579
 -1      1714    8    0    1
 -2       826       825       916      3296      3582      3583
 -1      1715    8    0    1
 -2       825       915       916      3580      3584      3582
 -1      1716    8    0    1
 -2       827       764       907      3444      3585      3557
 -1      1717    8    0    1
 -2       814       807       917      3258      3586      3587
 -1      1718    8    0    1
 -2       813       737       918      3352      3588      3589
 -1      1719    8    0    1
 -2       745       830       919      3307      3590      3591
 -1      1720    8    0    1
 -2       830       843       919      3350      3592      3590
 -1      1721    8    0    1
 -2       824       844       920      3448      3593      3594
 -1      1722    8    0    1
 -2       913       824       920      3573      3594      3595
 -1      1723    8    0    1
 -2       844       853       920      3390      3596      3593
 -1      1724    8    0    1
 -2       823       795       921      3548      3597      3598
 -1      1725    8    0    1
 -2       739       744       922      3042      3599      3600
 -1      1726    8    0    1
 -2       806       739       922      3241      3600      3601
 -1      1727    8    0    1
 -2       744       847       922      3363      3602      3599
 -1      1728    8    0    1
 -2       854       831       871      3392      3603      3451
 -1      1729    8    0    1
 -2       840       823       921      3340      3598      3604
 -1      1730    8    0    1
 -2       841       814       923      3343      3605      3606
 -1      1731    8    0    1
 -2       814       917       923      3587      3607      3605
 -1      1732    8    0    1
 -2       842       647       742      3345      3116      3608
 -1      1733    8    0    1
 -2       763       870       907      3439      3609      3610
 -1      1734    8    0    1
 -2       781       884       838      3489      3611      3612
 -1      1735    8    0    1
 -2       764       763       907      3109      3610      3585
 -1      1736    8    0    1
 -2       921       795       817      3597      3267      3613
 -1      1737    8    0    1
 -2       819       839       886      3334      3614      3493
 -1      1738    8    0    1
 -2       906       613       742      3555      3034      3615
 -1      1739    8    0    1
 -2       839       809       924      3335      3616      3617
 -1      1740    8    0    1
 -2       809       914       924      3577      3618      3616
 -1      1741    8    0    1
 -2       833       886       904      3494      3619      3549
 -1      1742    8    0    1
 -2       783       822       925      3283      3620      3621
 -1      1743    8    0    1
 -2       783       925       911      3621      3622      3568
 -1      1744    8    0    1
 -2       793       832       893      3515      3623      3512
 -1      1745    8    0    1
 -2       808       836       926      3324      3624      3625
 -1      1746    8    0    1
 -2       811       842       742      3521      3608      3369
 -1      1747    8    0    1
 -2       831       828       927      3355      3626      3627
 -1      1748    8    0    1
 -2       845       745       919      3356      3591      3628
 -1      1749    8    0    1
 -2       847       846       928      3364      3629      3630
 -1      1750    8    0    1
 -2       735       837       910      3327      3631      3565
 -1      1751    8    0    1
 -2       846       848       929      3547      3632      3633
 -1      1752    8    0    1
 -2       846       929       928      3633      3634      3629
 -1      1753    8    0    1
 -2       805       806       922      3240      3601      3635
 -1      1754    8    0    1
 -2       837       835       930      3328      3636      3637
 -1      1755    8    0    1
 -2       871       831       927      3603      3627      3638
 -1      1756    8    0    1
 -2       848       808       931      3365      3639      3640
 -1      1757    8    0    1
 -2       929       848       931      3632      3640      3641
 -1      1758    8    0    1
 -2       808       926       931      3625      3642      3639
 -1      1759    8    0    1
 -2       927       828       904      3626      3550      3643
 -1      1760    8    0    1
 -2       849       826       932      3373      3644      3645
 -1      1761    8    0    1
 -2       826       916       932      3583      3646      3644
 -1      1762    8    0    1
 -2       807       907       917      3558      3647      3586
 -1      1763    8    0    1
 -2       817       816       933      3268      3648      3649
 -1      1764    8    0    1
 -2       921       817       933      3613      3649      3650
 -1      1765    8    0    1
 -2       816       909       933      3563      3651      3648
 -1      1766    8    0    1
 -2       821       912       934      3571      3652      3653
 -1      1767    8    0    1
 -2       821       934       822      3653      3654      3284
 -1      1768    8    0    1
 -2       835       852       935      3384      3655      3656
 -1      1769    8    0    1
 -2       835       935       930      3656      3657      3636
 -1      1770    8    0    1
 -2       918       737       936      3588      3658      3659
 -1      1771    8    0    1
 -2       737       841       936      3342      3660      3658
 -1      1772    8    0    1
 -2       851       813       937      3378      3661      3662
 -1      1773    8    0    1
 -2       813       918       937      3589      3663      3661
 -1      1774    8    0    1
 -2       812       851       938      3380      3664      3665
 -1      1775    8    0    1
 -2       836       815       939      3325      3666      3667
 -1      1776    8    0    1
 -2       836       939       926      3667      3668      3624
 -1      1777    8    0    1
 -2       832       812       938      3314      3665      3669
 -1      1778    8    0    1
 -2       815       908       939      3561      3670      3666
 -1      1779    8    0    1
 -2       805       922       903      3635      3671      3544
 -1      1780    8    0    1
 -2       765       829       741      3442      3559      3344
 -1      1781    8    0    1
 -2       907       870       917      3609      3672      3647
 -1      1782    8    0    1
 -2       781       838       782      3612      3332      3167
 -1      1783    8    0    1
 -2       857       856       940      3401      3673      3674
 -1      1784    8    0    1
 -2       858       857       941      3404      3675      3676
 -1      1785    8    0    1
 -2       857       940       941      3674      3677      3675
 -1      1786    8    0    1
 -2       859       858       942      3407      3678      3679
 -1      1787    8    0    1
 -2       858       941       942      3676      3680      3678
 -1      1788    8    0    1
 -2       860       859       943      3410      3681      3682
 -1      1789    8    0    1
 -2       859       942       943      3679      3683      3681
 -1      1790    8    0    1
 -2       861       860       944      3413      3684      3685
 -1      1791    8    0    1
 -2       860       943       944      3682      3686      3684
 -1      1792    8    0    1
 -2       862       861       945      3416      3687      3688
 -1      1793    8    0    1
 -2       861       944       945      3685      3689      3687
 -1      1794    8    0    1
 -2       863       862       946      3419      3690      3691
 -1      1795    8    0    1
 -2       862       945       946      3688      3692      3690
 -1      1796    8    0    1
 -2       864       863       947      3422      3693      3694
 -1      1797    8    0    1
 -2       863       946       947      3691      3695      3693
 -1      1798    8    0    1
 -2       865       864       948      3425      3696      3697
 -1      1799    8    0    1
 -2       864       947       948      3694      3698      3696
 -1      1800    8    0    1
 -2       866       865       949      3428      3699      3700
 -1      1801    8    0    1
 -2       865       948       949      3697      3701      3699
 -1      1802    8    0    1
 -2       867       866       950      3431      3702      3703
 -1      1803    8    0    1
 -2       866       949       950      3700      3704      3702
 -1      1804    8    0    1
 -2       868       867       951      3434      3705      3706
 -1      1805    8    0    1
 -2       867       950       951      3703      3707      3705
 -1      1806    8    0    1
 -2       869       868       952      3437      3708      3709
 -1      1807    8    0    1
 -2       868       951       952      3706      3710      3708
 -1      1808    8    0    1
 -2       870       869       917      3440      3711      3672
 -1      1809    8    0    1
 -2       887       885       953      3497      3712      3713
 -1      1810    8    0    1
 -2       840       921       954      3604      3714      3715
 -1      1811    8    0    1
 -2       872       871       927      3454      3638      3716
 -1      1812    8    0    1
 -2       873       872       955      3457      3717      3718
 -1      1813    8    0    1
 -2       872       927       955      3716      3719      3717
 -1      1814    8    0    1
 -2       874       873       956      3460      3720      3721
 -1      1815    8    0    1
 -2       875       874       957      3463      3722      3723
 -1      1816    8    0    1
 -2       874       956       957      3721      3724      3722
 -1      1817    8    0    1
 -2       876       875       958      3466      3725      3726
 -1      1818    8    0    1
 -2       875       957       958      3723      3727      3725
 -1      1819    8    0    1
 -2       877       876       959      3469      3728      3729
 -1      1820    8    0    1
 -2       876       958       959      3726      3730      3728
 -1      1821    8    0    1
 -2       878       877       960      3472      3731      3732
 -1      1822    8    0    1
 -2       877       959       960      3729      3733      3731
 -1      1823    8    0    1
 -2       879       878       961      3475      3734      3735
 -1      1824    8    0    1
 -2       878       960       961      3732      3736      3734
 -1      1825    8    0    1
 -2       880       879       962      3478      3737      3738
 -1      1826    8    0    1
 -2       879       961       962      3735      3739      3737
 -1      1827    8    0    1
 -2       881       880       963      3481      3740      3741
 -1      1828    8    0    1
 -2       880       962       963      3738      3742      3740
 -1      1829    8    0    1
 -2       882       881       964      3484      3743      3744
 -1      1830    8    0    1
 -2       881       963       964      3741      3745      3743
 -1      1831    8    0    1
 -2       883       882       965      3487      3746      3747
 -1      1832    8    0    1
 -2       882       964       965      3744      3748      3746
 -1      1833    8    0    1
 -2       889       890       966      3505      3749      3750
 -1      1834    8    0    1
 -2       888       889       967      3502      3751      3752
 -1      1835    8    0    1
 -2       889       966       967      3750      3753      3751
 -1      1836    8    0    1
 -2       891       892       968      3511      3754      3755
 -1      1837    8    0    1
 -2       832       938       893      3669      3756      3623
 -1      1838    8    0    1
 -2       927       904       955      3643      3757      3719
 -1      1839    8    0    1
 -2       904       886       956      3619      3758      3759
 -1      1840    8    0    1
 -2       898       899       969      3534      3760      3761
 -1      1841    8    0    1
 -2       855       895       970      3520      3762      3763
 -1      1842    8    0    1
 -2       894       898       971      3531      3764      3765
 -1      1843    8    0    1
 -2       898       969       971      3761      3766      3764
 -1      1844    8    0    1
 -2       845       919       972      3628      3767      3768
 -1      1845    8    0    1
 -2       897       896       973      3528      3769      3770
 -1      1846    8    0    1
 -2       910       837       974      3631      3771      3772
 -1      1847    8    0    1
 -2       837       930       974      3637      3773      3771
 -1      1848    8    0    1
 -2       886       839       975      3614      3774      3775
 -1      1849    8    0    1
 -2       899       900       976      3537      3776      3777
 -1      1850    8    0    1
 -2       899       976       969      3777      3778      3760
 -1      1851    8    0    1
 -2       900       901       977      3540      3779      3780
 -1      1852    8    0    1
 -2       900       977       976      3780      3781      3776
 -1      1853    8    0    1
 -2       901       902       978      3543      3782      3783
 -1      1854    8    0    1
 -2       901       978       977      3783      3784      3779
 -1      1855    8    0    1
 -2       909       897       979      3564      3785      3786
 -1      1856    8    0    1
 -2       897       973       979      3770      3787      3785
 -1      1857    8    0    1
 -2       908       810       884      3560      3788      3789
 -1      1858    8    0    1
 -2       912       887       980      3572      3790      3791
 -1      1859    8    0    1
 -2       887       953       980      3713      3792      3790
 -1      1860    8    0    1
 -2       903       922       847      3671      3602      3793
 -1      1861    8    0    1
 -2       843       849       981      3372      3794      3795
 -1      1862    8    0    1
 -2       919       843       981      3592      3795      3796
 -1      1863    8    0    1
 -2       849       932       981      3645      3797      3794
 -1      1864    8    0    1
 -2       852       845       972      3385      3768      3798
 -1      1865    8    0    1
 -2       914       840       954      3578      3715      3799
 -1      1866    8    0    1
 -2       915       911       982      3581      3800      3801
 -1      1867    8    0    1
 -2       916       915       983      3584      3802      3803
 -1      1868    8    0    1
 -2       915       982       983      3801      3804      3802
 -1      1869    8    0    1
 -2       938       851       984      3664      3805      3806
 -1      1870    8    0    1
 -2       939       908       985      3670      3807      3808
 -1      1871    8    0    1
 -2       896       894       986      3525      3809      3810
 -1      1872    8    0    1
 -2       973       896       986      3769      3810      3811
 -1      1873    8    0    1
 -2       894       971       986      3765      3812      3809
 -1      1874    8    0    1
 -2       926       939       987      3668      3813      3814
 -1      1875    8    0    1
 -2       939       985       987      3808      3815      3813
 -1      1876    8    0    1
 -2       847       928       903      3630      3816      3793
 -1      1877    8    0    1
 -2       856       855       988      3398      3817      3818
 -1      1878    8    0    1
 -2       855       970       988      3763      3819      3817
 -1      1879    8    0    1
 -2       853       910       989      3567      3820      3821
 -1      1880    8    0    1
 -2       910       974       989      3772      3822      3820
 -1      1881    8    0    1
 -2       890       891       990      3508      3823      3824
 -1      1882    8    0    1
 -2       891       968       990      3755      3825      3823
 -1      1883    8    0    1
 -2       810       838       884      3331      3611      3788
 -1      1884    8    0    1
 -2       895       913       991      3575      3826      3827
 -1      1885    8    0    1
 -2       895       991       970      3827      3828      3762
 -1      1886    8    0    1
 -2       646       741       906      3114      3556      3829
 -1      1887    8    0    1
 -2       917       869       952      3711      3709      3830
 -1      1888    8    0    1
 -2       893       938       984      3756      3806      3831
 -1      1889    8    0    1
 -2       908       884       985      3789      3832      3807
 -1      1890    8    0    1
 -2       903       928       902      3816      3833      3546
 -1      1891    8    0    1
 -2       902       928       978      3833      3834      3782
 -1      1892    8    0    1
 -2       940       856       988      3673      3818      3835
 -1      1893    8    0    1
 -2       923       917       952      3607      3830      3836
 -1      1894    8    0    1
 -2       991       913       920      3826      3595      3837
 -1      1895    8    0    1
 -2       954       921       933      3714      3650      3838
 -1      1896    8    0    1
 -2       953       885       992      3712      3839      3840
 -1      1897    8    0    1
 -2       885       905       992      3553      3841      3839
 -1      1898    8    0    1
 -2       985       884       883      3832      3490      3842
 -1      1899    8    0    1
 -2       956       873       955      3720      3718      3843
 -1      1900    8    0    1
 -2       883       965       985      3747      3844      3842
 -1      1901    8    0    1
 -2       966       890       990      3749      3824      3845
 -1      1902    8    0    1
 -2       924       914       993      3618      3846      3847
 -1      1903    8    0    1
 -2       914       954       993      3799      3848      3846
 -1      1904    8    0    1
 -2       893       984       892      3831      3849      3514
 -1      1905    8    0    1
 -2       925       822       934      3620      3654      3850
 -1      1906    8    0    1
 -2       968       892       984      3754      3849      3851
 -1      1907    8    0    1
 -2       956       886       994      3758      3852      3853
 -1      1908    8    0    1
 -2       957       956       994      3724      3853      3854
 -1      1909    8    0    1
 -2       886       975       994      3775      3855      3852
 -1      1910    8    0    1
 -2       853       989       920      3821      3856      3596
 -1      1911    8    0    1
 -2       926       987       995      3814      3857      3858
 -1      1912    8    0    1
 -2       926       995       931      3858      3859      3642
 -1      1913    8    0    1
 -2       972       919       981      3767      3796      3860
 -1      1914    8    0    1
 -2       974       930       996      3773      3861      3862
 -1      1915    8    0    1
 -2       975       839       924      3774      3617      3863
 -1      1916    8    0    1
 -2       909       979       997      3786      3864      3865
 -1      1917    8    0    1
 -2       909       997       933      3865      3866      3651
 -1      1918    8    0    1
 -2       978       928       998      3834      3867      3868
 -1      1919    8    0    1
 -2       928       929       998      3634      3869      3867
 -1      1920    8    0    1
 -2       918       936       999      3659      3870      3871
 -1      1921    8    0    1
 -2       905       888      1000      3554      3872      3873
 -1      1922    8    0    1
 -2       905      1000       992      3873      3874      3841
 -1      1923    8    0    1
 -2       911       925      1001      3622      3875      3876
 -1      1924    8    0    1
 -2       911      1001       982      3876      3877      3800
 -1      1925    8    0    1
 -2       932       916      1002      3646      3878      3879
 -1      1926    8    0    1
 -2       916       983      1002      3803      3880      3878
 -1      1927    8    0    1
 -2       912       980      1003      3791      3881      3882
 -1      1928    8    0    1
 -2       912      1003       934      3882      3883      3652
 -1      1929    8    0    1
 -2       918       999       937      3871      3884      3663
 -1      1930    8    0    1
 -2       935       852       972      3655      3798      3885
 -1      1931    8    0    1
 -2       936       841       923      3660      3606      3886
 -1      1932    8    0    1
 -2       930       935      1004      3657      3887      3888
 -1      1933    8    0    1
 -2       930      1004       996      3888      3889      3861
 -1      1934    8    0    1
 -2       984       851       937      3805      3662      3890
 -1      1935    8    0    1
 -2      1000       888       967      3872      3752      3891
 -1      1936    8    0    1
 -2       971       969      1005      3766      3892      3893
 -1      1937    8    0    1
 -2       967       966      1006      3753      3894      3895
 -1      1938    8    0    1
 -2       941       940      1007      3677      3896      3897
 -1      1939    8    0    1
 -2       942       941      1008      3680      3898      3899
 -1      1940    8    0    1
 -2       941      1007      1008      3897      3900      3898
 -1      1941    8    0    1
 -2       943       942      1009      3683      3901      3902
 -1      1942    8    0    1
 -2       942      1008      1009      3899      3903      3901
 -1      1943    8    0    1
 -2       944       943      1010      3686      3904      3905
 -1      1944    8    0    1
 -2       943      1009      1010      3902      3906      3904
 -1      1945    8    0    1
 -2       945       944      1011      3689      3907      3908
 -1      1946    8    0    1
 -2       944      1010      1011      3905      3909      3907
 -1      1947    8    0    1
 -2       946       945      1012      3692      3910      3911
 -1      1948    8    0    1
 -2       945      1011      1012      3908      3912      3910
 -1      1949    8    0    1
 -2       947       946      1013      3695      3913      3914
 -1      1950    8    0    1
 -2       946      1012      1013      3911      3915      3913
 -1      1951    8    0    1
 -2       948       947      1014      3698      3916      3917
 -1      1952    8    0    1
 -2       947      1013      1014      3914      3918      3916
 -1      1953    8    0    1
 -2       949       948      1015      3701      3919      3920
 -1      1954    8    0    1
 -2       948      1014      1015      3917      3921      3919
 -1      1955    8    0    1
 -2       950       949      1016      3704      3922      3923
 -1      1956    8    0    1
 -2       949      1015      1016      3920      3924      3922
 -1      1957    8    0    1
 -2       951       950      1017      3707      3925      3926
 -1      1958    8    0    1
 -2       950      1016      1017      3923      3927      3925
 -1      1959    8    0    1
 -2       952       951      1018      3710      3928      3929
 -1      1960    8    0    1
 -2       951      1017      1018      3926      3930      3928
 -1      1961    8    0    1
 -2       904       956       955      3759      3843      3757
 -1      1962    8    0    1
 -2       958       957      1019      3727      3931      3932
 -1      1963    8    0    1
 -2       957       994      1019      3854      3933      3931
 -1      1964    8    0    1
 -2       959       958      1020      3730      3934      3935
 -1      1965    8    0    1
 -2       958      1019      1020      3932      3936      3934
 -1      1966    8    0    1
 -2       960       959      1021      3733      3937      3938
 -1      1967    8    0    1
 -2       959      1020      1021      3935      3939      3937
 -1      1968    8    0    1
 -2       961       960      1022      3736      3940      3941
 -1      1969    8    0    1
 -2       960      1021      1022      3938      3942      3940
 -1      1970    8    0    1
 -2       962       961      1023      3739      3943      3944
 -1      1971    8    0    1
 -2       961      1022      1023      3941      3945      3943
 -1      1972    8    0    1
 -2       963       962      1024      3742      3946      3947
 -1      1973    8    0    1
 -2       962      1023      1024      3944      3948      3946
 -1      1974    8    0    1
 -2       964       963      1025      3745      3949      3950
 -1      1975    8    0    1
 -2       963      1024      1025      3947      3951      3949
 -1      1976    8    0    1
 -2       965       964      1026      3748      3952      3953
 -1      1977    8    0    1
 -2       964      1025      1026      3950      3954      3952
 -1      1978    8    0    1
 -2       742       646       906      3115      3829      3615
 -1      1979    8    0    1
 -2       925       934      1027      3850      3955      3956
 -1      1980    8    0    1
 -2       934      1003      1027      3883      3957      3955
 -1      1981    8    0    1
 -2       976       977      1028      3781      3958      3959
 -1      1982    8    0    1
 -2       984       937      1029      3890      3960      3961
 -1      1983    8    0    1
 -2       984      1029       968      3961      3962      3851
 -1      1984    8    0    1
 -2       975       924      1030      3863      3963      3964
 -1      1985    8    0    1
 -2       969       976      1031      3778      3965      3966
 -1      1986    8    0    1
 -2       976      1028      1031      3959      3967      3965
 -1      1987    8    0    1
 -2       940       988      1032      3835      3968      3969
 -1      1988    8    0    1
 -2       940      1032      1007      3969      3970      3896
 -1      1989    8    0    1
 -2       979       973      1033      3787      3971      3972
 -1      1990    8    0    1
 -2       999       936      1034      3870      3973      3974
 -1      1991    8    0    1
 -2       970       991      1035      3828      3975      3976
 -1      1992    8    0    1
 -2       985       965      1036      3844      3977      3978
 -1      1993    8    0    1
 -2       987       985      1036      3815      3978      3979
 -1      1994    8    0    1
 -2       965      1026      1036      3953      3980      3977
 -1      1995    8    0    1
 -2       972       981      1037      3860      3981      3982
 -1      1996    8    0    1
 -2       981       932      1037      3797      3983      3981
 -1      1997    8    0    1
 -2       966       990      1038      3845      3984      3985
 -1      1998    8    0    1
 -2       966      1038      1006      3985      3986      3894
 -1      1999    8    0    1
 -2       923       952      1018      3836      3929      3987
 -1      2000    8    0    1
 -2       983       982      1039      3804      3988      3989
 -1      2001    8    0    1
 -2       936       923      1018      3886      3987      3990
 -1      2002    8    0    1
 -2       935       972      1040      3885      3991      3992
 -1      2003    8    0    1
 -2      1004       935      1040      3887      3992      3993
 -1      2004    8    0    1
 -2       972      1037      1040      3982      3994      3991
 -1      2005    8    0    1
 -2       929       931      1041      3641      3995      3996
 -1      2006    8    0    1
 -2       998       929      1041      3869      3996      3997
 -1      2007    8    0    1
 -2       931       995      1041      3859      3998      3995
 -1      2008    8    0    1
 -2       991       920       989      3837      3856      3999
 -1      2009    8    0    1
 -2       954       933       997      3838      3866      4000
 -1      2010    8    0    1
 -2       988       970      1042      3819      4001      4002
 -1      2011    8    0    1
 -2       970      1035      1042      3976      4003      4001
 -1      2012    8    0    1
 -2       991       989      1043      3999      4004      4005
 -1      2013    8    0    1
 -2      1035       991      1043      3975      4005      4006
 -1      2014    8    0    1
 -2       989       974      1043      3822      4007      4004
 -1      2015    8    0    1
 -2       980       953      1044      3792      4008      4009
 -1      2016    8    0    1
 -2       990       968      1045      3825      4010      4011
 -1      2017    8    0    1
 -2      1038       990      1045      3984      4011      4012
 -1      2018    8    0    1
 -2       968      1029      1045      3962      4013      4010
 -1      2019    8    0    1
 -2       974       996      1043      3862      4014      4007
 -1      2020    8    0    1
 -2       937       999      1029      3884      4015      3960
 -1      2021    8    0    1
 -2      1000       967      1046      3891      4016      4017
 -1      2022    8    0    1
 -2       967      1006      1046      3895      4018      4016
 -1      2023    8    0    1
 -2       977       978      1047      3784      4019      4020
 -1      2024    8    0    1
 -2      1028       977      1047      3958      4020      4021
 -1      2025    8    0    1
 -2       978       998      1047      3868      4022      4019
 -1      2026    8    0    1
 -2       983      1039      1048      3989      4023      4024
 -1      2027    8    0    1
 -2       982      1001      1049      3877      4025      4026
 -1      2028    8    0    1
 -2       982      1049      1039      4026      4027      3988
 -1      2029    8    0    1
 -2       925      1027      1001      3956      4028      3875
 -1      2030    8    0    1
 -2      1044       953      1050      4008      4029      4030
 -1      2031    8    0    1
 -2       953       992      1050      3840      4031      4029
 -1      2032    8    0    1
 -2      1034       936      1018      3973      3990      4032
 -1      2033    8    0    1
 -2       993       954       997      3848      4000      4033
 -1      2034    8    0    1
 -2       971      1005      1051      3893      4034      4035
 -1      2035    8    0    1
 -2       971      1051       986      4035      4036      3812
 -1      2036    8    0    1
 -2       994       975      1052      3855      4037      4038
 -1      2037    8    0    1
 -2      1019       994      1052      3933      4038      4039
 -1      2038    8    0    1
 -2       975      1030      1052      3964      4040      4037
 -1      2039    8    0    1
 -2      1043       996      1053      4014      4041      4042
 -1      2040    8    0    1
 -2      1043      1053      1035      4042      4043      4006
 -1      2041    8    0    1
 -2       995       987      1054      3857      4044      4045
 -1      2042    8    0    1
 -2       987      1036      1054      3979      4046      4044
 -1      2043    8    0    1
 -2      1005       969      1031      3892      3966      4047
 -1      2044    8    0    1
 -2      1030       924      1055      3963      4048      4049
 -1      2045    8    0    1
 -2       924       993      1055      3847      4050      4048
 -1      2046    8    0    1
 -2      1032       988      1042      3968      4002      4051
 -1      2047    8    0    1
 -2      1033       973      1056      3971      4052      4053
 -1      2048    8    0    1
 -2       973       986      1056      3811      4054      4052
 -1      2049    8    0    1
 -2       999      1034      1057      3974      4055      4056
 -1      2050    8    0    1
 -2      1037       932      1002      3983      3879      4057
 -1      2051    8    0    1
 -2       992      1000      1058      3874      4058      4059
 -1      2052    8    0    1
 -2       992      1058      1050      4059      4060      4031
 -1      2053    8    0    1
 -2      1002       983      1048      3880      4024      4061
 -1      2054    8    0    1
 -2      1003       980      1059      3881      4062      4063
 -1      2055    8    0    1
 -2       980      1044      1059      4009      4064      4062
 -1      2056    8    0    1
 -2       979      1033      1055      3972      4065      4066
 -1      2057    8    0    1
 -2       999      1057      1029      4056      4067      4015
 -1      2058    8    0    1
 -2       996      1004      1060      3889      4068      4069
 -1      2059    8    0    1
 -2       996      1060      1053      4069      4070      4041
 -1      2060    8    0    1
 -2      1058      1000      1046      4058      4017      4071
 -1      2061    8    0    1
 -2      1036      1026      1061      3980      4072      4073
 -1      2062    8    0    1
 -2      1036      1061      1054      4073      4074      4046
 -1      2063    8    0    1
 -2      1009      1008      1062      3903      4075      4076
 -1      2064    8    0    1
 -2      1010      1009      1063      3906      4077      4078
 -1      2065    8    0    1
 -2      1009      1062      1063      4076      4079      4077
 -1      2066    8    0    1
 -2      1011      1010      1064      3909      4080      4081
 -1      2067    8    0    1
 -2      1010      1063      1064      4078      4082      4080
 -1      2068    8    0    1
 -2      1012      1011      1065      3912      4083      4084
 -1      2069    8    0    1
 -2      1011      1064      1065      4081      4085      4083
 -1      2070    8    0    1
 -2      1013      1012      1066      3915      4086      4087
 -1      2071    8    0    1
 -2      1012      1065      1066      4084      4088      4086
 -1      2072    8    0    1
 -2      1014      1013      1067      3918      4089      4090
 -1      2073    8    0    1
 -2      1013      1066      1067      4087      4091      4089
 -1      2074    8    0    1
 -2      1015      1014      1068      3921      4092      4093
 -1      2075    8    0    1
 -2      1014      1067      1068      4090      4094      4092
 -1      2076    8    0    1
 -2      1016      1015      1069      3924      4095      4096
 -1      2077    8    0    1
 -2      1015      1068      1069      4093      4097      4095
 -1      2078    8    0    1
 -2      1017      1016      1070      3927      4098      4099
 -1      2079    8    0    1
 -2      1016      1069      1070      4096      4100      4098
 -1      2080    8    0    1
 -2      1018      1017      1034      3930      4101      4032
 -1      2081    8    0    1
 -2      1020      1019      1071      3936      4102      4103
 -1      2082    8    0    1
 -2      1019      1052      1071      4039      4104      4102
 -1      2083    8    0    1
 -2      1021      1020      1072      3939      4105      4106
 -1      2084    8    0    1
 -2      1020      1071      1072      4103      4107      4105
 -1      2085    8    0    1
 -2      1022      1021      1073      3942      4108      4109
 -1      2086    8    0    1
 -2      1021      1072      1073      4106      4110      4108
 -1      2087    8    0    1
 -2      1023      1022      1074      3945      4111      4112
 -1      2088    8    0    1
 -2      1022      1073      1074      4109      4113      4111
 -1      2089    8    0    1
 -2      1024      1023      1075      3948      4114      4115
 -1      2090    8    0    1
 -2      1023      1074      1075      4112      4116      4114
 -1      2091    8    0    1
 -2      1025      1024      1076      3951      4117      4118
 -1      2092    8    0    1
 -2      1024      1075      1076      4115      4119      4117
 -1      2093    8    0    1
 -2      1026      1025      1077      3954      4120      4121
 -1      2094    8    0    1
 -2      1061      1026      1077      4072      4121      4122
 -1      2095    8    0    1
 -2      1025      1076      1077      4118      4123      4120
 -1      2096    8    0    1
 -2      1058      1046      1078      4071      4124      4125
 -1      2097    8    0    1
 -2      1048      1039      1079      4023      4126      4127
 -1      2098    8    0    1
 -2      1055       993       997      4050      4033      4128
 -1      2099    8    0    1
 -2      1032      1042      1080      4051      4129      4130
 -1      2100    8    0    1
 -2      1030      1055      1081      4049      4131      4132
 -1      2101    8    0    1
 -2      1030      1081      1052      4132      4133      4040
 -1      2102    8    0    1
 -2       997       979      1055      3864      4066      4128
 -1      2103    8    0    1
 -2      1057      1034      1070      4055      4134      4135
 -1      2104    8    0    1
 -2      1037      1002      1082      4057      4136      4137
 -1      2105    8    0    1
 -2      1040      1037      1082      3994      4137      4138
 -1      2106    8    0    1
 -2      1002      1048      1082      4061      4139      4136
 -1      2107    8    0    1
 -2      1005      1031      1083      4047      4140      4141
 -1      2108    8    0    1
 -2      1027      1003      1084      3957      4142      4143
 -1      2109    8    0    1
 -2      1003      1059      1084      4063      4144      4142
 -1      2110    8    0    1
 -2      1001      1027      1085      4028      4145      4146
 -1      2111    8    0    1
 -2      1001      1085      1049      4146      4147      4025
 -1      2112    8    0    1
 -2      1035      1053      1042      4043      4148      4003
 -1      2113    8    0    1
 -2      1006      1038      1086      3986      4149      4150
 -1      2114    8    0    1
 -2      1031      1028      1087      3967      4151      4152
 -1      2115    8    0    1
 -2      1031      1087      1083      4152      4153      4140
 -1      2116    8    0    1
 -2      1008      1007      1088      3900      4154      4155
 -1      2117    8    0    1
 -2      1008      1088      1062      4155      4156      4075
 -1      2118    8    0    1
 -2      1029      1057      1045      4067      4157      4013
 -1      2119    8    0    1
 -2      1007      1032      1089      3970      4158      4159
 -1      2120    8    0    1
 -2      1007      1089      1088      4159      4160      4154
 -1      2121    8    0    1
 -2      1046      1006      1090      4018      4161      4162
 -1      2122    8    0    1
 -2      1006      1086      1090      4150      4163      4161
 -1      2123    8    0    1
 -2      1042      1053      1080      4148      4164      4129
 -1      2124    8    0    1
 -2      1034      1017      1070      4101      4099      4134
 -1      2125    8    0    1
 -2      1028      1047      1091      4021      4165      4166
 -1      2126    8    0    1
 -2      1028      1091      1087      4166      4167      4151
 -1      2127    8    0    1
 -2      1045      1057      1092      4157      4168      4169
 -1      2128    8    0    1
 -2      1039      1049      1093      4027      4170      4171
 -1      2129    8    0    1
 -2      1039      1093      1079      4171      4172      4126
 -1      2130    8    0    1
 -2      1005      1083      1094      4141      4173      4174
 -1      2131    8    0    1
 -2      1005      1094      1051      4174      4175      4034
 -1      2132    8    0    1
 -2      1048      1079      1060      4127      4176      4177
 -1      2133    8    0    1
 -2      1057      1070      1092      4135      4178      4168
 -1      2134    8    0    1
 -2       998      1041      1095      3997      4179      4180
 -1      2135    8    0    1
 -2       998      1095      1047      4180      4181      4022
 -1      2136    8    0    1
 -2      1082      1048      1060      4139      4177      4182
 -1      2137    8    0    1
 -2      1056       986      1051      4054      4036      4183
 -1      2138    8    0    1
 -2       995      1054      1041      4045      4184      3998
 -1      2139    8    0    1
 -2      1078      1046      1090      4124      4162      4185
 -1      2140    8    0    1
 -2      1027      1084      1085      4143      4186      4145
 -1      2141    8    0    1
 -2      1044      1050      1096      4030      4187      4188
 -1      2142    8    0    1
 -2      1059      1044      1097      4064      4189      4190
 -1      2143    8    0    1
 -2      1044      1096      1097      4188      4191      4189
 -1      2144    8    0    1
 -2      1055      1033      1098      4065      4192      4193
 -1      2145    8    0    1
 -2      1055      1098      1081      4193      4194      4131
 -1      2146    8    0    1
 -2      1086      1038      1092      4149      4195      4196
 -1      2147    8    0    1
 -2      1089      1032      1080      4158      4130      4197
 -1      2148    8    0    1
 -2      1050      1058      1099      4060      4198      4199
 -1      2149    8    0    1
 -2      1050      1099      1096      4199      4200      4187
 -1      2150    8    0    1
 -2      1004      1040      1082      3993      4138      4201
 -1      2151    8    0    1
 -2      1060      1004      1082      4068      4201      4182
 -1      2152    8    0    1
 -2      1038      1045      1092      4012      4169      4195
 -1      2153    8    0    1
 -2      1033      1056      1100      4053      4202      4203
 -1      2154    8    0    1
 -2      1033      1100      1098      4203      4204      4192
 -1      2155    8    0    1
 -2      1099      1058      1078      4198      4125      4205
 -1      2156    8    0    1
 -2      1064      1063      1101      4082      4206      4207
 -1      2157    8    0    1
 -2      1065      1064      1096      4085      4208      4209
 -1      2158    8    0    1
 -2      1066      1065      1099      4088      4210      4211
 -1      2159    8    0    1
 -2      1067      1066      1078      4091      4212      4213
 -1      2160    8    0    1
 -2      1068      1067      1090      4094      4214      4215
 -1      2161    8    0    1
 -2      1069      1068      1086      4097      4216      4217
 -1      2162    8    0    1
 -2      1070      1069      1092      4100      4218      4178
 -1      2163    8    0    1
 -2      1086      1092      1069      4196      4218      4217
 -1      2164    8    0    1
 -2      1071      1052      1081      4104      4133      4219
 -1      2165    8    0    1
 -2      1073      1072      1100      4110      4220      4221
 -1      2166    8    0    1
 -2      1075      1074      1102      4116      4222      4223
 -1      2167    8    0    1
 -2      1076      1075      1083      4119      4224      4225
 -1      2168    8    0    1
 -2      1056      1051      1103      4183      4226      4227
 -1      2169    8    0    1
 -2      1100      1056      1103      4202      4227      4228
 -1      2170    8    0    1
 -2      1051      1094      1103      4175      4229      4226
 -1      2171    8    0    1
 -2      1054      1061      1104      4074      4230      4231
 -1      2172    8    0    1
 -2      1084      1059      1105      4144      4232      4233
 -1      2173    8    0    1
 -2      1059      1097      1105      4190      4234      4232
 -1      2174    8    0    1
 -2      1090      1067      1078      4214      4213      4185
 -1      2175    8    0    1
 -2      1099      1078      1066      4205      4212      4211
 -1      2176    8    0    1
 -2      1049      1085      1106      4147      4235      4236
 -1      2177    8    0    1
 -2      1049      1106      1093      4236      4237      4170
 -1      2178    8    0    1
 -2      1089      1080      1093      4197      4238      4239
 -1      2179    8    0    1
 -2      1083      1087      1076      4153      4240      4225
 -1      2180    8    0    1
 -2      1085      1084      1107      4186      4241      4242
 -1      2181    8    0    1
 -2      1106      1085      1107      4235      4242      4243
 -1      2182    8    0    1
 -2      1084      1105      1107      4233      4244      4241
 -1      2183    8    0    1
 -2      1096      1099      1065      4200      4210      4209
 -1      2184    8    0    1
 -2      1090      1086      1068      4163      4216      4215
 -1      2185    8    0    1
 -2      1062      1088      1107      4156      4245      4246
 -1      2186    8    0    1
 -2      1080      1053      1108      4164      4247      4248
 -1      2187    8    0    1
 -2      1053      1060      1108      4070      4249      4247
 -1      2188    8    0    1
 -2      1088      1089      1106      4160      4250      4251
 -1      2189    8    0    1
 -2      1063      1062      1105      4079      4252      4253
 -1      2190    8    0    1
 -2      1047      1095      1091      4181      4254      4165
 -1      2191    8    0    1
 -2      1089      1093      1106      4239      4237      4250
 -1      2192    8    0    1
 -2      1105      1062      1107      4252      4246      4244
 -1      2193    8    0    1
 -2      1071      1081      1109      4219      4255      4256
 -1      2194    8    0    1
 -2      1083      1075      1102      4224      4223      4257
 -1      2195    8    0    1
 -2      1072      1071      1109      4107      4256      4258
 -1      2196    8    0    1
 -2      1074      1073      1110      4113      4259      4260
 -1      2197    8    0    1
 -2      1081      1098      1109      4194      4261      4255
 -1      2198    8    0    1
 -2      1076      1087      1111      4240      4262      4263
 -1      2199    8    0    1
 -2      1074      1110      1102      4260      4264      4222
 -1      2200    8    0    1
 -2      1088      1106      1107      4251      4243      4245
 -1      2201    8    0    1
 -2      1087      1091      1111      4167      4265      4262
 -1      2202    8    0    1
 -2      1096      1064      1101      4208      4207      4266
 -1      2203    8    0    1
 -2      1041      1054      1104      4184      4231      4267
 -1      2204    8    0    1
 -2      1083      1102      1094      4257      4268      4173
 -1      2205    8    0    1
 -2      1079      1093      1080      4172      4238      4269
 -1      2206    8    0    1
 -2      1060      1079      1108      4176      4270      4249
 -1      2207    8    0    1
 -2      1110      1073      1100      4259      4221      4271
 -1      2208    8    0    1
 -2      1109      1098      1100      4261      4204      4272
 -1      2209    8    0    1
 -2      1094      1102      1110      4268      4264      4273
 -1      2210    8    0    1
 -2      1108      1079      1080      4270      4269      4248
 -1      2211    8    0    1
 -2      1104      1061      1111      4230      4274      4275
 -1      2212    8    0    1
 -2      1101      1063      1105      4206      4253      4276
 -1      2213    8    0    1
 -2      1061      1077      1111      4122      4277      4274
 -1      2214    8    0    1
 -2      1100      1072      1109      4220      4258      4272
 -1      2215    8    0    1
 -2      1105      1097      1101      4234      4278      4276
 -1      2216    8    0    1
 -2      1097      1096      1101      4191      4266      4278
 -1      2217    8    0    1
 -2      1094      1110      1103      4273      4279      4229
 -1      2218    8    0    1
 -2      1104      1111      1091      4275      4265      4280
 -1      2219    8    0    1
 -2      1110      1100      1103      4271      4228      4279
 -1      2220    8    0    1
 -2      1091      1095      1104      4254      4281      4280
 -1      2221    8    0    1
 -2      1076      1111      1077      4263      4277      4123
 -1      2222    8    0    1
 -2      1095      1041      1104      4179      4267      4281
 -3
    1PSTEP                         1           1           1          
  100CL  101 1.000000000        4281                     0    1           1
 -4  DISP        4    1
 -5  D1          1    2    1    0
 -5  D2          1    2    2    0
 -5  D3          1    2    3    0
 -5  ALL         1    2    0    0    1ALL
 -1         1 8.59788E-03-5.21262E-04-3.34081E-14
 -1         2 1.06477E-02 3.53949E-04-3.79547E-14
 -1         3 1.56398E-02 1.87274E-03-1.00094E-13
 -1         4 1.47568E-02 4.69478E-04-1.08299E-13
 -1         5 0.00000E+00 0.00000E+00 0.00000E+00
 -1         6 0.00000E+00 0.00000E+00 0.00000E+00
 -1         7 0.00000E+00 0.00000E+00 0.00000E+00
 -1         8 0.00000E+00 0.00000E+00 0.00000E+00
 -1         9 0.00000E+00 0.00000E+00 0.00000E+00
 -1        10 0.00000E+00 0.00000E+00 0.00000E+00
 -1        11 0.00000E+00 0.00000E+00 0.00000E+00
 -1        12 0.00000E+00 0.00000E+00 0.00000E+00
 -1        13 0.00000E+00 0.00000E+00 0.00000E+00
 -1        14 0.00000E+00 0.00000E+00 0.00000E+00
 -1        15 0.00000E+00 0.00000E+00 0.00000E+00
 -1        16 0.00000E+00 0.00000E+00 0.00000E+00
 -1        17 0.00000E+00 0.00000E+00 0.00000E+00
 -1        18 0.00000E+00 0.00000E+00 0.00000E+00
 -1        19 0.00000E+00 0.00000E+00 0.00000E+00
 -1        20 0.00000E+00 0.00000E+00 0.00000E+00
 -1        21 0.00000E+00 0.00000E+00 0.00000E+00
 -1        22 0.00000E+00 0.00000E+00 0.00000E+00
 -1        23 4.10574E-04-2.60219E-04 1.27766E-17
 -1        24 7.01929E-04-3.99872E-04-8.30194E-17
 -1        25 9.71427E-04-4.96430E-04-2.81849E-16
 -1        26 1.23540E-03-5.64079E-04-5.82593E-16
 -1        27 1.49851E-03-6.11901E-04-9.82094E-16
 -1        28 1.76290E-03-6.45216E-04-1.47906E-15
 -1        29 2.02961E-03-6.67664E-04-2.07169E-15
 -1        30 2.29916E-03-6.81874E-04-2.75847E-15
 -1        31 2.57179E-03-6.89812E-04-3.53941E-15
 -1        32 2.84762E-03-6.92982E-04-4.41126E-15
 -1        33 3.12677E-03-6.92564E-04-5.36977E-15
 -1        34 3.40940E-03-6.89531E-04-6.40865E-15
 -1        35 3.69578E-03-6.84754E-04-7.53260E-15
 -1        36 3.98629E-03-6.79107E-04-8.73893E-15
 -1        37 4.28141E-03-6.73566E-04-1.00281E-14
 -1        38 4.58172E-03-6.69321E-04-1.14023E-14
 -1        39 4.88775E-03-6.67859E-04-1.28537E-14
 -1        40 5.19988E-03-6.71028E-04-1.43789E-14
 -1        41 5.51806E-03-6.81008E-04-1.59846E-14
 -1        42 5.84148E-03-7.00146E-04-1.76748E-14
 -1        43 6.16823E-03-7.30535E-04-1.94598E-14
 -1        44 6.49494E-03-7.73275E-04-2.13418E-14
 -1        45 6.81682E-03-8.27406E-04-2.33267E-14
 -1        46 7.12818E-03-8.88723E-04-2.54163E-14
 -1        47 7.42393E-03-9.49048E-04-2.76095E-14
 -1        48 7.70163E-03-9.96790E-04-2.99037E-14
 -1        49 7.96337E-03-1.01940E-03-3.23071E-14
 -1        50 8.21621E-03-1.00728E-03-3.48229E-14
 -1        51 8.47030E-03-9.57389E-04-3.74473E-14
 -1        52 8.73534E-03-8.74516E-04-4.01716E-14
 -1        53 9.01731E-03-7.69339E-04-4.29888E-14
 -1        54 9.31714E-03-6.54493E-04-4.58943E-14
 -1        55 9.63156E-03-5.40886E-04-4.88850E-14
 -1        56 9.95519E-03-4.35728E-04-5.19446E-14
 -1        57 1.02825E-02-3.42350E-04-5.50707E-14
 -1        58 1.06091E-02-2.61111E-04-5.82527E-14
 -1        59 1.09319E-02-1.90592E-04-6.15023E-14
 -1        60 1.12495E-02-1.28605E-04-6.48137E-14
 -1        61 1.15614E-02-7.28536E-05-6.81842E-14
 -1        62 1.18678E-02-2.12928E-05-7.16088E-14
 -1        63 1.21692E-02 2.77315E-05-7.50942E-14
 -1        64 1.24664E-02 7.54681E-05-7.86478E-14
 -1        65 1.27602E-02 1.22809E-04-8.22763E-14
 -1        66 1.30512E-02 1.70361E-04-8.59542E-14
 -1        67 1.33402E-02 2.18513E-04-8.96658E-14
 -1        68 1.36277E-02 2.67499E-04-9.34055E-14
 -1        69 1.39141E-02 3.17434E-04-9.71517E-14
 -1        70 1.41999E-02 3.68324E-04-1.00905E-13
 -1        71 1.44855E-02 4.20013E-04-1.04688E-13
 -1        72 4.13010E-04 2.60922E-04 6.60042E-17
 -1        73 7.01736E-04 4.02578E-04 6.41611E-17
 -1        74 9.71928E-04 4.98202E-04-8.64651E-18
 -1        75 1.23617E-03 5.65779E-04-1.57663E-16
 -1        76 1.49937E-03 6.13627E-04-3.85417E-16
 -1        77 1.76378E-03 6.46988E-04-6.94713E-16
 -1        78 2.03048E-03 6.69469E-04-1.08719E-15
 -1        79 2.29998E-03 6.83668E-04-1.56178E-15
 -1        80 2.57255E-03 6.91514E-04-2.12199E-15
 -1        81 2.84832E-03 6.94460E-04-2.76756E-15
 -1        82 3.12746E-03 6.93620E-04-3.49980E-15
 -1        83 3.41021E-03 6.89877E-04-4.31166E-15
 -1        84 3.69697E-03 6.83991E-04-5.20810E-15
 -1        85 3.98840E-03 6.76708E-04-6.19341E-15
 -1        86 4.28541E-03 6.68893E-04-7.27495E-15
 -1        87 4.58927E-03 6.61692E-04-8.45649E-15
 -1        88 4.90163E-03 6.56746E-04-9.72593E-15
 -1        89 5.22444E-03 6.56463E-04-1.10830E-14
 -1        90 5.55986E-03 6.64344E-04-1.25249E-14
 -1        91 5.90981E-03 6.85306E-04-1.40532E-14
 -1        92 6.27518E-03 7.25820E-04-1.56747E-14
 -1        93 6.65445E-03 7.93445E-04-1.73796E-14
 -1        94 7.04176E-03 8.95017E-04-1.91739E-14
 -1        95 7.42543E-03 1.03263E-03-2.10557E-14
 -1        96 7.78860E-03 1.19749E-03-2.30335E-14
 -1        97 8.11512E-03 1.36469E-03-2.51188E-14
 -1        98 8.40014E-03 1.49586E-03-2.73302E-14
 -1        99 8.65860E-03 1.55489E-03-2.96481E-14
 -1       100 8.92083E-03 1.52935E-03-3.20711E-14
 -1       101 9.21489E-03 1.43883E-03-3.46083E-14
 -1       102 9.55103E-03 1.32183E-03-3.72499E-14
 -1       103 9.92074E-03 1.21442E-03-3.99959E-14
 -1       104 1.03068E-02 1.13757E-03-4.28278E-14
 -1       105 1.06932E-02 1.09694E-03-4.57418E-14
 -1       106 1.10698E-02 1.08884E-03-4.87501E-14
 -1       107 1.14319E-02 1.10599E-03-5.18424E-14
 -1       108 1.17788E-02 1.14096E-03-5.50145E-14
 -1       109 1.21119E-02 1.18764E-03-5.82554E-14
 -1       110 1.24332E-02 1.24152E-03-6.15628E-14
 -1       111 1.27451E-02 1.29943E-03-6.49418E-14
 -1       112 1.30496E-02 1.35927E-03-6.83821E-14
 -1       113 1.33484E-02 1.41973E-03-7.18594E-14
 -1       114 1.36430E-02 1.47995E-03-7.53643E-14
 -1       115 1.39344E-02 1.53947E-03-7.88761E-14
 -1       116 1.42234E-02 1.59802E-03-8.23916E-14
 -1       117 1.45109E-02 1.65546E-03-8.59307E-14
 -1       118 1.47972E-02 1.71178E-03-8.94996E-14
 -1       119 1.50830E-02 1.76704E-03-9.30971E-14
 -1       120 1.53685E-02 1.82143E-03-9.66984E-14
 -1       121 1.55868E-02 1.78837E-03-1.00595E-13
 -1       122 1.55341E-02 1.70393E-03-1.01115E-13
 -1       123 1.54821E-02 1.61973E-03-1.01620E-13
 -1       124 1.54309E-02 1.53610E-03-1.02111E-13
 -1       125 1.53802E-02 1.45329E-03-1.02583E-13
 -1       126 1.53304E-02 1.37270E-03-1.03070E-13
 -1       127 1.52795E-02 1.29145E-03-1.03582E-13
 -1       128 1.52281E-02 1.21070E-03-1.04077E-13
 -1       129 1.51761E-02 1.13011E-03-1.04573E-13
 -1       130 1.51233E-02 1.04933E-03-1.05072E-13
 -1       131 1.50701E-02 9.68053E-04-1.05565E-13
 -1       132 1.50175E-02 8.87443E-04-1.06054E-13
 -1       133 1.49641E-02 8.04617E-04-1.06539E-13
 -1       134 1.49111E-02 7.21010E-04-1.06999E-13
 -1       135 1.48588E-02 6.36819E-04-1.07441E-13
 -1       136 1.48072E-02 5.52418E-04-1.07880E-13
 -1       137 1.06154E-02 5.34688E-04-3.76145E-14
 -1       138 1.04959E-02 6.91344E-04-3.70595E-14
 -1       139 1.02612E-02 8.54167E-04-3.61955E-14
 -1       140 9.96138E-03 9.84992E-04-3.52256E-14
 -1       141 9.57261E-03 1.09415E-03-3.40717E-14
 -1       142 9.11339E-03 1.16644E-03-3.28111E-14
 -1       143 8.65551E-03 1.19063E-03-3.16330E-14
 -1       144 8.14328E-03 1.16608E-03-3.03857E-14
 -1       145 7.65196E-03 1.09063E-03-2.92498E-14
 -1       146 7.23944E-03 9.83884E-04-2.83460E-14
 -1       147 6.85879E-03 8.38974E-04-2.75617E-14
 -1       148 6.56538E-03 6.77232E-04-2.70137E-14
 -1       149 6.36229E-03 5.05453E-04-2.67006E-14
 -1       150 6.24903E-03 3.18419E-04-2.66190E-14
 -1       151 6.24611E-03 1.34918E-04-2.68019E-14
 -1       152 6.34118E-03-2.95681E-05-2.71884E-14
 -1       153 6.55357E-03-1.93376E-04-2.78598E-14
 -1       154 6.83177E-03-3.22136E-04-2.86666E-14
 -1       155 7.21679E-03-4.32743E-04-2.97338E-14
 -1       156 7.61871E-03-4.99053E-04-3.08145E-14
 -1       157 8.12823E-03-5.33449E-04-3.21792E-14
 -1       158 9.05398E-03-4.71098E-04-3.45791E-14
 -1       159 9.47419E-03-3.88145E-04-3.56341E-14
 -1       160 9.86277E-03-2.71765E-04-3.65733E-14
 -1       161 1.01813E-02-1.33862E-04-3.72911E-14
 -1       162 1.04275E-02 2.32812E-05-3.77741E-14
 -1       163 1.05790E-02 1.82317E-04-3.79903E-14
 -1       164 2.40163E-04-1.25268E-04-2.63529E-17
 -1       165 2.25195E-04-9.43844E-05-3.77065E-17
 -1       166 2.19547E-04-7.25453E-05-4.30869E-17
 -1       167 2.16825E-04-5.48794E-05-4.51807E-17
 -1       168 2.15376E-04-3.97696E-05-4.52621E-17
 -1       169 2.14567E-04-2.57710E-05-4.45810E-17
 -1       170 2.14163E-04-1.25697E-05-4.32359E-17
 -1       171 2.14046E-04 2.67451E-07-4.16435E-17
 -1       172 2.14185E-04 1.31176E-05-3.95293E-17
 -1       173 2.14614E-04 2.63610E-05-3.67036E-17
 -1       174 2.15431E-04 4.01941E-05-3.28310E-17
 -1       175 2.16932E-04 5.56897E-05-2.73829E-17
 -1       176 2.19709E-04 7.35864E-05-1.94343E-17
 -1       177 2.25363E-04 9.57877E-05-7.50471E-18
 -1       178 2.39087E-04 1.27346E-04 1.06489E-17
 -1       179 2.97240E-04 1.85146E-04 3.13267E-17
 -1       180 4.67947E-04-2.62897E-04-7.03783E-17
 -1       181 7.65692E-04-3.80775E-04-2.33073E-16
 -1       182 1.04921E-03-4.62688E-04-4.92038E-16
 -1       183 1.32638E-03-5.20178E-04-8.47328E-16
 -1       184 1.60090E-03-5.60196E-04-1.29723E-15
 -1       185 1.87492E-03-5.87354E-04-1.84060E-15
 -1       186 2.14968E-03-6.04876E-04-2.47732E-15
 -1       187 2.42592E-03-6.15110E-04-3.20593E-15
 -1       188 2.70409E-03-6.19811E-04-4.02423E-15
 -1       189 2.98450E-03-6.20318E-04-4.93074E-15
 -1       190 3.26743E-03-6.17690E-04-5.92081E-15
 -1       191 3.55313E-03-6.12819E-04-6.99294E-15
 -1       192 3.84192E-03-6.06541E-04-8.14972E-15
 -1       193 4.13417E-03-5.99745E-04-9.38835E-15
 -1       194 4.43027E-03-5.93487E-04-1.07108E-14
 -1       195 4.73062E-03-5.89099E-04-1.21148E-14
 -1       196 5.03555E-03-5.88280E-04-1.35943E-14
 -1       197 5.34517E-03-5.93143E-04-1.51535E-14
 -1       198 5.65920E-03-6.06137E-04-1.67955E-14
 -1       199 5.97680E-03-6.29791E-04-1.85228E-14
 -1       200 6.29633E-03-6.66127E-04-2.03464E-14
 -1       201 6.61526E-03-7.15700E-04-2.22705E-14
 -1       202 6.93033E-03-7.76298E-04-2.42972E-14
 -1       203 7.23810E-03-8.41704E-04-2.64252E-14
 -1       204 7.53599E-03-9.01311E-04-2.86568E-14
 -1       205 7.82362E-03-9.41588E-04-3.09939E-14
 -1       206 8.10359E-03-9.49744E-04-3.34412E-14
 -1       207 8.38119E-03-9.18330E-04-3.59977E-14
 -1       208 8.66259E-03-8.48378E-04-3.86574E-14
 -1       209 8.95254E-03-7.48978E-04-4.14173E-14
 -1       210 9.25295E-03-6.33517E-04-4.42678E-14
 -1       211 9.56281E-03-5.15069E-04-4.72054E-14
 -1       212 9.87923E-03-4.03229E-04-5.02197E-14
 -1       213 1.01988E-02-3.03166E-04-5.32990E-14
 -1       214 1.05183E-02-2.16302E-04-5.64465E-14
 -1       215 1.08357E-02-1.41625E-04-5.96589E-14
 -1       216 1.11494E-02-7.69243E-05-6.29324E-14
 -1       217 1.14589E-02-1.96749E-05-6.62645E-14
 -1       218 1.17640E-02 3.24647E-05-6.96551E-14
 -1       219 1.20651E-02 8.14303E-05-7.31050E-14
 -1       220 1.23626E-02 1.28703E-04-7.66122E-14
 -1       221 1.26571E-02 1.75350E-04-8.01865E-14
 -1       222 1.29491E-02 2.22100E-04-8.38196E-14
 -1       223 1.32391E-02 2.69423E-04-8.74952E-14
 -1       224 1.35276E-02 3.17604E-04-9.12019E-14
 -1       225 1.38150E-02 3.66798E-04-9.49291E-14
 -1       226 1.41015E-02 4.17052E-04-9.86713E-14
 -1       227 1.43876E-02 4.68296E-04-1.02432E-13
 -1       228 6.03624E-04 3.30106E-04 1.05744E-17
 -1       229 8.92304E-04 4.30912E-04-7.71173E-17
 -1       230 1.17085E-03 5.01561E-04-2.38386E-16
 -1       231 1.44497E-03 5.51198E-04-4.76703E-16
 -1       232 1.71772E-03 5.85562E-04-7.95703E-16
 -1       233 1.99080E-03 6.08545E-04-1.19733E-15
 -1       234 2.26519E-03 6.22918E-04-1.68134E-15
 -1       235 2.54148E-03 6.30713E-04-2.24812E-15
 -1       236 2.82003E-03 6.33443E-04-2.89922E-15
 -1       237 3.10116E-03 6.32243E-04-3.63588E-15
 -1       238 3.38519E-03 6.27995E-04-4.45581E-15
 -1       239 3.67255E-03 6.21431E-04-5.35857E-15
 -1       240 3.96378E-03 6.13248E-04-6.34909E-15
 -1       241 4.25962E-03 6.04235E-04-7.43219E-15
 -1       242 4.56104E-03 5.95441E-04-8.61123E-15
 -1       243 4.86922E-03 5.88384E-04-9.87990E-15
 -1       244 5.18554E-03 5.85333E-04-1.12367E-14
 -1       245 5.51143E-03 5.89659E-04-1.26764E-14
 -1       246 5.84818E-03 6.06213E-04-1.42028E-14
 -1       247 6.19639E-03 6.41579E-04-1.58222E-14
 -1       248 6.55530E-03 7.03797E-04-1.75282E-14
 -1       249 6.92181E-03 8.00810E-04-1.93218E-14
 -1       250 7.28963E-03 9.36575E-04-2.12017E-14
 -1       251 7.64949E-03 1.10448E-03-2.31765E-14
 -1       252 7.99176E-03 1.28058E-03-2.52592E-14
 -1       253 8.31212E-03 1.42421E-03-2.74615E-14
 -1       254 8.61700E-03 1.49373E-03-2.97744E-14
 -1       255 8.92237E-03 1.47193E-03-3.21933E-14
 -1       256 9.24389E-03 1.37816E-03-3.47272E-14
 -1       257 9.58735E-03 1.25449E-03-3.73693E-14
 -1       258 9.94796E-03 1.14073E-03-4.01085E-14
 -1       259 1.03160E-02 1.05971E-03-4.29400E-14
 -1       260 1.06824E-02 1.01728E-03-4.58570E-14
 -1       261 1.10410E-02 1.00914E-03-4.88627E-14
 -1       262 1.13890E-02 1.02730E-03-5.19474E-14
 -1       263 1.17257E-02 1.06379E-03-5.51044E-14
 -1       264 1.20518E-02 1.11212E-03-5.83341E-14
 -1       265 1.23688E-02 1.16756E-03-6.16337E-14
 -1       266 1.26781E-02 1.22687E-03-6.50018E-14
 -1       267 1.29813E-02 1.28791E-03-6.84325E-14
 -1       268 1.32796E-02 1.34934E-03-7.19020E-14
 -1       269 1.35742E-02 1.41037E-03-7.54033E-14
 -1       270 1.38659E-02 1.47053E-03-7.89174E-14
 -1       271 1.41555E-02 1.52958E-03-8.24399E-14
 -1       272 1.44436E-02 1.58742E-03-8.59819E-14
 -1       273 1.47306E-02 1.64403E-03-8.95503E-14
 -1       274 1.50169E-02 1.69949E-03-9.31403E-14
 -1       275 1.53027E-02 1.75397E-03-9.67337E-14
 -1       276 1.53129E-02 1.69962E-03-9.77462E-14
 -1       277 1.52606E-02 1.61565E-03-9.82462E-14
 -1       278 1.52092E-02 1.53213E-03-9.87367E-14
 -1       279 1.51585E-02 1.44922E-03-9.92243E-14
 -1       280 1.51089E-02 1.36836E-03-9.96961E-14
 -1       281 1.50584E-02 1.28671E-03-1.00184E-13
 -1       282 1.50074E-02 1.20551E-03-1.00679E-13
 -1       283 1.49557E-02 1.12456E-03-1.01167E-13
 -1       284 1.49033E-02 1.04360E-03-1.01645E-13
 -1       285 1.48501E-02 9.62366E-04-1.02120E-13
 -1       286 1.47974E-02 8.82053E-04-1.02586E-13
 -1       287 1.47437E-02 7.99755E-04-1.03052E-13
 -1       288 1.46903E-02 7.16812E-04-1.03507E-13
 -1       289 1.46375E-02 6.33287E-04-1.03949E-13
 -1       290 1.45123E-02 5.50840E-04-1.03196E-13
 -1       291 1.06702E-02 4.15158E-04-3.90757E-14
 -1       292 1.05533E-02 5.18974E-04-3.83807E-14
 -1       293 1.03130E-02 6.37474E-04-3.76516E-14
 -1       294 9.98455E-03 8.04576E-04-3.64665E-14
 -1       295 9.61152E-03 9.81254E-04-3.51724E-14
 -1       296 9.21424E-03 1.14650E-03-3.36958E-14
 -1       297 8.82238E-03 1.24783E-03-3.22518E-14
 -1       298 8.43151E-03 1.26379E-03-3.08141E-14
 -1       299 8.02178E-03 1.17306E-03-2.94176E-14
 -1       300 7.61042E-03 1.01003E-03-2.82744E-14
 -1       301 7.20604E-03 8.14834E-04-2.73149E-14
 -1       302 6.82044E-03 6.18731E-04-2.65653E-14
 -1       303 6.50540E-03 4.55734E-04-2.60799E-14
 -1       304 6.28797E-03 3.19040E-04-2.57429E-14
 -1       305 6.20261E-03 2.19427E-04-2.56836E-14
 -1       306 6.27691E-03 1.23887E-04-2.62229E-14
 -1       307 6.49014E-03 2.46480E-05-2.66255E-14
 -1       308 6.79365E-03-1.40114E-04-2.76607E-14
 -1       309 7.17540E-03-2.98792E-04-2.86686E-14
 -1       310 7.55358E-03-4.59250E-04-2.99732E-14
 -1       311 7.96621E-03-5.80075E-04-3.13652E-14
 -1       312 8.35511E-03-6.09134E-04-3.29233E-14
 -1       313 8.73403E-03-5.52319E-04-3.43338E-14
 -1       314 9.11533E-03-4.28654E-04-3.56595E-14
 -1       315 9.49964E-03-2.56336E-04-3.69103E-14
 -1       316 9.89219E-03-7.78311E-05-3.78610E-14
 -1       317 1.02312E-02 9.34125E-05-3.86703E-14
 -1       318 1.04938E-02 2.18036E-04-3.90309E-14
 -1       319 1.06460E-02 3.24093E-04-3.92269E-14
 -1       320 4.55356E-04-1.64163E-04-1.46828E-16
 -1       321 4.73955E-04-2.12303E-04-1.29809E-16
 -1       322 4.40694E-04-9.34801E-05-1.57521E-16
 -1       323 4.37791E-04-6.44885E-05-1.56738E-16
 -1       324 4.36199E-04-3.76364E-05-1.54052E-16
 -1       325 4.35501E-04-1.19317E-05-1.49796E-16
 -1       326 4.35535E-04 1.34282E-05-1.44155E-16
 -1       327 4.36305E-04 3.91923E-05-1.36948E-16
 -1       328 4.37948E-04 6.57007E-05-1.27123E-16
 -1       329 4.40946E-04 9.48679E-05-1.14156E-16
 -1       330 4.46221E-04 1.27716E-04-9.67752E-17
 -1       331 4.55866E-04 1.66660E-04-7.27466E-17
 -1       332 4.75571E-04 2.16367E-04-3.94243E-17
 -1       333 5.31428E-04 2.69182E-04-1.92751E-17
 -1       334 8.23629E-04 3.71930E-04-1.16470E-16
 -1       335 8.62636E-04-3.55656E-04-3.96713E-16
 -1       336 1.14888E-03-4.23284E-04-7.10783E-16
 -1       337 1.43166E-03-4.70965E-04-1.11706E-15
 -1       338 1.71254E-03-5.03775E-04-1.61418E-15
 -1       339 1.99271E-03-5.25423E-04-2.20277E-15
 -1       340 2.27301E-03-5.38648E-04-2.88132E-15
 -1       341 2.55405E-03-5.45485E-04-3.64782E-15
 -1       342 2.83625E-03-5.47471E-04-4.50224E-15
 -1       343 3.11992E-03-5.45784E-04-5.44214E-15
 -1       344 3.40534E-03-5.41374E-04-6.46464E-15
 -1       345 3.69279E-03-5.35068E-04-7.57057E-15
 -1       346 3.98256E-03-5.27688E-04-8.76023E-15
 -1       347 4.27499E-03-5.20158E-04-1.00314E-14
 -1       348 4.57043E-03-5.13623E-04-1.13860E-14
 -1       349 4.86927E-03-5.09562E-04-1.28193E-14
 -1       350 5.17186E-03-5.09867E-04-1.43306E-14
 -1       351 5.47847E-03-5.16867E-04-1.59230E-14
 -1       352 5.78918E-03-5.33213E-04-1.75984E-14
 -1       353 6.10369E-03-5.61521E-04-1.93651E-14
 -1       354 6.42114E-03-6.03658E-04-2.12278E-14
 -1       355 6.73982E-03-6.59569E-04-2.31920E-14
 -1       356 7.05712E-03-7.25748E-04-2.52586E-14
 -1       357 7.36986E-03-7.93852E-04-2.74244E-14
 -1       358 7.67546E-03-8.50611E-04-2.96954E-14
 -1       359 7.97361E-03-8.80406E-04-3.20755E-14
 -1       360 8.26719E-03-8.70616E-04-3.45659E-14
 -1       361 8.56144E-03-8.17046E-04-3.71633E-14
 -1       362 8.86124E-03-7.26226E-04-3.98606E-14
 -1       363 9.16872E-03-6.12086E-04-4.26525E-14
 -1       364 9.48287E-03-4.90059E-04-4.55360E-14
 -1       365 9.80087E-03-3.72333E-04-4.85039E-14
 -1       366 1.01196E-02-2.66006E-04-5.15414E-14
 -1       367 1.04367E-02-1.73613E-04-5.46487E-14
 -1       368 1.07507E-02-9.46151E-05-5.78201E-14
 -1       369 1.10609E-02-2.68773E-05-6.10560E-14
 -1       370 1.13672E-02 3.22642E-05-6.43539E-14
 -1       371 1.16697E-02 8.53756E-05-6.77087E-14
 -1       372 1.19689E-02 1.34630E-04-7.11215E-14
 -1       373 1.22651E-02 1.81722E-04-7.45912E-14
 -1       374 1.25588E-02 2.27889E-04-7.81217E-14
 -1       375 1.28505E-02 2.73987E-04-8.17121E-14
 -1       376 1.31405E-02 3.20577E-04-8.53485E-14
 -1       377 1.34291E-02 3.68000E-04-8.90226E-14
 -1       378 1.37168E-02 4.16448E-04-9.27238E-14
 -1       379 1.40037E-02 4.66008E-04-9.64414E-14
 -1       380 1.42581E-02 5.08013E-04-9.98081E-14
 -1       381 1.10890E-03 4.45178E-04-2.85382E-16
 -1       382 1.38955E-03 4.96817E-04-5.29917E-16
 -1       383 1.66793E-03 5.32571E-04-8.54280E-16
 -1       384 1.94562E-03 5.56468E-04-1.26023E-15
 -1       385 2.22368E-03 5.71412E-04-1.74794E-15
 -1       386 2.50279E-03 5.79529E-04-2.31764E-15
 -1       387 2.78343E-03 5.82393E-04-2.97162E-15
 -1       388 3.06594E-03 5.81181E-04-3.70951E-15
 -1       389 3.35068E-03 5.76785E-04-4.53137E-15
 -1       390 3.63800E-03 5.69934E-04-5.43564E-15
 -1       391 3.92838E-03 5.61295E-04-6.42697E-15
 -1       392 4.22236E-03 5.51606E-04-7.50894E-15
 -1       393 4.52065E-03 5.41834E-04-8.68379E-15
 -1       394 4.82412E-03 5.33381E-04-9.94897E-15
 -1       395 5.13377E-03 5.28352E-04-1.13020E-14
 -1       396 5.45072E-03 5.29904E-04-1.27376E-14
 -1       397 5.77612E-03 5.42635E-04-1.42620E-14
 -1       398 6.11101E-03 5.72901E-04-1.58755E-14
 -1       399 6.45597E-03 6.28739E-04-1.75787E-14
 -1       400 6.81064E-03 7.18740E-04-1.93676E-14
 -1       401 7.17261E-03 8.48790E-04-2.12424E-14
 -1       402 7.53632E-03 1.01569E-03-2.32104E-14
 -1       403 7.89316E-03 1.19889E-03-2.52831E-14
 -1       404 8.23561E-03 1.35702E-03-2.74721E-14
 -1       405 8.56477E-03 1.44126E-03-2.97756E-14
 -1       406 8.89271E-03 1.42626E-03-3.21889E-14
 -1       407 9.23254E-03 1.33032E-03-3.47164E-14
 -1       408 9.58737E-03 1.20058E-03-3.73548E-14
 -1       409 9.95061E-03 1.08148E-03-4.00904E-14
 -1       410 1.03134E-02 9.97110E-04-4.29174E-14
 -1       411 1.06697E-02 9.53079E-04-4.58312E-14
 -1       412 1.10167E-02 9.44459E-04-4.88324E-14
 -1       413 1.13536E-02 9.62786E-04-5.19088E-14
 -1       414 1.16811E-02 9.99797E-04-5.50556E-14
 -1       415 1.20001E-02 1.04884E-03-5.82758E-14
 -1       416 1.23118E-02 1.10505E-03-6.15636E-14
 -1       417 1.26176E-02 1.16512E-03-6.49237E-14
 -1       418 1.29184E-02 1.22687E-03-6.83456E-14
 -1       419 1.32153E-02 1.28894E-03-7.18110E-14
 -1       420 1.35091E-02 1.35052E-03-7.53071E-14
 -1       421 1.38004E-02 1.41116E-03-7.88205E-14
 -1       422 1.40900E-02 1.47061E-03-8.23440E-14
 -1       423 1.43781E-02 1.52878E-03-8.58875E-14
 -1       424 1.46653E-02 1.58567E-03-8.94536E-14
 -1       425 1.49518E-02 1.64134E-03-9.30420E-14
 -1       426 1.51324E-02 1.67066E-03-9.53955E-14
 -1       427 1.49367E-02 1.44398E-03-9.58615E-14
 -1       428 1.49875E-02 1.52700E-03-9.53746E-14
 -1       429 1.50596E-02 1.59868E-03-9.53872E-14
 -1       430 1.48873E-02 1.36302E-03-9.63333E-14
 -1       431 1.48371E-02 1.28128E-03-9.68105E-14
 -1       432 1.47866E-02 1.20005E-03-9.72866E-14
 -1       433 1.47353E-02 1.11915E-03-9.77637E-14
 -1       434 1.46833E-02 1.03833E-03-9.82349E-14
 -1       435 1.46303E-02 9.57380E-04-9.86952E-14
 -1       436 1.45777E-02 8.77452E-04-9.91455E-14
 -1       437 1.45237E-02 7.95632E-04-9.95967E-14
 -1       438 1.44698E-02 7.13193E-04-1.00039E-13
 -1       439 1.44164E-02 6.30119E-04-1.00476E-13
 -1       440 1.04551E-02 5.14708E-04-3.93925E-14
 -1       441 1.06978E-02 3.84667E-04-4.07943E-14
 -1       442 1.06276E-02 4.43843E-04-4.00939E-14
 -1       443 1.01119E-02 6.69906E-04-3.79349E-14
 -1       444 9.74330E-03 8.53801E-04-3.65414E-14
 -1       445 4.45827E-04-1.25810E-04-1.54966E-16
 -1       446 8.97644E-03 1.22991E-03-3.31656E-14
 -1       447 8.63505E-03 1.30269E-03-3.14886E-14
 -1       448 8.27498E-03 1.26209E-03-2.97135E-14
 -1       449 7.88363E-03 1.09082E-03-2.82204E-14
 -1       450 7.49026E-03 8.76033E-04-2.71202E-14
 -1       451 7.08301E-03 6.41614E-04-2.60608E-14
 -1       452 6.69207E-03 4.58028E-04-2.55122E-14
 -1       453 6.40430E-03 3.21546E-04-2.49134E-14
 -1       454 6.21667E-03 2.41009E-04-2.47921E-14
 -1       455 6.21423E-03 1.77620E-04-2.49036E-14
 -1       456 6.35598E-03 1.21512E-04-2.52829E-14
 -1       457 6.69315E-03-1.96027E-05-2.65516E-14
 -1       458 7.01035E-03-1.61763E-04-2.74432E-14
 -1       459 7.44614E-03-3.75305E-04-2.89377E-14
 -1       460 7.78160E-03-5.27460E-04-3.02906E-14
 -1       461 8.19719E-03-6.43000E-04-3.23220E-14
 -1       462 8.52325E-03-6.16848E-04-3.39231E-14
 -1       463 8.85700E-03-5.06633E-04-3.55049E-14
 -1       464 9.21156E-03-3.28368E-04-3.70287E-14
 -1       465 9.63554E-03-1.04196E-04-3.83851E-14
 -1       466 1.00073E-02 7.66004E-05-3.93054E-14
 -1       467 1.03624E-02 2.37225E-04-4.02039E-14
 -1       468 1.05835E-02 3.18796E-04-4.03641E-14
 -1       469 9.34054E-03 1.06616E-03-3.48250E-14
 -1       470 6.16027E-03 1.97226E-04-2.40186E-14
 -1       471 9.30860E-04 3.44027E-04-2.65111E-16
 -1       472 6.66254E-04-7.44928E-05-3.32179E-16
 -1       473 6.70180E-04-1.14997E-04-3.35456E-16
 -1       474 6.63602E-04 1.08882E-06-3.15754E-16
 -1       475 6.64326E-04 3.84081E-05-3.03045E-16
 -1       476 6.66460E-04 7.61575E-05-2.86927E-16
 -1       477 6.70517E-04 1.16818E-04-2.65619E-16
 -1       478 6.77424E-04 1.61258E-04-2.38372E-16
 -1       479 6.89132E-04 2.11508E-04-2.02654E-16
 -1       480 1.21673E-03 4.03279E-04-4.93061E-16
 -1       481 9.76104E-04-3.26439E-04-5.74891E-16
 -1       482 9.17451E-03 1.16002E-03-3.44171E-14
 -1       483 1.26204E-03-3.80029E-04-9.39380E-16
 -1       484 1.54718E-03-4.18108E-04-1.39280E-15
 -1       485 1.83154E-03-4.44006E-04-1.93496E-15
 -1       486 2.11549E-03-4.60543E-04-2.56537E-15
 -1       487 2.39940E-03-4.69920E-04-3.28227E-15
 -1       488 2.68361E-03-4.73829E-04-4.08616E-15
 -1       489 2.96840E-03-4.73565E-04-4.97462E-15
 -1       490 3.25398E-03-4.70142E-04-5.94727E-15
 -1       491 3.54057E-03-4.64395E-04-7.00350E-15
 -1       492 3.82841E-03-4.57087E-04-8.14299E-15
 -1       493 4.11777E-03-4.49013E-04-9.36476E-15
 -1       494 4.40897E-03-4.41115E-04-1.06681E-14
 -1       495 4.70242E-03-4.34591E-04-1.20535E-14
 -1       496 4.99865E-03-4.31003E-04-1.35171E-14
 -1       497 5.29833E-03-4.32360E-04-1.50610E-14
 -1       498 5.60223E-03-4.41136E-04-1.66857E-14
 -1       499 5.91118E-03-4.60157E-04-1.83974E-14
 -1       500 6.22578E-03-4.92236E-04-2.02025E-14
 -1       501 6.54598E-03-5.39387E-04-2.21035E-14
 -1       502 6.87043E-03-6.01409E-04-2.41059E-14
 -1       503 7.19593E-03-6.73815E-04-2.62086E-14
 -1       504 7.51788E-03-7.45679E-04-2.84126E-14
 -1       505 7.83239E-03-7.99602E-04-3.07263E-14
 -1       506 8.13944E-03-8.16471E-04-3.31507E-14
 -1       507 8.44383E-03-7.83747E-04-3.56830E-14
 -1       508 8.75243E-03-7.03356E-04-3.83206E-14
 -1       509 9.06894E-03-5.90100E-04-4.10545E-14
 -1       510 9.39218E-03-4.63444E-04-4.38809E-14
 -1       511 9.71786E-03-3.39406E-04-4.67968E-14
 -1       512 1.00416E-02-2.27229E-04-4.97911E-14
 -1       513 1.03607E-02-1.30175E-04-5.28549E-14
 -1       514 1.06741E-02-4.77415E-05-5.59896E-14
 -1       515 1.09820E-02 2.23850E-05-5.91866E-14
 -1       516 1.12851E-02 8.30725E-05-6.24476E-14
 -1       517 1.15844E-02 1.37067E-04-6.57679E-14
 -1       518 1.18805E-02 1.86697E-04-6.91453E-14
 -1       519 1.21741E-02 2.33788E-04-7.25792E-14
 -1       520 1.24658E-02 2.79692E-04-7.60702E-14
 -1       521 1.27559E-02 3.25353E-04-7.96203E-14
 -1       522 1.30449E-02 3.71397E-04-8.32174E-14
 -1       523 1.33329E-02 4.18214E-04-8.68570E-14
 -1       524 1.36202E-02 4.66028E-04-9.05317E-14
 -1       525 1.39069E-02 5.14949E-04-9.42237E-14
 -1       526 1.05891E-02 4.70356E-04-4.12270E-14
 -1       527 1.78390E-03 4.74093E-04-1.18202E-15
 -1       528 2.06634E-03 4.92735E-04-1.64743E-15
 -1       529 2.34883E-03 5.03638E-04-2.19380E-15
 -1       530 2.63182E-03 5.08596E-04-2.82300E-15
 -1       531 2.91566E-03 5.08953E-04-3.53544E-15
 -1       532 3.20064E-03 5.05714E-04-4.33078E-15
 -1       533 3.48702E-03 4.99659E-04-5.20917E-15
 -1       534 3.77506E-03 4.91447E-04-6.17177E-15
 -1       535 4.06507E-03 4.81732E-04-7.22247E-15
 -1       536 4.35738E-03 4.71293E-04-8.36311E-15
 -1       537 4.65244E-03 4.61204E-04-9.59448E-15
 -1       538 4.95078E-03 4.53048E-04-1.09130E-14
 -1       539 5.25310E-03 4.49189E-04-1.23166E-14
 -1       540 5.56040E-03 4.53111E-04-1.38054E-14
 -1       541 5.87417E-03 4.69784E-04-1.53843E-14
 -1       542 6.19663E-03 5.05982E-04-1.70515E-14
 -1       543 6.53084E-03 5.70260E-04-1.88041E-14
 -1       544 6.88011E-03 6.71962E-04-2.06433E-14
 -1       545 7.24574E-03 8.17853E-04-2.25691E-14
 -1       546 7.62269E-03 1.00347E-03-2.45911E-14
 -1       547 7.99930E-03 1.19939E-03-2.67197E-14
 -1       548 8.36250E-03 1.34574E-03-2.89669E-14
 -1       549 8.71618E-03 1.38274E-03-3.13302E-14
 -1       550 9.07706E-03 1.30447E-03-3.38124E-14
 -1       551 9.45196E-03 1.16523E-03-3.64070E-14
 -1       552 9.83025E-03 1.02791E-03-3.91112E-14
 -1       553 1.01981E-02 9.26673E-04-4.19036E-14
 -1       554 1.05504E-02 8.70191E-04-4.47845E-14
 -1       555 1.08872E-02 8.52602E-04-4.77485E-14
 -1       556 1.12116E-02 8.64607E-04-5.07912E-14
 -1       557 1.15270E-02 8.97383E-04-5.39059E-14
 -1       558 1.18357E-02 9.43831E-04-5.70887E-14
 -1       559 1.21394E-02 9.98699E-04-6.03427E-14
 -1       560 1.24391E-02 1.05831E-03-6.36646E-14
 -1       561 1.27356E-02 1.12018E-03-6.70567E-14
 -1       562 1.30297E-02 1.18275E-03-7.05008E-14
 -1       563 1.33216E-02 1.24502E-03-7.39789E-14
 -1       564 1.36119E-02 1.30643E-03-7.74841E-14
 -1       565 1.39009E-02 1.36669E-03-8.10040E-14
 -1       566 1.41889E-02 1.42566E-03-8.45397E-14
 -1       567 1.44761E-02 1.48331E-03-8.80984E-14
 -1       568 1.47626E-02 1.53966E-03-9.16816E-14
 -1       569 1.46157E-02 1.27498E-03-9.34470E-14
 -1       570 1.45657E-02 1.19393E-03-9.39140E-14
 -1       571 1.47147E-02 1.43775E-03-9.24995E-14
 -1       572 1.46651E-02 1.35599E-03-9.29793E-14
 -1       573 1.45151E-02 1.11333E-03-9.43786E-14
 -1       574 1.44635E-02 1.03296E-03-9.48367E-14
 -1       575 1.44109E-02 9.52542E-04-9.52884E-14
 -1       576 1.43583E-02 8.73204E-04-9.57264E-14
 -1       577 1.43041E-02 7.92000E-04-9.61683E-14
 -1       578 1.42498E-02 7.10143E-04-9.66016E-14
 -1       579 1.41957E-02 6.27554E-04-9.70283E-14
 -1       580 1.06683E-02 3.71470E-04-4.21947E-14
 -1       581 1.50092E-03 4.45322E-04-7.97786E-16
 -1       582 1.03018E-02 5.81042E-04-3.99497E-14
 -1       583 1.05130E-02 3.21699E-04-4.20235E-14
 -1       584 7.12544E-04-2.50435E-04-3.25457E-16
 -1       585 9.94886E-03 7.42847E-04-3.82568E-14
 -1       586 7.22642E-03-2.63313E-04-2.75546E-14
 -1       587 6.64205E-04-3.61930E-05-3.25613E-16
 -1       588 8.50289E-03 1.32425E-03-3.05610E-14
 -1       589 6.81429E-03-6.88774E-05-2.59342E-14
 -1       590 8.78785E-03 1.30718E-03-3.22106E-14
 -1       591 8.07986E-03 1.18912E-03-2.82559E-14
 -1       592 7.68602E-03 9.61512E-04-2.68185E-14
 -1       593 7.33054E-03 7.45792E-04-2.57687E-14
 -1       594 6.85410E-03 4.87967E-04-2.46994E-14
 -1       595 6.55228E-03 3.52620E-04-2.41139E-14
 -1       596 6.25810E-03 2.44920E-04-2.36087E-14
 -1       597 6.21414E-03 1.50344E-04-2.37820E-14
 -1       598 8.39670E-03-6.52755E-04-3.36183E-14
 -1       599 6.46916E-03 6.66048E-05-2.46887E-14
 -1       600 7.60185E-03-4.55920E-04-2.91350E-14
 -1       601 7.96652E-03-6.10305E-04-3.10315E-14
 -1       602 8.66699E-03-5.81224E-04-3.51936E-14
 -1       603 8.98815E-03-4.28824E-04-3.69253E-14
 -1       604 9.40765E-03-1.91073E-04-3.87624E-14
 -1       605 9.81842E-03 2.77682E-05-3.99972E-14
 -1       606 1.01770E-02 1.92359E-04-4.09149E-14
 -1       607 1.07201E-02 4.19716E-04-4.19390E-14
 -1       608 7.03425E-04 2.89641E-04-1.27238E-16
 -1       609 9.54396E-03 9.65760E-04-3.64583E-14
 -1       610 6.76885E-04-1.59043E-04-3.34422E-16
 -1       611 1.40994E-02 5.47009E-04-9.67397E-14
 -1       612 1.07647E-02 4.07778E-04-4.33483E-14
 -1       613 8.16411E-03-6.64763E-04-3.22883E-14
 -1       614 8.38173E-03 1.31197E-03-2.97094E-14
 -1       615 9.00222E-04 7.32903E-05-5.12628E-16
 -1       616 8.98113E-04 2.48862E-05-5.36074E-16
 -1       617 9.12267E-04 1.76591E-04-4.46773E-16
 -1       618 9.24480E-04 2.34902E-04-4.00165E-16
 -1       619 1.04892E-03 3.11456E-04-4.39664E-16
 -1       620 1.01768E-02 6.81084E-04-4.03184E-14
 -1       621 1.33472E-03 3.57707E-04-7.25511E-16
 -1       622 9.82890E-03 8.59074E-04-3.84633E-14
 -1       623 8.72478E-04-2.45372E-04-5.05547E-16
 -1       624 1.38352E-03-3.33035E-04-1.17795E-15
 -1       625 1.66978E-03-3.62128E-04-1.67496E-15
 -1       626 1.95610E-03-3.81578E-04-2.25903E-15
 -1       627 2.24230E-03-3.93448E-04-2.92754E-15
 -1       628 2.52838E-03-3.99437E-04-3.68142E-15
 -1       629 2.81442E-03-4.00891E-04-4.52030E-15
 -1       630 3.10049E-03-3.98857E-04-5.44263E-15
 -1       631 3.38672E-03-3.94173E-04-6.44786E-15
 -1       632 3.67323E-03-3.87548E-04-7.53723E-15
 -1       633 3.96018E-03-3.79656E-04-8.70986E-15
 -1       634 4.24783E-03-3.71234E-04-9.96396E-15
 -1       635 4.53654E-03-3.63181E-04-1.12994E-14
 -1       636 4.82686E-03-3.56667E-04-1.27138E-14
 -1       637 5.11962E-03-3.53236E-04-1.42093E-14
 -1       638 5.41597E-03-3.54913E-04-1.57865E-14
 -1       639 5.71746E-03-3.64273E-04-1.74443E-14
 -1       640 6.02594E-03-3.84441E-04-1.91921E-14
 -1       641 6.34315E-03-4.18856E-04-2.10346E-14
 -1       642 6.66990E-03-4.70472E-04-2.29724E-14
 -1       643 7.00476E-03-5.39926E-04-2.50091E-14
 -1       644 7.34277E-03-6.22013E-04-2.71468E-14
 -1       645 7.67647E-03-7.01457E-04-2.93934E-14
 -1       646 8.00003E-03-7.52275E-04-3.17486E-14
 -1       647 8.31563E-03-7.50162E-04-3.42179E-14
 -1       648 8.63283E-03-6.85019E-04-3.67937E-14
 -1       649 8.95902E-03-5.71297E-04-3.94698E-14
 -1       650 9.29433E-03-4.36013E-04-4.22395E-14
 -1       651 9.63221E-03-3.02657E-04-4.50999E-14
 -1       652 9.96547E-03-1.83828E-04-4.80456E-14
 -1       653 1.02900E-02-8.29758E-05-5.10690E-14
 -1       654 1.06051E-02 1.34809E-06-5.41641E-14
 -1       655 1.09118E-02 7.23553E-05-5.73264E-14
 -1       656 1.12119E-02 1.33456E-04-6.05515E-14
 -1       657 1.15074E-02 1.87643E-04-6.38354E-14
 -1       658 1.17996E-02 2.37334E-04-6.71775E-14
 -1       659 1.20896E-02 2.84380E-04-7.05778E-14
 -1       660 1.23781E-02 3.30138E-04-7.40316E-14
 -1       661 1.26657E-02 3.75565E-04-7.75414E-14
 -1       662 1.29527E-02 4.21298E-04-8.11020E-14
 -1       663 1.32392E-02 4.67740E-04-8.47059E-14
 -1       664 1.35254E-02 5.15124E-04-8.83512E-14
 -1       665 1.38115E-02 5.63569E-04-9.20228E-14
 -1       666 1.07318E-02 4.54046E-04-4.31516E-14
 -1       667 1.40036E-02 5.95305E-04-9.45211E-14
 -1       668 1.90611E-03 4.12716E-04-1.53147E-15
 -1       669 2.76202E-03 4.36120E-04-3.34710E-15
 -1       670 3.04760E-03 4.34497E-04-4.11664E-15
 -1       671 3.33354E-03 4.29804E-04-4.96811E-15
 -1       672 3.61994E-03 4.22720E-04-5.90405E-15
 -1       673 3.90687E-03 4.13858E-04-6.92541E-15
 -1       674 4.19440E-03 4.03874E-04-8.03412E-15
 -1       675 4.48260E-03 3.93594E-04-9.23200E-15
 -1       676 4.77160E-03 3.84168E-04-1.05174E-14
 -1       677 5.06162E-03 3.77260E-04-1.18891E-14
 -1       678 5.35323E-03 3.75271E-04-1.33451E-14
 -1       679 5.64758E-03 3.81615E-04-1.48884E-14
 -1       680 5.94695E-03 4.01073E-04-1.65197E-14
 -1       681 6.25550E-03 4.40295E-04-1.82376E-14
 -1       682 6.57969E-03 5.08434E-04-2.00409E-14
 -1       683 6.92778E-03 6.17563E-04-2.19273E-14
 -1       684 7.30514E-03 7.80003E-04-2.39022E-14
 -1       685 1.04568E-02 7.82995E-04-4.37351E-14
 -1       686 1.07844E-02 7.61284E-04-4.66675E-14
 -1       687 1.10952E-02 7.70280E-04-4.96733E-14
 -1       688 1.13959E-02 8.00308E-04-5.27537E-14
 -1       689 1.16911E-02 8.44330E-04-5.59048E-14
 -1       690 1.19833E-02 8.97289E-04-5.91239E-14
 -1       691 1.22738E-02 9.55582E-04-6.24140E-14
 -1       692 1.25633E-02 1.01670E-03-6.57747E-14
 -1       693 1.28521E-02 1.07895E-03-6.91902E-14
 -1       694 1.31402E-02 1.14125E-03-7.26520E-14
 -1       695 1.34279E-02 1.20292E-03-7.61440E-14
 -1       696 1.37151E-02 1.26358E-03-7.96567E-14
 -1       697 1.40020E-02 1.32305E-03-8.31897E-14
 -1       698 1.42884E-02 1.38124E-03-8.67424E-14
 -1       699 1.45017E-02 1.40988E-03-8.96151E-14
 -1       700 1.42441E-02 1.02704E-03-9.14644E-14
 -1       701 1.43449E-02 1.18689E-03-9.05606E-14
 -1       702 1.41920E-02 9.47401E-04-9.19034E-14
 -1       703 1.42950E-02 1.10676E-03-9.10175E-14
 -1       704 1.06505E-02 3.65604E-04-4.37670E-14
 -1       705 1.41396E-02 8.68898E-04-9.23319E-14
 -1       706 1.40853E-02 7.88544E-04-9.27661E-14
 -1       707 1.40304E-02 7.07473E-04-9.31991E-14
 -1       708 1.62056E-03 3.90564E-04-1.08885E-15
 -1       709 6.59839E-03-1.89950E-05-2.44910E-14
 -1       710 6.08174E-03 1.68224E-04-2.24676E-14
 -1       711 2.47668E-03 4.33826E-04-2.65952E-15
 -1       712 2.19144E-03 4.26510E-04-2.05518E-15
 -1       713 1.12709E-03-2.94407E-04-8.06945E-16
 -1       714 8.81481E-03-5.24369E-04-3.66270E-14
 -1       715 1.00320E-02 1.34032E-04-4.18231E-14
 -1       716 7.35280E-03-3.78014E-04-2.75683E-14
 -1       717 9.04684E-04 1.23337E-04-4.83619E-16
 -1       718 9.04278E-04-1.20949E-04-5.75965E-16
 -1       719 6.99232E-03-1.99782E-04-2.59498E-14
 -1       720 7.83947E-03 1.07051E-03-2.66365E-14
 -1       721 7.69635E-03-5.38366E-04-2.93945E-14
 -1       722 7.54155E-03 8.82706E-04-2.55919E-14
 -1       723 7.04887E-03 5.94957E-04-2.40649E-14
 -1       724 6.66654E-03 4.04674E-04-2.32732E-14
 -1       725 6.11413E-03 2.04314E-04-2.20714E-14
 -1       726 6.26090E-03 9.51818E-05-2.31487E-14
 -1       727 6.31692E-03 2.69127E-04-2.25595E-14
 -1       728 9.20608E-03-3.15542E-04-3.89399E-14
 -1       729 1.03828E-02 2.77960E-04-4.29451E-14
 -1       730 1.05296E-02 5.30514E-04-4.21187E-14
 -1       731 8.56328E-03-6.25237E-04-3.50125E-14
 -1       732 9.65610E-03-5.58894E-05-4.06842E-14
 -1       733 8.04271E-03 1.19010E-03-2.74904E-14
 -1       734 9.11641E-04-1.73986E-04-5.78615E-16
 -1       735 8.98042E-04-2.28948E-05-5.54234E-16
 -1       736 1.08286E-02 4.39414E-04-4.45745E-14
 -1       737 6.06349E-03 1.28102E-04-2.18577E-14
 -1       738 1.01037E-02 8.47641E-04-4.08824E-14
 -1       739 1.44526E-02 1.32821E-03-9.00938E-14
 -1       740 1.39210E-02 6.35681E-04-9.26163E-14
 -1       741 7.89463E-03-6.29389E-04-3.06019E-14
 -1       742 8.33653E-03-6.80225E-04-3.36451E-14
 -1       743 8.99993E-04-7.10328E-05-5.67539E-16
 -1       744 1.43987E-02 1.25722E-03-9.03322E-14
 -1       745 1.16195E-03 2.40970E-04-6.66981E-16
 -1       746 1.79748E-03-3.03191E-04-1.96246E-15
 -1       747 2.08492E-03-3.16883E-04-2.58432E-15
 -1       748 2.37235E-03-3.24671E-04-3.28976E-15
 -1       749 2.65951E-03-3.27822E-04-4.07941E-15
 -1       750 2.94626E-03-3.27355E-04-4.95223E-15
 -1       751 3.23252E-03-3.24073E-04-5.90820E-15
 -1       752 3.51827E-03-3.18627E-04-6.94614E-15
 -1       753 3.80355E-03-3.11578E-04-8.06791E-15
 -1       754 4.08844E-03-3.03477E-04-9.27287E-15
 -1       755 4.37320E-03-2.94943E-04-1.05589E-14
 -1       756 4.65825E-03-2.86749E-04-1.19237E-14
 -1       757 4.94430E-03-2.79926E-04-1.33688E-14
 -1       758 5.23252E-03-2.75877E-04-1.48981E-14
 -1       759 5.52467E-03-2.76539E-04-1.65073E-14
 -1       760 5.82320E-03-2.84600E-04-1.81998E-14
 -1       761 6.13128E-03-3.03763E-04-1.99844E-14
 -1       762 6.45223E-03-3.38859E-04-2.18624E-14
 -1       763 6.78808E-03-3.95360E-04-2.38336E-14
 -1       764 7.13734E-03-4.76260E-04-2.59014E-14
 -1       765 7.49216E-03-5.75209E-04-2.80755E-14
 -1       766 8.84385E-03-5.62423E-04-3.78921E-14
 -1       767 9.19474E-03-4.11717E-04-4.06088E-14
 -1       768 9.54927E-03-2.62405E-04-4.34178E-14
 -1       769 9.89585E-03-1.33905E-04-4.63126E-14
 -1       770 1.02281E-02-2.95138E-05-4.92927E-14
 -1       771 1.05457E-02 5.48650E-05-5.23483E-14
 -1       772 1.08511E-02 1.24611E-04-5.54731E-14
 -1       773 1.11477E-02 1.84327E-04-5.86620E-14
 -1       774 1.14385E-02 2.37462E-04-6.19122E-14
 -1       775 1.17258E-02 2.86490E-04-6.52215E-14
 -1       776 1.20111E-02 3.33174E-04-6.85853E-14
 -1       777 1.22955E-02 3.78755E-04-7.20037E-14
 -1       778 1.25796E-02 4.24088E-04-7.54761E-14
 -1       779 1.28638E-02 4.69744E-04-7.90050E-14
 -1       780 1.31481E-02 5.16082E-04-8.25722E-14
 -1       781 1.34327E-02 5.63308E-04-8.61806E-14
 -1       782 1.36767E-02 5.99130E-04-8.93898E-14
 -1       783 2.89312E-03 3.62917E-04-3.89042E-15
 -1       784 3.74958E-03 3.47134E-04-6.61766E-15
 -1       785 4.03376E-03 3.38482E-04-7.69645E-15
 -1       786 4.31698E-03 3.29182E-04-8.86276E-15
 -1       787 4.59901E-03 3.20081E-04-1.01163E-14
 -1       788 4.87963E-03 3.12321E-04-1.14550E-14
 -1       789 5.15877E-03 3.07468E-04-1.28778E-14
 -1       790 5.43674E-03 3.07637E-04-1.43860E-14
 -1       791 5.71471E-03 3.15676E-04-1.59827E-14
 -1       792 5.99543E-03 3.35530E-04-1.76646E-14
 -1       793 6.28460E-03 3.73403E-04-1.94325E-14
 -1       794 6.59215E-03 4.39278E-04-2.12845E-14
 -1       795 1.07127E-02 6.67417E-04-4.55839E-14
 -1       796 1.15638E-02 7.51176E-04-5.47209E-14
 -1       797 1.18415E-02 8.02125E-04-5.79113E-14
 -1       798 1.21203E-02 8.58424E-04-6.11684E-14
 -1       799 1.24005E-02 9.17881E-04-6.44935E-14
 -1       800 1.26821E-02 9.78906E-04-6.78840E-14
 -1       801 1.29649E-02 1.04039E-03-7.13210E-14
 -1       802 1.32485E-02 1.10160E-03-7.47984E-14
 -1       803 1.35328E-02 1.16208E-03-7.83005E-14
 -1       804 1.38176E-02 1.22157E-03-8.18290E-14
 -1       805 1.41027E-02 1.27995E-03-8.53807E-14
 -1       806 1.42777E-02 1.30435E-03-8.77332E-14
 -1       807 6.69151E-03-1.30249E-04-2.42067E-14
 -1       808 1.39738E-02 9.41577E-04-8.85456E-14
 -1       809 1.08210E-02 4.09895E-04-4.55468E-14
 -1       810 1.38120E-02 7.04905E-04-8.98166E-14
 -1       811 8.68442E-03-6.00255E-04-3.62952E-14
 -1       812 6.14124E-03 2.32219E-04-2.11632E-14
 -1       813 5.97066E-03 1.66445E-04-2.08992E-14
 -1       814 6.35655E-03 8.60412E-06-2.28822E-14
 -1       815 1.38673E-02 7.84923E-04-8.93902E-14
 -1       816 1.12856E-02 7.08581E-04-5.15995E-14
 -1       817 1.10041E-02 6.78493E-04-4.85588E-14
 -1       818 1.04497E-02 6.58161E-04-4.29196E-14
 -1       819 1.05738E-02 3.30124E-04-4.49382E-14
 -1       820 2.60672E-03 3.62710E-04-3.14625E-15
 -1       821 3.46465E-03 3.54480E-04-5.62441E-15
 -1       822 3.17913E-03 3.59940E-04-4.71564E-15
 -1       823 1.07733E-02 5.12796E-04-4.47874E-14
 -1       824 1.51051E-03-2.82114E-04-1.42476E-15
 -1       825 2.32000E-03 3.58433E-04-2.48380E-15
 -1       826 2.03305E-03 3.48954E-04-1.90309E-15
 -1       827 7.09784E-03-3.22849E-04-2.60100E-14
 -1       828 9.91946E-03 5.48917E-05-4.28045E-14
 -1       829 7.46506E-03-5.06009E-04-2.79415E-14
 -1       830 1.24651E-03 2.97565E-04-7.00940E-16
 -1       831 9.50462E-03-1.72063E-04-4.11740E-14
 -1       832 6.35159E-03 3.17158E-04-2.12333E-14
 -1       833 1.02627E-02 2.09868E-04-4.41284E-14
 -1       834 9.00158E-03-4.56492E-04-3.84832E-14
 -1       835 1.13857E-03 5.82206E-05-8.05559E-16
 -1       836 1.39213E-02 8.63488E-04-8.89690E-14
 -1       837 1.13716E-03 1.18189E-06-8.35273E-16
 -1       838 1.37444E-02 6.52150E-04-8.96056E-14
 -1       839 1.07958E-02 3.86998E-04-4.67395E-14
 -1       840 1.09067E-02 4.90533E-04-4.62348E-14
 -1       841 6.11269E-03 6.64743E-05-2.16046E-14
 -1       842 8.50580E-03-6.75583E-04-3.52765E-14
 -1       843 1.53261E-03 3.30662E-04-1.05793E-15
 -1       844 1.14956E-03-1.73883E-04-8.84086E-16
 -1       845 1.15023E-03 1.76914E-04-7.23054E-16
 -1       846 1.40751E-02 1.09915E-03-8.76738E-14
 -1       847 1.41285E-02 1.16849E-03-8.74520E-14
 -1       848 1.40252E-02 1.02022E-03-8.81136E-14
 -1       849 1.78265E-03 3.43222E-04-1.44793E-15
 -1       850 1.13585E-03-2.32712E-04-8.50455E-16
 -1       851 5.94370E-03 1.87633E-04-2.00218E-14
 -1       852 1.14273E-03 1.16329E-04-7.68672E-16
 -1       853 1.14236E-03-1.13640E-04-8.74924E-16
 -1       854 9.22634E-03-3.45684E-04-4.00531E-14
 -1       855 2.21714E-03-2.50240E-04-2.91195E-15
 -1       856 2.50508E-03-2.54675E-04-3.65299E-15
 -1       857 2.79250E-03-2.55640E-04-4.47704E-15
 -1       858 3.07906E-03-2.53855E-04-5.38316E-15
 -1       859 3.36458E-03-2.49889E-04-6.37167E-15
 -1       860 3.64889E-03-2.44195E-04-7.44176E-15
 -1       861 3.93193E-03-2.37163E-04-8.59595E-15
 -1       862 4.21373E-03-2.29174E-04-9.83202E-15
 -1       863 4.49448E-03-2.20661E-04-1.11478E-14
 -1       864 4.77463E-03-2.12179E-04-1.25437E-14
 -1       865 5.05500E-03-2.04494E-04-1.40214E-14
 -1       866 5.33703E-03-1.98732E-04-1.55811E-14
 -1       867 5.62299E-03-1.96632E-04-1.72241E-14
 -1       868 5.91631E-03-2.01008E-04-1.89534E-14
 -1       869 6.22169E-03-2.16583E-04-2.07729E-14
 -1       870 6.54488E-03-2.50071E-04-2.26835E-14
 -1       871 9.59717E-03-1.81175E-04-4.28470E-14
 -1       872 9.95141E-03-5.07243E-05-4.57287E-14
 -1       873 1.02839E-02 4.82490E-05-4.86933E-14
 -1       874 1.05973E-02 1.25270E-04-5.17387E-14
 -1       875 1.08963E-02 1.88416E-04-5.48509E-14
 -1       876 1.11861E-02 2.43173E-04-5.80267E-14
 -1       877 1.14704E-02 2.93009E-04-6.12642E-14
 -1       878 1.17519E-02 3.40089E-04-6.45625E-14
 -1       879 1.20322E-02 3.85807E-04-6.79146E-14
 -1       880 1.23124E-02 4.31078E-04-7.13213E-14
 -1       881 1.25932E-02 4.76499E-04-7.47829E-14
 -1       882 1.28746E-02 5.22455E-04-7.82946E-14
 -1       883 1.31568E-02 5.69176E-04-8.18474E-14
 -1       884 1.34398E-02 6.16792E-04-8.54379E-14
 -1       885 4.15675E-03 2.66456E-04-8.48609E-15
 -1       886 1.05425E-02 2.81051E-04-4.67869E-14
 -1       887 3.87659E-03 2.73957E-04-7.35032E-15
 -1       888 4.70872E-03 2.51968E-04-1.10142E-14
 -1       889 4.97935E-03 2.46842E-04-1.24045E-14
 -1       890 5.24564E-03 2.44766E-04-1.38785E-14
 -1       891 5.50728E-03 2.47291E-04-1.54399E-14
 -1       892 5.76464E-03 2.56287E-04-1.70876E-14
 -1       893 6.01947E-03 2.74407E-04-1.88199E-14
 -1       894 1.22452E-02 8.24835E-04-6.32215E-14
 -1       895 1.92910E-03-2.41445E-04-2.25410E-15
 -1       896 1.19758E-02 7.67918E-04-5.99275E-14
 -1       897 1.17107E-02 7.14216E-04-5.66987E-14
 -1       898 1.25183E-02 8.83678E-04-6.65784E-14
 -1       899 1.27945E-02 9.43434E-04-6.99901E-14
 -1       900 1.30731E-02 1.00336E-03-7.34452E-14
 -1       901 1.33537E-02 1.06294E-03-7.69382E-14
 -1       902 1.36357E-02 1.12185E-03-8.04612E-14
 -1       903 1.39188E-02 1.17994E-03-8.40029E-14
 -1       904 1.01637E-02 1.26128E-04-4.51386E-14
 -1       905 4.43432E-03 2.58853E-04-9.70770E-15
 -1       906 8.14458E-03-6.96944E-04-3.24213E-14
 -1       907 6.76885E-03-2.63527E-04-2.40679E-14
 -1       908 1.35949E-02 7.02125E-04-8.64652E-14
 -1       909 1.14501E-02 6.65323E-04-5.35417E-14
 -1       910 1.13838E-03-5.57132E-05-8.58465E-16
 -1       911 2.73860E-03 2.90946E-04-3.65283E-15
 -1       912 3.59432E-03 2.80705E-04-6.29993E-15
 -1       913 1.64163E-03-2.27224E-04-1.67921E-15
 -1       914 1.09637E-02 4.54965E-04-4.72285E-14
 -1       915 2.45138E-03 2.89034E-04-2.93356E-15
 -1       916 2.16367E-03 2.83162E-04-2.29633E-15
 -1       917 6.39546E-03-9.18118E-05-2.24184E-14
 -1       918 5.87582E-03 1.19796E-04-2.00510E-14
 -1       919 1.44706E-03 2.72855E-04-1.01753E-15
 -1       920 1.38961E-03-1.68558E-04-1.24544E-15
 -1       921 1.09682E-02 5.79534E-04-4.77013E-14
 -1       922 1.42030E-02 1.23605E-03-8.75984E-14
 -1       923 6.14013E-03-1.58644E-05-2.11624E-14
 -1       924 1.09893E-02 4.38508E-04-4.84448E-14
 -1       925 3.02502E-03 2.89753E-04-4.45227E-15
 -1       926 1.37042E-02 8.57644E-04-8.56356E-14
 -1       927 9.82329E-03-5.22586E-05-4.38547E-14
 -1       928 1.38600E-02 1.08903E-03-8.44498E-14
 -1       929 1.38114E-02 1.01093E-03-8.48847E-14
 -1       930 1.38097E-03 3.35088E-05-1.16584E-15
 -1       931 1.37588E-02 9.34241E-04-8.52627E-14
 -1       932 1.91218E-03 2.81876E-04-1.79292E-15
 -1       933 1.12056E-02 6.18620E-04-5.05875E-14
 -1       934 3.31036E-03 2.86147E-04-5.33457E-15
 -1       935 1.38427E-03 9.82594E-05-1.12176E-15
 -1       936 5.87505E-03 6.83290E-05-1.98110E-14
 -1       937 5.79744E-03 1.41729E-04-1.92039E-14
 -1       938 6.01949E-03 2.33497E-04-1.96750E-14
 -1       939 1.36504E-02 7.80461E-04-8.60523E-14
 -1       940 2.64020E-03-1.83913E-04-4.01673E-15
 -1       941 2.92722E-03-1.83424E-04-4.87380E-15
 -1       942 3.21290E-03-1.80982E-04-5.81236E-15
 -1       943 3.49691E-03-1.76924E-04-6.83195E-15
 -1       944 3.77900E-03-1.71502E-04-7.93472E-15
 -1       945 4.05899E-03-1.64913E-04-9.11964E-15
 -1       946 4.33678E-03-1.57329E-04-1.03871E-14
 -1       947 4.61245E-03-1.48933E-04-1.17333E-14
 -1       948 4.88634E-03-1.39971E-04-1.31606E-14
 -1       949 5.15920E-03-1.30833E-04-1.46709E-14
 -1       950 5.43244E-03-1.22220E-04-1.62620E-14
 -1       951 5.70852E-03-1.15503E-04-1.79397E-14
 -1       952 5.99169E-03-1.13664E-04-1.97045E-14
 -1       953 4.00214E-03 2.04005E-04-8.10040E-15
 -1       954 1.11051E-02 5.30849E-04-4.91687E-14
 -1       955 1.01661E-02 5.83717E-05-4.67700E-14
 -1       956 1.05685E-02 1.87982E-04-4.99284E-14
 -1       957 1.08587E-02 2.44833E-04-5.30015E-14
 -1       958 1.11390E-02 2.94331E-04-5.61404E-14
 -1       959 1.14144E-02 3.40578E-04-5.93416E-14
 -1       960 1.16880E-02 3.85534E-04-6.26055E-14
 -1       961 1.19615E-02 4.30223E-04-6.59244E-14
 -1       962 1.22361E-02 4.75200E-04-6.92969E-14
 -1       963 1.25121E-02 5.20771E-04-7.27266E-14
 -1       964 1.27897E-02 5.67101E-04-7.62093E-14
 -1       965 1.30688E-02 6.14274E-04-7.97316E-14
 -1       966 5.07498E-03 1.88457E-04-1.33650E-14
 -1       967 4.81501E-03 1.89993E-04-1.19241E-14
 -1       968 5.57092E-03 1.95661E-04-1.65044E-14
 -1       969 1.26272E-02 8.51035E-04-6.86628E-14
 -1       970 2.06403E-03-1.77100E-04-2.54925E-15
 -1       971 1.23580E-02 7.93917E-04-6.52832E-14
 -1       972 1.46279E-03 1.94598E-04-1.14381E-15
 -1       973 1.18358E-02 6.84709E-04-5.86900E-14
 -1       974 1.38086E-03-3.06789E-05-1.20113E-15
 -1       975 1.08457E-02 3.61594E-04-4.91630E-14
 -1       976 1.29004E-02 9.08837E-04-7.20928E-14
 -1       977 1.31768E-02 9.66784E-04-7.55680E-14
 -1       978 1.34556E-02 1.02449E-03-7.90839E-14
 -1       979 1.15852E-02 6.34310E-04-5.54931E-14
 -1       980 3.72330E-03 2.09274E-04-6.99389E-15
 -1       981 1.67925E-03 2.80373E-04-1.37665E-15
 -1       982 2.58520E-03 2.18806E-04-3.40503E-15
 -1       983 2.29735E-03 2.15697E-04-2.71140E-15
 -1       984 5.81612E-03 1.93660E-04-1.85503E-14
 -1       985 1.33794E-02 6.98645E-04-8.31527E-14
 -1       986 1.20938E-02 7.38188E-04-6.19556E-14
 -1       987 1.34349E-02 7.75010E-04-8.27467E-14
 -1       988 2.35229E-03-1.81997E-04-3.24185E-15
 -1       989 1.38390E-03-9.52197E-05-1.22823E-15
 -1       990 5.32746E-03 1.90010E-04-1.48908E-14
 -1       991 1.77620E-03-1.68562E-04-1.93931E-15
 -1       992 4.27757E-03 1.98592E-04-9.29166E-15
 -1       993 1.11809E-02 5.11140E-04-5.04164E-14
 -1       994 1.08409E-02 3.05837E-04-5.10765E-14
 -1       995 1.34909E-02 8.50388E-04-8.23780E-14
 -1       996 1.62684E-03 1.55441E-06-1.59352E-15
 -1       997 1.13529E-02 5.85158E-04-5.25000E-14
 -1       998 1.34095E-02 9.48652E-04-7.95159E-14
 -1       999 5.68786E-03 9.08505E-05-1.83988E-14
 -1      1000 4.54883E-03 1.93668E-04-1.05658E-14
 -1      1001 2.87218E-03 2.19137E-04-4.17913E-15
 -1      1002 2.04520E-03 2.18045E-04-2.15995E-15
 -1      1003 3.44169E-03 2.13869E-04-5.97205E-15
 -1      1004 1.62869E-03 7.16508E-05-1.54345E-15
 -1      1005 1.24605E-02 7.63369E-04-6.73450E-14
 -1      1006 4.92235E-03 1.34218E-04-1.28441E-14
 -1      1007 2.77761E-03-1.12846E-04-4.37943E-15
 -1      1008 3.06373E-03-1.11682E-04-5.26800E-15
 -1      1009 3.34801E-03-1.09264E-04-6.23802E-15
 -1      1010 3.62999E-03-1.05718E-04-7.28873E-15
 -1      1011 3.90931E-03-1.01091E-04-8.42301E-15
 -1      1012 4.18564E-03-9.53801E-05-9.63919E-15
 -1      1013 4.45869E-03-8.85159E-05-1.09374E-14
 -1      1014 4.72831E-03-8.03957E-05-1.23152E-14
 -1      1015 4.99451E-03-7.09058E-05-1.37743E-14
 -1      1016 5.25760E-03-5.99807E-05-1.53163E-14
 -1      1017 5.51845E-03-4.78393E-05-1.69411E-14
 -1      1018 5.77882E-03-3.51257E-05-1.86530E-14
 -1      1019 1.11041E-02 3.47643E-04-5.41740E-14
 -1      1020 1.13655E-02 3.88864E-04-5.73350E-14
 -1      1021 1.16278E-02 4.30940E-04-6.05619E-14
 -1      1022 1.18924E-02 4.74286E-04-6.38432E-14
 -1      1023 1.21598E-02 5.18967E-04-6.71879E-14
 -1      1024 1.24301E-02 5.64897E-04-7.05819E-14
 -1      1025 1.27032E-02 6.11934E-04-7.40314E-14
 -1      1026 1.29789E-02 6.59968E-04-7.75264E-14
 -1      1027 3.15783E-03 2.17315E-04-5.03405E-15
 -1      1028 1.30008E-02 8.73907E-04-7.42015E-14
 -1      1029 5.56187E-03 1.36255E-04-1.71337E-14
 -1      1030 1.10899E-02 4.30172E-04-5.10349E-14
 -1      1031 1.27285E-02 8.18297E-04-7.07470E-14
 -1      1032 2.49014E-03-1.12549E-04-3.57234E-15
 -1      1033 1.16942E-02 6.08946E-04-5.74572E-14
 -1      1034 5.68051E-03 2.85906E-05-1.82151E-14
 -1      1035 1.91386E-03-1.06345E-04-2.20371E-15
 -1      1036 1.32067E-02 7.16979E-04-8.01276E-14
 -1      1037 1.69545E-03 1.97328E-04-1.52375E-15
 -1      1038 5.17261E-03 1.37251E-04-1.43370E-14
 -1      1039 2.43379E-03 1.46948E-04-3.14932E-15
 -1      1040 1.66063E-03 1.33519E-04-1.53887E-15
 -1      1041 1.34513E-02 8.99935E-04-8.09463E-14
 -1      1042 2.20197E-03-1.10496E-04-2.84742E-15
 -1      1043 1.64584E-03-6.68272E-05-1.66427E-15
 -1      1044 3.85274E-03 1.40707E-04-7.70578E-15
 -1      1045 5.37276E-03 1.34813E-04-1.57028E-14
 -1      1046 4.66386E-03 1.33823E-04-1.14359E-14
 -1      1047 1.32044E-02 9.11376E-04-7.68472E-14
 -1      1048 2.14563E-03 1.43507E-04-2.48252E-15
 -1      1049 2.72132E-03 1.48218E-04-3.89683E-15
 -1      1050 4.12794E-03 1.37726E-04-8.86675E-15
 -1      1051 1.21978E-02 7.09674E-04-6.39907E-14
 -1      1052 1.10965E-02 3.93008E-04-5.26019E-14
 -1      1053 1.89296E-03-3.33563E-05-2.12342E-15
 -1      1054 1.32640E-02 7.91185E-04-7.97675E-14
 -1      1055 1.13296E-02 5.10768E-04-5.30549E-14
 -1      1056 1.19417E-02 6.57902E-04-6.06909E-14
 -1      1057 5.48108E-03 5.80247E-05-1.68343E-14
 -1      1058 4.39864E-03 1.35229E-04-1.01102E-14
 -1      1059 3.57384E-03 1.43665E-04-6.62832E-15
 -1      1060 1.89319E-03 4.11164E-05-2.06728E-15
 -1      1061 1.30381E-02 7.33047E-04-7.71741E-14
 -1      1062 3.20225E-03-4.08787E-05-5.65904E-15
 -1      1063 3.48480E-03-3.91577E-05-6.65925E-15
 -1      1064 3.76452E-03-3.66917E-05-7.74187E-15
 -1      1065 4.04078E-03-3.33979E-05-8.90605E-15
 -1      1066 4.31315E-03-2.90102E-05-1.01544E-14
 -1      1067 4.58108E-03-2.32540E-05-1.14828E-14
 -1      1068 4.84400E-03-1.57491E-05-1.28923E-14
 -1      1069 5.10130E-03-6.05082E-06-1.43838E-14
 -1      1070 5.35245E-03 6.40852E-06-1.59580E-14
 -1      1071 1.13406E-02 4.29927E-04-5.57295E-14
 -1      1072 1.15908E-02 4.69712E-04-5.89276E-14
 -1      1073 1.18461E-02 5.12255E-04-6.21810E-14
 -1      1074 1.21068E-02 5.57034E-04-6.54927E-14
 -1      1075 1.23720E-02 6.03651E-04-6.88640E-14
 -1      1076 1.26411E-02 6.51761E-04-7.22869E-14
 -1      1077 1.28389E-02 6.92042E-04-7.47214E-14
 -1      1078 4.52299E-03 7.60587E-05-1.09410E-14
 -1      1079 2.28498E-03 7.60003E-05-2.88749E-15
 -1      1080 2.34277E-03-4.20497E-05-3.14574E-15
 -1      1081 1.13745E-02 4.83716E-04-5.46577E-14
 -1      1082 1.90277E-03 1.39740E-04-1.98211E-15
 -1      1083 1.25550E-02 7.31490E-04-6.94053E-14
 -1      1084 3.29192E-03 1.46163E-04-5.63484E-15
 -1      1085 3.00756E-03 1.47813E-04-4.72543E-15
 -1      1086 5.03641E-03 8.36999E-05-1.37764E-14
 -1      1087 1.28238E-02 7.84257E-04-7.28350E-14
 -1      1088 2.91733E-03-4.19420E-05-4.73956E-15
 -1      1089 2.63062E-03-4.23531E-05-3.90143E-15
 -1      1090 4.78357E-03 7.87110E-05-1.23169E-14
 -1      1091 1.30252E-02 8.20013E-04-7.54678E-14
 -1      1092 5.22220E-03 7.29244E-05-1.50073E-14
 -1      1093 2.57292E-03 7.73376E-05-3.60753E-15
 -1      1094 1.22910E-02 6.79959E-04-6.60270E-14
 -1      1095 1.32465E-02 8.64047E-04-7.82756E-14
 -1      1096 3.98416E-03 7.51589E-05-8.43352E-15
 -1      1097 3.70782E-03 7.58258E-05-7.30340E-15
 -1      1098 1.15535E-02 5.29352E-04-5.66532E-14
 -1      1099 4.25616E-03 7.50725E-05-9.64619E-15
 -1      1100 1.17958E-02 5.73018E-04-5.98711E-14
 -1      1101 3.62393E-03 2.90162E-05-7.07607E-15
 -1      1102 1.22908E-02 6.38386E-04-6.68265E-14
 -1      1103 1.20403E-02 6.25043E-04-6.29224E-14
 -1      1104 1.31202E-02 8.09271E-04-7.71704E-14
 -1      1105 3.42789E-03 7.66702E-05-6.25558E-15
 -1      1106 2.85984E-03 7.77105E-05-4.40870E-15
 -1      1107 3.14505E-03 7.74017E-05-5.29125E-15
 -1      1108 2.13143E-03 3.01024E-05-2.58364E-15
 -1      1109 1.15784E-02 5.02218E-04-5.78205E-14
 -1      1110 1.20311E-02 5.90604E-04-6.34880E-14
 -1      1111 1.29546E-02 7.47704E-04-7.55804E-14
 -1      1112 0.00000E+00 0.00000E+00 0.00000E+00
 -1      1113 0.00000E+00 0.00000E+00 0.00000E+00
 -1      1114 0.00000E+00 0.00000E+00 0.00000E+00
 -1      1115 0.00000E+00 0.00000E+00 0.00000E+00
 -1      1116 0.00000E+00 0.00000E+00 0.00000E+00
 -1      1117 0.00000E+00 0.00000E+00 0.00000E+00
 -1      1118 0.00000E+00 0.00000E+00 0.00000E+00
 -1      1119 0.00000E+00 0.00000E+00 0.00000E+00
 -1      1120 0.00000E+00 0.00000E+00 0.00000E+00
 -1      1121 0.00000E+00 0.00000E+00 0.00000E+00
 -1      1122 0.00000E+00 0.00000E+00 0.00000E+00
 -1      1123 0.00000E+00 0.00000E+00 0.00000E+00
 -1      1124 0.00000E+00 0.00000E+00 0.00000E+00
 -1      1125 0.00000E+00 0.00000E+00 0.00000E+00
 -1      1126 0.00000E+00 0.00000E+00 0.00000E+00
 -1      1127 0.00000E+00 0.00000E+00 0.00000E+00
 -1      1128 0.00000E+00 0.00000E+00 0.00000E+00
 -1      1129 2.11260E-04-1.48103E-04 4.58075E-18
 -1      1130 5.50519E-04-3.36786E-04-4.96700E-17
 -1      1131 8.31738E-04-4.57573E-04-1.94655E-16
 -1      1132 1.10077E-03-5.38304E-04-4.44984E-16
 -1      1133 1.36572E-03-5.94298E-04-7.95588E-16
 -1      1134 1.63020E-03-6.33384E-04-1.24450E-15
 -1      1135 1.89612E-03-6.60138E-04-1.78933E-15
 -1      1136 2.16445E-03-6.77610E-04-2.42833E-15
 -1      1137 2.43566E-03-6.88018E-04-3.16176E-15
 -1      1138 2.70997E-03-6.93041E-04-3.98725E-15
 -1      1139 2.98753E-03-6.93976E-04-4.90321E-15
 -1      1140 3.26847E-03-6.91862E-04-5.90256E-15
 -1      1141 3.55303E-03-6.87584E-04-6.98325E-15
 -1      1142 3.84152E-03-6.81979E-04-8.14846E-15
 -1      1143 4.13437E-03-6.75937E-04-9.39616E-15
 -1      1144 4.43211E-03-6.70514E-04-1.07271E-14
 -1      1145 4.73527E-03-6.67032E-04-1.21403E-14
 -1      1146 5.04431E-03-6.67168E-04-1.36284E-14
 -1      1147 5.35936E-03-6.72991E-04-1.51944E-14
 -1      1148 5.68000E-03-6.86889E-04-1.68431E-14
 -1      1149 6.00488E-03-7.11293E-04-1.85823E-14
 -1      1150 6.33140E-03-7.48101E-04-2.04162E-14
 -1      1151 6.65554E-03-7.97715E-04-2.23499E-14
 -1      1152 6.97211E-03-8.57785E-04-2.43867E-14
 -1      1153 7.27575E-03-9.22047E-04-2.65279E-14
 -1      1154 7.56261E-03-9.80070E-04-2.87731E-14
 -1      1155 7.83245E-03-1.01879E-03-3.11211E-14
 -1      1156 8.08979E-03-1.02602E-03-3.35784E-14
 -1      1157 8.34327E-03-9.94733E-04-3.61505E-14
 -1      1158 8.60289E-03-9.25918E-04-3.88267E-14
 -1      1159 8.87653E-03-8.28145E-04-4.15951E-14
 -1      1160 9.16758E-03-7.14202E-04-4.44556E-14
 -1      1161 9.47475E-03-5.96768E-04-4.74001E-14
 -1      1162 9.79370E-03-4.85329E-04-5.04239E-14
 -1      1163 1.01190E-02-3.85132E-04-5.35165E-14
 -1      1164 1.04457E-02-2.97749E-04-5.66715E-14
 -1      1165 1.07702E-02-2.22317E-04-5.98863E-14
 -1      1166 1.10903E-02-1.56747E-04-6.31640E-14
 -1      1167 1.14050E-02-9.86036E-05-6.65054E-14
 -1      1168 1.17141E-02-4.56062E-05-6.99020E-14
 -1      1169 1.20180E-02 4.14154E-06-7.33585E-14
 -1      1170 1.23174E-02 5.21003E-05-7.68788E-14
 -1      1171 1.26129E-02 9.93295E-05-8.04719E-14
 -1      1172 1.29054E-02 1.46559E-04-8.41263E-14
 -1      1173 1.31955E-02 1.94268E-04-8.78212E-14
 -1      1174 1.34838E-02 2.42752E-04-9.15418E-14
 -1      1175 1.37708E-02 2.92177E-04-9.52854E-14
 -1      1176 1.40569E-02 3.42605E-04-9.90332E-14
 -1      1177 1.43426E-02 3.93969E-04-1.02798E-13
 -1      1178 1.46210E-02 4.44646E-04-1.06498E-13
 -1      1179 2.27987E-04 1.60462E-04 3.30411E-17
 -1      1180 5.52678E-04 3.41416E-04 5.75034E-17
 -1      1181 8.32640E-04 4.59745E-04 1.92446E-17
 -1      1182 1.10162E-03 5.39991E-04-9.31194E-17
 -1      1183 1.36655E-03 5.95966E-04-2.82828E-16
 -1      1184 1.63103E-03 6.35111E-04-5.51913E-16
 -1      1185 1.89696E-03 6.61917E-04-9.03317E-16
 -1      1186 2.16527E-03 6.79412E-04-1.33560E-15
 -1      1187 2.43644E-03 6.89785E-04-1.85329E-15
 -1      1188 2.71071E-03 6.94672E-04-2.45635E-15
 -1      1189 2.98824E-03 6.95311E-04-3.14688E-15
 -1      1190 3.26926E-03 6.92660E-04-3.91794E-15
 -1      1191 3.55410E-03 6.87499E-04-4.77217E-15
 -1      1192 3.84329E-03 6.80533E-04-5.71475E-15
 -1      1193 4.13762E-03 6.72511E-04-6.74824E-15
 -1      1194 4.43818E-03 6.64367E-04-7.88010E-15
 -1      1195 4.74641E-03 6.57412E-04-9.10327E-15
 -1      1196 5.06409E-03 6.53575E-04-1.04158E-14
 -1      1197 5.39323E-03 6.55732E-04-1.18173E-14
 -1      1198 5.73581E-03 6.68082E-04-1.33048E-14
 -1      1199 6.09322E-03 6.96489E-04-1.48786E-14
 -1      1200 6.46515E-03 7.48496E-04-1.65426E-14
 -1      1201 6.84811E-03 8.32356E-04-1.82900E-14
 -1      1202 7.23363E-03 9.54088E-04-2.01279E-14
 -1      1203 7.60766E-03 1.11179E-03-2.20607E-14
 -1      1204 7.95335E-03 1.28855E-03-2.40927E-14
 -1      1205 8.25930E-03 1.44972E-03-2.62376E-14
 -1      1206 8.53000E-03 1.55249E-03-2.85015E-14
 -1      1207 8.78882E-03 1.56803E-03-3.08749E-14
 -1      1208 9.06624E-03 1.50060E-03-3.33551E-14
 -1      1209 9.38171E-03 1.38453E-03-3.59429E-14
 -1      1210 9.73541E-03 1.26237E-03-3.86380E-14
 -1      1211 1.01137E-02 1.16501E-03-4.14284E-14
 -1      1212 1.04999E-02 1.10522E-03-4.42969E-14
 -1      1213 1.08810E-02 1.08222E-03-4.72561E-14
 -1      1214 1.12501E-02 1.08903E-03-5.03032E-14
 -1      1215 1.16044E-02 1.11741E-03-5.34367E-14
 -1      1216 1.19443E-02 1.16019E-03-5.66472E-14
 -1      1217 1.22716E-02 1.21196E-03-5.99175E-14
 -1      1218 1.25883E-02 1.26892E-03-6.32591E-14
 -1      1219 1.28966E-02 1.32853E-03-6.66684E-14
 -1      1220 1.31984E-02 1.38917E-03-7.01259E-14
 -1      1221 1.34952E-02 1.44982E-03-7.36157E-14
 -1      1222 1.37883E-02 1.50989E-03-7.71231E-14
 -1      1223 1.40786E-02 1.56903E-03-8.06332E-14
 -1      1224 1.43669E-02 1.62708E-03-8.41603E-14
 -1      1225 1.46539E-02 1.68397E-03-8.77141E-14
 -1      1226 1.49400E-02 1.73972E-03-9.12983E-14
 -1      1227 1.52256E-02 1.79445E-03-9.48982E-14
 -1      1228 1.55041E-02 1.84719E-03-9.83985E-14
 -1      1229 1.56132E-02 1.83065E-03-1.00339E-13
 -1      1230 1.55602E-02 1.74624E-03-1.00854E-13
 -1      1231 1.55079E-02 1.66190E-03-1.01371E-13
 -1      1232 1.54563E-02 1.57798E-03-1.01866E-13
 -1      1233 1.54054E-02 1.49475E-03-1.02349E-13
 -1      1234 1.53553E-02 1.41305E-03-1.02828E-13
 -1      1235 1.53051E-02 1.33212E-03-1.03329E-13
 -1      1236 1.52540E-02 1.25110E-03-1.03832E-13
 -1      1237 1.52023E-02 1.17040E-03-1.04326E-13
 -1      1238 1.51499E-02 1.08970E-03-1.04822E-13
 -1      1239 1.50968E-02 1.00865E-03-1.05315E-13
 -1      1240 1.50438E-02 9.27689E-04-1.05809E-13
 -1      1241 1.49907E-02 8.45970E-04-1.06301E-13
 -1      1242 1.49374E-02 7.62752E-04-1.06771E-13
 -1      1243 1.48847E-02 6.78852E-04-1.07217E-13
 -1      1244 1.48328E-02 5.94544E-04-1.07660E-13
 -1      1245 1.47819E-02 5.10857E-04-1.08097E-13
 -1      1246 1.06841E-02 4.31340E-04-3.78271E-14
 -1      1247 1.05909E-02 5.79052E-04-3.73698E-14
 -1      1248 1.03901E-02 7.31686E-04-3.66677E-14
 -1      1249 1.00944E-02 8.87668E-04-3.57573E-14
 -1      1250 9.73413E-03 1.03129E-03-3.47053E-14
 -1      1251 9.30975E-03 1.15174E-03-3.34950E-14
 -1      1252 8.86595E-03 1.22124E-03-3.22726E-14
 -1      1253 8.40512E-03 1.22687E-03-3.10521E-14
 -1      1254 7.92511E-03 1.16264E-03-2.98458E-14
 -1      1255 7.48247E-03 1.04490E-03-2.88152E-14
 -1      1256 7.07625E-03 8.91684E-04-2.79526E-14
 -1      1257 6.71669E-03 7.19475E-04-2.72730E-14
 -1      1258 6.44116E-03 5.51001E-04-2.68348E-14
 -1      1259 6.25930E-03 3.87035E-04-2.66297E-14
 -1      1260 6.19289E-03 2.27135E-04-2.66838E-14
 -1      1261 6.25018E-03 7.75294E-05-2.69822E-14
 -1      1262 6.42659E-03-7.30720E-05-2.75146E-14
 -1      1263 6.70122E-03-2.22515E-04-2.82720E-14
 -1      1264 7.05240E-03-3.61923E-04-2.92164E-14
 -1      1265 7.45323E-03-4.77074E-04-3.03051E-14
 -1      1266 7.89640E-03-5.51364E-04-3.15333E-14
 -1      1267 8.36414E-03-5.72904E-04-3.28398E-14
 -1      1268 8.80416E-03-5.34380E-04-3.40435E-14
 -1      1269 9.22879E-03-4.46122E-04-3.51572E-14
 -1      1270 9.63553E-03-3.19772E-04-3.61569E-14
 -1      1271 1.00059E-02-1.71003E-04-3.69805E-14
 -1      1272 1.03143E-02-1.50752E-05-3.75714E-14
 -1      1273 1.05377E-02 1.35741E-04-3.79093E-14
 -1      1274 1.06643E-02 2.81121E-04-3.80050E-14
 -1      1275 1.66415E-04-1.10192E-04-9.25638E-18
 -1      1276 1.12448E-04-5.69103E-05-2.36763E-17
 -1      1277 1.17483E-04-6.75075E-05-1.96241E-17
 -1      1278 1.08402E-04-4.34251E-05-3.00731E-17
 -1      1279 1.10232E-04-4.95411E-05-2.82164E-17
 -1      1280 2.26186E-04-1.07442E-04-6.68546E-17
 -1      1281 1.06874E-04-3.35385E-05-3.29055E-17
 -1      1282 1.07695E-04-3.82621E-05-3.22008E-17
 -1      1283 2.19095E-04-8.22739E-05-7.76560E-17
 -1      1284 1.06131E-04-2.52736E-05-3.41795E-17
 -1      1285 1.06545E-04-2.93048E-05-3.39762E-17
 -1      1286 2.15954E-04-6.30881E-05-8.27246E-17
 -1      1287 1.05750E-04-1.80211E-05-3.42201E-17
 -1      1288 1.05970E-04-2.15810E-05-3.42879E-17
 -1      1289 2.14356E-04-4.70044E-05-8.44458E-17
 -1      1290 1.05544E-04-1.11891E-05-3.38949E-17
 -1      1291 1.05661E-04-1.45608E-05-3.41117E-17
 -1      1292 2.13476E-04-3.26011E-05-8.43645E-17
 -1      1293 1.05451E-04-4.66825E-06-3.30682E-17
 -1      1294 1.05501E-04-7.90431E-06-3.33257E-17
 -1      1295 2.13001E-04-1.90911E-05-8.30634E-17
 -1      1296 1.05442E-04 1.73068E-06-3.19569E-17
 -1      1297 1.05440E-04-1.46426E-06-3.23363E-17
 -1      1298 2.12797E-04-6.12946E-06-8.08408E-17
 -1      1299 1.05511E-04 8.18121E-06-3.03712E-17
 -1      1300 1.05457E-04 4.93820E-06-3.08456E-17
 -1      1301 2.12807E-04 6.66635E-06-7.78051E-17
 -1      1302 1.05679E-04 1.48650E-05-2.83654E-17
 -1      1303 1.05557E-04 1.14775E-05-2.89889E-17
 -1      1304 2.13031E-04 1.96557E-05-7.37935E-17
 -1      1305 1.05995E-04 2.18722E-05-2.54652E-17
 -1      1306 1.05770E-04 1.82876E-05-2.64003E-17
 -1      1307 2.13523E-04 3.31091E-05-6.83861E-17
 -1      1308 1.06589E-04 2.97397E-05-2.17247E-17
 -1      1309 1.06166E-04 2.56636E-05-2.30664E-17
 -1      1310 2.14427E-04 4.76111E-05-6.12032E-17
 -1      1311 1.07734E-04 3.88479E-05-1.62766E-17
 -1      1312 1.06908E-04 3.40516E-05-1.83095E-17
 -1      1313 2.16068E-04 6.40205E-05-5.15945E-17
 -1      1314 1.10210E-04 5.02836E-05-8.51099E-18
 -1      1315 1.08406E-04 4.40988E-05-1.18720E-17
 -1      1316 2.19196E-04 8.35280E-05-3.83130E-17
 -1      1317 1.16797E-04 6.75462E-05 2.81893E-18
 -1      1318 1.12093E-04 5.77123E-05-2.54788E-18
 -1      1319 2.26169E-04 1.09265E-04-2.00171E-17
 -1      1320 1.57296E-04 1.09709E-04 1.95970E-17
 -1      1321 1.35460E-04 8.59870E-05 9.82558E-18
 -1      1322 2.55706E-04 1.51857E-04 1.40946E-18
 -1      1323 3.34477E-04 2.20367E-04 3.02357E-17
 -1      1324 4.20801E-04-2.61228E-04-5.46031E-17
 -1      1325 5.73630E-04-3.35984E-04-1.04531E-16
 -1      1326 7.20569E-04-3.96231E-04-1.82119E-16
 -1      1327 8.63504E-04-4.45112E-04-2.84833E-16
 -1      1328 6.11203E-04-3.29964E-04-1.66452E-16
 -1      1329 1.00331E-03-4.85705E-04-4.11875E-16
 -1      1330 1.14097E-03-5.19142E-04-5.63826E-16
 -1      1331 9.04076E-04-4.29825E-04-3.76882E-16
 -1      1332 1.27729E-03-5.47282E-04-7.40009E-16
 -1      1333 1.41281E-03-5.70596E-04-9.40816E-16
 -1      1334 1.18623E-03-4.98129E-04-6.83888E-16
 -1      1335 1.54796E-03-5.90138E-04-1.16535E-15
 -1      1336 1.68300E-03-6.06236E-04-1.41387E-15
 -1      1337 1.46302E-03-5.45435E-04-1.08645E-15
 -1      1338 1.81821E-03-6.19503E-04-1.68600E-15
 -1      1339 1.95368E-03-6.30227E-04-1.98130E-15
 -1      1340 1.73775E-03-5.77848E-04-1.58311E-15
 -1      1341 2.08958E-03-6.38796E-04-2.30007E-15
 -1      1342 2.22596E-03-6.45456E-04-2.64239E-15
 -1      1343 2.01237E-03-5.99267E-04-2.17309E-15
 -1      1344 2.36289E-03-6.50466E-04-3.00786E-15
 -1      1345 2.50042E-03-6.54034E-04-3.39579E-15
 -1      1346 2.28801E-03-6.12423E-04-2.85537E-15
 -1      1347 2.63859E-03-6.56338E-04-3.80692E-15
 -1      1348 2.77743E-03-6.57551E-04-4.24011E-15
 -1      1349 2.56530E-03-6.19316E-04-3.62853E-15
 -1      1350 2.91696E-03-6.57801E-04-4.69495E-15
 -1      1351 3.05722E-03-6.57236E-04-5.17211E-15
 -1      1352 2.84465E-03-6.21450E-04-4.49036E-15
 -1      1353 3.19823E-03-6.55949E-04-5.66923E-15
 -1      1354 3.34002E-03-6.54074E-04-6.18658E-15
 -1      1355 3.12637E-03-6.19987E-04-5.43832E-15
 -1      1356 3.48264E-03-6.51687E-04-6.72522E-15
 -1      1357 3.62611E-03-6.48919E-04-7.28465E-15
 -1      1358 3.41073E-03-6.15866E-04-6.46946E-15
 -1      1359 3.77050E-03-6.45844E-04-7.86517E-15
 -1      1360 3.91583E-03-6.42599E-04-8.46601E-15
 -1      1361 3.69803E-03-6.09918E-04-7.58435E-15
 -1      1362 4.06217E-03-6.39274E-04-9.08796E-15
 -1      1363 4.20957E-03-6.36024E-04-9.73069E-15
 -1      1364 3.98860E-03-6.02970E-04-8.78248E-15
 -1      1365 4.35810E-03-6.32972E-04-1.03940E-14
 -1      1366 4.50780E-03-6.30300E-04-1.10771E-14
 -1      1367 4.28281E-03-5.95965E-04-1.00627E-14
 -1      1368 4.65873E-03-6.28184E-04-1.17802E-14
 -1      1369 4.81092E-03-6.26839E-04-1.25035E-14
 -1      1370 4.58106E-03-5.90072E-04-1.14243E-14
 -1      1371 4.96442E-03-6.26508E-04-1.32460E-14
 -1      1372 5.11923E-03-6.27440E-04-1.40078E-14
 -1      1373 4.88369E-03-5.86803E-04-1.28655E-14
 -1      1374 5.27533E-03-6.29955E-04-1.47897E-14
 -1      1375 5.43267E-03-6.34321E-04-1.55909E-14
 -1      1376 5.19089E-03-5.88089E-04-1.43860E-14
 -1      1377 5.59116E-03-6.40922E-04-1.64143E-14
 -1      1378 5.75066E-03-6.50010E-04-1.72594E-14
 -1      1379 5.50258E-03-5.96293E-04-1.59874E-14
 -1      1380 5.91097E-03-6.61985E-04-1.81259E-14
 -1      1381 6.07181E-03-6.77013E-04-1.90172E-14
 -1      1382 5.81816E-03-6.14061E-04-1.76732E-14
 -1      1383 6.23287E-03-6.95405E-04-1.99323E-14
 -1      1384 6.39373E-03-7.17135E-04-2.08702E-14
 -1      1385 6.13644E-03-6.43923E-04-1.94492E-14
 -1      1386 6.55394E-03-7.42249E-04-2.18358E-14
 -1      1387 6.71300E-03-7.70390E-04-2.28265E-14
 -1      1388 6.45537E-03-6.87496E-04-2.13247E-14
 -1      1389 6.87036E-03-8.01125E-04-2.38422E-14
 -1      1390 7.02553E-03-8.33635E-04-2.48831E-14
 -1      1391 6.77214E-03-7.44277E-04-2.33002E-14
 -1      1392 7.17802E-03-8.66844E-04-2.59500E-14
 -1      1393 7.32748E-03-8.99438E-04-2.70443E-14
 -1      1394 7.08348E-03-8.10198E-04-2.53774E-14
 -1      1395 7.47368E-03-9.29732E-04-2.81638E-14
 -1      1396 7.61660E-03-9.56101E-04-2.93086E-14
 -1      1397 7.38641E-03-8.76589E-04-2.75571E-14
 -1      1398 7.75642E-03-9.76620E-04-3.04808E-14
 -1      1399 7.89361E-03-9.89775E-04-3.16788E-14
 -1      1400 7.67937E-03-9.30577E-04-2.98418E-14
 -1      1401 8.02877E-03-9.94047E-04-3.29056E-14
 -1      1402 8.16276E-03-9.88561E-04-3.41594E-14
 -1      1403 7.96341E-03-9.57820E-04-3.22349E-14
 -1      1404 8.29649E-03-9.72827E-04-3.54403E-14
 -1      1405 8.43093E-03-9.46969E-04-3.67498E-14
 -1      1406 8.24242E-03-9.47137E-04-3.47364E-14
 -1      1407 8.56695E-03-9.11755E-04-3.80837E-14
 -1      1408 8.70532E-03-8.68252E-04-3.94406E-14
 -1      1409 8.52214E-03-8.94958E-04-3.73440E-14
 -1      1410 8.84658E-03-8.18137E-04-4.08226E-14
 -1      1411 8.99105E-03-7.63005E-04-4.22275E-14
 -1      1412 8.80805E-03-8.06904E-04-4.00533E-14
 -1      1413 9.13882E-03-7.04774E-04-4.36556E-14
 -1      1414 9.28978E-03-6.45022E-04-4.51042E-14
 -1      1415 9.10343E-03-6.95369E-04-4.28572E-14
 -1      1416 9.44362E-03-5.85307E-04-4.65738E-14
 -1      1417 9.59993E-03-5.26829E-04-4.80625E-14
 -1      1418 9.40862E-03-5.74713E-04-4.57502E-14
 -1      1419 9.75822E-03-4.70501E-04-4.95714E-14
 -1      1420 9.91796E-03-4.17024E-04-5.10987E-14
 -1      1421 9.72165E-03-4.56939E-04-4.87241E-14
 -1      1422 1.00786E-02-3.66696E-04-5.26423E-14
 -1      1423 1.02398E-02-3.19783E-04-5.42020E-14
 -1      1424 1.00394E-02-3.49572E-04-5.17706E-14
 -1      1425 1.04009E-02-2.76154E-04-5.57768E-14
 -1      1426 1.05617E-02-2.35780E-04-5.73669E-14
 -1      1427 1.03586E-02-2.55698E-04-5.48850E-14
 -1      1428 1.07219E-02-1.98314E-04-5.89733E-14
 -1      1429 1.08813E-02-1.63564E-04-6.05954E-14
 -1      1430 1.06768E-02-1.75183E-04-5.80615E-14
 -1      1431 1.10396E-02-1.31125E-04-6.22340E-14
 -1      1432 1.11968E-02-1.00743E-04-6.38879E-14
 -1      1433 1.09921E-02-1.06097E-04-6.13043E-14
 -1      1434 1.13528E-02-7.20465E-05-6.55550E-14
 -1      1435 1.15076E-02-4.47784E-05-6.72363E-14
 -1      1436 1.13036E-02-4.58403E-05-6.46065E-14
 -1      1437 1.16612E-02-1.86413E-05-6.89348E-14
 -1      1438 1.18136E-02 6.59331E-06-7.06476E-14
 -1      1439 1.16109E-02 8.16280E-06-6.79682E-14
 -1      1440 1.19649E-02 3.11434E-05-7.23715E-14
 -1      1441 1.21152E-02 5.51963E-05-7.41124E-14
 -1      1442 1.19140E-02 5.81209E-05-7.13871E-14
 -1      1443 1.22645E-02 7.89000E-05-7.58709E-14
 -1      1444 1.24129E-02 1.02400E-04-7.76464E-14
 -1      1445 1.22134E-02 1.05766E-04-7.48653E-14
 -1      1446 1.25606E-02 1.25789E-04-7.94380E-14
 -1      1447 1.27074E-02 1.49174E-04-8.12448E-14
 -1      1448 1.25094E-02 1.52368E-04-7.84086E-14
 -1      1449 1.28536E-02 1.72610E-04-8.30648E-14
 -1      1450 1.29993E-02 1.96172E-04-8.48980E-14
 -1      1451 1.28028E-02 1.98809E-04-8.20125E-14
 -1      1452 1.31444E-02 2.19889E-04-8.67402E-14
 -1      1453 1.32890E-02 2.43812E-04-8.85895E-14
 -1      1454 1.30938E-02 2.45669E-04-8.56652E-14
 -1      1455 1.34333E-02 2.67951E-04-9.04458E-14
 -1      1456 1.35772E-02 2.92341E-04-9.23048E-14
 -1      1457 1.33832E-02 2.93309E-04-8.93540E-14
 -1      1458 1.37208E-02 3.16982E-04-9.41715E-14
 -1      1459 1.38643E-02 3.41891E-04-9.60442E-14
 -1      1460 1.36711E-02 3.41933E-04-9.30687E-14
 -1      1461 1.40075E-02 3.67059E-04-9.79194E-14
 -1      1462 1.41506E-02 3.92491E-04-9.97931E-14
 -1      1463 1.39581E-02 3.91640E-04-9.68024E-14
 -1      1464 1.42935E-02 4.18156E-04-1.01675E-13
 -1      1465 1.44364E-02 4.44033E-04-1.03564E-13
 -1      1466 1.42445E-02 4.42424E-04-1.00553E-13
 -1      1467 1.46462E-02 4.86077E-04-1.06289E-13
 -1      1468 1.45973E-02 5.10151E-04-1.05155E-13
 -1      1469 6.41906E-04 3.71053E-04 1.82281E-17
 -1      1470 4.92055E-04 3.03050E-04 3.26616E-17
 -1      1471 4.44184E-04 2.65334E-04 1.13706E-17
 -1      1472 9.26991E-04 4.70201E-04-6.44152E-17
 -1      1473 7.86370E-04 4.25150E-04-1.39862E-17
 -1      1474 7.43602E-04 3.89466E-04-4.29209E-17
 -1      1475 1.20145E-03 5.38523E-04-2.20838E-16
 -1      1476 1.06499E-03 5.07432E-04-1.33086E-16
 -1      1477 1.02927E-03 4.73962E-04-1.68675E-16
 -1      1478 1.47168E-03 5.86271E-04-4.55256E-16
 -1      1479 1.33677E-03 5.64585E-04-3.27971E-16
 -1      1480 1.30691E-03 5.32527E-04-3.69388E-16
 -1      1481 1.74106E-03 6.19289E-04-7.70014E-16
 -1      1482 1.60630E-03 6.04385E-04-6.02193E-16
 -1      1483 1.58100E-03 5.73164E-04-6.48502E-16
 -1      1484 2.01136E-03 6.41354E-04-1.16634E-15
 -1      1485 1.87600E-03 6.31522E-04-9.57933E-16
 -1      1486 1.85424E-03 6.00762E-04-1.00871E-15
 -1      1487 2.28354E-03 6.55116E-04-1.64544E-15
 -1      1488 2.14717E-03 6.49145E-04-1.39569E-15
 -1      1489 2.12816E-03 6.18607E-04-1.45100E-15
 -1      1490 2.55811E-03 6.62519E-04-2.20971E-15
 -1      1491 2.42050E-03 6.59513E-04-1.91703E-15
 -1      1492 2.40360E-03 6.29042E-04-1.97660E-15
 -1      1493 2.83540E-03 6.65013E-04-2.85886E-15
 -1      1494 2.69640E-03 6.64300E-04-2.52358E-15
 -1      1495 2.68109E-03 6.33790E-04-2.58622E-15
 -1      1496 3.11566E-03 6.63698E-04-3.59321E-15
 -1      1497 2.97514E-03 6.64766E-04-3.21562E-15
 -1      1498 2.96100E-03 6.34134E-04-3.28089E-15
 -1      1499 3.39923E-03 6.59426E-04-4.40797E-15
 -1      1500 3.25702E-03 6.61872E-04-3.99011E-15
 -1      1501 3.24365E-03 6.31045E-04-4.05821E-15
 -1      1502 3.68653E-03 6.52912E-04-5.30954E-15
 -1      1503 3.54239E-03 6.56389E-04-4.84792E-15
 -1      1504 3.52943E-03 6.25290E-04-4.91966E-15
 -1      1505 3.97818E-03 6.44842E-04-6.29968E-15
 -1      1506 3.83177E-03 6.49002E-04-5.79300E-15
 -1      1507 3.81883E-03 6.17538E-04-5.86709E-15
 -1      1508 4.27502E-03 6.35999E-04-7.38243E-15
 -1      1509 4.12590E-03 6.40428E-04-6.82889E-15
 -1      1510 4.11249E-03 6.08478E-04-6.90494E-15
 -1      1511 4.57816E-03 6.27427E-04-8.56083E-15
 -1      1512 4.42573E-03 6.31557E-04-7.95962E-15
 -1      1513 4.41127E-03 5.98965E-04-8.03574E-15
 -1      1514 4.88898E-03 6.20649E-04-9.82740E-15
 -1      1515 4.73252E-03 6.23644E-04-9.18354E-15
 -1      1516 4.71623E-03 5.90202E-04-9.25867E-15
 -1      1517 5.20908E-03 6.17951E-04-1.11842E-14
 -1      1518 5.04777E-03 6.18555E-04-1.04951E-14
 -1      1519 5.02863E-03 5.83994E-04-1.05709E-14
 -1      1520 5.54011E-03 6.22750E-04-1.26284E-14
 -1      1521 5.37312E-03 6.19098E-04-1.18952E-14
 -1      1522 5.34982E-03 5.83082E-04-1.19702E-14
 -1      1523 5.88343E-03 6.40002E-04-1.41572E-14
 -1      1524 5.71015E-03 6.29422E-04-1.33813E-14
 -1      1525 5.68110E-03 5.91554E-04-1.34553E-14
 -1      1526 6.23946E-03 6.76492E-04-1.57751E-14
 -1      1527 6.05985E-03 6.55391E-04-1.49548E-14
 -1      1528 6.02334E-03 6.15248E-04-1.50274E-14
 -1      1529 6.60676E-03 7.40569E-04-1.74821E-14
 -1      1530 6.42186E-03 7.04676E-04-1.66177E-14
 -1      1531 6.37642E-03 6.61904E-04-1.66905E-14
 -1      1532 6.98080E-03 8.40501E-04-1.92726E-14
 -1      1533 6.79336E-03 7.85911E-04-1.83664E-14
 -1      1534 6.73850E-03 7.40436E-04-1.84389E-14
 -1      1535 7.35315E-03 9.80277E-04-2.11567E-14
 -1      1536 7.16791E-03 9.05883E-04-2.02039E-14
 -1      1537 7.10517E-03 8.58280E-04-2.02755E-14
 -1      1538 7.71207E-03 1.15260E-03-2.31396E-14
 -1      1539 7.53517E-03 1.06384E-03-2.21354E-14
 -1      1540 7.46898E-03 1.01576E-03-2.22062E-14
 -1      1541 8.04638E-03 1.33192E-03-2.52242E-14
 -1      1542 7.88290E-03 1.24386E-03-2.41672E-14
 -1      1543 7.82056E-03 1.19810E-03-2.42362E-14
 -1      1544 8.35228E-03 1.47604E-03-2.74245E-14
 -1      1545 8.20261E-03 1.41106E-03-2.63094E-14
 -1      1546 8.15237E-03 1.37055E-03-2.63761E-14
 -1      1547 8.63934E-03 1.54277E-03-2.97400E-14
 -1      1548 8.49691E-03 1.52041E-03-2.85690E-14
 -1      1549 8.46479E-03 1.48622E-03-2.86312E-14
 -1      1550 8.92802E-03 1.51589E-03-3.21659E-14
 -1      1551 8.78196E-03 1.54000E-03-3.09390E-14
 -1      1552 8.76936E-03 1.51008E-03-3.09990E-14
 -1      1553 9.23768E-03 1.41666E-03-3.46984E-14
 -1      1554 9.07934E-03 1.47259E-03-3.34188E-14
 -1      1555 9.08274E-03 1.44321E-03-3.34763E-14
 -1      1556 9.57590E-03 1.28871E-03-3.73382E-14
 -1      1557 9.40329E-03 1.35348E-03-3.60053E-14
 -1      1558 9.41576E-03 1.32180E-03-3.60633E-14
 -1      1559 9.93756E-03 1.17245E-03-4.00806E-14
 -1      1560 9.75451E-03 1.22739E-03-3.86970E-14
 -1      1561 9.76828E-03 1.19257E-03-3.87533E-14
 -1      1562 1.03109E-02 1.09093E-03-4.29097E-14
 -1      1563 1.01236E-02 1.12690E-03-4.14851E-14
 -1      1564 1.01325E-02 1.08952E-03-4.15386E-14
 -1      1565 1.06846E-02 1.04914E-03-4.58256E-14
 -1      1566 1.04984E-02 1.06535E-03-4.43560E-14
 -1      1567 1.04992E-02 1.02646E-03-4.44115E-14
 -1      1568 1.10508E-02 1.04207E-03-4.88278E-14
 -1      1569 1.08690E-02 1.04182E-03-4.73164E-14
 -1      1570 1.08611E-02 1.00239E-03-4.73709E-14
 -1      1571 1.14054E-02 1.06123E-03-5.19129E-14
 -1      1572 1.12297E-02 1.04892E-03-5.03605E-14
 -1      1573 1.12139E-02 1.00962E-03-5.04135E-14
 -1      1574 1.17475E-02 1.09844E-03-5.50803E-14
 -1      1575 1.15780E-02 1.07802E-03-5.34858E-14
 -1      1576 1.15560E-02 1.03924E-03-5.35342E-14
 -1      1577 1.20777E-02 1.14719E-03-5.83134E-14
 -1      1578 1.19140E-02 1.12170E-03-5.66895E-14
 -1      1579 1.18874E-02 1.08362E-03-5.67292E-14
 -1      1580 1.23975E-02 1.20280E-03-6.16184E-14
 -1      1581 1.22388E-02 1.17436E-03-5.99581E-14
 -1      1582 1.22091E-02 1.13702E-03-5.99934E-14
 -1      1583 1.27088E-02 1.26209E-03-6.49894E-14
 -1      1584 1.25541E-02 1.23213E-03-6.32959E-14
 -1      1585 1.25224E-02 1.19550E-03-6.33290E-14
 -1      1586 1.30133E-02 1.32302E-03-6.84200E-14
 -1      1587 1.28618E-02 1.29244E-03-6.66974E-14
 -1      1588 1.28289E-02 1.25644E-03-6.67271E-14
 -1      1589 1.33123E-02 1.38428E-03-7.18895E-14
 -1      1590 1.31634E-02 1.35367E-03-7.01512E-14
 -1      1591 1.31298E-02 1.31820E-03-7.01746E-14
 -1      1592 1.36073E-02 1.44512E-03-7.53869E-14
 -1      1593 1.34603E-02 1.41479E-03-7.36345E-14
 -1      1594 1.34264E-02 1.37976E-03-7.36570E-14
 -1      1595 1.38992E-02 1.50510E-03-7.88988E-14
 -1      1596 1.37536E-02 1.47524E-03-7.71420E-14
 -1      1597 1.37197E-02 1.44057E-03-7.71605E-14
 -1      1598 1.41888E-02 1.56397E-03-8.24180E-14
 -1      1599 1.40442E-02 1.53468E-03-8.06583E-14
 -1      1600 1.40104E-02 1.50030E-03-8.06789E-14
 -1      1601 1.44768E-02 1.62165E-03-8.59619E-14
 -1      1602 1.43330E-02 1.59296E-03-8.41870E-14
 -1      1603 1.42994E-02 1.55881E-03-8.42116E-14
 -1      1604 1.47636E-02 1.67812E-03-8.95303E-14
 -1      1605 1.46203E-02 1.65003E-03-8.77419E-14
 -1      1606 1.45869E-02 1.61606E-03-8.77661E-14
 -1      1607 1.50497E-02 1.73343E-03-9.31163E-14
 -1      1608 1.49067E-02 1.70591E-03-9.13208E-14
 -1      1609 1.48736E-02 1.67207E-03-9.13441E-14
 -1      1610 1.53355E-02 1.78781E-03-9.67104E-14
 -1      1611 1.51927E-02 1.76072E-03-9.49144E-14
 -1      1612 1.51597E-02 1.72696E-03-9.49337E-14
 -1      1613 1.54775E-02 1.80504E-03-9.86431E-14
 -1      1614 1.54233E-02 1.70197E-03-9.94259E-14
 -1      1615 1.54497E-02 1.74408E-03-9.91709E-14
 -1      1616 1.53712E-02 1.61796E-03-9.99292E-14
 -1      1617 1.53972E-02 1.65992E-03-9.96810E-14
 -1      1618 1.52865E-02 1.65770E-03-9.79941E-14
 -1      1619 1.53200E-02 1.53445E-03-1.00422E-13
 -1      1620 1.53455E-02 1.57613E-03-1.00176E-13
 -1      1621 1.52347E-02 1.57396E-03-9.84909E-14
 -1      1622 1.52693E-02 1.45158E-03-1.00905E-13
 -1      1623 1.52946E-02 1.49292E-03-1.00666E-13
 -1      1624 1.51837E-02 1.49075E-03-9.89799E-14
 -1      1625 1.52197E-02 1.37080E-03-1.01386E-13
 -1      1626 1.52445E-02 1.41110E-03-1.01144E-13
 -1      1627 1.51337E-02 1.40886E-03-9.94622E-14
 -1      1628 1.51691E-02 1.28925E-03-1.01883E-13
 -1      1629 1.51944E-02 1.32995E-03-1.01634E-13
 -1      1630 1.50837E-02 1.32759E-03-9.99432E-14
 -1      1631 1.51179E-02 1.20815E-03-1.02376E-13
 -1      1632 1.51436E-02 1.24866E-03-1.02130E-13
 -1      1633 1.50330E-02 1.24615E-03-1.00431E-13
 -1      1634 1.50660E-02 1.12726E-03-1.02866E-13
 -1      1635 1.50921E-02 1.16770E-03-1.02621E-13
 -1      1636 1.49818E-02 1.16505E-03-1.00918E-13
 -1      1637 1.50134E-02 1.04628E-03-1.03353E-13
 -1      1638 1.50398E-02 1.08680E-03-1.03112E-13
 -1      1639 1.49297E-02 1.08406E-03-1.01403E-13
 -1      1640 1.49601E-02 9.64957E-04-1.03838E-13
 -1      1641 1.49868E-02 1.00568E-03-1.03596E-13
 -1      1642 1.48768E-02 1.00294E-03-1.01881E-13
 -1      1643 1.49074E-02 8.84469E-04-1.04314E-13
 -1      1644 1.49338E-02 9.24789E-04-1.04077E-13
 -1      1645 1.48238E-02 9.22147E-04-1.02352E-13
 -1      1646 1.48538E-02 8.01927E-04-1.04795E-13
 -1      1647 1.48806E-02 8.43285E-04-1.04556E-13
 -1      1648 1.47705E-02 8.40835E-04-1.02821E-13
 -1      1649 1.48005E-02 7.18710E-04-1.05250E-13
 -1      1650 1.48271E-02 7.60399E-04-1.05027E-13
 -1      1651 1.47169E-02 7.58214E-04-1.03283E-13
 -1      1652 1.47480E-02 6.34928E-04-1.05693E-13
 -1      1653 1.47741E-02 6.76878E-04-1.05474E-13
 -1      1654 1.46637E-02 6.74982E-04-1.03732E-13
 -1      1655 1.46596E-02 5.51514E-04-1.05535E-13
 -1      1656 1.46854E-02 5.93592E-04-1.05315E-13
 -1      1657 1.45747E-02 5.91957E-04-1.03575E-13
 -1      1658 1.44498E-02 5.09465E-04-1.02819E-13
 -1      1659 1.06833E-02 4.35119E-04-3.83496E-14
 -1      1660 1.07077E-02 3.89516E-04-3.85209E-14
 -1      1661 1.05412E-02 5.46932E-04-3.77268E-14
 -1      1662 1.06197E-02 4.95843E-04-3.80060E-14
 -1      1663 1.02681E-02 6.83081E-04-3.69362E-14
 -1      1664 1.04097E-02 6.11229E-04-3.73699E-14
 -1      1665 9.92864E-03 8.54501E-04-3.58762E-14
 -1      1666 1.00900E-02 7.76140E-04-3.63587E-14
 -1      1667 9.54004E-03 1.03339E-03-3.46629E-14
 -1      1668 9.72450E-03 9.50539E-04-3.52437E-14
 -1      1669 9.13010E-03 1.18915E-03-3.32989E-14
 -1      1670 9.32355E-03 1.12331E-03-3.39320E-14
 -1      1671 8.73659E-03 1.27150E-03-3.19918E-14
 -1      1672 8.91351E-03 1.24384E-03-3.25807E-14
 -1      1673 8.32776E-03 1.26412E-03-3.06483E-14
 -1      1674 8.52013E-03 1.28148E-03-3.12724E-14
 -1      1675 7.90421E-03 1.15372E-03-2.93762E-14
 -1      1676 8.09968E-03 1.21608E-03-2.99430E-14
 -1      1677 7.49303E-03 9.84465E-04-2.83460E-14
 -1      1678 7.67683E-03 1.06673E-03-2.87954E-14
 -1      1679 7.08082E-03 7.84170E-04-2.74643E-14
 -1      1680 7.27236E-03 8.79899E-04-2.78548E-14
 -1      1681 6.70661E-03 5.93259E-04-2.68039E-14
 -1      1682 6.87184E-03 6.78029E-04-2.70772E-14
 -1      1683 6.41275E-03 4.36993E-04-2.63978E-14
 -1      1684 6.53681E-03 5.04486E-04-2.65539E-14
 -1      1685 6.22333E-03 3.05606E-04-2.61853E-14
 -1      1686 6.29666E-03 3.58365E-04-2.62271E-14
 -1      1687 6.17673E-03 2.03665E-04-2.62501E-14
 -1      1688 6.17737E-03 2.46491E-04-2.61599E-14
 -1      1689 6.28177E-03 9.82343E-05-2.67190E-14
 -1      1690 6.21811E-03 1.45919E-04-2.65265E-14
 -1      1691 6.53104E-03-1.77484E-05-2.72626E-14
 -1      1692 6.39977E-03 4.56283E-05-2.69286E-14
 -1      1693 6.84690E-03-1.85204E-04-2.81928E-14
 -1      1694 6.69223E-03-1.14211E-04-2.77918E-14
 -1      1695 7.24731E-03-3.51107E-04-2.92349E-14
 -1      1696 7.05851E-03-2.68956E-04-2.87050E-14
 -1      1697 7.62680E-03-5.00411E-04-3.04357E-14
 -1      1698 7.45256E-03-4.39143E-04-2.98965E-14
 -1      1699 8.05566E-03-6.06045E-04-3.18143E-14
 -1      1700 7.86132E-03-5.65097E-04-3.11349E-14
 -1      1701 8.44921E-03-6.15996E-04-3.32093E-14
 -1      1702 8.27326E-03-6.20993E-04-3.25945E-14
 -1      1703 8.83790E-03-5.42732E-04-3.44963E-14
 -1      1704 8.65892E-03-5.85360E-04-3.39105E-14
 -1      1705 9.22714E-03-4.08268E-04-3.56836E-14
 -1      1706 9.04737E-03-4.76930E-04-3.51525E-14
 -1      1707 9.62180E-03-2.30669E-04-3.67706E-14
 -1      1708 9.43632E-03-3.15826E-04-3.62982E-14
 -1      1709 1.00075E-02-5.47922E-05-3.75962E-14
 -1      1710 9.83690E-03-1.36142E-04-3.72363E-14
 -1      1711 1.03344E-02 1.09724E-04-3.82309E-14
 -1      1712 1.01895E-02 3.93374E-05-3.79889E-14
 -1      1713 1.05709E-02 2.30827E-04-3.85115E-14
 -1      1714 1.04764E-02 1.77512E-04-3.84023E-14
 -1      1715 1.06950E-02 3.36018E-04-3.85915E-14
 -1      1716 1.06528E-02 2.90948E-04-3.86065E-14
 -1      1717 9.76629E-03 8.66375E-04-3.58521E-14
 -1      1718 1.01418E-02 6.76509E-04-3.70770E-14
 -1      1719 1.54447E-02 1.77131E-03-9.86620E-14
 -1      1720 1.53077E-02 1.72689E-03-9.72341E-14
 -1      1721 1.06563E-02 4.37731E-04-3.87332E-14
 -1      1722 1.04552E-02 5.35089E-04-3.80253E-14
 -1      1723 1.07118E-02 3.70495E-04-3.91520E-14
 -1      1724 9.37331E-03 1.06756E-03-3.44741E-14
 -1      1725 8.98610E-03 1.22916E-03-3.30164E-14
 -1      1726 8.61701E-03 1.30379E-03-3.15756E-14
 -1      1727 8.24665E-03 1.26215E-03-3.01546E-14
 -1      1728 7.85589E-03 1.11099E-03-2.88792E-14
 -1      1729 7.44735E-03 9.01850E-04-2.78202E-14
 -1      1730 7.03472E-03 6.80499E-04-2.69566E-14
 -1      1731 6.65632E-03 4.90741E-04-2.63314E-14
 -1      1732 6.36221E-03 3.47146E-04-2.59167E-14
 -1      1733 6.19204E-03 2.52878E-04-2.57206E-14
 -1      1734 6.18855E-03 1.92017E-04-2.59639E-14
 -1      1735 6.35174E-03 1.09791E-04-2.64421E-14
 -1      1736 6.63891E-03-1.13448E-05-2.71649E-14
 -1      1737 7.01016E-03-1.87055E-04-2.81949E-14
 -1      1738 7.40232E-03-3.73714E-04-2.93545E-14
 -1      1739 7.80222E-03-5.41662E-04-3.07069E-14
 -1      1740 8.17040E-03-6.38265E-04-3.21818E-14
 -1      1741 8.53048E-03-6.24561E-04-3.36660E-14
 -1      1742 8.89107E-03-5.17394E-04-3.50302E-14
 -1      1743 9.26778E-03-3.42811E-04-3.63122E-14
 -1      1744 9.66470E-03-1.40284E-04-3.74061E-14
 -1      1745 1.00547E-02 5.06975E-05-3.82769E-14
 -1      1746 1.03831E-02 1.97739E-04-3.88538E-14
 -1      1747 1.06132E-02 2.98391E-04-3.91274E-14
 -1      1748 2.84799E-04-1.75943E-04-4.62006E-17
 -1      1749 3.32198E-04-1.16402E-04-1.21864E-16
 -1      1750 3.36264E-04-1.32646E-04-1.16552E-16
 -1      1751 3.42052E-04-1.51628E-04-1.09532E-16
 -1      1752 3.51481E-04-1.73617E-04-9.90961E-17
 -1      1753 4.58190E-04-1.87471E-04-1.69840E-16
 -1      1754 3.24786E-04-6.50582E-05-1.29196E-16
 -1      1755 3.25899E-04-7.63248E-05-1.28912E-16
 -1      1756 3.23344E-04-4.36382E-05-1.28613E-16
 -1      1757 3.23977E-04-5.40861E-05-1.29115E-16
 -1      1758 4.36810E-04-7.88243E-05-1.90806E-16
 -1      1759 3.22585E-04-2.36245E-05-1.26147E-16
 -1      1760 3.22906E-04-3.34821E-05-1.27583E-16
 -1      1761 4.34864E-04-5.09763E-05-1.89058E-16
 -1      1762 3.22302E-04-4.31376E-06-1.22420E-16
 -1      1763 3.22395E-04-1.39024E-05-1.24399E-16
 -1      1764 4.33866E-04-2.47484E-05-1.85087E-16
 -1      1765 3.22424E-04 1.48772E-05-1.17446E-16
 -1      1766 3.22312E-04 5.27787E-06-1.20184E-16
 -1      1767 4.33577E-04 7.45642E-07-1.79327E-16
 -1      1768 3.22977E-04 3.45128E-05-1.11036E-16
 -1      1769 3.22634E-04 2.46211E-05-1.14560E-16
 -1      1770 4.33931E-04 2.62696E-05-1.71751E-16
 -1      1771 3.24074E-04 5.48654E-05-1.02267E-16
 -1      1772 3.23430E-04 4.45414E-05-1.07133E-16
 -1      1773 4.34990E-04 5.23630E-05-1.61777E-16
 -1      1774 3.26069E-04 7.74650E-05-9.10865E-17
 -1      1775 3.24907E-04 6.59056E-05-9.72800E-17
 -1      1776 4.37001E-04 8.01191E-05-1.48929E-16
 -1      1777 3.29651E-04 1.03283E-04-7.56909E-17
 -1      1778 3.27563E-04 8.99396E-05-8.42832E-17
 -1      1779 4.40562E-04 1.11011E-04-1.32042E-16
 -1      1780 3.36520E-04 1.34737E-04-5.44269E-17
 -1      1781 3.32429E-04 1.18240E-04-6.60686E-17
 -1      1782 4.46877E-04 1.46741E-04-1.09071E-16
 -1      1783 3.52009E-04 1.77210E-04-2.54381E-17
 -1      1784 3.42642E-04 1.54380E-04-4.14436E-17
 -1      1785 4.59170E-04 1.90840E-04-7.81710E-17
 -1      1786 4.07152E-04 2.33189E-04-2.50722E-18
 -1      1787 3.77688E-04 2.02222E-04-1.65747E-17
 -1      1788 4.95428E-04 2.43312E-04-4.93312E-17
 -1      1789 5.57807E-04 3.01696E-04-2.35678E-17
 -1      1790 3.39609E-04-1.90533E-04-7.54876E-17
 -1      1791 8.52488E-04 4.05504E-04-1.17988E-16
 -1      1792 7.06246E-04 3.58197E-04-6.18673E-17
 -1      1793 6.72683E-04 3.27703E-04-7.84691E-17
 -1      1794 4.58489E-04-2.36110E-04-1.29969E-16
 -1      1795 8.06391E-04-3.72610E-04-3.40318E-16
 -1      1796 9.51545E-04-4.13305E-04-4.71953E-16
 -1      1797 1.09430E-03-4.47426E-04-6.26994E-16
 -1      1798 1.23590E-03-4.75673E-04-8.05766E-16
 -1      1799 1.00326E-03-3.95680E-04-5.69735E-16
 -1      1800 1.37628E-03-4.99413E-04-1.00762E-15
 -1      1801 1.51599E-03-5.18940E-04-1.23304E-15
 -1      1802 1.28890E-03-4.52335E-04-9.29337E-16
 -1      1803 1.65522E-03-5.35155E-04-1.48158E-15
 -1      1804 1.79418E-03-5.48296E-04-1.75302E-15
 -1      1805 1.57140E-03-4.91575E-04-1.38058E-15
 -1      1806 1.93310E-03-5.58951E-04-2.04734E-15
 -1      1807 2.07203E-03-5.67320E-04-2.36460E-15
 -1      1808 1.85231E-03-5.17928E-04-1.92309E-15
 -1      1809 2.21116E-03-5.73803E-04-2.70489E-15
 -1      1810 2.35051E-03-5.78568E-04-3.06733E-15
 -1      1811 2.13278E-03-5.34643E-04-2.55624E-15
 -1      1812 2.49019E-03-5.81895E-04-3.45224E-15
 -1      1813 2.63022E-03-5.83924E-04-3.85935E-15
 -1      1814 2.41361E-03-5.44085E-04-3.27844E-15
 -1      1815 2.77068E-03-5.84854E-04-4.28845E-15
 -1      1816 2.91158E-03-5.84806E-04-4.73906E-15
 -1      1817 2.69533E-03-5.48009E-04-4.08897E-15
 -1      1818 3.05299E-03-5.83923E-04-5.21057E-15
 -1      1819 3.19492E-03-5.82312E-04-5.70312E-15
 -1      1820 2.97834E-03-5.47744E-04-4.98584E-15
 -1      1821 3.33741E-03-5.80085E-04-6.21679E-15
 -1      1822 3.48051E-03-5.77341E-04-6.75087E-15
 -1      1823 3.26295E-03-5.44323E-04-5.96653E-15
 -1      1824 3.62424E-03-5.74181E-04-7.30625E-15
 -1      1825 3.76866E-03-5.70704E-04-7.88269E-15
 -1      1826 3.54944E-03-5.38603E-04-7.03090E-15
 -1      1827 3.91379E-03-5.67019E-04-8.47899E-15
 -1      1828 4.05970E-03-5.63236E-04-9.09671E-15
 -1      1829 3.83809E-03-5.31379E-04-8.17910E-15
 -1      1830 4.20639E-03-5.59490E-04-9.73493E-15
 -1      1831 4.35396E-03-5.55913E-04-1.03935E-14
 -1      1832 4.12921E-03-5.23494E-04-9.40900E-15
 -1      1833 4.50241E-03-5.52686E-04-1.10719E-14
 -1      1834 4.65182E-03-5.49972E-04-1.17698E-14
 -1      1835 4.42315E-03-5.15959E-04-1.07217E-14
 -1      1836 4.80220E-03-5.48015E-04-1.24889E-14
 -1      1837 4.95359E-03-5.47019E-04-1.32273E-14
 -1      1838 4.72026E-03-5.10071E-04-1.21149E-14
 -1      1839 5.10602E-03-5.47302E-04-1.39849E-14
 -1      1840 5.25947E-03-5.49107E-04-1.47630E-14
 -1      1841 5.02091E-03-5.07525E-04-1.35868E-14
 -1      1842 5.41400E-03-5.52823E-04-1.55622E-14
 -1      1843 5.56946E-03-5.58724E-04-1.63820E-14
 -1      1844 5.32539E-03-5.10477E-04-1.51392E-14
 -1      1845 5.72595E-03-5.67229E-04-1.72232E-14
 -1      1846 5.88316E-03-5.78609E-04-1.80858E-14
 -1      1847 5.63389E-03-5.21520E-04-1.67752E-14
 -1      1848 6.04125E-03-5.93232E-04-1.89719E-14
 -1      1849 6.19968E-03-6.11286E-04-1.98821E-14
 -1      1850 5.94634E-03-5.43470E-04-1.84972E-14
 -1      1851 6.35865E-03-6.32939E-04-2.08169E-14
 -1      1852 6.51741E-03-6.58171E-04-2.17773E-14
 -1      1853 6.26223E-03-5.78843E-04-2.03132E-14
 -1      1854 6.67617E-03-6.86748E-04-2.27620E-14
 -1      1855 6.83402E-03-7.18253E-04-2.37723E-14
 -1      1856 6.58037E-03-6.28882E-04-2.22270E-14
 -1      1857 6.99112E-03-7.51852E-04-2.48075E-14
 -1      1858 7.14661E-03-7.86563E-04-2.58678E-14
 -1      1859 6.89864E-03-6.92111E-04-2.42419E-14
 -1      1860 7.30053E-03-8.20865E-04-2.69545E-14
 -1      1861 7.45239E-03-8.53187E-04-2.80678E-14
 -1      1862 7.21410E-03-7.62668E-04-2.63565E-14
 -1      1863 7.60206E-03-8.81519E-04-2.92072E-14
 -1      1864 7.74983E-03-9.04014E-04-3.03731E-14
 -1      1865 7.52361E-03-8.29293E-04-2.85760E-14
 -1      1866 7.89541E-03-9.18727E-04-3.15680E-14
 -1      1867 8.03998E-03-9.24169E-04-3.27884E-14
 -1      1868 7.82540E-03-8.76460E-04-3.09033E-14
 -1      1869 8.18316E-03-9.19190E-04-3.40352E-14
 -1      1870 8.32670E-03-9.03291E-04-3.53101E-14
 -1      1871 8.12071E-03-8.88718E-04-3.33388E-14
 -1      1872 8.47021E-03-8.76646E-04-3.66100E-14
 -1      1873 8.61538E-03-8.40004E-04-3.79367E-14
 -1      1874 8.41385E-03-8.56737E-04-3.58813E-14
 -1      1875 8.76185E-03-7.94760E-04-3.92882E-14
 -1      1876 8.91059E-03-7.42586E-04-4.06635E-14
 -1      1877 8.71040E-03-7.81787E-04-3.85272E-14
 -1      1878 9.06132E-03-6.85499E-04-4.20629E-14
 -1      1879 9.21416E-03-6.25326E-04-4.34856E-14
 -1      1880 9.01409E-03-6.75208E-04-4.12721E-14
 -1      1881 9.36898E-03-5.63993E-04-4.49290E-14
 -1      1882 9.52520E-03-5.02941E-04-4.63918E-14
 -1      1883 9.32530E-03-5.53049E-04-4.41104E-14
 -1      1884 9.68288E-03-4.43527E-04-4.78756E-14
 -1      1885 9.84114E-03-3.86591E-04-4.93794E-14
 -1      1886 9.64179E-03-4.30036E-04-4.70317E-14
 -1      1887 1.00002E-02-3.32806E-04-5.09002E-14
 -1      1888 1.01590E-02-2.82478E-04-5.24376E-14
 -1      1889 9.96040E-03-3.16121E-04-5.00329E-14
 -1      1890 1.03180E-02-2.35721E-04-5.39932E-14
 -1      1891 1.04764E-02-1.92493E-04-5.55640E-14
 -1      1892 1.02783E-02-2.15981E-04-5.31033E-14
 -1      1893 1.06343E-02-1.52560E-04-5.71521E-14
 -1      1894 1.07914E-02-1.15705E-04-5.87557E-14
 -1      1895 1.05938E-02-1.30285E-04-5.62437E-14
 -1      1896 1.09477E-02-8.15351E-05-6.03753E-14
 -1      1897 1.11030E-02-4.97777E-05-6.20105E-14
 -1      1898 1.09057E-02-5.73658E-05-5.94487E-14
 -1      1899 1.12574E-02-2.00154E-05-6.36598E-14
 -1      1900 1.14108E-02 8.01642E-06-6.53228E-14
 -1      1901 1.12138E-02 5.43054E-06-6.27142E-14
 -1      1902 1.15633E-02 3.46868E-05-6.70022E-14
 -1      1903 1.17148E-02 6.02228E-05-6.86968E-14
 -1      1904 1.15181E-02 6.08846E-05-6.60394E-14
 -1      1905 1.18654E-02 8.49167E-05-7.04049E-14
 -1      1906 1.20151E-02 1.08950E-04-7.21263E-14
 -1      1907 1.18189E-02 1.11458E-04-6.94223E-14
 -1      1908 1.21641E-02 1.32535E-04-7.38641E-14
 -1      1909 1.23123E-02 1.55809E-04-7.56174E-14
 -1      1910 1.21166E-02 1.59123E-04-7.28658E-14
 -1      1911 1.24598E-02 1.78918E-04-7.73853E-14
 -1      1912 1.26067E-02 2.01961E-04-7.91692E-14
 -1      1913 1.24116E-02 2.05354E-04-7.63651E-14
 -1      1914 1.27530E-02 2.25028E-04-8.09657E-14
 -1      1915 1.28988E-02 2.48192E-04-8.27751E-14
 -1      1916 1.27043E-02 2.51189E-04-7.99243E-14
 -1      1917 1.30441E-02 2.71502E-04-8.45982E-14
 -1      1918 1.31890E-02 2.95009E-04-8.64310E-14
 -1      1919 1.29952E-02 2.97321E-04-8.35356E-14
 -1      1920 1.33336E-02 3.18737E-04-8.82697E-14
 -1      1921 1.34778E-02 3.42719E-04-9.01161E-14
 -1      1922 1.32846E-02 3.44182E-04-8.71901E-14
 -1      1923 1.36218E-02 3.66962E-04-9.19691E-14
 -1      1924 1.37655E-02 3.91487E-04-9.38269E-14
 -1      1925 1.35728E-02 3.92027E-04-9.08734E-14
 -1      1926 1.39090E-02 4.16289E-04-9.56941E-14
 -1      1927 1.40523E-02 4.41379E-04-9.75632E-14
 -1      1928 1.38601E-02 4.40982E-04-9.45864E-14
 -1      1929 1.41796E-02 4.62412E-04-9.92470E-14
 -1      1930 1.43227E-02 4.88011E-04-1.01124E-13
 -1      1931 1.43851E-02 5.29217E-04-1.01502E-13
 -1      1932 1.41308E-02 4.86781E-04-9.81295E-14
 -1      1933 1.13728E-03 4.77379E-04-2.84481E-16
 -1      1934 9.95629E-04 4.44711E-04-1.91836E-16
 -1      1935 9.63514E-04 4.15343E-04-2.12233E-16
 -1      1936 1.41625E-03 5.27420E-04-5.26895E-16
 -1      1937 1.27715E-03 5.04739E-04-3.95802E-16
 -1      1938 1.24785E-03 4.76702E-04-4.19573E-16
 -1      1939 1.69266E-03 5.61838E-04-8.49269E-16
 -1      1940 1.55459E-03 5.46341E-04-6.77979E-16
 -1      1941 1.52811E-03 5.19284E-04-7.04474E-16
 -1      1942 1.96852E-03 5.84717E-04-1.25229E-15
 -1      1943 1.83056E-03 5.74554E-04-1.04059E-15
 -1      1944 1.80655E-03 5.48149E-04-1.06951E-15
 -1      1945 2.24503E-03 5.98906E-04-1.73834E-15
 -1      1946 2.10664E-03 5.92776E-04-1.48519E-15
 -1      1947 2.08466E-03 5.66789E-04-1.51619E-15
 -1      1948 2.52290E-03 6.06472E-04-2.30720E-15
 -1      1949 2.38376E-03 6.03426E-04-2.01236E-15
 -1      1950 2.36339E-03 5.77692E-04-2.04521E-15
 -1      1951 2.80263E-03 6.08937E-04-2.96005E-15
 -1      1952 2.66252E-03 6.08272E-04-2.62259E-15
 -1      1953 2.64336E-03 5.82677E-04-2.65700E-15
 -1      1954 3.08459E-03 6.07435E-04-3.69731E-15
 -1      1955 2.94331E-03 6.08626E-04-3.31834E-15
 -1      1956 2.92502E-03 5.83083E-04-3.35288E-15
 -1      1957 3.36912E-03 6.02831E-04-4.51708E-15
 -1      1958 3.22651E-03 6.05473E-04-4.09671E-15
 -1      1959 3.20873E-03 5.79912E-04-4.13231E-15
 -1      1960 3.65665E-03 5.95825E-04-5.42208E-15
 -1      1961 3.51248E-03 5.99583E-04-4.95907E-15
 -1      1962 3.49484E-03 5.73937E-04-4.99569E-15
 -1      1963 3.94768E-03 5.87069E-04-6.41480E-15
 -1      1964 3.80169E-03 5.91615E-04-5.90665E-15
 -1      1965 3.78379E-03 5.65814E-04-5.94375E-15
 -1      1966 4.24289E-03 5.77286E-04-7.49874E-15
 -1      1967 4.09471E-03 5.82241E-04-6.94551E-15
 -1      1968 4.07607E-03 5.56196E-04-6.98198E-15
 -1      1969 4.54308E-03 5.67440E-04-8.67339E-15
 -1      1970 4.39228E-03 5.72282E-04-8.07435E-15
 -1      1971 4.37233E-03 5.45874E-04-8.11059E-15
 -1      1972 4.84926E-03 5.58941E-04-9.93969E-15
 -1      1973 4.69533E-03 5.62894E-04-9.29581E-15
 -1      1974 4.67332E-03 5.35960E-04-9.32982E-15
 -1      1975 5.16257E-03 5.53937E-04-1.12938E-14
 -1      1976 5.00492E-03 5.55819E-04-1.06062E-14
 -1      1977 4.97997E-03 5.28123E-04-1.06393E-14
 -1      1978 5.48420E-03 5.55684E-04-1.27340E-14
 -1      1979 5.32223E-03 5.53709E-04-1.20026E-14
 -1      1980 5.29329E-03 5.24917E-04-1.20337E-14
 -1      1981 5.81521E-03 5.68978E-04-1.42604E-14
 -1      1982 5.64843E-03 5.60539E-04-1.34862E-14
 -1      1983 5.61435E-03 5.30180E-04-1.35148E-14
 -1      1984 6.15628E-03 6.00514E-04-1.58759E-14
 -1      1985 5.98446E-03 5.82026E-04-1.50571E-14
 -1      1986 5.94420E-03 5.49468E-04-1.50840E-14
 -1      1987 6.50724E-03 6.58805E-04-1.75807E-14
 -1      1988 6.33064E-03 6.25834E-04-1.67174E-14
 -1      1989 6.28365E-03 5.90313E-04-1.67428E-14
 -1      1990 6.86645E-03 7.52883E-04-1.93693E-14
 -1      1991 6.68618E-03 7.01018E-04-1.84645E-14
 -1      1992 6.63299E-03 6.61829E-04-1.84876E-14
 -1      1993 7.22999E-03 8.88546E-04-2.12509E-14
 -1      1994 7.04838E-03 8.15643E-04-2.02995E-14
 -1      1995 6.99128E-03 7.72689E-04-2.03202E-14
 -1      1996 7.59105E-03 1.06133E-03-2.32263E-14
 -1      1997 7.41176E-03 9.71402E-04-2.22248E-14
 -1      1998 7.35500E-03 9.26075E-04-2.22437E-14
 -1      1999 7.94092E-03 1.24807E-03-2.53061E-14
 -1      2000 7.76816E-03 1.15533E-03-2.42527E-14
 -1      2001 7.71703E-03 1.11119E-03-2.42651E-14
 -1      2002 8.27338E-03 1.40540E-03-2.74969E-14
 -1      2003 8.10924E-03 1.33346E-03-2.63877E-14
 -1      2004 8.06784E-03 1.29519E-03-2.63948E-14
 -1      2005 8.59154E-03 1.48482E-03-2.98036E-14
 -1      2006 8.43288E-03 1.45664E-03-2.86362E-14
 -1      2007 8.40222E-03 1.42685E-03-2.86392E-14
 -1      2008 8.90932E-03 1.46370E-03-3.22236E-14
 -1      2009 8.74873E-03 1.48590E-03-3.09993E-14
 -1      2010 8.72740E-03 1.46218E-03-3.09970E-14
 -1      2011 9.24078E-03 1.36266E-03-3.47538E-14
 -1      2012 9.07246E-03 1.42032E-03-3.34754E-14
 -1      2013 9.05925E-03 1.39746E-03-3.34693E-14
 -1      2014 9.58971E-03 1.22909E-03-3.73897E-14
 -1      2015 9.41328E-03 1.29709E-03-3.60580E-14
 -1      2016 9.40728E-03 1.27169E-03-3.60509E-14
 -1      2017 9.95041E-03 1.10716E-03-4.01262E-14
 -1      2018 9.76941E-03 1.16497E-03-3.87461E-14
 -1      2019 9.76814E-03 1.13653E-03-3.87364E-14
 -1      2020 1.03141E-02 1.02174E-03-4.29556E-14
 -1      2021 1.01326E-02 1.05956E-03-4.15308E-14
 -1      2022 1.01323E-02 1.02899E-03-4.15188E-14
 -1      2023 1.06738E-02 9.77874E-04-4.58700E-14
 -1      2024 1.04950E-02 9.94956E-04-4.44016E-14
 -1      2025 1.04919E-02 9.63357E-04-4.43891E-14
 -1      2026 1.10256E-02 9.70176E-04-4.88690E-14
 -1      2027 1.08510E-02 9.70079E-04-4.73587E-14
 -1      2028 1.08431E-02 9.38061E-04-4.73447E-14
 -1      2029 1.13676E-02 9.89655E-04-5.19471E-14
 -1      2030 1.11979E-02 9.77055E-04-5.03995E-14
 -1      2031 1.11846E-02 9.44965E-04-5.03818E-14
 -1      2032 1.16998E-02 1.02772E-03-5.51001E-14
 -1      2033 1.15350E-02 1.00678E-03-5.35141E-14
 -1      2034 1.15165E-02 9.74816E-04-5.34928E-14
 -1      2035 1.20227E-02 1.07757E-03-5.83229E-14
 -1      2036 1.18623E-02 1.05146E-03-5.67035E-14
 -1      2037 1.18396E-02 1.01975E-03-5.66764E-14
 -1      2038 1.23376E-02 1.13433E-03-6.16204E-14
 -1      2039 1.21811E-02 1.10528E-03-5.99625E-14
 -1      2040 1.21550E-02 1.07388E-03-5.99308E-14
 -1      2041 1.26456E-02 1.19471E-03-6.49829E-14
 -1      2042 1.24923E-02 1.16419E-03-6.32931E-14
 -1      2043 1.24638E-02 1.13315E-03-6.32567E-14
 -1      2044 1.29480E-02 1.25662E-03-6.84019E-14
 -1      2045 1.27974E-02 1.22555E-03-6.66861E-14
 -1      2046 1.27672E-02 1.19486E-03-6.66449E-14
 -1      2047 1.32460E-02 1.31873E-03-7.18659E-14
 -1      2048 1.30975E-02 1.28769E-03-7.01285E-14
 -1      2049 1.30662E-02 1.25732E-03-7.00840E-14
 -1      2050 1.35405E-02 1.38027E-03-7.53586E-14
 -1      2051 1.33937E-02 1.34959E-03-7.36107E-14
 -1      2052 1.33617E-02 1.31951E-03-7.35610E-14
 -1      2053 1.38324E-02 1.44083E-03-7.88692E-14
 -1      2054 1.36867E-02 1.41069E-03-7.71118E-14
 -1      2055 1.36544E-02 1.38086E-03-7.70637E-14
 -1      2056 1.41222E-02 1.50018E-03-8.23944E-14
 -1      2057 1.39775E-02 1.47066E-03-8.06304E-14
 -1      2058 1.39449E-02 1.44105E-03-8.05803E-14
 -1      2059 1.44105E-02 1.55824E-03-8.59394E-14
 -1      2060 1.42665E-02 1.52937E-03-8.41645E-14
 -1      2061 1.42338E-02 1.49995E-03-8.41159E-14
 -1      2062 1.46977E-02 1.61501E-03-8.95080E-14
 -1      2063 1.45542E-02 1.58678E-03-8.77200E-14
 -1      2064 1.45216E-02 1.55752E-03-8.76719E-14
 -1      2065 1.49841E-02 1.67055E-03-9.30880E-14
 -1      2066 1.48410E-02 1.64293E-03-9.12964E-14
 -1      2067 1.48084E-02 1.61379E-03-9.12481E-14
 -1      2068 1.52174E-02 1.71244E-03-9.60593E-14
 -1      2069 1.50744E-02 1.68523E-03-9.42643E-14
 -1      2070 1.50420E-02 1.65618E-03-9.42150E-14
 -1      2071 1.52225E-02 1.68530E-03-9.65663E-14
 -1      2072 1.50475E-02 1.44687E-03-9.75423E-14
 -1      2073 1.50728E-02 1.48826E-03-9.72981E-14
 -1      2074 1.50982E-02 1.52982E-03-9.70545E-14
 -1      2075 1.51239E-02 1.57151E-03-9.68107E-14
 -1      2076 1.49619E-02 1.48552E-03-9.56178E-14
 -1      2077 1.51600E-02 1.60737E-03-9.68146E-14
 -1      2078 1.51861E-02 1.64929E-03-9.65646E-14
 -1      2079 1.50958E-02 1.63476E-03-9.53872E-14
 -1      2080 1.50233E-02 1.56291E-03-9.53799E-14
 -1      2081 1.49981E-02 1.36594E-03-9.80154E-14
 -1      2082 1.50228E-02 1.40633E-03-9.77778E-14
 -1      2083 1.49119E-02 1.40353E-03-9.60978E-14
 -1      2084 1.49478E-02 1.28419E-03-9.84983E-14
 -1      2085 1.49730E-02 1.32500E-03-9.82572E-14
 -1      2086 1.48622E-02 1.32217E-03-9.65717E-14
 -1      2087 1.48970E-02 1.20290E-03-9.89797E-14
 -1      2088 1.49225E-02 1.24351E-03-9.87408E-14
 -1      2089 1.48119E-02 1.24069E-03-9.70504E-14
 -1      2090 1.48456E-02 1.12188E-03-9.94606E-14
 -1      2091 1.48714E-02 1.16238E-03-9.92204E-14
 -1      2092 1.47611E-02 1.15961E-03-9.75259E-14
 -1      2093 1.47933E-02 1.04090E-03-9.99364E-14
 -1      2094 1.48196E-02 1.08141E-03-9.96984E-14
 -1      2095 1.47095E-02 1.07874E-03-9.79975E-14
 -1      2096 1.47402E-02 9.59735E-04-1.00407E-13
 -1      2097 1.47669E-02 1.00036E-03-1.00174E-13
 -1      2098 1.46570E-02 9.97846E-04-9.84653E-14
 -1      2099 1.46875E-02 8.79565E-04-1.00864E-13
 -1      2100 1.47139E-02 9.19710E-04-1.00634E-13
 -1      2101 1.46041E-02 9.17394E-04-9.89234E-14
 -1      2102 1.46336E-02 7.97484E-04-1.01326E-13
 -1      2103 1.46606E-02 8.38598E-04-1.01096E-13
 -1      2104 1.45507E-02 8.36516E-04-9.93763E-14
 -1      2105 1.45799E-02 7.14798E-04-1.01776E-13
 -1      2106 1.46067E-02 7.56215E-04-1.01553E-13
 -1      2107 1.44967E-02 7.54382E-04-9.98274E-14
 -1      2108 1.45268E-02 6.31513E-04-1.02216E-13
 -1      2109 1.45533E-02 6.73222E-04-1.01997E-13
 -1      2110 1.44429E-02 6.71621E-04-1.00269E-13
 -1      2111 1.03860E-02 5.20335E-04-3.85337E-14
 -1      2112 1.05157E-02 4.74799E-04-3.89008E-14
 -1      2113 1.07220E-02 3.85074E-04-3.99411E-14
 -1      2114 1.07091E-02 3.70338E-04-4.00141E-14
 -1      2115 1.06137E-02 4.37494E-04-3.92464E-14
 -1      2116 1.06827E-02 4.12447E-04-3.95954E-14
 -1      2117 1.05684E-02 4.44778E-04-3.97564E-14
 -1      2118 1.00216E-02 6.88937E-04-3.72228E-14
 -1      2119 1.01954E-02 6.06015E-04-3.78134E-14
 -1      2120 9.63386E-03 8.91844E-04-3.58908E-14
 -1      2121 9.81741E-03 7.91389E-04-3.65377E-14
 -1      2122 3.27325E-04-8.86052E-05-1.27678E-16
 -1      2123 3.29351E-04-1.01767E-04-1.25374E-16
 -1      2124 4.46376E-04-1.44511E-04-1.83515E-16
 -1      2125 4.40228E-04-1.09386E-04-1.89505E-16
 -1      2126 8.87787E-03 1.27276E-03-3.27536E-14
 -1      2127 9.03654E-03 1.20693E-03-3.34786E-14
 -1      2128 8.54469E-03 1.32705E-03-3.11950E-14
 -1      2129 8.69712E-03 1.31533E-03-3.19150E-14
 -1      2130 8.19559E-03 1.25049E-03-2.96069E-14
 -1      2131 8.35565E-03 1.30556E-03-3.03042E-14
 -1      2132 7.81015E-03 1.05527E-03-2.82838E-14
 -1      2133 7.98505E-03 1.15449E-03-2.88522E-14
 -1      2134 7.40501E-03 8.20752E-04-2.72481E-14
 -1      2135 7.59564E-03 9.35615E-04-2.77251E-14
 -1      2136 6.98788E-03 5.83527E-04-2.63334E-14
 -1      2137 7.18364E-03 6.89455E-04-2.67061E-14
 -1      2138 6.60060E-03 4.09492E-04-2.58081E-14
 -1      2139 6.77021E-03 4.84694E-04-2.60498E-14
 -1      2140 6.32198E-03 2.89238E-04-2.53369E-14
 -1      2141 6.44396E-03 3.35340E-04-2.55047E-14
 -1      2142 6.17073E-03 2.28768E-04-2.52477E-14
 -1      2143 6.22030E-03 2.49834E-04-2.52768E-14
 -1      2144 6.21657E-03 1.85193E-04-2.55771E-14
 -1      2145 6.16992E-03 2.02782E-04-2.53091E-14
 -1      2146 6.41287E-03 1.23579E-04-2.59710E-14
 -1      2147 6.29713E-03 1.56258E-04-2.57725E-14
 -1      2148 6.25184E-03 1.75548E-04-2.51127E-14
 -1      2149 6.76315E-03-2.86099E-05-2.71308E-14
 -1      2150 6.59655E-03 4.67628E-05-2.66132E-14
 -1      2151 7.12973E-03-1.97137E-04-2.80851E-14
 -1      2152 6.94051E-03-1.07306E-04-2.75862E-14
 -1      2153 7.54491E-03-4.14915E-04-2.94915E-14
 -1      2154 7.36736E-03-3.17876E-04-2.88403E-14
 -1      2155 7.90062E-03-5.77511E-04-3.08674E-14
 -1      2156 7.72912E-03-5.02050E-04-3.01757E-14
 -1      2157 7.65358E-03-4.58613E-04-2.96475E-14
 -1      2158 8.27260E-03-6.67958E-04-3.26642E-14
 -1      2159 8.12003E-03-6.45594E-04-3.18836E-14
 -1      2160 8.59441E-03-6.20273E-04-3.41667E-14
 -1      2161 8.44393E-03-6.54426E-04-3.34608E-14
 -1      2162 8.93049E-03-4.82323E-04-3.56184E-14
 -1      2163 8.77054E-03-5.58847E-04-3.49533E-14
 -1      2164 9.29624E-03-2.78747E-04-3.69992E-14
 -1      2165 9.12002E-03-3.81991E-04-3.63728E-14
 -1      2166 9.71957E-03-5.24389E-05-3.81462E-14
 -1      2167 9.52667E-03-1.54090E-04-3.76680E-14
 -1      2168 1.01037E-02 1.31939E-04-3.90027E-14
 -1      2169 9.92420E-03 4.67510E-05-3.85983E-14
 -1      2170 1.04400E-02 2.68151E-04-3.96266E-14
 -1      2171 1.02980E-02 2.18608E-04-3.94448E-14
 -1      2172 1.06487E-02 3.38422E-04-3.97978E-14
 -1      2173 1.05635E-02 3.09399E-04-3.96998E-14
 -1      2174 9.23469E-03 1.11362E-03-3.43018E-14
 -1      2175 9.41456E-03 1.01257E-03-3.50434E-14
 -1      2176 9.50527E-03 9.48438E-04-3.57136E-14
 -1      2177 6.07272E-04-2.97176E-04-2.08221E-16
 -1      2178 9.11995E-03 1.16558E-03-3.40330E-14
 -1      2179 6.63152E-04-2.91298E-04-2.73124E-16
 -1      2180 1.07148E-02 3.98593E-04-4.04537E-14
 -1      2181 1.02932E-02 5.46112E-04-3.86783E-14
 -1      2182 1.44640E-02 5.90441E-04-1.01839E-13
 -1      2183 1.06872E-02 3.69173E-04-4.05849E-14
 -1      2184 9.90649E-03 7.26735E-04-3.72611E-14
 -1      2185 1.05010E-02 3.11503E-04-4.02919E-14
 -1      2186 1.01923E-02 2.00867E-04-3.97661E-14
 -1      2187 9.80010E-03 2.10188E-05-3.88627E-14
 -1      2188 9.38635E-03-2.03063E-04-3.77285E-14
 -1      2189 8.99796E-03-4.30455E-04-3.62930E-14
 -1      2190 8.66667E-03-5.96084E-04-3.47437E-14
 -1      2191 8.01906E-03-6.22416E-04-3.13358E-14
 -1      2192 7.26106E-03-2.49400E-04-2.82176E-14
 -1      2193 6.50427E-03 9.68819E-05-2.59346E-14
 -1      2194 6.15383E-03 2.09862E-04-2.48621E-14
 -1      2195 6.15410E-03 2.09130E-04-2.44202E-14
 -1      2196 6.15476E-03 1.98927E-04-2.44776E-14
 -1      2197 6.26890E-03 2.53418E-04-2.48642E-14
 -1      2198 6.53037E-03 3.45233E-04-2.52227E-14
 -1      2199 6.89822E-03 5.08375E-04-2.58011E-14
 -1      2200 7.31684E-03 7.34253E-04-2.66101E-14
 -1      2201 7.72895E-03 9.87290E-04-2.76973E-14
 -1      2202 8.11156E-03 1.20910E-03-2.89958E-14
 -1      2203 8.78777E-03 1.30583E-03-3.23642E-14
 -1      2204 8.45537E-03 1.33018E-03-3.06329E-14
 -1      2205 6.86736E-03-5.28987E-05-2.70231E-14
 -1      2206 8.35272E-03-6.72581E-04-3.31547E-14
 -1      2207 1.01592E-03 3.97535E-04-2.99037E-16
 -1      2208 8.71517E-04 3.61689E-04-2.08397E-16
 -1      2209 5.48198E-04-5.48825E-05-2.67608E-16
 -1      2210 5.49221E-04-7.14957E-05-2.69614E-16
 -1      2211 5.50621E-04-8.87271E-05-2.70874E-16
 -1      2212 5.52452E-04-1.06637E-04-2.71240E-16
 -1      2213 6.65721E-04-9.47279E-05-3.66515E-16
 -1      2214 5.46836E-04 8.77756E-06-2.52890E-16
 -1      2215 5.46814E-04-6.93029E-06-2.57552E-16
 -1      2216 5.47590E-04 4.05395E-05-2.41804E-16
 -1      2217 5.47092E-04 2.45868E-05-2.47713E-16
 -1      2218 6.61807E-04 1.97432E-05-3.40223E-16
 -1      2219 5.49401E-04 7.29492E-05-2.27506E-16
 -1      2220 5.48348E-04 5.65575E-05-2.35313E-16
 -1      2221 6.63135E-04 5.72780E-05-3.24881E-16
 -1      2222 5.52743E-04 1.08258E-04-2.08817E-16
 -1      2223 5.50850E-04 9.02579E-05-2.18724E-16
 -1      2224 6.65982E-04 9.64727E-05-3.04959E-16
 -1      2225 5.58511E-04 1.47488E-04-1.84233E-16
 -1      2226 5.55258E-04 1.27309E-04-1.97298E-16
 -1      2227 6.71013E-04 1.39036E-04-2.79087E-16
 -1      2228 5.68634E-04 1.93028E-04-1.51951E-16
 -1      2229 5.62911E-04 1.69335E-04-1.69352E-16
 -1      2230 6.79518E-04 1.86444E-04-2.45775E-16
 -1      2231 1.30134E-03 4.53137E-04-5.35745E-16
 -1      2232 1.15903E-03 4.27910E-04-4.07728E-16
 -1      2233 1.07139E-03 3.78788E-04-3.91627E-16
 -1      2234 9.14801E-04-3.44449E-04-5.12299E-16
 -1      2235 1.05887E-03-3.77204E-04-6.70538E-16
 -1      2236 9.04988E-03 1.21045E-03-3.38295E-14
 -1      2237 9.21075E-03 1.11907E-03-3.46628E-14
 -1      2238 1.20213E-03-4.04937E-04-8.51410E-16
 -1      2239 1.34497E-03-4.28063E-04-1.05492E-15
 -1      2240 1.11681E-03-3.57757E-04-7.74161E-16
 -1      2241 1.48720E-03-4.47424E-04-1.28067E-15
 -1      2242 1.62908E-03-4.63294E-04-1.52946E-15
 -1      2243 1.40322E-03-4.03029E-04-1.18244E-15
 -1      2244 1.77064E-03-4.76327E-04-1.80032E-15
 -1      2245 1.91202E-03-4.86729E-04-2.09384E-15
 -1      2246 1.68854E-03-4.34338E-04-1.67927E-15
 -1      2247 2.05330E-03-4.94979E-04-2.40946E-15
 -1      2248 2.19456E-03-5.01247E-04-2.74746E-15
 -1      2249 1.97306E-03-4.54920E-04-2.26487E-15
 -1      2250 2.33587E-03-5.05876E-04-3.10724E-15
 -1      2251 2.47728E-03-5.09005E-04-3.48889E-15
 -1      2252 2.25724E-03-4.67323E-04-2.93815E-15
 -1      2253 2.61886E-03-5.10883E-04-3.89230E-15
 -1      2254 2.76063E-03-5.11624E-04-4.31725E-15
 -1      2255 2.54148E-03-4.73493E-04-3.69839E-15
 -1      2256 2.90265E-03-5.11409E-04-4.76365E-15
 -1      2257 3.04494E-03-5.10334E-04-5.23083E-15
 -1      2258 2.82610E-03-4.74908E-04-4.54449E-15
 -1      2259 3.18754E-03-5.08538E-04-5.71904E-15
 -1      2260 3.33048E-03-5.06105E-04-6.22829E-15
 -1      2261 3.11136E-03-4.72701E-04-5.47467E-15
 -1      2262 3.47380E-03-5.03150E-04-6.75881E-15
 -1      2263 3.61753E-03-4.99754E-04-7.30984E-15
 -1      2264 3.39752E-03-4.67773E-04-6.48918E-15
 -1      2265 3.76168E-03-4.96026E-04-7.88124E-15
 -1      2266 3.90633E-03-4.92055E-04-8.47385E-15
 -1      2267 3.68477E-03-4.60897E-04-7.58681E-15
 -1      2268 4.05147E-03-4.87964E-04-9.08620E-15
 -1      2269 4.19719E-03-4.83858E-04-9.72017E-15
 -1      2270 3.97339E-03-4.52825E-04-8.76709E-15
 -1      2271 4.34349E-03-4.79890E-04-1.03746E-14
 -1      2272 4.49046E-03-4.76198E-04-1.10485E-14
 -1      2273 4.26365E-03-4.44403E-04-1.00295E-14
 -1      2274 4.63811E-03-4.72982E-04-1.17425E-14
 -1      2275 4.78652E-03-4.70421E-04-1.24572E-14
 -1      2276 4.55592E-03-4.36682E-04-1.13739E-14
 -1      2277 4.93574E-03-4.68777E-04-1.31915E-14
 -1      2278 5.08583E-03-4.68286E-04-1.39448E-14
 -1      2279 4.85067E-03-4.31034E-04-1.27976E-14
 -1      2280 5.23687E-03-4.69270E-04-1.47183E-14
 -1      2281 5.38887E-03-4.72029E-04-1.55137E-14
 -1      2282 5.14849E-03-4.29261E-04-1.43014E-14
 -1      2283 5.54198E-03-4.76929E-04-1.63299E-14
 -1      2284 5.69611E-03-4.84327E-04-1.71666E-14
 -1      2285 5.45013E-03-4.33655E-04-1.58873E-14
 -1      2286 5.85150E-03-4.94585E-04-1.80256E-14
 -1      2287 6.00789E-03-5.08078E-04-1.89075E-14
 -1      2288 5.75643E-03-4.46971E-04-1.75568E-14
 -1      2289 6.16560E-03-5.25067E-04-1.98126E-14
 -1      2290 6.32416E-03-5.45843E-04-2.07421E-14
 -1      2291 6.06820E-03-4.72225E-04-1.93156E-14
 -1      2292 6.48390E-03-5.70418E-04-2.16971E-14
 -1      2293 6.64408E-03-5.98810E-04-2.26757E-14
 -1      2294 6.38586E-03-5.12126E-04-2.11702E-14
 -1      2295 6.80497E-03-6.30599E-04-2.36802E-14
 -1      2296 6.96560E-03-6.65206E-04-2.47095E-14
 -1      2297 6.70885E-03-5.67991E-04-2.31225E-14
 -1      2298 7.12604E-03-7.01600E-04-2.57632E-14
 -1      2299 7.28531E-03-7.38335E-04-2.68427E-14
 -1      2300 7.03486E-03-6.37888E-04-2.51741E-14
 -1      2301 7.44323E-03-7.73727E-04-2.79495E-14
 -1      2302 7.59931E-03-8.05416E-04-2.90829E-14
 -1      2303 7.35962E-03-7.14217E-04-2.73269E-14
 -1      2304 7.75314E-03-8.31341E-04-3.02431E-14
 -1      2305 7.90532E-03-8.48973E-04-3.14314E-14
 -1      2306 7.67813E-03-7.82106E-04-2.95876E-14
 -1      2307 8.05539E-03-8.56628E-04-3.26450E-14
 -1      2308 8.20498E-03-8.52647E-04-3.38868E-14
 -1      2309 7.98783E-03-8.21497E-04-3.19549E-14
 -1      2310 8.35367E-03-8.36487E-04-3.51552E-14
 -1      2311 8.50366E-03-8.08282E-04-3.64494E-14
 -1      2312 8.29132E-03-8.15063E-04-3.44324E-14
 -1      2313 8.65449E-03-7.68932E-04-3.77705E-14
 -1      2314 8.80758E-03-7.20506E-04-3.91166E-14
 -1      2315 8.59583E-03-7.56374E-04-3.70171E-14
 -1      2316 8.96246E-03-6.64837E-04-4.04861E-14
 -1      2317 9.11945E-03-6.04524E-04-4.18793E-14
 -1      2318 8.90766E-03-6.55014E-04-3.97040E-14
 -1      2319 9.27816E-03-5.41571E-04-4.32944E-14
 -1      2320 9.43797E-03-4.78136E-04-4.47322E-14
 -1      2321 9.22806E-03-5.30150E-04-4.24821E-14
 -1      2322 9.59872E-03-4.15746E-04-4.61910E-14
 -1      2323 9.75944E-03-3.55644E-04-4.76688E-14
 -1      2324 9.55361E-03-4.00942E-04-4.53513E-14
 -1      2325 9.92022E-03-2.98696E-04-4.91675E-14
 -1      2326 1.00802E-02-2.45304E-04-5.06840E-14
 -1      2327 9.87930E-03-2.80507E-04-4.83039E-14
 -1      2328 1.02396E-02-1.95764E-04-5.22178E-14
 -1      2329 1.03977E-02-1.49974E-04-5.37687E-14
 -1      2330 1.02013E-02-1.74888E-04-5.13330E-14
 -1      2331 1.05550E-02-1.07844E-04-5.53374E-14
 -1      2332 1.07110E-02-6.90462E-05-5.69224E-14
 -1      2333 1.05177E-02-8.50278E-05-5.44326E-14
 -1      2334 1.08660E-02-3.32847E-05-5.85234E-14
 -1      2335 1.10198E-02-1.82788E-07-6.01395E-14
 -1      2336 1.08283E-02-9.12819E-06-5.75992E-14
 -1      2337 1.11726E-02 3.06286E-05-6.17694E-14
 -1      2338 1.13244E-02 5.94921E-05-6.34158E-14
 -1      2339 1.11337E-02 5.56758E-05-6.08269E-14
 -1      2340 1.14753E-02 8.67646E-05-6.50774E-14
 -1      2341 1.16254E-02 1.12725E-04-6.67525E-14
 -1      2342 1.14348E-02 1.12362E-04-6.41164E-14
 -1      2343 1.17746E-02 1.37677E-04-6.84427E-14
 -1      2344 1.19231E-02 1.61832E-04-7.01482E-14
 -1      2345 1.17323E-02 1.63563E-04-6.74648E-14
 -1      2346 1.20710E-02 1.85425E-04-7.18677E-14
 -1      2347 1.22182E-02 2.08611E-04-7.36017E-14
 -1      2348 1.20271E-02 2.11401E-04-7.08716E-14
 -1      2349 1.23649E-02 2.31559E-04-7.53494E-14
 -1      2350 1.25111E-02 2.54377E-04-7.71116E-14
 -1      2351 1.23197E-02 2.57477E-04-7.43351E-14
 -1      2352 1.26569E-02 2.77179E-04-7.88874E-14
 -1      2353 1.28022E-02 3.00037E-04-8.06761E-14
 -1      2354 1.26106E-02 3.02935E-04-7.78532E-14
 -1      2355 1.29472E-02 3.23022E-04-8.24780E-14
 -1      2356 1.30919E-02 3.46183E-04-8.42915E-14
 -1      2357 1.29002E-02 3.48548E-04-8.14247E-14
 -1      2358 1.32363E-02 3.69556E-04-8.61166E-14
 -1      2359 1.33804E-02 3.93175E-04-8.79463E-14
 -1      2360 1.31887E-02 3.94808E-04-8.50417E-14
 -1      2361 1.35243E-02 4.17056E-04-8.97830E-14
 -1      2362 1.36680E-02 4.41218E-04-9.16269E-14
 -1      2363 1.34764E-02 4.42008E-04-8.86972E-14
 -1      2364 1.38115E-02 4.65662E-04-9.34787E-14
 -1      2365 1.39549E-02 4.90402E-04-9.53374E-14
 -1      2366 1.37634E-02 4.90300E-04-9.23787E-14
 -1      2367 1.05351E-02 4.55091E-04-4.03236E-14
 -1      2368 1.06243E-02 4.31096E-04-4.06762E-14
 -1      2369 1.86490E-03 5.17597E-04-1.24582E-15
 -1      2370 1.72450E-03 5.06060E-04-1.03848E-15
 -1      2371 2.14556E-03 5.33955E-04-1.72238E-15
 -1      2372 2.00524E-03 5.26836E-04-1.47382E-15
 -1      2373 1.92474E-03 4.86352E-04-1.42762E-15
 -1      2374 2.42661E-03 5.43068E-04-2.28103E-15
 -1      2375 2.28601E-03 5.39316E-04-1.99146E-15
 -1      2376 2.20745E-03 5.00510E-04-1.93384E-15
 -1      2377 2.70856E-03 5.46620E-04-2.92216E-15
 -1      2378 2.56745E-03 5.45461E-04-2.59107E-15
 -1      2379 2.49036E-03 5.07930E-04-2.52131E-15
 -1      2380 2.99184E-03 5.45858E-04-3.64722E-15
 -1      2381 2.85002E-03 5.46718E-04-3.27387E-15
 -1      2382 2.77390E-03 5.10157E-04-3.19170E-15
 -1      2383 3.27678E-03 5.41713E-04-4.45527E-15
 -1      2384 3.13408E-03 5.44159E-04-4.04123E-15
 -1      2385 3.05842E-03 5.08341E-04-3.94566E-15
 -1      2386 3.56370E-03 5.34911E-04-5.34723E-15
 -1      2387 3.41996E-03 5.38601E-04-4.89063E-15
 -1      2388 3.34419E-03 5.03345E-04-4.78265E-15
 -1      2389 3.85298E-03 5.26085E-04-6.32532E-15
 -1      2390 3.70801E-03 5.30708E-04-5.82484E-15
 -1      2391 3.63148E-03 4.95853E-04-5.70270E-15
 -1      2392 4.14504E-03 5.15890E-04-7.39274E-15
 -1      2393 3.99861E-03 5.21108E-04-6.84755E-15
 -1      2394 3.92058E-03 4.86479E-04-6.71060E-15
 -1      2395 4.44040E-03 5.05155E-04-8.54923E-15
 -1      2396 4.29225E-03 5.10524E-04-7.96025E-15
 -1      2397 4.21182E-03 4.75892E-04-7.80639E-15
 -1      2398 4.73967E-03 4.95066E-04-9.79728E-15
 -1      2399 4.58947E-03 4.99935E-04-9.16220E-15
 -1      2400 4.50556E-03 4.64958E-04-8.99252E-15
 -1      2401 5.04359E-03 4.87419E-04-1.11317E-14
 -1      2402 4.89096E-03 4.90799E-04-1.04535E-14
 -1      2403 4.80227E-03 4.54938E-04-1.02672E-14
 -1      2404 5.35303E-03 4.84950E-04-1.25529E-14
 -1      2405 5.19751E-03 4.85333E-04-1.18319E-14
 -1      2406 5.10253E-03 4.47735E-04-1.16285E-14
 -1      2407 5.66904E-03 4.91732E-04-1.40600E-14
 -1      2408 5.51011E-03 4.86884E-04-1.32949E-14
 -1      2409 5.40716E-03 4.46211E-04-1.30749E-14
 -1      2410 5.99295E-03 5.13597E-04-1.56566E-14
 -1      2411 5.82993E-03 5.00351E-04-1.48475E-14
 -1      2412 5.71735E-03 4.54577E-04-1.46093E-14
 -1      2413 6.32638E-03 5.58366E-04-1.73411E-14
 -1      2414 6.15847E-03 5.32542E-04-1.64876E-14
 -1      2415 6.03498E-03 4.78798E-04-1.62321E-14
 -1      2416 6.67115E-03 6.35424E-04-1.91104E-14
 -1      2417 6.49751E-03 5.92176E-04-1.82152E-14
 -1      2418 6.36288E-03 5.26861E-04-1.79418E-14
 -1      2419 7.02835E-03 7.53679E-04-2.09697E-14
 -1      2420 6.84868E-03 6.88863E-04-2.00278E-14
 -1      2421 6.70479E-03 6.08549E-04-1.97375E-14
 -1      2422 7.39593E-03 9.16053E-04-2.29184E-14
 -1      2423 7.21177E-03 8.29566E-04-2.19322E-14
 -1      2424 7.06385E-03 7.33626E-04-2.16203E-14
 -1      2425 7.76624E-03 1.10950E-03-2.49677E-14
 -1      2426 7.58202E-03 1.01060E-03-2.39298E-14
 -1      2427 7.43879E-03 9.05558E-04-2.35954E-14
 -1      2428 8.12650E-03 1.29557E-03-2.71272E-14
 -1      2429 7.94828E-03 1.20731E-03-2.60349E-14
 -1      2430 7.81948E-03 1.10949E-03-2.56723E-14
 -1      2431 8.46967E-03 1.41486E-03-2.94012E-14
 -1      2432 8.29905E-03 1.36786E-03-2.82498E-14
 -1      2433 8.18888E-03 1.29845E-03-2.78605E-14
 -1      2434 8.80566E-03 1.42192E-03-3.17910E-14
 -1      2435 8.63584E-03 1.43299E-03-3.05812E-14
 -1      2436 8.54076E-03 1.40005E-03-3.01651E-14
 -1      2437 9.15278E-03 1.32693E-03-3.42966E-14
 -1      2438 8.97595E-03 1.38374E-03-3.30296E-14
 -1      2439 8.88971E-03 1.37220E-03-3.25873E-14
 -1      2440 9.51689E-03 1.18532E-03-3.69097E-14
 -1      2441 9.33328E-03 1.25800E-03-3.55895E-14
 -1      2442 9.25513E-03 1.24617E-03-3.51252E-14
 -1      2443 9.88802E-03 1.05143E-03-3.96272E-14
 -1      2444 9.70346E-03 1.11479E-03-3.82557E-14
 -1      2445 9.63586E-03 1.09285E-03-3.77734E-14
 -1      2446 1.02527E-02 9.55788E-04-4.24369E-14
 -1      2447 1.00720E-02 9.98173E-04-4.10206E-14
 -1      2448 1.00129E-02 9.66424E-04-4.05211E-14
 -1      2449 1.06062E-02 9.04407E-04-4.53336E-14
 -1      2450 1.04314E-02 9.24855E-04-4.38744E-14
 -1      2451 1.03749E-02 8.85820E-04-4.33588E-14
 -1      2452 1.09474E-02 8.91533E-04-4.83125E-14
 -1      2453 1.07784E-02 8.93774E-04-4.68136E-14
 -1      2454 1.07197E-02 8.49840E-04-4.62810E-14
 -1      2455 1.12779E-02 9.07632E-04-5.13700E-14
 -1      2456 1.11139E-02 8.96546E-04-4.98316E-14
 -1      2457 1.10499E-02 8.49151E-04-4.92822E-14
 -1      2458 1.15995E-02 9.43722E-04-5.44991E-14
 -1      2459 1.14397E-02 9.23649E-04-5.29259E-14
 -1      2460 1.13694E-02 8.73772E-04-5.23584E-14
 -1      2461 1.19138E-02 9.92644E-04-5.77006E-14
 -1      2462 1.17574E-02 9.66926E-04-5.60919E-14
 -1      2463 1.16810E-02 9.15361E-04-5.55070E-14
 -1      2464 1.22221E-02 1.04921E-03-6.09726E-14
 -1      2465 1.20686E-02 1.02021E-03-5.93270E-14
 -1      2466 1.19870E-02 9.67619E-04-5.87263E-14
 -1      2467 1.25254E-02 1.10987E-03-6.43151E-14
 -1      2468 1.23743E-02 1.07919E-03-6.26360E-14
 -1      2469 1.22886E-02 1.02608E-03-6.20150E-14
 -1      2470 1.28247E-02 1.17231E-03-6.77146E-14
 -1      2471 1.26755E-02 1.14097E-03-6.60072E-14
 -1      2472 1.25868E-02 1.08772E-03-6.53724E-14
 -1      2473 1.31206E-02 1.23509E-03-7.11649E-14
 -1      2474 1.29730E-02 1.20372E-03-6.94351E-14
 -1      2475 1.28821E-02 1.15058E-03-6.87861E-14
 -1      2476 1.34139E-02 1.29735E-03-7.46466E-14
 -1      2477 1.32675E-02 1.26633E-03-7.29008E-14
 -1      2478 1.31752E-02 1.21343E-03-7.22434E-14
 -1      2479 1.37051E-02 1.35860E-03-7.81523E-14
 -1      2480 1.35597E-02 1.32812E-03-7.63982E-14
 -1      2481 1.34664E-02 1.27557E-03-7.57310E-14
 -1      2482 1.39947E-02 1.41861E-03-8.16782E-14
 -1      2483 1.38501E-02 1.38878E-03-7.99147E-14
 -1      2484 1.37561E-02 1.33660E-03-7.92449E-14
 -1      2485 1.42830E-02 1.47728E-03-8.52198E-14
 -1      2486 1.41389E-02 1.44812E-03-8.34464E-14
 -1      2487 1.40447E-02 1.39634E-03-8.27761E-14
 -1      2488 1.45703E-02 1.53460E-03-8.87844E-14
 -1      2489 1.44267E-02 1.50611E-03-8.69989E-14
 -1      2490 1.43323E-02 1.45472E-03-8.63254E-14
 -1      2491 1.48569E-02 1.59063E-03-9.23610E-14
 -1      2492 1.47137E-02 1.56278E-03-9.05712E-14
 -1      2493 1.46192E-02 1.51175E-03-8.98929E-14
 -1      2494 1.50055E-02 1.62014E-03-9.42113E-14
 -1      2495 1.47264E-02 1.27832E-03-9.51284E-14
 -1      2496 1.47514E-02 1.31911E-03-9.48912E-14
 -1      2497 1.46762E-02 1.19714E-03-9.56022E-14
 -1      2498 1.47013E-02 1.23767E-03-9.53653E-14
 -1      2499 1.45908E-02 1.23443E-03-9.36839E-14
 -1      2500 1.48256E-02 1.44108E-03-9.41808E-14
 -1      2501 1.48509E-02 1.48255E-03-9.39383E-14
 -1      2502 1.47761E-02 1.35971E-03-9.46556E-14
 -1      2503 1.48007E-02 1.40013E-03-9.44199E-14
 -1      2504 1.46897E-02 1.39685E-03-9.27414E-14
 -1      2505 1.46403E-02 1.31546E-03-9.32152E-14
 -1      2506 1.46252E-02 1.11633E-03-9.60686E-14
 -1      2507 1.46508E-02 1.15670E-03-9.58368E-14
 -1      2508 1.45405E-02 1.15361E-03-9.41501E-14
 -1      2509 1.45734E-02 1.03568E-03-9.65339E-14
 -1      2510 1.45994E-02 1.07600E-03-9.63026E-14
 -1      2511 1.44895E-02 1.07314E-03-9.46121E-14
 -1      2512 1.45206E-02 9.54929E-04-9.69937E-14
 -1      2513 1.45471E-02 9.95333E-04-9.67623E-14
 -1      2514 1.44374E-02 9.92756E-04-9.50684E-14
 -1      2515 1.44679E-02 8.75244E-04-9.74355E-14
 -1      2516 1.44943E-02 9.15140E-04-9.72143E-14
 -1      2517 1.43847E-02 9.12888E-04-9.55117E-14
 -1      2518 1.44138E-02 7.93691E-04-9.78853E-14
 -1      2519 1.44409E-02 8.34541E-04-9.76612E-14
 -1      2520 1.43313E-02 8.32625E-04-9.59528E-14
 -1      2521 1.43597E-02 7.11514E-04-9.83274E-14
 -1      2522 1.43867E-02 7.52685E-04-9.81081E-14
 -1      2523 1.42769E-02 7.51096E-04-9.63957E-14
 -1      2524 1.43059E-02 6.28661E-04-9.87582E-14
 -1      2525 1.43327E-02 6.70169E-04-9.85431E-14
 -1      2526 1.42226E-02 6.68862E-04-9.68284E-14
 -1      2527 1.43370E-02 5.69036E-04-1.00151E-13
 -1      2528 1.07150E-02 3.83280E-04-4.15054E-14
 -1      2529 1.06493E-02 3.68877E-04-4.12869E-14
 -1      2530 1.58386E-03 4.91702E-04-8.51004E-16
 -1      2531 1.44285E-03 4.74315E-04-6.83400E-16
 -1      2532 1.64165E-03 4.63368E-04-1.00282E-15
 -1      2533 1.01975E-02 5.80730E-04-3.89570E-14
 -1      2534 1.03744E-02 5.11363E-04-3.96905E-14
 -1      2535 1.05639E-02 3.46293E-04-4.12041E-14
 -1      2536 1.04509E-02 3.17584E-04-4.11241E-14
 -1      2537 1.06191E-02 3.67316E-04-4.21244E-14
 -1      2538 5.88269E-04-2.37051E-04-2.47266E-16
 -1      2539 7.80993E-04-3.03321E-04-3.91329E-16
 -1      2540 8.40604E-04-2.91928E-04-4.70557E-16
 -1      2541 5.78916E-04-2.09302E-04-2.57742E-16
 -1      2542 9.82014E-03 7.66230E-04-3.74237E-14
 -1      2543 1.00012E-02 6.71913E-04-3.81217E-14
 -1      2544 7.36857E-03-3.02899E-04-2.82756E-14
 -1      2545 7.15941E-03-1.88588E-04-2.75337E-14
 -1      2546 5.47024E-04-2.27220E-05-2.61564E-16
 -1      2547 5.47476E-04-3.86397E-05-2.64965E-16
 -1      2548 6.62971E-04-5.53333E-05-3.61256E-16
 -1      2549 6.61749E-04-1.75502E-05-3.52488E-16
 -1      2550 8.40628E-03 1.32835E-03-3.01725E-14
 -1      2551 8.55754E-03 1.34803E-03-3.10630E-14
 -1      2552 6.93371E-03-7.73333E-05-2.67141E-14
 -1      2553 6.77830E-03-6.89048E-06-2.62724E-14
 -1      2554 8.70449E-03 1.33692E-03-3.18890E-14
 -1      2555 8.84997E-03 1.29581E-03-3.27295E-14
 -1      2556 8.63782E-03 1.35279E-03-3.14159E-14
 -1      2557 8.02487E-03 1.15711E-03-2.82750E-14
 -1      2558 8.19278E-03 1.25161E-03-2.90172E-14
 -1      2559 7.63815E-03 9.11948E-04-2.70017E-14
 -1      2560 7.81635E-03 1.02986E-03-2.75456E-14
 -1      2561 7.24596E-03 6.67282E-04-2.59389E-14
 -1      2562 7.44510E-03 7.90343E-04-2.64668E-14
 -1      2563 7.53858E-03 8.45331E-04-2.63156E-14
 -1      2564 6.79200E-03 4.33040E-04-2.51218E-14
 -1      2565 6.98513E-03 5.24472E-04-2.53933E-14
 -1      2566 6.47225E-03 3.03051E-04-2.45271E-14
 -1      2567 6.62396E-03 3.59604E-04-2.48234E-14
 -1      2568 6.69992E-03 3.84487E-04-2.44208E-14
 -1      2569 6.21355E-03 2.26855E-04-2.42130E-14
 -1      2570 6.30995E-03 2.49722E-04-2.42713E-14
 -1      2571 6.26614E-03 1.65745E-04-2.45494E-14
 -1      2572 6.19544E-03 1.80829E-04-2.43634E-14
 -1      2573 8.44492E-03-6.66167E-04-3.38065E-14
 -1      2574 8.30780E-03-6.81532E-04-3.30029E-14
 -1      2575 6.58251E-03 7.08892E-05-2.56359E-14
 -1      2576 6.40931E-03 1.25313E-04-2.50103E-14
 -1      2577 6.63718E-03 3.33039E-05-2.53342E-14
 -1      2578 7.72242E-03-4.98440E-04-2.97486E-14
 -1      2579 7.57096E-03-4.13693E-04-2.90734E-14
 -1      2580 8.09230E-03-6.54592E-04-3.17116E-14
 -1      2581 7.91420E-03-5.88446E-04-3.07009E-14
 -1      2582 8.72542E-03-5.66773E-04-3.53822E-14
 -1      2583 8.58422E-03-6.28304E-04-3.45883E-14
 -1      2584 8.51912E-03-6.49259E-04-3.44318E-14
 -1      2585 9.05283E-03-3.82541E-04-3.70084E-14
 -1      2586 8.89300E-03-4.80168E-04-3.62450E-14
 -1      2587 9.47681E-03-1.27682E-04-3.86003E-14
 -1      2588 9.27606E-03-2.48515E-04-3.79189E-14
 -1      2589 9.88595E-03 8.76534E-05-3.96733E-14
 -1      2590 9.70116E-03-5.93711E-06-3.92101E-14
 -1      2591 1.02684E-02 2.51284E-04-4.05770E-14
 -1      2592 1.00836E-02 1.77352E-04-4.01252E-14
 -1      2593 1.07013E-02 4.08648E-04-4.10264E-14
 -1      2594 1.07404E-02 3.99090E-04-4.13773E-14
 -1      2595 7.57299E-04 3.32858E-04-1.44063E-16
 -1      2596 6.10981E-04 2.83903E-04-8.64922E-17
 -1      2597 5.84404E-04 2.57193E-04-9.72529E-17
 -1      2598 8.13336E-04 3.21330E-04-2.10945E-16
 -1      2599 9.40832E-03 1.00634E-03-3.56735E-14
 -1      2600 9.59622E-03 8.92926E-04-3.65340E-14
 -1      2601 6.70581E-04-1.37000E-04-3.67477E-16
 -1      2602 5.54864E-04-1.25488E-04-2.70386E-16
 -1      2603 5.57991E-04-1.45442E-04-2.68272E-16
 -1      2604 1.35746E-03 4.28759E-04-6.58070E-16
 -1      2605 5.72094E-04 2.27018E-04-1.21011E-16
 -1      2606 9.33234E-03 1.06586E-03-3.54632E-14
 -1      2607 9.72119E-03 8.36238E-04-3.73801E-14
 -1      2608 1.04644E-02 4.90382E-04-4.06049E-14
 -1      2609 1.49110E-02 1.56945E-03-9.35318E-14
 -1      2610 1.48749E-02 1.53354E-03-9.35270E-14
 -1      2611 1.41785E-02 5.27381E-04-9.82773E-14
 -1      2612 1.42578E-02 5.88312E-04-9.86142E-14
 -1      2613 1.41473E-02 5.87250E-04-9.68950E-14
 -1      2614 1.40512E-02 5.06455E-04-9.66011E-14
 -1      2615 1.06883E-02 4.23505E-04-4.15981E-14
 -1      2616 1.03658E-02 2.94108E-04-4.14844E-14
 -1      2617 1.07509E-02 3.96965E-04-4.20793E-14
 -1      2618 1.07448E-02 3.97670E-04-4.27850E-14
 -1      2619 1.07717E-02 4.07446E-04-4.26562E-14
 -1      2620 6.89451E-04 2.50050E-04-1.89424E-16
 -1      2621 1.01213E-02 6.27151E-04-3.91202E-14
 -1      2622 9.99045E-03 1.44426E-04-4.04756E-14
 -1      2623 9.58643E-03-6.09991E-05-3.94021E-14
 -1      2624 5.71814E-04-1.84450E-04-2.65223E-16
 -1      2625 7.44648E-03-3.55670E-04-2.83716E-14
 -1      2626 7.03646E-03-1.39105E-04-2.67675E-14
 -1      2627 8.80132E-03-5.27086E-04-3.60832E-14
 -1      2628 8.19212E-03-6.79305E-04-3.23428E-14
 -1      2629 8.08399E-03-6.62708E-04-3.16909E-14
 -1      2630 8.27876E-03-6.88173E-04-3.29818E-14
 -1      2631 6.31461E-03 1.37320E-04-2.42582E-14
 -1      2632 6.37456E-03 2.66053E-04-2.38764E-14
 -1      2633 7.10800E-03 5.86268E-04-2.52497E-14
 -1      2634 6.15127E-03 1.83553E-04-2.39228E-14
 -1      2635 6.16131E-03 2.10047E-04-2.38315E-14
 -1      2636 8.95704E-03 1.26357E-03-3.33395E-14
 -1      2637 7.91589E-03 1.09262E-03-2.75617E-14
 -1      2638 7.81466E-03-5.52978E-04-3.01096E-14
 -1      2639 9.16476E-03-3.12139E-04-3.78661E-14
 -1      2640 1.47383E-02 1.48866E-03-9.20940E-14
 -1      2641 1.40030E-02 5.30831E-04-9.54865E-14
 -1      2642 8.24918E-03 1.28133E-03-2.90112E-14
 -1      2643 8.34793E-03 1.31503E-03-2.97507E-14
 -1      2644 7.80689E-04 7.65880E-05-4.20047E-16
 -1      2645 7.79426E-04 5.49194E-05-4.30997E-16
 -1      2646 7.78574E-04 3.32161E-05-4.40755E-16
 -1      2647 7.78146E-04 1.17693E-05-4.49551E-16
 -1      2648 8.96973E-04 4.91197E-05-5.53810E-16
 -1      2649 7.91946E-04 1.71795E-04-3.59359E-16
 -1      2650 7.87988E-04 1.46494E-04-3.77560E-16
 -1      2651 8.03621E-04 2.26829E-04-3.16601E-16
 -1      2652 7.97111E-04 1.98510E-04-3.39545E-16
 -1      2653 9.15246E-04 2.06071E-04-4.49795E-16
 -1      2654 1.12968E-03 3.59150E-04-4.90900E-16
 -1      2655 9.86066E-04 3.30695E-04-3.71719E-16
 -1      2656 1.00513E-02 6.82922E-04-3.93082E-14
 -1      2657 1.02259E-02 6.05187E-04-4.01581E-14
 -1      2658 1.41601E-03 4.03530E-04-7.86548E-16
 -1      2659 1.27291E-03 3.83306E-04-6.28810E-16
 -1      2660 1.18976E-03 3.38420E-04-5.96447E-16
 -1      2661 9.66850E-03 8.97210E-04-3.74830E-14
 -1      2662 9.85832E-03 7.83193E-04-3.83892E-14
 -1      2663 9.99204E-03 7.49059E-04-3.94119E-14
 -1      2664 8.44469E-03 1.34603E-03-3.01691E-14
 -1      2665 7.88884E-04-2.51000E-04-4.41324E-16
 -1      2666 9.20068E-04-2.86359E-04-5.70453E-16
 -1      2667 1.32023E-03-3.59019E-04-1.08560E-15
 -1      2668 1.46352E-03-3.77177E-04-1.31203E-15
 -1      2669 1.60663E-03-3.92321E-04-1.55991E-15
 -1      2670 1.74965E-03-4.04660E-04-1.83028E-15
 -1      2671 1.52528E-03-3.50547E-04-1.44313E-15
 -1      2672 1.89255E-03-4.14655E-04-2.12262E-15
 -1      2673 2.03535E-03-4.22487E-04-2.43632E-15
 -1      2674 1.81206E-03-3.74361E-04-1.98248E-15
 -1      2675 2.17809E-03-4.28516E-04-2.77175E-15
 -1      2676 2.32079E-03-4.32886E-04-3.12887E-15
 -1      2677 2.09867E-03-3.89560E-04-2.60829E-15
 -1      2678 2.46347E-03-4.35871E-04-3.50730E-15
 -1      2679 2.60617E-03-4.37586E-04-3.90725E-15
 -1      2680 2.38506E-03-3.98067E-04-3.31920E-15
 -1      2681 2.74892E-03-4.38239E-04-4.32857E-15
 -1      2682 2.89172E-03-4.37921E-04-4.77071E-15
 -1      2683 2.67129E-03-4.01413E-04-4.11566E-15
 -1      2684 3.03462E-03-4.36791E-04-5.23377E-15
 -1      2685 3.17763E-03-4.34923E-04-5.71766E-15
 -1      2686 2.95748E-03-4.00785E-04-4.99611E-15
 -1      2687 3.32077E-03-4.32444E-04-6.22266E-15
 -1      2688 3.46407E-03-4.29419E-04-6.74905E-15
 -1      2689 3.24372E-03-3.97112E-04-5.96004E-15
 -1      2690 3.60754E-03-4.25961E-04-7.29565E-15
 -1      2691 3.75123E-03-4.22135E-04-7.86278E-15
 -1      2692 3.53014E-03-3.91147E-04-7.00731E-15
 -1      2693 3.89514E-03-4.18053E-04-8.45077E-15
 -1      2694 4.03933E-03-4.13793E-04-9.05927E-15
 -1      2695 3.81689E-03-3.83560E-04-8.13743E-15
 -1      2696 4.18381E-03-4.09483E-04-9.68844E-15
 -1      2697 4.32867E-03-4.05224E-04-1.03383E-14
 -1      2698 4.10417E-03-3.75034E-04-9.35086E-15
 -1      2699 4.47392E-03-4.01172E-04-1.10079E-14
 -1      2700 4.61965E-03-3.97471E-04-1.16973E-14
 -1      2701 4.39228E-03-3.66369E-04-1.06451E-14
 -1      2702 4.76592E-03-3.94317E-04-1.24073E-14
 -1      2703 4.91283E-03-3.91911E-04-1.31369E-14
 -1      2704 4.68168E-03-3.58580E-04-1.20202E-14
 -1      2705 5.06049E-03-3.90497E-04-1.38872E-14
 -1      2706 5.20900E-03-3.90356E-04-1.46571E-14
 -1      2707 4.97306E-03-3.53017E-04-1.34749E-14
 -1      2708 5.35854E-03-3.91772E-04-1.54461E-14
 -1      2709 5.50920E-03-3.95128E-04-1.62582E-14
 -1      2710 5.26742E-03-3.51474E-04-1.50106E-14
 -1      2711 5.66125E-03-4.00727E-04-1.70920E-14
 -1      2712 5.81472E-03-4.09062E-04-1.79463E-14
 -1      2713 5.56616E-03-3.56283E-04-1.66293E-14
 -1      2714 5.96998E-03-4.20412E-04-1.88241E-14
 -1      2715 6.12692E-03-4.35347E-04-1.97240E-14
 -1      2716 5.87108E-03-3.70382E-04-1.83350E-14
 -1      2717 6.28598E-03-4.54043E-04-2.06474E-14
 -1      2718 6.44675E-03-4.77003E-04-2.15968E-14
 -1      2719 6.18416E-03-3.97248E-04-2.01307E-14
 -1      2720 6.60967E-03-5.04170E-04-2.25698E-14
 -1      2721 6.77389E-03-5.35713E-04-2.35664E-14
 -1      2722 6.50692E-03-4.40439E-04-2.20212E-14
 -1      2723 6.93970E-03-5.71158E-04-2.45891E-14
 -1      2724 7.10571E-03-6.09701E-04-2.56355E-14
 -1      2725 6.83925E-03-5.02391E-04-2.40083E-14
 -1      2726 7.27182E-03-6.50201E-04-2.67092E-14
 -1      2727 7.43662E-03-6.90370E-04-2.78086E-14
 -1      2728 7.17777E-03-5.81672E-04-2.60957E-14
 -1      2729 7.59964E-03-7.28303E-04-2.89356E-14
 -1      2730 7.76016E-03-7.60160E-04-3.00898E-14
 -1      2731 7.51531E-03-6.68214E-04-2.82881E-14
 -1      2732 7.91748E-03-7.83560E-04-3.12712E-14
 -1      2733 8.07322E-03-7.95211E-04-3.24794E-14
 -1      2734 7.84360E-03-7.40404E-04-3.05894E-14
 -1      2735 8.22609E-03-7.93632E-04-3.37141E-14
 -1      2736 8.38000E-03-7.76770E-04-3.49767E-14
 -1      2737 8.15915E-03-7.69867E-04-3.30007E-14
 -1      2738 8.53419E-03-7.45138E-04-3.62669E-14
 -1      2739 8.69091E-03-7.01100E-04-3.75838E-14
 -1      2740 8.47121E-03-7.34987E-04-3.55206E-14
 -1      2741 8.84974E-03-6.46380E-04-3.89243E-14
 -1      2742 9.01148E-03-5.84848E-04-4.02884E-14
 -1      2743 8.79037E-03-6.39978E-04-3.81473E-14
 -1      2744 9.17546E-03-5.18732E-04-4.16749E-14
 -1      2745 9.34084E-03-4.51576E-04-4.30833E-14
 -1      2746 9.12128E-03-5.08695E-04-4.08697E-14
 -1      2747 9.50722E-03-3.85052E-04-4.45153E-14
 -1      2748 9.67305E-03-3.21158E-04-4.59685E-14
 -1      2749 9.45977E-03-3.69007E-04-4.36826E-14
 -1      2750 9.83836E-03-2.60828E-04-4.74446E-14
 -1      2751 1.00019E-02-2.04547E-04-4.89379E-14
 -1      2752 9.79736E-03-2.39942E-04-4.65861E-14
 -1      2753 1.01640E-02-1.52681E-04-5.04494E-14
 -1      2754 1.03239E-02-1.04938E-04-5.19805E-14
 -1      2755 1.01276E-02-1.29049E-04-4.95704E-14
 -1      2756 1.04821E-02-6.13133E-05-5.35290E-14
 -1      2757 1.06382E-02-2.12512E-05-5.50950E-14
 -1      2758 1.04481E-02-3.64786E-05-5.26280E-14
 -1      2759 1.07927E-02 1.54543E-05-5.66766E-14
 -1      2760 1.09455E-02 4.93631E-05-5.82744E-14
 -1      2761 1.07591E-02 4.06797E-05-5.57563E-14
 -1      2762 1.10970E-02 8.07652E-05-5.98885E-14
 -1      2763 1.12472E-02 1.10126E-04-6.15157E-14
 -1      2764 1.10624E-02 1.06056E-04-5.89493E-14
 -1      2765 1.13964E-02 1.37747E-04-6.31584E-14
 -1      2766 1.15446E-02 1.63982E-04-6.48157E-14
 -1      2767 1.13600E-02 1.63013E-04-6.22037E-14
 -1      2768 1.16920E-02 1.89101E-04-6.64890E-14
 -1      2769 1.18388E-02 2.13361E-04-6.81770E-14
 -1      2770 1.16537E-02 2.14328E-04-6.55154E-14
 -1      2771 1.19850E-02 2.36982E-04-6.98786E-14
 -1      2772 1.21307E-02 2.60143E-04-7.15938E-14
 -1      2773 1.19446E-02 2.62166E-04-6.88881E-14
 -1      2774 1.22760E-02 2.83013E-04-7.33221E-14
 -1      2775 1.24209E-02 3.05709E-04-7.50658E-14
 -1      2776 1.22338E-02 3.08137E-04-7.23130E-14
 -1      2777 1.25656E-02 3.28354E-04-7.68238E-14
 -1      2778 1.27100E-02 3.51023E-04-7.85927E-14
 -1      2779 1.25218E-02 3.53393E-04-7.57954E-14
 -1      2780 1.28541E-02 3.73796E-04-8.03741E-14
 -1      2781 1.29981E-02 3.96721E-04-8.21687E-14
 -1      2782 1.28090E-02 3.98719E-04-7.93292E-14
 -1      2783 1.31418E-02 4.19846E-04-8.39741E-14
 -1      2784 1.32855E-02 4.43198E-04-8.57905E-14
 -1      2785 1.30958E-02 4.44622E-04-8.29109E-14
 -1      2786 1.34290E-02 4.66803E-04-8.76150E-14
 -1      2787 1.35724E-02 4.90679E-04-8.94441E-14
 -1      2788 1.33822E-02 4.91402E-04-8.65333E-14
 -1      2789 1.37156E-02 5.14834E-04-9.12790E-14
 -1      2790 1.38588E-02 5.39275E-04-9.31233E-14
 -1      2791 1.36683E-02 5.39227E-04-9.01879E-14
 -1      2792 1.06794E-02 4.39854E-04-4.22038E-14
 -1      2793 1.07442E-02 4.24161E-04-4.25605E-14
 -1      2794 1.40512E-02 5.71129E-04-9.56347E-14
 -1      2795 1.40995E-02 6.11294E-04-9.57811E-14
 -1      2796 1.39550E-02 5.55135E-04-9.43778E-14
 -1      2797 1.98595E-03 4.54404E-04-1.61489E-15
 -1      2798 1.84370E-03 4.45503E-04-1.37779E-15
 -1      2799 2.83937E-03 4.73359E-04-3.46618E-15
 -1      2800 2.69693E-03 4.73379E-04-3.10620E-15
 -1      2801 3.12474E-03 4.70634E-04-4.24839E-15
 -1      2802 2.98196E-03 4.72418E-04-3.84667E-15
 -1      2803 2.90491E-03 4.36367E-04-3.74519E-15
 -1      2804 3.41095E-03 4.64945E-04-5.11369E-15
 -1      2805 3.26772E-03 4.68121E-04-4.67080E-15
 -1      2806 3.19078E-03 4.32873E-04-4.55537E-15
 -1      2807 3.69818E-03 4.56940E-04-6.06329E-15
 -1      2808 3.55442E-03 4.61197E-04-5.57795E-15
 -1      2809 3.47704E-03 4.26650E-04-5.44978E-15
 -1      2810 3.98661E-03 4.47221E-04-7.10058E-15
 -1      2811 3.84222E-03 4.52258E-04-6.57127E-15
 -1      2812 3.76378E-03 4.18313E-04-6.42898E-15
 -1      2813 4.27645E-03 4.36471E-04-8.22518E-15
 -1      2814 4.13132E-03 4.41930E-04-7.65124E-15
 -1      2815 4.05106E-03 4.08457E-04-7.49405E-15
 -1      2816 4.56792E-03 4.25595E-04-9.43939E-15
 -1      2817 4.42194E-03 4.30986E-04-8.82112E-15
 -1      2818 4.33895E-03 3.97778E-04-8.64772E-15
 -1      2819 4.86132E-03 4.15911E-04-1.07398E-14
 -1      2820 4.71432E-03 4.20511E-04-1.00792E-14
 -1      2821 4.62751E-03 3.87212E-04-9.88929E-15
 -1      2822 5.15712E-03 4.09382E-04-1.21277E-14
 -1      2823 5.00884E-03 4.12111E-04-1.14226E-14
 -1      2824 4.91690E-03 3.78108E-04-1.12164E-14
 -1      2825 5.45609E-03 4.08917E-04-1.36004E-14
 -1      2826 5.30609E-03 4.08176E-04-1.28537E-14
 -1      2827 5.20746E-03 3.72435E-04-1.26301E-14
 -1      2828 5.75967E-03 4.18721E-04-1.51622E-14
 -1      2829 5.60715E-03 4.12205E-04-1.43703E-14
 -1      2830 5.50001E-03 3.73038E-04-1.41299E-14
 -1      2831 6.07041E-03 4.44707E-04-1.68101E-14
 -1      2832 5.91394E-03 4.29191E-04-1.59754E-14
 -1      2833 5.79626E-03 3.83958E-04-1.57169E-14
 -1      2834 6.39252E-03 4.94878E-04-1.85457E-14
 -1      2835 6.22980E-03 4.66016E-04-1.76677E-14
 -1      2836 6.09953E-03 4.10852E-04-1.73915E-14
 -1      2837 6.73189E-03 5.79502E-04-2.03659E-14
 -1      2838 6.55988E-03 5.31844E-04-1.94453E-14
 -1      2839 6.41559E-03 4.61728E-04-1.91523E-14
 -1      2840 7.09438E-03 7.10230E-04-2.22743E-14
 -1      2841 6.91060E-03 6.38120E-04-2.13093E-14
 -1      2842 6.75288E-03 5.47982E-04-2.09976E-14
 -1      2843 7.48096E-03 8.92026E-04-2.42727E-14
 -1      2844 7.28629E-03 7.94398E-04-2.32614E-14
 -1      2845 7.12069E-03 6.83921E-04-2.29289E-14
 -1      2846 8.56009E-03 1.38019E-03-3.05479E-14
 -1      2847 8.37780E-03 1.34824E-03-2.93744E-14
 -1      2848 8.92445E-03 1.32132E-03-3.30462E-14
 -1      2849 8.73540E-03 1.36685E-03-3.18114E-14
 -1      2850 9.29018E-03 1.16055E-03-3.54477E-14
 -1      2851 9.09001E-03 1.24718E-03-3.41580E-14
 -1      2852 9.80150E-03 9.40623E-04-3.88207E-14
 -1      2853 9.60269E-03 1.01739E-03-3.74628E-14
 -1      2854 1.04986E-02 8.19055E-04-4.42853E-14
 -1      2855 1.03246E-02 8.44260E-04-4.28414E-14
 -1      2856 1.08319E-02 7.99734E-04-4.72302E-14
 -1      2857 1.06678E-02 8.05171E-04-4.57484E-14
 -1      2858 1.06223E-02 7.59004E-04-4.52143E-14
 -1      2859 1.11500E-02 8.11029E-04-5.02524E-14
 -1      2860 1.09926E-02 8.02311E-04-4.87337E-14
 -1      2861 1.09416E-02 7.55512E-04-4.81839E-14
 -1      2862 1.14583E-02 8.43478E-04-5.33499E-14
 -1      2863 1.13051E-02 8.25150E-04-5.17922E-14
 -1      2864 1.12467E-02 7.77533E-04-5.12263E-14
 -1      2865 1.17605E-02 8.89802E-04-5.65150E-14
 -1      2866 1.16100E-02 8.65273E-04-5.49228E-14
 -1      2867 1.15440E-02 8.16602E-04-5.43405E-14
 -1      2868 1.20587E-02 9.44720E-04-5.97528E-14
 -1      2869 1.19099E-02 9.16436E-04-5.81266E-14
 -1      2870 1.18373E-02 8.66715E-04-5.75259E-14
 -1      2871 1.23541E-02 1.00453E-03-6.30603E-14
 -1      2872 1.22067E-02 9.74179E-04-6.13961E-14
 -1      2873 1.21283E-02 9.23596E-04-6.07811E-14
 -1      2874 1.26475E-02 1.06672E-03-6.64295E-14
 -1      2875 1.25010E-02 1.03543E-03-6.47383E-14
 -1      2876 1.24182E-02 9.84246E-04-6.41027E-14
 -1      2877 1.29392E-02 1.12967E-03-6.98571E-14
 -1      2878 1.27935E-02 1.09817E-03-6.81374E-14
 -1      2879 1.27073E-02 1.04663E-03-6.74903E-14
 -1      2880 1.32296E-02 1.19236E-03-7.33197E-14
 -1      2881 1.30846E-02 1.16109E-03-7.15839E-14
 -1      2882 1.29958E-02 1.10940E-03-7.09246E-14
 -1      2883 1.35189E-02 1.25420E-03-7.68154E-14
 -1      2884 1.33744E-02 1.22341E-03-7.50656E-14
 -1      2885 1.32837E-02 1.17173E-03-7.43980E-14
 -1      2886 1.38072E-02 1.31487E-03-8.03351E-14
 -1      2887 1.36631E-02 1.28469E-03-7.85712E-14
 -1      2888 1.35712E-02 1.23313E-03-7.79000E-14
 -1      2889 1.40948E-02 1.37424E-03-8.38719E-14
 -1      2890 1.39511E-02 1.34473E-03-8.21013E-14
 -1      2891 1.38583E-02 1.29335E-03-8.14242E-14
 -1      2892 1.43818E-02 1.43227E-03-8.74285E-14
 -1      2893 1.42384E-02 1.40343E-03-8.56464E-14
 -1      2894 1.41450E-02 1.35229E-03-8.49681E-14
 -1      2895 1.46317E-02 1.47481E-03-9.06503E-14
 -1      2896 1.44886E-02 1.44656E-03-8.88646E-14
 -1      2897 1.43949E-02 1.39570E-03-8.81809E-14
 -1      2898 1.46081E-02 1.42399E-03-9.10588E-14
 -1      2899 1.43538E-02 1.03008E-03-9.31503E-14
 -1      2900 1.43796E-02 1.07011E-03-9.29252E-14
 -1      2901 1.44553E-02 1.19055E-03-9.22385E-14
 -1      2902 1.44802E-02 1.23094E-03-9.20059E-14
 -1      2903 1.43014E-02 9.50018E-04-9.35987E-14
 -1      2904 1.43277E-02 9.90071E-04-9.33768E-14
 -1      2905 1.42183E-02 9.87220E-04-9.16889E-14
 -1      2906 1.44051E-02 1.11017E-03-9.26961E-14
 -1      2907 1.44303E-02 1.15031E-03-9.24665E-14
 -1      2908 1.43201E-02 1.14675E-03-9.07893E-14
 -1      2909 1.42697E-02 1.06686E-03-9.12427E-14
 -1      2910 1.06770E-02 3.81691E-04-4.29936E-14
 -1      2911 1.05989E-02 3.64877E-04-4.29069E-14
 -1      2912 8.03019E-04 2.76703E-04-2.59233E-16
 -1      2913 1.42488E-02 8.71057E-04-9.40318E-14
 -1      2914 1.42752E-02 9.10588E-04-9.38169E-14
 -1      2915 1.41659E-02 9.08186E-04-9.21260E-14
 -1      2916 1.41946E-02 7.90237E-04-9.44715E-14
 -1      2917 1.42218E-02 8.30725E-04-9.42506E-14
 -1      2918 1.41125E-02 8.28788E-04-9.25572E-14
 -1      2919 1.41399E-02 7.08729E-04-9.49057E-14
 -1      2920 1.41673E-02 7.49579E-04-9.46879E-14
 -1      2921 1.40578E-02 7.48092E-04-9.29897E-14
 -1      2922 1.41266E-02 6.52657E-04-9.55714E-14
 -1      2923 1.70134E-03 4.34243E-04-1.16057E-15
 -1      2924 1.55877E-03 4.20422E-04-9.63666E-16
 -1      2925 1.47631E-03 3.77534E-04-9.20840E-16
 -1      2926 1.76251E-03 4.04482E-04-1.32404E-15
 -1      2927 6.71204E-03-1.56892E-05-2.52360E-14
 -1      2928 6.53836E-03 4.81887E-05-2.46180E-14
 -1      2929 6.11887E-03 1.72350E-04-2.31436E-14
 -1      2930 6.10379E-03 1.85478E-04-2.32579E-14
 -1      2931 2.55462E-03 4.72323E-04-2.76657E-15
 -1      2932 2.41241E-03 4.70092E-04-2.44802E-15
 -1      2933 2.61930E-03 4.36395E-04-3.01700E-15
 -1      2934 2.27025E-03 4.66473E-04-2.14970E-15
 -1      2935 2.12811E-03 4.61342E-04-1.87173E-15
 -1      2936 2.33383E-03 4.32002E-04-2.37064E-15
 -1      2937 1.04831E-03-3.13444E-04-7.16793E-16
 -1      2938 1.19158E-03-3.38439E-04-9.01731E-16
 -1      2939 1.25327E-03-3.16574E-04-1.01239E-15
 -1      2940 9.96978E-04-2.72699E-04-6.76922E-16
 -1      2941 8.87022E-03-4.90027E-04-3.68073E-14
 -1      2942 8.72446E-03-5.69448E-04-3.59362E-14
 -1      2943 1.00916E-02 1.92063E-04-4.13931E-14
 -1      2944 9.91370E-03 1.11419E-04-4.09302E-14
 -1      2945 7.50082E-03-4.11539E-04-2.83817E-14
 -1      2946 7.32635E-03-3.12774E-04-2.75987E-14
 -1      2947 7.84867E-04 1.22375E-04-3.93349E-16
 -1      2948 7.82491E-04 9.90986E-05-4.07538E-16
 -1      2949 9.00103E-04 9.83944E-05-5.26678E-16
 -1      2950 9.05838E-04 1.50130E-04-4.92499E-16
 -1      2951 7.82199E-04-9.70662E-05-4.77591E-16
 -1      2952 7.84496E-04-1.20254E-04-4.79814E-16
 -1      2953 7.12988E-03-2.10200E-04-2.67795E-14
 -1      2954 6.92823E-03-1.14426E-04-2.59761E-14
 -1      2955 7.19166E-03-2.78525E-04-2.67857E-14
 -1      2956 7.79657E-03 1.02115E-03-2.67612E-14
 -1      2957 7.97719E-03 1.14134E-03-2.74731E-14
 -1      2958 7.84803E-03-5.87029E-04-3.02430E-14
 -1      2959 7.68151E-03-5.04280E-04-2.93009E-14
 -1      2960 7.54686E-03-4.62917E-04-2.85060E-14
 -1      2961 7.47032E-03 8.05573E-04-2.57093E-14
 -1      2962 7.63864E-03 9.16909E-04-2.62313E-14
 -1      2963 7.71286E-03 9.80163E-04-2.61408E-14
 -1      2964 6.97527E-03 5.17057E-04-2.44035E-14
 -1      2965 7.20607E-03 6.45225E-04-2.49323E-14
 -1      2966 6.61445E-03 3.51209E-04-2.37114E-14
 -1      2967 6.76528E-03 4.14454E-04-2.39999E-14
 -1      2968 6.11351E-03 1.96907E-04-2.30568E-14
 -1      2969 6.16785E-03 2.08543E-04-2.28526E-14
 -1      2970 6.06283E-03 1.83577E-04-2.22921E-14
 -1      2971 6.35462E-03 1.06596E-04-2.39372E-14
 -1      2972 6.22661E-03 1.40319E-04-2.34909E-14
 -1      2973 6.27537E-03 2.37349E-04-2.31005E-14
 -1      2974 6.42136E-03 2.79432E-04-2.33474E-14
 -1      2975 6.18790E-03 2.18301E-04-2.23351E-14
 -1      2976 9.26911E-03-2.50030E-04-3.88817E-14
 -1      2977 9.07336E-03-3.72459E-04-3.79571E-14
 -1      2978 1.04558E-02 3.24314E-04-4.25040E-14
 -1      2979 1.02839E-02 2.68568E-04-4.19458E-14
 -1      2980 1.02138E-02 2.35711E-04-4.24056E-14
 -1      2981 1.04219E-02 5.24000E-04-4.10485E-14
 -1      2982 1.05646E-02 4.76215E-04-4.16933E-14
 -1      2983 8.59688E-03-6.24499E-04-3.51333E-14
 -1      2984 8.47696E-03-6.64226E-04-3.43431E-14
 -1      2985 8.67376E-03-5.96401E-04-3.58432E-14
 -1      2986 6.53042E-04-1.87337E-04-3.36563E-16
 -1      2987 9.70823E-03 6.96669E-06-4.03677E-14
 -1      2988 9.51044E-03-1.05387E-04-3.97455E-14
 -1      2989 8.22022E-03 1.27876E-03-2.86217E-14
 -1      2990 8.21846E-03 1.29513E-03-2.82536E-14
 -1      2991 8.03199E-03 1.20605E-03-2.71397E-14
 -1      2992 8.07971E-03 1.20377E-03-2.79081E-14
 -1      2993 9.05335E-04-1.47626E-04-6.08793E-16
 -1      2994 7.87533E-04-1.44257E-04-4.80302E-16
 -1      2995 7.91358E-04-1.69297E-04-4.79339E-16
 -1      2996 8.95930E-04 9.94434E-07-5.75251E-16
 -1      2997 7.78113E-04-9.62746E-06-4.57222E-16
 -1      2998 7.78475E-04-3.10569E-05-4.63957E-16
 -1      2999 1.03613E-02 5.75157E-04-4.12390E-14
 -1      3000 8.98745E-03-4.31762E-04-3.78023E-14
 -1      3001 9.40371E-03-1.79687E-04-3.98365E-14
 -1      3002 1.08031E-02 4.35516E-04-4.38798E-14
 -1      3003 1.07889E-02 4.20126E-04-4.32673E-14
 -1      3004 1.08178E-02 4.20739E-04-4.39772E-14
 -1      3005 1.39074E-02 5.79338E-04-9.32739E-14
 -1      3006 1.06544E-02 4.68302E-04-4.26543E-14
 -1      3007 2.04829E-03 4.21919E-04-1.80705E-15
 -1      3008 7.60676E-03 9.45123E-04-2.51261E-14
 -1      3009 7.43745E-03 8.21690E-04-2.47671E-14
 -1      3010 7.93830E-03 1.14655E-03-2.67135E-14
 -1      3011 7.74286E-03 1.03713E-03-2.56387E-14
 -1      3012 6.12864E-03 1.52476E-04-2.28339E-14
 -1      3013 6.05392E-03 1.55566E-04-2.21850E-14
 -1      3014 6.14198E-03 1.27325E-04-2.25231E-14
 -1      3015 1.01433E-02 8.80719E-04-4.14199E-14
 -1      3016 9.95702E-03 9.31062E-04-4.00195E-14
 -1      3017 1.45833E-02 1.38300E-03-9.12981E-14
 -1      3018 1.44769E-02 1.36897E-03-8.98569E-14
 -1      3019 1.45587E-02 1.34224E-03-9.15349E-14
 -1      3020 1.07434E-02 3.96300E-04-4.35730E-14
 -1      3021 6.41459E-03 6.60342E-05-2.38423E-14
 -1      3022 6.47403E-03 3.06909E-04-2.29350E-14
 -1      3023 8.64953E-04 2.64825E-04-3.32864E-16
 -1      3024 1.39621E-02 6.15518E-04-9.35710E-14
 -1      3025 1.40853E-02 6.72690E-04-9.46125E-14
 -1      3026 1.39756E-02 6.71594E-04-9.29111E-14
 -1      3027 1.38661E-02 5.99656E-04-9.23208E-14
 -1      3028 7.94830E-03-6.33168E-04-3.08546E-14
 -1      3029 7.81420E-03-5.97830E-04-3.00281E-14
 -1      3030 8.03721E-03-6.67591E-04-3.14711E-14
 -1      3031 1.05405E-02 3.45800E-04-4.33744E-14
 -1      3032 9.95469E-03 8.38069E-04-3.96932E-14
 -1      3033 8.36355E-03-6.87864E-04-3.36647E-14
 -1      3034 8.25761E-03-6.96526E-04-3.29931E-14
 -1      3035 8.44199E-03-6.77286E-04-3.43531E-14
 -1      3036 7.79253E-04-5.26317E-05-4.69446E-16
 -1      3037 7.80469E-04-7.46216E-05-4.73945E-16
 -1      3038 8.99795E-04-9.60701E-05-6.03196E-16
 -1      3039 8.96826E-04-4.69986E-05-5.91676E-16
 -1      3040 1.45072E-02 1.26624E-03-9.18892E-14
 -1      3041 1.45317E-02 1.30662E-03-9.16560E-14
 -1      3042 1.44255E-02 1.29265E-03-9.02146E-14
 -1      3043 1.43718E-02 1.22199E-03-9.04485E-14
 -1      3044 6.80266E-03-8.58765E-05-2.52452E-14
 -1      3045 9.83061E-03 6.18227E-05-4.12788E-14
 -1      3046 7.31236E-03 7.22857E-04-2.48455E-14
 -1      3047 6.86152E-03 4.73517E-04-2.36883E-14
 -1      3048 9.83152E-04 2.73647E-04-4.45485E-16
 -1      3049 7.70249E-04-2.01024E-04-4.47152E-16
 -1      3050 1.02802E-02 7.99896E-04-4.23234E-14
 -1      3051 1.04067E-03 2.41025E-04-5.49419E-16
 -1      3052 1.03412E-03 2.09455E-04-5.77283E-16
 -1      3053 1.01168E-02 7.52922E-04-4.06318E-14
 -1      3054 1.73203E-03-3.34349E-04-1.84489E-15
 -1      3055 1.87569E-03-3.43424E-04-2.13551E-15
 -1      3056 2.01934E-03-3.50640E-04-2.44723E-15
 -1      3057 2.16296E-03-3.56138E-04-2.78022E-15
 -1      3058 1.94031E-03-3.11907E-04-2.28920E-15
 -1      3059 2.30653E-03-3.60184E-04-3.13474E-15
 -1      3060 2.45003E-03-3.62891E-04-3.50981E-15
 -1      3061 2.22807E-03-3.22309E-04-2.95270E-15
 -1      3062 2.59347E-03-3.64473E-04-3.90607E-15
 -1      3063 2.73684E-03-3.65017E-04-4.32368E-15
 -1      3064 2.51561E-03-3.27459E-04-3.70011E-15
 -1      3065 2.88014E-03-3.64691E-04-4.76178E-15
 -1      3066 3.02337E-03-3.63562E-04-5.22085E-15
 -1      3067 2.80274E-03-3.28507E-04-4.53103E-15
 -1      3068 3.16654E-03-3.61763E-04-5.70080E-15
 -1      3069 3.30967E-03-3.59347E-04-6.20142E-15
 -1      3070 3.08937E-03-3.26358E-04-5.44526E-15
 -1      3071 3.45274E-03-3.56425E-04-6.72300E-15
 -1      3072 3.59578E-03-3.53045E-04-7.26510E-15
 -1      3073 3.37546E-03-3.21728E-04-6.44246E-15
 -1      3074 3.73880E-03-3.49309E-04-7.82790E-15
 -1      3075 3.88183E-03-3.45266E-04-8.41147E-15
 -1      3076 3.66100E-03-3.15208E-04-7.52210E-15
 -1      3077 4.02488E-03-3.41022E-04-9.01521E-15
 -1      3078 4.16799E-03-3.36641E-04-9.64033E-15
 -1      3079 3.94607E-03-3.07334E-04-8.68436E-15
 -1      3080 4.31120E-03-3.32242E-04-1.02858E-14
 -1      3081 4.45459E-03-3.27917E-04-1.09507E-14
 -1      3082 4.23084E-03-2.98673E-04-9.92904E-15
 -1      3083 4.59818E-03-3.23809E-04-1.16354E-14
 -1      3084 4.74212E-03-3.20057E-04-1.23401E-14
 -1      3085 4.51561E-03-2.89901E-04-1.12547E-14
 -1      3086 4.88647E-03-3.16834E-04-1.30669E-14
 -1      3087 5.03140E-03-3.14353E-04-1.38126E-14
 -1      3088 4.80098E-03-2.81898E-04-1.26606E-14
 -1      3089 5.17707E-03-3.12814E-04-1.45775E-14
 -1      3090 5.32369E-03-3.12543E-04-1.53630E-14
 -1      3091 5.08787E-03-2.75860E-04-1.41476E-14
 -1      3092 5.47150E-03-3.13761E-04-1.61702E-14
 -1      3093 5.62076E-03-3.16952E-04-1.69998E-14
 -1      3094 5.37779E-03-2.73438E-04-1.57159E-14
 -1      3095 5.77184E-03-3.22345E-04-1.78503E-14
 -1      3096 5.92496E-03-3.30635E-04-1.87228E-14
 -1      3097 5.67292E-03-2.76933E-04-1.73685E-14
 -1      3098 6.08067E-03-3.42036E-04-1.96172E-14
 -1      3099 6.23901E-03-3.57468E-04-2.05354E-14
 -1      3100 5.97625E-03-2.89563E-04-1.91087E-14
 -1      3101 6.40063E-03-3.77091E-04-2.14784E-14
 -1      3102 6.56514E-03-4.01831E-04-2.24442E-14
 -1      3103 6.29131E-03-3.15819E-04-2.09400E-14
 -1      3104 6.73320E-03-4.31645E-04-2.34339E-14
 -1      3105 6.90356E-03-4.67190E-04-2.44478E-14
 -1      3106 6.62128E-03-3.61169E-04-2.28654E-14
 -1      3107 7.07682E-03-5.08189E-04-2.54883E-14
 -1      3108 7.25032E-03-5.53197E-04-2.65537E-14
 -1      3109 6.96664E-03-4.31073E-04-2.48865E-14
 -1      3110 7.42432E-03-6.00846E-04-2.76456E-14
 -1      3111 7.59600E-03-6.47599E-04-2.87654E-14
 -1      3112 7.32271E-03-5.25947E-04-2.70090E-14
 -1      3113 7.79451E-03-6.68316E-04-3.00368E-14
 -1      3114 7.96338E-03-7.04845E-04-3.12146E-14
 -1      3115 8.16457E-03-7.30390E-04-3.27310E-14
 -1      3116 8.32658E-03-7.24538E-04-3.39699E-14
 -1      3117 8.72853E-03-6.36482E-04-3.73722E-14
 -1      3118 8.89529E-03-5.72194E-04-3.87078E-14
 -1      3119 9.06547E-03-4.99903E-04-4.00674E-14
 -1      3120 9.23799E-03-4.25818E-04-4.14494E-14
 -1      3121 9.00981E-03-4.94682E-04-3.92661E-14
 -1      3122 9.41228E-03-3.52012E-04-4.28541E-14
 -1      3123 9.58544E-03-2.82151E-04-4.42809E-14
 -1      3124 9.36528E-03-3.35945E-04-4.20276E-14
 -1      3125 9.75767E-03-2.17085E-04-4.57303E-14
 -1      3126 9.92678E-03-1.57408E-04-4.72021E-14
 -1      3127 9.71942E-03-1.92831E-04-4.48792E-14
 -1      3128 1.00934E-02-1.03407E-04-4.86932E-14
 -1      3129 1.02564E-02-5.43122E-05-5.02022E-14
 -1      3130 1.00613E-02-7.56564E-05-4.78164E-14
 -1      3131 1.04165E-02-1.01137E-05-5.17296E-14
 -1      3132 1.05735E-02 3.02123E-05-5.32755E-14
 -1      3133 1.03875E-02 1.80537E-05-5.08347E-14
 -1      3134 1.07279E-02 6.68084E-05-5.48378E-14
 -1      3135 1.08800E-02 1.00572E-04-5.64173E-14
 -1      3136 1.06994E-02 9.40965E-05-5.39223E-14
 -1      3137 1.10302E-02 1.31692E-04-5.80140E-14
 -1      3138 1.11787E-02 1.60838E-04-5.96257E-14
 -1      3139 1.10003E-02 1.57854E-04-5.70789E-14
 -1      3140 1.13259E-02 1.88213E-04-6.12501E-14
 -1      3141 1.14720E-02 2.14280E-04-6.28897E-14
 -1      3142 1.12938E-02 2.13455E-04-6.02980E-14
 -1      3143 1.16172E-02 2.39234E-04-6.45439E-14
 -1      3144 1.17618E-02 2.63382E-04-6.62143E-14
 -1      3145 1.15826E-02 2.63865E-04-6.35748E-14
 -1      3146 1.19058E-02 2.86898E-04-6.78972E-14
 -1      3147 1.20495E-02 3.09980E-04-6.95942E-14
 -1      3148 1.18687E-02 3.11183E-04-6.69101E-14
 -1      3149 1.21929E-02 3.32771E-04-7.13080E-14
 -1      3150 1.23361E-02 3.55395E-04-7.30317E-14
 -1      3151 1.21534E-02 3.56891E-04-7.03021E-14
 -1      3152 1.24791E-02 3.77962E-04-7.47705E-14
 -1      3153 1.26220E-02 4.00545E-04-7.65231E-14
 -1      3154 1.24376E-02 4.02020E-04-7.37501E-14
 -1      3155 1.27648E-02 4.23225E-04-7.82874E-14
 -1      3156 1.29077E-02 4.46041E-04-8.00628E-14
 -1      3157 1.27216E-02 4.47265E-04-7.72485E-14
 -1      3158 1.30504E-02 4.69049E-04-8.18508E-14
 -1      3159 1.31932E-02 4.92266E-04-8.36484E-14
 -1      3160 1.30058E-02 4.93078E-04-8.07952E-14
 -1      3161 1.33359E-02 5.15725E-04-8.54566E-14
 -1      3162 1.34787E-02 5.39434E-04-8.72734E-14
 -1      3163 1.32903E-02 5.39725E-04-8.43829E-14
 -1      3164 1.36010E-02 5.57229E-04-8.88782E-14
 -1      3165 1.37437E-02 5.81436E-04-9.07076E-14
 -1      3166 1.37987E-02 6.17326E-04-9.10041E-14
 -1      3167 1.35545E-02 5.81201E-04-8.77901E-14
 -1      3168 7.95871E-03 1.14273E-03-2.70935E-14
 -1      3169 7.20095E-03 6.78209E-04-2.40103E-14
 -1      3170 2.97052E-03 3.99266E-04-4.02829E-15
 -1      3171 2.82747E-03 4.00187E-04-3.64010E-15
 -1      3172 3.82837E-03 3.80152E-04-6.79835E-15
 -1      3173 3.68544E-03 3.84587E-04-6.28330E-15
 -1      3174 4.11406E-03 3.70398E-04-7.89195E-15
 -1      3175 3.97122E-03 3.75406E-04-7.33444E-15
 -1      3176 3.89197E-03 3.42585E-04-7.17224E-15
 -1      3177 4.39951E-03 3.60054E-04-9.07325E-15
 -1      3178 4.25680E-03 3.65260E-04-8.47094E-15
 -1      3179 4.17568E-03 3.33173E-04-8.29367E-15
 -1      3180 4.68463E-03 3.50073E-04-1.03421E-14
 -1      3181 4.54209E-03 3.54961E-04-9.69738E-15
 -1      3182 4.45825E-03 3.23423E-04-9.50306E-15
 -1      3183 4.96940E-03 3.41801E-04-1.16961E-14
 -1      3184 4.82702E-03 3.45639E-04-1.10085E-14
 -1      3185 4.73943E-03 3.14285E-04-1.07987E-14
 -1      3186 5.25406E-03 3.37149E-04-1.31358E-14
 -1      3187 5.11167E-03 3.38895E-04-1.24051E-14
 -1      3188 5.01904E-03 3.07066E-04-1.21789E-14
 -1      3189 5.53938E-03 3.38792E-04-1.46626E-14
 -1      3190 5.39650E-03 3.36986E-04-1.38886E-14
 -1      3191 5.29713E-03 3.03539E-04-1.36449E-14
 -1      3192 5.82728E-03 3.50449E-04-1.62761E-14
 -1      3193 5.68276E-03 3.43050E-04-1.54590E-14
 -1      3194 5.57441E-03 3.06086E-04-1.51984E-14
 -1      3195 6.12172E-03 3.77357E-04-1.79759E-14
 -1      3196 5.97326E-03 3.61458E-04-1.71149E-14
 -1      3197 5.85285E-03 3.17918E-04-1.68378E-14
 -1      3198 6.42979E-03 4.27387E-04-1.97603E-14
 -1      3199 6.27341E-03 3.98535E-04-1.88574E-14
 -1      3200 6.13680E-03 3.43599E-04-1.85616E-14
 -1      3201 6.76286E-03 5.13005E-04-2.16293E-14
 -1      3202 6.59258E-03 4.63988E-04-2.06837E-14
 -1      3203 6.43486E-03 3.90804E-04-2.03703E-14
 -1      3204 7.00688E-03 5.92380E-04-2.30146E-14
 -1      3205 8.61466E-03 1.37827E-03-3.09822E-14
 -1      3206 9.45328E-03 1.07015E-03-3.64751E-14
 -1      3207 1.07445E-02 7.05850E-04-4.61467E-14
 -1      3208 1.05859E-02 7.11367E-04-4.46792E-14
 -1      3209 1.16259E-02 7.93067E-04-5.53337E-14
 -1      3210 1.14828E-02 7.69548E-04-5.37580E-14
 -1      3211 1.19109E-02 8.46021E-04-5.85383E-14
 -1      3212 1.17685E-02 8.18700E-04-5.69267E-14
 -1      3213 1.17034E-02 7.72382E-04-5.63293E-14
 -1      3214 1.21956E-02 9.04176E-04-6.18103E-14
 -1      3215 1.20532E-02 8.74595E-04-6.01663E-14
 -1      3216 1.19812E-02 8.27229E-04-5.95518E-14
 -1      3217 1.24806E-02 9.65176E-04-6.51500E-14
 -1      3218 1.23380E-02 9.34418E-04-6.34724E-14
 -1      3219 1.22604E-02 8.86033E-04-6.28420E-14
 -1      3220 1.27659E-02 1.02739E-03-6.85493E-14
 -1      3221 1.26232E-02 9.96196E-04-6.68418E-14
 -1      3222 1.25411E-02 9.46972E-04-6.61963E-14
 -1      3223 1.30515E-02 1.08973E-03-7.19916E-14
 -1      3224 1.29087E-02 1.05859E-03-7.02658E-14
 -1      3225 1.28232E-02 1.00874E-03-6.96058E-14
 -1      3226 1.33374E-02 1.15152E-03-7.54758E-14
 -1      3227 1.31944E-02 1.12072E-03-7.37315E-14
 -1      3228 1.31064E-02 1.07046E-03-7.30621E-14
 -1      3229 1.36233E-02 1.21235E-03-7.89827E-14
 -1      3230 1.34803E-02 1.18206E-03-7.72254E-14
 -1      3231 1.33904E-02 1.13157E-03-7.65508E-14
 -1      3232 1.39092E-02 1.27202E-03-8.25159E-14
 -1      3233 1.37663E-02 1.24233E-03-8.07467E-14
 -1      3234 1.36750E-02 1.19174E-03-8.00669E-14
 -1      3235 1.41951E-02 1.33045E-03-8.60661E-14
 -1      3236 1.40522E-02 1.30139E-03-8.42884E-14
 -1      3237 1.39599E-02 1.25080E-03-8.36055E-14
 -1      3238 1.43894E-02 1.35706E-03-8.86760E-14
 -1      3239 1.42828E-02 1.34267E-03-8.72406E-14
 -1      3240 1.41901E-02 1.29219E-03-8.65568E-14
 -1      3241 1.43650E-02 1.31635E-03-8.89123E-14
 -1      3242 6.84840E-03-1.46593E-04-2.51008E-14
 -1      3243 6.65752E-03-5.85290E-05-2.43796E-14
 -1      3244 1.40828E-02 9.44588E-04-9.02292E-14
 -1      3245 1.41089E-02 9.84170E-04-9.00106E-14
 -1      3246 1.08097E-02 4.11524E-04-4.44602E-14
 -1      3247 1.07569E-02 3.98296E-04-4.46706E-14
 -1      3248 1.39210E-02 7.06196E-04-9.15104E-14
 -1      3249 1.39486E-02 7.46601E-04-9.12964E-14
 -1      3250 8.73179E-03-5.77579E-04-3.64907E-14
 -1      3251 8.61540E-03-6.28604E-04-3.56802E-14
 -1      3252 6.11332E-03 2.07257E-04-2.16370E-14
 -1      3253 6.21751E-03 2.34422E-04-2.18758E-14
 -1      3254 6.01028E-03 1.68477E-04-2.16990E-14
 -1      3255 6.02355E-03 1.79482E-04-2.15029E-14
 -1      3256 6.47502E-03 1.52451E-05-2.37071E-14
 -1      3257 6.30661E-03 6.87540E-05-2.30435E-14
 -1      3258 6.52228E-03-4.09809E-05-2.35679E-14
 -1      3259 1.39762E-02 7.86782E-04-9.10845E-14
 -1      3260 1.40035E-02 8.26777E-04-9.08698E-14
 -1      3261 1.38397E-02 7.45053E-04-8.96130E-14
 -1      3262 1.13391E-02 7.48627E-04-5.21999E-14
 -1      3263 1.11941E-02 7.31076E-04-5.06603E-14
 -1      3264 1.14261E-02 7.23994E-04-5.31750E-14
 -1      3265 1.10474E-02 7.17305E-04-4.91354E-14
 -1      3266 1.08978E-02 7.08848E-04-4.76320E-14
 -1      3267 1.08614E-02 6.61623E-04-4.70813E-14
 -1      3268 1.11472E-02 6.85454E-04-5.00914E-14
 -1      3269 1.04432E-02 7.10239E-04-4.33543E-14
 -1      3270 1.02719E-02 7.35428E-04-4.19227E-14
 -1      3271 1.03113E-02 6.47625E-04-4.16353E-14
 -1      3272 1.05818E-02 6.48127E-04-4.42642E-14
 -1      3273 1.06234E-02 3.62746E-04-4.43683E-14
 -1      3274 1.04875E-02 3.24512E-04-4.39569E-14
 -1      3275 2.68440E-03 4.00204E-04-3.27214E-15
 -1      3276 2.54129E-03 3.99242E-04-2.92443E-15
 -1      3277 2.74984E-03 3.63873E-04-3.53194E-15
 -1      3278 3.54251E-03 3.88607E-04-5.78957E-15
 -1      3279 3.39954E-03 3.92169E-04-5.31803E-15
 -1      3280 3.60737E-03 3.50943E-04-6.13507E-15
 -1      3281 3.25656E-03 3.95174E-04-4.86721E-15
 -1      3282 3.11355E-03 3.97576E-04-4.43727E-15
 -1      3283 3.03618E-03 3.62181E-04-4.31643E-15
 -1      3284 3.32206E-03 3.57662E-04-5.18367E-15
 -1      3285 1.06639E-02 5.00374E-04-4.34653E-14
 -1      3286 1.07592E-02 4.68895E-04-4.39866E-14
 -1      3287 1.44492E-03-3.09524E-04-1.32853E-15
 -1      3288 1.58843E-03-3.23110E-04-1.57591E-15
 -1      3289 1.65268E-03-2.94838E-04-1.71046E-15
 -1      3290 1.04816E-02 5.75246E-04-4.25441E-14
 -1      3291 2.39815E-03 3.97125E-04-2.59723E-15
 -1      3292 2.25495E-03 3.93754E-04-2.29040E-15
 -1      3293 2.46309E-03 3.61962E-04-2.82871E-15
 -1      3294 2.11171E-03 3.88898E-04-2.00389E-15
 -1      3295 1.96840E-03 3.82427E-04-1.73827E-15
 -1      3296 2.17600E-03 3.55444E-04-2.20700E-15
 -1      3297 7.23941E-03-3.41789E-04-2.68173E-14
 -1      3298 7.06587E-03-2.53446E-04-2.60164E-14
 -1      3299 9.95944E-03 1.12896E-04-4.23423E-14
 -1      3300 9.77726E-03 1.88727E-05-4.17670E-14
 -1      3301 7.59542E-03-5.24269E-04-2.86996E-14
 -1      3302 7.43359E-03-4.44748E-04-2.77926E-14
 -1      3303 6.64244E-03 4.03652E-04-2.22936E-14
 -1      3304 6.81834E-03 4.87181E-04-2.26754E-14
 -1      3305 1.14522E-03 3.07740E-04-5.86933E-16
 -1      3306 1.08268E-03 2.69145E-04-5.63894E-16
 -1      3307 1.20183E-03 2.70093E-04-7.09366E-16
 -1      3308 1.28843E-03 3.29012E-04-7.38044E-16
 -1      3309 9.55491E-03-1.05392E-04-4.09579E-14
 -1      3310 9.33972E-03-2.36658E-04-4.00773E-14
 -1      3311 6.33395E-03 2.75768E-04-2.19147E-14
 -1      3312 6.50213E-03 3.35195E-04-2.22630E-14
 -1      3313 6.46940E-03 3.61027E-04-2.12830E-14
 -1      3314 6.23270E-03 2.57813E-04-2.12220E-14
 -1      3315 8.88241E-04-2.10139E-04-5.73936E-16
 -1      3316 1.03191E-02 2.64071E-04-4.35633E-14
 -1      3317 1.01454E-02 1.96241E-04-4.29971E-14
 -1      3318 9.07811E-03-3.93728E-04-3.87418E-14
 -1      3319 8.89340E-03-4.97673E-04-3.75792E-14
 -1      3320 1.01700E-03 6.73542E-05-6.78887E-16
 -1      3321 1.01581E-03 4.06989E-05-6.93320E-16
 -1      3322 1.40303E-02 8.66268E-04-9.06582E-14
 -1      3323 1.40566E-02 9.05307E-04-9.04456E-14
 -1      3324 1.39477E-02 9.02571E-04-8.87691E-14
 -1      3325 1.38945E-02 8.24301E-04-8.91934E-14
 -1      3326 1.01520E-03 1.42612E-05-7.06154E-16
 -1      3327 1.01516E-03-1.20743E-05-7.17620E-16
 -1      3328 1.13579E-03 2.97352E-05-8.49500E-16
 -1      3329 1.38325E-02 6.43968E-04-9.11115E-14
 -1      3330 1.38873E-02 6.79689E-04-9.14052E-14
 -1      3331 1.37782E-02 6.78593E-04-8.97178E-14
 -1      3332 1.37105E-02 6.25717E-04-8.95038E-14
 -1      3333 1.07305E-02 3.86920E-04-4.52621E-14
 -1      3334 1.07000E-02 3.71291E-04-4.58552E-14
 -1      3335 1.08231E-02 4.05385E-04-4.61615E-14
 -1      3336 1.06268E-02 5.59627E-04-4.38748E-14
 -1      3337 1.04297E-02 2.91475E-04-4.45564E-14
 -1      3338 1.08261E-02 4.60010E-04-4.47025E-14
 -1      3339 1.08801E-02 4.56694E-04-4.54222E-14
 -1      3340 1.08543E-02 4.89666E-04-4.55295E-14
 -1      3341 6.18228E-03 9.41020E-05-2.23954E-14
 -1      3342 6.07570E-03 1.08316E-04-2.17562E-14
 -1      3343 6.22313E-03 5.34373E-05-2.22645E-14
 -1      3344 7.70102E-03-6.06814E-04-2.93596E-14
 -1      3345 8.40609E-03-7.26668E-04-3.47773E-14
 -1      3346 8.56637E-03-6.89964E-04-3.60614E-14
 -1      3347 7.29872E-03-4.14413E-04-2.69992E-14
 -1      3348 1.57512E-03 3.62035E-04-1.09834E-15
 -1      3349 1.43172E-03 3.47013E-04-9.08399E-16
 -1      3350 1.38785E-03 3.17019E-04-8.93681E-16
 -1      3351 1.08543E-02 4.24311E-04-4.50802E-14
 -1      3352 5.98674E-03 1.52379E-04-2.14013E-14
 -1      3353 1.02411E-03-1.47436E-04-7.52192E-16
 -1      3354 1.02816E-03-1.76432E-04-7.53642E-16
 -1      3355 9.69710E-03-4.56411E-05-4.20140E-14
 -1      3356 1.15356E-03 2.09380E-04-7.21848E-16
 -1      3357 1.02881E-03 1.79255E-04-6.02098E-16
 -1      3358 1.02463E-03 1.50148E-04-6.24650E-16
 -1      3359 6.90507E-03-2.12806E-04-2.51304E-14
 -1      3360 1.41851E-02 1.10308E-03-8.93452E-14
 -1      3361 1.42098E-02 1.14293E-03-8.91209E-14
 -1      3362 1.42367E-02 1.17778E-03-8.90062E-14
 -1      3363 1.42634E-02 1.21280E-03-8.88933E-14
 -1      3364 1.41019E-02 1.13370E-03-8.75673E-14
 -1      3365 1.39997E-02 9.80871E-04-8.83395E-14
 -1      3366 1.41346E-02 1.02374E-03-8.97919E-14
 -1      3367 1.41600E-02 1.06337E-03-8.95699E-14
 -1      3368 1.00896E-02 1.52839E-04-4.34931E-14
 -1      3369 8.50635E-03-6.67918E-04-3.49832E-14
 -1      3370 1.84342E-03 3.79266E-04-1.51515E-15
 -1      3371 1.70004E-03 3.69023E-04-1.28727E-15
 -1      3372 1.65643E-03 3.39285E-04-1.26875E-15
 -1      3373 1.90699E-03 3.48057E-04-1.69095E-15
 -1      3374 1.02084E-03-2.03960E-04-7.37989E-16
 -1      3375 1.00121E-03-2.43295E-04-6.98091E-16
 -1      3376 1.12865E-03-2.64500E-04-8.59149E-16
 -1      3377 1.14025E-03-2.03931E-04-8.97543E-16
 -1      3378 5.94254E-03 1.72700E-04-2.04809E-14
 -1      3379 6.02190E-03 1.88226E-04-2.10551E-14
 -1      3380 6.02678E-03 2.00333E-04-2.06094E-14
 -1      3381 1.25663E-03-2.83250E-04-1.03751E-15
 -1      3382 1.02132E-03 1.21849E-04-6.44748E-16
 -1      3383 1.01883E-03 9.43650E-05-6.62786E-16
 -1      3384 1.13852E-03 8.73924E-05-8.15605E-16
 -1      3385 1.14421E-03 1.46856E-04-7.73497E-16
 -1      3386 1.32089E-03-2.60339E-04-1.14797E-15
 -1      3387 8.82900E-03-5.43703E-04-3.74088E-14
 -1      3388 1.01852E-03-9.18653E-05-7.43031E-16
 -1      3389 1.02092E-03-1.19289E-04-7.48587E-16
 -1      3390 1.14368E-03-1.43998E-04-9.09740E-16
 -1      3391 8.66705E-03-6.37055E-04-3.65998E-14
 -1      3392 9.34668E-03-2.58824E-04-4.06400E-14
 -1      3393 9.19580E-03-3.30627E-04-3.95254E-14
 -1      3394 2.14993E-03-2.84601E-04-2.77400E-15
 -1      3395 2.29397E-03-2.88089E-04-3.12559E-15
 -1      3396 2.43792E-03-2.90463E-04-3.49742E-15
 -1      3397 2.58178E-03-2.91804E-04-3.89037E-15
 -1      3398 2.36055E-03-2.53549E-04-3.29843E-15
 -1      3399 2.72548E-03-2.92274E-04-4.30393E-15
 -1      3400 2.86902E-03-2.91930E-04-4.73830E-15
 -1      3401 2.64846E-03-2.56014E-04-4.08044E-15
 -1      3402 3.01236E-03-2.90904E-04-5.19323E-15
 -1      3403 3.15551E-03-2.89237E-04-5.66889E-15
 -1      3404 2.93562E-03-2.55381E-04-4.94530E-15
 -1      3405 3.29844E-03-2.87036E-04-6.16594E-15
 -1      3406 3.44115E-03-2.84332E-04-6.68287E-15
 -1      3407 3.22177E-03-2.52292E-04-5.89276E-15
 -1      3408 3.58362E-03-2.81218E-04-7.22016E-15
 -1      3409 3.72588E-03-2.77717E-04-7.77854E-15
 -1      3410 3.50674E-03-2.47248E-04-6.92226E-15
 -1      3411 3.86789E-03-2.73920E-04-8.35750E-15
 -1      3412 4.00972E-03-2.69851E-04-8.95658E-15
 -1      3413 3.79043E-03-2.40656E-04-8.03388E-15
 -1      3414 4.15133E-03-2.65605E-04-9.57708E-15
 -1      3415 4.29281E-03-2.61219E-04-1.02178E-14
 -1      3416 4.07280E-03-2.32888E-04-9.22873E-15
 -1      3417 4.43416E-03-2.56796E-04-1.08772E-14
 -1      3418 4.57548E-03-2.52403E-04-1.15572E-14
 -1      3419 4.35396E-03-2.24330E-04-1.05038E-14
 -1      3420 4.71682E-03-2.48157E-04-1.22583E-14
 -1      3421 4.85834E-03-2.44176E-04-1.29802E-14
 -1      3422 4.63422E-03-2.15453E-04-1.18601E-14
 -1      3423 5.00013E-03-2.40588E-04-1.37211E-14
 -1      3424 5.14245E-03-2.37602E-04-1.44815E-14
 -1      3425 4.91422E-03-2.06885E-04-1.32972E-14
 -1      3426 5.28545E-03-2.35355E-04-1.52644E-14
 -1      3427 5.42951E-03-2.34208E-04-1.60674E-14
 -1      3428 5.19509E-03-1.99521E-04-1.48159E-14
 -1      3429 5.57491E-03-2.34305E-04-1.68900E-14
 -1      3430 5.72211E-03-2.36247E-04-1.77371E-14
 -1      3431 5.47873E-03-1.94723E-04-1.64172E-14
 -1      3432 5.87159E-03-2.40181E-04-1.86045E-14
 -1      3433 6.02388E-03-2.47108E-04-1.94938E-14
 -1      3434 5.76810E-03-1.94658E-04-1.81037E-14
 -1      3435 6.17967E-03-2.57238E-04-2.04067E-14
 -1      3436 6.33932E-03-2.72025E-04-2.13433E-14
 -1      3437 6.06750E-03-2.02958E-04-1.98787E-14
 -1      3438 6.50406E-03-2.91474E-04-2.23028E-14
 -1      3439 6.67333E-03-3.17942E-04-2.32849E-14
 -1      3440 6.38292E-03-2.25656E-04-2.17453E-14
 -1      3441 7.30904E-03-4.87853E-04-2.69469E-14
 -1      3442 7.49138E-03-5.44612E-04-2.80454E-14
 -1      3443 9.10025E-03-4.05539E-04-3.92924E-14
 -1      3444 7.13641E-03-4.00168E-04-2.59940E-14
 -1      3445 9.19747E-03-3.81762E-04-4.03601E-14
 -1      3446 9.08781E-03-4.36137E-04-3.95683E-14
 -1      3447 8.90804E-03-5.19644E-04-3.82172E-14
 -1      3448 1.32676E-03-2.27746E-04-1.16801E-15
 -1      3449 9.38157E-03-2.98324E-04-4.17489E-14
 -1      3450 9.56330E-03-2.20643E-04-4.31593E-14
 -1      3451 9.40232E-03-2.59127E-04-4.14661E-14
 -1      3452 9.74270E-03-1.51391E-04-4.45921E-14
 -1      3453 9.91731E-03-8.93007E-05-4.60468E-14
 -1      3454 9.77031E-03-1.07822E-04-4.43029E-14
 -1      3455 1.00875E-02-3.53895E-05-4.75219E-14
 -1      3456 1.02526E-02 1.27756E-05-4.90193E-14
 -1      3457 1.01173E-02 6.58273E-06-4.72258E-14
 -1      3458 1.04133E-02 5.50969E-05-5.05327E-14
 -1      3459 1.05699E-02 9.33191E-05-5.20646E-14
 -1      3460 1.04418E-02 9.30568E-05-5.02304E-14
 -1      3461 1.07229E-02 1.27689E-04-5.36154E-14
 -1      3462 1.08731E-02 1.59364E-04-5.51817E-14
 -1      3463 1.07483E-02 1.61566E-04-5.33055E-14
 -1      3464 1.10209E-02 1.88609E-04-5.67644E-14
 -1      3465 1.11668E-02 2.16143E-04-5.83650E-14
 -1      3466 1.10426E-02 2.19247E-04-5.64507E-14
 -1      3467 1.13112E-02 2.42195E-04-5.99782E-14
 -1      3468 1.14545E-02 2.67191E-04-6.16057E-14
 -1      3469 1.13293E-02 2.70594E-04-5.96557E-14
 -1      3470 1.15970E-02 2.91328E-04-6.32487E-14
 -1      3471 1.17389E-02 3.14854E-04-6.49065E-14
 -1      3472 1.16118E-02 3.18346E-04-6.29217E-14
 -1      3473 1.18804E-02 3.37937E-04-6.65788E-14
 -1      3474 1.20217E-02 3.60717E-04-6.82638E-14
 -1      3475 1.18925E-02 3.64216E-04-6.62446E-14
 -1      3476 1.21628E-02 3.83331E-04-6.99631E-14
 -1      3477 1.23040E-02 4.05855E-04-7.16788E-14
 -1      3478 1.21725E-02 4.09311E-04-6.96252E-14
 -1      3479 1.24451E-02 4.28398E-04-7.34070E-14
 -1      3480 1.25863E-02 4.50994E-04-7.51459E-14
 -1      3481 1.24528E-02 4.54356E-04-7.30595E-14
 -1      3482 1.27276E-02 4.73726E-04-7.68975E-14
 -1      3483 1.28691E-02 4.96605E-04-7.86617E-14
 -1      3484 1.27338E-02 4.99820E-04-7.65473E-14
 -1      3485 1.30106E-02 5.19690E-04-8.04351E-14
 -1      3486 1.31524E-02 5.42980E-04-8.22193E-14
 -1      3487 1.30156E-02 5.45993E-04-8.00754E-14
 -1      3488 1.32942E-02 5.66509E-04-8.40176E-14
 -1      3489 1.34361E-02 5.90273E-04-8.58223E-14
 -1      3490 1.32982E-02 5.93036E-04-8.36490E-14
 -1      3491 4.23617E-03 2.96952E-04-8.69991E-15
 -1      3492 4.09569E-03 3.01431E-04-8.11463E-15
 -1      3493 1.05590E-02 3.18294E-04-4.58796E-14
 -1      3494 1.04080E-02 2.62045E-04-4.54748E-14
 -1      3495 3.95478E-03 3.05764E-04-7.55057E-15
 -1      3496 3.81343E-03 3.09926E-04-7.00735E-15
 -1      3497 4.01688E-03 2.69794E-04-7.93259E-15
 -1      3498 4.79240E-03 2.80045E-04-1.12591E-14
 -1      3499 4.65427E-03 2.83906E-04-1.05877E-14
 -1      3500 5.06640E-03 2.74115E-04-1.26649E-14
 -1      3501 4.92974E-03 2.76759E-04-1.19513E-14
 -1      3502 4.84380E-03 2.47424E-04-1.17221E-14
 -1      3503 5.33737E-03 2.71869E-04-1.41573E-14
 -1      3504 5.20220E-03 2.72448E-04-1.33999E-14
 -1      3505 5.11183E-03 2.42999E-04-1.31537E-14
 -1      3506 5.60573E-03 2.75314E-04-1.57369E-14
 -1      3507 5.47172E-03 2.72752E-04-1.49364E-14
 -1      3508 5.37513E-03 2.42151E-04-1.46725E-14
 -1      3509 5.87321E-03 2.87045E-04-1.74007E-14
 -1      3510 5.73924E-03 2.79907E-04-1.65580E-14
 -1      3511 5.63365E-03 2.46406E-04-1.62772E-14
 -1      3512 6.14381E-03 3.10965E-04-1.91490E-14
 -1      3513 6.00741E-03 2.97098E-04-1.82638E-14
 -1      3514 5.88837E-03 2.57726E-04-1.79657E-14
 -1      3515 6.32392E-03 3.33557E-04-2.03506E-14
 -1      3516 1.23224E-02 8.69036E-04-6.38764E-14
 -1      3517 1.21847E-02 8.39285E-04-6.22140E-14
 -1      3518 1.86186E-03-2.73608E-04-2.13482E-15
 -1      3519 2.00588E-03-2.79810E-04-2.44401E-15
 -1      3520 2.07226E-03-2.47177E-04-2.59946E-15
 -1      3521 8.58588E-03-6.54408E-04-3.58126E-14
 -1      3522 8.75609E-03-5.91523E-04-3.71182E-14
 -1      3523 1.20478E-02 8.10154E-04-6.05666E-14
 -1      3524 1.19115E-02 7.81714E-04-5.89368E-14
 -1      3525 1.21108E-02 7.94223E-04-6.15857E-14
 -1      3526 1.17761E-02 7.54297E-04-5.73264E-14
 -1      3527 1.16413E-02 7.28032E-04-5.57312E-14
 -1      3528 1.18440E-02 7.38077E-04-5.83254E-14
 -1      3529 1.25997E-02 9.29536E-04-6.72445E-14
 -1      3530 1.24607E-02 8.99135E-04-6.55535E-14
 -1      3531 1.23818E-02 8.52746E-04-6.49112E-14
 -1      3532 1.28791E-02 9.90612E-04-7.06650E-14
 -1      3533 1.27391E-02 9.60038E-04-6.89496E-14
 -1      3534 1.26562E-02 9.12536E-04-6.82935E-14
 -1      3535 1.31603E-02 1.05154E-03-7.41301E-14
 -1      3536 1.30195E-02 1.02112E-03-7.23920E-14
 -1      3537 1.29336E-02 9.72746E-04-7.17239E-14
 -1      3538 1.34428E-02 1.11185E-03-7.76259E-14
 -1      3539 1.33014E-02 1.08179E-03-7.58748E-14
 -1      3540 1.32131E-02 1.03277E-03-7.51956E-14
 -1      3541 1.37262E-02 1.17127E-03-8.11494E-14
 -1      3542 1.35844E-02 1.14168E-03-7.93830E-14
 -1      3543 1.34944E-02 1.09222E-03-7.87025E-14
 -1      3544 1.40104E-02 1.22968E-03-8.46985E-14
 -1      3545 1.38682E-02 1.20061E-03-8.29221E-14
 -1      3546 1.37770E-02 1.15086E-03-8.22336E-14
 -1      3547 1.40503E-02 1.05959E-03-8.79027E-14
 -1      3548 1.07392E-02 5.74557E-04-4.52103E-14
 -1      3549 1.02060E-02 1.81342E-04-4.46635E-14
 -1      3550 1.00380E-02 1.06118E-04-4.39940E-14
 -1      3551 4.51552E-03 2.88068E-04-9.93698E-15
 -1      3552 4.37611E-03 2.92487E-04-9.30720E-15
 -1      3553 4.29569E-03 2.61832E-04-9.11058E-15
 -1      3554 4.57154E-03 2.54076E-04-1.03739E-14
 -1      3555 8.16167E-03-6.97811E-04-3.23900E-14
 -1      3556 8.03114E-03-6.85203E-04-3.15354E-14
 -1      3557 6.93944E-03-2.82549E-04-2.50600E-14
 -1      3558 6.74380E-03-1.88893E-04-2.41690E-14
 -1      3559 7.69210E-03-5.77678E-04-2.92881E-14
 -1      3560 1.37032E-02 7.03611E-04-8.81463E-14
 -1      3561 1.37312E-02 7.43422E-04-8.79399E-14
 -1      3562 1.15073E-02 7.03298E-04-5.41529E-14
 -1      3563 1.13734E-02 6.80363E-04-5.25940E-14
 -1      3564 1.15819E-02 6.85630E-04-5.51344E-14
 -1      3565 1.01569E-03-3.84429E-05-7.27473E-16
 -1      3566 1.01679E-03-6.49570E-05-7.36065E-16
 -1      3567 1.13823E-03-8.47931E-05-8.96703E-16
 -1      3568 2.81562E-03 3.27464E-04-3.79647E-15
 -1      3569 2.67220E-03 3.27465E-04-3.42100E-15
 -1      3570 3.67173E-03 3.13790E-04-6.48510E-15
 -1      3571 3.52969E-03 3.17333E-04-5.98396E-15
 -1      3572 3.73565E-03 2.77256E-04-6.83947E-15
 -1      3573 1.57429E-03-2.56183E-04-1.57899E-15
 -1      3574 1.71798E-03-2.65771E-04-1.84631E-15
 -1      3575 1.78413E-03-2.35911E-04-1.98393E-15
 -1      3576 1.09083E-02 4.43518E-04-4.59148E-14
 -1      3577 1.09100E-02 4.33660E-04-4.64047E-14
 -1      3578 1.09564E-02 4.66341E-04-4.67520E-14
 -1      3579 2.52863E-03 3.26550E-04-3.06566E-15
 -1      3580 2.38493E-03 3.24646E-04-2.73039E-15
 -1      3581 2.59470E-03 2.90986E-04-3.30751E-15
 -1      3582 2.24114E-03 3.21576E-04-2.41574E-15
 -1      3583 2.09726E-03 3.17239E-04-2.12107E-15
 -1      3584 2.30699E-03 2.87369E-04-2.62952E-15
 -1      3585 6.96724E-03-3.66623E-04-2.50072E-14
 -1      3586 6.54341E-03-9.64429E-05-2.33312E-14
 -1      3587 6.38151E-03-3.00875E-05-2.26790E-14
 -1      3588 5.95875E-03 1.28777E-04-2.09686E-14
 -1      3589 5.90753E-03 1.44362E-04-2.04977E-14
 -1      3590 1.34475E-03 2.87769E-04-8.76483E-16
 -1      3591 1.30241E-03 2.59240E-04-8.57170E-16
 -1      3592 1.48808E-03 3.02767E-04-1.06299E-15
 -1      3593 1.26755E-03-1.73175E-04-1.08640E-15
 -1      3594 1.44710E-03-2.24677E-04-1.36467E-15
 -1      3595 1.51366E-03-1.98295E-04-1.48257E-15
 -1      3596 1.26358E-03-1.40952E-04-1.08117E-15
 -1      3597 1.08514E-02 6.08308E-04-4.66601E-14
 -1      3598 1.08710E-02 5.35043E-04-4.62564E-14
 -1      3599 1.43008E-02 1.24671E-03-8.89639E-14
 -1      3600 1.43275E-02 1.28209E-03-8.88465E-14
 -1      3601 1.42402E-02 1.27009E-03-8.76668E-14
 -1      3602 1.41657E-02 1.20214E-03-8.75264E-14
 -1      3603 9.53767E-03-1.71107E-04-4.20348E-14
 -1      3604 1.09431E-02 5.24550E-04-4.69872E-14
 -1      3605 6.24718E-03 7.83063E-06-2.20406E-14
 -1      3606 6.12368E-03 3.55704E-05-2.14100E-14
 -1      3607 6.26301E-03-4.16226E-05-2.18126E-14
 -1      3608 8.42149E-03-6.95083E-04-3.44850E-14
 -1      3609 6.66047E-03-2.49575E-04-2.33995E-14
 -1      3610 6.78955E-03-3.27101E-04-2.39837E-14
 -1      3611 1.35919E-02 6.34454E-04-8.75257E-14
 -1      3612 1.35886E-02 6.07646E-04-8.79005E-14
 -1      3613 1.09867E-02 6.20183E-04-4.81490E-14
 -1      3614 1.06856E-02 3.49687E-04-4.67870E-14
 -1      3615 8.24172E-03-7.08251E-04-3.30602E-14
 -1      3616 1.09132E-02 4.26737E-04-4.70055E-14
 -1      3617 1.09084E-02 4.17750E-04-4.76085E-14
 -1      3618 1.09906E-02 4.47227E-04-4.78551E-14
 -1      3619 1.03596E-02 2.21179E-04-4.59852E-14
 -1      3620 3.10192E-03 3.25198E-04-4.60951E-15
 -1      3621 2.95886E-03 3.26691E-04-4.19269E-15
 -1      3622 2.88171E-03 2.91082E-04-4.06649E-15
 -1      3623 6.18019E-03 2.81332E-04-2.00312E-14
 -1      3624 1.38127E-02 8.60694E-04-8.73121E-14
 -1      3625 1.38390E-02 8.99444E-04-8.70995E-14
 -1      3626 9.85487E-03 1.03850E-05-4.33595E-14
 -1      3627 9.65627E-03-1.00205E-04-4.25329E-14
 -1      3628 1.29562E-03 2.24628E-04-8.91810E-16
 -1      3629 1.39675E-02 1.09417E-03-8.60648E-14
 -1      3630 1.39940E-02 1.12863E-03-8.59527E-14
 -1      3631 1.13570E-03-2.73009E-05-8.76347E-16
 -1      3632 1.39183E-02 1.01568E-03-8.65044E-14
 -1      3633 1.39431E-02 1.05485E-03-8.62855E-14
 -1      3634 1.38359E-02 1.04980E-03-8.46748E-14
 -1      3635 1.41528E-02 1.25795E-03-8.64896E-14
 -1      3636 1.25765E-03 4.70956E-05-1.00537E-15
 -1      3637 1.25689E-03 1.65209E-05-1.02289E-15
 -1      3638 9.70070E-03-1.11172E-04-4.33776E-14
 -1      3639 1.38663E-02 9.38031E-04-8.69091E-14
 -1      3640 1.38919E-02 9.77044E-04-8.66958E-14
 -1      3641 1.37854E-02 9.72502E-04-8.50829E-14
 -1      3642 1.37318E-02 8.95954E-04-8.54594E-14
 -1      3643 9.98688E-03 4.89393E-05-4.45235E-14
 -1      3644 1.97161E-03 3.16274E-04-1.87326E-15
 -1      3645 1.84599E-03 3.13991E-04-1.64190E-15
 -1      3646 2.03709E-03 2.83966E-04-2.06118E-15
 -1      3647 6.58569E-03-1.63799E-04-2.32645E-14
 -1      3648 1.12463E-02 6.57106E-04-5.11182E-14
 -1      3649 1.11128E-02 6.38712E-04-4.95913E-14
 -1      3650 1.10905E-02 5.91393E-04-4.91575E-14
 -1      3651 1.13300E-02 6.36497E-04-5.20794E-14
 -1      3652 3.45248E-03 2.83639E-04-5.83130E-15
 -1      3653 3.38736E-03 3.20447E-04-5.50528E-15
 -1      3654 3.24475E-03 3.23104E-04-5.04703E-15
 -1      3655 1.26143E-03 1.08950E-04-9.63923E-16
 -1      3656 1.25917E-03 7.78374E-05-9.85702E-16
 -1      3657 1.38066E-03 6.59891E-05-1.17263E-15
 -1      3658 5.96761E-03 1.04729E-04-2.08468E-14
 -1      3659 5.86453E-03 9.94293E-05-1.99564E-14
 -1      3660 5.98438E-03 7.57424E-05-2.07226E-14
 -1      3661 5.87668E-03 1.52653E-04-2.00650E-14
 -1      3662 5.85505E-03 1.61633E-04-1.96338E-14
 -1      3663 5.82350E-03 1.31615E-04-1.96493E-14
 -1      3664 5.96836E-03 2.02104E-04-1.98708E-14
 -1      3665 6.07502E-03 2.22918E-04-2.04342E-14
 -1      3666 1.37587E-02 7.82812E-04-8.77282E-14
 -1      3667 1.37859E-02 8.21838E-04-8.75204E-14
 -1      3668 1.36776E-02 8.19161E-04-8.58567E-14
 -1      3669 6.16914E-03 2.58046E-04-2.04688E-14
 -1      3670 1.36228E-02 7.41482E-04-8.62716E-14
 -1      3671 1.40607E-02 1.20805E-03-8.58013E-14
 -1      3672 6.47906E-03-1.63676E-04-2.25825E-14
 -1      3673 2.57185E-03-2.19799E-04-3.86099E-15
 -1      3674 2.71569E-03-2.20127E-04-4.27060E-15
 -1      3675 2.85928E-03-2.19821E-04-4.70071E-15
 -1      3676 3.00259E-03-2.18910E-04-5.15163E-15
 -1      3677 2.78340E-03-1.84224E-04-4.46043E-15
 -1      3678 3.14558E-03-2.17494E-04-5.62315E-15
 -1      3679 3.28822E-03-2.15585E-04-6.11552E-15
 -1      3680 3.06990E-03-1.82603E-04-5.35772E-15
 -1      3681 3.43047E-03-2.13269E-04-6.62780E-15
 -1      3682 3.57233E-03-2.10545E-04-7.16030E-15
 -1      3683 3.35484E-03-1.79200E-04-6.33692E-15
 -1      3684 3.71376E-03-2.07490E-04-7.71400E-15
 -1      3685 3.85477E-03-2.04100E-04-8.28795E-15
 -1      3686 3.63794E-03-1.74302E-04-7.39778E-15
 -1      3687 3.99532E-03-2.00447E-04-8.88338E-15
 -1      3688 4.13546E-03-1.96525E-04-9.49924E-15
 -1      3689 3.91895E-03-1.68122E-04-8.54168E-15
 -1      3690 4.27514E-03-1.92409E-04-1.01341E-14
 -1      3691 4.41444E-03-1.88100E-04-1.07887E-14
 -1      3692 4.19775E-03-1.60830E-04-9.76783E-15
 -1      3693 4.55335E-03-1.83675E-04-1.14642E-14
 -1      3694 4.69199E-03-1.79160E-04-1.21611E-14
 -1      3695 4.47431E-03-1.52582E-04-1.10733E-14
 -1      3696 4.83038E-03-1.74633E-04-1.28782E-14
 -1      3697 4.96872E-03-1.70167E-04-1.36144E-14
 -1      3698 4.74884E-03-1.43561E-04-1.24610E-14
 -1      3699 5.10707E-03-1.65840E-04-1.43715E-14
 -1      3700 5.24578E-03-1.61817E-04-1.51493E-14
 -1      3701 5.02186E-03-1.34035E-04-1.39311E-14
 -1      3702 5.38496E-03-1.58168E-04-1.59477E-14
 -1      3703 5.52516E-03-1.55259E-04-1.67670E-14
 -1      3704 5.29446E-03-1.24455E-04-1.54820E-14
 -1      3705 5.66662E-03-1.53149E-04-1.76079E-14
 -1      3706 5.81012E-03-1.52550E-04-1.84709E-14
 -1      3707 5.56863E-03-1.15713E-04-1.71161E-14
 -1      3708 5.95609E-03-1.53571E-04-1.93564E-14
 -1      3709 6.10558E-03-1.57458E-04-2.02630E-14
 -1      3710 5.84777E-03-1.09655E-04-1.88377E-14
 -1      3711 6.31841E-03-1.49290E-04-2.16208E-14
 -1      3712 4.07854E-03 2.34776E-04-8.31836E-15
 -1      3713 3.93928E-03 2.38187E-04-7.74765E-15
 -1      3714 1.10502E-02 5.45800E-04-4.84535E-14
 -1      3715 1.10114E-02 5.03908E-04-4.77133E-14
 -1      3716 9.88081E-03-4.51783E-05-4.48152E-14
 -1      3717 1.00548E-02 1.08317E-05-4.62745E-14
 -1      3718 1.02219E-02 5.86896E-05-4.77555E-14
 -1      3719 9.99323E-03 1.46574E-05-4.53299E-14
 -1      3720 1.04260E-02 1.25994E-04-4.93350E-14
 -1      3721 1.05799E-02 1.60575E-04-5.08530E-14
 -1      3722 1.07296E-02 1.91320E-04-5.23898E-14
 -1      3723 1.08761E-02 2.19756E-04-5.39455E-14
 -1      3724 1.07158E-02 2.22300E-04-5.14774E-14
 -1      3725 1.10200E-02 2.46097E-04-5.55143E-14
 -1      3726 1.11620E-02 2.71257E-04-5.71005E-14
 -1      3727 1.10008E-02 2.73391E-04-5.45818E-14
 -1      3728 1.13026E-02 2.95338E-04-5.87030E-14
 -1      3729 1.14422E-02 3.18812E-04-6.03189E-14
 -1      3730 1.12783E-02 3.19978E-04-5.77501E-14
 -1      3731 1.15812E-02 3.41770E-04-6.19517E-14
 -1      3732 1.17199E-02 3.64447E-04-6.35978E-14
 -1      3733 1.15523E-02 3.64756E-04-6.09819E-14
 -1      3734 1.18583E-02 3.86930E-04-6.52588E-14
 -1      3735 1.19968E-02 4.09335E-04-6.69324E-14
 -1      3736 1.18255E-02 4.09028E-04-6.42738E-14
 -1      3737 1.21354E-02 4.31740E-04-6.86215E-14
 -1      3738 1.22742E-02 4.54196E-04-7.03241E-14
 -1      3739 1.20992E-02 4.53481E-04-6.76192E-14
 -1      3740 1.24132E-02 4.76765E-04-7.20387E-14
 -1      3741 1.25525E-02 4.99468E-04-7.37696E-14
 -1      3742 1.23742E-02 4.98487E-04-7.10215E-14
 -1      3743 1.26921E-02 5.22352E-04-7.55105E-14
 -1      3744 1.28320E-02 5.45421E-04-7.72616E-14
 -1      3745 1.26509E-02 5.44244E-04-7.44747E-14
 -1      3746 1.29722E-02 5.68709E-04-7.90237E-14
 -1      3747 1.31127E-02 5.92209E-04-8.07961E-14
 -1      3748 1.29292E-02 5.90855E-04-7.79750E-14
 -1      3749 5.15619E-03 2.13867E-04-1.36461E-14
 -1      3750 5.02597E-03 2.14884E-04-1.29063E-14
 -1      3751 4.89432E-03 2.16530E-04-1.21882E-14
 -1      3752 4.76118E-03 2.18850E-04-1.14910E-14
 -1      3753 4.94437E-03 1.87395E-04-1.26573E-14
 -1      3754 5.65929E-03 2.20038E-04-1.68207E-14
 -1      3755 5.53621E-03 2.16810E-04-1.59954E-14
 -1      3756 6.01466E-03 2.45378E-04-1.92689E-14
 -1      3757 1.01568E-02 9.99640E-05-4.59820E-14
 -1      3758 1.05454E-02 2.41617E-04-4.83731E-14
 -1      3759 1.03662E-02 1.68877E-04-4.75365E-14
 -1      3760 1.27109E-02 8.95868E-04-6.93391E-14
 -1      3761 1.25742E-02 8.66334E-04-6.76370E-14
 -1      3762 1.99524E-03-2.10223E-04-2.42829E-15
 -1      3763 2.13945E-03-2.14034E-04-2.75523E-15
 -1      3764 1.24385E-02 8.37016E-04-6.59450E-14
 -1      3765 1.23037E-02 8.07901E-04-6.42683E-14
 -1      3766 1.24927E-02 8.21459E-04-6.69802E-14
 -1      3767 1.45268E-03 2.34379E-04-1.10727E-15
 -1      3768 1.30435E-03 1.87845E-04-9.46793E-16
 -1      3769 1.19071E-02 7.23389E-04-5.93277E-14
 -1      3770 1.17776E-02 6.96483E-04-5.77152E-14
 -1      3771 1.25684E-03-1.39188E-05-1.03829E-15
 -1      3772 1.25751E-03-4.44163E-05-1.05208E-15
 -1      3773 1.37899E-03 1.41294E-06-1.21273E-15
 -1      3774 1.08250E-02 3.81703E-04-4.79674E-14
 -1      3775 1.07055E-02 3.33148E-04-4.79922E-14
 -1      3776 1.29867E-02 9.55069E-04-7.27812E-14
 -1      3777 1.28484E-02 9.25443E-04-7.10559E-14
 -1      3778 1.27637E-02 8.79245E-04-7.03874E-14
 -1      3779 1.32650E-02 1.01410E-03-7.62640E-14
 -1      3780 1.31255E-02 9.84621E-04-7.45164E-14
 -1      3781 1.30384E-02 9.37367E-04-7.38388E-14
 -1      3782 1.35454E-02 1.07263E-03-7.97767E-14
 -1      3783 1.34050E-02 1.04344E-03-7.80167E-14
 -1      3784 1.33160E-02 9.95374E-04-7.73304E-14
 -1      3785 1.16500E-02 6.70530E-04-5.61188E-14
 -1      3786 1.15240E-02 6.45484E-04-5.45399E-14
 -1      3787 1.17119E-02 6.56905E-04-5.71051E-14
 -1      3788 1.36259E-02 6.60677E-04-8.76333E-14
 -1      3789 1.35175E-02 6.59579E-04-8.59673E-14
 -1      3790 3.79932E-03 2.41437E-04-7.19851E-15
 -1      3791 3.65871E-03 2.44524E-04-6.66916E-15
 -1      3792 3.86284E-03 2.06414E-04-7.56052E-15
 -1      3793 1.40238E-02 1.17430E-03-8.57298E-14
 -1      3794 1.72960E-03 3.12744E-04-1.43784E-15
 -1      3795 1.60419E-03 3.07338E-04-1.23770E-15
 -1      3796 1.56168E-03 2.78550E-04-1.21455E-15
 -1      3797 1.79458E-03 2.82785E-04-1.60236E-15
 -1      3798 1.29992E-03 1.54857E-04-9.75402E-16
 -1      3799 1.10465E-02 4.87550E-04-4.82177E-14
 -1      3800 2.66131E-03 2.55316E-04-3.55418E-15
 -1      3801 2.51752E-03 2.54518E-04-3.19139E-15
 -1      3802 2.37356E-03 2.52857E-04-2.84854E-15
 -1      3803 2.22947E-03 2.50268E-04-2.52599E-15
 -1      3804 2.44076E-03 2.18110E-04-3.07291E-15
 -1      3805 5.87395E-03 1.85318E-04-1.93014E-14
 -1      3806 5.90738E-03 2.05913E-04-1.91304E-14
 -1      3807 1.34869E-02 7.00571E-04-8.48163E-14
 -1      3808 1.35150E-02 7.39457E-04-8.46108E-14
 -1      3809 1.21702E-02 7.79223E-04-6.26071E-14
 -1      3810 1.20379E-02 7.50953E-04-6.09580E-14
 -1      3811 1.19656E-02 7.09489E-04-6.03343E-14
 -1      3812 1.22263E-02 7.64619E-04-6.36270E-14
 -1      3813 1.35426E-02 7.77909E-04-8.44072E-14
 -1      3814 1.35696E-02 8.16163E-04-8.42013E-14
 -1      3815 1.34075E-02 7.37040E-04-8.29612E-14
 -1      3816 1.38894E-02 1.13417E-03-8.42355E-14
 -1      3817 2.28367E-03-2.16845E-04-3.10308E-15
 -1      3818 2.42783E-03-2.18721E-04-3.47171E-15
 -1      3819 2.20736E-03-1.80433E-04-2.91186E-15
 -1      3820 1.25890E-03-7.50692E-05-1.06381E-15
 -1      3821 1.26105E-03-1.06069E-04-1.07393E-15
 -1      3822 1.38044E-03-6.30615E-05-1.24405E-15
 -1      3823 5.41148E-03 2.14677E-04-1.51907E-14
 -1      3824 5.28463E-03 2.13834E-04-1.44076E-14
 -1      3825 5.44702E-03 1.89474E-04-1.57112E-14
 -1      3826 1.70728E-03-1.99082E-04-1.83626E-15
 -1      3827 1.85116E-03-2.05267E-04-2.12214E-15
 -1      3828 1.91897E-03-1.73871E-04-2.26116E-15
 -1      3829 8.07485E-03-7.35236E-04-3.21225E-14
 -1      3830 6.19203E-03-9.33647E-05-2.10664E-14
 -1      3831 5.90338E-03 2.23948E-04-1.87107E-14
 -1      3832 1.34095E-02 6.58289E-04-8.43061E-14
 -1      3833 1.37483E-02 1.10553E-03-8.24559E-14
 -1      3834 1.36575E-02 1.05686E-03-8.17651E-14
 -1      3835 2.49573E-03-1.83673E-04-3.64509E-15
 -1      3836 6.07017E-03-5.91290E-05-2.04560E-14
 -1      3837 1.58101E-03-1.70804E-04-1.60202E-15
 -1      3838 1.11598E-02 5.67700E-04-4.98995E-14
 -1      3839 4.21700E-03 2.31354E-04-8.91123E-15
 -1      3840 4.13994E-03 2.00781E-04-8.70858E-15
 -1      3841 4.35461E-03 2.27916E-04-9.52392E-15
 -1      3842 1.32687E-02 6.34218E-04-8.25125E-14
 -1      3843 1.03709E-02 1.34676E-04-4.83636E-14
 -1      3844 1.32243E-02 6.56413E-04-8.14488E-14
 -1      3845 5.19999E-03 1.86754E-04-1.41417E-14
 -1      3846 1.10775E-02 4.80055E-04-4.88321E-14
 -1      3847 1.11000E-02 4.73264E-04-4.94472E-14
 -1      3848 1.11537E-02 5.16780E-04-4.98104E-14
 -1      3849 5.78640E-03 2.17790E-04-1.78397E-14
 -1      3850 3.16772E-03 2.88426E-04-4.90752E-15
 -1      3851 5.69167E-03 1.89819E-04-1.75361E-14
 -1      3852 1.06919E-02 3.00751E-04-4.89344E-14
 -1      3853 1.07091E-02 2.55636E-04-5.05234E-14
 -1      3854 1.08489E-02 2.79719E-04-5.20570E-14
 -1      3855 1.08450E-02 3.40161E-04-5.01388E-14
 -1      3856 1.38464E-03-1.32094E-04-1.26680E-15
 -1      3857 1.34634E-02 8.12778E-04-8.25767E-14
 -1      3858 1.35975E-02 8.54161E-04-8.40171E-14
 -1      3859 1.36249E-02 8.92098E-04-8.38301E-14
 -1      3860 1.56895E-03 2.37671E-04-1.28523E-15
 -1      3861 1.50208E-03 1.83587E-05-1.39946E-15
 -1      3862 1.50202E-03-1.53901E-05-1.41949E-15
 -1      3863 1.09368E-02 4.09126E-04-4.88274E-14
 -1      3864 1.14712E-02 6.06297E-04-5.40110E-14
 -1      3865 1.14050E-02 6.20156E-04-5.30436E-14
 -1      3866 1.12883E-02 5.95727E-04-5.15638E-14
 -1      3867 1.36341E-02 1.01827E-03-8.19834E-14
 -1      3868 1.34329E-02 9.86222E-04-7.93062E-14
 -1      3869 1.36101E-02 9.79915E-04-8.21979E-14
 -1      3870 5.77082E-03 8.35287E-05-1.91232E-14
 -1      3871 5.77724E-03 1.06900E-04-1.92395E-14
 -1      3872 4.62682E-03 2.21549E-04-1.08142E-14
 -1      3873 4.49123E-03 2.24651E-04-1.01584E-14
 -1      3874 4.41317E-03 1.95259E-04-9.94148E-15
 -1      3875 2.94814E-03 2.54789E-04-4.34106E-15
 -1      3876 2.80486E-03 2.55392E-04-3.93732E-15
 -1      3877 2.72841E-03 2.19624E-04-3.80612E-15
 -1      3878 2.10341E-03 2.51149E-04-2.25421E-15
 -1      3879 1.97738E-03 2.51047E-04-1.99851E-15
 -1      3880 2.17048E-03 2.17873E-04-2.45260E-15
 -1      3881 3.58259E-03 2.11595E-04-6.49738E-15
 -1      3882 3.51753E-03 2.47326E-04-6.16187E-15
 -1      3883 3.37583E-03 2.49835E-04-5.67569E-15
 -1      3884 5.73240E-03 1.17787E-04-1.88236E-14
 -1      3885 1.42101E-03 1.45936E-04-1.16256E-15
 -1      3886 5.99197E-03 3.92998E-05-2.05088E-14
 -1      3887 1.50470E-03 8.61744E-05-1.35142E-15
 -1      3888 1.50297E-03 5.21714E-05-1.37661E-15
 -1      3889 1.62601E-03 3.66654E-05-1.59767E-15
 -1      3890 5.79022E-03 1.63530E-04-1.89028E-14
 -1      3891 4.68167E-03 1.90529E-04-1.12580E-14
 -1      3892 1.25446E-02 8.05952E-04-6.80177E-14
 -1      3893 1.24112E-02 7.77904E-04-6.63286E-14
 -1      3894 4.99488E-03 1.59991E-04-1.31294E-14
 -1      3895 4.86675E-03 1.60267E-04-1.24062E-14
 -1      3896 2.70811E-03-1.48645E-04-4.22394E-15
 -1      3897 2.85165E-03-1.48349E-04-4.64947E-15
 -1      3898 2.99484E-03-1.47636E-04-5.09622E-15
 -1      3899 3.13762E-03-1.46505E-04-5.56331E-15
 -1      3900 2.92041E-03-1.12577E-04-4.83858E-15
 -1      3901 3.27993E-03-1.45028E-04-6.05012E-15
 -1      3902 3.42175E-03-1.43188E-04-6.55754E-15
 -1      3903 3.20574E-03-1.10696E-04-5.76771E-15
 -1      3904 3.56300E-03-1.41049E-04-7.08594E-15
 -1      3905 3.70368E-03-1.38578E-04-7.63460E-15
 -1      3906 3.48894E-03-1.07625E-04-6.77759E-15
 -1      3907 3.84372E-03-1.35837E-04-8.20387E-15
 -1      3908 3.98313E-03-1.32786E-04-8.79434E-15
 -1      3909 3.76961E-03-1.03441E-04-7.87040E-15
 -1      3910 4.12184E-03-1.29483E-04-9.40505E-15
 -1      3911 4.25987E-03-1.25878E-04-1.00351E-14
 -1      3912 4.04737E-03-9.81604E-05-9.04535E-15
 -1      3913 4.39718E-03-1.22026E-04-1.06858E-14
 -1      3914 4.53381E-03-1.17877E-04-1.13568E-14
 -1      3915 4.32193E-03-9.17320E-05-1.03020E-14
 -1      3916 4.66971E-03-1.13484E-04-1.20481E-14
 -1      3917 4.80501E-03-1.08806E-04-1.27603E-14
 -1      3918 4.59304E-03-8.40442E-05-1.16395E-14
 -1      3919 4.93965E-03-1.03891E-04-1.34934E-14
 -1      3920 5.07386E-03-9.87276E-05-1.42460E-14
 -1      3921 4.86063E-03-7.49501E-05-1.30583E-14
 -1      3922 5.20759E-03-9.33551E-05-1.50195E-14
 -1      3923 5.34126E-03-8.78315E-05-1.58130E-14
 -1      3924 5.12482E-03-6.42942E-05-1.45599E-14
 -1      3925 5.47482E-03-8.21828E-05-1.66284E-14
 -1      3926 5.60897E-03-7.66791E-05-1.74646E-14
 -1      3927 5.38619E-03-5.19313E-05-1.61436E-14
 -1      3928 5.74376E-03-7.14242E-05-1.83228E-14
 -1      3929 5.88028E-03-6.69926E-05-1.92028E-14
 -1      3930 5.64608E-03-3.81723E-05-1.78126E-14
 -1      3931 1.09859E-02 3.02227E-04-5.36075E-14
 -1      3932 1.11217E-02 3.24196E-04-5.51731E-14
 -1      3933 1.09755E-02 3.30809E-04-5.26360E-14
 -1      3934 1.12562E-02 3.45648E-04-5.67562E-14
 -1      3935 1.13905E-02 3.67082E-04-5.83550E-14
 -1      3936 1.12370E-02 3.70665E-04-5.57648E-14
 -1      3937 1.15244E-02 3.88504E-04-5.99695E-14
 -1      3938 1.16585E-02 4.10048E-04-6.15977E-14
 -1      3939 1.14982E-02 4.11369E-04-5.89593E-14
 -1      3940 1.17928E-02 4.31753E-04-6.32420E-14
 -1      3941 1.19275E-02 4.53662E-04-6.49007E-14
 -1      3942 1.17611E-02 4.53527E-04-6.22128E-14
 -1      3943 1.20626E-02 4.75816E-04-6.65712E-14
 -1      3944 1.21983E-02 4.98195E-04-6.82576E-14
 -1      3945 1.20267E-02 4.97193E-04-6.55256E-14
 -1      3946 1.23345E-02 5.20844E-04-6.99556E-14
 -1      3947 1.24713E-02 5.43717E-04-7.16679E-14
 -1      3948 1.22953E-02 5.42281E-04-6.88927E-14
 -1      3949 1.26087E-02 5.66854E-04-7.33944E-14
 -1      3950 1.27466E-02 5.90215E-04-7.51309E-14
 -1      3951 1.25668E-02 5.88628E-04-7.23138E-14
 -1      3952 1.28850E-02 6.13832E-04-7.68775E-14
 -1      3953 1.30239E-02 6.37663E-04-7.86352E-14
 -1      3954 1.28410E-02 6.36069E-04-7.57838E-14
 -1      3955 3.23367E-03 2.51942E-04-5.21053E-15
 -1      3956 3.09109E-03 2.53630E-04-4.76571E-15
 -1      3957 3.29978E-03 2.15835E-04-5.51775E-15
 -1      3958 1.30890E-02 9.19577E-04-7.48958E-14
 -1      3959 1.29515E-02 8.91049E-04-7.31590E-14
 -1      3960 5.67627E-03 1.36831E-04-1.81772E-14
 -1      3961 5.67736E-03 1.61383E-04-1.78595E-14
 -1      3962 5.55649E-03 1.62237E-04-1.68460E-14
 -1      3963 1.10458E-02 4.37420E-04-4.97530E-14
 -1      3964 1.09798E-02 4.02287E-04-5.01167E-14
 -1      3965 1.28149E-02 8.62585E-04-7.14357E-14
 -1      3966 1.26792E-02 8.34167E-04-6.97202E-14
 -1      3967 1.28646E-02 8.45666E-04-7.24813E-14
 -1      3968 2.42021E-03-1.47731E-04-3.43337E-15
 -1      3969 2.56427E-03-1.48443E-04-3.81861E-15
 -1      3970 2.63342E-03-1.13104E-04-3.99142E-15
 -1      3971 1.17681E-02 6.44328E-04-5.80935E-14
 -1      3972 1.16457E-02 6.19437E-04-5.64955E-14
 -1      3973 5.77500E-03 5.18606E-05-1.90296E-14
 -1      3974 5.67573E-03 6.36826E-05-1.83341E-14
 -1      3975 1.84353E-03-1.38309E-04-2.09851E-15
 -1      3976 1.98756E-03-1.41772E-04-2.40144E-15
 -1      3977 1.31384E-02 6.65952E-04-7.99430E-14
 -1      3978 1.32929E-02 7.08161E-04-8.16479E-14
 -1      3979 1.33209E-02 7.45951E-04-8.14471E-14
 -1      3980 1.30929E-02 6.88494E-04-7.88348E-14
 -1      3981 1.68546E-03 2.39495E-04-1.47708E-15
 -1      3982 1.57762E-03 1.97365E-04-1.35241E-15
 -1      3983 1.80219E-03 2.39936E-04-1.68326E-15
 -1      3984 5.24448E-03 1.61650E-04-1.46391E-14
 -1      3985 5.12084E-03 1.60534E-04-1.38735E-14
 -1      3986 5.04641E-03 1.34274E-04-1.36039E-14
 -1      3987 5.95595E-03-1.86963E-05-1.99132E-14
 -1      3988 2.50862E-03 1.83164E-04-3.30328E-15
 -1      3989 2.36456E-03 1.81873E-04-2.95329E-15
 -1      3990 5.82637E-03 2.26091E-05-1.92558E-14
 -1      3991 1.55980E-03 1.65770E-04-1.36096E-15
 -1      3992 1.52058E-03 1.16133E-04-1.34941E-15
 -1      3993 1.64302E-03 1.02709E-04-1.56937E-15
 -1      3994 1.67642E-03 1.65736E-04-1.55876E-15
 -1      3995 1.36049E-02 9.17217E-04-8.31085E-14
 -1      3996 1.36311E-02 9.55046E-04-8.29223E-14
 -1      3997 1.34308E-02 9.24243E-04-8.02415E-14
 -1      3998 1.34715E-02 8.75233E-04-8.16757E-14
 -1      3999 1.57765E-03-1.31517E-04-1.59165E-15
 -1      4000 1.12317E-02 5.53062E-04-5.08443E-14
 -1      4001 2.13176E-03-1.44457E-04-2.72505E-15
 -1      4002 2.27601E-03-1.46411E-04-3.06906E-15
 -1      4003 2.05688E-03-1.08995E-04-2.54264E-15
 -1      4004 1.51305E-03-8.23729E-05-1.46739E-15
 -1      4005 1.70880E-03-1.17107E-04-1.82910E-15
 -1      4006 1.77833E-03-8.65404E-05-1.95240E-15
 -1      4007 1.51146E-03-4.83531E-05-1.45154E-15
 -1      4008 3.92648E-03 1.72227E-04-7.92811E-15
 -1      4009 3.78757E-03 1.74426E-04-7.37198E-15
 -1      4010 5.46249E-03 1.62341E-04-1.61284E-14
 -1      4011 5.34440E-03 1.59603E-04-1.53229E-14
 -1      4012 5.27060E-03 1.34329E-04-1.50364E-14
 -1      4013 5.46422E-03 1.33780E-04-1.64342E-14
 -1      4014 1.63459E-03-3.26120E-05-1.65819E-15
 -1      4015 5.61273E-03 1.13357E-04-1.77881E-14
 -1      4016 4.73678E-03 1.60997E-04-1.17040E-14
 -1      4017 4.60507E-03 1.62290E-04-1.10229E-14
 -1      4018 4.79256E-03 1.32939E-04-1.21530E-14
 -1      4019 1.33299E-02 9.67197E-04-7.79710E-14
 -1      4020 1.31912E-02 9.38744E-04-7.62183E-14
 -1      4021 1.31026E-02 8.92382E-04-7.55302E-14
 -1      4022 1.33070E-02 9.29849E-04-7.81861E-14
 -1      4023 2.28898E-03 1.45878E-04-2.83154E-15
 -1      4024 2.22038E-03 1.79851E-04-2.62324E-15
 -1      4025 2.79605E-03 1.83954E-04-4.06345E-15
 -1      4026 2.65247E-03 1.83847E-04-3.67301E-15
 -1      4027 2.57709E-03 1.48090E-04-3.53842E-15
 -1      4028 3.01490E-03 2.18676E-04-4.62101E-15
 -1      4029 4.06446E-03 1.70037E-04-8.50502E-15
 -1      4030 3.99038E-03 1.38920E-04-8.30007E-15
 -1      4031 4.20143E-03 1.67833E-04-9.10338E-15
 -1      4032 5.72349E-03 1.98521E-06-1.84614E-14
 -1      4033 1.12721E-02 5.43694E-04-5.14747E-14
 -1      4034 1.23295E-02 7.35643E-04-6.56767E-14
 -1      4035 1.22792E-02 7.50229E-04-6.46504E-14
 -1      4036 1.21486E-02 7.22869E-04-6.29888E-14
 -1      4037 1.09743E-02 3.81562E-04-5.08932E-14
 -1      4038 1.09769E-02 3.55921E-04-5.18588E-14
 -1      4039 1.11028E-02 3.74177E-04-5.34066E-14
 -1      4040 1.10988E-02 4.15701E-04-5.18365E-14
 -1      4041 1.75838E-03-1.54645E-05-1.87674E-15
 -1      4042 1.76792E-03-5.08749E-05-1.91564E-15
 -1      4043 1.90188E-03-6.99283E-05-2.19227E-15
 -1      4044 1.33495E-02 7.83382E-04-8.12653E-14
 -1      4045 1.33775E-02 8.20650E-04-8.10845E-14
 -1      4046 1.32359E-02 7.54250E-04-7.99618E-14
 -1      4047 1.25946E-02 7.90200E-04-6.90549E-14
 -1      4048 1.11619E-02 4.73042E-04-5.07501E-14
 -1      4049 1.12219E-02 4.71545E-04-5.20620E-14
 -1      4050 1.12630E-02 5.09550E-04-5.17484E-14
 -1      4051 2.34534E-03-1.12032E-04-3.22619E-15
 -1      4052 1.18928E-02 6.69801E-04-5.97099E-14
 -1      4053 1.18191E-02 6.31853E-04-5.90856E-14
 -1      4054 1.20198E-02 6.96103E-04-6.13416E-14
 -1      4055 5.57298E-03 4.60066E-05-1.75447E-14
 -1      4056 5.58154E-03 7.55124E-05-1.76317E-14
 -1      4057 1.86911E-03 2.09163E-04-1.85319E-15
 -1      4058 4.47187E-03 1.63868E-04-1.03620E-14
 -1      4059 4.33726E-03 1.65788E-04-9.72195E-15
 -1      4060 4.26324E-03 1.35957E-04-9.50089E-15
 -1      4061 2.09409E-03 1.81428E-04-2.34577E-15
 -1      4062 3.64783E-03 1.76494E-04-6.83675E-15
 -1      4063 3.50734E-03 1.78443E-04-6.32271E-15
 -1      4064 3.71335E-03 1.42083E-04-7.18090E-15
 -1      4065 1.15126E-02 5.56558E-04-5.52595E-14
 -1      4066 1.14659E-02 5.68016E-04-5.42951E-14
 -1      4067 5.50878E-03 9.86344E-05-1.70133E-14
 -1      4068 1.75946E-03 5.72292E-05-1.82273E-15
 -1      4069 1.75846E-03 2.08501E-05-1.85110E-15
 -1      4070 1.89150E-03 3.88602E-06-2.12401E-15
 -1      4071 4.53102E-03 1.33744E-04-1.07853E-14
 -1      4072 1.30091E-02 6.96788E-04-7.73582E-14
 -1      4073 1.31224E-02 7.25375E-04-7.86577E-14
 -1      4074 1.31511E-02 7.62008E-04-7.84793E-14
 -1      4075 3.13230E-03-7.62069E-05-5.48873E-15
 -1      4076 3.27434E-03-7.52115E-05-5.97066E-15
 -1      4077 3.41577E-03-7.40046E-05-6.47339E-15
 -1      4078 3.55654E-03-7.25493E-05-6.99671E-15
 -1      4079 3.34344E-03-4.01159E-05-6.17305E-15
 -1      4080 3.69660E-03-7.08718E-05-7.54045E-15
 -1      4081 3.83589E-03-6.89249E-05-8.10468E-15
 -1      4082 3.62461E-03-3.80072E-05-7.21428E-15
 -1      4083 3.97433E-03-6.67584E-05-8.69014E-15
 -1      4084 4.11190E-03-6.42908E-05-9.29560E-15
 -1      4085 3.90260E-03-3.51057E-05-8.33840E-15
 -1      4086 4.24852E-03-6.15472E-05-9.92179E-15
 -1      4087 4.38419E-03-5.84543E-05-1.05680E-14
 -1      4088 4.17683E-03-3.12261E-05-9.54457E-15
 -1      4089 4.51878E-03-5.50300E-05-1.12341E-14
 -1      4090 4.65236E-03-5.11853E-05-1.19209E-14
 -1      4091 4.44681E-03-2.60966E-05-1.08325E-14
 -1      4092 4.78476E-03-4.69335E-05-1.26279E-14
 -1      4093 4.91609E-03-4.21732E-05-1.33560E-14
 -1      4094 4.71195E-03-1.93558E-05-1.22009E-14
 -1      4095 5.04615E-03-3.69258E-05-1.41035E-14
 -1      4096 5.17518E-03-3.10681E-05-1.48724E-14
 -1      4097 4.97164E-03-1.05451E-05-1.36513E-14
 -1      4098 5.30288E-03-2.45904E-05-1.56626E-14
 -1      4099 5.42971E-03-1.73992E-05-1.64737E-14
 -1      4100 5.22526E-03 9.11971E-07-1.51845E-14
 -1      4101 5.59871E-03-6.47722E-06-1.76013E-14
 -1      4102 1.12285E-02 3.92730E-04-5.49708E-14
 -1      4103 1.13553E-02 4.11889E-04-5.65512E-14
 -1      4104 1.12213E-02 4.13403E-04-5.41784E-14
 -1      4105 1.14827E-02 4.31712E-04-5.81465E-14
 -1      4106 1.16112E-02 4.52091E-04-5.97596E-14
 -1      4107 1.14676E-02 4.50907E-04-5.73373E-14
 -1      4108 1.17404E-02 4.73059E-04-6.13877E-14
 -1      4109 1.18708E-02 4.94514E-04-6.30288E-14
 -1      4110 1.17197E-02 4.91526E-04-6.05627E-14
 -1      4111 1.20021E-02 5.16513E-04-6.46859E-14
 -1      4112 1.21344E-02 5.38922E-04-6.63561E-14
 -1      4113 1.19772E-02 5.34930E-04-6.38467E-14
 -1      4114 1.22677E-02 5.61774E-04-6.80405E-14
 -1      4115 1.24018E-02 5.84981E-04-6.97371E-14
 -1      4116 1.22398E-02 5.80486E-04-6.71879E-14
 -1      4117 1.25368E-02 6.08549E-04-7.14483E-14
 -1      4118 1.26727E-02 6.32387E-04-7.31719E-14
 -1      4119 1.25067E-02 6.27745E-04-7.05834E-14
 -1      4120 1.27720E-02 6.52234E-04-7.43885E-14
 -1      4121 1.29091E-02 6.76560E-04-7.61288E-14
 -1      4122 1.29386E-02 7.12554E-04-7.59541E-14
 -1      4123 1.27402E-02 6.71944E-04-7.35123E-14
 -1      4124 4.59120E-03 1.04758E-04-1.12123E-14
 -1      4125 4.45925E-03 1.04786E-04-1.05467E-14
 -1      4126 2.35830E-03 1.11555E-04-3.04491E-15
 -1      4127 2.21410E-03 1.10256E-04-2.70827E-15
 -1      4128 1.13556E-02 5.44353E-04-5.28026E-14
 -1      4129 2.27120E-03-7.66846E-05-3.02331E-15
 -1      4130 2.41538E-03-7.73268E-05-3.38313E-15
 -1      4131 1.13590E-02 4.97887E-04-5.38760E-14
 -1      4132 1.12358E-02 4.57748E-04-5.28549E-14
 -1      4133 1.12461E-02 4.41571E-04-5.36495E-14
 -1      4134 5.51440E-03 1.89133E-05-1.70932E-14
 -1      4135 5.41360E-03 3.40053E-05-1.64199E-14
 -1      4136 1.97255E-03 1.79012E-04-2.09812E-15
 -1      4137 1.79755E-03 1.69886E-04-1.77190E-15
 -1      4138 1.78038E-03 1.37368E-04-1.77946E-15
 -1      4139 2.02318E-03 1.42279E-04-2.25120E-15
 -1      4140 1.26428E-02 7.74123E-04-7.00918E-14
 -1      4141 1.25094E-02 7.47259E-04-6.83895E-14
 -1      4142 3.36617E-03 1.80159E-04-5.82984E-15
 -1      4143 3.22439E-03 1.81643E-04-5.35767E-15
 -1      4144 3.43289E-03 1.44978E-04-6.14665E-15
 -1      4145 3.08207E-03 1.82790E-04-4.90553E-15
 -1      4146 2.93926E-03 1.83595E-04-4.47399E-15
 -1      4147 2.86419E-03 1.48380E-04-4.32578E-15
 -1      4148 2.04592E-03-7.14965E-05-2.49995E-15
 -1      4149 5.10007E-03 1.09971E-04-1.40819E-14
 -1      4150 4.97614E-03 1.07795E-04-1.33330E-14
 -1      4151 1.29129E-02 8.28437E-04-7.35305E-14
 -1      4152 1.27773E-02 8.01174E-04-7.18062E-14
 -1      4153 1.26895E-02 7.57552E-04-7.11294E-14
 -1      4154 2.84667E-03-7.74608E-05-4.58485E-15
 -1      4155 2.98972E-03-7.69492E-05-5.02694E-15
 -1      4156 3.05959E-03-4.15278E-05-5.21370E-15
 -1      4157 5.41303E-03 9.65964E-05-1.62971E-14
 -1      4158 2.55942E-03-7.76693E-05-3.76351E-15
 -1      4159 2.70320E-03-7.76986E-05-4.16392E-15
 -1      4160 2.77361E-03-4.22879E-05-4.33602E-15
 -1      4161 4.84984E-03 1.06151E-04-1.26059E-14
 -1      4162 4.72146E-03 1.05254E-04-1.18990E-14
 -1      4163 4.90913E-03 8.05596E-05-1.30610E-14
 -1      4164 2.11681E-03-3.79677E-05-2.63658E-15
 -1      4165 1.31153E-02 8.65168E-04-7.61680E-14
 -1      4166 1.30139E-02 8.46798E-04-7.48456E-14
 -1      4167 1.29247E-02 8.01944E-04-7.41622E-14
 -1      4168 5.34802E-03 6.52660E-05-1.59329E-14
 -1      4169 5.29087E-03 1.03783E-04-1.53801E-14
 -1      4170 2.64622E-03 1.12923E-04-3.77825E-15
 -1      4171 2.50237E-03 1.12444E-04-3.40163E-15
 -1      4172 2.42830E-03 7.69441E-05-3.26322E-15
 -1      4173 1.24233E-02 7.05274E-04-6.77253E-14
 -1      4174 1.23773E-02 7.20747E-04-6.67011E-14
 -1      4175 1.22467E-02 6.94531E-04-6.50240E-14
 -1      4176 2.08793E-03 5.85572E-05-2.48761E-15
 -1      4177 2.01753E-03 9.17347E-05-2.30098E-15
 -1      4178 5.27966E-03 4.12610E-05-1.55078E-14
 -1      4179 1.33489E-02 8.81893E-04-7.96207E-14
 -1      4180 1.33283E-02 9.05965E-04-7.89037E-14
 -1      4181 1.32260E-02 8.87625E-04-7.75717E-14
 -1      4182 1.89608E-03 9.05048E-05-2.05414E-15
 -1      4183 1.20704E-02 6.82620E-04-6.23506E-14
 -1      4184 1.33583E-02 8.45272E-04-8.03695E-14
 -1      4185 4.65280E-03 7.68535E-05-1.16423E-14
 -1      4186 3.14965E-03 1.47207E-04-5.19504E-15
 -1      4187 4.05485E-03 1.06462E-04-8.67436E-15
 -1      4188 3.91762E-03 1.07395E-04-8.09178E-15
 -1      4189 3.77935E-03 1.08352E-04-7.52928E-15
 -1      4190 3.64015E-03 1.09366E-04-6.98778E-15
 -1      4191 3.84598E-03 7.53239E-05-7.88136E-15
 -1      4192 1.16304E-02 5.68064E-04-5.70763E-14
 -1      4193 1.14443E-02 5.19810E-04-5.48603E-14
 -1      4194 1.14679E-02 5.06641E-04-5.56716E-14
 -1      4195 5.19063E-03 1.04207E-04-1.46980E-14
 -1      4196 5.12711E-03 7.77064E-05-1.44094E-14
 -1      4197 2.48611E-03-4.23728E-05-3.53999E-15
 -1      4198 4.32579E-03 1.05078E-04-9.90183E-15
 -1      4199 4.19094E-03 1.05702E-04-9.27794E-15
 -1      4200 4.12008E-03 7.48466E-05-9.05245E-15
 -1      4201 1.76397E-03 1.05295E-04-1.78466E-15
 -1      4202 1.18735E-02 6.14465E-04-6.02992E-14
 -1      4203 1.17507E-02 5.90766E-04-5.86795E-14
 -1      4204 1.16762E-02 5.50734E-04-5.82689E-14
 -1      4205 4.38935E-03 7.51681E-05-1.03065E-14
 -1      4206 3.55362E-03-4.81706E-06-6.89216E-15
 -1      4207 3.69327E-03-4.03468E-06-7.43084E-15
 -1      4208 3.87251E-03 2.00307E-05-8.11429E-15
 -1      4209 4.00995E-03 2.08385E-05-8.69874E-15
 -1      4210 4.14628E-03 2.17977E-05-9.30340E-15
 -1      4211 4.28146E-03 2.31012E-05-9.92873E-15
 -1      4212 4.41531E-03 2.46495E-05-1.05745E-14
 -1      4213 4.54784E-03 2.66812E-05-1.12398E-14
 -1      4214 4.67880E-03 2.90710E-05-1.19269E-14
 -1      4215 4.80819E-03 3.21251E-05-1.26343E-14
 -1      4216 4.93573E-03 3.56730E-05-1.33618E-14
 -1      4217 5.06143E-03 4.01159E-05-1.41093E-14
 -1      4218 5.15731E-03 3.51574E-05-1.47207E-14
 -1      4219 1.13637E-02 4.59376E-04-5.52165E-14
 -1      4220 1.17006E-02 5.22772E-04-5.94151E-14
 -1      4221 1.18255E-02 5.44247E-04-6.10419E-14
 -1      4222 1.22010E-02 5.97883E-04-6.61744E-14
 -1      4223 1.23327E-02 6.21603E-04-6.78575E-14
 -1      4224 1.24670E-02 6.67670E-04-6.91550E-14
 -1      4225 1.26005E-02 6.92581E-04-7.08604E-14
 -1      4226 1.21218E-02 6.66338E-04-6.34724E-14
 -1      4227 1.19947E-02 6.41189E-04-6.18245E-14
 -1      4228 1.19191E-02 5.98403E-04-6.14042E-14
 -1      4229 1.21663E-02 6.51865E-04-6.44830E-14
 -1      4230 1.30799E-02 7.71174E-04-7.71814E-14
 -1      4231 1.31924E-02 8.00451E-04-7.84780E-14
 -1      4232 3.50009E-03 1.10313E-04-6.46801E-15
 -1      4233 3.35926E-03 1.11208E-04-5.96851E-15
 -1      4234 3.56784E-03 7.61933E-05-6.79360E-15
 -1      4235 2.93292E-03 1.12935E-04-4.59280E-15
 -1      4236 2.78977E-03 1.13087E-04-4.17530E-15
 -1      4237 2.71598E-03 7.77234E-05-4.02335E-15
 -1      4238 2.45610E-03 1.73427E-05-3.40467E-15
 -1      4239 2.60004E-03 1.75522E-05-3.78355E-15
 -1      4240 1.27351E-02 7.17873E-04-7.25794E-14
 -1      4241 3.21774E-03 1.11952E-04-5.48938E-15
 -1      4242 3.07560E-03 1.12560E-04-5.03056E-15
 -1      4243 3.00223E-03 7.76782E-05-4.86479E-15
 -1      4244 3.28638E-03 7.70796E-05-5.78776E-15
 -1      4245 3.02974E-03 1.80080E-05-5.04317E-15
 -1      4246 3.17201E-03 1.81994E-05-5.50332E-15
 -1      4247 2.01078E-03-2.20116E-06-2.37668E-15
 -1      4248 2.23584E-03-5.62463E-06-2.88510E-15
 -1      4249 2.01122E-03 3.58952E-05-2.34461E-15
 -1      4250 2.74368E-03 1.77023E-05-4.18284E-15
 -1      4251 2.88695E-03 1.78728E-05-4.60255E-15
 -1      4252 3.31365E-03 1.83871E-05-5.98448E-15
 -1      4253 3.45461E-03 1.86790E-05-6.48659E-15
 -1      4254 1.31359E-02 8.41859E-04-7.68807E-14
 -1      4255 1.14783E-02 4.93497E-04-5.62507E-14
 -1      4256 1.14648E-02 4.67668E-04-5.67909E-14
 -1      4257 1.24241E-02 6.84275E-04-6.81282E-14
 -1      4258 1.15877E-02 4.87361E-04-5.83889E-14
 -1      4259 1.19418E-02 5.51922E-04-6.28526E-14
 -1      4260 1.20707E-02 5.74588E-04-6.45078E-14
 -1      4261 1.15699E-02 5.16608E-04-5.72534E-14
 -1      4262 1.28901E-02 7.66296E-04-7.42175E-14
 -1      4263 1.27983E-02 6.99379E-04-7.39404E-14
 -1      4264 1.21615E-02 6.14298E-04-6.51660E-14
 -1      4265 1.29908E-02 7.83753E-04-7.55354E-14
 -1      4266 3.80408E-03 5.24365E-05-7.76438E-15
 -1      4267 1.32856E-02 8.54227E-04-7.90641E-14
 -1      4268 1.22927E-02 6.59178E-04-6.64416E-14
 -1      4269 2.31198E-03 1.71191E-05-3.04570E-15
 -1      4270 2.20717E-03 5.30017E-05-2.76064E-15
 -1      4271 1.19144E-02 5.81943E-04-6.16873E-14
 -1      4272 1.16909E-02 5.37633E-04-5.88579E-14
 -1      4273 1.21628E-02 6.34601E-04-6.47711E-14
 -1      4274 1.29966E-02 7.40525E-04-7.63849E-14
 -1      4275 1.30378E-02 7.78302E-04-7.63830E-14
 -1      4276 3.52546E-03 5.25911E-05-6.68480E-15
 -1      4277 1.28973E-02 7.19870E-04-7.51599E-14
 -1      4278 3.66523E-03 5.24764E-05-7.21394E-15
 -1      4279 1.20378E-02 6.07877E-04-6.32230E-14
 -1      4280 1.30731E-02 8.14637E-04-7.63289E-14
 -1      4281 1.31836E-02 8.36464E-04-7.77317E-14
 -3
    1PSTEP                         2           1           1          
  100CL  101 1.000000000        4281                     0    1           1
 -4  STRESS      6    1
 -5  SXX         1    4    1    1
 -5  SYY         1    4    2    2
 -5  SZZ         1    4    3    3
 -5  SXY         1    4    1    2
 -5  SYZ         1    4    2    3
 -5  SZX         1    4    3    1
 -1         1 6.42194E+01 1.36605E+00 3.39723E+00-6.12978E+00-1.28980E-13 1.23182E-12
 -1         2-7.78280E-01-2.44783E+01-3.36468E+00-1.19121E-01 6.98254E-13-5.88314E-14
 -1         3 1.99992E+01-6.74479E-04 6.35701E-03-7.32846E-04-3.63887E-13-4.99551E-13
 -1         4 1.99990E+01-7.96455E-04 5.98592E-03 8.58164E-04 1.95407E-13-1.52428E-13
 -1         5 3.27040E+01 6.13045E+00 2.73598E+00 6.21515E+00-3.52079E-14 2.35000E-12
 -1         6 3.56838E+01 1.22395E+01 5.11453E+00-8.63301E+00-1.32130E-13 1.64546E-12
 -1         7 2.07900E+01 6.09134E+00-1.28420E-01-4.72005E+00-1.81105E-14 1.36689E-13
 -1         8 1.96584E+01 5.93080E+00 5.12612E-02-3.27083E+00-1.89224E-14-2.76884E-13
 -1         9 1.91353E+01 5.77122E+00 4.94485E-02-2.52223E+00-1.45439E-14-4.85994E-13
 -1        10 1.89024E+01 5.69406E+00 5.13390E-02-1.94650E+00-7.06466E-15-5.56910E-13
 -1        11 1.87869E+01 5.65498E+00 5.04061E-02-1.45116E+00-4.37931E-15-5.73574E-13
 -1        12 1.87271E+01 5.63447E+00 4.87468E-02-1.01092E+00 1.46606E-15-5.62386E-13
 -1        13 1.86959E+01 5.62375E+00 4.73086E-02-5.92567E-01 3.01408E-15-5.35927E-13
 -1        14 1.86829E+01 5.61925E+00 4.65305E-02-1.90349E-01 8.52907E-15-5.13621E-13
 -1        15 1.86835E+01 5.61944E+00 4.65777E-02 2.06973E-01 1.02731E-14-4.80228E-13
 -1        16 1.86977E+01 5.62432E+00 4.74678E-02 6.10088E-01 1.51319E-14-4.37757E-13
 -1        17 1.87303E+01 5.63535E+00 4.91036E-02 1.03056E+00 1.63582E-14-3.81596E-13
 -1        18 1.87912E+01 5.65623E+00 5.09956E-02 1.47412E+00 2.04303E-14-2.86892E-13
 -1        19 1.89082E+01 5.69576E+00 5.18301E-02 1.97546E+00 2.53443E-14-1.50709E-13
 -1        20 1.91407E+01 5.77379E+00 4.91465E-02 2.55971E+00 3.23838E-14 6.57109E-14
 -1        21 1.96535E+01 5.94527E+00 4.62067E-02 3.30511E+00 3.11903E-14 4.39107E-13
 -1        22 2.11714E+01 6.37253E+00 1.39462E-01 4.51802E+00 5.41234E-16 1.08745E-12
 -1        23 2.29803E+01-1.37691E+00-9.37472E-01-7.10242E-01-9.27973E-14 1.19316E-12
 -1        24 1.93241E+01-9.94776E-02-3.09547E-01 6.29996E-02-2.46903E-14 8.16534E-13
 -1        25 1.86395E+01-5.64517E-02-6.87789E-02 6.04445E-02-1.25325E-14 4.67657E-13
 -1        26 1.84419E+01-2.23537E-02-6.64228E-03 3.26497E-02 1.20723E-14 1.75226E-13
 -1        27 1.84613E+01-1.22213E-02 1.25522E-03 2.22476E-02-1.15641E-14-1.40200E-14
 -1        28 1.85887E+01-6.85076E-03 1.25379E-03 1.59472E-02-4.61398E-15-1.21773E-13
 -1        29 1.87698E+01-3.93454E-03 9.26812E-04 1.18411E-02-7.51764E-15-2.01764E-13
 -1        30 1.89769E+01-2.36847E-03 7.75330E-04 8.99489E-03 1.08169E-14-3.06922E-13
 -1        31 1.91964E+01-1.61707E-03 5.14888E-04 6.98360E-03-8.96031E-15-4.25823E-13
 -1        32 1.94241E+01-1.38346E-03 3.40826E-05 5.61646E-03-2.26938E-14-6.13464E-13
 -1        33 1.96613E+01-1.48060E-03-6.53361E-04 4.81350E-03 3.83031E-14-6.95125E-13
 -1        34 1.99132E+01-1.76597E-03-1.48248E-03 4.55052E-03 5.07957E-15-5.37530E-13
 -1        35 2.01875E+01-2.10501E-03-2.35436E-03 4.82949E-03 1.98415E-14-5.74412E-13
 -1        36 2.04925E+01-2.34542E-03-3.12037E-03 5.65388E-03 1.73674E-15-5.44788E-13
 -1        37 2.08349E+01-2.29715E-03-3.55045E-03 6.99561E-03-3.14418E-14-5.58456E-13
 -1        38 2.12170E+01-1.71991E-03-3.29445E-03 8.74148E-03-4.52613E-14-7.37698E-13
 -1        39 2.16327E+01-3.28711E-04-1.85293E-03 1.06080E-02-2.58258E-14-7.25442E-13
 -1        40 2.20620E+01 2.16187E-03 1.40364E-03 1.20199E-02 3.05751E-14-6.20698E-13
 -1        41 2.24650E+01 5.92269E-03 7.09058E-03 1.19738E-02-2.80082E-15-5.66344E-13
 -1        42 2.27764E+01 1.07951E-02 1.54270E-02 8.96906E-03-1.60801E-14-7.39160E-13
 -1        43 2.29058E+01 1.59831E-02 2.55370E-02 1.19618E-03-5.06497E-14-6.95107E-13
 -1        44 2.27485E+01 1.97930E-02 3.46090E-02-1.27318E-02 3.21877E-14-6.92744E-13
 -1        45 2.22163E+01 1.97191E-02 3.74866E-02-3.22671E-02 1.86938E-15-5.66313E-13
 -1        46 2.12899E+01 1.33648E-02 2.81495E-02-5.30136E-02 1.52690E-14-7.74965E-13
 -1        47 2.00773E+01 2.34822E-04 3.75489E-03-6.61276E-02 2.05835E-14-7.27925E-13
 -1        48 1.88379E+01-1.65409E-02-3.02876E-02-6.16502E-02 6.84554E-15-5.15154E-13
 -1        49 1.79247E+01-3.05128E-02-5.99836E-02-3.55895E-02 4.74013E-14-7.52752E-13
 -1        50 1.76420E+01-3.50628E-02-6.99894E-02 4.93365E-03 3.27819E-15-9.67082E-13
 -1        51 1.80919E+01-2.78741E-02-5.43718E-02 4.34706E-02 2.88899E-14-1.07933E-12
 -1        52 1.91153E+01-1.25867E-02-2.19474E-02 6.47002E-02-5.43788E-14-8.23990E-13
 -1        53 2.03797E+01 3.78733E-03 1.07663E-02 6.41938E-02-2.14724E-15-8.91891E-13
 -1        54 2.15441E+01 1.54057E-02 3.16123E-02 4.82926E-02 9.21138E-15-6.68453E-13
 -1        55 2.23843E+01 2.00744E-02 3.75340E-02 2.72219E-02-3.87202E-14-7.94550E-13
 -1        56 2.28277E+01 1.89331E-02 3.25747E-02 8.82242E-03 7.01171E-14-9.14299E-13
 -1        57 2.29161E+01 1.45361E-02 2.28164E-02-3.55882E-03 5.09592E-14-5.49595E-13
 -1        58 2.27463E+01 9.23325E-03 1.28702E-02-9.98706E-03 4.36794E-14-4.30355E-13
 -1        59 2.24227E+01 4.49633E-03 5.02816E-03-1.20449E-02-1.94741E-14-5.44911E-13
 -1        60 2.20317E+01 9.41520E-04-1.72766E-04-1.15008E-02-5.54043E-14-8.07196E-13
 -1        61 2.16338E+01-1.37359E-03-3.09768E-03-9.72815E-03 1.21400E-14-1.04593E-12
 -1        62 2.12655E+01-2.65859E-03-4.39002E-03-7.60084E-03-7.27634E-15-1.09681E-12
 -1        63 2.09451E+01-3.19890E-03-4.65517E-03-5.59110E-03-9.67436E-14-1.42042E-12
 -1        64 2.06785E+01-3.25950E-03-4.35462E-03-3.90527E-03-8.35514E-14-1.89620E-12
 -1        65 2.04644E+01-3.05050E-03-3.80540E-03-2.59445E-03-5.62668E-14-1.71338E-12
 -1        66 2.02977E+01-2.72400E-03-3.21734E-03-1.62544E-03 1.32828E-14-1.48508E-12
 -1        67 2.01722E+01-2.38199E-03-2.73566E-03-9.17030E-04 1.19533E-14-1.07263E-12
 -1        68 2.00821E+01-2.08089E-03-2.46315E-03-3.44192E-04 1.01028E-14-6.35705E-13
 -1        69 2.00233E+01-1.81308E-03-2.39405E-03 2.84575E-04 3.66890E-14-2.51514E-13
 -1        70 1.99936E+01-1.33443E-03-2.03292E-03 1.35142E-03-8.62045E-14-2.50060E-14
 -1        71 1.99917E+01 2.35388E-04 7.08726E-04 2.57011E-03 5.04974E-15 7.18018E-15
 -1        72 2.09952E+01-4.04203E-01-9.79482E-01-3.10694E-01 2.33147E-14 2.26394E-12
 -1        73 1.92875E+01-6.58982E-02-2.90882E-01-5.35835E-02 1.36336E-14 1.90038E-12
 -1        74 1.86473E+01-2.06376E-02-6.42760E-02-2.00259E-02 8.73032E-15 1.63843E-12
 -1        75 1.84487E+01-1.01097E-02-9.47216E-03-1.49912E-02 1.13130E-14 1.47376E-12
 -1        76 1.84672E+01-5.51934E-03 3.53725E-04-1.17696E-02-2.38129E-15 1.39161E-12
 -1        77 1.85928E+01-3.12759E-03 1.20702E-03-9.33064E-03-7.50506E-15 1.33069E-12
 -1        78 1.87718E+01-1.86444E-03 1.06327E-03-7.40307E-03-2.19420E-14 1.33864E-12
 -1        79 1.89769E+01-1.26662E-03 8.79530E-04-5.76617E-03 1.84037E-14 1.13825E-12
 -1        80 1.91954E+01-1.10699E-03 5.18199E-04-4.32452E-03-1.98072E-15 9.37937E-13
 -1        81 1.94239E+01-1.26458E-03-1.32558E-04-3.05247E-03 2.35968E-14 8.30177E-13
 -1        82 1.96661E+01-1.67130E-03-1.10701E-03-1.96303E-03-7.99914E-15 8.93090E-13
 -1        83 1.99309E+01-2.28365E-03-2.41905E-03-1.09906E-03 2.18632E-14 8.82600E-13
 -1        84 2.02320E+01-3.06251E-03-4.08733E-03-5.42483E-04 2.37429E-14 7.42926E-13
 -1        85 2.05879E+01-3.95028E-03-6.12765E-03-4.36545E-04 9.00433E-15 7.15159E-13
 -1        86 2.10206E+01-4.83685E-03-8.51470E-03-1.02172E-03 3.59598E-14 5.39785E-13
 -1        87 2.15553E+01-5.50579E-03-1.10931E-02-2.68382E-03-2.98773E-14 5.28488E-13
 -1        88 2.22177E+01-5.55502E-03-1.33937E-02-5.99936E-03 1.97167E-14 4.63476E-13
 -1        89 2.30273E+01-4.30248E-03-1.42950E-02-1.17233E-02 3.99117E-14 2.31275E-13
 -1        90 2.39857E+01-7.40108E-04-1.15125E-02-2.05721E-02-5.64427E-14 1.49131E-13
 -1        91 2.50533E+01 6.27805E-03-1.13201E-03-3.24894E-02 9.51729E-15 5.65045E-13
 -1        92 2.61141E+01 1.72567E-02 2.19307E-02-4.49200E-02 3.84864E-14 6.78192E-13
 -1        93 2.69329E+01 3.02094E-02 6.04191E-02-4.99583E-02-3.15368E-14 9.45611E-13
 -1        94 2.71378E+01 3.83109E-02 1.05888E-01-3.24090E-02 1.47005E-14 9.59871E-13
 -1        95 2.62998E+01 3.03119E-02 1.28434E-01 2.46523E-02 3.21978E-14 8.90198E-13
 -1        96 2.42002E+01 6.20415E-05 8.32018E-02 1.18316E-01-2.73945E-14 1.12824E-12
 -1        97 2.12460E+01-3.97880E-02-4.60401E-02 1.98657E-01-1.48538E-14 1.26961E-12
 -1        98 1.86480E+01-6.00096E-02-1.92099E-01 1.84917E-01 6.05488E-14 8.19969E-13
 -1        99 1.78347E+01-4.62062E-02-2.39893E-01 5.37379E-02-7.75291E-14 2.90859E-13
 -1       100 1.93060E+01-1.23178E-02-1.47246E-01-1.05351E-01-3.61620E-14 3.94455E-13
 -1       101 2.21765E+01 1.85812E-02 6.31441E-03-1.83826E-01 3.03891E-15 2.79443E-13
 -1       102 2.49762E+01 3.28288E-02 1.10648E-01-1.61641E-01-1.22970E-14 1.12334E-13
 -1       103 2.67096E+01 3.14489E-02 1.26139E-01-9.09525E-02 2.42046E-14 2.68997E-13
 -1       104 2.72003E+01 2.18856E-02 9.13989E-02-2.66536E-02-1.46432E-15 5.44297E-13
 -1       105 2.67725E+01 1.09241E-02 4.62846E-02 1.19944E-02-3.34476E-16 5.97667E-13
 -1       106 2.58570E+01 2.50908E-03 1.24937E-02 2.80029E-02-2.74070E-14 3.41671E-13
 -1       107 2.47874E+01-2.57693E-03-6.27570E-03 3.04876E-02 3.84033E-14-1.00187E-13
 -1       108 2.37601E+01-4.97796E-03-1.39310E-02 2.68888E-02 2.70973E-14-3.88923E-13
 -1       109 2.28654E+01-5.66134E-03-1.53232E-02 2.14860E-02-5.33310E-14 1.44999E-13
 -1       110 2.21294E+01-5.41593E-03-1.38818E-02 1.62507E-02 4.09104E-14-4.93910E-14
 -1       111 2.15455E+01-4.75713E-03-1.15126E-02 1.18833E-02 6.70385E-14-4.75274E-13
 -1       112 2.10938E+01-3.97918E-03-9.10734E-03 8.49706E-03-1.18097E-14-6.21150E-13
 -1       113 2.07509E+01-3.23317E-03-7.01270E-03 5.98200E-03 7.83162E-14-4.14344E-13
 -1       114 2.04946E+01-2.58845E-03-5.32548E-03 4.17091E-03-5.62677E-14-2.56418E-13
 -1       115 2.03062E+01-2.07102E-03-4.05141E-03 2.90114E-03-4.06959E-14-2.53186E-14
 -1       116 2.01707E+01-1.68058E-03-3.17975E-03 2.02223E-03-4.29862E-14-1.30247E-14
 -1       117 2.00772E+01-1.40111E-03-2.70541E-03 1.38122E-03 1.13779E-13-9.75583E-13
 -1       118 2.00184E+01-1.18026E-03-2.54350E-03 7.80006E-04 1.02074E-13-1.46777E-12
 -1       119 1.99907E+01-7.26218E-04-2.03033E-03-3.05142E-04-3.43466E-14-1.56463E-12
 -1       120 1.99913E+01 9.48102E-04 1.00475E-03-2.36257E-03 2.46419E-13-1.02897E-12
 -1       121 2.00000E+01-8.06481E-03 5.84127E-04-3.15517E-03-1.25790E-12-1.22060E-13
 -1       122 1.99987E+01-6.65456E-03-2.32336E-03-8.21347E-04-1.06942E-12-1.17054E-13
 -1       123 1.99988E+01 2.34941E-02-2.13815E-03 8.71342E-04-2.42040E-13 2.18368E-13
 -1       124 1.99994E+01 7.45741E-02-1.04625E-03 1.78823E-03 9.49508E-14 2.27006E-13
 -1       125 2.00000E+01 1.34992E-01 1.48107E-04 2.03168E-03 1.72340E-13-2.57063E-13
 -1       126 2.00007E+01 1.91750E-01 1.13247E-03 1.80301E-03-8.81559E-13 1.28744E-15
 -1       127 2.00011E+01 2.36253E-01 1.81650E-03 1.21060E-03-9.30398E-13-1.30031E-13
 -1       128 2.00013E+01 2.59962E-01 2.14926E-03 4.15714E-04-5.91090E-13 4.19392E-14
 -1       129 2.00013E+01 2.59162E-01 2.11296E-03-4.31848E-04-8.10700E-13 4.10660E-14
 -1       130 2.00011E+01 2.34250E-01 1.72619E-03-1.18982E-03-1.02105E-12-9.19689E-14
 -1       131 2.00006E+01 1.89563E-01 1.02709E-03-1.74334E-03-1.35132E-12-1.68828E-13
 -1       132 2.00000E+01 1.33726E-01 1.03429E-04-1.92773E-03-1.38836E-12 2.82016E-13
 -1       133 1.99994E+01 7.48813E-02-9.88727E-04-1.68446E-03-6.76557E-13-3.53947E-13
 -1       134 1.99987E+01 2.49362E-02-2.10817E-03-9.98788E-04-4.34098E-13 1.10729E-13
 -1       135 1.99990E+01-4.36165E-03-1.97815E-03 9.43327E-04-3.37877E-13-1.87387E-14
 -1       136 1.99991E+01-7.04430E-03 5.48753E-04 4.53487E-03-4.70547E-13 1.14116E-13
 -1       137-1.46121E+00-2.01052E+01-3.14178E+00-3.93483E+00 1.16501E-12 2.45290E-13
 -1       138-1.85043E+00-9.39225E+00-2.43478E+00-3.46614E+00 2.00079E-12 1.04144E-12
 -1       139 3.10825E+00 3.12855E+00-1.19995E+00 3.46532E+00 2.83062E-12 2.25869E-12
 -1       140 1.55710E+01 1.00836E+01 2.68715E-01 1.24871E+01 2.39536E-12 2.55218E-12
 -1       141 3.55902E+01 9.95535E+00 1.85329E+00 1.83453E+01 1.13684E-12 2.20829E-12
 -1       142 5.65348E+01 4.84909E+00 3.18130E+00 1.52548E+01 3.96586E-13 1.37101E-12
 -1       143 6.75619E+01 1.13983E+00 3.81422E+00 4.21163E+00 1.20546E-13-4.54636E-14
 -1       144 6.41555E+01 2.39475E+00 3.62995E+00-9.79910E+00 4.54065E-13-2.09138E-12
 -1       145 4.70379E+01 7.50941E+00 2.59440E+00-1.79432E+01 1.24556E-12-3.18900E-12
 -1       146 2.64336E+01 1.09493E+01 1.17751E+00-1.67016E+01 2.18014E-12-3.23142E-12
 -1       147 8.65265E+00 7.95994E+00-4.24906E-01-8.41101E+00 2.59454E-12-2.49673E-12
 -1       148-2.15726E-01-2.12875E+00-1.80821E+00 4.39892E-01 1.83742E-12-1.19565E-12
 -1       149-1.90261E+00-1.48043E+01-2.82279E+00 4.32246E+00 6.02185E-13-1.44371E-13
 -1       150-1.08680E+00-2.34497E+01-3.31252E+00 2.15611E+00-9.67643E-13 5.19723E-15
 -1       151-9.70214E-01-2.27920E+01-3.23827E+00-2.13011E+00-1.97384E-12-1.89149E-13
 -1       152-1.79100E+00-1.33906E+01-2.61422E+00-3.92460E+00-1.89487E-12-7.20271E-13
 -1       153 9.95738E-01-8.15000E-02-1.46323E+00 1.14015E+00-2.10143E-12-1.26799E-12
 -1       154 1.05113E+01 9.18272E+00-5.36213E-02 9.84845E+00-1.75493E-12-1.65606E-12
 -1       155 2.89331E+01 1.09911E+01 1.43292E+00 1.74317E+01-1.15458E-12-1.68315E-12
 -1       156 4.86749E+01 6.65555E+00 2.63354E+00 1.68947E+01-4.23162E-13-1.02895E-12
 -1       157 6.34739E+01 1.80457E+00 3.38422E+00 7.25922E+00-1.17142E-13 1.36002E-15
 -1       158 5.20776E+01 5.65017E+00 2.79185E+00-1.61506E+01-8.11948E-13 2.37188E-12
 -1       159 3.32295E+01 1.04051E+01 1.72203E+00-1.81327E+01-1.57060E-12 2.75974E-12
 -1       160 1.46940E+01 1.05212E+01 3.52124E-01-1.23393E+01-2.52626E-12 2.78672E-12
 -1       161 2.83239E+00 3.46102E+00-1.05952E+00-3.42725E+00-3.22808E-12 2.20818E-12
 -1       162-1.51354E+00-8.59091E+00-2.24377E+00 2.99795E+00-2.78860E-12 1.34279E-12
 -1       163-1.29907E+00-1.95560E+01-3.02329E+00 3.62582E+00-9.56235E-13 4.77958E-13
 -1       164 2.09922E+01 3.69008E+00-5.72399E-02-3.60398E+00-2.58158E-13-5.77594E-14
 -1       165 1.99842E+01 4.20540E+00-4.56643E-02-2.80249E+00-2.01024E-13-2.96527E-13
 -1       166 1.95102E+01 4.47892E+00-3.16092E-02-2.18798E+00-1.43711E-13-4.27103E-13
 -1       167 1.92784E+01 4.61852E+00-2.37248E-02-1.66760E+00-8.70803E-14-4.68077E-13
 -1       168 1.91514E+01 4.70408E+00-1.94763E-02-1.21263E+00-2.67357E-14-4.64671E-13
 -1       169 1.90801E+01 4.75715E+00-1.73354E-02-7.87382E-01 1.85552E-14-4.56259E-13
 -1       170 1.90442E+01 4.78644E+00-1.63105E-02-3.84441E-01 7.08565E-14-4.25044E-13
 -1       171 1.90338E+01 4.79548E+00-1.60155E-02 8.08445E-03 1.18266E-13-4.01190E-13
 -1       172 1.90462E+01 4.78514E+00-1.63513E-02 4.00963E-01 1.61084E-13-3.69185E-13
 -1       173 1.90843E+01 4.75407E+00-1.74120E-02 8.05013E-01 1.96543E-13-3.34696E-13
 -1       174 1.91565E+01 4.69932E+00-1.95884E-02 1.22505E+00 2.27198E-13-2.60921E-13
 -1       175 1.92877E+01 4.60925E+00-2.39111E-02 1.69113E+00 2.77752E-13-1.55730E-13
 -1       176 1.95274E+01 4.46034E+00-3.27455E-02 2.21961E+00 3.07859E-13 1.59768E-15
 -1       177 2.00063E+01 4.18181E+00-4.70768E-02 2.84036E+00 3.15351E-13 2.61950E-13
 -1       178 2.11128E+01 3.46011E+00-5.96655E-02 3.53069E+00 2.64672E-13 6.77979E-13
 -1       179 2.23832E+01 1.14252E+00-3.35985E-01 3.01029E+00 1.62325E-13 1.19710E-12
 -1       180 2.19402E+01 8.57525E-01 6.16704E-04-1.95472E+00-2.34070E-13 2.89106E-13
 -1       181 2.04211E+01 1.90248E-01-9.91803E-03-7.60344E-01-1.89578E-13 1.66031E-13
 -1       182 1.96516E+01 1.02358E-01 1.36454E-02-2.80717E-01-1.68809E-13 7.57493E-14
 -1       183 1.93204E+01 4.84688E-02 1.01188E-02-6.02107E-02-1.26404E-13-3.74670E-14
 -1       184 1.92036E+01 2.45931E-02 5.32058E-03 5.16261E-02-5.97658E-14-7.48065E-14
 -1       185 1.92092E+01 1.24869E-02 2.63716E-03 1.11037E-01-5.75557E-14-1.21397E-13
 -1       186 1.92856E+01 6.27093E-03 1.40263E-03 1.43003E-01-4.17062E-14-1.37743E-13
 -1       187 1.94044E+01 3.49520E-03 8.46137E-04 1.60964E-01-5.15079E-14-1.34659E-13
 -1       188 1.95506E+01 2.93892E-03 5.96755E-04 1.73047E-01-1.22577E-13-1.30562E-13
 -1       189 1.97171E+01 3.87372E-03 4.98505E-04 1.84529E-01-6.00125E-14-1.76305E-13
 -1       190 1.99025E+01 5.77079E-03 4.77970E-04 1.98868E-01 1.30504E-14-2.75871E-13
 -1       191 2.01082E+01 8.14400E-03 4.86561E-04 2.18081E-01-4.75517E-14-3.49560E-13
 -1       192 2.03374E+01 1.04363E-02 4.79837E-04 2.42759E-01 2.34491E-14-3.36649E-13
 -1       193 2.05933E+01 1.19122E-02 4.10194E-04 2.71778E-01-7.55201E-15-3.17834E-13
 -1       194 2.08769E+01 1.15520E-02 2.26091E-04 3.01756E-01-5.98582E-14-2.09968E-13
 -1       195 2.11851E+01 7.97072E-03-1.21693E-04 3.26283E-01-6.02010E-14-2.61197E-13
 -1       196 2.15075E+01-5.60786E-04-6.63414E-04 3.35112E-01 3.52887E-14-3.72265E-13
 -1       197 2.18233E+01-1.58412E-02-1.38159E-03 3.13739E-01 5.28549E-15-4.37902E-13
 -1       198 2.20990E+01-3.89587E-02-2.17335E-03 2.44297E-01-1.18420E-13-3.96934E-13
 -1       199 2.22872E+01-6.87411E-02-2.82413E-03 1.09254E-01-2.18900E-15-4.16599E-13
 -1       200 2.23309E+01-9.94992E-02-3.03996E-03-1.00326E-01 1.68210E-14-4.87670E-13
 -1       201 2.21751E+01-1.19000E-01-2.53011E-03-3.71506E-01 2.24022E-14-4.94919E-13
 -1       202 2.17892E+01-1.09422E-01-1.26664E-03-6.54837E-01 2.93370E-14-4.15910E-13
 -1       203 2.11971E+01-5.53050E-02 4.35013E-04-8.60137E-01 1.11455E-14-2.15938E-13
 -1       204 2.05027E+01 4.10544E-02 1.91172E-03-8.80330E-01-1.50068E-14-2.99043E-13
 -1       205 1.98843E+01 1.48051E-01 2.77160E-03-6.49052E-01-1.47158E-13-4.23585E-13
 -1       206 1.95377E+01 2.15986E-01 3.12097E-03-2.00980E-01-1.21489E-13-5.23950E-13
 -1       207 1.95867E+01 2.06551E-01 3.21386E-03 3.20188E-01 6.13476E-14-4.49750E-13
 -1       208 2.00141E+01 1.24693E-01 2.89076E-03 7.27544E-01 1.14356E-13-4.25232E-13
 -1       209 2.06702E+01 1.55811E-02 1.72143E-03 8.98151E-01-8.54616E-14-3.66467E-13
 -1       210 2.13558E+01-7.21498E-02 8.03138E-05 8.25936E-01-1.06252E-17-3.52158E-13
 -1       211 2.19080E+01-1.14689E-01-1.58316E-03 5.93670E-01-1.14374E-13-3.63987E-13
 -1       212 2.22435E+01-1.15520E-01-2.69607E-03 3.08305E-01-7.73123E-15-2.30622E-13
 -1       213 2.23545E+01-9.16741E-02-2.99395E-03 5.11497E-02 1.37689E-13-2.06604E-13
 -1       214 2.22807E+01-6.00016E-02-2.62353E-03-1.37856E-01 3.46299E-14-3.66013E-13
 -1       215 2.20796E+01-3.11159E-02-1.88993E-03-2.52146E-01-4.75306E-14-3.68427E-13
 -1       216 2.18079E+01-9.42406E-03-1.07781E-03-3.03559E-01-1.68015E-13-5.46190E-13
 -1       217 2.15107E+01 4.62708E-03-3.72529E-04-3.10090E-01-1.07182E-13-3.25539E-13
 -1       218 2.12195E+01 1.23995E-02 1.46203E-04-2.88849E-01-1.52164E-13-4.09306E-13
 -1       219 2.09535E+01 1.57102E-02 4.73507E-04-2.53212E-01-1.88528E-13-5.50582E-13
 -1       220 2.07223E+01 1.61948E-02 6.43145E-04-2.12380E-01-2.53702E-13-6.25503E-13
 -1       221 2.05290E+01 1.51085E-02 7.00742E-04-1.72001E-01 1.94096E-13-6.88014E-13
 -1       222 2.03724E+01 1.33366E-02 6.88144E-04-1.35050E-01 1.61619E-13-3.84367E-13
 -1       223 2.02493E+01 1.14748E-02 6.34768E-04-1.02632E-01 2.41936E-13-2.18198E-13
 -1       224 2.01559E+01 9.91870E-03 5.52858E-04-7.46080E-02 3.19750E-13-4.66222E-15
 -1       225 2.00881E+01 8.90306E-03 4.40372E-04-5.00664E-02 2.25615E-13-1.29321E-13
 -1       226 2.00423E+01 8.40226E-03 3.47698E-04-2.79308E-02 3.40431E-13-4.72854E-14
 -1       227 2.00140E+01 7.60668E-03 2.69596E-04-8.13206E-03 6.79929E-14 3.88104E-13
 -1       228 2.09312E+01 2.76886E-01-5.12374E-02 1.16198E+00 1.86851E-13 1.05315E-12
 -1       229 1.98413E+01 1.27030E-01 8.35975E-03 4.40172E-01 1.43207E-13 8.96400E-13
 -1       230 1.93412E+01 5.86168E-02 1.27946E-02 1.45751E-01 9.77135E-14 7.73244E-13
 -1       231 1.91410E+01 2.87350E-02 7.71605E-03 3.77183E-03 4.38623E-14 7.08072E-13
 -1       232 1.91058E+01 1.46792E-02 3.94676E-03-6.97616E-02 1.69868E-14 6.78947E-13
 -1       233 1.91637E+01 7.50544E-03 2.07481E-03-1.08775E-01 3.34740E-14 5.94970E-13
 -1       234 1.92756E+01 3.98569E-03 1.22592E-03-1.29977E-01 1.17598E-13 5.20771E-13
 -1       235 1.94210E+01 2.73369E-03 8.29775E-04-1.42952E-01 1.03393E-13 4.49292E-13
 -1       236 1.95904E+01 3.08545E-03 6.42497E-04-1.53982E-01 3.92301E-14 3.88511E-13
 -1       237 1.97821E+01 4.69725E-03 5.67821E-04-1.67667E-01-1.08360E-14 4.05632E-13
 -1       238 1.99998E+01 7.38984E-03 5.60493E-04-1.87705E-01 6.40581E-14 3.72718E-13
 -1       239 2.02514E+01 1.10671E-02 5.87636E-04-2.17277E-01 9.58826E-14 3.45467E-13
 -1       240 2.05487E+01 1.56443E-02 6.12790E-04-2.59191E-01 3.22469E-14 2.78922E-13
 -1       241 2.09059E+01 2.09449E-02 5.85776E-04-3.15734E-01 6.20088E-14 3.29105E-13
 -1       242 2.13386E+01 2.65162E-02 4.35502E-04-3.88096E-01 2.28350E-14 4.31870E-13
 -1       243 2.18615E+01 3.12968E-02 7.31271E-05-4.75024E-01 8.78153E-14 2.25176E-13
 -1       244 2.24837E+01 3.30539E-02-5.73512E-04-5.70220E-01 7.73598E-14 1.53093E-13
 -1       245 2.32011E+01 2.75700E-02-1.45754E-03-6.57870E-01-2.24830E-14 1.73200E-13
 -1       246 2.39838E+01 7.85743E-03-2.22188E-03-7.06176E-01-1.77033E-13 2.53880E-13
 -1       247 2.47597E+01-3.54087E-02-1.97860E-03-6.60825E-01-8.01503E-14 3.76728E-13
 -1       248 2.53969E+01-1.09173E-01 6.42257E-04-4.45964E-01-1.34763E-13 5.39264E-13
 -1       249 2.57015E+01-2.04394E-01 6.13413E-03 1.00667E-02-3.95716E-14 5.26546E-13
 -1       250 2.54572E+01-2.74423E-01 1.10856E-02 7.00132E-01 3.26883E-14 5.65968E-13
 -1       251 2.45446E+01-2.28505E-01 7.78541E-03 1.42544E+00-2.26388E-13 7.29814E-13
 -1       252 2.31309E+01 3.09931E-03-8.99757E-03 1.75157E+00 3.35474E-14 9.53156E-13
 -1       253 2.17930E+01 3.35714E-01-3.04338E-02 1.25424E+00 2.47012E-13 7.55784E-13
 -1       254 2.12895E+01 5.05000E-01-3.89551E-02 1.61637E-02 2.44027E-13 4.29142E-13
 -1       255 2.19531E+01 3.52630E-01-2.43416E-02-1.22888E+00-7.20118E-14 1.28685E-13
 -1       256 2.33643E+01 3.01327E-02 1.33024E-03-1.74755E+00 1.17671E-13 1.62807E-13
 -1       257 2.47503E+01-2.10952E-01 1.46226E-02-1.44289E+00 3.89792E-14 1.05523E-14
 -1       258 2.55761E+01-2.69006E-01 1.01645E-02-7.25475E-01-1.56731E-13 1.02978E-13
 -1       259 2.57360E+01-2.07801E-01 2.66852E-03-3.38784E-02-8.62418E-15 1.00311E-13
 -1       260 2.53765E+01-1.15889E-01-2.44313E-03 4.27890E-01 3.36974E-14 1.75777E-13
 -1       261 2.47172E+01-4.14695E-02-3.89938E-03 6.48094E-01 3.06632E-14 3.65680E-13
 -1       262 2.39443E+01 3.98712E-03-3.13519E-03 6.96054E-01 2.74773E-13 3.51970E-13
 -1       263 2.31807E+01 2.59621E-02-1.71480E-03 6.47303E-01-9.35341E-15 1.01348E-13
 -1       264 2.24927E+01 3.32534E-02-4.84903E-04 5.56510E-01-1.56634E-13-1.73197E-13
 -1       265 2.19070E+01 3.28109E-02 3.09608E-04 4.55948E-01 1.89382E-13-2.06161E-13
 -1       266 2.14271E+01 2.89797E-02 7.14708E-04 3.61803E-01 5.40115E-14-3.37956E-14
 -1       267 2.10445E+01 2.41267E-02 8.56736E-04 2.80609E-01 3.87545E-14 1.03038E-13
 -1       268 2.07458E+01 1.93991E-02 8.49993E-04 2.13769E-01-1.22434E-13-7.90998E-14
 -1       269 2.05167E+01 1.52832E-02 7.72170E-04 1.60261E-01-2.01866E-13-8.11324E-14
 -1       270 2.03439E+01 1.19492E-02 6.66096E-04 1.18056E-01 1.20408E-13 3.88317E-14
 -1       271 2.02163E+01 9.43682E-03 5.46807E-04 8.47999E-02 1.28139E-13-4.59552E-13
 -1       272 2.01249E+01 7.71980E-03 4.03011E-04 5.81114E-02 5.78861E-13-4.99137E-13
 -1       273 2.00629E+01 6.75622E-03 2.25952E-04 3.58274E-02 1.72260E-13-6.87217E-13
 -1       274 2.00251E+01 6.44734E-03 2.28417E-04 1.62277E-02-1.58268E-13-4.16120E-13
 -1       275 2.00060E+01 4.04275E-03 5.66288E-04 2.80529E-04-1.64070E-13-4.91445E-13
 -1       276 2.00077E+01 1.41292E-02 2.54811E-04 8.79246E-03-2.53406E-13 1.57026E-13
 -1       277 2.00075E+01 3.96836E-02 6.69712E-05 2.70610E-02-1.41309E-13 4.80328E-13
 -1       278 2.00044E+01 7.71627E-02 1.89645E-05 4.16321E-02-1.48974E-14 4.10830E-13
 -1       279 2.00007E+01 1.21580E-01-2.08544E-05 4.79021E-02-3.51080E-13 5.46567E-14
 -1       280 1.99971E+01 1.65381E-01-1.12156E-04 4.52927E-02-3.08442E-13-6.04096E-13
 -1       281 1.99943E+01 2.03033E-01-1.99450E-04 3.47288E-02-3.75268E-13-1.86543E-13
 -1       282 1.99925E+01 2.27729E-01-2.63036E-04 1.84074E-02-5.36188E-13 1.45306E-13
 -1       283 1.99920E+01 2.35725E-01-2.84042E-04-7.50721E-04-3.52968E-13-6.16112E-14
 -1       284 1.99928E+01 2.25927E-01-2.58880E-04-1.95923E-02-2.19479E-13-3.03328E-13
 -1       285 1.99947E+01 1.99991E-01-1.92940E-04-3.51110E-02-3.04027E-13-9.06089E-14
 -1       286 1.99974E+01 1.62765E-01-9.93167E-05-4.46585E-02-3.18300E-13-8.55205E-14
 -1       287 2.00008E+01 1.18769E-01-1.48991E-05-4.67774E-02-2.83117E-13 3.66310E-13
 -1       288 2.00042E+01 7.53681E-02 2.71175E-05-4.04689E-02-4.82406E-14 9.08273E-14
 -1       289 2.00071E+01 3.96514E-02 2.07990E-04-2.67443E-02-1.70994E-13 1.44096E-14
 -1       290 2.00129E+01 2.25451E-02 2.09325E-04-1.89232E-02-1.72204E-13-1.26849E-13
 -1       291-7.86842E-01-9.83443E+00-8.26217E-01 1.07174E+00 3.54355E-13 3.96655E-13
 -1       292 2.45530E+00-8.77079E+00-8.28344E-01 3.07236E+00 6.28692E-13 7.57998E-13
 -1       293 9.89971E+00-5.49930E+00-4.83347E-01 5.64249E+00 5.50754E-13 7.23741E-13
 -1       294 1.92036E+01-1.70994E+00-1.45306E-01 6.87364E+00 7.30555E-13 7.67442E-13
 -1       295 2.97167E+01 1.77931E+00 2.80308E-01 6.98902E+00 1.03262E-12 7.66665E-13
 -1       296 3.99008E+01 4.83178E+00 7.90016E-01 5.98762E+00 7.47553E-13 5.36571E-13
 -1       297 4.64871E+01 6.32621E+00 1.08256E+00 2.97924E+00 7.86426E-13-1.06026E-13
 -1       298 4.72791E+01 6.87913E+00 1.06264E+00-7.64045E-01 9.61814E-13-7.88765E-13
 -1       299 4.34074E+01 5.78320E+00 8.82955E-01-4.07635E+00 9.21638E-13-1.18322E-12
 -1       300 3.55114E+01 3.69146E+00 5.72902E-01-6.85762E+00 9.02986E-13-1.35775E-12
 -1       301 2.47219E+01 7.70808E-01 1.04712E-01-7.43672E+00 9.62619E-13-1.41037E-12
 -1       302 1.39917E+01-3.08904E+00-3.61302E-01-6.29844E+00 6.45983E-13-1.23251E-12
 -1       303 5.63751E+00-7.08974E+00-7.30282E-01-4.20346E+00 3.18301E-13-1.02385E-12
 -1       304 6.50813E-01-9.26253E+00-7.85991E-01-2.34449E+00-2.00090E-13-6.91808E-13
 -1       305-9.49103E-01-8.77951E+00-6.24899E-01 4.03601E-01-3.01868E-13-4.35013E-13
 -1       306 6.98919E-01-9.45889E+00-8.48631E-01 2.62613E+00-7.11708E-13-1.99021E-13
 -1       307 7.69201E+00-6.15863E+00-4.23713E-01 5.79822E+00-4.72927E-13-4.94037E-13
 -1       308 1.49572E+01-2.00451E+00-2.39973E-01 6.82918E+00-8.66834E-13-6.72157E-13
 -1       309 2.59519E+01 1.12754E+00 1.71832E-01 7.27613E+00-7.42628E-13-3.87412E-13
 -1       310 3.57713E+01 4.51878E+00 5.98047E-01 7.02236E+00-5.73375E-13-1.82659E-13
 -1       311 4.12507E+01 6.36909E+00 6.18315E-01 2.89204E+00-4.83502E-13 1.93318E-13
 -1       312 4.58281E+01 6.84060E+00 9.18461E-01 1.35788E-01-5.47756E-13 3.02498E-13
 -1       313 4.44595E+01 6.22983E+00 9.56156E-01-3.85438E+00-6.49536E-13 5.57721E-13
 -1       314 3.76483E+01 4.96262E+00 6.90480E-01-6.67667E+00-9.39363E-13 8.88789E-13
 -1       315 2.82523E+01 2.27195E+00 2.89399E-01-7.48655E+00-1.23465E-12 1.03140E-12
 -1       316 1.77682E+01-7.93229E-01-1.13573E-01-7.26231E+00-1.40590E-12 1.33515E-12
 -1       317 9.20950E+00-4.96951E+00-4.72584E-01-5.71401E+00-1.09607E-12 1.05629E-12
 -1       318 2.52363E+00-8.48368E+00-8.03346E-01-3.42147E+00-6.25389E-13 1.20751E-12
 -1       319-7.26546E-01-1.02178E+01-8.82602E-01-1.48649E+00-1.67727E-13 1.02787E-12
 -1       320 2.01452E+01 3.01686E+00-1.78000E-02-2.10067E+00-2.06165E-13-2.48272E-13
 -1       321 2.07426E+01 2.20931E+00-1.78025E-02-2.35570E+00-2.63323E-13-1.10778E-13
 -1       322 1.95944E+01 3.70186E+00-1.55430E-02-1.30853E+00-7.53732E-14-3.43295E-13
 -1       323 1.94744E+01 3.86203E+00-1.36225E-02-9.15626E-01-7.68623E-15-3.45310E-13
 -1       324 1.94065E+01 3.95601E+00-1.26385E-02-5.38556E-01 6.24870E-14-3.25404E-13
 -1       325 1.93764E+01 3.99895E+00-1.22224E-02-1.71541E-01 1.23041E-13-3.13066E-13
 -1       326 1.93778E+01 3.99729E+00-1.22433E-02 1.92226E-01 1.75218E-13-2.82148E-13
 -1       327 1.94110E+01 3.95073E+00-1.26982E-02 5.59623E-01 2.17324E-13-2.69849E-13
 -1       328 1.94810E+01 3.85445E+00-1.37200E-02 9.30819E-01 2.58010E-13-2.14998E-13
 -1       329 1.96056E+01 3.68821E+00-1.56188E-02 1.32327E+00 3.01200E-13-1.14922E-13
 -1       330 1.98164E+01 3.41529E+00-1.87996E-02 1.72835E+00 3.35403E-13-2.60902E-15
 -1       331 2.01788E+01 2.95687E+00-2.28816E-02 2.11782E+00 3.53609E-13 1.51052E-13
 -1       332 2.07360E+01 2.12896E+00-3.03932E-02 2.31482E+00 3.24913E-13 4.30897E-13
 -1       333 2.10732E+01 1.18717E+00-2.48405E-02 1.91659E+00 2.74593E-13 6.64786E-13
 -1       334 2.03742E+01 4.90156E-01 8.38477E-03 9.21148E-01 2.23134E-13 5.55188E-13
 -1       335 2.04484E+01 6.77439E-01 1.26357E-02-1.01638E+00-2.21228E-13-6.38587E-14
 -1       336 2.00334E+01 3.41732E-01 7.28132E-03-4.44151E-01-1.85439E-13-8.59616E-14
 -1       337 1.97896E+01 1.83817E-01 4.26905E-03-1.28151E-01-1.15742E-13-7.33609E-14
 -1       338 1.96686E+01 1.01305E-01 2.01920E-03 5.36144E-02-6.67678E-14-9.10954E-14
 -1       339 1.96338E+01 5.65387E-02 9.71138E-04 1.59727E-01-4.32435E-14-5.87768E-14
 -1       340 1.96570E+01 3.29603E-02 5.15103E-04 2.23233E-01-7.98122E-16-6.39457E-14
 -1       341 1.97198E+01 2.24562E-02 3.30357E-04 2.64168E-01-6.71482E-14-4.64007E-14
 -1       342 1.98110E+01 2.05094E-02 2.76994E-04 2.95384E-01-1.16813E-13-5.32904E-14
 -1       343 1.99249E+01 2.41935E-02 2.94926E-04 3.25373E-01-1.00259E-13-1.01742E-13
 -1       344 2.00589E+01 3.12053E-02 3.48646E-04 3.59539E-01-5.03541E-14-9.86705E-14
 -1       345 2.02130E+01 3.92918E-02 4.06882E-04 4.00652E-01-4.39085E-14-1.13882E-13
 -1       346 2.03885E+01 4.58074E-02 4.34410E-04 4.48759E-01 1.94961E-14-1.29166E-13
 -1       347 2.05866E+01 4.73133E-02 3.87997E-04 5.00652E-01-2.53433E-14-1.10918E-13
 -1       348 2.08077E+01 3.92490E-02 2.15503E-04 5.48982E-01-8.25211E-14-1.14413E-13
 -1       349 2.10499E+01 1.58410E-02-1.39425E-04 5.81165E-01-9.36527E-14-1.33912E-13
 -1       350 2.13080E+01-2.93667E-02-7.21769E-04 5.78475E-01-3.29066E-14-2.45012E-13
 -1       351 2.15710E+01-1.01685E-01-1.53559E-03 5.16193E-01-3.79419E-14-2.51232E-13
 -1       352 2.18209E+01-2.01247E-01-2.49242E-03 3.66400E-01-1.23117E-13-2.75611E-13
 -1       353 2.20296E+01-3.16220E-01-3.35779E-03 1.05834E-01-4.84226E-14-2.50934E-13
 -1       354 2.21578E+01-4.14818E-01-3.77761E-03-2.68779E-01 3.81557E-14-2.84841E-13
 -1       355 2.21583E+01-4.41673E-01-3.23498E-03-7.18397E-01 1.06010E-13-1.70768E-13
 -1       356 2.19902E+01-3.30856E-01-1.62915E-03-1.13996E+00 7.60052E-14-9.66777E-14
 -1       357 2.16526E+01-4.88256E-02 7.26828E-04-1.36923E+00-1.23826E-14-1.70148E-13
 -1       358 2.12241E+01 3.47395E-01 2.69566E-03-1.24055E+00-9.73978E-14-1.88550E-13
 -1       359 2.08677E+01 6.93901E-01 3.64120E-03-7.03248E-01-1.38018E-13-4.86460E-14
 -1       360 2.07497E+01 8.14582E-01 4.73408E-03 9.97256E-02 3.47326E-14 5.17875E-14
 -1       361 2.09373E+01 6.29269E-01 4.84311E-03 8.64536E-01 1.67054E-14-1.95142E-13
 -1       362 2.13294E+01 2.50480E-01 2.79527E-03 1.31114E+00 5.93884E-14-2.27670E-13
 -1       363 2.17491E+01-1.29017E-01 3.55311E-04 1.34442E+00-2.89076E-14-8.11136E-14
 -1       364 2.20521E+01-3.70229E-01-2.01658E-03 1.05515E+00-1.53497E-14 9.09706E-14
 -1       365 2.21813E+01-4.42496E-01-3.51334E-03 6.16904E-01-7.20160E-14 1.89382E-13
 -1       366 2.21511E+01-3.91904E-01-3.75679E-03 1.82012E-01 2.59974E-14 7.41060E-14
 -1       367 2.20063E+01-2.84166E-01-3.15189E-03-1.62478E-01-7.05700E-14-6.72842E-14
 -1       368 2.17934E+01-1.69451E-01-2.19465E-03-3.89388E-01-3.31549E-14-1.73666E-13
 -1       369 2.15498E+01-7.42423E-02-1.23193E-03-5.08335E-01-1.02654E-13-1.64924E-13
 -1       370 2.13014E+01-6.78674E-03-4.47247E-04-5.44533E-01-4.40666E-14 1.92335E-14
 -1       371 2.10652E+01 3.47715E-02 1.02234E-04-5.25402E-01-1.41489E-13-3.92544E-14
 -1       372 2.08510E+01 5.62261E-02 4.33831E-04-4.74207E-01-1.21745E-13 9.50597E-14
 -1       373 2.06637E+01 6.38657E-02 5.96615E-04-4.08137E-01-1.25266E-13 3.51496E-13
 -1       374 2.05048E+01 6.30105E-02 6.44332E-04-3.38605E-01-7.96869E-14 4.95462E-13
 -1       375 2.03733E+01 5.76524E-02 6.23712E-04-2.72370E-01 2.68152E-13 3.02472E-13
 -1       376 2.02672E+01 5.05873E-02 5.69559E-04-2.12769E-01 3.35526E-13 1.88309E-13
 -1       377 2.01835E+01 4.36620E-02 5.02430E-04-1.60789E-01 2.04629E-13 8.31579E-14
 -1       378 2.01189E+01 3.79949E-02 4.37820E-04-1.15984E-01 2.02123E-13 9.29836E-15
 -1       379 2.00705E+01 3.39830E-02 4.38977E-04-7.71304E-02 2.37897E-13 1.19889E-13
 -1       380 2.00378E+01 2.89274E-02 2.67479E-04-4.55074E-02 1.80729E-13 1.33683E-13
 -1       381 1.98792E+01 2.30651E-01 1.08475E-02 3.89806E-01 1.63450E-13 4.91572E-13
 -1       382 1.96003E+01 1.19154E-01 6.26060E-03 1.06253E-01 9.67989E-14 4.28062E-13
 -1       383 1.94799E+01 6.35637E-02 2.94023E-03-5.03008E-02 6.58503E-14 3.34916E-13
 -1       384 1.94609E+01 3.44000E-02 1.37442E-03-1.38548E-01 6.68569E-14 2.70262E-13
 -1       385 1.95067E+01 1.95217E-02 7.25886E-04-1.89855E-01 1.12838E-13 2.43079E-13
 -1       386 1.95950E+01 1.34436E-02 4.77146E-04-2.22569E-01 1.27947E-13 3.11000E-13
 -1       387 1.97141E+01 1.34635E-02 4.21277E-04-2.48599E-01 6.22136E-14 3.22689E-13
 -1       388 1.98588E+01 1.81399E-02 4.81845E-04-2.76465E-01 6.12520E-16 3.20489E-13
 -1       389 2.00293E+01 2.66718E-02 6.27459E-04-3.12778E-01 1.16581E-13 2.58226E-13
 -1       390 2.02293E+01 3.85682E-02 8.37730E-04-3.62986E-01 1.51747E-13 2.04507E-13
 -1       391 2.04657E+01 5.33766E-02 1.08926E-03-4.31648E-01 8.73608E-14 1.75469E-13
 -1       392 2.07472E+01 7.03270E-02 1.34365E-03-5.22258E-01 3.16638E-14 2.04382E-13
 -1       393 2.10834E+01 8.77412E-02 1.53185E-03-6.36405E-01 1.45370E-14 2.27808E-13
 -1       394 2.14839E+01 1.02024E-01 1.53553E-03-7.71905E-01 1.50894E-13 1.96737E-13
 -1       395 2.19552E+01 1.06047E-01 1.17332E-03-9.19289E-01 1.31595E-13 2.34040E-13
 -1       396 2.24988E+01 8.69466E-02 2.17810E-04-1.05599E+00-9.17045E-15 2.90025E-13
 -1       397 2.31061E+01 2.42531E-02-1.51242E-03-1.13818E+00-1.86451E-13 2.64396E-13
 -1       398 2.37526E+01-1.08377E-01-3.96507E-03-1.09246E+00-1.45363E-13 2.68641E-13
 -1       399 2.43897E+01-3.29889E-01-6.44550E-03-8.16063E-01-1.77562E-13 3.32326E-13
 -1       400 2.49314E+01-6.15365E-01-7.36590E-03-2.05231E-01-4.42099E-14 4.44565E-13
 -1       401 2.52357E+01-8.34204E-01-6.77007E-03 7.55153E-01-6.50677E-14 6.07548E-13
 -1       402 2.51297E+01-7.33948E-01-8.61877E-03 1.83439E+00-2.38253E-13 7.00678E-13
 -1       403 2.45117E+01-7.17412E-02-1.56808E-02 2.44628E+00-7.31628E-14 7.38568E-13
 -1       404 2.36478E+01 9.51215E-01-1.99207E-02 1.91025E+00 4.10519E-13 7.28942E-13
 -1       405 2.31764E+01 1.55591E+00-2.20919E-02 1.97549E-01 4.96964E-13 4.57888E-13
 -1       406 2.35387E+01 1.15307E+00-2.05182E-02-1.64916E+00 1.27866E-13 2.00060E-13
 -1       407 2.44186E+01 1.39630E-01-9.48031E-03-2.45351E+00 1.59076E-13 3.77467E-14
 -1       408 2.51204E+01-6.46960E-01-3.07955E-03-2.02300E+00 1.46131E-13-3.95057E-14
 -1       409 2.52951E+01-8.52347E-01-1.04010E-02-9.75012E-01-9.03557E-14-1.29174E-13
 -1       410 2.50339E+01-6.73721E-01-1.06495E-02 3.91343E-02 5.18674E-14-2.40061E-13
 -1       411 2.45106E+01-3.85779E-01-8.74776E-03 7.20759E-01-1.50826E-13-3.12740E-14
 -1       412 2.38789E+01-1.44766E-01-5.35926E-03 1.05107E+00-2.62375E-14 3.03833E-13
 -1       413 2.32346E+01 6.78656E-03-2.18782E-03 1.12738E+00 2.86954E-13 2.93387E-13
 -1       414 2.26303E+01 8.28706E-02 4.34072E-05 1.05674E+00 2.50641E-13 2.34590E-13
 -1       415 2.20924E+01 1.10205E-01 1.28608E-03 9.18580E-01-5.53050E-14-9.19766E-14
 -1       416 2.16314E+01 1.10939E-01 1.79388E-03 7.61612E-01-4.24743E-14-2.48397E-13
 -1       417 2.12475E+01 9.94252E-02 1.85486E-03 6.11583E-01-1.37214E-13 4.23715E-14
 -1       418 2.09353E+01 8.37615E-02 1.69112E-03 4.79823E-01 5.16932E-14 1.42282E-13
 -1       419 2.06863E+01 6.80330E-02 1.44272E-03 3.69595E-01 6.72054E-15 2.18275E-13
 -1       420 2.04911E+01 5.40682E-02 1.18616E-03 2.80079E-01-3.35816E-14 1.68998E-13
 -1       421 2.03407E+01 4.25599E-02 9.56086E-04 2.08617E-01 5.40674E-14-5.33363E-14
 -1       422 2.02268E+01 3.36876E-02 7.63114E-04 1.51858E-01 2.85927E-13-2.12780E-13
 -1       423 2.01425E+01 2.73610E-02 6.03024E-04 1.06331E-01 4.60877E-13-1.21910E-13
 -1       424 2.00820E+01 2.32000E-02 4.44624E-04 6.89637E-02 3.31594E-13 4.08738E-14
 -1       425 2.00403E+01 2.02366E-02 3.18745E-04 3.76418E-02-2.91253E-13 2.28297E-13
 -1       426 2.00217E+01 1.87861E-02 1.84693E-04 2.21896E-02-9.34988E-14 1.03363E-13
 -1       427 2.00090E+01 1.16587E-01 9.89968E-05 8.40644E-02-3.73596E-13 4.20968E-14
 -1       428 2.00221E+01 7.43975E-02 2.23524E-04 6.92998E-02-2.13069E-13 2.85841E-13
 -1       429 2.00253E+01 4.33549E-02 2.72054E-04 4.62191E-02-1.54490E-13 3.01945E-13
 -1       430 1.99950E+01 1.58206E-01-3.60157E-05 8.48335E-02-3.45526E-13-5.45135E-13
 -1       431 1.99824E+01 1.95393E-01-1.50163E-04 7.16251E-02-1.46772E-13-2.93174E-13
 -1       432 1.99734E+01 2.22523E-01-2.34145E-04 4.69580E-02-5.34273E-14-2.93149E-13
 -1       433 1.99689E+01 2.36132E-01-2.78740E-04 1.51583E-02-4.56158E-13 1.52307E-13
 -1       434 1.99695E+01 2.34579E-01-2.76794E-04-1.86586E-02-2.42000E-13 2.82224E-14
 -1       435 1.99748E+01 2.18250E-01-2.27673E-04-4.92907E-02-6.14692E-14-8.62318E-14
 -1       436 1.99839E+01 1.90049E-01-1.40186E-04-7.17974E-02-5.05473E-14 6.21993E-15
 -1       437 1.99959E+01 1.52701E-01-3.76219E-05-8.34639E-02 2.45239E-13 3.97343E-13
 -1       438 2.00090E+01 1.11363E-01 7.65090E-05-8.18450E-02 8.73496E-14 2.81961E-14
 -1       439 2.00213E+01 7.04594E-02 1.99889E-04-6.72750E-02-1.11804E-13-1.95557E-13
 -1       440 1.03802E+01-5.41621E+00-1.55797E-02 6.66340E+00-1.47646E-13 5.09273E-13
 -1       441 1.92523E+00-3.25535E+00 6.78073E-02-4.64906E-01 6.83975E-14 7.18675E-13
 -1       442 4.56434E+00-4.36772E+00 2.15179E-02 4.52157E+00 9.23289E-14 2.94251E-13
 -1       443 1.93908E+01-5.64613E+00-3.20490E-02 6.38972E+00 4.53110E-14 3.70592E-13
 -1       444 2.73977E+01-3.73859E+00-1.74840E-02 3.93521E+00 2.74072E-13 1.51421E-13
 -1       445 1.98104E+01 3.43673E+00-1.76109E-02-1.72805E+00-1.53127E-13-3.38720E-13
 -1       446 3.52783E+01 5.03837E+00 3.17384E-02-7.31367E-01 7.88217E-13-8.93730E-14
 -1       447 3.70597E+01 7.72858E+00 9.84447E-02-2.14087E-01 1.09776E-12-3.74974E-13
 -1       448 3.51062E+01 6.84340E+00-3.00378E-02 8.66903E-01 9.22734E-13-2.25549E-13
 -1       449 3.45173E+01 2.80155E+00 1.07530E-02 1.22993E-01 5.19564E-13-3.44891E-13
 -1       450 3.08476E+01-1.43886E+00 1.90045E-02-2.62024E+00 2.68098E-13-4.76313E-13
 -1       451 2.39686E+01-4.88215E+00-1.63060E-02-5.25655E+00-3.23630E-14-6.33354E-13
 -1       452 1.45966E+01-5.86145E+00-7.65475E-02-6.82064E+00-8.38773E-14-8.77287E-13
 -1       453 7.53783E+00-5.12579E+00-1.82502E-02-6.02070E+00-1.18378E-13-9.03277E-13
 -1       454 2.13019E+00-4.01964E+00-1.68475E-02-2.27862E+00 9.89486E-15-7.29944E-13
 -1       455 3.32814E+00-3.43113E+00 9.44231E-02 3.56162E+00 7.51760E-14-1.90362E-13
 -1       456 8.25087E+00-4.44230E+00 6.25012E-02 6.57142E+00 9.13158E-14-1.70738E-13
 -1       457 1.63474E+01-5.38368E+00-1.47491E-02 7.16233E+00-3.73312E-14-1.48281E-13
 -1       458 2.38061E+01-4.16555E+00-1.82517E-02 5.55055E+00-1.86517E-13 7.70356E-14
 -1       459 3.08303E+01-1.46246E-01 3.55302E-02 2.41671E+00-3.94629E-13 1.64577E-13
 -1       460 3.35983E+01 3.89253E+00 2.19678E-03 2.50896E-01-5.40040E-13 2.59737E-13
 -1       461 3.37696E+01 7.75674E+00-5.48090E-02-4.24234E-01-4.82392E-13 1.94997E-13
 -1       462 3.63590E+01 7.73958E+00 1.00098E-01-3.45275E-02-6.24500E-13 3.07789E-13
 -1       463 3.49026E+01 5.04094E+00 7.68475E-02-5.11110E-01-6.95707E-13 1.13090E-13
 -1       464 3.17102E+01 8.18507E-01 3.53121E-02-1.96142E+00-5.79323E-13-6.35325E-14
 -1       465 2.57988E+01-3.13272E+00-2.90219E-03-4.94190E+00-4.85390E-13-2.95874E-14
 -1       466 1.81743E+01-5.02764E+00-3.24769E-02-6.88705E+00-5.48533E-13 5.48811E-13
 -1       467 9.87464E+00-5.35534E+00-4.50021E-02-6.97157E+00-9.07607E-14 1.14395E-12
 -1       468 3.58218E+00-4.97802E+00-8.06072E-02-4.57129E+00 7.71744E-14 1.25280E-12
 -1       469 3.31239E+01 5.80455E-01 3.11271E-02 1.07173E+00 6.94689E-13 4.65183E-14
 -1       470 4.25732E+00-1.34887E+00 1.65892E-01 8.00465E-01 2.07580E-13-4.35443E-13
 -1       471 2.03705E+01 8.36671E-01 4.03913E-03 9.58985E-01 2.30276E-13 2.52936E-13
 -1       472 1.97446E+01 3.12786E+00-5.32374E-03-6.23806E-01 3.36031E-14-2.84669E-13
 -1       473 1.98406E+01 2.94952E+00-5.68948E-03-9.36138E-01-3.24411E-14-2.86672E-13
 -1       474 1.96767E+01 3.25496E+00-4.99718E-03 8.52720E-03 1.35711E-13-2.61637E-13
 -1       475 1.96956E+01 3.22070E+00-5.08105E-03 3.24660E-01 1.82819E-13-2.45622E-13
 -1       476 1.97497E+01 3.12066E+00-5.41304E-03 6.35448E-01 2.22433E-13-2.14101E-13
 -1       477 1.98481E+01 2.93781E+00-5.96192E-03 9.47836E-01 2.80108E-13-1.32668E-13
 -1       478 2.00017E+01 2.64692E+00-6.52008E-03 1.24204E+00 2.99842E-13-4.51258E-14
 -1       479 2.02387E+01 2.19538E+00-5.68188E-03 1.48767E+00 3.10291E-13 5.07448E-14
 -1       480 2.01160E+01 4.62032E-01 5.10505E-03 4.44941E-01 1.79060E-13 1.80817E-13
 -1       481 2.03458E+01 9.81691E-01 3.08915E-03-9.23681E-01-1.89608E-13-1.47262E-13
 -1       482 3.10800E+01 1.30206E+00-1.34323E-01-2.23240E+00 6.79123E-13-1.37293E-13
 -1       483 2.01807E+01 5.57504E-01 2.23797E-03-4.42908E-01-1.26278E-13-1.05748E-13
 -1       484 2.00422E+01 3.23530E-01 1.11257E-03-1.29920E-01-1.01421E-13-7.33184E-14
 -1       485 1.99541E+01 1.89709E-01 5.23284E-04 6.85784E-02-5.51924E-14-1.27780E-13
 -1       486 1.99126E+01 1.13651E-01 2.49438E-04 1.94361E-01-4.28476E-14-1.29223E-13
 -1       487 1.99084E+01 7.33411E-02 1.40832E-04 2.76499E-01-5.67357E-14-1.81052E-13
 -1       488 1.99328E+01 5.64123E-02 1.05258E-04 3.34929E-01-8.93907E-14-1.93853E-13
 -1       489 1.99796E+01 5.51477E-02 1.07202E-04 3.83486E-01-1.17603E-13-1.70737E-13
 -1       490 2.00451E+01 6.39785E-02 1.29923E-04 4.31603E-01-6.26108E-14-8.20583E-14
 -1       491 2.01277E+01 7.80886E-02 1.61036E-04 4.85191E-01-1.99477E-14-9.28377E-14
 -1       492 2.02275E+01 9.24420E-02 1.87224E-04 5.46905E-01 1.22695E-14-4.57113E-14
 -1       493 2.03460E+01 1.00970E-01 1.91868E-04 6.15913E-01-2.05309E-14-1.10617E-13
 -1       494 2.04860E+01 9.58561E-02 1.53682E-04 6.87221E-01-1.13743E-14-9.14582E-14
 -1       495 2.06515E+01 6.70689E-02 4.65244E-05 7.50641E-01-9.47953E-14-3.48858E-14
 -1       496 2.08477E+01 2.58522E-03-1.58192E-04 7.89551E-01-1.78433E-13-3.80632E-14
 -1       497 2.10808E+01-1.09806E-01-4.80944E-04 7.79873E-01-7.93115E-14-2.12780E-13
 -1       498 2.13556E+01-2.77670E-01-9.21216E-04 6.90198E-01-3.93600E-14-2.20139E-13
 -1       499 2.16711E+01-4.94251E-01-1.40958E-03 4.84945E-01-8.83675E-14-7.74171E-14
 -1       500 2.20114E+01-7.23313E-01-1.77302E-03 1.34227E-01 6.12569E-15-1.84868E-13
 -1       501 2.23330E+01-8.83965E-01-1.93768E-03-3.64977E-01 1.36692E-13-7.03615E-14
 -1       502 2.25577E+01-8.48407E-01-1.38697E-03-9.55214E-01 6.19217E-14-7.01124E-15
 -1       503 2.25870E+01-4.83935E-01-8.11338E-04-1.47761E+00-9.50097E-15-6.95929E-14
 -1       504 2.23758E+01 2.26352E-01-8.13839E-04-1.67777E+00-1.09775E-13-9.83461E-14
 -1       505 2.20191E+01 1.06456E+00-2.82377E-03-1.31689E+00-6.29156E-14-7.24158E-14
 -1       506 2.17551E+01 1.62430E+00-2.43323E-03-4.25617E-01-1.89822E-14-1.44176E-13
 -1       507 2.18060E+01 1.53339E+00 7.13389E-04 6.74049E-01-5.58270E-14-1.09930E-13
 -1       508 2.21103E+01 8.75157E-01-3.34991E-04 1.46316E+00 2.48281E-14-1.03350E-13
 -1       509 2.24478E+01 3.56864E-02 1.01275E-04 1.67573E+00 8.61929E-14-1.00841E-13
 -1       510 2.26053E+01-6.00156E-01-5.59376E-04 1.37754E+00 1.09635E-14 1.57149E-14
 -1       511 2.25243E+01-8.76595E-01-1.81172E-03 8.22450E-01-6.91550E-14 3.91682E-14
 -1       512 2.22714E+01-8.51588E-01-2.12146E-03 2.47881E-01-2.06722E-13 3.03965E-14
 -1       513 2.19433E+01-6.62669E-01-1.80891E-03-2.13380E-01-8.43536E-14-1.74046E-14
 -1       514 2.16111E+01-4.28426E-01-1.29246E-03-5.21002E-01-5.84750E-14-1.67786E-13
 -1       515 2.13109E+01-2.18464E-01-7.72788E-04-6.86996E-01-3.75999E-14 1.14161E-13
 -1       516 2.10544E+01-6.03843E-02-3.45874E-04-7.43802E-01-4.61972E-14 2.26313E-13
 -1       517 2.08405E+01 4.36012E-02-4.18953E-05-7.26338E-01-2.29189E-13 8.28494E-14
 -1       518 2.06640E+01 1.02711E-01 1.47063E-04-6.64256E-01 1.88851E-14 1.21454E-13
 -1       519 2.05191E+01 1.29188E-01 2.46601E-04-5.79825E-01-2.97829E-14 2.66703E-13
 -1       520 2.04006E+01 1.34296E-01 2.83916E-04-4.88305E-01-2.47094E-14 3.33619E-13
 -1       521 2.03042E+01 1.26939E-01 2.81961E-04-3.99227E-01-8.54508E-14 2.67355E-13
 -1       522 2.02264E+01 1.13576E-01 2.59928E-04-3.17833E-01 5.96875E-14-7.73802E-15
 -1       523 2.01640E+01 9.86465E-02 2.33399E-04-2.46314E-01 7.50432E-14-8.30364E-14
 -1       524 2.01144E+01 8.48615E-02 2.04047E-04-1.84886E-01 3.27680E-13-1.43760E-13
 -1       525 2.00751E+01 7.36844E-02 2.00319E-04-1.32589E-01 3.06857E-13-1.16606E-13
 -1       526 1.04637E+01-3.01646E+00 1.44071E-01 5.77722E+00-4.96408E-14 3.05533E-13
 -1       527 1.98385E+01 1.48765E-01 1.11517E-03-6.31987E-02 9.18021E-14 8.88278E-14
 -1       528 1.98009E+01 8.73894E-02 5.07375E-04-1.82270E-01 1.12140E-13 4.80369E-14
 -1       529 1.98100E+01 5.61592E-02 2.78795E-04-2.58725E-01 8.56038E-14 5.64318E-14
 -1       530 1.98534E+01 4.48807E-02 2.10781E-04-3.13509E-01 4.96439E-14 1.47331E-13
 -1       531 1.99237E+01 4.80221E-02 2.27372E-04-3.61455E-01 4.37555E-14 1.97970E-13
 -1       532 2.00164E+01 6.24185E-02 3.01491E-04-4.13646E-01 1.22709E-13 1.44147E-13
 -1       533 2.01305E+01 8.61147E-02 4.20406E-04-4.78784E-01 1.77487E-13 1.28052E-13
 -1       534 2.02665E+01 1.17629E-01 5.73631E-04-5.63875E-01 1.06423E-13 1.55861E-13
 -1       535 2.04269E+01 1.55211E-01 7.46236E-04-6.74382E-01 8.45708E-14 1.47718E-13
 -1       536 2.06148E+01 1.95799E-01 9.11119E-04-8.13780E-01 4.44387E-15 6.71343E-14
 -1       537 2.08345E+01 2.33329E-01 1.01768E-03-9.82281E-01 7.50111E-14 1.29698E-13
 -1       538 2.10916E+01 2.56053E-01 9.78623E-04-1.17432E+00 7.89806E-14 1.57511E-13
 -1       539 2.13949E+01 2.42642E-01 6.55567E-04-1.37428E+00 8.30285E-15 3.18045E-13
 -1       540 2.17603E+01 1.57783E-01-1.33879E-04-1.54984E+00-1.44210E-13 3.60610E-13
 -1       541 2.22166E+01-4.93552E-02-1.55366E-03-1.64284E+00-2.06711E-13 3.94101E-13
 -1       542 2.28093E+01-4.34088E-01-3.68347E-03-1.55940E+00-1.29790E-13 3.84142E-13
 -1       543 2.35904E+01-1.01160E+00-5.66773E-03-1.16813E+00-1.37298E-13 3.23155E-13
 -1       544 2.45716E+01-1.65798E+00-5.20354E-03-3.25907E-01-1.73376E-13 4.39105E-13
 -1       545 2.56002E+01-1.95163E+00-7.03556E-03 9.94673E-01-2.51183E-13 5.63832E-13
 -1       546 2.62306E+01-1.23502E+00-3.69710E-02 2.45051E+00-2.47588E-13 6.59651E-13
 -1       547 2.61424E+01 8.55276E-01-7.62182E-02 2.91447E+00 2.36923E-13 6.35316E-13
 -1       548 2.57329E+01 3.07906E+00-7.01768E-02 1.51878E+00 6.15587E-13 7.19054E-13
 -1       549 2.53899E+01 3.30480E+00-1.26947E-01-1.15394E+00 4.69503E-13 4.67711E-13
 -1       550 2.58930E+01 1.27586E+00-9.23782E-02-2.91554E+00 4.17548E-13-8.03875E-14
 -1       551 2.63200E+01-9.66521E-01-3.62432E-02-2.75175E+00 2.06925E-13-3.44739E-13
 -1       552 2.58038E+01-1.90862E+00-1.67893E-02-1.33596E+00 2.98277E-14-2.30614E-13
 -1       553 2.47703E+01-1.75413E+00-8.81336E-03 1.11655E-01-6.70317E-14-2.46996E-13
 -1       554 2.37603E+01-1.12604E+00-6.92150E-03 1.04801E+00-3.17703E-13 3.55251E-14
 -1       555 2.29446E+01-5.16332E-01-4.03686E-03 1.50366E+00-2.13499E-13 2.02465E-13
 -1       556 2.23279E+01-9.38690E-02-1.74470E-03 1.62395E+00 2.59466E-13 1.59410E-13
 -1       557 2.18591E+01 1.43164E-01-1.51043E-04 1.54579E+00 2.60865E-13 2.78234E-13
 -1       558 2.14903E+01 2.48005E-01 7.75233E-04 1.36983E+00 2.26301E-13 5.04024E-13
 -1       559 2.11903E+01 2.73763E-01 1.18849E-03 1.15942E+00 5.10369E-14 3.10782E-13
 -1       560 2.09416E+01 2.58529E-01 1.26995E-03 9.50496E-01-6.16907E-14 1.74644E-13
 -1       561 2.07347E+01 2.25740E-01 1.17503E-03 7.60937E-01-6.24102E-14 8.67022E-14
 -1       562 2.05638E+01 1.88322E-01 1.00859E-03 5.97761E-01-5.72017E-14 3.96251E-14
 -1       563 2.04242E+01 1.52735E-01 8.29211E-04 4.61937E-01 4.11487E-14 2.05993E-13
 -1       564 2.03119E+01 1.21844E-01 6.65795E-04 3.51344E-01 6.22015E-14 2.34240E-14
 -1       565 2.02229E+01 9.67198E-02 5.25813E-04 2.62450E-01 3.09791E-13-5.62141E-14
 -1       566 2.01534E+01 7.74728E-02 4.34784E-04 1.91260E-01 2.72398E-13 8.99392E-14
 -1       567 2.00998E+01 6.37746E-02 4.27248E-04 1.34025E-01 2.41535E-13 4.03578E-13
 -1       568 2.00584E+01 5.37823E-02 3.49703E-04 8.70910E-02-8.18295E-14 6.03598E-13
 -1       569 1.99735E+01 2.00172E-01-8.23863E-05 1.13205E-01-2.06145E-13-1.28299E-13
 -1       570 1.99507E+01 2.33720E-01-9.04814E-05 8.43174E-02-3.27287E-15-2.75799E-13
 -1       571 2.00301E+01 1.10544E-01 1.64723E-05 1.18071E-01-1.97750E-13 9.86528E-14
 -1       572 2.00015E+01 1.57634E-01-2.89854E-05 1.25164E-01-5.39999E-13-1.88717E-13
 -1       573 1.99367E+01 2.54071E-01-1.16025E-04 4.32586E-02 1.00677E-13-2.66571E-13
 -1       574 1.99327E+01 2.59236E-01-1.28527E-04-3.64915E-03 2.20525E-14 2.68299E-13
 -1       575 1.99391E+01 2.48969E-01-1.17149E-04-4.94974E-02 1.02234E-13 5.64717E-14
 -1       576 1.99543E+01 2.25277E-01-8.38002E-05-8.71997E-02 2.08889E-13-4.59386E-14
 -1       577 1.99767E+01 1.90119E-01-5.33021E-05-1.12764E-01 1.92720E-13 2.17750E-13
 -1       578 2.00028E+01 1.47781E-01-3.31774E-05-1.21991E-01 1.69696E-13-3.81518E-14
 -1       579 2.00291E+01 1.02923E-01 8.74783E-05-1.13548E-01 9.43532E-14-3.05644E-13
 -1       580 6.06033E+00-1.55407E+00 1.78678E-01-3.51656E+00 1.66811E-13 1.05377E-12
 -1       581 1.99389E+01 2.59804E-01 2.52943E-03 1.29738E-01 1.16847E-13 1.07180E-13
 -1       582 1.82322E+01-5.19973E+00 9.03925E-02 6.25426E+00-3.13249E-13 3.10051E-13
 -1       583 9.83292E+00-3.02222E+00 1.44538E-01-6.18046E+00 3.26440E-13 1.19373E-12
 -1       584 2.03972E+01 1.76020E+00-6.02508E-03-1.52412E+00-2.19021E-13-2.09318E-13
 -1       585 2.49676E+01-5.62427E+00-3.79239E-03 3.91194E+00-1.17753E-14 1.32800E-13
 -1       586 2.76184E+01-3.67515E+00-3.83206E-02 2.12544E+00-9.52311E-14 4.67675E-13
 -1       587 1.96924E+01 3.22525E+00-5.07455E-03-3.07598E-01 1.00880E-13-2.89382E-13
 -1       588 3.08316E+01 6.81074E+00-1.76812E-01 2.15886E-01 1.02586E-12 6.62994E-14
 -1       589 2.20553E+01-5.48700E+00 2.93255E-02 5.41369E+00 2.67841E-13 1.74560E-13
 -1       590 3.10022E+01 5.74759E+00-1.63612E-01-1.64392E+00 1.04323E-12-2.02824E-13
 -1       591 3.04885E+01 3.34743E+00-1.74674E-01 2.47106E+00 3.70613E-13 3.07615E-13
 -1       592 3.07135E+01-1.06211E+00-1.01695E-01 1.15554E+00 5.30825E-14 1.40811E-13
 -1       593 2.82749E+01-4.35242E+00-8.22945E-03-1.75949E+00-2.07254E-13-1.09072E-13
 -1       594 2.12239E+01-5.83696E+00 3.41663E-02-5.59582E+00-4.50896E-13-4.51018E-13
 -1       595 1.48623E+01-4.58683E+00 1.23124E-01-6.61946E+00-3.41678E-13-5.86121E-13
 -1       596 8.04348E+00-1.97397E+00 1.98887E-01-4.55758E+00-3.56312E-14-7.41615E-13
 -1       597 8.88149E+00-1.58624E+00 1.87282E-01 4.90594E+00 3.20195E-13-5.88488E-14
 -1       598 2.99726E+01 7.41344E+00-1.67712E-01 3.48080E-01-4.96173E-13 9.89504E-14
 -1       599 1.52775E+01-4.16968E+00 1.29290E-01 6.81678E+00 3.33122E-13 1.34406E-14
 -1       600 2.99175E+01 4.26258E-01-1.07765E-01-8.30422E-01-3.01325E-13 2.46560E-13
 -1       601 2.97718E+01 5.01161E+00-1.58921E-01-1.70534E+00-5.10744E-13 1.42074E-13
 -1       602 3.05224E+01 5.80698E+00-1.57270E-01 1.38040E+00-3.94670E-13-1.20542E-13
 -1       603 3.03960E+01 1.96012E+00-1.09382E-01 1.21227E+00-3.48811E-13-4.47101E-13
 -1       604 2.84781E+01-2.81310E+00-5.65106E-02-1.39973E+00-9.28632E-14-4.32029E-13
 -1       605 2.35570E+01-5.22493E+00 1.12913E-02-5.02862E+00 2.73392E-14-3.86323E-13
 -1       606 1.66944E+01-5.20205E+00 7.04514E-02-7.03619E+00 1.56916E-13 1.89085E-13
 -1       607 5.90727E+00-1.29853E+00 1.83032E-01 2.48131E+00 1.85997E-14 3.97737E-13
 -1       608 2.05767E+01 1.30705E+00-9.79959E-04 1.53854E+00 2.88309E-13 3.22672E-13
 -1       609 2.95455E+01-3.05413E+00-6.62923E-02-2.83897E-01 2.70872E-13-4.74967E-14
 -1       610 1.99831E+01 2.66235E+00-9.72443E-03-1.22408E+00-1.09006E-13-2.80186E-13
 -1       611 2.00532E+01 6.67957E-02 2.08947E-04-1.00824E-01 2.15858E-13 1.10369E-13
 -1       612 7.20095E+00-7.01381E-02 1.60710E-01-6.19163E-01-4.76012E-14 6.90233E-13
 -1       613 2.76373E+01 6.13846E+00-1.51961E-01-1.07678E+00-5.50289E-13-6.35325E-14
 -1       614 2.91787E+01 5.63602E+00-1.60629E-01 1.34746E+00 8.23633E-13 3.06997E-13
 -1       615 1.99678E+01 2.48708E+00-1.57158E-03 3.82707E-01 1.81616E-13-1.97447E-13
 -1       616 1.99343E+01 2.56537E+00-1.50415E-03 1.31445E-01 1.51688E-13-2.18486E-13
 -1       617 2.01311E+01 2.07063E+00-1.60735E-03 8.29819E-01 2.52587E-13-8.38428E-14
 -1       618 2.02479E+01 1.69284E+00-2.22352E-03 9.72000E-01 2.62799E-13-8.98988E-15
 -1       619 2.03263E+01 1.04958E+00 2.94097E-03 8.10570E-01 2.36846E-13 8.52205E-14
 -1       620 2.29846E+01-4.89829E+00 5.71386E-02 3.92841E+00-2.70473E-13 8.62465E-14
 -1       621 2.02183E+01 6.34386E-01 1.11030E-03 3.89031E-01 1.79778E-13 4.58189E-14
 -1       622 2.69074E+01-4.27156E+00-8.24002E-03 7.12673E-01-9.56548E-14-2.33537E-13
 -1       623 2.02829E+01 1.68847E+00-1.28157E-03-1.11530E+00-1.49224E-13-2.31449E-13
 -1       624 2.02564E+01 6.95113E-01-3.22952E-04-3.59582E-01-1.06669E-13-1.48615E-13
 -1       625 2.01860E+01 4.31276E-01 2.45357E-04-8.69236E-02-9.50540E-14-1.15375E-13
 -1       626 2.01278E+01 2.66804E-01 8.71764E-05 9.73606E-02-4.18993E-14-1.20624E-13
 -1       627 2.00871E+01 1.70853E-01 3.97763E-05 2.22749E-01-5.49037E-14-1.45680E-13
 -1       628 2.00642E+01 1.20956E-01 2.65942E-05 3.11047E-01-9.33605E-14-1.48246E-13
 -1       629 2.00572E+01 1.02719E-01 2.66014E-05 3.79435E-01-7.00604E-14-9.89386E-14
 -1       630 2.00638E+01 1.06003E-01 3.37142E-05 4.40625E-01-3.05798E-14-4.97126E-14
 -1       631 2.00826E+01 1.22688E-01 4.48652E-05 5.03587E-01-1.26808E-14-1.72226E-14
 -1       632 2.01133E+01 1.45122E-01 5.71108E-05 5.73982E-01-7.06178E-14-1.12903E-14
 -1       633 2.01573E+01 1.64865E-01 6.64075E-05 6.54233E-01-7.73928E-14-7.73058E-14
 -1       634 2.02183E+01 1.71565E-01 6.70408E-05 7.43239E-01-1.10947E-14-9.96716E-14
 -1       635 2.03029E+01 1.51994E-01 5.12048E-05 8.35699E-01-4.88847E-14-8.78840E-14
 -1       636 2.04219E+01 8.95603E-02 8.25024E-06 9.21003E-01-1.10818E-13-1.03544E-13
 -1       637 2.05913E+01-3.49220E-02-7.74305E-05 9.81674E-01-2.04009E-13 2.00894E-14
 -1       638 2.08325E+01-2.39733E-01-2.13127E-04 9.91405E-01-5.26962E-14 1.77226E-14
 -1       639 2.11701E+01-5.33573E-01-4.14514E-04 9.13173E-01-2.39463E-14-1.44352E-13
 -1       640 2.16222E+01-8.98296E-01-6.09284E-04 6.99130E-01-5.48092E-14 9.64267E-14
 -1       641 2.21809E+01-1.26048E+00-5.96817E-04 2.99365E-01 7.24384E-14 1.68363E-13
 -1       642 2.27827E+01-1.46732E+00-1.58241E-03-3.10525E-01 1.31971E-13 1.00421E-13
 -1       643 2.32870E+01-1.27939E+00-2.20681E-03-1.07072E+00-1.44742E-14 2.00499E-13
 -1       644 2.34909E+01-4.65590E-01-4.57919E-03-1.73327E+00-1.38083E-13 1.31746E-13
 -1       645 2.32983E+01 8.89729E-01 4.33379E-03-1.88606E+00-5.46710E-14 8.03827E-14
 -1       646 2.27157E+01 2.26572E+00-4.00937E-02-1.22835E+00-4.86959E-14 1.52644E-13
 -1       647 2.27472E+01 2.70583E+00-7.44556E-03 1.68165E-01 9.25193E-15 4.41504E-14
 -1       648 2.29949E+01 2.00417E+00-1.37893E-02 1.42620E+00-2.87105E-14-3.59710E-14
 -1       649 2.33682E+01 5.67423E-01-7.78379E-03 1.91962E+00-4.20900E-14 3.25203E-14
 -1       650 2.34768E+01-7.10617E-01-2.82235E-03 1.61097E+00 1.46602E-13 1.63681E-14
 -1       651 2.31885E+01-1.36500E+00-2.71261E-03 8.94581E-01-5.46334E-14-8.54653E-14
 -1       652 2.26482E+01-1.43622E+00-1.91147E-03 1.61384E-01-8.17495E-14-3.58990E-14
 -1       653 2.20474E+01-1.16993E+00-1.03963E-03-3.95268E-01-1.20241E-13 1.12930E-14
 -1       654 2.15122E+01-7.91482E-01-5.21043E-04-7.40584E-01-1.08304E-13 1.05288E-13
 -1       655 2.10901E+01-4.34928E-01-2.26422E-04-9.09261E-01-6.99374E-14 7.78143E-14
 -1       656 2.07800E+01-1.56809E-01-4.82556E-05-9.52190E-01-7.19473E-14-7.92168E-14
 -1       657 2.05608E+01 3.32832E-02 5.72572E-05-9.14683E-01-2.96314E-14-2.25889E-13
 -1       658 2.04082E+01 1.47410E-01 1.10710E-04-8.30999E-01-1.53423E-15 1.21277E-13
 -1       659 2.03016E+01 2.04303E-01 1.33070E-04-7.25197E-01-4.40828E-14 3.87369E-14
 -1       660 2.02260E+01 2.22170E-01 1.35581E-04-6.13276E-01-1.02158E-14 2.83426E-14
 -1       661 2.01711E+01 2.15940E-01 1.26925E-04-5.05198E-01-1.91377E-13-7.83167E-14
 -1       662 2.01301E+01 1.96730E-01 1.08312E-04-4.06559E-01-1.71417E-13 2.84918E-14
 -1       663 2.00985E+01 1.72369E-01 8.93662E-05-3.19960E-01-3.09064E-14-2.81692E-13
 -1       664 2.00735E+01 1.47995E-01 8.94204E-05-2.45786E-01 1.01822E-13-2.83547E-13
 -1       665 2.00529E+01 1.26506E-01 6.36469E-05-1.83313E-01 4.12300E-13-2.11415E-13
 -1       666 1.03852E+01-8.96731E-01 1.29430E-01 3.85237E+00-5.85868E-14 1.12375E-13
 -1       667 2.00408E+01 1.13729E-01 5.35318E-05-1.46649E-01 5.78747E-13-3.32283E-13
 -1       668 2.00579E+01 2.33675E-01 2.98825E-04-8.78784E-02 1.29029E-13-3.78874E-14
 -1       669 2.00130E+01 9.42486E-02 7.46297E-05-3.74470E-01 2.77064E-14-1.91431E-15
 -1       670 2.00371E+01 1.05942E-01 9.29307E-05-4.39721E-01 7.48080E-14-1.77611E-14
 -1       671 2.00744E+01 1.36026E-01 1.27871E-04-5.11842E-01 1.19487E-13 8.72407E-14
 -1       672 2.01222E+01 1.81218E-01 1.77473E-04-5.99853E-01 1.15358E-13 8.00557E-14
 -1       673 2.01785E+01 2.38543E-01 2.39250E-04-7.10850E-01 7.64311E-14 2.34085E-13
 -1       674 2.02417E+01 3.04039E-01 3.08287E-04-8.50085E-01 6.22738E-14 2.65785E-13
 -1       675 2.03109E+01 3.70852E-01 3.74168E-04-1.02060E+00 2.65432E-15 3.12511E-13
 -1       676 2.03875E+01 4.26269E-01 4.15608E-04-1.22234E+00 6.45815E-14 3.43474E-13
 -1       677 2.04782E+01 4.47257E-01 3.98894E-04-1.45051E+00-8.24614E-14 3.88230E-13
 -1       678 2.06015E+01 3.94417E-01 2.64243E-04-1.69287E+00-1.04090E-13 4.06145E-13
 -1       679 2.07990E+01 2.05811E-01-5.67587E-05-1.92498E+00-1.08595E-13 2.85201E-13
 -1       680 2.11513E+01-2.03620E-01-5.26641E-04-2.10080E+00-1.55407E-13 1.44774E-13
 -1       681 2.17925E+01-9.20174E-01-1.40186E-03-2.13108E+00-1.19873E-13 1.58023E-13
 -1       682 2.28988E+01-1.94845E+00-7.66875E-04-1.86029E+00-1.89335E-13 1.95571E-13
 -1       683 2.46092E+01-3.04402E+00 8.82387E-04-1.00545E+00-2.73954E-13 3.06737E-13
 -1       684 2.65655E+01-3.16608E+00-3.90367E-02 5.21546E-01-4.02702E-13 4.03209E-13
 -1       685 2.31649E+01-2.13553E+00-1.16248E-03 1.74759E+00-2.30318E-13-1.05932E-13
 -1       686 2.19582E+01-1.06758E+00 1.51825E-03 2.09670E+00-3.63173E-13-2.73488E-13
 -1       687 2.12478E+01-2.90452E-01 3.37983E-04 2.09938E+00-7.26054E-14-1.22647E-13
 -1       688 2.08600E+01 1.69860E-01 1.41769E-04 1.93174E+00 2.35970E-13 5.49151E-14
 -1       689 2.06475E+01 3.94036E-01 2.50188E-04 1.69537E+00 5.44821E-14-9.20952E-14
 -1       690 2.05206E+01 4.70054E-01 3.87194E-04 1.44044E+00 9.98875E-15 1.76226E-13
 -1       691 2.04326E+01 4.63581E-01 4.39368E-04 1.19415E+00 1.02912E-14 4.40570E-13
 -1       692 2.03617E+01 4.17468E-01 4.20703E-04 9.70416E-01-6.41890E-14 4.37859E-13
 -1       693 2.02995E+01 3.56780E-01 3.67886E-04 7.75222E-01 2.90107E-14 2.98515E-13
 -1       694 2.02435E+01 2.95033E-01 3.06483E-04 6.09797E-01 1.03859E-13 1.36297E-13
 -1       695 2.01937E+01 2.38849E-01 2.46673E-04 4.72594E-01 1.63625E-13-1.63530E-13
 -1       696 2.01502E+01 1.91038E-01 1.89389E-04 3.60664E-01 7.00991E-14-1.36097E-13
 -1       697 2.01127E+01 1.52739E-01 1.62429E-04 2.70280E-01 1.58879E-13 4.02653E-15
 -1       698 2.00809E+01 1.23694E-01 2.02861E-04 1.97739E-01 7.87068E-14 5.39411E-14
 -1       699 2.00522E+01 1.16348E-01 1.23668E-04 1.55464E-01-1.10363E-13-1.71676E-14
 -1       700 1.98855E+01 2.97380E-01-4.80202E-05 2.43827E-02 3.22134E-13 1.42238E-14
 -1       701 1.99310E+01 2.53730E-01-1.57794E-05 1.31831E-01 5.09948E-14-7.71204E-14
 -1       702 1.98881E+01 2.93076E-01-4.70301E-05-3.72752E-02 2.72024E-13 1.53526E-13
 -1       703 1.99002E+01 2.83981E-01-3.13708E-05 8.35403E-02-1.36539E-14-7.76582E-14
 -1       704 1.02681E+01-1.07430E+00 1.46655E-01-4.53402E+00 1.29789E-13 9.68683E-13
 -1       705 1.99064E+01 2.72587E-01-3.57322E-05-9.21941E-02 1.68519E-13-2.44843E-14
 -1       706 1.99384E+01 2.37738E-01-3.50855E-05-1.35033E-01 3.52758E-14 2.77666E-14
 -1       707 1.99796E+01 1.92563E-01-2.07537E-05-1.59203E-01 1.05023E-13 2.62415E-13
 -1       708 2.01252E+01 3.84022E-01 6.85269E-04 1.03081E-01 1.36647E-13-8.40675E-15
 -1       709 2.00383E+01-4.50924E+00 5.29117E-02 5.39397E+00 2.23783E-13 5.00737E-14
 -1       710 8.84087E+00 2.45153E-01 1.29220E-01 1.48330E+00 2.05766E-13-2.04510E-13
 -1       711 2.00055E+01 1.05652E-01 7.74570E-05-3.04674E-01 3.87743E-14-7.23341E-15
 -1       712 2.00190E+01 1.47611E-01 9.97978E-05-2.15608E-01 1.14123E-13 6.37453E-16
 -1       713 2.02930E+01 1.10288E+00 1.11355E-03-6.92152E-01-1.15817E-13-1.79967E-13
 -1       714 2.78324E+01 3.16010E+00-1.30336E-01 2.15011E+00-2.31509E-13-5.55687E-13
 -1       715 2.11995E+01-5.07882E+00 5.07627E-02-5.37646E+00 2.07435E-13-2.89781E-13
 -1       716 2.73149E+01-2.27813E+00-6.28473E-02-5.42484E-01 9.66120E-14 1.51192E-13
 -1       717 2.00332E+01 2.32691E+00-1.68158E-03 6.20396E-01 2.19503E-13-1.29777E-13
 -1       718 2.00276E+01 2.33694E+00-1.62535E-03-6.12787E-01 7.29756E-16-2.37298E-13
 -1       719 2.52503E+01-4.52102E+00 6.39567E-03 2.39271E+00-1.46359E-14 3.61182E-13
 -1       720 2.85824E+01 1.42683E-01-7.48066E-02 2.72210E+00 8.84223E-14 4.56728E-13
 -1       721 2.75813E+01 1.30733E+00-1.05781E-01-2.04583E+00-3.80220E-13 2.35867E-13
 -1       722 2.86714E+01-2.66899E+00-5.52523E-02 1.24016E+00-2.04022E-13 3.56201E-13
 -1       723 2.52418E+01-5.04700E+00 1.06743E-02-2.59412E+00-5.14191E-13 1.11990E-13
 -1       724 1.97739E+01-4.49206E+00 6.37645E-02-5.21867E+00-4.02650E-13-2.34679E-13
 -1       725 1.00754E+01 9.42824E-02 1.31295E-01-2.48171E+00 7.28150E-14-5.04499E-13
 -1       726 1.39439E+01-2.10314E+00 8.79431E-02 5.43960E+00 2.82446E-13-1.81140E-14
 -1       727 1.33506E+01-2.02554E+00 1.07033E-01-5.11992E+00-1.43840E-13-5.21343E-13
 -1       728 2.78256E+01-1.16273E+00-7.50497E-02 1.19537E+00-5.46872E-14-5.42680E-13
 -1       729 1.51491E+01-3.48667E+00 1.03184E-01-6.32414E+00 5.24802E-13 3.11435E-13
 -1       730 1.60609E+01-3.12877E+00 8.42346E-02 5.56979E+00-2.20213E-13 2.50643E-13
 -1       731 2.73550E+01 5.48463E+00-1.60896E-01 1.38228E+00-1.79308E-13-4.01320E-13
 -1       732 2.58826E+01-4.51239E+00-1.47613E-02-2.38058E+00 4.78298E-14-4.10907E-13
 -1       733 2.78489E+01 1.87263E+00-1.29705E-01 2.84515E+00 1.81521E-13 5.04433E-13
 -1       734 2.01199E+01 2.09208E+00-1.55601E-03-8.26944E-01-5.83546E-14-2.20095E-13
 -1       735 1.99332E+01 2.56702E+00-1.50109E-03-1.22829E-01 1.12980E-13-2.40499E-13
 -1       736 9.87037E+00 3.99029E-01 1.08043E-01 1.44763E+00-1.03000E-13 4.06206E-13
 -1       737 1.20304E+01-9.59207E-02 7.37463E-02 3.28910E+00 1.72567E-13-7.42427E-14
 -1       738 2.50057E+01-3.15814E+00-1.29414E-03 8.27377E-01-1.29285E-13-1.76609E-13
 -1       739 2.00072E+01 1.70955E-01-4.07154E-05 1.65046E-01-2.69050E-13-4.74806E-13
 -1       740 2.00125E+01 1.61570E-01-2.98136E-05-1.76760E-01 3.10122E-13 2.42964E-13
 -1       741 2.62736E+01 3.16364E+00-9.65538E-02-2.17137E+00-2.50706E-13 1.18940E-13
 -1       742 2.57524E+01 5.55931E+00-1.17255E-01 1.47130E-01-3.84248E-13-3.97340E-13
 -1       743 1.99638E+01 2.49323E+00-1.53897E-03-3.73146E-01 5.17365E-14-2.13732E-13
 -1       744 1.99677E+01 2.15401E-01-4.43374E-05 1.56569E-01-4.04001E-14 1.35207E-13
 -1       745 2.02749E+01 1.33948E+00 5.41167E-04 6.02323E-01 2.33746E-13-3.21882E-14
 -1       746 2.02700E+01 4.99588E-01-2.79159E-05-2.82708E-02-7.73322E-14-1.19446E-13
 -1       747 2.02291E+01 3.23990E-01-2.41683E-06 1.28572E-01-7.23287E-14-1.52890E-13
 -1       748 2.01853E+01 2.21630E-01-2.26387E-06 2.40999E-01-7.24509E-14-1.49761E-13
 -1       749 2.01439E+01 1.71577E-01 2.62919E-07 3.26031E-01-5.56447E-14-1.15979E-13
 -1       750 2.01066E+01 1.58639E-01 3.82563E-06 3.97378E-01-1.73128E-14-1.11477E-13
 -1       751 2.00737E+01 1.71023E-01 7.98929E-06 4.65854E-01 4.00170E-14-2.90993E-14
 -1       752 2.00455E+01 1.98381E-01 1.25665E-05 5.39481E-01 8.49965E-15-1.40403E-14
 -1       753 2.00232E+01 2.30265E-01 1.78368E-05 6.23644E-01-3.34061E-14 8.75086E-14
 -1       754 2.00099E+01 2.54726E-01 2.32765E-05 7.21145E-01-7.18901E-14 6.96404E-14
 -1       755 2.00120E+01 2.56936E-01 2.76455E-05 8.32030E-01-2.83883E-14 1.75276E-14
 -1       756 2.00409E+01 2.18003E-01 3.06969E-05 9.53027E-01-7.32450E-14-2.52815E-14
 -1       757 2.01152E+01 1.14440E-01 2.75664E-05 1.07639E+00-9.93557E-14 5.22432E-14
 -1       758 2.02634E+01-8.07981E-02 4.83765E-06 1.18767E+00-1.37041E-13 1.02828E-13
 -1       759 2.05256E+01-3.93545E-01-1.09846E-05 1.26148E+00-1.29109E-13 1.12086E-14
 -1       760 2.09511E+01-8.36340E-01-9.83426E-05 1.25493E+00 1.39087E-13 6.72467E-14
 -1       761 2.15886E+01-1.38249E+00-7.04156E-06 1.09735E+00 7.79403E-14 8.43107E-14
 -1       762 2.24538E+01-1.91566E+00 1.37966E-03 6.96688E-01 8.74472E-14 1.63506E-13
 -1       763 2.34553E+01-2.14962E+00 3.86238E-04-5.76737E-02 1.71712E-13 1.76462E-13
 -1       764 2.43543E+01-1.73452E+00-7.99875E-03-1.07946E+00-6.46755E-14 2.12706E-13
 -1       765 2.46806E+01-1.32941E-01-9.26496E-03-1.95318E+00-1.68461E-13 3.47951E-13
 -1       766 2.46063E+01 1.66131E+00-4.34149E-02 2.11223E+00-7.81510E-14-3.69721E-13
 -1       767 2.47067E+01-6.28059E-01-1.57122E-02 1.80837E+00-3.81067E-14-2.78846E-13
 -1       768 2.41641E+01-1.89611E+00-2.43439E-03 8.11099E-01-3.20150E-14-3.34551E-13
 -1       769 2.32102E+01-2.14531E+00 1.30995E-04-1.66599E-01-1.01050E-13-4.35871E-13
 -1       770 2.22227E+01-1.78491E+00 1.10221E-03-8.13596E-01-1.04290E-13-4.96580E-13
 -1       771 2.14109E+01-1.22670E+00 7.11049E-04-1.14014E+00 5.47913E-14-3.57152E-13
 -1       772 2.08263E+01-6.93516E-01 1.50405E-04-1.24327E+00-1.32784E-13-3.96440E-13
 -1       773 2.04433E+01-2.74652E-01-7.51415E-05-1.21408E+00-1.51073E-13-2.08621E-13
 -1       774 2.02109E+01 1.54387E-02-1.29848E-04-1.11546E+00-2.18463E-13-2.05744E-14
 -1       775 2.00805E+01 1.94238E-01-1.35045E-04-9.85180E-01 6.94544E-14-1.80480E-13
 -1       776 2.00146E+01 2.88256E-01-1.16061E-04-8.45273E-01 1.91784E-13-3.11557E-13
 -1       777 1.99867E+01 3.23218E-01-9.19684E-05-7.08497E-01 6.34451E-14 8.09304E-14
 -1       778 1.99797E+01 3.20457E-01-6.92078E-05-5.81960E-01-6.97176E-14 1.22309E-13
 -1       779 1.99827E+01 2.96153E-01-5.02705E-05-4.69240E-01-1.20529E-13 1.57412E-13
 -1       780 1.99895E+01 2.61718E-01-7.34853E-05-3.71630E-01-1.72905E-13 1.09348E-13
 -1       781 1.99970E+01 2.24893E-01-4.34734E-05-2.88755E-01 1.36771E-13 4.29642E-13
 -1       782 2.00083E+01 1.90656E-01 1.64665E-04-2.28559E-01 1.92819E-13 4.59737E-13
 -1       783 2.00858E+01 1.57877E-01 1.84524E-05-4.05900E-01 8.25894E-14-2.48295E-14
 -1       784 2.00131E+01 3.05242E-01 5.43971E-05-6.62926E-01-1.32070E-14 4.68508E-14
 -1       785 1.99782E+01 3.90788E-01 7.62590E-05-7.85558E-01-4.43987E-14 1.47099E-13
 -1       786 1.99296E+01 4.84680E-01 1.02750E-04-9.35728E-01-1.88570E-14 2.31936E-13
 -1       787 1.98629E+01 5.75766E-01 1.29914E-04-1.11681E+00 1.36723E-15 2.38857E-13
 -1       788 1.97770E+01 6.44600E-01 1.44827E-04-1.33137E+00-7.99944E-14 4.06316E-13
 -1       789 1.96786E+01 6.57881E-01 1.51571E-04-1.58208E+00-4.78556E-14 2.26097E-13
 -1       790 1.95922E+01 5.60893E-01 1.61299E-04-1.87295E+00-5.13931E-14 2.43045E-13
 -1       791 1.95766E+01 2.69640E-01 3.59164E-04-2.20877E+00-3.37299E-14 1.53819E-13
 -1       792 1.97512E+01-3.34506E-01 1.16177E-03-2.58974E+00-6.60009E-14 1.44447E-13
 -1       793 2.03558E+01-1.38092E+00 3.14659E-03-2.94944E+00-1.26279E-13 1.33211E-13
 -1       794 2.17151E+01-2.91237E+00 2.54207E-02-3.14495E+00-2.84229E-13 8.14895E-14
 -1       795 2.05471E+01-1.63461E+00 1.64600E-03 3.05303E+00-1.15422E-13 1.69022E-13
 -1       796 1.95855E+01 5.53950E-01 2.19976E-04 1.89119E+00 2.92180E-13 5.52393E-14
 -1       797 1.96650E+01 6.84552E-01 1.33194E-04 1.58208E+00-1.46871E-13 1.22640E-13
 -1       798 1.97635E+01 6.92561E-01 1.39290E-04 1.31117E+00-3.33354E-13 1.08290E-13
 -1       799 1.98511E+01 6.37724E-01 1.35785E-04 1.07494E+00-1.30846E-13 2.37218E-13
 -1       800 1.99186E+01 5.55986E-01 1.16669E-04 8.70514E-01-2.29322E-14 1.11596E-13
 -1       801 1.99659E+01 4.67932E-01 9.70657E-05 6.95903E-01 1.13274E-13 2.91653E-14
 -1       802 1.99963E+01 3.84545E-01 8.31776E-05 5.48884E-01 2.91703E-13 4.00534E-14
 -1       803 2.00139E+01 3.11011E-01 6.75816E-05 4.26748E-01 9.99268E-14 6.98537E-14
 -1       804 2.00225E+01 2.49575E-01 5.38402E-05 3.27185E-01 1.95794E-13-1.44978E-13
 -1       805 2.00243E+01 2.00817E-01 3.71774E-05 2.46164E-01 2.22061E-13-1.56989E-13
 -1       806 2.00138E+01 1.84765E-01-9.13642E-05 2.02598E-01-1.55721E-13-3.59067E-13
 -1       807 2.27334E+01-4.12667E+00 8.65366E-03 3.21829E+00 1.50607E-13 2.80713E-13
 -1       808 1.98228E+01 3.49563E-01-3.51581E-05-1.15129E-02 2.99832E-13 1.15965E-13
 -1       809 1.06636E+01 4.74802E-01 9.33648E-02-1.98446E+00-5.59093E-14 7.39638E-13
 -1       810 1.99331E+01 2.49851E-01-2.07484E-05-1.92779E-01-8.23408E-14 4.03273E-13
 -1       811 2.55625E+01 3.47963E+00-1.02274E-01 1.95344E+00-1.50820E-13-4.97154E-13
 -1       812 1.36950E+01-4.63401E-01 5.50099E-02-3.60651E+00-1.30642E-14-4.69881E-13
 -1       813 1.14476E+01 9.23902E-01 6.30616E-02-2.07074E-01 9.09992E-14-3.82222E-13
 -1       814 1.83189E+01-2.91921E+00 3.32355E-02 4.79793E+00 2.20594E-13 2.31221E-14
 -1       815 1.98780E+01 2.98395E-01-2.47814E-05-1.49493E-01 6.82005E-14-2.47534E-13
 -1       816 1.95903E+01 2.13983E-01 1.01484E-03 2.24531E+00 5.39254E-14-1.49143E-13
 -1       817 1.98100E+01-4.61879E-01 2.31413E-03 2.64732E+00-1.83902E-13 4.13146E-14
 -1       818 2.13747E+01-3.15127E+00 3.15221E-02 3.58188E+00-2.81596E-13 2.02555E-13
 -1       819 1.43910E+01-1.76455E+00 6.07174E-02-5.00295E+00 5.07290E-13 4.39419E-13
 -1       820 2.01133E+01 1.62171E-01 1.34253E-05-3.30204E-01 8.46269E-15-3.74501E-14
 -1       821 2.00396E+01 2.34724E-01 3.79617E-05-5.63192E-01 8.01091E-14-3.88227E-14
 -1       822 2.00624E+01 1.84042E-01 2.62486E-05-4.80179E-01 7.60216E-14-9.33888E-14
 -1       823 1.49553E+01-9.78524E-01 4.76700E-02 4.07231E+00-1.08280E-13 1.84337E-13
 -1       824 2.03061E+01 7.69698E-01-1.68571E-04-2.48970E-01-8.96446E-14-1.28396E-13
 -1       825 2.01476E+01 2.05517E-01 5.07893E-06-2.40263E-01 8.01049E-14-7.58313E-14
 -1       826 2.01893E+01 3.01911E-01-8.87003E-06-1.19923E-01 1.07995E-13-3.70522E-14
 -1       827 2.55697E+01-3.22589E+00-1.54800E-02 2.71556E-01 9.00903E-14 1.75266E-13
 -1       828 2.34370E+01-4.49479E+00 1.04256E-02-3.23811E+00 1.88437E-13-2.85700E-13
 -1       829 2.58454E+01-7.33013E-01-5.39111E-02-1.81786E+00-7.13405E-14 2.94863E-13
 -1       830 2.02897E+01 9.66773E-01-1.18464E-04 5.20908E-01 2.09668E-13 1.12632E-14
 -1       831 2.60840E+01-3.12686E+00-2.03290E-02-1.68425E-01-4.25953E-14-4.77493E-13
 -1       832 1.78222E+01-2.00332E+00 4.45677E-02-4.28613E+00-1.40306E-13-1.34235E-13
 -1       833 1.94042E+01-3.69333E+00 4.91747E-02-5.01929E+00 4.40276E-13-1.03119E-13
 -1       834 2.60745E+01 7.37695E-01-6.86907E-02 2.13146E+00-6.17961E-14-6.84531E-13
 -1       835 2.01375E+01 1.94553E+00-2.94661E-04 1.87872E-01 1.37734E-13-1.96689E-13
 -1       836 1.98395E+01 3.32880E-01-1.38362E-05-8.66058E-02 3.55244E-13-1.01444E-13
 -1       837 2.01245E+01 1.98566E+00-3.01696E-04 3.09398E-03 1.09122E-13-2.07111E-13
 -1       838 1.99680E+01 2.21839E-01 8.47929E-05-2.14119E-01 1.31842E-13 4.32124E-13
 -1       839 1.32732E+01-9.59900E-02 3.96437E-02-3.30554E+00 1.64945E-13 3.40509E-13
 -1       840 1.35364E+01 2.87937E-01 5.02790E-02 2.68018E+00-8.27918E-15 1.33253E-13
 -1       841 1.54740E+01-1.11322E+00 2.95979E-02 4.14786E+00 1.92589E-13 7.49401E-15
 -1       842 2.41900E+01 3.76699E+00-5.09317E-02 1.12494E+00-2.14193E-13-2.16356E-13
 -1       843 2.02473E+01 6.11711E-01 2.57583E-05 2.12478E-01 1.57319E-13 1.38712E-15
 -1       844 2.02268E+01 1.63085E+00 2.68820E-04-5.07475E-01-3.92068E-14-1.87786E-13
 -1       845 2.02302E+01 1.62105E+00 2.23368E-04 5.09746E-01 2.12922E-13-7.46388E-14
 -1       846 1.98643E+01 3.21240E-01 1.23641E-05 1.38028E-01 2.97982E-15-2.82085E-13
 -1       847 1.99116E+01 2.82788E-01 7.04272E-05 1.81984E-01 2.19805E-13-3.99815E-14
 -1       848 1.98310E+01 3.45862E-01-5.06035E-05 6.71081E-02 9.27818E-14 2.11880E-13
 -1       849 2.02166E+01 4.26293E-01-1.70091E-05 2.07390E-02 1.15320E-13 8.44730E-15
 -1       850 2.02723E+01 1.40830E+00 1.58757E-03-6.30286E-01-7.16870E-14-2.06743E-13
 -1       851 1.34273E+01 7.39977E-01 3.04897E-02-1.78117E+00 6.07474E-14-3.70623E-13
 -1       852 2.01761E+01 1.82456E+00 2.82696E-05 3.63285E-01 1.74494E-13-1.26646E-13
 -1       853 2.01701E+01 1.83332E+00-1.87724E-04-3.55912E-01 1.02280E-14-2.01165E-13
 -1       854 2.60000E+01-1.09668E+00-2.84568E-02 1.56842E+00-2.70704E-14-7.34832E-13
 -1       855 2.02798E+01 3.60128E-01-1.68014E-05 1.48945E-01-4.74514E-14-5.75486E-14
 -1       856 2.02257E+01 2.64063E-01-8.30141E-06 2.41856E-01-4.42535E-14-5.29210E-14
 -1       857 2.01627E+01 2.23021E-01-6.07606E-06 3.17224E-01-5.61555E-14-6.88389E-14
 -1       858 2.00938E+01 2.21929E-01-3.51639E-06 3.85762E-01 3.33227E-14-1.01052E-13
 -1       859 2.00205E+01 2.47915E-01-1.13661E-06 4.56432E-01 4.48534E-14-8.94262E-14
 -1       860 1.99441E+01 2.88868E-01 2.64361E-07 5.36430E-01 2.27817E-14-2.52892E-14
 -1       861 1.98667E+01 3.31989E-01 1.38626E-06 6.31332E-01-3.43846E-14-6.00654E-14
 -1       862 1.97924E+01 3.62330E-01 2.56745E-06 7.45403E-01-9.70514E-14-1.26397E-14
 -1       863 1.97295E+01 3.61133E-01 9.42454E-06 8.81676E-01-5.77941E-14-2.88140E-14
 -1       864 1.96932E+01 3.04449E-01 2.44049E-05 1.04168E+00-3.47039E-14-4.35468E-14
 -1       865 1.97085E+01 1.62233E-01 4.80850E-05 1.22452E+00-3.49811E-14-3.61480E-15
 -1       866 1.98156E+01-1.01473E-01 5.88250E-05 1.42384E+00-1.71153E-13 1.62656E-13
 -1       867 2.00754E+01-5.24048E-01 2.99261E-04 1.62034E+00 2.20716E-14 2.55314E-13
 -1       868 2.05690E+01-1.13004E+00 4.15465E-05 1.76791E+00 1.57394E-13 2.69170E-13
 -1       869 2.14230E+01-1.90475E+00-4.92836E-04 1.74900E+00 1.12800E-13 2.37580E-13
 -1       870 2.26132E+01-2.68469E+00-1.58400E-02 1.44554E+00 1.03508E-13 1.40157E-13
 -1       871 2.48065E+01-2.71358E+00-1.38408E-02 1.54354E-01 4.06738E-14-6.22417E-13
 -1       872 2.32849E+01-2.79959E+00-4.72283E-03-9.67542E-01-1.18514E-13-5.11759E-13
 -1       873 2.19515E+01-2.16663E+00 1.74228E-03-1.53082E+00 6.80640E-15-2.20819E-13
 -1       874 2.09743E+01-1.39688E+00 1.70836E-04-1.67423E+00 5.46042E-14-2.69189E-13
 -1       875 2.03442E+01-7.27009E-01 5.41951E-05-1.60309E+00 9.34298E-15-1.94662E-13
 -1       876 1.99820E+01-2.31491E-01 5.11148E-05-1.43742E+00-7.06249E-14 3.55654E-15
 -1       877 1.97997E+01 9.79811E-02 1.01808E-04-1.24403E+00-8.85282E-14 1.99518E-14
 -1       878 1.97291E+01 2.94263E-01 1.00343E-04-1.05277E+00 9.93201E-14 1.46119E-13
 -1       879 1.97232E+01 3.92659E-01 9.49181E-05-8.76038E-01-1.12878E-13 3.38638E-14
 -1       880 1.97511E+01 4.24094E-01 7.84350E-05-7.18589E-01 9.18017E-14-6.04382E-13
 -1       881 1.97935E+01 4.13308E-01 5.98058E-05-5.81545E-01 4.30137E-14-5.00609E-13
 -1       882 1.98394E+01 3.78437E-01 7.59168E-05-4.64424E-01 1.94653E-14-2.09827E-13
 -1       883 1.98814E+01 3.33204E-01 9.08250E-05-3.66576E-01-4.56476E-15 1.75965E-13
 -1       884 1.99185E+01 2.84714E-01-6.19751E-05-2.84288E-01 2.35439E-13 4.61107E-13
 -1       885 1.96910E+01 5.58548E-01 1.97262E-05-7.70519E-01-8.39116E-14 6.63451E-14
 -1       886 1.78298E+01-1.99523E+00 2.88694E-02-4.23136E+00 4.69751E-13 8.90724E-14
 -1       887 1.98227E+01 4.46306E-01 1.04938E-05-6.54235E-01-6.48888E-14-1.33104E-14
 -1       888 1.93109E+01 7.89139E-01 2.45871E-05-1.07777E+00-1.12291E-13 8.50447E-14
 -1       889 1.90456E+01 8.69899E-01-2.86582E-05-1.28081E+00 1.91827E-14 9.84957E-14
 -1       890 1.87250E+01 8.82583E-01-3.52602E-05-1.53427E+00-1.06231E-13 3.36001E-14
 -1       891 1.83590E+01 7.67763E-01-1.93582E-04-1.86841E+00-2.95460E-14 3.91443E-14
 -1       892 1.79947E+01 4.30936E-01 4.93554E-04-2.34123E+00-4.18227E-14 5.77623E-14
 -1       893 1.77321E+01-2.58491E-01 1.47109E-02-3.01943E+00-6.62838E-14-5.52216E-14
 -1       894 1.92443E+01 8.63213E-01 5.35322E-06 1.04607E+00-2.56453E-13 9.67720E-14
 -1       895 2.03191E+01 5.30322E-01 1.52397E-05 2.72397E-02-7.17348E-14-9.58014E-14
 -1       896 1.89773E+01 9.26323E-01-8.37249E-06 1.26943E+00-1.79467E-13 5.14346E-13
 -1       897 1.86509E+01 9.14983E-01-3.12078E-04 1.54718E+00-6.92611E-14 6.20097E-13
 -1       898 1.94556E+01 7.63969E-01 1.95800E-05 8.57950E-01-1.02637E-13 2.05178E-13
 -1       899 1.96174E+01 6.53019E-01 2.23532E-05 6.97399E-01 2.00758E-13 1.18846E-13
 -1       900 1.97382E+01 5.44557E-01 1.81649E-05 5.60389E-01 3.73589E-13-2.35906E-13
 -1       901 1.98267E+01 4.45827E-01 4.15737E-05 4.44454E-01 2.03257E-13-1.27414E-13
 -1       902 1.98891E+01 3.60369E-01-1.46567E-04 3.46636E-01 8.58661E-14-1.45836E-13
 -1       903 1.99342E+01 2.90675E-01 1.56965E-04 2.67027E-01 1.03456E-13 1.97243E-13
 -1       904 2.16780E+01-3.51498E+00 1.98877E-02-3.35396E+00 2.64305E-13-1.91357E-13
 -1       905 1.95235E+01 6.77607E-01 2.99418E-05-9.10199E-01-3.91886E-14 7.24897E-14
 -1       906 2.49735E+01 4.23766E+00-7.80158E-02-9.40070E-01-2.13782E-13-1.42985E-14
 -1       907 2.37646E+01-3.23529E+00 5.88099E-03 1.21666E+00 5.64526E-14 1.22088E-13
 -1       908 1.98615E+01 3.20990E-01 2.83014E-04-2.21177E-01 2.22808E-13 5.02468E-14
 -1       909 1.82901E+01 7.56113E-01-4.63864E-04 1.90668E+00-1.59524E-13 6.70741E-14
 -1       910 2.01362E+01 1.94804E+00-3.08373E-04-1.82145E-01 4.30234E-14-1.85115E-13
 -1       911 2.01509E+01 2.21478E-01 2.85056E-06-3.29935E-01 4.94183E-14-1.08631E-13
 -1       912 1.99276E+01 3.49995E-01 5.77870E-06-5.57394E-01 2.08591E-14-5.89462E-14
 -1       913 2.03331E+01 7.97957E-01-8.34773E-06-1.39834E-01-6.10027E-14-1.47872E-13
 -1       914 1.22827E+01 1.02125E+00 4.12218E-02 3.10720E-01-2.02527E-14 4.72903E-13
 -1       915 2.02089E+01 2.56609E-01-4.33304E-06-2.48615E-01 2.87720E-14-3.81708E-14
 -1       916 2.02598E+01 3.50128E-01 1.93639E-06-1.46255E-01 9.66150E-14-4.97037E-14
 -1       917 2.08229E+01-2.92906E+00 1.46427E-02 3.32153E+00 1.26101E-13 1.86874E-13
 -1       918 1.34684E+01 7.80149E-01 2.11678E-02 1.66003E+00 1.68696E-13-1.32615E-13
 -1       919 2.03062E+01 8.69420E-01-3.74453E-04 3.03397E-01 1.70421E-13-4.10442E-14
 -1       920 2.02967E+01 1.25443E+00-8.11026E-04-2.76220E-01-2.83763E-14-1.49733E-13
 -1       921 1.73339E+01-2.30597E-01 1.51424E-02 3.07303E+00-1.03321E-13-9.30939E-14
 -1       922 1.99636E+01 2.35258E-01 1.95688E-05 2.01196E-01 2.99081E-13 3.59093E-13
 -1       923 1.83696E+01-1.69626E+00 1.95800E-02 3.65192E+00 1.23744E-13 2.34656E-14
 -1       924 1.32856E+01 9.57837E-01 2.47735E-02-1.25198E+00 1.81910E-13 5.54373E-13
 -1       925 2.00865E+01 2.31075E-01 5.12686E-06-4.02199E-01 6.06739E-14-4.65501E-14
 -1       926 1.97532E+01 4.05738E-01-2.98539E-05-6.74271E-02 1.35455E-13-2.46867E-14
 -1       927 2.40847E+01-3.42548E+00-9.79893E-04-1.25918E+00 8.40519E-14-5.98590E-13
 -1       928 1.98337E+01 3.61053E-01-1.50662E-04 2.05945E-01 2.52496E-14-1.99492E-13
 -1       929 1.97751E+01 4.00174E-01-8.80550E-06 1.23998E-01 3.31576E-13 2.35648E-14
 -1       930 2.02619E+01 1.48528E+00-1.97813E-05 6.18219E-02 8.81542E-14-1.54125E-13
 -1       931 1.97465E+01 4.15383E-01-7.68409E-05 2.88696E-02 4.92852E-13 3.22349E-13
 -1       932 2.02885E+01 4.77239E-01-2.02852E-04-3.03646E-02 1.22849E-13-6.87819E-14
 -1       933 1.77910E+01 4.26661E-01 1.42066E-03 2.37543E+00-7.54683E-14-8.03563E-14
 -1       934 2.00136E+01 2.76226E-01 4.53974E-06-4.75397E-01 4.54296E-14-1.04434E-14
 -1       935 2.02752E+01 1.41125E+00-7.36390E-04 1.74376E-01 1.48254E-13-1.57363E-13
 -1       936 1.54311E+01 1.22392E-01 9.98509E-03 2.70855E+00 1.34934E-13 5.54839E-14
 -1       937 1.38285E+01 1.14753E+00 1.01701E-02 8.27387E-02 1.91371E-13-3.70389E-13
 -1       938 1.55900E+01 3.25592E-02 2.51246E-02-2.99107E+00-1.51875E-15-2.45503E-13
 -1       939 1.97935E+01 3.72744E-01 2.37057E-05-1.54409E-01 1.39766E-13-3.51461E-13
 -1       940 2.02216E+01 2.98586E-01-1.31229E-05 2.18565E-01-2.49688E-14-2.49556E-14
 -1       941 2.01336E+01 2.74358E-01-1.32980E-05 2.80004E-01-1.35962E-14 2.70552E-14
 -1       942 2.00314E+01 2.90720E-01-1.11836E-05 3.41029E-01 3.43246E-14 1.52799E-14
 -1       943 1.99168E+01 3.34350E-01-7.11736E-06 4.09015E-01 4.87013E-14-4.57165E-14
 -1       944 1.97906E+01 3.91913E-01-1.79556E-05 4.90698E-01 5.62673E-15-4.67162E-14
 -1       945 1.96544E+01 4.49315E-01-3.56886E-05 5.92433E-01-3.63113E-14 3.28058E-14
 -1       946 1.95119E+01 4.89625E-01-4.44416E-05 7.21126E-01-5.32473E-14 9.00483E-14
 -1       947 1.93708E+01 4.91449E-01-4.84476E-05 8.84405E-01-2.79716E-14 8.29375E-14
 -1       948 1.92461E+01 4.27483E-01-3.22208E-05 1.09126E+00-3.41066E-14 8.79945E-14
 -1       949 1.91641E+01 2.62530E-01 3.14803E-05 1.35204E+00 4.39983E-15 7.55106E-14
 -1       950 1.91706E+01-4.90154E-02-4.69373E-05 1.67535E+00 3.43971E-14 1.42531E-13
 -1       951 1.93464E+01-5.65116E-01 3.04053E-04 2.06251E+00 1.29551E-13 1.71849E-13
 -1       952 1.98150E+01-1.31372E+00 3.68793E-03 2.46506E+00 1.35714E-13 1.66967E-13
 -1       953 1.95804E+01 5.87994E-01-1.37994E-05-5.63817E-01-8.70700E-14-4.22232E-14
 -1       954 1.52849E+01 8.10132E-01 1.06038E-02 1.97041E+00-4.09989E-14 1.85572E-13
 -1       955 2.22352E+01-2.79969E+00-9.59078E-04-1.96789E+00 9.85453E-14-2.03493E-13
 -1       956 2.03463E+01-1.73425E+00-2.49850E-04-2.47779E+00 5.84576E-14-2.92847E-14
 -1       957 1.96540E+01-8.47823E-01 5.39264E-04-2.14182E+00 1.12811E-16 1.97729E-13
 -1       958 1.93368E+01-2.29718E-01 4.42362E-04-1.77081E+00-2.78516E-14 4.98894E-14
 -1       959 1.92324E+01 1.69710E-01 3.00194E-04-1.43719E+00-1.34516E-13-3.40881E-15
 -1       960 1.92475E+01 4.04099E-01 1.61612E-04-1.15636E+00-1.18721E-13-1.75225E-13
 -1       961 1.93237E+01 5.20800E-01 1.37816E-04-9.25369E-01-1.52547E-13-5.16474E-13
 -1       962 1.94260E+01 5.56996E-01 9.54850E-05-7.37022E-01 1.64673E-14-1.55759E-13
 -1       963 1.95338E+01 5.41969E-01 4.49181E-05-5.84032E-01 1.71718E-13 1.53650E-13
 -1       964 1.96356E+01 4.97456E-01 3.80077E-05-4.59670E-01 2.42354E-13 2.22227E-13
 -1       965 1.97241E+01 4.38938E-01-1.51904E-04-3.59434E-01 1.09142E-13 2.12209E-13
 -1       966 1.82536E+01 1.07772E+00-5.23677E-04-1.03544E+00-1.08982E-13-1.13356E-13
 -1       967 1.87108E+01 9.84332E-01-8.92603E-05-8.81280E-01 4.13259E-15-9.38429E-14
 -1       968 1.69355E+01 1.01535E+00-8.10994E-04-1.55816E+00-3.03295E-15-1.79156E-13
 -1       969 1.92353E+01 8.28039E-01-6.57996E-06 5.97718E-01 2.64982E-13-1.34988E-13
 -1       970 2.03393E+01 5.30712E-01-7.76419E-05 6.11914E-02-1.90100E-14-8.65206E-14
 -1       971 1.89577E+01 9.55109E-01-2.99272E-05 7.17645E-01-8.72971E-14 2.68709E-13
 -1       972 2.03217E+01 1.08855E+00-7.34698E-05 2.50841E-01 1.55184E-13-6.27834E-14
 -1       973 1.81352E+01 1.13907E+00-3.02460E-04 1.02968E+00-2.72971E-13 2.51790E-13
 -1       974 2.02609E+01 1.48678E+00-1.01245E-05-5.80750E-02 3.78650E-14-1.64677E-13
 -1       975 1.61308E+01-3.31995E-01 2.30784E-02-3.16249E+00 6.59915E-14 3.86548E-14
 -1       976 1.94474E+01 7.00818E-01-4.43004E-05 4.92423E-01 2.99563E-13-1.08064E-13
 -1       977 1.96085E+01 5.81535E-01-1.43117E-04 4.00469E-01 1.38204E-13 3.02084E-13
 -1       978 1.97294E+01 4.76338E-01 1.04643E-05 3.21487E-01 1.73980E-13 1.30701E-13
 -1       979 1.75303E+01 1.14956E+00 3.57530E-04 1.28023E+00-3.53757E-13 1.66851E-13
 -1       980 1.97618E+01 4.69477E-01-1.19457E-05-4.86420E-01-2.19272E-15 5.62173E-14
 -1       981 2.03015E+01 6.44587E-01-1.10393E-05 1.12784E-01 1.27878E-13-5.08367E-14
 -1       982 2.02193E+01 2.98959E-01 7.42855E-06-2.32263E-01 6.89076E-14-1.00381E-13
 -1       983 2.02866E+01 3.78456E-01-9.00725E-06-1.53418E-01 5.62403E-14-2.22806E-14
 -1       984 1.53196E+01 8.61895E-01 1.01979E-02-1.88376E+00 5.24001E-14-2.28894E-13
 -1       985 1.97569E+01 4.06830E-01 5.11116E-05-2.43502E-01 1.77171E-13-1.64716E-13
 -1       986 1.85976E+01 1.06698E+00-6.88170E-05 8.57411E-01-6.85974E-14 5.30377E-13
 -1       987 1.96835E+01 4.59694E-01 3.96657E-05-1.47134E-01-4.80918E-14 2.04498E-14
 -1       988 2.02923E+01 3.78385E-01 1.39819E-05 1.48483E-01-4.24432E-14-6.06571E-14
 -1       989 2.02771E+01 1.41260E+00 1.90406E-04-1.73379E-01 3.95983E-15-1.81641E-13
 -1       990 1.76692E+01 1.10230E+00-1.62334E-03-1.24944E+00-3.39015E-14-1.63313E-13
 -1       991 2.03571E+01 7.72758E-01 1.66544E-04-5.31772E-02-4.97203E-14-1.11080E-13
 -1       992 1.93544E+01 7.21196E-01-1.09968E-05-6.53367E-01-5.77366E-14-5.21289E-14
 -1       993 1.48528E+01 1.22289E+00 4.92434E-03 8.54964E-01 7.83922E-15 3.58266E-13
 -1       994 1.83626E+01-7.58330E-01 3.26422E-03-2.77502E+00 9.63596E-15 5.49898E-14
 -1       995 1.96501E+01 4.87812E-01 7.55242E-05-3.23702E-02 1.92011E-13-2.61630E-13
 -1       996 2.03390E+01 1.10443E+00 6.60743E-05 1.17231E-03 6.15805E-14-1.16048E-13
 -1       997 1.67189E+01 1.06380E+00 5.61125E-03 1.54567E+00-2.82833E-13 2.10398E-14
 -1       998 1.96252E+01 5.30718E-01 7.60955E-05 2.01857E-01 4.30656E-13 2.39505E-13
 -1       999 1.52515E+01 9.40348E-01 7.42188E-03 1.28761E+00 1.66383E-13-1.01666E-13
 -1      1000 1.90701E+01 8.58377E-01-3.33720E-05-7.57662E-01-1.04453E-13-5.33944E-14
 -1      1001 2.01342E+01 2.79611E-01 5.99892E-06-2.97455E-01 3.10004E-14-4.07270E-14
 -1      1002 2.03238E+01 4.99004E-01 1.72783E-04-6.87285E-02 8.39510E-14-3.16981E-14
 -1      1003 1.99096E+01 3.73534E-01-6.71202E-06-4.18720E-01 2.81408E-14 3.18409E-14
 -1      1004 2.03422E+01 1.07280E+00 3.47406E-04 5.99186E-02 8.16830E-14-1.06630E-13
 -1      1005 1.88684E+01 9.67047E-01-1.53811E-05 3.89092E-01 2.81515E-13 1.73675E-13
 -1      1006 1.81426E+01 1.12246E+00-4.29840E-04-5.12501E-01 9.61958E-17-3.60389E-16
 -1      1007 2.01835E+01 3.26472E-01-8.06822E-05 1.66292E-01-1.59993E-14-2.56003E-14
 -1      1008 2.00687E+01 3.24887E-01-7.00259E-05 2.11024E-01 6.67043E-15 1.35370E-14
 -1      1009 1.99332E+01 3.62766E-01-4.29709E-05 2.60276E-01 6.81793E-15 4.08157E-14
 -1      1010 1.97769E+01 4.27609E-01 1.28031E-05 3.20387E-01 3.20700E-14 2.06225E-14
 -1      1011 1.95999E+01 5.04323E-01-8.33282E-05 3.97284E-01 8.97237E-14 1.73360E-14
 -1      1012 1.94002E+01 5.80543E-01-1.37339E-04 4.99489E-01-5.25861E-14 1.80432E-14
 -1      1013 1.91794E+01 6.37522E-01-1.57908E-04 6.36258E-01-3.30745E-14 5.04155E-14
 -1      1014 1.89396E+01 6.53958E-01-2.18038E-04 8.20562E-01-6.94477E-14-7.26241E-14
 -1      1015 1.86888E+01 6.01880E-01-2.42835E-04 1.07025E+00-6.77959E-15-2.30063E-14
 -1      1016 1.84431E+01 4.44633E-01-2.27461E-04 1.41202E+00 2.07662E-14 3.47691E-14
 -1      1017 1.82456E+01 1.30774E-01-5.14705E-05 1.86976E+00 9.15130E-14 7.52712E-14
 -1      1018 1.81665E+01-4.17609E-01 1.12443E-03 2.49559E+00 1.17855E-13 6.29138E-14
 -1      1019 1.82802E+01-7.40757E-02-1.01641E-03-2.10103E+00-3.77197E-14-7.03798E-14
 -1      1020 1.84008E+01 3.50276E-01-7.84878E-05-1.58177E+00-1.53074E-13-1.78127E-13
 -1      1021 1.85968E+01 5.84782E-01-4.50348E-04-1.19445E+00-1.24616E-13-8.49611E-14
 -1      1022 1.88143E+01 6.95656E-01-1.25098E-04-9.05495E-01-2.39313E-13 2.83658E-13
 -1      1023 1.90273E+01 7.20846E-01-4.56167E-05-6.88926E-01-3.08579E-14 2.82793E-13
 -1      1024 1.92226E+01 6.91372E-01-2.02368E-04-5.24836E-01 3.34110E-13 2.31984E-14
 -1      1025 1.93943E+01 6.30842E-01-2.68846E-04-4.01239E-01 2.50386E-13 1.73522E-13
 -1      1026 1.95407E+01 5.55422E-01-1.48984E-04-3.06144E-01 2.09515E-14 1.03847E-13
 -1      1027 2.00319E+01 3.07656E-01 8.27489E-06-3.57400E-01 5.25099E-14-7.28076E-14
 -1      1028 1.93863E+01 7.02537E-01-1.92137E-04 2.88509E-01 5.21561E-15 3.46332E-13
 -1      1029 1.57313E+01 1.29799E+00 4.58383E-03-3.55127E-01 1.31550E-13-2.02722E-13
 -1      1030 1.53423E+01 7.51387E-01 1.05406E-03-1.74214E+00-1.72700E-14 3.63383E-13
 -1      1031 1.91617E+01 8.31740E-01-7.72407E-05 3.38638E-01 1.60104E-13 4.19270E-13
 -1      1032 2.02752E+01 3.81905E-01-4.75217E-05 1.20446E-01-1.94092E-14-2.98476E-14
 -1      1033 1.73327E+01 1.28676E+00-3.91132E-03 5.36164E-01-4.46200E-13 3.04598E-13
 -1      1034 1.67814E+01 3.27281E-01 4.93995E-03 2.10078E+00 5.65307E-14 1.10666E-13
 -1      1035 2.03650E+01 7.24459E-01 5.65209E-04-1.11542E-03 1.80898E-15-1.00931E-13
 -1      1036 1.96118E+01 5.11024E-01 2.39136E-05-2.17740E-01-5.10637E-14 2.41856E-14
 -1      1037 2.03439E+01 8.14428E-01 2.14319E-04 9.65218E-02 1.35877E-13-7.59961E-14
 -1      1038 1.75071E+01 1.21792E+00 5.35425E-04-5.57238E-01-2.76915E-14-4.56313E-14
 -1      1039 2.02800E+01 3.89250E-01-4.21274E-05-1.33549E-01 1.07194E-13-3.39661E-14
 -1      1040 2.03483E+01 9.65248E-01 8.30278E-04 8.93911E-02 1.29918E-13-1.06878E-13
 -1      1041 1.96165E+01 5.21360E-01-4.46933E-05 7.93213E-02 5.29904E-13 3.59161E-13
 -1      1042 2.03388E+01 5.04802E-01-4.02084E-04 6.56632E-02-1.91141E-14-5.81756E-14
 -1      1043 2.03434E+01 1.05100E+00-4.81985E-04-5.07762E-02 1.78255E-14-1.31515E-13
 -1      1044 1.95722E+01 5.77675E-01-9.14431E-05-3.47151E-01-2.49323E-14 7.84928E-14
 -1      1045 1.67217E+01 1.29556E+00 5.61030E-03-4.84089E-01 1.08381E-14-9.35407E-14
 -1      1046 1.86317E+01 9.96374E-01-2.13068E-04-4.70261E-01-4.84675E-14-8.43533E-14
 -1      1047 1.95154E+01 6.14140E-01-6.66326E-06 2.43063E-01 6.58452E-14 2.85597E-13
 -1      1048 2.03392E+01 5.21320E-01-2.47656E-04-6.67370E-02 5.32254E-14-8.76365E-14
 -1      1049 2.01922E+01 3.31174E-01-4.99784E-05-1.85033E-01 6.77081E-14-2.59957E-14
 -1      1050 1.93243E+01 7.10594E-01-8.01823E-05-3.88194E-01-3.46490E-14 1.05882E-14
 -1      1051 1.84878E+01 1.09662E+00-1.41194E-04 4.39240E-01-3.66730E-14 2.25329E-13
 -1      1052 1.69380E+01 2.83057E-01-2.10755E-03-2.16272E+00-4.81615E-14 1.00266E-13
 -1      1053 2.03704E+01 7.83245E-01 2.28607E-04-1.66330E-03 4.82524E-14-8.06695E-14
 -1      1054 1.95513E+01 5.56539E-01 8.54740E-06-8.60025E-02 6.98787E-16-6.72428E-13
 -1      1055 1.57220E+01 1.32304E+00 1.48355E-03-6.75389E-02-1.09611E-13 4.43834E-13
 -1      1056 1.79903E+01 1.20926E+00 1.89604E-04 4.87226E-01-2.33404E-13 3.06108E-13
 -1      1057 1.64957E+01 9.73137E-01-1.20813E-03 1.10859E+00 1.13233E-13-1.32685E-13
 -1      1058 1.90172E+01 8.53825E-01-1.28094E-04-4.29480E-01-8.14362E-14-3.31191E-14
 -1      1059 1.97744E+01 4.64939E-01-3.84587E-05-3.06966E-01-3.26196E-14 8.52068E-15
 -1      1060 2.03688E+01 7.84039E-01-7.80626E-05 6.26900E-03 7.93548E-14-8.37560E-14
 -1      1061 1.94462E+01 6.20605E-01 1.79789E-04-1.59289E-01 2.26473E-14-4.86342E-13
 -1      1062 1.99802E+01 3.75470E-01 6.39341E-05 1.09976E-01-1.26116E-14 2.26432E-14
 -1      1063 1.98141E+01 4.36482E-01 1.93175E-04 1.42473E-01-7.00241E-15-1.53374E-14
 -1      1064 1.96189E+01 5.23021E-01 5.27052E-04 1.89699E-01 4.93445E-14-3.90525E-14
 -1      1065 1.93868E+01 6.24296E-01 2.94380E-04 2.55252E-01 2.60106E-14-9.93751E-14
 -1      1066 1.91200E+01 7.22439E-01 2.82235E-04 3.47131E-01 9.87543E-15 1.54147E-15
 -1      1067 1.88088E+01 8.03856E-01 3.24148E-04 4.78581E-01-4.71063E-14 7.77529E-14
 -1      1068 1.84465E+01 8.47980E-01 2.32342E-04 6.65673E-01-3.58843E-14 1.27881E-13
 -1      1069 1.80297E+01 8.28777E-01 7.37901E-04 9.28590E-01-1.06897E-15 5.93091E-14
 -1      1070 1.75365E+01 7.21304E-01-2.51389E-03 1.30039E+00 1.06237E-13 7.14152E-14
 -1      1071 1.74694E+01 6.30645E-01 1.55328E-03-1.52099E+00-1.12674E-13 2.04846E-13
 -1      1072 1.79154E+01 8.19685E-01 3.41922E-04-1.08477E+00-1.65742E-13 1.22245E-13
 -1      1073 1.83178E+01 8.87398E-01 5.06548E-04-7.77988E-01-3.39373E-14-7.12556E-14
 -1      1074 1.86606E+01 8.80349E-01-7.28535E-05-5.54892E-01-6.00443E-14-3.22052E-14
 -1      1075 1.89444E+01 8.31030E-01 7.38322E-04-4.00628E-01 1.87564E-14 4.85660E-14
 -1      1076 1.91786E+01 7.51577E-01 2.55895E-05-2.89191E-01 1.74435E-13-2.59985E-13
 -1      1077 1.93286E+01 6.86784E-01 1.23582E-03-2.14443E-01 3.36816E-13-3.71255E-13
 -1      1078 1.87331E+01 9.29047E-01-2.95526E-04-1.01783E-01-1.59809E-14-2.42378E-13
 -1      1079 2.03280E+01 4.89756E-01 8.55185E-04-4.95593E-02 1.68899E-14-8.80192E-14
 -1      1080 2.03192E+01 4.68936E-01 4.62664E-04 3.87550E-02 2.80227E-15-1.84607E-14
 -1      1081 1.64628E+01 1.08144E+00 5.06422E-04-9.01054E-01-9.90228E-14 2.15618E-13
 -1      1082 2.03600E+01 7.02244E-01-4.25976E-04 3.84181E-03 7.45647E-14-8.96595E-14
 -1      1083 1.89168E+01 9.20860E-01 3.76300E-04 1.00819E-01 5.81661E-14 2.65606E-13
 -1      1084 1.99413E+01 3.79934E-01-1.48263E-05-2.68081E-01-6.75733E-15-1.45968E-14
 -1      1085 2.00793E+01 3.32196E-01-3.99862E-05-2.28370E-01 8.26892E-15-7.13026E-14
 -1      1086 1.76975E+01 1.16097E+00-3.09129E-04 4.23555E-02-1.95410E-14-7.75998E-14
 -1      1087 1.91959E+01 7.90397E-01 7.94085E-04 1.08458E-01 9.24406E-14 2.79136E-13
 -1      1088 2.01211E+01 3.51360E-01 1.14094E-04 8.43702E-02 3.19281E-14 5.10502E-14
 -1      1089 2.02347E+01 3.78150E-01 1.34239E-04 6.24515E-02-3.41641E-15 2.44018E-14
 -1      1090 1.82812E+01 1.05541E+00-1.92034E-04-4.67665E-02-5.51675E-14-2.31611E-13
 -1      1091 1.93626E+01 6.93168E-01 3.39039E-04 9.67709E-02-2.47052E-14 1.39325E-13
 -1      1092 1.71772E+01 1.16126E+00-2.14192E-03 3.65976E-01 5.16495E-14-7.61742E-14
 -1      1093 2.02495E+01 3.87439E-01-3.99997E-05-8.07481E-02 8.25060E-14-2.07969E-14
 -1      1094 1.85825E+01 1.03875E+00 8.91209E-04 7.89762E-02 3.04484E-14 2.10402E-13
 -1      1095 1.95073E+01 6.00940E-01 1.90390E-04 9.43444E-02 2.08919E-13 6.00870E-14
 -1      1096 1.93918E+01 6.59033E-01-8.75979E-05-1.40755E-01 2.84285E-14-8.58068E-14
 -1      1097 1.96383E+01 5.37178E-01 3.50707E-04-1.42266E-01-6.93220E-14-7.60909E-14
 -1      1098 1.69270E+01 1.22467E+00-3.99773E-04-3.84631E-01-2.89578E-13-1.34831E-14
 -1      1099 1.90951E+01 7.93525E-01-2.32408E-04-1.30632E-01-3.70414E-15-1.38937E-13
 -1      1100 1.76272E+01 1.20417E+00 2.10370E-03-2.14593E-01-2.53394E-13-2.01824E-13
 -1      1101 1.96918E+01 5.02076E-01-1.10313E-03-1.39849E-02 4.00317E-15 1.63232E-14
 -1      1102 1.86525E+01 9.69316E-01-2.17541E-03-1.92343E-01 4.12884E-14-2.70219E-13
 -1      1103 1.81628E+01 1.13087E+00 3.72577E-04-3.91397E-02-1.22828E-13-1.07856E-13
 -1      1104 1.94318E+01 6.41883E-01-7.05344E-05 1.25191E-02 8.13208E-14-3.79345E-13
 -1      1105 1.98348E+01 4.41928E-01 1.23070E-04-1.34608E-01-5.33908E-15 2.04980E-14
 -1      1106 2.01406E+01 3.54095E-01-3.29346E-05-1.03556E-01 6.96651E-14-5.20676E-15
 -1      1107 2.00025E+01 3.76326E-01-1.14046E-05-1.20770E-01-1.70391E-14-4.02481E-15
 -1      1108 2.03517E+01 5.86875E-01-1.91593E-03-1.21501E-02 5.49608E-14-8.52186E-14
 -1      1109 1.73649E+01 1.03347E+00-6.33808E-03-8.05684E-01-1.13271E-13 1.64382E-13
 -1      1110 1.82666E+01 1.05085E+00-9.06585E-04-3.06953E-01-1.80877E-13-7.90554E-14
 -1      1111 1.93396E+01 6.86182E-01-9.01785E-04-9.33234E-02 9.62160E-14-6.77531E-13
 -1      1112 2.79156E+01 9.07089E+00 2.32053E+00-6.68884E+00-3.85803E-14 8.72635E-13
 -1      1113 2.05257E+01 6.22058E+00 2.09511E-01-3.89974E+00-1.81799E-14-2.37727E-14
 -1      1114 1.94268E+01 5.85072E+00 7.56250E-02-2.88401E+00-1.08941E-14-3.70700E-13
 -1      1115 1.90288E+01 5.72689E+00 6.07882E-02-2.23071E+00-6.94930E-15-5.07679E-13
 -1      1116 1.88499E+01 5.67232E+00 5.78366E-02-1.69675E+00-3.23699E-15-5.55357E-13
 -1      1117 1.87612E+01 5.64508E+00 5.56714E-02-1.22961E+00-2.98372E-16-5.57686E-13
 -1      1118 1.87153E+01 5.63071E+00 5.37677E-02-8.00868E-01 1.15793E-15-5.40210E-13
 -1      1119 1.86930E+01 5.62363E+00 5.24522E-02-3.91046E-01 1.66360E-15-5.12648E-13
 -1      1120 1.86868E+01 5.62164E+00 5.20336E-02 8.28989E-03 3.59359E-15-4.88288E-13
 -1      1121 1.86942E+01 5.62405E+00 5.25874E-02 4.08066E-01 4.91881E-15-4.49595E-13
 -1      1122 1.87178E+01 5.63156E+00 5.40783E-02 8.19348E-01 6.34692E-15-3.99938E-13
 -1      1123 1.87654E+01 5.64655E+00 5.64256E-02 1.25088E+00 8.75515E-15-3.23561E-13
 -1      1124 1.88555E+01 5.67430E+00 5.87676E-02 1.72256E+00 1.03164E-14-2.08329E-13
 -1      1125 1.90343E+01 5.72855E+00 6.07987E-02 2.26409E+00 1.35586E-14-2.91225E-14
 -1      1126 1.94233E+01 5.84787E+00 6.95521E-02 2.92483E+00 1.49880E-14 2.62425E-13
 -1      1127 2.04315E+01 6.17540E+00 1.53144E-01 3.87454E+00 1.40166E-14 7.67539E-13
 -1      1128 2.51730E+01 7.97999E+00 1.42685E+00 5.83889E+00 1.63203E-14 1.68396E-12
 -1      1129 2.87547E+01 3.60917E+00 1.26756E+00-4.21051E+00-1.55459E-13 1.43041E-12
 -1      1130 2.01828E+01-1.77668E-01-6.15905E-01-1.09877E-01-5.19723E-14 1.07211E-12
 -1      1131 1.87925E+01-9.64774E-02-2.36265E-01 6.22892E-02-1.70818E-14 6.47147E-13
 -1      1132 1.84625E+01-4.83942E-02-5.98455E-02 4.02221E-02-1.01291E-14 3.15727E-13
 -1      1133 1.84134E+01-2.51786E-02-1.57459E-02 2.64695E-02-3.10862E-15 7.89958E-14
 -1      1134 1.85053E+01-1.39077E-02-5.86530E-03 1.87319E-02-9.40545E-15-7.50719E-14
 -1      1135 1.86689E+01-7.83166E-03-2.79968E-03 1.38175E-02-6.26148E-15-1.62481E-13
 -1      1136 1.88678E+01-4.50978E-03-1.30979E-03 1.04757E-02-3.65203E-15-2.63532E-13
 -1      1137 1.90834E+01-2.82343E-03-6.70713E-04 8.11434E-03-5.58716E-15-3.65838E-13
 -1      1138 1.93077E+01-2.17139E-03-7.48279E-04 6.46144E-03-3.65585E-15-5.30992E-13
 -1      1139 1.95397E+01-2.19656E-03-1.39752E-03 5.39844E-03-2.71159E-16-7.08195E-13
 -1      1140 1.97832E+01-2.64800E-03-2.44599E-03 4.88047E-03 2.25357E-14-5.90128E-13
 -1      1141 2.00449E+01-3.30932E-03-3.69683E-03 4.89829E-03 4.59994E-15-5.82608E-13
 -1      1142 2.03333E+01-3.95073E-03-4.90241E-03 5.45257E-03-6.55617E-15-5.68713E-13
 -1      1143 2.06562E+01-4.29021E-03-5.71853E-03 6.52539E-03-3.72077E-15-5.22721E-13
 -1      1144 2.10189E+01-3.96092E-03-5.65009E-03 8.03717E-03-4.47214E-14-6.95908E-13
 -1      1145 2.14204E+01-2.49350E-03-4.00571E-03 9.77832E-03-3.89239E-15-7.32005E-13
 -1      1146 2.18486E+01 6.62007E-04 9.70818E-05 1.13091E-02-1.32939E-15-6.35249E-13
 -1      1147 2.22747E+01 6.02730E-03 7.59066E-03 1.18371E-02 1.91611E-15-5.95260E-13
 -1      1148 2.26464E+01 1.38313E-02 1.90441E-02 1.01237E-02-2.38971E-14-6.54943E-13
 -1      1149 2.28850E+01 2.35286E-02 3.38413E-02 4.55309E-03-1.32424E-15-7.62410E-13
 -1      1150 2.28890E+01 3.31371E-02 4.90200E-02-6.41103E-03-3.08234E-14-6.64319E-13
 -1      1151 2.25545E+01 3.87552E-02 5.83351E-02-2.31302E-02 4.22089E-14-6.65117E-13
 -1      1152 2.18173E+01 3.49413E-02 5.30038E-02-4.31314E-02-2.42957E-14-6.35617E-13
 -1      1153 2.07138E+01 1.72494E-02 2.59450E-02-5.98631E-02 2.28979E-14-8.04981E-13
 -1      1154 1.94307E+01-1.33348E-02-2.10063E-02-6.40125E-02 1.50880E-14-5.80459E-13
 -1      1155 1.82926E+01-4.68776E-02-7.23733E-02-4.86534E-02 4.29127E-14-6.27408E-13
 -1      1156 1.76562E+01-6.80263E-02-1.04523E-01-1.53476E-02 2.26798E-14-9.03864E-13
 -1      1157 1.77452E+01-6.50610E-02-1.00002E-01 2.42202E-02-6.78797E-15-1.08565E-12
 -1      1158 1.85283E+01-3.95168E-02-6.11249E-02 5.41451E-02 3.89025E-14-9.82145E-13
 -1      1159 1.97354E+01-5.35171E-03-8.68343E-03 6.46066E-02-7.13657E-14-8.75050E-13
 -1      1160 2.10024E+01 2.26265E-02 3.43016E-02 5.65812E-02 3.07285E-14-7.90437E-13
 -1      1161 2.20320E+01 3.67521E-02 5.57931E-02 3.82945E-02-5.76622E-15-6.98289E-13
 -1      1162 2.26764E+01 3.77533E-02 5.67478E-02 1.86762E-02-3.39008E-15-8.89677E-13
 -1      1163 2.29292E+01 3.06535E-02 4.52057E-02 3.26715E-03 6.01897E-14-7.64639E-13
 -1      1164 2.28698E+01 2.06303E-02 2.95466E-02-6.26981E-03 4.29890E-14-3.73669E-13
 -1      1165 2.26053E+01 1.11305E-02 1.52071E-02-1.06966E-02 1.30405E-14-5.45437E-13
 -1      1166 2.22342E+01 3.73450E-03 4.48761E-03-1.16306E-02-2.65979E-14-6.30256E-13
 -1      1167 2.18306E+01-1.24961E-03-2.37502E-03-1.06098E-02-1.80665E-14-1.00841E-12
 -1      1168 2.14423E+01-4.15130E-03-6.09278E-03-8.74916E-03 1.81801E-14-1.07143E-12
 -1      1169 2.10955E+01-5.50757E-03-7.60745E-03-6.72726E-03-8.14980E-14-1.13327E-12
 -1      1170 2.08015E+01-5.84045E-03-7.75416E-03-4.89441E-03-3.85214E-14-1.70603E-12
 -1      1171 2.05617E+01-5.57204E-03-7.16262E-03-3.39035E-03-6.48184E-14-1.83931E-12
 -1      1172 2.03723E+01-5.01189E-03-6.27064E-03-2.23271E-03-3.25050E-14-1.54551E-12
 -1      1173 2.02274E+01-4.37259E-03-5.37471E-03-1.37037E-03-6.47117E-15-1.23217E-12
 -1      1174 2.01206E+01-3.78937E-03-4.67578E-03-7.05111E-04 1.08619E-14-8.18480E-13
 -1      1175 2.00469E+01-3.32674E-03-4.26110E-03-8.57165E-05 6.03765E-15-4.81008E-13
 -1      1176 2.00031E+01-2.89708E-03-3.88994E-03 7.18336E-04-1.99840E-14 2.32110E-14
 -1      1177 1.99886E+01-2.63970E-03-2.17294E-03 2.14031E-03-3.68566E-14-2.51985E-13
 -1      1178 1.99956E+01 1.57559E-03 3.63402E-03 1.46032E-03 1.12259E-13 4.28576E-14
 -1      1179 2.77363E+01 5.24816E-01 3.75414E-01 1.96401E+00-2.73323E-14 2.39786E-12
 -1      1180 2.00398E+01-6.62571E-02-5.73212E-01 1.29482E-01 7.61197E-15 2.10806E-12
 -1      1181 1.88659E+01-4.07402E-02-1.93150E-01 1.96218E-02 9.95471E-15 1.77745E-12
 -1      1182 1.84897E+01-2.16995E-02-5.07421E-02 1.82158E-03 8.10680E-15 1.56657E-12
 -1      1183 1.84239E+01-1.28802E-02-1.38447E-02-3.54098E-03 4.88975E-15 1.44342E-12
 -1      1184 1.85087E+01-8.13115E-03-5.41507E-03-4.79531E-03-4.35806E-15 1.36181E-12
 -1      1185 1.86683E+01-5.39691E-03-3.10487E-03-4.74643E-03-2.04713E-14 1.35660E-12
 -1      1186 1.88646E+01-3.88382E-03-2.08580E-03-4.18446E-03 1.92717E-16 1.29257E-12
 -1      1187 1.90787E+01-3.21580E-03-1.73033E-03-3.35810E-03 4.81703E-15 1.03475E-12
 -1      1188 1.93031E+01-3.19919E-03-2.03439E-03-2.38205E-03 8.55053E-15 9.10692E-13
 -1      1189 1.95381E+01-3.73061E-03-3.00411E-03-1.33117E-03 7.74454E-15 8.27624E-13
 -1      1190 1.97902E+01-4.75732E-03-4.63496E-03-2.69643E-04 9.78801E-15 9.32671E-13
 -1      1191 2.00707E+01-6.25000E-03-6.93692E-03 7.29517E-04 1.51677E-14 8.17965E-13
 -1      1192 2.03957E+01-8.17139E-03-9.92726E-03 1.55967E-03 6.26235E-15 7.61427E-13
 -1      1193 2.07853E+01-1.04256E-02-1.35832E-02 2.04345E-03 9.96913E-15 6.53901E-13
 -1      1194 2.12635E+01-1.27682E-02-1.77335E-02 1.87725E-03 1.74660E-14 4.62864E-13
 -1      1195 2.18560E+01-1.46508E-02-2.18385E-02 5.55804E-04-1.17940E-14 5.47824E-13
 -1      1196 2.25870E+01-1.49817E-02-2.45888E-02-2.70394E-03 1.90893E-14 3.48326E-13
 -1      1197 2.34700E+01-1.18327E-02-2.32766E-02-8.96000E-03 1.78330E-14 1.60462E-13
 -1      1198 2.44913E+01-2.30129E-03-1.31082E-02-1.92487E-02-1.36031E-14 4.01134E-13
 -1      1199 2.55812E+01 1.68671E-02 1.27322E-02-3.35593E-02 3.56430E-14 6.15771E-13
 -1      1200 2.65726E+01 4.67699E-02 6.01766E-02-4.85350E-02-7.00481E-15 8.50750E-13
 -1      1201 2.71625E+01 8.07792E-02 1.25383E-01-5.42525E-02-1.46810E-14 9.54545E-13
 -1      1202 2.69274E+01 9.86166E-02 1.80811E-01-3.36807E-02 6.54511E-15 9.27883E-13
 -1      1203 2.54866E+01 7.07448E-02 1.71421E-01 2.73230E-02-1.30625E-15 9.65811E-13
 -1      1204 2.28686E+01-1.23174E-02 4.97587E-02 1.15490E-01-6.28555E-14 1.26371E-12
 -1      1205 1.98848E+01-1.06400E-01-1.50703E-01 1.75359E-01 2.73054E-14 1.05191E-12
 -1      1206 1.79777E+01-1.36853E-01-2.97473E-01 1.45015E-01 1.67748E-14 5.32831E-13
 -1      1207 1.82622E+01-8.44864E-02-2.74648E-01 2.93302E-02-5.86666E-14 3.65846E-13
 -1      1208 2.05560E+01-4.62280E-03-1.10071E-01-9.19707E-02-1.52144E-14 3.62488E-13
 -1      1209 2.35584E+01 4.61118E-02 6.31092E-02-1.46489E-01 8.67579E-15 2.25681E-13
 -1      1210 2.59297E+01 5.55593E-02 1.44907E-01-1.28491E-01 3.92108E-14 6.63219E-14
 -1      1211 2.70649E+01 4.35870E-02 1.36921E-01-7.60259E-02-1.16339E-14 4.60285E-13
 -1      1212 2.70742E+01 2.58874E-02 8.96951E-02-2.68426E-02-2.66180E-14 5.67635E-13
 -1      1213 2.63690E+01 1.12305E-02 4.16508E-02 4.99455E-03-1.56828E-14 4.95718E-13
 -1      1214 2.53485E+01 1.60830E-03 8.73365E-03 2.01087E-02 2.12919E-14 1.56722E-13
 -1      1215 2.42817E+01-3.68794E-03-8.72941E-03 2.42949E-02 8.52254E-14-3.98109E-13
 -1      1216 2.33104E+01-6.03938E-03-1.56193E-02 2.28788E-02-2.08308E-14-9.72139E-14
 -1      1217 2.24901E+01-6.64230E-03-1.67136E-02 1.92803E-02-7.09795E-15 1.08566E-13
 -1      1218 2.18285E+01-6.32628E-03-1.51839E-02 1.52908E-02 5.35069E-14-3.16462E-13
 -1      1219 2.13108E+01-5.60088E-03-1.27692E-02 1.16916E-02 4.02981E-14-6.18025E-13
 -1      1220 2.09143E+01-4.75548E-03-1.02992E-02 8.73525E-03 7.31370E-15-4.37308E-13
 -1      1221 2.06158E+01-3.94683E-03-8.12021E-03 6.43458E-03 3.87678E-14-3.92693E-13
 -1      1222 2.03945E+01-3.25958E-03-6.35833E-03 4.71205E-03-2.36229E-14-1.30311E-13
 -1      1223 2.02335E+01-2.73945E-03-5.05846E-03 3.46260E-03-1.05515E-13 1.20833E-13
 -1      1224 2.01195E+01-2.40082E-03-4.24132E-03 2.56847E-03 4.43469E-14-4.68813E-13
 -1      1225 2.00436E+01-2.23253E-03-3.88108E-03 1.88135E-03 8.49682E-14-1.21621E-12
 -1      1226 2.00001E+01-2.03758E-03-3.59362E-03 1.08740E-03 7.95128E-14-1.56638E-12
 -1      1227 1.99869E+01-8.68743E-04-1.66716E-03-4.48358E-04 6.18038E-14-1.40284E-12
 -1      1228 1.99959E+01 1.41168E-03 3.97614E-03-1.42914E-03 5.99965E-14-7.20855E-13
 -1      1229 2.00011E+01-4.26699E-03 3.62000E-03-1.49184E-03-9.12976E-13-2.01759E-13
 -1      1230 1.99979E+01-1.21265E-02-2.28885E-03-1.97894E-03-1.31934E-12-1.25606E-13
 -1      1231 1.99976E+01 4.04226E-03-3.57437E-03 4.89103E-05-5.57027E-13 9.24414E-14
 -1      1232 1.99984E+01 4.62742E-02-2.42045E-03 1.31558E-03-1.86041E-13 1.52240E-13
 -1      1233 1.99996E+01 1.04300E-01-5.62468E-04 1.88262E-03 4.90863E-13-5.83833E-14
 -1      1234 2.00008E+01 1.65064E-01 1.21315E-03 1.87944E-03-5.02382E-13-1.20666E-13
 -1      1235 2.00018E+01 2.17446E-01 2.59161E-03 1.49210E-03-1.10773E-12-1.16489E-13
 -1      1236 2.00024E+01 2.52666E-01 3.45220E-03 8.06307E-04-5.37016E-13-1.06833E-13
 -1      1237 2.00026E+01 2.64444E-01 3.70123E-03-5.09592E-06-6.66669E-13-2.02292E-14
 -1      1238 2.00024E+01 2.51119E-01 3.33927E-03-7.99966E-04-1.10274E-12 1.30077E-13
 -1      1239 2.00017E+01 2.15129E-01 2.41816E-03-1.44168E-03-1.11665E-12-1.76823E-13
 -1      1240 2.00007E+01 1.63118E-01 1.06832E-03-1.81168E-03-1.42018E-12-6.15995E-15
 -1      1241 1.99996E+01 1.03746E-01-5.86614E-04-1.78417E-03-1.12947E-12-1.74671E-14
 -1      1242 1.99984E+01 4.73319E-02-2.31445E-03-1.28329E-03-5.28552E-13-1.24717E-13
 -1      1243 1.99978E+01 5.36483E-03-3.51149E-03-1.64604E-04-2.81728E-13 7.90629E-14
 -1      1244 1.99976E+01-9.22855E-03-1.79722E-03 3.00686E-03-4.89673E-13-5.17154E-14
 -1      1245 2.00011E+01-4.62201E-03 3.31233E-03 1.68446E-03-1.74052E-13 5.87180E-14
 -1      1246-1.21556E+00-2.40618E+01-3.74678E+00-2.32100E+00 1.04272E-12 1.43510E-13
 -1      1247-1.95514E+00-1.60297E+01-3.22592E+00-4.42463E+00 1.40732E-12 5.68989E-13
 -1      1248-2.05020E-03-3.37760E+00-2.03857E+00-6.10672E-01 2.59281E-12 1.63769E-12
 -1      1249 8.81727E+00 7.10551E+00-4.68679E-01 7.88988E+00 2.81908E-12 2.65965E-12
 -1      1250 2.56598E+01 1.08261E+01 1.31027E+00 1.59570E+01 1.73839E-12 2.46847E-12
 -1      1251 4.73762E+01 7.90513E+00 3.00941E+00 1.77451E+01 8.06077E-13 1.83897E-12
 -1      1252 6.43299E+01 3.22389E+00 4.20148E+00 1.02976E+01 2.09957E-13 7.09988E-13
 -1      1253 6.85513E+01 1.81533E+00 4.46550E+00-2.95510E+00 2.05537E-13-1.05665E-12
 -1      1254 5.75356E+01 5.35635E+00 3.75628E+00-1.47181E+01 8.29364E-13-2.81508E-12
 -1      1255 3.75159E+01 9.96893E+00 2.31720E+00-1.81189E+01 1.81821E-12-3.27427E-12
 -1      1256 1.73249E+01 1.01743E+01 5.17618E-01-1.28896E+01 2.49734E-12-2.97518E-12
 -1      1257 3.63781E+00 3.11194E+00-1.20972E+00-3.61566E+00 2.33324E-12-1.93667E-12
 -1      1258-1.54658E+00-9.20756E+00-2.65087E+00 3.11757E+00 1.18261E-12-6.73350E-13
 -1      1259-1.68124E+00-2.09012E+01-3.59752E+00 3.83501E+00-1.27898E-13-5.72875E-14
 -1      1260-1.15979E+00-2.50002E+01-3.80803E+00-1.17468E-02-1.67574E-12-1.32790E-13
 -1      1261-1.45970E+00-1.98936E+01-3.44473E+00-3.71197E+00-1.98430E-12-4.53804E-13
 -1      1262-9.74431E-01-7.22679E+00-2.31274E+00-2.02460E+00-2.04192E-12-1.07214E-12
 -1      1263 5.14220E+00 4.85119E+00-8.42977E-01 5.18060E+00-2.02771E-12-1.54987E-12
 -1      1264 1.96574E+01 1.09128E+01 9.01671E-01 1.40553E+01-1.42331E-12-1.72751E-12
 -1      1265 3.99570E+01 9.54595E+00 2.57195E+00 1.81571E+01-8.06022E-13-1.41154E-12
 -1      1266 5.81098E+01 4.68863E+00 3.68048E+00 1.27765E+01-2.80415E-13-6.08180E-13
 -1      1267 6.65358E+01 1.65152E+00 4.15850E+00 5.94382E-01-9.72833E-14 6.28581E-13
 -1      1268 6.01837E+01 3.71661E+00 3.71537E+00-1.17630E+01-4.87610E-13 1.87095E-12
 -1      1269 4.37491E+01 8.60287E+00 2.72160E+00-1.79625E+01-1.16196E-12 2.60614E-12
 -1      1270 2.41255E+01 1.12574E+01 1.30596E+00-1.57521E+01-2.09521E-12 2.86993E-12
 -1      1271 8.31479E+00 7.50743E+00-3.26776E-01-7.82118E+00-2.87792E-12 2.58171E-12
 -1      1272 1.22114E-01-2.79538E+00-1.85165E+00 3.27504E-01-3.27161E-12 1.94444E-12
 -1      1273-1.68641E+00-1.51950E+01-3.01651E+00 3.95616E+00-1.99107E-12 8.01914E-13
 -1      1274-1.10543E+00-2.37830E+01-3.69230E+00 2.05836E+00 9.04832E-15 1.98175E-13
 -1      1275 2.22275E+01 1.83628E+00-7.24917E-01-2.78729E+00-5.93414E-14 6.53810E-13
 -1      1276 2.03421E+01 4.68633E+00-4.83524E-02-3.30228E+00-1.27939E-13-1.87836E-13
 -1      1277 2.08416E+01 4.80455E+00-1.13299E-01-4.15551E+00-1.74111E-13-5.76622E-15
 -1      1278 1.95272E+01 4.99171E+00-1.94842E-02-2.64922E+00-1.06283E-13-4.32598E-13
 -1      1279 1.98195E+01 5.08687E+00 3.99350E-04-3.04038E+00-1.30201E-13-3.28827E-13
 -1      1280 2.05120E+01 3.94986E+00-2.58178E-02-3.06881E+00-2.16143E-13-1.55875E-13
 -1      1281 1.91891E+01 5.08564E+00-3.42159E-03-2.06507E+00-7.53373E-14-5.34045E-13
 -1      1282 1.93334E+01 5.13956E+00 1.07494E-02-2.35801E+00-9.43100E-14-4.95014E-13
 -1      1283 1.97515E+01 4.36546E+00-2.43763E-02-2.48251E+00-1.64480E-13-3.55681E-13
 -1      1284 1.90208E+01 5.13451E+00 3.32125E-03-1.55881E+00-4.48148E-14-5.62692E-13
 -1      1285 1.90956E+01 5.16323E+00 1.27280E-02-1.80878E+00-5.33271E-14-5.53640E-13
 -1      1286 1.93985E+01 4.55751E+00-1.98986E-02-1.92496E+00-1.07755E-13-4.43607E-13
 -1      1287 1.89311E+01 5.16647E+00 6.50579E-03-1.11189E+00-7.92508E-15-5.55278E-13
 -1      1288 1.89718E+01 5.18228E+00 1.28208E-02-1.33285E+00-2.23111E-14-5.57705E-13
 -1      1289 1.92183E+01 4.66724E+00-1.59569E-02-1.43775E+00-6.10375E-14-4.59584E-13
 -1      1290 1.88821E+01 5.18775E+00 8.14216E-03-6.90203E-01 1.61256E-14-5.35370E-13
 -1      1291 1.89040E+01 5.19629E+00 1.20459E-02-8.99587E-01 7.52523E-15-5.50008E-13
 -1      1292 1.91185E+01 4.73520E+00-1.38548E-02-9.98746E-01-1.21994E-15-4.60257E-13
 -1      1293 1.88594E+01 5.20058E+00 9.24186E-03-2.87601E-01 4.85227E-14-5.08982E-13
 -1      1294 1.88688E+01 5.20427E+00 1.10845E-02-4.88637E-01 3.71513E-14-5.21310E-13
 -1      1295 1.90647E+01 4.77594E+00-1.27471E-02-5.85211E-01 4.10318E-14-4.35835E-13
 -1      1296 1.88560E+01 5.20581E+00 1.02024E-02 1.07451E-01 7.12956E-14-4.78308E-13
 -1      1297 1.88556E+01 5.20565E+00 1.01256E-02-9.10587E-02 6.39658E-14-4.95926E-13
 -1      1298 1.90414E+01 4.79493E+00-1.22861E-02-1.87966E-01 9.14584E-14-4.07889E-13
 -1      1299 1.88708E+01 5.20393E+00 1.11901E-02 5.05655E-01 9.80197E-14-4.41001E-13
 -1      1300 1.88606E+01 5.19993E+00 9.17759E-03 3.04170E-01 8.67532E-14-4.62642E-13
 -1      1301 1.90424E+01 4.79428E+00-1.23029E-02 2.04275E-01 1.30932E-13-3.81660E-13
 -1      1302 1.89077E+01 5.19514E+00 1.21847E-02 9.18186E-01 1.19021E-13-3.91390E-13
 -1      1303 1.88849E+01 5.18639E+00 8.08957E-03 7.07782E-01 1.09767E-13-4.22213E-13
 -1      1304 1.90677E+01 4.77383E+00-1.27948E-02 6.02242E-01 1.70144E-13-3.48558E-13
 -1      1305 1.89765E+01 5.18038E+00 1.30468E-02 1.35043E+00 1.39557E-13-3.07053E-13
 -1      1306 1.89350E+01 5.16416E+00 6.43636E-03 1.12793E+00 1.27693E-13-3.58158E-13
 -1      1307 1.91234E+01 4.73148E+00-1.38260E-02 1.01372E+00 2.00489E-13-2.94629E-13
 -1      1308 1.91039E+01 5.15951E+00 1.30129E-02 1.83490E+00 1.68235E-13-1.84686E-13
 -1      1309 1.90273E+01 5.13003E+00 3.19147E-03 1.58213E+00 1.56508E-13-2.55627E-13
 -1      1310 1.92255E+01 4.66047E+00-1.59882E-02 1.45581E+00 2.41794E-13-2.00399E-13
 -1      1311 1.93444E+01 5.13332E+00 1.03618E-02 2.39240E+00 1.93089E-13 6.52256E-15
 -1      1312 1.91987E+01 5.07752E+00-4.24964E-03 2.09494E+00 1.76061E-13-1.07563E-13
 -1      1313 1.94124E+01 4.54498E+00-1.98399E-02 1.95127E+00 2.76210E-13-7.50962E-14
 -1      1314 1.98445E+01 5.09602E+00 6.18595E-03 3.07898E+00 1.95677E-13 3.25899E-13
 -1      1315 1.95387E+01 4.98287E+00-2.03252E-02 2.69153E+00 1.81313E-13 1.37952E-13
 -1      1316 1.97728E+01 4.34592E+00-2.44325E-02 2.52149E+00 2.96114E-13 1.44482E-13
 -1      1317 2.10767E+01 4.90078E+00 8.25668E-03 4.04856E+00 1.48132E-13 8.54317E-13
 -1      1318 2.03160E+01 4.72980E+00-4.77047E-02 3.41167E+00 1.50699E-13 5.38666E-13
 -1      1319 2.05497E+01 3.91304E+00-2.23221E-02 3.17234E+00 2.76612E-13 4.76119E-13
 -1      1320 2.71529E+01 3.19985E+00 9.26609E-01 4.57559E+00 4.78367E-14 1.73395E-12
 -1      1321 2.19864E+01 3.51802E+00-1.81597E-01 3.88008E+00 5.86753E-14 1.13851E-12
 -1      1322 2.20822E+01 2.55898E+00-3.26340E-02 3.45115E+00 2.29185E-13 9.51017E-13
 -1      1323 2.13854E+01 3.59428E-01-7.62708E-01 1.18241E+00 1.06491E-13 1.71468E-12
 -1      1324 2.19613E+01 1.31401E-01-4.00542E-01-1.28331E+00-1.49603E-13 7.21645E-13
 -1      1325 2.06411E+01 3.06486E-01-1.64632E-01-8.03900E-01-1.37688E-13 5.45036E-13
 -1      1326 2.00458E+01 1.53501E-01-7.33908E-02-4.00386E-01-1.02651E-13 4.73054E-13
 -1      1327 1.95780E+01 9.13524E-02-1.48229E-02-3.28199E-01-9.69745E-14 3.20091E-13
 -1      1328 2.09433E+01 3.68843E-01-1.04234E-01-1.27005E+00-2.29539E-13 2.33154E-13
 -1      1329 1.92235E+01 6.47761E-02 3.12351E-03-1.33086E-01-9.38728E-14 2.62131E-13
 -1      1330 1.90719E+01 4.17071E-02 1.33187E-02-1.15113E-01-8.04183E-14 1.31291E-13
 -1      1331 1.98977E+01 1.34151E-01-3.52238E-02-4.99736E-01-1.77892E-13 1.25632E-13
 -1      1332 1.89157E+01 3.20778E-02 1.33335E-02-2.44547E-02-5.83891E-14 6.18325E-14
 -1      1333 1.89005E+01 2.01278E-02 1.11824E-02-1.47643E-02-6.88434E-14-2.50876E-14
 -1      1334 1.94273E+01 5.61638E-02-8.67696E-03-1.63789E-01-1.55993E-13 2.97887E-14
 -1      1335 1.88506E+01 1.69030E-02 8.88713E-03 3.07522E-02-3.22015E-14-4.26985E-14
 -1      1336 1.89000E+01 1.02018E-02 6.59498E-03 3.58777E-02-3.07037E-14-9.52537E-14
 -1      1337 1.92287E+01 2.56487E-02-3.75485E-03-1.31623E-03-9.14433E-14-6.08376E-14
 -1      1338 1.89093E+01 9.18045E-03 4.80019E-03 5.98377E-02-3.53205E-14-1.19843E-13
 -1      1339 1.89907E+01 5.10684E-03 3.83582E-03 6.24560E-02-3.25642E-14-1.60110E-13
 -1      1340 1.91872E+01 1.20777E-02-2.60088E-03 8.30040E-02-6.64902E-14-9.61414E-14
 -1      1341 1.90339E+01 5.06060E-03 2.58641E-03 7.52074E-02-2.28561E-14-1.62558E-13
 -1      1342 1.91314E+01 2.52820E-03 2.45092E-03 7.64971E-02-1.88535E-14-2.18539E-13
 -1      1343 1.92361E+01 5.49327E-03-1.85782E-03 1.27982E-01-4.34229E-14-1.31494E-13
 -1      1344 1.91946E+01 2.99793E-03 1.48632E-03 8.35697E-02-1.81347E-14-2.08378E-13
 -1      1345 1.93003E+01 1.45426E-03 1.72368E-03 8.42746E-02-2.80863E-14-2.64736E-13
 -1      1346 1.93380E+01 2.44557E-03-1.27950E-03 1.52514E-01-5.65207E-14-1.44050E-13
 -1      1347 1.93764E+01 2.23961E-03 8.96981E-04 8.90096E-02-6.97184E-14-2.73143E-13
 -1      1348 1.94874E+01 1.35673E-03 1.29374E-03 8.96375E-02-7.69548E-14-3.57696E-13
 -1      1349 1.94726E+01 1.50805E-03-9.45137E-04 1.67252E-01-7.76259E-14-1.38163E-13
 -1      1350 1.95732E+01 2.35500E-03 5.34608E-04 9.42028E-02-5.30013E-14-4.00840E-13
 -1      1351 1.96898E+01 1.90322E-03 1.00715E-03 9.51079E-02-1.05684E-14-4.52840E-13
 -1      1352 1.96298E+01 1.94077E-03-8.54680E-04 1.78842E-01-9.90400E-14-1.73499E-13
 -1      1353 1.97847E+01 3.05156E-03 2.73147E-04 1.00923E-01 3.96286E-14-4.63721E-13
 -1      1354 1.99091E+01 2.83831E-03 7.90527E-04 1.02341E-01 2.33301E-14-4.12369E-13
 -1      1355 1.98058E+01 3.27617E-03-9.56381E-04 1.91629E-01-1.26706E-14-2.27068E-13
 -1      1356 2.00141E+01 4.08178E-03 4.84296E-05 1.10231E-01-2.73129E-14-4.37751E-13
 -1      1357 2.01498E+01 3.91538E-03 5.97345E-04 1.12285E-01-1.94433E-14-4.53762E-13
 -1      1358 2.00008E+01 5.13443E-03-1.18455E-03 2.08347E-01-2.49821E-14-3.30197E-13
 -1      1359 2.02666E+01 5.18147E-03-1.78436E-04 1.22487E-01 2.20460E-14-4.43089E-13
 -1      1360 2.04173E+01 4.84497E-03 3.91115E-04 1.25167E-01 3.68135E-15-4.32072E-13
 -1      1361 2.02176E+01 7.11569E-03-1.46735E-03 2.30307E-01-5.38556E-15-3.67379E-13
 -1      1362 2.05477E+01 6.01594E-03-4.29416E-04 1.37201E-01 1.72342E-14-4.31164E-13
 -1      1363 2.07163E+01 5.24634E-03 1.44287E-04 1.40320E-01-2.30719E-14-4.51081E-13
 -1      1364 2.04597E+01 8.71066E-03-1.71957E-03 2.57262E-01 4.66370E-15-3.07604E-13
 -1      1365 2.08610E+01 6.12706E-03-7.04226E-04 1.52764E-01-5.99512E-14-4.01337E-13
 -1      1366 2.10481E+01 4.60391E-03-1.53187E-04 1.55882E-01-6.28193E-14-4.81183E-13
 -1      1367 2.07296E+01 9.21218E-03-1.82998E-03 2.86988E-01-4.97114E-14-3.02684E-13
 -1      1368 2.12057E+01 4.88867E-03-9.65280E-04 1.66042E-01-3.78822E-14-4.80013E-13
 -1      1369 2.14077E+01 2.24583E-03-4.76093E-04 1.68366E-01-3.08139E-14-5.15539E-13
 -1      1370 2.10269E+01 7.63663E-03-1.64759E-03 3.14627E-01-5.59140E-14-2.34364E-13
 -1      1371 2.15730E+01 1.49870E-03-1.11544E-03 1.71937E-01-8.25609E-15-5.52541E-13
 -1      1372 2.17795E+01-2.61269E-03-7.39503E-04 1.72222E-01 2.24336E-14-4.98719E-13
 -1      1373 2.13453E+01 2.69770E-03-9.72132E-04 3.31883E-01-1.30108E-14-3.25492E-13
 -1      1374 2.19418E+01-4.92979E-03-9.78541E-04 1.63108E-01 2.04450E-14-5.16344E-13
 -1      1375 2.21330E+01-1.06818E-02-7.79380E-04 1.59604E-01-1.16203E-14-4.76335E-13
 -1      1376 2.16700E+01-7.06854E-03 4.38843E-04 3.26376E-01 2.36565E-14-3.99212E-13
 -1      1377 2.22748E+01-1.50701E-02-3.07872E-04 1.30303E-01-2.77244E-14-4.92065E-13
 -1      1378 2.24191E+01-2.21518E-02-3.68329E-04 1.20896E-01-7.30275E-14-5.53207E-13
 -1      1379 2.19741E+01-2.28540E-02 2.82083E-03 2.81829E-01-5.75479E-14-4.38458E-13
 -1      1380 2.25156E+01-2.87428E-02 1.12940E-03 6.40733E-02 9.90874E-15-5.70975E-13
 -1      1381 2.25703E+01-3.59055E-02 6.82664E-04 4.68212E-02-2.84972E-14-5.88723E-13
 -1      1382 2.22169E+01-4.45850E-02 6.27178E-03 1.80270E-01-6.22562E-14-3.64399E-13
 -1      1383 2.25914E+01-4.39110E-02 3.34097E-03-4.11914E-02-3.63260E-14-5.57658E-13
 -1      1384 2.25089E+01-4.85194E-02 2.31429E-03-6.68903E-02 1.46480E-14-5.46896E-13
 -1      1385 2.23446E+01-6.93140E-02 1.04976E-02 7.93269E-03-6.22766E-15-4.91909E-13
 -1      1386 2.24250E+01-5.56065E-02 5.81684E-03-1.80495E-01 5.79415E-14-5.91664E-13
 -1      1387 2.21676E+01-5.36622E-02 3.92949E-03-2.12073E-01 2.82344E-14-5.22781E-13
 -1      1388 2.22975E+01-8.94815E-02 1.44693E-02-2.33956E-01 3.21713E-14-5.13873E-13
 -1      1389 2.19619E+01-5.58789E-02 7.28350E-03-3.30319E-01 1.02453E-14-5.13697E-13
 -1      1390 2.15253E+01-4.33171E-02 4.31140E-03-3.60271E-01 1.70567E-14-5.84685E-13
 -1      1391 2.20274E+01-9.25594E-02 1.61970E-02-5.14884E-01 1.70402E-14-4.51048E-13
 -1      1392 2.12097E+01-3.65858E-02 6.11485E-03-4.45316E-01 5.38914E-15-4.70492E-13
 -1      1393 2.06479E+01-1.23322E-02 2.13253E-03-4.61456E-01-8.86010E-15-4.59584E-13
 -1      1394 2.15254E+01-6.52560E-02 1.30163E-02-7.64780E-01 1.81751E-14-2.95195E-13
 -1      1395 2.02772E+01 3.99030E-03 1.47811E-03-4.68826E-01 1.86730E-14-5.01967E-13
 -1      1396 1.97102E+01 3.46533E-02-2.79504E-03-4.59031E-01-7.58595E-15-4.14727E-13
 -1      1397 2.08530E+01-3.09094E-03 3.23394E-03-8.82845E-01 9.82938E-16-2.81344E-13
 -1      1398 1.93796E+01 5.46584E-02-5.18011E-03-3.61665E-01-8.41081E-14-4.52735E-13
 -1      1399 1.89654E+01 8.02368E-02-8.46605E-03-3.22340E-01-6.27796E-14-5.60472E-13
 -1      1400 2.01577E+01 7.90167E-02-1.14774E-02-7.78598E-01-8.65072E-14-3.32066E-13
 -1      1401 1.87798E+01 9.35266E-02-1.04408E-02-1.35026E-01-3.73711E-14-6.06662E-13
 -1      1402 1.86522E+01 1.01994E-01-1.14946E-02-7.66795E-02-5.47618E-14-7.04068E-13
 -1      1403 1.96421E+01 1.48796E-01-2.47549E-02-4.33859E-01-1.25722E-13-5.00632E-13
 -1      1404 1.86784E+01 1.00132E-01-1.11513E-02 1.40776E-01 2.41656E-14-7.11294E-13
 -1      1405 1.88818E+01 8.68969E-02-9.48701E-03 1.96464E-01 3.08208E-14-7.45431E-13
 -1      1406 1.94821E+01 1.71726E-01-2.93175E-02 6.08396E-02-2.99621E-14-5.60704E-13
 -1      1407 1.91104E+01 7.09909E-02-7.12909E-03 3.66900E-01 5.29542E-14-7.46205E-13
 -1      1408 1.95754E+01 4.29297E-02-3.43417E-03 3.99722E-01 3.85265E-14-6.39551E-13
 -1      1409 1.97377E+01 1.35905E-01-2.19504E-02 5.34525E-01 7.33354E-14-4.19941E-13
 -1      1410 1.99260E+01 2.28301E-02-1.33723E-03 4.71904E-01-5.56211E-14-6.02678E-13
 -1      1411 2.05061E+01-7.16160E-03 2.94783E-03 4.74737E-01-3.76791E-14-5.79869E-13
 -1      1412 2.03156E+01 5.94478E-02-7.65183E-03 8.27033E-01 3.44425E-14-4.61013E-13
 -1      1413 2.08718E+01-2.13918E-02 2.96717E-03 4.45588E-01 1.76135E-14-6.06234E-13
 -1      1414 2.14134E+01-4.29915E-02 6.74322E-03 4.25032E-01 5.01569E-14-4.78576E-13
 -1      1415 2.10241E+01-2.04806E-02 6.15056E-03 8.73557E-01-5.86206E-14-3.39995E-13
 -1      1416 2.17075E+01-4.72843E-02 4.42987E-03 3.28570E-01-2.10214E-14-4.97116E-13
 -1      1417 2.21057E+01-5.69987E-02 7.14297E-03 2.97426E-01-3.13707E-14-5.44936E-13
 -1      1418 2.16684E+01-7.46110E-02 1.42836E-02 7.15646E-01-4.87423E-14-3.43964E-13
 -1      1419 2.22845E+01-5.31901E-02 3.61763E-03 1.78196E-01 1.17007E-15-5.53786E-13
 -1      1420 2.25011E+01-5.31331E-02 5.28701E-03 1.47728E-01 6.82700E-14-6.03457E-13
 -1      1421 2.21215E+01-9.36093E-02 1.60166E-02 4.51605E-01-6.23928E-14-3.44041E-13
 -1      1422 2.25613E+01-4.54706E-02 1.91282E-03 3.99193E-02 7.91567E-14-5.78611E-13
 -1      1423 2.26113E+01-3.98793E-02 2.80750E-03 1.63842E-02 8.68966E-14-4.38879E-13
 -1      1424 2.23414E+01-8.50270E-02 1.35005E-02 1.77210E-01 3.47491E-14-1.86899E-13
 -1      1425 2.25742E+01-3.19836E-02 3.96969E-04-6.30417E-02 3.33618E-14-4.32088E-13
 -1      1426 2.25001E+01-2.45890E-02 7.72350E-04-7.79865E-02 2.37193E-14-3.95550E-13
 -1      1427 2.23498E+01-6.26177E-02 9.29268E-03-4.69626E-02 9.45346E-14-2.68520E-13
 -1      1428 2.23967E+01-1.83861E-02-4.92245E-04-1.26125E-01 2.46417E-14-4.03158E-13
 -1      1429 2.22463E+01-1.14752E-02-4.56268E-04-1.33524E-01-2.77809E-14-4.25349E-13
 -1      1430 2.22004E+01-3.78394E-02 5.15098E-03-1.98411E-01 1.24020E-14-3.83350E-13
 -1      1431 2.21063E+01-7.47478E-03-7.79055E-04-1.55276E-01-5.53217E-14-5.52633E-13
 -1      1432 2.19207E+01-2.03376E-03-9.66342E-04-1.57176E-01-9.53645E-14-6.34942E-13
 -1      1433 2.19535E+01-1.70600E-02 1.89606E-03-2.80504E-01-1.12055E-13-5.32100E-13
 -1      1434 2.17679E+01 3.29942E-05-6.78058E-04-1.60079E-01-1.27474E-13-5.75368E-13
 -1      1435 2.15765E+01 3.83759E-03-1.00759E-03-1.58518E-01-5.18360E-14-7.58613E-13
 -1      1436 2.16611E+01-2.37662E-03-2.99243E-04-3.08626E-01-1.76089E-13-3.75661E-13
 -1      1437 2.14272E+01 4.50841E-03-4.08273E-04-1.49760E-01-8.10419E-14-7.27427E-13
 -1      1438 2.12483E+01 6.90145E-03-8.15812E-04-1.46352E-01-1.18371E-13-7.92404E-13
 -1      1439 2.13616E+01 6.56419E-03-1.58052E-03-3.00548E-01-8.90239E-14-4.30276E-13
 -1      1440 2.11123E+01 6.70346E-03-1.18018E-04-1.31551E-01-5.21977E-14-8.13931E-13
 -1      1441 2.09555E+01 8.03206E-03-5.51193E-04-1.27414E-01-1.67414E-13-1.00138E-12
 -1      1442 2.10801E+01 1.10820E-02-2.18991E-03-2.71578E-01-1.37524E-13-5.05851E-13
 -1      1443 2.08376E+01 7.37605E-03 1.18901E-04-1.10433E-01-1.90970E-13-1.14818E-12
 -1      1444 2.07063E+01 7.97623E-03-3.00194E-04-1.06254E-01-1.51027E-13-1.36188E-12
 -1      1445 2.08303E+01 1.26136E-02-2.35734E-03-2.32991E-01-2.79032E-13-5.45987E-13
 -1      1446 2.06079E+01 7.14415E-03 2.79850E-04-8.94610E-02 1.75639E-14-1.29928E-12
 -1      1447 2.05019E+01 7.29147E-03-9.92166E-05-8.56143E-02 7.94606E-14-1.23072E-12
 -1      1448 2.06179E+01 1.23576E-02-2.26362E-03-1.92177E-01-2.71728E-14-6.92732E-13
 -1      1449 2.04224E+01 6.46171E-03 3.67297E-04-7.02520E-02 5.66984E-14-1.02926E-12
 -1      1450 2.03395E+01 6.36356E-03 4.03669E-05-6.68902E-02 9.92355E-14-9.45595E-13
 -1      1451 2.04434E+01 1.11970E-02-2.03815E-03-1.53405E-01 2.17291E-13-5.53523E-13
 -1      1452 2.02772E+01 5.64367E-03 3.88066E-04-5.34177E-02 1.01158E-13-9.11911E-13
 -1      1453 2.02145E+01 5.44706E-03 1.11984E-04-5.05485E-02 1.26411E-13-7.08503E-13
 -1      1454 2.03043E+01 9.73936E-03-1.77030E-03-1.18686E-01 1.67111E-13-2.74947E-13
 -1      1455 2.01673E+01 4.90292E-03 3.38201E-04-3.89008E-02 1.59400E-13-5.59115E-13
 -1      1456 2.01222E+01 4.70397E-03 1.03022E-04-3.64342E-02 1.62692E-13-3.48157E-13
 -1      1457 2.01969E+01 8.39250E-03-1.52137E-03-8.84788E-02 3.00715E-13-1.38583E-13
 -1      1458 2.00881E+01 4.37382E-03 1.99837E-04-2.62198E-02 9.23163E-14-3.92595E-13
 -1      1459 2.00584E+01 4.20134E-03 1.27719E-05-2.39998E-02 9.42810E-14-2.37602E-13
 -1      1460 2.01170E+01 7.42946E-03-1.32779E-03-6.22417E-02 2.52685E-13-4.36803E-14
 -1      1461 2.00356E+01 4.05061E-03-1.27165E-05-1.47812E-02 2.43092E-13-1.96936E-13
 -1      1462 2.00200E+01 3.79945E-03-3.71734E-05-1.26338E-02 1.44100E-13 2.27515E-14
 -1      1463 2.00610E+01 6.94322E-03-1.16039E-03-3.89487E-02 2.99352E-13-1.99147E-13
 -1      1464 2.00064E+01 4.11630E-03 2.67382E-05-4.33176E-03-5.24244E-14 1.54850E-13
 -1      1465 2.00035E+01 2.82378E-03 5.49637E-04-2.21310E-03 2.69304E-14 2.30699E-13
 -1      1466 2.00250E+01 6.58756E-03-8.99590E-04-1.81225E-02 1.67345E-13 2.04967E-13
 -1      1467 1.99975E+01-9.23480E-04 1.43733E-03 2.51276E-03-1.97360E-13 2.09744E-13
 -1      1468 2.00044E+01 1.61145E-03 5.44530E-05-8.26089E-04-1.17058E-13 3.02594E-13
 -1      1469 2.02209E+01 7.54772E-02-1.51939E-01 4.82624E-01 1.07275E-13 1.46396E-12
 -1      1470 2.14890E+01 2.15952E-01-2.29182E-01 7.19415E-01 9.80049E-14 1.61823E-12
 -1      1471 2.16939E+01 8.80870E-01-8.53846E-02 2.06124E+00 1.76886E-13 1.16317E-12
 -1      1472 1.92966E+01 3.24928E-02-2.12967E-02 1.84669E-01 7.85136E-14 1.25225E-12
 -1      1473 1.97155E+01 1.13650E-01-6.26054E-02 2.36681E-01 7.48221E-14 1.36646E-12
 -1      1474 2.02730E+01 1.87648E-01-5.51485E-02 7.83403E-01 1.62037E-13 9.89007E-13
 -1      1475 1.89201E+01 1.53523E-02 5.65339E-03 5.14700E-02 5.10139E-14 1.11556E-12
 -1      1476 1.90564E+01 5.18725E-02 1.03980E-03 7.78965E-02 5.12246E-14 1.18941E-12
 -1      1477 1.95332E+01 7.21160E-02-1.21825E-02 2.95467E-01 1.24014E-13 8.45431E-13
 -1      1478 1.88179E+01 7.54468E-03 6.92628E-03-1.24032E-02 2.60859E-14 1.03820E-12
 -1      1479 1.88287E+01 2.63593E-02 1.11547E-02 2.26119E-03 2.40962E-14 1.08048E-12
 -1      1480 1.92054E+01 3.16448E-02-2.54656E-03 7.79710E-02 6.50036E-14 7.50103E-13
 -1      1481 1.88574E+01 3.85959E-03 4.69190E-03-4.49078E-02 6.83243E-15 9.93504E-13
 -1      1482 1.88072E+01 1.46399E-02 8.60720E-03-3.63173E-02 1.24874E-14 1.02107E-12
 -1      1483 1.91003E+01 1.42930E-02-1.77193E-03-3.05066E-02 3.33167E-14 7.01102E-13
 -1      1484 1.89727E+01 1.99978E-03 3.15244E-03-6.17171E-02 1.28229E-14 9.58913E-13
 -1      1485 1.88918E+01 8.55087E-03 5.48604E-03-5.64950E-02 8.25685E-15 9.68906E-13
 -1      1486 1.91193E+01 6.10234E-03-1.88510E-03-8.74032E-02 1.60657E-14 6.57840E-13
 -1      1487 1.91296E+01 1.14443E-03 2.30069E-03-7.05266E-02 6.39753E-14 8.25356E-13
 -1      1488 1.90332E+01 5.30624E-03 3.59068E-03-6.71822E-02 4.14409E-14 9.01268E-13
 -1      1489 1.92088E+01 2.14344E-03-1.76986E-03-1.17931E-01 7.08780E-14 5.58516E-13
 -1      1490 1.93107E+01 9.48469E-04 1.74303E-03-7.58290E-02 5.29325E-14 6.67518E-13
 -1      1491 1.92059E+01 3.75800E-03 2.53928E-03-7.33897E-02 6.41797E-14 7.58150E-13
 -1      1492 1.93401E+01 5.34976E-04-1.58975E-03-1.35258E-01 1.20480E-13 5.10242E-13
 -1      1493 1.95096E+01 1.24536E-03 1.27597E-03-8.06288E-02 3.38765E-14 5.98732E-13
 -1      1494 1.93984E+01 3.38013E-03 1.92366E-03-7.83804E-02 2.09771E-14 6.56402E-13
 -1      1495 1.94988E+01 4.40194E-04-1.51476E-03-1.47351E-01 6.65472E-14 4.32491E-13
 -1      1496 1.97269E+01 1.94723E-03 8.22095E-04-8.71728E-02-7.60351E-15 6.35538E-13
 -1      1497 1.96080E+01 3.91125E-03 1.53808E-03-8.45331E-02 3.02498E-15 6.01114E-13
 -1      1498 1.96796E+01 1.44451E-03-1.61200E-03-1.59669E-01 1.80963E-14 3.84492E-13
 -1      1499 1.99689E+01 3.00750E-03 3.49156E-04-9.73022E-02 4.98042E-14 6.14304E-13
 -1      1500 1.98381E+01 5.21938E-03 1.29014E-03-9.37494E-02 2.57512E-14 6.25591E-13
 -1      1501 1.98837E+01 3.32783E-03-1.90540E-03-1.76373E-01 2.53531E-14 3.90395E-13
 -1      1502 2.02465E+01 4.39790E-03-1.66522E-04-1.12636E-01 5.88510E-14 5.24698E-13
 -1      1503 2.00973E+01 7.24122E-03 1.13047E-03-1.07665E-01 4.66449E-14 5.73826E-13
 -1      1504 2.01169E+01 5.97164E-03-2.41205E-03-2.00905E-01 8.71504E-14 3.74519E-13
 -1      1505 2.05746E+01 6.08290E-03-7.50583E-04-1.34631E-01 1.68133E-14 4.97867E-13
 -1      1506 2.03982E+01 9.93695E-03 1.01934E-03-1.27735E-01 1.41388E-14 4.89119E-13
 -1      1507 2.03892E+01 9.29844E-03-3.15229E-03-2.36262E-01 5.48398E-14 3.21498E-13
 -1      1508 2.09714E+01 7.97812E-03-1.42799E-03-1.64504E-01 5.70993E-14 4.25921E-13
 -1      1509 2.07572E+01 1.32321E-02 9.11367E-04-1.55187E-01 4.19404E-14 4.83334E-13
 -1      1510 2.07135E+01 1.32042E-02-4.14402E-03-2.85008E-01 3.95623E-14 3.36579E-13
 -1      1511 2.14570E+01 9.87535E-03-2.20372E-03-2.02909E-01-9.26711E-15 4.57632E-13
 -1      1512 2.11932E+01 1.69166E-02 7.47992E-04-1.90769E-01 2.30126E-14 4.62465E-13
 -1      1513 2.11050E+01 1.74483E-02-5.38144E-03-3.48925E-01 3.51785E-14 3.71837E-13
 -1      1514 2.20512E+01 1.13101E-02-3.00802E-03-2.49202E-01 5.99217E-14 3.23599E-13
 -1      1515 2.17260E+01 2.04613E-02 4.61288E-04-2.34138E-01 3.22665E-14 3.98300E-13
 -1      1516 2.15791E+01 2.14535E-02-6.78556E-03-4.28089E-01 5.95895E-14 3.63593E-13
 -1      1517 2.27675E+01 1.13486E-02-3.57172E-03-2.99990E-01 3.67414E-14 2.04038E-13
 -1      1518 2.23725E+01 2.27013E-02 7.24643E-06-2.82645E-01 3.52808E-14 2.92094E-13
 -1      1519 2.21488E+01 2.39557E-02-8.10292E-03-5.18954E-01 7.24243E-14 1.63833E-13
 -1      1520 2.36029E+01 8.30650E-03-3.19597E-03-3.46627E-01-6.08438E-14 1.23158E-13
 -1      1521 2.31393E+01 2.13638E-02-5.36527E-04-3.29205E-01 3.26388E-14 1.64081E-13
 -1      1522 2.28182E+01 2.24505E-02-8.72388E-03-6.10889E-01 7.81836E-14 1.74879E-13
 -1      1523 2.45206E+01-4.46709E-04-4.54807E-04-3.71523E-01-6.49432E-14 3.84411E-13
 -1      1524 2.40098E+01 1.25605E-02-7.75763E-04-3.59101E-01-1.26208E-13 2.19234E-13
 -1      1525 2.35733E+01 1.25245E-02-7.42809E-03-6.80764E-01-1.50311E-13 2.11565E-13
 -1      1526 2.54237E+01-1.80697E-02 6.86300E-03-3.44393E-01-1.26574E-14 4.99326E-13
 -1      1527 2.49239E+01-9.17789E-03 2.53898E-04-3.46452E-01-2.47476E-14 4.66696E-13
 -1      1528 2.43672E+01-1.24031E-02-2.22458E-03-6.86353E-01-9.85141E-14 3.49405E-13
 -1      1529 2.61282E+01-4.60495E-02 2.06533E-02-2.22789E-01-5.87985E-14 7.32546E-13
 -1      1530 2.57519E+01-4.88131E-02 4.09780E-03-2.53613E-01-5.97499E-14 6.23890E-13
 -1      1531 2.51020E+01-5.92708E-02 9.20920E-03-5.62988E-01-1.28233E-13 4.51061E-13
 -1      1532 2.63564E+01-7.86683E-02 3.87514E-02 3.28629E-02-1.65007E-14 7.36994E-13
 -1      1533 2.62746E+01-1.04197E-01 1.17254E-02-4.14722E-02-5.48381E-14 7.28285E-13
 -1      1534 2.56150E+01-1.28221E-01 2.74485E-02-2.35523E-01-7.93983E-14 5.67231E-13
 -1      1535 2.58015E+01-9.60590E-02 4.92478E-02 4.16420E-01 5.89841E-14 7.28591E-13
 -1      1536 2.62018E+01-1.54765E-01 2.02582E-02 2.97235E-01 4.80119E-14 7.61165E-13
 -1      1537 2.56903E+01-1.98315E-01 4.66067E-02 3.33293E-01-6.80359E-15 5.29235E-13
 -1      1538 2.43155E+01-6.57576E-02 3.11763E-02 8.11992E-01-1.18251E-13 9.19376E-13
 -1      1539 2.52811E+01-1.55448E-01 2.01796E-02 6.81952E-01-9.92123E-14 7.93796E-13
 -1      1540 2.51336E+01-2.13592E-01 5.15392E-02 1.04829E+00-7.80764E-14 6.33150E-13
 -1      1541 2.21926E+01 2.71473E-02-2.72458E-02 9.74469E-01 2.62377E-14 1.06679E-12
 -1      1542 2.35260E+01-6.10178E-02-3.50838E-04 9.09366E-01-2.78568E-14 1.03120E-12
 -1      1543 2.39365E+01-1.00709E-01 2.58857E-02 1.59544E+00-1.60852E-13 8.99641E-13
 -1      1544 2.02972E+01 1.37347E-01-9.81206E-02 6.74270E-01 1.55265E-13 8.02081E-13
 -1      1545 2.14552E+01 1.10045E-01-3.94370E-02 7.45616E-01 1.04687E-13 1.01072E-12
 -1      1546 2.24693E+01 1.49141E-01-2.47328E-02 1.53156E+00 1.47465E-13 8.94299E-13
 -1      1547 1.96714E+01 1.72200E-01-1.22808E-01-2.70723E-02 6.51840E-14 4.01458E-13
 -1      1548 2.00267E+01 2.44130E-01-7.02914E-02 1.62301E-01 1.91645E-13 6.19338E-13
 -1      1549 2.14505E+01 3.91238E-01-6.69497E-02 6.60843E-01 3.10425E-13 5.48882E-13
 -1      1550 2.07093E+01 9.85857E-02-7.32011E-02-7.12089E-01-4.60448E-14 2.61263E-13
 -1      1551 2.00462E+01 2.30702E-01-6.27510E-02-5.22662E-01-8.81760E-14 2.27152E-13
 -1      1552 2.14906E+01 4.10099E-01-7.09188E-02-6.05690E-01 2.91434E-14 3.09971E-13
 -1      1553 2.27880E+01-1.35084E-02 1.06422E-02-9.80106E-01 4.05101E-14 2.28123E-13
 -1      1554 2.14965E+01 9.32055E-02-1.91690E-02-8.96405E-01 4.04017E-14 2.85355E-13
 -1      1555 2.25561E+01 1.80918E-01-4.00273E-02-1.50439E+00 2.40242E-14 1.61926E-13
 -1      1556 2.48316E+01-8.29093E-02 6.54728E-02-7.92357E-01-7.10716E-15 1.21625E-13
 -1      1557 2.35610E+01-5.02139E-02 2.54571E-02-8.22907E-01 2.51466E-14 1.47618E-13
 -1      1558 2.40102E+01-9.86877E-02-4.53677E-03-1.60783E+00 9.86121E-14 4.34930E-14
 -1      1559 2.60931E+01-9.06673E-02 6.81669E-02-3.87457E-01-8.53623E-14 2.03206E-13
 -1      1560 2.52949E+01-1.18948E-01 4.21223E-02-4.73709E-01-7.55403E-14 9.24122E-14
 -1      1561 2.51642E+01-2.47325E-01 1.24509E-02-1.08596E+00-2.00708E-14 3.96592E-14
 -1      1562 2.64238E+01-6.40453E-02 4.50311E-02-9.80925E-03-5.13929E-14 3.47345E-13
 -1      1563 2.61897E+01-1.14832E-01 3.31124E-02-9.33964E-02-5.17850E-14 2.74870E-13
 -1      1564 2.56849E+01-2.37802E-01 1.53479E-02-3.76006E-01-1.30049E-13 1.64561E-13
 -1      1565 2.60453E+01-3.24725E-02 1.90824E-02 2.34771E-01 1.51667E-14 3.39000E-13
 -1      1566 2.62391E+01-7.77294E-02 1.66737E-02 1.78491E-01 6.65093E-15 3.05201E-13
 -1      1567 2.55926E+01-1.56031E-01 1.18314E-02 2.00700E-01-2.83107E-15 1.05337E-13
 -1      1568 2.52728E+01-9.08528E-03 1.55949E-03 3.46485E-01-1.26097E-14 3.82153E-13
 -1      1569 2.57013E+01-3.87791E-02 3.22952E-03 3.18316E-01 2.87812E-14 4.58411E-13
 -1      1570 2.50780E+01-7.14008E-02 7.02368E-03 5.39955E-01 6.13294E-14 2.37085E-13
 -1      1571 2.43623E+01 4.24035E-03-6.85453E-03 3.66653E-01 1.17634E-13 1.58953E-13
 -1      1572 2.48704E+01-1.07298E-02-3.85204E-03 3.58188E-01 1.21865E-13 3.09155E-13
 -1      1573 2.43520E+01-1.27776E-02 3.36043E-03 6.72539E-01 1.60746E-13 3.71205E-13
 -1      1574 2.34732E+01 1.01371E-02-9.27198E-03 3.37208E-01 3.74835E-14-1.68539E-13
 -1      1575 2.39666E+01 5.39374E-03-6.00149E-03 3.39805E-01 8.67522E-14-2.36096E-14
 -1      1576 2.35741E+01 1.87119E-02 1.16143E-03 6.71426E-01 1.77248E-13 2.84359E-13
 -1      1577 2.26848E+01 1.16611E-02-8.74604E-03 2.87322E-01-7.50452E-14 5.27182E-15
 -1      1578 2.31182E+01 1.27988E-02-5.55457E-03 2.94918E-01-1.05191E-13-7.46486E-14
 -1      1579 2.28410E+01 3.13245E-02 2.22977E-05 6.01502E-01-1.64777E-13 8.42382E-15
 -1      1580 2.20249E+01 1.10155E-02-7.17973E-03 2.33643E-01 1.08068E-13-1.17843E-13
 -1      1581 2.23839E+01 1.49589E-02-4.21571E-03 2.42713E-01 7.18781E-14-4.77084E-14
 -1      1582 2.21995E+01 3.33129E-02-5.06584E-04 5.05936E-01 7.01939E-14-3.10829E-13
 -1      1583 2.14928E+01 9.50220E-03-5.49581E-03 1.84207E-01 8.21912E-14-2.79788E-13
 -1      1584 2.17792E+01 1.44002E-02-2.84838E-03 1.92974E-01 5.92068E-14-1.10370E-13
 -1      1585 2.16641E+01 3.03097E-02-7.20487E-04 4.08760E-01 1.16102E-13-1.46634E-13
 -1      1586 2.10750E+01 7.79773E-03-4.04367E-03 1.42054E-01 3.12575E-15-3.53134E-13
 -1      1587 2.12976E+01 1.26653E-02-1.76049E-03 1.49767E-01 4.55942E-14-2.20439E-13
 -1      1588 2.12317E+01 2.55280E-02-7.77562E-04 3.21245E-01 7.47176E-14 8.97985E-14
 -1      1589 2.07532E+01 6.21304E-03-2.90280E-03 1.07655E-01-3.36933E-14-2.33937E-13
 -1      1590 2.09230E+01 1.05958E-02-9.90969E-04 1.14103E-01-7.94813E-14-3.07052E-13
 -1      1591 2.08908E+01 2.05749E-02-7.56529E-04 2.47335E-01-6.16484E-14-4.53998E-14
 -1      1592 2.05097E+01 4.87049E-03-2.05095E-03 8.03086E-02-1.54586E-13-1.78575E-13
 -1      1593 2.06370E+01 8.61066E-03-4.83588E-04 8.55439E-02-5.93078E-14-2.23965E-13
 -1      1594 2.06270E+01 1.61487E-02-6.99461E-04 1.87225E-01-1.15752E-13-4.70793E-14
 -1      1595 2.03284E+01 3.80687E-03-1.44383E-03 5.88569E-02 5.37161E-14-5.30804E-15
 -1      1596 2.04223E+01 6.90297E-03-1.68351E-04 6.30536E-02 4.34205E-14-9.33728E-14
 -1      1597 2.04264E+01 1.24928E-02-6.35418E-04 1.39404E-01-6.74385E-14-6.98483E-14
 -1      1598 2.01963E+01 3.02544E-03-1.04857E-03 4.20099E-02 4.35967E-14-2.91528E-13
 -1      1599 2.02640E+01 5.55890E-03 7.42698E-06 4.53999E-02 2.51188E-14-2.52817E-13
 -1      1600 2.02767E+01 9.65361E-03-5.91619E-04 1.01699E-01 1.32519E-13-1.02356E-13
 -1      1601 2.01034E+01 2.50782E-03-8.50812E-04 2.84844E-02 3.68742E-13-7.02156E-13
 -1      1602 2.01503E+01 4.61132E-03 6.89508E-05 3.13297E-02 2.71178E-13-3.26609E-13
 -1      1603 2.01675E+01 7.60487E-03-5.97581E-04 7.17589E-02 3.37664E-13-5.55272E-13
 -1      1604 2.00428E+01 2.22405E-03-8.04446E-04 1.71070E-02 7.39282E-14-1.06262E-12
 -1      1605 2.00725E+01 4.05650E-03 2.61182E-05 1.96862E-02 1.51256E-13-8.99995E-13
 -1      1606 2.00910E+01 6.28277E-03-6.74451E-04 4.73142E-02 4.15233E-13-5.80304E-13
 -1      1607 2.00096E+01 2.08393E-03-6.02813E-04 6.90260E-03-1.23628E-13-9.98659E-13
 -1      1608 2.00242E+01 3.81592E-03-3.47658E-05 9.55432E-03 2.20139E-14-9.58581E-13
 -1      1609 2.00411E+01 5.65333E-03-7.28939E-04 2.64771E-02 2.31956E-14-5.12040E-13
 -1      1610 1.99995E+01 1.42387E-03 7.93080E-04-1.21974E-03-5.13124E-14-8.01268E-13
 -1      1611 2.00009E+01 2.98666E-03 2.32246E-04 1.03382E-03-1.10115E-13-9.87150E-13
 -1      1612 2.00128E+01 4.52816E-03-5.13952E-04 8.34521E-03-1.59704E-13-4.49795E-13
 -1      1613 1.99978E+01-1.25837E-03 1.57220E-03-2.37771E-03-4.73013E-13-5.12684E-13
 -1      1614 2.00034E+01 5.87112E-03-4.73368E-04 4.68899E-03-6.81044E-13 6.45904E-14
 -1      1615 2.00031E+01 2.88747E-03 5.02238E-04 2.60384E-03-7.21936E-13 5.31444E-14
 -1      1616 2.00030E+01 3.33313E-02-5.16609E-04 1.45238E-02-2.03954E-13 2.95581E-13
 -1      1617 2.00035E+01 1.85594E-02-3.48384E-04 1.25581E-02-5.18957E-13 1.69176E-13
 -1      1618 2.00069E+01 2.46163E-02-6.78484E-04 1.78225E-02-2.26439E-13 3.27977E-13
 -1      1619 2.00015E+01 7.64109E-02-3.11822E-04 2.18510E-02-5.77433E-14 2.70385E-13
 -1      1620 2.00024E+01 5.22696E-02-3.48076E-04 2.06494E-02-9.49571E-14 3.23296E-13
 -1      1621 2.00049E+01 5.64432E-02-7.86559E-04 3.46982E-02-2.83677E-14 4.67022E-13
 -1      1622 1.99997E+01 1.27651E-01-1.17526E-04 2.47438E-02-2.68167E-14-1.08924E-13
 -1      1623 2.00007E+01 9.92001E-02-1.88677E-04 2.45385E-02-1.01903E-13 2.69193E-13
 -1      1624 2.00022E+01 9.85710E-02-3.19394E-04 4.52228E-02-2.48847E-13 2.95780E-13
 -1      1625 1.99981E+01 1.76953E-01-1.10421E-05 2.30093E-02-5.56707E-13-2.44881E-13
 -1      1626 1.99990E+01 1.50216E-01-6.44643E-05 2.36975E-02-1.31276E-13-4.06897E-13
 -1      1627 1.99992E+01 1.44218E-01 2.15727E-04 4.70194E-02-2.93026E-13-5.06764E-13
 -1      1628 1.99968E+01 2.17418E-01 4.57132E-05 1.72193E-02-7.20294E-13-1.89702E-13
 -1      1629 1.99975E+01 1.96421E-01 9.92842E-06 1.86461E-02-6.12394E-13-1.13072E-13
 -1      1630 1.99967E+01 1.86365E-01 6.77913E-04 4.03705E-02-3.60854E-13-3.14175E-13
 -1      1631 1.99962E+01 2.41399E-01 6.48656E-05 8.58042E-03-5.13431E-13 5.62849E-14
 -1      1632 1.99965E+01 2.30194E-01 4.28298E-05 1.04504E-02-6.51357E-13 6.93036E-14
 -1      1633 1.99948E+01 2.18583E-01 1.00756E-03 2.67898E-02-4.99809E-13 6.75783E-16
 -1      1634 1.99961E+01 2.45185E-01 6.22816E-05-1.36964E-03-4.59610E-13-4.50912E-14
 -1      1635 1.99961E+01 2.45547E-01 5.47835E-05 6.26248E-04-4.76544E-13 1.10889E-13
 -1      1636 1.99939E+01 2.35453E-01 1.16570E-03 8.89347E-03-4.53957E-13 5.19747E-14
 -1      1637 1.99967E+01 2.28379E-01 4.24462E-05-1.09963E-02-6.67713E-13-1.47241E-13
 -1      1638 1.99963E+01 2.40134E-01 5.19022E-05-9.19451E-03-5.04258E-13-1.10560E-13
 -1      1639 1.99940E+01 2.34489E-01 1.14207E-03-1.02656E-02-2.44117E-13-2.89006E-13
 -1      1640 1.99977E+01 1.93894E-01 2.96808E-06-1.87557E-02-7.71893E-13-1.86422E-13
 -1      1641 1.99970E+01 2.14999E-01 3.65760E-05-1.74390E-02-5.89672E-13-9.43537E-14
 -1      1642 1.99951E+01 2.16004E-01 9.44482E-04-2.75891E-02-3.28403E-13-7.93927E-14
 -1      1643 1.99991E+01 1.48355E-01-5.53434E-05-2.33135E-02-7.88111E-13 1.85260E-13
 -1      1644 1.99982E+01 1.74689E-01-1.22217E-05-2.27114E-02-7.84748E-13-9.36928E-14
 -1      1645 1.99969E+01 1.83316E-01 6.14192E-04-4.02224E-02-3.68441E-13-2.54896E-13
 -1      1646 2.00007E+01 9.79213E-02-1.62744E-04-2.39230E-02-5.30944E-13-2.35875E-14
 -1      1647 1.99998E+01 1.25693E-01-1.05553E-04-2.41603E-02-8.33008E-13 3.86097E-13
 -1      1648 1.99993E+01 1.41361E-01 1.64567E-04-4.61327E-02-3.20522E-13 2.53135E-13
 -1      1649 2.00022E+01 5.20563E-02-3.51250E-04-2.01199E-02-2.69917E-13 1.06014E-13
 -1      1650 2.00014E+01 7.56967E-02-2.68019E-04-2.12439E-02-3.66482E-13-9.45750E-14
 -1      1651 2.00021E+01 9.62289E-02-3.28669E-04-4.40625E-02-2.21343E-13 1.67928E-13
 -1      1652 2.00037E+01 1.94370E-02-1.20381E-04-1.26081E-02-2.50690E-13 1.69703E-14
 -1      1653 2.00026E+01 3.39016E-02-4.91097E-04-1.45252E-02-2.74212E-13 9.26037E-14
 -1      1654 2.00044E+01 5.55077E-02-7.44462E-04-3.38643E-02-6.41395E-14 6.18537E-17
 -1      1655 2.00052E+01 7.55224E-03 5.34474E-04-6.13415E-03-3.21038E-13-8.25456E-14
 -1      1656 2.00052E+01 1.17267E-02-4.35130E-04-8.99075E-03-2.70470E-13-7.80865E-14
 -1      1657 2.00099E+01 3.03502E-02-1.52206E-04-2.29042E-02-1.87817E-13-4.23677E-14
 -1      1658 2.00142E+01 1.55436E-02 4.74232E-04-1.37775E-02 2.49373E-16 6.74721E-14
 -1      1659-5.83973E-01-1.44152E+01-1.63253E+00-1.07186E+00 7.88647E-13 3.18912E-13
 -1      1660-5.76151E-01-1.62880E+01-1.77259E+00 1.67489E-01 4.80699E-13 1.89238E-13
 -1      1661 9.31741E-01-8.79068E+00-1.32212E+00-1.00543E-01 1.30984E-12 8.84098E-13
 -1      1662 3.69889E-01-1.35731E+01-1.78324E+00-5.06084E-01 9.15823E-13 4.86815E-13
 -1      1663 7.07181E+00-1.22640E+00-6.24766E-01 4.35669E+00 1.68021E-12 1.39033E-12
 -1      1664 3.87738E+00-6.86808E+00-1.37558E+00 1.44911E+00 1.26532E-12 9.53071E-13
 -1      1665 1.74047E+01 4.26207E+00 1.44743E-01 9.25552E+00 1.59361E-12 1.62548E-12
 -1      1666 1.10481E+01 7.65753E-01-7.41333E-01 5.61048E+00 1.63047E-12 1.53055E-12
 -1      1667 3.20276E+01 6.05797E+00 9.90545E-01 1.22674E+01 1.11955E-12 1.42353E-12
 -1      1668 2.26212E+01 5.38100E+00 4.70913E-02 1.00103E+01 1.60982E-12 1.56142E-12
 -1      1669 4.71325E+01 5.02727E+00 1.74548E+00 1.06798E+01 5.97189E-13 9.44689E-13
 -1      1670 3.75469E+01 6.55909E+00 9.64464E-01 1.21309E+01 9.08384E-13 1.33338E-12
 -1      1671 5.58255E+01 3.53351E+00 2.04212E+00 3.94681E+00 5.24941E-13-4.89608E-14
 -1      1672 5.09140E+01 4.80103E+00 1.69204E+00 8.64683E+00 5.72875E-13 6.41931E-13
 -1      1673 5.48350E+01 3.99995E+00 1.87159E+00-4.66224E+00 6.80622E-13-1.38684E-12
 -1      1674 5.64175E+01 3.59944E+00 2.00654E+00 1.24434E+00 5.24580E-13-4.39121E-13
 -1      1675 4.48660E+01 5.74105E+00 1.31954E+00-1.07068E+01 1.03800E-12-2.18103E-12
 -1      1676 5.24636E+01 4.08411E+00 1.88355E+00-7.20541E+00 7.77933E-13-1.65057E-12
 -1      1677 3.08205E+01 6.57384E+00 5.60530E-01-1.18695E+01 1.45917E-12-2.22089E-12
 -1      1678 4.02474E+01 5.78012E+00 1.37386E+00-1.22252E+01 1.09546E-12-2.17604E-12
 -1      1679 1.65633E+01 4.07793E+00-3.38684E-01-8.29322E+00 1.72107E-12-1.95599E-12
 -1      1680 2.52066E+01 6.02803E+00 6.29756E-01-1.16646E+01 1.58518E-12-2.26663E-12
 -1      1681 6.68129E+00-2.31765E+00-1.10321E+00-3.31420E+00 1.27498E-12-1.20248E-12
 -1      1682 1.15777E+01 2.51542E+00-2.37439E-01-7.01536E+00 1.62426E-12-1.78102E-12
 -1      1683 1.67318E+00-1.01222E+01-1.62202E+00-5.03856E-02 4.64295E-13-5.79675E-13
 -1      1684 3.31359E+00-4.45903E+00-1.00402E+00-1.81895E+00 1.02651E-12-1.07914E-12
 -1      1685-1.40386E-01-1.52980E+01-1.72355E+00 5.63687E-02-5.26190E-13-3.10418E-13
 -1      1686 3.41300E-02-1.16215E+01-1.44925E+00 6.65832E-01 1.70752E-13-4.09707E-13
 -1      1687-6.10243E-01-1.50227E+01-1.56694E+00-4.80716E-01-1.06795E-12-2.75530E-13
 -1      1688-6.54399E-01-1.52636E+01-1.57929E+00 8.79611E-01-6.77791E-13-2.66953E-13
 -1      1689 2.86327E-02-1.10662E+01-1.41776E+00-5.02632E-01-1.32494E-12-4.18346E-13
 -1      1690-1.45301E-01-1.52586E+01-1.79370E+00 1.33664E-02-1.30479E-12-2.11386E-13
 -1      1691 5.10067E+00-3.24749E+00-6.91062E-01 3.41613E+00-1.24256E-12-7.99860E-13
 -1      1692 2.85876E+00-8.99215E+00-1.36296E+00 1.28124E+00-1.11844E-12-6.25389E-13
 -1      1693 1.27939E+01 3.75946E+00-3.13004E-02 7.97845E+00-1.34048E-12-1.12621E-12
 -1      1694 7.71725E+00-6.74855E-01-8.61862E-01 4.33953E+00-1.44085E-12-9.32254E-13
 -1      1695 2.70000E+01 6.10017E+00 7.40382E-01 1.18588E+01-9.29257E-13-9.90541E-13
 -1      1696 1.82964E+01 4.67099E+00-1.30000E-01 8.92642E+00-1.19948E-12-1.01952E-12
 -1      1697 4.10311E+01 5.72126E+00 1.33640E+00 1.18524E+01-5.24109E-13-5.62661E-13
 -1      1698 3.20344E+01 7.04315E+00 6.69264E-01 1.22556E+01-8.62144E-13-9.16600E-13
 -1      1699 5.09372E+01 4.04911E+00 1.58549E+00 5.30028E+00-3.15525E-13 5.17919E-14
 -1      1700 4.45346E+01 5.60815E+00 1.18130E+00 9.40420E+00-4.35138E-13-4.11338E-13
 -1      1701 5.41080E+01 3.71435E+00 1.75868E+00-2.56461E+00-3.50664E-13 7.33191E-13
 -1      1702 5.35648E+01 3.75517E+00 1.64765E+00 3.15409E+00-3.37341E-13 1.78829E-13
 -1      1703 4.77733E+01 5.20447E+00 1.47832E+00-9.62591E+00-7.27862E-13 1.42608E-12
 -1      1704 5.32020E+01 3.68215E+00 1.81466E+00-5.25867E+00-4.34069E-13 9.12936E-13
 -1      1705 3.52183E+01 6.88621E+00 8.59570E-01-1.23320E+01-1.15891E-12 1.80722E-12
 -1      1706 4.38885E+01 5.47224E+00 1.52981E+00-1.13426E+01-8.69582E-13 1.59928E-12
 -1      1707 2.14660E+01 5.81950E+00 9.14883E-02-1.01696E+01-1.80966E-12 1.94156E-12
 -1      1708 3.01654E+01 6.44929E+00 9.16756E-01-1.24026E+01-1.41664E-12 1.92002E-12
 -1      1709 1.01122E+01 1.39554E+00-6.69951E-01-5.72091E+00-2.20202E-12 1.80955E-12
 -1      1710 1.61760E+01 4.95219E+00 1.78247E-01-9.40326E+00-2.01239E-12 2.00384E-12
 -1      1711 3.69567E+00-6.24534E+00-1.28687E+00-1.67253E+00-1.86873E-12 1.30890E-12
 -1      1712 6.54781E+00-7.83377E-01-5.66375E-01-4.38852E+00-2.17693E-12 1.55476E-12
 -1      1713 5.04463E-01-1.31973E+01-1.72119E+00 1.20220E-01-7.99805E-13 8.33951E-13
 -1      1714 1.10755E+00-8.30075E+00-1.23835E+00-3.28402E-01-1.66023E-12 1.19529E-12
 -1      1715-5.63825E-01-1.64509E+01-1.80395E+00-4.83881E-01 2.02754E-13 3.97321E-13
 -1      1716-5.24870E-01-1.43649E+01-1.63047E+00 7.73753E-01-5.32019E-13 7.45182E-13
 -1      1717 2.47124E+01 2.06083E-01 1.89196E-01 7.01952E+00 9.78329E-13 8.79408E-13
 -1      1718 1.44014E+01-3.83142E+00-4.00092E-01 6.17618E+00 6.44373E-13 7.37688E-13
 -1      1719 2.00021E+01-9.19567E-04 4.58545E-04-1.86591E-03-6.71705E-13-3.99977E-13
 -1      1720 2.00065E+01 9.07585E-03 1.98814E-04 4.24386E-03-2.23292E-13-1.59153E-13
 -1      1721 3.28196E-01-1.02910E+01-1.22230E+00 1.94949E+00 5.16753E-13 5.63438E-13
 -1      1722 5.77464E+00-7.57045E+00-8.90271E-01 4.34769E+00 5.89861E-13 8.49081E-13
 -1      1723-1.28924E+00-1.09614E+01-1.24795E+00-2.30242E-01 1.22173E-13 6.71352E-13
 -1      1724 3.54849E+01 3.75301E+00 8.51974E-01 6.62997E+00 9.14213E-13 7.47624E-13
 -1      1725 4.44068E+01 6.28221E+00 1.46536E+00 4.63119E+00 7.57922E-13 2.72560E-13
 -1      1726 4.84374E+01 7.29158E+00 1.68774E+00 1.12240E+00 8.77631E-13-4.65655E-13
 -1      1727 4.67233E+01 7.12945E+00 1.56885E+00-2.49189E+00 9.93761E-13-1.04056E-12
 -1      1728 4.06185E+01 5.32326E+00 1.21008E+00-5.64477E+00 9.03135E-13-1.31628E-12
 -1      1729 3.06661E+01 2.62584E+00 6.04980E-01-7.32833E+00 1.01713E-12-1.44285E-12
 -1      1730 1.94230E+01-1.12149E+00-9.13516E-02-6.90410E+00 8.15570E-13-1.37668E-12
 -1      1731 9.51921E+00-5.43132E+00-7.11987E-01-5.17261E+00 5.17475E-13-1.16657E-12
 -1      1732 2.67124E+00-9.01534E+00-1.10158E+00-3.15764E+00 5.08482E-14-8.45074E-13
 -1      1733-6.98317E-01-1.00393E+01-1.10460E+00-9.39213E-01-3.54300E-13-6.47260E-13
 -1      1734-7.01020E-01-1.02691E+01-1.17503E+00 1.43904E+00-4.81171E-13-2.90989E-13
 -1      1735 3.75007E+00-8.22973E+00-8.90120E-01 4.24858E+00-6.41931E-13-3.91784E-13
 -1      1736 1.10195E+01-4.62602E+00-5.21073E-01 6.04528E+00-6.95333E-13-5.91055E-13
 -1      1737 2.07137E+01-2.50551E-01 7.38680E-02 7.27847E+00-8.76965E-13-5.96523E-13
 -1      1738 3.13106E+01 3.26389E+00 6.56359E-01 7.20628E+00-6.49203E-13-3.42726E-13
 -1      1739 3.99167E+01 5.98572E+00 1.12356E+00 5.14537E+00-5.34711E-13 3.44169E-15
 -1      1740 4.46884E+01 7.41959E+00 1.31604E+00 1.62679E+00-5.21305E-13 2.29233E-13
 -1      1741 4.65843E+01 7.15164E+00 1.50234E+00-1.90763E+00-5.93803E-13 4.50862E-13
 -1      1742 4.21170E+01 6.18550E+00 1.27928E+00-5.44635E+00-7.93698E-13 7.50400E-13
 -1      1743 3.35280E+01 4.07512E+00 7.86811E-01-7.18388E+00-1.09357E-12 1.04650E-12
 -1      1744 2.33399E+01 9.77404E-01 2.42357E-01-7.53940E+00-1.39333E-12 1.17639E-12
 -1      1745 1.33393E+01-3.08366E+00-3.72182E-01-6.40262E+00-1.28031E-12 1.25183E-12
 -1      1746 5.52201E+00-7.14529E+00-8.47647E-01-4.53371E+00-9.19265E-13 1.19402E-12
 -1      1747 4.53350E-01-1.02509E+01-1.20182E+00-2.35383E+00-3.71925E-13 1.18833E-12
 -1      1748 2.28234E+01 1.98259E+00-2.37865E-02-2.71803E+00-1.79336E-13 5.19529E-13
 -1      1749 1.98246E+01 3.71577E+00-3.55146E-02-2.14384E+00-1.67571E-13-3.03937E-13
 -1      1750 2.00548E+01 3.56217E+00-4.01378E-02-2.43693E+00-2.06592E-13-2.41064E-13
 -1      1751 2.03543E+01 3.18056E+00-4.56132E-02-2.57785E+00-2.25555E-13-1.57485E-13
 -1      1752 2.05674E+01 2.80796E+00-1.42320E-01-2.84651E+00-2.60118E-13-5.34087E-14
 -1      1753 2.04175E+01 2.69407E+00-4.38921E-03-2.21739E+00-2.34104E-13-1.76581E-13
 -1      1754 1.93672E+01 4.19766E+00-2.02283E-02-1.26268E+00-5.39026E-14-3.63364E-13
 -1      1755 1.94387E+01 4.15601E+00-1.74073E-02-1.48644E+00-8.74587E-14-3.66129E-13
 -1      1756 1.92734E+01 4.30593E+00-1.68163E-02-8.53354E-01 8.03762E-15-3.58004E-13
 -1      1757 1.93151E+01 4.28116E+00-1.42318E-02-1.06312E+00-1.73813E-14-3.64880E-13
 -1      1758 1.95397E+01 3.79486E+00-9.05437E-03-1.11105E+00-4.38129E-14-3.44787E-13
 -1      1759 1.92231E+01 4.36856E+00-1.48108E-02-4.62973E-01 6.58529E-14-3.34120E-13
 -1      1760 1.92446E+01 4.35510E+00-1.32367E-02-6.61972E-01 3.92320E-14-3.50442E-13
 -1      1761 1.94443E+01 3.91866E+00-9.02410E-03-7.26443E-01 2.79718E-14-3.35881E-13
 -1      1762 1.92042E+01 4.39524E+00-1.36481E-02-8.29465E-02 1.26310E-13-3.17728E-13
 -1      1763 1.92104E+01 4.39110E+00-1.31689E-02-2.76896E-01 9.63958E-14-3.28406E-13
 -1      1764 1.93947E+01 3.98552E+00-8.96088E-03-3.54735E-01 8.85044E-14-3.20676E-13
 -1      1765 1.92123E+01 4.38969E+00-1.31212E-02 2.95548E-01 1.72983E-13-2.85922E-13
 -1      1766 1.92047E+01 4.39439E+00-1.37354E-02 1.01428E-01 1.46871E-13-3.04654E-13
 -1      1767 1.93802E+01 4.00573E+00-8.94284E-03 1.03283E-02 1.43205E-13-3.01086E-13
 -1      1768 1.92490E+01 4.35095E+00-1.32570E-02 6.81382E-01 2.08801E-13-2.66799E-13
 -1      1769 1.92262E+01 4.36531E+00-1.49283E-02 4.81855E-01 1.93777E-13-2.85105E-13
 -1      1770 1.93976E+01 3.98215E+00-8.99794E-03 3.75606E-01 1.97823E-13-2.74477E-13
 -1      1771 1.93211E+01 4.27493E+00-1.43212E-02 1.07693E+00 2.43372E-13-2.03211E-13
 -1      1772 1.92786E+01 4.30042E+00-1.70078E-02 8.69856E-01 2.24577E-13-2.39019E-13
 -1      1773 1.94500E+01 3.91230E+00-9.02618E-03 7.44569E-01 2.28239E-13-2.40554E-13
 -1      1774 1.94495E+01 4.14431E+00-1.73065E-02 1.50583E+00 2.97820E-13-1.04611E-13
 -1      1775 1.93749E+01 4.18820E+00-2.05406E-02 1.27674E+00 2.63514E-13-1.57645E-13
 -1      1776 1.95481E+01 3.78485E+00-9.11875E-03 1.12612E+00 2.73992E-13-1.67671E-13
 -1      1777 1.96729E+01 3.92414E+00-2.50957E-02 1.97085E+00 3.23591E-13 2.19130E-14
 -1      1778 1.95433E+01 4.00233E+00-2.69154E-02 1.71356E+00 3.04362E-13-5.59795E-14
 -1      1779 1.97180E+01 3.57360E+00-8.62360E-03 1.52493E+00 3.15891E-13-5.90170E-14
 -1      1780 2.00722E+01 3.52260E+00-4.50682E-02 2.46402E+00 3.38720E-13 2.23068E-13
 -1      1781 1.98373E+01 3.68441E+00-3.96646E-02 2.17470E+00 3.26197E-13 1.02598E-13
 -1      1782 2.00080E+01 3.22644E+00-5.24220E-03 1.92462E+00 3.39056E-13 8.00211E-14
 -1      1783 2.09039E+01 2.67995E+00-5.75111E-02 2.85104E+00 2.94148E-13 5.60142E-13
 -1      1784 2.04039E+01 3.09577E+00-5.02935E-02 2.60891E+00 3.14884E-13 3.61669E-13
 -1      1785 2.05110E+01 2.61042E+00 3.18732E-03 2.23611E+00 3.33786E-13 2.92717E-13
 -1      1786 2.17028E+01 1.21208E+00-1.21901E-01 2.32505E+00 2.27665E-13 9.45050E-13
 -1      1787 2.12527E+01 2.26108E+00 1.28630E-04 2.73460E+00 2.64897E-13 6.93126E-13
 -1      1788 2.09205E+01 1.68454E+00-2.28530E-02 2.13367E+00 3.01932E-13 5.49560E-13
 -1      1789 2.09261E+01 7.78318E-01-6.23260E-02 1.51991E+00 2.33959E-13 8.68951E-13
 -1      1790 2.17709E+01 2.45569E+00 9.07830E-02-3.04241E+00-2.33105E-13 1.63633E-13
 -1      1791 2.00801E+01 2.98592E-01-8.80787E-03 6.52251E-01 1.89924E-13 7.31561E-13
 -1      1792 2.06296E+01 4.40719E-01-1.23722E-02 1.02948E+00 1.99063E-13 8.05411E-13
 -1      1793 2.07254E+01 8.45186E-01 2.20647E-03 1.40932E+00 2.43632E-13 6.18923E-13
 -1      1794 2.14860E+01 1.74177E+00 7.93617E-02-2.33090E+00-2.45519E-13 8.16291E-14
 -1      1795 2.05041E+01 5.01559E-01 3.26125E-02-9.14983E-01-1.95125E-13 5.27964E-14
 -1      1796 2.00753E+01 3.53706E-01 7.81911E-03-6.22361E-01-1.82663E-13-9.35797E-15
 -1      1797 1.98841E+01 2.59850E-01 2.75307E-02-3.82070E-01-1.76886E-13-6.22332E-15
 -1      1798 1.96977E+01 1.81416E-01 1.07228E-02-2.42467E-01-1.51705E-13-5.90769E-14
 -1      1799 2.01927E+01 4.86949E-01-5.88101E-03-7.11438E-01-2.09269E-13-7.09649E-14
 -1      1800 1.95808E+01 1.36837E-01 1.68356E-02-1.05869E-01-1.22907E-13-5.64652E-14
 -1      1801 1.95094E+01 9.82524E-02 7.41547E-03-3.23039E-02-8.38166E-14-8.47660E-14
 -1      1802 1.98750E+01 2.49721E-01-5.86394E-03-2.78560E-01-1.58426E-13-7.72021E-14
 -1      1803 1.94515E+01 7.45918E-02 8.90689E-03 4.58054E-02-7.09242E-14-8.16482E-14
 -1      1804 1.94469E+01 5.42516E-02 4.69843E-03 8.60851E-02-6.00015E-14-9.91852E-14
 -1      1805 1.97043E+01 1.33723E-01-4.91485E-03-3.31331E-02-8.99675E-14-9.15134E-14
 -1      1806 1.94308E+01 4.11631E-02 4.53283E-03 1.31305E-01-4.79733E-14-8.88170E-14
 -1      1807 1.94649E+01 3.04169E-02 3.22859E-03 1.53824E-01-3.25824E-14-1.07016E-13
 -1      1808 1.96348E+01 7.31764E-02-3.83998E-03 1.09014E-01-6.18508E-14-7.31954E-14
 -1      1809 1.94770E+01 2.33204E-02 2.24192E-03 1.80621E-01-2.42627E-14-1.04383E-13
 -1      1810 1.95344E+01 1.82274E-02 2.49337E-03 1.93822E-01-2.66739E-14-9.19042E-14
 -1      1811 1.96344E+01 4.09088E-02-2.83121E-03 1.92775E-01-2.78698E-14-6.99265E-14
 -1      1812 1.95657E+01 1.48803E-02 1.04151E-03 2.10968E-01-6.60267E-14-8.21016E-14
 -1      1813 1.96381E+01 1.33876E-02 2.16889E-03 2.19968E-01-8.46073E-14-8.24895E-14
 -1      1814 1.96808E+01 2.50352E-02-2.06518E-03 2.44340E-01-3.20200E-14-4.64712E-14
 -1      1815 1.96833E+01 1.25241E-02 4.28041E-04 2.33087E-01-1.18710E-13-8.36862E-14
 -1      1816 1.97667E+01 1.34118E-02 2.09182E-03 2.41203E-01-8.91399E-14-8.88032E-14
 -1      1817 1.97597E+01 1.94582E-02-1.57125E-03 2.79982E-01-9.44149E-14-5.43134E-14
 -1      1818 1.98230E+01 1.41937E-02 1.50563E-04 2.54010E-01-7.21978E-14-1.03322E-13
 -1      1819 1.99163E+01 1.66027E-02 2.16506E-03 2.63409E-01-4.33154E-14-1.61623E-13
 -1      1820 1.98632E+01 2.06166E-02-1.30403E-03 3.10297E-01-1.17966E-13-8.24953E-14
 -1      1821 1.99825E+01 1.83555E-02 6.93996E-05 2.78266E-01-4.09161E-14-1.73480E-13
 -1      1822 2.00864E+01 2.15349E-02 2.30357E-03 2.90218E-01-3.22419E-14-2.08447E-13
 -1      1823 1.99875E+01 2.60148E-02-1.20170E-03 3.42201E-01-8.51846E-14-1.15017E-13
 -1      1824 2.01625E+01 2.35895E-02 9.28722E-05 3.08331E-01-4.28588E-14-2.30538E-13
 -1      1825 2.02782E+01 2.67237E-02 2.40954E-03 3.23230E-01 1.05580E-15-2.32773E-13
 -1      1826 2.01316E+01 3.34753E-02-1.20630E-03 3.79780E-01-3.56990E-14-1.00585E-13
 -1      1827 2.03650E+01 2.82914E-02 1.51850E-04 3.44594E-01 2.79169E-14-2.52101E-13
 -1      1828 2.04938E+01 3.03502E-02 2.35796E-03 3.61811E-01 1.52016E-15-2.06787E-13
 -1      1829 2.02962E+01 4.06438E-02-1.26578E-03 4.24456E-01-9.24423E-15-1.39354E-13
 -1      1830 2.05921E+01 3.04069E-02 1.89560E-04 3.84964E-01-2.33428E-14-1.90003E-13
 -1      1831 2.07341E+01 3.00090E-02 1.98798E-03 4.02552E-01-3.11268E-14-1.37122E-13
 -1      1832 2.04830E+01 4.45779E-02-1.33129E-03 4.74682E-01-1.58760E-15-1.20546E-13
 -1      1833 2.08443E+01 2.71999E-02 1.58684E-04 4.24159E-01-6.51618E-14-1.38170E-13
 -1      1834 2.09975E+01 2.25204E-02 1.10488E-03 4.38441E-01-7.78850E-14-1.72444E-13
 -1      1835 2.06930E+01 4.13890E-02-1.35355E-03 5.25230E-01-6.31472E-14-1.41829E-13
 -1      1836 2.11189E+01 1.51329E-02 2.27164E-05 4.52780E-01-8.46822E-14-1.84827E-13
 -1      1837 2.12776E+01 3.94922E-03-4.95264E-04 4.57916E-01-1.44669E-14-2.38606E-13
 -1      1838 2.09258E+01 2.60343E-02-1.27791E-03 5.66185E-01-8.94525E-14-1.48956E-13
 -1      1839 2.14080E+01-9.92908E-03-2.41084E-04 4.56451E-01 2.17193E-15-2.99860E-13
 -1      1840 2.15612E+01-2.98665E-02-2.95954E-03 4.44247E-01-1.11390E-14-3.61886E-13
 -1      1841 2.11781E+01-7.46796E-03-1.03549E-03 5.81928E-01-6.50933E-14-1.85660E-13
 -1      1842 2.16955E+01-5.18027E-02-6.44622E-04 4.15673E-01-9.83350E-15-3.67000E-13
 -1      1843 2.18261E+01-8.17800E-02-6.24876E-03 3.76113E-01-8.71996E-14-3.63203E-13
 -1      1844 2.14420E+01-6.48721E-02-5.27549E-04 5.50700E-01-3.52343E-14-2.55318E-13
 -1      1845 2.19556E+01-1.11782E-01-1.20350E-03 3.07651E-01-1.21233E-13-2.98746E-13
 -1      1846 2.20402E+01-1.50206E-01-9.93602E-03 2.30971E-01-7.30501E-14-2.98170E-13
 -1      1847 2.17032E+01-1.48802E-01 3.94820E-04 4.45980E-01-7.18382E-14-2.71440E-13
 -1      1848 2.21504E+01-1.84661E-01-1.96635E-03 1.12026E-01-1.85798E-14-3.42342E-13
 -1      1849 2.21621E+01-2.24314E-01-1.30075E-02-6.72880E-03 9.83935E-15-4.05312E-13
 -1      1850 2.19385E+01-2.53380E-01 1.93357E-03 2.41671E-01-1.04716E-13-2.87304E-13
 -1      1851 2.22323E+01-2.53540E-01-3.04680E-03-1.77445E-01 2.99856E-14-3.89904E-13
 -1      1852 2.21469E+01-2.79159E-01-1.38071E-02-3.31142E-01 1.68884E-14-4.17668E-13
 -1      1853 2.21136E+01-3.56952E-01 4.22429E-03-7.64033E-02 8.33665E-15-2.43516E-13
 -1      1854 2.21511E+01-2.86222E-01-4.45182E-03-5.35276E-01 4.33611E-14-3.24929E-13
 -1      1855 2.19583E+01-2.75609E-01-1.04874E-02-6.96557E-01 7.23423E-14-2.71231E-13
 -1      1856 2.21836E+01-4.16579E-01 7.06373E-03-4.91585E-01 6.32944E-14-2.48279E-13
 -1      1857 2.18727E+01-2.40271E-01-5.89325E-03-8.86441E-01 6.55691E-14-2.49820E-13
 -1      1858 2.15894E+01-1.73962E-01-2.41762E-03-1.00488E+00 8.67132E-14-1.95343E-13
 -1      1859 2.21014E+01-3.72798E-01 9.40133E-03-9.33817E-01 8.27411E-14-1.25774E-13
 -1      1860 2.14114E+01-8.58239E-02-6.09596E-03-1.10586E+00 2.88950E-14-2.36214E-13
 -1      1861 2.10895E+01 3.38437E-02 8.12779E-03-1.12041E+00-3.04919E-14-2.09625E-13
 -1      1862 2.18411E+01-1.78895E-01 8.63903E-03-1.26841E+00 6.72739E-14-1.25587E-13
 -1      1863 2.08602E+01 1.57180E-01-3.28572E-03-1.05887E+00-5.99633E-14-2.29419E-13
 -1      1864 2.05807E+01 2.90938E-01 1.59022E-02-9.30095E-01-1.18608E-13-3.09185E-13
 -1      1865 2.14388E+01 1.51342E-01 2.55563E-03-1.32588E+00-6.55216E-14-1.70202E-13
 -1      1866 2.03884E+01 3.98832E-01 3.54046E-03-6.85149E-01-1.46876E-13-3.16212E-13
 -1      1867 2.02342E+01 4.84025E-01 1.67025E-02-4.32036E-01-1.15547E-13-3.10050E-13
 -1      1868 2.10204E+01 5.08059E-01-8.04676E-03-9.90748E-01-1.52723E-13-1.67505E-13
 -1      1869 2.01705E+01 5.21443E-01 1.24306E-02-6.91870E-02-6.07916E-14-2.58472E-13
 -1      1870 2.01921E+01 5.09461E-01 1.06017E-02 2.26607E-01 4.82218E-14-2.06894E-13
 -1      1871 2.07649E+01 7.30136E-01-1.59349E-02-3.08846E-01-1.34476E-14 2.68837E-14
 -1      1872 2.02934E+01 4.51870E-01 1.78757E-02 5.72865E-01 5.93562E-14-2.45053E-13
 -1      1873 2.04842E+01 3.49287E-01 2.28005E-03 8.02601E-01 9.49206E-14-2.83375E-13
 -1      1874 2.08031E+01 7.01198E-01-1.32786E-02 4.92765E-01 2.18237E-14-9.70079E-14
 -1      1875 2.06954E+01 2.31408E-01 1.50213E-02 1.00697E+00 9.62706E-14-2.96085E-13
 -1      1876 2.09936E+01 9.53770E-02-3.99140E-03 1.10090E+00-4.02215E-14-3.20441E-13
 -1      1877 2.11141E+01 4.30708E-01-4.51951E-03 1.10850E+00 4.50560E-14-2.09540E-13
 -1      1878 2.12175E+01-2.28322E-02 5.78188E-03 1.11930E+00-1.03450E-13-2.79107E-13
 -1      1879 2.15377E+01-1.31492E-01-6.06056E-03 1.07550E+00-3.56520E-14-2.43597E-13
 -1      1880 2.15450E+01 6.52619E-02 4.74416E-03 1.34745E+00 1.55258E-15-1.70391E-13
 -1      1881 2.16965E+01-2.07032E-01-4.61730E-03 9.46922E-01-5.08526E-14-1.16604E-13
 -1      1882 2.19632E+01-2.58831E-01-5.46259E-03 8.13633E-01-9.75483E-14-6.92575E-14
 -1      1883 2.19228E+01-2.37592E-01 9.31773E-03 1.21132E+00 2.02529E-16 2.66944E-14
 -1      1884 2.20278E+01-2.82310E-01-1.16779E-02 6.15723E-01-1.25473E-13-1.09158E-13
 -1      1885 2.21977E+01-2.81987E-01-4.00803E-03 4.53583E-01-2.41352E-14 7.30752E-17
 -1      1886 2.21438E+01-3.93232E-01 8.89568E-03 8.38746E-01-7.39443E-14 1.15524E-13
 -1      1887 2.21779E+01-2.67621E-01-1.38884E-02 2.55884E-01-3.78335E-14 3.10082E-17
 -1      1888 2.22421E+01-2.36536E-01-2.60643E-03 1.10258E-01 9.08336E-14 1.05168E-17
 -1      1889 2.21904E+01-4.06309E-01 6.23942E-03 3.96401E-01-7.45758E-15 1.69231E-13
 -1      1890 2.21634E+01-2.04490E-01-1.23491E-02-4.68680E-02 5.99377E-14-1.21661E-13
 -1      1891 2.21368E+01-1.63627E-01-1.53875E-03-1.53898E-01-1.00536E-14-1.58133E-13
 -1      1892 2.20966E+01-3.30436E-01 3.46553E-03 4.34235E-03 1.98756E-15-6.34348E-14
 -1      1893 2.20246E+01-1.29222E-01-8.97070E-03-2.57585E-01 4.20848E-14-2.79072E-13
 -1      1894 2.19333E+01-9.18640E-02-7.53777E-04-3.22409E-01-2.19041E-14-2.77149E-13
 -1      1895 2.19110E+01-2.22370E-01 1.35445E-03-2.81427E-01-6.03241E-14-8.20192E-14
 -1      1896 2.18073E+01-6.31686E-02-5.28435E-03-3.76888E-01-1.02675E-13-3.01089E-13
 -1      1897 2.16783E+01-3.49413E-02-1.56438E-04-4.06079E-01-1.51969E-13-3.60947E-13
 -1      1898 2.16769E+01-1.19992E-01-3.15614E-05-4.53320E-01-8.06625E-14-1.90178E-13
 -1      1899 2.15515E+01-1.44833E-02-2.15091E-03-4.22863E-01-1.04212E-13-2.21337E-13
 -1      1900 2.14073E+01 3.93394E-03 2.98046E-04-4.26456E-01-4.12670E-14-1.03899E-13
 -1      1901 2.14264E+01-4.05649E-02-8.63443E-04-5.29568E-01-6.48495E-14-8.20594E-14
 -1      1902 2.12879E+01 1.66791E-02 1.17902E-04-4.18093E-01-8.51026E-14-1.69712E-13
 -1      1903 2.11447E+01 2.69277E-02 6.22150E-04-4.05702E-01-1.20539E-13-1.30698E-13
 -1      1904 2.11810E+01 1.26683E-02-1.32306E-03-5.36903E-01-9.71986E-14-2.14173E-14
 -1      1905 2.10373E+01 3.36695E-02 1.54010E-03-3.82820E-01-1.11452E-13-8.42420E-14
 -1      1906 2.09051E+01 3.80306E-02 8.25439E-04-3.62030E-01-1.64043E-13-1.19816E-13
 -1      1907 2.09538E+01 4.34279E-02-1.53981E-03-5.00819E-01-1.28191E-13-4.35622E-14
 -1      1908 2.08117E+01 4.06295E-02 2.28028E-03-3.32450E-01-1.84952E-13-2.05234E-14
 -1      1909 2.06961E+01 4.12055E-02 9.26801E-04-3.08534E-01-1.77251E-13 7.76424E-15
 -1      1910 2.07520E+01 5.76317E-02-1.59647E-03-4.41552E-01-1.43056E-13 2.46258E-13
 -1      1911 2.06171E+01 4.12368E-02 2.53637E-03-2.77427E-01-1.69910E-13 1.27549E-14
 -1      1912 2.05198E+01 3.96728E-02 9.53203E-04-2.53665E-01 7.26879E-14-6.39026E-14
 -1      1913 2.05785E+01 6.09640E-02-1.54801E-03-3.73356E-01-1.10801E-13 4.18004E-13
 -1      1914 2.04548E+01 3.83205E-02 2.48435E-03-2.24073E-01 2.49542E-13-2.13656E-13
 -1      1915 2.03756E+01 3.57941E-02 9.34540E-04-2.02224E-01 2.68048E-13-7.66965E-14
 -1      1916 2.04335E+01 5.79774E-02-1.43325E-03-3.05257E-01 7.22019E-14 3.60363E-13
 -1      1917 2.03231E+01 3.38910E-02 2.25799E-03-1.75635E-01 2.48382E-13-3.80076E-14
 -1      1918 2.02607E+01 3.11972E-02 8.95695E-04-1.56387E-01 3.23415E-13 2.20801E-13
 -1      1919 2.03151E+01 5.19863E-02-1.28010E-03-2.42252E-01 3.59483E-13 1.84541E-13
 -1      1920 2.02194E+01 2.92983E-02 1.94547E-03-1.33224E-01 2.24566E-13 8.65210E-14
 -1      1921 2.01718E+01 2.69446E-02 8.48402E-04-1.16556E-01 3.07041E-13 8.60786E-14
 -1      1922 2.02208E+01 4.52515E-02-1.11078E-03-1.86457E-01 2.32449E-13 2.63872E-13
 -1      1923 2.01399E+01 2.53960E-02 1.59293E-03-9.65783E-02 2.67052E-13 4.84196E-14
 -1      1924 2.01053E+01 2.36764E-02 7.98686E-04-8.20546E-02 2.44436E-13-1.36718E-14
 -1      1925 2.01473E+01 3.92314E-02-9.32972E-04-1.38101E-01 2.37153E-13-5.19720E-14
 -1      1926 2.00811E+01 2.25067E-02 1.19407E-03-6.46532E-02 2.58674E-13-1.11082E-13
 -1      1927 2.00577E+01 2.13141E-02 7.17853E-04-5.17669E-02 3.04938E-13-1.93687E-15
 -1      1928 2.00914E+01 3.47502E-02-7.16865E-04-9.63484E-02 1.59676E-13-5.37979E-14
 -1      1929 2.00414E+01 1.99051E-02 9.01739E-04-3.73530E-02 2.66359E-13 5.90433E-14
 -1      1930 2.00268E+01 1.83346E-02 6.77292E-04-2.64398E-02 1.69835E-13 1.36657E-13
 -1      1931 2.00243E+01 2.40662E-02-5.33663E-04-3.19579E-02-2.12552E-15 3.31079E-14
 -1      1932 2.00513E+01 3.01575E-02-8.18879E-04-6.09523E-02 2.69566E-13 1.63415E-13
 -1      1933 1.96039E+01 1.43577E-01 8.01100E-03 2.52535E-01 1.38101E-13 6.33571E-13
 -1      1934 1.98727E+01 2.05280E-01 1.65380E-02 4.26431E-01 1.57256E-13 6.86243E-13
 -1      1935 2.00887E+01 3.51953E-01-1.60792E-03 6.47363E-01 1.96515E-13 5.17771E-13
 -1      1936 1.93713E+01 7.45752E-02 7.13676E-03 4.56733E-02 7.52081E-14 5.68001E-13
 -1      1937 1.94814E+01 1.04015E-01 1.43533E-02 1.35895E-01 1.00109E-13 6.07094E-13
 -1      1938 1.97040E+01 1.67993E-01-2.06853E-03 2.44848E-01 1.33570E-13 4.81434E-13
 -1      1939 1.92954E+01 4.02466E-02 4.70806E-03-6.59842E-02 4.11914E-14 5.02541E-13
 -1      1940 1.93181E+01 5.55125E-02 8.57568E-03-1.60236E-02 4.67946E-14 5.26963E-13
 -1      1941 1.95154E+01 8.52635E-02-3.00203E-03 2.65718E-02 7.13995E-14 3.85423E-13
 -1      1942 1.93155E+01 2.21736E-02 3.26490E-03-1.27637E-01 5.07034E-14 4.24771E-13
 -1      1943 1.92889E+01 3.03413E-02 4.69672E-03-9.88992E-02 4.19261E-14 4.73020E-13
 -1      1944 1.94536E+01 4.43469E-02-3.08736E-03-9.48749E-02 7.33322E-14 3.05405E-13
 -1      1945 1.93944E+01 1.29887E-02 2.55721E-03-1.62739E-01 1.15248E-13 3.94753E-13
 -1      1946 1.93392E+01 1.71296E-02 2.62394E-03-1.45400E-01 6.68246E-14 4.08967E-13
 -1      1947 1.94721E+01 2.35122E-02-2.64067E-03-1.64153E-01 8.31916E-14 2.59271E-13
 -1      1948 1.95114E+01 9.36928E-03 2.23380E-03-1.84959E-01 1.06668E-13 3.87794E-13
 -1      1949 1.94385E+01 1.09853E-02 1.59044E-03-1.73198E-01 1.34981E-13 4.14120E-13
 -1      1950 1.95423E+01 1.38164E-02-2.13712E-03-2.05849E-01 1.32692E-13 2.81949E-13
 -1      1951 1.96558E+01 9.66504E-03 2.13874E-03-2.03240E-01 4.01659E-14 3.56991E-13
 -1      1952 1.95702E+01 9.56490E-03 1.12184E-03-1.93155E-01 7.20397E-14 3.90315E-13
 -1      1953 1.96477E+01 1.12197E-02-1.76337E-03-2.34975E-01 8.60970E-14 3.26083E-13
 -1      1954 1.98243E+01 1.29927E-02 2.22033E-03-2.24063E-01-7.68824E-15 3.68855E-13
 -1      1955 1.97271E+01 1.16492E-02 9.88682E-04-2.12741E-01 2.21705E-14 3.51089E-13
 -1      1956 1.97803E+01 1.37039E-02-1.55617E-03-2.61693E-01 3.73595E-14 3.21336E-13
 -1      1957 2.00189E+01 1.88604E-02 2.46284E-03-2.52539E-01 8.54228E-14 3.35203E-13
 -1      1958 1.99083E+01 1.65671E-02 1.07828E-03-2.37599E-01 5.38606E-14 3.39862E-13
 -1      1959 1.99378E+01 2.01909E-02-1.50339E-03-2.93538E-01 5.28589E-14 2.93428E-13
 -1      1960 2.02456E+01 2.69612E-02 2.85427E-03-2.92959E-01 1.39189E-13 2.96279E-13
 -1      1961 2.01176E+01 2.39287E-02 1.32482E-03-2.72321E-01 1.01111E-13 3.03032E-13
 -1      1962 2.01223E+01 3.00676E-02-1.58564E-03-3.36523E-01 1.29949E-13 2.24999E-13
 -1      1963 2.05135E+01 3.69921E-02 3.36729E-03-3.48986E-01 8.97032E-14 2.25481E-13
 -1      1964 2.03625E+01 3.34354E-02 1.67545E-03-3.20788E-01 9.03327E-14 2.91646E-13
 -1      1965 2.03393E+01 4.28892E-02-1.78834E-03-3.95649E-01 1.12935E-13 2.10933E-13
 -1      1966 2.08342E+01 4.84048E-02 3.93577E-03-4.23478E-01 4.11867E-14 2.92271E-13
 -1      1967 2.06530E+01 4.46646E-02 2.06990E-03-3.86162E-01 3.09128E-14 2.44866E-13
 -1      1968 2.05966E+01 5.80743E-02-2.10397E-03-4.74956E-01 6.67372E-14 1.74655E-13
 -1      1969 2.12201E+01 5.99872E-02 4.41891E-03-5.17748E-01 9.26191E-15 3.16397E-13
 -1      1970 2.10011E+01 5.67285E-02 2.42104E-03-4.70418E-01 8.01356E-15 3.08612E-13
 -1      1971 2.09036E+01 7.44448E-02-2.53251E-03-5.77039E-01 1.64120E-14 2.57007E-13
 -1      1972 2.16827E+01 6.91469E-02 4.55248E-03-6.29915E-01 1.22130E-13 2.25668E-13
 -1      1973 2.14193E+01 6.76909E-02 2.59434E-03-5.73157E-01 1.06519E-13 3.15703E-13
 -1      1974 2.12703E+01 8.94490E-02-3.08091E-03-7.01725E-01 9.00799E-14 1.69990E-13
 -1      1975 2.22294E+01 7.07765E-02 3.90284E-03-7.51762E-01 8.99497E-14 1.62380E-13
 -1      1976 2.19179E+01 7.36046E-02 2.39289E-03-6.89234E-01 8.75402E-14 2.29525E-13
 -1      1977 2.17051E+01 9.78833E-02-3.75568E-03-8.43427E-01 1.44844E-13 2.45579E-13
 -1      1978 2.28573E+01 5.57577E-02 1.87920E-03-8.63503E-01 1.24501E-14 2.87784E-13
 -1      1979 2.25016E+01 6.71123E-02 1.57053E-03-8.04654E-01 6.38821E-14 2.16996E-13
 -1      1980 2.22128E+01 9.00318E-02-4.53325E-03-9.86554E-01 5.70288E-14 2.37466E-13
 -1      1981 2.35454E+01 9.85042E-03-2.07900E-03-9.26356E-01-2.23089E-13 2.48373E-13
 -1      1982 2.31628E+01 3.59682E-02-8.73005E-05-8.90376E-01-1.39787E-13 2.48953E-13
 -1      1983 2.27909E+01 4.96838E-02-5.27650E-03-1.09854E+00-9.00825E-14 2.85185E-13
 -1      1984 2.42438E+01-8.45112E-02-7.95348E-03-8.75178E-01-1.06862E-13 3.25309E-13
 -1      1985 2.38725E+01-3.69428E-02-2.59754E-03-8.95080E-01-1.45943E-13 2.83386E-13
 -1      1986 2.34240E+01-4.58894E-02-5.56688E-03-1.12150E+00-1.67393E-13 2.58264E-13
 -1      1987 2.48630E+01-2.37774E-01-1.40841E-02-6.19556E-01-1.64016E-13 4.13633E-13
 -1      1988 2.45684E+01-1.67782E-01-5.51941E-03-7.41952E-01-1.45660E-13 3.45736E-13
 -1      1989 2.40769E+01-2.18498E-01-4.43426E-03-9.67590E-01-1.65805E-13 2.88846E-13
 -1      1990 2.52697E+01-4.26494E-01-1.63143E-02-7.21773E-02-2.44145E-14 4.83134E-13
 -1      1991 2.51406E+01-3.52654E-01-7.84024E-03-3.42683E-01-1.10184E-13 5.02561E-13
 -1      1992 2.46826E+01-4.64679E-01-2.20217E-04-5.31843E-01-1.16901E-13 4.11244E-13
 -1      1993 2.52991E+01-5.53901E-01-1.08642E-02 7.65669E-01-3.82784E-14 5.73843E-13
 -1      1994 2.54249E+01-5.29695E-01-9.35489E-03 3.47511E-01-3.55618E-14 5.45328E-13
 -1      1995 2.51262E+01-7.05413E-01 8.31594E-03 2.52123E-01-5.53672E-14 5.05391E-13
 -1      1996 2.48167E+01-4.46541E-01-1.46587E-05 1.66827E+00-2.06129E-13 6.93955E-13
 -1      1997 2.52349E+01-5.50331E-01-1.20059E-02 1.21815E+00-1.33157E-13 6.44323E-13
 -1      1998 2.52401E+01-7.51528E-01 1.59828E-02 1.28651E+00-1.44725E-13 6.75834E-13
 -1      1999 2.38450E+01 2.14313E-02 2.44738E-03 2.11449E+00-1.18915E-14 8.67174E-13
 -1      2000 2.44802E+01-2.33151E-01-1.58829E-02 1.89581E+00-1.78753E-13 7.26946E-13
 -1      2001 2.48755E+01-3.69681E-01 1.09990E-02 2.17338E+00-1.88728E-13 7.19626E-13
 -1      2002 2.27588E+01 6.74752E-01-1.50481E-02 1.56187E+00 3.10012E-13 7.52858E-13
 -1      2003 2.33794E+01 4.02472E-01-1.44564E-02 1.83217E+00 2.43416E-13 8.97296E-13
 -1      2004 2.41015E+01 4.43200E-01-1.24726E-02 2.24404E+00 1.98255E-13 7.63074E-13
 -1      2005 2.22440E+01 9.98540E-01-4.33795E-02 6.64608E-02 3.89588E-13 4.25710E-13
 -1      2006 2.25219E+01 9.47619E-01-6.47908E-03 7.66750E-01 4.24556E-13 6.23250E-13
 -1      2007 2.33911E+01 1.22863E+00-3.52075E-02 1.09788E+00 4.81250E-13 5.93764E-13
 -1      2008 2.27261E+01 6.85145E-01-4.81062E-02-1.46998E+00 4.91968E-14 1.42709E-13
 -1      2009 2.24772E+01 9.12438E-01-1.18378E-03-7.78068E-01 1.50643E-13 2.90826E-13
 -1      2010 2.33321E+01 1.32220E+00-3.75277E-02-7.51789E-01 2.60951E-13 2.74844E-13
 -1      2011 2.38758E+01 3.97811E-02-1.64227E-02-2.11244E+00 1.27469E-13 9.31338E-14
 -1      2012 2.32375E+01 3.41687E-01-1.91377E-03-1.83198E+00 2.00118E-14 6.52603E-14
 -1      2013 2.39774E+01 6.46731E-01-1.41273E-02-2.11724E+00 1.38316E-13 1.16615E-13
 -1      2014 2.49495E+01-4.31158E-01 1.70808E-02-1.73260E+00 8.64794E-14-7.03118E-14
 -1      2015 2.42626E+01-2.61897E-01-7.83927E-03-1.88934E+00 1.52052E-13 6.85910E-15
 -1      2016 2.47754E+01-2.26032E-01 4.91569E-03-2.27796E+00 1.81034E-13-4.53110E-15
 -1      2017 2.54693E+01-5.40479E-01 2.35629E-02-8.42155E-01-1.15039E-13-4.93611E-14
 -1      2018 2.50215E+01-5.41831E-01-1.66534E-02-1.20789E+00-4.25562E-14-6.49446E-14
 -1      2019 2.52063E+01-7.40639E-01-3.74927E-03-1.49630E+00 4.81299E-14-9.13106E-14
 -1      2020 2.54169E+01-4.18182E-01 1.71504E-02 1.25796E-02 4.75280E-14-1.06916E-13
 -1      2021 2.52935E+01-5.04180E-01-1.86886E-02-3.41270E-01-1.03664E-13-1.28067E-13
 -1      2022 2.51644E+01-7.58488E-01-9.50311E-03-4.50113E-01-5.20313E-14-2.14507E-13
 -1      2023 2.49623E+01-2.34476E-01 6.91463E-03 5.83604E-01-6.26539E-14 1.05123E-13
 -1      2024 2.51101E+01-3.27662E-01-1.46694E-02 3.43998E-01-1.93352E-14-7.48932E-14
 -1      2025 2.47739E+01-5.33226E-01-1.10095E-02 3.96942E-01-1.75693E-14-1.14611E-13
 -1      2026 2.43038E+01-8.42920E-02-2.96624E-04 8.56204E-01-2.85822E-14 3.59572E-13
 -1      2027 2.46165E+01-1.50999E-01-8.94928E-03 7.37848E-01-1.24831E-14 2.72171E-13
 -1      2028 2.41979E+01-2.69341E-01-8.18805E-03 8.97089E-01-8.71959E-14 1.54480E-13
 -1      2029 2.35869E+01 8.94835E-03-3.52264E-03 9.15294E-01 2.53745E-13 3.35268E-13
 -1      2030 2.39678E+01-2.80279E-02-3.62086E-03 8.84975E-01 1.24222E-13 3.06159E-13
 -1      2031 2.35598E+01-7.23126E-02-4.48828E-03 1.09477E+00 1.43679E-13 2.79336E-13
 -1      2032 2.28991E+01 5.51280E-02-4.11245E-03 8.53097E-01 9.62766E-14 2.21798E-13
 -1      2033 2.32821E+01 3.98200E-02 2.95577E-04 8.73767E-01 2.79567E-13 3.24753E-13
 -1      2034 2.29334E+01 4.22654E-02-1.84352E-03 1.09392E+00 2.71131E-13 2.66446E-13
 -1      2035 2.22852E+01 7.12100E-02-3.51035E-03 7.36958E-01-1.41702E-13-2.72406E-13
 -1      2036 2.26337E+01 6.86875E-02 2.66968E-03 7.81102E-01-9.09338E-14-2.62572E-14
 -1      2037 2.23597E+01 9.43500E-02-4.84800E-04 9.87556E-01 1.23720E-13 1.37803E-13
 -1      2038 2.17624E+01 7.09989E-02-2.59164E-03 6.07272E-01 1.08654E-13-1.63308E-13
 -1      2039 2.20608E+01 7.48265E-02 3.78132E-03 6.58124E-01-8.70319E-14-2.75733E-13
 -1      2040 2.18581E+01 1.08515E-01-1.07161E-05 8.39135E-01-1.12663E-13-2.10744E-13
 -1      2041 2.13318E+01 6.33645E-02-1.74565E-03 4.84798E-01-9.38125E-14 6.37353E-14
 -1      2042 2.15771E+01 6.96638E-02 4.03768E-03 5.33571E-01 2.77942E-14 8.30759E-15
 -1      2043 2.14343E+01 1.03183E-01 1.42715E-05 6.85391E-01-3.05281E-14-9.33217E-14
 -1      2044 2.09856E+01 5.32825E-02-1.08834E-03 3.78265E-01 5.78821E-14 2.68716E-13
 -1      2045 2.11817E+01 5.99933E-02 3.80325E-03 4.21127E-01 5.33510E-14 1.51448E-13
 -1      2046 2.10857E+01 8.96746E-02-1.21872E-04 5.44546E-01-5.87822E-14 4.47330E-14
 -1      2047 2.07129E+01 4.32528E-02-6.16946E-04 2.89856E-01-1.10557E-13 2.45306E-14
 -1      2048 2.08662E+01 4.94100E-02 3.34030E-03 3.25712E-01 2.00840E-14 2.26838E-13
 -1      2049 2.08051E+01 7.41086E-02-2.70638E-04 4.23718E-01 5.32311E-14 2.60103E-13
 -1      2050 2.05016E+01 3.43915E-02-2.90341E-04 2.18547E-01-1.23213E-13 9.74661E-14
 -1      2051 2.06194E+01 3.96174E-02 2.81131E-03 2.47673E-01-4.51911E-14 1.15389E-13
 -1      2052 2.05835E+01 5.94323E-02-3.75441E-04 3.24042E-01 1.77549E-15 7.11822E-14
 -1      2053 2.03408E+01 2.71234E-02-6.49050E-05 1.61932E-01 5.84437E-14-9.62796E-14
 -1      2054 2.04296E+01 3.13216E-02 2.30379E-03 1.85228E-01-8.53363E-14-1.56689E-13
 -1      2055 2.04112E+01 4.68860E-02-4.27213E-04 2.43745E-01-3.11346E-14 1.03168E-13
 -1      2056 2.02206E+01 2.15595E-02 9.12234E-05 1.17119E-01 1.90831E-13-3.48696E-13
 -1      2057 2.02863E+01 2.47567E-02 1.85633E-03 1.35736E-01 2.91847E-13-1.03132E-13
 -1      2058 2.02797E+01 3.68783E-02-4.39823E-04 1.79813E-01 2.28159E-13-6.76162E-14
 -1      2059 2.01333E+01 1.76386E-02 1.84960E-04 8.11552E-02 4.71796E-13-3.41312E-13
 -1      2060 2.01803E+01 1.99380E-02 1.47471E-03 9.63236E-02 2.60892E-13-2.94044E-13
 -1      2061 2.01812E+01 2.94474E-02-4.30653E-04 1.28834E-01 3.30670E-13-1.58049E-13
 -1      2062 2.00724E+01 1.51167E-02 2.01740E-04 5.14475E-02 2.73942E-13-3.38258E-13
 -1      2063 2.01044E+01 1.66752E-02 1.13235E-03 6.42761E-02 4.94396E-13-2.46883E-13
 -1      2064 2.01093E+01 2.43008E-02-4.35355E-04 8.75173E-02 4.37917E-13-7.00473E-14
 -1      2065 2.00331E+01 1.34923E-02 3.73034E-04 2.63497E-02-2.28334E-13-1.07381E-13
 -1      2066 2.00525E+01 1.44695E-02 7.79499E-04 3.74175E-02-5.15736E-14-1.89816E-13
 -1      2067 2.00587E+01 2.09990E-02-3.92433E-04 5.31964E-02-2.92537E-14 1.73801E-13
 -1      2068 2.00139E+01 1.12554E-02 5.45876E-04 1.07544E-02-1.07071E-13-1.47532E-13
 -1      2069 2.00242E+01 1.34591E-02 5.08732E-04 1.95113E-02-1.63010E-13-1.14547E-13
 -1      2070 2.00297E+01 1.93434E-02-2.70422E-04 2.98475E-02-1.64696E-13 1.45317E-13
 -1      2071 2.00147E+01 1.60799E-02 6.82705E-05 1.52594E-02-1.79297E-13 5.75596E-14
 -1      2072 2.00034E+01 1.18647E-01-3.41973E-04 6.58205E-02-3.18906E-13 3.72991E-14
 -1      2073 2.00082E+01 9.76016E-02 5.29023E-04 6.24577E-02-2.25643E-13 2.63867E-13
 -1      2074 2.00123E+01 7.58238E-02-8.21647E-05 5.56824E-02-8.40761E-14 2.86113E-13
 -1      2075 2.00159E+01 5.76958E-02 5.84258E-04 4.74225E-02-1.50391E-13 4.97143E-13
 -1      2076 2.00153E+01 9.50630E-02-5.78760E-05 7.74324E-02-3.05883E-13 1.26625E-13
 -1      2077 2.00162E+01 4.18472E-02 1.27051E-04 3.67767E-02-1.49033E-13 3.92655E-13
 -1      2078 2.00170E+01 2.84057E-02 4.61105E-04 2.66746E-02-1.82459E-13 1.73916E-13
 -1      2079 2.00241E+01 3.06602E-02 2.80920E-04 3.40332E-02-1.04445E-13 1.48735E-13
 -1      2080 2.00225E+01 5.81309E-02-3.28497E-04 5.75126E-02-2.08413E-13 4.20044E-13
 -1      2081 1.99945E+01 1.60815E-01-5.91686E-04 6.45597E-02-3.62754E-13-6.53874E-13
 -1      2082 1.99991E+01 1.40053E-01 2.22789E-04 6.62980E-02-3.28685E-13-3.01858E-13
 -1      2083 2.00022E+01 1.37937E-01 2.16807E-04 8.51356E-02-3.35192E-13-2.69700E-13
 -1      2084 1.99869E+01 1.97785E-01-7.84065E-04 5.24085E-02-2.69436E-13-2.43805E-13
 -1      2085 1.99906E+01 1.79927E-01-1.44379E-04 5.87703E-02-2.87232E-13-2.96359E-13
 -1      2086 1.99894E+01 1.78338E-01 4.93017E-04 7.88563E-02-2.58798E-13-4.08388E-13
 -1      2087 1.99818E+01 2.23468E-01-8.69870E-04 3.17715E-02-3.29344E-13-1.14408E-13
 -1      2088 1.99841E+01 2.11714E-01-4.92185E-04 4.14680E-02-2.18127E-13-1.67868E-13
 -1      2089 1.99790E+01 2.11344E-01 7.35924E-04 5.97365E-02-7.42719E-14-2.97249E-13
 -1      2090 1.99798E+01 2.34282E-01-8.35832E-04 6.28353E-03-4.75059E-13 1.22946E-14
 -1      2091 1.99804E+01 2.30444E-01-7.49961E-04 1.76263E-02-5.16448E-13 1.41189E-13
 -1      2092 1.99725E+01 2.32252E-01 8.83462E-04 3.12757E-02-2.65656E-13-1.78835E-13
 -1      2093 1.99809E+01 2.28853E-01-6.82922E-04-1.99226E-02-2.16460E-13-2.36722E-13
 -1      2094 1.99799E+01 2.33472E-01-8.82242E-04-8.77324E-03-3.41701E-13-4.87937E-14
 -1      2095 1.99706E+01 2.38418E-01 9.14045E-04-1.78047E-03-3.88975E-13 1.52810E-13
 -1      2096 1.99851E+01 2.08160E-01-4.33698E-04-4.27557E-02-2.17265E-13 1.22976E-14
 -1      2097 1.99826E+01 2.20472E-01-8.74518E-04-3.35619E-02-1.80608E-13-1.62618E-13
 -1      2098 1.99733E+01 2.29209E-01 8.27681E-04-3.42417E-02-1.38261E-13-2.02965E-13
 -1      2099 1.99915E+01 1.76011E-01-1.07872E-04-5.84702E-02-2.29530E-13-1.35570E-13
 -1      2100 1.99879E+01 1.93676E-01-7.53145E-04-5.27499E-02-2.15703E-13-6.26533E-15
 -1      2101 1.99803E+01 2.06288E-01 6.59860E-04-6.09912E-02-8.87779E-14-1.46981E-14
 -1      2102 1.99996E+01 1.35948E-01 2.32762E-04-6.50215E-02-8.99305E-15 3.77990E-13
 -1      2103 1.99952E+01 1.56840E-01-5.43714E-04-6.36094E-02-4.09435E-14 1.93269E-13
 -1      2104 1.99904E+01 1.72667E-01 3.96210E-04-7.82251E-02 8.92970E-14 1.90157E-13
 -1      2105 2.00080E+01 9.40466E-02 5.02193E-04-6.07883E-02 2.29823E-14 8.22926E-14
 -1      2106 2.00036E+01 1.14716E-01-2.92294E-04-6.41847E-02-4.20621E-14 2.29702E-13
 -1      2107 2.00025E+01 1.32335E-01 1.02770E-04-8.32822E-02 1.93712E-13 1.84710E-13
 -1      2108 2.00147E+01 5.43826E-02 1.18120E-04-4.62187E-02-1.01923E-13-9.02327E-14
 -1      2109 2.00118E+01 7.31541E-02-3.27895E-05-5.40763E-02-3.35461E-14-4.10570E-14
 -1      2110 2.00147E+01 9.07043E-02-6.17582E-05-7.50874E-02-3.11939E-14-5.73170E-14
 -1      2111 1.03075E+01-5.36471E+00-1.26499E-01 6.28957E+00 1.74305E-13 5.33379E-13
 -1      2112 6.46280E+00-6.82623E+00-3.95302E-01 4.91325E+00 1.54654E-13 6.25777E-13
 -1      2113 6.76554E-01-6.15474E+00-2.41498E-01 5.38859E-01 2.35117E-13 5.38847E-13
 -1      2114 7.21403E-01-6.39933E+00-2.84929E-01-1.23917E+00-1.88183E-14 8.93063E-13
 -1      2115 3.82251E+00-6.38322E+00-2.62409E-01 4.07594E+00 3.09364E-13 4.92079E-13
 -1      2116 1.86943E+00-6.66226E+00-3.11289E-01 2.71792E+00 2.22211E-13 3.98848E-13
 -1      2117 7.36574E+00-5.15555E+00-1.05606E-01 5.60174E+00-5.60663E-15 4.09339E-13
 -1      2118 1.93760E+01-3.64832E+00-1.37019E-02 6.65602E+00 4.50640E-13 5.27023E-13
 -1      2119 1.45452E+01-5.48252E+00-3.14747E-01 5.97502E+00 3.01981E-13 4.54164E-13
 -1      2120 2.83717E+01-9.72141E-01 1.44632E-01 5.46158E+00 6.71740E-13 4.14280E-13
 -1      2121 2.32898E+01-2.91241E+00-1.99684E-01 5.38111E+00 5.52614E-13 5.09481E-13
 -1      2122 1.95327E+01 4.02228E+00-2.49691E-02-1.69114E+00-1.16586E-13-3.61643E-13
 -1      2123 1.96534E+01 3.94700E+00-2.45760E-02-1.94742E+00-1.51253E-13-3.41196E-13
 -1      2124 1.99674E+01 3.24107E+00-1.87799E-02-1.91581E+00-1.72854E-13-2.97956E-13
 -1      2125 1.97048E+01 3.59746E+00-6.54342E-03-1.50999E+00-1.12461E-13-3.42391E-13
 -1      2126 4.01561E+01 5.63490E+00 3.88099E-01 1.27168E+00 7.59837E-13-1.14575E-13
 -1      2127 3.73241E+01 4.50008E+00 1.79375E-01 2.17454E+00 7.45570E-13 1.21680E-13
 -1      2128 4.14998E+01 7.13059E+00 3.50206E-01-2.23717E-01 1.04017E-12-5.02154E-13
 -1      2129 4.12770E+01 6.84389E+00 3.96798E-01 1.00306E+00 8.93563E-13-2.85688E-13
 -1      2130 3.88391E+01 6.02484E+00 2.03621E-01-1.10238E+00 8.67306E-13-6.50924E-13
 -1      2131 4.04922E+01 6.78745E+00 3.26725E-01-2.61815E-01 9.82714E-13-5.34045E-13
 -1      2132 3.48910E+01 2.84343E+00 1.04458E-01-3.01158E+00 6.69215E-13-8.99947E-13
 -1      2133 3.82152E+01 4.20114E+00 2.61953E-01-2.04485E+00 6.91003E-13-7.78377E-13
 -1      2134 2.77050E+01-6.28957E-01-9.79742E-02-4.90640E+00 5.76317E-13-9.18043E-13
 -1      2135 3.27797E+01 1.12553E+00 2.35132E-01-4.70455E+00 6.23196E-13-9.44467E-13
 -1      2136 1.90847E+01-4.13664E+00-2.74719E-01-5.81610E+00 2.44027E-13-9.68947E-13
 -1      2137 2.43298E+01-2.16139E+00 7.78068E-02-6.28049E+00 4.47309E-13-9.45077E-13
 -1      2138 1.00154E+01-6.28078E+00-4.25489E-01-5.50785E+00 1.29674E-13-9.31963E-13
 -1      2139 1.44135E+01-4.41232E+00-1.26746E-01-6.60267E+00 2.78888E-13-1.04267E-12
 -1      2140 4.12025E+00-6.84213E+00-3.45558E-01-4.11485E+00-1.17573E-13-7.56839E-13
 -1      2141 6.94239E+00-6.06388E+00-2.39967E-01-5.35562E+00 1.15463E-13-9.64562E-13
 -1      2142 5.99515E-01-6.20588E+00-2.90513E-01-8.44524E-01-1.14179E-13-5.69933E-13
 -1      2143 1.52426E+00-6.58853E+00-3.48546E-01-2.54405E+00-6.74738E-14-7.32969E-13
 -1      2144 2.19449E+00-6.31385E+00-2.85254E-01 3.41623E+00-2.87770E-13-1.93456E-13
 -1      2145 1.17917E+00-5.70836E+00-1.78927E-01 1.93361E+00-1.17018E-13-2.74170E-13
 -1      2146 8.12360E+00-5.11926E+00-5.43114E-02 6.35211E+00-1.95954E-13-3.33511E-13
 -1      2147 4.58754E+00-6.56353E+00-3.29264E-01 4.65158E+00-2.67064E-13-1.82687E-13
 -1      2148 5.62876E+00-4.21283E+00-3.93045E-02 5.08583E+00 5.43177E-14-1.80467E-13
 -1      2149 1.58632E+01-3.75328E+00-5.51058E-02 7.02635E+00-4.51417E-13-3.74811E-13
 -1      2150 1.18199E+01-5.48717E+00-2.38060E-01 6.38662E+00-2.95874E-13-2.82049E-13
 -1      2151 2.46644E+01-1.50541E+00 7.79349E-02 6.40936E+00-5.05096E-13-8.69860E-14
 -1      2152 1.94963E+01-3.27265E+00-2.17141E-01 6.19102E+00-4.79117E-13-3.06311E-13
 -1      2153 3.29386E+01 2.13175E+00 2.59020E-01 4.68279E+00-4.90094E-13-1.31006E-14
 -1      2154 2.82796E+01 2.55658E-01-4.97052E-02 4.69787E+00-5.36959E-13-7.61613E-14
 -1      2155 3.67931E+01 5.01178E+00 1.34019E-01 1.71853E+00-5.34184E-13 2.65454E-13
 -1      2156 3.47342E+01 3.82368E+00 1.83394E-01 3.27302E+00-5.15282E-13 4.39648E-14
 -1      2157 3.26881E+01 2.15389E+00 2.31103E-01 1.31874E+00-4.77549E-13 1.75304E-13
 -1      2158 3.93537E+01 7.29858E+00 3.41509E-01 1.85175E-01-4.71567E-13 2.52721E-13
 -1      2159 3.71312E+01 6.84432E+00 9.05896E-02 8.50389E-01-4.32654E-13 2.40974E-13
 -1      2160 4.00950E+01 6.78523E+00 3.76482E-01-1.57602E+00-6.14564E-13 4.52860E-13
 -1      2161 4.05366E+01 7.07360E+00 3.00517E-01-1.63567E-01-5.81424E-13 3.20938E-13
 -1      2162 3.60523E+01 4.62215E+00 1.81864E-01-3.29714E+00-8.11823E-13 4.73954E-13
 -1      2163 3.91498E+01 5.63377E+00 4.02744E-01-2.35298E+00-6.65135E-13 3.59712E-13
 -1      2164 2.99211E+01 1.20521E+00-1.49208E-03-4.54265E+00-8.41688E-13 4.21552E-13
 -1      2165 3.43099E+01 2.90142E+00 3.18583E-01-4.30164E+00-8.10529E-13 3.99014E-13
 -1      2166 2.18248E+01-2.19738E+00-1.67237E-01-6.07023E+00-9.07829E-13 6.37213E-13
 -1      2167 2.67863E+01-4.19833E-01 1.33214E-01-6.19174E+00-8.73912E-13 4.37816E-13
 -1      2168 1.36055E+01-4.92272E+00-3.05321E-01-6.28444E+00-8.48321E-13 8.20677E-13
 -1      2169 1.80667E+01-2.92299E+00-7.42700E-03-7.08448E+00-9.66449E-13 9.40248E-13
 -1      2170 6.20661E+00-6.71481E+00-4.23439E-01-5.18161E+00-3.42948E-13 1.15641E-12
 -1      2171 9.73404E+00-5.09816E+00-1.48807E-01-6.46484E+00-5.97744E-13 9.77867E-13
 -1      2172 1.40997E+00-7.27873E+00-4.18019E-01-2.90355E+00-6.55587E-14 1.16651E-12
 -1      2173 3.25710E+00-6.58311E+00-3.26932E-01-4.19557E+00-2.95930E-13 1.10209E-12
 -1      2174 3.60382E+01 2.68343E+00 3.23346E-01 3.50313E+00 7.12210E-13 3.08198E-13
 -1      2175 3.12859E+01 8.66454E-01-3.09222E-02 3.83540E+00 7.80431E-13 4.30767E-13
 -1      2176 3.06914E+01-1.48545E+00 1.48792E-01 2.49862E+00 4.94743E-13 8.23785E-14
 -1      2177 2.07165E+01 1.10857E+00-2.07593E-02-1.60957E+00-2.27148E-13 2.30527E-14
 -1      2178 3.48571E+01 3.09539E+00 2.66865E-01 2.05340E-01 7.47236E-13 2.56462E-14
 -1      2179 2.06154E+01 1.33309E+00-1.79233E-02-1.66884E+00-2.44787E-13-6.63081E-14
 -1      2180 2.83652E+00-4.20682E+00-1.03389E-01 2.05498E+00 1.16490E-13 5.21250E-13
 -1      2181 1.48126E+01-5.80148E+00-6.66653E-02 6.55779E+00-7.92144E-14 4.20289E-13
 -1      2182 2.00185E+01 4.53338E-02 2.81936E-04-4.31096E-02-1.21931E-13-8.40007E-14
 -1      2183 2.39044E+00-4.52456E+00-1.69067E-01-2.50279E+00 6.44623E-14 1.11422E-12
 -1      2184 2.36024E+01-4.71528E+00 2.68139E-02 5.24939E+00 1.87572E-13 3.57159E-13
 -1      2185 6.58733E+00-5.39890E+00-1.61635E-01-5.83691E+00 1.77636E-15 1.18566E-12
 -1      2186 1.39564E+01-5.42325E+00-8.07209E-02-6.94561E+00-3.71703E-13 8.43537E-13
 -1      2187 2.21798E+01-4.07251E+00 3.86567E-02-5.98440E+00-4.81448E-13 2.94625E-13
 -1      2188 2.91931E+01-1.07363E+00 1.47248E-01-3.51986E+00-5.47437E-13-4.51861E-14
 -1      2189 3.37621E+01 3.19903E+00 2.52975E-01-1.21618E+00-6.61415E-13 7.07212E-14
 -1      2190 3.62861E+01 6.78820E+00 3.59666E-01-2.99220E-01-6.57474E-13 2.55018E-13
 -1      2191 3.44286E+01 6.12520E+00 1.81726E-01-1.03985E-01-5.28855E-13 2.52937E-13
 -1      2192 2.76883E+01-2.12426E+00 1.12099E-01 4.06588E+00-3.35065E-13 1.42664E-13
 -1      2193 1.21040E+01-5.35213E+00-6.73231E-02 6.86704E+00 3.41394E-14-1.96343E-13
 -1      2194 2.03185E+00-4.54419E+00-7.40250E-02 6.51422E-01-3.20508E-14-4.42979E-13
 -1      2195 3.05802E+00-2.62026E+00 5.10690E-02-7.11117E-01 1.16403E-13-5.83367E-13
 -1      2196 3.63676E+00-2.54272E+00 3.64566E-02 2.16966E+00 1.62148E-13-2.96152E-13
 -1      2197 4.63463E+00-4.91197E+00-1.23721E-01-4.16318E+00-1.05721E-13-8.14293E-13
 -1      2198 1.08958E+01-5.83396E+00-1.52659E-01-6.36499E+00-1.02862E-13-9.05900E-13
 -1      2199 1.94278E+01-5.43238E+00-3.09884E-02-6.21449E+00-4.29101E-14-8.47156E-13
 -1      2200 2.76768E+01-3.13165E+00 1.02885E-01-3.89903E+00 1.12466E-13-5.53668E-13
 -1      2201 3.33150E+01 9.48446E-01 2.43869E-01-1.32412E+00 4.13218E-13-4.49363E-13
 -1      2202 3.55750E+01 5.20747E+00 2.70119E-01 5.15115E-01 7.23310E-13-3.00537E-13
 -1      2203 3.68140E+01 6.82294E+00 3.56048E-01-4.90967E-01 9.27702E-13-1.93706E-13
 -1      2204 3.67582E+01 7.71420E+00 2.96494E-01 3.01102E-01 1.07520E-12-3.62058E-13
 -1      2205 2.02473E+01-4.81342E+00 5.15103E-03 6.40559E+00-8.63754E-14-1.36974E-13
 -1      2206 3.55531E+01 8.14895E+00 2.46176E-01-1.84189E-01-5.53280E-13 2.28872E-13
 -1      2207 2.01416E+01 5.10289E-01 3.96174E-03 6.66787E-01 1.93939E-13 3.70775E-13
 -1      2208 2.04059E+01 7.02642E-01 2.08281E-02 9.60019E-01 2.23781E-13 4.04858E-13
 -1      2209 1.95731E+01 3.53603E+00-1.11982E-02-5.83936E-01 5.01826E-14-3.04774E-13
 -1      2210 1.96084E+01 3.48867E+00-1.04563E-02-7.66777E-01 1.33137E-14-3.21885E-13
 -1      2211 1.96547E+01 3.39763E+00-1.28771E-02-9.29478E-01-1.93392E-14-3.18282E-13
 -1      2212 1.97150E+01 3.31522E+00-1.26674E-02-1.11832E+00-5.62965E-14-3.14769E-13
 -1      2213 1.97983E+01 3.05510E+00 4.19260E-04-7.80176E-01 2.33174E-15-2.90442E-13
 -1      2214 1.95261E+01 3.62164E+00-9.63976E-03 9.81209E-02 1.57557E-13-2.71352E-13
 -1      2215 1.95254E+01 3.62248E+00-9.65123E-03-7.92378E-02 1.26920E-13-2.88911E-13
 -1      2216 1.95524E+01 3.58083E+00-9.71039E-03 4.39747E-01 2.02942E-13-2.56789E-13
 -1      2217 1.95349E+01 3.60414E+00-1.02014E-02 2.60867E-01 1.81339E-13-2.69451E-13
 -1      2218 1.96906E+01 3.24952E+00-6.95821E-04 1.66555E-01 1.61815E-13-2.56841E-13
 -1      2219 1.96142E+01 3.48125E+00-1.05665E-02 7.80129E-01 2.42648E-13-2.24987E-13
 -1      2220 1.95779E+01 3.52959E+00-1.13059E-02 6.00222E-01 2.21021E-13-2.49635E-13
 -1      2221 1.97278E+01 3.18370E+00-3.32988E-04 4.80014E-01 2.02234E-13-2.27120E-13
 -1      2222 1.97238E+01 3.30308E+00-1.28761E-02 1.13118E+00 2.89005E-13-1.25697E-13
 -1      2223 1.96618E+01 3.38819E+00-1.29936E-02 9.42817E-01 2.66203E-13-1.79494E-13
 -1      2224 1.98049E+01 3.04584E+00 3.74379E-04 7.91789E-01 2.41575E-13-1.74055E-13
 -1      2225 1.98997E+01 3.01257E+00-1.80750E-02 1.47766E+00 3.21709E-13-2.32410E-14
 -1      2226 1.98021E+01 3.15574E+00-1.52771E-02 1.28743E+00 2.97914E-13-8.23959E-14
 -1      2227 1.99332E+01 2.81520E+00 2.01296E-03 1.09594E+00 2.85415E-13-9.22261E-14
 -1      2228 2.01716E+01 2.54843E+00-2.83266E-02 1.78295E+00 3.37988E-13 1.05829E-13
 -1      2229 2.00241E+01 2.78954E+00-1.71350E-02 1.60809E+00 3.22984E-13 3.22208E-14
 -1      2230 2.01245E+01 2.45890E+00 5.90681E-03 1.36175E+00 3.02472E-13 8.99107E-15
 -1      2231 1.98732E+01 2.74907E-01 5.07313E-03 2.68603E-01 1.38742E-13 2.97159E-13
 -1      2232 2.00287E+01 3.73088E-01 2.02203E-02 4.28576E-01 1.64806E-13 3.37409E-13
 -1      2233 2.02109E+01 6.40968E-01-2.42858E-03 6.88848E-01 2.08060E-13 2.20015E-13
 -1      2234 2.03978E+01 8.60869E-01 1.36110E-02-9.86642E-01-2.03323E-13-1.11829E-13
 -1      2235 2.01892E+01 6.34002E-01-4.24731E-03-6.76099E-01-1.86954E-13-1.20758E-13
 -1      2236 3.29439E+01 3.06385E+00-1.37004E-01-1.27151E+00 7.11042E-13-6.77791E-14
 -1      2237 3.20926E+01 9.94741E-01-8.05562E-02-7.19802E-01 6.78846E-13-4.11893E-14
 -1      2238 2.01273E+01 4.78018E-01 1.62157E-02-4.55629E-01-1.57763E-13-9.69403E-14
 -1      2239 1.99920E+01 3.54984E-01 4.53457E-04-2.80604E-01-1.21270E-13-8.25594E-14
 -1      2240 2.02493E+01 7.58224E-01-1.26161E-03-6.73120E-01-1.66341E-13-1.21997E-13
 -1      2241 1.99326E+01 2.72700E-01 1.08852E-02-1.37743E-01-1.02447E-13-6.05979E-14
 -1      2242 1.98616E+01 2.04139E-01 1.20638E-03-3.47224E-02-7.40566E-14-7.21797E-14
 -1      2243 2.00929E+01 4.31840E-01-3.99878E-03-2.80159E-01-1.12996E-13-8.74420E-14
 -1      2244 1.98232E+01 1.57483E-01 6.42597E-03 5.52556E-02-5.09396E-14-9.83630E-14
 -1      2245 1.97990E+01 1.18731E-01 1.39157E-03 1.16661E-01-4.09084E-14-8.79590E-14
 -1      2246 1.99826E+01 2.50782E-01-3.90076E-03-2.67730E-02-8.00947E-14-9.97671E-14
 -1      2247 1.97812E+01 9.23858E-02 3.62373E-03 1.73128E-01-4.54954E-14-1.03990E-13
 -1      2248 1.97888E+01 7.13013E-02 1.49296E-03 2.10661E-01-1.97318E-14-1.14731E-13
 -1      2249 1.99216E+01 1.47322E-01-3.27231E-03 1.33838E-01-5.38037E-14-1.32125E-13
 -1      2250 1.97880E+01 5.73629E-02 1.91747E-03 2.47234E-01-2.84184E-14-1.21395E-13
 -1      2251 1.98174E+01 4.74511E-02 1.60532E-03 2.71799E-01-5.41783E-14-1.17979E-13
 -1      2252 1.99018E+01 9.03175E-02-2.54740E-03 2.36789E-01-4.75609E-14-1.43196E-13
 -1      2253 1.98298E+01 4.15985E-02 8.74833E-04 2.97744E-01-7.57607E-14-1.38944E-13
 -1      2254 1.98748E+01 3.90904E-02 1.74830E-03 3.16408E-01-8.52618E-14-1.34069E-13
 -1      2255 1.99140E+01 6.24967E-02-1.95543E-03 3.06378E-01-7.85975E-14-2.03608E-13
 -1      2256 1.98977E+01 3.86507E-02 2.49907E-04 3.38137E-01-1.14979E-13-1.28641E-13
 -1      2257 1.99550E+01 4.10520E-02 1.92091E-03 3.55593E-01-1.21396E-13-1.36378E-13
 -1      2258 1.99511E+01 5.39064E-02-1.54119E-03 3.59392E-01-9.71599E-14-1.77667E-13
 -1      2259 1.99867E+01 4.40907E-02-9.69159E-05 3.77467E-01-8.74191E-14-1.09029E-13
 -1      2260 2.00547E+01 4.94463E-02 2.10000E-03 3.96718E-01-5.61445E-14-9.60691E-14
 -1      2261 2.00081E+01 5.79751E-02-1.28601E-03 4.07410E-01-9.65080E-14-1.28498E-13
 -1      2262 2.00947E+01 5.42729E-02-2.47217E-04 4.21460E-01-2.19871E-14-1.23343E-13
 -1      2263 2.01731E+01 6.07129E-02 2.23870E-03 4.44071E-01-1.53952E-14-1.02664E-13
 -1      2264 2.00826E+01 6.95724E-02-1.15866E-03 4.58082E-01-3.85316E-14-8.89450E-14
 -1      2265 2.02216E+01 6.55380E-02-2.45731E-04 4.72876E-01-2.43307E-14-9.00379E-14
 -1      2266 2.03106E+01 7.09274E-02 2.26363E-03 4.98951E-01 1.14214E-14-6.00570E-14
 -1      2267 2.01740E+01 8.38243E-02-1.13264E-03 5.15694E-01-1.17683E-14-6.27560E-14
 -1      2268 2.03687E+01 7.35736E-02-1.09145E-04 5.31354E-01 7.15335E-15-8.92369E-14
 -1      2269 2.04686E+01 7.52004E-02 2.07112E-03 5.59281E-01-1.09553E-14-1.27108E-13
 -1      2270 2.02832E+01 9.52193E-02-1.19325E-03 5.81176E-01 7.89097E-15-4.73883E-14
 -1      2271 2.05380E+01 7.28457E-02 1.69932E-04 5.92815E-01-3.47739E-14-9.77617E-14
 -1      2272 2.06486E+01 6.71663E-02 1.52551E-03 6.18837E-01-4.79675E-14-7.32425E-14
 -1      2273 2.04123E+01 9.68425E-02-1.34082E-03 6.51655E-01-2.98340E-14-1.18055E-13
 -1      2274 2.07317E+01 5.61798E-02 6.17745E-04 6.48502E-01-8.16584E-14-5.87731E-14
 -1      2275 2.08514E+01 3.87364E-02 4.65695E-04 6.66185E-01-1.01688E-13-6.67087E-14
 -1      2276 2.05648E+01 7.97820E-02-1.59059E-03 7.19594E-01-5.11267E-14-6.64544E-14
 -1      2277 2.09516E+01 1.47725E-02 1.26510E-03 6.83816E-01-1.33994E-13-7.53428E-14
 -1      2278 2.10770E+01-1.94495E-02-1.26904E-03 6.83621E-01-8.81916E-14-1.04910E-13
 -1      2279 2.07453E+01 3.30066E-02-1.96407E-03 7.71647E-01-1.49874E-13-4.82885E-14
 -1      2280 2.11979E+01-6.07586E-02 2.11296E-03 6.77378E-01-4.50362E-14-2.43837E-13
 -1      2281 2.13229E+01-1.16053E-01-3.77714E-03 6.46746E-01-4.36105E-14-2.44524E-13
 -1      2282 2.09595E+01-5.56104E-02-2.45863E-03 7.87501E-01-1.31878E-13-1.14737E-13
 -1      2283 2.14674E+01-1.77269E-01 3.05542E-03 6.01214E-01-6.25771E-14-2.41875E-13
 -1      2284 2.15824E+01-2.54318E-01-6.96626E-03 5.25929E-01-1.14087E-13-2.70617E-13
 -1      2285 2.12131E+01-1.95926E-01-2.97789E-03 7.39381E-01-4.40463E-14-2.48557E-13
 -1      2286 2.17501E+01-3.32595E-01 3.76558E-03 4.23827E-01-8.94838E-14-2.12110E-13
 -1      2287 2.18414E+01-4.23396E-01-1.03120E-02 2.91813E-01-8.01859E-14-1.59182E-13
 -1      2288 2.15085E+01-3.88189E-01-3.21131E-03 5.93581E-01-7.37749E-14-1.44330E-13
 -1      2289 2.20230E+01-5.04965E-01 3.57351E-03 1.19173E-01-1.34461E-14-1.91446E-13
 -1      2290 2.20729E+01-5.86433E-01-1.26319E-02-7.19803E-02 5.33315E-14-2.22506E-13
 -1      2291 2.18384E+01-6.10411E-01-2.48872E-03 3.16732E-01-4.93945E-14-1.34346E-13
 -1      2292 2.22435E+01-6.41328E-01 1.39729E-03-3.15146E-01 7.05174E-14-1.93263E-13
 -1      2293 2.22336E+01-6.71315E-01-1.19134E-02-5.47083E-01 1.15514E-13-1.43875E-13
 -1      2294 2.21748E+01-8.03145E-01 3.29463E-06-1.08833E-01 5.80443E-14-1.49868E-13
 -1      2295 2.23482E+01-6.53239E-01-3.43585E-03-8.30310E-01 8.73310E-14-1.10092E-13
 -1      2296 2.22664E+01-5.77796E-01-5.82288E-03-1.05228E+00 3.64127E-14-8.01855E-14
 -1      2297 2.24576E+01-8.61616E-01 4.69593E-03-6.57838E-01 1.21307E-13-3.46267E-15
 -1      2298 2.22696E+01-4.40633E-01-1.05871E-02-1.29659E+00 4.63579E-14-7.51114E-14
 -1      2299 2.21233E+01-2.26808E-01 5.39238E-03-1.42403E+00 3.00309E-14-1.26362E-13
 -1      2300 2.25954E+01-6.55025E-01 1.03672E-02-1.22455E+00 1.70447E-15-4.76891E-14
 -1      2301 2.19909E+01 3.30029E-02-1.62289E-02-1.50878E+00-9.27464E-14-1.55515E-13
 -1      2302 2.18176E+01 3.47249E-01 1.66065E-02-1.45222E+00-8.77991E-14-9.69236E-14
 -1      2303 2.25074E+01-1.14797E-01 1.12457E-02-1.59974E+00-6.51615E-14-1.09182E-13
 -1      2304 2.16052E+01 6.48599E-01-1.53508E-02-1.27167E+00-6.08901E-14-1.01494E-13
 -1      2305 2.14694E+01 9.28742E-01 1.80923E-02-9.96623E-01-8.90069E-14-1.46768E-14
 -1      2306 2.22096E+01 6.55166E-01 2.97756E-03-1.52983E+00-6.59073E-14-7.59114E-14
 -1      2307 2.13153E+01 1.12781E+00-3.62693E-03-5.69871E-01-5.89702E-14-6.31530E-14
 -1      2308 2.12689E+01 1.22759E+00 8.60856E-03-1.48843E-01 2.30701E-14 1.40632E-14
 -1      2309 2.18829E+01 1.33350E+00-1.00441E-02-8.95616E-01-8.27810E-15-1.52475E-13
 -1      2310 2.12976E+01 1.19746E+00 1.40246E-02 3.73708E-01-3.97980E-14-5.31764E-14
 -1      2311 2.13685E+01 1.04465E+00-4.67017E-03 7.70696E-01-4.82600E-14-1.64797E-13
 -1      2312 2.17646E+01 1.57144E+00-1.16259E-02 1.31427E-01-8.13368E-14-1.09356E-13
 -1      2313 2.15477E+01 8.08858E-01 2.05362E-02 1.15096E+00 7.69263E-15-1.77438E-13
 -1      2314 2.17007E+01 5.03472E-01-1.50195E-02 1.37651E+00 6.87384E-14-1.89042E-13
 -1      2315 2.19530E+01 1.19905E+00-5.87087E-03 1.09469E+00 7.39686E-15-8.53254E-14
 -1      2316 2.19029E+01 1.99694E-01 1.48541E-02 1.48821E+00 6.74758E-14-1.82312E-13
 -1      2317 2.20755E+01-9.80363E-02-1.47406E-02 1.49556E+00 4.17494E-14-5.92989E-14
 -1      2318 2.22953E+01 4.65065E-01 6.49657E-03 1.59938E+00 2.97164E-14-9.82402E-14
 -1      2319 2.21776E+01-3.31714E-01 2.73353E-03 1.36286E+00 1.10133E-14-6.03467E-15
 -1      2320 2.23120E+01-5.11906E-01-8.54706E-03 1.20545E+00 7.88367E-15 6.31340E-14
 -1      2321 2.25527E+01-2.68157E-01 1.23176E-02 1.54548E+00 7.53233E-14-4.01928E-14
 -1      2322 2.22791E+01-6.17467E-01-7.83308E-03 9.43818E-01-3.31395E-14 4.92607E-15
 -1      2323 2.23453E+01-6.62887E-01-2.09680E-03 7.14536E-01-5.61278E-14 1.74865E-13
 -1      2324 2.25855E+01-7.29091E-01 9.05372E-03 1.10504E+00-6.57447E-14-4.11493E-14
 -1      2325 2.22142E+01-6.58607E-01-1.25962E-02 4.37688E-01-1.34638E-13 1.23328E-13
 -1      2326 2.22110E+01-6.11114E-01 2.17009E-03 2.14110E-01-6.03686E-14 5.63349E-14
 -1      2327 2.24074E+01-8.60598E-01 3.20945E-03 5.31466E-01-1.25477E-13 5.49706E-14
 -1      2328 2.20362E+01-5.45526E-01-1.23510E-02-1.12756E-02-3.06300E-14-4.28781E-14
 -1      2329 2.19782E+01-4.57808E-01 3.87731E-03-1.86586E-01-7.46313E-14-1.05551E-13
 -1      2330 2.21081E+01-7.57464E-01-1.01739E-03 1.02515E-02-1.74855E-13 9.54721E-15
 -1      2331 2.18006E+01-3.74039E-01-9.57328E-03-3.38535E-01-8.98483E-14-1.49127E-13
 -1      2332 2.17068E+01-2.83938E-01 3.87692E-03-4.53112E-01-3.76134E-14-1.69140E-13
 -1      2333 2.17733E+01-5.47538E-01-2.94755E-03-3.74235E-01-1.02710E-13-1.51313E-13
 -1      2334 2.15472E+01-2.07903E-01-6.15619E-03-5.36187E-01-7.52373E-14 1.18122E-14
 -1      2335 2.14347E+01-1.34402E-01 3.13439E-03-5.95536E-01-8.19986E-14 3.08868E-14
 -1      2336 2.14556E+01-3.25845E-01-3.32180E-03-6.09699E-01-2.00261E-14-1.02886E-14
 -1      2337 2.12998E+01-7.67024E-02-3.10206E-03-6.25126E-01-9.30536E-14 8.70667E-14
 -1      2338 2.11816E+01-2.51591E-02 2.25902E-03-6.42230E-01-7.85250E-14 1.40654E-13
 -1      2339 2.11772E+01-1.41747E-01-2.97506E-03-7.19442E-01-4.79929E-14 1.89538E-13
 -1      2340 2.10707E+01 1.30644E-02-7.85505E-04-6.35355E-01-1.27262E-13 9.70869E-14
 -1      2341 2.09559E+01 4.45395E-02 1.51961E-03-6.24163E-01-1.86707E-13 1.88009E-14
 -1      2342 2.09423E+01-1.05383E-02-2.44780E-03-7.37632E-01-1.32302E-13 1.53035E-13
 -1      2343 2.08658E+01 6.64885E-02 7.64860E-04-5.95386E-01-9.48592E-14-2.07396E-14
 -1      2344 2.07601E+01 8.24921E-02 9.83275E-04-5.67736E-01-5.38430E-14-2.98207E-15
 -1      2345 2.07476E+01 7.11664E-02-1.97721E-03-6.96709E-01-1.47595E-13 4.52859E-14
 -1      2346 2.06872E+01 9.25658E-02 1.66992E-03-5.27988E-01-9.82099E-14 1.38077E-13
 -1      2347 2.05936E+01 9.79480E-02 6.30381E-04-4.92671E-01-8.16733E-14 2.08802E-13
 -1      2348 2.05872E+01 1.14094E-01-1.61955E-03-6.22640E-01-1.12611E-15 2.75673E-13
 -1      2349 2.05347E+01 1.00228E-01 2.09179E-03-4.49418E-01-5.77286E-14 3.27087E-13
 -1      2350 2.04545E+01 9.90669E-02 4.15971E-04-4.12308E-01-3.89590E-14 4.45244E-13
 -1      2351 2.04558E+01 1.30016E-01-1.35863E-03-5.34137E-01-2.27775E-14 3.27616E-13
 -1      2352 2.04072E+01 9.67860E-02 2.18256E-03-3.70187E-01-3.73368E-14 4.17278E-13
 -1      2353 2.03404E+01 9.21442E-02 2.97741E-04-3.34800E-01 7.26215E-14 3.77679E-13
 -1      2354 2.03486E+01 1.29032E-01-1.16191E-03-4.43529E-01-3.72826E-14 3.01103E-13
 -1      2355 2.03025E+01 8.76518E-02 2.06548E-03-2.96339E-01 1.26491E-13 1.88370E-13
 -1      2356 2.02482E+01 8.16785E-02 2.45811E-04-2.64440E-01 1.94908E-13-3.06576E-14
 -1      2357 2.02619E+01 1.18826E-01-1.00036E-03-3.58140E-01-8.27042E-14 1.13704E-13
 -1      2358 2.02180E+01 7.65911E-02 1.83172E-03-2.30674E-01 1.41846E-13-1.43435E-13
 -1      2359 2.01749E+01 7.06950E-02 2.33645E-04-2.02815E-01 1.39631E-13-8.02266E-14
 -1      2360 2.01922E+01 1.04851E-01-8.50951E-04-2.81643E-01 9.79441E-14-5.05350E-14
 -1      2361 2.01510E+01 6.60162E-02 1.53852E-03-1.73812E-01 3.07531E-13-2.17593E-14
 -1      2362 2.01176E+01 6.10598E-02 2.56533E-04-1.49829E-01 3.28266E-13 1.28008E-14
 -1      2363 2.01366E+01 9.06806E-02-7.04898E-04-2.15174E-01 2.00200E-13-5.92356E-14
 -1      2364 2.00985E+01 5.71746E-02 1.18290E-03-1.25051E-01 1.92997E-13 5.68097E-14
 -1      2365 2.00738E+01 5.36847E-02 4.31053E-04-1.04480E-01 2.22546E-13 1.23147E-13
 -1      2366 2.00924E+01 7.85125E-02-5.35986E-04-1.58341E-01 3.04044E-13-1.96114E-13
 -1      2367 1.03325E+01-4.20331E+00 3.79279E-02 6.28612E+00-4.10227E-14 4.10449E-13
 -1      2368 7.63867E+00-3.58983E+00 9.60547E-02 5.05331E+00 2.91156E-14 2.76917E-13
 -1      2369 1.96562E+01 8.76796E-02 2.74781E-03-1.04999E-01 7.95186E-14 1.67437E-13
 -1      2370 1.96726E+01 1.16767E-01 7.04741E-03-5.23425E-02 8.70622E-14 2.09608E-13
 -1      2371 1.96582E+01 5.19384E-02 2.25560E-03-1.89253E-01 1.06386E-13 1.23216E-13
 -1      2372 1.96394E+01 6.74219E-02 3.88671E-03-1.57626E-01 8.73764E-14 1.51680E-13
 -1      2373 1.98061E+01 1.13067E-01-3.55270E-03-1.25068E-01 1.01801E-13 7.05736E-14
 -1      2374 1.97058E+01 3.48215E-02 2.10057E-03-2.43288E-01 1.08612E-13 1.93051E-13
 -1      2375 1.96637E+01 4.16661E-02 2.09125E-03-2.22519E-01 1.01558E-13 1.46505E-13
 -1      2376 1.97955E+01 6.82160E-02-2.78851E-03-2.21788E-01 1.00721E-13 3.81449E-14
 -1      2377 1.97867E+01 3.03147E-02 2.17523E-03-2.83467E-01 6.23860E-14 2.49278E-13
 -1      2378 1.97279E+01 3.11285E-02 1.06808E-03-2.66897E-01 8.28916E-14 2.32707E-13
 -1      2379 1.98243E+01 4.78646E-02-2.15117E-03-2.86685E-01 6.90295E-14 9.26727E-14
 -1      2380 1.98942E+01 3.51511E-02 2.44134E-03-3.21407E-01 2.13115E-14 2.50320E-13
 -1      2381 1.98215E+01 3.13943E-02 5.00737E-04-3.04258E-01 6.04609E-14 2.54723E-13
 -1      2382 1.98826E+01 4.42957E-02-1.72210E-03-3.37530E-01 5.13925E-14 1.93481E-13
 -1      2383 2.00263E+01 4.74466E-02 2.88377E-03-3.65918E-01 1.12493E-13 1.85170E-13
 -1      2384 1.99400E+01 3.99666E-02 2.16613E-04-3.44489E-01 5.53584E-14 2.30800E-13
 -1      2385 1.99648E+01 5.32697E-02-1.47979E-03-3.87196E-01 8.14268E-14 1.85369E-13
 -1      2386 2.01840E+01 6.60121E-02 3.48583E-03-4.24037E-01 1.69475E-13 1.46235E-13
 -1      2387 2.00823E+01 5.53576E-02 1.13102E-04-3.95306E-01 1.56098E-13 1.64302E-13
 -1      2388 2.00683E+01 7.23029E-02-1.37884E-03-4.45536E-01 1.57553E-13 1.07130E-13
 -1      2389 2.03709E+01 8.98552E-02 4.21494E-03-5.01511E-01 9.53838E-14 1.38278E-13
 -1      2390 2.02507E+01 7.65306E-02 1.20663E-04-4.62981E-01 1.35131E-13 1.63449E-13
 -1      2391 2.01930E+01 9.97424E-02-1.37456E-03-5.20389E-01 1.37281E-13 1.55367E-13
 -1      2392 2.05925E+01 1.17612E-01 5.00341E-03-6.02758E-01 6.33863E-14 1.46891E-13
 -1      2393 2.04496E+01 1.02397E-01 1.88958E-04-5.52564E-01 8.25567E-14 1.58874E-13
 -1      2394 2.03408E+01 1.34033E-01-1.42995E-03-6.17995E-01 9.97366E-14 1.65382E-13
 -1      2395 2.08551E+01 1.46684E-01 5.71812E-03-7.30215E-01 2.92453E-14 1.64059E-13
 -1      2396 2.06849E+01 1.31139E-01 2.83349E-04-6.67564E-01 2.20206E-14 1.73966E-13
 -1      2397 2.05144E+01 1.72829E-01-1.52381E-03-7.42857E-01 3.88058E-14 1.13648E-13
 -1      2398 2.11650E+01 1.71829E-01 6.11725E-03-8.82730E-01 7.97448E-14 1.76864E-13
 -1      2399 2.09633E+01 1.59117E-01 3.90861E-04-8.08889E-01 6.18709E-14 1.54297E-13
 -1      2400 2.07177E+01 2.11620E-01-1.66817E-03-8.96897E-01 6.29315E-14 5.61201E-14
 -1      2401 2.15283E+01 1.82919E-01 5.79806E-03-1.05252E+00 1.13264E-13 2.17599E-13
 -1      2402 2.12924E+01 1.79098E-01 5.40717E-04-9.72627E-01 1.00339E-13 1.91511E-13
 -1      2403 2.09556E+01 2.41532E-01-1.94281E-03-1.07758E+00 5.90900E-14 1.87742E-13
 -1      2404 2.19496E+01 1.61857E-01 4.15591E-03-1.22013E+00-2.88603E-14 2.97260E-13
 -1      2405 2.16798E+01 1.77575E-01 8.43540E-04-1.14609E+00 8.59472E-14 2.87413E-13
 -1      2406 2.12352E+01 2.45991E-01-2.55096E-03-1.27456E+00 7.11476E-14 2.20275E-13
 -1      2407 2.24324E+01 7.95554E-02 4.10350E-04-1.34699E+00-1.19730E-13 3.27787E-13
 -1      2408 2.21344E+01 1.31477E-01 1.54766E-03-1.30153E+00-6.90754E-14 3.25347E-13
 -1      2409 2.15682E+01 1.96483E-01-3.88041E-03-1.46421E+00-8.88722E-14 3.41649E-13
 -1      2410 2.29791E+01-1.03311E-01-6.21536E-03-1.36688E+00-1.97562E-13 3.37560E-13
 -1      2411 2.26666E+01 6.20543E-03 3.05832E-03-1.38735E+00-1.73217E-13 3.28970E-13
 -1      2412 2.19755E+01 4.94571E-02-6.48601E-03-1.60178E+00-1.69335E-13 3.65810E-13
 -1      2413 2.35884E+01-4.22132E-01-1.57855E-02-1.18120E+00-1.66325E-13 3.50009E-13
 -1      2414 2.32871E+01-2.39035E-01 5.68351E-03-1.31927E+00-1.52974E-13 3.48810E-13
 -1      2415 2.24931E+01-2.48941E-01-1.08039E-02-1.61177E+00-1.76928E-13 3.98443E-13
 -1      2416 2.42436E+01-8.64542E-01-2.61964E-02-6.72705E-01-7.42236E-14 3.61901E-13
 -1      2417 2.39964E+01-6.24882E-01 9.13015E-03-9.80182E-01-1.28951E-13 3.26494E-13
 -1      2418 2.31699E+01-7.34571E-01-1.60264E-02-1.38138E+00-1.23156E-13 3.56196E-13
 -1      2419 2.48814E+01-1.28192E+00-3.12586E-02 2.37432E-01-1.23785E-13 5.10773E-13
 -1      2420 2.47527E+01-1.08802E+00 1.08742E-02-2.50073E-01-1.12197E-13 4.26147E-13
 -1      2421 2.40442E+01-1.35281E+00-1.81178E-02-7.72501E-01-1.66437E-13 3.72243E-13
 -1      2422 2.53475E+01-1.30905E+00-2.38334E-02 1.43742E+00-2.32380E-13 6.11427E-13
 -1      2423 2.53990E+01-1.37374E+00 8.50382E-04 8.82274E-01-1.57858E-13 5.58722E-13
 -1      2424 2.50603E+01-1.81807E+00-1.01089E-02 3.11852E-01-1.94476E-13 4.84523E-13
 -1      2425 2.54113E+01-4.98329E-01-3.70706E-03 2.42827E+00-1.66976E-13 7.25088E-13
 -1      2426 2.56506E+01-1.04088E+00-3.56977E-02 2.09996E+00-2.53262E-13 6.84096E-13
 -1      2427 2.59194E+01-1.60237E+00-2.02055E-02 1.73261E+00-2.58136E-13 6.13773E-13
 -1      2428 2.49525E+01 1.09615E+00-9.77139E-04 2.39293E+00 2.98810E-13 6.93243E-13
 -1      2429 2.53064E+01 2.28680E-01-7.38175E-02 2.64755E+00 9.05838E-14 6.71256E-13
 -1      2430 2.62918E+01-2.36135E-01-2.16948E-02 2.73173E+00-3.50449E-14 6.16264E-13
 -1      2431 2.44733E+01 2.37644E+00-2.39692E-02 8.34984E-01 5.57644E-13 5.45033E-13
 -1      2432 2.46654E+01 1.86859E+00-7.10185E-02 1.68683E+00 5.14699E-13 6.29878E-13
 -1      2433 2.60082E+01 2.07081E+00-4.51719E-02 2.30593E+00 4.13891E-13 6.82215E-13
 -1      2434 2.45585E+01 2.07924E+00-7.92901E-02-1.36139E+00 2.99614E-13 3.33452E-13
 -1      2435 2.44059E+01 2.44032E+00-4.90087E-02-4.59264E-01 4.83349E-13 4.18117E-13
 -1      2436 2.56854E+01 3.32021E+00-6.48147E-02 2.46612E-01 5.89140E-13 6.18903E-13
 -1      2437 2.51940E+01 5.08932E-01-8.44556E-02-2.59575E+00 2.64164E-13 2.63040E-14
 -1      2438 2.48443E+01 1.37466E+00-1.30105E-02-2.24198E+00 2.58543E-13 1.41559E-13
 -1      2439 2.59203E+01 2.35020E+00-2.70098E-02-2.07636E+00 3.91374E-13 2.11848E-13
 -1      2440 2.56767E+01-8.77405E-01-2.46494E-02-2.28981E+00 2.19867E-13-1.23800E-13
 -1      2441 2.53716E+01-2.54208E-01 3.70083E-03-2.52541E+00 2.39600E-13-8.78620E-14
 -1      2442 2.62833E+01 1.31665E-01 3.55070E-03-2.89060E+00 2.86694E-13-1.98456E-13
 -1      2443 2.54752E+01-1.34505E+00-1.58597E-03-1.11296E+00-1.89211E-14-2.02569E-13
 -1      2444 2.53845E+01-1.23273E+00-2.22640E-02-1.61480E+00 6.95589E-14-1.29919E-13
 -1      2445 2.60421E+01-1.48861E+00-6.05767E-02-2.06011E+00 1.52871E-13-3.24017E-13
 -1      2446 2.48923E+01-1.15216E+00 1.15059E-02 6.20940E-02 1.01568E-14-2.34471E-13
 -1      2447 2.49847E+01-1.32289E+00-3.38471E-02-4.31358E-01-3.29389E-14-1.86211E-13
 -1      2448 2.51924E+01-1.86788E+00-3.77418E-02-5.89476E-01 3.05094E-15-2.05528E-13
 -1      2449 2.41410E+01-6.99417E-01 1.04521E-02 8.70020E-01-2.25578E-13 2.89638E-14
 -1      2450 2.43669E+01-9.38842E-01-2.76002E-02 5.42230E-01-8.70276E-14-5.84814E-14
 -1      2451 2.42230E+01-1.46333E+00-2.26124E-02 6.06405E-01-1.95476E-13-9.85069E-14
 -1      2452 2.34218E+01-2.92398E-01 6.46838E-03 1.26840E+00-1.00567E-13 2.61998E-13
 -1      2453 2.37145E+01-4.83681E-01-1.61612E-02 1.11086E+00-1.65965E-13 1.57349E-13
 -1      2454 2.33179E+01-8.33677E-01-1.80052E-02 1.29448E+00-2.61973E-13 1.26417E-13
 -1      2455 2.27918E+01-2.22428E-02 3.15662E-03 1.37111E+00 2.94191E-13 2.68405E-13
 -1      2456 2.31013E+01-1.40814E-01-6.65494E-03 1.33695E+00 1.32686E-13 2.18817E-13
 -1      2457 2.26138E+01-3.13349E-01-1.19760E-02 1.57519E+00 1.33166E-14 1.85536E-13
 -1      2458 2.22549E+01 1.22582E-01 1.36893E-03 1.29913E+00 2.27393E-13 2.21371E-13
 -1      2459 2.25516E+01 6.34100E-02-1.25617E-04 1.33714E+00 2.85801E-13 3.29891E-13
 -1      2460 2.20794E+01 1.95264E-02-6.99690E-03 1.59088E+00 2.70586E-13 1.52378E-13
 -1      2461 2.18009E+01 1.81780E-01 6.52306E-04 1.14302E+00 1.07245E-13 2.77098E-13
 -1      2462 2.20688E+01 1.60899E-01 3.66288E-03 1.21484E+00 2.38492E-13 3.69088E-13
 -1      2463 2.16650E+01 1.91769E-01-3.94548E-03 1.46038E+00 2.36471E-13 3.43230E-13
 -1      2464 2.14194E+01 1.91507E-01 4.69087E-04 9.59569E-01-5.59969E-14-2.98245E-14
 -1      2465 2.16513E+01 1.91779E-01 5.42413E-03 1.04119E+00-2.90484E-14 1.20568E-13
 -1      2466 2.13322E+01 2.57513E-01-2.40064E-03 1.26519E+00 1.50451E-13 4.44151E-13
 -1      2467 2.11022E+01 1.76646E-01 4.81325E-04 7.80064E-01-7.98211E-14 6.67436E-14
 -1      2468 2.12966E+01 1.86867E-01 5.87438E-03 8.58503E-01-8.19917E-15-5.50630E-14
 -1      2469 2.10584E+01 2.62944E-01-1.73030E-03 1.05447E+00-2.89124E-15 2.78242E-13
 -1      2470 2.08416E+01 1.52031E-01 5.31551E-04 6.19341E-01-5.28787E-15 6.81946E-14
 -1      2471 2.10006E+01 1.65743E-01 5.57913E-03 6.88689E-01-1.10985E-13 5.98469E-14
 -1      2472 2.08309E+01 2.39080E-01-1.47686E-03 8.54750E-01-1.12803E-13 1.27270E-13
 -1      2473 2.06306E+01 1.25602E-01 5.65094E-04 4.82617E-01-1.67720E-14 1.41875E-13
 -1      2474 2.07580E+01 1.39449E-01 4.92918E-03 5.41031E-01-3.05353E-14-4.36161E-15
 -1      2475 2.06424E+01 2.04191E-01-1.37026E-03 6.78240E-01-5.08980E-14 2.09953E-14
 -1      2476 2.04623E+01 1.01196E-01 5.73766E-04 3.69976E-01 1.94473E-14 8.13906E-14
 -1      2477 2.05625E+01 1.13613E-01 4.16201E-03 4.17731E-01 8.05087E-14 1.82392E-13
 -1      2478 2.04878E+01 1.67968E-01-1.28669E-03 5.28775E-01 9.68431E-15 2.03386E-13
 -1      2479 2.03301E+01 8.04415E-02 5.67625E-04 2.79014E-01 6.24466E-14 4.47699E-14
 -1      2480 2.04075E+01 9.07986E-02 3.40643E-03 3.17376E-01 2.53981E-14 1.52596E-13
 -1      2481 2.03625E+01 1.35044E-01-1.18330E-03 4.05685E-01 5.64964E-14 1.28149E-13
 -1      2482 2.02279E+01 6.38854E-02 5.53162E-04 2.06263E-01 2.82586E-13-8.32896E-14
 -1      2483 2.02867E+01 7.20082E-02 2.71959E-03 2.36902E-01 1.91041E-13 4.37634E-14
 -1      2484 2.02627E+01 1.07368E-01-1.05130E-03 3.06103E-01 1.47963E-13-9.59870E-14
 -1      2485 2.01504E+01 5.15438E-02 5.58803E-04 1.47983E-01 3.89204E-13-2.48858E-14
 -1      2486 2.01940E+01 5.74838E-02 2.12724E-03 1.72640E-01 2.49769E-13-2.29977E-14
 -1      2487 2.01841E+01 8.54909E-02-9.04735E-04 2.26206E-01 2.95736E-13 4.53017E-14
 -1      2488 2.00925E+01 4.28088E-02 4.93674E-04 1.00509E-01 2.94010E-13 2.68412E-13
 -1      2489 2.01239E+01 4.70144E-02 1.61612E-03 1.20815E-01 4.31970E-13 1.23763E-13
 -1      2490 2.01229E+01 6.92824E-02-7.82967E-04 1.62171E-01 2.77362E-13 1.82757E-13
 -1      2491 2.00501E+01 3.66636E-02 4.42222E-04 6.15624E-02-2.25893E-13 3.68571E-13
 -1      2492 2.00723E+01 3.96348E-02 1.21784E-03 7.84855E-02 1.13121E-13 3.67604E-13
 -1      2493 2.00760E+01 5.70764E-02-8.68329E-04 1.09889E-01 9.36415E-14 6.04657E-13
 -1      2494 2.00341E+01 3.25189E-02 7.28918E-04 4.23408E-02-2.08970E-13 1.92245E-13
 -1      2495 1.99758E+01 1.96373E-01-9.59952E-04 9.16527E-02-1.64326E-13-2.69348E-13
 -1      2496 1.99858E+01 1.79158E-01 2.81272E-04 9.90699E-02-2.52229E-13-4.23749E-13
 -1      2497 1.99604E+01 2.26549E-01-9.55736E-04 6.48040E-02-3.15287E-14-2.85557E-13
 -1      2498 1.99676E+01 2.14043E-01-6.24571E-05 7.82749E-02-3.99240E-14-2.63683E-13
 -1      2499 1.99628E+01 2.19015E-01 7.01634E-04 9.94198E-02-7.96010E-14-1.32987E-13
 -1      2500 2.00172E+01 1.12927E-01-6.30198E-04 1.00417E-01-3.56767E-13 4.46766E-14
 -1      2501 2.00275E+01 9.33249E-02 7.57800E-04 9.36926E-02-1.78459E-13 1.38738E-13
 -1      2502 1.99959E+01 1.56851E-01-8.32819E-04 1.04287E-01-4.52887E-13-3.14230E-13
 -1      2503 2.00071E+01 1.37491E-01 5.86134E-04 1.04470E-01-4.66124E-13-1.35240E-13
 -1      2504 2.00168E+01 1.35171E-01 5.66607E-04 1.22352E-01-4.30764E-13-1.76365E-13
 -1      2505 1.99882E+01 1.80520E-01 5.96086E-04 1.19955E-01-3.79183E-13-1.65002E-13
 -1      2506 1.99518E+01 2.43619E-01-8.28031E-04 2.84066E-02-1.12185E-13-8.22819E-14
 -1      2507 1.99553E+01 2.37320E-01-4.14743E-04 4.56624E-02-1.51762E-15-3.53341E-13
 -1      2508 1.99448E+01 2.46395E-01 9.02462E-04 6.42109E-02-3.82556E-14-3.68975E-13
 -1      2509 1.99508E+01 2.45693E-01-6.02154E-04-1.18294E-02-1.03701E-13 2.73131E-13
 -1      2510 1.99503E+01 2.46357E-01-7.07303E-04 6.47825E-03-2.20160E-13 2.64280E-13
 -1      2511 1.99359E+01 2.59356E-01 9.68102E-04 1.99122E-02 1.09014E-13-6.43191E-15
 -1      2512 1.99574E+01 2.32783E-01-3.12530E-04-4.98614E-02 4.55729E-14-2.19576E-14
 -1      2513 1.99531E+01 2.40275E-01-8.87686E-04-3.32812E-02-6.78324E-14 3.91535E-14
 -1      2514 1.99370E+01 2.56713E-01 9.21556E-04-2.67799E-02 7.25858E-14 1.77538E-13
 -1      2515 1.99702E+01 2.07307E-01 2.36632E-05-7.97210E-02 6.62102E-14 2.23661E-15
 -1      2516 1.99628E+01 2.20248E-01-9.53002E-04-6.74747E-02 9.77824E-14-8.74134E-14
 -1      2517 1.99477E+01 2.39326E-01 8.00419E-04-6.88133E-02 1.82104E-13-2.38454E-14
 -1      2518 1.99879E+01 1.71535E-01 3.33535E-04-9.80775E-02 2.22793E-13 3.18885E-13
 -1      2519 1.99783E+01 1.88773E-01-9.00831E-04-9.16184E-02 1.35174E-13 8.67157E-14
 -1      2520 1.99662E+01 2.09360E-01 5.77048E-04-1.00683E-01 1.74097E-13 1.08563E-13
 -1      2521 2.00079E+01 1.29839E-01 5.22374E-04-1.01598E-01 8.36366E-14-6.43922E-14
 -1      2522 1.99976E+01 1.49291E-01-6.99920E-04-1.02266E-01 1.87853E-13 2.09866E-13
 -1      2523 1.99901E+01 1.69975E-01 3.01814E-04-1.18136E-01 1.55535E-13 1.11055E-13
 -1      2524 2.00266E+01 8.71459E-02 6.22542E-04-8.99394E-02-7.16540E-14-3.52327E-13
 -1      2525 2.00175E+01 1.06622E-01-4.00000E-04-9.75264E-02 8.92986E-14-2.18030E-13
 -1      2526 2.00155E+01 1.25386E-01-1.23044E-04-1.18441E-01 1.76079E-13-1.83987E-13
 -1      2527 2.00305E+01 5.01431E-02 5.99500E-04-5.73194E-02 1.04058E-14 2.79943E-14
 -1      2528 3.94990E+00-2.29849E+00 1.21545E-01-2.07704E+00 9.31616E-14 8.67306E-13
 -1      2529 4.90242E+00-3.22262E+00 7.19847E-02-4.12534E+00 1.45106E-13 1.15885E-12
 -1      2530 1.97193E+01 1.53714E-01 3.76214E-03 3.42792E-02 9.77794E-14 2.10676E-13
 -1      2531 1.97902E+01 2.06486E-01 1.24652E-02 1.24939E-01 1.00184E-13 2.55223E-13
 -1      2532 1.98700E+01 1.97219E-01-4.10953E-03 2.93905E-02 1.07231E-13 9.94265E-14
 -1      2533 1.86799E+01-5.56358E+00-1.20255E-02 6.40909E+00-1.74749E-13 3.33320E-13
 -1      2534 1.44512E+01-5.16453E+00 6.66763E-02 6.44471E+00-2.68424E-13 3.77282E-13
 -1      2535 6.86052E+00-3.82558E+00 6.00844E-02-5.35609E+00 2.48718E-13 1.21589E-12
 -1      2536 9.77672E+00-4.15202E+00 4.83956E-02-6.66407E+00 9.84768E-14 1.14708E-12
 -1      2537 8.00744E+00-2.38862E+00 1.57441E-01-4.84329E+00 2.47913E-13 1.16029E-12
 -1      2538 2.05414E+01 1.95706E+00-1.36835E-02-1.88568E+00-2.32312E-13-1.63791E-13
 -1      2539 2.04048E+01 1.21276E+00-8.58179E-03-1.27817E+00-2.25541E-13-1.46851E-13
 -1      2540 2.03829E+01 1.39185E+00 9.31713E-03-1.22424E+00-2.04852E-13-1.79833E-13
 -1      2541 2.02943E+01 2.40101E+00 6.56406E-04-1.82469E+00-2.13160E-13-2.14133E-13
 -1      2542 2.58841E+01-4.83798E+00-9.64003E-02 3.98849E+00 9.53126E-14 1.13021E-13
 -1      2543 2.23049E+01-5.54629E+00-5.94483E-03 5.04711E+00-3.45002E-14 2.06446E-13
 -1      2544 2.88956E+01-2.08137E+00-9.71700E-02 2.36267E+00-2.42306E-13 2.68813E-13
 -1      2545 2.58431E+01-3.81338E+00-7.61029E-03 3.74088E+00-1.28897E-13 2.75224E-13
 -1      2546 1.95326E+01 3.60726E+00-1.01522E-02-2.41941E-01 1.08610E-13-3.06721E-13
 -1      2547 1.95486E+01 3.58585E+00-9.64775E-03-4.20677E-01 7.99913E-14-3.11057E-13
 -1      2548 1.97234E+01 3.18955E+00-3.75262E-04-4.65647E-01 6.67010E-14-2.79911E-13
 -1      2549 1.96890E+01 3.25170E+00-7.13671E-04-1.49514E-01 1.09349E-13-2.82519E-13
 -1      2550 3.29310E+01 6.81082E+00-1.38992E-01 5.47762E-01 9.57956E-13-7.55507E-14
 -1      2551 3.38961E+01 7.23415E+00-5.45516E-02-1.80759E-01 1.05732E-12-2.18870E-13
 -1      2552 2.27043E+01-4.96076E+00-5.18303E-02 5.57982E+00 5.40679E-14 9.32032E-14
 -1      2553 1.94311E+01-5.33698E+00 3.41226E-02 6.21698E+00 1.38445E-13-2.00534E-15
 -1      2554 3.38680E+01 6.59116E+00-1.04660E-01-7.29147E-01 1.03867E-12-2.80914E-13
 -1      2555 3.31193E+01 5.44090E+00-9.91856E-02-1.33746E+00 8.93174E-13-1.24567E-13
 -1      2556 3.12572E+01 6.50635E+00-3.73222E-02-6.53185E-01 1.04444E-12-9.80604E-14
 -1      2557 3.25000E+01 3.12157E+00-8.82380E-02 1.52605E+00 4.12254E-13 4.05231E-15
 -1      2558 3.24648E+01 5.02424E+00-1.72585E-01 1.53970E+00 6.31606E-13 3.98293E-14
 -1      2559 3.08584E+01-1.25727E+00-4.78145E-02-5.48191E-01 1.30822E-13-1.59150E-13
 -1      2560 3.22205E+01 6.83525E-01-1.58112E-01 5.54473E-01 2.75599E-13-6.45595E-14
 -1      2561 2.62572E+01-4.51652E+00 7.19305E-03-3.37118E+00-1.27370E-13-3.28487E-13
 -1      2562 2.92514E+01-3.08593E+00-8.41045E-02-2.25865E+00 3.03368E-14-3.32706E-13
 -1      2563 2.97677E+01-2.61357E+00 4.22641E-02-2.42626E-01-7.61006E-14-4.92939E-14
 -1      2564 1.81139E+01-5.74256E+00 1.31419E-02-6.15137E+00-2.59015E-13-6.74460E-13
 -1      2565 2.22767E+01-5.49229E+00-7.32399E-02-5.52222E+00-2.03559E-13-5.58567E-13
 -1      2566 1.12906E+01-4.69684E+00 7.64006E-02-6.29500E+00-2.04808E-13-7.57450E-13
 -1      2567 1.47495E+01-5.31128E+00 1.71836E-02-6.80130E+00-1.86740E-13-7.16510E-13
 -1      2568 1.81583E+01-5.25092E+00 1.09948E-01-6.09561E+00-4.08257E-13-5.25989E-13
 -1      2569 5.19673E+00-2.91304E+00 1.20645E-01-3.30815E+00-4.41175E-14-7.20646E-13
 -1      2570 7.71215E+00-3.54078E+00 7.25842E-02-5.36595E+00-7.13041E-14-8.11157E-13
 -1      2571 8.44358E+00-2.96338E+00 1.00293E-01 5.80190E+00 1.97786E-13-8.80684E-14
 -1      2572 6.33774E+00-2.44188E+00 1.90481E-01 4.12623E+00 2.15883E-13-1.17406E-13
 -1      2573 3.31212E+01 7.51421E+00-4.69048E-02 2.98376E-01-5.71210E-13 1.56319E-13
 -1      2574 3.16744E+01 7.57595E+00-1.71566E-01-3.12640E-02-5.30243E-13 9.43655E-14
 -1      2575 1.57053E+01-4.95781E+00 2.44595E-02 7.09184E+00 1.59678E-13-9.55069E-14
 -1      2576 1.18872E+01-4.16714E+00 1.25727E-01 6.65610E+00 2.26014E-13-7.56895E-14
 -1      2577 1.87636E+01-4.92928E+00 1.06995E-01 6.18780E+00 3.04312E-13 5.83249E-14
 -1      2578 3.13840E+01 1.99871E+00-1.57041E-01-1.64905E-01-4.20913E-13 2.39198E-13
 -1      2579 3.04111E+01 1.78352E-01-3.39153E-02 5.91469E-01-3.27099E-13 2.14218E-13
 -1      2580 3.15665E+01 6.29816E+00-1.74711E-01-9.91382E-01-5.14200E-13 1.34975E-13
 -1      2581 3.17566E+01 4.54123E+00-6.57187E-02-8.87996E-01-5.03736E-13 1.65951E-13
 -1      2582 3.25725E+01 5.39512E+00-9.77767E-02 6.03749E-01-5.45841E-13-4.67681E-14
 -1      2583 3.31350E+01 6.68053E+00-1.09866E-01 5.44971E-01-5.26357E-13 8.40716E-14
 -1      2584 3.05387E+01 6.79559E+00-5.55266E-02 8.37528E-01-4.65156E-13 4.61159E-14
 -1      2585 3.10441E+01 1.43605E+00-5.25488E-02-1.96377E-01-4.35152E-13-2.43361E-13
 -1      2586 3.23409E+01 3.35576E+00-9.98665E-02 2.56539E-01-5.53058E-13-2.01450E-13
 -1      2587 2.73160E+01-2.90954E+00 8.50171E-05-3.03841E+00-2.68521E-13-2.53464E-13
 -1      2588 2.97446E+01-1.18042E+00-1.12724E-01-1.77028E+00-3.27889E-13-2.96374E-13
 -1      2589 2.10200E+01-5.04386E+00 1.33270E-02-5.85563E+00-1.90625E-13 8.31557E-14
 -1      2590 2.43910E+01-4.31758E+00-7.86039E-02-5.05251E+00-2.18214E-13-2.27651E-13
 -1      2591 1.33341E+01-5.14370E+00 3.25768E-02-6.94263E+00 5.08482E-14 7.45404E-13
 -1      2592 1.73005E+01-5.22028E+00-2.46511E-02-7.02847E+00-2.10443E-13 3.40564E-13
 -1      2593 5.16364E+00-2.84648E+00 9.60698E-02 3.54834E+00 6.04794E-14 3.58713E-13
 -1      2594 3.86311E+00-2.24048E+00 1.11420E-01 1.03295E+00 1.47590E-14 5.79037E-13
 -1      2595 2.04777E+01 8.76513E-01-7.12719E-03 1.21891E+00 2.57386E-13 4.41712E-13
 -1      2596 2.08257E+01 1.25750E+00-5.98173E-03 1.72022E+00 2.82881E-13 4.89039E-13
 -1      2597 2.06359E+01 1.71626E+00-1.57949E-02 1.91331E+00 3.10198E-13 3.82309E-13
 -1      2598 2.04432E+01 1.06118E+00-9.47898E-03 1.23043E+00 2.62034E-13 2.94953E-13
 -1      2599 3.09126E+01-1.47269E+00-1.29283E-01 5.46469E-01 5.42342E-13 1.06859E-14
 -1      2600 2.86332E+01-3.35109E+00-4.04370E-02 1.73196E+00 2.21684E-13 7.64944E-14
 -1      2601 1.99236E+01 2.82689E+00 1.19307E-03-1.08300E+00-7.41905E-14-2.78694E-13
 -1      2602 1.97909E+01 3.16746E+00-1.62365E-02-1.27475E+00-8.64650E-14-3.15752E-13
 -1      2603 1.98919E+01 3.02164E+00-1.85926E-02-1.46471E+00-1.29650E-13-3.15900E-13
 -1      2604 2.00035E+01 3.50966E-01-3.74258E-03 2.80745E-01 1.50237E-13 1.51475E-13
 -1      2605 2.04181E+01 2.11759E+00-1.27087E-02 1.86511E+00 3.13894E-13 2.36606E-13
 -1      2606 3.06032E+01-8.56376E-01 5.00854E-03-1.41115E+00 4.98344E-13-5.80369E-14
 -1      2607 2.76599E+01-4.38048E+00 3.49210E-02 1.96326E+00 1.09635E-13 7.63833E-14
 -1      2608 1.43818E+01-4.17136E+00 1.36135E-01 6.13633E+00-2.04559E-13 2.81275E-13
 -1      2609 2.00404E+01 4.88106E-02 8.72976E-05 6.62181E-02-1.56603E-13 3.38034E-13
 -1      2610 2.00388E+01 6.42741E-02 2.88788E-05 7.84725E-02-1.93202E-13 4.07983E-13
 -1      2611 2.00468E+01 4.80506E-02 6.69052E-04-7.28740E-02 2.06556E-13 1.96324E-13
 -1      2612 2.00350E+01 6.82231E-02-4.46169E-04-8.37459E-02 4.98166E-14-7.23246E-14
 -1      2613 2.00417E+01 8.52677E-02 3.87318E-04-1.07681E-01 7.62632E-14-7.51873E-14
 -1      2614 2.00637E+01 5.14110E-02 1.08735E-03-8.94184E-02 2.46934E-13 2.44458E-13
 -1      2615 8.07699E+00-2.21999E+00 1.59642E-01 4.19622E+00 2.42306E-14 3.34538E-13
 -1      2616 1.31715E+01-4.22917E+00 1.09030E-01-6.67984E+00 2.67258E-13 7.62390E-13
 -1      2617 4.95409E+00-1.51893E+00 1.72414E-01-5.21869E-01 3.27724E-14 6.54810E-13
 -1      2618 6.43102E+00-8.75444E-01 9.95288E-02-1.98549E+00 7.69003E-14 9.05387E-13
 -1      2619 6.55146E+00-6.52761E-01 1.71271E-01 8.06349E-01-2.38603E-14 5.40124E-13
 -1      2620 2.04353E+01 1.81258E+00 1.25305E-02 1.55061E+00 2.91647E-13 1.80985E-13
 -1      2621 2.17450E+01-5.49133E+00 9.18189E-02 5.09460E+00-1.56819E-13 2.23380E-13
 -1      2622 2.02707E+01-5.26243E+00 7.32271E-02-6.09225E+00 6.89726E-14-1.09648E-13
 -1      2623 2.62910E+01-4.04802E+00 3.39452E-02-3.28389E+00-3.86080E-14-3.62432E-13
 -1      2624 2.01227E+01 2.61880E+00-9.76282E-03-1.66464E+00-1.84604E-13-2.72320E-13
 -1      2625 2.90596E+01-1.58601E+00 2.60686E-03 6.42418E-01-2.00013E-13 3.61489E-13
 -1      2626 2.50382E+01-4.66306E+00 5.34250E-02 3.77246E+00 9.47853E-14 3.33580E-13
 -1      2627 3.07211E+01 4.04149E+00-3.78244E-02 1.33504E+00-3.78253E-13-3.04756E-13
 -1      2628 3.05228E+01 6.80329E+00-1.19908E-01-7.73596E-01-5.40734E-13 6.18811E-14
 -1      2629 2.87381E+01 5.68941E+00-1.19947E-01-1.30119E+00-5.17003E-13 8.60423E-14
 -1      2630 2.88166E+01 6.81043E+00-1.53255E-01-4.40167E-01-5.29798E-13-2.06744E-14
 -1      2631 1.20040E+01-2.98930E+00 1.42975E-01 5.95255E+00 3.33983E-13-4.76008E-15
 -1      2632 1.13301E+01-3.39138E+00 1.45251E-01-5.69162E+00-1.95316E-13-6.98025E-13
 -1      2633 2.50032E+01-5.24470E+00 5.14139E-02-3.79397E+00-3.33900E-13-2.45567E-13
 -1      2634 6.45694E+00-1.53215E+00 1.52236E-01 3.04919E+00 2.53270E-13-2.19880E-13
 -1      2635 5.92520E+00-1.70715E+00 1.73590E-01-1.98764E+00 7.83748E-14-6.03295E-13
 -1      2636 3.15299E+01 3.74845E+00-1.77219E-02-2.03309E+00 8.66945E-13-1.41998E-13
 -1      2637 3.09831E+01 1.32351E+00-2.79742E-02 1.88126E+00 1.99271E-13 1.93345E-13
 -1      2638 3.01716E+01 2.89745E+00-4.27356E-02-1.32789E+00-4.10089E-13 1.64369E-13
 -1      2639 2.97423E+01-4.15590E-01-1.37058E-02-3.83726E-02-2.06606E-13-4.43701E-13
 -1      2640 2.00457E+01 8.27080E-02 5.68160E-04 1.03873E-01-7.46201E-14 4.20959E-13
 -1      2641 2.00623E+01 6.89273E-02-7.12202E-04-1.16304E-01 2.71246E-13-5.23351E-14
 -1      2642 3.00383E+01 4.70375E+00-8.15591E-02 1.86928E+00 5.94191E-13 2.74739E-13
 -1      2643 3.19828E+01 6.05393E+00-1.46568E-01 1.17804E+00 8.33167E-13 5.35266E-14
 -1      2644 1.98549E+01 2.79573E+00-6.30902E-03 5.05243E-01 2.02839E-13-1.94034E-13
 -1      2645 1.98296E+01 2.84691E+00-5.84670E-03 3.56874E-01 1.78772E-13-2.13621E-13
 -1      2646 1.98123E+01 2.88614E+00-5.64815E-03 2.24700E-01 1.71985E-13-2.38797E-13
 -1      2647 1.98034E+01 2.90359E+00-5.53005E-03 7.30934E-02 1.46524E-13-2.43318E-13
 -1      2648 1.99567E+01 2.54117E+00 3.90690E-03 2.57196E-01 1.66760E-13-2.16172E-13
 -1      2649 2.00545E+01 2.34279E+00-1.06293E-02 1.02851E+00 2.80934E-13-6.40985E-14
 -1      2650 1.99905E+01 2.49438E+00-6.51474E-03 8.93542E-01 2.70212E-13-1.07065E-13
 -1      2651 2.02242E+01 1.92072E+00-1.18674E-02 1.21053E+00 2.81954E-13 1.33786E-14
 -1      2652 2.01339E+01 2.16107E+00-4.94666E-03 1.11674E+00 2.81311E-13-2.67902E-14
 -1      2653 2.01996E+01 1.90775E+00 6.56289E-03 9.06277E-01 2.58093E-13-3.96987E-14
 -1      2654 2.02191E+01 7.38111E-01-3.14285E-03 6.22593E-01 2.11322E-13 1.42492E-13
 -1      2655 2.03572E+01 9.60275E-01 9.18851E-03 8.89747E-01 2.29773E-13 1.63723E-13
 -1      2656 2.36161E+01-5.40661E+00-8.36978E-02 4.02255E+00-8.73190E-14 1.37168E-13
 -1      2657 2.07719E+01-4.93909E+00 1.17707E-01 5.00220E+00-2.56323E-13 2.76477E-13
 -1      2658 2.00849E+01 4.33369E-01-9.77569E-04 2.57838E-01 1.52406E-13 8.91857E-14
 -1      2659 2.01799E+01 5.67557E-01 1.02403E-02 4.25621E-01 1.80607E-13 1.21715E-13
 -1      2660 2.02634E+01 8.38845E-01 8.39451E-04 5.91599E-01 2.12121E-13 7.69581E-14
 -1      2661 2.79481E+01-3.82179E+00-1.33649E-01 2.49711E-01 7.20552E-14-1.73542E-13
 -1      2662 2.61506E+01-4.85107E+00 5.47136E-02 2.20459E+00-5.41026E-14 1.03112E-14
 -1      2663 2.51955E+01-4.61252E+00 1.06013E-01 2.33466E+00-1.88141E-13-1.18662E-13
 -1      2664 2.99634E+01 6.18164E+00-1.80102E-01 8.25157E-01 9.39360E-13 2.10602E-13
 -1      2665 2.03226E+01 1.71582E+00-1.07621E-02-1.31556E+00-1.78873E-13-2.11045E-13
 -1      2666 2.02982E+01 1.33971E+00-4.71709E-03-1.01789E+00-1.70035E-13-1.86493E-13
 -1      2667 2.02297E+01 6.46089E-01 8.47346E-03-4.09003E-01-1.01105E-13-1.31780E-13
 -1      2668 2.01479E+01 5.00829E-01-2.81352E-03-2.42471E-01-9.90819E-14-1.14866E-13
 -1      2669 2.01248E+01 3.91925E-01 6.58596E-03-1.14021E-01-1.05451E-13-1.11799E-13
 -1      2670 2.00724E+01 3.02583E-01-1.23316E-03-7.45747E-03-7.93182E-14-1.42521E-13
 -1      2671 2.02097E+01 5.63203E-01-1.77049E-03-2.17648E-01-1.10389E-13-1.19994E-13
 -1      2672 2.00493E+01 2.38124E-01 4.32532E-03 7.86962E-02-4.51558E-14-1.45144E-13
 -1      2673 2.00229E+01 1.85629E-01-1.65933E-04 1.47411E-01-3.05580E-14-1.26867E-13
 -1      2674 2.01481E+01 3.45403E-01-2.25515E-03 8.26668E-03-6.90621E-14-1.25127E-13
 -1      2675 2.00059E+01 1.48623E-01 2.65271E-03 2.05475E-01-4.47182E-14-1.15096E-13
 -1      2676 2.00004E+01 1.19844E-01 5.40155E-04 2.50955E-01-5.59557E-14-1.52416E-13
 -1      2677 2.00999E+01 2.15962E-01-2.09578E-03 1.62080E-01-4.45911E-14-1.18867E-13
 -1      2678 1.99905E+01 1.00876E-01 1.42462E-03 2.91602E-01-8.09343E-14-1.63922E-13
 -1      2679 2.00010E+01 8.81065E-02 1.02834E-03 3.24159E-01-9.86966E-14-1.61472E-13
 -1      2680 2.00695E+01 1.43621E-01-1.76047E-03 2.68068E-01-8.01043E-14-1.45603E-13
 -1      2681 1.99978E+01 8.13834E-02 5.57100E-04 3.55668E-01-8.10029E-14-1.37170E-13
 -1      2682 2.00208E+01 7.95430E-02 1.38920E-03 3.82526E-01-8.96259E-14-1.30597E-13
 -1      2683 2.00559E+01 1.10043E-01-1.42409E-03 3.45781E-01-7.91724E-14-1.41025E-13
 -1      2684 2.00235E+01 8.10693E-02-3.42161E-05 4.10993E-01-6.55671E-14-1.21424E-13
 -1      2685 2.00568E+01 8.64066E-02 1.66918E-03 4.37117E-01-3.60878E-14-9.02966E-14
 -1      2686 2.00566E+01 1.02933E-01-1.15495E-03 4.10117E-01-5.43989E-14-5.30015E-14
 -1      2687 2.00651E+01 9.29980E-02-4.05738E-04 4.66816E-01-4.85740E-14-4.91356E-14
 -1      2688 2.01075E+01 1.02268E-01 1.88081E-03 4.95351E-01-3.78899E-14-6.18748E-14
 -1      2689 2.00700E+01 1.13164E-01-9.74615E-04 4.71887E-01-1.96696E-14-2.10942E-14
 -1      2690 2.01214E+01 1.10902E-01-5.84022E-04 5.28950E-01-4.46430E-14-3.43716E-14
 -1      2691 2.01728E+01 1.20766E-01 2.01087E-03 5.61368E-01-2.01705E-14-4.44643E-14
 -1      2692 2.00952E+01 1.32863E-01-8.92583E-04 5.38396E-01-4.11573E-14-1.61415E-14
 -1      2693 2.01933E+01 1.28072E-01-5.65302E-04 5.99940E-01-3.68871E-14-8.69747E-14
 -1      2694 2.02540E+01 1.34582E-01 2.02396E-03 6.35948E-01-4.29326E-14-1.13716E-13
 -1      2695 2.01327E+01 1.53981E-01-9.25753E-04 6.13690E-01-8.30398E-14-5.87209E-14
 -1      2696 2.02834E+01 1.36387E-01-3.12978E-04 6.78805E-01-1.96086E-14-1.32116E-13
 -1      2697 2.03544E+01 1.34523E-01 1.86232E-03 7.16041E-01 4.10343E-16-1.34600E-13
 -1      2698 2.01850E+01 1.67098E-01-1.11105E-03 6.98451E-01-2.76589E-14-7.30304E-14
 -1      2699 2.03964E+01 1.25471E-01 2.43716E-04 7.60356E-01-2.84121E-14-1.09152E-13
 -1      2700 2.04793E+01 1.08813E-01 1.44333E-03 7.93914E-01-6.75634E-14-8.76533E-14
 -1      2701 2.02570E+01 1.60370E-01-1.51240E-03 7.89516E-01-3.93228E-14-8.97851E-14
 -1      2702 2.05400E+01 8.22109E-02 1.20412E-03 8.34120E-01-1.03603E-13-8.84908E-14
 -1      2703 2.06367E+01 4.29771E-02 6.54012E-04 8.55981E-01-1.57947E-13-7.14228E-14
 -1      2704 2.03572E+01 1.18793E-01-2.22095E-03 8.78985E-01-8.01247E-14-1.09089E-13
 -1      2705 2.07249E+01-8.80092E-03 2.67209E-03 8.82962E-01-1.97735E-13-5.68123E-15
 -1      2706 2.08376E+01-7.88385E-02-6.52674E-04 8.81504E-01-1.55783E-13-5.10714E-14
 -1      2707 2.04988E+01 2.43475E-02-3.34018E-03 9.52894E-01-1.47744E-13-4.00112E-14
 -1      2708 2.09649E+01-1.62728E-01 4.69809E-03 8.81631E-01-8.22578E-14-5.85869E-14
 -1      2709 2.10950E+01-2.69587E-01-2.64863E-03 8.41638E-01-2.51963E-14-1.12261E-13
 -1      2710 2.07003E+01-1.41839E-01-4.92281E-03 9.89450E-01-1.36845E-13 3.06219E-14
 -1      2711 2.12743E+01-3.88021E-01 7.12416E-03 7.96009E-01 4.99289E-16-1.35100E-13
 -1      2712 2.14202E+01-5.29855E-01-5.45427E-03 6.99983E-01-5.57653E-14-9.48665E-14
 -1      2713 2.09848E+01-3.93270E-01-6.83140E-03 9.57082E-01-3.96624E-14-8.10991E-14
 -1      2714 2.16605E+01-6.73579E-01 9.35387E-03 5.84928E-01-8.30116E-14 1.01287E-14
 -1      2715 2.18140E+01-8.30789E-01-8.76891E-03 4.17283E-01-4.27783E-14-3.51659E-14
 -1      2716 2.13749E+01-7.24979E-01-8.48765E-03 8.13388E-01-2.90153E-14-7.99650E-14
 -1      2717 2.21092E+01-9.68043E-01 1.00201E-02 2.09746E-01 4.11613E-14 9.36696E-15
 -1      2718 2.22505E+01-1.09166E+00-1.15675E-02-3.32845E-02 1.14169E-13 2.47441E-14
 -1      2719 2.18792E+01-1.08999E+00-8.40273E-03 5.08725E-01 2.37209E-14 1.78841E-13
 -1      2720 2.25635E+01-1.15971E+00 6.30702E-03-3.40675E-01 1.45783E-13 5.66580E-14
 -1      2721 2.26606E+01-1.16518E+00-1.14855E-02-6.35067E-01 9.85750E-14 6.99807E-14
 -1      2722 2.24663E+01-1.37175E+00-4.87559E-03 4.61714E-03 7.77434E-14 1.00295E-13
 -1      2723 2.29120E+01-1.07182E+00-3.29262E-03-1.00588E+00 2.81450E-14 7.83481E-14
 -1      2724 2.29292E+01-8.56170E-01-4.11205E-03-1.27885E+00-6.08395E-14 1.20223E-13
 -1      2725 2.30364E+01-1.37766E+00 1.07426E-03-6.84212E-01 8.83451E-14 1.03946E-13
 -1      2726 2.30071E+01-5.22867E-01-1.93970E-02-1.58568E+00-8.45941E-14 1.76211E-14
 -1      2727 2.29378E+01-5.31399E-02 9.08087E-03-1.70755E+00-1.17532E-13 3.21523E-14
 -1      2728 2.34145E+01-8.56677E-01 1.14007E-02-1.41381E+00-1.08676E-13 1.99180E-13
 -1      2729 2.27943E+01 4.86346E-01-3.43127E-02-1.75965E+00-3.84627E-14-6.30802E-14
 -1      2730 2.26823E+01 1.08670E+00 2.03714E-02-1.60092E+00-4.43187E-14-1.84288E-14
 -1      2731 2.34365E+01 2.43574E-01 9.14236E-03-1.85076E+00-9.22326E-14 5.52284E-14
 -1      2732 2.24143E+01 1.56839E+00-4.54111E-02-1.22956E+00-1.05778E-13-5.31762E-14
 -1      2733 2.23212E+01 1.98118E+00-6.54671E-03-8.10277E-01-2.20969E-14-8.51773E-14
 -1      2734 2.31236E+01 1.61149E+00 1.47653E-02-1.59019E+00-9.76831E-14 1.18376E-13
 -1      2735 2.22628E+01 2.18838E+00-4.00049E-03-1.07316E-01-2.30675E-14-1.05919E-13
 -1      2736 2.22770E+01 2.10399E+00-1.38423E-02 4.30512E-01-2.92561E-14-6.15523E-14
 -1      2737 2.28304E+01 2.54369E+00 8.44538E-03-5.18094E-01 4.27375E-14 6.62300E-14
 -1      2738 2.24204E+01 1.83061E+00 1.49202E-02 1.03762E+00 2.81632E-15-1.15151E-13
 -1      2739 2.25197E+01 1.35548E+00-3.18048E-02 1.42680E+00 1.60818E-14-8.03919E-14
 -1      2740 2.28961E+01 2.38110E+00-1.44659E-02 8.21397E-01-1.90264E-14 5.83734E-15
 -1      2741 2.27566E+01 8.05580E-01 1.76911E-02 1.68629E+00-1.34450E-14-7.69296E-14
 -1      2742 2.28686E+01 2.21877E-01-2.96525E-02 1.77266E+00 5.37560E-14-3.84007E-14
 -1      2743 2.32153E+01 1.30404E+00-4.08294E-04 1.71940E+00-6.00301E-14-2.19733E-14
 -1      2744 2.29634E+01-2.80511E-01 6.67932E-03 1.64702E+00 1.18375E-13-5.89064E-14
 -1      2745 2.30152E+01-6.94028E-01-1.45631E-02 1.47776E+00 9.13909E-14 4.17214E-14
 -1      2746 2.34641E+01-4.82379E-02 1.41479E-02 1.79709E+00 6.81712E-14 5.82780E-15
 -1      2747 2.28885E+01-9.67081E-01-6.57573E-03 1.14048E+00-5.30244E-14-7.88704E-14
 -1      2748 2.28505E+01-1.12154E+00-8.60864E-04 8.54487E-01-7.65406E-14-3.20351E-14
 -1      2749 2.33540E+01-1.03072E+00 8.71671E-03 1.25894E+00 2.93823E-14-5.78628E-14
 -1      2750 2.25771E+01-1.16737E+00-1.22545E-02 4.93950E-01-9.11649E-14 2.83118E-15
 -1      2751 2.24678E+01-1.12430E+00 7.44794E-03 2.08953E-01-1.28852E-13-4.05338E-14
 -1      2752 2.29148E+01-1.40531E+00-1.05654E-03 5.20764E-01-5.50098E-14-4.89688E-14
 -1      2753 2.21538E+01-1.03101E+00-1.13771E-02-7.37384E-02-2.13350E-13 2.36867E-14
 -1      2754 2.20090E+01-8.91663E-01 9.99828E-03-2.97122E-01-8.01740E-14 2.20615E-14
 -1      2755 2.23287E+01-1.31311E+00-7.18827E-03-1.27512E-01-1.14687E-13-4.35609E-14
 -1      2756 2.17258E+01-7.46597E-01-8.06693E-03-4.77871E-01-1.19295E-13 3.53610E-14
 -1      2757 2.15753E+01-5.88170E-01 9.01056E-03-6.23899E-01-1.37689E-13-5.05445E-14
 -1      2758 2.17569E+01-9.90999E-01-8.86078E-03-5.77071E-01-9.73798E-14 2.47887E-14
 -1      2759 2.13508E+01-4.46762E-01-4.73370E-03-7.16129E-01-6.17922E-14 2.57848E-14
 -1      2760 2.12115E+01-3.10363E-01 6.72319E-03-7.92732E-01-2.85144E-14 3.81147E-14
 -1      2761 2.12811E+01-6.21456E-01-7.93351E-03-8.31522E-01-9.18661E-14 1.16963E-13
 -1      2762 2.10468E+01-1.97797E-01-2.14383E-03-8.20459E-01-9.86982E-15-4.29025E-14
 -1      2763 2.09250E+01-9.76407E-02 4.40529E-03-8.44188E-01 3.13038E-15 1.91616E-14
 -1      2764 2.09201E+01-3.01700E-01-6.06255E-03-9.35012E-01-4.65720E-14-4.61020E-14
 -1      2765 2.08094E+01-1.95477E-02-3.63949E-04-8.30003E-01-7.50298E-14-3.30175E-14
 -1      2766 2.07058E+01 4.50610E-02 2.55110E-03-8.17960E-01-1.54922E-13-7.12189E-14
 -1      2767 2.06601E+01-6.56274E-02-4.21966E-03-9.35990E-01-7.94205E-14-1.36094E-13
 -1      2768 2.06263E+01 9.26426E-02 7.63529E-04-7.79409E-01-1.65401E-13 4.73669E-14
 -1      2769 2.05393E+01 1.28528E-01 1.24382E-03-7.45952E-01-7.37642E-15 1.15868E-13
 -1      2770 2.04777E+01 8.78390E-02-2.78606E-03-8.74181E-01-5.64463E-15-6.05237E-14
 -1      2771 2.04849E+01 1.52828E-01 1.41313E-03-6.95503E-01 6.82489E-14 1.47004E-13
 -1      2772 2.04123E+01 1.68095E-01 4.08253E-04-6.51400E-01-6.96028E-15 1.58434E-13
 -1      2773 2.03505E+01 1.74205E-01-1.79850E-03-7.78620E-01-7.75882E-15 1.16583E-13
 -1      2774 2.03747E+01 1.76402E-01 1.72422E-03-5.97374E-01 1.66756E-15 1.81944E-13
 -1      2775 2.03145E+01 1.78266E-01-7.45260E-05-5.50030E-01-6.75706E-15 1.27021E-13
 -1      2776 2.02608E+01 2.12091E-01-1.16939E-03-6.69236E-01-2.98379E-14 8.25194E-14
 -1      2777 2.02880E+01 1.76643E-01 1.80264E-03-4.97601E-01-1.13593E-13 9.28451E-14
 -1      2778 2.02384E+01 1.70735E-01-3.16418E-04-4.51663E-01-1.33807E-13 9.18428E-15
 -1      2779 2.01964E+01 2.18197E-01-7.88453E-04-5.58928E-01-1.06828E-13-2.34838E-14
 -1      2780 2.02192E+01 1.63728E-01 1.72568E-03-4.03735E-01-2.03806E-13 1.17434E-13
 -1      2781 2.01787E+01 1.54108E-01-4.06438E-04-3.61779E-01-9.81241E-14-5.89628E-14
 -1      2782 2.01489E+01 2.05646E-01-5.64105E-04-4.55412E-01-1.51826E-13 1.15002E-14
 -1      2783 2.01643E+01 1.44926E-01 1.55335E-03-3.19687E-01 6.81717E-14-7.31089E-14
 -1      2784 2.01316E+01 1.34397E-01-3.97470E-04-2.82813E-01 4.83257E-14-8.02434E-14
 -1      2785 2.01129E+01 1.83964E-01-4.27715E-04-3.62734E-01-6.35849E-14-1.17878E-13
 -1      2786 2.01203E+01 1.25201E-01 1.34706E-03-2.46760E-01 8.76962E-14-6.90909E-14
 -1      2787 2.00942E+01 1.15426E-01-3.16928E-04-2.15040E-01 1.85028E-13-2.07660E-13
 -1      2788 2.00848E+01 1.59773E-01-3.05548E-04-2.82378E-01 5.61329E-15-3.53781E-13
 -1      2789 2.00847E+01 1.07271E-01 1.04472E-03-1.84773E-01 3.08017E-13-2.62568E-13
 -1      2790 2.00643E+01 9.96878E-02-4.21593E-05-1.57859E-01 4.07910E-13-2.69479E-13
 -1      2791 2.00618E+01 1.36591E-01-4.13170E-04-2.13970E-01 2.52095E-13-2.15988E-13
 -1      2792 1.02138E+01-2.01195E+00 7.62572E-02 4.83385E+00-3.10724E-14 2.68729E-13
 -1      2793 8.17790E+00-1.08645E+00 1.54332E-01 3.15082E+00 3.43128E-14 2.26291E-13
 -1      2794 2.00478E+01 9.01435E-02 1.47758E-04-1.23910E-01 3.81427E-13-1.01899E-13
 -1      2795 2.00346E+01 1.08375E-01 2.44761E-05-1.29977E-01 3.55279E-13-2.88202E-13
 -1      2796 2.00594E+01 9.49408E-02 8.67942E-04-1.40165E-01 4.80556E-13-1.54694E-13
 -1      2797 1.99336E+01 1.55482E-01 4.96837E-04-1.37235E-01 1.25898E-13 1.87968E-14
 -1      2798 1.99575E+01 2.01078E-01 4.85636E-03-7.09834E-02 1.14513E-13 3.19162E-14
 -1      2799 1.99713E+01 7.23983E-02 1.84820E-03-3.69285E-01 3.60087E-14 1.05395E-13
 -1      2800 1.99363E+01 7.11865E-02 5.83538E-04-3.42328E-01 4.11578E-14 7.42982E-14
 -1      2801 2.00298E+01 8.65722E-02 2.26973E-03-4.28006E-01 1.10283E-13 8.03528E-14
 -1      2802 1.99824E+01 7.70070E-02-1.16184E-04-3.99419E-01 5.81789E-14 8.86497E-14
 -1      2803 2.00206E+01 9.84380E-02-1.28824E-03-4.07027E-01 4.43709E-14-1.27699E-14
 -1      2804 2.01057E+01 1.14421E-01 2.73669E-03-4.96693E-01 1.58803E-13 1.33643E-13
 -1      2805 2.00467E+01 9.80216E-02-6.32512E-04-4.61894E-01 1.50046E-13 1.19200E-13
 -1      2806 2.00521E+01 1.19627E-01-1.00104E-03-4.75288E-01 1.09616E-13 3.46602E-14
 -1      2807 2.01978E+01 1.53584E-01 3.25253E-03-5.83319E-01 9.63402E-14 1.53348E-13
 -1      2808 2.01270E+01 1.31510E-01-1.03959E-03-5.38671E-01 1.32820E-13 1.60226E-13
 -1      2809 2.00954E+01 1.57484E-01-7.64497E-04-5.55017E-01 1.19684E-13 9.75731E-14
 -1      2810 2.03064E+01 2.01661E-01 3.80000E-03-6.94122E-01 7.36518E-14 1.93758E-13
 -1      2811 2.02228E+01 1.75204E-01-1.38429E-03-6.36845E-01 8.55241E-14 1.89135E-13
 -1      2812 2.01480E+01 2.08930E-01-5.46669E-04-6.54261E-01 9.16799E-14 1.22120E-13
 -1      2813 2.04321E+01 2.55034E-01 4.33705E-03-8.33419E-01 1.90107E-14 1.40650E-13
 -1      2814 2.03343E+01 2.26284E-01-1.68215E-03-7.61805E-01 6.60868E-14 2.00141E-13
 -1      2815 2.02083E+01 2.70541E-01-3.29208E-04-7.79199E-01 7.30556E-14 2.68683E-13
 -1      2816 2.05766E+01 3.07046E-01 4.78956E-03-1.00280E+00 4.27609E-14 1.76609E-13
 -1      2817 2.04627E+01 2.79928E-01-1.90149E-03-9.16811E-01 1.30125E-14 1.59385E-13
 -1      2818 2.02751E+01 3.36930E-01-1.31061E-04-9.34009E-01 4.20600E-14 2.74746E-13
 -1      2819 2.07434E+01 3.45152E-01 5.04464E-03-1.19947E+00 7.60219E-14 2.30200E-13
 -1      2820 2.06110E+01 3.27049E-01-1.93189E-03-1.10188E+00 7.67473E-14 2.40433E-13
 -1      2821 2.03485E+01 3.98281E-01-4.98452E-05-1.12023E+00 2.66042E-14 3.43056E-13
 -1      2822 2.09407E+01 3.46694E-01 4.93980E-03-1.41333E+00-2.97235E-14 3.21270E-13
 -1      2823 2.07858E+01 3.50799E-01-1.52652E-03-1.31167E+00 1.32505E-14 2.48118E-13
 -1      2824 2.04318E+01 4.36566E-01-3.35889E-04-1.33553E+00-9.87383E-16 3.51482E-13
 -1      2825 2.11862E+01 2.73612E-01 4.23188E-03-1.62241E+00-1.45705E-13 3.69758E-13
 -1      2826 2.10017E+01 3.21729E-01-2.23973E-04-1.53184E+00-5.80965E-14 3.98826E-13
 -1      2827 2.05365E+01 4.20171E-01-1.50274E-03-1.57152E+00-1.03796E-13 4.21079E-13
 -1      2828 2.15158E+01 6.84271E-02 2.51192E-03-1.78609E+00-1.56411E-13 3.19725E-13
 -1      2829 2.12891E+01 1.92652E-01 2.75036E-03-1.73324E+00-1.41969E-13 3.16883E-13
 -1      2830 2.06901E+01 2.97595E-01-4.45587E-03-1.81012E+00-9.49611E-14 3.22233E-13
 -1      2831 2.19930E+01-3.40780E-01-1.15752E-03-1.83541E+00-1.38141E-13 2.52970E-13
 -1      2832 2.17044E+01-1.02264E-01 8.52537E-03-1.86247E+00-1.69561E-13 2.61170E-13
 -1      2833 2.09497E+01-6.15843E-03-1.04778E-02-2.01660E+00-1.37002E-13 2.21657E-13
 -1      2834 2.27090E+01-1.00498E+00-7.83688E-03-1.66054E+00-1.57643E-13 2.82313E-13
 -1      2835 2.23384E+01-6.31954E-01 1.79099E-02-1.82717E+00-1.11531E-13 2.67139E-13
 -1      2836 2.14185E+01-5.79617E-01-2.09909E-02-2.12509E+00-1.35196E-13 1.35494E-13
 -1      2837 2.37523E+01-1.86269E+00-1.74606E-02-1.11089E+00-1.92265E-13 3.31583E-13
 -1      2838 2.33007E+01-1.40745E+00 3.07647E-02-1.48352E+00-1.77954E-13 2.94276E-13
 -1      2839 2.22497E+01-1.47046E+00-3.55270E-02-2.01483E+00-1.47327E-13 1.82900E-13
 -1      2840 2.51341E+01-2.52247E+00-1.46586E-02-2.42122E-02-2.55407E-13 4.61797E-13
 -1      2841 2.46460E+01-2.25206E+00 3.95001E-02-6.36273E-01-2.18272E-13 4.12963E-13
 -1      2842 2.36075E+01-2.55391E+00-5.01067E-02-1.47664E+00-2.37089E-13 2.69184E-13
 -1      2843 2.65691E+01-2.17535E+00-1.88533E-02 1.51083E+00-2.87863E-13 5.47297E-13
 -1      2844 2.61747E+01-2.55741E+00 1.27757E-02 7.72949E-01-3.35980E-13 5.34752E-13
 -1      2845 2.55260E+01-3.10931E+00-2.02210E-02-2.18419E-01-3.47824E-13 3.30949E-13
 -1      2846 2.72120E+01 4.62628E+00-1.16618E-01-1.52657E-02 6.94556E-13 4.08628E-13
 -1      2847 2.72827E+01 4.20520E+00-1.70765E-01 1.36064E+00 7.22200E-13 5.86073E-13
 -1      2848 2.79706E+01 3.26842E+00-2.20777E-01-2.28788E+00 7.48734E-13-1.81195E-13
 -1      2849 2.78579E+01 4.51829E+00-1.79188E-01-1.47878E+00 7.20646E-13 9.42232E-14
 -1      2850 2.82002E+01-1.99937E-01-1.68528E-01-2.44202E+00 4.04739E-13-2.83371E-13
 -1      2851 2.81950E+01 1.42214E+00-1.44488E-01-2.68590E+00 6.14925E-13-2.00798E-13
 -1      2852 2.64352E+01-2.99762E+00 2.80188E-03-4.42362E-01-2.22392E-15-2.45387E-13
 -1      2853 2.70020E+01-2.46008E+00 5.92683E-03-1.16932E+00 7.42253E-14-3.22551E-13
 -1      2854 2.35137E+01-1.55357E+00 3.20429E-02 1.37289E+00-2.67977E-13-3.83998E-14
 -1      2855 2.39963E+01-2.00290E+00-1.43517E-02 9.56386E-01-1.56735E-13-1.50789E-13
 -1      2856 2.24906E+01-7.42171E-01 2.09214E-02 1.77954E+00-2.92877E-13-6.11768E-14
 -1      2857 2.28794E+01-1.13692E+00-7.02346E-03 1.58343E+00-3.10816E-13-9.09472E-14
 -1      2858 2.24468E+01-1.63326E+00-3.60922E-02 1.94165E+00-2.63784E-13-1.81419E-13
 -1      2859 2.18107E+01-1.64758E-01 1.03762E-02 1.85061E+00 9.83931E-14-2.51167E-14
 -1      2860 2.21102E+01-4.27760E-01-1.39403E-03 1.80722E+00-1.72083E-13-3.93946E-14
 -1      2861 2.15430E+01-6.99012E-01-2.12516E-02 2.10851E+00-2.69248E-13-2.08278E-13
 -1      2862 2.13707E+01 1.69214E-01 3.80891E-03 1.73368E+00 2.25293E-13 1.65386E-13
 -1      2863 2.16030E+01 2.64759E-02 2.30432E-03 1.78027E+00 2.09463E-13 5.06398E-14
 -1      2864 2.10243E+01-6.84206E-02-1.13371E-02 2.01978E+00 1.17956E-13-1.99133E-14
 -1      2865 2.10736E+01 3.25250E-01 4.09889E-04 1.53033E+00 9.72110E-14 1.55989E-13
 -1      2866 2.12592E+01 2.64699E-01 4.03842E-03 1.62176E+00 2.09198E-13 1.96714E-13
 -1      2867 2.07414E+01 2.78835E-01-5.16977E-03 1.81517E+00 2.01979E-13-9.04059E-15
 -1      2868 2.08571E+01 3.71611E-01-1.06797E-03 1.29885E+00 1.06211E-13 2.29436E-13
 -1      2869 2.10100E+01 3.59653E-01 4.82053E-03 1.40617E+00 1.66582E-13 3.35230E-13
 -1      2870 2.05797E+01 4.31047E-01-1.94875E-03 1.56803E+00-1.61698E-14-5.58848E-15
 -1      2871 2.06876E+01 3.58628E-01-1.52906E-03 1.07166E+00-1.48384E-14 2.55937E-13
 -1      2872 2.08156E+01 3.71815E-01 4.99687E-03 1.17803E+00 7.08599E-14 3.53116E-13
 -1      2873 2.04752E+01 4.66485E-01-5.38085E-04 1.31658E+00 5.62598E-15 3.23049E-13
 -1      2874 2.05484E+01 3.18408E-01-1.50824E-03 8.65119E-01-1.09464E-13 2.77054E-13
 -1      2875 2.06557E+01 3.42316E-01 4.76874E-03 9.61937E-01-9.32181E-14 2.70360E-13
 -1      2876 2.03962E+01 4.40171E-01-1.17979E-04 1.08118E+00-3.47021E-14 4.29103E-13
 -1      2877 2.04319E+01 2.69305E-01-1.29136E-03 6.85942E-01 1.66296E-14 1.33842E-13
 -1      2878 2.05210E+01 2.95911E-01 4.31117E-03 7.69689E-01-6.57167E-15 1.69426E-13
 -1      2879 2.03294E+01 3.86577E-01-1.18132E-04 8.71572E-01-4.61307E-14 4.17531E-13
 -1      2880 2.03343E+01 2.20937E-01-1.02074E-03 5.35314E-01 2.09100E-14 9.72014E-14
 -1      2881 2.04074E+01 2.46159E-01 3.74674E-03 6.05392E-01 2.95975E-14 1.24289E-13
 -1      2882 2.02699E+01 3.25180E-01-2.43477E-04 6.91278E-01 6.73852E-14 2.57508E-13
 -1      2883 2.02534E+01 1.77834E-01-7.63509E-04 4.11431E-01 1.05938E-13-3.24358E-14
 -1      2884 2.03124E+01 1.99832E-01 3.15667E-03 4.68785E-01 8.69149E-14-4.86660E-14
 -1      2885 2.02167E+01 2.66111E-01-3.64830E-04 5.40067E-01 1.31520E-13-1.59482E-13
 -1      2886 2.01871E+01 1.41864E-01-5.39884E-04 3.11063E-01 2.13864E-13-1.97028E-13
 -1      2887 2.02341E+01 1.59918E-01 2.58633E-03 3.57359E-01 7.83926E-14-1.62584E-13
 -1      2888 2.01700E+01 2.14088E-01-4.38898E-04 4.15633E-01 9.93845E-14-8.74729E-14
 -1      2889 2.01337E+01 1.13608E-01-2.98726E-04 2.30313E-01 1.82180E-13 7.07141E-14
 -1      2890 2.01703E+01 1.27588E-01 2.06198E-03 2.67510E-01 2.25403E-13-2.21683E-14
 -1      2891 2.01295E+01 1.71063E-01-4.55409E-04 3.14639E-01 1.58380E-13-6.78806E-14
 -1      2892 2.00917E+01 9.28774E-02 2.62823E-04 1.65406E-01 1.50156E-13 2.33710E-13
 -1      2893 2.01191E+01 1.02633E-01 1.60734E-03 1.95043E-01 2.13710E-13 1.22227E-13
 -1      2894 2.00946E+01 1.37425E-01-5.01130E-04 2.33221E-01 1.15624E-13 7.41877E-14
 -1      2895 2.00574E+01 8.44539E-02 4.53527E-04 1.20941E-01-1.36881E-14 3.80777E-13
 -1      2896 2.00780E+01 9.17635E-02 1.29721E-03 1.45843E-01 9.90711E-14 2.99818E-13
 -1      2897 2.00630E+01 1.18314E-01-1.22723E-03 1.75891E-01 6.03712E-15 1.25832E-14
 -1      2898 2.00387E+01 1.11432E-01-1.15339E-03 1.36306E-01-1.48220E-13 1.12397E-13
 -1      2899 1.99085E+01 2.77012E-01-6.11296E-04 9.67203E-03 2.13126E-13 3.98847E-14
 -1      2900 1.99111E+01 2.74640E-01-4.37037E-04 3.44140E-02 2.91358E-13-4.43088E-14
 -1      2901 1.99386E+01 2.42045E-01-1.04709E-03 1.07218E-01 3.72501E-14-2.44083E-13
 -1      2902 1.99538E+01 2.26608E-01 1.85895E-04 1.22515E-01-3.73039E-14-4.60625E-14
 -1      2903 1.99139E+01 2.70155E-01-2.65792E-04-4.38659E-02 1.82045E-13 1.26023E-13
 -1      2904 1.99094E+01 2.74739E-01-7.54777E-04-1.97250E-02 1.42479E-13 2.01485E-13
 -1      2905 1.98879E+01 2.97863E-01 1.06390E-03-6.53340E-03 2.90508E-13-5.46937E-15
 -1      2906 1.99169E+01 2.67412E-01-9.05523E-04 6.25672E-02-8.30095E-15-9.46665E-14
 -1      2907 1.99264E+01 2.58214E-01-6.28192E-05 8.43026E-02-1.83948E-14-1.94831E-13
 -1      2908 1.99164E+01 2.71309E-01 9.43414E-04 1.08413E-01-1.53142E-14-1.40428E-13
 -1      2909 1.98940E+01 2.93331E-01 1.08061E-03 5.42742E-02 1.69635E-13 8.12612E-14
 -1      2910 8.30118E+00-1.26046E+00 2.04130E-01-3.98715E+00 8.57855E-14 1.10356E-12
 -1      2911 9.93511E+00-2.07694E+00 9.77538E-02-5.36762E+00 2.19796E-13 1.08732E-12
 -1      2912 2.03395E+01 1.50677E+00-1.74675E-03 1.25333E+00 2.72189E-13 1.44175E-13
 -1      2913 1.99315E+01 2.48559E-01 1.06158E-04-8.99383E-02 1.69469E-13-2.14766E-14
 -1      2914 1.99210E+01 2.59159E-01-9.72577E-04-7.00582E-02 1.20123E-13-1.30059E-14
 -1      2915 1.98983E+01 2.85155E-01 9.58463E-04-6.51611E-02 2.14309E-13 4.22295E-14
 -1      2916 1.99593E+01 2.14009E-01 3.97265E-04-1.23903E-01 7.69586E-14 1.50195E-13
 -1      2917 1.99440E+01 2.29929E-01-1.07093E-03-1.10350E-01 1.26182E-13-3.62044E-15
 -1      2918 1.99232E+01 2.57074E-01 7.50911E-04-1.14371E-01 9.10035E-14 1.04114E-14
 -1      2919 1.99927E+01 1.70034E-01 2.48137E-04-1.40148E-01 1.92779E-13 1.18107E-13
 -1      2920 1.99758E+01 1.90029E-01-9.50917E-04-1.35596E-01 1.41477E-13 2.04809E-13
 -1      2921 1.99591E+01 2.16727E-01 4.84187E-04-1.48225E-01 2.09912E-14 1.59398E-13
 -1      2922 2.00208E+01 1.31371E-01 1.86753E-04-1.34773E-01 3.83326E-13-2.62714E-13
 -1      2923 1.99875E+01 2.57322E-01-7.55345E-05 1.77390E-02 1.08738E-13 4.58655E-14
 -1      2924 2.00441E+01 3.36048E-01 7.44026E-03 1.22827E-01 1.22458E-13 6.02966E-14
 -1      2925 2.01629E+01 5.03987E-01-1.47317E-03 2.42187E-01 1.60315E-13 2.15617E-14
 -1      2926 2.00822E+01 3.03819E-01-2.34204E-03 4.86543E-03 1.31327E-13-2.51558E-14
 -1      2927 2.07933E+01-5.13595E+00-5.91719E-02 5.48729E+00 2.49717E-13 1.42376E-13
 -1      2928 1.77702E+01-4.20802E+00 1.30560E-01 5.99858E+00 2.82566E-13 7.96030E-14
 -1      2929 8.63623E+00-6.48539E-01 1.15855E-01 3.08569E+00 2.64705E-13-1.42913E-13
 -1      2930 6.76236E+00-4.91751E-01 1.77199E-01 1.13163E+00 2.15789E-13-3.01731E-13
 -1      2931 1.99326E+01 7.51482E-02 1.44806E-03-3.10503E-01 3.86256E-14 4.74582E-14
 -1      2932 1.99124E+01 8.46634E-02 1.57531E-03-2.79299E-01 6.63516E-14 3.05869E-14
 -1      2933 2.00036E+01 9.78581E-02-1.65733E-03-3.40044E-01 3.28691E-14-6.53511E-15
 -1      2934 1.99179E+01 9.99679E-02 1.01816E-03-2.38790E-01 1.03335E-13 2.98663E-14
 -1      2935 1.99168E+01 1.24132E-01 2.98689E-03-1.95480E-01 1.12888E-13 3.61695E-14
 -1      2936 2.00050E+01 1.23937E-01-2.12113E-03-2.61329E-01 8.47464E-14 7.33273E-15
 -1      2937 2.03192E+01 1.05159E+00 4.16863E-03-8.12967E-01-1.42107E-13-1.59883E-13
 -1      2938 2.02321E+01 8.16235E-01-5.30229E-03-5.64653E-01-1.14127E-13-1.49333E-13
 -1      2939 2.02686E+01 8.87757E-01-3.49721E-03-5.19123E-01-1.14307E-13-1.68581E-13
 -1      2940 2.02865E+01 1.39796E+00 2.46387E-03-8.96592E-01-1.31481E-13-2.02005E-13
 -1      2941 2.91080E+01 2.71019E+00-8.86882E-02 1.77189E+00-2.97151E-13-5.02084E-13
 -1      2942 2.90289E+01 4.34867E+00-1.97868E-01 1.68469E+00-2.94487E-13-3.20063E-13
 -1      2943 1.91341E+01-5.01566E+00 1.09689E-01-6.10935E+00 1.89154E-13-1.33013E-13
 -1      2944 2.20831E+01-5.29351E+00-6.80430E-02-5.28113E+00 1.11688E-13-3.55074E-13
 -1      2945 2.83432E+01-1.12404E+00-1.69260E-01-6.05509E-01-1.19071E-13 2.08625E-13
 -1      2946 2.75763E+01-2.81029E+00-4.97083E-03 6.64698E-01-3.73937E-14 3.12833E-13
 -1      2947 1.99344E+01 2.62132E+00-7.86376E-03 7.79008E-01 2.57608E-13-1.34829E-13
 -1      2948 1.98901E+01 2.71574E+00-6.33307E-03 6.31734E-01 2.20268E-13-1.70274E-13
 -1      2949 2.00071E+01 2.42416E+00 4.63082E-03 5.02303E-01 2.00563E-13-1.66590E-13
 -1      2950 2.00900E+01 2.21948E+00 5.74618E-03 7.26682E-01 2.30686E-13-1.04948E-13
 -1      2951 1.98845E+01 2.72464E+00-6.20950E-03-6.21919E-01 2.12565E-14-2.62147E-13
 -1      2952 1.99275E+01 2.63309E+00-7.54765E-03-7.69220E-01-1.56268E-14-2.61934E-13
 -1      2953 2.61617E+01-4.29466E+00-1.07035E-01 2.34940E+00-4.74967E-14 4.41619E-13
 -1      2954 2.38431E+01-4.81005E+00 8.12698E-02 3.79627E+00 1.27238E-13 2.58890E-13
 -1      2955 2.64630E+01-3.44136E+00 8.19457E-03 8.96847E-01 3.31540E-14 2.87499E-13
 -1      2956 2.97283E+01-3.44522E-01-5.78193E-02 2.04151E+00 5.86059E-14 3.13610E-13
 -1      2957 2.93654E+01 1.58485E+00-1.91904E-01 2.58874E+00 2.10540E-13 4.18554E-13
 -1      2958 2.85048E+01 3.09719E+00-1.69497E-01-1.86402E+00-4.69347E-13 2.13746E-13
 -1      2959 2.87731E+01 9.86291E-01-7.42879E-02-1.55466E+00-3.43600E-13 1.73764E-13
 -1      2960 2.76312E+01-5.15231E-01-5.04080E-02-1.34821E+00-1.15019E-13 1.65701E-13
 -1      2961 2.86169E+01-3.31135E+00 2.80499E-02-1.22088E-01-2.32897E-13 1.67227E-13
 -1      2962 2.93625E+01-2.03266E+00-1.93485E-01 1.04172E+00-3.32269E-14 2.89879E-13
 -1      2963 2.88053E+01-1.22865E+00-1.74986E-02 2.02399E+00-4.39926E-15 3.90216E-13
 -1      2964 2.34740E+01-5.23320E+00 1.01288E-01-4.00719E+00-5.00877E-13-1.11126E-13
 -1      2965 2.64351E+01-4.96242E+00-1.21193E-01-2.29071E+00-3.79946E-13 2.40502E-14
 -1      2966 1.74650E+01-4.42416E+00 1.31011E-01-5.81568E+00-3.84678E-13-3.36106E-13
 -1      2967 2.02640E+01-5.28267E+00-4.48745E-02-5.48224E+00-4.45366E-13-3.35273E-13
 -1      2968 7.08572E+00-4.99604E-01 1.35172E-01-1.02009E+00 1.33324E-13-4.50112E-13
 -1      2969 9.02263E+00-8.92144E-01 1.43944E-01-3.53210E+00 2.74780E-15-5.96939E-13
 -1      2970 9.38500E+00 1.76564E-01 1.46652E-01-4.85244E-01 1.57090E-13-3.43531E-13
 -1      2971 1.44041E+01-3.18285E+00 4.71094E-02 6.15178E+00 3.05742E-13-2.63678E-15
 -1      2972 1.14639E+01-1.85137E+00 1.21483E-01 5.15377E+00 3.09509E-13-4.71845E-14
 -1      2973 1.07394E+01-1.95406E+00 1.42359E-01-4.77066E+00-1.00531E-13-6.24084E-13
 -1      2974 1.38570E+01-3.38824E+00 4.50665E-02-5.91432E+00-2.63428E-13-5.48034E-13
 -1      2975 1.16951E+01-9.61396E-01 1.47029E-01-3.79859E+00-6.02192E-14-5.58054E-13
 -1      2976 2.83252E+01-1.78189E+00 1.31885E-02 6.13589E-02-1.40291E-13-4.93799E-13
 -1      2977 2.88472E+01 1.63900E-01-1.88624E-01 1.10619E+00-2.23738E-13-4.66960E-13
 -1      2978 1.25330E+01-3.19754E+00 1.36578E-01-6.22322E+00 4.10644E-13 7.52884E-13
 -1      2979 1.57265E+01-4.43409E+00 2.51380E-02-6.73883E+00 3.46251E-13 1.82868E-13
 -1      2980 1.82773E+01-4.31984E+00 1.17762E-01-5.91021E+00 3.80376E-13-1.00836E-13
 -1      2981 1.67966E+01-4.27343E+00-2.62809E-02 5.94585E+00-2.36949E-13 3.19425E-13
 -1      2982 1.34253E+01-2.98848E+00 1.55824E-01 5.62657E+00-2.08569E-13 2.61985E-13
 -1      2983 2.89087E+01 5.63150E+00-1.59008E-01 1.44045E+00-2.35090E-13-2.18686E-13
 -1      2984 2.85510E+01 6.46337E+00-1.82664E-01 8.35416E-01-3.08115E-13-5.72528E-14
 -1      2985 2.77102E+01 4.34287E+00-1.18645E-01 1.76749E+00-1.70058E-13-4.74183E-13
 -1      2986 2.00910E+01 2.53607E+00-2.33330E-03-1.44360E+00-1.53996E-13-2.71271E-13
 -1      2987 2.49322E+01-4.69710E+00 8.07311E-02-3.57680E+00 2.26208E-15-4.15085E-13
 -1      2988 2.68481E+01-3.86782E+00-1.55649E-01-1.99040E+00-3.83443E-14-3.79280E-13
 -1      2989 2.85120E+01 3.84996E+00-1.25423E-01 2.21325E+00 4.51084E-13 4.11809E-13
 -1      2990 2.67835E+01 2.69787E+00-7.45542E-02 2.17927E+00 3.70717E-13 6.44450E-13
 -1      2991 2.68894E+01 1.22977E+00-1.71189E-01 2.82315E+00 2.42251E-13 5.64385E-13
 -1      2992 2.91250E+01 2.43297E+00-1.76392E-01 2.66507E+00 2.84439E-13 4.36665E-13
 -1      2993 2.00825E+01 2.23285E+00 5.73349E-03-7.20311E-01-2.89619E-14-2.30057E-13
 -1      2994 1.99824E+01 2.51091E+00-5.71480E-03-8.84939E-01-3.91768E-14-2.57290E-13
 -1      2995 2.00440E+01 2.37872E+00-6.67448E-03-1.01872E+00-9.03089E-14-2.53638E-13
 -1      2996 1.99392E+01 2.58029E+00 3.67524E-03 4.33349E-03 1.29949E-13-2.17965E-13
 -1      2997 1.98026E+01 2.90443E+00-5.58272E-03-6.03162E-02 1.27110E-13-2.49650E-13
 -1      2998 1.98102E+01 2.88929E+00-5.58993E-03-2.11999E-01 1.09063E-13-2.70100E-13
 -1      2999 1.97406E+01-4.03408E+00 1.50021E-01 4.85711E+00-2.40211E-13 2.30930E-13
 -1      3000 2.79510E+01 9.83973E-01-8.54097E-02 1.73840E+00-1.52406E-13-5.48769E-13
 -1      3001 2.71222E+01-2.86382E+00-1.05862E-02-5.55266E-01 6.19817E-15-4.75564E-13
 -1      3002 1.01281E+01-2.19063E-01 1.31380E-01 2.54730E+00-6.94809E-14 2.70867E-13
 -1      3003 8.13428E+00-4.18905E-01 1.73085E-01 1.94666E+00-1.43288E-15 4.08673E-13
 -1      3004 8.39193E+00 9.83812E-02 7.01376E-02 4.72096E-01-6.61433E-14 5.33740E-13
 -1      3005 2.00457E+01 1.19279E-01-5.11000E-04-1.64561E-01 4.98367E-13-2.69424E-13
 -1      3006 1.32058E+01-1.97976E+00 1.51589E-01 4.85043E+00-1.81410E-13 1.80037E-13
 -1      3007 2.00298E+01 1.86478E-01-2.55434E-03-1.53819E-01 1.17855E-13-2.20444E-14
 -1      3008 2.74084E+01-1.78629E+00-1.35589E-02 1.96672E+00-1.58470E-13 4.76057E-13
 -1      3009 2.74717E+01-3.03793E+00-9.44636E-02 8.43316E-01-3.26343E-13 3.48988E-13
 -1      3010 2.73035E+01 6.05992E-01-6.90963E-02 2.79688E+00 1.99757E-13 5.16052E-13
 -1      3011 2.71551E+01-7.82780E-01-1.36530E-01 2.52293E+00-7.73825E-14 5.49262E-13
 -1      3012 1.06863E+01-8.25716E-01 1.55290E-01 4.04926E+00 2.37303E-13-8.12683E-14
 -1      3013 1.02501E+01 3.46211E-02 3.72595E-02 2.45132E+00 1.62599E-13-1.56347E-13
 -1      3014 1.29264E+01-1.07313E+00 8.43689E-02 4.28673E+00 2.58672E-13-3.40214E-14
 -1      3015 2.49676E+01-2.37144E+00 4.77502E-02 4.39951E-01-9.32605E-14-2.04732E-13
 -1      3016 2.55660E+01-2.55402E+00 1.92957E-02-2.71693E-01-5.85122E-15-1.14596E-13
 -1      3017 2.00207E+01 1.40634E-01 3.86303E-04 1.41392E-01-2.61836E-13-1.95948E-13
 -1      3018 2.00314E+01 1.45698E-01 1.10847E-03 1.61269E-01-2.85562E-13-2.52747E-13
 -1      3019 2.00021E+01 1.62496E-01-1.13540E-03 1.44473E-01-3.97700E-13-2.87556E-13
 -1      3020 8.58429E+00-5.61616E-01 1.67443E-01-2.65100E+00-5.60871E-14 9.78606E-13
 -1      3021 1.69690E+01-3.32433E+00 1.03114E-01 5.55782E+00 2.52243E-13 5.37903E-14
 -1      3022 1.65635E+01-3.28699E+00 1.17063E-01-5.31697E+00-2.70423E-13-3.55778E-13
 -1      3023 2.02959E+01 1.59782E+00-1.33738E-03 1.14872E+00 2.69236E-13 6.66689E-14
 -1      3024 2.00263E+01 1.37311E-01-2.32467E-04-1.61465E-01 4.54829E-13-1.05093E-13
 -1      3025 2.00063E+01 1.54394E-01-3.22397E-04-1.48753E-01 3.00185E-13 9.61959E-14
 -1      3026 1.99971E+01 1.78068E-01 6.30863E-04-1.68322E-01 2.20454E-13 2.59041E-13
 -1      3027 2.00340E+01 1.45666E-01 8.94508E-04-1.80399E-01 3.54444E-13-3.72798E-15
 -1      3028 2.79721E+01 3.92222E+00-1.57793E-01-1.89850E+00-4.24660E-13 1.28425E-13
 -1      3029 2.70444E+01 2.40688E+00-4.25844E-02-2.06226E+00-3.84720E-13 1.90507E-13
 -1      3030 2.68955E+01 4.71687E+00-1.44803E-01-1.65152E+00-3.95878E-13 2.84078E-14
 -1      3031 1.26472E+01-2.29343E+00 1.39954E-01-5.48797E+00 3.84970E-13 7.11167E-13
 -1      3032 2.55841E+01-3.82297E+00-9.76717E-02 8.38307E-01-1.19882E-13-2.11161E-13
 -1      3033 2.78153E+01 6.33978E+00-1.67950E-01 2.20551E-01-4.37261E-13-1.80626E-13
 -1      3034 2.66699E+01 5.88896E+00-1.53266E-01-4.40021E-01-5.01627E-13-2.72065E-13
 -1      3035 2.66649E+01 5.68363E+00-9.34185E-02 7.50640E-01-3.33983E-13-4.50664E-13
 -1      3036 1.98260E+01 2.85226E+00-5.82872E-03-3.43679E-01 8.44483E-14-2.41587E-13
 -1      3037 1.98507E+01 2.80250E+00-6.14827E-03-4.94628E-01 3.84330E-14-2.47029E-13
 -1      3038 2.00022E+01 2.43203E+00 4.56846E-03-4.93369E-01 2.30563E-14-2.35278E-13
 -1      3039 1.99542E+01 2.54478E+00 3.86420E-03-2.48250E-01 8.15276E-14-2.30607E-13
 -1      3040 1.99682E+01 2.06061E-01-1.12178E-03 1.34150E-01-1.45089E-13 5.01214E-14
 -1      3041 1.99862E+01 1.86398E-01 2.28684E-04 1.40798E-01-3.32793E-13-1.62810E-14
 -1      3042 1.99887E+01 1.95082E-01 8.99543E-04 1.61509E-01-1.83341E-13-1.77371E-13
 -1      3043 1.99504E+01 2.36517E-01 8.68968E-04 1.44989E-01 9.59316E-14 6.10914E-14
 -1      3044 2.28363E+01-4.60206E+00 5.44173E-02 3.95258E+00 1.28453E-13 1.70898E-13
 -1      3045 2.36924E+01-4.83464E+00 5.08522E-02-3.93804E+00 1.00642E-13-2.76820E-13
 -1      3046 2.72547E+01-4.02018E+00 1.21415E-02-6.86963E-01-4.34798E-13 2.08222E-13
 -1      3047 2.26565E+01-4.85189E+00 5.76855E-02-4.01069E+00-4.84696E-13-1.00695E-13
 -1      3048 2.02876E+01 1.38188E+00 2.25384E-03 8.98932E-01 2.50266E-13 3.57999E-14
 -1      3049 2.01530E+01 2.18835E+00 1.21195E-03-1.19080E+00-1.27956E-13-2.54447E-13
 -1      3050 2.39033E+01-2.74122E+00-6.23771E-02 1.33144E+00-1.65055E-13-1.45821E-13
 -1      3051 2.02499E+01 1.50530E+00-6.05232E-03 7.78898E-01 2.44479E-13-1.94920E-14
 -1      3052 2.02112E+01 1.69704E+00-5.43029E-04 7.22574E-01 2.35284E-13-5.47429E-14
 -1      3053 2.41303E+01-3.91492E+00 5.16291E-02 2.18620E+00-2.32737E-13-9.80587E-14
 -1      3054 2.02343E+01 4.74974E-01 3.75056E-03-6.10793E-02-8.42509E-14-9.73481E-14
 -1      3055 2.01993E+01 3.76668E-01-1.83191E-03 3.53300E-02-7.28182E-14-1.21740E-13
 -1      3056 2.01838E+01 3.02767E-01 2.79982E-03 1.10159E-01-6.34376E-14-1.14527E-13
 -1      3057 2.01592E+01 2.43434E-01-7.06019E-04 1.76468E-01-6.29312E-14-1.54515E-13
 -1      3058 2.02452E+01 4.10142E-01-8.11199E-04 5.26217E-02-7.11862E-14-1.34982E-13
 -1      3059 2.01402E+01 2.01050E-01 1.72662E-03 2.29721E-01-6.57820E-14-1.47427E-13
 -1      3060 2.01263E+01 1.69338E-01 1.12179E-04 2.76869E-01-7.68675E-14-1.41343E-13
 -1      3061 2.02029E+01 2.71149E-01-9.85199E-04 1.86292E-01-7.34047E-14-1.56853E-13
 -1      3062 2.01069E+01 1.48986E-01 8.38024E-04 3.16992E-01-7.22393E-14-1.41933E-13
 -1      3063 2.01022E+01 1.36726E-01 6.97922E-04 3.53556E-01-6.38660E-14-1.14199E-13
 -1      3064 2.01608E+01 1.95209E-01-9.21790E-04 2.84370E-01-7.09262E-14-1.40426E-13
 -1      3065 2.00837E+01 1.31776E-01 1.33609E-04 3.87360E-01-5.02056E-14-9.58698E-14
 -1      3066 2.00870E+01 1.33025E-01 1.12760E-03 4.19785E-01-3.29371E-14-9.23651E-14
 -1      3067 2.01222E+01 1.64003E-01-7.72609E-04 3.62036E-01-3.81287E-14-1.04250E-13
 -1      3068 2.00698E+01 1.38421E-01-3.93750E-04 4.52574E-01-4.58679E-16-5.70052E-14
 -1      3069 2.00800E+01 1.48339E-01 1.45179E-03 4.85460E-01 2.91987E-14-2.32628E-14
 -1      3070 2.00878E+01 1.63991E-01-6.18142E-04 4.31551E-01 1.14088E-14-8.52211E-14
 -1      3071 2.00645E+01 1.59668E-01-7.49913E-04 5.21130E-01 2.09033E-15-2.28369E-14
 -1      3072 2.00813E+01 1.73699E-01 1.70099E-03 5.57432E-01-4.00257E-14-1.05156E-15
 -1      3073 2.00578E+01 1.84075E-01-5.05798E-04 5.02322E-01 1.53852E-14-2.08990E-14
 -1      3074 2.00685E+01 1.86471E-01-9.25025E-04 5.98543E-01-7.40198E-14 3.13198E-14
 -1      3075 2.00923E+01 1.99668E-01 1.89274E-03 6.39620E-01-5.89956E-14 2.93526E-14
 -1      3076 2.00329E+01 2.13823E-01-4.80038E-04 5.81047E-01-1.17810E-14 2.28176E-14
 -1      3077 2.00839E+01 2.08689E-01-8.82653E-04 6.87393E-01-7.93448E-14 2.22128E-14
 -1      3078 2.01163E+01 2.15068E-01 2.03368E-03 7.32904E-01-4.63205E-14-1.10336E-14
 -1      3079 2.00151E+01 2.41989E-01-5.99884E-04 6.71820E-01-5.17892E-14 9.43477E-14
 -1      3080 2.01161E+01 2.13849E-01-5.49135E-04 7.87090E-01-2.64069E-14-3.07827E-14
 -1      3081 2.01601E+01 2.05807E-01 2.11730E-03 8.34709E-01-2.99300E-14-2.42139E-14
 -1      3082 2.00088E+01 2.55097E-01-9.56884E-04 7.76076E-01-4.65649E-14 2.33148E-15
 -1      3083 2.01742E+01 1.86087E-01 1.95375E-04 8.93241E-01-8.16213E-14-3.53521E-14
 -1      3084 2.02347E+01 1.54022E-01 2.11403E-03 9.38171E-01-1.09159E-13-6.06323E-14
 -1      3085 2.00227E+01 2.36158E-01-1.68043E-03 8.92236E-01-4.56823E-14 1.65011E-14
 -1      3086 2.02731E+01 1.05672E-01 1.52147E-03 9.96508E-01-1.01419E-13-3.41762E-14
 -1      3087 2.03577E+01 3.81534E-02 1.93363E-03 1.03079E+00-1.42847E-13 3.15522E-14
 -1      3088 2.00712E+01 1.63783E-01-2.94991E-03 1.01485E+00-9.17194E-14-2.49493E-14
 -1      3089 2.04357E+01-5.00757E-02 3.64095E-03 1.08071E+00-1.57963E-13 6.00780E-14
 -1      3090 2.05539E+01-1.64855E-01 1.37210E-03 1.09227E+00-8.98874E-14 9.68706E-14
 -1      3091 2.01772E+01 1.24339E-02-4.98485E-03 1.13295E+00-1.05637E-13 6.37438E-14
 -1      3092 2.06927E+01-3.02695E-01 6.77634E-03 1.11982E+00-7.97830E-14-1.42845E-14
 -1      3093 2.08553E+01-4.72843E-01 3.03456E-05 1.09141E+00-7.60885E-14-8.58374E-14
 -1      3094 2.03745E+01-2.44668E-01-7.95293E-03 1.22685E+00-1.51696E-13 5.72229E-14
 -1      3095 2.10808E+01-6.62459E-01 1.09117E-02 1.07384E+00 4.77392E-14-1.25233E-14
 -1      3096 2.12946E+01-8.83631E-01-2.77512E-03 9.82656E-01 5.22650E-14 9.94844E-14
 -1      3097 2.07075E+01-6.26814E-01-1.17810E-02 1.26278E+00 8.22384E-15 5.91079E-14
 -1      3098 2.16314E+01-1.10767E+00 1.54889E-02 8.84503E-01 2.11042E-14 1.71270E-13
 -1      3099 2.18898E+01-1.34519E+00-7.16542E-03 7.04572E-01 6.44400E-14 1.74945E-13
 -1      3100 2.12267E+01-1.12728E+00-1.59071E-02 1.18508E+00 1.16320E-13 7.62472E-14
 -1      3101 2.23423E+01-1.54780E+00 1.84447E-02 4.81699E-01 4.64642E-14 1.43787E-13
 -1      3102 2.26166E+01-1.71855E+00-1.23894E-02 1.96804E-01 1.07276E-13 1.39044E-13
 -1      3103 2.19684E+01-1.67153E+00-1.73908E-02 9.10763E-01 5.17600E-14 7.12637E-14
 -1      3104 2.31259E+01-1.77931E+00 1.31575E-02-1.86368E-01 1.70401E-13 1.47061E-13
 -1      3105 2.33482E+01-1.73802E+00-1.87594E-02-5.46314E-01 9.76539E-14 1.10156E-13
 -1      3106 2.29008E+01-2.06154E+00-1.51115E-02 3.34358E-01 1.35675E-13 2.46289E-13
 -1      3107 2.38101E+01-1.48966E+00 1.76734E-03-1.06675E+00-4.96893E-14 2.55407E-13
 -1      3108 2.39152E+01-1.03661E+00-7.85873E-04-1.39575E+00-1.36559E-13 2.42123E-13
 -1      3109 2.38581E+01-2.00238E+00-2.94380E-02-5.49803E-01 7.41534E-14 1.48269E-13
 -1      3110 2.40639E+01-3.82575E-01-3.78872E-02-1.82662E+00-1.93241E-13 2.71494E-13
 -1      3111 2.39644E+01 4.36082E-01 2.52558E-03-1.88895E+00-1.74444E-13 2.49313E-13
 -1      3112 2.45534E+01-9.87962E-01-6.25177E-03-1.51274E+00-1.34457E-13 3.18237E-13
 -1      3113 2.45900E+01 1.85481E+00-6.65577E-02-1.99975E+00-1.25452E-13 1.94842E-13
 -1      3114 2.43752E+01 2.87296E+00-4.87497E-02-1.65553E+00-1.29480E-13 1.57113E-13
 -1      3115 2.41042E+01 3.84157E+00-6.44742E-02-6.53792E-01-1.35406E-13 4.81819E-14
 -1      3116 2.40772E+01 3.99849E+00-7.13330E-02 1.10942E-01-1.44034E-13-6.85554E-14
 -1      3117 2.38058E+01 1.95913E+00 1.06391E-03 1.76165E+00-1.16317E-13-1.90264E-13
 -1      3118 2.39283E+01 9.95157E-01-5.99911E-02 1.98401E+00-9.49432E-14-1.45029E-13
 -1      3119 2.40333E+01 7.72970E-02 3.14664E-03 1.86937E+00-6.13468E-14-7.72133E-14
 -1      3120 2.40598E+01-7.14460E-01-2.37096E-02 1.69291E+00 7.91155E-14-9.07896E-14
 -1      3121 2.47119E+01 5.15410E-01-9.99104E-03 2.00299E+00-3.33032E-14-3.27613E-13
 -1      3122 2.37976E+01-1.27627E+00-1.15930E-02 1.21201E+00 2.76892E-14-1.70468E-13
 -1      3123 2.36692E+01-1.61706E+00 2.89643E-03 8.61199E-01-2.86412E-14-1.68976E-13
 -1      3124 2.44413E+01-1.29489E+00-1.33461E-02 1.30909E+00-3.48246E-14-2.90679E-13
 -1      3125 2.31913E+01-1.77068E+00-1.56276E-02 3.62730E-01-6.78294E-14-1.68845E-13
 -1      3126 2.29465E+01-1.74966E+00 1.51840E-02 1.90997E-02-1.09409E-13-1.73736E-13
 -1      3127 2.36512E+01-2.07307E+00-1.81881E-02 3.00199E-01-1.00111E-14-3.37834E-13
 -1      3128 2.24414E+01-1.63702E+00-1.07037E-02-3.29475E-01-1.23859E-13-2.20461E-13
 -1      3129 2.21619E+01-1.43747E+00 1.72173E-02-5.82873E-01-8.94400E-14-2.07374E-13
 -1      3130 2.26664E+01-2.00157E+00-1.87271E-02-5.10945E-01-1.51944E-13-5.26922E-13
 -1      3131 2.17416E+01-1.22072E+00-4.99166E-03-7.70845E-01-3.34481E-14-1.74334E-13
 -1      3132 2.14866E+01-9.79781E-01 1.36157E-02-9.24121E-01 3.74798E-15-9.17024E-14
 -1      3133 2.17722E+01-1.52888E+00-1.56184E-02-9.89521E-01 1.33335E-14-4.15189E-13
 -1      3134 2.11825E+01-7.57597E-01-1.16451E-03-9.94094E-01-1.08531E-13-8.20200E-14
 -1      3135 2.09774E+01-5.45697E-01 9.00139E-03-1.06573E+00-1.21525E-13-1.44939E-13
 -1      3136 2.10864E+01-9.71462E-01-1.09533E-02-1.19843E+00-7.70736E-14-3.61579E-13
 -1      3137 2.07777E+01-3.63700E-01 8.26716E-04-1.06293E+00-1.12099E-13-1.07145E-13
 -1      3138 2.06247E+01-2.05206E-01 5.21941E-03-1.07707E+00-1.39313E-13-1.63132E-13
 -1      3139 2.06146E+01-4.88437E-01-6.87178E-03-1.23160E+00-1.21180E-13-3.33115E-13
 -1      3140 2.05036E+01-7.53945E-02 1.64075E-03-1.03449E+00-2.08384E-13-5.55237E-14
 -1      3141 2.03940E+01 2.96148E-02 2.57043E-03-1.01200E+00-9.23983E-14-2.00128E-13
 -1      3142 2.03159E+01-1.30383E-01-3.83309E-03-1.16565E+00-1.94496E-13-1.46711E-13
 -1      3143 2.03264E+01 1.11741E-01 1.86703E-03-9.50294E-01 1.02939E-13-2.55021E-13
 -1      3144 2.02491E+01 1.72772E-01 8.64015E-04-9.06866E-01 1.10445E-13-8.98684E-14
 -1      3145 2.01404E+01 1.05755E-01-1.81633E-03-1.05014E+00-4.09769E-14-8.74578E-14
 -1      3146 2.02154E+01 2.17515E-01 1.84467E-03-8.38397E-01 7.53568E-14-1.02497E-13
 -1      3147 2.01607E+01 2.46239E-01-1.46057E-04-7.85066E-01-1.42976E-14-1.52998E-13
 -1      3148 2.00459E+01 2.42843E-01-5.89640E-04-9.14532E-01 1.19058E-13-2.63697E-13
 -1      3149 2.01471E+01 2.64493E-01 1.72507E-03-7.17116E-01 2.47530E-15 5.17397E-14
 -1      3150 2.01077E+01 2.71533E-01-6.82659E-04-6.61258E-01 5.22699E-14 6.47841E-14
 -1      3151 2.00009E+01 3.07458E-01 9.22534E-05-7.75967E-01 1.42697E-13-8.40443E-14
 -1      3152 2.01050E+01 2.72646E-01 1.56595E-03-5.97940E-01-1.07960E-13 6.77332E-14
 -1      3153 2.00760E+01 2.66485E-01-9.12259E-04-5.44181E-01-1.61352E-13 3.53835E-14
 -1      3154 1.99843E+01 3.23407E-01 4.18958E-04-6.44255E-01-2.13356E-14 1.60917E-13
 -1      3155 2.00786E+01 2.57662E-01 1.39036E-03-4.87592E-01-1.10730E-13 1.09810E-13
 -1      3156 2.00566E+01 2.44533E-01-9.59494E-04-4.38550E-01-8.21254E-14 8.82419E-14
 -1      3157 1.99826E+01 3.09624E-01 5.42193E-04-5.24671E-01-7.42439E-14 1.17703E-13
 -1      3158 2.00612E+01 2.30906E-01 1.18612E-03-3.89491E-01-1.93308E-13 9.85331E-14
 -1      3159 2.00440E+01 2.15158E-01-9.30135E-04-3.46419E-01-1.22795E-13-5.67986E-14
 -1      3160 1.99874E+01 2.79891E-01 4.96481E-04-4.19528E-01-1.73199E-13 7.15943E-14
 -1      3161 2.00487E+01 2.00364E-01 9.91316E-04-3.04859E-01-3.33292E-14-4.54964E-14
 -1      3162 2.00355E+01 1.84941E-01-6.46754E-04-2.67901E-01 9.85090E-14-6.04077E-15
 -1      3163 1.99943E+01 2.44462E-01 5.35978E-04-3.29656E-01-3.68815E-14 2.71179E-13
 -1      3164 2.00416E+01 1.70850E-01 8.85625E-04-2.37506E-01 1.61891E-13 5.97232E-15
 -1      3165 2.00307E+01 1.57437E-01-4.12933E-04-2.05730E-01 2.92441E-13 1.25726E-13
 -1      3166 2.00098E+01 1.74770E-01-5.59741E-04-2.02269E-01 2.06394E-13 3.79903E-13
 -1      3167 2.00030E+01 2.07588E-01 1.24993E-04-2.57979E-01 2.06610E-13 4.19989E-13
 -1      3168 2.83465E+01 1.08678E+00-4.15896E-02 2.74555E+00 1.77608E-13 4.75349E-13
 -1      3169 2.60727E+01-4.04349E+00 1.76690E-03-9.35502E-01-4.46868E-13 2.29797E-13
 -1      3170 2.00636E+01 1.33104E-01 1.44110E-03-4.23765E-01 6.85620E-14-2.28719E-14
 -1      3171 2.00514E+01 1.26959E-01 6.28492E-05-3.89021E-01 4.65712E-14-2.11583E-14
 -1      3172 2.00977E+01 2.75542E-01 2.52617E-03-6.87494E-01 3.07603E-14 1.44774E-13
 -1      3173 2.00667E+01 2.40254E-01-1.89061E-03-6.31534E-01 6.21941E-14 3.70187E-14
 -1      3174 2.01115E+01 3.51444E-01 2.84803E-03-8.18184E-01 7.89408E-15 2.44365E-13
 -1      3175 2.00765E+01 3.10834E-01-2.45478E-03-7.48729E-01 1.45162E-14 2.08920E-13
 -1      3176 1.99971E+01 3.48565E-01 6.71459E-04-7.23183E-01-3.03860E-14 8.04806E-14
 -1      3177 2.01214E+01 4.31947E-01 3.18344E-03-9.78202E-01-1.16881E-14 2.71724E-13
 -1      3178 2.00830E+01 3.89873E-01-2.99438E-03-8.93818E-01 3.98625E-14 2.70837E-13
 -1      3179 1.99569E+01 4.38915E-01 1.18884E-03-8.59427E-01-2.85541E-14 1.99006E-13
 -1      3180 2.01262E+01 5.05127E-01 3.59151E-03-1.16925E+00 3.73701E-14 3.20014E-13
 -1      3181 2.00836E+01 4.68439E-01-3.46060E-03-1.06998E+00-3.68913E-16 3.12299E-13
 -1      3182 1.99010E+01 5.32112E-01 1.69931E-03-1.02495E+00-2.26588E-14 2.11667E-13
 -1      3183 2.01290E+01 5.49803E-01 4.20838E-03-1.39039E+00-7.52611E-14 3.95463E-13
 -1      3184 2.00788E+01 5.30611E-01-3.72681E-03-1.27835E+00-2.70146E-15 3.89391E-13
 -1      3185 1.98261E+01 6.12759E-01 2.03571E-03-1.22269E+00-3.25477E-14 3.21944E-13
 -1      3186 2.01434E+01 5.29714E-01 5.28661E-03-1.63723E+00-6.75119E-14 3.02989E-13
 -1      3187 2.00761E+01 5.48551E-01-3.50617E-03-1.51755E+00-5.92437E-14 3.58268E-13
 -1      3188 1.97341E+01 6.54192E-01 1.83107E-03-1.45520E+00-6.15782E-14 3.33896E-13
 -1      3189 2.02039E+01 3.86433E-01 7.16608E-03-1.90031E+00-6.82673E-14 2.47750E-13
 -1      3190 2.00985E+01 4.75955E-01-2.22640E-03-1.78280E+00-5.51555E-14 3.18768E-13
 -1      3191 1.96385E+01 6.11840E-01 3.89763E-04-1.72575E+00-5.86789E-14 2.12259E-13
 -1      3192 2.03830E+01 3.43962E-02 1.02650E-02-2.16029E+00-1.12592E-13 1.52198E-13
 -1      3193 2.01989E+01 2.41473E-01 1.32399E-03-2.06298E+00-8.02440E-14 2.41881E-13
 -1      3194 1.95772E+01 4.14945E-01-3.50197E-03-2.03870E+00-4.38761E-14 1.83156E-13
 -1      3195 2.08086E+01-6.36445E-01 1.24161E-02-2.37584E+00-9.46461E-14 1.13749E-13
 -1      3196 2.04827E+01-2.52297E-01 9.77006E-03-2.33209E+00-1.17535E-13 1.40281E-13
 -1      3197 1.96327E+01-3.92195E-02-1.15906E-02-2.39601E+00-5.20407E-14 1.45295E-13
 -1      3198 2.16810E+01-1.69012E+00 1.46017E-02-2.44469E+00-1.43087E-13 1.49682E-13
 -1      3199 2.11372E+01-1.09958E+00 2.94460E-02-2.51323E+00-9.36569E-14 1.36758E-13
 -1      3200 1.99674E+01-8.91309E-01-2.86621E-02-2.77427E+00-8.72687E-14 1.10470E-13
 -1      3201 2.32199E+01-3.06572E+00 9.35006E-03-2.14985E+00-2.94556E-13 1.72759E-13
 -1      3202 2.24297E+01-2.32601E+00 6.27075E-02-2.44374E+00-2.51936E-13 1.37737E-13
 -1      3203 2.08609E+01-2.21862E+00-5.93563E-02-3.05245E+00-2.16402E-13 1.09442E-13
 -1      3204 2.49503E+01-3.96520E+00 3.13748E-02-1.70575E+00-3.73314E-13 2.04651E-13
 -1      3205 2.77443E+01 4.91036E+00-2.35382E-01-4.06123E-01 7.39686E-13 2.69323E-13
 -1      3206 2.79255E+01-1.77891E+00-1.49397E-02-1.83386E+00 2.15307E-13-2.96853E-13
 -1      3207 2.13137E+01-1.30220E+00 2.95949E-02 2.52377E+00-2.54887E-13-1.15745E-14
 -1      3208 2.19806E+01-1.88214E+00 3.95577E-02 2.38883E+00-1.49298E-13 1.04933E-13
 -1      3209 2.01194E+01 4.73210E-01-1.63798E-03 1.79270E+00 1.72811E-13-2.45108E-14
 -1      3210 2.02325E+01 3.64907E-01 7.80396E-03 1.91309E+00 2.94791E-13 5.76831E-14
 -1      3211 2.00911E+01 5.73872E-01-3.19987E-03 1.51231E+00-1.15773E-13 1.35791E-13
 -1      3212 2.01600E+01 5.42456E-01 5.38071E-03 1.63863E+00-5.09138E-14 1.68791E-14
 -1      3213 1.96274E+01 6.21298E-01-5.48350E-05 1.73507E+00 7.49005E-14 1.57129E-13
 -1      3214 2.00948E+01 5.73651E-01-3.51966E-03 1.25410E+00-1.66901E-13 3.36395E-13
 -1      3215 2.01435E+01 5.84870E-01 4.17552E-03 1.37521E+00-1.91510E-13 2.31693E-13
 -1      3216 1.97204E+01 6.91608E-01 1.74119E-03 1.44511E+00-2.35288E-13 5.01059E-14
 -1      3217 2.01031E+01 5.23006E-01-3.29064E-03 1.02398E+00-8.92775E-14 3.70071E-13
 -1      3218 2.01427E+01 5.54430E-01 3.46871E-03 1.13411E+00-8.76601E-14 4.22758E-13
 -1      3219 1.98138E+01 6.67867E-01 2.11326E-03 1.19173E+00-2.09863E-13 2.06162E-13
 -1      3220 2.01063E+01 4.52036E-01-2.85022E-03 8.23874E-01-2.82579E-14 2.32842E-13
 -1      3221 2.01411E+01 4.90618E-01 3.01113E-03 9.20369E-01-5.16725E-15 2.76245E-13
 -1      3222 1.98902E+01 5.98976E-01 1.88446E-03 9.71471E-01-8.26360E-14 1.77433E-13
 -1      3223 2.01026E+01 3.77592E-01-2.35439E-03 6.53554E-01 1.22271E-13 1.73617E-13
 -1      3224 2.01339E+01 4.16180E-01 2.64236E-03 7.35772E-01 6.84223E-14 2.08228E-13
 -1      3225 1.99462E+01 5.13436E-01 1.45394E-03 7.82022E-01 3.83829E-14 8.52728E-14
 -1      3226 2.00935E+01 3.08345E-01-1.88218E-03 5.11194E-01 1.85537E-13-2.62522E-14
 -1      3227 2.01213E+01 3.43375E-01 2.30251E-03 5.79765E-01 2.18012E-13 7.67855E-14
 -1      3228 1.99837E+01 4.27164E-01 1.02091E-03 6.21300E-01 2.32272E-13-7.97801E-14
 -1      3229 2.00810E+01 2.48147E-01-1.48673E-03 3.93996E-01 8.40106E-14 2.29730E-15
 -1      3230 2.01053E+01 2.78145E-01 1.96631E-03 4.50248E-01 1.73477E-13 5.51514E-15
 -1      3231 2.00066E+01 3.48317E-01 6.75718E-04 4.86863E-01 1.66991E-13 1.05224E-13
 -1      3232 2.00669E+01 1.98927E-01-1.09990E-03 2.98820E-01 1.91765E-13-8.26784E-14
 -1      3233 2.00878E+01 2.23056E-01 1.62763E-03 3.44458E-01 8.12607E-14-3.38323E-14
 -1      3234 2.00191E+01 2.80551E-01 4.51688E-04 3.76078E-01 1.45604E-13 6.00323E-15
 -1      3235 2.00533E+01 1.61164E-01-2.73296E-04 2.22226E-01 7.49668E-14-8.08513E-14
 -1      3236 2.00700E+01 1.78819E-01 1.30980E-03 2.58442E-01 1.88728E-13-4.33214E-14
 -1      3237 2.00235E+01 2.25217E-01 1.70195E-04 2.85776E-01 2.42208E-13-1.32928E-13
 -1      3238 2.00349E+01 1.50338E-01 3.15568E-04 1.79243E-01-1.94111E-13-2.23800E-13
 -1      3239 2.00492E+01 1.56134E-01 1.08781E-03 2.01468E-01-4.17003E-14-1.97677E-13
 -1      3240 2.00177E+01 1.92818E-01-2.92433E-04 2.23933E-01 3.46806E-14-2.93446E-13
 -1      3241 2.00083E+01 1.76138E-01-1.16637E-03 1.83259E-01-2.50364E-13-3.75879E-13
 -1      3242 2.36861E+01-4.50796E+00-1.11216E-01 2.89536E+00 4.21538E-14 3.09775E-13
 -1      3243 2.15939E+01-4.17505E+00 9.99478E-02 4.20428E+00 1.56826E-13 9.64047E-14
 -1      3244 1.98555E+01 3.20290E-01-3.59961E-04-2.49711E-02 3.47862E-13 9.24410E-14
 -1      3245 1.98536E+01 3.22124E-01-6.39518E-04 7.11390E-03 2.73026E-13 8.03715E-14
 -1      3246 9.03861E+00 2.65706E-01 1.71255E-01-1.32943E+00-1.12604E-13 7.69163E-13
 -1      3247 1.02966E+01-3.23570E-01 6.93677E-02-3.19898E+00 3.49859E-14 8.91009E-13
 -1      3248 1.99580E+01 2.21048E-01 2.79545E-04-1.75839E-01-1.98996E-14 3.20599E-13
 -1      3249 1.99332E+01 2.42126E-01-1.12377E-03-1.63455E-01-3.09329E-14 2.09774E-13
 -1      3250 2.67002E+01 3.45101E+00-6.96951E-02 2.05911E+00-1.82770E-13-5.66332E-13
 -1      3251 2.63970E+01 4.35540E+00-1.75009E-01 1.64058E+00-1.65673E-13-5.33532E-13
 -1      3252 1.18884E+01-2.62856E-01 6.52319E-02-3.07078E+00 1.59317E-14-5.18224E-13
 -1      3253 1.34736E+01-1.27347E+00 4.92841E-02-4.35382E+00-5.35336E-14-5.21819E-13
 -1      3254 1.02168E+01 6.21996E-01 1.26729E-01 6.24888E-01 1.28833E-13-2.73601E-13
 -1      3255 1.06727E+01 5.02198E-01 6.78208E-02-1.27852E+00 1.09856E-13-4.24299E-13
 -1      3256 1.89606E+01-3.78611E+00-2.56060E-02 5.14542E+00 2.01270E-13 4.24660E-15
 -1      3257 1.62041E+01-2.51813E+00 6.30117E-02 5.13709E+00 2.47739E-13 2.77001E-14
 -1      3258 2.06396E+01-3.53843E+00 6.06337E-02 4.09288E+00 1.78423E-13 1.10066E-13
 -1      3259 1.99101E+01 2.68125E-01 4.44269E-04-1.42305E-01 6.83483E-14-1.13018E-13
 -1      3260 1.98897E+01 2.83725E-01-1.18070E-03-1.19993E-01 1.98960E-13-6.53838E-14
 -1      3261 1.99059E+01 2.75915E-01 6.52505E-04-1.72438E-01-5.57744E-14 4.93229E-14
 -1      3262 2.02387E+01 1.96297E-01 2.44243E-03 2.08304E+00 2.23473E-13-3.00541E-16
 -1      3263 2.04430E+01-3.63462E-02 1.26134E-02 2.17720E+00 5.48933E-14-9.25484E-14
 -1      3264 1.95785E+01 3.84167E-01-3.72360E-03 2.06595E+00 1.89545E-13-3.80900E-14
 -1      3265 2.05653E+01-3.59699E-01 1.14113E-02 2.35580E+00-1.50830E-13-1.91154E-14
 -1      3266 2.09358E+01-7.72215E-01 1.88682E-02 2.38256E+00-3.27359E-13-6.60010E-14
 -1      3267 2.00819E+01-1.04737E+00-1.78927E-02 2.85189E+00-1.62679E-13 2.17484E-13
 -1      3268 1.96666E+01-1.26471E-01-9.96316E-03 2.44261E+00-7.46698E-14-1.34349E-13
 -1      3269 2.23716E+01-2.56391E+00 4.68299E-02 2.56349E+00-2.40585E-13 5.41750E-14
 -1      3270 2.33743E+01-3.16649E+00 5.56403E-02 2.20463E+00-1.87905E-13-7.58161E-15
 -1      3271 2.18896E+01-4.17549E+00-7.07079E-02 3.77945E+00-2.95076E-13 1.39104E-13
 -1      3272 2.07916E+01-2.46248E+00-4.73844E-02 3.31635E+00-1.73840E-13 2.01221E-13
 -1      3273 1.23560E+01-1.40919E+00 9.71928E-02-4.78775E+00 3.57853E-13 6.29247E-13
 -1      3274 1.46195E+01-2.67037E+00 2.89071E-02-5.67201E+00 5.22402E-13 4.81656E-13
 -1      3275 2.00653E+01 1.28069E-01 9.70104E-04-3.53360E-01 1.42674E-14-1.91924E-14
 -1      3276 2.00627E+01 1.36757E-01 9.43613E-04-3.15662E-01 2.86064E-14-2.65037E-14
 -1      3277 2.00961E+01 1.58727E-01-9.00730E-04-3.68363E-01 4.01849E-14-1.61697E-14
 -1      3278 2.00829E+01 2.11023E-01 2.19418E-03-5.82292E-01 1.16646E-13-7.59881E-15
 -1      3279 2.00569E+01 1.83444E-01-1.30361E-03-5.37275E-01 9.86216E-14-9.53439E-15
 -1      3280 2.00264E+01 2.69996E-01 2.06153E-04-6.12219E-01 3.30406E-14-6.06489E-15
 -1      3281 2.00705E+01 1.62275E-01 1.83832E-03-4.96888E-01 8.17433E-14-3.40034E-14
 -1      3282 2.00506E+01 1.44328E-01-6.67308E-04-4.59284E-01 8.33406E-14-5.84233E-14
 -1      3283 2.00718E+01 1.70082E-01-5.64995E-04-4.42870E-01 8.79526E-14-4.33828E-14
 -1      3284 2.00498E+01 2.08932E-01-2.00847E-04-5.21139E-01 7.16198E-14-7.87830E-14
 -1      3285 1.52085E+01-2.12233E+00-2.29792E-02 4.84421E+00-1.52815E-13 2.07584E-13
 -1      3286 1.27457E+01-8.85062E-01 1.03668E-01 3.91782E+00-9.73804E-14 1.19155E-13
 -1      3287 2.02896E+01 7.49106E-01 6.73814E-03-3.06039E-01-1.05315E-13-1.32159E-13
 -1      3288 2.02413E+01 5.95182E-01-3.14765E-03-1.65056E-01-8.64109E-14-1.21062E-13
 -1      3289 2.02811E+01 6.36059E-01-3.61930E-04-1.33445E-01-8.23407E-14-1.17097E-13
 -1      3290 1.89636E+01-3.10599E+00 9.92845E-02 4.51802E+00-2.46372E-13 2.07168E-13
 -1      3291 2.00786E+01 1.53722E-01 3.71073E-04-2.73574E-01 5.46720E-14-3.11744E-14
 -1      3292 2.00881E+01 1.81806E-01 1.99356E-03-2.25397E-01 9.16781E-14-3.28984E-14
 -1      3293 2.01259E+01 1.82113E-01-1.20630E-03-2.86172E-01 5.03243E-14-6.65639E-14
 -1      3294 2.01060E+01 2.20447E-01-4.00871E-04-1.69178E-01 1.19852E-13-1.87501E-14
 -1      3295 2.01290E+01 2.75127E-01 2.76104E-03-1.00529E-01 1.13274E-13-2.26595E-14
 -1      3296 2.01631E+01 2.50987E-01-1.42398E-03-1.81969E-01 9.65601E-14-6.86708E-14
 -1      3297 2.62031E+01-2.91153E+00-1.34007E-01-3.26741E-02 1.02810E-13 1.69902E-13
 -1      3298 2.55628E+01-3.66416E+00 8.31648E-02 1.22663E+00 8.22432E-15 2.85775E-13
 -1      3299 2.24746E+01-4.63956E+00 9.23910E-02-4.20530E+00 1.75603E-13-2.85893E-13
 -1      3300 2.43496E+01-4.66589E+00-1.10618E-01-2.90689E+00 1.01953E-13-3.47656E-13
 -1      3301 2.65949E+01 5.60985E-02-1.61948E-01-1.88970E+00-2.22947E-13 3.29022E-13
 -1      3302 2.66785E+01-1.23915E+00 2.05404E-02-1.25445E+00 4.36456E-14 2.33473E-13
 -1      3303 2.09414E+01-3.56519E+00 1.09931E-01-4.03386E+00-3.28274E-13-6.15757E-14
 -1      3304 2.30834E+01-4.03072E+00-4.32907E-02-2.94651E+00-3.72563E-13 1.26309E-13
 -1      3305 2.03004E+01 1.00743E+00-7.79600E-04 6.64145E-01 2.20623E-13 4.41143E-14
 -1      3306 2.02770E+01 1.32857E+00 2.90293E-03 7.45626E-01 2.34997E-13 8.67112E-15
 -1      3307 2.02810E+01 1.15617E+00 1.79431E-04 5.62233E-01 2.26486E-13-8.00439E-15
 -1      3308 2.02447E+01 7.99282E-01-3.35667E-03 4.53223E-01 1.88033E-13 2.77364E-14
 -1      3309 2.61975E+01-3.65415E+00 6.28647E-02-1.15751E+00 1.40053E-14-4.85646E-13
 -1      3310 2.67839E+01-2.27277E+00-1.09929E-01 4.41742E-01-3.23457E-14-4.67806E-13
 -1      3311 1.57539E+01-1.96180E+00 1.05525E-01-4.67810E+00-1.46938E-13-2.92905E-13
 -1      3312 1.85500E+01-3.27746E+00-3.60684E-03-4.76482E+00-2.22926E-13-1.82625E-13
 -1      3313 1.99216E+01-2.53554E+00 4.54391E-02-3.77512E+00-1.72015E-13-3.55670E-14
 -1      3314 1.57932E+01-1.28728E+00 5.55828E-02-4.04006E+00-9.87821E-14-2.94050E-13
 -1      3315 2.01984E+01 1.91434E+00 1.38599E-03-9.77740E-01-1.09059E-13-2.43136E-13
 -1      3316 1.74527E+01-3.51919E+00 1.11232E-01-5.62334E+00 5.21513E-13 4.70041E-14
 -1      3317 2.00623E+01-4.48134E+00-3.09769E-02-5.23925E+00 3.29320E-13-1.80068E-13
 -1      3318 2.69483E+01-3.04001E-02-4.42810E-02 1.70318E+00-2.31620E-14-6.46518E-13
 -1      3319 2.68589E+01 1.79527E+00-1.46039E-01 2.11431E+00-1.53384E-13-6.22453E-13
 -1      3320 2.00484E+01 2.20754E+00-4.28536E-03 2.80985E-01 1.64082E-13-2.01551E-13
 -1      3321 2.00338E+01 2.24795E+00-3.48797E-03 1.63334E-01 1.38898E-13-2.10188E-13
 -1      3322 1.98741E+01 3.02256E-01 9.02722E-05-8.96730E-02 2.99671E-13-1.02827E-13
 -1      3323 1.98622E+01 3.11311E-01-9.67062E-04-6.11324E-02 3.18780E-13 1.26797E-14
 -1      3324 1.98323E+01 3.43784E-01 1.11933E-03-4.94071E-02 3.41585E-13 1.42094E-14
 -1      3325 1.98597E+01 3.17762E-01 9.33478E-04-1.18803E-01 2.70651E-13-2.19037E-13
 -1      3326 2.00262E+01 2.26779E+00-3.76804E-03 6.35865E-02 1.27975E-13-2.02071E-13
 -1      3327 2.00258E+01 2.26867E+00-3.71526E-03-5.61423E-02 1.07328E-13-2.18688E-13
 -1      3328 2.01371E+01 1.98082E+00 5.28767E-03 9.57999E-02 1.19596E-13-2.06897E-13
 -1      3329 1.99908E+01 1.90966E-01-2.56419E-04-1.95527E-01 1.64643E-13 3.66026E-13
 -1      3330 1.99728E+01 2.05821E-01-6.62156E-04-1.86257E-01 9.46758E-14 3.37253E-13
 -1      3331 1.99518E+01 2.36417E-01 5.79595E-04-2.04094E-01 5.37872E-14 3.58793E-13
 -1      3332 1.99876E+01 2.07392E-01 3.77686E-04-2.21828E-01 1.45812E-13 4.95686E-13
 -1      3333 1.20198E+01-5.61796E-01 1.23156E-01-3.82395E+00 1.98681E-13 5.78981E-13
 -1      3334 1.36515E+01-9.76432E-01-1.11985E-02-4.13235E+00 3.16386E-13 3.49457E-13
 -1      3335 1.19373E+01 1.84502E-01 4.71683E-02-2.68159E+00 6.98816E-14 5.70759E-13
 -1      3336 1.82407E+01-2.05773E+00 9.56006E-02 4.03814E+00-2.20612E-13 1.00395E-13
 -1      3337 1.70318E+01-2.74477E+00 1.03996E-01-5.09721E+00 5.10869E-13 1.52600E-13
 -1      3338 1.21194E+01-2.75005E-01 1.02025E-01 3.24650E+00-7.62862E-14 7.46764E-14
 -1      3339 1.16153E+01 2.96947E-01 2.85340E-02 2.10418E+00-6.72344E-14 2.21476E-13
 -1      3340 1.42031E+01-2.75855E-01 6.24278E-02 3.25839E+00-4.27648E-14 2.00159E-13
 -1      3341 1.48170E+01-1.55306E+00 8.46014E-02 4.75996E+00 2.38524E-13-3.21063E-14
 -1      3342 1.37741E+01-6.66178E-01 3.75957E-02 3.81707E+00 2.16105E-13-3.77476E-14
 -1      3343 1.68822E+01-1.94922E+00 6.12222E-02 4.42174E+00 2.05924E-13 2.91503E-14
 -1      3344 2.54444E+01 1.33592E+00-6.23403E-02-2.10847E+00-1.53634E-13 2.37216E-13
 -1      3345 2.34201E+01 3.26322E+00-1.58180E-02 5.83047E-01-9.40532E-14-1.32082E-14
 -1      3346 2.35380E+01 2.78345E+00-6.21659E-02 1.25629E+00-1.13791E-13-1.20358E-13
 -1      3347 2.58393E+01-1.95967E+00-1.29064E-02-8.13996E-01 1.61824E-14 2.08954E-13
 -1      3348 2.01827E+01 4.93853E-01-2.19399E-03 1.55991E-01 1.53682E-13-7.09727E-15
 -1      3349 2.02343E+01 6.28703E-01 2.63545E-03 3.02148E-01 1.66824E-13 4.03113E-15
 -1      3350 2.02679E+01 7.90090E-01 1.42129E-03 3.64631E-01 1.86066E-13-3.67545E-16
 -1      3351 1.01760E+01 4.60792E-01 1.20406E-01-3.32534E-01-9.91030E-14 6.06265E-13
 -1      3352 1.15437E+01 4.62498E-01 7.46140E-02 1.53245E+00 1.04705E-13-2.12087E-13
 -1      3353 2.01236E+01 1.97790E+00-3.38931E-03-5.62546E-01-1.43791E-14-2.07256E-13
 -1      3354 2.01580E+01 1.84709E+00-8.16012E-03-6.56007E-01-4.84925E-14-1.96936E-13
 -1      3355 2.49598E+01-3.88118E+00 1.92753E-02-1.69439E+00 6.92883E-14-4.33813E-13
 -1      3356 2.02637E+01 1.49917E+00 7.62927E-03 5.60289E-01 2.26381E-13-5.39516E-14
 -1      3357 2.01675E+01 1.83384E+00-7.13922E-03 6.61742E-01 2.32697E-13-8.57967E-14
 -1      3358 2.01310E+01 1.96653E+00-3.03961E-03 5.68973E-01 2.05656E-13-9.20363E-14
 -1      3359 2.42960E+01-3.76189E+00 1.50946E-02 1.78108E+00 1.27030E-13 2.68684E-13
 -1      3360 1.98802E+01 3.00727E-01-1.06470E-03 1.09833E-01-1.77273E-14-1.84399E-13
 -1      3361 1.98991E+01 2.87015E-01 1.38699E-04 1.35184E-01-1.40614E-14-9.57566E-14
 -1      3362 1.99193E+01 2.65982E-01-1.16998E-03 1.56176E-01 1.09190E-13-2.98205E-14
 -1      3363 1.99412E+01 2.48869E-01 2.60909E-04 1.69128E-01 1.61233E-13 6.11010E-14
 -1      3364 1.98896E+01 3.03744E-01 1.01180E-03 1.61259E-01 5.65101E-14-2.00123E-13
 -1      3365 1.98281E+01 3.50542E-01 1.18976E-03 2.78607E-02 1.53373E-13 1.44962E-13
 -1      3366 1.98571E+01 3.20110E-01-7.84846E-04 4.49158E-02 1.34445E-13 1.80405E-13
 -1      3367 1.98662E+01 3.14014E-01-2.21322E-04 7.58083E-02 4.33827E-14 7.18959E-14
 -1      3368 2.15232E+01-4.10408E+00 6.90551E-02-4.14384E+00 2.89949E-13-1.38137E-13
 -1      3369 2.57616E+01 4.65432E+00-1.00903E-01 1.12449E+00-2.44804E-13-5.13992E-13
 -1      3370 2.01379E+01 3.25001E-01-1.13959E-03-3.48196E-02 1.18774E-13-2.01972E-14
 -1      3371 2.01752E+01 4.12765E-01 3.07264E-03 6.51678E-02 1.36312E-13-1.25443E-14
 -1      3372 2.02274E+01 5.19930E-01-3.20312E-04 1.15191E-01 1.41985E-13 1.04747E-14
 -1      3373 2.01976E+01 3.62769E-01-1.30143E-03-5.14043E-02 1.01372E-13 4.19071E-15
 -1      3374 2.02012E+01 1.74205E+00-1.06615E-03-7.34523E-01-5.88728E-14-2.02348E-13
 -1      3375 2.02549E+01 1.54582E+00-5.09948E-03-8.52922E-01-1.10283E-13-2.38249E-13
 -1      3376 2.02851E+01 1.27434E+00 6.61002E-03-6.65192E-01-1.02530E-13-2.00389E-13
 -1      3377 2.02648E+01 1.53790E+00 9.87237E-03-5.72162E-01-5.54005E-14-1.92064E-13
 -1      3378 1.23961E+01 7.91885E-01 1.53119E-02-1.06143E+00 6.63358E-14-3.98730E-13
 -1      3379 1.20139E+01 4.01801E-01 1.06281E-01-2.06184E+00 6.82102E-14-4.44381E-13
 -1      3380 1.34708E+01 1.60715E-01 2.45044E-02-2.62912E+00 2.02754E-14-4.03469E-13
 -1      3381 2.02636E+01 1.03449E+00-5.30150E-03-4.97700E-01-9.55176E-14-1.87798E-13
 -1      3382 2.00956E+01 2.06505E+00-5.94688E-03 4.84268E-01 2.01144E-13-1.26080E-13
 -1      3383 2.00688E+01 2.14917E+00-3.47839E-03 3.75607E-01 1.78742E-13-1.64847E-13
 -1      3384 2.01628E+01 1.90378E+00 6.40503E-03 2.76440E-01 1.57113E-13-1.59481E-13
 -1      3385 2.02143E+01 1.74275E+00 8.48023E-03 4.39310E-01 1.89305E-13-1.00625E-13
 -1      3386 2.02834E+01 1.06878E+00-3.88637E-03-4.32662E-01-8.69662E-14-1.61198E-13
 -1      3387 2.59189E+01 2.07899E+00-7.24915E-02 2.08408E+00-1.17503E-13-5.63681E-13
 -1      3388 2.00656E+01 2.15531E+00-3.40821E-03-3.68213E-01 3.64362E-14-2.08581E-13
 -1      3389 2.00924E+01 2.07437E+00-5.28906E-03-4.78764E-01 1.85118E-15-2.15433E-13
 -1      3390 2.02060E+01 1.75553E+00 8.20551E-03-4.34353E-01-1.78694E-14-1.94700E-13
 -1      3391 2.44428E+01 2.74227E+00-4.55987E-02 1.67716E+00-1.79690E-13-3.45883E-13
 -1      3392 2.59909E+01-2.11573E+00-5.28579E-02 6.69685E-01-5.44096E-14-5.79779E-13
 -1      3393 2.68723E+01-1.10538E+00-3.97370E-02 1.37536E+00 2.59168E-15-6.08374E-13
 -1      3394 2.02575E+01 3.46916E-01 1.53902E-03 1.37056E-01-6.33845E-14-1.21524E-13
 -1      3395 2.02327E+01 2.87870E-01-7.89616E-04 1.95311E-01-5.07948E-14-1.16057E-13
 -1      3396 2.02079E+01 2.45978E-01 8.86012E-04 2.40104E-01-5.85482E-14-1.03512E-13
 -1      3397 2.01855E+01 2.16411E-01-5.31205E-05 2.84388E-01-4.64143E-14-8.66681E-14
 -1      3398 2.02509E+01 3.11407E-01-1.30813E-04 1.96415E-01-4.32524E-14-4.44500E-14
 -1      3399 2.01548E+01 1.98837E-01 2.34586E-04 3.20723E-01-5.13093E-14-8.01689E-14
 -1      3400 2.01356E+01 1.90717E-01 5.02704E-04 3.57779E-01-2.59446E-14-8.42883E-14
 -1      3401 2.01925E+01 2.42945E-01-1.86222E-04 2.80056E-01-5.04207E-14-5.61031E-14
 -1      3402 2.01009E+01 1.90485E-01-3.36380E-04 3.91052E-01 1.08580E-14-9.78054E-14
 -1      3403 2.00849E+01 1.97360E-01 9.28881E-04 4.26268E-01 3.63977E-14-7.11989E-14
 -1      3404 2.01270E+01 2.22060E-01-1.33303E-04 3.51586E-01-1.88550E-14-7.98328E-14
 -1      3405 2.00471E+01 2.08620E-01-8.02838E-04 4.60958E-01 3.78348E-14-5.42752E-14
 -1      3406 2.00342E+01 2.24771E-01 1.27254E-03 4.98378E-01 3.15539E-14-3.93569E-14
 -1      3407 2.00565E+01 2.34736E-01-3.02804E-05 4.20850E-01 4.16790E-14-1.18705E-13
 -1      3408 1.99944E+01 2.42016E-01-1.15142E-03 5.38022E-01 1.94162E-14-4.84132E-15
 -1      3409 1.99850E+01 2.61715E-01 1.58032E-03 5.80429E-01-5.33278E-16 2.83296E-14
 -1      3410 1.99822E+01 2.68417E-01 5.59596E-05 4.95919E-01 3.84116E-14-4.47062E-14
 -1      3411 1.99443E+01 2.79068E-01-1.35781E-03 6.27694E-01-3.01440E-14 2.15445E-14
 -1      3412 1.99399E+01 2.95872E-01 1.90318E-03 6.76658E-01-5.14100E-14 2.85850E-14
 -1      3413 1.99056E+01 3.10599E-01 6.24855E-05 5.83170E-01-6.81030E-15-5.61783E-14
 -1      3414 1.99006E+01 3.06372E-01-1.37304E-03 7.33446E-01-8.74382E-14 1.83082E-14
 -1      3415 1.99043E+01 3.12377E-01 2.29192E-03 7.89291E-01-5.42215E-14-1.48069E-14
 -1      3416 1.98296E+01 3.47314E-01-1.08244E-04 6.87503E-01-7.60736E-14-3.76691E-14
 -1      3417 1.98710E+01 3.07257E-01-1.10406E-03 8.56718E-01-6.84414E-14 1.47201E-14
 -1      3418 1.98884E+01 2.92401E-01 2.80166E-03 9.18307E-01-7.71332E-14-3.96924E-14
 -1      3419 1.97601E+01 3.61592E-01-5.80024E-04 8.12574E-01-5.30628E-14-7.47442E-15
 -1      3420 1.98690E+01 2.60540E-01-3.96620E-04 9.96478E-01-5.10720E-14-5.74065E-14
 -1      3421 1.99092E+01 2.12135E-01 3.46675E-03 1.06075E+00-5.36290E-14-1.52877E-15
 -1      3422 1.97083E+01 3.31888E-01-1.53995E-03 9.60678E-01-7.24414E-14-7.38834E-14
 -1      3423 1.99170E+01 1.39907E-01 1.00518E-03 1.14813E+00-6.68088E-14 7.70857E-14
 -1      3424 1.99938E+01 4.26957E-02 4.22574E-03 1.20914E+00-1.01546E-13 5.65647E-14
 -1      3425 1.96934E+01 2.30911E-01-3.26798E-03 1.13218E+00-2.83253E-15-1.91090E-14
 -1      3426 2.00500E+01-8.52803E-02 3.50216E-03 1.30087E+00-1.92967E-13 1.06373E-13
 -1      3427 2.01825E+01-2.47641E-01 4.81574E-03 1.34780E+00-1.73799E-13 9.58799E-14
 -1      3428 1.97469E+01 2.52215E-02-6.16999E-03 1.32363E+00-1.30588E-13 6.47696E-14
 -1      3429 2.03193E+01-4.45212E-01 7.78198E-03 1.43182E+00-5.29026E-14 1.32194E-13
 -1      3430 2.05298E+01-6.85322E-01 4.58405E-03 1.44573E+00 9.78577E-14 1.01127E-13
 -1      3431 1.99177E+01-3.22664E-01-1.06737E-02 1.52268E+00-7.15198E-14 2.39052E-13
 -1      3432 2.07914E+01-9.56626E-01 1.43709E-02 1.49611E+00 1.19897E-13 1.28799E-13
 -1      3433 2.10992E+01-1.27346E+00 1.42987E-03 1.44587E+00 9.93062E-14 1.14365E-13
 -1      3434 2.02762E+01-8.44528E-01-1.72058E-02 1.69680E+00 1.05424E-13 2.59803E-13
 -1      3435 2.15411E+01-1.59102E+00 2.47677E-02 1.40806E+00 9.24955E-14 1.27271E-13
 -1      3436 2.19584E+01-1.92904E+00 2.14575E-03 1.24882E+00 1.14545E-13 1.62938E-13
 -1      3437 2.09085E+01-1.55413E+00-3.06716E-02 1.77387E+00 1.31838E-13 2.72997E-13
 -1      3438 2.26101E+01-2.25492E+00 2.74025E-02 1.04997E+00 1.33291E-13 1.68137E-13
 -1      3439 2.31190E+01-2.45474E+00-9.12793E-05 6.83770E-01 1.37540E-13 1.60769E-13
 -1      3440 2.19458E+01-2.29257E+00-2.44495E-02 1.60210E+00 1.17195E-13 1.80127E-13
 -1      3441 2.49648E+01-1.33035E+00-6.91724E-02-1.34820E+00-9.02577E-14 1.80698E-13
 -1      3442 2.52620E+01-3.44037E-01 4.71706E-05-1.89245E+00-7.94781E-14 2.76881E-13
 -1      3443 2.60575E+01-1.83924E-01-4.44334E-02 1.86499E+00-9.60690E-15-7.29257E-13
 -1      3444 2.50501E+01-2.29528E+00 4.81424E-02-5.17024E-01 2.10526E-14 1.40003E-13
 -1      3445 2.53646E+01-7.95552E-01 3.77278E-03 1.69114E+00-5.80612E-14-5.74450E-13
 -1      3446 2.53062E+01-5.32685E-02-6.91223E-02 1.90392E+00-7.01262E-14-5.37341E-13
 -1      3447 2.53915E+01 1.31240E+00-1.59076E-02 2.13764E+00-6.58779E-14-5.19139E-13
 -1      3448 2.02750E+01 1.18186E+00-2.38858E-03-3.86770E-01-6.48184E-14-1.64001E-13
 -1      3449 2.48391E+01-1.69420E+00-2.19381E-02 1.03029E+00-4.90838E-14-4.85329E-13
 -1      3450 2.45482E+01-2.24063E+00 2.00203E-02 5.06683E-01-1.71356E-14-5.08760E-13
 -1      3451 2.53877E+01-1.96620E+00-3.24682E-02 8.56073E-01-5.12299E-14-7.15566E-13
 -1      3452 2.37900E+01-2.40418E+00-6.96374E-03-7.06756E-02-3.69585E-14-4.34808E-13
 -1      3453 2.33220E+01-2.41808E+00 2.81258E-02-5.43024E-01-5.97499E-14-5.63192E-13
 -1      3454 2.39774E+01-2.79679E+00-2.86512E-02-4.47963E-01-2.83074E-14-4.65851E-13
 -1      3455 2.26163E+01-2.18810E+00 2.15667E-03-8.58474E-01-8.29640E-14-4.03582E-13
 -1      3456 2.21438E+01-1.93856E+00 2.51142E-02-1.14848E+00-9.64769E-14-4.32863E-13
 -1      3457 2.25307E+01-2.51027E+00-3.01714E-02-1.27880E+00-9.66588E-15-4.22792E-13
 -1      3458 2.16161E+01-1.60206E+00 6.03378E-03-1.26448E+00 1.74893E-14-3.66777E-13
 -1      3459 2.12224E+01-1.29145E+00 1.40668E-02-1.39650E+00 9.83040E-14-3.89777E-13
 -1      3460 2.13904E+01-1.82062E+00-2.96949E-02-1.62121E+00 1.07197E-14-1.78465E-13
 -1      3461 2.08870E+01-9.74994E-01 6.99988E-03-1.38800E+00-1.76754E-14-3.47457E-13
 -1      3462 2.05981E+01-7.03843E-01 5.37834E-03-1.41765E+00-5.05886E-14-3.26366E-13
 -1      3463 2.06075E+01-1.08337E+00-2.03214E-02-1.64551E+00 1.48570E-14-3.89977E-13
 -1      3464 2.04077E+01-4.55602E-01 5.88073E-03-1.35176E+00-3.32132E-14-2.15771E-13
 -1      3465 2.02157E+01-2.53492E-01 7.05634E-04-1.32344E+00-1.19453E-13-1.21964E-13
 -1      3466 2.01344E+01-4.89912E-01-1.15332E-02-1.52136E+00 5.62826E-15-1.86114E-15
 -1      3467 2.01216E+01-8.09932E-02 4.36309E-03-1.23625E+00-1.28058E-13-4.09301E-14
 -1      3468 2.00033E+01 5.36056E-02-1.44355E-03-1.17921E+00-1.73576E-13 9.99225E-15
 -1      3469 1.98771E+01-7.11548E-02-5.72718E-03-1.33959E+00-1.32929E-13-5.91949E-14
 -1      3470 1.99683E+01 1.61002E-01 3.01515E-03-1.08821E+00-2.36031E-14 1.59849E-13
 -1      3471 1.99004E+01 2.40461E-01-2.28700E-03-1.01935E+00 2.49245E-14 5.02991E-15
 -1      3472 1.97594E+01 1.95139E-01-2.24329E-03-1.14655E+00 4.22584E-14 7.11255E-14
 -1      3473 1.98993E+01 2.98125E-01 1.99161E-03-9.32618E-01-7.47576E-14 1.51461E-14
 -1      3474 1.98637E+01 3.36866E-01-2.46742E-03-8.61430E-01 7.58206E-14-1.57454E-13
 -1      3475 1.97260E+01 3.44228E-01-2.83203E-04-9.62459E-01-8.51541E-15 1.24052E-13
 -1      3476 1.98801E+01 3.59563E-01 1.27950E-03-7.82617E-01 2.53524E-13-4.43981E-13
 -1      3477 1.98637E+01 3.70598E-01-2.33658E-03-7.14423E-01 8.72133E-14-3.21353E-13
 -1      3478 1.97394E+01 4.09923E-01 7.35579E-04-7.95524E-01 4.61313E-15-2.54715E-13
 -1      3479 1.98875E+01 3.70646E-01 8.06539E-04-6.44946E-01-1.50751E-14-2.80406E-13
 -1      3480 1.98817E+01 3.64413E-01-2.07732E-03-5.82577E-01 7.04194E-14-1.40500E-13
 -1      3481 1.97755E+01 4.20497E-01 1.18755E-03-6.48535E-01 2.88956E-14-6.12367E-13
 -1      3482 1.99072E+01 3.51157E-01 5.15494E-04-5.22708E-01 2.78063E-14-7.27728E-14
 -1      3483 1.99067E+01 3.35427E-01-1.76843E-03-4.67520E-01-1.05110E-13-1.81084E-14
 -1      3484 1.98198E+01 3.97629E-01 1.30613E-03-5.21664E-01 1.07624E-13-2.99398E-13
 -1      3485 1.99305E+01 3.15793E-01 3.89807E-04-4.17045E-01-1.65692E-13 1.46760E-13
 -1      3486 1.99314E+01 2.95805E-01-1.71037E-03-3.69507E-01-5.36981E-14 1.34758E-13
 -1      3487 1.98639E+01 3.56889E-01 1.19537E-03-4.14283E-01-9.26903E-14-2.33481E-14
 -1      3488 1.99527E+01 2.74064E-01 2.36474E-04-3.26784E-01 6.02508E-14 2.42939E-13
 -1      3489 1.99562E+01 2.54293E-01-6.86563E-04-2.86874E-01 2.16863E-13 5.34301E-13
 -1      3490 1.99023E+01 3.10808E-01 1.16843E-03-3.24768E-01 1.49588E-13 2.67559E-13
 -1      3491 1.98091E+01 5.24350E-01 1.66728E-03-8.52118E-01-6.38891E-14 1.61944E-13
 -1      3492 1.98305E+01 4.70252E-01-3.22387E-03-7.79696E-01-6.03711E-14 1.18906E-13
 -1      3493 1.63267E+01-1.79020E+00 1.18399E-01-4.61977E+00 4.91794E-13 1.74395E-13
 -1      3494 1.83452E+01-2.94076E+00-5.44481E-02-4.65789E+00 4.47187E-13-9.25579E-14
 -1      3495 1.99001E+01 4.21121E-01 1.55404E-03-7.19419E-01-4.67187E-14 8.32014E-14
 -1      3496 1.99152E+01 3.72314E-01-2.51320E-03-6.59619E-01-3.63027E-14 3.92475E-14
 -1      3497 1.97626E+01 5.04638E-01 2.11672E-03-7.11500E-01-7.95855E-14 4.53528E-14
 -1      3498 1.95413E+01 7.20262E-01 2.34413E-03-1.20235E+00-1.11458E-13 2.54842E-13
 -1      3499 1.95801E+01 6.75962E-01-4.85435E-03-1.10040E+00-6.59189E-14 1.71109E-13
 -1      3500 1.93598E+01 7.68667E-01 3.48948E-03-1.42888E+00-1.07276E-14 1.89948E-13
 -1      3501 1.94033E+01 7.49294E-01-5.82488E-03-1.30993E+00-4.17308E-14 2.59475E-13
 -1      3502 1.91930E+01 8.35421E-01 4.83920E-03-1.17766E+00-5.81395E-14 6.82881E-14
 -1      3503 1.91591E+01 7.29686E-01 6.07721E-03-1.70145E+00-8.32537E-14 1.19795E-13
 -1      3504 1.91937E+01 7.60112E-01-6.79815E-03-1.56245E+00-7.61340E-14 9.25568E-14
 -1      3505 1.89029E+01 8.83300E-01 5.42453E-03-1.40504E+00-2.58393E-14 8.71720E-14
 -1      3506 1.89764E+01 5.31916E-01 1.10653E-02-2.03843E+00-2.66807E-14 6.90894E-14
 -1      3507 1.89705E+01 6.51128E-01-7.46085E-03-1.87437E+00-4.51897E-14 1.25712E-13
 -1      3508 1.85608E+01 8.33452E-01 5.40313E-03-1.69684E+00-6.10466E-14 2.10576E-14
 -1      3509 1.88997E+01 6.87529E-02 2.11223E-02-2.46542E+00-5.67240E-14 1.46961E-13
 -1      3510 1.87893E+01 3.34689E-01-5.81779E-03-2.27201E+00-3.93972E-14 1.25979E-13
 -1      3511 1.81921E+01 6.08736E-01 5.14565E-03-2.09686E+00-4.42940E-14 4.39235E-14
 -1      3512 1.90998E+01-8.11115E-01 3.31256E-02-3.00172E+00-1.06015E-13 2.34439E-14
 -1      3513 1.87655E+01-3.03010E-01 5.32365E-03-2.78910E+00-4.99076E-14 7.78659E-14
 -1      3514 1.78510E+01 7.34258E-02-3.80097E-03-2.66995E+00-4.46500E-14 2.33873E-14
 -1      3515 1.92344E+01-1.64300E+00 4.92075E-02-3.54940E+00-1.41575E-13 2.34535E-14
 -1      3516 1.95406E+01 7.43964E-01-4.89495E-03 1.06380E+00-1.94187E-13 1.41353E-13
 -1      3517 1.95009E+01 7.81066E-01 2.21278E-03 1.17619E+00-3.10084E-13 8.30469E-14
 -1      3518 2.02978E+01 5.21928E-01 2.17688E-03-2.20114E-03-7.18087E-14-1.15249E-13
 -1      3519 2.02731E+01 4.22304E-01-1.76795E-03 7.78783E-02-7.67416E-14-1.32051E-13
 -1      3520 2.02978E+01 4.44624E-01 1.46978E-04 8.94674E-02-7.13752E-14-7.63933E-14
 -1      3521 2.49229E+01 3.75852E+00-3.87914E-02 1.55264E+00-2.18381E-13-2.98542E-13
 -1      3522 2.50297E+01 2.41566E+00-1.20503E-01 1.99113E+00-1.27440E-13-3.92908E-13
 -1      3523 1.93621E+01 8.01434E-01-5.87767E-03 1.29431E+00-2.65464E-13 1.70396E-13
 -1      3524 1.93189E+01 8.10517E-01 3.64387E-03 1.42302E+00-1.71822E-13 3.09882E-13
 -1      3525 1.91265E+01 9.01016E-01 5.11183E-03 1.15619E+00-2.09107E-13 2.13633E-13
 -1      3526 1.91508E+01 7.88758E-01-6.93007E-03 1.56845E+00-8.67419E-14 3.39508E-13
 -1      3527 1.91196E+01 7.41262E-01 6.06251E-03 1.71711E+00 1.40441E-13 2.74645E-13
 -1      3528 1.88332E+01 9.28182E-01 5.75422E-03 1.40476E+00-1.26567E-13 6.47336E-13
 -1      3529 1.96813E+01 6.54534E-01-4.03679E-03 8.66831E-01-5.03854E-14 1.79870E-13
 -1      3530 1.96508E+01 7.03463E-01 1.64223E-03 9.64560E-01-1.11960E-13 2.23631E-13
 -1      3531 1.93626E+01 8.18564E-01 4.28918E-03 9.50799E-01-1.94449E-13 2.17703E-13
 -1      3532 1.97870E+01 5.55869E-01-3.29206E-03 6.98619E-01 1.28744E-13 4.24929E-14
 -1      3533 1.97662E+01 6.06965E-01 1.39153E-03 7.82656E-01 8.87636E-14 1.03756E-13
 -1      3534 1.95462E+01 7.12270E-01 3.40365E-03 7.76665E-01 6.55393E-14 2.14754E-13
 -1      3535 1.98637E+01 4.60651E-01-2.65778E-03 5.56075E-01 3.11633E-13-8.74878E-14
 -1      3536 1.98510E+01 5.08654E-01 1.27006E-03 6.27335E-01 2.33930E-13-1.41067E-13
 -1      3537 1.96850E+01 6.01520E-01 2.58161E-03 6.27987E-01 3.24217E-13-1.09217E-13
 -1      3538 1.99175E+01 3.75324E-01-2.08518E-03 4.36682E-01 1.08525E-13-5.96416E-14
 -1      3539 1.99110E+01 4.17590E-01 1.18756E-03 4.96174E-01 2.99014E-13-4.64694E-14
 -1      3540 1.97875E+01 4.97113E-01 1.88008E-03 5.01474E-01 2.60837E-13-2.49508E-13
 -1      3541 1.99540E+01 3.01835E-01-1.90610E-03 3.38460E-01 1.57939E-13-2.11705E-13
 -1      3542 1.99519E+01 3.37421E-01 8.95234E-04 3.86699E-01 5.91577E-14-1.28317E-13
 -1      3543 1.98621E+01 4.04680E-01 1.47974E-03 3.94731E-01 1.65551E-13-1.05778E-13
 -1      3544 1.99788E+01 2.43844E-01-9.27232E-04 2.57158E-01 2.52837E-13 1.05876E-15
 -1      3545 1.99786E+01 2.72106E-01 9.20226E-04 2.96866E-01 2.39441E-13-5.96287E-14
 -1      3546 1.99144E+01 3.27818E-01 1.44664E-03 3.06454E-01 6.65708E-14 7.84967E-14
 -1      3547 1.98488E+01 3.36230E-01 1.15108E-03 1.03136E-01 6.36889E-14-3.61442E-14
 -1      3548 1.79452E+01-1.37777E+00 2.89651E-02 3.67593E+00-1.48855E-13-3.31384E-14
 -1      3549 2.06596E+01-3.52529E+00 7.59815E-02-4.10069E+00 3.07324E-13-1.40958E-13
 -1      3550 2.23677E+01-4.10379E+00-5.71104E-02-3.33713E+00 2.52416E-13-1.67205E-13
 -1      3551 1.96912E+01 6.29588E-01 1.86584E-03-1.01188E+00-1.97594E-14 1.48295E-13
 -1      3552 1.97211E+01 5.75762E-01-3.99535E-03-9.25315E-01-3.66432E-14 1.72903E-13
 -1      3553 1.96157E+01 6.21351E-01 2.98733E-03-8.39334E-01-6.00332E-14 7.65310E-14
 -1      3554 1.94288E+01 7.37885E-01 3.93754E-03-9.92763E-01-6.46803E-14 9.23320E-14
 -1      3555 2.63134E+01 5.14688E+00-1.04106E-01-1.00306E+00-3.56964E-13-1.31548E-13
 -1      3556 2.56755E+01 3.89557E+00-6.24886E-02-1.56193E+00-2.08791E-13 3.76470E-14
 -1      3557 2.44574E+01-3.37145E+00-8.48873E-02 8.23001E-01 6.83121E-14 1.40662E-13
 -1      3558 2.34131E+01-3.54507E+00 7.97986E-02 2.13062E+00 1.06046E-13 2.78480E-13
 -1      3559 2.61547E+01 1.10083E+00-8.57276E-02-2.05550E+00-2.09249E-13 2.49946E-13
 -1      3560 1.98981E+01 2.84950E-01 1.01645E-04-2.06245E-01 8.28496E-14 2.94430E-13
 -1      3561 1.98665E+01 3.07593E-01-1.33745E-03-1.84734E-01 6.31150E-14-1.71603E-14
 -1      3562 1.89322E+01 6.41954E-01-7.83622E-03 1.90080E+00 5.04755E-14 5.37103E-15
 -1      3563 1.89466E+01 5.00848E-01 1.12078E-02 2.07460E+00-1.10748E-13-1.32525E-13
 -1      3564 1.84911E+01 8.45649E-01 6.19585E-03 1.72374E+00-1.32736E-13 4.11832E-13
 -1      3565 2.00324E+01 2.25016E+00-3.51128E-03-1.55995E-01 7.86694E-14-2.13214E-13
 -1      3566 2.00454E+01 2.21219E+00-4.25661E-03-2.73533E-01 4.27474E-14-2.03698E-13
 -1      3567 2.01597E+01 1.90680E+00 5.74507E-03-2.70069E-01 2.44251E-14-2.00755E-13
 -1      3568 2.01195E+01 1.89565E-01 5.80553E-04-3.68464E-01 5.16174E-14-7.27326E-14
 -1      3569 2.01339E+01 1.93578E-01 2.98405E-04-3.28998E-01 1.28953E-14-6.55379E-14
 -1      3570 1.99707E+01 3.29888E-01 1.43097E-03-6.10095E-01 1.37433E-15 5.82470E-15
 -1      3571 1.99821E+01 2.89930E-01-1.83648E-03-5.60778E-01 3.72478E-14-9.45755E-15
 -1      3572 1.98786E+01 3.99480E-01 1.37473E-03-6.05098E-01-1.30011E-14-6.15896E-14
 -1      3573 2.03168E+01 7.87622E-01-1.15762E-03-1.95333E-01-7.45376E-14-1.44696E-13
 -1      3574 2.02976E+01 6.42806E-01-3.10293E-03-8.31048E-02-6.55635E-14-1.45929E-13
 -1      3575 2.03247E+01 6.65876E-01 1.10599E-03-5.26522E-02-6.48756E-14-1.17798E-13
 -1      3576 1.11441E+01 7.73412E-01 1.06461E-01 8.41949E-01-9.77309E-14 4.22926E-13
 -1      3577 1.13493E+01 7.07472E-01 2.54323E-02-8.01452E-01 4.98950E-15 5.78718E-13
 -1      3578 1.28215E+01 6.69563E-01 5.20647E-02 1.46170E+00-3.20539E-14 3.37886E-13
 -1      3579 2.01621E+01 2.07861E-01 2.77183E-05-2.90002E-01 2.19753E-14-5.59276E-14
 -1      3580 2.01811E+01 2.34678E-01 1.09867E-03-2.42828E-01 6.39128E-14-6.34366E-14
 -1      3581 2.01778E+01 2.38266E-01-3.07348E-04-2.89924E-01 4.19765E-14-7.49724E-14
 -1      3582 2.02044E+01 2.74350E-01-6.46042E-04-1.93833E-01 9.29097E-14-7.50717E-14
 -1      3583 2.02281E+01 3.31054E-01 1.71980E-03-1.31236E-01 1.04608E-13-5.99851E-14
 -1      3584 2.02319E+01 3.01730E-01-4.24811E-04-1.98696E-01 5.75031E-14-4.23579E-14
 -1      3585 2.41666E+01-2.51489E+00-3.19133E-03 2.76091E-02 3.54473E-14 9.33125E-14
 -1      3586 2.15366E+01-3.62999E+00-6.97592E-02 3.34299E+00 1.39310E-13 2.11688E-13
 -1      3587 1.96533E+01-2.87886E+00 4.62673E-02 4.03487E+00 1.92530E-13 5.72164E-14
 -1      3588 1.27483E+01 3.84136E-01 5.38692E-02 2.41367E+00 1.56736E-13-7.74276E-14
 -1      3589 1.23670E+01 8.10899E-01 1.09796E-02 7.84999E-01 1.28238E-13-2.46539E-13
 -1      3590 2.02976E+01 9.20704E-01 4.29593E-04 4.10070E-01 1.91326E-13-2.35015E-14
 -1      3591 2.02883E+01 1.09486E+00-2.06372E-03 4.48501E-01 2.07399E-13-3.61950E-14
 -1      3592 2.02721E+01 7.42317E-01-1.44664E-03 2.56161E-01 1.55668E-13-1.84908E-14
 -1      3593 2.02557E+01 1.42916E+00-5.58881E-03-3.90776E-01-3.72648E-14-1.75626E-13
 -1      3594 2.03111E+01 1.03051E+00 4.37579E-03-2.71500E-01-6.20398E-14-1.43062E-13
 -1      3595 2.03154E+01 1.02296E+00-1.10053E-03-2.10271E-01-4.20579E-14-1.41584E-13
 -1      3596 2.02351E+01 1.53496E+00-2.42498E-03-3.21819E-01-3.18907E-15-1.79059E-13
 -1      3597 1.89260E+01-8.97971E-01 2.62573E-02 3.09044E+00-1.28480E-13-4.36790E-14
 -1      3598 1.62715E+01-6.10098E-01 3.66329E-02 3.53693E+00-1.18485E-13 1.02284E-13
 -1      3599 1.99636E+01 2.23461E-01-1.12194E-03 1.78285E-01 1.41611E-13 2.74640E-13
 -1      3600 1.99870E+01 2.02440E-01 9.44792E-05 1.82821E-01-8.34034E-15-1.25857E-13
 -1      3601 1.99889E+01 2.10563E-01 1.77646E-04 2.02099E-01 2.54121E-14 2.20006E-15
 -1      3602 1.99364E+01 2.60282E-01 7.68393E-05 1.92260E-01 3.25009E-13 1.68143E-13
 -1      3603 2.54371E+01-2.85209E+00 1.33537E-02 1.03121E-02 2.25397E-14-5.62481E-13
 -1      3604 1.53886E+01-2.70665E-02-6.14769E-03 2.93727E+00-4.36318E-14 1.60115E-14
 -1      3605 1.83199E+01-2.32301E+00 6.76179E-03 4.21288E+00 1.57527E-13 2.60139E-14
 -1      3606 1.69181E+01-1.43660E+00 1.16476E-02 3.90214E+00 1.38058E-13 2.73045E-14
 -1      3607 1.96323E+01-2.27784E+00 4.71904E-02 3.48216E+00 1.59962E-13 7.85591E-14
 -1      3608 2.49498E+01 4.59160E+00-1.10310E-01 6.77552E-01-2.85466E-13-2.99420E-13
 -1      3609 2.30652E+01-3.01439E+00-4.91844E-02 1.36328E+00 6.19990E-14 1.35977E-13
 -1      3610 2.36869E+01-2.59125E+00 4.10463E-02 5.20650E-01 1.04384E-13 1.40272E-13
 -1      3611 1.99458E+01 2.53110E-01 5.49403E-04-2.47394E-01 1.79312E-13 4.77492E-13
 -1      3612 1.99805E+01 2.23302E-01-3.07889E-04-2.50283E-01 1.87124E-13 4.90738E-13
 -1      3613 1.85545E+01-3.72824E-01-4.51960E-03 2.84110E+00-1.33996E-13-5.58230E-14
 -1      3614 1.55765E+01-1.03295E+00 6.96651E-02-3.90540E+00 2.96672E-13 1.35322E-13
 -1      3615 2.53757E+01 4.97214E+00-7.00729E-02-4.35016E-01-2.93258E-13-1.75328E-13
 -1      3616 1.22084E+01 7.27680E-01 1.05812E-01-1.57308E+00 1.09249E-13 5.94115E-13
 -1      3617 1.30662E+01 3.91505E-01-2.91933E-02-2.25322E+00 1.86204E-13 4.81420E-13
 -1      3618 1.26828E+01 9.35900E-01-8.92745E-03-5.12491E-01 1.23962E-13 4.86070E-13
 -1      3619 1.98160E+01-2.79220E+00 4.69483E-02-3.82986E+00 3.91888E-13-9.66935E-15
 -1      3620 2.00755E+01 2.08525E-01 9.75027E-04-4.41620E-01 7.94549E-14-5.52267E-14
 -1      3621 2.00868E+01 1.94598E-01-4.60507E-04-4.03504E-01 8.88268E-14-3.77422E-14
 -1      3622 2.01175E+01 2.25849E-01-6.73596E-05-3.66226E-01 5.13163E-14-9.48125E-14
 -1      3623 1.77008E+01-1.09939E+00 9.66271E-03-3.60503E+00-1.23324E-13-1.36106E-13
 -1      3624 1.97973E+01 3.68684E-01-2.99077E-05-7.74021E-02 2.57686E-13-1.18002E-14
 -1      3625 1.97866E+01 3.75993E-01-9.84062E-04-3.86784E-02 2.49515E-13 4.65266E-14
 -1      3626 2.39167E+01-3.83763E+00 5.85722E-02-2.16155E+00 1.52788E-13-4.52447E-13
 -1      3627 2.49372E+01-3.37990E+00-5.92912E-02-7.58527E-01 4.33291E-14-5.24155E-13
 -1      3628 2.02749E+01 1.23272E+00-2.10977E-03 4.14568E-01 1.98754E-13-5.31468E-14
 -1      3629 1.98461E+01 3.38918E-01-1.47450E-03 1.70690E-01 2.71946E-14-3.22286E-13
 -1      3630 1.98753E+01 3.23252E-01 1.02403E-03 1.93846E-01 9.25688E-14-1.08121E-13
 -1      3631 2.01364E+01 1.98225E+00 5.30762E-03-8.96096E-02 7.75354E-14-1.91487E-13
 -1      3632 1.98010E+01 3.71571E-01-8.96896E-04 9.48444E-02 2.38959E-13 8.03956E-14
 -1      3633 1.98203E+01 3.60027E-01-5.93893E-05 1.31522E-01 2.16891E-13-1.86000E-13
 -1      3634 1.98074E+01 3.83396E-01 1.56344E-03 1.66109E-01 2.09846E-13-1.68927E-13
 -1      3635 1.99932E+01 2.19282E-01 3.91006E-04 2.23936E-01 2.57091E-13 8.97327E-14
 -1      3636 2.01953E+01 1.70709E+00-3.49769E-03 1.21055E-01 1.18666E-13-1.80189E-13
 -1      3637 2.01905E+01 1.72795E+00-2.84205E-03 3.60864E-02 9.94122E-14-2.00500E-13
 -1      3638 2.43853E+01-3.08553E+00-2.66245E-02-6.06602E-01 1.09992E-13-5.64556E-13
 -1      3639 1.97842E+01 3.81440E-01-4.81535E-04 8.21583E-03 3.60110E-13 2.08956E-13
 -1      3640 1.97884E+01 3.79231E-01-6.63948E-04 4.87635E-02 3.05893E-13 2.53184E-13
 -1      3641 1.97619E+01 4.11462E-01 1.53238E-03 7.66727E-02 3.84993E-13 2.02538E-13
 -1      3642 1.97507E+01 4.13720E-01 1.30164E-03-1.94771E-02 3.41485E-13 1.02852E-13
 -1      3643 2.30159E+01-3.52199E+00 2.32012E-02-2.30029E+00 1.80682E-13-4.20766E-13
 -1      3644 2.02384E+01 3.87406E-01-1.01306E-03-7.49320E-02 1.03507E-13-6.30321E-14
 -1      3645 2.02561E+01 4.58267E-01 1.95997E-03-2.41312E-03 9.97964E-14-3.39752E-14
 -1      3646 2.02704E+01 4.15081E-01-2.06282E-04-9.00443E-02 1.18350E-13-4.23169E-14
 -1      3647 2.24106E+01-3.15366E+00 3.17100E-02 2.33795E+00 7.73288E-14 2.16775E-13
 -1      3648 1.86913E+01 2.98979E-01-7.43112E-03 2.31071E+00-3.15813E-14-1.51055E-13
 -1      3649 1.88122E+01 4.77763E-03 1.95075E-02 2.51775E+00-7.60552E-14-1.01491E-13
 -1      3650 1.75715E+01 1.04865E-01 1.34285E-02 2.70548E+00-7.83787E-14-5.20677E-14
 -1      3651 1.80660E+01 6.03607E-01 8.37500E-03 2.12975E+00-1.05363E-13-4.56188E-14
 -1      3652 1.99722E+01 3.13729E-01 7.72712E-04-5.15892E-01 2.80659E-14-1.94804E-14
 -1      3653 2.00273E+01 2.57224E-01 1.24846E-03-5.19525E-01 4.35189E-14-1.67087E-14
 -1      3654 2.00375E+01 2.28880E-01-1.16260E-03-4.77754E-01 5.14895E-14-5.82382E-14
 -1      3655 2.02206E+01 1.60571E+00-4.97606E-03 2.66120E-01 1.61891E-13-1.39525E-13
 -1      3656 2.02064E+01 1.67036E+00-2.38622E-03 1.84472E-01 1.43693E-13-1.69312E-13
 -1      3657 2.02748E+01 1.46315E+00 5.23451E-03 1.18193E-01 1.16447E-13-1.43874E-13
 -1      3658 1.39047E+01 4.23032E-02 5.38908E-02 2.93347E+00 1.65075E-13-2.32488E-14
 -1      3659 1.44948E+01 4.37144E-01 2.11512E-02 2.21650E+00 1.76038E-13-4.54897E-14
 -1      3660 1.53479E+01-5.07788E-01-1.41960E-02 3.41092E+00 1.42091E-13 3.84415E-14
 -1      3661 1.28639E+01 1.06124E+00 8.63777E-02-3.67760E-02 1.32215E-13-3.71658E-13
 -1      3662 1.34879E+01 9.11979E-01-1.72668E-02-8.19795E-01 1.16211E-13-3.57910E-13
 -1      3663 1.35757E+01 9.64090E-01-6.04898E-04 8.36787E-01 1.74228E-13-2.54522E-13
 -1      3664 1.45019E+01 3.25488E-01 1.57289E-02-2.46355E+00 2.42254E-14-3.19925E-13
 -1      3665 1.47887E+01-1.30055E-01 9.74708E-02-3.28088E+00-1.68997E-14-3.53374E-13
 -1      3666 1.98378E+01 3.35558E-01 4.59562E-04-1.52060E-01 1.02792E-13-3.00495E-13
 -1      3667 1.98141E+01 3.50878E-01-1.25124E-03-1.19628E-01 2.48170E-13-1.77327E-13
 -1      3668 1.97745E+01 3.91635E-01 1.15088E-03-1.11586E-01 1.18427E-13-1.79440E-13
 -1      3669 1.65622E+01-9.48945E-01 2.96584E-02-3.62076E+00-8.82953E-14-1.97349E-13
 -1      3670 1.98280E+01 3.48797E-01 9.50784E-04-1.89369E-01 1.40268E-13-1.52708E-13
 -1      3671 1.99506E+01 2.62955E-01 6.30786E-04 2.33352E-01 2.11239E-13 2.14894E-13
 -1      3672 2.18776E+01-2.80269E+00 2.93559E-02 2.36990E+00 8.31249E-14 2.32107E-13
 -1      3673 2.02246E+01 2.82935E-01 1.67373E-04 2.29605E-01-3.43173E-14-3.77216E-14
 -1      3674 2.01923E+01 2.59991E-01-1.14145E-04 2.68022E-01-4.51646E-14-3.75409E-14
 -1      3675 2.01484E+01 2.49064E-01-3.30989E-04 2.98303E-01-3.06454E-14-1.67030E-14
 -1      3676 2.01140E+01 2.48374E-01 3.57861E-04 3.33037E-01 1.24559E-14-1.25665E-14
 -1      3677 2.01776E+01 2.86535E-01 4.13375E-04 2.49474E-01-2.38806E-14 8.02289E-15
 -1      3678 2.00622E+01 2.55594E-01-8.05392E-04 3.63419E-01 4.30882E-14-3.49021E-14
 -1      3679 2.00264E+01 2.70406E-01 7.42575E-04 3.98841E-01 4.20200E-14-2.27889E-14
 -1      3680 2.00830E+01 2.82781E-01 4.57387E-04 3.10386E-01 6.80988E-15 1.57873E-14
 -1      3681 1.99676E+01 2.89419E-01-1.24602E-03 4.33074E-01 4.78757E-14-2.97921E-14
 -1      3682 1.99310E+01 3.13404E-01 1.08701E-03 4.72777E-01 4.06928E-14-2.04113E-14
 -1      3683 1.99752E+01 3.13046E-01 5.87198E-04 3.74585E-01 3.84644E-14-8.14057E-15
 -1      3684 1.98658E+01 3.37847E-01-1.64203E-03 5.14201E-01 1.12630E-14-2.95704E-14
 -1      3685 1.98293E+01 3.64418E-01 1.45719E-03 5.61020E-01-9.10667E-15-5.17773E-14
 -1      3686 1.98555E+01 3.63915E-01 7.13897E-04 4.49170E-01 2.38555E-14-5.52132E-14
 -1      3687 1.97586E+01 3.87378E-01-1.98059E-03 6.12731E-01-4.03086E-14-1.83459E-14
 -1      3688 1.97244E+01 4.09009E-01 1.93513E-03 6.68981E-01-7.72174E-14 2.82265E-14
 -1      3689 1.97249E+01 4.21652E-01 7.77418E-04 5.40599E-01-4.86588E-15-1.43607E-15
 -1      3690 1.96501E+01 4.22110E-01-2.20896E-03 7.34165E-01-7.05911E-14 6.58722E-14
 -1      3691 1.96226E+01 4.29423E-01 2.62708E-03 8.01696E-01-2.81532E-14 7.06142E-14
 -1      3692 1.95857E+01 4.70590E-01 6.67402E-04 6.55508E-01-5.43494E-14 5.46446E-14
 -1      3693 1.95488E+01 4.22050E-01-2.25034E-03 8.83738E-01-4.67086E-14 3.52188E-14
 -1      3694 1.95354E+01 4.03093E-01 3.66043E-03 9.63898E-01-5.99334E-14 4.29224E-14
 -1      3695 1.94433E+01 4.91511E-01 2.76629E-04 8.01147E-01-5.12739E-14 6.56775E-14
 -1      3696 1.94698E+01 3.61768E-01-1.94595E-03 1.06650E+00-3.54858E-14 4.27459E-14
 -1      3697 1.94835E+01 3.01347E-01 5.18232E-03 1.15983E+00-2.00949E-14 2.97837E-14
 -1      3698 1.93084E+01 4.59798E-01-6.35231E-04 9.85779E-01-2.84231E-14 8.44354E-14
 -1      3699 1.94399E+01 2.09212E-01-9.49387E-04 1.28680E+00-1.58860E-14-2.27631E-14
 -1      3700 1.95008E+01 8.81991E-02 7.23727E-03 1.39188E+00-4.64602E-14 1.08419E-13
 -1      3701 1.92005E+01 3.43899E-01-2.40448E-03 1.21906E+00-2.89016E-14 5.92136E-14
 -1      3702 1.95036E+01-7.50477E-02 1.38988E-03 1.54530E+00-3.88182E-14 1.63691E-13
 -1      3703 1.96414E+01-2.78931E-01 9.79795E-03 1.65521E+00-6.93857E-15 2.22088E-13
 -1      3704 1.91540E+01 1.02673E-01-5.74874E-03 1.51077E+00 5.03268E-14 1.41057E-13
 -1      3705 1.97338E+01-5.35115E-01 6.84522E-03 1.83077E+00 6.04528E-14 2.52801E-13
 -1      3706 1.99864E+01-8.45731E-01 1.11573E-02 1.92634E+00 1.66027E-13 2.28579E-13
 -1      3707 1.92274E+01-3.16752E-01-1.19756E-02 1.86616E+00 5.47216E-14 1.77352E-13
 -1      3708 2.02418E+01-1.19267E+00 2.17171E-02 2.09759E+00 1.75464E-13 2.31841E-13
 -1      3709 2.06728E+01-1.62744E+00 1.43262E-02 2.13287E+00 1.37531E-13 2.33914E-13
 -1      3710 1.95260E+01-9.71698E-01-2.07979E-02 2.26439E+00 1.31469E-13 1.16369E-13
 -1      3711 2.11850E+01-2.37397E+00 1.45318E-02 2.45326E+00 9.71818E-14 2.23669E-13
 -1      3712 1.96327E+01 5.74221E-01 3.21013E-04-6.65477E-01-7.77659E-14-2.88876E-14
 -1      3713 1.96971E+01 5.13626E-01-2.87046E-03-6.10947E-01-7.08870E-14-2.86744E-14
 -1      3714 1.62505E+01 3.10397E-01 1.78422E-02 2.51807E+00-5.71349E-14 1.27858E-14
 -1      3715 1.44781E+01 6.03115E-01 6.20041E-02 2.31526E+00-3.80295E-14 1.77367E-13
 -1      3716 2.36988E+01-3.02775E+00 3.16857E-02-1.09361E+00-8.41726E-14-4.99347E-13
 -1      3717 2.27261E+01-2.82916E+00-2.19311E-02-1.50903E+00-4.58236E-14-3.10882E-13
 -1      3718 2.21443E+01-2.41767E+00 3.33677E-02-1.73481E+00 1.17014E-13-2.10534E-13
 -1      3719 2.30662E+01-3.17258E+00-3.30609E-02-1.64205E+00 2.95441E-14-3.91418E-13
 -1      3720 2.11618E+01-1.97257E+00 2.22752E-03-2.03861E+00 1.53324E-14-5.61580E-14
 -1      3721 2.07010E+01-1.51327E+00 2.26573E-02-2.03866E+00-1.22778E-14-3.19755E-14
 -1      3722 2.03489E+01-1.12302E+00 1.13892E-02-1.91809E+00-6.16694E-15 3.00310E-14
 -1      3723 2.00277E+01-7.72410E-01 9.11824E-03-1.85419E+00 3.36059E-14 2.78465E-14
 -1      3724 1.99162E+01-1.31894E+00-2.88042E-02-2.30758E+00 2.58233E-14 8.43067E-14
 -1      3725 1.98657E+01-4.72149E-01 1.06965E-02-1.69143E+00-4.24368E-15 7.37872E-14
 -1      3726 1.96735E+01-2.27953E-01 2.60373E-03-1.59574E+00-7.28106E-14 7.17539E-14
 -1      3727 1.94539E+01-5.53456E-01-1.55066E-02-1.95356E+00-1.46547E-14 1.46889E-13
 -1      3728 1.96237E+01-2.46738E-02 8.05529E-03-1.43913E+00-1.45376E-13 3.52362E-14
 -1      3729 1.95223E+01 1.31143E-01-4.39073E-04-1.33744E+00-1.18725E-13 4.53705E-14
 -1      3730 1.92640E+01-3.66879E-02-7.96624E-03-1.60126E+00-1.09667E-13-4.78519E-14
 -1      3731 1.95338E+01 2.56046E-01 5.69478E-03-1.20063E+00-3.96569E-14 2.71187E-14
 -1      3732 1.94903E+01 3.44632E-01-1.78788E-03-1.10413E+00 2.35606E-14-2.42279E-14
 -1      3733 1.92318E+01 2.84280E-01-3.59164E-03-1.29426E+00-1.07207E-13-3.51308E-14
 -1      3734 1.95324E+01 4.11284E-01 3.90880E-03-9.88835E-01-4.38240E-14-2.14346E-13
 -1      3735 1.95232E+01 4.51753E-01-2.24685E-03-9.01630E-01-1.35990E-13-3.18915E-13
 -1      3736 1.92841E+01 4.62233E-01-1.04470E-03-1.03882E+00-1.50245E-13-4.28094E-13
 -1      3737 1.95780E+01 4.77661E-01 2.65847E-03-8.06031E-01-1.34415E-13-9.15758E-14
 -1      3738 1.95872E+01 4.85804E-01-2.31097E-03-7.29325E-01-8.21228E-14-3.09083E-13
 -1      3739 1.93768E+01 5.39826E-01 3.33321E-04-8.29526E-01-4.57342E-14-3.57660E-13
 -1      3740 1.96443E+01 4.85218E-01 1.80853E-03-6.50739E-01 9.96215E-14-2.22287E-13
 -1      3741 1.96619E+01 4.73415E-01-2.17447E-03-5.84462E-01 9.35524E-14-1.58061E-13
 -1      3742 1.94833E+01 5.50859E-01 9.70129E-04-6.59175E-01 9.42835E-14 4.62844E-14
 -1      3743 1.97155E+01 4.57187E-01 1.26857E-03-5.20065E-01 1.39390E-13-8.99034E-14
 -1      3744 1.97359E+01 4.34346E-01-1.85877E-03-4.63598E-01 1.97381E-13-4.60145E-14
 -1      3745 1.95884E+01 5.21175E-01 1.17960E-03-5.20734E-01 1.80409E-13 2.02398E-13
 -1      3746 1.97831E+01 4.10288E-01 1.04581E-03-4.10747E-01 8.02321E-14 6.07800E-15
 -1      3747 1.98018E+01 3.83079E-01-1.45507E-03-3.63460E-01 7.83904E-14 2.08281E-13
 -1      3748 1.96832E+01 4.69135E-01 8.47967E-04-4.08583E-01 2.30288E-13 1.36549E-13
 -1      3749 1.84802E+01 9.84466E-01 1.22973E-03-1.27911E+00-1.28919E-13-3.38527E-15
 -1      3750 1.86356E+01 9.61995E-01-8.46267E-03-1.16503E+00-4.29106E-14-2.05009E-14
 -1      3751 1.88702E+01 9.29090E-01 3.45636E-04-1.07642E+00-7.77481E-15-3.53935E-14
 -1      3752 1.89998E+01 8.78780E-01-6.20523E-03-9.84702E-01-7.23972E-14-4.45742E-14
 -1      3753 1.85086E+01 1.04072E+00 8.43680E-03-9.56670E-01-4.72239E-14-9.10795E-14
 -1      3754 1.74490E+01 7.42720E-01 4.07231E-03-1.93917E+00-2.29174E-14-7.54019E-14
 -1      3755 1.76229E+01 8.64847E-01-1.73077E-02-1.71965E+00-2.54590E-14-4.09039E-14
 -1      3756 1.66427E+01-1.23587E-01 1.13078E-02-2.98996E+00-2.77508E-14-1.43878E-13
 -1      3757 2.19714E+01-3.09300E+00 1.89904E-02-2.60454E+00 1.68808E-13-2.89552E-13
 -1      3758 1.92411E+01-1.84613E+00 2.35198E-02-3.27811E+00 2.78649E-13 9.34010E-14
 -1      3759 2.08662E+01-2.61652E+00-2.24456E-02-2.93014E+00 1.55456E-13-1.34786E-13
 -1      3760 1.94193E+01 7.35710E-01-3.87272E-03 6.50747E-01 2.33601E-13-3.77546E-14
 -1      3761 1.93402E+01 7.96545E-01-1.58511E-04 7.24889E-01 7.34806E-14-2.73142E-14
 -1      3762 2.03309E+01 5.34463E-01 1.02425E-03 4.30232E-02-4.61822E-14-8.75438E-14
 -1      3763 2.03085E+01 4.42057E-01-1.46230E-03 1.04730E-01-3.64254E-14-6.19546E-14
 -1      3764 1.91976E+01 8.53331E-01-4.94326E-03 7.92006E-01-1.59491E-13 1.20797E-13
 -1      3765 1.90941E+01 9.09872E-01-1.54757E-04 8.77924E-01-1.74123E-13 1.83746E-13
 -1      3766 1.91124E+01 8.97582E-01 5.45176E-03 6.57023E-01 2.70378E-14 1.24762E-13
 -1      3767 2.03242E+01 9.96079E-01 6.20691E-03 2.82435E-01 1.60946E-13-5.73628E-14
 -1      3768 2.02683E+01 1.33806E+00-5.28262E-03 3.73723E-01 1.89139E-13-7.33580E-14
 -1      3769 1.85409E+01 1.02045E+00-8.85961E-03 1.15677E+00-2.04568E-13 4.81997E-13
 -1      3770 1.83821E+01 1.03269E+00 1.06313E-03 1.28101E+00-1.56060E-13 5.14244E-13
 -1      3771 2.01901E+01 1.72883E+00-2.81184E-03-3.10732E-02 7.73889E-14-1.87696E-13
 -1      3772 2.01946E+01 1.70900E+00-3.45365E-03-1.15757E-01 4.60184E-14-1.66694E-13
 -1      3773 2.02673E+01 1.50122E+00 5.46409E-03 1.65294E-03 5.97398E-14-1.69905E-13
 -1      3774 1.48794E+01-1.30382E-01 9.92724E-02-3.26838E+00 1.09710E-13 1.69642E-13
 -1      3775 1.68083E+01-1.16777E+00-1.01100E-02-3.69283E+00 2.43886E-13 2.94643E-14
 -1      3776 1.95874E+01 6.18608E-01-3.14626E-03 5.28756E-01 3.90434E-13-1.90640E-13
 -1      3777 1.95287E+01 6.77604E-01-1.02170E-05 5.92811E-01 3.02792E-13-8.11243E-14
 -1      3778 1.93532E+01 7.68953E-01 4.14292E-03 5.44596E-01 3.26252E-13-1.97328E-13
 -1      3779 1.97134E+01 5.10524E-01-2.51912E-03 4.23717E-01 1.70220E-13 1.31224E-14
 -1      3780 1.96710E+01 5.64555E-01 3.39154E-04 4.78948E-01 3.10352E-13-1.40807E-14
 -1      3781 1.95367E+01 6.44169E-01 2.96091E-03 4.45858E-01 1.91513E-13 1.05289E-13
 -1      3782 1.98048E+01 4.16214E-01-2.08535E-03 3.33484E-01 1.70557E-13 2.73231E-14
 -1      3783 1.97766E+01 4.62984E-01 6.66271E-04 3.81726E-01 2.14225E-13 1.77195E-14
 -1      3784 1.96744E+01 5.30413E-01 1.71114E-03 3.60802E-01 1.62708E-13 2.08921E-13
 -1      3785 1.80783E+01 1.00468E+00-1.29047E-02 1.41032E+00-2.38072E-13 4.57389E-13
 -1      3786 1.78907E+01 9.51268E-01-2.12227E-03 1.57022E+00-2.62681E-13 2.47402E-13
 -1      3787 1.78930E+01 1.16094E+00 1.94627E-02 1.15005E+00-2.81380E-13 2.35945E-13
 -1      3788 1.99244E+01 2.67102E-01-3.72410E-04-2.36936E-01 5.20006E-14 4.92688E-13
 -1      3789 1.98880E+01 3.03092E-01-2.87164E-04-2.53714E-01 2.82009E-13 2.29192E-13
 -1      3790 1.97905E+01 4.58891E-01 4.52893E-04-5.69303E-01-3.77945E-14-6.37993E-15
 -1      3791 1.98417E+01 4.07146E-01-2.16335E-03-5.23109E-01 5.22306E-15-2.61531E-14
 -1      3792 1.96779E+01 5.31391E-01 2.55141E-03-5.24682E-01-4.88310E-14 2.07703E-14
 -1      3793 1.99191E+01 2.85437E-01-9.92326E-04 2.23753E-01 1.03704E-13 1.08606E-13
 -1      3794 2.02574E+01 5.32711E-01-1.37133E-03 6.58161E-02 1.14548E-13-2.46456E-14
 -1      3795 2.02770E+01 6.34717E-01 1.92514E-03 1.64564E-01 1.35066E-13-1.84911E-14
 -1      3796 2.02955E+01 7.57037E-01-2.14285E-03 2.02848E-01 1.51222E-13-4.74153E-14
 -1      3797 2.02899E+01 5.58192E-01-1.78844E-03 3.75038E-02 1.23862E-13-6.11552E-14
 -1      3798 2.02507E+01 1.44497E+00-2.27797E-03 3.13214E-01 1.67438E-13-9.14705E-14
 -1      3799 1.37583E+01 8.90976E-01 9.61591E-03 1.23608E+00-6.55535E-14 3.64875E-13
 -1      3800 2.01851E+01 2.58993E-01-2.07234E-04-2.81232E-01 7.73944E-14-7.27177E-14
 -1      3801 2.02154E+01 2.79964E-01 3.77971E-04-2.39631E-01 4.35232E-14-5.20878E-14
 -1      3802 2.02475E+01 3.15068E-01-7.25731E-04-2.01064E-01 4.38861E-14-3.02850E-14
 -1      3803 2.02750E+01 3.67551E-01 8.48036E-04-1.48824E-01 8.08603E-14-3.51357E-14
 -1      3804 2.02524E+01 3.38449E-01 4.17712E-04-1.93694E-01 5.36026E-14-8.39891E-14
 -1      3805 1.45055E+01 8.75468E-01 7.80449E-02-1.81628E+00 6.49778E-14-2.85439E-13
 -1      3806 1.53707E+01 3.93262E-01-2.07843E-02-2.43342E+00 2.83394E-14-2.36901E-13
 -1      3807 1.98131E+01 3.63847E-01 9.24313E-04-2.32652E-01 2.43219E-13-1.58386E-13
 -1      3808 1.97720E+01 3.87530E-01-1.56815E-03-1.96923E-01 1.91789E-13-2.55029E-13
 -1      3809 1.89093E+01 9.56647E-01-6.45395E-03 9.57289E-01-1.35898E-13 3.35266E-13
 -1      3810 1.87791E+01 9.98512E-01 3.19804E-04 1.05851E+00-1.10723E-13 5.35891E-13
 -1      3811 1.83940E+01 1.11479E+00 9.40917E-03 9.42300E-01-1.91882E-13 4.12224E-13
 -1      3812 1.87989E+01 1.01905E+00 7.12536E-03 7.86626E-01-4.16553E-14 4.44750E-13
 -1      3813 1.97404E+01 4.15701E-01 2.72461E-04-1.50760E-01 5.66975E-14-2.39431E-13
 -1      3814 1.97160E+01 4.31113E-01-1.16645E-03-1.06026E-01-1.15568E-14-2.46388E-14
 -1      3815 1.97223E+01 4.34960E-01 1.27776E-03-1.95403E-01 7.45098E-14-8.79043E-14
 -1      3816 1.98795E+01 3.27469E-01-5.90426E-04 2.38170E-01-2.47549E-14 1.25944E-13
 -1      3817 2.02874E+01 3.72133E-01 6.44108E-04 1.47857E-01-4.19141E-14-5.92166E-14
 -1      3818 2.02586E+01 3.19177E-01-7.10597E-04 1.95170E-01-4.86318E-14-5.81695E-14
 -1      3819 2.03160E+01 4.54797E-01 7.76282E-04 1.05806E-01-2.70539E-14-7.49971E-14
 -1      3820 2.02033E+01 1.67493E+00-2.46734E-03-1.80141E-01 2.71063E-14-1.82606E-13
 -1      3821 2.02153E+01 1.61320E+00-5.01384E-03-2.58241E-01 1.56822E-15-1.92005E-13
 -1      3822 2.02750E+01 1.46880E+00 6.61930E-03-1.16228E-01 2.42873E-14-1.61901E-13
 -1      3823 1.80061E+01 9.44970E-01 3.07935E-03-1.54890E+00-1.97059E-14-4.38625E-14
 -1      3824 1.81824E+01 9.75001E-01-1.16479E-02-1.39814E+00-7.09862E-14-7.25873E-15
 -1      3825 1.73626E+01 1.08203E+00 1.95883E-02-1.39499E+00-2.90996E-14-2.05859E-13
 -1      3826 2.03499E+01 7.95317E-01 4.19210E-03-9.56792E-02-5.74678E-14-1.20257E-13
 -1      3827 2.03340E+01 6.48794E-01-2.39696E-03-1.28826E-02-5.58212E-14-1.00984E-13
 -1      3828 2.03462E+01 6.53653E-01 6.38475E-04 6.29003E-03-4.01697E-14-1.03555E-13
 -1      3829 2.36073E+01 3.16664E+00-1.21536E-01-1.10114E+00-1.40540E-13 1.97969E-13
 -1      3830 2.01480E+01-2.09128E+00-2.55117E-02 2.88267E+00 1.29092E-13 1.96350E-13
 -1      3831 1.64825E+01 3.04090E-01 1.74906E-02-2.49095E+00 5.29264E-15-1.57886E-13
 -1      3832 1.98379E+01 3.44423E-01-5.77022E-04-2.68281E-01 2.67180E-13 6.43461E-14
 -1      3833 1.98574E+01 3.62186E-01 1.71094E-05 2.74919E-01 1.62615E-15-1.38894E-14
 -1      3834 1.97840E+01 4.16716E-01 2.95433E-05 2.61400E-01 7.94700E-14 2.72152E-14
 -1      3835 2.02568E+01 3.38580E-01 5.31884E-04 1.84094E-01-3.90046E-14-4.46060E-14
 -1      3836 1.91115E+01-1.48412E+00 7.38323E-03 2.99279E+00 1.33654E-13 1.08957E-13
 -1      3837 2.03225E+01 1.00009E+00-3.09523E-03-1.57166E-01-3.88226E-14-1.30250E-13
 -1      3838 1.65031E+01 5.63561E-01-2.28384E-02 2.19036E+00-7.31967E-14 3.55848E-14
 -1      3839 1.95165E+01 6.35312E-01-3.69619E-03-7.14714E-01-5.71939E-14-2.38055E-14
 -1      3840 1.94774E+01 6.58441E-01 3.57733E-03-6.08066E-01-5.71221E-14-7.23377E-14
 -1      3841 1.94345E+01 7.00247E-01 1.64791E-04-7.79251E-01-5.79340E-14-2.77250E-14
 -1      3842 1.98166E+01 3.72381E-01 6.05959E-04-3.06868E-01 1.40654E-13 1.93336E-15
 -1      3843 2.12770E+01-2.29023E+00 4.99597E-03-2.24455E+00 1.19030E-13-1.61596E-13
 -1      3844 1.97385E+01 4.23413E-01-3.11525E-04-3.00122E-01 2.73962E-14 8.13870E-14
 -1      3845 1.80015E+01 1.10412E+00 1.16371E-02-1.13908E+00-6.53261E-14-1.28501E-13
 -1      3846 1.37633E+01 1.16557E+00 7.36024E-02 6.20519E-01-8.67188E-15 3.44787E-13
 -1      3847 1.40599E+01 1.10308E+00 1.92545E-02-7.75050E-02 7.57085E-14 3.40537E-13
 -1      3848 1.50081E+01 1.00170E+00-9.96758E-03 1.36123E+00-3.07511E-14 3.36388E-13
 -1      3849 1.66827E+01 6.03111E-01-8.00539E-03-2.16291E+00 2.81485E-14-1.17869E-13
 -1      3850 2.00501E+01 2.53691E-01 2.95131E-04-4.38583E-01 5.85223E-14-2.61780E-14
 -1      3851 1.62531E+01 9.56844E-01 2.92188E-02-1.69665E+00 2.98567E-14-1.87497E-13
 -1      3852 1.81137E+01-1.38302E+00 8.89963E-04-3.43632E+00 1.85147E-13 1.47708E-13
 -1      3853 1.94379E+01-1.23920E+00 2.53975E-02-2.62678E+00 6.55890E-14-2.25514E-17
 -1      3854 1.90435E+01-8.05639E-01 8.31943E-03-2.44339E+00 5.57745E-14 1.03566E-13
 -1      3855 1.72092E+01-5.82386E-01-1.92375E-02-2.95458E+00-7.74771E-16 2.89586E-14
 -1      3856 2.02969E+01 1.34854E+00 6.34457E-03-2.26136E-01-1.41788E-14-1.64666E-13
 -1      3857 1.96678E+01 4.76607E-01 1.38023E-03-8.96253E-02 4.21459E-14-1.70399E-13
 -1      3858 1.97022E+01 4.45321E-01-3.38674E-04-5.02990E-02 1.25719E-13-1.28843E-13
 -1      3859 1.96963E+01 4.49275E-01-1.39195E-03-1.67648E-03 3.72682E-13 1.03060E-13
 -1      3860 2.03166E+01 8.62511E-01-1.01448E-04 1.86721E-01 1.40681E-13-5.91006E-14
 -1      3861 2.02972E+01 1.28757E+00-2.76967E-03 2.75698E-02 7.36392E-14-1.33145E-13
 -1      3862 2.02961E+01 1.28740E+00-3.14470E-03-2.52712E-02 4.75515E-14-1.61825E-13
 -1      3863 1.46544E+01 3.29130E-01 3.93502E-02-2.33199E+00 1.43691E-13 3.23202E-13
 -1      3864 1.71605E+01 1.13086E+00 1.88962E-02 1.40910E+00-3.58826E-13 5.22152E-14
 -1      3865 1.74552E+01 8.84324E-01-1.95314E-02 1.73634E+00-1.81090E-13 9.80432E-14
 -1      3866 1.72254E+01 7.70882E-01 8.30382E-03 1.95012E+00-1.89067E-13 7.73557E-15
 -1      3867 1.97332E+01 4.42815E-01-8.54622E-04 2.06020E-01 3.01217E-13 5.56587E-14
 -1      3868 1.96792E+01 5.05846E-01 1.41501E-03 2.62526E-01 2.35554E-13 2.30816E-13
 -1      3869 1.97012E+01 4.62231E-01-9.20837E-04 1.62142E-01 4.30277E-13 2.16303E-13
 -1      3870 1.52596E+01 5.05975E-01-1.20656E-02 1.96167E+00 1.68402E-13 7.28584E-17
 -1      3871 1.45185E+01 9.12442E-01 6.57534E-02 1.46684E+00 1.68345E-13-1.20153E-13
 -1      3872 1.91844E+01 8.24716E-01 8.49284E-05-9.14195E-01-1.02501E-13 1.17346E-14
 -1      3873 1.92884E+01 7.62092E-01-4.74392E-03-8.37758E-01-7.80603E-14-1.91195E-14
 -1      3874 1.92263E+01 7.95178E-01 4.87238E-03-7.04880E-01-8.86740E-14-4.71372E-14
 -1      3875 2.01104E+01 2.55128E-01 1.92903E-04-3.49875E-01 2.67264E-14-3.40191E-14
 -1      3876 2.01430E+01 2.51309E-01-2.52526E-04-3.13286E-01 5.32815E-14-6.29642E-14
 -1      3877 2.01767E+01 2.89321E-01 4.63277E-04-2.65257E-01 5.88001E-14-7.16609E-14
 -1      3878 2.02906E+01 4.21643E-01-1.35866E-03-1.07625E-01 8.46834E-14-3.91676E-14
 -1      3879 2.03090E+01 4.91986E-01 1.52612E-03-4.90815E-02 1.06346E-13-4.94699E-14
 -1      3880 2.03043E+01 4.39804E-01 4.72367E-04-1.12313E-01 7.19783E-14-7.25034E-15
 -1      3881 1.98400E+01 4.23195E-01 1.73896E-03-4.52220E-01 1.71133E-14 5.53772E-14
 -1      3882 1.99178E+01 3.62647E-01 5.00064E-04-4.87534E-01 2.41206E-14-3.14387E-14
 -1      3883 1.99599E+01 3.23282E-01-1.51133E-03-4.47664E-01 3.87569E-14-9.91802E-15
 -1      3884 1.44550E+01 1.01578E+00-2.50014E-02 7.26698E-01 1.85644E-13-2.19875E-13
 -1      3885 2.03033E+01 1.26741E+00 4.20885E-03 2.16414E-01 1.58266E-13-1.02509E-13
 -1      3886 1.68316E+01-7.53979E-01 3.42656E-02 3.27724E+00 1.13617E-13 9.60950E-15
 -1      3887 2.03017E+01 1.23316E+00-4.24550E-03 1.11958E-01 1.15053E-13-1.44618E-13
 -1      3888 2.02996E+01 1.27259E+00-2.10698E-03 6.42214E-02 8.31814E-14-1.20912E-13
 -1      3889 2.03462E+01 1.10333E+00 5.40792E-03 3.09269E-02 6.69399E-14-1.04250E-13
 -1      3890 1.44952E+01 1.00184E+00 2.42690E-03-9.48967E-01 1.11575E-13-3.33131E-13
 -1      3891 1.89097E+01 9.28632E-01 6.45908E-03-8.18627E-01-6.43441E-14-7.91559E-14
 -1      3892 1.90430E+01 8.93044E-01-4.01487E-03 4.97601E-01 2.10569E-13 1.21726E-13
 -1      3893 1.89040E+01 9.58530E-01-2.23304E-03 5.48724E-01 4.81126E-14 2.42662E-13
 -1      3894 1.81814E+01 1.09697E+00-4.18624E-03-7.66185E-01-4.41230E-14-4.96599E-14
 -1      3895 1.84113E+01 1.04560E+00-7.05270E-03-7.03753E-01 1.98700E-14-2.13549E-14
 -1      3896 2.02022E+01 3.12877E-01-4.61157E-04 1.92374E-01-1.20615E-14-2.31243E-14
 -1      3897 2.01582E+01 3.00230E-01-1.53139E-04 2.22992E-01-2.06961E-14 4.30207E-15
 -1      3898 2.01003E+01 2.99039E-01-8.27547E-04 2.45727E-01-1.20388E-14-1.54519E-14
 -1      3899 2.00498E+01 3.08359E-01 1.95915E-04 2.75842E-01 1.40134E-14-5.68214E-15
 -1      3900 2.01274E+01 3.26245E-01 7.82269E-04 1.88541E-01-6.52511E-15-7.54057E-15
 -1      3901 1.99808E+01 3.25219E-01-1.24960E-03 3.01208E-01 2.10730E-14 4.86372E-15
 -1      3902 1.99247E+01 3.49869E-01 5.19913E-04 3.34346E-01 2.77166E-14-2.87976E-14
 -1      3903 2.00029E+01 3.44648E-01 9.14513E-04 2.35322E-01 4.47958E-15 2.65879E-14
 -1      3904 1.98447E+01 3.78292E-01-1.69676E-03 3.65572E-01 2.99722E-14-5.46645E-14
 -1      3905 1.97834E+01 4.11524E-01 8.18574E-04 4.05104E-01 1.56819E-14-4.63185E-14
 -1      3906 1.98581E+01 3.96299E-01 1.21117E-03 2.89568E-01 1.05886E-14 4.11547E-14
 -1      3907 1.96922E+01 4.44557E-01-2.25042E-03 4.45357E-01 5.23355E-14-3.82293E-14
 -1      3908 1.96268E+01 4.79649E-01 1.20095E-03 4.94362E-01 4.52310E-14 4.26409E-15
 -1      3909 1.96927E+01 4.67807E-01 1.59213E-03 3.58129E-01 6.81060E-14 2.86454E-14
 -1      3910 1.95236E+01 5.10067E-01-2.87119E-03 5.47636E-01-5.33056E-14 1.63504E-14
 -1      3911 1.94561E+01 5.38911E-01 1.79021E-03 6.09761E-01-6.55604E-14 5.70054E-14
 -1      3912 1.95053E+01 5.44684E-01 1.71058E-03 4.47023E-01 1.93094E-14-4.66584E-15
 -1      3913 1.93413E+01 5.57352E-01-3.50729E-03 6.80699E-01-3.94447E-14 7.31018E-14
 -1      3914 1.92759E+01 5.69868E-01 2.72521E-03 7.59944E-01-1.36923E-14 7.84819E-14
 -1      3915 1.92963E+01 6.11739E-01 1.95232E-03 5.66100E-01-3.35093E-14 2.93205E-14
 -1      3916 1.91506E+01 5.64859E-01-4.20696E-03 8.54661E-01-1.11254E-14-1.62466E-15
 -1      3917 1.90953E+01 5.48364E-01 4.20873E-03 9.56024E-01-3.71121E-14-1.41286E-14
 -1      3918 1.90667E+01 6.48805E-01 1.98333E-03 7.25951E-01-5.73422E-14-1.14127E-14
 -1      3919 1.89633E+01 5.05092E-01-4.83996E-03 1.08283E+00-2.99922E-14-1.03497E-14
 -1      3920 1.89321E+01 4.43264E-01 6.64232E-03 1.21228E+00-2.72561E-14 1.10185E-14
 -1      3921 1.88211E+01 6.31050E-01 1.62001E-03 9.42090E-01-4.15639E-14-7.72050E-14
 -1      3922 1.88021E+01 3.42428E-01-5.01894E-03 1.38280E+00 1.49157E-14 6.36438E-14
 -1      3923 1.88183E+01 2.11661E-01 9.75854E-03 1.54702E+00 4.03952E-14 4.81777E-14
 -1      3924 1.85708E+01 5.26099E-01 6.43828E-04 1.23580E+00 1.39728E-14 1.76456E-14
 -1      3925 1.87108E+01 3.26126E-02-2.82507E-03 1.77162E+00 5.09354E-14 7.92049E-14
 -1      3926 1.88136E+01-1.97195E-01 1.56269E-02 1.97698E+00 1.07855E-13 1.21407E-13
 -1      3927 1.83412E+01 2.85069E-01-2.28406E-03 1.63490E+00 4.94257E-14 4.00904E-14
 -1      3928 1.87677E+01-4.95233E-01 1.91267E-03 2.26937E+00 1.39812E-13 9.93277E-14
 -1      3929 1.90345E+01-8.56366E-01 2.41823E-02 2.49564E+00 1.34548E-13 1.06825E-13
 -1      3930 1.81704E+01-1.61620E-01-1.45874E-02 2.17594E+00 1.02190E-13 6.95694E-14
 -1      3931 1.89997E+01-4.46609E-01 1.66167E-02-2.13081E+00-1.33757E-14 5.78056E-14
 -1      3932 1.88254E+01-1.60787E-01-1.23261E-03-1.93384E+00-3.06703E-14 1.27038E-14
 -1      3933 1.82944E+01-4.24663E-01-6.85523E-03-2.42905E+00 4.06875E-14-3.91707E-14
 -1      3934 1.88867E+01 7.40521E-02 1.20366E-02-1.68200E+00-1.02524E-13-1.11516E-13
 -1      3935 1.88218E+01 2.48722E-01-3.44414E-03-1.51110E+00-1.12303E-13-1.59302E-13
 -1      3936 1.83344E+01 1.41979E-01-2.59520E-03-1.83423E+00-1.42275E-13-1.13300E-13
 -1      3937 1.89230E+01 3.88013E-01 7.62189E-03-1.31883E+00-8.80044E-14-1.08311E-13
 -1      3938 1.89211E+01 4.84673E-01-4.26807E-03-1.17841E+00-1.17399E-13-1.78409E-13
 -1      3939 1.85016E+01 4.69144E-01-3.46182E-04-1.38218E+00-1.15866E-13-1.82846E-13
 -1      3940 1.90344E+01 5.57345E-01 4.86982E-03-1.03211E+00-2.89792E-13-5.41187E-14
 -1      3941 1.90659E+01 5.99696E-01-3.91642E-03-9.18601E-01-2.79459E-13-9.71782E-14
 -1      3942 1.87122E+01 6.44567E-01 1.68145E-03-1.04637E+00-1.55570E-13 1.34317E-13
 -1      3943 1.91763E+01 6.26093E-01 3.06550E-03-8.07391E-01 1.05519E-14-6.56105E-14
 -1      3944 1.92226E+01 6.31947E-01-3.50086E-03-7.16005E-01 1.62946E-13-2.85496E-14
 -1      3945 1.89290E+01 7.11569E-01 2.28218E-03-7.94304E-01-1.38085E-13 3.06173E-13
 -1      3946 1.93236E+01 6.28170E-01 1.85348E-03-6.30812E-01 1.96427E-13-4.07664E-14
 -1      3947 1.93739E+01 6.11029E-01-3.16709E-03-5.57182E-01 2.24178E-13 9.95815E-14
 -1      3948 1.91325E+01 7.09289E-01 2.23987E-03-6.04587E-01 1.20315E-13 1.84259E-13
 -1      3949 1.94630E+01 5.89824E-01 1.27582E-03-4.92050E-01 2.18808E-13 2.33676E-13
 -1      3950 1.95112E+01 5.60065E-01-2.56323E-03-4.32230E-01 2.17541E-13 2.83812E-13
 -1      3951 1.93155E+01 6.64350E-01 2.17395E-03-4.61525E-01 3.54605E-13 1.04210E-13
 -1      3952 1.95874E+01 5.29092E-01 9.91885E-04-3.81797E-01 1.68833E-13 1.76094E-13
 -1      3953 1.96304E+01 4.94301E-01-1.69651E-03-3.34248E-01 1.56539E-13 6.58525E-14
 -1      3954 1.94725E+01 5.94585E-01 1.16856E-03-3.52726E-01 1.01742E-13 1.37358E-13
 -1      3955 2.00225E+01 2.92419E-01 4.21487E-04-4.16230E-01 5.76558E-14-3.76564E-14
 -1      3956 2.00586E+01 2.68874E-01-8.76807E-04-3.79866E-01 4.45435E-14-5.39081E-14
 -1      3957 1.99732E+01 3.41558E-01 1.14143E-03-3.87893E-01 3.75799E-14-2.66544E-14
 -1      3958 1.94921E+01 6.38925E-01-2.77432E-03 3.46415E-01 4.94793E-14 3.74352E-13
 -1      3959 1.94127E+01 7.01124E-01-8.81345E-04 3.87786E-01 1.17064E-13 2.34187E-13
 -1      3960 1.49396E+01 1.28148E+00 5.69865E-02-1.37191E-01 1.95198E-13-3.33474E-13
 -1      3961 1.54317E+01 1.06410E+00-2.35635E-02-1.07155E+00 6.41267E-14-1.86201E-13
 -1      3962 1.62736E+01 1.13615E+00-1.56625E-02-1.00302E+00 5.48814E-14-1.55794E-13
 -1      3963 1.43573E+01 8.65190E-01 2.17340E-02-1.55946E+00 9.92409E-14 5.66119E-13
 -1      3964 1.56298E+01 1.78123E-01-1.44685E-02-2.46572E+00 4.52104E-14 2.37694E-13
 -1      3965 1.92976E+01 7.62917E-01-3.23166E-03 4.18647E-01 2.32676E-13 2.44121E-13
 -1      3966 1.91917E+01 8.28347E-01-1.59234E-03 4.64721E-01 2.95044E-13 1.41193E-13
 -1      3967 1.92864E+01 7.71015E-01 3.95202E-03 3.13671E-01 2.23171E-14 4.13972E-13
 -1      3968 2.02839E+01 3.81699E-01 1.54639E-05 1.34386E-01-3.16136E-14-4.62251E-14
 -1      3969 2.02477E+01 3.39165E-01-6.12445E-04 1.69267E-01-2.32797E-14-4.46642E-14
 -1      3970 2.02303E+01 3.54603E-01 7.94143E-04 1.43402E-01-1.63527E-14-2.55411E-14
 -1      3971 1.77008E+01 1.20169E+00-1.38731E-02 7.94644E-01-3.83123E-13 2.28869E-13
 -1      3972 1.73835E+01 1.21593E+00-1.39967E-02 9.12294E-01-3.90588E-13 2.41828E-13
 -1      3973 1.61612E+01 2.08943E-01 1.30106E-02 2.39578E+00 1.04424E-13 6.90719E-14
 -1      3974 1.59687E+01 5.95793E-01-1.33878E-02 1.74224E+00 1.44646E-13-1.06959E-14
 -1      3975 2.03569E+01 7.49227E-01-1.72838E-03-2.66477E-02-2.64079E-14-1.11552E-13
 -1      3976 2.03488E+01 6.24220E-01-1.86252E-03 3.15216E-02-8.43116E-16-1.02804E-13
 -1      3977 1.96678E+01 4.77890E-01 1.27364E-03-2.89970E-01 2.41162E-14 3.40035E-14
 -1      3978 1.96853E+01 4.57663E-01-3.16872E-04-2.30376E-01 1.78737E-15-9.86257E-14
 -1      3979 1.96466E+01 4.83144E-01-1.05035E-03-1.82030E-01-8.34342E-14 6.17475E-14
 -1      3980 1.95764E+01 5.32556E-01-2.33389E-04-2.60964E-01 1.22254E-14 1.06605E-14
 -1      3981 2.03284E+01 7.39417E-01 3.19568E-03 1.09376E-01 1.28083E-13-5.09289E-14
 -1      3982 2.03279E+01 9.50298E-01-1.11629E-03 1.70224E-01 1.42260E-13-6.98195E-14
 -1      3983 2.03199E+01 6.38883E-01-8.59595E-04 3.64324E-02 1.34574E-13-6.09145E-14
 -1      3984 1.75503E+01 1.15629E+00-1.00657E-02-8.93522E-01-3.51184E-14-9.22376E-14
 -1      3985 1.78593E+01 1.13760E+00-9.85770E-03-8.03479E-01-5.26099E-14-8.34158E-14
 -1      3986 1.78702E+01 1.18227E+00 1.34626E-02-5.34529E-01 5.46275E-15-2.77870E-14
 -1      3987 1.81886E+01-1.04705E+00-1.05773E-02 3.06138E+00 1.22072E-13 5.51443E-14
 -1      3988 2.02487E+01 3.42318E-01-8.34430E-04-1.82618E-01 8.17766E-14-7.80635E-14
 -1      3989 2.02840E+01 3.85931E-01 2.90475E-04-1.43206E-01 6.76456E-14-4.68713E-14
 -1      3990 1.68456E+01-1.80592E-01 1.42004E-03 2.64572E+00 1.10318E-13 5.50003E-14
 -1      3991 2.03304E+01 1.02557E+00-2.01434E-03 1.66167E-01 1.44282E-13-9.24128E-14
 -1      3992 2.03149E+01 1.18609E+00 8.58705E-04 1.36393E-01 1.37679E-13-1.41008E-13
 -1      3993 2.03508E+01 1.02830E+00 4.72279E-03 7.70402E-02 1.04598E-13-1.00499E-13
 -1      3994 2.03403E+01 8.92326E-01-1.05679E-03 8.89538E-02 1.40093E-13-1.01246E-13
 -1      3995 1.96833E+01 4.65584E-01-4.99322E-04 5.34168E-02 5.29082E-13 3.56984E-13
 -1      3996 1.96957E+01 4.57386E-01-1.38054E-03 1.01850E-01 4.36982E-13 2.56869E-13
 -1      3997 1.96200E+01 5.28434E-01 9.37007E-04 1.39196E-01 5.06142E-13 2.53137E-13
 -1      3998 1.96310E+01 5.05130E-01-1.42501E-04 2.25711E-02 4.02647E-13 6.01877E-14
 -1      3999 2.03216E+01 1.07942E+00-1.00146E-03-1.19992E-01-1.59319E-14-1.42755E-13
 -1      4000 1.61147E+01 9.38414E-01 3.03209E-02 1.74780E+00-1.14977E-13 1.14958E-13
 -1      4001 2.03402E+01 5.21118E-01 4.85868E-04 6.32245E-02-1.16857E-14-8.53910E-14
 -1      4002 2.03135E+01 4.40998E-01-1.25150E-03 1.06878E-01-2.35238E-14-6.43997E-14
 -1      4003 2.03522E+01 6.10454E-01-3.49442E-04 3.53640E-02-5.30183E-15-8.54553E-14
 -1      4004 2.03058E+01 1.21941E+00-4.50986E-03-1.09823E-01 1.46349E-14-1.57215E-13
 -1      4005 2.03560E+01 9.25062E-01 3.66728E-03-5.65937E-02-1.68273E-14-1.15479E-13
 -1      4006 2.03558E+01 8.89224E-01 1.12018E-03-3.04585E-02 6.32480E-15-1.08797E-13
 -1      4007 2.03017E+01 1.26030E+00-2.28208E-03-5.80264E-02 2.77949E-14-1.46887E-13
 -1      4008 1.95724E+01 5.82153E-01-7.49413E-04-4.53447E-01-6.30280E-14 3.52387E-14
 -1      4009 1.96629E+01 5.21385E-01-2.22348E-03-4.18615E-01-6.86698E-15 8.70884E-14
 -1      4010 1.67510E+01 1.13693E+00-1.97839E-02-1.00713E+00 3.08145E-14-1.17591E-13
 -1      4011 1.71599E+01 1.17276E+00-1.57241E-02-8.80594E-01 1.86602E-15-1.16698E-13
 -1      4012 1.72000E+01 1.27534E+00 2.81477E-02-5.18968E-01-1.19869E-14-4.16459E-14
 -1      4013 1.63171E+01 1.35733E+00 4.71374E-02-4.21622E-01 5.40399E-14-1.11326E-13
 -1      4014 2.03474E+01 1.09097E+00 4.93633E-03-2.47966E-02 4.00100E-14-1.25520E-13
 -1      4015 1.53986E+01 1.11056E+00-1.68396E-02 4.34821E-01 1.81641E-13-2.29223E-13
 -1      4016 1.86601E+01 9.87898E-01-2.55885E-03-6.70136E-01-8.32028E-15-6.45837E-14
 -1      4017 1.88400E+01 9.21838E-01-5.05685E-03-6.19144E-01-7.00597E-14-6.26406E-14
 -1      4018 1.84140E+01 1.06977E+00 8.86296E-03-4.91301E-01-3.80187E-14-4.35422E-14
 -1      4019 1.96209E+01 5.42631E-01-1.73795E-03 2.85555E-01 1.55227E-13 2.40123E-13
 -1      4020 1.95600E+01 5.98447E-01-5.41551E-05 3.20741E-01 1.30436E-13 3.83132E-13
 -1      4021 1.94580E+01 6.62036E-01 2.93137E-03 2.65303E-01 7.53920E-14 2.99912E-13
 -1      4022 1.95734E+01 5.73305E-01 1.15461E-03 2.22175E-01 1.71679E-13 1.55825E-13
 -1      4023 2.03101E+01 4.56583E-01 1.15501E-03-1.01416E-01 7.91758E-14-7.91619E-14
 -1      4024 2.03111E+01 4.47724E-01-1.33696E-03-1.09582E-01 5.55664E-14-5.36359E-14
 -1      4025 2.01624E+01 3.04421E-01-4.51481E-04-2.40954E-01 4.46614E-14-4.75471E-14
 -1      4026 2.02058E+01 3.16196E-01-1.79206E-04-2.08452E-01 6.32958E-14-7.33649E-14
 -1      4027 2.02370E+01 3.60635E-01 8.28251E-04-1.59754E-01 9.45996E-14-1.87881E-14
 -1      4028 2.00840E+01 2.94036E-01 7.10068E-04-3.27503E-01 3.84948E-14-5.19712E-14
 -1      4029 1.94465E+01 6.46265E-01-2.90547E-03-4.78611E-01-7.33727E-14-7.78366E-15
 -1      4030 1.94580E+01 6.47771E-01 3.44300E-03-3.67612E-01-2.20198E-14 3.34456E-14
 -1      4031 1.93336E+01 7.14598E-01-1.23510E-03-5.17824E-01-5.37550E-14-1.59491E-14
 -1      4032 1.75079E+01-3.01473E-02 1.89704E-02 2.29697E+00 5.28770E-14 6.74556E-14
 -1      4033 1.57600E+01 1.10011E+00-1.60725E-02 1.19077E+00-1.52201E-13 2.36880E-13
 -1      4034 1.87016E+01 1.03991E+00 7.72850E-03 4.14366E-01 7.98400E-14 1.53468E-13
 -1      4035 1.87118E+01 1.01992E+00-5.22353E-03 5.83466E-01-4.97511E-14 2.99705E-13
 -1      4036 1.85305E+01 1.07877E+00-3.10091E-03 6.41191E-01-6.84164E-14 2.84954E-13
 -1      4037 1.66177E+01-2.72731E-02 2.27577E-02-2.62102E+00 2.01315E-15 9.94437E-14
 -1      4038 1.76532E+01-2.13820E-01 1.68989E-02-2.47764E+00-1.79704E-14 8.07167E-14
 -1      4039 1.75861E+01 6.43286E-02-2.20031E-02-2.14061E+00-2.12431E-14 4.20378E-14
 -1      4040 1.60676E+01 4.76804E-01-3.41411E-02-1.98725E+00-4.31231E-14 1.81059E-13
 -1      4041 2.03513E+01 9.39347E-01-1.92203E-03-3.14216E-03 5.50528E-14-9.53388E-14
 -1      4042 2.03504E+01 9.11628E-01-3.50134E-03-2.18802E-02 2.92172E-14-1.08810E-13
 -1      4043 2.03711E+01 7.64243E-01 3.71050E-03-4.01459E-03 1.81806E-14-8.25844E-14
 -1      4044 1.96166E+01 5.06847E-01-7.11188E-04-1.18189E-01-1.33962E-14-1.93689E-13
 -1      4045 1.96017E+01 5.23617E-01 6.45291E-04-5.81290E-02 1.32330E-13-4.79207E-13
 -1      4046 1.95833E+01 5.35636E-01 1.30732E-03-1.52643E-01-4.97166E-14-2.02731E-13
 -1      4047 1.90311E+01 9.05667E-01 5.60839E-03 3.63719E-01 2.93588E-13 3.17841E-13
 -1      4048 1.46205E+01 1.17790E+00 2.79972E-02-6.25742E-01-3.06530E-14 4.65677E-13
 -1      4049 1.55819E+01 1.06603E+00 2.55340E-02-8.70721E-01-9.64845E-14 3.94108E-13
 -1      4050 1.52140E+01 1.24713E+00-2.39843E-02 3.64810E-01-1.51233E-14 4.14698E-13
 -1      4051 2.03074E+01 4.46913E-01 1.37455E-03 9.41403E-02-2.19706E-14-3.64271E-14
 -1      4052 1.80457E+01 1.17130E+00-4.13344E-03 7.50135E-01-2.51550E-13 1.98855E-13
 -1      4053 1.77052E+01 1.26787E+00 1.52051E-02 5.06861E-01-3.41304E-13 3.36542E-13
 -1      4054 1.82792E+01 1.12896E+00-7.46088E-03 6.79480E-01-1.27079E-13 3.25157E-13
 -1      4055 1.66107E+01 6.55420E-01-3.49758E-03 1.58835E+00 1.07784E-13 2.34817E-14
 -1      4056 1.59832E+01 1.00862E+00 4.34228E-02 1.19565E+00 1.46694E-13-1.27292E-13
 -1      4057 2.03350E+01 6.48974E-01 1.17988E-04 1.20855E-02 1.13047E-13-5.69672E-14
 -1      4058 1.90355E+01 8.54150E-01-1.85808E-03-5.89410E-01-6.79138E-14-3.64890E-14
 -1      4059 1.91778E+01 7.83510E-01-3.77817E-03-5.45141E-01-7.24349E-14-1.78152E-14
 -1      4060 1.91848E+01 7.87473E-01 4.80619E-03-4.08915E-01-6.57705E-14-2.65090E-14
 -1      4061 2.03327E+01 5.15056E-01 8.79085E-04-6.63492E-02 7.39421E-14-4.53948E-14
 -1      4062 1.97655E+01 4.66865E-01-4.07690E-04-3.95407E-01 3.50018E-15 5.15588E-14
 -1      4063 1.98393E+01 4.17659E-01-1.64556E-03-3.64007E-01 1.17541E-14 5.46793E-14
 -1      4064 1.96800E+01 5.23918E-01 2.48974E-03-3.27052E-01-2.74858E-14 4.92501E-14
 -1      4065 1.66142E+01 1.32084E+00 1.64491E-02 2.64200E-01-2.98377E-13 2.88941E-13
 -1      4066 1.65746E+01 1.24797E+00-4.66994E-03 6.78308E-01-2.24845E-13 2.15027E-13
 -1      4067 1.60159E+01 1.09989E+00-2.54209E-02 4.30087E-01 1.20179E-13-1.82511E-13
 -1      4068 2.03523E+01 9.21995E-01-2.48899E-03 2.79860E-02 8.08898E-14-9.64576E-14
 -1      4069 2.03509E+01 9.37644E-01-2.38809E-03 5.78998E-03 6.11181E-14-9.05887E-14
 -1      4070 2.03722E+01 7.98671E-01 4.21855E-03 3.93668E-03 5.34026E-14-7.98840E-14
 -1      4071 1.88441E+01 9.32372E-01 6.54982E-03-4.49981E-01-5.69328E-14-7.29650E-14
 -1      4072 1.94940E+01 5.89849E-01 1.02475E-03-2.33416E-01-5.71321E-14-5.28528E-16
 -1      4073 1.95283E+01 5.64257E-01-8.26347E-04-1.89025E-01-3.55690E-14-1.31453E-13
 -1      4074 1.94997E+01 5.87486E-01-1.19080E-04-1.22069E-01 1.84246E-14-6.62844E-13
 -1      4075 2.00226E+01 3.47949E-01-1.39643E-03 1.60343E-01 4.54824E-15 4.95576E-14
 -1      4076 1.99569E+01 3.69490E-01 2.92892E-04 1.84318E-01-3.91888E-15 5.67892E-14
 -1      4077 1.98706E+01 3.96737E-01-1.85162E-03 2.02260E-01-4.68245E-15 3.42929E-14
 -1      4078 1.97950E+01 4.33148E-01 4.66002E-04 2.30838E-01 1.34669E-14 2.23972E-14
 -1      4079 1.99010E+01 4.07123E-01 1.73288E-03 1.25501E-01-1.16096E-14-1.09475E-15
 -1      4080 1.96954E+01 4.70891E-01-2.07052E-03 2.55080E-01 4.60499E-14 2.36113E-14
 -1      4081 1.96082E+01 5.14466E-01 2.42301E-04 2.90383E-01 6.69039E-14 1.13935E-14
 -1      4082 1.97252E+01 4.81015E-01 3.01319E-03 1.65192E-01 1.98402E-14-9.18243E-15
 -1      4083 1.94899E+01 5.58124E-01-3.26557E-03 3.26476E-01 3.76405E-14-2.84734E-14
 -1      4084 1.93948E+01 6.04277E-01 1.05183E-03 3.73950E-01-2.74457E-14-5.14804E-14
 -1      4085 1.95120E+01 5.78885E-01 4.18432E-03 2.21361E-01 5.02852E-14-7.45025E-14
 -1      4086 1.92557E+01 6.42856E-01-4.50540E-03 4.23866E-01-1.60395E-14 7.46217E-15
 -1      4087 1.91521E+01 6.82971E-01 1.70173E-03 4.87352E-01-1.65892E-14 1.22087E-14
 -1      4088 1.92702E+01 6.79491E-01 6.12231E-03 2.99755E-01 1.97740E-14-7.24191E-14
 -1      4089 1.89886E+01 7.09249E-01-5.93899E-03 5.57929E-01-4.59842E-14 4.68734E-14
 -1      4090 1.88782E+01 7.33765E-01 2.77103E-03 6.44004E-01-7.19683E-14 4.85195E-14
 -1      4091 1.89863E+01 7.71413E-01 7.84727E-03 4.10932E-01-2.38539E-14 1.41243E-14
 -1      4092 1.86855E+01 7.36402E-01-7.87923E-03 7.43615E-01-4.84250E-14 6.39992E-14
 -1      4093 1.85735E+01 7.33246E-01 4.56460E-03 8.61617E-01 1.07921E-14 9.76943E-14
 -1      4094 1.86546E+01 8.36149E-01 9.39474E-03 5.69203E-01-3.65273E-14 1.18843E-13
 -1      4095 1.83458E+01 6.98053E-01-1.04835E-02 1.00207E+00 1.47361E-14 9.35047E-14
 -1      4096 1.82432E+01 6.52976E-01 8.06899E-03 1.16550E+00 6.64442E-15 9.63086E-14
 -1      4097 1.82639E+01 8.47632E-01 8.51673E-03 7.92849E-01-1.65937E-14 9.60627E-14
 -1      4098 1.79740E+01 5.59019E-01-1.32330E-02 1.36615E+00 4.37290E-14 1.04624E-13
 -1      4099 1.79030E+01 4.43355E-01 1.01383E-02 1.58692E+00 1.00070E-13 9.36601E-14
 -1      4100 1.78125E+01 7.84035E-01 8.48672E-03 1.10671E+00 3.49687E-14 5.22655E-14
 -1      4101 1.75302E+01 2.12545E-01-4.57795E-03 1.97752E+00 6.34208E-14 1.31391E-13
 -1      4102 1.78767E+01 3.08971E-01 1.33502E-02-1.80506E+00-1.19884E-13 5.79745E-14
 -1      4103 1.79192E+01 4.64306E-01-1.27554E-02-1.55519E+00-1.45774E-13 1.98065E-14
 -1      4104 1.72341E+01 4.92296E-01 1.65427E-02-1.82738E+00-1.05352E-13 1.64734E-13
 -1      4105 1.81601E+01 6.01195E-01 7.33919E-03-1.33281E+00-9.39438E-14 2.84108E-14
 -1      4106 1.82385E+01 6.82645E-01-1.21812E-02-1.14551E+00-1.37122E-13 2.29381E-14
 -1      4107 1.77291E+01 7.30122E-01 9.33151E-03-1.29252E+00-9.55544E-14 1.28093E-13
 -1      4108 1.84570E+01 7.47514E-01 4.43203E-03-9.78239E-01-6.00846E-14 1.31170E-14
 -1      4109 1.85566E+01 7.76750E-01-7.52020E-03-8.41689E-01-7.60598E-15 1.26847E-13
 -1      4110 1.81329E+01 8.66728E-01 7.42830E-03-9.26223E-01-1.47525E-13 4.44794E-14
 -1      4111 1.87346E+01 7.95279E-01 2.32295E-03-7.27465E-01-1.04403E-13 1.61827E-13
 -1      4112 1.88342E+01 7.90502E-01-5.87391E-03-6.25157E-01-1.44372E-13 1.52479E-13
 -1      4113 1.85121E+01 8.91562E-01 7.41777E-03-6.62884E-01-2.44735E-14-9.35773E-14
 -1      4114 1.89860E+01 7.80264E-01 2.00449E-03-5.43270E-01-1.13106E-13 2.55711E-13
 -1      4115 1.90743E+01 7.52761E-01-5.36496E-03-4.66418E-01 1.99462E-13 9.23701E-14
 -1      4116 1.88207E+01 8.59523E-01 5.34260E-03-4.74854E-01-6.51706E-14-4.17038E-16
 -1      4117 1.92021E+01 7.22596E-01 5.36101E-04-4.03040E-01 3.05924E-13-5.02254E-14
 -1      4118 1.92837E+01 6.82907E-01-3.86100E-03-3.46579E-01 2.47833E-13-7.34271E-14
 -1      4119 1.90740E+01 7.97788E-01 5.12813E-03-3.43582E-01 1.09065E-13 1.08657E-14
 -1      4120 1.93583E+01 6.61233E-01 8.11209E-04-3.07382E-01 2.68858E-13-1.61567E-13
 -1      4121 1.94316E+01 6.18338E-01-1.36395E-03-2.63222E-01 1.40633E-13-7.76133E-15
 -1      4122 1.93898E+01 6.51958E-01 6.03305E-04-1.86758E-01 1.81305E-13-3.88221E-13
 -1      4123 1.92619E+01 7.18036E-01 1.74195E-03-2.47747E-01 2.62622E-13-2.97674E-13
 -1      4124 1.86725E+01 9.55139E-01-5.18548E-03-2.82171E-01-2.47286E-14-1.47410E-13
 -1      4125 1.88704E+01 8.88278E-01-3.12951E-03-2.72364E-01-6.62505E-14-1.16906E-13
 -1      4126 2.03003E+01 4.36568E-01-1.69669E-03-9.28383E-02 6.50429E-14-5.30433E-14
 -1      4127 2.03333E+01 5.05240E-01-5.09327E-05-5.83718E-02 2.94041E-14-8.19727E-14
 -1      4128 1.61121E+01 1.21395E+00-9.36945E-04 7.48434E-01-1.99840E-13 2.38441E-13
 -1      4129 2.03293E+01 4.87694E-01 4.61864E-04 5.28089E-02-1.60093E-14-1.56484E-14
 -1      4130 2.02955E+01 4.23088E-01-1.03676E-03 8.00564E-02-1.42552E-15-1.51916E-14
 -1      4131 1.60591E+01 1.15637E+00-1.74086E-02-5.28254E-01-7.03292E-14 4.11262E-13
 -1      4132 1.59748E+01 9.70329E-01 3.04876E-02-1.29513E+00-9.02841E-14 3.00143E-13
 -1      4133 1.66571E+01 7.22586E-01 7.38709E-03-1.51501E+00-1.28771E-13 1.70629E-13
 -1      4134 1.71815E+01 5.30117E-01 2.63112E-03 1.68276E+00 8.43507E-14 1.25123E-13
 -1      4135 1.70015E+01 8.11297E-01-2.27809E-02 1.19579E+00 1.33613E-13-4.93429E-14
 -1      4136 2.03395E+01 5.99206E-01-1.37820E-03-3.36222E-02 8.66091E-14-6.98709E-14
 -1      4137 2.03523E+01 7.57989E-01-8.83167E-05 4.73052E-02 1.16839E-13-9.97802E-14
 -1      4138 2.03526E+01 8.28046E-01-1.14586E-03 4.56836E-02 1.10520E-13-9.07933E-14
 -1      4139 2.03485E+01 6.12927E-01-8.87703E-05-3.50505E-02 5.72062E-14-7.51332E-14
 -1      4140 1.90353E+01 8.70481E-01-3.24094E-03 2.25409E-01 9.92387E-14 4.07835E-13
 -1      4141 1.88879E+01 9.35557E-01-3.48937E-03 2.41262E-01 2.64645E-13 3.44075E-13
 -1      4142 1.99238E+01 3.76504E-01-2.39635E-04-3.42592E-01 1.46422E-14 1.33255E-14
 -1      4143 1.99850E+01 3.43100E-01-1.10125E-03-3.13316E-01 2.69814E-14-3.97297E-14
 -1      4144 1.98623E+01 4.24215E-01 1.82333E-03-2.87452E-01-2.58764E-14-2.19683E-14
 -1      4145 2.00546E+01 3.19455E-01-2.53801E-04-2.92431E-01 3.12910E-14-7.71412E-14
 -1      4146 2.01061E+01 3.06055E-01-6.25635E-04-2.63058E-01 2.36779E-14-6.58482E-14
 -1      4147 2.01372E+01 3.32330E-01 9.29831E-04-2.06956E-01 3.80509E-14-4.65944E-14
 -1      4148 2.03555E+01 6.37733E-01-1.23548E-03 2.65851E-02 1.42723E-14-6.04860E-14
 -1      4149 1.75743E+01 1.16912E+00-1.30971E-02-2.59466E-01-9.09014E-15-6.26559E-14
 -1      4150 1.79099E+01 1.13543E+00-6.02334E-03-2.52775E-01-2.12048E-15-3.98815E-14
 -1      4151 1.92870E+01 7.43202E-01-2.20195E-03 2.00476E-01 7.01281E-14 2.50142E-13
 -1      4152 1.91713E+01 8.07254E-01-2.83509E-03 2.19312E-01 1.23713E-13 4.35991E-13
 -1      4153 1.90724E+01 8.61561E-01 5.97126E-03 1.05130E-01 4.70519E-14 3.97175E-13
 -1      4154 2.01507E+01 3.37365E-01-1.06075E-03 1.24769E-01 5.30690E-16 1.17992E-14
 -1      4155 2.00949E+01 3.37960E-01 9.62156E-05 1.47048E-01 2.15382E-14 4.25937E-14
 -1      4156 2.00544E+01 3.64228E-01 1.72373E-03 9.63713E-02 2.18250E-14 3.28547E-14
 -1      4157 1.65245E+01 1.14295E+00-5.91895E-03 3.02532E-01 3.45305E-14-1.48669E-13
 -1      4158 2.02532E+01 3.79122E-01-8.19147E-04 9.04790E-02-1.64483E-14 2.27689E-14
 -1      4159 2.02087E+01 3.51627E-01-1.17480E-04 1.13835E-01-2.46490E-14-6.23077E-18
 -1      4160 2.01804E+01 3.64818E-01 1.39652E-03 7.25392E-02 1.15437E-14 5.37578E-14
 -1      4161 1.81972E+01 1.07958E+00-6.99254E-03-2.75152E-01-3.21669E-14-1.12942E-13
 -1      4162 1.84490E+01 1.02176E+00-4.15397E-03-2.68630E-01-3.88258E-14-1.79264E-13
 -1      4163 1.80338E+01 1.12005E+00 1.26118E-02-3.80933E-03-5.58475E-14-1.47114E-13
 -1      4164 2.03495E+01 6.14297E-01 6.33488E-04 1.79517E-02 2.71536E-14-3.26579E-14
 -1      4165 1.94337E+01 6.52415E-01-1.70958E-03 1.70970E-01 2.91551E-14 1.54306E-13
 -1      4166 1.93684E+01 6.97024E-01-1.42785E-03 1.90879E-01 1.56028E-14 7.53575E-14
 -1      4167 1.92905E+01 7.43787E-01 3.89841E-03 1.02542E-01 5.23322E-14 1.17846E-13
 -1      4168 1.68832E+01 1.08783E+00 1.44240E-02 7.21944E-01 8.34248E-14-9.01598E-14
 -1      4169 1.68962E+01 1.19763E+00-2.05652E-02-5.26266E-02-6.63028E-15-1.06782E-13
 -1      4170 2.02187E+01 3.57393E-01-1.00195E-03-1.33375E-01 8.29731E-14-1.54929E-14
 -1      4171 2.02648E+01 3.89155E-01 9.82282E-05-1.07175E-01 1.05120E-13-7.14726E-15
 -1      4172 2.02891E+01 4.38627E-01 8.81826E-04-6.74632E-02 5.28742E-14-4.79706E-14
 -1      4173 1.87733E+01 9.83521E-01 6.81464E-03 9.38887E-02 7.01119E-14 3.54817E-13
 -1      4174 1.87129E+01 1.00027E+00-3.52071E-03 2.37687E-01 1.90179E-13 2.11896E-13
 -1      4175 1.85169E+01 1.05970E+00-5.91572E-03 2.52194E-01 4.77255E-14 2.41136E-13
 -1      4176 2.03511E+01 6.27745E-01 3.18509E-04-2.09001E-02 5.27997E-14-8.11525E-14
 -1      4177 2.03555E+01 6.50923E-01-8.12288E-04-2.51299E-02 6.72025E-14-8.76180E-14
 -1      4178 1.73562E+01 9.64161E-01 8.95488E-03 8.28473E-01 9.92691E-14-3.16981E-14
 -1      4179 1.95631E+01 5.60759E-01 6.59616E-05 8.65794E-02 3.68456E-13 2.02218E-13
 -1      4180 1.95601E+01 5.64922E-01-1.64241E-03 1.47889E-01 2.83476E-13 2.44521E-14
 -1      4181 1.95070E+01 6.06998E-01-8.74528E-04 1.67217E-01 5.44910E-14 1.37716E-13
 -1      4182 2.03676E+01 7.56382E-01 2.91498E-03 8.05857E-03 7.30080E-14-8.70994E-14
 -1      4183 1.82732E+01 1.16483E+00 1.12248E-02 4.63186E-01-1.07931E-13 2.03467E-13
 -1      4184 1.95814E+01 5.41969E-01 4.88371E-04-1.43230E-03 2.75138E-13-2.09817E-13
 -1      4185 1.85408E+01 1.00278E+00 1.05400E-02-7.57996E-02-1.30753E-14-2.55028E-13
 -1      4186 2.00129E+01 3.57145E-01 1.24485E-03-2.48341E-01 8.18627E-16-2.44400E-14
 -1      4187 1.93524E+01 6.81768E-01-2.35704E-03-2.62767E-01 1.44217E-14-2.53482E-14
 -1      4188 1.94783E+01 6.16656E-01-1.96915E-03-2.47032E-01 4.25934E-15-9.14771E-15
 -1      4189 1.96001E+01 5.56020E-01-1.35889E-03-2.43311E-01-5.90874E-14-1.54040E-14
 -1      4190 1.97019E+01 5.00679E-01-1.37418E-03-2.26316E-01-7.00851E-14-5.08163E-14
 -1      4191 1.95218E+01 5.96669E-01 9.45989E-04-1.41611E-01-2.02943E-14-8.70831E-14
 -1      4192 1.71306E+01 1.26446E+00 3.03086E-03 9.89329E-02-3.86818E-13 1.11044E-13
 -1      4193 1.63402E+01 1.24891E+00-7.98581E-03-2.46376E-01-2.14546E-13 3.03214E-13
 -1      4194 1.66830E+01 1.13430E+00-1.07223E-02-6.51615E-01-1.45492E-13 8.86530E-14
 -1      4195 1.73192E+01 1.19112E+00-3.13287E-03-1.14283E-01-4.77559E-15-7.85311E-14
 -1      4196 1.74776E+01 1.18038E+00 1.43116E-02 1.97802E-01 3.46683E-14-6.00386E-14
 -1      4197 2.02777E+01 4.23900E-01 1.13020E-03 5.03318E-02 5.26418E-15 7.84989E-16
 -1      4198 1.90494E+01 8.18151E-01-3.60959E-03-2.77121E-01-5.88080E-14-7.41860E-14
 -1      4199 1.92064E+01 7.49526E-01-2.38964E-03-2.64025E-01-1.84387E-14-4.01911E-14
 -1      4200 1.92601E+01 7.32673E-01 5.73536E-03-1.37273E-01 1.78698E-14-9.76714E-14
 -1      4201 2.03522E+01 8.82765E-01-8.59560E-04 3.76705E-02 7.61058E-14-9.11572E-14
 -1      4202 1.77779E+01 1.19809E+00-7.52398E-03 1.47523E-01-3.52742E-13 1.29588E-13
 -1      4203 1.74476E+01 1.22426E+00-1.20326E-02 1.42154E-01-3.68665E-13 4.98015E-14
 -1      4204 1.73258E+01 1.23271E+00 1.78369E-02-2.88325E-01-2.72127E-13-2.08895E-13
 -1      4205 1.89389E+01 8.69611E-01 7.96017E-03-1.17245E-01-2.28845E-14-2.18595E-13
 -1      4206 1.97473E+01 4.67388E-01-2.56343E-03 6.50339E-02 4.76603E-15-6.59921E-15
 -1      4207 1.96491E+01 5.13522E-01-1.49382E-03 8.80840E-02 1.84310E-14-2.48073E-14
 -1      4208 1.94942E+01 5.88923E-01-2.57452E-03 3.00550E-02 3.45977E-14-6.32494E-14
 -1      4209 1.93744E+01 6.44391E-01-1.88419E-03 5.67199E-02 3.96783E-14-7.11746E-14
 -1      4210 1.92236E+01 7.02723E-01-5.38365E-03 6.97590E-02 3.51959E-14-1.04625E-13
 -1      4211 1.90872E+01 7.60896E-01-2.71023E-03 1.08613E-01 1.46267E-14-8.34311E-14
 -1      4212 1.89028E+01 8.17299E-01-7.36937E-03 1.32867E-01-3.13855E-15-1.08507E-13
 -1      4213 1.87439E+01 8.70301E-01-3.29694E-03 1.89435E-01-3.19536E-14-9.68020E-14
 -1      4214 1.85151E+01 9.17974E-01-9.50953E-03 2.30465E-01-5.04728E-14-7.09435E-14
 -1      4215 1.83310E+01 9.57590E-01-3.03609E-03 3.12101E-01-7.51229E-14-6.15409E-14
 -1      4216 1.80420E+01 9.90738E-01-1.04675E-02 3.79761E-01-6.99873E-14-1.39382E-14
 -1      4217 1.78333E+01 1.00848E+00 1.98788E-03 4.94065E-01-1.66143E-14-4.30385E-14
 -1      4218 1.75732E+01 9.68167E-01-1.66985E-02 6.67651E-01 2.88396E-14-6.22129E-14
 -1      4219 1.69174E+01 8.27972E-01-1.70523E-02-1.23559E+00-1.44257E-13 2.19205E-13
 -1      4220 1.77258E+01 1.02289E+00-1.69709E-03-6.52970E-01-2.03070E-13-1.49055E-14
 -1      4221 1.79471E+01 1.03095E+00-7.56587E-03-5.21943E-01-1.57148E-13-8.68072E-14
 -1      4222 1.86511E+01 9.29642E-01-3.63003E-04-3.68626E-01-4.26832E-14-1.18913E-13
 -1      4223 1.87878E+01 8.93082E-01-5.14160E-03-2.98268E-01 2.17671E-14-2.23334E-13
 -1      4224 1.89052E+01 8.82427E-01-1.48644E-03-1.51492E-01 4.54376E-14-6.78491E-14
 -1      4225 1.90278E+01 8.32569E-01-4.22556E-03-1.09755E-01 5.96958E-14-2.24653E-13
 -1      4226 1.83038E+01 1.11487E+00-4.29963E-03 2.08208E-01-7.26545E-14 1.34612E-13
 -1      4227 1.80472E+01 1.16307E+00-7.80693E-03 2.17055E-01-2.12154E-13 1.36565E-13
 -1      4228 1.79216E+01 1.16916E+00 5.86175E-03-1.24588E-01-2.22708E-13-1.69447E-13
 -1      4229 1.83948E+01 1.09573E+00 8.95252E-03 2.37609E-02-5.40828E-14 5.53993E-14
 -1      4230 1.94377E+01 6.35231E-01 1.43945E-03-7.36543E-02 7.10099E-14-5.67028E-13
 -1      4231 1.94888E+01 5.97384E-01-1.36286E-03-3.80230E-02 2.80808E-14-6.76221E-13
 -1      4232 1.98027E+01 4.51085E-01-9.39040E-04-2.19894E-01-3.47304E-14 1.44543E-15
 -1      4233 1.98866E+01 4.09255E-01-1.10165E-03-2.02633E-01-6.18163E-15-1.23058E-14
 -1      4234 1.97422E+01 4.90289E-01 1.99205E-03-1.39670E-01-3.74979E-14-1.81406E-14
 -1      4235 2.01081E+01 3.41565E-01-8.30748E-04-1.66156E-01 4.52794E-14-3.96888E-14
 -1      4236 2.01662E+01 3.42780E-01-2.19758E-04-1.44602E-01 7.87824E-14-7.37408E-15
 -1      4237 2.01969E+01 3.70994E-01 1.11833E-03-9.35827E-02 7.93274E-14 3.43421E-15
 -1      4238 2.02835E+01 4.27801E-01-1.24234E-03-1.62255E-02 2.95950E-14-6.20946E-14
 -1      4239 2.02415E+01 3.86941E-01-2.66115E-05-7.97552E-03 5.18620E-14-2.95805E-14
 -1      4240 1.91678E+01 7.75832E-01-1.41963E-03-9.09389E-02 4.61573E-14-1.96479E-13
 -1      4241 1.99699E+01 3.76676E-01-8.06208E-04-1.94312E-01-1.15530E-14-1.61838E-14
 -1      4242 2.00403E+01 3.53797E-01-5.65055E-04-1.75360E-01-1.37220E-14-4.37866E-14
 -1      4243 2.00749E+01 3.65920E-01 1.47500E-03-1.13301E-01 2.17886E-14 4.39603E-15
 -1      4244 1.99233E+01 4.10488E-01 1.88764E-03-1.28164E-01-1.54979E-15 4.12330E-15
 -1      4245 2.00591E+01 3.61809E-01-1.64079E-03-1.50021E-02 1.42622E-14 1.54016E-14
 -1      4246 1.99879E+01 3.78779E-01-4.69900E-04-4.87056E-03-1.75312E-14 7.32541E-16
 -1      4247 2.03618E+01 6.82683E-01-1.33921E-03-2.78171E-03 5.12737E-14-8.09375E-14
 -1      4248 2.03356E+01 5.31298E-01 2.45568E-04 9.68017E-03 3.36408E-14-5.35980E-14
 -1      4249 2.03588E+01 6.81446E-01-1.86405E-03-5.88360E-03 6.80224E-14-7.38065E-14
 -1      4250 2.01865E+01 3.64248E-01-1.44516E-03-1.73079E-02 3.80424E-14-1.18700E-14
 -1      4251 2.01289E+01 3.56143E-01-2.53102E-04-8.79441E-03 3.82265E-14 1.25261E-14
 -1      4252 1.99030E+01 4.07044E-01-1.66410E-03-7.69007E-03-2.24417E-14-8.53733E-15
 -1      4253 1.98188E+01 4.43205E-01-1.88028E-04 4.37659E-03-3.85079E-15-1.61828E-14
 -1      4254 1.94409E+01 6.48617E-01 2.10484E-03 9.58264E-02 9.95409E-14 1.83235E-13
 -1      4255 1.69665E+01 1.06792E+00 1.06067E-02-8.48994E-01-8.87376E-14 1.73107E-13
 -1      4256 1.73906E+01 8.39281E-01-5.73244E-03-1.15801E+00-8.94080E-14 2.07713E-13
 -1      4257 1.87867E+01 9.49556E-01 7.53287E-04-4.14096E-02 7.88111E-14-4.88249E-14
 -1      4258 1.76149E+01 9.13031E-01-1.24173E-02-9.47756E-01-2.02416E-13 6.66567E-14
 -1      4259 1.82712E+01 9.70527E-01-3.78772E-03-5.45842E-01-1.58729E-13-4.43779E-14
 -1      4260 1.84458E+01 9.55930E-01-7.74356E-03-4.39197E-01-8.33313E-14-5.80588E-14
 -1      4261 1.71536E+01 1.11803E+00-4.26449E-03-6.16311E-01-1.63602E-13 9.60220E-14
 -1      4262 1.92605E+01 7.35216E-01-2.37134E-03 5.68283E-03 6.92473E-14-2.63020E-13
 -1      4263 1.92656E+01 7.23890E-01 2.44006E-03-1.86971E-01 1.35383E-13-4.71633E-13
 -1      4264 1.84785E+01 1.01911E+00 5.13392E-03-2.45993E-01-7.30745E-14-1.43472E-13
 -1      4265 1.93471E+01 6.91786E-01-2.78771E-04 2.98065E-03 1.61619E-14-2.32493E-13
 -1      4266 1.95512E+01 5.81186E-01 1.94062E-03-7.44532E-02-7.24518E-17-3.89226E-14
 -1      4267 1.95279E+01 5.82245E-01 5.72121E-04 4.76779E-02 2.96203E-13 1.58649E-14
 -1      4268 1.86146E+01 9.96946E-01-3.43776E-03-6.25356E-02 4.73988E-14-4.84688E-14
 -1      4269 2.03215E+01 4.87707E-01 5.31896E-04-6.10955E-03 9.26330E-15-8.41925E-14
 -1      4270 2.03419E+01 5.41193E-01 9.91636E-04-2.78418E-02 3.34805E-14-1.08419E-13
 -1      4271 1.79807E+01 1.12894E+00 7.04184E-03-2.67350E-01-2.27387E-13-5.44930E-14
 -1      4272 1.74962E+01 1.12700E+00 1.05335E-03-4.95338E-01-1.48266E-13-1.07804E-13
 -1      4273 1.84235E+01 1.04544E+00-5.10954E-04-1.06088E-01-1.18594E-13-2.02946E-15
 -1      4274 1.93932E+01 6.50545E-01-1.27685E-03-1.26953E-01 6.17164E-14-6.48440E-13
 -1      4275 1.93849E+01 6.65866E-01-7.51897E-05-3.90894E-02 6.52721E-14-5.33313E-13
 -1      4276 1.97651E+01 4.73156E-01 2.21981E-04-7.68335E-02 1.48652E-14 3.16358E-14
 -1      4277 1.93388E+01 6.85619E-01 1.05567E-03-1.53254E-01 1.99421E-13-5.62663E-13
 -1      4278 1.96698E+01 5.18541E-01 5.92586E-04-7.68959E-02-1.80428E-14-5.22225E-15
 -1      4279 1.82217E+01 1.08093E+00-1.98525E-03-1.75358E-01-1.24056E-13-1.22725E-13
 -1      4280 1.93953E+01 6.64326E-01-1.35688E-03 5.40210E-02 2.25698E-15 1.40929E-14
 -1      4281 1.94733E+01 6.21039E-01 7.59868E-04 5.50859E-02 2.08479E-13-8.73422E-14
 -3
    1PSTEP                         3           1           1          
  100CL  101 1.000000000        4281                     0    1           1
 -4  TOSTRAIN    6    1
 -5  EXX         1    4    1    1
 -5  EYY         1    4    2    2
 -5  EZZ         1    4    3    3
 -5  EXY         1    4    1    2
 -5  EYZ         1    4    2    3
 -5  EZX         1    4    3    1
 -1         1 2.99002E-04-9.00902E-05-7.75162E-05-3.79463E-05-7.98593E-19 7.62626E-18
 -1         2 3.60697E-05-1.10645E-04 2.00586E-05-7.37414E-07 4.32245E-18-3.64092E-19
 -1         3 9.52261E-05-2.85826E-05-2.85390E-05-4.53667E-09-2.25263E-18-3.09246E-18
 -1         4 9.52261E-05-2.85824E-05-2.85404E-05 5.31245E-09 1.20966E-18-9.43601E-19
 -1         5 1.43067E-04-2.14359E-05-4.24493E-05 3.84748E-05-2.18111E-19 1.45470E-17
 -1         6 1.45131E-04 2.57026E-10-4.41070E-05-5.34425E-05-8.18234E-19 1.01860E-17
 -1         7 9.04814E-05-5.10127E-07-3.90134E-05-2.92194E-05-1.11808E-19 8.46107E-19
 -1         8 8.50655E-05 8.52850E-08-3.63119E-05-2.02480E-05-1.16996E-19-1.71401E-18
 -1         9 8.28054E-05 7.51676E-08-3.53453E-05-1.56138E-05-8.99708E-20-3.00855E-18
 -1        10 8.18037E-05 3.78196E-08-3.48933E-05-1.20498E-05-4.37347E-20-3.44753E-18
 -1        11 8.13110E-05 1.79816E-08-3.46770E-05-8.98338E-06-2.71216E-20-3.55069E-18
 -1        12 8.10578E-05 8.18396E-09-3.45701E-05-6.25805E-06 9.07913E-21-3.48143E-18
 -1        13 8.09265E-05 3.76291E-09-3.45170E-05-3.66827E-06 1.86571E-20-3.31764E-18
 -1        14 8.08724E-05 1.94455E-09-3.44958E-05-1.17835E-06 5.27973E-20-3.17957E-18
 -1        15 8.08749E-05 1.91366E-09-3.44967E-05 1.28126E-06 6.35936E-20-2.97283E-18
 -1        16 8.09342E-05 3.61226E-09-3.45197E-05 3.77673E-06 9.36741E-20-2.70992E-18
 -1        17 8.10711E-05 7.33601E-09-3.45742E-05 6.37965E-06 1.01263E-19-2.36226E-18
 -1        18 8.13289E-05 1.69398E-08-3.46821E-05 9.12550E-06 1.26469E-19-1.77599E-18
 -1        19 8.18284E-05 3.68347E-08-3.49017E-05 1.22290E-05 1.56913E-19-9.32954E-19
 -1        20 8.28278E-05 8.01494E-08-3.53581E-05 1.58459E-05 2.00509E-19 4.06796E-19
 -1        21 8.50288E-05 1.68366E-07-3.63496E-05 2.04602E-05 1.93203E-19 2.71829E-18
 -1        22 9.15135E-05-9.87469E-08-3.86844E-05 2.79687E-05 3.17637E-21 6.73179E-18
 -1        23 1.12736E-04-3.80465E-05-3.53262E-05-4.39674E-06-5.74500E-19 7.38634E-18
 -1        24 9.26040E-05-2.76374E-05-2.89378E-05 3.89997E-07-1.52823E-19 5.05480E-18
 -1        25 8.89383E-05-2.67984E-05-2.68747E-05 3.74180E-07-7.75829E-20 2.89507E-18
 -1        26 8.78601E-05-2.64425E-05-2.63453E-05 2.02117E-07 7.47325E-20 1.08481E-18
 -1        27 8.79264E-05-2.64332E-05-2.63498E-05 1.37723E-07-7.15892E-20-8.67878E-20
 -1        28 8.85254E-05-2.65896E-05-2.65395E-05 9.87208E-08-2.85640E-20-7.53813E-19
 -1        29 8.93843E-05-2.68341E-05-2.68040E-05 7.33019E-08-4.65376E-20-1.24901E-18
 -1        30 9.03682E-05-2.71222E-05-2.71027E-05 5.56826E-08 6.69619E-20-1.89998E-18
 -1        31 9.14132E-05-2.74319E-05-2.74187E-05 4.32318E-08-5.54686E-20-2.63604E-18
 -1        32 9.24977E-05-2.77554E-05-2.77466E-05 3.47685E-08-1.40485E-19-3.79764E-18
 -1        33 9.36281E-05-2.80936E-05-2.80885E-05 2.97979E-08 2.37115E-19-4.30316E-18
 -1        34 9.48294E-05-2.84537E-05-2.84520E-05 2.81699E-08 3.14445E-20-3.32756E-18
 -1        35 9.61375E-05-2.88460E-05-2.88475E-05 2.98968E-08 1.22828E-19-3.55588E-18
 -1        36 9.75913E-05-2.92817E-05-2.92865E-05 3.50002E-08 1.07518E-20-3.37249E-18
 -1        37 9.92223E-05-2.97700E-05-2.97778E-05 4.33062E-08-1.94640E-19-3.45711E-18
 -1        38 1.01041E-04-3.03135E-05-3.03233E-05 5.41139E-08-2.80189E-19-4.56671E-18
 -1        39 1.03016E-04-3.09028E-05-3.09123E-05 6.56683E-08-1.59874E-19-4.49082E-18
 -1        40 1.05052E-04-3.15089E-05-3.15136E-05 7.44090E-08 1.89275E-19-3.84240E-18
 -1        41 1.06957E-04-3.20747E-05-3.20675E-05 7.41237E-08-1.73365E-20-3.50594E-18
 -1        42 1.08422E-04-3.25084E-05-3.24797E-05 5.55228E-08-9.95413E-20-4.57576E-18
 -1        43 1.09016E-04-3.26830E-05-3.26238E-05 7.40493E-09-3.13545E-19-4.30305E-18
 -1        44 1.08248E-04-3.24530E-05-3.23613E-05-7.88160E-08 1.99262E-19-4.28842E-18
 -1        45 1.05710E-04-3.16972E-05-3.15872E-05-1.99749E-07 1.15714E-20-3.50571E-18
 -1        46 1.01321E-04-3.03907E-05-3.02992E-05-3.28179E-07 9.45161E-20-4.79741E-18
 -1        47 9.56003E-05-2.86861E-05-2.86643E-05-4.09361E-07 1.27420E-19-4.50631E-18
 -1        48 8.97712E-05-2.69468E-05-2.70319E-05-3.81644E-07 4.23798E-20-3.18901E-18
 -1        49 8.54851E-05-2.56664E-05-2.58488E-05-2.20316E-07 2.93439E-19-4.65983E-18
 -1        50 8.41598E-05-2.52699E-05-2.54861E-05 3.05417E-08 2.02940E-20-5.98669E-18
 -1        51 8.62696E-05-2.59007E-05-2.60647E-05 2.69104E-07 1.78841E-19-6.68154E-18
 -1        52 9.10744E-05-2.73361E-05-2.73941E-05 4.00525E-07-3.36630E-19-5.10089E-18
 -1        53 9.70254E-05-2.91112E-05-2.90680E-05 3.97390E-07-1.32922E-20-5.52121E-18
 -1        54 1.02524E-04-3.07491E-05-3.06488E-05 2.98954E-07 5.70209E-20-4.13802E-18
 -1        55 1.06510E-04-3.19357E-05-3.18276E-05 1.68516E-07-2.39693E-19-4.91863E-18
 -1        56 1.08630E-04-3.25674E-05-3.24830E-05 5.46150E-08 4.34061E-19-5.65995E-18
 -1        57 1.09071E-04-3.27006E-05-3.26494E-05-2.20308E-08 3.15462E-19-3.40226E-18
 -1        58 1.08284E-04-3.24691E-05-3.24466E-05-6.18247E-08 2.70397E-19-2.66411E-18
 -1        59 1.06761E-04-3.20182E-05-3.20149E-05-7.45634E-08-1.20555E-19-3.37325E-18
 -1        60 1.04912E-04-3.14691E-05-3.14760E-05-7.11957E-08-3.42979E-19-4.99692E-18
 -1        61 1.03025E-04-3.09076E-05-3.09182E-05-6.02219E-08 7.51523E-20-6.47482E-18
 -1        62 1.01275E-04-3.03857E-05-3.03964E-05-4.70528E-08-4.50438E-20-6.78980E-18
 -1        63 9.97498E-05-2.99302E-05-2.99392E-05-3.46115E-08-5.98889E-19-8.79309E-18
 -1        64 9.84800E-05-2.95500E-05-2.95568E-05-2.41755E-08-5.17222E-19-1.17384E-17
 -1        65 9.74592E-05-2.92439E-05-2.92486E-05-1.60609E-08-3.48318E-19-1.06066E-17
 -1        66 9.66641E-05-2.90051E-05-2.90081E-05-1.00623E-08 8.22266E-20-9.19335E-18
 -1        67 9.60653E-05-2.88248E-05-2.88270E-05-5.67685E-09 7.39965E-20-6.64010E-18
 -1        68 9.56356E-05-2.86951E-05-2.86975E-05-2.13071E-09 6.25407E-20-3.93532E-18
 -1        69 9.53550E-05-2.86099E-05-2.86135E-05 1.76166E-09 2.27122E-19-1.55699E-18
 -1        70 9.52122E-05-2.85657E-05-2.85700E-05 8.36594E-09-5.33647E-19-1.54800E-19
 -1        71 9.51970E-05-2.85594E-05-2.85565E-05 1.59102E-08 3.12603E-20 4.44461E-20
 -1        72 1.01954E-04-3.05186E-05-3.40799E-05-1.92334E-06 1.44313E-19 1.40151E-17
 -1        73 9.23550E-05-2.74519E-05-2.88446E-05-3.31707E-07 8.43956E-20 1.17642E-17
 -1        74 8.89177E-05-2.66454E-05-2.69155E-05-1.23970E-07 5.40488E-20 1.01426E-17
 -1        75 8.78791E-05-2.63899E-05-2.63860E-05-9.28028E-08 7.00295E-20 9.12322E-18
 -1        76 8.79462E-05-2.64084E-05-2.63721E-05-7.28596E-08-1.47428E-20 8.61472E-18
 -1        77 8.85397E-05-2.65777E-05-2.65509E-05-5.77611E-08-4.64598E-20 8.23759E-18
 -1        78 8.93906E-05-2.68272E-05-2.68091E-05-4.58285E-08-1.35831E-19 8.28680E-18
 -1        79 9.03667E-05-2.71171E-05-2.71038E-05-3.56953E-08 1.13928E-19 7.04629E-18
 -1        80 9.14074E-05-2.74280E-05-2.74179E-05-2.67708E-08-1.22612E-20 5.80627E-18
 -1        81 9.24969E-05-2.77543E-05-2.77473E-05-1.88963E-08 1.46075E-19 5.13920E-18
 -1        82 9.36520E-05-2.81008E-05-2.80973E-05-1.21521E-08-4.95185E-20 5.52866E-18
 -1        83 9.49155E-05-2.84801E-05-2.84809E-05-6.80368E-09 1.35343E-19 5.46372E-18
 -1        84 9.63532E-05-2.89116E-05-2.89180E-05-3.35823E-09 1.46979E-19 4.59906E-18
 -1        85 9.80518E-05-2.94213E-05-2.94348E-05-2.70242E-09 5.57404E-20 4.42717E-18
 -1        86 1.00117E-04-3.00403E-05-3.00630E-05-6.32492E-09 2.22608E-19 3.34153E-18
 -1        87 1.02668E-04-3.08037E-05-3.08383E-05-1.66141E-08-1.84952E-19 3.27160E-18
 -1        88 1.05826E-04-3.17469E-05-3.17954E-05-3.71389E-08 1.22057E-19 2.86917E-18
 -1        89 1.09680E-04-3.28962E-05-3.29581E-05-7.25726E-08 2.47073E-19 1.43172E-18
 -1        90 1.14235E-04-3.42523E-05-3.43190E-05-1.27351E-07-3.49409E-19 9.23220E-19
 -1        91 1.19294E-04-3.57589E-05-3.58048E-05-2.01125E-07 5.89170E-20 3.49784E-18
 -1        92 1.24297E-04-3.72549E-05-3.72260E-05-2.78076E-07 2.38251E-19 4.19829E-18
 -1        93 1.28123E-04-3.84181E-05-3.82311E-05-3.09266E-07-1.95230E-19 5.85377E-18
 -1        94 1.29022E-04-3.87372E-05-3.83188E-05-2.00627E-07 9.10064E-20 5.94207E-18
 -1        95 1.25010E-04-3.76103E-05-3.70029E-05 1.52610E-07 1.99327E-19 5.51072E-18
 -1        96 1.15120E-04-3.46903E-05-3.41756E-05 7.32433E-07-1.69589E-19 6.98442E-18
 -1        97 1.01294E-04-3.04751E-05-3.05138E-05 1.22978E-06-9.19560E-20 7.85951E-18
 -1        98 8.91603E-05-2.66514E-05-2.74691E-05 1.14472E-06 3.74812E-19 5.07611E-18
 -1        99 8.53360E-05-2.53555E-05-2.65545E-05 3.32663E-07-4.79927E-19 1.80053E-18
 -1       100 9.21612E-05-2.74283E-05-2.82635E-05-6.52175E-07-2.23862E-19 2.44189E-18
 -1       101 1.05567E-04-3.16012E-05-3.16772E-05-1.13797E-06 1.88113E-20 1.73012E-18
 -1       102 1.18729E-04-3.56821E-05-3.52003E-05-1.00063E-06-7.61337E-20 6.95573E-19
 -1       103 1.26964E-04-3.81870E-05-3.76009E-05-5.63039E-07 1.49834E-19 1.66519E-18
 -1       104 1.29363E-04-3.88839E-05-3.84535E-05-1.64998E-07-9.07583E-21 3.36944E-18
 -1       105 1.27406E-04-3.82605E-05-3.80416E-05 7.42511E-08-2.07126E-21 3.69989E-18
 -1       106 1.23107E-04-3.69445E-05-3.68827E-05 1.73351E-07-1.69662E-19 2.11515E-18
 -1       107 1.18048E-04-3.54139E-05-3.54368E-05 1.88733E-07 2.37735E-19-6.20174E-19
 -1       108 1.13170E-04-3.39468E-05-3.40022E-05 1.66454E-07 1.67745E-19-2.40756E-18
 -1       109 1.08913E-04-3.26699E-05-3.27297E-05 1.33009E-07-3.30145E-19 8.97643E-19
 -1       110 1.05406E-04-3.16194E-05-3.16718E-05 1.00600E-07 2.53256E-19-3.05719E-19
 -1       111 1.02621E-04-3.07855E-05-3.08274E-05 7.35631E-08 4.15000E-19-2.94216E-18
 -1       112 1.00466E-04-3.01400E-05-3.01717E-05 5.26008E-08-7.31075E-20-3.84522E-18
 -1       113 9.88283E-05-2.96495E-05-2.96729E-05 3.70314E-08 4.84815E-19-2.56498E-18
 -1       114 9.76046E-05-2.92827E-05-2.92997E-05 2.58199E-08-3.48324E-19-1.58735E-18
 -1       115 9.67049E-05-2.90129E-05-2.90252E-05 1.79594E-08-2.51927E-19-1.56735E-19
 -1       116 9.60581E-05-2.88188E-05-2.88281E-05 1.25186E-08-2.66105E-19-8.06292E-20
 -1       117 9.56117E-05-2.86846E-05-2.86926E-05 8.55040E-09 7.04348E-19-6.03932E-18
 -1       118 9.53312E-05-2.85998E-05-2.86082E-05 4.82861E-09 6.31887E-19-9.08618E-18
 -1       119 9.51979E-05-2.85587E-05-2.85668E-05-1.88897E-09-2.12622E-19-9.68582E-18
 -1       120 9.51938E-05-2.85559E-05-2.85556E-05-1.46254E-08 1.52545E-18-6.36984E-18
 -1       121 9.52486E-05-2.86106E-05-2.85571E-05-1.95320E-08-7.78701E-18-7.55611E-19
 -1       122 9.52448E-05-2.85980E-05-2.85712E-05-5.08453E-09-6.62019E-18-7.24617E-19
 -1       123 9.52020E-05-2.84548E-05-2.86135E-05 5.39402E-09-1.49834E-18 1.35180E-18
 -1       124 9.51301E-05-2.82139E-05-2.86820E-05 1.10700E-08 5.87792E-19 1.40528E-18
 -1       125 9.50452E-05-2.79289E-05-2.87636E-05 1.25771E-08 1.06687E-18-1.59134E-18
 -1       126 9.49657E-05-2.76609E-05-2.88409E-05 1.11615E-08-5.45727E-18 7.97009E-21
 -1       127 9.49033E-05-2.74506E-05-2.89019E-05 7.49416E-09-5.75961E-18-8.04955E-19
 -1       128 9.48700E-05-2.73385E-05-2.89345E-05 2.57347E-09-3.65913E-18 2.59624E-19
 -1       129 9.48711E-05-2.73422E-05-2.89335E-05-2.67335E-09-5.01862E-18 2.54218E-19
 -1       130 9.49060E-05-2.74599E-05-2.88994E-05-7.36552E-09-6.32076E-18-5.69332E-19
 -1       131 9.49686E-05-2.76710E-05-2.88382E-05-1.07921E-08-8.36534E-18-1.04513E-18
 -1       132 9.50469E-05-2.79348E-05-2.87620E-05-1.19335E-08-8.59461E-18 1.74581E-18
 -1       133 9.51296E-05-2.82125E-05-2.86822E-05-1.04276E-08-4.18821E-18-2.19110E-18
 -1       134 9.51995E-05-2.84479E-05-2.86153E-05-6.18297E-09-2.68727E-18 6.85468E-19
 -1       135 9.52424E-05-2.85880E-05-2.85732E-05 5.83964E-09-2.09162E-18-1.16002E-19
 -1       136 9.52429E-05-2.86044E-05-2.85574E-05 2.80730E-08-2.91291E-18 7.06430E-19
 -1       137 2.62519E-05-8.91636E-05 1.58484E-05-2.43585E-05 7.21185E-18 1.51852E-18
 -1       138 8.08417E-06-3.86033E-05 4.46680E-06-2.14571E-05 1.23862E-17 6.44719E-18
 -1       139 1.20460E-05 1.21717E-05-1.46238E-05 2.14520E-05 1.75230E-17 1.39815E-17
 -1       140 5.93584E-05 2.53892E-05-3.53699E-05 7.73014E-05 1.48286E-17 1.57976E-17
 -1       141 1.52607E-04-6.08420E-06-5.62399E-05 1.13566E-04 7.03715E-18 1.36707E-17
 -1       142 2.57741E-04-6.22178E-05-7.25422E-05 9.44344E-05 2.45502E-18 8.48727E-18
 -1       143 3.14646E-04-9.65381E-05-7.99823E-05 2.60720E-05 7.46157E-19-2.81427E-19
 -1       144 2.96896E-04-8.54328E-05-7.77864E-05-6.06611E-05 2.81078E-18-1.29461E-17
 -1       145 2.09556E-04-3.51442E-05-6.55705E-05-1.11077E-04 7.71149E-18-1.97409E-17
 -1       146 1.08550E-04 1.26949E-05-4.77970E-05-1.03391E-04 1.34975E-17-2.00052E-17
 -1       147 3.04387E-05 2.61506E-05-2.57556E-05-5.20681E-05 1.60623E-17-1.54562E-17
 -1       148 4.59696E-06-7.24556E-06-5.26129E-06 2.72314E-06 1.13735E-17-7.40137E-18
 -1       149 1.61215E-05-6.37462E-05 1.04252E-05 2.67581E-05 3.72779E-18-8.93937E-19
 -1       150 3.30565E-05-1.05380E-04 1.92782E-05 1.33473E-05-5.99022E-18 3.21740E-20
 -1       151 3.25660E-05-1.02521E-04 1.85256E-05-1.31864E-05-1.22197E-17-1.17086E-18
 -1       152 1.43354E-05-5.74714E-05 9.23925E-06-2.42951E-05-1.17297E-17-4.45868E-18
 -1       153 6.94836E-06 2.79748E-07-8.27381E-06 7.05808E-06-1.30100E-17-7.84945E-18
 -1       154 3.70123E-05 2.87877E-05-2.83897E-05 6.09666E-05-1.08632E-17-1.02512E-17
 -1       155 1.20028E-04 8.95847E-06-5.02111E-05 1.07910E-04-7.14832E-18-1.04206E-17
 -1       156 2.18515E-04-4.16047E-05-6.65028E-05 1.04586E-04-2.61945E-18-6.37053E-18
 -1       157 2.94844E-04-8.69185E-05-7.71397E-05 4.49380E-05-7.24994E-19 7.72918E-21
 -1       158 2.35929E-04-5.14794E-05-6.91738E-05-9.99799E-05-5.02587E-18 1.46829E-17
 -1       159 1.40911E-04-3.82797E-07-5.41349E-05-1.12250E-04-9.72246E-18 1.70834E-17
 -1       160 5.44381E-05 2.86063E-05-3.43448E-05-7.63861E-05-1.56379E-17 1.72511E-17
 -1       161 1.00569E-05 1.39484E-05-1.40359E-05-2.12163E-05-1.99840E-17 1.36698E-17
 -1       162 8.27080E-06-3.55415E-05 3.75030E-06 1.85587E-05-1.72625E-17 8.31236E-18
 -1       163 2.60701E-05-8.69492E-05 1.53964E-05 2.24456E-05-5.92097E-18 2.95882E-18
 -1       164 9.47731E-05-1.23353E-05-3.55330E-05-2.23104E-05-1.59817E-18-3.57474E-19
 -1       165 8.92202E-05-8.45786E-06-3.47740E-05-1.73487E-05-1.24444E-18-1.83565E-18
 -1       166 8.65523E-05-6.49836E-06-3.44207E-05-1.35446E-05-8.89639E-19-2.64396E-18
 -1       167 8.52380E-05-5.51372E-06-3.42515E-05-1.03232E-05-5.39062E-19-2.89762E-18
 -1       168 8.45048E-05-4.93092E-06-3.41720E-05-7.50677E-06-1.65505E-19-2.87650E-18
 -1       169 8.40865E-05-4.57942E-06-3.41358E-05-4.87427E-06 1.14864E-19-2.82446E-18
 -1       170 8.38723E-05-4.39013E-06-3.41215E-05-2.37987E-06 4.38635E-19-2.63121E-18
 -1       171 8.38094E-05-4.33267E-06-3.41181E-05 5.00466E-08 7.32126E-19-2.48355E-18
 -1       172 8.38835E-05-4.39908E-06-3.41226E-05 2.48215E-06 9.97189E-19-2.28541E-18
 -1       173 8.41109E-05-4.59994E-06-3.41377E-05 4.98341E-06 1.21669E-18-2.07192E-18
 -1       174 8.45362E-05-4.96073E-06-3.41730E-05 7.58362E-06 1.40647E-18-1.61525E-18
 -1       175 8.52958E-05-5.57090E-06-3.42524E-05 1.04689E-05 1.71942E-18-9.64049E-19
 -1       176 8.66626E-05-6.60982E-06-3.44242E-05 1.37405E-05 1.90579E-18 9.91293E-21
 -1       177 8.93611E-05-8.59975E-06-3.47785E-05 1.75832E-05 1.95217E-18 1.62160E-18
 -1       178 9.56796E-05-1.35993E-05-3.53883E-05 2.18566E-05 1.63843E-18 4.19707E-18
 -1       179 1.05435E-04-2.60555E-05-3.52082E-05 1.86351E-05 1.00484E-18 7.41053E-18
 -1       180 1.03251E-04-2.72606E-05-3.25653E-05-1.21007E-05-1.44901E-18 1.78960E-18
 -1       181 9.69859E-05-2.82529E-05-2.94921E-05-4.70689E-06-1.17354E-18 1.02778E-18
 -1       182 9.34132E-05-2.76057E-05-2.81549E-05-1.73777E-06-1.04500E-18 4.68925E-19
 -1       183 9.19184E-05-2.73843E-05-2.76217E-05-3.72733E-07-7.82501E-19-2.31951E-19
 -1       184 9.14028E-05-2.73241E-05-2.74435E-05 3.19590E-07-3.69977E-19-4.63094E-19
 -1       185 9.14507E-05-2.73860E-05-2.74470E-05 6.87375E-07-3.56297E-19-7.51505E-19
 -1       186 9.18253E-05-2.75230E-05-2.75532E-05 8.85258E-07-2.58182E-19-8.52696E-19
 -1       187 9.23958E-05-2.77052E-05-2.77216E-05 9.96442E-07-3.18858E-19-8.33601E-19
 -1       188 9.30928E-05-2.79162E-05-2.79307E-05 1.07124E-06-7.58809E-19-8.08241E-19
 -1       189 9.38848E-05-2.81496E-05-2.81705E-05 1.14233E-06-3.71507E-19-1.09141E-18
 -1       190 9.47647E-05-2.84053E-05-2.84381E-05 1.23109E-06 8.07885E-20-1.70777E-18
 -1       191 9.57409E-05-2.86879E-05-2.87353E-05 1.35003E-06-2.94367E-19-2.16394E-18
 -1       192 9.68293E-05-2.90045E-05-2.90661E-05 1.50279E-06 1.45162E-19-2.08402E-18
 -1       193 9.80458E-05-2.93629E-05-2.94341E-05 1.68244E-06-4.67512E-20-1.96754E-18
 -1       194 9.93972E-05-2.97695E-05-2.98396E-05 1.86801E-06-3.70551E-19-1.29980E-18
 -1       195 1.00870E-04-3.02263E-05-3.02764E-05 2.01985E-06-3.72673E-19-1.61693E-18
 -1       196 1.02418E-04-3.07267E-05-3.07273E-05 2.07450E-06 2.18454E-19-2.30450E-18
 -1       197 1.03945E-04-3.12496E-05-3.11601E-05 1.94220E-06 3.27200E-20-2.71082E-18
 -1       198 1.05292E-04-3.17524E-05-3.15247E-05 1.51231E-06-7.33072E-19-2.45721E-18
 -1       199 1.06232E-04-3.21622E-05-3.17541E-05 6.76336E-07-1.35476E-20-2.57894E-18
 -1       200 1.06484E-04-3.23707E-05-3.17736E-05-6.21066E-07 1.04134E-19-3.01891E-18
 -1       201 1.05769E-04-3.22417E-05-3.15207E-05-2.29980E-06 1.38688E-19-3.06379E-18
 -1       202 1.03916E-04-3.16466E-05-3.09771E-05-4.05375E-06 1.81611E-19-2.57468E-18
 -1       203 1.01017E-04-3.05456E-05-3.02005E-05-5.32465E-06 6.89951E-20-1.33674E-18
 -1       204 9.75706E-05-2.90968E-05-2.93392E-05-5.44966E-06-9.28998E-20-1.85123E-18
 -1       205 9.44719E-05-2.77052E-05-2.86045E-05-4.01794E-06-9.10987E-19-2.62219E-18
 -1       206 9.27236E-05-2.68869E-05-2.82047E-05-1.24416E-06-7.52069E-19-3.24350E-18
 -1       207 9.29703E-05-2.70020E-05-2.82607E-05 1.98212E-06 3.79765E-19-2.78416E-18
 -1       208 9.51228E-05-2.80019E-05-2.87559E-05 4.50385E-06 7.07911E-19-2.63240E-18
 -1       209 9.84046E-05-2.94571E-05-2.95429E-05 5.55998E-06-5.29049E-19-2.26863E-18
 -1       210 1.01797E-04-3.08519E-05-3.04048E-05 5.11294E-06-6.28657E-23-2.18003E-18
 -1       211 1.04490E-04-3.18410E-05-3.11408E-05 3.67510E-06-7.08027E-19-2.25325E-18
 -1       212 1.06090E-04-3.23226E-05-3.16242E-05 1.90856E-06-4.78656E-20-1.42766E-18
 -1       213 1.06585E-04-3.23673E-05-3.18184E-05 3.16641E-07 8.52352E-19-1.27898E-18
 -1       214 1.06188E-04-3.21115E-05-3.17563E-05-8.53393E-07 2.14370E-19-2.26579E-18
 -1       215 1.05188E-04-3.16878E-05-3.15069E-05-1.56090E-06-2.94238E-19-2.28074E-18
 -1       216 1.03862E-04-3.11975E-05-3.11458E-05-1.87917E-06-1.04009E-18-3.38118E-18
 -1       217 1.02426E-04-3.07069E-05-3.07379E-05-1.91960E-06-6.63507E-19-2.01524E-18
 -1       218 1.01027E-04-3.02547E-05-3.03305E-05-1.78811E-06-9.41970E-19-2.53380E-18
 -1       219 9.97554E-05-2.98594E-05-2.99537E-05-1.56750E-06-1.16708E-18-3.40837E-18
 -1       220 9.86536E-05-2.95271E-05-2.96234E-05-1.31473E-06-1.57054E-18-3.87216E-18
 -1       221 9.77344E-05-2.92561E-05-2.93453E-05-1.06477E-06 1.20155E-18-4.25913E-18
 -1       222 9.69912E-05-2.90409E-05-2.91192E-05-8.36025E-07 1.00050E-18-2.37942E-18
 -1       223 9.64081E-05-2.88739E-05-2.89410E-05-6.35340E-07 1.49770E-18-1.35075E-18
 -1       224 9.59655E-05-2.87477E-05-2.88057E-05-4.61859E-07 1.97941E-18-2.88613E-20
 -1       225 9.56441E-05-2.86555E-05-2.87079E-05-3.09935E-07 1.39666E-18-8.00560E-19
 -1       226 9.54269E-05-2.85923E-05-2.86422E-05-1.72905E-07 2.10743E-18-2.92719E-19
 -1       227 9.52935E-05-2.85556E-05-2.86010E-05-5.03413E-08 4.20908E-19 2.40255E-18
 -1       228 9.93500E-05-2.85100E-05-3.05412E-05 7.19321E-06 1.15673E-18 6.51948E-18
 -1       229 9.42888E-05-2.77517E-05-2.84863E-05 2.72487E-06 8.86552E-19 5.54916E-18
 -1       230 9.19992E-05-2.73695E-05-2.76532E-05 9.02268E-07 6.04887E-19 4.78674E-18
 -1       231 9.10957E-05-2.72185E-05-2.73486E-05 2.33495E-08 2.71528E-19 4.38330E-18
 -1       232 9.09533E-05-2.72297E-05-2.72962E-05-4.31858E-07 1.05155E-19 4.20300E-18
 -1       233 9.12419E-05-2.73439E-05-2.73775E-05-6.73371E-07 2.07219E-19 3.68314E-18
 -1       234 9.17812E-05-2.75194E-05-2.75364E-05-8.04619E-07 7.27987E-19 3.22382E-18
 -1       235 9.24758E-05-2.77324E-05-2.77442E-05-8.84944E-07 6.40054E-19 2.78133E-18
 -1       236 9.32825E-05-2.79726E-05-2.79877E-05-9.53221E-07 2.42853E-19 2.40507E-18
 -1       237 9.41931E-05-2.82386E-05-2.82642E-05-1.03794E-06-6.70796E-20 2.51105E-18
 -1       238 9.52257E-05-2.85367E-05-2.85790E-05-1.16198E-06 3.96550E-19 2.30730E-18
 -1       239 9.64188E-05-2.88788E-05-2.89437E-05-1.34505E-06 5.93560E-19 2.13861E-18
 -1       240 9.78279E-05-2.92817E-05-2.93748E-05-1.60451E-06 1.99622E-19 1.72666E-18
 -1       241 9.95212E-05-2.97667E-05-2.98927E-05-1.95454E-06 3.83864E-19 2.03732E-18
 -1       242 1.01574E-04-3.03581E-05-3.05196E-05-2.40250E-06 1.41359E-19 2.67348E-18
 -1       243 1.04058E-04-3.10818E-05-3.12751E-05-2.94063E-06 5.43614E-19 1.39395E-18
 -1       244 1.07019E-04-3.19614E-05-3.21695E-05-3.52993E-06 4.78898E-19 9.47714E-19
 -1       245 1.10444E-04-3.30110E-05-3.31907E-05-4.07253E-06-1.39182E-19 1.07218E-18
 -1       246 1.14201E-04-3.42220E-05-3.42844E-05-4.37156E-06-1.09592E-18 1.57164E-18
 -1       247 1.17957E-04-3.55367E-05-3.53298E-05-4.09082E-06-4.96166E-19 2.33214E-18
 -1       248 1.21092E-04-3.68020E-05-3.61222E-05-2.76073E-06-8.34251E-19 3.33830E-18
 -1       249 1.22671E-04-3.76985E-05-3.63953E-05 6.23180E-08-2.44951E-19 3.25957E-18
 -1       250 1.21601E-04-3.76901E-05-3.59227E-05 4.33415E-06 2.02361E-19 3.50361E-18
 -1       251 1.17194E-04-3.61629E-05-3.47001E-05 8.82417E-06-1.40145E-18 4.51793E-18
 -1       252 1.10156E-04-3.30165E-05-3.30914E-05 1.08431E-05 2.07682E-19 5.90048E-18
 -1       253 1.03340E-04-2.94908E-05-3.17574E-05 7.76433E-06 1.52914E-18 4.67861E-18
 -1       254 1.00713E-04-2.79531E-05-3.13205E-05 1.00061E-07 1.51060E-18 2.65658E-18
 -1       255 1.04070E-04-2.96476E-05-3.19812E-05-7.60734E-06-4.45797E-19 7.96568E-19
 -1       256 1.11214E-04-3.32360E-05-3.34143E-05-1.08182E-05 7.28438E-19 1.00789E-18
 -1       257 1.18139E-04-3.63830E-05-3.49866E-05-8.93217E-06 2.41292E-19 6.52612E-20
 -1       258 1.22161E-04-3.78328E-05-3.61046E-05-4.49103E-06-9.70250E-19 6.37475E-19
 -1       259 1.22846E-04-3.77591E-05-3.64562E-05-2.09724E-07-5.33763E-20 6.20971E-19
 -1       260 1.21010E-04-3.68006E-05-3.60983E-05 2.64884E-06 2.08602E-19 1.08816E-18
 -1       261 1.17766E-04-3.55022E-05-3.52696E-05 4.01201E-06 1.89822E-19 2.26373E-18
 -1       262 1.14019E-04-3.41826E-05-3.42267E-05 4.30890E-06 1.70098E-18 2.17886E-18
 -1       263 1.10350E-04-3.29892E-05-3.31605E-05 4.00711E-06-5.79014E-20 6.27397E-19
 -1       264 1.07061E-04-3.19733E-05-3.21822E-05 3.44506E-06-9.69640E-19-1.07217E-18
 -1       265 1.04272E-04-3.11399E-05-3.13411E-05 2.82253E-06 1.17237E-18-1.27624E-18
 -1       266 1.01992E-04-3.04732E-05-3.06482E-05 2.23973E-06 3.34357E-19-2.09209E-19
 -1       267 1.00176E-04-2.99500E-05-3.00940E-05 1.73710E-06 2.39907E-19 6.37856E-19
 -1       268 9.87608E-05-2.95458E-05-2.96606E-05 1.32333E-06-7.57923E-19-4.89666E-19
 -1       269 9.76757E-05-2.92379E-05-2.93277E-05 9.92093E-07-1.24965E-18-5.02248E-19
 -1       270 9.68579E-05-2.90068E-05-2.90767E-05 7.30825E-07 7.45382E-19 2.40387E-19
 -1       271 9.62540E-05-2.88363E-05-2.88913E-05 5.24951E-07 7.93242E-19-2.84485E-18
 -1       272 9.58213E-05-2.87137E-05-2.87590E-05 3.59737E-07 3.58343E-18-3.08990E-18
 -1       273 9.55277E-05-2.86294E-05-2.86699E-05 2.21789E-07 1.06637E-18-4.25420E-18
 -1       274 9.53479E-05-2.85768E-05-2.86153E-05 1.00457E-07-9.79754E-19-2.57598E-18
 -1       275 9.52601E-05-2.85616E-05-2.85831E-05 1.73661E-09-1.01567E-18-3.04228E-18
 -1       276 9.52544E-05-2.85156E-05-2.86014E-05 5.44295E-08-1.56871E-18 9.72067E-19
 -1       277 9.52172E-05-2.83933E-05-2.86386E-05 1.67520E-07-8.74770E-19 2.97346E-18
 -1       278 9.51489E-05-2.82103E-05-2.86879E-05 2.57723E-07-9.22221E-20 2.54323E-18
 -1       279 9.50676E-05-2.79934E-05-2.87462E-05 2.96537E-07-2.17335E-18 3.38351E-19
 -1       280 9.49883E-05-2.77796E-05-2.88041E-05 2.80384E-07-1.90940E-18-3.73964E-18
 -1       281 9.49211E-05-2.75961E-05-2.88543E-05 2.14988E-07-2.32309E-18-1.15479E-18
 -1       282 9.48775E-05-2.74759E-05-2.88873E-05 1.13950E-07-3.31926E-18 8.99515E-19
 -1       283 9.48637E-05-2.74371E-05-2.88981E-05-4.64732E-09-2.18504E-18-3.81403E-19
 -1       284 9.48813E-05-2.74849E-05-2.88851E-05-1.21286E-07-1.35868E-18-1.87774E-18
 -1       285 9.49273E-05-2.76112E-05-2.88504E-05-2.17354E-07-1.88207E-18-5.60912E-19
 -1       286 9.49934E-05-2.77925E-05-2.88007E-05-2.76457E-07-1.97043E-18-5.29413E-19
 -1       287 9.50721E-05-2.80069E-05-2.87423E-05-2.89574E-07-1.75263E-18 2.26763E-18
 -1       288 9.51504E-05-2.82186E-05-2.86850E-05-2.50522E-07-2.98633E-19 5.62264E-19
 -1       289 9.52151E-05-2.83931E-05-2.86373E-05-1.65560E-07-1.05854E-18 8.92024E-20
 -1       290 9.52670E-05-2.84828E-05-2.86211E-05-1.17143E-07-1.06603E-18-7.85259E-19
 -1       291 1.14826E-05-4.45262E-05 1.12389E-05 6.63459E-06 2.19392E-18 2.45544E-18
 -1       292 2.54049E-05-4.40899E-05 5.07765E-06 1.90193E-05 3.89233E-18 4.69219E-18
 -1       293 5.56881E-05-3.96391E-05-8.58795E-06 3.49297E-05 3.41037E-18 4.48033E-18
 -1       294 9.40961E-05-3.53687E-05-2.56829E-05 4.25511E-05 4.52189E-18 4.75037E-18
 -1       295 1.38566E-04-3.43799E-05-4.36595E-05 4.32654E-05 6.39213E-18 4.74529E-18
 -1       296 1.81973E-04-3.51212E-05-6.01417E-05 3.70662E-05 4.62766E-18 3.32164E-18
 -1       297 2.10783E-04-3.78318E-05-7.02925E-05 1.84429E-05 4.86843E-18-6.56451E-19
 -1       298 2.13793E-04-3.63019E-05-7.23087E-05-4.72980E-06 5.95443E-18-4.88293E-18
 -1       299 1.97179E-04-3.57328E-05-6.60677E-05-2.52346E-05 5.70540E-18-7.32429E-18
 -1       300 1.63010E-04-3.39705E-05-5.32759E-05-4.24519E-05 5.58994E-18-8.40574E-18
 -1       301 1.16472E-04-3.17960E-05-3.59195E-05-4.60368E-05 5.95951E-18-8.73122E-18
 -1       302 7.15562E-05-3.41817E-05-1.72957E-05-3.89904E-05 3.99842E-18-7.62976E-18
 -1       303 3.80168E-05-4.07710E-05-1.40293E-06-2.60214E-05 1.97168E-18-6.33847E-18
 -1       304 1.74541E-05-4.39142E-05 8.55964E-06-1.45135E-05-1.23783E-18-4.28260E-18
 -1       305 8.91534E-06-3.95586E-05 1.09223E-05 2.49848E-06-1.86868E-18-2.69282E-18
 -1       306 1.80532E-05-4.48284E-05 8.47314E-06 1.62570E-05-4.40627E-18-1.23190E-18
 -1       307 4.60320E-05-3.97101E-05-4.20821E-06 3.58937E-05-2.92819E-18-3.05834E-18
 -1       308 7.44311E-05-3.05699E-05-1.96465E-05 4.22758E-05-5.36659E-18-4.16105E-18
 -1       309 1.21724E-04-3.19504E-05-3.78667E-05 4.50427E-05-4.59791E-18-2.39837E-18
 -1       310 1.63030E-04-3.04382E-05-5.47094E-05 4.34718E-05-3.54944E-18-1.13121E-18
 -1       311 1.86450E-04-2.94839E-05-6.50840E-05 1.79031E-05-2.99310E-18 1.19696E-18
 -1       312 2.07145E-04-3.42065E-05-7.08673E-05 8.40593E-07-3.39078E-18 1.87260E-18
 -1       313 2.01446E-04-3.52136E-05-6.78602E-05-2.38604E-05-4.02076E-18 3.45251E-18
 -1       314 1.71202E-04-3.11382E-05-5.75848E-05-4.13317E-05-5.81515E-18 5.50233E-18
 -1       315 1.30876E-04-2.99551E-05-4.22280E-05-4.63453E-05-7.64278E-18 6.38493E-18
 -1       316 8.59060E-05-2.89982E-05-2.47908E-05-4.49572E-05-8.70305E-18 8.26598E-18
 -1       317 5.16292E-05-3.61457E-05-8.30753E-06-3.53724E-05-6.78537E-18 6.53878E-18
 -1       318 2.52845E-05-4.28560E-05 4.68890E-06-2.11805E-05-3.87179E-18 7.47496E-18
 -1       319 1.23980E-05-4.63576E-05 1.14320E-05-9.20207E-06-1.03846E-18 6.36291E-18
 -1       320 9.16453E-05-1.43875E-05-3.31735E-05-1.30041E-05-1.27625E-18-1.53691E-18
 -1       321 9.56437E-05-1.90864E-05-3.28733E-05-1.45829E-05-1.63010E-18-6.85746E-19
 -1       322 8.80406E-05-1.03419E-05-3.33544E-05-8.10043E-06-4.66596E-19-2.12516E-18
 -1       323 8.72377E-05-9.41053E-06-3.34027E-05-5.66816E-06-4.75811E-20-2.13762E-18
 -1       324 8.67784E-05-8.86737E-06-3.34352E-05-3.33392E-06 3.86824E-19-2.01440E-18
 -1       325 8.65731E-05-8.62044E-06-3.34515E-05-1.06192E-06 7.61681E-19-1.93802E-18
 -1       326 8.65824E-05-8.63039E-06-3.34513E-05 1.18997E-06 1.08468E-18-1.74663E-18
 -1       327 8.68078E-05-8.89890E-06-3.34344E-05 3.46434E-06 1.34534E-18-1.67050E-18
 -1       328 8.72799E-05-9.45584E-06-3.34017E-05 5.76221E-06 1.59720E-18-1.33092E-18
 -1       329 8.81136E-05-1.04228E-05-3.33513E-05 8.19169E-06 1.86457E-18-7.11412E-19
 -1       330 8.95116E-05-1.20190E-05-3.32776E-05 1.06993E-05 2.07631E-18-1.61499E-20
 -1       331 9.18980E-05-1.47138E-05-3.31599E-05 1.31103E-05 2.18901E-18 9.35065E-19
 -1       332 9.57449E-05-1.94415E-05-3.28089E-05 1.43298E-05 2.01137E-18 2.66744E-18
 -1       333 9.86883E-05-2.44160E-05-3.19189E-05 1.18646E-05 1.69984E-18 4.11531E-18
 -1       334 9.63076E-05-2.67838E-05-2.97662E-05 5.70234E-06 1.38130E-18 3.43689E-18
 -1       335 9.63877E-05-2.60042E-05-3.01197E-05-6.29191E-06-1.36952E-18-3.95315E-19
 -1       336 9.48986E-05-2.70023E-05-2.90727E-05-2.74950E-06-1.14795E-18-5.32143E-19
 -1       337 9.39676E-05-2.74017E-05-2.85132E-05-7.93314E-07-7.16501E-19-4.54137E-19
 -1       338 9.35126E-05-2.76185E-05-2.82332E-05 3.31899E-07-4.13324E-19-5.63924E-19
 -1       339 9.34120E-05-2.77804E-05-2.81244E-05 9.88785E-07-2.67698E-19-3.63857E-19
 -1       340 9.35567E-05-2.79251E-05-2.81260E-05 1.38192E-06-4.94054E-21-3.95854E-19
 -1       341 9.38710E-05-2.80646E-05-2.82016E-05 1.63532E-06-4.15679E-19-2.87242E-19
 -1       342 9.43086E-05-2.82042E-05-2.83295E-05 1.82857E-06-7.23131E-19-3.29893E-19
 -1       343 9.48453E-05-2.83493E-05-2.84972E-05 2.01421E-06-6.20650E-19-6.29828E-19
 -1       344 9.54734E-05-2.85074E-05-2.86985E-05 2.22572E-06-3.11716E-19-6.10818E-19
 -1       345 9.61959E-05-2.86892E-05-2.89300E-05 2.48023E-06-2.71815E-19-7.04982E-19
 -1       346 9.70221E-05-2.89089E-05-2.91898E-05 2.77803E-06 1.20689E-19-7.99600E-19
 -1       347 9.79633E-05-2.91847E-05-2.94752E-05 3.09928E-06-1.56887E-19-6.86633E-19
 -1       348 9.90278E-05-2.95386E-05-2.97803E-05 3.39846E-06-5.10845E-19-7.08273E-19
 -1       349 1.00215E-04-2.99957E-05-3.00946E-05 3.59769E-06-5.79755E-19-8.28981E-19
 -1       350 1.01509E-04-3.05788E-05-3.04014E-05 3.58103E-06-2.03707E-19-1.51674E-18
 -1       351 1.02867E-04-3.12978E-05-3.06778E-05 3.19548E-06-2.34878E-19-1.55524E-18
 -1       352 1.04200E-04-3.21275E-05-3.08971E-05 2.26819E-06-7.62153E-19-1.70616E-18
 -1       353 1.05359E-04-3.29719E-05-3.10351E-05 6.55162E-07-2.99760E-19-1.55340E-18
 -1       354 1.06111E-04-3.36239E-05-3.10793E-05-1.66387E-06 2.36197E-19-1.76330E-18
 -1       355 1.06151E-04-3.37533E-05-3.10391E-05-4.44722E-06 6.56245E-19-1.05714E-18
 -1       356 1.05190E-04-3.29878E-05-3.09497E-05-7.05692E-06 4.70507E-19-5.98483E-19
 -1       357 1.03177E-04-3.11659E-05-3.08591E-05-8.47621E-06-7.66540E-20-1.05330E-18
 -1       358 1.00567E-04-2.86697E-05-3.08036E-05-7.67961E-06-6.02937E-19-1.16721E-18
 -1       359 9.83734E-05-2.65119E-05-3.07849E-05-4.35344E-06-8.54401E-19-3.01144E-19
 -1       360 9.76378E-05-2.57703E-05-3.07836E-05 6.17349E-07 2.15009E-19 3.20590E-19
 -1       361 9.87956E-05-2.69208E-05-3.07863E-05 5.35189E-06 1.03414E-19-1.20803E-18
 -1       362 1.01207E-04-2.92818E-05-3.08151E-05 8.11659E-06 3.67643E-19-1.40939E-18
 -1       363 1.03751E-04-3.16851E-05-3.08842E-05 8.32259E-06-1.78951E-19-5.02132E-19
 -1       364 1.05542E-04-3.32631E-05-3.09837E-05 6.53190E-06-9.50207E-20 5.63152E-19
 -1       365 1.06262E-04-3.37897E-05-3.10722E-05 3.81893E-06-4.45815E-19 1.17236E-18
 -1       366 1.06047E-04-3.35053E-05-3.11025E-05 1.12674E-06 1.60936E-19 4.58752E-19
 -1       367 1.05202E-04-3.27862E-05-3.10466E-05-1.00582E-06-4.36861E-19-4.16520E-19
 -1       368 1.04023E-04-3.19373E-05-3.09019E-05-2.41050E-06-2.05245E-19-1.07508E-18
 -1       369 1.02726E-04-3.11372E-05-3.06852E-05-3.14683E-06-6.35481E-19-1.02096E-18
 -1       370 1.01446E-04-3.04623E-05-3.04230E-05-3.37092E-06-2.72793E-19 1.19064E-19
 -1       371 1.00261E-04-2.99277E-05-3.01423E-05-3.25249E-06-8.75885E-19-2.43004E-19
 -1       372 9.92095E-05-2.95200E-05-2.98654E-05-2.93557E-06-7.53657E-19 5.88465E-19
 -1       373 9.83065E-05-2.92163E-05-2.96080E-05-2.52656E-06-7.75455E-19 2.17593E-18
 -1       374 9.75507E-05-2.89934E-05-2.93794E-05-2.09613E-06-4.93299E-19 3.06714E-18
 -1       375 9.69325E-05-2.88311E-05-2.91841E-05-1.68610E-06 1.65999E-18 1.87245E-18
 -1       376 9.64373E-05-2.87130E-05-2.90227E-05-1.31714E-06 2.07706E-18 1.16572E-18
 -1       377 9.60486E-05-2.86263E-05-2.88935E-05-9.95358E-07 1.26675E-18 5.14787E-19
 -1       378 9.57495E-05-2.85610E-05-2.87935E-05-7.17996E-07 1.25123E-18 5.75613E-20
 -1       379 9.55246E-05-2.85109E-05-2.87186E-05-4.77474E-07 1.47269E-18 7.42169E-19
 -1       380 9.53764E-05-2.84881E-05-2.86655E-05-2.81713E-07 1.11880E-18 8.27563E-19
 -1       381 9.43178E-05-2.73160E-05-2.86767E-05 2.41309E-06 1.01183E-18 3.04306E-18
 -1       382 9.31554E-05-2.74419E-05-2.81408E-05 6.57757E-07 5.99229E-19 2.64991E-18
 -1       383 9.26664E-05-2.75299E-05-2.79052E-05-3.11386E-07 4.07646E-19 2.07329E-18
 -1       384 9.26200E-05-2.76395E-05-2.78439E-05-8.57675E-07 4.13875E-19 1.67305E-18
 -1       385 9.28599E-05-2.77747E-05-2.78911E-05-1.17529E-06 6.98524E-19 1.50477E-18
 -1       386 9.32898E-05-2.79296E-05-2.80098E-05-1.37781E-06 7.92052E-19 1.92524E-18
 -1       387 9.38567E-05-2.80995E-05-2.81802E-05-1.53895E-06 3.85132E-19 1.99760E-18
 -1       388 9.45391E-05-2.82840E-05-2.83933E-05-1.71145E-06 3.79138E-21 1.98398E-18
 -1       389 9.53384E-05-2.84871E-05-2.86483E-05-1.93625E-06 7.21689E-19 1.59854E-18
 -1       390 9.62738E-05-2.87166E-05-2.89501E-05-2.24705E-06 9.39386E-19 1.26600E-18
 -1       391 9.73779E-05-2.89841E-05-2.93078E-05-2.67211E-06 5.40807E-19 1.08624E-18
 -1       392 9.86936E-05-2.93058E-05-2.97329E-05-3.23303E-06 1.96014E-19 1.26522E-18
 -1       393 1.00270E-04-2.97036E-05-3.02372E-05-3.93965E-06 8.99902E-20 1.41024E-18
 -1       394 1.02156E-04-3.02076E-05-3.08297E-05-4.77846E-06 9.34106E-19 1.21789E-18
 -1       395 1.04396E-04-3.08613E-05-3.15105E-05-5.69083E-06 8.14635E-19 1.44882E-18
 -1       396 1.07013E-04-3.17275E-05-3.22644E-05-6.53711E-06-5.67694E-20 1.79539E-18
 -1       397 1.09996E-04-3.28910E-05-3.30505E-05-7.04589E-06-1.15422E-18 1.63674E-18
 -1       398 1.13268E-04-3.44427E-05-3.37963E-05-6.76284E-06-8.99866E-19 1.66302E-18
 -1       399 1.16622E-04-3.64041E-05-3.44018E-05-5.05182E-06-1.09920E-18 2.05725E-18
 -1       400 1.19610E-04-3.85360E-05-3.47722E-05-1.27048E-06-2.73691E-19 2.75207E-18
 -1       401 1.21372E-04-4.00138E-05-3.48916E-05 4.67476E-06-4.02791E-19 3.76101E-18
 -1       402 1.20726E-04-3.93822E-05-3.48921E-05 1.13557E-05-1.47490E-18 4.33752E-18
 -1       403 1.16847E-04-3.53359E-05-3.49888E-05 1.51436E-05-4.52919E-19 4.57208E-18
 -1       404 1.11278E-04-2.92246E-05-3.52364E-05 1.18254E-05 2.54134E-18 4.51250E-18
 -1       405 1.08173E-04-2.56685E-05-3.54371E-05 1.22292E-06 3.07646E-18 2.83456E-18
 -1       406 1.10471E-04-2.81066E-05-3.53717E-05-1.02091E-05 7.91526E-19 1.23847E-18
 -1       407 1.16093E-04-3.42052E-05-3.51283E-05-1.51884E-05 9.84752E-19 2.33662E-19
 -1       408 1.20549E-04-3.89626E-05-3.49767E-05-1.25233E-05 9.04615E-19-2.44558E-19
 -1       409 1.21686E-04-4.01799E-05-3.49678E-05-6.03579E-06-5.59349E-19-7.99656E-19
 -1       410 1.20187E-04-3.89556E-05-3.48509E-05 2.42260E-07 3.21075E-19-1.48609E-18
 -1       411 1.17281E-04-3.68397E-05-3.45057E-05 4.46184E-06-9.33673E-19-1.93593E-19
 -1       412 1.13923E-04-3.47944E-05-3.39314E-05 6.50665E-06-1.62420E-19 1.88087E-18
 -1       413 1.10634E-04-3.31568E-05-3.32124E-05 6.97903E-06 1.77638E-18 1.81620E-18
 -1       414 1.07645E-04-3.19344E-05-3.24471E-05 6.54171E-06 1.55159E-18 1.45222E-18
 -1       415 1.05043E-04-3.10376E-05-3.17119E-05 5.68645E-06-3.42364E-19-5.69379E-19
 -1       416 1.02845E-04-3.03762E-05-3.10519E-05 4.71474E-06-2.62938E-19-1.53769E-18
 -1       417 1.01034E-04-2.98828E-05-3.04868E-05 3.78599E-06-8.49422E-19 2.62300E-19
 -1       418 9.95699E-05-2.95111E-05-3.00192E-05 2.97034E-06 3.20006E-19 8.80794E-19
 -1       419 9.84069E-05-2.92299E-05-2.96422E-05 2.28797E-06 4.16039E-20 1.35123E-18
 -1       420 9.74978E-05-2.90173E-05-2.93446E-05 1.73382E-06-2.07886E-19 1.04618E-18
 -1       421 9.67983E-05-2.88568E-05-2.91144E-05 1.29144E-06 3.34703E-19-3.30177E-19
 -1       422 9.62690E-05-2.87362E-05-2.89400E-05 9.40072E-07 1.77003E-18-1.31721E-18
 -1       423 9.58769E-05-2.86456E-05-2.88113E-05 6.58242E-07 2.85305E-18-7.54680E-19
 -1       424 9.55948E-05-2.85787E-05-2.87196E-05 4.26918E-07 2.05272E-18 2.53028E-19
 -1       425 9.54006E-05-2.85331E-05-2.86564E-05 2.33021E-07-1.80299E-18 1.41327E-18
 -1       426 9.53145E-05-2.85133E-05-2.86284E-05 1.37364E-07-5.78802E-19 6.39866E-19
 -1       427 9.51145E-05-2.80293E-05-2.87504E-05 5.20399E-07-2.31274E-18 2.60599E-19
 -1       428 9.52366E-05-2.82490E-05-2.87082E-05 4.28999E-07-1.31900E-18 1.76949E-18
 -1       429 9.52962E-05-2.84015E-05-2.86682E-05 2.86118E-07-9.56368E-19 1.86918E-18
 -1       430 9.49885E-05-2.78109E-05-2.87905E-05 5.25160E-07-2.13897E-18-3.37465E-18
 -1       431 9.48755E-05-2.76157E-05-2.88262E-05 4.43393E-07-9.08590E-19-1.81489E-18
 -1       432 9.47938E-05-2.74734E-05-2.88524E-05 2.90692E-07-3.30740E-19-1.81473E-18
 -1       433 9.47532E-05-2.74022E-05-2.88657E-05 9.38371E-08-2.82383E-18 9.42851E-19
 -1       434 9.47580E-05-2.74104E-05-2.88642E-05-1.15505E-07-1.49810E-18 1.74710E-19
 -1       435 9.48065E-05-2.74958E-05-2.88482E-05-3.05133E-07-3.80524E-19-5.33816E-19
 -1       436 9.48900E-05-2.76432E-05-2.88205E-05-4.44460E-07-3.12912E-19 3.85042E-20
 -1       437 9.50005E-05-2.78384E-05-2.87839E-05-5.16681E-07 1.51814E-18 2.45974E-18
 -1       438 9.51220E-05-2.80542E-05-2.87431E-05-5.06660E-07 5.40736E-19 1.74548E-19
 -1       439 9.52385E-05-2.82666E-05-2.87015E-05-4.16464E-07-6.92120E-19-1.21059E-18
 -1       440 5.71893E-05-4.05981E-05-7.16562E-06 4.12496E-05-9.13737E-19 3.15271E-18
 -1       441 1.37214E-05-1.83488E-05 2.22306E-06-2.87799E-06 4.23378E-19 4.44904E-18
 -1       442 2.79438E-05-2.73499E-05-1.78431E-07 2.79907E-05 5.71694E-19 1.82154E-18
 -1       443 1.00449E-04-5.45417E-05-1.97879E-05 3.95554E-05 2.80580E-19 2.29429E-18
 -1       444 1.35831E-04-5.69175E-05-3.38820E-05 2.43608E-05 1.69661E-18 9.37030E-19
 -1       445 8.94510E-05-1.19101E-05-3.32941E-05-1.06975E-05-9.47930E-19-2.09685E-18
 -1       446 1.60749E-04-2.64506E-05-5.74440E-05-4.52751E-06 4.87955E-18-5.53218E-19
 -1       447 1.65293E-04-1.62803E-05-6.35145E-05-1.32530E-06 6.79585E-18-2.32121E-18
 -1       448 1.57439E-04-1.75211E-05-6.00710E-05 5.36654E-06 5.71239E-18-1.39633E-18
 -1       449 1.60351E-04-3.59851E-05-5.32614E-05 7.61386E-07 3.21645E-18-2.13537E-18
 -1       450 1.48921E-04-5.09468E-05-4.19219E-05-1.62205E-05 1.65971E-18-2.94842E-18
 -1       451 1.21134E-04-5.74659E-05-2.73440E-05-3.25405E-05-2.00429E-19-3.92070E-18
 -1       452 7.79905E-05-4.86546E-05-1.28433E-05-4.22230E-05-5.19655E-19-5.43078E-18
 -1       453 4.32430E-05-3.51508E-05-3.53268E-06-3.72710E-05-7.32683E-19-5.59169E-18
 -1       454 1.59102E-05-2.21602E-05 2.61898E-06-1.41057E-05 6.13569E-20-4.51860E-18
 -1       455 2.06150E-05-2.12281E-05 5.96769E-07 2.20482E-05 4.65445E-19-1.17833E-18
 -1       456 4.55467E-05-3.30301E-05-5.14319E-06 4.06802E-05 5.65289E-19-1.05715E-18
 -1       457 8.55567E-05-4.89689E-05-1.57327E-05 4.43382E-05-2.31346E-19-9.17945E-19
 -1       458 1.19339E-04-5.38186E-05-2.81449E-05 3.43606E-05-1.15482E-18 4.76880E-19
 -1       459 1.46969E-04-4.47904E-05-4.36651E-05 1.49606E-05-2.44292E-18 1.01887E-18
 -1       460 1.54428E-04-2.94649E-05-5.35479E-05 1.55316E-06-3.34287E-18 1.60767E-18
 -1       461 1.49805E-04-1.12271E-05-5.95843E-05-2.62621E-06-2.98632E-18 1.20718E-18
 -1       462 1.61939E-04-1.52293E-05-6.25213E-05-2.13742E-07-3.86575E-18 1.90540E-18
 -1       463 1.58892E-04-2.59662E-05-5.66963E-05-3.16402E-06-4.30706E-18 6.99861E-19
 -1       464 1.49781E-04-4.14531E-05-4.63015E-05-1.21421E-05-3.58636E-18-3.93129E-19
 -1       465 1.27331E-04-5.17690E-05-3.23939E-05-3.05927E-05-3.00453E-18-1.83171E-19
 -1       466 9.37732E-05-4.98581E-05-1.89357E-05-4.26341E-05-3.39533E-18 3.39756E-18
 -1       467 5.47369E-05-3.95440E-05-6.67043E-06-4.31573E-05-5.61477E-19 7.08167E-18
 -1       468 2.42846E-05-2.87071E-05 1.61021E-06-2.82985E-05 4.77832E-19 7.75554E-18
 -1       469 1.56859E-04-4.46003E-05-4.80009E-05 6.63453E-06 4.30061E-18 2.87885E-19
 -1       470 2.19629E-05-1.27421E-05-3.36496E-06 4.95526E-06 1.28502E-18-2.69526E-18
 -1       471 9.58016E-05-2.51224E-05-3.02768E-05 5.93657E-06 1.42552E-18 1.56579E-18
 -1       472 8.95611E-05-1.33044E-05-3.27003E-05-3.86166E-06 2.08019E-19-1.76224E-18
 -1       473 9.02735E-05-1.42902E-05-3.25844E-05-5.79514E-06-2.00826E-19-1.77463E-18
 -1       474 8.90560E-05-1.26027E-05-3.27834E-05 5.27874E-08 8.40114E-19-1.61966E-18
 -1       475 8.91949E-05-1.27926E-05-3.27618E-05 2.00980E-06 1.13174E-18-1.52052E-18
 -1       476 8.95957E-05-1.33458E-05-3.26977E-05 3.93373E-06 1.37696E-18-1.32538E-18
 -1       477 9.03266E-05-1.43564E-05-3.25797E-05 5.86756E-06 1.73400E-18-8.21275E-19
 -1       478 9.14744E-05-1.59603E-05-3.23863E-05 7.68882E-06 1.85617E-18-2.79352E-19
 -1       479 9.32469E-05-1.84502E-05-3.20758E-05 9.20936E-06 1.92085E-18 3.14130E-19
 -1       480 9.51233E-05-2.65443E-05-2.93729E-05 2.75440E-06 1.10847E-18 1.11934E-18
 -1       481 9.54778E-05-2.43951E-05-3.04531E-05-5.71802E-06-1.17376E-18-9.11626E-19
 -1       482 1.46332E-04-3.80078E-05-4.68997E-05-1.38196E-05 4.20414E-18-8.49998E-19
 -1       483 9.52990E-05-2.61780E-05-2.96154E-05-2.74181E-06-7.81722E-19-6.54631E-19
 -1       484 9.49751E-05-2.70926E-05-2.90885E-05-8.04268E-07-6.27843E-19-4.53876E-19
 -1       485 9.47479E-05-2.76033E-05-2.87744E-05 4.24533E-07-3.41667E-19-7.91017E-19
 -1       486 9.46594E-05-2.79058E-05-2.86078E-05 1.20318E-06-2.65248E-19-7.99953E-19
 -1       487 9.46969E-05-2.80915E-05-2.85447E-05 1.71166E-06-3.51221E-19-1.12080E-18
 -1       488 9.48372E-05-2.82069E-05-2.85555E-05 2.07337E-06-5.53371E-19-1.20004E-18
 -1       489 9.50619E-05-2.82798E-05-2.86205E-05 2.37396E-06-7.28019E-19-1.05694E-18
 -1       490 9.53613E-05-2.83314E-05-2.87267E-05 2.67183E-06-3.87590E-19-5.07980E-19
 -1       491 9.57346E-05-2.83823E-05-2.88647E-05 3.00356E-06-1.23486E-19-5.74709E-19
 -1       492 9.61893E-05-2.84565E-05-2.90276E-05 3.38561E-06 7.59544E-20-2.82975E-19
 -1       493 9.67413E-05-2.85852E-05-2.92091E-05 3.81280E-06-1.27096E-19-6.84771E-19
 -1       494 9.74152E-05-2.88095E-05-2.94019E-05 4.25423E-06-7.04124E-20-5.66170E-19
 -1       495 9.82445E-05-2.91828E-05-2.95977E-05 4.64683E-06-5.86828E-19-2.15960E-19
 -1       496 9.92715E-05-2.97700E-05-2.97869E-05 4.88770E-06-1.10458E-18-2.35629E-19
 -1       497 1.00542E-04-3.06376E-05-2.99609E-05 4.82778E-06-4.90976E-19-1.31721E-18
 -1       498 1.02091E-04-3.18289E-05-3.01156E-05 4.27265E-06-2.43657E-19-1.36277E-18
 -1       499 1.03904E-04-3.33102E-05-3.02593E-05 3.00204E-06-5.47038E-19-4.79248E-19
 -1       500 1.05852E-04-3.48866E-05-3.04199E-05 8.30928E-07 3.79209E-20-1.14442E-18
 -1       501 1.07613E-04-3.61109E-05-3.06508E-05-2.25938E-06 8.46190E-19-4.35572E-19
 -1       502 1.08632E-04-3.62634E-05-3.10199E-05-5.91323E-06 3.83321E-19-4.34030E-20
 -1       503 1.08249E-04-3.45704E-05-3.15796E-05-9.14714E-06-5.88146E-20-4.30813E-19
 -1       504 1.06229E-04-3.08864E-05-3.22927E-05-1.03862E-05-6.79558E-19-6.08814E-19
 -1       505 1.03336E-04-2.63824E-05-3.29901E-05-8.15215E-06-3.89486E-19-4.48290E-19
 -1       506 1.01279E-04-2.33404E-05-3.34107E-05-2.63477E-06-1.17509E-19-8.92520E-19
 -1       507 1.01647E-04-2.38507E-05-3.33386E-05 4.17269E-06-3.45597E-19-6.80527E-19
 -1       508 1.04037E-04-2.74182E-05-3.28380E-05 9.05763E-06 1.53700E-19-6.39786E-19
 -1       509 1.06843E-04-3.18985E-05-3.21188E-05 1.03736E-05 5.33576E-19-6.24254E-19
 -1       510 1.08503E-04-3.51504E-05-3.14387E-05 8.52763E-06 6.78681E-20 9.72818E-20
 -1       511 1.08513E-04-3.63492E-05-3.09339E-05 5.09135E-06-4.28101E-19 2.42470E-19
 -1       512 1.07274E-04-3.58685E-05-3.06099E-05 1.53450E-06-1.27971E-18 1.88168E-19
 -1       513 1.05441E-04-3.45006E-05-3.04095E-05-1.32093E-06-5.22189E-19-1.07743E-19
 -1       514 1.03524E-04-3.29113E-05-3.02671E-05-3.22525E-06-3.61988E-19-1.03867E-18
 -1       515 1.01794E-04-3.14834E-05-3.01358E-05-4.25283E-06-2.32761E-19 7.06712E-19
 -1       516 1.00346E-04-3.03647E-05-2.99930E-05-4.60449E-06-2.85982E-19 1.40098E-18
 -1       517 9.91783E-05-2.95645E-05-2.98346E-05-4.49638E-06-1.41879E-18 5.12877E-19
 -1       518 9.82533E-05-2.90312E-05-2.96661E-05-4.11206E-06 1.16908E-19 7.51858E-19
 -1       519 9.75253E-05-2.86982E-05-2.94964E-05-3.58939E-06-1.84371E-19 1.65102E-18
 -1       520 9.69535E-05-2.85046E-05-2.93342E-05-3.02284E-06-1.52963E-19 2.06526E-18
 -1       521 9.65050E-05-2.84019E-05-2.91860E-05-2.47141E-06-5.28981E-19 1.65506E-18
 -1       522 9.61535E-05-2.83544E-05-2.90558E-05-1.96754E-06 3.69494E-19-4.79019E-20
 -1       523 9.58779E-05-2.83363E-05-2.89456E-05-1.52480E-06 4.64553E-19-5.14035E-19
 -1       524 9.56612E-05-2.83310E-05-2.88551E-05-1.14453E-06 2.02849E-18-8.89944E-19
 -1       525 9.54901E-05-2.83281E-05-2.87830E-05-8.20787E-07 1.89959E-18-7.21845E-19
 -1       526 5.39305E-05-2.95181E-05-9.95284E-06 3.57638E-05-3.07208E-19 1.89127E-18
 -1       527 9.42551E-05-2.76339E-05-2.85480E-05-3.91230E-07 5.68299E-19 5.49887E-19
 -1       528 9.41646E-05-2.78716E-05-2.84095E-05-1.12834E-06 6.94202E-19 2.97371E-19
 -1       529 9.42525E-05-2.80329E-05-2.83788E-05-1.60163E-06 5.29928E-19 3.49340E-19
 -1       530 9.44758E-05-2.81487E-05-2.84252E-05-1.94077E-06 3.07319E-19 9.12048E-19
 -1       531 9.48056E-05-2.82340E-05-2.85299E-05-2.23758E-06 2.70867E-19 1.22553E-18
 -1       532 9.52267E-05-2.82981E-05-2.86826E-05-2.56067E-06 7.59629E-19 8.92336E-19
 -1       533 9.57357E-05-2.83483E-05-2.88788E-05-2.96390E-06 1.09873E-18 7.92706E-19
 -1       534 9.63384E-05-2.83928E-05-2.91175E-05-3.49065E-06 6.58811E-19 9.64856E-19
 -1       535 9.70481E-05-2.84432E-05-2.93994E-05-4.17474E-06 5.23533E-19 9.14445E-19
 -1       536 9.78848E-05-2.85187E-05-2.97251E-05-5.03769E-06 2.75102E-20 4.15593E-19
 -1       537 9.88772E-05-2.86540E-05-3.00921E-05-6.08078E-06 4.64354E-19 8.02891E-19
 -1       538 1.00069E-04-2.89129E-05-3.04919E-05-7.26961E-06 4.88927E-19 9.75068E-19
 -1       539 1.01533E-04-2.94096E-05-3.09076E-05-8.50746E-06 5.13981E-20 1.96885E-18
 -1       540 1.03395E-04-3.03346E-05-3.13122E-05-9.59423E-06-8.92731E-19 2.23235E-18
 -1       541 1.05866E-04-3.19708E-05-3.16749E-05-1.01700E-05-1.27964E-18 2.43967E-18
 -1       542 1.09241E-04-3.46465E-05-3.19821E-05-9.65346E-06-8.03462E-19 2.37802E-18
 -1       543 1.13788E-04-3.85096E-05-3.22824E-05-7.23126E-06-8.49940E-19 2.00048E-18
 -1       544 1.19384E-04-4.29901E-05-3.27586E-05-2.01752E-06-1.07328E-18 2.71827E-18
 -1       545 1.24704E-04-4.58551E-05-3.38171E-05 6.15750E-06-1.55495E-18 3.49039E-18
 -1       546 1.26725E-04-4.33005E-05-3.58839E-05 1.51698E-05-1.53269E-18 4.08358E-18
 -1       547 1.23375E-04-3.31647E-05-3.89310E-05 1.80419E-05 1.46665E-18 3.93291E-18
 -1       548 1.18239E-04-2.19989E-05-4.14941E-05 9.40199E-06 3.81079E-18 4.45127E-18
 -1       549 1.16365E-04-2.03528E-05-4.15970E-05-7.14345E-06 2.90646E-18 2.89530E-18
 -1       550 1.21610E-04-3.07826E-05-3.92526E-05-1.80486E-05 2.58491E-18-4.97619E-19
 -1       551 1.26766E-04-4.21507E-05-3.63919E-05-1.70346E-05 1.28099E-18-2.13409E-18
 -1       552 1.25626E-04-4.59273E-05-3.42160E-05-8.27025E-06 1.84650E-19-1.42760E-18
 -1       553 1.20472E-04-4.37266E-05-3.29223E-05 6.91199E-07-4.14957E-19-1.52902E-18
 -1       554 1.14763E-04-3.92954E-05-3.23676E-05 6.48768E-06-1.96673E-18 2.19918E-19
 -1       555 1.10003E-04-3.52309E-05-3.20596E-05 9.30836E-06-1.32166E-18 1.25336E-18
 -1       556 1.06460E-04-3.23414E-05-3.17711E-05 1.00530E-05 1.60622E-18 9.86822E-19
 -1       557 1.03887E-04-3.05453E-05-3.14325E-05 9.56917E-06 1.61488E-18 1.72240E-18
 -1       558 1.01979E-04-2.95206E-05-3.10511E-05 8.47988E-06 1.40091E-18 3.12015E-18
 -1       559 1.00513E-04-2.89699E-05-3.06572E-05 7.17737E-06 3.15943E-19 1.92389E-18
 -1       560 9.93506E-05-2.86872E-05-3.02798E-05 5.88403E-06-3.81894E-19 1.08113E-18
 -1       561 9.84125E-05-2.85477E-05-2.99379E-05 4.71056E-06-3.86350E-19 5.36728E-19
 -1       562 9.76522E-05-2.84815E-05-2.96410E-05 3.70043E-06-3.54106E-19 2.45298E-19
 -1       563 9.70388E-05-2.84513E-05-2.93917E-05 2.85961E-06 2.54730E-19 1.27519E-18
 -1       564 9.65485E-05-2.84378E-05-2.91880E-05 2.17498E-06 3.85057E-19 1.45005E-19
 -1       565 9.61607E-05-2.84301E-05-2.90255E-05 1.62469E-06 1.91775E-18-3.47992E-19
 -1       566 9.58571E-05-2.84222E-05-2.88991E-05 1.18399E-06 1.68627E-18 5.56767E-19
 -1       567 9.56214E-05-2.84109E-05-2.88030E-05 8.29682E-07 1.49521E-18 2.49834E-18
 -1       568 9.54389E-05-2.83993E-05-2.87300E-05 5.39135E-07-5.06564E-19 3.73656E-18
 -1       569 9.48260E-05-2.75802E-05-2.88199E-05 7.00795E-07-1.27614E-18-7.94233E-19
 -1       570 9.46697E-05-2.73880E-05-2.88354E-05 5.21965E-07-2.02606E-20-1.70732E-18
 -1       571 9.52234E-05-2.80880E-05-2.87722E-05 7.30914E-07-1.22416E-18 6.10708E-19
 -1       572 9.50203E-05-2.78229E-05-2.87990E-05 7.74826E-07-3.34285E-18-1.16825E-18
 -1       573 9.45737E-05-2.72709E-05-2.88444E-05 2.67791E-07 6.23236E-19-1.65020E-18
 -1       574 9.45476E-05-2.72407E-05-2.88463E-05-2.25900E-08 1.36515E-19 1.66090E-18
 -1       575 9.45925E-05-2.72987E-05-2.88406E-05-3.06412E-07 6.32880E-19 3.49587E-19
 -1       576 9.46986E-05-2.74332E-05-2.88283E-05-5.39808E-07 1.29312E-18-2.84381E-19
 -1       577 9.48556E-05-2.76327E-05-2.88100E-05-6.98063E-07 1.19303E-18 1.34797E-18
 -1       578 9.50403E-05-2.78716E-05-2.87867E-05-7.55180E-07 1.05050E-18-2.36178E-19
 -1       579 9.52295E-05-2.81230E-05-2.87596E-05-7.02918E-07 5.84091E-19-1.89208E-18
 -1       580 3.08236E-05-1.63132E-05-5.58667E-06-2.17692E-05 1.03259E-18 6.52321E-18
 -1       581 9.45723E-05-2.72506E-05-2.88432E-05 8.03142E-07 7.23339E-19 6.63498E-19
 -1       582 9.41192E-05-5.09358E-05-1.81874E-05 3.87168E-05-1.93923E-18 1.91938E-18
 -1       583 5.09344E-05-2.86450E-05-9.04130E-06-3.82600E-05 2.02097E-18 7.38983E-18
 -1       584 9.46235E-05-2.07483E-05-3.16821E-05-9.43505E-06-1.35583E-18-1.29578E-18
 -1       585 1.26933E-04-6.24448E-05-2.76514E-05 2.42168E-05-7.29507E-20 8.21940E-19
 -1       586 1.36821E-04-5.69008E-05-3.43871E-05 1.31575E-05-5.89482E-19 2.89511E-18
 -1       587 8.91729E-05-1.27664E-05-3.27636E-05-1.90418E-06 6.24495E-19-1.79142E-18
 -1       588 1.37340E-04-1.13604E-05-5.46167E-05 1.33644E-06 6.35074E-18 4.10427E-19
 -1       589 1.12822E-04-5.76781E-05-2.35294E-05 3.35133E-05 1.65815E-18 1.08058E-18
 -1       590 1.39653E-04-1.66857E-05-5.32789E-05-1.01767E-05 6.45789E-18-1.25562E-18
 -1       591 1.40651E-04-2.73654E-05-4.91689E-05 1.52970E-05 2.29440E-18 1.90434E-18
 -1       592 1.47918E-04-4.87889E-05-4.28435E-05 7.15335E-06 3.28649E-19 8.71650E-19
 -1       593 1.40872E-04-6.11068E-05-3.42141E-05-1.08921E-05-1.28307E-18-6.75191E-19
 -1       594 1.09356E-04-5.81637E-05-2.18186E-05-3.46408E-05-2.79145E-18-2.79196E-18
 -1       595 7.71494E-05-4.32497E-05-1.40929E-05-4.09776E-05-2.11504E-18-3.62835E-18
 -1       596 4.08381E-05-2.11747E-05-7.72365E-06-2.82136E-05-2.20493E-19-4.59092E-18
 -1       597 4.42913E-05-2.05089E-05-9.52997E-06 3.03701E-05 1.98211E-18-3.64383E-19
 -1       598 1.32375E-04-7.27628E-06-5.42072E-05 2.15478E-06-3.07155E-18 6.12531E-19
 -1       599 7.85219E-05-4.18653E-05-1.52526E-05 4.21991E-05 2.06226E-18 8.32210E-20
 -1       600 1.42009E-04-4.05556E-05-4.38614E-05-5.14071E-06-1.86533E-18 1.52635E-18
 -1       601 1.34838E-04-1.84392E-05-5.04473E-05-1.05569E-05-3.16192E-18 8.79538E-19
 -1       602 1.37274E-04-1.57265E-05-5.26481E-05 8.54536E-06-2.44348E-18-7.46236E-19
 -1       603 1.42099E-04-3.39327E-05-4.67439E-05 7.50454E-06-2.15919E-18-2.76784E-18
 -1       604 1.39710E-04-5.39980E-05-3.69334E-05-8.66500E-06-5.74841E-19-2.67461E-18
 -1       605 1.19624E-04-5.85496E-05-2.61349E-05-3.11296E-05 1.69407E-19-2.39149E-18
 -1       606 8.68279E-05-4.87214E-05-1.60821E-05-4.35574E-05 9.71547E-19 1.17056E-18
 -1       607 2.97234E-05-1.48839E-05-5.71233E-06 1.53605E-05 1.15249E-19 2.46254E-18
 -1       608 9.61186E-05-2.31699E-05-3.12672E-05 9.52430E-06 1.78476E-18 1.99750E-18
 -1       609 1.45151E-04-5.66567E-05-3.81605E-05-1.75746E-06 1.67681E-18-2.94026E-19
 -1       610 9.13680E-05-1.58555E-05-3.23969E-05-7.57761E-06-6.74799E-19-1.73448E-18
 -1       611 9.53955E-05-2.83296E-05-2.87418E-05-6.24151E-07 1.33626E-18 6.83240E-19
 -1       612 3.41609E-05-1.08506E-05-9.42159E-06-3.83291E-06-2.94645E-19 4.27291E-18
 -1       613 1.23054E-04-1.00340E-05-4.89747E-05-6.66577E-06-3.40634E-18-3.93275E-19
 -1       614 1.31124E-04-1.46162E-05-5.05002E-05 8.34144E-06 5.09861E-18 1.90048E-18
 -1       615 9.15338E-05-1.66799E-05-3.20858E-05 2.36914E-06 1.12429E-18-1.22229E-18
 -1       616 9.12626E-05-1.62594E-05-3.21496E-05 8.13708E-07 9.39018E-19-1.35253E-18
 -1       617 9.29064E-05-1.88962E-05-3.17244E-05 5.13698E-06 1.56364E-18-5.19026E-19
 -1       618 9.40034E-05-2.08612E-05-3.13545E-05 6.01714E-06 1.62685E-18-5.56518E-20
 -1       619 9.52884E-05-2.40438E-05-3.05230E-05 5.01781E-06 1.46619E-18 5.27555E-19
 -1       620 1.16366E-04-5.62419E-05-2.55654E-05 2.43187E-05-1.67439E-18 5.33904E-19
 -1       621 9.53700E-05-2.58640E-05-2.97843E-05 2.40829E-06 1.11291E-18 2.83641E-19
 -1       622 1.34245E-04-5.87681E-05-3.23762E-05 4.41179E-06-5.92184E-19-1.44572E-18
 -1       623 9.41748E-05-2.09334E-05-3.13937E-05-6.90423E-06-9.23767E-19-1.43278E-18
 -1       624 9.54663E-05-2.56271E-05-2.99322E-05-2.22598E-06-6.60335E-19-9.19999E-19
 -1       625 9.55075E-05-2.67839E-05-2.94521E-05-5.38099E-07-5.88430E-19-7.14224E-19
 -1       626 9.54655E-05-2.74837E-05-2.91348E-05 6.02708E-07-2.59377E-19-7.46718E-19
 -1       627 9.54086E-05-2.78823E-05-2.89397E-05 1.37892E-06-3.39880E-19-9.01828E-19
 -1       628 9.53710E-05-2.80872E-05-2.88358E-05 1.92553E-06-5.77946E-19-9.17715E-19
 -1       629 9.53636E-05-2.81640E-05-2.87997E-05 2.34888E-06-4.33707E-19-6.12477E-19
 -1       630 9.53904E-05-2.81578E-05-2.88138E-05 2.72768E-06-1.89304E-19-3.07745E-19
 -1       631 9.54560E-05-2.81052E-05-2.88645E-05 3.11744E-06-7.84999E-20-1.06616E-19
 -1       632 9.55702E-05-2.80423E-05-2.89403E-05 3.55322E-06-4.37158E-19-6.98926E-20
 -1       633 9.57517E-05-2.80112E-05-2.90314E-05 4.05001E-06-4.79098E-19-4.78560E-19
 -1       634 9.60326E-05-2.80665E-05-2.91281E-05 4.60100E-06-6.86815E-20-6.17015E-19
 -1       635 9.64634E-05-2.82805E-05-2.92211E-05 5.17338E-06-3.02620E-19-5.44044E-19
 -1       636 9.71191E-05-2.87476E-05-2.93020E-05 5.70144E-06-6.86017E-19-6.40985E-19
 -1       637 9.81036E-05-2.95823E-05-2.93666E-05 6.07703E-06-1.26291E-18 1.24363E-19
 -1       638 9.95453E-05-3.09020E-05-2.94193E-05 6.13727E-06-3.26214E-19 1.09711E-19
 -1       639 1.01573E-04-3.27832E-05-2.94827E-05 5.65298E-06-1.48239E-19-8.93608E-19
 -1       640 1.04247E-04-3.51656E-05-2.96085E-05 4.32794E-06-3.39296E-19 5.96926E-19
 -1       641 1.07425E-04-3.76885E-05-2.98892E-05 1.85321E-06 4.48427E-19 1.04224E-18
 -1       642 1.10588E-04-3.95317E-05-3.04581E-05-1.92230E-06 8.16961E-19 6.21654E-19
 -1       643 1.12721E-04-3.93564E-05-3.14500E-05-6.62827E-06-8.96010E-20 1.24118E-18
 -1       644 1.12533E-04-3.57689E-05-3.29150E-05-1.07297E-05-8.54799E-19 8.15570E-19
 -1       645 1.09667E-04-2.90526E-05-3.45336E-05-1.16756E-05-3.38459E-19 4.97607E-19
 -1       646 1.04991E-04-2.16047E-05-3.58787E-05-7.60406E-06-3.01458E-19 9.44930E-19
 -1       647 1.04465E-04-1.96004E-05-3.63969E-05 1.04102E-06 5.72707E-20 2.73317E-19
 -1       648 1.06656E-04-2.32865E-05-3.57786E-05 8.82888E-06-1.77748E-19-2.22679E-19
 -1       649 1.10478E-04-3.06700E-05-3.42309E-05 1.18833E-05-2.60560E-19 2.01315E-19
 -1       650 1.12814E-04-3.69182E-05-3.25366E-05 9.97270E-06 9.07542E-19 1.01325E-19
 -1       651 1.12375E-04-3.96226E-05-3.11894E-05 5.53789E-06-3.38207E-19-5.29070E-19
 -1       652 1.09903E-04-3.91910E-05-3.03120E-05 9.99042E-07-5.06067E-19-2.22232E-19
 -1       653 1.06660E-04-3.70659E-05-2.98299E-05-2.44689E-06-7.44349E-19 6.99102E-20
 -1       654 1.03571E-04-3.45000E-05-2.96036E-05-4.58457E-06-6.70458E-19 6.51785E-19
 -1       655 1.01051E-04-3.21995E-05-2.95085E-05-5.62876E-06-4.32946E-19 4.81707E-19
 -1       656 9.91766E-05-3.04324E-05-2.94620E-05-5.89451E-06-4.45388E-19-4.90389E-19
 -1       657 9.78610E-05-2.92142E-05-2.94199E-05-5.66232E-06-1.83433E-19-1.39836E-18
 -1       658 9.69710E-05-2.84527E-05-2.93646E-05-5.14428E-06-9.49764E-21 7.50762E-19
 -1       659 9.63823E-05-2.80296E-05-2.92935E-05-4.48931E-06-2.72894E-19 2.39800E-19
 -1       660 9.59969E-05-2.78366E-05-2.92111E-05-3.79647E-06-6.32409E-20 1.75454E-19
 -1       661 9.57443E-05-2.77878E-05-2.91238E-05-3.12741E-06-1.18472E-18-4.84818E-19
 -1       662 9.55764E-05-2.78206E-05-2.90378E-05-2.51679E-06-1.06115E-18 1.76378E-19
 -1       663 9.54608E-05-2.78915E-05-2.89580E-05-1.98071E-06-1.91325E-19-1.74380E-18
 -1       664 9.53766E-05-2.79718E-05-2.88874E-05-1.52153E-06 6.30326E-19-1.75529E-18
 -1       665 9.53092E-05-2.80447E-05-2.88274E-05-1.13480E-06 2.55233E-18-1.30876E-18
 -1       666 5.05495E-05-1.92911E-05-1.29386E-05 2.38480E-05-3.62676E-19 6.95546E-19
 -1       667 9.52698E-05-2.80882E-05-2.87919E-05-9.07827E-07 3.58272E-18-2.05699E-18
 -1       668 9.51794E-05-2.75418E-05-2.89865E-05-5.44009E-07 7.98754E-19-2.34541E-19
 -1       669 9.51651E-05-2.81413E-05-2.87243E-05-2.31815E-06 1.71516E-19-1.18504E-20
 -1       670 9.52633E-05-2.81201E-05-2.87753E-05-2.72208E-06 4.63097E-19-1.09950E-19
 -1       671 9.53979E-05-2.80302E-05-2.88714E-05-3.16855E-06 7.39682E-19 5.40061E-19
 -1       672 9.55610E-05-2.78834E-05-2.90041E-05-3.71337E-06 7.14118E-19 4.95583E-19
 -1       673 9.57471E-05-2.76909E-05-2.91661E-05-4.40050E-06 4.73145E-19 1.44910E-18
 -1       674 9.59541E-05-2.74693E-05-2.93496E-05-5.26243E-06 3.85504E-19 1.64534E-18
 -1       675 9.61882E-05-2.72501E-05-2.95436E-05-6.31803E-06 1.64311E-20 1.93459E-18
 -1       676 9.64737E-05-2.70957E-05-2.97320E-05-7.56689E-06 3.99791E-19 2.12627E-18
 -1       677 9.68757E-05-2.71253E-05-2.98916E-05-8.97934E-06-5.10475E-19 2.40333E-18
 -1       678 9.75386E-05-2.75529E-05-2.99929E-05-1.04797E-05-6.44367E-19 2.51423E-18
 -1       679 9.87487E-05-2.87327E-05-3.00071E-05-1.19165E-05-6.72253E-19 1.76553E-18
 -1       680 1.01012E-04-3.11850E-05-2.99277E-05-1.30049E-05-9.62045E-19 8.96222E-19
 -1       681 1.05090E-04-3.55119E-05-2.98242E-05-1.31924E-05-7.42074E-19 9.78237E-19
 -1       682 1.11826E-04-4.19898E-05-2.99327E-05-1.15161E-05-1.17208E-18 1.21067E-18
 -1       683 1.21534E-04-4.96526E-05-3.08032E-05-6.22423E-06-1.69591E-18 1.89884E-18
 -1       684 1.31081E-04-5.29715E-05-3.36136E-05 3.22862E-06-2.49293E-18 2.49607E-18
 -1       685 1.13361E-04-4.32602E-05-3.00475E-05 1.08184E-05-1.42578E-18-6.55779E-19
 -1       686 1.06086E-04-3.64548E-05-2.98366E-05 1.29796E-05-2.24822E-18-1.69302E-18
 -1       687 1.01595E-04-3.17377E-05-2.99375E-05 1.29961E-05-4.49460E-19-7.59239E-19
 -1       688 9.90906E-05-2.89914E-05-3.00420E-05 1.19584E-05 1.46077E-18 3.39951E-19
 -1       689 9.77581E-05-2.76204E-05-3.00581E-05 1.04951E-05 3.37270E-19-5.70113E-19
 -1       690 9.70453E-05-2.70774E-05-2.99849E-05 8.91704E-06 6.18353E-20 1.09093E-18
 -1       691 9.66353E-05-2.69825E-05-2.98496E-05 7.39233E-06 6.37075E-20 2.72734E-18
 -1       692 9.63634E-05-2.71008E-05-2.96825E-05 6.00733E-06-3.97360E-19 2.71055E-18
 -1       693 9.61538E-05-2.73008E-05-2.95072E-05 4.79899E-06 1.79590E-19 1.84795E-18
 -1       694 9.59759E-05-2.75149E-05-2.93394E-05 3.77494E-06 6.42938E-19 8.43742E-19
 -1       695 9.58191E-05-2.77112E-05-2.91882E-05 2.92558E-06 1.01292E-18-1.01233E-18
 -1       696 9.56801E-05-2.78766E-05-2.90580E-05 2.23268E-06 4.33947E-19-8.42507E-19
 -1       697 9.55564E-05-2.80054E-05-2.89499E-05 1.67316E-06 9.83535E-19 2.49261E-20
 -1       698 9.54464E-05-2.80983E-05-2.88628E-05 1.22410E-06 4.87233E-19 3.33921E-19
 -1       699 9.53204E-05-2.80922E-05-2.88116E-05 9.62399E-07-6.83198E-19-1.06276E-19
 -1       700 9.42682E-05-2.69917E-05-2.88329E-05 1.50941E-07 1.99416E-18 8.80521E-20
 -1       701 9.45471E-05-2.72646E-05-2.88354E-05 8.16096E-07 3.15682E-19-4.77412E-19
 -1       702 9.42864E-05-2.70158E-05-2.88304E-05-2.30751E-07 1.68396E-18 9.50398E-19
 -1       703 9.43573E-05-2.70765E-05-2.88347E-05 5.17154E-07-8.45239E-20-4.80741E-19
 -1       704 5.02211E-05-1.99940E-05-1.24357E-05-2.80678E-05 8.03477E-19 5.99649E-18
 -1       705 9.44030E-05-2.71396E-05-2.88273E-05-5.70725E-07 1.04321E-18-1.51570E-19
 -1       706 9.46050E-05-2.73512E-05-2.88232E-05-8.35917E-07 2.18374E-19 1.71888E-19
 -1       707 9.48658E-05-2.76252E-05-2.88174E-05-9.85540E-07 6.50142E-19 1.62447E-18
 -1       708 9.52848E-05-2.69226E-05-2.92956E-05 6.38120E-07 8.45908E-19-5.20419E-20
 -1       709 1.01787E-04-5.01744E-05-2.19325E-05 3.33913E-05 1.38535E-18 3.09948E-19
 -1       710 4.15646E-05-1.16470E-05-1.23647E-05 9.18236E-06 1.27376E-18-1.26592E-18
 -1       711 9.51132E-05-2.80763E-05-2.87298E-05-1.88608E-06 2.40031E-19-4.47782E-20
 -1       712 9.51177E-05-2.78959E-05-2.88090E-05-1.33472E-06 7.06476E-19 3.94610E-21
 -1       713 9.50564E-05-2.37398E-05-3.05603E-05-4.28475E-06-7.16965E-19-1.11408E-18
 -1       714 1.28207E-04-2.45263E-05-4.48957E-05 1.33102E-05-1.43323E-18-3.43977E-18
 -1       715 1.08133E-04-5.45424E-05-2.27878E-05-3.32829E-05 1.28415E-18-1.79389E-18
 -1       716 1.33415E-04-4.97797E-05-3.60660E-05-3.35824E-06 5.98105E-19 9.35971E-19
 -1       717 9.20747E-05-1.75360E-05-3.19511E-05 3.84055E-06 1.35883E-18-8.03383E-19
 -1       718 9.20332E-05-1.74802E-05-3.19570E-05-3.79344E-06 4.51767E-21-1.46899E-18
 -1       719 1.26689E-04-5.76096E-05-2.95828E-05 1.48120E-05-9.05862E-20 2.23590E-18
 -1       720 1.36010E-04-4.00457E-05-4.13921E-05 1.68511E-05 5.47448E-19 2.82729E-18
 -1       721 1.29623E-04-3.30253E-05-4.17732E-05-1.26646E-05-2.35369E-18 1.46018E-18
 -1       722 1.40422E-04-5.35897E-05-3.74094E-05 7.67720E-06-1.26301E-18 2.20506E-18
 -1       723 1.27394E-04-6.01083E-05-2.87989E-05-1.60588E-05-3.18310E-18 6.93263E-19
 -1       724 1.00488E-04-4.97303E-05-2.15276E-05-3.23061E-05-2.49258E-18-1.45281E-18
 -1       725 4.76558E-05-1.41320E-05-1.39029E-05-1.53630E-05 4.50741E-19-3.12298E-18
 -1       726 6.92786E-05-3.00605E-05-1.64967E-05 3.36737E-05 1.74841E-18-1.12205E-19
 -1       727 6.63148E-05-2.88706E-05-1.56689E-05-3.16947E-05-8.90364E-19-3.22741E-18
 -1       728 1.34271E-04-4.51805E-05-3.84472E-05 7.39988E-06-3.38535E-19-3.35941E-18
 -1       729 7.69720E-05-3.83921E-05-1.61692E-05-3.91494E-05 3.24882E-18 1.92793E-18
 -1       730 8.08300E-05-3.79635E-05-1.80734E-05 3.44796E-05-1.36322E-18 1.55158E-18
 -1       731 1.22657E-04-1.27314E-05-4.76799E-05 8.55695E-06-1.10993E-18-2.48435E-18
 -1       732 1.29718E-04-5.84416E-05-3.05991E-05-1.47370E-05 2.96117E-19-2.54371E-18
 -1       733 1.30124E-04-3.06816E-05-4.30770E-05 1.76129E-05 1.12383E-18 3.12261E-18
 -1       734 9.28226E-05-1.87782E-05-3.17388E-05-5.11918E-06-3.61243E-19-1.36250E-18
 -1       735 9.12548E-05-1.62499E-05-3.21503E-05-7.60370E-07 6.99397E-19-1.48880E-18
 -1       736 4.62774E-05-1.23547E-05-1.41561E-05 8.96154E-06-6.37617E-19 2.51463E-18
 -1       737 5.73194E-05-1.77484E-05-1.66981E-05 2.03611E-05 1.06829E-18-4.59582E-19
 -1       738 1.23588E-04-5.07593E-05-3.12170E-05 5.12186E-06-8.00347E-19-1.09329E-18
 -1       739 9.50283E-05-2.77676E-05-2.88262E-05 1.02171E-06-1.66555E-18-2.93927E-18
 -1       740 9.50670E-05-2.78199E-05-2.88203E-05-1.09423E-06 1.91980E-18 1.50406E-18
 -1       741 1.20731E-04-2.23308E-05-4.25130E-05-1.34418E-05-1.55195E-18 7.36270E-19
 -1       742 1.14856E-04-1.01487E-05-4.52893E-05 9.10804E-07-2.37873E-18-2.45974E-18
 -1       743 9.15062E-05-1.66450E-05-3.20888E-05-2.30995E-06 3.20274E-19-1.32310E-18
 -1       744 9.47764E-05-2.74994E-05-2.88332E-05 9.69237E-07-2.50096E-19 8.36994E-19
 -1       745 9.46330E-05-2.25865E-05-3.08751E-05 3.72867E-06 1.44700E-18-1.99261E-19
 -1       746 9.58103E-05-2.65782E-05-2.96710E-05-1.75010E-07-4.78723E-19-7.39429E-19
 -1       747 9.58661E-05-2.73559E-05-2.93615E-05 7.95922E-07-4.47749E-19-9.46461E-19
 -1       748 9.58037E-05-2.77807E-05-2.91527E-05 1.49190E-06-4.48505E-19-9.27089E-19
 -1       749 9.56781E-05-2.79599E-05-2.90221E-05 2.01829E-06-3.44467E-19-7.17964E-19
 -1       750 9.55189E-05-2.79683E-05-2.89503E-05 2.45996E-06-1.07174E-19-6.90094E-19
 -1       751 9.53446E-05-2.78623E-05-2.89210E-05 2.88386E-06 2.47724E-19-1.80139E-19
 -1       752 9.51713E-05-2.76918E-05-2.89198E-05 3.33964E-06 5.26169E-20-8.69157E-20
 -1       753 9.50196E-05-2.75081E-05-2.89334E-05 3.86065E-06-2.06800E-19 5.41720E-19
 -1       754 9.49214E-05-2.73726E-05-2.89494E-05 4.46423E-06-4.45034E-19 4.31108E-19
 -1       755 9.49282E-05-2.73651E-05-2.89555E-05 5.15066E-06-1.75737E-19 1.08505E-19
 -1       756 9.51212E-05-2.75917E-05-2.89411E-05 5.89969E-06-4.53421E-19-1.56504E-19
 -1       757 9.56229E-05-2.81910E-05-2.88993E-05 6.66338E-06-6.15059E-19 3.23410E-19
 -1       758 9.66078E-05-2.93325E-05-2.88323E-05 7.35222E-06-8.48348E-19 6.36552E-19
 -1       759 9.83030E-05-3.11962E-05-2.87601E-05 7.80915E-06-7.99248E-19 6.93863E-20
 -1       760 1.00962E-04-3.39125E-05-2.87358E-05 7.76858E-06 8.61016E-19 4.16289E-19
 -1       761 1.04778E-04-3.74242E-05-2.88659E-05 6.79312E-06 4.82487E-19 5.21923E-19
 -1       762 1.09658E-04-4.12010E-05-2.93336E-05 4.31283E-06 5.41342E-19 1.01218E-18
 -1       763 1.14762E-04-4.37443E-05-3.04348E-05-3.57027E-07 1.06298E-18 1.09239E-18
 -1       764 1.18462E-04-4.30401E-05-3.23521E-05-6.68240E-06-4.00366E-19 1.31674E-18
 -1       765 1.17730E-04-3.58779E-05-3.51123E-05-1.20911E-05-1.04286E-18 2.15398E-18
 -1       766 1.14862E-04-2.71789E-05-3.77319E-05 1.30757E-05-4.83762E-19-2.28876E-18
 -1       767 1.18571E-04-3.82636E-05-3.44729E-05 1.11947E-05-2.35899E-19-1.72619E-18
 -1       768 1.17779E-04-4.35457E-05-3.18229E-05 5.02109E-06-1.98186E-19-2.07103E-18
 -1       769 1.13590E-04-4.33734E-05-3.00921E-05-1.03133E-06-6.25544E-19-2.69825E-18
 -1       770 1.08371E-04-4.02479E-05-2.91916E-05-5.03654E-06-6.45606E-19-3.07407E-18
 -1       771 1.03708E-04-3.64295E-05-2.88312E-05-7.05799E-06 3.39184E-19-2.21094E-18
 -1       772 1.00163E-04-3.30545E-05-2.87604E-05-7.69645E-06-8.21996E-19-2.45415E-18
 -1       773 9.77416E-05-3.05125E-05-2.88127E-05-7.51573E-06-9.35216E-19-1.29146E-18
 -1       774 9.62206E-05-2.87990E-05-2.88954E-05-6.90521E-06-1.35239E-18-1.27365E-19
 -1       775 9.53443E-05-2.77613E-05-2.89646E-05-6.09874E-06 4.29956E-19-1.11726E-18
 -1       776 9.48959E-05-2.72195E-05-2.90046E-05-5.23264E-06 1.18723E-18-1.92868E-18
 -1       777 9.47133E-05-2.70132E-05-2.90147E-05-4.38593E-06 3.92756E-19 5.00998E-19
 -1       778 9.46836E-05-2.70163E-05-2.90005E-05-3.60261E-06-4.31585E-19 7.57152E-19
 -1       779 9.47326E-05-2.71364E-05-2.89700E-05-2.90482E-06-7.46132E-19 9.74457E-19
 -1       780 9.48142E-05-2.73100E-05-2.89306E-05-2.30057E-06-1.07036E-18 6.76917E-19
 -1       781 9.49025E-05-2.74961E-05-2.88886E-05-1.78753E-06 8.46680E-19 2.65969E-18
 -1       782 9.50048E-05-2.76756E-05-2.88548E-05-1.41489E-06 1.19364E-18 2.84599E-18
 -1       783 9.54212E-05-2.79423E-05-2.89195E-05-2.51271E-06 5.11268E-19-1.53707E-19
 -1       784 9.48645E-05-2.71367E-05-2.90260E-05-4.10383E-06-8.17575E-20 2.90029E-19
 -1       785 9.45758E-05-2.66795E-05-2.90981E-05-4.86298E-06-2.74849E-19 9.10612E-19
 -1       786 9.42102E-05-2.61630E-05-2.91627E-05-5.79260E-06-1.16734E-19 1.43580E-18
 -1       787 9.37627E-05-2.56341E-05-2.91975E-05-6.91359E-06 8.46380E-21 1.47864E-18
 -1       788 9.32552E-05-2.51836E-05-2.91731E-05-8.24183E-06-4.95203E-19 2.51529E-18
 -1       789 9.27676E-05-2.49797E-05-2.90514E-05-9.79385E-06-2.96248E-19 1.39965E-18
 -1       790 9.24946E-05-2.53181E-05-2.87893E-05-1.15945E-05-3.18148E-19 1.50456E-18
 -1       791 9.28362E-05-2.66831E-05-2.83501E-05-1.36733E-05-2.08805E-19 9.52214E-19
 -1       792 9.45296E-05-2.98106E-05-2.77326E-05-1.60317E-05-4.08576E-19 8.94199E-19
 -1       793 9.89006E-05-3.56600E-05-2.70920E-05-1.82584E-05-7.81730E-19 8.24639E-19
 -1       794 1.07530E-04-4.49264E-05-2.67401E-05-1.94687E-05-1.75952E-18 5.04461E-19
 -1       795 1.00176E-04-3.71392E-05-2.70100E-05 1.88997E-05-7.14507E-19 1.04632E-18
 -1       796 9.24727E-05-2.53418E-05-2.87696E-05 1.17074E-05 1.80874E-18 3.41959E-19
 -1       797 9.26648E-05-2.48333E-05-2.90702E-05 9.79386E-06-9.09199E-19 7.59201E-19
 -1       798 9.31221E-05-2.49358E-05-2.92222E-05 8.11674E-06-2.06362E-18 6.70365E-19
 -1       799 9.36177E-05-2.53221E-05-2.92691E-05 6.65437E-06-8.09998E-19 1.46849E-18
 -1       800 9.40562E-05-2.58078E-05-2.92489E-05 5.38890E-06-1.41961E-19 6.90833E-19
 -1       801 9.44073E-05-2.62947E-05-2.91908E-05 4.30797E-06 7.01218E-19 1.80547E-19
 -1       802 9.46711E-05-2.67351E-05-2.91151E-05 3.39785E-06 1.80578E-18 2.47950E-19
 -1       803 9.48600E-05-2.71104E-05-2.90353E-05 2.64177E-06 6.18595E-19 4.32428E-19
 -1       804 9.49886E-05-2.74152E-05-2.89598E-05 2.02543E-06 1.21206E-18-8.97484E-19
 -1       805 9.50670E-05-2.76500E-05-2.88929E-05 1.52387E-06 1.37466E-18-9.71838E-19
 -1       806 9.50401E-05-2.77112E-05-2.88556E-05 1.25418E-06-9.63989E-19-2.22280E-18
 -1       807 1.14137E-04-5.21394E-05-2.65398E-05 1.99227E-05 9.32322E-19 1.73775E-18
 -1       808 9.38951E-05-2.66537E-05-2.88179E-05-7.12704E-08 1.85610E-18 7.17879E-19
 -1       809 4.99676E-05-1.31062E-05-1.54675E-05-1.22847E-05-3.46102E-19 4.57872E-18
 -1       810 9.45625E-05-2.72860E-05-2.88328E-05-1.19339E-06-5.09729E-19 2.49645E-18
 -1       811 1.16902E-04-1.98021E-05-4.19758E-05 1.20927E-05-9.33642E-19-3.07764E-18
 -1       812 6.57975E-05-2.18495E-05-1.86403E-05-2.23260E-05-8.08850E-20-2.90884E-18
 -1       813 5.31024E-05-1.20443E-05-1.73733E-05-1.28189E-06 5.63327E-19-2.36612E-18
 -1       814 9.13558E-05-4.01184E-05-2.18413E-05 2.97014E-05 1.36560E-18 1.43149E-19
 -1       815 9.42307E-05-2.69761E-05-2.88235E-05-9.25432E-07 4.22194E-19-1.53235E-18
 -1       816 9.29798E-05-2.69686E-05-2.82870E-05 1.38995E-05 3.33824E-19-9.23266E-19
 -1       817 9.49897E-05-3.05027E-05-2.76291E-05 1.63881E-05-1.13844E-18 2.55753E-19
 -1       818 1.06241E-04-4.55864E-05-2.58834E-05 2.21736E-05-1.74321E-18 1.25393E-18
 -1       819 7.09624E-05-2.90479E-05-1.77486E-05-3.09706E-05 3.14037E-18 2.72019E-18
 -1       820 9.55461E-05-2.79611E-05-2.89650E-05-2.04412E-06 5.23882E-20-2.31834E-19
 -1       821 9.50914E-05-2.75103E-05-2.89632E-05-3.48643E-06 4.95914E-19-2.40331E-19
 -1       822 9.52724E-05-2.77843E-05-2.89234E-05-2.97254E-06 4.70610E-19-5.78121E-19
 -1       823 7.25454E-05-2.60924E-05-1.97398E-05 2.52095E-05-6.70284E-19 1.14115E-18
 -1       824 9.55962E-05-2.53432E-05-3.01090E-05-1.54124E-06-5.54943E-19-7.94831E-19
 -1       825 9.56472E-05-2.78036E-05-2.90758E-05-1.48734E-06 4.95887E-19-4.69432E-19
 -1       826 9.57080E-05-2.74041E-05-2.92731E-05-7.42379E-07 6.68538E-19-2.29371E-19
 -1       827 1.26391E-04-5.18675E-05-3.19935E-05 1.68106E-06 5.57687E-19 1.08500E-18
 -1       828 1.18011E-04-5.49001E-05-2.70107E-05-2.00454E-05 1.16650E-18-1.76861E-18
 -1       829 1.24197E-04-4.03355E-05-3.61315E-05-1.12534E-05-4.41615E-19 1.82530E-18
 -1       830 9.52367E-05-2.43814E-05-3.03669E-05 3.22467E-06 1.29795E-18 6.97250E-20
 -1       831 1.28706E-04-5.21236E-05-3.28927E-05-1.04263E-06-2.63695E-19-2.95592E-18
 -1       832 8.76656E-05-3.50635E-05-2.23861E-05-2.65332E-05-8.68563E-19-8.31005E-19
 -1       833 9.76069E-05-4.53778E-05-2.22099E-05-3.10718E-05 2.72545E-18-6.38345E-19
 -1       834 1.23209E-04-3.36383E-05-3.86302E-05 1.31947E-05-3.82475E-19-4.23758E-18
 -1       835 9.31140E-05-1.95030E-05-3.15486E-05 1.16302E-06 8.52641E-19-1.21760E-18
 -1       836 9.39985E-05-2.67570E-05-2.88178E-05-5.36131E-07 2.19913E-18-6.27988E-19
 -1       837 9.29948E-05-1.92934E-05-3.15874E-05 1.91532E-08 6.75516E-19-1.28212E-18
 -1       838 9.47689E-05-2.74695E-05-2.88423E-05-1.32550E-06 8.16163E-19 2.67506E-18
 -1       839 6.32863E-05-1.94755E-05-1.86358E-05-2.04629E-05 1.02110E-18 2.10792E-18
 -1       840 6.39761E-05-1.80385E-05-1.95097E-05 1.65916E-05-5.12554E-20 8.24944E-19
 -1       841 7.52336E-05-2.74490E-05-2.03744E-05 2.56772E-05 1.19221E-18 4.63618E-20
 -1       842 1.09882E-04-1.65463E-05-4.01811E-05 6.96391E-06-1.32600E-18-1.33935E-18
 -1       843 9.55417E-05-2.60118E-05-2.97984E-05 1.31534E-06 9.73882E-19 8.58691E-21
 -1       844 9.39881E-05-2.11299E-05-3.12240E-05-3.14151E-06-2.42709E-19-1.16248E-18
 -1       845 9.40182E-05-2.11813E-05-3.12150E-05 3.15557E-06 1.31809E-18-4.62049E-19
 -1       846 9.41332E-05-2.68479E-05-2.88365E-05 8.54457E-07 1.84465E-20-1.74624E-18
 -1       847 9.44129E-05-2.70986E-05-2.88487E-05 1.12657E-06 1.36070E-18-2.47504E-19
 -1       848 9.39393E-05-2.66830E-05-2.88243E-05 4.15431E-07 5.74364E-19 1.31164E-18
 -1       849 9.56605E-05-2.68508E-05-2.94899E-05 1.28384E-07 7.13883E-19 5.22928E-20
 -1       850 9.45207E-05-2.22565E-05-3.09647E-05-3.90177E-06-4.43777E-19-1.27984E-18
 -1       851 6.28387E-05-1.57017E-05-2.00937E-05-1.10263E-05 3.76050E-19-2.29433E-18
 -1       852 9.34699E-05-2.01346E-05-3.14293E-05 2.24891E-06 1.08020E-18-7.83997E-19
 -1       853 9.34294E-05-2.00841E-05-3.14344E-05-2.20327E-06 6.33159E-20-1.24531E-18
 -1       854 1.25417E-04-4.23245E-05-3.57117E-05 9.70925E-06-1.67560E-19-4.54898E-18
 -1       855 9.60562E-05-2.72563E-05-2.94857E-05 9.22040E-07-2.93747E-19-3.56253E-19
 -1       856 9.59359E-05-2.76365E-05-2.92712E-05 1.49720E-06-2.73950E-19-3.27607E-19
 -1       857 9.56943E-05-2.77418E-05-2.91225E-05 1.96377E-06-3.47629E-19-4.26146E-19
 -1       858 9.53675E-05-2.76486E-05-2.90224E-05 2.38805E-06 2.06284E-19-6.25560E-19
 -1       859 9.49816E-05-2.74202E-05-2.89549E-05 2.82553E-06 2.77664E-19-5.53591E-19
 -1       860 9.45594E-05-2.71161E-05-2.89043E-05 3.32076E-06 1.41029E-19-1.56552E-19
 -1       861 9.41290E-05-2.68001E-05-2.88552E-05 3.90825E-06-2.12857E-19-3.71834E-19
 -1       862 9.37317E-05-2.65494E-05-2.87924E-05 4.61440E-06-6.00795E-19-7.82459E-20
 -1       863 9.34342E-05-2.64654E-05-2.87009E-05 5.45799E-06-3.57773E-19-1.78372E-19
 -1       864 9.33420E-05-2.66834E-05-2.85679E-05 6.44852E-06-2.14834E-19-2.69575E-19
 -1       865 9.36180E-05-2.73825E-05-2.83865E-05 7.58033E-06-2.16550E-19-2.23776E-20
 -1       866 9.45048E-05-2.87913E-05-2.81627E-05 8.81422E-06-1.05952E-18 1.00692E-18
 -1       867 9.63452E-05-3.11750E-05-2.79290E-05 1.00307E-05 1.36634E-19 1.58052E-18
 -1       868 9.95619E-05-3.47655E-05-2.77697E-05 1.09442E-05 9.74343E-19 1.66629E-18
 -1       869 1.04736E-04-3.96739E-05-2.78856E-05 1.08271E-05 6.98292E-19 1.47073E-18
 -1       870 1.11540E-04-4.50662E-05-2.85447E-05 8.94855E-06 6.40757E-19 8.67643E-19
 -1       871 1.22022E-04-4.83399E-05-3.16272E-05 9.55525E-07 2.51790E-19-3.85305E-18
 -1       872 1.14886E-04-4.65887E-05-2.92872E-05-5.98955E-06-7.33661E-19-3.16803E-18
 -1       873 1.07623E-04-4.16790E-05-2.82557E-05-9.47650E-06 4.21374E-20-1.36697E-18
 -1       874 1.01873E-04-3.66153E-05-2.79669E-05-1.03643E-05 3.38025E-19-1.66640E-18
 -1       875 9.79155E-05-3.25251E-05-2.80242E-05-9.92390E-06 5.78377E-20-1.20505E-18
 -1       876 9.54829E-05-2.96481E-05-2.82147E-05-8.89834E-06-4.37201E-19 2.20164E-20
 -1       877 9.41441E-05-2.78188E-05-2.84247E-05-7.70113E-06-5.48031E-19 1.23511E-19
 -1       878 9.35275E-05-2.67833E-05-2.86043E-05-6.51712E-06 6.14839E-19 9.04547E-19
 -1       879 9.33587E-05-2.63063E-05-2.87364E-05-5.42309E-06-6.98771E-19 2.09633E-19
 -1       880 9.34467E-05-2.61964E-05-2.88213E-05-4.44841E-06 5.68296E-19-3.74141E-18
 -1       881 9.36642E-05-2.63084E-05-2.88666E-05-3.60004E-06 2.66275E-19-3.09901E-18
 -1       882 9.39324E-05-2.65400E-05-2.88822E-05-2.87500E-06 1.20499E-19-1.29893E-18
 -1       883 9.41971E-05-2.68154E-05-2.88776E-05-2.26928E-06-2.82580E-20 1.08931E-18
 -1       884 9.44435E-05-2.70992E-05-2.88621E-05-1.75988E-06 1.45748E-18 2.85447E-18
 -1       885 9.29686E-05-2.54702E-05-2.89278E-05-4.76988E-06-5.19453E-19 4.10708E-19
 -1       886 8.77130E-05-3.50135E-05-2.24834E-05-2.61942E-05 2.90798E-18 5.51389E-19
 -1       887 9.37562E-05-2.61929E-05-2.89557E-05-4.05002E-06-4.01692E-19-8.23976E-20
 -1       888 9.08294E-05-2.38293E-05-2.87143E-05-6.67192E-06-6.95136E-19 5.26467E-19
 -1       889 8.94505E-05-2.30655E-05-2.84508E-05-7.92880E-06 1.18750E-19 6.09735E-19
 -1       890 8.79061E-05-2.25472E-05-2.80111E-05-9.49789E-06-6.57622E-19 2.08000E-19
 -1       891 8.63272E-05-2.25708E-05-2.73248E-05-1.15663E-05-1.82905E-19 2.42322E-19
 -1       892 8.50726E-05-2.36553E-05-2.63200E-05-1.44934E-05-2.58903E-19 3.57574E-19
 -1       893 8.47866E-05-2.65834E-05-2.48922E-05-1.86917E-05-4.10331E-19-3.41845E-19
 -1       894 9.04064E-05-2.33813E-05-2.87250E-05 6.47564E-06-1.58756E-18 5.99065E-19
 -1       895 9.59999E-05-2.65019E-05-2.97848E-05 1.68627E-07-4.44073E-19-5.93056E-19
 -1       896 8.90446E-05-2.26993E-05-2.84337E-05 7.85839E-06-1.11099E-18 3.18404E-18
 -1       897 8.75069E-05-2.22866E-05-2.79527E-05 9.57781E-06-4.28760E-19 3.83870E-18
 -1       898 9.15543E-05-2.41558E-05-2.88850E-05 5.31112E-06-6.35375E-19 1.27015E-18
 -1       899 9.24831E-05-2.49152E-05-2.89576E-05 4.31723E-06 1.24279E-18 7.35714E-19
 -1       900 9.32133E-05-2.56043E-05-2.89752E-05 3.46908E-06 2.31269E-18-1.46037E-18
 -1       901 9.37761E-05-2.62010E-05-2.89606E-05 2.75138E-06 1.25826E-18-7.88754E-19
 -1       902 9.41953E-05-2.66967E-05-2.89285E-05 2.14584E-06 5.31552E-19-9.02797E-19
 -1       903 9.45091E-05-2.70934E-05-2.88919E-05 1.65302E-06 6.40445E-19 1.22103E-18
 -1       904 1.08222E-04-4.77350E-05-2.58524E-05-2.07626E-05 1.63618E-18-1.18460E-18
 -1       905 9.20009E-05-2.46640E-05-2.88586E-05-5.63456E-06-2.42596E-19 4.48746E-19
 -1       906 1.12979E-04-1.53857E-05-4.21018E-05-5.81948E-06-1.32336E-18-8.85017E-20
 -1       907 1.17778E-04-4.93639E-05-2.92995E-05 7.53173E-06 3.49468E-19 7.55769E-19
 -1       908 9.41197E-05-2.68455E-05-2.88308E-05-1.36919E-06 1.37929E-18 3.11052E-19
 -1       909 8.60162E-05-2.25275E-05-2.72111E-05 1.18032E-05-9.87528E-19 4.15221E-19
 -1       910 9.31042E-05-1.94892E-05-3.15504E-05-1.12757E-06 2.66336E-19-1.14595E-18
 -1       911 9.56404E-05-2.77324E-05-2.91034E-05-2.04246E-06 3.05923E-19-6.72475E-19
 -1       912 9.43936E-05-2.68014E-05-2.89680E-05-3.45054E-06 1.29128E-19-3.64905E-19
 -1       913 9.56843E-05-2.52475E-05-3.01873E-05-8.65638E-07-3.77635E-19-9.15398E-19
 -1       914 5.69713E-05-1.27425E-05-1.88094E-05 1.92350E-06-1.25382E-19 2.92746E-18
 -1       915 9.58664E-05-2.76479E-05-2.92365E-05-1.53905E-06 1.78113E-19-2.36295E-19
 -1       916 9.59752E-05-2.72753E-05-2.94428E-05-9.05390E-07 5.98093E-19-3.07690E-19
 -1       917 1.03320E-04-4.37158E-05-2.54929E-05 2.05619E-05 7.80627E-19 1.15683E-18
 -1       918 6.29903E-05-1.55558E-05-2.02542E-05 1.02764E-05 1.04429E-18-8.20927E-19
 -1       919 9.54546E-05-2.48682E-05-3.02526E-05 1.87817E-06 1.05499E-18-2.54083E-19
 -1       920 9.48602E-05-2.30207E-05-3.07912E-05-1.70993E-06-1.75662E-19-9.26917E-19
 -1       921 8.28503E-05-2.58825E-05-2.43612E-05 1.90235E-05-6.39611E-19-5.76292E-19
 -1       922 9.47288E-05-2.73992E-05-2.88555E-05 1.24550E-06 1.85146E-18 2.22296E-18
 -1       923 8.98696E-05-3.43477E-05-2.37258E-05 2.26071E-05 7.66030E-19 1.45262E-19
 -1       924 6.18611E-05-1.44537E-05-2.02298E-05-7.75034E-06 1.12611E-18 3.43182E-18
 -1       925 9.53201E-05-2.75947E-05-2.90251E-05-2.48980E-06 3.75600E-19-2.88167E-19
 -1       926 9.34831E-05-2.62867E-05-2.87986E-05-4.17406E-07 8.38529E-19-1.52823E-19
 -1       927 1.19584E-04-5.07171E-05-2.95178E-05-7.79492E-06 5.20319E-19-3.70555E-18
 -1       928 9.39307E-05-2.66144E-05-2.88504E-05 1.27490E-06 1.56307E-19-1.23495E-18
 -1       929 9.35953E-05-2.63445E-05-2.88218E-05 7.67606E-07 2.05261E-18 1.45878E-19
 -1       930 9.43633E-05-2.18727E-05-3.10674E-05 3.82707E-07 5.45717E-19-9.54108E-19
 -1       931 9.34376E-05-2.62311E-05-2.88030E-05 1.78716E-07 3.05099E-18 1.99550E-18
 -1       932 9.59306E-05-2.67108E-05-2.96664E-05-1.87971E-07 7.60491E-19-4.25792E-19
 -1       933 8.41074E-05-2.33860E-05-2.60184E-05 1.47050E-05-4.67187E-19-4.97445E-19
 -1       934 9.49080E-05-2.72754E-05-2.89854E-05-2.94294E-06 2.81231E-19-6.46497E-20
 -1       935 9.45335E-05-2.22432E-05-3.09841E-05 1.07947E-06 9.17763E-19-9.74153E-19
 -1       936 7.32923E-05-2.14759E-05-2.21717E-05 1.67672E-05 8.35315E-19 3.43473E-19
 -1       937 6.41962E-05-1.43051E-05-2.13459E-05 5.12192E-07 1.18467E-18-2.29289E-18
 -1       938 7.41556E-05-2.21523E-05-2.21983E-05-1.85161E-05-9.40173E-21-1.51978E-18
 -1       939 9.37223E-05-2.65015E-05-2.88088E-05-9.55868E-07 8.65218E-19-2.17571E-18
 -1       940 9.58670E-05-2.74662E-05-2.93147E-05 1.35302E-06-1.54569E-19-1.54487E-19
 -1       941 9.54822E-05-2.74558E-05-2.91542E-05 1.73336E-06-8.41670E-20 1.67485E-19
 -1       942 9.49725E-05-2.72319E-05-2.90317E-05 2.11113E-06 2.12486E-19 9.45899E-20
 -1       943 9.43641E-05-2.68604E-05-2.89302E-05 2.53200E-06 3.01484E-19-2.83007E-19
 -1       944 9.36811E-05-2.64060E-05-2.88322E-05 3.03766E-06 3.48321E-20-2.89196E-19
 -1       945 9.29506E-05-2.59381E-05-2.87198E-05 3.66744E-06-2.24784E-19 2.03084E-19
 -1       946 9.22143E-05-2.55425E-05-2.85738E-05 4.46411E-06-3.29626E-19 5.57442E-19
 -1       947 9.15401E-05-2.53323E-05-2.83749E-05 5.47489E-06-1.73157E-19 5.13423E-19
 -1       948 9.10374E-05-2.54587E-05-2.81053E-05 6.75541E-06-2.11136E-19 5.44728E-19
 -1       949 9.08825E-05-2.61272E-05-2.77522E-05 8.36977E-06 2.72369E-20 4.67446E-19
 -1       950 9.13587E-05-2.76199E-05-2.73168E-05 1.03712E-05 2.12934E-19 8.82336E-19
 -1       951 9.29325E-05-3.03291E-05-2.68289E-05 1.27679E-05 8.01984E-19 1.06383E-18
 -1       952 9.62287E-05-3.45683E-05-2.64129E-05 1.52599E-05 8.40136E-19 1.03361E-18
 -1       953 9.23998E-05-2.51719E-05-2.88120E-05-3.49030E-06-5.39005E-19-2.61381E-19
 -1       954 7.16130E-05-1.79930E-05-2.29425E-05 1.21978E-05-2.53805E-19 1.14879E-18
 -1       955 1.09883E-04-4.50951E-05-2.77696E-05-1.21822E-05 6.10026E-19-1.25972E-18
 -1       956 9.93650E-05-3.73241E-05-2.65898E-05-1.53387E-05 3.61884E-19-1.81283E-19
 -1       957 9.48010E-05-3.21152E-05-2.68634E-05-1.32589E-05 6.96900E-22 1.22404E-18
 -1       958 9.24078E-05-2.87186E-05-2.72938E-05-1.09621E-05-1.72416E-19 3.08840E-19
 -1       959 9.13399E-05-2.66671E-05-2.77159E-05-8.89687E-06-8.32720E-19-2.11026E-20
 -1       960 9.10774E-05-2.55724E-05-2.80730E-05-7.15843E-06-7.34940E-19-1.08472E-18
 -1       961 9.12734E-05-2.51255E-05-2.83486E-05-5.72847E-06-9.44336E-19-3.19722E-18
 -1       962 9.17089E-05-2.50992E-05-2.85467E-05-4.56252E-06 1.01940E-19-9.64222E-19
 -1       963 9.22438E-05-2.53247E-05-2.86794E-05-3.61544E-06 1.06302E-18 9.51166E-19
 -1       964 9.27924E-05-2.56821E-05-2.87614E-05-2.84557E-06 1.50029E-18 1.37569E-18
 -1       965 9.32974E-05-2.60869E-05-2.88050E-05-2.22507E-06 6.75641E-19 1.31368E-18
 -1       966 8.53829E-05-2.09438E-05-2.76186E-05-6.40989E-06-6.74653E-19-7.01728E-19
 -1       967 8.76929E-05-2.20423E-05-2.81363E-05-5.45554E-06 2.55834E-20-5.80932E-19
 -1       968 7.91961E-05-1.93575E-05-2.56480E-05-9.64577E-06-1.87791E-20-1.10906E-18
 -1       969 9.04137E-05-2.35359E-05-2.86619E-05 3.70016E-06 1.64036E-18-8.35637E-19
 -1       970 9.60957E-05-2.65288E-05-2.98147E-05 3.78804E-07-1.17681E-19-5.35603E-19
 -1       971 8.89103E-05-2.25342E-05-2.84470E-05 4.44256E-06-5.40411E-19 1.66344E-18
 -1       972 9.52151E-05-2.38473E-05-3.05865E-05 1.55283E-06 9.60666E-19-3.88659E-19
 -1       973 8.47315E-05-2.04829E-05-2.75362E-05 6.37421E-06-1.68982E-18 1.55870E-18
 -1       974 9.43566E-05-2.18643E-05-3.10682E-05-3.59512E-07 2.34402E-19-1.01943E-18
 -1       975 7.72547E-05-2.46579E-05-2.24599E-05-1.95773E-05 4.08516E-19 2.39285E-19
 -1       976 9.16055E-05-2.44447E-05-2.87834E-05 3.04833E-06 1.85444E-18-6.68969E-19
 -1       977 9.25432E-05-2.52427E-05-2.88436E-05 2.47909E-06 8.55547E-19 1.87004E-18
 -1       978 9.32692E-05-2.59167E-05-2.88654E-05 1.99016E-06 1.07702E-18 8.09099E-19
 -1       979 8.18350E-05-1.95698E-05-2.66839E-05 7.92522E-06-2.18992E-18 1.03288E-18
 -1       980 9.34330E-05-2.59955E-05-2.89018E-05-3.01117E-06-1.35741E-20 3.48012E-19
 -1       981 9.57530E-05-2.59327E-05-2.99230E-05 6.98188E-07 7.91628E-19-3.14703E-19
 -1       982 9.58552E-05-2.74611E-05-2.93117E-05-1.43782E-06 4.26571E-19-6.21406E-19
 -1       983 9.60623E-05-2.71787E-05-2.95216E-05-9.49732E-07 3.48154E-19-1.37928E-19
 -1       984 7.17047E-05-1.77955E-05-2.30679E-05-1.16613E-05 3.24382E-19-1.41696E-18
 -1       985 9.34990E-05-2.62869E-05-2.88050E-05-1.50739E-06 1.09678E-18-1.01967E-18
 -1       986 8.70358E-05-2.14870E-05-2.80926E-05 5.30779E-06-4.24651E-19 3.28328E-18
 -1       987 9.30742E-05-2.59303E-05-2.87758E-05-9.10827E-07-2.97711E-19 1.26594E-19
 -1       988 9.60894E-05-2.71872E-05-2.95295E-05 9.19180E-07-2.62744E-19-3.75497E-19
 -1       989 9.45394E-05-2.22409E-05-3.09844E-05-1.07330E-06 2.45136E-20-1.12445E-18
 -1       990 8.25664E-05-1.99903E-05-2.68241E-05-7.73464E-06-2.09866E-19-1.01098E-18
 -1       991 9.58344E-05-2.54020E-05-3.01847E-05-3.29192E-07-3.07792E-19-6.87641E-19
 -1       992 9.11333E-05-2.42148E-05-2.86794E-05-4.04466E-06-3.57417E-19-3.22702E-19
 -1       993 6.89737E-05-1.54021E-05-2.29418E-05 5.29264E-06 4.85249E-20 2.21782E-18
 -1       994 8.85195E-05-2.98480E-05-2.51334E-05-1.71787E-05 5.96496E-20 3.40414E-19
 -1       995 9.28749E-05-2.57487E-05-2.87681E-05-2.00387E-07 1.18864E-18-1.61961E-18
 -1       996 9.52744E-05-2.37966E-05-3.06331E-05 7.25713E-09 3.81212E-19-7.18390E-19
 -1       997 7.80863E-05-1.88265E-05-2.53772E-05 9.56844E-06-1.75087E-18 1.30245E-19
 -1       998 9.26950E-05-2.55089E-05-2.87938E-05 1.24959E-06 2.66597E-18 1.48265E-18
 -1       999 7.12722E-05-1.73206E-05-2.30959E-05 7.97093E-06 1.02999E-18-6.29364E-19
 -1      1000 8.95838E-05-2.31554E-05-2.84694E-05-4.69029E-06-6.46614E-19-3.30537E-19
 -1      1001 9.54777E-05-2.74317E-05-2.91626E-05-1.84139E-06 1.91907E-19-2.52119E-19
 -1      1002 9.60668E-05-2.66580E-05-2.97460E-05-4.25462E-07 5.19697E-19-1.96226E-19
 -1      1003 9.42739E-05-2.66635E-05-2.89759E-05-2.59208E-06 1.74205E-19 1.97110E-19
 -1      1004 9.53344E-05-2.39521E-05-3.05912E-05 3.70925E-07 5.05657E-19-6.60092E-19
 -1      1005 8.84681E-05-2.23499E-05-2.83364E-05 2.40866E-06 1.74271E-18 1.07513E-18
 -1      1006 8.47905E-05-2.05724E-05-2.75236E-05-3.17263E-06 5.95984E-22-2.23111E-21
 -1      1007 9.56454E-05-2.72788E-05-2.93003E-05 1.02943E-06-9.90432E-20-1.58478E-19
 -1      1008 9.51012E-05-2.71224E-05-2.91340E-05 1.30634E-06 4.12931E-20 8.38006E-20
 -1      1009 9.44021E-05-2.67486E-05-2.89945E-05 1.61123E-06 4.22062E-20 2.52669E-19
 -1      1010 9.35646E-05-2.62164E-05-2.88635E-05 1.98335E-06 1.98529E-19 1.27663E-19
 -1      1011 9.26124E-05-2.55982E-05-2.87207E-05 2.45937E-06 5.55432E-19 1.07318E-19
 -1      1012 9.15529E-05-2.49499E-05-2.85446E-05 3.09208E-06-3.25533E-19 1.11696E-19
 -1      1013 9.04200E-05-2.43631E-05-2.83106E-05 3.93874E-06-2.04747E-19 3.12096E-19
 -1      1014 8.92547E-05-2.39422E-05-2.79919E-05 5.07967E-06-4.29914E-19-4.49578E-19
 -1      1015 8.81350E-05-2.38319E-05-2.75593E-05 6.62533E-06-4.19692E-20-1.42420E-19
 -1      1016 8.71894E-05-2.42297E-05-2.69835E-05 8.74109E-06 1.28552E-19 2.15237E-19
 -1      1017 8.66969E-05-2.54423E-05-2.62522E-05 1.15747E-05 5.66507E-19 4.65964E-19
 -1      1018 8.71021E-05-2.79424E-05-2.53502E-05 1.54489E-05 7.29583E-19 3.89468E-19
 -1      1019 8.71557E-05-2.64658E-05-2.60136E-05-1.30064E-05-2.33503E-19-4.35685E-19
 -1      1020 8.71226E-05-2.46188E-05-2.67876E-05-9.79190E-06-9.47601E-19-1.10269E-18
 -1      1021 8.77216E-05-2.37816E-05-2.74044E-05-7.39422E-06-7.71430E-19-5.25949E-19
 -1      1022 8.85981E-05-2.35647E-05-2.78719E-05-5.60545E-06-1.48146E-18 1.75598E-18
 -1      1023 8.95765E-05-2.37492E-05-2.82118E-05-4.26478E-06-1.91025E-19 1.75063E-18
 -1      1024 9.05488E-05-2.41683E-05-2.84495E-05-3.24898E-06 2.06830E-18 1.43609E-19
 -1      1025 9.14531E-05-2.47018E-05-2.86087E-05-2.48386E-06 1.55001E-18 1.07418E-18
 -1      1026 9.22579E-05-2.52703E-05-2.87095E-05-1.89518E-06 1.29700E-19 6.42860E-19
 -1      1027 9.49504E-05-2.71520E-05-2.90564E-05-2.21248E-06 3.25061E-19-4.50714E-19
 -1      1028 9.13123E-05-2.43490E-05-2.86992E-05 1.78601E-06 3.22870E-20 2.14396E-18
 -1      1029 7.30504E-05-1.62990E-05-2.43058E-05-2.19840E-06 8.14356E-19-1.25494E-18
 -1      1030 7.19836E-05-1.83410E-05-2.29859E-05-1.07847E-05-1.06915E-19 2.24951E-18
 -1      1031 9.00582E-05-2.34131E-05-2.85624E-05 2.09633E-06 9.91117E-19 2.59548E-18
 -1      1032 9.60030E-05-2.71459E-05-2.95104E-05 7.45621E-07-1.20152E-19-1.84771E-19
 -1      1033 8.07042E-05-1.86280E-05-2.66179E-05 3.31911E-06-2.76219E-18 1.88561E-18
 -1      1034 7.94369E-05-2.24220E-05-2.44175E-05 1.30048E-05 3.49955E-19 6.85083E-19
 -1      1035 9.59404E-05-2.56438E-05-3.01251E-05-6.90496E-09 1.11983E-20-6.24814E-19
 -1      1036 9.26596E-05-2.55835E-05-2.87468E-05-1.34791E-06-3.16108E-19 1.49720E-19
 -1      1037 9.57117E-05-2.51847E-05-3.02251E-05 5.97516E-07 8.41141E-19-4.70452E-19
 -1      1038 8.16267E-05-1.92113E-05-2.67475E-05-3.44957E-06-1.71425E-19-2.82482E-19
 -1      1039 9.60154E-05-2.71178E-05-2.95277E-05-8.26731E-07 6.63584E-19-2.10267E-19
 -1      1040 9.55164E-05-2.44737E-05-3.04439E-05 5.53373E-07 8.04255E-19-6.61624E-19
 -1      1041 9.26670E-05-2.55408E-05-2.87685E-05 4.91037E-07 3.28036E-18 2.22338E-18
 -1      1042 9.61309E-05-2.66511E-05-2.97785E-05 4.06486E-07-1.18325E-19-3.60134E-19
 -1      1043 9.53726E-05-2.40566E-05-3.05657E-05-3.14329E-07 1.10348E-19-8.14140E-19
 -1      1044 9.23757E-05-2.52093E-05-2.87859E-05-2.14903E-06-1.54342E-19 4.85908E-19
 -1      1045 7.77684E-05-1.77268E-05-2.57123E-05-2.99674E-06 6.70921E-20-5.79058E-19
 -1      1046 8.72994E-05-2.18718E-05-2.80411E-05-2.91114E-06-3.00037E-19-5.22187E-19
 -1      1047 9.20530E-05-2.49546E-05-2.87565E-05 1.50468E-06 4.07613E-19 1.76798E-18
 -1      1048 9.61089E-05-2.65732E-05-2.98019E-05-4.13134E-07 3.29491E-19-5.42511E-19
 -1      1049 9.56804E-05-2.72689E-05-2.93194E-05-1.14544E-06 4.19145E-19-1.60926E-19
 -1      1050 9.10053E-05-2.42222E-05-2.86216E-05-2.40310E-06-2.14493E-19 6.55463E-20
 -1      1051 8.64709E-05-2.11890E-05-2.79785E-05 2.71910E-06-2.27023E-19 1.39489E-18
 -1      1052 8.02557E-05-2.28462E-05-2.46115E-05-1.33883E-05-2.98140E-19 6.20694E-19
 -1      1053 9.58828E-05-2.53712E-05-3.02185E-05-1.02966E-08 2.98705E-19-4.99382E-19
 -1      1054 9.23061E-05-2.52802E-05-2.87254E-05-5.32396E-07 4.32579E-21-4.16265E-18
 -1      1055 7.29746E-05-1.61620E-05-2.43430E-05-4.18098E-07-6.78545E-19 2.74755E-18
 -1      1056 8.39403E-05-1.99423E-05-2.74270E-05 3.01616E-06-1.44488E-18 1.89496E-18
 -1      1057 7.71623E-05-1.89295E-05-2.49612E-05 6.86271E-06 7.00964E-19-8.21386E-19
 -1      1058 8.93386E-05-2.31014E-05-2.83878E-05-2.65869E-06-5.04129E-19-2.05023E-19
 -1      1059 9.34995E-05-2.60350E-05-2.89135E-05-1.90027E-06-2.01931E-19 5.27472E-20
 -1      1060 9.58745E-05-2.53647E-05-3.02188E-05 3.88081E-08 4.91244E-19-5.18489E-19
 -1      1061 9.17143E-05-2.48253E-05-2.86661E-05-9.86074E-07 1.40197E-19-3.01069E-18
 -1      1062 9.46072E-05-2.67553E-05-2.90792E-05 6.80801E-07-7.80719E-20 1.40173E-19
 -1      1063 9.37289E-05-2.62276E-05-2.89284E-05 8.81973E-07-4.33482E-20-9.49458E-20
 -1      1064 9.26756E-05-2.55372E-05-2.87717E-05 1.17433E-06 3.05466E-19-2.41754E-19
 -1      1065 9.14257E-05-2.47230E-05-2.85858E-05 1.58013E-06 1.61018E-19-6.15179E-19
 -1      1066 9.00150E-05-2.38745E-05-2.83450E-05 2.14890E-06 6.11344E-20 9.54236E-21
 -1      1067 8.84171E-05-2.30423E-05-2.80166E-05 2.96264E-06-2.91611E-19 4.81327E-19
 -1      1068 8.66288E-05-2.23145E-05-2.75625E-05 4.12083E-06-2.22141E-19 7.91647E-19
 -1      1069 8.46709E-05-2.18113E-05-2.69372E-05 5.74841E-06-6.61724E-21 3.67151E-19
 -1      1070 8.24801E-05-2.16137E-05-2.60945E-05 8.05004E-06 6.57654E-19 4.42095E-19
 -1      1071 8.22846E-05-2.19555E-05-2.58498E-05-9.41565E-06-6.97501E-19 1.26809E-18
 -1      1072 8.41397E-05-2.16906E-05-2.67627E-05-6.71525E-06-1.02602E-18 7.56754E-19
 -1      1073 8.59592E-05-2.19433E-05-2.74336E-05-4.81612E-06-2.10088E-19-4.41106E-19
 -1      1074 8.76023E-05-2.24657E-05-2.79159E-05-3.43504E-06-3.71702E-19-1.99365E-19
 -1      1075 8.90233E-05-2.31072E-05-2.82471E-05-2.48008E-06 1.16112E-19 3.00646E-19
 -1      1076 9.02531E-05-2.38191E-05-2.84716E-05-1.79023E-06 1.07984E-18-1.60943E-18
 -1      1077 9.10580E-05-2.43436E-05-2.85875E-05-1.32751E-06 2.08505E-18-2.29824E-18
 -1      1078 8.78783E-05-2.23371E-05-2.80902E-05-6.30084E-07-9.89300E-20-1.50044E-18
 -1      1079 9.60990E-05-2.67090E-05-2.97355E-05-3.06796E-07 1.04556E-19-5.44880E-19
 -1      1080 9.60875E-05-2.67951E-05-2.96951E-05 2.39912E-07 1.73474E-20-1.14281E-19
 -1      1081 7.68485E-05-1.83692E-05-2.50608E-05-5.57796E-06-6.13000E-19 1.33477E-18
 -1      1082 9.59499E-05-2.57411E-05-3.00910E-05 2.37826E-08 4.61591E-19-5.55035E-19
 -1      1083 8.87638E-05-2.26394E-05-2.83377E-05 6.24115E-07 3.60076E-19 1.64423E-18
 -1      1084 9.44158E-05-2.66783E-05-2.90304E-05-1.65955E-06-4.18313E-20-9.03610E-20
 -1      1085 9.51411E-05-2.71027E-05-2.91594E-05-1.41372E-06 5.11887E-20-4.41397E-19
 -1      1086 8.26157E-05-1.97533E-05-2.69422E-05 2.62201E-07-1.20968E-19-4.80379E-19
 -1      1087 9.02786E-05-2.36600E-05-2.85480E-05 6.71405E-07 5.72251E-19 1.72798E-18
 -1      1088 9.53127E-05-2.70715E-05-2.92458E-05 5.22291E-07 1.97650E-19 3.16025E-19
 -1      1089 9.58151E-05-2.71061E-05-2.94462E-05 3.86605E-07-2.11491E-20 1.51059E-19
 -1      1090 8.55458E-05-2.10899E-05-2.76246E-05-2.89507E-07-3.41513E-19-1.43378E-18
 -1      1091 9.12120E-05-2.43605E-05-2.86495E-05 5.99058E-07-1.52937E-19 8.62486E-19
 -1      1092 8.01401E-05-1.90059E-05-2.62079E-05 2.26557E-06 3.19735E-19-4.71556E-19
 -1      1093 9.58728E-05-2.70829E-05-2.94815E-05-4.99869E-07 5.10751E-19-1.28742E-19
 -1      1094 8.70030E-05-2.16013E-05-2.80261E-05 4.88900E-07 1.88491E-19 1.30249E-18
 -1      1095 9.20330E-05-2.50062E-05-2.87251E-05 5.84037E-07 1.29331E-18 3.71967E-19
 -1      1096 9.14005E-05-2.45642E-05-2.86444E-05-8.71343E-07 1.75986E-19-5.31185E-19
 -1      1097 9.27480E-05-2.54973E-05-2.88205E-05-8.80693E-07-4.29137E-19-4.71039E-19
 -1      1098 7.88560E-05-1.83492E-05-2.59329E-05-2.38105E-06-1.79262E-18-8.34672E-20
 -1      1099 8.97957E-05-2.34997E-05-2.84134E-05-8.08677E-07-2.29302E-20-8.60083E-19
 -1      1100 8.22158E-05-1.94506E-05-2.68919E-05-1.32844E-06-1.56863E-18-1.24939E-18
 -1      1101 9.30546E-05-2.57387E-05-2.88536E-05-8.65730E-08 2.47817E-20 1.01048E-19
 -1      1102 8.74396E-05-2.20275E-05-2.80415E-05-1.19069E-06 2.55595E-19-1.67278E-18
 -1      1103 8.48735E-05-2.05623E-05-2.75606E-05-2.42293E-07-7.60366E-19-6.67683E-19
 -1      1104 9.16156E-05-2.47030E-05-2.86770E-05 7.74995E-08 5.03415E-19-2.34832E-18
 -1      1105 9.38201E-05-2.62312E-05-2.89662E-05-8.33290E-07-3.30515E-20 1.26892E-19
 -1      1106 9.54019E-05-2.70861E-05-2.92783E-05-6.41064E-07 4.31260E-19-3.22327E-20
 -1      1107 9.47126E-05-2.67830E-05-2.91127E-05-7.47623E-07-1.05480E-19-2.49155E-20
 -1      1108 9.60772E-05-2.62765E-05-2.99214E-05-7.52152E-08 3.40233E-19-5.27544E-19
 -1      1109 8.12224E-05-1.98766E-05-2.63135E-05-4.98757E-06-7.01204E-19 1.01761E-18
 -1      1110 8.54841E-05-2.10899E-05-2.76007E-05-1.90019E-06-1.11971E-18-4.89391E-19
 -1      1111 9.11146E-05-2.43592E-05-2.86126E-05-5.77716E-07 5.95623E-19-4.19424E-18
 -1      1112 1.16658E-04 2.57026E-10-4.17877E-05-4.14071E-05-2.38440E-19 5.40174E-18
 -1      1113 8.85556E-05 7.18454E-11-3.72113E-05-2.41413E-05-1.12126E-19-1.47225E-19
 -1      1114 8.40421E-05 4.14639E-11-3.57506E-05-1.78534E-05-6.72862E-20-2.29477E-18
 -1      1115 8.23453E-05 3.20241E-11-3.50758E-05-1.38091E-05-4.30134E-20-3.14278E-18
 -1      1116 8.15754E-05 2.73302E-11-3.47563E-05-1.05037E-05-2.00509E-20-3.43792E-18
 -1      1117 8.11953E-05 2.45511E-11-3.46011E-05-7.61188E-06-1.85288E-21-3.45234E-18
 -1      1118 8.09996E-05 2.28586E-11-3.45239E-05-4.95776E-06 7.17000E-21-3.34414E-18
 -1      1119 8.09055E-05 2.19394E-11-3.44882E-05-2.42076E-06 1.02918E-20-3.17353E-18
 -1      1120 8.08793E-05 2.16606E-11-3.44785E-05 5.13183E-08 2.22437E-20-3.02274E-18
 -1      1121 8.09107E-05 2.19865E-11-3.44900E-05 2.52613E-06 3.04502E-20-2.78320E-18
 -1      1122 8.10100E-05 2.29660E-11-3.45273E-05 5.07215E-06 3.92878E-20-2.47581E-18
 -1      1123 8.12119E-05 2.47220E-11-3.46055E-05 7.74357E-06 5.41969E-20-2.00301E-18
 -1      1124 8.15982E-05 2.76344E-11-3.47628E-05 1.06635E-05 6.38848E-20-1.28965E-18
 -1      1125 8.23692E-05 3.25169E-11-3.50860E-05 1.40158E-05 8.39886E-20-1.80272E-19
 -1      1126 8.40385E-05 4.19314E-11-3.57705E-05 1.81061E-05 9.27501E-20 1.62457E-18
 -1      1127 8.82520E-05 6.66705E-11-3.72806E-05 2.39852E-05 8.70326E-20 4.75140E-18
 -1      1128 1.06433E-04 1.63603E-10-4.05669E-05 3.61455E-05 1.01009E-19 1.04241E-17
 -1      1129 1.29961E-04-2.57025E-05-4.01981E-05-2.60650E-05-9.62653E-19 8.85488E-18
 -1      1130 9.72423E-05-2.87988E-05-3.15117E-05-6.80190E-07-3.21687E-19 6.63671E-18
 -1      1131 8.99637E-05-2.69684E-05-2.78337E-05 3.85600E-07-1.05720E-19 4.00613E-18
 -1      1132 8.80712E-05-2.65199E-05-2.65908E-05 2.48994E-07-6.27003E-20 1.95463E-18
 -1      1133 8.77414E-05-2.64023E-05-2.63439E-05 1.63859E-07-1.92485E-20 4.89003E-19
 -1      1134 8.81488E-05-2.64940E-05-2.64442E-05 1.15959E-07-5.82252E-20-4.64703E-19
 -1      1135 8.89148E-05-2.67032E-05-2.66720E-05 8.55370E-08-3.87617E-20-1.00583E-18
 -1      1136 8.98552E-05-2.69737E-05-2.69538E-05 6.48498E-08-2.26077E-20-1.63139E-18
 -1      1137 9.08784E-05-2.72745E-05-2.72612E-05 5.02316E-08-3.45869E-20-2.26470E-18
 -1      1138 9.19456E-05-2.75917E-05-2.75829E-05 3.99994E-08-2.26312E-20-3.28710E-18
 -1      1139 9.30514E-05-2.79223E-05-2.79174E-05 3.34189E-08-1.67856E-21-4.38406E-18
 -1      1140 9.42129E-05-2.82708E-05-2.82696E-05 3.02124E-08 1.39507E-19-3.65318E-18
 -1      1141 9.54621E-05-2.86461E-05-2.86485E-05 3.03228E-08 2.84755E-20-3.60662E-18
 -1      1142 9.68378E-05-2.90594E-05-2.90653E-05 3.37540E-08-4.05856E-20-3.52061E-18
 -1      1143 9.83772E-05-2.95211E-05-2.95300E-05 4.03953E-08-2.30328E-20-3.23588E-18
 -1      1144 1.00104E-04-3.00378E-05-3.00483E-05 4.97539E-08-2.76847E-19-4.30801E-18
 -1      1145 1.02011E-04-3.06067E-05-3.06161E-05 6.05325E-08-2.40958E-20-4.53147E-18
 -1      1146 1.04040E-04-3.12093E-05-3.12128E-05 7.00089E-08-8.22952E-21-3.93248E-18
 -1      1147 1.06050E-04-3.18031E-05-3.17934E-05 7.32776E-08 1.18630E-20-3.68492E-18
 -1      1148 1.07793E-04-3.23134E-05-3.22811E-05 6.26705E-08-1.47931E-19-4.05442E-18
 -1      1149 1.08894E-04-3.26292E-05-3.25654E-05 2.81858E-08-8.19736E-21-4.71968E-18
 -1      1150 1.08878E-04-3.26109E-05-3.25125E-05-3.96873E-08-1.90807E-19-4.11245E-18
 -1      1151 1.07263E-04-3.21194E-05-3.19982E-05-1.43187E-07 2.61296E-19-4.11737E-18
 -1      1152 1.03766E-04-3.10768E-05-3.09650E-05-2.67004E-07-1.50411E-19-3.93479E-18
 -1      1153 9.85755E-05-2.95461E-05-2.94923E-05-3.70581E-07 1.41748E-19-4.98325E-18
 -1      1154 9.25760E-05-2.77916E-05-2.78391E-05-3.96268E-07 9.33986E-20-3.59343E-18
 -1      1155 8.72779E-05-2.62521E-05-2.64099E-05-3.01187E-07 2.65657E-19-3.88396E-18
 -1      1156 8.43235E-05-2.53977E-05-2.56237E-05-9.50091E-08 1.40389E-19-5.59535E-18
 -1      1157 8.47367E-05-2.55172E-05-2.57335E-05 1.49935E-07-4.20241E-20-6.72065E-18
 -1      1158 8.83736E-05-2.65698E-05-2.67036E-05 3.35184E-07 2.40825E-19-6.07990E-18
 -1      1159 9.39980E-05-2.82065E-05-2.82271E-05 3.99945E-07-4.41788E-19-5.41699E-18
 -1      1160 9.99301E-05-2.99447E-05-2.98724E-05 3.50265E-07 1.90223E-19-4.89315E-18
 -1      1161 1.04782E-04-3.13790E-05-3.12611E-05 2.37061E-07-3.56978E-20-4.32267E-18
 -1      1162 1.07848E-04-3.22962E-05-3.21786E-05 1.15615E-07-2.09905E-20-5.50753E-18
 -1      1163 1.09079E-04-3.26747E-05-3.25846E-05 2.02252E-08 3.72600E-19-4.73348E-18
 -1      1164 1.08832E-04-3.26151E-05-3.25599E-05-3.88131E-08 2.66124E-19-2.31318E-18
 -1      1165 1.07606E-04-3.22620E-05-3.22367E-05-6.62169E-08 8.07254E-20-3.37651E-18
 -1      1166 1.05865E-04-3.17518E-05-3.17471E-05-7.19988E-08-1.64654E-19-3.90157E-18
 -1      1167 1.03960E-04-3.11891E-05-3.11961E-05-6.56799E-08-1.11840E-19-6.24257E-18
 -1      1168 1.02121E-04-3.06429E-05-3.06549E-05-5.41615E-08 1.12544E-19-6.63267E-18
 -1      1169 1.00474E-04-3.01518E-05-3.01648E-05-4.16449E-08-5.04512E-19-7.01547E-18
 -1      1170 9.90742E-05-2.97332E-05-2.97450E-05-3.02987E-08-2.38465E-19-1.05611E-17
 -1      1171 9.79310E-05-2.93902E-05-2.94000E-05-2.09879E-08-4.01255E-19-1.13862E-17
 -1      1172 9.70272E-05-2.91182E-05-2.91260E-05-1.38216E-08-2.01222E-19-9.56743E-18
 -1      1173 9.63348E-05-2.89094E-05-2.89156E-05-8.48326E-09-4.00587E-20-7.62771E-18
 -1      1174 9.58244E-05-2.87551E-05-2.87606E-05-4.36497E-09 6.72401E-20-5.06678E-18
 -1      1175 9.54721E-05-2.86481E-05-2.86539E-05-5.30626E-10 3.73757E-20-2.97767E-18
 -1      1176 9.52624E-05-2.85840E-05-2.85902E-05 4.44684E-09-1.23711E-19 1.43687E-19
 -1      1177 9.51908E-05-2.85646E-05-2.85617E-05 1.32495E-08-2.28160E-19-1.55991E-18
 -1      1178 9.52096E-05-2.85628E-05-2.85501E-05 9.04005E-09 6.94939E-19 2.65307E-19
 -1      1179 1.30791E-04-3.76604E-05-3.85853E-05 1.21582E-05-1.69301E-19 1.48438E-17
 -1      1180 9.63412E-05-2.81249E-05-3.12632E-05 8.01554E-07 4.72221E-20 1.30502E-17
 -1      1181 9.01716E-05-2.68693E-05-2.78128E-05 1.21468E-07 6.16216E-20 1.10032E-17
 -1      1182 8.81498E-05-2.64447E-05-2.66245E-05 1.12764E-08 5.01801E-20 9.69773E-18
 -1      1183 8.77711E-05-2.63614E-05-2.63674E-05-2.19204E-08 3.02682E-20 8.93546E-18
 -1      1184 8.81562E-05-2.64720E-05-2.64552E-05-2.96852E-08-2.69785E-20 8.43025E-18
 -1      1185 8.89088E-05-2.66903E-05-2.66761E-05-2.93827E-08-1.26727E-19 8.39801E-18
 -1      1186 8.98400E-05-2.69649E-05-2.69538E-05-2.59038E-08 1.19404E-21 8.00164E-18
 -1      1187 9.08580E-05-2.72681E-05-2.72589E-05-2.07882E-08 2.98199E-20 6.40557E-18
 -1      1188 9.19269E-05-2.75882E-05-2.75809E-05-1.47460E-08 5.29317E-20 5.63761E-18
 -1      1189 9.30483E-05-2.79251E-05-2.79206E-05-8.24056E-09 4.79421E-20 5.12339E-18
 -1      1190 9.42525E-05-2.82878E-05-2.82870E-05-1.66922E-09 6.05924E-20 5.77369E-18
 -1      1191 9.55937E-05-2.86923E-05-2.86966E-05 4.51606E-09 9.38953E-20 5.06360E-18
 -1      1192 9.71482E-05-2.91614E-05-2.91723E-05 9.65507E-09 3.87658E-20 4.71359E-18
 -1      1193 9.90119E-05-2.97235E-05-2.97431E-05 1.26499E-08 6.17118E-20 4.04796E-18
 -1      1194 1.01298E-04-3.04118E-05-3.04426E-05 1.16211E-08 1.08124E-19 2.86536E-18
 -1      1195 1.04128E-04-3.12615E-05-3.13060E-05 3.44069E-09-7.30078E-20 3.39129E-18
 -1      1196 1.07614E-04-3.23034E-05-3.23628E-05-1.67387E-08 1.18171E-19 2.15632E-18
 -1      1197 1.11812E-04-3.35516E-05-3.36225E-05-5.54667E-08 1.10393E-19 9.93358E-19
 -1      1198 1.16647E-04-3.49798E-05-3.50467E-05-1.19159E-07-8.42103E-20 2.48316E-18
 -1      1199 1.21773E-04-3.64824E-05-3.65080E-05-2.07748E-07 2.20648E-19 3.81191E-18
 -1      1200 1.26383E-04-3.78241E-05-3.77411E-05-3.00455E-07-4.33608E-20 5.26659E-18
 -1      1201 1.29051E-04-3.85980E-05-3.83218E-05-3.35849E-07-9.08906E-20 5.90911E-18
 -1      1202 1.27827E-04-3.82564E-05-3.77476E-05-2.08499E-07 4.05252E-20 5.74400E-18
 -1      1203 1.21019E-04-3.63175E-05-3.56942E-05 1.69142E-07-8.08652E-21 5.97878E-18
 -1      1204 1.08845E-04-3.27992E-05-3.24149E-05 7.14939E-07-3.89109E-19 7.82298E-18
 -1      1205 9.50570E-05-2.86983E-05-2.89726E-05 1.08556E-06 1.69029E-19 6.51178E-18
 -1      1206 8.62286E-05-2.59092E-05-2.69035E-05 8.97713E-07 1.03841E-19 3.29856E-18
 -1      1207 8.74758E-05-2.60988E-05-2.72760E-05 1.81568E-07-3.63165E-19 2.26481E-18
 -1      1208 9.80496E-05-2.92305E-05-2.98833E-05-5.69343E-07-9.41927E-20 2.24421E-18
 -1      1209 1.12027E-04-3.35255E-05-3.34202E-05-9.06837E-07 5.37039E-20 1.39739E-18
 -1      1210 1.23188E-04-3.69848E-05-3.64317E-05-7.95422E-07 2.42728E-19 4.10387E-19
 -1      1211 1.28623E-04-3.86522E-05-3.80745E-05-4.70637E-07-7.20177E-20 2.84931E-18
 -1      1212 1.28759E-04-3.86822E-05-3.82872E-05-1.66168E-07-1.64794E-19 3.51394E-18
 -1      1213 1.25491E-04-3.76761E-05-3.74878E-05 3.09186E-08-9.70878E-20 3.06883E-18
 -1      1214 1.20693E-04-3.62170E-05-3.61729E-05 1.24483E-07 1.31807E-19 9.70223E-19
 -1      1215 1.15645E-04-3.46932E-05-3.47244E-05 1.50397E-07 5.27586E-19-2.46444E-18
 -1      1216 1.11033E-04-3.33070E-05-3.33663E-05 1.41631E-07-1.28952E-19-6.01764E-19
 -1      1217 1.07129E-04-3.21365E-05-3.21989E-05 1.19354E-07-4.39390E-20 6.72121E-19
 -1      1218 1.03976E-04-3.11921E-05-3.12469E-05 9.46575E-08 3.31235E-19-1.95904E-18
 -1      1219 1.01506E-04-3.04524E-05-3.04968E-05 7.23768E-08 2.49464E-19-3.82585E-18
 -1      1220 9.96134E-05-2.98855E-05-2.99198E-05 5.40753E-08 4.52757E-20-2.70714E-18
 -1      1221 9.81875E-05-2.94583E-05-2.94841E-05 3.98331E-08 2.39992E-19-2.43096E-18
 -1      1222 9.71304E-05-2.91414E-05-2.91606E-05 2.91698E-08-1.46236E-19-8.06686E-19
 -1      1223 9.63609E-05-2.89108E-05-2.89251E-05 2.14351E-08-6.53191E-19 7.48014E-19
 -1      1224 9.58168E-05-2.87476E-05-2.87590E-05 1.59000E-08 2.74529E-19-2.90218E-18
 -1      1225 9.54542E-05-2.86387E-05-2.86489E-05 1.16464E-08 5.25993E-19-7.52895E-18
 -1      1226 9.52465E-05-2.85761E-05-2.85857E-05 6.73154E-09 4.92222E-19-9.69665E-18
 -1      1227 9.51794E-05-2.85545E-05-2.85594E-05-2.77555E-09 3.82595E-19-8.68427E-18
 -1      1228 9.52109E-05-2.85645E-05-2.85487E-05-8.84704E-09 3.71407E-19-4.46243E-18
 -1      1229 9.52441E-05-2.85985E-05-2.85496E-05-9.23521E-09-5.65176E-18-1.24898E-18
 -1      1230 9.52489E-05-2.86230E-05-2.85621E-05-1.22506E-08-8.16736E-18-7.77559E-19
 -1      1231 9.52259E-05-2.85436E-05-2.85908E-05 3.02778E-10-3.44826E-18 5.72257E-19
 -1      1232 9.51678E-05-2.83453E-05-2.86468E-05 8.14407E-09-1.15168E-18 9.42439E-19
 -1      1233 9.50882E-05-2.80734E-05-2.87226E-05 1.16543E-08 3.03868E-18-3.61420E-19
 -1      1234 9.50046E-05-2.77883E-05-2.88027E-05 1.16347E-08-3.10998E-18-7.46982E-19
 -1      1235 9.49325E-05-2.75423E-05-2.88723E-05 9.23681E-09-6.85739E-18-7.21120E-19
 -1      1236 9.48839E-05-2.73767E-05-2.89194E-05 4.99143E-09-3.32438E-18-6.61347E-19
 -1      1237 9.48676E-05-2.73212E-05-2.89353E-05-3.15462E-11-4.12700E-18-1.25228E-19
 -1      1238 9.48858E-05-2.73838E-05-2.89176E-05-4.95217E-09-6.82646E-18 8.05236E-19
 -1      1239 9.49353E-05-2.75529E-05-2.88696E-05-8.92470E-09-6.91258E-18-1.09462E-18
 -1      1240 9.50071E-05-2.77973E-05-2.88004E-05-1.12152E-08-8.79157E-18-3.81328E-20
 -1      1241 9.50887E-05-2.80760E-05-2.87218E-05-1.10448E-08-6.99194E-18-1.08130E-19
 -1      1242 9.51663E-05-2.83405E-05-2.86478E-05-7.94416E-09-3.27199E-18-7.72056E-19
 -1      1243 9.52252E-05-2.85378E-05-2.85927E-05-1.01898E-09-1.74403E-18 4.89437E-19
 -1      1244 9.52425E-05-2.86094E-05-2.85634E-05 1.86139E-08-3.03131E-18-3.20143E-19
 -1      1245 9.52453E-05-2.85998E-05-2.85506E-05 1.04276E-08-1.07746E-18 3.63492E-19
 -1      1246 3.39381E-05-1.07491E-04 1.82687E-05-1.43681E-05 6.45439E-18 8.88299E-19
 -1      1247 1.81978E-05-6.89303E-05 1.03311E-05-2.73906E-05 8.71173E-18 3.52260E-18
 -1      1248 7.72763E-06-1.31686E-05-4.87942E-06-3.78035E-06 1.60530E-17 1.01373E-17
 -1      1249 3.25058E-05 2.19092E-05-2.49786E-05 4.88421E-05 1.74557E-17 1.64663E-17
 -1      1250 1.04852E-04 1.30240E-05-4.58833E-05 9.87814E-05 1.07599E-17 1.52771E-17
 -1      1251 2.10009E-04-3.43360E-05-6.46428E-05 1.09851E-04 4.99157E-18 1.13841E-17
 -1      1252 2.95725E-04-8.25501E-05-7.64984E-05 6.37472E-05 1.29940E-18 4.39610E-18
 -1      1253 3.17462E-04-9.56653E-05-7.92595E-05-1.82935E-05 1.27240E-18-6.54121E-18
 -1      1254 2.60961E-04-6.20534E-05-7.19585E-05-9.11123E-05 5.13429E-18-1.74252E-17
 -1      1255 1.61095E-04-9.43329E-06-5.68011E-05-1.12164E-04 1.12562E-17-2.02712E-17
 -1      1256 6.72253E-05 2.29596E-05-3.68196E-05-7.97926E-05 1.54617E-17-1.84196E-17
 -1      1257 1.46055E-05 1.13500E-05-1.54031E-05-2.23827E-05 1.44419E-17-1.19881E-17
 -1      1258 9.57595E-06-3.78492E-05 2.73984E-06 1.92992E-05 7.32175E-18-4.16740E-18
 -1      1259 2.69922E-05-9.19884E-05 1.51296E-05 2.37406E-05-7.92823E-19-3.54695E-19
 -1      1260 3.56318E-05-1.11952E-04 1.92379E-05-7.27183E-08-1.03739E-17-8.22045E-19
 -1      1261 2.63895E-05-8.77251E-05 1.41013E-05-2.29789E-05-1.22845E-17-2.80940E-18
 -1      1262 8.98774E-06-2.97173E-05 7.03002E-07-1.25332E-05-1.26394E-17-6.63650E-18
 -1      1263 1.87607E-05 1.69591E-05-1.82905E-05 3.20704E-05-1.25547E-17-9.59519E-18
 -1      1264 7.67286E-05 2.25959E-05-3.93780E-05 8.70090E-05-8.80914E-18-1.06946E-17
 -1      1265 1.72960E-04-1.52987E-05-5.84711E-05 1.12401E-04-4.99029E-18-8.73799E-18
 -1      1266 2.64757E-04-6.59450E-05-7.21859E-05 7.90925E-05-1.73568E-18-3.76591E-18
 -1      1267 3.08537E-04-9.31275E-05-7.76081E-05 3.67951E-06-6.02187E-19 3.89106E-18
 -1      1268 2.75972E-04-7.35862E-05-7.35939E-05-7.28183E-05-3.01819E-18 1.15823E-17
 -1      1269 1.92151E-04-2.54207E-05-6.18286E-05-1.11196E-04-7.19258E-18 1.61326E-17
 -1      1270 9.69356E-05 1.72758E-05-4.43280E-05-9.75128E-05-1.29706E-17 1.77657E-17
 -1      1271 2.93362E-05 2.43382E-05-2.41592E-05-4.84168E-05-1.78148E-17 1.59835E-17
 -1      1272 7.22012E-06-1.08406E-05-4.99844E-06 2.02740E-06-2.02509E-17 1.20363E-17
 -1      1273 1.79859E-05-6.56387E-05 9.75197E-06 2.44905E-05-1.23269E-17 4.96382E-18
 -1      1274 3.39864E-05-1.06398E-04 1.79725E-05 1.27422E-05 5.50571E-20 1.22674E-18
 -1      1275 1.04258E-04-2.19738E-05-3.78288E-05-1.72546E-05-3.67401E-19 4.04712E-18
 -1      1276 9.02415E-05-6.67522E-06-3.59851E-05-2.04427E-05-7.91976E-19-1.16276E-18
 -1      1277 9.25439E-05-6.73307E-06-3.71769E-05-2.57246E-05-1.07764E-18-3.56283E-20
 -1      1278 8.58833E-05-4.09806E-06-3.51197E-05-1.63999E-05-6.57933E-19-2.67803E-18
 -1      1279 8.71111E-05-4.09095E-06-3.55786E-05-1.88214E-05-8.06005E-19-2.03555E-18
 -1      1280 9.20706E-05-1.04572E-05-3.50685E-05-1.89974E-05-1.33807E-18-9.64982E-19
 -1      1281 8.41165E-05-3.19084E-06-3.46945E-05-1.27837E-05-4.66371E-19-3.30602E-18
 -1      1282 8.47065E-05-3.16048E-06-3.49103E-05-1.45972E-05-5.83791E-19-3.06441E-18
 -1      1283 8.78532E-05-7.39370E-06-3.45689E-05-1.53679E-05-1.01821E-18-2.20184E-18
 -1      1284 8.32355E-05-2.72728E-06-3.44918E-05-9.64979E-06-2.77423E-19-3.48332E-18
 -1      1285 8.35372E-05-2.71082E-06-3.45949E-05-1.11972E-05-3.30118E-19-3.42731E-18
 -1      1286 8.58915E-05-5.98130E-06-3.43176E-05-1.19164E-05-6.67052E-19-2.74619E-18
 -1      1287 8.27579E-05-2.45142E-06-3.43941E-05-6.88310E-06-4.90551E-20-3.43742E-18
 -1      1288 8.29202E-05-2.44329E-06-3.44447E-05-8.25101E-06-1.38119E-19-3.45244E-18
 -1      1289 8.48709E-05-5.20692E-06-3.41981E-05-8.90036E-06-3.77853E-19-2.84502E-18
 -1      1290 8.24920E-05-2.28247E-06-3.43467E-05-4.27269E-06 9.98275E-20-3.31420E-18
 -1      1291 8.25784E-05-2.27867E-06-3.43716E-05-5.56887E-06 4.65835E-20-3.40479E-18
 -1      1292 8.42955E-05-4.74371E-06-3.41426E-05-6.18271E-06-7.55050E-21-2.84921E-18
 -1      1293 8.23641E-05-2.19057E-06-3.43274E-05-1.78039E-06 3.00377E-19-3.15084E-18
 -1      1294 8.24009E-05-2.18903E-06-3.43373E-05-3.02490E-06 2.29984E-19-3.22716E-18
 -1      1295 8.39796E-05-4.47446E-06-3.41187E-05-3.62273E-06 2.54005E-19-2.69799E-18
 -1      1296 8.23393E-05-2.16223E-06-3.43255E-05 6.65172E-07 4.41353E-19-2.96096E-18
 -1      1297 8.23376E-05-2.16226E-06-3.43251E-05-5.63696E-07 3.95976E-19-3.07000E-18
 -1      1298 8.38410E-05-4.35145E-06-3.41104E-05-1.16360E-06 5.66171E-19-2.52502E-18
 -1      1299 8.24109E-05-2.19368E-06-3.43392E-05 3.13024E-06 6.06792E-19-2.72999E-18
 -1      1300 8.23707E-05-2.19523E-06-3.43285E-05 1.88296E-06 5.37043E-19-2.86398E-18
 -1      1301 8.38466E-05-4.35589E-06-3.41110E-05 1.26456E-06 8.10535E-19-2.36265E-18
 -1      1302 8.25978E-05-2.28971E-06-3.43747E-05 5.68401E-06 7.36796E-19-2.42290E-18
 -1      1303 8.25076E-05-2.29293E-06-3.43491E-05 4.38151E-06 6.79511E-19-2.61368E-18
 -1      1304 8.39970E-05-4.48876E-06-3.41202E-05 3.72816E-06 1.05327E-18-2.15774E-18
 -1      1305 8.29451E-05-2.45945E-06-3.44477E-05 8.35980E-06 8.63921E-19-1.90082E-18
 -1      1306 8.27801E-05-2.46798E-06-3.43967E-05 6.98243E-06 7.90484E-19-2.21719E-18
 -1      1307 8.43243E-05-4.76855E-06-3.41442E-05 6.27542E-06 1.24112E-18-1.82390E-18
 -1      1308 8.35814E-05-2.74075E-06-3.46000E-05 1.13589E-05 1.04148E-18-1.14334E-18
 -1      1309 8.32730E-05-2.75772E-06-3.44953E-05 9.79415E-06 9.68860E-19-1.58246E-18
 -1      1310 8.49151E-05-5.24946E-06-3.41990E-05 9.01214E-06 1.49682E-18-1.24059E-18
 -1      1311 8.47681E-05-3.20531E-06-3.49188E-05 1.48101E-05 1.19538E-18 4.04194E-20
 -1      1312 8.41751E-05-3.24203E-06-3.47006E-05 1.29687E-05 1.08989E-18-6.65834E-19
 -1      1313 8.59755E-05-6.06086E-06-3.43193E-05 1.20793E-05 1.70987E-18-4.64862E-19
 -1      1314 8.72086E-05-4.09131E-06-3.55998E-05 1.90604E-05 1.21126E-18 2.01753E-18
 -1      1315 8.59521E-05-4.15544E-06-3.51276E-05 1.66619E-05 1.12237E-18 8.54021E-19
 -1      1316 8.79825E-05-7.51705E-06-3.45716E-05 1.56092E-05 1.83310E-18 8.94493E-19
 -1      1317 9.33525E-05-6.78438E-06-3.70714E-05 2.50625E-05 9.16807E-19 5.28856E-18
 -1      1318 9.00544E-05-6.43192E-06-3.60069E-05 2.11198E-05 9.33007E-19 3.33450E-18
 -1      1319 9.22975E-05-1.06913E-05-3.50531E-05 1.96383E-05 1.71236E-18 2.94746E-18
 -1      1320 1.23405E-04-2.48762E-05-3.89487E-05 2.83251E-05 2.95932E-19 1.07336E-17
 -1      1321 9.99307E-05-1.43972E-05-3.72996E-05 2.40195E-05 3.62954E-19 7.04753E-18
 -1      1322 1.01544E-04-1.93138E-05-3.53571E-05 2.13642E-05 1.41881E-18 5.88730E-18
 -1      1323 1.02411E-04-2.77494E-05-3.46960E-05 7.31966E-06 6.59203E-19 1.06146E-17
 -1      1324 1.04962E-04-3.01754E-05-3.34684E-05-7.94430E-06-9.26125E-19 4.46725E-18
 -1      1325 9.80885E-05-2.77927E-05-3.07091E-05-4.97652E-06-8.52327E-19 3.37410E-18
 -1      1326 9.53418E-05-2.78011E-05-2.92056E-05-2.47858E-06-6.35434E-19 2.92843E-18
 -1      1327 9.31193E-05-2.75124E-05-2.81697E-05-2.03171E-06-6.00335E-19 1.98147E-18
 -1      1328 9.93518E-05-2.80136E-05-3.09422E-05-7.86220E-06-1.42084E-18 1.44326E-18
 -1      1329 9.14436E-05-2.71582E-05-2.75398E-05-8.23863E-07-5.81118E-19 1.62270E-18
 -1      1330 9.07398E-05-2.70660E-05-2.72417E-05-7.12602E-07-4.97804E-19 8.12808E-19
 -1      1331 9.46094E-05-2.77361E-05-2.87846E-05-3.09360E-06-1.10122E-18 7.77695E-19
 -1      1332 9.00097E-05-2.68887E-05-2.70047E-05-1.51386E-07-3.61455E-19 3.82753E-19
 -1      1333 8.99576E-05-2.69208E-05-2.69762E-05-9.13982E-08-4.26173E-19-1.55311E-19
 -1      1334 9.24433E-05-2.74735E-05-2.78749E-05-1.01393E-06-9.65670E-19 1.84402E-19
 -1      1335 8.97281E-05-2.68617E-05-2.69113E-05 1.90371E-07-1.99341E-19-2.64327E-19
 -1      1336 8.99759E-05-2.69608E-05-2.69832E-05 2.22100E-07-1.90070E-19-5.89641E-19
 -1      1337 9.15338E-05-2.73420E-05-2.75241E-05-8.14808E-09-5.66079E-19-3.76612E-19
 -1      1338 9.00245E-05-2.69765E-05-2.70036E-05 3.70424E-07-2.18650E-19-7.41895E-19
 -1      1339 9.04193E-05-2.71108E-05-2.71187E-05 3.86632E-07-2.01587E-19-9.91154E-19
 -1      1340 9.13541E-05-2.73491E-05-2.74399E-05 5.13834E-07-4.11603E-19-5.95160E-19
 -1      1341 9.06269E-05-2.71710E-05-2.71863E-05 4.65570E-07-1.41489E-19-1.00631E-18
 -1      1342 9.10946E-05-2.73220E-05-2.73225E-05 4.73554E-07-1.16712E-19-1.35286E-18
 -1      1343 9.15951E-05-2.74513E-05-2.74968E-05 7.92269E-07-2.68809E-19-8.14012E-19
 -1      1344 9.13966E-05-2.74087E-05-2.74181E-05 5.17336E-07-1.12262E-19-1.28995E-18
 -1      1345 9.19016E-05-2.75674E-05-2.75657E-05 5.21700E-07-1.73867E-19-1.63883E-18
 -1      1346 9.20840E-05-2.76122E-05-2.76353E-05 9.44137E-07-3.49890E-19-8.91738E-19
 -1      1347 9.22641E-05-2.76712E-05-2.76795E-05 5.51012E-07-4.31590E-19-1.69089E-18
 -1      1348 9.27935E-05-2.78346E-05-2.78350E-05 5.54899E-07-4.76386E-19-2.21432E-18
 -1      1349 9.27260E-05-2.78095E-05-2.78247E-05 1.03537E-06-4.80541E-19-8.55294E-19
 -1      1350 9.32016E-05-2.79513E-05-2.79625E-05 5.83160E-07-3.28104E-19-2.48140E-18
 -1      1351 9.37569E-05-2.81207E-05-2.81262E-05 5.88763E-07-6.54234E-20-2.80330E-18
 -1      1352 9.34738E-05-2.80321E-05-2.80494E-05 1.10712E-06-6.13105E-19-1.07404E-18
 -1      1353 9.42079E-05-2.82497E-05-2.82669E-05 6.24759E-07 2.45320E-19-2.87066E-18
 -1      1354 9.48003E-05-2.84293E-05-2.84419E-05 6.33537E-07 1.44424E-19-2.55276E-18
 -1      1355 9.43098E-05-2.82770E-05-2.83032E-05 1.18627E-06-7.84382E-20-1.40566E-18
 -1      1356 9.52991E-05-2.85721E-05-2.85971E-05 6.82384E-07-1.69080E-19-2.70989E-18
 -1      1357 9.59450E-05-2.87677E-05-2.87882E-05 6.95099E-07-1.20363E-19-2.80900E-18
 -1      1358 9.52362E-05-2.85464E-05-2.85855E-05 1.28976E-06-1.54650E-19-2.04408E-18
 -1      1359 9.65004E-05-2.89273E-05-2.89605E-05 7.58250E-07 1.36475E-19-2.74293E-18
 -1      1360 9.72178E-05-2.91451E-05-2.91726E-05 7.74844E-07 2.27897E-20-2.67473E-18
 -1      1361 9.62662E-05-2.88463E-05-2.88994E-05 1.42571E-06-3.33391E-20-2.27425E-18
 -1      1362 9.78383E-05-2.93246E-05-2.93645E-05 8.49341E-07 1.06689E-19-2.66911E-18
 -1      1363 9.86413E-05-2.95699E-05-2.96015E-05 8.68650E-07-1.42827E-19-2.79241E-18
 -1      1364 9.74171E-05-2.91842E-05-2.92487E-05 1.59257E-06 2.88711E-20-1.90422E-18
 -1      1365 9.93306E-05-2.97713E-05-2.98136E-05 9.45681E-07-3.71127E-19-2.48447E-18
 -1      1366 1.00223E-04-3.00466E-05-3.00761E-05 9.64982E-07-3.88882E-19-2.97875E-18
 -1      1367 9.87019E-05-2.95672E-05-2.96356E-05 1.77660E-06-3.07738E-19-1.87376E-18
 -1      1368 1.00974E-04-3.02693E-05-3.03055E-05 1.02788E-06-2.34509E-19-2.97151E-18
 -1      1369 1.01939E-04-3.05711E-05-3.05880E-05 1.04227E-06-1.90753E-19-3.19143E-18
 -1      1370 1.00119E-04-2.99997E-05-3.00572E-05 1.94769E-06-3.46134E-19-1.45082E-18
 -1      1371 1.02728E-04-3.08098E-05-3.08260E-05 1.06437E-06-5.11090E-20-3.42049E-18
 -1      1372 1.03717E-04-3.11250E-05-3.11134E-05 1.06614E-06 1.38875E-19-3.08732E-18
 -1      1373 1.01642E-04-3.04791E-05-3.05018E-05 2.05451E-06-8.05430E-20-2.01495E-18
 -1      1374 1.04493E-04-3.13675E-05-3.13430E-05 1.00972E-06 1.26566E-19-3.19641E-18
 -1      1375 1.05411E-04-3.16683E-05-3.16070E-05 9.88024E-07-7.19358E-20-2.94874E-18
 -1      1376 1.03200E-04-3.09914E-05-3.09450E-05 2.02042E-06 1.46445E-19-2.47132E-18
 -1      1377 1.06092E-04-3.18924E-05-3.18010E-05 8.06636E-07-1.71625E-19-3.04612E-18
 -1      1378 1.06790E-04-3.21322E-05-3.19973E-05 7.48401E-07-4.52074E-19-3.42462E-18
 -1      1379 1.04667E-04-3.15045E-05-3.13456E-05 1.74466E-06-3.56248E-19-2.71427E-18
 -1      1380 1.07257E-04-3.23036E-05-3.21187E-05 3.96644E-07 6.13437E-20-3.53460E-18
 -1      1381 1.07528E-04-3.24153E-05-3.21888E-05 2.89846E-07-1.76411E-19-3.64447E-18
 -1      1382 1.05850E-04-3.19598E-05-3.16449E-05 1.11596E-06-3.85397E-19-2.25580E-18
 -1      1383 1.07636E-04-3.24872E-05-3.21947E-05-2.54994E-07-2.24871E-19-3.45217E-18
 -1      1384 1.07251E-04-3.23900E-05-3.20753E-05-4.14083E-07 9.06788E-20-3.38555E-18
 -1      1385 1.06487E-04-3.22659E-05-3.17718E-05 4.91071E-08-3.85565E-20-3.04516E-18
 -1      1386 1.06857E-04-3.23088E-05-3.19286E-05-1.11735E-06 3.58692E-19-3.66269E-18
 -1      1387 1.05631E-04-3.19292E-05-3.15727E-05-1.31283E-06 1.74787E-19-3.23625E-18
 -1      1388 1.06286E-04-3.23003E-05-3.16568E-05-1.44830E-06 1.99152E-19-3.18112E-18
 -1      1389 1.04650E-04-3.16506E-05-3.12596E-05-2.04483E-06 6.34150E-20-3.18001E-18
 -1      1390 1.02557E-04-3.09628E-05-3.06680E-05-2.23025E-06 1.05585E-19-3.61950E-18
 -1      1391 1.05002E-04-3.19317E-05-3.12584E-05-3.18738E-06 1.05495E-19-2.79220E-18
 -1      1392 1.01042E-04-3.04826E-05-3.02182E-05-2.75672E-06 3.33602E-20-2.91258E-18
 -1      1393 9.83379E-05-2.95588E-05-2.94692E-05-2.85663E-06-5.48470E-20-2.84502E-18
 -1      1394 1.02576E-04-3.10799E-05-3.05953E-05-4.73435E-06 1.12510E-19-1.82741E-18
 -1      1395 9.65505E-05-2.89506E-05-2.89661E-05-2.90226E-06 1.15592E-19-3.10747E-18
 -1      1396 9.38126E-05-2.79884E-05-2.82202E-05-2.84162E-06-4.69574E-20-2.56736E-18
 -1      1397 9.92999E-05-2.98094E-05-2.97702E-05-5.46523E-06 6.08474E-21-1.74165E-18
 -1      1398 9.22131E-05-2.74175E-05-2.77879E-05-2.23888E-06-5.20661E-19-2.80259E-18
 -1      1399 9.02089E-05-2.66992E-05-2.72484E-05-1.99544E-06-3.88629E-19-3.46955E-18
 -1      1400 9.58928E-05-2.84041E-05-2.89643E-05-4.81989E-06-5.35530E-19-2.05566E-18
 -1      1401 8.93091E-05-2.63681E-05-2.70117E-05-8.35877E-07-2.31346E-19-3.75553E-18
 -1      1402 8.86908E-05-2.61439E-05-2.68465E-05-4.74682E-07-3.39012E-19-4.35851E-18
 -1      1403 9.33564E-05-2.73162E-05-2.83905E-05-2.68580E-06-7.78271E-19-3.09915E-18
 -1      1404 8.88178E-05-2.61907E-05-2.68796E-05 8.71468E-07 1.49587E-19-4.40324E-18
 -1      1405 8.98027E-05-2.65466E-05-2.71433E-05 1.21621E-06 1.90781E-19-4.61457E-18
 -1      1406 9.25684E-05-2.69719E-05-2.82165E-05 3.76626E-07-1.85474E-19-3.47102E-18
 -1      1407 9.09107E-05-2.69523E-05-2.74359E-05 2.27128E-06 3.27808E-19-4.61937E-18
 -1      1408 9.31597E-05-2.77555E-05-2.80425E-05 2.47447E-06 2.38489E-19-3.95911E-18
 -1      1409 9.38263E-05-2.75182E-05-2.84954E-05 3.30896E-06 4.53977E-19-2.59964E-18
 -1      1410 9.48549E-05-2.83551E-05-2.85047E-05 2.92131E-06-3.44321E-19-3.73089E-18
 -1      1411 9.76540E-05-2.93327E-05-2.92701E-05 2.93885E-06-2.33252E-19-3.58965E-18
 -1      1412 9.66672E-05-2.87283E-05-2.91437E-05 5.11973E-06 2.13211E-19-2.85391E-18
 -1      1413 9.94159E-05-2.99230E-05-2.97722E-05 2.75840E-06 1.09036E-19-3.75286E-18
 -1      1414 1.02020E-04-3.08049E-05-3.04970E-05 2.63115E-06 3.10497E-19-2.96260E-18
 -1      1415 1.00135E-04-3.01407E-05-2.99758E-05 5.40773E-06-3.62887E-19-2.10473E-18
 -1      1416 1.03430E-04-3.12422E-05-3.09221E-05 2.03400E-06-1.30125E-19-3.07740E-18
 -1      1417 1.05336E-04-3.18612E-05-3.14641E-05 1.84121E-06-1.94202E-19-3.37340E-18
 -1      1418 1.03269E-04-3.13305E-05-3.07802E-05 4.43019E-06-3.01732E-19-2.12931E-18
 -1      1419 1.06188E-04-3.20935E-05-3.17418E-05 1.10312E-06 7.24279E-21-3.42819E-18
 -1      1420 1.07217E-04-3.24051E-05-3.20434E-05 9.14508E-07 4.22633E-19-3.73569E-18
 -1      1421 1.05451E-04-3.20708E-05-3.13922E-05 2.79565E-06-3.86247E-19-2.12978E-18
 -1      1422 1.07497E-04-3.24496E-05-3.21563E-05 2.47120E-07 4.90022E-19-3.58188E-18
 -1      1423 1.07726E-04-3.24958E-05-3.22315E-05 1.01426E-07 5.37925E-19-2.71687E-18
 -1      1424 1.06490E-04-3.23405E-05-3.17305E-05 1.09702E-06 2.15107E-19-1.15699E-18
 -1      1425 1.07541E-04-3.24018E-05-3.22013E-05-3.90258E-07 2.06524E-19-2.67483E-18
 -1      1426 1.07177E-04-3.22611E-05-3.21041E-05-4.82774E-07 1.46834E-19-2.44864E-18
 -1      1427 1.06504E-04-3.22397E-05-3.17945E-05-2.90721E-07 5.85207E-19-1.66227E-18
 -1      1428 1.06678E-04-3.20821E-05-3.19713E-05-7.80771E-07 1.52547E-19-2.49574E-18
 -1      1429 1.05952E-04-3.18344E-05-3.17662E-05-8.26577E-07-1.71977E-19-2.63311E-18
 -1      1430 1.05763E-04-3.19024E-05-3.16363E-05-1.22826E-06 7.67789E-20-2.37312E-18
 -1      1431 1.05280E-04-3.16150E-05-3.15735E-05-9.61232E-07-3.42468E-19-3.42106E-18
 -1      1432 1.04389E-04-3.13236E-05-3.13170E-05-9.72991E-07-5.90351E-19-3.93059E-18
 -1      1433 1.04562E-04-3.14461E-05-3.13287E-05-1.73645E-06-6.93677E-19-3.29396E-18
 -1      1434 1.03658E-04-3.10959E-05-3.11003E-05-9.90967E-07-7.89125E-19-3.56180E-18
 -1      1435 1.02741E-04-3.08039E-05-3.08339E-05-9.81302E-07-3.20889E-19-4.69618E-18
 -1      1436 1.03152E-04-3.09553E-05-3.09424E-05-1.91054E-06-1.09007E-18-2.32552E-18
 -1      1437 1.02028E-04-3.05882E-05-3.06187E-05-9.27085E-07-5.01688E-19-4.50312E-18
 -1      1438 1.01174E-04-3.03208E-05-3.03685E-05-9.05992E-07-7.32776E-19-4.90537E-18
 -1      1439 1.01715E-04-3.04831E-05-3.05335E-05-1.86054E-06-5.51101E-19-2.66361E-18
 -1      1440 1.00525E-04-3.01283E-05-3.01706E-05-8.14363E-07-3.23128E-19-5.03862E-18
 -1      1441 9.97774E-05-2.98974E-05-2.99505E-05-7.88751E-07-1.03637E-18-6.19905E-18
 -1      1442 1.00369E-04-3.00586E-05-3.01407E-05-1.68120E-06-8.51343E-19-3.13146E-18
 -1      1443 9.92159E-05-2.97330E-05-2.97779E-05-6.83630E-07-1.18220E-18-7.10778E-18
 -1      1444 9.85903E-05-2.95420E-05-2.95932E-05-6.57765E-07-9.34926E-19-8.43067E-18
 -1      1445 9.91772E-05-2.96941E-05-2.97868E-05-1.44233E-06-1.72734E-18-3.37992E-18
 -1      1446 9.81223E-05-2.94062E-05-2.94487E-05-5.53806E-07 1.08730E-19-8.04315E-18
 -1      1447 9.76176E-05-2.92535E-05-2.92993E-05-5.29993E-07 4.91899E-19-7.61876E-18
 -1      1448 9.81659E-05-2.93920E-05-2.94825E-05-1.18966E-06-1.68214E-19-4.28834E-18
 -1      1449 9.72397E-05-2.91446E-05-2.91823E-05-4.34894E-07 3.50990E-19-6.37162E-18
 -1      1450 9.68454E-05-2.90261E-05-2.90653E-05-4.14082E-07 6.14313E-19-5.85369E-18
 -1      1451 9.73363E-05-2.91486E-05-2.92305E-05-9.49652E-07 1.34513E-18-3.42657E-18
 -1      1452 9.65494E-05-2.89411E-05-2.89736E-05-3.30681E-07 6.26217E-19-5.64516E-18
 -1      1453 9.62515E-05-2.88521E-05-2.88851E-05-3.12920E-07 7.82546E-19-4.38597E-18
 -1      1454 9.66758E-05-2.89572E-05-2.90285E-05-7.34723E-07 1.03449E-18-1.70205E-18
 -1      1455 9.60275E-05-2.87876E-05-2.88159E-05-2.40814E-07 9.86765E-19-3.46119E-18
 -1      1456 9.58130E-05-2.87237E-05-2.87522E-05-2.25545E-07 1.00714E-18-2.15525E-18
 -1      1457 9.61659E-05-2.88106E-05-2.88719E-05-5.47726E-07 1.86157E-18-8.57895E-19
 -1      1458 9.56511E-05-2.86768E-05-2.87026E-05-1.62313E-07 5.71482E-19-2.43035E-18
 -1      1459 9.55102E-05-2.86349E-05-2.86608E-05-1.48570E-07 5.83644E-19-1.47087E-18
 -1      1460 9.57867E-05-2.87013E-05-2.87556E-05-3.85306E-07 1.56424E-18-2.70402E-19
 -1      1461 9.54019E-05-2.86030E-05-2.86281E-05-9.15025E-08 1.50485E-18-1.21913E-18
 -1      1462 9.53279E-05-2.85818E-05-2.86056E-05-7.82093E-08 8.92047E-19 1.40843E-19
 -1      1463 9.55203E-05-2.86238E-05-2.86740E-05-2.41111E-07 1.85313E-18-1.23282E-18
 -1      1464 9.52626E-05-2.85610E-05-2.85863E-05-2.68157E-08-3.24532E-19 9.58595E-19
 -1      1465 9.52498E-05-2.85637E-05-2.85778E-05-1.37001E-08 1.66712E-19 1.42814E-18
 -1      1466 9.53490E-05-2.85745E-05-2.86208E-05-1.12187E-07 1.03594E-18 1.26884E-18
 -1      1467 9.52255E-05-2.85743E-05-2.85597E-05 1.55552E-08-1.22175E-18 1.29841E-18
 -1      1468 9.52565E-05-2.85701E-05-2.85797E-05-5.11389E-09-7.24647E-19 1.87320E-18
 -1      1469 9.63992E-05-2.83105E-05-2.97183E-05 2.98767E-06 6.64100E-19 9.06264E-18
 -1      1470 1.02347E-04-2.93428E-05-3.20984E-05 4.45352E-06 6.06793E-19 1.00175E-17
 -1      1471 1.02168E-04-2.66747E-05-3.26563E-05 1.27601E-05 1.09500E-18 7.20052E-18
 -1      1472 9.18724E-05-2.73814E-05-2.77143E-05 1.14319E-06 4.86051E-19 7.75199E-18
 -1      1473 9.38105E-05-2.75344E-05-2.86255E-05 1.46517E-06 4.63234E-19 8.45901E-18
 -1      1474 9.63486E-05-2.79890E-05-2.94921E-05 4.84964E-06 1.00310E-18 6.12242E-18
 -1      1475 9.00655E-05-2.69636E-05-2.70237E-05 3.18624E-07 3.15804E-19 6.90583E-18
 -1      1476 9.06690E-05-2.69779E-05-2.72925E-05 4.82217E-07 3.17095E-19 7.36299E-18
 -1      1477 9.29294E-05-2.75437E-05-2.80655E-05 1.82908E-06 7.67703E-19 5.23362E-18
 -1      1478 8.95883E-05-2.68567E-05-2.68605E-05-7.67815E-08 1.61486E-19 6.42692E-18
 -1      1479 8.96070E-05-2.67886E-05-2.68827E-05 1.39978E-08 1.49165E-19 6.68870E-18
 -1      1480 9.14125E-05-2.72819E-05-2.74936E-05 4.82678E-07 4.02413E-19 4.64349E-18
 -1      1481 8.97847E-05-2.69274E-05-2.69223E-05-2.78001E-07 4.22937E-20 6.15025E-18
 -1      1482 8.95248E-05-2.68100E-05-2.68473E-05-2.24822E-07 7.73009E-20 6.32086E-18
 -1      1483 9.09361E-05-2.72156E-05-2.73151E-05-1.88850E-07 2.06243E-19 4.34014E-18
 -1      1484 9.03389E-05-2.70989E-05-2.70917E-05-3.82058E-07 7.93787E-20 5.93613E-18
 -1      1485 8.99411E-05-2.69555E-05-2.69744E-05-3.49731E-07 5.11140E-20 5.99799E-18
 -1      1486 9.10383E-05-2.72815E-05-2.73310E-05-5.41068E-07 9.94536E-20 4.07235E-18
 -1      1487 9.10883E-05-2.73258E-05-2.73186E-05-4.36593E-07 3.96038E-19 5.10935E-18
 -1      1488 9.06213E-05-2.71701E-05-2.71807E-05-4.15890E-07 2.56540E-19 5.57929E-18
 -1      1489 9.14698E-05-2.74284E-05-2.74526E-05-7.30047E-07 4.38768E-19 3.45748E-18
 -1      1490 9.19520E-05-2.75847E-05-2.75798E-05-4.69418E-07 3.27678E-19 4.13225E-18
 -1      1491 9.14476E-05-2.74227E-05-2.74302E-05-4.54317E-07 3.97303E-19 4.69332E-18
 -1      1492 9.20970E-05-2.76238E-05-2.76370E-05-8.37313E-07 7.45832E-19 3.15864E-18
 -1      1493 9.28992E-05-2.78667E-05-2.78665E-05-4.99131E-07 2.09712E-19 3.70644E-18
 -1      1494 9.23659E-05-2.76987E-05-2.77077E-05-4.85212E-07 1.29858E-19 4.06344E-18
 -1      1495 9.28528E-05-2.78511E-05-2.78632E-05-9.12170E-07 4.11959E-19 2.67732E-18
 -1      1496 9.39336E-05-2.81732E-05-2.81801E-05-5.39641E-07-4.70695E-20 3.93429E-18
 -1      1497 9.33638E-05-2.79950E-05-2.80097E-05-5.23300E-07 1.87253E-20 3.72118E-18
 -1      1498 9.37126E-05-2.81045E-05-2.81235E-05-9.88428E-07 1.12025E-19 2.38019E-18
 -1      1499 9.50851E-05-2.85131E-05-2.85296E-05-6.02347E-07 3.08311E-19 3.80283E-18
 -1      1500 9.44580E-05-2.83172E-05-2.83415E-05-5.80353E-07 1.59413E-19 3.87271E-18
 -1      1501 9.46821E-05-2.83867E-05-2.84191E-05-1.09183E-06 1.56948E-19 2.41673E-18
 -1      1502 9.64058E-05-2.89024E-05-2.89306E-05-6.97268E-07 3.64315E-19 3.24814E-18
 -1      1503 9.56895E-05-2.86776E-05-2.87154E-05-6.66496E-07 2.88753E-19 3.55226E-18
 -1      1504 9.57897E-05-2.87065E-05-2.87584E-05-1.24369E-06 5.39502E-19 2.31845E-18
 -1      1505 9.79666E-05-2.93622E-05-2.94045E-05-8.33432E-07 1.04082E-19 3.08204E-18
 -1      1506 9.71187E-05-2.90944E-05-2.91497E-05-7.90738E-07 8.75240E-20 3.02788E-18
 -1      1507 9.70825E-05-2.90786E-05-2.91557E-05-1.46258E-06 3.39485E-19 1.99023E-18
 -1      1508 9.98543E-05-2.99191E-05-2.99773E-05-1.01836E-06 3.53468E-19 2.63664E-18
 -1      1509 9.88236E-05-2.95914E-05-2.96677E-05-9.60681E-07 2.59630E-19 2.99206E-18
 -1      1510 9.86227E-05-2.95219E-05-2.96293E-05-1.76434E-06 2.44907E-19 2.08359E-18
 -1      1511 1.02165E-04-3.06027E-05-3.06775E-05-1.25611E-06-5.73666E-20 2.83297E-18
 -1      1512 1.00895E-04-3.01965E-05-3.02966E-05-1.18095E-06 1.42460E-19 2.86288E-18
 -1      1513 1.00483E-04-3.00592E-05-3.02005E-05-2.16001E-06 2.17773E-19 2.30185E-18
 -1      1514 1.04994E-04-3.14436E-05-3.15322E-05-1.54268E-06 3.70946E-19 2.00324E-18
 -1      1515 1.03427E-04-3.09403E-05-3.10641E-05-1.44942E-06 1.99746E-19 2.46567E-18
 -1      1516 1.02737E-04-3.07155E-05-3.08903E-05-2.65007E-06 3.68886E-19 2.25082E-18
 -1      1517 1.08405E-04-3.24658E-05-3.25582E-05-1.85708E-06 2.27452E-19 1.26310E-18
 -1      1518 1.06503E-04-3.18526E-05-3.19931E-05-1.74970E-06 2.18407E-19 1.80823E-18
 -1      1519 1.05448E-04-3.15155E-05-3.17139E-05-3.21257E-06 4.48342E-19 1.01420E-18
 -1      1520 1.12388E-04-3.36743E-05-3.37455E-05-2.14578E-06-3.76652E-19 7.62462E-19
 -1      1521 1.10157E-04-3.29536E-05-3.30892E-05-2.03794E-06 2.02047E-19 1.01575E-18
 -1      1522 1.08638E-04-3.24780E-05-3.26710E-05-3.78169E-06 4.83995E-19 1.08258E-18
 -1      1523 1.16766E-04-3.50309E-05-3.50309E-05-2.29990E-06-4.02030E-19 2.37971E-18
 -1      1524 1.14316E-04-3.42388E-05-3.43214E-05-2.22301E-06-7.81289E-19 1.35716E-18
 -1      1525 1.12246E-04-3.36059E-05-3.37294E-05-4.21426E-06-9.30494E-19 1.30970E-18
 -1      1526 1.21081E-04-3.64154E-05-3.62611E-05-2.13196E-06-7.83555E-20 3.09103E-18
 -1      1527 1.18698E-04-3.56497E-05-3.55913E-05-2.14470E-06-1.53194E-19 2.88907E-18
 -1      1528 1.16055E-04-3.48662E-05-3.48031E-05-4.24885E-06-6.09847E-19 2.16298E-18
 -1      1529 1.24456E-04-3.75747E-05-3.71618E-05-1.37917E-06-3.63986E-19 4.53478E-18
 -1      1530 1.22692E-04-3.70268E-05-3.66992E-05-1.56999E-06-3.69875E-19 3.86218E-18
 -1      1531 1.19605E-04-3.61554E-05-3.57314E-05-3.48517E-06-7.93829E-19 2.79230E-18
 -1      1532 1.25564E-04-3.80820E-05-3.73551E-05 2.03437E-07-1.02134E-19 4.56236E-18
 -1      1533 1.25249E-04-3.80481E-05-3.73305E-05-2.56733E-07-3.39448E-19 4.50843E-18
 -1      1534 1.22120E-04-3.72427E-05-3.62790E-05-1.45800E-06-4.91504E-19 3.51145E-18
 -1      1535 1.22931E-04-3.73871E-05-3.64876E-05 2.57784E-06 3.65151E-19 4.51024E-18
 -1      1536 1.24963E-04-3.81970E-05-3.71135E-05 1.84003E-06 2.97203E-19 4.71194E-18
 -1      1537 1.22552E-04-3.77114E-05-3.61952E-05 2.06324E-06-4.21002E-20 3.27621E-18
 -1      1538 1.15838E-04-3.50942E-05-3.44941E-05 5.02662E-06-7.32035E-19 5.69132E-18
 -1      1539 1.20579E-04-3.68849E-05-3.57977E-05 4.22161E-06-6.14165E-19 4.91390E-18
 -1      1540 1.19915E-04-3.69958E-05-3.53545E-05 6.48939E-06-4.83325E-19 3.91951E-18
 -1      1541 1.05679E-04-3.15356E-05-3.18723E-05 6.03242E-06 1.62422E-19 6.60389E-18
 -1      1542 1.12116E-04-3.38987E-05-3.35231E-05 5.62941E-06-1.72449E-19 6.38366E-18
 -1      1543 1.14090E-04-3.47116E-05-3.39279E-05 9.87652E-06-9.95750E-19 5.56916E-18
 -1      1544 9.65971E-05-2.82017E-05-2.96594E-05 4.17405E-06 9.61157E-19 4.96531E-18
 -1      1545 1.02067E-04-3.00700E-05-3.09953E-05 4.61572E-06 6.48033E-19 6.25693E-18
 -1      1546 1.06819E-04-3.13535E-05-3.24298E-05 9.48106E-06 9.12890E-19 5.53610E-18
 -1      1547 9.36026E-05-2.71065E-05-2.89327E-05-1.67590E-07 4.03519E-19 2.48519E-18
 -1      1548 9.51170E-05-2.73467E-05-2.92931E-05 1.00472E-06 1.18632E-18 3.83399E-18
 -1      1549 1.01682E-04-2.86849E-05-3.15213E-05 4.09093E-06 1.92168E-18 3.39785E-18
 -1      1550 9.85793E-05-2.90106E-05-3.00741E-05-4.40817E-06-2.85027E-19 1.61741E-18
 -1      1551 9.52183E-05-2.74492E-05-2.92658E-05-3.23553E-06-5.45807E-19 1.40618E-18
 -1      1552 1.01852E-04-2.86467E-05-3.16245E-05-3.74951E-06 1.80392E-19 1.91885E-18
 -1      1553 1.08518E-04-3.26338E-05-3.24843E-05-6.06732E-06 2.50776E-19 1.41243E-18
 -1      1554 1.02259E-04-3.02381E-05-3.09337E-05-5.54917E-06 2.50100E-19 1.76649E-18
 -1      1555 1.07209E-04-3.13044E-05-3.26721E-05-9.31286E-06 1.48720E-19 1.00236E-18
 -1      1556 1.18270E-04-3.59620E-05-3.50435E-05-4.90507E-06-4.40060E-20 7.52906E-19
 -1      1557 1.12231E-04-3.39340E-05-3.34656E-05-5.09418E-06 1.55675E-19 9.13949E-19
 -1      1558 1.14482E-04-3.47638E-05-3.41809E-05-9.95322E-06 6.10453E-19 2.69251E-19
 -1      1559 1.24285E-04-3.78049E-05-3.68217E-05-2.39855E-06-5.28443E-19 1.25790E-18
 -1      1560 1.20562E-04-3.67621E-05-3.57650E-05-2.93248E-06-4.67642E-19 5.72118E-19
 -1      1561 1.20165E-04-3.71444E-05-3.55363E-05-6.72259E-06-1.24249E-19 2.45507E-19
 -1      1562 1.25855E-04-3.81176E-05-3.74424E-05-6.07239E-08-3.18147E-19 2.15021E-18
 -1      1563 1.24830E-04-3.80080E-05-3.70921E-05-5.78168E-07-3.20576E-19 1.70158E-18
 -1      1564 1.22627E-04-3.78470E-05-3.62799E-05-2.32766E-06-8.05078E-19 1.01870E-18
 -1      1565 1.24044E-04-3.73895E-05-3.70703E-05 1.45335E-06 9.38850E-20 2.09859E-18
 -1      1566 1.25035E-04-3.78783E-05-3.72939E-05 1.10494E-06 4.11605E-20 1.88935E-18
 -1      1567 1.22075E-04-3.73207E-05-3.62816E-05 1.24243E-06-1.75098E-20 6.52090E-19
 -1      1568 1.20358E-04-3.61495E-05-3.60836E-05 2.14490E-06-7.80577E-20 2.36576E-18
 -1      1569 1.22438E-04-3.69054E-05-3.66453E-05 1.97053E-06 1.78171E-19 2.83783E-18
 -1      1570 1.19511E-04-3.61757E-05-3.56902E-05 3.34258E-06 3.79656E-19 1.46766E-18
 -1      1571 1.16015E-04-3.47733E-05-3.48420E-05 2.26976E-06 7.28210E-19 9.83988E-19
 -1      1572 1.18451E-04-3.55748E-05-3.55322E-05 2.21735E-06 7.54402E-19 1.91382E-18
 -1      1573 1.15975E-04-3.48542E-05-3.47542E-05 4.16333E-06 9.95097E-19 2.29795E-18
 -1      1574 1.11776E-04-3.34716E-05-3.35917E-05 2.08748E-06 2.32042E-19-1.04328E-18
 -1      1575 1.14127E-04-3.42037E-05-3.42742E-05 2.10355E-06 5.37036E-19-1.46166E-19
 -1      1576 1.12229E-04-3.35899E-05-3.36985E-05 4.15645E-06 1.09725E-18 1.76033E-18
 -1      1577 1.08019E-04-3.23388E-05-3.24651E-05 1.77866E-06-4.64564E-19 3.26372E-20
 -1      1578 1.10076E-04-3.29571E-05-3.30707E-05 1.82568E-06-6.51180E-19-4.62070E-19
 -1      1579 1.08722E-04-3.24809E-05-3.26747E-05 3.72358E-06-1.02005E-18 5.21488E-20
 -1      1580 1.04875E-04-3.14014E-05-3.15140E-05 1.44636E-06 6.68991E-19-7.29487E-19
 -1      1581 1.06575E-04-3.18997E-05-3.20184E-05 1.50251E-06 4.44955E-19-2.95323E-19
 -1      1582 1.05665E-04-3.15542E-05-3.17636E-05 3.13198E-06 4.34535E-19-1.92418E-18
 -1      1583 1.02341E-04-3.06509E-05-3.07438E-05 1.14033E-06 5.08800E-19-1.73201E-18
 -1      1584 1.03694E-04-3.10406E-05-3.11473E-05 1.19460E-06 3.66517E-19-6.83225E-19
 -1      1585 1.03120E-04-3.08034E-05-3.09955E-05 2.53042E-06 7.18727E-19-9.07738E-19
 -1      1586 1.00352E-04-3.00642E-05-3.01375E-05 8.79384E-07 1.93494E-20-2.18606E-18
 -1      1587 1.01402E-04-3.03624E-05-3.04517E-05 9.27128E-07 2.82251E-19-1.36462E-18
 -1      1588 1.01068E-04-3.02084E-05-3.03712E-05 1.98866E-06 4.62540E-19 5.55895E-19
 -1      1589 9.88203E-05-2.96138E-05-2.96702E-05 6.66437E-07-2.08579E-19-1.44818E-18
 -1      1590 9.96197E-05-2.98382E-05-2.99099E-05 7.06350E-07-4.92029E-19-1.90079E-18
 -1      1591 9.94515E-05-2.97449E-05-2.98770E-05 1.53112E-06-3.81638E-19-2.81047E-19
 -1      1592 9.76611E-05-2.92734E-05-2.93163E-05 4.97148E-07-9.56963E-19-1.10546E-18
 -1      1593 9.82599E-05-2.94398E-05-2.94961E-05 5.29557E-07-3.67142E-19-1.38645E-18
 -1      1594 9.82018E-05-2.93893E-05-2.94936E-05 1.15901E-06-7.16560E-19-2.91444E-19
 -1      1595 9.67984E-05-2.90203E-05-2.90528E-05 3.64353E-07 3.32527E-19-3.28593E-20
 -1      1596 9.72393E-05-2.91416E-05-2.91853E-05 3.90332E-07 2.68792E-19-5.78022E-19
 -1      1597 9.72519E-05-2.91202E-05-2.92015E-05 8.62976E-07-4.17476E-19-4.32394E-19
 -1      1598 9.61698E-05-2.88359E-05-2.88611E-05 2.60061E-07 2.69884E-19-1.80470E-18
 -1      1599 9.64872E-05-2.89221E-05-2.89564E-05 2.81047E-07 1.55497E-19-1.56506E-18
 -1      1600 9.65426E-05-2.89199E-05-2.89833E-05 6.29568E-07 8.20359E-19-6.33633E-19
 -1      1601 9.57281E-05-2.87060E-05-2.87268E-05 1.76332E-07 2.28269E-18-4.34668E-18
 -1      1602 9.59472E-05-2.87643E-05-2.87924E-05 1.93946E-07 1.67872E-18-2.02187E-18
 -1      1603 9.60257E-05-2.87736E-05-2.88244E-05 4.44222E-07 2.09030E-18-3.43740E-18
 -1      1604 9.54398E-05-2.86208E-05-2.86396E-05 1.05901E-07 4.57650E-19-6.57810E-18
 -1      1605 9.55774E-05-2.86557E-05-2.86806E-05 1.21867E-07 9.36348E-19-5.57140E-18
 -1      1606 9.56634E-05-2.86705E-05-2.87136E-05 2.92898E-07 2.57049E-18-3.59236E-18
 -1      1607 9.52817E-05-2.85743E-05-2.85910E-05 4.27304E-08-7.65313E-19-6.18218E-18
 -1      1608 9.53481E-05-2.85878E-05-2.86117E-05 5.91458E-08 1.36276E-19-5.93407E-18
 -1      1609 9.54269E-05-2.86022E-05-2.86417E-05 1.63906E-07 1.43591E-19-3.16977E-18
 -1      1610 9.52328E-05-2.85651E-05-2.85690E-05-7.55076E-09-3.17648E-19-4.96023E-18
 -1      1611 9.52380E-05-2.85589E-05-2.85759E-05 6.39985E-09-6.81663E-19-6.11093E-18
 -1      1612 9.52934E-05-2.85674E-05-2.85987E-05 5.16608E-08-9.88645E-19-2.78444E-18
 -1      1613 9.52271E-05-2.85765E-05-2.85590E-05-1.47191E-08-2.92817E-18-3.17376E-18
 -1      1614 9.52466E-05-2.85477E-05-2.85869E-05 2.90271E-08-4.21599E-18 3.99845E-19
 -1      1615 9.52478E-05-2.85628E-05-2.85775E-05 1.61190E-08-4.46913E-18 3.28989E-19
 -1      1616 9.52054E-05-2.84162E-05-2.86258E-05 8.99090E-08-1.26257E-18 1.82978E-18
 -1      1617 9.52286E-05-2.84875E-05-2.86045E-05 7.77406E-08-3.21259E-18 1.04728E-18
 -1      1618 9.52367E-05-2.84631E-05-2.86197E-05 1.10330E-07-1.40177E-18 2.03034E-18
 -1      1619 9.51363E-05-2.82092E-05-2.86842E-05 1.35268E-07-3.57458E-19 1.67381E-18
 -1      1620 9.51752E-05-2.83254E-05-2.86511E-05 1.27830E-07-5.87829E-19 2.00136E-18
 -1      1621 9.51820E-05-2.83086E-05-2.86628E-05 2.14799E-07-1.75610E-19 2.89109E-18
 -1      1622 9.50543E-05-2.79629E-05-2.87539E-05 1.53176E-07-1.66007E-19-6.74290E-19
 -1      1623 9.50999E-05-2.80997E-05-2.87150E-05 1.51905E-07-6.30824E-19 1.66643E-18
 -1      1624 9.51081E-05-2.81047E-05-2.87169E-05 2.79951E-07-1.54048E-18 1.83102E-18
 -1      1625 9.49761E-05-2.77260E-05-2.88215E-05 1.42439E-07-3.44628E-18-1.51593E-18
 -1      1626 9.50186E-05-2.78545E-05-2.87848E-05 1.46699E-07-8.12659E-19-2.51889E-18
 -1      1627 9.50280E-05-2.78839E-05-2.87753E-05 2.91073E-07-1.81397E-18-3.13711E-18
 -1      1628 9.49124E-05-2.75317E-05-2.88773E-05 1.06596E-07-4.45896E-18-1.17434E-18
 -1      1629 9.49457E-05-2.76326E-05-2.88484E-05 1.15428E-07-3.79101E-18-6.99968E-19
 -1      1630 9.49551E-05-2.76802E-05-2.88297E-05 2.49913E-07-2.23386E-18-1.94489E-18
 -1      1631 9.48749E-05-2.74165E-05-2.89105E-05 5.31169E-08-3.17838E-18 3.48430E-19
 -1      1632 9.48926E-05-2.74704E-05-2.88951E-05 6.46928E-08-4.03221E-18 4.29022E-19
 -1      1633 9.48998E-05-2.75246E-05-2.88715E-05 1.65842E-07-3.09405E-18 4.18305E-21
 -1      1634 9.48693E-05-2.73984E-05-2.89159E-05-8.47872E-09-2.84521E-18-2.79135E-19
 -1      1635 9.48686E-05-2.73967E-05-2.89164E-05 3.87678E-09-2.95004E-18 6.86453E-19
 -1      1636 9.48712E-05-2.74432E-05-2.88936E-05 5.50548E-08-2.81021E-18 3.21748E-19
 -1      1637 9.48958E-05-2.74792E-05-2.88927E-05-6.80723E-08-4.13346E-18-9.11494E-19
 -1      1638 9.48772E-05-2.74227E-05-2.89089E-05-5.69184E-08-3.12159E-18-6.84422E-19
 -1      1639 9.48730E-05-2.74479E-05-2.88924E-05-6.35488E-08-1.51120E-18-1.78908E-18
 -1      1640 9.49501E-05-2.76448E-05-2.88451E-05-1.16107E-07-4.77838E-18-1.15404E-18
 -1      1641 9.49167E-05-2.75434E-05-2.88741E-05-1.07956E-07-3.65035E-18-5.84094E-19
 -1      1642 9.49046E-05-2.75371E-05-2.88684E-05-1.70790E-07-2.03297E-18-4.91478E-19
 -1      1643 9.50218E-05-2.78636E-05-2.87823E-05-1.44322E-07-4.87878E-18 1.14685E-18
 -1      1644 9.49801E-05-2.77370E-05-2.88185E-05-1.40594E-07-4.85796E-18-5.80003E-19
 -1      1645 9.49607E-05-2.76950E-05-2.88260E-05-2.48996E-07-2.28083E-18-1.57793E-18
 -1      1646 9.51018E-05-2.81059E-05-2.87131E-05-1.48095E-07-3.28679E-18-1.46018E-19
 -1      1647 9.50575E-05-2.79724E-05-2.87511E-05-1.49564E-07-5.15672E-18 2.39012E-18
 -1      1648 9.50328E-05-2.78976E-05-2.87716E-05-2.85583E-07-1.98418E-18 1.56703E-18
 -1      1649 9.51746E-05-2.83262E-05-2.86506E-05-1.24552E-07-1.67091E-18 6.56276E-19
 -1      1650 9.51370E-05-2.82126E-05-2.86828E-05-1.31510E-07-2.26870E-18-5.85464E-19
 -1      1651 9.51111E-05-2.81157E-05-2.87135E-05-2.72768E-07-1.37022E-18 1.03956E-18
 -1      1652 9.52283E-05-2.84840E-05-2.86051E-05-7.80502E-08-1.55189E-18 1.05054E-19
 -1      1653 9.52029E-05-2.84130E-05-2.86260E-05-8.99182E-08-1.69750E-18 5.73261E-19
 -1      1654 9.51811E-05-2.83124E-05-2.86606E-05-2.09636E-07-3.97054E-19 3.82778E-22
 -1      1655 9.52511E-05-2.85436E-05-2.85870E-05-3.79733E-08-1.98738E-18-5.10997E-19
 -1      1656 9.52466E-05-2.85224E-05-2.85977E-05-5.56571E-08-1.67434E-18-4.83392E-19
 -1      1657 9.52422E-05-2.84408E-05-2.86297E-05-1.41788E-07-1.16267E-18-2.62277E-19
 -1      1658 9.52827E-05-2.85183E-05-2.86116E-05-8.52890E-08 1.54383E-21 4.17684E-19
 -1      1659 2.01445E-05-6.54775E-05 1.36535E-05-6.63533E-06 4.88230E-18 1.97443E-18
 -1      1660 2.30573E-05-7.42068E-05 1.56508E-05 1.03684E-06 2.97573E-18 1.17123E-18
 -1      1661 1.88837E-05-4.13027E-05 4.93124E-06-6.22407E-07 8.10780E-18 5.47300E-18
 -1      1662 2.36990E-05-6.26149E-05 1.03701E-05-3.13290E-06 5.67004E-18 3.01356E-18
 -1      1663 3.63198E-05-1.50501E-05-1.13257E-05 2.69700E-05 1.04007E-17 8.60543E-18
 -1      1664 3.02404E-05-3.62791E-05-2.27795E-06 8.97066E-06 7.83421E-18 5.90043E-18
 -1      1665 7.65842E-05-4.77510E-06-3.02633E-05 5.72960E-05 9.86455E-18 1.00628E-17
 -1      1666 5.25751E-05-1.10775E-05-2.04071E-05 3.47315E-05 1.00932E-17 9.47491E-18
 -1      1667 1.42443E-04-1.83213E-05-4.96910E-05 7.59408E-05 6.93000E-18 8.81084E-18
 -1      1668 9.99655E-05-6.75944E-06-3.97789E-05 6.19687E-05 9.96365E-18 9.66634E-18
 -1      1669 2.14765E-04-4.58863E-05-6.62021E-05 6.61129E-05 3.69719E-18 5.84792E-18
 -1      1670 1.68047E-04-2.37825E-05-5.84159E-05 7.50961E-05 5.62388E-18 8.25434E-18
 -1      1671 2.57870E-04-6.58417E-05-7.50742E-05 2.44326E-05 3.24922E-18-3.03238E-19
 -1      1672 2.33172E-04-5.22895E-05-7.15356E-05 5.35280E-05 3.54632E-18 3.97428E-18
 -1      1673 2.52731E-04-6.19621E-05-7.51376E-05-2.88615E-05 4.21335E-18-8.58468E-18
 -1      1674 2.60646E-04-6.63227E-05-7.61835E-05 7.70308E-06 3.24731E-18-2.71829E-18
 -1      1675 2.03561E-04-3.86410E-05-6.60123E-05-6.62800E-05 6.42602E-18-1.35009E-17
 -1      1676 2.41301E-04-5.81906E-05-7.18131E-05-4.46049E-05 4.81581E-18-1.02173E-17
 -1      1677 1.36572E-04-1.35260E-05-5.07513E-05-7.34779E-05 9.03276E-18-1.37490E-17
 -1      1678 1.81434E-04-3.19346E-05-5.92114E-05-7.56797E-05 6.78219E-18-1.34721E-17
 -1      1679 7.35312E-05-3.75934E-06-3.11003E-05-5.13390E-05 1.06565E-17-1.21092E-17
 -1      1680 1.10520E-04-8.20420E-06-4.16221E-05-7.22092E-05 9.81457E-18-1.40336E-17
 -1      1681 3.67026E-05-1.90051E-05-1.14872E-05-2.05165E-05 7.89181E-18-7.44457E-18
 -1      1682 5.18774E-05-4.22214E-06-2.12636E-05-4.34284E-05 1.00543E-17-1.10267E-17
 -1      1683 2.47451E-05-4.82743E-05 4.34621E-06-3.11911E-07 2.87568E-18-3.58888E-18
 -1      1684 2.35833E-05-2.45329E-05-3.14471E-06-1.12601E-05 6.35444E-18-6.68055E-18
 -1      1685 2.36480E-05-7.01849E-05 1.38475E-05 3.48949E-07-3.25684E-18-1.92149E-18
 -1      1686 1.88350E-05-5.33189E-05 9.65221E-06 4.12182E-06 1.05710E-18-2.53628E-18
 -1      1687 2.07935E-05-6.84263E-05 1.48711E-05-2.97586E-06-6.61173E-18-1.70571E-18
 -1      1688 2.09450E-05-6.94926E-05 1.52195E-05 5.44521E-06-4.19588E-18-1.65235E-18
 -1      1689 1.79706E-05-5.07119E-05 9.01679E-06-3.11153E-06-8.20267E-18-2.58964E-18
 -1      1690 2.36686E-05-6.98901E-05 1.34642E-05 8.27442E-08-8.07815E-18-1.30856E-18
 -1      1691 2.99154E-05-2.17637E-05-5.93817E-06 2.11475E-05-7.69275E-18-4.95175E-18
 -1      1692 2.84061E-05-4.49566E-05 2.27173E-06 7.93150E-06-6.92280E-18-3.87136E-18
 -1      1693 5.55975E-05-3.30130E-07-2.37967E-05 4.93904E-05-8.29838E-18-6.97108E-18
 -1      1694 3.89441E-05-1.30070E-05-1.41647E-05 2.68638E-05-8.91926E-18-5.77168E-18
 -1      1695 1.18799E-04-1.05807E-05-4.37603E-05 7.34116E-05-5.75305E-18-6.13252E-18
 -1      1696 8.06384E-05-3.70915E-06-3.34296E-05 5.52588E-05-7.42509E-18-6.31124E-18
 -1      1697 1.85304E-04-3.32810E-05-6.04254E-05 7.33717E-05-3.24456E-18-3.48300E-18
 -1      1698 1.41527E-04-1.31807E-05-5.26381E-05 7.58678E-05-5.33800E-18-5.67427E-18
 -1      1699 2.34509E-04-5.57510E-05-7.10019E-05 3.28112E-05-1.95305E-18 3.20178E-19
 -1      1700 2.02370E-04-3.86030E-05-6.60073E-05 5.82165E-05-2.69341E-18-2.54618E-18
 -1      1701 2.49839E-04-6.21222E-05-7.42287E-05-1.58762E-05-2.17095E-18 4.53883E-18
 -1      1702 2.47352E-04-6.09932E-05-7.40397E-05 1.95253E-05-2.08794E-18 1.10665E-18
 -1      1703 2.17945E-04-4.55762E-05-6.86429E-05-5.95890E-05-4.50553E-18 8.82693E-18
 -1      1704 2.45490E-04-6.10612E-05-7.26218E-05-3.25537E-05-2.68742E-18 5.65140E-18
 -1      1705 1.56641E-04-1.87483E-05-5.60561E-05-7.63410E-05-7.17437E-18 1.11876E-17
 -1      1706 1.98990E-04-3.88250E-05-6.32305E-05-7.02163E-05-5.38311E-18 9.90012E-18
 -1      1707 9.37747E-05-3.08448E-06-3.85436E-05-6.29544E-05-1.12020E-17 1.20202E-17
 -1      1708 1.33122E-04-1.36922E-05-4.79412E-05-7.67778E-05-8.76976E-18 1.18839E-17
 -1      1709 4.71170E-05-6.84354E-06-1.96299E-05-3.54152E-05-1.36313E-17 1.12029E-17
 -1      1710 6.96994E-05 2.18623E-07-2.93343E-05-5.82107E-05-1.24573E-17 1.24065E-17
 -1      1711 2.83587E-05-3.31809E-05-2.48555E-06-1.03538E-05-1.15679E-17 8.10229E-18
 -1      1712 3.31082E-05-1.22753E-05-1.09319E-05-2.71670E-05-1.34738E-17 9.62399E-18
 -1      1713 2.37143E-05-6.11061E-05 9.93646E-06 7.44218E-07-4.95175E-18 5.16256E-18
 -1      1714 1.89013E-05-3.93405E-05 4.37908E-06-2.03296E-06-1.02779E-17 7.39904E-18
 -1      1715 2.33935E-05-7.49553E-05 1.57166E-05-2.99546E-06 1.25488E-18 2.45978E-18
 -1      1716 2.03511E-05-6.53252E-05 1.35070E-05 4.78990E-06-3.29453E-18 4.61262E-18
 -1      1717 1.17113E-04-3.45923E-05-3.46968E-05 4.34542E-05 6.05544E-18 5.44388E-18
 -1      1718 7.46231E-05-3.82467E-05-1.70052E-05 3.82335E-05 3.99037E-18 4.56635E-18
 -1      1719 9.52487E-05-2.85794E-05-2.85709E-05-1.15509E-08-4.15818E-18-2.47605E-18
 -1      1720 9.52556E-05-2.85377E-05-2.85927E-05 2.62715E-08-1.38228E-18-9.85231E-19
 -1      1721 1.80104E-05-4.77274E-05 8.41205E-06 1.20683E-05 3.19924E-18 3.48829E-18
 -1      1722 3.95850E-05-4.30274E-05-1.67394E-06 2.69143E-05 3.65241E-18 5.25622E-18
 -1      1723 1.13026E-05-4.85724E-05 1.15583E-05-1.42531E-06 7.56295E-19 4.15554E-18
 -1      1724 1.62397E-04-3.40383E-05-5.19971E-05 4.10427E-05 5.65924E-18 4.62904E-18
 -1      1725 2.00393E-04-3.56164E-05-6.54350E-05 2.86693E-05 4.69172E-18 1.68771E-18
 -1      1726 2.17827E-04-3.68855E-05-7.15760E-05 6.94816E-06 5.43287E-18-2.88235E-18
 -1      1727 2.10066E-04-3.50390E-05-6.94617E-05-1.54260E-05 6.15200E-18-6.44084E-18
 -1      1728 1.84088E-04-3.44062E-05-5.98687E-05-3.49438E-05 5.59084E-18-8.14761E-18
 -1      1729 1.41413E-04-3.21689E-05-4.46790E-05-4.53659E-05 6.29642E-18-8.93112E-18
 -1      1730 9.42231E-05-3.29571E-05-2.65800E-05-4.27396E-05 5.04916E-18-8.52242E-18
 -1      1731 5.41057E-05-3.84452E-05-9.23026E-06-3.20209E-05 3.20348E-18-7.22180E-18
 -1      1732 2.71730E-05-4.51726E-05 3.81738E-06-1.95473E-05 3.15520E-19-5.23128E-18
 -1      1733 1.25945E-05-4.52306E-05 1.00794E-05-5.81417E-06-2.19318E-18-4.00689E-18
 -1      1734 1.30105E-05-4.62203E-05 1.00762E-05 8.90836E-06-2.97901E-18-1.80122E-18
 -1      1735 3.08858E-05-4.32748E-05 2.16086E-06 2.63008E-05-3.97555E-18-2.42527E-18
 -1      1736 5.98267E-05-3.70264E-05-1.16148E-05 3.74232E-05-4.30462E-18-3.65918E-18
 -1      1737 9.88892E-05-3.08897E-05-2.88813E-05 4.50572E-05-5.42990E-18-3.69264E-18
 -1      1738 1.43498E-04-3.01248E-05-4.62666E-05 4.46103E-05-4.01896E-18-2.12012E-18
 -1      1739 1.79924E-04-3.01255E-05-6.02246E-05 3.18523E-05-3.31010E-18 2.07523E-20
 -1      1740 2.00322E-04-3.03892E-05-6.81731E-05 1.00706E-05-3.22720E-18 1.41920E-18
 -1      1741 2.09467E-04-3.46397E-05-6.96115E-05-1.18091E-05-3.67570E-18 2.79097E-18
 -1      1742 1.89893E-04-3.25399E-05-6.29117E-05-3.37155E-05-4.91353E-18 4.64555E-18
 -1      1743 1.52712E-04-2.96159E-05-4.99721E-05-4.44716E-05-6.76991E-18 6.47811E-18
 -1      1744 1.09400E-04-2.90347E-05-3.35850E-05-4.66724E-05-8.62618E-18 7.28279E-18
 -1      1745 6.84574E-05-3.32085E-05-1.64232E-05-3.96353E-05-7.92653E-18 7.74950E-18
 -1      1746 3.77138E-05-4.07028E-05-1.71744E-06-2.80658E-05-5.69206E-18 7.39139E-18
 -1      1747 1.85198E-05-4.77446E-05 8.27353E-06-1.45713E-05-2.30224E-18 7.35606E-18
 -1      1748 1.05885E-04-2.31300E-05-3.55504E-05-1.68259E-05-1.11022E-18 3.21597E-18
 -1      1749 8.91454E-05-1.05760E-05-3.37982E-05-1.32714E-05-1.03734E-18-1.88150E-18
 -1      1750 9.04677E-05-1.16297E-05-3.39297E-05-1.50858E-05-1.27889E-18-1.49226E-18
 -1      1751 9.24465E-05-1.38668E-05-3.38384E-05-1.59581E-05-1.39629E-18-9.74882E-19
 -1      1752 9.41318E-05-1.58074E-05-3.40710E-05-1.76213E-05-1.61028E-18-3.30713E-19
 -1      1753 9.33839E-05-1.63327E-05-3.30374E-05-1.37267E-05-1.44922E-18-1.09307E-18
 -1      1754 8.62570E-05-7.64964E-06-3.37604E-05-7.81658E-06-3.33685E-19-2.24936E-18
 -1      1755 8.66530E-05-7.95422E-06-3.37896E-05-9.20176E-06-5.41413E-19-2.26653E-18
 -1      1756 8.56507E-05-7.00495E-06-3.37648E-05-5.28267E-06 4.97549E-20-2.21620E-18
 -1      1757 8.58811E-05-7.18622E-06-3.37767E-05-6.58125E-06-1.07598E-19-2.25875E-18
 -1      1758 8.76377E-05-9.83009E-06-3.33781E-05-6.87795E-06-2.71223E-19-2.13438E-18
 -1      1759 8.53188E-05-6.63774E-06-3.37729E-05-2.86602E-06 4.07660E-19-2.06835E-18
 -1      1760 8.54381E-05-6.73474E-06-3.37768E-05-4.09792E-06 2.42865E-19-2.16941E-18
 -1      1761 8.70065E-05-9.10431E-06-3.34186E-05-4.49703E-06 1.73159E-19-2.07925E-18
 -1      1762 8.51890E-05-6.48531E-06-3.37784E-05-5.13478E-07 7.81917E-19-1.96685E-18
 -1      1763 8.52240E-05-6.51465E-06-3.37792E-05-1.71412E-06 5.96736E-19-2.03297E-18
 -1      1764 8.66749E-05-8.71522E-06-3.34430E-05-2.19598E-06 5.47884E-19-1.98513E-18
 -1      1765 8.52349E-05-6.52409E-06-3.37796E-05 1.82959E-06 1.07085E-18-1.77001E-18
 -1      1766 8.51930E-05-6.49007E-06-3.37784E-05 6.27887E-07 9.09201E-19-1.88593E-18
 -1      1767 8.65770E-05-8.59835E-06-3.34511E-05 6.39374E-08 8.86509E-19-1.86386E-18
 -1      1768 8.54654E-05-6.76088E-06-3.37774E-05 4.21808E-06 1.29258E-18-1.65161E-18
 -1      1769 8.53383E-05-6.65741E-06-3.37732E-05 2.98291E-06 1.19957E-18-1.76495E-18
 -1      1770 8.66938E-05-8.73544E-06-3.34426E-05 2.32518E-06 1.22462E-18-1.69914E-18
 -1      1771 8.59186E-05-7.22429E-06-3.37768E-05 6.66670E-06 1.50659E-18-1.25798E-18
 -1      1772 8.56836E-05-7.03834E-06-3.37653E-05 5.38482E-06 1.39024E-18-1.47962E-18
 -1      1773 8.70428E-05-9.14277E-06-3.34177E-05 4.60924E-06 1.41291E-18-1.48915E-18
 -1      1774 8.67210E-05-8.02549E-06-3.37879E-05 9.32178E-06 1.84365E-18-6.47636E-19
 -1      1775 8.63075E-05-7.70523E-06-3.37593E-05 7.90365E-06 1.63127E-18-9.75914E-19
 -1      1776 8.76923E-05-9.88973E-06-3.33762E-05 6.97125E-06 1.69614E-18-1.03795E-18
 -1      1777 8.81102E-05-9.38186E-06-3.38295E-05 1.22005E-05 2.00319E-18 1.35631E-19
 -1      1778 8.73842E-05-8.82184E-06-3.37648E-05 1.06077E-05 1.88415E-18-3.46556E-19
 -1      1779 8.88026E-05-1.11392E-05-3.33148E-05 9.44005E-06 1.95552E-18-3.65336E-19
 -1      1780 9.06141E-05-1.18359E-05-3.39215E-05 1.52535E-05 2.09684E-18 1.38093E-18
 -1      1781 8.92565E-05-1.07375E-05-3.37913E-05 1.34624E-05 2.01933E-18 6.35116E-19
 -1      1782 9.06746E-05-1.32114E-05-3.32171E-05 1.19143E-05 2.09892E-18 4.95355E-19
 -1      1783 9.57962E-05-1.70190E-05-3.39651E-05 1.76493E-05 1.82093E-18 3.46770E-18
 -1      1784 9.28108E-05-1.43349E-05-3.38105E-05 1.61504E-05 1.94928E-18 2.23887E-18
 -1      1785 9.39378E-05-1.68754E-05-3.30155E-05 1.38426E-05 2.06630E-18 1.81204E-18
 -1      1786 1.01789E-04-2.50581E-05-3.33160E-05 1.43932E-05 1.40936E-18 5.85014E-18
 -1      1787 9.79731E-05-1.95941E-05-3.35905E-05 1.69285E-05 1.63981E-18 4.29086E-18
 -1      1788 9.72478E-05-2.18322E-05-3.24018E-05 1.32084E-05 1.86911E-18 3.40211E-18
 -1      1789 9.86254E-05-2.60991E-05-3.13031E-05 9.40898E-06 1.44837E-18 5.37922E-18
 -1      1790 1.00033E-04-1.95373E-05-3.41772E-05-1.88340E-05-1.44304E-18 1.01284E-18
 -1      1791 9.52053E-05-2.72513E-05-2.91543E-05 4.03774E-06 1.17567E-18 4.52870E-18
 -1      1792 9.76244E-05-2.73546E-05-3.01594E-05 6.37298E-06 1.23227E-18 4.98588E-18
 -1      1793 9.74818E-05-2.55862E-05-3.08046E-05 8.72436E-06 1.50820E-18 3.83141E-18
 -1      1794 9.97127E-05-2.25135E-05-3.28046E-05-1.44294E-05-1.51984E-18 5.05308E-19
 -1      1795 9.68753E-05-2.69497E-05-2.98527E-05-5.66418E-06-1.20795E-18 3.26830E-19
 -1      1796 9.50802E-05-2.70059E-05-2.91471E-05-3.85271E-06-1.13080E-18-5.79291E-20
 -1      1797 9.42759E-05-2.72079E-05-2.86460E-05-2.36519E-06-1.09502E-18-3.85400E-20
 -1      1798 9.35243E-05-2.72911E-05-2.83477E-05-1.50098E-06-9.39135E-19-3.65716E-19
 -1      1799 9.54684E-05-2.65195E-05-2.95703E-05-4.40414E-06-1.29548E-18-4.39304E-19
 -1      1800 9.30222E-05-2.73450E-05-2.80878E-05-6.55383E-07-7.60854E-19-3.49550E-19
 -1      1801 9.27507E-05-2.74132E-05-2.79755E-05-1.99976E-07-5.18867E-19-5.24745E-19
 -1      1802 9.42946E-05-2.71954E-05-2.87775E-05-1.72442E-06-9.80738E-19-4.77918E-19
 -1      1803 9.25070E-05-2.74454E-05-2.78520E-05 2.83557E-07-4.39053E-19-5.05445E-19
 -1      1804 9.25200E-05-2.75296E-05-2.78364E-05 5.32908E-07-3.71436E-19-6.14004E-19
 -1      1805 9.36461E-05-2.75052E-05-2.83635E-05-2.05110E-07-5.56937E-19-5.66511E-19
 -1      1806 9.24623E-05-2.75687E-05-2.77955E-05 8.12841E-07-2.96978E-19-5.49817E-19
 -1      1807 9.26420E-05-2.76668E-05-2.78351E-05 9.52243E-07-2.01702E-19-6.62482E-19
 -1      1808 9.34000E-05-2.76958E-05-2.81725E-05 6.74851E-07-3.82885E-19-4.53115E-19
 -1      1809 9.27111E-05-2.77164E-05-2.78469E-05 1.11813E-06-1.50198E-19-6.46179E-19
 -1      1810 9.29912E-05-2.78230E-05-2.79204E-05 1.19985E-06-1.65124E-19-5.68931E-19
 -1      1811 9.34428E-05-2.78503E-05-2.81211E-05 1.19337E-06-1.72527E-19-4.32878E-19
 -1      1812 9.31474E-05-2.78817E-05-2.79673E-05 1.30600E-06-4.08736E-19-5.08248E-19
 -1      1813 9.34923E-05-2.79937E-05-2.80632E-05 1.36171E-06-5.23760E-19-5.10649E-19
 -1      1814 9.36851E-05-2.79932E-05-2.81610E-05 1.51258E-06-1.98219E-19-2.87679E-19
 -1      1815 9.37115E-05-2.80600E-05-2.81348E-05 1.44292E-06-7.34873E-19-5.18058E-19
 -1      1816 9.41050E-05-2.81773E-05-2.82474E-05 1.49316E-06-5.51818E-19-5.49734E-19
 -1      1817 9.40684E-05-2.81333E-05-2.82635E-05 1.73322E-06-5.84473E-19-3.36226E-19
 -1      1818 9.43746E-05-2.82511E-05-2.83381E-05 1.57244E-06-4.46939E-19-6.39614E-19
 -1      1819 9.48128E-05-2.83759E-05-2.84653E-05 1.63062E-06-2.68144E-19-1.00052E-18
 -1      1820 9.45593E-05-2.82760E-05-2.84117E-05 1.92088E-06-7.30266E-19-5.10685E-19
 -1      1821 9.51285E-05-2.84591E-05-2.85723E-05 1.72260E-06-2.53289E-19-1.07392E-18
 -1      1822 9.56152E-05-2.85955E-05-2.87146E-05 1.79659E-06-1.99592E-19-1.29038E-18
 -1      1823 9.51431E-05-2.84280E-05-2.85964E-05 2.11839E-06-5.27333E-19-7.12011E-19
 -1      1824 9.59782E-05-2.86914E-05-2.88369E-05 1.90872E-06-2.65316E-19-1.42714E-18
 -1      1825 9.65212E-05-2.88450E-05-2.89955E-05 2.00094E-06 6.53638E-21-1.44098E-18
 -1      1826 9.58184E-05-2.85982E-05-2.88129E-05 2.35102E-06-2.20995E-19-6.22670E-19
 -1      1827 9.69357E-05-2.89584E-05-2.91326E-05 2.13320E-06 1.72819E-19-1.56062E-18
 -1      1828 9.75426E-05-2.91357E-05-2.93089E-05 2.23978E-06 9.41001E-21-1.28011E-18
 -1      1829 9.65925E-05-2.87993E-05-2.90587E-05 2.62758E-06-5.72264E-20-8.62666E-19
 -1      1830 9.80139E-05-2.92728E-05-2.94598E-05 2.38311E-06-1.44503E-19-1.17621E-18
 -1      1831 9.86880E-05-2.94801E-05-2.96535E-05 2.49199E-06-1.92690E-19-8.48849E-19
 -1      1832 9.74765E-05-2.90473E-05-2.93315E-05 2.93851E-06-9.82856E-21-7.46235E-19
 -1      1833 9.92194E-05-2.96483E-05-2.98157E-05 2.62575E-06-4.03383E-19-8.55338E-19
 -1      1834 9.99542E-05-2.98907E-05-3.00233E-05 2.71416E-06-4.82145E-19-1.06751E-18
 -1      1835 9.84811E-05-2.93625E-05-2.96271E-05 3.25142E-06-3.90911E-19-8.77990E-19
 -1      1836 1.00545E-04-3.00979E-05-3.01914E-05 2.80293E-06-5.24223E-19-1.14417E-18
 -1      1837 1.01317E-04-3.03770E-05-3.04045E-05 2.83472E-06-8.95568E-20-1.47709E-18
 -1      1838 9.96115E-05-2.97683E-05-2.99373E-05 3.50495E-06-5.53753E-19-9.22107E-19
 -1      1839 1.01957E-04-3.06298E-05-3.05698E-05 2.82565E-06 1.34458E-20-1.85627E-18
 -1      1840 1.02719E-04-3.09397E-05-3.07731E-05 2.75010E-06-6.89554E-20-2.24025E-18
 -1      1841 1.00860E-04-3.02885E-05-3.02487E-05 3.60241E-06-4.02958E-19-1.14932E-18
 -1      1842 1.03387E-04-3.12394E-05-3.09227E-05 2.57321E-06-6.08722E-20-2.27191E-18
 -1      1843 1.04060E-04-3.15607E-05-3.10931E-05 2.32832E-06-5.39805E-19-2.24840E-18
 -1      1844 1.02198E-04-3.09396E-05-3.05413E-05 3.40910E-06-2.18115E-19-1.58054E-18
 -1      1845 1.04712E-04-3.18956E-05-3.12111E-05 1.90451E-06-7.50489E-19-1.84938E-18
 -1      1846 1.05182E-04-3.21871E-05-3.13187E-05 1.42982E-06-4.52210E-19-1.84581E-18
 -1      1847 1.03561E-04-3.17137E-05-3.07901E-05 2.76083E-06-4.44712E-19-1.68034E-18
 -1      1848 1.05745E-04-3.25200E-05-3.13890E-05 6.93493E-07-1.15015E-19-2.11926E-18
 -1      1849 1.05873E-04-3.27097E-05-3.14016E-05-4.16545E-08 6.09103E-20-2.50907E-18
 -1      1850 1.04828E-04-3.25500E-05-3.09695E-05 1.49606E-06-6.48242E-19-1.77855E-18
 -1      1851 1.06235E-04-3.29634E-05-3.14127E-05-1.09847E-06 1.85616E-19-2.41369E-18
 -1      1852 1.05880E-04-3.29480E-05-3.13054E-05-2.04993E-06 1.04542E-19-2.58556E-18
 -1      1853 1.05807E-04-3.32966E-05-3.10608E-05-4.72973E-07 5.16061E-20-1.50748E-18
 -1      1854 1.05896E-04-3.30010E-05-3.12567E-05-3.31361E-06 2.68437E-19-2.01146E-18
 -1      1855 1.04972E-04-3.26664E-05-3.10252E-05-4.31202E-06 4.47826E-19-1.67904E-18
 -1      1856 1.06221E-04-3.36847E-05-3.10622E-05-3.04314E-06 3.91822E-19-1.53697E-18
 -1      1857 1.04507E-04-3.23825E-05-3.09315E-05-5.48749E-06 4.05907E-19-1.54651E-18
 -1      1858 1.03058E-04-3.16669E-05-3.06050E-05-6.22067E-06 5.36797E-19-1.20927E-18
 -1      1859 1.05764E-04-3.33621E-05-3.09961E-05-5.78077E-06 5.12210E-19-7.78604E-19
 -1      1860 1.02090E-04-3.09877E-05-3.04941E-05-6.84579E-06 1.78875E-19-1.46228E-18
 -1      1861 1.00366E-04-2.99784E-05-3.01376E-05-6.93590E-06-1.88761E-19-1.29769E-18
 -1      1862 1.04249E-04-3.20658E-05-3.09049E-05-7.85205E-06 4.16456E-19-7.77447E-19
 -1      1863 9.91145E-05-2.90471E-05-3.00405E-05-6.55492E-06-3.71202E-19-1.42021E-18
 -1      1864 9.75650E-05-2.80383E-05-2.97409E-05-5.75773E-06-7.34249E-19-1.91400E-18
 -1      1865 1.01870E-04-2.99098E-05-3.08309E-05-8.20781E-06-4.05610E-19-1.05362E-18
 -1      1866 9.65126E-05-2.72321E-05-2.96791E-05-4.24140E-06-9.09250E-19-1.95750E-18
 -1      1867 9.56382E-05-2.66250E-05-2.95180E-05-2.67451E-06-7.15293E-19-1.91935E-18
 -1      1868 9.93830E-05-2.75984E-05-3.07933E-05-6.13320E-06-9.45424E-19-1.03694E-18
 -1      1869 9.52871E-05-2.63496E-05-2.95007E-05-4.28301E-07-3.76341E-19-1.60007E-18
 -1      1870 9.54098E-05-2.64350E-05-2.95231E-05 1.40280E-06 2.98520E-19-1.28078E-18
 -1      1871 9.78604E-05-2.61646E-05-3.07831E-05-1.91190E-06-8.32408E-20 1.66423E-19
 -1      1872 9.59644E-05-2.68644E-05-2.95510E-05 3.54630E-06 3.67447E-19-1.51699E-18
 -1      1873 9.70414E-05-2.76031E-05-2.97512E-05 4.96848E-06 5.87609E-19-1.75424E-18
 -1      1874 9.80799E-05-2.63608E-05-3.07837E-05 3.05045E-06 1.35102E-19-6.00525E-19
 -1      1875 9.81972E-05-2.84843E-05-2.98238E-05 6.23365E-06 5.95957E-19-1.83291E-18
 -1      1876 9.98388E-05-2.95309E-05-3.01461E-05 6.81507E-06-2.48991E-19-1.98369E-18
 -1      1877 9.99344E-05-2.81055E-05-3.07998E-05 6.86214E-06 2.78915E-19-1.29715E-18
 -1      1878 1.01060E-04-3.04277E-05-3.02506E-05 6.92899E-06-6.40402E-19-1.72779E-18
 -1      1879 1.02757E-04-3.13856E-05-3.06091E-05 6.65788E-06-2.20700E-19-1.50797E-18
 -1      1880 1.02495E-04-3.04746E-05-3.08492E-05 8.34134E-06 9.61391E-21-1.05480E-18
 -1      1881 1.03619E-04-3.19742E-05-3.07212E-05 5.86190E-06-3.14805E-19-7.21838E-19
 -1      1882 1.04964E-04-3.26007E-05-3.10323E-05 5.03678E-06-6.03868E-19-4.28736E-19
 -1      1883 1.04721E-04-3.24630E-05-3.09345E-05 7.49863E-06 1.25401E-21 1.65252E-19
 -1      1884 1.05314E-04-3.27959E-05-3.11205E-05 3.81162E-06-7.76746E-19-6.75744E-19
 -1      1885 1.06112E-04-3.30481E-05-3.13273E-05 2.80790E-06-1.49422E-19 4.51641E-22
 -1      1886 1.05996E-04-3.35193E-05-3.10299E-05 5.19224E-06-4.57752E-19 7.15150E-19
 -1      1887 1.06011E-04-3.29372E-05-3.13665E-05 1.58404E-06-2.34215E-19 1.91079E-22
 -1      1888 1.06256E-04-3.28970E-05-3.14489E-05 6.82551E-07 5.62298E-19 6.61744E-23
 -1      1889 1.06240E-04-3.36442E-05-3.10904E-05 2.45391E-06-4.61699E-20 1.04762E-18
 -1      1890 1.05850E-04-3.26180E-05-3.14286E-05-2.90135E-07 3.71043E-19-7.53136E-19
 -1      1891 1.05649E-04-3.24009E-05-3.13975E-05-9.52702E-07-6.22404E-20-9.78919E-19
 -1      1892 1.05689E-04-3.31450E-05-3.10780E-05 2.68812E-08 1.23018E-20-3.92691E-19
 -1      1893 1.05077E-04-3.20663E-05-3.13219E-05-1.59457E-06 2.60525E-19-1.72759E-18
 -1      1894 1.04577E-04-3.17697E-05-3.12057E-05-1.99587E-06-1.35598E-19-1.71569E-18
 -1      1895 1.04654E-04-3.23623E-05-3.09773E-05-1.74217E-06-3.73436E-19-5.07738E-19
 -1      1896 1.03942E-04-3.14465E-05-3.10882E-05-2.33312E-06-6.35606E-19-1.86388E-18
 -1      1897 1.03280E-04-3.11351E-05-3.09198E-05-2.51382E-06-9.40763E-19-2.23444E-18
 -1      1898 1.03395E-04-3.15384E-05-3.07958E-05-2.80627E-06-4.99338E-19-1.17729E-18
 -1      1899 1.02650E-04-3.08538E-05-3.07774E-05-2.61772E-06-6.45123E-19-1.37018E-18
 -1      1900 1.01933E-04-3.05635E-05-3.05860E-05-2.63996E-06-2.55462E-19-6.43183E-19
 -1      1901 1.02090E-04-3.08011E-05-3.05553E-05-3.27828E-06-4.01450E-19-5.07987E-19
 -1      1902 1.01347E-04-3.03321E-05-3.04346E-05-2.58820E-06-5.26826E-19-1.05060E-18
 -1      1903 1.00650E-04-3.00794E-05-3.02422E-05-2.51149E-06-7.46192E-19-8.09084E-19
 -1      1904 1.00845E-04-3.01963E-05-3.02829E-05-3.32369E-06-6.01706E-19-1.32585E-19
 -1      1905 1.00127E-04-2.98951E-05-3.00940E-05-2.36984E-06-6.89941E-19-5.21498E-19
 -1      1906 9.94928E-05-2.96846E-05-2.99149E-05-2.24114E-06-1.01551E-18-7.41720E-19
 -1      1907 9.97200E-05-2.97249E-05-3.00033E-05-3.10031E-06-7.93565E-19-2.69671E-19
 -1      1908 9.90422E-05-2.95408E-05-2.97782E-05-2.05803E-06-1.14494E-18-1.27050E-19
 -1      1909 9.84925E-05-2.93709E-05-2.96203E-05-1.90997E-06-1.09727E-18 4.80643E-20
 -1      1910 9.87389E-05-2.93690E-05-2.97356E-05-2.73341E-06-8.85586E-19 1.52445E-18
 -1      1911 9.81143E-05-2.92603E-05-2.94999E-05-1.71741E-06-1.05182E-18 7.89589E-20
 -1      1912 9.76554E-05-2.91265E-05-2.93662E-05-1.57030E-06 4.49972E-19-3.95587E-19
 -1      1913 9.79081E-05-2.91054E-05-2.94924E-05-2.31125E-06-6.85913E-19 2.58764E-18
 -1      1914 9.73453E-05-2.90421E-05-2.92640E-05-1.38712E-06 1.54478E-18-1.32263E-18
 -1      1915 9.69741E-05-2.89388E-05-2.91546E-05-1.25186E-06 1.65935E-18-4.74788E-19
 -1      1916 9.72215E-05-2.89126E-05-2.92803E-05-1.88969E-06 4.46964E-19 2.23082E-18
 -1      1917 9.67252E-05-2.88749E-05-2.90707E-05-1.08726E-06 1.53760E-18-2.35285E-19
 -1      1918 9.64337E-05-2.87966E-05-2.89842E-05-9.68112E-07 2.00209E-18 1.36686E-18
 -1      1919 9.66663E-05-2.87722E-05-2.91020E-05-1.49965E-06 2.22537E-18 1.14240E-18
 -1      1920 9.62381E-05-2.87481E-05-2.89174E-05-8.24718E-07 1.39017E-18 5.35606E-19
 -1      1921 9.60165E-05-2.86898E-05-2.88513E-05-7.21536E-07 1.90073E-18 5.32868E-19
 -1      1922 9.62264E-05-2.86698E-05-2.89568E-05-1.15426E-06 1.43897E-18 1.63350E-18
 -1      1923 9.58659E-05-2.86527E-05-2.88000E-05-5.97866E-07 1.65318E-18 2.99740E-19
 -1      1924 9.57046E-05-2.86103E-05-2.87519E-05-5.07957E-07 1.51318E-18-8.46352E-20
 -1      1925 9.58848E-05-2.85937E-05-2.88423E-05-8.54913E-07 1.46809E-18-3.21731E-19
 -1      1926 9.55906E-05-2.85819E-05-2.87138E-05-4.00234E-07 1.60131E-18-6.87649E-19
 -1      1927 9.54813E-05-2.85534E-05-2.86809E-05-3.20462E-07 1.88771E-18-1.19900E-20
 -1      1928 9.56247E-05-2.85355E-05-2.87550E-05-5.96442E-07 9.88469E-19-3.33035E-19
 -1      1929 9.54053E-05-2.85370E-05-2.86547E-05-2.31233E-07 1.64889E-18 3.65506E-19
 -1      1930 9.53384E-05-2.85233E-05-2.86326E-05-1.63675E-07 1.05136E-18 8.45969E-19
 -1      1931 9.53204E-05-2.84909E-05-2.86431E-05-1.97834E-07-1.31579E-20 2.04954E-19
 -1      1932 9.54403E-05-2.84999E-05-2.86916E-05-3.77324E-07 1.66874E-18 1.01162E-18
 -1      1933 9.31355E-05-2.73334E-05-2.81726E-05 1.56331E-06 8.54914E-19 3.92209E-18
 -1      1934 9.43149E-05-2.74356E-05-2.86040E-05 2.63981E-06 9.73506E-19 4.24817E-18
 -1      1935 9.51599E-05-2.70198E-05-2.92086E-05 4.00749E-06 1.21651E-18 3.20524E-18
 -1      1936 9.21276E-05-2.73284E-05-2.77459E-05 2.82739E-07 4.65577E-19 3.51620E-18
 -1      1937 9.25993E-05-2.73557E-05-2.79108E-05 8.41258E-07 6.19724E-19 3.75821E-18
 -1      1938 9.35913E-05-2.73456E-05-2.83984E-05 1.51572E-06 8.26850E-19 2.98031E-18
 -1      1939 9.18189E-05-2.73800E-05-2.76000E-05-4.08474E-07 2.54998E-19 3.11097E-18
 -1      1940 9.18992E-05-2.73451E-05-2.76357E-05-9.91939E-08 2.89682E-19 3.26215E-18
 -1      1941 9.28132E-05-2.74689E-05-2.80153E-05 1.64492E-07 4.41996E-19 2.38595E-18
 -1      1942 9.19421E-05-2.74926E-05-2.76097E-05-7.90136E-07 3.13879E-19 2.62953E-18
 -1      1943 9.18017E-05-2.74177E-05-2.75765E-05-6.12233E-07 2.59542E-19 2.92822E-18
 -1      1944 9.25775E-05-2.75753E-05-2.78690E-05-5.87321E-07 4.53961E-19 1.89060E-18
 -1      1945 9.23323E-05-2.76481E-05-2.77127E-05-1.00743E-06 7.13436E-19 2.44371E-18
 -1      1946 9.20634E-05-2.75497E-05-2.76395E-05-9.00096E-07 4.13677E-19 2.53170E-18
 -1      1947 9.26946E-05-2.77016E-05-2.78635E-05-1.01618E-06 5.14996E-19 1.60501E-18
 -1      1948 9.28948E-05-2.78320E-05-2.78762E-05-1.14498E-06 6.60326E-19 2.40063E-18
 -1      1949 9.25462E-05-2.77192E-05-2.77774E-05-1.07218E-06 8.35596E-19 2.56360E-18
 -1      1950 9.30419E-05-2.78487E-05-2.79475E-05-1.27430E-06 8.21424E-19 1.74540E-18
 -1      1951 9.35822E-05-2.80367E-05-2.80833E-05-1.25815E-06 2.48647E-19 2.20994E-18
 -1      1952 9.31760E-05-2.79134E-05-2.79657E-05-1.19572E-06 4.45960E-19 2.41623E-18
 -1      1953 9.35472E-05-2.80123E-05-2.80926E-05-1.45461E-06 5.32981E-19 2.01861E-18
 -1      1954 9.43799E-05-2.82618E-05-2.83285E-05-1.38705E-06-4.75939E-20 2.28339E-18
 -1      1955 9.39205E-05-2.81275E-05-2.81935E-05-1.31697E-06 1.37246E-19 2.17341E-18
 -1      1956 9.41747E-05-2.81901E-05-2.82846E-05-1.62000E-06 2.31273E-19 1.98922E-18
 -1      1957 9.52978E-05-2.85122E-05-2.86137E-05-1.56334E-06 5.28807E-19 2.07507E-18
 -1      1958 9.47763E-05-2.83631E-05-2.84590E-05-1.47085E-06 3.33423E-19 2.10391E-18
 -1      1959 9.49152E-05-2.83843E-05-2.85186E-05-1.81714E-06 3.27221E-19 1.81646E-18
 -1      1960 9.63651E-05-2.87980E-05-2.89472E-05-1.81355E-06 8.61646E-19 1.83411E-18
 -1      1961 9.57622E-05-2.86274E-05-2.87674E-05-1.68580E-06 6.25924E-19 1.87591E-18
 -1      1962 9.57799E-05-2.86007E-05-2.87967E-05-2.08324E-06 8.04445E-19 1.39285E-18
 -1      1963 9.76259E-05-2.91337E-05-2.93419E-05-2.16039E-06 5.55306E-19 1.39583E-18
 -1      1964 9.69140E-05-2.89324E-05-2.91290E-05-1.98583E-06 5.59204E-19 1.80543E-18
 -1      1965 9.67950E-05-2.88493E-05-2.91259E-05-2.44925E-06 6.99121E-19 1.30577E-18
 -1      1966 9.91356E-05-2.95382E-05-2.98135E-05-2.62153E-06 2.54965E-19 1.80930E-18
 -1      1967 9.82807E-05-2.92945E-05-2.95582E-05-2.39052E-06 1.91367E-19 1.51584E-18
 -1      1968 9.79989E-05-2.91441E-05-2.95167E-05-2.94020E-06 4.13134E-19 1.08120E-18
 -1      1969 1.00956E-04-3.00350E-05-3.03790E-05-3.20511E-06 5.73335E-20 1.95865E-18
 -1      1970 9.99208E-05-2.97349E-05-3.00711E-05-2.91211E-06 4.96077E-20 1.91045E-18
 -1      1971 9.94383E-05-2.95042E-05-2.99807E-05-3.57215E-06 1.01598E-19 1.59099E-18
 -1      1972 1.03146E-04-3.06526E-05-3.10525E-05-3.89947E-06 7.56043E-19 1.39700E-18
 -1      1973 1.01896E-04-3.02803E-05-3.06833E-05-3.54811E-06 6.59405E-19 1.95435E-18
 -1      1974 1.01164E-04-2.99557E-05-3.05285E-05-4.34401E-06 5.57634E-19 1.05232E-18
 -1      1975 1.05748E-04-3.14249E-05-3.18389E-05-4.65376E-06 5.56836E-19 1.00521E-18
 -1      1976 1.04263E-04-3.09642E-05-3.14051E-05-4.26669E-06 5.41911E-19 1.42087E-18
 -1      1977 1.03223E-04-3.05358E-05-3.11650E-05-5.22122E-06 8.96651E-19 1.52025E-18
 -1      1978 1.08762E-04-3.23905E-05-3.27240E-05-5.34549E-06 7.70717E-20 1.78152E-18
 -1      1979 1.07052E-04-3.18278E-05-3.22335E-05-4.98119E-06 3.95462E-19 1.34331E-18
 -1      1980 1.05653E-04-3.12974E-05-3.18828E-05-6.10724E-06 3.53036E-19 1.47003E-18
 -1      1981 1.12110E-04-3.35865E-05-3.36603E-05-5.73458E-06-1.38102E-18 1.53754E-18
 -1      1982 1.10248E-04-3.29182E-05-3.31414E-05-5.51185E-06-8.65347E-19 1.54113E-18
 -1      1983 1.08465E-04-3.23143E-05-3.26545E-05-6.80049E-06-5.57654E-19 1.76543E-18
 -1      1984 1.15579E-04-3.50251E-05-3.45511E-05-5.41777E-06-6.61523E-19 2.01381E-18
 -1      1985 1.13735E-04-3.42758E-05-3.40632E-05-5.54097E-06-9.03457E-19 1.75428E-18
 -1      1986 1.11616E-04-3.36735E-05-3.34238E-05-6.94264E-06-1.03625E-18 1.59878E-18
 -1      1987 1.18755E-04-3.66307E-05-3.52459E-05-3.83535E-06-1.01533E-18 2.56058E-18
 -1      1988 1.17240E-04-3.58888E-05-3.48843E-05-4.59303E-06-9.01700E-19 2.14027E-18
 -1      1989 1.14970E-04-3.54297E-05-3.41045E-05-5.98984E-06-1.02642E-18 1.78810E-18
 -1      1990 1.20965E-04-3.81072E-05-3.55680E-05-4.46812E-07-1.51142E-19 2.99083E-18
 -1      1991 1.20232E-04-3.75832E-05-3.54486E-05-2.12137E-06-6.82100E-19 3.11111E-18
 -1      1992 1.18200E-04-3.74733E-05-3.45981E-05-3.29236E-06-7.23677E-19 2.54580E-18
 -1      1993 1.21279E-04-3.87637E-05-3.54020E-05 4.73985E-06-2.36957E-19 3.55238E-18
 -1      1994 1.21841E-04-3.88302E-05-3.56091E-05 2.15126E-06-2.20149E-19 3.37584E-18
 -1      1995 1.20644E-04-3.92655E-05-3.48472E-05 1.56076E-06-3.42757E-19 3.12861E-18
 -1      1996 1.18813E-04-3.75788E-05-3.48146E-05 1.03274E-05-1.27604E-18 4.29591E-18
 -1      1997 1.20970E-04-3.86534E-05-3.53209E-05 7.54095E-06-8.24295E-19 3.98866E-18
 -1      1998 1.21242E-04-3.96588E-05-3.49076E-05 7.96409E-06-8.95909E-19 4.18374E-18
 -1      1999 1.13514E-04-3.39657E-05-3.40833E-05 1.30897E-05-7.35926E-20 5.36823E-18
 -1      2000 1.16928E-04-3.60593E-05-3.47143E-05 1.17359E-05-1.10657E-18 4.50013E-18
 -1      2001 1.18967E-04-3.73125E-05-3.49560E-05 1.34542E-05-1.16831E-18 4.45482E-18
 -1      2002 1.07433E-04-2.92779E-05-3.35481E-05 9.66870E-06 1.91914E-18 4.66052E-18
 -1      2003 1.10776E-04-3.14619E-05-3.40429E-05 1.13420E-05 1.50687E-18 5.55468E-18
 -1      2004 1.14154E-04-3.23024E-05-3.51233E-05 1.38917E-05 1.22730E-18 4.72378E-18
 -1      2005 1.04559E-04-2.69602E-05-3.34102E-05 4.11424E-07 2.41171E-18 2.63534E-18
 -1      2006 1.05903E-04-2.76525E-05-3.35588E-05 4.74655E-06 2.62826E-18 3.85821E-18
 -1      2007 1.09681E-04-2.75150E-05-3.53387E-05 6.79641E-06 2.97923E-18 3.67569E-18
 -1      2008 1.07309E-04-2.91345E-05-3.36736E-05-9.09990E-06 3.04535E-19 8.83402E-19
 -1      2009 1.05732E-04-2.77636E-05-3.34194E-05-4.81661E-06 9.32530E-19 1.80033E-18
 -1      2010 1.09270E-04-2.69817E-05-3.53991E-05-4.65393E-06 1.61542E-18 1.70141E-18
 -1      2011 1.13661E-04-3.38954E-05-3.42434E-05-1.30770E-05 7.89077E-19 5.76512E-19
 -1      2012 1.10170E-04-3.15667E-05-3.36937E-05-1.13408E-05 1.23879E-19 4.03929E-19
 -1      2013 1.13275E-04-3.11536E-05-3.52447E-05-1.31067E-05 8.56244E-19 7.21904E-19
 -1      2014 1.19399E-04-3.77197E-05-3.49449E-05-1.07256E-05 5.35351E-19-4.35296E-19
 -1      2015 1.15921E-04-3.58968E-05-3.43240E-05-1.16959E-05 9.41259E-19 4.24575E-20
 -1      2016 1.18294E-04-3.64768E-05-3.50471E-05-1.41016E-05 1.12069E-18-2.80580E-20
 -1      2017 1.22021E-04-3.89922E-05-3.55005E-05-5.21334E-06-7.12136E-19-3.05577E-19
 -1      2018 1.19948E-04-3.83014E-05-3.50503E-05-7.47742E-06-2.63414E-19-4.02036E-19
 -1      2019 1.21093E-04-3.95305E-05-3.49688E-05-9.26283E-06 2.97957E-19-5.65249E-19
 -1      2020 1.21606E-04-3.83257E-05-3.56308E-05 7.78740E-08 2.94218E-19-6.61864E-19
 -1      2021 1.21192E-04-3.85077E-05-3.55023E-05-2.11263E-06-6.41720E-19-7.92799E-19
 -1      2022 1.20927E-04-3.95474E-05-3.49108E-05-2.78642E-06-3.22098E-19-1.32791E-18
 -1      2023 1.19193E-04-3.67869E-05-3.52925E-05 3.61278E-06-3.87855E-19 6.50753E-19
 -1      2024 1.20061E-04-3.74108E-05-3.54733E-05 2.12951E-06-1.19670E-19-4.63625E-19
 -1      2025 1.18749E-04-3.79148E-05-3.46820E-05 2.45726E-06-1.08751E-19-7.09496E-19
 -1      2026 1.15853E-04-3.51207E-05-3.46008E-05 5.30031E-06-1.76937E-19 2.22591E-18
 -1      2027 1.17450E-04-3.58727E-05-3.49933E-05 4.56763E-06-7.72785E-20 1.68487E-18
 -1      2028 1.15625E-04-3.58393E-05-3.42227E-05 5.55341E-06-5.39785E-19 9.56307E-19
 -1      2029 1.12311E-04-3.36479E-05-3.37251E-05 5.66610E-06 1.57080E-18 2.07548E-18
 -1      2030 1.14177E-04-3.43680E-05-3.42169E-05 5.47842E-06 7.68995E-19 1.89526E-18
 -1      2031 1.12299E-04-3.39948E-05-3.35749E-05 6.77717E-06 8.89438E-19 1.72922E-18
 -1      2032 1.08970E-04-3.24445E-05-3.28113E-05 5.28108E-06 5.95999E-19 1.37304E-18
 -1      2033 1.10810E-04-3.30709E-05-3.33156E-05 5.40904E-06 1.73065E-18 2.01038E-18
 -1      2034 1.09149E-04-3.25582E-05-3.28312E-05 6.77192E-06 1.67843E-18 1.64943E-18
 -1      2035 1.06023E-04-3.14919E-05-3.19544E-05 4.56212E-06-8.77202E-19-1.68633E-18
 -1      2036 1.07678E-04-3.20106E-05-3.24193E-05 4.83539E-06-5.62920E-19-1.62548E-19
 -1      2037 1.06341E-04-3.14924E-05-3.20795E-05 6.11344E-06 7.65887E-19 8.53068E-19
 -1      2038 1.03533E-04-3.07474E-05-3.12030E-05 3.75930E-06 6.72617E-19-1.01095E-18
 -1      2039 1.04939E-04-3.11645E-05-3.16043E-05 4.07410E-06-5.38769E-19-1.70692E-18
 -1      2040 1.03931E-04-3.07090E-05-3.13809E-05 5.19465E-06-6.97441E-19-1.30461E-18
 -1      2041 1.01492E-04-3.01697E-05-3.05728E-05 3.00113E-06-5.80745E-19 3.94552E-19
 -1      2042 1.02643E-04-3.04985E-05-3.09047E-05 3.30306E-06 1.72063E-19 5.14275E-20
 -1      2043 1.01921E-04-3.01291E-05-3.07677E-05 4.24290E-06-1.88983E-19-5.77706E-19
 -1      2044 9.98569E-05-2.97241E-05-3.00607E-05 2.34164E-06 3.58318E-19 1.66348E-18
 -1      2045 1.00774E-04-2.99793E-05-3.03271E-05 2.60698E-06 3.30268E-19 9.37537E-19
 -1      2046 1.00280E-04-2.96952E-05-3.02511E-05 3.37100E-06-3.63893E-19 2.76918E-19
 -1      2047 9.85717E-05-2.93829E-05-2.96545E-05 1.79434E-06-6.84401E-19 1.51856E-19
 -1      2048 9.92875E-05-2.95783E-05-2.98635E-05 2.01631E-06 1.24329E-19 1.40424E-18
 -1      2049 9.89667E-05-2.93684E-05-2.98288E-05 2.62302E-06 3.29526E-19 1.61016E-18
 -1      2050 9.75781E-05-2.91238E-05-2.93385E-05 1.35291E-06-7.62747E-19 6.03362E-19
 -1      2051 9.81269E-05-2.92716E-05-2.94995E-05 1.53322E-06-2.79754E-19 7.14312E-19
 -1      2052 9.79321E-05-2.91214E-05-2.94916E-05 2.00598E-06 1.09916E-20 4.40652E-19
 -1      2053 9.68221E-05-2.89290E-05-2.90973E-05 1.00244E-06 3.61795E-19-5.96017E-19
 -1      2054 9.72359E-05-2.90393E-05-2.92190E-05 1.14665E-06-5.28273E-19-9.69981E-19
 -1      2055 9.71300E-05-2.89350E-05-2.92279E-05 1.50890E-06-1.92737E-19 6.38660E-19
 -1      2056 9.62578E-05-2.87841E-05-2.89170E-05 7.25021E-07 1.18134E-18-2.15860E-18
 -1      2057 9.65634E-05-2.88652E-05-2.90069E-05 8.40271E-07 1.80667E-18-6.38436E-19
 -1      2058 9.65180E-05-2.87948E-05-2.90258E-05 1.11313E-06 1.41242E-18-4.18576E-19
 -1      2059 9.58472E-05-2.86781E-05-2.87861E-05 5.02390E-07 2.92064E-18-2.11289E-18
 -1      2060 9.60661E-05-2.87362E-05-2.88505E-05 5.96289E-07 1.61505E-18-1.82028E-18
 -1      2061 9.60596E-05-2.86895E-05-2.88744E-05 7.97542E-07 2.04700E-18-9.78399E-19
 -1      2062 9.55608E-05-2.86031E-05-2.86954E-05 3.18485E-07 1.69583E-18-2.09398E-18
 -1      2063 9.57096E-05-2.86427E-05-2.87389E-05 3.97900E-07 3.06055E-18-1.52832E-18
 -1      2064 9.57247E-05-2.86113E-05-2.87644E-05 5.41774E-07 2.71092E-18-4.33626E-19
 -1      2065 9.53760E-05-2.85550E-05-2.86363E-05 1.63117E-07-1.41350E-18-6.64741E-19
 -1      2066 9.54661E-05-2.85786E-05-2.86633E-05 2.31632E-07-3.19265E-19-1.17505E-18
 -1      2067 9.54883E-05-2.85548E-05-2.86872E-05 3.29311E-07-1.81094E-19 1.07591E-18
 -1      2068 9.52873E-05-2.85384E-05-2.86047E-05 6.65750E-08-6.62822E-19-9.13295E-19
 -1      2069 9.53336E-05-2.85427E-05-2.86229E-05 1.20784E-07-1.00911E-18-7.09101E-19
 -1      2070 9.53521E-05-2.85213E-05-2.86427E-05 1.84770E-07-1.01955E-18 8.99579E-19
 -1      2071 9.52848E-05-2.85159E-05-2.86150E-05 9.44629E-08-1.10994E-18 3.56321E-19
 -1      2072 9.50854E-05-2.80109E-05-2.87475E-05 4.07460E-07-1.97418E-18 2.30899E-19
 -1      2073 9.51368E-05-2.81191E-05-2.87200E-05 3.86643E-07-1.39684E-18 1.63346E-18
 -1      2074 9.51886E-05-2.82278E-05-2.86977E-05 3.44700E-07-5.20471E-19 1.77118E-18
 -1      2075 9.52306E-05-2.83202E-05-2.86738E-05 2.93568E-07-9.30990E-19 3.07755E-18
 -1      2076 9.51752E-05-2.81405E-05-2.87294E-05 4.79344E-07-1.89356E-18 7.83871E-19
 -1      2077 9.52551E-05-2.83954E-05-2.86537E-05 2.27666E-07-9.22584E-19 2.43072E-18
 -1      2078 9.52778E-05-2.84611E-05-2.86341E-05 1.65129E-07-1.12951E-18 1.07662E-18
 -1      2079 9.53088E-05-2.84603E-05-2.86484E-05 2.10682E-07-6.46564E-19 9.20739E-19
 -1      2080 9.52627E-05-2.83263E-05-2.86882E-05 3.56031E-07-1.29018E-18 2.60027E-18
 -1      2081 9.49832E-05-2.77970E-05-2.87962E-05 3.99655E-07-2.24562E-18-4.04779E-18
 -1      2082 9.50334E-05-2.79035E-05-2.87692E-05 4.10416E-07-2.03472E-18-1.86864E-18
 -1      2083 9.50513E-05-2.79181E-05-2.87706E-05 5.27030E-07-2.07500E-18-1.66957E-18
 -1      2084 9.48943E-05-2.76098E-05-2.88390E-05 3.24434E-07-1.66794E-18-1.50927E-18
 -1      2085 9.49367E-05-2.77010E-05-2.88158E-05 3.63816E-07-1.77810E-18-1.83460E-18
 -1      2086 9.49321E-05-2.77077E-05-2.88087E-05 4.88158E-07-1.60208E-18-2.52812E-18
 -1      2087 9.48334E-05-2.74800E-05-2.88688E-05 1.96681E-07-2.03879E-18-7.08239E-19
 -1      2088 9.48607E-05-2.75399E-05-2.88535E-05 2.56707E-07-1.35031E-18-1.03918E-18
 -1      2089 9.48350E-05-2.75360E-05-2.88398E-05 3.69798E-07-4.59779E-19-1.84011E-18
 -1      2090 9.48082E-05-2.74257E-05-2.88812E-05 3.88981E-08-2.94084E-18 7.61093E-20
 -1      2091 9.48167E-05-2.74450E-05-2.88762E-05 1.09115E-07-3.19706E-18 8.74026E-19
 -1      2092 9.47739E-05-2.74274E-05-2.88597E-05 1.93611E-07-1.64454E-18-1.10707E-18
 -1      2093 9.48213E-05-2.74534E-05-2.88744E-05-1.23330E-07-1.33999E-18-1.46542E-18
 -1      2094 9.48102E-05-2.74297E-05-2.88805E-05-5.43105E-08-2.11529E-18-3.02056E-19
 -1      2095 9.47560E-05-2.73954E-05-2.88656E-05-1.10219E-08-2.40794E-18 9.45967E-19
 -1      2096 9.48702E-05-2.75582E-05-2.88495E-05-2.64678E-07-1.34498E-18 7.61283E-20
 -1      2097 9.48414E-05-2.74954E-05-2.88657E-05-2.07764E-07-1.11805E-18-1.00668E-18
 -1      2098 9.47825E-05-2.74431E-05-2.88568E-05-2.11972E-07-8.55903E-19-1.25645E-18
 -1      2099 9.49462E-05-2.77210E-05-2.88112E-05-3.61958E-07-1.42090E-18-8.39243E-19
 -1      2100 9.49047E-05-2.76308E-05-2.88344E-05-3.26547E-07-1.33530E-18-3.87853E-20
 -1      2101 9.48487E-05-2.75619E-05-2.88349E-05-3.77565E-07-5.49578E-19-9.09885E-20
 -1      2102 9.50415E-05-2.79238E-05-2.87639E-05-4.02514E-07-5.56709E-20 2.33994E-18
 -1      2103 9.49920E-05-2.78170E-05-2.87912E-05-3.93772E-07-2.53460E-19 1.19643E-18
 -1      2104 9.49452E-05-2.77361E-05-2.88025E-05-4.84251E-07 5.52791E-19 1.17716E-18
 -1      2105 9.51413E-05-2.81358E-05-2.87149E-05-3.76309E-07 1.42271E-19 5.09430E-19
 -1      2106 9.50919E-05-2.80299E-05-2.87419E-05-3.97334E-07-2.60384E-19 1.42197E-18
 -1      2107 9.50610E-05-2.79450E-05-2.87636E-05-5.15556E-07 1.19917E-18 1.14344E-18
 -1      2108 9.52304E-05-2.83337E-05-2.86696E-05-2.86116E-07-6.30951E-19-5.58583E-19
 -1      2109 9.51899E-05-2.82399E-05-2.86930E-05-3.34758E-07-2.07667E-19-2.54163E-19
 -1      2110 9.51788E-05-2.81605E-05-2.87224E-05-4.64827E-07-1.93105E-19-3.54819E-19
 -1      2111 5.69277E-05-4.00905E-05-7.66346E-06 3.89355E-05 1.07954E-18 3.30184E-18
 -1      2112 4.10917E-05-4.11737E-05-1.36320E-06 3.04153E-05 9.57994E-19 3.87401E-18
 -1      2113 1.23592E-05-2.99298E-05 6.67598E-06 3.33579E-06 1.45573E-18 3.33562E-18
 -1      2114 1.29842E-05-3.10965E-05 6.75452E-06-7.67103E-06-1.16573E-19 5.52816E-18
 -1      2115 2.76962E-05-3.54822E-05 2.40859E-06 2.52320E-05 1.91599E-18 3.04614E-18
 -1      2116 1.88643E-05-3.39510E-05 5.36458E-06 1.68252E-05 1.37558E-18 2.46868E-18
 -1      2117 4.25909E-05-3.49218E-05-3.66031E-06 3.46774E-05-3.45166E-20 2.53432E-18
 -1      2118 9.74983E-05-4.50334E-05-2.25334E-05 4.12040E-05 2.78886E-18 3.26277E-18
 -1      2119 7.75447E-05-4.64365E-05-1.44455E-05 3.69882E-05 1.86855E-18 2.81141E-18
 -1      2120 1.36285E-04-4.53668E-05-3.84534E-05 3.38098E-05 4.15893E-18 2.56439E-18
 -1      2121 1.15349E-04-4.68544E-05-3.00614E-05 3.33117E-05 3.42032E-18 3.15435E-18
 -1      2122 8.73023E-05-8.71444E-06-3.37689E-05-1.04689E-05-7.21725E-19-2.23876E-18
 -1      2123 8.79844E-05-9.24601E-06-3.38319E-05-1.20554E-05-9.36319E-19-2.11213E-18
 -1      2124 9.04796E-05-1.30644E-05-3.32444E-05-1.18597E-05-1.07004E-18-1.84449E-18
 -1      2125 8.87026E-05-1.10096E-05-3.33201E-05-9.34757E-06-6.96190E-19-2.11957E-18
 -1      2126 1.82615E-04-3.10875E-05-6.35676E-05 7.87228E-06 4.70273E-18-7.09814E-19
 -1      2127 1.71049E-04-3.21474E-05-5.88946E-05 1.34615E-05 4.61569E-18 7.53859E-19
 -1      2128 1.86931E-04-2.58306E-05-6.78044E-05-1.38492E-06 6.43830E-18-3.10862E-18
 -1      2129 1.86213E-04-2.69441E-05-6.68546E-05 6.20941E-06 5.53197E-18-1.76839E-18
 -1      2130 1.76050E-04-2.70855E-05-6.31217E-05-6.82428E-06 5.36807E-18-4.02934E-18
 -1      2131 1.82657E-04-2.59916E-05-6.59866E-05-1.62076E-06 6.08339E-18-3.30618E-18
 -1      2132 1.61936E-04-3.64534E-05-5.34089E-05-1.86431E-05 4.14281E-18-5.57094E-18
 -1      2133 1.75601E-04-3.49620E-05-5.93474E-05-1.26586E-05 4.27752E-18-4.81792E-18
 -1      2134 1.32967E-04-4.24336E-05-3.91466E-05-3.03730E-05 3.56791E-18-5.68190E-18
 -1      2135 1.54150E-04-4.18044E-05-4.73164E-05-2.91234E-05 3.85781E-18-5.84707E-18
 -1      2136 9.71812E-05-4.65696E-05-2.26625E-05-3.60044E-05 1.51068E-18-5.99784E-18
 -1      2137 1.18833E-04-4.51603E-05-3.12986E-05-3.88792E-05 2.76937E-18-5.84961E-18
 -1      2138 5.72728E-05-4.36084E-05-7.36133E-06-3.40962E-05 8.03411E-19-5.76935E-18
 -1      2139 7.51201E-05-4.14207E-05-1.48910E-05-4.08737E-05 1.72625E-18-6.45439E-18
 -1      2140 2.98884E-05-3.79740E-05 2.24288E-06-2.54729E-05-7.27601E-19-4.68515E-18
 -1      2141 4.20645E-05-3.84505E-05-2.39773E-06-3.31539E-05 7.15319E-19-5.97095E-18
 -1      2142 1.21354E-05-2.99932E-05 6.62569E-06-5.22801E-06-7.06955E-19-3.52874E-18
 -1      2143 1.71685E-05-3.30535E-05 5.57492E-06-1.57489E-05-4.17587E-19-4.53713E-18
 -1      2144 1.98773E-05-3.27935E-05 4.52644E-06 2.11481E-05-1.78173E-18-1.19770E-18
 -1      2145 1.40255E-05-2.86116E-05 5.61824E-06 1.19700E-05-7.24213E-19-1.69745E-18
 -1      2146 4.60746E-05-3.59050E-05-4.55055E-06 3.93226E-05-1.21380E-18-2.06454E-18
 -1      2147 3.16923E-05-3.73382E-05 1.25492E-06 2.87955E-05-1.65298E-18-1.13079E-18
 -1      2148 3.28781E-05-2.80460E-05-2.20993E-06 3.14837E-05 3.36484E-19-1.11724E-18
 -1      2149 8.09798E-05-4.04558E-05-1.75623E-05 4.34964E-05-2.79394E-18-2.32002E-18
 -1      2150 6.44642E-05-4.26749E-05-1.01804E-05 3.95362E-05-1.83171E-18-1.74608E-18
 -1      2151 1.19489E-04-4.25147E-05-3.27131E-05 3.96770E-05-3.12767E-18-5.38713E-19
 -1      2152 9.78249E-05-4.31257E-05-2.42106E-05 3.83254E-05-2.96673E-18-1.89651E-18
 -1      2153 1.53435E-04-3.72740E-05-4.88671E-05 2.89887E-05-3.03375E-18-8.13152E-20
 -1      2154 1.34371E-04-3.91111E-05-4.10014E-05 2.90820E-05-3.32376E-18-4.71797E-19
 -1      2155 1.67854E-04-2.88875E-05-5.90831E-05 1.06385E-05-3.30682E-18 1.64324E-18
 -1      2156 1.59676E-04-3.16742E-05-5.42093E-05 2.02616E-05-3.18993E-18 2.71898E-19
 -1      2157 1.52250E-04-3.67707E-05-4.86737E-05 8.16364E-06-2.95614E-18 1.08590E-18
 -1      2158 1.76484E-04-2.19523E-05-6.50199E-05 1.14632E-06-2.91888E-18 1.56436E-18
 -1      2159 1.66908E-04-2.05820E-05-6.23908E-05 5.26431E-06-2.67874E-18 1.49205E-18
 -1      2160 1.80697E-04-2.55057E-05-6.51789E-05-9.75631E-06-3.80402E-18 2.80304E-18
 -1      2161 1.82497E-04-2.46549E-05-6.65835E-05-1.01256E-06-3.59904E-18 1.98682E-18
 -1      2162 1.64815E-04-2.97529E-05-5.72404E-05-2.04109E-05-5.02555E-18 2.93412E-18
 -1      2163 1.77804E-04-2.96762E-05-6.20587E-05-1.45661E-05-4.11743E-18 2.22600E-18
 -1      2164 1.40762E-04-3.70033E-05-4.44733E-05-2.81211E-05-5.21042E-18 2.61013E-18
 -1      2165 1.58780E-04-3.56530E-05-5.16419E-05-2.66292E-05-5.01756E-18 2.46995E-18
 -1      2166 1.07305E-04-4.14030E-05-2.88355E-05-3.75776E-05-5.62006E-18 3.94548E-18
 -1      2167 1.27963E-04-4.04556E-05-3.70320E-05-3.83298E-05-5.40958E-18 2.71051E-18
 -1      2168 7.22568E-05-4.24418E-05-1.38579E-05-3.89037E-05-5.25203E-18 5.08029E-18
 -1      2169 9.02184E-05-3.97180E-05-2.16693E-05-4.38563E-05-5.98302E-18 5.82081E-18
 -1      2170 3.97528E-05-4.02370E-05-1.29037E-06-3.20766E-05-2.12351E-18 7.15880E-18
 -1      2171 5.38482E-05-3.79701E-05-7.33130E-06-4.00204E-05-3.69984E-18 6.05351E-18
 -1      2172 1.77095E-05-3.60777E-05 6.39338E-06-1.79744E-05-4.05729E-19 7.22138E-18
 -1      2173 2.53815E-05-3.55341E-05 3.19462E-06-2.59726E-05-1.83129E-18 6.82222E-18
 -1      2174 1.67315E-04-3.91668E-05-5.37769E-05 2.16861E-05 4.40891E-18 1.90794E-18
 -1      2175 1.47787E-04-4.05239E-05-4.60791E-05 2.37430E-05 4.83126E-18 2.66646E-18
 -1      2176 1.48059E-04-5.11310E-05-4.10143E-05 1.54677E-05 3.06266E-18 5.09490E-19
 -1      2177 9.70959E-05-2.42864E-05-3.12775E-05-9.96398E-06-1.40613E-18 1.42659E-19
 -1      2178 1.61183E-04-3.54371E-05-5.29470E-05 1.27115E-06 4.62607E-18 1.59242E-19
 -1      2179 9.62898E-05-2.30769E-05-3.14403E-05-1.03309E-05-1.51533E-18-4.10454E-19
 -1      2180 1.96647E-05-2.39369E-05 1.46524E-06 1.27213E-05 7.21249E-19 3.22677E-18
 -1      2181 7.89195E-05-4.86918E-05-1.31905E-05 4.05958E-05-4.90432E-19 2.60171E-18
 -1      2182 9.52610E-05-2.83824E-05-2.86613E-05-2.66869E-07-7.54813E-19-5.20005E-19
 -1      2183 1.80882E-05-2.47189E-05 2.24367E-06-1.54935E-05 3.99164E-19 6.89781E-18
 -1      2184 1.19090E-04-5.62097E-05-2.68538E-05 3.24962E-05 1.16128E-18 2.21097E-18
 -1      2185 3.93118E-05-3.48886E-05-2.46745E-06-3.61332E-05 1.10114E-20 7.33996E-18
 -1      2186 7.43220E-05-4.56474E-05-1.25746E-05-4.29966E-05-2.30097E-18 5.22198E-18
 -1      2187 1.11381E-04-5.11336E-05-2.56835E-05-3.70463E-05-2.98029E-18 1.82387E-18
 -1      2188 1.40338E-04-4.70273E-05-3.94695E-05-2.17896E-05-3.38898E-18-2.79097E-19
 -1      2189 1.55840E-04-3.33594E-05-5.15970E-05-7.52876E-06-4.09477E-18 4.37916E-19
 -1      2190 1.62580E-04-2.00263E-05-5.98220E-05-1.85231E-06-4.07042E-18 1.57845E-18
 -1      2191 1.54936E-04-2.02757E-05-5.70686E-05-6.43720E-07-3.27336E-18 1.56574E-18
 -1      2192 1.34723E-04-4.98304E-05-3.59862E-05 2.51697E-05-2.07438E-18 8.83032E-19
 -1      2193 6.53802E-05-4.26816E-05-9.96614E-06 4.25102E-05 2.10911E-19-1.21539E-18
 -1      2194 1.62729E-05-2.44359E-05 3.23654E-06 4.03261E-06-1.98417E-19-2.74269E-18
 -1      2195 1.82323E-05-1.69190E-05-3.82183E-07-4.40215E-06 7.20613E-19-3.61132E-18
 -1      2196 2.08983E-05-1.73556E-05-1.38931E-06 1.34312E-05 1.00373E-18-1.83298E-18
 -1      2197 2.92635E-05-2.98345E-05-1.92952E-07-2.57721E-05-6.54333E-19-5.04154E-18
 -1      2198 6.04372E-05-4.31282E-05-7.95818E-06-3.94023E-05-6.36969E-19-5.60789E-18
 -1      2199 1.00318E-04-5.35782E-05-2.01410E-05-3.84706E-05-2.66392E-19-5.24419E-18
 -1      2200 1.36121E-04-5.45978E-05-3.45745E-05-2.41369E-05 6.96261E-19-3.42625E-18
 -1      2201 1.56940E-04-4.34249E-05-4.77865E-05-8.19695E-06 2.55799E-18-2.78208E-18
 -1      2202 1.61580E-04-2.64099E-05-5.69744E-05 3.18881E-06 4.47826E-18-1.86072E-18
 -1      2203 1.65049E-04-2.06098E-05-6.06430E-05-3.03932E-06 5.74246E-18-1.19898E-18
 -1      2204 1.63595E-04-1.62010E-05-6.21201E-05 1.86397E-06 6.65641E-18-2.24136E-18
 -1      2205 1.03285E-04-5.18531E-05-2.20239E-05 3.96536E-05-5.34478E-19-8.48303E-19
 -1      2206 1.57307E-04-1.23373E-05-6.12592E-05-1.14022E-06-3.42540E-18 1.41685E-18
 -1      2207 9.51778E-05-2.63494E-05-2.94839E-05 4.12773E-06 1.20057E-18 2.29527E-18
 -1      2208 9.61376E-05-2.58352E-05-3.00559E-05 5.94297E-06 1.38532E-18 2.50627E-18
 -1      2209 8.81698E-05-1.11074E-05-3.30664E-05-3.61484E-06 3.10654E-19-1.88669E-18
 -1      2210 8.84044E-05-1.13843E-05-3.30456E-05-4.74671E-06 8.24182E-20-1.99262E-18
 -1      2211 8.87585E-05-1.18806E-05-3.29932E-05-5.75391E-06-1.19718E-19-1.97032E-18
 -1      2212 8.91629E-05-1.23594E-05-3.29606E-05-6.92293E-06-3.48502E-19-1.94859E-18
 -1      2213 8.99128E-05-1.37358E-05-3.26458E-05-4.82966E-06 1.44343E-20-1.79797E-18
 -1      2214 8.78216E-05-1.06348E-05-3.31142E-05 6.07415E-07 9.75353E-19-1.67980E-18
 -1      2215 8.78167E-05-1.06297E-05-3.31143E-05-4.90519E-07 7.85697E-19-1.78850E-18
 -1      2216 8.80052E-05-1.08666E-05-3.30937E-05 2.72225E-06 1.25631E-18-1.58964E-18
 -1      2217 8.78891E-05-1.07298E-05-3.31044E-05 1.61489E-06 1.12257E-18-1.66803E-18
 -1      2218 8.91238E-05-1.26546E-05-3.27750E-05 1.03105E-06 1.00171E-18-1.58997E-18
 -1      2219 8.84426E-05-1.14278E-05-3.30437E-05 4.82937E-06 1.50211E-18-1.39277E-18
 -1      2220 8.82021E-05-1.11448E-05-3.30646E-05 3.71566E-06 1.36823E-18-1.54537E-18
 -1      2221 8.93942E-05-1.30216E-05-3.27323E-05 2.97152E-06 1.25193E-18-1.40598E-18
 -1      2222 8.92224E-05-1.24295E-05-3.29568E-05 7.00252E-06 1.78908E-18-7.78132E-19
 -1      2223 8.88058E-05-1.19355E-05-3.29904E-05 5.83649E-06 1.64792E-18-1.11114E-18
 -1      2224 8.99574E-05-1.37893E-05-3.26422E-05 4.90155E-06 1.49546E-18-1.07748E-18
 -1      2225 9.04828E-05-1.40568E-05-3.28179E-05 9.14741E-06 1.99153E-18-1.43863E-19
 -1      2226 8.98095E-05-1.32396E-05-3.28697E-05 7.96980E-06 1.84423E-18-5.10059E-19
 -1      2227 9.08954E-05-1.50732E-05-3.24881E-05 6.78439E-06 1.76686E-18-5.70923E-19
 -1      2228 9.24550E-05-1.66407E-05-3.25921E-05 1.10373E-05 2.09231E-18 6.55120E-19
 -1      2229 9.13922E-05-1.52978E-05-3.26725E-05 9.95482E-06 1.99942E-18 1.99456E-19
 -1      2230 9.23100E-05-1.70487E-05-3.22339E-05 8.42990E-06 1.87244E-18 5.56494E-20
 -1      2231 9.42343E-05-2.70885E-05-2.87589E-05 1.66278E-06 8.58878E-19 1.83956E-18
 -1      2232 9.48130E-05-2.68647E-05-2.90491E-05 2.65309E-06 1.02023E-18 2.08872E-18
 -1      2233 9.53301E-05-2.58170E-05-2.97999E-05 4.26430E-06 1.28799E-18 1.36200E-18
 -1      2234 9.58830E-05-2.50597E-05-3.03047E-05-6.10778E-06-1.25867E-18-6.92281E-19
 -1      2235 9.52395E-05-2.58166E-05-2.97677E-05-4.18537E-06-1.15733E-18-7.47546E-19
 -1      2236 1.52695E-04-3.22773E-05-5.20921E-05-7.87123E-06 4.40182E-18-4.19705E-19
 -1      2237 1.51516E-04-4.09946E-05-4.76512E-05-4.45592E-06 4.20266E-18-2.54957E-19
 -1      2238 9.51384E-05-2.65002E-05-2.93590E-05-2.82056E-06-9.76626E-19-6.00106E-19
 -1      2239 9.46924E-05-2.68703E-05-2.90650E-05-1.73708E-06-7.50723E-19-5.11083E-19
 -1      2240 9.53439E-05-2.53152E-05-3.00168E-05-4.16693E-06-1.02973E-18-7.55221E-19
 -1      2241 9.45121E-05-2.71922E-05-2.88129E-05-8.52693E-07-6.34198E-19-3.75131E-19
 -1      2242 9.42858E-05-2.74034E-05-2.86596E-05-2.14948E-07-4.58445E-19-4.46826E-19
 -1      2243 9.50693E-05-2.66421E-05-2.93401E-05-1.73432E-06-6.99496E-19-5.41309E-19
 -1      2244 9.41622E-05-2.75782E-05-2.85133E-05 3.42059E-07-3.15341E-19-6.08914E-19
 -1      2245 9.41093E-05-2.77209E-05-2.84473E-05 7.22186E-07-2.53243E-19-5.44508E-19
 -1      2246 9.48028E-05-2.73469E-05-2.89235E-05-1.65738E-07-4.95824E-19-6.17606E-19
 -1      2247 9.40590E-05-2.78241E-05-2.83736E-05 1.07174E-06-2.81638E-19-6.43745E-19
 -1      2248 9.41284E-05-2.79323E-05-2.83645E-05 1.30409E-06-1.22150E-19-7.10239E-19
 -1      2249 9.46592E-05-2.77533E-05-2.86855E-05 8.28520E-07-3.33071E-19-8.17919E-19
 -1      2250 9.41437E-05-2.79981E-05-2.83413E-05 1.53050E-06-1.75923E-19-7.51493E-19
 -1      2251 9.42983E-05-2.80869E-05-2.83707E-05 1.68256E-06-3.35389E-19-7.30348E-19
 -1      2252 9.46451E-05-2.79974E-05-2.85723E-05 1.46584E-06-2.94425E-19-8.86453E-19
 -1      2253 9.43668E-05-2.81314E-05-2.83835E-05 1.84318E-06-4.68995E-19-8.60131E-19
 -1      2254 9.45836E-05-2.82089E-05-2.84401E-05 1.95872E-06-5.27811E-19-8.29953E-19
 -1      2255 9.47423E-05-2.81482E-05-2.85472E-05 1.89663E-06-4.86556E-19-1.26043E-18
 -1      2256 9.46953E-05-2.82416E-05-2.84793E-05 2.09323E-06-7.11774E-19-7.96350E-19
 -1      2257 9.49622E-05-2.83143E-05-2.85566E-05 2.20129E-06-7.51498E-19-8.44248E-19
 -1      2258 9.49303E-05-2.82426E-05-2.85859E-05 2.22481E-06-6.01466E-19-1.09984E-18
 -1      2259 9.51120E-05-2.83424E-05-2.86159E-05 2.33670E-06-5.41166E-19-6.74941E-19
 -1      2260 9.54249E-05-2.84171E-05-2.87102E-05 2.45587E-06-3.47561E-19-5.94714E-19
 -1      2261 9.51958E-05-2.83051E-05-2.86720E-05 2.52206E-06-5.97430E-19-7.95461E-19
 -1      2262 9.56120E-05-2.84479E-05-2.87854E-05 2.60904E-06-1.36110E-19-7.63551E-19
 -1      2263 9.59723E-05-2.85328E-05-2.88948E-05 2.74901E-06-9.53036E-20-6.35537E-19
 -1      2264 9.55339E-05-2.83565E-05-2.87944E-05 2.83575E-06-2.38529E-19-5.50612E-19
 -1      2265 9.62002E-05-2.85756E-05-2.89828E-05 2.92733E-06-1.50619E-19-5.57378E-19
 -1      2266 9.66127E-05-2.86807E-05-2.91057E-05 3.08874E-06 7.07037E-20-3.71781E-19
 -1      2267 9.59487E-05-2.84193E-05-2.89452E-05 3.19239E-06-7.28512E-20-3.88489E-19
 -1      2268 9.68889E-05-2.87477E-05-2.92038E-05 3.28933E-06 4.42827E-20-5.52419E-19
 -1      2269 9.73593E-05-2.88858E-05-2.93385E-05 3.46222E-06-6.78179E-20-7.86856E-19
 -1      2270 9.64521E-05-2.85208E-05-2.91176E-05 3.59776E-06 4.88492E-20-2.93356E-19
 -1      2271 9.76958E-05-2.89934E-05-2.94433E-05 3.66981E-06-2.15267E-19-6.05191E-19
 -1      2272 9.82284E-05-2.91803E-05-2.95866E-05 3.83090E-06-2.96942E-19-4.53406E-19
 -1      2273 9.70648E-05-2.86973E-05-2.93051E-05 4.03406E-06-1.84686E-19-7.30815E-19
 -1      2274 9.86414E-05-2.93501E-05-2.96941E-05 4.01453E-06-5.05505E-19-3.63833E-19
 -1      2275 9.92365E-05-2.96039E-05-2.98409E-05 4.12400E-06-6.29498E-19-4.12958E-19
 -1      2276 9.78157E-05-2.89960E-05-2.94998E-05 4.45463E-06-3.16499E-19-4.11384E-19
 -1      2277 9.97466E-05-2.98623E-05-2.99459E-05 4.23315E-06-8.29489E-19-4.66408E-19
 -1      2278 1.00396E-04-3.02008E-05-3.00882E-05 4.23194E-06-5.45948E-19-6.49442E-19
 -1      2279 9.87428E-05-2.94762E-05-2.96927E-05 4.77686E-06-9.27792E-19-2.98929E-19
 -1      2280 1.01026E-04-3.05750E-05-3.01858E-05 4.19330E-06-2.78796E-19-1.50947E-18
 -1      2281 1.01709E-04-3.10085E-05-3.03134E-05 4.00367E-06-2.69969E-19-1.51372E-18
 -1      2282 9.98903E-05-3.02035E-05-2.98745E-05 4.87500E-06-8.16390E-19-7.10280E-19
 -1      2283 1.02475E-04-3.15162E-05-3.03999E-05 3.72180E-06-3.87381E-19-1.49732E-18
 -1      2284 1.03147E-04-3.20331E-05-3.05018E-05 3.25575E-06-7.06251E-19-1.67525E-18
 -1      2285 1.01299E-04-3.12331E-05-3.00387E-05 4.57712E-06-2.72668E-19-1.53869E-18
 -1      2286 1.04042E-04-3.26608E-05-3.05786E-05 2.62369E-06-5.53948E-19-1.31306E-18
 -1      2287 1.04626E-04-3.32034E-05-3.06462E-05 1.80646E-06-4.96391E-19-9.85412E-19
 -1      2288 1.02980E-04-3.25703E-05-3.01871E-05 3.67455E-06-4.56702E-19-8.93473E-19
 -1      2289 1.05588E-04-3.38712E-05-3.07231E-05 7.37738E-07-8.32425E-20-1.18514E-18
 -1      2290 1.05965E-04-3.43073E-05-3.07552E-05-4.45592E-07 3.30144E-19-1.37742E-18
 -1      2291 1.04868E-04-3.41009E-05-3.03376E-05 1.96072E-06-3.05776E-19-8.31663E-19
 -1      2292 1.06836E-04-3.48324E-05-3.08536E-05-1.95090E-06 4.36536E-19-1.19639E-18
 -1      2293 1.06850E-04-3.49420E-05-3.08600E-05-3.38671E-06 7.15084E-19-8.90655E-19
 -1      2294 1.06742E-04-3.55028E-05-3.05310E-05-6.73730E-07 3.59322E-19-9.27752E-19
 -1      2295 1.07358E-04-3.50318E-05-3.10092E-05-5.14001E-06 5.40615E-19-6.81522E-19
 -1      2296 1.06864E-04-3.45522E-05-3.10114E-05-6.51413E-06 2.25410E-19-4.96386E-19
 -1      2297 1.08165E-04-3.61919E-05-3.08291E-05-4.07233E-06 7.50942E-19-2.14351E-20
 -1      2298 1.06690E-04-3.38969E-05-3.12347E-05-8.02649E-06 2.86974E-19-4.64976E-19
 -1      2299 1.05665E-04-3.26924E-05-3.12550E-05-8.81545E-06 1.85906E-19-7.82240E-19
 -1      2300 1.08518E-04-3.54132E-05-3.12941E-05-7.58057E-06 1.05523E-20-2.95218E-19
 -1      2301 1.04695E-04-3.12352E-05-3.15400E-05-9.34004E-06-5.74145E-19-9.62711E-19
 -1      2302 1.03374E-04-2.95382E-05-3.15850E-05-8.98994E-06-5.43517E-19-5.99999E-19
 -1      2303 1.07326E-04-3.27161E-05-3.19359E-05-9.90318E-06-4.03379E-19-6.75889E-19
 -1      2304 1.01977E-04-2.77541E-05-3.18642E-05-7.87225E-06-3.76940E-19-6.28293E-19
 -1      2305 1.00883E-04-2.62739E-05-3.19112E-05-6.16957E-06-5.50995E-19-9.08592E-20
 -1      2306 1.04820E-04-2.86125E-05-3.26498E-05-9.47040E-06-4.08005E-19-4.69926E-19
 -1      2307 9.98955E-05-2.50748E-05-3.20789E-05-3.52777E-06-3.65051E-19-3.90949E-19
 -1      2308 9.95146E-05-2.45508E-05-3.20969E-05-9.21409E-07 1.42818E-19 8.70575E-20
 -1      2309 1.02313E-04-2.48969E-05-3.32141E-05-5.54429E-06-5.12455E-20-9.43893E-19
 -1      2310 9.96866E-05-2.47431E-05-3.20691E-05 2.31343E-06-2.46367E-19-3.29187E-19
 -1      2311 1.00269E-04-2.55452E-05-3.20410E-05 4.77097E-06-2.98761E-19-1.02017E-18
 -1      2312 1.01413E-04-2.35926E-05-3.33926E-05 8.13598E-07-5.03515E-19-6.76970E-19
 -1      2313 1.01423E-04-2.69600E-05-3.18401E-05 7.12500E-06 4.76224E-20-1.09843E-18
 -1      2314 1.02639E-04-2.85820E-05-3.17917E-05 8.52124E-06 4.25525E-19-1.17026E-18
 -1      2315 1.02834E-04-2.56433E-05-3.31023E-05 6.77668E-06 4.57878E-20-5.28205E-19
 -1      2316 1.03993E-04-3.03602E-05-3.15045E-05 9.21271E-06 4.17708E-19-1.12861E-18
 -1      2317 1.05283E-04-3.19822E-05-3.14666E-05 9.25824E-06 2.58448E-19-3.67091E-19
 -1      2318 1.05494E-04-2.96451E-05-3.24839E-05 9.90091E-06 1.83960E-19-6.08155E-19
 -1      2319 1.06078E-04-3.32658E-05-3.11954E-05 8.43673E-06 6.81779E-20-3.73571E-20
 -1      2320 1.06991E-04-3.42997E-05-3.11837E-05 7.46232E-06 4.88070E-20 3.90830E-19
 -1      2321 1.07759E-04-3.35127E-05-3.17764E-05 9.56728E-06 4.66287E-19-2.48812E-19
 -1      2322 1.06984E-04-3.47564E-05-3.09825E-05 5.84268E-06-2.05146E-19 3.04940E-20
 -1      2323 1.07356E-04-3.50755E-05-3.09849E-05 4.42332E-06-3.47459E-19 1.08250E-18
 -1      2324 1.08578E-04-3.57497E-05-3.11803E-05 6.84071E-06-4.06990E-19-2.54733E-19
 -1      2325 1.06741E-04-3.48528E-05-3.08536E-05 2.70950E-06-8.33479E-19 7.63458E-19
 -1      2326 1.06636E-04-3.46431E-05-3.08466E-05 1.32544E-06-3.73710E-19 3.48740E-19
 -1      2327 1.07927E-04-3.61133E-05-3.07659E-05 3.29003E-06-7.76761E-19 3.40294E-19
 -1      2328 1.05731E-04-3.40604E-05-3.07598E-05-6.98016E-08-1.89613E-19-2.65435E-19
 -1      2329 1.05307E-04-3.35830E-05-3.07250E-05-1.15506E-06-4.62000E-19-6.53413E-19
 -1      2330 1.06360E-04-3.51885E-05-3.05058E-05 6.34619E-08-1.08244E-18 5.91017E-20
 -1      2331 1.04360E-04-3.29111E-05-3.06549E-05-2.09569E-06-5.56206E-19-9.23167E-19
 -1      2332 1.03766E-04-3.23674E-05-3.05856E-05-2.80498E-06-2.32846E-19-1.04705E-18
 -1      2333 1.04469E-04-3.37079E-05-3.03366E-05-2.31669E-06-6.35821E-19-9.36701E-19
 -1      2334 1.02911E-04-3.17629E-05-3.05140E-05-3.31925E-06-4.65756E-19 7.31219E-20
 -1      2335 1.02258E-04-3.12655E-05-3.04141E-05-3.68665E-06-5.07610E-19 1.91204E-19
 -1      2336 1.02640E-04-3.21978E-05-3.02012E-05-3.77433E-06-1.23970E-19-6.36908E-20
 -1      2337 1.01541E-04-3.07891E-05-3.03334E-05-3.86983E-06-5.76046E-19 5.38985E-19
 -1      2338 1.00898E-04-3.03825E-05-3.02128E-05-3.97571E-06-4.86107E-19 8.70716E-19
 -1      2339 1.01050E-04-3.09238E-05-3.00648E-05-4.45369E-06-2.97099E-19 1.17333E-18
 -1      2340 1.00319E-04-3.00377E-05-3.01234E-05-3.93315E-06-7.87812E-19 6.01014E-19
 -1      2341 9.97244E-05-2.97271E-05-2.99934E-05-3.86387E-06-1.15581E-18 1.16387E-19
 -1      2342 9.97440E-05-2.99643E-05-2.99142E-05-4.56629E-06-8.19012E-19 9.47359E-19
 -1      2343 9.92650E-05-2.94928E-05-2.98997E-05-3.68572E-06-5.87223E-19-1.28388E-19
 -1      2344 9.87383E-05-2.92658E-05-2.97704E-05-3.51456E-06-3.33314E-19-1.84606E-20
 -1      2345 9.86991E-05-2.92977E-05-2.97505E-05-4.31296E-06-9.13684E-19 2.80341E-19
 -1      2346 9.83758E-05-2.91147E-05-2.96774E-05-3.26850E-06-6.07965E-19 8.54761E-19
 -1      2347 9.79238E-05-2.89539E-05-2.95563E-05-3.04987E-06-5.05596E-19 1.29258E-18
 -1      2348 9.78737E-05-2.88647E-05-2.95810E-05-3.85444E-06-6.97117E-21 1.70654E-18
 -1      2349 9.76384E-05-2.88611E-05-2.94686E-05-2.78211E-06-3.57368E-19 2.02483E-18
 -1      2350 9.72604E-05-2.87496E-05-2.93603E-05-2.55238E-06-2.41175E-19 2.75627E-18
 -1      2351 9.72248E-05-2.86015E-05-2.94148E-05-3.30656E-06-1.41004E-19 2.02810E-18
 -1      2352 9.70358E-05-2.86954E-05-2.92810E-05-2.29163E-06-2.31133E-19 2.58315E-18
 -1      2353 9.67268E-05-2.86193E-05-2.91879E-05-2.07257E-06 4.49562E-19 2.33802E-18
 -1      2354 9.67157E-05-2.84534E-05-2.92594E-05-2.74566E-06-2.30797E-19 1.86397E-18
 -1      2355 9.65504E-05-2.85891E-05-2.91189E-05-1.83448E-06 7.83042E-19 1.16610E-18
 -1      2356 9.63028E-05-2.85374E-05-2.90415E-05-1.63701E-06 1.20657E-18-1.89785E-19
 -1      2357 9.63168E-05-2.83783E-05-2.91201E-05-2.21706E-06-5.11978E-19 7.03880E-19
 -1      2358 9.61642E-05-2.85208E-05-2.89836E-05-1.42798E-06 8.78097E-19-8.87928E-19
 -1      2359 9.59697E-05-2.84850E-05-2.89212E-05-1.25552E-06 8.64382E-19-4.96641E-19
 -1      2360 9.60046E-05-2.83454E-05-2.89998E-05-1.74351E-06 6.06321E-19-3.12836E-19
 -1      2361 9.58605E-05-2.84749E-05-2.88741E-05-1.07598E-06 1.90376E-18-1.34700E-19
 -1      2362 9.57107E-05-2.84491E-05-2.88255E-05-9.27515E-07 2.03212E-18 7.92428E-20
 -1      2363 9.57600E-05-2.83337E-05-2.88995E-05-1.33203E-06 1.23933E-18-3.66696E-19
 -1      2364 9.56236E-05-2.84415E-05-2.87881E-05-7.74128E-07 1.19474E-18 3.51679E-19
 -1      2365 9.55121E-05-2.84218E-05-2.87514E-05-6.46781E-07 1.37767E-18 7.62340E-19
 -1      2366 9.55667E-05-2.83288E-05-2.88181E-05-9.80209E-07 1.88218E-18-1.21404E-18
 -1      2367 5.51530E-05-3.48307E-05-8.57542E-06 3.89141E-05-2.53898E-19 2.54089E-18
 -1      2368 4.13657E-05-2.81440E-05-5.32665E-06 3.12824E-05 1.80524E-19 1.71439E-18
 -1      2369 9.34719E-05-2.76667E-05-2.81925E-05-6.49992E-07 4.92257E-19 1.03651E-18
 -1      2370 9.35021E-05-2.75577E-05-2.82370E-05-3.24025E-07 5.38957E-19 1.29757E-18
 -1      2371 9.35331E-05-2.78391E-05-2.81466E-05-1.17157E-06 6.58583E-19 7.62767E-19
 -1      2372 9.34193E-05-2.77408E-05-2.81342E-05-9.75780E-07 5.40901E-19 9.38970E-19
 -1      2373 9.41582E-05-2.77509E-05-2.84728E-05-7.74232E-07 6.30196E-19 4.36885E-19
 -1      2374 9.37844E-05-2.79883E-05-2.81909E-05-1.50607E-06 6.72362E-19 1.19508E-18
 -1      2375 9.35743E-05-2.78956E-05-2.81406E-05-1.37750E-06 6.28695E-19 9.06936E-19
 -1      2376 9.41709E-05-2.79505E-05-2.83901E-05-1.37298E-06 6.23513E-19 2.36135E-19
 -1      2377 9.41758E-05-2.81254E-05-2.82996E-05-1.75479E-06 3.86199E-19 1.54315E-18
 -1      2378 9.38962E-05-2.80359E-05-2.82220E-05-1.65222E-06 5.13138E-19 1.44057E-18
 -1      2379 9.43360E-05-2.80894E-05-2.83990E-05-1.77471E-06 4.27326E-19 5.73688E-19
 -1      2380 9.46807E-05-2.82564E-05-2.84589E-05-1.98967E-06 1.31928E-19 1.54960E-18
 -1      2381 9.43428E-05-2.81677E-05-2.83590E-05-1.88350E-06 3.74281E-19 1.57686E-18
 -1      2382 9.46182E-05-2.81903E-05-2.84752E-05-2.08947E-06 3.18144E-19 1.19774E-18
 -1      2383 9.52913E-05-2.83871E-05-2.86630E-05-2.26520E-06 6.96387E-19 1.14629E-18
 -1      2384 9.48948E-05-2.82957E-05-2.85417E-05-2.13255E-06 3.42695E-19 1.42876E-18
 -1      2385 9.49963E-05-2.82653E-05-2.86042E-05-2.39693E-06 5.04071E-19 1.14753E-18
 -1      2386 9.60148E-05-2.85249E-05-2.89119E-05-2.62499E-06 1.04913E-18 9.05267E-19
 -1      2387 9.55507E-05-2.84255E-05-2.87675E-05-2.44713E-06 9.66321E-19 1.01711E-18
 -1      2388 9.54619E-05-2.83227E-05-2.87788E-05-2.75808E-06 9.75327E-19 6.63188E-19
 -1      2389 9.68701E-05-2.86795E-05-2.92096E-05-3.10459E-06 5.90472E-19 8.56005E-19
 -1      2390 9.63224E-05-2.85653E-05-2.90383E-05-2.86608E-06 8.36524E-19 1.01183E-18
 -1      2391 9.60168E-05-2.83703E-05-2.89962E-05-3.22146E-06 8.49833E-19 9.61794E-19
 -1      2392 9.78845E-05-2.88650E-05-2.95621E-05-3.73136E-06 3.92390E-19 9.09327E-19
 -1      2393 9.72325E-05-2.87264E-05-2.93591E-05-3.42064E-06 5.11066E-19 9.83504E-19
 -1      2394 9.66714E-05-2.84179E-05-2.92565E-05-3.82568E-06 6.17417E-19 1.02379E-18
 -1      2395 9.90921E-05-2.91026E-05-2.99753E-05-4.52038E-06 1.81041E-19 1.01561E-18
 -1      2396 9.83115E-05-2.89257E-05-2.97358E-05-4.13254E-06 1.36318E-19 1.07693E-18
 -1      2397 9.74427E-05-2.84811E-05-2.95604E-05-4.59864E-06 2.40226E-19 7.03536E-19
 -1      2398 1.00532E-04-2.94262E-05-3.04521E-05-5.46452E-06 4.93658E-19 1.09487E-18
 -1      2399 9.95974E-05-2.91904E-05-3.01730E-05-5.00741E-06 3.83009E-19 9.55171E-19
 -1      2400 9.83557E-05-2.85866E-05-2.99069E-05-5.55222E-06 3.89576E-19 3.47410E-19
 -1      2401 1.02246E-04-2.98919E-05-3.09884E-05-6.51563E-06 7.01161E-19 1.34704E-18
 -1      2402 1.01136E-04-2.95656E-05-3.06709E-05-6.02102E-06 6.21144E-19 1.18555E-18
 -1      2403 9.94464E-05-2.87837E-05-3.02909E-05-6.67075E-06 3.65796E-19 1.16221E-18
 -1      2404 1.04285E-04-3.05917E-05-3.15680E-05-7.55317E-06-1.78658E-19 1.84018E-18
 -1      2405 1.02982E-04-3.01268E-05-3.12208E-05-7.09487E-06 5.32055E-19 1.77923E-18
 -1      2406 1.00772E-04-2.91610E-05-3.06996E-05-7.89012E-06 4.40438E-19 1.36361E-18
 -1      2407 1.06707E-04-3.16681E-05-3.21580E-05-8.33849E-06-7.41189E-19 2.02916E-18
 -1      2408 1.05212E-04-3.09968E-05-3.18011E-05-8.05706E-06-4.27610E-19 2.01405E-18
 -1      2409 1.02430E-04-2.98705E-05-3.11108E-05-9.06415E-06-5.50162E-19 2.11497E-18
 -1      2410 1.09581E-04-3.33104E-05-3.27093E-05-8.46166E-06-1.22300E-18 2.08966E-18
 -1      2411 1.07923E-04-3.23557E-05-3.23752E-05-8.58837E-06-1.07229E-18 2.03648E-18
 -1      2412 1.04584E-04-3.11488E-05-3.14952E-05-9.91576E-06-1.04826E-18 2.26454E-18
 -1      2413 1.12951E-04-3.56853E-05-3.31698E-05-7.31221E-06-1.02963E-18 2.16672E-18
 -1      2414 1.11224E-04-3.44136E-05-3.28987E-05-8.16689E-06-9.46988E-19 2.15931E-18
 -1      2415 1.07481E-04-3.33030E-05-3.18288E-05-9.97760E-06-1.09527E-18 2.46655E-18
 -1      2416 1.16718E-04-3.87131E-05-3.35234E-05-4.16436E-06-4.59476E-19 2.24034E-18
 -1      2417 1.15148E-04-3.72693E-05-3.33444E-05-6.06779E-06-7.98276E-19 2.02115E-18
 -1      2418 1.11405E-04-3.65749E-05-3.21268E-05-8.55141E-06-7.62391E-19 2.20502E-18
 -1      2419 1.20359E-04-4.16046E-05-3.38624E-05 1.46982E-06-7.66287E-19 3.16192E-18
 -1      2420 1.19409E-04-4.05576E-05-3.37549E-05-1.54807E-06-6.94554E-19 2.63806E-18
 -1      2421 1.16455E-04-4.07649E-05-3.25025E-05-4.78215E-06-1.03032E-18 2.30436E-18
 -1      2422 1.22606E-04-4.24102E-05-3.44541E-05 8.89831E-06-1.43855E-18 3.78502E-18
 -1      2423 1.22909E-04-4.28271E-05-3.43177E-05 5.46170E-06-9.77225E-19 3.45876E-18
 -1      2424 1.21946E-04-4.44434E-05-3.32513E-05 1.93051E-06-1.20391E-18 2.99943E-18
 -1      2425 1.21723E-04-3.86695E-05-3.56076E-05 1.50321E-05-1.03367E-18 4.48864E-18
 -1      2426 1.23684E-04-4.15493E-05-3.53267E-05 1.29998E-05-1.56781E-18 4.23488E-18
 -1      2427 1.25744E-04-4.46292E-05-3.48349E-05 1.07257E-05-1.59798E-18 3.79955E-18
 -1      2428 1.17257E-04-3.04253E-05-3.72170E-05 1.48133E-05 1.84981E-18 4.29149E-18
 -1      2429 1.20286E-04-3.49576E-05-3.68302E-05 1.63896E-05 5.60709E-19 4.15537E-18
 -1      2430 1.25567E-04-3.86532E-05-3.73257E-05 1.69107E-05-2.16946E-19 3.81496E-18
 -1      2431 1.13179E-04-2.36112E-05-3.84709E-05 5.16895E-06 3.45219E-18 3.37401E-18
 -1      2432 1.14886E-04-2.62367E-05-3.82439E-05 1.04423E-05 3.18619E-18 3.89925E-18
 -1      2433 1.20955E-04-2.72291E-05-4.03280E-05 1.42748E-05 2.56212E-18 4.22323E-18
 -1      2434 1.14088E-04-2.50691E-05-3.84315E-05-8.42765E-06 1.85468E-18 2.06423E-18
 -1      2435 1.12803E-04-2.31750E-05-3.85851E-05-2.84306E-06 2.99214E-18 2.58835E-18
 -1      2436 1.17661E-04-2.07902E-05-4.17452E-05 1.52664E-06 3.64711E-18 3.83132E-18
 -1      2437 1.19365E-04-3.34473E-05-3.71207E-05-1.60689E-05 1.63530E-18 1.62834E-19
 -1      2438 1.16361E-04-2.89273E-05-3.75177E-05-1.38789E-05 1.60052E-18 8.76348E-19
 -1      2439 1.20111E-04-2.57990E-05-4.05151E-05-1.28537E-05 2.42273E-18 1.31145E-18
 -1      2440 1.23559E-04-4.08239E-05-3.55450E-05-1.41750E-05 1.36109E-18-7.66383E-19
 -1      2441 1.21175E-04-3.74609E-05-3.58644E-05-1.56335E-05 1.48326E-18-5.43914E-19
 -1      2442 1.24966E-04-3.69257E-05-3.77188E-05-1.78942E-05 1.77475E-18-1.22856E-18
 -1      2443 1.23234E-04-4.27958E-05-3.44792E-05-6.88978E-06-1.17129E-19-1.25399E-18
 -1      2444 1.22672E-04-4.21020E-05-3.46086E-05-9.99641E-06 4.30597E-19-8.04253E-19
 -1      2445 1.26223E-04-4.42051E-05-3.53649E-05-1.27530E-05 9.46374E-19-2.00580E-18
 -1      2446 1.20164E-04-4.10634E-05-3.38597E-05 3.84392E-07 6.28657E-20-1.45149E-18
 -1      2447 1.20913E-04-4.19435E-05-3.39637E-05-2.67031E-06-2.03923E-19-1.15274E-18
 -1      2448 1.22686E-04-4.48299E-05-3.35005E-05-3.64914E-06 1.88862E-20-1.27233E-18
 -1      2449 1.15942E-04-3.78327E-05-3.34383E-05 5.38584E-06-1.39643E-18 1.79306E-19
 -1      2450 1.17413E-04-3.92411E-05-3.36000E-05 3.35666E-06-5.38733E-19-3.62030E-19
 -1      2451 1.17471E-04-4.15403E-05-3.26215E-05 3.75394E-06-1.21009E-18-6.09805E-19
 -1      2452 1.11941E-04-3.48614E-05-3.30112E-05 7.85197E-06-6.22556E-19 1.62190E-18
 -1      2453 1.13640E-04-3.61580E-05-3.32638E-05 6.87674E-06-1.02739E-18 9.74075E-19
 -1      2454 1.12254E-04-3.72554E-05-3.22060E-05 8.01344E-06-1.62174E-18 7.82584E-19
 -1      2455 1.08560E-04-3.26702E-05-3.25129E-05 8.48785E-06 1.82118E-18 1.66156E-18
 -1      2456 1.10217E-04-3.36629E-05-3.28324E-05 8.27634E-06 8.21389E-19 1.35457E-18
 -1      2457 1.08150E-04-3.37805E-05-3.19149E-05 9.75118E-06 8.24385E-20 1.14856E-18
 -1      2458 1.05799E-04-3.12109E-05-3.19613E-05 8.04222E-06 1.40767E-18 1.37040E-18
 -1      2459 1.07298E-04-3.19145E-05-3.23078E-05 8.27754E-06 1.76924E-18 2.04218E-18
 -1      2460 1.05122E-04-3.14390E-05-3.16032E-05 9.84829E-06 1.67505E-18 9.43292E-19
 -1      2461 1.03553E-04-3.02794E-05-3.14007E-05 7.07586E-06 6.63901E-19 1.71537E-18
 -1      2462 1.04854E-04-3.07658E-05-3.17392E-05 7.52041E-06 1.47638E-18 2.28483E-18
 -1      2463 1.02898E-04-3.00311E-05-3.12427E-05 9.04047E-06 1.46387E-18 2.12476E-18
 -1      2464 1.01723E-04-2.96879E-05-3.08705E-05 5.94019E-06-3.46645E-19-1.84628E-19
 -1      2465 1.02820E-04-3.00250E-05-3.11786E-05 6.44546E-06-1.79821E-19 7.46373E-19
 -1      2466 1.01218E-04-2.92449E-05-3.08539E-05 7.83215E-06 9.31363E-19 2.74950E-18
 -1      2467 1.00233E-04-2.93055E-05-3.03960E-05 4.82897E-06-4.94130E-19 4.13175E-19
 -1      2468 1.01137E-04-2.95423E-05-3.06628E-05 5.31454E-06-5.07575E-20-3.40866E-19
 -1      2469 9.99050E-05-2.88288E-05-3.04673E-05 6.52765E-06-1.78969E-20 1.72245E-18
 -1      2470 9.90277E-05-2.90505E-05-2.99883E-05 3.83402E-06-3.27340E-20 4.22157E-19
 -1      2471 9.97582E-05-2.92196E-05-3.02111E-05 4.26331E-06-6.87055E-19 3.70481E-19
 -1      2472 9.88554E-05-2.86179E-05-3.01070E-05 5.29131E-06-6.98300E-19 7.87862E-19
 -1      2473 9.80606E-05-2.88750E-05-2.96490E-05 2.98763E-06-1.03826E-19 8.78273E-19
 -1      2474 9.86412E-05-2.89972E-05-2.98300E-05 3.34924E-06-1.89029E-19-2.70006E-20
 -1      2475 9.80075E-05-2.85149E-05-2.97874E-05 4.19863E-06-3.15083E-19 1.29971E-19
 -1      2476 9.72940E-05-2.87507E-05-2.93736E-05 2.29033E-06 1.20388E-19 5.03847E-19
 -1      2477 9.77482E-05-2.88399E-05-2.95174E-05 2.58595E-06 4.98389E-19 1.12910E-18
 -1      2478 9.73226E-05-2.84665E-05-2.95143E-05 3.27337E-06 5.99495E-20 1.25906E-18
 -1      2479 9.66942E-05-2.86607E-05-2.91552E-05 1.72723E-06 3.86575E-19 2.77147E-19
 -1      2480 9.70441E-05-2.87261E-05-2.92671E-05 1.96471E-06 1.57227E-19 9.44640E-19
 -1      2481 9.67733E-05-2.84446E-05-2.92879E-05 2.51139E-06 3.49739E-19 7.93304E-19
 -1      2482 9.62313E-05-2.85936E-05-2.89856E-05 1.27687E-06 1.74934E-18-5.15602E-19
 -1      2483 9.64965E-05-2.86420E-05-2.90709E-05 1.46654E-06 1.18264E-18 2.70916E-19
 -1      2484 9.63369E-05-2.84339E-05-2.91050E-05 1.89492E-06 9.15962E-19-5.94205E-19
 -1      2485 9.58797E-05-2.85416E-05-2.88572E-05 9.16087E-07 2.40936E-18-1.54055E-19
 -1      2486 9.60765E-05-2.85778E-05-2.89205E-05 1.06873E-06 1.54619E-18-1.42367E-19
 -1      2487 9.59939E-05-2.84260E-05-2.89609E-05 1.40033E-06 1.83074E-18 2.80439E-19
 -1      2488 9.56167E-05-2.85004E-05-2.87624E-05 6.22199E-07 1.82007E-18 1.66160E-18
 -1      2489 9.57587E-05-2.85269E-05-2.88079E-05 7.47905E-07 2.67410E-18 7.66154E-19
 -1      2490 9.57257E-05-2.84160E-05-2.88498E-05 1.00391E-06 1.71701E-18 1.13135E-18
 -1      2491 9.54239E-05-2.84691E-05-2.86933E-05 3.81101E-07-1.39838E-18 2.28163E-18
 -1      2492 9.55240E-05-2.84877E-05-2.87255E-05 4.85863E-07 7.00273E-19 2.27565E-18
 -1      2493 9.55198E-05-2.84070E-05-2.87657E-05 6.80266E-07 5.79685E-19 3.74312E-18
 -1      2494 9.53532E-05-2.84664E-05-2.86632E-05 2.62110E-07-1.29362E-18 1.19009E-18
 -1      2495 9.48438E-05-2.76004E-05-2.88220E-05 5.67374E-07-1.01725E-18-1.66739E-18
 -1      2496 9.49144E-05-2.76985E-05-2.88058E-05 6.13290E-07-1.56142E-18-2.62321E-18
 -1      2497 9.47272E-05-2.74347E-05-2.88430E-05 4.01167E-07-1.95178E-19-1.76773E-18
 -1      2498 9.47781E-05-2.75058E-05-2.88312E-05 4.84559E-07-2.47149E-19-1.63233E-18
 -1      2499 9.47472E-05-2.74764E-05-2.88279E-05 6.15456E-07-4.92768E-19-8.23255E-19
 -1      2500 9.51595E-05-2.80573E-05-2.87603E-05 6.21629E-07-2.20856E-18 2.76570E-19
 -1      2501 9.52348E-05-2.81674E-05-2.87405E-05 5.80002E-07-1.10474E-18 8.58852E-19
 -1      2502 9.49958E-05-2.78175E-05-2.87936E-05 6.45584E-07-2.80359E-18-1.94523E-18
 -1      2503 9.50746E-05-2.79277E-05-2.87752E-05 6.46720E-07-2.88553E-18-8.37198E-19
 -1      2504 9.51241E-05-2.79525E-05-2.87858E-05 7.57418E-07-2.66663E-18-1.09178E-18
 -1      2505 9.49232E-05-2.76958E-05-2.88096E-05 7.42576E-07-2.34732E-18-1.02144E-18
 -1      2506 9.46615E-05-2.73412E-05-2.88545E-05 1.75850E-07-6.94480E-19-5.09365E-19
 -1      2507 9.46867E-05-2.73769E-05-2.88486E-05 2.82672E-07-9.39478E-21-2.18735E-18
 -1      2508 9.46220E-05-2.73206E-05-2.88403E-05 3.97496E-07-2.36820E-19-2.28413E-18
 -1      2509 9.46537E-05-2.73303E-05-2.88550E-05-7.32296E-08-6.41956E-19 1.69081E-18
 -1      2510 9.46506E-05-2.73263E-05-2.88558E-05 4.01035E-08-1.36289E-18 1.63602E-18
 -1      2511 9.45609E-05-2.72462E-05-2.88458E-05 1.23266E-07 6.74851E-19-3.98165E-20
 -1      2512 9.47029E-05-2.74016E-05-2.88445E-05-3.08666E-07 2.82118E-19-1.35928E-19
 -1      2513 9.46727E-05-2.73590E-05-2.88519E-05-2.06027E-07-4.19915E-19 2.42378E-19
 -1      2514 9.45702E-05-2.72604E-05-2.88438E-05-1.65780E-07 4.49340E-19 1.09904E-18
 -1      2515 9.47998E-05-2.75417E-05-2.88248E-05-4.93511E-07 4.09872E-19 1.38458E-20
 -1      2516 9.47478E-05-2.74682E-05-2.88375E-05-4.17700E-07 6.05320E-19-5.41130E-19
 -1      2517 9.46460E-05-2.73582E-05-2.88348E-05-4.25987E-07 1.12731E-18-1.47614E-19
 -1      2518 9.49348E-05-2.77378E-05-2.87976E-05-6.07147E-07 1.37920E-18 1.97405E-18
 -1      2519 9.48663E-05-2.76402E-05-2.88144E-05-5.67162E-07 8.36789E-19 5.36811E-19
 -1      2520 9.47770E-05-2.75270E-05-2.88194E-05-6.23276E-07 1.07775E-18 6.72057E-19
 -1      2521 9.50894E-05-2.79652E-05-2.87657E-05-6.28942E-07 5.17751E-19-3.98618E-19
 -1      2522 9.50144E-05-2.78561E-05-2.87846E-05-6.33073E-07 1.16290E-18 1.29917E-18
 -1      2523 9.49477E-05-2.77483E-05-2.87987E-05-7.31318E-07 9.62834E-19 6.87483E-19
 -1      2524 9.52394E-05-2.81954E-05-2.87310E-05-5.56768E-07-4.43572E-19-2.18107E-18
 -1      2525 9.51698E-05-2.80882E-05-2.87507E-05-6.03735E-07 5.52801E-19-1.34971E-18
 -1      2526 9.51331E-05-2.79964E-05-2.87733E-05-7.33209E-07 1.09001E-18-1.13897E-18
 -1      2527 9.53108E-05-2.83771E-05-2.86838E-05-3.54834E-07 6.44167E-20 1.73298E-19
 -1      2528 2.19189E-05-1.67615E-05-1.78037E-06-1.28579E-05 5.76724E-19 5.36977E-18
 -1      2529 2.78458E-05-2.24521E-05-2.05694E-06-2.55378E-05 8.98278E-19 7.17373E-18
 -1      2530 9.36763E-05-2.74438E-05-2.83721E-05 2.12204E-07 6.05304E-19 1.30419E-18
 -1      2531 9.39263E-05-2.73063E-05-2.85073E-05 7.73434E-07 6.20184E-19 1.57995E-18
 -1      2532 9.43430E-05-2.74407E-05-2.86870E-05 1.81941E-07 6.63814E-19 6.15498E-19
 -1      2533 9.69171E-05-5.31617E-05-1.87949E-05 3.96753E-05-1.08208E-18 2.06341E-18
 -1      2534 7.60979E-05-4.53328E-05-1.29492E-05 3.98958E-05-1.66146E-18 2.33569E-18
 -1      2535 3.80484E-05-2.81037E-05-4.04951E-06-3.31567E-05 1.53948E-18 7.52695E-18
 -1      2536 5.24181E-05-3.38074E-05-7.80482E-06-4.12538E-05 6.09440E-19 7.10089E-18
 -1      2537 4.13180E-05-2.30385E-05-7.27716E-06-2.99823E-05 1.53482E-18 7.18242E-18
 -1      2538 9.50398E-05-2.00059E-05-3.22058E-05-1.16732E-05-1.43810E-18-1.01394E-18
 -1      2539 9.54454E-05-2.33624E-05-3.09231E-05-7.91249E-06-1.39620E-18-9.09081E-19
 -1      2540 9.50599E-05-2.25039E-05-3.10625E-05-7.57862E-06-1.26813E-18-1.11326E-18
 -1      2541 9.32086E-05-1.75594E-05-3.24188E-05-1.12957E-05-1.31955E-18-1.32558E-18
 -1      2542 1.30307E-04-5.98775E-05-3.05249E-05 2.46907E-05 5.89958E-19 6.99437E-19
 -1      2543 1.14145E-04-5.82665E-05-2.39691E-05 3.12440E-05-2.13452E-19 1.27796E-18
 -1      2544 1.40710E-04-5.10518E-05-3.87687E-05 1.46260E-05-1.49994E-18 1.66442E-18
 -1      2545 1.28521E-04-5.50668E-05-3.15073E-05 2.31578E-05-7.98117E-19 1.70360E-18
 -1      2546 8.78737E-05-1.07118E-05-3.31053E-05-1.49773E-06 6.72350E-19-1.89874E-18
 -1      2547 8.79797E-05-1.08373E-05-3.30951E-05-2.60419E-06 4.95184E-19-1.92560E-18
 -1      2548 8.93650E-05-1.29874E-05-3.27346E-05-2.88258E-06 4.12911E-19-1.73278E-18
 -1      2549 8.91129E-05-1.26418E-05-3.27758E-05-9.25564E-07 6.76919E-19-1.74893E-18
 -1      2550 1.47283E-04-1.44133E-05-5.74359E-05 3.39091E-06 5.93092E-18-4.67668E-19
 -1      2551 1.51154E-04-1.38968E-05-5.90173E-05-1.11899E-06 6.54587E-18-1.35501E-18
 -1      2552 1.15277E-04-5.59833E-05-2.55947E-05 3.45417E-05 3.34790E-19 5.76724E-19
 -1      2553 1.00104E-04-5.32216E-05-1.99719E-05 3.84861E-05 8.56774E-19-1.23879E-20
 -1      2554 1.52010E-04-1.68469E-05-5.82972E-05-4.51377E-06 6.42940E-18-1.73896E-18
 -1      2555 1.50080E-04-2.12625E-05-5.55583E-05-8.27952E-06 5.52943E-18-7.71223E-19
 -1      2556 1.39602E-04-1.36172E-05-5.41257E-05-4.04353E-06 6.46519E-18-6.07111E-19
 -1      2557 1.50428E-04-3.14379E-05-5.13081E-05 9.44699E-06 2.55211E-18 2.49875E-20
 -1      2558 1.47664E-04-2.22068E-05-5.43776E-05 9.53146E-06 3.90969E-18 2.46910E-19
 -1      2559 1.48809E-04-5.00021E-05-4.25150E-05-3.39356E-06 8.09936E-19-9.84676E-19
 -1      2560 1.52680E-04-4.25486E-05-4.77587E-05 3.43245E-06 1.70603E-18-3.99588E-19
 -1      2561 1.31476E-04-5.90278E-05-3.10238E-05-2.08692E-05-7.88694E-19-2.03330E-18
 -1      2562 1.43821E-04-5.63625E-05-3.77798E-05-1.39821E-05 1.87935E-19-2.05914E-18
 -1      2563 1.45424E-04-5.50312E-05-3.85904E-05-1.50197E-06-4.71116E-19-3.04932E-19
 -1      2564 9.44413E-05-5.32412E-05-1.76107E-05-3.80799E-05-1.60386E-18-4.17524E-18
 -1      2565 1.14030E-04-5.78730E-05-2.43265E-05-3.41851E-05-1.26017E-18-3.45780E-18
 -1      2566 6.03653E-05-3.86044E-05-9.05581E-06-3.89690E-05-1.26843E-18-4.68896E-18
 -1      2567 7.77987E-05-4.63871E-05-1.34013E-05-4.21033E-05-1.15599E-18-4.43559E-18
 -1      2568 9.38124E-05-5.11019E-05-1.79156E-05-3.77347E-05-2.52733E-18-3.25615E-18
 -1      2569 2.87355E-05-2.14679E-05-2.68792E-06-2.04790E-05-2.73062E-19-4.46132E-18
 -1      2570 4.16791E-05-2.79819E-05-5.61346E-06-3.32178E-05-4.41516E-19-5.02185E-18
 -1      2571 4.42977E-05-2.63169E-05-7.35127E-06 3.59165E-05 1.22439E-18-5.45277E-19
 -1      2572 3.33960E-05-2.09540E-05-4.65846E-06 2.55433E-05 1.33630E-18-7.26754E-19
 -1      2573 1.47052E-04-1.14670E-05-5.82739E-05 1.84709E-06-3.53636E-18 9.67735E-19
 -1      2574 1.40253E-04-8.92810E-06-5.68889E-05-1.93539E-07-3.28268E-18 5.84162E-19
 -1      2575 8.18346E-05-4.60796E-05-1.52370E-05 4.39019E-05 9.88276E-19-5.91229E-19
 -1      2576 6.23794E-05-3.70049E-05-1.04300E-05 4.12044E-05 1.39930E-18-4.68515E-19
 -1      2577 9.62393E-05-5.04307E-05-1.92538E-05 3.83055E-05 1.88391E-18 3.61074E-19
 -1      2578 1.46817E-04-3.50923E-05-4.84374E-05-1.02084E-06-2.60569E-18 1.48083E-18
 -1      2579 1.44609E-04-4.25468E-05-4.38608E-05 3.66147E-06-2.02489E-18 1.32582E-18
 -1      2580 1.41569E-04-1.48542E-05-5.49243E-05-6.13713E-06-3.18294E-18 8.35704E-19
 -1      2581 1.44828E-04-2.36478E-05-5.21670E-05-5.49712E-06-3.11856E-18 1.02660E-18
 -1      2582 1.47540E-04-2.07015E-05-5.47051E-05 3.73749E-06-3.37987E-18-2.89474E-19
 -1      2583 1.48399E-04-1.53667E-05-5.74025E-05 3.37363E-06-3.25854E-18 5.20608E-19
 -1      2584 1.35794E-04-1.11874E-05-5.35991E-05 5.18469E-06-2.87991E-18 2.85503E-19
 -1      2585 1.45853E-04-3.74353E-05-4.66504E-05-1.21567E-06-2.69388E-18-1.50624E-18
 -1      2586 1.49353E-04-3.00788E-05-5.14708E-05 1.58810E-06-3.42371E-18-1.24683E-18
 -1      2587 1.34232E-04-5.28779E-05-3.48659E-05-1.88092E-05-1.66209E-18-1.56913E-18
 -1      2588 1.43488E-04-4.79522E-05-4.13427E-05-1.09589E-05-2.02981E-18-1.83467E-18
 -1      2589 1.07282E-04-5.40659E-05-2.27595E-05-3.62491E-05-1.17971E-18 5.14996E-19
 -1      2590 1.22428E-04-5.52919E-05-2.90506E-05-3.12774E-05-1.35081E-18-1.40925E-18
 -1      2591 7.07972E-05-4.35890E-05-1.15454E-05-4.29782E-05 3.14884E-19 4.61432E-18
 -1      2592 8.98759E-05-4.95382E-05-1.73748E-05-4.35096E-05-1.30295E-18 2.10829E-18
 -1      2593 2.85179E-05-2.10685E-05-2.85275E-06 2.19659E-05 3.74600E-19 2.22113E-18
 -1      2594 2.14373E-05-1.63468E-05-1.78748E-06 6.39443E-06 9.13207E-20 3.58443E-18
 -1      2595 9.62710E-05-2.50698E-05-3.05400E-05 7.54563E-06 1.59336E-18 2.73441E-18
 -1      2596 9.73821E-05-2.37544E-05-3.15759E-05 1.06490E-05 1.75116E-18 3.02738E-18
 -1      2597 9.58369E-05-2.12846E-05-3.20069E-05 1.18443E-05 1.92026E-18 2.36666E-18
 -1      2598 9.58462E-05-2.41378E-05-3.07657E-05 7.61696E-06 1.62211E-18 1.82590E-18
 -1      2599 1.49491E-04-5.09889E-05-4.26726E-05 3.38290E-06 3.35731E-18 6.56451E-20
 -1      2600 1.41194E-04-5.68044E-05-3.63099E-05 1.07216E-05 1.37241E-18 4.73703E-19
 -1      2601 9.08344E-05-1.50027E-05-3.24951E-05-6.70427E-06-4.59275E-19-1.72524E-18
 -1      2602 8.97407E-05-1.31664E-05-3.28750E-05-7.89130E-06-5.35260E-19-1.95465E-18
 -1      2603 9.04333E-05-1.40017E-05-3.28222E-05-9.06727E-06-8.02599E-19-1.95557E-18
 -1      2604 9.47588E-05-2.68998E-05-2.90957E-05 1.73795E-06 9.30036E-19 9.37700E-19
 -1      2605 9.42219E-05-1.90668E-05-3.22543E-05 1.15459E-05 1.94315E-18 1.46469E-18
 -1      2606 1.46946E-04-4.78040E-05-4.24716E-05-8.73568E-06 3.08495E-18-3.59142E-19
 -1      2607 1.37922E-04-6.04235E-05-3.30901E-05 1.21535E-05 6.78685E-19 4.72750E-19
 -1      2608 7.42493E-05-4.06035E-05-1.39381E-05 3.79868E-05-1.26631E-18 1.74118E-18
 -1      2609 9.53605E-05-2.83968E-05-2.86984E-05 4.09921E-07-9.69445E-19 2.09259E-18
 -1      2610 9.53310E-05-2.83208E-05-2.87185E-05 4.85782E-07-1.19601E-18 2.52561E-18
 -1      2611 9.53916E-05-2.84105E-05-2.87038E-05-4.51124E-07 1.27868E-18 1.21534E-18
 -1      2612 9.53082E-05-2.82960E-05-2.87211E-05-5.18427E-07 3.08389E-19-4.47724E-19
 -1      2613 9.53141E-05-2.82255E-05-2.87509E-05-6.66595E-07 4.72106E-19-4.65445E-19
 -1      2614 9.54664E-05-2.84191E-05-2.87307E-05-5.53543E-07 1.52864E-18 1.51331E-18
 -1      2615 4.14052E-05-2.23380E-05-7.60695E-06 2.59766E-05 1.50348E-19 2.07121E-18
 -1      2616 6.86073E-05-3.91111E-05-1.22556E-05-4.13514E-05 1.65468E-18 4.71946E-18
 -1      2617 2.55145E-05-1.45566E-05-4.08636E-06-3.23062E-06 2.02924E-19 4.05348E-18
 -1      2618 3.17324E-05-1.34981E-05-7.46260E-06-1.22912E-05 4.76085E-19 5.60524E-18
 -1      2619 3.18853E-05-1.27123E-05-7.61114E-06 4.99168E-06-1.47688E-19 3.34387E-18
 -1      2620 9.47035E-05-2.05798E-05-3.17230E-05 9.59904E-06 1.80543E-18 1.12038E-18
 -1      2621 1.11261E-04-5.73446E-05-2.27823E-05 3.15380E-05-9.70488E-19 1.38278E-18
 -1      2622 1.03940E-04-5.41220E-05-2.10917E-05-3.77139E-05 4.27116E-19-6.78738E-19
 -1      2623 1.30930E-04-5.68834E-05-3.16141E-05-2.03288E-05-2.39075E-19-2.24379E-18
 -1      2624 9.20952E-05-1.62623E-05-3.25343E-05-1.03049E-05-1.14279E-18-1.68578E-18
 -1      2625 1.40641E-04-4.90698E-05-3.92356E-05 3.97687E-06-1.23814E-18 2.23765E-18
 -1      2626 1.25815E-04-5.80503E-05-2.88530E-05 2.33533E-05 5.86888E-19 2.06507E-18
 -1      2627 1.40571E-04-2.45880E-05-4.98410E-05 8.26454E-06-2.34183E-18-1.88655E-18
 -1      2628 1.35799E-04-1.10361E-05-5.38939E-05-4.78893E-06-3.34705E-18 3.83177E-19
 -1      2629 1.28892E-04-1.37907E-05-4.97533E-05-8.05501E-06-3.20030E-18 5.32731E-19
 -1      2630 1.27712E-04-8.51705E-06-5.16256E-05-2.72484E-06-3.27929E-18-1.27955E-19
 -1      2631 6.12283E-05-3.15876E-05-1.21974E-05 3.68491E-05 2.06750E-18-2.94344E-20
 -1      2632 5.85904E-05-3.25429E-05-1.06494E-05-3.52339E-05-1.20914E-18-4.32124E-18
 -1      2633 1.26482E-04-6.07670E-05-2.79815E-05-2.34865E-05-2.06718E-18-1.52011E-18
 -1      2634 3.27186E-05-1.67376E-05-6.31048E-06 1.88760E-05 1.56796E-18-1.36118E-18
 -1      2635 3.04061E-05-1.68419E-05-5.19917E-06-1.23044E-05 4.85244E-19-3.73457E-18
 -1      2636 1.44813E-04-2.71676E-05-5.04820E-05-1.25858E-05 5.36680E-18-8.79008E-19
 -1      2637 1.45688E-04-3.79192E-05-4.62855E-05 1.16459E-05 1.23370E-18 1.19707E-18
 -1      2638 1.39596E-04-2.92439E-05-4.74451E-05-8.22030E-06-2.53888E-18 1.01771E-18
 -1      2639 1.42243E-04-4.44485E-05-4.19606E-05-2.37545E-07-1.27881E-18-2.74672E-18
 -1      2640 9.53365E-05-2.82436E-05-2.87521E-05 6.43024E-07-4.61934E-19 2.60594E-18
 -1      2641 9.54371E-05-2.83311E-05-2.87622E-05-7.19978E-07 1.67914E-18-3.23979E-19
 -1      2642 1.36436E-04-2.03965E-05-5.00199E-05 1.15717E-05 3.67845E-18 1.70095E-18
 -1      2643 1.43860E-04-1.66521E-05-5.50361E-05 7.29264E-06 5.15758E-18 3.31402E-19
 -1      2644 9.05621E-05-1.50421E-05-3.23880E-05 3.12770E-06 1.25567E-18-1.20116E-18
 -1      2645 9.03680E-05-1.47629E-05-3.24229E-05 2.20922E-06 1.10668E-18-1.32242E-18
 -1      2646 9.02292E-05-1.45516E-05-3.24532E-05 1.39100E-06 1.06467E-18-1.47827E-18
 -1      2647 9.01617E-05-1.44560E-05-3.24648E-05 4.52483E-07 9.07053E-19-1.50626E-18
 -1      2648 9.13961E-05-1.64144E-05-3.21212E-05 1.59216E-06 1.03232E-18-1.33821E-18
 -1      2649 9.21660E-05-1.74780E-05-3.20468E-05 6.36697E-06 1.73911E-18-3.96802E-19
 -1      2650 9.16386E-05-1.66705E-05-3.21522E-05 5.53145E-06 1.67274E-18-6.62782E-19
 -1      2651 9.35787E-05-1.97284E-05-3.16921E-05 7.49375E-06 1.74543E-18 8.28107E-20
 -1      2652 9.27954E-05-1.84648E-05-3.18735E-05 6.91318E-06 1.74145E-18-1.65846E-19
 -1      2653 9.34540E-05-1.97815E-05-3.15507E-05 5.61028E-06 1.59772E-18-2.45753E-19
 -1      2654 9.52313E-05-2.53651E-05-2.99538E-05 3.85414E-06 1.30819E-18 8.82090E-19
 -1      2655 9.55539E-05-2.45220E-05-3.04097E-05 5.50796E-06 1.42240E-18 1.01352E-18
 -1      2656 1.20301E-04-5.93635E-05-2.64121E-05 2.49015E-05-5.40619E-19 8.49124E-19
 -1      2657 1.05802E-04-5.33618E-05-2.20579E-05 3.09660E-05-1.58702E-18 1.71154E-18
 -1      2658 9.50246E-05-2.66276E-05-2.93165E-05 1.59614E-06 9.43463E-19 5.52103E-19
 -1      2659 9.52694E-05-2.61404E-05-2.95905E-05 2.63479E-06 1.11804E-18 7.53476E-19
 -1      2660 9.52928E-05-2.49544E-05-3.01421E-05 3.66228E-06 1.31313E-18 4.76407E-19
 -1      2661 1.38737E-04-5.79340E-05-3.51026E-05 1.54583E-06 4.45989E-19-1.07436E-18
 -1      2662 1.31378E-04-6.05364E-05-3.01673E-05 1.36474E-05-3.34949E-19 6.37922E-20
 -1      2663 1.26417E-04-5.81095E-05-2.88995E-05 1.44527E-05-1.16472E-18-7.34536E-19
 -1      2664 1.34109E-04-1.31113E-05-5.24935E-05 5.10812E-06 5.81467E-18 1.30369E-18
 -1      2665 9.43386E-05-2.08464E-05-3.15348E-05-8.14397E-06-1.10731E-18-1.30646E-18
 -1      2666 9.47510E-05-2.26111E-05-3.09338E-05-6.30119E-06-1.05260E-18-1.15448E-18
 -1      2667 9.53971E-05-2.58351E-05-2.97823E-05-2.53192E-06-6.25891E-19-8.15781E-19
 -1      2668 9.52310E-05-2.63938E-05-2.95116E-05-1.50101E-06-6.13364E-19-7.11078E-19
 -1      2669 9.52628E-05-2.68927E-05-2.92782E-05-7.05842E-07-6.52793E-19-6.92090E-19
 -1      2670 9.51522E-05-2.72322E-05-2.91130E-05-4.61653E-08-4.91016E-19-8.82271E-19
 -1      2671 9.54348E-05-2.61866E-05-2.96841E-05-1.34734E-06-6.83359E-19-7.42818E-19
 -1      2672 9.51263E-05-2.75140E-05-2.89614E-05 4.87167E-07-2.79536E-19-8.98511E-19
 -1      2673 9.50822E-05-2.77199E-05-2.88701E-05 9.12547E-07-1.89169E-19-7.85370E-19
 -1      2674 9.54533E-05-2.71350E-05-2.92872E-05 5.11747E-08-4.27527E-19-7.74596E-19
 -1      2675 9.50501E-05-2.78759E-05-2.87796E-05 1.27199E-06-2.76827E-19-7.12500E-19
 -1      2676 9.50678E-05-2.80020E-05-2.87406E-05 1.55353E-06-3.46392E-19-9.43530E-19
 -1      2677 9.54081E-05-2.76827E-05-2.90326E-05 1.00335E-06-2.76040E-19-7.35844E-19
 -1      2678 9.50467E-05-2.80795E-05-2.86952E-05 1.80515E-06-5.01021E-19-1.01475E-18
 -1      2679 9.51155E-05-2.81548E-05-2.86938E-05 2.00670E-06-6.10979E-19-9.99588E-19
 -1      2680 9.53665E-05-2.79843E-05-2.88843E-05 1.65947E-06-4.95884E-19-9.01354E-19
 -1      2681 9.51105E-05-2.81815E-05-2.86819E-05 2.20176E-06-5.01446E-19-8.49145E-19
 -1      2682 9.52216E-05-2.82244E-05-2.87082E-05 2.36802E-06-5.54827E-19-8.08456E-19
 -1      2683 9.53489E-05-2.81252E-05-2.88152E-05 2.14055E-06-4.90115E-19-8.73011E-19
 -1      2684 9.52344E-05-2.82189E-05-2.87210E-05 2.54424E-06-4.05892E-19-7.51670E-19
 -1      2685 9.53830E-05-2.82436E-05-2.87681E-05 2.70596E-06-2.23401E-19-5.58979E-19
 -1      2686 9.53624E-05-2.81605E-05-2.88049E-05 2.53882E-06-3.36755E-19-3.28104E-19
 -1      2687 9.54156E-05-2.82209E-05-2.87992E-05 2.88981E-06-3.00696E-19-3.04173E-19
 -1      2688 9.56014E-05-2.82407E-05-2.88622E-05 3.06646E-06-2.34556E-19-3.83034E-19
 -1      2689 9.54113E-05-2.81312E-05-2.88378E-05 2.92121E-06-1.21764E-19-1.30583E-19
 -1      2690 9.56586E-05-2.82159E-05-2.89061E-05 3.27445E-06-2.76361E-19-2.12776E-19
 -1      2691 9.58854E-05-2.82460E-05-2.89812E-05 3.47513E-06-1.24865E-19-2.75255E-19
 -1      2692 9.55029E-05-2.80735E-05-2.89015E-05 3.33293E-06-2.54783E-19-9.99238E-20
 -1      2693 9.59765E-05-2.82369E-05-2.90332E-05 3.71391E-06-2.28348E-19-5.38415E-19
 -1      2694 9.62524E-05-2.82963E-05-2.91169E-05 3.93682E-06-2.65773E-19-7.03955E-19
 -1      2695 9.56513E-05-2.80264E-05-2.89854E-05 3.79904E-06-5.14056E-19-3.63510E-19
 -1      2696 9.63931E-05-2.83263E-05-2.91726E-05 4.20213E-06-1.21386E-19-8.17862E-19
 -1      2697 9.67308E-05-2.84398E-05-2.92610E-05 4.43263E-06 2.54006E-21-8.33239E-19
 -1      2698 9.58817E-05-2.80384E-05-2.90797E-05 4.32375E-06-1.71222E-19-4.52093E-19
 -1      2699 9.69462E-05-2.85406E-05-2.93158E-05 4.70696E-06-1.75885E-19-6.75701E-19
 -1      2700 9.73628E-05-2.87400E-05-2.94047E-05 4.91470E-06-4.18250E-19-5.42616E-19
 -1      2701 9.62348E-05-2.81727E-05-2.91748E-05 4.88748E-06-2.43427E-19-5.55812E-19
 -1      2702 9.76904E-05-2.89531E-05-2.94546E-05 5.16360E-06-6.41351E-19-5.47800E-19
 -1      2703 9.82076E-05-2.92773E-05-2.95393E-05 5.29893E-06-9.77770E-19-4.42141E-19
 -1      2704 9.67725E-05-2.85129E-05-2.92620E-05 5.44134E-06-4.96010E-19-6.75314E-19
 -1      2705 9.86989E-05-2.96528E-05-2.95817E-05 5.46595E-06-1.22407E-18-3.51695E-20
 -1      2706 9.93402E-05-3.01425E-05-2.96585E-05 5.45693E-06-9.64369E-19-3.16156E-19
 -1      2707 9.75832E-05-2.91633E-05-2.93347E-05 5.89887E-06-9.14604E-19-2.47689E-19
 -1      2708 1.00059E-04-3.07315E-05-2.96951E-05 5.45771E-06-5.09215E-19-3.62681E-19
 -1      2709 1.00841E-04-3.14157E-05-2.97632E-05 5.21014E-06-1.55977E-19-6.94951E-19
 -1      2710 9.87824E-05-3.02402E-05-2.93926E-05 6.12516E-06-8.47135E-19 1.89564E-19
 -1      2711 1.01850E-04-3.22497E-05-2.98036E-05 4.92768E-06 3.09086E-21-8.36332E-19
 -1      2712 1.02766E-04-3.31156E-05-2.98694E-05 4.33323E-06-3.45214E-19-5.87268E-19
 -1      2713 1.00499E-04-3.18412E-05-2.94489E-05 5.92480E-06-2.45529E-19-5.02042E-19
 -1      2714 1.04094E-04-3.41644E-05-2.99368E-05 3.62098E-06-5.13881E-19 6.27019E-20
 -1      2715 1.05075E-04-3.51064E-05-3.00177E-05 2.58318E-06-2.64819E-19-2.17694E-19
 -1      2716 1.02833E-04-3.39757E-05-2.95403E-05 5.03526E-06-1.79618E-19-4.95022E-19
 -1      2717 1.06650E-04-3.62086E-05-3.01539E-05 1.29843E-06 2.54808E-19 5.79862E-20
 -1      2718 1.07531E-04-3.69682E-05-3.02820E-05-2.06047E-07 7.06756E-19 1.53176E-19
 -1      2719 1.05756E-04-3.64344E-05-2.97389E-05 3.14925E-06 1.46841E-19 1.10711E-18
 -1      2720 1.09093E-04-3.77651E-05-3.05468E-05-2.10894E-06 9.02467E-19 3.50739E-19
 -1      2721 1.09589E-04-3.79044E-05-3.07625E-05-3.93137E-06 6.10224E-19 4.33214E-19
 -1      2722 1.08949E-04-3.86198E-05-3.01582E-05 2.85823E-08 4.81266E-19 6.20872E-19
 -1      2723 1.10641E-04-3.78307E-05-3.12160E-05-6.22689E-06 1.74231E-19 4.85013E-19
 -1      2724 1.10415E-04-3.68271E-05-3.15524E-05-7.91670E-06-3.76625E-19 7.44239E-19
 -1      2725 1.11663E-04-3.94709E-05-3.09359E-05-4.23560E-06 5.46899E-19 6.43474E-19
 -1      2726 1.10332E-04-3.53294E-05-3.22126E-05-9.81614E-06-5.23676E-19 1.09083E-19
 -1      2727 1.09290E-04-3.30343E-05-3.26491E-05-1.05706E-05-7.27578E-19 1.99030E-19
 -1      2728 1.12705E-04-3.75450E-05-3.21712E-05-8.75216E-06-6.72758E-19 1.23302E-18
 -1      2729 1.07899E-04-3.01983E-05-3.34215E-05-1.08931E-05-2.38106E-19-3.90507E-19
 -1      2730 1.06429E-04-2.72576E-05-3.38586E-05-9.91044E-06-2.74366E-19-1.14085E-19
 -1      2731 1.11241E-04-3.23338E-05-3.37851E-05-1.14571E-05-5.70963E-19 3.41890E-19
 -1      2732 1.04559E-04-2.44870E-05-3.44772E-05-7.61158E-06-6.54809E-19-3.29186E-19
 -1      2733 1.03470E-04-2.24438E-05-3.47488E-05-5.01600E-06-1.36796E-19-5.27288E-19
 -1      2734 1.07789E-04-2.53811E-05-3.52655E-05-9.84404E-06-6.04735E-19 7.32803E-19
 -1      2735 1.02893E-04-2.13774E-05-3.49492E-05-6.64337E-07-1.42798E-19-6.55690E-19
 -1      2736 1.03095E-04-2.17856E-05-3.48960E-05 2.66507E-06-1.81110E-19-3.81046E-19
 -1      2737 1.05070E-04-2.05141E-05-3.62085E-05-3.20725E-06 2.64546E-19 4.09990E-19
 -1      2738 1.04128E-04-2.33333E-05-3.45733E-05 6.42339E-06 1.74436E-20-7.12841E-19
 -1      2739 1.05346E-04-2.56709E-05-3.42589E-05 8.83259E-06 9.95429E-20-4.97658E-19
 -1      2740 1.05648E-04-2.13495E-05-3.61791E-05 5.08484E-06-1.17771E-19 3.61478E-20
 -1      2741 1.07189E-04-2.86986E-05-3.35760E-05 1.04389E-05-8.32276E-20-4.76226E-19
 -1      2742 1.08623E-04-3.15704E-05-3.31275E-05 1.09736E-05 3.32776E-19-2.37716E-19
 -1      2743 1.08687E-04-2.69544E-05-3.50296E-05 1.06439E-05-3.71629E-19-1.36032E-19
 -1      2744 1.09741E-04-3.41502E-05-3.23724E-05 1.01958E-05 7.32798E-19-3.64658E-19
 -1      2745 1.10609E-04-3.61630E-05-3.19568E-05 9.14804E-06 5.65752E-19 2.58273E-19
 -1      2746 1.11783E-04-3.37701E-05-3.33839E-05 1.11248E-05 4.22018E-19 3.60717E-20
 -1      2747 1.10384E-04-3.72937E-05-3.13477E-05 7.06010E-06-3.28246E-19-4.88247E-19
 -1      2748 1.10416E-04-3.79830E-05-3.10455E-05 5.28968E-06-4.73821E-19-1.98312E-19
 -1      2749 1.12669E-04-3.82834E-05-3.18488E-05 7.79342E-06 1.81890E-19-3.58197E-19
 -1      2750 1.09195E-04-3.77943E-05-3.06436E-05 3.05779E-06-5.64353E-19 1.75255E-20
 -1      2751 1.08585E-04-3.74613E-05-3.04553E-05 1.29352E-06-7.97654E-19-2.50924E-19
 -1      2752 1.11127E-04-3.94259E-05-3.07329E-05 3.22378E-06-3.40535E-19-3.03140E-19
 -1      2753 1.06983E-04-3.65416E-05-3.02296E-05-4.56476E-07-1.32074E-18 1.46632E-19
 -1      2754 1.06065E-04-3.57018E-05-3.01201E-05-1.83933E-06-4.96316E-19 1.36572E-19
 -1      2755 1.08213E-04-3.81408E-05-3.00566E-05-7.89359E-07-7.09964E-19-2.69663E-19
 -1      2756 1.04534E-04-3.45806E-05-3.00087E-05-2.95825E-06-7.38494E-19 2.18902E-19
 -1      2757 1.03567E-04-3.36355E-05-2.99387E-05-3.86223E-06-8.52359E-19-3.12894E-19
 -1      2758 1.05033E-04-3.57877E-05-2.97078E-05-3.57234E-06-6.02828E-19 1.53454E-19
 -1      2759 1.02316E-04-3.26219E-05-2.98855E-05-4.43318E-06-3.82523E-19 1.59621E-19
 -1      2760 1.01441E-04-3.17896E-05-2.98267E-05-4.90739E-06-1.76517E-19 2.35948E-19
 -1      2761 1.02238E-04-3.33496E-05-2.95516E-05-5.14752E-06-5.68696E-19 7.24060E-19
 -1      2762 1.00508E-04-3.10056E-05-2.97945E-05-5.07903E-06-6.10993E-20-2.65587E-19
 -1      2763 9.97760E-05-3.03641E-05-2.97324E-05-5.22593E-06 1.93788E-20 1.18619E-19
 -1      2764 1.00059E-04-3.13138E-05-2.94837E-05-5.78817E-06-2.88303E-19-2.85393E-19
 -1      2765 9.91206E-05-2.98202E-05-2.97015E-05-5.13811E-06-4.64470E-19-2.04394E-19
 -1      2766 9.85310E-05-2.93688E-05-2.96319E-05-5.06356E-06-9.59043E-19-4.40879E-19
 -1      2767 9.84813E-05-2.98209E-05-2.94408E-05-5.79423E-06-4.91651E-19-8.42487E-19
 -1      2768 9.80871E-05-2.90261E-05-2.95949E-05-4.82492E-06-1.02391E-18 2.93224E-19
 -1      2769 9.76210E-05-2.87317E-05-2.95196E-05-4.61780E-06-4.56636E-20 7.17281E-19
 -1      2770 9.73915E-05-2.88316E-05-2.93926E-05-5.41160E-06-3.49431E-20-3.74671E-19
 -1      2771 9.73270E-05-2.85385E-05-2.94758E-05-4.30550E-06 4.22493E-19 9.10024E-19
 -1      2772 9.69609E-05-2.83606E-05-2.93987E-05-4.03248E-06-4.30875E-20 9.80780E-19
 -1      2773 9.66606E-05-2.82400E-05-2.93295E-05-4.82003E-06-4.80310E-20 7.21705E-19
 -1      2774 9.67681E-05-2.82692E-05-2.93506E-05-3.69803E-06 1.03228E-20 1.12632E-18
 -1      2775 9.64813E-05-2.81718E-05-2.92758E-05-3.40495E-06-4.18295E-20 7.86321E-19
 -1      2776 9.61787E-05-2.79324E-05-2.92526E-05-4.14289E-06-1.84711E-19 5.10834E-19
 -1      2777 9.63546E-05-2.81443E-05-2.92266E-05-3.08039E-06-7.03192E-19 5.74755E-19
 -1      2778 9.61300E-05-2.80986E-05-2.91574E-05-2.79601E-06-8.28327E-19 5.68550E-20
 -1      2779 9.58627E-05-2.78118E-05-2.91674E-05-3.46003E-06-6.61318E-19-1.45376E-19
 -1      2780 9.60454E-05-2.81073E-05-2.91102E-05-2.49931E-06-1.26166E-18 7.26969E-19
 -1      2781 9.58697E-05-2.80923E-05-2.90489E-05-2.23959E-06-6.07435E-19-3.65008E-19
 -1      2782 9.56540E-05-2.78040E-05-2.90806E-05-2.81922E-06-9.39876E-19 7.11916E-20
 -1      2783 9.58112E-05-2.81182E-05-2.90058E-05-1.97901E-06 4.22015E-19-4.52579E-19
 -1      2784 9.56735E-05-2.81189E-05-2.89534E-05-1.75075E-06 2.99159E-19-4.96745E-19
 -1      2785 9.55134E-05-2.78560E-05-2.89975E-05-2.24550E-06-3.93621E-19-7.29720E-19
 -1      2786 9.56301E-05-2.81490E-05-2.89157E-05-1.52756E-06 5.42882E-19-4.27705E-19
 -1      2787 9.55222E-05-2.81559E-05-2.88724E-05-1.33120E-06 1.14541E-18-1.28551E-18
 -1      2788 9.54139E-05-2.79312E-05-2.89222E-05-1.74805E-06 3.47489E-20-2.19007E-18
 -1      2789 9.54866E-05-2.81831E-05-2.88407E-05-1.14383E-06 1.90677E-18-1.62542E-18
 -1      2790 9.54022E-05-2.81886E-05-2.88060E-05-9.77223E-07 2.52516E-18-1.66821E-18
 -1      2791 9.53379E-05-2.80087E-05-2.88568E-05-1.32458E-06 1.56059E-18-1.33707E-18
 -1      2792 5.14024E-05-2.42808E-05-1.13538E-05 2.99238E-05-1.92276E-19 1.66378E-18
 -1      2793 4.02740E-05-1.70768E-05-9.39572E-06 1.95051E-05 2.12499E-19 1.40099E-18
 -1      2794 9.53366E-05-2.82106E-05-2.87677E-05-7.67062E-07 2.36122E-18-6.30805E-19
 -1      2795 9.52480E-05-2.81048E-05-2.87756E-05-8.04622E-07 2.19934E-18-1.78411E-18
 -1      2796 9.53843E-05-2.82055E-05-2.87878E-05-8.67691E-07 2.97487E-18-9.57627E-19
 -1      2797 9.46991E-05-2.77369E-05-2.86963E-05-8.49547E-07 7.79371E-19 1.16361E-19
 -1      2798 9.47417E-05-2.75602E-05-2.87749E-05-4.39421E-07 7.08889E-19 1.97577E-19
 -1      2799 9.49954E-05-2.81883E-05-2.86251E-05-2.28605E-06 2.22911E-19 6.52444E-19
 -1      2800 9.48323E-05-2.81423E-05-2.85794E-05-2.11917E-06 2.54786E-19 4.59941E-19
 -1      2801 9.52532E-05-2.82050E-05-2.87269E-05-2.64956E-06 6.82706E-19 4.97422E-19
 -1      2802 9.50444E-05-2.81794E-05-2.86568E-05-2.47260E-06 3.60155E-19 5.48784E-19
 -1      2803 9.51972E-05-2.81302E-05-2.87476E-05-2.51969E-06 2.74677E-19-7.90518E-20
 -1      2804 9.55739E-05-2.81814E-05-2.88728E-05-3.07477E-06 9.83064E-19 8.27313E-19
 -1      2805 9.53211E-05-2.81704E-05-2.87811E-05-2.85935E-06 9.28858E-19 7.37902E-19
 -1      2806 9.53169E-05-2.80748E-05-2.88216E-05-2.94226E-06 6.78576E-19 2.14563E-19
 -1      2807 9.59561E-05-2.81273E-05-2.90580E-05-3.61102E-06 5.96392E-19 9.49297E-19
 -1      2808 9.56567E-05-2.81252E-05-2.89457E-05-3.33463E-06 8.22222E-19 9.91874E-19
 -1      2809 9.54684E-05-2.79567E-05-2.89363E-05-3.43582E-06 7.40900E-19 6.04024E-19
 -1      2810 9.64035E-05-2.80542E-05-2.92791E-05-4.29694E-06 4.55939E-19 1.19945E-18
 -1      2811 9.60508E-05-2.80534E-05-2.91466E-05-3.94238E-06 5.29435E-19 1.17083E-18
 -1      2812 9.56452E-05-2.77872E-05-2.90840E-05-4.05019E-06 5.67542E-19 7.55982E-19
 -1      2813 9.69250E-05-2.79804E-05-2.95323E-05-5.15926E-06 1.17685E-19 8.70689E-19
 -1      2814 9.65090E-05-2.79690E-05-2.93802E-05-4.71593E-06 4.09108E-19 1.23897E-18
 -1      2815 9.58441E-05-2.75803E-05-2.92571E-05-4.82362E-06 4.52249E-19 1.66328E-18
 -1      2816 9.75381E-05-2.79398E-05-2.98109E-05-6.20784E-06 2.64711E-19 1.09329E-18
 -1      2817 9.70441E-05-2.78967E-05-2.96413E-05-5.67550E-06 8.05537E-20 9.86671E-19
 -1      2818 9.60670E-05-2.73598E-05-2.94464E-05-5.78196E-06 2.60371E-19 1.70081E-18
 -1      2819 9.82779E-05-2.79971E-05-3.01025E-05-7.42530E-06 4.70612E-19 1.42505E-18
 -1      2820 9.76830E-05-2.78841E-05-2.99206E-05-6.82118E-06 4.75102E-19 1.48840E-18
 -1      2821 9.63286E-05-2.71726E-05-2.96385E-05-6.93478E-06 1.64693E-19 2.12368E-18
 -1      2822 9.92152E-05-2.82714E-05-3.03870E-05-8.74916E-06-1.84003E-19 1.98881E-18
 -1      2823 9.84809E-05-2.80213E-05-3.02024E-05-8.11984E-06 8.20270E-20 1.53597E-18
 -1      2824 9.66713E-05-2.71090E-05-2.98136E-05-8.26757E-06-6.11183E-21 2.17584E-18
 -1      2825 1.00490E-04-2.89691E-05-3.06367E-05-1.00435E-05-9.01984E-19 2.28898E-18
 -1      2826 9.95489E-05-2.84701E-05-3.04631E-05-9.48281E-06-3.59645E-19 2.46892E-18
 -1      2827 9.71949E-05-2.73349E-05-2.99453E-05-9.72847E-06-6.42549E-19 2.60668E-18
 -1      2828 1.02355E-04-3.04146E-05-3.08227E-05-1.10567E-05-9.68258E-19 1.97925E-18
 -1      2829 1.01097E-04-2.94995E-05-3.06751E-05-1.07296E-05-8.78857E-19 1.96166E-18
 -1      2830 9.81055E-05-2.81338E-05-3.00036E-05-1.12055E-05-5.87854E-19 1.99477E-18
 -1      2831 1.05217E-04-3.30396E-05-3.09372E-05-1.13621E-05-8.55158E-19 1.56600E-18
 -1      2832 1.03488E-04-3.15054E-05-3.08196E-05-1.15296E-05-1.04966E-18 1.61677E-18
 -1      2833 9.97843E-05-2.99425E-05-2.99692E-05-1.24837E-05-8.48105E-19 1.37216E-18
 -1      2834 1.09585E-04-3.72159E-05-3.10431E-05-1.02795E-05-9.75885E-19 1.74765E-18
 -1      2835 1.07251E-04-3.49470E-05-3.09240E-05-1.13110E-05-6.90427E-19 1.65371E-18
 -1      2836 1.02851E-04-3.33280E-05-2.98698E-05-1.31553E-05-8.36926E-19 8.38771E-19
 -1      2837 1.15792E-04-4.27769E-05-3.13541E-05-6.87696E-06-1.19021E-18 2.05265E-18
 -1      2838 1.12922E-04-4.00328E-05-3.11295E-05-9.18370E-06-1.10162E-18 1.82171E-18
 -1      2839 1.08103E-04-3.87368E-05-2.98539E-05-1.24728E-05-9.12026E-19 1.13225E-18
 -1      2840 1.23311E-04-4.78967E-05-3.23721E-05-1.49885E-07-1.58111E-18 2.85874E-18
 -1      2841 1.20523E-04-4.59891E-05-3.18033E-05-3.93883E-06-1.35122E-18 2.55644E-18
 -1      2842 1.16136E-04-4.58148E-05-3.03151E-05-9.14112E-06-1.46772E-18 1.66637E-18
 -1      2843 1.29654E-04-4.82877E-05-3.49379E-05 9.35276E-06-1.78201E-18 3.38804E-18
 -1      2844 1.28277E-04-4.95888E-05-3.36781E-05 4.78492E-06-2.07988E-18 3.31036E-18
 -1      2845 1.26023E-04-5.12431E-05-3.21202E-05-1.35212E-06-2.15320E-18 2.04874E-18
 -1      2846 1.23139E-04-1.66779E-05-4.60386E-05-9.45020E-08 4.29965E-18 2.52961E-18
 -1      2847 1.24154E-04-1.87065E-05-4.57958E-05 8.42304E-06 4.47085E-18 3.62807E-18
 -1      2848 1.28840E-04-2.40787E-05-4.56785E-05-1.41631E-05 4.63496E-18-1.12168E-18
 -1      2849 1.26458E-04-1.80253E-05-4.71049E-05-9.15435E-06 4.46069E-18 5.83182E-19
 -1      2850 1.34813E-04-4.09973E-05-4.08029E-05-1.51173E-05 2.50552E-18-1.75421E-18
 -1      2851 1.32437E-04-3.33001E-05-4.29983E-05-1.66270E-05 3.80678E-18-1.24307E-18
 -1      2852 1.30160E-04-5.20429E-05-3.34688E-05-2.73843E-06-1.37908E-20-1.51905E-18
 -1      2853 1.32087E-04-5.02974E-05-3.50316E-05-7.23867E-06 4.59489E-19-1.99673E-18
 -1      2854 1.14144E-04-4.10348E-05-3.12191E-05 8.49882E-06-1.65890E-18-2.37715E-19
 -1      2855 1.17150E-04-4.37975E-05-3.14875E-05 5.92048E-06-9.70263E-19-9.33466E-19
 -1      2856 1.08129E-04-3.56935E-05-3.09696E-05 1.10162E-05-1.81305E-18-3.78712E-19
 -1      2857 1.10584E-04-3.80888E-05-3.10942E-05 9.80215E-06-1.92411E-18-5.63002E-19
 -1      2858 1.09274E-04-3.97927E-05-2.99055E-05 1.20198E-05-1.63296E-18-1.12307E-18
 -1      2859 1.04081E-04-3.19576E-05-3.08734E-05 1.14562E-05 6.09099E-19-1.55484E-19
 -1      2860 1.05900E-04-3.36209E-05-3.09815E-05 1.11876E-05-1.06528E-18-2.43869E-19
 -1      2861 1.03615E-04-3.40740E-05-2.98783E-05 1.30527E-05-1.66677E-18-1.28934E-18
 -1      2862 1.01518E-04-2.97293E-05-3.07532E-05 1.07323E-05 1.39467E-18 1.02382E-18
 -1      2863 1.02830E-04-3.07386E-05-3.08883E-05 1.10207E-05 1.29668E-18 3.13485E-19
 -1      2864 1.00230E-04-3.03444E-05-2.99910E-05 1.25034E-05 7.30206E-19-1.23272E-19
 -1      2865 9.98852E-05-2.85569E-05-3.05678E-05 9.47347E-06 6.01782E-19 9.65646E-19
 -1      2866 1.00850E-04-2.91155E-05-3.07291E-05 1.00395E-05 1.29503E-18 1.21775E-18
 -1      2867 9.83778E-05-2.82955E-05-3.00536E-05 1.12368E-05 1.25035E-18-5.59652E-20
 -1      2868 9.87902E-05-2.80248E-05-3.03318E-05 8.04053E-06 6.57500E-19 1.42032E-18
 -1      2869 9.95269E-05-2.83085E-05-3.05051E-05 8.70488E-06 1.03122E-18 2.07523E-18
 -1      2870 9.73855E-05-2.73442E-05-3.00246E-05 9.70687E-06-1.00099E-19-3.45953E-20
 -1      2871 9.80022E-05-2.78438E-05-3.00733E-05 6.63409E-06-9.18568E-20 1.58437E-18
 -1      2872 9.85834E-05-2.79731E-05-3.02439E-05 7.29255E-06 4.38658E-19 2.18596E-18
 -1      2873 9.68351E-05-2.70281E-05-2.99192E-05 8.15029E-06 3.48280E-20 1.99983E-18
 -1      2874 9.73970E-05-2.78365E-05-2.98170E-05 5.35550E-06-6.77634E-19 1.71509E-18
 -1      2875 9.78644E-05-2.78848E-05-2.99744E-05 5.95485E-06-5.77063E-19 1.67366E-18
 -1      2876 9.64963E-05-2.70413E-05-2.97669E-05 6.69300E-06-2.14823E-19 2.65635E-18
 -1      2877 9.69119E-05-2.79042E-05-2.95793E-05 4.24630E-06 1.02945E-19 8.28544E-19
 -1      2878 9.72903E-05-2.79128E-05-2.97179E-05 4.76474E-06-4.06824E-20 1.04883E-18
 -1      2879 9.62545E-05-2.72010E-05-2.95948E-05 5.39545E-06-2.85571E-19 2.58472E-18
 -1      2880 9.65159E-05-2.79955E-05-2.93695E-05 3.31385E-06 1.29443E-19 6.01723E-19
 -1      2881 9.68211E-05-2.79866E-05-2.94872E-05 3.74766E-06 1.83223E-19 7.69408E-19
 -1      2882 9.60591E-05-2.74082E-05-2.94227E-05 4.27934E-06 4.17146E-19 1.59409E-18
 -1      2883 9.61916E-05-2.80854E-05-2.91911E-05 2.54695E-06 6.55809E-19-2.00793E-19
 -1      2884 9.64357E-05-2.80706E-05-2.92881E-05 2.90200E-06 5.38045E-19-3.01266E-19
 -1      2885 9.58905E-05-2.76133E-05-2.92629E-05 3.34327E-06 8.14174E-19-9.87269E-19
 -1      2886 9.59272E-05-2.81624E-05-2.90440E-05 1.92563E-06 1.32392E-18-1.21970E-18
 -1      2887 9.61205E-05-2.81480E-05-2.91219E-05 2.21222E-06 4.85288E-19-1.00647E-18
 -1      2888 9.57422E-05-2.77941E-05-2.91222E-05 2.57297E-06 6.15238E-19-5.41499E-19
 -1      2889 9.57127E-05-2.82210E-05-2.89261E-05 1.42575E-06 1.12778E-18 4.37754E-19
 -1      2890 9.58639E-05-2.82101E-05-2.89872E-05 1.65601E-06 1.39535E-18-1.37232E-19
 -1      2891 9.56111E-05-2.79412E-05-2.90030E-05 1.94777E-06 9.80451E-19-4.20213E-19
 -1      2892 9.55416E-05-2.82605E-05-2.88338E-05 1.02394E-06 9.29539E-19 1.44677E-18
 -1      2893 9.56564E-05-2.82552E-05-2.88806E-05 1.20741E-06 1.32297E-18 7.56642E-19
 -1      2894 9.54930E-05-2.80515E-05-2.89053E-05 1.44375E-06 7.15769E-19 4.59257E-19
 -1      2895 9.53903E-05-2.82520E-05-2.87720E-05 7.48681E-07-8.47362E-20 2.35719E-18
 -1      2896 9.54765E-05-2.82477E-05-2.88077E-05 9.02839E-07 6.13297E-19 1.85602E-18
 -1      2897 9.53710E-05-2.80963E-05-2.88363E-05 1.08885E-06 3.73726E-20 7.78961E-20
 -1      2898 9.52648E-05-2.80944E-05-2.87914E-05 8.43802E-07-9.17554E-19 6.95792E-19
 -1      2899 9.44076E-05-2.71208E-05-2.88394E-05 5.98744E-08 1.31935E-18 2.46905E-19
 -1      2900 9.44229E-05-2.71360E-05-2.88388E-05 2.13039E-07 1.80365E-18-2.74292E-19
 -1      2901 9.46016E-05-2.73297E-05-2.88345E-05 6.63730E-07 2.30596E-19-1.51099E-18
 -1      2902 9.46939E-05-2.74265E-05-2.88282E-05 7.58427E-07-2.30929E-19-2.85149E-19
 -1      2903 9.44425E-05-2.71616E-05-2.88356E-05-2.71551E-07 1.12695E-18 7.80141E-19
 -1      2904 9.44155E-05-2.71327E-05-2.88381E-05-1.22107E-07 8.82014E-19 1.24729E-18
 -1      2905 9.42774E-05-2.69945E-05-2.88318E-05-4.04449E-08 1.79838E-18-3.38580E-20
 -1      2906 9.44617E-05-2.71780E-05-2.88390E-05 3.87321E-07-5.13868E-20-5.86031E-19
 -1      2907 9.45188E-05-2.72366E-05-2.88354E-05 5.21873E-07-1.13873E-19-1.20609E-18
 -1      2908 9.44512E-05-2.71614E-05-2.88351E-05 6.71126E-07-9.48024E-20-8.69315E-19
 -1      2909 9.43129E-05-2.70248E-05-2.88340E-05 3.35983E-07 1.05012E-18 5.03045E-19
 -1      2910 4.10385E-05-1.81526E-05-9.08613E-06-2.46824E-05 5.31090E-19 6.83174E-18
 -1      2911 5.01375E-05-2.42228E-05-1.07605E-05-3.32281E-05 1.36076E-18 6.73105E-18
 -1      2912 9.47048E-05-2.18789E-05-3.12173E-05 7.75872E-06 1.68498E-18 8.92515E-19
 -1      2913 9.45567E-05-2.72901E-05-2.88282E-05-5.56761E-07 1.04910E-18-1.32951E-19
 -1      2914 9.44933E-05-2.72231E-05-2.88335E-05-4.33693E-07 7.43616E-19-8.05125E-20
 -1      2915 9.43451E-05-2.70696E-05-2.88290E-05-4.03378E-07 1.32668E-18 2.61420E-19
 -1      2916 9.47380E-05-2.74948E-05-2.88171E-05-7.67021E-07 4.76410E-19 9.29777E-19
 -1      2917 9.46446E-05-2.73950E-05-2.88250E-05-6.83118E-07 7.81127E-19-2.24123E-20
 -1      2918 9.45039E-05-2.72386E-05-2.88253E-05-7.08011E-07 5.63355E-19 6.44516E-20
 -1      2919 9.49599E-05-2.77516E-05-2.88027E-05-8.67581E-07 1.19339E-18 7.31140E-19
 -1      2920 9.48526E-05-2.76306E-05-2.88128E-05-8.39406E-07 8.75807E-19 1.26787E-18
 -1      2921 9.47333E-05-2.74817E-05-2.88204E-05-9.17582E-07 1.29946E-19 9.86749E-19
 -1      2922 9.51494E-05-2.79759E-05-2.87880E-05-8.34310E-07 2.37297E-18-1.62632E-18
 -1      2923 9.48109E-05-2.73281E-05-2.89215E-05 1.09813E-07 6.73140E-19 2.83929E-19
 -1      2924 9.49573E-05-2.70448E-05-2.90790E-05 7.60359E-07 7.58075E-19 3.73265E-19
 -1      2925 9.52959E-05-2.64021E-05-2.95311E-05 1.49925E-06 9.92428E-19 1.33478E-19
 -1      2926 9.51989E-05-2.72388E-05-2.91340E-05 3.01193E-08 8.12978E-19-1.55726E-19
 -1      2927 1.06438E-04-5.40772E-05-2.26495E-05 3.39689E-05 1.54605E-18 8.81351E-19
 -1      2928 9.04451E-05-4.56108E-05-1.87529E-05 3.71341E-05 1.74933E-18 4.92761E-19
 -1      2929 4.18859E-05-1.55913E-05-1.08593E-05 1.91019E-05 1.63869E-18-8.84514E-19
 -1      2930 3.26511E-05-1.22553E-05-8.11421E-06 7.00531E-06 1.33582E-18-1.86750E-18
 -1      2931 9.48075E-05-2.81193E-05-2.85756E-05-1.92216E-06 2.39110E-19 2.93789E-19
 -1      2932 9.46978E-05-2.80454E-05-2.85597E-05-1.72899E-06 4.10748E-19 1.89347E-19
 -1      2933 9.51176E-05-2.81081E-05-2.87242E-05-2.10503E-06 2.03475E-19-4.04555E-20
 -1      2934 9.47027E-05-2.79795E-05-2.85921E-05-1.47822E-06 6.39695E-19 1.84887E-19
 -1      2935 9.46604E-05-2.78658E-05-2.86157E-05-1.21011E-06 6.98832E-19 2.23906E-19
 -1      2936 9.50877E-05-2.79853E-05-2.87657E-05-1.61775E-06 5.24620E-19 4.53933E-20
 -1      2937 9.52499E-05-2.40258E-05-3.05099E-05-5.03265E-06-8.79712E-19-9.89753E-19
 -1      2938 9.51847E-05-2.50085E-05-3.00942E-05-3.49547E-06-7.06502E-19-9.24440E-19
 -1      2939 9.52539E-05-2.47227E-05-3.02400E-05-3.21362E-06-7.07615E-19-1.04360E-18
 -1      2940 9.46016E-05-2.23272E-05-3.09660E-05-5.55033E-06-8.13930E-19-1.25051E-18
 -1      2941 1.34864E-04-2.85504E-05-4.58768E-05 1.09689E-05-1.83976E-18-3.10808E-18
 -1      2942 1.32303E-04-2.04792E-05-4.86244E-05 1.04290E-05-1.82324E-18-1.98132E-18
 -1      2943 9.81232E-05-5.13752E-05-1.96468E-05-3.78198E-05 1.17113E-18-8.23435E-19
 -1      2944 1.12817E-04-5.66572E-05-2.43091E-05-3.26927E-05 6.91391E-19-2.19808E-18
 -1      2945 1.36815E-04-4.56011E-05-3.96906E-05-3.74839E-06-7.37130E-19 1.29151E-18
 -1      2946 1.35337E-04-5.27699E-05-3.54036E-05 4.11480E-06-2.31505E-19 1.93653E-18
 -1      2947 9.11923E-05-1.59840E-05-3.22599E-05 4.82243E-06 1.59472E-18-8.34655E-19
 -1      2948 9.08441E-05-1.54733E-05-3.23242E-05 3.91074E-06 1.36356E-18-1.05407E-18
 -1      2949 9.18022E-05-1.70445E-05-3.20226E-05 3.10949E-06 1.24158E-18-1.03127E-18
 -1      2950 9.24879E-05-1.81393E-05-3.18434E-05 4.49850E-06 1.42806E-18-6.49679E-19
 -1      2951 9.08048E-05-1.54231E-05-3.23284E-05-3.84997E-06 1.31588E-19-1.62282E-18
 -1      2952 9.11419E-05-1.59185E-05-3.22653E-05-4.76184E-06-9.67367E-20-1.62150E-18
 -1      2953 1.30868E-04-5.76717E-05-3.17483E-05 1.45439E-05-2.94026E-19 2.73396E-18
 -1      2954 1.20294E-04-5.70827E-05-2.68031E-05 2.35007E-05 7.87582E-19 1.60269E-18
 -1      2955 1.30919E-04-5.42035E-05-3.28491E-05 5.55191E-06 2.05273E-19 1.77972E-18
 -1      2956 1.42138E-04-4.40270E-05-4.22522E-05 1.26379E-05 3.62848E-19 1.94119E-18
 -1      2957 1.37845E-04-3.41295E-05-4.51284E-05 1.60256E-05 1.30327E-18 2.59097E-18
 -1      2958 1.31555E-04-2.57304E-05-4.59528E-05-1.15392E-05-2.90532E-18 1.32307E-18
 -1      2959 1.35712E-04-3.63017E-05-4.28671E-05-9.62409E-06-2.12701E-18 1.07563E-18
 -1      2960 1.32385E-04-4.18546E-05-3.89772E-05-8.34609E-06-7.12037E-19 1.02576E-18
 -1      2961 1.40961E-04-5.66897E-05-3.60172E-05-7.55784E-07-1.44173E-18 1.03518E-18
 -1      2962 1.43002E-04-5.13494E-05-3.99640E-05 6.44876E-06-2.05617E-19 1.79455E-18
 -1      2963 1.38948E-04-4.69762E-05-3.94785E-05 1.25294E-05-2.71580E-20 2.41553E-18
 -1      2964 1.19112E-04-5.85990E-05-2.55760E-05-2.48064E-05-3.10078E-18-6.87897E-19
 -1      2965 1.33144E-04-6.12219E-05-3.12524E-05-1.41806E-05-2.35210E-18 1.48972E-19
 -1      2966 8.92996E-05-4.62045E-05-1.80059E-05-3.60018E-05-2.38112E-18-2.08063E-18
 -1      2967 1.04106E-04-5.40400E-05-2.16155E-05-3.39377E-05-2.75720E-18-2.07550E-18
 -1      2968 3.42621E-05-1.26946E-05-8.76506E-06-6.31487E-06 8.25354E-19-2.78631E-18
 -1      2969 4.40338E-05-1.73434E-05-1.09295E-05-2.18654E-05 1.70465E-20-3.69518E-18
 -1      2970 4.42287E-05-1.27759E-05-1.29610E-05-3.00389E-06 9.72460E-19-2.12648E-18
 -1      2971 7.30705E-05-3.58010E-05-1.58060E-05 3.80825E-05 1.89270E-18-1.61995E-20
 -1      2972 5.70611E-05-2.53665E-05-1.31536E-05 3.19043E-05 1.91599E-18-2.92438E-19
 -1      2973 5.37279E-05-2.48503E-05-1.18725E-05-2.95327E-05-6.22199E-19-3.86332E-18
 -1      2974 7.07615E-05-3.59945E-05-1.47407E-05-3.66125E-05-1.63054E-18-3.39247E-18
 -1      2975 5.68543E-05-2.14954E-05-1.46337E-05-2.35151E-05-3.72800E-19-3.45441E-18
 -1      2976 1.37409E-04-4.89686E-05-3.78562E-05 3.79841E-07-8.68421E-19-3.05684E-18
 -1      2977 1.37403E-04-4.01604E-05-4.23426E-05 6.84782E-06-1.38490E-18-2.89071E-18
 -1      2978 6.40538E-05-3.33258E-05-1.26860E-05-3.85247E-05 2.54226E-18 4.66069E-18
 -1      2979 8.11866E-05-4.36170E-05-1.60123E-05-4.17165E-05 2.14352E-18 1.13195E-18
 -1      2980 9.30378E-05-4.68493E-05-1.93785E-05-3.65870E-05 2.35486E-18-6.24210E-19
 -1      2981 8.61264E-05-4.43073E-05-1.80154E-05 3.68077E-05-1.46685E-18 1.97740E-18
 -1      2982 6.79768E-05-3.36325E-05-1.41678E-05 3.48311E-05-1.29109E-18 1.62164E-18
 -1      2983 1.29843E-04-1.42543E-05-5.01003E-05 8.91705E-06-1.45563E-18-1.35398E-18
 -1      2984 1.26985E-04-9.74823E-06-5.08903E-05 5.17162E-06-1.90731E-18-3.54483E-19
 -1      2985 1.25919E-04-1.87362E-05-4.63551E-05 1.09416E-05-1.05276E-18-2.93534E-18
 -1      2986 9.20519E-05-1.66216E-05-3.23355E-05-8.93659E-06-9.53309E-19-1.67930E-18
 -1      2987 1.25319E-04-5.80999E-05-2.85228E-05-2.21421E-05 1.40290E-20-2.56958E-18
 -1      2988 1.33596E-04-5.65502E-05-3.35701E-05-1.23215E-05-2.37328E-19-2.34776E-18
 -1      2989 1.30451E-04-2.22192E-05-4.68287E-05 1.37011E-05 2.79224E-18 2.54925E-18
 -1      2990 1.23793E-04-2.53087E-05-4.24713E-05 1.34907E-05 2.29504E-18 3.98943E-18
 -1      2991 1.26532E-04-3.23128E-05-4.09854E-05 1.74766E-05 1.49967E-18 3.49383E-18
 -1      2992 1.35467E-04-2.97696E-05-4.59228E-05 1.64980E-05 1.76077E-18 2.70309E-18
 -1      2993 9.24331E-05-1.80649E-05-3.18518E-05-4.45907E-06-1.79287E-19-1.42416E-18
 -1      2994 9.15757E-05-1.65815E-05-3.21606E-05-5.47820E-06-2.42523E-19-1.59274E-18
 -1      2995 9.20589E-05-1.72975E-05-3.20642E-05-6.30637E-06-5.59055E-19-1.57014E-18
 -1      2996 9.12572E-05-1.62027E-05-3.21532E-05 2.68264E-08 8.04444E-19-1.34931E-18
 -1      2997 9.01570E-05-1.44509E-05-3.24652E-05-3.73386E-07 7.86872E-19-1.54545E-18
 -1      2998 9.02148E-05-1.45338E-05-3.24545E-05-1.31238E-06 6.75150E-19-1.67204E-18
 -1      2999 9.95514E-05-4.76251E-05-2.17235E-05 3.00678E-05-1.48713E-18 1.42955E-18
 -1      3000 1.31816E-04-3.51224E-05-4.17424E-05 1.07615E-05-9.43383E-19-3.39724E-18
 -1      3001 1.33260E-04-5.23681E-05-3.47052E-05-3.43736E-06 3.84143E-20-2.94397E-18
 -1      3002 4.83542E-05-1.56995E-05-1.35301E-05 1.57690E-05-4.30107E-19 1.67670E-18
 -1      3003 3.90859E-05-1.38625E-05-1.01978E-05 1.20507E-05-8.86738E-21 2.53009E-18
 -1      3004 3.97208E-05-1.16202E-05-1.17950E-05 2.92250E-06-4.09461E-19 3.30396E-18
 -1      3005 9.52862E-05-2.80680E-05-2.88096E-05-1.01871E-06 3.08513E-18-1.66787E-18
 -1      3006 6.54965E-05-2.85094E-05-1.53154E-05 3.00265E-05-1.12295E-18 1.11438E-18
 -1      3007 9.51172E-05-2.77223E-05-2.88925E-05-9.52213E-07 7.29578E-19-1.36465E-19
 -1      3008 1.33088E-04-4.76417E-05-3.66676E-05 1.21749E-05-9.81076E-19 2.94709E-18
 -1      3009 1.35292E-04-5.35766E-05-3.53552E-05 5.22053E-06-2.02023E-18 2.16036E-18
 -1      3010 1.29250E-04-3.60206E-05-4.01997E-05 1.73140E-05 1.23662E-18 3.19456E-18
 -1      3011 1.30623E-04-4.23255E-05-3.83249E-05 1.56181E-05-4.78997E-19 3.40018E-18
 -1      3012 5.18451E-05-1.94200E-05-1.33471E-05 2.50668E-05 1.46902E-18-5.03243E-19
 -1      3013 4.87075E-05-1.45314E-05-1.45151E-05 1.51748E-05 1.00657E-18-9.67841E-19
 -1      3014 6.29669E-05-2.36970E-05-1.65315E-05 2.65369E-05 1.60129E-18-2.10699E-19
 -1      3015 1.22213E-04-4.70288E-05-3.20529E-05 2.72351E-06-5.77326E-19-1.26739E-18
 -1      3016 1.25364E-04-4.87124E-05-3.27823E-05-1.68191E-06-3.62173E-20-7.09390E-19
 -1      3017 9.51352E-05-2.79319E-05-2.88001E-05 8.75283E-07-1.62089E-18-1.21301E-18
 -1      3018 9.51781E-05-2.79241E-05-2.88192E-05 9.98332E-07-1.76776E-18-1.56462E-18
 -1      3019 9.50176E-05-2.77990E-05-2.88120E-05 8.94358E-07-2.46195E-18-1.78011E-18
 -1      3020 4.14407E-05-1.51768E-05-1.06636E-05-1.64109E-05-3.47231E-19 6.05819E-18
 -1      3021 8.54064E-05-4.02189E-05-1.90013E-05 3.44056E-05 1.56145E-18 3.32990E-19
 -1      3022 8.34025E-05-3.94818E-05-1.84091E-05-3.29146E-05-1.67405E-18-2.20244E-18
 -1      3023 9.43664E-05-2.13836E-05-3.12831E-05 7.11111E-06 1.66670E-18 4.12713E-19
 -1      3024 9.51676E-05-2.79548E-05-2.88063E-05-9.99546E-07 2.81561E-18-6.50573E-19
 -1      3025 9.50480E-05-2.78447E-05-2.88025E-05-9.20854E-07 1.85829E-18 5.95498E-19
 -1      3026 9.49688E-05-2.77202E-05-2.88186E-05-1.04199E-06 1.36472E-18 1.60359E-18
 -1      3027 9.51906E-05-2.79276E-05-2.88238E-05-1.11676E-06 2.19418E-18-2.30781E-20
 -1      3028 1.27823E-04-2.10575E-05-4.63147E-05-1.17526E-05-2.62855E-18 7.95152E-19
 -1      3029 1.25405E-04-2.71127E-05-4.22761E-05-1.27664E-05-2.38154E-18 1.17928E-18
 -1      3030 1.21542E-04-1.57540E-05-4.58500E-05-1.02237E-05-2.45068E-18 1.75865E-19
 -1      3031 6.33010E-05-2.91884E-05-1.41246E-05-3.39731E-05 2.38323E-18 4.40245E-18
 -1      3032 1.27430E-04-5.46139E-05-3.15525E-05 5.18952E-06-7.42146E-19-1.30718E-18
 -1      3033 1.23637E-04-9.30685E-06-4.95928E-05 1.36532E-06-2.70669E-18-1.11819E-18
 -1      3034 1.18806E-04-9.83823E-06-4.72425E-05-2.72394E-06-3.10501E-18-1.68419E-18
 -1      3035 1.18990E-04-1.08943E-05-4.66570E-05 4.64682E-06-2.06750E-18-2.78982E-18
 -1      3036 9.03434E-05-1.47324E-05-3.24253E-05-2.12753E-06 5.22775E-19-1.49554E-18
 -1      3037 9.05322E-05-1.50041E-05-3.23909E-05-3.06198E-06 2.37918E-19-1.52923E-18
 -1      3038 9.17676E-05-1.70000E-05-3.20271E-05-3.05419E-06 1.42730E-19-1.45648E-18
 -1      3039 9.13790E-05-1.63935E-05-3.21230E-05-1.53678E-06 5.04695E-19-1.42756E-18
 -1      3040 9.47941E-05-2.75432E-05-2.88258E-05 8.30453E-07-8.98168E-19 3.10275E-19
 -1      3041 9.49056E-05-2.76644E-05-2.88169E-05 8.71609E-07-2.06015E-18-1.00787E-19
 -1      3042 9.49044E-05-2.76276E-05-2.88297E-05 9.99816E-07-1.13497E-18-1.09801E-18
 -1      3043 9.46630E-05-2.73756E-05-2.88344E-05 8.97550E-07 5.93863E-19 3.78185E-19
 -1      3044 1.15241E-04-5.46155E-05-2.57897E-05 2.44683E-05 7.95205E-19 1.05792E-18
 -1      3045 1.19655E-04-5.69410E-05-2.66975E-05-2.43783E-05 6.22993E-19-1.71365E-18
 -1      3046 1.35510E-04-5.80964E-05-3.31344E-05-4.25263E-06-2.69171E-18 1.28887E-18
 -1      3047 1.14737E-04-5.55530E-05-2.51604E-05-2.48281E-05-3.00083E-18-6.23363E-19
 -1      3048 9.46304E-05-2.24052E-05-3.09457E-05 5.56482E-06 1.54927E-18 2.21618E-19
 -1      3049 9.28385E-05-1.83710E-05-3.19104E-05-7.37161E-06-7.92108E-19-1.57514E-18
 -1      3050 1.17830E-04-4.71118E-05-3.05285E-05 8.24222E-06-1.02179E-18-9.02725E-19
 -1      3051 9.42863E-05-2.17517E-05-3.11077E-05 4.82175E-06 1.51344E-18-1.20665E-19
 -1      3052 9.38202E-05-2.07912E-05-3.13001E-05 4.47308E-06 1.45652E-18-3.38884E-19
 -1      3053 1.20425E-04-5.31880E-05-2.86332E-05 1.35336E-05-1.44076E-18-6.07041E-19
 -1      3054 9.56701E-05-2.66498E-05-2.95669E-05-3.78110E-07-5.21553E-19-6.02631E-19
 -1      3055 9.56518E-05-2.70599E-05-2.94030E-05 2.18710E-07-4.50779E-19-7.53629E-19
 -1      3056 9.56770E-05-2.73963E-05-2.92532E-05 6.81936E-07-3.92709E-19-7.08979E-19
 -1      3057 9.56494E-05-2.76386E-05-2.91500E-05 1.09242E-06-3.89574E-19-9.56524E-19
 -1      3058 9.58211E-05-2.69675E-05-2.95115E-05 3.25753E-07-4.40677E-19-8.35604E-19
 -1      3059 9.56163E-05-2.78169E-05-2.90508E-05 1.42208E-06-4.07222E-19-9.12646E-19
 -1      3060 9.55973E-05-2.79456E-05-2.89932E-05 1.71395E-06-4.75847E-19-8.74980E-19
 -1      3061 9.58183E-05-2.75687E-05-2.92533E-05 1.15323E-06-4.54410E-19-9.70997E-19
 -1      3062 9.55331E-05-2.80159E-05-2.89330E-05 1.96233E-06-4.47195E-19-8.78630E-19
 -1      3063 9.55287E-05-2.80674E-05-2.89095E-05 2.18868E-06-3.95361E-19-7.06944E-19
 -1      3064 9.57265E-05-2.78703E-05-2.90845E-05 1.76038E-06-4.39067E-19-8.69305E-19
 -1      3065 9.54482E-05-2.80637E-05-2.88786E-05 2.39794E-06-3.10797E-19-5.93480E-19
 -1      3066 9.54607E-05-2.80639E-05-2.88804E-05 2.59867E-06-2.03897E-19-5.71784E-19
 -1      3067 9.55869E-05-2.79640E-05-2.89840E-05 2.24118E-06-2.36034E-19-6.45354E-19
 -1      3068 9.53731E-05-2.80114E-05-2.88707E-05 2.80165E-06-2.83945E-21-3.52889E-19
 -1      3069 9.54050E-05-2.79814E-05-2.88907E-05 3.00523E-06 1.80754E-19-1.44008E-19
 -1      3070 9.54229E-05-2.79151E-05-2.89341E-05 2.67150E-06 7.06257E-20-5.27559E-19
 -1      3071 9.53182E-05-2.79022E-05-2.88952E-05 3.22605E-06 1.29401E-20-1.41371E-19
 -1      3072 9.53747E-05-2.78629E-05-2.89276E-05 3.45077E-06-2.47778E-19-6.50960E-21
 -1      3073 9.52513E-05-2.77768E-05-2.89194E-05 3.10961E-06 9.52420E-20-1.29374E-19
 -1      3074 9.52990E-05-2.77799E-05-2.89400E-05 3.70527E-06-4.58218E-19 1.93885E-19
 -1      3075 9.53895E-05-2.77552E-05-2.89795E-05 3.95955E-06-3.65211E-19 1.81707E-19
 -1      3076 9.50901E-05-2.75996E-05-2.89262E-05 3.59696E-06-7.29302E-20 1.41252E-19
 -1      3077 9.53410E-05-2.76963E-05-2.89937E-05 4.25529E-06-4.91182E-19 1.37508E-19
 -1      3078 9.54819E-05-2.77164E-05-2.90352E-05 4.53703E-06-2.86746E-19-6.83033E-20
 -1      3079 9.49651E-05-2.74398E-05-2.89415E-05 4.15888E-06-3.20600E-19 5.84057E-19
 -1      3080 9.54862E-05-2.77182E-05-2.90454E-05 4.87246E-06-1.63472E-19-1.90559E-19
 -1      3081 9.57032E-05-2.78231E-05-2.90840E-05 5.16725E-06-1.85281E-19-1.49896E-19
 -1      3082 9.49170E-05-2.73679E-05-2.89530E-05 4.80428E-06-2.88259E-19 1.44330E-20
 -1      3083 9.58013E-05-2.79344E-05-2.90851E-05 5.52959E-06-5.05275E-19-2.18847E-19
 -1      3084 9.61326E-05-2.81763E-05-2.91166E-05 5.80773E-06-6.75747E-19-3.75343E-19
 -1      3085 9.50111E-05-2.74769E-05-2.89492E-05 5.52336E-06-2.82795E-19 1.02150E-19
 -1      3086 9.63857E-05-2.84606E-05-2.91054E-05 6.16886E-06-6.27831E-19-2.11567E-19
 -1      3087 9.68839E-05-2.89034E-05-2.91277E-05 6.38107E-06-8.84293E-19 1.95323E-19
 -1      3088 9.53472E-05-2.78889E-05-2.89211E-05 6.28241E-06-5.67787E-19-1.54448E-19
 -1      3089 9.73791E-05-2.94375E-05-2.91050E-05 6.69014E-06-9.77865E-19 3.71912E-19
 -1      3090 9.81095E-05-3.01498E-05-2.91207E-05 6.76165E-06-5.56446E-19 5.99676E-19
 -1      3091 9.60713E-05-2.87583E-05-2.88661E-05 7.01348E-06-6.53945E-19 3.94604E-19
 -1      3092 9.89595E-05-3.10121E-05-2.90963E-05 6.93222E-06-4.93895E-19-8.84273E-20
 -1      3093 9.99865E-05-3.20450E-05-2.91177E-05 6.75638E-06-4.71025E-19-5.31374E-19
 -1      3094 9.73822E-05-3.02601E-05-2.87947E-05 7.59477E-06-9.39071E-19 3.54238E-19
 -1      3095 1.01316E-04-3.32856E-05-2.91171E-05 6.64756E-06 2.95529E-19-7.75263E-20
 -1      3096 1.02669E-04-3.46247E-05-2.91717E-05 6.08311E-06 3.23547E-19 6.15856E-19
 -1      3097 9.95195E-05-3.25502E-05-2.87428E-05 7.81722E-06 5.09097E-20 3.65906E-19
 -1      3098 1.04567E-04-3.61988E-05-2.92459E-05 5.47549E-06 1.30642E-19 1.06024E-18
 -1      3099 1.06169E-04-3.76666E-05-2.93836E-05 4.36164E-06 3.98914E-19 1.08299E-18
 -1      3100 1.02712E-04-3.56691E-05-2.87892E-05 7.33619E-06 7.20077E-19 4.72006E-19
 -1      3101 1.08576E-04-3.93143E-05-2.96185E-05 2.98195E-06 2.87634E-19 8.90112E-19
 -1      3102 1.10171E-04-4.04753E-05-2.99133E-05 1.21831E-06 6.64087E-19 8.60747E-19
 -1      3103 1.07024E-04-3.93182E-05-2.90783E-05 5.63806E-06 3.20420E-19 4.41159E-19
 -1      3104 1.12646E-04-4.15287E-05-3.04325E-05-1.15371E-06 1.05487E-18 9.10377E-19
 -1      3105 1.13691E-04-4.16040E-05-3.09610E-05-3.38194E-06 6.04528E-19 6.81917E-19
 -1      3106 1.12018E-04-4.25107E-05-2.98423E-05 2.06984E-06 8.39893E-19 1.52464E-18
 -1      3107 1.15507E-04-4.11106E-05-3.18780E-05-6.60370E-06-3.07601E-19 1.58110E-18
 -1      3108 1.15364E-04-3.90997E-05-3.26875E-05-8.64034E-06-8.45365E-19 1.49885E-18
 -1      3109 1.16513E-04-4.35761E-05-3.13626E-05-3.40354E-06 4.59055E-19 9.17859E-19
 -1      3110 1.15191E-04-3.61447E-05-3.40109E-05-1.13077E-05-1.19624E-18 1.68068E-18
 -1      3111 1.13490E-04-3.21619E-05-3.48458E-05-1.16935E-05-1.07989E-18 1.54336E-18
 -1      3112 1.18341E-04-3.97719E-05-3.36947E-05-9.36458E-06-8.32342E-19 1.97003E-18
 -1      3113 1.14541E-04-2.62011E-05-3.80953E-05-1.23794E-05-7.76650E-19 1.20614E-18
 -1      3114 1.12038E-04-2.10713E-05-3.91581E-05-1.02485E-05-8.01505E-19 9.72599E-19
 -1      3115 1.09386E-04-1.60494E-05-4.02296E-05-4.04728E-06-8.38192E-19 2.98261E-19
 -1      3116 1.09043E-04-1.52537E-05-4.04478E-05 6.86786E-07-8.91582E-19-4.24393E-19
 -1      3117 1.10561E-04-2.46807E-05-3.68020E-05 1.09054E-05-7.20031E-19-1.17784E-18
 -1      3118 1.12608E-04-2.93588E-05-3.58906E-05 1.22820E-05-5.87748E-19-8.97802E-19
 -1      3119 1.14329E-04-3.39697E-05-3.44288E-05 1.15723E-05-3.79769E-19-4.77990E-19
 -1      3120 1.15625E-04-3.77394E-05-3.34633E-05 1.04799E-05 4.89764E-19-5.62031E-19
 -1      3121 1.16954E-04-3.28341E-05-3.60866E-05 1.23995E-05-2.06147E-19-2.02807E-18
 -1      3122 1.15162E-04-4.00576E-05-3.22286E-05 7.50294E-06 1.71412E-19-1.05528E-18
 -1      3123 1.15016E-04-4.15175E-05-3.14892E-05 5.33123E-06-1.77301E-19-1.04604E-18
 -1      3124 1.18256E-04-4.10632E-05-3.31298E-05 8.10388E-06-2.15583E-19-1.79943E-18
 -1      3125 1.12987E-04-4.15400E-05-3.06753E-05 2.24547E-06-4.19897E-19-1.04523E-18
 -1      3126 1.11747E-04-4.11342E-05-3.02089E-05 1.18236E-07-6.77291E-19-1.07551E-18
 -1      3127 1.15612E-04-4.36331E-05-3.09125E-05 1.85838E-06-6.19691E-20-2.09136E-18
 -1      3128 1.09218E-04-3.98392E-05-2.97715E-05-2.03961E-06-7.66744E-19-1.36476E-18
 -1      3129 1.07562E-04-3.85296E-05-2.95244E-05-3.60826E-06-5.53673E-19-1.28374E-18
 -1      3130 1.10821E-04-4.18850E-05-2.96103E-05-3.16299E-06-9.40604E-19-3.26190E-18
 -1      3131 1.05282E-04-3.68652E-05-2.93393E-05-4.77190E-06-2.07058E-19-1.07921E-18
 -1      3132 1.03697E-04-3.53802E-05-2.92306E-05-5.72075E-06 2.31999E-20-5.67680E-19
 -1      3133 1.05884E-04-3.83613E-05-2.89935E-05-6.12561E-06 8.25394E-20-2.57022E-18
 -1      3134 1.01953E-04-3.38666E-05-2.91839E-05-6.15391E-06-6.71861E-19-5.07742E-19
 -1      3135 1.00659E-04-3.25791E-05-2.91453E-05-6.59741E-06-7.52300E-19-8.97243E-19
 -1      3136 1.01815E-04-3.47338E-05-2.87878E-05-7.41887E-06-4.77122E-19-2.23835E-18
 -1      3137 9.94598E-05-3.14155E-05-2.91589E-05-6.58007E-06-6.93944E-19-6.63279E-19
 -1      3138 9.84985E-05-3.04485E-05-2.91458E-05-6.66755E-06-8.62414E-19-1.00987E-18
 -1      3139 9.88722E-05-3.17655E-05-2.87843E-05-7.62421E-06-7.50161E-19-2.06214E-18
 -1      3140 9.77416E-05-2.96522E-05-2.91754E-05-6.40399E-06-1.29000E-18-3.43718E-19
 -1      3141 9.70682E-05-2.89969E-05-2.91643E-05-6.26475E-06-5.71990E-19-1.23889E-18
 -1      3142 9.69341E-05-2.96381E-05-2.88547E-05-7.21593E-06-1.20402E-18-9.08210E-19
 -1      3143 9.66302E-05-2.85083E-05-2.91885E-05-5.88277E-06 6.37240E-19-1.57870E-18
 -1      3144 9.61761E-05-2.81057E-05-2.91699E-05-5.61393E-06 6.83709E-19-5.56328E-19
 -1      3145 9.57584E-05-2.82659E-05-2.89318E-05-6.50089E-06-2.53667E-19-5.41406E-19
 -1      3146 9.59505E-05-2.78460E-05-2.91811E-05-5.19008E-06 4.66494E-19-6.34507E-19
 -1      3147 9.56515E-05-2.76282E-05-2.91534E-05-4.85993E-06-8.85089E-20-9.47131E-19
 -1      3148 9.51104E-05-2.74797E-05-2.89867E-05-5.66139E-06 7.37025E-19-1.63241E-18
 -1      3149 9.55581E-05-2.75245E-05-2.91512E-05-4.43929E-06 1.53234E-20 3.20293E-19
 -1      3150 9.53638E-05-2.74312E-05-2.91164E-05-4.09350E-06 3.23575E-19 4.01044E-19
 -1      3151 9.48030E-05-2.71087E-05-2.90115E-05-4.80361E-06 8.83362E-19-5.20274E-19
 -1      3152 9.53465E-05-2.74254E-05-2.91035E-05-3.70154E-06-6.68322E-19 4.19301E-19
 -1      3153 9.52205E-05-2.74097E-05-2.90650E-05-3.36874E-06-9.98847E-19 2.19040E-19
 -1      3154 9.47008E-05-2.70096E-05-2.90091E-05-3.98825E-06-1.32077E-19 9.96150E-19
 -1      3155 9.52424E-05-2.74588E-05-2.90452E-05-3.01843E-06-6.85471E-19 6.79773E-19
 -1      3156 9.51597E-05-2.74865E-05-2.90062E-05-2.71484E-06-5.08395E-19 5.46259E-19
 -1      3157 9.47122E-05-2.70730E-05-2.89863E-05-3.24797E-06-4.59605E-19 7.28636E-19
 -1      3158 9.51978E-05-2.75610E-05-2.89830E-05-2.41113E-06-1.19667E-18 6.09967E-19
 -1      3159 9.51418E-05-2.76085E-05-2.89461E-05-2.14450E-06-7.60162E-19-3.51611E-19
 -1      3160 9.47777E-05-2.72214E-05-2.89510E-05-2.59708E-06-1.07218E-18 4.43203E-19
 -1      3161 9.51821E-05-2.76882E-05-2.89224E-05-1.88722E-06-2.06324E-19-2.81644E-19
 -1      3162 9.51441E-05-2.77406E-05-2.88895E-05-1.65844E-06 6.09818E-19-3.73953E-20
 -1      3163 9.48608E-05-2.73999E-05-2.89099E-05-2.04073E-06-2.28314E-19 1.67873E-18
 -1      3164 9.51910E-05-2.78186E-05-2.88707E-05-1.47028E-06 1.00218E-18 3.69715E-20
 -1      3165 9.51598E-05-2.78649E-05-2.88421E-05-1.27357E-06 1.81035E-18 7.78306E-19
 -1      3166 9.50357E-05-2.77523E-05-2.88377E-05-1.25214E-06 1.27767E-18 2.35178E-18
 -1      3167 9.49558E-05-2.75874E-05-2.88717E-05-1.59701E-06 1.27901E-18 2.59993E-18
 -1      3168 1.33490E-04-3.52605E-05-4.22456E-05 1.69963E-05 1.09955E-18 2.94259E-18
 -1      3169 1.29930E-04-5.65040E-05-3.14620E-05-5.79121E-06-2.76634E-18 1.42257E-18
 -1      3170 9.53489E-05-2.80305E-05-2.88456E-05-2.62331E-06 4.24431E-19-1.41588E-19
 -1      3171 9.53013E-05-2.80403E-05-2.88259E-05-2.40823E-06 2.88298E-19-1.30980E-19
 -1      3172 9.53059E-05-2.74025E-05-2.90926E-05-4.25591E-06 1.90421E-19 8.96222E-19
 -1      3173 9.52152E-05-2.75200E-05-2.90189E-05-3.90949E-06 3.85011E-19 2.29163E-19
 -1      3174 9.52628E-05-2.70612E-05-2.92192E-05-5.06495E-06 4.88682E-20 1.51274E-18
 -1      3175 9.51619E-05-2.71971E-05-2.91365E-05-4.63499E-06 8.98621E-20 1.29332E-18
 -1      3176 9.47255E-05-2.69085E-05-2.90621E-05-4.47685E-06-1.88104E-19 4.98213E-19
 -1      3177 9.51948E-05-2.66926E-05-2.93468E-05-6.05554E-06-7.23553E-20 1.68210E-18
 -1      3178 9.50805E-05-2.68291E-05-2.92612E-05-5.53316E-06 2.46768E-19 1.67661E-18
 -1      3179 9.44044E-05-2.64216E-05-2.91313E-05-5.32026E-06-1.76764E-19 1.23194E-18
 -1      3180 9.51124E-05-2.63515E-05-2.94563E-05-7.23823E-06 2.31339E-19 1.98104E-18
 -1      3181 9.49720E-05-2.64553E-05-2.93765E-05-6.62369E-06-2.28390E-21 1.93328E-18
 -1      3182 9.40042E-05-2.58986E-05-2.91821E-05-6.34493E-06-1.40268E-19 1.31032E-18
 -1      3183 9.50609E-05-2.61436E-05-2.95211E-05-8.60717E-06-4.65902E-19 2.44810E-18
 -1      3184 9.48607E-05-2.61520E-05-2.94598E-05-7.91357E-06-1.67234E-20 2.41052E-18
 -1      3185 9.35319E-05-2.54081E-05-2.91887E-05-7.56904E-06-2.01486E-19 1.99299E-18
 -1      3186 9.51565E-05-2.62613E-05-2.95078E-05-1.01352E-05-4.17931E-19 1.87565E-18
 -1      3187 9.48219E-05-2.60630E-05-2.94805E-05-9.39435E-06-3.66747E-19 2.21785E-18
 -1      3188 9.30346E-05-2.50790E-05-2.91174E-05-9.00841E-06-3.81197E-19 2.06698E-18
 -1      3189 9.56467E-05-2.70328E-05-2.93806E-05-1.17638E-05-4.22607E-19 1.53369E-18
 -1      3190 9.50302E-05-2.64425E-05-2.94026E-05-1.10364E-05-3.41439E-19 1.97332E-18
 -1      3191 9.26419E-05-2.51420E-05-2.89271E-05-1.06832E-05-3.63250E-19 1.31398E-18
 -1      3192 9.69980E-05-2.89694E-05-2.91188E-05-1.33732E-05-6.96996E-19 9.42180E-19
 -1      3193 9.58382E-05-2.77075E-05-2.91942E-05-1.27708E-05-4.96749E-19 1.49736E-18
 -1      3194 9.26369E-05-2.59865E-05-2.85769E-05-1.26205E-05-2.71614E-19 1.13382E-18
 -1      3195 9.99800E-05-3.27750E-05-2.87582E-05-1.47076E-05-5.85905E-19 7.04161E-19
 -1      3196 9.78833E-05-3.04764E-05-2.88541E-05-1.44367E-05-7.27595E-19 8.68408E-19
 -1      3197 9.35618E-05-2.82170E-05-2.80459E-05-1.48324E-05-3.22157E-19 8.99440E-19
 -1      3198 1.05636E-04-3.90419E-05-2.84889E-05-1.51338E-05-8.85771E-19 9.26601E-19
 -1      3199 1.02182E-04-3.54742E-05-2.84850E-05-1.55581E-05-5.79779E-19 8.46595E-19
 -1      3200 9.63973E-05-3.27283E-05-2.73881E-05-1.71740E-05-5.40242E-19 6.83857E-19
 -1      3201 1.14937E-04-4.77833E-05-2.87472E-05-1.33086E-05-1.82348E-18 1.06946E-18
 -1      3202 1.10042E-04-4.32083E-05-2.84210E-05-1.51279E-05-1.55961E-18 8.52646E-19
 -1      3203 1.02592E-04-4.02814E-05-2.69145E-05-1.88961E-05-1.33964E-18 6.77494E-19
 -1      3204 1.24431E-04-5.45700E-05-2.98293E-05-1.05594E-05-2.31098E-18 1.26684E-18
 -1      3205 1.25437E-04-1.59157E-05-4.77703E-05-2.51410E-06 4.57927E-18 1.66721E-18
 -1      3206 1.35541E-04-4.83432E-05-3.74234E-05-1.13525E-05 1.33297E-18-1.83764E-18
 -1      3207 1.03312E-04-3.66914E-05-2.84470E-05 1.56233E-05-1.57788E-18-7.16504E-20
 -1      3208 1.07302E-04-4.04200E-05-2.85238E-05 1.47880E-05-9.24225E-19 6.49578E-19
 -1      3209 9.51330E-05-2.64863E-05-2.94258E-05 1.10977E-05 1.06978E-18-1.51733E-19
 -1      3210 9.58130E-05-2.71771E-05-2.93878E-05 1.18430E-05 1.82490E-18 3.57087E-19
 -1      3211 9.48567E-05-2.59643E-05-2.95367E-05 9.36189E-06-7.16690E-19 8.40609E-19
 -1      3212 9.52175E-05-2.62246E-05-2.95493E-05 1.01439E-05-3.15181E-19 1.04490E-19
 -1      3213 9.25762E-05-2.50805E-05-2.89269E-05 1.07409E-05 4.63670E-19 9.72702E-19
 -1      3214 9.48751E-05-2.59702E-05-2.95431E-05 7.76348E-06-1.03320E-18 2.08244E-18
 -1      3215 9.50799E-05-2.59973E-05-2.95921E-05 8.51319E-06-1.18554E-18 1.43429E-18
 -1      3216 9.29161E-05-2.48811E-05-2.91517E-05 8.94595E-06-1.45655E-18 3.10179E-19
 -1      3217 9.49866E-05-2.62235E-05-2.94815E-05 6.33892E-06-5.52670E-19 2.29092E-18
 -1      3218 9.51205E-05-2.61401E-05-2.95508E-05 7.02070E-06-5.42658E-19 2.61707E-18
 -1      3219 9.33941E-05-2.51281E-05-2.92494E-05 7.37739E-06-1.29915E-18 1.27624E-18
 -1      3220 9.51024E-05-2.65666E-05-2.93826E-05 5.10017E-06-1.74930E-19 1.44140E-18
 -1      3221 9.52047E-05-2.64410E-05-2.94595E-05 5.69752E-06-3.19875E-20 1.71009E-18
 -1      3222 9.38570E-05-2.55650E-05-2.92613E-05 6.01387E-06-5.11557E-19 1.09840E-18
 -1      3223 9.51906E-05-2.69166E-05-2.92686E-05 4.04581E-06 7.56916E-19 1.07477E-18
 -1      3224 9.52773E-05-2.67846E-05-2.93446E-05 4.55478E-06 4.23567E-19 1.28903E-18
 -1      3225 9.42462E-05-2.60517E-05-2.92211E-05 4.84109E-06 2.37608E-19 5.27879E-19
 -1      3226 9.52454E-05-2.72340E-05-2.91544E-05 3.16454E-06 1.14856E-18-1.62514E-19
 -1      3227 9.53220E-05-2.71129E-05-2.92243E-05 3.58902E-06 1.34960E-18 4.75339E-19
 -1      3228 9.45486E-05-2.65154E-05-2.91534E-05 3.84614E-06 1.43787E-18-4.93877E-19
 -1      3229 9.52715E-05-2.75034E-05-2.90487E-05 2.43902E-06 5.20066E-19 1.42214E-20
 -1      3230 9.53394E-05-2.74002E-05-2.91099E-05 2.78725E-06 1.07390E-18 3.41414E-20
 -1      3231 9.47710E-05-2.69232E-05-2.90753E-05 3.01391E-06 1.03375E-18 6.51389E-19
 -1      3232 9.52741E-05-2.77182E-05-2.89564E-05 1.84984E-06 1.18712E-18-5.11819E-19
 -1      3233 9.53350E-05-2.76369E-05-2.90077E-05 2.13236E-06 5.03042E-19-2.09438E-19
 -1      3234 9.49274E-05-2.72633E-05-2.89973E-05 2.32810E-06 9.01358E-19 3.71628E-20
 -1      3235 9.52621E-05-2.78797E-05-2.88791E-05 1.37568E-06 4.64080E-19-5.00508E-19
 -1      3236 9.53142E-05-2.78218E-05-2.89207E-05 1.59988E-06 1.16832E-18-2.68180E-19
 -1      3237 9.50282E-05-2.75328E-05-2.89260E-05 1.76909E-06 1.49938E-18-8.22887E-19
 -1      3238 9.51892E-05-2.79059E-05-2.88346E-05 1.10960E-06-1.20164E-18-1.38543E-18
 -1      3239 9.52479E-05-2.78998E-05-2.88596E-05 1.24719E-06-2.58145E-19-1.22371E-18
 -1      3240 9.50476E-05-2.76782E-05-2.88736E-05 1.38625E-06 2.14690E-19-1.81657E-18
 -1      3241 9.50275E-05-2.77428E-05-2.88404E-05 1.13446E-06-1.54987E-18-2.32687E-18
 -1      3242 1.19390E-04-5.51449E-05-2.79270E-05 1.79237E-05 2.60966E-19 1.91767E-18
 -1      3243 1.08650E-04-5.08724E-05-2.44081E-05 2.60265E-05 9.70832E-19 5.96755E-19
 -1      3244 9.40928E-05-2.68392E-05-2.88242E-05-1.54583E-07 2.15343E-18 5.72254E-19
 -1      3245 9.40817E-05-2.68275E-05-2.88255E-05 4.40385E-08 1.69016E-18 4.97538E-19
 -1      3246 4.24168E-05-1.18917E-05-1.24764E-05-8.22979E-06-6.97068E-19 4.76138E-18
 -1      3247 4.93944E-05-1.63493E-05-1.39168E-05-1.98032E-05 2.16576E-19 5.51577E-18
 -1      3248 9.47220E-05-2.74592E-05-2.88259E-05-1.08853E-06-1.23188E-19 1.98466E-18
 -1      3249 9.45757E-05-2.73214E-05-2.88272E-05-1.01187E-06-1.91489E-19 1.29860E-18
 -1      3250 1.22314E-04-2.16102E-05-4.34051E-05 1.27469E-05-1.13153E-18-3.50587E-18
 -1      3251 1.19728E-04-1.67199E-05-4.47653E-05 1.01560E-05-1.02555E-18-3.30290E-18
 -1      3252 5.68937E-05-1.83283E-05-1.62973E-05-1.90096E-05 9.86264E-20-3.20803E-18
 -1      3253 6.59087E-05-2.53825E-05-1.71940E-05-2.69522E-05-3.31428E-19-3.23037E-18
 -1      3254 4.75819E-05-1.18146E-05-1.48805E-05 3.86836E-06 7.97534E-19-1.69364E-18
 -1      3255 5.00080E-05-1.29522E-05-1.56412E-05-7.91464E-06 6.80063E-19-2.62644E-18
 -1      3256 9.57341E-05-4.50792E-05-2.17998E-05 3.18526E-05 1.24593E-18 2.62316E-20
 -1      3257 8.06695E-05-3.52298E-05-1.92513E-05 3.18010E-05 1.53358E-18 1.71524E-19
 -1      3258 1.03252E-04-4.64215E-05-2.41416E-05 2.53369E-05 1.10448E-18 6.81375E-19
 -1      3259 9.44264E-05-2.71669E-05-2.88239E-05-8.80939E-07 4.23109E-19-6.99637E-19
 -1      3260 9.43094E-05-2.70612E-05-2.88249E-05-7.42811E-07 1.23165E-18-4.04757E-19
 -1      3261 9.43951E-05-2.71241E-05-2.88281E-05-1.06747E-06-3.45270E-19 3.05332E-19
 -1      3262 9.60908E-05-2.79812E-05-2.91812E-05 1.28950E-05 1.38340E-18-1.85950E-21
 -1      3263 9.73814E-05-2.93953E-05-2.90923E-05 1.34779E-05 3.39817E-19-5.72919E-19
 -1      3264 9.26876E-05-2.61347E-05-2.85359E-05 1.27892E-05 1.17337E-18-2.35794E-19
 -1      3265 9.84274E-05-3.11081E-05-2.88108E-05 1.45835E-05-9.33710E-19-1.18330E-19
 -1      3266 1.00770E-04-3.36124E-05-2.87152E-05 1.47492E-05-2.02652E-18-4.08579E-19
 -1      3267 9.71497E-05-3.36503E-05-2.72773E-05 1.76545E-05-1.00707E-18 1.34633E-18
 -1      3268 9.38452E-05-2.86831E-05-2.79619E-05 1.51209E-05-4.62239E-19-8.31690E-19
 -1      3269 1.10127E-04-4.42354E-05-2.80737E-05 1.58692E-05-1.48936E-18 3.35359E-19
 -1      3270 1.15750E-04-4.85498E-05-2.86033E-05 1.36477E-05-1.16327E-18-4.69541E-20
 -1      3271 1.10302E-04-5.10532E-05-2.56426E-05 2.33966E-05-1.82668E-18 8.61155E-19
 -1      3272 1.02593E-04-4.13607E-05-2.64101E-05 2.05298E-05-1.07614E-18 1.24565E-18
 -1      3273 6.07123E-05-2.45007E-05-1.51754E-05-2.96385E-05 2.21531E-18 3.89529E-18
 -1      3274 7.33900E-05-3.36423E-05-1.69325E-05-3.51125E-05 3.23381E-18 2.98187E-18
 -1      3275 9.53647E-05-2.80563E-05-2.88431E-05-2.18747E-06 8.83218E-20-1.18810E-19
 -1      3276 9.53400E-05-2.80111E-05-2.88519E-05-1.95410E-06 1.77087E-19-1.64070E-19
 -1      3277 9.54702E-05-2.79516E-05-2.89397E-05-2.28034E-06 2.48764E-19-1.00098E-19
 -1      3278 9.53285E-05-2.76882E-05-2.89809E-05-3.60467E-06 7.22091E-19-4.70402E-20
 -1      3279 9.52489E-05-2.77773E-05-2.89210E-05-3.32599E-06 6.10515E-19-5.90223E-20
 -1      3280 9.49779E-05-2.73238E-05-2.89939E-05-3.78993E-06 2.04537E-19-3.75444E-20
 -1      3281 9.53395E-05-2.79021E-05-2.88953E-05-3.07597E-06 5.06030E-19-2.10497E-19
 -1      3282 9.52740E-05-2.79555E-05-2.88531E-05-2.84319E-06 5.15918E-19-3.61668E-19
 -1      3283 9.53377E-05-2.78632E-05-2.89196E-05-2.74158E-06 5.44468E-19-2.68560E-19
 -1      3284 9.51771E-05-2.76474E-05-2.89420E-05-3.22610E-06 4.43361E-19-4.87704E-19
 -1      3285 7.54861E-05-3.17999E-05-1.88039E-05 2.99879E-05-9.45977E-19 1.28495E-18
 -1      3286 6.18101E-05-2.25708E-05-1.64501E-05 2.42532E-05-6.02849E-19 7.37554E-19
 -1      3287 9.55375E-05-2.54276E-05-3.00232E-05-1.89453E-06-6.51951E-19-8.18129E-19
 -1      3288 9.55415E-05-2.60775E-05-2.97814E-05-1.02177E-06-5.34924E-19-7.49431E-19
 -1      3289 9.56683E-05-2.59436E-05-2.98833E-05-8.26090E-07-5.09728E-19-7.24884E-19
 -1      3290 9.45981E-05-4.20231E-05-2.21809E-05 2.79687E-05-1.52516E-18 1.28249E-18
 -1      3291 9.53923E-05-2.79523E-05-2.89016E-05-1.69355E-06 3.38446E-19-1.92984E-19
 -1      3292 9.53951E-05-2.78344E-05-2.89475E-05-1.39532E-06 5.67531E-19-2.03657E-19
 -1      3293 9.55790E-05-2.78823E-05-2.90171E-05-1.77154E-06 3.11532E-19-4.12062E-19
 -1      3294 9.54285E-05-2.76725E-05-2.90397E-05-1.04729E-06 7.41943E-19-1.16072E-19
 -1      3295 9.54554E-05-2.74495E-05-2.91356E-05-6.22321E-07 7.01221E-19-1.40273E-19
 -1      3296 9.56580E-05-2.76072E-05-2.91697E-05-1.12647E-06 5.97753E-19-4.25105E-19
 -1      3297 1.29127E-04-5.11060E-05-3.39118E-05-2.02268E-07 6.36453E-19 1.05180E-18
 -1      3298 1.26843E-04-5.40854E-05-3.08877E-05 7.59340E-06 5.09146E-20 1.76908E-18
 -1      3299 1.13518E-04-5.43318E-05-2.50387E-05-2.60328E-05 1.08706E-18-1.76979E-18
 -1      3300 1.22774E-04-5.68456E-05-2.86463E-05-1.79950E-05 6.31172E-19-2.15218E-18
 -1      3301 1.26794E-04-3.74943E-05-3.88441E-05-1.16981E-05-1.38011E-18 2.03680E-18
 -1      3302 1.28781E-04-4.40422E-05-3.62441E-05-7.76563E-06 2.70230E-19 1.44536E-18
 -1      3303 1.04657E-04-4.70504E-05-2.42997E-05-2.49715E-05-2.03220E-18-3.81185E-19
 -1      3304 1.15741E-04-5.21084E-05-2.74243E-05-1.82403E-05-2.30640E-18 7.81917E-19
 -1      3305 9.52303E-05-2.42021E-05-3.04434E-05 4.11137E-06 1.36576E-18 2.73090E-19
 -1      3306 9.46551E-05-2.26448E-05-3.08513E-05 4.61578E-06 1.45474E-18 5.36795E-20
 -1      3307 9.49242E-05-2.34675E-05-3.06237E-05 3.48049E-06 1.40206E-18-4.95507E-20
 -1      3308 9.52665E-05-2.51102E-05-3.00789E-05 2.80567E-06 1.16401E-18 1.71702E-19
 -1      3309 1.29880E-04-5.49155E-05-3.19054E-05-7.16551E-06 8.67282E-20-3.00644E-18
 -1      3310 1.30946E-04-4.89284E-05-3.55394E-05 2.73459E-06-2.00270E-19-2.89590E-18
 -1      3311 7.76706E-05-3.19983E-05-1.92005E-05-2.89597E-05-9.09555E-19-1.81334E-18
 -1      3312 9.30207E-05-4.21018E-05-2.18351E-05-2.94965E-05-1.38005E-18-1.13058E-18
 -1      3313 9.84221E-05-4.05983E-05-2.46209E-05-2.33698E-05-1.06485E-18-2.20189E-19
 -1      3314 7.69655E-05-2.87711E-05-2.04581E-05-2.50099E-05-6.11531E-19-1.82038E-18
 -1      3315 9.34461E-05-1.97409E-05-3.15830E-05-6.05268E-06-6.75128E-19-1.50513E-18
 -1      3316 8.79765E-05-4.18494E-05-1.93753E-05-3.48112E-05 3.22836E-18 2.91062E-19
 -1      3317 1.01981E-04-4.99559E-05-2.24061E-05-3.24335E-05 2.03870E-18-1.11467E-18
 -1      3318 1.28432E-04-3.85791E-05-3.86651E-05 1.05435E-05-1.43360E-19-4.00223E-18
 -1      3319 1.25544E-04-2.96124E-05-4.16300E-05 1.30886E-05-9.49418E-19-3.85321E-18
 -1      3320 9.23210E-05-1.81223E-05-3.18146E-05 1.73943E-06 1.01574E-18-1.24770E-18
 -1      3321 9.21928E-05-1.79103E-05-3.18477E-05 1.01111E-06 8.59842E-19-1.30116E-18
 -1      3322 9.42066E-05-2.69524E-05-2.88229E-05-5.55118E-07 1.85511E-18-6.36549E-19
 -1      3323 9.41385E-05-2.68908E-05-2.88239E-05-3.78439E-07 1.97340E-18 7.84934E-20
 -1      3324 9.39469E-05-2.66964E-05-2.88177E-05-3.05853E-07 2.11458E-18 8.79626E-20
 -1      3325 9.41148E-05-2.68592E-05-2.88205E-05-7.35450E-07 1.67546E-18-1.35595E-18
 -1      3326 9.21288E-05-1.78046E-05-3.18666E-05 3.93631E-07 7.92226E-19-1.25091E-18
 -1      3327 9.21253E-05-1.77998E-05-3.18669E-05-3.47547E-07 6.64411E-19-1.35378E-18
 -1      3328 9.30535E-05-1.93423E-05-3.15718E-05 5.93047E-07 7.40355E-19-1.28079E-18
 -1      3329 9.49221E-05-2.76486E-05-2.88324E-05-1.21040E-06 1.01922E-18 2.26587E-18
 -1      3330 9.48156E-05-2.75516E-05-2.88298E-05-1.15302E-06 5.86088E-19 2.08776E-18
 -1      3331 9.46701E-05-2.73776E-05-2.88376E-05-1.26344E-06 3.32968E-19 2.22110E-18
 -1      3332 9.48822E-05-2.75667E-05-2.88482E-05-1.37322E-06 9.02647E-19 3.06853E-18
 -1      3333 5.78636E-05-2.00223E-05-1.57821E-05-2.36721E-05 1.22994E-18 3.58411E-18
 -1      3334 6.64180E-05-2.41358E-05-1.81606E-05-2.55812E-05 1.95859E-18 2.16332E-18
 -1      3335 5.65132E-05-1.62420E-05-1.70922E-05-1.66003E-05 4.32635E-19 3.53329E-18
 -1      3336 8.96634E-05-3.59934E-05-2.26632E-05 2.49980E-05-1.36566E-18 6.21510E-19
 -1      3337 8.48765E-05-3.75501E-05-1.99149E-05-3.15541E-05 3.16250E-18 9.44680E-19
 -1      3338 5.79584E-05-1.87687E-05-1.64347E-05 2.00974E-05-4.72274E-19 4.62268E-19
 -1      3339 5.48459E-05-1.52200E-05-1.68816E-05 1.30259E-05-4.16224E-19 1.37103E-18
 -1      3340 6.79386E-05-2.16929E-05-1.95988E-05 2.01710E-05-2.64733E-19 1.23910E-18
 -1      3341 7.26552E-05-2.86836E-05-1.85457E-05 2.94664E-05 1.47659E-18-1.98841E-19
 -1      3342 6.64891E-05-2.29033E-05-1.85466E-05 2.36295E-05 1.33778E-18-2.33702E-19
 -1      3343 8.30885E-05-3.34869E-05-2.10413E-05 2.73727E-05 1.27477E-18 1.80444E-19
 -1      3344 1.19344E-04-2.98986E-05-3.85545E-05-1.30524E-05-9.51112E-19 1.46846E-18
 -1      3345 1.06885E-04-1.78956E-05-3.81944E-05 3.60934E-06-5.82229E-19-8.17519E-20
 -1      3346 1.08198E-04-2.02824E-05-3.78981E-05 7.77705E-06-7.04414E-19-7.45076E-19
 -1      3347 1.25862E-04-4.62266E-05-3.41752E-05-5.03903E-06 1.00175E-19 1.29353E-18
 -1      3348 9.54059E-05-2.64777E-05-2.95484E-05 9.65661E-07 9.51364E-19-4.39354E-20
 -1      3349 9.54520E-05-2.59161E-05-2.97918E-05 1.87044E-06 1.03272E-18 2.49549E-20
 -1      3350 9.53832E-05-2.51939E-05-3.00761E-05 2.25724E-06 1.15184E-18-2.27537E-21
 -1      3351 4.76269E-05-1.25149E-05-1.46221E-05-2.05855E-06-6.13503E-19 3.75320E-18
 -1      3352 5.42026E-05-1.43952E-05-1.67964E-05 9.48658E-06 6.48172E-19-1.31290E-18
 -1      3353 9.30060E-05-1.93246E-05-3.15897E-05-3.48243E-06-8.90141E-20-1.28301E-18
 -1      3354 9.33636E-05-1.99899E-05-3.14747E-05-4.06099E-06-3.00192E-19-1.21913E-18
 -1      3355 1.24373E-04-5.41662E-05-3.00205E-05-1.04891E-05 4.28916E-19-2.68554E-18
 -1      3356 9.43410E-05-2.18201E-05-3.10534E-05 3.46846E-06 1.40141E-18-3.33985E-19
 -1      3357 9.34260E-05-2.00679E-05-3.14644E-05 4.09650E-06 1.44051E-18-5.31122E-19
 -1      3358 9.30569E-05-1.93898E-05-3.15824E-05 3.52221E-06 1.27311E-18-5.69748E-19
 -1      3359 1.21048E-04-5.26439E-05-2.92626E-05 1.10257E-05 7.86377E-19 1.66328E-18
 -1      3360 9.42396E-05-2.69668E-05-2.88350E-05 6.79917E-07-1.09740E-19-1.14152E-18
 -1      3361 9.43473E-05-2.70607E-05-2.88366E-05 8.36856E-07-8.70466E-20-5.92779E-19
 -1      3362 9.44755E-05-2.71879E-05-2.88417E-05 9.66805E-07 6.75938E-19-1.84603E-19
 -1      3363 9.46024E-05-2.73028E-05-2.88418E-05 1.04698E-06 9.98107E-19 3.78244E-19
 -1      3364 9.42772E-05-2.69688E-05-2.88429E-05 9.98271E-07 3.49825E-19-1.23885E-18
 -1      3365 9.39169E-05-2.66583E-05-2.88209E-05 1.72471E-07 9.49453E-19 8.97383E-19
 -1      3366 9.41016E-05-2.68419E-05-2.88284E-05 2.78050E-07 8.32281E-19 1.11680E-18
 -1      3367 9.41527E-05-2.68847E-05-2.88299E-05 4.69290E-07 2.68560E-19 4.45070E-19
 -1      3368 1.08256E-04-5.03893E-05-2.45556E-05-2.56524E-05 1.79486E-18-8.55100E-19
 -1      3369 1.16169E-04-1.44947E-05-4.39318E-05 6.96112E-06-1.51566E-18-3.18188E-18
 -1      3370 9.54320E-05-2.72192E-05-2.92381E-05-2.15550E-07 7.35270E-19-1.25030E-19
 -1      3371 9.54784E-05-2.68606E-05-2.93968E-05 4.03420E-07 8.43839E-19-7.76556E-20
 -1      3372 9.55788E-05-2.64200E-05-2.96406E-05 7.13088E-07 8.78954E-19 6.48437E-20
 -1      3373 9.56627E-05-2.71244E-05-2.93782E-05-3.18217E-07 6.27541E-19 2.59422E-20
 -1      3374 9.37090E-05-2.05618E-05-3.13526E-05-4.54705E-06-3.64452E-19-1.25263E-18
 -1      3375 9.42509E-05-2.15672E-05-3.11682E-05-5.27999E-06-6.82706E-19-1.47488E-18
 -1      3376 9.47659E-05-2.29199E-05-3.07678E-05-4.11785E-06-6.34710E-19-1.24050E-18
 -1      3377 9.42879E-05-2.16405E-05-3.10997E-05-3.54195E-06-3.42955E-19-1.18897E-18
 -1      3378 5.78759E-05-1.39597E-05-1.87671E-05-6.57076E-06 4.10652E-19-2.46828E-18
 -1      3379 5.64830E-05-1.54011E-05-1.72306E-05-1.27638E-05 4.22246E-19-2.75090E-18
 -1      3380 6.38819E-05-1.85136E-05-1.93569E-05-1.62755E-05 1.25518E-19-2.49774E-18
 -1      3381 9.50228E-05-2.40142E-05-3.04510E-05-3.08100E-06-5.91299E-19-1.16256E-18
 -1      3382 9.27517E-05-1.88659E-05-3.16864E-05 2.99785E-06 1.24518E-18-7.80497E-19
 -1      3383 9.25004E-05-1.84306E-05-3.17565E-05 2.32519E-06 1.10650E-18-1.02048E-18
 -1      3384 9.32846E-05-1.97476E-05-3.14932E-05 1.71129E-06 9.72606E-19-9.87262E-19
 -1      3385 9.37567E-05-2.05908E-05-3.13268E-05 2.71954E-06 1.17189E-18-6.22918E-19
 -1      3386 9.50662E-05-2.38813E-05-3.05216E-05-2.67839E-06-5.38362E-19-9.97890E-19
 -1      3387 1.20557E-04-2.70234E-05-4.03421E-05 1.29015E-05-7.27390E-19-3.48946E-18
 -1      3388 9.24763E-05-1.83969E-05-3.17604E-05-2.27942E-06 2.25557E-19-1.29121E-18
 -1      3389 9.27221E-05-1.88179E-05-3.16920E-05-2.96378E-06 1.14592E-20-1.33363E-18
 -1      3390 9.36996E-05-2.05178E-05-3.13346E-05-2.68885E-06-1.10620E-19-1.20529E-18
 -1      3391 1.12542E-04-2.17948E-05-3.90530E-05 1.03824E-05-1.11237E-18-2.14122E-18
 -1      3392 1.26864E-04-4.71292E-05-3.43590E-05 4.14567E-06-3.36828E-19-3.58912E-18
 -1      3393 1.29599E-04-4.35960E-05-3.69991E-05 8.51414E-06 1.60142E-20-3.76601E-18
 -1      3394 9.59665E-05-2.72895E-05-2.94275E-05 8.48440E-07-3.92380E-19-7.52292E-19
 -1      3395 9.59362E-05-2.75320E-05-2.93189E-05 1.20907E-06-3.14444E-19-7.18448E-19
 -1      3396 9.58752E-05-2.76983E-05-2.92155E-05 1.48636E-06-3.62441E-19-6.40788E-19
 -1      3397 9.58125E-05-2.78059E-05-2.91459E-05 1.76050E-06-2.87327E-19-5.36517E-19
 -1      3398 9.59881E-05-2.74467E-05-2.93753E-05 1.21590E-06-2.67753E-19-2.75166E-19
 -1      3399 9.56908E-05-2.78461E-05-2.90755E-05 1.98543E-06-3.17629E-19-4.96284E-19
 -1      3400 9.56108E-05-2.78577E-05-2.90353E-05 2.21482E-06-1.60609E-19-5.21785E-19
 -1      3401 9.58082E-05-2.76893E-05-2.91944E-05 1.73368E-06-3.12128E-19-3.47305E-19
 -1      3402 9.54469E-05-2.78080E-05-2.89893E-05 2.42080E-06 6.72161E-20-6.05462E-19
 -1      3403 9.53590E-05-2.77542E-05-2.89702E-05 2.63880E-06 2.25319E-19-4.40755E-19
 -1      3404 9.55259E-05-2.76953E-05-2.90708E-05 2.17649E-06-1.16721E-19-4.94203E-19
 -1      3405 9.51657E-05-2.76442E-05-2.89406E-05 2.85355E-06 2.34216E-19-3.35989E-19
 -1      3406 9.50783E-05-2.75518E-05-2.89354E-05 3.08520E-06 1.95333E-19-2.43638E-19
 -1      3407 9.51719E-05-2.75343E-05-2.89876E-05 2.60526E-06 2.58013E-19-7.34838E-19
 -1      3408 9.48672E-05-2.74093E-05-2.89146E-05 3.33061E-06 1.20195E-19-2.99699E-20
 -1      3409 9.47907E-05-2.73061E-05-2.89164E-05 3.59313E-06-3.30112E-21 1.75374E-19
 -1      3410 9.47699E-05-2.72679E-05-2.89292E-05 3.06998E-06 2.37786E-19-2.76753E-19
 -1      3411 9.45759E-05-2.71610E-05-2.88969E-05 3.88573E-06-1.86605E-19 1.33371E-19
 -1      3412 9.45266E-05-2.70794E-05-2.88992E-05 4.18884E-06-3.18252E-19 1.76955E-19
 -1      3413 9.43449E-05-2.69577E-05-2.88800E-05 3.61010E-06-4.21589E-20-3.47770E-19
 -1      3414 9.43291E-05-2.69686E-05-2.88737E-05 4.54038E-06-5.41284E-19 1.13337E-19
 -1      3415 9.43331E-05-2.69505E-05-2.88701E-05 4.88609E-06-3.35656E-19-9.16616E-20
 -1      3416 9.39308E-05-2.66740E-05-2.88247E-05 4.25597E-06-4.70932E-19-2.33190E-19
 -1      3417 9.41864E-05-2.69224E-05-2.88313E-05 5.30349E-06-4.23685E-19 9.11242E-20
 -1      3418 9.42849E-05-2.70236E-05-2.88164E-05 5.68476E-06-4.77491E-19-2.45715E-19
 -1      3419 9.35802E-05-2.65061E-05-2.87481E-05 5.03022E-06-3.28485E-19-4.62702E-20
 -1      3420 9.42425E-05-2.71430E-05-2.87583E-05 6.16867E-06-3.16160E-19-3.55374E-19
 -1      3421 9.44976E-05-2.74365E-05-2.87282E-05 6.56655E-06-3.31989E-19-9.46367E-21
 -1      3422 9.33772E-05-2.65721E-05-2.86362E-05 5.94706E-06-4.48447E-19-4.57373E-19
 -1      3423 9.46413E-05-2.77880E-05-2.86479E-05 7.10747E-06-4.13578E-19 4.77197E-19
 -1      3424 9.51415E-05-2.83653E-05-2.86034E-05 7.48514E-06-6.28616E-19 3.50163E-19
 -1      3425 9.34530E-05-2.70292E-05-2.84789E-05 7.00870E-06-1.75347E-20-1.18294E-19
 -1      3426 9.55931E-05-2.90540E-05-2.85044E-05 8.05301E-06-1.19456E-18 6.58501E-19
 -1      3427 9.64539E-05-3.00182E-05-2.84554E-05 8.34352E-06-1.07590E-18 5.93542E-19
 -1      3428 9.40057E-05-2.80810E-05-2.82753E-05 8.19390E-06-8.08402E-19 4.00954E-19
 -1      3429 9.73833E-05-3.11587E-05-2.83545E-05 8.86367E-06-3.27492E-19 8.18347E-19
 -1      3430 9.87335E-05-3.25983E-05-2.83275E-05 8.94975E-06 6.05784E-19 6.26025E-19
 -1      3431 9.53226E-05-2.99752E-05-2.80438E-05 9.42611E-06-4.42741E-19 1.47984E-18
 -1      3432 1.00353E-04-3.42779E-05-2.82669E-05 9.26166E-06 7.42219E-19 7.97327E-19
 -1      3433 1.02289E-04-3.62078E-05-2.83156E-05 8.95064E-06 6.14752E-19 7.07974E-19
 -1      3434 9.77844E-05-3.29630E-05-2.78415E-05 1.05040E-05 6.52628E-19 1.60830E-18
 -1      3435 1.04814E-04-3.83847E-05-2.83822E-05 8.71655E-06 5.72591E-19 7.87865E-19
 -1      3436 1.07316E-04-4.05580E-05-2.86031E-05 7.73080E-06 7.09089E-19 1.00866E-18
 -1      3437 1.01828E-04-3.72260E-05-2.77951E-05 1.09811E-05 8.16138E-19 1.68998E-18
 -1      3438 1.10850E-04-4.30770E-05-2.89484E-05 6.49982E-06 8.25132E-19 1.04085E-18
 -1      3439 1.13597E-04-4.47162E-05-2.95207E-05 4.23286E-06 8.51437E-19 9.95238E-19
 -1      3440 1.07814E-04-4.22332E-05-2.81924E-05 9.91774E-06 7.25504E-19 1.11507E-18
 -1      3441 1.20880E-04-4.19003E-05-3.40930E-05-8.34601E-06-5.58737E-19 1.11861E-18
 -1      3442 1.20786E-04-3.77269E-05-3.55968E-05-1.17152E-05-4.92073E-19 1.71401E-18
 -1      3443 1.24409E-04-3.80373E-05-3.71738E-05 1.15452E-05-5.94776E-20-4.51450E-18
 -1      3444 1.22496E-04-4.67846E-05-3.22777E-05-3.20062E-06 1.30324E-19 8.66674E-19
 -1      3445 1.21915E-04-4.00288E-05-3.50806E-05 1.04690E-05-3.59460E-19-3.55614E-18
 -1      3446 1.20681E-04-3.63067E-05-3.64048E-05 1.17861E-05-4.34131E-19-3.32639E-18
 -1      3447 1.19060E-04-3.00013E-05-3.82242E-05 1.32330E-05-4.07793E-19-3.21371E-18
 -1      3448 9.48628E-05-2.33330E-05-3.06641E-05-2.39429E-06-4.01257E-19-1.01524E-18
 -1      3449 1.20733E-04-4.35207E-05-3.31686E-05 6.37797E-06-3.03849E-19-3.00443E-18
 -1      3450 1.20069E-04-4.57672E-05-3.17727E-05 3.13661E-06-1.06078E-19-3.14947E-18
 -1      3451 1.23749E-04-4.55847E-05-3.36139E-05 5.29950E-06-3.17128E-19-4.42970E-18
 -1      3452 1.16730E-04-4.54243E-05-3.05844E-05-4.37515E-07-2.28793E-19-2.69167E-18
 -1      3453 1.14471E-04-4.48720E-05-2.97288E-05-3.36158E-06-3.69882E-19-3.48642E-18
 -1      3454 1.18214E-04-4.75305E-05-3.03944E-05-2.77310E-06-1.75241E-19-2.88384E-18
 -1      3455 1.10819E-04-4.27315E-05-2.91728E-05-5.31436E-06-5.13586E-19-2.49836E-18
 -1      3456 1.08180E-04-4.09011E-05-2.87450E-05-7.10966E-06-5.97238E-19-2.67963E-18
 -1      3457 1.10918E-04-4.40973E-05-2.87443E-05-7.91638E-06-5.98333E-20-2.61729E-18
 -1      3458 1.05214E-04-3.85176E-05-2.85627E-05-7.82774E-06 1.08268E-19-2.27052E-18
 -1      3459 1.02884E-04-3.64876E-05-2.84058E-05-8.64500E-06 6.08549E-19-2.41290E-18
 -1      3460 1.04503E-04-3.91850E-05-2.80983E-05-1.00361E-05 6.63630E-20-1.10478E-18
 -1      3461 1.00845E-04-3.44914E-05-2.84124E-05-8.59241E-06-1.09419E-19-2.15093E-18
 -1      3462 9.90842E-05-3.27852E-05-2.83948E-05-8.77594E-06-3.13168E-19-2.02036E-18
 -1      3463 9.97075E-05-3.45691E-05-2.79883E-05-1.01865E-05 9.19730E-20-2.41414E-18
 -1      3464 9.78221E-05-3.13318E-05-2.84750E-05-8.36806E-06-2.05605E-19-1.33573E-18
 -1      3465 9.66264E-05-3.00877E-05-2.85141E-05-8.19272E-06-7.39469E-19-7.55018E-19
 -1      3466 9.65946E-05-3.10799E-05-2.81185E-05-9.41795E-06 3.48425E-20-1.15218E-20
 -1      3467 9.59267E-05-2.91371E-05-2.86087E-05-7.65301E-06-7.92741E-19-2.53377E-19
 -1      3468 9.51791E-05-2.83187E-05-2.86595E-05-7.29990E-06-1.07452E-18 6.18570E-20
 -1      3469 9.47626E-05-2.87265E-05-2.83215E-05-8.29269E-06-8.22896E-19-3.66445E-19
 -1      3470 9.48528E-05-2.77638E-05-2.87418E-05-6.73655E-06-1.46115E-19 9.89544E-19
 -1      3471 9.44237E-05-2.72809E-05-2.87836E-05-6.31028E-06 1.54294E-19 3.11376E-20
 -1      3472 9.38169E-05-2.72953E-05-2.85172E-05-7.09767E-06 2.61599E-19 4.40301E-19
 -1      3473 9.43299E-05-2.70108E-05-2.88440E-05-5.77335E-06-4.62785E-19 9.37617E-20
 -1      3474 9.41112E-05-2.67690E-05-2.88697E-05-5.33266E-06 4.69365E-19-9.74715E-19
 -1      3475 9.34420E-05-2.65404E-05-2.86731E-05-5.95808E-06-5.27146E-20 7.67942E-19
 -1      3476 9.41516E-05-2.66898E-05-2.89077E-05-4.84477E-06 1.56943E-18-2.74845E-18
 -1      3477 9.40628E-05-2.66086E-05-2.89172E-05-4.42262E-06 5.39892E-19-1.98933E-18
 -1      3478 9.34105E-05-2.62482E-05-2.87812E-05-4.92467E-06 2.85576E-20-1.57681E-18
 -1      3479 9.41718E-05-2.66469E-05-2.89364E-05-3.99252E-06-9.33219E-20-1.73584E-18
 -1      3480 9.41574E-05-2.66642E-05-2.89330E-05-3.60643E-06 4.35930E-19-8.69759E-19
 -1      3481 9.35668E-05-2.62501E-05-2.88458E-05-4.01474E-06 1.78877E-19-3.79084E-18
 -1      3482 9.42937E-05-2.67674E-05-2.89380E-05-3.23581E-06 1.72135E-19-4.50498E-19
 -1      3483 9.43170E-05-2.68383E-05-2.89257E-05-2.89417E-06-6.50680E-19-1.12100E-19
 -1      3484 9.38100E-05-2.64224E-05-2.88758E-05-3.22935E-06 6.66241E-19-1.85342E-18
 -1      3485 9.44553E-05-2.69689E-05-2.89214E-05-2.58171E-06-1.02571E-18 9.08513E-19
 -1      3486 9.44912E-05-2.70624E-05-2.89041E-05-2.28742E-06-3.32417E-19 8.34214E-19
 -1      3487 9.40783E-05-2.66792E-05-2.88811E-05-2.56461E-06-5.73797E-19-1.44536E-19
 -1      3488 9.46212E-05-2.71992E-05-2.88943E-05-2.02295E-06 3.72981E-19 1.50391E-18
 -1      3489 9.46671E-05-2.72969E-05-2.88754E-05-1.77589E-06 1.34249E-18 3.30758E-18
 -1      3490 9.43274E-05-2.69536E-05-2.88704E-05-2.01047E-06 9.26022E-19 1.65632E-18
 -1      3491 9.35776E-05-2.58042E-05-2.90398E-05-5.27501E-06-3.95504E-19 1.00251E-18
 -1      3492 9.37639E-05-2.60854E-05-2.90165E-05-4.82669E-06-3.73726E-19 7.36087E-19
 -1      3493 8.01346E-05-3.20178E-05-2.02027E-05-2.85986E-05 3.04443E-18 1.07962E-18
 -1      3494 9.16370E-05-4.01333E-05-2.22656E-05-2.88345E-05 2.76826E-18-5.72991E-19
 -1      3495 9.41585E-05-2.64256E-05-2.90229E-05-4.45354E-06-2.89211E-19 5.15057E-19
 -1      3496 9.43058E-05-2.66737E-05-2.89941E-05-4.08335E-06-2.24731E-19 2.42961E-19
 -1      3497 9.33836E-05-2.58322E-05-2.89431E-05-4.40452E-06-4.92672E-19 2.80756E-19
 -1      3498 9.20217E-05-2.44897E-05-2.89340E-05-7.44310E-06-6.89978E-19 1.57759E-18
 -1      3499 9.22799E-05-2.47458E-05-2.89604E-05-6.81200E-06-4.08069E-19 1.05925E-18
 -1      3500 9.10866E-05-2.40016E-05-2.87384E-05-8.84545E-06-6.64085E-20 1.17587E-18
 -1      3501 9.13346E-05-2.41426E-05-2.88172E-05-8.10908E-06-2.58333E-19 1.60627E-18
 -1      3502 9.01951E-05-2.34474E-05-2.85891E-05-7.29029E-06-3.59911E-19 4.22736E-19
 -1      3503 9.01829E-05-2.39042E-05-2.83837E-05-1.05328E-05-5.15380E-19 7.41588E-19
 -1      3504 9.03224E-05-2.37903E-05-2.85378E-05-9.67231E-06-4.71306E-19 5.72970E-19
 -1      3505 8.87441E-05-2.28057E-05-2.82401E-05-8.69784E-06-1.59958E-19 5.39636E-19
 -1      3506 8.95881E-05-2.45920E-05-2.78163E-05-1.26189E-05-1.65167E-19 4.27696E-19
 -1      3507 8.94162E-05-2.39895E-05-2.80664E-05-1.16033E-05-2.79745E-19 7.78220E-19
 -1      3508 8.71864E-05-2.25543E-05-2.76803E-05-1.05042E-05-3.77907E-19 1.30357E-19
 -1      3509 8.98702E-05-2.67024E-05-2.69972E-05-1.52621E-05-3.51148E-19 9.09759E-19
 -1      3510 8.90030E-05-2.52398E-05-2.73477E-05-1.40648E-05-2.43887E-19 7.79868E-19
 -1      3511 8.57519E-05-2.30973E-05-2.68338E-05-1.29806E-05-2.74201E-19 2.71907E-19
 -1      3512 9.20630E-05-3.11953E-05-2.59690E-05-1.85821E-05-6.56278E-19 1.45127E-19
 -1      3513 8.97846E-05-2.82583E-05-2.63496E-05-1.72659E-05-3.08955E-19 4.82026E-19
 -1      3514 8.49052E-05-2.51463E-05-2.56244E-05-1.65282E-05-2.76414E-19 1.44780E-19
 -1      3515 9.38691E-05-3.53717E-05-2.48962E-05-2.19724E-05-8.76427E-19 1.45187E-19
 -1      3516 9.19945E-05-2.43654E-05-2.90012E-05 6.58542E-06-1.20211E-18 8.75040E-19
 -1      3517 9.17425E-05-2.41422E-05-2.89637E-05 7.28120E-06-1.91957E-18 5.14101E-19
 -1      3518 9.59072E-05-2.65145E-05-2.97320E-05-1.36261E-08-4.44530E-19-7.13444E-19
 -1      3519 9.59380E-05-2.69481E-05-2.95734E-05 4.82103E-07-4.75067E-19-8.17459E-19
 -1      3520 9.60206E-05-2.68797E-05-2.96313E-05 5.53846E-07-4.41846E-19-4.72911E-19
 -1      3521 1.13367E-04-1.76511E-05-4.11582E-05 9.61155E-06-1.35197E-18-1.84812E-18
 -1      3522 1.15910E-04-2.40814E-05-3.97815E-05 1.23260E-05-7.88879E-19-2.43231E-18
 -1      3523 9.10641E-05-2.38354E-05-2.88331E-05 8.01241E-06-1.64335E-18 1.05483E-18
 -1      3524 9.08315E-05-2.37440E-05-2.87389E-05 8.80917E-06-1.06366E-18 1.91832E-18
 -1      3525 8.97839E-05-2.30403E-05-2.85863E-05 7.15739E-06-1.29447E-18 1.32249E-18
 -1      3526 9.00773E-05-2.35924E-05-2.85181E-05 9.70946E-06-5.36974E-19 2.10172E-18
 -1      3527 8.99782E-05-2.37926E-05-2.83438E-05 1.06297E-05 8.69395E-19 1.70018E-18
 -1      3528 8.83476E-05-2.24929E-05-2.82031E-05 8.69616E-06-7.83510E-19 4.00732E-18
 -1      3529 9.27910E-05-2.49935E-05-2.90704E-05 5.36610E-06-3.11910E-19 1.11348E-18
 -1      3530 9.25680E-05-2.47251E-05-2.90697E-05 5.97109E-06-6.93085E-19 1.38438E-18
 -1      3531 9.10276E-05-2.37691E-05-2.88099E-05 5.88590E-06-1.20373E-18 1.34768E-18
 -1      3532 9.34346E-05-2.56155E-05-2.90770E-05 4.32478E-06 7.96986E-19 2.63051E-19
 -1      3533 9.32558E-05-2.53491E-05-2.90979E-05 4.84502E-06 5.49489E-19 6.42301E-19
 -1      3534 9.20549E-05-2.45363E-05-2.89245E-05 4.80793E-06 4.05719E-19 1.32943E-18
 -1      3535 9.39347E-05-2.61793E-05-2.90474E-05 3.44237E-06 1.92916E-18-5.41591E-19
 -1      3536 9.38003E-05-2.59383E-05-2.90792E-05 3.88350E-06 1.44814E-18-8.73274E-19
 -1      3537 9.28749E-05-2.52607E-05-2.89684E-05 3.88754E-06 2.00706E-18-6.76102E-19
 -1      3538 9.43123E-05-2.66634E-05-2.89997E-05 2.70327E-06 6.71819E-19-3.69210E-19
 -1      3539 9.42162E-05-2.64575E-05-2.90352E-05 3.07155E-06 1.85104E-18-2.87668E-19
 -1      3540 9.35133E-05-2.59033E-05-2.89691E-05 3.10437E-06 1.61471E-18-1.54457E-18
 -1      3541 9.45907E-05-2.70657E-05-2.89460E-05 2.09523E-06 9.77720E-19-1.31055E-18
 -1      3542 9.45259E-05-2.68973E-05-2.89805E-05 2.39385E-06 3.66214E-19-7.94341E-19
 -1      3543 9.40011E-05-2.64495E-05-2.89455E-05 2.44357E-06 1.02484E-18-6.54814E-19
 -1      3544 9.47900E-05-2.73786E-05-2.88939E-05 1.59193E-06 1.56518E-18 6.55420E-21
 -1      3545 9.47461E-05-2.72464E-05-2.89252E-05 1.83774E-06 1.48226E-18-3.69130E-19
 -1      3546 9.43599E-05-2.68901E-05-2.89105E-05 1.89709E-06 4.12105E-19 4.85932E-19
 -1      3547 9.40361E-05-2.67560E-05-2.88303E-05 6.38461E-07 3.94265E-19-2.23750E-19
 -1      3548 8.73804E-05-3.22383E-05-2.35299E-05 2.27557E-05-9.21473E-19-2.05167E-19
 -1      3549 1.03307E-04-4.64093E-05-2.41157E-05-2.53852E-05 1.90246E-18-8.72603E-19
 -1      3550 1.12457E-04-5.14142E-05-2.63633E-05-2.06584E-05 1.56256E-18-1.03508E-18
 -1      3551 9.28654E-05-2.51349E-05-2.90208E-05-6.26403E-06-1.22320E-19 9.18015E-19
 -1      3552 9.30932E-05-2.54256E-05-2.90145E-05-5.72814E-06-2.26838E-19 1.07035E-18
 -1      3553 9.25161E-05-2.50679E-05-2.88958E-05-5.19588E-06-3.71634E-19 4.73764E-19
 -1      3554 9.14582E-05-2.42473E-05-2.87908E-05-6.14568E-06-4.00402E-19 5.71579E-19
 -1      3555 1.18098E-04-1.29328E-05-4.54389E-05-6.20941E-06-2.20970E-18-8.14316E-19
 -1      3556 1.16789E-04-1.80397E-05-4.25420E-05-9.66910E-06-1.29257E-18 2.33040E-19
 -1      3557 1.21402E-04-5.08724E-05-3.05271E-05 5.09477E-06 4.22875E-19 8.70766E-19
 -1      3558 1.16441E-04-5.04425E-05-2.80029E-05 1.31895E-05 6.56474E-19 1.72391E-18
 -1      3559 1.23096E-04-3.19993E-05-3.93447E-05-1.27245E-05-1.29533E-18 1.54726E-18
 -1      3560 9.43456E-05-2.70691E-05-2.88324E-05-1.27675E-06 5.12878E-19 1.82266E-18
 -1      3561 9.41647E-05-2.69140E-05-2.88264E-05-1.14359E-06 3.90712E-19-1.06231E-19
 -1      3562 8.92473E-05-2.39778E-05-2.80003E-05 1.17669E-05 3.12467E-19 3.32494E-20
 -1      3563 8.94903E-05-2.46976E-05-2.77287E-05 1.28428E-05-6.85584E-19-8.20393E-19
 -1      3564 8.68358E-05-2.23978E-05-2.75944E-05 1.06708E-05-8.21702E-19 2.54944E-18
 -1      3565 9.21829E-05-1.78977E-05-3.18490E-05-9.65681E-07 4.87001E-19-1.31990E-18
 -1      3566 9.23002E-05-1.80960E-05-3.18169E-05-1.69330E-06 2.64627E-19-1.26099E-18
 -1      3567 9.32665E-05-1.97278E-05-3.14963E-05-1.67186E-06 1.51203E-19-1.24277E-18
 -1      3568 9.55354E-05-2.78402E-05-2.90101E-05-2.28097E-06 3.19536E-19-4.50249E-19
 -1      3569 9.55989E-05-2.78414E-05-2.90379E-05-2.03666E-06 7.98279E-20-4.05711E-19
 -1      3570 9.46253E-05-2.69607E-05-2.89940E-05-3.77678E-06 8.50776E-21 3.60577E-20
 -1      3571 9.47411E-05-2.71626E-05-2.89687E-05-3.47148E-06 2.30582E-19-5.85467E-20
 -1      3572 9.40875E-05-2.64977E-05-2.89622E-05-3.74585E-06-8.04830E-20-3.81269E-19
 -1      3573 9.56232E-05-2.52718E-05-3.01547E-05-1.20920E-06-4.61424E-19-8.95737E-19
 -1      3574 9.57415E-05-2.59312E-05-2.99297E-05-5.14458E-07-4.05869E-19-9.03372E-19
 -1      3575 9.58315E-05-2.58660E-05-2.99813E-05-3.25942E-07-4.01611E-19-7.29228E-19
 -1      3576 5.18104E-05-1.23894E-05-1.65181E-05 5.21207E-06-6.05007E-19 2.61813E-18
 -1      3577 5.29971E-05-1.28806E-05-1.71028E-05-4.96137E-06 3.08737E-20 3.58247E-18
 -1      3578 6.00237E-05-1.52024E-05-1.90250E-05 9.04860E-06-1.98429E-19 2.09169E-18
 -1      3579 9.57130E-05-2.78132E-05-2.90998E-05-1.79525E-06 1.36038E-19-3.46218E-19
 -1      3580 9.57638E-05-2.77142E-05-2.91602E-05-1.50322E-06 3.95651E-19-3.92703E-19
 -1      3581 9.57448E-05-2.76904E-05-2.91673E-05-1.79477E-06 2.59855E-19-4.64115E-19
 -1      3582 9.58203E-05-2.75560E-05-2.92584E-05-1.19992E-06 5.75155E-19-4.64729E-19
 -1      3583 9.58488E-05-2.73233E-05-2.93620E-05-8.12416E-07 6.47571E-19-3.71337E-19
 -1      3584 9.59118E-05-2.74653E-05-2.93357E-05-1.23002E-06 3.55972E-19-2.62216E-19
 -1      3585 1.18676E-04-4.64948E-05-3.09462E-05 1.70913E-07 2.19441E-19 5.77647E-19
 -1      3586 1.07841E-04-4.79527E-05-2.59131E-05 2.06947E-05 8.62399E-19 1.31045E-18
 -1      3587 9.76336E-05-4.18511E-05-2.37431E-05 2.49778E-05 1.19184E-18 3.54192E-19
 -1      3588 6.00802E-05-1.64595E-05-1.85040E-05 1.49417E-05 9.70270E-19-4.79288E-19
 -1      3589 5.77165E-05-1.38215E-05-1.87733E-05 4.85952E-06 7.93842E-19-1.52619E-18
 -1      3590 9.53393E-05-2.46129E-05-3.03098E-05 2.53853E-06 1.18440E-18-1.45486E-19
 -1      3591 9.50497E-05-2.37667E-05-3.05571E-05 2.77643E-06 1.28390E-18-2.24064E-19
 -1      3592 9.54755E-05-2.54233E-05-3.00275E-05 1.58576E-06 9.63661E-19-1.14467E-19
 -1      3593 9.44220E-05-2.21232E-05-3.10050E-05-2.41909E-06-2.30687E-19-1.08721E-18
 -1      3594 9.52412E-05-2.41149E-05-3.04672E-05-1.68071E-06-3.84056E-19-8.85623E-19
 -1      3595 9.52800E-05-2.41492E-05-3.04886E-05-1.30168E-06-2.60359E-19-8.76473E-19
 -1      3596 9.41683E-05-2.15945E-05-3.11116E-05-1.99221E-06-1.97417E-20-1.10846E-18
 -1      3597 9.13691E-05-3.13507E-05-2.56293E-05 1.91313E-05-7.95352E-19-2.70399E-19
 -1      3598 7.83024E-05-2.62025E-05-2.21989E-05 2.18953E-05-7.33478E-19 6.33190E-19
 -1      3599 9.47470E-05-2.74537E-05-2.88440E-05 1.10367E-06 8.76640E-19 1.70015E-18
 -1      3600 9.48870E-05-2.75890E-05-2.88417E-05 1.13175E-06-5.16306E-20-7.79117E-19
 -1      3601 9.48842E-05-2.75532E-05-2.88555E-05 1.25109E-06 1.57313E-19 1.36195E-20
 -1      3602 9.45633E-05-2.72413E-05-2.88520E-05 1.19018E-06 2.01196E-18 1.04088E-18
 -1      3603 1.25185E-04-4.99392E-05-3.22008E-05 6.38369E-08 1.39529E-19-3.48203E-18
 -1      3604 7.33266E-05-2.21039E-05-2.19744E-05 1.81831E-05-2.70098E-19 9.91426E-20
 -1      3605 9.05468E-05-3.72429E-05-2.28206E-05 2.60798E-05 9.75133E-19 1.61055E-19
 -1      3606 8.25980E-05-3.10263E-05-2.20610E-05 2.41561E-05 8.54643E-19 1.69010E-19
 -1      3607 9.66740E-05-3.89605E-05-2.45674E-05 2.15562E-05 9.90248E-19 4.86308E-19
 -1      3608 1.12407E-04-1.36202E-05-4.27272E-05 4.19437E-06-1.76712E-18-1.85357E-18
 -1      3609 1.14211E-04-4.72343E-05-2.88782E-05 8.43935E-06 3.83805E-19 8.41765E-19
 -1      3610 1.16438E-04-4.62364E-05-2.99412E-05 3.22307E-06 6.46200E-19 8.68358E-19
 -1      3611 9.46178E-05-2.72896E-05-2.88530E-05-1.53148E-06 1.11002E-18 2.95590E-18
 -1      3612 9.48265E-05-2.74797E-05-2.88640E-05-1.54937E-06 1.15839E-18 3.03790E-18
 -1      3613 8.88936E-05-2.82753E-05-2.59953E-05 1.75878E-05-8.29499E-19-3.45578E-19
 -1      3614 7.55500E-05-2.72705E-05-2.04448E-05-2.41763E-05 1.83653E-18 8.37716E-19
 -1      3615 1.13834E-04-1.24741E-05-4.36878E-05-2.69296E-06-1.81540E-18-1.08535E-18
 -1      3616 5.69446E-05-1.41266E-05-1.79763E-05-9.73809E-06 6.76290E-19 3.67784E-18
 -1      3617 6.17024E-05-1.67600E-05-1.93643E-05-1.39485E-05 1.15270E-18 2.98023E-18
 -1      3618 5.90699E-05-1.36488E-05-1.94978E-05-3.17256E-06 7.67372E-19 3.00898E-18
 -1      3619 9.82838E-05-4.16719E-05-2.40962E-05-2.37087E-05 2.42598E-18-5.98614E-20
 -1      3620 9.52984E-05-2.76877E-05-2.89726E-05-2.73384E-06 4.91864E-19-3.41880E-19
 -1      3621 9.53743E-05-2.77682E-05-2.89757E-05-2.49788E-06 5.49880E-19-2.33642E-19
 -1      3622 9.54753E-05-2.76638E-05-2.90623E-05-2.26711E-06 3.17672E-19-5.86935E-19
 -1      3623 8.58465E-05-3.05359E-05-2.36704E-05-2.23168E-05-7.63422E-19-8.42560E-19
 -1      3624 9.37460E-05-2.65261E-05-2.88086E-05-4.79156E-07 1.59520E-18-7.30490E-20
 -1      3625 9.36860E-05-2.64747E-05-2.88084E-05-2.39438E-07 1.54461E-18 2.88022E-19
 -1      3626 1.19288E-04-5.25249E-05-2.84055E-05-1.33810E-05 9.45831E-19-2.80085E-18
 -1      3627 1.23662E-04-5.16347E-05-3.10785E-05-4.69564E-06 2.68227E-19-3.24477E-18
 -1      3628 9.47892E-05-2.30910E-05-3.07352E-05 2.56637E-06 1.23038E-18-3.29003E-19
 -1      3629 9.40231E-05-2.67356E-05-2.88427E-05 1.05665E-06 1.68348E-19-1.99511E-18
 -1      3630 9.41810E-05-2.68554E-05-2.88502E-05 1.20000E-06 5.73045E-19-6.69320E-19
 -1      3631 9.30481E-05-1.93345E-05-3.15728E-05-5.54726E-07 4.79981E-19-1.18540E-18
 -1      3632 9.37610E-05-2.65165E-05-2.88223E-05 5.87132E-07 1.47927E-18 4.97687E-19
 -1      3633 9.38683E-05-2.66002E-05-2.88294E-05 8.14182E-07 1.34266E-18-1.15143E-18
 -1      3634 9.37711E-05-2.64728E-05-2.88366E-05 1.02829E-06 1.29904E-18-1.04574E-18
 -1      3635 9.48920E-05-2.75181E-05-2.88732E-05 1.38627E-06 1.59152E-18 5.55488E-19
 -1      3636 9.37344E-05-2.07164E-05-3.13058E-05 7.49386E-07 7.34599E-19-1.11546E-18
 -1      3637 9.36809E-05-2.06112E-05-3.13256E-05 2.23392E-07 6.15409E-19-1.24119E-18
 -1      3638 1.20567E-04-4.94912E-05-3.05551E-05-3.75516E-06 6.80899E-19-3.49487E-18
 -1      3639 9.36664E-05-2.64461E-05-2.88104E-05 5.08599E-08 2.22925E-18 1.29354E-18
 -1      3640 9.36895E-05-2.64623E-05-2.88140E-05 3.01869E-07 1.89362E-18 1.56733E-18
 -1      3641 9.35143E-05-2.62741E-05-2.88118E-05 4.74641E-07 2.38329E-18 1.25381E-18
 -1      3642 9.34581E-05-2.62471E-05-2.88001E-05-1.20573E-07 2.11395E-18 6.36702E-19
 -1      3643 1.14598E-04-4.96844E-05-2.77380E-05-1.42399E-05 1.11851E-18-2.60472E-18
 -1      3644 9.58215E-05-2.70658E-05-2.94703E-05-4.63865E-07 6.40756E-19-3.90199E-19
 -1      3645 9.58004E-05-2.67579E-05-2.95827E-05-1.49384E-08 6.17787E-19-2.10322E-19
 -1      3646 9.59330E-05-2.69808E-05-2.95517E-05-5.57417E-07 7.32641E-19-2.61962E-19
 -1      3647 1.11177E-04-4.70778E-05-2.73589E-05 1.44730E-05 4.78706E-19 1.34193E-18
 -1      3648 8.85895E-05-2.52675E-05-2.71643E-05 1.43044E-05-1.95503E-19-9.35101E-19
 -1      3649 8.95474E-05-2.68797E-05-2.67886E-05 1.55861E-05-4.70818E-19-6.28278E-19
 -1      3650 8.35049E-05-2.46220E-05-2.51880E-05 1.67482E-05-4.85201E-19-3.22326E-19
 -1      3651 8.51542E-05-2.29462E-05-2.66310E-05 1.31842E-05-6.52250E-19-2.82402E-19
 -1      3652 9.46563E-05-2.70388E-05-2.89762E-05-3.19361E-06 1.73741E-19-1.20593E-19
 -1      3653 9.49991E-05-2.73874E-05-2.89720E-05-3.21611E-06 2.69403E-19-1.03435E-19
 -1      3654 9.50916E-05-2.75335E-05-2.89576E-05-2.95753E-06 3.18744E-19-3.60522E-19
 -1      3655 9.40019E-05-2.12332E-05-3.12042E-05 1.64741E-06 1.00218E-18-8.63725E-19
 -1      3656 9.38384E-05-2.09088E-05-3.12639E-05 1.14197E-06 8.89526E-19-1.04812E-18
 -1      3657 9.44488E-05-2.20040E-05-3.10292E-05 7.31671E-07 7.20862E-19-8.90649E-19
 -1      3658 6.60755E-05-1.97394E-05-1.96677E-05 1.81596E-05 1.02191E-18-1.43943E-19
 -1      3659 6.83683E-05-1.86555E-05-2.12307E-05 1.37212E-05 1.08976E-18-2.81592E-19
 -1      3660 7.38310E-05-2.43234E-05-2.12678E-05 2.11152E-05 8.79611E-19 2.37910E-19
 -1      3661 5.96174E-05-1.34469E-05-1.94818E-05-2.27661E-07 8.18465E-19-2.30077E-18
 -1      3662 6.29498E-05-1.49010E-05-2.06534E-05-5.07492E-06 7.19399E-19-2.21565E-18
 -1      3663 6.32700E-05-1.48021E-05-2.07741E-05 5.18011E-06 1.07855E-18-1.57563E-18
 -1      3664 6.85691E-05-1.91895E-05-2.11070E-05-1.52506E-05 1.49971E-19-1.98051E-18
 -1      3665 7.04691E-05-2.18853E-05-2.04768E-05-2.03102E-05-1.04622E-19-2.18757E-18
 -1      3666 9.39856E-05-2.67425E-05-2.88169E-05-9.41325E-07 6.36333E-19-1.86021E-18
 -1      3667 9.38533E-05-2.66332E-05-2.88130E-05-7.40557E-07 1.53629E-18-1.09774E-18
 -1      3668 9.36030E-05-2.63860E-05-2.88032E-05-6.90768E-07 7.33119E-19-1.11082E-18
 -1      3669 8.01810E-05-2.82215E-05-2.21635E-05-2.24142E-05-5.46588E-19-1.22171E-18
 -1      3670 9.39195E-05-2.66662E-05-2.88195E-05-1.17228E-06 8.68325E-19-9.45338E-19
 -1      3671 9.46264E-05-2.72496E-05-2.88735E-05 1.44456E-06 1.30767E-18 1.33030E-18
 -1      3672 1.08141E-04-4.46418E-05-2.71102E-05 1.46708E-05 5.14586E-19 1.43684E-18
 -1      3673 9.59033E-05-2.75452E-05-2.92957E-05 1.42136E-06-2.12440E-19-2.33514E-19
 -1      3674 9.57825E-05-2.76079E-05-2.92181E-05 1.65919E-06-2.79591E-19-2.32396E-19
 -1      3675 9.55896E-05-2.75970E-05-2.91409E-05 1.84664E-06-1.89709E-19-1.03400E-19
 -1      3676 9.54257E-05-2.75521E-05-2.90874E-05 2.06165E-06 7.71078E-20-7.77926E-20
 -1      3677 9.56741E-05-2.74613E-05-2.92326E-05 1.54436E-06-1.47833E-19 4.96654E-20
 -1      3678 9.51704E-05-2.74421E-05-2.90293E-05 2.24973E-06 2.66736E-19-2.16061E-19
 -1      3679 9.49766E-05-2.73226E-05-2.89920E-05 2.46902E-06 2.60124E-19-1.41074E-19
 -1      3680 9.52287E-05-2.73441E-05-2.90918E-05 1.92144E-06 4.21562E-20 9.77313E-20
 -1      3681 9.46722E-05-2.71452E-05-2.89445E-05 2.68093E-06 2.96373E-19-1.84428E-19
 -1      3682 9.44602E-05-2.69820E-05-2.89154E-05 2.92672E-06 2.51908E-19-1.26356E-19
 -1      3683 9.46722E-05-2.70462E-05-2.89805E-05 2.31886E-06 2.38113E-19-5.03940E-20
 -1      3684 9.41187E-05-2.67686E-05-2.88702E-05 3.18315E-06 6.97234E-20-1.83055E-19
 -1      3685 9.39026E-05-2.65944E-05-2.88413E-05 3.47298E-06-5.63746E-20-3.20526E-19
 -1      3686 9.40292E-05-2.66331E-05-2.88815E-05 2.78057E-06 1.47677E-19-3.41796E-19
 -1      3687 9.35380E-05-2.63791E-05-2.87894E-05 3.79310E-06-2.49530E-19-1.13570E-19
 -1      3688 9.33388E-05-2.62329E-05-2.87528E-05 4.14131E-06-4.78012E-19 1.74735E-19
 -1      3689 9.33246E-05-2.61717E-05-2.87771E-05 3.34656E-06-3.01220E-20-8.89002E-21
 -1      3690 9.29723E-05-2.60584E-05-2.86852E-05 4.54483E-06-4.36992E-19 4.07780E-19
 -1      3691 9.28235E-05-2.59911E-05-2.86332E-05 4.96288E-06-1.74282E-19 4.37136E-19
 -1      3692 9.25920E-05-2.57396E-05-2.86487E-05 4.05790E-06-3.36449E-19 3.38276E-19
 -1      3693 9.24897E-05-2.59138E-05-2.85405E-05 5.47076E-06-2.89148E-19 2.18021E-19
 -1      3694 9.24449E-05-2.59935E-05-2.84662E-05 5.96699E-06-3.71016E-19 2.65710E-19
 -1      3695 9.18846E-05-2.54360E-05-2.84770E-05 4.95948E-06-3.17409E-19 4.06575E-19
 -1      3696 9.21994E-05-2.60885E-05-2.83401E-05 6.60215E-06-2.19674E-19 2.64617E-19
 -1      3697 9.23409E-05-2.64061E-05-2.82395E-05 7.17991E-06-1.24397E-19 1.84375E-19
 -1      3698 9.12888E-05-2.53930E-05-2.82433E-05 6.10244E-06-1.75953E-19 5.22695E-19
 -1      3699 9.22735E-05-2.67737E-05-2.80747E-05 7.96591E-06-9.83420E-20-1.40914E-19
 -1      3700 9.27245E-05-2.74486E-05-2.79498E-05 8.61638E-06-2.87611E-19 6.71166E-19
 -1      3701 9.09433E-05-2.57883E-05-2.79321E-05 7.54656E-06-1.78915E-19 3.66560E-19
 -1      3702 9.29794E-05-2.82216E-05-2.77484E-05 9.56611E-06-2.40303E-19 1.01333E-18
 -1      3703 9.39149E-05-2.94014E-05-2.76140E-05 1.02465E-05-4.29526E-20 1.37483E-18
 -1      3704 9.10709E-05-2.68657E-05-2.75369E-05 9.35236E-06 3.11546E-19 8.73207E-19
 -1      3705 9.47251E-05-3.07491E-05-2.73941E-05 1.13334E-05 3.74233E-19 1.56496E-18
 -1      3706 9.63658E-05-3.25953E-05-2.72907E-05 1.19250E-05 1.02779E-18 1.41501E-18
 -1      3707 9.20285E-05-2.89589E-05-2.70722E-05 1.15524E-05 3.38753E-19 1.09789E-18
 -1      3708 9.80622E-05-3.46272E-05-2.71096E-05 1.29851E-05 1.08620E-18 1.43521E-18
 -1      3709 1.00746E-04-3.73027E-05-2.71394E-05 1.32035E-05 8.51384E-19 1.44803E-18
 -1      3710 9.43987E-05-3.24917E-05-2.66052E-05 1.40177E-05 8.13856E-19 7.20378E-19
 -1      3711 1.04251E-04-4.15896E-05-2.68036E-05 1.51869E-05 6.01608E-19 1.38461E-18
 -1      3712 9.26685E-05-2.53128E-05-2.88656E-05-4.11962E-06-4.81408E-19-1.78828E-19
 -1      3713 9.30660E-05-2.56888E-05-2.88861E-05-3.78205E-06-4.38824E-19-1.77508E-19
 -1      3714 7.69145E-05-2.17624E-05-2.35735E-05 1.55880E-05-3.53689E-19 7.91488E-20
 -1      3715 6.79931E-05-1.78996E-05-2.12493E-05 1.43326E-05-2.35422E-19 1.09798E-18
 -1      3716 1.17132E-04-4.83186E-05-2.93792E-05-6.76995E-06-5.21070E-19-3.09120E-18
 -1      3717 1.12292E-04-4.59067E-05-2.85286E-05-9.34164E-06-2.83673E-19-1.92450E-18
 -1      3718 1.08855E-04-4.31950E-05-2.80219E-05-1.07393E-05 7.24365E-19-1.30330E-18
 -1      3719 1.14419E-04-4.80120E-05-2.85769E-05-1.01651E-05 1.82872E-19-2.42306E-18
 -1      3720 1.03585E-04-3.96275E-05-2.74026E-05-1.26200E-05 9.49206E-20-3.47638E-19
 -1      3721 1.00706E-04-3.68113E-05-2.73032E-05-1.26203E-05-7.60063E-20-1.97943E-19
 -1      3722 9.84876E-05-3.44338E-05-2.74113E-05-1.18739E-05-3.81777E-20 1.85907E-19
 -1      3723 9.64606E-05-3.23022E-05-2.74642E-05-1.14783E-05 2.08037E-19 1.72384E-19
 -1      3724 9.67642E-05-3.46912E-05-2.67046E-05-1.42850E-05 1.59856E-19 5.21898E-19
 -1      3725 9.52579E-05-3.06432E-05-2.76542E-05-1.04707E-05-2.62717E-20 4.56779E-19
 -1      3726 9.40054E-05-2.91942E-05-2.77670E-05-9.87841E-06-4.50732E-19 4.44191E-19
 -1      3727 9.34504E-05-3.04046E-05-2.70745E-05-1.20935E-05-9.07202E-20 9.09318E-19
 -1      3728 9.34700E-05-2.81629E-05-2.79603E-05-8.90888E-06-8.99945E-19 2.18129E-19
 -1      3729 9.27768E-05-2.72639E-05-2.80785E-05-8.27936E-06-7.34965E-19 2.80865E-19
 -1      3730 9.17973E-05-2.76834E-05-2.75056E-05-9.91255E-06-6.78890E-19-2.96227E-19
 -1      3731 9.26444E-05-2.66944E-05-2.82442E-05-7.43245E-06-2.45495E-19 1.67878E-19
 -1      3732 9.23210E-05-2.61996E-05-2.83441E-05-6.83508E-06 1.45852E-19-1.49982E-19
 -1      3733 9.11790E-05-2.61151E-05-2.78972E-05-8.01207E-06-6.63665E-19-2.17476E-19
 -1      3734 9.24185E-05-2.59506E-05-2.84724E-05-6.12136E-06-2.71291E-19-1.32691E-18
 -1      3735 9.23252E-05-2.57358E-05-2.85463E-05-5.58152E-06-8.41841E-19-1.97424E-18
 -1      3736 9.11704E-05-2.53462E-05-2.82141E-05-6.43078E-06-9.30086E-19-2.65010E-18
 -1      3737 9.25424E-05-2.56978E-05-2.86383E-05-4.98971E-06-8.32093E-19-5.66898E-19
 -1      3738 9.25816E-05-2.56651E-05-2.86867E-05-4.51487E-06-5.08379E-19-1.91337E-18
 -1      3739 9.14987E-05-2.51110E-05-2.84507E-05-5.13516E-06-2.83117E-19-2.21409E-18
 -1      3740 9.28484E-05-2.57553E-05-2.87478E-05-4.02839E-06 6.16705E-19-1.37606E-18
 -1      3741 9.29549E-05-2.58310E-05-2.87751E-05-3.61810E-06 5.79134E-19-9.78472E-19
 -1      3742 9.19892E-05-2.52115E-05-2.86156E-05-4.08060E-06 5.83659E-19 2.86522E-19
 -1      3743 9.32282E-05-2.59897E-05-2.88120E-05-3.21945E-06 8.62891E-19-5.56545E-19
 -1      3744 9.33625E-05-2.61231E-05-2.88234E-05-2.86990E-06 1.22188E-18-2.84852E-19
 -1      3745 9.25319E-05-2.55033E-05-2.87224E-05-3.22359E-06 1.11682E-18 1.25294E-18
 -1      3746 9.36174E-05-2.63093E-05-2.88427E-05-2.54272E-06 4.96675E-19 3.76257E-20
 -1      3747 9.37491E-05-2.64620E-05-2.88425E-05-2.24999E-06 4.85274E-19 1.28936E-18
 -1      3748 9.30583E-05-2.58861E-05-2.87851E-05-2.52932E-06 1.42559E-18 8.45305E-19
 -1      3749 8.65927E-05-2.17141E-05-2.78008E-05-7.91831E-06-7.98071E-19-2.09569E-20
 -1      3750 8.73787E-05-2.20292E-05-2.80368E-05-7.21210E-06-2.65637E-19-1.26910E-19
 -1      3751 8.85305E-05-2.25337E-05-2.82831E-05-6.66352E-06-4.81299E-20-2.19102E-19
 -1      3752 8.92285E-05-2.29490E-05-2.84275E-05-6.09577E-06-4.48173E-19-2.75935E-19
 -1      3753 8.66376E-05-2.14972E-05-2.78875E-05-5.92224E-06-2.92337E-19-5.63825E-19
 -1      3754 8.20238E-05-2.13962E-05-2.59688E-05-1.20044E-05-1.41871E-19-4.66777E-19
 -1      3755 8.27077E-05-2.10325E-05-2.64935E-05-1.06454E-05-1.57605E-19-2.53214E-19
 -1      3756 7.94111E-05-2.43799E-05-2.35448E-05-1.85093E-05-1.71787E-19-8.90668E-19
 -1      3757 1.09017E-04-4.61434E-05-2.68787E-05-1.61234E-05 1.04499E-18-1.79247E-18
 -1      3758 9.42280E-05-3.63120E-05-2.47380E-05-2.02930E-05 1.72497E-18 5.78212E-19
 -1      3759 1.03133E-04-4.22364E-05-2.61778E-05-1.81390E-05 9.62349E-19-8.34380E-19
 -1      3760 9.14276E-05-2.42330E-05-2.88114E-05 4.02843E-06 1.44610E-18-2.33719E-19
 -1      3761 9.09584E-05-2.38355E-05-2.87675E-05 4.48741E-06 4.54879E-19-1.69087E-19
 -1      3762 9.60490E-05-2.65006E-05-2.98028E-05 2.66334E-07-2.85890E-19-5.41938E-19
 -1      3763 9.60778E-05-2.69051E-05-2.96506E-05 6.48329E-07-2.25491E-19-3.83528E-19
 -1      3764 9.02051E-05-2.33546E-05-2.86677E-05 4.90289E-06-9.87324E-19 7.47793E-19
 -1      3765 8.96249E-05-2.29444E-05-2.85779E-05 5.43477E-06-1.07791E-18 1.13748E-18
 -1      3766 8.97213E-05-2.30370E-05-2.85597E-05 4.06728E-06 1.67376E-19 7.72337E-19
 -1      3767 9.53501E-05-2.43002E-05-3.04280E-05 1.74841E-06 9.96330E-19-3.55103E-19
 -1      3768 9.46115E-05-2.25754E-05-3.08913E-05 2.31353E-06 1.17086E-18-4.54121E-19
 -1      3769 8.68450E-05-2.16151E-05-2.79870E-05 7.16093E-06-1.26637E-18 2.98379E-18
 -1      3770 8.60570E-05-2.13441E-05-2.77303E-05 7.93008E-06-9.66087E-19 3.18342E-18
 -1      3771 9.36775E-05-2.06064E-05-3.13261E-05-1.92358E-07 4.79074E-19-1.16193E-18
 -1      3772 9.37282E-05-2.07064E-05-3.13073E-05-7.16590E-07 2.84876E-19-1.03191E-18
 -1      3773 9.43586E-05-2.18124E-05-3.10719E-05 1.02325E-08 3.69818E-19-1.05179E-18
 -1      3774 7.08988E-05-2.20190E-05-2.05973E-05-2.02328E-05 6.79155E-19 1.05016E-18
 -1      3775 8.17220E-05-2.95582E-05-2.23917E-05-2.28604E-05 1.50976E-18 1.82390E-19
 -1      3776 9.23942E-05-2.50318E-05-2.88807E-05 3.27325E-06 2.41697E-18-1.18015E-18
 -1      3777 9.20256E-05-2.46714E-05-2.88661E-05 3.66978E-06 1.87443E-18-5.02198E-19
 -1      3778 9.10535E-05-2.39916E-05-2.87261E-05 3.37131E-06 2.01966E-18-1.22155E-18
 -1      3779 9.31474E-05-2.57273E-05-2.89033E-05 2.62301E-06 1.05374E-18 8.12338E-20
 -1      3780 9.28643E-05-2.54135E-05-2.89063E-05 2.96491E-06 1.92122E-18-8.71659E-20
 -1      3781 9.21075E-05-2.48464E-05-2.88157E-05 2.76007E-06 1.18556E-18 6.51789E-19
 -1      3782 9.37170E-05-2.63076E-05-2.88971E-05 2.06443E-06 1.05583E-18 1.69143E-19
 -1      3783 9.35118E-05-2.60485E-05-2.89105E-05 2.36307E-06 1.32615E-18 1.09692E-19
 -1      3784 9.29277E-05-2.55830E-05-2.88559E-05 2.23354E-06 1.00724E-18 1.29332E-18
 -1      3785 8.46703E-05-2.10235E-05-2.73228E-05 8.73055E-06-1.47378E-18 2.83146E-18
 -1      3786 8.38379E-05-2.10253E-05-2.69272E-05 9.72043E-06-1.62612E-18 1.53154E-18
 -1      3787 8.35184E-05-2.00609E-05-2.71272E-05 7.11934E-06-1.74188E-18 1.46061E-18
 -1      3788 9.44969E-05-2.71909E-05-2.88467E-05-1.46675E-06 3.21909E-19 3.04997E-18
 -1      3789 9.42724E-05-2.69678E-05-2.88458E-05-1.57061E-06 1.74577E-18 1.41881E-18
 -1      3790 9.35843E-05-2.60876E-05-2.89256E-05-3.52426E-06-2.33966E-19-3.94947E-20
 -1      3791 9.39059E-05-2.64035E-05-2.89373E-05-3.23830E-06 3.23330E-20-1.61900E-19
 -1      3792 9.29417E-05-2.55846E-05-2.88583E-05-3.24803E-06-3.02287E-19 1.28578E-19
 -1      3793 9.44465E-05-2.70952E-05-2.88683E-05 1.38514E-06 6.41978E-19 6.72321E-19
 -1      3794 9.57048E-05-2.64005E-05-2.97067E-05 4.07433E-07 7.09106E-19-1.52568E-19
 -1      3795 9.56478E-05-2.59475E-05-2.98648E-05 1.01873E-06 8.36122E-19-1.14468E-19
 -1      3796 9.55670E-05-2.53856E-05-3.00853E-05 1.25573E-06 9.36137E-19-2.93523E-19
 -1      3797 9.58239E-05-2.63250E-05-2.97916E-05 2.32166E-07 7.66762E-19-3.78580E-19
 -1      3798 9.43709E-05-2.20455E-05-3.10047E-05 1.93894E-06 1.03652E-18-5.66246E-19
 -1      3799 6.42290E-05-1.54257E-05-2.08817E-05 7.65192E-06-4.05821E-19 2.25877E-18
 -1      3800 9.57500E-05-2.76023E-05-2.92069E-05-1.74096E-06 4.79108E-19-4.50158E-19
 -1      3801 9.58635E-05-2.75466E-05-2.92773E-05-1.48343E-06 2.69430E-19-3.22448E-19
 -1      3802 9.59674E-05-2.74236E-05-2.93785E-05-1.24468E-06 2.71676E-19-1.87479E-19
 -1      3803 9.60214E-05-2.72153E-05-2.94853E-05-9.21289E-07 5.00564E-19-2.17506E-19
 -1      3804 9.59559E-05-2.73209E-05-2.94135E-05-1.19906E-06 3.31826E-19-5.19933E-19
 -1      3805 6.77116E-05-1.66647E-05-2.16012E-05-1.12436E-05 4.02241E-19-1.76698E-18
 -1      3806 7.26616E-05-2.00558E-05-2.26189E-05-1.50640E-05 1.75432E-19-1.46651E-18
 -1      3807 9.38269E-05-2.65731E-05-2.88198E-05-1.44023E-06 1.50564E-18-9.80482E-19
 -1      3808 9.36009E-05-2.63981E-05-2.88068E-05-1.21904E-06 1.18727E-18-1.57875E-18
 -1      3809 8.86869E-05-2.24486E-05-2.84107E-05 5.92608E-06-8.41275E-19 2.07546E-18
 -1      3810 8.79975E-05-2.20730E-05-2.82522E-05 6.55270E-06-6.85429E-19 3.31742E-18
 -1      3811 8.59846E-05-2.09821E-05-2.78249E-05 5.83328E-06-1.18784E-18 2.55186E-18
 -1      3812 8.80526E-05-2.20131E-05-2.82774E-05 4.86959E-06-2.57866E-19 2.75321E-18
 -1      3813 9.34078E-05-2.62215E-05-2.87932E-05-9.33279E-07 3.50985E-19-1.48219E-18
 -1      3814 9.32717E-05-2.61112E-05-2.87872E-05-6.56348E-07-7.15422E-20-1.52526E-19
 -1      3815 9.32927E-05-2.61054E-05-2.87900E-05-1.20964E-06 4.61251E-19-5.44169E-19
 -1      3816 9.41972E-05-2.68390E-05-2.88699E-05 1.47438E-06-1.53244E-19 7.79651E-19
 -1      3817 9.60743E-05-2.72109E-05-2.95106E-05 9.15302E-07-2.59469E-19-3.66579E-19
 -1      3818 9.60147E-05-2.74200E-05-2.94002E-05 1.20820E-06-3.01054E-19-3.60097E-19
 -1      3819 9.60922E-05-2.68583E-05-2.96689E-05 6.54990E-07-1.67477E-19-4.64268E-19
 -1      3820 9.38170E-05-2.08825E-05-3.12664E-05-1.11516E-06 1.67801E-19-1.13042E-18
 -1      3821 9.39660E-05-2.11900E-05-3.12075E-05-1.59863E-06 9.70821E-21-1.18860E-18
 -1      3822 9.44398E-05-2.19794E-05-3.10310E-05-7.19507E-07 1.50350E-19-1.00224E-18
 -1      3823 8.43888E-05-2.12275E-05-2.70582E-05-9.58845E-06-1.21989E-19-2.71527E-19
 -1      3824 8.52067E-05-2.13154E-05-2.74232E-05-8.65517E-06-4.39438E-19-4.49349E-20
 -1      3825 8.11055E-05-1.96792E-05-2.62563E-05-8.63564E-06-1.80140E-19-1.27436E-18
 -1      3826 9.57621E-05-2.52900E-05-3.01875E-05-5.92300E-07-3.55753E-19-7.44447E-19
 -1      3827 9.59053E-05-2.59557E-05-2.99869E-05-7.97494E-08-3.45560E-19-6.25137E-19
 -1      3828 9.59520E-05-2.59543E-05-2.99968E-05 3.89383E-08-2.48669E-19-6.41054E-19
 -1      3829 1.08066E-04-1.84719E-05-3.88273E-05-6.81659E-06-8.69982E-19 1.22551E-18
 -1      3830 9.89668E-05-3.87049E-05-2.59168E-05 1.78451E-05 7.99139E-19 1.21550E-18
 -1      3831 7.80288E-05-2.21234E-05-2.38976E-05-1.54201E-05 3.27630E-20-9.77387E-19
 -1      3832 9.39750E-05-2.66989E-05-2.88346E-05-1.66078E-06 1.65397E-18 3.98333E-19
 -1      3833 9.40416E-05-2.66430E-05-2.88850E-05 1.70188E-06 1.00669E-20-8.59825E-20
 -1      3834 9.36140E-05-2.62785E-05-2.88580E-05 1.61819E-06 4.91958E-19 1.68475E-19
 -1      3835 9.59767E-05-2.73268E-05-2.94195E-05 1.13963E-06-2.41457E-19-2.76132E-19
 -1      3836 9.31168E-05-3.43800E-05-2.51468E-05 1.85268E-05 8.27386E-19 6.74496E-19
 -1      3837 9.53494E-05-2.42653E-05-3.04755E-05-9.72932E-07-2.40330E-19-8.06308E-19
 -1      3838 7.78136E-05-2.08596E-05-2.44897E-05 1.35594E-05-4.53123E-19 2.20291E-19
 -1      3839 9.20332E-05-2.48501E-05-2.88059E-05-4.42442E-06-3.54057E-19-1.47367E-19
 -1      3840 9.18038E-05-2.46945E-05-2.87485E-05-3.76422E-06-3.53613E-19-4.47805E-19
 -1      3841 9.15447E-05-2.44293E-05-2.87631E-05-4.82393E-06-3.58639E-19-1.71631E-19
 -1      3842 9.38318E-05-2.65370E-05-2.88385E-05-1.89966E-06 8.70713E-19 1.19685E-20
 -1      3843 1.04584E-04-4.13088E-05-2.71002E-05-1.38948E-05 7.36859E-19-1.00035E-18
 -1      3844 9.33884E-05-2.61811E-05-2.88042E-05-1.85790E-06 1.69596E-19 5.03824E-19
 -1      3845 8.41275E-05-2.04754E-05-2.72383E-05-7.05148E-06-4.04398E-19-7.95486E-19
 -1      3846 6.37693E-05-1.42167E-05-2.09765E-05 3.84131E-06-5.36973E-20 2.13440E-18
 -1      3847 6.53486E-05-1.48603E-05-2.15697E-05-4.79793E-07 4.68661E-19 2.10807E-18
 -1      3848 7.00502E-05-1.66558E-05-2.29185E-05 8.42663E-06-1.90366E-19 2.08240E-18
 -1      3849 7.85913E-05-2.09490E-05-2.47321E-05-1.33895E-05 1.74251E-19-7.29663E-19
 -1      3850 9.51138E-05-2.74354E-05-2.90040E-05-2.71504E-06 3.62281E-19-1.62055E-19
 -1      3851 7.59872E-05-1.87041E-05-2.44465E-05-1.05031E-05 1.84825E-19-1.16069E-18
 -1      3852 8.82300E-05-3.24637E-05-2.38967E-05-2.12724E-05 1.14615E-18 9.14392E-19
 -1      3853 9.42956E-05-3.37057E-05-2.58772E-05-1.62610E-05 4.06020E-19-1.35658E-22
 -1      3854 9.18225E-05-3.10533E-05-2.60145E-05-1.51257E-05 3.45271E-19 6.41125E-19
 -1      3855 8.28080E-05-2.73304E-05-2.38442E-05-1.82903E-05-4.79186E-21 1.79273E-19
 -1      3856 9.47164E-05-2.25830E-05-3.08919E-05-1.39989E-06-8.77730E-20-1.01936E-18
 -1      3857 9.29732E-05-2.58292E-05-2.87711E-05-5.54823E-07 2.60903E-19-1.05485E-18
 -1      3858 9.31844E-05-2.60250E-05-2.87838E-05-3.11375E-07 7.78259E-19-7.97599E-19
 -1      3859 9.31519E-05-2.59961E-05-2.87860E-05-1.03782E-08 2.30708E-18 6.37992E-19
 -1      3860 9.55136E-05-2.49163E-05-3.02563E-05 1.15589E-06 8.70879E-19-3.65861E-19
 -1      3861 9.48178E-05-2.28607E-05-3.08486E-05 1.70670E-07 4.55861E-19-8.24231E-19
 -1      3862 9.48136E-05-2.28595E-05-3.08486E-05-1.56441E-07 2.94367E-19-1.00177E-18
 -1      3863 6.92564E-05-1.94238E-05-2.12176E-05-1.44361E-05 8.89530E-19 2.00078E-18
 -1      3864 8.00744E-05-1.91570E-05-2.60406E-05 8.72302E-06-2.22130E-18 3.23236E-19
 -1      3865 8.18848E-05-2.06971E-05-2.62924E-05 1.07488E-05-1.12103E-18 6.06935E-19
 -1      3866 8.09126E-05-2.09487E-05-2.56694E-05 1.20721E-05-1.17042E-18 4.78838E-20
 -1      3867 9.33364E-05-2.60805E-05-2.88270E-05 1.27536E-06 1.86468E-18 3.44554E-19
 -1      3868 9.29858E-05-2.57064E-05-2.88290E-05 1.62516E-06 1.45819E-18 1.42886E-18
 -1      3869 9.31561E-05-2.59421E-05-2.88092E-05 1.00373E-06 2.66362E-18 1.33902E-18
 -1      3870 7.19593E-05-1.93728E-05-2.25797E-05 1.21437E-05 1.04249E-18 4.43369E-22
 -1      3871 6.77381E-05-1.64896E-05-2.17310E-05 9.08044E-06 1.04214E-18-7.43801E-19
 -1      3872 9.01758E-05-2.34791E-05-2.85840E-05-5.65930E-06-6.34529E-19 7.26426E-20
 -1      3873 9.07678E-05-2.39191E-05-2.86662E-05-5.18612E-06-4.83231E-19-1.18359E-19
 -1      3874 9.04110E-05-2.36866E-05-2.85790E-05-4.36354E-06-5.48934E-19-2.91801E-19
 -1      3875 9.53991E-05-2.75145E-05-2.90927E-05-2.16590E-06 1.65449E-19-2.10595E-19
 -1      3876 9.55604E-05-2.75786E-05-2.91359E-05-1.93939E-06 3.29838E-19-3.89778E-19
 -1      3877 9.56658E-05-2.74469E-05-2.92350E-05-1.64207E-06 3.64000E-19-4.43615E-19
 -1      3878 9.60216E-05-2.69768E-05-2.95954E-05-6.66251E-07 5.24231E-19-2.42466E-19
 -1      3879 9.60046E-05-2.66723E-05-2.97085E-05-3.03838E-07 6.58330E-19-3.06243E-19
 -1      3880 9.60579E-05-2.69124E-05-2.96321E-05-6.95272E-07 4.45580E-19-4.48830E-20
 -1      3881 9.38693E-05-2.63302E-05-2.89392E-05-2.79946E-06 1.05939E-19 3.42812E-19
 -1      3882 9.43278E-05-2.67278E-05-2.89697E-05-3.01807E-06 1.49318E-19-1.94620E-19
 -1      3883 9.45873E-05-2.69725E-05-2.89831E-05-2.77125E-06 2.39924E-19-6.13972E-20
 -1      3884 6.74178E-05-1.57772E-05-2.22201E-05 4.49861E-06 1.14922E-18-1.36114E-18
 -1      3885 9.48656E-05-2.29754E-05-3.07952E-05 1.33971E-06 9.79739E-19-6.34580E-19
 -1      3886 8.11786E-05-2.76845E-05-2.28049E-05 2.02876E-05 7.03335E-19 5.94974E-20
 -1      3887 9.49192E-05-2.31242E-05-3.07843E-05 6.93074E-07 7.12231E-19-8.95254E-19
 -1      3888 9.48499E-05-2.29365E-05-3.08275E-05 3.97561E-07 5.14932E-19-7.48500E-19
 -1      3889 9.53027E-05-2.38197E-05-3.06164E-05 1.91452E-07 4.14390E-19-6.45356E-19
 -1      3890 6.75901E-05-1.59402E-05-2.21271E-05-5.87456E-06 6.90706E-19-2.06225E-18
 -1      3891 8.87103E-05-2.26010E-05-2.83097E-05-5.06769E-06-3.98321E-19-4.90013E-19
 -1      3892 8.94110E-05-2.29460E-05-2.84992E-05 3.08039E-06 1.30352E-18 7.53542E-19
 -1      3893 8.86528E-05-2.24381E-05-2.83857E-05 3.39686E-06 2.97840E-19 1.50220E-18
 -1      3894 8.50170E-05-2.07438E-05-2.75605E-05-4.74305E-06-2.73142E-19-3.07419E-19
 -1      3895 8.61893E-05-2.13128E-05-2.78292E-05-4.35656E-06 1.23006E-19-1.32196E-19
 -1      3896 9.57548E-05-2.73698E-05-2.93095E-05 1.19089E-06-7.46662E-20-1.43150E-19
 -1      3897 9.55625E-05-2.73675E-05-2.92270E-05 1.38043E-06-1.28119E-19 2.66316E-20
 -1      3898 9.52898E-05-2.72896E-05-2.91459E-05 1.52117E-06-7.45257E-20-9.56546E-20
 -1      3899 9.50345E-05-2.71745E-05-2.90822E-05 1.70760E-06 8.67497E-20-3.51751E-20
 -1      3900 9.53775E-05-2.72010E-05-2.92157E-05 1.16716E-06-4.03936E-20-4.66798E-20
 -1      3901 9.46839E-05-2.69936E-05-2.90146E-05 1.86462E-06 1.30452E-19 3.01088E-20
 -1      3902 9.43789E-05-2.67985E-05-2.89612E-05 2.06976E-06 1.71579E-19-1.78271E-19
 -1      3903 9.47583E-05-2.69357E-05-2.90636E-05 1.45676E-06 2.77306E-20 1.64592E-19
 -1      3904 9.39604E-05-2.65457E-05-2.88980E-05 2.26306E-06 1.85542E-19-3.38399E-19
 -1      3905 9.36178E-05-2.63036E-05-2.88460E-05 2.50779E-06 9.70785E-20-2.86734E-19
 -1      3906 9.39947E-05-2.64834E-05-2.89291E-05 1.79256E-06 6.55485E-20 2.54767E-19
 -1      3907 9.31406E-05-2.60116E-05-2.87775E-05 2.75697E-06 3.23982E-19-2.36658E-19
 -1      3908 9.27738E-05-2.57559E-05-2.87177E-05 3.06033E-06 2.80002E-19 2.63967E-20
 -1      3909 9.31042E-05-2.59070E-05-2.87931E-05 2.21699E-06 4.21609E-19 1.77329E-19
 -1      3910 9.22448E-05-2.54578E-05-2.86332E-05 3.39013E-06-3.29987E-19 1.01217E-19
 -1      3911 9.18755E-05-2.52307E-05-2.85557E-05 3.77471E-06-4.05850E-19 3.52891E-19
 -1      3912 9.21018E-05-2.52734E-05-2.86347E-05 2.76728E-06 1.19534E-19-2.88839E-20
 -1      3913 9.13101E-05-2.49713E-05-2.84433E-05 4.21385E-06-2.44182E-19 4.52535E-19
 -1      3914 9.09720E-05-2.48272E-05-2.83381E-05 4.70442E-06-8.47620E-20 4.85841E-19
 -1      3915 9.10104E-05-2.46559E-05-2.84308E-05 3.50443E-06-2.07438E-19 1.81508E-19
 -1      3916 9.03924E-05-2.46622E-05-2.81850E-05 5.29076E-06-6.88711E-20-1.00574E-20
 -1      3917 9.01405E-05-2.46737E-05-2.80423E-05 5.91825E-06-2.29742E-19-8.74628E-20
 -1      3918 8.98641E-05-2.41514E-05-2.81556E-05 4.49398E-06-3.54975E-19-7.06503E-20
 -1      3919 8.95868E-05-2.46783E-05-2.78350E-05 6.70325E-06-1.85666E-19-6.40697E-20
 -1      3920 8.95102E-05-2.49446E-05-2.76475E-05 7.50461E-06-1.68728E-19 6.82090E-20
 -1      3921 8.87206E-05-2.38847E-05-2.77811E-05 5.83199E-06-2.57300E-19-4.77936E-19
 -1      3922 8.90517E-05-2.52223E-05-2.73732E-05 8.56018E-06 9.23352E-20 3.93984E-19
 -1      3923 8.92947E-05-2.58893E-05-2.71392E-05 9.57681E-06 2.50065E-19 2.98243E-19
 -1      3924 8.76797E-05-2.40253E-05-2.72782E-05 7.65018E-06 8.64977E-20 1.09234E-19
 -1      3925 8.90566E-05-2.65704E-05-2.67898E-05 1.09672E-05 3.15315E-19 4.90315E-19
 -1      3926 8.98478E-05-2.78379E-05-2.65204E-05 1.22385E-05 6.67672E-19 7.51571E-19
 -1      3927 8.69350E-05-2.48409E-05-2.66198E-05 1.01208E-05 3.05967E-19 2.48179E-19
 -1      3928 9.00747E-05-2.91720E-05-2.60944E-05 1.40485E-05 8.65502E-19 6.14886E-19
 -1      3929 9.18291E-05-3.13046E-05-2.58535E-05 1.54492E-05 8.32921E-19 6.61299E-19
 -1      3930 8.67775E-05-2.67065E-05-2.57963E-05 1.34701E-05 6.32605E-19 4.30670E-19
 -1      3931 9.10893E-05-2.92929E-05-2.64254E-05-1.31907E-05-8.28012E-20 3.57846E-19
 -1      3932 8.98761E-05-2.76573E-05-2.66696E-05-1.19714E-05-1.89864E-19 7.86430E-20
 -1      3933 8.77324E-05-2.81472E-05-2.55608E-05-1.50370E-05 2.51876E-19-2.42484E-19
 -1      3934 8.98137E-05-2.66456E-05-2.70295E-05-1.04124E-05-6.34673E-19-6.90336E-19
 -1      3935 8.92771E-05-2.56989E-05-2.72600E-05-9.35444E-06-6.95211E-19-9.86156E-19
 -1      3936 8.71077E-05-2.55123E-05-2.64072E-05-1.13547E-05-8.80751E-19-7.01382E-19
 -1      3937 8.95442E-05-2.51960E-05-2.75508E-05-8.16416E-06-5.44789E-19-6.70494E-19
 -1      3938 8.94143E-05-2.47161E-05-2.77429E-05-7.29495E-06-7.26757E-19-1.10444E-18
 -1      3939 8.74334E-05-2.41964E-05-2.71028E-05-8.55635E-06-7.17265E-19-1.13190E-18
 -1      3940 8.98370E-05-2.45450E-05-2.79651E-05-6.38928E-06-1.79395E-18-3.35021E-19
 -1      3941 8.99387E-05-2.43756E-05-2.81123E-05-5.68658E-06-1.72999E-18-6.01579E-19
 -1      3942 8.81825E-05-2.36647E-05-2.76445E-05-6.47756E-06-9.63054E-19 8.31487E-19
 -1      3943 9.04168E-05-2.44177E-05-2.82745E-05-4.99814E-06 6.53210E-20-4.06160E-19
 -1      3944 9.06384E-05-2.44466E-05-2.83803E-05-4.43241E-06 1.00871E-18-1.76736E-19
 -1      3945 8.91184E-05-2.36563E-05-2.80471E-05-4.91712E-06-8.54811E-19 1.89535E-18
 -1      3946 9.11173E-05-2.46166E-05-2.84938E-05-3.90502E-06 1.21598E-18-2.52364E-19
 -1      3947 9.13885E-05-2.47629E-05-2.85650E-05-3.44922E-06 1.38777E-18 6.16457E-19
 -1      3948 9.00907E-05-2.39578E-05-2.83348E-05-3.74268E-06 7.44804E-19 1.14065E-18
 -1      3949 9.18367E-05-2.49975E-05-2.86409E-05-3.04603E-06 1.35452E-18 1.44657E-18
 -1      3950 9.21142E-05-2.52026E-05-2.86855E-05-2.67571E-06 1.34668E-18 1.75693E-18
 -1      3951 9.10266E-05-2.44332E-05-2.85323E-05-2.85706E-06 2.19517E-18 6.45109E-19
 -1      3952 9.25163E-05-2.54640E-05-2.87332E-05-2.36351E-06 1.04516E-18 1.09010E-18
 -1      3953 9.27744E-05-2.56872E-05-2.87577E-05-2.06915E-06 9.69054E-19 4.07659E-19
 -1      3954 9.18753E-05-2.49882E-05-2.86618E-05-2.18354E-06 6.29831E-19 8.50309E-19
 -1      3955 9.49267E-05-2.72117E-05-2.90193E-05-2.57666E-06 3.56917E-19-2.33111E-19
 -1      3956 9.51344E-05-2.73736E-05-2.90435E-05-2.35155E-06 2.75746E-19-3.33717E-19
 -1      3957 9.46207E-05-2.69082E-05-2.90156E-05-2.40124E-06 2.32637E-19-1.65003E-19
 -1      3958 9.19109E-05-2.47995E-05-2.87719E-05 2.14447E-06 3.06300E-19 2.31742E-18
 -1      3959 9.14413E-05-2.43925E-05-2.87383E-05 2.40058E-06 7.24680E-19 1.44973E-18
 -1      3960 6.92286E-05-1.53213E-05-2.29015E-05-8.49277E-07 1.20837E-18-2.06437E-18
 -1      3961 7.19976E-05-1.69444E-05-2.36776E-05-6.63340E-06 3.96967E-19-1.15269E-18
 -1      3962 7.58924E-05-1.78153E-05-2.49456E-05-6.20917E-06 3.39736E-19-9.64437E-19
 -1      3963 6.71008E-05-1.64215E-05-2.16429E-05-9.65377E-06 6.14350E-19 3.50455E-18
 -1      3964 7.41938E-05-2.14594E-05-2.26516E-05-1.52640E-05 2.79865E-19 1.47143E-18
 -1      3965 9.08081E-05-2.39305E-05-2.86733E-05 2.59163E-06 1.44038E-18 1.51122E-18
 -1      3966 9.02081E-05-2.34700E-05-2.86077E-05 2.87685E-06 1.82646E-18 8.74050E-19
 -1      3967 9.07327E-05-2.38861E-05-2.86346E-05 1.94178E-06 1.38153E-19 2.56268E-18
 -1      3968 9.60448E-05-2.71595E-05-2.95223E-05 8.31913E-07-1.95703E-19-2.86155E-19
 -1      3969 9.59337E-05-2.73093E-05-2.94127E-05 1.04784E-06-1.44112E-19-2.76493E-19
 -1      3970 9.58270E-05-2.72130E-05-2.94032E-05 8.87725E-07-1.01231E-19-1.58111E-19
 -1      3971 8.25925E-05-1.95447E-05-2.70696E-05 4.91923E-06-2.37172E-18 1.41681E-18
 -1      3972 8.10616E-05-1.90235E-05-2.66373E-05 5.64753E-06-2.41792E-18 1.49703E-18
 -1      3973 7.66412E-05-2.21111E-05-2.33240E-05 1.48310E-05 6.46433E-19 4.27590E-19
 -1      3974 7.52094E-05-1.99562E-05-2.37273E-05 1.07853E-05 8.95440E-19-6.62142E-20
 -1      3975 9.58698E-05-2.55111E-05-3.01598E-05-1.64962E-07-1.63477E-19-6.90559E-19
 -1      3976 9.60098E-05-2.60945E-05-2.99703E-05 1.95134E-07-5.21889E-21-6.36404E-19
 -1      3977 9.29719E-05-2.58231E-05-2.87736E-05-1.79505E-06 1.49291E-19 2.10498E-19
 -1      3978 9.30862E-05-2.59421E-05-2.87772E-05-1.42614E-06 1.10646E-20-6.10540E-19
 -1      3979 9.28666E-05-2.57644E-05-2.87618E-05-1.12685E-06-5.16498E-19 3.82246E-19
 -1      3980 9.24607E-05-2.54300E-05-2.87283E-05-1.61549E-06 7.56813E-20 6.59937E-20
 -1      3981 9.57411E-05-2.55241E-05-3.00817E-05 6.77092E-07 7.92894E-19-3.15274E-19
 -1      3982 9.54435E-05-2.45130E-05-3.04027E-05 1.05377E-06 8.80657E-19-4.32216E-19
 -1      3983 9.58501E-05-2.59849E-05-2.99453E-05 2.25534E-07 8.33080E-19-3.77090E-19
 -1      3984 8.19354E-05-1.95513E-05-2.67716E-05-5.53133E-06-2.17400E-19-5.70997E-19
 -1      3985 8.34331E-05-2.00820E-05-2.71853E-05-4.97392E-06-3.25679E-19-5.16384E-19
 -1      3986 8.33880E-05-1.99182E-05-2.71537E-05-3.30899E-06 3.38189E-20-1.72016E-19
 -1      3987 8.81233E-05-3.09545E-05-2.45383E-05 1.89514E-05 7.55684E-19 3.41361E-19
 -1      3988 9.59344E-05-2.72954E-05-2.94197E-05-1.13049E-06 5.06236E-19-4.83250E-19
 -1      3989 9.60386E-05-2.71398E-05-2.95271E-05-8.86514E-07 4.18759E-19-2.90156E-19
 -1      3990 8.04733E-05-2.49272E-05-2.38004E-05 1.63783E-05 6.82920E-19 3.40477E-19
 -1      3991 9.53492E-05-2.41569E-05-3.05181E-05 1.02865E-06 8.93174E-19-5.72079E-19
 -1      3992 9.50421E-05-2.33745E-05-3.07116E-05 8.44336E-07 8.52301E-19-8.72909E-19
 -1      3993 9.54330E-05-2.41827E-05-3.05191E-05 4.76916E-07 6.47514E-19-6.22140E-19
 -1      3994 9.55855E-05-2.48070E-05-3.03374E-05 5.50666E-07 8.67244E-19-6.26763E-19
 -1      3995 9.30655E-05-2.59012E-05-2.87865E-05 3.30675E-07 3.27527E-18 2.20990E-18
 -1      3996 9.31378E-05-2.59568E-05-2.87967E-05 6.30498E-07 2.70513E-18 1.59014E-18
 -1      3997 9.26726E-05-2.55136E-05-2.87791E-05 8.61687E-07 3.13326E-18 1.56704E-18
 -1      3998 9.27594E-05-2.56387E-05-2.87665E-05 1.39726E-07 2.49258E-18 3.72591E-19
 -1      3999 9.52290E-05-2.38893E-05-3.05777E-05-7.42805E-07-9.86261E-20-8.83723E-19
 -1      4000 7.53526E-05-1.85956E-05-2.42171E-05 1.08197E-05-7.11759E-19 7.11647E-19
 -1      4001 9.61131E-05-2.65767E-05-2.97996E-05 3.91390E-07-7.23405E-20-5.28611E-19
 -1      4002 9.61025E-05-2.69174E-05-2.96552E-05 6.61627E-07-1.45624E-19-3.98665E-19
 -1      4003 9.60436E-05-2.61671E-05-2.99483E-05 2.18920E-07-3.28207E-20-5.29009E-19
 -1      4004 9.49585E-05-2.31951E-05-3.07717E-05-6.79859E-07 9.05972E-20-9.73236E-19
 -1      4005 9.56064E-05-2.46801E-05-3.03840E-05-3.50342E-07-1.04169E-19-7.14872E-19
 -1      4006 9.56602E-05-2.48468E-05-3.03446E-05-1.88552E-07 3.91536E-20-6.73508E-19
 -1      4007 9.48776E-05-2.29977E-05-3.08137E-05-3.59211E-07 1.72064E-19-9.09300E-19
 -1      4008 9.23712E-05-2.51873E-05-2.87958E-05-2.80705E-06-3.90173E-19 2.18144E-19
 -1      4009 9.28911E-05-2.56039E-05-2.88452E-05-2.59143E-06-4.25103E-20 5.39119E-19
 -1      4010 7.81709E-05-1.84878E-05-2.56484E-05-6.23460E-06 1.90756E-19-7.27938E-19
 -1      4011 8.00610E-05-1.89071E-05-2.62644E-05-5.45130E-06 1.15524E-20-7.22417E-19
 -1      4012 8.00427E-05-1.85386E-05-2.62593E-05-3.21266E-06-7.42064E-20-2.57809E-19
 -1      4013 7.56940E-05-1.69140E-05-2.50247E-05-2.61004E-06 3.34530E-19-6.89156E-19
 -1      4014 9.53267E-05-2.38796E-05-3.06027E-05-1.53503E-07 2.47681E-19-7.77028E-19
 -1      4015 7.17643E-05-1.66856E-05-2.36647E-05 2.69175E-06 1.12444E-18-1.41900E-18
 -1      4016 8.74500E-05-2.19494E-05-2.80808E-05-4.14846E-06-5.15069E-20-3.99803E-19
 -1      4017 8.84045E-05-2.25173E-05-2.82553E-05-3.83280E-06-4.33703E-19-3.87775E-19
 -1      4018 8.61448E-05-2.12242E-05-2.77917E-05-3.04139E-06-2.35354E-19-2.69547E-19
 -1      4019 9.26600E-05-2.54434E-05-2.88133E-05 1.76772E-06 9.60931E-19 1.48647E-18
 -1      4020 9.22881E-05-2.50931E-05-2.87981E-05 1.98554E-06 8.07458E-19 2.37177E-18
 -1      4021 9.17070E-05-2.46487E-05-2.87289E-05 1.64235E-06 4.66713E-19 1.85660E-18
 -1      4022 9.23858E-05-2.52336E-05-2.87754E-05 1.37537E-06 1.06277E-18 9.64628E-19
 -1      4023 9.60608E-05-2.68419E-05-2.96612E-05-6.27812E-07 4.90136E-19-4.90049E-19
 -1      4024 9.60821E-05-2.68820E-05-2.96619E-05-6.78362E-07 3.43982E-19-3.32032E-19
 -1      4025 9.55772E-05-2.73532E-05-2.92405E-05-1.49162E-06 2.76475E-19-2.94339E-19
 -1      4026 9.57666E-05-2.73595E-05-2.93180E-05-1.29042E-06 3.91831E-19-4.54164E-19
 -1      4027 9.58503E-05-2.71939E-05-2.94212E-05-9.88952E-07 5.85616E-19-1.16307E-19
 -1      4028 9.52171E-05-2.72923E-05-2.91081E-05-2.02740E-06 2.38301E-19-3.21727E-19
 -1      4029 9.16833E-05-2.46991E-05-2.87178E-05-2.96283E-06-4.54212E-19-4.81844E-20
 -1      4030 9.17270E-05-2.47175E-05-2.87062E-05-2.27570E-06-1.36313E-19 2.07044E-19
 -1      4031 9.10456E-05-2.42148E-05-2.86461E-05-3.20558E-06-3.32769E-19-9.87324E-20
 -1      4032 8.33868E-05-2.51819E-05-2.48778E-05 1.42194E-05 3.27335E-19 4.17584E-19
 -1      4033 7.34990E-05-1.72527E-05-2.41624E-05 7.37142E-06-9.42195E-19 1.46639E-18
 -1      4034 8.75586E-05-2.17757E-05-2.81653E-05 2.56512E-06 4.94247E-19 9.50041E-19
 -1      4035 8.76540E-05-2.18668E-05-2.82130E-05 3.61193E-06-3.07983E-19 1.85531E-18
 -1      4036 8.67036E-05-2.13307E-05-2.80279E-05 3.96928E-06-4.23529E-19 1.76400E-18
 -1      4037 7.91385E-05-2.39020E-05-2.35923E-05-1.62253E-05 1.24673E-20 6.15598E-19
 -1      4038 8.43443E-05-2.62612E-05-2.48330E-05-1.53378E-05-1.11246E-19 4.99673E-19
 -1      4039 8.36830E-05-2.47853E-05-2.53197E-05-1.32514E-05-1.31504E-19 2.60234E-19
 -1      4040 7.58800E-05-2.06345E-05-2.37974E-05-1.23020E-05-2.66949E-19 1.12084E-18
 -1      4041 9.55720E-05-2.45975E-05-3.04244E-05-1.94515E-08 3.40803E-19-5.90193E-19
 -1      4042 9.56093E-05-2.47259E-05-3.03910E-05-1.35449E-07 1.80868E-19-6.73586E-19
 -1      4043 9.59082E-05-2.54676E-05-3.01757E-05-2.48522E-08 1.12546E-19-5.11236E-19
 -1      4044 9.26894E-05-2.56092E-05-2.87512E-05-7.31643E-07-8.29290E-20-1.19903E-18
 -1      4045 9.25924E-05-2.55099E-05-2.87474E-05-3.59846E-07 8.19187E-19-2.96652E-18
 -1      4046 9.24869E-05-2.54274E-05-2.87352E-05-9.44935E-07-3.07769E-19-1.25500E-18
 -1      4047 8.93224E-05-2.28826E-05-2.84544E-05 2.25159E-06 1.81745E-18 1.96759E-18
 -1      4048 6.78985E-05-1.53173E-05-2.24358E-05-3.87364E-06-1.89757E-19 2.88277E-18
 -1      4049 7.26400E-05-1.72200E-05-2.36611E-05-5.39018E-06-5.97291E-19 2.43972E-18
 -1      4050 7.07002E-05-1.57613E-05-2.36301E-05 2.25835E-06-9.36137E-20 2.56717E-18
 -1      4051 9.60615E-05-2.68844E-05-2.96425E-05 5.82773E-07-1.36008E-19-2.25501E-19
 -1      4052 8.42645E-05-2.01960E-05-2.74725E-05 4.64369E-06-1.55722E-18 1.23101E-18
 -1      4053 8.24776E-05-1.92774E-05-2.70320E-05 3.13771E-06-2.11284E-18 2.08335E-18
 -1      4054 8.54414E-05-2.07264E-05-2.77614E-05 4.20630E-06-7.86676E-19 2.01288E-18
 -1      4055 7.81675E-05-2.06036E-05-2.46826E-05 9.83264E-06 6.67235E-19 1.45362E-19
 -1      4056 7.46075E-05-1.80922E-05-2.40672E-05 7.40166E-06 9.08102E-19-7.87997E-19
 -1      4057 9.59061E-05-2.59598E-05-2.99766E-05 7.48151E-08 6.99815E-19-3.52654E-19
 -1      4058 8.94279E-05-2.31236E-05-2.84227E-05-3.64873E-06-4.20419E-19-2.25884E-19
 -1      4059 9.02090E-05-2.36605E-05-2.85342E-05-3.37468E-06-4.48407E-19-1.10285E-19
 -1      4060 9.02242E-05-2.36638E-05-2.85089E-05-2.53138E-06-4.07150E-19-1.64103E-19
 -1      4061 9.60853E-05-2.65953E-05-2.97783E-05-4.10733E-07 4.57737E-19-2.81015E-19
 -1      4062 9.34553E-05-2.60127E-05-2.89054E-05-2.44776E-06 2.16681E-20 3.19174E-19
 -1      4063 9.38783E-05-2.63506E-05-2.89463E-05-2.25337E-06 7.27634E-20 3.38491E-19
 -1      4064 9.29624E-05-2.56230E-05-2.88509E-05-2.02461E-06-1.70150E-19 3.04882E-19
 -1      4065 7.72046E-05-1.74683E-05-2.55431E-05 1.63553E-06-1.84710E-18 1.78868E-18
 -1      4066 7.71505E-05-1.77286E-05-2.54830E-05 4.19905E-06-1.39190E-18 1.33112E-18
 -1      4067 7.47313E-05-1.76060E-05-2.45722E-05 2.66245E-06 7.43960E-19-1.12982E-18
 -1      4068 9.56019E-05-2.46806E-05-3.04036E-05 1.73246E-07 5.00746E-19-5.97119E-19
 -1      4069 9.55728E-05-2.46043E-05-3.04235E-05 3.58427E-08 3.78350E-19-5.60788E-19
 -1      4070 9.58634E-05-2.53060E-05-3.02240E-05 2.43700E-08 3.30587E-19-4.94520E-19
 -1      4071 8.83925E-05-2.24896E-05-2.82209E-05-2.78560E-06-3.52440E-19-4.51689E-19
 -1      4072 9.19843E-05-2.50412E-05-2.86863E-05-1.44496E-06-3.53675E-19-3.27160E-21
 -1      4073 9.21872E-05-2.52095E-05-2.87077E-05-1.17016E-06-2.20189E-19-8.13757E-19
 -1      4074 9.20165E-05-2.50590E-05-2.86965E-05-7.55663E-07 1.14057E-19-4.10332E-18
 -1      4075 9.48507E-05-2.69448E-05-2.91074E-05 9.92597E-07 2.81559E-20 3.06785E-19
 -1      4076 9.45045E-05-2.67508E-05-2.90363E-05 1.14102E-06-2.42598E-20 3.51552E-19
 -1      4077 9.40580E-05-2.64948E-05-2.89622E-05 1.25209E-06-2.89867E-20 2.12289E-19
 -1      4078 9.36424E-05-2.62166E-05-2.88951E-05 1.42900E-06 8.33666E-20 1.38649E-19
 -1      4079 9.41827E-05-2.64938E-05-2.90034E-05 7.76909E-07-7.18688E-20-6.77688E-21
 -1      4080 9.31177E-05-2.58909E-05-2.88188E-05 1.57906E-06 2.85071E-19 1.46165E-19
 -1      4081 9.26369E-05-2.55622E-05-2.87455E-05 1.79761E-06 4.14167E-19 7.05307E-20
 -1      4082 9.32380E-05-2.58926E-05-2.88517E-05 1.02262E-06 1.22821E-19-5.68434E-20
 -1      4083 9.20163E-05-2.51803E-05-2.86555E-05 2.02104E-06 2.33012E-19-1.76264E-19
 -1      4084 9.14914E-05-2.48309E-05-2.85651E-05 2.31493E-06-1.69902E-19-3.18688E-19
 -1      4085 9.20813E-05-2.51237E-05-2.86813E-05 1.37033E-06 3.11289E-19-4.61206E-19
 -1      4086 9.07821E-05-2.44406E-05-2.84480E-05 2.62393E-06-9.92918E-20 4.61945E-20
 -1      4087 9.02224E-05-2.41103E-05-2.83277E-05 3.01694E-06-1.02695E-19 7.55773E-20
 -1      4088 9.07835E-05-2.43019E-05-2.84704E-05 1.85563E-06 1.22410E-19-4.48309E-19
 -1      4089 8.94171E-05-2.37407E-05-2.81681E-05 3.45385E-06-2.84664E-19 2.90168E-19
 -1      4090 8.88438E-05-2.34786E-05-2.80038E-05 3.98669E-06-4.45517E-19 3.00358E-19
 -1      4091 8.92979E-05-2.34612E-05-2.81880E-05 2.54386E-06-1.47666E-19 8.74363E-20
 -1      4092 8.79377E-05-2.31756E-05-2.77830E-05 4.60333E-06-2.99773E-19 3.96185E-19
 -1      4093 8.73914E-05-2.30485E-05-2.75594E-05 5.33382E-06 6.68081E-20 6.04773E-19
 -1      4094 8.76234E-05-2.26812E-05-2.77992E-05 3.52364E-06-2.26122E-19 7.35693E-19
 -1      4095 8.63785E-05-2.28692E-05-2.72554E-05 6.20327E-06 9.12238E-20 5.78838E-19
 -1      4096 8.59281E-05-2.29638E-05-2.69561E-05 7.21500E-06 4.11311E-20 5.96197E-19
 -1      4097 8.57477E-05-2.20670E-05-2.72616E-05 4.90811E-06-1.02722E-19 5.94674E-19
 -1      4098 8.48110E-05-2.29963E-05-2.65388E-05 8.45712E-06 2.70703E-19 6.47674E-19
 -1      4099 8.46046E-05-2.34790E-05-2.61608E-05 9.82382E-06 6.19481E-19 5.79801E-19
 -1      4100 8.36890E-05-2.17250E-05-2.65260E-05 6.85104E-06 2.16474E-19 3.23550E-19
 -1      4101 8.31800E-05-2.40245E-05-2.53686E-05 1.22418E-05 3.92606E-19 8.13372E-19
 -1      4102 8.46665E-05-2.40859E-05-2.59159E-05-1.11742E-05-7.42142E-19 3.58890E-19
 -1      4103 8.46846E-05-2.33697E-05-2.63229E-05-9.62740E-06-9.02414E-19 1.22611E-19
 -1      4104 8.13400E-05-2.22994E-05-2.52446E-05-1.13123E-05-6.52171E-19 1.01978E-18
 -1      4105 8.56073E-05-2.30906E-05-2.67669E-05-8.25071E-06-5.81557E-19 1.75876E-19
 -1      4106 8.58922E-05-2.27869E-05-2.70882E-05-7.09124E-06-8.48849E-19 1.41998E-19
 -1      4107 8.33678E-05-2.18638E-05-2.63258E-05-8.00131E-06-5.91528E-19 7.92954E-19
 -1      4108 8.68165E-05-2.28139E-05-2.74140E-05-6.05577E-06-3.71952E-19 8.12016E-20
 -1      4109 8.72656E-05-2.27998E-05-2.76548E-05-5.21046E-06-4.70844E-20 7.85242E-19
 -1      4110 8.50985E-05-2.17875E-05-2.71070E-05-5.73376E-06-9.13249E-19 2.75348E-19
 -1      4111 8.80729E-05-2.29800E-05-2.78888E-05-4.50336E-06-6.46307E-19 1.00179E-18
 -1      4112 8.85657E-05-2.31333E-05-2.80632E-05-3.87002E-06-8.93732E-19 9.43918E-19
 -1      4113 8.68688E-05-2.22110E-05-2.76843E-05-4.10357E-06-1.51501E-19-5.79288E-19
 -1      4114 8.92922E-05-2.34102E-05-2.82280E-05-3.36310E-06-7.00178E-19 1.58297E-18
 -1      4115 8.97622E-05-2.36567E-05-2.83499E-05-2.88735E-06 1.23476E-18 5.71814E-19
 -1      4116 8.83870E-05-2.28014E-05-2.80892E-05-2.93957E-06-4.03437E-19-2.58204E-21
 -1      4117 9.04054E-05-2.39914E-05-2.84613E-05-2.49501E-06 1.89381E-18-3.10919E-19
 -1      4118 9.08573E-05-2.42907E-05-2.85422E-05-2.14549E-06 1.53420E-18-4.54549E-19
 -1      4119 8.96815E-05-2.34569E-05-2.83638E-05-2.12694E-06 6.75163E-19 6.72647E-20
 -1      4120 9.12367E-05-2.45072E-05-2.85955E-05-1.90284E-06 1.66436E-18-1.00018E-18
 -1      4121 9.16501E-05-2.48130E-05-2.86493E-05-1.62947E-06 8.70587E-19-4.80463E-20
 -1      4122 9.14002E-05-2.45960E-05-2.86282E-05-1.15612E-06 1.12237E-18-2.40327E-18
 -1      4123 9.06950E-05-2.41002E-05-2.85344E-05-1.53367E-06 1.62576E-18-1.84274E-18
 -1      4124 8.75597E-05-2.21193E-05-2.80642E-05-1.74677E-06-1.53083E-19-9.12538E-19
 -1      4125 8.85944E-05-2.27233E-05-2.82415E-05-1.68606E-06-4.10122E-19-7.23707E-19
 -1      4126 9.60469E-05-2.69191E-05-2.96322E-05-5.74714E-07 4.02647E-19-3.28363E-19
 -1      4127 9.61035E-05-2.66416E-05-2.97696E-05-3.61349E-07 1.82025E-19-5.07450E-19
 -1      4128 7.49913E-05-1.72352E-05-2.47559E-05 4.63316E-06-1.23710E-18 1.47607E-18
 -1      4129 9.61089E-05-2.67202E-05-2.97364E-05 3.26912E-07-9.91052E-20-9.68711E-20
 -1      4130 9.60424E-05-2.69774E-05-2.96029E-05 4.95587E-07-8.82436E-21-9.40432E-20
 -1      4131 7.48448E-05-1.74102E-05-2.46764E-05-3.27015E-06-4.35375E-19 2.54590E-18
 -1      4132 7.46407E-05-1.82441E-05-2.40621E-05-8.01748E-06-5.58903E-19 1.85803E-18
 -1      4133 7.82769E-05-2.03656E-05-2.47930E-05-9.37861E-06-7.97153E-19 1.05627E-18
 -1      4134 8.10557E-05-2.20244E-05-2.52898E-05 1.04171E-05 5.22169E-19 7.74569E-19
 -1      4135 7.98331E-05-2.03920E-05-2.55553E-05 7.40251E-06 8.27129E-19-3.05457E-19
 -1      4136 9.60007E-05-2.62011E-05-2.99190E-05-2.08138E-07 5.36151E-19-4.32534E-19
 -1      4137 9.58331E-05-2.54652E-05-3.01580E-05 2.92841E-07 7.23291E-19-6.17687E-19
 -1      4138 9.57359E-05-2.51304E-05-3.02635E-05 2.82803E-07 6.84173E-19-5.62054E-19
 -1      4139 9.60223E-05-2.61505E-05-2.99454E-05-2.16979E-07 3.54134E-19-4.65110E-19
 -1      4140 8.94054E-05-2.30435E-05-2.84523E-05 1.39539E-06 6.14335E-19 2.52469E-18
 -1      4141 8.86110E-05-2.25228E-05-2.83359E-05 1.49353E-06 1.63828E-18 2.12999E-18
 -1      4142 9.43378E-05-2.66694E-05-2.90016E-05-2.12081E-06 9.06422E-20 8.24913E-20
 -1      4143 9.46779E-05-2.69146E-05-2.90453E-05-1.93958E-06 1.67027E-19-2.45946E-19
 -1      4144 9.39735E-05-2.63572E-05-2.89720E-05-1.77946E-06-1.60188E-19-1.35994E-19
 -1      4145 9.50419E-05-2.71278E-05-2.91069E-05-1.81028E-06 1.93706E-19-4.77541E-19
 -1      4146 9.53069E-05-2.72647E-05-2.91632E-05-1.62846E-06 1.46577E-19-4.07632E-19
 -1      4147 9.54156E-05-2.71863E-05-2.92378E-05-1.28115E-06 2.35553E-19-2.88442E-19
 -1      4148 9.60218E-05-2.60407E-05-2.99963E-05 1.64574E-07 8.83520E-20-3.74437E-19
 -1      4149 8.20359E-05-1.95202E-05-2.68388E-05-1.60622E-06-5.62725E-20-3.87871E-19
 -1      4150 8.36717E-05-2.01701E-05-2.72363E-05-1.56480E-06-1.31249E-20-2.46885E-19
 -1      4151 9.07844E-05-2.40107E-05-2.86251E-05 1.24104E-06 4.34127E-19 1.54850E-18
 -1      4152 9.01427E-05-2.35395E-05-2.85543E-05 1.35765E-06 7.65844E-19 2.69899E-18
 -1      4153 8.95816E-05-2.31521E-05-2.84487E-05 6.50804E-07 2.91273E-19 2.45870E-18
 -1      4154 9.54752E-05-2.71787E-05-2.92737E-05 7.72383E-07 3.28520E-21 7.30426E-20
 -1      4155 9.52070E-05-2.70978E-05-2.91893E-05 9.10299E-07 1.33332E-19 2.63676E-19
 -1      4156 9.49742E-05-2.69172E-05-2.91612E-05 5.96584E-07 1.35107E-19 2.03386E-19
 -1      4157 7.70639E-05-1.81554E-05-2.52674E-05 1.87282E-06 2.13760E-19-9.20329E-19
 -1      4158 9.59034E-05-2.71266E-05-2.94787E-05 5.60108E-07-1.01823E-19 1.40950E-19
 -1      4159 9.57300E-05-2.71951E-05-2.93725E-05 7.04691E-07-1.52589E-19-3.86190E-23
 -1      4160 9.55740E-05-2.70939E-05-2.93437E-05 4.49052E-07 7.14613E-20 3.32787E-19
 -1      4161 8.51213E-05-2.08452E-05-2.75716E-05-1.70332E-06-1.99129E-19-6.99167E-19
 -1      4162 8.63988E-05-2.14843E-05-2.78352E-05-1.66294E-06-2.40351E-19-1.10973E-18
 -1      4163 8.42572E-05-2.04470E-05-2.73026E-05-2.35815E-08-3.45722E-19-9.10703E-19
 -1      4164 9.60238E-05-2.61464E-05-2.99452E-05 1.11130E-07 1.68094E-19-2.02169E-19
 -1      4165 9.16120E-05-2.46533E-05-2.87026E-05 1.05839E-06 1.80484E-19 9.55225E-19
 -1      4166 9.12369E-05-2.43480E-05-2.86717E-05 1.18163E-06 9.65891E-20 4.66499E-19
 -1      4167 9.07915E-05-2.40216E-05-2.86019E-05 6.34781E-07 3.23961E-19 7.29525E-19
 -1      4168 7.88217E-05-1.89594E-05-2.56043E-05 4.46917E-06 5.16439E-19-5.58133E-19
 -1      4169 7.87766E-05-1.84050E-05-2.59463E-05-3.25784E-07-4.10476E-20-6.61030E-19
 -1      4170 9.57705E-05-2.71806E-05-2.93992E-05-8.25658E-07 5.13643E-19-9.59087E-20
 -1      4171 9.59430E-05-2.70967E-05-2.95052E-05-6.63465E-07 6.50744E-19-4.42450E-20
 -1      4172 9.59870E-05-2.68970E-05-2.96069E-05-4.17629E-07 3.27316E-19-2.96961E-19
 -1      4173 8.79819E-05-2.21453E-05-2.81916E-05 5.81216E-07 4.34026E-19 2.19649E-18
 -1      4174 8.76850E-05-2.19644E-05-2.81784E-05 1.47140E-06 1.17730E-18 1.31174E-18
 -1      4175 8.66702E-05-2.13981E-05-2.79947E-05 1.56120E-06 2.95445E-19 1.49275E-18
 -1      4176 9.60129E-05-2.60842E-05-2.99683E-05-1.29382E-07 3.26855E-19-5.02372E-19
 -1      4177 9.60023E-05-2.59785E-05-3.00131E-05-1.55566E-07 4.16015E-19-5.42397E-19
 -1      4178 8.12583E-05-2.02161E-05-2.61293E-05 5.12864E-06 6.14522E-19-1.96227E-19
 -1      4179 9.23563E-05-2.52771E-05-2.87480E-05 5.35968E-07 2.28092E-18 1.25182E-18
 -1      4180 9.23388E-05-2.52506E-05-2.87579E-05 9.15505E-07 1.75485E-18 1.51370E-19
 -1      4181 9.20248E-05-2.49755E-05-2.87385E-05 1.03515E-06 3.37326E-19 8.52528E-19
 -1      4182 9.59039E-05-2.54989E-05-3.01633E-05 4.98864E-08 4.51954E-19-5.39187E-19
 -1      4183 8.53350E-05-2.05738E-05-2.77151E-05 2.86734E-06-6.68142E-19 1.25956E-18
 -1      4184 9.24698E-05-2.53933E-05-2.87453E-05-8.86663E-09 1.70324E-18-1.29887E-18
 -1      4185 8.68419E-05-2.17268E-05-2.78692E-05-4.69236E-07-8.09429E-20-1.57875E-18
 -1      4186 9.47874E-05-2.68909E-05-2.90941E-05-1.53735E-06 5.06777E-21-1.51295E-19
 -1      4187 9.11837E-05-2.43964E-05-2.86315E-05-1.62665E-06 8.92774E-20-1.56918E-19
 -1      4188 9.18758E-05-2.48869E-05-2.87165E-05-1.52924E-06 2.63672E-20-5.66288E-20
 -1      4189 9.25417E-05-2.53506E-05-2.88010E-05-1.50621E-06-3.65779E-19-9.53583E-20
 -1      4190 9.31055E-05-2.57595E-05-2.88674E-05-1.40101E-06-4.33860E-19-3.14577E-19
 -1      4191 9.21074E-05-2.50484E-05-2.87362E-05-8.76640E-07-1.25631E-19-5.39086E-19
 -1      4192 7.97634E-05-1.84553E-05-2.62642E-05 6.12442E-07-2.39459E-18 6.87417E-19
 -1      4193 7.60376E-05-1.73845E-05-2.51653E-05-1.52519E-06-1.32814E-18 1.87704E-18
 -1      4194 7.78379E-05-1.84161E-05-2.55044E-05-4.03381E-06-9.00666E-19 5.48805E-19
 -1      4195 8.07753E-05-1.90653E-05-2.64583E-05-7.07464E-07-2.95643E-20-4.86146E-19
 -1      4196 8.15200E-05-1.93676E-05-2.65861E-05 1.22449E-06 2.14614E-19-3.71668E-19
 -1      4197 9.59534E-05-2.69512E-05-2.95684E-05 3.11578E-07 3.25877E-20 4.85948E-21
 -1      4198 8.95480E-05-2.33124E-05-2.83995E-05-1.71551E-06-3.64050E-19-4.59246E-19
 -1      4199 9.03916E-05-2.38651E-05-2.85198E-05-1.63444E-06-1.14144E-19-2.48802E-19
 -1      4200 9.06599E-05-2.40337E-05-2.85338E-05-8.49784E-07 1.10623E-19-6.04633E-19
 -1      4201 9.56556E-05-2.48698E-05-3.03398E-05 2.33198E-07 4.71131E-19-5.64307E-19
 -1      4202 8.29559E-05-1.96811E-05-2.71444E-05 9.13239E-07-2.18364E-18 8.02213E-19
 -1      4203 8.13520E-05-1.90781E-05-2.67314E-05 8.80003E-07-2.28221E-18 3.08295E-19
 -1      4204 8.07171E-05-1.89065E-05-2.64271E-05-1.78487E-06-1.68460E-18-1.29316E-18
 -1      4205 8.89314E-05-2.29259E-05-2.82599E-05-7.25804E-07-1.41666E-19-1.35321E-18
 -1      4206 9.33709E-05-2.59812E-05-2.88904E-05 4.02591E-07 2.95040E-20-4.08524E-20
 -1      4207 9.28356E-05-2.56227E-05-2.88108E-05 5.45282E-07 1.14097E-19-1.53568E-19
 -1      4208 9.19921E-05-2.50408E-05-2.87025E-05 1.86055E-07 2.14176E-19-3.91543E-19
 -1      4209 9.13411E-05-2.46065E-05-2.86072E-05 3.51123E-07 2.45628E-19-4.40605E-19
 -1      4210 9.05446E-05-2.41082E-05-2.84918E-05 4.31841E-07 2.17880E-19-6.47677E-19
 -1      4211 8.98081E-05-2.36402E-05-2.83673E-05 6.72369E-07 9.05471E-20-5.16478E-19
 -1      4212 8.88562E-05-2.31015E-05-2.82066E-05 8.22509E-07-1.94286E-20-6.71708E-19
 -1      4213 8.80181E-05-2.26280E-05-2.80360E-05 1.17269E-06-1.97808E-19-5.99251E-19
 -1      4214 8.68693E-05-2.20653E-05-2.78068E-05 1.42669E-06-3.12452E-19-4.39175E-19
 -1      4215 8.59270E-05-2.16229E-05-2.75696E-05 1.93205E-06-4.65046E-19-3.80967E-19
 -1      4216 8.45140E-05-2.10416E-05-2.72395E-05 2.35090E-06-4.33256E-19-8.62849E-20
 -1      4217 8.34771E-05-2.06767E-05-2.69074E-05 3.05850E-06-1.02850E-19-2.66428E-19
 -1      4218 8.23228E-05-2.04704E-05-2.65672E-05 4.13308E-06 1.78529E-19-3.85129E-19
 -1      4219 7.94008E-05-2.02007E-05-2.54318E-05-7.64889E-06-8.93018E-19 1.35698E-18
 -1      4220 8.29499E-05-2.04493E-05-2.67920E-05-4.04219E-06-1.25710E-18-9.22720E-20
 -1      4221 8.40004E-05-2.07186E-05-2.71475E-05-3.23107E-06-9.72819E-19-5.37378E-19
 -1      4222 8.74873E-05-2.22171E-05-2.79742E-05-2.28197E-06-2.64229E-19-7.36127E-19
 -1      4223 8.81973E-05-2.25796E-05-2.81401E-05-1.84642E-06 1.34749E-19-1.38255E-18
 -1      4224 8.87664E-05-2.28033E-05-2.82752E-05-9.37807E-07 2.81281E-19-4.20018E-19
 -1      4225 8.94253E-05-2.32119E-05-2.83921E-05-6.79434E-07 3.69545E-19-1.39071E-18
 -1      4226 8.55745E-05-2.08333E-05-2.77614E-05 1.28891E-06-4.49766E-19 8.33310E-19
 -1      4227 8.42886E-05-2.02321E-05-2.74804E-05 1.34368E-06-1.31334E-18 8.45403E-19
 -1      4228 8.36624E-05-2.00432E-05-2.72446E-05-7.71259E-07-1.37867E-18-1.04896E-18
 -1      4229 8.60161E-05-2.10733E-05-2.78010E-05 1.47091E-07-3.34797E-19 3.42948E-19
 -1      4230 9.16509E-05-2.47453E-05-2.86688E-05-4.55955E-07 4.39585E-19-3.51018E-18
 -1      4231 9.19522E-05-2.49945E-05-2.87010E-05-2.35380E-07 1.73834E-19-4.18613E-18
 -1      4232 9.36555E-05-2.61402E-05-2.89384E-05-1.36125E-06-2.14998E-19 8.94797E-21
 -1      4233 9.41152E-05-2.64591E-05-2.89994E-05-1.25440E-06-3.82676E-20-7.61791E-20
 -1      4234 9.33071E-05-2.58712E-05-2.88940E-05-8.64625E-07-2.32130E-19-1.12299E-19
 -1      4235 9.52659E-05-2.70981E-05-2.92177E-05-1.02859E-06 2.80301E-19-2.45693E-19
 -1      4236 9.55404E-05-2.71763E-05-2.92997E-05-8.95156E-07 4.87701E-19-4.56490E-20
 -1      4237 9.56443E-05-2.70877E-05-2.93774E-05-5.79321E-07 4.91074E-19 2.12592E-20
 -1      4238 9.59787E-05-2.69375E-05-2.95935E-05-1.00443E-07 1.83207E-19-3.84395E-19
 -1      4239 9.58352E-05-2.70738E-05-2.94693E-05-4.93723E-08 3.21051E-19-1.83117E-19
 -1      4240 9.01691E-05-2.36862E-05-2.84977E-05-5.62955E-07 2.85735E-19-1.21630E-18
 -1      4241 9.45578E-05-2.67336E-05-2.90704E-05-1.20288E-06-7.15187E-20-1.00185E-19
 -1      4242 9.49252E-05-2.69434E-05-2.91371E-05-1.08556E-06-8.49454E-20-2.71060E-19
 -1      4243 9.50699E-05-2.69380E-05-2.91941E-05-7.01387E-07 1.34882E-19 2.72134E-20
 -1      4244 9.42836E-05-2.65098E-05-2.90392E-05-7.93395E-07-9.59380E-21 2.55251E-20
 -1      4245 9.50048E-05-2.69306E-05-2.91805E-05-9.28700E-08 8.82898E-20 9.53431E-20
 -1      4246 9.46400E-05-2.67497E-05-2.90975E-05-3.01511E-08-1.08526E-19 4.53440E-21
 -1      4247 9.59878E-05-2.58355E-05-3.00700E-05-1.72201E-08 3.17409E-19-5.01042E-19
 -1      4248 9.60769E-05-2.65212E-05-2.98087E-05 5.99249E-08 2.08252E-19-3.31797E-19
 -1      4249 9.59761E-05-2.58364E-05-3.00664E-05-3.64223E-08 4.21091E-19-4.56897E-19
 -1      4250 9.56077E-05-2.71012E-05-2.93650E-05-1.07144E-07 2.35501E-19-7.34813E-20
 -1      4251 9.53436E-05-2.70593E-05-2.92656E-05-5.44416E-08 2.36640E-19 7.75422E-20
 -1      4252 9.41971E-05-2.64922E-05-2.90223E-05-4.76052E-08-1.38925E-19-5.28498E-20
 -1      4253 9.37424E-05-2.62018E-05-2.89466E-05 2.70932E-08-2.38383E-20-1.00179E-19
 -1      4254 9.16463E-05-2.46871E-05-2.86893E-05 5.93211E-07 6.16206E-19 1.13431E-18
 -1      4255 7.92521E-05-1.91677E-05-2.57130E-05-5.25568E-06-5.49330E-19 1.07162E-18
 -1      4256 8.16215E-05-2.08389E-05-2.60700E-05-7.16863E-06-5.53480E-19 1.28584E-18
 -1      4257 8.81030E-05-2.23176E-05-2.81911E-05-2.56345E-07 4.87879E-19-3.02249E-19
 -1      4258 8.25937E-05-2.07986E-05-2.65276E-05-5.86706E-06-1.25305E-18 4.12639E-19
 -1      4259 8.56247E-05-2.14748E-05-2.75062E-05-3.37902E-06-9.82607E-19-2.74720E-19
 -1      4260 8.64825E-05-2.17880E-05-2.77536E-05-2.71884E-06-5.15859E-19-3.59412E-19
 -1      4261 8.00928E-05-1.91751E-05-2.61227E-05-3.81526E-06-1.01278E-18 5.94422E-19
 -1      4262 9.06695E-05-2.40105E-05-2.85765E-05 3.51794E-08 4.28674E-19-1.62822E-18
 -1      4263 9.07031E-05-2.40786E-05-2.85447E-05-1.15744E-06 8.38086E-19-2.91963E-18
 -1      4264 8.65295E-05-2.15523E-05-2.78292E-05-1.52281E-06-4.52366E-19-8.88161E-19
 -1      4265 9.11411E-05-2.43441E-05-2.86283E-05 1.84516E-08 1.00050E-19-1.43924E-18
 -1      4266 9.22677E-05-2.51654E-05-2.87513E-05-4.60901E-07-4.48745E-22-2.40949E-19
 -1      4267 9.21573E-05-2.51252E-05-2.87260E-05 2.95149E-07 1.83364E-18 9.82113E-20
 -1      4268 8.72217E-05-2.18400E-05-2.80329E-05-3.87125E-07 2.93421E-19-3.00045E-19
 -1      4269 9.60715E-05-2.67090E-05-2.97249E-05-3.78210E-08 5.73439E-20-5.21192E-19
 -1      4270 9.60918E-05-2.64842E-05-2.98283E-05-1.72354E-07 2.07260E-19-6.71166E-19
 -1      4271 8.39995E-05-2.03208E-05-2.72660E-05-1.65503E-06-1.40764E-18-3.37337E-19
 -1      4272 8.17036E-05-1.96294E-05-2.65995E-05-3.06638E-06-9.17840E-19-6.67355E-19
 -1      4273 8.62384E-05-2.13403E-05-2.78153E-05-6.56736E-07-7.34152E-19-1.25630E-20
 -1      4274 9.14212E-05-2.46050E-05-2.86400E-05-7.85901E-07 3.82054E-19-4.01415E-18
 -1      4275 9.13580E-05-2.45218E-05-2.86443E-05-2.41982E-07 4.04065E-19-3.30146E-18
 -1      4276 9.34431E-05-2.59830E-05-2.89107E-05-4.75636E-07 9.20230E-20 1.95841E-19
 -1      4277 9.11085E-05-2.43635E-05-2.86013E-05-9.48715E-07 1.23451E-18-3.48315E-18
 -1      4278 9.29240E-05-2.56313E-05-2.88376E-05-4.76022E-07-1.11693E-19-3.23280E-20
 -1      4279 8.52287E-05-2.08809E-05-2.75847E-05-1.08555E-06-7.67966E-19-7.59728E-19
 -1      4280 9.14112E-05-2.45421E-05-2.86630E-05 3.34416E-07 1.39723E-20 8.72415E-20
 -1      4281 9.18415E-05-2.48627E-05-2.87025E-05 3.41008E-07 1.29059E-18-5.40690E-19
 -3
    1PSTEP                         4           1           1          
  100CL  101 1.000000000        4281                     0    1           1
 -4  ERROR       1    1
 -5  STR(%)      1    1    0    0
 -1         1 1.19292E+01
 -1         2 2.53790E+01
 -1         3 1.19996E-02
 -1         4 1.30923E-02
 -1         5 1.40445E+01
 -1         6 1.31481E+01
 -1         7 1.31481E+01
 -1         8 3.64655E+00
 -1         9 1.80898E+00
 -1        10 1.28084E+00
 -1        11 1.03911E+00
 -1        12 8.92985E-01
 -1        13 8.01984E-01
 -1        14 7.48271E-01
 -1        15 7.50388E-01
 -1        16 8.06440E-01
 -1        17 8.94068E-01
 -1        18 1.04532E+00
 -1        19 1.29946E+00
 -1        20 1.81930E+00
 -1        21 3.48808E+00
 -1        22 8.63378E+00
 -1        23 1.31481E+01
 -1        24 4.33660E+00
 -1        25 3.36199E+00
 -1        26 2.13468E+00
 -1        27 1.38836E+00
 -1        28 1.05790E+00
 -1        29 8.29207E-01
 -1        30 6.61210E-01
 -1        31 5.33879E-01
 -1        32 4.36563E-01
 -1        33 3.61849E-01
 -1        34 3.17943E-01
 -1        35 3.49228E-01
 -1        36 3.84459E-01
 -1        37 4.17106E-01
 -1        38 4.61257E-01
 -1        39 5.86863E-01
 -1        40 7.19575E-01
 -1        41 8.20783E-01
 -1        42 8.44894E-01
 -1        43 8.59806E-01
 -1        44 8.85634E-01
 -1        45 1.00566E+00
 -1        46 1.28544E+00
 -1        47 2.05900E+00
 -1        48 2.78481E+00
 -1        49 2.95360E+00
 -1        50 2.97642E+00
 -1        51 2.97642E+00
 -1        52 2.65645E+00
 -1        53 1.84338E+00
 -1        54 1.23779E+00
 -1        55 9.20932E-01
 -1        56 8.92367E-01
 -1        57 8.35881E-01
 -1        58 8.35881E-01
 -1        59 7.85966E-01
 -1        60 6.71696E-01
 -1        61 5.34728E-01
 -1        62 4.25311E-01
 -1        63 3.57938E-01
 -1        64 3.08489E-01
 -1        65 2.55501E-01
 -1        66 2.04620E-01
 -1        67 1.58613E-01
 -1        68 1.22330E-01
 -1        69 1.08019E-01
 -1        70 8.50610E-02
 -1        71 4.53473E-02
 -1        72 1.40445E+01
 -1        73 3.41227E+00
 -1        74 2.43340E+00
 -1        75 1.68929E+00
 -1        76 1.17222E+00
 -1        77 9.53672E-01
 -1        78 7.93823E-01
 -1        79 6.69385E-01
 -1        80 5.73684E-01
 -1        81 5.03461E-01
 -1        82 4.56671E-01
 -1        83 4.31269E-01
 -1        84 4.32533E-01
 -1        85 5.01691E-01
 -1        86 6.02703E-01
 -1        87 7.17538E-01
 -1        88 8.33012E-01
 -1        89 9.24284E-01
 -1        90 9.52521E-01
 -1        91 1.23220E+00
 -1        92 1.56884E+00
 -1        93 1.74794E+00
 -1        94 2.09414E+00
 -1        95 2.14524E+00
 -1        96 2.65140E+00
 -1        97 3.80156E+00
 -1        98 5.03171E+00
 -1        99 5.70581E+00
 -1       100 5.70581E+00
 -1       101 4.76902E+00
 -1       102 2.49354E+00
 -1       103 1.67963E+00
 -1       104 1.93108E+00
 -1       105 2.01232E+00
 -1       106 2.01232E+00
 -1       107 1.81498E+00
 -1       108 1.52181E+00
 -1       109 1.25657E+00
 -1       110 9.91141E-01
 -1       111 7.53455E-01
 -1       112 5.54506E-01
 -1       113 4.11725E-01
 -1       114 3.17022E-01
 -1       115 2.39421E-01
 -1       116 1.77020E-01
 -1       117 1.26730E-01
 -1       118 8.47193E-02
 -1       119 6.78483E-02
 -1       120 3.80054E-02
 -1       121 1.50514E-02
 -1       122 1.63223E-02
 -1       123 1.63223E-02
 -1       124 1.06737E-02
 -1       125 6.36571E-03
 -1       126 1.20648E-02
 -1       127 1.57210E-02
 -1       128 1.66446E-02
 -1       129 1.66446E-02
 -1       130 1.52130E-02
 -1       131 1.11806E-02
 -1       132 5.74374E-03
 -1       133 1.02857E-02
 -1       134 1.52058E-02
 -1       135 1.94253E-02
 -1       136 2.09587E-02
 -1       137 2.53790E+01
 -1       138 4.80397E+01
 -1       139 4.80397E+01
 -1       140 2.11211E+01
 -1       141 1.19757E+01
 -1       142 1.21307E+01
 -1       143 1.21307E+01
 -1       144 1.25815E+01
 -1       145 1.25815E+01
 -1       146 1.43100E+01
 -1       147 3.55496E+01
 -1       148 3.55496E+01
 -1       149 2.65049E+01
 -1       150 2.65326E+01
 -1       151 2.65326E+01
 -1       152 2.83462E+01
 -1       153 2.87918E+01
 -1       154 2.87918E+01
 -1       155 1.31936E+01
 -1       156 1.34135E+01
 -1       157 1.34135E+01
 -1       158 1.19292E+01
 -1       159 1.16423E+01
 -1       160 2.12237E+01
 -1       161 4.77157E+01
 -1       162 4.77157E+01
 -1       163 2.48363E+01
 -1       164 6.05652E+00
 -1       165 2.28315E+00
 -1       166 1.49973E+00
 -1       167 1.15127E+00
 -1       168 9.67497E-01
 -1       169 8.58592E-01
 -1       170 7.90103E-01
 -1       171 7.50388E-01
 -1       172 7.93736E-01
 -1       173 8.61525E-01
 -1       174 9.75009E-01
 -1       175 1.16582E+00
 -1       176 1.51960E+00
 -1       177 2.25129E+00
 -1       178 3.91821E+00
 -1       179 1.40445E+01
 -1       180 4.33660E+00
 -1       181 3.36199E+00
 -1       182 2.13468E+00
 -1       183 1.46635E+00
 -1       184 1.05790E+00
 -1       185 8.29207E-01
 -1       186 6.61210E-01
 -1       187 5.33879E-01
 -1       188 4.36563E-01
 -1       189 3.61849E-01
 -1       190 3.03074E-01
 -1       191 3.17943E-01
 -1       192 3.49228E-01
 -1       193 3.84459E-01
 -1       194 4.17106E-01
 -1       195 4.84115E-01
 -1       196 5.86863E-01
 -1       197 7.19575E-01
 -1       198 8.20783E-01
 -1       199 8.44894E-01
 -1       200 8.59806E-01
 -1       201 8.85634E-01
 -1       202 1.00566E+00
 -1       203 1.34912E+00
 -1       204 2.05900E+00
 -1       205 2.78481E+00
 -1       206 2.95360E+00
 -1       207 2.97642E+00
 -1       208 2.65645E+00
 -1       209 1.84338E+00
 -1       210 1.23779E+00
 -1       211 9.20932E-01
 -1       212 8.92367E-01
 -1       213 8.28785E-01
 -1       214 8.35881E-01
 -1       215 7.85966E-01
 -1       216 6.71696E-01
 -1       217 5.53843E-01
 -1       218 4.68719E-01
 -1       219 3.93267E-01
 -1       220 3.13083E-01
 -1       221 2.55501E-01
 -1       222 2.04620E-01
 -1       223 1.59368E-01
 -1       224 1.23728E-01
 -1       225 1.08019E-01
 -1       226 8.50610E-02
 -1       227 4.77932E-02
 -1       228 3.41227E+00
 -1       229 2.43340E+00
 -1       230 1.68929E+00
 -1       231 1.17222E+00
 -1       232 9.53672E-01
 -1       233 7.93823E-01
 -1       234 6.69385E-01
 -1       235 5.73684E-01
 -1       236 5.03461E-01
 -1       237 4.56671E-01
 -1       238 4.31269E-01
 -1       239 4.24551E-01
 -1       240 4.35768E-01
 -1       241 5.19678E-01
 -1       242 6.12763E-01
 -1       243 7.17538E-01
 -1       244 8.33012E-01
 -1       245 9.24284E-01
 -1       246 1.08180E+00
 -1       247 1.28882E+00
 -1       248 1.56884E+00
 -1       249 1.74794E+00
 -1       250 2.09414E+00
 -1       251 2.14524E+00
 -1       252 2.65140E+00
 -1       253 3.80156E+00
 -1       254 5.03171E+00
 -1       255 5.70581E+00
 -1       256 4.76902E+00
 -1       257 2.49354E+00
 -1       258 1.55788E+00
 -1       259 1.67963E+00
 -1       260 1.93108E+00
 -1       261 2.01232E+00
 -1       262 1.81498E+00
 -1       263 1.52181E+00
 -1       264 1.25869E+00
 -1       265 1.02260E+00
 -1       266 7.98525E-01
 -1       267 6.03196E-01
 -1       268 4.42038E-01
 -1       269 3.17882E-01
 -1       270 2.39421E-01
 -1       271 1.77020E-01
 -1       272 1.27776E-01
 -1       273 8.96347E-02
 -1       274 6.78483E-02
 -1       275 3.80054E-02
 -1       276 2.45044E-02
 -1       277 2.74044E-02
 -1       278 2.74044E-02
 -1       279 1.50445E-02
 -1       280 2.31774E-02
 -1       281 3.05934E-02
 -1       282 3.32383E-02
 -1       283 3.32383E-02
 -1       284 3.29702E-02
 -1       285 2.90577E-02
 -1       286 2.13225E-02
 -1       287 1.45018E-02
 -1       288 2.61860E-02
 -1       289 2.61860E-02
 -1       290 3.01584E-02
 -1       291 3.30185E+01
 -1       292 2.99705E+01
 -1       293 4.80397E+01
 -1       294 2.28322E+01
 -1       295 1.17689E+01
 -1       296 1.19757E+01
 -1       297 1.21307E+01
 -1       298 1.20794E+01
 -1       299 1.25815E+01
 -1       300 1.14051E+01
 -1       301 1.43100E+01
 -1       302 3.55496E+01
 -1       303 3.43927E+01
 -1       304 2.68408E+01
 -1       305 3.55604E+01
 -1       306 3.49604E+01
 -1       307 3.49604E+01
 -1       308 2.87918E+01
 -1       309 1.31936E+01
 -1       310 1.18696E+01
 -1       311 1.34135E+01
 -1       312 1.19062E+01
 -1       313 1.19292E+01
 -1       314 1.16423E+01
 -1       315 1.13608E+01
 -1       316 2.25549E+01
 -1       317 4.77157E+01
 -1       318 2.95335E+01
 -1       319 3.30185E+01
 -1       320 1.03458E+00
 -1       321 2.46221E+00
 -1       322 7.89538E-01
 -1       323 6.89227E-01
 -1       324 6.26126E-01
 -1       325 5.82058E-01
 -1       326 5.85395E-01
 -1       327 6.29005E-01
 -1       328 6.95620E-01
 -1       329 7.90590E-01
 -1       330 9.25562E-01
 -1       331 1.14595E+00
 -1       332 1.31334E+00
 -1       333 2.20055E+00
 -1       334 1.91205E+00
 -1       335 1.74372E+00
 -1       336 1.28183E+00
 -1       337 9.20803E-01
 -1       338 6.79995E-01
 -1       339 5.77996E-01
 -1       340 4.86248E-01
 -1       341 4.05080E-01
 -1       342 3.34016E-01
 -1       343 2.71333E-01
 -1       344 2.50942E-01
 -1       345 2.77596E-01
 -1       346 3.06103E-01
 -1       347 3.44665E-01
 -1       348 4.18682E-01
 -1       349 4.89972E-01
 -1       350 5.65353E-01
 -1       351 6.19377E-01
 -1       352 6.11452E-01
 -1       353 5.03460E-01
 -1       354 4.21144E-01
 -1       355 5.59208E-01
 -1       356 9.88011E-01
 -1       357 1.35472E+00
 -1       358 1.74792E+00
 -1       359 1.91678E+00
 -1       360 1.83089E+00
 -1       361 1.90985E+00
 -1       362 1.66489E+00
 -1       363 1.28858E+00
 -1       364 8.79351E-01
 -1       365 4.87576E-01
 -1       366 4.38122E-01
 -1       367 5.33797E-01
 -1       368 6.14119E-01
 -1       369 6.04570E-01
 -1       370 5.41952E-01
 -1       371 4.81671E-01
 -1       372 4.25041E-01
 -1       373 3.58562E-01
 -1       374 2.88707E-01
 -1       375 2.22748E-01
 -1       376 1.64742E-01
 -1       377 1.23728E-01
 -1       378 9.21772E-02
 -1       379 6.56390E-02
 -1       380 4.50652E-02
 -1       381 1.14505E+00
 -1       382 9.02052E-01
 -1       383 7.12209E-01
 -1       384 5.49037E-01
 -1       385 4.70727E-01
 -1       386 4.24721E-01
 -1       387 3.84615E-01
 -1       388 3.53235E-01
 -1       389 3.31697E-01
 -1       390 3.19569E-01
 -1       391 3.65993E-01
 -1       392 5.04647E-01
 -1       393 6.86390E-01
 -1       394 8.89874E-01
 -1       395 1.10009E+00
 -1       396 1.28552E+00
 -1       397 1.44357E+00
 -1       398 1.51074E+00
 -1       399 1.52775E+00
 -1       400 1.39553E+00
 -1       401 1.30717E+00
 -1       402 1.47850E+00
 -1       403 2.39363E+00
 -1       404 2.90354E+00
 -1       405 3.33985E+00
 -1       406 3.27718E+00
 -1       407 2.88995E+00
 -1       408 1.84688E+00
 -1       409 1.21645E+00
 -1       410 1.33700E+00
 -1       411 1.52080E+00
 -1       412 1.50189E+00
 -1       413 1.46739E+00
 -1       414 1.31880E+00
 -1       415 1.14601E+00
 -1       416 9.52564E-01
 -1       417 7.58808E-01
 -1       418 5.84335E-01
 -1       419 4.37031E-01
 -1       420 3.17882E-01
 -1       421 2.31621E-01
 -1       422 1.74232E-01
 -1       423 1.27776E-01
 -1       424 8.96347E-02
 -1       425 5.76207E-02
 -1       426 3.10989E-02
 -1       427 3.01740E-02
 -1       428 4.82902E-02
 -1       429 4.82902E-02
 -1       430 3.25435E-02
 -1       431 4.39619E-02
 -1       432 4.88196E-02
 -1       433 4.88196E-02
 -1       434 4.76470E-02
 -1       435 4.74359E-02
 -1       436 4.10080E-02
 -1       437 2.87618E-02
 -1       438 3.00321E-02
 -1       439 4.19378E-02
 -1       440 2.99705E+01
 -1       441 3.30185E+01
 -1       442 3.15693E+01
 -1       443 1.69705E+01
 -1       444 9.75923E+00
 -1       445 9.04534E-01
 -1       446 1.03884E+01
 -1       447 1.04384E+01
 -1       448 1.12635E+01
 -1       449 9.11293E+00
 -1       450 7.64390E+00
 -1       451 1.32524E+01
 -1       452 2.31780E+01
 -1       453 2.53985E+01
 -1       454 3.55604E+01
 -1       455 3.28973E+01
 -1       456 3.49604E+01
 -1       457 1.94887E+01
 -1       458 1.16700E+01
 -1       459 7.62947E+00
 -1       460 8.49408E+00
 -1       461 1.13270E+01
 -1       462 9.92452E+00
 -1       463 9.51003E+00
 -1       464 7.19135E+00
 -1       465 9.71801E+00
 -1       466 1.70166E+01
 -1       467 2.95335E+01
 -1       468 2.73388E+01
 -1       469 7.59520E+00
 -1       470 3.55604E+01
 -1       471 1.05971E+00
 -1       472 4.80808E-01
 -1       473 5.09582E-01
 -1       474 4.25931E-01
 -1       475 4.51978E-01
 -1       476 4.81956E-01
 -1       477 5.06531E-01
 -1       478 5.06531E-01
 -1       479 5.93327E-01
 -1       480 9.02052E-01
 -1       481 7.96442E-01
 -1       482 6.40454E+00
 -1       483 7.08028E-01
 -1       484 5.90154E-01
 -1       485 4.71214E-01
 -1       486 3.90758E-01
 -1       487 3.40209E-01
 -1       488 2.84858E-01
 -1       489 2.28078E-01
 -1       490 1.70810E-01
 -1       491 1.93030E-01
 -1       492 2.16342E-01
 -1       493 2.92196E-01
 -1       494 3.71642E-01
 -1       495 4.40342E-01
 -1       496 5.01079E-01
 -1       497 5.55244E-01
 -1       498 6.03862E-01
 -1       499 6.05972E-01
 -1       500 6.85222E-01
 -1       501 7.86876E-01
 -1       502 9.52730E-01
 -1       503 1.15120E+00
 -1       504 1.35723E+00
 -1       505 1.75237E+00
 -1       506 1.73358E+00
 -1       507 1.65628E+00
 -1       508 1.57634E+00
 -1       509 1.29141E+00
 -1       510 1.13494E+00
 -1       511 8.62442E-01
 -1       512 7.72756E-01
 -1       513 6.48506E-01
 -1       514 6.21546E-01
 -1       515 6.10673E-01
 -1       516 5.60115E-01
 -1       517 5.06631E-01
 -1       518 4.53094E-01
 -1       519 3.91131E-01
 -1       520 3.23567E-01
 -1       521 2.57850E-01
 -1       522 1.98396E-01
 -1       523 1.47416E-01
 -1       524 1.05648E-01
 -1       525 7.27253E-02
 -1       526 1.86616E+01
 -1       527 5.49037E-01
 -1       528 4.69872E-01
 -1       529 4.05699E-01
 -1       530 3.42430E-01
 -1       531 2.82079E-01
 -1       532 2.24209E-01
 -1       533 2.51091E-01
 -1       534 2.96183E-01
 -1       535 4.26211E-01
 -1       536 5.89633E-01
 -1       537 7.77124E-01
 -1       538 9.83097E-01
 -1       539 1.19219E+00
 -1       540 1.37480E+00
 -1       541 1.49691E+00
 -1       542 1.76186E+00
 -1       543 2.00181E+00
 -1       544 2.14137E+00
 -1       545 2.58867E+00
 -1       546 2.72279E+00
 -1       547 2.90354E+00
 -1       548 3.83889E+00
 -1       549 7.68556E+00
 -1       550 6.40454E+00
 -1       551 4.79600E+00
 -1       552 1.94567E+00
 -1       553 2.20499E+00
 -1       554 2.06472E+00
 -1       555 1.82174E+00
 -1       556 1.54747E+00
 -1       557 1.40764E+00
 -1       558 1.23665E+00
 -1       559 1.03416E+00
 -1       560 8.32842E-01
 -1       561 6.50730E-01
 -1       562 4.95396E-01
 -1       563 3.68109E-01
 -1       564 2.66872E-01
 -1       565 1.88357E-01
 -1       566 1.29001E-01
 -1       567 8.42294E-02
 -1       568 5.76207E-02
 -1       569 5.63566E-02
 -1       570 6.53192E-02
 -1       571 4.81214E-02
 -1       572 4.82045E-02
 -1       573 6.53192E-02
 -1       574 6.49287E-02
 -1       575 6.49287E-02
 -1       576 6.21741E-02
 -1       577 5.12877E-02
 -1       578 5.00274E-02
 -1       579 5.00274E-02
 -1       580 2.73388E+01
 -1       581 7.12209E-01
 -1       582 1.37743E+01
 -1       583 2.05272E+01
 -1       584 8.70350E-01
 -1       585 8.10480E+00
 -1       586 6.31158E+00
 -1       587 4.51686E-01
 -1       588 8.03822E+00
 -1       589 9.02137E+00
 -1       590 7.68556E+00
 -1       591 6.14668E+00
 -1       592 3.94102E+00
 -1       593 8.10617E+00
 -1       594 1.06919E+01
 -1       595 1.63280E+01
 -1       596 2.53985E+01
 -1       597 2.12358E+01
 -1       598 8.14586E+00
 -1       599 1.45568E+01
 -1       600 4.16451E+00
 -1       601 6.09124E+00
 -1       602 7.47026E+00
 -1       603 5.18421E+00
 -1       604 6.06120E+00
 -1       605 8.88340E+00
 -1       606 1.37960E+01
 -1       607 3.15693E+01
 -1       608 1.32477E+00
 -1       609 5.79264E+00
 -1       610 5.31358E-01
 -1       611 4.50652E-02
 -1       612 1.92990E+01
 -1       613 6.46615E+00
 -1       614 6.75360E+00
 -1       615 3.54837E-01
 -1       616 3.38271E-01
 -1       617 3.59836E-01
 -1       618 3.37275E-01
 -1       619 5.36485E-01
 -1       620 8.60692E+00
 -1       621 5.16904E-01
 -1       622 5.18908E+00
 -1       623 5.31358E-01
 -1       624 3.96313E-01
 -1       625 3.74787E-01
 -1       626 3.23850E-01
 -1       627 2.60171E-01
 -1       628 2.21590E-01
 -1       629 1.77825E-01
 -1       630 1.27213E-01
 -1       631 1.12120E-01
 -1       632 1.56215E-01
 -1       633 2.36402E-01
 -1       634 3.21352E-01
 -1       635 4.07786E-01
 -1       636 4.89716E-01
 -1       637 5.60882E-01
 -1       638 6.75406E-01
 -1       639 7.86012E-01
 -1       640 8.64010E-01
 -1       641 1.05942E+00
 -1       642 1.26783E+00
 -1       643 1.38674E+00
 -1       644 1.52992E+00
 -1       645 2.81694E+00
 -1       646 4.84843E+00
 -1       647 3.62038E+00
 -1       648 2.29016E+00
 -1       649 1.57634E+00
 -1       650 1.59952E+00
 -1       651 1.32160E+00
 -1       652 1.22394E+00
 -1       653 9.62692E-01
 -1       654 8.51139E-01
 -1       655 7.68382E-01
 -1       656 6.60904E-01
 -1       657 5.65806E-01
 -1       658 5.00714E-01
 -1       659 4.25944E-01
 -1       660 3.50701E-01
 -1       661 2.80519E-01
 -1       662 2.18341E-01
 -1       663 1.65308E-01
 -1       664 1.21477E-01
 -1       665 7.81719E-02
 -1       666 1.43742E+01
 -1       667 5.00274E-02
 -1       668 3.83467E-01
 -1       669 2.24252E-01
 -1       670 1.68531E-01
 -1       671 1.55667E-01
 -1       672 2.05657E-01
 -1       673 3.22237E-01
 -1       674 4.60737E-01
 -1       675 6.25534E-01
 -1       676 8.20843E-01
 -1       677 1.04990E+00
 -1       678 1.31288E+00
 -1       679 1.60222E+00
 -1       680 1.88939E+00
 -1       681 2.31840E+00
 -1       682 3.05527E+00
 -1       683 3.92209E+00
 -1       684 3.04206E+00
 -1       685 2.88891E+00
 -1       686 2.46497E+00
 -1       687 1.95578E+00
 -1       688 1.66652E+00
 -1       689 1.37455E+00
 -1       690 1.11033E+00
 -1       691 8.81747E-01
 -1       692 6.89493E-01
 -1       693 5.30930E-01
 -1       694 4.02302E-01
 -1       695 2.99544E-01
 -1       696 2.18645E-01
 -1       697 1.56002E-01
 -1       698 1.06859E-01
 -1       699 7.19957E-02
 -1       700 8.92768E-02
 -1       701 8.52742E-02
 -1       702 8.66305E-02
 -1       703 8.92768E-02
 -1       704 1.28795E+01
 -1       705 8.66305E-02
 -1       706 7.90429E-02
 -1       707 5.82273E-02
 -1       708 4.59829E-01
 -1       709 8.07802E+00
 -1       710 1.66107E+01
 -1       711 2.73232E-01
 -1       712 3.12801E-01
 -1       713 3.96809E-01
 -1       714 3.81992E+00
 -1       715 8.05182E+00
 -1       716 3.30080E+00
 -1       717 3.59836E-01
 -1       718 3.56959E-01
 -1       719 6.14287E+00
 -1       720 2.83505E+00
 -1       721 3.42583E+00
 -1       722 4.67335E+00
 -1       723 6.60018E+00
 -1       724 9.08197E+00
 -1       725 1.90576E+01
 -1       726 1.15513E+01
 -1       727 1.30681E+01
 -1       728 3.61376E+00
 -1       729 1.15844E+01
 -1       730 1.07934E+01
 -1       731 5.29314E+00
 -1       732 5.95254E+00
 -1       733 3.83889E+00
 -1       734 3.77882E-01
 -1       735 3.37475E-01
 -1       736 1.08825E+01
 -1       737 9.50985E+00
 -1       738 4.52516E+00
 -1       739 6.53302E-02
 -1       740 5.64184E-02
 -1       741 4.84843E+00
 -1       742 5.23428E+00
 -1       743 3.53790E-01
 -1       744 7.05917E-02
 -1       745 2.41909E-01
 -1       746 2.37748E-01
 -1       747 2.18832E-01
 -1       748 1.80649E-01
 -1       749 1.39603E-01
 -1       750 9.98882E-02
 -1       751 8.97648E-02
 -1       752 1.23788E-01
 -1       753 1.85348E-01
 -1       754 2.60618E-01
 -1       755 3.56437E-01
 -1       756 4.64407E-01
 -1       757 5.82355E-01
 -1       758 7.06783E-01
 -1       759 8.66035E-01
 -1       760 1.09057E+00
 -1       761 1.32508E+00
 -1       762 1.51944E+00
 -1       763 1.38674E+00
 -1       764 2.20594E+00
 -1       765 2.81694E+00
 -1       766 2.29016E+00
 -1       767 1.66827E+00
 -1       768 1.82019E+00
 -1       769 1.71778E+00
 -1       770 1.54905E+00
 -1       771 1.26956E+00
 -1       772 1.04573E+00
 -1       773 8.82041E-01
 -1       774 7.09690E-01
 -1       775 5.59917E-01
 -1       776 4.63974E-01
 -1       777 3.72849E-01
 -1       778 2.91653E-01
 -1       779 2.22264E-01
 -1       780 1.70071E-01
 -1       781 1.25353E-01
 -1       782 8.74184E-02
 -1       783 1.16818E-01
 -1       784 2.29601E-01
 -1       785 3.50861E-01
 -1       786 5.04108E-01
 -1       787 6.88174E-01
 -1       788 9.03832E-01
 -1       789 1.15628E+00
 -1       790 1.50905E+00
 -1       791 2.03614E+00
 -1       792 2.78427E+00
 -1       793 3.35362E+00
 -1       794 5.24984E+00
 -1       795 6.54622E+00
 -1       796 1.59273E+00
 -1       797 1.22464E+00
 -1       798 9.68616E-01
 -1       799 7.55746E-01
 -1       800 5.76413E-01
 -1       801 4.30588E-01
 -1       802 3.14935E-01
 -1       803 2.24974E-01
 -1       804 1.60332E-01
 -1       805 1.13635E-01
 -1       806 8.85488E-02
 -1       807 5.25409E+00
 -1       808 1.12385E-01
 -1       809 1.08825E+01
 -1       810 9.24285E-02
 -1       811 3.38320E+00
 -1       812 8.11333E+00
 -1       813 7.63929E+00
 -1       814 7.32979E+00
 -1       815 1.10734E-01
 -1       816 2.39286E+00
 -1       817 3.69044E+00
 -1       818 8.38654E+00
 -1       819 9.19870E+00
 -1       820 1.62913E-01
 -1       821 1.37033E-01
 -1       822 9.01881E-02
 -1       823 9.00931E+00
 -1       824 2.25489E-01
 -1       825 2.10954E-01
 -1       826 2.59235E-01
 -1       827 3.94835E+00
 -1       828 4.96594E+00
 -1       829 2.15994E+00
 -1       830 2.75480E-01
 -1       831 3.97646E+00
 -1       832 7.55365E+00
 -1       833 7.04053E+00
 -1       834 2.03178E+00
 -1       835 2.83050E-01
 -1       836 1.12385E-01
 -1       837 2.74627E-01
 -1       838 7.89847E-02
 -1       839 7.75124E+00
 -1       840 8.09678E+00
 -1       841 6.81514E+00
 -1       842 3.62038E+00
 -1       843 2.36682E-01
 -1       844 2.77463E-01
 -1       845 2.79268E-01
 -1       846 1.16659E-01
 -1       847 1.01736E-01
 -1       848 1.16659E-01
 -1       849 2.62315E-01
 -1       850 2.46756E-01
 -1       851 6.12736E+00
 -1       852 2.83050E-01
 -1       853 2.82909E-01
 -1       854 2.40724E+00
 -1       855 1.47994E-01
 -1       856 1.23523E-01
 -1       857 1.11476E-01
 -1       858 1.24227E-01
 -1       859 1.34733E-01
 -1       860 1.85348E-01
 -1       861 2.60618E-01
 -1       862 3.42386E-01
 -1       863 4.43818E-01
 -1       864 5.58513E-01
 -1       865 7.22419E-01
 -1       866 9.52018E-01
 -1       867 1.19950E+00
 -1       868 1.51931E+00
 -1       869 2.09707E+00
 -1       870 2.42828E+00
 -1       871 2.52289E+00
 -1       872 2.24662E+00
 -1       873 2.32348E+00
 -1       874 1.66911E+00
 -1       875 1.26956E+00
 -1       876 1.03644E+00
 -1       877 8.18672E-01
 -1       878 6.33095E-01
 -1       879 4.95846E-01
 -1       880 3.98637E-01
 -1       881 3.14850E-01
 -1       882 2.49209E-01
 -1       883 2.02087E-01
 -1       884 2.02087E-01
 -1       885 4.68582E-01
 -1       886 7.75124E+00
 -1       887 3.27786E-01
 -1       888 8.67154E-01
 -1       889 1.14888E+00
 -1       890 1.50905E+00
 -1       891 1.99938E+00
 -1       892 3.50660E+00
 -1       893 4.10180E+00
 -1       894 9.34144E-01
 -1       895 1.52891E-01
 -1       896 1.22464E+00
 -1       897 1.59877E+00
 -1       898 7.10011E-01
 -1       899 5.35468E-01
 -1       900 3.99602E-01
 -1       901 2.94126E-01
 -1       902 2.11662E-01
 -1       903 1.50716E-01
 -1       904 4.84690E+00
 -1       905 6.44767E-01
 -1       906 4.84843E+00
 -1       907 3.70111E+00
 -1       908 1.69688E-01
 -1       909 2.30448E+00
 -1       910 2.82909E-01
 -1       911 1.14088E-01
 -1       912 2.14610E-01
 -1       913 1.36996E-01
 -1       914 7.70169E+00
 -1       915 1.44047E-01
 -1       916 1.74689E-01
 -1       917 3.96146E+00
 -1       918 5.70873E+00
 -1       919 1.69972E-01
 -1       920 2.08357E-01
 -1       921 6.11070E+00
 -1       922 9.92768E-02
 -1       923 4.31652E+00
 -1       924 6.55985E+00
 -1       925 1.24233E-01
 -1       926 1.45321E-01
 -1       927 3.24907E+00
 -1       928 2.64710E-01
 -1       929 2.64710E-01
 -1       930 2.11446E-01
 -1       931 1.96707E-01
 -1       932 1.68024E-01
 -1       933 3.55455E+00
 -1       934 1.42509E-01
 -1       935 2.28730E-01
 -1       936 5.70873E+00
 -1       937 4.74233E+00
 -1       938 4.74736E+00
 -1       939 1.45321E-01
 -1       940 1.18252E-01
 -1       941 1.40986E-01
 -1       942 1.60933E-01
 -1       943 1.82150E-01
 -1       944 2.54673E-01
 -1       945 3.42386E-01
 -1       946 4.43818E-01
 -1       947 5.58513E-01
 -1       948 7.14491E-01
 -1       949 9.30281E-01
 -1       950 1.29328E+00
 -1       951 1.82474E+00
 -1       952 2.60109E+00
 -1       953 3.91308E-01
 -1       954 5.92266E+00
 -1       955 2.32348E+00
 -1       956 3.73441E+00
 -1       957 2.00543E+00
 -1       958 1.51759E+00
 -1       959 1.09638E+00
 -1       960 8.31182E-01
 -1       961 6.41097E-01
 -1       962 5.01289E-01
 -1       963 3.98637E-01
 -1       964 3.14376E-01
 -1       965 2.44580E-01
 -1       966 1.34918E+00
 -1       967 9.88154E-01
 -1       968 3.40966E+00
 -1       969 5.91157E-01
 -1       970 1.02120E-01
 -1       971 7.86228E-01
 -1       972 2.28730E-01
 -1       973 1.38752E+00
 -1       974 2.09244E-01
 -1       975 6.55985E+00
 -1       976 4.45262E-01
 -1       977 3.34140E-01
 -1       978 2.73944E-01
 -1       979 3.19804E+00
 -1       980 2.76413E-01
 -1       981 1.60825E-01
 -1       982 1.12651E-01
 -1       983 1.20593E-01
 -1       984 4.26204E+00
 -1       985 2.02087E-01
 -1       986 1.05698E+00
 -1       987 1.92118E-01
 -1       988 1.02903E-01
 -1       989 2.09244E-01
 -1       990 1.87436E+00
 -1       991 1.56475E-01
 -1       992 5.37487E-01
 -1       993 5.15835E+00
 -1       994 3.07282E+00
 -1       995 1.72475E-01
 -1       996 1.49192E-01
 -1       997 3.27644E+00
 -1       998 2.64710E-01
 -1       999 3.57032E+00
 -1      1000 7.28235E-01
 -1      1001 1.37659E-01
 -1      1002 1.11863E-01
 -1      1003 1.90050E-01
 -1      1004 1.47412E-01
 -1      1005 5.62088E-01
 -1      1006 9.38262E-01
 -1      1007 1.47232E-01
 -1      1008 1.73850E-01
 -1      1009 2.00902E-01
 -1      1010 2.32283E-01
 -1      1011 3.08511E-01
 -1      1012 4.12582E-01
 -1      1013 5.45301E-01
 -1      1014 7.14491E-01
 -1      1015 9.30281E-01
 -1      1016 1.23585E+00
 -1      1017 1.95403E+00
 -1      1018 3.98368E+00
 -1      1019 1.98519E+00
 -1      1020 1.33751E+00
 -1      1021 1.06036E+00
 -1      1022 8.31182E-01
 -1      1023 6.41097E-01
 -1      1024 4.94225E-01
 -1      1025 3.79260E-01
 -1      1026 2.90008E-01
 -1      1027 1.62126E-01
 -1      1028 3.29853E-01
 -1      1029 3.57032E+00
 -1      1030 4.36467E+00
 -1      1031 4.31468E-01
 -1      1032 1.19506E-01
 -1      1033 2.59950E+00
 -1      1034 3.47139E+00
 -1      1035 7.91733E-02
 -1      1036 2.28149E-01
 -1      1037 1.24369E-01
 -1      1038 1.26264E+00
 -1      1039 1.18462E-01
 -1      1040 1.47412E-01
 -1      1041 2.34735E-01
 -1      1042 9.31781E-02
 -1      1043 1.56475E-01
 -1      1044 3.04042E-01
 -1      1045 1.81209E+00
 -1      1046 7.06256E-01
 -1      1047 2.73944E-01
 -1      1048 9.23855E-02
 -1      1049 1.40698E-01
 -1      1050 3.95106E-01
 -1      1051 7.43070E-01
 -1      1052 2.61584E+00
 -1      1053 8.19080E-02
 -1      1054 2.34735E-01
 -1      1055 4.36467E+00
 -1      1056 1.02699E+00
 -1      1057 2.21368E+00
 -1      1058 5.27233E-01
 -1      1059 2.39335E-01
 -1      1060 8.11155E-02
 -1      1061 2.66624E-01
 -1      1062 2.00902E-01
 -1      1063 2.32283E-01
 -1      1064 3.47043E-01
 -1      1065 4.62208E-01
 -1      1066 6.29858E-01
 -1      1067 8.69382E-01
 -1      1068 1.20905E+00
 -1      1069 1.36110E+00
 -1      1070 1.95403E+00
 -1      1071 1.82433E+00
 -1      1072 1.19447E+00
 -1      1073 1.14242E+00
 -1      1074 6.37685E-01
 -1      1075 4.57816E-01
 -1      1076 4.51931E-01
 -1      1077 2.83829E-01
 -1      1078 6.29858E-01
 -1      1079 1.05014E-01
 -1      1080 1.15854E-01
 -1      1081 2.29880E+00
 -1      1082 7.49272E-02
 -1      1083 4.64973E-01
 -1      1084 1.90902E-01
 -1      1085 1.63457E-01
 -1      1086 1.20905E+00
 -1      1087 3.54583E-01
 -1      1088 1.73850E-01
 -1      1089 1.47232E-01
 -1      1090 8.69382E-01
 -1      1091 2.26499E-01
 -1      1092 1.53101E+00
 -1      1093 1.36203E-01
 -1      1094 6.09515E-01
 -1      1095 2.12503E-01
 -1      1096 3.71093E-01
 -1      1097 3.70226E-01
 -1      1098 2.59950E+00
 -1      1099 4.72326E-01
 -1      1100 1.14242E+00
 -1      1101 3.70226E-01
 -1      1102 5.39347E-01
 -1      1103 9.26786E-01
 -1      1104 2.34735E-01
 -1      1105 2.34808E-01
 -1      1106 1.64207E-01
 -1      1107 1.94073E-01
 -1      1108 8.19080E-02
 -1      1109 1.42529E+00
 -1      1110 9.26786E-01
 -1      1111 2.28891E-01
 -1      1112 1.31481E+01
 -1      1113 8.39734E+00
 -1      1114 2.72776E+00
 -1      1115 1.54491E+00
 -1      1116 1.15998E+00
 -1      1117 9.66050E-01
 -1      1118 8.47484E-01
 -1      1119 7.75128E-01
 -1      1120 7.49330E-01
 -1      1121 7.78414E-01
 -1      1122 8.50254E-01
 -1      1123 9.69693E-01
 -1      1124 1.17239E+00
 -1      1125 1.55938E+00
 -1      1126 2.65369E+00
 -1      1127 6.06093E+00
 -1      1128 1.13392E+01
 -1      1129 1.31481E+01
 -1      1130 8.74237E+00
 -1      1131 3.84929E+00
 -1      1132 2.74833E+00
 -1      1133 1.76152E+00
 -1      1134 1.22313E+00
 -1      1135 9.43552E-01
 -1      1136 7.45209E-01
 -1      1137 5.97545E-01
 -1      1138 4.85221E-01
 -1      1139 3.99206E-01
 -1      1140 3.39896E-01
 -1      1141 3.33586E-01
 -1      1142 3.66844E-01
 -1      1143 4.00783E-01
 -1      1144 4.39181E-01
 -1      1145 5.24060E-01
 -1      1146 6.53219E-01
 -1      1147 7.70179E-01
 -1      1148 8.32839E-01
 -1      1149 8.52350E-01
 -1      1150 8.72720E-01
 -1      1151 9.45646E-01
 -1      1152 1.14555E+00
 -1      1153 1.67222E+00
 -1      1154 2.42190E+00
 -1      1155 2.86920E+00
 -1      1156 2.96501E+00
 -1      1157 2.97642E+00
 -1      1158 2.81644E+00
 -1      1159 2.24992E+00
 -1      1160 1.54059E+00
 -1      1161 1.07936E+00
 -1      1162 9.06649E-01
 -1      1163 8.64124E-01
 -1      1164 8.35881E-01
 -1      1165 8.10924E-01
 -1      1166 7.28831E-01
 -1      1167 6.03212E-01
 -1      1168 4.80020E-01
 -1      1169 3.91625E-01
 -1      1170 3.33213E-01
 -1      1171 2.81995E-01
 -1      1172 2.30061E-01
 -1      1173 1.81617E-01
 -1      1174 1.40472E-01
 -1      1175 1.15174E-01
 -1      1176 9.65401E-02
 -1      1177 6.52042E-02
 -1      1178 2.92198E-02
 -1      1179 1.40445E+01
 -1      1180 8.72840E+00
 -1      1181 2.92284E+00
 -1      1182 2.06134E+00
 -1      1183 1.43075E+00
 -1      1184 1.06295E+00
 -1      1185 8.73748E-01
 -1      1186 7.31604E-01
 -1      1187 6.21534E-01
 -1      1188 5.38572E-01
 -1      1189 4.80066E-01
 -1      1190 4.43970E-01
 -1      1191 4.31901E-01
 -1      1192 4.67112E-01
 -1      1193 5.52197E-01
 -1      1194 6.60121E-01
 -1      1195 7.75275E-01
 -1      1196 8.78648E-01
 -1      1197 9.38402E-01
 -1      1198 1.09236E+00
 -1      1199 1.40052E+00
 -1      1200 1.65839E+00
 -1      1201 1.92104E+00
 -1      1202 2.11969E+00
 -1      1203 2.39832E+00
 -1      1204 3.22648E+00
 -1      1205 4.41663E+00
 -1      1206 5.36876E+00
 -1      1207 5.70581E+00
 -1      1208 5.23742E+00
 -1      1209 3.63128E+00
 -1      1210 2.08658E+00
 -1      1211 1.80535E+00
 -1      1212 1.97170E+00
 -1      1213 2.01232E+00
 -1      1214 1.91365E+00
 -1      1215 1.66839E+00
 -1      1216 1.38919E+00
 -1      1217 1.12386E+00
 -1      1218 8.72298E-01
 -1      1219 6.53980E-01
 -1      1220 4.83115E-01
 -1      1221 3.64373E-01
 -1      1222 2.78221E-01
 -1      1223 2.08221E-01
 -1      1224 1.51875E-01
 -1      1225 1.05725E-01
 -1      1226 7.62838E-02
 -1      1227 5.29268E-02
 -1      1228 2.50025E-02
 -1      1229 1.35255E-02
 -1      1230 1.56869E-02
 -1      1231 1.63223E-02
 -1      1232 1.34980E-02
 -1      1233 8.51971E-03
 -1      1234 9.21525E-03
 -1      1235 1.38929E-02
 -1      1236 1.61828E-02
 -1      1237 1.66446E-02
 -1      1238 1.59288E-02
 -1      1239 1.31968E-02
 -1      1240 8.46216E-03
 -1      1241 8.01470E-03
 -1      1242 1.27457E-02
 -1      1243 1.73155E-02
 -1      1244 2.01920E-02
 -1      1245 1.70255E-02
 -1      1246 2.53790E+01
 -1      1247 3.67093E+01
 -1      1248 4.80397E+01
 -1      1249 3.45804E+01
 -1      1250 1.65484E+01
 -1      1251 1.20532E+01
 -1      1252 1.21307E+01
 -1      1253 1.23561E+01
 -1      1254 1.25815E+01
 -1      1255 1.34458E+01
 -1      1256 2.49298E+01
 -1      1257 3.55496E+01
 -1      1258 3.10273E+01
 -1      1259 2.65188E+01
 -1      1260 2.65326E+01
 -1      1261 2.74394E+01
 -1      1262 2.85690E+01
 -1      1263 2.87918E+01
 -1      1264 2.09927E+01
 -1      1265 1.33035E+01
 -1      1266 1.34135E+01
 -1      1267 1.26713E+01
 -1      1268 1.19292E+01
 -1      1269 1.17857E+01
 -1      1270 1.64330E+01
 -1      1271 3.44697E+01
 -1      1272 4.77157E+01
 -1      1273 3.62760E+01
 -1      1274 2.51076E+01
 -1      1275 1.31481E+01
 -1      1276 4.85154E+00
 -1      1277 9.60233E+00
 -1      1278 2.04606E+00
 -1      1279 2.96485E+00
 -1      1280 4.16983E+00
 -1      1281 1.39029E+00
 -1      1282 1.65435E+00
 -1      1283 1.89144E+00
 -1      1284 1.09519E+00
 -1      1285 1.21605E+00
 -1      1286 1.32550E+00
 -1      1287 9.30241E-01
 -1      1288 1.00331E+00
 -1      1289 1.05938E+00
 -1      1290 8.30288E-01
 -1      1291 8.75789E-01
 -1      1292 9.13045E-01
 -1      1293 7.69187E-01
 -1      1294 7.96043E-01
 -1      1295 8.24347E-01
 -1      1296 7.50388E-01
 -1      1297 7.49330E-01
 -1      1298 7.70245E-01
 -1      1299 8.00088E-01
 -1      1300 7.72062E-01
 -1      1301 7.72062E-01
 -1      1302 8.77796E-01
 -1      1303 8.33982E-01
 -1      1304 8.27630E-01
 -1      1305 1.01016E+00
 -1      1306 9.34538E-01
 -1      1307 9.18267E-01
 -1      1308 1.23264E+00
 -1      1309 1.10557E+00
 -1      1310 1.07041E+00
 -1      1311 1.66945E+00
 -1      1312 1.40953E+00
 -1      1313 1.34271E+00
 -1      1314 2.86969E+00
 -1      1315 2.03530E+00
 -1      1316 1.88544E+00
 -1      1317 6.27599E+00
 -1      1318 3.70315E+00
 -1      1319 3.08475E+00
 -1      1320 1.40445E+01
 -1      1321 1.13392E+01
 -1      1322 8.98136E+00
 -1      1323 1.40445E+01
 -1      1324 8.74237E+00
 -1      1325 4.33660E+00
 -1      1326 3.84929E+00
 -1      1327 3.36199E+00
 -1      1328 3.84929E+00
 -1      1329 2.74833E+00
 -1      1330 2.13468E+00
 -1      1331 2.74833E+00
 -1      1332 1.80051E+00
 -1      1333 1.42736E+00
 -1      1334 1.80051E+00
 -1      1335 1.22313E+00
 -1      1336 1.05790E+00
 -1      1337 1.26212E+00
 -1      1338 9.43552E-01
 -1      1339 8.29207E-01
 -1      1340 9.43552E-01
 -1      1341 7.45209E-01
 -1      1342 6.61210E-01
 -1      1343 7.45209E-01
 -1      1344 5.97545E-01
 -1      1345 5.33879E-01
 -1      1346 5.97545E-01
 -1      1347 4.85221E-01
 -1      1348 4.36563E-01
 -1      1349 4.85221E-01
 -1      1350 3.99206E-01
 -1      1351 3.61849E-01
 -1      1352 3.99206E-01
 -1      1353 3.32462E-01
 -1      1354 3.10509E-01
 -1      1355 3.32462E-01
 -1      1356 3.17943E-01
 -1      1357 3.33586E-01
 -1      1358 3.10509E-01
 -1      1359 3.49228E-01
 -1      1360 3.66844E-01
 -1      1361 3.33586E-01
 -1      1362 3.84459E-01
 -1      1363 4.00783E-01
 -1      1364 3.66844E-01
 -1      1365 4.17106E-01
 -1      1366 4.39181E-01
 -1      1367 4.00783E-01
 -1      1368 4.72686E-01
 -1      1369 5.35489E-01
 -1      1370 4.50611E-01
 -1      1371 5.86863E-01
 -1      1372 6.53219E-01
 -1      1373 5.35489E-01
 -1      1374 7.19575E-01
 -1      1375 7.70179E-01
 -1      1376 6.53219E-01
 -1      1377 8.20783E-01
 -1      1378 8.32839E-01
 -1      1379 7.70179E-01
 -1      1380 8.44894E-01
 -1      1381 8.52350E-01
 -1      1382 8.32839E-01
 -1      1383 8.59806E-01
 -1      1384 8.72720E-01
 -1      1385 8.52350E-01
 -1      1386 8.85634E-01
 -1      1387 9.45646E-01
 -1      1388 8.72720E-01
 -1      1389 1.00566E+00
 -1      1390 1.14555E+00
 -1      1391 9.45646E-01
 -1      1392 1.31728E+00
 -1      1393 1.70406E+00
 -1      1394 1.17739E+00
 -1      1395 2.05900E+00
 -1      1396 2.42190E+00
 -1      1397 1.70406E+00
 -1      1398 2.78481E+00
 -1      1399 2.86920E+00
 -1      1400 2.42190E+00
 -1      1401 2.95360E+00
 -1      1402 2.96501E+00
 -1      1403 2.86920E+00
 -1      1404 2.97642E+00
 -1      1405 2.97642E+00
 -1      1406 2.96501E+00
 -1      1407 2.81644E+00
 -1      1408 2.65645E+00
 -1      1409 2.81644E+00
 -1      1410 2.24992E+00
 -1      1411 1.84338E+00
 -1      1412 2.24992E+00
 -1      1413 1.54059E+00
 -1      1414 1.23779E+00
 -1      1415 1.54059E+00
 -1      1416 1.07936E+00
 -1      1417 9.20932E-01
 -1      1418 1.07936E+00
 -1      1419 9.06649E-01
 -1      1420 8.92367E-01
 -1      1421 9.06649E-01
 -1      1422 8.60576E-01
 -1      1423 8.32333E-01
 -1      1424 8.60576E-01
 -1      1425 8.35881E-01
 -1      1426 8.35881E-01
 -1      1427 8.32333E-01
 -1      1428 8.10924E-01
 -1      1429 7.85966E-01
 -1      1430 8.10924E-01
 -1      1431 7.28831E-01
 -1      1432 6.71696E-01
 -1      1433 7.28831E-01
 -1      1434 6.12770E-01
 -1      1435 5.44286E-01
 -1      1436 6.12770E-01
 -1      1437 5.01724E-01
 -1      1438 4.47015E-01
 -1      1439 5.11281E-01
 -1      1440 4.09289E-01
 -1      1441 3.75603E-01
 -1      1442 4.30993E-01
 -1      1443 3.35511E-01
 -1      1444 3.10786E-01
 -1      1445 3.53175E-01
 -1      1446 2.81995E-01
 -1      1447 2.55501E-01
 -1      1448 2.84292E-01
 -1      1449 2.30061E-01
 -1      1450 2.04620E-01
 -1      1451 2.30061E-01
 -1      1452 1.81994E-01
 -1      1453 1.58991E-01
 -1      1454 1.81994E-01
 -1      1455 1.41171E-01
 -1      1456 1.23029E-01
 -1      1457 1.41548E-01
 -1      1458 1.15174E-01
 -1      1459 1.08019E-01
 -1      1460 1.15874E-01
 -1      1461 9.65401E-02
 -1      1462 8.50610E-02
 -1      1463 9.65401E-02
 -1      1464 6.64271E-02
 -1      1465 4.65702E-02
 -1      1466 6.64271E-02
 -1      1467 3.31530E-02
 -1      1468 3.43759E-02
 -1      1469 3.41227E+00
 -1      1470 8.72840E+00
 -1      1471 8.72840E+00
 -1      1472 2.43340E+00
 -1      1473 2.92284E+00
 -1      1474 2.92284E+00
 -1      1475 1.68929E+00
 -1      1476 2.06134E+00
 -1      1477 2.06134E+00
 -1      1478 1.17222E+00
 -1      1479 1.43075E+00
 -1      1480 1.43075E+00
 -1      1481 9.53672E-01
 -1      1482 1.06295E+00
 -1      1483 1.06295E+00
 -1      1484 7.93823E-01
 -1      1485 8.73748E-01
 -1      1486 8.73748E-01
 -1      1487 6.69385E-01
 -1      1488 7.31604E-01
 -1      1489 7.31604E-01
 -1      1490 5.73684E-01
 -1      1491 6.21534E-01
 -1      1492 6.21534E-01
 -1      1493 5.03461E-01
 -1      1494 5.38572E-01
 -1      1495 5.38572E-01
 -1      1496 4.56671E-01
 -1      1497 4.80066E-01
 -1      1498 4.80066E-01
 -1      1499 4.31269E-01
 -1      1500 4.43970E-01
 -1      1501 4.43970E-01
 -1      1502 4.28542E-01
 -1      1503 4.27910E-01
 -1      1504 4.27910E-01
 -1      1505 4.68730E-01
 -1      1506 4.34151E-01
 -1      1507 4.30160E-01
 -1      1508 5.61191E-01
 -1      1509 5.10685E-01
 -1      1510 4.77723E-01
 -1      1511 6.65151E-01
 -1      1512 6.07733E-01
 -1      1513 5.66220E-01
 -1      1514 7.75275E-01
 -1      1515 7.17538E-01
 -1      1516 6.65151E-01
 -1      1517 8.78648E-01
 -1      1518 8.33012E-01
 -1      1519 7.75275E-01
 -1      1520 9.38402E-01
 -1      1521 9.24284E-01
 -1      1522 8.78648E-01
 -1      1523 1.15700E+00
 -1      1524 1.01716E+00
 -1      1525 1.00304E+00
 -1      1526 1.42883E+00
 -1      1527 1.26051E+00
 -1      1528 1.18531E+00
 -1      1529 1.65839E+00
 -1      1530 1.56884E+00
 -1      1531 1.42883E+00
 -1      1532 1.92104E+00
 -1      1533 1.74794E+00
 -1      1534 1.65839E+00
 -1      1535 2.11969E+00
 -1      1536 2.09414E+00
 -1      1537 1.92104E+00
 -1      1538 2.39832E+00
 -1      1539 2.14524E+00
 -1      1540 2.11969E+00
 -1      1541 3.22648E+00
 -1      1542 2.65140E+00
 -1      1543 2.39832E+00
 -1      1544 4.41663E+00
 -1      1545 3.80156E+00
 -1      1546 3.22648E+00
 -1      1547 5.36876E+00
 -1      1548 5.03171E+00
 -1      1549 4.41663E+00
 -1      1550 5.70581E+00
 -1      1551 5.70581E+00
 -1      1552 5.36876E+00
 -1      1553 4.76902E+00
 -1      1554 5.23742E+00
 -1      1555 5.23742E+00
 -1      1556 2.49354E+00
 -1      1557 3.63128E+00
 -1      1558 3.63128E+00
 -1      1559 1.61875E+00
 -1      1560 2.02571E+00
 -1      1561 2.02571E+00
 -1      1562 1.80535E+00
 -1      1563 1.67963E+00
 -1      1564 1.61875E+00
 -1      1565 1.97170E+00
 -1      1566 1.93108E+00
 -1      1567 1.80535E+00
 -1      1568 2.01232E+00
 -1      1569 2.01232E+00
 -1      1570 1.97170E+00
 -1      1571 1.81498E+00
 -1      1572 1.91365E+00
 -1      1573 1.91365E+00
 -1      1574 1.52181E+00
 -1      1575 1.66839E+00
 -1      1576 1.66839E+00
 -1      1577 1.25763E+00
 -1      1578 1.39025E+00
 -1      1579 1.39025E+00
 -1      1580 1.00687E+00
 -1      1581 1.13959E+00
 -1      1582 1.14065E+00
 -1      1583 7.75990E-01
 -1      1584 8.94833E-01
 -1      1585 9.10563E-01
 -1      1586 5.78851E-01
 -1      1587 6.78326E-01
 -1      1588 7.00861E-01
 -1      1589 4.26882E-01
 -1      1590 4.98272E-01
 -1      1591 5.22617E-01
 -1      1592 3.17452E-01
 -1      1593 3.64804E-01
 -1      1594 3.79960E-01
 -1      1595 2.39421E-01
 -1      1596 2.78221E-01
 -1      1597 2.78652E-01
 -1      1598 1.77020E-01
 -1      1599 2.08221E-01
 -1      1600 2.08221E-01
 -1      1601 1.27253E-01
 -1      1602 1.52398E-01
 -1      1603 1.52398E-01
 -1      1604 8.71770E-02
 -1      1605 1.08182E-01
 -1      1606 1.08705E-01
 -1      1607 6.78483E-02
 -1      1608 7.62838E-02
 -1      1609 7.87415E-02
 -1      1610 3.80054E-02
 -1      1611 5.29268E-02
 -1      1612 5.29268E-02
 -1      1613 2.65284E-02
 -1      1614 2.04133E-02
 -1      1615 1.97779E-02
 -1      1616 2.18633E-02
 -1      1617 2.18633E-02
 -1      1618 2.59544E-02
 -1      1619 1.90390E-02
 -1      1620 2.18633E-02
 -1      1621 2.74044E-02
 -1      1622 1.07051E-02
 -1      1623 1.28591E-02
 -1      1624 2.12244E-02
 -1      1625 1.76211E-02
 -1      1626 1.47715E-02
 -1      1627 1.91109E-02
 -1      1628 2.31572E-02
 -1      1629 2.13291E-02
 -1      1630 2.68854E-02
 -1      1631 2.49414E-02
 -1      1632 2.44796E-02
 -1      1633 3.19158E-02
 -1      1634 2.49414E-02
 -1      1635 2.49414E-02
 -1      1636 3.32383E-02
 -1      1637 2.40916E-02
 -1      1638 2.48074E-02
 -1      1639 3.31042E-02
 -1      1640 2.01191E-02
 -1      1641 2.21354E-02
 -1      1642 3.10139E-02
 -1      1643 1.35331E-02
 -1      1644 1.62515E-02
 -1      1645 2.51901E-02
 -1      1646 1.23937E-02
 -1      1647 1.01228E-02
 -1      1648 1.79121E-02
 -1      1649 2.06959E-02
 -1      1650 1.82358E-02
 -1      1651 2.03439E-02
 -1      1652 2.28056E-02
 -1      1653 2.06959E-02
 -1      1654 2.61860E-02
 -1      1655 2.55586E-02
 -1      1656 2.47919E-02
 -1      1657 2.81722E-02
 -1      1658 3.89758E-02
 -1      1659 2.91987E+01
 -1      1660 2.91987E+01
 -1      1661 3.90051E+01
 -1      1662 2.76747E+01
 -1      1663 4.80397E+01
 -1      1664 4.80397E+01
 -1      1665 2.19767E+01
 -1      1666 3.54360E+01
 -1      1667 1.18723E+01
 -1      1668 1.64450E+01
 -1      1669 1.20532E+01
 -1      1670 1.19757E+01
 -1      1671 1.21307E+01
 -1      1672 1.21307E+01
 -1      1673 1.23305E+01
 -1      1674 1.21051E+01
 -1      1675 1.25815E+01
 -1      1676 1.25815E+01
 -1      1677 1.28575E+01
 -1      1678 1.19933E+01
 -1      1679 2.49298E+01
 -1      1680 1.43100E+01
 -1      1681 3.55496E+01
 -1      1682 3.55496E+01
 -1      1683 3.04488E+01
 -1      1684 3.49712E+01
 -1      1685 2.66867E+01
 -1      1686 2.66729E+01
 -1      1687 3.10465E+01
 -1      1688 3.10465E+01
 -1      1689 3.16533E+01
 -1      1690 3.07465E+01
 -1      1691 3.18761E+01
 -1      1692 3.16533E+01
 -1      1693 2.87918E+01
 -1      1694 2.87918E+01
 -1      1695 1.31936E+01
 -1      1696 2.09927E+01
 -1      1697 1.26415E+01
 -1      1698 1.25316E+01
 -1      1699 1.34135E+01
 -1      1700 1.34135E+01
 -1      1701 1.19177E+01
 -1      1702 1.26599E+01
 -1      1703 1.19292E+01
 -1      1704 1.19292E+01
 -1      1705 1.16423E+01
 -1      1706 1.17857E+01
 -1      1707 1.62923E+01
 -1      1708 1.15015E+01
 -1      1709 3.51353E+01
 -1      1710 2.18893E+01
 -1      1711 4.77157E+01
 -1      1712 4.77157E+01
 -1      1713 2.71849E+01
 -1      1714 3.86246E+01
 -1      1715 2.91987E+01
 -1      1716 2.89274E+01
 -1      1717 1.73006E+01
 -1      1718 3.54360E+01
 -1      1719 2.65284E-02
 -1      1720 3.12549E-02
 -1      1721 3.14945E+01
 -1      1722 3.90051E+01
 -1      1723 3.30185E+01
 -1      1724 1.18723E+01
 -1      1725 1.20532E+01
 -1      1726 1.21051E+01
 -1      1727 1.23305E+01
 -1      1728 1.19933E+01
 -1      1729 1.28575E+01
 -1      1730 2.49298E+01
 -1      1731 3.49712E+01
 -1      1732 3.06167E+01
 -1      1733 3.12006E+01
 -1      1734 3.52604E+01
 -1      1735 3.49604E+01
 -1      1736 3.18761E+01
 -1      1737 2.09927E+01
 -1      1738 1.25316E+01
 -1      1739 1.26415E+01
 -1      1740 1.26599E+01
 -1      1741 1.19177E+01
 -1      1742 1.17857E+01
 -1      1743 1.15015E+01
 -1      1744 1.69578E+01
 -1      1745 3.51353E+01
 -1      1746 3.86246E+01
 -1      1747 3.12760E+01
 -1      1748 9.60233E+00
 -1      1749 1.26716E+00
 -1      1750 1.65886E+00
 -1      1751 2.37268E+00
 -1      1752 4.25937E+00
 -1      1753 1.74840E+00
 -1      1754 8.78518E-01
 -1      1755 9.70402E-01
 -1      1756 7.73910E-01
 -1      1757 8.28362E-01
 -1      1758 7.39382E-01
 -1      1759 7.08114E-01
 -1      1760 7.42359E-01
 -1      1761 6.57676E-01
 -1      1762 6.66223E-01
 -1      1763 6.86080E-01
 -1      1764 6.04092E-01
 -1      1765 6.89565E-01
 -1      1766 6.67892E-01
 -1      1767 5.83727E-01
 -1      1768 7.45265E-01
 -1      1769 7.11370E-01
 -1      1770 6.07200E-01
 -1      1771 8.35315E-01
 -1      1772 7.78572E-01
 -1      1773 6.62312E-01
 -1      1774 9.78203E-01
 -1      1775 8.82800E-01
 -1      1776 7.43105E-01
 -1      1777 1.22258E+00
 -1      1778 1.04569E+00
 -1      1779 8.58076E-01
 -1      1780 1.69862E+00
 -1      1781 1.33277E+00
 -1      1782 1.03576E+00
 -1      1783 2.61577E+00
 -1      1784 1.78231E+00
 -1      1785 1.22964E+00
 -1      1786 8.12253E+00
 -1      1787 3.05938E+00
 -1      1788 1.75694E+00
 -1      1789 2.80641E+00
 -1      1790 5.19656E+00
 -1      1791 2.17272E+00
 -1      1792 2.66216E+00
 -1      1793 2.05630E+00
 -1      1794 3.39941E+00
 -1      1795 2.55285E+00
 -1      1796 1.93920E+00
 -1      1797 1.70825E+00
 -1      1798 1.37409E+00
 -1      1799 1.51277E+00
 -1      1800 1.19358E+00
 -1      1801 9.89350E-01
 -1      1802 1.10131E+00
 -1      1803 8.68945E-01
 -1      1804 7.54601E-01
 -1      1805 8.00399E-01
 -1      1806 7.03602E-01
 -1      1807 6.19603E-01
 -1      1808 6.28995E-01
 -1      1809 5.73729E-01
 -1      1810 5.10064E-01
 -1      1811 5.32122E-01
 -1      1812 4.69479E-01
 -1      1813 4.20821E-01
 -1      1814 4.45664E-01
 -1      1815 3.85290E-01
 -1      1816 3.47932E-01
 -1      1817 3.69548E-01
 -1      1818 3.16591E-01
 -1      1819 2.87204E-01
 -1      1820 3.02675E-01
 -1      1821 2.77008E-01
 -1      1822 2.84443E-01
 -1      1823 2.61138E-01
 -1      1824 2.97770E-01
 -1      1825 3.13412E-01
 -1      1826 2.64269E-01
 -1      1827 3.27665E-01
 -1      1828 3.45281E-01
 -1      1829 2.91850E-01
 -1      1830 3.64562E-01
 -1      1831 3.80886E-01
 -1      1832 3.25384E-01
 -1      1833 4.17894E-01
 -1      1834 4.51399E-01
 -1      1835 3.81674E-01
 -1      1836 4.87043E-01
 -1      1837 5.38417E-01
 -1      1838 4.54327E-01
 -1      1839 5.76108E-01
 -1      1840 6.42464E-01
 -1      1841 5.27662E-01
 -1      1842 6.69476E-01
 -1      1843 7.20080E-01
 -1      1844 5.92365E-01
 -1      1845 7.16117E-01
 -1      1846 7.28173E-01
 -1      1847 6.15415E-01
 -1      1848 6.74177E-01
 -1      1849 6.81633E-01
 -1      1850 5.57456E-01
 -1      1851 6.40475E-01
 -1      1852 6.53389E-01
 -1      1853 4.62302E-01
 -1      1854 7.22421E-01
 -1      1855 7.82433E-01
 -1      1856 4.90176E-01
 -1      1857 9.96835E-01
 -1      1858 1.16857E+00
 -1      1859 7.73610E-01
 -1      1860 1.35192E+00
 -1      1861 1.70686E+00
 -1      1862 1.17137E+00
 -1      1863 1.90346E+00
 -1      1864 2.26636E+00
 -1      1865 1.55132E+00
 -1      1866 2.35079E+00
 -1      1867 2.43519E+00
 -1      1868 1.83235E+00
 -1      1869 2.39225E+00
 -1      1870 2.40366E+00
 -1      1871 1.87383E+00
 -1      1872 2.44314E+00
 -1      1873 2.28315E+00
 -1      1874 1.87037E+00
 -1      1875 2.16067E+00
 -1      1876 1.75414E+00
 -1      1877 1.78737E+00
 -1      1878 1.56598E+00
 -1      1879 1.26319E+00
 -1      1880 1.47674E+00
 -1      1881 1.05857E+00
 -1      1882 9.00142E-01
 -1      1883 1.08397E+00
 -1      1884 7.04254E-01
 -1      1885 6.89971E-01
 -1      1886 6.83463E-01
 -1      1887 6.65244E-01
 -1      1888 6.33454E-01
 -1      1889 4.62849E-01
 -1      1890 6.81291E-01
 -1      1891 6.84839E-01
 -1      1892 4.85959E-01
 -1      1893 7.25000E-01
 -1      1894 7.00043E-01
 -1      1895 5.73958E-01
 -1      1896 6.95268E-01
 -1      1897 6.38133E-01
 -1      1898 6.09344E-01
 -1      1899 6.06824E-01
 -1      1900 5.47898E-01
 -1      1901 5.73261E-01
 -1      1902 5.17757E-01
 -1      1903 4.75195E-01
 -1      1904 5.11811E-01
 -1      1905 4.46880E-01
 -1      1906 4.09154E-01
 -1      1907 4.53356E-01
 -1      1908 3.75915E-01
 -1      1909 3.35822E-01
 -1      1910 3.91801E-01
 -1      1911 3.00895E-01
 -1      1912 2.72104E-01
 -1      1913 3.23634E-01
 -1      1914 2.39125E-01
 -1      1915 2.13684E-01
 -1      1916 2.55728E-01
 -1      1917 1.84681E-01
 -1      1918 1.62055E-01
 -1      1919 1.93745E-01
 -1      1920 1.41548E-01
 -1      1921 1.23728E-01
 -1      1922 1.44235E-01
 -1      1923 1.07953E-01
 -1      1924 1.00098E-01
 -1      1925 1.07953E-01
 -1      1926 8.68290E-02
 -1      1927 7.53500E-02
 -1      1928 7.89081E-02
 -1      1929 6.50631E-02
 -1      1930 4.64292E-02
 -1      1931 3.76118E-02
 -1      1932 5.53521E-02
 -1      1933 1.41717E+00
 -1      1934 1.78923E+00
 -1      1935 1.52855E+00
 -1      1936 1.03714E+00
 -1      1937 1.29567E+00
 -1      1938 1.02355E+00
 -1      1939 8.32940E-01
 -1      1940 9.42215E-01
 -1      1941 8.07130E-01
 -1      1942 6.71430E-01
 -1      1943 7.51355E-01
 -1      1944 6.30623E-01
 -1      1945 5.70056E-01
 -1      1946 6.32275E-01
 -1      1947 5.09882E-01
 -1      1948 4.99203E-01
 -1      1949 5.47053E-01
 -1      1950 4.47724E-01
 -1      1951 4.44038E-01
 -1      1952 4.79150E-01
 -1      1953 4.04668E-01
 -1      1954 4.04953E-01
 -1      1955 4.28348E-01
 -1      1956 3.68925E-01
 -1      1957 3.81483E-01
 -1      1958 3.94184E-01
 -1      1959 3.42466E-01
 -1      1960 3.72060E-01
 -1      1961 3.75419E-01
 -1      1962 3.25633E-01
 -1      1963 4.00880E-01
 -1      1964 3.95272E-01
 -1      1965 3.42781E-01
 -1      1966 5.12162E-01
 -1      1967 4.70207E-01
 -1      1968 4.35320E-01
 -1      1969 6.49576E-01
 -1      1970 6.03034E-01
 -1      1971 5.95518E-01
 -1      1972 8.03706E-01
 -1      1973 7.51319E-01
 -1      1974 7.88132E-01
 -1      1975 9.66548E-01
 -1      1976 9.08812E-01
 -1      1977 9.94980E-01
 -1      1978 1.10490E+00
 -1      1979 1.05927E+00
 -1      1980 1.19280E+00
 -1      1981 1.26269E+00
 -1      1982 1.18393E+00
 -1      1983 1.36455E+00
 -1      1984 1.39978E+00
 -1      1985 1.29627E+00
 -1      1986 1.47716E+00
 -1      1987 1.54830E+00
 -1      1988 1.40829E+00
 -1      1989 1.51925E+00
 -1      1990 1.57174E+00
 -1      1991 1.48218E+00
 -1      1992 1.46164E+00
 -1      1993 1.70066E+00
 -1      1994 1.52756E+00
 -1      1995 1.35135E+00
 -1      1996 1.81187E+00
 -1      1997 1.78632E+00
 -1      1998 1.39283E+00
 -1      1999 2.52251E+00
 -1      2000 2.26943E+00
 -1      2001 1.93606E+00
 -1      2002 3.35255E+00
 -1      2003 2.77747E+00
 -1      2004 2.64858E+00
 -1      2005 4.18578E+00
 -1      2006 3.57070E+00
 -1      2007 3.12169E+00
 -1      2008 4.49149E+00
 -1      2009 4.15445E+00
 -1      2010 3.30852E+00
 -1      2011 3.82949E+00
 -1      2012 4.29788E+00
 -1      2013 3.08357E+00
 -1      2014 2.17021E+00
 -1      2015 3.30795E+00
 -1      2016 2.36842E+00
 -1      2017 1.38716E+00
 -1      2018 1.85499E+00
 -1      2019 1.53167E+00
 -1      2020 1.50831E+00
 -1      2021 1.44744E+00
 -1      2022 1.27672E+00
 -1      2023 1.72594E+00
 -1      2024 1.60022E+00
 -1      2025 1.42890E+00
 -1      2026 1.75710E+00
 -1      2027 1.71648E+00
 -1      2028 1.51135E+00
 -1      2029 1.64118E+00
 -1      2030 1.73986E+00
 -1      2031 1.48464E+00
 -1      2032 1.42031E+00
 -1      2033 1.56689E+00
 -1      2034 1.39310E+00
 -1      2035 1.20235E+00
 -1      2036 1.33391E+00
 -1      2037 1.23241E+00
 -1      2038 9.87582E-01
 -1      2039 1.10563E+00
 -1      2040 1.04929E+00
 -1      2041 7.78667E-01
 -1      2042 8.90705E-01
 -1      2043 8.55686E-01
 -1      2044 5.93766E-01
 -1      2045 6.91430E-01
 -1      2046 6.71572E-01
 -1      2047 4.39534E-01
 -1      2048 5.20113E-01
 -1      2049 5.10683E-01
 -1      2050 3.17882E-01
 -1      2051 3.79960E-01
 -1      2052 3.77456E-01
 -1      2053 2.35521E-01
 -1      2054 2.74752E-01
 -1      2055 2.74752E-01
 -1      2056 1.75626E-01
 -1      2057 2.06827E-01
 -1      2058 2.02927E-01
 -1      2059 1.27776E-01
 -1      2060 1.52398E-01
 -1      2061 1.51004E-01
 -1      2062 8.96347E-02
 -1      2063 1.08705E-01
 -1      2064 1.08705E-01
 -1      2065 6.27345E-02
 -1      2066 7.36277E-02
 -1      2067 7.36277E-02
 -1      2068 3.45521E-02
 -1      2069 4.94736E-02
 -1      2070 4.43598E-02
 -1      2071 2.78016E-02
 -1      2072 2.26092E-02
 -1      2073 2.87892E-02
 -1      2074 3.78473E-02
 -1      2075 3.78473E-02
 -1      2076 3.92321E-02
 -1      2077 3.78473E-02
 -1      2078 3.63973E-02
 -1      2079 3.96945E-02
 -1      2080 4.82902E-02
 -1      2081 2.78605E-02
 -1      2082 2.37940E-02
 -1      2083 3.13588E-02
 -1      2084 3.72777E-02
 -1      2085 3.35697E-02
 -1      2086 3.82527E-02
 -1      2087 4.10289E-02
 -1      2088 3.97065E-02
 -1      2089 4.63908E-02
 -1      2090 4.10289E-02
 -1      2091 4.10289E-02
 -1      2092 4.88196E-02
 -1      2093 4.03086E-02
 -1      2094 4.04426E-02
 -1      2095 4.82333E-02
 -1      2096 3.82468E-02
 -1      2097 4.02030E-02
 -1      2098 4.75414E-02
 -1      2099 3.11652E-02
 -1      2100 3.50329E-02
 -1      2101 4.42219E-02
 -1      2102 2.16318E-02
 -1      2103 2.50421E-02
 -1      2104 3.48849E-02
 -1      2105 2.81090E-02
 -1      2106 2.22670E-02
 -1      2107 2.93970E-02
 -1      2108 3.40619E-02
 -1      2109 3.40619E-02
 -1      2110 3.59850E-02
 -1      2111 3.90051E+01
 -1      2112 2.99705E+01
 -1      2113 3.30185E+01
 -1      2114 3.30185E+01
 -1      2115 3.07699E+01
 -1      2116 3.22938E+01
 -1      2117 3.07699E+01
 -1      2118 1.99014E+01
 -1      2119 3.25051E+01
 -1      2120 1.07641E+01
 -1      2121 1.62957E+01
 -1      2122 1.02790E+00
 -1      2123 1.20213E+00
 -1      2124 9.69557E-01
 -1      2125 8.47036E-01
 -1      2126 1.12596E+01
 -1      2127 1.11820E+01
 -1      2128 1.12589E+01
 -1      2129 1.12846E+01
 -1      2130 1.19225E+01
 -1      2131 1.16715E+01
 -1      2132 1.02590E+01
 -1      2133 1.08472E+01
 -1      2134 1.09770E+01
 -1      2135 9.52448E+00
 -1      2136 2.44010E+01
 -1      2137 1.37812E+01
 -1      2138 2.87854E+01
 -1      2139 2.93638E+01
 -1      2140 2.61196E+01
 -1      2141 2.98956E+01
 -1      2142 3.55604E+01
 -1      2143 3.12006E+01
 -1      2144 3.39288E+01
 -1      2145 3.42288E+01
 -1      2146 3.49604E+01
 -1      2147 3.49604E+01
 -1      2148 3.39288E+01
 -1      2149 2.41402E+01
 -1      2150 2.72245E+01
 -1      2151 1.24318E+01
 -1      2152 2.02309E+01
 -1      2153 9.74954E+00
 -1      2154 1.04115E+01
 -1      2155 1.09538E+01
 -1      2156 1.01818E+01
 -1      2157 8.06178E+00
 -1      2158 1.16166E+01
 -1      2159 1.23702E+01
 -1      2160 1.09269E+01
 -1      2161 1.09154E+01
 -1      2162 1.05761E+01
 -1      2163 1.07196E+01
 -1      2164 9.27606E+00
 -1      2165 9.41680E+00
 -1      2166 1.61364E+01
 -1      2167 1.05394E+01
 -1      2168 3.23661E+01
 -1      2169 1.97857E+01
 -1      2170 2.95335E+01
 -1      2171 3.86246E+01
 -1      2172 3.01786E+01
 -1      2173 2.84362E+01
 -1      2174 9.78544E+00
 -1      2175 9.68207E+00
 -1      2176 8.67722E+00
 -1      2177 2.91210E+00
 -1      2178 8.99179E+00
 -1      2179 2.10296E+00
 -1      2180 3.22938E+01
 -1      2181 2.34705E+01
 -1      2182 3.60481E-02
 -1      2183 3.01786E+01
 -1      2184 1.33649E+01
 -1      2185 2.84362E+01
 -1      2186 2.32751E+01
 -1      2187 1.33673E+01
 -1      2188 8.45468E+00
 -1      2189 8.35069E+00
 -1      2190 9.71728E+00
 -1      2191 9.91052E+00
 -1      2192 9.64973E+00
 -1      2193 2.72245E+01
 -1      2194 3.55604E+01
 -1      2195 3.55604E+01
 -1      2196 3.42288E+01
 -1      2197 3.04794E+01
 -1      2198 2.42883E+01
 -1      2199 1.82152E+01
 -1      2200 1.04482E+01
 -1      2201 8.37841E+00
 -1      2202 1.01882E+01
 -1      2203 1.04134E+01
 -1      2204 1.08510E+01
 -1      2205 1.55793E+01
 -1      2206 1.06257E+01
 -1      2207 1.10238E+00
 -1      2208 1.48588E+00
 -1      2209 5.53467E-01
 -1      2210 5.85017E-01
 -1      2211 5.99404E-01
 -1      2212 6.49560E-01
 -1      2213 4.95195E-01
 -1      2214 5.05663E-01
 -1      2215 5.03994E-01
 -1      2216 5.40492E-01
 -1      2217 5.18687E-01
 -1      2218 4.38954E-01
 -1      2219 5.88788E-01
 -1      2220 5.55480E-01
 -1      2221 4.66967E-01
 -1      2222 6.48560E-01
 -1      2223 6.01075E-01
 -1      2224 4.94243E-01
 -1      2225 7.16046E-01
 -1      2226 6.48560E-01
 -1      2227 5.06531E-01
 -1      2228 8.69639E-01
 -1      2229 7.59444E-01
 -1      2230 5.49929E-01
 -1      2231 9.02052E-01
 -1      2232 1.02355E+00
 -1      2233 9.80880E-01
 -1      2234 1.27008E+00
 -1      2235 1.03913E+00
 -1      2236 8.39646E+00
 -1      2237 6.99987E+00
 -1      2238 9.94927E-01
 -1      2239 8.14415E-01
 -1      2240 7.52235E-01
 -1      2241 7.55479E-01
 -1      2242 6.35074E-01
 -1      2243 6.49091E-01
 -1      2244 5.75604E-01
 -1      2245 5.24605E-01
 -1      2246 5.30684E-01
 -1      2247 4.84377E-01
 -1      2248 4.38503E-01
 -1      2249 4.30986E-01
 -1      2250 4.13229E-01
 -1      2251 3.72645E-01
 -1      2252 3.65483E-01
 -1      2253 3.44969E-01
 -1      2254 3.09437E-01
 -1      2255 3.12533E-01
 -1      2256 2.81047E-01
 -1      2257 2.49706E-01
 -1      2258 2.56468E-01
 -1      2259 2.21071E-01
 -1      2260 2.10876E-01
 -1      2261 1.99444E-01
 -1      2262 2.21986E-01
 -1      2263 2.35313E-01
 -1      2264 1.81920E-01
 -1      2265 2.46969E-01
 -1      2266 2.61222E-01
 -1      2267 2.04686E-01
 -1      2268 2.99149E-01
 -1      2269 3.18431E-01
 -1      2270 2.54269E-01
 -1      2271 3.58154E-01
 -1      2272 3.95162E-01
 -1      2273 3.31919E-01
 -1      2274 4.29512E-01
 -1      2275 4.65157E-01
 -1      2276 4.05992E-01
 -1      2277 4.95525E-01
 -1      2278 5.33216E-01
 -1      2279 4.70710E-01
 -1      2280 5.60298E-01
 -1      2281 5.87310E-01
 -1      2282 5.28161E-01
 -1      2283 6.11620E-01
 -1      2284 6.07657E-01
 -1      2285 5.79553E-01
 -1      2286 6.08712E-01
 -1      2287 5.54716E-01
 -1      2288 6.04917E-01
 -1      2289 5.94341E-01
 -1      2290 5.53183E-01
 -1      2291 6.45597E-01
 -1      2292 6.04010E-01
 -1      2293 6.73042E-01
 -1      2294 7.36049E-01
 -1      2295 7.55969E-01
 -1      2296 9.70370E-01
 -1      2297 8.69803E-01
 -1      2298 1.06960E+00
 -1      2299 1.25296E+00
 -1      2300 1.05196E+00
 -1      2301 1.35598E+00
 -1      2302 1.55258E+00
 -1      2303 1.25421E+00
 -1      2304 1.75015E+00
 -1      2305 1.83457E+00
 -1      2306 1.55480E+00
 -1      2307 1.82518E+00
 -1      2308 1.78224E+00
 -1      2309 1.74298E+00
 -1      2310 1.74359E+00
 -1      2311 1.78307E+00
 -1      2312 1.69493E+00
 -1      2313 1.74310E+00
 -1      2314 1.62061E+00
 -1      2315 1.61631E+00
 -1      2316 1.47815E+00
 -1      2317 1.29000E+00
 -1      2318 1.43388E+00
 -1      2319 1.21176E+00
 -1      2320 1.00715E+00
 -1      2321 1.21318E+00
 -1      2322 8.70897E-01
 -1      2323 6.75009E-01
 -1      2324 9.98693E-01
 -1      2325 6.30166E-01
 -1      2326 6.05439E-01
 -1      2327 8.17599E-01
 -1      2328 5.43314E-01
 -1      2329 5.91152E-01
 -1      2330 7.10631E-01
 -1      2331 5.77672E-01
 -1      2332 6.17833E-01
 -1      2333 6.35026E-01
 -1      2334 6.12396E-01
 -1      2335 6.07621E-01
 -1      2336 6.16110E-01
 -1      2337 5.82342E-01
 -1      2338 5.51033E-01
 -1      2339 5.85394E-01
 -1      2340 5.24292E-01
 -1      2341 4.94151E-01
 -1      2342 5.33373E-01
 -1      2343 4.67382E-01
 -1      2344 4.39067E-01
 -1      2345 4.79863E-01
 -1      2346 4.08086E-01
 -1      2347 3.74846E-01
 -1      2348 4.22112E-01
 -1      2349 3.41064E-01
 -1      2350 3.06137E-01
 -1      2351 3.57349E-01
 -1      2352 2.73279E-01
 -1      2353 2.40299E-01
 -1      2354 2.90709E-01
 -1      2355 2.10572E-01
 -1      2356 1.81569E-01
 -1      2357 2.28123E-01
 -1      2358 1.56079E-01
 -1      2359 1.35572E-01
 -1      2360 1.72906E-01
 -1      2361 1.14688E-01
 -1      2362 9.89124E-02
 -1      2363 1.26532E-01
 -1      2364 8.24512E-02
 -1      2365 6.91821E-02
 -1      2366 8.91865E-02
 -1      2367 2.43161E+01
 -1      2368 2.51154E+01
 -1      2369 5.49037E-01
 -1      2370 6.30623E-01
 -1      2371 4.70299E-01
 -1      2372 5.09455E-01
 -1      2373 5.09455E-01
 -1      2374 4.15210E-01
 -1      2375 4.38213E-01
 -1      2376 4.37785E-01
 -1      2377 3.63523E-01
 -1      2378 3.83575E-01
 -1      2379 3.74064E-01
 -1      2380 3.17657E-01
 -1      2381 3.33347E-01
 -1      2382 3.12255E-01
 -1      2383 2.77953E-01
 -1      2384 2.88722E-01
 -1      2385 2.53144E-01
 -1      2386 2.85330E-01
 -1      2387 2.91394E-01
 -1      2388 2.37650E-01
 -1      2389 3.31088E-01
 -1      2390 3.07876E-01
 -1      2391 2.73637E-01
 -1      2392 4.65429E-01
 -1      2393 3.96102E-01
 -1      2394 3.61197E-01
 -1      2395 6.38012E-01
 -1      2396 5.47140E-01
 -1      2397 5.07922E-01
 -1      2398 8.33499E-01
 -1      2399 7.31757E-01
 -1      2400 6.83379E-01
 -1      2401 1.04159E+00
 -1      2402 9.36485E-01
 -1      2403 8.80110E-01
 -1      2404 1.23886E+00
 -1      2405 1.14614E+00
 -1      2406 1.08764E+00
 -1      2407 1.40919E+00
 -1      2408 1.33016E+00
 -1      2409 1.28350E+00
 -1      2410 1.50382E+00
 -1      2411 1.47024E+00
 -1      2412 1.43586E+00
 -1      2413 1.64481E+00
 -1      2414 1.63630E+00
 -1      2415 1.62938E+00
 -1      2416 1.69867E+00
 -1      2417 1.76478E+00
 -1      2418 1.88183E+00
 -1      2419 1.72427E+00
 -1      2420 1.76845E+00
 -1      2421 2.07159E+00
 -1      2422 2.03359E+00
 -1      2423 1.94792E+00
 -1      2424 2.36502E+00
 -1      2425 2.55821E+00
 -1      2426 2.10065E+00
 -1      2427 2.65573E+00
 -1      2428 2.90354E+00
 -1      2429 2.64858E+00
 -1      2430 2.81317E+00
 -1      2431 3.58937E+00
 -1      2432 3.37121E+00
 -1      2433 3.37121E+00
 -1      2434 5.48137E+00
 -1      2435 5.51270E+00
 -1      2436 5.76222E+00
 -1      2437 4.64725E+00
 -1      2438 4.84086E+00
 -1      2439 7.04505E+00
 -1      2440 3.32144E+00
 -1      2441 3.84298E+00
 -1      2442 5.60027E+00
 -1      2443 1.58106E+00
 -1      2444 1.89628E+00
 -1      2445 3.37084E+00
 -1      2446 1.77099E+00
 -1      2447 1.71072E+00
 -1      2448 2.07533E+00
 -1      2449 1.79276E+00
 -1      2450 1.70086E+00
 -1      2451 2.13486E+00
 -1      2452 1.66182E+00
 -1      2453 1.67127E+00
 -1      2454 1.94323E+00
 -1      2455 1.50743E+00
 -1      2456 1.52468E+00
 -1      2457 1.68461E+00
 -1      2458 1.36322E+00
 -1      2459 1.43752E+00
 -1      2460 1.47755E+00
 -1      2461 1.19133E+00
 -1      2462 1.27773E+00
 -1      2463 1.32215E+00
 -1      2464 9.93364E-01
 -1      2465 1.09009E+00
 -1      2466 1.13541E+00
 -1      2467 7.95825E-01
 -1      2468 8.92703E-01
 -1      2469 9.33503E-01
 -1      2470 6.17533E-01
 -1      2471 7.04769E-01
 -1      2472 7.41786E-01
 -1      2473 4.66213E-01
 -1      2474 5.39865E-01
 -1      2475 5.73063E-01
 -1      2476 3.42996E-01
 -1      2477 4.02570E-01
 -1      2478 4.31752E-01
 -1      2479 2.49247E-01
 -1      2480 2.92377E-01
 -1      2481 3.17491E-01
 -1      2482 1.81295E-01
 -1      2483 2.09989E-01
 -1      2484 2.27615E-01
 -1      2485 1.28388E-01
 -1      2486 1.51616E-01
 -1      2487 1.58679E-01
 -1      2488 8.69321E-02
 -1      2489 1.06003E-01
 -1      2490 1.06615E-01
 -1      2491 5.76207E-02
 -1      2492 7.36277E-02
 -1      2493 7.09251E-02
 -1      2494 5.29555E-02
 -1      2495 5.01593E-02
 -1      2496 4.44501E-02
 -1      2497 5.70694E-02
 -1      2498 5.46406E-02
 -1      2499 6.08379E-02
 -1      2500 3.91477E-02
 -1      2501 4.82058E-02
 -1      2502 4.03740E-02
 -1      2503 3.91892E-02
 -1      2504 4.81629E-02
 -1      2505 5.22805E-02
 -1      2506 5.70694E-02
 -1      2507 5.70694E-02
 -1      2508 6.53192E-02
 -1      2509 5.62878E-02
 -1      2510 5.68741E-02
 -1      2511 6.51239E-02
 -1      2512 5.61823E-02
 -1      2513 5.62878E-02
 -1      2514 6.49287E-02
 -1      2515 5.15911E-02
 -1      2516 5.48050E-02
 -1      2517 6.35514E-02
 -1      2518 4.00247E-02
 -1      2519 4.61478E-02
 -1      2520 5.67309E-02
 -1      2521 4.00298E-02
 -1      2522 3.93946E-02
 -1      2523 5.06576E-02
 -1      2524 4.59826E-02
 -1      2525 4.00298E-02
 -1      2526 5.00274E-02
 -1      2527 4.35015E-02
 -1      2528 3.01786E+01
 -1      2529 2.73388E+01
 -1      2530 7.12209E-01
 -1      2531 8.07130E-01
 -1      2532 6.30623E-01
 -1      2533 1.53724E+01
 -1      2534 2.18724E+01
 -1      2535 2.39330E+01
 -1      2536 2.50304E+01
 -1      2537 2.39330E+01
 -1      2538 1.66628E+00
 -1      2539 1.30703E+00
 -1      2540 8.33396E-01
 -1      2541 9.52466E-01
 -1      2542 8.93202E+00
 -1      2543 1.25376E+01
 -1      2544 6.97053E+00
 -1      2545 8.99079E+00
 -1      2546 5.16872E-01
 -1      2547 5.38906E-01
 -1      2548 4.66247E-01
 -1      2549 4.38808E-01
 -1      2550 9.65088E+00
 -1      2551 9.23830E+00
 -1      2552 1.03457E+01
 -1      2553 1.42550E+01
 -1      2554 9.06197E+00
 -1      2555 9.03696E+00
 -1      2556 7.86189E+00
 -1      2557 7.62981E+00
 -1      2558 8.70511E+00
 -1      2559 5.79246E+00
 -1      2560 6.52698E+00
 -1      2561 1.06793E+01
 -1      2562 7.87503E+00
 -1      2563 6.02359E+00
 -1      2564 1.69350E+01
 -1      2565 1.19722E+01
 -1      2566 2.08632E+01
 -1      2567 1.97530E+01
 -1      2568 1.35100E+01
 -1      2569 3.04794E+01
 -1      2570 2.53985E+01
 -1      2571 2.80981E+01
 -1      2572 2.70665E+01
 -1      2573 9.03519E+00
 -1      2574 9.73641E+00
 -1      2575 1.70227E+01
 -1      2576 2.47586E+01
 -1      2577 1.17891E+01
 -1      2578 6.32930E+00
 -1      2579 5.89699E+00
 -1      2580 8.70910E+00
 -1      2581 7.29266E+00
 -1      2582 8.49015E+00
 -1      2583 8.69739E+00
 -1      2584 7.80806E+00
 -1      2585 6.18778E+00
 -1      2586 7.34712E+00
 -1      2587 7.88960E+00
 -1      2588 6.62627E+00
 -1      2589 1.29500E+01
 -1      2590 9.30070E+00
 -1      2591 2.16648E+01
 -1      2592 1.54063E+01
 -1      2593 3.15693E+01
 -1      2594 3.22938E+01
 -1      2595 1.61841E+00
 -1      2596 1.76266E+00
 -1      2597 1.31905E+00
 -1      2598 1.19224E+00
 -1      2599 6.69392E+00
 -1      2600 7.77594E+00
 -1      2601 5.20470E-01
 -1      2602 6.60448E-01
 -1      2603 7.17946E-01
 -1      2604 8.07130E-01
 -1      2605 1.23536E+00
 -1      2606 6.09859E+00
 -1      2607 6.94872E+00
 -1      2608 1.62179E+01
 -1      2609 5.29555E-02
 -1      2610 5.29555E-02
 -1      2611 4.50652E-02
 -1      2612 4.35015E-02
 -1      2613 4.75463E-02
 -1      2614 5.53521E-02
 -1      2615 2.51154E+01
 -1      2616 1.71616E+01
 -1      2617 2.61587E+01
 -1      2618 2.33189E+01
 -1      2619 2.54341E+01
 -1      2620 9.59049E-01
 -1      2621 1.09395E+01
 -1      2622 1.13397E+01
 -1      2623 7.47230E+00
 -1      2624 8.87442E-01
 -1      2625 5.23805E+00
 -1      2626 7.66648E+00
 -1      2627 6.32724E+00
 -1      2628 8.89655E+00
 -1      2629 6.27870E+00
 -1      2630 7.30600E+00
 -1      2631 1.78963E+01
 -1      2632 2.08632E+01
 -1      2633 9.39906E+00
 -1      2634 2.83981E+01
 -1      2635 3.04794E+01
 -1      2636 7.04505E+00
 -1      2637 5.04385E+00
 -1      2638 5.12788E+00
 -1      2639 5.62270E+00
 -1      2640 5.28711E-02
 -1      2641 5.88952E-02
 -1      2642 6.45014E+00
 -1      2643 9.00857E+00
 -1      2644 4.18397E-01
 -1      2645 4.03408E-01
 -1      2646 3.95125E-01
 -1      2647 3.82101E-01
 -1      2648 3.46554E-01
 -1      2649 4.33183E-01
 -1      2650 4.33183E-01
 -1      2651 4.65301E-01
 -1      2652 4.21903E-01
 -1      2653 3.48555E-01
 -1      2654 7.19268E-01
 -1      2655 7.98097E-01
 -1      2656 8.35586E+00
 -1      2657 1.11906E+01
 -1      2658 6.14556E-01
 -1      2659 7.09478E-01
 -1      2660 5.26694E-01
 -1      2661 5.49086E+00
 -1      2662 6.64694E+00
 -1      2663 6.89800E+00
 -1      2664 7.39591E+00
 -1      2665 7.00854E-01
 -1      2666 6.63900E-01
 -1      2667 5.52170E-01
 -1      2668 4.93234E-01
 -1      2669 4.82471E-01
 -1      2670 4.23001E-01
 -1      2671 3.85550E-01
 -1      2672 3.97532E-01
 -1      2673 3.57304E-01
 -1      2674 3.49318E-01
 -1      2675 3.25464E-01
 -1      2676 3.00190E-01
 -1      2677 2.92011E-01
 -1      2678 2.80900E-01
 -1      2679 2.53224E-01
 -1      2680 2.40881E-01
 -1      2681 2.31341E-01
 -1      2682 2.02951E-01
 -1      2683 1.99707E-01
 -1      2684 1.77646E-01
 -1      2685 1.49011E-01
 -1      2686 1.52519E-01
 -1      2687 1.41465E-01
 -1      2688 1.52575E-01
 -1      2689 1.19666E-01
 -1      2690 1.74622E-01
 -1      2691 1.86279E-01
 -1      2692 1.34167E-01
 -1      2693 2.26372E-01
 -1      2694 2.64299E-01
 -1      2695 1.96309E-01
 -1      2696 3.06774E-01
 -1      2697 3.46497E-01
 -1      2698 2.78877E-01
 -1      2699 3.89714E-01
 -1      2700 4.24064E-01
 -1      2701 3.64569E-01
 -1      2702 4.65029E-01
 -1      2703 4.95397E-01
 -1      2704 4.48751E-01
 -1      2705 5.30980E-01
 -1      2706 5.58063E-01
 -1      2707 5.25299E-01
 -1      2708 6.15325E-01
 -1      2709 6.39634E-01
 -1      2710 6.18144E-01
 -1      2711 6.94937E-01
 -1      2712 6.95992E-01
 -1      2713 7.30709E-01
 -1      2714 7.34991E-01
 -1      2715 7.74616E-01
 -1      2716 8.25011E-01
 -1      2717 8.72323E-01
 -1      2718 9.23150E-01
 -1      2719 9.61717E-01
 -1      2720 1.02735E+00
 -1      2721 1.11028E+00
 -1      2722 1.16363E+00
 -1      2723 1.16973E+00
 -1      2724 1.26897E+00
 -1      2725 1.32728E+00
 -1      2726 1.34056E+00
 -1      2727 1.44358E+00
 -1      2728 1.45833E+00
 -1      2729 2.08709E+00
 -1      2730 2.28465E+00
 -1      2731 2.17343E+00
 -1      2732 3.30040E+00
 -1      2733 3.29101E+00
 -1      2734 3.83268E+00
 -1      2735 2.67698E+00
 -1      2736 2.63833E+00
 -1      2737 4.23441E+00
 -1      2738 1.97322E+00
 -1      2739 1.93325E+00
 -1      2740 2.95527E+00
 -1      2741 1.57634E+00
 -1      2742 1.43388E+00
 -1      2743 1.93325E+00
 -1      2744 1.44547E+00
 -1      2745 1.36723E+00
 -1      2746 1.58793E+00
 -1      2747 1.22827E+00
 -1      2748 1.09202E+00
 -1      2749 1.46056E+00
 -1      2750 1.04319E+00
 -1      2751 9.98349E-01
 -1      2752 1.27277E+00
 -1      2753 8.67724E-01
 -1      2754 8.05599E-01
 -1      2755 1.09332E+00
 -1      2756 7.49822E-01
 -1      2757 7.36342E-01
 -1      2758 9.06915E-01
 -1      2759 6.94964E-01
 -1      2760 6.89527E-01
 -1      2761 8.09760E-01
 -1      2762 6.35788E-01
 -1      2763 6.10509E-01
 -1      2764 7.14643E-01
 -1      2765 5.62960E-01
 -1      2766 5.36219E-01
 -1      2767 6.13355E-01
 -1      2768 5.03673E-01
 -1      2769 4.76904E-01
 -1      2770 5.33260E-01
 -1      2771 4.39519E-01
 -1      2772 4.08537E-01
 -1      2773 4.63329E-01
 -1      2774 3.70916E-01
 -1      2775 3.37134E-01
 -1      2776 3.88323E-01
 -1      2777 3.02043E-01
 -1      2778 2.69184E-01
 -1      2779 3.15610E-01
 -1      2780 2.38095E-01
 -1      2781 2.08368E-01
 -1      2782 2.49430E-01
 -1      2783 1.81852E-01
 -1      2784 1.56362E-01
 -1      2785 1.91824E-01
 -1      2786 1.34447E-01
 -1      2787 1.13562E-01
 -1      2788 1.43393E-01
 -1      2789 9.19098E-02
 -1      2790 7.54486E-02
 -1      2791 9.98244E-02
 -1      2792 1.65179E+01
 -1      2793 2.29717E+01
 -1      2794 4.75463E-02
 -1      2795 5.00274E-02
 -1      2796 6.13764E-02
 -1      2797 4.26670E-01
 -1      2798 4.66252E-01
 -1      2799 2.53166E-01
 -1      2800 2.83341E-01
 -1      2801 1.96370E-01
 -1      2802 2.25305E-01
 -1      2803 1.96392E-01
 -1      2804 2.03379E-01
 -1      2805 1.89938E-01
 -1      2806 1.62099E-01
 -1      2807 2.50920E-01
 -1      2808 2.28374E-01
 -1      2809 1.80662E-01
 -1      2810 3.74224E-01
 -1      2811 3.09210E-01
 -1      2812 2.63947E-01
 -1      2813 5.25185E-01
 -1      2814 4.43474E-01
 -1      2815 3.91487E-01
 -1      2816 7.01329E-01
 -1      2817 6.07584E-01
 -1      2818 5.43136E-01
 -1      2819 9.01970E-01
 -1      2820 7.98983E-01
 -1      2821 7.23189E-01
 -1      2822 1.12104E+00
 -1      2823 1.01650E+00
 -1      2824 9.35372E-01
 -1      2825 1.34384E+00
 -1      2826 1.25253E+00
 -1      2827 1.18139E+00
 -1      2828 1.54957E+00
 -1      2829 1.48851E+00
 -1      2830 1.45755E+00
 -1      2831 1.82563E+00
 -1      2832 1.69315E+00
 -1      2833 1.74581E+00
 -1      2834 2.16010E+00
 -1      2835 2.04013E+00
 -1      2836 2.10390E+00
 -1      2837 2.59832E+00
 -1      2838 2.52854E+00
 -1      2839 2.68683E+00
 -1      2840 3.25538E+00
 -1      2841 3.03173E+00
 -1      2842 3.48868E+00
 -1      2843 2.88243E+00
 -1      2844 2.81537E+00
 -1      2845 3.48208E+00
 -1      2846 7.21958E+00
 -1      2847 5.29624E+00
 -1      2848 7.04505E+00
 -1      2849 7.68556E+00
 -1      2850 5.60027E+00
 -1      2851 6.40454E+00
 -1      2852 3.56738E+00
 -1      2853 4.99254E+00
 -1      2854 2.47682E+00
 -1      2855 2.54695E+00
 -1      2856 2.14336E+00
 -1      2857 2.26485E+00
 -1      2858 2.67694E+00
 -1      2859 1.75163E+00
 -1      2860 1.88876E+00
 -1      2861 2.21038E+00
 -1      2862 1.53708E+00
 -1      2863 1.60700E+00
 -1      2864 1.81115E+00
 -1      2865 1.30560E+00
 -1      2866 1.39109E+00
 -1      2867 1.52053E+00
 -1      2868 1.07225E+00
 -1      2869 1.17349E+00
 -1      2870 1.24244E+00
 -1      2871 8.57294E-01
 -1      2872 9.57955E-01
 -1      2873 9.96037E-01
 -1      2874 6.70112E-01
 -1      2875 7.61167E-01
 -1      2876 7.85620E-01
 -1      2877 5.13163E-01
 -1      2878 5.90830E-01
 -1      2879 6.10211E-01
 -1      2880 3.85205E-01
 -1      2881 4.48849E-01
 -1      2882 4.66616E-01
 -1      2883 2.83208E-01
 -1      2884 3.33826E-01
 -1      2885 3.50923E-01
 -1      2886 2.03501E-01
 -1      2887 2.42759E-01
 -1      2888 2.59094E-01
 -1      2889 1.42501E-01
 -1      2890 1.72179E-01
 -1      2891 1.87323E-01
 -1      2892 9.55442E-02
 -1      2893 1.17930E-01
 -1      2894 1.31430E-01
 -1      2895 6.48082E-02
 -1      2896 7.81126E-02
 -1      2897 8.94273E-02
 -1      2898 6.00586E-02
 -1      2899 7.71028E-02
 -1      2900 7.72980E-02
 -1      2901 7.52967E-02
 -1      2902 7.08154E-02
 -1      2903 7.57796E-02
 -1      2904 7.57796E-02
 -1      2905 8.79537E-02
 -1      2906 7.72980E-02
 -1      2907 7.72980E-02
 -1      2908 8.72755E-02
 -1      2909 8.92768E-02
 -1      2910 2.01092E+01
 -1      2911 1.67033E+01
 -1      2912 8.26518E-01
 -1      2913 7.44023E-02
 -1      2914 7.57796E-02
 -1      2915 8.66305E-02
 -1      2916 6.51653E-02
 -1      2917 7.06085E-02
 -1      2918 8.28367E-02
 -1      2919 5.41274E-02
 -1      2920 5.47575E-02
 -1      2921 6.86351E-02
 -1      2922 5.00274E-02
 -1      2923 5.04433E-01
 -1      2924 5.86019E-01
 -1      2925 4.88367E-01
 -1      2926 4.21648E-01
 -1      2927 8.54970E+00
 -1      2928 1.13174E+01
 -1      2929 1.89232E+01
 -1      2930 2.60856E+01
 -1      2931 3.07831E-01
 -1      2932 3.39465E-01
 -1      2933 2.48742E-01
 -1      2934 3.59250E-01
 -1      2935 3.91336E-01
 -1      2936 2.93016E-01
 -1      2937 5.96625E-01
 -1      2938 5.52418E-01
 -1      2939 3.96561E-01
 -1      2940 4.64083E-01
 -1      2941 4.50207E+00
 -1      2942 5.64509E+00
 -1      2943 1.09239E+01
 -1      2944 8.46761E+00
 -1      2945 3.73266E+00
 -1      2946 4.80619E+00
 -1      2947 4.33183E-01
 -1      2948 4.20896E-01
 -1      2949 3.57337E-01
 -1      2950 3.59836E-01
 -1      2951 4.18883E-01
 -1      2952 4.33270E-01
 -1      2953 6.22723E+00
 -1      2954 7.58212E+00
 -1      2955 4.72184E+00
 -1      2956 3.38804E+00
 -1      2957 4.49086E+00
 -1      2958 4.75854E+00
 -1      2959 3.79517E+00
 -1      2960 3.36332E+00
 -1      2961 6.38976E+00
 -1      2962 4.30718E+00
 -1      2963 3.75420E+00
 -1      2964 8.64606E+00
 -1      2965 7.35317E+00
 -1      2966 1.27050E+01
 -1      2967 9.88696E+00
 -1      2968 2.73090E+01
 -1      2969 2.22280E+01
 -1      2970 1.78342E+01
 -1      2971 1.30541E+01
 -1      2972 1.63936E+01
 -1      2973 1.92333E+01
 -1      2974 1.46980E+01
 -1      2975 1.60628E+01
 -1      2976 4.83748E+00
 -1      2977 4.39898E+00
 -1      2978 1.60558E+01
 -1      2979 1.26902E+01
 -1      2980 9.81810E+00
 -1      2981 1.22838E+01
 -1      2982 1.47275E+01
 -1      2983 6.38170E+00
 -1      2984 6.71950E+00
 -1      2985 4.55653E+00
 -1      2986 7.17946E-01
 -1      2987 7.41797E+00
 -1      2988 6.00687E+00
 -1      2989 5.29624E+00
 -1      2990 3.83889E+00
 -1      2991 3.37121E+00
 -1      2992 4.99278E+00
 -1      2993 3.67420E-01
 -1      2994 4.43732E-01
 -1      2995 4.54620E-01
 -1      2996 3.37873E-01
 -1      2997 3.81703E-01
 -1      2998 3.94581E-01
 -1      2999 9.70017E+00
 -1      3000 3.71684E+00
 -1      3001 4.78315E+00
 -1      3002 1.26283E+01
 -1      3003 2.12259E+01
 -1      3004 1.50907E+01
 -1      3005 6.40996E-02
 -1      3006 1.25838E+01
 -1      3007 3.48134E-01
 -1      3008 3.69807E+00
 -1      3009 3.85771E+00
 -1      3010 2.86930E+00
 -1      3011 2.77892E+00
 -1      3012 1.53728E+01
 -1      3013 1.30603E+01
 -1      3014 1.05306E+01
 -1      3015 3.36508E+00
 -1      3016 3.23542E+00
 -1      3017 5.67258E-02
 -1      3018 6.86629E-02
 -1      3019 5.67673E-02
 -1      3020 1.60892E+01
 -1      3021 9.81468E+00
 -1      3022 1.10750E+01
 -1      3023 5.64906E-01
 -1      3024 5.32229E-02
 -1      3025 5.32229E-02
 -1      3026 5.73229E-02
 -1      3027 6.72951E-02
 -1      3028 5.46983E+00
 -1      3029 4.13713E+00
 -1      3030 5.65729E+00
 -1      3031 1.22319E+01
 -1      3032 4.85712E+00
 -1      3033 6.69007E+00
 -1      3034 5.85021E+00
 -1      3035 5.26371E+00
 -1      3036 4.02738E-01
 -1      3037 4.17299E-01
 -1      3038 3.55375E-01
 -1      3039 3.45633E-01
 -1      3040 6.34741E-02
 -1      3041 5.93981E-02
 -1      3042 6.79609E-02
 -1      3043 7.79329E-02
 -1      3044 7.11045E+00
 -1      3045 7.00218E+00
 -1      3046 5.63676E+00
 -1      3047 7.84107E+00
 -1      3048 4.36880E-01
 -1      3049 5.31358E-01
 -1      3050 3.70704E+00
 -1      3051 2.89592E-01
 -1      3052 3.00873E-01
 -1      3053 6.56604E+00
 -1      3054 3.06267E-01
 -1      3055 2.80799E-01
 -1      3056 2.71341E-01
 -1      3057 2.39502E-01
 -1      3058 2.28290E-01
 -1      3059 2.20410E-01
 -1      3060 2.01119E-01
 -1      3061 1.99740E-01
 -1      3062 1.80596E-01
 -1      3063 1.58714E-01
 -1      3064 1.60126E-01
 -1      3065 1.38856E-01
 -1      3066 1.13551E-01
 -1      3067 1.19745E-01
 -1      3068 1.08489E-01
 -1      3069 1.00942E-01
 -1      3070 9.48265E-02
 -1      3071 1.17954E-01
 -1      3072 1.40002E-01
 -1      3073 1.06777E-01
 -1      3074 1.70781E-01
 -1      3075 2.10875E-01
 -1      3076 1.54568E-01
 -1      3077 2.48510E-01
 -1      3078 2.90985E-01
 -1      3079 2.22983E-01
 -1      3080 3.38894E-01
 -1      3081 3.82112E-01
 -1      3082 3.08528E-01
 -1      3083 4.36096E-01
 -1      3084 4.77061E-01
 -1      3085 4.10422E-01
 -1      3086 5.36036E-01
 -1      3087 5.71618E-01
 -1      3088 5.23381E-01
 -1      3089 6.33832E-01
 -1      3090 6.91094E-01
 -1      3091 6.44569E-01
 -1      3092 7.70720E-01
 -1      3093 8.26024E-01
 -1      3094 7.86409E-01
 -1      3095 9.38293E-01
 -1      3096 9.77292E-01
 -1      3097 9.78305E-01
 -1      3098 1.09455E+00
 -1      3099 1.19225E+00
 -1      3100 1.20783E+00
 -1      3101 1.28943E+00
 -1      3102 1.39363E+00
 -1      3103 1.42226E+00
 -1      3104 1.32728E+00
 -1      3105 1.38674E+00
 -1      3106 1.45309E+00
 -1      3107 1.79634E+00
 -1      3108 1.86793E+00
 -1      3109 1.79634E+00
 -1      3110 2.17343E+00
 -1      3111 2.81694E+00
 -1      3112 2.51144E+00
 -1      3113 3.83268E+00
 -1      3114 4.84843E+00
 -1      3115 5.04135E+00
 -1      3116 4.42733E+00
 -1      3117 2.29016E+00
 -1      3118 1.93325E+00
 -1      3119 1.62231E+00
 -1      3120 1.63390E+00
 -1      3121 1.97922E+00
 -1      3122 1.70986E+00
 -1      3123 1.57090E+00
 -1      3124 1.74423E+00
 -1      3125 1.51969E+00
 -1      3126 1.47086E+00
 -1      3127 1.76899E+00
 -1      3128 1.38650E+00
 -1      3129 1.25587E+00
 -1      3130 1.63342E+00
 -1      3131 1.11613E+00
 -1      3132 1.06035E+00
 -1      3133 1.40931E+00
 -1      3134 9.48432E-01
 -1      3135 9.07053E-01
 -1      3136 1.15764E+00
 -1      3137 8.25211E-01
 -1      3138 7.71472E-01
 -1      3139 9.63883E-01
 -1      3140 6.85297E-01
 -1      3141 6.37748E-01
 -1      3142 7.95865E-01
 -1      3143 5.62861E-01
 -1      3144 5.30315E-01
 -1      3145 6.34803E-01
 -1      3146 4.82344E-01
 -1      3147 4.44959E-01
 -1      3148 5.11945E-01
 -1      3149 3.99396E-01
 -1      3150 3.61775E-01
 -1      3151 4.18411E-01
 -1      3152 3.21177E-01
 -1      3153 2.86086E-01
 -1      3154 3.32251E-01
 -1      3155 2.51391E-01
 -1      3156 2.20302E-01
 -1      3157 2.56958E-01
 -1      3158 1.94206E-01
 -1      3159 1.67690E-01
 -1      3160 1.96167E-01
 -1      3161 1.45330E-01
 -1      3162 1.23415E-01
 -1      3163 1.47712E-01
 -1      3164 1.04448E-01
 -1      3165 8.27951E-02
 -1      3166 7.19184E-02
 -1      3167 1.06385E-01
 -1      3168 3.33697E+00
 -1      3169 4.82112E+00
 -1      3170 1.42675E-01
 -1      3171 1.70535E-01
 -1      3172 2.75919E-01
 -1      3173 2.17629E-01
 -1      3174 4.05799E-01
 -1      3175 3.36549E-01
 -1      3176 2.90231E-01
 -1      3177 5.64821E-01
 -1      3178 4.82423E-01
 -1      3179 4.27485E-01
 -1      3180 7.54509E-01
 -1      3181 6.56854E-01
 -1      3182 5.96141E-01
 -1      3183 9.76866E-01
 -1      3184 8.62337E-01
 -1      3185 7.96003E-01
 -1      3186 1.23458E+00
 -1      3187 1.10309E+00
 -1      3188 1.03006E+00
 -1      3189 1.55564E+00
 -1      3190 1.41096E+00
 -1      3191 1.33266E+00
 -1      3192 1.96277E+00
 -1      3193 1.81918E+00
 -1      3194 1.77259E+00
 -1      3195 2.55133E+00
 -1      3196 2.33683E+00
 -1      3197 2.41020E+00
 -1      3198 3.20445E+00
 -1      3199 2.83601E+00
 -1      3200 3.06894E+00
 -1      3201 4.58597E+00
 -1      3202 4.15255E+00
 -1      3203 4.30173E+00
 -1      3204 5.26114E+00
 -1      3205 7.86189E+00
 -1      3206 5.29432E+00
 -1      3207 4.50560E+00
 -1      3208 4.71757E+00
 -1      3209 1.48364E+00
 -1      3210 1.62962E+00
 -1      3211 1.16748E+00
 -1      3212 1.29959E+00
 -1      3213 1.40868E+00
 -1      3214 9.25182E-01
 -1      3215 1.03947E+00
 -1      3216 1.09663E+00
 -1      3217 7.22620E-01
 -1      3218 8.18747E-01
 -1      3219 8.62181E-01
 -1      3220 5.53671E-01
 -1      3221 6.32953E-01
 -1      3222 6.66079E-01
 -1      3223 4.16445E-01
 -1      3224 4.80759E-01
 -1      3225 5.03500E-01
 -1      3226 3.07239E-01
 -1      3227 3.58618E-01
 -1      3228 3.72761E-01
 -1      3229 2.21809E-01
 -1      3230 2.62259E-01
 -1      3231 2.69954E-01
 -1      3232 1.58167E-01
 -1      3233 1.89488E-01
 -1      3234 1.92653E-01
 -1      3235 1.10247E-01
 -1      3236 1.34818E-01
 -1      3237 1.36983E-01
 -1      3238 8.02723E-02
 -1      3239 9.77038E-02
 -1      3240 1.01092E-01
 -1      3241 7.69395E-02
 -1      3242 5.69848E+00
 -1      3243 6.66605E+00
 -1      3244 9.95076E-02
 -1      3245 1.00831E-01
 -1      3246 1.50907E+01
 -1      3247 1.18810E+01
 -1      3248 7.53279E-02
 -1      3249 8.57357E-02
 -1      3250 3.60156E+00
 -1      3251 4.33817E+00
 -1      3252 1.35855E+01
 -1      3253 1.05907E+01
 -1      3254 1.21250E+01
 -1      3255 1.33484E+01
 -1      3256 7.70390E+00
 -1      3257 9.44057E+00
 -1      3258 6.29194E+00
 -1      3259 9.48884E-02
 -1      3260 9.86822E-02
 -1      3261 1.01581E-01
 -1      3262 2.02969E+00
 -1      3263 2.17432E+00
 -1      3264 1.99279E+00
 -1      3265 2.82311E+00
 -1      3266 3.07771E+00
 -1      3267 5.11833E+00
 -1      3268 3.04165E+00
 -1      3269 5.63773E+00
 -1      3270 6.45585E+00
 -1      3271 8.49673E+00
 -1      3272 7.46638E+00
 -1      3273 1.10391E+01
 -1      3274 1.03915E+01
 -1      3275 1.93583E-01
 -1      3276 2.18072E-01
 -1      3277 1.39865E-01
 -1      3278 1.71345E-01
 -1      3279 1.46350E-01
 -1      3280 1.83317E-01
 -1      3281 1.22927E-01
 -1      3282 1.29360E-01
 -1      3283 1.03503E-01
 -1      3284 1.13611E-01
 -1      3285 9.90136E+00
 -1      3286 1.16918E+01
 -1      3287 3.10901E-01
 -1      3288 3.00138E-01
 -1      3289 2.31618E-01
 -1      3290 9.58998E+00
 -1      3291 2.42093E-01
 -1      3292 2.61878E-01
 -1      3293 1.86934E-01
 -1      3294 2.86018E-01
 -1      3295 3.21351E-01
 -1      3296 2.35094E-01
 -1      3297 3.62458E+00
 -1      3298 5.04561E+00
 -1      3299 6.50888E+00
 -1      3300 5.45924E+00
 -1      3301 2.79288E+00
 -1      3302 2.73037E+00
 -1      3303 7.16591E+00
 -1      3304 5.92501E+00
 -1      3305 4.05982E-01
 -1      3306 3.06378E-01
 -1      3307 2.58695E-01
 -1      3308 3.96192E-01
 -1      3309 4.96450E+00
 -1      3310 3.79511E+00
 -1      3311 1.03109E+01
 -1      3312 8.31781E+00
 -1      3313 6.40174E+00
 -1      3314 7.83349E+00
 -1      3315 4.54620E-01
 -1      3316 9.31245E+00
 -1      3317 7.54617E+00
 -1      3318 2.82277E+00
 -1      3319 2.92585E+00
 -1      3320 3.18944E-01
 -1      3321 3.10661E-01
 -1      3322 9.95076E-02
 -1      3323 9.95076E-02
 -1      3324 1.12385E-01
 -1      3325 1.11559E-01
 -1      3326 3.06449E-01
 -1      3327 3.06051E-01
 -1      3328 2.78839E-01
 -1      3329 6.77016E-02
 -1      3330 6.86060E-02
 -1      3331 8.57066E-02
 -1      3332 8.32016E-02
 -1      3333 1.03154E+01
 -1      3334 8.47497E+00
 -1      3335 9.31685E+00
 -1      3336 8.69792E+00
 -1      3337 8.11962E+00
 -1      3338 1.12355E+01
 -1      3339 9.48962E+00
 -1      3340 8.55304E+00
 -1      3341 9.18325E+00
 -1      3342 8.16250E+00
 -1      3343 7.07247E+00
 -1      3344 3.83268E+00
 -1      3345 3.62038E+00
 -1      3346 2.95527E+00
 -1      3347 3.05415E+00
 -1      3348 3.48256E-01
 -1      3349 3.76793E-01
 -1      3350 2.56081E-01
 -1      3351 1.08825E+01
 -1      3352 8.57457E+00
 -1      3353 3.17211E-01
 -1      3354 3.27673E-01
 -1      3355 4.47120E+00
 -1      3356 2.60589E-01
 -1      3357 3.19552E-01
 -1      3358 3.19552E-01
 -1      3359 4.60122E+00
 -1      3360 1.02968E-01
 -1      3361 1.00967E-01
 -1      3362 9.35050E-02
 -1      3363 8.61637E-02
 -1      3364 1.09198E-01
 -1      3365 1.14522E-01
 -1      3366 1.02968E-01
 -1      3367 1.02968E-01
 -1      3368 6.00323E+00
 -1      3369 4.30874E+00
 -1      3370 3.22891E-01
 -1      3371 3.61072E-01
 -1      3372 2.49498E-01
 -1      3373 2.60775E-01
 -1      3374 3.12319E-01
 -1      3375 3.89057E-01
 -1      3376 3.21782E-01
 -1      3377 2.62110E-01
 -1      3378 6.88332E+00
 -1      3379 1.25925E+01
 -1      3380 7.12034E+00
 -1      3381 3.21535E-01
 -1      3382 3.21443E-01
 -1      3383 3.18944E-01
 -1      3384 2.83050E-01
 -1      3385 2.81159E-01
 -1      3386 2.36122E-01
 -1      3387 2.70749E+00
 -1      3388 3.18350E-01
 -1      3389 3.19934E-01
 -1      3390 2.80186E-01
 -1      3391 2.95527E+00
 -1      3392 3.19185E+00
 -1      3393 3.01050E+00
 -1      3394 1.83413E-01
 -1      3395 1.64321E-01
 -1      3396 1.52086E-01
 -1      3397 1.31563E-01
 -1      3398 1.35758E-01
 -1      3399 1.25540E-01
 -1      3400 1.05682E-01
 -1      3401 1.17500E-01
 -1      3402 1.12058E-01
 -1      3403 1.06996E-01
 -1      3404 1.17852E-01
 -1      3405 1.12249E-01
 -1      3406 1.29261E-01
 -1      3407 1.29480E-01
 -1      3408 1.54568E-01
 -1      3409 1.85348E-01
 -1      3410 1.60040E-01
 -1      3411 2.22983E-01
 -1      3412 2.60618E-01
 -1      3413 2.22983E-01
 -1      3414 3.01502E-01
 -1      3415 3.49412E-01
 -1      3416 3.01502E-01
 -1      3417 4.00128E-01
 -1      3418 4.54112E-01
 -1      3419 3.93102E-01
 -1      3420 5.11460E-01
 -1      3421 5.70434E-01
 -1      3422 5.01166E-01
 -1      3423 6.52387E-01
 -1      3424 7.14601E-01
 -1      3425 6.40466E-01
 -1      3426 8.29400E-01
 -1      3427 9.09026E-01
 -1      3428 8.37219E-01
 -1      3429 1.03277E+00
 -1      3430 1.14503E+00
 -1      3431 1.07576E+00
 -1      3432 1.30494E+00
 -1      3433 1.42220E+00
 -1      3434 1.35940E+00
 -1      3435 1.71108E+00
 -1      3436 1.80825E+00
 -1      3437 1.80819E+00
 -1      3438 1.97386E+00
 -1      3439 1.90751E+00
 -1      3440 2.26267E+00
 -1      3441 2.18294E+00
 -1      3442 2.48844E+00
 -1      3443 2.21951E+00
 -1      3444 3.07715E+00
 -1      3445 2.03776E+00
 -1      3446 1.85003E+00
 -1      3447 2.16097E+00
 -1      3448 2.51476E-01
 -1      3449 2.09558E+00
 -1      3450 2.17154E+00
 -1      3451 2.46507E+00
 -1      3452 2.03340E+00
 -1      3453 1.98220E+00
 -1      3454 2.38476E+00
 -1      3455 2.02063E+00
 -1      3456 1.93627E+00
 -1      3457 2.28505E+00
 -1      3458 1.60908E+00
 -1      3459 1.46933E+00
 -1      3460 1.99629E+00
 -1      3461 1.26956E+00
 -1      3462 1.15764E+00
 -1      3463 1.46933E+00
 -1      3464 1.04108E+00
 -1      3465 9.59239E-01
 -1      3466 1.15300E+00
 -1      3467 8.50357E-01
 -1      3468 7.64181E-01
 -1      3469 9.27555E-01
 -1      3470 6.71392E-01
 -1      3471 5.96506E-01
 -1      3472 7.25883E-01
 -1      3473 5.27881E-01
 -1      3474 4.79910E-01
 -1      3475 5.64470E-01
 -1      3476 4.31305E-01
 -1      3477 3.85743E-01
 -1      3478 4.47241E-01
 -1      3479 3.43849E-01
 -1      3480 3.03251E-01
 -1      3481 3.56744E-01
 -1      3482 2.70431E-01
 -1      3483 2.35736E-01
 -1      3484 2.82029E-01
 -1      3485 2.12176E-01
 -1      3486 1.86079E-01
 -1      3487 2.25648E-01
 -1      3488 1.86079E-01
 -1      3489 1.63720E-01
 -1      3490 2.02087E-01
 -1      3491 4.86345E-01
 -1      3492 4.09722E-01
 -1      3493 8.47497E+00
 -1      3494 7.39588E+00
 -1      3495 3.39323E-01
 -1      3496 2.78693E-01
 -1      3497 3.98184E-01
 -1      3498 8.85493E-01
 -1      3499 7.77664E-01
 -1      3500 1.15258E+00
 -1      3501 1.02636E+00
 -1      3502 1.00802E+00
 -1      3503 1.50905E+00
 -1      3504 1.33266E+00
 -1      3505 1.32896E+00
 -1      3506 2.01776E+00
 -1      3507 1.75421E+00
 -1      3508 1.75421E+00
 -1      3509 3.14543E+00
 -1      3510 2.77137E+00
 -1      3511 2.75299E+00
 -1      3512 3.72771E+00
 -1      3513 3.44304E+00
 -1      3514 3.80420E+00
 -1      3515 5.45363E+00
 -1      3516 8.44945E-01
 -1      3517 9.51380E-01
 -1      3518 1.95319E-01
 -1      3519 1.85862E-01
 -1      3520 1.50442E-01
 -1      3521 3.50179E+00
 -1      3522 2.83668E+00
 -1      3523 1.09663E+00
 -1      3524 1.22464E+00
 -1      3525 1.07939E+00
 -1      3526 1.41171E+00
 -1      3527 1.59575E+00
 -1      3528 1.41171E+00
 -1      3529 6.43212E-01
 -1      3530 7.32878E-01
 -1      3531 8.22077E-01
 -1      3532 4.83028E-01
 -1      3533 5.55940E-01
 -1      3534 6.22739E-01
 -1      3535 3.57268E-01
 -1      3536 4.15095E-01
 -1      3537 4.67535E-01
 -1      3538 2.59550E-01
 -1      3539 3.04530E-01
 -1      3540 3.46864E-01
 -1      3541 1.85997E-01
 -1      3542 2.18318E-01
 -1      3543 2.52894E-01
 -1      3544 1.32175E-01
 -1      3545 1.55524E-01
 -1      3546 1.81189E-01
 -1      3547 1.16659E-01
 -1      3548 7.77776E+00
 -1      3549 5.94372E+00
 -1      3550 4.90642E+00
 -1      3551 6.66471E-01
 -1      3552 5.74438E-01
 -1      3553 5.56675E-01
 -1      3554 7.55961E-01
 -1      3555 5.65729E+00
 -1      3556 4.84843E+00
 -1      3557 3.82473E+00
 -1      3558 4.47760E+00
 -1      3559 3.50418E+00
 -1      3560 1.31058E-01
 -1      3561 1.40211E-01
 -1      3562 1.94860E+00
 -1      3563 2.34867E+00
 -1      3564 1.95162E+00
 -1      3565 3.10192E-01
 -1      3566 3.18350E-01
 -1      3567 2.82909E-01
 -1      3568 1.15453E-01
 -1      3569 1.38500E-01
 -1      3570 2.22105E-01
 -1      3571 1.75822E-01
 -1      3572 2.71198E-01
 -1      3573 1.81242E-01
 -1      3574 1.87372E-01
 -1      3575 1.44944E-01
 -1      3576 9.29208E+00
 -1      3577 9.29208E+00
 -1      3578 7.89923E+00
 -1      3579 1.53480E-01
 -1      3580 1.77500E-01
 -1      3581 1.29067E-01
 -1      3582 1.92821E-01
 -1      3583 2.16962E-01
 -1      3584 1.59368E-01
 -1      3585 2.95352E+00
 -1      3586 4.60777E+00
 -1      3587 5.64562E+00
 -1      3588 7.60929E+00
 -1      3589 6.67401E+00
 -1      3590 2.22726E-01
 -1      3591 2.05941E-01
 -1      3592 2.03327E-01
 -1      3593 2.42910E-01
 -1      3594 2.16923E-01
 -1      3595 1.72677E-01
 -1      3596 2.45633E-01
 -1      3597 6.32846E+00
 -1      3598 7.56000E+00
 -1      3599 8.49342E-02
 -1      3600 8.23035E-02
 -1      3601 9.39128E-02
 -1      3602 1.00506E-01
 -1      3603 3.24968E+00
 -1      3604 7.10374E+00
 -1      3605 5.82316E+00
 -1      3606 5.56583E+00
 -1      3607 4.13899E+00
 -1      3608 4.42733E+00
 -1      3609 3.06469E+00
 -1      3610 2.54392E+00
 -1      3611 1.40536E-01
 -1      3612 1.02169E-01
 -1      3613 4.90057E+00
 -1      3614 7.75124E+00
 -1      3615 5.04135E+00
 -1      3616 8.72116E+00
 -1      3617 7.15554E+00
 -1      3618 7.13077E+00
 -1      3619 6.29907E+00
 -1      3620 1.07211E-01
 -1      3621 1.20525E-01
 -1      3622 1.19160E-01
 -1      3623 5.82773E+00
 -1      3624 1.28853E-01
 -1      3625 1.28853E-01
 -1      3626 4.10750E+00
 -1      3627 3.61277E+00
 -1      3628 2.24620E-01
 -1      3629 1.90685E-01
 -1      3630 1.83223E-01
 -1      3631 2.78768E-01
 -1      3632 1.90685E-01
 -1      3633 1.90685E-01
 -1      3634 2.64710E-01
 -1      3635 1.06456E-01
 -1      3636 2.47248E-01
 -1      3637 2.43037E-01
 -1      3638 2.88598E+00
 -1      3639 1.54546E-01
 -1      3640 1.56683E-01
 -1      3641 2.30709E-01
 -1      3642 1.71014E-01
 -1      3643 4.04799E+00
 -1      3644 2.13629E-01
 -1      3645 2.15169E-01
 -1      3646 1.71356E-01
 -1      3647 3.83128E+00
 -1      3648 2.97371E+00
 -1      3649 3.62250E+00
 -1      3650 4.83263E+00
 -1      3651 2.92952E+00
 -1      3652 1.78559E-01
 -1      3653 1.39771E-01
 -1      3654 1.16348E-01
 -1      3655 2.55890E-01
 -1      3656 2.55890E-01
 -1      3657 2.20088E-01
 -1      3658 7.60929E+00
 -1      3659 5.70873E+00
 -1      3660 6.26194E+00
 -1      3661 6.19081E+00
 -1      3662 5.43485E+00
 -1      3663 5.22553E+00
 -1      3664 5.43736E+00
 -1      3665 6.43035E+00
 -1      3666 1.28028E-01
 -1      3667 1.28853E-01
 -1      3668 1.45321E-01
 -1      3669 6.15050E+00
 -1      3670 1.57505E-01
 -1      3671 1.24996E-01
 -1      3672 3.19487E+00
 -1      3673 1.20887E-01
 -1      3674 1.14864E-01
 -1      3675 1.26231E-01
 -1      3676 1.32606E-01
 -1      3677 1.29619E-01
 -1      3678 1.42580E-01
 -1      3679 1.47833E-01
 -1      3680 1.50960E-01
 -1      3681 1.58442E-01
 -1      3682 1.83749E-01
 -1      3683 1.71542E-01
 -1      3684 2.20010E-01
 -1      3685 2.57646E-01
 -1      3686 2.18412E-01
 -1      3687 3.01502E-01
 -1      3688 3.42386E-01
 -1      3689 2.98530E-01
 -1      3690 3.93102E-01
 -1      3691 4.43818E-01
 -1      3692 3.93102E-01
 -1      3693 5.01166E-01
 -1      3694 5.58513E-01
 -1      3695 5.01166E-01
 -1      3696 6.36502E-01
 -1      3697 7.18455E-01
 -1      3698 6.36502E-01
 -1      3699 8.26350E-01
 -1      3700 9.41149E-01
 -1      3701 8.22386E-01
 -1      3702 1.12265E+00
 -1      3703 1.24639E+00
 -1      3704 1.11178E+00
 -1      3705 1.51212E+00
 -1      3706 1.67203E+00
 -1      3707 1.55901E+00
 -1      3708 2.06020E+00
 -1      3709 2.34908E+00
 -1      3710 2.21292E+00
 -1      3711 3.02926E+00
 -1      3712 4.29945E-01
 -1      3713 3.59547E-01
 -1      3714 6.01668E+00
 -1      3715 7.00972E+00
 -1      3716 2.74785E+00
 -1      3717 2.28505E+00
 -1      3718 2.32348E+00
 -1      3719 2.78628E+00
 -1      3720 3.02895E+00
 -1      3721 2.70176E+00
 -1      3722 1.83727E+00
 -1      3723 1.63749E+00
 -1      3724 2.86992E+00
 -1      3725 1.39357E+00
 -1      3726 1.27701E+00
 -1      3727 1.76151E+00
 -1      3728 1.06641E+00
 -1      3729 9.57528E-01
 -1      3730 1.30698E+00
 -1      3731 8.24927E-01
 -1      3732 7.32138E-01
 -1      3733 9.63783E-01
 -1      3734 6.37096E-01
 -1      3735 5.68471E-01
 -1      3736 7.36139E-01
 -1      3737 4.98567E-01
 -1      3738 4.49963E-01
 -1      3739 5.71193E-01
 -1      3740 3.98637E-01
 -1      3741 3.56744E-01
 -1      3742 4.49963E-01
 -1      3743 3.14613E-01
 -1      3744 2.81792E-01
 -1      3745 3.56506E-01
 -1      3746 2.46894E-01
 -1      3747 2.23333E-01
 -1      3748 2.79478E-01
 -1      3749 1.42911E+00
 -1      3750 1.24903E+00
 -1      3751 1.06852E+00
 -1      3752 9.27654E-01
 -1      3753 1.16867E+00
 -1      3754 3.45813E+00
 -1      3755 2.70452E+00
 -1      3756 4.42458E+00
 -1      3757 3.58519E+00
 -1      3758 5.74283E+00
 -1      3759 4.29066E+00
 -1      3760 5.63312E-01
 -1      3761 6.50584E-01
 -1      3762 1.27506E-01
 -1      3763 1.25057E-01
 -1      3764 7.48119E-01
 -1      3765 8.60186E-01
 -1      3766 6.88692E-01
 -1      3767 1.99351E-01
 -1      3768 2.53999E-01
 -1      3769 1.30608E+00
 -1      3770 1.49314E+00
 -1      3771 2.41936E-01
 -1      3772 2.46077E-01
 -1      3773 2.10345E-01
 -1      3774 7.15554E+00
 -1      3775 7.15554E+00
 -1      3776 4.22432E-01
 -1      3777 4.90365E-01
 -1      3778 5.18210E-01
 -1      3779 3.14133E-01
 -1      3780 3.66871E-01
 -1      3781 3.89701E-01
 -1      3782 2.42803E-01
 -1      3783 2.84035E-01
 -1      3784 3.04042E-01
 -1      3785 2.39841E+00
 -1      3786 2.75126E+00
 -1      3787 2.29278E+00
 -1      3788 1.47258E-01
 -1      3789 1.85888E-01
 -1      3790 3.02099E-01
 -1      3791 2.45512E-01
 -1      3792 3.33861E-01
 -1      3793 1.26226E-01
 -1      3794 2.11570E-01
 -1      3795 1.98753E-01
 -1      3796 1.65398E-01
 -1      3797 1.64424E-01
 -1      3798 2.55890E-01
 -1      3799 6.81218E+00
 -1      3800 1.13369E-01
 -1      3801 1.28349E-01
 -1      3802 1.32320E-01
 -1      3803 1.47641E-01
 -1      3804 1.16622E-01
 -1      3805 5.19470E+00
 -1      3806 4.50470E+00
 -1      3807 1.85888E-01
 -1      3808 1.73704E-01
 -1      3809 9.95561E-01
 -1      3810 1.14081E+00
 -1      3811 1.22225E+00
 -1      3812 9.21603E-01
 -1      3813 1.68720E-01
 -1      3814 1.68720E-01
 -1      3815 1.97103E-01
 -1      3816 2.07713E-01
 -1      3817 1.25448E-01
 -1      3818 1.13213E-01
 -1      3819 1.02512E-01
 -1      3820 2.46077E-01
 -1      3821 2.46077E-01
 -1      3822 2.09244E-01
 -1      3823 1.93687E+00
 -1      3824 1.69170E+00
 -1      3825 2.64201E+00
 -1      3826 1.46736E-01
 -1      3827 1.54683E-01
 -1      3828 1.29298E-01
 -1      3829 4.84843E+00
 -1      3830 3.28128E+00
 -1      3831 4.18192E+00
 -1      3832 2.02087E-01
 -1      3833 2.38186E-01
 -1      3834 2.69327E-01
 -1      3835 1.10578E-01
 -1      3836 3.45881E+00
 -1      3837 1.82416E-01
 -1      3838 4.73861E+00
 -1      3839 5.03035E-01
 -1      3840 4.64398E-01
 -1      3841 5.91127E-01
 -1      3842 2.02087E-01
 -1      3843 3.02895E+00
 -1      3844 2.23333E-01
 -1      3845 1.61177E+00
 -1      3846 6.43002E+00
 -1      3847 5.85910E+00
 -1      3848 5.54051E+00
 -1      3849 3.88432E+00
 -1      3850 1.33371E-01
 -1      3851 3.83585E+00
 -1      3852 5.41203E+00
 -1      3853 3.40362E+00
 -1      3854 2.53913E+00
 -1      3855 4.81634E+00
 -1      3856 2.08801E-01
 -1      3857 1.82297E-01
 -1      3858 1.58898E-01
 -1      3859 1.84591E-01
 -1      3860 1.94778E-01
 -1      3861 1.80319E-01
 -1      3862 1.79218E-01
 -1      3863 6.55985E+00
 -1      3864 3.23724E+00
 -1      3865 2.79046E+00
 -1      3866 3.41550E+00
 -1      3867 2.64710E-01
 -1      3868 2.69327E-01
 -1      3869 2.64710E-01
 -1      3870 4.63952E+00
 -1      3871 4.63952E+00
 -1      3872 7.97694E-01
 -1      3873 6.86501E-01
 -1      3874 6.32861E-01
 -1      3875 1.30946E-01
 -1      3876 1.25873E-01
 -1      3877 1.25155E-01
 -1      3878 1.43276E-01
 -1      3879 1.39943E-01
 -1      3880 1.16228E-01
 -1      3881 2.33231E-01
 -1      3882 2.02330E-01
 -1      3883 1.66279E-01
 -1      3884 4.15633E+00
 -1      3885 2.28730E-01
 -1      3886 5.01263E+00
 -1      3887 1.88071E-01
 -1      3888 1.79429E-01
 -1      3889 1.48302E-01
 -1      3890 4.50219E+00
 -1      3891 8.58195E-01
 -1      3892 5.76622E-01
 -1      3893 6.74158E-01
 -1      3894 1.14372E+00
 -1      3895 9.63208E-01
 -1      3896 1.32742E-01
 -1      3897 1.44109E-01
 -1      3898 1.57418E-01
 -1      3899 1.67392E-01
 -1      3900 1.60541E-01
 -1      3901 1.80918E-01
 -1      3902 1.91526E-01
 -1      3903 1.87376E-01
 -1      3904 2.07217E-01
 -1      3905 2.43478E-01
 -1      3906 2.16593E-01
 -1      3907 2.81592E-01
 -1      3908 3.25449E-01
 -1      3909 2.70397E-01
 -1      3910 3.77484E-01
 -1      3911 4.28200E-01
 -1      3912 3.60547E-01
 -1      3913 4.94559E-01
 -1      3914 5.51907E-01
 -1      3915 4.78941E-01
 -1      3916 6.36502E-01
 -1      3917 7.14491E-01
 -1      3918 6.29896E-01
 -1      3919 8.22386E-01
 -1      3920 9.30281E-01
 -1      3921 8.22386E-01
 -1      3922 1.08307E+00
 -1      3923 1.26457E+00
 -1      3924 1.08307E+00
 -1      3925 1.62365E+00
 -1      3926 1.88938E+00
 -1      3927 1.59494E+00
 -1      3928 2.90421E+00
 -1      3929 3.29239E+00
 -1      3930 2.96885E+00
 -1      3931 1.99531E+00
 -1      3932 1.75139E+00
 -1      3933 2.52901E+00
 -1      3934 1.42755E+00
 -1      3935 1.21695E+00
 -1      3936 1.66135E+00
 -1      3937 1.07837E+00
 -1      3938 9.45769E-01
 -1      3939 1.19893E+00
 -1      3940 8.31182E-01
 -1      3941 7.36139E-01
 -1      3942 9.45769E-01
 -1      3943 6.41097E-01
 -1      3944 5.71193E-01
 -1      3945 7.36139E-01
 -1      3946 4.97757E-01
 -1      3947 4.46431E-01
 -1      3948 5.67661E-01
 -1      3949 3.88949E-01
 -1      3950 3.46818E-01
 -1      3951 4.36743E-01
 -1      3952 3.02192E-01
 -1      3953 2.67294E-01
 -1      3954 3.34634E-01
 -1      3955 1.52317E-01
 -1      3956 1.43179E-01
 -1      3957 1.76088E-01
 -1      3958 3.31997E-01
 -1      3959 3.87558E-01
 -1      3960 4.15633E+00
 -1      3961 3.91618E+00
 -1      3962 3.48999E+00
 -1      3963 5.46226E+00
 -1      3964 5.46226E+00
 -1      3965 4.38365E-01
 -1      3966 5.11312E-01
 -1      3967 3.80660E-01
 -1      3968 1.11204E-01
 -1      3969 1.18879E-01
 -1      3970 1.33369E-01
 -1      3971 1.99351E+00
 -1      3972 2.89877E+00
 -1      3973 4.59006E+00
 -1      3974 3.52085E+00
 -1      3975 1.17824E-01
 -1      3976 9.06469E-02
 -1      3977 2.36364E-01
 -1      3978 2.15118E-01
 -1      3979 2.10134E-01
 -1      3980 2.59079E-01
 -1      3981 1.42597E-01
 -1      3982 1.76549E-01
 -1      3983 1.46196E-01
 -1      3984 1.56850E+00
 -1      3985 1.30591E+00
 -1      3986 1.10045E+00
 -1      3987 4.15010E+00
 -1      3988 1.15557E-01
 -1      3989 1.19528E-01
 -1      3990 4.84621E+00
 -1      3991 1.88071E-01
 -1      3992 1.88071E-01
 -1      3993 1.47412E-01
 -1      3994 1.35890E-01
 -1      3995 2.15721E-01
 -1      3996 2.49723E-01
 -1      3997 2.49723E-01
 -1      3998 2.03605E-01
 -1      3999 1.82860E-01
 -1      4000 4.59955E+00
 -1      4001 9.76493E-02
 -1      4002 9.80406E-02
 -1      4003 8.61757E-02
 -1      4004 1.82860E-01
 -1      4005 1.56475E-01
 -1      4006 1.17824E-01
 -1      4007 1.82860E-01
 -1      4008 3.47675E-01
 -1      4009 2.90228E-01
 -1      4010 2.61087E+00
 -1      4011 1.84323E+00
 -1      4012 1.53737E+00
 -1      4013 2.69121E+00
 -1      4014 1.52834E-01
 -1      4015 3.57032E+00
 -1      4016 8.47205E-01
 -1      4017 7.17245E-01
 -1      4018 8.22259E-01
 -1      4019 2.73944E-01
 -1      4020 3.04042E-01
 -1      4021 3.01899E-01
 -1      4022 2.69327E-01
 -1      4023 1.05424E-01
 -1      4024 1.06489E-01
 -1      4025 1.39179E-01
 -1      4026 1.26675E-01
 -1      4027 1.29580E-01
 -1      4028 1.49892E-01
 -1      4029 3.93207E-01
 -1      4030 3.49574E-01
 -1      4031 4.66297E-01
 -1      4032 3.72754E+00
 -1      4033 4.21740E+00
 -1      4034 6.52579E-01
 -1      4035 7.64649E-01
 -1      4036 9.00024E-01
 -1      4037 4.58784E+00
 -1      4038 2.84433E+00
 -1      4039 2.30051E+00
 -1      4040 3.49025E+00
 -1      4041 1.15550E-01
 -1      4042 1.19191E-01
 -1      4043 8.05406E-02
 -1      4044 2.13427E-01
 -1      4045 2.03605E-01
 -1      4046 2.31442E-01
 -1      4047 4.96778E-01
 -1      4048 5.46226E+00
 -1      4049 4.36467E+00
 -1      4050 4.76151E+00
 -1      4051 1.06342E-01
 -1      4052 1.20725E+00
 -1      4053 1.81324E+00
 -1      4054 1.04198E+00
 -1      4055 2.84253E+00
 -1      4056 2.89200E+00
 -1      4057 1.18116E-01
 -1      4058 6.27734E-01
 -1      4059 5.32360E-01
 -1      4060 4.61170E-01
 -1      4061 1.02124E-01
 -1      4062 2.57874E-01
 -1      4063 2.14692E-01
 -1      4064 2.71689E-01
 -1      4065 3.48208E+00
 -1      4066 3.78135E+00
 -1      4067 2.89200E+00
 -1      4068 1.14264E-01
 -1      4069 1.15154E-01
 -1      4070 8.15117E-02
 -1      4071 6.16744E-01
 -1      4072 2.78316E-01
 -1      4073 2.47387E-01
 -1      4074 2.50680E-01
 -1      4075 1.87376E-01
 -1      4076 2.00902E-01
 -1      4077 2.16593E-01
 -1      4078 2.32283E-01
 -1      4079 2.16593E-01
 -1      4080 2.89663E-01
 -1      4081 3.27777E-01
 -1      4082 2.89663E-01
 -1      4083 3.85360E-01
 -1      4084 4.37395E-01
 -1      4085 4.04625E-01
 -1      4086 5.21220E-01
 -1      4087 5.87579E-01
 -1      4088 5.46033E-01
 -1      4089 7.07342E-01
 -1      4090 7.91937E-01
 -1      4091 7.49620E-01
 -1      4092 9.61770E-01
 -1      4093 1.06966E+00
 -1      4094 1.03922E+00
 -1      4095 1.14569E+00
 -1      4096 1.29847E+00
 -1      4097 1.28507E+00
 -1      4098 1.59494E+00
 -1      4099 1.95403E+00
 -1      4100 1.65756E+00
 -1      4101 2.71271E+00
 -1      4102 1.90476E+00
 -1      4103 1.58092E+00
 -1      4104 2.22008E+00
 -1      4105 1.26599E+00
 -1      4106 1.12741E+00
 -1      4107 1.50940E+00
 -1      4108 1.10139E+00
 -1      4109 9.86802E-01
 -1      4110 1.16845E+00
 -1      4111 7.34433E-01
 -1      4112 6.39391E-01
 -1      4113 8.90054E-01
 -1      4114 5.49457E-01
 -1      4115 4.76021E-01
 -1      4116 5.47751E-01
 -1      4117 4.73078E-01
 -1      4118 4.15596E-01
 -1      4119 4.54874E-01
 -1      4120 3.31545E-01
 -1      4121 2.86919E-01
 -1      4122 2.75227E-01
 -1      4123 3.67880E-01
 -1      4124 6.68057E-01
 -1      4125 5.78545E-01
 -1      4126 1.11738E-01
 -1      4127 9.86996E-02
 -1      4128 3.82055E+00
 -1      4129 1.04516E-01
 -1      4130 1.17680E-01
 -1      4131 3.33174E+00
 -1      4132 3.33174E+00
 -1      4133 2.45732E+00
 -1      4134 2.71271E+00
 -1      4135 2.08385E+00
 -1      4136 9.33951E-02
 -1      4137 9.96479E-02
 -1      4138 1.11170E-01
 -1      4139 8.36563E-02
 -1      4140 4.48221E-01
 -1      4141 5.13530E-01
 -1      4142 1.90476E-01
 -1      4143 1.76514E-01
 -1      4144 2.15119E-01
 -1      4145 1.62792E-01
 -1      4146 1.50558E-01
 -1      4147 1.52078E-01
 -1      4148 8.75430E-02
 -1      4149 1.23584E+00
 -1      4150 1.07366E+00
 -1      4151 3.42218E-01
 -1      4152 3.93025E-01
 -1      4153 4.09778E-01
 -1      4154 1.60541E-01
 -1      4155 1.73850E-01
 -1      4156 1.87376E-01
 -1      4157 2.01289E+00
 -1      4158 1.33369E-01
 -1      4159 1.47232E-01
 -1      4160 1.60541E-01
 -1      4161 9.03822E-01
 -1      4162 7.87819E-01
 -1      4163 1.03922E+00
 -1      4164 9.88807E-02
 -1      4165 2.50222E-01
 -1      4166 2.78176E-01
 -1      4167 2.90541E-01
 -1      4168 1.87235E+00
 -1      4169 1.67155E+00
 -1      4170 1.38451E-01
 -1      4171 1.27333E-01
 -1      4172 1.20609E-01
 -1      4173 5.37244E-01
 -1      4174 5.85801E-01
 -1      4175 6.76292E-01
 -1      4176 9.30647E-02
 -1      4177 8.67505E-02
 -1      4178 1.74252E+00
 -1      4179 2.23619E-01
 -1      4180 2.38606E-01
 -1      4181 2.43224E-01
 -1      4182 7.80213E-02
 -1      4183 8.85029E-01
 -1      4184 2.34735E-01
 -1      4185 7.49620E-01
 -1      4186 1.77180E-01
 -1      4187 3.83100E-01
 -1      4188 3.37568E-01
 -1      4189 3.37134E-01
 -1      4190 3.04780E-01
 -1      4191 3.70660E-01
 -1      4192 2.59950E+00
 -1      4193 3.48208E+00
 -1      4194 2.44915E+00
 -1      4195 1.39683E+00
 -1      4196 1.37003E+00
 -1      4197 1.31543E-01
 -1      4198 4.99779E-01
 -1      4199 4.33716E-01
 -1      4200 4.21710E-01
 -1      4201 1.11170E-01
 -1      4202 1.08471E+00
 -1      4203 1.87096E+00
 -1      4204 1.87096E+00
 -1      4205 5.51092E-01
 -1      4206 3.01254E-01
 -1      4207 3.58634E-01
 -1      4208 3.59068E-01
 -1      4209 4.16651E-01
 -1      4210 4.67267E-01
 -1      4211 5.51092E-01
 -1      4212 6.29858E-01
 -1      4213 7.49620E-01
 -1      4214 8.69382E-01
 -1      4215 1.03922E+00
 -1      4216 1.20905E+00
 -1      4217 1.28507E+00
 -1      4218 1.44605E+00
 -1      4219 2.06157E+00
 -1      4220 1.16845E+00
 -1      4221 1.14242E+00
 -1      4222 5.88516E-01
 -1      4223 4.98582E-01
 -1      4224 4.61395E-01
 -1      4225 4.58452E-01
 -1      4226 8.34928E-01
 -1      4227 9.76887E-01
 -1      4228 1.03460E+00
 -1      4229 7.68151E-01
 -1      4230 2.50680E-01
 -1      4231 2.34735E-01
 -1      4232 2.37071E-01
 -1      4233 2.12855E-01
 -1      4234 3.02517E-01
 -1      4235 1.63832E-01
 -1      4236 1.52452E-01
 -1      4237 1.50205E-01
 -1      4238 1.26028E-01
 -1      4239 1.41718E-01
 -1      4240 4.03257E-01
 -1      4241 1.92488E-01
 -1      4242 1.78765E-01
 -1      4243 1.79140E-01
 -1      4244 2.14441E-01
 -1      4245 1.83962E-01
 -1      4246 1.97488E-01
 -1      4247 8.19080E-02
 -1      4248 9.88807E-02
 -1      4249 8.15117E-02
 -1      4250 1.55719E-01
 -1      4251 1.69028E-01
 -1      4252 2.17855E-01
 -1      4253 2.33546E-01
 -1      4254 2.19501E-01
 -1      4255 1.86205E+00
 -1      4256 1.62481E+00
 -1      4257 5.02160E-01
 -1      4258 1.30988E+00
 -1      4259 1.03460E+00
 -1      4260 7.82236E-01
 -1      4261 2.01239E+00
 -1      4262 2.91737E-01
 -1      4263 3.40411E-01
 -1      4264 7.33067E-01
 -1      4265 2.27695E-01
 -1      4266 3.70660E-01
 -1      4267 2.34735E-01
 -1      4268 5.74431E-01
 -1      4269 1.10434E-01
 -1      4270 9.34609E-02
 -1      4271 1.03460E+00
 -1      4272 1.28386E+00
 -1      4273 7.68151E-01
 -1      4274 2.47758E-01
 -1      4275 2.31813E-01
 -1      4276 3.02517E-01
 -1      4277 2.56360E-01
 -1      4278 3.70226E-01
 -1      4279 9.26786E-01
 -1      4280 2.30617E-01
 -1      4281 2.23619E-01
 -3
 9999
