    1C
    1UUSER                                                              
    1UDATE              27.october.2022                                 
    1UTIME              00:44:52                                        
    1UHOST                                                              
    1UPGM               CalculiX                                        
    1UVERSION           Version 2.17                             
    1UCOMPILETIME       Thu Jul 23 21:43:50 CEST 2020                    
    1UDIR                                                               
    1UDBN                                                               
    1UMAT    1SOLIDMATERIAL                                             
    2C                          4345                                     1
 -1         1 7.09091E+01 2.50333E+01 0.00000E+00
 -1         2 7.75397E+01 1.80431E+01 0.00000E+00
 -1         3 1.50000E+02 0.00000E+00 0.00000E+00
 -1         4 1.50000E+02 5.00000E+01 0.00000E+00
 -1         5 0.00000E+00 0.00000E+00 0.00000E+00
 -1         6 0.00000E+00 5.00000E+01 0.00000E+00
 -1         7 0.00000E+00 4.70500E+01 0.00000E+00
 -1         8 0.00000E+00 4.41000E+01 0.00000E+00
 -1         9 0.00000E+00 4.11500E+01 0.00000E+00
 -1        10 0.00000E+00 3.82000E+01 0.00000E+00
 -1        11 0.00000E+00 3.52500E+01 0.00000E+00
 -1        12 0.00000E+00 3.23500E+01 0.00000E+00
 -1        13 0.00000E+00 2.94000E+01 0.00000E+00
 -1        14 0.00000E+00 2.64500E+01 0.00000E+00
 -1        15 0.00000E+00 2.35000E+01 0.00000E+00
 -1        16 0.00000E+00 2.05500E+01 0.00000E+00
 -1        17 0.00000E+00 1.76000E+01 0.00000E+00
 -1        18 0.00000E+00 1.47000E+01 0.00000E+00
 -1        19 0.00000E+00 1.17500E+01 0.00000E+00
 -1        20 0.00000E+00 8.80000E+00 0.00000E+00
 -1        21 0.00000E+00 5.85000E+00 0.00000E+00
 -1        22 0.00000E+00 2.90000E+00 0.00000E+00
 -1        23 3.15000E+00 5.00000E+01 0.00000E+00
 -1        24 6.15000E+00 5.00000E+01 0.00000E+00
 -1        25 9.15000E+00 5.00000E+01 0.00000E+00
 -1        26 1.21500E+01 5.00000E+01 0.00000E+00
 -1        27 1.51500E+01 5.00000E+01 0.00000E+00
 -1        28 1.81500E+01 5.00000E+01 0.00000E+00
 -1        29 2.11500E+01 5.00000E+01 0.00000E+00
 -1        30 2.41500E+01 5.00000E+01 0.00000E+00
 -1        31 2.71500E+01 5.00000E+01 0.00000E+00
 -1        32 3.01500E+01 5.00000E+01 0.00000E+00
 -1        33 3.31500E+01 5.00000E+01 0.00000E+00
 -1        34 3.61500E+01 5.00000E+01 0.00000E+00
 -1        35 3.91500E+01 5.00000E+01 0.00000E+00
 -1        36 4.21500E+01 5.00000E+01 0.00000E+00
 -1        37 4.51500E+01 5.00000E+01 0.00000E+00
 -1        38 4.81500E+01 5.00000E+01 0.00000E+00
 -1        39 5.11500E+01 5.00000E+01 0.00000E+00
 -1        40 5.41500E+01 5.00000E+01 0.00000E+00
 -1        41 5.71500E+01 5.00000E+01 0.00000E+00
 -1        42 6.01500E+01 5.00000E+01 0.00000E+00
 -1        43 6.31500E+01 5.00000E+01 0.00000E+00
 -1        44 6.61500E+01 5.00000E+01 0.00000E+00
 -1        45 6.91500E+01 5.00000E+01 0.00000E+00
 -1        46 7.21500E+01 5.00000E+01 0.00000E+00
 -1        47 7.51500E+01 5.00000E+01 0.00000E+00
 -1        48 7.81500E+01 5.00000E+01 0.00000E+00
 -1        49 8.11500E+01 5.00000E+01 0.00000E+00
 -1        50 8.41500E+01 5.00000E+01 0.00000E+00
 -1        51 8.71500E+01 5.00000E+01 0.00000E+00
 -1        52 9.01500E+01 5.00000E+01 0.00000E+00
 -1        53 9.31500E+01 5.00000E+01 0.00000E+00
 -1        54 9.61500E+01 5.00000E+01 0.00000E+00
 -1        55 9.91500E+01 5.00000E+01 0.00000E+00
 -1        56 1.02150E+02 5.00000E+01 0.00000E+00
 -1        57 1.05150E+02 5.00000E+01 0.00000E+00
 -1        58 1.08150E+02 5.00000E+01 0.00000E+00
 -1        59 1.11150E+02 5.00000E+01 0.00000E+00
 -1        60 1.14150E+02 5.00000E+01 0.00000E+00
 -1        61 1.17150E+02 5.00000E+01 0.00000E+00
 -1        62 1.20150E+02 5.00000E+01 0.00000E+00
 -1        63 1.23150E+02 5.00000E+01 0.00000E+00
 -1        64 1.26150E+02 5.00000E+01 0.00000E+00
 -1        65 1.29150E+02 5.00000E+01 0.00000E+00
 -1        66 1.32150E+02 5.00000E+01 0.00000E+00
 -1        67 1.35150E+02 5.00000E+01 0.00000E+00
 -1        68 1.38150E+02 5.00000E+01 0.00000E+00
 -1        69 1.41150E+02 5.00000E+01 0.00000E+00
 -1        70 1.44150E+02 5.00000E+01 0.00000E+00
 -1        71 1.47150E+02 5.00000E+01 0.00000E+00
 -1        72 3.15000E+00 0.00000E+00 0.00000E+00
 -1        73 6.15000E+00 0.00000E+00 0.00000E+00
 -1        74 9.15000E+00 0.00000E+00 0.00000E+00
 -1        75 1.21500E+01 0.00000E+00 0.00000E+00
 -1        76 1.51500E+01 0.00000E+00 0.00000E+00
 -1        77 1.81500E+01 0.00000E+00 0.00000E+00
 -1        78 2.11500E+01 0.00000E+00 0.00000E+00
 -1        79 2.41500E+01 0.00000E+00 0.00000E+00
 -1        80 2.71500E+01 0.00000E+00 0.00000E+00
 -1        81 3.01500E+01 0.00000E+00 0.00000E+00
 -1        82 3.31500E+01 0.00000E+00 0.00000E+00
 -1        83 3.61500E+01 0.00000E+00 0.00000E+00
 -1        84 3.91500E+01 0.00000E+00 0.00000E+00
 -1        85 4.21500E+01 0.00000E+00 0.00000E+00
 -1        86 4.51500E+01 0.00000E+00 0.00000E+00
 -1        87 4.81500E+01 0.00000E+00 0.00000E+00
 -1        88 5.11500E+01 0.00000E+00 0.00000E+00
 -1        89 5.41500E+01 0.00000E+00 0.00000E+00
 -1        90 5.73000E+01 0.00000E+00 0.00000E+00
 -1        91 6.03000E+01 0.00000E+00 0.00000E+00
 -1        92 6.33000E+01 0.00000E+00 0.00000E+00
 -1        93 6.63000E+01 0.00000E+00 0.00000E+00
 -1        94 6.90000E+01 0.00000E+00 0.00000E+00
 -1        95 7.20000E+01 0.00000E+00 0.00000E+00
 -1        96 7.48500E+01 0.00000E+00 0.00000E+00
 -1        97 7.78500E+01 0.00000E+00 0.00000E+00
 -1        98 8.08500E+01 0.00000E+00 0.00000E+00
 -1        99 8.38500E+01 0.00000E+00 0.00000E+00
 -1       100 8.68500E+01 0.00000E+00 0.00000E+00
 -1       101 8.98500E+01 0.00000E+00 0.00000E+00
 -1       102 9.28500E+01 0.00000E+00 0.00000E+00
 -1       103 9.60000E+01 0.00000E+00 0.00000E+00
 -1       104 9.90000E+01 0.00000E+00 0.00000E+00
 -1       105 1.02000E+02 0.00000E+00 0.00000E+00
 -1       106 1.05000E+02 0.00000E+00 0.00000E+00
 -1       107 1.08000E+02 0.00000E+00 0.00000E+00
 -1       108 1.11000E+02 0.00000E+00 0.00000E+00
 -1       109 1.14000E+02 0.00000E+00 0.00000E+00
 -1       110 1.17000E+02 0.00000E+00 0.00000E+00
 -1       111 1.20000E+02 0.00000E+00 0.00000E+00
 -1       112 1.23000E+02 0.00000E+00 0.00000E+00
 -1       113 1.26000E+02 0.00000E+00 0.00000E+00
 -1       114 1.29000E+02 0.00000E+00 0.00000E+00
 -1       115 1.32000E+02 0.00000E+00 0.00000E+00
 -1       116 1.35000E+02 0.00000E+00 0.00000E+00
 -1       117 1.38000E+02 0.00000E+00 0.00000E+00
 -1       118 1.41000E+02 0.00000E+00 0.00000E+00
 -1       119 1.44000E+02 0.00000E+00 0.00000E+00
 -1       120 1.47000E+02 0.00000E+00 0.00000E+00
 -1       121 1.50000E+02 2.95000E+00 0.00000E+00
 -1       122 1.50000E+02 5.90000E+00 0.00000E+00
 -1       123 1.50000E+02 8.85000E+00 0.00000E+00
 -1       124 1.50000E+02 1.18000E+01 0.00000E+00
 -1       125 1.50000E+02 1.47500E+01 0.00000E+00
 -1       126 1.50000E+02 1.76500E+01 0.00000E+00
 -1       127 1.50000E+02 2.06000E+01 0.00000E+00
 -1       128 1.50000E+02 2.35500E+01 0.00000E+00
 -1       129 1.50000E+02 2.65000E+01 0.00000E+00
 -1       130 1.50000E+02 2.94500E+01 0.00000E+00
 -1       131 1.50000E+02 3.24000E+01 0.00000E+00
 -1       132 1.50000E+02 3.53000E+01 0.00000E+00
 -1       133 1.50000E+02 3.82500E+01 0.00000E+00
 -1       134 1.50000E+02 4.12000E+01 0.00000E+00
 -1       135 1.50000E+02 4.41500E+01 0.00000E+00
 -1       136 1.50000E+02 4.71000E+01 0.00000E+00
 -1       137 7.73983E+01 1.66431E+01 0.00000E+00
 -1       138 7.69566E+01 1.52461E+01 0.00000E+00
 -1       139 7.62153E+01 1.39458E+01 0.00000E+00
 -1       140 7.52182E+01 1.28362E+01 0.00000E+00
 -1       141 7.39717E+01 1.19421E+01 0.00000E+00
 -1       142 7.25566E+01 1.13399E+01 0.00000E+00
 -1       143 7.11186E+01 1.10670E+01 0.00000E+00
 -1       144 6.95913E+01 1.11076E+01 0.00000E+00
 -1       145 6.80759E+01 1.14910E+01 0.00000E+00
 -1       146 6.65838E+01 1.22680E+01 0.00000E+00
 -1       147 6.53843E+01 1.33079E+01 0.00000E+00
 -1       148 6.45032E+01 1.44990E+01 0.00000E+00
 -1       149 6.39160E+01 1.57788E+01 0.00000E+00
 -1       150 6.35916E+01 1.71922E+01 0.00000E+00
 -1       151 6.35743E+01 1.87387E+01 0.00000E+00
 -1       152 6.39214E+01 2.03232E+01 0.00000E+00
 -1       153 6.45277E+01 2.16286E+01 0.00000E+00
 -1       154 6.53968E+01 2.27919E+01 0.00000E+00
 -1       155 6.65424E+01 2.37895E+01 0.00000E+00
 -1       156 6.78173E+01 2.44920E+01 0.00000E+00
 -1       157 6.94226E+01 2.49534E+01 0.00000E+00
 -1       158 7.23594E+01 2.48024E+01 0.00000E+00
 -1       159 7.38285E+01 2.42223E+01 0.00000E+00
 -1       160 7.50467E+01 2.33990E+01 0.00000E+00
 -1       161 7.60870E+01 2.23123E+01 0.00000E+00
 -1       162 7.68947E+01 2.09780E+01 0.00000E+00
 -1       163 7.73681E+01 1.95833E+01 0.00000E+00
 -1       164 2.59800E+00 4.55750E+01 0.00000E+00
 -1       165 2.59800E+00 4.26250E+01 0.00000E+00
 -1       166 2.59800E+00 3.96750E+01 0.00000E+00
 -1       167 2.59800E+00 3.67250E+01 0.00000E+00
 -1       168 2.59800E+00 3.38250E+01 0.00000E+00
 -1       169 2.59800E+00 3.08750E+01 0.00000E+00
 -1       170 2.59800E+00 2.79250E+01 0.00000E+00
 -1       171 2.59800E+00 2.49750E+01 0.00000E+00
 -1       172 2.59800E+00 2.20250E+01 0.00000E+00
 -1       173 2.59800E+00 1.90750E+01 0.00000E+00
 -1       174 2.59800E+00 1.61750E+01 0.00000E+00
 -1       175 2.59800E+00 1.32250E+01 0.00000E+00
 -1       176 2.59800E+00 1.02750E+01 0.00000E+00
 -1       177 2.59800E+00 7.32500E+00 0.00000E+00
 -1       178 2.59800E+00 4.37500E+00 0.00000E+00
 -1       179 2.87400E+00 2.18750E+00 0.00000E+00
 -1       180 4.65000E+00 4.74020E+01 0.00000E+00
 -1       181 7.65000E+00 4.74020E+01 0.00000E+00
 -1       182 1.06500E+01 4.74020E+01 0.00000E+00
 -1       183 1.36500E+01 4.74020E+01 0.00000E+00
 -1       184 1.66500E+01 4.74020E+01 0.00000E+00
 -1       185 1.96500E+01 4.74020E+01 0.00000E+00
 -1       186 2.26500E+01 4.74020E+01 0.00000E+00
 -1       187 2.56500E+01 4.74020E+01 0.00000E+00
 -1       188 2.86500E+01 4.74020E+01 0.00000E+00
 -1       189 3.16500E+01 4.74020E+01 0.00000E+00
 -1       190 3.46500E+01 4.74020E+01 0.00000E+00
 -1       191 3.76500E+01 4.74020E+01 0.00000E+00
 -1       192 4.06500E+01 4.74020E+01 0.00000E+00
 -1       193 4.36500E+01 4.74020E+01 0.00000E+00
 -1       194 4.66500E+01 4.74020E+01 0.00000E+00
 -1       195 4.96500E+01 4.74020E+01 0.00000E+00
 -1       196 5.26500E+01 4.74020E+01 0.00000E+00
 -1       197 5.56500E+01 4.74020E+01 0.00000E+00
 -1       198 5.86500E+01 4.74020E+01 0.00000E+00
 -1       199 6.16500E+01 4.74020E+01 0.00000E+00
 -1       200 6.46500E+01 4.74020E+01 0.00000E+00
 -1       201 6.76500E+01 4.74020E+01 0.00000E+00
 -1       202 7.06500E+01 4.74020E+01 0.00000E+00
 -1       203 7.36500E+01 4.74020E+01 0.00000E+00
 -1       204 7.66500E+01 4.74020E+01 0.00000E+00
 -1       205 7.96500E+01 4.74020E+01 0.00000E+00
 -1       206 8.26500E+01 4.74020E+01 0.00000E+00
 -1       207 8.56500E+01 4.74020E+01 0.00000E+00
 -1       208 8.86500E+01 4.74020E+01 0.00000E+00
 -1       209 9.16500E+01 4.74020E+01 0.00000E+00
 -1       210 9.46500E+01 4.74020E+01 0.00000E+00
 -1       211 9.76500E+01 4.74020E+01 0.00000E+00
 -1       212 1.00650E+02 4.74020E+01 0.00000E+00
 -1       213 1.03650E+02 4.74020E+01 0.00000E+00
 -1       214 1.06650E+02 4.74020E+01 0.00000E+00
 -1       215 1.09650E+02 4.74020E+01 0.00000E+00
 -1       216 1.12650E+02 4.74020E+01 0.00000E+00
 -1       217 1.15650E+02 4.74020E+01 0.00000E+00
 -1       218 1.18650E+02 4.74020E+01 0.00000E+00
 -1       219 1.21650E+02 4.74020E+01 0.00000E+00
 -1       220 1.24650E+02 4.74020E+01 0.00000E+00
 -1       221 1.27650E+02 4.74020E+01 0.00000E+00
 -1       222 1.30650E+02 4.74020E+01 0.00000E+00
 -1       223 1.33650E+02 4.74020E+01 0.00000E+00
 -1       224 1.36650E+02 4.74020E+01 0.00000E+00
 -1       225 1.39650E+02 4.74020E+01 0.00000E+00
 -1       226 1.42650E+02 4.74020E+01 0.00000E+00
 -1       227 1.45650E+02 4.74020E+01 0.00000E+00
 -1       228 5.87400E+00 2.18750E+00 0.00000E+00
 -1       229 8.87400E+00 2.18750E+00 0.00000E+00
 -1       230 1.18740E+01 2.18750E+00 0.00000E+00
 -1       231 1.48740E+01 2.18750E+00 0.00000E+00
 -1       232 1.78740E+01 2.18750E+00 0.00000E+00
 -1       233 2.08740E+01 2.18750E+00 0.00000E+00
 -1       234 2.38740E+01 2.18750E+00 0.00000E+00
 -1       235 2.68740E+01 2.18750E+00 0.00000E+00
 -1       236 2.98740E+01 2.18750E+00 0.00000E+00
 -1       237 3.28740E+01 2.18750E+00 0.00000E+00
 -1       238 3.58740E+01 2.18750E+00 0.00000E+00
 -1       239 3.88740E+01 2.18750E+00 0.00000E+00
 -1       240 4.18740E+01 2.18750E+00 0.00000E+00
 -1       241 4.48740E+01 2.18750E+00 0.00000E+00
 -1       242 4.78740E+01 2.18750E+00 0.00000E+00
 -1       243 5.08740E+01 2.18750E+00 0.00000E+00
 -1       244 5.38740E+01 2.18750E+00 0.00000E+00
 -1       245 5.70240E+01 2.18750E+00 0.00000E+00
 -1       246 6.00240E+01 2.18750E+00 0.00000E+00
 -1       247 6.30240E+01 2.18750E+00 0.00000E+00
 -1       248 6.60240E+01 2.18750E+00 0.00000E+00
 -1       249 6.87240E+01 2.18750E+00 0.00000E+00
 -1       250 7.17240E+01 2.18750E+00 0.00000E+00
 -1       251 7.45740E+01 2.18750E+00 0.00000E+00
 -1       252 7.75740E+01 2.18750E+00 0.00000E+00
 -1       253 8.05740E+01 2.18750E+00 0.00000E+00
 -1       254 8.35740E+01 2.18750E+00 0.00000E+00
 -1       255 8.65740E+01 2.18750E+00 0.00000E+00
 -1       256 8.95740E+01 2.18750E+00 0.00000E+00
 -1       257 9.25740E+01 2.18750E+00 0.00000E+00
 -1       258 9.57240E+01 2.18750E+00 0.00000E+00
 -1       259 9.87240E+01 2.18750E+00 0.00000E+00
 -1       260 1.01724E+02 2.18750E+00 0.00000E+00
 -1       261 1.04724E+02 2.18750E+00 0.00000E+00
 -1       262 1.07724E+02 2.18750E+00 0.00000E+00
 -1       263 1.10724E+02 2.18750E+00 0.00000E+00
 -1       264 1.13724E+02 2.18750E+00 0.00000E+00
 -1       265 1.16724E+02 2.18750E+00 0.00000E+00
 -1       266 1.19724E+02 2.18750E+00 0.00000E+00
 -1       267 1.22724E+02 2.18750E+00 0.00000E+00
 -1       268 1.25724E+02 2.18750E+00 0.00000E+00
 -1       269 1.28724E+02 2.18750E+00 0.00000E+00
 -1       270 1.31724E+02 2.18750E+00 0.00000E+00
 -1       271 1.34724E+02 2.18750E+00 0.00000E+00
 -1       272 1.37724E+02 2.18750E+00 0.00000E+00
 -1       273 1.40724E+02 2.18750E+00 0.00000E+00
 -1       274 1.43724E+02 2.18750E+00 0.00000E+00
 -1       275 1.46724E+02 2.18750E+00 0.00000E+00
 -1       276 1.47402E+02 4.42500E+00 0.00000E+00
 -1       277 1.47402E+02 7.37500E+00 0.00000E+00
 -1       278 1.47402E+02 1.03250E+01 0.00000E+00
 -1       279 1.47402E+02 1.32750E+01 0.00000E+00
 -1       280 1.47402E+02 1.61750E+01 0.00000E+00
 -1       281 1.47402E+02 1.91250E+01 0.00000E+00
 -1       282 1.47402E+02 2.20750E+01 0.00000E+00
 -1       283 1.47402E+02 2.50250E+01 0.00000E+00
 -1       284 1.47402E+02 2.79750E+01 0.00000E+00
 -1       285 1.47402E+02 3.09250E+01 0.00000E+00
 -1       286 1.47402E+02 3.38250E+01 0.00000E+00
 -1       287 1.47402E+02 3.67750E+01 0.00000E+00
 -1       288 1.47402E+02 3.97250E+01 0.00000E+00
 -1       289 1.47402E+02 4.26750E+01 0.00000E+00
 -1       290 1.46526E+02 4.50385E+01 0.00000E+00
 -1       291 7.86752E+01 1.72213E+01 0.00000E+00
 -1       292 7.84133E+01 1.55539E+01 0.00000E+00
 -1       293 7.76392E+01 1.39955E+01 0.00000E+00
 -1       294 7.66809E+01 1.25247E+01 0.00000E+00
 -1       295 7.53992E+01 1.12678E+01 0.00000E+00
 -1       296 7.37389E+01 1.05255E+01 0.00000E+00
 -1       297 7.20636E+01 1.00124E+01 0.00000E+00
 -1       298 7.03183E+01 9.70784E+00 0.00000E+00
 -1       299 6.84541E+01 9.79901E+00 0.00000E+00
 -1       300 6.66538E+01 1.05812E+01 0.00000E+00
 -1       301 6.49155E+01 1.15553E+01 0.00000E+00
 -1       302 6.39017E+01 1.31326E+01 0.00000E+00
 -1       303 6.31076E+01 1.46333E+01 0.00000E+00
 -1       304 6.24904E+01 1.61955E+01 0.00000E+00
 -1       305 6.22031E+01 1.79501E+01 0.00000E+00
 -1       306 6.22362E+01 1.98621E+01 0.00000E+00
 -1       307 6.31250E+01 2.14866E+01 0.00000E+00
 -1       308 6.39239E+01 2.29861E+01 0.00000E+00
 -1       309 6.50633E+01 2.43313E+01 0.00000E+00
 -1       310 6.65543E+01 2.52760E+01 0.00000E+00
 -1       311 6.82156E+01 2.61295E+01 0.00000E+00
 -1       312 7.00962E+01 2.62876E+01 0.00000E+00
 -1       313 7.18249E+01 2.61152E+01 0.00000E+00
 -1       314 7.36007E+01 2.57959E+01 0.00000E+00
 -1       315 7.51634E+01 2.48846E+01 0.00000E+00
 -1       316 7.66242E+01 2.38679E+01 0.00000E+00
 -1       317 7.75997E+01 2.23164E+01 0.00000E+00
 -1       318 7.83588E+01 2.06973E+01 0.00000E+00
 -1       319 7.88254E+01 1.89660E+01 0.00000E+00
 -1       320 5.19600E+00 4.11500E+01 0.00000E+00
 -1       321 5.19600E+00 4.41000E+01 0.00000E+00
 -1       322 5.19600E+00 3.52750E+01 0.00000E+00
 -1       323 5.19600E+00 3.23250E+01 0.00000E+00
 -1       324 5.19600E+00 2.93750E+01 0.00000E+00
 -1       325 5.19600E+00 2.64250E+01 0.00000E+00
 -1       326 5.19600E+00 2.34750E+01 0.00000E+00
 -1       327 5.19600E+00 2.05250E+01 0.00000E+00
 -1       328 5.19600E+00 1.76250E+01 0.00000E+00
 -1       329 5.19600E+00 1.46750E+01 0.00000E+00
 -1       330 5.19600E+00 1.17250E+01 0.00000E+00
 -1       331 5.19600E+00 8.77500E+00 0.00000E+00
 -1       332 5.19600E+00 5.82500E+00 0.00000E+00
 -1       333 5.53500E+00 4.00625E+00 0.00000E+00
 -1       334 8.53500E+00 4.00625E+00 0.00000E+00
 -1       335 9.15000E+00 4.48040E+01 0.00000E+00
 -1       336 1.21500E+01 4.48040E+01 0.00000E+00
 -1       337 1.51500E+01 4.48040E+01 0.00000E+00
 -1       338 1.81500E+01 4.48040E+01 0.00000E+00
 -1       339 2.11500E+01 4.48040E+01 0.00000E+00
 -1       340 2.41500E+01 4.48040E+01 0.00000E+00
 -1       341 2.71500E+01 4.48040E+01 0.00000E+00
 -1       342 3.01500E+01 4.48040E+01 0.00000E+00
 -1       343 3.31500E+01 4.48040E+01 0.00000E+00
 -1       344 3.61500E+01 4.48040E+01 0.00000E+00
 -1       345 3.91500E+01 4.48040E+01 0.00000E+00
 -1       346 4.21500E+01 4.48040E+01 0.00000E+00
 -1       347 4.51500E+01 4.48040E+01 0.00000E+00
 -1       348 4.81500E+01 4.48040E+01 0.00000E+00
 -1       349 5.11500E+01 4.48040E+01 0.00000E+00
 -1       350 5.41500E+01 4.48040E+01 0.00000E+00
 -1       351 5.71500E+01 4.48040E+01 0.00000E+00
 -1       352 6.01500E+01 4.48040E+01 0.00000E+00
 -1       353 6.31500E+01 4.48040E+01 0.00000E+00
 -1       354 6.61500E+01 4.48040E+01 0.00000E+00
 -1       355 6.91500E+01 4.48040E+01 0.00000E+00
 -1       356 7.21500E+01 4.48040E+01 0.00000E+00
 -1       357 7.51500E+01 4.48040E+01 0.00000E+00
 -1       358 7.81500E+01 4.48040E+01 0.00000E+00
 -1       359 8.11500E+01 4.48040E+01 0.00000E+00
 -1       360 8.41500E+01 4.48040E+01 0.00000E+00
 -1       361 8.71500E+01 4.48040E+01 0.00000E+00
 -1       362 9.01500E+01 4.48040E+01 0.00000E+00
 -1       363 9.31500E+01 4.48040E+01 0.00000E+00
 -1       364 9.61500E+01 4.48040E+01 0.00000E+00
 -1       365 9.91500E+01 4.48040E+01 0.00000E+00
 -1       366 1.02150E+02 4.48040E+01 0.00000E+00
 -1       367 1.05150E+02 4.48040E+01 0.00000E+00
 -1       368 1.08150E+02 4.48040E+01 0.00000E+00
 -1       369 1.11150E+02 4.48040E+01 0.00000E+00
 -1       370 1.14150E+02 4.48040E+01 0.00000E+00
 -1       371 1.17150E+02 4.48040E+01 0.00000E+00
 -1       372 1.20150E+02 4.48040E+01 0.00000E+00
 -1       373 1.23150E+02 4.48040E+01 0.00000E+00
 -1       374 1.26150E+02 4.48040E+01 0.00000E+00
 -1       375 1.29150E+02 4.48040E+01 0.00000E+00
 -1       376 1.32150E+02 4.48040E+01 0.00000E+00
 -1       377 1.35150E+02 4.48040E+01 0.00000E+00
 -1       378 1.38150E+02 4.48040E+01 0.00000E+00
 -1       379 1.41150E+02 4.48040E+01 0.00000E+00
 -1       380 1.43838E+02 4.49212E+01 0.00000E+00
 -1       381 1.15350E+01 4.00625E+00 0.00000E+00
 -1       382 1.45350E+01 4.00625E+00 0.00000E+00
 -1       383 1.75350E+01 4.00625E+00 0.00000E+00
 -1       384 2.05350E+01 4.00625E+00 0.00000E+00
 -1       385 2.35350E+01 4.00625E+00 0.00000E+00
 -1       386 2.65350E+01 4.00625E+00 0.00000E+00
 -1       387 2.95350E+01 4.00625E+00 0.00000E+00
 -1       388 3.25350E+01 4.00625E+00 0.00000E+00
 -1       389 3.55350E+01 4.00625E+00 0.00000E+00
 -1       390 3.85350E+01 4.00625E+00 0.00000E+00
 -1       391 4.15350E+01 4.00625E+00 0.00000E+00
 -1       392 4.45350E+01 4.00625E+00 0.00000E+00
 -1       393 4.75350E+01 4.00625E+00 0.00000E+00
 -1       394 5.05350E+01 4.00625E+00 0.00000E+00
 -1       395 5.35350E+01 4.00625E+00 0.00000E+00
 -1       396 5.66850E+01 4.00625E+00 0.00000E+00
 -1       397 5.96850E+01 4.00625E+00 0.00000E+00
 -1       398 6.26850E+01 4.00625E+00 0.00000E+00
 -1       399 6.56850E+01 4.00625E+00 0.00000E+00
 -1       400 6.83850E+01 4.00625E+00 0.00000E+00
 -1       401 7.13850E+01 4.00625E+00 0.00000E+00
 -1       402 7.42350E+01 4.00625E+00 0.00000E+00
 -1       403 7.72350E+01 4.00625E+00 0.00000E+00
 -1       404 8.02350E+01 4.00625E+00 0.00000E+00
 -1       405 8.32350E+01 4.00625E+00 0.00000E+00
 -1       406 8.62350E+01 4.00625E+00 0.00000E+00
 -1       407 8.92350E+01 4.00625E+00 0.00000E+00
 -1       408 9.22350E+01 4.00625E+00 0.00000E+00
 -1       409 9.53850E+01 4.00625E+00 0.00000E+00
 -1       410 9.83850E+01 4.00625E+00 0.00000E+00
 -1       411 1.01385E+02 4.00625E+00 0.00000E+00
 -1       412 1.04385E+02 4.00625E+00 0.00000E+00
 -1       413 1.07385E+02 4.00625E+00 0.00000E+00
 -1       414 1.10385E+02 4.00625E+00 0.00000E+00
 -1       415 1.13385E+02 4.00625E+00 0.00000E+00
 -1       416 1.16385E+02 4.00625E+00 0.00000E+00
 -1       417 1.19385E+02 4.00625E+00 0.00000E+00
 -1       418 1.22385E+02 4.00625E+00 0.00000E+00
 -1       419 1.25385E+02 4.00625E+00 0.00000E+00
 -1       420 1.28385E+02 4.00625E+00 0.00000E+00
 -1       421 1.31385E+02 4.00625E+00 0.00000E+00
 -1       422 1.34385E+02 4.00625E+00 0.00000E+00
 -1       423 1.37385E+02 4.00625E+00 0.00000E+00
 -1       424 1.40385E+02 4.00625E+00 0.00000E+00
 -1       425 1.43385E+02 4.00625E+00 0.00000E+00
 -1       426 1.45393E+02 4.21562E+00 0.00000E+00
 -1       427 1.44804E+02 1.18000E+01 0.00000E+00
 -1       428 1.44804E+02 8.85000E+00 0.00000E+00
 -1       429 1.45099E+02 6.53281E+00 0.00000E+00
 -1       430 1.44804E+02 1.47000E+01 0.00000E+00
 -1       431 1.44804E+02 1.76500E+01 0.00000E+00
 -1       432 1.44804E+02 2.06000E+01 0.00000E+00
 -1       433 1.44804E+02 2.35500E+01 0.00000E+00
 -1       434 1.44804E+02 2.65000E+01 0.00000E+00
 -1       435 1.44804E+02 2.94500E+01 0.00000E+00
 -1       436 1.44804E+02 3.23500E+01 0.00000E+00
 -1       437 1.44804E+02 3.53000E+01 0.00000E+00
 -1       438 1.44804E+02 3.82500E+01 0.00000E+00
 -1       439 1.44804E+02 4.12000E+01 0.00000E+00
 -1       440 7.93372E+01 1.41235E+01 0.00000E+00
 -1       441 8.03756E+01 1.79537E+01 0.00000E+00
 -1       442 8.01137E+01 1.62864E+01 0.00000E+00
 -1       443 7.83162E+01 1.25067E+01 0.00000E+00
 -1       444 7.71236E+01 1.07913E+01 0.00000E+00
 -1       445 5.19600E+00 3.82125E+01 0.00000E+00
 -1       446 7.33790E+01 8.70910E+00 0.00000E+00
 -1       447 7.14282E+01 8.50066E+00 0.00000E+00
 -1       448 6.93106E+01 8.20773E+00 0.00000E+00
 -1       449 6.70374E+01 9.00130E+00 0.00000E+00
 -1       450 6.51100E+01 9.86444E+00 0.00000E+00
 -1       451 6.31067E+01 1.15072E+01 0.00000E+00
 -1       452 6.22849E+01 1.32376E+01 0.00000E+00
 -1       453 6.15156E+01 1.49074E+01 0.00000E+00
 -1       454 6.08196E+01 1.68226E+01 0.00000E+00
 -1       455 6.08527E+01 1.87347E+01 0.00000E+00
 -1       456 6.14699E+01 2.13367E+01 0.00000E+00
 -1       457 6.22689E+01 2.28362E+01 0.00000E+00
 -1       458 6.34406E+01 2.45506E+01 0.00000E+00
 -1       459 6.50703E+01 2.59694E+01 0.00000E+00
 -1       460 6.67927E+01 2.68557E+01 0.00000E+00
 -1       461 6.90122E+01 2.79176E+01 0.00000E+00
 -1       462 7.10975E+01 2.75746E+01 0.00000E+00
 -1       463 7.29866E+01 2.74787E+01 0.00000E+00
 -1       464 7.51616E+01 2.66771E+01 0.00000E+00
 -1       465 7.66225E+01 2.56604E+01 0.00000E+00
 -1       466 7.83512E+01 2.38712E+01 0.00000E+00
 -1       467 7.94563E+01 2.21993E+01 0.00000E+00
 -1       468 8.00054E+01 2.02125E+01 0.00000E+00
 -1       469 7.51665E+01 9.56036E+00 0.00000E+00
 -1       470 6.00864E+01 2.02093E+01 0.00000E+00
 -1       471 6.33013E+01 9.81631E+00 0.00000E+00
 -1       472 1.00350E+01 6.60425E+00 0.00000E+00
 -1       473 7.79400E+00 3.08500E+01 0.00000E+00
 -1       474 7.79400E+00 3.38000E+01 0.00000E+00
 -1       475 7.79400E+00 2.49500E+01 0.00000E+00
 -1       476 7.79400E+00 2.20000E+01 0.00000E+00
 -1       477 7.79400E+00 1.91000E+01 0.00000E+00
 -1       478 7.79400E+00 1.61500E+01 0.00000E+00
 -1       479 7.79400E+00 1.32000E+01 0.00000E+00
 -1       480 7.79400E+00 1.02500E+01 0.00000E+00
 -1       481 1.30350E+01 6.60425E+00 0.00000E+00
 -1       482 1.06500E+01 4.22060E+01 0.00000E+00
 -1       483 7.49742E+01 7.66189E+00 0.00000E+00
 -1       484 1.36500E+01 4.22060E+01 0.00000E+00
 -1       485 1.66500E+01 4.22060E+01 0.00000E+00
 -1       486 1.96500E+01 4.22060E+01 0.00000E+00
 -1       487 2.26500E+01 4.22060E+01 0.00000E+00
 -1       488 2.56500E+01 4.22060E+01 0.00000E+00
 -1       489 2.86500E+01 4.22060E+01 0.00000E+00
 -1       490 3.16500E+01 4.22060E+01 0.00000E+00
 -1       491 3.46500E+01 4.22060E+01 0.00000E+00
 -1       492 3.76500E+01 4.22060E+01 0.00000E+00
 -1       493 4.06500E+01 4.22060E+01 0.00000E+00
 -1       494 4.36500E+01 4.22060E+01 0.00000E+00
 -1       495 4.66500E+01 4.22060E+01 0.00000E+00
 -1       496 4.96500E+01 4.22060E+01 0.00000E+00
 -1       497 5.26500E+01 4.22060E+01 0.00000E+00
 -1       498 5.56500E+01 4.22060E+01 0.00000E+00
 -1       499 5.86500E+01 4.22060E+01 0.00000E+00
 -1       500 6.16500E+01 4.22060E+01 0.00000E+00
 -1       501 6.46500E+01 4.22060E+01 0.00000E+00
 -1       502 6.76500E+01 4.22060E+01 0.00000E+00
 -1       503 7.06500E+01 4.22060E+01 0.00000E+00
 -1       504 7.36500E+01 4.22060E+01 0.00000E+00
 -1       505 7.66500E+01 4.22060E+01 0.00000E+00
 -1       506 7.96500E+01 4.22060E+01 0.00000E+00
 -1       507 8.26500E+01 4.22060E+01 0.00000E+00
 -1       508 8.56500E+01 4.22060E+01 0.00000E+00
 -1       509 8.86500E+01 4.22060E+01 0.00000E+00
 -1       510 9.16500E+01 4.22060E+01 0.00000E+00
 -1       511 9.46500E+01 4.22060E+01 0.00000E+00
 -1       512 9.76500E+01 4.22060E+01 0.00000E+00
 -1       513 1.00650E+02 4.22060E+01 0.00000E+00
 -1       514 1.03650E+02 4.22060E+01 0.00000E+00
 -1       515 1.06650E+02 4.22060E+01 0.00000E+00
 -1       516 1.09650E+02 4.22060E+01 0.00000E+00
 -1       517 1.12650E+02 4.22060E+01 0.00000E+00
 -1       518 1.15650E+02 4.22060E+01 0.00000E+00
 -1       519 1.18650E+02 4.22060E+01 0.00000E+00
 -1       520 1.21650E+02 4.22060E+01 0.00000E+00
 -1       521 1.24650E+02 4.22060E+01 0.00000E+00
 -1       522 1.27650E+02 4.22060E+01 0.00000E+00
 -1       523 1.30650E+02 4.22060E+01 0.00000E+00
 -1       524 1.33650E+02 4.22060E+01 0.00000E+00
 -1       525 1.36650E+02 4.22060E+01 0.00000E+00
 -1       526 1.39650E+02 4.22060E+01 0.00000E+00
 -1       527 1.90350E+01 6.60425E+00 0.00000E+00
 -1       528 2.20350E+01 6.60425E+00 0.00000E+00
 -1       529 2.50350E+01 6.60425E+00 0.00000E+00
 -1       530 2.80350E+01 6.60425E+00 0.00000E+00
 -1       531 3.10350E+01 6.60425E+00 0.00000E+00
 -1       532 3.40350E+01 6.60425E+00 0.00000E+00
 -1       533 3.70350E+01 6.60425E+00 0.00000E+00
 -1       534 4.00350E+01 6.60425E+00 0.00000E+00
 -1       535 4.30350E+01 6.60425E+00 0.00000E+00
 -1       536 4.60350E+01 6.60425E+00 0.00000E+00
 -1       537 4.90350E+01 6.60425E+00 0.00000E+00
 -1       538 5.20350E+01 6.60425E+00 0.00000E+00
 -1       539 5.51850E+01 6.60425E+00 0.00000E+00
 -1       540 5.81850E+01 6.60425E+00 0.00000E+00
 -1       541 6.11850E+01 6.60425E+00 0.00000E+00
 -1       542 6.41850E+01 6.60425E+00 0.00000E+00
 -1       543 6.98850E+01 6.39164E+00 0.00000E+00
 -1       544 7.28100E+01 6.05650E+00 0.00000E+00
 -1       545 7.57350E+01 6.39164E+00 0.00000E+00
 -1       546 7.87350E+01 6.39164E+00 0.00000E+00
 -1       547 8.17350E+01 6.39164E+00 0.00000E+00
 -1       548 8.47350E+01 6.39164E+00 0.00000E+00
 -1       549 8.77350E+01 6.39164E+00 0.00000E+00
 -1       550 9.07350E+01 6.39164E+00 0.00000E+00
 -1       551 9.38850E+01 6.39164E+00 0.00000E+00
 -1       552 9.68850E+01 6.39164E+00 0.00000E+00
 -1       553 9.98850E+01 6.39164E+00 0.00000E+00
 -1       554 1.02885E+02 6.39164E+00 0.00000E+00
 -1       555 1.05885E+02 6.39164E+00 0.00000E+00
 -1       556 1.08885E+02 6.39164E+00 0.00000E+00
 -1       557 1.11885E+02 6.39164E+00 0.00000E+00
 -1       558 1.14885E+02 6.39164E+00 0.00000E+00
 -1       559 1.17885E+02 6.39164E+00 0.00000E+00
 -1       560 1.20885E+02 6.39164E+00 0.00000E+00
 -1       561 1.23885E+02 6.39164E+00 0.00000E+00
 -1       562 1.26885E+02 6.39164E+00 0.00000E+00
 -1       563 1.29885E+02 6.39164E+00 0.00000E+00
 -1       564 1.32885E+02 6.39164E+00 0.00000E+00
 -1       565 1.35885E+02 6.39164E+00 0.00000E+00
 -1       566 1.38885E+02 6.39164E+00 0.00000E+00
 -1       567 1.41885E+02 6.39164E+00 0.00000E+00
 -1       568 1.42206E+02 1.61750E+01 0.00000E+00
 -1       569 1.42206E+02 1.91250E+01 0.00000E+00
 -1       570 1.42206E+02 1.03250E+01 0.00000E+00
 -1       571 1.42206E+02 1.32500E+01 0.00000E+00
 -1       572 1.42206E+02 2.20750E+01 0.00000E+00
 -1       573 1.42206E+02 2.50250E+01 0.00000E+00
 -1       574 1.42206E+02 2.79750E+01 0.00000E+00
 -1       575 1.42206E+02 3.08750E+01 0.00000E+00
 -1       576 1.42206E+02 3.38250E+01 0.00000E+00
 -1       577 1.42206E+02 3.67750E+01 0.00000E+00
 -1       578 1.42206E+02 3.97250E+01 0.00000E+00
 -1       579 8.01352E+01 1.24888E+01 0.00000E+00
 -1       580 8.18004E+01 1.93470E+01 0.00000E+00
 -1       581 1.60350E+01 6.60425E+00 0.00000E+00
 -1       582 8.16907E+01 1.68929E+01 0.00000E+00
 -1       583 8.13840E+01 2.16628E+01 0.00000E+00
 -1       584 7.92300E+00 4.16780E+01 0.00000E+00
 -1       585 7.89905E+01 1.07656E+01 0.00000E+00
 -1       586 7.46672E+01 2.86872E+01 0.00000E+00
 -1       587 5.98706E+01 1.53937E+01 0.00000E+00
 -1       588 7.79400E+00 2.79000E+01 0.00000E+00
 -1       589 6.31292E+01 2.65536E+01 0.00000E+00
 -1       590 7.25591E+01 7.14941E+00 0.00000E+00
 -1       591 6.76087E+01 6.98524E+00 0.00000E+00
 -1       592 6.54754E+01 8.09696E+00 0.00000E+00
 -1       593 6.12223E+01 1.16725E+01 0.00000E+00
 -1       594 6.04529E+01 1.33423E+01 0.00000E+00
 -1       595 5.91213E+01 1.78084E+01 0.00000E+00
 -1       596 6.03557E+01 2.28929E+01 0.00000E+00
 -1       597 8.03345E+01 2.39810E+01 0.00000E+00
 -1       598 6.15274E+01 2.46073E+01 0.00000E+00
 -1       599 6.51467E+01 2.79376E+01 0.00000E+00
 -1       600 6.73662E+01 2.89995E+01 0.00000E+00
 -1       601 7.03333E+01 2.94385E+01 0.00000E+00
 -1       602 7.22223E+01 2.93426E+01 0.00000E+00
 -1       603 7.69675E+01 2.77140E+01 0.00000E+00
 -1       604 7.87203E+01 2.59576E+01 0.00000E+00
 -1       605 8.13397E+01 1.46254E+01 0.00000E+00
 -1       606 7.61550E+00 6.21462E+00 0.00000E+00
 -1       607 7.69690E+01 8.86589E+00 0.00000E+00
 -1       608 7.79400E+00 3.67375E+01 0.00000E+00
 -1       609 7.88360E+01 8.84019E+00 0.00000E+00
 -1       610 6.86873E+01 3.05204E+01 0.00000E+00
 -1       611 6.70350E+01 6.05650E+00 0.00000E+00
 -1       612 1.41678E+02 4.22645E+01 0.00000E+00
 -1       613 5.89722E+01 2.17655E+01 0.00000E+00
 -1       614 6.14168E+01 9.98162E+00 0.00000E+00
 -1       615 5.83550E+01 1.92830E+01 0.00000E+00
 -1       616 1.03920E+01 2.05500E+01 0.00000E+00
 -1       617 1.03920E+01 2.35000E+01 0.00000E+00
 -1       618 1.03920E+01 1.46750E+01 0.00000E+00
 -1       619 1.03920E+01 1.17250E+01 0.00000E+00
 -1       620 1.15350E+01 9.20225E+00 0.00000E+00
 -1       621 8.32101E+01 1.54968E+01 0.00000E+00
 -1       622 1.45350E+01 9.20225E+00 0.00000E+00
 -1       623 8.09855E+01 2.61602E+01 0.00000E+00
 -1       624 1.51500E+01 3.96080E+01 0.00000E+00
 -1       625 1.81500E+01 3.96080E+01 0.00000E+00
 -1       626 2.11500E+01 3.96080E+01 0.00000E+00
 -1       627 2.41500E+01 3.96080E+01 0.00000E+00
 -1       628 2.71500E+01 3.96080E+01 0.00000E+00
 -1       629 3.01500E+01 3.96080E+01 0.00000E+00
 -1       630 3.31500E+01 3.96080E+01 0.00000E+00
 -1       631 3.61500E+01 3.96080E+01 0.00000E+00
 -1       632 3.91500E+01 3.96080E+01 0.00000E+00
 -1       633 4.21500E+01 3.96080E+01 0.00000E+00
 -1       634 4.51500E+01 3.96080E+01 0.00000E+00
 -1       635 4.81500E+01 3.96080E+01 0.00000E+00
 -1       636 5.11500E+01 3.96080E+01 0.00000E+00
 -1       637 5.41500E+01 3.96080E+01 0.00000E+00
 -1       638 5.71500E+01 3.96080E+01 0.00000E+00
 -1       639 6.01500E+01 3.96080E+01 0.00000E+00
 -1       640 6.31500E+01 3.96080E+01 0.00000E+00
 -1       641 6.61500E+01 3.96080E+01 0.00000E+00
 -1       642 6.91500E+01 3.96080E+01 0.00000E+00
 -1       643 7.21500E+01 3.96080E+01 0.00000E+00
 -1       644 7.51500E+01 3.96080E+01 0.00000E+00
 -1       645 7.81500E+01 3.96080E+01 0.00000E+00
 -1       646 8.11500E+01 3.96080E+01 0.00000E+00
 -1       647 8.41500E+01 3.96080E+01 0.00000E+00
 -1       648 8.71500E+01 3.96080E+01 0.00000E+00
 -1       649 9.01500E+01 3.96080E+01 0.00000E+00
 -1       650 9.31500E+01 3.96080E+01 0.00000E+00
 -1       651 9.61500E+01 3.96080E+01 0.00000E+00
 -1       652 9.91500E+01 3.96080E+01 0.00000E+00
 -1       653 1.02150E+02 3.96080E+01 0.00000E+00
 -1       654 1.05150E+02 3.96080E+01 0.00000E+00
 -1       655 1.08150E+02 3.96080E+01 0.00000E+00
 -1       656 1.11150E+02 3.96080E+01 0.00000E+00
 -1       657 1.14150E+02 3.96080E+01 0.00000E+00
 -1       658 1.17150E+02 3.96080E+01 0.00000E+00
 -1       659 1.20150E+02 3.96080E+01 0.00000E+00
 -1       660 1.23150E+02 3.96080E+01 0.00000E+00
 -1       661 1.26150E+02 3.96080E+01 0.00000E+00
 -1       662 1.29150E+02 3.96080E+01 0.00000E+00
 -1       663 1.32150E+02 3.96080E+01 0.00000E+00
 -1       664 1.35150E+02 3.96080E+01 0.00000E+00
 -1       665 1.38150E+02 3.96080E+01 0.00000E+00
 -1       666 2.35350E+01 9.20225E+00 0.00000E+00
 -1       667 5.85925E+01 1.39225E+01 0.00000E+00
 -1       668 2.05350E+01 9.20225E+00 0.00000E+00
 -1       669 2.95350E+01 9.20225E+00 0.00000E+00
 -1       670 3.25350E+01 9.20225E+00 0.00000E+00
 -1       671 3.55350E+01 9.20225E+00 0.00000E+00
 -1       672 3.85350E+01 9.20225E+00 0.00000E+00
 -1       673 4.15350E+01 9.20225E+00 0.00000E+00
 -1       674 4.45350E+01 9.20225E+00 0.00000E+00
 -1       675 4.75350E+01 9.20225E+00 0.00000E+00
 -1       676 5.05350E+01 9.20225E+00 0.00000E+00
 -1       677 5.36850E+01 9.20225E+00 0.00000E+00
 -1       678 5.66850E+01 9.20225E+00 0.00000E+00
 -1       679 8.62350E+01 8.98964E+00 0.00000E+00
 -1       680 8.92350E+01 8.98964E+00 0.00000E+00
 -1       681 9.23850E+01 8.98964E+00 0.00000E+00
 -1       682 9.53850E+01 8.98964E+00 0.00000E+00
 -1       683 9.83850E+01 8.98964E+00 0.00000E+00
 -1       684 1.01385E+02 8.98964E+00 0.00000E+00
 -1       685 1.04385E+02 8.98964E+00 0.00000E+00
 -1       686 1.07385E+02 8.98964E+00 0.00000E+00
 -1       687 1.10385E+02 8.98964E+00 0.00000E+00
 -1       688 1.13385E+02 8.98964E+00 0.00000E+00
 -1       689 1.16385E+02 8.98964E+00 0.00000E+00
 -1       690 1.19385E+02 8.98964E+00 0.00000E+00
 -1       691 1.22385E+02 8.98964E+00 0.00000E+00
 -1       692 1.25385E+02 8.98964E+00 0.00000E+00
 -1       693 1.28385E+02 8.98964E+00 0.00000E+00
 -1       694 1.31385E+02 8.98964E+00 0.00000E+00
 -1       695 1.34385E+02 8.98964E+00 0.00000E+00
 -1       696 1.37385E+02 8.98964E+00 0.00000E+00
 -1       697 1.39796E+02 9.65732E+00 0.00000E+00
 -1       698 1.39608E+02 2.35500E+01 0.00000E+00
 -1       699 1.40178E+02 3.96665E+01 0.00000E+00
 -1       700 1.39608E+02 1.76500E+01 0.00000E+00
 -1       701 1.39608E+02 2.65000E+01 0.00000E+00
 -1       702 1.39608E+02 2.06000E+01 0.00000E+00
 -1       703 1.75350E+01 9.20225E+00 0.00000E+00
 -1       704 1.39608E+02 2.94000E+01 0.00000E+00
 -1       705 1.39608E+02 3.23500E+01 0.00000E+00
 -1       706 1.39608E+02 3.53000E+01 0.00000E+00
 -1       707 9.78035E+00 3.93914E+01 0.00000E+00
 -1       708 8.12707E+01 1.04928E+01 0.00000E+00
 -1       709 8.34589E+01 1.80434E+01 0.00000E+00
 -1       710 8.24217E+01 2.35293E+01 0.00000E+00
 -1       711 6.30729E+01 2.87981E+01 0.00000E+00
 -1       712 2.65350E+01 9.20225E+00 0.00000E+00
 -1       713 1.24652E+01 3.94997E+01 0.00000E+00
 -1       714 8.24751E+01 1.26293E+01 0.00000E+00
 -1       715 1.03920E+01 1.76125E+01 0.00000E+00
 -1       716 1.03920E+01 3.23250E+01 0.00000E+00
 -1       717 8.34451E+01 2.08380E+01 0.00000E+00
 -1       718 7.66162E+01 3.00888E+01 0.00000E+00
 -1       719 5.93618E+01 1.22527E+01 0.00000E+00
 -1       720 7.94138E+01 2.84023E+01 0.00000E+00
 -1       721 7.40190E+01 3.11571E+01 0.00000E+00
 -1       722 5.95256E+01 2.47179E+01 0.00000E+00
 -1       723 6.10041E+01 2.66704E+01 0.00000E+00
 -1       724 6.54439E+01 3.01669E+01 0.00000E+00
 -1       725 7.13733E+01 3.12708E+01 0.00000E+00
 -1       726 5.79379E+01 1.61175E+01 0.00000E+00
 -1       727 1.03920E+01 3.52625E+01 0.00000E+00
 -1       728 1.03920E+01 2.64500E+01 0.00000E+00
 -1       729 1.39608E+02 1.47250E+01 0.00000E+00
 -1       730 6.26850E+01 8.65450E+00 0.00000E+00
 -1       731 1.39702E+02 1.21912E+01 0.00000E+00
 -1       732 5.71716E+01 1.75921E+01 0.00000E+00
 -1       733 6.67650E+01 3.16877E+01 0.00000E+00
 -1       734 5.81421E+01 2.35905E+01 0.00000E+00
 -1       735 1.03920E+01 2.93875E+01 0.00000E+00
 -1       736 1.38879E+02 3.74540E+01 0.00000E+00
 -1       737 1.29900E+01 1.32000E+01 0.00000E+00
 -1       738 6.30658E+01 3.15483E+01 0.00000E+00
 -1       739 1.96500E+01 3.70100E+01 0.00000E+00
 -1       740 2.26500E+01 3.70100E+01 0.00000E+00
 -1       741 2.56500E+01 3.70100E+01 0.00000E+00
 -1       742 2.86500E+01 3.70100E+01 0.00000E+00
 -1       743 3.16500E+01 3.70100E+01 0.00000E+00
 -1       744 3.46500E+01 3.70100E+01 0.00000E+00
 -1       745 3.76500E+01 3.70100E+01 0.00000E+00
 -1       746 4.06500E+01 3.70100E+01 0.00000E+00
 -1       747 4.36500E+01 3.70100E+01 0.00000E+00
 -1       748 4.66500E+01 3.70100E+01 0.00000E+00
 -1       749 4.96500E+01 3.70100E+01 0.00000E+00
 -1       750 5.26500E+01 3.70100E+01 0.00000E+00
 -1       751 5.56500E+01 3.70100E+01 0.00000E+00
 -1       752 5.86500E+01 3.70100E+01 0.00000E+00
 -1       753 6.16500E+01 3.70100E+01 0.00000E+00
 -1       754 6.46500E+01 3.70100E+01 0.00000E+00
 -1       755 6.76500E+01 3.70100E+01 0.00000E+00
 -1       756 7.06500E+01 3.70100E+01 0.00000E+00
 -1       757 7.36500E+01 3.70100E+01 0.00000E+00
 -1       758 7.66500E+01 3.70100E+01 0.00000E+00
 -1       759 7.96500E+01 3.70100E+01 0.00000E+00
 -1       760 8.26500E+01 3.70100E+01 0.00000E+00
 -1       761 8.56500E+01 3.70100E+01 0.00000E+00
 -1       762 8.86500E+01 3.70100E+01 0.00000E+00
 -1       763 9.16500E+01 3.70100E+01 0.00000E+00
 -1       764 9.46500E+01 3.70100E+01 0.00000E+00
 -1       765 9.76500E+01 3.70100E+01 0.00000E+00
 -1       766 1.00650E+02 3.70100E+01 0.00000E+00
 -1       767 1.03650E+02 3.70100E+01 0.00000E+00
 -1       768 1.06650E+02 3.70100E+01 0.00000E+00
 -1       769 1.09650E+02 3.70100E+01 0.00000E+00
 -1       770 1.12650E+02 3.70100E+01 0.00000E+00
 -1       771 1.15650E+02 3.70100E+01 0.00000E+00
 -1       772 1.18650E+02 3.70100E+01 0.00000E+00
 -1       773 1.21650E+02 3.70100E+01 0.00000E+00
 -1       774 1.24650E+02 3.70100E+01 0.00000E+00
 -1       775 1.27650E+02 3.70100E+01 0.00000E+00
 -1       776 1.30650E+02 3.70100E+01 0.00000E+00
 -1       777 1.33650E+02 3.70100E+01 0.00000E+00
 -1       778 1.36264E+02 3.72320E+01 0.00000E+00
 -1       779 1.37010E+02 2.79500E+01 0.00000E+00
 -1       780 3.40350E+01 1.18003E+01 0.00000E+00
 -1       781 3.10350E+01 1.18003E+01 0.00000E+00
 -1       782 4.00350E+01 1.18003E+01 0.00000E+00
 -1       783 4.30350E+01 1.18003E+01 0.00000E+00
 -1       784 4.60350E+01 1.18003E+01 0.00000E+00
 -1       785 4.90350E+01 1.18003E+01 0.00000E+00
 -1       786 5.21850E+01 1.18003E+01 0.00000E+00
 -1       787 5.51850E+01 1.18003E+01 0.00000E+00
 -1       788 1.37625E+01 1.12011E+01 0.00000E+00
 -1       789 6.04484E+01 2.92803E+01 0.00000E+00
 -1       790 8.77350E+01 1.15876E+01 0.00000E+00
 -1       791 9.68850E+01 1.15876E+01 0.00000E+00
 -1       792 9.98850E+01 1.15876E+01 0.00000E+00
 -1       793 1.02885E+02 1.15876E+01 0.00000E+00
 -1       794 1.05885E+02 1.15876E+01 0.00000E+00
 -1       795 1.08885E+02 1.15876E+01 0.00000E+00
 -1       796 1.11885E+02 1.15876E+01 0.00000E+00
 -1       797 1.14885E+02 1.15876E+01 0.00000E+00
 -1       798 1.17885E+02 1.15876E+01 0.00000E+00
 -1       799 1.20885E+02 1.15876E+01 0.00000E+00
 -1       800 1.23885E+02 1.15876E+01 0.00000E+00
 -1       801 1.26885E+02 1.15876E+01 0.00000E+00
 -1       802 1.29885E+02 1.15876E+01 0.00000E+00
 -1       803 1.32885E+02 1.15876E+01 0.00000E+00
 -1       804 1.35885E+02 1.15876E+01 0.00000E+00
 -1       805 1.37793E+02 1.18894E+01 0.00000E+00
 -1       806 5.66740E+01 2.10189E+01 0.00000E+00
 -1       807 1.29900E+01 2.20250E+01 0.00000E+00
 -1       808 1.37010E+02 2.50000E+01 0.00000E+00
 -1       809 8.35032E+01 2.58271E+01 0.00000E+00
 -1       810 1.37010E+02 3.09000E+01 0.00000E+00
 -1       811 9.38850E+01 1.15876E+01 0.00000E+00
 -1       812 9.08100E+01 1.15876E+01 0.00000E+00
 -1       813 3.70350E+01 1.18003E+01 0.00000E+00
 -1       814 2.20350E+01 1.18003E+01 0.00000E+00
 -1       815 8.56698E+01 1.94516E+01 0.00000E+00
 -1       816 1.66500E+01 3.70100E+01 0.00000E+00
 -1       817 6.94335E+01 3.30316E+01 0.00000E+00
 -1       818 8.18785E+01 2.84581E+01 0.00000E+00
 -1       819 7.91600E+01 3.11450E+01 0.00000E+00
 -1       820 1.37010E+02 3.38500E+01 0.00000E+00
 -1       821 5.69628E+01 1.21595E+01 0.00000E+00
 -1       822 5.63082E+01 1.43546E+01 0.00000E+00
 -1       823 8.48287E+01 1.35540E+01 0.00000E+00
 -1       824 5.91898E+01 1.10706E+01 0.00000E+00
 -1       825 8.54210E+01 1.69050E+01 0.00000E+00
 -1       826 7.61612E+01 3.26740E+01 0.00000E+00
 -1       827 5.87639E+01 2.68307E+01 0.00000E+00
 -1       828 8.48498E+01 2.29124E+01 0.00000E+00
 -1       829 7.27842E+01 3.32623E+01 0.00000E+00
 -1       830 1.29900E+01 2.49750E+01 0.00000E+00
 -1       831 5.73804E+01 2.57033E+01 0.00000E+00
 -1       832 1.37010E+02 1.61875E+01 0.00000E+00
 -1       833 1.39652E+01 3.69017E+01 0.00000E+00
 -1       834 2.50350E+01 1.18003E+01 0.00000E+00
 -1       835 1.90350E+01 1.18003E+01 0.00000E+00
 -1       836 8.45057E+01 1.22277E+01 0.00000E+00
 -1       837 2.80350E+01 1.18003E+01 0.00000E+00
 -1       838 5.54906E+01 1.93281E+01 0.00000E+00
 -1       839 1.29900E+01 1.90875E+01 0.00000E+00
 -1       840 1.37010E+02 1.91375E+01 0.00000E+00
 -1       841 1.37010E+02 2.20688E+01 0.00000E+00
 -1       842 1.29900E+01 3.37938E+01 0.00000E+00
 -1       843 8.16247E+01 3.12008E+01 0.00000E+00
 -1       844 1.29900E+01 1.61437E+01 0.00000E+00
 -1       845 6.43869E+01 3.30691E+01 0.00000E+00
 -1       846 5.55420E+01 1.58292E+01 0.00000E+00
 -1       847 1.29900E+01 3.08563E+01 0.00000E+00
 -1       848 1.36637E+02 3.55410E+01 0.00000E+00
 -1       849 1.63988E+01 1.15007E+01 0.00000E+00
 -1       850 1.34412E+02 2.94250E+01 0.00000E+00
 -1       851 8.61898E+01 2.52999E+01 0.00000E+00
 -1       852 2.41500E+01 3.44120E+01 0.00000E+00
 -1       853 2.71500E+01 3.44120E+01 0.00000E+00
 -1       854 3.01500E+01 3.44120E+01 0.00000E+00
 -1       855 3.31500E+01 3.44120E+01 0.00000E+00
 -1       856 3.61500E+01 3.44120E+01 0.00000E+00
 -1       857 3.91500E+01 3.44120E+01 0.00000E+00
 -1       858 4.21500E+01 3.44120E+01 0.00000E+00
 -1       859 4.51500E+01 3.44120E+01 0.00000E+00
 -1       860 4.81500E+01 3.44120E+01 0.00000E+00
 -1       861 5.11500E+01 3.44120E+01 0.00000E+00
 -1       862 5.41500E+01 3.44120E+01 0.00000E+00
 -1       863 5.71500E+01 3.44120E+01 0.00000E+00
 -1       864 6.01500E+01 3.44120E+01 0.00000E+00
 -1       865 8.11500E+01 3.44120E+01 0.00000E+00
 -1       866 8.41500E+01 3.44120E+01 0.00000E+00
 -1       867 8.71500E+01 3.44120E+01 0.00000E+00
 -1       868 9.01500E+01 3.44120E+01 0.00000E+00
 -1       869 9.31500E+01 3.44120E+01 0.00000E+00
 -1       870 9.61500E+01 3.44120E+01 0.00000E+00
 -1       871 9.91500E+01 3.44120E+01 0.00000E+00
 -1       872 1.02150E+02 3.44120E+01 0.00000E+00
 -1       873 1.05150E+02 3.44120E+01 0.00000E+00
 -1       874 1.08150E+02 3.44120E+01 0.00000E+00
 -1       875 1.11150E+02 3.44120E+01 0.00000E+00
 -1       876 1.14150E+02 3.44120E+01 0.00000E+00
 -1       877 1.17150E+02 3.44120E+01 0.00000E+00
 -1       878 1.20150E+02 3.44120E+01 0.00000E+00
 -1       879 1.23150E+02 3.44120E+01 0.00000E+00
 -1       880 1.26150E+02 3.44120E+01 0.00000E+00
 -1       881 1.29150E+02 3.44120E+01 0.00000E+00
 -1       882 1.32150E+02 3.44120E+01 0.00000E+00
 -1       883 1.37402E+02 1.40385E+01 0.00000E+00
 -1       884 4.45350E+01 1.43982E+01 0.00000E+00
 -1       885 4.15350E+01 1.43982E+01 0.00000E+00
 -1       886 5.06100E+01 1.43982E+01 0.00000E+00
 -1       887 1.56263E+01 1.34996E+01 0.00000E+00
 -1       888 1.04385E+02 1.41856E+01 0.00000E+00
 -1       889 5.77787E+01 2.93122E+01 0.00000E+00
 -1       890 1.29900E+01 2.79188E+01 0.00000E+00
 -1       891 9.83850E+01 1.41856E+01 0.00000E+00
 -1       892 1.07385E+02 1.41856E+01 0.00000E+00
 -1       893 1.10385E+02 1.41856E+01 0.00000E+00
 -1       894 1.13385E+02 1.41856E+01 0.00000E+00
 -1       895 1.16385E+02 1.41856E+01 0.00000E+00
 -1       896 1.19385E+02 1.41856E+01 0.00000E+00
 -1       897 1.22385E+02 1.41856E+01 0.00000E+00
 -1       898 1.25385E+02 1.41856E+01 0.00000E+00
 -1       899 1.28385E+02 1.41856E+01 0.00000E+00
 -1       900 1.31385E+02 1.41856E+01 0.00000E+00
 -1       901 6.00558E+01 3.23777E+01 0.00000E+00
 -1       902 2.11500E+01 3.44120E+01 0.00000E+00
 -1       903 5.57730E+01 2.32381E+01 0.00000E+00
 -1       904 1.34412E+02 2.64750E+01 0.00000E+00
 -1       905 9.53850E+01 1.41856E+01 0.00000E+00
 -1       906 8.47205E+01 2.83959E+01 0.00000E+00
 -1       907 1.81500E+01 3.44120E+01 0.00000E+00
 -1       908 1.34412E+02 3.23750E+01 0.00000E+00
 -1       909 4.75350E+01 1.43982E+01 0.00000E+00
 -1       910 3.25350E+01 1.43982E+01 0.00000E+00
 -1       911 8.74192E+01 1.79953E+01 0.00000E+00
 -1       912 8.74738E+01 1.48143E+01 0.00000E+00
 -1       913 5.38635E+01 1.38147E+01 0.00000E+00
 -1       914 8.74179E+01 2.16934E+01 0.00000E+00
 -1       915 1.01385E+02 1.41856E+01 0.00000E+00
 -1       916 7.91374E+01 3.41054E+01 0.00000E+00
 -1       917 2.95350E+01 1.43982E+01 0.00000E+00
 -1       918 5.63952E+01 2.81848E+01 0.00000E+00
 -1       919 1.55700E+01 3.41029E+01 0.00000E+00
 -1       920 1.34650E+02 1.46471E+01 0.00000E+00
 -1       921 1.34394E+02 3.49765E+01 0.00000E+00
 -1       922 2.05350E+01 1.43982E+01 0.00000E+00
 -1       923 3.85350E+01 1.43982E+01 0.00000E+00
 -1       924 8.91672E+01 2.02370E+01 0.00000E+00
 -1       925 5.45897E+01 2.15473E+01 0.00000E+00
 -1       926 8.92725E+01 1.41856E+01 0.00000E+00
 -1       927 3.55350E+01 1.43982E+01 0.00000E+00
 -1       928 1.34650E+02 1.75971E+01 0.00000E+00
 -1       929 1.34412E+02 2.35438E+01 0.00000E+00
 -1       930 8.44667E+01 3.11385E+01 0.00000E+00
 -1       931 9.23288E+01 1.41856E+01 0.00000E+00
 -1       932 2.35350E+01 1.43982E+01 0.00000E+00
 -1       933 1.55880E+01 2.05562E+01 0.00000E+00
 -1       934 5.38609E+01 1.75651E+01 0.00000E+00
 -1       935 1.55880E+01 2.35063E+01 0.00000E+00
 -1       936 1.55700E+01 3.11654E+01 0.00000E+00
 -1       937 2.86500E+01 3.18140E+01 0.00000E+00
 -1       938 3.16500E+01 3.18140E+01 0.00000E+00
 -1       939 3.46500E+01 3.18140E+01 0.00000E+00
 -1       940 3.76500E+01 3.18140E+01 0.00000E+00
 -1       941 4.06500E+01 3.18140E+01 0.00000E+00
 -1       942 4.36500E+01 3.18140E+01 0.00000E+00
 -1       943 4.66500E+01 3.18140E+01 0.00000E+00
 -1       944 4.96500E+01 3.18140E+01 0.00000E+00
 -1       945 5.26500E+01 3.18140E+01 0.00000E+00
 -1       946 5.56500E+01 3.18140E+01 0.00000E+00
 -1       947 1.81500E+01 3.14745E+01 0.00000E+00
 -1       948 1.31814E+02 3.09000E+01 0.00000E+00
 -1       949 1.55880E+01 2.64500E+01 0.00000E+00
 -1       950 1.75351E+01 1.43983E+01 0.00000E+00
 -1       951 8.86500E+01 3.18140E+01 0.00000E+00
 -1       952 9.16500E+01 3.18140E+01 0.00000E+00
 -1       953 9.46500E+01 3.18140E+01 0.00000E+00
 -1       954 9.76500E+01 3.18140E+01 0.00000E+00
 -1       955 1.00650E+02 3.18140E+01 0.00000E+00
 -1       956 1.03650E+02 3.18140E+01 0.00000E+00
 -1       957 1.06650E+02 3.18140E+01 0.00000E+00
 -1       958 1.09650E+02 3.18140E+01 0.00000E+00
 -1       959 1.12650E+02 3.18140E+01 0.00000E+00
 -1       960 1.15650E+02 3.18140E+01 0.00000E+00
 -1       961 1.18650E+02 3.18140E+01 0.00000E+00
 -1       962 1.21650E+02 3.18140E+01 0.00000E+00
 -1       963 1.24650E+02 3.18140E+01 0.00000E+00
 -1       964 1.27650E+02 3.18140E+01 0.00000E+00
 -1       965 8.89033E+01 2.42115E+01 0.00000E+00
 -1       966 1.08885E+02 1.67836E+01 0.00000E+00
 -1       967 4.60350E+01 1.69963E+01 0.00000E+00
 -1       968 8.78022E+01 2.79618E+01 0.00000E+00
 -1       969 1.11885E+02 1.67836E+01 0.00000E+00
 -1       970 1.31385E+02 1.71356E+01 0.00000E+00
 -1       971 1.05885E+02 1.67836E+01 0.00000E+00
 -1       972 1.14885E+02 1.67836E+01 0.00000E+00
 -1       973 1.17885E+02 1.67836E+01 0.00000E+00
 -1       974 1.20885E+02 1.67836E+01 0.00000E+00
 -1       975 1.23885E+02 1.67836E+01 0.00000E+00
 -1       976 1.26885E+02 1.67836E+01 0.00000E+00
 -1       977 1.29135E+02 1.69596E+01 0.00000E+00
 -1       978 1.31814E+02 2.79500E+01 0.00000E+00
 -1       979 2.65350E+01 1.43982E+01 0.00000E+00
 -1       980 4.30350E+01 1.69963E+01 0.00000E+00
 -1       981 2.26500E+01 3.18140E+01 0.00000E+00
 -1       982 1.55880E+01 1.76125E+01 0.00000E+00
 -1       983 9.68850E+01 1.67836E+01 0.00000E+00
 -1       984 2.04000E+01 3.16443E+01 0.00000E+00
 -1       985 1.55790E+01 2.88077E+01 0.00000E+00
 -1       986 4.91100E+01 1.69963E+01 0.00000E+00
 -1       987 5.22355E+01 1.59817E+01 0.00000E+00
 -1       988 5.47189E+01 2.56821E+01 0.00000E+00
 -1       989 2.56500E+01 3.18140E+01 0.00000E+00
 -1       990 1.34412E+02 2.06125E+01 0.00000E+00
 -1       991 1.31814E+02 2.50187E+01 0.00000E+00
 -1       992 3.10350E+01 1.69963E+01 0.00000E+00
 -1       993 1.90351E+01 1.69963E+01 0.00000E+00
 -1       994 9.06527E+01 2.27551E+01 0.00000E+00
 -1       995 3.40350E+01 1.69963E+01 0.00000E+00
 -1       996 4.00350E+01 1.69963E+01 0.00000E+00
 -1       997 9.01743E+01 1.76493E+01 0.00000E+00
 -1       998 5.35356E+01 2.39912E+01 0.00000E+00
 -1       999 1.81860E+01 1.90844E+01 0.00000E+00
 -1      1000 5.29600E+01 1.97844E+01 0.00000E+00
 -1      1001 2.20351E+01 1.69963E+01 0.00000E+00
 -1      1002 9.38288E+01 1.67836E+01 0.00000E+00
 -1      1003 1.02885E+02 1.67836E+01 0.00000E+00
 -1      1004 8.96640E+01 1.64429E+01 0.00000E+00
 -1      1005 1.81860E+01 2.20344E+01 0.00000E+00
 -1      1006 9.98850E+01 1.67836E+01 0.00000E+00
 -1      1007 2.71500E+01 2.92160E+01 0.00000E+00
 -1      1008 3.31500E+01 2.92160E+01 0.00000E+00
 -1      1009 3.61500E+01 2.92160E+01 0.00000E+00
 -1      1010 3.91500E+01 2.92160E+01 0.00000E+00
 -1      1011 4.21500E+01 2.92160E+01 0.00000E+00
 -1      1012 4.51500E+01 2.92160E+01 0.00000E+00
 -1      1013 4.81500E+01 2.92160E+01 0.00000E+00
 -1      1014 5.11500E+01 2.92160E+01 0.00000E+00
 -1      1015 5.37726E+01 2.87004E+01 0.00000E+00
 -1      1016 1.81860E+01 2.49781E+01 0.00000E+00
 -1      1017 1.81590E+01 2.91168E+01 0.00000E+00
 -1      1018 9.31500E+01 2.92160E+01 0.00000E+00
 -1      1019 9.61500E+01 2.92160E+01 0.00000E+00
 -1      1020 9.91500E+01 2.92160E+01 0.00000E+00
 -1      1021 1.02150E+02 2.92160E+01 0.00000E+00
 -1      1022 1.05150E+02 2.92160E+01 0.00000E+00
 -1      1023 1.08150E+02 2.92160E+01 0.00000E+00
 -1      1024 1.11150E+02 2.92160E+01 0.00000E+00
 -1      1025 1.14150E+02 2.92160E+01 0.00000E+00
 -1      1026 1.17150E+02 2.92160E+01 0.00000E+00
 -1      1027 1.20150E+02 2.92160E+01 0.00000E+00
 -1      1028 1.23150E+02 2.92160E+01 0.00000E+00
 -1      1029 1.26150E+02 2.92160E+01 0.00000E+00
 -1      1030 1.13385E+02 1.93816E+01 0.00000E+00
 -1      1031 3.01500E+01 2.92160E+01 0.00000E+00
 -1      1032 1.10385E+02 1.93816E+01 0.00000E+00
 -1      1033 1.31147E+02 2.01510E+01 0.00000E+00
 -1      1034 1.07385E+02 1.93816E+01 0.00000E+00
 -1      1035 1.19385E+02 1.93816E+01 0.00000E+00
 -1      1036 1.22385E+02 1.93816E+01 0.00000E+00
 -1      1037 1.25385E+02 1.93816E+01 0.00000E+00
 -1      1038 2.80350E+01 1.69963E+01 0.00000E+00
 -1      1039 4.45350E+01 1.95942E+01 0.00000E+00
 -1      1040 2.41500E+01 2.92160E+01 0.00000E+00
 -1      1041 1.16385E+02 1.93816E+01 0.00000E+00
 -1      1042 5.10350E+01 1.83903E+01 0.00000E+00
 -1      1043 1.28982E+02 2.85830E+01 0.00000E+00
 -1      1044 4.76100E+01 1.95942E+01 0.00000E+00
 -1      1045 1.31481E+02 2.25849E+01 0.00000E+00
 -1      1046 9.04761E+01 2.85889E+01 0.00000E+00
 -1      1047 3.70350E+01 1.69963E+01 0.00000E+00
 -1      1048 9.18937E+01 1.98083E+01 0.00000E+00
 -1      1049 2.50350E+01 1.69963E+01 0.00000E+00
 -1      1050 2.11860E+01 1.90844E+01 0.00000E+00
 -1      1051 1.28982E+02 2.56518E+01 0.00000E+00
 -1      1052 5.19059E+01 2.22283E+01 0.00000E+00
 -1      1053 4.15350E+01 1.95942E+01 0.00000E+00
 -1      1054 2.19000E+01 2.90462E+01 0.00000E+00
 -1      1055 1.27635E+02 1.95576E+01 0.00000E+00
 -1      1056 2.95350E+01 1.95942E+01 0.00000E+00
 -1      1057 1.81725E+01 2.70475E+01 0.00000E+00
 -1      1058 9.53569E+01 1.93816E+01 0.00000E+00
 -1      1059 1.04385E+02 1.93816E+01 0.00000E+00
 -1      1060 5.23428E+01 2.66036E+01 0.00000E+00
 -1      1061 9.83569E+01 1.93816E+01 0.00000E+00
 -1      1062 9.21347E+01 2.55217E+01 0.00000E+00
 -1      1063 3.25350E+01 1.95942E+01 0.00000E+00
 -1      1064 3.76500E+01 2.66180E+01 0.00000E+00
 -1      1065 4.06500E+01 2.66180E+01 0.00000E+00
 -1      1066 4.36500E+01 2.66180E+01 0.00000E+00
 -1      1067 4.66500E+01 2.66180E+01 0.00000E+00
 -1      1068 4.94964E+01 2.66108E+01 0.00000E+00
 -1      1069 1.11885E+02 2.19796E+01 0.00000E+00
 -1      1070 9.46500E+01 2.66180E+01 0.00000E+00
 -1      1071 2.41860E+01 1.90844E+01 0.00000E+00
 -1      1072 2.56500E+01 2.66180E+01 0.00000E+00
 -1      1073 2.07840E+01 2.35063E+01 0.00000E+00
 -1      1074 4.60725E+01 2.21922E+01 0.00000E+00
 -1      1075 9.76500E+01 2.66180E+01 0.00000E+00
 -1      1076 1.00650E+02 2.66180E+01 0.00000E+00
 -1      1077 1.03650E+02 2.66180E+01 0.00000E+00
 -1      1078 1.06650E+02 2.66180E+01 0.00000E+00
 -1      1079 1.09650E+02 2.66180E+01 0.00000E+00
 -1      1080 1.12650E+02 2.66180E+01 0.00000E+00
 -1      1081 1.15650E+02 2.66180E+01 0.00000E+00
 -1      1082 1.18650E+02 2.66180E+01 0.00000E+00
 -1      1083 1.21650E+02 2.66180E+01 0.00000E+00
 -1      1084 1.24650E+02 2.66180E+01 0.00000E+00
 -1      1085 4.99809E+01 2.08342E+01 0.00000E+00
 -1      1086 9.36675E+01 2.22901E+01 0.00000E+00
 -1      1087 1.08885E+02 2.19796E+01 0.00000E+00
 -1      1088 1.23885E+02 2.19796E+01 0.00000E+00
 -1      1089 1.20885E+02 2.19796E+01 0.00000E+00
 -1      1090 2.86500E+01 2.66180E+01 0.00000E+00
 -1      1091 1.26816E+02 2.61349E+01 0.00000E+00
 -1      1092 1.01385E+02 1.93816E+01 0.00000E+00
 -1      1093 3.16500E+01 2.66180E+01 0.00000E+00
 -1      1094 3.46500E+01 2.66180E+01 0.00000E+00
 -1      1095 1.14885E+02 2.19796E+01 0.00000E+00
 -1      1096 9.66675E+01 2.22901E+01 0.00000E+00
 -1      1097 2.34000E+01 2.64482E+01 0.00000E+00
 -1      1098 2.07705E+01 2.55756E+01 0.00000E+00
 -1      1099 4.30725E+01 2.21922E+01 0.00000E+00
 -1      1100 1.05885E+02 2.19796E+01 0.00000E+00
 -1      1101 3.85350E+01 1.95942E+01 0.00000E+00
 -1      1102 1.26135E+02 2.21556E+01 0.00000E+00
 -1      1103 1.17885E+02 2.19796E+01 0.00000E+00
 -1      1104 2.65351E+01 1.95943E+01 0.00000E+00
 -1      1105 3.55350E+01 1.95942E+01 0.00000E+00
 -1      1106 5.07011E+01 2.44195E+01 0.00000E+00
 -1      1107 1.28808E+02 2.23703E+01 0.00000E+00
 -1      1108 3.10350E+01 2.21922E+01 0.00000E+00
 -1      1109 2.80351E+01 2.21923E+01 0.00000E+00
 -1      1110 1.22385E+02 2.45776E+01 0.00000E+00
 -1      1111 4.21500E+01 2.40200E+01 0.00000E+00
 -1      1112 9.96956E+01 2.22901E+01 0.00000E+00
 -1      1113 2.26860E+01 2.16824E+01 0.00000E+00
 -1      1114 1.10385E+02 2.45776E+01 0.00000E+00
 -1      1115 1.05150E+02 2.40200E+01 0.00000E+00
 -1      1116 1.14150E+02 2.40200E+01 0.00000E+00
 -1      1117 3.40350E+01 2.21922E+01 0.00000E+00
 -1      1118 2.71500E+01 2.40200E+01 0.00000E+00
 -1      1119 3.61500E+01 2.40200E+01 0.00000E+00
 -1      1120 1.02885E+02 2.19796E+01 0.00000E+00
 -1      1121 3.91500E+01 2.40200E+01 0.00000E+00
 -1      1122 2.50351E+01 2.21923E+01 0.00000E+00
 -1      1123 2.31331E+01 2.40162E+01 0.00000E+00
 -1      1124 2.39603E+01 2.47978E+01 0.00000E+00
 -1      1125 1.07768E+02 2.42988E+01 0.00000E+00
 -1      1126 1.02150E+02 2.40200E+01 0.00000E+00
 -1      1127 1.25351E+02 2.40573E+01 0.00000E+00
 -1      1128 0.00000E+00 4.85250E+01 0.00000E+00
 -1      1129 0.00000E+00 4.55750E+01 0.00000E+00
 -1      1130 0.00000E+00 4.26250E+01 0.00000E+00
 -1      1131 0.00000E+00 3.96750E+01 0.00000E+00
 -1      1132 0.00000E+00 3.67250E+01 0.00000E+00
 -1      1133 0.00000E+00 3.38000E+01 0.00000E+00
 -1      1134 0.00000E+00 3.08750E+01 0.00000E+00
 -1      1135 0.00000E+00 2.79250E+01 0.00000E+00
 -1      1136 0.00000E+00 2.49750E+01 0.00000E+00
 -1      1137 0.00000E+00 2.20250E+01 0.00000E+00
 -1      1138 0.00000E+00 1.90750E+01 0.00000E+00
 -1      1139 0.00000E+00 1.61500E+01 0.00000E+00
 -1      1140 0.00000E+00 1.32250E+01 0.00000E+00
 -1      1141 0.00000E+00 1.02750E+01 0.00000E+00
 -1      1142 0.00000E+00 7.32500E+00 0.00000E+00
 -1      1143 0.00000E+00 4.37500E+00 0.00000E+00
 -1      1144 0.00000E+00 1.45000E+00 0.00000E+00
 -1      1145 1.57500E+00 5.00000E+01 0.00000E+00
 -1      1146 4.65000E+00 5.00000E+01 0.00000E+00
 -1      1147 7.65000E+00 5.00000E+01 0.00000E+00
 -1      1148 1.06500E+01 5.00000E+01 0.00000E+00
 -1      1149 1.36500E+01 5.00000E+01 0.00000E+00
 -1      1150 1.66500E+01 5.00000E+01 0.00000E+00
 -1      1151 1.96500E+01 5.00000E+01 0.00000E+00
 -1      1152 2.26500E+01 5.00000E+01 0.00000E+00
 -1      1153 2.56500E+01 5.00000E+01 0.00000E+00
 -1      1154 2.86500E+01 5.00000E+01 0.00000E+00
 -1      1155 3.16500E+01 5.00000E+01 0.00000E+00
 -1      1156 3.46500E+01 5.00000E+01 0.00000E+00
 -1      1157 3.76500E+01 5.00000E+01 0.00000E+00
 -1      1158 4.06500E+01 5.00000E+01 0.00000E+00
 -1      1159 4.36500E+01 5.00000E+01 0.00000E+00
 -1      1160 4.66500E+01 5.00000E+01 0.00000E+00
 -1      1161 4.96500E+01 5.00000E+01 0.00000E+00
 -1      1162 5.26500E+01 5.00000E+01 0.00000E+00
 -1      1163 5.56500E+01 5.00000E+01 0.00000E+00
 -1      1164 5.86500E+01 5.00000E+01 0.00000E+00
 -1      1165 6.16500E+01 5.00000E+01 0.00000E+00
 -1      1166 6.46500E+01 5.00000E+01 0.00000E+00
 -1      1167 6.76500E+01 5.00000E+01 0.00000E+00
 -1      1168 7.06500E+01 5.00000E+01 0.00000E+00
 -1      1169 7.36500E+01 5.00000E+01 0.00000E+00
 -1      1170 7.66500E+01 5.00000E+01 0.00000E+00
 -1      1171 7.96500E+01 5.00000E+01 0.00000E+00
 -1      1172 8.26500E+01 5.00000E+01 0.00000E+00
 -1      1173 8.56500E+01 5.00000E+01 0.00000E+00
 -1      1174 8.86500E+01 5.00000E+01 0.00000E+00
 -1      1175 9.16500E+01 5.00000E+01 0.00000E+00
 -1      1176 9.46500E+01 5.00000E+01 0.00000E+00
 -1      1177 9.76500E+01 5.00000E+01 0.00000E+00
 -1      1178 1.00650E+02 5.00000E+01 0.00000E+00
 -1      1179 1.03650E+02 5.00000E+01 0.00000E+00
 -1      1180 1.06650E+02 5.00000E+01 0.00000E+00
 -1      1181 1.09650E+02 5.00000E+01 0.00000E+00
 -1      1182 1.12650E+02 5.00000E+01 0.00000E+00
 -1      1183 1.15650E+02 5.00000E+01 0.00000E+00
 -1      1184 1.18650E+02 5.00000E+01 0.00000E+00
 -1      1185 1.21650E+02 5.00000E+01 0.00000E+00
 -1      1186 1.24650E+02 5.00000E+01 0.00000E+00
 -1      1187 1.27650E+02 5.00000E+01 0.00000E+00
 -1      1188 1.30650E+02 5.00000E+01 0.00000E+00
 -1      1189 1.33650E+02 5.00000E+01 0.00000E+00
 -1      1190 1.36650E+02 5.00000E+01 0.00000E+00
 -1      1191 1.39650E+02 5.00000E+01 0.00000E+00
 -1      1192 1.42650E+02 5.00000E+01 0.00000E+00
 -1      1193 1.45650E+02 5.00000E+01 0.00000E+00
 -1      1194 1.48575E+02 5.00000E+01 0.00000E+00
 -1      1195 1.57500E+00 0.00000E+00 0.00000E+00
 -1      1196 4.65000E+00 0.00000E+00 0.00000E+00
 -1      1197 7.65000E+00 0.00000E+00 0.00000E+00
 -1      1198 1.06500E+01 0.00000E+00 0.00000E+00
 -1      1199 1.36500E+01 0.00000E+00 0.00000E+00
 -1      1200 1.66500E+01 0.00000E+00 0.00000E+00
 -1      1201 1.96500E+01 0.00000E+00 0.00000E+00
 -1      1202 2.26500E+01 0.00000E+00 0.00000E+00
 -1      1203 2.56500E+01 0.00000E+00 0.00000E+00
 -1      1204 2.86500E+01 0.00000E+00 0.00000E+00
 -1      1205 3.16500E+01 0.00000E+00 0.00000E+00
 -1      1206 3.46500E+01 0.00000E+00 0.00000E+00
 -1      1207 3.76500E+01 0.00000E+00 0.00000E+00
 -1      1208 4.06500E+01 0.00000E+00 0.00000E+00
 -1      1209 4.36500E+01 0.00000E+00 0.00000E+00
 -1      1210 4.66500E+01 0.00000E+00 0.00000E+00
 -1      1211 4.96500E+01 0.00000E+00 0.00000E+00
 -1      1212 5.26500E+01 0.00000E+00 0.00000E+00
 -1      1213 5.57250E+01 0.00000E+00 0.00000E+00
 -1      1214 5.88000E+01 0.00000E+00 0.00000E+00
 -1      1215 6.18000E+01 0.00000E+00 0.00000E+00
 -1      1216 6.48000E+01 0.00000E+00 0.00000E+00
 -1      1217 6.76500E+01 0.00000E+00 0.00000E+00
 -1      1218 7.05000E+01 0.00000E+00 0.00000E+00
 -1      1219 7.34250E+01 0.00000E+00 0.00000E+00
 -1      1220 7.63500E+01 0.00000E+00 0.00000E+00
 -1      1221 7.93500E+01 0.00000E+00 0.00000E+00
 -1      1222 8.23500E+01 0.00000E+00 0.00000E+00
 -1      1223 8.53500E+01 0.00000E+00 0.00000E+00
 -1      1224 8.83500E+01 0.00000E+00 0.00000E+00
 -1      1225 9.13500E+01 0.00000E+00 0.00000E+00
 -1      1226 9.44250E+01 0.00000E+00 0.00000E+00
 -1      1227 9.75000E+01 0.00000E+00 0.00000E+00
 -1      1228 1.00500E+02 0.00000E+00 0.00000E+00
 -1      1229 1.03500E+02 0.00000E+00 0.00000E+00
 -1      1230 1.06500E+02 0.00000E+00 0.00000E+00
 -1      1231 1.09500E+02 0.00000E+00 0.00000E+00
 -1      1232 1.12500E+02 0.00000E+00 0.00000E+00
 -1      1233 1.15500E+02 0.00000E+00 0.00000E+00
 -1      1234 1.18500E+02 0.00000E+00 0.00000E+00
 -1      1235 1.21500E+02 0.00000E+00 0.00000E+00
 -1      1236 1.24500E+02 0.00000E+00 0.00000E+00
 -1      1237 1.27500E+02 0.00000E+00 0.00000E+00
 -1      1238 1.30500E+02 0.00000E+00 0.00000E+00
 -1      1239 1.33500E+02 0.00000E+00 0.00000E+00
 -1      1240 1.36500E+02 0.00000E+00 0.00000E+00
 -1      1241 1.39500E+02 0.00000E+00 0.00000E+00
 -1      1242 1.42500E+02 0.00000E+00 0.00000E+00
 -1      1243 1.45500E+02 0.00000E+00 0.00000E+00
 -1      1244 1.48500E+02 0.00000E+00 0.00000E+00
 -1      1245 1.50000E+02 1.47500E+00 0.00000E+00
 -1      1246 1.50000E+02 4.42500E+00 0.00000E+00
 -1      1247 1.50000E+02 7.37500E+00 0.00000E+00
 -1      1248 1.50000E+02 1.03250E+01 0.00000E+00
 -1      1249 1.50000E+02 1.32750E+01 0.00000E+00
 -1      1250 1.50000E+02 1.62000E+01 0.00000E+00
 -1      1251 1.50000E+02 1.91250E+01 0.00000E+00
 -1      1252 1.50000E+02 2.20750E+01 0.00000E+00
 -1      1253 1.50000E+02 2.50250E+01 0.00000E+00
 -1      1254 1.50000E+02 2.79750E+01 0.00000E+00
 -1      1255 1.50000E+02 3.09250E+01 0.00000E+00
 -1      1256 1.50000E+02 3.38500E+01 0.00000E+00
 -1      1257 1.50000E+02 3.67750E+01 0.00000E+00
 -1      1258 1.50000E+02 3.97250E+01 0.00000E+00
 -1      1259 1.50000E+02 4.26750E+01 0.00000E+00
 -1      1260 1.50000E+02 4.56250E+01 0.00000E+00
 -1      1261 1.50000E+02 4.85500E+01 0.00000E+00
 -1      1262 7.75042E+01 1.73395E+01 0.00000E+00
 -1      1263 7.72141E+01 1.59330E+01 0.00000E+00
 -1      1264 7.66208E+01 1.45761E+01 0.00000E+00
 -1      1265 7.57464E+01 1.33644E+01 0.00000E+00
 -1      1266 7.46195E+01 1.23549E+01 0.00000E+00
 -1      1267 7.32807E+01 1.16021E+01 0.00000E+00
 -1      1268 7.18448E+01 1.11658E+01 0.00000E+00
 -1      1269 7.03538E+01 1.10455E+01 0.00000E+00
 -1      1270 6.88229E+01 1.12568E+01 0.00000E+00
 -1      1271 6.73064E+01 1.18345E+01 0.00000E+00
 -1      1272 6.59544E+01 1.27538E+01 0.00000E+00
 -1      1273 6.49121E+01 1.38801E+01 0.00000E+00
 -1      1274 6.41773E+01 1.51241E+01 0.00000E+00
 -1      1275 6.37171E+01 1.64771E+01 0.00000E+00
 -1      1276 6.35401E+01 1.79650E+01 0.00000E+00
 -1      1277 6.37018E+01 1.95410E+01 0.00000E+00
 -1      1278 6.41909E+01 2.09915E+01 0.00000E+00
 -1      1279 6.49320E+01 2.22328E+01 0.00000E+00
 -1      1280 6.59425E+01 2.33219E+01 0.00000E+00
 -1      1281 6.71615E+01 2.41740E+01 0.00000E+00
 -1      1282 6.86061E+01 2.47707E+01 0.00000E+00
 -1      1283 7.01637E+01 2.50330E+01 0.00000E+00
 -1      1284 7.16403E+01 2.49560E+01 0.00000E+00
 -1      1285 7.31103E+01 2.45539E+01 0.00000E+00
 -1      1286 7.44593E+01 2.38428E+01 0.00000E+00
 -1      1287 7.55962E+01 2.28837E+01 0.00000E+00
 -1      1288 7.65281E+01 2.16677E+01 0.00000E+00
 -1      1289 7.71682E+01 2.02932E+01 0.00000E+00
 -1      1290 7.74966E+01 1.88180E+01 0.00000E+00
 -1      1291 1.57500E+00 4.85250E+01 0.00000E+00
 -1      1292 1.29900E+00 4.48375E+01 0.00000E+00
 -1      1293 1.29900E+00 4.63125E+01 0.00000E+00
 -1      1294 1.29900E+00 4.18875E+01 0.00000E+00
 -1      1295 1.29900E+00 4.33625E+01 0.00000E+00
 -1      1296 2.59800E+00 4.41000E+01 0.00000E+00
 -1      1297 1.29900E+00 3.89375E+01 0.00000E+00
 -1      1298 1.29900E+00 4.04125E+01 0.00000E+00
 -1      1299 2.59800E+00 4.11500E+01 0.00000E+00
 -1      1300 1.29900E+00 3.59875E+01 0.00000E+00
 -1      1301 1.29900E+00 3.74625E+01 0.00000E+00
 -1      1302 2.59800E+00 3.82000E+01 0.00000E+00
 -1      1303 1.29900E+00 3.30875E+01 0.00000E+00
 -1      1304 1.29900E+00 3.45375E+01 0.00000E+00
 -1      1305 2.59800E+00 3.52750E+01 0.00000E+00
 -1      1306 1.29900E+00 3.01375E+01 0.00000E+00
 -1      1307 1.29900E+00 3.16125E+01 0.00000E+00
 -1      1308 2.59800E+00 3.23500E+01 0.00000E+00
 -1      1309 1.29900E+00 2.71875E+01 0.00000E+00
 -1      1310 1.29900E+00 2.86625E+01 0.00000E+00
 -1      1311 2.59800E+00 2.94000E+01 0.00000E+00
 -1      1312 1.29900E+00 2.42375E+01 0.00000E+00
 -1      1313 1.29900E+00 2.57125E+01 0.00000E+00
 -1      1314 2.59800E+00 2.64500E+01 0.00000E+00
 -1      1315 1.29900E+00 2.12875E+01 0.00000E+00
 -1      1316 1.29900E+00 2.27625E+01 0.00000E+00
 -1      1317 2.59800E+00 2.35000E+01 0.00000E+00
 -1      1318 1.29900E+00 1.83375E+01 0.00000E+00
 -1      1319 1.29900E+00 1.98125E+01 0.00000E+00
 -1      1320 2.59800E+00 2.05500E+01 0.00000E+00
 -1      1321 1.29900E+00 1.54375E+01 0.00000E+00
 -1      1322 1.29900E+00 1.68875E+01 0.00000E+00
 -1      1323 2.59800E+00 1.76250E+01 0.00000E+00
 -1      1324 1.29900E+00 1.24875E+01 0.00000E+00
 -1      1325 1.29900E+00 1.39625E+01 0.00000E+00
 -1      1326 2.59800E+00 1.47000E+01 0.00000E+00
 -1      1327 1.29900E+00 9.53750E+00 0.00000E+00
 -1      1328 1.29900E+00 1.10125E+01 0.00000E+00
 -1      1329 2.59800E+00 1.17500E+01 0.00000E+00
 -1      1330 1.29900E+00 6.58750E+00 0.00000E+00
 -1      1331 1.29900E+00 8.06250E+00 0.00000E+00
 -1      1332 2.59800E+00 8.80000E+00 0.00000E+00
 -1      1333 1.29900E+00 3.63750E+00 0.00000E+00
 -1      1334 1.29900E+00 5.11250E+00 0.00000E+00
 -1      1335 2.59800E+00 5.85000E+00 0.00000E+00
 -1      1336 1.43700E+00 1.09375E+00 0.00000E+00
 -1      1337 1.43700E+00 2.54375E+00 0.00000E+00
 -1      1338 2.73600E+00 3.28125E+00 0.00000E+00
 -1      1339 3.01200E+00 1.09375E+00 0.00000E+00
 -1      1340 3.90000E+00 4.87010E+01 0.00000E+00
 -1      1341 5.40000E+00 4.87010E+01 0.00000E+00
 -1      1342 6.90000E+00 4.87010E+01 0.00000E+00
 -1      1343 8.40000E+00 4.87010E+01 0.00000E+00
 -1      1344 6.15000E+00 4.74020E+01 0.00000E+00
 -1      1345 9.90000E+00 4.87010E+01 0.00000E+00
 -1      1346 1.14000E+01 4.87010E+01 0.00000E+00
 -1      1347 9.15000E+00 4.74020E+01 0.00000E+00
 -1      1348 1.29000E+01 4.87010E+01 0.00000E+00
 -1      1349 1.44000E+01 4.87010E+01 0.00000E+00
 -1      1350 1.21500E+01 4.74020E+01 0.00000E+00
 -1      1351 1.59000E+01 4.87010E+01 0.00000E+00
 -1      1352 1.74000E+01 4.87010E+01 0.00000E+00
 -1      1353 1.51500E+01 4.74020E+01 0.00000E+00
 -1      1354 1.89000E+01 4.87010E+01 0.00000E+00
 -1      1355 2.04000E+01 4.87010E+01 0.00000E+00
 -1      1356 1.81500E+01 4.74020E+01 0.00000E+00
 -1      1357 2.19000E+01 4.87010E+01 0.00000E+00
 -1      1358 2.34000E+01 4.87010E+01 0.00000E+00
 -1      1359 2.11500E+01 4.74020E+01 0.00000E+00
 -1      1360 2.49000E+01 4.87010E+01 0.00000E+00
 -1      1361 2.64000E+01 4.87010E+01 0.00000E+00
 -1      1362 2.41500E+01 4.74020E+01 0.00000E+00
 -1      1363 2.79000E+01 4.87010E+01 0.00000E+00
 -1      1364 2.94000E+01 4.87010E+01 0.00000E+00
 -1      1365 2.71500E+01 4.74020E+01 0.00000E+00
 -1      1366 3.09000E+01 4.87010E+01 0.00000E+00
 -1      1367 3.24000E+01 4.87010E+01 0.00000E+00
 -1      1368 3.01500E+01 4.74020E+01 0.00000E+00
 -1      1369 3.39000E+01 4.87010E+01 0.00000E+00
 -1      1370 3.54000E+01 4.87010E+01 0.00000E+00
 -1      1371 3.31500E+01 4.74020E+01 0.00000E+00
 -1      1372 3.69000E+01 4.87010E+01 0.00000E+00
 -1      1373 3.84000E+01 4.87010E+01 0.00000E+00
 -1      1374 3.61500E+01 4.74020E+01 0.00000E+00
 -1      1375 3.99000E+01 4.87010E+01 0.00000E+00
 -1      1376 4.14000E+01 4.87010E+01 0.00000E+00
 -1      1377 3.91500E+01 4.74020E+01 0.00000E+00
 -1      1378 4.29000E+01 4.87010E+01 0.00000E+00
 -1      1379 4.44000E+01 4.87010E+01 0.00000E+00
 -1      1380 4.21500E+01 4.74020E+01 0.00000E+00
 -1      1381 4.59000E+01 4.87010E+01 0.00000E+00
 -1      1382 4.74000E+01 4.87010E+01 0.00000E+00
 -1      1383 4.51500E+01 4.74020E+01 0.00000E+00
 -1      1384 4.89000E+01 4.87010E+01 0.00000E+00
 -1      1385 5.04000E+01 4.87010E+01 0.00000E+00
 -1      1386 4.81500E+01 4.74020E+01 0.00000E+00
 -1      1387 5.19000E+01 4.87010E+01 0.00000E+00
 -1      1388 5.34000E+01 4.87010E+01 0.00000E+00
 -1      1389 5.11500E+01 4.74020E+01 0.00000E+00
 -1      1390 5.49000E+01 4.87010E+01 0.00000E+00
 -1      1391 5.64000E+01 4.87010E+01 0.00000E+00
 -1      1392 5.41500E+01 4.74020E+01 0.00000E+00
 -1      1393 5.79000E+01 4.87010E+01 0.00000E+00
 -1      1394 5.94000E+01 4.87010E+01 0.00000E+00
 -1      1395 5.71500E+01 4.74020E+01 0.00000E+00
 -1      1396 6.09000E+01 4.87010E+01 0.00000E+00
 -1      1397 6.24000E+01 4.87010E+01 0.00000E+00
 -1      1398 6.01500E+01 4.74020E+01 0.00000E+00
 -1      1399 6.39000E+01 4.87010E+01 0.00000E+00
 -1      1400 6.54000E+01 4.87010E+01 0.00000E+00
 -1      1401 6.31500E+01 4.74020E+01 0.00000E+00
 -1      1402 6.69000E+01 4.87010E+01 0.00000E+00
 -1      1403 6.84000E+01 4.87010E+01 0.00000E+00
 -1      1404 6.61500E+01 4.74020E+01 0.00000E+00
 -1      1405 6.99000E+01 4.87010E+01 0.00000E+00
 -1      1406 7.14000E+01 4.87010E+01 0.00000E+00
 -1      1407 6.91500E+01 4.74020E+01 0.00000E+00
 -1      1408 7.29000E+01 4.87010E+01 0.00000E+00
 -1      1409 7.44000E+01 4.87010E+01 0.00000E+00
 -1      1410 7.21500E+01 4.74020E+01 0.00000E+00
 -1      1411 7.59000E+01 4.87010E+01 0.00000E+00
 -1      1412 7.74000E+01 4.87010E+01 0.00000E+00
 -1      1413 7.51500E+01 4.74020E+01 0.00000E+00
 -1      1414 7.89000E+01 4.87010E+01 0.00000E+00
 -1      1415 8.04000E+01 4.87010E+01 0.00000E+00
 -1      1416 7.81500E+01 4.74020E+01 0.00000E+00
 -1      1417 8.19000E+01 4.87010E+01 0.00000E+00
 -1      1418 8.34000E+01 4.87010E+01 0.00000E+00
 -1      1419 8.11500E+01 4.74020E+01 0.00000E+00
 -1      1420 8.49000E+01 4.87010E+01 0.00000E+00
 -1      1421 8.64000E+01 4.87010E+01 0.00000E+00
 -1      1422 8.41500E+01 4.74020E+01 0.00000E+00
 -1      1423 8.79000E+01 4.87010E+01 0.00000E+00
 -1      1424 8.94000E+01 4.87010E+01 0.00000E+00
 -1      1425 8.71500E+01 4.74020E+01 0.00000E+00
 -1      1426 9.09000E+01 4.87010E+01 0.00000E+00
 -1      1427 9.24000E+01 4.87010E+01 0.00000E+00
 -1      1428 9.01500E+01 4.74020E+01 0.00000E+00
 -1      1429 9.39000E+01 4.87010E+01 0.00000E+00
 -1      1430 9.54000E+01 4.87010E+01 0.00000E+00
 -1      1431 9.31500E+01 4.74020E+01 0.00000E+00
 -1      1432 9.69000E+01 4.87010E+01 0.00000E+00
 -1      1433 9.84000E+01 4.87010E+01 0.00000E+00
 -1      1434 9.61500E+01 4.74020E+01 0.00000E+00
 -1      1435 9.99000E+01 4.87010E+01 0.00000E+00
 -1      1436 1.01400E+02 4.87010E+01 0.00000E+00
 -1      1437 9.91500E+01 4.74020E+01 0.00000E+00
 -1      1438 1.02900E+02 4.87010E+01 0.00000E+00
 -1      1439 1.04400E+02 4.87010E+01 0.00000E+00
 -1      1440 1.02150E+02 4.74020E+01 0.00000E+00
 -1      1441 1.05900E+02 4.87010E+01 0.00000E+00
 -1      1442 1.07400E+02 4.87010E+01 0.00000E+00
 -1      1443 1.05150E+02 4.74020E+01 0.00000E+00
 -1      1444 1.08900E+02 4.87010E+01 0.00000E+00
 -1      1445 1.10400E+02 4.87010E+01 0.00000E+00
 -1      1446 1.08150E+02 4.74020E+01 0.00000E+00
 -1      1447 1.11900E+02 4.87010E+01 0.00000E+00
 -1      1448 1.13400E+02 4.87010E+01 0.00000E+00
 -1      1449 1.11150E+02 4.74020E+01 0.00000E+00
 -1      1450 1.14900E+02 4.87010E+01 0.00000E+00
 -1      1451 1.16400E+02 4.87010E+01 0.00000E+00
 -1      1452 1.14150E+02 4.74020E+01 0.00000E+00
 -1      1453 1.17900E+02 4.87010E+01 0.00000E+00
 -1      1454 1.19400E+02 4.87010E+01 0.00000E+00
 -1      1455 1.17150E+02 4.74020E+01 0.00000E+00
 -1      1456 1.20900E+02 4.87010E+01 0.00000E+00
 -1      1457 1.22400E+02 4.87010E+01 0.00000E+00
 -1      1458 1.20150E+02 4.74020E+01 0.00000E+00
 -1      1459 1.23900E+02 4.87010E+01 0.00000E+00
 -1      1460 1.25400E+02 4.87010E+01 0.00000E+00
 -1      1461 1.23150E+02 4.74020E+01 0.00000E+00
 -1      1462 1.26900E+02 4.87010E+01 0.00000E+00
 -1      1463 1.28400E+02 4.87010E+01 0.00000E+00
 -1      1464 1.26150E+02 4.74020E+01 0.00000E+00
 -1      1465 1.29900E+02 4.87010E+01 0.00000E+00
 -1      1466 1.31400E+02 4.87010E+01 0.00000E+00
 -1      1467 1.29150E+02 4.74020E+01 0.00000E+00
 -1      1468 1.32900E+02 4.87010E+01 0.00000E+00
 -1      1469 1.34400E+02 4.87010E+01 0.00000E+00
 -1      1470 1.32150E+02 4.74020E+01 0.00000E+00
 -1      1471 1.35900E+02 4.87010E+01 0.00000E+00
 -1      1472 1.37400E+02 4.87010E+01 0.00000E+00
 -1      1473 1.35150E+02 4.74020E+01 0.00000E+00
 -1      1474 1.38900E+02 4.87010E+01 0.00000E+00
 -1      1475 1.40400E+02 4.87010E+01 0.00000E+00
 -1      1476 1.38150E+02 4.74020E+01 0.00000E+00
 -1      1477 1.41900E+02 4.87010E+01 0.00000E+00
 -1      1478 1.43400E+02 4.87010E+01 0.00000E+00
 -1      1479 1.41150E+02 4.74020E+01 0.00000E+00
 -1      1480 1.44900E+02 4.87010E+01 0.00000E+00
 -1      1481 1.46400E+02 4.87010E+01 0.00000E+00
 -1      1482 1.44150E+02 4.74020E+01 0.00000E+00
 -1      1483 1.48575E+02 4.85500E+01 0.00000E+00
 -1      1484 1.47825E+02 4.72510E+01 0.00000E+00
 -1      1485 6.01200E+00 1.09375E+00 0.00000E+00
 -1      1486 4.51200E+00 1.09375E+00 0.00000E+00
 -1      1487 4.37400E+00 2.18750E+00 0.00000E+00
 -1      1488 9.01200E+00 1.09375E+00 0.00000E+00
 -1      1489 7.51200E+00 1.09375E+00 0.00000E+00
 -1      1490 7.37400E+00 2.18750E+00 0.00000E+00
 -1      1491 1.20120E+01 1.09375E+00 0.00000E+00
 -1      1492 1.05120E+01 1.09375E+00 0.00000E+00
 -1      1493 1.03740E+01 2.18750E+00 0.00000E+00
 -1      1494 1.50120E+01 1.09375E+00 0.00000E+00
 -1      1495 1.35120E+01 1.09375E+00 0.00000E+00
 -1      1496 1.33740E+01 2.18750E+00 0.00000E+00
 -1      1497 1.80120E+01 1.09375E+00 0.00000E+00
 -1      1498 1.65120E+01 1.09375E+00 0.00000E+00
 -1      1499 1.63740E+01 2.18750E+00 0.00000E+00
 -1      1500 2.10120E+01 1.09375E+00 0.00000E+00
 -1      1501 1.95120E+01 1.09375E+00 0.00000E+00
 -1      1502 1.93740E+01 2.18750E+00 0.00000E+00
 -1      1503 2.40120E+01 1.09375E+00 0.00000E+00
 -1      1504 2.25120E+01 1.09375E+00 0.00000E+00
 -1      1505 2.23740E+01 2.18750E+00 0.00000E+00
 -1      1506 2.70120E+01 1.09375E+00 0.00000E+00
 -1      1507 2.55120E+01 1.09375E+00 0.00000E+00
 -1      1508 2.53740E+01 2.18750E+00 0.00000E+00
 -1      1509 3.00120E+01 1.09375E+00 0.00000E+00
 -1      1510 2.85120E+01 1.09375E+00 0.00000E+00
 -1      1511 2.83740E+01 2.18750E+00 0.00000E+00
 -1      1512 3.30120E+01 1.09375E+00 0.00000E+00
 -1      1513 3.15120E+01 1.09375E+00 0.00000E+00
 -1      1514 3.13740E+01 2.18750E+00 0.00000E+00
 -1      1515 3.60120E+01 1.09375E+00 0.00000E+00
 -1      1516 3.45120E+01 1.09375E+00 0.00000E+00
 -1      1517 3.43740E+01 2.18750E+00 0.00000E+00
 -1      1518 3.90120E+01 1.09375E+00 0.00000E+00
 -1      1519 3.75120E+01 1.09375E+00 0.00000E+00
 -1      1520 3.73740E+01 2.18750E+00 0.00000E+00
 -1      1521 4.20120E+01 1.09375E+00 0.00000E+00
 -1      1522 4.05120E+01 1.09375E+00 0.00000E+00
 -1      1523 4.03740E+01 2.18750E+00 0.00000E+00
 -1      1524 4.50120E+01 1.09375E+00 0.00000E+00
 -1      1525 4.35120E+01 1.09375E+00 0.00000E+00
 -1      1526 4.33740E+01 2.18750E+00 0.00000E+00
 -1      1527 4.80120E+01 1.09375E+00 0.00000E+00
 -1      1528 4.65120E+01 1.09375E+00 0.00000E+00
 -1      1529 4.63740E+01 2.18750E+00 0.00000E+00
 -1      1530 5.10120E+01 1.09375E+00 0.00000E+00
 -1      1531 4.95120E+01 1.09375E+00 0.00000E+00
 -1      1532 4.93740E+01 2.18750E+00 0.00000E+00
 -1      1533 5.40120E+01 1.09375E+00 0.00000E+00
 -1      1534 5.25120E+01 1.09375E+00 0.00000E+00
 -1      1535 5.23740E+01 2.18750E+00 0.00000E+00
 -1      1536 5.71620E+01 1.09375E+00 0.00000E+00
 -1      1537 5.55870E+01 1.09375E+00 0.00000E+00
 -1      1538 5.54490E+01 2.18750E+00 0.00000E+00
 -1      1539 6.01620E+01 1.09375E+00 0.00000E+00
 -1      1540 5.86620E+01 1.09375E+00 0.00000E+00
 -1      1541 5.85240E+01 2.18750E+00 0.00000E+00
 -1      1542 6.31620E+01 1.09375E+00 0.00000E+00
 -1      1543 6.16620E+01 1.09375E+00 0.00000E+00
 -1      1544 6.15240E+01 2.18750E+00 0.00000E+00
 -1      1545 6.61620E+01 1.09375E+00 0.00000E+00
 -1      1546 6.46620E+01 1.09375E+00 0.00000E+00
 -1      1547 6.45240E+01 2.18750E+00 0.00000E+00
 -1      1548 6.88620E+01 1.09375E+00 0.00000E+00
 -1      1549 6.75120E+01 1.09375E+00 0.00000E+00
 -1      1550 6.73740E+01 2.18750E+00 0.00000E+00
 -1      1551 7.18620E+01 1.09375E+00 0.00000E+00
 -1      1552 7.03620E+01 1.09375E+00 0.00000E+00
 -1      1553 7.02240E+01 2.18750E+00 0.00000E+00
 -1      1554 7.47120E+01 1.09375E+00 0.00000E+00
 -1      1555 7.32870E+01 1.09375E+00 0.00000E+00
 -1      1556 7.31490E+01 2.18750E+00 0.00000E+00
 -1      1557 7.77120E+01 1.09375E+00 0.00000E+00
 -1      1558 7.62120E+01 1.09375E+00 0.00000E+00
 -1      1559 7.60740E+01 2.18750E+00 0.00000E+00
 -1      1560 8.07120E+01 1.09375E+00 0.00000E+00
 -1      1561 7.92120E+01 1.09375E+00 0.00000E+00
 -1      1562 7.90740E+01 2.18750E+00 0.00000E+00
 -1      1563 8.37120E+01 1.09375E+00 0.00000E+00
 -1      1564 8.22120E+01 1.09375E+00 0.00000E+00
 -1      1565 8.20740E+01 2.18750E+00 0.00000E+00
 -1      1566 8.67120E+01 1.09375E+00 0.00000E+00
 -1      1567 8.52120E+01 1.09375E+00 0.00000E+00
 -1      1568 8.50740E+01 2.18750E+00 0.00000E+00
 -1      1569 8.97120E+01 1.09375E+00 0.00000E+00
 -1      1570 8.82120E+01 1.09375E+00 0.00000E+00
 -1      1571 8.80740E+01 2.18750E+00 0.00000E+00
 -1      1572 9.27120E+01 1.09375E+00 0.00000E+00
 -1      1573 9.12120E+01 1.09375E+00 0.00000E+00
 -1      1574 9.10740E+01 2.18750E+00 0.00000E+00
 -1      1575 9.58620E+01 1.09375E+00 0.00000E+00
 -1      1576 9.42870E+01 1.09375E+00 0.00000E+00
 -1      1577 9.41490E+01 2.18750E+00 0.00000E+00
 -1      1578 9.88620E+01 1.09375E+00 0.00000E+00
 -1      1579 9.73620E+01 1.09375E+00 0.00000E+00
 -1      1580 9.72240E+01 2.18750E+00 0.00000E+00
 -1      1581 1.01862E+02 1.09375E+00 0.00000E+00
 -1      1582 1.00362E+02 1.09375E+00 0.00000E+00
 -1      1583 1.00224E+02 2.18750E+00 0.00000E+00
 -1      1584 1.04862E+02 1.09375E+00 0.00000E+00
 -1      1585 1.03362E+02 1.09375E+00 0.00000E+00
 -1      1586 1.03224E+02 2.18750E+00 0.00000E+00
 -1      1587 1.07862E+02 1.09375E+00 0.00000E+00
 -1      1588 1.06362E+02 1.09375E+00 0.00000E+00
 -1      1589 1.06224E+02 2.18750E+00 0.00000E+00
 -1      1590 1.10862E+02 1.09375E+00 0.00000E+00
 -1      1591 1.09362E+02 1.09375E+00 0.00000E+00
 -1      1592 1.09224E+02 2.18750E+00 0.00000E+00
 -1      1593 1.13862E+02 1.09375E+00 0.00000E+00
 -1      1594 1.12362E+02 1.09375E+00 0.00000E+00
 -1      1595 1.12224E+02 2.18750E+00 0.00000E+00
 -1      1596 1.16862E+02 1.09375E+00 0.00000E+00
 -1      1597 1.15362E+02 1.09375E+00 0.00000E+00
 -1      1598 1.15224E+02 2.18750E+00 0.00000E+00
 -1      1599 1.19862E+02 1.09375E+00 0.00000E+00
 -1      1600 1.18362E+02 1.09375E+00 0.00000E+00
 -1      1601 1.18224E+02 2.18750E+00 0.00000E+00
 -1      1602 1.22862E+02 1.09375E+00 0.00000E+00
 -1      1603 1.21362E+02 1.09375E+00 0.00000E+00
 -1      1604 1.21224E+02 2.18750E+00 0.00000E+00
 -1      1605 1.25862E+02 1.09375E+00 0.00000E+00
 -1      1606 1.24362E+02 1.09375E+00 0.00000E+00
 -1      1607 1.24224E+02 2.18750E+00 0.00000E+00
 -1      1608 1.28862E+02 1.09375E+00 0.00000E+00
 -1      1609 1.27362E+02 1.09375E+00 0.00000E+00
 -1      1610 1.27224E+02 2.18750E+00 0.00000E+00
 -1      1611 1.31862E+02 1.09375E+00 0.00000E+00
 -1      1612 1.30362E+02 1.09375E+00 0.00000E+00
 -1      1613 1.30224E+02 2.18750E+00 0.00000E+00
 -1      1614 1.34862E+02 1.09375E+00 0.00000E+00
 -1      1615 1.33362E+02 1.09375E+00 0.00000E+00
 -1      1616 1.33224E+02 2.18750E+00 0.00000E+00
 -1      1617 1.37862E+02 1.09375E+00 0.00000E+00
 -1      1618 1.36362E+02 1.09375E+00 0.00000E+00
 -1      1619 1.36224E+02 2.18750E+00 0.00000E+00
 -1      1620 1.40862E+02 1.09375E+00 0.00000E+00
 -1      1621 1.39362E+02 1.09375E+00 0.00000E+00
 -1      1622 1.39224E+02 2.18750E+00 0.00000E+00
 -1      1623 1.43862E+02 1.09375E+00 0.00000E+00
 -1      1624 1.42362E+02 1.09375E+00 0.00000E+00
 -1      1625 1.42224E+02 2.18750E+00 0.00000E+00
 -1      1626 1.46862E+02 1.09375E+00 0.00000E+00
 -1      1627 1.45362E+02 1.09375E+00 0.00000E+00
 -1      1628 1.45224E+02 2.18750E+00 0.00000E+00
 -1      1629 1.48500E+02 1.47500E+00 0.00000E+00
 -1      1630 1.48701E+02 5.16250E+00 0.00000E+00
 -1      1631 1.48701E+02 3.68750E+00 0.00000E+00
 -1      1632 1.48701E+02 8.11250E+00 0.00000E+00
 -1      1633 1.48701E+02 6.63750E+00 0.00000E+00
 -1      1634 1.47402E+02 5.90000E+00 0.00000E+00
 -1      1635 1.48701E+02 1.10625E+01 0.00000E+00
 -1      1636 1.48701E+02 9.58750E+00 0.00000E+00
 -1      1637 1.47402E+02 8.85000E+00 0.00000E+00
 -1      1638 1.48701E+02 1.40125E+01 0.00000E+00
 -1      1639 1.48701E+02 1.25375E+01 0.00000E+00
 -1      1640 1.47402E+02 1.18000E+01 0.00000E+00
 -1      1641 1.48701E+02 1.69125E+01 0.00000E+00
 -1      1642 1.48701E+02 1.54625E+01 0.00000E+00
 -1      1643 1.47402E+02 1.47250E+01 0.00000E+00
 -1      1644 1.48701E+02 1.98625E+01 0.00000E+00
 -1      1645 1.48701E+02 1.83875E+01 0.00000E+00
 -1      1646 1.47402E+02 1.76500E+01 0.00000E+00
 -1      1647 1.48701E+02 2.28125E+01 0.00000E+00
 -1      1648 1.48701E+02 2.13375E+01 0.00000E+00
 -1      1649 1.47402E+02 2.06000E+01 0.00000E+00
 -1      1650 1.48701E+02 2.57625E+01 0.00000E+00
 -1      1651 1.48701E+02 2.42875E+01 0.00000E+00
 -1      1652 1.47402E+02 2.35500E+01 0.00000E+00
 -1      1653 1.48701E+02 2.87125E+01 0.00000E+00
 -1      1654 1.48701E+02 2.72375E+01 0.00000E+00
 -1      1655 1.47402E+02 2.65000E+01 0.00000E+00
 -1      1656 1.48701E+02 3.16625E+01 0.00000E+00
 -1      1657 1.48701E+02 3.01875E+01 0.00000E+00
 -1      1658 1.47402E+02 2.94500E+01 0.00000E+00
 -1      1659 1.48701E+02 3.45625E+01 0.00000E+00
 -1      1660 1.48701E+02 3.31125E+01 0.00000E+00
 -1      1661 1.47402E+02 3.23750E+01 0.00000E+00
 -1      1662 1.48701E+02 3.75125E+01 0.00000E+00
 -1      1663 1.48701E+02 3.60375E+01 0.00000E+00
 -1      1664 1.47402E+02 3.53000E+01 0.00000E+00
 -1      1665 1.48701E+02 4.04625E+01 0.00000E+00
 -1      1666 1.48701E+02 3.89875E+01 0.00000E+00
 -1      1667 1.47402E+02 3.82500E+01 0.00000E+00
 -1      1668 1.48701E+02 4.34125E+01 0.00000E+00
 -1      1669 1.48701E+02 4.19375E+01 0.00000E+00
 -1      1670 1.47402E+02 4.12000E+01 0.00000E+00
 -1      1671 1.48263E+02 4.60692E+01 0.00000E+00
 -1      1672 1.48263E+02 4.45942E+01 0.00000E+00
 -1      1673 1.46964E+02 4.38568E+01 0.00000E+00
 -1      1674 1.46088E+02 4.62202E+01 0.00000E+00
 -1      1675 7.80367E+01 1.69322E+01 0.00000E+00
 -1      1676 7.81074E+01 1.76322E+01 0.00000E+00
 -1      1677 7.76849E+01 1.54000E+01 0.00000E+00
 -1      1678 7.79058E+01 1.60985E+01 0.00000E+00
 -1      1679 7.69272E+01 1.39707E+01 0.00000E+00
 -1      1680 7.72979E+01 1.46208E+01 0.00000E+00
 -1      1681 7.59495E+01 1.26804E+01 0.00000E+00
 -1      1682 7.64481E+01 1.32353E+01 0.00000E+00
 -1      1683 7.46854E+01 1.16050E+01 0.00000E+00
 -1      1684 7.53087E+01 1.20520E+01 0.00000E+00
 -1      1685 7.31478E+01 1.09327E+01 0.00000E+00
 -1      1686 7.38553E+01 1.12338E+01 0.00000E+00
 -1      1687 7.15911E+01 1.05397E+01 0.00000E+00
 -1      1688 7.23101E+01 1.06761E+01 0.00000E+00
 -1      1689 6.99548E+01 1.04077E+01 0.00000E+00
 -1      1690 7.07184E+01 1.03874E+01 0.00000E+00
 -1      1691 6.82650E+01 1.06450E+01 0.00000E+00
 -1      1692 6.90227E+01 1.04533E+01 0.00000E+00
 -1      1693 6.66188E+01 1.14246E+01 0.00000E+00
 -1      1694 6.73648E+01 1.10361E+01 0.00000E+00
 -1      1695 6.51498E+01 1.24316E+01 0.00000E+00
 -1      1696 6.57496E+01 1.19117E+01 0.00000E+00
 -1      1697 6.42024E+01 1.38158E+01 0.00000E+00
 -1      1698 6.46430E+01 1.32202E+01 0.00000E+00
 -1      1699 6.35118E+01 1.52060E+01 0.00000E+00
 -1      1700 6.38054E+01 1.45661E+01 0.00000E+00
 -1      1701 6.30410E+01 1.66939E+01 0.00000E+00
 -1      1702 6.32032E+01 1.59872E+01 0.00000E+00
 -1      1703 6.28887E+01 1.83444E+01 0.00000E+00
 -1      1704 6.28973E+01 1.75711E+01 0.00000E+00
 -1      1705 6.30788E+01 2.00926E+01 0.00000E+00
 -1      1706 6.29052E+01 1.93004E+01 0.00000E+00
 -1      1707 6.38263E+01 2.15576E+01 0.00000E+00
 -1      1708 6.35232E+01 2.09049E+01 0.00000E+00
 -1      1709 6.46604E+01 2.28890E+01 0.00000E+00
 -1      1710 6.42258E+01 2.23073E+01 0.00000E+00
 -1      1711 6.58028E+01 2.40604E+01 0.00000E+00
 -1      1712 6.52301E+01 2.35616E+01 0.00000E+00
 -1      1713 6.71858E+01 2.48840E+01 0.00000E+00
 -1      1714 6.65483E+01 2.45328E+01 0.00000E+00
 -1      1715 6.88191E+01 2.55414E+01 0.00000E+00
 -1      1716 6.80165E+01 2.53107E+01 0.00000E+00
 -1      1717 7.05027E+01 2.56605E+01 0.00000E+00
 -1      1718 6.97594E+01 2.56205E+01 0.00000E+00
 -1      1719 7.20921E+01 2.54588E+01 0.00000E+00
 -1      1720 7.13670E+01 2.55742E+01 0.00000E+00
 -1      1721 7.37146E+01 2.50091E+01 0.00000E+00
 -1      1722 7.29800E+01 2.52992E+01 0.00000E+00
 -1      1723 7.51051E+01 2.41418E+01 0.00000E+00
 -1      1724 7.44959E+01 2.45535E+01 0.00000E+00
 -1      1725 7.63556E+01 2.30901E+01 0.00000E+00
 -1      1726 7.58355E+01 2.36335E+01 0.00000E+00
 -1      1727 7.72472E+01 2.16472E+01 0.00000E+00
 -1      1728 7.68434E+01 2.23143E+01 0.00000E+00
 -1      1729 7.78634E+01 2.01403E+01 0.00000E+00
 -1      1730 7.76267E+01 2.08377E+01 0.00000E+00
 -1      1731 7.81825E+01 1.85045E+01 0.00000E+00
 -1      1732 7.80967E+01 1.92746E+01 0.00000E+00
 -1      1733 7.60400E+01 1.18962E+01 0.00000E+00
 -1      1734 7.71600E+01 1.32601E+01 0.00000E+00
 -1      1735 1.48362E+02 2.56875E+00 0.00000E+00
 -1      1736 1.47063E+02 3.30625E+00 0.00000E+00
 -1      1737 7.85443E+01 1.63876E+01 0.00000E+00
 -1      1738 7.80263E+01 1.47747E+01 0.00000E+00
 -1      1739 7.87503E+01 1.80936E+01 0.00000E+00
 -1      1740 7.45691E+01 1.08966E+01 0.00000E+00
 -1      1741 7.29013E+01 1.02689E+01 0.00000E+00
 -1      1742 7.11910E+01 9.86010E+00 0.00000E+00
 -1      1743 6.93862E+01 9.75342E+00 0.00000E+00
 -1      1744 6.75539E+01 1.01901E+01 0.00000E+00
 -1      1745 6.57846E+01 1.10683E+01 0.00000E+00
 -1      1746 6.44086E+01 1.23440E+01 0.00000E+00
 -1      1747 6.35046E+01 1.38829E+01 0.00000E+00
 -1      1748 6.27990E+01 1.54144E+01 0.00000E+00
 -1      1749 6.23467E+01 1.70728E+01 0.00000E+00
 -1      1750 6.22196E+01 1.89061E+01 0.00000E+00
 -1      1751 6.26806E+01 2.06743E+01 0.00000E+00
 -1      1752 6.35244E+01 2.22363E+01 0.00000E+00
 -1      1753 6.44936E+01 2.36587E+01 0.00000E+00
 -1      1754 6.58088E+01 2.48037E+01 0.00000E+00
 -1      1755 6.73850E+01 2.57027E+01 0.00000E+00
 -1      1756 6.91559E+01 2.62086E+01 0.00000E+00
 -1      1757 7.09605E+01 2.62014E+01 0.00000E+00
 -1      1758 7.27128E+01 2.59555E+01 0.00000E+00
 -1      1759 7.43821E+01 2.53403E+01 0.00000E+00
 -1      1760 7.58938E+01 2.43763E+01 0.00000E+00
 -1      1761 7.71120E+01 2.30921E+01 0.00000E+00
 -1      1762 7.79793E+01 2.15068E+01 0.00000E+00
 -1      1763 7.85921E+01 1.98316E+01 0.00000E+00
 -1      1764 2.87400E+00 4.77875E+01 0.00000E+00
 -1      1765 3.89700E+00 4.04125E+01 0.00000E+00
 -1      1766 3.89700E+00 4.18875E+01 0.00000E+00
 -1      1767 3.89700E+00 4.33625E+01 0.00000E+00
 -1      1768 3.89700E+00 4.48375E+01 0.00000E+00
 -1      1769 5.19600E+00 4.26250E+01 0.00000E+00
 -1      1770 3.89700E+00 3.45500E+01 0.00000E+00
 -1      1771 3.89700E+00 3.60000E+01 0.00000E+00
 -1      1772 3.89700E+00 3.16000E+01 0.00000E+00
 -1      1773 3.89700E+00 3.30750E+01 0.00000E+00
 -1      1774 5.19600E+00 3.38000E+01 0.00000E+00
 -1      1775 3.89700E+00 2.86500E+01 0.00000E+00
 -1      1776 3.89700E+00 3.01250E+01 0.00000E+00
 -1      1777 5.19600E+00 3.08500E+01 0.00000E+00
 -1      1778 3.89700E+00 2.57000E+01 0.00000E+00
 -1      1779 3.89700E+00 2.71750E+01 0.00000E+00
 -1      1780 5.19600E+00 2.79000E+01 0.00000E+00
 -1      1781 3.89700E+00 2.27500E+01 0.00000E+00
 -1      1782 3.89700E+00 2.42250E+01 0.00000E+00
 -1      1783 5.19600E+00 2.49500E+01 0.00000E+00
 -1      1784 3.89700E+00 1.98000E+01 0.00000E+00
 -1      1785 3.89700E+00 2.12750E+01 0.00000E+00
 -1      1786 5.19600E+00 2.20000E+01 0.00000E+00
 -1      1787 3.89700E+00 1.69000E+01 0.00000E+00
 -1      1788 3.89700E+00 1.83500E+01 0.00000E+00
 -1      1789 5.19600E+00 1.90750E+01 0.00000E+00
 -1      1790 3.89700E+00 1.39500E+01 0.00000E+00
 -1      1791 3.89700E+00 1.54250E+01 0.00000E+00
 -1      1792 5.19600E+00 1.61500E+01 0.00000E+00
 -1      1793 3.89700E+00 1.10000E+01 0.00000E+00
 -1      1794 3.89700E+00 1.24750E+01 0.00000E+00
 -1      1795 5.19600E+00 1.32000E+01 0.00000E+00
 -1      1796 3.89700E+00 8.05000E+00 0.00000E+00
 -1      1797 3.89700E+00 9.52500E+00 0.00000E+00
 -1      1798 5.19600E+00 1.02500E+01 0.00000E+00
 -1      1799 3.89700E+00 5.10000E+00 0.00000E+00
 -1      1800 3.89700E+00 6.57500E+00 0.00000E+00
 -1      1801 5.19600E+00 7.30000E+00 0.00000E+00
 -1      1802 4.20450E+00 3.09687E+00 0.00000E+00
 -1      1803 4.06650E+00 4.19063E+00 0.00000E+00
 -1      1804 5.36550E+00 4.91563E+00 0.00000E+00
 -1      1805 5.70450E+00 3.09687E+00 0.00000E+00
 -1      1806 3.62400E+00 4.64885E+01 0.00000E+00
 -1      1807 8.70450E+00 3.09687E+00 0.00000E+00
 -1      1808 7.20450E+00 3.09687E+00 0.00000E+00
 -1      1809 7.03500E+00 4.00625E+00 0.00000E+00
 -1      1810 4.92300E+00 4.57510E+01 0.00000E+00
 -1      1811 8.40000E+00 4.61030E+01 0.00000E+00
 -1      1812 9.90000E+00 4.61030E+01 0.00000E+00
 -1      1813 1.14000E+01 4.61030E+01 0.00000E+00
 -1      1814 1.29000E+01 4.61030E+01 0.00000E+00
 -1      1815 1.06500E+01 4.48040E+01 0.00000E+00
 -1      1816 1.44000E+01 4.61030E+01 0.00000E+00
 -1      1817 1.59000E+01 4.61030E+01 0.00000E+00
 -1      1818 1.36500E+01 4.48040E+01 0.00000E+00
 -1      1819 1.74000E+01 4.61030E+01 0.00000E+00
 -1      1820 1.89000E+01 4.61030E+01 0.00000E+00
 -1      1821 1.66500E+01 4.48040E+01 0.00000E+00
 -1      1822 2.04000E+01 4.61030E+01 0.00000E+00
 -1      1823 2.19000E+01 4.61030E+01 0.00000E+00
 -1      1824 1.96500E+01 4.48040E+01 0.00000E+00
 -1      1825 2.34000E+01 4.61030E+01 0.00000E+00
 -1      1826 2.49000E+01 4.61030E+01 0.00000E+00
 -1      1827 2.26500E+01 4.48040E+01 0.00000E+00
 -1      1828 2.64000E+01 4.61030E+01 0.00000E+00
 -1      1829 2.79000E+01 4.61030E+01 0.00000E+00
 -1      1830 2.56500E+01 4.48040E+01 0.00000E+00
 -1      1831 2.94000E+01 4.61030E+01 0.00000E+00
 -1      1832 3.09000E+01 4.61030E+01 0.00000E+00
 -1      1833 2.86500E+01 4.48040E+01 0.00000E+00
 -1      1834 3.24000E+01 4.61030E+01 0.00000E+00
 -1      1835 3.39000E+01 4.61030E+01 0.00000E+00
 -1      1836 3.16500E+01 4.48040E+01 0.00000E+00
 -1      1837 3.54000E+01 4.61030E+01 0.00000E+00
 -1      1838 3.69000E+01 4.61030E+01 0.00000E+00
 -1      1839 3.46500E+01 4.48040E+01 0.00000E+00
 -1      1840 3.84000E+01 4.61030E+01 0.00000E+00
 -1      1841 3.99000E+01 4.61030E+01 0.00000E+00
 -1      1842 3.76500E+01 4.48040E+01 0.00000E+00
 -1      1843 4.14000E+01 4.61030E+01 0.00000E+00
 -1      1844 4.29000E+01 4.61030E+01 0.00000E+00
 -1      1845 4.06500E+01 4.48040E+01 0.00000E+00
 -1      1846 4.44000E+01 4.61030E+01 0.00000E+00
 -1      1847 4.59000E+01 4.61030E+01 0.00000E+00
 -1      1848 4.36500E+01 4.48040E+01 0.00000E+00
 -1      1849 4.74000E+01 4.61030E+01 0.00000E+00
 -1      1850 4.89000E+01 4.61030E+01 0.00000E+00
 -1      1851 4.66500E+01 4.48040E+01 0.00000E+00
 -1      1852 5.04000E+01 4.61030E+01 0.00000E+00
 -1      1853 5.19000E+01 4.61030E+01 0.00000E+00
 -1      1854 4.96500E+01 4.48040E+01 0.00000E+00
 -1      1855 5.34000E+01 4.61030E+01 0.00000E+00
 -1      1856 5.49000E+01 4.61030E+01 0.00000E+00
 -1      1857 5.26500E+01 4.48040E+01 0.00000E+00
 -1      1858 5.64000E+01 4.61030E+01 0.00000E+00
 -1      1859 5.79000E+01 4.61030E+01 0.00000E+00
 -1      1860 5.56500E+01 4.48040E+01 0.00000E+00
 -1      1861 5.94000E+01 4.61030E+01 0.00000E+00
 -1      1862 6.09000E+01 4.61030E+01 0.00000E+00
 -1      1863 5.86500E+01 4.48040E+01 0.00000E+00
 -1      1864 6.24000E+01 4.61030E+01 0.00000E+00
 -1      1865 6.39000E+01 4.61030E+01 0.00000E+00
 -1      1866 6.16500E+01 4.48040E+01 0.00000E+00
 -1      1867 6.54000E+01 4.61030E+01 0.00000E+00
 -1      1868 6.69000E+01 4.61030E+01 0.00000E+00
 -1      1869 6.46500E+01 4.48040E+01 0.00000E+00
 -1      1870 6.84000E+01 4.61030E+01 0.00000E+00
 -1      1871 6.99000E+01 4.61030E+01 0.00000E+00
 -1      1872 6.76500E+01 4.48040E+01 0.00000E+00
 -1      1873 7.14000E+01 4.61030E+01 0.00000E+00
 -1      1874 7.29000E+01 4.61030E+01 0.00000E+00
 -1      1875 7.06500E+01 4.48040E+01 0.00000E+00
 -1      1876 7.44000E+01 4.61030E+01 0.00000E+00
 -1      1877 7.59000E+01 4.61030E+01 0.00000E+00
 -1      1878 7.36500E+01 4.48040E+01 0.00000E+00
 -1      1879 7.74000E+01 4.61030E+01 0.00000E+00
 -1      1880 7.89000E+01 4.61030E+01 0.00000E+00
 -1      1881 7.66500E+01 4.48040E+01 0.00000E+00
 -1      1882 8.04000E+01 4.61030E+01 0.00000E+00
 -1      1883 8.19000E+01 4.61030E+01 0.00000E+00
 -1      1884 7.96500E+01 4.48040E+01 0.00000E+00
 -1      1885 8.34000E+01 4.61030E+01 0.00000E+00
 -1      1886 8.49000E+01 4.61030E+01 0.00000E+00
 -1      1887 8.26500E+01 4.48040E+01 0.00000E+00
 -1      1888 8.64000E+01 4.61030E+01 0.00000E+00
 -1      1889 8.79000E+01 4.61030E+01 0.00000E+00
 -1      1890 8.56500E+01 4.48040E+01 0.00000E+00
 -1      1891 8.94000E+01 4.61030E+01 0.00000E+00
 -1      1892 9.09000E+01 4.61030E+01 0.00000E+00
 -1      1893 8.86500E+01 4.48040E+01 0.00000E+00
 -1      1894 9.24000E+01 4.61030E+01 0.00000E+00
 -1      1895 9.39000E+01 4.61030E+01 0.00000E+00
 -1      1896 9.16500E+01 4.48040E+01 0.00000E+00
 -1      1897 9.54000E+01 4.61030E+01 0.00000E+00
 -1      1898 9.69000E+01 4.61030E+01 0.00000E+00
 -1      1899 9.46500E+01 4.48040E+01 0.00000E+00
 -1      1900 9.84000E+01 4.61030E+01 0.00000E+00
 -1      1901 9.99000E+01 4.61030E+01 0.00000E+00
 -1      1902 9.76500E+01 4.48040E+01 0.00000E+00
 -1      1903 1.01400E+02 4.61030E+01 0.00000E+00
 -1      1904 1.02900E+02 4.61030E+01 0.00000E+00
 -1      1905 1.00650E+02 4.48040E+01 0.00000E+00
 -1      1906 1.04400E+02 4.61030E+01 0.00000E+00
 -1      1907 1.05900E+02 4.61030E+01 0.00000E+00
 -1      1908 1.03650E+02 4.48040E+01 0.00000E+00
 -1      1909 1.07400E+02 4.61030E+01 0.00000E+00
 -1      1910 1.08900E+02 4.61030E+01 0.00000E+00
 -1      1911 1.06650E+02 4.48040E+01 0.00000E+00
 -1      1912 1.10400E+02 4.61030E+01 0.00000E+00
 -1      1913 1.11900E+02 4.61030E+01 0.00000E+00
 -1      1914 1.09650E+02 4.48040E+01 0.00000E+00
 -1      1915 1.13400E+02 4.61030E+01 0.00000E+00
 -1      1916 1.14900E+02 4.61030E+01 0.00000E+00
 -1      1917 1.12650E+02 4.48040E+01 0.00000E+00
 -1      1918 1.16400E+02 4.61030E+01 0.00000E+00
 -1      1919 1.17900E+02 4.61030E+01 0.00000E+00
 -1      1920 1.15650E+02 4.48040E+01 0.00000E+00
 -1      1921 1.19400E+02 4.61030E+01 0.00000E+00
 -1      1922 1.20900E+02 4.61030E+01 0.00000E+00
 -1      1923 1.18650E+02 4.48040E+01 0.00000E+00
 -1      1924 1.22400E+02 4.61030E+01 0.00000E+00
 -1      1925 1.23900E+02 4.61030E+01 0.00000E+00
 -1      1926 1.21650E+02 4.48040E+01 0.00000E+00
 -1      1927 1.25400E+02 4.61030E+01 0.00000E+00
 -1      1928 1.26900E+02 4.61030E+01 0.00000E+00
 -1      1929 1.24650E+02 4.48040E+01 0.00000E+00
 -1      1930 1.28400E+02 4.61030E+01 0.00000E+00
 -1      1931 1.29900E+02 4.61030E+01 0.00000E+00
 -1      1932 1.27650E+02 4.48040E+01 0.00000E+00
 -1      1933 1.31400E+02 4.61030E+01 0.00000E+00
 -1      1934 1.32900E+02 4.61030E+01 0.00000E+00
 -1      1935 1.30650E+02 4.48040E+01 0.00000E+00
 -1      1936 1.34400E+02 4.61030E+01 0.00000E+00
 -1      1937 1.35900E+02 4.61030E+01 0.00000E+00
 -1      1938 1.33650E+02 4.48040E+01 0.00000E+00
 -1      1939 1.37400E+02 4.61030E+01 0.00000E+00
 -1      1940 1.38900E+02 4.61030E+01 0.00000E+00
 -1      1941 1.36650E+02 4.48040E+01 0.00000E+00
 -1      1942 1.40400E+02 4.61030E+01 0.00000E+00
 -1      1943 1.41900E+02 4.61030E+01 0.00000E+00
 -1      1944 1.39650E+02 4.48040E+01 0.00000E+00
 -1      1945 1.43244E+02 4.61616E+01 0.00000E+00
 -1      1946 1.44744E+02 4.61616E+01 0.00000E+00
 -1      1947 1.45182E+02 4.49799E+01 0.00000E+00
 -1      1948 1.42494E+02 4.48626E+01 0.00000E+00
 -1      1949 1.17045E+01 3.09687E+00 0.00000E+00
 -1      1950 1.02045E+01 3.09687E+00 0.00000E+00
 -1      1951 1.00350E+01 4.00625E+00 0.00000E+00
 -1      1952 1.47045E+01 3.09687E+00 0.00000E+00
 -1      1953 1.32045E+01 3.09687E+00 0.00000E+00
 -1      1954 1.30350E+01 4.00625E+00 0.00000E+00
 -1      1955 1.77045E+01 3.09687E+00 0.00000E+00
 -1      1956 1.62045E+01 3.09687E+00 0.00000E+00
 -1      1957 1.60350E+01 4.00625E+00 0.00000E+00
 -1      1958 2.07045E+01 3.09687E+00 0.00000E+00
 -1      1959 1.92045E+01 3.09687E+00 0.00000E+00
 -1      1960 1.90350E+01 4.00625E+00 0.00000E+00
 -1      1961 2.37045E+01 3.09687E+00 0.00000E+00
 -1      1962 2.22045E+01 3.09687E+00 0.00000E+00
 -1      1963 2.20350E+01 4.00625E+00 0.00000E+00
 -1      1964 2.67045E+01 3.09687E+00 0.00000E+00
 -1      1965 2.52045E+01 3.09687E+00 0.00000E+00
 -1      1966 2.50350E+01 4.00625E+00 0.00000E+00
 -1      1967 2.97045E+01 3.09687E+00 0.00000E+00
 -1      1968 2.82045E+01 3.09687E+00 0.00000E+00
 -1      1969 2.80350E+01 4.00625E+00 0.00000E+00
 -1      1970 3.27045E+01 3.09687E+00 0.00000E+00
 -1      1971 3.12045E+01 3.09687E+00 0.00000E+00
 -1      1972 3.10350E+01 4.00625E+00 0.00000E+00
 -1      1973 3.57045E+01 3.09687E+00 0.00000E+00
 -1      1974 3.42045E+01 3.09687E+00 0.00000E+00
 -1      1975 3.40350E+01 4.00625E+00 0.00000E+00
 -1      1976 3.87045E+01 3.09687E+00 0.00000E+00
 -1      1977 3.72045E+01 3.09687E+00 0.00000E+00
 -1      1978 3.70350E+01 4.00625E+00 0.00000E+00
 -1      1979 4.17045E+01 3.09687E+00 0.00000E+00
 -1      1980 4.02045E+01 3.09687E+00 0.00000E+00
 -1      1981 4.00350E+01 4.00625E+00 0.00000E+00
 -1      1982 4.47045E+01 3.09687E+00 0.00000E+00
 -1      1983 4.32045E+01 3.09687E+00 0.00000E+00
 -1      1984 4.30350E+01 4.00625E+00 0.00000E+00
 -1      1985 4.77045E+01 3.09687E+00 0.00000E+00
 -1      1986 4.62045E+01 3.09687E+00 0.00000E+00
 -1      1987 4.60350E+01 4.00625E+00 0.00000E+00
 -1      1988 5.07045E+01 3.09687E+00 0.00000E+00
 -1      1989 4.92045E+01 3.09687E+00 0.00000E+00
 -1      1990 4.90350E+01 4.00625E+00 0.00000E+00
 -1      1991 5.37045E+01 3.09687E+00 0.00000E+00
 -1      1992 5.22045E+01 3.09687E+00 0.00000E+00
 -1      1993 5.20350E+01 4.00625E+00 0.00000E+00
 -1      1994 5.68545E+01 3.09687E+00 0.00000E+00
 -1      1995 5.52795E+01 3.09687E+00 0.00000E+00
 -1      1996 5.51100E+01 4.00625E+00 0.00000E+00
 -1      1997 5.98545E+01 3.09687E+00 0.00000E+00
 -1      1998 5.83545E+01 3.09687E+00 0.00000E+00
 -1      1999 5.81850E+01 4.00625E+00 0.00000E+00
 -1      2000 6.28545E+01 3.09687E+00 0.00000E+00
 -1      2001 6.13545E+01 3.09687E+00 0.00000E+00
 -1      2002 6.11850E+01 4.00625E+00 0.00000E+00
 -1      2003 6.58545E+01 3.09687E+00 0.00000E+00
 -1      2004 6.43545E+01 3.09687E+00 0.00000E+00
 -1      2005 6.41850E+01 4.00625E+00 0.00000E+00
 -1      2006 6.85545E+01 3.09687E+00 0.00000E+00
 -1      2007 6.72045E+01 3.09687E+00 0.00000E+00
 -1      2008 6.70350E+01 4.00625E+00 0.00000E+00
 -1      2009 7.15545E+01 3.09687E+00 0.00000E+00
 -1      2010 7.00545E+01 3.09687E+00 0.00000E+00
 -1      2011 6.98850E+01 4.00625E+00 0.00000E+00
 -1      2012 7.44045E+01 3.09687E+00 0.00000E+00
 -1      2013 7.29795E+01 3.09687E+00 0.00000E+00
 -1      2014 7.28100E+01 4.00625E+00 0.00000E+00
 -1      2015 7.74045E+01 3.09687E+00 0.00000E+00
 -1      2016 7.59045E+01 3.09687E+00 0.00000E+00
 -1      2017 7.57350E+01 4.00625E+00 0.00000E+00
 -1      2018 8.04045E+01 3.09687E+00 0.00000E+00
 -1      2019 7.89045E+01 3.09687E+00 0.00000E+00
 -1      2020 7.87350E+01 4.00625E+00 0.00000E+00
 -1      2021 8.34045E+01 3.09687E+00 0.00000E+00
 -1      2022 8.19045E+01 3.09687E+00 0.00000E+00
 -1      2023 8.17350E+01 4.00625E+00 0.00000E+00
 -1      2024 8.64045E+01 3.09687E+00 0.00000E+00
 -1      2025 8.49045E+01 3.09687E+00 0.00000E+00
 -1      2026 8.47350E+01 4.00625E+00 0.00000E+00
 -1      2027 8.94045E+01 3.09687E+00 0.00000E+00
 -1      2028 8.79045E+01 3.09687E+00 0.00000E+00
 -1      2029 8.77350E+01 4.00625E+00 0.00000E+00
 -1      2030 9.24045E+01 3.09687E+00 0.00000E+00
 -1      2031 9.09045E+01 3.09687E+00 0.00000E+00
 -1      2032 9.07350E+01 4.00625E+00 0.00000E+00
 -1      2033 9.55545E+01 3.09687E+00 0.00000E+00
 -1      2034 9.39795E+01 3.09687E+00 0.00000E+00
 -1      2035 9.38100E+01 4.00625E+00 0.00000E+00
 -1      2036 9.85545E+01 3.09687E+00 0.00000E+00
 -1      2037 9.70545E+01 3.09687E+00 0.00000E+00
 -1      2038 9.68850E+01 4.00625E+00 0.00000E+00
 -1      2039 1.01554E+02 3.09687E+00 0.00000E+00
 -1      2040 1.00054E+02 3.09687E+00 0.00000E+00
 -1      2041 9.98850E+01 4.00625E+00 0.00000E+00
 -1      2042 1.04554E+02 3.09687E+00 0.00000E+00
 -1      2043 1.03054E+02 3.09687E+00 0.00000E+00
 -1      2044 1.02885E+02 4.00625E+00 0.00000E+00
 -1      2045 1.07554E+02 3.09687E+00 0.00000E+00
 -1      2046 1.06054E+02 3.09687E+00 0.00000E+00
 -1      2047 1.05885E+02 4.00625E+00 0.00000E+00
 -1      2048 1.10554E+02 3.09687E+00 0.00000E+00
 -1      2049 1.09054E+02 3.09687E+00 0.00000E+00
 -1      2050 1.08885E+02 4.00625E+00 0.00000E+00
 -1      2051 1.13554E+02 3.09687E+00 0.00000E+00
 -1      2052 1.12054E+02 3.09687E+00 0.00000E+00
 -1      2053 1.11885E+02 4.00625E+00 0.00000E+00
 -1      2054 1.16554E+02 3.09687E+00 0.00000E+00
 -1      2055 1.15054E+02 3.09687E+00 0.00000E+00
 -1      2056 1.14885E+02 4.00625E+00 0.00000E+00
 -1      2057 1.19554E+02 3.09687E+00 0.00000E+00
 -1      2058 1.18054E+02 3.09687E+00 0.00000E+00
 -1      2059 1.17885E+02 4.00625E+00 0.00000E+00
 -1      2060 1.22554E+02 3.09687E+00 0.00000E+00
 -1      2061 1.21054E+02 3.09687E+00 0.00000E+00
 -1      2062 1.20885E+02 4.00625E+00 0.00000E+00
 -1      2063 1.25554E+02 3.09687E+00 0.00000E+00
 -1      2064 1.24054E+02 3.09687E+00 0.00000E+00
 -1      2065 1.23885E+02 4.00625E+00 0.00000E+00
 -1      2066 1.28555E+02 3.09687E+00 0.00000E+00
 -1      2067 1.27054E+02 3.09687E+00 0.00000E+00
 -1      2068 1.26885E+02 4.00625E+00 0.00000E+00
 -1      2069 1.31555E+02 3.09687E+00 0.00000E+00
 -1      2070 1.30055E+02 3.09687E+00 0.00000E+00
 -1      2071 1.29885E+02 4.00625E+00 0.00000E+00
 -1      2072 1.34555E+02 3.09687E+00 0.00000E+00
 -1      2073 1.33055E+02 3.09687E+00 0.00000E+00
 -1      2074 1.32885E+02 4.00625E+00 0.00000E+00
 -1      2075 1.37555E+02 3.09687E+00 0.00000E+00
 -1      2076 1.36055E+02 3.09687E+00 0.00000E+00
 -1      2077 1.35885E+02 4.00625E+00 0.00000E+00
 -1      2078 1.40555E+02 3.09687E+00 0.00000E+00
 -1      2079 1.39055E+02 3.09687E+00 0.00000E+00
 -1      2080 1.38885E+02 4.00625E+00 0.00000E+00
 -1      2081 1.43555E+02 3.09687E+00 0.00000E+00
 -1      2082 1.42055E+02 3.09687E+00 0.00000E+00
 -1      2083 1.41885E+02 4.00625E+00 0.00000E+00
 -1      2084 1.46059E+02 3.20156E+00 0.00000E+00
 -1      2085 1.44559E+02 3.20156E+00 0.00000E+00
 -1      2086 1.44389E+02 4.11094E+00 0.00000E+00
 -1      2087 1.46398E+02 4.32031E+00 0.00000E+00
 -1      2088 1.46103E+02 1.25375E+01 0.00000E+00
 -1      2089 1.46103E+02 1.10625E+01 0.00000E+00
 -1      2090 1.46103E+02 9.58750E+00 0.00000E+00
 -1      2091 1.46103E+02 8.11250E+00 0.00000E+00
 -1      2092 1.44804E+02 1.03250E+01 0.00000E+00
 -1      2093 1.46250E+02 6.95391E+00 0.00000E+00
 -1      2094 1.46250E+02 5.47891E+00 0.00000E+00
 -1      2095 1.45246E+02 5.37422E+00 0.00000E+00
 -1      2096 1.44951E+02 7.69141E+00 0.00000E+00
 -1      2097 1.46103E+02 1.54375E+01 0.00000E+00
 -1      2098 1.46103E+02 1.39875E+01 0.00000E+00
 -1      2099 1.44804E+02 1.32500E+01 0.00000E+00
 -1      2100 1.46103E+02 1.83875E+01 0.00000E+00
 -1      2101 1.46103E+02 1.69125E+01 0.00000E+00
 -1      2102 1.44804E+02 1.61750E+01 0.00000E+00
 -1      2103 1.46103E+02 2.13375E+01 0.00000E+00
 -1      2104 1.46103E+02 1.98625E+01 0.00000E+00
 -1      2105 1.44804E+02 1.91250E+01 0.00000E+00
 -1      2106 1.46103E+02 2.42875E+01 0.00000E+00
 -1      2107 1.46103E+02 2.28125E+01 0.00000E+00
 -1      2108 1.44804E+02 2.20750E+01 0.00000E+00
 -1      2109 1.46103E+02 2.72375E+01 0.00000E+00
 -1      2110 1.46103E+02 2.57625E+01 0.00000E+00
 -1      2111 1.44804E+02 2.50250E+01 0.00000E+00
 -1      2112 1.46103E+02 3.01875E+01 0.00000E+00
 -1      2113 1.46103E+02 2.87125E+01 0.00000E+00
 -1      2114 1.44804E+02 2.79750E+01 0.00000E+00
 -1      2115 1.46103E+02 3.30875E+01 0.00000E+00
 -1      2116 1.46103E+02 3.16375E+01 0.00000E+00
 -1      2117 1.44804E+02 3.09000E+01 0.00000E+00
 -1      2118 1.46103E+02 3.60375E+01 0.00000E+00
 -1      2119 1.46103E+02 3.45625E+01 0.00000E+00
 -1      2120 1.44804E+02 3.38250E+01 0.00000E+00
 -1      2121 1.46103E+02 3.89875E+01 0.00000E+00
 -1      2122 1.46103E+02 3.75125E+01 0.00000E+00
 -1      2123 1.44804E+02 3.67750E+01 0.00000E+00
 -1      2124 1.46103E+02 4.19375E+01 0.00000E+00
 -1      2125 1.46103E+02 4.04625E+01 0.00000E+00
 -1      2126 1.44804E+02 3.97250E+01 0.00000E+00
 -1      2127 7.84882E+01 1.40595E+01 0.00000E+00
 -1      2128 7.88753E+01 1.48387E+01 0.00000E+00
 -1      2129 7.95254E+01 1.75875E+01 0.00000E+00
 -1      2130 7.96005E+01 1.84598E+01 0.00000E+00
 -1      2131 7.92635E+01 1.59201E+01 0.00000E+00
 -1      2132 7.93945E+01 1.67538E+01 0.00000E+00
 -1      2133 8.02447E+01 1.71200E+01 0.00000E+00
 -1      2134 7.74986E+01 1.25157E+01 0.00000E+00
 -1      2135 7.79777E+01 1.32511E+01 0.00000E+00
 -1      2136 7.62614E+01 1.10296E+01 0.00000E+00
 -1      2137 7.69022E+01 1.16580E+01 0.00000E+00
 -1      2138 3.89700E+00 3.74688E+01 0.00000E+00
 -1      2139 3.89700E+00 3.89437E+01 0.00000E+00
 -1      2140 5.19600E+00 3.96813E+01 0.00000E+00
 -1      2141 5.19600E+00 3.67438E+01 0.00000E+00
 -1      2142 7.27213E+01 9.36073E+00 0.00000E+00
 -1      2143 7.35590E+01 9.61728E+00 0.00000E+00
 -1      2144 7.08732E+01 9.10425E+00 0.00000E+00
 -1      2145 7.17459E+01 9.25651E+00 0.00000E+00
 -1      2146 6.88823E+01 9.00337E+00 0.00000E+00
 -1      2147 6.98145E+01 8.95779E+00 0.00000E+00
 -1      2148 6.68456E+01 9.79127E+00 0.00000E+00
 -1      2149 6.77457E+01 9.40015E+00 0.00000E+00
 -1      2150 6.50127E+01 1.07099E+01 0.00000E+00
 -1      2151 6.58819E+01 1.02228E+01 0.00000E+00
 -1      2152 6.35042E+01 1.23199E+01 0.00000E+00
 -1      2153 6.40111E+01 1.15313E+01 0.00000E+00
 -1      2154 6.26963E+01 1.39354E+01 0.00000E+00
 -1      2155 6.30933E+01 1.31851E+01 0.00000E+00
 -1      2156 6.20030E+01 1.55514E+01 0.00000E+00
 -1      2157 6.23116E+01 1.47703E+01 0.00000E+00
 -1      2158 6.15113E+01 1.73864E+01 0.00000E+00
 -1      2159 6.16550E+01 1.65091E+01 0.00000E+00
 -1      2160 6.15444E+01 1.92984E+01 0.00000E+00
 -1      2161 6.15279E+01 1.83424E+01 0.00000E+00
 -1      2162 6.08361E+01 1.77787E+01 0.00000E+00
 -1      2163 6.22975E+01 2.14116E+01 0.00000E+00
 -1      2164 6.18531E+01 2.05994E+01 0.00000E+00
 -1      2165 6.30964E+01 2.29111E+01 0.00000E+00
 -1      2166 6.26969E+01 2.21614E+01 0.00000E+00
 -1      2167 6.18694E+01 2.20864E+01 0.00000E+00
 -1      2168 6.42519E+01 2.44410E+01 0.00000E+00
 -1      2169 6.36822E+01 2.37683E+01 0.00000E+00
 -1      2170 6.58123E+01 2.56227E+01 0.00000E+00
 -1      2171 6.50668E+01 2.51504E+01 0.00000E+00
 -1      2172 6.75042E+01 2.64926E+01 0.00000E+00
 -1      2173 6.66735E+01 2.60658E+01 0.00000E+00
 -1      2174 6.95542E+01 2.71026E+01 0.00000E+00
 -1      2175 6.86139E+01 2.70236E+01 0.00000E+00
 -1      2176 7.14612E+01 2.68449E+01 0.00000E+00
 -1      2177 7.05969E+01 2.69311E+01 0.00000E+00
 -1      2178 7.32936E+01 2.66373E+01 0.00000E+00
 -1      2179 7.24057E+01 2.67969E+01 0.00000E+00
 -1      2180 7.51625E+01 2.57809E+01 0.00000E+00
 -1      2181 7.43812E+01 2.62365E+01 0.00000E+00
 -1      2182 7.66234E+01 2.47641E+01 0.00000E+00
 -1      2183 7.58929E+01 2.52725E+01 0.00000E+00
 -1      2184 7.58921E+01 2.61687E+01 0.00000E+00
 -1      2185 7.79754E+01 2.30938E+01 0.00000E+00
 -1      2186 7.74877E+01 2.38696E+01 0.00000E+00
 -1      2187 7.89075E+01 2.14483E+01 0.00000E+00
 -1      2188 7.85280E+01 2.22578E+01 0.00000E+00
 -1      2189 7.94154E+01 1.95892E+01 0.00000E+00
 -1      2190 7.91821E+01 2.04549E+01 0.00000E+00
 -1      2191 7.44527E+01 1.00429E+01 0.00000E+00
 -1      2192 7.52829E+01 1.04141E+01 0.00000E+00
 -1      2193 7.61451E+01 1.01759E+01 0.00000E+00
 -1      2194 6.42300E+00 4.57510E+01 0.00000E+00
 -1      2195 7.42728E+01 9.13473E+00 0.00000E+00
 -1      2196 7.17300E+00 4.44520E+01 0.00000E+00
 -1      2197 7.97254E+01 1.52049E+01 0.00000E+00
 -1      2198 7.88267E+01 1.33151E+01 0.00000E+00
 -1      2199 1.45665E+02 4.31193E+01 0.00000E+00
 -1      2200 8.01905E+01 1.90831E+01 0.00000E+00
 -1      2201 7.77199E+01 1.16490E+01 0.00000E+00
 -1      2202 7.97309E+01 2.12059E+01 0.00000E+00
 -1      2203 7.74868E+01 2.47658E+01 0.00000E+00
 -1      2204 7.40741E+01 2.70779E+01 0.00000E+00
 -1      2205 7.20421E+01 2.75266E+01 0.00000E+00
 -1      2206 7.00549E+01 2.77461E+01 0.00000E+00
 -1      2207 6.79024E+01 2.73867E+01 0.00000E+00
 -1      2208 6.59315E+01 2.64125E+01 0.00000E+00
 -1      2209 6.28547E+01 2.36934E+01 0.00000E+00
 -1      2210 6.11613E+01 2.00357E+01 0.00000E+00
 -1      2211 6.04696E+01 1.94720E+01 0.00000E+00
 -1      2212 6.07782E+01 2.07730E+01 0.00000E+00
 -1      2213 6.11676E+01 1.58650E+01 0.00000E+00
 -1      2214 6.19002E+01 1.40725E+01 0.00000E+00
 -1      2215 6.26958E+01 1.23724E+01 0.00000E+00
 -1      2216 6.41084E+01 1.06858E+01 0.00000E+00
 -1      2217 6.42057E+01 9.84038E+00 0.00000E+00
 -1      2218 6.32040E+01 1.06618E+01 0.00000E+00
 -1      2219 6.60737E+01 9.43287E+00 0.00000E+00
 -1      2220 6.81740E+01 8.60452E+00 0.00000E+00
 -1      2221 7.24036E+01 8.60488E+00 0.00000E+00
 -1      2222 7.03694E+01 8.35420E+00 0.00000E+00
 -1      2223 6.42554E+01 2.52600E+01 0.00000E+00
 -1      2224 7.89037E+01 2.30353E+01 0.00000E+00
 -1      2225 1.07850E+01 5.30525E+00 0.00000E+00
 -1      2226 9.28500E+00 5.30525E+00 0.00000E+00
 -1      2227 6.49500E+00 3.01125E+01 0.00000E+00
 -1      2228 6.49500E+00 3.15875E+01 0.00000E+00
 -1      2229 6.49500E+00 3.30625E+01 0.00000E+00
 -1      2230 6.49500E+00 3.45375E+01 0.00000E+00
 -1      2231 7.79400E+00 3.23250E+01 0.00000E+00
 -1      2232 6.49500E+00 2.42125E+01 0.00000E+00
 -1      2233 6.49500E+00 2.56875E+01 0.00000E+00
 -1      2234 6.49500E+00 2.12625E+01 0.00000E+00
 -1      2235 6.49500E+00 2.27375E+01 0.00000E+00
 -1      2236 7.79400E+00 2.34750E+01 0.00000E+00
 -1      2237 6.49500E+00 1.83625E+01 0.00000E+00
 -1      2238 6.49500E+00 1.98125E+01 0.00000E+00
 -1      2239 7.79400E+00 2.05500E+01 0.00000E+00
 -1      2240 6.49500E+00 1.54125E+01 0.00000E+00
 -1      2241 6.49500E+00 1.68875E+01 0.00000E+00
 -1      2242 7.79400E+00 1.76250E+01 0.00000E+00
 -1      2243 6.49500E+00 1.24625E+01 0.00000E+00
 -1      2244 6.49500E+00 1.39375E+01 0.00000E+00
 -1      2245 7.79400E+00 1.46750E+01 0.00000E+00
 -1      2246 6.49500E+00 9.51250E+00 0.00000E+00
 -1      2247 6.49500E+00 1.09875E+01 0.00000E+00
 -1      2248 7.79400E+00 1.17250E+01 0.00000E+00
 -1      2249 1.37850E+01 5.30525E+00 0.00000E+00
 -1      2250 1.22850E+01 5.30525E+00 0.00000E+00
 -1      2251 1.15350E+01 6.60425E+00 0.00000E+00
 -1      2252 9.90000E+00 4.35050E+01 0.00000E+00
 -1      2253 1.14000E+01 4.35050E+01 0.00000E+00
 -1      2254 7.41766E+01 8.18550E+00 0.00000E+00
 -1      2255 7.50704E+01 8.61113E+00 0.00000E+00
 -1      2256 1.29000E+01 4.35050E+01 0.00000E+00
 -1      2257 1.44000E+01 4.35050E+01 0.00000E+00
 -1      2258 1.21500E+01 4.22060E+01 0.00000E+00
 -1      2259 1.59000E+01 4.35050E+01 0.00000E+00
 -1      2260 1.74000E+01 4.35050E+01 0.00000E+00
 -1      2261 1.51500E+01 4.22060E+01 0.00000E+00
 -1      2262 1.89000E+01 4.35050E+01 0.00000E+00
 -1      2263 2.04000E+01 4.35050E+01 0.00000E+00
 -1      2264 1.81500E+01 4.22060E+01 0.00000E+00
 -1      2265 2.19000E+01 4.35050E+01 0.00000E+00
 -1      2266 2.34000E+01 4.35050E+01 0.00000E+00
 -1      2267 2.11500E+01 4.22060E+01 0.00000E+00
 -1      2268 2.49000E+01 4.35050E+01 0.00000E+00
 -1      2269 2.64000E+01 4.35050E+01 0.00000E+00
 -1      2270 2.41500E+01 4.22060E+01 0.00000E+00
 -1      2271 2.79000E+01 4.35050E+01 0.00000E+00
 -1      2272 2.94000E+01 4.35050E+01 0.00000E+00
 -1      2273 2.71500E+01 4.22060E+01 0.00000E+00
 -1      2274 3.09000E+01 4.35050E+01 0.00000E+00
 -1      2275 3.24000E+01 4.35050E+01 0.00000E+00
 -1      2276 3.01500E+01 4.22060E+01 0.00000E+00
 -1      2277 3.39000E+01 4.35050E+01 0.00000E+00
 -1      2278 3.54000E+01 4.35050E+01 0.00000E+00
 -1      2279 3.31500E+01 4.22060E+01 0.00000E+00
 -1      2280 3.69000E+01 4.35050E+01 0.00000E+00
 -1      2281 3.84000E+01 4.35050E+01 0.00000E+00
 -1      2282 3.61500E+01 4.22060E+01 0.00000E+00
 -1      2283 3.99000E+01 4.35050E+01 0.00000E+00
 -1      2284 4.14000E+01 4.35050E+01 0.00000E+00
 -1      2285 3.91500E+01 4.22060E+01 0.00000E+00
 -1      2286 4.29000E+01 4.35050E+01 0.00000E+00
 -1      2287 4.44000E+01 4.35050E+01 0.00000E+00
 -1      2288 4.21500E+01 4.22060E+01 0.00000E+00
 -1      2289 4.59000E+01 4.35050E+01 0.00000E+00
 -1      2290 4.74000E+01 4.35050E+01 0.00000E+00
 -1      2291 4.51500E+01 4.22060E+01 0.00000E+00
 -1      2292 4.89000E+01 4.35050E+01 0.00000E+00
 -1      2293 5.04000E+01 4.35050E+01 0.00000E+00
 -1      2294 4.81500E+01 4.22060E+01 0.00000E+00
 -1      2295 5.19000E+01 4.35050E+01 0.00000E+00
 -1      2296 5.34000E+01 4.35050E+01 0.00000E+00
 -1      2297 5.11500E+01 4.22060E+01 0.00000E+00
 -1      2298 5.49000E+01 4.35050E+01 0.00000E+00
 -1      2299 5.64000E+01 4.35050E+01 0.00000E+00
 -1      2300 5.41500E+01 4.22060E+01 0.00000E+00
 -1      2301 5.79000E+01 4.35050E+01 0.00000E+00
 -1      2302 5.94000E+01 4.35050E+01 0.00000E+00
 -1      2303 5.71500E+01 4.22060E+01 0.00000E+00
 -1      2304 6.09000E+01 4.35050E+01 0.00000E+00
 -1      2305 6.24000E+01 4.35050E+01 0.00000E+00
 -1      2306 6.01500E+01 4.22060E+01 0.00000E+00
 -1      2307 6.39000E+01 4.35050E+01 0.00000E+00
 -1      2308 6.54000E+01 4.35050E+01 0.00000E+00
 -1      2309 6.31500E+01 4.22060E+01 0.00000E+00
 -1      2310 6.69000E+01 4.35050E+01 0.00000E+00
 -1      2311 6.84000E+01 4.35050E+01 0.00000E+00
 -1      2312 6.61500E+01 4.22060E+01 0.00000E+00
 -1      2313 6.99000E+01 4.35050E+01 0.00000E+00
 -1      2314 7.14000E+01 4.35050E+01 0.00000E+00
 -1      2315 6.91500E+01 4.22060E+01 0.00000E+00
 -1      2316 7.29000E+01 4.35050E+01 0.00000E+00
 -1      2317 7.44000E+01 4.35050E+01 0.00000E+00
 -1      2318 7.21500E+01 4.22060E+01 0.00000E+00
 -1      2319 7.59000E+01 4.35050E+01 0.00000E+00
 -1      2320 7.74000E+01 4.35050E+01 0.00000E+00
 -1      2321 7.51500E+01 4.22060E+01 0.00000E+00
 -1      2322 7.89000E+01 4.35050E+01 0.00000E+00
 -1      2323 8.04000E+01 4.35050E+01 0.00000E+00
 -1      2324 7.81500E+01 4.22060E+01 0.00000E+00
 -1      2325 8.19000E+01 4.35050E+01 0.00000E+00
 -1      2326 8.34000E+01 4.35050E+01 0.00000E+00
 -1      2327 8.11500E+01 4.22060E+01 0.00000E+00
 -1      2328 8.49000E+01 4.35050E+01 0.00000E+00
 -1      2329 8.64000E+01 4.35050E+01 0.00000E+00
 -1      2330 8.41500E+01 4.22060E+01 0.00000E+00
 -1      2331 8.79000E+01 4.35050E+01 0.00000E+00
 -1      2332 8.94000E+01 4.35050E+01 0.00000E+00
 -1      2333 8.71500E+01 4.22060E+01 0.00000E+00
 -1      2334 9.09000E+01 4.35050E+01 0.00000E+00
 -1      2335 9.24000E+01 4.35050E+01 0.00000E+00
 -1      2336 9.01500E+01 4.22060E+01 0.00000E+00
 -1      2337 9.39000E+01 4.35050E+01 0.00000E+00
 -1      2338 9.54000E+01 4.35050E+01 0.00000E+00
 -1      2339 9.31500E+01 4.22060E+01 0.00000E+00
 -1      2340 9.69000E+01 4.35050E+01 0.00000E+00
 -1      2341 9.84000E+01 4.35050E+01 0.00000E+00
 -1      2342 9.61500E+01 4.22060E+01 0.00000E+00
 -1      2343 9.99000E+01 4.35050E+01 0.00000E+00
 -1      2344 1.01400E+02 4.35050E+01 0.00000E+00
 -1      2345 9.91500E+01 4.22060E+01 0.00000E+00
 -1      2346 1.02900E+02 4.35050E+01 0.00000E+00
 -1      2347 1.04400E+02 4.35050E+01 0.00000E+00
 -1      2348 1.02150E+02 4.22060E+01 0.00000E+00
 -1      2349 1.05900E+02 4.35050E+01 0.00000E+00
 -1      2350 1.07400E+02 4.35050E+01 0.00000E+00
 -1      2351 1.05150E+02 4.22060E+01 0.00000E+00
 -1      2352 1.08900E+02 4.35050E+01 0.00000E+00
 -1      2353 1.10400E+02 4.35050E+01 0.00000E+00
 -1      2354 1.08150E+02 4.22060E+01 0.00000E+00
 -1      2355 1.11900E+02 4.35050E+01 0.00000E+00
 -1      2356 1.13400E+02 4.35050E+01 0.00000E+00
 -1      2357 1.11150E+02 4.22060E+01 0.00000E+00
 -1      2358 1.14900E+02 4.35050E+01 0.00000E+00
 -1      2359 1.16400E+02 4.35050E+01 0.00000E+00
 -1      2360 1.14150E+02 4.22060E+01 0.00000E+00
 -1      2361 1.17900E+02 4.35050E+01 0.00000E+00
 -1      2362 1.19400E+02 4.35050E+01 0.00000E+00
 -1      2363 1.17150E+02 4.22060E+01 0.00000E+00
 -1      2364 1.20900E+02 4.35050E+01 0.00000E+00
 -1      2365 1.22400E+02 4.35050E+01 0.00000E+00
 -1      2366 1.20150E+02 4.22060E+01 0.00000E+00
 -1      2367 1.23900E+02 4.35050E+01 0.00000E+00
 -1      2368 1.25400E+02 4.35050E+01 0.00000E+00
 -1      2369 1.23150E+02 4.22060E+01 0.00000E+00
 -1      2370 1.26900E+02 4.35050E+01 0.00000E+00
 -1      2371 1.28400E+02 4.35050E+01 0.00000E+00
 -1      2372 1.26150E+02 4.22060E+01 0.00000E+00
 -1      2373 1.29900E+02 4.35050E+01 0.00000E+00
 -1      2374 1.31400E+02 4.35050E+01 0.00000E+00
 -1      2375 1.29150E+02 4.22060E+01 0.00000E+00
 -1      2376 1.32900E+02 4.35050E+01 0.00000E+00
 -1      2377 1.34400E+02 4.35050E+01 0.00000E+00
 -1      2378 1.32150E+02 4.22060E+01 0.00000E+00
 -1      2379 1.35900E+02 4.35050E+01 0.00000E+00
 -1      2380 1.37400E+02 4.35050E+01 0.00000E+00
 -1      2381 1.35150E+02 4.22060E+01 0.00000E+00
 -1      2382 1.38900E+02 4.35050E+01 0.00000E+00
 -1      2383 1.40400E+02 4.35050E+01 0.00000E+00
 -1      2384 1.38150E+02 4.22060E+01 0.00000E+00
 -1      2385 1.97850E+01 5.30525E+00 0.00000E+00
 -1      2386 1.82850E+01 5.30525E+00 0.00000E+00
 -1      2387 2.27850E+01 5.30525E+00 0.00000E+00
 -1      2388 2.12850E+01 5.30525E+00 0.00000E+00
 -1      2389 2.05350E+01 6.60425E+00 0.00000E+00
 -1      2390 2.57850E+01 5.30525E+00 0.00000E+00
 -1      2391 2.42850E+01 5.30525E+00 0.00000E+00
 -1      2392 2.35350E+01 6.60425E+00 0.00000E+00
 -1      2393 2.87850E+01 5.30525E+00 0.00000E+00
 -1      2394 2.72850E+01 5.30525E+00 0.00000E+00
 -1      2395 2.65350E+01 6.60425E+00 0.00000E+00
 -1      2396 3.17850E+01 5.30525E+00 0.00000E+00
 -1      2397 3.02850E+01 5.30525E+00 0.00000E+00
 -1      2398 2.95350E+01 6.60425E+00 0.00000E+00
 -1      2399 3.47850E+01 5.30525E+00 0.00000E+00
 -1      2400 3.32850E+01 5.30525E+00 0.00000E+00
 -1      2401 3.25350E+01 6.60425E+00 0.00000E+00
 -1      2402 3.77850E+01 5.30525E+00 0.00000E+00
 -1      2403 3.62850E+01 5.30525E+00 0.00000E+00
 -1      2404 3.55350E+01 6.60425E+00 0.00000E+00
 -1      2405 4.07850E+01 5.30525E+00 0.00000E+00
 -1      2406 3.92850E+01 5.30525E+00 0.00000E+00
 -1      2407 3.85350E+01 6.60425E+00 0.00000E+00
 -1      2408 4.37850E+01 5.30525E+00 0.00000E+00
 -1      2409 4.22850E+01 5.30525E+00 0.00000E+00
 -1      2410 4.15350E+01 6.60425E+00 0.00000E+00
 -1      2411 4.67850E+01 5.30525E+00 0.00000E+00
 -1      2412 4.52850E+01 5.30525E+00 0.00000E+00
 -1      2413 4.45350E+01 6.60425E+00 0.00000E+00
 -1      2414 4.97850E+01 5.30525E+00 0.00000E+00
 -1      2415 4.82850E+01 5.30525E+00 0.00000E+00
 -1      2416 4.75350E+01 6.60425E+00 0.00000E+00
 -1      2417 5.27850E+01 5.30525E+00 0.00000E+00
 -1      2418 5.12850E+01 5.30525E+00 0.00000E+00
 -1      2419 5.05350E+01 6.60425E+00 0.00000E+00
 -1      2420 5.59350E+01 5.30525E+00 0.00000E+00
 -1      2421 5.43600E+01 5.30525E+00 0.00000E+00
 -1      2422 5.36100E+01 6.60425E+00 0.00000E+00
 -1      2423 5.89350E+01 5.30525E+00 0.00000E+00
 -1      2424 5.74350E+01 5.30525E+00 0.00000E+00
 -1      2425 5.66850E+01 6.60425E+00 0.00000E+00
 -1      2426 6.19350E+01 5.30525E+00 0.00000E+00
 -1      2427 6.04350E+01 5.30525E+00 0.00000E+00
 -1      2428 5.96850E+01 6.60425E+00 0.00000E+00
 -1      2429 6.49350E+01 5.30525E+00 0.00000E+00
 -1      2430 6.34350E+01 5.30525E+00 0.00000E+00
 -1      2431 6.26850E+01 6.60425E+00 0.00000E+00
 -1      2432 7.06350E+01 5.19895E+00 0.00000E+00
 -1      2433 6.91350E+01 5.19895E+00 0.00000E+00
 -1      2434 7.35225E+01 5.03138E+00 0.00000E+00
 -1      2435 7.20975E+01 5.03138E+00 0.00000E+00
 -1      2436 7.64850E+01 5.19895E+00 0.00000E+00
 -1      2437 7.49850E+01 5.19895E+00 0.00000E+00
 -1      2438 7.94850E+01 5.19895E+00 0.00000E+00
 -1      2439 7.79850E+01 5.19895E+00 0.00000E+00
 -1      2440 7.72350E+01 6.39164E+00 0.00000E+00
 -1      2441 8.24850E+01 5.19895E+00 0.00000E+00
 -1      2442 8.09850E+01 5.19895E+00 0.00000E+00
 -1      2443 8.02350E+01 6.39164E+00 0.00000E+00
 -1      2444 8.54850E+01 5.19895E+00 0.00000E+00
 -1      2445 8.39850E+01 5.19895E+00 0.00000E+00
 -1      2446 8.32350E+01 6.39164E+00 0.00000E+00
 -1      2447 8.84850E+01 5.19895E+00 0.00000E+00
 -1      2448 8.69850E+01 5.19895E+00 0.00000E+00
 -1      2449 8.62350E+01 6.39164E+00 0.00000E+00
 -1      2450 9.14850E+01 5.19895E+00 0.00000E+00
 -1      2451 8.99850E+01 5.19895E+00 0.00000E+00
 -1      2452 8.92350E+01 6.39164E+00 0.00000E+00
 -1      2453 9.46350E+01 5.19895E+00 0.00000E+00
 -1      2454 9.30600E+01 5.19895E+00 0.00000E+00
 -1      2455 9.23100E+01 6.39164E+00 0.00000E+00
 -1      2456 9.76350E+01 5.19895E+00 0.00000E+00
 -1      2457 9.61350E+01 5.19895E+00 0.00000E+00
 -1      2458 9.53850E+01 6.39164E+00 0.00000E+00
 -1      2459 1.00635E+02 5.19895E+00 0.00000E+00
 -1      2460 9.91350E+01 5.19895E+00 0.00000E+00
 -1      2461 9.83850E+01 6.39164E+00 0.00000E+00
 -1      2462 1.03635E+02 5.19895E+00 0.00000E+00
 -1      2463 1.02135E+02 5.19895E+00 0.00000E+00
 -1      2464 1.01385E+02 6.39164E+00 0.00000E+00
 -1      2465 1.06635E+02 5.19895E+00 0.00000E+00
 -1      2466 1.05135E+02 5.19895E+00 0.00000E+00
 -1      2467 1.04385E+02 6.39164E+00 0.00000E+00
 -1      2468 1.09635E+02 5.19895E+00 0.00000E+00
 -1      2469 1.08135E+02 5.19895E+00 0.00000E+00
 -1      2470 1.07385E+02 6.39164E+00 0.00000E+00
 -1      2471 1.12635E+02 5.19895E+00 0.00000E+00
 -1      2472 1.11135E+02 5.19895E+00 0.00000E+00
 -1      2473 1.10385E+02 6.39164E+00 0.00000E+00
 -1      2474 1.15635E+02 5.19895E+00 0.00000E+00
 -1      2475 1.14135E+02 5.19895E+00 0.00000E+00
 -1      2476 1.13385E+02 6.39164E+00 0.00000E+00
 -1      2477 1.18635E+02 5.19895E+00 0.00000E+00
 -1      2478 1.17135E+02 5.19895E+00 0.00000E+00
 -1      2479 1.16385E+02 6.39164E+00 0.00000E+00
 -1      2480 1.21635E+02 5.19895E+00 0.00000E+00
 -1      2481 1.20135E+02 5.19895E+00 0.00000E+00
 -1      2482 1.19385E+02 6.39164E+00 0.00000E+00
 -1      2483 1.24635E+02 5.19895E+00 0.00000E+00
 -1      2484 1.23135E+02 5.19895E+00 0.00000E+00
 -1      2485 1.22385E+02 6.39164E+00 0.00000E+00
 -1      2486 1.27635E+02 5.19895E+00 0.00000E+00
 -1      2487 1.26135E+02 5.19895E+00 0.00000E+00
 -1      2488 1.25385E+02 6.39164E+00 0.00000E+00
 -1      2489 1.30635E+02 5.19895E+00 0.00000E+00
 -1      2490 1.29135E+02 5.19895E+00 0.00000E+00
 -1      2491 1.28385E+02 6.39164E+00 0.00000E+00
 -1      2492 1.33635E+02 5.19895E+00 0.00000E+00
 -1      2493 1.32135E+02 5.19895E+00 0.00000E+00
 -1      2494 1.31385E+02 6.39164E+00 0.00000E+00
 -1      2495 1.36635E+02 5.19895E+00 0.00000E+00
 -1      2496 1.35135E+02 5.19895E+00 0.00000E+00
 -1      2497 1.34385E+02 6.39164E+00 0.00000E+00
 -1      2498 1.39635E+02 5.19895E+00 0.00000E+00
 -1      2499 1.38135E+02 5.19895E+00 0.00000E+00
 -1      2500 1.37385E+02 6.39164E+00 0.00000E+00
 -1      2501 1.42635E+02 5.19895E+00 0.00000E+00
 -1      2502 1.41135E+02 5.19895E+00 0.00000E+00
 -1      2503 1.40385E+02 6.39164E+00 0.00000E+00
 -1      2504 1.44242E+02 5.26953E+00 0.00000E+00
 -1      2505 1.43505E+02 1.69125E+01 0.00000E+00
 -1      2506 1.43505E+02 1.54375E+01 0.00000E+00
 -1      2507 1.43505E+02 1.98625E+01 0.00000E+00
 -1      2508 1.43505E+02 1.83875E+01 0.00000E+00
 -1      2509 1.42206E+02 1.76500E+01 0.00000E+00
 -1      2510 1.43505E+02 1.10625E+01 0.00000E+00
 -1      2511 1.43505E+02 9.58750E+00 0.00000E+00
 -1      2512 1.43505E+02 1.39750E+01 0.00000E+00
 -1      2513 1.43505E+02 1.25250E+01 0.00000E+00
 -1      2514 1.42206E+02 1.17875E+01 0.00000E+00
 -1      2515 1.42206E+02 1.47125E+01 0.00000E+00
 -1      2516 1.43505E+02 2.28125E+01 0.00000E+00
 -1      2517 1.43505E+02 2.13375E+01 0.00000E+00
 -1      2518 1.42206E+02 2.06000E+01 0.00000E+00
 -1      2519 1.43505E+02 2.57625E+01 0.00000E+00
 -1      2520 1.43505E+02 2.42875E+01 0.00000E+00
 -1      2521 1.42206E+02 2.35500E+01 0.00000E+00
 -1      2522 1.43505E+02 2.87125E+01 0.00000E+00
 -1      2523 1.43505E+02 2.72375E+01 0.00000E+00
 -1      2524 1.42206E+02 2.65000E+01 0.00000E+00
 -1      2525 1.43505E+02 3.16125E+01 0.00000E+00
 -1      2526 1.43505E+02 3.01625E+01 0.00000E+00
 -1      2527 1.42206E+02 2.94250E+01 0.00000E+00
 -1      2528 1.43505E+02 3.45625E+01 0.00000E+00
 -1      2529 1.43505E+02 3.30875E+01 0.00000E+00
 -1      2530 1.42206E+02 3.23500E+01 0.00000E+00
 -1      2531 1.43505E+02 3.75125E+01 0.00000E+00
 -1      2532 1.43505E+02 3.60375E+01 0.00000E+00
 -1      2533 1.42206E+02 3.53000E+01 0.00000E+00
 -1      2534 1.43505E+02 4.04625E+01 0.00000E+00
 -1      2535 1.43505E+02 3.89875E+01 0.00000E+00
 -1      2536 1.42206E+02 3.82500E+01 0.00000E+00
 -1      2537 7.92257E+01 1.24978E+01 0.00000E+00
 -1      2538 7.97362E+01 1.33062E+01 0.00000E+00
 -1      2539 1.44321E+02 4.30606E+01 0.00000E+00
 -1      2540 8.10880E+01 1.86504E+01 0.00000E+00
 -1      2541 8.09029E+01 1.97798E+01 0.00000E+00
 -1      2542 1.67850E+01 5.30525E+00 0.00000E+00
 -1      2543 1.52850E+01 5.30525E+00 0.00000E+00
 -1      2544 1.75350E+01 6.60425E+00 0.00000E+00
 -1      2545 8.09022E+01 1.65896E+01 0.00000E+00
 -1      2546 8.10331E+01 1.74233E+01 0.00000E+00
 -1      2547 8.06947E+01 2.09377E+01 0.00000E+00
 -1      2548 8.04202E+01 2.19311E+01 0.00000E+00
 -1      2549 6.55950E+00 4.28890E+01 0.00000E+00
 -1      2550 8.53650E+00 4.32410E+01 0.00000E+00
 -1      2551 9.28650E+00 4.19420E+01 0.00000E+00
 -1      2552 6.55950E+00 4.14140E+01 0.00000E+00
 -1      2553 7.80571E+01 1.07785E+01 0.00000E+00
 -1      2554 7.86534E+01 1.16362E+01 0.00000E+00
 -1      2555 7.49144E+01 2.76821E+01 0.00000E+00
 -1      2556 7.38269E+01 2.80829E+01 0.00000E+00
 -1      2557 6.03451E+01 1.61082E+01 0.00000E+00
 -1      2558 6.06931E+01 1.51505E+01 0.00000E+00
 -1      2559 6.49500E+00 2.71625E+01 0.00000E+00
 -1      2560 6.49500E+00 2.86375E+01 0.00000E+00
 -1      2561 7.79400E+00 2.93750E+01 0.00000E+00
 -1      2562 7.79400E+00 2.64250E+01 0.00000E+00
 -1      2563 6.95978E+01 7.29969E+00 0.00000E+00
 -1      2564 7.06566E+01 7.44615E+00 0.00000E+00
 -1      2565 6.40997E+01 2.62615E+01 0.00000E+00
 -1      2566 6.32849E+01 2.55521E+01 0.00000E+00
 -1      2567 7.19936E+01 7.82504E+00 0.00000E+00
 -1      2568 7.29690E+01 7.92926E+00 0.00000E+00
 -1      2569 6.73231E+01 7.99327E+00 0.00000E+00
 -1      2570 6.84597E+01 7.59649E+00 0.00000E+00
 -1      2571 6.52927E+01 8.98070E+00 0.00000E+00
 -1      2572 6.62564E+01 8.54913E+00 0.00000E+00
 -1      2573 6.17536E+01 1.24550E+01 0.00000E+00
 -1      2574 6.21645E+01 1.15899E+01 0.00000E+00
 -1      2575 6.09843E+01 1.41248E+01 0.00000E+00
 -1      2576 6.13689E+01 1.32899E+01 0.00000E+00
 -1      2577 6.08376E+01 1.25074E+01 0.00000E+00
 -1      2578 5.99870E+01 1.82715E+01 0.00000E+00
 -1      2579 5.99704E+01 1.73155E+01 0.00000E+00
 -1      2580 6.13123E+01 2.28646E+01 0.00000E+00
 -1      2581 6.09128E+01 2.21148E+01 0.00000E+00
 -1      2582 7.98954E+01 2.30902E+01 0.00000E+00
 -1      2583 7.93428E+01 2.39261E+01 0.00000E+00
 -1      2584 6.24840E+01 2.45790E+01 0.00000E+00
 -1      2585 6.18982E+01 2.37218E+01 0.00000E+00
 -1      2586 6.09416E+01 2.37501E+01 0.00000E+00
 -1      2587 6.59697E+01 2.73966E+01 0.00000E+00
 -1      2588 6.51085E+01 2.69535E+01 0.00000E+00
 -1      2589 6.81892E+01 2.84586E+01 0.00000E+00
 -1      2590 6.70795E+01 2.79276E+01 0.00000E+00
 -1      2591 6.62565E+01 2.84686E+01 0.00000E+00
 -1      2592 7.07154E+01 2.85065E+01 0.00000E+00
 -1      2593 6.96728E+01 2.86780E+01 0.00000E+00
 -1      2594 7.26045E+01 2.84106E+01 0.00000E+00
 -1      2595 7.16599E+01 2.84586E+01 0.00000E+00
 -1      2596 7.12778E+01 2.93905E+01 0.00000E+00
 -1      2597 7.67950E+01 2.66872E+01 0.00000E+00
 -1      2598 7.60646E+01 2.71956E+01 0.00000E+00
 -1      2599 7.85357E+01 2.49144E+01 0.00000E+00
 -1      2600 7.76714E+01 2.58090E+01 0.00000E+00
 -1      2601 8.03384E+01 1.43744E+01 0.00000E+00
 -1      2602 8.07267E+01 1.54559E+01 0.00000E+00
 -1      2603 8.07525E+00 5.11044E+00 0.00000E+00
 -1      2604 6.57525E+00 5.11044E+00 0.00000E+00
 -1      2605 6.40575E+00 6.01981E+00 0.00000E+00
 -1      2606 8.82525E+00 6.40944E+00 0.00000E+00
 -1      2607 7.60678E+01 9.21313E+00 0.00000E+00
 -1      2608 7.70463E+01 9.82862E+00 0.00000E+00
 -1      2609 7.12220E+01 6.77053E+00 0.00000E+00
 -1      2610 7.79400E+00 3.52687E+01 0.00000E+00
 -1      2611 6.49500E+00 3.60062E+01 0.00000E+00
 -1      2612 6.49500E+00 3.74750E+01 0.00000E+00
 -1      2613 1.45350E+01 6.60425E+00 0.00000E+00
 -1      2614 6.40575E+00 7.49481E+00 0.00000E+00
 -1      2615 7.59716E+01 8.26389E+00 0.00000E+00
 -1      2616 7.95274E+01 2.49693E+01 0.00000E+00
 -1      2617 7.34448E+01 2.90149E+01 0.00000E+00
 -1      2618 7.79798E+01 9.81576E+00 0.00000E+00
 -1      2619 7.89132E+01 9.80291E+00 0.00000E+00
 -1      2620 7.79025E+01 8.85304E+00 0.00000E+00
 -1      2621 6.88498E+01 2.92190E+01 0.00000E+00
 -1      2622 6.80268E+01 2.97599E+01 0.00000E+00
 -1      2623 6.95103E+01 2.99794E+01 0.00000E+00
 -1      2624 6.23283E+01 2.55804E+01 0.00000E+00
 -1      2625 8.15922E+01 2.05049E+01 0.00000E+00
 -1      2626 8.08593E+01 2.28219E+01 0.00000E+00
 -1      2627 6.77100E+01 5.03138E+00 0.00000E+00
 -1      2628 6.63600E+01 5.03138E+00 0.00000E+00
 -1      2629 7.42725E+01 6.22407E+00 0.00000E+00
 -1      2630 1.43492E+02 6.46223E+00 0.00000E+00
 -1      2631 1.43344E+02 7.62082E+00 0.00000E+00
 -1      2632 6.41380E+01 2.72456E+01 0.00000E+00
 -1      2633 8.07374E+01 1.35571E+01 0.00000E+00
 -1      2634 7.95629E+01 1.16272E+01 0.00000E+00
 -1      2635 1.42758E+02 4.35929E+01 0.00000E+00
 -1      2636 1.43241E+02 4.17323E+01 0.00000E+00
 -1      2637 1.41942E+02 4.09948E+01 0.00000E+00
 -1      2638 1.41414E+02 4.35342E+01 0.00000E+00
 -1      2639 6.01618E+01 1.43680E+01 0.00000E+00
 -1      2640 8.17455E+01 1.81199E+01 0.00000E+00
 -1      2641 7.70475E+00 8.23231E+00 0.00000E+00
 -1      2642 8.15152E+01 1.57591E+01 0.00000E+00
 -1      2643 5.94959E+01 1.66010E+01 0.00000E+00
 -1      2644 6.56100E+01 6.33038E+00 0.00000E+00
 -1      2645 6.43884E+01 8.95664E+00 0.00000E+00
 -1      2646 7.58174E+01 2.82006E+01 0.00000E+00
 -1      2647 6.65421E+01 7.54110E+00 0.00000E+00
 -1      2648 6.55950E+00 3.99453E+01 0.00000E+00
 -1      2649 6.02211E+01 2.15511E+01 0.00000E+00
 -1      2650 5.95293E+01 2.09874E+01 0.00000E+00
 -1      2651 5.96640E+01 2.23292E+01 0.00000E+00
 -1      2652 6.22618E+01 1.07444E+01 0.00000E+00
 -1      2653 6.23591E+01 9.89897E+00 0.00000E+00
 -1      2654 6.13195E+01 1.08271E+01 0.00000E+00
 -1      2655 7.37666E+01 7.40565E+00 0.00000E+00
 -1      2656 6.87469E+01 6.68844E+00 0.00000E+00
 -1      2657 5.96039E+01 1.90088E+01 0.00000E+00
 -1      2658 5.87381E+01 1.85457E+01 0.00000E+00
 -1      2659 5.92207E+01 1.97461E+01 0.00000E+00
 -1      2660 7.78439E+01 2.68358E+01 0.00000E+00
 -1      2661 1.42046E+02 8.35832E+00 0.00000E+00
 -1      2662 1.40664E+02 4.22352E+01 0.00000E+00
 -1      2663 9.09300E+00 1.98250E+01 0.00000E+00
 -1      2664 9.09300E+00 2.12750E+01 0.00000E+00
 -1      2665 9.09300E+00 2.27500E+01 0.00000E+00
 -1      2666 9.09300E+00 2.42250E+01 0.00000E+00
 -1      2667 1.03920E+01 2.20250E+01 0.00000E+00
 -1      2668 9.09300E+00 1.39375E+01 0.00000E+00
 -1      2669 9.09300E+00 1.54125E+01 0.00000E+00
 -1      2670 9.09300E+00 1.09875E+01 0.00000E+00
 -1      2671 9.09300E+00 1.24625E+01 0.00000E+00
 -1      2672 1.03920E+01 1.32000E+01 0.00000E+00
 -1      2673 1.22850E+01 7.90325E+00 0.00000E+00
 -1      2674 1.07850E+01 7.90325E+00 0.00000E+00
 -1      2675 8.22749E+01 1.50611E+01 0.00000E+00
 -1      2676 8.24504E+01 1.61948E+01 0.00000E+00
 -1      2677 1.52850E+01 7.90325E+00 0.00000E+00
 -1      2678 1.37850E+01 7.90325E+00 0.00000E+00
 -1      2679 1.30350E+01 9.20225E+00 0.00000E+00
 -1      2680 8.06600E+01 2.50706E+01 0.00000E+00
 -1      2681 7.98529E+01 2.60589E+01 0.00000E+00
 -1      2682 1.44000E+01 4.09070E+01 0.00000E+00
 -1      2683 1.59000E+01 4.09070E+01 0.00000E+00
 -1      2684 1.74000E+01 4.09070E+01 0.00000E+00
 -1      2685 1.89000E+01 4.09070E+01 0.00000E+00
 -1      2686 1.66500E+01 3.96080E+01 0.00000E+00
 -1      2687 2.04000E+01 4.09070E+01 0.00000E+00
 -1      2688 2.19000E+01 4.09070E+01 0.00000E+00
 -1      2689 1.96500E+01 3.96080E+01 0.00000E+00
 -1      2690 2.34000E+01 4.09070E+01 0.00000E+00
 -1      2691 2.49000E+01 4.09070E+01 0.00000E+00
 -1      2692 2.26500E+01 3.96080E+01 0.00000E+00
 -1      2693 2.64000E+01 4.09070E+01 0.00000E+00
 -1      2694 2.79000E+01 4.09070E+01 0.00000E+00
 -1      2695 2.56500E+01 3.96080E+01 0.00000E+00
 -1      2696 2.94000E+01 4.09070E+01 0.00000E+00
 -1      2697 3.09000E+01 4.09070E+01 0.00000E+00
 -1      2698 2.86500E+01 3.96080E+01 0.00000E+00
 -1      2699 3.24000E+01 4.09070E+01 0.00000E+00
 -1      2700 3.39000E+01 4.09070E+01 0.00000E+00
 -1      2701 3.16500E+01 3.96080E+01 0.00000E+00
 -1      2702 3.54000E+01 4.09070E+01 0.00000E+00
 -1      2703 3.69000E+01 4.09070E+01 0.00000E+00
 -1      2704 3.46500E+01 3.96080E+01 0.00000E+00
 -1      2705 3.84000E+01 4.09070E+01 0.00000E+00
 -1      2706 3.99000E+01 4.09070E+01 0.00000E+00
 -1      2707 3.76500E+01 3.96080E+01 0.00000E+00
 -1      2708 4.14000E+01 4.09070E+01 0.00000E+00
 -1      2709 4.29000E+01 4.09070E+01 0.00000E+00
 -1      2710 4.06500E+01 3.96080E+01 0.00000E+00
 -1      2711 4.44000E+01 4.09070E+01 0.00000E+00
 -1      2712 4.59000E+01 4.09070E+01 0.00000E+00
 -1      2713 4.36500E+01 3.96080E+01 0.00000E+00
 -1      2714 4.74000E+01 4.09070E+01 0.00000E+00
 -1      2715 4.89000E+01 4.09070E+01 0.00000E+00
 -1      2716 4.66500E+01 3.96080E+01 0.00000E+00
 -1      2717 5.04000E+01 4.09070E+01 0.00000E+00
 -1      2718 5.19000E+01 4.09070E+01 0.00000E+00
 -1      2719 4.96500E+01 3.96080E+01 0.00000E+00
 -1      2720 5.34000E+01 4.09070E+01 0.00000E+00
 -1      2721 5.49000E+01 4.09070E+01 0.00000E+00
 -1      2722 5.26500E+01 3.96080E+01 0.00000E+00
 -1      2723 5.64000E+01 4.09070E+01 0.00000E+00
 -1      2724 5.79000E+01 4.09070E+01 0.00000E+00
 -1      2725 5.56500E+01 3.96080E+01 0.00000E+00
 -1      2726 5.94000E+01 4.09070E+01 0.00000E+00
 -1      2727 6.09000E+01 4.09070E+01 0.00000E+00
 -1      2728 5.86500E+01 3.96080E+01 0.00000E+00
 -1      2729 6.24000E+01 4.09070E+01 0.00000E+00
 -1      2730 6.39000E+01 4.09070E+01 0.00000E+00
 -1      2731 6.16500E+01 3.96080E+01 0.00000E+00
 -1      2732 6.54000E+01 4.09070E+01 0.00000E+00
 -1      2733 6.69000E+01 4.09070E+01 0.00000E+00
 -1      2734 6.46500E+01 3.96080E+01 0.00000E+00
 -1      2735 6.84000E+01 4.09070E+01 0.00000E+00
 -1      2736 6.99000E+01 4.09070E+01 0.00000E+00
 -1      2737 6.76500E+01 3.96080E+01 0.00000E+00
 -1      2738 7.14000E+01 4.09070E+01 0.00000E+00
 -1      2739 7.29000E+01 4.09070E+01 0.00000E+00
 -1      2740 7.06500E+01 3.96080E+01 0.00000E+00
 -1      2741 7.44000E+01 4.09070E+01 0.00000E+00
 -1      2742 7.59000E+01 4.09070E+01 0.00000E+00
 -1      2743 7.36500E+01 3.96080E+01 0.00000E+00
 -1      2744 7.74000E+01 4.09070E+01 0.00000E+00
 -1      2745 7.89000E+01 4.09070E+01 0.00000E+00
 -1      2746 7.66500E+01 3.96080E+01 0.00000E+00
 -1      2747 8.04000E+01 4.09070E+01 0.00000E+00
 -1      2748 8.19000E+01 4.09070E+01 0.00000E+00
 -1      2749 7.96500E+01 3.96080E+01 0.00000E+00
 -1      2750 8.34000E+01 4.09070E+01 0.00000E+00
 -1      2751 8.49000E+01 4.09070E+01 0.00000E+00
 -1      2752 8.26500E+01 3.96080E+01 0.00000E+00
 -1      2753 8.64000E+01 4.09070E+01 0.00000E+00
 -1      2754 8.79000E+01 4.09070E+01 0.00000E+00
 -1      2755 8.56500E+01 3.96080E+01 0.00000E+00
 -1      2756 8.94000E+01 4.09070E+01 0.00000E+00
 -1      2757 9.09000E+01 4.09070E+01 0.00000E+00
 -1      2758 8.86500E+01 3.96080E+01 0.00000E+00
 -1      2759 9.24000E+01 4.09070E+01 0.00000E+00
 -1      2760 9.39000E+01 4.09070E+01 0.00000E+00
 -1      2761 9.16500E+01 3.96080E+01 0.00000E+00
 -1      2762 9.54000E+01 4.09070E+01 0.00000E+00
 -1      2763 9.69000E+01 4.09070E+01 0.00000E+00
 -1      2764 9.46500E+01 3.96080E+01 0.00000E+00
 -1      2765 9.84000E+01 4.09070E+01 0.00000E+00
 -1      2766 9.99000E+01 4.09070E+01 0.00000E+00
 -1      2767 9.76500E+01 3.96080E+01 0.00000E+00
 -1      2768 1.01400E+02 4.09070E+01 0.00000E+00
 -1      2769 1.02900E+02 4.09070E+01 0.00000E+00
 -1      2770 1.00650E+02 3.96080E+01 0.00000E+00
 -1      2771 1.04400E+02 4.09070E+01 0.00000E+00
 -1      2772 1.05900E+02 4.09070E+01 0.00000E+00
 -1      2773 1.03650E+02 3.96080E+01 0.00000E+00
 -1      2774 1.07400E+02 4.09070E+01 0.00000E+00
 -1      2775 1.08900E+02 4.09070E+01 0.00000E+00
 -1      2776 1.06650E+02 3.96080E+01 0.00000E+00
 -1      2777 1.10400E+02 4.09070E+01 0.00000E+00
 -1      2778 1.11900E+02 4.09070E+01 0.00000E+00
 -1      2779 1.09650E+02 3.96080E+01 0.00000E+00
 -1      2780 1.13400E+02 4.09070E+01 0.00000E+00
 -1      2781 1.14900E+02 4.09070E+01 0.00000E+00
 -1      2782 1.12650E+02 3.96080E+01 0.00000E+00
 -1      2783 1.16400E+02 4.09070E+01 0.00000E+00
 -1      2784 1.17900E+02 4.09070E+01 0.00000E+00
 -1      2785 1.15650E+02 3.96080E+01 0.00000E+00
 -1      2786 1.19400E+02 4.09070E+01 0.00000E+00
 -1      2787 1.20900E+02 4.09070E+01 0.00000E+00
 -1      2788 1.18650E+02 3.96080E+01 0.00000E+00
 -1      2789 1.22400E+02 4.09070E+01 0.00000E+00
 -1      2790 1.23900E+02 4.09070E+01 0.00000E+00
 -1      2791 1.21650E+02 3.96080E+01 0.00000E+00
 -1      2792 1.25400E+02 4.09070E+01 0.00000E+00
 -1      2793 1.26900E+02 4.09070E+01 0.00000E+00
 -1      2794 1.24650E+02 3.96080E+01 0.00000E+00
 -1      2795 1.28400E+02 4.09070E+01 0.00000E+00
 -1      2796 1.29900E+02 4.09070E+01 0.00000E+00
 -1      2797 1.27650E+02 3.96080E+01 0.00000E+00
 -1      2798 1.31400E+02 4.09070E+01 0.00000E+00
 -1      2799 1.32900E+02 4.09070E+01 0.00000E+00
 -1      2800 1.30650E+02 3.96080E+01 0.00000E+00
 -1      2801 1.34400E+02 4.09070E+01 0.00000E+00
 -1      2802 1.35900E+02 4.09070E+01 0.00000E+00
 -1      2803 1.33650E+02 3.96080E+01 0.00000E+00
 -1      2804 1.37400E+02 4.09070E+01 0.00000E+00
 -1      2805 1.38900E+02 4.09070E+01 0.00000E+00
 -1      2806 1.36650E+02 3.96080E+01 0.00000E+00
 -1      2807 2.42850E+01 7.90325E+00 0.00000E+00
 -1      2808 2.27850E+01 7.90325E+00 0.00000E+00
 -1      2809 5.92315E+01 1.46581E+01 0.00000E+00
 -1      2810 5.95227E+01 1.36324E+01 0.00000E+00
 -1      2811 2.12850E+01 7.90325E+00 0.00000E+00
 -1      2812 1.97850E+01 7.90325E+00 0.00000E+00
 -1      2813 2.20350E+01 9.20225E+00 0.00000E+00
 -1      2814 3.02850E+01 7.90325E+00 0.00000E+00
 -1      2815 2.87850E+01 7.90325E+00 0.00000E+00
 -1      2816 3.32850E+01 7.90325E+00 0.00000E+00
 -1      2817 3.17850E+01 7.90325E+00 0.00000E+00
 -1      2818 3.10350E+01 9.20225E+00 0.00000E+00
 -1      2819 3.62850E+01 7.90325E+00 0.00000E+00
 -1      2820 3.47850E+01 7.90325E+00 0.00000E+00
 -1      2821 3.40350E+01 9.20225E+00 0.00000E+00
 -1      2822 3.92850E+01 7.90325E+00 0.00000E+00
 -1      2823 3.77850E+01 7.90325E+00 0.00000E+00
 -1      2824 3.70350E+01 9.20225E+00 0.00000E+00
 -1      2825 4.22850E+01 7.90325E+00 0.00000E+00
 -1      2826 4.07850E+01 7.90325E+00 0.00000E+00
 -1      2827 4.00350E+01 9.20225E+00 0.00000E+00
 -1      2828 4.52850E+01 7.90325E+00 0.00000E+00
 -1      2829 4.37850E+01 7.90325E+00 0.00000E+00
 -1      2830 4.30350E+01 9.20225E+00 0.00000E+00
 -1      2831 4.82850E+01 7.90325E+00 0.00000E+00
 -1      2832 4.67850E+01 7.90325E+00 0.00000E+00
 -1      2833 4.60350E+01 9.20225E+00 0.00000E+00
 -1      2834 5.12850E+01 7.90325E+00 0.00000E+00
 -1      2835 4.97850E+01 7.90325E+00 0.00000E+00
 -1      2836 4.90350E+01 9.20225E+00 0.00000E+00
 -1      2837 5.44350E+01 7.90325E+00 0.00000E+00
 -1      2838 5.28600E+01 7.90325E+00 0.00000E+00
 -1      2839 5.21100E+01 9.20225E+00 0.00000E+00
 -1      2840 5.74350E+01 7.90325E+00 0.00000E+00
 -1      2841 5.59350E+01 7.90325E+00 0.00000E+00
 -1      2842 5.51850E+01 9.20225E+00 0.00000E+00
 -1      2843 6.13009E+01 8.29294E+00 0.00000E+00
 -1      2844 5.98009E+01 8.29294E+00 0.00000E+00
 -1      2845 7.13475E+01 6.22407E+00 0.00000E+00
 -1      2846 7.87855E+01 7.61591E+00 0.00000E+00
 -1      2847 7.72855E+01 7.61591E+00 0.00000E+00
 -1      2848 8.69850E+01 7.69064E+00 0.00000E+00
 -1      2849 8.54850E+01 7.69064E+00 0.00000E+00
 -1      2850 8.99850E+01 7.69064E+00 0.00000E+00
 -1      2851 8.84850E+01 7.69064E+00 0.00000E+00
 -1      2852 8.77350E+01 8.98964E+00 0.00000E+00
 -1      2853 9.31350E+01 7.69064E+00 0.00000E+00
 -1      2854 9.15600E+01 7.69064E+00 0.00000E+00
 -1      2855 9.08100E+01 8.98964E+00 0.00000E+00
 -1      2856 9.61350E+01 7.69064E+00 0.00000E+00
 -1      2857 9.46350E+01 7.69064E+00 0.00000E+00
 -1      2858 9.38850E+01 8.98964E+00 0.00000E+00
 -1      2859 9.91350E+01 7.69064E+00 0.00000E+00
 -1      2860 9.76350E+01 7.69064E+00 0.00000E+00
 -1      2861 9.68850E+01 8.98964E+00 0.00000E+00
 -1      2862 1.02135E+02 7.69064E+00 0.00000E+00
 -1      2863 1.00635E+02 7.69064E+00 0.00000E+00
 -1      2864 9.98850E+01 8.98964E+00 0.00000E+00
 -1      2865 1.05135E+02 7.69064E+00 0.00000E+00
 -1      2866 1.03635E+02 7.69064E+00 0.00000E+00
 -1      2867 1.02885E+02 8.98964E+00 0.00000E+00
 -1      2868 1.08135E+02 7.69064E+00 0.00000E+00
 -1      2869 1.06635E+02 7.69064E+00 0.00000E+00
 -1      2870 1.05885E+02 8.98964E+00 0.00000E+00
 -1      2871 1.11135E+02 7.69064E+00 0.00000E+00
 -1      2872 1.09635E+02 7.69064E+00 0.00000E+00
 -1      2873 1.08885E+02 8.98964E+00 0.00000E+00
 -1      2874 1.14135E+02 7.69064E+00 0.00000E+00
 -1      2875 1.12635E+02 7.69064E+00 0.00000E+00
 -1      2876 1.11885E+02 8.98964E+00 0.00000E+00
 -1      2877 1.17135E+02 7.69064E+00 0.00000E+00
 -1      2878 1.15635E+02 7.69064E+00 0.00000E+00
 -1      2879 1.14885E+02 8.98964E+00 0.00000E+00
 -1      2880 1.20135E+02 7.69064E+00 0.00000E+00
 -1      2881 1.18635E+02 7.69064E+00 0.00000E+00
 -1      2882 1.17885E+02 8.98964E+00 0.00000E+00
 -1      2883 1.23135E+02 7.69064E+00 0.00000E+00
 -1      2884 1.21635E+02 7.69064E+00 0.00000E+00
 -1      2885 1.20885E+02 8.98964E+00 0.00000E+00
 -1      2886 1.26135E+02 7.69064E+00 0.00000E+00
 -1      2887 1.24635E+02 7.69064E+00 0.00000E+00
 -1      2888 1.23885E+02 8.98964E+00 0.00000E+00
 -1      2889 1.29135E+02 7.69064E+00 0.00000E+00
 -1      2890 1.27635E+02 7.69064E+00 0.00000E+00
 -1      2891 1.26885E+02 8.98964E+00 0.00000E+00
 -1      2892 1.32135E+02 7.69064E+00 0.00000E+00
 -1      2893 1.30635E+02 7.69064E+00 0.00000E+00
 -1      2894 1.29885E+02 8.98964E+00 0.00000E+00
 -1      2895 1.35135E+02 7.69064E+00 0.00000E+00
 -1      2896 1.33635E+02 7.69064E+00 0.00000E+00
 -1      2897 1.32885E+02 8.98964E+00 0.00000E+00
 -1      2898 1.38135E+02 7.69064E+00 0.00000E+00
 -1      2899 1.36635E+02 7.69064E+00 0.00000E+00
 -1      2900 1.35885E+02 8.98964E+00 0.00000E+00
 -1      2901 1.40840E+02 8.02448E+00 0.00000E+00
 -1      2902 1.39340E+02 8.02448E+00 0.00000E+00
 -1      2903 1.38590E+02 9.32348E+00 0.00000E+00
 -1      2904 1.41001E+02 9.99116E+00 0.00000E+00
 -1      2905 1.40907E+02 2.42875E+01 0.00000E+00
 -1      2906 1.40907E+02 2.28125E+01 0.00000E+00
 -1      2907 1.39914E+02 4.09362E+01 0.00000E+00
 -1      2908 1.40928E+02 4.09655E+01 0.00000E+00
 -1      2909 1.39164E+02 3.96372E+01 0.00000E+00
 -1      2910 1.40907E+02 1.83875E+01 0.00000E+00
 -1      2911 1.40907E+02 1.69125E+01 0.00000E+00
 -1      2912 1.40907E+02 2.72375E+01 0.00000E+00
 -1      2913 1.40907E+02 2.57625E+01 0.00000E+00
 -1      2914 1.39608E+02 2.50250E+01 0.00000E+00
 -1      2915 1.40907E+02 2.13375E+01 0.00000E+00
 -1      2916 1.40907E+02 1.98625E+01 0.00000E+00
 -1      2917 1.39608E+02 1.91250E+01 0.00000E+00
 -1      2918 1.39608E+02 2.20750E+01 0.00000E+00
 -1      2919 1.82850E+01 7.90325E+00 0.00000E+00
 -1      2920 1.67850E+01 7.90325E+00 0.00000E+00
 -1      2921 1.60350E+01 9.20225E+00 0.00000E+00
 -1      2922 1.90350E+01 9.20225E+00 0.00000E+00
 -1      2923 1.40907E+02 3.01375E+01 0.00000E+00
 -1      2924 1.40907E+02 2.86875E+01 0.00000E+00
 -1      2925 1.39608E+02 2.79500E+01 0.00000E+00
 -1      2926 1.40907E+02 3.30875E+01 0.00000E+00
 -1      2927 1.40907E+02 3.16125E+01 0.00000E+00
 -1      2928 1.39608E+02 3.08750E+01 0.00000E+00
 -1      2929 1.40907E+02 3.60375E+01 0.00000E+00
 -1      2930 1.40907E+02 3.45625E+01 0.00000E+00
 -1      2931 1.39608E+02 3.38250E+01 0.00000E+00
 -1      2932 8.85168E+00 4.05347E+01 0.00000E+00
 -1      2933 1.02152E+01 4.07987E+01 0.00000E+00
 -1      2934 8.91450E+00 8.42712E+00 0.00000E+00
 -1      2935 8.01306E+01 1.06292E+01 0.00000E+00
 -1      2936 8.07029E+01 1.14908E+01 0.00000E+00
 -1      2937 8.25748E+01 1.74681E+01 0.00000E+00
 -1      2938 8.26296E+01 1.86952E+01 0.00000E+00
 -1      2939 8.19029E+01 2.25960E+01 0.00000E+00
 -1      2940 8.13781E+01 2.37551E+01 0.00000E+00
 -1      2941 8.02855E+01 7.61591E+00 0.00000E+00
 -1      2942 6.41098E+01 2.83678E+01 0.00000E+00
 -1      2943 6.31011E+01 2.76758E+01 0.00000E+00
 -1      2944 2.72850E+01 7.90325E+00 0.00000E+00
 -1      2945 2.57850E+01 7.90325E+00 0.00000E+00
 -1      2946 2.50350E+01 9.20225E+00 0.00000E+00
 -1      2947 2.80350E+01 9.20225E+00 0.00000E+00
 -1      2948 1.15576E+01 4.08528E+01 0.00000E+00
 -1      2949 1.30576E+01 4.08528E+01 0.00000E+00
 -1      2950 1.38076E+01 3.95538E+01 0.00000E+00
 -1      2951 1.11228E+01 3.94455E+01 0.00000E+00
 -1      2952 8.13052E+01 1.25591E+01 0.00000E+00
 -1      2953 8.19074E+01 1.36274E+01 0.00000E+00
 -1      2954 8.18729E+01 1.15611E+01 0.00000E+00
 -1      2955 1.41192E+02 3.96958E+01 0.00000E+00
 -1      2956 9.09300E+00 1.68813E+01 0.00000E+00
 -1      2957 9.09300E+00 1.83563E+01 0.00000E+00
 -1      2958 1.03920E+01 1.90812E+01 0.00000E+00
 -1      2959 1.03920E+01 1.61437E+01 0.00000E+00
 -1      2960 9.09300E+00 3.15875E+01 0.00000E+00
 -1      2961 9.09300E+00 3.30625E+01 0.00000E+00
 -1      2962 8.26228E+01 2.00925E+01 0.00000E+00
 -1      2963 8.24146E+01 2.12504E+01 0.00000E+00
 -1      2964 7.48818E+00 3.88019E+01 0.00000E+00
 -1      2965 7.67919E+01 2.89014E+01 0.00000E+00
 -1      2966 7.56417E+01 2.93880E+01 0.00000E+00
 -1      2967 5.99074E+01 1.27975E+01 0.00000E+00
 -1      2968 6.02920E+01 1.19626E+01 0.00000E+00
 -1      2969 5.89771E+01 1.30876E+01 0.00000E+00
 -1      2970 7.90670E+01 2.71799E+01 0.00000E+00
 -1      2971 7.81907E+01 2.80582E+01 0.00000E+00
 -1      2972 7.43431E+01 2.99221E+01 0.00000E+00
 -1      2973 7.31207E+01 3.02498E+01 0.00000E+00
 -1      2974 6.05265E+01 2.46626E+01 0.00000E+00
 -1      2975 5.99407E+01 2.38054E+01 0.00000E+00
 -1      2976 6.20667E+01 2.66120E+01 0.00000E+00
 -1      2977 6.12658E+01 2.56389E+01 0.00000E+00
 -1      2978 6.64051E+01 2.95832E+01 0.00000E+00
 -1      2979 6.52953E+01 2.90522E+01 0.00000E+00
 -1      2980 7.17978E+01 3.03067E+01 0.00000E+00
 -1      2981 7.08533E+01 3.03546E+01 0.00000E+00
 -1      2982 5.85296E+01 1.69630E+01 0.00000E+00
 -1      2983 5.89042E+01 1.57556E+01 0.00000E+00
 -1      2984 9.09300E+00 3.45313E+01 0.00000E+00
 -1      2985 9.09300E+00 3.60000E+01 0.00000E+00
 -1      2986 1.03920E+01 3.37938E+01 0.00000E+00
 -1      2987 1.03920E+01 2.49750E+01 0.00000E+00
 -1      2988 9.09300E+00 2.57000E+01 0.00000E+00
 -1      2989 9.09300E+00 2.71750E+01 0.00000E+00
 -1      2990 8.01997E+01 2.72813E+01 0.00000E+00
 -1      2991 8.33345E+01 1.67701E+01 0.00000E+00
 -1      2992 8.17036E+01 2.48447E+01 0.00000E+00
 -1      2993 7.00303E+01 3.08956E+01 0.00000E+00
 -1      2994 1.39608E+02 1.61875E+01 0.00000E+00
 -1      2995 1.40907E+02 1.54500E+01 0.00000E+00
 -1      2996 1.40907E+02 1.39875E+01 0.00000E+00
 -1      2997 7.80150E+01 2.92456E+01 0.00000E+00
 -1      2998 6.84600E+01 6.22407E+00 0.00000E+00
 -1      2999 5.90509E+01 9.59194E+00 0.00000E+00
 -1      3000 6.34350E+01 7.62938E+00 0.00000E+00
 -1      3001 6.19350E+01 7.62938E+00 0.00000E+00
 -1      3002 6.20385E+01 2.77342E+01 0.00000E+00
 -1      3003 7.53546E+01 7.02677E+00 0.00000E+00
 -1      3004 7.38921E+01 6.85920E+00 0.00000E+00
 -1      3005 8.37528E+01 9.74122E+00 0.00000E+00
 -1      3006 8.30028E+01 8.44222E+00 0.00000E+00
 -1      3007 1.40954E+02 1.27206E+01 0.00000E+00
 -1      3008 1.40954E+02 1.12581E+01 0.00000E+00
 -1      3009 1.39749E+02 1.09242E+01 0.00000E+00
 -1      3010 1.39655E+02 1.34581E+01 0.00000E+00
 -1      3011 8.29334E+01 2.21837E+01 0.00000E+00
 -1      3012 8.28426E+01 1.40631E+01 0.00000E+00
 -1      3013 7.53176E+01 3.06229E+01 0.00000E+00
 -1      3014 1.41192E+02 3.82207E+01 0.00000E+00
 -1      3015 5.81465E+01 1.77003E+01 0.00000E+00
 -1      3016 5.75548E+01 1.68548E+01 0.00000E+00
 -1      3017 5.77633E+01 1.84375E+01 0.00000E+00
 -1      3018 6.70656E+01 3.03436E+01 0.00000E+00
 -1      3019 6.61045E+01 3.09273E+01 0.00000E+00
 -1      3020 6.77262E+01 3.11040E+01 0.00000E+00
 -1      3021 7.26961E+01 3.12139E+01 0.00000E+00
 -1      3022 7.63520E+01 7.62877E+00 0.00000E+00
 -1      3023 9.66450E+00 9.72612E+00 0.00000E+00
 -1      3024 8.00533E+01 9.66649E+00 0.00000E+00
 -1      3025 8.34520E+01 1.94407E+01 0.00000E+00
 -1      3026 5.82652E+01 1.50200E+01 0.00000E+00
 -1      3027 8.78718E+00 3.80644E+01 0.00000E+00
 -1      3028 6.62552E+01 7.07673E+00 0.00000E+00
 -1      3029 6.48302E+01 7.35060E+00 0.00000E+00
 -1      3030 5.92489E+01 2.32417E+01 0.00000E+00
 -1      3031 5.85572E+01 2.26780E+01 0.00000E+00
 -1      3032 5.88338E+01 2.41542E+01 0.00000E+00
 -1      3033 8.15028E+01 8.44222E+00 0.00000E+00
 -1      3034 9.09300E+00 2.86437E+01 0.00000E+00
 -1      3035 9.09300E+00 3.01187E+01 0.00000E+00
 -1      3036 1.03920E+01 3.08563E+01 0.00000E+00
 -1      3037 1.03920E+01 2.79188E+01 0.00000E+00
 -1      3038 6.42584E+01 2.94825E+01 0.00000E+00
 -1      3039 6.02648E+01 2.56941E+01 0.00000E+00
 -1      3040 1.39529E+02 3.85602E+01 0.00000E+00
 -1      3041 1.40542E+02 3.71145E+01 0.00000E+00
 -1      3042 1.39243E+02 3.63770E+01 0.00000E+00
 -1      3043 1.38514E+02 3.85310E+01 0.00000E+00
 -1      3044 5.86636E+01 2.05242E+01 0.00000E+00
 -1      3045 6.40802E+01 8.37573E+00 0.00000E+00
 -1      3046 1.09635E+01 1.04636E+01 0.00000E+00
 -1      3047 1.16910E+01 1.24625E+01 0.00000E+00
 -1      3048 1.16910E+01 1.39375E+01 0.00000E+00
 -1      3049 6.42548E+01 3.08576E+01 0.00000E+00
 -1      3050 6.30694E+01 3.01732E+01 0.00000E+00
 -1      3051 1.89000E+01 3.83090E+01 0.00000E+00
 -1      3052 2.04000E+01 3.83090E+01 0.00000E+00
 -1      3053 2.19000E+01 3.83090E+01 0.00000E+00
 -1      3054 2.34000E+01 3.83090E+01 0.00000E+00
 -1      3055 2.11500E+01 3.70100E+01 0.00000E+00
 -1      3056 2.49000E+01 3.83090E+01 0.00000E+00
 -1      3057 2.64000E+01 3.83090E+01 0.00000E+00
 -1      3058 2.41500E+01 3.70100E+01 0.00000E+00
 -1      3059 2.79000E+01 3.83090E+01 0.00000E+00
 -1      3060 2.94000E+01 3.83090E+01 0.00000E+00
 -1      3061 2.71500E+01 3.70100E+01 0.00000E+00
 -1      3062 3.09000E+01 3.83090E+01 0.00000E+00
 -1      3063 3.24000E+01 3.83090E+01 0.00000E+00
 -1      3064 3.01500E+01 3.70100E+01 0.00000E+00
 -1      3065 3.39000E+01 3.83090E+01 0.00000E+00
 -1      3066 3.54000E+01 3.83090E+01 0.00000E+00
 -1      3067 3.31500E+01 3.70100E+01 0.00000E+00
 -1      3068 3.69000E+01 3.83090E+01 0.00000E+00
 -1      3069 3.84000E+01 3.83090E+01 0.00000E+00
 -1      3070 3.61500E+01 3.70100E+01 0.00000E+00
 -1      3071 3.99000E+01 3.83090E+01 0.00000E+00
 -1      3072 4.14000E+01 3.83090E+01 0.00000E+00
 -1      3073 3.91500E+01 3.70100E+01 0.00000E+00
 -1      3074 4.29000E+01 3.83090E+01 0.00000E+00
 -1      3075 4.44000E+01 3.83090E+01 0.00000E+00
 -1      3076 4.21500E+01 3.70100E+01 0.00000E+00
 -1      3077 4.59000E+01 3.83090E+01 0.00000E+00
 -1      3078 4.74000E+01 3.83090E+01 0.00000E+00
 -1      3079 4.51500E+01 3.70100E+01 0.00000E+00
 -1      3080 4.89000E+01 3.83090E+01 0.00000E+00
 -1      3081 5.04000E+01 3.83090E+01 0.00000E+00
 -1      3082 4.81500E+01 3.70100E+01 0.00000E+00
 -1      3083 5.19000E+01 3.83090E+01 0.00000E+00
 -1      3084 5.34000E+01 3.83090E+01 0.00000E+00
 -1      3085 5.11500E+01 3.70100E+01 0.00000E+00
 -1      3086 5.49000E+01 3.83090E+01 0.00000E+00
 -1      3087 5.64000E+01 3.83090E+01 0.00000E+00
 -1      3088 5.41500E+01 3.70100E+01 0.00000E+00
 -1      3089 5.79000E+01 3.83090E+01 0.00000E+00
 -1      3090 5.94000E+01 3.83090E+01 0.00000E+00
 -1      3091 5.71500E+01 3.70100E+01 0.00000E+00
 -1      3092 6.09000E+01 3.83090E+01 0.00000E+00
 -1      3093 6.24000E+01 3.83090E+01 0.00000E+00
 -1      3094 6.01500E+01 3.70100E+01 0.00000E+00
 -1      3095 6.39000E+01 3.83090E+01 0.00000E+00
 -1      3096 6.54000E+01 3.83090E+01 0.00000E+00
 -1      3097 6.31500E+01 3.70100E+01 0.00000E+00
 -1      3098 6.69000E+01 3.83090E+01 0.00000E+00
 -1      3099 6.84000E+01 3.83090E+01 0.00000E+00
 -1      3100 6.61500E+01 3.70100E+01 0.00000E+00
 -1      3101 6.99000E+01 3.83090E+01 0.00000E+00
 -1      3102 7.14000E+01 3.83090E+01 0.00000E+00
 -1      3103 6.91500E+01 3.70100E+01 0.00000E+00
 -1      3104 7.29000E+01 3.83090E+01 0.00000E+00
 -1      3105 7.44000E+01 3.83090E+01 0.00000E+00
 -1      3106 7.21500E+01 3.70100E+01 0.00000E+00
 -1      3107 7.59000E+01 3.83090E+01 0.00000E+00
 -1      3108 7.74000E+01 3.83090E+01 0.00000E+00
 -1      3109 7.51500E+01 3.70100E+01 0.00000E+00
 -1      3110 7.89000E+01 3.83090E+01 0.00000E+00
 -1      3111 8.04000E+01 3.83090E+01 0.00000E+00
 -1      3112 7.81500E+01 3.70100E+01 0.00000E+00
 -1      3113 8.19000E+01 3.83090E+01 0.00000E+00
 -1      3114 8.34000E+01 3.83090E+01 0.00000E+00
 -1      3115 8.11500E+01 3.70100E+01 0.00000E+00
 -1      3116 8.49000E+01 3.83090E+01 0.00000E+00
 -1      3117 8.64000E+01 3.83090E+01 0.00000E+00
 -1      3118 8.41500E+01 3.70100E+01 0.00000E+00
 -1      3119 8.79000E+01 3.83090E+01 0.00000E+00
 -1      3120 8.94000E+01 3.83090E+01 0.00000E+00
 -1      3121 8.71500E+01 3.70100E+01 0.00000E+00
 -1      3122 9.09000E+01 3.83090E+01 0.00000E+00
 -1      3123 9.24000E+01 3.83090E+01 0.00000E+00
 -1      3124 9.01500E+01 3.70100E+01 0.00000E+00
 -1      3125 9.39000E+01 3.83090E+01 0.00000E+00
 -1      3126 9.54000E+01 3.83090E+01 0.00000E+00
 -1      3127 9.31500E+01 3.70100E+01 0.00000E+00
 -1      3128 9.69000E+01 3.83090E+01 0.00000E+00
 -1      3129 9.84000E+01 3.83090E+01 0.00000E+00
 -1      3130 9.61500E+01 3.70100E+01 0.00000E+00
 -1      3131 9.99000E+01 3.83090E+01 0.00000E+00
 -1      3132 1.01400E+02 3.83090E+01 0.00000E+00
 -1      3133 9.91500E+01 3.70100E+01 0.00000E+00
 -1      3134 1.02900E+02 3.83090E+01 0.00000E+00
 -1      3135 1.04400E+02 3.83090E+01 0.00000E+00
 -1      3136 1.02150E+02 3.70100E+01 0.00000E+00
 -1      3137 1.05900E+02 3.83090E+01 0.00000E+00
 -1      3138 1.07400E+02 3.83090E+01 0.00000E+00
 -1      3139 1.05150E+02 3.70100E+01 0.00000E+00
 -1      3140 1.08900E+02 3.83090E+01 0.00000E+00
 -1      3141 1.10400E+02 3.83090E+01 0.00000E+00
 -1      3142 1.08150E+02 3.70100E+01 0.00000E+00
 -1      3143 1.11900E+02 3.83090E+01 0.00000E+00
 -1      3144 1.13400E+02 3.83090E+01 0.00000E+00
 -1      3145 1.11150E+02 3.70100E+01 0.00000E+00
 -1      3146 1.14900E+02 3.83090E+01 0.00000E+00
 -1      3147 1.16400E+02 3.83090E+01 0.00000E+00
 -1      3148 1.14150E+02 3.70100E+01 0.00000E+00
 -1      3149 1.17900E+02 3.83090E+01 0.00000E+00
 -1      3150 1.19400E+02 3.83090E+01 0.00000E+00
 -1      3151 1.17150E+02 3.70100E+01 0.00000E+00
 -1      3152 1.20900E+02 3.83090E+01 0.00000E+00
 -1      3153 1.22400E+02 3.83090E+01 0.00000E+00
 -1      3154 1.20150E+02 3.70100E+01 0.00000E+00
 -1      3155 1.23900E+02 3.83090E+01 0.00000E+00
 -1      3156 1.25400E+02 3.83090E+01 0.00000E+00
 -1      3157 1.23150E+02 3.70100E+01 0.00000E+00
 -1      3158 1.26900E+02 3.83090E+01 0.00000E+00
 -1      3159 1.28400E+02 3.83090E+01 0.00000E+00
 -1      3160 1.26150E+02 3.70100E+01 0.00000E+00
 -1      3161 1.29900E+02 3.83090E+01 0.00000E+00
 -1      3162 1.31400E+02 3.83090E+01 0.00000E+00
 -1      3163 1.29150E+02 3.70100E+01 0.00000E+00
 -1      3164 1.32900E+02 3.83090E+01 0.00000E+00
 -1      3165 1.34400E+02 3.83090E+01 0.00000E+00
 -1      3166 1.32150E+02 3.70100E+01 0.00000E+00
 -1      3167 1.35707E+02 3.84200E+01 0.00000E+00
 -1      3168 1.37207E+02 3.84200E+01 0.00000E+00
 -1      3169 1.37572E+02 3.73430E+01 0.00000E+00
 -1      3170 1.34957E+02 3.71210E+01 0.00000E+00
 -1      3171 1.38309E+02 2.86750E+01 0.00000E+00
 -1      3172 1.38309E+02 2.72250E+01 0.00000E+00
 -1      3173 3.47850E+01 1.05013E+01 0.00000E+00
 -1      3174 3.32850E+01 1.05013E+01 0.00000E+00
 -1      3175 3.17850E+01 1.05013E+01 0.00000E+00
 -1      3176 3.02850E+01 1.05013E+01 0.00000E+00
 -1      3177 3.25350E+01 1.18003E+01 0.00000E+00
 -1      3178 4.07850E+01 1.05013E+01 0.00000E+00
 -1      3179 3.92850E+01 1.05013E+01 0.00000E+00
 -1      3180 4.37850E+01 1.05013E+01 0.00000E+00
 -1      3181 4.22850E+01 1.05013E+01 0.00000E+00
 -1      3182 4.15350E+01 1.18003E+01 0.00000E+00
 -1      3183 4.67850E+01 1.05013E+01 0.00000E+00
 -1      3184 4.52850E+01 1.05013E+01 0.00000E+00
 -1      3185 4.45350E+01 1.18003E+01 0.00000E+00
 -1      3186 4.97850E+01 1.05013E+01 0.00000E+00
 -1      3187 4.82850E+01 1.05013E+01 0.00000E+00
 -1      3188 4.75350E+01 1.18003E+01 0.00000E+00
 -1      3189 5.29350E+01 1.05013E+01 0.00000E+00
 -1      3190 5.13600E+01 1.05013E+01 0.00000E+00
 -1      3191 5.06100E+01 1.18003E+01 0.00000E+00
 -1      3192 5.59350E+01 1.05013E+01 0.00000E+00
 -1      3193 5.44350E+01 1.05013E+01 0.00000E+00
 -1      3194 5.36850E+01 1.18003E+01 0.00000E+00
 -1      3195 1.26488E+01 1.02017E+01 0.00000E+00
 -1      3196 1.20772E+01 1.14631E+01 0.00000E+00
 -1      3197 1.33763E+01 1.22006E+01 0.00000E+00
 -1      3198 1.41488E+01 1.02017E+01 0.00000E+00
 -1      3199 7.26845E+01 6.60296E+00 0.00000E+00
 -1      3200 6.17607E+01 2.90392E+01 0.00000E+00
 -1      3201 6.07263E+01 2.79753E+01 0.00000E+00
 -1      3202 6.29931E+01 9.23541E+00 0.00000E+00
 -1      3203 8.84850E+01 1.02886E+01 0.00000E+00
 -1      3204 8.69850E+01 1.02886E+01 0.00000E+00
 -1      3205 9.76350E+01 1.02886E+01 0.00000E+00
 -1      3206 9.61350E+01 1.02886E+01 0.00000E+00
 -1      3207 1.00635E+02 1.02886E+01 0.00000E+00
 -1      3208 9.91350E+01 1.02886E+01 0.00000E+00
 -1      3209 9.83850E+01 1.15876E+01 0.00000E+00
 -1      3210 1.03635E+02 1.02886E+01 0.00000E+00
 -1      3211 1.02135E+02 1.02886E+01 0.00000E+00
 -1      3212 1.01385E+02 1.15876E+01 0.00000E+00
 -1      3213 1.06635E+02 1.02886E+01 0.00000E+00
 -1      3214 1.05135E+02 1.02886E+01 0.00000E+00
 -1      3215 1.04385E+02 1.15876E+01 0.00000E+00
 -1      3216 1.09635E+02 1.02886E+01 0.00000E+00
 -1      3217 1.08135E+02 1.02886E+01 0.00000E+00
 -1      3218 1.07385E+02 1.15876E+01 0.00000E+00
 -1      3219 1.12635E+02 1.02886E+01 0.00000E+00
 -1      3220 1.11135E+02 1.02886E+01 0.00000E+00
 -1      3221 1.10385E+02 1.15876E+01 0.00000E+00
 -1      3222 1.15635E+02 1.02886E+01 0.00000E+00
 -1      3223 1.14135E+02 1.02886E+01 0.00000E+00
 -1      3224 1.13385E+02 1.15876E+01 0.00000E+00
 -1      3225 1.18635E+02 1.02886E+01 0.00000E+00
 -1      3226 1.17135E+02 1.02886E+01 0.00000E+00
 -1      3227 1.16385E+02 1.15876E+01 0.00000E+00
 -1      3228 1.21635E+02 1.02886E+01 0.00000E+00
 -1      3229 1.20135E+02 1.02886E+01 0.00000E+00
 -1      3230 1.19385E+02 1.15876E+01 0.00000E+00
 -1      3231 1.24635E+02 1.02886E+01 0.00000E+00
 -1      3232 1.23135E+02 1.02886E+01 0.00000E+00
 -1      3233 1.22385E+02 1.15876E+01 0.00000E+00
 -1      3234 1.27635E+02 1.02886E+01 0.00000E+00
 -1      3235 1.26135E+02 1.02886E+01 0.00000E+00
 -1      3236 1.25385E+02 1.15876E+01 0.00000E+00
 -1      3237 1.30635E+02 1.02886E+01 0.00000E+00
 -1      3238 1.29135E+02 1.02886E+01 0.00000E+00
 -1      3239 1.28385E+02 1.15876E+01 0.00000E+00
 -1      3240 1.33635E+02 1.02886E+01 0.00000E+00
 -1      3241 1.32135E+02 1.02886E+01 0.00000E+00
 -1      3242 1.31385E+02 1.15876E+01 0.00000E+00
 -1      3243 1.36635E+02 1.02886E+01 0.00000E+00
 -1      3244 1.35135E+02 1.02886E+01 0.00000E+00
 -1      3245 1.34385E+02 1.15876E+01 0.00000E+00
 -1      3246 1.38794E+02 1.07734E+01 0.00000E+00
 -1      3247 1.37589E+02 1.04395E+01 0.00000E+00
 -1      3248 1.36839E+02 1.17385E+01 0.00000E+00
 -1      3249 1.38748E+02 1.20403E+01 0.00000E+00
 -1      3250 5.78231E+01 2.13922E+01 0.00000E+00
 -1      3251 5.75145E+01 2.01509E+01 0.00000E+00
 -1      3252 1.16910E+01 2.12875E+01 0.00000E+00
 -1      3253 1.16910E+01 2.27625E+01 0.00000E+00
 -1      3254 1.38309E+02 2.57500E+01 0.00000E+00
 -1      3255 1.38309E+02 2.42750E+01 0.00000E+00
 -1      3256 1.37010E+02 2.64750E+01 0.00000E+00
 -1      3257 8.29625E+01 2.46782E+01 0.00000E+00
 -1      3258 8.22444E+01 2.59936E+01 0.00000E+00
 -1      3259 1.38309E+02 3.16250E+01 0.00000E+00
 -1      3260 1.38309E+02 3.01500E+01 0.00000E+00
 -1      3261 1.37010E+02 2.94250E+01 0.00000E+00
 -1      3262 9.46350E+01 1.02886E+01 0.00000E+00
 -1      3263 9.31350E+01 1.02886E+01 0.00000E+00
 -1      3264 9.53850E+01 1.15876E+01 0.00000E+00
 -1      3265 9.15975E+01 1.02886E+01 0.00000E+00
 -1      3266 9.00225E+01 1.02886E+01 0.00000E+00
 -1      3267 8.92725E+01 1.15876E+01 0.00000E+00
 -1      3268 9.23475E+01 1.15876E+01 0.00000E+00
 -1      3269 3.77850E+01 1.05013E+01 0.00000E+00
 -1      3270 3.62850E+01 1.05013E+01 0.00000E+00
 -1      3271 3.55350E+01 1.18003E+01 0.00000E+00
 -1      3272 3.85350E+01 1.18003E+01 0.00000E+00
 -1      3273 2.27850E+01 1.05013E+01 0.00000E+00
 -1      3274 2.12850E+01 1.05013E+01 0.00000E+00
 -1      3275 8.45644E+01 1.87475E+01 0.00000E+00
 -1      3276 8.45575E+01 2.01448E+01 0.00000E+00
 -1      3277 1.59000E+01 3.83090E+01 0.00000E+00
 -1      3278 1.74000E+01 3.83090E+01 0.00000E+00
 -1      3279 1.81500E+01 3.70100E+01 0.00000E+00
 -1      3280 6.73219E+01 6.52087E+00 0.00000E+00
 -1      3281 7.04034E+01 3.21512E+01 0.00000E+00
 -1      3282 6.90604E+01 3.17760E+01 0.00000E+00
 -1      3283 8.14320E+01 2.73092E+01 0.00000E+00
 -1      3284 8.06462E+01 2.84302E+01 0.00000E+00
 -1      3285 7.92869E+01 2.97737E+01 0.00000E+00
 -1      3286 7.78881E+01 3.06169E+01 0.00000E+00
 -1      3287 1.38309E+02 3.45750E+01 0.00000E+00
 -1      3288 1.38309E+02 3.31000E+01 0.00000E+00
 -1      3289 1.37010E+02 3.23750E+01 0.00000E+00
 -1      3290 5.77776E+01 1.30410E+01 0.00000E+00
 -1      3291 5.81623E+01 1.22061E+01 0.00000E+00
 -1      3292 6.20509E+01 9.31806E+00 0.00000E+00
 -1      3293 5.71231E+01 1.52361E+01 0.00000E+00
 -1      3294 5.74503E+01 1.41385E+01 0.00000E+00
 -1      3295 5.66355E+01 1.32571E+01 0.00000E+00
 -1      3296 8.36519E+01 1.30917E+01 0.00000E+00
 -1      3297 8.40194E+01 1.45254E+01 0.00000E+00
 -1      3298 5.92758E+01 1.16616E+01 0.00000E+00
 -1      3299 6.02060E+01 1.13715E+01 0.00000E+00
 -1      3300 6.03033E+01 1.05261E+01 0.00000E+00
 -1      3301 5.80763E+01 1.16151E+01 0.00000E+00
 -1      3302 8.43156E+01 1.62009E+01 0.00000E+00
 -1      3303 8.44400E+01 1.74742E+01 0.00000E+00
 -1      3304 8.55454E+01 1.81783E+01 0.00000E+00
 -1      3305 7.63887E+01 3.13814E+01 0.00000E+00
 -1      3306 7.50901E+01 3.19156E+01 0.00000E+00
 -1      3307 5.98840E+01 2.67505E+01 0.00000E+00
 -1      3308 5.91447E+01 2.57743E+01 0.00000E+00
 -1      3309 8.41475E+01 2.18752E+01 0.00000E+00
 -1      3310 8.36357E+01 2.32208E+01 0.00000E+00
 -1      3311 1.00862E+01 3.73269E+01 0.00000E+00
 -1      3312 7.34016E+01 3.22097E+01 0.00000E+00
 -1      3313 7.20787E+01 3.22665E+01 0.00000E+00
 -1      3314 1.16910E+01 2.42375E+01 0.00000E+00
 -1      3315 1.16910E+01 2.57125E+01 0.00000E+00
 -1      3316 1.29900E+01 2.35000E+01 0.00000E+00
 -1      3317 6.17571E+01 3.04143E+01 0.00000E+00
 -1      3318 5.80722E+01 2.62670E+01 0.00000E+00
 -1      3319 5.84530E+01 2.52106E+01 0.00000E+00
 -1      3320 5.77612E+01 2.46469E+01 0.00000E+00
 -1      3321 1.38309E+02 1.69188E+01 0.00000E+00
 -1      3322 1.38309E+02 1.54563E+01 0.00000E+00
 -1      3323 1.32152E+01 3.82007E+01 0.00000E+00
 -1      3324 1.45576E+01 3.82548E+01 0.00000E+00
 -1      3325 1.53076E+01 3.69558E+01 0.00000E+00
 -1      3326 8.26909E+01 2.71426E+01 0.00000E+00
 -1      3327 2.42850E+01 1.05013E+01 0.00000E+00
 -1      3328 2.35350E+01 1.18003E+01 0.00000E+00
 -1      3329 2.57850E+01 1.05013E+01 0.00000E+00
 -1      3330 1.14286E+01 3.73811E+01 0.00000E+00
 -1      3331 2.05350E+01 1.18003E+01 0.00000E+00
 -1      3332 1.97850E+01 1.05013E+01 0.00000E+00
 -1      3333 1.82850E+01 1.05013E+01 0.00000E+00
 -1      3334 8.53704E+01 1.06087E+01 0.00000E+00
 -1      3335 8.28882E+01 1.13603E+01 0.00000E+00
 -1      3336 2.95350E+01 1.18003E+01 0.00000E+00
 -1      3337 2.87850E+01 1.05013E+01 0.00000E+00
 -1      3338 2.72850E+01 1.05013E+01 0.00000E+00
 -1      3339 5.68239E+01 1.06809E+01 0.00000E+00
 -1      3340 5.60739E+01 1.19799E+01 0.00000E+00
 -1      3341 5.96062E+01 2.80555E+01 0.00000E+00
 -1      3342 5.60823E+01 2.01735E+01 0.00000E+00
 -1      3343 5.69228E+01 1.93055E+01 0.00000E+00
 -1      3344 5.63311E+01 1.84601E+01 0.00000E+00
 -1      3345 5.74080E+01 2.23047E+01 0.00000E+00
 -1      3346 1.16910E+01 1.98188E+01 0.00000E+00
 -1      3347 1.29900E+01 2.05562E+01 0.00000E+00
 -1      3348 1.16910E+01 1.83500E+01 0.00000E+00
 -1      3349 1.38309E+02 1.98687E+01 0.00000E+00
 -1      3350 1.38309E+02 1.83937E+01 0.00000E+00
 -1      3351 1.37010E+02 1.76625E+01 0.00000E+00
 -1      3352 8.41765E+01 2.43698E+01 0.00000E+00
 -1      3353 1.38309E+02 2.28094E+01 0.00000E+00
 -1      3354 1.38309E+02 2.13344E+01 0.00000E+00
 -1      3355 1.37010E+02 2.06031E+01 0.00000E+00
 -1      3356 1.37010E+02 2.35344E+01 0.00000E+00
 -1      3357 1.16910E+01 3.30594E+01 0.00000E+00
 -1      3358 1.16910E+01 3.45281E+01 0.00000E+00
 -1      3359 6.80993E+01 3.23596E+01 0.00000E+00
 -1      3360 8.05193E+01 2.98016E+01 0.00000E+00
 -1      3361 8.03924E+01 3.11729E+01 0.00000E+00
 -1      3362 8.17516E+01 2.98295E+01 0.00000E+00
 -1      3363 7.44727E+01 3.29682E+01 0.00000E+00
 -1      3364 8.52598E+01 2.11820E+01 0.00000E+00
 -1      3365 7.11088E+01 3.31469E+01 0.00000E+00
 -1      3366 7.76606E+01 3.19095E+01 0.00000E+00
 -1      3367 8.51248E+01 1.52295E+01 0.00000E+00
 -1      3368 8.34904E+01 1.24285E+01 0.00000E+00
 -1      3369 1.16910E+01 1.54094E+01 0.00000E+00
 -1      3370 1.16910E+01 1.68781E+01 0.00000E+00
 -1      3371 1.29900E+01 1.76156E+01 0.00000E+00
 -1      3372 1.29900E+01 1.46719E+01 0.00000E+00
 -1      3373 8.46672E+01 1.28909E+01 0.00000E+00
 -1      3374 6.49154E+01 3.16180E+01 0.00000E+00
 -1      3375 6.37263E+01 3.23087E+01 0.00000E+00
 -1      3376 6.55759E+01 3.23784E+01 0.00000E+00
 -1      3377 8.61204E+01 1.19077E+01 0.00000E+00
 -1      3378 5.67399E+01 1.59734E+01 0.00000E+00
 -1      3379 5.59251E+01 1.50919E+01 0.00000E+00
 -1      3380 5.63568E+01 1.67107E+01 0.00000E+00
 -1      3381 1.16910E+01 3.01219E+01 0.00000E+00
 -1      3382 1.16910E+01 3.15906E+01 0.00000E+00
 -1      3383 1.29900E+01 3.23250E+01 0.00000E+00
 -1      3384 1.37758E+02 3.64975E+01 0.00000E+00
 -1      3385 1.38123E+02 3.54205E+01 0.00000E+00
 -1      3386 1.36824E+02 3.46955E+01 0.00000E+00
 -1      3387 1.36451E+02 3.63865E+01 0.00000E+00
 -1      3388 1.69669E+01 1.03515E+01 0.00000E+00
 -1      3389 1.54669E+01 1.03515E+01 0.00000E+00
 -1      3390 1.50806E+01 1.13509E+01 0.00000E+00
 -1      3391 1.77169E+01 1.16505E+01 0.00000E+00
 -1      3392 1.35711E+02 3.01625E+01 0.00000E+00
 -1      3393 1.35711E+02 2.86875E+01 0.00000E+00
 -1      3394 8.55198E+01 2.41062E+01 0.00000E+00
 -1      3395 8.48465E+01 2.55635E+01 0.00000E+00
 -1      3396 2.34000E+01 3.57110E+01 0.00000E+00
 -1      3397 2.49000E+01 3.57110E+01 0.00000E+00
 -1      3398 2.64000E+01 3.57110E+01 0.00000E+00
 -1      3399 2.79000E+01 3.57110E+01 0.00000E+00
 -1      3400 2.56500E+01 3.44120E+01 0.00000E+00
 -1      3401 2.94000E+01 3.57110E+01 0.00000E+00
 -1      3402 3.09000E+01 3.57110E+01 0.00000E+00
 -1      3403 2.86500E+01 3.44120E+01 0.00000E+00
 -1      3404 3.24000E+01 3.57110E+01 0.00000E+00
 -1      3405 3.39000E+01 3.57110E+01 0.00000E+00
 -1      3406 3.16500E+01 3.44120E+01 0.00000E+00
 -1      3407 3.54000E+01 3.57110E+01 0.00000E+00
 -1      3408 3.69000E+01 3.57110E+01 0.00000E+00
 -1      3409 3.46500E+01 3.44120E+01 0.00000E+00
 -1      3410 3.84000E+01 3.57110E+01 0.00000E+00
 -1      3411 3.99000E+01 3.57110E+01 0.00000E+00
 -1      3412 3.76500E+01 3.44120E+01 0.00000E+00
 -1      3413 4.14000E+01 3.57110E+01 0.00000E+00
 -1      3414 4.29000E+01 3.57110E+01 0.00000E+00
 -1      3415 4.06500E+01 3.44120E+01 0.00000E+00
 -1      3416 4.44000E+01 3.57110E+01 0.00000E+00
 -1      3417 4.59000E+01 3.57110E+01 0.00000E+00
 -1      3418 4.36500E+01 3.44120E+01 0.00000E+00
 -1      3419 4.74000E+01 3.57110E+01 0.00000E+00
 -1      3420 4.89000E+01 3.57110E+01 0.00000E+00
 -1      3421 4.66500E+01 3.44120E+01 0.00000E+00
 -1      3422 5.04000E+01 3.57110E+01 0.00000E+00
 -1      3423 5.19000E+01 3.57110E+01 0.00000E+00
 -1      3424 4.96500E+01 3.44120E+01 0.00000E+00
 -1      3425 5.34000E+01 3.57110E+01 0.00000E+00
 -1      3426 5.49000E+01 3.57110E+01 0.00000E+00
 -1      3427 5.26500E+01 3.44120E+01 0.00000E+00
 -1      3428 5.64000E+01 3.57110E+01 0.00000E+00
 -1      3429 5.79000E+01 3.57110E+01 0.00000E+00
 -1      3430 5.56500E+01 3.44120E+01 0.00000E+00
 -1      3431 5.94000E+01 3.57110E+01 0.00000E+00
 -1      3432 6.09000E+01 3.57110E+01 0.00000E+00
 -1      3433 5.86500E+01 3.44120E+01 0.00000E+00
 -1      3434 6.30184E+01 3.50396E+01 0.00000E+00
 -1      3435 6.45184E+01 3.50396E+01 0.00000E+00
 -1      3436 6.60184E+01 3.50396E+01 0.00000E+00
 -1      3437 6.85418E+01 3.50208E+01 0.00000E+00
 -1      3438 7.00418E+01 3.50208E+01 0.00000E+00
 -1      3439 7.17171E+01 3.51361E+01 0.00000E+00
 -1      3440 7.32171E+01 3.51361E+01 0.00000E+00
 -1      3441 7.49056E+01 3.48420E+01 0.00000E+00
 -1      3442 7.64056E+01 3.48420E+01 0.00000E+00
 -1      3443 8.04000E+01 3.57110E+01 0.00000E+00
 -1      3444 8.19000E+01 3.57110E+01 0.00000E+00
 -1      3445 8.34000E+01 3.57110E+01 0.00000E+00
 -1      3446 8.49000E+01 3.57110E+01 0.00000E+00
 -1      3447 8.26500E+01 3.44120E+01 0.00000E+00
 -1      3448 8.64000E+01 3.57110E+01 0.00000E+00
 -1      3449 8.79000E+01 3.57110E+01 0.00000E+00
 -1      3450 8.56500E+01 3.44120E+01 0.00000E+00
 -1      3451 8.94000E+01 3.57110E+01 0.00000E+00
 -1      3452 9.09000E+01 3.57110E+01 0.00000E+00
 -1      3453 8.86500E+01 3.44120E+01 0.00000E+00
 -1      3454 9.24000E+01 3.57110E+01 0.00000E+00
 -1      3455 9.39000E+01 3.57110E+01 0.00000E+00
 -1      3456 9.16500E+01 3.44120E+01 0.00000E+00
 -1      3457 9.54000E+01 3.57110E+01 0.00000E+00
 -1      3458 9.69000E+01 3.57110E+01 0.00000E+00
 -1      3459 9.46500E+01 3.44120E+01 0.00000E+00
 -1      3460 9.84000E+01 3.57110E+01 0.00000E+00
 -1      3461 9.99000E+01 3.57110E+01 0.00000E+00
 -1      3462 9.76500E+01 3.44120E+01 0.00000E+00
 -1      3463 1.01400E+02 3.57110E+01 0.00000E+00
 -1      3464 1.02900E+02 3.57110E+01 0.00000E+00
 -1      3465 1.00650E+02 3.44120E+01 0.00000E+00
 -1      3466 1.04400E+02 3.57110E+01 0.00000E+00
 -1      3467 1.05900E+02 3.57110E+01 0.00000E+00
 -1      3468 1.03650E+02 3.44120E+01 0.00000E+00
 -1      3469 1.07400E+02 3.57110E+01 0.00000E+00
 -1      3470 1.08900E+02 3.57110E+01 0.00000E+00
 -1      3471 1.06650E+02 3.44120E+01 0.00000E+00
 -1      3472 1.10400E+02 3.57110E+01 0.00000E+00
 -1      3473 1.11900E+02 3.57110E+01 0.00000E+00
 -1      3474 1.09650E+02 3.44120E+01 0.00000E+00
 -1      3475 1.13400E+02 3.57110E+01 0.00000E+00
 -1      3476 1.14900E+02 3.57110E+01 0.00000E+00
 -1      3477 1.12650E+02 3.44120E+01 0.00000E+00
 -1      3478 1.16400E+02 3.57110E+01 0.00000E+00
 -1      3479 1.17900E+02 3.57110E+01 0.00000E+00
 -1      3480 1.15650E+02 3.44120E+01 0.00000E+00
 -1      3481 1.19400E+02 3.57110E+01 0.00000E+00
 -1      3482 1.20900E+02 3.57110E+01 0.00000E+00
 -1      3483 1.18650E+02 3.44120E+01 0.00000E+00
 -1      3484 1.22400E+02 3.57110E+01 0.00000E+00
 -1      3485 1.23900E+02 3.57110E+01 0.00000E+00
 -1      3486 1.21650E+02 3.44120E+01 0.00000E+00
 -1      3487 1.25400E+02 3.57110E+01 0.00000E+00
 -1      3488 1.26900E+02 3.57110E+01 0.00000E+00
 -1      3489 1.24650E+02 3.44120E+01 0.00000E+00
 -1      3490 1.28400E+02 3.57110E+01 0.00000E+00
 -1      3491 1.29900E+02 3.57110E+01 0.00000E+00
 -1      3492 1.27650E+02 3.44120E+01 0.00000E+00
 -1      3493 1.31400E+02 3.57110E+01 0.00000E+00
 -1      3494 1.32900E+02 3.57110E+01 0.00000E+00
 -1      3495 1.30650E+02 3.44120E+01 0.00000E+00
 -1      3496 1.38505E+02 1.43817E+01 0.00000E+00
 -1      3497 1.38552E+02 1.31148E+01 0.00000E+00
 -1      3498 1.37598E+02 1.29639E+01 0.00000E+00
 -1      3499 1.37206E+02 1.51130E+01 0.00000E+00
 -1      3500 5.79374E+01 1.01364E+01 0.00000E+00
 -1      3501 4.52850E+01 1.30992E+01 0.00000E+00
 -1      3502 4.37850E+01 1.30992E+01 0.00000E+00
 -1      3503 4.22850E+01 1.30992E+01 0.00000E+00
 -1      3504 4.07850E+01 1.30992E+01 0.00000E+00
 -1      3505 4.30350E+01 1.43982E+01 0.00000E+00
 -1      3506 5.13975E+01 1.30992E+01 0.00000E+00
 -1      3507 4.98225E+01 1.30992E+01 0.00000E+00
 -1      3508 1.46944E+01 1.23503E+01 0.00000E+00
 -1      3509 1.43081E+01 1.33498E+01 0.00000E+00
 -1      3510 1.60125E+01 1.25001E+01 0.00000E+00
 -1      3511 1.05135E+02 1.28866E+01 0.00000E+00
 -1      3512 1.03635E+02 1.28866E+01 0.00000E+00
 -1      3513 5.91136E+01 2.92962E+01 0.00000E+00
 -1      3514 5.82713E+01 2.80714E+01 0.00000E+00
 -1      3515 1.16910E+01 2.71844E+01 0.00000E+00
 -1      3516 1.16910E+01 2.86531E+01 0.00000E+00
 -1      3517 1.29900E+01 2.93875E+01 0.00000E+00
 -1      3518 9.91350E+01 1.28866E+01 0.00000E+00
 -1      3519 9.76350E+01 1.28866E+01 0.00000E+00
 -1      3520 1.08135E+02 1.28866E+01 0.00000E+00
 -1      3521 1.06635E+02 1.28866E+01 0.00000E+00
 -1      3522 1.05885E+02 1.41856E+01 0.00000E+00
 -1      3523 1.11135E+02 1.28866E+01 0.00000E+00
 -1      3524 1.09635E+02 1.28866E+01 0.00000E+00
 -1      3525 1.08885E+02 1.41856E+01 0.00000E+00
 -1      3526 1.14135E+02 1.28866E+01 0.00000E+00
 -1      3527 1.12635E+02 1.28866E+01 0.00000E+00
 -1      3528 1.11885E+02 1.41856E+01 0.00000E+00
 -1      3529 1.17135E+02 1.28866E+01 0.00000E+00
 -1      3530 1.15635E+02 1.28866E+01 0.00000E+00
 -1      3531 1.14885E+02 1.41856E+01 0.00000E+00
 -1      3532 1.20135E+02 1.28866E+01 0.00000E+00
 -1      3533 1.18635E+02 1.28866E+01 0.00000E+00
 -1      3534 1.17885E+02 1.41856E+01 0.00000E+00
 -1      3535 1.23135E+02 1.28866E+01 0.00000E+00
 -1      3536 1.21635E+02 1.28866E+01 0.00000E+00
 -1      3537 1.20885E+02 1.41856E+01 0.00000E+00
 -1      3538 1.26135E+02 1.28866E+01 0.00000E+00
 -1      3539 1.24635E+02 1.28866E+01 0.00000E+00
 -1      3540 1.23885E+02 1.41856E+01 0.00000E+00
 -1      3541 1.29135E+02 1.28866E+01 0.00000E+00
 -1      3542 1.27635E+02 1.28866E+01 0.00000E+00
 -1      3543 1.26885E+02 1.41856E+01 0.00000E+00
 -1      3544 1.32135E+02 1.28866E+01 0.00000E+00
 -1      3545 1.30635E+02 1.28866E+01 0.00000E+00
 -1      3546 1.29885E+02 1.41856E+01 0.00000E+00
 -1      3547 6.15608E+01 3.19630E+01 0.00000E+00
 -1      3548 6.02521E+01 3.08290E+01 0.00000E+00
 -1      3549 1.34776E+01 3.53477E+01 0.00000E+00
 -1      3550 1.21786E+01 3.60821E+01 0.00000E+00
 -1      3551 2.04000E+01 3.57110E+01 0.00000E+00
 -1      3552 2.19000E+01 3.57110E+01 0.00000E+00
 -1      3553 2.26500E+01 3.44120E+01 0.00000E+00
 -1      3554 5.69576E+01 2.34143E+01 0.00000E+00
 -1      3555 5.62235E+01 2.21285E+01 0.00000E+00
 -1      3556 1.35711E+02 2.72125E+01 0.00000E+00
 -1      3557 1.35711E+02 2.57375E+01 0.00000E+00
 -1      3558 1.34412E+02 2.79500E+01 0.00000E+00
 -1      3559 5.57466E+01 1.30774E+01 0.00000E+00
 -1      3560 9.61350E+01 1.28866E+01 0.00000E+00
 -1      3561 9.46350E+01 1.28866E+01 0.00000E+00
 -1      3562 9.68850E+01 1.41856E+01 0.00000E+00
 -1      3563 8.41118E+01 2.71115E+01 0.00000E+00
 -1      3564 8.32995E+01 2.84270E+01 0.00000E+00
 -1      3565 1.74000E+01 3.57110E+01 0.00000E+00
 -1      3566 1.89000E+01 3.57110E+01 0.00000E+00
 -1      3567 1.96500E+01 3.44120E+01 0.00000E+00
 -1      3568 1.35711E+02 3.31125E+01 0.00000E+00
 -1      3569 1.35711E+02 3.16375E+01 0.00000E+00
 -1      3570 1.34412E+02 3.09000E+01 0.00000E+00
 -1      3571 4.82850E+01 1.30992E+01 0.00000E+00
 -1      3572 4.67850E+01 1.30992E+01 0.00000E+00
 -1      3573 4.60350E+01 1.43982E+01 0.00000E+00
 -1      3574 3.32850E+01 1.30992E+01 0.00000E+00
 -1      3575 3.17850E+01 1.30992E+01 0.00000E+00
 -1      3576 8.64201E+01 1.74502E+01 0.00000E+00
 -1      3577 8.65445E+01 1.87235E+01 0.00000E+00
 -1      3578 8.61513E+01 1.41842E+01 0.00000E+00
 -1      3579 8.64474E+01 1.58597E+01 0.00000E+00
 -1      3580 5.50859E+01 1.40847E+01 0.00000E+00
 -1      3581 5.45242E+01 1.28075E+01 0.00000E+00
 -1      3582 5.30242E+01 1.28075E+01 0.00000E+00
 -1      3583 5.47027E+01 1.48220E+01 0.00000E+00
 -1      3584 8.65439E+01 2.05725E+01 0.00000E+00
 -1      3585 8.61338E+01 2.23029E+01 0.00000E+00
 -1      3586 1.02135E+02 1.28866E+01 0.00000E+00
 -1      3587 1.00635E+02 1.28866E+01 0.00000E+00
 -1      3588 9.98850E+01 1.41856E+01 0.00000E+00
 -1      3589 1.02885E+02 1.41856E+01 0.00000E+00
 -1      3590 7.91487E+01 3.26252E+01 0.00000E+00
 -1      3591 7.76493E+01 3.33897E+01 0.00000E+00
 -1      3592 7.78937E+01 3.55577E+01 0.00000E+00
 -1      3593 8.03810E+01 3.26531E+01 0.00000E+00
 -1      3594 3.10350E+01 1.43982E+01 0.00000E+00
 -1      3595 3.02850E+01 1.30992E+01 0.00000E+00
 -1      3596 2.87850E+01 1.30992E+01 0.00000E+00
 -1      3597 5.75796E+01 2.75077E+01 0.00000E+00
 -1      3598 5.68878E+01 2.69440E+01 0.00000E+00
 -1      3599 5.70870E+01 2.87485E+01 0.00000E+00
 -1      3600 8.54552E+01 2.68479E+01 0.00000E+00
 -1      3601 6.22684E+01 3.37406E+01 0.00000E+00
 -1      3602 1.47676E+01 3.55023E+01 0.00000E+00
 -1      3603 1.61100E+01 3.55564E+01 0.00000E+00
 -1      3604 1.68600E+01 3.42574E+01 0.00000E+00
 -1      3605 1.42800E+01 3.39483E+01 0.00000E+00
 -1      3606 2.65350E+01 1.18003E+01 0.00000E+00
 -1      3607 7.93937E+01 3.55577E+01 0.00000E+00
 -1      3608 6.69102E+01 3.30504E+01 0.00000E+00
 -1      3609 1.35830E+02 1.54173E+01 0.00000E+00
 -1      3610 1.36026E+02 1.43428E+01 0.00000E+00
 -1      3611 1.34022E+02 3.59933E+01 0.00000E+00
 -1      3612 1.35329E+02 3.61043E+01 0.00000E+00
 -1      3613 1.35515E+02 3.52588E+01 0.00000E+00
 -1      3614 1.33272E+02 3.46942E+01 0.00000E+00
 -1      3615 2.12850E+01 1.30992E+01 0.00000E+00
 -1      3616 1.97850E+01 1.30992E+01 0.00000E+00
 -1      3617 8.68039E+01 2.34967E+01 0.00000E+00
 -1      3618 8.01437E+01 3.42587E+01 0.00000E+00
 -1      3619 4.00350E+01 1.43982E+01 0.00000E+00
 -1      3620 3.92850E+01 1.30992E+01 0.00000E+00
 -1      3621 3.77850E+01 1.30992E+01 0.00000E+00
 -1      3622 5.22367E+01 1.41065E+01 0.00000E+00
 -1      3623 1.43081E+01 1.48217E+01 0.00000E+00
 -1      3624 8.74185E+01 1.98443E+01 0.00000E+00
 -1      3625 8.82925E+01 2.09652E+01 0.00000E+00
 -1      3626 8.82932E+01 1.91161E+01 0.00000E+00
 -1      3627 5.65767E+01 2.44707E+01 0.00000E+00
 -1      3628 5.56318E+01 2.12831E+01 0.00000E+00
 -1      3629 5.50401E+01 2.04377E+01 0.00000E+00
 -1      3630 5.51813E+01 2.23927E+01 0.00000E+00
 -1      3631 9.00413E+01 1.28866E+01 0.00000E+00
 -1      3632 8.85038E+01 1.28866E+01 0.00000E+00
 -1      3633 1.33767E+02 1.31174E+01 0.00000E+00
 -1      3634 1.33017E+02 1.44164E+01 0.00000E+00
 -1      3635 1.35267E+02 1.31174E+01 0.00000E+00
 -1      3636 1.36643E+02 1.28130E+01 0.00000E+00
 -1      3637 1.35702E+02 3.44132E+01 0.00000E+00
 -1      3638 3.47850E+01 1.30992E+01 0.00000E+00
 -1      3639 3.40350E+01 1.43982E+01 0.00000E+00
 -1      3640 3.62850E+01 1.30992E+01 0.00000E+00
 -1      3641 1.35830E+02 1.83673E+01 0.00000E+00
 -1      3642 1.35830E+02 1.68923E+01 0.00000E+00
 -1      3643 1.34650E+02 1.61221E+01 0.00000E+00
 -1      3644 1.35711E+02 2.42719E+01 0.00000E+00
 -1      3645 1.35711E+02 2.28062E+01 0.00000E+00
 -1      3646 1.34412E+02 2.50094E+01 0.00000E+00
 -1      3647 8.31726E+01 2.97983E+01 0.00000E+00
 -1      3648 8.30457E+01 3.11697E+01 0.00000E+00
 -1      3649 8.45936E+01 2.97672E+01 0.00000E+00
 -1      3650 9.31069E+01 1.28866E+01 0.00000E+00
 -1      3651 9.15694E+01 1.28866E+01 0.00000E+00
 -1      3652 9.08006E+01 1.41856E+01 0.00000E+00
 -1      3653 9.38569E+01 1.41856E+01 0.00000E+00
 -1      3654 2.42850E+01 1.30992E+01 0.00000E+00
 -1      3655 2.27850E+01 1.30992E+01 0.00000E+00
 -1      3656 2.20350E+01 1.43982E+01 0.00000E+00
 -1      3657 5.89173E+01 3.08450E+01 0.00000E+00
 -1      3658 1.42890E+01 1.98219E+01 0.00000E+00
 -1      3659 1.42890E+01 2.12906E+01 0.00000E+00
 -1      3660 4.90725E+01 1.43982E+01 0.00000E+00
 -1      3661 8.74465E+01 1.64048E+01 0.00000E+00
 -1      3662 1.34403E+02 3.36758E+01 0.00000E+00
 -1      3663 1.29900E+01 2.64469E+01 0.00000E+00
 -1      3664 5.55163E+01 1.75786E+01 0.00000E+00
 -1      3665 5.47014E+01 1.66972E+01 0.00000E+00
 -1      3666 5.46757E+01 1.84466E+01 0.00000E+00
 -1      3667 1.42890E+01 2.27656E+01 0.00000E+00
 -1      3668 1.42890E+01 2.42406E+01 0.00000E+00
 -1      3669 1.55880E+01 2.20313E+01 0.00000E+00
 -1      3670 8.68891E+01 1.32067E+01 0.00000E+00
 -1      3671 1.42800E+01 3.10108E+01 0.00000E+00
 -1      3672 1.42800E+01 3.24796E+01 0.00000E+00
 -1      3673 1.55700E+01 3.26341E+01 0.00000E+00
 -1      3674 1.33281E+02 3.33935E+01 0.00000E+00
 -1      3675 6.16079E+01 3.29801E+01 0.00000E+00
 -1      3676 6.01029E+01 3.33949E+01 0.00000E+00
 -1      3677 2.79000E+01 3.31130E+01 0.00000E+00
 -1      3678 2.94000E+01 3.31130E+01 0.00000E+00
 -1      3679 3.09000E+01 3.31130E+01 0.00000E+00
 -1      3680 3.24000E+01 3.31130E+01 0.00000E+00
 -1      3681 3.01500E+01 3.18140E+01 0.00000E+00
 -1      3682 3.39000E+01 3.31130E+01 0.00000E+00
 -1      3683 3.54000E+01 3.31130E+01 0.00000E+00
 -1      3684 3.31500E+01 3.18140E+01 0.00000E+00
 -1      3685 3.69000E+01 3.31130E+01 0.00000E+00
 -1      3686 3.84000E+01 3.31130E+01 0.00000E+00
 -1      3687 3.61500E+01 3.18140E+01 0.00000E+00
 -1      3688 3.99000E+01 3.31130E+01 0.00000E+00
 -1      3689 4.14000E+01 3.31130E+01 0.00000E+00
 -1      3690 3.91500E+01 3.18140E+01 0.00000E+00
 -1      3691 4.29000E+01 3.31130E+01 0.00000E+00
 -1      3692 4.44000E+01 3.31130E+01 0.00000E+00
 -1      3693 4.21500E+01 3.18140E+01 0.00000E+00
 -1      3694 4.59000E+01 3.31130E+01 0.00000E+00
 -1      3695 4.74000E+01 3.31130E+01 0.00000E+00
 -1      3696 4.51500E+01 3.18140E+01 0.00000E+00
 -1      3697 4.89000E+01 3.31130E+01 0.00000E+00
 -1      3698 5.04000E+01 3.31130E+01 0.00000E+00
 -1      3699 4.81500E+01 3.18140E+01 0.00000E+00
 -1      3700 5.19000E+01 3.31130E+01 0.00000E+00
 -1      3701 5.34000E+01 3.31130E+01 0.00000E+00
 -1      3702 5.11500E+01 3.18140E+01 0.00000E+00
 -1      3703 5.49000E+01 3.31130E+01 0.00000E+00
 -1      3704 5.64000E+01 3.31130E+01 0.00000E+00
 -1      3705 5.41500E+01 3.18140E+01 0.00000E+00
 -1      3706 5.86029E+01 3.33949E+01 0.00000E+00
 -1      3707 1.68600E+01 3.27887E+01 0.00000E+00
 -1      3708 1.81500E+01 3.29432E+01 0.00000E+00
 -1      3709 1.68600E+01 3.13199E+01 0.00000E+00
 -1      3710 1.33113E+02 3.16375E+01 0.00000E+00
 -1      3711 1.33113E+02 3.01625E+01 0.00000E+00
 -1      3712 1.42890E+01 2.57125E+01 0.00000E+00
 -1      3713 1.42890E+01 2.71844E+01 0.00000E+00
 -1      3714 1.55880E+01 2.49781E+01 0.00000E+00
 -1      3715 1.90350E+01 1.43983E+01 0.00000E+00
 -1      3716 1.82850E+01 1.30993E+01 0.00000E+00
 -1      3717 8.43083E+01 3.27753E+01 0.00000E+00
 -1      3718 8.58083E+01 3.27753E+01 0.00000E+00
 -1      3719 8.79000E+01 3.31130E+01 0.00000E+00
 -1      3720 8.94000E+01 3.31130E+01 0.00000E+00
 -1      3721 9.09000E+01 3.31130E+01 0.00000E+00
 -1      3722 9.24000E+01 3.31130E+01 0.00000E+00
 -1      3723 9.01500E+01 3.18140E+01 0.00000E+00
 -1      3724 9.39000E+01 3.31130E+01 0.00000E+00
 -1      3725 9.54000E+01 3.31130E+01 0.00000E+00
 -1      3726 9.31500E+01 3.18140E+01 0.00000E+00
 -1      3727 9.69000E+01 3.31130E+01 0.00000E+00
 -1      3728 9.84000E+01 3.31130E+01 0.00000E+00
 -1      3729 9.61500E+01 3.18140E+01 0.00000E+00
 -1      3730 9.99000E+01 3.31130E+01 0.00000E+00
 -1      3731 1.01400E+02 3.31130E+01 0.00000E+00
 -1      3732 9.91500E+01 3.18140E+01 0.00000E+00
 -1      3733 1.02900E+02 3.31130E+01 0.00000E+00
 -1      3734 1.04400E+02 3.31130E+01 0.00000E+00
 -1      3735 1.02150E+02 3.18140E+01 0.00000E+00
 -1      3736 1.05900E+02 3.31130E+01 0.00000E+00
 -1      3737 1.07400E+02 3.31130E+01 0.00000E+00
 -1      3738 1.05150E+02 3.18140E+01 0.00000E+00
 -1      3739 1.08900E+02 3.31130E+01 0.00000E+00
 -1      3740 1.10400E+02 3.31130E+01 0.00000E+00
 -1      3741 1.08150E+02 3.18140E+01 0.00000E+00
 -1      3742 1.11900E+02 3.31130E+01 0.00000E+00
 -1      3743 1.13400E+02 3.31130E+01 0.00000E+00
 -1      3744 1.11150E+02 3.18140E+01 0.00000E+00
 -1      3745 1.14900E+02 3.31130E+01 0.00000E+00
 -1      3746 1.16400E+02 3.31130E+01 0.00000E+00
 -1      3747 1.14150E+02 3.18140E+01 0.00000E+00
 -1      3748 1.17900E+02 3.31130E+01 0.00000E+00
 -1      3749 1.19400E+02 3.31130E+01 0.00000E+00
 -1      3750 1.17150E+02 3.18140E+01 0.00000E+00
 -1      3751 1.20900E+02 3.31130E+01 0.00000E+00
 -1      3752 1.22400E+02 3.31130E+01 0.00000E+00
 -1      3753 1.20150E+02 3.18140E+01 0.00000E+00
 -1      3754 1.23900E+02 3.31130E+01 0.00000E+00
 -1      3755 1.25400E+02 3.31130E+01 0.00000E+00
 -1      3756 1.23150E+02 3.18140E+01 0.00000E+00
 -1      3757 1.26900E+02 3.31130E+01 0.00000E+00
 -1      3758 1.28400E+02 3.31130E+01 0.00000E+00
 -1      3759 1.26150E+02 3.18140E+01 0.00000E+00
 -1      3760 8.81606E+01 2.29525E+01 0.00000E+00
 -1      3761 8.75466E+01 2.47557E+01 0.00000E+00
 -1      3762 1.69669E+01 1.29495E+01 0.00000E+00
 -1      3763 1.65807E+01 1.39489E+01 0.00000E+00
 -1      3764 1.09635E+02 1.54846E+01 0.00000E+00
 -1      3765 1.08135E+02 1.54846E+01 0.00000E+00
 -1      3766 4.67850E+01 1.56973E+01 0.00000E+00
 -1      3767 4.52850E+01 1.56973E+01 0.00000E+00
 -1      3768 8.69960E+01 2.66309E+01 0.00000E+00
 -1      3769 8.62614E+01 2.81789E+01 0.00000E+00
 -1      3770 1.12635E+02 1.54846E+01 0.00000E+00
 -1      3771 1.11135E+02 1.54846E+01 0.00000E+00
 -1      3772 1.10385E+02 1.67836E+01 0.00000E+00
 -1      3773 8.13874E+01 3.28064E+01 0.00000E+00
 -1      3774 1.33017E+02 1.58914E+01 0.00000E+00
 -1      3775 1.31385E+02 1.56606E+01 0.00000E+00
 -1      3776 1.33017E+02 1.73664E+01 0.00000E+00
 -1      3777 1.06635E+02 1.54846E+01 0.00000E+00
 -1      3778 1.05135E+02 1.54846E+01 0.00000E+00
 -1      3779 1.07385E+02 1.67836E+01 0.00000E+00
 -1      3780 1.15635E+02 1.54846E+01 0.00000E+00
 -1      3781 1.14135E+02 1.54846E+01 0.00000E+00
 -1      3782 1.13385E+02 1.67836E+01 0.00000E+00
 -1      3783 1.18635E+02 1.54846E+01 0.00000E+00
 -1      3784 1.17135E+02 1.54846E+01 0.00000E+00
 -1      3785 1.16385E+02 1.67836E+01 0.00000E+00
 -1      3786 1.21635E+02 1.54846E+01 0.00000E+00
 -1      3787 1.20135E+02 1.54846E+01 0.00000E+00
 -1      3788 1.19385E+02 1.67836E+01 0.00000E+00
 -1      3789 1.24635E+02 1.54846E+01 0.00000E+00
 -1      3790 1.23135E+02 1.54846E+01 0.00000E+00
 -1      3791 1.22385E+02 1.67836E+01 0.00000E+00
 -1      3792 1.27635E+02 1.54846E+01 0.00000E+00
 -1      3793 1.26135E+02 1.54846E+01 0.00000E+00
 -1      3794 1.25385E+02 1.67836E+01 0.00000E+00
 -1      3795 1.30260E+02 1.55726E+01 0.00000E+00
 -1      3796 1.28760E+02 1.55726E+01 0.00000E+00
 -1      3797 1.28010E+02 1.68716E+01 0.00000E+00
 -1      3798 1.30260E+02 1.70476E+01 0.00000E+00
 -1      3799 1.31982E+02 3.26560E+01 0.00000E+00
 -1      3800 1.33113E+02 2.86875E+01 0.00000E+00
 -1      3801 1.33113E+02 2.72125E+01 0.00000E+00
 -1      3802 1.31814E+02 2.94250E+01 0.00000E+00
 -1      3803 2.72850E+01 1.30992E+01 0.00000E+00
 -1      3804 2.57850E+01 1.30992E+01 0.00000E+00
 -1      3805 2.80350E+01 1.43982E+01 0.00000E+00
 -1      3806 4.37850E+01 1.56973E+01 0.00000E+00
 -1      3807 4.22850E+01 1.56973E+01 0.00000E+00
 -1      3808 4.45350E+01 1.69963E+01 0.00000E+00
 -1      3809 2.19000E+01 3.31130E+01 0.00000E+00
 -1      3810 2.34000E+01 3.31130E+01 0.00000E+00
 -1      3811 1.42890E+01 1.68781E+01 0.00000E+00
 -1      3812 1.42890E+01 1.83500E+01 0.00000E+00
 -1      3813 1.55880E+01 1.90844E+01 0.00000E+00
 -1      3814 9.76350E+01 1.54846E+01 0.00000E+00
 -1      3815 9.61350E+01 1.54846E+01 0.00000E+00
 -1      3816 1.92750E+01 3.30281E+01 0.00000E+00
 -1      3817 2.07750E+01 3.30281E+01 0.00000E+00
 -1      3818 2.15250E+01 3.17291E+01 0.00000E+00
 -1      3819 1.92750E+01 3.15594E+01 0.00000E+00
 -1      3820 1.42845E+01 2.83632E+01 0.00000E+00
 -1      3821 1.42845E+01 2.98320E+01 0.00000E+00
 -1      3822 1.55745E+01 2.99865E+01 0.00000E+00
 -1      3823 1.55835E+01 2.76288E+01 0.00000E+00
 -1      3824 8.28874E+01 3.28064E+01 0.00000E+00
 -1      3825 4.98600E+01 1.56973E+01 0.00000E+00
 -1      3826 4.83225E+01 1.56973E+01 0.00000E+00
 -1      3827 4.75725E+01 1.69963E+01 0.00000E+00
 -1      3828 5.38887E+01 1.59054E+01 0.00000E+00
 -1      3829 5.30495E+01 1.48982E+01 0.00000E+00
 -1      3830 5.14227E+01 1.51900E+01 0.00000E+00
 -1      3831 5.30482E+01 1.67734E+01 0.00000E+00
 -1      3832 5.60497E+01 2.56927E+01 0.00000E+00
 -1      3833 5.52460E+01 2.44601E+01 0.00000E+00
 -1      3834 2.49000E+01 3.31130E+01 0.00000E+00
 -1      3835 2.64000E+01 3.31130E+01 0.00000E+00
 -1      3836 2.41500E+01 3.18140E+01 0.00000E+00
 -1      3837 1.56071E+01 1.55560E+01 0.00000E+00
 -1      3838 5.78529E+01 3.20959E+01 0.00000E+00
 -1      3839 5.67144E+01 3.05631E+01 0.00000E+00
 -1      3840 1.35711E+02 2.13406E+01 0.00000E+00
 -1      3841 1.35711E+02 1.98750E+01 0.00000E+00
 -1      3842 1.34412E+02 2.20781E+01 0.00000E+00
 -1      3843 2.71500E+01 3.18140E+01 0.00000E+00
 -1      3844 1.31814E+02 2.64844E+01 0.00000E+00
 -1      3845 1.33113E+02 2.57469E+01 0.00000E+00
 -1      3846 1.33113E+02 2.42813E+01 0.00000E+00
 -1      3847 3.17850E+01 1.56973E+01 0.00000E+00
 -1      3848 3.02850E+01 1.56973E+01 0.00000E+00
 -1      3849 1.97850E+01 1.56973E+01 0.00000E+00
 -1      3850 1.82851E+01 1.56973E+01 0.00000E+00
 -1      3851 8.65583E+01 3.14763E+01 0.00000E+00
 -1      3852 8.83528E+01 2.60867E+01 0.00000E+00
 -1      3853 8.90353E+01 2.22243E+01 0.00000E+00
 -1      3854 8.97780E+01 2.34833E+01 0.00000E+00
 -1      3855 8.99099E+01 2.14961E+01 0.00000E+00
 -1      3856 1.30482E+02 3.26560E+01 0.00000E+00
 -1      3857 3.47850E+01 1.56973E+01 0.00000E+00
 -1      3858 3.32850E+01 1.56973E+01 0.00000E+00
 -1      3859 3.25350E+01 1.69963E+01 0.00000E+00
 -1      3860 5.55571E+01 2.69334E+01 0.00000E+00
 -1      3861 1.65615E+01 1.60054E+01 0.00000E+00
 -1      3862 4.07850E+01 1.56973E+01 0.00000E+00
 -1      3863 3.92850E+01 1.56973E+01 0.00000E+00
 -1      3864 4.15350E+01 1.69963E+01 0.00000E+00
 -1      3865 8.87967E+01 1.78223E+01 0.00000E+00
 -1      3866 8.96708E+01 1.89432E+01 0.00000E+00
 -1      3867 5.46543E+01 2.36147E+01 0.00000E+00
 -1      3868 5.40626E+01 2.27693E+01 0.00000E+00
 -1      3869 5.41273E+01 2.48366E+01 0.00000E+00
 -1      3870 2.50350E+01 1.43982E+01 0.00000E+00
 -1      3871 3.70350E+01 1.43982E+01 0.00000E+00
 -1      3872 1.34531E+02 1.91048E+01 0.00000E+00
 -1      3873 1.68870E+01 1.83484E+01 0.00000E+00
 -1      3874 1.68870E+01 1.98203E+01 0.00000E+00
 -1      3875 5.37748E+01 2.06658E+01 0.00000E+00
 -1      3876 5.42253E+01 1.95562E+01 0.00000E+00
 -1      3877 5.34104E+01 1.86748E+01 0.00000E+00
 -1      3878 2.12850E+01 1.56973E+01 0.00000E+00
 -1      3879 2.05351E+01 1.69963E+01 0.00000E+00
 -1      3880 2.27850E+01 1.56973E+01 0.00000E+00
 -1      3881 9.46069E+01 1.54846E+01 0.00000E+00
 -1      3882 9.30788E+01 1.54846E+01 0.00000E+00
 -1      3883 9.53569E+01 1.67836E+01 0.00000E+00
 -1      3884 5.06727E+01 1.64890E+01 0.00000E+00
 -1      3885 1.29732E+02 3.13570E+01 0.00000E+00
 -1      3886 1.04385E+02 1.67836E+01 0.00000E+00
 -1      3887 1.03635E+02 1.54846E+01 0.00000E+00
 -1      3888 1.02135E+02 1.54846E+01 0.00000E+00
 -1      3889 8.85689E+01 1.56286E+01 0.00000E+00
 -1      3890 8.85416E+01 1.72191E+01 0.00000E+00
 -1      3891 1.68870E+01 2.12953E+01 0.00000E+00
 -1      3892 1.68870E+01 2.27703E+01 0.00000E+00
 -1      3893 1.81860E+01 2.05594E+01 0.00000E+00
 -1      3894 1.00635E+02 1.54846E+01 0.00000E+00
 -1      3895 9.91350E+01 1.54846E+01 0.00000E+00
 -1      3896 9.83850E+01 1.67836E+01 0.00000E+00
 -1      3897 1.01385E+02 1.67836E+01 0.00000E+00
 -1      3898 5.60226E+01 2.99994E+01 0.00000E+00
 -1      3899 2.64000E+01 3.05150E+01 0.00000E+00
 -1      3900 2.79000E+01 3.05150E+01 0.00000E+00
 -1      3901 3.24000E+01 3.05150E+01 0.00000E+00
 -1      3902 3.39000E+01 3.05150E+01 0.00000E+00
 -1      3903 3.54000E+01 3.05150E+01 0.00000E+00
 -1      3904 3.69000E+01 3.05150E+01 0.00000E+00
 -1      3905 3.46500E+01 2.92160E+01 0.00000E+00
 -1      3906 3.84000E+01 3.05150E+01 0.00000E+00
 -1      3907 3.99000E+01 3.05150E+01 0.00000E+00
 -1      3908 3.76500E+01 2.92160E+01 0.00000E+00
 -1      3909 4.14000E+01 3.05150E+01 0.00000E+00
 -1      3910 4.29000E+01 3.05150E+01 0.00000E+00
 -1      3911 4.06500E+01 2.92160E+01 0.00000E+00
 -1      3912 4.44000E+01 3.05150E+01 0.00000E+00
 -1      3913 4.59000E+01 3.05150E+01 0.00000E+00
 -1      3914 4.36500E+01 2.92160E+01 0.00000E+00
 -1      3915 4.74000E+01 3.05150E+01 0.00000E+00
 -1      3916 4.89000E+01 3.05150E+01 0.00000E+00
 -1      3917 4.66500E+01 2.92160E+01 0.00000E+00
 -1      3918 5.04000E+01 3.05150E+01 0.00000E+00
 -1      3919 5.19000E+01 3.05150E+01 0.00000E+00
 -1      3920 4.96500E+01 2.92160E+01 0.00000E+00
 -1      3921 5.32113E+01 3.02572E+01 0.00000E+00
 -1      3922 5.47113E+01 3.02572E+01 0.00000E+00
 -1      3923 5.50839E+01 2.84426E+01 0.00000E+00
 -1      3924 5.24613E+01 2.89582E+01 0.00000E+00
 -1      3925 1.68870E+01 2.42422E+01 0.00000E+00
 -1      3926 1.68870E+01 2.57141E+01 0.00000E+00
 -1      3927 1.81860E+01 2.35063E+01 0.00000E+00
 -1      3928 1.68645E+01 3.01411E+01 0.00000E+00
 -1      3929 1.81545E+01 3.02957E+01 0.00000E+00
 -1      3930 1.68690E+01 2.89622E+01 0.00000E+00
 -1      3931 5.42458E+01 2.71912E+01 0.00000E+00
 -1      3932 9.24000E+01 3.05150E+01 0.00000E+00
 -1      3933 9.39000E+01 3.05150E+01 0.00000E+00
 -1      3934 9.54000E+01 3.05150E+01 0.00000E+00
 -1      3935 9.69000E+01 3.05150E+01 0.00000E+00
 -1      3936 9.46500E+01 2.92160E+01 0.00000E+00
 -1      3937 9.84000E+01 3.05150E+01 0.00000E+00
 -1      3938 9.99000E+01 3.05150E+01 0.00000E+00
 -1      3939 9.76500E+01 2.92160E+01 0.00000E+00
 -1      3940 1.01400E+02 3.05150E+01 0.00000E+00
 -1      3941 1.02900E+02 3.05150E+01 0.00000E+00
 -1      3942 1.00650E+02 2.92160E+01 0.00000E+00
 -1      3943 1.04400E+02 3.05150E+01 0.00000E+00
 -1      3944 1.05900E+02 3.05150E+01 0.00000E+00
 -1      3945 1.03650E+02 2.92160E+01 0.00000E+00
 -1      3946 1.07400E+02 3.05150E+01 0.00000E+00
 -1      3947 1.08900E+02 3.05150E+01 0.00000E+00
 -1      3948 1.06650E+02 2.92160E+01 0.00000E+00
 -1      3949 1.10400E+02 3.05150E+01 0.00000E+00
 -1      3950 1.11900E+02 3.05150E+01 0.00000E+00
 -1      3951 1.09650E+02 2.92160E+01 0.00000E+00
 -1      3952 1.13400E+02 3.05150E+01 0.00000E+00
 -1      3953 1.14900E+02 3.05150E+01 0.00000E+00
 -1      3954 1.12650E+02 2.92160E+01 0.00000E+00
 -1      3955 1.16400E+02 3.05150E+01 0.00000E+00
 -1      3956 1.17900E+02 3.05150E+01 0.00000E+00
 -1      3957 1.15650E+02 2.92160E+01 0.00000E+00
 -1      3958 1.19400E+02 3.05150E+01 0.00000E+00
 -1      3959 1.20900E+02 3.05150E+01 0.00000E+00
 -1      3960 1.18650E+02 2.92160E+01 0.00000E+00
 -1      3961 1.22400E+02 3.05150E+01 0.00000E+00
 -1      3962 1.23900E+02 3.05150E+01 0.00000E+00
 -1      3963 1.21650E+02 2.92160E+01 0.00000E+00
 -1      3964 1.25400E+02 3.05150E+01 0.00000E+00
 -1      3965 1.26900E+02 3.05150E+01 0.00000E+00
 -1      3966 1.24650E+02 2.92160E+01 0.00000E+00
 -1      3967 1.14135E+02 1.80826E+01 0.00000E+00
 -1      3968 1.12635E+02 1.80826E+01 0.00000E+00
 -1      3969 8.99192E+01 1.70461E+01 0.00000E+00
 -1      3970 2.94000E+01 3.05150E+01 0.00000E+00
 -1      3971 3.09000E+01 3.05150E+01 0.00000E+00
 -1      3972 3.16500E+01 2.92160E+01 0.00000E+00
 -1      3973 8.82261E+01 2.98879E+01 0.00000E+00
 -1      3974 8.66852E+01 3.01050E+01 0.00000E+00
 -1      3975 1.11135E+02 1.80826E+01 0.00000E+00
 -1      3976 1.09635E+02 1.80826E+01 0.00000E+00
 -1      3977 1.11885E+02 1.93816E+01 0.00000E+00
 -1      3978 1.32898E+02 1.88741E+01 0.00000E+00
 -1      3979 1.31266E+02 1.86433E+01 0.00000E+00
 -1      3980 1.32780E+02 2.03818E+01 0.00000E+00
 -1      3981 1.08135E+02 1.80826E+01 0.00000E+00
 -1      3982 1.06635E+02 1.80826E+01 0.00000E+00
 -1      3983 1.08885E+02 1.93816E+01 0.00000E+00
 -1      3984 1.20135E+02 1.80826E+01 0.00000E+00
 -1      3985 1.18635E+02 1.80826E+01 0.00000E+00
 -1      3986 1.23135E+02 1.80826E+01 0.00000E+00
 -1      3987 1.21635E+02 1.80826E+01 0.00000E+00
 -1      3988 1.20885E+02 1.93816E+01 0.00000E+00
 -1      3989 1.26135E+02 1.80826E+01 0.00000E+00
 -1      3990 1.24635E+02 1.80826E+01 0.00000E+00
 -1      3991 1.23885E+02 1.93816E+01 0.00000E+00
 -1      3992 2.87850E+01 1.56973E+01 0.00000E+00
 -1      3993 2.72850E+01 1.56973E+01 0.00000E+00
 -1      3994 2.95350E+01 1.69963E+01 0.00000E+00
 -1      3995 4.52850E+01 1.82952E+01 0.00000E+00
 -1      3996 4.37850E+01 1.82952E+01 0.00000E+00
 -1      3997 1.73115E+01 1.73044E+01 0.00000E+00
 -1      3998 1.86105E+01 1.80403E+01 0.00000E+00
 -1      3999 2.34000E+01 3.05150E+01 0.00000E+00
 -1      4000 2.49000E+01 3.05150E+01 0.00000E+00
 -1      4001 2.56500E+01 2.92160E+01 0.00000E+00
 -1      4002 1.17135E+02 1.80826E+01 0.00000E+00
 -1      4003 1.15635E+02 1.80826E+01 0.00000E+00
 -1      4004 1.14885E+02 1.93816E+01 0.00000E+00
 -1      4005 1.17885E+02 1.93816E+01 0.00000E+00
 -1      4006 5.24480E+01 1.79777E+01 0.00000E+00
 -1      4007 5.16352E+01 1.71860E+01 0.00000E+00
 -1      4008 5.00725E+01 1.76933E+01 0.00000E+00
 -1      4009 5.19975E+01 1.90873E+01 0.00000E+00
 -1      4010 1.28316E+02 3.01985E+01 0.00000E+00
 -1      4011 1.30398E+02 2.97415E+01 0.00000E+00
 -1      4012 1.30398E+02 2.82665E+01 0.00000E+00
 -1      4013 1.27566E+02 2.88995E+01 0.00000E+00
 -1      4014 4.83600E+01 1.82952E+01 0.00000E+00
 -1      4015 4.68225E+01 1.82952E+01 0.00000E+00
 -1      4016 4.60725E+01 1.95942E+01 0.00000E+00
 -1      4017 8.83732E+01 1.45000E+01 0.00000E+00
 -1      4018 8.94682E+01 1.53143E+01 0.00000E+00
 -1      4019 1.32946E+02 2.30643E+01 0.00000E+00
 -1      4020 1.32946E+02 2.15987E+01 0.00000E+00
 -1      4021 1.31314E+02 2.13679E+01 0.00000E+00
 -1      4022 1.31647E+02 2.38018E+01 0.00000E+00
 -1      4023 9.09964E+01 1.53143E+01 0.00000E+00
 -1      4024 8.95631E+01 3.02015E+01 0.00000E+00
 -1      4025 9.10631E+01 3.02015E+01 0.00000E+00
 -1      4026 9.18131E+01 2.89025E+01 0.00000E+00
 -1      4027 8.91392E+01 2.82754E+01 0.00000E+00
 -1      4028 8.59898E+01 1.35210E+01 0.00000E+00
 -1      4029 3.77850E+01 1.56973E+01 0.00000E+00
 -1      4030 3.62850E+01 1.56973E+01 0.00000E+00
 -1      4031 3.55350E+01 1.69963E+01 0.00000E+00
 -1      4032 3.85350E+01 1.69963E+01 0.00000E+00
 -1      4033 9.10340E+01 1.87288E+01 0.00000E+00
 -1      4034 9.05305E+01 2.00227E+01 0.00000E+00
 -1      4035 8.96897E+01 2.64002E+01 0.00000E+00
 -1      4036 2.57850E+01 1.56973E+01 0.00000E+00
 -1      4037 2.42850E+01 1.56973E+01 0.00000E+00
 -1      4038 2.35350E+01 1.69963E+01 0.00000E+00
 -1      4039 2.65350E+01 1.69963E+01 0.00000E+00
 -1      4040 9.17464E+01 1.66133E+01 0.00000E+00
 -1      4041 2.01105E+01 1.80403E+01 0.00000E+00
 -1      4042 1.96860E+01 1.90844E+01 0.00000E+00
 -1      4043 2.16105E+01 1.80403E+01 0.00000E+00
 -1      4044 1.30398E+02 2.68009E+01 0.00000E+00
 -1      4045 1.30398E+02 2.53353E+01 0.00000E+00
 -1      4046 1.28982E+02 2.71174E+01 0.00000E+00
 -1      4047 1.30141E+02 1.85553E+01 0.00000E+00
 -1      4048 5.32478E+01 2.18878E+01 0.00000E+00
 -1      4049 5.24329E+01 2.10063E+01 0.00000E+00
 -1      4050 5.27207E+01 2.31098E+01 0.00000E+00
 -1      4051 9.12732E+01 2.12817E+01 0.00000E+00
 -1      4052 4.22850E+01 1.82952E+01 0.00000E+00
 -1      4053 4.07850E+01 1.82952E+01 0.00000E+00
 -1      4054 4.30350E+01 1.95942E+01 0.00000E+00
 -1      4055 2.86500E+01 2.92160E+01 0.00000E+00
 -1      4056 4.93225E+01 1.89923E+01 0.00000E+00
 -1      4057 2.22750E+01 3.04301E+01 0.00000E+00
 -1      4058 2.30250E+01 2.91311E+01 0.00000E+00
 -1      4059 2.11500E+01 3.03452E+01 0.00000E+00
 -1      4060 1.27260E+02 1.81706E+01 0.00000E+00
 -1      4061 1.26510E+02 1.94696E+01 0.00000E+00
 -1      4062 1.28385E+02 1.82586E+01 0.00000E+00
 -1      4063 3.02850E+01 1.82952E+01 0.00000E+00
 -1      4064 2.87850E+01 1.82952E+01 0.00000E+00
 -1      4065 1.68803E+01 2.67487E+01 0.00000E+00
 -1      4066 1.68757E+01 2.79276E+01 0.00000E+00
 -1      4067 1.81658E+01 2.80821E+01 0.00000E+00
 -1      4068 1.81793E+01 2.60128E+01 0.00000E+00
 -1      4069 1.92795E+01 3.03805E+01 0.00000E+00
 -1      4070 9.61209E+01 1.80826E+01 0.00000E+00
 -1      4071 9.45928E+01 1.80826E+01 0.00000E+00
 -1      4072 1.96860E+01 2.05594E+01 0.00000E+00
 -1      4073 1.05885E+02 1.93816E+01 0.00000E+00
 -1      4074 1.05135E+02 1.80826E+01 0.00000E+00
 -1      4075 1.03635E+02 1.80826E+01 0.00000E+00
 -1      4076 5.30577E+01 2.76520E+01 0.00000E+00
 -1      4077 5.35309E+01 2.61428E+01 0.00000E+00
 -1      4078 5.29392E+01 2.52974E+01 0.00000E+00
 -1      4079 5.17464E+01 2.79098E+01 0.00000E+00
 -1      4080 9.91209E+01 1.80826E+01 0.00000E+00
 -1      4081 9.76209E+01 1.80826E+01 0.00000E+00
 -1      4082 9.68569E+01 1.93816E+01 0.00000E+00
 -1      4083 9.05190E+01 2.48666E+01 0.00000E+00
 -1      4084 9.13054E+01 2.70553E+01 0.00000E+00
 -1      4085 3.32850E+01 1.82952E+01 0.00000E+00
 -1      4086 3.17850E+01 1.82952E+01 0.00000E+00
 -1      4087 3.10350E+01 1.95942E+01 0.00000E+00
 -1      4088 9.13937E+01 2.41384E+01 0.00000E+00
 -1      4089 2.00295E+01 2.90815E+01 0.00000E+00
 -1      4090 3.69000E+01 2.79170E+01 0.00000E+00
 -1      4091 3.84000E+01 2.79170E+01 0.00000E+00
 -1      4092 3.99000E+01 2.79170E+01 0.00000E+00
 -1      4093 4.14000E+01 2.79170E+01 0.00000E+00
 -1      4094 3.91500E+01 2.66180E+01 0.00000E+00
 -1      4095 4.29000E+01 2.79170E+01 0.00000E+00
 -1      4096 4.44000E+01 2.79170E+01 0.00000E+00
 -1      4097 4.21500E+01 2.66180E+01 0.00000E+00
 -1      4098 4.59000E+01 2.79170E+01 0.00000E+00
 -1      4099 4.74000E+01 2.79170E+01 0.00000E+00
 -1      4100 4.51500E+01 2.66180E+01 0.00000E+00
 -1      4101 4.88232E+01 2.79134E+01 0.00000E+00
 -1      4102 5.03232E+01 2.79134E+01 0.00000E+00
 -1      4103 5.09196E+01 2.66072E+01 0.00000E+00
 -1      4104 4.80732E+01 2.66144E+01 0.00000E+00
 -1      4105 1.12635E+02 2.06806E+01 0.00000E+00
 -1      4106 1.11135E+02 2.06806E+01 0.00000E+00
 -1      4107 9.39000E+01 2.79170E+01 0.00000E+00
 -1      4108 9.54000E+01 2.79170E+01 0.00000E+00
 -1      4109 2.31105E+01 1.80403E+01 0.00000E+00
 -1      4110 2.26860E+01 1.90844E+01 0.00000E+00
 -1      4111 2.46105E+01 1.80403E+01 0.00000E+00
 -1      4112 2.49000E+01 2.79170E+01 0.00000E+00
 -1      4113 2.64000E+01 2.79170E+01 0.00000E+00
 -1      4114 1.94850E+01 2.27703E+01 0.00000E+00
 -1      4115 1.94850E+01 2.42422E+01 0.00000E+00
 -1      4116 4.68413E+01 2.08932E+01 0.00000E+00
 -1      4117 4.53037E+01 2.08932E+01 0.00000E+00
 -1      4118 9.69000E+01 2.79170E+01 0.00000E+00
 -1      4119 9.84000E+01 2.79170E+01 0.00000E+00
 -1      4120 9.61500E+01 2.66180E+01 0.00000E+00
 -1      4121 9.99000E+01 2.79170E+01 0.00000E+00
 -1      4122 1.01400E+02 2.79170E+01 0.00000E+00
 -1      4123 9.91500E+01 2.66180E+01 0.00000E+00
 -1      4124 1.02900E+02 2.79170E+01 0.00000E+00
 -1      4125 1.04400E+02 2.79170E+01 0.00000E+00
 -1      4126 1.02150E+02 2.66180E+01 0.00000E+00
 -1      4127 1.05900E+02 2.79170E+01 0.00000E+00
 -1      4128 1.07400E+02 2.79170E+01 0.00000E+00
 -1      4129 1.05150E+02 2.66180E+01 0.00000E+00
 -1      4130 1.08900E+02 2.79170E+01 0.00000E+00
 -1      4131 1.10400E+02 2.79170E+01 0.00000E+00
 -1      4132 1.08150E+02 2.66180E+01 0.00000E+00
 -1      4133 1.11900E+02 2.79170E+01 0.00000E+00
 -1      4134 1.13400E+02 2.79170E+01 0.00000E+00
 -1      4135 1.11150E+02 2.66180E+01 0.00000E+00
 -1      4136 1.14900E+02 2.79170E+01 0.00000E+00
 -1      4137 1.16400E+02 2.79170E+01 0.00000E+00
 -1      4138 1.14150E+02 2.66180E+01 0.00000E+00
 -1      4139 1.17900E+02 2.79170E+01 0.00000E+00
 -1      4140 1.19400E+02 2.79170E+01 0.00000E+00
 -1      4141 1.17150E+02 2.66180E+01 0.00000E+00
 -1      4142 1.20900E+02 2.79170E+01 0.00000E+00
 -1      4143 1.22400E+02 2.79170E+01 0.00000E+00
 -1      4144 1.20150E+02 2.66180E+01 0.00000E+00
 -1      4145 1.23900E+02 2.79170E+01 0.00000E+00
 -1      4146 1.25400E+02 2.79170E+01 0.00000E+00
 -1      4147 1.23150E+02 2.66180E+01 0.00000E+00
 -1      4148 5.14704E+01 2.03093E+01 0.00000E+00
 -1      4149 5.05079E+01 1.96123E+01 0.00000E+00
 -1      4150 5.09434E+01 2.15313E+01 0.00000E+00
 -1      4151 9.27806E+01 2.10492E+01 0.00000E+00
 -1      4152 9.21601E+01 2.25226E+01 0.00000E+00
 -1      4153 1.09635E+02 2.06806E+01 0.00000E+00
 -1      4154 1.08135E+02 2.06806E+01 0.00000E+00
 -1      4155 1.10385E+02 2.19796E+01 0.00000E+00
 -1      4156 1.24635E+02 2.06806E+01 0.00000E+00
 -1      4157 1.23135E+02 2.06806E+01 0.00000E+00
 -1      4158 1.21635E+02 2.06806E+01 0.00000E+00
 -1      4159 1.20135E+02 2.06806E+01 0.00000E+00
 -1      4160 1.22385E+02 2.19796E+01 0.00000E+00
 -1      4161 9.29011E+01 2.39059E+01 0.00000E+00
 -1      4162 4.87955E+01 2.02142E+01 0.00000E+00
 -1      4163 9.26423E+01 2.73689E+01 0.00000E+00
 -1      4164 2.79000E+01 2.79170E+01 0.00000E+00
 -1      4165 2.94000E+01 2.79170E+01 0.00000E+00
 -1      4166 2.71500E+01 2.66180E+01 0.00000E+00
 -1      4167 2.09850E+01 2.12953E+01 0.00000E+00
 -1      4168 1.26483E+02 2.76754E+01 0.00000E+00
 -1      4169 1.27899E+02 2.73589E+01 0.00000E+00
 -1      4170 1.27899E+02 2.58933E+01 0.00000E+00
 -1      4171 1.25733E+02 2.63764E+01 0.00000E+00
 -1      4172 9.36253E+01 1.95950E+01 0.00000E+00
 -1      4173 9.28612E+01 1.82960E+01 0.00000E+00
 -1      4174 1.29391E+02 1.98543E+01 0.00000E+00
 -1      4175 1.02135E+02 1.80826E+01 0.00000E+00
 -1      4176 1.00635E+02 1.80826E+01 0.00000E+00
 -1      4177 1.02885E+02 1.93816E+01 0.00000E+00
 -1      4178 3.09000E+01 2.79170E+01 0.00000E+00
 -1      4179 3.24000E+01 2.79170E+01 0.00000E+00
 -1      4180 3.01500E+01 2.66180E+01 0.00000E+00
 -1      4181 3.39000E+01 2.79170E+01 0.00000E+00
 -1      4182 3.54000E+01 2.79170E+01 0.00000E+00
 -1      4183 3.31500E+01 2.66180E+01 0.00000E+00
 -1      4184 9.33923E+01 2.60699E+01 0.00000E+00
 -1      4185 9.45122E+01 2.08359E+01 0.00000E+00
 -1      4186 1.15635E+02 2.06806E+01 0.00000E+00
 -1      4187 1.14135E+02 2.06806E+01 0.00000E+00
 -1      4188 1.13385E+02 2.19796E+01 0.00000E+00
 -1      4189 3.61500E+01 2.66180E+01 0.00000E+00
 -1      4190 9.41588E+01 2.44541E+01 0.00000E+00
 -1      4191 9.60122E+01 2.08359E+01 0.00000E+00
 -1      4192 9.51675E+01 2.22901E+01 0.00000E+00
 -1      4193 9.75122E+01 2.08359E+01 0.00000E+00
 -1      4194 2.37750E+01 2.78321E+01 0.00000E+00
 -1      4195 2.45250E+01 2.65331E+01 0.00000E+00
 -1      4196 2.26500E+01 2.77472E+01 0.00000E+00
 -1      4197 2.07773E+01 2.45409E+01 0.00000E+00
 -1      4198 1.94783E+01 2.52769E+01 0.00000E+00
 -1      4199 1.94715E+01 2.63115E+01 0.00000E+00
 -1      4200 4.38037E+01 2.08932E+01 0.00000E+00
 -1      4201 4.23037E+01 2.08932E+01 0.00000E+00
 -1      4202 4.45725E+01 2.21922E+01 0.00000E+00
 -1      4203 9.20015E+01 1.72165E+01 0.00000E+00
 -1      4204 9.98709E+01 1.93816E+01 0.00000E+00
 -1      4205 1.07385E+02 2.19796E+01 0.00000E+00
 -1      4206 1.06635E+02 2.06806E+01 0.00000E+00
 -1      4207 1.05135E+02 2.06806E+01 0.00000E+00
 -1      4208 4.00350E+01 1.95942E+01 0.00000E+00
 -1      4209 3.92850E+01 1.82952E+01 0.00000E+00
 -1      4210 3.77850E+01 1.82952E+01 0.00000E+00
 -1      4211 1.25760E+02 2.07686E+01 0.00000E+00
 -1      4212 1.25010E+02 2.20676E+01 0.00000E+00
 -1      4213 1.26885E+02 2.08566E+01 0.00000E+00
 -1      4214 1.19385E+02 2.19796E+01 0.00000E+00
 -1      4215 1.18635E+02 2.06806E+01 0.00000E+00
 -1      4216 1.17135E+02 2.06806E+01 0.00000E+00
 -1      4217 2.80350E+01 1.95943E+01 0.00000E+00
 -1      4218 2.72850E+01 1.82953E+01 0.00000E+00
 -1      4219 4.80267E+01 2.15132E+01 0.00000E+00
 -1      4220 2.57851E+01 1.82953E+01 0.00000E+00
 -1      4221 1.30231E+02 2.41183E+01 0.00000E+00
 -1      4222 3.62850E+01 1.82952E+01 0.00000E+00
 -1      4223 3.47850E+01 1.82952E+01 0.00000E+00
 -1      4224 3.40350E+01 1.95942E+01 0.00000E+00
 -1      4225 3.70350E+01 1.95942E+01 0.00000E+00
 -1      4226 5.15220E+01 2.55116E+01 0.00000E+00
 -1      4227 5.21184E+01 2.42054E+01 0.00000E+00
 -1      4228 5.13035E+01 2.33239E+01 0.00000E+00
 -1      4229 5.00988E+01 2.55152E+01 0.00000E+00
 -1      4230 1.29977E+02 2.12606E+01 0.00000E+00
 -1      4231 1.28221E+02 2.09640E+01 0.00000E+00
 -1      4232 1.27471E+02 2.22630E+01 0.00000E+00
 -1      4233 1.30144E+02 2.24776E+01 0.00000E+00
 -1      4234 3.17850E+01 2.08932E+01 0.00000E+00
 -1      4235 3.02850E+01 2.08932E+01 0.00000E+00
 -1      4236 2.87850E+01 2.08933E+01 0.00000E+00
 -1      4237 2.72851E+01 2.08933E+01 0.00000E+00
 -1      4238 2.95350E+01 2.21923E+01 0.00000E+00
 -1      4239 1.23135E+02 2.32786E+01 0.00000E+00
 -1      4240 1.21635E+02 2.32786E+01 0.00000E+00
 -1      4241 4.14000E+01 2.53190E+01 0.00000E+00
 -1      4242 4.29000E+01 2.53190E+01 0.00000E+00
 -1      4243 4.48613E+01 2.44051E+01 0.00000E+00
 -1      4244 4.63613E+01 2.44051E+01 0.00000E+00
 -1      4245 1.00540E+02 2.08359E+01 0.00000E+00
 -1      4246 9.90263E+01 2.08359E+01 0.00000E+00
 -1      4247 9.81816E+01 2.22901E+01 0.00000E+00
 -1      4248 2.34360E+01 2.03834E+01 0.00000E+00
 -1      4249 2.19360E+01 2.03834E+01 0.00000E+00
 -1      4250 1.11135E+02 2.32786E+01 0.00000E+00
 -1      4251 1.09635E+02 2.32786E+01 0.00000E+00
 -1      4252 9.86728E+01 2.44541E+01 0.00000E+00
 -1      4253 1.00173E+02 2.44541E+01 0.00000E+00
 -1      4254 1.04400E+02 2.53190E+01 0.00000E+00
 -1      4255 1.05900E+02 2.53190E+01 0.00000E+00
 -1      4256 1.10018E+02 2.55978E+01 0.00000E+00
 -1      4257 1.11518E+02 2.55978E+01 0.00000E+00
 -1      4258 1.13400E+02 2.53190E+01 0.00000E+00
 -1      4259 1.14900E+02 2.53190E+01 0.00000E+00
 -1      4260 1.16768E+02 2.42988E+01 0.00000E+00
 -1      4261 1.18268E+02 2.42988E+01 0.00000E+00
 -1      4262 1.22018E+02 2.55978E+01 0.00000E+00
 -1      4263 1.23518E+02 2.55978E+01 0.00000E+00
 -1      4264 5.03410E+01 2.26269E+01 0.00000E+00
 -1      4265 9.56588E+01 2.44541E+01 0.00000E+00
 -1      4266 9.71588E+01 2.44541E+01 0.00000E+00
 -1      4267 3.32850E+01 2.08932E+01 0.00000E+00
 -1      4268 3.25350E+01 2.21922E+01 0.00000E+00
 -1      4269 3.47850E+01 2.08932E+01 0.00000E+00
 -1      4270 2.00362E+01 2.80469E+01 0.00000E+00
 -1      4271 4.83868E+01 2.33059E+01 0.00000E+00
 -1      4272 2.64000E+01 2.53190E+01 0.00000E+00
 -1      4273 2.79000E+01 2.53190E+01 0.00000E+00
 -1      4274 2.53605E+01 1.93393E+01 0.00000E+00
 -1      4275 3.54000E+01 2.53190E+01 0.00000E+00
 -1      4276 3.69000E+01 2.53190E+01 0.00000E+00
 -1      4277 1.03635E+02 2.06806E+01 0.00000E+00
 -1      4278 1.02135E+02 2.06806E+01 0.00000E+00
 -1      4279 1.04385E+02 2.19796E+01 0.00000E+00
 -1      4280 2.98425E+01 2.44051E+01 0.00000E+00
 -1      4281 3.13425E+01 2.44051E+01 0.00000E+00
 -1      4282 2.17350E+01 2.25943E+01 0.00000E+00
 -1      4283 3.84000E+01 2.53190E+01 0.00000E+00
 -1      4284 3.99000E+01 2.53190E+01 0.00000E+00
 -1      4285 4.06500E+01 2.40200E+01 0.00000E+00
 -1      4286 3.28425E+01 2.44051E+01 0.00000E+00
 -1      4287 3.43425E+01 2.44051E+01 0.00000E+00
 -1      4288 1.28895E+02 2.40110E+01 0.00000E+00
 -1      4289 2.46105E+01 2.06383E+01 0.00000E+00
 -1      4290 2.38605E+01 2.19373E+01 0.00000E+00
 -1      4291 2.57851E+01 2.08933E+01 0.00000E+00
 -1      4292 2.29096E+01 2.28493E+01 0.00000E+00
 -1      4293 2.19586E+01 2.37612E+01 0.00000E+00
 -1      4294 2.40841E+01 2.31042E+01 0.00000E+00
 -1      4295 4.86756E+01 2.55188E+01 0.00000E+00
 -1      4296 2.13353E+01 2.73109E+01 0.00000E+00
 -1      4297 2.20853E+01 2.60119E+01 0.00000E+00
 -1      4298 2.36801E+01 2.56230E+01 0.00000E+00
 -1      4299 2.48051E+01 2.57079E+01 0.00000E+00
 -1      4300 2.55551E+01 2.44089E+01 0.00000E+00
 -1      4301 2.23654E+01 2.51867E+01 0.00000E+00
 -1      4302 1.09076E+02 2.44382E+01 0.00000E+00
 -1      4303 1.08326E+02 2.31392E+01 0.00000E+00
 -1      4304 1.06826E+02 2.31392E+01 0.00000E+00
 -1      4305 1.08709E+02 2.54584E+01 0.00000E+00
 -1      4306 1.16018E+02 2.29998E+01 0.00000E+00
 -1      4307 1.06459E+02 2.41594E+01 0.00000E+00
 -1      4308 1.07209E+02 2.54584E+01 0.00000E+00
 -1      4309 1.01400E+02 2.53190E+01 0.00000E+00
 -1      4310 1.02900E+02 2.53190E+01 0.00000E+00
 -1      4311 1.12268E+02 2.42988E+01 0.00000E+00
 -1      4312 1.19768E+02 2.42988E+01 0.00000E+00
 -1      4313 1.23868E+02 2.43175E+01 0.00000E+00
 -1      4314 1.25000E+02 2.53376E+01 0.00000E+00
 -1      4315 1.26083E+02 2.50961E+01 0.00000E+00
 -1      4316 1.24618E+02 2.30184E+01 0.00000E+00
 -1      4317 3.76500E+01 2.40200E+01 0.00000E+00
 -1      4318 1.00923E+02 2.31551E+01 0.00000E+00
 -1      4319 4.03425E+01 2.18071E+01 0.00000E+00
 -1      4320 3.88425E+01 2.18071E+01 0.00000E+00
 -1      4321 1.03650E+02 2.40200E+01 0.00000E+00
 -1      4322 1.25743E+02 2.31065E+01 0.00000E+00
 -1      4323 1.20518E+02 2.55978E+01 0.00000E+00
 -1      4324 1.13018E+02 2.29998E+01 0.00000E+00
 -1      4325 4.41113E+01 2.31061E+01 0.00000E+00
 -1      4326 3.50925E+01 2.31061E+01 0.00000E+00
 -1      4327 2.90925E+01 2.31061E+01 0.00000E+00
 -1      4328 1.27559E+02 2.39037E+01 0.00000E+00
 -1      4329 2.65351E+01 2.21923E+01 0.00000E+00
 -1      4330 3.58425E+01 2.18071E+01 0.00000E+00
 -1      4331 1.01290E+02 2.21349E+01 0.00000E+00
 -1      4332 1.02518E+02 2.29998E+01 0.00000E+00
 -1      4333 1.26476E+02 2.41453E+01 0.00000E+00
 -1      4334 2.19518E+01 2.47959E+01 0.00000E+00
 -1      4335 3.73425E+01 2.18071E+01 0.00000E+00
 -1      4336 1.05518E+02 2.29998E+01 0.00000E+00
 -1      4337 1.14518E+02 2.29998E+01 0.00000E+00
 -1      4338 4.11113E+01 2.31061E+01 0.00000E+00
 -1      4339 1.04018E+02 2.29998E+01 0.00000E+00
 -1      4340 1.16385E+02 2.19796E+01 0.00000E+00
 -1      4341 4.26113E+01 2.31061E+01 0.00000E+00
 -1      4342 2.75925E+01 2.31061E+01 0.00000E+00
 -1      4343 2.60926E+01 2.31061E+01 0.00000E+00
 -1      4344 2.44977E+01 2.34950E+01 0.00000E+00
 -1      4345 2.35467E+01 2.44070E+01 0.00000E+00
 -3
    3C                          2091                                     1
 -1       164    8    0    1
 -2         6         7        23      1128      1291      1145
 -1       165    8    0    1
 -2         7         8       164      1129      1292      1293
 -1       166    8    0    1
 -2         8         9       165      1130      1294      1295
 -1       167    8    0    1
 -2         8       165       164      1295      1296      1292
 -1       168    8    0    1
 -2         9        10       166      1131      1297      1298
 -1       169    8    0    1
 -2         9       166       165      1298      1299      1294
 -1       170    8    0    1
 -2        10        11       167      1132      1300      1301
 -1       171    8    0    1
 -2        10       167       166      1301      1302      1297
 -1       172    8    0    1
 -2        11        12       168      1133      1303      1304
 -1       173    8    0    1
 -2        11       168       167      1304      1305      1300
 -1       174    8    0    1
 -2        12        13       169      1134      1306      1307
 -1       175    8    0    1
 -2        12       169       168      1307      1308      1303
 -1       176    8    0    1
 -2        13        14       170      1135      1309      1310
 -1       177    8    0    1
 -2        13       170       169      1310      1311      1306
 -1       178    8    0    1
 -2        14        15       171      1136      1312      1313
 -1       179    8    0    1
 -2        14       171       170      1313      1314      1309
 -1       180    8    0    1
 -2        15        16       172      1137      1315      1316
 -1       181    8    0    1
 -2        15       172       171      1316      1317      1312
 -1       182    8    0    1
 -2        16        17       173      1138      1318      1319
 -1       183    8    0    1
 -2        16       173       172      1319      1320      1315
 -1       184    8    0    1
 -2        17        18       174      1139      1321      1322
 -1       185    8    0    1
 -2        17       174       173      1322      1323      1318
 -1       186    8    0    1
 -2        18        19       175      1140      1324      1325
 -1       187    8    0    1
 -2        18       175       174      1325      1326      1321
 -1       188    8    0    1
 -2        19        20       176      1141      1327      1328
 -1       189    8    0    1
 -2        19       176       175      1328      1329      1324
 -1       190    8    0    1
 -2        20        21       177      1142      1330      1331
 -1       191    8    0    1
 -2        20       177       176      1331      1332      1327
 -1       192    8    0    1
 -2        21        22       178      1143      1333      1334
 -1       193    8    0    1
 -2        21       178       177      1334      1335      1330
 -1       194    8    0    1
 -2        22         5       179      1144      1336      1337
 -1       195    8    0    1
 -2       178        22       179      1333      1337      1338
 -1       196    8    0    1
 -2         5        72       179      1195      1339      1336
 -1       197    8    0    1
 -2        24        23       180      1146      1340      1341
 -1       198    8    0    1
 -2        25        24       181      1147      1342      1343
 -1       199    8    0    1
 -2        24       180       181      1341      1344      1342
 -1       200    8    0    1
 -2        26        25       182      1148      1345      1346
 -1       201    8    0    1
 -2        25       181       182      1343      1347      1345
 -1       202    8    0    1
 -2        27        26       183      1149      1348      1349
 -1       203    8    0    1
 -2        26       182       183      1346      1350      1348
 -1       204    8    0    1
 -2        28        27       184      1150      1351      1352
 -1       205    8    0    1
 -2        27       183       184      1349      1353      1351
 -1       206    8    0    1
 -2        29        28       185      1151      1354      1355
 -1       207    8    0    1
 -2        28       184       185      1352      1356      1354
 -1       208    8    0    1
 -2        30        29       186      1152      1357      1358
 -1       209    8    0    1
 -2        29       185       186      1355      1359      1357
 -1       210    8    0    1
 -2        31        30       187      1153      1360      1361
 -1       211    8    0    1
 -2        30       186       187      1358      1362      1360
 -1       212    8    0    1
 -2        32        31       188      1154      1363      1364
 -1       213    8    0    1
 -2        31       187       188      1361      1365      1363
 -1       214    8    0    1
 -2        33        32       189      1155      1366      1367
 -1       215    8    0    1
 -2        32       188       189      1364      1368      1366
 -1       216    8    0    1
 -2        34        33       190      1156      1369      1370
 -1       217    8    0    1
 -2        33       189       190      1367      1371      1369
 -1       218    8    0    1
 -2        35        34       191      1157      1372      1373
 -1       219    8    0    1
 -2        34       190       191      1370      1374      1372
 -1       220    8    0    1
 -2        36        35       192      1158      1375      1376
 -1       221    8    0    1
 -2        35       191       192      1373      1377      1375
 -1       222    8    0    1
 -2        37        36       193      1159      1378      1379
 -1       223    8    0    1
 -2        36       192       193      1376      1380      1378
 -1       224    8    0    1
 -2        38        37       194      1160      1381      1382
 -1       225    8    0    1
 -2        37       193       194      1379      1383      1381
 -1       226    8    0    1
 -2        39        38       195      1161      1384      1385
 -1       227    8    0    1
 -2        38       194       195      1382      1386      1384
 -1       228    8    0    1
 -2        40        39       196      1162      1387      1388
 -1       229    8    0    1
 -2        39       195       196      1385      1389      1387
 -1       230    8    0    1
 -2        41        40       197      1163      1390      1391
 -1       231    8    0    1
 -2        40       196       197      1388      1392      1390
 -1       232    8    0    1
 -2        42        41       198      1164      1393      1394
 -1       233    8    0    1
 -2        41       197       198      1391      1395      1393
 -1       234    8    0    1
 -2        43        42       199      1165      1396      1397
 -1       235    8    0    1
 -2        42       198       199      1394      1398      1396
 -1       236    8    0    1
 -2        44        43       200      1166      1399      1400
 -1       237    8    0    1
 -2        43       199       200      1397      1401      1399
 -1       238    8    0    1
 -2        45        44       201      1167      1402      1403
 -1       239    8    0    1
 -2        44       200       201      1400      1404      1402
 -1       240    8    0    1
 -2        46        45       202      1168      1405      1406
 -1       241    8    0    1
 -2        45       201       202      1403      1407      1405
 -1       242    8    0    1
 -2        47        46       203      1169      1408      1409
 -1       243    8    0    1
 -2        46       202       203      1406      1410      1408
 -1       244    8    0    1
 -2        48        47       204      1170      1411      1412
 -1       245    8    0    1
 -2        47       203       204      1409      1413      1411
 -1       246    8    0    1
 -2        49        48       205      1171      1414      1415
 -1       247    8    0    1
 -2        48       204       205      1412      1416      1414
 -1       248    8    0    1
 -2        50        49       206      1172      1417      1418
 -1       249    8    0    1
 -2        49       205       206      1415      1419      1417
 -1       250    8    0    1
 -2        51        50       207      1173      1420      1421
 -1       251    8    0    1
 -2        50       206       207      1418      1422      1420
 -1       252    8    0    1
 -2        52        51       208      1174      1423      1424
 -1       253    8    0    1
 -2        51       207       208      1421      1425      1423
 -1       254    8    0    1
 -2        53        52       209      1175      1426      1427
 -1       255    8    0    1
 -2        52       208       209      1424      1428      1426
 -1       256    8    0    1
 -2        54        53       210      1176      1429      1430
 -1       257    8    0    1
 -2        53       209       210      1427      1431      1429
 -1       258    8    0    1
 -2        55        54       211      1177      1432      1433
 -1       259    8    0    1
 -2        54       210       211      1430      1434      1432
 -1       260    8    0    1
 -2        56        55       212      1178      1435      1436
 -1       261    8    0    1
 -2        55       211       212      1433      1437      1435
 -1       262    8    0    1
 -2        57        56       213      1179      1438      1439
 -1       263    8    0    1
 -2        56       212       213      1436      1440      1438
 -1       264    8    0    1
 -2        58        57       214      1180      1441      1442
 -1       265    8    0    1
 -2        57       213       214      1439      1443      1441
 -1       266    8    0    1
 -2        59        58       215      1181      1444      1445
 -1       267    8    0    1
 -2        58       214       215      1442      1446      1444
 -1       268    8    0    1
 -2        60        59       216      1182      1447      1448
 -1       269    8    0    1
 -2        59       215       216      1445      1449      1447
 -1       270    8    0    1
 -2        61        60       217      1183      1450      1451
 -1       271    8    0    1
 -2        60       216       217      1448      1452      1450
 -1       272    8    0    1
 -2        62        61       218      1184      1453      1454
 -1       273    8    0    1
 -2        61       217       218      1451      1455      1453
 -1       274    8    0    1
 -2        63        62       219      1185      1456      1457
 -1       275    8    0    1
 -2        62       218       219      1454      1458      1456
 -1       276    8    0    1
 -2        64        63       220      1186      1459      1460
 -1       277    8    0    1
 -2        63       219       220      1457      1461      1459
 -1       278    8    0    1
 -2        65        64       221      1187      1462      1463
 -1       279    8    0    1
 -2        64       220       221      1460      1464      1462
 -1       280    8    0    1
 -2        66        65       222      1188      1465      1466
 -1       281    8    0    1
 -2        65       221       222      1463      1467      1465
 -1       282    8    0    1
 -2        67        66       223      1189      1468      1469
 -1       283    8    0    1
 -2        66       222       223      1466      1470      1468
 -1       284    8    0    1
 -2        68        67       224      1190      1471      1472
 -1       285    8    0    1
 -2        67       223       224      1469      1473      1471
 -1       286    8    0    1
 -2        69        68       225      1191      1474      1475
 -1       287    8    0    1
 -2        68       224       225      1472      1476      1474
 -1       288    8    0    1
 -2        70        69       226      1192      1477      1478
 -1       289    8    0    1
 -2        69       225       226      1475      1479      1477
 -1       290    8    0    1
 -2        71        70       227      1193      1480      1481
 -1       291    8    0    1
 -2        70       226       227      1478      1482      1480
 -1       292    8    0    1
 -2         4        71       136      1194      1483      1261
 -1       293    8    0    1
 -2       136        71       227      1483      1481      1484
 -1       294    8    0    1
 -2        72        73       228      1196      1485      1486
 -1       295    8    0    1
 -2        72       228       179      1486      1487      1339
 -1       296    8    0    1
 -2        73        74       229      1197      1488      1489
 -1       297    8    0    1
 -2        73       229       228      1489      1490      1485
 -1       298    8    0    1
 -2        74        75       230      1198      1491      1492
 -1       299    8    0    1
 -2        74       230       229      1492      1493      1488
 -1       300    8    0    1
 -2        75        76       231      1199      1494      1495
 -1       301    8    0    1
 -2        75       231       230      1495      1496      1491
 -1       302    8    0    1
 -2        76        77       232      1200      1497      1498
 -1       303    8    0    1
 -2        76       232       231      1498      1499      1494
 -1       304    8    0    1
 -2        77        78       233      1201      1500      1501
 -1       305    8    0    1
 -2        77       233       232      1501      1502      1497
 -1       306    8    0    1
 -2        78        79       234      1202      1503      1504
 -1       307    8    0    1
 -2        78       234       233      1504      1505      1500
 -1       308    8    0    1
 -2        79        80       235      1203      1506      1507
 -1       309    8    0    1
 -2        79       235       234      1507      1508      1503
 -1       310    8    0    1
 -2        80        81       236      1204      1509      1510
 -1       311    8    0    1
 -2        80       236       235      1510      1511      1506
 -1       312    8    0    1
 -2        81        82       237      1205      1512      1513
 -1       313    8    0    1
 -2        81       237       236      1513      1514      1509
 -1       314    8    0    1
 -2        82        83       238      1206      1515      1516
 -1       315    8    0    1
 -2        82       238       237      1516      1517      1512
 -1       316    8    0    1
 -2        83        84       239      1207      1518      1519
 -1       317    8    0    1
 -2        83       239       238      1519      1520      1515
 -1       318    8    0    1
 -2        84        85       240      1208      1521      1522
 -1       319    8    0    1
 -2        84       240       239      1522      1523      1518
 -1       320    8    0    1
 -2        85        86       241      1209      1524      1525
 -1       321    8    0    1
 -2        85       241       240      1525      1526      1521
 -1       322    8    0    1
 -2        86        87       242      1210      1527      1528
 -1       323    8    0    1
 -2        86       242       241      1528      1529      1524
 -1       324    8    0    1
 -2        87        88       243      1211      1530      1531
 -1       325    8    0    1
 -2        87       243       242      1531      1532      1527
 -1       326    8    0    1
 -2        88        89       244      1212      1533      1534
 -1       327    8    0    1
 -2        88       244       243      1534      1535      1530
 -1       328    8    0    1
 -2        89        90       245      1213      1536      1537
 -1       329    8    0    1
 -2        89       245       244      1537      1538      1533
 -1       330    8    0    1
 -2        90        91       246      1214      1539      1540
 -1       331    8    0    1
 -2        90       246       245      1540      1541      1536
 -1       332    8    0    1
 -2        91        92       247      1215      1542      1543
 -1       333    8    0    1
 -2        91       247       246      1543      1544      1539
 -1       334    8    0    1
 -2        92        93       248      1216      1545      1546
 -1       335    8    0    1
 -2        92       248       247      1546      1547      1542
 -1       336    8    0    1
 -2        93        94       249      1217      1548      1549
 -1       337    8    0    1
 -2        93       249       248      1549      1550      1545
 -1       338    8    0    1
 -2        94        95       250      1218      1551      1552
 -1       339    8    0    1
 -2        94       250       249      1552      1553      1548
 -1       340    8    0    1
 -2        95        96       251      1219      1554      1555
 -1       341    8    0    1
 -2        95       251       250      1555      1556      1551
 -1       342    8    0    1
 -2        96        97       252      1220      1557      1558
 -1       343    8    0    1
 -2        96       252       251      1558      1559      1554
 -1       344    8    0    1
 -2        97        98       253      1221      1560      1561
 -1       345    8    0    1
 -2        97       253       252      1561      1562      1557
 -1       346    8    0    1
 -2        98        99       254      1222      1563      1564
 -1       347    8    0    1
 -2        98       254       253      1564      1565      1560
 -1       348    8    0    1
 -2        99       100       255      1223      1566      1567
 -1       349    8    0    1
 -2        99       255       254      1567      1568      1563
 -1       350    8    0    1
 -2       100       101       256      1224      1569      1570
 -1       351    8    0    1
 -2       100       256       255      1570      1571      1566
 -1       352    8    0    1
 -2       101       102       257      1225      1572      1573
 -1       353    8    0    1
 -2       101       257       256      1573      1574      1569
 -1       354    8    0    1
 -2       102       103       258      1226      1575      1576
 -1       355    8    0    1
 -2       102       258       257      1576      1577      1572
 -1       356    8    0    1
 -2       103       104       259      1227      1578      1579
 -1       357    8    0    1
 -2       103       259       258      1579      1580      1575
 -1       358    8    0    1
 -2       104       105       260      1228      1581      1582
 -1       359    8    0    1
 -2       104       260       259      1582      1583      1578
 -1       360    8    0    1
 -2       105       106       261      1229      1584      1585
 -1       361    8    0    1
 -2       105       261       260      1585      1586      1581
 -1       362    8    0    1
 -2       106       107       262      1230      1587      1588
 -1       363    8    0    1
 -2       106       262       261      1588      1589      1584
 -1       364    8    0    1
 -2       107       108       263      1231      1590      1591
 -1       365    8    0    1
 -2       107       263       262      1591      1592      1587
 -1       366    8    0    1
 -2       108       109       264      1232      1593      1594
 -1       367    8    0    1
 -2       108       264       263      1594      1595      1590
 -1       368    8    0    1
 -2       109       110       265      1233      1596      1597
 -1       369    8    0    1
 -2       109       265       264      1597      1598      1593
 -1       370    8    0    1
 -2       110       111       266      1234      1599      1600
 -1       371    8    0    1
 -2       110       266       265      1600      1601      1596
 -1       372    8    0    1
 -2       111       112       267      1235      1602      1603
 -1       373    8    0    1
 -2       111       267       266      1603      1604      1599
 -1       374    8    0    1
 -2       112       113       268      1236      1605      1606
 -1       375    8    0    1
 -2       112       268       267      1606      1607      1602
 -1       376    8    0    1
 -2       113       114       269      1237      1608      1609
 -1       377    8    0    1
 -2       113       269       268      1609      1610      1605
 -1       378    8    0    1
 -2       114       115       270      1238      1611      1612
 -1       379    8    0    1
 -2       114       270       269      1612      1613      1608
 -1       380    8    0    1
 -2       115       116       271      1239      1614      1615
 -1       381    8    0    1
 -2       115       271       270      1615      1616      1611
 -1       382    8    0    1
 -2       116       117       272      1240      1617      1618
 -1       383    8    0    1
 -2       116       272       271      1618      1619      1614
 -1       384    8    0    1
 -2       117       118       273      1241      1620      1621
 -1       385    8    0    1
 -2       117       273       272      1621      1622      1617
 -1       386    8    0    1
 -2       118       119       274      1242      1623      1624
 -1       387    8    0    1
 -2       118       274       273      1624      1625      1620
 -1       388    8    0    1
 -2       119       120       275      1243      1626      1627
 -1       389    8    0    1
 -2       119       275       274      1627      1628      1623
 -1       390    8    0    1
 -2       120         3       121      1244      1245      1629
 -1       391    8    0    1
 -2       121       122       276      1246      1630      1631
 -1       392    8    0    1
 -2       122       123       277      1247      1632      1633
 -1       393    8    0    1
 -2       122       277       276      1633      1634      1630
 -1       394    8    0    1
 -2       123       124       278      1248      1635      1636
 -1       395    8    0    1
 -2       123       278       277      1636      1637      1632
 -1       396    8    0    1
 -2       124       125       279      1249      1638      1639
 -1       397    8    0    1
 -2       124       279       278      1639      1640      1635
 -1       398    8    0    1
 -2       125       126       280      1250      1641      1642
 -1       399    8    0    1
 -2       125       280       279      1642      1643      1638
 -1       400    8    0    1
 -2       126       127       281      1251      1644      1645
 -1       401    8    0    1
 -2       126       281       280      1645      1646      1641
 -1       402    8    0    1
 -2       127       128       282      1252      1647      1648
 -1       403    8    0    1
 -2       127       282       281      1648      1649      1644
 -1       404    8    0    1
 -2       128       129       283      1253      1650      1651
 -1       405    8    0    1
 -2       128       283       282      1651      1652      1647
 -1       406    8    0    1
 -2       129       130       284      1254      1653      1654
 -1       407    8    0    1
 -2       129       284       283      1654      1655      1650
 -1       408    8    0    1
 -2       130       131       285      1255      1656      1657
 -1       409    8    0    1
 -2       130       285       284      1657      1658      1653
 -1       410    8    0    1
 -2       131       132       286      1256      1659      1660
 -1       411    8    0    1
 -2       131       286       285      1660      1661      1656
 -1       412    8    0    1
 -2       132       133       287      1257      1662      1663
 -1       413    8    0    1
 -2       132       287       286      1663      1664      1659
 -1       414    8    0    1
 -2       133       134       288      1258      1665      1666
 -1       415    8    0    1
 -2       133       288       287      1666      1667      1662
 -1       416    8    0    1
 -2       134       135       289      1259      1668      1669
 -1       417    8    0    1
 -2       134       289       288      1669      1670      1665
 -1       418    8    0    1
 -2       135       136       290      1260      1671      1672
 -1       419    8    0    1
 -2       289       135       290      1668      1672      1673
 -1       420    8    0    1
 -2       136       227       290      1484      1674      1671
 -1       421    8    0    1
 -2         2       137       291      1262      1675      1676
 -1       422    8    0    1
 -2       137       138       292      1263      1677      1678
 -1       423    8    0    1
 -2       138       139       293      1264      1679      1680
 -1       424    8    0    1
 -2       139       140       294      1265      1681      1682
 -1       425    8    0    1
 -2       140       141       295      1266      1683      1684
 -1       426    8    0    1
 -2       141       142       296      1267      1685      1686
 -1       427    8    0    1
 -2       142       143       297      1268      1687      1688
 -1       428    8    0    1
 -2       143       144       298      1269      1689      1690
 -1       429    8    0    1
 -2       144       145       299      1270      1691      1692
 -1       430    8    0    1
 -2       145       146       300      1271      1693      1694
 -1       431    8    0    1
 -2       146       147       301      1272      1695      1696
 -1       432    8    0    1
 -2       147       148       302      1273      1697      1698
 -1       433    8    0    1
 -2       148       149       303      1274      1699      1700
 -1       434    8    0    1
 -2       149       150       304      1275      1701      1702
 -1       435    8    0    1
 -2       150       151       305      1276      1703      1704
 -1       436    8    0    1
 -2       151       152       306      1277      1705      1706
 -1       437    8    0    1
 -2       152       153       307      1278      1707      1708
 -1       438    8    0    1
 -2       153       154       308      1279      1709      1710
 -1       439    8    0    1
 -2       154       155       309      1280      1711      1712
 -1       440    8    0    1
 -2       155       156       310      1281      1713      1714
 -1       441    8    0    1
 -2       156       157       311      1282      1715      1716
 -1       442    8    0    1
 -2       157         1       312      1283      1717      1718
 -1       443    8    0    1
 -2         1       158       313      1284      1719      1720
 -1       444    8    0    1
 -2       158       159       314      1285      1721      1722
 -1       445    8    0    1
 -2       159       160       315      1286      1723      1724
 -1       446    8    0    1
 -2       160       161       316      1287      1725      1726
 -1       447    8    0    1
 -2       161       162       317      1288      1727      1728
 -1       448    8    0    1
 -2       162       163       318      1289      1729      1730
 -1       449    8    0    1
 -2       163         2       319      1290      1731      1732
 -1       450    8    0    1
 -2       294       140       295      1681      1684      1733
 -1       451    8    0    1
 -2       293       139       294      1679      1682      1734
 -1       452    8    0    1
 -2       120       121       275      1629      1735      1626
 -1       453    8    0    1
 -2       121       276       275      1631      1736      1735
 -1       454    8    0    1
 -2       291       137       292      1675      1678      1737
 -1       455    8    0    1
 -2       292       138       293      1677      1680      1738
 -1       456    8    0    1
 -2         2       291       319      1676      1739      1731
 -1       457    8    0    1
 -2       141       296       295      1686      1740      1683
 -1       458    8    0    1
 -2       142       297       296      1688      1741      1685
 -1       459    8    0    1
 -2       143       298       297      1690      1742      1687
 -1       460    8    0    1
 -2       144       299       298      1692      1743      1689
 -1       461    8    0    1
 -2       145       300       299      1694      1744      1691
 -1       462    8    0    1
 -2       146       301       300      1696      1745      1693
 -1       463    8    0    1
 -2       147       302       301      1698      1746      1695
 -1       464    8    0    1
 -2       148       303       302      1700      1747      1697
 -1       465    8    0    1
 -2       149       304       303      1702      1748      1699
 -1       466    8    0    1
 -2       150       305       304      1704      1749      1701
 -1       467    8    0    1
 -2       151       306       305      1706      1750      1703
 -1       468    8    0    1
 -2       152       307       306      1708      1751      1705
 -1       469    8    0    1
 -2       153       308       307      1710      1752      1707
 -1       470    8    0    1
 -2       154       309       308      1712      1753      1709
 -1       471    8    0    1
 -2       155       310       309      1714      1754      1711
 -1       472    8    0    1
 -2       156       311       310      1716      1755      1713
 -1       473    8    0    1
 -2       157       312       311      1718      1756      1715
 -1       474    8    0    1
 -2         1       313       312      1720      1757      1717
 -1       475    8    0    1
 -2       158       314       313      1722      1758      1719
 -1       476    8    0    1
 -2       159       315       314      1724      1759      1721
 -1       477    8    0    1
 -2       160       316       315      1726      1760      1723
 -1       478    8    0    1
 -2       161       317       316      1728      1761      1725
 -1       479    8    0    1
 -2       162       318       317      1730      1762      1727
 -1       480    8    0    1
 -2       163       319       318      1732      1763      1729
 -1       481    8    0    1
 -2        23         7       164      1291      1293      1764
 -1       482    8    0    1
 -2       165       166       320      1299      1765      1766
 -1       483    8    0    1
 -2       164       165       321      1296      1767      1768
 -1       484    8    0    1
 -2       165       320       321      1766      1769      1767
 -1       485    8    0    1
 -2       167       168       322      1305      1770      1771
 -1       486    8    0    1
 -2       168       169       323      1308      1772      1773
 -1       487    8    0    1
 -2       168       323       322      1773      1774      1770
 -1       488    8    0    1
 -2       169       170       324      1311      1775      1776
 -1       489    8    0    1
 -2       169       324       323      1776      1777      1772
 -1       490    8    0    1
 -2       170       171       325      1314      1778      1779
 -1       491    8    0    1
 -2       170       325       324      1779      1780      1775
 -1       492    8    0    1
 -2       171       172       326      1317      1781      1782
 -1       493    8    0    1
 -2       171       326       325      1782      1783      1778
 -1       494    8    0    1
 -2       172       173       327      1320      1784      1785
 -1       495    8    0    1
 -2       172       327       326      1785      1786      1781
 -1       496    8    0    1
 -2       173       174       328      1323      1787      1788
 -1       497    8    0    1
 -2       173       328       327      1788      1789      1784
 -1       498    8    0    1
 -2       174       175       329      1326      1790      1791
 -1       499    8    0    1
 -2       174       329       328      1791      1792      1787
 -1       500    8    0    1
 -2       175       176       330      1329      1793      1794
 -1       501    8    0    1
 -2       175       330       329      1794      1795      1790
 -1       502    8    0    1
 -2       176       177       331      1332      1796      1797
 -1       503    8    0    1
 -2       176       331       330      1797      1798      1793
 -1       504    8    0    1
 -2       177       178       332      1335      1799      1800
 -1       505    8    0    1
 -2       177       332       331      1800      1801      1796
 -1       506    8    0    1
 -2       178       179       333      1338      1802      1803
 -1       507    8    0    1
 -2       332       178       333      1799      1803      1804
 -1       508    8    0    1
 -2       179       228       333      1487      1805      1802
 -1       509    8    0    1
 -2       180        23       164      1340      1764      1806
 -1       510    8    0    1
 -2       228       229       334      1490      1807      1808
 -1       511    8    0    1
 -2       228       334       333      1808      1809      1805
 -1       512    8    0    1
 -2       180       164       321      1806      1768      1810
 -1       513    8    0    1
 -2       182       181       335      1347      1811      1812
 -1       514    8    0    1
 -2       183       182       336      1350      1813      1814
 -1       515    8    0    1
 -2       182       335       336      1812      1815      1813
 -1       516    8    0    1
 -2       184       183       337      1353      1816      1817
 -1       517    8    0    1
 -2       183       336       337      1814      1818      1816
 -1       518    8    0    1
 -2       185       184       338      1356      1819      1820
 -1       519    8    0    1
 -2       184       337       338      1817      1821      1819
 -1       520    8    0    1
 -2       186       185       339      1359      1822      1823
 -1       521    8    0    1
 -2       185       338       339      1820      1824      1822
 -1       522    8    0    1
 -2       187       186       340      1362      1825      1826
 -1       523    8    0    1
 -2       186       339       340      1823      1827      1825
 -1       524    8    0    1
 -2       188       187       341      1365      1828      1829
 -1       525    8    0    1
 -2       187       340       341      1826      1830      1828
 -1       526    8    0    1
 -2       189       188       342      1368      1831      1832
 -1       527    8    0    1
 -2       188       341       342      1829      1833      1831
 -1       528    8    0    1
 -2       190       189       343      1371      1834      1835
 -1       529    8    0    1
 -2       189       342       343      1832      1836      1834
 -1       530    8    0    1
 -2       191       190       344      1374      1837      1838
 -1       531    8    0    1
 -2       190       343       344      1835      1839      1837
 -1       532    8    0    1
 -2       192       191       345      1377      1840      1841
 -1       533    8    0    1
 -2       191       344       345      1838      1842      1840
 -1       534    8    0    1
 -2       193       192       346      1380      1843      1844
 -1       535    8    0    1
 -2       192       345       346      1841      1845      1843
 -1       536    8    0    1
 -2       194       193       347      1383      1846      1847
 -1       537    8    0    1
 -2       193       346       347      1844      1848      1846
 -1       538    8    0    1
 -2       195       194       348      1386      1849      1850
 -1       539    8    0    1
 -2       194       347       348      1847      1851      1849
 -1       540    8    0    1
 -2       196       195       349      1389      1852      1853
 -1       541    8    0    1
 -2       195       348       349      1850      1854      1852
 -1       542    8    0    1
 -2       197       196       350      1392      1855      1856
 -1       543    8    0    1
 -2       196       349       350      1853      1857      1855
 -1       544    8    0    1
 -2       198       197       351      1395      1858      1859
 -1       545    8    0    1
 -2       197       350       351      1856      1860      1858
 -1       546    8    0    1
 -2       199       198       352      1398      1861      1862
 -1       547    8    0    1
 -2       198       351       352      1859      1863      1861
 -1       548    8    0    1
 -2       200       199       353      1401      1864      1865
 -1       549    8    0    1
 -2       199       352       353      1862      1866      1864
 -1       550    8    0    1
 -2       201       200       354      1404      1867      1868
 -1       551    8    0    1
 -2       200       353       354      1865      1869      1867
 -1       552    8    0    1
 -2       202       201       355      1407      1870      1871
 -1       553    8    0    1
 -2       201       354       355      1868      1872      1870
 -1       554    8    0    1
 -2       203       202       356      1410      1873      1874
 -1       555    8    0    1
 -2       202       355       356      1871      1875      1873
 -1       556    8    0    1
 -2       204       203       357      1413      1876      1877
 -1       557    8    0    1
 -2       203       356       357      1874      1878      1876
 -1       558    8    0    1
 -2       205       204       358      1416      1879      1880
 -1       559    8    0    1
 -2       204       357       358      1877      1881      1879
 -1       560    8    0    1
 -2       206       205       359      1419      1882      1883
 -1       561    8    0    1
 -2       205       358       359      1880      1884      1882
 -1       562    8    0    1
 -2       207       206       360      1422      1885      1886
 -1       563    8    0    1
 -2       206       359       360      1883      1887      1885
 -1       564    8    0    1
 -2       208       207       361      1425      1888      1889
 -1       565    8    0    1
 -2       207       360       361      1886      1890      1888
 -1       566    8    0    1
 -2       209       208       362      1428      1891      1892
 -1       567    8    0    1
 -2       208       361       362      1889      1893      1891
 -1       568    8    0    1
 -2       210       209       363      1431      1894      1895
 -1       569    8    0    1
 -2       209       362       363      1892      1896      1894
 -1       570    8    0    1
 -2       211       210       364      1434      1897      1898
 -1       571    8    0    1
 -2       210       363       364      1895      1899      1897
 -1       572    8    0    1
 -2       212       211       365      1437      1900      1901
 -1       573    8    0    1
 -2       211       364       365      1898      1902      1900
 -1       574    8    0    1
 -2       213       212       366      1440      1903      1904
 -1       575    8    0    1
 -2       212       365       366      1901      1905      1903
 -1       576    8    0    1
 -2       214       213       367      1443      1906      1907
 -1       577    8    0    1
 -2       213       366       367      1904      1908      1906
 -1       578    8    0    1
 -2       215       214       368      1446      1909      1910
 -1       579    8    0    1
 -2       214       367       368      1907      1911      1909
 -1       580    8    0    1
 -2       216       215       369      1449      1912      1913
 -1       581    8    0    1
 -2       215       368       369      1910      1914      1912
 -1       582    8    0    1
 -2       217       216       370      1452      1915      1916
 -1       583    8    0    1
 -2       216       369       370      1913      1917      1915
 -1       584    8    0    1
 -2       218       217       371      1455      1918      1919
 -1       585    8    0    1
 -2       217       370       371      1916      1920      1918
 -1       586    8    0    1
 -2       219       218       372      1458      1921      1922
 -1       587    8    0    1
 -2       218       371       372      1919      1923      1921
 -1       588    8    0    1
 -2       220       219       373      1461      1924      1925
 -1       589    8    0    1
 -2       219       372       373      1922      1926      1924
 -1       590    8    0    1
 -2       221       220       374      1464      1927      1928
 -1       591    8    0    1
 -2       220       373       374      1925      1929      1927
 -1       592    8    0    1
 -2       222       221       375      1467      1930      1931
 -1       593    8    0    1
 -2       221       374       375      1928      1932      1930
 -1       594    8    0    1
 -2       223       222       376      1470      1933      1934
 -1       595    8    0    1
 -2       222       375       376      1931      1935      1933
 -1       596    8    0    1
 -2       224       223       377      1473      1936      1937
 -1       597    8    0    1
 -2       223       376       377      1934      1938      1936
 -1       598    8    0    1
 -2       225       224       378      1476      1939      1940
 -1       599    8    0    1
 -2       224       377       378      1937      1941      1939
 -1       600    8    0    1
 -2       226       225       379      1479      1942      1943
 -1       601    8    0    1
 -2       225       378       379      1940      1944      1942
 -1       602    8    0    1
 -2       227       226       380      1482      1945      1946
 -1       603    8    0    1
 -2       290       227       380      1674      1946      1947
 -1       604    8    0    1
 -2       226       379       380      1943      1948      1945
 -1       605    8    0    1
 -2       229       230       381      1493      1949      1950
 -1       606    8    0    1
 -2       229       381       334      1950      1951      1807
 -1       607    8    0    1
 -2       230       231       382      1496      1952      1953
 -1       608    8    0    1
 -2       230       382       381      1953      1954      1949
 -1       609    8    0    1
 -2       231       232       383      1499      1955      1956
 -1       610    8    0    1
 -2       231       383       382      1956      1957      1952
 -1       611    8    0    1
 -2       232       233       384      1502      1958      1959
 -1       612    8    0    1
 -2       232       384       383      1959      1960      1955
 -1       613    8    0    1
 -2       233       234       385      1505      1961      1962
 -1       614    8    0    1
 -2       233       385       384      1962      1963      1958
 -1       615    8    0    1
 -2       234       235       386      1508      1964      1965
 -1       616    8    0    1
 -2       234       386       385      1965      1966      1961
 -1       617    8    0    1
 -2       235       236       387      1511      1967      1968
 -1       618    8    0    1
 -2       235       387       386      1968      1969      1964
 -1       619    8    0    1
 -2       236       237       388      1514      1970      1971
 -1       620    8    0    1
 -2       236       388       387      1971      1972      1967
 -1       621    8    0    1
 -2       237       238       389      1517      1973      1974
 -1       622    8    0    1
 -2       237       389       388      1974      1975      1970
 -1       623    8    0    1
 -2       238       239       390      1520      1976      1977
 -1       624    8    0    1
 -2       238       390       389      1977      1978      1973
 -1       625    8    0    1
 -2       239       240       391      1523      1979      1980
 -1       626    8    0    1
 -2       239       391       390      1980      1981      1976
 -1       627    8    0    1
 -2       240       241       392      1526      1982      1983
 -1       628    8    0    1
 -2       240       392       391      1983      1984      1979
 -1       629    8    0    1
 -2       241       242       393      1529      1985      1986
 -1       630    8    0    1
 -2       241       393       392      1986      1987      1982
 -1       631    8    0    1
 -2       242       243       394      1532      1988      1989
 -1       632    8    0    1
 -2       242       394       393      1989      1990      1985
 -1       633    8    0    1
 -2       243       244       395      1535      1991      1992
 -1       634    8    0    1
 -2       243       395       394      1992      1993      1988
 -1       635    8    0    1
 -2       244       245       396      1538      1994      1995
 -1       636    8    0    1
 -2       244       396       395      1995      1996      1991
 -1       637    8    0    1
 -2       245       246       397      1541      1997      1998
 -1       638    8    0    1
 -2       245       397       396      1998      1999      1994
 -1       639    8    0    1
 -2       246       247       398      1544      2000      2001
 -1       640    8    0    1
 -2       246       398       397      2001      2002      1997
 -1       641    8    0    1
 -2       247       248       399      1547      2003      2004
 -1       642    8    0    1
 -2       247       399       398      2004      2005      2000
 -1       643    8    0    1
 -2       248       249       400      1550      2006      2007
 -1       644    8    0    1
 -2       248       400       399      2007      2008      2003
 -1       645    8    0    1
 -2       249       250       401      1553      2009      2010
 -1       646    8    0    1
 -2       249       401       400      2010      2011      2006
 -1       647    8    0    1
 -2       250       251       402      1556      2012      2013
 -1       648    8    0    1
 -2       250       402       401      2013      2014      2009
 -1       649    8    0    1
 -2       251       252       403      1559      2015      2016
 -1       650    8    0    1
 -2       251       403       402      2016      2017      2012
 -1       651    8    0    1
 -2       252       253       404      1562      2018      2019
 -1       652    8    0    1
 -2       252       404       403      2019      2020      2015
 -1       653    8    0    1
 -2       253       254       405      1565      2021      2022
 -1       654    8    0    1
 -2       253       405       404      2022      2023      2018
 -1       655    8    0    1
 -2       254       255       406      1568      2024      2025
 -1       656    8    0    1
 -2       254       406       405      2025      2026      2021
 -1       657    8    0    1
 -2       255       256       407      1571      2027      2028
 -1       658    8    0    1
 -2       255       407       406      2028      2029      2024
 -1       659    8    0    1
 -2       256       257       408      1574      2030      2031
 -1       660    8    0    1
 -2       256       408       407      2031      2032      2027
 -1       661    8    0    1
 -2       257       258       409      1577      2033      2034
 -1       662    8    0    1
 -2       257       409       408      2034      2035      2030
 -1       663    8    0    1
 -2       258       259       410      1580      2036      2037
 -1       664    8    0    1
 -2       258       410       409      2037      2038      2033
 -1       665    8    0    1
 -2       259       260       411      1583      2039      2040
 -1       666    8    0    1
 -2       259       411       410      2040      2041      2036
 -1       667    8    0    1
 -2       260       261       412      1586      2042      2043
 -1       668    8    0    1
 -2       260       412       411      2043      2044      2039
 -1       669    8    0    1
 -2       261       262       413      1589      2045      2046
 -1       670    8    0    1
 -2       261       413       412      2046      2047      2042
 -1       671    8    0    1
 -2       262       263       414      1592      2048      2049
 -1       672    8    0    1
 -2       262       414       413      2049      2050      2045
 -1       673    8    0    1
 -2       263       264       415      1595      2051      2052
 -1       674    8    0    1
 -2       263       415       414      2052      2053      2048
 -1       675    8    0    1
 -2       264       265       416      1598      2054      2055
 -1       676    8    0    1
 -2       264       416       415      2055      2056      2051
 -1       677    8    0    1
 -2       265       266       417      1601      2057      2058
 -1       678    8    0    1
 -2       265       417       416      2058      2059      2054
 -1       679    8    0    1
 -2       266       267       418      1604      2060      2061
 -1       680    8    0    1
 -2       266       418       417      2061      2062      2057
 -1       681    8    0    1
 -2       267       268       419      1607      2063      2064
 -1       682    8    0    1
 -2       267       419       418      2064      2065      2060
 -1       683    8    0    1
 -2       268       269       420      1610      2066      2067
 -1       684    8    0    1
 -2       268       420       419      2067      2068      2063
 -1       685    8    0    1
 -2       269       270       421      1613      2069      2070
 -1       686    8    0    1
 -2       269       421       420      2070      2071      2066
 -1       687    8    0    1
 -2       270       271       422      1616      2072      2073
 -1       688    8    0    1
 -2       270       422       421      2073      2074      2069
 -1       689    8    0    1
 -2       271       272       423      1619      2075      2076
 -1       690    8    0    1
 -2       271       423       422      2076      2077      2072
 -1       691    8    0    1
 -2       272       273       424      1622      2078      2079
 -1       692    8    0    1
 -2       272       424       423      2079      2080      2075
 -1       693    8    0    1
 -2       273       274       425      1625      2081      2082
 -1       694    8    0    1
 -2       273       425       424      2082      2083      2078
 -1       695    8    0    1
 -2       274       275       426      1628      2084      2085
 -1       696    8    0    1
 -2       425       274       426      2081      2085      2086
 -1       697    8    0    1
 -2       275       276       426      1736      2087      2084
 -1       698    8    0    1
 -2       278       279       427      1640      2088      2089
 -1       699    8    0    1
 -2       277       278       428      1637      2090      2091
 -1       700    8    0    1
 -2       278       427       428      2089      2092      2090
 -1       701    8    0    1
 -2       276       277       429      1634      2093      2094
 -1       702    8    0    1
 -2       426       276       429      2087      2094      2095
 -1       703    8    0    1
 -2       277       428       429      2091      2096      2093
 -1       704    8    0    1
 -2       279       280       430      1643      2097      2098
 -1       705    8    0    1
 -2       279       430       427      2098      2099      2088
 -1       706    8    0    1
 -2       280       281       431      1646      2100      2101
 -1       707    8    0    1
 -2       280       431       430      2101      2102      2097
 -1       708    8    0    1
 -2       281       282       432      1649      2103      2104
 -1       709    8    0    1
 -2       281       432       431      2104      2105      2100
 -1       710    8    0    1
 -2       282       283       433      1652      2106      2107
 -1       711    8    0    1
 -2       282       433       432      2107      2108      2103
 -1       712    8    0    1
 -2       283       284       434      1655      2109      2110
 -1       713    8    0    1
 -2       283       434       433      2110      2111      2106
 -1       714    8    0    1
 -2       284       285       435      1658      2112      2113
 -1       715    8    0    1
 -2       284       435       434      2113      2114      2109
 -1       716    8    0    1
 -2       285       286       436      1661      2115      2116
 -1       717    8    0    1
 -2       285       436       435      2116      2117      2112
 -1       718    8    0    1
 -2       286       287       437      1664      2118      2119
 -1       719    8    0    1
 -2       286       437       436      2119      2120      2115
 -1       720    8    0    1
 -2       287       288       438      1667      2121      2122
 -1       721    8    0    1
 -2       287       438       437      2122      2123      2118
 -1       722    8    0    1
 -2       288       289       439      1670      2124      2125
 -1       723    8    0    1
 -2       288       439       438      2125      2126      2121
 -1       724    8    0    1
 -2       292       293       440      1738      2127      2128
 -1       725    8    0    1
 -2       319       291       441      1739      2129      2130
 -1       726    8    0    1
 -2       291       292       442      1737      2131      2132
 -1       727    8    0    1
 -2       291       442       441      2132      2133      2129
 -1       728    8    0    1
 -2       293       294       443      1734      2134      2135
 -1       729    8    0    1
 -2       294       295       444      1733      2136      2137
 -1       730    8    0    1
 -2       166       167       445      1302      2138      2139
 -1       731    8    0    1
 -2       320       166       445      1765      2139      2140
 -1       732    8    0    1
 -2       167       322       445      1771      2141      2138
 -1       733    8    0    1
 -2       296       297       446      1741      2142      2143
 -1       734    8    0    1
 -2       297       298       447      1742      2144      2145
 -1       735    8    0    1
 -2       298       299       448      1743      2146      2147
 -1       736    8    0    1
 -2       299       300       449      1744      2148      2149
 -1       737    8    0    1
 -2       300       301       450      1745      2150      2151
 -1       738    8    0    1
 -2       301       302       451      1746      2152      2153
 -1       739    8    0    1
 -2       302       303       452      1747      2154      2155
 -1       740    8    0    1
 -2       303       304       453      1748      2156      2157
 -1       741    8    0    1
 -2       304       305       454      1749      2158      2159
 -1       742    8    0    1
 -2       305       306       455      1750      2160      2161
 -1       743    8    0    1
 -2       305       455       454      2161      2162      2158
 -1       744    8    0    1
 -2       306       307       456      1751      2163      2164
 -1       745    8    0    1
 -2       307       308       457      1752      2165      2166
 -1       746    8    0    1
 -2       307       457       456      2166      2167      2163
 -1       747    8    0    1
 -2       308       309       458      1753      2168      2169
 -1       748    8    0    1
 -2       309       310       459      1754      2170      2171
 -1       749    8    0    1
 -2       310       311       460      1755      2172      2173
 -1       750    8    0    1
 -2       311       312       461      1756      2174      2175
 -1       751    8    0    1
 -2       312       313       462      1757      2176      2177
 -1       752    8    0    1
 -2       313       314       463      1758      2178      2179
 -1       753    8    0    1
 -2       314       315       464      1759      2180      2181
 -1       754    8    0    1
 -2       315       316       465      1760      2182      2183
 -1       755    8    0    1
 -2       315       465       464      2183      2184      2180
 -1       756    8    0    1
 -2       316       317       466      1761      2185      2186
 -1       757    8    0    1
 -2       317       318       467      1762      2187      2188
 -1       758    8    0    1
 -2       318       319       468      1763      2189      2190
 -1       759    8    0    1
 -2       295       296       469      1740      2191      2192
 -1       760    8    0    1
 -2       444       295       469      2136      2192      2193
 -1       761    8    0    1
 -2       180       321       181      1810      2194      1344
 -1       762    8    0    1
 -2       296       446       469      2143      2195      2191
 -1       763    8    0    1
 -2       335       181       321      1811      2194      2196
 -1       764    8    0    1
 -2       442       292       440      2131      2128      2197
 -1       765    8    0    1
 -2       293       443       440      2135      2198      2127
 -1       766    8    0    1
 -2       439       289       290      2124      1673      2199
 -1       767    8    0    1
 -2       319       441       468      2130      2200      2189
 -1       768    8    0    1
 -2       443       294       444      2134      2137      2201
 -1       769    8    0    1
 -2       467       318       468      2187      2190      2202
 -1       770    8    0    1
 -2       465       316       466      2182      2186      2203
 -1       771    8    0    1
 -2       463       314       464      2178      2181      2204
 -1       772    8    0    1
 -2       462       313       463      2176      2179      2205
 -1       773    8    0    1
 -2       461       312       462      2174      2177      2206
 -1       774    8    0    1
 -2       460       311       461      2172      2175      2207
 -1       775    8    0    1
 -2       459       310       460      2170      2173      2208
 -1       776    8    0    1
 -2       457       308       458      2165      2169      2209
 -1       777    8    0    1
 -2       455       306       470      2160      2210      2211
 -1       778    8    0    1
 -2       306       456       470      2164      2212      2210
 -1       779    8    0    1
 -2       453       304       454      2156      2159      2213
 -1       780    8    0    1
 -2       452       303       453      2154      2157      2214
 -1       781    8    0    1
 -2       451       302       452      2152      2155      2215
 -1       782    8    0    1
 -2       450       301       471      2150      2216      2217
 -1       783    8    0    1
 -2       301       451       471      2153      2218      2216
 -1       784    8    0    1
 -2       449       300       450      2148      2151      2219
 -1       785    8    0    1
 -2       448       299       449      2146      2149      2220
 -1       786    8    0    1
 -2       446       297       447      2142      2145      2221
 -1       787    8    0    1
 -2       447       298       448      2144      2147      2222
 -1       788    8    0    1
 -2       458       309       459      2168      2171      2223
 -1       789    8    0    1
 -2       466       317       467      2185      2188      2224
 -1       790    8    0    1
 -2       334       381       472      1951      2225      2226
 -1       791    8    0    1
 -2       323       324       473      1777      2227      2228
 -1       792    8    0    1
 -2       322       323       474      1774      2229      2230
 -1       793    8    0    1
 -2       323       473       474      2228      2231      2229
 -1       794    8    0    1
 -2       325       326       475      1783      2232      2233
 -1       795    8    0    1
 -2       326       327       476      1786      2234      2235
 -1       796    8    0    1
 -2       326       476       475      2235      2236      2232
 -1       797    8    0    1
 -2       327       328       477      1789      2237      2238
 -1       798    8    0    1
 -2       327       477       476      2238      2239      2234
 -1       799    8    0    1
 -2       328       329       478      1792      2240      2241
 -1       800    8    0    1
 -2       328       478       477      2241      2242      2237
 -1       801    8    0    1
 -2       329       330       479      1795      2243      2244
 -1       802    8    0    1
 -2       329       479       478      2244      2245      2240
 -1       803    8    0    1
 -2       330       331       480      1798      2246      2247
 -1       804    8    0    1
 -2       330       480       479      2247      2248      2243
 -1       805    8    0    1
 -2       381       382       481      1954      2249      2250
 -1       806    8    0    1
 -2       381       481       472      2250      2251      2225
 -1       807    8    0    1
 -2       336       335       482      1815      2252      2253
 -1       808    8    0    1
 -2       469       446       483      2195      2254      2255
 -1       809    8    0    1
 -2       337       336       484      1818      2256      2257
 -1       810    8    0    1
 -2       336       482       484      2253      2258      2256
 -1       811    8    0    1
 -2       338       337       485      1821      2259      2260
 -1       812    8    0    1
 -2       337       484       485      2257      2261      2259
 -1       813    8    0    1
 -2       339       338       486      1824      2262      2263
 -1       814    8    0    1
 -2       338       485       486      2260      2264      2262
 -1       815    8    0    1
 -2       340       339       487      1827      2265      2266
 -1       816    8    0    1
 -2       339       486       487      2263      2267      2265
 -1       817    8    0    1
 -2       341       340       488      1830      2268      2269
 -1       818    8    0    1
 -2       340       487       488      2266      2270      2268
 -1       819    8    0    1
 -2       342       341       489      1833      2271      2272
 -1       820    8    0    1
 -2       341       488       489      2269      2273      2271
 -1       821    8    0    1
 -2       343       342       490      1836      2274      2275
 -1       822    8    0    1
 -2       342       489       490      2272      2276      2274
 -1       823    8    0    1
 -2       344       343       491      1839      2277      2278
 -1       824    8    0    1
 -2       343       490       491      2275      2279      2277
 -1       825    8    0    1
 -2       345       344       492      1842      2280      2281
 -1       826    8    0    1
 -2       344       491       492      2278      2282      2280
 -1       827    8    0    1
 -2       346       345       493      1845      2283      2284
 -1       828    8    0    1
 -2       345       492       493      2281      2285      2283
 -1       829    8    0    1
 -2       347       346       494      1848      2286      2287
 -1       830    8    0    1
 -2       346       493       494      2284      2288      2286
 -1       831    8    0    1
 -2       348       347       495      1851      2289      2290
 -1       832    8    0    1
 -2       347       494       495      2287      2291      2289
 -1       833    8    0    1
 -2       349       348       496      1854      2292      2293
 -1       834    8    0    1
 -2       348       495       496      2290      2294      2292
 -1       835    8    0    1
 -2       350       349       497      1857      2295      2296
 -1       836    8    0    1
 -2       349       496       497      2293      2297      2295
 -1       837    8    0    1
 -2       351       350       498      1860      2298      2299
 -1       838    8    0    1
 -2       350       497       498      2296      2300      2298
 -1       839    8    0    1
 -2       352       351       499      1863      2301      2302
 -1       840    8    0    1
 -2       351       498       499      2299      2303      2301
 -1       841    8    0    1
 -2       353       352       500      1866      2304      2305
 -1       842    8    0    1
 -2       352       499       500      2302      2306      2304
 -1       843    8    0    1
 -2       354       353       501      1869      2307      2308
 -1       844    8    0    1
 -2       353       500       501      2305      2309      2307
 -1       845    8    0    1
 -2       355       354       502      1872      2310      2311
 -1       846    8    0    1
 -2       354       501       502      2308      2312      2310
 -1       847    8    0    1
 -2       356       355       503      1875      2313      2314
 -1       848    8    0    1
 -2       355       502       503      2311      2315      2313
 -1       849    8    0    1
 -2       357       356       504      1878      2316      2317
 -1       850    8    0    1
 -2       356       503       504      2314      2318      2316
 -1       851    8    0    1
 -2       358       357       505      1881      2319      2320
 -1       852    8    0    1
 -2       357       504       505      2317      2321      2319
 -1       853    8    0    1
 -2       359       358       506      1884      2322      2323
 -1       854    8    0    1
 -2       358       505       506      2320      2324      2322
 -1       855    8    0    1
 -2       360       359       507      1887      2325      2326
 -1       856    8    0    1
 -2       359       506       507      2323      2327      2325
 -1       857    8    0    1
 -2       361       360       508      1890      2328      2329
 -1       858    8    0    1
 -2       360       507       508      2326      2330      2328
 -1       859    8    0    1
 -2       362       361       509      1893      2331      2332
 -1       860    8    0    1
 -2       361       508       509      2329      2333      2331
 -1       861    8    0    1
 -2       363       362       510      1896      2334      2335
 -1       862    8    0    1
 -2       362       509       510      2332      2336      2334
 -1       863    8    0    1
 -2       364       363       511      1899      2337      2338
 -1       864    8    0    1
 -2       363       510       511      2335      2339      2337
 -1       865    8    0    1
 -2       365       364       512      1902      2340      2341
 -1       866    8    0    1
 -2       364       511       512      2338      2342      2340
 -1       867    8    0    1
 -2       366       365       513      1905      2343      2344
 -1       868    8    0    1
 -2       365       512       513      2341      2345      2343
 -1       869    8    0    1
 -2       367       366       514      1908      2346      2347
 -1       870    8    0    1
 -2       366       513       514      2344      2348      2346
 -1       871    8    0    1
 -2       368       367       515      1911      2349      2350
 -1       872    8    0    1
 -2       367       514       515      2347      2351      2349
 -1       873    8    0    1
 -2       369       368       516      1914      2352      2353
 -1       874    8    0    1
 -2       368       515       516      2350      2354      2352
 -1       875    8    0    1
 -2       370       369       517      1917      2355      2356
 -1       876    8    0    1
 -2       369       516       517      2353      2357      2355
 -1       877    8    0    1
 -2       371       370       518      1920      2358      2359
 -1       878    8    0    1
 -2       370       517       518      2356      2360      2358
 -1       879    8    0    1
 -2       372       371       519      1923      2361      2362
 -1       880    8    0    1
 -2       371       518       519      2359      2363      2361
 -1       881    8    0    1
 -2       373       372       520      1926      2364      2365
 -1       882    8    0    1
 -2       372       519       520      2362      2366      2364
 -1       883    8    0    1
 -2       374       373       521      1929      2367      2368
 -1       884    8    0    1
 -2       373       520       521      2365      2369      2367
 -1       885    8    0    1
 -2       375       374       522      1932      2370      2371
 -1       886    8    0    1
 -2       374       521       522      2368      2372      2370
 -1       887    8    0    1
 -2       376       375       523      1935      2373      2374
 -1       888    8    0    1
 -2       375       522       523      2371      2375      2373
 -1       889    8    0    1
 -2       377       376       524      1938      2376      2377
 -1       890    8    0    1
 -2       376       523       524      2374      2378      2376
 -1       891    8    0    1
 -2       378       377       525      1941      2379      2380
 -1       892    8    0    1
 -2       377       524       525      2377      2381      2379
 -1       893    8    0    1
 -2       379       378       526      1944      2382      2383
 -1       894    8    0    1
 -2       378       525       526      2380      2384      2382
 -1       895    8    0    1
 -2       383       384       527      1960      2385      2386
 -1       896    8    0    1
 -2       384       385       528      1963      2387      2388
 -1       897    8    0    1
 -2       384       528       527      2388      2389      2385
 -1       898    8    0    1
 -2       385       386       529      1966      2390      2391
 -1       899    8    0    1
 -2       385       529       528      2391      2392      2387
 -1       900    8    0    1
 -2       386       387       530      1969      2393      2394
 -1       901    8    0    1
 -2       386       530       529      2394      2395      2390
 -1       902    8    0    1
 -2       387       388       531      1972      2396      2397
 -1       903    8    0    1
 -2       387       531       530      2397      2398      2393
 -1       904    8    0    1
 -2       388       389       532      1975      2399      2400
 -1       905    8    0    1
 -2       388       532       531      2400      2401      2396
 -1       906    8    0    1
 -2       389       390       533      1978      2402      2403
 -1       907    8    0    1
 -2       389       533       532      2403      2404      2399
 -1       908    8    0    1
 -2       390       391       534      1981      2405      2406
 -1       909    8    0    1
 -2       390       534       533      2406      2407      2402
 -1       910    8    0    1
 -2       391       392       535      1984      2408      2409
 -1       911    8    0    1
 -2       391       535       534      2409      2410      2405
 -1       912    8    0    1
 -2       392       393       536      1987      2411      2412
 -1       913    8    0    1
 -2       392       536       535      2412      2413      2408
 -1       914    8    0    1
 -2       393       394       537      1990      2414      2415
 -1       915    8    0    1
 -2       393       537       536      2415      2416      2411
 -1       916    8    0    1
 -2       394       395       538      1993      2417      2418
 -1       917    8    0    1
 -2       394       538       537      2418      2419      2414
 -1       918    8    0    1
 -2       395       396       539      1996      2420      2421
 -1       919    8    0    1
 -2       395       539       538      2421      2422      2417
 -1       920    8    0    1
 -2       396       397       540      1999      2423      2424
 -1       921    8    0    1
 -2       396       540       539      2424      2425      2420
 -1       922    8    0    1
 -2       397       398       541      2002      2426      2427
 -1       923    8    0    1
 -2       397       541       540      2427      2428      2423
 -1       924    8    0    1
 -2       398       399       542      2005      2429      2430
 -1       925    8    0    1
 -2       398       542       541      2430      2431      2426
 -1       926    8    0    1
 -2       400       401       543      2011      2432      2433
 -1       927    8    0    1
 -2       401       402       544      2014      2434      2435
 -1       928    8    0    1
 -2       402       403       545      2017      2436      2437
 -1       929    8    0    1
 -2       403       404       546      2020      2438      2439
 -1       930    8    0    1
 -2       403       546       545      2439      2440      2436
 -1       931    8    0    1
 -2       404       405       547      2023      2441      2442
 -1       932    8    0    1
 -2       404       547       546      2442      2443      2438
 -1       933    8    0    1
 -2       405       406       548      2026      2444      2445
 -1       934    8    0    1
 -2       405       548       547      2445      2446      2441
 -1       935    8    0    1
 -2       406       407       549      2029      2447      2448
 -1       936    8    0    1
 -2       406       549       548      2448      2449      2444
 -1       937    8    0    1
 -2       407       408       550      2032      2450      2451
 -1       938    8    0    1
 -2       407       550       549      2451      2452      2447
 -1       939    8    0    1
 -2       408       409       551      2035      2453      2454
 -1       940    8    0    1
 -2       408       551       550      2454      2455      2450
 -1       941    8    0    1
 -2       409       410       552      2038      2456      2457
 -1       942    8    0    1
 -2       409       552       551      2457      2458      2453
 -1       943    8    0    1
 -2       410       411       553      2041      2459      2460
 -1       944    8    0    1
 -2       410       553       552      2460      2461      2456
 -1       945    8    0    1
 -2       411       412       554      2044      2462      2463
 -1       946    8    0    1
 -2       411       554       553      2463      2464      2459
 -1       947    8    0    1
 -2       412       413       555      2047      2465      2466
 -1       948    8    0    1
 -2       412       555       554      2466      2467      2462
 -1       949    8    0    1
 -2       413       414       556      2050      2468      2469
 -1       950    8    0    1
 -2       413       556       555      2469      2470      2465
 -1       951    8    0    1
 -2       414       415       557      2053      2471      2472
 -1       952    8    0    1
 -2       414       557       556      2472      2473      2468
 -1       953    8    0    1
 -2       415       416       558      2056      2474      2475
 -1       954    8    0    1
 -2       415       558       557      2475      2476      2471
 -1       955    8    0    1
 -2       416       417       559      2059      2477      2478
 -1       956    8    0    1
 -2       416       559       558      2478      2479      2474
 -1       957    8    0    1
 -2       417       418       560      2062      2480      2481
 -1       958    8    0    1
 -2       417       560       559      2481      2482      2477
 -1       959    8    0    1
 -2       418       419       561      2065      2483      2484
 -1       960    8    0    1
 -2       418       561       560      2484      2485      2480
 -1       961    8    0    1
 -2       419       420       562      2068      2486      2487
 -1       962    8    0    1
 -2       419       562       561      2487      2488      2483
 -1       963    8    0    1
 -2       420       421       563      2071      2489      2490
 -1       964    8    0    1
 -2       420       563       562      2490      2491      2486
 -1       965    8    0    1
 -2       421       422       564      2074      2492      2493
 -1       966    8    0    1
 -2       421       564       563      2493      2494      2489
 -1       967    8    0    1
 -2       422       423       565      2077      2495      2496
 -1       968    8    0    1
 -2       422       565       564      2496      2497      2492
 -1       969    8    0    1
 -2       423       424       566      2080      2498      2499
 -1       970    8    0    1
 -2       423       566       565      2499      2500      2495
 -1       971    8    0    1
 -2       424       425       567      2083      2501      2502
 -1       972    8    0    1
 -2       424       567       566      2502      2503      2498
 -1       973    8    0    1
 -2       425       426       429      2086      2095      2504
 -1       974    8    0    1
 -2       430       431       568      2102      2505      2506
 -1       975    8    0    1
 -2       431       432       569      2105      2507      2508
 -1       976    8    0    1
 -2       431       569       568      2508      2509      2505
 -1       977    8    0    1
 -2       428       427       570      2092      2510      2511
 -1       978    8    0    1
 -2       427       430       571      2099      2512      2513
 -1       979    8    0    1
 -2       570       427       571      2510      2513      2514
 -1       980    8    0    1
 -2       430       568       571      2506      2515      2512
 -1       981    8    0    1
 -2       432       433       572      2108      2516      2517
 -1       982    8    0    1
 -2       432       572       569      2517      2518      2507
 -1       983    8    0    1
 -2       433       434       573      2111      2519      2520
 -1       984    8    0    1
 -2       433       573       572      2520      2521      2516
 -1       985    8    0    1
 -2       434       435       574      2114      2522      2523
 -1       986    8    0    1
 -2       434       574       573      2523      2524      2519
 -1       987    8    0    1
 -2       435       436       575      2117      2525      2526
 -1       988    8    0    1
 -2       435       575       574      2526      2527      2522
 -1       989    8    0    1
 -2       436       437       576      2120      2528      2529
 -1       990    8    0    1
 -2       436       576       575      2529      2530      2525
 -1       991    8    0    1
 -2       437       438       577      2123      2531      2532
 -1       992    8    0    1
 -2       437       577       576      2532      2533      2528
 -1       993    8    0    1
 -2       438       439       578      2126      2534      2535
 -1       994    8    0    1
 -2       438       578       577      2535      2536      2531
 -1       995    8    0    1
 -2       440       443       579      2198      2537      2538
 -1       996    8    0    1
 -2       439       290       380      2199      1947      2539
 -1       997    8    0    1
 -2       468       441       580      2200      2540      2541
 -1       998    8    0    1
 -2       382       383       581      1957      2542      2543
 -1       999    8    0    1
 -2       383       527       581      2386      2544      2542
 -1      1000    8    0    1
 -2       441       442       582      2133      2545      2546
 -1      1001    8    0    1
 -2       467       468       583      2202      2547      2548
 -1      1002    8    0    1
 -2       335       321       584      2196      2549      2550
 -1      1003    8    0    1
 -2       482       335       584      2252      2550      2551
 -1      1004    8    0    1
 -2       321       320       584      1769      2552      2549
 -1      1005    8    0    1
 -2       443       444       585      2201      2553      2554
 -1      1006    8    0    1
 -2       463       464       586      2204      2555      2556
 -1      1007    8    0    1
 -2       453       454       587      2213      2557      2558
 -1      1008    8    0    1
 -2       324       325       588      1780      2559      2560
 -1      1009    8    0    1
 -2       473       324       588      2227      2560      2561
 -1      1010    8    0    1
 -2       325       475       588      2233      2562      2559
 -1      1011    8    0    1
 -2       447       448       543      2222      2563      2564
 -1      1012    8    0    1
 -2       458       459       589      2223      2565      2566
 -1      1013    8    0    1
 -2       446       447       590      2221      2567      2568
 -1      1014    8    0    1
 -2       448       449       591      2220      2569      2570
 -1      1015    8    0    1
 -2       449       450       592      2219      2571      2572
 -1      1016    8    0    1
 -2       451       452       593      2215      2573      2574
 -1      1017    8    0    1
 -2       452       453       594      2214      2575      2576
 -1      1018    8    0    1
 -2       452       594       593      2576      2577      2573
 -1      1019    8    0    1
 -2       454       455       595      2162      2578      2579
 -1      1020    8    0    1
 -2       456       457       596      2167      2580      2581
 -1      1021    8    0    1
 -2       466       467       597      2224      2582      2583
 -1      1022    8    0    1
 -2       457       458       598      2209      2584      2585
 -1      1023    8    0    1
 -2       457       598       596      2585      2586      2580
 -1      1024    8    0    1
 -2       459       460       599      2208      2587      2588
 -1      1025    8    0    1
 -2       460       461       600      2207      2589      2590
 -1      1026    8    0    1
 -2       460       600       599      2590      2591      2587
 -1      1027    8    0    1
 -2       461       462       601      2206      2592      2593
 -1      1028    8    0    1
 -2       462       463       602      2205      2594      2595
 -1      1029    8    0    1
 -2       462       602       601      2595      2596      2592
 -1      1030    8    0    1
 -2       464       465       603      2184      2597      2598
 -1      1031    8    0    1
 -2       465       466       604      2203      2599      2600
 -1      1032    8    0    1
 -2       442       440       605      2197      2601      2602
 -1      1033    8    0    1
 -2       333       334       606      1809      2603      2604
 -1      1034    8    0    1
 -2       332       333       606      1804      2604      2605
 -1      1035    8    0    1
 -2       334       472       606      2226      2606      2603
 -1      1036    8    0    1
 -2       444       469       607      2193      2607      2608
 -1      1037    8    0    1
 -2       447       543       590      2564      2609      2567
 -1      1038    8    0    1
 -2       322       474       608      2230      2610      2611
 -1      1039    8    0    1
 -2       322       608       445      2611      2612      2141
 -1      1040    8    0    1
 -2       481       382       581      2249      2543      2613
 -1      1041    8    0    1
 -2       331       332       606      1801      2605      2614
 -1      1042    8    0    1
 -2       607       469       483      2607      2255      2615
 -1      1043    8    0    1
 -2       604       466       597      2599      2583      2616
 -1      1044    8    0    1
 -2       602       463       586      2594      2556      2617
 -1      1045    8    0    1
 -2       585       444       609      2553      2618      2619
 -1      1046    8    0    1
 -2       444       607       609      2608      2620      2618
 -1      1047    8    0    1
 -2       600       461       610      2589      2621      2622
 -1      1048    8    0    1
 -2       461       601       610      2593      2623      2621
 -1      1049    8    0    1
 -2       598       458       589      2584      2566      2624
 -1      1050    8    0    1
 -2       468       580       583      2541      2625      2547
 -1      1051    8    0    1
 -2       597       467       583      2582      2548      2626
 -1      1052    8    0    1
 -2       399       400       611      2008      2627      2628
 -1      1053    8    0    1
 -2       402       545       544      2437      2629      2434
 -1      1054    8    0    1
 -2       425       429       567      2504      2630      2501
 -1      1055    8    0    1
 -2       429       428       567      2096      2631      2630
 -1      1056    8    0    1
 -2       459       599       589      2588      2632      2565
 -1      1057    8    0    1
 -2       440       579       605      2538      2633      2601
 -1      1058    8    0    1
 -2       579       443       585      2537      2554      2634
 -1      1059    8    0    1
 -2       439       380       612      2539      2635      2636
 -1      1060    8    0    1
 -2       578       439       612      2534      2636      2637
 -1      1061    8    0    1
 -2       380       379       612      1948      2638      2635
 -1      1062    8    0    1
 -2       594       453       587      2575      2558      2639
 -1      1063    8    0    1
 -2       580       441       582      2540      2546      2640
 -1      1064    8    0    1
 -2       331       606       480      2614      2641      2246
 -1      1065    8    0    1
 -2       582       442       605      2545      2602      2642
 -1      1066    8    0    1
 -2       454       595       587      2579      2643      2557
 -1      1067    8    0    1
 -2       399       611       542      2628      2644      2429
 -1      1068    8    0    1
 -2       592       450       471      2571      2217      2645
 -1      1069    8    0    1
 -2       586       464       603      2555      2598      2646
 -1      1070    8    0    1
 -2       591       449       592      2569      2572      2647
 -1      1071    8    0    1
 -2       584       320       445      2552      2140      2648
 -1      1072    8    0    1
 -2       470       456       613      2212      2649      2650
 -1      1073    8    0    1
 -2       456       596       613      2581      2651      2649
 -1      1074    8    0    1
 -2       471       451       614      2218      2652      2653
 -1      1075    8    0    1
 -2       451       593       614      2574      2654      2652
 -1      1076    8    0    1
 -2       483       446       590      2254      2568      2655
 -1      1077    8    0    1
 -2       448       591       543      2570      2656      2563
 -1      1078    8    0    1
 -2       595       455       615      2578      2657      2658
 -1      1079    8    0    1
 -2       455       470       615      2211      2659      2657
 -1      1080    8    0    1
 -2       603       465       604      2597      2600      2660
 -1      1081    8    0    1
 -2       567       428       570      2631      2511      2661
 -1      1082    8    0    1
 -2       612       379       526      2638      2383      2662
 -1      1083    8    0    1
 -2       476       477       616      2239      2663      2664
 -1      1084    8    0    1
 -2       475       476       617      2236      2665      2666
 -1      1085    8    0    1
 -2       476       616       617      2664      2667      2665
 -1      1086    8    0    1
 -2       478       479       618      2245      2668      2669
 -1      1087    8    0    1
 -2       479       480       619      2248      2670      2671
 -1      1088    8    0    1
 -2       479       619       618      2671      2672      2668
 -1      1089    8    0    1
 -2       472       481       620      2251      2673      2674
 -1      1090    8    0    1
 -2       582       605       621      2642      2675      2676
 -1      1091    8    0    1
 -2       481       581       622      2613      2677      2678
 -1      1092    8    0    1
 -2       481       622       620      2678      2679      2673
 -1      1093    8    0    1
 -2       604       597       623      2616      2680      2681
 -1      1094    8    0    1
 -2       485       484       624      2261      2682      2683
 -1      1095    8    0    1
 -2       486       485       625      2264      2684      2685
 -1      1096    8    0    1
 -2       485       624       625      2683      2686      2684
 -1      1097    8    0    1
 -2       487       486       626      2267      2687      2688
 -1      1098    8    0    1
 -2       486       625       626      2685      2689      2687
 -1      1099    8    0    1
 -2       488       487       627      2270      2690      2691
 -1      1100    8    0    1
 -2       487       626       627      2688      2692      2690
 -1      1101    8    0    1
 -2       489       488       628      2273      2693      2694
 -1      1102    8    0    1
 -2       488       627       628      2691      2695      2693
 -1      1103    8    0    1
 -2       490       489       629      2276      2696      2697
 -1      1104    8    0    1
 -2       489       628       629      2694      2698      2696
 -1      1105    8    0    1
 -2       491       490       630      2279      2699      2700
 -1      1106    8    0    1
 -2       490       629       630      2697      2701      2699
 -1      1107    8    0    1
 -2       492       491       631      2282      2702      2703
 -1      1108    8    0    1
 -2       491       630       631      2700      2704      2702
 -1      1109    8    0    1
 -2       493       492       632      2285      2705      2706
 -1      1110    8    0    1
 -2       492       631       632      2703      2707      2705
 -1      1111    8    0    1
 -2       494       493       633      2288      2708      2709
 -1      1112    8    0    1
 -2       493       632       633      2706      2710      2708
 -1      1113    8    0    1
 -2       495       494       634      2291      2711      2712
 -1      1114    8    0    1
 -2       494       633       634      2709      2713      2711
 -1      1115    8    0    1
 -2       496       495       635      2294      2714      2715
 -1      1116    8    0    1
 -2       495       634       635      2712      2716      2714
 -1      1117    8    0    1
 -2       497       496       636      2297      2717      2718
 -1      1118    8    0    1
 -2       496       635       636      2715      2719      2717
 -1      1119    8    0    1
 -2       498       497       637      2300      2720      2721
 -1      1120    8    0    1
 -2       497       636       637      2718      2722      2720
 -1      1121    8    0    1
 -2       499       498       638      2303      2723      2724
 -1      1122    8    0    1
 -2       498       637       638      2721      2725      2723
 -1      1123    8    0    1
 -2       500       499       639      2306      2726      2727
 -1      1124    8    0    1
 -2       499       638       639      2724      2728      2726
 -1      1125    8    0    1
 -2       501       500       640      2309      2729      2730
 -1      1126    8    0    1
 -2       500       639       640      2727      2731      2729
 -1      1127    8    0    1
 -2       502       501       641      2312      2732      2733
 -1      1128    8    0    1
 -2       501       640       641      2730      2734      2732
 -1      1129    8    0    1
 -2       503       502       642      2315      2735      2736
 -1      1130    8    0    1
 -2       502       641       642      2733      2737      2735
 -1      1131    8    0    1
 -2       504       503       643      2318      2738      2739
 -1      1132    8    0    1
 -2       503       642       643      2736      2740      2738
 -1      1133    8    0    1
 -2       505       504       644      2321      2741      2742
 -1      1134    8    0    1
 -2       504       643       644      2739      2743      2741
 -1      1135    8    0    1
 -2       506       505       645      2324      2744      2745
 -1      1136    8    0    1
 -2       505       644       645      2742      2746      2744
 -1      1137    8    0    1
 -2       507       506       646      2327      2747      2748
 -1      1138    8    0    1
 -2       506       645       646      2745      2749      2747
 -1      1139    8    0    1
 -2       508       507       647      2330      2750      2751
 -1      1140    8    0    1
 -2       507       646       647      2748      2752      2750
 -1      1141    8    0    1
 -2       509       508       648      2333      2753      2754
 -1      1142    8    0    1
 -2       508       647       648      2751      2755      2753
 -1      1143    8    0    1
 -2       510       509       649      2336      2756      2757
 -1      1144    8    0    1
 -2       509       648       649      2754      2758      2756
 -1      1145    8    0    1
 -2       511       510       650      2339      2759      2760
 -1      1146    8    0    1
 -2       510       649       650      2757      2761      2759
 -1      1147    8    0    1
 -2       512       511       651      2342      2762      2763
 -1      1148    8    0    1
 -2       511       650       651      2760      2764      2762
 -1      1149    8    0    1
 -2       513       512       652      2345      2765      2766
 -1      1150    8    0    1
 -2       512       651       652      2763      2767      2765
 -1      1151    8    0    1
 -2       514       513       653      2348      2768      2769
 -1      1152    8    0    1
 -2       513       652       653      2766      2770      2768
 -1      1153    8    0    1
 -2       515       514       654      2351      2771      2772
 -1      1154    8    0    1
 -2       514       653       654      2769      2773      2771
 -1      1155    8    0    1
 -2       516       515       655      2354      2774      2775
 -1      1156    8    0    1
 -2       515       654       655      2772      2776      2774
 -1      1157    8    0    1
 -2       517       516       656      2357      2777      2778
 -1      1158    8    0    1
 -2       516       655       656      2775      2779      2777
 -1      1159    8    0    1
 -2       518       517       657      2360      2780      2781
 -1      1160    8    0    1
 -2       517       656       657      2778      2782      2780
 -1      1161    8    0    1
 -2       519       518       658      2363      2783      2784
 -1      1162    8    0    1
 -2       518       657       658      2781      2785      2783
 -1      1163    8    0    1
 -2       520       519       659      2366      2786      2787
 -1      1164    8    0    1
 -2       519       658       659      2784      2788      2786
 -1      1165    8    0    1
 -2       521       520       660      2369      2789      2790
 -1      1166    8    0    1
 -2       520       659       660      2787      2791      2789
 -1      1167    8    0    1
 -2       522       521       661      2372      2792      2793
 -1      1168    8    0    1
 -2       521       660       661      2790      2794      2792
 -1      1169    8    0    1
 -2       523       522       662      2375      2795      2796
 -1      1170    8    0    1
 -2       522       661       662      2793      2797      2795
 -1      1171    8    0    1
 -2       524       523       663      2378      2798      2799
 -1      1172    8    0    1
 -2       523       662       663      2796      2800      2798
 -1      1173    8    0    1
 -2       525       524       664      2381      2801      2802
 -1      1174    8    0    1
 -2       524       663       664      2799      2803      2801
 -1      1175    8    0    1
 -2       526       525       665      2384      2804      2805
 -1      1176    8    0    1
 -2       525       664       665      2802      2806      2804
 -1      1177    8    0    1
 -2       528       529       666      2392      2807      2808
 -1      1178    8    0    1
 -2       594       587       667      2639      2809      2810
 -1      1179    8    0    1
 -2       527       528       668      2389      2811      2812
 -1      1180    8    0    1
 -2       528       666       668      2808      2813      2811
 -1      1181    8    0    1
 -2       530       531       669      2398      2814      2815
 -1      1182    8    0    1
 -2       531       532       670      2401      2816      2817
 -1      1183    8    0    1
 -2       531       670       669      2817      2818      2814
 -1      1184    8    0    1
 -2       532       533       671      2404      2819      2820
 -1      1185    8    0    1
 -2       532       671       670      2820      2821      2816
 -1      1186    8    0    1
 -2       533       534       672      2407      2822      2823
 -1      1187    8    0    1
 -2       533       672       671      2823      2824      2819
 -1      1188    8    0    1
 -2       534       535       673      2410      2825      2826
 -1      1189    8    0    1
 -2       534       673       672      2826      2827      2822
 -1      1190    8    0    1
 -2       535       536       674      2413      2828      2829
 -1      1191    8    0    1
 -2       535       674       673      2829      2830      2825
 -1      1192    8    0    1
 -2       536       537       675      2416      2831      2832
 -1      1193    8    0    1
 -2       536       675       674      2832      2833      2828
 -1      1194    8    0    1
 -2       537       538       676      2419      2834      2835
 -1      1195    8    0    1
 -2       537       676       675      2835      2836      2831
 -1      1196    8    0    1
 -2       538       539       677      2422      2837      2838
 -1      1197    8    0    1
 -2       538       677       676      2838      2839      2834
 -1      1198    8    0    1
 -2       539       540       678      2425      2840      2841
 -1      1199    8    0    1
 -2       539       678       677      2841      2842      2837
 -1      1200    8    0    1
 -2       540       541       614      2428      2843      2844
 -1      1201    8    0    1
 -2       543       401       544      2432      2435      2845
 -1      1202    8    0    1
 -2       545       546       609      2440      2846      2847
 -1      1203    8    0    1
 -2       548       549       679      2449      2848      2849
 -1      1204    8    0    1
 -2       549       550       680      2452      2850      2851
 -1      1205    8    0    1
 -2       549       680       679      2851      2852      2848
 -1      1206    8    0    1
 -2       550       551       681      2455      2853      2854
 -1      1207    8    0    1
 -2       550       681       680      2854      2855      2850
 -1      1208    8    0    1
 -2       551       552       682      2458      2856      2857
 -1      1209    8    0    1
 -2       551       682       681      2857      2858      2853
 -1      1210    8    0    1
 -2       552       553       683      2461      2859      2860
 -1      1211    8    0    1
 -2       552       683       682      2860      2861      2856
 -1      1212    8    0    1
 -2       553       554       684      2464      2862      2863
 -1      1213    8    0    1
 -2       553       684       683      2863      2864      2859
 -1      1214    8    0    1
 -2       554       555       685      2467      2865      2866
 -1      1215    8    0    1
 -2       554       685       684      2866      2867      2862
 -1      1216    8    0    1
 -2       555       556       686      2470      2868      2869
 -1      1217    8    0    1
 -2       555       686       685      2869      2870      2865
 -1      1218    8    0    1
 -2       556       557       687      2473      2871      2872
 -1      1219    8    0    1
 -2       556       687       686      2872      2873      2868
 -1      1220    8    0    1
 -2       557       558       688      2476      2874      2875
 -1      1221    8    0    1
 -2       557       688       687      2875      2876      2871
 -1      1222    8    0    1
 -2       558       559       689      2479      2877      2878
 -1      1223    8    0    1
 -2       558       689       688      2878      2879      2874
 -1      1224    8    0    1
 -2       559       560       690      2482      2880      2881
 -1      1225    8    0    1
 -2       559       690       689      2881      2882      2877
 -1      1226    8    0    1
 -2       560       561       691      2485      2883      2884
 -1      1227    8    0    1
 -2       560       691       690      2884      2885      2880
 -1      1228    8    0    1
 -2       561       562       692      2488      2886      2887
 -1      1229    8    0    1
 -2       561       692       691      2887      2888      2883
 -1      1230    8    0    1
 -2       562       563       693      2491      2889      2890
 -1      1231    8    0    1
 -2       562       693       692      2890      2891      2886
 -1      1232    8    0    1
 -2       563       564       694      2494      2892      2893
 -1      1233    8    0    1
 -2       563       694       693      2893      2894      2889
 -1      1234    8    0    1
 -2       564       565       695      2497      2895      2896
 -1      1235    8    0    1
 -2       564       695       694      2896      2897      2892
 -1      1236    8    0    1
 -2       565       566       696      2500      2898      2899
 -1      1237    8    0    1
 -2       565       696       695      2899      2900      2895
 -1      1238    8    0    1
 -2       566       567       697      2503      2901      2902
 -1      1239    8    0    1
 -2       696       566       697      2898      2902      2903
 -1      1240    8    0    1
 -2       567       570       697      2661      2904      2901
 -1      1241    8    0    1
 -2       572       573       698      2521      2905      2906
 -1      1242    8    0    1
 -2       612       526       699      2662      2907      2908
 -1      1243    8    0    1
 -2       526       665       699      2805      2909      2907
 -1      1244    8    0    1
 -2       568       569       700      2509      2910      2911
 -1      1245    8    0    1
 -2       573       574       701      2524      2912      2913
 -1      1246    8    0    1
 -2       573       701       698      2913      2914      2905
 -1      1247    8    0    1
 -2       569       572       702      2518      2915      2916
 -1      1248    8    0    1
 -2       700       569       702      2910      2916      2917
 -1      1249    8    0    1
 -2       572       698       702      2906      2918      2915
 -1      1250    8    0    1
 -2       581       527       703      2544      2919      2920
 -1      1251    8    0    1
 -2       622       581       703      2677      2920      2921
 -1      1252    8    0    1
 -2       527       668       703      2812      2922      2919
 -1      1253    8    0    1
 -2       574       575       704      2527      2923      2924
 -1      1254    8    0    1
 -2       574       704       701      2924      2925      2912
 -1      1255    8    0    1
 -2       575       576       705      2530      2926      2927
 -1      1256    8    0    1
 -2       575       705       704      2927      2928      2923
 -1      1257    8    0    1
 -2       576       577       706      2533      2929      2930
 -1      1258    8    0    1
 -2       576       706       705      2930      2931      2926
 -1      1259    8    0    1
 -2       482       584       707      2551      2932      2933
 -1      1260    8    0    1
 -2       606       472       480      2606      2934      2641
 -1      1261    8    0    1
 -2       579       585       708      2634      2935      2936
 -1      1262    8    0    1
 -2       580       582       709      2640      2937      2938
 -1      1263    8    0    1
 -2       597       583       710      2626      2939      2940
 -1      1264    8    0    1
 -2       546       547       609      2443      2941      2846
 -1      1265    8    0    1
 -2       589       599       711      2632      2942      2943
 -1      1266    8    0    1
 -2       529       530       712      2395      2944      2945
 -1      1267    8    0    1
 -2       666       529       712      2807      2945      2946
 -1      1268    8    0    1
 -2       530       669       712      2815      2947      2944
 -1      1269    8    0    1
 -2       484       482       713      2258      2948      2949
 -1      1270    8    0    1
 -2       624       484       713      2682      2949      2950
 -1      1271    8    0    1
 -2       482       707       713      2933      2951      2948
 -1      1272    8    0    1
 -2       605       579       714      2633      2952      2953
 -1      1273    8    0    1
 -2       579       708       714      2936      2954      2952
 -1      1274    8    0    1
 -2       578       612       699      2637      2908      2955
 -1      1275    8    0    1
 -2       477       478       715      2242      2956      2957
 -1      1276    8    0    1
 -2       616       477       715      2663      2957      2958
 -1      1277    8    0    1
 -2       478       618       715      2669      2959      2956
 -1      1278    8    0    1
 -2       474       473       716      2231      2960      2961
 -1      1279    8    0    1
 -2       583       580       717      2625      2962      2963
 -1      1280    8    0    1
 -2       584       445       707      2648      2964      2932
 -1      1281    8    0    1
 -2       586       603       718      2646      2965      2966
 -1      1282    8    0    1
 -2       593       594       719      2577      2967      2968
 -1      1283    8    0    1
 -2       594       667       719      2810      2969      2967
 -1      1284    8    0    1
 -2       603       604       720      2660      2970      2971
 -1      1285    8    0    1
 -2       602       586       721      2617      2972      2973
 -1      1286    8    0    1
 -2       596       598       722      2586      2974      2975
 -1      1287    8    0    1
 -2       598       589       723      2624      2976      2977
 -1      1288    8    0    1
 -2       599       600       724      2591      2978      2979
 -1      1289    8    0    1
 -2       601       602       725      2596      2980      2981
 -1      1290    8    0    1
 -2       587       595       726      2643      2982      2983
 -1      1291    8    0    1
 -2       608       474       727      2610      2984      2985
 -1      1292    8    0    1
 -2       474       716       727      2961      2986      2984
 -1      1293    8    0    1
 -2       475       617       728      2666      2987      2988
 -1      1294    8    0    1
 -2       475       728       588      2988      2989      2562
 -1      1295    8    0    1
 -2       604       623       720      2681      2990      2970
 -1      1296    8    0    1
 -2       582       621       709      2676      2991      2937
 -1      1297    8    0    1
 -2       623       597       710      2680      2940      2992
 -1      1298    8    0    1
 -2       610       601       725      2623      2981      2993
 -1      1299    8    0    1
 -2       568       700       729      2911      2994      2995
 -1      1300    8    0    1
 -2       568       729       571      2995      2996      2515
 -1      1301    8    0    1
 -2       603       720       718      2971      2997      2965
 -1      1302    8    0    1
 -2       611       400       543      2627      2433      2998
 -1      1303    8    0    1
 -2       540       614       678      2844      2999      2840
 -1      1304    8    0    1
 -2       541       542       730      2431      3000      3001
 -1      1305    8    0    1
 -2       589       711       723      2943      3002      2976
 -1      1306    8    0    1
 -2       544       545       483      2629      3003      3004
 -1      1307    8    0    1
 -2       548       679       708      2849      3005      3006
 -1      1308    8    0    1
 -2       570       571       731      2514      3007      3008
 -1      1309    8    0    1
 -2       697       570       731      2904      3008      3009
 -1      1310    8    0    1
 -2       571       729       731      2996      3010      3007
 -1      1311    8    0    1
 -2       710       583       717      2939      2963      3011
 -1      1312    8    0    1
 -2       605       714       621      2953      3012      2675
 -1      1313    8    0    1
 -2       586       718       721      2966      3013      2972
 -1      1314    8    0    1
 -2       577       578       699      2536      2955      3014
 -1      1315    8    0    1
 -2       726       595       732      2982      3015      3016
 -1      1316    8    0    1
 -2       595       615       732      2658      3017      3015
 -1      1317    8    0    1
 -2       724       600       733      2978      3018      3019
 -1      1318    8    0    1
 -2       600       610       733      2622      3020      3018
 -1      1319    8    0    1
 -2       725       602       721      2980      2973      3021
 -1      1320    8    0    1
 -2       483       545       607      3003      3022      2615
 -1      1321    8    0    1
 -2       480       472       620      2934      2674      3023
 -1      1322    8    0    1
 -2       708       585       609      2935      2619      3024
 -1      1323    8    0    1
 -2       580       709       717      2938      3025      2962
 -1      1324    8    0    1
 -2       667       587       726      2809      2983      3026
 -1      1325    8    0    1
 -2       445       608       707      2612      3027      2964
 -1      1326    8    0    1
 -2       542       611       592      2644      3028      3029
 -1      1327    8    0    1
 -2       613       596       734      2651      3030      3031
 -1      1328    8    0    1
 -2       596       722       734      2975      3032      3030
 -1      1329    8    0    1
 -2       609       547       708      2941      3033      3024
 -1      1330    8    0    1
 -2       547       548       708      2446      3006      3033
 -1      1331    8    0    1
 -2       473       588       735      2561      3034      3035
 -1      1332    8    0    1
 -2       716       473       735      2960      3035      3036
 -1      1333    8    0    1
 -2       588       728       735      2989      3037      3034
 -1      1334    8    0    1
 -2       711       599       724      2942      2979      3038
 -1      1335    8    0    1
 -2       722       598       723      2974      2977      3039
 -1      1336    8    0    1
 -2       577       699       736      3014      3040      3041
 -1      1337    8    0    1
 -2       706       577       736      2929      3041      3042
 -1      1338    8    0    1
 -2       699       665       736      2909      3043      3040
 -1      1339    8    0    1
 -2       470       613       615      2650      3044      2659
 -1      1340    8    0    1
 -2       542       592       730      3029      3045      3000
 -1      1341    8    0    1
 -2       619       480       620      2670      3023      3046
 -1      1342    8    0    1
 -2       618       619       737      2672      3047      3048
 -1      1343    8    0    1
 -2       711       724       738      3038      3049      3050
 -1      1344    8    0    1
 -2       626       625       739      2689      3051      3052
 -1      1345    8    0    1
 -2       627       626       740      2692      3053      3054
 -1      1346    8    0    1
 -2       626       739       740      3052      3055      3053
 -1      1347    8    0    1
 -2       628       627       741      2695      3056      3057
 -1      1348    8    0    1
 -2       627       740       741      3054      3058      3056
 -1      1349    8    0    1
 -2       629       628       742      2698      3059      3060
 -1      1350    8    0    1
 -2       628       741       742      3057      3061      3059
 -1      1351    8    0    1
 -2       630       629       743      2701      3062      3063
 -1      1352    8    0    1
 -2       629       742       743      3060      3064      3062
 -1      1353    8    0    1
 -2       631       630       744      2704      3065      3066
 -1      1354    8    0    1
 -2       630       743       744      3063      3067      3065
 -1      1355    8    0    1
 -2       632       631       745      2707      3068      3069
 -1      1356    8    0    1
 -2       631       744       745      3066      3070      3068
 -1      1357    8    0    1
 -2       633       632       746      2710      3071      3072
 -1      1358    8    0    1
 -2       632       745       746      3069      3073      3071
 -1      1359    8    0    1
 -2       634       633       747      2713      3074      3075
 -1      1360    8    0    1
 -2       633       746       747      3072      3076      3074
 -1      1361    8    0    1
 -2       635       634       748      2716      3077      3078
 -1      1362    8    0    1
 -2       634       747       748      3075      3079      3077
 -1      1363    8    0    1
 -2       636       635       749      2719      3080      3081
 -1      1364    8    0    1
 -2       635       748       749      3078      3082      3080
 -1      1365    8    0    1
 -2       637       636       750      2722      3083      3084
 -1      1366    8    0    1
 -2       636       749       750      3081      3085      3083
 -1      1367    8    0    1
 -2       638       637       751      2725      3086      3087
 -1      1368    8    0    1
 -2       637       750       751      3084      3088      3086
 -1      1369    8    0    1
 -2       639       638       752      2728      3089      3090
 -1      1370    8    0    1
 -2       638       751       752      3087      3091      3089
 -1      1371    8    0    1
 -2       640       639       753      2731      3092      3093
 -1      1372    8    0    1
 -2       639       752       753      3090      3094      3092
 -1      1373    8    0    1
 -2       641       640       754      2734      3095      3096
 -1      1374    8    0    1
 -2       640       753       754      3093      3097      3095
 -1      1375    8    0    1
 -2       642       641       755      2737      3098      3099
 -1      1376    8    0    1
 -2       641       754       755      3096      3100      3098
 -1      1377    8    0    1
 -2       643       642       756      2740      3101      3102
 -1      1378    8    0    1
 -2       642       755       756      3099      3103      3101
 -1      1379    8    0    1
 -2       644       643       757      2743      3104      3105
 -1      1380    8    0    1
 -2       643       756       757      3102      3106      3104
 -1      1381    8    0    1
 -2       645       644       758      2746      3107      3108
 -1      1382    8    0    1
 -2       644       757       758      3105      3109      3107
 -1      1383    8    0    1
 -2       646       645       759      2749      3110      3111
 -1      1384    8    0    1
 -2       645       758       759      3108      3112      3110
 -1      1385    8    0    1
 -2       647       646       760      2752      3113      3114
 -1      1386    8    0    1
 -2       646       759       760      3111      3115      3113
 -1      1387    8    0    1
 -2       648       647       761      2755      3116      3117
 -1      1388    8    0    1
 -2       647       760       761      3114      3118      3116
 -1      1389    8    0    1
 -2       649       648       762      2758      3119      3120
 -1      1390    8    0    1
 -2       648       761       762      3117      3121      3119
 -1      1391    8    0    1
 -2       650       649       763      2761      3122      3123
 -1      1392    8    0    1
 -2       649       762       763      3120      3124      3122
 -1      1393    8    0    1
 -2       651       650       764      2764      3125      3126
 -1      1394    8    0    1
 -2       650       763       764      3123      3127      3125
 -1      1395    8    0    1
 -2       652       651       765      2767      3128      3129
 -1      1396    8    0    1
 -2       651       764       765      3126      3130      3128
 -1      1397    8    0    1
 -2       653       652       766      2770      3131      3132
 -1      1398    8    0    1
 -2       652       765       766      3129      3133      3131
 -1      1399    8    0    1
 -2       654       653       767      2773      3134      3135
 -1      1400    8    0    1
 -2       653       766       767      3132      3136      3134
 -1      1401    8    0    1
 -2       655       654       768      2776      3137      3138
 -1      1402    8    0    1
 -2       654       767       768      3135      3139      3137
 -1      1403    8    0    1
 -2       656       655       769      2779      3140      3141
 -1      1404    8    0    1
 -2       655       768       769      3138      3142      3140
 -1      1405    8    0    1
 -2       657       656       770      2782      3143      3144
 -1      1406    8    0    1
 -2       656       769       770      3141      3145      3143
 -1      1407    8    0    1
 -2       658       657       771      2785      3146      3147
 -1      1408    8    0    1
 -2       657       770       771      3144      3148      3146
 -1      1409    8    0    1
 -2       659       658       772      2788      3149      3150
 -1      1410    8    0    1
 -2       658       771       772      3147      3151      3149
 -1      1411    8    0    1
 -2       660       659       773      2791      3152      3153
 -1      1412    8    0    1
 -2       659       772       773      3150      3154      3152
 -1      1413    8    0    1
 -2       661       660       774      2794      3155      3156
 -1      1414    8    0    1
 -2       660       773       774      3153      3157      3155
 -1      1415    8    0    1
 -2       662       661       775      2797      3158      3159
 -1      1416    8    0    1
 -2       661       774       775      3156      3160      3158
 -1      1417    8    0    1
 -2       663       662       776      2800      3161      3162
 -1      1418    8    0    1
 -2       662       775       776      3159      3163      3161
 -1      1419    8    0    1
 -2       664       663       777      2803      3164      3165
 -1      1420    8    0    1
 -2       663       776       777      3162      3166      3164
 -1      1421    8    0    1
 -2       665       664       778      2806      3167      3168
 -1      1422    8    0    1
 -2       736       665       778      3043      3168      3169
 -1      1423    8    0    1
 -2       664       777       778      3165      3170      3167
 -1      1424    8    0    1
 -2       701       704       779      2925      3171      3172
 -1      1425    8    0    1
 -2       670       671       780      2821      3173      3174
 -1      1426    8    0    1
 -2       669       670       781      2818      3175      3176
 -1      1427    8    0    1
 -2       670       780       781      3174      3177      3175
 -1      1428    8    0    1
 -2       672       673       782      2827      3178      3179
 -1      1429    8    0    1
 -2       673       674       783      2830      3180      3181
 -1      1430    8    0    1
 -2       673       783       782      3181      3182      3178
 -1      1431    8    0    1
 -2       674       675       784      2833      3183      3184
 -1      1432    8    0    1
 -2       674       784       783      3184      3185      3180
 -1      1433    8    0    1
 -2       675       676       785      2836      3186      3187
 -1      1434    8    0    1
 -2       675       785       784      3187      3188      3183
 -1      1435    8    0    1
 -2       676       677       786      2839      3189      3190
 -1      1436    8    0    1
 -2       676       786       785      3190      3191      3186
 -1      1437    8    0    1
 -2       677       678       787      2842      3192      3193
 -1      1438    8    0    1
 -2       677       787       786      3193      3194      3189
 -1      1439    8    0    1
 -2       619       620       788      3046      3195      3196
 -1      1440    8    0    1
 -2       737       619       788      3047      3196      3197
 -1      1441    8    0    1
 -2       620       622       788      2679      3198      3195
 -1      1442    8    0    1
 -2       543       544       590      2845      3199      2609
 -1      1443    8    0    1
 -2       723       711       789      3002      3200      3201
 -1      1444    8    0    1
 -2       592       471       730      2645      3202      3045
 -1      1445    8    0    1
 -2       679       680       790      2852      3203      3204
 -1      1446    8    0    1
 -2       682       683       791      2861      3205      3206
 -1      1447    8    0    1
 -2       683       684       792      2864      3207      3208
 -1      1448    8    0    1
 -2       683       792       791      3208      3209      3205
 -1      1449    8    0    1
 -2       684       685       793      2867      3210      3211
 -1      1450    8    0    1
 -2       684       793       792      3211      3212      3207
 -1      1451    8    0    1
 -2       685       686       794      2870      3213      3214
 -1      1452    8    0    1
 -2       685       794       793      3214      3215      3210
 -1      1453    8    0    1
 -2       686       687       795      2873      3216      3217
 -1      1454    8    0    1
 -2       686       795       794      3217      3218      3213
 -1      1455    8    0    1
 -2       687       688       796      2876      3219      3220
 -1      1456    8    0    1
 -2       687       796       795      3220      3221      3216
 -1      1457    8    0    1
 -2       688       689       797      2879      3222      3223
 -1      1458    8    0    1
 -2       688       797       796      3223      3224      3219
 -1      1459    8    0    1
 -2       689       690       798      2882      3225      3226
 -1      1460    8    0    1
 -2       689       798       797      3226      3227      3222
 -1      1461    8    0    1
 -2       690       691       799      2885      3228      3229
 -1      1462    8    0    1
 -2       690       799       798      3229      3230      3225
 -1      1463    8    0    1
 -2       691       692       800      2888      3231      3232
 -1      1464    8    0    1
 -2       691       800       799      3232      3233      3228
 -1      1465    8    0    1
 -2       692       693       801      2891      3234      3235
 -1      1466    8    0    1
 -2       692       801       800      3235      3236      3231
 -1      1467    8    0    1
 -2       693       694       802      2894      3237      3238
 -1      1468    8    0    1
 -2       693       802       801      3238      3239      3234
 -1      1469    8    0    1
 -2       694       695       803      2897      3240      3241
 -1      1470    8    0    1
 -2       694       803       802      3241      3242      3237
 -1      1471    8    0    1
 -2       695       696       804      2900      3243      3244
 -1      1472    8    0    1
 -2       695       804       803      3244      3245      3240
 -1      1473    8    0    1
 -2       696       697       805      2903      3246      3247
 -1      1474    8    0    1
 -2       804       696       805      3243      3247      3248
 -1      1475    8    0    1
 -2       697       731       805      3009      3249      3246
 -1      1476    8    0    1
 -2       615       613       806      3044      3250      3251
 -1      1477    8    0    1
 -2       617       616       807      2667      3252      3253
 -1      1478    8    0    1
 -2       698       701       808      2914      3254      3255
 -1      1479    8    0    1
 -2       701       779       808      3172      3256      3254
 -1      1480    8    0    1
 -2       623       710       809      2992      3257      3258
 -1      1481    8    0    1
 -2       544       483       590      3004      2655      3199
 -1      1482    8    0    1
 -2       704       705       810      2928      3259      3260
 -1      1483    8    0    1
 -2       704       810       779      3260      3261      3171
 -1      1484    8    0    1
 -2       681       682       811      2858      3262      3263
 -1      1485    8    0    1
 -2       682       791       811      3206      3264      3262
 -1      1486    8    0    1
 -2       680       681       812      2855      3265      3266
 -1      1487    8    0    1
 -2       790       680       812      3203      3266      3267
 -1      1488    8    0    1
 -2       681       811       812      3263      3268      3265
 -1      1489    8    0    1
 -2       671       672       813      2824      3269      3270
 -1      1490    8    0    1
 -2       780       671       813      3173      3270      3271
 -1      1491    8    0    1
 -2       672       782       813      3179      3272      3269
 -1      1492    8    0    1
 -2       668       666       814      2813      3273      3274
 -1      1493    8    0    1
 -2       717       709       815      3025      3275      3276
 -1      1494    8    0    1
 -2       625       624       816      2686      3277      3278
 -1      1495    8    0    1
 -2       625       816       739      3278      3279      3051
 -1      1496    8    0    1
 -2       592       611       591      3028      3280      2647
 -1      1497    8    0    1
 -2       610       725       817      2993      3281      3282
 -1      1498    8    0    1
 -2       720       623       818      2990      3283      3284
 -1      1499    8    0    1
 -2       718       720       819      2997      3285      3286
 -1      1500    8    0    1
 -2       705       706       820      2931      3287      3288
 -1      1501    8    0    1
 -2       705       820       810      3288      3289      3259
 -1      1502    8    0    1
 -2       719       667       821      2969      3290      3291
 -1      1503    8    0    1
 -2       730       471       614      3202      2653      3292
 -1      1504    8    0    1
 -2       591       611       543      3280      2998      2656
 -1      1505    8    0    1
 -2       667       726       822      3026      3293      3294
 -1      1506    8    0    1
 -2       667       822       821      3294      3295      3290
 -1      1507    8    0    1
 -2       621       714       823      3012      3296      3297
 -1      1508    8    0    1
 -2       593       719       824      2968      3298      3299
 -1      1509    8    0    1
 -2       614       593       824      2654      3299      3300
 -1      1510    8    0    1
 -2       719       821       824      3291      3301      3298
 -1      1511    8    0    1
 -2       709       621       825      2991      3302      3303
 -1      1512    8    0    1
 -2       709       825       815      3303      3304      3275
 -1      1513    8    0    1
 -2       721       718       826      3013      3305      3306
 -1      1514    8    0    1
 -2       607       545       609      3022      2847      2620
 -1      1515    8    0    1
 -2       722       723       827      3039      3307      3308
 -1      1516    8    0    1
 -2       710       717       828      3011      3309      3310
 -1      1517    8    0    1
 -2       707       608       727      3027      2985      3311
 -1      1518    8    0    1
 -2       725       721       829      3021      3312      3313
 -1      1519    8    0    1
 -2       728       617       830      2987      3314      3315
 -1      1520    8    0    1
 -2       617       807       830      3253      3316      3314
 -1      1521    8    0    1
 -2       711       738       789      3050      3317      3200
 -1      1522    8    0    1
 -2       722       827       831      3308      3318      3319
 -1      1523    8    0    1
 -2       722       831       734      3319      3320      3032
 -1      1524    8    0    1
 -2       729       700       832      2994      3321      3322
 -1      1525    8    0    1
 -2       624       713       833      2950      3323      3324
 -1      1526    8    0    1
 -2       624       833       816      3324      3325      3277
 -1      1527    8    0    1
 -2       623       809       818      3258      3326      3283
 -1      1528    8    0    1
 -2       814       666       834      3273      3327      3328
 -1      1529    8    0    1
 -2       666       712       834      2946      3329      3327
 -1      1530    8    0    1
 -2       713       707       727      2951      3311      3330
 -1      1531    8    0    1
 -2       668       814       835      3274      3331      3332
 -1      1532    8    0    1
 -2       668       835       703      3332      3333      2922
 -1      1533    8    0    1
 -2       708       679       836      3005      3334      3335
 -1      1534    8    0    1
 -2       669       781       837      3176      3336      3337
 -1      1535    8    0    1
 -2       669       837       712      3337      3338      2947
 -1      1536    8    0    1
 -2       787       678       821      3192      3339      3340
 -1      1537    8    0    1
 -2       541       730       614      3001      3292      2843
 -1      1538    8    0    1
 -2       827       723       789      3307      3201      3341
 -1      1539    8    0    1
 -2       615       806       838      3251      3342      3343
 -1      1540    8    0    1
 -2       615       838       732      3343      3344      3017
 -1      1541    8    0    1
 -2       806       613       734      3250      3031      3345
 -1      1542    8    0    1
 -2       807       616       839      3252      3346      3347
 -1      1543    8    0    1
 -2       616       715       839      2958      3348      3346
 -1      1544    8    0    1
 -2       700       702       840      2917      3349      3350
 -1      1545    8    0    1
 -2       700       840       832      3350      3351      3321
 -1      1546    8    0    1
 -2       809       710       828      3257      3310      3352
 -1      1547    8    0    1
 -2       702       698       841      2918      3353      3354
 -1      1548    8    0    1
 -2       840       702       841      3349      3354      3355
 -1      1549    8    0    1
 -2       698       808       841      3255      3356      3353
 -1      1550    8    0    1
 -2       727       716       842      2986      3357      3358
 -1      1551    8    0    1
 -2       733       610       817      3020      3282      3359
 -1      1552    8    0    1
 -2       819       720       843      3285      3360      3361
 -1      1553    8    0    1
 -2       720       818       843      3284      3362      3360
 -1      1554    8    0    1
 -2       721       826       829      3306      3363      3312
 -1      1555    8    0    1
 -2       717       815       828      3276      3364      3309
 -1      1556    8    0    1
 -2       817       725       829      3281      3313      3365
 -1      1557    8    0    1
 -2       718       819       826      3286      3366      3305
 -1      1558    8    0    1
 -2       825       621       823      3302      3297      3367
 -1      1559    8    0    1
 -2       714       708       836      2954      3335      3368
 -1      1560    8    0    1
 -2       715       618       844      2959      3369      3370
 -1      1561    8    0    1
 -2       839       715       844      3348      3370      3371
 -1      1562    8    0    1
 -2       618       737       844      3048      3372      3369
 -1      1563    8    0    1
 -2       823       714       836      3296      3368      3373
 -1      1564    8    0    1
 -2       738       724       845      3049      3374      3375
 -1      1565    8    0    1
 -2       724       733       845      3019      3376      3374
 -1      1566    8    0    1
 -2       679       790       836      3204      3377      3334
 -1      1567    8    0    1
 -2       822       726       846      3293      3378      3379
 -1      1568    8    0    1
 -2       726       732       846      3016      3380      3378
 -1      1569    8    0    1
 -2       716       735       847      3036      3381      3382
 -1      1570    8    0    1
 -2       716       847       842      3382      3383      3357
 -1      1571    8    0    1
 -2       706       736       848      3042      3384      3385
 -1      1572    8    0    1
 -2       820       706       848      3287      3385      3386
 -1      1573    8    0    1
 -2       736       778       848      3169      3387      3384
 -1      1574    8    0    1
 -2       622       703       849      2921      3388      3389
 -1      1575    8    0    1
 -2       788       622       849      3198      3389      3390
 -1      1576    8    0    1
 -2       703       835       849      3333      3391      3388
 -1      1577    8    0    1
 -2       779       810       850      3261      3392      3393
 -1      1578    8    0    1
 -2       809       828       851      3352      3394      3395
 -1      1579    8    0    1
 -2       741       740       852      3058      3396      3397
 -1      1580    8    0    1
 -2       742       741       853      3061      3398      3399
 -1      1581    8    0    1
 -2       741       852       853      3397      3400      3398
 -1      1582    8    0    1
 -2       743       742       854      3064      3401      3402
 -1      1583    8    0    1
 -2       742       853       854      3399      3403      3401
 -1      1584    8    0    1
 -2       744       743       855      3067      3404      3405
 -1      1585    8    0    1
 -2       743       854       855      3402      3406      3404
 -1      1586    8    0    1
 -2       745       744       856      3070      3407      3408
 -1      1587    8    0    1
 -2       744       855       856      3405      3409      3407
 -1      1588    8    0    1
 -2       746       745       857      3073      3410      3411
 -1      1589    8    0    1
 -2       745       856       857      3408      3412      3410
 -1      1590    8    0    1
 -2       747       746       858      3076      3413      3414
 -1      1591    8    0    1
 -2       746       857       858      3411      3415      3413
 -1      1592    8    0    1
 -2       748       747       859      3079      3416      3417
 -1      1593    8    0    1
 -2       747       858       859      3414      3418      3416
 -1      1594    8    0    1
 -2       749       748       860      3082      3419      3420
 -1      1595    8    0    1
 -2       748       859       860      3417      3421      3419
 -1      1596    8    0    1
 -2       750       749       861      3085      3422      3423
 -1      1597    8    0    1
 -2       749       860       861      3420      3424      3422
 -1      1598    8    0    1
 -2       751       750       862      3088      3425      3426
 -1      1599    8    0    1
 -2       750       861       862      3423      3427      3425
 -1      1600    8    0    1
 -2       752       751       863      3091      3428      3429
 -1      1601    8    0    1
 -2       751       862       863      3426      3430      3428
 -1      1602    8    0    1
 -2       753       752       864      3094      3431      3432
 -1      1603    8    0    1
 -2       752       863       864      3429      3433      3431
 -1      1604    8    0    1
 -2       754       753       845      3097      3434      3435
 -1      1605    8    0    1
 -2       755       754       845      3100      3435      3436
 -1      1606    8    0    1
 -2       756       755       817      3103      3437      3438
 -1      1607    8    0    1
 -2       757       756       829      3106      3439      3440
 -1      1608    8    0    1
 -2       758       757       826      3109      3441      3442
 -1      1609    8    0    1
 -2       760       759       865      3115      3443      3444
 -1      1610    8    0    1
 -2       761       760       866      3118      3445      3446
 -1      1611    8    0    1
 -2       760       865       866      3444      3447      3445
 -1      1612    8    0    1
 -2       762       761       867      3121      3448      3449
 -1      1613    8    0    1
 -2       761       866       867      3446      3450      3448
 -1      1614    8    0    1
 -2       763       762       868      3124      3451      3452
 -1      1615    8    0    1
 -2       762       867       868      3449      3453      3451
 -1      1616    8    0    1
 -2       764       763       869      3127      3454      3455
 -1      1617    8    0    1
 -2       763       868       869      3452      3456      3454
 -1      1618    8    0    1
 -2       765       764       870      3130      3457      3458
 -1      1619    8    0    1
 -2       764       869       870      3455      3459      3457
 -1      1620    8    0    1
 -2       766       765       871      3133      3460      3461
 -1      1621    8    0    1
 -2       765       870       871      3458      3462      3460
 -1      1622    8    0    1
 -2       767       766       872      3136      3463      3464
 -1      1623    8    0    1
 -2       766       871       872      3461      3465      3463
 -1      1624    8    0    1
 -2       768       767       873      3139      3466      3467
 -1      1625    8    0    1
 -2       767       872       873      3464      3468      3466
 -1      1626    8    0    1
 -2       769       768       874      3142      3469      3470
 -1      1627    8    0    1
 -2       768       873       874      3467      3471      3469
 -1      1628    8    0    1
 -2       770       769       875      3145      3472      3473
 -1      1629    8    0    1
 -2       769       874       875      3470      3474      3472
 -1      1630    8    0    1
 -2       771       770       876      3148      3475      3476
 -1      1631    8    0    1
 -2       770       875       876      3473      3477      3475
 -1      1632    8    0    1
 -2       772       771       877      3151      3478      3479
 -1      1633    8    0    1
 -2       771       876       877      3476      3480      3478
 -1      1634    8    0    1
 -2       773       772       878      3154      3481      3482
 -1      1635    8    0    1
 -2       772       877       878      3479      3483      3481
 -1      1636    8    0    1
 -2       774       773       879      3157      3484      3485
 -1      1637    8    0    1
 -2       773       878       879      3482      3486      3484
 -1      1638    8    0    1
 -2       775       774       880      3160      3487      3488
 -1      1639    8    0    1
 -2       774       879       880      3485      3489      3487
 -1      1640    8    0    1
 -2       776       775       881      3163      3490      3491
 -1      1641    8    0    1
 -2       775       880       881      3488      3492      3490
 -1      1642    8    0    1
 -2       777       776       882      3166      3493      3494
 -1      1643    8    0    1
 -2       776       881       882      3491      3495      3493
 -1      1644    8    0    1
 -2       731       729       883      3010      3496      3497
 -1      1645    8    0    1
 -2       805       731       883      3249      3497      3498
 -1      1646    8    0    1
 -2       729       832       883      3322      3499      3496
 -1      1647    8    0    1
 -2       821       678       824      3339      3500      3301
 -1      1648    8    0    1
 -2       783       784       884      3185      3501      3502
 -1      1649    8    0    1
 -2       782       783       885      3182      3503      3504
 -1      1650    8    0    1
 -2       783       884       885      3502      3505      3503
 -1      1651    8    0    1
 -2       785       786       886      3191      3506      3507
 -1      1652    8    0    1
 -2       737       788       887      3197      3508      3509
 -1      1653    8    0    1
 -2       788       849       887      3390      3510      3508
 -1      1654    8    0    1
 -2       793       794       888      3215      3511      3512
 -1      1655    8    0    1
 -2       827       789       889      3341      3513      3514
 -1      1656    8    0    1
 -2       678       614       824      2999      3300      3500
 -1      1657    8    0    1
 -2       735       728       890      3037      3515      3516
 -1      1658    8    0    1
 -2       735       890       847      3516      3517      3381
 -1      1659    8    0    1
 -2       791       792       891      3209      3518      3519
 -1      1660    8    0    1
 -2       794       795       892      3218      3520      3521
 -1      1661    8    0    1
 -2       794       892       888      3521      3522      3511
 -1      1662    8    0    1
 -2       795       796       893      3221      3523      3524
 -1      1663    8    0    1
 -2       795       893       892      3524      3525      3520
 -1      1664    8    0    1
 -2       796       797       894      3224      3526      3527
 -1      1665    8    0    1
 -2       796       894       893      3527      3528      3523
 -1      1666    8    0    1
 -2       797       798       895      3227      3529      3530
 -1      1667    8    0    1
 -2       797       895       894      3530      3531      3526
 -1      1668    8    0    1
 -2       798       799       896      3230      3532      3533
 -1      1669    8    0    1
 -2       798       896       895      3533      3534      3529
 -1      1670    8    0    1
 -2       799       800       897      3233      3535      3536
 -1      1671    8    0    1
 -2       799       897       896      3536      3537      3532
 -1      1672    8    0    1
 -2       800       801       898      3236      3538      3539
 -1      1673    8    0    1
 -2       800       898       897      3539      3540      3535
 -1      1674    8    0    1
 -2       801       802       899      3239      3541      3542
 -1      1675    8    0    1
 -2       801       899       898      3542      3543      3538
 -1      1676    8    0    1
 -2       802       803       900      3242      3544      3545
 -1      1677    8    0    1
 -2       802       900       899      3545      3546      3541
 -1      1678    8    0    1
 -2       829       756       817      3439      3438      3365
 -1      1679    8    0    1
 -2       789       738       901      3317      3547      3548
 -1      1680    8    0    1
 -2       727       842       833      3358      3549      3550
 -1      1681    8    0    1
 -2       740       739       902      3055      3551      3552
 -1      1682    8    0    1
 -2       740       902       852      3552      3553      3396
 -1      1683    8    0    1
 -2       806       734       903      3345      3554      3555
 -1      1684    8    0    1
 -2       808       779       904      3256      3556      3557
 -1      1685    8    0    1
 -2       779       850       904      3393      3558      3556
 -1      1686    8    0    1
 -2       787       821       822      3340      3295      3559
 -1      1687    8    0    1
 -2       811       791       905      3264      3560      3561
 -1      1688    8    0    1
 -2       791       891       905      3519      3562      3560
 -1      1689    8    0    1
 -2       818       809       906      3326      3563      3564
 -1      1690    8    0    1
 -2       739       816       907      3279      3565      3566
 -1      1691    8    0    1
 -2       739       907       902      3566      3567      3551
 -1      1692    8    0    1
 -2       829       826       757      3363      3441      3440
 -1      1693    8    0    1
 -2       810       820       908      3289      3568      3569
 -1      1694    8    0    1
 -2       810       908       850      3569      3570      3392
 -1      1695    8    0    1
 -2       784       785       909      3188      3571      3572
 -1      1696    8    0    1
 -2       784       909       884      3572      3573      3501
 -1      1697    8    0    1
 -2       713       727       833      3330      3550      3323
 -1      1698    8    0    1
 -2       781       780       910      3177      3574      3575
 -1      1699    8    0    1
 -2       815       825       911      3304      3576      3577
 -1      1700    8    0    1
 -2       825       823       912      3367      3578      3579
 -1      1701    8    0    1
 -2       787       822       913      3559      3580      3581
 -1      1702    8    0    1
 -2       786       787       913      3194      3581      3582
 -1      1703    8    0    1
 -2       822       846       913      3379      3583      3580
 -1      1704    8    0    1
 -2       828       815       914      3364      3584      3585
 -1      1705    8    0    1
 -2       792       793       915      3212      3586      3587
 -1      1706    8    0    1
 -2       891       792       915      3518      3587      3588
 -1      1707    8    0    1
 -2       793       888       915      3512      3589      3586
 -1      1708    8    0    1
 -2       826       819       916      3366      3590      3591
 -1      1709    8    0    1
 -2       758       826       916      3442      3591      3592
 -1      1710    8    0    1
 -2       819       843       916      3361      3593      3590
 -1      1711    8    0    1
 -2       781       910       917      3575      3594      3595
 -1      1712    8    0    1
 -2       781       917       837      3595      3596      3336
 -1      1713    8    0    1
 -2       831       827       918      3318      3597      3598
 -1      1714    8    0    1
 -2       827       889       918      3514      3599      3597
 -1      1715    8    0    1
 -2       809       851       906      3395      3600      3563
 -1      1716    8    0    1
 -2       753       864       845      3432      3601      3434
 -1      1717    8    0    1
 -2       816       833       919      3325      3602      3603
 -1      1718    8    0    1
 -2       907       816       919      3565      3603      3604
 -1      1719    8    0    1
 -2       833       842       919      3549      3605      3602
 -1      1720    8    0    1
 -2       834       712       837      3329      3338      3606
 -1      1721    8    0    1
 -2       758       916       759      3592      3607      3112
 -1      1722    8    0    1
 -2       817       755       845      3437      3436      3608
 -1      1723    8    0    1
 -2       883       832       920      3499      3609      3610
 -1      1724    8    0    1
 -2       778       777       921      3170      3611      3612
 -1      1725    8    0    1
 -2       848       778       921      3387      3612      3613
 -1      1726    8    0    1
 -2       777       882       921      3494      3614      3611
 -1      1727    8    0    1
 -2       835       814       922      3331      3615      3616
 -1      1728    8    0    1
 -2       828       914       851      3585      3617      3394
 -1      1729    8    0    1
 -2       759       916       865      3607      3618      3443
 -1      1730    8    0    1
 -2       782       885       923      3504      3619      3620
 -1      1731    8    0    1
 -2       782       923       813      3620      3621      3272
 -1      1732    8    0    1
 -2       886       786       913      3506      3582      3622
 -1      1733    8    0    1
 -2       737       887       844      3509      3623      3372
 -1      1734    8    0    1
 -2       914       815       924      3584      3624      3625
 -1      1735    8    0    1
 -2       815       911       924      3577      3626      3624
 -1      1736    8    0    1
 -2       734       831       903      3320      3627      3554
 -1      1737    8    0    1
 -2       838       806       925      3342      3628      3629
 -1      1738    8    0    1
 -2       806       903       925      3555      3630      3628
 -1      1739    8    0    1
 -2       790       812       926      3267      3631      3632
 -1      1740    8    0    1
 -2       900       803       920      3544      3633      3634
 -1      1741    8    0    1
 -2       803       804       920      3245      3635      3633
 -1      1742    8    0    1
 -2       804       805       883      3248      3498      3636
 -1      1743    8    0    1
 -2       820       848       921      3386      3613      3637
 -1      1744    8    0    1
 -2       910       780       927      3574      3638      3639
 -1      1745    8    0    1
 -2       780       813       927      3271      3640      3638
 -1      1746    8    0    1
 -2       832       840       928      3351      3641      3642
 -1      1747    8    0    1
 -2       832       928       920      3642      3643      3609
 -1      1748    8    0    1
 -2       841       808       929      3356      3644      3645
 -1      1749    8    0    1
 -2       808       904       929      3557      3646      3644
 -1      1750    8    0    1
 -2       843       818       930      3362      3647      3648
 -1      1751    8    0    1
 -2       818       906       930      3564      3649      3647
 -1      1752    8    0    1
 -2       812       811       931      3268      3650      3651
 -1      1753    8    0    1
 -2       926       812       931      3631      3651      3652
 -1      1754    8    0    1
 -2       811       905       931      3561      3653      3650
 -1      1755    8    0    1
 -2       814       834       932      3328      3654      3655
 -1      1756    8    0    1
 -2       814       932       922      3655      3656      3615
 -1      1757    8    0    1
 -2       889       789       901      3513      3548      3657
 -1      1758    8    0    1
 -2       807       839       933      3347      3658      3659
 -1      1759    8    0    1
 -2       909       785       886      3571      3507      3660
 -1      1760    8    0    1
 -2       911       825       912      3576      3579      3661
 -1      1761    8    0    1
 -2       908       820       921      3568      3637      3662
 -1      1762    8    0    1
 -2       890       728       830      3515      3315      3663
 -1      1763    8    0    1
 -2       846       732       934      3380      3664      3665
 -1      1764    8    0    1
 -2       732       838       934      3344      3666      3664
 -1      1765    8    0    1
 -2       830       807       935      3316      3667      3668
 -1      1766    8    0    1
 -2       807       933       935      3659      3669      3667
 -1      1767    8    0    1
 -2       836       790       926      3377      3632      3670
 -1      1768    8    0    1
 -2       842       847       936      3383      3671      3672
 -1      1769    8    0    1
 -2       842       936       919      3672      3673      3605
 -1      1770    8    0    1
 -2       804       883       920      3636      3610      3635
 -1      1771    8    0    1
 -2       921       882       908      3614      3674      3662
 -1      1772    8    0    1
 -2       901       738       864      3547      3675      3676
 -1      1773    8    0    1
 -2       854       853       937      3403      3677      3678
 -1      1774    8    0    1
 -2       855       854       938      3406      3679      3680
 -1      1775    8    0    1
 -2       854       937       938      3678      3681      3679
 -1      1776    8    0    1
 -2       856       855       939      3409      3682      3683
 -1      1777    8    0    1
 -2       855       938       939      3680      3684      3682
 -1      1778    8    0    1
 -2       857       856       940      3412      3685      3686
 -1      1779    8    0    1
 -2       856       939       940      3683      3687      3685
 -1      1780    8    0    1
 -2       858       857       941      3415      3688      3689
 -1      1781    8    0    1
 -2       857       940       941      3686      3690      3688
 -1      1782    8    0    1
 -2       859       858       942      3418      3691      3692
 -1      1783    8    0    1
 -2       858       941       942      3689      3693      3691
 -1      1784    8    0    1
 -2       860       859       943      3421      3694      3695
 -1      1785    8    0    1
 -2       859       942       943      3692      3696      3694
 -1      1786    8    0    1
 -2       861       860       944      3424      3697      3698
 -1      1787    8    0    1
 -2       860       943       944      3695      3699      3697
 -1      1788    8    0    1
 -2       862       861       945      3427      3700      3701
 -1      1789    8    0    1
 -2       861       944       945      3698      3702      3700
 -1      1790    8    0    1
 -2       863       862       946      3430      3703      3704
 -1      1791    8    0    1
 -2       862       945       946      3701      3705      3703
 -1      1792    8    0    1
 -2       864       863       901      3433      3706      3676
 -1      1793    8    0    1
 -2       907       919       947      3604      3707      3708
 -1      1794    8    0    1
 -2       919       936       947      3673      3709      3707
 -1      1795    8    0    1
 -2       850       908       948      3570      3710      3711
 -1      1796    8    0    1
 -2       890       830       949      3663      3712      3713
 -1      1797    8    0    1
 -2       830       935       949      3668      3714      3712
 -1      1798    8    0    1
 -2       835       922       950      3616      3715      3716
 -1      1799    8    0    1
 -2       867       866       930      3450      3717      3718
 -1      1800    8    0    1
 -2       868       867       951      3453      3719      3720
 -1      1801    8    0    1
 -2       869       868       952      3456      3721      3722
 -1      1802    8    0    1
 -2       868       951       952      3720      3723      3721
 -1      1803    8    0    1
 -2       870       869       953      3459      3724      3725
 -1      1804    8    0    1
 -2       869       952       953      3722      3726      3724
 -1      1805    8    0    1
 -2       871       870       954      3462      3727      3728
 -1      1806    8    0    1
 -2       870       953       954      3725      3729      3727
 -1      1807    8    0    1
 -2       872       871       955      3465      3730      3731
 -1      1808    8    0    1
 -2       871       954       955      3728      3732      3730
 -1      1809    8    0    1
 -2       873       872       956      3468      3733      3734
 -1      1810    8    0    1
 -2       872       955       956      3731      3735      3733
 -1      1811    8    0    1
 -2       874       873       957      3471      3736      3737
 -1      1812    8    0    1
 -2       873       956       957      3734      3738      3736
 -1      1813    8    0    1
 -2       875       874       958      3474      3739      3740
 -1      1814    8    0    1
 -2       874       957       958      3737      3741      3739
 -1      1815    8    0    1
 -2       876       875       959      3477      3742      3743
 -1      1816    8    0    1
 -2       875       958       959      3740      3744      3742
 -1      1817    8    0    1
 -2       877       876       960      3480      3745      3746
 -1      1818    8    0    1
 -2       876       959       960      3743      3747      3745
 -1      1819    8    0    1
 -2       878       877       961      3483      3748      3749
 -1      1820    8    0    1
 -2       877       960       961      3746      3750      3748
 -1      1821    8    0    1
 -2       879       878       962      3486      3751      3752
 -1      1822    8    0    1
 -2       878       961       962      3749      3753      3751
 -1      1823    8    0    1
 -2       880       879       963      3489      3754      3755
 -1      1824    8    0    1
 -2       879       962       963      3752      3756      3754
 -1      1825    8    0    1
 -2       881       880       964      3492      3757      3758
 -1      1826    8    0    1
 -2       880       963       964      3755      3759      3757
 -1      1827    8    0    1
 -2       851       914       965      3617      3760      3761
 -1      1828    8    0    1
 -2       887       849       950      3510      3762      3763
 -1      1829    8    0    1
 -2       892       893       966      3525      3764      3765
 -1      1830    8    0    1
 -2       884       909       967      3573      3766      3767
 -1      1831    8    0    1
 -2       906       851       968      3600      3768      3769
 -1      1832    8    0    1
 -2       893       894       969      3528      3770      3771
 -1      1833    8    0    1
 -2       893       969       966      3771      3772      3764
 -1      1834    8    0    1
 -2       916       843       865      3593      3773      3618
 -1      1835    8    0    1
 -2       900       920       970      3634      3774      3775
 -1      1836    8    0    1
 -2       920       928       970      3643      3776      3774
 -1      1837    8    0    1
 -2       888       892       971      3522      3777      3778
 -1      1838    8    0    1
 -2       892       966       971      3765      3779      3777
 -1      1839    8    0    1
 -2       894       895       972      3531      3780      3781
 -1      1840    8    0    1
 -2       894       972       969      3781      3782      3770
 -1      1841    8    0    1
 -2       895       896       973      3534      3783      3784
 -1      1842    8    0    1
 -2       895       973       972      3784      3785      3780
 -1      1843    8    0    1
 -2       896       897       974      3537      3786      3787
 -1      1844    8    0    1
 -2       896       974       973      3787      3788      3783
 -1      1845    8    0    1
 -2       897       898       975      3540      3789      3790
 -1      1846    8    0    1
 -2       897       975       974      3790      3791      3786
 -1      1847    8    0    1
 -2       898       899       976      3543      3792      3793
 -1      1848    8    0    1
 -2       898       976       975      3793      3794      3789
 -1      1849    8    0    1
 -2       899       900       977      3546      3795      3796
 -1      1850    8    0    1
 -2       976       899       977      3792      3796      3797
 -1      1851    8    0    1
 -2       900       970       977      3775      3798      3795
 -1      1852    8    0    1
 -2       908       882       948      3674      3799      3710
 -1      1853    8    0    1
 -2       904       850       978      3558      3800      3801
 -1      1854    8    0    1
 -2       850       948       978      3711      3802      3800
 -1      1855    8    0    1
 -2       834       837       979      3606      3803      3804
 -1      1856    8    0    1
 -2       837       917       979      3596      3805      3803
 -1      1857    8    0    1
 -2       885       884       980      3505      3806      3807
 -1      1858    8    0    1
 -2       884       967       980      3767      3808      3806
 -1      1859    8    0    1
 -2       852       902       981      3553      3809      3810
 -1      1860    8    0    1
 -2       839       844       982      3371      3811      3812
 -1      1861    8    0    1
 -2       839       982       933      3812      3813      3658
 -1      1862    8    0    1
 -2       849       835       950      3391      3716      3762
 -1      1863    8    0    1
 -2       905       891       983      3562      3814      3815
 -1      1864    8    0    1
 -2       902       907       984      3567      3816      3817
 -1      1865    8    0    1
 -2       981       902       984      3809      3817      3818
 -1      1866    8    0    1
 -2       907       947       984      3708      3819      3816
 -1      1867    8    0    1
 -2       847       890       985      3517      3820      3821
 -1      1868    8    0    1
 -2       936       847       985      3671      3821      3822
 -1      1869    8    0    1
 -2       890       949       985      3713      3823      3820
 -1      1870    8    0    1
 -2       866       865       843      3447      3773      3824
 -1      1871    8    0    1
 -2       909       886       986      3660      3825      3826
 -1      1872    8    0    1
 -2       909       986       967      3826      3827      3766
 -1      1873    8    0    1
 -2       913       846       987      3583      3828      3829
 -1      1874    8    0    1
 -2       886       913       987      3622      3829      3830
 -1      1875    8    0    1
 -2       846       934       987      3665      3831      3828
 -1      1876    8    0    1
 -2       903       831       988      3627      3832      3833
 -1      1877    8    0    1
 -2       738       845       864      3375      3601      3675
 -1      1878    8    0    1
 -2       853       852       989      3400      3834      3835
 -1      1879    8    0    1
 -2       852       981       989      3810      3836      3834
 -1      1880    8    0    1
 -2       844       887       982      3623      3837      3811
 -1      1881    8    0    1
 -2       889       901       946      3657      3838      3839
 -1      1882    8    0    1
 -2       840       841       990      3355      3840      3841
 -1      1883    8    0    1
 -2       841       929       990      3645      3842      3840
 -1      1884    8    0    1
 -2       901       863       946      3706      3704      3838
 -1      1885    8    0    1
 -2       866       843       930      3824      3648      3717
 -1      1886    8    0    1
 -2       853       989       937      3835      3843      3677
 -1      1887    8    0    1
 -2       904       978       991      3801      3844      3845
 -1      1888    8    0    1
 -2       904       991       929      3845      3846      3646
 -1      1889    8    0    1
 -2       917       910       992      3594      3847      3848
 -1      1890    8    0    1
 -2       950       922       993      3715      3849      3850
 -1      1891    8    0    1
 -2       867       930       951      3718      3851      3719
 -1      1892    8    0    1
 -2       851       965       968      3761      3852      3768
 -1      1893    8    0    1
 -2       965       914       994      3760      3853      3854
 -1      1894    8    0    1
 -2       914       924       994      3625      3855      3853
 -1      1895    8    0    1
 -2       882       881       948      3495      3856      3799
 -1      1896    8    0    1
 -2       910       927       995      3639      3857      3858
 -1      1897    8    0    1
 -2       910       995       992      3858      3859      3847
 -1      1898    8    0    1
 -2       831       918       988      3598      3860      3832
 -1      1899    8    0    1
 -2       887       950       982      3763      3861      3837
 -1      1900    8    0    1
 -2       923       885       996      3619      3862      3863
 -1      1901    8    0    1
 -2       885       980       996      3807      3864      3862
 -1      1902    8    0    1
 -2       924       911       997      3626      3865      3866
 -1      1903    8    0    1
 -2       925       903       998      3630      3867      3868
 -1      1904    8    0    1
 -2       903       988       998      3833      3869      3867
 -1      1905    8    0    1
 -2       932       834       979      3654      3804      3870
 -1      1906    8    0    1
 -2       927       813       923      3640      3621      3871
 -1      1907    8    0    1
 -2       928       840       990      3641      3841      3872
 -1      1908    8    0    1
 -2       933       982       999      3813      3873      3874
 -1      1909    8    0    1
 -2       733       817       845      3359      3608      3376
 -1      1910    8    0    1
 -2       838       925      1000      3629      3875      3876
 -1      1911    8    0    1
 -2       838      1000       934      3876      3877      3666
 -1      1912    8    0    1
 -2       993       922      1001      3849      3878      3879
 -1      1913    8    0    1
 -2       922       932      1001      3656      3880      3878
 -1      1914    8    0    1
 -2       931       905      1002      3653      3881      3882
 -1      1915    8    0    1
 -2       905       983      1002      3815      3883      3881
 -1      1916    8    0    1
 -2       986       886       987      3825      3830      3884
 -1      1917    8    0    1
 -2       948       881       964      3856      3758      3885
 -1      1918    8    0    1
 -2       888       971      1003      3778      3886      3887
 -1      1919    8    0    1
 -2       888      1003       915      3887      3888      3589
 -1      1920    8    0    1
 -2       911       912      1004      3661      3889      3890
 -1      1921    8    0    1
 -2       935       933      1005      3669      3891      3892
 -1      1922    8    0    1
 -2       933       999      1005      3874      3893      3891
 -1      1923    8    0    1
 -2       891       915      1006      3588      3894      3895
 -1      1924    8    0    1
 -2       983       891      1006      3814      3895      3896
 -1      1925    8    0    1
 -2       915      1003      1006      3888      3897      3894
 -1      1926    8    0    1
 -2       918       889       946      3599      3839      3898
 -1      1927    8    0    1
 -2       937       989      1007      3843      3899      3900
 -1      1928    8    0    1
 -2       939       938      1008      3684      3901      3902
 -1      1929    8    0    1
 -2       940       939      1009      3687      3903      3904
 -1      1930    8    0    1
 -2       939      1008      1009      3902      3905      3903
 -1      1931    8    0    1
 -2       941       940      1010      3690      3906      3907
 -1      1932    8    0    1
 -2       940      1009      1010      3904      3908      3906
 -1      1933    8    0    1
 -2       942       941      1011      3693      3909      3910
 -1      1934    8    0    1
 -2       941      1010      1011      3907      3911      3909
 -1      1935    8    0    1
 -2       943       942      1012      3696      3912      3913
 -1      1936    8    0    1
 -2       942      1011      1012      3910      3914      3912
 -1      1937    8    0    1
 -2       944       943      1013      3699      3915      3916
 -1      1938    8    0    1
 -2       943      1012      1013      3913      3917      3915
 -1      1939    8    0    1
 -2       945       944      1014      3702      3918      3919
 -1      1940    8    0    1
 -2       944      1013      1014      3916      3920      3918
 -1      1941    8    0    1
 -2       946       945      1015      3705      3921      3922
 -1      1942    8    0    1
 -2       918       946      1015      3898      3922      3923
 -1      1943    8    0    1
 -2       945      1014      1015      3919      3924      3921
 -1      1944    8    0    1
 -2       949       935      1016      3714      3925      3926
 -1      1945    8    0    1
 -2       935      1005      1016      3892      3927      3925
 -1      1946    8    0    1
 -2       947       936      1017      3709      3928      3929
 -1      1947    8    0    1
 -2       936       985      1017      3822      3930      3928
 -1      1948    8    0    1
 -2       988       918      1015      3860      3923      3931
 -1      1949    8    0    1
 -2       953       952      1018      3726      3932      3933
 -1      1950    8    0    1
 -2       954       953      1019      3729      3934      3935
 -1      1951    8    0    1
 -2       953      1018      1019      3933      3936      3934
 -1      1952    8    0    1
 -2       955       954      1020      3732      3937      3938
 -1      1953    8    0    1
 -2       954      1019      1020      3935      3939      3937
 -1      1954    8    0    1
 -2       956       955      1021      3735      3940      3941
 -1      1955    8    0    1
 -2       955      1020      1021      3938      3942      3940
 -1      1956    8    0    1
 -2       957       956      1022      3738      3943      3944
 -1      1957    8    0    1
 -2       956      1021      1022      3941      3945      3943
 -1      1958    8    0    1
 -2       958       957      1023      3741      3946      3947
 -1      1959    8    0    1
 -2       957      1022      1023      3944      3948      3946
 -1      1960    8    0    1
 -2       959       958      1024      3744      3949      3950
 -1      1961    8    0    1
 -2       958      1023      1024      3947      3951      3949
 -1      1962    8    0    1
 -2       960       959      1025      3747      3952      3953
 -1      1963    8    0    1
 -2       959      1024      1025      3950      3954      3952
 -1      1964    8    0    1
 -2       961       960      1026      3750      3955      3956
 -1      1965    8    0    1
 -2       960      1025      1026      3953      3957      3955
 -1      1966    8    0    1
 -2       962       961      1027      3753      3958      3959
 -1      1967    8    0    1
 -2       961      1026      1027      3956      3960      3958
 -1      1968    8    0    1
 -2       963       962      1028      3756      3961      3962
 -1      1969    8    0    1
 -2       962      1027      1028      3959      3963      3961
 -1      1970    8    0    1
 -2       964       963      1029      3759      3964      3965
 -1      1971    8    0    1
 -2       963      1028      1029      3962      3966      3964
 -1      1972    8    0    1
 -2       969       972      1030      3782      3967      3968
 -1      1973    8    0    1
 -2       997       911      1004      3865      3890      3969
 -1      1974    8    0    1
 -2       938       937      1031      3681      3970      3971
 -1      1975    8    0    1
 -2       938      1031      1008      3971      3972      3901
 -1      1976    8    0    1
 -2       906       968       951      3769      3973      3974
 -1      1977    8    0    1
 -2       966       969      1032      3772      3975      3976
 -1      1978    8    0    1
 -2       969      1030      1032      3968      3977      3975
 -1      1979    8    0    1
 -2       970       928      1033      3776      3978      3979
 -1      1980    8    0    1
 -2       928       990      1033      3872      3980      3978
 -1      1981    8    0    1
 -2       971       966      1034      3779      3981      3982
 -1      1982    8    0    1
 -2       966      1032      1034      3976      3983      3981
 -1      1983    8    0    1
 -2       973       974      1035      3788      3984      3985
 -1      1984    8    0    1
 -2       974       975      1036      3791      3986      3987
 -1      1985    8    0    1
 -2       974      1036      1035      3987      3988      3984
 -1      1986    8    0    1
 -2       975       976      1037      3794      3989      3990
 -1      1987    8    0    1
 -2       975      1037      1036      3990      3991      3986
 -1      1988    8    0    1
 -2       979       917      1038      3805      3992      3993
 -1      1989    8    0    1
 -2       917       992      1038      3848      3994      3992
 -1      1990    8    0    1
 -2       980       967      1039      3808      3995      3996
 -1      1991    8    0    1
 -2       999       982       993      3873      3997      3998
 -1      1992    8    0    1
 -2       930       906       951      3649      3974      3851
 -1      1993    8    0    1
 -2       993       982       950      3997      3861      3850
 -1      1994    8    0    1
 -2       989       981      1040      3836      3999      4000
 -1      1995    8    0    1
 -2       989      1040      1007      4000      4001      3899
 -1      1996    8    0    1
 -2       972       973      1041      3785      4002      4003
 -1      1997    8    0    1
 -2      1030       972      1041      3967      4003      4004
 -1      1998    8    0    1
 -2       973      1035      1041      3985      4005      4002
 -1      1999    8    0    1
 -2       987       934      1042      3831      4006      4007
 -1      2000    8    0    1
 -2       986       987      1042      3884      4007      4008
 -1      2001    8    0    1
 -2       934      1000      1042      3877      4009      4006
 -1      2002    8    0    1
 -2       948       964      1043      3885      4010      4011
 -1      2003    8    0    1
 -2       978       948      1043      3802      4011      4012
 -1      2004    8    0    1
 -2       964      1029      1043      3965      4013      4010
 -1      2005    8    0    1
 -2       967       986      1044      3827      4014      4015
 -1      2006    8    0    1
 -2       967      1044      1039      4015      4016      3995
 -1      2007    8    0    1
 -2      1004       912       926      3889      4017      4018
 -1      2008    8    0    1
 -2       990       929      1045      3842      4019      4020
 -1      2009    8    0    1
 -2      1033       990      1045      3980      4020      4021
 -1      2010    8    0    1
 -2       929       991      1045      3846      4022      4019
 -1      2011    8    0    1
 -2       926       931      1004      3652      4023      4018
 -1      2012    8    0    1
 -2       952       951      1046      3723      4024      4025
 -1      2013    8    0    1
 -2      1018       952      1046      3932      4025      4026
 -1      2014    8    0    1
 -2       951       968      1046      3973      4027      4024
 -1      2015    8    0    1
 -2       836       926       912      3670      4017      4028
 -1      2016    8    0    1
 -2       927       923      1047      3871      4029      4030
 -1      2017    8    0    1
 -2       995       927      1047      3857      4030      4031
 -1      2018    8    0    1
 -2       923       996      1047      3863      4032      4029
 -1      2019    8    0    1
 -2       924       997      1048      3866      4033      4034
 -1      2020    8    0    1
 -2       968       965      1046      3852      4035      4027
 -1      2021    8    0    1
 -2       932       979      1049      3870      4036      4037
 -1      2022    8    0    1
 -2      1001       932      1049      3880      4037      4038
 -1      2023    8    0    1
 -2       979      1038      1049      3993      4039      4036
 -1      2024    8    0    1
 -2       823       836       912      3373      4028      3578
 -1      2025    8    0    1
 -2      1004       931      1002      4023      3882      4040
 -1      2026    8    0    1
 -2       999       993      1050      3998      4041      4042
 -1      2027    8    0    1
 -2       993      1001      1050      3879      4043      4041
 -1      2028    8    0    1
 -2       991       978      1051      3844      4044      4045
 -1      2029    8    0    1
 -2       978      1043      1051      4012      4046      4044
 -1      2030    8    0    1
 -2       970      1033       977      3979      4047      3798
 -1      2031    8    0    1
 -2      1000       925      1052      3875      4048      4049
 -1      2032    8    0    1
 -2       925       998      1052      3868      4050      4048
 -1      2033    8    0    1
 -2       994       924      1048      3855      4034      4051
 -1      2034    8    0    1
 -2       996       980      1053      3864      4052      4053
 -1      2035    8    0    1
 -2       980      1039      1053      3996      4054      4052
 -1      2036    8    0    1
 -2      1031       937      1007      3970      3900      4055
 -1      2037    8    0    1
 -2       986      1042      1044      4008      4056      4014
 -1      2038    8    0    1
 -2      1040       981      1054      3999      4057      4058
 -1      2039    8    0    1
 -2       981       984      1054      3818      4059      4057
 -1      2040    8    0    1
 -2      1037       976      1055      3989      4060      4061
 -1      2041    8    0    1
 -2       976       977      1055      3797      4062      4060
 -1      2042    8    0    1
 -2      1038       992      1056      3994      4063      4064
 -1      2043    8    0    1
 -2       985       949      1057      3823      4065      4066
 -1      2044    8    0    1
 -2      1017       985      1057      3930      4066      4067
 -1      2045    8    0    1
 -2       949      1016      1057      3926      4068      4065
 -1      2046    8    0    1
 -2       984       947      1017      3819      3929      4069
 -1      2047    8    0    1
 -2      1002       983      1058      3883      4070      4071
 -1      2048    8    0    1
 -2      1005       999      1050      3893      4042      4072
 -1      2049    8    0    1
 -2       971      1034      1059      3982      4073      4074
 -1      2050    8    0    1
 -2       971      1059      1003      4074      4075      3886
 -1      2051    8    0    1
 -2       988      1015      1060      3931      4076      4077
 -1      2052    8    0    1
 -2       998       988      1060      3869      4077      4078
 -1      2053    8    0    1
 -2      1015      1014      1060      3924      4079      4076
 -1      2054    8    0    1
 -2       983      1006      1061      3896      4080      4081
 -1      2055    8    0    1
 -2       983      1061      1058      4081      4082      4070
 -1      2056    8    0    1
 -2      1046       965      1062      4035      4083      4084
 -1      2057    8    0    1
 -2       992       995      1063      3859      4085      4086
 -1      2058    8    0    1
 -2       992      1063      1056      4086      4087      4063
 -1      2059    8    0    1
 -2      1062       965       994      4083      3854      4088
 -1      2060    8    0    1
 -2       984      1017      1054      4069      4089      4059
 -1      2061    8    0    1
 -2      1010      1009      1064      3908      4090      4091
 -1      2062    8    0    1
 -2      1011      1010      1065      3911      4092      4093
 -1      2063    8    0    1
 -2      1010      1064      1065      4091      4094      4092
 -1      2064    8    0    1
 -2      1012      1011      1066      3914      4095      4096
 -1      2065    8    0    1
 -2      1011      1065      1066      4093      4097      4095
 -1      2066    8    0    1
 -2      1013      1012      1067      3917      4098      4099
 -1      2067    8    0    1
 -2      1012      1066      1067      4096      4100      4098
 -1      2068    8    0    1
 -2      1014      1013      1068      3920      4101      4102
 -1      2069    8    0    1
 -2      1060      1014      1068      4079      4102      4103
 -1      2070    8    0    1
 -2      1013      1067      1068      4099      4104      4101
 -1      2071    8    0    1
 -2      1032      1030      1069      3977      4105      4106
 -1      2072    8    0    1
 -2      1019      1018      1070      3936      4107      4108
 -1      2073    8    0    1
 -2      1050      1001      1071      4043      4109      4110
 -1      2074    8    0    1
 -2      1001      1049      1071      4038      4111      4109
 -1      2075    8    0    1
 -2      1007      1040      1072      4001      4112      4113
 -1      2076    8    0    1
 -2      1016      1005      1073      3927      4114      4115
 -1      2077    8    0    1
 -2      1039      1044      1074      4016      4116      4117
 -1      2078    8    0    1
 -2      1020      1019      1075      3939      4118      4119
 -1      2079    8    0    1
 -2      1019      1070      1075      4108      4120      4118
 -1      2080    8    0    1
 -2      1021      1020      1076      3942      4121      4122
 -1      2081    8    0    1
 -2      1020      1075      1076      4119      4123      4121
 -1      2082    8    0    1
 -2      1022      1021      1077      3945      4124      4125
 -1      2083    8    0    1
 -2      1021      1076      1077      4122      4126      4124
 -1      2084    8    0    1
 -2      1023      1022      1078      3948      4127      4128
 -1      2085    8    0    1
 -2      1022      1077      1078      4125      4129      4127
 -1      2086    8    0    1
 -2      1024      1023      1079      3951      4130      4131
 -1      2087    8    0    1
 -2      1023      1078      1079      4128      4132      4130
 -1      2088    8    0    1
 -2      1025      1024      1080      3954      4133      4134
 -1      2089    8    0    1
 -2      1024      1079      1080      4131      4135      4133
 -1      2090    8    0    1
 -2      1026      1025      1081      3957      4136      4137
 -1      2091    8    0    1
 -2      1025      1080      1081      4134      4138      4136
 -1      2092    8    0    1
 -2      1027      1026      1082      3960      4139      4140
 -1      2093    8    0    1
 -2      1026      1081      1082      4137      4141      4139
 -1      2094    8    0    1
 -2      1028      1027      1083      3963      4142      4143
 -1      2095    8    0    1
 -2      1027      1082      1083      4140      4144      4142
 -1      2096    8    0    1
 -2      1029      1028      1084      3966      4145      4146
 -1      2097    8    0    1
 -2      1028      1083      1084      4143      4147      4145
 -1      2098    8    0    1
 -2      1042      1000      1085      4009      4148      4149
 -1      2099    8    0    1
 -2      1000      1052      1085      4049      4150      4148
 -1      2100    8    0    1
 -2       994      1048      1086      4051      4151      4152
 -1      2101    8    0    1
 -2      1034      1032      1087      3983      4153      4154
 -1      2102    8    0    1
 -2      1032      1069      1087      4106      4155      4153
 -1      2103    8    0    1
 -2      1036      1037      1088      3991      4156      4157
 -1      2104    8    0    1
 -2      1035      1036      1089      3988      4158      4159
 -1      2105    8    0    1
 -2      1036      1088      1089      4157      4160      4158
 -1      2106    8    0    1
 -2      1062       994      1086      4088      4152      4161
 -1      2107    8    0    1
 -2      1044      1042      1085      4056      4149      4162
 -1      2108    8    0    1
 -2      1018      1046      1062      4026      4084      4163
 -1      2109    8    0    1
 -2      1031      1007      1090      4055      4164      4165
 -1      2110    8    0    1
 -2      1007      1072      1090      4113      4166      4164
 -1      2111    8    0    1
 -2      1005      1050      1073      4072      4167      4114
 -1      2112    8    0    1
 -2      1043      1029      1091      4013      4168      4169
 -1      2113    8    0    1
 -2      1051      1043      1091      4046      4169      4170
 -1      2114    8    0    1
 -2      1029      1084      1091      4146      4171      4168
 -1      2115    8    0    1
 -2      1002      1058      1048      4071      4172      4173
 -1      2116    8    0    1
 -2       977      1033      1055      4047      4174      4062
 -1      2117    8    0    1
 -2      1006      1003      1092      3897      4175      4176
 -1      2118    8    0    1
 -2      1003      1059      1092      4075      4177      4175
 -1      2119    8    0    1
 -2      1008      1031      1093      3972      4178      4179
 -1      2120    8    0    1
 -2      1031      1090      1093      4165      4180      4178
 -1      2121    8    0    1
 -2      1009      1008      1094      3905      4181      4182
 -1      2122    8    0    1
 -2      1008      1093      1094      4179      4183      4181
 -1      2123    8    0    1
 -2      1018      1062      1070      4163      4184      4107
 -1      2124    8    0    1
 -2      1048      1058      1086      4172      4185      4151
 -1      2125    8    0    1
 -2      1030      1041      1095      4004      4186      4187
 -1      2126    8    0    1
 -2      1030      1095      1069      4187      4188      4105
 -1      2127    8    0    1
 -2      1064      1009      1094      4090      4182      4189
 -1      2128    8    0    1
 -2      1062      1086      1070      4161      4190      4184
 -1      2129    8    0    1
 -2      1086      1058      1096      4185      4191      4192
 -1      2130    8    0    1
 -2      1058      1061      1096      4082      4193      4191
 -1      2131    8    0    1
 -2      1072      1040      1097      4112      4194      4195
 -1      2132    8    0    1
 -2      1040      1054      1097      4058      4196      4194
 -1      2133    8    0    1
 -2      1016      1073      1098      4115      4197      4198
 -1      2134    8    0    1
 -2      1016      1098      1057      4198      4199      4068
 -1      2135    8    0    1
 -2      1053      1039      1099      4054      4200      4201
 -1      2136    8    0    1
 -2      1039      1074      1099      4117      4202      4200
 -1      2137    8    0    1
 -2      1048       997      1002      4033      4203      4173
 -1      2138    8    0    1
 -2      1061      1006      1092      4080      4176      4204
 -1      2139    8    0    1
 -2       997      1004      1002      3969      4040      4203
 -1      2140    8    0    1
 -2      1034      1087      1100      4154      4205      4206
 -1      2141    8    0    1
 -2      1034      1100      1059      4206      4207      4073
 -1      2142    8    0    1
 -2       996      1053      1101      4053      4208      4209
 -1      2143    8    0    1
 -2       996      1101      1047      4209      4210      4032
 -1      2144    8    0    1
 -2      1088      1037      1102      4156      4211      4212
 -1      2145    8    0    1
 -2      1037      1055      1102      4061      4213      4211
 -1      2146    8    0    1
 -2      1035      1089      1103      4159      4214      4215
 -1      2147    8    0    1
 -2      1035      1103      1041      4215      4216      4005
 -1      2148    8    0    1
 -2      1038      1056      1104      4064      4217      4218
 -1      2149    8    0    1
 -2      1044      1085      1074      4162      4219      4116
 -1      2150    8    0    1
 -2      1038      1104      1049      4218      4220      4039
 -1      2151    8    0    1
 -2      1045       991      1051      4022      4045      4221
 -1      2152    8    0    1
 -2       995      1047      1105      4031      4222      4223
 -1      2153    8    0    1
 -2      1063       995      1105      4085      4223      4224
 -1      2154    8    0    1
 -2      1047      1101      1105      4210      4225      4222
 -1      2155    8    0    1
 -2       998      1060      1106      4078      4226      4227
 -1      2156    8    0    1
 -2      1052       998      1106      4050      4227      4228
 -1      2157    8    0    1
 -2      1060      1068      1106      4103      4229      4226
 -1      2158    8    0    1
 -2      1055      1033      1107      4174      4230      4231
 -1      2159    8    0    1
 -2      1102      1055      1107      4213      4231      4232
 -1      2160    8    0    1
 -2      1033      1045      1107      4021      4233      4230
 -1      2161    8    0    1
 -2      1056      1063      1108      4087      4234      4235
 -1      2162    8    0    1
 -2      1104      1056      1109      4217      4236      4237
 -1      2163    8    0    1
 -2      1056      1108      1109      4235      4238      4236
 -1      2164    8    0    1
 -2      1089      1088      1110      4160      4239      4240
 -1      2165    8    0    1
 -2      1066      1065      1111      4097      4241      4242
 -1      2166    8    0    1
 -2      1067      1066      1074      4100      4243      4244
 -1      2167    8    0    1
 -2      1061      1092      1112      4204      4245      4246
 -1      2168    8    0    1
 -2      1061      1112      1096      4246      4247      4193
 -1      2169    8    0    1
 -2      1050      1071      1113      4110      4248      4249
 -1      2170    8    0    1
 -2      1087      1069      1114      4155      4250      4251
 -1      2171    8    0    1
 -2      1076      1075      1112      4123      4252      4253
 -1      2172    8    0    1
 -2      1078      1077      1115      4129      4254      4255
 -1      2173    8    0    1
 -2      1080      1079      1114      4135      4256      4257
 -1      2174    8    0    1
 -2      1081      1080      1116      4138      4258      4259
 -1      2175    8    0    1
 -2      1082      1081      1103      4141      4260      4261
 -1      2176    8    0    1
 -2      1084      1083      1110      4147      4262      4263
 -1      2177    8    0    1
 -2      1085      1052      1106      4150      4228      4264
 -1      2178    8    0    1
 -2      1075      1070      1096      4120      4265      4266
 -1      2179    8    0    1
 -2      1108      1063      1117      4234      4267      4268
 -1      2180    8    0    1
 -2      1063      1105      1117      4224      4269      4267
 -1      2181    8    0    1
 -2      1017      1057      1054      4067      4270      4089
 -1      2182    8    0    1
 -2      1074      1085      1106      4219      4264      4271
 -1      2183    8    0    1
 -2      1090      1072      1118      4166      4272      4273
 -1      2184    8    0    1
 -2      1049      1104      1071      4220      4274      4111
 -1      2185    8    0    1
 -2      1070      1086      1096      4190      4192      4265
 -1      2186    8    0    1
 -2      1064      1094      1119      4189      4275      4276
 -1      2187    8    0    1
 -2      1092      1059      1120      4177      4277      4278
 -1      2188    8    0    1
 -2      1059      1100      1120      4207      4279      4277
 -1      2189    8    0    1
 -2      1093      1090      1108      4180      4280      4281
 -1      2190    8    0    1
 -2      1073      1050      1113      4167      4249      4282
 -1      2191    8    0    1
 -2      1065      1064      1121      4094      4283      4284
 -1      2192    8    0    1
 -2      1065      1121      1111      4284      4285      4241
 -1      2193    8    0    1
 -2      1094      1093      1117      4183      4286      4287
 -1      2194    8    0    1
 -2      1045      1051      1107      4221      4288      4233
 -1      2195    8    0    1
 -2      1113      1071      1122      4248      4289      4290
 -1      2196    8    0    1
 -2      1071      1104      1122      4274      4291      4289
 -1      2197    8    0    1
 -2      1093      1108      1117      4281      4268      4286
 -1      2198    8    0    1
 -2      1073      1113      1123      4282      4292      4293
 -1      2199    8    0    1
 -2      1113      1122      1123      4290      4294      4292
 -1      2200    8    0    1
 -2      1067      1074      1106      4244      4271      4295
 -1      2201    8    0    1
 -2      1097      1054      1098      4196      4296      4297
 -1      2202    8    0    1
 -2      1072      1097      1124      4195      4298      4299
 -1      2203    8    0    1
 -2      1118      1072      1124      4272      4299      4300
 -1      2204    8    0    1
 -2      1097      1098      1124      4297      4301      4298
 -1      2205    8    0    1
 -2      1087      1114      1125      4251      4302      4303
 -1      2206    8    0    1
 -2      1100      1087      1125      4205      4303      4304
 -1      2207    8    0    1
 -2      1114      1079      1125      4256      4305      4302
 -1      2208    8    0    1
 -2      1103      1081      1116      4260      4259      4306
 -1      2209    8    0    1
 -2      1078      1115      1125      4255      4307      4308
 -1      2210    8    0    1
 -2      1077      1076      1126      4126      4309      4310
 -1      2211    8    0    1
 -2      1080      1114      1116      4257      4311      4258
 -1      2212    8    0    1
 -2      1079      1078      1125      4132      4308      4305
 -1      2213    8    0    1
 -2      1082      1103      1089      4261      4214      4312
 -1      2214    8    0    1
 -2      1084      1110      1127      4263      4313      4314
 -1      2215    8    0    1
 -2      1091      1084      1127      4171      4314      4315
 -1      2216    8    0    1
 -2      1110      1088      1127      4239      4316      4313
 -1      2217    8    0    1
 -2      1064      1119      1121      4276      4317      4283
 -1      2218    8    0    1
 -2      1112      1075      1096      4252      4266      4247
 -1      2219    8    0    1
 -2      1126      1076      1112      4309      4253      4318
 -1      2220    8    0    1
 -2      1101      1053      1121      4208      4319      4320
 -1      2221    8    0    1
 -2      1115      1077      1126      4254      4310      4321
 -1      2222    8    0    1
 -2      1098      1054      1057      4296      4270      4199
 -1      2223    8    0    1
 -2      1127      1088      1102      4316      4212      4322
 -1      2224    8    0    1
 -2      1082      1089      1110      4312      4240      4323
 -1      2225    8    0    1
 -2      1114      1069      1116      4250      4324      4311
 -1      2226    8    0    1
 -2      1074      1066      1111      4243      4242      4325
 -1      2227    8    0    1
 -2      1094      1117      1119      4287      4326      4275
 -1      2228    8    0    1
 -2      1108      1090      1118      4280      4273      4327
 -1      2229    8    0    1
 -2      1107      1051      1102      4288      4328      4232
 -1      2230    8    0    1
 -2      1104      1109      1122      4237      4329      4291
 -1      2231    8    0    1
 -2      1117      1105      1119      4269      4330      4326
 -1      2232    8    0    1
 -2      1126      1112      1120      4318      4331      4332
 -1      2233    8    0    1
 -2      1051      1091      1102      4170      4333      4328
 -1      2234    8    0    1
 -2      1098      1073      1123      4197      4293      4334
 -1      2235    8    0    1
 -2      1101      1121      1119      4320      4317      4335
 -1      2236    8    0    1
 -2      1125      1115      1100      4307      4336      4304
 -1      2237    8    0    1
 -2      1083      1082      1110      4144      4323      4262
 -1      2238    8    0    1
 -2      1069      1095      1116      4188      4337      4324
 -1      2239    8    0    1
 -2      1053      1099      1121      4201      4338      4319
 -1      2240    8    0    1
 -2      1115      1126      1120      4321      4332      4339
 -1      2241    8    0    1
 -2      1100      1115      1120      4336      4339      4279
 -1      2242    8    0    1
 -2      1095      1041      1103      4186      4216      4340
 -1      2243    8    0    1
 -2      1112      1092      1120      4245      4278      4331
 -1      2244    8    0    1
 -2      1105      1101      1119      4225      4335      4330
 -1      2245    8    0    1
 -2      1067      1106      1068      4295      4229      4104
 -1      2246    8    0    1
 -2      1099      1074      1111      4202      4325      4341
 -1      2247    8    0    1
 -2      1122      1109      1118      4329      4342      4343
 -1      2248    8    0    1
 -2      1109      1108      1118      4238      4327      4342
 -1      2249    8    0    1
 -2      1122      1118      1124      4343      4300      4344
 -1      2250    8    0    1
 -2      1116      1095      1103      4337      4340      4306
 -1      2251    8    0    1
 -2      1111      1121      1099      4285      4338      4341
 -1      2252    8    0    1
 -2      1123      1122      1124      4294      4344      4345
 -1      2253    8    0    1
 -2      1102      1091      1127      4333      4315      4322
 -1      2254    8    0    1
 -2      1098      1123      1124      4334      4345      4301
 -3
    1PSTEP                         1           1           1          
  100CL  101 1.000000000        4345                     0    1           1
 -4  DISP        4    1
 -5  D1          1    2    1    0
 -5  D2          1    2    2    0
 -5  D3          1    2    3    0
 -5  ALL         1    2    0    0    1ALL
 -1         1 7.27587E-03-2.83510E-04-4.27688E-14
 -1         2 9.54875E-03 6.53877E-04-4.97446E-14
 -1         3 1.60777E-02 3.40065E-03-1.52922E-13
 -1         4 1.43876E-02 1.97165E-03-1.60161E-13
 -1         5 0.00000E+00 0.00000E+00 0.00000E+00
 -1         6 0.00000E+00 0.00000E+00 0.00000E+00
 -1         7 0.00000E+00 0.00000E+00 0.00000E+00
 -1         8 0.00000E+00 0.00000E+00 0.00000E+00
 -1         9 0.00000E+00 0.00000E+00 0.00000E+00
 -1        10 0.00000E+00 0.00000E+00 0.00000E+00
 -1        11 0.00000E+00 0.00000E+00 0.00000E+00
 -1        12 0.00000E+00 0.00000E+00 0.00000E+00
 -1        13 0.00000E+00 0.00000E+00 0.00000E+00
 -1        14 0.00000E+00 0.00000E+00 0.00000E+00
 -1        15 0.00000E+00 0.00000E+00 0.00000E+00
 -1        16 0.00000E+00 0.00000E+00 0.00000E+00
 -1        17 0.00000E+00 0.00000E+00 0.00000E+00
 -1        18 0.00000E+00 0.00000E+00 0.00000E+00
 -1        19 0.00000E+00 0.00000E+00 0.00000E+00
 -1        20 0.00000E+00 0.00000E+00 0.00000E+00
 -1        21 0.00000E+00 0.00000E+00 0.00000E+00
 -1        22 0.00000E+00 0.00000E+00 0.00000E+00
 -1        23 4.09710E-04-2.58922E-04 3.88043E-17
 -1        24 7.00909E-04-3.97057E-04-1.26099E-16
 -1        25 9.70727E-04-4.91931E-04-4.85848E-16
 -1        26 1.23547E-03-5.57777E-04-1.03565E-15
 -1        27 1.49985E-03-6.03708E-04-1.77108E-15
 -1        28 1.76618E-03-6.35101E-04-2.68900E-15
 -1        29 2.03566E-03-6.55714E-04-3.78558E-15
 -1        30 2.30902E-03-6.68378E-04-5.05739E-15
 -1        31 2.58673E-03-6.75367E-04-6.50166E-15
 -1        32 2.86910E-03-6.78627E-04-8.11343E-15
 -1        33 3.15638E-03-6.79940E-04-9.88478E-15
 -1        34 3.44867E-03-6.81036E-04-1.18045E-14
 -1        35 3.74593E-03-6.83668E-04-1.38731E-14
 -1        36 4.04774E-03-6.89608E-04-1.60884E-14
 -1        37 4.35318E-03-7.00544E-04-1.84451E-14
 -1        38 4.66061E-03-7.17825E-04-2.09387E-14
 -1        39 4.96750E-03-7.42023E-04-2.35631E-14
 -1        40 5.27048E-03-7.72330E-04-2.63157E-14
 -1        41 5.56568E-03-8.05913E-04-2.91901E-14
 -1        42 5.84950E-03-8.37501E-04-3.21962E-14
 -1        43 6.11979E-03-8.59584E-04-3.53322E-14
 -1        44 6.37698E-03-8.63557E-04-3.85935E-14
 -1        45 6.62468E-03-8.41740E-04-4.19775E-14
 -1        46 6.86909E-03-7.89637E-04-4.54856E-14
 -1        47 7.11738E-03-7.07413E-04-4.90998E-14
 -1        48 7.37564E-03-5.99835E-04-5.28167E-14
 -1        49 7.64728E-03-4.74703E-04-5.66297E-14
 -1        50 7.93256E-03-3.40588E-04-6.05418E-14
 -1        51 8.22928E-03-2.04868E-04-6.45419E-14
 -1        52 8.53390E-03-7.26681E-05-6.86262E-14
 -1        53 8.84269E-03 5.32789E-05-7.27769E-14
 -1        54 9.15250E-03 1.72174E-04-7.69927E-14
 -1        55 9.46106E-03 2.84490E-04-8.12637E-14
 -1        56 9.76701E-03 3.91362E-04-8.55891E-14
 -1        57 1.00697E-02 4.94134E-04-8.99706E-14
 -1        58 1.03691E-02 5.94087E-04-9.43975E-14
 -1        59 1.06653E-02 6.92302E-04-9.88733E-14
 -1        60 1.09589E-02 7.89613E-04-1.03399E-13
 -1        61 1.12502E-02 8.86623E-04-1.07963E-13
 -1        62 1.15398E-02 9.83730E-04-1.12558E-13
 -1        63 1.18280E-02 1.08118E-03-1.17198E-13
 -1        64 1.21153E-02 1.17909E-03-1.21889E-13
 -1        65 1.24018E-02 1.27751E-03-1.26637E-13
 -1        66 1.26879E-02 1.37643E-03-1.31427E-13
 -1        67 1.29737E-02 1.47580E-03-1.36249E-13
 -1        68 1.32594E-02 1.57555E-03-1.41077E-13
 -1        69 1.35450E-02 1.67561E-03-1.45882E-13
 -1        70 1.38306E-02 1.77588E-03-1.50693E-13
 -1        71 1.41162E-02 1.87627E-03-1.55536E-13
 -1        72 4.12031E-04 2.59582E-04 8.08476E-17
 -1        73 7.00531E-04 3.99643E-04-1.03541E-17
 -1        74 9.70934E-04 4.93445E-04-2.69177E-16
 -1        75 1.23582E-03 5.58974E-04-6.97799E-16
 -1        76 1.50019E-03 6.04525E-04-1.29792E-15
 -1        77 1.76646E-03 6.35325E-04-2.06861E-15
 -1        78 2.03598E-03 6.54984E-04-3.00682E-15
 -1        79 2.30962E-03 6.66156E-04-4.10965E-15
 -1        80 2.58815E-03 6.70906E-04-5.37156E-15
 -1        81 2.87241E-03 6.70947E-04-6.78972E-15
 -1        82 3.16348E-03 6.67862E-04-8.36403E-15
 -1        83 3.46287E-03 6.63334E-04-1.00919E-14
 -1        84 3.77265E-03 6.59454E-04-1.19653E-14
 -1        85 4.09559E-03 6.59159E-04-1.39848E-14
 -1        86 4.43518E-03 6.66829E-04-1.61506E-14
 -1        87 4.79533E-03 6.89089E-04-1.84583E-14
 -1        88 5.17945E-03 7.35632E-04-2.08994E-14
 -1        89 5.58825E-03 8.19438E-04-2.34627E-14
 -1        90 6.03737E-03 9.63163E-04-2.62817E-14
 -1        91 6.46573E-03 1.16148E-03-2.90916E-14
 -1        92 6.86438E-03 1.40715E-03-3.20288E-14
 -1        93 7.20357E-03 1.65264E-03-3.50836E-14
 -1        94 7.45384E-03 1.81172E-03-3.79308E-14
 -1        95 7.70496E-03 1.86362E-03-4.12121E-14
 -1        96 7.96895E-03 1.79144E-03-4.44410E-14
 -1        97 8.30981E-03 1.64531E-03-4.79289E-14
 -1        98 8.71035E-03 1.50060E-03-5.15013E-14
 -1        99 9.14002E-03 1.40398E-03-5.51570E-14
 -1       100 9.56897E-03 1.36743E-03-5.88823E-14
 -1       101 9.97975E-03 1.38289E-03-6.26698E-14
 -1       102 1.03663E-02 1.43617E-03-6.65325E-14
 -1       103 1.07471E-02 1.51859E-03-7.06795E-14
 -1       104 1.10896E-02 1.61233E-03-7.47085E-14
 -1       105 1.14165E-02 1.71446E-03-7.88209E-14
 -1       106 1.17318E-02 1.82097E-03-8.30074E-14
 -1       107 1.20383E-02 1.92945E-03-8.72567E-14
 -1       108 1.23384E-02 2.03848E-03-9.15672E-14
 -1       109 1.26339E-02 2.14727E-03-9.59590E-14
 -1       110 1.29262E-02 2.25540E-03-1.00436E-13
 -1       111 1.32161E-02 2.36270E-03-1.04978E-13
 -1       112 1.35043E-02 2.46912E-03-1.09596E-13
 -1       113 1.37915E-02 2.57470E-03-1.14278E-13
 -1       114 1.40779E-02 2.67951E-03-1.19018E-13
 -1       115 1.43639E-02 2.78367E-03-1.23793E-13
 -1       116 1.46496E-02 2.88726E-03-1.28614E-13
 -1       117 1.49352E-02 2.99041E-03-1.33462E-13
 -1       118 1.52208E-02 3.09321E-03-1.38337E-13
 -1       119 1.55063E-02 3.19578E-03-1.43202E-13
 -1       120 1.57920E-02 3.29822E-03-1.48046E-13
 -1       121 1.59769E-02 3.31635E-03-1.53389E-13
 -1       122 1.58762E-02 3.23200E-03-1.53857E-13
 -1       123 1.57756E-02 3.14760E-03-1.54331E-13
 -1       124 1.56751E-02 3.06319E-03-1.54812E-13
 -1       125 1.55748E-02 2.97880E-03-1.55270E-13
 -1       126 1.54765E-02 2.89591E-03-1.55709E-13
 -1       127 1.53765E-02 2.81165E-03-1.56155E-13
 -1       128 1.52767E-02 2.72745E-03-1.56588E-13
 -1       129 1.51771E-02 2.64327E-03-1.56994E-13
 -1       130 1.50775E-02 2.55908E-03-1.57388E-13
 -1       131 1.49780E-02 2.47484E-03-1.57785E-13
 -1       132 1.48804E-02 2.39198E-03-1.58180E-13
 -1       133 1.47812E-02 2.30763E-03-1.58582E-13
 -1       134 1.46822E-02 2.22325E-03-1.58989E-13
 -1       135 1.45834E-02 2.13886E-03-1.59398E-13
 -1       136 1.44847E-02 2.05452E-03-1.59787E-13
 -1       137 9.54367E-03 8.23813E-04-4.94203E-14
 -1       138 9.44184E-03 9.95004E-04-4.87367E-14
 -1       139 9.23812E-03 1.16080E-03-4.77164E-14
 -1       140 8.94020E-03 1.30841E-03-4.64414E-14
 -1       141 8.54754E-03 1.43234E-03-4.49153E-14
 -1       142 8.08204E-03 1.51454E-03-4.32466E-14
 -1       143 7.59489E-03 1.54143E-03-4.16071E-14
 -1       144 7.07073E-03 1.50861E-03-3.99273E-14
 -1       145 6.55063E-03 1.41353E-03-3.83255E-14
 -1       146 6.03890E-03 1.25642E-03-3.68120E-14
 -1       147 5.63324E-03 1.07450E-03-3.56500E-14
 -1       148 5.33678E-03 8.89876E-04-3.48480E-14
 -1       149 5.13962E-03 7.09336E-04-3.43620E-14
 -1       150 5.02767E-03 5.25822E-04-3.41541E-14
 -1       151 5.01289E-03 3.37915E-04-3.42744E-14
 -1       152 5.11256E-03 1.57650E-04-3.47738E-14
 -1       153 5.29425E-03 1.31250E-05-3.55208E-14
 -1       154 5.55886E-03-1.09043E-04-3.65403E-14
 -1       155 5.91032E-03-2.08041E-04-3.78513E-14
 -1       156 6.30594E-03-2.70439E-04-3.92953E-14
 -1       157 6.80609E-03-2.99108E-04-4.11015E-14
 -1       158 7.74042E-03-2.31328E-04-4.43904E-14
 -1       159 8.21616E-03-1.36759E-04-4.60209E-14
 -1       160 8.62005E-03-1.84616E-05-4.73562E-14
 -1       161 8.97443E-03 1.26851E-04-4.84686E-14
 -1       162 9.26402E-03 2.96642E-04-4.92840E-14
 -1       163 9.45130E-03 4.68576E-04-4.97030E-14
 -1       164 2.40260E-04-1.24209E-04-4.38119E-17
 -1       165 2.25407E-04-9.32170E-05-6.86164E-17
 -1       166 2.19738E-04-7.13349E-05-8.12643E-17
 -1       167 2.16926E-04-5.37273E-05-8.77323E-17
 -1       168 2.15368E-04-3.87802E-05-9.06495E-17
 -1       169 2.14456E-04-2.50446E-05-9.14287E-17
 -1       170 2.13981E-04-1.21822E-05-9.08460E-17
 -1       171 2.13842E-04 2.73071E-07-8.99312E-17
 -1       172 2.14014E-04 1.27381E-05-8.79627E-17
 -1       173 2.14524E-04 2.56341E-05-8.50048E-17
 -1       174 2.15452E-04 3.91987E-05-8.05698E-17
 -1       175 2.17069E-04 5.45223E-05-7.36648E-17
 -1       176 2.19930E-04 7.23612E-05-6.28329E-17
 -1       177 2.25589E-04 9.46089E-05-4.47911E-17
 -1       178 2.39171E-04 1.26274E-04-1.45622E-17
 -1       179 2.97021E-04 1.83984E-04 1.79164E-17
 -1       180 4.67881E-04-2.60852E-04-1.17348E-16
 -1       181 7.65888E-04-3.77037E-04-4.13948E-16
 -1       182 1.05001E-03-4.57103E-04-8.91536E-16
 -1       183 1.32817E-03-5.12620E-04-1.54983E-15
 -1       184 1.60419E-03-5.50566E-04-2.38701E-15
 -1       185 1.88031E-03-5.75633E-04-3.40031E-15
 -1       186 2.15793E-03-5.91192E-04-4.58727E-15
 -1       187 2.43791E-03-5.99842E-04-5.94362E-15
 -1       188 2.72086E-03-6.03714E-04-7.46588E-15
 -1       189 3.00716E-03-6.04687E-04-9.14950E-15
 -1       190 3.29709E-03-6.04535E-04-1.09858E-14
 -1       191 3.59073E-03-6.05039E-04-1.29693E-14
 -1       192 3.88796E-03-6.08039E-04-1.50999E-14
 -1       193 4.18837E-03-6.15401E-04-1.73723E-14
 -1       194 4.49112E-03-6.28843E-04-1.97843E-14
 -1       195 4.79485E-03-6.49585E-04-2.23301E-14
 -1       196 5.09764E-03-6.77789E-04-2.50046E-14
 -1       197 5.39714E-03-7.11841E-04-2.78027E-14
 -1       198 5.69091E-03-7.47679E-04-3.07265E-14
 -1       199 5.97700E-03-7.78542E-04-3.37782E-14
 -1       200 6.25473E-03-7.95586E-04-3.69616E-14
 -1       201 6.52528E-03-7.89639E-04-4.02677E-14
 -1       202 6.79174E-03-7.53724E-04-4.36969E-14
 -1       203 7.05841E-03-6.85336E-04-4.72427E-14
 -1       204 7.32955E-03-5.87325E-04-5.08926E-14
 -1       205 7.60816E-03-4.66887E-04-5.46420E-14
 -1       206 7.89529E-03-3.33222E-04-5.84866E-14
 -1       207 8.19021E-03-1.95057E-04-6.24260E-14
 -1       208 8.49099E-03-5.89771E-05-6.64483E-14
 -1       209 8.79527E-03 7.11063E-05-7.05471E-14
 -1       210 9.10081E-03 1.93649E-04-7.47098E-14
 -1       211 9.40587E-03 3.08778E-04-7.89333E-14
 -1       212 9.70927E-03 4.17561E-04-8.32137E-14
 -1       213 1.00104E-02 5.21443E-04-8.75507E-14
 -1       214 1.03089E-02 6.21874E-04-9.19423E-14
 -1       215 1.06049E-02 7.20114E-04-9.63849E-14
 -1       216 1.08987E-02 8.17158E-04-1.00876E-13
 -1       217 1.11904E-02 9.13735E-04-1.05407E-13
 -1       218 1.14806E-02 1.01034E-03-1.09975E-13
 -1       219 1.17694E-02 1.10728E-03-1.14587E-13
 -1       220 1.20573E-02 1.20471E-03-1.19245E-13
 -1       221 1.23444E-02 1.30271E-03-1.23950E-13
 -1       222 1.26309E-02 1.40126E-03-1.28703E-13
 -1       223 1.29171E-02 1.50034E-03-1.33495E-13
 -1       224 1.32030E-02 1.59987E-03-1.38311E-13
 -1       225 1.34889E-02 1.69976E-03-1.43129E-13
 -1       226 1.37746E-02 1.79993E-03-1.47944E-13
 -1       227 1.40603E-02 1.90029E-03-1.52776E-13
 -1       228 6.03403E-04 3.27309E-04-1.00499E-16
 -1       229 8.92409E-04 4.26234E-04-3.76767E-16
 -1       230 1.17168E-03 4.94764E-04-8.17109E-16
 -1       231 1.44700E-03 5.42008E-04-1.42448E-15
 -1       232 1.72159E-03 5.73672E-04-2.19928E-15
 -1       233 1.99736E-03 5.93632E-04-3.13917E-15
 -1       234 2.27559E-03 6.04688E-04-4.24225E-15
 -1       235 2.55726E-03 6.08969E-04-5.50393E-15
 -1       236 2.84327E-03 6.08195E-04-6.91952E-15
 -1       237 3.13462E-03 6.03897E-04-8.48938E-15
 -1       238 3.43254E-03 5.97656E-04-1.02114E-14
 -1       239 3.73856E-03 5.91400E-04-1.20802E-14
 -1       240 4.05460E-03 5.87836E-04-1.40945E-14
 -1       241 4.38297E-03 5.91059E-04-1.62514E-14
 -1       242 4.72612E-03 6.07400E-04-1.85483E-14
 -1       243 5.08618E-03 6.46397E-04-2.09781E-14
 -1       244 5.46389E-03 7.21365E-04-2.35316E-14
 -1       245 5.87679E-03 8.56071E-04-2.63421E-14
 -1       246 6.27738E-03 1.04972E-03-2.91424E-14
 -1       247 6.67077E-03 1.29958E-03-3.20650E-14
 -1       248 7.04070E-03 1.56054E-03-3.51065E-14
 -1       249 7.34810E-03 1.73819E-03-3.79452E-14
 -1       250 7.67465E-03 1.80409E-03-4.12196E-14
 -1       251 7.99499E-03 1.73187E-03-4.44393E-14
 -1       252 8.36049E-03 1.57618E-03-4.79264E-14
 -1       253 8.75176E-03 1.42108E-03-5.15018E-14
 -1       254 9.15302E-03 1.31792E-03-5.51566E-14
 -1       255 9.54930E-03 1.27901E-03-5.88845E-14
 -1       256 9.93171E-03 1.29494E-03-6.26818E-14
 -1       257 1.02970E-02 1.35010E-03-6.65505E-14
 -1       258 1.06627E-02 1.43500E-03-7.06951E-14
 -1       259 1.09961E-02 1.53105E-03-7.47257E-14
 -1       260 1.13176E-02 1.63522E-03-7.88398E-14
 -1       261 1.16298E-02 1.74344E-03-8.30256E-14
 -1       262 1.19347E-02 1.85329E-03-8.72758E-14
 -1       263 1.22343E-02 1.96341E-03-9.15959E-14
 -1       264 1.25297E-02 2.07304E-03-9.59909E-14
 -1       265 1.28222E-02 2.18182E-03-1.00462E-13
 -1       266 1.31125E-02 2.28960E-03-1.04996E-13
 -1       267 1.34012E-02 2.39639E-03-1.09599E-13
 -1       268 1.36888E-02 2.50224E-03-1.14266E-13
 -1       269 1.39757E-02 2.60726E-03-1.18991E-13
 -1       270 1.42620E-02 2.71155E-03-1.23760E-13
 -1       271 1.45481E-02 2.81524E-03-1.28559E-13
 -1       272 1.48339E-02 2.91845E-03-1.33392E-13
 -1       273 1.51196E-02 3.02129E-03-1.38250E-13
 -1       274 1.54053E-02 3.12386E-03-1.43106E-13
 -1       275 1.56910E-02 3.22630E-03-1.47957E-13
 -1       276 1.56791E-02 3.18551E-03-1.49414E-13
 -1       277 1.55784E-02 3.10120E-03-1.49888E-13
 -1       278 1.54779E-02 3.01690E-03-1.50359E-13
 -1       279 1.53775E-02 2.93264E-03-1.50825E-13
 -1       280 1.52791E-02 2.84986E-03-1.51270E-13
 -1       281 1.51791E-02 2.76572E-03-1.51716E-13
 -1       282 1.50792E-02 2.68162E-03-1.52157E-13
 -1       283 1.49795E-02 2.59756E-03-1.52579E-13
 -1       284 1.48799E-02 2.51350E-03-1.52985E-13
 -1       285 1.47803E-02 2.42942E-03-1.53387E-13
 -1       286 1.46826E-02 2.34672E-03-1.53781E-13
 -1       287 1.45833E-02 2.26253E-03-1.54181E-13
 -1       288 1.44843E-02 2.17829E-03-1.54584E-13
 -1       289 1.43854E-02 2.09401E-03-1.54980E-13
 -1       290 1.42228E-02 1.99714E-03-1.53881E-13
 -1       291 9.58392E-03 7.28284E-04-5.10708E-14
 -1       292 9.50081E-03 8.24698E-04-5.05654E-14
 -1       293 9.28944E-03 9.56301E-04-4.94525E-14
 -1       294 8.97020E-03 1.11447E-03-4.81456E-14
 -1       295 8.58170E-03 1.30184E-03-4.64996E-14
 -1       296 8.17981E-03 1.48516E-03-4.45010E-14
 -1       297 7.77228E-03 1.59965E-03-4.25457E-14
 -1       298 7.37049E-03 1.61988E-03-4.05743E-14
 -1       299 6.96366E-03 1.51577E-03-3.85637E-14
 -1       300 6.50011E-03 1.29552E-03-3.67384E-14
 -1       301 6.04339E-03 1.02239E-03-3.50410E-14
 -1       302 5.60298E-03 8.17000E-04-3.41592E-14
 -1       303 5.28101E-03 6.51637E-04-3.35003E-14
 -1       304 5.06901E-03 5.16292E-04-3.30310E-14
 -1       305 4.97733E-03 4.12669E-04-3.29043E-14
 -1       306 5.03912E-03 3.20690E-04-3.31072E-14
 -1       307 5.23776E-03 1.98215E-04-3.41224E-14
 -1       308 5.52341E-03 7.33860E-05-3.50637E-14
 -1       309 5.87894E-03-7.43239E-05-3.63574E-14
 -1       310 6.24914E-03-2.23192E-04-3.80101E-14
 -1       311 6.65263E-03-3.39497E-04-3.98784E-14
 -1       312 7.04302E-03-3.73682E-04-4.19706E-14
 -1       313 7.42320E-03-3.21324E-04-4.39082E-14
 -1       314 7.81270E-03-1.92931E-04-4.59257E-14
 -1       315 8.23572E-03-7.85733E-06-4.76696E-14
 -1       316 8.62865E-03 2.00124E-04-4.93125E-14
 -1       317 9.02945E-03 3.73867E-04-5.03234E-14
 -1       318 9.33814E-03 5.22294E-04-5.10727E-14
 -1       319 9.53262E-03 6.38636E-04-5.14538E-14
 -1       320 4.55802E-04-1.61657E-04-2.75980E-16
 -1       321 4.74384E-04-2.09856E-04-2.36830E-16
 -1       322 4.40686E-04-9.13208E-05-3.10038E-16
 -1       323 4.37504E-04-6.27752E-05-3.15062E-16
 -1       324 4.35688E-04-3.65263E-05-3.16055E-16
 -1       325 4.34870E-04-1.15343E-05-3.13982E-16
 -1       326 4.34913E-04 1.30683E-05-3.09543E-16
 -1       327 4.35824E-04 3.81032E-05-3.02096E-16
 -1       328 4.37705E-04 6.39907E-05-2.91068E-16
 -1       329 4.41002E-04 9.26819E-05-2.75079E-16
 -1       330 4.46556E-04 1.25246E-04-2.51887E-16
 -1       331 4.56368E-04 1.64098E-04-2.17349E-16
 -1       332 4.76000E-04 2.13856E-04-1.64846E-16
 -1       333 5.31655E-04 2.66536E-04-1.42102E-16
 -1       334 8.24245E-04 3.67398E-04-4.27592E-16
 -1       335 8.63584E-04-3.50893E-04-7.31931E-16
 -1       336 1.15052E-03-4.16554E-04-1.31915E-15
 -1       337 1.43431E-03-4.62122E-04-2.08055E-15
 -1       338 1.71660E-03-4.92718E-04-3.01467E-15
 -1       339 1.99867E-03-5.12158E-04-4.12014E-15
 -1       340 2.28148E-03-5.23364E-04-5.39287E-15
 -1       341 2.56575E-03-5.28675E-04-6.82975E-15
 -1       342 2.85199E-03-5.30074E-04-8.42698E-15
 -1       343 3.14061E-03-5.29367E-04-1.01794E-14
 -1       344 3.43190E-03-5.28320E-04-1.20805E-14
 -1       345 3.72606E-03-5.28752E-04-1.41276E-14
 -1       346 4.02316E-03-5.32568E-04-1.63181E-14
 -1       347 4.32308E-03-5.41685E-04-1.86479E-14
 -1       348 4.62537E-03-5.57800E-04-2.11139E-14
 -1       349 4.92921E-03-5.81950E-04-2.37099E-14
 -1       350 5.23323E-03-6.13836E-04-2.64314E-14
 -1       351 5.53560E-03-6.50988E-04-2.92764E-14
 -1       352 5.83417E-03-6.88053E-04-3.22475E-14
 -1       353 6.12719E-03-7.16691E-04-3.53485E-14
 -1       354 6.41407E-03-7.26675E-04-3.85796E-14
 -1       355 6.69614E-03-7.08423E-04-4.19305E-14
 -1       356 6.97647E-03-6.56160E-04-4.54030E-14
 -1       357 7.25889E-03-5.70096E-04-4.89865E-14
 -1       358 7.54637E-03-4.56354E-04-5.26718E-14
 -1       359 7.84012E-03-3.24635E-04-5.64545E-14
 -1       360 8.13948E-03-1.85069E-04-6.03298E-14
 -1       361 8.44266E-03-4.57968E-05-6.42936E-14
 -1       362 8.74760E-03 8.80286E-05-6.83352E-14
 -1       363 9.05254E-03 2.14064E-04-7.24468E-14
 -1       364 9.35625E-03 3.32030E-04-7.66210E-14
 -1       365 9.65798E-03 4.42868E-04-8.08587E-14
 -1       366 9.95742E-03 5.48062E-04-8.51528E-14
 -1       367 1.02545E-02 6.49183E-04-8.95020E-14
 -1       368 1.05495E-02 7.47643E-04-9.39042E-14
 -1       369 1.08424E-02 8.44580E-04-9.83595E-14
 -1       370 1.11337E-02 9.40845E-04-1.02866E-13
 -1       371 1.14236E-02 1.03703E-03-1.07405E-13
 -1       372 1.17124E-02 1.13350E-03-1.11986E-13
 -1       373 1.20004E-02 1.23048E-03-1.16613E-13
 -1       374 1.22876E-02 1.32805E-03-1.21286E-13
 -1       375 1.25743E-02 1.42624E-03-1.26005E-13
 -1       376 1.28607E-02 1.52500E-03-1.30767E-13
 -1       377 1.31468E-02 1.62428E-03-1.35560E-13
 -1       378 1.34327E-02 1.72398E-03-1.40370E-13
 -1       379 1.37186E-02 1.82403E-03-1.45186E-13
 -1       380 1.39707E-02 1.91052E-03-1.49526E-13
 -1       381 1.11021E-03 4.38505E-04-8.72457E-16
 -1       382 1.39195E-03 4.87715E-04-1.48080E-15
 -1       383 1.67193E-03 5.20709E-04-2.25365E-15
 -1       384 1.95192E-03 5.41490E-04-3.19025E-15
 -1       385 2.23319E-03 5.52973E-04-4.28807E-15
 -1       386 2.51670E-03 5.57356E-04-5.54387E-15
 -1       387 2.80330E-03 5.56391E-04-6.95313E-15
 -1       388 3.09379E-03 5.51600E-04-8.51490E-15
 -1       389 3.38910E-03 5.44501E-04-1.02274E-14
 -1       390 3.69028E-03 5.36906E-04-1.20864E-14
 -1       391 3.99863E-03 5.31314E-04-1.40905E-14
 -1       392 4.31565E-03 5.31494E-04-1.62361E-14
 -1       393 4.64315E-03 5.43278E-04-1.85213E-14
 -1       394 4.98316E-03 5.75541E-04-2.09394E-14
 -1       395 5.33787E-03 6.40992E-04-2.34808E-14
 -1       396 5.72812E-03 7.62901E-04-2.62791E-14
 -1       397 6.11654E-03 9.44983E-04-2.90659E-14
 -1       398 6.51541E-03 1.19151E-03-3.19724E-14
 -1       399 6.91075E-03 1.46615E-03-3.49975E-14
 -1       400 7.25217E-03 1.66805E-03-3.78246E-14
 -1       401 7.61831E-03 1.75568E-03-4.10859E-14
 -1       402 7.97192E-03 1.68586E-03-4.42961E-14
 -1       403 8.36210E-03 1.52038E-03-4.77800E-14
 -1       404 8.76207E-03 1.35617E-03-5.13561E-14
 -1       405 9.15616E-03 1.24835E-03-5.50135E-14
 -1       406 9.53546E-03 1.20791E-03-5.87434E-14
 -1       407 9.89814E-03 1.22371E-03-6.25428E-14
 -1       408 1.02455E-02 1.27933E-03-6.64139E-14
 -1       409 1.05964E-02 1.36501E-03-7.05552E-14
 -1       410 1.09195E-02 1.46193E-03-7.45827E-14
 -1       411 1.12339E-02 1.56698E-03-7.86940E-14
 -1       412 1.15413E-02 1.67605E-03-8.28763E-14
 -1       413 1.18432E-02 1.78666E-03-8.71254E-14
 -1       414 1.21409E-02 1.89744E-03-9.14476E-14
 -1       415 1.24353E-02 2.00762E-03-9.58432E-14
 -1       416 1.27272E-02 2.11685E-03-1.00307E-13
 -1       417 1.30173E-02 2.22501E-03-1.04835E-13
 -1       418 1.33060E-02 2.33209E-03-1.09422E-13
 -1       419 1.35937E-02 2.43817E-03-1.14078E-13
 -1       420 1.38807E-02 2.54336E-03-1.18790E-13
 -1       421 1.41672E-02 2.64779E-03-1.23548E-13
 -1       422 1.44533E-02 2.75158E-03-1.28336E-13
 -1       423 1.47393E-02 2.85485E-03-1.33158E-13
 -1       424 1.50251E-02 2.95773E-03-1.38004E-13
 -1       425 1.53108E-02 3.06033E-03-1.42853E-13
 -1       426 1.54950E-02 3.12294E-03-1.46133E-13
 -1       427 1.51802E-02 2.88627E-03-1.46391E-13
 -1       428 1.52807E-02 2.97045E-03-1.45921E-13
 -1       429 1.53878E-02 3.04668E-03-1.46028E-13
 -1       430 1.50817E-02 2.80358E-03-1.46838E-13
 -1       431 1.49817E-02 2.71956E-03-1.47281E-13
 -1       432 1.48818E-02 2.63560E-03-1.47719E-13
 -1       433 1.47820E-02 2.55170E-03-1.48154E-13
 -1       434 1.46823E-02 2.46782E-03-1.48577E-13
 -1       435 1.45827E-02 2.38392E-03-1.48987E-13
 -1       436 1.44849E-02 2.30139E-03-1.49383E-13
 -1       437 1.43856E-02 2.21738E-03-1.49785E-13
 -1       438 1.42864E-02 2.13328E-03-1.50185E-13
 -1       439 1.41873E-02 2.04911E-03-1.50587E-13
 -1       440 9.39568E-03 8.45421E-04-5.15488E-14
 -1       441 9.60029E-03 7.16574E-04-5.32760E-14
 -1       442 9.58478E-03 7.56268E-04-5.27567E-14
 -1       443 9.11829E-03 9.73086E-04-5.01192E-14
 -1       444 8.74342E-03 1.15993E-03-4.84888E-14
 -1       445 4.46090E-04-1.23388E-04-2.98054E-16
 -1       446 7.93923E-03 1.57856E-03-4.38889E-14
 -1       447 7.59558E-03 1.66106E-03-4.16679E-14
 -1       448 7.23911E-03 1.62143E-03-3.93148E-14
 -1       449 6.79420E-03 1.40568E-03-3.69811E-14
 -1       450 6.37190E-03 1.13451E-03-3.50801E-14
 -1       451 5.83335E-03 8.04849E-04-3.32338E-14
 -1       452 5.46355E-03 6.33480E-04-3.25884E-14
 -1       453 5.18022E-03 5.06770E-04-3.19935E-14
 -1       454 4.99447E-03 4.17287E-04-3.14959E-14
 -1       455 4.96312E-03 3.70456E-04-3.16897E-14
 -1       456 5.14697E-03 2.85514E-04-3.25017E-14
 -1       457 5.37559E-03 1.95402E-04-3.34078E-14
 -1       458 5.72812E-03 4.50541E-05-3.47223E-14
 -1       459 6.12455E-03-1.39169E-04-3.65133E-14
 -1       460 6.47188E-03-2.89737E-04-3.84054E-14
 -1       461 6.87245E-03-4.03535E-04-4.09104E-14
 -1       462 7.20879E-03-3.86355E-04-4.32157E-14
 -1       463 7.52024E-03-2.87714E-04-4.53747E-14
 -1       464 7.94111E-03-7.21585E-05-4.78555E-14
 -1       465 8.29456E-03 1.24047E-04-4.95059E-14
 -1       466 8.79968E-03 3.84935E-04-5.14276E-14
 -1       467 9.16269E-03 5.46789E-04-5.26110E-14
 -1       468 9.44618E-03 6.46831E-04-5.30717E-14
 -1       469 8.30398E-03 1.40264E-03-4.60433E-14
 -1       470 5.00295E-03 3.30731E-04-3.10860E-14
 -1       471 6.11119E-03 9.30270E-04-3.32596E-14
 -1       472 9.32063E-04 3.38396E-04-7.47002E-16
 -1       473 6.65350E-04-7.23131E-05-6.70528E-16
 -1       474 6.69744E-04-1.12006E-04-6.64802E-16
 -1       475 6.62269E-04 1.14940E-06-6.63203E-16
 -1       476 6.63119E-04 3.73322E-05-6.51687E-16
 -1       477 6.65589E-04 7.40441E-05-6.34255E-16
 -1       478 6.70140E-04 1.13822E-04-6.09020E-16
 -1       479 6.77598E-04 1.57622E-04-5.73689E-16
 -1       480 6.89767E-04 2.07506E-04-5.24615E-16
 -1       481 1.21862E-03 3.95359E-04-1.30345E-15
 -1       482 9.77274E-04-3.20693E-04-1.08277E-15
 -1       483 8.14495E-03 1.50765E-03-4.56018E-14
 -1       484 1.26377E-03-3.72254E-04-1.77197E-15
 -1       485 1.54966E-03-4.08124E-04-2.63030E-15
 -1       486 1.83505E-03-4.31725E-04-3.65744E-15
 -1       487 2.12038E-03-4.45994E-04-4.85016E-15
 -1       488 2.40613E-03-4.53349E-04-6.20457E-15
 -1       489 2.69275E-03-4.55821E-04-7.71792E-15
 -1       490 2.98067E-03-4.55203E-04-9.38538E-15
 -1       491 3.27029E-03-4.53187E-04-1.12050E-14
 -1       492 3.56205E-03-4.51484E-04-1.31706E-14
 -1       493 3.85638E-03-4.51909E-04-1.52795E-14
 -1       494 4.15375E-03-4.56394E-04-1.75292E-14
 -1       495 4.45451E-03-4.66909E-04-1.99150E-14
 -1       496 4.75883E-03-4.85201E-04-2.24332E-14
 -1       497 5.06636E-03-5.12284E-04-2.50762E-14
 -1       498 5.37597E-03-5.47616E-04-2.78447E-14
 -1       499 5.68556E-03-5.88026E-04-3.07368E-14
 -1       500 5.99236E-03-6.26719E-04-3.37583E-14
 -1       501 6.29380E-03-6.53200E-04-3.69120E-14
 -1       502 6.58920E-03-6.55041E-04-4.01883E-14
 -1       503 6.88061E-03-6.22037E-04-4.35835E-14
 -1       504 7.17220E-03-5.50303E-04-4.70971E-14
 -1       505 7.46808E-03-4.44247E-04-5.07182E-14
 -1       506 7.77010E-03-3.14396E-04-5.44399E-14
 -1       507 8.07740E-03-1.73077E-04-5.82534E-14
 -1       508 8.38739E-03-3.05473E-05-6.21563E-14
 -1       509 8.69733E-03 1.06681E-04-6.61434E-14
 -1       510 9.00522E-03 2.35622E-04-7.02038E-14
 -1       511 9.31005E-03 3.55801E-04-7.43284E-14
 -1       512 9.61153E-03 4.68182E-04-7.85183E-14
 -1       513 9.90988E-03 5.74349E-04-8.27693E-14
 -1       514 1.02055E-02 6.75989E-04-8.70758E-14
 -1       515 1.04989E-02 7.74624E-04-9.14387E-14
 -1       516 1.07904E-02 8.71492E-04-9.58580E-14
 -1       517 1.10805E-02 9.67525E-04-1.00328E-13
 -1       518 1.13695E-02 1.06338E-03-1.04844E-13
 -1       519 1.16576E-02 1.15948E-03-1.09394E-13
 -1       520 1.19450E-02 1.25608E-03-1.13992E-13
 -1       521 1.22319E-02 1.35330E-03-1.18636E-13
 -1       522 1.25185E-02 1.45116E-03-1.23320E-13
 -1       523 1.28048E-02 1.54965E-03-1.28055E-13
 -1       524 1.30909E-02 1.64869E-03-1.32826E-13
 -1       525 1.33768E-02 1.74821E-03-1.37618E-13
 -1       526 1.36627E-02 1.84811E-03-1.42422E-13
 -1       527 1.78811E-03 4.60575E-04-2.89794E-15
 -1       528 2.07236E-03 4.75866E-04-3.93531E-15
 -1       529 2.35725E-03 4.83082E-04-5.12989E-15
 -1       530 2.64335E-03 4.84135E-04-6.47875E-15
 -1       531 2.93117E-03 4.80616E-04-7.98013E-15
 -1       532 3.22112E-03 4.73986E-04-9.63110E-15
 -1       533 3.51363E-03 4.65816E-04-1.14287E-14
 -1       534 3.80912E-03 4.58080E-04-1.33694E-14
 -1       535 4.10813E-03 4.53571E-04-1.54532E-14
 -1       536 4.41148E-03 4.56451E-04-1.76768E-14
 -1       537 4.72069E-03 4.73003E-04-2.00346E-14
 -1       538 5.03881E-03 5.12540E-04-2.25195E-14
 -1       539 5.38848E-03 5.93222E-04-2.52583E-14
 -1       540 5.74549E-03 7.25597E-04-2.79863E-14
 -1       541 6.13550E-03 9.30156E-04-3.08302E-14
 -1       542 6.55676E-03 1.20885E-03-3.37897E-14
 -1       543 7.38424E-03 1.68112E-03-3.97314E-14
 -1       544 7.79286E-03 1.68124E-03-4.29339E-14
 -1       545 8.21274E-03 1.51004E-03-4.63317E-14
 -1       546 8.64031E-03 1.31542E-03-4.98801E-14
 -1       547 9.04345E-03 1.17898E-03-5.35152E-14
 -1       548 9.41510E-03 1.12002E-03-5.72271E-14
 -1       549 9.75940E-03 1.12207E-03-6.10047E-14
 -1       550 1.00862E-02 1.16819E-03-6.48485E-14
 -1       551 1.04176E-02 1.24723E-03-6.89638E-14
 -1       552 1.07261E-02 1.34031E-03-7.29600E-14
 -1       553 1.10296E-02 1.44331E-03-7.70390E-14
 -1       554 1.13294E-02 1.55153E-03-8.11915E-14
 -1       555 1.16262E-02 1.66207E-03-8.54150E-14
 -1       556 1.19206E-02 1.77321E-03-8.97116E-14
 -1       557 1.22129E-02 1.88399E-03-9.40768E-14
 -1       558 1.25035E-02 1.99389E-03-9.85129E-14
 -1       559 1.27929E-02 2.10272E-03-1.03010E-13
 -1       560 1.30813E-02 2.21042E-03-1.07565E-13
 -1       561 1.33688E-02 2.31706E-03-1.12182E-13
 -1       562 1.36558E-02 2.42272E-03-1.16862E-13
 -1       563 1.39424E-02 2.52754E-03-1.21589E-13
 -1       564 1.42287E-02 2.63164E-03-1.26354E-13
 -1       565 1.45148E-02 2.73516E-03-1.31152E-13
 -1       566 1.48007E-02 2.83822E-03-1.35975E-13
 -1       567 1.50865E-02 2.94093E-03-1.40817E-13
 -1       568 1.47843E-02 2.67315E-03-1.42863E-13
 -1       569 1.46844E-02 2.58934E-03-1.43302E-13
 -1       570 1.49830E-02 2.83968E-03-1.41963E-13
 -1       571 1.48836E-02 2.75635E-03-1.42422E-13
 -1       572 1.45847E-02 2.50562E-03-1.43736E-13
 -1       573 1.44849E-02 2.42195E-03-1.44164E-13
 -1       574 1.43853E-02 2.33828E-03-1.44583E-13
 -1       575 1.42874E-02 2.25599E-03-1.44987E-13
 -1       576 1.41879E-02 2.17218E-03-1.45389E-13
 -1       577 1.40886E-02 2.08827E-03-1.45790E-13
 -1       578 1.39894E-02 2.00423E-03-1.46194E-13
 -1       579 9.28119E-03 8.96890E-04-5.23428E-14
 -1       580 9.56891E-03 7.19208E-04-5.52244E-14
 -1       581 1.50379E-03 4.34783E-04-2.02005E-15
 -1       582 9.63583E-03 7.54299E-04-5.47979E-14
 -1       583 9.34622E-03 6.54340E-04-5.49638E-14
 -1       584 7.13296E-04-2.46402E-04-6.13299E-16
 -1       585 8.98042E-03 1.03716E-03-5.07376E-14
 -1       586 7.68300E-03-1.86393E-04-4.74551E-14
 -1       587 5.06633E-03 4.22963E-04-3.04762E-14
 -1       588 6.62981E-04-3.50159E-05-6.69515E-16
 -1       589 5.91546E-03-4.65942E-05-3.45700E-14
 -1       590 7.76437E-03 1.66331E-03-4.27808E-14
 -1       591 7.03395E-03 1.53073E-03-3.73604E-14
 -1       592 6.63125E-03 1.27144E-03-3.52682E-14
 -1       593 5.60124E-03 6.37214E-04-3.14176E-14
 -1       594 5.31426E-03 5.12199E-04-3.08414E-14
 -1       595 4.92641E-03 3.62384E-04-2.99807E-14
 -1       596 5.23700E-03 2.42365E-04-3.15549E-14
 -1       597 8.97353E-03 5.15872E-04-5.39005E-14
 -1       598 5.52358E-03 1.33560E-04-3.28243E-14
 -1       599 6.29920E-03-2.31081E-04-3.67526E-14
 -1       600 6.65356E-03-3.74593E-04-3.92001E-14
 -1       601 7.05789E-03-4.21329E-04-4.25135E-14
 -1       602 7.31250E-03-3.62601E-04-4.46557E-14
 -1       603 8.08838E-03 5.48645E-05-5.01256E-14
 -1       604 8.52680E-03 3.00385E-04-5.21003E-14
 -1       605 9.54208E-03 8.00205E-04-5.40912E-14
 -1       606 7.04199E-04 2.85649E-04-4.01934E-16
 -1       607 8.52214E-03 1.28952E-03-4.80832E-14
 -1       608 6.76964E-04-1.55480E-04-6.50420E-16
 -1       609 8.79116E-03 1.16519E-03-5.03149E-14
 -1       610 6.83740E-03-4.30780E-04-4.07624E-14
 -1       611 6.99724E-03 1.51037E-03-3.66502E-14
 -1       612 1.38539E-02 1.91415E-03-1.45689E-13
 -1       613 5.05169E-03 2.83982E-04-3.01549E-14
 -1       614 5.84067E-03 7.49633E-04-3.14337E-14
 -1       615 4.90887E-03 3.30037E-04-2.93863E-14
 -1       616 8.98304E-04 7.11300E-05-1.10778E-15
 -1       617 8.95838E-04 2.42548E-05-1.13080E-15
 -1       618 9.11852E-04 1.71955E-04-1.02925E-15
 -1       619 9.24930E-04 2.29500E-04-9.67766E-16
 -1       620 1.05008E-03 3.04881E-04-1.10912E-15
 -1       621 9.66845E-03 7.96953E-04-5.65408E-14
 -1       622 1.33628E-03 3.48793E-04-1.77208E-15
 -1       623 8.77262E-03 4.36006E-04-5.49347E-14
 -1       624 1.38449E-03-3.24454E-04-2.25175E-15
 -1       625 1.67103E-03-3.51318E-04-3.20177E-15
 -1       626 1.95774E-03-3.68439E-04-4.31641E-15
 -1       627 2.24454E-03-3.78011E-04-5.59092E-15
 -1       628 2.53153E-03-3.81960E-04-7.02248E-15
 -1       629 2.81899E-03-3.81975E-04-8.60831E-15
 -1       630 3.10726E-03-3.79606E-04-1.03453E-14
 -1       631 3.39683E-03-3.76369E-04-1.22286E-14
 -1       632 3.68835E-03-3.73858E-04-1.42575E-14
 -1       633 3.98264E-03-3.73828E-04-1.64280E-14
 -1       634 4.28070E-03-3.78245E-04-1.87342E-14
 -1       635 4.58356E-03-3.89236E-04-2.11741E-14
 -1       636 4.89204E-03-4.08858E-04-2.37409E-14
 -1       637 5.20622E-03-4.38532E-04-2.64334E-14
 -1       638 5.52483E-03-4.77949E-04-2.92495E-14
 -1       639 5.84479E-03-5.23386E-04-3.21906E-14
 -1       640 6.16174E-03-5.65908E-04-3.52633E-14
 -1       641 6.47179E-03-5.91197E-04-3.84651E-14
 -1       642 6.77479E-03-5.82896E-04-4.17841E-14
 -1       643 7.07489E-03-5.30281E-04-4.52253E-14
 -1       644 7.37829E-03-4.33650E-04-4.87789E-14
 -1       645 7.68893E-03-3.04591E-04-5.24370E-14
 -1       646 8.00624E-03-1.59345E-04-5.61931E-14
 -1       647 8.32628E-03-1.19193E-05-6.00367E-14
 -1       648 8.64468E-03 1.29197E-04-6.39678E-14
 -1       649 8.95854E-03 2.60563E-04-6.79769E-14
 -1       650 9.26669E-03 3.81982E-04-7.20551E-14
 -1       651 9.56930E-03 4.94853E-04-7.61968E-14
 -1       652 9.86719E-03 6.01104E-04-8.03992E-14
 -1       653 1.01614E-02 7.02632E-04-8.46646E-14
 -1       654 1.04529E-02 8.01064E-04-8.89879E-14
 -1       655 1.07425E-02 8.97686E-04-9.33683E-14
 -1       656 1.10308E-02 9.93453E-04-9.78029E-14
 -1       657 1.13182E-02 1.08903E-03-1.02287E-13
 -1       658 1.16050E-02 1.18486E-03-1.06811E-13
 -1       659 1.18914E-02 1.28120E-03-1.11382E-13
 -1       660 1.21776E-02 1.37816E-03-1.15997E-13
 -1       661 1.24637E-02 1.47580E-03-1.20652E-13
 -1       662 1.27496E-02 1.57408E-03-1.25354E-13
 -1       663 1.30354E-02 1.67295E-03-1.30102E-13
 -1       664 1.33212E-02 1.77233E-03-1.34873E-13
 -1       665 1.36070E-02 1.87213E-03-1.39665E-13
 -1       666 2.19471E-03 4.08546E-04-4.70662E-15
 -1       667 5.12964E-03 4.25209E-04-2.91472E-14
 -1       668 1.90872E-03 3.98094E-04-3.57127E-15
 -1       669 2.76673E-03 4.10996E-04-7.43630E-15
 -1       670 3.05285E-03 4.06108E-04-9.02757E-15
 -1       671 3.33895E-03 3.99077E-04-1.07654E-14
 -1       672 3.62478E-03 3.91542E-04-1.26467E-14
 -1       673 3.91006E-03 3.85596E-04-1.46695E-14
 -1       674 4.19455E-03 3.84100E-04-1.68315E-14
 -1       675 4.47847E-03 3.91082E-04-1.91296E-14
 -1       676 4.76331E-03 4.12267E-04-2.15570E-14
 -1       677 5.06810E-03 4.58808E-04-2.42381E-14
 -1       678 5.37395E-03 5.39999E-04-2.69095E-14
 -1       679 9.66597E-03 1.01666E-03-5.94914E-14
 -1       680 9.96441E-03 1.05878E-03-6.33130E-14
 -1       681 1.02681E-02 1.13288E-03-6.74012E-14
 -1       682 1.05546E-02 1.22150E-03-7.13714E-14
 -1       683 1.08409E-02 1.32091E-03-7.54195E-14
 -1       684 1.11277E-02 1.42662E-03-7.95411E-14
 -1       685 1.14150E-02 1.53561E-03-8.37385E-14
 -1       686 1.17026E-02 1.64592E-03-8.80068E-14
 -1       687 1.19902E-02 1.75638E-03-9.23458E-14
 -1       688 1.22777E-02 1.86630E-03-9.67510E-14
 -1       689 1.25649E-02 1.97532E-03-1.01222E-13
 -1       690 1.28518E-02 2.08332E-03-1.05749E-13
 -1       691 1.31385E-02 2.19028E-03-1.10332E-13
 -1       692 1.34249E-02 2.29626E-03-1.14979E-13
 -1       693 1.37112E-02 2.40137E-03-1.19676E-13
 -1       694 1.39973E-02 2.50573E-03-1.24413E-13
 -1       695 1.42833E-02 2.60945E-03-1.29184E-13
 -1       696 1.45692E-02 2.71267E-03-1.33993E-13
 -1       697 1.47761E-02 2.77629E-03-1.37977E-13
 -1       698 1.42877E-02 2.37585E-03-1.39769E-13
 -1       699 1.37982E-02 1.93812E-03-1.42925E-13
 -1       700 1.44871E-02 2.54279E-03-1.38908E-13
 -1       701 1.41880E-02 2.29246E-03-1.40189E-13
 -1       702 1.43874E-02 2.45927E-03-1.39345E-13
 -1       703 1.62259E-03 3.78966E-04-2.59275E-15
 -1       704 1.40900E-02 2.21044E-03-1.40598E-13
 -1       705 1.39904E-02 2.12692E-03-1.41007E-13
 -1       706 1.38909E-02 2.04325E-03-1.41410E-13
 -1       707 8.73100E-04-2.40390E-04-9.67383E-16
 -1       708 9.22020E-03 9.73554E-04-5.34937E-14
 -1       709 9.67912E-03 7.67363E-04-5.71634E-14
 -1       710 9.20960E-03 6.22484E-04-5.64729E-14
 -1       711 6.05703E-03-1.64505E-04-3.46745E-14
 -1       712 2.48068E-03 4.12296E-04-5.99498E-15
 -1       713 1.12787E-03-2.87657E-04-1.54359E-15
 -1       714 9.48756E-03 8.66409E-04-5.52607E-14
 -1       715 9.03424E-04 1.19808E-04-1.07471E-15
 -1       716 9.03001E-04-1.17339E-04-1.14774E-15
 -1       717 9.53123E-03 7.26737E-04-5.74718E-14
 -1       718 7.85865E-03-7.91866E-05-4.99106E-14
 -1       719 5.35444E-03 5.10522E-04-2.97065E-14
 -1       720 8.35390E-03 2.13144E-04-5.31869E-14
 -1       721 7.47632E-03-2.92110E-04-4.68976E-14
 -1       722 5.33037E-03 1.67208E-04-3.08922E-14
 -1       723 5.65326E-03 3.30928E-05-3.24591E-14
 -1       724 6.41982E-03-3.29134E-04-3.72297E-14
 -1       725 7.15325E-03-4.13869E-04-4.38378E-14
 -1       726 4.94263E-03 3.63970E-04-2.87367E-14
 -1       727 9.11150E-04-1.69398E-04-1.13320E-15
 -1       728 8.95775E-04-2.19720E-05-1.14500E-15
 -1       729 1.45862E-02 2.62574E-03-1.38467E-13
 -1       730 6.16004E-03 9.42201E-04-3.25281E-14
 -1       731 1.46810E-02 2.70095E-03-1.38228E-13
 -1       732 4.86409E-03 3.32191E-04-2.81570E-14
 -1       733 6.60107E-03-4.13721E-04-3.87449E-14
 -1       734 5.12148E-03 2.18722E-04-2.95057E-14
 -1       735 8.98082E-04-6.86639E-05-1.15081E-15
 -1       736 1.37489E-02 1.95770E-03-1.40537E-13
 -1       737 1.16170E-03 2.34305E-04-1.54518E-15
 -1       738 6.14137E-03-2.90335E-04-3.48394E-14
 -1       739 1.79646E-03-2.92015E-04-3.79415E-15
 -1       740 2.08344E-03-3.03370E-04-4.99032E-15
 -1       741 2.37046E-03-3.08808E-04-6.34208E-15
 -1       742 2.65744E-03-3.09791E-04-7.84762E-15
 -1       743 2.94448E-03-3.07642E-04-9.50261E-15
 -1       744 3.23195E-03-3.03607E-04-1.13062E-14
 -1       745 3.52047E-03-2.98956E-04-1.32544E-14
 -1       746 3.81097E-03-2.95093E-04-1.53446E-14
 -1       747 4.10476E-03-2.93687E-04-1.75725E-14
 -1       748 4.40352E-03-2.96791E-04-1.99348E-14
 -1       749 4.70912E-03-3.06917E-04-2.24254E-14
 -1       750 5.02322E-03-3.26926E-04-2.50407E-14
 -1       751 5.34640E-03-3.59398E-04-2.77824E-14
 -1       752 5.67700E-03-4.05033E-04-3.06461E-14
 -1       753 6.01006E-03-4.59419E-04-3.36378E-14
 -1       754 6.33923E-03-5.10077E-04-3.67599E-14
 -1       755 6.65750E-03-5.33671E-04-4.00070E-14
 -1       756 6.96913E-03-5.09858E-04-4.33729E-14
 -1       757 7.28062E-03-4.27902E-04-4.68540E-14
 -1       758 7.59978E-03-2.99312E-04-5.04489E-14
 -1       759 7.92912E-03-1.46130E-04-5.41468E-14
 -1       760 8.26224E-03 1.01090E-05-5.79358E-14
 -1       761 8.59214E-03 1.57003E-04-6.18082E-14
 -1       762 8.91436E-03 2.90834E-04-6.57637E-14
 -1       763 9.22740E-03 4.12410E-04-6.97939E-14
 -1       764 9.53191E-03 5.24314E-04-7.38894E-14
 -1       765 9.82957E-03 6.29282E-04-7.80483E-14
 -1       766 1.01222E-02 7.29630E-04-8.22673E-14
 -1       767 1.04115E-02 8.27135E-04-8.65467E-14
 -1       768 1.06986E-02 9.23092E-04-9.08907E-14
 -1       769 1.09845E-02 1.01841E-03-9.52890E-14
 -1       770 1.12698E-02 1.11368E-03-9.97372E-14
 -1       771 1.15548E-02 1.20931E-03-1.04235E-13
 -1       772 1.18397E-02 1.30549E-03-1.08777E-13
 -1       773 1.21248E-02 1.40235E-03-1.13363E-13
 -1       774 1.24099E-02 1.49989E-03-1.17994E-13
 -1       775 1.26952E-02 1.59810E-03-1.22667E-13
 -1       776 1.29806E-02 1.69690E-03-1.27384E-13
 -1       777 1.32661E-02 1.79622E-03-1.32134E-13
 -1       778 1.35075E-02 1.87684E-03-1.36328E-13
 -1       779 1.38920E-02 2.16399E-03-1.36229E-13
 -1       780 3.16913E-03 3.34805E-04-1.00963E-14
 -1       781 2.88704E-03 3.39611E-04-8.41727E-15
 -1       782 3.72511E-03 3.24106E-04-1.38846E-14
 -1       783 3.99700E-03 3.21971E-04-1.59862E-14
 -1       784 4.26330E-03 3.25274E-04-1.82230E-14
 -1       785 4.52317E-03 3.37273E-04-2.05929E-14
 -1       786 4.78947E-03 3.63814E-04-2.32161E-14
 -1       787 5.04030E-03 4.08540E-04-2.58357E-14
 -1       788 1.24713E-03 2.89728E-04-1.66445E-15
 -1       789 5.73834E-03-9.58783E-05-3.20786E-14
 -1       790 9.87647E-03 9.58651E-04-6.17713E-14
 -1       791 1.06688E-02 1.20860E-03-7.37948E-14
 -1       792 1.09395E-02 1.30999E-03-7.78881E-14
 -1       793 1.12146E-02 1.41563E-03-8.20542E-14
 -1       794 1.14932E-02 1.52357E-03-8.62963E-14
 -1       795 1.17742E-02 1.63245E-03-9.06078E-14
 -1       796 1.20568E-02 1.74139E-03-9.49861E-14
 -1       797 1.23406E-02 1.84987E-03-9.94259E-14
 -1       798 1.26252E-02 1.95761E-03-1.03927E-13
 -1       799 1.29102E-02 2.06448E-03-1.08482E-13
 -1       800 1.31955E-02 2.17048E-03-1.13096E-13
 -1       801 1.34810E-02 2.27567E-03-1.17770E-13
 -1       802 1.37667E-02 2.38013E-03-1.22481E-13
 -1       803 1.40523E-02 2.48396E-03-1.27227E-13
 -1       804 1.43380E-02 2.58727E-03-1.32005E-13
 -1       805 1.45095E-02 2.64419E-03-1.35113E-13
 -1       806 4.88267E-03 2.76314E-04-2.79671E-14
 -1       807 1.13515E-03 5.64781E-05-1.70889E-15
 -1       808 1.39917E-02 2.24707E-03-1.35813E-13
 -1       809 9.07337E-03 5.61840E-04-5.80773E-14
 -1       810 1.37923E-02 2.08083E-03-1.36642E-13
 -1       811 1.04037E-02 1.11416E-03-6.97768E-14
 -1       812 1.01381E-02 1.02821E-03-6.57366E-14
 -1       813 3.44879E-03 3.29076E-04-1.19204E-14
 -1       814 2.03220E-03 3.34203E-04-4.27484E-15
 -1       815 9.72737E-03 7.90735E-04-6.01421E-14
 -1       816 1.50992E-03-2.73140E-04-2.75782E-15
 -1       817 6.90135E-03-4.64288E-04-4.17690E-14
 -1       818 8.65529E-03 3.59205E-04-5.62726E-14
 -1       819 8.12407E-03 5.76487E-05-5.31083E-14
 -1       820 1.36926E-02 1.99749E-03-1.37053E-13
 -1       821 5.16136E-03 4.37125E-04-2.74750E-14
 -1       822 4.95612E-03 3.66045E-04-2.70898E-14
 -1       823 9.70383E-03 8.61325E-04-5.83392E-14
 -1       824 5.46511E-03 5.56217E-04-2.94255E-14
 -1       825 9.78352E-03 8.15898E-04-5.95167E-14
 -1       826 7.67973E-03-1.99701E-04-4.95666E-14
 -1       827 5.40357E-03 6.86028E-05-3.03018E-14
 -1       828 9.45242E-03 7.06725E-04-5.94887E-14
 -1       829 7.27041E-03-3.90440E-04-4.56073E-14
 -1       830 1.13351E-03 1.46920E-06-1.73517E-15
 -1       831 5.19028E-03 1.30355E-04-2.89279E-14
 -1       832 1.42894E-02 2.49553E-03-1.34524E-13
 -1       833 1.25391E-03-2.46022E-04-1.96866E-15
 -1       834 2.31811E-03 3.40721E-04-5.50452E-15
 -1       835 1.74584E-03 3.20884E-04-3.19896E-15
 -1       836 9.62962E-03 8.91780E-04-5.77560E-14
 -1       837 2.60319E-03 3.42042E-04-6.88629E-15
 -1       838 4.78194E-03 2.85752E-04-2.67673E-14
 -1       839 1.14005E-03 1.12551E-04-1.67006E-15
 -1       840 1.41898E-02 2.41222E-03-1.34969E-13
 -1       841 1.40908E-02 2.32960E-03-1.35398E-13
 -1       842 1.14810E-03-1.68531E-04-1.74261E-15
 -1       843 8.42523E-03 2.05760E-04-5.61892E-14
 -1       844 1.14863E-03 1.71406E-04-1.61642E-15
 -1       845 6.31930E-03-3.87024E-04-3.62961E-14
 -1       846 4.83822E-03 3.29324E-04-2.65305E-14
 -1       847 1.13977E-03-1.09651E-04-1.75305E-15
 -1       848 1.36000E-02 1.93718E-03-1.36691E-13
 -1       849 1.49628E-03 3.09695E-04-2.36954E-15
 -1       850 1.35954E-02 2.03525E-03-1.32297E-13
 -1       851 9.36956E-03 6.63597E-04-6.14640E-14
 -1       852 2.21144E-03-2.36918E-04-5.67887E-15
 -1       853 2.49779E-03-2.38869E-04-7.10472E-15
 -1       854 2.78369E-03-2.37338E-04-8.67990E-15
 -1       855 3.06922E-03-2.33248E-04-1.04034E-14
 -1       856 3.35475E-03-2.27484E-04-1.22722E-14
 -1       857 3.64104E-03-2.20991E-04-1.42818E-14
 -1       858 3.92935E-03-2.14917E-04-1.64318E-14
 -1       859 4.22153E-03-2.10814E-04-1.87153E-14
 -1       860 4.52006E-03-2.10918E-04-2.11304E-14
 -1       861 4.82794E-03-2.18476E-04-2.36704E-14
 -1       862 5.14812E-03-2.37918E-04-2.63344E-14
 -1       863 5.48199E-03-2.74006E-04-2.91232E-14
 -1       864 5.82772E-03-3.30224E-04-3.20358E-14
 -1       865 8.20008E-03 3.43118E-05-5.58466E-14
 -1       866 8.54452E-03 1.91026E-04-5.96657E-14
 -1       867 8.87696E-03 3.28065E-04-6.35674E-14
 -1       868 9.19540E-03 4.48659E-04-6.75451E-14
 -1       869 9.50152E-03 5.57795E-04-7.15943E-14
 -1       870 9.79826E-03 6.59702E-04-7.57072E-14
 -1       871 1.00885E-02 7.57434E-04-7.98858E-14
 -1       872 1.03747E-02 8.53000E-04-8.41216E-14
 -1       873 1.06587E-02 9.47663E-04-8.84240E-14
 -1       874 1.09415E-02 1.04220E-03-9.27847E-14
 -1       875 1.12241E-02 1.13706E-03-9.72016E-14
 -1       876 1.15068E-02 1.23251E-03-1.01666E-13
 -1       877 1.17898E-02 1.32867E-03-1.06183E-13
 -1       878 1.20733E-02 1.42557E-03-1.10742E-13
 -1       879 1.23573E-02 1.52319E-03-1.15346E-13
 -1       880 1.26417E-02 1.62147E-03-1.19991E-13
 -1       881 1.29264E-02 1.72034E-03-1.24678E-13
 -1       882 1.32114E-02 1.81972E-03-1.29402E-13
 -1       883 1.43994E-02 2.56978E-03-1.34820E-13
 -1       884 4.07662E-03 2.68645E-04-1.73167E-14
 -1       885 3.81940E-03 2.65014E-04-1.51390E-14
 -1       886 4.56166E-03 2.97524E-04-2.21293E-14
 -1       887 1.40990E-03 2.53831E-04-2.22734E-15
 -1       888 1.12899E-02 1.40746E-03-8.45794E-14
 -1       889 5.41833E-03-4.56433E-05-2.95039E-14
 -1       890 1.13503E-03-5.34665E-05-1.75009E-15
 -1       891 1.07595E-02 1.20302E-03-7.62275E-14
 -1       892 1.15632E-02 1.51337E-03-8.88664E-14
 -1       893 1.18402E-02 1.62019E-03-9.32156E-14
 -1       894 1.21198E-02 1.72721E-03-9.76288E-14
 -1       895 1.24012E-02 1.83397E-03-1.02104E-13
 -1       896 1.26840E-02 1.94022E-03-1.06633E-13
 -1       897 1.29677E-02 2.04583E-03-1.11219E-13
 -1       898 1.32520E-02 2.15078E-03-1.15860E-13
 -1       899 1.35369E-02 2.25511E-03-1.20549E-13
 -1       900 1.38220E-02 2.35888E-03-1.25273E-13
 -1       901 5.78630E-03-2.39485E-04-3.18545E-14
 -1       902 1.92490E-03-2.30473E-04-4.40576E-15
 -1       903 4.91703E-03 2.10668E-04-2.72946E-14
 -1       904 1.36952E-02 2.11797E-03-1.31882E-13
 -1       905 1.05063E-02 1.10774E-03-7.21642E-14
 -1       906 8.98165E-03 4.89734E-04-5.98821E-14
 -1       907 1.63872E-03-2.18419E-04-3.28857E-15
 -1       908 1.34955E-02 1.95234E-03-1.32708E-13
 -1       909 4.32318E-03 2.78543E-04-1.96277E-14
 -1       910 3.00542E-03 2.71316E-04-9.42198E-15
 -1       911 9.87283E-03 8.42897E-04-6.22105E-14
 -1       912 9.90495E-03 8.86384E-04-6.18764E-14
 -1       913 4.82173E-03 3.40637E-04-2.48615E-14
 -1       914 9.71603E-03 7.87995E-04-6.26537E-14
 -1       915 1.10214E-02 1.30353E-03-8.03648E-14
 -1       916 7.97757E-03-6.85590E-05-5.33088E-14
 -1       917 2.72521E-03 2.73494E-04-7.80296E-15
 -1       918 5.21668E-03 2.00462E-05-2.81501E-14
 -1       919 1.39226E-03-1.95576E-04-2.45730E-15
 -1       920 1.41170E-02 2.45822E-03-1.30524E-13
 -1       921 1.34056E-02 1.87840E-03-1.33039E-13
 -1       922 1.87216E-03 2.60993E-04-3.83963E-15
 -1       923 3.55389E-03 2.65503E-04-1.30946E-14
 -1       924 9.90513E-03 8.48971E-04-6.47528E-14
 -1       925 4.77189E-03 2.36006E-04-2.61178E-14
 -1       926 1.00277E-02 9.39166E-04-6.41089E-14
 -1       927 3.28206E-03 2.68166E-04-1.11879E-14
 -1       928 1.40174E-02 2.37507E-03-1.30976E-13
 -1       929 1.37942E-02 2.20008E-03-1.31468E-13
 -1       930 8.76230E-03 3.52103E-04-5.98033E-14
 -1       931 1.02597E-02 1.01826E-03-6.80991E-14
 -1       932 2.15778E-03 2.69651E-04-5.00912E-15
 -1       933 1.37951E-03 9.49414E-05-2.39162E-15
 -1       934 4.69942E-03 2.84773E-04-2.51811E-14
 -1       935 1.37560E-03 3.26150E-05-2.43429E-15
 -1       936 1.38196E-03-1.29755E-04-2.47004E-15
 -1       937 2.62638E-03-1.68678E-04-7.87705E-15
 -1       938 2.91029E-03-1.65106E-04-9.52066E-15
 -1       939 3.19320E-03-1.59272E-04-1.13104E-14
 -1       940 3.47547E-03-1.51636E-04-1.32414E-14
 -1       941 3.75798E-03-1.42742E-04-1.53121E-14
 -1       942 4.04223E-03-1.33397E-04-1.75183E-14
 -1       943 4.33057E-03-1.24988E-04-1.98568E-14
 -1       944 4.62639E-03-1.20007E-04-2.23223E-14
 -1       945 4.93414E-03-1.22822E-04-2.49108E-14
 -1       946 5.25928E-03-1.40662E-04-2.76233E-14
 -1       947 1.62672E-03-1.47479E-04-3.30379E-15
 -1       948 1.32988E-02 1.90702E-03-1.28390E-13
 -1       949 1.37560E-03-2.90478E-05-2.46184E-15
 -1       950 1.58641E-03 2.45994E-04-2.82333E-15
 -1       951 9.17643E-03 4.91869E-04-6.53152E-14
 -1       952 9.48196E-03 5.96031E-04-6.93125E-14
 -1       953 9.77547E-03 6.92726E-04-7.33801E-14
 -1       954 1.00615E-02 7.86157E-04-7.75120E-14
 -1       955 1.03431E-02 8.78599E-04-8.17087E-14
 -1       956 1.06227E-02 9.71229E-04-8.59702E-14
 -1       957 1.09016E-02 1.06459E-03-9.02918E-14
 -1       958 1.11808E-02 1.15890E-03-9.46726E-14
 -1       959 1.14607E-02 1.25419E-03-9.91060E-14
 -1       960 1.17414E-02 1.35044E-03-1.03590E-13
 -1       961 1.20231E-02 1.44756E-03-1.08125E-13
 -1       962 1.23056E-02 1.54544E-03-1.12705E-13
 -1       963 1.25889E-02 1.64399E-03-1.17322E-13
 -1       964 1.28728E-02 1.74310E-03-1.21985E-13
 -1       965 9.67450E-03 7.61787E-04-6.48717E-14
 -1       966 1.16260E-02 1.50330E-03-9.14432E-14
 -1       967 4.15870E-03 2.25541E-04-1.86618E-14
 -1       968 9.32828E-03 6.12316E-04-6.38299E-14
 -1       969 1.19011E-02 1.60793E-03-9.58305E-14
 -1       970 1.37228E-02 2.27614E-03-1.25733E-13
 -1       971 1.13548E-02 1.39971E-03-8.71166E-14
 -1       972 1.21791E-02 1.71295E-03-1.00281E-13
 -1       973 1.24593E-02 1.81795E-03-1.04786E-13
 -1       974 1.27411E-02 1.92269E-03-1.09346E-13
 -1       975 1.30241E-02 2.02703E-03-1.13957E-13
 -1       976 1.33079E-02 2.13093E-03-1.18615E-13
 -1       977 1.35152E-02 2.20368E-03-1.22162E-13
 -1       978 1.33988E-02 1.98938E-03-1.27979E-13
 -1       979 2.44239E-03 2.73371E-04-6.33116E-15
 -1       980 3.91461E-03 2.14449E-04-1.64087E-14
 -1       981 2.05591E-03-1.66997E-04-5.03457E-15
 -1       982 1.38753E-03 1.58928E-04-2.33271E-15
 -1       983 1.05800E-02 1.10572E-03-7.45640E-14
 -1       984 1.84107E-03-1.58307E-04-4.12516E-15
 -1       985 1.37753E-03-7.88756E-05-2.47083E-15
 -1       986 4.39300E-03 2.44439E-04-2.11049E-14
 -1       987 4.63110E-03 2.87107E-04-2.36407E-14
 -1       988 4.93853E-03 1.20985E-04-2.64843E-14
 -1       989 2.34148E-03-1.69496E-04-6.38140E-15
 -1       990 1.38931E-02 2.28224E-03-1.31046E-13
 -1       991 1.34980E-02 2.07102E-03-1.27564E-13
 -1       992 2.84798E-03 2.07443E-04-8.74492E-15
 -1       993 1.71618E-03 1.90200E-04-3.40403E-15
 -1       994 9.89371E-03 8.35357E-04-6.70020E-14
 -1       995 3.12402E-03 2.06894E-04-1.04507E-14
 -1       996 3.65913E-03 2.08824E-04-1.42871E-14
 -1       997 1.00547E-02 9.08887E-04-6.57429E-14
 -1       998 4.77215E-03 1.63745E-04-2.53342E-14
 -1       999 1.62805E-03 1.37287E-04-3.17436E-15
 -1      1000 4.63837E-03 2.43401E-04-2.45599E-14
 -1      1001 2.00111E-03 1.99732E-04-4.51265E-15
 -1      1002 1.03380E-02 1.01661E-03-7.04527E-14
 -1      1003 1.10888E-02 1.29805E-03-8.28580E-14
 -1      1004 1.00425E-02 9.13562E-04-6.49192E-14
 -1      1005 1.62128E-03 6.92322E-05-3.23682E-15
 -1      1006 1.08298E-02 1.19955E-03-7.86713E-14
 -1      1007 2.47358E-03-1.01588E-04-7.09574E-15
 -1      1008 3.03740E-03-9.36975E-05-1.03685E-14
 -1      1009 3.31652E-03-8.63576E-05-1.22217E-14
 -1      1010 3.59400E-03-7.67433E-05-1.42136E-14
 -1      1011 3.87065E-03-6.49196E-05-1.63424E-14
 -1      1012 4.14799E-03-5.12485E-05-1.86048E-14
 -1      1013 4.42860E-03-3.67981E-05-2.09951E-14
 -1      1014 4.71676E-03-2.42779E-05-2.35111E-14
 -1      1015 4.96265E-03 1.43708E-06-2.57866E-14
 -1      1016 1.61916E-03 2.30368E-06-3.28067E-15
 -1      1017 1.62112E-03-9.23360E-05-3.30420E-15
 -1      1018 9.76423E-03 7.27964E-04-7.10650E-14
 -1      1019 1.00424E-02 8.15268E-04-7.51506E-14
 -1      1020 1.03170E-02 9.03435E-04-7.93013E-14
 -1      1021 1.05905E-02 9.93351E-04-8.35220E-14
 -1      1022 1.08644E-02 1.08520E-03-8.78071E-14
 -1      1023 1.11394E-02 1.17884E-03-9.21505E-14
 -1      1024 1.14160E-02 1.27404E-03-9.65523E-14
 -1      1025 1.16941E-02 1.37053E-03-1.01008E-13
 -1      1026 1.19737E-02 1.46806E-03-1.05513E-13
 -1      1027 1.22546E-02 1.56643E-03-1.10067E-13
 -1      1028 1.25367E-02 1.66547E-03-1.14662E-13
 -1      1029 1.28197E-02 1.76503E-03-1.19296E-13
 -1      1030 1.19577E-02 1.59478E-03-9.84540E-14
 -1      1031 2.75638E-03-9.87820E-05-8.65917E-15
 -1      1032 1.16828E-02 1.49217E-03-9.40295E-14
 -1      1033 1.35989E-02 2.18385E-03-1.25807E-13
 -1      1034 1.14116E-02 1.39070E-03-8.96671E-14
 -1      1035 1.25153E-02 1.80132E-03-1.07470E-13
 -1      1036 1.27968E-02 1.90465E-03-1.12057E-13
 -1      1037 1.30795E-02 2.00781E-03-1.16689E-13
 -1      1038 2.56808E-03 2.07219E-04-7.18523E-15
 -1      1039 4.01958E-03 1.70650E-04-1.76946E-14
 -1      1040 2.18945E-03-1.01993E-04-5.67921E-15
 -1      1041 1.22354E-02 1.69795E-03-1.02936E-13
 -1      1042 4.51328E-03 2.40902E-04-2.28088E-14
 -1      1043 1.31091E-02 1.87693E-03-1.23620E-13
 -1      1044 4.26153E-03 1.90526E-04-2.00799E-14
 -1      1045 1.35486E-02 2.12746E-03-1.26689E-13
 -1      1046 9.54674E-03 6.69989E-04-6.74153E-14
 -1      1047 3.39493E-03 2.06865E-04-1.22997E-14
 -1      1048 1.01121E-02 9.18137E-04-6.82835E-14
 -1      1049 2.28545E-03 2.05034E-04-5.77388E-15
 -1      1050 1.91218E-03 1.45826E-04-4.25163E-15
 -1      1051 1.32085E-02 1.95796E-03-1.23205E-13
 -1      1052 4.60025E-03 1.86439E-04-2.38096E-14
 -1      1053 3.77060E-03 1.58034E-04-1.54974E-14
 -1      1054 1.97549E-03-9.63644E-05-4.71464E-15
 -1      1055 1.32862E-02 2.08018E-03-1.20213E-13
 -1      1056 2.69632E-03 1.42636E-04-8.06700E-15
 -1      1057 1.61903E-03-4.47692E-05-3.29671E-15
 -1      1058 1.03884E-02 1.01525E-03-7.28547E-14
 -1      1059 1.11452E-02 1.29115E-03-8.53655E-14
 -1      1060 4.75553E-03 7.23492E-05-2.44273E-14
 -1      1061 1.06303E-02 1.10153E-03-7.69368E-14
 -1      1062 9.86945E-03 8.05725E-04-6.92894E-14
 -1      1063 2.97337E-03 1.44137E-04-9.71224E-15
 -1      1064 3.43964E-03-1.53770E-05-1.31367E-14
 -1      1065 3.71059E-03-3.87638E-06-1.51883E-14
 -1      1066 3.97875E-03 1.11794E-05-1.73735E-14
 -1      1067 4.24543E-03 2.97156E-05-1.96897E-14
 -1      1068 4.49838E-03 5.07887E-05-2.20033E-14
 -1      1069 1.17355E-02 1.47929E-03-9.66257E-14
 -1      1070 1.00323E-02 8.43295E-04-7.28035E-14
 -1      1071 2.19619E-03 1.51118E-04-5.48150E-15
 -1      1072 2.32576E-03-3.59751E-05-6.33660E-15
 -1      1073 1.86501E-03 3.82440E-05-4.20264E-15
 -1      1074 4.14666E-03 1.29460E-04-1.90252E-14
 -1      1075 1.02964E-02 9.26460E-04-7.69070E-14
 -1      1076 1.05615E-02 1.01324E-03-8.10813E-14
 -1      1077 1.08291E-02 1.10342E-03-8.53240E-14
 -1      1078 1.10992E-02 1.19645E-03-8.96307E-14
 -1      1079 1.13719E-02 1.29170E-03-9.40011E-14
 -1      1080 1.16472E-02 1.38866E-03-9.84273E-14
 -1      1081 1.19246E-02 1.48688E-03-1.02900E-13
 -1      1082 1.22038E-02 1.58598E-03-1.07430E-13
 -1      1083 1.24847E-02 1.68574E-03-1.12002E-13
 -1      1084 1.27667E-02 1.78598E-03-1.16614E-13
 -1      1085 4.44094E-03 1.90912E-04-2.20932E-14
 -1      1086 1.01503E-02 9.17094E-04-7.09580E-14
 -1      1087 1.14629E-02 1.37953E-03-9.22251E-14
 -1      1088 1.28513E-02 1.88586E-03-1.14761E-13
 -1      1089 1.25696E-02 1.78376E-03-1.10157E-13
 -1      1090 2.60807E-03-3.37606E-05-7.82014E-15
 -1      1091 1.29874E-02 1.87180E-03-1.19900E-13
 -1      1092 1.08849E-02 1.19459E-03-8.11328E-14
 -1      1093 2.88815E-03-2.98490E-05-9.44908E-15
 -1      1094 3.16546E-03-2.38638E-05-1.12223E-14
 -1      1095 1.20113E-02 1.58022E-03-1.01084E-13
 -1      1096 1.03923E-02 9.96293E-04-7.50138E-14
 -1      1097 2.11289E-03-3.24089E-05-5.31943E-15
 -1      1098 1.86340E-03-1.13263E-05-4.23040E-15
 -1      1099 3.89832E-03 1.10708E-04-1.67529E-14
 -1      1100 1.11942E-02 1.28159E-03-8.78866E-14
 -1      1101 3.51208E-03 1.50534E-04-1.34328E-14
 -1      1102 1.30574E-02 1.95765E-03-1.18265E-13
 -1      1103 1.22895E-02 1.68181E-03-1.05594E-13
 -1      1104 2.41579E-03 1.40737E-04-6.56846E-15
 -1      1105 3.24578E-03 1.46362E-04-1.15018E-14
 -1      1106 4.55273E-03 1.21966E-04-2.29076E-14
 -1      1107 1.33027E-02 2.04263E-03-1.22460E-13
 -1      1108 2.82865E-03 7.95867E-05-8.97562E-15
 -1      1109 2.54977E-03 7.69140E-05-7.39229E-15
 -1      1110 1.26230E-02 1.76510E-03-1.12837E-13
 -1      1111 3.82666E-03 6.54432E-05-1.61649E-14
 -1      1112 1.06454E-02 1.08279E-03-7.91834E-14
 -1      1113 2.04725E-03 8.45960E-05-4.92234E-15
 -1      1114 1.15108E-02 1.36585E-03-9.47966E-14
 -1      1115 1.10587E-02 1.21118E-03-8.71193E-14
 -1      1116 1.18750E-02 1.50380E-03-1.00290E-13
 -1      1117 3.10364E-03 8.31888E-05-1.07037E-14
 -1      1118 2.46526E-03 3.04179E-05-7.00419E-15
 -1      1119 3.29556E-03 4.36057E-05-1.20802E-14
 -1      1120 1.09304E-02 1.18637E-03-8.36101E-14
 -1      1121 3.56375E-03 5.25504E-05-1.40554E-14
 -1      1122 2.26810E-03 7.43751E-05-5.95585E-15
 -1      1123 2.08678E-03 2.76009E-05-5.16309E-15
 -1      1124 2.16481E-03 8.77888E-06-5.53618E-15
 -1      1125 1.12832E-02 1.28787E-03-9.09326E-14
 -1      1126 1.07941E-02 1.11839E-03-8.28522E-14
 -1      1127 1.29195E-02 1.87919E-03-1.17329E-13
 -1      1128 0.00000E+00 0.00000E+00 0.00000E+00
 -1      1129 0.00000E+00 0.00000E+00 0.00000E+00
 -1      1130 0.00000E+00 0.00000E+00 0.00000E+00
 -1      1131 0.00000E+00 0.00000E+00 0.00000E+00
 -1      1132 0.00000E+00 0.00000E+00 0.00000E+00
 -1      1133 0.00000E+00 0.00000E+00 0.00000E+00
 -1      1134 0.00000E+00 0.00000E+00 0.00000E+00
 -1      1135 0.00000E+00 0.00000E+00 0.00000E+00
 -1      1136 0.00000E+00 0.00000E+00 0.00000E+00
 -1      1137 0.00000E+00 0.00000E+00 0.00000E+00
 -1      1138 0.00000E+00 0.00000E+00 0.00000E+00
 -1      1139 0.00000E+00 0.00000E+00 0.00000E+00
 -1      1140 0.00000E+00 0.00000E+00 0.00000E+00
 -1      1141 0.00000E+00 0.00000E+00 0.00000E+00
 -1      1142 0.00000E+00 0.00000E+00 0.00000E+00
 -1      1143 0.00000E+00 0.00000E+00 0.00000E+00
 -1      1144 0.00000E+00 0.00000E+00 0.00000E+00
 -1      1145 2.10786E-04-1.47562E-04 1.60191E-17
 -1      1146 5.49606E-04-3.34838E-04-7.06087E-17
 -1      1147 8.30935E-04-4.53973E-04-3.28676E-16
 -1      1148 1.10052E-03-5.32930E-04-7.84664E-16
 -1      1149 1.36651E-03-5.87047E-04-1.42844E-15
 -1      1150 1.63260E-03-6.24180E-04-2.25541E-15
 -1      1151 1.90089E-03-6.48987E-04-3.26253E-15
 -1      1152 2.17252E-03-6.64664E-04-4.44608E-15
 -1      1153 2.44819E-03-6.73680E-04-5.80334E-15
 -1      1154 2.72830E-03-6.78082E-04-7.33077E-15
 -1      1155 3.01316E-03-6.79692E-04-9.02152E-15
 -1      1156 3.30294E-03-6.80242E-04-1.08658E-14
 -1      1157 3.59768E-03-6.81471E-04-1.28596E-14
 -1      1158 3.89712E-03-6.85172E-04-1.50021E-14
 -1      1159 4.20062E-03-6.93150E-04-1.72878E-14
 -1      1160 4.50689E-03-7.07047E-04-1.97121E-14
 -1      1161 4.81387E-03-7.27995E-04-2.22699E-14
 -1      1162 5.11865E-03-7.56062E-04-2.49579E-14
 -1      1163 5.41765E-03-7.89561E-04-2.77707E-14
 -1      1164 5.70715E-03-8.24420E-04-3.07127E-14
 -1      1165 5.98428E-03-8.53988E-04-3.37841E-14
 -1      1166 6.24815E-03-8.69689E-04-3.69840E-14
 -1      1167 6.50073E-03-8.62724E-04-4.03047E-14
 -1      1168 6.74690E-03-8.26453E-04-4.37490E-14
 -1      1169 6.99337E-03-7.58503E-04-4.73091E-14
 -1      1170 7.24678E-03-6.61577E-04-5.09740E-14
 -1      1171 7.51186E-03-5.42526E-04-5.47380E-14
 -1      1172 7.79040E-03-4.10186E-04-5.86006E-14
 -1      1173 8.08140E-03-2.73029E-04-6.25554E-14
 -1      1174 8.38198E-03-1.37545E-04-6.65954E-14
 -1      1175 8.68854E-03-7.66418E-06-7.07116E-14
 -1      1176 8.99768E-03 1.14992E-04-7.48939E-14
 -1      1177 9.30672E-03 2.30455E-04-7.91363E-14
 -1      1178 9.61386E-03 3.39703E-04-8.34336E-14
 -1      1179 9.91811E-03 4.44109E-04-8.77891E-14
 -1      1180 1.02191E-02 5.45069E-04-9.21919E-14
 -1      1181 1.05169E-02 6.43807E-04-9.66411E-14
 -1      1182 1.08119E-02 7.41297E-04-1.01141E-13
 -1      1183 1.11043E-02 8.38257E-04-1.05686E-13
 -1      1184 1.13948E-02 9.35178E-04-1.10268E-13
 -1      1185 1.16838E-02 1.03237E-03-1.14884E-13
 -1      1186 1.19715E-02 1.13000E-03-1.19551E-13
 -1      1187 1.22585E-02 1.22815E-03-1.24275E-13
 -1      1188 1.25448E-02 1.32682E-03-1.29042E-13
 -1      1189 1.28308E-02 1.42598E-03-1.33845E-13
 -1      1190 1.31165E-02 1.52556E-03-1.38665E-13
 -1      1191 1.34021E-02 1.62549E-03-1.43484E-13
 -1      1192 1.36877E-02 1.72569E-03-1.48290E-13
 -1      1193 1.39734E-02 1.82605E-03-1.53114E-13
 -1      1194 1.42519E-02 1.92396E-03-1.57852E-13
 -1      1195 2.27416E-04 1.59871E-04 4.14572E-17
 -1      1196 5.51619E-04 3.39395E-04 1.59649E-17
 -1      1197 8.31599E-04 4.55988E-04-1.59757E-16
 -1      1198 1.10103E-03 5.34286E-04-5.05726E-16
 -1      1199 1.36688E-03 5.88080E-04-1.02106E-15
 -1      1200 1.63291E-03 6.24780E-04-1.70672E-15
 -1      1201 1.90121E-03 6.48859E-04-2.56175E-15
 -1      1202 2.17305E-03 6.63363E-04-3.58166E-15
 -1      1203 2.44934E-03 6.70556E-04-4.76382E-15
 -1      1204 2.73091E-03 6.72243E-04-6.10274E-15
 -1      1205 3.01876E-03 6.69984E-04-7.59896E-15
 -1      1206 3.31418E-03 6.65303E-04-9.25029E-15
 -1      1207 3.61897E-03 6.59948E-04-1.10504E-14
 -1      1208 3.93551E-03 6.56249E-04-1.29964E-14
 -1      1209 4.26688E-03 6.57649E-04-1.50881E-14
 -1      1210 4.61668E-03 6.69466E-04-1.73266E-14
 -1      1211 4.98847E-03 6.99897E-04-1.96997E-14
 -1      1212 5.38433E-03 7.60917E-04-2.22008E-14
 -1      1213 5.81272E-03 8.71433E-04-2.48895E-14
 -1      1214 6.25221E-03 1.04584E-03-2.77038E-14
 -1      1215 6.66777E-03 1.27910E-03-3.05762E-14
 -1      1216 7.03877E-03 1.54458E-03-3.35729E-14
 -1      1217 7.33167E-03 1.76437E-03-3.65288E-14
 -1      1218 7.57949E-03 1.88134E-03-3.95877E-14
 -1      1219 7.83368E-03 1.86099E-03-4.28387E-14
 -1      1220 8.13487E-03 1.73189E-03-4.61967E-14
 -1      1221 8.50754E-03 1.56609E-03-4.97251E-14
 -1      1222 8.92448E-03 1.43466E-03-5.33400E-14
 -1      1223 9.35430E-03 1.36618E-03-5.70315E-14
 -1      1224 9.77383E-03 1.35845E-03-6.07886E-14
 -1      1225 1.01720E-02 1.39712E-03-6.46125E-14
 -1      1226 1.05557E-02 1.46877E-03-6.86195E-14
 -1      1227 1.09170E-02 1.56018E-03-7.27080E-14
 -1      1228 1.12518E-02 1.66021E-03-7.67737E-14
 -1      1229 1.15731E-02 1.76591E-03-8.09232E-14
 -1      1230 1.18841E-02 1.87429E-03-8.51403E-14
 -1      1231 1.21876E-02 1.98358E-03-8.94201E-14
 -1      1232 1.24856E-02 2.09281E-03-9.37734E-14
 -1      1233 1.27796E-02 2.20145E-03-9.82058E-14
 -1      1234 1.30708E-02 2.30925E-03-1.02714E-13
 -1      1235 1.33600E-02 2.41615E-03-1.07293E-13
 -1      1236 1.36478E-02 2.52215E-03-1.11943E-13
 -1      1237 1.39346E-02 2.62734E-03-1.16656E-13
 -1      1238 1.42209E-02 2.73180E-03-1.21410E-13
 -1      1239 1.45067E-02 2.83564E-03-1.26203E-13
 -1      1240 1.47924E-02 2.93898E-03-1.31040E-13
 -1      1241 1.50780E-02 3.04191E-03-1.35900E-13
 -1      1242 1.53635E-02 3.14456E-03-1.40775E-13
 -1      1243 1.56491E-02 3.24703E-03-1.45633E-13
 -1      1244 1.59348E-02 3.34944E-03-1.50489E-13
 -1      1245 1.60273E-02 3.35851E-03-1.53161E-13
 -1      1246 1.59265E-02 3.27419E-03-1.53613E-13
 -1      1247 1.58258E-02 3.18981E-03-1.54090E-13
 -1      1248 1.57253E-02 3.10540E-03-1.54572E-13
 -1      1249 1.56249E-02 3.02100E-03-1.55042E-13
 -1      1250 1.55256E-02 2.93736E-03-1.55490E-13
 -1      1251 1.54264E-02 2.85378E-03-1.55932E-13
 -1      1252 1.53266E-02 2.76955E-03-1.56370E-13
 -1      1253 1.52268E-02 2.68536E-03-1.56793E-13
 -1      1254 1.51272E-02 2.60117E-03-1.57192E-13
 -1      1255 1.50277E-02 2.51696E-03-1.57586E-13
 -1      1256 1.49291E-02 2.43341E-03-1.57983E-13
 -1      1257 1.48307E-02 2.34980E-03-1.58384E-13
 -1      1258 1.47317E-02 2.26543E-03-1.58785E-13
 -1      1259 1.46328E-02 2.18105E-03-1.59191E-13
 -1      1260 1.45340E-02 2.09668E-03-1.59594E-13
 -1      1261 1.44362E-02 2.01308E-03-1.59981E-13
 -1      1262 9.59995E-03 7.27435E-04-4.96308E-14
 -1      1263 9.53354E-03 8.75910E-04-4.91285E-14
 -1      1264 9.35603E-03 1.03431E-03-4.82772E-14
 -1      1265 9.07705E-03 1.19868E-03-4.71354E-14
 -1      1266 8.71222E-03 1.35897E-03-4.57396E-14
 -1      1267 8.28013E-03 1.49489E-03-4.41382E-14
 -1      1268 7.81812E-03 1.57475E-03-4.24772E-14
 -1      1269 7.33751E-03 1.57918E-03-4.08074E-14
 -1      1270 6.83829E-03 1.50049E-03-3.91498E-14
 -1      1271 6.33053E-03 1.34431E-03-3.75727E-14
 -1      1272 5.86190E-03 1.14097E-03-3.62244E-14
 -1      1273 5.48626E-03 9.39389E-04-3.52316E-14
 -1      1274 5.21236E-03 7.56732E-04-3.45809E-14
 -1      1275 5.03625E-03 5.90521E-04-3.42251E-14
 -1      1276 4.96398E-03 4.30623E-04-3.41733E-14
 -1      1277 5.01584E-03 2.72125E-04-3.44868E-14
 -1      1278 5.18250E-03 1.24188E-04-3.51297E-14
 -1      1279 5.43304E-03-1.11190E-05-3.60267E-14
 -1      1280 5.76238E-03-1.39249E-04-3.72044E-14
 -1      1281 6.14472E-03-2.45788E-04-3.85982E-14
 -1      1282 6.58261E-03-3.17125E-04-4.02347E-14
 -1      1283 7.04686E-03-3.37006E-04-4.19837E-14
 -1      1284 7.49007E-03-2.99150E-04-4.36307E-14
 -1      1285 7.94409E-03-2.05580E-04-4.52635E-14
 -1      1286 8.38204E-03-7.16669E-05-4.67444E-14
 -1      1287 8.77619E-03 8.37193E-05-4.79687E-14
 -1      1288 9.12574E-03 2.52356E-04-4.89324E-14
 -1      1289 9.39071E-03 4.17789E-04-4.95417E-14
 -1      1290 9.55255E-03 5.76130E-04-4.97789E-14
 -1      1291 1.66243E-04-1.09706E-04-1.13299E-17
 -1      1292 1.12525E-04-5.64304E-05-4.19993E-17
 -1      1293 1.17505E-04-6.70682E-05-3.34747E-17
 -1      1294 1.08513E-04-4.28593E-05-5.56873E-17
 -1      1295 1.10332E-04-4.90062E-05-5.17164E-17
 -1      1296 2.26391E-04-1.06368E-04-1.21864E-16
 -1      1297 1.06969E-04-3.29365E-05-6.26940E-17
 -1      1298 1.07802E-04-3.76647E-05-6.07560E-17
 -1      1299 2.19326E-04-8.10892E-05-1.45866E-16
 -1      1300 1.06187E-04-2.47000E-05-6.65700E-17
 -1      1301 1.06623E-04-2.87056E-05-6.56349E-17
 -1      1302 2.16122E-04-6.18877E-05-1.58998E-16
 -1      1303 1.05761E-04-1.75373E-05-6.83996E-17
 -1      1304 1.06005E-04-2.10442E-05-6.81014E-17
 -1      1305 2.14422E-04-4.59050E-05-1.66032E-16
 -1      1306 1.05514E-04-1.08507E-05-6.90908E-17
 -1      1307 1.05651E-04-1.41446E-05-6.91043E-17
 -1      1308 2.13436E-04-3.17147E-05-1.69339E-16
 -1      1309 1.05397E-04-4.51477E-06-6.88468E-17
 -1      1310 1.05458E-04-7.65680E-06-6.89824E-17
 -1      1311 2.12875E-04-1.85146E-05-1.70071E-16
 -1      1312 1.05386E-04 1.68011E-06-6.81828E-17
 -1      1313 1.05382E-04-1.41455E-06-6.84403E-17
 -1      1314 2.12625E-04-5.92768E-06-1.69230E-16
 -1      1315 1.05475E-04 7.93096E-06-6.67191E-17
 -1      1316 1.05408E-04 4.78336E-06-6.71257E-17
 -1      1317 2.12641E-04 6.46854E-06-1.66872E-16
 -1      1318 1.05683E-04 1.44430E-05-6.44423E-17
 -1      1319 1.05539E-04 1.11352E-05-6.51334E-17
 -1      1320 2.12923E-04 1.90778E-05-1.62671E-16
 -1      1321 1.06047E-04 2.13285E-05-6.09999E-17
 -1      1322 1.05797E-04 1.77983E-05-6.20570E-17
 -1      1323 2.13511E-04 3.22160E-05-1.56477E-16
 -1      1324 1.06687E-04 2.91344E-05-5.59313E-17
 -1      1325 1.06242E-04 2.50836E-05-5.76525E-17
 -1      1326 2.14530E-04 4.64992E-05-1.47411E-16
 -1      1327 1.07857E-04 3.82494E-05-4.83148E-17
 -1      1328 1.07022E-04 3.34469E-05-5.12286E-17
 -1      1329 2.16274E-04 6.28080E-05-1.34373E-16
 -1      1330 1.10314E-04 4.97534E-05-3.59549E-17
 -1      1331 1.08528E-04 4.35357E-05-4.11861E-17
 -1      1332 2.19455E-04 8.23378E-05-1.14722E-16
 -1      1333 1.16808E-04 6.71172E-05-1.63172E-17
 -1      1334 1.12167E-04 5.72396E-05-2.58176E-17
 -1      1335 2.26376E-04 1.08192E-04-8.49879E-17
 -1      1336 1.57059E-04 1.09262E-04 1.44877E-17
 -1      1337 1.35403E-04 8.55395E-05-4.67562E-18
 -1      1338 2.55724E-04 1.50834E-04-4.96565E-17
 -1      1339 3.34032E-04 2.19234E-04 1.30104E-18
 -1      1340 4.20440E-04-2.59677E-04-8.68988E-17
 -1      1341 5.73278E-04-3.33620E-04-1.74719E-16
 -1      1342 7.20319E-04-3.93017E-04-3.14527E-16
 -1      1343 8.63448E-04-4.41016E-04-5.01755E-16
 -1      1344 6.11323E-04-3.27144E-04-2.93168E-16
 -1      1345 1.00356E-03-4.80695E-04-7.34682E-16
 -1      1346 1.14161E-03-5.13192E-04-1.01433E-15
 -1      1347 9.04638E-04-4.25200E-04-6.79673E-16
 -1      1348 1.27846E-03-5.40358E-04-1.33937E-15
 -1      1349 1.41463E-03-5.62677E-04-1.71046E-15
 -1      1350 1.18760E-03-4.91567E-04-1.24766E-15
 -1      1351 1.55058E-03-5.81200E-04-2.12650E-15
 -1      1352 1.68659E-03-5.96270E-04-2.58681E-15
 -1      1353 1.46565E-03-5.36815E-04-1.99535E-15
 -1      1354 1.82293E-03-6.08508E-04-3.09159E-15
 -1      1355 1.95975E-03-6.18226E-04-3.64064E-15
 -1      1356 1.74219E-03-5.67091E-04-2.92039E-15
 -1      1357 2.09721E-03-6.25830E-04-4.23281E-15
 -1      1358 2.23539E-03-6.31601E-04-4.86820E-15
 -1      1359 2.01932E-03-5.86398E-04-4.01973E-15
 -1      1360 2.37440E-03-6.35833E-04-5.54651E-15
 -1      1361 2.51428E-03-6.38780E-04-6.26715E-15
 -1      1362 2.29826E-03-5.97660E-04-5.29084E-15
 -1      1363 2.65511E-03-6.40679E-04-7.02915E-15
 -1      1364 2.79692E-03-6.41765E-04-7.83209E-15
 -1      1365 2.57982E-03-6.03183E-04-6.72960E-15
 -1      1366 2.93975E-03-6.42251E-04-8.67484E-15
 -1      1367 3.08362E-03-6.42362E-04-9.55669E-15
 -1      1368 2.86450E-03-6.04927E-04-8.33138E-15
 -1      1369 3.22856E-03-6.42309E-04-1.04763E-14
 -1      1370 3.37456E-03-6.42314E-04-1.14333E-14
 -1      1371 3.15262E-03-6.04688E-04-1.00899E-14
 -1      1372 3.52162E-03-6.42605E-04-1.24283E-14
 -1      1373 3.66971E-03-6.43400E-04-1.34599E-14
 -1      1374 3.44438E-03-6.04229E-04-1.19994E-14
 -1      1375 3.81880E-03-6.44953E-04-1.45276E-14
 -1      1376 3.96880E-03-6.47468E-04-1.56315E-14
 -1      1377 3.73975E-03-6.05375E-04-1.40572E-14
 -1      1378 4.11961E-03-6.51218E-04-1.67712E-14
 -1      1379 4.27110E-03-6.56372E-04-1.79458E-14
 -1      1380 4.03844E-03-6.10025E-04-1.62585E-14
 -1      1381 4.42311E-03-6.63188E-04-1.91541E-14
 -1      1382 4.57540E-03-6.71758E-04-2.03960E-14
 -1      1383 4.33984E-03-6.20068E-04-1.85999E-14
 -1      1384 4.72774E-03-6.82263E-04-2.16712E-14
 -1      1385 4.87982E-03-6.94657E-04-2.29799E-14
 -1      1386 4.64285E-03-6.37119E-04-2.10769E-14
 -1      1387 5.03131E-03-7.08944E-04-2.43199E-14
 -1      1388 5.18185E-03-7.24866E-04-2.56908E-14
 -1      1389 4.94587E-03-6.62055E-04-2.36857E-14
 -1      1390 5.33108E-03-7.42132E-04-2.70938E-14
 -1      1391 5.47863E-03-7.60203E-04-2.85291E-14
 -1      1392 5.24681E-03-6.94328E-04-2.64214E-14
 -1      1393 5.62415E-03-7.78402E-04-2.99958E-14
 -1      1394 5.76738E-03-7.95892E-04-3.14949E-14
 -1      1395 5.54333E-03-7.31188E-04-2.92830E-14
 -1      1396 5.90812E-03-8.11610E-04-3.30263E-14
 -1      1397 6.04628E-03-8.24496E-04-3.45894E-14
 -1      1398 5.83326E-03-7.67108E-04-3.22729E-14
 -1      1399 6.18190E-03-8.33264E-04-3.61839E-14
 -1      1400 6.31519E-03-8.36838E-04-3.78103E-14
 -1      1401 6.11530E-03-7.93896E-04-3.53898E-14
 -1      1402 6.44649E-03-8.34030E-04-3.94683E-14
 -1      1403 6.57627E-03-8.24030E-04-4.11546E-14
 -1      1404 6.38965E-03-8.01912E-04-3.86349E-14
 -1      1405 6.70512E-03-8.06130E-04-4.28724E-14
 -1      1406 6.83369E-03-7.80041E-04-4.46207E-14
 -1      1407 6.65840E-03-7.82407E-04-4.20025E-14
 -1      1408 6.96266E-03-7.45788E-04-4.63959E-14
 -1      1409 7.09268E-03-7.03702E-04-4.81981E-14
 -1      1410 6.92522E-03-7.30202E-04-4.54879E-14
 -1      1411 7.22432E-03-6.54532E-04-5.00275E-14
 -1      1412 7.35804E-03-5.99116E-04-5.18800E-14
 -1      1413 7.19438E-03-6.45488E-04-4.90843E-14
 -1      1414 7.49417E-03-5.38654E-04-5.37581E-14
 -1      1415 7.63289E-03-4.74232E-04-5.56613E-14
 -1      1416 7.46946E-03-5.33750E-04-5.27839E-14
 -1      1417 7.77422E-03-4.07121E-04-5.75872E-14
 -1      1418 7.91809E-03-3.38374E-04-5.95379E-14
 -1      1419 7.75245E-03-4.03864E-04-5.65800E-14
 -1      1420 8.06428E-03-2.69022E-04-6.15102E-14
 -1      1421 8.21252E-03-1.99891E-04-6.35039E-14
 -1      1422 8.04348E-03-2.65409E-04-6.04697E-14
 -1      1423 8.36248E-03-1.31625E-04-6.55200E-14
 -1      1424 8.51380E-03-6.47530E-05-6.75543E-14
 -1      1425 8.34122E-03-1.26408E-04-6.44491E-14
 -1      1426 8.66612E-03 4.59314E-07-6.96064E-14
 -1      1427 8.81912E-03 6.37542E-05-7.16768E-14
 -1      1428 8.64355E-03 7.79805E-06-6.85078E-14
 -1      1429 8.97248E-03 1.25146E-04-7.37637E-14
 -1      1430 9.12592E-03 1.84577E-04-7.58654E-14
 -1      1431 8.94824E-03 1.34584E-04-7.26371E-14
 -1      1432 9.27923E-03 2.42225E-04-7.79817E-14
 -1      1433 9.43220E-03 2.98156E-04-8.01114E-14
 -1      1434 9.25333E-03 2.53426E-04-7.68310E-14
 -1      1435 9.58471E-03 3.52609E-04-8.22568E-14
 -1      1436 9.73664E-03 4.05713E-04-8.44165E-14
 -1      1437 9.55741E-03 3.65113E-04-8.10841E-14
 -1      1438 9.88792E-03 4.57705E-04-8.65887E-14
 -1      1439 1.00385E-02 5.08731E-04-8.87735E-14
 -1      1440 9.85955E-03 4.71054E-04-8.53929E-14
 -1      1441 1.01884E-02 5.58994E-04-9.09715E-14
 -1      1442 1.03376E-02 6.08632E-04-9.31825E-14
 -1      1443 1.01593E-02 5.72800E-04-8.97557E-14
 -1      1444 1.04861E-02 6.57799E-04-9.54059E-14
 -1      1445 1.06339E-02 7.06612E-04-9.76405E-14
 -1      1446 1.04566E-02 6.71764E-04-9.41710E-14
 -1      1447 1.07811E-02 7.55181E-04-9.98871E-14
 -1      1448 1.09278E-02 8.03598E-04-1.02148E-13
 -1      1449 1.07515E-02 7.69102E-04-9.86370E-14
 -1      1450 1.10739E-02 8.51932E-04-1.04416E-13
 -1      1451 1.12195E-02 9.00252E-04-1.06692E-13
 -1      1452 1.10443E-02 8.65681E-04-1.03148E-13
 -1      1453 1.13647E-02 9.48596E-04-1.08981E-13
 -1      1454 1.15096E-02 9.97013E-04-1.11280E-13
 -1      1455 1.13353E-02 9.62106E-04-1.07699E-13
 -1      1456 1.16541E-02 1.04552E-03-1.13587E-13
 -1      1457 1.17983E-02 1.09415E-03-1.15904E-13
 -1      1458 1.16248E-02 1.05877E-03-1.12289E-13
 -1      1459 1.19422E-02 1.14290E-03-1.18236E-13
 -1      1460 1.20860E-02 1.19179E-03-1.20581E-13
 -1      1461 1.19132E-02 1.15589E-03-1.16924E-13
 -1      1462 1.22295E-02 1.24082E-03-1.22938E-13
 -1      1463 1.23729E-02 1.28999E-03-1.25307E-13
 -1      1464 1.22007E-02 1.25357E-03-1.21606E-13
 -1      1465 1.25161E-02 1.33929E-03-1.27689E-13
 -1      1466 1.26593E-02 1.38873E-03-1.30077E-13
 -1      1467 1.24876E-02 1.35184E-03-1.26339E-13
 -1      1468 1.28023E-02 1.43829E-03-1.32473E-13
 -1      1469 1.29453E-02 1.48797E-03-1.34877E-13
 -1      1470 1.27740E-02 1.45066E-03-1.31109E-13
 -1      1471 1.30883E-02 1.53775E-03-1.37284E-13
 -1      1472 1.32312E-02 1.58762E-03-1.39691E-13
 -1      1473 1.30600E-02 1.54998E-03-1.35907E-13
 -1      1474 1.33740E-02 1.63758E-03-1.42100E-13
 -1      1475 1.35169E-02 1.68762E-03-1.44508E-13
 -1      1476 1.33459E-02 1.64971E-03-1.40721E-13
 -1      1477 1.36597E-02 1.73772E-03-1.46916E-13
 -1      1478 1.38026E-02 1.78787E-03-1.49323E-13
 -1      1479 1.36317E-02 1.74977E-03-1.45536E-13
 -1      1480 1.39454E-02 1.83806E-03-1.51739E-13
 -1      1481 1.40883E-02 1.88827E-03-1.54162E-13
 -1      1482 1.39174E-02 1.85007E-03-1.50362E-13
 -1      1483 1.43004E-02 1.96539E-03-1.57664E-13
 -1      1484 1.42725E-02 1.97740E-03-1.56281E-13
 -1      1485 6.41357E-04 3.68263E-04-1.00736E-16
 -1      1486 4.91511E-04 3.01119E-04-2.85416E-17
 -1      1487 4.44006E-04 2.63474E-04-6.63396E-17
 -1      1488 9.26732E-04 4.65535E-04-3.70567E-16
 -1      1489 7.85917E-04 4.21447E-04-2.14889E-16
 -1      1490 7.43606E-04 3.85815E-04-2.61211E-16
 -1      1491 1.20192E-03 5.31758E-04-8.06633E-16
 -1      1492 1.06504E-03 5.01744E-04-5.67431E-16
 -1      1493 1.02982E-03 4.68295E-04-6.20841E-16
 -1      1494 1.47340E-03 5.77145E-04-1.41029E-15
 -1      1495 1.33779E-03 5.56671E-04-1.08751E-15
 -1      1496 1.30843E-03 5.24593E-04-1.14551E-15
 -1      1497 1.74472E-03 6.07504E-04-2.18244E-15
 -1      1498 1.60889E-03 5.93962E-04-1.77529E-15
 -1      1499 1.58407E-03 5.62666E-04-1.83622E-15
 -1      1500 2.01792E-03 6.26598E-04-3.12143E-15
 -1      1501 1.88098E-03 6.18282E-04-2.63103E-15
 -1      1502 1.85962E-03 5.87367E-04-2.69332E-15
 -1      1503 2.29427E-03 6.37107E-04-4.22255E-15
 -1      1504 2.15563E-03 6.32783E-04-3.65211E-15
 -1      1505 2.13686E-03 6.01975E-04-3.71459E-15
 -1      1506 2.57476E-03 6.41072E-04-5.48316E-15
 -1      1507 2.43394E-03 6.39782E-04-4.83309E-15
 -1      1508 2.41699E-03 6.08877E-04-4.89615E-15
 -1      1509 2.86032E-03 6.40153E-04-6.89982E-15
 -1      1510 2.71685E-03 6.41102E-04-6.17215E-15
 -1      1511 2.70100E-03 6.09924E-04-6.23411E-15
 -1      1512 3.15207E-03 6.35839E-04-8.47174E-15
 -1      1513 3.00536E-03 6.38289E-04-7.66664E-15
 -1      1514 2.98987E-03 6.06659E-04-7.72738E-15
 -1      1515 3.45140E-03 6.29677E-04-1.01952E-14
 -1      1516 3.30069E-03 6.32827E-04-9.31434E-15
 -1      1517 3.28472E-03 6.00538E-04-9.37310E-15
 -1      1518 3.76012E-03 6.23569E-04-1.20657E-14
 -1      1519 3.60446E-03 6.26399E-04-1.11123E-14
 -1      1520 3.58693E-03 5.93188E-04-1.11677E-14
 -1      1521 4.08053E-03 6.20205E-04-1.40816E-14
 -1      1522 3.91870E-03 6.21237E-04-1.30556E-14
 -1      1523 3.89823E-03 5.86757E-04-1.31087E-14
 -1      1524 4.41538E-03 6.23701E-04-1.62422E-14
 -1      1525 4.24596E-03 6.20659E-04-1.51436E-14
 -1      1526 4.22065E-03 5.84447E-04-1.51932E-14
 -1      1527 4.76752E-03 6.40508E-04-1.85440E-14
 -1      1528 4.58909E-03 6.29836E-04-1.73762E-14
 -1      1529 4.55647E-03 5.91283E-04-1.74208E-14
 -1      1530 5.13916E-03 6.80502E-04-2.09762E-14
 -1      1531 4.95076E-03 6.56824E-04-1.97441E-14
 -1      1532 4.90783E-03 6.15166E-04-1.97833E-14
 -1      1533 5.53036E-03 7.57696E-04-2.35333E-14
 -1      1534 5.33239E-03 7.13589E-04-2.22395E-14
 -1      1535 5.27606E-03 6.67968E-04-2.22742E-14
 -1      1536 5.95720E-03 8.97105E-04-2.63475E-14
 -1      1537 5.74233E-03 8.19291E-04-2.49242E-14
 -1      1538 5.67028E-03 7.68906E-04-2.49539E-14
 -1      1539 6.36664E-03 1.09815E-03-2.91521E-14
 -1      1540 6.16280E-03 9.89842E-04-2.77345E-14
 -1      1541 6.07669E-03 9.35018E-04-2.77602E-14
 -1      1542 6.75916E-03 1.35649E-03-3.20800E-14
 -1      1543 6.56664E-03 1.22280E-03-3.06005E-14
 -1      1544 6.47446E-03 1.16625E-03-3.06201E-14
 -1      1545 7.11456E-03 1.62362E-03-3.51290E-14
 -1      1546 6.94242E-03 1.49397E-03-3.35904E-14
 -1      1547 6.85775E-03 1.44118E-03-3.36027E-14
 -1      1548 7.39854E-03 1.80145E-03-3.79755E-14
 -1      1549 7.26002E-03 1.72395E-03-3.65391E-14
 -1      1550 7.19606E-03 1.68020E-03-3.65462E-14
 -1      1551 7.69492E-03 1.86150E-03-4.12476E-14
 -1      1552 7.54667E-03 1.85062E-03-3.95970E-14
 -1      1553 7.51157E-03 1.81663E-03-3.95986E-14
 -1      1554 7.99179E-03 1.77991E-03-4.44650E-14
 -1      1555 7.83945E-03 1.83403E-03-4.28439E-14
 -1      1556 7.83292E-03 1.80456E-03-4.28438E-14
 -1      1557 8.34437E-03 1.61472E-03-4.79526E-14
 -1      1558 8.16261E-03 1.70170E-03-4.61971E-14
 -1      1559 8.17563E-03 1.67008E-03-4.61942E-14
 -1      1560 8.73539E-03 1.45338E-03-5.15228E-14
 -1      1561 8.53626E-03 1.52954E-03-4.97277E-14
 -1      1562 8.55573E-03 1.49288E-03-4.97242E-14
 -1      1563 9.14511E-03 1.34845E-03-5.51804E-14
 -1      1564 8.93936E-03 1.39289E-03-5.33419E-14
 -1      1565 8.95287E-03 1.35210E-03-5.33413E-14
 -1      1566 9.55366E-03 1.31033E-03-5.89049E-14
 -1      1567 9.35058E-03 1.32169E-03-5.70342E-14
 -1      1568 9.35120E-03 1.27878E-03-5.70337E-14
 -1      1569 9.94841E-03 1.32817E-03-6.26981E-14
 -1      1570 9.75329E-03 1.31340E-03-6.07919E-14
 -1      1571 9.73964E-03 1.26991E-03-6.07957E-14
 -1      1572 1.03242E-02 1.38517E-03-6.65644E-14
 -1      1573 1.01388E-02 1.35277E-03-6.46217E-14
 -1      1574 1.01128E-02 1.30969E-03-6.46265E-14
 -1      1575 1.06983E-02 1.47143E-03-7.07142E-14
 -1      1576 1.05138E-02 1.42571E-03-6.86288E-14
 -1      1577 1.04783E-02 1.38353E-03-6.86351E-14
 -1      1578 1.10374E-02 1.56821E-03-7.47429E-14
 -1      1579 1.08697E-02 1.51851E-03-7.27188E-14
 -1      1580 1.08276E-02 1.47740E-03-7.27252E-14
 -1      1581 1.13628E-02 1.67269E-03-7.88503E-14
 -1      1582 1.12016E-02 1.61977E-03-7.67861E-14
 -1      1583 1.11553E-02 1.57967E-03-7.67950E-14
 -1      1584 1.16775E-02 1.78095E-03-8.30340E-14
 -1      1585 1.15213E-02 1.72651E-03-8.09342E-14
 -1      1586 1.14724E-02 1.68731E-03-8.09421E-14
 -1      1587 1.19840E-02 1.89069E-03-8.72859E-14
 -1      1588 1.18316E-02 1.83573E-03-8.51520E-14
 -1      1589 1.17813E-02 1.79728E-03-8.51602E-14
 -1      1590 1.22845E-02 2.00063E-03-9.16029E-14
 -1      1591 1.21349E-02 1.94569E-03-8.94345E-14
 -1      1592 1.20837E-02 1.90785E-03-8.94454E-14
 -1      1593 1.25805E-02 2.11006E-03-9.59975E-14
 -1      1594 1.24329E-02 2.05544E-03-9.37892E-14
 -1      1595 1.23814E-02 2.01807E-03-9.38034E-14
 -1      1596 1.28732E-02 2.21864E-03-1.00464E-13
 -1      1597 1.27272E-02 2.16447E-03-9.82200E-14
 -1      1598 1.26755E-02 2.12748E-03-9.82320E-14
 -1      1599 1.31636E-02 2.32625E-03-1.05003E-13
 -1      1600 1.30186E-02 2.27257E-03-1.02727E-13
 -1      1601 1.29670E-02 2.23587E-03-1.02733E-13
 -1      1602 1.34523E-02 2.43289E-03-1.09615E-13
 -1      1603 1.33081E-02 2.37969E-03-1.07300E-13
 -1      1604 1.32566E-02 2.34321E-03-1.07304E-13
 -1      1605 1.37398E-02 2.53861E-03-1.14285E-13
 -1      1606 1.35962E-02 2.48586E-03-1.11943E-13
 -1      1607 1.35449E-02 2.44955E-03-1.11940E-13
 -1      1608 1.40266E-02 2.64353E-03-1.19019E-13
 -1      1609 1.38833E-02 2.59117E-03-1.16644E-13
 -1      1610 1.38322E-02 2.55497E-03-1.16635E-13
 -1      1611 1.43128E-02 2.74773E-03-1.23781E-13
 -1      1612 1.41698E-02 2.69571E-03-1.21396E-13
 -1      1613 1.41188E-02 2.65960E-03-1.21378E-13
 -1      1614 1.45988E-02 2.85136E-03-1.28594E-13
 -1      1615 1.44558E-02 2.79961E-03-1.26185E-13
 -1      1616 1.44050E-02 2.76357E-03-1.26162E-13
 -1      1617 1.48845E-02 2.95451E-03-1.33435E-13
 -1      1618 1.47417E-02 2.90299E-03-1.31009E-13
 -1      1619 1.46909E-02 2.86699E-03-1.30980E-13
 -1      1620 1.51702E-02 3.05731E-03-1.38291E-13
 -1      1621 1.50273E-02 3.00595E-03-1.35861E-13
 -1      1622 1.49767E-02 2.96997E-03-1.35822E-13
 -1      1623 1.54558E-02 3.15985E-03-1.43156E-13
 -1      1624 1.53130E-02 3.10860E-03-1.40724E-13
 -1      1625 1.52624E-02 3.07264E-03-1.40679E-13
 -1      1626 1.57415E-02 3.26227E-03-1.48011E-13
 -1      1627 1.55986E-02 3.21107E-03-1.45582E-13
 -1      1628 1.55481E-02 3.17511E-03-1.45533E-13
 -1      1629 1.58845E-02 3.30729E-03-1.50723E-13
 -1      1630 1.57776E-02 3.20876E-03-1.51633E-13
 -1      1631 1.58280E-02 3.25092E-03-1.51397E-13
 -1      1632 1.56770E-02 3.12442E-03-1.52110E-13
 -1      1633 1.57273E-02 3.16659E-03-1.51870E-13
 -1      1634 1.56287E-02 3.14336E-03-1.49654E-13
 -1      1635 1.55764E-02 3.04008E-03-1.52582E-13
 -1      1636 1.56267E-02 3.08225E-03-1.52346E-13
 -1      1637 1.55281E-02 3.05905E-03-1.50124E-13
 -1      1638 1.54761E-02 2.95576E-03-1.53046E-13
 -1      1639 1.55263E-02 2.99791E-03-1.52817E-13
 -1      1640 1.54276E-02 2.97478E-03-1.50594E-13
 -1      1641 1.53777E-02 2.87293E-03-1.53491E-13
 -1      1642 1.54269E-02 2.91434E-03-1.53268E-13
 -1      1643 1.53282E-02 2.89126E-03-1.51050E-13
 -1      1644 1.52778E-02 2.78872E-03-1.53932E-13
 -1      1645 1.53277E-02 2.83082E-03-1.53713E-13
 -1      1646 1.52290E-02 2.80779E-03-1.51493E-13
 -1      1647 1.51779E-02 2.70456E-03-1.54367E-13
 -1      1648 1.52278E-02 2.74664E-03-1.54149E-13
 -1      1649 1.51291E-02 2.72367E-03-1.51932E-13
 -1      1650 1.50782E-02 2.62043E-03-1.54786E-13
 -1      1651 1.51281E-02 2.66249E-03-1.54581E-13
 -1      1652 1.50293E-02 2.63959E-03-1.52364E-13
 -1      1653 1.49786E-02 2.53629E-03-1.55188E-13
 -1      1654 1.50284E-02 2.57836E-03-1.54988E-13
 -1      1655 1.49296E-02 2.55553E-03-1.52783E-13
 -1      1656 1.48791E-02 2.45213E-03-1.55585E-13
 -1      1657 1.49289E-02 2.49421E-03-1.55386E-13
 -1      1658 1.48300E-02 2.47146E-03-1.53186E-13
 -1      1659 1.47814E-02 2.36934E-03-1.55979E-13
 -1      1660 1.48303E-02 2.41074E-03-1.55782E-13
 -1      1661 1.47314E-02 2.38806E-03-1.53582E-13
 -1      1662 1.46822E-02 2.28508E-03-1.56382E-13
 -1      1663 1.47318E-02 2.32722E-03-1.56181E-13
 -1      1664 1.46329E-02 2.30462E-03-1.53980E-13
 -1      1665 1.45832E-02 2.20077E-03-1.56784E-13
 -1      1666 1.46327E-02 2.24293E-03-1.56585E-13
 -1      1667 1.45337E-02 2.22040E-03-1.54383E-13
 -1      1668 1.44843E-02 2.11644E-03-1.57188E-13
 -1      1669 1.45338E-02 2.15861E-03-1.56987E-13
 -1      1670 1.44348E-02 2.13614E-03-1.54785E-13
 -1      1671 1.43537E-02 2.02583E-03-1.56836E-13
 -1      1672 1.44031E-02 2.06799E-03-1.56639E-13
 -1      1673 1.43040E-02 2.04556E-03-1.54436E-13
 -1      1674 1.41415E-02 1.94870E-03-1.53335E-13
 -1      1675 9.60846E-03 7.41411E-04-5.02535E-14
 -1      1676 9.61715E-03 6.96952E-04-5.04154E-14
 -1      1677 9.49166E-03 8.49065E-04-4.96596E-14
 -1      1678 9.56241E-03 7.96178E-04-5.00035E-14
 -1      1679 9.25205E-03 9.94485E-04-4.85985E-14
 -1      1680 9.37797E-03 9.24346E-04-4.91081E-14
 -1      1681 8.91259E-03 1.16491E-03-4.73200E-14
 -1      1682 9.07699E-03 1.08046E-03-4.79577E-14
 -1      1683 8.50819E-03 1.35776E-03-4.57429E-14
 -1      1684 8.69741E-03 1.26633E-03-4.65098E-14
 -1      1685 8.09243E-03 1.53255E-03-4.39150E-14
 -1      1686 8.29042E-03 1.45923E-03-4.47521E-14
 -1      1687 7.67867E-03 1.62770E-03-4.21248E-14
 -1      1688 7.86659E-03 1.59520E-03-4.29429E-14
 -1      1689 7.26184E-03 1.62101E-03-4.02981E-14
 -1      1690 7.45391E-03 1.64089E-03-4.11381E-14
 -1      1691 6.83402E-03 1.49247E-03-3.84857E-14
 -1      1692 7.03273E-03 1.56723E-03-3.92854E-14
 -1      1693 6.34865E-03 1.25938E-03-3.68127E-14
 -1      1694 6.57255E-03 1.37627E-03-3.75641E-14
 -1      1695 5.89480E-03 9.94243E-04-3.53780E-14
 -1      1696 6.10043E-03 1.11034E-03-3.59521E-14
 -1      1697 5.47966E-03 7.95255E-04-3.45237E-14
 -1      1698 5.64887E-03 8.88199E-04-3.49236E-14
 -1      1699 5.18523E-03 6.36052E-04-3.39442E-14
 -1      1700 5.30635E-03 7.05688E-04-3.41848E-14
 -1      1701 5.00149E-03 5.06046E-04-3.35999E-14
 -1      1702 5.07255E-03 5.59689E-04-3.37036E-14
 -1      1703 4.94567E-03 3.99647E-04-3.35952E-14
 -1      1704 4.95283E-03 4.45547E-04-3.35337E-14
 -1      1705 5.04822E-03 2.97531E-04-3.39506E-14
 -1      1706 4.98024E-03 3.45845E-04-3.37030E-14
 -1      1707 5.26910E-03 1.66891E-04-3.48386E-14
 -1      1708 5.15610E-03 2.23105E-04-3.44670E-14
 -1      1709 5.57522E-03 3.27803E-05-3.58282E-14
 -1      1710 5.42618E-03 9.91790E-05-3.53214E-14
 -1      1711 5.94670E-03-1.20195E-04-3.71381E-14
 -1      1712 5.77152E-03-4.67536E-05-3.64870E-14
 -1      1713 6.32347E-03-2.62364E-04-3.86956E-14
 -1      1714 6.14948E-03-2.01858E-04-3.79761E-14
 -1      1715 6.74537E-03-3.65663E-04-4.05368E-14
 -1      1716 6.55041E-03-3.24971E-04-3.96353E-14
 -1      1717 7.14009E-03-3.81565E-04-4.24164E-14
 -1      1718 6.96353E-03-3.83941E-04-4.15844E-14
 -1      1719 7.53031E-03-3.13893E-04-4.41908E-14
 -1      1720 7.35043E-03-3.54005E-04-4.33806E-14
 -1      1721 7.94123E-03-1.69742E-04-4.60107E-14
 -1      1722 7.74422E-03-2.46674E-04-4.51914E-14
 -1      1723 8.36382E-03 1.46035E-05-4.75436E-14
 -1      1724 8.17552E-03-7.25378E-05-4.68750E-14
 -1      1725 8.76046E-03 2.17749E-04-4.89112E-14
 -1      1726 8.57517E-03 1.27847E-04-4.83522E-14
 -1      1727 9.14758E-03 3.88462E-04-4.98140E-14
 -1      1728 8.98078E-03 3.08518E-04-4.94059E-14
 -1      1729 9.42758E-03 5.29727E-04-5.03921E-14
 -1      1730 9.31323E-03 4.70542E-04-5.01827E-14
 -1      1731 9.59042E-03 6.44971E-04-5.06050E-14
 -1      1732 9.53147E-03 5.96477E-04-5.05841E-14
 -1      1733 8.74605E-03 1.17643E-03-4.73509E-14
 -1      1734 9.12774E-03 9.87592E-04-4.88167E-14
 -1      1735 1.58340E-02 3.27133E-03-1.50670E-13
 -1      1736 1.56850E-02 3.20591E-03-1.48690E-13
 -1      1737 9.59042E-03 7.51490E-04-5.08271E-14
 -1      1738 9.42215E-03 8.44374E-04-5.00188E-14
 -1      1739 9.61308E-03 6.83000E-04-5.12707E-14
 -1      1740 8.34105E-03 1.39477E-03-4.55343E-14
 -1      1741 7.94074E-03 1.57645E-03-4.35641E-14
 -1      1742 7.55585E-03 1.66364E-03-4.16018E-14
 -1      1743 7.18176E-03 1.61915E-03-3.96059E-14
 -1      1744 6.77283E-03 1.43105E-03-3.76828E-14
 -1      1745 6.30863E-03 1.14720E-03-3.59160E-14
 -1      1746 5.84403E-03 8.78671E-04-3.46238E-14
 -1      1747 5.43163E-03 6.85463E-04-3.38454E-14
 -1      1748 5.13857E-03 5.43681E-04-3.32753E-14
 -1      1749 4.96940E-03 4.47736E-04-3.29742E-14
 -1      1750 4.95370E-03 3.79044E-04-3.30141E-14
 -1      1751 5.10511E-03 3.01718E-04-3.36270E-14
 -1      1752 5.37712E-03 1.81023E-04-3.46143E-14
 -1      1753 5.72507E-03 3.48023E-05-3.57392E-14
 -1      1754 6.10307E-03-1.38171E-04-3.72193E-14
 -1      1755 6.49226E-03-2.99491E-04-3.89852E-14
 -1      1756 6.86459E-03-3.98054E-04-4.09645E-14
 -1      1757 7.22464E-03-3.93315E-04-4.29783E-14
 -1      1758 7.59076E-03-2.90056E-04-4.49493E-14
 -1      1759 7.98161E-03-1.05911E-04-4.68266E-14
 -1      1760 8.39869E-03 1.18330E-04-4.85128E-14
 -1      1761 8.81663E-03 3.28472E-04-4.98314E-14
 -1      1762 9.20221E-03 4.92397E-04-5.07043E-14
 -1      1763 9.47894E-03 6.10353E-04-5.12689E-14
 -1      1764 2.84699E-04-1.74901E-04-7.66395E-17
 -1      1765 3.32537E-04-1.14568E-04-2.30623E-16
 -1      1766 3.36633E-04-1.30838E-04-2.17911E-16
 -1      1767 3.42415E-04-1.49873E-04-2.02082E-16
 -1      1768 3.51777E-04-1.71933E-04-1.79178E-16
 -1      1769 4.58714E-04-1.85002E-04-3.16506E-16
 -1      1770 3.24796E-04-6.34916E-05-2.55519E-16
 -1      1771 3.26003E-04-7.46340E-05-2.51928E-16
 -1      1772 3.23175E-04-4.24350E-05-2.59219E-16
 -1      1773 3.23893E-04-5.26838E-05-2.57864E-16
 -1      1774 4.36690E-04-7.68482E-05-3.78576E-16
 -1      1775 3.22282E-04-2.29073E-05-2.59558E-16
 -1      1776 3.22662E-04-3.25090E-05-2.59802E-16
 -1      1777 4.34486E-04-4.95324E-05-3.82452E-16
 -1      1778 3.21941E-04-4.15996E-06-2.57647E-16
 -1      1779 3.22052E-04-1.34605E-05-2.58799E-16
 -1      1780 4.33313E-04-2.39780E-05-3.82046E-16
 -1      1781 3.22093E-04 1.44472E-05-2.53337E-16
 -1      1782 3.21954E-04 5.13870E-06-2.55831E-16
 -1      1783 4.32969E-04 7.61311E-07-3.78346E-16
 -1      1784 3.22762E-04 3.35400E-05-2.46507E-16
 -1      1785 3.22352E-04 2.39110E-05-2.50396E-16
 -1      1786 4.33399E-04 2.55223E-05-3.71475E-16
 -1      1787 3.24035E-04 5.34548E-05-2.36275E-16
 -1      1788 3.23298E-04 4.33349E-05-2.41994E-16
 -1      1789 4.34654E-04 5.09262E-05-3.60551E-16
 -1      1790 3.26231E-04 7.57509E-05-2.21597E-16
 -1      1791 3.24969E-04 6.43233E-05-2.29824E-16
 -1      1792 4.36943E-04 7.81272E-05-3.44939E-16
 -1      1793 3.29984E-04 1.01432E-04-2.00496E-16
 -1      1794 3.27819E-04 8.81355E-05-2.12327E-16
 -1      1795 4.40804E-04 1.08644E-04-3.22591E-16
 -1      1796 3.36925E-04 1.32908E-04-1.68566E-16
 -1      1797 3.32817E-04 1.16381E-04-1.86551E-16
 -1      1798 4.47360E-04 1.44208E-04-2.90498E-16
 -1      1799 3.52295E-04 1.75507E-04-1.20821E-16
 -1      1800 3.43020E-04 1.52605E-04-1.47506E-16
 -1      1801 4.59727E-04 1.88323E-04-2.43363E-16
 -1      1802 4.07184E-04 2.31402E-04-8.74951E-17
 -1      1803 3.77891E-04 2.00468E-04-1.09423E-16
 -1      1804 4.95852E-04 2.40787E-04-2.01106E-16
 -1      1805 5.57934E-04 2.99043E-04-1.66818E-16
 -1      1806 3.39737E-04-1.89072E-04-1.32015E-16
 -1      1807 8.53001E-04 4.00940E-04-4.49700E-16
 -1      1808 7.06529E-04 3.54618E-04-2.88357E-16
 -1      1809 6.73165E-04 3.24195E-04-3.10326E-16
 -1      1810 4.58813E-04-2.33924E-04-2.33266E-16
 -1      1811 8.07118E-04-3.68382E-04-6.19974E-16
 -1      1812 9.52579E-04-4.08127E-04-8.64407E-16
 -1      1813 1.09572E-03-4.41262E-04-1.15289E-15
 -1      1814 1.23780E-03-4.68488E-04-1.48589E-15
 -1      1815 1.00462E-03-3.89947E-04-1.05578E-15
 -1      1816 1.37876E-03-4.91171E-04-1.86265E-15
 -1      1817 1.51916E-03-5.09615E-04-2.28376E-15
 -1      1818 1.29111E-03-4.44533E-04-1.72903E-15
 -1      1819 1.65921E-03-5.24727E-04-2.74864E-15
 -1      1820 1.79914E-03-5.36757E-04-3.25639E-15
 -1      1821 1.57483E-03-4.81563E-04-2.57615E-15
 -1      1822 1.93916E-03-5.46311E-04-3.80711E-15
 -1      1823 2.07939E-03-5.53611E-04-4.40042E-15
 -1      1824 1.85741E-03-5.05638E-04-3.59508E-15
 -1      1825 2.21999E-03-5.59090E-04-5.03646E-15
 -1      1826 2.36100E-03-5.62948E-04-5.71388E-15
 -1      1827 2.14009E-03-5.20142E-04-4.78332E-15
 -1      1828 2.50256E-03-5.65520E-04-6.43216E-15
 -1      1829 2.64470E-03-5.66993E-04-7.19170E-15
 -1      1830 2.42378E-03-5.27677E-04-6.13747E-15
 -1      1831 2.78750E-03-5.67647E-04-7.99122E-15
 -1      1832 2.93098E-03-5.67662E-04-8.82963E-15
 -1      1833 2.70912E-03-5.30373E-04-7.65353E-15
 -1      1834 3.07520E-03-5.67301E-04-9.70692E-15
 -1      1835 3.22018E-03-5.66743E-04-1.06217E-14
 -1      1836 2.99660E-03-5.30095E-04-9.32703E-15
 -1      1837 3.36595E-03-5.66253E-04-1.15740E-14
 -1      1838 3.51250E-03-5.66017E-04-1.25641E-14
 -1      1839 3.28655E-03-5.28612E-04-1.11526E-14
 -1      1840 3.65986E-03-5.66316E-04-1.35902E-14
 -1      1841 3.80797E-03-5.67345E-04-1.46521E-14
 -1      1842 3.57923E-03-5.27718E-04-1.31265E-14
 -1      1843 3.95687E-03-5.69400E-04-1.57497E-14
 -1      1844 4.10641E-03-5.72671E-04-1.68830E-14
 -1      1845 3.87478E-03-5.29300E-04-1.52453E-14
 -1      1846 4.25666E-03-5.77451E-04-1.80509E-14
 -1      1847 4.40735E-03-5.83903E-04-1.92522E-14
 -1      1848 4.17317E-03-5.35336E-04-1.75051E-14
 -1      1849 4.55857E-03-5.92259E-04-2.04873E-14
 -1      1850 4.70993E-03-6.02611E-04-2.17553E-14
 -1      1851 4.47415E-03-5.47741E-04-1.99021E-14
 -1      1852 4.86152E-03-6.15046E-04-2.30568E-14
 -1      1853 5.01283E-03-6.29507E-04-2.43895E-14
 -1      1854 4.77713E-03-5.68042E-04-2.24320E-14
 -1      1855 5.16395E-03-6.45820E-04-2.57525E-14
 -1      1856 5.31429E-03-6.63694E-04-2.71478E-14
 -1      1857 5.08105E-03-5.96792E-04-2.50892E-14
 -1      1858 5.46393E-03-6.82578E-04-2.85757E-14
 -1      1859 5.61228E-03-7.01856E-04-3.00346E-14
 -1      1860 5.38435E-03-6.32765E-04-2.78724E-14
 -1      1861 5.75937E-03-7.20553E-04-3.15251E-14
 -1      1862 5.90484E-03-7.37718E-04-3.30477E-14
 -1      1863 5.68503E-03-6.72084E-04-3.07824E-14
 -1      1864 6.04863E-03-7.52030E-04-3.46026E-14
 -1      1865 6.19078E-03-7.62321E-04-3.61887E-14
 -1      1866 5.98104E-03-7.07695E-04-3.38192E-14
 -1      1867 6.33116E-03-7.67188E-04-3.78061E-14
 -1      1868 6.47035E-03-7.65546E-04-3.94562E-14
 -1      1869 6.27108E-03-7.29797E-04-3.69847E-14
 -1      1870 6.60816E-03-7.56312E-04-4.11365E-14
 -1      1871 6.74563E-03-7.38828E-04-4.28455E-14
 -1      1872 6.55541E-03-7.27756E-04-4.02742E-14
 -1      1873 6.88254E-03-7.12702E-04-4.45842E-14
 -1      1874 7.02010E-03-6.77959E-04-4.63506E-14
 -1      1875 6.83630E-03-6.93247E-04-4.36852E-14
 -1      1876 7.15810E-03-6.35046E-04-4.81450E-14
 -1      1877 7.29755E-03-5.84657E-04-4.99657E-14
 -1      1878 7.11738E-03-6.23227E-04-4.72109E-14
 -1      1879 7.43827E-03-5.27909E-04-5.18111E-14
 -1      1880 7.58080E-03-4.65902E-04-5.36817E-14
 -1      1881 7.40221E-03-5.21158E-04-5.08436E-14
 -1      1882 7.72501E-03-4.00041E-04-5.55768E-14
 -1      1883 7.87092E-03-3.31482E-04-5.74942E-14
 -1      1884 7.69293E-03-3.95618E-04-5.45770E-14
 -1      1885 8.01848E-03-2.61523E-04-5.94352E-14
 -1      1886 8.16732E-03-1.91097E-04-6.13987E-14
 -1      1887 7.98971E-03-2.57236E-04-5.84048E-14
 -1      1888 8.31747E-03-1.21147E-04-6.33844E-14
 -1      1889 8.46836E-03-5.22699E-05-6.53903E-14
 -1      1890 8.29119E-03-1.15643E-04-6.23244E-14
 -1      1891 8.62007E-03 1.50154E-05-6.74146E-14
 -1      1892 8.77202E-03 8.04251E-05-6.94561E-14
 -1      1893 8.59536E-03 2.23316E-05-6.63257E-14
 -1      1894 8.92432E-03 1.43801E-04-7.15156E-14
 -1      1895 9.07647E-03 2.05086E-04-7.35925E-14
 -1      1896 8.90029E-03 1.52991E-04-7.04005E-14
 -1      1897 9.22858E-03 2.64367E-04-7.56858E-14
 -1      1898 9.38028E-03 3.21722E-04-7.77926E-14
 -1      1899 9.20453E-03 2.75190E-04-7.45444E-14
 -1      1900 9.53167E-03 3.77366E-04-7.99132E-14
 -1      1901 9.68251E-03 4.31438E-04-8.20517E-14
 -1      1902 9.50714E-03 3.89451E-04-7.87492E-14
 -1      1903 9.83287E-03 4.84192E-04-8.42016E-14
 -1      1904 9.98263E-03 5.35781E-04-8.63650E-14
 -1      1905 9.80762E-03 4.97147E-04-8.30144E-14
 -1      1906 1.01318E-02 5.86446E-04-8.85442E-14
 -1      1907 1.02805E-02 6.36328E-04-9.07345E-14
 -1      1908 1.01058E-02 5.99925E-04-8.73349E-14
 -1      1909 1.04285E-02 6.85625E-04-9.29398E-14
 -1      1910 1.05760E-02 7.34454E-04-9.51582E-14
 -1      1911 1.04018E-02 6.99348E-04-9.17123E-14
 -1      1912 1.07230E-02 7.82966E-04-9.73878E-14
 -1      1913 1.08695E-02 8.31250E-04-9.96300E-14
 -1      1914 1.06957E-02 7.96728E-04-9.61416E-14
 -1      1915 1.10156E-02 8.79412E-04-1.01882E-13
 -1      1916 1.11612E-02 9.27515E-04-1.04144E-13
 -1      1917 1.09879E-02 8.93075E-04-1.00619E-13
 -1      1918 1.13065E-02 9.75626E-04-1.06419E-13
 -1      1919 1.14514E-02 1.02379E-03-1.08701E-13
 -1      1920 1.12785E-02 9.89108E-04-1.05141E-13
 -1      1921 1.15961E-02 1.07204E-03-1.10996E-13
 -1      1922 1.17404E-02 1.12041E-03-1.13300E-13
 -1      1923 1.15679E-02 1.08530E-03-1.09703E-13
 -1      1924 1.18845E-02 1.16891E-03-1.15615E-13
 -1      1925 1.20284E-02 1.21756E-03-1.17942E-13
 -1      1926 1.18563E-02 1.18194E-03-1.14309E-13
 -1      1927 1.21721E-02 1.26636E-03-1.20280E-13
 -1      1928 1.23157E-02 1.31532E-03-1.22631E-13
 -1      1929 1.21439E-02 1.27917E-03-1.18958E-13
 -1      1930 1.24591E-02 1.36442E-03-1.24995E-13
 -1      1931 1.26024E-02 1.41368E-03-1.27368E-13
 -1      1932 1.24309E-02 1.37703E-03-1.23655E-13
 -1      1933 1.27456E-02 1.46307E-03-1.29751E-13
 -1      1934 1.28888E-02 1.51260E-03-1.32141E-13
 -1      1935 1.27174E-02 1.47550E-03-1.28396E-13
 -1      1936 1.30318E-02 1.56224E-03-1.34536E-13
 -1      1937 1.31748E-02 1.61200E-03-1.36937E-13
 -1      1938 1.30037E-02 1.57452E-03-1.33172E-13
 -1      1939 1.33178E-02 1.66186E-03-1.39344E-13
 -1      1940 1.34607E-02 1.71182E-03-1.41749E-13
 -1      1941 1.32897E-02 1.67403E-03-1.37967E-13
 -1      1942 1.36037E-02 1.76184E-03-1.44158E-13
 -1      1943 1.37465E-02 1.81194E-03-1.46571E-13
 -1      1944 1.35756E-02 1.77393E-03-1.42781E-13
 -1      1945 1.38726E-02 1.85520E-03-1.48739E-13
 -1      1946 1.40155E-02 1.90538E-03-1.51156E-13
 -1      1947 1.40967E-02 1.95380E-03-1.51705E-13
 -1      1948 1.38446E-02 1.86722E-03-1.47359E-13
 -1      1949 1.13853E-03 4.70664E-04-8.93234E-16
 -1      1950 9.96463E-04 4.39103E-04-6.50630E-16
 -1      1951 9.64552E-04 4.09804E-04-6.75715E-16
 -1      1952 1.41870E-03 5.18270E-04-1.50117E-15
 -1      1953 1.27894E-03 4.96843E-04-1.17655E-15
 -1      1954 1.24979E-03 4.68865E-04-1.20238E-15
 -1      1955 1.69691E-03 5.49923E-04-2.27444E-15
 -1      1956 1.55785E-03 5.35848E-04-1.86723E-15
 -1      1957 1.53143E-03 5.08831E-04-1.89294E-15
 -1      1958 1.97536E-03 5.69677E-04-3.21192E-15
 -1      1959 1.83599E-03 5.61117E-04-2.72243E-15
 -1      1960 1.81186E-03 5.34719E-04-2.74725E-15
 -1      1961 2.25552E-03 5.80387E-04-4.31136E-15
 -1      1962 2.11516E-03 5.76031E-04-3.74158E-15
 -1      1963 2.09277E-03 5.50002E-04-3.76377E-15
 -1      1964 2.53846E-03 5.84188E-04-5.56815E-15
 -1      1965 2.39659E-03 5.83043E-04-4.92039E-15
 -1      1966 2.37537E-03 5.57193E-04-4.93987E-15
 -1      1967 2.82512E-03 5.82770E-04-6.98055E-15
 -1      1968 2.68127E-03 5.84034E-04-6.25482E-15
 -1      1969 2.66061E-03 5.58208E-04-6.27142E-15
 -1      1970 3.11644E-03 5.77603E-04-8.54614E-15
 -1      1971 2.97013E-03 5.80555E-04-7.74402E-15
 -1      1972 2.94933E-03 5.54613E-04-7.75678E-15
 -1      1973 3.41352E-03 5.70162E-04-1.02622E-14
 -1      1974 3.26417E-03 5.74048E-04-9.38591E-15
 -1      1975 3.24243E-03 5.47840E-04-9.39400E-15
 -1      1976 3.71765E-03 5.62223E-04-1.21260E-14
 -1      1977 3.56458E-03 5.66098E-04-1.11759E-14
 -1      1978 3.54087E-03 5.39435E-04-1.11800E-14
 -1      1979 4.03040E-03 5.56281E-04-1.41337E-14
 -1      1980 3.87279E-03 5.58778E-04-1.31116E-14
 -1      1981 3.84582E-03 5.31401E-04-1.31109E-14
 -1      1982 4.35357E-03 5.56173E-04-1.62841E-14
 -1      1983 4.19049E-03 5.55165E-04-1.51910E-14
 -1      1984 4.15861E-03 5.26684E-04-1.51849E-14
 -1      1985 4.68908E-03 5.67965E-04-1.85737E-14
 -1      1986 4.51957E-03 5.60088E-04-1.74118E-14
 -1      1987 4.48080E-03 5.29892E-04-1.74000E-14
 -1      1988 5.03874E-03 6.01082E-04-2.09955E-14
 -1      1989 4.86198E-03 5.81151E-04-1.97684E-14
 -1      1990 4.81417E-03 5.48284E-04-1.97502E-14
 -1      1991 5.40384E-03 6.69230E-04-2.35412E-14
 -1      1992 5.21938E-03 6.29848E-04-2.22534E-14
 -1      1993 5.16076E-03 5.92886E-04-2.22294E-14
 -1      1994 5.80379E-03 7.97524E-04-2.63450E-14
 -1      1995 5.60215E-03 7.25097E-04-2.49264E-14
 -1      1996 5.53215E-03 6.82072E-04-2.48967E-14
 -1      1997 6.19707E-03 9.89617E-04-2.91375E-14
 -1      1998 5.99997E-03 8.84797E-04-2.77264E-14
 -1      1999 5.92176E-03 8.34510E-04-2.76896E-14
 -1      2000 6.59381E-03 1.24734E-03-3.20507E-14
 -1      2001 6.39686E-03 1.11207E-03-3.05793E-14
 -1      2002 6.31797E-03 1.05637E-03-3.05351E-14
 -1      2003 6.97770E-03 1.52849E-03-3.50859E-14
 -1      2004 6.78866E-03 1.38995E-03-3.35541E-14
 -1      2005 6.71959E-03 1.33610E-03-3.35013E-14
 -1      2006 7.30240E-03 1.72801E-03-3.79202E-14
 -1      2007 7.14189E-03 1.63952E-03-3.64899E-14
 -1      2008 7.08891E-03 1.59672E-03-3.64311E-14
 -1      2009 7.64700E-03 1.80636E-03-4.11849E-14
 -1      2010 7.47351E-03 1.78792E-03-3.95372E-14
 -1      2011 7.43738E-03 1.75940E-03-3.94709E-14
 -1      2012 7.98331E-03 1.72689E-03-4.43950E-14
 -1      2013 7.81170E-03 1.78163E-03-4.27779E-14
 -1      2014 7.78927E-03 1.75965E-03-4.27067E-14
 -1      2015 8.36149E-03 1.55309E-03-4.78784E-14
 -1      2016 8.16929E-03 1.64531E-03-4.61243E-14
 -1      2017 8.15919E-03 1.62020E-03-4.60515E-14
 -1      2018 8.75687E-03 1.38258E-03-5.14518E-14
 -1      2019 8.55872E-03 1.46348E-03-4.96545E-14
 -1      2020 8.55826E-03 1.43249E-03-4.95812E-14
 -1      2021 9.15284E-03 1.27214E-03-5.51085E-14
 -1      2022 8.95621E-03 1.31925E-03-5.32701E-14
 -1      2023 8.95893E-03 1.28496E-03-5.31981E-14
 -1      2024 9.53866E-03 1.23145E-03-5.88366E-14
 -1      2025 9.34781E-03 1.24385E-03-5.69632E-14
 -1      2026 9.34660E-03 1.20874E-03-5.68912E-14
 -1      2027 9.90999E-03 1.24886E-03-6.26334E-14
 -1      2028 9.72649E-03 1.23407E-03-6.07274E-14
 -1      2029 9.71697E-03 1.19879E-03-6.06562E-14
 -1      2030 1.02661E-02 1.30663E-03-6.65047E-14
 -1      2031 1.00900E-02 1.27366E-03-6.45596E-14
 -1      2032 1.00712E-02 1.23851E-03-6.44903E-14
 -1      2033 1.06247E-02 1.39431E-03-7.06518E-14
 -1      2034 1.04472E-02 1.34774E-03-6.85669E-14
 -1      2035 1.04199E-02 1.31281E-03-6.84981E-14
 -1      2036 1.09536E-02 1.49262E-03-7.46809E-14
 -1      2037 1.07905E-02 1.44207E-03-7.26559E-14
 -1      2038 1.07566E-02 1.40746E-03-7.25843E-14
 -1      2039 1.12724E-02 1.59858E-03-7.87871E-14
 -1      2040 1.11141E-02 1.54488E-03-7.67244E-14
 -1      2041 1.10754E-02 1.51062E-03-7.66523E-14
 -1      2042 1.15829E-02 1.70817E-03-8.29696E-14
 -1      2043 1.14285E-02 1.65305E-03-8.08707E-14
 -1      2044 1.13865E-02 1.61918E-03-8.07959E-14
 -1      2045 1.18869E-02 1.81904E-03-8.72222E-14
 -1      2046 1.17356E-02 1.76352E-03-8.50877E-14
 -1      2047 1.16913E-02 1.73001E-03-8.50131E-14
 -1      2048 1.21860E-02 1.92991E-03-9.15436E-14
 -1      2049 1.20370E-02 1.87451E-03-8.93734E-14
 -1      2050 1.19913E-02 1.84135E-03-8.92993E-14
 -1      2051 1.24814E-02 2.04008E-03-9.59377E-14
 -1      2052 1.23341E-02 1.98509E-03-9.37309E-14
 -1      2053 1.22875E-02 1.95223E-03-9.36566E-14
 -1      2054 1.27739E-02 2.14925E-03-1.00396E-13
 -1      2055 1.26279E-02 2.09480E-03-9.81585E-14
 -1      2056 1.25808E-02 2.06218E-03-9.80815E-14
 -1      2057 1.30643E-02 2.25732E-03-1.04930E-13
 -1      2058 1.29193E-02 2.20342E-03-1.02655E-13
 -1      2059 1.28719E-02 2.17102E-03-1.02575E-13
 -1      2060 1.33532E-02 2.36431E-03-1.09528E-13
 -1      2061 1.32089E-02 2.31095E-03-1.07221E-13
 -1      2062 1.31614E-02 2.27871E-03-1.07136E-13
 -1      2063 1.36409E-02 2.47030E-03-1.14187E-13
 -1      2064 1.34972E-02 2.41743E-03-1.11850E-13
 -1      2065 1.34497E-02 2.38532E-03-1.11758E-13
 -1      2066 1.39280E-02 2.57541E-03-1.18903E-13
 -1      2067 1.37845E-02 2.52296E-03-1.16539E-13
 -1      2068 1.37370E-02 2.49096E-03-1.16442E-13
 -1      2069 1.42145E-02 2.67977E-03-1.23658E-13
 -1      2070 1.40713E-02 2.62768E-03-1.21276E-13
 -1      2071 1.40238E-02 2.59576E-03-1.21173E-13
 -1      2072 1.45006E-02 2.78350E-03-1.28456E-13
 -1      2073 1.43576E-02 2.73170E-03-1.26054E-13
 -1      2074 1.43102E-02 2.69984E-03-1.25945E-13
 -1      2075 1.47865E-02 2.88672E-03-1.33281E-13
 -1      2076 1.46436E-02 2.83517E-03-1.30864E-13
 -1      2077 1.45963E-02 2.80334E-03-1.30748E-13
 -1      2078 1.50723E-02 2.98956E-03-1.38125E-13
 -1      2079 1.49294E-02 2.93818E-03-1.35702E-13
 -1      2080 1.48822E-02 2.90639E-03-1.35580E-13
 -1      2081 1.53581E-02 3.09213E-03-1.42979E-13
 -1      2082 1.52152E-02 3.04087E-03-1.40553E-13
 -1      2083 1.51680E-02 3.00910E-03-1.40428E-13
 -1      2084 1.55930E-02 3.17463E-03-1.47047E-13
 -1      2085 1.54501E-02 3.12343E-03-1.44620E-13
 -1      2086 1.54029E-02 3.09166E-03-1.44493E-13
 -1      2087 1.55870E-02 3.15424E-03-1.47774E-13
 -1      2088 1.52788E-02 2.90949E-03-1.48609E-13
 -1      2089 1.53290E-02 2.95159E-03-1.48377E-13
 -1      2090 1.53792E-02 2.99371E-03-1.48140E-13
 -1      2091 1.54295E-02 3.03583E-03-1.47906E-13
 -1      2092 1.52304E-02 2.92836E-03-1.46159E-13
 -1      2093 1.54831E-02 3.07396E-03-1.47959E-13
 -1      2094 1.55334E-02 3.11610E-03-1.47723E-13
 -1      2095 1.54414E-02 3.08482E-03-1.46082E-13
 -1      2096 1.53342E-02 3.00858E-03-1.45976E-13
 -1      2097 1.51803E-02 2.82676E-03-1.49056E-13
 -1      2098 1.52296E-02 2.86812E-03-1.48834E-13
 -1      2099 1.51309E-02 2.84493E-03-1.46620E-13
 -1      2100 1.50803E-02 2.74268E-03-1.49499E-13
 -1      2101 1.51303E-02 2.78471E-03-1.49279E-13
 -1      2102 1.50316E-02 2.76157E-03-1.47065E-13
 -1      2103 1.49805E-02 2.65865E-03-1.49937E-13
 -1      2104 1.50304E-02 2.70066E-03-1.49720E-13
 -1      2105 1.49317E-02 2.67758E-03-1.47507E-13
 -1      2106 1.48807E-02 2.57465E-03-1.50370E-13
 -1      2107 1.49306E-02 2.61665E-03-1.50153E-13
 -1      2108 1.48319E-02 2.59365E-03-1.47944E-13
 -1      2109 1.47810E-02 2.49067E-03-1.50782E-13
 -1      2110 1.48309E-02 2.53266E-03-1.50576E-13
 -1      2111 1.47321E-02 2.50976E-03-1.48369E-13
 -1      2112 1.46815E-02 2.40667E-03-1.51187E-13
 -1      2113 1.47313E-02 2.44868E-03-1.50987E-13
 -1      2114 1.46325E-02 2.42587E-03-1.48783E-13
 -1      2115 1.45837E-02 2.32405E-03-1.51584E-13
 -1      2116 1.46326E-02 2.36537E-03-1.51385E-13
 -1      2117 1.45338E-02 2.34265E-03-1.49188E-13
 -1      2118 1.44844E-02 2.23995E-03-1.51985E-13
 -1      2119 1.45340E-02 2.28201E-03-1.51783E-13
 -1      2120 1.44352E-02 2.25938E-03-1.49586E-13
 -1      2121 1.43853E-02 2.15578E-03-1.52385E-13
 -1      2122 1.44348E-02 2.19787E-03-1.52184E-13
 -1      2123 1.43359E-02 2.17533E-03-1.49987E-13
 -1      2124 1.42863E-02 2.07155E-03-1.52784E-13
 -1      2125 1.43358E-02 2.11367E-03-1.52585E-13
 -1      2126 1.42368E-02 2.09119E-03-1.50387E-13
 -1      2127 9.34641E-03 8.42682E-04-5.05131E-14
 -1      2128 9.46586E-03 7.95074E-04-5.10717E-14
 -1      2129 9.63114E-03 7.08549E-04-5.21819E-14
 -1      2130 9.60603E-03 6.94822E-04-5.23745E-14
 -1      2131 9.57419E-03 7.48777E-04-5.16705E-14
 -1      2132 9.62053E-03 7.28094E-04-5.19258E-14
 -1      2133 9.63643E-03 7.24677E-04-5.30280E-14
 -1      2134 9.02269E-03 9.90691E-04-4.91513E-14
 -1      2135 9.19131E-03 9.13160E-04-4.98045E-14
 -1      2136 8.62035E-03 1.19993E-03-4.75240E-14
 -1      2137 8.81141E-03 1.09415E-03-4.83492E-14
 -1      2138 3.27521E-04-8.68259E-05-2.46832E-16
 -1      2139 3.29627E-04-9.99410E-05-2.39717E-16
 -1      2140 4.46787E-04-1.42026E-04-3.49465E-16
 -1      2141 4.40392E-04-1.07057E-04-3.68480E-16
 -1      2142 7.83052E-03 1.62530E-03-4.32591E-14
 -1      2143 7.99646E-03 1.55063E-03-4.42374E-14
 -1      2144 7.49181E-03 1.68887E-03-4.11652E-14
 -1      2145 7.64835E-03 1.67323E-03-4.21528E-14
 -1      2146 7.14255E-03 1.60711E-03-3.89794E-14
 -1      2147 7.30475E-03 1.66751E-03-3.99867E-14
 -1      2148 6.70715E-03 1.35855E-03-3.68968E-14
 -1      2149 6.90917E-03 1.48747E-03-3.78061E-14
 -1      2150 6.26048E-03 1.05446E-03-3.50936E-14
 -1      2151 6.48117E-03 1.20717E-03-3.59380E-14
 -1      2152 5.75101E-03 7.60694E-04-3.37229E-14
 -1      2153 5.96848E-03 8.71970E-04-3.41597E-14
 -1      2154 5.37130E-03 5.93282E-04-3.30630E-14
 -1      2155 5.54300E-03 6.68421E-04-3.33904E-14
 -1      2156 5.09708E-03 4.80045E-04-3.25261E-14
 -1      2157 5.21524E-03 5.26072E-04-3.27592E-14
 -1      2158 4.94583E-03 4.13427E-04-3.22110E-14
 -1      2159 4.99731E-03 4.35197E-04-3.22746E-14
 -1      2160 4.96250E-03 3.73830E-04-3.24109E-14
 -1      2161 4.93238E-03 3.92052E-04-3.23090E-14
 -1      2162 4.93083E-03 3.91969E-04-3.16096E-14
 -1      2163 5.18361E-03 2.94640E-04-3.33303E-14
 -1      2164 5.06880E-03 3.34566E-04-3.28241E-14
 -1      2165 5.46324E-03 1.87213E-04-3.42589E-14
 -1      2166 5.31149E-03 2.45298E-04-3.37910E-14
 -1      2167 5.24897E-03 2.81940E-04-3.29782E-14
 -1      2168 5.83961E-03 2.16295E-05-3.55701E-14
 -1      2169 5.66040E-03 1.03918E-04-3.49271E-14
 -1      2170 6.23231E-03-1.73198E-04-3.73004E-14
 -1      2171 6.05659E-03-8.30371E-05-3.64755E-14
 -1      2172 6.59348E-03-3.35234E-04-3.91831E-14
 -1      2173 6.41987E-03-2.60448E-04-3.82529E-14
 -1      2174 6.96112E-03-4.29833E-04-4.14833E-14
 -1      2175 6.80728E-03-4.02876E-04-4.04375E-14
 -1      2176 7.28711E-03-3.93448E-04-4.36028E-14
 -1      2177 7.13829E-03-4.22443E-04-4.26345E-14
 -1      2178 7.61298E-03-2.61025E-04-4.56864E-14
 -1      2179 7.45265E-03-3.39288E-04-4.46773E-14
 -1      2180 8.02538E-03-3.11758E-05-4.77962E-14
 -1      2181 7.83713E-03-1.40992E-04-4.69183E-14
 -1      2182 8.41303E-03 1.94323E-04-4.94342E-14
 -1      2183 8.21846E-03 7.83180E-05-4.86136E-14
 -1      2184 8.07878E-03 3.38592E-05-4.87056E-14
 -1      2185 8.89201E-03 4.28105E-04-5.08909E-14
 -1      2186 8.68768E-03 3.37575E-04-5.03840E-14
 -1      2187 9.25849E-03 5.77749E-04-5.18514E-14
 -1      2188 9.09251E-03 5.16705E-04-5.14758E-14
 -1      2189 9.52225E-03 6.61815E-04-5.22710E-14
 -1      2190 9.41548E-03 6.29021E-04-5.20775E-14
 -1      2191 8.19598E-03 1.44938E-03-4.53082E-14
 -1      2192 8.38122E-03 1.33853E-03-4.63095E-14
 -1      2193 8.48952E-03 1.26587E-03-4.72926E-14
 -1      2194 6.07759E-04-2.94126E-04-3.77180E-16
 -1      2195 8.08222E-03 1.50799E-03-4.49994E-14
 -1      2196 6.63878E-04-2.87753E-04-5.03409E-16
 -1      2197 9.53174E-03 7.63999E-04-5.21655E-14
 -1      2198 9.26725E-03 8.62189E-04-5.08485E-14
 -1      2199 1.42050E-02 2.02312E-03-1.52236E-13
 -1      2200 9.57453E-03 6.97638E-04-5.31841E-14
 -1      2201 8.91328E-03 1.02667E-03-4.93263E-14
 -1      2202 9.33252E-03 6.32487E-04-5.28516E-14
 -1      2203 8.52458E-03 2.86203E-04-5.04842E-14
 -1      2204 7.69505E-03-2.00510E-04-4.66402E-14
 -1      2205 7.34842E-03-3.74159E-04-4.43267E-14
 -1      2206 7.04042E-03-4.38080E-04-4.20958E-14
 -1      2207 6.70839E-03-3.79272E-04-3.96894E-14
 -1      2208 6.33785E-03-2.17083E-04-3.74938E-14
 -1      2209 5.56198E-03 1.60727E-04-3.40921E-14
 -1      2210 5.00026E-03 3.58390E-04-3.21126E-14
 -1      2211 4.95149E-03 3.64631E-04-3.14091E-14
 -1      2212 5.04923E-03 3.41687E-04-3.18141E-14
 -1      2213 5.04425E-03 4.32441E-04-3.17605E-14
 -1      2214 5.30154E-03 5.26144E-04-3.23083E-14
 -1      2215 5.65552E-03 6.75445E-04-3.29343E-14
 -1      2216 6.13111E-03 9.38835E-04-3.41794E-14
 -1      2217 6.27173E-03 1.01033E-03-3.41947E-14
 -1      2218 6.00417E-03 8.37590E-04-3.32768E-14
 -1      2219 6.62125E-03 1.27568E-03-3.60577E-14
 -1      2220 7.04845E-03 1.55557E-03-3.81772E-14
 -1      2221 7.74653E-03 1.66233E-03-4.28143E-14
 -1      2222 7.41551E-03 1.69458E-03-4.05256E-14
 -1      2223 5.95828E-03-2.38825E-05-3.56485E-14
 -1      2224 8.98328E-03 5.08466E-04-5.20321E-14
 -1      2225 1.01735E-03 3.91387E-04-8.59691E-16
 -1      2226 8.72601E-04 3.56625E-04-6.29000E-16
 -1      2227 5.47525E-04-5.32676E-05-5.42955E-16
 -1      2228 5.48702E-04-6.94983E-05-5.41816E-16
 -1      2229 5.50282E-04-8.63936E-05-5.39214E-16
 -1      2230 5.52305E-04-1.04019E-04-5.34891E-16
 -1      2231 6.65069E-04-9.20963E-05-7.31877E-16
 -1      2232 5.45922E-04 8.56899E-06-5.34783E-16
 -1      2233 5.45895E-04-6.65898E-06-5.38496E-16
 -1      2234 5.46822E-04 3.93898E-05-5.24103E-16
 -1      2235 5.46229E-04 2.39007E-05-5.30148E-16
 -1      2236 6.60538E-04 1.92203E-05-7.21225E-16
 -1      2237 5.48930E-04 7.09715E-05-5.07976E-16
 -1      2238 5.47714E-04 5.49766E-05-5.16880E-16
 -1      2239 6.62107E-04 5.56461E-05-7.05612E-16
 -1      2240 5.52674E-04 1.05614E-04-4.84896E-16
 -1      2241 5.50574E-04 8.79204E-05-4.97527E-16
 -1      2242 6.65384E-04 9.38651E-05-6.82749E-16
 -1      2243 5.58855E-04 1.44406E-04-4.52383E-16
 -1      2244 5.55402E-04 1.24414E-04-4.70110E-16
 -1      2245 6.70960E-04 1.35662E-04-6.50562E-16
 -1      2246 5.69285E-04 1.89752E-04-4.06698E-16
 -1      2247 5.63432E-04 1.66126E-04-4.31851E-16
 -1      2248 6.80000E-04 1.82579E-04-6.06055E-16
 -1      2249 1.30369E-03 4.44595E-04-1.44161E-15
 -1      2250 1.16086E-03 4.20604E-04-1.13017E-15
 -1      2251 1.07303E-03 3.72050E-04-1.05323E-15
 -1      2252 9.16010E-04-3.39172E-04-9.56537E-16
 -1      2253 1.06039E-03-3.70930E-04-1.25415E-15
 -1      2254 8.01460E-03 1.55936E-03-4.47788E-14
 -1      2255 8.17725E-03 1.46029E-03-4.58584E-14
 -1      2256 1.20401E-03-3.97629E-04-1.59451E-15
 -1      2257 1.34728E-03-4.19675E-04-1.97779E-15
 -1      2258 1.11832E-03-3.50984E-04-1.45965E-15
 -1      2259 1.49001E-03-4.37919E-04-2.40381E-15
 -1      2260 1.63248E-03-4.52642E-04-2.87293E-15
 -1      2261 1.40539E-03-3.94105E-04-2.23235E-15
 -1      2262 1.77472E-03-4.64512E-04-3.38400E-15
 -1      2263 1.91689E-03-4.73751E-04-3.93710E-15
 -1      2264 1.69160E-03-4.23109E-04-3.17380E-15
 -1      2265 2.05908E-03-4.80860E-04-4.53171E-15
 -1      2266 2.20137E-03-4.86033E-04-5.16811E-15
 -1      2267 1.97733E-03-4.41333E-04-4.28241E-15
 -1      2268 2.34386E-03-4.89656E-04-5.84481E-15
 -1      2269 2.48660E-03-4.91903E-04-6.56211E-15
 -1      2270 2.26310E-03-4.51487E-04-5.55450E-15
 -1      2271 2.62969E-03-4.93089E-04-7.31914E-15
 -1      2272 2.77315E-03-4.93379E-04-8.11532E-15
 -1      2273 2.54943E-03-4.55790E-04-6.98780E-15
 -1      2274 2.91705E-03-4.93048E-04-8.95073E-15
 -1      2275 3.06144E-03-4.92264E-04-9.82373E-15
 -1      2276 2.83678E-03-4.56137E-04-8.57754E-15
 -1      2277 3.20637E-03-4.91288E-04-1.07343E-14
 -1      2278 3.35186E-03-4.90298E-04-1.16824E-14
 -1      2279 3.12557E-03-4.54258E-04-1.03201E-14
 -1      2280 3.49799E-03-4.89560E-04-1.26672E-14
 -1      2281 3.64475E-03-4.89271E-04-1.36884E-14
 -1      2282 3.41623E-03-4.51845E-04-1.22118E-14
 -1      2283 3.79222E-03-4.89707E-04-1.47449E-14
 -1      2284 3.94037E-03-4.91086E-04-1.58369E-14
 -1      2285 3.70920E-03-4.50670E-04-1.42485E-14
 -1      2286 4.08932E-03-4.93688E-04-1.69637E-14
 -1      2287 4.23893E-03-4.97743E-04-1.81255E-14
 -1      2288 4.00496E-03-4.52642E-04-1.64269E-14
 -1      2289 4.38938E-03-5.03501E-04-1.93211E-14
 -1      2290 4.54043E-03-5.11176E-04-2.05499E-14
 -1      2291 4.30395E-03-4.59783E-04-1.87438E-14
 -1      2292 4.69228E-03-5.20931E-04-2.18106E-14
 -1      2293 4.84457E-03-5.32897E-04-2.31046E-14
 -1      2294 4.60649E-03-4.74070E-04-2.11947E-14
 -1      2295 4.99748E-03-5.47062E-04-2.44305E-14
 -1      2296 5.15052E-03-5.63364E-04-2.57855E-14
 -1      2297 4.91256E-03-4.97059E-04-2.37741E-14
 -1      2298 5.30382E-03-5.81505E-04-2.71733E-14
 -1      2299 5.45678E-03-6.01093E-04-2.85937E-14
 -1      2300 5.22147E-03-5.29193E-04-2.64807E-14
 -1      2301 5.60943E-03-6.21443E-04-3.00446E-14
 -1      2302 5.76117E-03-6.41688E-04-3.15273E-14
 -1      2303 5.53162E-03-5.68810E-04-2.93115E-14
 -1      2304 5.91191E-03-6.60731E-04-3.30421E-14
 -1      2305 6.06129E-03-6.77241E-04-3.45893E-14
 -1      2306 5.84040E-03-6.10961E-04-3.22696E-14
 -1      2307 6.20911E-03-6.89837E-04-3.61679E-14
 -1      2308 6.35552E-03-6.96922E-04-3.77775E-14
 -1      2309 6.14485E-03-6.46709E-04-3.53556E-14
 -1      2310 6.50027E-03-6.97181E-04-3.94195E-14
 -1      2311 6.64417E-03-6.89334E-04-4.10912E-14
 -1      2312 6.44298E-03-6.63833E-04-3.85697E-14
 -1      2313 6.78700E-03-6.72561E-04-4.27925E-14
 -1      2314 6.92996E-03-6.46379E-04-4.45227E-14
 -1      2315 6.73547E-03-6.50033E-04-4.19044E-14
 -1      2316 7.07288E-03-6.10821E-04-4.62818E-14
 -1      2317 7.21696E-03-5.66430E-04-4.80686E-14
 -1      2318 7.02579E-03-5.97602E-04-4.53577E-14
 -1      2319 7.36196E-03-5.14069E-04-4.98812E-14
 -1      2320 7.50866E-03-4.55073E-04-5.17196E-14
 -1      2321 7.31864E-03-5.06806E-04-4.89228E-14
 -1      2322 7.65681E-03-3.90771E-04-5.35831E-14
 -1      2323 7.80651E-03-3.22740E-04-5.54702E-14
 -1      2324 7.61736E-03-3.85844E-04-5.25926E-14
 -1      2325 7.95758E-03-2.52339E-04-5.73807E-14
 -1      2326 8.10963E-03-1.80882E-04-5.93131E-14
 -1      2327 7.92238E-03-2.47116E-04-5.63597E-14
 -1      2328 8.26258E-03-1.09436E-04-6.12687E-14
 -1      2329 8.41584E-03-3.88253E-05-6.32454E-14
 -1      2330 8.23162E-03-1.02635E-04-6.02177E-14
 -1      2331 8.56944E-03 3.02927E-05-6.52416E-14
 -1      2332 8.72280E-03 9.75482E-05-6.72572E-14
 -1      2333 8.54212E-03 3.89462E-05-6.41614E-14
 -1      2334 8.87606E-03 1.62660E-04-6.92912E-14
 -1      2335 9.02875E-03 2.25576E-04-7.13406E-14
 -1      2336 8.85138E-03 1.72942E-04-6.81850E-14
 -1      2337 9.18104E-03 2.86289E-04-7.34070E-14
 -1      2338 9.33262E-03 3.44922E-04-7.54917E-14
 -1      2339 9.15787E-03 2.97818E-04-7.22763E-14
 -1      2340 9.48365E-03 4.01629E-04-7.75897E-14
 -1      2341 9.63395E-03 4.56603E-04-7.97026E-14
 -1      2342 9.46102E-03 4.14033E-04-7.64336E-14
 -1      2343 9.78366E-03 5.10065E-04-8.18318E-14
 -1      2344 9.93269E-03 5.62218E-04-8.39742E-14
 -1      2345 9.76086E-03 5.23036E-04-8.06524E-14
 -1      2346 1.00811E-02 6.13289E-04-8.61313E-14
 -1      2347 1.02290E-02 6.63457E-04-8.83023E-14
 -1      2348 1.00577E-02 6.26587E-04-8.49313E-14
 -1      2349 1.03764E-02 7.12924E-04-9.04879E-14
 -1      2350 1.05232E-02 7.61832E-04-9.26872E-14
 -1      2351 1.03521E-02 7.26366E-04-8.92671E-14
 -1      2352 1.06696E-02 8.10342E-04-9.48979E-14
 -1      2353 1.08155E-02 8.58561E-04-9.71222E-14
 -1      2354 1.06445E-02 8.23797E-04-9.36574E-14
 -1      2355 1.09611E-02 9.06607E-04-9.93589E-14
 -1      2356 1.11063E-02 9.54555E-04-1.01606E-13
 -1      2357 1.09353E-02 9.19983E-04-9.81004E-14
 -1      2358 1.12513E-02 1.00248E-03-1.03864E-13
 -1      2359 1.13959E-02 1.05044E-03-1.06133E-13
 -1      2360 1.12248E-02 1.01572E-03-1.02592E-13
 -1      2361 1.15403E-02 1.09848E-03-1.08413E-13
 -1      2362 1.16845E-02 1.14663E-03-1.10705E-13
 -1      2363 1.15134E-02 1.11155E-03-1.07124E-13
 -1      2364 1.18284E-02 1.19491E-03-1.13006E-13
 -1      2365 1.19723E-02 1.24335E-03-1.15317E-13
 -1      2366 1.18011E-02 1.20780E-03-1.11703E-13
 -1      2367 1.21159E-02 1.29194E-03-1.17639E-13
 -1      2368 1.22594E-02 1.34069E-03-1.19973E-13
 -1      2369 1.20883E-02 1.30464E-03-1.16323E-13
 -1      2370 1.24029E-02 1.38961E-03-1.22319E-13
 -1      2371 1.25462E-02 1.43869E-03-1.24677E-13
 -1      2372 1.23751E-02 1.40215E-03-1.20987E-13
 -1      2373 1.26894E-02 1.48791E-03-1.27045E-13
 -1      2374 1.28326E-02 1.53729E-03-1.29423E-13
 -1      2375 1.26616E-02 1.50030E-03-1.25696E-13
 -1      2376 1.29757E-02 1.58680E-03-1.31808E-13
 -1      2377 1.31187E-02 1.63644E-03-1.34197E-13
 -1      2378 1.29478E-02 1.59907E-03-1.30446E-13
 -1      2379 1.32617E-02 1.68620E-03-1.36595E-13
 -1      2380 1.34047E-02 1.73606E-03-1.38996E-13
 -1      2381 1.32338E-02 1.69835E-03-1.35225E-13
 -1      2382 1.35476E-02 1.78601E-03-1.41400E-13
 -1      2383 1.36906E-02 1.83604E-03-1.43810E-13
 -1      2384 1.35197E-02 1.79808E-03-1.40023E-13
 -1      2385 1.87046E-03 5.03199E-04-3.09174E-15
 -1      2386 1.72903E-03 4.93268E-04-2.61861E-15
 -1      2387 2.15369E-03 5.16043E-04-4.15816E-15
 -1      2388 2.01197E-03 5.10726E-04-3.60495E-15
 -1      2389 1.93002E-03 4.71078E-04-3.44286E-15
 -1      2390 2.43820E-03 5.21285E-04-5.38175E-15
 -1      2391 2.29573E-03 5.19504E-04-4.75062E-15
 -1      2392 2.21488E-03 4.81617E-04-4.55820E-15
 -1      2393 2.72476E-03 5.20731E-04-6.76010E-15
 -1      2394 2.58117E-03 5.21638E-04-6.05175E-15
 -1      2395 2.50059E-03 4.85082E-04-5.82929E-15
 -1      2396 3.01407E-03 5.15890E-04-8.29087E-15
 -1      2397 2.86901E-03 5.18758E-04-7.50627E-15
 -1      2398 2.78774E-03 4.83175E-04-7.25330E-15
 -1      2399 3.30680E-03 5.08183E-04-9.97156E-15
 -1      2400 3.15993E-03 5.12300E-04-9.11271E-15
 -1      2401 3.07679E-03 4.77354E-04-8.82930E-15
 -1      2402 3.60366E-03 4.99210E-04-1.17993E-14
 -1      2403 3.45461E-03 5.03740E-04-1.08672E-14
 -1      2404 3.36815E-03 4.69048E-04-1.05532E-14
 -1      2405 3.90546E-03 4.91094E-04-1.37708E-14
 -1      2406 3.75381E-03 4.94886E-04-1.27674E-14
 -1      2407 3.66224E-03 4.59916E-04-1.24224E-14
 -1      2408 4.21314E-03 4.86993E-04-1.58844E-14
 -1      2409 4.05840E-03 4.88304E-04-1.48098E-14
 -1      2410 3.95947E-03 4.52198E-04-1.44344E-14
 -1      2411 4.52793E-03 4.91817E-04-1.81370E-14
 -1      2412 4.36946E-03 4.87917E-04-1.69938E-14
 -1      2413 4.26044E-03 4.49209E-04-1.65870E-14
 -1      2414 4.85167E-03 5.13196E-04-2.05220E-14
 -1      2415 4.68848E-03 4.99843E-04-1.93126E-14
 -1      2416 4.56622E-03 4.56007E-04-1.88761E-14
 -1      2417 5.18733E-03 5.62535E-04-2.30335E-14
 -1      2418 5.01783E-03 5.33449E-04-2.17629E-14
 -1      2419 4.87902E-03 4.80283E-04-2.12963E-14
 -1      2420 5.55789E-03 6.61879E-04-2.58011E-14
 -1      2421 5.37020E-03 6.04588E-04-2.44011E-14
 -1      2422 5.21163E-03 5.35265E-04-2.39055E-14
 -1      2423 5.93442E-03 8.21729E-04-2.85569E-14
 -1      2424 5.74371E-03 7.32417E-04-2.71638E-14
 -1      2425 5.56496E-03 6.38363E-04-2.66391E-14
 -1      2426 6.33814E-03 1.05627E-03-3.14308E-14
 -1      2427 6.13481E-03 9.28492E-04-2.99794E-14
 -1      2428 5.94219E-03 8.05683E-04-2.94247E-14
 -1      2429 6.75578E-03 1.35187E-03-3.44249E-14
 -1      2430 6.54770E-03 1.20035E-03-3.29124E-14
 -1      2431 6.35642E-03 1.05684E-03-3.23265E-14
 -1      2432 7.50920E-03 1.75225E-03-4.04433E-14
 -1      2433 7.31760E-03 1.70461E-03-3.88130E-14
 -1      2434 7.87656E-03 1.70570E-03-4.36447E-14
 -1      2435 7.69222E-03 1.75134E-03-4.20400E-14
 -1      2436 8.27647E-03 1.52018E-03-4.70842E-14
 -1      2437 8.07082E-03 1.61880E-03-4.53401E-14
 -1      2438 8.69254E-03 1.32883E-03-5.06436E-14
 -1      2439 8.48646E-03 1.41876E-03-4.88520E-14
 -1      2440 8.41413E-03 1.40762E-03-4.81211E-14
 -1      2441 9.09312E-03 1.20245E-03-5.42880E-14
 -1      2442 8.89662E-03 1.25646E-03-5.24552E-14
 -1      2443 8.83718E-03 1.22718E-03-5.17106E-14
 -1      2444 9.46933E-03 1.15152E-03-5.80072E-14
 -1      2445 9.28542E-03 1.16881E-03-5.61382E-14
 -1      2446 9.23019E-03 1.12769E-03-5.53834E-14
 -1      2447 9.82255E-03 1.16144E-03-6.17943E-14
 -1      2448 9.64853E-03 1.14997E-03-5.98928E-14
 -1      2449 9.58935E-03 1.10225E-03-5.91280E-14
 -1      2450 1.01597E-02 1.21441E-03-6.56534E-14
 -1      2451 9.99287E-03 1.18365E-03-6.37145E-14
 -1      2452 9.92391E-03 1.13069E-03-6.29374E-14
 -1      2453 1.05013E-02 1.29916E-03-6.97841E-14
 -1      2454 1.03318E-02 1.25391E-03-6.77079E-14
 -1      2455 1.02522E-02 1.19709E-03-6.69180E-14
 -1      2456 1.08178E-02 1.39613E-03-7.37971E-14
 -1      2457 1.06604E-02 1.34617E-03-7.17804E-14
 -1      2458 1.05713E-02 1.28674E-03-7.09751E-14
 -1      2459 1.11277E-02 1.50171E-03-7.78855E-14
 -1      2460 1.09734E-02 1.44816E-03-7.58321E-14
 -1      2461 1.08771E-02 1.38715E-03-7.50114E-14
 -1      2462 1.14321E-02 1.61151E-03-8.20549E-14
 -1      2463 1.12804E-02 1.55628E-03-7.99627E-14
 -1      2464 1.11787E-02 1.49444E-03-7.91281E-14
 -1      2465 1.17322E-02 1.72291E-03-8.62927E-14
 -1      2466 1.15826E-02 1.66713E-03-8.41640E-14
 -1      2467 1.14771E-02 1.60497E-03-8.33165E-14
 -1      2468 1.20288E-02 1.83443E-03-9.06002E-14
 -1      2469 1.18809E-02 1.77872E-03-8.84368E-14
 -1      2470 1.17727E-02 1.71658E-03-8.75747E-14
 -1      2471 1.23226E-02 1.94529E-03-9.49784E-14
 -1      2472 1.21760E-02 1.88998E-03-9.27804E-14
 -1      2473 1.20661E-02 1.82804E-03-9.19032E-14
 -1      2474 1.26143E-02 2.05510E-03-9.94220E-14
 -1      2475 1.24687E-02 2.00035E-03-9.71933E-14
 -1      2476 1.23577E-02 1.93870E-03-9.63009E-14
 -1      2477 1.29043E-02 2.16375E-03-1.03935E-13
 -1      2478 1.27595E-02 2.10958E-03-1.01671E-13
 -1      2479 1.26479E-02 2.04826E-03-1.00766E-13
 -1      2480 1.31930E-02 2.27124E-03-1.08509E-13
 -1      2481 1.30488E-02 2.21765E-03-1.06214E-13
 -1      2482 1.29368E-02 2.15664E-03-1.05294E-13
 -1      2483 1.34809E-02 2.37766E-03-1.13144E-13
 -1      2484 1.33370E-02 2.32458E-03-1.10819E-13
 -1      2485 1.32248E-02 2.26387E-03-1.09881E-13
 -1      2486 1.37680E-02 2.48311E-03-1.17836E-13
 -1      2487 1.36245E-02 2.43050E-03-1.15483E-13
 -1      2488 1.35122E-02 2.37004E-03-1.14528E-13
 -1      2489 1.40546E-02 2.58774E-03-1.22574E-13
 -1      2490 1.39113E-02 2.53552E-03-1.20202E-13
 -1      2491 1.37990E-02 2.47529E-03-1.19230E-13
 -1      2492 1.43409E-02 2.69169E-03-1.27351E-13
 -1      2493 1.41978E-02 2.63979E-03-1.24958E-13
 -1      2494 1.40855E-02 2.57974E-03-1.23974E-13
 -1      2495 1.46269E-02 2.79507E-03-1.32160E-13
 -1      2496 1.44839E-02 2.74344E-03-1.29752E-13
 -1      2497 1.43717E-02 2.68353E-03-1.28755E-13
 -1      2498 1.49128E-02 2.89803E-03-1.36989E-13
 -1      2499 1.47699E-02 2.84660E-03-1.34571E-13
 -1      2500 1.46577E-02 2.78679E-03-1.33566E-13
 -1      2501 1.51986E-02 3.00066E-03-1.41835E-13
 -1      2502 1.50557E-02 2.94938E-03-1.39411E-13
 -1      2503 1.49435E-02 2.88965E-03-1.38395E-13
 -1      2504 1.53493E-02 3.05353E-03-1.44443E-13
 -1      2505 1.48830E-02 2.69640E-03-1.45076E-13
 -1      2506 1.49330E-02 2.73837E-03-1.44856E-13
 -1      2507 1.47831E-02 2.61251E-03-1.45516E-13
 -1      2508 1.48330E-02 2.65444E-03-1.45297E-13
 -1      2509 1.47343E-02 2.63124E-03-1.43093E-13
 -1      2510 1.50816E-02 2.86302E-03-1.44180E-13
 -1      2511 1.51318E-02 2.90509E-03-1.43943E-13
 -1      2512 1.49826E-02 2.78001E-03-1.44632E-13
 -1      2513 1.50318E-02 2.82133E-03-1.44407E-13
 -1      2514 1.49332E-02 2.79802E-03-1.42196E-13
 -1      2515 1.48339E-02 2.71475E-03-1.42648E-13
 -1      2516 1.46833E-02 2.52870E-03-1.45950E-13
 -1      2517 1.47332E-02 2.57060E-03-1.45734E-13
 -1      2518 1.46345E-02 2.54748E-03-1.43530E-13
 -1      2519 1.45836E-02 2.44491E-03-1.46373E-13
 -1      2520 1.46334E-02 2.48680E-03-1.46164E-13
 -1      2521 1.45347E-02 2.46379E-03-1.43961E-13
 -1      2522 1.44840E-02 2.36111E-03-1.46788E-13
 -1      2523 1.45338E-02 2.40302E-03-1.46580E-13
 -1      2524 1.44351E-02 2.38012E-03-1.44382E-13
 -1      2525 1.43861E-02 2.27869E-03-1.47187E-13
 -1      2526 1.44350E-02 2.31991E-03-1.46988E-13
 -1      2527 1.43363E-02 2.29714E-03-1.44791E-13
 -1      2528 1.42867E-02 2.19477E-03-1.47591E-13
 -1      2529 1.43364E-02 2.23674E-03-1.47390E-13
 -1      2530 1.42376E-02 2.21409E-03-1.45194E-13
 -1      2531 1.41874E-02 2.11076E-03-1.47993E-13
 -1      2532 1.42370E-02 2.15278E-03-1.47794E-13
 -1      2533 1.41382E-02 2.13023E-03-1.45600E-13
 -1      2534 1.40883E-02 2.02665E-03-1.48393E-13
 -1      2535 1.41378E-02 2.06871E-03-1.48191E-13
 -1      2536 1.40389E-02 2.04625E-03-1.46002E-13
 -1      2537 9.19480E-03 8.88239E-04-5.12465E-14
 -1      2538 9.33922E-03 8.32037E-04-5.19644E-14
 -1      2539 1.40790E-02 1.97980E-03-1.50058E-13
 -1      2540 9.61665E-03 7.21250E-04-5.42599E-14
 -1      2541 9.53568E-03 7.06602E-04-5.41565E-14
 -1      2542 1.58754E-03 4.80423E-04-2.18589E-15
 -1      2543 1.44581E-03 4.64448E-04-1.79334E-15
 -1      2544 1.64532E-03 4.51320E-04-2.48601E-15
 -1      2545 9.63959E-03 7.36938E-04-5.37894E-14
 -1      2546 9.64970E-03 7.32582E-04-5.40494E-14
 -1      2547 9.41146E-03 6.77051E-04-5.40279E-14
 -1      2548 9.26711E-03 6.39387E-04-5.37964E-14
 -1      2549 5.88960E-04-2.33827E-04-4.61301E-16
 -1      2550 7.81967E-04-2.98913E-04-7.30779E-16
 -1      2551 8.41613E-04-2.87050E-04-8.86769E-16
 -1      2552 5.79559E-04-2.06061E-04-4.86007E-16
 -1      2553 8.84130E-03 1.06192E-03-4.96363E-14
 -1      2554 9.02499E-03 9.66328E-04-5.04506E-14
 -1      2555 7.76475E-03-1.37859E-04-4.76881E-14
 -1      2556 7.57782E-03-2.54315E-04-4.64435E-14
 -1      2557 5.00122E-03 4.02993E-04-3.10055E-14
 -1      2558 5.10078E-03 4.30425E-04-3.12518E-14
 -1      2559 5.46145E-04-2.19798E-05-5.41030E-16
 -1      2560 5.46680E-04-3.74464E-05-5.42630E-16
 -1      2561 6.61913E-04-5.36239E-05-7.34669E-16
 -1      2562 6.60471E-04-1.69221E-05-7.30847E-16
 -1      2563 7.32698E-03 1.68707E-03-3.95637E-14
 -1      2564 7.47278E-03 1.71506E-03-4.07381E-14
 -1      2565 6.05282E-03-7.23003E-05-3.55748E-14
 -1      2566 5.86195E-03 2.60765E-05-3.46852E-14
 -1      2567 7.67084E-03 1.69778E-03-4.22646E-14
 -1      2568 7.81793E-03 1.65049E-03-4.33737E-14
 -1      2569 6.95646E-03 1.49015E-03-3.72094E-14
 -1      2570 7.14845E-03 1.60944E-03-3.83724E-14
 -1      2571 6.54744E-03 1.19894E-03-3.52082E-14
 -1      2572 6.74471E-03 1.34587E-03-3.61548E-14
 -1      2573 5.54579E-03 5.94308E-04-3.20265E-14
 -1      2574 5.72781E-03 6.78205E-04-3.23461E-14
 -1      2575 5.23772E-03 4.74004E-04-3.14378E-14
 -1      2576 5.38478E-03 5.27159E-04-3.17319E-14
 -1      2577 5.45148E-03 5.37960E-04-3.11533E-14
 -1      2578 4.91432E-03 3.73073E-04-3.08523E-14
 -1      2579 4.92895E-03 3.78360E-04-3.07553E-14
 -1      2580 5.30749E-03 2.61746E-04-3.25055E-14
 -1      2581 5.18884E-03 2.98178E-04-3.20565E-14
 -1      2582 9.06123E-03 5.67496E-04-5.32703E-14
 -1      2583 8.87615E-03 4.91784E-04-5.26758E-14
 -1      2584 5.64428E-03 1.28052E-04-3.38012E-14
 -1      2585 5.46755E-03 2.02509E-04-3.31490E-14
 -1      2586 5.37801E-03 2.22949E-04-3.22189E-14
 -1      2587 6.41945E-03-2.63627E-04-3.76170E-14
 -1      2588 6.26106E-03-1.79826E-04-3.66747E-14
 -1      2589 6.77828E-03-4.14354E-04-4.00913E-14
 -1      2590 6.60915E-03-3.49559E-04-3.88439E-14
 -1      2591 6.50851E-03-3.19846E-04-3.80057E-14
 -1      2592 7.12331E-03-4.36244E-04-4.29040E-14
 -1      2593 6.98291E-03-4.45530E-04-4.17478E-14
 -1      2594 7.38563E-03-3.52086E-04-4.50516E-14
 -1      2595 7.25559E-03-4.05699E-04-4.39724E-14
 -1      2596 7.17901E-03-4.24768E-04-4.36143E-14
 -1      2597 8.14482E-03 1.03200E-04-4.98441E-14
 -1      2598 7.98020E-03-1.56306E-06-4.90146E-14
 -1      2599 8.63144E-03 3.74735E-04-5.17847E-14
 -1      2600 8.38348E-03 2.40431E-04-5.08200E-14
 -1      2601 9.48618E-03 7.81356E-04-5.28323E-14
 -1      2602 9.58694E-03 7.55069E-04-5.34403E-14
 -1      2603 7.58132E-04 3.28627E-04-4.64811E-16
 -1      2604 6.11582E-04 2.80640E-04-3.06043E-16
 -1      2605 5.85068E-04 2.54001E-04-3.17631E-16
 -1      2606 8.14408E-04 3.16559E-04-6.09010E-16
 -1      2607 8.37966E-03 1.33491E-03-4.70919E-14
 -1      2608 8.59078E-03 1.20503E-03-4.83181E-14
 -1      2609 7.56149E-03 1.72598E-03-4.12815E-14
 -1      2610 6.70433E-04-1.33672E-04-7.20805E-16
 -1      2611 5.54915E-04-1.22639E-04-5.28386E-16
 -1      2612 5.58235E-04-1.42421E-04-5.19238E-16
 -1      2613 1.35994E-03 4.19547E-04-1.68946E-15
 -1      2614 5.72810E-04 2.23787E-04-3.55618E-16
 -1      2615 8.30241E-03 1.39970E-03-4.68664E-14
 -1      2616 8.74229E-03 4.40747E-04-5.30164E-14
 -1      2617 7.47400E-03-3.03264E-04-4.60791E-14
 -1      2618 8.72855E-03 1.13400E-03-4.94310E-14
 -1      2619 8.86187E-03 1.07701E-03-5.05509E-14
 -1      2620 8.63630E-03 1.20906E-03-4.92213E-14
 -1      2621 6.87275E-03-4.41705E-04-4.08772E-14
 -1      2622 6.76804E-03-4.27045E-04-4.00144E-14
 -1      2623 6.95003E-03-4.53229E-04-4.16698E-14
 -1      2624 5.73829E-03 7.10749E-05-3.37275E-14
 -1      2625 9.49201E-03 7.08533E-04-5.51064E-14
 -1      2626 9.17636E-03 6.19731E-04-5.44456E-14
 -1      2627 7.14156E-03 1.61730E-03-3.72710E-14
 -1      2628 6.96272E-03 1.50337E-03-3.58575E-14
 -1      2629 7.98500E-03 1.62566E-03-4.46504E-14
 -1      2630 1.52371E-02 2.99386E-03-1.43422E-13
 -1      2631 1.51835E-02 2.95574E-03-1.43369E-13
 -1      2632 6.13884E-03-1.31665E-04-3.56917E-14
 -1      2633 9.43648E-03 8.09633E-04-5.32328E-14
 -1      2634 9.12856E-03 9.28823E-04-5.15588E-14
 -1      2635 1.39123E-02 1.91231E-03-1.47612E-13
 -1      2636 1.40206E-02 1.98158E-03-1.48139E-13
 -1      2637 1.39216E-02 1.95918E-03-1.45947E-13
 -1      2638 1.37862E-02 1.86906E-03-1.45443E-13
 -1      2639 5.16291E-03 4.35588E-04-3.06823E-14
 -1      2640 9.64875E-03 7.37444E-04-5.50245E-14
 -1      2641 6.90324E-04 2.46018E-04-5.19238E-16
 -1      2642 9.62770E-03 7.56423E-04-5.44608E-14
 -1      2643 4.95044E-03 3.76451E-04-3.02518E-14
 -1      2644 6.79617E-03 1.37630E-03-3.52393E-14
 -1      2645 6.40473E-03 1.09153E-03-3.42879E-14
 -1      2646 7.85512E-03-7.24492E-05-4.88116E-14
 -1      2647 6.86397E-03 1.42257E-03-3.63417E-14
 -1      2648 5.72351E-04-1.81233E-04-5.05089E-16
 -1      2649 5.09213E-03 3.20461E-04-3.13482E-14
 -1      2650 5.01127E-03 3.28767E-04-3.06476E-14
 -1      2651 5.12912E-03 2.92645E-04-3.08816E-14
 -1      2652 5.86487E-03 7.41446E-04-3.23601E-14
 -1      2653 5.99106E-03 8.10570E-04-3.23704E-14
 -1      2654 5.73335E-03 6.63759E-04-3.14539E-14
 -1      2655 7.92992E-03 1.61660E-03-4.42171E-14
 -1      2656 7.22544E-03 1.64808E-03-3.85756E-14
 -1      2657 4.91544E-03 3.59855E-04-3.05536E-14
 -1      2658 4.88806E-03 3.48803E-04-2.97076E-14
 -1      2659 4.93024E-03 3.47326E-04-3.02565E-14
 -1      2660 8.27898E-03 1.92353E-04-5.11330E-14
 -1      2661 1.50346E-02 2.89032E-03-1.41393E-13
 -1      2662 1.37583E-02 1.88109E-03-1.44059E-13
 -1      2663 7.79382E-04 7.43741E-05-9.14931E-16
 -1      2664 7.77905E-04 5.33281E-05-9.26790E-16
 -1      2665 7.76901E-04 3.22893E-05-9.36547E-16
 -1      2666 7.76396E-04 1.15212E-05-9.44449E-16
 -1      2667 8.94856E-04 4.76913E-05-1.17991E-15
 -1      2668 7.91939E-04 1.67604E-04-8.40839E-16
 -1      2669 7.87622E-04 1.42694E-04-8.64218E-16
 -1      2670 8.04280E-04 2.22102E-04-7.82509E-16
 -1      2671 7.97457E-04 1.94008E-04-8.14168E-16
 -1      2672 9.15334E-04 2.00974E-04-1.05539E-15
 -1      2673 1.13133E-03 3.51871E-04-1.25704E-15
 -1      2674 9.87430E-04 3.24552E-04-9.71947E-16
 -1      2675 9.62756E-03 7.75353E-04-5.53284E-14
 -1      2676 9.67435E-03 7.63913E-04-5.56839E-14
 -1      2677 1.41836E-03 3.93725E-04-1.94597E-15
 -1      2678 1.27488E-03 3.74811E-04-1.58138E-15
 -1      2679 1.19121E-03 3.30678E-04-1.47056E-15
 -1      2680 8.85775E-03 5.01049E-04-5.44348E-14
 -1      2681 8.63731E-03 3.95433E-04-5.35299E-14
 -1      2682 1.32176E-03-3.50754E-04-2.06171E-15
 -1      2683 1.46530E-03-3.67796E-04-2.49282E-15
 -1      2684 1.60871E-03-3.81783E-04-2.96506E-15
 -1      2685 1.75208E-03-3.92944E-04-3.47941E-15
 -1      2686 1.52644E-03-3.40786E-04-2.75882E-15
 -1      2687 1.89537E-03-4.01751E-04-4.03478E-15
 -1      2688 2.03865E-03-4.08395E-04-4.63075E-15
 -1      2689 1.81355E-03-3.62265E-04-3.78940E-15
 -1      2690 2.18193E-03-4.13266E-04-5.26731E-15
 -1      2691 2.32526E-03-4.16534E-04-5.94366E-15
 -1      2692 2.10063E-03-3.75072E-04-4.98274E-15
 -1      2693 2.46870E-03-4.18519E-04-6.65922E-15
 -1      2694 2.61228E-03-4.19376E-04-7.41426E-15
 -1      2695 2.38774E-03-3.81306E-04-6.33434E-15
 -1      2696 2.75605E-03-4.19381E-04-8.20816E-15
 -1      2697 2.90007E-03-4.18682E-04-9.04006E-15
 -1      2698 2.67509E-03-3.82777E-04-7.84231E-15
 -1      2699 3.04438E-03-4.17530E-04-9.90942E-15
 -1      2700 3.18905E-03-4.16084E-04-1.08159E-14
 -1      2701 2.96301E-03-3.81099E-04-9.50277E-15
 -1      2702 3.33415E-03-4.14585E-04-1.17600E-14
 -1      2703 3.47972E-03-4.13215E-04-1.27404E-14
 -1      2704 3.25192E-03-3.77795E-04-1.13128E-14
 -1      2705 3.62588E-03-4.12216E-04-1.37564E-14
 -1      2706 3.77267E-03-4.11808E-04-1.48078E-14
 -1      2707 3.54240E-03-3.74414E-04-1.32685E-14
 -1      2708 3.92023E-03-4.12237E-04-1.58943E-14
 -1      2709 4.06858E-03-4.13767E-04-1.70158E-14
 -1      2710 3.83521E-03-3.72640E-04-1.53664E-14
 -1      2711 4.21791E-03-4.16635E-04-1.81713E-14
 -1      2712 4.36820E-03-4.21147E-04-1.93606E-14
 -1      2713 4.13130E-03-3.74365E-04-1.76037E-14
 -1      2714 4.51967E-03-4.27502E-04-2.05833E-14
 -1      2715 4.67218E-03-4.36010E-04-2.18373E-14
 -1      2716 4.43176E-03-3.81704E-04-1.99755E-14
 -1      2717 4.82600E-03-4.46781E-04-2.31244E-14
 -1      2718 4.98080E-03-4.60045E-04-2.44423E-14
 -1      2719 4.73760E-03-3.96875E-04-2.24793E-14
 -1      2720 5.13682E-03-4.75739E-04-2.57918E-14
 -1      2721 5.29350E-03-4.93827E-04-2.71725E-14
 -1      2722 5.04940E-03-4.21837E-04-2.51079E-14
 -1      2723 5.45095E-03-5.13959E-04-2.85842E-14
 -1      2724 5.60842E-03-5.35621E-04-3.00275E-14
 -1      2725 5.36662E-03-4.57444E-04-2.78624E-14
 -1      2726 5.76582E-03-5.58053E-04-3.15029E-14
 -1      2727 5.92234E-03-5.79947E-04-3.30107E-14
 -1      2728 5.68703E-03-5.02031E-04-3.07420E-14
 -1      2729 6.07770E-03-6.00104E-04-3.45499E-14
 -1      2730 6.23145E-03-6.16529E-04-3.61212E-14
 -1      2731 6.00647E-03-5.49348E-04-3.37490E-14
 -1      2732 6.38321E-03-6.27728E-04-3.77238E-14
 -1      2733 6.53335E-03-6.31312E-04-3.93581E-14
 -1      2734 6.32017E-03-5.87403E-04-3.68843E-14
 -1      2735 6.68160E-03-6.26052E-04-4.10216E-14
 -1      2736 6.82927E-03-6.10572E-04-4.27147E-14
 -1      2737 6.62549E-03-5.99235E-04-4.01437E-14
 -1      2738 6.97614E-03-5.84324E-04-4.44387E-14
 -1      2739 7.12390E-03-5.47300E-04-4.61900E-14
 -1      2740 6.92477E-03-5.70104E-04-4.35228E-14
 -1      2741 7.27236E-03-5.00133E-04-4.79694E-14
 -1      2742 7.42278E-03-4.44356E-04-4.97747E-14
 -1      2743 7.22428E-03-4.94019E-04-4.70198E-14
 -1      2744 7.57484E-03-3.81246E-04-5.16055E-14
 -1      2745 7.72888E-03-3.13174E-04-5.34628E-14
 -1      2746 7.53020E-03-3.77671E-04-5.06234E-14
 -1      2747 7.88451E-03-2.41561E-04-5.53429E-14
 -1      2748 8.04123E-03-1.68422E-04-5.72459E-14
 -1      2749 7.84445E-03-2.36406E-04-5.43295E-14
 -1      2750 8.19876E-03-9.49380E-05-5.91706E-14
 -1      2751 8.35631E-03-2.23027E-05-6.11169E-14
 -1      2752 8.16417E-03-8.67819E-05-5.81282E-14
 -1      2753 8.51380E-03 4.87523E-05-6.30871E-14
 -1      2754 8.67050E-03 1.17734E-04-6.50758E-14
 -1      2755 8.48448E-03 5.95556E-05-6.20148E-14
 -1      2756 8.82652E-03 1.84315E-04-6.70821E-14
 -1      2757 8.98133E-03 2.48484E-04-6.91078E-14
 -1      2758 8.80142E-03 1.96830E-04-6.59851E-14
 -1      2759 9.13517E-03 3.10186E-04-7.11494E-14
 -1      2760 9.28774E-03 3.69645E-04-7.32073E-14
 -1      2761 9.11287E-03 3.23537E-04-7.00258E-14
 -1      2762 9.43929E-03 4.26965E-04-7.52822E-14
 -1      2763 9.58970E-03 4.82442E-04-7.73714E-14
 -1      2764 9.41840E-03 4.40583E-04-7.41348E-14
 -1      2765 9.73919E-03 5.36254E-04-7.94782E-14
 -1      2766 9.88776E-03 5.88680E-04-8.15983E-14
 -1      2767 9.71863E-03 5.49848E-04-7.83066E-14
 -1      2768 1.00356E-02 6.39919E-04-8.37348E-14
 -1      2769 1.01827E-02 6.90199E-04-8.58858E-14
 -1      2770 1.00146E-02 6.53372E-04-8.25423E-14
 -1      2771 1.03291E-02 7.39706E-04-8.80506E-14
 -1      2772 1.04751E-02 7.88613E-04-9.02299E-14
 -1      2773 1.03073E-02 7.52990E-04-8.68369E-14
 -1      2774 1.06206E-02 8.37076E-04-9.24211E-14
 -1      2775 1.07657E-02 8.85217E-04-9.46273E-14
 -1      2776 1.05978E-02 8.50194E-04-9.11884E-14
 -1      2777 1.09105E-02 9.33156E-04-9.68469E-14
 -1      2778 1.10550E-02 9.80976E-04-9.90780E-14
 -1      2779 1.08866E-02 9.46120E-04-9.55949E-14
 -1      2780 1.11992E-02 1.02876E-03-1.01320E-13
 -1      2781 1.13432E-02 1.07657E-03-1.03573E-13
 -1      2782 1.11744E-02 1.04158E-03-1.00051E-13
 -1      2783 1.14871E-02 1.12444E-03-1.05839E-13
 -1      2784 1.16308E-02 1.17242E-03-1.08116E-13
 -1      2785 1.14615E-02 1.13713E-03-1.04556E-13
 -1      2786 1.17743E-02 1.22054E-03-1.10402E-13
 -1      2787 1.19178E-02 1.26880E-03-1.12701E-13
 -1      2788 1.17481E-02 1.23310E-03-1.09105E-13
 -1      2789 1.20612E-02 1.31723E-03-1.15009E-13
 -1      2790 1.22045E-02 1.36583E-03-1.17328E-13
 -1      2791 1.20344E-02 1.32967E-03-1.13696E-13
 -1      2792 1.23477E-02 1.41460E-03-1.19659E-13
 -1      2793 1.24908E-02 1.46353E-03-1.22001E-13
 -1      2794 1.23205E-02 1.42693E-03-1.18333E-13
 -1      2795 1.26339E-02 1.51263E-03-1.24351E-13
 -1      2796 1.27770E-02 1.56188E-03-1.26716E-13
 -1      2797 1.26065E-02 1.52487E-03-1.23011E-13
 -1      2798 1.29200E-02 1.61128E-03-1.29089E-13
 -1      2799 1.30630E-02 1.66082E-03-1.31470E-13
 -1      2800 1.28924E-02 1.62343E-03-1.27734E-13
 -1      2801 1.32060E-02 1.71048E-03-1.33857E-13
 -1      2802 1.33489E-02 1.76026E-03-1.36250E-13
 -1      2803 1.31783E-02 1.72256E-03-1.32492E-13
 -1      2804 1.34918E-02 1.81014E-03-1.38648E-13
 -1      2805 1.36348E-02 1.86011E-03-1.41050E-13
 -1      2806 1.34641E-02 1.82216E-03-1.37273E-13
 -1      2807 2.27626E-03 4.46851E-04-4.96432E-15
 -1      2808 2.13330E-03 4.43585E-04-4.36318E-15
 -1      2809 5.08342E-03 4.01343E-04-2.98350E-14
 -1      2810 5.20707E-03 4.36590E-04-3.00142E-14
 -1      2811 1.99042E-03 4.38427E-04-3.80116E-15
 -1      2812 1.84753E-03 4.31213E-04-3.27803E-15
 -1      2813 2.05140E-03 4.05461E-04-4.16617E-15
 -1      2814 2.84955E-03 4.45799E-04-7.75252E-15
 -1      2815 2.70591E-03 4.47819E-04-6.99862E-15
 -1      2816 3.13755E-03 4.39350E-04-9.37252E-15
 -1      2817 2.99339E-03 4.42933E-04-8.54387E-15
 -1      2818 2.91014E-03 4.08829E-04-8.25712E-15
 -1      2819 3.42666E-03 4.30869E-04-1.11395E-14
 -1      2820 3.28192E-03 4.35281E-04-1.02381E-14
 -1      2821 3.19636E-03 4.02111E-04-9.92101E-15
 -1      2822 3.71692E-03 4.22076E-04-1.30499E-14
 -1      2823 3.57159E-03 4.26408E-04-1.20766E-14
 -1      2824 3.48237E-03 3.93887E-04-1.17303E-14
 -1      2825 4.00839E-03 4.15298E-04-1.51016E-14
 -1      2826 3.86243E-03 4.18289E-04-1.40584E-14
 -1      2827 3.76785E-03 3.85927E-04-1.36815E-14
 -1      2828 4.30131E-03 4.13906E-04-1.72935E-14
 -1      2829 4.15455E-03 4.13702E-04-1.61801E-14
 -1      2830 4.05246E-03 3.80589E-04-1.57732E-14
 -1      2831 4.59658E-03 4.22899E-04-1.96178E-14
 -1      2832 4.44844E-03 4.16738E-04-1.84395E-14
 -1      2833 4.33607E-03 3.81172E-04-1.80021E-14
 -1      2834 4.89677E-03 4.49651E-04-2.20721E-14
 -1      2835 4.74570E-03 4.33433E-04-2.08290E-14
 -1      2836 4.61943E-03 3.92333E-04-2.03626E-14
 -1      2837 5.22389E-03 5.08929E-04-2.47802E-14
 -1      2838 5.05812E-03 4.74046E-04-2.34094E-14
 -1      2839 4.91264E-03 4.21722E-04-2.29138E-14
 -1      2840 5.55876E-03 6.12161E-04-2.74776E-14
 -1      2841 5.38763E-03 5.52776E-04-2.61148E-14
 -1      2842 5.21666E-03 4.80135E-04-2.55903E-14
 -1      2843 6.01584E-03 8.25532E-04-3.11681E-14
 -1      2844 5.81796E-03 7.16924E-04-2.97314E-14
 -1      2845 7.58646E-03 1.73509E-03-4.13536E-14
 -1      2846 8.69114E-03 1.23082E-03-5.01237E-14
 -1      2847 8.47259E-03 1.33426E-03-4.83345E-14
 -1      2848 9.70775E-03 1.05722E-03-6.02676E-14
 -1      2849 9.54404E-03 1.05008E-03-5.83753E-14
 -1      2850 1.00213E-02 1.10315E-03-6.41035E-14
 -1      2851 9.86630E-03 1.07591E-03-6.21777E-14
 -1      2852 9.81876E-03 1.02238E-03-6.14141E-14
 -1      2853 1.03391E-02 1.18204E-03-6.82057E-14
 -1      2854 1.01810E-02 1.13962E-03-6.61447E-14
 -1      2855 1.01183E-02 1.08448E-03-6.53700E-14
 -1      2856 1.06368E-02 1.27483E-03-7.21894E-14
 -1      2857 1.04883E-02 1.22678E-03-7.01870E-14
 -1      2858 1.04121E-02 1.16952E-03-6.93990E-14
 -1      2859 1.09321E-02 1.37767E-03-7.62491E-14
 -1      2860 1.07846E-02 1.32530E-03-7.42103E-14
 -1      2861 1.06977E-02 1.26592E-03-7.34062E-14
 -1      2862 1.12259E-02 1.48592E-03-8.03890E-14
 -1      2863 1.10791E-02 1.43131E-03-7.83098E-14
 -1      2864 1.09839E-02 1.37021E-03-7.74925E-14
 -1      2865 1.15184E-02 1.59666E-03-8.45976E-14
 -1      2866 1.13722E-02 1.54110E-03-8.24844E-14
 -1      2867 1.12709E-02 1.47879E-03-8.16505E-14
 -1      2868 1.18097E-02 1.70810E-03-8.88793E-14
 -1      2869 1.16641E-02 1.65236E-03-8.67303E-14
 -1      2870 1.15583E-02 1.58931E-03-8.58827E-14
 -1      2871 1.21001E-02 1.81922E-03-9.32288E-14
 -1      2872 1.19550E-02 1.76374E-03-9.10454E-14
 -1      2873 1.18459E-02 1.70028E-03-9.01863E-14
 -1      2874 1.23895E-02 1.92949E-03-9.76452E-14
 -1      2875 1.22448E-02 1.87448E-03-9.54285E-14
 -1      2876 1.21335E-02 1.81087E-03-9.45552E-14
 -1      2877 1.26780E-02 2.03866E-03-1.02129E-13
 -1      2878 1.25338E-02 1.98422E-03-9.98798E-14
 -1      2879 1.24209E-02 1.92059E-03-9.89913E-14
 -1      2880 1.29659E-02 2.14667E-03-1.06670E-13
 -1      2881 1.28220E-02 2.09281E-03-1.04392E-13
 -1      2882 1.27080E-02 2.02927E-03-1.03490E-13
 -1      2883 1.32532E-02 2.25357E-03-1.11274E-13
 -1      2884 1.31096E-02 2.20026E-03-1.08965E-13
 -1      2885 1.29949E-02 2.13684E-03-1.08047E-13
 -1      2886 1.35400E-02 2.35946E-03-1.15931E-13
 -1      2887 1.33966E-02 2.30664E-03-1.13595E-13
 -1      2888 1.32815E-02 2.24336E-03-1.12663E-13
 -1      2889 1.38266E-02 2.46446E-03-1.20640E-13
 -1      2890 1.36833E-02 2.41206E-03-1.18279E-13
 -1      2891 1.35679E-02 2.34893E-03-1.17333E-13
 -1      2892 1.41128E-02 2.56871E-03-1.25389E-13
 -1      2893 1.39697E-02 2.51667E-03-1.23011E-13
 -1      2894 1.38541E-02 2.45367E-03-1.22049E-13
 -1      2895 1.43989E-02 2.67234E-03-1.30177E-13
 -1      2896 1.42559E-02 2.62060E-03-1.27779E-13
 -1      2897 1.41402E-02 2.55770E-03-1.26804E-13
 -1      2898 1.46848E-02 2.77548E-03-1.34985E-13
 -1      2899 1.45419E-02 2.72397E-03-1.32577E-13
 -1      2900 1.44262E-02 2.66116E-03-1.31590E-13
 -1      2901 1.49312E-02 2.85863E-03-1.39394E-13
 -1      2902 1.47883E-02 2.80728E-03-1.36979E-13
 -1      2903 1.46726E-02 2.74454E-03-1.35985E-13
 -1      2904 1.48795E-02 2.80804E-03-1.39971E-13
 -1      2905 1.43862E-02 2.39894E-03-1.41972E-13
 -1      2906 1.44361E-02 2.44071E-03-1.41761E-13
 -1      2907 1.37304E-02 1.89310E-03-1.42681E-13
 -1      2908 1.38260E-02 1.92612E-03-1.44314E-13
 -1      2909 1.37026E-02 1.90508E-03-1.41304E-13
 -1      2910 1.45857E-02 2.56611E-03-1.41111E-13
 -1      2911 1.46357E-02 2.60797E-03-1.40890E-13
 -1      2912 1.42866E-02 2.31539E-03-1.42393E-13
 -1      2913 1.43364E-02 2.35717E-03-1.42185E-13
 -1      2914 1.42378E-02 2.33415E-03-1.39990E-13
 -1      2915 1.44860E-02 2.48249E-03-1.41545E-13
 -1      2916 1.45358E-02 2.52429E-03-1.41329E-13
 -1      2917 1.44372E-02 2.50102E-03-1.39131E-13
 -1      2918 1.43375E-02 2.41756E-03-1.39565E-13
 -1      2919 1.70461E-03 4.21543E-04-2.79430E-15
 -1      2920 1.56154E-03 4.09218E-04-2.35040E-15
 -1      2921 1.47821E-03 3.67242E-04-2.21147E-15
 -1      2922 1.76496E-03 3.91283E-04-3.11044E-15
 -1      2923 1.41886E-02 2.23323E-03-1.42796E-13
 -1      2924 1.42376E-02 2.27432E-03-1.42594E-13
 -1      2925 1.41390E-02 2.25145E-03-1.40403E-13
 -1      2926 1.40891E-02 2.14955E-03-1.43203E-13
 -1      2927 1.41388E-02 2.19140E-03-1.43000E-13
 -1      2928 1.40402E-02 2.16869E-03-1.40810E-13
 -1      2929 1.39897E-02 2.06574E-03-1.43610E-13
 -1      2930 1.40393E-02 2.10767E-03-1.43407E-13
 -1      2931 1.39406E-02 2.08509E-03-1.41218E-13
 -1      2932 7.89688E-04-2.46462E-04-8.38929E-16
 -1      2933 9.21035E-04-2.80938E-04-1.08309E-15
 -1      2934 8.04043E-04 2.71888E-04-6.88265E-16
 -1      2935 9.09312E-03 9.70648E-04-5.21325E-14
 -1      2936 9.23979E-03 9.04963E-04-5.29402E-14
 -1      2937 9.68394E-03 7.54692E-04-5.59918E-14
 -1      2938 9.65119E-03 7.49834E-04-5.62036E-14
 -1      2939 9.28273E-03 6.62566E-04-5.57308E-14
 -1      2940 9.09620E-03 5.99681E-04-5.51965E-14
 -1      2941 8.89972E-03 1.15263E-03-5.19355E-14
 -1      2942 6.20260E-03-1.91272E-04-3.57475E-14
 -1      2943 6.02109E-03-9.58659E-05-3.46637E-14
 -1      2944 2.56252E-03 4.48774E-04-6.28215E-15
 -1      2945 2.41930E-03 4.48533E-04-5.60420E-15
 -1      2946 2.33767E-03 4.11961E-04-5.37686E-15
 -1      2947 2.62389E-03 4.12578E-04-6.74150E-15
 -1      2948 1.04942E-03-3.07127E-04-1.36116E-15
 -1      2949 1.19291E-03-3.31110E-04-1.71300E-15
 -1      2950 1.25421E-03-3.08932E-04-1.93567E-15
 -1      2951 9.97671E-04-2.66802E-04-1.29520E-15
 -1      2952 9.39134E-03 8.45988E-04-5.38158E-14
 -1      2953 9.52365E-03 8.07791E-04-5.46958E-14
 -1      2954 9.36322E-03 8.89910E-04-5.43956E-14
 -1      2955 1.38938E-02 1.97114E-03-1.44567E-13
 -1      2956 7.84152E-04 1.19041E-04-8.83787E-16
 -1      2957 7.81459E-04 9.62975E-05-9.00660E-16
 -1      2958 8.98518E-04 9.54917E-05-1.15085E-15
 -1      2959 9.05030E-04 1.45973E-04-1.11029E-15
 -1      2960 7.81128E-04-9.41950E-05-9.56226E-16
 -1      2961 7.83727E-04-1.16899E-04-9.52241E-16
 -1      2962 9.56847E-03 7.34917E-04-5.63579E-14
 -1      2963 9.45769E-03 7.12843E-04-5.62278E-14
 -1      2964 6.53501E-04-1.83683E-04-6.46076E-16
 -1      2965 7.93812E-03-1.42801E-05-5.00474E-14
 -1      2966 7.74877E-03-1.36955E-04-4.87072E-14
 -1      2967 5.33224E-03 4.81445E-04-3.02974E-14
 -1      2968 5.47281E-03 5.37718E-04-3.05821E-14
 -1      2969 5.22665E-03 4.39769E-04-2.94527E-14
 -1      2970 8.40843E-03 2.72291E-04-5.26673E-14
 -1      2971 8.20089E-03 1.48001E-04-5.16735E-14
 -1      2972 7.54917E-03-2.56054E-04-4.72111E-14
 -1      2973 7.38379E-03-3.46501E-04-4.58063E-14
 -1      2974 5.43295E-03 1.81299E-04-3.18859E-14
 -1      2975 5.28926E-03 2.31678E-04-3.12573E-14
 -1      2976 5.80182E-03 1.66412E-05-3.35444E-14
 -1      2977 5.61131E-03 1.07569E-04-3.26792E-14
 -1      2978 6.55573E-03-3.62773E-04-3.82494E-14
 -1      2979 6.39492E-03-2.87123E-04-3.70324E-14
 -1      2980 7.21987E-03-4.12372E-04-4.42819E-14
 -1      2981 7.10786E-03-4.42004E-04-4.32093E-14
 -1      2982 4.90660E-03 3.56852E-04-2.93828E-14
 -1      2983 4.98161E-03 3.74041E-04-2.96274E-14
 -1      2984 7.87080E-04-1.40482E-04-9.45777E-16
 -1      2985 7.91233E-04-1.65177E-04-9.35965E-16
 -1      2986 9.04472E-04-1.43457E-04-1.20208E-15
 -1      2987 8.93633E-04 1.13788E-06-1.19921E-15
 -1      2988 7.76361E-04-9.19556E-06-9.50479E-16
 -1      2989 7.76796E-04-2.99605E-05-9.54816E-16
 -1      2990 8.54718E-03 3.41826E-04-5.40793E-14
 -1      2991 9.71027E-03 7.73466E-04-5.68664E-14
 -1      2992 8.99510E-03 5.57583E-04-5.57188E-14
 -1      2993 7.00205E-03-4.56426E-04-4.23210E-14
 -1      2994 1.45366E-02 2.58426E-03-1.38690E-13
 -1      2995 1.46852E-02 2.64950E-03-1.40668E-13
 -1      2996 1.47348E-02 2.69106E-03-1.40444E-13
 -1      2997 8.08271E-03 6.88864E-05-5.15649E-14
 -1      2998 7.19956E-03 1.63979E-03-3.82135E-14
 -1      2999 5.60460E-03 6.03119E-04-2.91677E-14
 -1      3000 6.38447E-03 1.07016E-03-3.31879E-14
 -1      3001 6.16755E-03 9.22212E-04-3.17093E-14
 -1      3002 5.87733E-03-5.22541E-05-3.35954E-14
 -1      3003 8.15498E-03 1.51694E-03-4.59982E-14
 -1      3004 7.93777E-03 1.62618E-03-4.42927E-14
 -1      3005 9.43994E-03 9.63357E-04-5.64945E-14
 -1      3006 9.29089E-03 1.02876E-03-5.53835E-14
 -1      3007 1.47822E-02 2.72870E-03-1.40321E-13
 -1      3008 1.48319E-02 2.77034E-03-1.40093E-13
 -1      3009 1.47285E-02 2.73863E-03-1.38100E-13
 -1      3010 1.46335E-02 2.66334E-03-1.38347E-13
 -1      3011 9.39549E-03 6.98830E-04-5.69865E-14
 -1      3012 9.60831E-03 8.05792E-04-5.59179E-14
 -1      3013 7.64511E-03-2.02639E-04-4.84250E-14
 -1      3014 1.39433E-02 2.01316E-03-1.44367E-13
 -1      3015 4.87552E-03 3.44719E-04-2.90891E-14
 -1      3016 4.87764E-03 3.40610E-04-2.84746E-14
 -1      3017 4.85835E-03 3.34516E-04-2.87963E-14
 -1      3018 6.64955E-03-4.07253E-04-3.90141E-14
 -1      3019 6.53171E-03-3.86196E-04-3.80215E-14
 -1      3020 6.72893E-03-4.39993E-04-3.97833E-14
 -1      3021 7.30485E-03-3.80519E-04-4.53884E-14
 -1      3022 8.32958E-03 1.40254E-03-4.72357E-14
 -1      3023 8.65892E-04 2.59592E-04-8.41883E-16
 -1      3024 9.00361E-03 1.03635E-03-5.19177E-14
 -1      3025 9.64149E-03 7.56093E-04-5.73322E-14
 -1      3026 5.00700E-03 3.74175E-04-2.89699E-14
 -1      3027 7.70603E-04-1.96739E-04-8.62361E-16
 -1      3028 6.85005E-03 1.41024E-03-3.59907E-14
 -1      3029 6.61915E-03 1.23993E-03-3.45599E-14
 -1      3030 5.17882E-03 2.57726E-04-3.05556E-14
 -1      3031 5.07975E-03 2.72285E-04-2.98616E-14
 -1      3032 5.21996E-03 2.16855E-04-3.02276E-14
 -1      3033 9.10928E-03 1.06056E-03-5.35317E-14
 -1      3034 7.77716E-04-5.09007E-05-9.57215E-16
 -1      3035 7.79138E-04-7.22950E-05-9.57662E-16
 -1      3036 8.98195E-04-9.30291E-05-1.21115E-15
 -1      3037 8.94717E-04-4.53252E-05-1.20967E-15
 -1      3038 6.26437E-03-2.51854E-04-3.59794E-14
 -1      3039 5.49775E-03 1.25544E-04-3.17064E-14
 -1      3040 1.37735E-02 1.94791E-03-1.41742E-13
 -1      3041 1.39187E-02 2.02292E-03-1.43171E-13
 -1      3042 1.38198E-02 2.00046E-03-1.40984E-13
 -1      3043 1.36779E-02 1.91490E-03-1.40112E-13
 -1      3044 4.94595E-03 3.26103E-04-2.97984E-14
 -1      3045 6.41595E-03 1.09473E-03-3.39161E-14
 -1      3046 9.84033E-04 2.67623E-04-1.09218E-15
 -1      3047 1.04091E-03 2.34926E-04-1.29276E-15
 -1      3048 1.03381E-03 2.03807E-04-1.32954E-15
 -1      3049 6.29570E-03-3.10577E-04-3.60645E-14
 -1      3050 6.12618E-03-2.28991E-04-3.47983E-14
 -1      3051 1.73231E-03-3.23182E-04-3.54709E-15
 -1      3052 1.87596E-03-3.31073E-04-4.10413E-15
 -1      3053 2.01960E-03-3.37088E-04-4.70075E-15
 -1      3054 2.16326E-03-3.41384E-04-5.33755E-15
 -1      3055 1.93908E-03-2.99431E-04-4.42292E-15
 -1      3056 2.30689E-03-3.44252E-04-6.01336E-15
 -1      3057 2.45053E-03-3.45833E-04-6.72754E-15
 -1      3058 2.22637E-03-3.07416E-04-5.69550E-15
 -1      3059 2.59419E-03-3.46382E-04-7.48076E-15
 -1      3060 2.73790E-03-3.46026E-04-8.27219E-15
 -1      3061 2.51355E-03-3.10208E-04-7.12355E-15
 -1      3062 2.88170E-03-3.44993E-04-9.10067E-15
 -1      3063 3.02564E-03-3.43413E-04-9.96657E-15
 -1      3064 2.80065E-03-3.09205E-04-8.70286E-15
 -1      3065 3.16978E-03-3.41495E-04-1.08697E-14
 -1      3066 3.31419E-03-3.39389E-04-1.18096E-14
 -1      3067 3.08793E-03-3.05684E-04-1.04314E-14
 -1      3068 3.45899E-03-3.37294E-04-1.27852E-14
 -1      3069 3.60425E-03-3.35401E-04-1.37965E-14
 -1      3070 3.37587E-03-3.00892E-04-1.23069E-14
 -1      3071 3.75014E-03-3.33907E-04-1.48431E-14
 -1      3072 3.89676E-03-3.33064E-04-1.59246E-14
 -1      3073 3.66527E-03-2.96157E-04-1.43249E-14
 -1      3074 4.04433E-03-3.33070E-04-1.70402E-14
 -1      3075 4.19296E-03-3.34258E-04-1.81902E-14
 -1      3076 3.95730E-03-2.93010E-04-1.64826E-14
 -1      3077 4.34292E-03-3.36821E-04-1.93736E-14
 -1      3078 4.49430E-03-3.41183E-04-2.05899E-14
 -1      3079 4.25350E-03-2.93323E-04-1.87763E-14
 -1      3080 4.64742E-03-3.47513E-04-2.18376E-14
 -1      3081 4.80223E-03-3.56298E-04-2.31174E-14
 -1      3082 4.55575E-03-2.99433E-04-2.12023E-14
 -1      3083 4.95909E-03-3.67639E-04-2.44291E-14
 -1      3084 5.11767E-03-3.81983E-04-2.57713E-14
 -1      3085 4.86600E-03-3.14165E-04-2.37543E-14
 -1      3086 5.27828E-03-3.99295E-04-2.71448E-14
 -1      3087 5.44017E-03-4.19629E-04-2.85500E-14
 -1      3088 5.18556E-03-3.40577E-04-2.64331E-14
 -1      3089 5.60342E-03-4.42662E-04-2.99864E-14
 -1      3090 5.76692E-03-4.67739E-04-3.14540E-14
 -1      3091 5.51398E-03-3.80791E-04-2.92357E-14
 -1      3092 5.93043E-03-4.93972E-04-3.29542E-14
 -1      3093 6.09270E-03-5.19287E-04-3.44856E-14
 -1      3094 5.84776E-03-4.33787E-04-3.21636E-14
 -1      3095 6.25320E-03-5.42367E-04-3.60492E-14
 -1      3096 6.41127E-03-5.59795E-04-3.76436E-14
 -1      3097 6.18015E-03-4.90910E-04-3.52187E-14
 -1      3098 6.56656E-03-5.69505E-04-3.92704E-14
 -1      3099 6.72006E-03-5.68529E-04-4.09265E-14
 -1      3100 6.50367E-03-5.34675E-04-3.84018E-14
 -1      3101 6.87109E-03-5.55492E-04-4.26135E-14
 -1      3102 7.02255E-03-5.29083E-04-4.43297E-14
 -1      3103 6.81550E-03-5.38527E-04-4.17079E-14
 -1      3104 7.17382E-03-4.89380E-04-4.60738E-14
 -1      3105 7.32754E-03-4.37664E-04-4.78452E-14
 -1      3106 7.12236E-03-4.85626E-04-4.51320E-14
 -1      3107 7.48315E-03-3.75611E-04-4.96445E-14
 -1      3108 7.64160E-03-3.06347E-04-5.14693E-14
 -1      3109 7.43488E-03-3.76020E-04-4.86690E-14
 -1      3110 7.80238E-03-2.31624E-04-5.33183E-14
 -1      3111 7.96479E-03-1.55062E-04-5.51931E-14
 -1      3112 7.75912E-03-2.28655E-04-5.23118E-14
 -1      3113 8.12836E-03-7.78854E-05-5.70905E-14
 -1      3114 8.29178E-03-2.00459E-06-5.90077E-14
 -1      3115 8.09170E-03-6.91043E-05-5.60545E-14
 -1      3116 8.45486E-03 7.17834E-05-6.09475E-14
 -1      3117 8.61648E-03 1.42865E-04-6.29095E-14
 -1      3118 8.42507E-03 8.50724E-05-5.98846E-14
 -1      3119 8.77676E-03 2.10928E-04-6.48902E-14
 -1      3120 8.93499E-03 2.76056E-04-6.68888E-14
 -1      3121 8.75261E-03 2.26556E-04-6.37991E-14
 -1      3122 9.09149E-03 3.38238E-04-6.89051E-14
 -1      3123 9.24594E-03 3.97905E-04-7.09397E-14
 -1      3124 9.07111E-03 3.54423E-04-6.77891E-14
 -1      3125 9.39870E-03 4.55156E-04-7.29902E-14
 -1      3126 9.54972E-03 5.10469E-04-7.50570E-14
 -1      3127 9.38025E-03 4.70861E-04-7.18492E-14
 -1      3128 9.69934E-03 5.63994E-04-7.71399E-14
 -1      3129 9.84763E-03 6.16133E-04-7.92383E-14
 -1      3130 9.68138E-03 5.78846E-04-7.59760E-14
 -1      3131 9.99485E-03 6.67046E-04-8.13529E-14
 -1      3132 1.01411E-02 7.17038E-04-8.34812E-14
 -1      3133 9.97643E-03 6.81051E-04-8.01665E-14
 -1      3134 1.02867E-02 7.66257E-04-8.56253E-14
 -1      3135 1.04316E-02 8.14918E-04-8.77851E-14
 -1      3136 1.02672E-02 7.79574E-04-8.44175E-14
 -1      3137 1.05760E-02 8.63148E-04-8.99572E-14
 -1      3138 1.07200E-02 9.11089E-04-9.21440E-14
 -1      3139 1.05553E-02 8.75968E-04-8.87288E-14
 -1      3140 1.08637E-02 9.58844E-04-9.43466E-14
 -1      3141 1.10071E-02 1.00650E-03-9.65609E-14
 -1      3142 1.08417E-02 9.71332E-04-9.30993E-14
 -1      3143 1.11504E-02 1.05414E-03-9.87866E-14
 -1      3144 1.12935E-02 1.10181E-03-1.01024E-13
 -1      3145 1.11271E-02 1.06642E-03-9.75235E-14
 -1      3146 1.14365E-02 1.14956E-03-1.03271E-13
 -1      3147 1.15795E-02 1.19742E-03-1.05535E-13
 -1      3148 1.14122E-02 1.16171E-03-1.01994E-13
 -1      3149 1.17224E-02 1.24543E-03-1.07809E-13
 -1      3150 1.18652E-02 1.29359E-03-1.10091E-13
 -1      3151 1.16972E-02 1.25750E-03-1.06513E-13
 -1      3152 1.20081E-02 1.34192E-03-1.12386E-13
 -1      3153 1.21509E-02 1.39043E-03-1.14692E-13
 -1      3154 1.19821E-02 1.35395E-03-1.11078E-13
 -1      3155 1.22937E-02 1.43911E-03-1.17009E-13
 -1      3156 1.24365E-02 1.48796E-03-1.19336E-13
 -1      3157 1.22672E-02 1.45110E-03-1.15687E-13
 -1      3158 1.25794E-02 1.53698E-03-1.21674E-13
 -1      3159 1.27222E-02 1.58616E-03-1.24022E-13
 -1      3160 1.25525E-02 1.54894E-03-1.20338E-13
 -1      3161 1.28650E-02 1.63549E-03-1.26381E-13
 -1      3162 1.30079E-02 1.68496E-03-1.28750E-13
 -1      3163 1.28378E-02 1.64743E-03-1.25032E-13
 -1      3164 1.31507E-02 1.73457E-03-1.31127E-13
 -1      3165 1.32935E-02 1.78429E-03-1.33510E-13
 -1      3166 1.31233E-02 1.74649E-03-1.29763E-13
 -1      3167 1.34143E-02 1.82456E-03-1.35607E-13
 -1      3168 1.35571E-02 1.87448E-03-1.38002E-13
 -1      3169 1.36281E-02 1.91722E-03-1.38439E-13
 -1      3170 1.33867E-02 1.83648E-03-1.34235E-13
 -1      3171 1.39909E-02 2.18724E-03-1.38424E-13
 -1      3172 1.40399E-02 2.22818E-03-1.38221E-13
 -1      3173 3.25353E-03 3.65941E-04-1.04747E-14
 -1      3174 3.11175E-03 3.69461E-04-9.60220E-15
 -1      3175 2.96970E-03 3.72511E-04-8.76638E-15
 -1      3176 2.82734E-03 3.75002E-04-7.96818E-15
 -1      3177 3.02829E-03 3.37027E-04-9.28219E-15
 -1      3178 3.81573E-03 3.51872E-04-1.43174E-14
 -1      3179 3.67603E-03 3.54969E-04-1.33038E-14
 -1      3180 4.09265E-03 3.48511E-04-1.64484E-14
 -1      3181 3.95454E-03 3.49673E-04-1.53662E-14
 -1      3182 3.86094E-03 3.20066E-04-1.49581E-14
 -1      3183 4.36596E-03 3.51489E-04-1.87134E-14
 -1      3184 4.22966E-03 3.49043E-04-1.75639E-14
 -1      3185 4.12947E-03 3.19170E-04-1.71259E-14
 -1      3186 4.63596E-03 3.64940E-04-2.11097E-14
 -1      3187 4.50112E-03 3.56651E-04-1.98960E-14
 -1      3188 4.39154E-03 3.24867E-04-1.94282E-14
 -1      3189 4.91875E-03 3.96531E-04-2.37591E-14
 -1      3190 4.77679E-03 3.77940E-04-2.24177E-14
 -1      3191 4.65298E-03 3.41027E-04-2.19212E-14
 -1      3192 5.19556E-03 4.52630E-04-2.64022E-14
 -1      3193 5.05508E-03 4.20145E-04-2.50667E-14
 -1      3194 4.90911E-03 3.72132E-04-2.45425E-14
 -1      3195 1.14629E-03 3.00458E-04-1.42468E-15
 -1      3196 1.08328E-03 2.62537E-04-1.34498E-15
 -1      3197 1.20208E-03 2.62773E-04-1.65757E-15
 -1      3198 1.28961E-03 3.20563E-04-1.76963E-15
 -1      3199 7.76421E-03 1.69931E-03-4.28934E-14
 -1      3200 5.91143E-03-1.17932E-04-3.34040E-14
 -1      3201 5.71968E-03-1.98461E-05-3.23092E-14
 -1      3202 6.16183E-03 9.17175E-04-3.29246E-14
 -1      3203 9.92030E-03 9.97370E-04-6.25624E-14
 -1      3204 9.78205E-03 9.70828E-04-6.06448E-14
 -1      3205 1.07536E-02 1.25980E-03-7.46271E-14
 -1      3206 1.06154E-02 1.20947E-03-7.26024E-14
 -1      3207 1.10322E-02 1.36463E-03-7.87362E-14
 -1      3208 1.08925E-02 1.31157E-03-7.66733E-14
 -1      3209 1.08044E-02 1.25550E-03-7.58516E-14
 -1      3210 1.13135E-02 1.47295E-03-8.29186E-14
 -1      3211 1.11725E-02 1.41845E-03-8.08187E-14
 -1      3212 1.10769E-02 1.36019E-03-7.99832E-14
 -1      3213 1.15966E-02 1.58284E-03-8.71709E-14
 -1      3214 1.14548E-02 1.52776E-03-8.50345E-14
 -1      3215 1.13536E-02 1.46785E-03-8.41871E-14
 -1      3216 1.18811E-02 1.69309E-03-9.14956E-14
 -1      3217 1.17387E-02 1.63796E-03-8.93257E-14
 -1      3218 1.16333E-02 1.57689E-03-8.84620E-14
 -1      3219 1.21663E-02 1.80294E-03-9.58831E-14
 -1      3220 1.20236E-02 1.74808E-03-9.36822E-14
 -1      3221 1.19151E-02 1.68624E-03-9.28065E-14
 -1      3222 1.24520E-02 1.91199E-03-1.00338E-13
 -1      3223 1.23091E-02 1.85757E-03-9.81023E-14
 -1      3224 1.21984E-02 1.79525E-03-9.72139E-14
 -1      3225 1.27379E-02 2.02007E-03-1.04852E-13
 -1      3226 1.25949E-02 1.96616E-03-1.02588E-13
 -1      3227 1.24826E-02 1.90355E-03-1.01684E-13
 -1      3228 1.30239E-02 2.12714E-03-1.09424E-13
 -1      3229 1.28809E-02 2.07373E-03-1.07129E-13
 -1      3230 1.27675E-02 2.01098E-03-1.06212E-13
 -1      3231 1.33099E-02 2.23323E-03-1.14053E-13
 -1      3232 1.31669E-02 2.18030E-03-1.11732E-13
 -1      3233 1.30527E-02 2.11750E-03-1.10799E-13
 -1      3234 1.35958E-02 2.33845E-03-1.18731E-13
 -1      3235 1.34529E-02 2.28594E-03-1.16386E-13
 -1      3236 1.33381E-02 2.22314E-03-1.15439E-13
 -1      3237 1.38818E-02 2.44289E-03-1.23452E-13
 -1      3238 1.37388E-02 2.39076E-03-1.21086E-13
 -1      3239 1.36237E-02 2.32798E-03-1.20127E-13
 -1      3240 1.41677E-02 2.54670E-03-1.28213E-13
 -1      3241 1.40247E-02 2.49487E-03-1.25828E-13
 -1      3242 1.39094E-02 2.43213E-03-1.24854E-13
 -1      3243 1.44535E-02 2.64997E-03-1.33003E-13
 -1      3244 1.43106E-02 2.59840E-03-1.30606E-13
 -1      3245 1.41951E-02 2.53569E-03-1.29619E-13
 -1      3246 1.46427E-02 2.71025E-03-1.36544E-13
 -1      3247 1.45393E-02 2.67844E-03-1.34554E-13
 -1      3248 1.44237E-02 2.61577E-03-1.33561E-13
 -1      3249 1.45952E-02 2.67261E-03-1.36667E-13
 -1      3250 4.95046E-03 2.98564E-04-2.90816E-14
 -1      3251 4.87892E-03 3.13134E-04-2.87013E-14
 -1      3252 1.01441E-03 6.53120E-05-1.45051E-15
 -1      3253 1.01300E-03 3.95448E-05-1.46478E-15
 -1      3254 1.40898E-02 2.26980E-03-1.38009E-13
 -1      3255 1.41396E-02 2.31142E-03-1.37799E-13
 -1      3256 1.39418E-02 2.20553E-03-1.36036E-13
 -1      3257 9.13652E-03 6.10724E-04-5.72906E-14
 -1      3258 8.92298E-03 5.21298E-04-5.65169E-14
 -1      3259 1.38913E-02 2.10388E-03-1.38834E-13
 -1      3260 1.39411E-02 2.14558E-03-1.38628E-13
 -1      3261 1.38421E-02 2.12242E-03-1.36452E-13
 -1      3262 1.04783E-02 1.16126E-03-7.05962E-14
 -1      3263 1.03416E-02 1.11548E-03-6.86086E-14
 -1      3264 1.05372E-02 1.15598E-03-7.17964E-14
 -1      3265 1.02024E-02 1.07192E-03-6.65909E-14
 -1      3266 1.00596E-02 1.03153E-03-6.45442E-14
 -1      3267 1.00118E-02 9.82085E-04-6.37623E-14
 -1      3268 1.02731E-02 1.06349E-03-6.77672E-14
 -1      3269 3.53577E-03 3.58461E-04-1.23249E-14
 -1      3270 3.39485E-03 3.62244E-04-1.13815E-14
 -1      3271 3.30920E-03 3.31025E-04-1.10323E-14
 -1      3272 3.58711E-03 3.24768E-04-1.29251E-14
 -1      3273 2.11291E-03 3.72260E-04-4.53806E-15
 -1      3274 1.96963E-03 3.67413E-04-3.96688E-15
 -1      3275 9.72003E-03 7.80838E-04-5.86630E-14
 -1      3276 9.64964E-03 7.68147E-04-5.88189E-14
 -1      3277 1.44528E-03-3.00604E-04-2.55522E-15
 -1      3278 1.58876E-03-3.13086E-04-3.03070E-15
 -1      3279 1.65192E-03-2.84690E-04-3.30842E-15
 -1      3280 7.03278E-03 1.54079E-03-3.70422E-14
 -1      3281 7.02395E-03-4.61824E-04-4.28321E-14
 -1      3282 6.87968E-03-4.66590E-04-4.12999E-14
 -1      3283 8.69705E-03 4.11735E-04-5.56224E-14
 -1      3284 8.49550E-03 3.01487E-04-5.47439E-14
 -1      3285 8.21369E-03 1.37244E-04-5.31747E-14
 -1      3286 7.97674E-03-7.65263E-06-5.15281E-14
 -1      3287 1.37917E-02 2.02036E-03-1.39240E-13
 -1      3288 1.38415E-02 2.06214E-03-1.39035E-13
 -1      3289 1.37424E-02 2.03917E-03-1.36859E-13
 -1      3290 5.14137E-03 4.10137E-04-2.83356E-14
 -1      3291 5.25135E-03 4.47109E-04-2.86092E-14
 -1      3292 6.01499E-03 8.22942E-04-3.20087E-14
 -1      3293 4.93507E-03 3.52023E-04-2.79392E-14
 -1      3294 5.02867E-03 3.75312E-04-2.81388E-14
 -1      3295 5.04190E-03 3.82183E-04-2.73120E-14
 -1      3296 9.61159E-03 8.39152E-04-5.68090E-14
 -1      3297 9.69818E-03 8.13316E-04-5.74533E-14
 -1      3298 5.40819E-03 5.07812E-04-2.95930E-14
 -1      3299 5.53777E-03 5.64096E-04-3.04421E-14
 -1      3300 5.64979E-03 6.19422E-04-3.04502E-14
 -1      3301 5.30140E-03 4.68113E-04-2.84709E-14
 -1      3302 9.74822E-03 7.95073E-04-5.80377E-14
 -1      3303 9.74907E-03 7.88520E-04-5.83501E-14
 -1      3304 9.78175E-03 8.03054E-04-5.98434E-14
 -1      3305 7.74646E-03-1.48527E-04-4.97697E-14
 -1      3306 7.56681E-03-2.55455E-04-4.82567E-14
 -1      3307 5.53583E-03 7.14186E-05-3.14084E-14
 -1      3308 5.37856E-03 1.36246E-04-3.06331E-14
 -1      3309 9.50174E-03 7.30499E-04-5.84942E-14
 -1      3310 9.34178E-03 6.84371E-04-5.79901E-14
 -1      3311 8.88393E-04-2.05222E-04-1.11163E-15
 -1      3312 7.35915E-03-3.59400E-04-4.62861E-14
 -1      3313 7.20911E-03-4.19586E-04-4.47540E-14
 -1      3314 1.01229E-03 1.40120E-05-1.47648E-15
 -1      3315 1.01225E-03-1.14241E-05-1.48538E-15
 -1      3316 1.13220E-03 2.89875E-05-1.78095E-15
 -1      3317 5.95999E-03-1.91205E-04-3.34821E-14
 -1      3318 5.29741E-03 1.16401E-04-2.96459E-14
 -1      3319 5.26480E-03 1.68407E-04-2.99389E-14
 -1      3320 5.15734E-03 1.91955E-04-2.92507E-14
 -1      3321 1.43882E-02 2.51922E-03-1.36721E-13
 -1      3322 1.44377E-02 2.56064E-03-1.36497E-13
 -1      3323 1.18851E-03-2.68841E-04-1.80766E-15
 -1      3324 1.31677E-03-2.85826E-04-2.16522E-15
 -1      3325 1.38016E-03-2.61651E-04-2.40171E-15
 -1      3326 8.86035E-03 4.78983E-04-5.71946E-14
 -1      3327 2.25607E-03 3.75438E-04-5.14812E-15
 -1      3328 2.17478E-03 3.38969E-04-4.91763E-15
 -1      3329 2.39913E-03 3.77080E-04-5.79629E-15
 -1      3330 1.01473E-03-2.26554E-04-1.39357E-15
 -1      3331 1.88829E-03 3.29539E-04-3.76608E-15
 -1      3332 1.82628E-03 3.60579E-04-3.43429E-15
 -1      3333 1.68283E-03 3.51596E-04-2.94071E-15
 -1      3334 9.64334E-03 9.38378E-04-5.86421E-14
 -1      3335 9.44554E-03 8.95320E-04-5.56286E-14
 -1      3336 2.74520E-03 3.41266E-04-7.67791E-15
 -1      3337 2.68479E-03 3.76683E-04-7.20688E-15
 -1      3338 2.54202E-03 3.77458E-04-6.48247E-15
 -1      3339 5.26595E-03 4.68568E-04-2.72251E-14
 -1      3340 5.09514E-03 4.06052E-04-2.66787E-14
 -1      3341 5.58300E-03 9.75170E-07-3.12211E-14
 -1      3342 4.81177E-03 2.89042E-04-2.73937E-14
 -1      3343 4.83282E-03 3.13091E-04-2.80934E-14
 -1      3344 4.80266E-03 3.09327E-04-2.74884E-14
 -1      3345 4.97753E-03 2.69502E-04-2.87623E-14
 -1      3346 1.01655E-03 9.14128E-05-1.43346E-15
 -1      3347 1.13542E-03 8.45726E-05-1.74756E-15
 -1      3348 1.01945E-03 1.18101E-04-1.41307E-15
 -1      3349 1.42885E-02 2.43580E-03-1.37161E-13
 -1      3350 1.43384E-02 2.47749E-03-1.36942E-13
 -1      3351 1.42395E-02 2.45386E-03-1.34755E-13
 -1      3352 9.27557E-03 6.55645E-04-5.88023E-14
 -1      3353 1.41891E-02 2.35277E-03-1.37587E-13
 -1      3354 1.42390E-02 2.39441E-03-1.37373E-13
 -1      3355 1.41402E-02 2.37090E-03-1.35190E-13
 -1      3356 1.40412E-02 2.28833E-03-1.35614E-13
 -1      3357 1.02272E-03-1.42940E-04-1.48976E-15
 -1      3358 1.02726E-03-1.71399E-04-1.48106E-15
 -1      3359 6.76439E-03-4.63126E-04-4.02772E-14
 -1      3360 8.37064E-03 2.17514E-04-5.47071E-14
 -1      3361 8.26515E-03 1.37112E-04-5.46662E-14
 -1      3362 8.52438E-03 2.88309E-04-5.62547E-14
 -1      3363 7.46282E-03-3.15956E-04-4.76011E-14
 -1      3364 9.61985E-03 7.63231E-04-5.98352E-14
 -1      3365 7.08483E-03-4.56160E-04-4.37019E-14
 -1      3366 7.88348E-03-7.84638E-05-5.13551E-14
 -1      3367 9.77637E-03 8.23386E-04-5.89417E-14
 -1      3368 9.56480E-03 8.57064E-04-5.65206E-14
 -1      3369 1.02793E-03 1.74101E-04-1.36172E-15
 -1      3370 1.02323E-03 1.45650E-04-1.38945E-15
 -1      3371 1.14204E-03 1.42121E-04-1.70052E-15
 -1      3372 1.15268E-03 2.03180E-04-1.63678E-15
 -1      3373 9.67777E-03 8.59615E-04-5.80594E-14
 -1      3374 6.38846E-03-3.63678E-04-3.68044E-14
 -1      3375 6.24617E-03-3.45448E-04-3.56009E-14
 -1      3376 6.47064E-03-4.10089E-04-3.75493E-14
 -1      3377 9.75656E-03 9.09274E-04-5.97700E-14
 -1      3378 4.87782E-03 3.36447E-04-2.76545E-14
 -1      3379 4.87928E-03 3.36185E-04-2.68392E-14
 -1      3380 4.83234E-03 3.24769E-04-2.73689E-14
 -1      3381 1.01628E-03-8.87208E-05-1.49651E-15
 -1      3382 1.01906E-03-1.15436E-04-1.49468E-15
 -1      3383 1.14160E-03-1.39238E-04-1.80746E-15
 -1      3384 1.36744E-02 1.94744E-03-1.38621E-13
 -1      3385 1.37454E-02 1.99016E-03-1.39056E-13
 -1      3386 1.36463E-02 1.96733E-03-1.36879E-13
 -1      3387 1.35537E-02 1.90700E-03-1.36516E-13
 -1      3388 1.55794E-03 3.45555E-04-2.53184E-15
 -1      3389 1.41443E-03 3.31604E-04-2.11186E-15
 -1      3390 1.37009E-03 3.02337E-04-2.05161E-15
 -1      3391 1.61992E-03 3.17525E-04-2.81846E-15
 -1      3392 1.36937E-02 2.05806E-03-1.34479E-13
 -1      3393 1.37436E-02 2.09956E-03-1.34276E-13
 -1      3394 9.41262E-03 6.96998E-04-6.04918E-14
 -1      3395 9.22706E-03 6.28042E-04-5.97820E-14
 -1      3396 2.14645E-03-2.70943E-04-5.38179E-15
 -1      3397 2.28998E-03-2.73198E-04-6.05694E-15
 -1      3398 2.43343E-03-2.74340E-04-6.76980E-15
 -1      3399 2.57681E-03-2.74468E-04-7.52093E-15
 -1      3400 2.35399E-03-2.38801E-04-6.42101E-15
 -1      3401 2.72012E-03-2.73775E-04-8.30956E-15
 -1      3402 2.86338E-03-2.72354E-04-9.13528E-15
 -1      3403 2.64026E-03-2.38689E-04-7.92071E-15
 -1      3404 3.00662E-03-2.70377E-04-9.99796E-15
 -1      3405 3.14991E-03-2.67947E-04-1.08974E-14
 -1      3406 2.92603E-03-2.35542E-04-9.56948E-15
 -1      3407 3.29331E-03-2.65221E-04-1.18332E-14
 -1      3408 3.43693E-03-2.62329E-04-1.28046E-14
 -1      3409 3.21153E-03-2.30252E-04-1.13647E-14
 -1      3410 3.58090E-03-2.59420E-04-1.38114E-14
 -1      3411 3.72538E-03-2.56683E-04-1.48533E-14
 -1      3412 3.49733E-03-2.23715E-04-1.33031E-14
 -1      3413 3.87054E-03-2.54261E-04-1.59296E-14
 -1      3414 4.01661E-03-2.52441E-04-1.70400E-14
 -1      3415 3.78448E-03-2.16950E-04-1.53818E-14
 -1      3416 4.16385E-03-2.51368E-04-1.81846E-14
 -1      3417 4.31252E-03-2.51471E-04-1.93622E-14
 -1      3418 4.07456E-03-2.11274E-04-1.75981E-14
 -1      3419 4.46298E-03-2.52900E-04-2.05710E-14
 -1      3420 4.61546E-03-2.56281E-04-2.18122E-14
 -1      3421 4.36983E-03-2.08551E-04-1.99461E-14
 -1      3422 4.77044E-03-2.61773E-04-2.30858E-14
 -1      3423 4.92796E-03-2.70185E-04-2.43906E-14
 -1      3424 4.67319E-03-2.11535E-04-2.24227E-14
 -1      3425 5.08857E-03-2.81657E-04-2.57262E-14
 -1      3426 5.25190E-03-2.97109E-04-2.70925E-14
 -1      3427 4.98789E-03-2.24195E-04-2.50247E-14
 -1      3428 5.41845E-03-3.16587E-04-2.84902E-14
 -1      3429 5.58706E-03-3.40457E-04-2.99198E-14
 -1      3430 5.31654E-03-2.51873E-04-2.77509E-14
 -1      3431 5.75796E-03-3.68187E-04-3.13791E-14
 -1      3432 5.92917E-03-3.99490E-04-3.28716E-14
 -1      3433 5.65922E-03-2.99200E-04-3.06005E-14
 -1      3434 6.17135E-03-4.23905E-04-3.50052E-14
 -1      3435 6.34181E-03-4.56999E-04-3.65706E-14
 -1      3436 6.50934E-03-4.85432E-04-3.81690E-14
 -1      3437 6.78125E-03-5.08051E-04-4.09257E-14
 -1      3438 6.93957E-03-4.98736E-04-4.26068E-14
 -1      3439 7.11135E-03-4.66528E-04-4.45265E-14
 -1      3440 7.27052E-03-4.17757E-04-4.62680E-14
 -1      3441 7.45988E-03-3.35060E-04-4.82432E-14
 -1      3442 7.62774E-03-2.56223E-04-5.00439E-14
 -1      3443 8.05462E-03-5.99056E-05-5.50211E-14
 -1      3444 8.22554E-03 2.16636E-05-5.69132E-14
 -1      3445 8.39613E-03 9.99897E-05-5.88266E-14
 -1      3446 8.56421E-03 1.74268E-04-6.07597E-14
 -1      3447 8.36821E-03 1.15817E-04-5.77699E-14
 -1      3448 8.73018E-03 2.44148E-04-6.27128E-14
 -1      3449 8.89283E-03 3.10186E-04-6.46859E-14
 -1      3450 8.70951E-03 2.63678E-04-6.16309E-14
 -1      3451 9.05268E-03 3.72397E-04-6.66767E-14
 -1      3452 9.20948E-03 4.31559E-04-6.86856E-14
 -1      3453 9.03646E-03 3.92259E-04-6.55681E-14
 -1      3454 9.36371E-03 4.87871E-04-7.07129E-14
 -1      3455 9.51545E-03 5.42137E-04-7.27555E-14
 -1      3456 9.34931E-03 5.06404E-04-6.95789E-14
 -1      3457 9.66516E-03 5.94497E-04-7.48154E-14
 -1      3458 9.81307E-03 6.45552E-04-7.68926E-14
 -1      3459 9.65085E-03 6.11123E-04-7.36591E-14
 -1      3460 9.95952E-03 6.95425E-04-7.89845E-14
 -1      3461 1.01048E-02 7.44521E-04-8.10922E-14
 -1      3462 9.94423E-03 7.10288E-04-7.78050E-14
 -1      3463 1.02491E-02 7.92944E-04-8.32136E-14
 -1      3464 1.03926E-02 8.40952E-04-8.53516E-14
 -1      3465 1.02323E-02 8.06436E-04-8.20127E-14
 -1      3466 1.05356E-02 8.88633E-04-8.75045E-14
 -1      3467 1.06783E-02 9.36141E-04-8.96713E-14
 -1      3468 1.05171E-02 9.01174E-04-8.62822E-14
 -1      3469 1.08205E-02 9.83547E-04-9.18534E-14
 -1      3470 1.09627E-02 1.03094E-03-9.40516E-14
 -1      3471 1.08003E-02 9.95495E-04-9.06125E-14
 -1      3472 1.11047E-02 1.07837E-03-9.62621E-14
 -1      3473 1.12466E-02 1.12589E-03-9.84834E-14
 -1      3474 1.10829E-02 1.08999E-03-9.50016E-14
 -1      3475 1.13885E-02 1.17353E-03-1.00718E-13
 -1      3476 1.15305E-02 1.22132E-03-1.02962E-13
 -1      3477 1.13654E-02 1.18500E-03-9.94415E-14
 -1      3478 1.16725E-02 1.26927E-03-1.05219E-13
 -1      3479 1.18145E-02 1.31739E-03-1.07490E-13
 -1      3480 1.16482E-02 1.28070E-03-1.03930E-13
 -1      3481 1.19566E-02 1.36570E-03-1.09773E-13
 -1      3482 1.20988E-02 1.41419E-03-1.12065E-13
 -1      3483 1.19315E-02 1.37716E-03-1.08468E-13
 -1      3484 1.22411E-02 1.46286E-03-1.14367E-13
 -1      3485 1.23834E-02 1.51170E-03-1.16681E-13
 -1      3486 1.22152E-02 1.47437E-03-1.13051E-13
 -1      3487 1.25258E-02 1.56072E-03-1.19004E-13
 -1      3488 1.26683E-02 1.60990E-03-1.21340E-13
 -1      3489 1.24994E-02 1.57229E-03-1.17675E-13
 -1      3490 1.28108E-02 1.65923E-03-1.23686E-13
 -1      3491 1.29534E-02 1.70870E-03-1.26040E-13
 -1      3492 1.27840E-02 1.67085E-03-1.22341E-13
 -1      3493 1.30960E-02 1.75830E-03-1.28402E-13
 -1      3494 1.32386E-02 1.80802E-03-1.30774E-13
 -1      3495 1.30688E-02 1.76997E-03-1.27046E-13
 -1      3496 1.44927E-02 2.59780E-03-1.36647E-13
 -1      3497 1.45401E-02 2.63537E-03-1.36525E-13
 -1      3498 1.44544E-02 2.60698E-03-1.34970E-13
 -1      3499 1.43443E-02 2.53265E-03-1.34680E-13
 -1      3500 5.42661E-03 5.26242E-04-2.81888E-14
 -1      3501 4.16442E-03 2.92819E-04-1.78079E-14
 -1      3502 4.03549E-03 2.91172E-04-1.66890E-14
 -1      3503 3.90458E-03 2.90721E-04-1.56022E-14
 -1      3504 3.77166E-03 2.91529E-04-1.45489E-14
 -1      3505 3.94728E-03 2.63908E-04-1.62498E-14
 -1      3506 4.66269E-03 3.20891E-04-2.27055E-14
 -1      3507 4.53856E-03 3.09958E-04-2.13942E-14
 -1      3508 1.32657E-03 2.73882E-04-1.98820E-15
 -1      3509 1.28389E-03 2.46214E-04-1.92237E-15
 -1      3510 1.45132E-03 2.82615E-04-2.35004E-15
 -1      3511 1.13912E-02 1.46340E-03-8.54585E-14
 -1      3512 1.12540E-02 1.40979E-03-8.33382E-14
 -1      3513 5.58409E-03-5.82924E-05-3.08164E-14
 -1      3514 5.42455E-03 2.16393E-05-2.99406E-14
 -1      3515 1.01290E-03-3.69149E-05-1.49169E-15
 -1      3516 1.01423E-03-6.25956E-05-1.49543E-15
 -1      3517 1.13521E-03-8.16247E-05-1.81113E-15
 -1      3518 1.08500E-02 1.25275E-03-7.70792E-14
 -1      3519 1.07184E-02 1.20222E-03-7.50302E-14
 -1      3520 1.16682E-02 1.57136E-03-8.97556E-14
 -1      3521 1.15292E-02 1.51726E-03-8.75968E-14
 -1      3522 1.14264E-02 1.45914E-03-8.67333E-14
 -1      3523 1.19480E-02 1.67968E-03-9.41167E-14
 -1      3524 1.18078E-02 1.62550E-03-9.19283E-14
 -1      3525 1.17014E-02 1.56594E-03-9.10482E-14
 -1      3526 1.22297E-02 1.78775E-03-9.85430E-14
 -1      3527 1.20886E-02 1.73376E-03-9.63223E-14
 -1      3528 1.19797E-02 1.67318E-03-9.54300E-14
 -1      3529 1.25127E-02 1.89524E-03-1.03029E-13
 -1      3530 1.23711E-02 1.84158E-03-1.00778E-13
 -1      3531 1.22602E-02 1.78029E-03-9.98742E-14
 -1      3532 1.27967E-02 2.00198E-03-1.07572E-13
 -1      3533 1.26546E-02 1.94870E-03-1.05293E-13
 -1      3534 1.25423E-02 1.88694E-03-1.04376E-13
 -1      3535 1.30813E-02 2.10791E-03-1.12174E-13
 -1      3536 1.29389E-02 2.05504E-03-1.09866E-13
 -1      3537 1.28256E-02 1.99297E-03-1.08934E-13
 -1      3538 1.33663E-02 2.21307E-03-1.16824E-13
 -1      3539 1.32237E-02 2.16058E-03-1.14493E-13
 -1      3540 1.31097E-02 2.09831E-03-1.13547E-13
 -1      3541 1.36515E-02 2.31752E-03-1.21521E-13
 -1      3542 1.35089E-02 2.26538E-03-1.19169E-13
 -1      3543 1.33943E-02 2.20299E-03-1.18209E-13
 -1      3544 1.39370E-02 2.42136E-03-1.26254E-13
 -1      3545 1.37943E-02 2.36951E-03-1.23881E-13
 -1      3546 1.36793E-02 2.30705E-03-1.22911E-13
 -1      3547 5.97254E-03-2.60251E-04-3.33696E-14
 -1      3548 5.78137E-03-1.65276E-04-3.20083E-14
 -1      3549 1.19822E-03-2.06978E-04-1.91326E-15
 -1      3550 1.07915E-03-2.08702E-04-1.58139E-15
 -1      3551 1.85936E-03-2.62335E-04-4.14916E-15
 -1      3552 2.00290E-03-2.67362E-04-4.74601E-15
 -1      3553 2.06730E-03-2.34908E-04-5.07308E-15
 -1      3554 5.01075E-03 2.31549E-04-2.84232E-14
 -1      3555 4.88928E-03 2.56143E-04-2.76619E-14
 -1      3556 1.37935E-02 2.14102E-03-1.34068E-13
 -1      3557 1.38434E-02 2.18246E-03-1.33856E-13
 -1      3558 1.36452E-02 2.07662E-03-1.32103E-13
 -1      3559 4.98994E-03 3.71913E-04-2.64926E-14
 -1      3560 1.05889E-02 1.15327E-03-7.30000E-14
 -1      3561 1.04614E-02 1.10579E-03-7.09896E-14
 -1      3562 1.06339E-02 1.15178E-03-7.42082E-14
 -1      3563 9.01873E-03 5.36890E-04-5.89977E-14
 -1      3564 8.81711E-03 4.38991E-04-5.80882E-14
 -1      3565 1.57264E-03-2.47136E-04-3.07366E-15
 -1      3566 1.71592E-03-2.55641E-04-3.59137E-15
 -1      3567 1.78060E-03-2.25929E-04-3.87959E-15
 -1      3568 1.35939E-02 1.97492E-03-1.34890E-13
 -1      3569 1.36438E-02 2.01652E-03-1.34686E-13
 -1      3570 1.35454E-02 1.99382E-03-1.32518E-13
 -1      3571 4.41476E-03 3.01738E-04-2.01462E-14
 -1      3572 4.29077E-03 2.96400E-04-1.89606E-14
 -1      3573 4.19830E-03 2.69511E-04-1.84935E-14
 -1      3574 3.08625E-03 3.02553E-04-9.80374E-15
 -1      3575 2.94612E-03 3.04762E-04-8.96080E-15
 -1      3576 9.84211E-03 8.26133E-04-6.08753E-14
 -1      3577 9.81551E-03 8.17700E-04-6.11922E-14
 -1      3578 9.82000E-03 8.59196E-04-6.01149E-14
 -1      3579 9.85645E-03 8.42948E-04-6.07085E-14
 -1      3580 4.88175E-03 3.41071E-04-2.59958E-14
 -1      3581 4.91641E-03 3.59877E-04-2.53775E-14
 -1      3582 4.80119E-03 3.41879E-04-2.40667E-14
 -1      3583 4.81938E-03 3.24956E-04-2.57225E-14
 -1      3584 9.73324E-03 7.95088E-04-6.14106E-14
 -1      3585 9.59759E-03 7.57686E-04-6.10834E-14
 -1      3586 1.11180E-02 1.35674E-03-8.12328E-14
 -1      3587 1.09832E-02 1.30424E-03-7.91457E-14
 -1      3588 1.08908E-02 1.25065E-03-7.83085E-14
 -1      3589 1.11556E-02 1.35364E-03-8.24849E-14
 -1      3590 8.03361E-03-8.66473E-06-5.32384E-14
 -1      3591 7.82028E-03-1.35968E-04-5.14533E-14
 -1      3592 7.77457E-03-1.94839E-04-5.19040E-14
 -1      3593 8.18390E-03 6.64456E-05-5.47714E-14
 -1      3594 2.86529E-03 2.72436E-04-8.63876E-15
 -1      3595 2.80534E-03 3.06474E-04-8.15485E-15
 -1      3596 2.66392E-03 3.07625E-04-7.38653E-15
 -1      3597 5.31655E-03 5.69090E-05-2.92550E-14
 -1      3598 5.21065E-03 8.66543E-05-2.85758E-14
 -1      3599 5.32079E-03-2.59782E-06-2.88593E-14
 -1      3600 9.17887E-03 5.92068E-04-6.06934E-14
 -1      3601 6.07961E-03-3.57243E-04-3.41752E-14
 -1      3602 1.32102E-03-2.22425E-04-2.26418E-15
 -1      3603 1.44888E-03-2.34500E-04-2.66233E-15
 -1      3604 1.51388E-03-2.08286E-04-2.91245E-15
 -1      3605 1.26811E-03-1.83276E-04-2.14139E-15
 -1      3606 2.46054E-03 3.42373E-04-6.22236E-15
 -1      3607 7.94488E-03-1.10658E-04-5.37561E-14
 -1      3608 6.62168E-03-4.56899E-04-3.90221E-14
 -1      3609 1.42031E-02 2.47693E-03-1.32529E-13
 -1      3610 1.42581E-02 2.51403E-03-1.32674E-13
 -1      3611 1.33358E-02 1.83730E-03-1.32596E-13
 -1      3612 1.34565E-02 1.87764E-03-1.34692E-13
 -1      3613 1.35028E-02 1.90776E-03-1.34873E-13
 -1      3614 1.33085E-02 1.84904E-03-1.31228E-13
 -1      3615 1.95099E-03 2.98218E-04-4.10597E-15
 -1      3616 1.80772E-03 2.92094E-04-3.56463E-15
 -1      3617 9.56044E-03 7.40890E-04-6.20796E-14
 -1      3618 8.08188E-03-1.70587E-05-5.45975E-14
 -1      3619 3.68639E-03 2.63287E-04-1.41391E-14
 -1      3620 3.63716E-03 2.93013E-04-1.35302E-14
 -1      3621 3.50113E-03 2.95173E-04-1.25453E-14
 -1      3622 4.68445E-03 3.09809E-04-2.35107E-14
 -1      3623 1.27644E-03 2.12542E-04-1.96594E-15
 -1      3624 9.82107E-03 8.21611E-04-6.24529E-14
 -1      3625 9.82194E-03 8.22354E-04-6.37202E-14
 -1      3626 9.90152E-03 8.47272E-04-6.34987E-14
 -1      3627 5.04148E-03 1.89796E-04-2.81402E-14
 -1      3628 4.81839E-03 2.64452E-04-2.70662E-14
 -1      3629 4.76086E-03 2.67219E-04-2.64745E-14
 -1      3630 4.83070E-03 2.34137E-04-2.67362E-14
 -1      3631 1.00873E-02 9.75094E-04-6.49426E-14
 -1      3632 9.96778E-03 9.36245E-04-6.29545E-14
 -1      3633 1.40846E-02 2.47112E-03-1.28882E-13
 -1      3634 1.39694E-02 2.40863E-03-1.27899E-13
 -1      3635 1.42274E-02 2.52270E-03-1.31272E-13
 -1      3636 1.43687E-02 2.57855E-03-1.33422E-13
 -1      3637 1.35491E-02 1.93788E-03-1.35054E-13
 -1      3638 3.22552E-03 3.00136E-04-1.06823E-14
 -1      3639 3.14377E-03 2.69214E-04-1.03303E-14
 -1      3640 3.36391E-03 2.97557E-04-1.15960E-14
 -1      3641 1.41035E-02 2.39370E-03-1.32976E-13
 -1      3642 1.41533E-02 2.43528E-03-1.32755E-13
 -1      3643 1.40671E-02 2.41661E-03-1.30757E-13
 -1      3644 1.38929E-02 2.22362E-03-1.33649E-13
 -1      3645 1.39424E-02 2.26479E-03-1.33437E-13
 -1      3646 1.37447E-02 2.15902E-03-1.31687E-13
 -1      3647 8.69734E-03 3.63398E-04-5.80509E-14
 -1      3648 8.59004E-03 2.87109E-04-5.80094E-14
 -1      3649 8.86426E-03 4.27858E-04-5.98650E-14
 -1      3650 1.03343E-02 1.05972E-03-6.89581E-14
 -1      3651 1.02088E-02 1.01554E-03-6.69355E-14
 -1      3652 1.01477E-02 9.71788E-04-6.61128E-14
 -1      3653 1.03850E-02 1.05803E-03-7.01419E-14
 -1      3654 2.23706E-03 3.05672E-04-5.30455E-15
 -1      3655 2.09411E-03 3.02702E-04-4.68604E-15
 -1      3656 2.01424E-03 2.66686E-04-4.45397E-15
 -1      3657 5.61635E-03-1.35758E-04-3.07060E-14
 -1      3658 1.25780E-03 1.05258E-04-2.07030E-15
 -1      3659 1.25511E-03 7.53303E-05-2.09301E-15
 -1      3660 4.43945E-03 2.82336E-04-2.08970E-14
 -1      3661 9.91122E-03 8.58628E-04-6.20626E-14
 -1      3662 1.34505E-02 1.91539E-03-1.32887E-13
 -1      3663 1.13214E-03-2.60173E-05-1.80203E-15
 -1      3664 4.77290E-03 3.04707E-04-2.66831E-14
 -1      3665 4.75086E-03 3.01447E-04-2.58843E-14
 -1      3666 4.72347E-03 2.85204E-04-2.60014E-14
 -1      3667 1.25331E-03 4.56753E-05-2.11216E-15
 -1      3668 1.25242E-03 1.62593E-05-2.12790E-15
 -1      3669 1.37551E-03 6.38355E-05-2.46946E-15
 -1      3670 9.85061E-03 8.92873E-04-6.09272E-14
 -1      3671 1.25879E-03-1.20427E-04-2.15347E-15
 -1      3672 1.26291E-03-1.51450E-04-2.14955E-15
 -1      3673 1.38502E-03-1.62904E-04-2.52112E-15
 -1      3674 1.33534E-02 1.88597E-03-1.31067E-13
 -1      3675 5.99405E-03-3.06914E-04-3.34685E-14
 -1      3676 5.81721E-03-2.84930E-04-3.19837E-14
 -1      3677 2.56128E-03-2.03994E-04-7.53684E-15
 -1      3678 2.70394E-03-2.02922E-04-8.32277E-15
 -1      3679 2.84638E-03-2.01185E-04-9.14564E-15
 -1      3680 2.98866E-03-1.98829E-04-1.00054E-14
 -1      3681 2.76780E-03-1.67245E-04-8.72705E-15
 -1      3682 3.13077E-03-1.95970E-04-1.09013E-14
 -1      3683 3.27282E-03-1.92668E-04-1.18329E-14
 -1      3684 3.05122E-03-1.62286E-04-1.04427E-14
 -1      3685 3.41485E-03-1.89023E-04-1.28002E-14
 -1      3686 3.55704E-03-1.85131E-04-1.38022E-14
 -1      3687 3.33373E-03-1.55251E-04-1.23022E-14
 -1      3688 3.69948E-03-1.81082E-04-1.48393E-14
 -1      3689 3.84243E-03-1.77050E-04-1.59107E-14
 -1      3690 3.61596E-03-1.46603E-04-1.43017E-14
 -1      3691 3.98609E-03-1.73117E-04-1.70159E-14
 -1      3692 4.13081E-03-1.69603E-04-1.81551E-14
 -1      3693 3.89910E-03-1.36960E-04-1.64397E-14
 -1      3694 4.27690E-03-1.66595E-04-1.93261E-14
 -1      3695 4.42479E-03-1.64645E-04-2.05288E-14
 -1      3696 4.18515E-03-1.27340E-04-1.87108E-14
 -1      3697 4.57495E-03-1.63871E-04-2.17639E-14
 -1      3698 4.72787E-03-1.65200E-04-2.30310E-14
 -1      3699 4.47709E-03-1.19565E-04-2.11118E-14
 -1      3700 4.88419E-03-1.68781E-04-2.43295E-14
 -1      3701 5.04421E-03-1.76039E-04-2.56580E-14
 -1      3702 4.77911E-03-1.17002E-04-2.36388E-14
 -1      3703 5.20877E-03-1.87144E-04-2.70168E-14
 -1      3704 5.37749E-03-2.04066E-04-2.84073E-14
 -1      3705 5.09650E-03-1.25337E-04-2.62893E-14
 -1      3706 5.63935E-03-2.52790E-04-3.05159E-14
 -1      3707 1.50769E-03-1.73489E-04-2.92229E-15
 -1      3708 1.63087E-03-1.83232E-04-3.35218E-15
 -1      3709 1.50264E-03-1.39417E-04-2.92690E-15
 -1      3710 1.33970E-02 1.92971E-03-1.30559E-13
 -1      3711 1.34470E-02 1.97106E-03-1.30352E-13
 -1      3712 1.25240E-03-1.30330E-05-2.14026E-15
 -1      3713 1.25324E-03-4.24234E-05-2.14908E-15
 -1      3714 1.37356E-03 1.78466E-06-2.50513E-15
 -1      3715 1.72814E-03 2.55209E-04-3.36208E-15
 -1      3716 1.66446E-03 2.84052E-04-3.06114E-15
 -1      3717 8.64352E-03 2.73403E-04-5.97604E-14
 -1      3718 8.81312E-03 3.42041E-04-6.16992E-14
 -1      3719 9.02392E-03 4.14281E-04-6.44643E-14
 -1      3720 9.18286E-03 4.72119E-04-6.64468E-14
 -1      3721 9.33807E-03 5.26449E-04-6.84506E-14
 -1      3722 9.48995E-03 5.78570E-04-7.04702E-14
 -1      3723 9.33046E-03 5.48246E-04-6.73246E-14
 -1      3724 9.63905E-03 6.28646E-04-7.25059E-14
 -1      3725 9.78589E-03 6.77615E-04-7.45587E-14
 -1      3726 9.63007E-03 6.47275E-04-7.13575E-14
 -1      3727 9.93088E-03 7.25555E-04-7.66280E-14
 -1      3728 1.00745E-02 7.72986E-04-7.87137E-14
 -1      3729 9.91966E-03 7.41340E-04-7.54549E-14
 -1      3730 1.02169E-02 8.19969E-04-8.08145E-14
 -1      3731 1.03586E-02 8.66801E-04-8.29327E-14
 -1      3732 1.02032E-02 8.33602E-04-7.96188E-14
 -1      3733 1.04997E-02 9.13522E-04-8.50629E-14
 -1      3734 1.06405E-02 9.60283E-04-8.72105E-14
 -1      3735 1.04835E-02 9.25695E-04-8.38469E-14
 -1      3736 1.07810E-02 1.00711E-03-8.93744E-14
 -1      3737 1.09214E-02 1.05409E-03-9.15513E-14
 -1      3738 1.07625E-02 1.01840E-03-8.81378E-14
 -1      3739 1.10618E-02 1.10122E-03-9.37438E-14
 -1      3740 1.12023E-02 1.14854E-03-9.59502E-14
 -1      3741 1.10414E-02 1.11204E-03-9.24892E-14
 -1      3742 1.13429E-02 1.19607E-03-9.81684E-14
 -1      3743 1.14836E-02 1.24380E-03-1.00399E-13
 -1      3744 1.13208E-02 1.20671E-03-9.68968E-14
 -1      3745 1.16244E-02 1.29175E-03-1.02643E-13
 -1      3746 1.17655E-02 1.33991E-03-1.04897E-13
 -1      3747 1.16010E-02 1.30240E-03-1.01355E-13
 -1      3748 1.19067E-02 1.38828E-03-1.07164E-13
 -1      3749 1.20481E-02 1.43683E-03-1.09446E-13
 -1      3750 1.18822E-02 1.39903E-03-1.05864E-13
 -1      3751 1.21896E-02 1.48559E-03-1.11736E-13
 -1      3752 1.23313E-02 1.53452E-03-1.14035E-13
 -1      3753 1.21642E-02 1.49649E-03-1.10421E-13
 -1      3754 1.24732E-02 1.58362E-03-1.16347E-13
 -1      3755 1.26152E-02 1.63288E-03-1.18668E-13
 -1      3756 1.24472E-02 1.59468E-03-1.15020E-13
 -1      3757 1.27573E-02 1.68229E-03-1.20999E-13
 -1      3758 1.28995E-02 1.73183E-03-1.23340E-13
 -1      3759 1.27308E-02 1.69351E-03-1.19660E-13
 -1      3760 9.69988E-03 7.81583E-04-6.37778E-14
 -1      3761 9.53024E-03 7.22081E-04-6.31794E-14
 -1      3762 1.53954E-03 2.79047E-04-2.64476E-15
 -1      3763 1.49671E-03 2.51496E-04-2.56727E-15
 -1      3764 1.17331E-02 1.56058E-03-9.23459E-14
 -1      3765 1.15957E-02 1.50764E-03-9.01698E-14
 -1      3766 4.23330E-03 2.49143E-04-1.91813E-14
 -1      3767 4.11358E-03 2.43673E-04-1.80256E-14
 -1      3768 9.34542E-03 6.45762E-04-6.26633E-14
 -1      3769 9.15820E-03 5.62095E-04-6.18655E-14
 -1      3770 1.20103E-02 1.66670E-03-9.67471E-14
 -1      3771 1.18713E-02 1.61359E-03-9.45383E-14
 -1      3772 1.17633E-02 1.55502E-03-9.36466E-14
 -1      3773 8.29745E-03 1.18758E-04-5.60437E-14
 -1      3774 1.39197E-02 2.36710E-03-1.28131E-13
 -1      3775 1.37723E-02 2.31745E-03-1.25510E-13
 -1      3776 1.38700E-02 2.32567E-03-1.28356E-13
 -1      3777 1.14593E-02 1.45499E-03-8.80100E-14
 -1      3778 1.13240E-02 1.40260E-03-8.58681E-14
 -1      3779 1.14903E-02 1.45061E-03-8.92903E-14
 -1      3780 1.22899E-02 1.77282E-03-1.01206E-13
 -1      3781 1.21498E-02 1.71977E-03-9.89683E-14
 -1      3782 1.20399E-02 1.66006E-03-9.80630E-14
 -1      3783 1.25714E-02 1.87863E-03-1.05724E-13
 -1      3784 1.24305E-02 1.82577E-03-1.03460E-13
 -1      3785 1.23190E-02 1.76523E-03-1.02541E-13
 -1      3786 1.28542E-02 1.98394E-03-1.10296E-13
 -1      3787 1.27126E-02 1.93134E-03-1.08002E-13
 -1      3788 1.26000E-02 1.87020E-03-1.07072E-13
 -1      3789 1.31378E-02 2.08868E-03-1.14919E-13
 -1      3790 1.29959E-02 2.03638E-03-1.12603E-13
 -1      3791 1.28824E-02 1.97481E-03-1.11657E-13
 -1      3792 1.34222E-02 2.19287E-03-1.19589E-13
 -1      3793 1.32799E-02 2.14085E-03-1.17249E-13
 -1      3794 1.31658E-02 2.07898E-03-1.16291E-13
 -1      3795 1.36684E-02 2.28115E-03-1.23722E-13
 -1      3796 1.35260E-02 2.22935E-03-1.21366E-13
 -1      3797 1.34114E-02 2.16731E-03-1.20395E-13
 -1      3798 1.36189E-02 2.23993E-03-1.23953E-13
 -1      3799 1.32550E-02 1.86345E-03-1.28907E-13
 -1      3800 1.34970E-02 2.01235E-03-1.30148E-13
 -1      3801 1.35469E-02 2.05360E-03-1.29941E-13
 -1      3802 1.33488E-02 1.94823E-03-1.28198E-13
 -1      3803 2.52204E-03 3.07957E-04-6.65479E-15
 -1      3804 2.37971E-03 3.07389E-04-5.96046E-15
 -1      3805 2.58362E-03 2.73953E-04-7.09398E-15
 -1      3806 3.99054E-03 2.39539E-04-1.69020E-14
 -1      3807 3.86446E-03 2.37065E-04-1.58105E-14
 -1      3808 4.03526E-03 2.17575E-04-1.75569E-14
 -1      3809 1.98912E-03-1.99476E-04-4.76924E-15
 -1      3810 2.13231E-03-2.02119E-04-5.40408E-15
 -1      3811 1.26616E-03 1.67119E-04-2.01251E-15
 -1      3812 1.26149E-03 1.35821E-04-2.04357E-15
 -1      3813 1.38144E-03 1.27079E-04-2.41801E-15
 -1      3814 1.06725E-02 1.15114E-03-7.54175E-14
 -1      3815 1.05490E-02 1.10409E-03-7.33835E-14
 -1      3816 1.73833E-03-1.89772E-04-3.75150E-15
 -1      3817 1.88138E-03-1.94539E-04-4.31881E-15
 -1      3818 1.94740E-03-1.63347E-04-4.62077E-15
 -1      3819 1.73255E-03-1.53641E-04-3.75660E-15
 -1      3820 1.25414E-03-6.61322E-05-2.15267E-15
 -1      3821 1.25658E-03-9.60511E-05-2.15534E-15
 -1      3822 1.37786E-03-1.04528E-04-2.52732E-15
 -1      3823 1.37469E-03-5.40672E-05-2.52339E-15
 -1      3824 8.47578E-03 2.00854E-04-5.79459E-14
 -1      3825 4.46577E-03 2.66631E-04-2.16525E-14
 -1      3826 4.35181E-03 2.57079E-04-2.04004E-14
 -1      3827 4.27345E-03 2.31914E-04-1.99032E-14
 -1      3828 4.72741E-03 3.00595E-04-2.51004E-14
 -1      3829 4.71031E-03 3.05297E-04-2.42810E-14
 -1      3830 4.58951E-03 2.86436E-04-2.29149E-14
 -1      3831 4.65417E-03 2.81616E-04-2.44400E-14
 -1      3832 5.06105E-03 1.39188E-04-2.77304E-14
 -1      3833 4.92643E-03 1.76926E-04-2.69249E-14
 -1      3834 2.27543E-03-2.03692E-04-6.07706E-15
 -1      3835 2.41844E-03-2.04268E-04-6.78818E-15
 -1      3836 2.19785E-03-1.69042E-04-5.73860E-15
 -1      3837 1.39600E-03 2.06270E-04-2.33750E-15
 -1      3838 5.52377E-03-1.78353E-04-2.97414E-14
 -1      3839 5.34724E-03-8.76169E-05-2.85976E-14
 -1      3840 1.39919E-02 2.30598E-03-1.33226E-13
 -1      3841 1.40413E-02 2.34719E-03-1.33013E-13
 -1      3842 1.38436E-02 2.24115E-03-1.31267E-13
 -1      3843 2.48329E-03-1.69671E-04-7.15834E-15
 -1      3844 1.34484E-02 2.03021E-03-1.27787E-13
 -1      3845 1.35965E-02 2.09455E-03-1.29735E-13
 -1      3846 1.36460E-02 2.13548E-03-1.29525E-13
 -1      3847 2.92540E-03 2.39224E-04-9.12849E-15
 -1      3848 2.78586E-03 2.40054E-04-8.31548E-15
 -1      3849 1.79254E-03 2.25881E-04-3.67156E-15
 -1      3850 1.64972E-03 2.19172E-04-3.15942E-15
 -1      3851 8.97086E-03 4.29974E-04-6.25606E-14
 -1      3852 9.50834E-03 6.99339E-04-6.43726E-14
 -1      3853 9.80704E-03 8.14929E-04-6.48349E-14
 -1      3854 9.79164E-03 8.03620E-04-6.59534E-14
 -1      3855 9.90698E-03 8.46053E-04-6.58959E-14
 -1      3856 1.31126E-02 1.81359E-03-1.26544E-13
 -1      3857 3.20135E-03 2.37066E-04-1.08624E-14
 -1      3858 3.06393E-03 2.38216E-04-9.97763E-15
 -1      3859 2.98584E-03 2.06905E-04-9.62396E-15
 -1      3860 5.07392E-03 8.47437E-05-2.73490E-14
 -1      3861 1.48447E-03 2.02149E-04-2.62828E-15
 -1      3862 3.73584E-03 2.35565E-04-1.47524E-14
 -1      3863 3.60491E-03 2.35163E-04-1.37282E-14
 -1      3864 3.78615E-03 2.09825E-04-1.53706E-14
 -1      3865 9.97031E-03 8.73315E-04-6.39893E-14
 -1      3866 9.99404E-03 8.79116E-04-6.52698E-14
 -1      3867 4.84092E-03 1.95747E-04-2.63409E-14
 -1      3868 4.76439E-03 2.08401E-04-2.57611E-14
 -1      3869 4.84823E-03 1.52407E-04-2.59431E-14
 -1      3870 2.29968E-03 2.72473E-04-5.69821E-15
 -1      3871 3.41794E-03 2.65650E-04-1.21650E-14
 -1      3872 1.39552E-02 2.32862E-03-1.31019E-13
 -1      3873 1.50616E-03 1.49559E-04-2.79079E-15
 -1      3874 1.50189E-03 1.16145E-04-2.82395E-15
 -1      3875 4.69011E-03 2.44676E-04-2.53672E-14
 -1      3876 4.70145E-03 2.66347E-04-2.56851E-14
 -1      3877 4.65268E-03 2.64591E-04-2.49041E-14
 -1      3878 1.93537E-03 2.31117E-04-4.22159E-15
 -1      3879 1.85759E-03 1.96082E-04-3.98927E-15
 -1      3880 2.07812E-03 2.35002E-04-4.80967E-15
 -1      3881 1.04266E-02 1.05812E-03-7.13287E-14
 -1      3882 1.03079E-02 1.01365E-03-6.92926E-14
 -1      3883 1.04607E-02 1.05825E-03-7.25184E-14
 -1      3884 4.50587E-03 2.61568E-04-2.23924E-14
 -1      3885 1.30857E-02 1.82492E-03-1.25189E-13
 -1      3886 1.12218E-02 1.34761E-03-8.49999E-14
 -1      3887 1.11901E-02 1.35074E-03-8.37403E-14
 -1      3888 1.10577E-02 1.29941E-03-8.16307E-14
 -1      3889 9.98576E-03 8.93499E-04-6.34087E-14
 -1      3890 9.96657E-03 8.74691E-04-6.35817E-14
 -1      3891 1.49869E-03 8.31675E-05-2.85270E-15
 -1      3892 1.49659E-03 5.05385E-05-2.87694E-15
 -1      3893 1.62275E-03 1.03367E-04-3.26074E-15
 -1      3894 1.09271E-02 1.24897E-03-7.95424E-14
 -1      3895 1.07986E-02 1.19937E-03-7.74713E-14
 -1      3896 1.07057E-02 1.15035E-03-7.66313E-14
 -1      3897 1.09597E-02 1.24706E-03-8.07781E-14
 -1      3898 5.24913E-03-5.46674E-05-2.79284E-14
 -1      3899 2.40643E-03-1.35770E-04-6.78502E-15
 -1      3900 2.54860E-03-1.35068E-04-7.53098E-15
 -1      3901 2.97304E-03-1.29158E-04-9.98964E-15
 -1      3902 3.11379E-03-1.26005E-04-1.08817E-14
 -1      3903 3.25418E-03-1.22328E-04-1.18093E-14
 -1      3904 3.39431E-03-1.18123E-04-1.27721E-14
 -1      3905 3.17636E-03-9.00719E-05-1.13218E-14
 -1      3906 3.53420E-03-1.13433E-04-1.37704E-14
 -1      3907 3.67408E-03-1.08298E-04-1.48025E-14
 -1      3908 3.45451E-03-8.13561E-05-1.32437E-14
 -1      3909 3.81401E-03-1.02750E-04-1.58684E-14
 -1      3910 3.95434E-03-9.69187E-05-1.69685E-14
 -1      3911 3.73133E-03-7.02677E-05-1.53030E-14
 -1      3912 4.09521E-03-9.08157E-05-1.81016E-14
 -1      3913 4.23717E-03-8.47899E-05-1.92669E-14
 -1      3914 4.00798E-03-5.69154E-05-1.74973E-14
 -1      3915 4.38045E-03-7.88634E-05-2.04643E-14
 -1      3916 4.52585E-03-7.37037E-05-2.16934E-14
 -1      3917 4.28657E-03-4.19008E-05-1.98222E-14
 -1      3918 4.67381E-03-6.93702E-05-2.29541E-14
 -1      3919 4.82535E-03-6.73130E-05-2.42459E-14
 -1      3920 4.57064E-03-2.68014E-05-2.22753E-14
 -1      3921 4.95397E-03-5.66981E-05-2.53899E-14
 -1      3922 5.11352E-03-6.03197E-05-2.67370E-14
 -1      3923 5.09003E-03 1.92860E-05-2.69942E-14
 -1      3924 4.83903E-03-6.18117E-06-2.46751E-14
 -1      3925 1.49556E-03 1.81772E-05-2.89681E-15
 -1      3926 1.49557E-03-1.41506E-05-2.91293E-15
 -1      3927 1.61830E-03 3.58030E-05-3.31432E-15
 -1      3928 1.49978E-03-1.12566E-04-2.92888E-15
 -1      3929 1.62222E-03-1.20136E-04-3.35931E-15
 -1      3930 1.49760E-03-8.60411E-05-2.92804E-15
 -1      3931 4.95463E-03 6.92226E-05-2.61756E-14
 -1      3932 9.62464E-03 6.66625E-04-7.02109E-14
 -1      3933 9.76886E-03 7.12375E-04-7.22389E-14
 -1      3934 9.91095E-03 7.57356E-04-7.42831E-14
 -1      3935 1.00516E-02 8.02276E-04-7.63456E-14
 -1      3936 9.90496E-03 7.73704E-04-7.31172E-14
 -1      3937 1.01912E-02 8.47116E-04-7.84270E-14
 -1      3938 1.03301E-02 8.92210E-04-8.05223E-14
 -1      3939 1.01809E-02 8.60545E-04-7.72353E-14
 -1      3940 1.04685E-02 9.37537E-04-8.26317E-14
 -1      3941 1.06067E-02 9.83220E-04-8.47588E-14
 -1      3942 1.04546E-02 9.49041E-04-8.14193E-14
 -1      3943 1.07449E-02 1.02924E-03-8.69037E-14
 -1      3944 1.08831E-02 1.07563E-03-8.90627E-14
 -1      3945 1.07280E-02 1.03962E-03-8.56695E-14
 -1      3946 1.10216E-02 1.12237E-03-9.12362E-14
 -1      3947 1.11602E-02 1.16945E-03-9.34242E-14
 -1      3948 1.10022E-02 1.13219E-03-8.99837E-14
 -1      3949 1.12991E-02 1.21687E-03-9.56258E-14
 -1      3950 1.14384E-02 1.26458E-03-9.78412E-14
 -1      3951 1.12778E-02 1.22651E-03-9.43568E-14
 -1      3952 1.15779E-02 1.31259E-03-1.00071E-13
 -1      3953 1.17177E-02 1.36085E-03-1.02312E-13
 -1      3954 1.15550E-02 1.32230E-03-9.87861E-14
 -1      3955 1.18579E-02 1.40937E-03-1.04565E-13
 -1      3956 1.19983E-02 1.45810E-03-1.06830E-13
 -1      3957 1.18338E-02 1.41928E-03-1.03266E-13
 -1      3958 1.21391E-02 1.50704E-03-1.09106E-13
 -1      3959 1.22801E-02 1.55616E-03-1.11395E-13
 -1      3960 1.21140E-02 1.51722E-03-1.07794E-13
 -1      3961 1.24213E-02 1.60545E-03-1.13695E-13
 -1      3962 1.25627E-02 1.65490E-03-1.16003E-13
 -1      3963 1.23955E-02 1.61591E-03-1.12370E-13
 -1      3964 1.27044E-02 1.70449E-03-1.18321E-13
 -1      3965 1.28462E-02 1.75419E-03-1.20649E-13
 -1      3966 1.26781E-02 1.71521E-03-1.16984E-13
 -1      3967 1.20685E-02 1.65323E-03-9.93816E-14
 -1      3968 1.19300E-02 1.60116E-03-9.71576E-14
 -1      3969 1.00577E-02 9.08559E-04-6.53498E-14
 -1      3970 2.69044E-03-1.33722E-04-8.31385E-15
 -1      3971 2.83194E-03-1.31727E-04-9.13343E-15
 -1      3972 2.89633E-03-9.64565E-05-9.54178E-15
 -1      3973 9.24606E-03 5.57286E-04-6.45941E-14
 -1      3974 9.07044E-03 4.94906E-04-6.25995E-14
 -1      3975 1.17923E-02 1.54923E-03-9.49476E-14
 -1      3976 1.16554E-02 1.49744E-03-9.27523E-14
 -1      3977 1.18201E-02 1.54307E-03-9.62498E-14
 -1      3978 1.38080E-02 2.27933E-03-1.28396E-13
 -1      3979 1.36608E-02 2.22993E-03-1.25782E-13
 -1      3980 1.37459E-02 2.23309E-03-1.28431E-13
 -1      3981 1.15194E-02 1.44596E-03-9.05721E-14
 -1      3982 1.13846E-02 1.39478E-03-8.84083E-14
 -1      3983 1.15472E-02 1.44084E-03-9.18568E-14
 -1      3984 1.26281E-02 1.86165E-03-1.08422E-13
 -1      3985 1.24875E-02 1.80957E-03-1.06142E-13
 -1      3986 1.29103E-02 1.96558E-03-1.13019E-13
 -1      3987 1.27690E-02 1.91365E-03-1.10713E-13
 -1      3988 1.26558E-02 1.85290E-03-1.09770E-13
 -1      3989 1.31935E-02 2.06919E-03-1.17659E-13
 -1      3990 1.30518E-02 2.01742E-03-1.15333E-13
 -1      3991 1.29379E-02 1.95619E-03-1.14376E-13
 -1      3992 2.64550E-03 2.40433E-04-7.54012E-15
 -1      3993 2.50442E-03 2.40308E-04-6.80115E-15
 -1      3994 2.70777E-03 2.07475E-04-7.99252E-15
 -1      3995 4.08328E-03 1.97439E-04-1.82157E-14
 -1      3996 3.96254E-03 1.90926E-04-1.70880E-14
 -1      3997 1.55013E-03 1.75750E-04-2.89615E-15
 -1      3998 1.67048E-03 1.63921E-04-3.34109E-15
 -1      3999 2.12139E-03-1.34953E-04-5.40543E-15
 -1      4000 2.26400E-03-1.35736E-04-6.07630E-15
 -1      4001 2.33073E-03-1.02267E-04-6.41761E-15
 -1      4002 1.23473E-02 1.75747E-03-1.03875E-13
 -1      4003 1.22076E-02 1.70534E-03-1.01620E-13
 -1      4004 1.20964E-02 1.64610E-03-1.00703E-13
 -1      4005 1.23752E-02 1.74948E-03-1.05208E-13
 -1      4006 4.59901E-03 2.60617E-04-2.40165E-14
 -1      4007 4.55816E-03 2.61424E-04-2.32594E-14
 -1      4008 4.44635E-03 2.40215E-04-2.19861E-14
 -1      4009 4.56567E-03 2.42042E-04-2.37120E-14
 -1      4010 1.29910E-02 1.81000E-03-1.22814E-13
 -1      4011 1.32038E-02 1.89208E-03-1.26012E-13
 -1      4012 1.32538E-02 1.93309E-03-1.25808E-13
 -1      4013 1.29643E-02 1.82091E-03-1.21465E-13
 -1      4014 4.31874E-03 2.16885E-04-2.06294E-14
 -1      4015 4.20327E-03 2.06300E-04-1.94059E-14
 -1      4016 4.13863E-03 1.79184E-04-1.89080E-14
 -1      4017 9.97303E-03 9.04967E-04-6.30056E-14
 -1      4018 1.00474E-02 9.20567E-04-6.45328E-14
 -1      4019 1.36713E-02 2.16382E-03-1.29085E-13
 -1      4020 1.37207E-02 2.20476E-03-1.28874E-13
 -1      4021 1.35737E-02 2.15564E-03-1.26261E-13
 -1      4022 1.35232E-02 2.09925E-03-1.27141E-13
 -1      4023 1.01553E-02 9.59669E-04-6.65259E-14
 -1      4024 9.36265E-03 5.88487E-04-6.63876E-14
 -1      4025 9.51153E-03 6.36189E-04-6.83833E-14
 -1      4026 9.65636E-03 7.01879E-04-6.92516E-14
 -1      4027 9.43826E-03 6.46342E-04-6.56347E-14
 -1      4028 9.79304E-03 8.68691E-04-5.98214E-14
 -1      4029 3.47206E-03 2.35329E-04-1.27383E-14
 -1      4030 3.33744E-03 2.36102E-04-1.17830E-14
 -1      4031 3.25930E-03 2.06160E-04-1.14000E-14
 -1      4032 3.52668E-03 2.06612E-04-1.33169E-14
 -1      4033 1.00923E-02 9.13081E-04-6.70286E-14
 -1      4034 1.00140E-02 8.83452E-04-6.65307E-14
 -1      4035 9.60819E-03 7.23035E-04-6.61614E-14
 -1      4036 2.36276E-03 2.39437E-04-6.09919E-15
 -1      4037 2.22061E-03 2.37744E-04-5.43558E-15
 -1      4038 2.14258E-03 2.03216E-04-5.17299E-15
 -1      4039 2.42633E-03 2.06633E-04-6.50798E-15
 -1      4040 1.01920E-02 9.60409E-04-6.76873E-14
 -1      4041 1.81285E-03 1.68995E-04-3.86785E-15
 -1      4042 1.76881E-03 1.42355E-04-3.74521E-15
 -1      4043 1.95528E-03 1.72991E-04-4.43326E-15
 -1      4044 1.33035E-02 1.97378E-03-1.25603E-13
 -1      4045 1.33531E-02 2.01443E-03-1.25394E-13
 -1      4046 1.31588E-02 1.91747E-03-1.23427E-13
 -1      4047 1.35571E-02 2.19383E-03-1.23998E-13
 -1      4048 4.68112E-03 2.15638E-04-2.49864E-14
 -1      4049 4.60839E-03 2.19268E-04-2.42199E-14
 -1      4050 4.67556E-03 1.82140E-04-2.46031E-14
 -1      4051 1.00149E-02 8.79799E-04-6.76633E-14
 -1      4052 3.83858E-03 1.85718E-04-1.59922E-14
 -1      4053 3.71186E-03 1.82025E-04-1.49290E-14
 -1      4054 3.89390E-03 1.63065E-04-1.66180E-14
 -1      4055 2.61435E-03-1.00541E-04-7.90612E-15
 -1      4056 4.38418E-03 2.14514E-04-2.14615E-14
 -1      4057 2.01409E-03-1.31678E-04-4.92705E-15
 -1      4058 2.08144E-03-9.95695E-05-5.23694E-15
 -1      4059 1.90680E-03-1.27987E-04-4.47030E-15
 -1      4060 1.32970E-02 2.10552E-03-1.19424E-13
 -1      4061 1.31827E-02 2.04398E-03-1.18455E-13
 -1      4062 1.34006E-02 2.14178E-03-1.21196E-13
 -1      4063 2.77073E-03 1.75079E-04-8.45141E-15
 -1      4064 2.63105E-03 1.74757E-04-7.66909E-15
 -1      4065 1.49558E-03-3.69203E-05-2.91955E-15
 -1      4066 1.49650E-03-6.29956E-05-2.92576E-15
 -1      4067 1.61845E-03-6.87011E-05-3.35555E-15
 -1      4068 1.61745E-03-2.12873E-05-3.34357E-15
 -1      4069 1.72916E-03-1.25088E-04-3.75862E-15
 -1      4070 1.04892E-02 1.05852E-03-7.37293E-14
 -1      4071 1.03701E-02 1.01494E-03-7.16692E-14
 -1      4072 1.76466E-03 1.07021E-04-3.78324E-15
 -1      4073 1.12785E-02 1.34010E-03-8.75261E-14
 -1      4074 1.12511E-02 1.34415E-03-8.62620E-14
 -1      4075 1.11191E-02 1.29404E-03-8.41307E-14
 -1      4076 4.85596E-03 4.53569E-05-2.51408E-14
 -1      4077 4.84626E-03 1.03446E-04-2.54844E-14
 -1      4078 4.76255E-03 1.25305E-04-2.49178E-14
 -1      4079 4.73753E-03 2.89191E-05-2.40076E-14
 -1      4080 1.07332E-02 1.14877E-03-7.78285E-14
 -1      4081 1.06097E-02 1.10276E-03-7.57701E-14
 -1      4082 1.05108E-02 1.05684E-03-7.49056E-14
 -1      4083 9.77243E-03 7.86805E-04-6.70877E-14
 -1      4084 9.71408E-03 7.44845E-04-6.83743E-14
 -1      4085 3.04704E-03 1.75443E-04-1.01257E-14
 -1      4086 2.90943E-03 1.75298E-04-9.27028E-15
 -1      4087 2.83451E-03 1.43273E-04-8.91702E-15
 -1      4088 9.88479E-03 8.24722E-04-6.81631E-14
 -1      4089 1.79690E-03-9.52037E-05-4.03239E-15
 -1      4090 3.37705E-03-5.02214E-05-1.27217E-14
 -1      4091 3.51449E-03-4.51316E-05-1.37155E-14
 -1      4092 3.65133E-03-3.93441E-05-1.47425E-14
 -1      4093 3.78780E-03-3.27947E-05-1.58034E-14
 -1      4094 3.57425E-03-9.56068E-06-1.41872E-14
 -1      4095 3.92389E-03-2.54484E-05-1.68986E-14
 -1      4096 4.06004E-03-1.73876E-05-1.80264E-14
 -1      4097 3.84347E-03 4.04286E-06-1.63050E-14
 -1      4098 4.19616E-03-8.61471E-06-1.91862E-14
 -1      4099 4.33303E-03 7.16696E-07-2.03776E-14
 -1      4100 4.11034E-03 2.16346E-05-1.85552E-14
 -1      4101 4.46361E-03 1.01649E-05-2.15377E-14
 -1      4102 4.60323E-03 1.98283E-05-2.27914E-14
 -1      4103 4.62391E-03 6.60269E-05-2.32391E-14
 -1      4104 4.36945E-03 4.26133E-05-2.08706E-14
 -1      4105 1.18471E-02 1.53651E-03-9.75555E-14
 -1      4106 1.17099E-02 1.48571E-03-9.53434E-14
 -1      4107 9.90213E-03 7.89759E-04-7.19547E-14
 -1      4108 1.00378E-02 8.31370E-04-7.39916E-14
 -1      4109 2.09757E-03 1.76037E-04-5.03628E-15
 -1      4110 2.05328E-03 1.49102E-04-4.89749E-15
 -1      4111 2.23961E-03 1.78239E-04-5.67695E-15
 -1      4112 2.25626E-03-6.92115E-05-6.05565E-15
 -1      4113 2.39813E-03-6.87010E-05-6.76137E-15
 -1      4114 1.74167E-03 5.44008E-05-3.75738E-15
 -1      4115 1.74055E-03 1.98547E-05-3.78195E-15
 -1      4116 4.19881E-03 1.61280E-04-1.95903E-14
 -1      4117 4.07701E-03 1.50198E-04-1.83957E-14
 -1      4118 1.01725E-02 8.73456E-04-7.60485E-14
 -1      4119 1.03072E-02 9.16376E-04-7.81229E-14
 -1      4120 1.01659E-02 8.85847E-04-7.48667E-14
 -1      4121 1.04418E-02 9.59946E-04-8.02124E-14
 -1      4122 1.05766E-02 1.00430E-03-8.23170E-14
 -1      4123 1.04300E-02 9.70181E-04-7.90053E-14
 -1      4124 1.07117E-02 1.04937E-03-8.44392E-14
 -1      4125 1.08473E-02 1.09507E-03-8.65792E-14
 -1      4126 1.06960E-02 1.05843E-03-8.32133E-14
 -1      4127 1.09832E-02 1.14138E-03-8.87354E-14
 -1      4128 1.11197E-02 1.18822E-03-9.09061E-14
 -1      4129 1.09645E-02 1.14990E-03-8.74868E-14
 -1      4130 1.12567E-02 1.23556E-03-9.30896E-14
 -1      4131 1.13943E-02 1.28332E-03-9.52890E-14
 -1      4132 1.12357E-02 1.24399E-03-9.18235E-14
 -1      4133 1.15323E-02 1.33148E-03-9.75001E-14
 -1      4134 1.16708E-02 1.37995E-03-9.97273E-14
 -1      4135 1.15096E-02 1.34010E-03-9.62184E-14
 -1      4136 1.18098E-02 1.42873E-03-1.01969E-13
 -1      4137 1.19492E-02 1.47775E-03-1.04219E-13
 -1      4138 1.17858E-02 1.43768E-03-1.00668E-13
 -1      4139 1.20891E-02 1.52699E-03-1.06483E-13
 -1      4140 1.22293E-02 1.57643E-03-1.08758E-13
 -1      4141 1.20641E-02 1.53634E-03-1.05170E-13
 -1      4142 1.23698E-02 1.62603E-03-1.11044E-13
 -1      4143 1.25107E-02 1.67578E-03-1.13342E-13
 -1      4144 1.23441E-02 1.63581E-03-1.09720E-13
 -1      4145 1.26518E-02 1.72566E-03-1.15648E-13
 -1      4146 1.27932E-02 1.77564E-03-1.17963E-13
 -1      4147 1.26256E-02 1.73582E-03-1.14311E-13
 -1      4148 4.53527E-03 2.18028E-04-2.33480E-14
 -1      4149 4.46681E-03 2.17180E-04-2.24881E-14
 -1      4150 4.51208E-03 1.91143E-04-2.29813E-14
 -1      4151 1.01367E-02 9.19100E-04-6.96351E-14
 -1      4152 1.00260E-02 8.77394E-04-6.89899E-14
 -1      4153 1.15736E-02 1.43523E-03-9.31441E-14
 -1      4154 1.14383E-02 1.38508E-03-9.09607E-14
 -1      4155 1.15992E-02 1.42904E-03-9.44351E-14
 -1      4156 1.29654E-02 1.94664E-03-1.15731E-13
 -1      4157 1.28241E-02 1.89530E-03-1.13420E-13
 -1      4158 1.26832E-02 1.84395E-03-1.11117E-13
 -1      4159 1.25426E-02 1.79257E-03-1.08826E-13
 -1      4160 1.27103E-02 1.83475E-03-1.12463E-13
 -1      4161 1.00187E-02 8.65905E-04-7.01447E-14
 -1      4162 4.34547E-03 1.90465E-04-2.11140E-14
 -1      4163 9.81741E-03 7.71135E-04-7.01971E-14
 -1      4164 2.53962E-03-6.77000E-05-7.50394E-15
 -1      4165 2.68067E-03-6.61576E-05-8.28353E-15
 -1      4166 2.46621E-03-3.51274E-05-7.10776E-15
 -1      4167 1.88597E-03 9.18190E-05-4.28515E-15
 -1      4168 1.29036E-02 1.81841E-03-1.19610E-13
 -1      4169 1.30481E-02 1.87449E-03-1.21769E-13
 -1      4170 1.30978E-02 1.91484E-03-1.21563E-13
 -1      4171 1.28770E-02 1.82884E-03-1.18264E-13
 -1      4172 1.02526E-02 9.64759E-04-7.05756E-14
 -1      4173 1.02344E-02 9.65359E-04-6.93868E-14
 -1      4174 1.34424E-02 2.13207E-03-1.23014E-13
 -1      4175 1.09888E-02 1.24479E-03-8.20187E-14
 -1      4176 1.08605E-02 1.19636E-03-7.99252E-14
 -1      4177 1.10154E-02 1.24179E-03-8.32624E-14
 -1      4178 2.82116E-03-6.41248E-05-9.09921E-15
 -1      4179 2.96109E-03-6.15292E-05-9.95146E-15
 -1      4180 2.74754E-03-3.20214E-05-8.66263E-15
 -1      4181 3.10037E-03-5.83793E-05-1.08398E-14
 -1      4182 3.23904E-03-5.46158E-05-1.17633E-14
 -1      4183 3.02626E-03-2.70257E-05-1.03626E-14
 -1      4184 9.95202E-03 8.26295E-04-7.10576E-14
 -1      4185 1.02771E-02 9.66618E-04-7.19256E-14
 -1      4186 1.21236E-02 1.63866E-03-1.02024E-13
 -1      4187 1.19850E-02 1.58750E-03-9.97835E-14
 -1      4188 1.18733E-02 1.52948E-03-9.88639E-14
 -1      4189 3.30189E-03-1.97180E-05-1.22058E-14
 -1      4190 1.00964E-02 8.84821E-04-7.19002E-14
 -1      4191 1.03955E-02 1.00655E-03-7.39516E-14
 -1      4192 1.02734E-02 9.56570E-04-7.29972E-14
 -1      4193 1.05166E-02 1.04865E-03-7.59978E-14
 -1      4194 2.14953E-03-6.71093E-05-5.55048E-15
 -1      4195 2.21836E-03-3.43624E-05-5.86721E-15
 -1      4196 2.04271E-03-6.47713E-05-5.06676E-15
 -1      4197 1.86269E-03 1.34745E-05-4.27010E-15
 -1      4198 1.73985E-03-4.40469E-06-3.79389E-15
 -1      4199 1.73974E-03-2.87175E-05-3.80365E-15
 -1      4200 3.95495E-03 1.41195E-04-1.72618E-14
 -1      4201 3.83034E-03 1.34027E-04-1.61610E-14
 -1      4202 4.02085E-03 1.19696E-04-1.79109E-14
 -1      4203 1.01987E-02 9.58672E-04-6.81052E-14
 -1      4204 1.07583E-02 1.14671E-03-7.90485E-14
 -1      4205 1.13286E-02 1.33005E-03-9.00655E-14
 -1      4206 1.13042E-02 1.33544E-03-8.87948E-14
 -1      4207 1.11713E-02 1.28634E-03-8.66441E-14
 -1      4208 3.64063E-03 1.53272E-04-1.44881E-14
 -1      4209 3.58269E-03 1.79287E-04-1.39000E-14
 -1      4210 3.45140E-03 1.77566E-04-1.29044E-14
 -1      4211 1.30685E-02 1.98272E-03-1.17488E-13
 -1      4212 1.29543E-02 1.92173E-03-1.16520E-13
 -1      4213 1.31718E-02 2.01876E-03-1.19250E-13
 -1      4214 1.24294E-02 1.73268E-03-1.07881E-13
 -1      4215 1.24025E-02 1.74123E-03-1.06546E-13
 -1      4216 1.22628E-02 1.68990E-03-1.04277E-13
 -1      4217 2.55559E-03 1.41844E-04-7.34626E-15
 -1      4218 2.49058E-03 1.74088E-04-6.92381E-15
 -1      4219 4.29336E-03 1.60209E-04-2.05723E-14
 -1      4220 2.34942E-03 1.73024E-04-6.21541E-15
 -1      4221 1.33784E-02 2.04254E-03-1.24957E-13
 -1      4222 3.31821E-03 1.76384E-04-1.19432E-14
 -1      4223 3.18335E-03 1.75804E-04-1.10169E-14
 -1      4224 3.10923E-03 1.44824E-04-1.06331E-14
 -1      4225 3.37846E-03 1.47705E-04-1.24917E-14
 -1      4226 4.64670E-03 1.04350E-04-2.37004E-14
 -1      4227 4.65908E-03 1.47450E-04-2.41440E-14
 -1      4228 4.57142E-03 1.58844E-04-2.33946E-14
 -1      4229 4.52346E-03 9.02715E-05-2.24930E-14
 -1      4230 1.34507E-02 2.11311E-03-1.24142E-13
 -1      4231 1.32945E-02 2.06143E-03-1.21347E-13
 -1      4232 1.31800E-02 2.00013E-03-1.20370E-13
 -1      4233 1.34255E-02 2.08505E-03-1.24581E-13
 -1      4234 2.89944E-03 1.11971E-04-9.38885E-15
 -1      4235 2.76100E-03 1.10908E-04-8.56433E-15
 -1      4236 2.62159E-03 1.09862E-04-7.77591E-15
 -1      4237 2.48137E-03 1.08828E-04-7.02440E-15
 -1      4238 2.68871E-03 7.81406E-05-8.21245E-15
 -1      4239 1.27372E-02 1.82530E-03-1.13806E-13
 -1      4240 1.25964E-02 1.77453E-03-1.11506E-13
 -1      4241 3.76684E-03 3.18588E-05-1.57165E-14
 -1      4242 3.89860E-03 3.98075E-05-1.68062E-14
 -1      4243 4.06006E-03 7.34198E-05-1.82403E-14
 -1      4244 4.18723E-03 8.48162E-05-1.94026E-14
 -1      4245 1.07687E-02 1.13805E-03-8.01814E-14
 -1      4246 1.06415E-02 1.09252E-03-7.80804E-14
 -1      4247 1.05201E-02 1.03902E-03-7.71099E-14
 -1      4248 2.12017E-03 1.17846E-04-5.25127E-15
 -1      4249 1.97820E-03 1.15656E-04-4.63392E-15
 -1      4250 1.16239E-02 1.42228E-03-9.57274E-14
 -1      4251 1.14876E-02 1.37289E-03-9.35246E-14
 -1      4252 1.04779E-02 1.00678E-03-7.80705E-14
 -1      4253 1.06072E-02 1.05001E-03-8.01552E-14
 -1      4254 1.09458E-02 1.15762E-03-8.62405E-14
 -1      4255 1.10798E-02 1.20432E-03-8.83934E-14
 -1      4256 1.14421E-02 1.32885E-03-9.44129E-14
 -1      4257 1.15791E-02 1.37750E-03-9.66200E-14
 -1      4258 1.17616E-02 1.44611E-03-9.93691E-14
 -1      4259 1.19000E-02 1.49557E-03-1.01607E-13
 -1      4260 1.21078E-02 1.58390E-03-1.04265E-13
 -1      4261 1.22473E-02 1.63411E-03-1.06529E-13
 -1      4262 1.25539E-02 1.72538E-03-1.12427E-13
 -1      4263 1.26948E-02 1.77567E-03-1.14731E-13
 -1      4264 4.48402E-03 1.62129E-04-2.25409E-14
 -1      4265 1.02219E-02 9.23901E-04-7.39337E-14
 -1      4266 1.03488E-02 9.64362E-04-7.59841E-14
 -1      4267 3.03680E-03 1.13293E-04-1.02500E-14
 -1      4268 2.96571E-03 8.11370E-05-9.86732E-15
 -1      4269 3.17288E-03 1.14889E-04-1.11467E-14
 -1      4270 1.79543E-03-7.03203E-05-4.02856E-15
 -1      4271 4.34056E-03 1.27620E-04-2.09652E-14
 -1      4272 2.39411E-03-2.82685E-06-6.71778E-15
 -1      4273 2.53506E-03-1.60984E-06-7.45644E-15
 -1      4274 2.30525E-03 1.46242E-04-6.06188E-15
 -1      4275 3.22908E-03 1.03373E-05-1.16945E-14
 -1      4276 3.36519E-03 1.44674E-05-1.26487E-14
 -1      4277 1.10398E-02 1.23802E-03-8.45092E-14
 -1      4278 1.09099E-02 1.19050E-03-8.23929E-14
 -1      4279 1.10626E-02 1.23333E-03-8.57607E-14
 -1      4280 2.71605E-03 2.33053E-05-8.44366E-15
 -1      4281 2.85528E-03 2.52168E-05-9.26432E-15
 -1      4282 1.95472E-03 6.12802E-05-4.60890E-15
 -1      4283 3.50015E-03 1.93258E-05-1.36375E-14
 -1      4284 3.63409E-03 2.51264E-05-1.46600E-14
 -1      4285 3.69416E-03 5.88090E-05-1.51335E-14
 -1      4286 2.99361E-03 2.74615E-05-1.01214E-14
 -1      4287 3.13099E-03 3.02714E-05-1.10146E-14
 -1      4288 1.32556E-02 2.00029E-03-1.22846E-13
 -1      4289 2.23044E-03 1.12875E-04-5.76903E-15
 -1      4290 2.15674E-03 7.97123E-05-5.47771E-15
 -1      4291 2.34048E-03 1.07610E-04-6.31054E-15
 -1      4292 2.06552E-03 5.62258E-05-5.09498E-15
 -1      4293 1.97475E-03 3.30710E-05-4.72287E-15
 -1      4294 2.17623E-03 5.09366E-05-5.60492E-15
 -1      4295 4.40084E-03 7.71903E-05-2.13128E-14
 -1      4296 1.91734E-03-5.34750E-05-4.52474E-15
 -1      4297 1.98692E-03-2.18407E-05-4.81164E-15
 -1      4298 2.13759E-03-1.18941E-05-5.47906E-15
 -1      4299 2.24399E-03-1.35336E-05-5.98043E-15
 -1      4300 2.31427E-03 1.94622E-05-6.29942E-15
 -1      4301 2.01301E-03-1.56040E-06-4.91425E-15
 -1      4302 1.13971E-02 1.32670E-03-9.28744E-14
 -1      4303 1.13741E-02 1.33349E-03-9.15973E-14
 -1      4304 1.12395E-02 1.28494E-03-8.94262E-14
 -1      4305 1.13280E-02 1.29012E-03-9.24798E-14
 -1      4306 1.20821E-02 1.59222E-03-1.02945E-13
 -1      4307 1.11712E-02 1.24935E-03-8.90400E-14
 -1      4308 1.11924E-02 1.24230E-03-9.03012E-14
 -1      4309 1.06806E-02 1.06659E-03-8.19887E-14
 -1      4310 1.08127E-02 1.11164E-03-8.41051E-14
 -1      4311 1.16927E-02 1.43443E-03-9.75456E-14
 -1      4312 1.23873E-02 1.68447E-03-1.08805E-13
 -1      4313 1.27711E-02 1.82204E-03-1.15085E-13
 -1      4314 1.28432E-02 1.83254E-03-1.16980E-13
 -1      4315 1.29534E-02 1.87557E-03-1.18622E-13
 -1      4316 1.28854E-02 1.88258E-03-1.16051E-13
 -1      4317 3.42899E-03 4.77982E-05-1.30924E-14
 -1      4318 1.07206E-02 1.10079E-03-8.10315E-14
 -1      4319 3.66288E-03 1.06853E-04-1.48182E-14
 -1      4320 3.53244E-03 1.02052E-04-1.37920E-14
 -1      4321 1.09269E-02 1.16449E-03-8.49977E-14
 -1      4322 1.29884E-02 1.91835E-03-1.17805E-13
 -1      4323 1.24133E-02 1.67518E-03-1.10134E-13
 -1      4324 1.18055E-02 1.49166E-03-9.84675E-14
 -1      4325 3.98689E-03 9.74945E-05-1.76099E-14
 -1      4326 3.19812E-03 6.31186E-05-1.14274E-14
 -1      4327 2.64648E-03 5.50023E-05-8.00992E-15
 -1      4328 1.31329E-02 1.95803E-03-1.20746E-13
 -1      4329 2.40828E-03 7.57170E-05-6.70411E-15
 -1      4330 3.26633E-03 9.51092E-05-1.18412E-14
 -1      4331 1.07886E-02 1.13375E-03-8.14088E-14
 -1      4332 1.08642E-02 1.15246E-03-8.32539E-14
 -1      4333 1.30225E-02 1.91479E-03-1.19096E-13
 -1      4334 1.97381E-03 7.84090E-06-4.73886E-15
 -1      4335 3.40016E-03 9.81162E-05-1.27995E-14
 -1      4336 1.11278E-02 1.24629E-03-8.75244E-14
 -1      4337 1.19435E-02 1.54184E-03-1.00700E-13
 -1      4338 3.73106E-03 8.14649E-05-1.54189E-14
 -1      4339 1.09954E-02 1.19893E-03-8.53811E-14
 -1      4340 1.21502E-02 1.63083E-03-1.03347E-13
 -1      4341 3.86000E-03 8.87546E-05-1.64977E-14
 -1      4342 2.50635E-03 5.37105E-05-7.24606E-15
 -1      4343 2.36553E-03 5.24920E-05-6.51959E-15
 -1      4344 2.21492E-03 4.15437E-05-5.79703E-15
 -1      4345 2.12469E-03 1.82357E-05-5.39929E-15
 -3
    1PSTEP                         2           1           1          
  100CL  101 1.000000000        4345                     0    1           1
 -4  STRESS      6    1
 -5  SXX         1    4    1    1
 -5  SYY         1    4    2    2
 -5  SZZ         1    4    3    3
 -5  SXY         1    4    1    2
 -5  SYZ         1    4    2    3
 -5  SZX         1    4    3    1
 -1         1 6.61676E+01 9.46646E-01 3.44591E+00-3.27361E+00-1.21972E-13 8.93438E-13
 -1         2-7.37522E-01-2.53029E+01-3.41463E+00 8.14290E-02 5.97244E-13-1.26149E-14
 -1         3 2.00001E+01 3.06263E-04 8.69798E-04 2.98665E-04 7.94786E-13 5.23247E-13
 -1         4 2.00000E+01 1.94607E-04 8.20567E-04-1.79972E-04 1.87707E-13 3.09575E-14
 -1         5 3.26152E+01 6.11433E+00 2.72062E+00 6.19699E+00-5.39638E-14 3.87249E-12
 -1         6 3.55862E+01 1.22029E+01 5.08979E+00-8.60569E+00-2.43194E-13 3.45235E-12
 -1         7 2.07882E+01 6.08988E+00-1.24576E-01-4.69581E+00-3.32789E-14 4.67654E-13
 -1         8 1.96717E+01 5.93415E+00 5.32329E-02-3.23977E+00-4.26707E-14-4.05194E-13
 -1         9 1.91532E+01 5.77613E+00 5.05305E-02-2.48608E+00-3.53502E-14-8.49825E-13
 -1        10 1.89173E+01 5.69819E+00 5.15607E-02-1.90901E+00-2.23224E-14-1.04982E-12
 -1        11 1.87953E+01 5.65721E+00 4.98881E-02-1.41649E+00-1.35230E-14-1.14018E-12
 -1        12 1.87283E+01 5.63456E+00 4.76219E-02-9.82776E-01-5.35444E-15-1.16443E-12
 -1        13 1.86911E+01 5.62205E+00 4.57300E-02-5.74244E-01-2.06172E-15-1.15610E-12
 -1        14 1.86750E+01 5.61662E+00 4.47050E-02-1.83993E-01 3.00595E-15-1.13834E-12
 -1        15 1.86762E+01 5.61696E+00 4.47456E-02 2.00550E-01 9.71499E-15-1.11352E-12
 -1        16 1.86946E+01 5.62309E+00 4.58802E-02 5.91559E-01 1.57895E-14-1.07867E-12
 -1        17 1.87341E+01 5.63617E+00 4.79911E-02 1.00204E+00 2.08453E-14-1.01367E-12
 -1        18 1.88029E+01 5.65935E+00 5.05372E-02 1.43900E+00 2.52875E-14-9.10182E-13
 -1        19 1.89263E+01 5.70076E+00 5.21688E-02 1.93770E+00 3.74084E-14-7.39904E-13
 -1        20 1.91607E+01 5.77927E+00 5.03661E-02 2.52363E+00 4.88758E-14-4.29330E-13
 -1        21 1.96668E+01 5.94849E+00 4.82812E-02 3.27450E+00 5.40054E-14 1.54243E-13
 -1        22 2.11619E+01 6.36844E+00 1.41144E-01 4.49470E+00 6.66134E-15 1.31128E-12
 -1        23 2.29495E+01-1.37617E+00-9.37619E-01-7.03996E-01-1.68615E-13 2.61308E-12
 -1        24 1.93316E+01-9.95026E-02-3.08809E-01 6.35492E-02-4.48946E-14 1.87256E-12
 -1        25 1.86773E+01-5.67112E-02-6.87671E-02 6.05792E-02-1.85494E-14 1.17451E-12
 -1        26 1.85127E+01-2.28650E-02-7.19383E-03 3.28746E-02-1.47910E-14 6.96771E-13
 -1        27 1.85726E+01-1.29212E-02 3.48636E-04 2.27125E-02-8.01258E-15 3.69803E-13
 -1        28 1.87518E+01-7.68078E-03 9.08618E-05 1.67718E-02-1.47215E-14 1.08161E-13
 -1        29 1.89983E+01-4.81287E-03-4.21628E-04 1.31612E-02 5.86147E-16-6.48492E-14
 -1        30 1.92860E+01-3.16265E-03-6.40587E-04 1.09539E-02 1.08104E-14-3.05090E-13
 -1        31 1.96013E+01-2.11477E-03-7.39593E-04 9.70748E-03 3.42165E-15-4.76168E-13
 -1        32 1.99364E+01-1.26898E-03-6.74313E-04 9.16981E-03-1.38349E-14-6.37125E-13
 -1        33 2.02845E+01-3.13461E-04-2.11543E-04 9.12140E-03 4.23570E-14-7.21181E-13
 -1        34 2.06354E+01 1.01899E-03 9.86051E-04 9.27141E-03-6.81087E-14-8.74148E-13
 -1        35 2.09713E+01 2.94055E-03 3.29172E-03 9.17412E-03 1.41657E-14-9.99387E-13
 -1        36 2.12629E+01 5.54757E-03 7.00252E-03 8.16658E-03-4.40387E-15-1.06684E-12
 -1        37 2.14667E+01 8.70899E-03 1.21261E-02 5.36678E-03-3.51325E-14-1.06224E-12
 -1        38 2.15257E+01 1.19251E-02 1.80539E-02-1.85380E-04-9.40654E-15-1.10786E-12
 -1        39 2.13775E+01 1.42226E-02 2.32066E-02-9.13672E-03-1.69076E-14-1.28127E-12
 -1        40 2.09710E+01 1.42345E-02 2.49642E-02-2.11363E-02-2.53373E-14-1.28806E-12
 -1        41 2.02944E+01 1.06171E-02 2.02742E-02-3.40379E-02 2.56016E-14-1.50507E-12
 -1        42 1.94050E+01 2.86617E-03 7.34452E-03-4.36161E-02-4.59658E-15-1.48515E-12
 -1        43 1.84454E+01-7.82820E-03-1.22629E-02-4.46386E-02-6.65566E-14-1.45355E-12
 -1        44 1.76254E+01-1.83775E-02-3.25674E-02-3.36684E-02 8.06933E-14-1.26203E-12
 -1        45 1.71589E+01-2.48832E-02-4.54028E-02-1.20322E-02 4.30363E-15-1.18313E-12
 -1        46 1.71805E+01-2.46643E-02-4.49239E-02 1.37064E-02 6.75475E-14-1.25772E-12
 -1        47 1.76852E+01-1.78353E-02-3.13757E-02 3.47458E-02-3.50587E-14-1.16303E-12
 -1        48 1.85316E+01-7.23907E-03-1.09593E-02 4.48420E-02 6.00694E-14-1.17211E-12
 -1        49 1.95044E+01 3.21896E-03 8.16418E-03 4.31172E-02 4.01044E-14-1.17783E-12
 -1        50 2.03991E+01 1.05767E-02 2.03554E-02 3.32492E-02 9.95341E-15-1.12462E-12
 -1        51 2.10808E+01 1.37898E-02 2.43398E-02 2.04607E-02-4.73509E-14-1.00113E-12
 -1        52 2.14998E+01 1.34558E-02 2.20848E-02 8.85016E-03-2.09799E-14-1.13557E-12
 -1        53 2.16737E+01 1.09403E-02 1.66258E-02 4.24463E-04 6.02057E-15-1.20090E-12
 -1        54 2.16569E+01 7.59775E-03 1.05182E-02-4.53860E-03 4.43971E-14-1.18339E-12
 -1        55 2.15144E+01 4.37906E-03 5.26680E-03-6.69766E-03-8.64744E-14-1.21387E-12
 -1        56 2.13042E+01 1.77551E-03 1.43871E-03-6.98310E-03 9.63768E-14-1.21438E-12
 -1        57 2.10706E+01-6.97313E-05-9.83630E-04-6.22572E-03 6.82536E-14-8.25674E-13
 -1        58 2.08435E+01-1.21602E-03-2.27987E-03-5.02555E-03 2.88441E-14-8.05488E-13
 -1        59 2.06398E+01-1.80949E-03-2.78695E-03-3.75431E-03 2.88424E-14-9.88841E-13
 -1        60 2.04675E+01-2.01147E-03-2.80016E-03-2.60874E-03-1.45209E-14-1.06314E-12
 -1        61 2.03282E+01-1.96320E-03-2.54154E-03-1.67000E-03 8.64146E-14-1.02932E-12
 -1        62 2.02200E+01-1.77360E-03-2.16177E-03-9.51518E-04-9.73528E-14-9.27722E-13
 -1        63 2.01390E+01-1.51942E-03-1.75453E-03-4.32090E-04-1.27869E-13-1.16261E-12
 -1        64 2.00807E+01-1.25047E-03-1.37281E-03-7.63215E-05-1.61454E-14-1.22804E-12
 -1        65 2.00406E+01-9.96142E-04-1.04291E-03 1.54145E-04 4.88864E-14-8.99793E-13
 -1        66 2.00147E+01-7.71215E-04-7.74664E-04 2.95387E-04-1.76055E-15-7.07304E-13
 -1        67 1.99996E+01-5.80179E-04-5.67950E-04 3.79233E-04-1.82081E-14-4.72096E-13
 -1        68 1.99925E+01-4.19283E-04-4.13244E-04 4.34285E-04 1.96730E-13 2.14756E-13
 -1        69 1.99911E+01-2.76246E-04-2.78392E-04 4.85083E-04-1.43788E-14 5.44206E-13
 -1        70 1.99936E+01-1.28047E-04-8.20534E-05 5.37797E-04 4.65272E-14 6.82822E-13
 -1        71 1.99980E+01 1.58495E-05 3.64350E-04 5.11043E-04-1.59155E-13 9.87517E-14
 -1        72 2.09635E+01-4.03477E-01-9.78976E-01-3.11198E-01 5.55493E-14 3.53233E-12
 -1        73 1.92883E+01-6.59897E-02-2.90164E-01-5.36213E-02 3.03078E-14 2.69226E-12
 -1        74 1.86769E+01-2.10094E-02-6.42844E-02-1.96846E-02 1.51880E-14 2.08211E-12
 -1        75 1.85109E+01-1.07226E-02-1.00697E-02-1.43952E-02-1.37016E-14 1.71443E-12
 -1        76 1.85712E+01-6.40604E-03-7.44910E-04-1.09873E-02 2.19251E-14 1.40391E-12
 -1        77 1.87538E+01-4.35203E-03-4.32816E-04-8.39111E-03-3.43855E-16 1.08875E-12
 -1        78 1.90115E+01-3.51785E-03-1.26119E-03-6.32923E-03 2.14846E-15 9.45355E-13
 -1        79 1.93256E+01-3.47228E-03-2.36493E-03-4.59984E-03 4.20261E-15 7.82491E-13
 -1        80 1.96946E+01-4.01750E-03-3.99643E-03-3.15966E-03-1.90328E-14 6.69805E-13
 -1        81 2.01300E+01-5.04844E-03-6.41339E-03-2.10321E-03 1.81706E-14 5.39306E-13
 -1        82 2.06553E+01-6.46542E-03-9.81120E-03-1.68440E-03 1.90129E-14 3.77583E-13
 -1        83 2.13052E+01-8.07650E-03-1.43155E-02-2.40741E-03 6.69733E-15 3.70668E-13
 -1        84 2.21246E+01-9.44084E-03-1.97895E-02-5.18817E-03-1.88985E-14 4.18150E-13
 -1        85 2.31651E+01-9.61641E-03-2.52640E-02-1.15535E-02 3.47412E-14 2.59607E-13
 -1        86 2.44713E+01-6.83152E-03-2.76774E-02-2.36910E-02-2.48591E-14 5.57540E-14
 -1        87 2.60495E+01 1.67436E-03-1.97300E-02-4.37375E-02-2.11268E-14 1.11990E-13
 -1        88 2.78015E+01 1.89907E-02 1.20436E-02-7.07759E-02 2.06497E-15 2.81358E-13
 -1        89 2.94209E+01 4.58439E-02 8.32939E-02-9.72428E-02 1.22697E-14 2.39085E-13
 -1        90 3.02472E+01 6.08840E-02 1.86495E-01-7.08316E-02-1.57361E-14 4.74273E-13
 -1        91 2.92549E+01 4.84779E-02 2.41977E-01 4.08666E-02 8.37915E-14 8.94632E-14
 -1        92 2.59081E+01-1.58935E-02 1.14766E-01 2.47261E-01 6.11338E-15-1.11994E-13
 -1        93 2.11529E+01-8.00894E-02-2.04746E-01 3.77160E-01-5.00637E-14-1.36682E-13
 -1        94 1.78364E+01-1.06828E-01-4.88162E-01 2.90791E-01-4.25580E-14 1.85171E-13
 -1        95 1.79573E+01-4.18495E-02-4.57419E-01-6.26044E-02-3.71491E-15-3.16414E-14
 -1        96 2.16172E+01 1.57430E-02-1.58427E-01-3.17558E-01 5.11264E-14-4.33473E-13
 -1        97 2.64137E+01 4.81072E-02 1.42167E-01-3.35112E-01-3.57613E-14-4.87402E-13
 -1        98 2.95592E+01 4.99774E-02 2.34180E-01-1.81796E-01 3.72848E-14-6.61526E-13
 -1        99 3.03531E+01 3.36762E-02 1.74609E-01-3.93847E-02-4.23598E-14-6.03477E-13
 -1       100 2.94896E+01 1.34939E-02 7.71332E-02 3.52307E-02 3.78408E-14-1.71210E-13
 -1       101 2.78856E+01-3.97993E-04 9.22867E-03 5.80878E-02-3.64340E-14 1.38119E-14
 -1       102 2.61673E+01-7.21782E-03-2.20766E-02 5.50572E-02 1.05801E-13 3.27113E-13
 -1       103 2.45832E+01-9.23956E-03-2.94045E-02 4.23784E-02-7.56482E-14 6.00964E-13
 -1       104 2.33649E+01-9.26878E-03-2.68970E-02 3.05147E-02 3.20131E-14 8.26223E-13
 -1       105 2.24266E+01-7.94447E-03-2.13708E-02 2.12560E-02 3.68618E-15 3.64585E-13
 -1       106 2.17232E+01-6.42523E-03-1.60382E-02 1.44533E-02-1.09509E-14 1.83979E-13
 -1       107 2.12053E+01-5.02198E-03-1.17109E-02 9.69067E-03-4.95096E-14 3.96294E-13
 -1       108 2.08286E+01-3.84621E-03-8.44469E-03 6.42360E-03 1.74207E-14 1.88888E-13
 -1       109 2.05576E+01-2.90819E-03-6.05555E-03 4.20259E-03-8.64326E-16 1.15408E-13
 -1       110 2.03647E+01-2.17943E-03-4.32966E-03 2.69877E-03 2.27899E-13-4.80411E-13
 -1       111 2.02293E+01-1.62168E-03-3.08749E-03 1.68326E-03-1.47640E-14-3.19574E-13
 -1       112 2.01359E+01-1.19864E-03-2.19374E-03 9.99935E-04 1.43221E-14-8.33454E-13
 -1       113 2.00731E+01-8.79727E-04-1.55084E-03 5.42778E-04-2.76387E-14-9.71719E-13
 -1       114 2.00324E+01-6.40497E-04-1.09001E-03 2.39354E-04-4.81503E-14-7.60489E-13
 -1       115 2.00075E+01-4.61495E-04-7.63371E-04 3.89009E-05 3.82805E-14-7.06398E-13
 -1       116 1.99941E+01-3.25832E-04-5.36209E-04-9.71276E-05 4.13110E-14-1.04183E-12
 -1       117 1.99886E+01-2.18357E-04-3.77458E-04-2.00998E-04 1.24711E-13-1.07574E-12
 -1       118 1.99888E+01-1.22977E-04-2.42213E-04-3.03367E-04 1.30602E-13-9.52359E-13
 -1       119 1.99926E+01 3.39250E-06-2.17148E-05-4.52606E-04-1.08411E-13 1.89837E-13
 -1       120 1.99977E+01 8.06239E-05 3.60881E-04-5.91746E-04-3.15387E-13 1.32029E-12
 -1       121 1.99999E+01-2.09234E-03 2.73677E-04-6.69143E-04 1.38216E-12-2.74713E-13
 -1       122 1.99997E+01-6.72751E-03-1.57858E-04-4.81802E-04 4.68804E-13 3.90896E-14
 -1       123 1.99997E+01-9.24254E-03-3.32037E-04-2.40076E-04 4.16258E-14 6.32301E-14
 -1       124 1.99997E+01-8.48093E-03-2.86776E-04-2.76269E-05-2.77209E-13 1.84823E-13
 -1       125 1.99998E+01-5.02848E-03-1.45869E-04 1.04968E-04 3.46215E-13 5.70768E-14
 -1       126 1.99998E+01-3.72169E-04 4.81296E-06 1.53767E-04-1.12206E-13-2.29623E-14
 -1       127 1.99999E+01 4.08876E-03 1.30902E-04 1.34219E-04 2.26799E-13 1.24735E-13
 -1       128 2.00000E+01 6.95650E-03 2.03840E-04 6.68563E-05 4.75638E-14 1.76932E-13
 -1       129 2.00000E+01 7.45605E-03 2.11231E-04-1.92340E-05 5.49409E-13 1.88603E-13
 -1       130 1.99999E+01 5.51149E-03 1.52984E-04-9.35197E-05 3.98450E-13-2.18989E-13
 -1       131 1.99999E+01 1.74831E-03 4.01485E-05-1.27808E-04 1.02456E-13 1.13628E-14
 -1       132 1.99998E+01-2.57350E-03-1.01988E-04-9.93750E-05-3.78748E-13 3.13861E-13
 -1       133 1.99997E+01-6.12544E-03-2.40041E-04 7.46779E-06-2.11545E-13-1.33461E-13
 -1       134 1.99997E+01-7.46122E-03-3.11836E-04 1.85570E-04-5.49113E-13-1.65060E-13
 -1       135 1.99998E+01-5.82532E-03-1.61623E-04 5.81977E-04-5.69573E-13 2.52108E-13
 -1       136 1.99998E+01-2.00768E-03 2.43447E-04 8.24892E-04-2.38481E-13-1.22977E-13
 -1       137-1.49035E+00-2.21959E+01-3.31650E+00-4.20843E+00 9.77218E-13 2.31929E-13
 -1       138-2.21276E+00-1.18263E+01-2.73364E+00-4.33547E+00 1.75909E-12 7.33136E-13
 -1       139 1.46357E+00 9.28329E-01-1.61095E+00 1.64796E+00 2.67319E-12 2.20618E-12
 -1       140 1.37742E+01 9.20508E+00-7.59104E-02 1.12699E+01 2.24348E-12 2.49745E-12
 -1       141 3.45653E+01 1.02190E+01 1.69993E+00 1.83614E+01 1.32527E-12 2.20879E-12
 -1       142 5.74631E+01 5.50459E+00 3.33749E+00 1.65117E+01 2.99843E-13 9.06719E-13
 -1       143 7.08935E+01 1.43185E+00 4.23635E+00 5.35274E+00-3.35496E-15-2.29455E-13
 -1       144 6.84469E+01 2.37910E+00 4.08660E+00-8.93965E+00 2.01082E-13-1.63292E-12
 -1       145 5.10126E+01 7.24219E+00 2.90731E+00-1.77311E+01 8.49071E-13-2.34635E-12
 -1       146 2.59141E+01 1.04250E+01 9.86040E-01-1.61697E+01 1.82959E-12-2.57072E-12
 -1       147 7.48292E+00 6.17574E+00-7.83342E-01-6.98224E+00 2.56500E-12-2.32930E-12
 -1       148-9.85994E-01-4.42025E+00-2.14658E+00 1.67212E+00 2.28589E-12-1.43402E-12
 -1       149-2.11282E+00-1.64940E+01-3.00708E+00 4.92211E+00 1.84108E-12-5.65326E-13
 -1       150-1.06852E+00-2.44667E+01-3.41082E+00 2.66659E+00 7.80223E-13-2.46556E-13
 -1       151-1.05052E+00-2.36003E+01-3.27415E+00-2.10550E+00-1.20581E-12-2.12063E-13
 -1       152-1.56139E+00-1.35405E+01-2.57635E+00-3.58226E+00-2.43278E-12-8.15598E-13
 -1       153 4.62216E-01-7.17873E-01-1.50071E+00 4.70552E-01-3.10818E-12-1.88694E-12
 -1       154 9.22998E+00 8.74917E+00-1.85288E-01 9.02624E+00-2.71927E-12-2.44682E-12
 -1       155 2.58937E+01 1.15184E+01 1.22395E+00 1.69162E+01-1.92613E-12-2.70067E-12
 -1       156 4.57085E+01 7.92117E+00 2.44764E+00 1.80890E+01-9.65228E-13-2.14878E-12
 -1       157 6.25354E+01 2.48665E+00 3.29675E+00 9.88977E+00-1.55009E-13-5.53835E-13
 -1       158 5.64933E+01 4.62913E+00 3.00201E+00-1.47584E+01-4.65919E-13 2.04503E-12
 -1       159 3.72113E+01 9.98219E+00 1.97035E+00-1.86611E+01-1.29288E-12 2.40574E-12
 -1       160 1.80878E+01 1.12435E+01 6.33108E-01-1.41022E+01-1.70441E-12 2.16061E-12
 -1       161 4.60478E+00 5.32102E+00-7.73419E-01-5.13025E+00-1.94461E-12 1.54232E-12
 -1       162-1.24044E+00-7.02836E+00-2.09903E+00 2.35984E+00-1.38883E-12 8.20122E-13
 -1       163-1.39224E+00-1.91389E+01-2.98697E+00 3.64870E+00-1.50879E-13 6.58015E-14
 -1       164 2.10047E+01 3.68334E+00-5.67508E-02-3.57022E+00-5.28636E-13 1.83464E-14
 -1       165 2.00046E+01 4.20458E+00-4.53028E-02-2.76461E+00-4.71621E-13-5.07011E-13
 -1       166 1.95279E+01 4.48395E+00-3.13934E-02-2.14813E+00-3.64676E-13-7.82699E-13
 -1       167 1.92875E+01 4.62907E+00-2.35260E-02-1.62943E+00-2.52788E-13-9.19077E-13
 -1       168 1.91502E+01 4.71919E+00-1.92446E-02-1.17974E+00-1.54074E-13-9.65414E-13
 -1       169 1.90693E+01 4.77594E+00-1.70560E-02-7.63147E-01-7.20462E-14-9.81287E-13
 -1       170 1.90269E+01 4.80775E+00-1.59911E-02-3.71474E-01 1.71604E-14-9.60346E-13
 -1       171 1.90144E+01 4.81792E+00-1.56791E-02 8.29709E-03 9.24610E-14-9.45952E-13
 -1       172 1.90298E+01 4.80717E+00-1.60214E-02 3.88288E-01 1.66299E-13-9.16132E-13
 -1       173 1.90754E+01 4.77410E+00-1.71089E-02 7.80734E-01 2.40722E-13-8.80955E-13
 -1       174 1.91579E+01 4.71585E+00-1.93253E-02 1.19185E+00 3.10719E-13-8.00368E-13
 -1       175 1.93001E+01 4.62086E+00-2.36784E-02 1.65235E+00 4.17154E-13-6.65294E-13
 -1       176 1.95480E+01 4.46598E+00-3.24961E-02 2.17926E+00 5.02161E-13-4.53908E-13
 -1       177 2.00281E+01 4.18105E+00-4.66986E-02 2.80229E+00 5.55568E-13-7.19633E-14
 -1       178 2.11229E+01 3.45408E+00-5.92054E-02 3.49797E+00 5.27958E-13 6.34770E-13
 -1       179 2.23743E+01 1.13866E+00-3.34991E-01 2.98624E+00 3.93542E-13 1.56412E-12
 -1       180 2.19474E+01 8.54914E-01 6.94399E-04-1.92993E+00-4.69909E-13 6.98826E-13
 -1       181 2.04509E+01 1.90432E-01-9.75010E-03-7.35924E-01-4.01956E-13 4.79647E-13
 -1       182 1.97078E+01 1.04055E-01 1.37671E-02-2.53544E-01-2.93668E-13 2.85540E-13
 -1       183 1.94081E+01 5.13454E-02 1.02492E-02-2.69620E-02-2.15977E-13 1.05032E-13
 -1       184 1.93300E+01 2.83396E-02 5.47836E-03 9.34621E-02-1.60614E-13-1.94588E-14
 -1       185 1.93833E+01 1.68761E-02 2.80440E-03 1.63290E-01-1.24087E-13-7.86699E-14
 -1       186 1.95172E+01 1.08954E-02 1.53492E-03 2.06664E-01-1.40966E-13-1.84700E-13
 -1       187 1.97032E+01 7.64280E-03 8.93496E-04 2.35541E-01-1.11802E-13-2.67192E-13
 -1       188 1.99240E+01 5.44970E-03 4.86487E-04 2.55605E-01-8.40835E-14-2.90037E-13
 -1       189 2.01678E+01 2.97539E-03 1.37082E-04 2.68364E-01-9.40016E-14-3.56968E-13
 -1       190 2.04235E+01-1.06466E-03-2.42222E-04 2.71818E-01-1.07281E-13-5.17319E-13
 -1       191 2.06782E+01-7.93500E-03-6.94549E-04 2.60678E-01-6.56081E-14-5.59671E-13
 -1       192 2.09135E+01-1.87003E-02-1.22128E-03 2.26741E-01-4.59326E-14-5.62910E-13
 -1       193 2.11042E+01-3.37645E-02-1.76952E-03 1.60035E-01-1.40515E-14-5.55996E-13
 -1       194 2.12178E+01-5.20776E-02-2.22301E-03 5.14881E-02-4.05420E-14-4.98462E-13
 -1       195 2.12174E+01-7.01254E-02-2.41147E-03-1.02243E-01-1.10189E-13-5.00311E-13
 -1       196 2.10695E+01-8.12401E-02-2.17173E-03-2.91913E-01-8.59660E-14-6.02840E-13
 -1       197 2.07561E+01-7.62895E-02-1.41395E-03-4.88870E-01-1.19320E-13-6.70902E-13
 -1       198 2.02920E+01-4.71253E-02-2.40915E-04-6.43203E-01-9.37158E-14-7.07994E-13
 -1       199 1.97377E+01 7.23347E-03 1.10007E-03-6.93663E-01-4.88719E-14-8.68318E-13
 -1       200 1.92005E+01 7.46773E-02 2.23235E-03-5.92467E-01 8.81910E-14-8.61474E-13
 -1       201 1.88107E+01 1.31170E-01 2.96128E-03-3.36693E-01 9.19390E-14-7.63848E-13
 -1       202 1.86766E+01 1.52407E-01 3.21616E-03 1.61748E-02 3.86522E-14-6.67046E-13
 -1       203 1.88387E+01 1.28390E-01 2.96343E-03 3.65616E-01 6.54164E-14-6.50281E-13
 -1       204 1.92515E+01 7.05675E-02 2.23641E-03 6.12863E-01-5.37845E-14-5.05606E-13
 -1       205 1.98044E+01 3.89180E-03 1.09276E-03 7.04904E-01 8.80105E-14-5.33898E-13
 -1       206 2.03687E+01-4.83455E-02-2.29402E-04 6.48968E-01 4.20833E-15-4.64022E-13
 -1       207 2.08413E+01-7.50882E-02-1.36518E-03 4.94840E-01 7.30850E-14-4.94530E-13
 -1       208 2.11664E+01-7.80345E-02-2.05424E-03 3.03618E-01-4.29437E-14-4.42059E-13
 -1       209 2.13334E+01-6.55791E-02-2.23654E-03 1.23852E-01-8.35430E-14-3.68933E-13
 -1       210 2.13630E+01-4.67273E-02-2.00258E-03-1.72955E-02-3.81043E-14-3.57579E-13
 -1       211 2.12906E+01-2.79463E-02-1.52473E-03-1.11698E-01-1.46969E-13-4.87339E-13
 -1       212 2.11539E+01-1.26030E-02-9.74195E-04-1.63414E-01 1.03463E-13-3.46506E-13
 -1       213 2.09853E+01-1.70953E-03-4.72123E-04-1.82040E-01 1.74086E-13-2.59411E-13
 -1       214 2.08094E+01 5.06619E-03-7.98224E-05-1.78155E-01-4.93072E-14-5.47378E-13
 -1       215 2.06425E+01 8.61101E-03 1.87898E-04-1.60938E-01-1.15800E-13-5.18372E-13
 -1       216 2.04941E+01 9.89594E-03 3.43948E-04-1.37329E-01-9.69546E-14-6.95076E-13
 -1       217 2.03682E+01 9.75624E-03 4.13220E-04-1.12046E-01 1.60265E-14-5.05027E-13
 -1       218 2.02657E+01 8.82366E-03 4.22289E-04-8.79708E-02-1.15239E-13-6.40633E-13
 -1       219 2.01850E+01 7.53413E-03 3.94136E-04-6.66356E-02-1.88914E-13-7.05264E-13
 -1       220 2.01236E+01 6.16478E-03 3.46317E-04-4.86554E-02-2.03799E-14-5.57854E-13
 -1       221 2.00785E+01 4.87657E-03 2.90915E-04-3.40741E-02 2.86295E-13-4.70168E-13
 -1       222 2.00465E+01 3.75094E-03 2.35305E-04-2.26129E-02 1.57812E-13-1.17476E-13
 -1       223 2.00250E+01 2.81614E-03 1.82995E-04-1.38425E-02 3.46570E-13 1.55830E-13
 -1       224 2.00114E+01 2.06622E-03 1.34440E-04-7.29907E-03 3.13634E-13 3.17494E-13
 -1       225 2.00037E+01 1.46280E-03 8.99963E-05-2.56595E-03 6.80863E-14-1.13986E-14
 -1       226 2.00002E+01 9.03707E-04 5.99564E-05 6.16173E-04 1.55790E-13-7.93623E-15
 -1       227 1.99992E+01 1.81419E-04 5.02899E-05 2.23357E-03-1.62724E-13 7.50672E-14
 -1       228 2.09421E+01 2.76196E-01-5.08734E-02 1.14151E+00 4.06748E-13 1.33152E-12
 -1       229 1.98777E+01 1.27671E-01 8.53474E-03 4.19265E-01 2.96569E-13 1.02549E-12
 -1       230 1.94083E+01 6.04352E-02 1.29329E-02 1.20547E-01 2.04193E-13 7.75625E-13
 -1       231 1.92472E+01 3.17446E-02 7.89013E-03-2.93209E-02 1.95904E-13 5.77349E-13
 -1       232 1.92640E+01 1.90615E-02 4.18418E-03-1.14686E-01 1.46470E-13 4.50153E-13
 -1       233 1.93919E+01 1.36192E-02 2.38824E-03-1.70330E-01 8.32325E-14 3.46643E-13
 -1       234 1.95983E+01 1.23545E-02 1.62529E-03-2.14291E-01 9.25097E-14 3.09929E-13
 -1       235 1.98707E+01 1.40993E-02 1.31721E-03-2.58016E-01 7.94180E-14 2.12424E-13
 -1       236 2.02100E+01 1.84340E-02 1.19763E-03-3.10279E-01 8.99211E-14 8.93576E-14
 -1       237 2.06273E+01 2.52412E-02 1.12212E-03-3.78758E-01 9.68670E-15 1.04353E-13
 -1       238 2.11418E+01 3.43942E-02 9.48371E-04-4.70445E-01-4.46886E-15 1.67903E-13
 -1       239 2.17785E+01 4.52796E-02 4.78980E-04-5.90831E-01 1.86099E-14 1.47482E-13
 -1       240 2.25637E+01 5.58350E-02-5.31091E-04-7.40986E-01 1.07082E-13 7.00505E-14
 -1       241 2.35161E+01 6.06726E-02-2.21615E-03-9.10709E-01 5.99915E-14 1.03745E-14
 -1       242 2.46285E+01 4.79954E-02-4.09671E-03-1.06515E+00-2.53110E-14 4.73874E-14
 -1       243 2.58373E+01-3.93162E-03-4.26660E-03-1.12381E+00-2.63236E-14 1.02468E-13
 -1       244 2.69822E+01-1.21587E-01 1.73578E-03-9.42823E-01-8.65107E-15 1.40873E-13
 -1       245 2.77915E+01-3.27056E-01 1.63714E-02-2.78246E-01-5.62822E-14 1.46831E-13
 -1       246 2.77599E+01-5.07330E-01 2.51407E-02 8.92745E-01 1.64448E-13 2.63496E-13
 -1       247 2.66506E+01-4.26654E-01 3.06015E-04 2.21561E+00 5.95938E-14 3.10151E-13
 -1       248 2.47378E+01 1.29260E-01-6.27831E-02 2.64196E+00 6.95798E-15 2.07483E-13
 -1       249 2.32821E+01 7.58287E-01-1.20478E-01 1.49801E+00-3.08330E-14 1.03924E-13
 -1       250 2.31835E+01 8.83726E-01-1.17951E-01-8.92383E-01 2.01204E-13-2.52302E-13
 -1       251 2.46988E+01 3.28012E-01-5.32024E-02-2.52366E+00 2.30716E-13-4.24889E-13
 -1       252 2.66970E+01-3.17165E-01 7.59045E-03-2.45626E+00 1.01073E-13-6.54234E-13
 -1       253 2.78772E+01-5.08122E-01 2.28480E-02-1.22598E+00 3.32434E-14-7.67596E-13
 -1       254 2.79591E+01-3.73807E-01 1.38603E-02 3.03550E-02-1.34896E-13-4.45136E-13
 -1       255 2.72417E+01-1.78423E-01-8.02305E-04 7.93345E-01-1.99611E-13-3.00170E-13
 -1       256 2.61364E+01-3.63983E-02-6.45948E-03 1.07952E+00-1.08854E-13-6.24292E-14
 -1       257 2.49519E+01 3.48399E-02-5.55211E-03 1.06779E+00-2.67673E-13-5.22117E-14
 -1       258 2.38111E+01 6.00848E-02-2.60138E-03 9.14441E-01-2.19063E-13 2.49687E-13
 -1       259 2.28977E+01 5.99002E-02-3.60145E-04 7.34234E-01 2.31549E-14 3.43353E-13
 -1       260 2.21608E+01 5.15580E-02 8.29154E-04 5.66877E-01 1.93925E-13 4.69978E-13
 -1       261 2.15861E+01 4.11995E-02 1.27794E-03 4.27165E-01-1.83633E-14 2.68381E-13
 -1       262 2.11473E+01 3.16975E-02 1.31906E-03 3.16713E-01-3.30863E-14 1.40647E-13
 -1       263 2.08175E+01 2.38866E-02 1.17950E-03 2.31966E-01 5.02115E-14 2.17107E-13
 -1       264 2.05727E+01 1.77878E-02 9.83293E-04 1.68047E-01 1.66835E-13 2.31694E-14
 -1       265 2.03933E+01 1.31479E-02 7.88578E-04 1.20335E-01 3.02781E-13-5.45015E-14
 -1       266 2.02633E+01 9.66442E-03 6.17918E-04 8.49753E-02-2.87360E-13-1.15723E-13
 -1       267 2.01706E+01 7.06723E-03 4.76899E-04 5.89215E-02 3.18225E-13 9.74297E-14
 -1       268 2.01057E+01 5.13895E-03 3.63881E-04 3.98352E-02-7.35436E-14 2.16625E-15
 -1       269 2.00614E+01 3.71283E-03 2.74542E-04 2.59423E-02 7.85555E-14-1.25532E-13
 -1       270 2.00322E+01 2.66415E-03 2.03690E-04 1.59030E-02 1.76450E-13-3.97246E-13
 -1       271 2.00141E+01 1.89942E-03 1.46199E-04 8.70766E-03 7.10487E-14-4.75880E-13
 -1       272 2.00038E+01 1.33742E-03 9.76562E-05 3.60998E-03-5.78658E-14-3.09366E-13
 -1       273 1.99991E+01 9.07009E-04 6.07280E-05 1.13907E-04-3.25323E-13 1.49200E-13
 -1       274 1.99980E+01 4.97021E-04 6.30349E-05-2.01408E-03-4.89157E-13 1.89665E-13
 -1       275 1.99988E+01-3.14981E-04 1.19744E-04-2.51808E-03-2.87892E-13 1.37984E-13
 -1       276 2.00000E+01-1.27198E-03 3.89916E-05-2.51858E-03 8.57623E-14-4.18055E-13
 -1       277 2.00007E+01-1.11964E-03 5.91054E-06-1.01166E-03 1.04500E-13-1.66793E-13
 -1       278 2.00008E+01 6.27765E-04 7.59569E-07 1.28480E-03-2.11750E-14 2.49631E-14
 -1       279 2.00004E+01 3.83903E-03 2.95099E-06 3.12620E-03 5.75772E-14 4.55367E-13
 -1       280 1.99999E+01 7.81786E-03-4.32621E-06 3.94367E-03-1.22243E-13-2.90186E-13
 -1       281 1.99995E+01 1.17797E-02-1.38497E-05 3.60570E-03-1.64835E-13 4.39251E-14
 -1       282 1.99991E+01 1.47232E-02-2.23614E-05 2.27331E-03 3.22990E-14 1.80124E-13
 -1       283 1.99990E+01 1.59707E-02-2.60357E-05 3.59427E-04 3.30888E-13 1.18487E-13
 -1       284 1.99991E+01 1.52530E-02-2.37075E-05-1.60791E-03 2.95295E-13-1.94041E-13
 -1       285 1.99994E+01 1.27622E-02-1.64034E-05-3.09964E-03 1.68422E-13-2.54350E-13
 -1       286 1.99998E+01 9.17502E-03-6.65171E-06-3.69159E-03-1.12195E-13-4.33327E-13
 -1       287 2.00003E+01 5.22248E-03-2.36244E-08-3.18992E-03-1.87898E-13 1.52097E-13
 -1       288 2.00006E+01 1.85979E-03-2.54784E-06-1.64348E-03-1.16822E-13-1.63659E-13
 -1       289 2.00007E+01-5.95914E-05 2.56040E-05 3.14638E-04-9.43066E-14-1.46163E-13
 -1       290 2.00007E+01 1.80954E-04 1.58683E-05 1.73523E-03-2.54557E-13 5.45396E-14
 -1       291-1.15078E+00-1.13849E+01-9.99437E-01 3.50281E-01 2.17111E-13 3.94879E-13
 -1       292 1.88274E+00-9.43329E+00-8.65652E-01 2.74037E+00 5.74485E-13 7.37688E-13
 -1       293 8.07484E+00-6.41341E+00-6.91634E-01 4.68700E+00 8.30336E-13 1.16420E-12
 -1       294 1.83630E+01-2.80762E+00-2.53938E-01 6.56128E+00 9.55125E-13 9.42579E-13
 -1       295 2.99464E+01 4.11626E-01 1.78272E-01 6.34612E+00 1.02049E-12 6.18339E-13
 -1       296 4.07374E+01 4.25899E+00 7.80393E-01 5.77547E+00 9.93844E-13 2.61846E-13
 -1       297 4.81730E+01 6.28763E+00 1.18126E+00 2.98866E+00 6.50147E-13-1.08608E-13
 -1       298 4.83274E+01 7.26651E+00 1.06112E+00-3.21311E-01 6.81427E-13-6.88134E-13
 -1       299 4.38745E+01 5.85683E+00 7.01888E-01-2.17948E+00 6.23071E-13-8.87013E-13
 -1       300 3.66953E+01 2.50936E+00 4.21724E-01-4.96831E+00 7.40928E-13-9.19542E-13
 -1       301 2.64097E+01-2.32180E+00-1.14284E-02-5.86960E+00 7.43405E-13-6.51090E-13
 -1       302 1.38150E+01-4.41135E+00-4.18878E-01-6.08176E+00 7.52121E-13-1.04625E-12
 -1       303 5.05257E+00-7.92503E+00-8.04845E-01-3.80223E+00 7.40491E-13-7.89590E-13
 -1       304 3.43832E-01-1.02210E+01-8.97005E-01-1.86409E+00 3.03313E-13-6.25652E-13
 -1       305-1.25943E+00-1.04021E+01-8.25622E-01 5.55404E-01-7.64319E-14-9.03055E-13
 -1       306 1.39068E+00-8.37611E+00-5.77556E-01 3.71087E+00-3.89716E-13-8.32862E-13
 -1       307 6.20692E+00-6.43838E+00-6.17551E-01 4.94185E+00-9.89708E-13-9.59056E-13
 -1       308 1.46602E+01-2.58706E+00-2.36876E-01 6.99060E+00-1.10190E-12-8.47378E-13
 -1       309 2.48082E+01 7.74536E-01 1.25556E-01 7.55039E+00-9.72306E-13-8.20705E-13
 -1       310 3.43680E+01 4.09138E+00 4.88506E-01 7.14234E+00-9.44356E-13-6.43791E-13
 -1       311 4.14583E+01 6.15438E+00 6.55651E-01 3.95096E+00-8.36733E-13-1.19932E-13
 -1       312 4.63232E+01 6.96059E+00 9.16831E-01 9.73691E-01-7.00773E-13 1.16344E-13
 -1       313 4.59741E+01 6.55851E+00 9.74321E-01-3.08626E+00-5.70155E-13 4.85806E-13
 -1       314 3.90486E+01 5.33452E+00 6.28564E-01-5.50813E+00-5.63591E-13 6.29524E-13
 -1       315 3.03474E+01 2.91300E+00 3.43360E-01-7.57762E+00-5.63813E-13 8.52013E-13
 -1       316 2.09773E+01-1.07170E+00-1.78763E-02-7.38004E+00-5.45036E-13 7.32914E-13
 -1       317 1.05892E+01-4.34289E+00-3.97680E-01-6.27273E+00-4.58772E-13 7.63167E-13
 -1       318 3.36503E+00-8.03049E+00-6.95083E-01-4.19233E+00-2.00395E-13 7.23109E-13
 -1       319-5.81848E-01-9.95089E+00-8.08201E-01-2.03046E+00-2.58682E-14 3.61489E-13
 -1       320 2.01671E+01 3.02315E+00-1.77554E-02-2.05498E+00-4.92560E-13-4.47154E-13
 -1       321 2.07666E+01 2.20842E+00-1.76179E-02-2.31528E+00-5.56711E-13-1.50699E-13
 -1       322 1.95932E+01 3.72682E+00-1.54255E-02-1.26642E+00-2.56924E-13-7.24362E-13
 -1       323 1.94597E+01 3.89556E+00-1.34244E-02-8.81686E-01-1.53839E-13-7.63230E-13
 -1       324 1.93810E+01 3.99623E+00-1.23716E-02-5.16290E-01-3.56029E-14-7.51290E-13
 -1       325 1.93451E+01 4.04314E+00-1.19216E-02-1.63407E-01 8.00978E-14-7.39987E-13
 -1       326 1.93469E+01 4.04222E+00-1.19392E-02 1.85176E-01 1.70465E-13-7.21616E-13
 -1       327 1.93867E+01 3.99291E+00-1.24201E-02 5.37927E-01 2.45713E-13-7.03742E-13
 -1       328 1.94681E+01 3.89073E+00-1.34942E-02 8.96832E-01 3.38573E-13-6.54725E-13
 -1       329 1.96072E+01 3.71582E+00-1.54591E-02 1.28026E+00 4.44299E-13-5.15066E-13
 -1       330 1.98320E+01 3.43260E+00-1.87036E-02 1.68094E+00 5.61524E-13-3.82838E-13
 -1       331 2.02038E+01 2.96398E+00-2.27509E-02 2.07112E+00 6.20975E-13-1.54883E-13
 -1       332 2.07602E+01 2.12876E+00-3.01985E-02 2.27461E+00 6.25516E-13 2.81174E-13
 -1       333 2.10924E+01 1.18562E+00-2.45656E-02 1.88422E+00 5.46388E-13 6.87287E-13
 -1       334 2.04124E+01 4.92917E-01 8.53937E-03 8.85386E-01 4.40892E-13 5.22144E-13
 -1       335 2.04897E+01 6.82809E-01 1.27025E-02-9.71691E-01-4.44814E-13-6.89855E-14
 -1       336 2.00955E+01 3.51481E-01 7.34864E-03-3.90562E-01-3.33851E-13-1.16897E-13
 -1       337 1.98777E+01 1.97257E-01 4.39232E-03-6.13732E-02-2.66433E-13-1.64346E-13
 -1       338 1.97889E+01 1.17479E-01 2.19799E-03 1.36516E-01-1.94594E-13-2.31847E-13
 -1       339 1.97929E+01 7.42023E-02 1.14018E-03 2.60882E-01-1.60100E-13-2.76659E-13
 -1       340 1.98618E+01 4.98310E-02 6.53731E-04 3.42836E-01-1.22215E-13-2.22531E-13
 -1       341 1.99768E+01 3.48114E-02 3.89493E-04 3.99197E-01-5.63709E-14-2.01914E-13
 -1       342 2.01250E+01 2.26241E-02 1.84663E-04 4.37844E-01-1.17233E-13-2.01239E-13
 -1       343 2.02967E+01 7.79686E-03-4.55760E-05 4.59975E-01-1.88604E-13-2.77244E-13
 -1       344 2.04838E+01-1.47741E-02-3.57088E-04 4.61011E-01-1.70509E-13-3.19363E-13
 -1       345 2.06768E+01-4.96368E-02-7.84552E-04 4.31177E-01-8.91233E-14-4.56465E-13
 -1       346 2.08639E+01-9.96745E-02-1.32980E-03 3.56653E-01 1.52690E-14-4.46732E-13
 -1       347 2.10287E+01-1.63875E-01-1.93910E-03 2.22288E-01-2.44481E-14-4.31511E-13
 -1       348 2.11495E+01-2.34052E-01-2.48157E-03 1.70081E-02-3.08931E-14-4.34755E-13
 -1       349 2.11994E+01-2.91516E-01-2.73355E-03-2.57317E-01-1.36312E-13-3.64347E-13
 -1       350 2.11503E+01-3.06574E-01-2.47536E-03-5.74436E-01-1.41628E-13-3.32462E-13
 -1       351 2.09817E+01-2.45255E-01-1.50249E-03-8.74267E-01-1.44916E-13-4.02880E-13
 -1       352 2.06972E+01-8.73031E-02 6.58290E-05-1.06493E+00-1.08331E-13-4.07332E-13
 -1       353 2.03422E+01 1.49398E-01 1.96525E-03-1.04806E+00 8.18681E-16-3.66199E-13
 -1       354 2.00095E+01 3.94557E-01 3.45801E-03-7.68576E-01 2.11959E-13-3.85667E-13
 -1       355 1.98105E+01 5.49929E-01 4.30541E-03-2.66767E-01 9.27888E-14-3.08014E-13
 -1       356 1.98217E+01 5.44524E-01 4.32957E-03 3.19636E-01-1.13570E-14-3.28848E-13
 -1       357 2.00405E+01 3.80870E-01 3.50049E-03 8.10862E-01 8.32239E-14-3.58901E-13
 -1       358 2.03863E+01 1.34960E-01 1.93778E-03 1.07465E+00 1.23923E-13-2.85852E-13
 -1       359 2.07482E+01-9.56188E-02 4.77948E-05 1.07963E+00 9.05935E-14-1.98908E-13
 -1       360 2.10375E+01-2.44587E-01-1.51168E-03 8.85549E-01 1.92130E-14-1.52860E-13
 -1       361 2.12130E+01-2.97342E-01-2.37545E-03 5.91839E-01-1.33356E-14-2.07196E-13
 -1       362 2.12740E+01-2.76022E-01-2.57617E-03 2.88490E-01 9.43516E-15-2.35469E-13
 -1       363 2.12426E+01-2.14622E-01-2.27471E-03 3.30090E-02-4.71675E-14-1.19155E-13
 -1       364 2.11476E+01-1.42226E-01-1.70478E-03-1.50507E-01-8.80603E-14-9.45723E-14
 -1       365 2.10158E+01-7.69162E-02-1.07832E-03-2.61709E-01 5.12271E-14 2.17378E-13
 -1       366 2.08684E+01-2.66288E-02-5.29802E-04-3.12831E-01-2.13995E-14-1.01542E-13
 -1       367 2.07205E+01 7.44323E-03-1.15590E-04-3.20262E-01-1.44979E-13-2.33783E-13
 -1       368 2.05820E+01 2.75572E-02 1.58984E-04-2.99616E-01-8.95797E-14-2.40648E-13
 -1       369 2.04585E+01 3.71511E-02 3.14650E-04-2.63537E-01-1.81589E-13-1.80877E-13
 -1       370 2.03526E+01 3.95956E-02 3.81443E-04-2.21192E-01 8.67983E-14-3.56116E-15
 -1       371 2.02646E+01 3.76617E-02 3.88623E-04-1.78611E-01-8.74006E-14-2.37121E-13
 -1       372 2.01936E+01 3.33957E-02 3.60181E-04-1.39349E-01-3.04316E-14-2.81734E-14
 -1       373 2.01378E+01 2.81868E-02 3.13768E-04-1.05176E-01-5.39742E-14 1.48986E-13
 -1       374 2.00951E+01 2.29051E-02 2.61282E-04-7.66744E-02 1.21392E-13 1.72249E-13
 -1       375 2.00634E+01 1.80444E-02 2.09869E-04-5.37002E-02 3.63594E-13-5.98487E-14
 -1       376 2.00405E+01 1.38382E-02 1.63268E-04-3.57114E-02 3.65399E-13 1.83293E-13
 -1       377 2.00245E+01 1.03389E-02 1.22436E-04-2.20051E-02 3.08176E-13 1.69774E-13
 -1       378 2.00138E+01 7.47864E-03 8.88402E-05-1.18887E-02-1.87337E-14 2.45440E-13
 -1       379 2.00070E+01 5.05763E-03 6.91268E-05-4.74552E-03 4.68579E-14 1.54406E-13
 -1       380 2.00030E+01 2.70524E-03 1.76705E-05-4.49074E-04 6.53250E-14 1.07353E-13
 -1       381 1.99428E+01 2.37265E-01 1.10015E-02 3.45965E-01 3.32425E-13 3.78326E-13
 -1       382 1.96971E+01 1.29833E-01 6.49825E-03 4.89795E-02 2.73774E-13 2.54613E-13
 -1       383 1.96203E+01 7.89283E-02 3.28293E-03-1.27229E-01 1.89532E-13 1.75965E-13
 -1       384 1.96588E+01 5.56413E-02 1.84733E-03-2.42752E-01 1.23752E-13 1.05878E-13
 -1       385 1.97802E+01 4.83173E-02 1.36507E-03-3.30980E-01 1.08578E-13 3.12030E-14
 -1       386 1.99677E+01 5.21143E-02 1.32723E-03-4.12936E-01 1.54967E-13 4.75389E-16
 -1       387 2.02155E+01 6.49993E-02 1.52465E-03-5.04025E-01 1.24394E-13-2.70803E-14
 -1       388 2.05261E+01 8.60593E-02 1.86634E-03-6.16906E-01-7.39350E-15-3.77190E-14
 -1       389 2.09075E+01 1.14349E-01 2.26226E-03-7.62342E-01-8.80220E-15-6.86473E-14
 -1       390 2.13717E+01 1.47334E-01 2.55080E-03-9.48176E-01 1.38626E-15-1.83801E-14
 -1       391 2.19324E+01 1.78026E-01 2.43542E-03-1.17551E+00 1.50058E-13 2.24929E-15
 -1       392 2.26014E+01 1.89805E-01 1.45870E-03-1.43013E+00 4.50684E-14 3.24702E-14
 -1       393 2.33856E+01 1.48469E-01-8.76359E-04-1.66642E+00-2.93989E-14-4.62456E-15
 -1       394 2.42818E+01-4.87637E-03-4.63355E-03-1.78301E+00-8.76698E-14 1.91648E-14
 -1       395 2.52727E+01-3.44333E-01-8.23787E-03-1.59856E+00 2.02572E-14 1.66583E-13
 -1       396 2.63610E+01-9.30794E-01-7.10287E-03-8.06733E-01-1.48255E-13 8.96087E-14
 -1       397 2.72617E+01-1.46777E+00-8.44794E-03 6.92750E-01-2.25488E-14 2.68034E-13
 -1       398 2.76689E+01-1.34512E+00-3.34446E-02 2.57969E+00 7.01532E-14 3.23418E-13
 -1       399 2.71927E+01 1.65349E-01-8.38866E-02 3.52587E+00 1.25084E-13 4.03995E-13
 -1       400 2.63802E+01 2.06836E+00-1.13264E-01 2.28533E+00 1.67193E-13 3.74410E-14
 -1       401 2.61466E+01 2.69694E+00-1.16819E-01-9.30324E-01 3.88634E-13-3.76965E-13
 -1       402 2.69275E+01 1.10665E+00-8.65955E-02-3.28264E+00 4.06165E-13-6.13770E-13
 -1       403 2.77259E+01-9.11455E-01-4.21710E-02-3.21681E+00 2.25721E-13-8.94223E-13
 -1       404 2.76048E+01-1.55378E+00-2.32773E-02-1.47751E+00 2.67898E-14-7.00469E-13
 -1       405 2.68246E+01-1.18340E+00-7.63543E-03 2.82135E-01-2.72447E-13-4.16259E-13
 -1       406 2.57906E+01-5.82168E-01-9.88116E-03 1.32532E+00-3.71805E-13-1.55157E-13
 -1       407 2.47681E+01-1.29808E-01-7.19984E-03 1.71823E+00-1.57822E-13 2.46157E-15
 -1       408 2.38474E+01 1.04648E-01-2.58218E-03 1.69534E+00-3.24848E-13 1.65938E-13
 -1       409 2.30109E+01 1.93356E-01 1.04940E-03 1.46827E+00-1.39384E-13 2.66095E-13
 -1       410 2.23441E+01 1.98844E-01 2.67327E-03 1.19654E+00-1.63649E-13 4.55118E-14
 -1       411 2.17955E+01 1.74072E-01 3.03339E-03 9.38151E-01 1.30086E-13 2.16191E-13
 -1       412 2.13550E+01 1.41236E-01 2.79118E-03 7.17593E-01 2.25554E-13 1.22256E-13
 -1       413 2.10081E+01 1.10065E-01 2.32860E-03 5.39646E-01-1.47517E-14-6.09759E-14
 -1       414 2.07391E+01 8.38538E-02 1.84442E-03 4.00597E-01-3.47685E-14-6.74030E-14
 -1       415 2.05336E+01 6.30372E-02 1.41889E-03 2.94007E-01 2.86440E-13 4.33512E-14
 -1       416 2.03786E+01 4.69841E-02 1.07292E-03 2.13287E-01 1.33277E-13 3.38910E-13
 -1       417 2.02632E+01 3.47961E-02 8.02560E-04 1.52681E-01 1.17638E-13 2.76608E-13
 -1       418 2.01786E+01 2.56216E-02 5.95695E-04 1.07491E-01 4.22781E-14-1.31678E-13
 -1       419 2.01176E+01 1.87515E-02 4.39236E-04 7.40195E-02 9.19850E-14-3.95096E-14
 -1       420 2.00745E+01 1.36286E-02 3.21576E-04 4.94019E-02 5.33429E-14 8.42353E-14
 -1       421 2.00449E+01 9.82619E-03 2.32952E-04 3.14440E-02 3.00151E-13 2.01582E-13
 -1       422 2.00252E+01 7.01880E-03 1.65243E-04 1.84746E-02 1.27060E-14-3.50205E-15
 -1       423 2.00128E+01 4.92736E-03 1.12969E-04 9.23989E-03-2.18707E-13 3.88563E-13
 -1       424 2.00055E+01 3.28549E-03 7.00497E-05 2.89495E-03-3.81022E-13-4.24684E-14
 -1       425 2.00018E+01 1.73658E-03 4.04336E-05-1.01790E-03-2.69146E-13 2.16215E-13
 -1       426 2.00007E+01 5.06761E-04 1.27318E-05-2.25130E-03-3.00566E-13-2.17115E-14
 -1       427 2.00026E+01 1.05923E-02 2.23274E-05 5.95276E-03 1.10675E-13 6.32728E-13
 -1       428 2.00035E+01 5.81965E-03 2.45800E-05 2.78177E-03-3.55099E-14-1.60412E-13
 -1       429 2.00026E+01 2.46720E-03 1.75995E-05-2.63438E-04 6.78134E-14-3.19323E-13
 -1       430 2.00010E+01 1.58663E-02 1.02908E-05 7.75970E-03 1.35178E-13-2.81780E-13
 -1       431 1.99991E+01 2.09685E-02-3.86125E-06 7.66924E-03 1.35111E-13 3.94983E-14
 -1       432 1.99975E+01 2.49728E-02-1.64440E-05 5.71356E-03 5.90550E-14 8.04004E-14
 -1       433 1.99966E+01 2.72107E-02-2.42519E-05 2.42225E-03-2.29502E-13 2.48947E-13
 -1       434 1.99965E+01 2.73134E-02-2.52174E-05-1.39306E-03-7.89588E-14-1.17898E-13
 -1       435 1.99973E+01 2.52773E-02-1.90617E-05-4.82715E-03 1.51810E-13-3.54649E-13
 -1       436 1.99987E+01 2.15420E-02-7.75454E-06-7.04467E-03 2.27275E-13-4.16339E-13
 -1       437 2.00005E+01 1.65969E-02 4.10169E-06-7.58330E-03 2.53411E-14 8.00305E-14
 -1       438 2.00021E+01 1.13075E-02 1.46875E-05-6.24516E-03 1.06874E-13 1.02455E-13
 -1       439 2.00031E+01 6.32169E-03 1.71942E-05-3.39093E-03 1.55034E-14-2.61637E-13
 -1       440 9.78825E+00-5.84890E+00-5.05023E-02 6.33350E+00-6.62664E-14 6.90926E-13
 -1       441 1.51642E+00-3.71383E+00 2.26935E-02-6.42848E-01-2.05991E-13 3.94768E-13
 -1       442 2.96208E+00-4.46295E+00-1.60263E-02 3.14672E+00-5.89737E-14 5.88987E-13
 -1       443 1.80959E+01-6.20125E+00-7.38465E-02 6.43083E+00 7.36078E-14 6.51694E-13
 -1       444 2.75685E+01-5.02964E+00-3.23457E-02 3.76807E+00 3.13999E-13 8.51402E-14
 -1       445 1.98223E+01 3.45219E+00-1.75370E-02-1.68145E+00-3.72672E-13-6.31546E-13
 -1       446 3.66089E+01 4.19411E+00 3.40285E-02-1.35760E+00 8.37552E-13-2.48898E-13
 -1       447 3.82179E+01 7.44137E+00 1.28021E-01-6.45284E-01 8.45018E-13-2.62866E-13
 -1       448 3.66768E+01 6.86236E+00 1.51610E-02 1.06341E+00 6.44013E-13-1.48881E-13
 -1       449 3.62306E+01 2.63828E+00 4.53202E-02 8.33103E-01 2.91864E-13-1.91458E-13
 -1       450 3.18345E+01-2.17310E+00-2.43168E-02-1.34670E+00 3.37196E-13-3.12944E-14
 -1       451 2.32853E+01-5.93277E+00-1.57360E-02-5.31332E+00 1.21972E-13-3.00052E-13
 -1       452 1.41478E+01-6.23214E+00-7.38268E-02-6.71312E+00 9.58955E-14-6.98473E-13
 -1       453 6.58403E+00-5.62157E+00-7.96203E-02-5.47344E+00-3.88578E-16-5.42261E-13
 -1       454 2.14418E+00-4.11827E+00-8.66412E-03-2.02578E+00 2.55490E-14-8.16625E-13
 -1       455 1.81635E+00-4.08872E+00 5.79030E-03 2.30987E+00 9.92713E-14-1.00525E-12
 -1       456 8.16131E+00-5.17532E+00-1.27402E-02 6.88631E+00 4.98906E-14-7.56159E-13
 -1       457 1.46095E+01-5.54193E+00-4.78477E-02 7.51386E+00-1.17489E-13-3.49579E-13
 -1       458 2.32420E+01-4.25795E+00-1.03857E-02 6.08950E+00-2.83634E-13-9.36612E-14
 -1       459 3.01952E+01-7.70933E-01 2.99258E-02 3.21952E+00-4.47198E-13 6.85285E-14
 -1       460 3.41060E+01 3.51072E+00 4.56636E-02 1.12191E+00-7.86218E-13 1.85546E-13
 -1       461 3.42242E+01 7.51233E+00-5.44922E-02-4.85966E-01-8.67181E-13 1.12230E-13
 -1       462 3.64041E+01 8.24632E+00 5.81995E-02 3.15130E-03-6.89615E-13 8.06438E-14
 -1       463 3.48876E+01 6.18722E+00 2.08776E-02 8.75870E-02-3.84651E-13-8.11851E-14
 -1       464 3.22626E+01 1.36249E+00-1.18839E-02-1.46394E+00-1.29525E-13-1.92860E-13
 -1       465 2.84222E+01-2.21917E+00 3.15896E-02-3.97813E+00 2.87478E-14 1.14256E-13
 -1       466 1.96406E+01-5.17872E+00-2.15161E-02-6.97678E+00 1.15241E-13 3.03993E-13
 -1       467 1.17266E+01-5.26703E+00 1.81012E-02-7.56369E+00 2.30940E-13 5.69940E-13
 -1       468 4.46656E+00-4.57695E+00-3.84420E-03-5.35329E+00 1.33935E-13 4.54373E-13
 -1       469 3.42172E+01-3.66175E-01 4.07730E-02 4.48297E-01 8.57622E-13-1.36641E-13
 -1       470 6.09768E+00-2.82224E+00 1.32940E-01 5.17670E+00 2.27131E-13-7.26572E-13
 -1       471 2.84944E+01-5.39271E+00-4.86022E-02-2.08162E+00 6.62456E-14 1.62037E-13
 -1       472 2.04161E+01 8.50515E-01 4.08132E-03 9.00841E-01 4.55328E-13 6.31301E-14
 -1       473 1.97125E+01 3.18389E+00-5.20789E-03-5.88065E-01-8.36739E-14-6.60450E-13
 -1       474 1.98248E+01 2.99422E+00-5.62521E-03-8.88534E-01-2.00743E-13-6.58310E-13
 -1       475 1.96298E+01 3.32266E+00-4.86762E-03 1.00334E-02 1.14763E-13-6.75744E-13
 -1       476 1.96526E+01 3.28733E+00-4.95518E-03 3.07270E-01 1.94797E-13-6.48350E-13
 -1       477 1.97180E+01 3.18132E+00-5.29120E-03 6.01038E-01 2.82081E-13-6.13582E-13
 -1       478 1.98333E+01 2.98821E+00-5.87630E-03 8.99609E-01 3.97754E-13-5.12504E-13
 -1       479 2.00064E+01 2.68380E+00-6.48252E-03 1.18530E+00 4.87401E-13-3.80071E-13
 -1       480 2.02611E+01 2.21782E+00-5.67496E-03 1.42903E+00 5.53102E-13-2.56625E-13
 -1       481 2.01812E+01 4.85213E-01 5.22816E-03 3.70408E-01 3.59848E-13 3.62774E-16
 -1       482 2.03851E+01 9.98183E-01 2.83639E-03-8.60621E-01-4.08282E-13-2.89104E-13
 -1       483 3.25060E+01 4.75509E-01-1.11697E-01-2.86288E+00 6.87478E-13-4.06647E-13
 -1       484 2.02335E+01 5.83472E-01 2.42987E-03-3.65048E-01-3.05072E-13-2.82099E-13
 -1       485 2.01134E+01 3.54560E-01 1.22683E-03-3.26741E-02-2.61889E-13-2.67115E-13
 -1       486 2.00483E+01 2.25057E-01 6.07263E-04 1.88150E-01-1.81956E-13-2.76720E-13
 -1       487 2.00348E+01 1.49757E-01 3.23283E-04 3.37968E-01-1.13885E-13-2.58265E-13
 -1       488 2.00644E+01 1.04282E-01 1.93316E-04 4.42938E-01-9.60299E-14-2.78488E-13
 -1       489 2.01293E+01 7.29034E-02 1.11362E-04 5.18488E-01-8.87993E-14-3.46580E-13
 -1       490 2.02239E+01 4.34374E-02 2.99686E-05 5.71596E-01-1.44727E-13-3.04982E-13
 -1       491 2.03451E+01 5.02793E-03-7.98283E-05 6.01931E-01-1.51792E-13-1.95712E-13
 -1       492 2.04914E+01-5.23630E-02-2.39581E-04 6.02387E-01-1.83207E-13-1.62859E-13
 -1       493 2.06618E+01-1.36900E-01-4.61670E-04 5.59652E-01-1.08265E-13-1.78685E-13
 -1       494 2.08538E+01-2.51910E-01-7.41778E-04 4.55644E-01-6.41608E-15-2.93764E-13
 -1       495 2.10602E+01-3.90618E-01-1.04180E-03 2.71047E-01-9.35975E-15-2.79569E-13
 -1       496 2.12643E+01-5.29113E-01-1.27643E-03-7.40542E-03-6.90503E-14-2.67302E-13
 -1       497 2.14357E+01-6.20400E-01-1.25767E-03-3.74398E-01-1.47469E-13-2.56844E-13
 -1       498 2.15294E+01-5.96927E-01-9.86403E-04-7.88785E-01-1.42147E-13-2.94578E-13
 -1       499 2.14977E+01-3.91493E-01-2.53066E-04-1.15851E+00-1.20175E-13-1.77682E-13
 -1       500 2.13198E+01 1.50016E-02 4.87436E-04-1.34501E+00-4.80978E-14-1.37480E-13
 -1       501 2.10393E+01 5.43045E-01 1.49403E-03-1.20994E+00 9.50470E-14-1.94000E-13
 -1       502 2.07819E+01 9.93557E-01 1.28723E-03-7.08271E-01 2.12535E-13-2.55065E-13
 -1       503 2.06814E+01 1.16810E+00 1.30628E-03 3.61844E-02 1.17827E-13-2.04481E-13
 -1       504 2.08010E+01 9.72168E-01 1.76533E-03 7.73049E-01-7.91815E-15-1.90371E-13
 -1       505 2.10708E+01 5.10323E-01 1.62239E-03 1.25261E+00 1.77368E-14-3.74094E-13
 -1       506 2.13520E+01-8.72954E-03 5.71989E-04 1.36720E+00 1.67891E-13-5.41636E-13
 -1       507 2.15272E+01-3.98383E-01-3.55234E-04 1.17110E+00 1.30974E-13-4.20376E-13
 -1       508 2.15573E+01-5.84683E-01-8.64781E-04 8.05328E-01-1.07572E-13-4.40175E-13
 -1       509 2.14671E+01-5.93479E-01-1.15066E-03 4.05891E-01-4.77782E-14-3.45268E-13
 -1       510 2.13050E+01-4.92663E-01-1.15526E-03 6.06963E-02 3.31929E-14-3.51307E-13
 -1       511 2.11150E+01-3.48795E-01-9.35136E-04-1.92291E-01 1.11262E-14-6.69930E-14
 -1       512 2.09264E+01-2.07523E-01-6.29312E-04-3.49889E-01 5.36067E-14-1.02496E-13
 -1       513 2.07545E+01-9.20216E-02-3.45755E-04-4.26910E-01-1.06321E-13-1.41093E-13
 -1       514 2.06051E+01-9.18937E-03-1.25281E-04-4.44218E-01-1.38605E-13-8.38979E-14
 -1       515 2.04790E+01 4.32630E-02 2.62266E-05-4.22052E-01-1.12917E-14 1.10658E-14
 -1       516 2.03745E+01 7.15035E-02 1.16790E-04-3.77104E-01 1.66506E-14 3.62701E-13
 -1       517 2.02890E+01 8.24158E-02 1.60741E-04-3.21762E-01 3.39490E-14 3.95418E-13
 -1       518 2.02200E+01 8.20685E-02 1.72703E-04-2.64448E-01-2.48762E-13 2.44281E-13
 -1       519 2.01650E+01 7.51838E-02 1.64829E-04-2.10367E-01-2.37391E-14 1.85924E-13
 -1       520 2.01216E+01 6.51258E-02 1.46315E-04-1.62333E-01-4.75098E-14 5.70052E-14
 -1       521 2.00880E+01 5.41100E-02 1.23425E-04-1.21511E-01 3.70881E-14 3.05787E-13
 -1       522 2.00624E+01 4.34762E-02 1.00116E-04-8.80100E-02 4.46527E-14 3.29940E-14
 -1       523 2.00431E+01 3.39505E-02 7.85182E-05-6.13236E-02 4.91627E-13 4.09456E-14
 -1       524 2.00289E+01 2.58164E-02 6.01261E-05-4.06305E-02 4.19705E-13 1.58871E-13
 -1       525 2.00186E+01 1.90419E-02 4.51177E-05-2.50518E-02 7.05038E-14 1.89424E-13
 -1       526 2.00112E+01 1.34114E-02 3.64842E-05-1.37608E-02-8.29908E-14 3.38674E-14
 -1       527 1.99630E+01 1.95217E-01 1.33443E-03-1.94702E-01 2.28702E-13-7.08640E-14
 -1       528 1.99673E+01 1.50230E-01 8.34672E-04-3.57821E-01 1.74378E-13-1.24288E-13
 -1       529 2.00283E+01 1.39803E-01 7.25511E-04-4.92119E-01 1.66465E-13-1.77786E-13
 -1       530 2.01351E+01 1.55143E-01 8.01405E-04-6.21988E-01 1.17903E-13-1.78533E-13
 -1       531 2.02808E+01 1.91884E-01 9.91546E-04-7.66283E-01 6.98161E-14-1.41421E-13
 -1       532 2.04611E+01 2.47037E-01 1.25706E-03-9.40309E-01 2.75331E-14-1.70466E-13
 -1       533 2.06740E+01 3.16116E-01 1.54120E-03-1.15605E+00 9.30647E-15-2.10956E-13
 -1       534 2.09193E+01 3.88764E-01 1.72883E-03-1.42044E+00 2.71007E-14-1.69048E-13
 -1       535 2.12014E+01 4.41111E-01 1.60232E-03-1.73077E+00 4.15839E-14-1.20494E-13
 -1       536 2.15365E+01 4.23407E-01 8.19579E-04-2.06573E+00-5.33761E-14-2.42699E-14
 -1       537 2.19705E+01 2.44109E-01-1.08985E-03-2.37026E+00-4.08836E-14-5.26108E-14
 -1       538 2.26093E+01-2.34150E-01-3.27146E-03-2.52901E+00-8.31276E-14-1.11520E-13
 -1       539 2.36978E+01-1.20914E+00-5.55634E-03-2.31412E+00-1.05718E-13 3.61592E-14
 -1       540 2.54170E+01-2.56499E+00-4.00660E-03-1.36922E+00-1.81057E-13 4.41995E-14
 -1       541 2.76313E+01-3.36389E+00-4.93137E-02 5.10983E-01-1.61902E-14 1.23228E-14
 -1       542 2.98568E+01-1.98577E+00-8.05304E-02 2.77314E+00 6.87939E-14-5.12784E-14
 -1       543 3.06552E+01 5.67196E+00-1.58004E-01 8.06507E-01 6.85937E-13 5.70100E-14
 -1       544 3.00643E+01 3.75666E+00-1.61670E-01-2.77156E+00 5.44856E-13-3.95895E-13
 -1       545 3.04133E+01-5.18166E-01-9.88723E-02-3.55656E+00 4.16816E-13-6.82780E-13
 -1       546 2.84110E+01-2.91540E+00-5.03239E-02-1.58149E+00 1.38094E-13-5.16955E-13
 -1       547 2.63563E+01-2.90002E+00-2.41196E-02 5.88301E-01-3.39000E-13-3.65184E-13
 -1       548 2.45274E+01-1.63041E+00-1.01938E-02 1.87018E+00-4.93019E-13-1.86140E-13
 -1       549 2.32246E+01-5.45328E-01-5.37341E-03 2.39047E+00-3.28625E-13-9.64150E-14
 -1       550 2.24458E+01 9.03412E-02-2.58559E-03 2.35950E+00-3.28644E-13 3.57149E-14
 -1       551 2.19070E+01 3.83588E-01 5.27582E-04 2.07982E+00-1.47134E-13-1.64780E-13
 -1       552 2.15348E+01 4.50703E-01 1.89948E-03 1.73394E+00-1.74730E-13-8.07099E-14
 -1       553 2.12349E+01 4.21427E-01 2.30291E-03 1.39314E+00-2.75373E-14-2.26103E-13
 -1       554 2.09842E+01 3.56654E-01 2.16360E-03 1.09149E+00 2.69994E-13-3.54598E-13
 -1       555 2.07733E+01 2.86504E-01 1.81868E-03 8.39788E-01 1.70550E-13-1.78107E-13
 -1       556 2.05979E+01 2.23416E-01 1.44245E-03 6.37076E-01-5.73798E-14-9.98537E-14
 -1       557 2.04547E+01 1.71134E-01 1.10749E-03 4.77460E-01 4.35029E-14-1.40674E-13
 -1       558 2.03398E+01 1.29588E-01 8.34295E-04 3.53678E-01 6.74875E-14 1.39246E-13
 -1       559 2.02493E+01 9.73251E-02 6.21107E-04 2.58741E-01 1.91919E-13 1.50737E-13
 -1       560 2.01795E+01 7.25965E-02 4.58571E-04 1.86572E-01 1.85975E-13 2.39497E-13
 -1       561 2.01264E+01 5.37940E-02 3.36305E-04 1.32149E-01 1.40889E-13 2.18159E-13
 -1       562 2.00869E+01 3.95760E-02 2.44999E-04 9.14364E-02 3.49948E-14 2.80433E-13
 -1       563 2.00581E+01 2.88733E-02 1.76805E-04 6.12523E-02 9.54060E-14 1.57279E-13
 -1       564 2.00375E+01 2.08501E-02 1.24754E-04 3.91157E-02 3.37756E-13 4.15629E-13
 -1       565 2.00231E+01 1.48427E-02 9.04151E-05 2.31201E-02-2.42774E-13 2.59304E-13
 -1       566 2.00134E+01 1.02516E-02 6.81214E-05 1.18317E-02-1.19553E-13 1.04012E-13
 -1       567 2.00070E+01 6.40697E-03 4.84082E-05 4.23065E-03-2.47253E-13 1.85644E-14
 -1       568 1.99996E+01 3.02024E-02 5.95238E-08 1.32903E-02 3.45135E-13-3.05177E-13
 -1       569 1.99958E+01 3.64561E-02-5.08134E-06 1.09620E-02 3.79300E-13 1.53784E-13
 -1       570 2.00064E+01 1.48931E-02-5.96191E-06 9.88786E-03 2.90574E-14 2.14861E-13
 -1       571 2.00035E+01 2.26876E-02 5.15658E-06 1.28821E-02 4.75907E-14 4.15465E-13
 -1       572 1.99932E+01 4.05416E-02-9.71463E-06 6.38736E-03 2.29820E-13-1.63224E-13
 -1       573 1.99921E+01 4.19183E-02-1.17962E-05 5.43657E-04-1.76607E-14 1.36849E-13
 -1       574 1.99929E+01 4.04251E-02-1.04443E-05-5.35652E-03-2.46486E-14-1.65577E-14
 -1       575 1.99952E+01 3.63913E-02-6.36422E-06-1.00432E-02 1.61527E-13-2.70943E-13
 -1       576 1.99987E+01 3.02251E-02-4.58867E-06-1.27321E-02 2.68356E-13-5.45935E-13
 -1       577 2.00025E+01 2.28557E-02-5.52358E-06-1.28121E-02 1.65872E-13 8.12320E-15
 -1       578 2.00055E+01 1.52628E-02 1.34011E-05-1.04222E-02-9.15561E-14-2.06869E-13
 -1       579 1.70537E+01-5.32545E+00 9.04495E-02 6.41119E+00-2.27277E-13 5.75678E-13
 -1       580 5.58899E+00-1.38696E+00 1.79836E-01-3.43025E+00 1.33296E-14 2.29539E-14
 -1       581 2.00301E+01 2.93378E-01 2.67721E-03 3.11319E-02 2.74122E-13-2.94916E-14
 -1       582 4.99327E+00-1.37210E+00 1.77095E-01 1.61450E+00-3.37088E-13 7.59601E-13
 -1       583 1.06409E+01-3.12197E+00 1.44095E-01-6.72106E+00 2.99837E-13 5.29306E-13
 -1       584 2.04249E+01 1.77216E+00-5.97810E-03-1.47065E+00-4.79034E-13-3.65622E-13
 -1       585 2.40565E+01-5.92956E+00 1.44139E-02 4.43589E+00-9.61731E-15 1.53526E-13
 -1       586 3.02386E+01 2.85114E+00-1.40318E-01 1.51580E+00-1.16296E-14-4.89886E-13
 -1       587 7.12387E+00-2.65861E+00 1.45164E-01-4.49631E+00-1.73250E-13-4.87235E-13
 -1       588 1.96494E+01 3.28916E+00-4.95126E-03-2.87805E-01 2.69115E-14-6.54275E-13
 -1       589 2.72799E+01-4.05564E+00-2.89241E-02 2.84429E+00-2.08618E-14 2.81365E-13
 -1       590 3.25853E+01 4.89037E+00-1.76895E-01-2.28719E+00 6.74669E-13-2.64788E-14
 -1       591 3.19228E+01 3.27257E+00-1.94404E-01 2.97409E+00 3.41491E-13-3.04062E-14
 -1       592 3.24352E+01-9.12273E-01-7.54211E-02 2.14276E+00 9.69676E-14 6.34215E-14
 -1       593 2.01938E+01-5.72124E+00 5.24104E-02-5.78624E+00-2.29768E-13-3.55242E-13
 -1       594 1.37125E+01-4.46655E+00 1.22961E-01-6.44911E+00-1.97342E-13-5.94511E-13
 -1       595 4.98331E+00-9.27396E-01 2.04930E-01 2.36572E-01 6.31136E-15-7.71869E-13
 -1       596 1.46393E+01-4.47703E+00 1.14240E-01 7.28748E+00 3.43184E-13-1.70881E-13
 -1       597 1.83270E+01-5.10753E+00 8.00267E-02-6.99858E+00 2.37650E-13 2.66693E-13
 -1       598 2.10183E+01-5.50274E+00 3.96966E-02 6.33960E+00 1.91180E-13 9.65981E-14
 -1       599 3.01274E+01-2.07090E-02-9.83028E-02-3.84053E-01-3.70808E-13 3.79495E-13
 -1       600 3.01498E+01 4.62884E+00-1.64376E-01-1.67127E+00-6.71935E-13 3.81764E-13
 -1       601 2.97147E+01 7.62205E+00-1.91466E-01-1.30466E-01-5.89057E-13-1.55623E-13
 -1       602 2.98430E+01 6.75262E+00-1.77683E-01 1.18949E+00-3.01065E-13-3.27974E-13
 -1       603 2.90101E+01-1.97304E+00-7.93072E-02-4.80219E-01 2.14476E-13-4.62623E-13
 -1       604 2.53015E+01-4.95647E+00 1.25533E-04-4.21372E+00 2.95680E-13-1.45293E-13
 -1       605 9.48292E+00-2.85631E+00 1.49355E-01 5.38218E+00-2.52694E-13 5.65478E-13
 -1       606 2.06110E+01 1.31295E+00-9.31747E-04 1.49117E+00 5.54294E-13 1.41785E-13
 -1       607 3.04862E+01-3.45661E+00-7.26199E-02-1.39846E-01 3.75632E-13-4.60756E-13
 -1       608 1.99847E+01 2.69475E+00-9.64377E-03-1.16956E+00-3.11239E-13-6.15742E-13
 -1       609 2.81931E+01-5.23749E+00-8.15864E-04 1.13465E+00-8.98968E-14-4.45595E-13
 -1       610 2.75918E+01 5.98767E+00-1.42574E-01-1.38589E+00-4.63941E-13 1.44464E-13
 -1       611 2.99828E+01 2.04277E+00-1.72880E-01 3.50735E+00 2.57259E-13 1.28342E-13
 -1       612 2.00075E+01 9.89759E-03 3.03082E-05-8.02018E-03-9.06052E-14 1.74087E-13
 -1       613 1.14330E+01-2.50072E+00 1.56007E-01 6.32365E+00 3.27662E-13-5.73611E-13
 -1       614 2.50115E+01-5.61259E+00 1.89111E-02-3.42968E+00-1.20973E-13 6.10709E-14
 -1       615 7.26504E+00-5.19481E-01 1.79633E-01 2.92563E+00 2.08732E-13-7.57144E-13
 -1       616 1.99119E+01 2.57570E+00-1.54606E-03 3.50458E-01 2.19966E-13-5.71736E-13
 -1       617 1.98695E+01 2.65758E+00-1.46987E-03 1.22887E-01 1.40503E-13-6.01011E-13
 -1       618 2.01172E+01 2.13392E+00-1.57761E-03 7.62894E-01 3.83138E-13-3.80723E-13
 -1       619 2.02606E+01 1.73758E+00-2.22787E-03 8.98955E-01 4.48762E-13-2.87283E-13
 -1       620 2.03621E+01 1.08406E+00 2.89638E-03 7.33042E-01 4.11827E-13-1.85374E-13
 -1       621 9.45397E+00-4.77488E-01 1.41798E-01 3.33532E+00-3.67817E-13 6.51687E-13
 -1       622 2.02649E+01 6.86078E-01 1.20506E-03 2.87976E-01 3.28808E-13-1.83540E-13
 -1       623 2.26541E+01-4.88081E+00 4.02229E-02-4.75858E+00 4.44186E-13-2.59640E-13
 -1       624 2.02822E+01 7.48629E-01 6.21207E-04-2.59943E-01-2.62465E-13-3.23432E-13
 -1       625 2.02245E+01 4.85880E-01 2.45383E-04 3.52283E-02-2.23727E-13-3.00442E-13
 -1       626 2.01788E+01 3.25941E-01 1.16570E-04 2.47220E-01-1.60546E-13-3.03487E-13
 -1       627 2.01549E+01 2.27614E-01 6.33790E-05 4.01382E-01-1.27650E-13-3.44981E-13
 -1       628 2.01558E+01 1.64161E-01 4.11074E-05 5.16794E-01-1.18972E-13-3.75922E-13
 -1       629 2.01827E+01 1.15252E-01 2.37076E-05 6.05574E-01-8.07917E-14-2.93382E-13
 -1       630 2.02382E+01 6.32754E-02-8.40733E-07 6.72870E-01-7.71918E-14-2.75938E-13
 -1       631 2.03274E+01-8.29793E-03-4.09964E-05 7.16850E-01-1.21654E-13-1.98783E-13
 -1       632 2.04583E+01-1.14703E-01-1.05802E-04 7.28516E-01-1.33787E-13-1.02973E-13
 -1       633 2.06405E+01-2.67408E-01-2.01255E-04 6.91550E-01-1.04493E-13-6.63496E-14
 -1       634 2.08825E+01-4.68504E-01-3.32597E-04 5.82911E-01-6.62116E-14-1.42026E-13
 -1       635 2.11858E+01-7.01159E-01-4.83707E-04 3.75701E-01-4.43937E-14-1.61573E-13
 -1       636 2.15338E+01-9.17049E-01-6.10860E-04 4.73958E-02-1.37707E-13-1.15345E-13
 -1       637 2.18804E+01-1.02625E+00-3.96815E-04-4.02492E-01-1.75604E-13-9.29335E-14
 -1       638 2.21436E+01-9.05363E-01-5.56052E-04-9.22808E-01-6.27668E-14-8.69551E-14
 -1       639 2.22275E+01-4.42869E-01-7.79700E-05-1.37742E+00-1.93806E-14-8.16428E-14
 -1       640 2.20806E+01 3.53034E-01-1.27030E-03-1.55661E+00 4.66660E-14 1.09069E-14
 -1       641 2.17843E+01 1.26574E+00-1.56748E-05-1.23684E+00 3.22282E-14-2.26492E-14
 -1       642 2.15453E+01 1.87272E+00-2.49164E-03-4.54341E-01 1.81758E-13-1.58395E-13
 -1       643 2.15561E+01 1.85339E+00-1.28038E-03 5.40571E-01 7.96724E-14-1.73546E-13
 -1       644 2.18109E+01 1.20983E+00 5.13544E-04 1.30269E+00-1.31766E-13-7.75769E-14
 -1       645 2.21028E+01 3.03435E-01-9.39711E-04 1.58155E+00-2.09318E-14-2.10164E-13
 -1       646 2.22362E+01-4.68656E-01-1.02992E-03 1.38695E+00 1.48885E-13-2.55580E-13
 -1       647 2.21399E+01-8.96441E-01-6.85179E-05 9.30391E-01 6.49981E-14-3.93547E-13
 -1       648 2.18707E+01-9.90484E-01-1.57671E-04 4.26133E-01 9.15446E-15-2.50236E-13
 -1       649 2.15257E+01-8.63856E-01-4.05474E-04 4.67966E-05-3.71656E-14-2.83332E-15
 -1       650 2.11833E+01-6.38231E-01-4.21807E-04-3.00981E-01 1.67467E-13-5.80742E-14
 -1       651 2.08874E+01-4.01039E-01-2.87105E-04-4.80000E-01-1.13885E-14-1.08852E-13
 -1       652 2.06520E+01-1.98998E-01-1.58428E-04-5.61102E-01-7.36569E-15-5.36003E-14
 -1       653 2.04745E+01-4.87322E-02-6.68314E-05-5.72530E-01-2.23474E-13-8.84066E-14
 -1       654 2.03446E+01 5.05977E-02-4.57663E-06-5.39321E-01-6.47520E-14 5.44065E-14
 -1       655 2.02513E+01 1.07770E-01 3.23355E-05-4.81000E-01-4.93555E-14-1.33452E-15
 -1       656 2.01844E+01 1.33705E-01 5.07072E-05-4.11596E-01-6.27440E-14-1.53289E-13
 -1       657 2.01363E+01 1.38532E-01 5.69338E-05-3.40507E-01-1.51223E-13-2.41784E-13
 -1       658 2.01014E+01 1.30438E-01 5.54625E-05-2.73533E-01-1.02810E-13-1.86127E-13
 -1       659 2.00757E+01 1.15464E-01 4.97449E-05-2.13837E-01-1.04407E-13 4.15284E-14
 -1       660 2.00566E+01 9.77359E-02 4.23569E-05-1.62760E-01 3.19272E-14-1.06450E-13
 -1       661 2.00421E+01 7.98639E-02 3.43824E-05-1.20464E-01-4.36165E-14-4.86985E-15
 -1       662 2.00311E+01 6.33349E-02 2.53029E-05-8.64263E-02 2.02752E-13 2.87953E-14
 -1       663 2.00227E+01 4.89240E-02 1.92353E-05-5.97159E-02 1.93311E-13-4.45999E-13
 -1       664 2.00161E+01 3.67225E-02 2.28507E-05-3.92871E-02 1.12946E-13-8.78727E-13
 -1       665 2.00110E+01 2.65610E-02 1.05262E-05-2.42088E-02 1.42677E-13-3.51160E-13
 -1       666 2.01069E+01 2.72576E-01 2.46416E-04-4.46924E-01 2.03653E-13-1.91841E-13
 -1       667 1.24284E+01-2.07639E+00 1.41486E-01-5.17797E+00-2.00520E-13-4.79207E-13
 -1       668 2.01316E+01 3.27147E-01 2.94684E-04-2.64658E-01 2.32733E-13-1.57466E-13
 -1       669 2.01224E+01 3.05227E-01 3.12712E-04-7.62321E-01 6.04565E-14-1.62805E-13
 -1       670 2.01447E+01 3.75218E-01 4.03267E-04-9.35293E-01 1.00137E-13-2.20840E-13
 -1       671 2.01629E+01 4.72592E-01 5.22487E-04-1.13856E+00 1.02621E-14-1.68457E-13
 -1       672 2.01659E+01 5.86968E-01 6.47402E-04-1.38302E+00-3.27617E-14-9.68988E-14
 -1       673 2.01447E+01 6.96528E-01 7.33507E-04-1.67602E+00-4.39432E-14 2.39744E-14
 -1       674 2.01001E+01 7.55959E-01 7.09641E-04-2.02052E+00-2.99133E-14 2.29717E-14
 -1       675 2.00610E+01 6.78322E-01 5.27259E-04-2.41395E+00-6.26026E-14-4.44191E-14
 -1       676 2.01195E+01 3.16247E-01 7.10292E-04-2.84283E+00-2.49089E-14-3.55420E-14
 -1       677 2.05252E+01-6.18573E-01 4.09894E-03-3.28802E+00-1.11571E-13-1.27621E-13
 -1       678 2.16571E+01-2.22979E+00 3.76912E-02-3.58038E+00-1.83593E-13-1.45674E-13
 -1       679 2.11408E+01-1.10552E+00 1.85369E-02 3.31944E+00-5.73158E-13-1.67885E-13
 -1       680 2.04535E+01 1.11841E-02-1.63532E-03 2.93858E+00-4.41653E-13 2.62183E-14
 -1       681 2.02535E+01 5.90576E-01 3.46517E-05 2.48979E+00-5.86033E-15 6.09094E-15
 -1       682 2.02444E+01 7.63447E-01 4.35851E-04 2.06469E+00-2.44927E-13-1.98676E-13
 -1       683 2.02736E+01 7.50611E-01 7.71273E-04 1.67876E+00-6.60724E-14-2.50169E-13
 -1       684 2.02915E+01 6.58621E-01 7.96447E-04 1.34213E+00 1.77056E-13-2.94624E-13
 -1       685 2.02872E+01 5.44527E-01 6.94746E-04 1.05710E+00 8.24500E-14-1.75546E-13
 -1       686 2.02647E+01 4.34890E-01 5.59840E-04 8.21514E-01 2.81530E-14-1.39848E-13
 -1       687 2.02314E+01 3.39967E-01 4.33630E-04 6.30539E-01-5.99793E-14 8.70683E-14
 -1       688 2.01940E+01 2.62044E-01 3.28776E-04 4.78111E-01-3.29681E-14 3.65987E-14
 -1       689 2.01572E+01 1.99949E-01 2.46275E-04 3.57996E-01 4.90284E-15-4.03326E-14
 -1       690 2.01237E+01 1.51329E-01 1.82953E-04 2.64385E-01 1.34071E-13 1.46798E-13
 -1       691 2.00948E+01 1.13681E-01 1.34915E-04 1.92163E-01 8.63138E-14 3.87560E-13
 -1       692 2.00710E+01 8.47485E-02 9.91330E-05 1.36987E-01-1.79059E-14 2.63470E-13
 -1       693 2.00518E+01 6.26401E-02 7.30399E-05 9.52632E-02-5.62362E-14 4.33538E-13
 -1       694 2.00369E+01 4.58201E-02 5.22914E-05 6.40844E-02 1.58927E-13 4.05290E-13
 -1       695 2.00254E+01 3.30830E-02 3.83901E-05 4.11470E-02 9.74001E-14 6.28745E-13
 -1       696 2.00168E+01 2.33882E-02 5.11683E-05 2.45998E-02 1.32067E-13 5.00086E-13
 -1       697 2.00110E+01 1.92716E-02 2.78831E-05 1.62012E-02-2.48316E-14 1.28607E-13
 -1       698 1.99860E+01 5.90442E-02-5.31291E-06 4.89251E-03 3.88164E-13-3.65530E-13
 -1       699 2.00081E+01 2.05761E-02-1.62528E-06-1.64983E-02 1.33718E-14-3.80931E-13
 -1       700 1.99948E+01 4.83891E-02-2.44793E-06 1.89474E-02 2.52211E-13-1.95774E-13
 -1       701 1.99858E+01 5.87553E-02-4.35120E-06-4.10585E-03 8.49991E-14-2.47108E-14
 -1       702 1.99892E+01 5.54544E-02-3.73892E-06 1.30806E-02 1.10421E-13-2.26270E-14
 -1       703 2.01851E+01 4.53609E-01 6.54150E-04-3.07886E-02 2.60751E-13-1.75950E-13
 -1       704 1.99886E+01 5.47913E-02-3.12994E-06-1.21630E-02 3.20134E-15-1.89412E-13
 -1       705 1.99937E+01 4.75503E-02-5.57590E-06-1.81348E-02 1.88471E-13-2.64660E-13
 -1       706 2.00002E+01 3.79554E-02-1.02271E-05-2.08330E-02 3.40453E-13-1.81063E-13
 -1       707 2.03058E+01 1.71959E+00 8.16147E-05-1.05690E+00-3.64502E-13-4.24676E-13
 -1       708 2.19713E+01-4.65808E+00 4.84118E-02 4.44453E+00-4.32591E-13 4.57794E-15
 -1       709 7.61807E+00 2.85888E-01 1.61338E-01-7.05555E-01-9.27830E-14 2.44804E-14
 -1       710 1.60049E+01-3.39668E+00 9.06548E-02-6.46518E+00 3.31509E-13 2.99118E-13
 -1       711 2.76966E+01-2.57302E+00-4.85926E-02 6.62338E-02-3.27169E-14 5.01790E-13
 -1       712 2.01066E+01 2.68822E-01 2.58029E-04-6.05439E-01 1.36497E-13-1.99686E-13
 -1       713 2.03230E+01 1.13328E+00-1.47522E-04-6.16864E-01-3.30689E-13-3.80144E-13
 -1       714 1.58371E+01-2.82991E+00 1.31167E-01 5.49550E+00-4.62567E-13 6.14654E-13
 -1       715 1.99956E+01 2.40533E+00-1.61950E-03 5.68476E-01 2.98251E-13-4.88149E-13
 -1       716 1.99904E+01 2.40653E+00-1.53719E-03-5.59066E-01-1.18890E-13-5.67726E-13
 -1       717 1.03348E+01-8.10647E-01 1.32401E-01-4.71136E+00 5.91784E-14 2.99767E-13
 -1       718 2.77101E+01-4.89675E-02-7.78870E-02 1.63365E+00 6.81347E-14-3.92415E-13
 -1       719 1.70580E+01-3.79044E+00 1.10425E-01-5.68224E+00-3.22572E-13-2.94532E-13
 -1       720 2.63813E+01-3.90011E+00-2.90594E-02-1.37640E+00 3.70677E-13-3.97370E-13
 -1       721 2.68219E+01 3.86051E+00-1.20417E-01 2.09895E+00-5.36307E-14-4.86850E-13
 -1       722 1.93472E+01-4.55250E+00 6.39503E-02 6.07911E+00 3.27311E-13 6.62075E-14
 -1       723 2.44551E+01-4.99676E+00 7.04390E-04 3.81694E+00 2.43604E-13 2.23981E-13
 -1       724 2.78935E+01 1.33608E+00-1.14235E-01-1.95693E+00-2.92728E-13 6.84904E-13
 -1       725 2.65117E+01 6.16143E+00-1.51143E-01 6.62257E-01-2.83162E-13-4.11010E-13
 -1       726 8.54257E+00-3.24892E-01 1.61879E-01-2.55928E+00-8.79245E-14-5.41595E-13
 -1       727 2.01144E+01 2.14168E+00-1.16426E-03-7.68805E-01-2.21582E-13-5.47002E-13
 -1       728 1.98691E+01 2.65670E+00-1.46730E-03-1.07629E-01 4.66681E-14-6.02603E-13
 -1       729 2.00016E+01 3.87445E-02-1.32662E-05 2.13939E-02 1.66204E-13 1.09266E-13
 -1       730 2.87888E+01-4.73636E+00 1.31200E-02-5.79158E-01 4.23550E-14 1.42532E-13
 -1       731 2.00071E+01 2.89438E-02-5.64872E-06 2.00935E-02 8.53719E-14 5.23831E-13
 -1       732 8.56867E+00 4.43076E-01 1.43280E-01-9.53470E-02-6.17692E-15-5.12465E-13
 -1       733 2.62407E+01 3.35182E+00-9.02252E-02-1.98027E+00-2.13864E-13 3.07589E-13
 -1       734 1.60611E+01-3.03791E+00 8.86484E-02 6.10670E+00 2.97019E-13-9.46465E-14
 -1       735 1.99099E+01 2.57451E+00-1.51684E-03-3.36735E-01-3.53576E-14-5.61758E-13
 -1       736 2.00053E+01 3.29887E-02-5.22270E-06-2.33776E-02-4.27599E-14-6.95143E-13
 -1       737 2.02683E+01 1.41358E+00 2.66622E-04 5.13370E-01 3.57919E-13-2.73150E-13
 -1       738 2.61525E+01-1.02614E+00-4.15123E-02-1.39134E+00-1.74620E-13 4.34913E-13
 -1       739 2.02630E+01 5.81855E-01-3.02350E-05 1.12948E-01-1.96235E-13-3.25114E-13
 -1       740 2.02225E+01 4.10100E-01-1.44082E-06 3.01326E-01-1.78202E-13-3.49578E-13
 -1       741 2.01847E+01 3.00249E-01 2.63281E-06 4.48218E-01-1.14510E-13-3.30442E-13
 -1       742 2.01586E+01 2.25050E-01 5.79112E-06 5.67560E-01-4.16063E-14-2.73902E-13
 -1       743 2.01526E+01 1.60612E-01 7.52497E-06 6.68775E-01-3.60875E-14-2.34665E-13
 -1       744 2.01768E+01 8.43484E-02 5.57037E-06 7.55915E-01-6.90752E-14-2.08358E-13
 -1       745 2.02453E+01-2.59254E-02-4.48416E-06 8.26705E-01-4.74829E-14-1.49080E-13
 -1       746 2.03767E+01-1.90921E-01-3.31759E-05 8.71289E-01-5.97322E-14-3.62539E-14
 -1       747 2.05935E+01-4.25852E-01-8.21056E-05 8.70427E-01-7.07109E-14-4.22240E-14
 -1       748 2.09185E+01-7.31722E-01-1.75428E-04 7.93472E-01-4.74366E-14 1.04800E-14
 -1       749 2.13644E+01-1.07964E+00-3.20412E-04 5.98194E-01-1.02137E-13-2.15668E-14
 -1       750 2.19146E+01-1.38866E+00-6.03510E-04 2.38851E-01-1.43745E-13 1.05752E-14
 -1       751 2.25009E+01-1.50608E+00 2.75236E-04-3.06714E-01-1.90956E-13 3.64570E-14
 -1       752 2.29776E+01-1.21574E+00-1.39774E-03-9.89444E-01-9.07003E-14-5.10421E-15
 -1       753 2.31595E+01-3.62349E-01 2.34922E-03-1.56710E+00 1.07722E-13-2.66053E-14
 -1       754 2.30291E+01 1.06478E+00 6.51206E-03-1.78062E+00 2.71038E-14-2.72490E-14
 -1       755 2.25943E+01 2.42466E+00-1.50481E-02-1.13426E+00 6.34623E-14-1.53195E-13
 -1       756 2.24058E+01 2.94975E+00-1.27961E-02 4.73505E-02 1.04401E-13-2.03758E-13
 -1       757 2.26104E+01 2.35294E+00-1.65208E-02 1.23977E+00-9.00973E-14-1.86093E-13
 -1       758 2.30435E+01 9.54076E-01-5.01295E-04 1.80529E+00-1.54044E-13-2.09565E-13
 -1       759 2.31692E+01-3.94287E-01-4.59054E-03 1.58877E+00 3.21258E-14-2.00717E-13
 -1       760 2.29436E+01-1.22257E+00-1.27322E-03 9.73829E-01 7.82373E-14-1.09726E-13
 -1       761 2.24514E+01-1.46352E+00 9.84225E-04 3.15604E-01 1.60576E-13-2.49919E-15
 -1       762 2.18627E+01-1.32025E+00 9.58637E-05-2.04101E-01 6.05978E-14 7.94583E-14
 -1       763 2.13127E+01-9.96211E-01-2.91771E-04-5.34266E-01-4.36122E-14 1.19027E-13
 -1       764 2.08685E+01-6.41812E-01-1.54646E-04-7.01363E-01-1.83983E-13-1.91373E-14
 -1       765 2.05422E+01-3.34589E-01-5.46026E-05-7.52275E-01 4.41306E-14-2.13494E-13
 -1       766 2.03194E+01-1.02527E-01-1.77732E-05-7.29637E-01-1.36645E-13-2.46177E-13
 -1       767 2.01766E+01 5.40888E-02 4.86258E-06-6.65388E-01-9.73711E-14-1.46300E-13
 -1       768 2.00904E+01 1.47373E-01 1.48935E-05-5.81287E-01-1.30432E-13-1.74629E-13
 -1       769 2.00419E+01 1.92964E-01 1.77374E-05-4.91321E-01-2.18781E-13-8.11043E-14
 -1       770 2.00169E+01 2.05611E-01 1.82120E-05-4.04034E-01-2.28456E-13-6.33810E-14
 -1       771 2.00057E+01 1.97443E-01 1.67369E-05-3.24275E-01-4.14052E-14-5.82727E-14
 -1       772 2.00021E+01 1.77608E-01 1.41756E-05-2.54400E-01 9.62646E-14 3.70128E-14
 -1       773 2.00019E+01 1.52505E-01 1.15371E-05-1.95132E-01-5.73986E-14 1.35705E-13
 -1       774 2.00031E+01 1.26304E-01 9.93789E-06-1.46199E-01 2.50058E-14 1.33010E-13
 -1       775 2.00044E+01 1.01501E-01 6.48721E-06-1.06721E-01 1.56923E-14-1.10050E-13
 -1       776 2.00052E+01 7.94124E-02 2.84728E-06-7.57022E-02-3.27460E-14-2.64378E-13
 -1       777 2.00055E+01 6.04498E-02 5.08595E-06-5.17313E-02-1.41036E-13-4.90161E-13
 -1       778 2.00060E+01 4.52852E-02 4.08724E-06-3.56674E-02 2.05624E-13-7.40584E-13
 -1       779 1.99781E+01 7.73683E-02-3.24853E-06-1.25703E-02 8.41748E-14-3.69634E-13
 -1       780 1.98453E+01 5.88006E-01 1.14778E-04-9.79474E-01 4.96429E-14-1.70824E-13
 -1       781 1.99606E+01 4.82127E-01 7.91953E-05-8.11360E-01 9.60939E-14-1.91965E-13
 -1       782 1.94538E+01 8.79925E-01 2.11525E-04-1.39353E+00-1.17604E-13-1.99361E-13
 -1       783 1.91363E+01 1.01816E+00 2.45272E-04-1.66004E+00-6.66396E-14-2.36161E-13
 -1       784 1.87177E+01 1.08129E+00 3.51367E-04-1.98987E+00-3.43071E-14-1.42463E-13
 -1       785 1.82121E+01 9.62243E-01 1.21610E-03-2.42333E+00-2.33303E-14-1.66685E-13
 -1       786 1.76689E+01 4.44724E-01 7.75065E-03-3.06141E+00-5.27435E-14-2.31821E-13
 -1       787 1.74014E+01-7.44842E-01 3.59390E-02-3.97302E+00-8.38262E-14-2.29725E-13
 -1       788 2.03076E+01 1.03311E+00 1.09819E-04 4.24020E-01 3.40914E-13-2.37701E-13
 -1       789 2.54090E+01-3.77715E+00-1.16844E-02 1.30287E+00 9.76975E-14 3.99246E-13
 -1       790 1.78252E+01 4.66472E-02 2.14002E-02 3.30725E+00-3.35891E-13 1.25754E-13
 -1       791 1.90699E+01 1.09562E+00 1.14321E-04 1.68725E+00 4.91423E-15-7.12432E-14
 -1       792 1.93978E+01 9.84421E-01 1.92235E-04 1.37195E+00 9.57585E-14-3.21349E-13
 -1       793 1.96336E+01 8.33571E-01 2.00032E-04 1.10813E+00 8.81993E-14-5.76184E-14
 -1       794 1.97936E+01 6.80891E-01 1.66283E-04 8.85605E-01-1.45050E-13 6.72339E-14
 -1       795 1.98967E+01 5.43359E-01 1.29138E-04 6.99111E-01-2.06836E-13 2.59911E-13
 -1       796 1.99596E+01 4.26731E-01 9.75439E-05 5.44700E-01-3.96330E-16 3.78128E-13
 -1       797 1.99957E+01 3.31205E-01 7.31086E-05 4.18600E-01 4.45465E-14 1.13709E-13
 -1       798 2.00145E+01 2.54610E-01 5.45608E-05 3.17044E-01-2.43864E-14 2.38092E-13
 -1       799 2.00227E+01 1.94061E-01 4.01915E-05 2.36344E-01-2.58898E-14 2.44743E-13
 -1       800 2.00248E+01 1.46670E-01 2.93539E-05 1.73037E-01-1.67292E-14 5.71545E-13
 -1       801 2.00234E+01 1.09863E-01 2.09391E-05 1.24016E-01-7.85600E-14 7.25287E-13
 -1       802 2.00204E+01 8.13746E-02 1.30155E-05 8.65567E-02 1.12122E-13 5.09400E-13
 -1       803 2.00167E+01 5.95220E-02-7.90156E-06 5.84304E-02 3.25126E-14 3.88867E-13
 -1       804 2.00129E+01 4.28681E-02 1.37852E-05 3.77440E-02 7.30036E-14 5.18858E-13
 -1       805 2.00096E+01 3.56071E-02-3.28257E-05 2.78839E-02 2.82988E-13 5.21834E-13
 -1       806 1.15890E+01-4.74844E-01 9.97720E-02 4.22936E+00 2.17458E-13-5.76292E-13
 -1       807 2.00527E+01 2.06360E+00-3.12473E-04 1.64149E-01 1.62963E-13-5.11900E-13
 -1       808 1.99759E+01 8.05418E-02-4.83321E-06 9.87970E-05 4.21607E-13-4.12034E-13
 -1       809 1.99055E+01-3.55306E+00 3.45530E-02-4.92469E+00 4.21350E-13-2.73721E-13
 -1       810 1.99845E+01 6.94991E-02-1.49595E-06-2.30912E-02 1.79125E-13-1.54876E-14
 -1       811 1.86473E+01 1.09376E+00-2.53450E-05 2.07628E+00-2.42567E-14 2.21125E-14
 -1       812 1.81429E+01 8.34025E-01-3.08971E-04 2.61279E+00-2.63553E-13-5.59795E-14
 -1       813 1.96833E+01 7.26092E-01 1.66934E-04-1.17043E+00-5.14044E-14-1.73376E-13
 -1       814 2.01793E+01 4.55853E-01 5.54757E-05-3.21928E-01 2.29407E-13-2.04504E-13
 -1       815 1.11613E+01 7.93556E-01 8.31786E-02-2.15565E+00-3.27112E-14-8.40907E-14
 -1       816 2.02921E+01 8.51253E-01-4.96751E-05-1.32594E-01-2.01658E-13-3.30143E-13
 -1       817 2.47440E+01 4.93389E+00-6.55965E-02-8.15673E-01-4.70353E-14-2.87402E-13
 -1       818 2.39559E+01-4.03551E+00 1.18990E-02-2.58089E+00 4.86873E-13-4.14495E-13
 -1       819 2.58786E+01-1.97609E+00-3.87377E-02 7.62218E-01 2.51686E-13-3.81706E-13
 -1       820 1.99938E+01 5.79016E-02-1.26205E-06-2.98070E-02 1.74751E-13-1.17202E-13
 -1       821 1.68335E+01-1.72653E+00 8.05443E-02-4.69203E+00-1.78039E-13-2.81095E-13
 -1       822 1.30025E+01-2.06529E-01 9.16777E-02-3.64637E+00-1.14408E-13-4.37400E-13
 -1       823 1.41115E+01-5.32775E-01 4.12791E-02 4.11483E+00-4.21759E-13 4.95107E-13
 -1       824 2.00808E+01-4.04480E+00 9.14683E-02-4.85958E+00-3.45907E-13-2.88485E-13
 -1       825 1.06550E+01 1.01073E+00 8.82927E-02 8.60449E-01 1.31673E-14 3.27408E-13
 -1       826 2.54747E+01 1.30375E+00-5.37459E-02 2.16942E+00 2.47077E-14-4.56604E-13
 -1       827 2.22140E+01-4.30686E+00 1.68058E-02 4.15592E+00 2.41180E-13 1.91226E-13
 -1       828 1.47398E+01-1.36048E+00 6.04815E-02-5.03894E+00 1.86998E-13 2.53349E-13
 -1       829 2.46555E+01 4.20272E+00-7.40332E-02 1.35118E+00-6.20042E-14-4.67614E-13
 -1       830 2.00353E+01 2.10325E+00-3.35102E-04 9.41944E-03 7.44217E-14-5.18251E-13
 -1       831 1.96372E+01-3.41968E+00 3.86069E-02 4.90743E+00 2.52428E-13 9.48417E-14
 -1       832 1.99951E+01 6.02355E-02 1.08883E-05 3.05291E-02 1.99762E-13-1.56317E-13
 -1       833 2.02919E+01 1.22082E+00 2.09799E-04-4.11675E-01-2.44680E-13-3.90923E-13
 -1       834 2.01165E+01 4.05845E-01 5.33600E-05-4.97867E-01 1.79801E-13-2.06853E-13
 -1       835 2.02383E+01 5.86993E-01-2.81900E-05-1.06975E-01 2.41830E-13-2.14366E-13
 -1       836 1.64609E+01-1.26057E+00 6.96851E-02 4.43115E+00-5.10836E-13 5.60579E-13
 -1       837 2.00465E+01 4.18464E-01 6.37095E-05-6.55348E-01 7.86037E-14-2.11834E-13
 -1       838 1.11103E+01 7.27255E-01 7.54504E-02 1.97461E+00 9.37609E-14-5.49588E-13
 -1       839 2.01054E+01 1.93713E+00-2.70804E-04 3.08238E-01 2.25105E-13-4.80792E-13
 -1       840 1.99851E+01 7.15696E-02-4.96491E-06 2.35694E-02 1.10551E-13-1.17999E-13
 -1       841 1.99783E+01 7.85639E-02-4.52694E-06 1.28225E-02 3.09986E-13 2.72927E-13
 -1       842 2.01842E+01 1.71160E+00-8.61494E-04-4.25514E-01-1.58960E-13-4.64188E-13
 -1       843 2.46845E+01-2.94592E+00-4.15379E-03-4.16728E-01 2.62054E-13-1.91132E-13
 -1       844 2.01870E+01 1.71946E+00 7.93494E-05 4.32961E-01 2.91546E-13-3.59735E-13
 -1       845 2.51501E+01 7.62959E-01-5.80404E-02-2.13353E+00-1.46107E-13-3.62895E-14
 -1       846 1.17871E+01 7.22753E-01 8.24871E-02-2.04046E+00-4.43209E-14-4.97116E-13
 -1       847 2.01066E+01 1.92858E+00-5.15000E-04-2.95423E-01-8.27576E-14-5.14838E-13
 -1       848 1.99997E+01 5.22807E-02 7.55673E-05-3.34765E-02 2.14422E-13-5.01435E-13
 -1       849 2.02766E+01 7.64636E-01 1.63266E-04 1.26719E-01 2.73712E-13-2.33851E-13
 -1       850 1.99697E+01 9.69809E-02 2.31971E-06-2.63356E-02 1.90145E-13-2.36080E-13
 -1       851 1.80754E+01-1.88114E+00 1.84145E-02-4.28423E+00 2.41590E-13-1.13728E-13
 -1       852 2.02034E+01 4.76674E-01-4.18293E-05 3.37245E-01-1.05411E-13-2.68161E-13
 -1       853 2.01435E+01 3.67220E-01-7.15177E-06 4.72705E-01-6.79766E-14-2.59507E-13
 -1       854 2.00864E+01 2.88675E-01-3.70169E-06 5.95001E-01-6.91661E-14-3.11540E-13
 -1       855 2.00455E+01 2.14253E-01 4.29106E-06 7.12801E-01-8.28446E-15-3.12668E-13
 -1       856 2.00373E+01 1.16778E-01 1.74059E-05 8.30778E-01-3.15196E-14-2.52608E-13
 -1       857 2.00842E+01-3.17066E-02 1.96278E-05 9.48113E-01-1.57519E-14-2.52763E-13
 -1       858 2.02166E+01-2.58410E-01-1.17128E-05 1.05591E+00-4.40757E-14-2.39189E-13
 -1       859 2.04729E+01-5.84876E-01-2.34315E-05 1.13265E+00-2.29081E-14-1.37301E-13
 -1       860 2.08966E+01-1.01519E+00-9.50285E-05 1.13711E+00-7.70130E-14-8.97263E-14
 -1       861 2.15242E+01-1.51192E+00-1.51171E-04 1.00086E+00-8.40038E-14-7.81073E-14
 -1       862 2.23483E+01-1.95135E+00-8.13810E-04 6.27954E-01-1.05779E-13-4.70018E-14
 -1       863 2.32676E+01-2.12088E+00-4.56703E-03-3.24752E-02-1.11975E-13 1.10142E-13
 -1       864 2.40276E+01-1.59401E+00-7.17943E-03-9.79921E-01-2.69342E-14 2.11878E-13
 -1       865 2.39705E+01-1.53698E+00-1.04396E-02 9.36572E-01 3.61469E-14-1.30150E-13
 -1       866 2.31902E+01-2.04459E+00 9.92310E-04 4.02128E-02 1.05474E-13-1.14800E-13
 -1       867 2.22552E+01-1.87376E+00-1.36123E-03-6.07356E-01 1.40110E-13 6.63887E-14
 -1       868 2.14308E+01-1.40739E+00-4.35649E-04-9.49311E-01 1.84985E-14 1.11698E-13
 -1       869 2.08053E+01-9.04721E-01-2.26914E-04-1.05888E+00-1.57326E-13 4.60582E-14
 -1       870 2.03767E+01-4.73092E-01-1.60082E-05-1.03130E+00-2.44545E-13 1.03416E-14
 -1       871 2.01088E+01-1.49887E-01 6.68983E-06-9.35009E-01-3.11194E-13-3.61445E-13
 -1       872 1.99573E+01 6.80473E-02 1.84370E-05-8.11073E-01 9.16193E-17-3.40276E-13
 -1       873 1.98840E+01 1.98863E-01 1.96005E-05-6.82584E-01-2.99249E-14-3.41636E-13
 -1       874 1.98595E+01 2.64409E-01 1.26063E-05-5.61312E-01-4.26329E-14-1.92789E-13
 -1       875 1.98630E+01 2.84649E-01 1.00521E-05-4.52682E-01-2.00024E-13 6.97776E-14
 -1       876 1.98806E+01 2.75856E-01 8.05060E-06-3.58672E-01-9.42871E-14 3.53868E-13
 -1       877 1.99035E+01 2.50367E-01 5.68815E-06-2.79382E-01 8.84153E-14 1.39038E-13
 -1       878 1.99266E+01 2.16951E-01 3.38680E-06-2.13860E-01 1.11550E-13 3.34650E-14
 -1       879 1.99472E+01 1.81367E-01 2.63311E-06-1.60676E-01-1.36283E-13 6.87506E-14
 -1       880 1.99641E+01 1.47170E-01 1.14331E-05-1.18290E-01-2.47025E-14-1.59845E-13
 -1       881 1.99769E+01 1.16385E-01-3.60495E-05-8.49483E-02-1.45123E-13-2.13464E-13
 -1       882 1.99867E+01 8.97368E-02 3.91122E-05-5.93707E-02-1.90925E-14-4.16182E-13
 -1       883 2.00032E+01 4.78494E-02 2.45190E-05 3.07035E-02 3.74684E-13 3.22558E-13
 -1       884 1.80203E+01 1.29545E+00 3.67297E-05-1.31464E+00-1.09806E-13-2.91933E-13
 -1       885 1.86427E+01 1.13879E+00 1.45469E-05-1.14594E+00-2.30422E-14-2.77299E-13
 -1       886 1.60324E+01 1.27012E+00 4.09486E-03-1.90571E+00-1.61201E-14-2.11087E-13
 -1       887 2.02865E+01 1.05080E+00-8.13147E-05 2.25227E-01 2.75339E-13-2.70258E-13
 -1       888 1.92470E+01 9.18835E-01 1.25256E-07 7.93064E-01-1.34527E-13 3.77622E-13
 -1       889 2.33121E+01-3.60167E+00 2.20971E-03 2.27373E+00 1.46877E-13 1.73221E-13
 -1       890 2.00538E+01 2.05792E+00-5.82379E-04-1.46554E-01-1.69151E-14-5.20212E-13
 -1       891 1.84146E+01 1.27332E+00-1.12096E-04 1.12893E+00 1.30494E-13 1.72830E-13
 -1       892 1.94934E+01 7.49396E-01 9.77734E-06 6.52426E-01-2.38552E-13 4.23496E-13
 -1       893 1.96651E+01 6.00753E-01 1.19403E-05 5.27923E-01-1.14934E-13 2.68504E-13
 -1       894 1.97831E+01 4.75211E-01 1.03235E-05 4.19827E-01 7.98186E-14 2.55047E-13
 -1       895 1.98631E+01 3.71730E-01 8.00946E-06 3.28005E-01-2.39384E-13 3.63121E-13
 -1       896 1.99165E+01 2.87886E-01 5.09549E-06 2.51691E-01-1.49749E-13 5.37248E-13
 -1       897 1.99516E+01 2.20850E-01 2.68503E-06 1.89488E-01-3.24921E-13 7.39395E-13
 -1       898 1.99742E+01 1.67752E-01-2.04326E-06 1.39698E-01-2.30542E-13 9.59669E-13
 -1       899 1.99883E+01 1.26048E-01 5.54689E-06 1.00716E-01 3.16479E-13 9.15376E-13
 -1       900 1.99966E+01 9.35609E-02 3.42295E-05 7.05659E-02 3.31471E-13 6.17867E-13
 -1       901 2.47490E+01-2.35478E+00 3.78700E-03-3.20169E-01-5.56387E-14 3.06326E-13
 -1       902 2.02538E+01 6.45757E-01 8.85932E-05 1.77827E-01-1.86099E-13-3.36269E-13
 -1       903 1.54433E+01-1.40617E+00 4.60072E-02 4.75753E+00 3.45430E-13-1.69031E-13
 -1       904 1.99630E+01 1.04634E-01-9.84272E-06-9.77126E-03 2.71036E-13-7.06490E-13
 -1       905 1.77511E+01 1.39974E+00-8.81594E-05 1.34757E+00-1.55455E-13-5.62511E-14
 -1       906 2.17697E+01-3.15744E+00 1.39510E-02-3.09322E+00 2.03047E-13-4.31909E-13
 -1       907 2.02788E+01 9.04477E-01 9.60733E-05-1.63666E-02-1.80510E-13-3.70806E-13
 -1       908 1.99814E+01 8.38931E-02-1.01661E-05-3.88222E-02 8.25171E-14-3.25975E-13
 -1       909 1.71860E+01 1.37346E+00 9.94583E-04-1.54193E+00-6.65226E-14-2.76661E-13
 -1       910 1.96974E+01 6.58056E-01-2.38489E-05-7.46287E-01 4.35084E-14-1.92877E-13
 -1       911 1.25125E+01 1.35119E+00 3.38552E-02-2.82868E-01 2.21180E-13 1.36943E-13
 -1       912 1.40887E+01 1.10614E+00 7.56783E-02 2.21115E+00-3.91154E-14 8.45660E-14
 -1       913 1.50666E+01 5.73515E-01 3.59418E-02-2.93621E+00-5.43359E-14-3.52008E-13
 -1       914 1.42782E+01 2.61874E-01 2.29949E-02-3.16012E+00 6.96279E-14 1.11822E-13
 -1       915 1.88989E+01 1.10016E+00-3.40521E-05 9.50322E-01-1.30021E-14 1.67341E-13
 -1       916 2.44986E+01-7.60315E-01-7.50309E-03 1.56934E+00 8.46541E-14-1.08689E-13
 -1       917 1.98877E+01 5.67801E-01-6.67458E-06-6.21967E-01 5.85047E-14-2.50572E-13
 -1       918 2.16952E+01-3.23348E+00 1.19900E-02 3.23583E+00 1.59433E-13 1.09484E-13
 -1       919 2.02606E+01 1.25066E+00 1.53870E-04-2.14221E-01-1.74380E-13-4.09005E-13
 -1       920 1.99988E+01 6.89917E-02-1.78992E-05 4.54413E-02 9.33167E-14 1.36210E-13
 -1       921 1.99948E+01 6.90222E-02 6.74675E-06-4.52809E-02-1.68377E-13-2.67533E-13
 -1       922 2.02244E+01 6.89075E-01 6.84465E-05-1.66475E-01 2.29358E-13-2.70711E-13
 -1       923 1.91033E+01 9.60303E-01 4.48124E-05-1.00277E+00-4.39185E-15-1.93644E-13
 -1       924 1.43754E+01 1.08761E+00 1.21932E-02-1.68285E+00-3.20694E-14 2.11255E-13
 -1       925 1.37503E+01 6.06519E-03 4.52069E-02 3.44824E+00 2.24734E-13-3.45501E-13
 -1       926 1.55325E+01 1.19437E+00 7.04096E-03 2.16683E+00 5.53481E-14-4.14157E-14
 -1       927 1.94440E+01 7.93413E-01-1.57628E-06-8.71512E-01 2.02225E-14-1.55657E-13
 -1       928 1.99834E+01 8.56512E-02-1.44913E-05 3.83854E-02 4.09537E-13-2.63887E-13
 -1       929 1.99629E+01 1.05781E-01-2.93557E-05 8.35929E-03 1.64731E-13 1.72446E-14
 -1       930 2.30261E+01-2.85411E+00-1.61247E-03-1.41890E+00 3.16396E-13 8.71423E-14
 -1       931 1.68507E+01 1.41041E+00 1.93964E-03 1.65750E+00-1.82404E-13-1.61946E-13
 -1       932 2.01437E+01 5.68732E-01 1.14358E-05-3.43564E-01 1.95700E-13-2.19463E-13
 -1       933 2.01692E+01 1.55820E+00 6.81442E-06 1.29558E-01 1.84435E-13-4.57667E-13
 -1       934 1.24784E+01 1.28327E+00 4.02964E-02-9.80480E-02 9.86990E-14-4.17621E-13
 -1       935 2.01430E+01 1.63395E+00-2.48368E-05 5.43855E-02 1.19815E-13-4.67026E-13
 -1       936 2.02069E+01 1.45549E+00 1.29067E-04-1.53028E-01-1.34332E-13-4.49935E-13
 -1       937 2.00426E+01 4.33078E-01-2.21397E-05 4.67981E-01-5.29704E-14-2.33093E-13
 -1       938 1.99457E+01 3.61877E-01-2.54266E-05 5.95576E-01-2.11130E-14-2.23763E-13
 -1       939 1.98601E+01 2.87190E-01-1.22199E-06 7.36762E-01 8.39963E-15-2.12626E-13
 -1       940 1.98065E+01 1.77735E-01 4.23328E-05 8.99149E-01-2.11955E-14-1.83980E-13
 -1       941 1.98142E+01-4.93534E-04 3.81619E-05 1.08614E+00-2.72474E-14-1.72796E-13
 -1       942 1.99245E+01-2.83142E-01-5.09380E-05 1.29350E+00 1.78721E-14-8.31084E-14
 -1       943 2.01960E+01-7.03564E-01 1.40592E-04 1.50121E+00 6.79622E-15-2.95088E-14
 -1       944 2.07060E+01-1.27942E+00 6.83940E-04 1.65617E+00-4.04688E-14-5.03504E-14
 -1       945 2.15396E+01-1.97789E+00 3.54458E-04 1.65781E+00-4.06633E-14 4.73623E-14
 -1       946 2.27782E+01-2.66193E+00 3.28610E-03 1.33569E+00 3.83983E-14 1.62292E-13
 -1       947 2.02447E+01 1.09436E+00 6.11606E-04-1.28379E-02-1.17457E-13-3.97869E-13
 -1       948 1.99618E+01 1.16645E-01 8.73390E-06-4.64665E-02-2.07539E-13-2.07873E-13
 -1       949 2.01463E+01 1.62681E+00-2.03635E-04-2.79523E-02 2.47616E-14-4.42125E-13
 -1       950 2.02706E+01 9.19108E-01-3.88927E-04 5.46680E-02 2.30711E-13-2.81681E-13
 -1       951 2.14332E+01-1.85618E+00 5.80168E-04-1.61327E+00 1.20117E-13 9.39418E-15
 -1       952 2.05865E+01-1.14990E+00-1.31086E-03-1.58943E+00-1.57998E-13 1.53790E-13
 -1       953 2.00741E+01-5.74886E-01 2.45929E-04-1.41526E+00-2.17222E-13 1.60477E-13
 -1       954 1.97884E+01-1.58799E-01-2.23467E-05-1.19526E+00-4.23425E-13 1.57482E-13
 -1       955 1.96546E+01 1.15682E-01 2.67521E-05-9.77073E-01-2.30429E-13 2.10220E-13
 -1       956 1.96154E+01 2.77154E-01 3.80884E-05-7.82638E-01-7.44815E-14-3.26799E-14
 -1       957 1.96305E+01 3.56585E-01 1.98946E-05-6.17852E-01-5.23028E-15-1.48400E-13
 -1       958 1.96737E+01 3.79689E-01 1.43504E-05-4.81979E-01 4.77893E-14-1.75470E-13
 -1       959 1.97281E+01 3.66839E-01 7.70869E-06-3.71965E-01 9.67351E-14-8.67799E-14
 -1       960 1.97835E+01 3.33163E-01 2.80308E-07-2.83982E-01-3.16468E-14 7.03863E-14
 -1       961 1.98342E+01 2.89616E-01 6.29943E-07-2.14369E-01-5.95449E-15-2.60360E-14
 -1       962 1.98776E+01 2.43343E-01-1.64957E-06-1.59694E-01 1.37236E-13-4.98715E-14
 -1       963 1.99130E+01 1.98666E-01-1.80967E-06-1.17161E-01-1.10437E-13 1.58602E-13
 -1       964 1.99403E+01 1.58220E-01-3.90829E-05-8.43460E-02-1.91694E-13 5.64585E-14
 -1       965 1.69285E+01-4.23227E-01 4.77508E-03-3.22783E+00 1.01530E-13-1.17386E-13
 -1       966 1.93537E+01 7.54627E-01-1.87966E-05 4.12494E-01-5.51293E-14 2.81065E-13
 -1       967 1.69974E+01 1.43719E+00 5.53322E-04-5.92452E-01-6.70718E-14-1.99093E-13
 -1       968 2.00206E+01-1.89167E+00 9.37824E-03-3.02662E+00 1.13790E-13-3.06749E-13
 -1       969 1.95490E+01 6.10376E-01-2.99730E-06 3.47803E-01-3.40583E-14 1.30549E-13
 -1       970 1.99722E+01 1.16888E-01 8.60104E-05 5.94058E-02 5.44020E-13 3.47115E-14
 -1       971 1.90836E+01 9.18745E-01-4.15144E-05 4.74126E-01-3.16282E-13 2.46956E-13
 -1       972 1.96892E+01 4.87304E-01 1.35851E-06 2.85145E-01-2.61135E-13 2.31909E-13
 -1       973 1.97893E+01 3.84288E-01-1.03922E-05 2.27861E-01-2.81253E-13 2.66426E-13
 -1       974 1.98599E+01 2.99748E-01-1.25747E-05 1.77790E-01-4.12033E-13 2.54337E-13
 -1       975 1.99093E+01 2.31254E-01-9.01730E-06 1.35409E-01-4.79899E-13 2.39164E-13
 -1       976 1.99432E+01 1.76414E-01-1.23687E-07 1.00825E-01 2.72746E-13-3.82091E-14
 -1       977 1.99594E+01 1.44236E-01-2.43070E-05 7.81722E-02 2.59322E-13-9.83697E-14
 -1       978 1.99484E+01 1.30393E-01-2.72480E-06-2.64873E-02-1.67696E-14-6.00467E-13
 -1       979 2.00328E+01 5.33852E-01-2.73761E-06-4.91181E-01 1.36965E-13-1.99014E-13
 -1       980 1.78796E+01 1.29174E+00-4.22625E-05-6.19789E-01-5.23343E-14-1.73945E-13
 -1       981 2.02079E+01 6.82588E-01 6.97775E-05 2.13859E-01-8.89203E-14-2.44662E-13
 -1       982 2.02197E+01 1.40028E+00-8.80067E-05 1.91737E-01 2.49736E-13-3.76964E-13
 -1       983 1.75018E+01 1.44628E+00-2.99260E-04 5.78660E-01-5.60590E-14 5.38713E-14
 -1       984 2.02406E+01 8.53772E-01-6.13332E-04 1.03109E-01-1.06643E-13-3.22472E-13
 -1       985 2.01703E+01 1.56560E+00 2.08202E-04-9.19826E-02-4.18801E-14-4.36771E-13
 -1       986 1.57372E+01 1.51279E+00 1.25895E-03-5.52529E-01-4.52969E-14-3.38118E-13
 -1       987 1.42917E+01 1.35915E+00 1.71546E-02-1.25764E+00 4.52048E-14-3.28355E-13
 -1       988 1.85562E+01-2.01202E+00 1.69413E-02 4.07936E+00 2.08856E-13-3.81401E-14
 -1       989 2.01348E+01 5.30025E-01-3.11603E-05 3.44128E-01-7.41379E-14-2.58869E-13
 -1       990 1.99696E+01 1.00218E-01-9.96546E-06 2.56097E-02 3.95388E-13 1.64050E-13
 -1       991 1.99433E+01 1.36924E-01 6.78611E-05-2.26640E-03-1.61305E-14-4.39258E-13
 -1       992 1.96779E+01 6.92062E-01-2.35119E-05-4.92783E-01 4.80724E-14-2.33258E-13
 -1       993 2.02348E+01 9.58610E-01 1.99947E-04-2.73775E-02 2.44995E-13-3.29438E-13
 -1       994 1.62692E+01 5.02974E-01 6.56404E-03-2.30213E+00 7.46770E-14-1.27795E-14
 -1       995 1.93942E+01 7.99430E-01-1.45344E-04-5.55527E-01 2.50308E-14-2.63278E-13
 -1       996 1.85335E+01 1.11697E+00-1.09910E-05-6.23475E-01-1.67380E-15-2.50273E-13
 -1       997 1.46453E+01 1.53299E+00 1.18776E-02 8.20189E-02-1.35354E-13 3.70926E-13
 -1       998 1.66807E+01-8.19526E-01 2.09979E-02 3.71865E+00 2.29796E-13-1.31816E-13
 -1       999 2.02147E+01 1.15550E+00 4.41671E-04 3.29065E-02 2.01933E-13-3.76591E-13
 -1      1000 1.35608E+01 1.01367E+00 2.71995E-02 1.63249E+00 1.52938E-13-4.38843E-13
 -1      1001 2.01700E+01 7.55266E-01 6.89377E-06-1.86033E-01 1.35215E-13-2.98068E-13
 -1      1002 1.65244E+01 1.58105E+00 2.91912E-04 5.91888E-01-1.61854E-13 2.62337E-13
 -1      1003 1.87117E+01 1.09783E+00-8.65908E-05 5.26330E-01-2.26626E-13 1.73235E-13
 -1      1004 1.45932E+01 1.50021E+00 8.25261E-03 8.49583E-01 4.59128E-14 1.07510E-13
 -1      1005 2.01890E+01 1.25440E+00 1.23102E-04 3.31780E-02 1.64587E-13-4.24985E-13
 -1      1006 1.82018E+01 1.28030E+00-1.27711E-04 5.62185E-01-6.60244E-15 1.87552E-13
 -1      1007 2.00246E+01 5.77231E-01 3.19657E-06 3.12234E-01-6.02337E-14-2.26653E-13
 -1      1008 1.97393E+01 4.54037E-01-1.38097E-04 5.61133E-01-2.69603E-14-1.88573E-13
 -1      1009 1.95907E+01 3.93681E-01 4.44500E-06 7.31165E-01-2.27321E-15-2.09501E-13
 -1      1010 1.94649E+01 2.88423E-01 7.43072E-05 9.48955E-01 3.97824E-14-1.89321E-13
 -1      1011 1.93935E+01 9.93226E-02 2.16553E-04 1.22616E+00 7.55588E-14-7.97580E-14
 -1      1012 1.94228E+01-2.19514E-01-4.83499E-04 1.56784E+00 1.96894E-14-1.18900E-13
 -1      1013 1.96366E+01-7.24702E-01 3.72611E-04 1.97288E+00-4.07072E-14-1.60483E-13
 -1      1014 2.01564E+01-1.45989E+00 1.36166E-03 2.38037E+00 7.81422E-14-8.50457E-14
 -1      1015 2.07300E+01-2.26878E+00 3.24395E-03 2.83817E+00 1.33087E-13 4.37551E-14
 -1      1016 2.01837E+01 1.28083E+00 2.06765E-04 2.12839E-02 5.89806E-14-3.73172E-13
 -1      1017 2.02172E+01 1.19736E+00 8.16920E-04-3.50964E-03-5.70393E-14-3.55950E-13
 -1      1018 1.95149E+01-5.89722E-01-3.63635E-04-1.90753E+00-1.62936E-13-1.24107E-13
 -1      1019 1.92781E+01-8.29258E-02-3.73841E-04-1.49298E+00-2.65134E-13 1.07453E-13
 -1      1020 1.92254E+01 2.26615E-01 1.13527E-04-1.14554E+00-3.81639E-13 2.12917E-13
 -1      1021 1.92624E+01 4.01250E-01 1.62828E-04-8.66304E-01-2.17197E-13 1.39215E-13
 -1      1022 1.93459E+01 4.80277E-01 5.09008E-05-6.49232E-01-2.54662E-13-4.40618E-14
 -1      1023 1.94475E+01 4.96065E-01 1.21814E-05-4.82688E-01-9.86024E-14-1.92517E-13
 -1      1024 1.95510E+01 4.71899E-01-1.18966E-05-3.56801E-01 1.33731E-13-3.70078E-13
 -1      1025 1.96462E+01 4.26001E-01-2.98390E-06-2.62276E-01 9.29786E-14-2.01319E-13
 -1      1026 1.97298E+01 3.68879E-01-1.21131E-05-1.91872E-01 5.78872E-14-2.42872E-13
 -1      1027 1.97991E+01 3.10036E-01-2.83679E-05-1.39269E-01 7.21502E-14-3.10931E-13
 -1      1028 1.98552E+01 2.53631E-01-2.96162E-05-1.00066E-01 1.35787E-13-3.91485E-13
 -1      1029 1.98985E+01 2.02880E-01-3.14537E-05-7.13435E-02-1.28870E-13-3.94104E-13
 -1      1030 1.95205E+01 5.82474E-01-1.01465E-05 1.84066E-01-2.71528E-13 3.28390E-13
 -1      1031 1.98893E+01 5.04736E-01-1.09800E-04 4.25545E-01-2.76162E-14-1.71173E-13
 -1      1032 1.93322E+01 7.11877E-01-8.03387E-06 1.99629E-01-5.67246E-14 2.14193E-13
 -1      1033 1.99502E+01 1.36852E-01-4.23998E-05 4.05946E-02 4.59713E-13-2.45449E-13
 -1      1034 1.90801E+01 8.55293E-01-6.48846E-05 1.98714E-01-3.32366E-13 3.51227E-15
 -1      1035 1.97629E+01 3.73403E-01-5.47626E-05 1.32690E-01-4.00331E-13 1.82319E-13
 -1      1036 1.98376E+01 2.93332E-01-1.58446E-05 1.06350E-01-2.87859E-13 2.11936E-13
 -1      1037 1.98915E+01 2.27213E-01-9.13034E-06 8.26433E-02 5.78740E-14-3.33679E-13
 -1      1038 1.98940E+01 6.39507E-01-4.31465E-05-4.12182E-01 1.36642E-13-2.24618E-13
 -1      1039 1.73633E+01 1.24156E+00-3.49902E-04 1.59560E-01-1.86403E-14-2.55176E-13
 -1      1040 2.01326E+01 6.99379E-01-7.41067E-07 2.09355E-01-7.79421E-14-2.45919E-13
 -1      1041 1.96600E+01 4.69700E-01-3.78621E-05 1.59592E-01-2.54673E-13 1.87430E-13
 -1      1042 1.45674E+01 1.41549E+00 1.09849E-02 3.30916E-01 3.50383E-14-3.64690E-13
 -1      1043 1.99260E+01 1.64852E-01 3.28291E-05-4.49546E-02-3.28892E-13-5.47386E-13
 -1      1044 1.63444E+01 1.30031E+00-1.86822E-03 4.94285E-01 1.13579E-14-2.65209E-13
 -1      1045 1.99431E+01 1.39989E-01-8.40312E-07 1.95488E-02 2.07618E-13-3.41510E-14
 -1      1046 1.96949E+01-1.15678E+00-2.07730E-03-2.42812E+00 6.53858E-14-3.35256E-13
 -1      1047 1.90227E+01 9.46459E-01-1.52021E-04-6.00311E-01 3.44715E-14-2.62445E-13
 -1      1048 1.56070E+01 1.35307E+00 3.63106E-03-8.59501E-01-7.15853E-14 1.54837E-13
 -1      1049 2.00561E+01 6.55434E-01-6.96016E-05-3.11961E-01 1.15227E-13-2.36705E-13
 -1      1050 2.01752E+01 8.92899E-01-1.27059E-04-9.07399E-02 1.51880E-13-3.12456E-13
 -1      1051 1.99147E+01 1.76265E-01-7.07147E-05-1.30038E-02-1.81565E-13-7.91160E-13
 -1      1052 1.55078E+01 3.53878E-01 3.85247E-03 2.61172E+00 2.00056E-13-1.98889E-13
 -1      1053 1.81056E+01 1.13388E+00 7.35398E-05-4.33880E-02-2.62485E-14-1.59434E-13
 -1      1054 2.01880E+01 8.40783E-01-3.35135E-04 1.27366E-01-3.16937E-14-2.87355E-13
 -1      1055 1.99197E+01 1.87005E-01-9.87582E-06 6.49361E-02 2.17519E-13-2.31415E-13
 -1      1056 1.97402E+01 7.04810E-01-1.49960E-04-2.56754E-01 5.95183E-14-2.22118E-13
 -1      1057 2.01971E+01 1.25371E+00 4.90843E-04 9.68878E-03-2.16491E-14-3.81986E-13
 -1      1058 1.68723E+01 1.39837E+00-4.50526E-04-2.64787E-01-6.24723E-14 1.00593E-13
 -1      1059 1.87438E+01 1.00777E+00-1.68074E-04 1.69332E-01-1.75252E-13 2.37433E-13
 -1      1060 1.88886E+01-1.32629E+00 7.51711E-03 3.16322E+00 1.38594E-13 6.06322E-14
 -1      1061 1.76835E+01 1.30196E+00-4.38027E-05-4.09042E-02-2.67585E-14 1.57743E-13
 -1      1062 1.79912E+01-5.74723E-02 3.99844E-03-2.29534E+00 7.75292E-14-2.23535E-13
 -1      1063 1.94706E+01 7.64548E-01-1.17528E-04-2.69874E-01 3.39053E-14-1.95717E-13
 -1      1064 1.92362E+01 5.45077E-01-1.27479E-04 6.73342E-01 5.19495E-14-1.30287E-13
 -1      1065 1.89928E+01 4.69947E-01-7.56340E-05 9.47982E-01 1.18587E-13-1.02236E-13
 -1      1066 1.87749E+01 2.93381E-01-1.79708E-03 1.33686E+00 3.63180E-14-1.10812E-13
 -1      1067 1.86429E+01-1.43042E-02 1.40023E-03 1.81858E+00 1.45788E-14-9.30009E-14
 -1      1068 1.86016E+01-5.35217E-01-5.00739E-03 2.43658E+00 6.87464E-14-3.71292E-14
 -1      1069 1.93888E+01 6.38826E-01 6.43548E-05 2.93590E-02-2.36091E-13-7.60122E-14
 -1      1070 1.84926E+01 1.20431E-01 1.14233E-03-1.78049E+00-1.49557E-14-1.42975E-13
 -1      1071 2.00720E+01 7.45789E-01 2.21374E-05-1.88994E-01 1.22735E-13-3.33374E-13
 -1      1072 2.00338E+01 7.04500E-01-1.30711E-05 1.56115E-01-2.05722E-14-1.88985E-13
 -1      1073 2.01633E+01 1.01950E+00 1.21022E-04 9.84664E-03 1.14782E-13-3.46360E-13
 -1      1074 1.72968E+01 9.16180E-01-6.11375E-05 1.08642E+00 6.81486E-15-2.05061E-13
 -1      1075 1.86098E+01 4.31347E-01-4.07262E-04-1.28440E+00-2.05063E-13-3.59385E-14
 -1      1076 1.88046E+01 5.84917E-01 6.90038E-04-9.08815E-01-2.49329E-13 1.27686E-13
 -1      1077 1.89986E+01 6.44642E-01-2.72900E-04-6.32967E-01-3.50822E-13 1.29890E-14
 -1      1078 1.91871E+01 6.37593E-01-5.58651E-05-4.38653E-01-2.15601E-13 4.87951E-14
 -1      1079 1.93561E+01 5.91974E-01 2.94197E-05-3.01974E-01 6.09031E-15 1.39548E-13
 -1      1080 1.95006E+01 5.26379E-01-2.13641E-05-2.06422E-01 1.08528E-13-1.75883E-13
 -1      1081 1.96193E+01 4.54067E-01 1.18415E-04-1.39949E-01-6.51526E-14-4.52622E-13
 -1      1082 1.97166E+01 3.80546E-01 9.36667E-05-9.38273E-02-1.43005E-13-3.83127E-13
 -1      1083 1.97979E+01 3.09626E-01 3.93014E-04-6.34436E-02-1.14198E-13-7.21472E-13
 -1      1084 1.98564E+01 2.47627E-01 4.95726E-05-4.33401E-02 3.14431E-14-9.07171E-13
 -1      1085 1.56447E+01 9.96959E-01 5.18866E-03 1.44498E+00 9.01049E-14-2.67709E-13
 -1      1086 1.68406E+01 9.32695E-01-1.47982E-03-1.41154E+00 1.90929E-14-2.31470E-13
 -1      1087 1.91761E+01 7.54789E-01-1.22325E-04-1.36394E-02-2.02547E-13 3.49865E-14
 -1      1088 1.98418E+01 2.71899E-01 1.56196E-05 4.45933E-02-1.36169E-13-2.35323E-13
 -1      1089 1.97707E+01 3.46466E-01 2.60657E-04 5.20604E-02-3.04849E-13-3.74663E-13
 -1      1090 1.98816E+01 6.24573E-01 3.11013E-04 2.35931E-01-1.28833E-15-1.55552E-13
 -1      1091 1.98878E+01 2.11047E-01 1.15357E-04-2.57489E-02-1.40659E-13-1.02412E-12
 -1      1092 1.82933E+01 1.16198E+00-1.25878E-04 9.79354E-02-8.10029E-14 3.14014E-13
 -1      1093 1.96903E+01 5.91557E-01 3.25227E-04 3.39911E-01-2.65063E-14-1.60883E-13
 -1      1094 1.94716E+01 5.75505E-01 2.45930E-04 4.78745E-01-5.86324E-14-1.69592E-13
 -1      1095 1.95546E+01 5.29925E-01 7.18024E-04 5.03804E-02-1.06291E-13-1.03156E-13
 -1      1096 1.75290E+01 1.04070E+00-3.80779E-04-8.85153E-01-1.60378E-13-1.97703E-13
 -1      1097 2.01164E+01 8.14984E-01 2.19964E-04 1.02562E-01-1.64216E-14-2.08645E-13
 -1      1098 2.01721E+01 1.00896E+00-5.35303E-04 4.45197E-02 4.28348E-14-2.74797E-13
 -1      1099 1.79762E+01 9.35178E-01-2.08185E-03 6.33772E-01 4.10175E-14-1.83559E-13
 -1      1100 1.89046E+01 8.70613E-01-2.05436E-04-9.33580E-02-2.00937E-13 3.31453E-13
 -1      1101 1.86731E+01 1.00180E+00 4.50164E-05-1.71413E-01-8.40562E-15-1.67165E-13
 -1      1102 1.98799E+01 2.26379E-01-4.40565E-06 3.49816E-02 1.33406E-13-1.01954E-13
 -1      1103 1.96740E+01 4.33671E-01-1.40089E-05 5.60053E-02-3.08973E-13-2.58476E-13
 -1      1104 1.99466E+01 7.06120E-01-2.18974E-06-2.16065E-01 8.00405E-14-3.06905E-13
 -1      1105 1.91226E+01 8.70511E-01 4.44196E-04-2.46190E-01 2.45777E-14-2.04737E-13
 -1      1106 1.72844E+01-1.49953E-01 9.65708E-03 2.69731E+00 1.12010E-13-1.95450E-13
 -1      1107 1.99169E+01 1.79370E-01 1.91334E-04 2.63748E-02 2.38254E-13-1.86089E-13
 -1      1108 1.96122E+01 7.14484E-01-1.65340E-04-2.90251E-02 2.27369E-14-1.75530E-13
 -1      1109 1.98465E+01 7.09213E-01 1.87237E-04-6.02684E-02 1.84882E-14-2.03053E-13
 -1      1110 1.98009E+01 3.05055E-01-4.40813E-04-1.31297E-02-1.85892E-13-4.98090E-13
 -1      1111 1.84301E+01 7.17373E-01 1.27823E-03 8.32663E-01 8.35893E-14-2.20366E-13
 -1      1112 1.80945E+01 1.03626E+00-1.75075E-04-5.20810E-01-1.39212E-13-2.52414E-13
 -1      1113 2.01166E+01 8.67799E-01-2.14843E-04-5.43649E-02 1.00329E-13-3.81057E-13
 -1      1114 1.93234E+01 6.41390E-01 1.50229E-04-1.60061E-01-1.00325E-13 4.84305E-14
 -1      1115 1.89077E+01 8.03234E-01 2.21239E-04-3.24853E-01-2.66871E-13 8.36687E-14
 -1      1116 1.95164E+01 5.36390E-01-7.08457E-04-5.53182E-02-1.33236E-13-1.26156E-13
 -1      1117 1.93106E+01 7.67249E-01-6.35723E-04 3.72160E-02-1.64495E-14-1.02272E-13
 -1      1118 1.99202E+01 7.03935E-01-6.34409E-05 4.83111E-02 7.11635E-15-1.56179E-13
 -1      1119 1.91500E+01 7.28380E-01-1.28310E-04 3.28803E-01 4.48116E-15-2.32727E-15
 -1      1120 1.85590E+01 9.75717E-01-2.52973E-04-2.29232E-01-2.01969E-13-3.61600E-14
 -1      1121 1.88074E+01 7.48524E-01-5.07694E-05 5.36070E-01 6.04750E-14-7.39790E-14
 -1      1122 2.00204E+01 7.69699E-01 2.45824E-04-5.76415E-02 4.41949E-14-2.51232E-13
 -1      1123 2.01037E+01 8.54080E-01-6.34541E-04 2.13173E-02 4.86689E-14-2.37039E-13
 -1      1124 2.00824E+01 8.05702E-01 3.75256E-04 5.33641E-02 8.71755E-15-1.80767E-13
 -1      1125 1.91370E+01 7.24671E-01 1.95124E-04-2.28477E-01-7.26393E-14 1.24302E-13
 -1      1126 1.86056E+01 8.50814E-01 2.10796E-04-5.19286E-01-3.29144E-13-8.64839E-14
 -1      1127 1.98612E+01 2.42547E-01-2.38917E-04 4.29641E-03-1.45207E-13-7.32444E-13
 -1      1128 2.78695E+01 9.05460E+00 2.31233E+00-6.66434E+00-6.89448E-14 1.92188E-12
 -1      1129 2.05296E+01 6.22234E+00 2.11518E-01-3.87197E+00-3.62765E-14 1.25712E-13
 -1      1130 1.94426E+01 5.85601E+00 7.74233E-02-2.85017E+00-2.41474E-14-6.05739E-13
 -1      1131 1.90454E+01 5.73213E+00 6.16261E-02-2.19362E+00-1.53280E-14-9.28638E-13
 -1      1132 1.88617E+01 5.67584E+00 5.77674E-02-1.66043E+00-8.25034E-15-1.07240E-12
 -1      1133 1.87661E+01 5.64627E+00 5.48174E-02-1.19801E+00-4.50247E-15-1.13390E-12
 -1      1134 1.87135E+01 5.62974E+00 5.23152E-02-7.77483E-01-2.60989E-15-1.14007E-12
 -1      1135 1.86866E+01 5.62117E+00 5.06046E-02-3.78623E-01 4.51028E-16-1.12847E-12
 -1      1136 1.86791E+01 5.61876E+00 5.00480E-02 8.25795E-03 2.61694E-15-1.10393E-12
 -1      1137 1.86890E+01 5.62194E+00 5.07460E-02 3.95507E-01 5.33623E-15-1.07612E-12
 -1      1138 1.87182E+01 5.63126E+00 5.26547E-02 7.95663E-01 7.80105E-15-1.02680E-12
 -1      1139 1.87733E+01 5.64868E+00 5.56597E-02 1.21885E+00 1.17684E-14-9.42056E-13
 -1      1140 1.88706E+01 5.67883E+00 5.88239E-02 1.68586E+00 1.56229E-14-8.03220E-13
 -1      1141 1.90536E+01 5.73464E+00 6.18032E-02 2.22691E+00 2.16424E-14-5.62851E-13
 -1      1142 1.94402E+01 5.85354E+00 7.15126E-02 2.89124E+00 2.70617E-14-1.15005E-13
 -1      1143 2.04341E+01 6.17686E+00 1.55400E-01 3.84753E+00 3.02813E-14 7.40071E-13
 -1      1144 2.51318E+01 7.96602E+00 1.42145E+00 5.81624E+00 6.18394E-14 2.49223E-12
 -1      1145 2.86898E+01 3.59417E+00 1.25629E+00-4.19410E+00-2.80331E-13 3.05489E-12
 -1      1146 2.01719E+01-1.78004E-01-6.15864E-01-1.07530E-01-9.54792E-14 2.38912E-12
 -1      1147 1.88150E+01-9.68120E-02-2.36028E-01 6.26450E-02-3.83599E-14 1.51884E-12
 -1      1148 1.85156E+01-4.91032E-02-6.05060E-02 4.04476E-02-2.24265E-14 9.28604E-13
 -1      1149 1.85026E+01-2.62606E-02-1.70710E-02 2.68557E-02-1.68225E-14 5.29524E-13
 -1      1150 1.86402E+01-1.52722E-02-7.65811E-03 1.94186E-02-1.98643E-14 2.49835E-13
 -1      1151 1.88619E+01-9.38250E-03-4.92333E-03 1.49315E-02-7.87836E-15 1.11126E-14
 -1      1152 1.91338E+01-6.08444E-03-3.58243E-03 1.21539E-02-2.91694E-15-1.70777E-13
 -1      1153 1.94380E+01-4.14103E-03-2.76559E-03 1.04830E-02 8.49635E-16-4.15451E-13
 -1      1154 1.97650E+01-2.79603E-03-2.11746E-03 9.60307E-03-7.67393E-15-5.55596E-13
 -1      1155 2.01085E+01-1.48530E-03-1.18813E-03 9.28919E-03 1.09772E-14-7.16479E-13
 -1      1156 2.04608E+01 2.82460E-04 5.79815E-04 9.28814E-03-9.17118E-15-7.78299E-13
 -1      1157 2.08089E+01 2.94946E-03 3.79063E-03 9.23105E-03-1.50506E-14-9.55850E-13
 -1      1158 2.11297E+01 6.85100E-03 8.97338E-03 8.56594E-03-4.52665E-15-1.06171E-12
 -1      1159 2.13869E+01 1.20656E-02 1.63334E-02 6.53132E-03-1.64436E-14-1.08724E-12
 -1      1160 2.15296E+01 1.81679E-02 2.53389E-02 2.22971E-03-1.29935E-14-1.08940E-12
 -1      1161 2.14956E+01 2.39382E-02 3.42066E-02-5.10709E-03-2.00250E-14-1.21878E-12
 -1      1162 2.12242E+01 2.71878E-02 3.95813E-02-1.55926E-02-1.20771E-14-1.25723E-12
 -1      1163 2.06785E+01 2.50575E-02 3.69648E-02-2.79643E-02-5.91627E-15-1.42560E-12
 -1      1164 1.98767E+01 1.51002E-02 2.24969E-02-3.90638E-02-3.64726E-15-1.52773E-12
 -1      1165 1.89191E+01-2.77411E-03-4.01916E-03-4.42192E-02 1.73922E-15-1.44990E-12
 -1      1166 1.79893E+01-2.46205E-02-3.65406E-02-3.91501E-02 3.23699E-15-1.42648E-12
 -1      1167 1.73130E+01-4.27727E-02-6.35676E-02-2.28229E-02 2.35103E-14-1.13063E-12
 -1      1168 1.70783E+01-4.95757E-02-7.36649E-02 8.40768E-04 2.06124E-14-1.29100E-12
 -1      1169 1.73554E+01-4.19130E-02-6.22312E-02 2.42096E-02 9.80119E-16-1.18108E-12
 -1      1170 1.80647E+01-2.33462E-02-3.45503E-02 3.98065E-02 3.53385E-15-1.12232E-12
 -1      1171 1.90139E+01-1.75517E-03-2.35889E-03 4.40948E-02 4.69160E-14-1.16850E-12
 -1      1172 1.99795E+01 1.54361E-02 2.31527E-02 3.84499E-02 2.32902E-14-1.20534E-12
 -1      1173 2.07849E+01 2.45910E-02 3.64392E-02 2.72648E-02-1.85498E-14-1.02005E-12
 -1      1174 2.13382E+01 2.60522E-02 3.80724E-02 1.51444E-02-2.38663E-14-1.06954E-12
 -1      1175 2.16278E+01 2.23370E-02 3.20328E-02 5.11811E-03-1.84267E-14-1.15361E-12
 -1      1176 2.16952E+01 1.62878E-02 2.27639E-02-1.65625E-03 3.55601E-14-1.25559E-12
 -1      1177 2.16041E+01 1.00369E-02 1.35175E-02-5.33379E-03-4.08072E-15-1.23063E-12
 -1      1178 2.14180E+01 4.76889E-03 5.99648E-03-6.67508E-03 2.48317E-14-1.20491E-12
 -1      1179 2.11891E+01 9.07807E-04 7.04187E-04-6.53883E-03 5.84676E-14-1.08112E-12
 -1      1180 2.09542E+01-1.58515E-03-2.54117E-03-5.63167E-03 8.68878E-14-8.56757E-13
 -1      1181 2.07364E+01-2.96200E-03-4.19839E-03-4.43997E-03 1.90193E-14-9.13916E-13
 -1      1182 2.05474E+01-3.52880E-03-4.76091E-03-3.25316E-03-3.22192E-15-1.03843E-12
 -1      1183 2.03916E+01-3.56392E-03-4.64621E-03-2.21671E-03 1.73028E-14-1.06502E-12
 -1      1184 2.02684E+01-3.28717E-03-4.16462E-03-1.38387E-03 1.58578E-14-1.00402E-12
 -1      1185 2.01746E+01-2.85627E-03-3.52633E-03-7.55360E-04-9.27266E-14-9.91323E-13
 -1      1186 2.01058E+01-2.37557E-03-2.86232E-03-3.06104E-04-7.48299E-14-1.22563E-12
 -1      1187 2.00574E+01-1.90849E-03-2.24686E-03-1.25431E-06 3.34292E-14-1.10201E-12
 -1      1188 2.00252E+01-1.48917E-03-1.71636E-03 1.95259E-04-3.67044E-15-7.57907E-13
 -1      1189 2.00053E+01-1.13131E-03-1.28278E-03 3.16797E-04-6.75073E-15-5.24223E-13
 -1      1190 1.99946E+01-8.34495E-04-9.41002E-04 3.93054E-04 6.74169E-14-1.83013E-13
 -1      1191 1.99908E+01-5.87074E-04-6.63142E-04 4.50287E-04 4.00029E-14 4.60838E-13
 -1      1192 1.99917E+01-3.55624E-04-3.77014E-04 5.01460E-04 5.28606E-14 7.61869E-13
 -1      1193 1.99957E+01-1.54272E-04 9.91774E-05 5.58996E-04-5.52461E-14 2.29097E-13
 -1      1194 1.99992E+01 2.36017E-04 6.31118E-04 1.83875E-04 8.55069E-15 7.50145E-14
 -1      1195 2.76687E+01 5.23066E-01 3.67746E-01 1.95823E+00-4.35207E-14 3.92386E-12
 -1      1196 2.00241E+01-6.66213E-02-5.72890E-01 1.28711E-01 2.88831E-14 3.14918E-12
 -1      1197 1.88806E+01-4.13464E-02-1.93089E-01 1.97240E-02 1.82979E-14 2.40334E-12
 -1      1198 1.85344E+01-2.26905E-02-5.15268E-02 2.37840E-03 1.06642E-15 1.91106E-12
 -1      1199 1.85050E+01-1.43508E-02-1.54322E-02-2.63915E-03 6.98443E-16 1.59545E-12
 -1      1200 1.86383E+01-1.02178E-02-7.86432E-03-3.57256E-03 7.04753E-15 1.25486E-12
 -1      1201 1.88643E+01-8.29723E-03-6.62627E-03-3.18392E-03 8.11157E-15 1.02343E-12
 -1      1202 1.91526E+01-7.86789E-03-7.03381E-03-2.24452E-03 5.80232E-15 9.07918E-13
 -1      1203 1.94938E+01-8.65020E-03-8.62674E-03-1.00466E-03-9.17322E-15 7.06768E-13
 -1      1204 1.98933E+01-1.05534E-02-1.16121E-02 3.82416E-04 2.77187E-15 6.38704E-13
 -1      1205 2.03685E+01-1.35518E-02-1.62341E-02 1.72646E-03 1.58466E-14 4.57589E-13
 -1      1206 2.09481E+01-1.75531E-02-2.26758E-02 2.69171E-03 1.70647E-14 3.56657E-13
 -1      1207 2.16722E+01-2.21610E-02-3.08456E-02 2.63253E-03-1.14305E-14 4.25646E-13
 -1      1208 2.25899E+01-2.62128E-02-3.97589E-02 3.38731E-04-5.12112E-15 3.67421E-13
 -1      1209 2.37525E+01-2.69788E-02-4.61733E-02-6.26685E-03 1.48349E-14 1.57541E-13
 -1      1210 2.51936E+01-1.90909E-02-4.21784E-02-2.01815E-02-8.92363E-15 6.52534E-14
 -1      1211 2.68837E+01 5.94067E-03-1.24284E-02-4.41456E-02-7.58128E-16 1.50192E-13
 -1      1212 2.86429E+01 5.78798E-02 6.45881E-02-7.65391E-02 4.03688E-14 2.82233E-13
 -1      1213 3.00228E+01 1.27648E-01 1.96442E-01-1.00960E-01-3.43961E-14 3.40537E-13
 -1      1214 3.01199E+01 1.76564E-01 3.27797E-01-6.42229E-02 1.33331E-14 3.36939E-13
 -1      1215 2.80227E+01 1.17253E-01 2.99587E-01 6.28469E-02 5.78357E-14-5.97578E-14
 -1      1216 2.37252E+01-6.78344E-02-7.93024E-03 2.45639E-01-2.30189E-14-1.03140E-13
 -1      1217 1.92803E+01-2.26493E-01-4.37676E-01 3.12540E-01-4.13853E-14-6.52256E-15
 -1      1218 1.73428E+01-2.06240E-01-6.30708E-01 1.85878E-01-2.72733E-14 1.78135E-13
 -1      1219 1.93136E+01-7.11134E-02-4.26317E-01-9.03595E-02 1.15099E-14-2.89324E-13
 -1      1220 2.38722E+01 6.60252E-02-2.60282E-02-2.58500E-01-1.20379E-15-4.87110E-13
 -1      1221 2.81248E+01 9.39484E-02 2.32115E-01-2.50072E-01 3.16101E-14-4.76952E-13
 -1      1222 3.01571E+01 6.92544E-02 2.54194E-01-1.39507E-01 2.64545E-14-7.17509E-13
 -1      1223 3.00708E+01 3.53493E-02 1.59346E-01-3.69749E-02-8.71872E-15-3.11837E-13
 -1      1224 2.87679E+01 1.01944E-02 5.97761E-02 2.19117E-02 2.35155E-14-6.21864E-14
 -1      1225 2.70580E+01-2.92838E-03-5.94285E-04 4.31619E-02 1.05215E-14 3.20952E-13
 -1      1226 2.53760E+01-9.63366E-03-2.60707E-02 4.43422E-02 1.54082E-14 3.10890E-13
 -1      1227 2.39620E+01-1.10154E-02-3.15843E-02 3.64404E-02-2.02067E-14 8.66078E-13
 -1      1228 2.28807E+01-1.03187E-02-2.80860E-02 2.78892E-02 2.63841E-14 6.70713E-13
 -1      1229 2.20602E+01-8.85645E-03-2.25652E-02 2.04041E-02-4.88045E-14 2.24872E-13
 -1      1230 2.14514E+01-7.25768E-03-1.72897E-02 1.45553E-02-8.10951E-15 1.47706E-13
 -1      1231 2.10063E+01-5.78900E-03-1.29500E-02 1.02305E-02-1.54800E-14 4.05542E-13
 -1      1232 2.06845E+01-4.54118E-03-9.59671E-03 7.11793E-03 1.19690E-14 1.37185E-13
 -1      1233 2.04543E+01-3.52329E-03-7.07588E-03 4.90754E-03 1.40084E-13-1.64282E-13
 -1      1234 2.02917E+01-2.71190E-03-5.20246E-03 3.34796E-03 2.94693E-14-3.47411E-13
 -1      1235 2.01784E+01-2.07426E-03-3.81608E-03 2.25134E-03-9.48704E-16-6.33434E-13
 -1      1236 2.01013E+01-1.57816E-03-2.79195E-03 1.48230E-03 2.29842E-14-8.62236E-13
 -1      1237 2.00502E+01-1.19550E-03-2.03743E-03 9.44617E-04 1.39090E-14-1.01895E-12
 -1      1238 2.00180E+01-9.03057E-04-1.48536E-03 5.69755E-04-4.22831E-14-5.10926E-13
 -1      1239 1.99993E+01-6.80696E-04-1.08651E-03 3.07161E-04 4.81679E-14-9.36673E-13
 -1      1240 1.99901E+01-5.06948E-04-7.99084E-04 1.16473E-04 2.15376E-14-1.08057E-12
 -1      1241 1.99878E+01-3.57346E-04-5.73991E-04-3.90076E-05 1.73036E-13-1.04803E-12
 -1      1242 1.99900E+01-1.82024E-04-3.14707E-04-2.05539E-04 2.25375E-14-5.29894E-13
 -1      1243 1.99950E+01 1.35960E-04 1.78400E-04-4.21938E-04-6.87678E-14 8.41431E-13
 -1      1244 1.99992E+01 1.86272E-04 6.45975E-04-2.01364E-04 2.69697E-14 1.08758E-12
 -1      1245 2.00000E+01-5.87910E-04 5.82966E-04-2.32660E-04 1.30774E-12-1.19817E-13
 -1      1246 1.99998E+01-4.50292E-03 4.82337E-05-5.20302E-04 8.72339E-13-1.00271E-13
 -1      1247 1.99995E+01-8.49622E-03-4.10504E-04-3.57446E-04 3.28617E-13 1.15068E-13
 -1      1248 1.99995E+01-9.41653E-03-4.80621E-04-1.37733E-04-2.43821E-13-7.11747E-14
 -1      1249 1.99996E+01-7.11363E-03-3.21871E-04 3.10288E-05 1.45419E-13 1.14867E-13
 -1      1250 1.99998E+01-2.77097E-03-8.58563E-05 1.22520E-04 5.62999E-14 3.59775E-17
 -1      1251 1.99999E+01 2.06742E-03 1.42119E-04 1.38843E-04 4.96917E-14 1.37382E-15
 -1      1252 2.00001E+01 5.93756E-03 3.06526E-04 9.77582E-05 4.38217E-14 9.04337E-14
 -1      1253 2.00001E+01 7.70375E-03 3.72541E-04 2.40543E-05 4.02487E-13 1.44677E-13
 -1      1254 2.00001E+01 6.92662E-03 3.29515E-04-5.32389E-05 5.49607E-13-7.54130E-17
 -1      1255 2.00000E+01 3.89434E-03 1.87135E-04-1.04744E-04 2.43046E-13-9.45832E-14
 -1      1256 1.99998E+01-4.07732E-04-2.16998E-05-1.06507E-04-1.41858E-13 6.06105E-14
 -1      1257 1.99997E+01-4.62476E-03-2.51266E-04-3.90533E-05-2.41571E-13 5.53713E-15
 -1      1258 1.99995E+01-7.26121E-03-4.19851E-04 1.04048E-04-3.74515E-13-1.02978E-13
 -1      1259 1.99996E+01-7.09153E-03-3.69365E-04 3.53404E-04-7.19383E-13 6.21806E-14
 -1      1260 1.99997E+01-3.84133E-03 9.49718E-05 6.85136E-04-2.74498E-13-7.00813E-14
 -1      1261 1.99999E+01-6.88502E-04 5.29256E-04 2.83368E-04 1.47579E-14 1.47056E-14
 -1      1262-1.12390E+00-2.56489E+01-3.89182E+00-2.32514E+00 8.23924E-13 1.35104E-13
 -1      1263-2.15916E+00-1.82797E+01-3.44758E+00-4.89307E+00 1.35869E-12 4.76674E-13
 -1      1264-9.72169E-01-5.91511E+00-2.45190E+00-2.07272E+00 2.11853E-12 1.40321E-12
 -1      1265 7.02474E+00 5.51661E+00-8.65303E-01 6.26291E+00 2.77911E-12 2.55485E-12
 -1      1266 2.41037E+01 1.05437E+01 1.02797E+00 1.52764E+01 1.78524E-12 2.48535E-12
 -1      1267 4.72342E+01 8.44549E+00 3.00726E+00 1.84461E+01 7.44516E-13 1.65779E-12
 -1      1268 6.67657E+01 3.69351E+00 4.57055E+00 1.16394E+01 1.53488E-13 3.76033E-13
 -1      1269 7.29286E+01 2.08941E+00 5.11152E+00-1.95320E+00 9.88376E-14-1.00467E-12
 -1      1270 6.22807E+01 5.44380E+00 4.37789E+00-1.42208E+01 5.30076E-13-2.11253E-12
 -1      1271 3.94942E+01 9.76800E+00 2.48371E+00-1.81570E+01 1.34626E-12-2.56017E-12
 -1      1272 1.63110E+01 9.15299E+00 2.52786E-01-1.17456E+01 2.29794E-12-2.60503E-12
 -1      1273 2.60278E+00 1.06470E+00-1.56114E+00-2.18754E+00 2.51243E-12-2.01061E-12
 -1      1274-2.02709E+00-1.13031E+01-2.93549E+00 4.04040E+00 2.08034E-12-1.01930E-12
 -1      1275-1.81125E+00-2.20923E+01-3.71137E+00 4.33853E+00 1.46905E-12-4.24258E-13
 -1      1276-1.06408E+00-2.61900E+01-3.92527E+00 2.80482E-01-2.70534E-13-1.93359E-13
 -1      1277-1.57890E+00-2.00897E+01-3.39882E+00-3.40305E+00-1.92135E-12-5.24081E-13
 -1      1278-1.06056E+00-7.82396E+00-2.37797E+00-2.30057E+00-2.86859E-12-1.46516E-12
 -1      1279 4.34001E+00 4.34388E+00-8.77488E-01 4.47484E+00-3.04667E-12-2.25775E-12
 -1      1280 1.74390E+01 1.09539E+01 7.18446E-01 1.33007E+01-2.34879E-12-2.65521E-12
 -1      1281 3.66641E+01 1.05655E+01 2.32618E+00 1.83893E+01-1.50535E-12-2.60392E-12
 -1      1282 5.60641E+01 5.66661E+00 3.52265E+00 1.48207E+01-5.29576E-13-1.38245E-12
 -1      1283 6.69041E+01 1.83236E+00 4.11450E+00 3.48860E+00-9.79633E-14 1.90292E-13
 -1      1284 6.36715E+01 2.89138E+00 3.90352E+00-9.54125E+00-3.26711E-13 1.57663E-12
 -1      1285 4.82043E+01 7.91881E+00 3.02335E+00-1.75719E+01-8.66640E-13 2.32769E-12
 -1      1286 2.79859E+01 1.14892E+01 1.64531E+00-1.70786E+01-1.58717E-12 2.43539E-12
 -1      1287 1.09911E+01 8.96264E+00 2.50843E-02-9.67742E+00-1.81943E-12 1.86184E-12
 -1      1288 1.09481E+00-8.77849E-01-1.58675E+00-8.38282E-01-1.85474E-12 1.21769E-12
 -1      1289-1.65547E+00-1.41968E+01-2.93997E+00 3.71247E+00-7.28528E-13 4.30211E-13
 -1      1290-1.16720E+00-2.39336E+01-3.68065E+00 2.19121E+00 2.71783E-13 5.98792E-14
 -1      1291 2.22094E+01 1.83579E+00-7.22961E-01-2.77171E+00-1.04999E-13 1.51201E-12
 -1      1292 2.03541E+01 4.68406E+00-4.74942E-02-3.27112E+00-2.67647E-13-2.26610E-13
 -1      1293 2.08463E+01 4.79909E+00-1.11883E-01-4.12585E+00-3.49248E-13 1.60885E-13
 -1      1294 1.95458E+01 4.99300E+00-1.91135E-02-2.61260E+00-2.59522E-13-7.55947E-13
 -1      1295 1.98366E+01 5.08752E+00 1.46757E-03-3.00572E+00-2.97817E-13-5.34670E-13
 -1      1296 2.05286E+01 3.94703E+00-2.52891E-02-3.03360E+00-4.64698E-13-1.99535E-13
 -1      1297 1.92048E+01 5.08973E+00-3.48826E-03-2.02664E+00-1.96175E-13-9.97077E-13
 -1      1298 1.93516E+01 5.14427E+00 1.14629E-02-2.31992E+00-2.30690E-13-8.89393E-13
 -1      1299 1.97708E+01 4.36813E+00-2.39599E-02-2.44354E+00-4.02066E-13-6.31793E-13
 -1      1300 1.90290E+01 5.14061E+00 2.97276E-03-1.52254E+00-1.33254E-13-1.10910E-12
 -1      1301 1.91081E+01 5.17057E+00 1.31300E-02-1.77093E+00-1.57725E-13-1.06086E-12
 -1      1302 1.94120E+01 4.56567E+00-1.96135E-02-1.88578E+00-2.92819E-13-8.44724E-13
 -1      1303 1.89307E+01 5.17398E+00 5.97399E-03-1.08145E+00-7.93402E-14-1.14721E-12
 -1      1304 1.89758E+01 5.19113E+00 1.29434E-02-1.29911E+00-9.64263E-14-1.12933E-12
 -1      1305 1.92222E+01 4.68025E+00-1.57113E-02-1.40207E+00-1.92100E-13-9.29631E-13
 -1      1306 1.88741E+01 5.19635E+00 7.51377E-03-6.68946E-01-3.37100E-14-1.15068E-12
 -1      1307 1.88996E+01 5.20600E+00 1.19198E-02-8.73463E-01-4.52303E-14-1.15520E-12
 -1      1308 1.91124E+01 4.75221E+00-1.36030E-02-9.70046E-01-1.08372E-13-9.72361E-13
 -1      1309 1.88468E+01 5.21010E+00 8.61542E-03-2.77918E-01 1.94971E-14-1.12936E-12
 -1      1310 1.88581E+01 5.21438E+00 1.07394E-02-4.73066E-01 2.51535E-16-1.13502E-12
 -1      1311 1.90506E+01 4.79597E+00-1.24737E-02-5.66518E-01-3.51137E-14-9.58941E-13
 -1      1312 1.88428E+01 5.21606E+00 9.66895E-03 1.04393E-01 6.09211E-14-1.10915E-12
 -1      1313 1.88422E+01 5.21584E+00 9.61060E-03-8.78349E-02 4.57321E-14-1.12283E-12
 -1      1314 1.90230E+01 4.81675E+00-1.19944E-02-1.81341E-01 5.71385E-14-9.49005E-13
 -1      1315 1.88614E+01 5.21462E+00 1.08333E-02 4.90108E-01 1.04314E-13-1.07328E-12
 -1      1316 1.88487E+01 5.20990E+00 8.56510E-03 2.94597E-01 8.97338E-14-1.09499E-12
 -1      1317 1.90244E+01 4.81649E+00-1.19981E-02 1.98017E-01 1.21494E-13-9.23685E-13
 -1      1318 1.89056E+01 5.20580E+00 1.20662E-02 8.91829E-01 1.46451E-13-1.02305E-12
 -1      1319 1.88787E+01 5.19584E+00 7.47047E-03 6.86409E-01 1.32804E-13-1.05671E-12
 -1      1320 1.90550E+01 4.79490E+00-1.24850E-02 5.83676E-01 1.94029E-13-8.89868E-13
 -1      1321 1.89835E+01 5.19034E+00 1.32083E-02 1.31628E+00 1.90282E-13-9.27203E-13
 -1      1322 1.89372E+01 5.17268E+00 5.90889E-03 1.09718E+00 1.72529E-13-9.84327E-13
 -1      1323 1.91197E+01 4.74991E+00-1.35097E-02 9.84852E-01 2.61412E-13-8.34624E-13
 -1      1324 1.91196E+01 5.16777E+00 1.34838E-02 1.79660E+00 2.55868E-13-7.73367E-13
 -1      1325 1.90388E+01 5.13705E+00 2.85854E-03 1.54538E+00 2.28189E-13-8.64107E-13
 -1      1326 1.92325E+01 4.67485E+00-1.56717E-02 1.41965E+00 3.44801E-13-7.21562E-13
 -1      1327 1.93650E+01 5.13855E+00 1.11485E-02 2.35408E+00 3.14311E-13-5.09301E-13
 -1      1328 1.92175E+01 5.08228E+00-4.26740E-03 2.05617E+00 2.82704E-13-6.71494E-13
 -1      1329 1.94291E+01 4.55407E+00-1.94967E-02 1.91153E+00 4.38562E-13-5.53731E-13
 -1      1330 1.98622E+01 5.09653E+00 7.25877E-03 3.04442E+00 3.51219E-13-2.01436E-14
 -1      1331 1.95590E+01 4.98442E+00-1.98907E-02 2.65486E+00 3.14485E-13-3.14707E-13
 -1      1332 1.97942E+01 4.34895E+00-2.40099E-02 2.48215E+00 5.02643E-13-2.48648E-13
 -1      1333 2.10774E+01 4.89465E+00 9.07641E-03 4.02019E+00 2.97123E-13 8.94090E-13
 -1      1334 2.03275E+01 4.72716E+00-4.67875E-02 3.38050E+00 2.94501E-13 3.39312E-13
 -1      1335 2.05662E+01 3.91029E+00-2.17457E-02 3.13690E+00 5.21819E-13 2.96596E-13
 -1      1336 2.71064E+01 3.19094E+00 9.20713E-01 4.55462E+00 1.44482E-13 2.61102E-12
 -1      1337 2.19757E+01 3.51346E+00-1.80497E-01 3.85662E+00 1.47743E-13 1.42161E-12
 -1      1338 2.20821E+01 2.55427E+00-3.21480E-02 3.42181E+00 4.83006E-13 1.13001E-12
 -1      1339 2.13666E+01 3.58148E-01-7.61319E-01 1.16985E+00 2.61458E-13 2.51138E-12
 -1      1340 2.19531E+01 1.30602E-01-3.99874E-01-1.26846E+00-2.95985E-13 1.61959E-12
 -1      1341 2.06491E+01 3.05464E-01-1.63866E-01-7.91401E-01-2.70707E-13 1.26977E-12
 -1      1342 2.00645E+01 1.53529E-01-7.30531E-02-3.87984E-01-2.16376E-13 1.13877E-12
 -1      1343 1.96121E+01 9.16752E-02-1.45197E-02-3.15888E-01-2.03244E-13 8.25576E-13
 -1      1344 2.09614E+01 3.67825E-01-1.04103E-01-1.24556E+00-4.66828E-13 6.01786E-13
 -1      1345 1.92709E+01 6.54897E-02 3.23989E-03-1.19591E-01-1.61217E-13 7.15268E-13
 -1      1346 1.91360E+01 4.26725E-02 1.34526E-02-1.01169E-01-1.48848E-13 4.88665E-13
 -1      1347 1.99398E+01 1.34687E-01-3.54407E-02-4.74120E-01-3.58137E-13 4.00371E-13
 -1      1348 1.89957E+01 3.33703E-02 1.33330E-02-7.99760E-03-1.16897E-13 3.96499E-13
 -1      1349 1.90010E+01 2.15865E-02 1.12556E-02 2.43271E-03-1.04439E-13 2.31471E-13
 -1      1350 1.94980E+01 5.79147E-02-9.03386E-03-1.33703E-01-2.58630E-13 2.01623E-13
 -1      1351 1.89707E+01 1.86515E-02 8.83428E-03 5.15163E-02-8.32130E-14 1.72451E-13
 -1      1352 1.90459E+01 1.20192E-02 6.64063E-03 5.76010E-02-8.30841E-14 5.55944E-14
 -1      1353 1.93341E+01 2.82495E-02-4.24418E-03 3.61497E-02-1.92388E-13 3.86921E-14
 -1      1354 1.90794E+01 1.12804E-02 4.69448E-03 8.59001E-02-7.39610E-14 5.95357E-15
 -1      1355 1.91932E+01 7.14815E-03 3.83809E-03 8.96508E-02-5.46217E-14-7.61578E-14
 -1      1356 1.93355E+01 1.53140E-02-3.17849E-03 1.30002E-01-1.53944E-13-3.92208E-14
 -1      1357 1.92657E+01 7.34599E-03 2.40158E-03 1.07160E-01-6.38936E-14-1.24985E-13
 -1      1358 1.94027E+01 4.55405E-03 2.37086E-03 1.09662E-01-6.48535E-14-2.37613E-13
 -1      1359 1.94369E+01 9.09747E-03-2.49573E-03 1.85947E-01-1.17270E-13-1.33159E-13
 -1      1360 1.95004E+01 5.16970E-03 1.19361E-03 1.21292E-01-5.29266E-14-2.83784E-13
 -1      1361 1.96525E+01 3.06603E-03 1.52163E-03 1.23120E-01-4.96380E-14-3.64741E-13
 -1      1362 1.96014E+01 5.98148E-03-1.90841E-03 2.21734E-01-1.35507E-13-2.22264E-13
 -1      1363 1.97671E+01 3.79923E-03 4.76110E-04 1.31193E-01-4.80840E-14-3.70761E-13
 -1      1364 1.99297E+01 1.92985E-03 9.26552E-04 1.32572E-01-5.43469E-14-4.58464E-13
 -1      1365 1.98077E+01 4.22354E-03-1.44817E-03 2.46063E-01-9.76134E-14-2.85077E-13
 -1      1366 2.00554E+01 2.52687E-03-1.55545E-05 1.37678E-01-6.73706E-14-4.80825E-13
 -1      1367 2.02245E+01 5.17839E-04 4.42672E-04 1.38525E-01-3.98638E-14-5.33652E-13
 -1      1368 2.00422E+01 2.65252E-03-1.04824E-03 2.62491E-01-9.29566E-14-3.41538E-13
 -1      1369 2.03561E+01 7.07541E-04-3.64397E-04 1.39799E-01-2.68385E-14-6.16937E-13
 -1      1370 2.05260E+01-1.76636E-03 3.17248E-05 1.39713E-01-9.10733E-14-7.03063E-13
 -1      1371 2.02944E+01 2.36849E-04-5.68531E-04 2.70763E-01-9.50308E-14-4.47133E-13
 -1      1372 2.06570E+01-2.29116E-03-5.59142E-04 1.34916E-01-8.84025E-14-7.07418E-13
 -1      1373 2.08185E+01-5.47745E-03-2.82717E-04 1.33169E-01-3.28500E-14-7.70011E-13
 -1      1374 2.05528E+01-4.03959E-03 1.60853E-04 2.67227E-01-9.81573E-14-5.51192E-13
 -1      1375 2.09396E+01-7.03532E-03-5.27790E-04 1.18849E-01-2.06278E-14-7.61858E-13
 -1      1376 2.10782E+01-1.10118E-02-4.27819E-04 1.14414E-01-2.70543E-14-8.05071E-13
 -1      1377 2.08023E+01-1.11129E-02 1.31127E-03 2.45108E-01-4.92455E-14-5.65956E-13
 -1      1378 2.11763E+01-1.38438E-02-1.62394E-04 8.63859E-02-1.51632E-14-7.96999E-13
 -1      1379 2.12708E+01-1.83572E-02-3.00234E-04 7.80915E-02-3.10268E-14-8.08860E-13
 -1      1380 2.10213E+01-2.15674E-02 3.01454E-03 1.95233E-01-3.77476E-14-5.77590E-13
 -1      1381 2.13291E+01-2.24504E-02 6.30276E-04 3.25630E-02-4.07500E-14-7.70341E-13
 -1      1382 2.13528E+01-2.67059E-02 1.83681E-04 1.94446E-02-3.54144E-14-8.17267E-13
 -1      1383 2.11806E+01-3.51074E-02 5.28464E-03 1.07906E-01-1.68025E-14-5.27703E-13
 -1      1384 2.13518E+01-3.15349E-02 1.83449E-03-4.49475E-02-6.82202E-14-8.19737E-13
 -1      1385 2.12759E+01-3.40295E-02 9.90370E-04-6.30001E-02-6.70020E-14-8.99067E-13
 -1      1386 2.12446E+01-4.98097E-02 7.89211E-03-2.33753E-02-8.53389E-14-5.27107E-13
 -1      1387 2.11978E+01-3.83212E-02 3.19404E-03-1.42314E-01-2.54003E-14-9.24357E-13
 -1      1388 2.10004E+01-3.69265E-02 1.86034E-03-1.63681E-01-5.00273E-14-9.37974E-13
 -1      1389 2.11759E+01-6.14323E-02 1.02165E-02-1.96032E-01-9.55286E-14-5.39737E-13
 -1      1390 2.08352E+01-3.86763E-02 4.15134E-03-2.45837E-01-8.32095E-14-9.97013E-13
 -1      1391 2.05133E+01-3.12600E-02 2.26368E-03-2.66395E-01-6.27666E-14-1.05975E-12
 -1      1392 2.09457E+01-6.34982E-02 1.11739E-02-3.91406E-01-1.12167E-13-6.74847E-13
 -1      1393 2.02683E+01-2.83849E-02 3.95038E-03-3.30487E-01-5.30825E-15-1.07540E-12
 -1      1394 1.98511E+01-1.41004E-02 1.58234E-03-3.43731E-01-4.76405E-14-1.11238E-12
 -1      1395 2.05493E+01-4.90706E-02 9.42727E-03-5.70094E-01-1.04876E-13-6.65447E-13
 -1      1396 1.95580E+01-5.78815E-03 2.09899E-03-3.64258E-01-1.48371E-14-1.14156E-12
 -1      1397 1.91126E+01 1.33904E-02-4.72037E-04-3.63140E-01-5.46485E-14-1.16310E-12
 -1      1398 2.00227E+01-1.48006E-02 4.02515E-03-6.75635E-01-7.28510E-14-7.77901E-13
 -1      1399 1.88281E+01 2.51488E-02-1.12827E-03-3.20424E-01-1.30542E-14-1.12771E-12
 -1      1400 1.84505E+01 4.39222E-02-3.35603E-03-3.01040E-01 1.07772E-13-1.03942E-12
 -1      1401 1.94523E+01 3.43894E-02-4.56121E-03-6.51873E-01-2.98199E-15-9.17778E-13
 -1      1402 1.82437E+01 5.43596E-02-4.41984E-03-1.94091E-01 9.30679E-14-9.95402E-13
 -1      1403 1.80300E+01 6.59175E-02-5.70255E-03-1.59193E-01 3.76929E-14-9.49445E-13
 -1      1404 1.89639E+01 8.38409E-02-1.37757E-02-4.71917E-01 1.21791E-13-8.26519E-13
 -1      1405 1.79587E+01 6.99413E-02-6.18057E-03-1.19874E-02 2.17907E-14-9.63439E-13
 -1      1406 1.79688E+01 6.95261E-02-6.11546E-03 2.87792E-02 4.59095E-14-9.84345E-13
 -1      1407 1.86863E+01 1.14660E-01-1.96959E-02-1.63014E-01 4.86538E-14-6.88068E-13
 -1      1408 1.80547E+01 6.49883E-02-5.57353E-03 1.74559E-01 7.56582E-14-9.52701E-13
 -1      1409 1.82864E+01 5.27968E-02-4.17660E-03 2.08678E-01 2.66757E-14-9.03161E-13
 -1      1410 1.87009E+01 1.13539E-01-1.94805E-02 1.94016E-01 5.96355E-14-6.74927E-13
 -1      1411 1.85051E+01 4.21568E-02-3.11577E-03 3.12091E-01-3.28301E-14-8.68895E-13
 -1      1412 1.88955E+01 2.32393E-02-8.11484E-04 3.30330E-01-4.87067E-15-8.25080E-13
 -1      1413 1.90047E+01 8.11088E-02-1.32228E-02 4.96760E-01 6.15306E-15-5.76324E-13
 -1      1414 1.91880E+01 1.17203E-02-2.54830E-04 3.69235E-01 1.00994E-13-9.05678E-13
 -1      1415 1.96404E+01-7.12084E-03 2.34687E-03 3.69434E-01 9.09192E-14-8.81423E-13
 -1      1416 1.95125E+01 3.13760E-02-3.99728E-03 6.67603E-01-5.03937E-15-5.07935E-13
 -1      1417 1.99384E+01-1.49297E-02 1.69592E-03 3.46603E-01 1.97303E-14-8.34482E-13
 -1      1418 2.03592E+01-2.86337E-02 4.08157E-03 3.33032E-01-6.85303E-15-8.04419E-13
 -1      1419 2.00952E+01-1.66991E-02 4.34024E-03 6.83882E-01 6.65430E-14-4.99994E-13
 -1      1420 2.06082E+01-3.09767E-02 2.27334E-03 2.69000E-01 6.12201E-14-8.08430E-13
 -1      1421 2.09335E+01-3.78174E-02 4.17949E-03 2.48764E-01 3.17693E-14-7.64382E-13
 -1      1422 2.06301E+01-4.91684E-02 9.38757E-03 5.75671E-01 3.80052E-14-5.20177E-13
 -1      1423 2.11043E+01-3.56334E-02 1.80462E-03 1.68976E-01-7.56639E-14-7.53319E-13
 -1      1424 2.13086E+01-3.66052E-02 3.18384E-03 1.48451E-01-4.18268E-14-7.78666E-13
 -1      1425 2.10357E+01-6.17941E-02 1.08309E-02 4.00009E-01-9.19056E-15-4.81262E-13
 -1      1426 2.13963E+01-3.20057E-02 9.09471E-04 7.32579E-02-2.99361E-14-7.80013E-13
 -1      1427 2.14852E+01-2.92808E-02 1.82557E-03 5.63789E-02-2.08687E-14-7.65781E-13
 -1      1428 2.12806E+01-5.83545E-02 9.66469E-03 2.12541E-01-4.21993E-14-4.37629E-13
 -1      1429 2.15010E+01-2.42125E-02 8.93725E-05-2.76218E-03-4.04191E-15-7.65965E-13
 -1      1430 2.14985E+01-1.98982E-02 6.41042E-04-1.45152E-02-1.94332E-15-7.23207E-13
 -1      1431 2.13730E+01-4.58356E-02 7.22069E-03 5.12012E-02-5.55680E-14-3.65642E-13
 -1      1432 2.14611E+01-1.55731E-02-4.18520E-04-5.41294E-02-3.41706E-14-8.13829E-13
 -1      1433 2.13968E+01-1.11443E-02-1.41834E-04-6.09488E-02-8.37082E-14-8.74895E-13
 -1      1434 2.13439E+01-3.05905E-02 4.55432E-03-6.66644E-02-1.08872E-13-4.09012E-13
 -1      1435 2.13263E+01-8.04251E-03-5.99610E-04-8.26966E-02-2.39863E-14-7.78324E-13
 -1      1436 2.12277E+01-4.28532E-03-5.25175E-04-8.55876E-02 8.54050E-14-7.89716E-13
 -1      1437 2.12321E+01-1.67080E-02 2.26413E-03-1.39388E-01-3.63993E-14-4.75119E-13
 -1      1438 2.11409E+01-2.39993E-03-5.49736E-04-9.34742E-02 9.56042E-14-7.12129E-13
 -1      1439 2.10295E+01 4.11836E-04-6.17150E-04-9.36406E-02 1.00511E-13-5.26436E-13
 -1      1440 2.10735E+01-6.02739E-03 5.71141E-04-1.74078E-01 1.32414E-13-2.61838E-13
 -1      1441 2.09392E+01 1.31969E-03-3.83895E-04-9.20957E-02 1.14745E-14-6.16572E-13
 -1      1442 2.08295E+01 3.21161E-03-5.41654E-04-9.06109E-02-3.73521E-15-6.37454E-13
 -1      1443 2.08970E+01 1.15502E-03-5.30520E-04-1.80982E-01 6.12607E-14-4.08924E-13
 -1      1444 2.07441E+01 3.43886E-03-1.90679E-04-8.34816E-02-1.14464E-14-6.71733E-13
 -1      1445 2.06448E+01 4.57170E-03-3.96020E-04-8.11662E-02 3.61787E-15-7.16737E-13
 -1      1446 2.07230E+01 5.33741E-03-1.14886E-03-1.70053E-01-7.03442E-14-5.88790E-13
 -1      1447 2.05691E+01 4.38345E-03-2.17185E-05-7.13601E-02-1.72063E-15-8.57261E-13
 -1      1448 2.04845E+01 4.95258E-03-2.41493E-04-6.87755E-02-2.87014E-14-8.61716E-13
 -1      1449 2.05640E+01 7.28479E-03-1.41688E-03-1.49366E-01-9.87495E-14-5.93354E-13
 -1      1450 2.04204E+01 4.55023E-03 1.01731E-04-5.82674E-02-2.16592E-14-7.22852E-13
 -1      1451 2.03516E+01 4.73496E-03-1.09175E-04-5.57596E-02 4.21506E-14-7.36458E-13
 -1      1452 2.04263E+01 7.73990E-03-1.45475E-03-1.24739E-01-6.82206E-14-5.86476E-13
 -1      1453 2.02996E+01 4.25512E-03 1.77600E-04-4.57552E-02-3.42115E-14-8.08396E-13
 -1      1454 2.02457E+01 4.19935E-03-1.01286E-05-4.35112E-02-1.51528E-13-8.39558E-13
 -1      1455 2.03122E+01 7.30338E-03-1.35645E-03-9.99519E-02-3.63060E-14-5.58487E-13
 -1      1456 2.02049E+01 3.72557E-03 2.13321E-04-3.46496E-02-1.31647E-13-8.22256E-13
 -1      1457 2.01644E+01 3.53516E-03 5.57749E-05-3.27488E-02-1.64987E-13-1.00684E-12
 -1      1458 2.02211E+01 6.40978E-03-1.18907E-03-7.71906E-02-1.46550E-13-6.82766E-13
 -1      1459 2.01334E+01 3.11243E-03 2.19379E-04-2.52856E-02-8.68330E-14-8.97343E-13
 -1      1460 2.01040E+01 2.86000E-03 9.36853E-05-2.37403E-02 1.05466E-14-8.49389E-13
 -1      1461 2.01507E+01 5.34727E-03-9.96942E-04-5.75111E-02-1.66008E-13-6.97745E-13
 -1      1462 2.00814E+01 2.50787E-03 2.05672E-04-1.76926E-02 1.26386E-13-8.04902E-13
 -1      1463 2.00610E+01 2.23997E-03 1.09973E-04-1.64769E-02 1.74181E-13-7.19291E-13
 -1      1464 2.00980E+01 4.29144E-03-8.07179E-04-4.12298E-02 1.57190E-13-4.94710E-13
 -1      1465 2.00450E+01 1.96250E-03 1.79844E-04-1.17272E-02 8.29913E-14-5.31489E-13
 -1      1466 2.00317E+01 1.70617E-03 1.10143E-04-1.07965E-02 9.15302E-14-4.21441E-13
 -1      1467 2.00601E+01 3.33823E-03-6.34892E-04-2.82199E-02 2.29003E-13-3.45862E-13
 -1      1468 2.00210E+01 1.49844E-03 1.46769E-04-7.16466E-03 1.29080E-13-3.24181E-13
 -1      1469 2.00130E+01 1.26650E-03 9.79918E-05-6.46856E-03 1.25136E-13-1.81948E-13
 -1      1470 2.00339E+01 2.53011E-03-4.87134E-04-1.81207E-02 2.59275E-13 2.17700E-14
 -1      1471 2.00064E+01 1.11890E-03 1.08676E-04-3.76027E-03 1.38525E-13-7.46955E-14
 -1      1472 2.00024E+01 9.13541E-04 7.64263E-05-3.25017E-03 2.75944E-13 2.19416E-13
 -1      1473 2.00168E+01 1.87524E-03-3.65396E-04-1.04812E-02 2.84154E-13 2.83042E-13
 -1      1474 1.99988E+01 8.12233E-04 6.78931E-05-1.29133E-03 1.37980E-13 9.58657E-14
 -1      1475 1.99977E+01 6.22811E-04 5.34308E-05-9.27755E-04-1.16350E-14 2.26495E-13
 -1      1476 2.00065E+01 1.35729E-03-2.66251E-04-4.85769E-03 2.25041E-13 1.24792E-13
 -1      1477 1.99961E+01 5.36558E-04 3.64559E-05 3.85462E-04 9.15375E-14 2.60045E-13
 -1      1478 1.99970E+01 3.31657E-04 5.07936E-05 6.17877E-04 7.15956E-14 3.69234E-13
 -1      1479 2.00013E+01 9.18703E-04-1.76471E-04-9.10238E-04 1.04439E-13 6.34340E-15
 -1      1480 1.99966E+01 2.79319E-04 6.84084E-05 1.25215E-03-7.37039E-14 3.56930E-13
 -1      1481 1.99984E+01-4.57389E-05 1.59547E-04 1.36990E-03-2.00331E-13 1.68133E-13
 -1      1482 1.99993E+01 3.98950E-04-7.72460E-05 1.45501E-03 4.37503E-14 2.81537E-14
 -1      1483 1.99991E+01-5.61395E-04 3.70022E-04 6.46511E-04-1.63614E-13 7.24519E-14
 -1      1484 1.99995E+01-9.70601E-04 9.67431E-05 1.69411E-03-2.41245E-13 3.55772E-14
 -1      1485 2.02269E+01 7.53481E-02-1.51275E-01 4.72222E-01 2.32245E-13 1.98709E-12
 -1      1486 2.14786E+01 2.15842E-01-2.28910E-01 7.08236E-01 2.05586E-13 2.35487E-12
 -1      1487 2.16930E+01 8.77655E-01-8.56682E-02 2.03920E+00 4.06369E-13 1.55033E-12
 -1      1488 1.93300E+01 3.28491E-02-2.10630E-02 1.74042E-01 1.63709E-13 1.53442E-12
 -1      1489 1.97343E+01 1.13983E-01-6.21714E-02 2.26188E-01 1.62027E-13 1.80571E-12
 -1      1490 2.02958E+01 1.87207E-01-5.52191E-02 7.63009E-01 3.48534E-13 1.20445E-12
 -1      1491 1.89854E+01 1.61264E-02 5.63616E-03 3.86121E-02 9.71567E-14 1.22644E-12
 -1      1492 1.91052E+01 5.28641E-02 1.30299E-03 6.56479E-02 1.06328E-13 1.41018E-12
 -1      1493 1.95838E+01 7.29058E-02-1.24224E-02 2.72671E-01 2.48320E-13 9.28837E-13
 -1      1494 1.89242E+01 8.75626E-03 6.76919E-03-2.93807E-02 1.11834E-13 9.86577E-13
 -1      1495 1.89138E+01 2.80536E-02 1.13481E-02-1.36370E-02 9.10426E-14 1.12902E-12
 -1      1496 1.92903E+01 3.34281E-02-2.97157E-03 4.91503E-02 1.98818E-13 6.84097E-13
 -1      1497 1.90186E+01 5.58893E-03 4.42840E-03-6.80763E-02 6.15523E-14 7.58664E-13
 -1      1498 1.89397E+01 1.71609E-02 8.81452E-03-5.78536E-02 8.43223E-14 8.87238E-13
 -1      1499 1.92302E+01 1.70894E-02-2.40593E-03-6.90719E-02 1.76998E-13 5.13867E-13
 -1      1500 1.92090E+01 4.38917E-03 2.76895E-03-9.36034E-02 5.15627E-14 6.37356E-13
 -1      1501 1.90885E+01 1.21216E-02 5.74845E-03-8.60365E-02 4.71233E-14 6.96047E-13
 -1      1502 1.93092E+01 1.00863E-02-2.79606E-03-1.40029E-01 1.05231E-13 4.17293E-13
 -1      1503 1.94684E+01 4.39700E-03 1.75565E-03-1.14377E-01 4.59138E-14 5.35435E-13
 -1      1504 1.93174E+01 1.02573E-02 3.92942E-03-1.07736E-01 4.81469E-14 6.02566E-13
 -1      1505 1.94796E+01 7.63366E-03-3.06104E-03-1.90018E-01 9.78217E-14 3.47999E-13
 -1      1506 1.97894E+01 5.34597E-03 9.59236E-04-1.35905E-01 2.55943E-14 4.20690E-13
 -1      1507 1.96094E+01 1.05552E-02 2.96379E-03-1.28872E-01 4.04160E-14 4.70669E-13
 -1      1508 1.97198E+01 7.99299E-03-3.41183E-03-2.33779E-01 8.35694E-14 2.79211E-13
 -1      1509 2.01782E+01 7.15143E-03 1.22650E-04-1.62561E-01 5.86705E-14 3.14362E-13
 -1      1510 1.99640E+01 1.26544E-02 2.42320E-03-1.53942E-01 3.48014E-14 3.86372E-13
 -1      1511 2.00245E+01 1.05091E-02-4.08198E-03-2.81431E-01 7.89468E-14 1.62473E-13
 -1      1512 2.06518E+01 9.78824E-03-9.08563E-04-1.98302E-01 1.80806E-14 2.44749E-13
 -1      1513 2.03925E+01 1.64630E-02 2.06074E-03-1.86877E-01 2.41580E-14 3.05341E-13
 -1      1514 2.03999E+01 1.49503E-02-5.22167E-03-3.41194E-01 6.55231E-14 9.31041E-14
 -1      1515 2.12372E+01 1.31805E-02-2.26811E-03-2.46835E-01 9.69190E-15 2.61768E-13
 -1      1516 2.09163E+01 2.19469E-02 1.70481E-03-2.31310E-01 6.91287E-16 2.73045E-13
 -1      1517 2.08611E+01 2.12135E-02-6.94880E-03-4.20411E-01-7.78847E-15 1.44799E-13
 -1      1518 2.19689E+01 1.70070E-02-4.05916E-03-3.11148E-01 7.57120E-15 2.63021E-13
 -1      1519 2.15653E+01 2.88635E-02 1.17184E-03-2.90261E-01 7.87651E-15 2.33029E-13
 -1      1520 2.14305E+01 2.90226E-02-9.34660E-03-5.25384E-01 6.14873E-15 1.65217E-13
 -1      1521 2.28851E+01 2.03087E-02-6.18526E-03-3.91889E-01 4.96408E-14 1.63414E-13
 -1      1522 2.23754E+01 3.62426E-02 2.53589E-04-3.64863E-01 2.55655E-14 2.14204E-13
 -1      1523 2.21344E+01 3.73749E-02-1.23460E-02-6.59619E-01 7.44387E-14 1.12559E-13
 -1      1524 2.40150E+01 2.07638E-02-7.85512E-03-4.83490E-01 2.81416E-15 3.00558E-14
 -1      1525 2.33806E+01 4.13670E-02-1.14892E-03-4.51231E-01 6.34458E-14 1.14856E-13
 -1      1526 2.29973E+01 4.34290E-02-1.53936E-02-8.19126E-01 9.07382E-14 5.68018E-14
 -1      1527 2.53539E+01 1.36168E-02-6.54875E-03-5.66509E-01-4.67929E-14 6.95624E-14
 -1      1528 2.45966E+01 3.80622E-02-2.56839E-03-5.34190E-01-2.41265E-14 3.74700E-14
 -1      1529 2.40292E+01 4.05031E-02-1.67561E-02-9.82596E-01 2.56501E-14 2.42896E-14
 -1      1530 2.68141E+01-9.13958E-03 3.30535E-03-5.95309E-01-2.03604E-14 1.88329E-13
 -1      1531 2.59877E+01 1.46652E-02-2.04538E-03-5.76975E-01-2.81919E-14 1.04000E-13
 -1      1532 2.52028E+01 1.53980E-02-1.24545E-02-1.09442E+00-4.14433E-14 6.34943E-14
 -1      1533 2.81551E+01-5.58358E-02 2.97327E-02-4.87012E-01 2.14950E-14 2.21198E-13
 -1      1534 2.74103E+01-4.55284E-02 4.60145E-03-5.09927E-01 2.30762E-14 2.32578E-13
 -1      1535 2.64171E+01-5.19228E-02 4.40853E-03-1.04395E+00 7.57380E-15 1.17403E-13
 -1      1536 2.89194E+01-1.30067E-01 7.28088E-02-1.03505E-01-2.80522E-14 3.06035E-13
 -1      1537 2.85634E+01-1.53593E-01 2.29844E-02-2.20341E-01-5.33601E-14 2.21705E-13
 -1      1538 2.74701E+01-1.83642E-01 3.92485E-02-6.43077E-01-6.49550E-14 1.73923E-13
 -1      1539 2.83738E+01-1.78855E-01 9.68513E-02 5.62337E-01 1.44012E-13 1.68046E-13
 -1      1540 2.88473E+01-2.73138E-01 4.40695E-02 3.48654E-01 8.80788E-14 3.25628E-13
 -1      1541 2.79484E+01-3.46505E-01 8.16047E-02 2.68276E-01 6.02504E-14 1.78706E-13
 -1      1542 2.61920E+01-1.18078E-01 3.73457E-02 1.29742E+00 2.31026E-14 8.27394E-14
 -1      1543 2.77004E+01-2.84645E-01 3.75513E-02 1.04784E+00 7.20049E-14 1.63397E-13
 -1      1544 2.74347E+01-4.06025E-01 8.50635E-02 1.53093E+00 1.07650E-13 2.94161E-13
 -1      1545 2.29825E+01 9.84164E-02-1.21368E-01 1.49577E+00-1.45647E-14 3.09475E-14
 -1      1546 2.50771E+01-6.60276E-02-3.48306E-02 1.41598E+00 3.38393E-14 4.64628E-14
 -1      1547 2.58567E+01-1.48707E-01 1.06533E-02 2.46437E+00 6.47676E-14 2.31426E-13
 -1      1548 2.07291E+01 2.85202E-01-2.72111E-01 8.03636E-01-1.99493E-14 1.13659E-13
 -1      1549 2.21736E+01 2.85220E-01-1.41931E-01 9.84077E-01-5.88279E-14 4.44089E-16
 -1      1550 2.40017E+01 3.99113E-01-1.10801E-01 2.11910E+00-7.77850E-14 1.78156E-13
 -1      1551 2.07435E+01 2.86057E-01-2.58837E-01-5.64655E-01 8.13100E-14-1.04833E-13
 -1      1552 2.06670E+01 4.61365E-01-2.04361E-01-1.75183E-01 6.03406E-14 5.34989E-15
 -1      1553 2.30538E+01 8.02270E-01-1.74002E-01 3.34051E-01 9.97952E-14-9.06861E-14
 -1      1554 2.32344E+01 6.94739E-02-8.66259E-02-1.46423E+00 1.19502E-13-4.16556E-13
 -1      1555 2.16218E+01 3.01113E-01-1.37648E-01-1.20804E+00 1.20653E-13-2.53561E-13
 -1      1556 2.37474E+01 5.93351E-01-1.43206E-01-1.74201E+00 2.29414E-13-3.54390E-13
 -1      1557 2.65208E+01-1.36459E-01 8.48976E-02-1.39254E+00 9.28272E-15-5.72875E-13
 -1      1558 2.43905E+01-2.08819E-02-1.50348E-02-1.38869E+00 6.83225E-14-5.24802E-13
 -1      1559 2.55720E+01-5.28750E-03-5.70732E-02-2.53124E+00 1.46140E-13-4.98074E-13
 -1      1560 2.86377E+01-1.72737E-01 1.32155E-01-6.74334E-01 3.84241E-15-6.93501E-13
 -1      1561 2.72251E+01-2.05493E-01 6.69327E-02-8.31650E-01 3.19952E-14-6.44040E-13
 -1      1562 2.72515E+01-4.44606E-01 8.17462E-04-1.84526E+00 1.34115E-13-7.34489E-13
 -1      1563 2.90837E+01-1.13688E-01 9.22538E-02 2.69021E-02-1.08835E-13-5.42767E-13
 -1      1564 2.87143E+01-2.05440E-01 7.13838E-02-1.30871E-01-5.30895E-14-6.25291E-13
 -1      1565 2.79458E+01-4.54023E-01 2.52697E-02-5.83807E-01-6.77930E-14-6.19445E-13
 -1      1566 2.83224E+01-4.77192E-02 3.40275E-02 4.36165E-01-9.71922E-14-2.60909E-13
 -1      1567 2.87127E+01-1.26166E-01 3.90962E-02 3.40455E-01-1.34337E-13-4.64104E-13
 -1      1568 2.76503E+01-2.70681E-01 2.28095E-02 4.23608E-01-1.66697E-13-3.10946E-13
 -1      1569 2.69946E+01-4.10708E-03-2.81263E-03 5.79659E-01-3.01044E-14-6.49619E-14
 -1      1570 2.77406E+01-5.02462E-02 7.22561E-03 5.41746E-01-2.21481E-14-1.76553E-13
 -1      1571 2.67342E+01-9.67216E-02 1.15725E-02 9.42415E-01-1.86672E-13-1.59286E-13
 -1      1572 2.55604E+01 1.57514E-02-1.72504E-02 5.64442E-01-5.71498E-14 1.62939E-13
 -1      1573 2.63736E+01-2.65145E-03-8.55676E-03 5.60564E-01-1.59558E-13-7.66123E-14
 -1      1574 2.55742E+01 9.12288E-03 4.06378E-03 1.07455E+00-1.79759E-13-2.41474E-14
 -1      1575 2.42051E+01 2.18771E-02-1.81505E-02 4.76930E-01-1.68158E-13 4.02862E-13
 -1      1576 2.49646E+01 1.93125E-02-1.22305E-02 4.89790E-01-5.51777E-14 2.68757E-13
 -1      1577 2.43964E+01 5.29679E-02 8.63617E-04 9.90303E-01-2.08267E-13 1.29950E-13
 -1      1578 2.31424E+01 2.01105E-02-1.47064E-02 3.78656E-01 5.76765E-14 5.85344E-13
 -1      1579 2.37330E+01 2.61277E-02-9.79272E-03 3.95154E-01-9.46031E-15 5.06671E-13
 -1      1580 2.33585E+01 6.23444E-02-7.28912E-04 8.23095E-01-1.00036E-13 2.69383E-13
 -1      1581 2.23045E+01 1.67783E-02-1.07213E-02 2.89948E-01 1.41214E-13 4.40271E-13
 -1      1582 2.27632E+01 2.51972E-02-6.58437E-03 3.05637E-01 1.04330E-13 5.68542E-13
 -1      1583 2.25265E+01 5.57598E-02-1.09583E-03 6.49757E-01 6.32688E-14 3.78375E-13
 -1      1584 2.16640E+01 1.31741E-02-7.44374E-03 2.16940E-01-4.08055E-14 2.61917E-13
 -1      1585 2.20101E+01 2.14644E-02-3.96618E-03 2.30222E-01-5.64089E-15 2.76770E-13
 -1      1586 2.18680E+01 4.52992E-02-1.08873E-03 4.96630E-01 1.31464E-13 3.93792E-13
 -1      1587 2.11840E+01 1.00264E-02-5.05071E-03 1.59851E-01-8.15567E-14 2.32521E-13
 -1      1588 2.14401E+01 1.72541E-02-2.18623E-03 1.70464E-01-8.66494E-16 1.78289E-13
 -1      1589 2.13605E+01 3.49414E-02-1.00601E-03 3.71848E-01-2.47328E-15 1.92335E-13
 -1      1590 2.08291E+01 7.50362E-03-3.39111E-03 1.16418E-01 3.52049E-14 1.32063E-13
 -1      1591 2.10163E+01 1.34415E-02-1.08804E-03 1.24652E-01 1.54260E-14 2.50934E-13
 -1      1592 2.09764E+01 2.62177E-02-9.02077E-04 2.74435E-01-4.18251E-14 1.45007E-13
 -1      1593 2.05699E+01 5.56208E-03-2.26382E-03 8.38823E-02 7.90086E-14 2.45875E-15
 -1      1594 2.07051E+01 1.02865E-02-4.51446E-04 9.01690E-02 8.66958E-14 8.85522E-14
 -1      1595 2.06898E+01 1.93720E-02-7.92506E-04 2.00199E-01 1.00079E-13 1.97526E-13
 -1      1596 2.03826E+01 4.09768E-03-1.50280E-03 5.97358E-02 2.87221E-13-3.55484E-13
 -1      1597 2.04792E+01 7.78845E-03-1.00892E-04 6.44924E-02 1.56059E-13-3.55805E-14
 -1      1598 2.04785E+01 1.41837E-02-6.84061E-04 1.44422E-01 2.18320E-13-3.57747E-14
 -1      1599 2.02491E+01 3.00406E-03-9.88958E-04 4.19296E-02-1.69350E-13-2.31276E-13
 -1      1600 2.03172E+01 5.85563E-03 8.07835E-05 4.55082E-02 1.28603E-14-2.63154E-13
 -1      1601 2.03245E+01 1.03197E-02-5.81253E-04 1.02889E-01 6.72054E-14-1.64397E-14
 -1      1602 2.01553E+01 2.19145E-03-6.41435E-04 2.88695E-02 1.23086E-13-3.69682E-13
 -1      1603 2.02025E+01 4.37875E-03 1.65776E-04 3.15507E-02 1.29648E-13-1.11963E-13
 -1      1604 2.02139E+01 7.46720E-03-4.87329E-04 7.21663E-02-5.73874E-14-7.67235E-14
 -1      1605 2.00910E+01 1.58959E-03-4.06477E-04 1.93432E-02-7.47342E-14-4.16513E-13
 -1      1606 2.01229E+01 3.25865E-03 1.96781E-04 2.13451E-02 1.51859E-14-3.54620E-13
 -1      1607 2.01357E+01 5.37097E-03-4.04290E-04 4.95719E-02 1.62458E-13 7.53749E-14
 -1      1608 2.00480E+01 1.14544E-03-2.48720E-04 1.24379E-02 3.35055E-14-5.05675E-13
 -1      1609 2.00689E+01 2.41395E-03 1.98375E-04 1.39281E-02 1.32970E-14-4.95513E-13
 -1      1610 2.00815E+01 3.83552E-03-3.33135E-04 3.30558E-02-1.42381E-14-3.70124E-14
 -1      1611 2.00207E+01 8.19597E-04-1.45236E-04 7.46768E-03 8.06148E-14-5.57016E-13
 -1      1612 2.00336E+01 1.78110E-03 1.84138E-04 8.57528E-03 4.74821E-14-4.68327E-13
 -1      1613 2.00452E+01 2.71538E-03-2.74356E-04 2.10645E-02 1.56602E-13-2.68772E-13
 -1      1614 2.00047E+01 5.82033E-04-8.10493E-05 3.91741E-03 6.70926E-14-6.80449E-13
 -1      1615 2.00119E+01 1.31093E-03 1.60942E-04 4.74261E-03 4.58109E-14-5.88074E-13
 -1      1616 2.00219E+01 1.90350E-03-2.28148E-04 1.24248E-02 7.51303E-14-4.70127E-13
 -1      1617 1.99967E+01 4.05409E-04-4.36640E-05 1.40826E-03 3.32529E-14-7.44113E-13
 -1      1618 1.99998E+01 9.61312E-04 1.32163E-04 2.02652E-03-2.87950E-14-6.93368E-13
 -1      1619 2.00080E+01 1.31829E-03-1.92919E-04 6.25848E-03 1.70183E-14-4.31016E-13
 -1      1620 1.99943E+01 2.62808E-04-1.41868E-05-3.09805E-04-1.44390E-13-3.98132E-13
 -1      1621 1.99946E+01 6.89935E-04 1.02459E-04 1.52407E-04-7.07035E-14-4.81501E-13
 -1      1622 2.00007E+01 8.85359E-04-1.62699E-04 1.94101E-03-1.51488E-13-3.60753E-14
 -1      1623 1.99955E+01 1.14000E-04 5.16766E-05-1.34639E-03-3.63083E-13 1.61501E-13
 -1      1624 1.99940E+01 4.38735E-04 8.85861E-05-1.01742E-03-1.75148E-13-2.86967E-13
 -1      1625 1.99980E+01 5.37571E-04-1.12732E-04-8.87918E-04-3.15707E-13 1.70625E-13
 -1      1626 1.99982E+01-1.71319E-04 2.18202E-04-1.51040E-03-2.24760E-13 6.78882E-13
 -1      1627 1.99961E+01 4.71235E-05 1.31444E-04-1.38702E-03-2.36994E-13 1.93217E-13
 -1      1628 1.99981E+01-9.20644E-06-1.54671E-05-2.28524E-03-4.64639E-13 6.90257E-14
 -1      1629 1.99990E+01-7.05467E-04 3.59718E-04-7.22657E-04 5.55458E-13 4.45700E-13
 -1      1630 2.00000E+01-3.78970E-03-1.71363E-05-1.42631E-03 3.11731E-13-2.69759E-13
 -1      1631 1.99998E+01-1.93554E-03 1.13272E-04-1.44244E-03 6.81480E-13-2.59996E-13
 -1      1632 2.00003E+01-4.85989E-03-8.59417E-05-5.22860E-04 1.15929E-13-8.91663E-15
 -1      1633 2.00002E+01-3.83127E-03-2.25847E-05-7.75717E-04 3.62134E-13 4.53630E-14
 -1      1634 2.00003E+01-1.40410E-03-5.42474E-05-1.85401E-03 1.31358E-13-2.99805E-13
 -1      1635 2.00002E+01-3.68325E-03-8.18332E-05 6.99175E-04-1.27742E-13 6.35745E-14
 -1      1636 2.00002E+01-4.07878E-03-5.61548E-05 4.41167E-04 1.05590E-15-3.29169E-14
 -1      1637 2.00006E+01-5.63214E-04-1.32926E-04 1.33329E-04 1.85546E-14-1.85585E-13
 -1      1638 2.00000E+01-4.97027E-04-5.43902E-05 1.63925E-03 1.68653E-13 2.35046E-13
 -1      1639 2.00001E+01-2.10006E-03-4.52481E-05 1.47888E-03-8.76210E-14 3.85618E-13
 -1      1640 2.00005E+01 1.98087E-03-1.01062E-04 2.24311E-03 8.16638E-14 2.52088E-13
 -1      1641 1.99998E+01 3.66708E-03-3.07996E-05 2.02194E-03-1.04287E-13-6.87224E-14
 -1      1642 1.99999E+01 1.51821E-03-2.39002E-05 1.99068E-03 1.00295E-13-7.53877E-14
 -1      1643 2.00001E+01 5.74806E-03-3.50542E-05 3.59026E-03-7.76044E-14-4.94313E-15
 -1      1644 1.99996E+01 7.75710E-03-1.20481E-05 1.80287E-03 2.47203E-14 8.69461E-14
 -1      1645 1.99997E+01 5.69400E-03-8.68393E-06 1.89299E-03-1.78041E-13 3.90377E-14
 -1      1646 1.99998E+01 9.92129E-03 3.89778E-05 3.83046E-03-1.41748E-13-9.07152E-14
 -1      1647 1.99994E+01 1.06002E-02-1.19448E-07 1.08197E-03 2.65536E-14 2.07492E-13
 -1      1648 1.99995E+01 9.27123E-03 4.42552E-07 1.25894E-03 8.36891E-14 1.54154E-13
 -1      1649 1.99994E+01 1.35490E-02 9.88766E-05 2.97973E-03-1.29021E-13 5.89554E-14
 -1      1650 1.99994E+01 1.14803E-02 5.22517E-06 8.38522E-05 4.23658E-13 1.19872E-13
 -1      1651 1.99994E+01 1.12460E-02 3.13428E-06 2.95306E-04 2.08187E-13 1.37890E-13
 -1      1652 1.99993E+01 1.57472E-02 1.33052E-04 1.33273E-03 2.10099E-13 2.19549E-13
 -1      1653 1.99995E+01 1.02194E-02 4.06459E-06-9.13600E-04 2.86514E-13-2.28401E-13
 -1      1654 1.99994E+01 1.11163E-02-1.78998E-07-7.25569E-04 4.41422E-13 9.56492E-14
 -1      1655 1.99992E+01 1.60200E-02 1.35349E-04-6.34630E-04 4.18778E-13 4.72604E-14
 -1      1656 1.99996E+01 7.20739E-03-4.00599E-06-1.63728E-03 1.19455E-13-5.68825E-14
 -1      1657 1.99996E+01 8.94700E-03-9.24368E-06-1.52559E-03 2.78986E-13-2.10702E-13
 -1      1658 1.99994E+01 1.43298E-02 1.05698E-04-2.38830E-03 2.05258E-13-3.25885E-13
 -1      1659 1.99998E+01 3.38312E-03-1.75430E-05-1.87516E-03-2.44517E-13-1.03796E-13
 -1      1660 1.99997E+01 5.37745E-03-2.55550E-05-1.87381E-03 6.13349E-15-3.01778E-13
 -1      1661 1.99997E+01 1.11295E-02 5.25280E-05-3.44502E-03-3.08238E-14-3.46529E-13
 -1      1662 2.00001E+01-2.64743E-04-3.64013E-05-1.53244E-03-2.09696E-13-1.05692E-13
 -1      1663 2.00000E+01 1.38248E-03-4.76627E-05-1.65614E-03-2.55956E-13 2.61701E-13
 -1      1664 2.00000E+01 7.16746E-03-1.77074E-05-3.49556E-03-1.34936E-13 6.65017E-14
 -1      1665 2.00002E+01-2.59532E-03-6.18223E-05-6.47915E-04-3.69072E-13-1.33570E-13
 -1      1666 2.00002E+01-1.92652E-03-7.23243E-05-8.79022E-04-2.20295E-13-6.41226E-14
 -1      1667 2.00004E+01 3.33930E-03-8.38542E-05-2.46360E-03-1.91498E-13-9.28718E-14
 -1      1668 2.00003E+01-2.92434E-03-2.01478E-05 4.10242E-04-4.22568E-13 1.25322E-13
 -1      1669 2.00002E+01-3.52182E-03-9.04457E-05 1.51925E-04-2.90893E-13-2.18742E-13
 -1      1670 2.00005E+01 6.10996E-04-1.23092E-04-6.14293E-04-9.51694E-14-2.99420E-13
 -1      1671 2.00000E+01-1.24867E-03 6.89227E-05 1.24555E-03-3.25029E-13-5.89350E-14
 -1      1672 2.00002E+01-2.60305E-03-8.23631E-05 1.20460E-03-3.82649E-13 1.78138E-13
 -1      1673 2.00009E+01 1.88106E-04 8.67428E-05 1.00760E-03-2.20025E-13 9.41581E-14
 -1      1674 2.00001E+01 4.53812E-04 1.35003E-04 1.93910E-03-1.78482E-13-2.31314E-14
 -1      1675-8.65785E-01-1.62200E+01-1.83546E+00-1.60570E+00 6.10789E-13 2.90962E-13
 -1      1676-7.33887E-01-1.75508E+01-1.90363E+00-8.94524E-02 3.94837E-13 1.38223E-13
 -1      1677 5.83918E-01-1.03626E+01-1.46090E+00-5.92013E-01 1.15885E-12 7.35051E-13
 -1      1678 1.54443E-01-1.49038E+01-1.85374E+00-7.61809E-01 7.57838E-13 4.88415E-13
 -1      1679 5.29924E+00-2.61819E+00-9.07127E-01 3.00519E+00 1.66289E-12 1.64346E-12
 -1      1680 2.68119E+00-8.43981E+00-1.61808E+00 3.89824E-01 1.29985E-12 9.22595E-13
 -1      1681 1.61140E+01 3.22863E+00-7.83786E-02 8.49043E+00 1.69176E-12 1.59728E-12
 -1      1682 9.75792E+00-8.38886E-01-1.00032E+00 4.57975E+00 1.80034E-12 1.54854E-12
 -1      1683 3.17053E+01 5.42393E+00 8.72357E-01 1.18325E+01 1.18050E-12 1.35314E-12
 -1      1684 2.19683E+01 4.24535E+00-1.53355E-01 9.14407E+00 1.47116E-12 1.57363E-12
 -1      1685 4.79636E+01 5.12475E+00 1.82594E+00 1.11692E+01 7.03770E-13 5.33573E-13
 -1      1686 3.74541E+01 6.43716E+00 8.88321E-01 1.21085E+01 1.12532E-12 1.15241E-12
 -1      1687 5.81595E+01 3.63168E+00 2.24219E+00 4.51822E+00 3.08392E-13-1.22069E-13
 -1      1688 5.22378E+01 5.06129E+00 1.80110E+00 9.28760E+00 4.64684E-13 3.67817E-13
 -1      1689 5.71239E+01 4.14564E+00 1.97388E+00-4.00544E+00 4.29601E-13-1.08952E-12
 -1      1690 5.83710E+01 3.94740E+00 2.14438E+00 1.97647E+00 3.49443E-13-5.20584E-13
 -1      1691 4.68695E+01 5.49188E+00 1.26407E+00-9.41195E+00 7.06768E-13-1.56553E-12
 -1      1692 5.43531E+01 4.04970E+00 1.86534E+00-5.67856E+00 4.75536E-13-1.26188E-12
 -1      1693 3.11732E+01 5.69591E+00 3.62846E-01-1.06618E+01 1.21370E-12-1.66400E-12
 -1      1694 4.24839E+01 4.99867E+00 1.34192E+00-1.10372E+01 8.12239E-13-1.58096E-12
 -1      1695 1.71554E+01 1.62575E+00-5.08371E-01-6.99338E+00 1.54199E-12-1.43374E-12
 -1      1696 2.57367E+01 3.93567E+00 4.12335E-01-1.03458E+01 1.31872E-12-1.53166E-12
 -1      1697 6.12680E+00-4.05502E+00-1.30032E+00-2.58338E+00 1.50102E-12-1.25411E-12
 -1      1698 1.07898E+01 8.94814E-01-4.93265E-01-6.17133E+00 1.66200E-12-1.58307E-12
 -1      1699 1.29315E+00-1.14134E+01-1.74861E+00 4.34287E-01 1.25566E-12-6.92169E-13
 -1      1700 2.66457E+00-5.98804E+00-1.19057E+00-1.05699E+00 1.51590E-12-1.05743E-12
 -1      1701-3.09784E-01-1.63537E+01-1.85568E+00 5.70089E-01 5.45120E-13-4.40814E-13
 -1      1702-2.44870E-01-1.29220E+01-1.60321E+00 1.24865E+00 1.05382E-12-5.27363E-13
 -1      1703-7.80257E-01-1.61936E+01-1.68160E+00-4.28036E-01-5.99965E-13-5.17086E-13
 -1      1704-8.41536E-01-1.66077E+01-1.76350E+00 1.22474E+00 2.84175E-13-5.48478E-13
 -1      1705 5.86761E-01-1.06323E+01-1.22445E+00 3.61850E-01-1.36435E-12-7.44044E-13
 -1      1706 1.87197E-01-1.48217E+01-1.58546E+00 6.91329E-01-7.89424E-13-5.66713E-13
 -1      1707 3.83558E+00-3.39666E+00-8.15899E-01 2.61977E+00-2.03482E-12-1.35864E-12
 -1      1708 2.12034E+00-9.15017E+00-1.44173E+00 8.08480E-01-1.67866E-12-9.21180E-13
 -1      1709 1.21199E+01 3.03527E+00-1.17792E-01 7.63903E+00-1.91491E-12-1.56575E-12
 -1      1710 7.39817E+00-1.46230E+00-9.09614E-01 4.13658E+00-2.00284E-12-1.35669E-12
 -1      1711 2.49876E+01 6.13681E+00 6.20473E-01 1.17196E+01-1.46616E-12-1.68299E-12
 -1      1712 1.70356E+01 4.35108E+00-2.07692E-01 8.64823E+00-1.76181E-12-1.62848E-12
 -1      1713 3.89528E+01 6.13129E+00 1.22382E+00 1.23514E+01-9.91096E-13-1.41953E-12
 -1      1714 2.99070E+01 7.05308E+00 5.19315E-01 1.20572E+01-1.37046E-12-1.67599E-12
 -1      1715 5.06285E+01 4.35080E+00 1.60089E+00 7.08299E+00-5.06678E-13-4.31433E-13
 -1      1716 4.32151E+01 6.09678E+00 1.11413E+00 1.06528E+01-8.48530E-13-1.05382E-12
 -1      1717 5.52577E+01 3.61956E+00 1.78202E+00-7.43028E-01-3.78447E-13 4.10540E-13
 -1      1718 5.34802E+01 4.07235E+00 1.61351E+00 4.87892E+00-3.96794E-13-1.81077E-13
 -1      1719 5.05797E+01 4.85411E+00 1.54683E+00-8.50177E+00-4.95021E-13 1.19982E-12
 -1      1720 5.49987E+01 3.57296E+00 1.84105E+00-3.50897E+00-3.99264E-13 7.10543E-13
 -1      1721 3.79376E+01 6.70123E+00 9.04758E-01-1.18871E+01-8.79380E-13 1.42542E-12
 -1      1722 4.66330E+01 5.10258E+00 1.54325E+00-1.00760E+01-5.35155E-13 1.33771E-12
 -1      1723 2.40259E+01 6.54090E+00 2.21932E-01-1.10445E+01-1.08358E-12 1.53477E-12
 -1      1724 3.29908E+01 6.65987E+00 1.03087E+00-1.27749E+01-9.63785E-13 1.63025E-12
 -1      1725 1.28598E+01 1.91729E+00-5.01592E-01-6.73476E+00-1.17584E-12 1.12921E-12
 -1      1726 1.95104E+01 4.93745E+00 3.22304E-01-1.02092E+01-1.10845E-12 1.35458E-12
 -1      1727 4.37749E+00-5.18114E+00-1.22756E+00-2.22565E+00-9.08607E-13 7.93476E-13
 -1      1728 7.91393E+00 5.10835E-01-4.30395E-01-5.41528E+00-1.22813E-12 1.11222E-12
 -1      1729 8.71357E-01-1.26899E+01-1.63535E+00-2.79961E-01-2.29705E-13 3.88651E-13
 -1      1730 1.74325E+00-7.32271E+00-1.08974E+00-1.01335E+00-7.30971E-13 7.44432E-13
 -1      1731-5.22340E-01-1.67274E+01-1.80688E+00-7.05439E-01 2.52132E-13 1.48520E-13
 -1      1732-4.19525E-01-1.40346E+01-1.54659E+00 4.56127E-01-8.59313E-14 2.11081E-13
 -1      1733 2.44774E+01-1.05612E+00 9.05374E-02 6.59316E+00 1.08225E-12 8.81517E-13
 -1      1734 1.30313E+01-4.75591E+00-5.58152E-01 5.65607E+00 8.38440E-13 1.20493E-12
 -1      1735 1.99994E+01-1.23771E-03 1.97337E-04-1.66747E-03 4.25894E-13 1.15974E-13
 -1      1736 1.99994E+01-6.42345E-04 1.08399E-04-2.54741E-03-4.38299E-14-4.72856E-14
 -1      1737-1.52450E-01-1.12951E+01-1.31539E+00 1.48590E+00 4.06619E-13 5.65548E-13
 -1      1738 4.54572E+00-8.62698E+00-1.07532E+00 3.54758E+00 7.55396E-13 8.91193E-13
 -1      1739-1.42440E+00-1.16260E+01-1.31265E+00-8.39657E-01 8.24063E-14 3.63820E-13
 -1      1740 3.58613E+01 2.73751E+00 7.50481E-01 6.11863E+00 1.03095E-12 4.94604E-13
 -1      1741 4.57516E+01 5.99359E+00 1.53389E+00 4.54913E+00 7.97640E-13 1.02252E-13
 -1      1742 4.99638E+01 7.56751E+00 1.80744E+00 1.34644E+00 6.60694E-13-4.47892E-13
 -1      1743 4.74794E+01 7.50080E+00 1.53292E+00-1.30950E+00 6.93501E-13-7.85982E-13
 -1      1744 4.16257E+01 4.83539E+00 1.09860E+00-3.74754E+00 6.60458E-13-9.65894E-13
 -1      1745 3.18059E+01 2.83597E-01 3.45859E-01-5.41634E+00 8.28726E-13-8.19123E-13
 -1      1746 2.04184E+01-3.04320E+00-6.05176E-02-6.37339E+00 7.53064E-13-8.96505E-13
 -1      1747 9.09887E+00-6.45101E+00-7.70480E-01-4.89072E+00 7.96918E-13-1.01422E-12
 -1      1748 2.22373E+00-9.89482E+00-1.19645E+00-2.68332E+00 5.60330E-13-6.90781E-13
 -1      1749-1.03272E+00-1.12813E+01-1.27604E+00-6.22232E-01 1.10856E-13-7.92089E-13
 -1      1750-5.09980E-01-1.02294E+01-1.06867E+00 2.11740E+00-2.74752E-13-9.22429E-13
 -1      1751 3.33847E+00-8.39879E+00-9.59064E-01 4.12916E+00-7.15983E-13-9.00072E-13
 -1      1752 1.02133E+01-4.70214E+00-5.41148E-01 5.97508E+00-1.08469E-12-9.31949E-13
 -1      1753 1.99220E+01-7.72959E-01 3.29026E-02 7.38518E+00-1.10756E-12-9.17488E-13
 -1      1754 3.00348E+01 2.82872E+00 5.57308E-01 7.42369E+00-9.79106E-13-7.97473E-13
 -1      1755 3.90964E+01 5.64328E+00 1.03039E+00 5.77123E+00-8.98288E-13-3.77809E-13
 -1      1756 4.50620E+01 7.36139E+00 1.33683E+00 2.56073E+00-7.81375E-13-4.09117E-14
 -1      1757 4.76665E+01 7.39443E+00 1.53864E+00-1.07763E+00-6.60860E-13 2.73254E-13
 -1      1758 4.35596E+01 6.64509E+00 1.29054E+00-4.45096E+00-5.51725E-13 6.58584E-13
 -1      1759 3.56027E+01 4.62841E+00 8.69974E-01-6.76870E+00-6.11150E-13 7.88924E-13
 -1      1760 2.58579E+01 1.12770E+00 2.97880E-01-7.42983E+00-5.44509E-13 8.75300E-13
 -1      1761 1.58593E+01-2.65282E+00-1.78952E-01-6.98380E+00-5.78204E-13 7.85094E-13
 -1      1762 6.61810E+00-6.68384E+00-7.70377E-01-5.14625E+00-2.48912E-13 7.89604E-13
 -1      1763 9.39266E-01-9.89124E+00-1.10771E+00-3.02028E+00-1.19238E-13 5.59941E-13
 -1      1764 2.28140E+01 1.97802E+00-2.42145E-02-2.69603E+00-3.53700E-13 1.20862E-12
 -1      1765 1.98439E+01 3.72108E+00-3.55859E-02-2.10133E+00-4.16594E-13-5.43586E-13
 -1      1766 2.00765E+01 3.56505E+00-3.96998E-02-2.39503E+00-4.91360E-13-4.17333E-13
 -1      1767 2.03758E+01 3.17936E+00-4.55504E-02-2.53912E+00-4.94927E-13-2.38705E-13
 -1      1768 2.05870E+01 2.80468E+00-1.41491E-01-2.80986E+00-5.41445E-13 3.35149E-15
 -1      1769 2.04412E+01 2.69691E+00-4.12917E-03-2.17431E+00-5.24934E-13-2.96364E-13
 -1      1770 1.93654E+01 4.21735E+00-2.03378E-02-1.22532E+00-2.03643E-13-7.68236E-13
 -1      1771 1.94431E+01 4.17386E+00-1.70628E-02-1.44633E+00-2.58360E-13-7.45100E-13
 -1      1772 1.92602E+01 4.33181E+00-1.68390E-02-8.24380E-01-1.11325E-13-7.88546E-13
 -1      1773 1.93075E+01 4.30556E+00-1.38778E-02-1.02976E+00-1.59785E-13-7.83611E-13
 -1      1774 1.95318E+01 3.82431E+00-8.81761E-03-1.07287E+00-2.06928E-13-7.47635E-13
 -1      1775 1.92014E+01 4.39912E+00-1.47242E-02-4.45429E-01-1.16903E-14-7.78405E-13
 -1      1776 1.92267E+01 4.38467E+00-1.28891E-02-6.38760E-01-5.58702E-14-7.86295E-13
 -1      1777 1.94243E+01 3.95576E+00-8.68171E-03-6.98204E-01-8.85840E-14-7.60151E-13
 -1      1778 1.91787E+01 4.42843E+00-1.34604E-02-7.88072E-02 8.59870E-14-7.62661E-13
 -1      1779 1.91862E+01 4.42384E+00-1.28715E-02-2.66356E-01 4.90207E-14-7.73206E-13
 -1      1780 1.93664E+01 4.02797E+00-8.55411E-03-3.39461E-01 1.87529E-14-7.46290E-13
 -1      1781 1.91887E+01 4.42312E+00-1.28466E-02 2.85681E-01 1.71850E-13-7.39745E-13
 -1      1782 1.91795E+01 4.42796E+00-1.35237E-02 9.80483E-02 1.30626E-13-7.54735E-13
 -1      1783 1.93492E+01 4.05056E+00-8.49753E-03 1.08832E-02 1.19488E-13-7.35908E-13
 -1      1784 1.92327E+01 4.38205E+00-1.29231E-02 6.58412E-01 2.46730E-13-7.14538E-13
 -1      1785 1.92055E+01 4.39721E+00-1.48256E-02 4.64766E-01 2.08032E-13-7.36787E-13
 -1      1786 1.93702E+01 4.02602E+00-8.55075E-03 3.61172E-01 2.04104E-13-7.16040E-13
 -1      1787 1.93158E+01 4.30138E+00-1.39552E-02 1.04335E+00 3.27825E-13-6.51632E-13
 -1      1788 1.92673E+01 4.32824E+00-1.70201E-02 8.40876E-01 2.87875E-13-6.90238E-13
 -1      1789 1.94316E+01 3.95188E+00-8.61574E-03 7.16608E-01 2.85185E-13-6.78551E-13
 -1      1790 1.94570E+01 4.16399E+00-1.69254E-02 1.46494E+00 4.37649E-13-5.19123E-13
 -1      1791 1.93758E+01 4.20985E+00-2.06528E-02 1.23884E+00 3.74913E-13-5.88533E-13
 -1      1792 1.95426E+01 3.81718E+00-8.78073E-03 1.08745E+00 3.83056E-13-5.86062E-13
 -1      1793 1.96914E+01 3.93569E+00-2.47152E-02 1.92694E+00 5.34902E-13-3.52322E-13
 -1      1794 1.95567E+01 4.01632E+00-2.70761E-02 1.67069E+00 4.85244E-13-4.56662E-13
 -1      1795 1.97268E+01 3.59641E+00-8.39120E-03 1.47949E+00 4.92741E-13-4.50794E-13
 -1      1796 2.00960E+01 3.52581E+00-4.46355E-02 2.42168E+00 5.94044E-13-6.42854E-14
 -1      1797 1.98595E+01 3.69037E+00-3.97244E-02 2.13139E+00 5.52147E-13-2.34708E-13
 -1      1798 2.00283E+01 3.23893E+00-5.13444E-03 1.87732E+00 5.83858E-13-2.62648E-13
 -1      1799 2.09214E+01 2.67714E+00-5.70373E-02 2.81478E+00 5.78083E-13 4.95458E-13
 -1      1800 2.04264E+01 3.09505E+00-5.01383E-02 2.56983E+00 5.73963E-13 1.60302E-13
 -1      1801 2.05354E+01 2.61389E+00 3.20028E-03 2.19257E+00 6.11255E-13 6.48023E-14
 -1      1802 2.17081E+01 1.20959E+00-1.21426E-01 2.29754E+00 4.79346E-13 1.17789E-12
 -1      1803 2.12657E+01 2.25711E+00 9.17589E-05 2.70224E+00 5.26461E-13 7.29222E-13
 -1      1804 2.09428E+01 1.68398E+00-2.23839E-02 2.09709E+00 5.95586E-13 4.81903E-13
 -1      1805 2.09419E+01 7.77340E-01-6.17427E-02 1.49302E+00 4.84175E-13 1.01927E-12
 -1      1806 2.17790E+01 2.45014E+00 9.04052E-02-3.01213E+00-4.73814E-13 4.42563E-13
 -1      1807 2.01181E+01 3.00649E-01-8.32872E-03 6.23562E-01 3.66717E-13 7.84466E-13
 -1      1808 2.06546E+01 4.41662E-01-1.20680E-02 1.00178E+00 4.09027E-13 9.22315E-13
 -1      1809 2.07528E+01 8.45411E-01 1.97898E-03 1.37553E+00 4.93338E-13 6.13258E-13
 -1      1810 2.15013E+01 1.73961E+00 7.91572E-02-2.29754E+00-5.08801E-13 2.69021E-13
 -1      1811 2.05401E+01 5.04018E-01 3.27074E-02-8.80728E-01-4.09242E-13 2.02794E-13
 -1      1812 2.01249E+01 3.57883E-01 8.35033E-03-5.86264E-01-3.58205E-13 1.00132E-13
 -1      1813 1.99438E+01 2.65341E-01 2.75985E-02-3.41887E-01-3.11198E-13 8.25902E-14
 -1      1814 1.97734E+01 1.88417E-01 1.12747E-02-1.98625E-01-2.72163E-13-4.80865E-15
 -1      1815 2.02433E+01 4.94126E-01-6.20689E-03-6.62509E-01-3.94868E-13-8.68615E-14
 -1      1816 1.96692E+01 1.44883E-01 1.69603E-02-5.61767E-02-2.38525E-13-2.26060E-14
 -1      1817 1.96175E+01 1.07465E-01 8.04180E-03 2.24573E-02-2.01713E-13-9.58266E-14
 -1      1818 1.99489E+01 2.60788E-01-6.23604E-03-2.18542E-01-3.07664E-13-1.32570E-13
 -1      1819 1.95756E+01 8.45576E-02 9.09660E-03 1.07797E-01-1.81264E-13-1.26309E-13
 -1      1820 1.95950E+01 6.50763E-02 5.38060E-03 1.54169E-01-1.56899E-13-1.45117E-13
 -1      1821 1.98072E+01 1.47988E-01-5.24740E-03 4.15863E-02-2.38118E-13-2.00875E-13
 -1      1822 1.95981E+01 5.23642E-02 4.74209E-03 2.07581E-01-1.41081E-13-1.80041E-13
 -1      1823 1.96611E+01 4.18988E-02 3.86392E-03 2.36714E-01-1.39606E-13-2.31745E-13
 -1      1824 1.97731E+01 8.94671E-02-4.20657E-03 2.00980E-01-1.90319E-13-2.54095E-13
 -1      1825 1.96960E+01 3.44930E-02 2.43310E-03 2.71823E-01-1.46176E-13-2.10726E-13
 -1      1826 1.97867E+01 2.86778E-02 2.95158E-03 2.91274E-01-1.09848E-13-2.43380E-13
 -1      1827 1.98151E+01 5.75662E-02-3.20336E-03 3.03205E-01-1.44867E-13-2.57527E-13
 -1      1828 1.98442E+01 2.39103E-02 1.16600E-03 3.15408E-01-9.26004E-14-2.39561E-13
 -1      1829 1.99533E+01 2.00884E-02 2.24187E-03 3.28858E-01-6.14521E-14-2.47091E-13
 -1      1830 1.99108E+01 3.91399E-02-2.39625E-03 3.71882E-01-8.88716E-14-2.05962E-13
 -1      1831 2.00272E+01 1.61059E-02 4.22237E-04 3.45404E-01-9.75854E-14-2.36596E-13
 -1      1832 2.01479E+01 1.22424E-02 1.48283E-03 3.53974E-01-9.01595E-14-2.70714E-13
 -1      1833 2.00450E+01 2.64306E-02-1.79610E-03 4.19218E-01-9.37183E-14-2.10329E-13
 -1      1834 2.02338E+01 7.46098E-03-6.22350E-05 3.63355E-01-1.29877E-13-3.22050E-13
 -1      1835 2.03602E+01 1.71402E-03 4.86114E-04 3.66066E-01-1.40312E-13-3.67791E-13
 -1      1836 2.02071E+01 1.36591E-02-1.33150E-03 4.49701E-01-1.59285E-13-2.48198E-13
 -1      1837 2.04541E+01-5.35903E-03-4.36879E-04 3.66122E-01-1.41540E-13-4.07845E-13
 -1      1838 2.05790E+01-1.47232E-02-8.98480E-04 3.60070E-01-9.15327E-14-4.48008E-13
 -1      1839 2.03886E+01-4.28051E-03-9.08366E-04 4.61622E-01-1.78791E-13-2.93045E-13
 -1      1840 2.06766E+01-2.54213E-02-7.95818E-04 3.46300E-01-6.53804E-14-5.08321E-13
 -1      1841 2.07906E+01-3.98126E-02-2.75443E-03 3.26908E-01-6.67052E-14-5.08960E-13
 -1      1842 2.05811E+01-3.20555E-02-4.28928E-04 4.47779E-01-1.25595E-13-3.93027E-13
 -1      1843 2.08862E+01-5.49722E-02-1.20153E-03 2.92980E-01-2.45002E-14-5.38977E-13
 -1      1844 2.09764E+01-7.48984E-02-5.02910E-03 2.54677E-01 1.73416E-14-4.87394E-13
 -1      1845 2.07743E+01-7.32523E-02 2.06719E-04 3.96304E-01-5.50521E-14-4.90623E-13
 -1      1846 2.10618E+01-9.41851E-02-1.69647E-03 1.93665E-01-1.12399E-14-4.76889E-13
 -1      1847 2.11123E+01-1.18263E-01-7.43699E-03 1.31404E-01-1.43822E-14-4.33766E-13
 -1      1848 2.09541E+01-1.28729E-01 1.09842E-03 2.92544E-01 1.15849E-14-4.24185E-13
 -1      1849 2.11764E+01-1.39177E-01-2.30954E-03 3.82764E-02-4.17383E-14-4.58013E-13
 -1      1850 2.11699E+01-1.62891E-01-9.37051E-03-4.97615E-02-5.38892E-14-4.42735E-13
 -1      1851 2.11014E+01-1.93899E-01 2.32517E-03 1.23066E-01-4.10097E-14-4.65317E-13
 -1      1852 2.11986E+01-1.79747E-01-3.03731E-03-1.74073E-01-1.10087E-13-4.26199E-13
 -1      1853 2.11201E+01-1.94608E-01-9.91776E-03-2.82640E-01-1.20064E-13-4.67598E-13
 -1      1854 2.11912E+01-2.55522E-01 3.88096E-03-1.17229E-01-7.36679E-14-4.32449E-13
 -1      1855 2.10980E+01-1.98367E-01-3.81295E-03-4.26017E-01-1.33617E-13-4.91205E-13
 -1      1856 2.09413E+01-1.92801E-01-8.10396E-03-5.38963E-01-1.10366E-13-5.20482E-13
 -1      1857 2.11950E+01-2.89870E-01 5.52805E-03-4.14867E-01-1.62160E-13-3.22256E-13
 -1      1858 2.08565E+01-1.73079E-01-4.32820E-03-6.73898E-01-8.75910E-14-5.41841E-13
 -1      1859 2.06316E+01-1.36729E-01-3.46422E-03-7.62964E-01-1.09160E-13-5.70707E-13
 -1      1860 2.10864E+01-2.66058E-01 6.60491E-03-7.27041E-01-1.40315E-13-3.71512E-13
 -1      1861 2.04846E+01-8.73361E-02-3.99663E-03-8.47808E-01-1.19238E-13-5.58225E-13
 -1      1862 2.02225E+01-1.88321E-02 3.23775E-03-8.78014E-01-8.21499E-14-6.07090E-13
 -1      1863 2.08545E+01-1.58269E-01 6.02620E-03-9.77288E-01-1.27666E-13-4.23248E-13
 -1      1864 2.00363E+01 5.47635E-02-1.92000E-03-8.68708E-01-4.47973E-14-6.03540E-13
 -1      1865 1.97873E+01 1.40195E-01 9.68728E-03-8.12165E-01 4.34830E-14-6.41488E-13
 -1      1866 2.05225E+01 3.35383E-02 2.75646E-03-1.06865E+00-7.10345E-14-3.81398E-13
 -1      1867 1.96111E+01 2.16246E-01 2.25509E-03-6.84906E-01 1.34298E-13-6.31305E-13
 -1      1868 1.94330E+01 2.88024E-01 1.30421E-02-5.39352E-01 1.53603E-13-5.76839E-13
 -1      1869 2.01613E+01 2.65534E-01-3.10001E-03-9.21354E-01 1.08103E-13-3.74196E-13
 -1      1870 1.93271E+01 3.36220E-01 7.72842E-03-3.12628E-01 6.61780E-14-4.95199E-13
 -1      1871 1.92664E+01 3.63268E-01 1.19823E-02-1.10903E-01 3.69834E-14-4.62498E-13
 -1      1872 1.98800E+01 4.57425E-01-8.88574E-03-5.26094E-01 1.81431E-13-3.31294E-13
 -1      1873 1.92722E+01 3.61567E-01 1.21671E-02 1.53427E-01 2.12564E-14-4.95472E-13
 -1      1874 1.93461E+01 3.31063E-01 7.45995E-03 3.53205E-01 4.64160E-14-5.22172E-13
 -1      1875 1.97799E+01 5.28762E-01-1.13236E-02 2.67208E-02 2.00361E-16-3.29604E-13
 -1      1876 1.94623E+01 2.80275E-01 1.30036E-02 5.75168E-01 4.71853E-14-5.12311E-13
 -1      1877 1.96516E+01 2.06887E-01 2.11144E-03 7.15821E-01 2.51353E-14-4.35269E-13
 -1      1878 1.99017E+01 4.48287E-01-8.51228E-03 5.74153E-01 5.75330E-14-3.82993E-13
 -1      1879 1.98342E+01 1.30554E-01 9.36583E-03 8.36083E-01 7.57380E-15-3.81725E-13
 -1      1880 2.00914E+01 4.61967E-02-1.86658E-03 8.87428E-01 5.38085E-14-3.67289E-13
 -1      1881 2.01999E+01 2.52096E-01-2.60061E-03 9.55805E-01 1.06489E-13-3.75271E-13
 -1      1882 2.02808E+01-2.55426E-02 2.82414E-03 8.91293E-01 8.83984E-14-3.07729E-13
 -1      1883 2.05486E+01-9.12590E-02-3.73178E-03 8.58082E-01 6.51070E-14-3.16551E-13
 -1      1884 2.05706E+01 2.24494E-02 3.00540E-03 1.08894E+00 1.16829E-13-2.13672E-13
 -1      1885 2.06976E+01-1.37949E-01-3.76512E-03 7.71617E-01-2.02269E-15-3.02449E-13
 -1      1886 2.09275E+01-1.71136E-01-3.92155E-03 6.82805E-01 4.65027E-14-2.86954E-13
 -1      1887 2.09079E+01-1.62119E-01 6.00078E-03 9.89812E-01 4.45178E-14-2.15784E-13
 -1      1888 2.10154E+01-1.88279E-01-8.17372E-03 5.50526E-01 6.85996E-15-3.05870E-13
 -1      1889 2.11786E+01-1.91212E-01-3.27022E-03 4.41004E-01 5.07190E-15-2.92466E-13
 -1      1890 2.11450E+01-2.61430E-01 6.38203E-03 7.40965E-01 8.00553E-15-2.20098E-13
 -1      1891 2.12063E+01-1.85599E-01-9.76691E-03 3.03771E-01-1.01251E-14-3.13150E-13
 -1      1892 2.12949E+01-1.68945E-01-2.40624E-03 2.00987E-01-6.82818E-14-2.52515E-13
 -1      1893 2.12625E+01-2.78021E-01 5.21251E-03 4.38873E-01 4.97866E-16-2.24095E-13
 -1      1894 2.12752E+01-1.50957E-01-9.08212E-03 8.51401E-02-8.81092E-14-2.36430E-13
 -1      1895 2.12967E+01-1.26141E-01-1.59373E-03 4.40054E-03-9.09255E-15-2.22028E-13
 -1      1896 2.12737E+01-2.38665E-01 3.53127E-03 1.57659E-01-2.07553E-14-2.17321E-13
 -1      1897 2.12453E+01-1.04636E-01-7.09618E-03-7.89175E-02-1.07081E-13-2.93105E-13
 -1      1898 2.12156E+01-7.99053E-02-9.08401E-04-1.33016E-01-1.59094E-13-2.26583E-13
 -1      1899 2.12059E+01-1.74011E-01 1.97719E-03-6.22493E-02-6.16005E-14-1.42818E-13
 -1      1900 2.11465E+01-6.03842E-02-4.70892E-03-1.83555E-01-9.73438E-14-1.78379E-13
 -1      1901 2.10834E+01-4.00899E-02-3.60915E-04-2.13267E-01 1.07803E-13-5.85288E-14
 -1      1902 2.10881E+01-1.07168E-01 7.82471E-04-2.09207E-01-3.91348E-14 4.91584E-14
 -1      1903 2.10075E+01-2.49787E-02-2.51432E-03-2.36567E-01 1.07942E-13-1.28639E-13
 -1      1904 2.09269E+01-1.04821E-02 5.40427E-05-2.47288E-01 1.12895E-13-1.61883E-13
 -1      1905 2.09448E+01-5.09574E-02-4.42656E-05-2.89637E-01 5.16115E-14 1.33682E-13
 -1      1906 2.08517E+01-1.69261E-04-7.94705E-04-2.50804E-01 3.20956E-14-3.01237E-13
 -1      1907 2.07661E+01 8.90580E-03 3.46915E-04-2.48521E-01-8.74388E-14-4.03510E-13
 -1      1908 2.07943E+01-9.90947E-03-5.68835E-04-3.18148E-01-1.01340E-13-2.30504E-13
 -1      1909 2.06962E+01 1.50719E-02 3.88354E-04-2.39352E-01-4.01071E-14-4.81484E-13
 -1      1910 2.06139E+01 1.98449E-02 5.31891E-04-2.29300E-01-1.17005E-13-4.06812E-13
 -1      1911 2.06493E+01 1.64621E-02-8.66356E-04-3.10889E-01-9.37654E-14-1.90903E-13
 -1      1912 2.05521E+01 2.28738E-02 1.09476E-03-2.13179E-01-2.05693E-13-3.45552E-13
 -1      1913 2.04782E+01 2.46020E-02 6.27088E-04-1.99348E-01-1.70929E-13-4.52223E-13
 -1      1914 2.05172E+01 3.09250E-02-1.00163E-03-2.82037E-01-1.25911E-13-1.93489E-13
 -1      1915 2.04254E+01 2.54873E-02 1.43262E-03-1.80421E-01-1.32641E-14-3.76649E-13
 -1      1916 2.03623E+01 2.52718E-02 6.53194E-04-1.65546E-01 1.04678E-13-2.97578E-13
 -1      1917 2.04020E+01 3.67977E-02-1.02561E-03-2.42491E-01-6.52905E-14-1.20877E-13
 -1      1918 2.03186E+01 2.48326E-02 1.51452E-03-1.46530E-01-1.61734E-14-3.63554E-13
 -1      1919 2.02669E+01 2.35198E-02 6.30729E-04-1.32305E-01-7.39783E-14-3.55454E-13
 -1      1920 2.03050E+01 3.70726E-02-9.77221E-04-1.99821E-01-5.47197E-16-1.19486E-13
 -1      1921 2.02318E+01 2.23626E-02 1.43664E-03-1.14793E-01-4.39576E-14-3.73774E-13
 -1      1922 2.01909E+01 2.05454E-02 5.77763E-04-1.02130E-01-8.94128E-14-3.06357E-13
 -1      1923 2.02257E+01 3.40942E-02-8.85805E-04-1.58787E-01-5.67468E-14-1.85974E-13
 -1      1924 2.01634E+01 1.90838E-02 1.27201E-03-8.69103E-02-1.29081E-13-2.72327E-13
 -1      1925 2.01321E+01 1.71449E-02 5.08747E-04-7.61898E-02-5.47870E-14-1.59783E-13
 -1      1926 2.01627E+01 2.95319E-02-7.72825E-04-1.22022E-01-5.30008E-14 5.57648E-14
 -1      1927 2.01111E+01 1.56398E-02 1.07129E-03-6.35163E-02 6.60991E-14-1.25876E-13
 -1      1928 2.00879E+01 1.38048E-02 4.34287E-04-5.47825E-02 2.07259E-13-8.92796E-14
 -1      1929 2.01139E+01 2.44814E-02-6.53239E-04-9.06777E-02 4.31496E-14 1.92591E-13
 -1      1930 2.00723E+01 1.24060E-02 8.66566E-04-4.45830E-02 3.45144E-13-2.20055E-13
 -1      1931 2.00559E+01 1.07912E-02 3.61178E-04-3.76874E-02 3.61713E-13-5.27376E-14
 -1      1932 2.00771E+01 1.96031E-02-5.36700E-04-6.49570E-02 1.88075E-13 2.12400E-14
 -1      1933 2.00446E+01 9.57158E-03 6.76092E-04-2.97134E-02 2.44733E-13 1.37187E-13
 -1      1934 2.00334E+01 8.21804E-03 2.92407E-04-2.44151E-02 4.39371E-13 3.35736E-13
 -1      1935 2.00502E+01 1.52476E-02-4.29366E-04-4.45043E-02 4.57842E-13-4.99279E-15
 -1      1936 2.00256E+01 7.19668E-03 5.08133E-04-1.83474E-02 3.69101E-13 2.44420E-13
 -1      1937 2.00185E+01 6.09570E-03 2.27524E-04-1.43835E-02 2.94697E-13 2.72800E-13
 -1      1938 2.00312E+01 1.15522E-02-3.33963E-04-2.86884E-02 3.33455E-13 2.31170E-13
 -1      1939 2.00132E+01 5.25610E-03 3.63947E-04-9.90587E-03 7.91341E-14 1.66700E-13
 -1      1940 2.00091E+01 4.36966E-03 1.69596E-04-7.04317E-03-1.28504E-15 8.17765E-14
 -1      1941 2.00182E+01 8.51162E-03-2.49396E-04-1.68027E-02 1.27227E-13 1.50936E-13
 -1      1942 2.00058E+01 3.62131E-03 2.34313E-04-3.86530E-03 1.13561E-13 6.32906E-14
 -1      1943 2.00038E+01 2.84809E-03 1.13787E-04-1.96349E-03 1.53180E-13 3.44970E-14
 -1      1944 2.00097E+01 6.03386E-03-1.68971E-04-8.20107E-03 3.31029E-14 2.15233E-13
 -1      1945 2.00019E+01 2.13930E-03 1.59304E-04-4.30949E-05 1.43892E-13 6.05309E-15
 -1      1946 2.00012E+01 1.26948E-03 6.98605E-05 8.81667E-04-1.63901E-14-6.68880E-14
 -1      1947 2.00016E+01 1.21520E-03-1.06388E-04 7.49609E-04-8.04402E-14 6.10966E-14
 -1      1948 2.00044E+01 3.60570E-03-1.68339E-04-2.48429E-03 8.87224E-14 9.68100E-14
 -1      1949 1.96700E+01 1.48242E-01 8.48722E-03 2.17582E-01 2.80472E-13 5.73340E-13
 -1      1950 1.99231E+01 2.08947E-01 1.68278E-02 3.94499E-01 3.04872E-13 7.01123E-13
 -1      1951 2.01384E+01 3.56211E-01-1.86165E-03 6.07827E-01 3.80355E-13 4.63855E-13
 -1      1952 1.94738E+01 8.19733E-02 7.73885E-03-1.22713E-04 2.43118E-13 4.08391E-13
 -1      1953 1.95638E+01 1.10391E-01 1.47363E-02 9.52312E-02 2.40951E-13 5.05069E-13
 -1      1954 1.97826E+01 1.76059E-01-2.39661E-03 1.94620E-01 3.05802E-13 3.29261E-13
 -1      1955 1.94461E+01 5.08374E-02 5.52556E-03-1.27775E-01 1.69809E-13 3.14414E-13
 -1      1956 1.94421E+01 6.49317E-02 9.10969E-03-7.02561E-02 1.86465E-13 3.71619E-13
 -1      1957 1.96320E+01 9.75313E-02-3.39832E-03-4.01177E-02 2.38236E-13 2.19748E-13
 -1      1958 1.95304E+01 3.67881E-02 4.38517E-03-2.11714E-01 1.00203E-13 2.21453E-13
 -1      1959 1.94680E+01 4.35018E-02 5.42165E-03-1.72388E-01 1.31355E-13 3.02142E-13
 -1      1960 1.96200E+01 6.16601E-02-3.58876E-03-1.84891E-01 1.49699E-13 1.51695E-13
 -1      1961 1.96952E+01 3.27978E-02 4.08726E-03-2.77089E-01 9.83879E-14 1.87937E-13
 -1      1962 1.95917E+01 3.50762E-02 3.58419E-03-2.45259E-01 8.96744E-14 1.98186E-13
 -1      1963 1.97042E+01 4.72138E-02-3.28628E-03-2.86080E-01 1.21136E-13 7.34663E-14
 -1      1964 1.99262E+01 3.59811E-02 4.30468E-03-3.39879E-01 1.12524E-13 1.08831E-13
 -1      1965 1.97883E+01 3.51638E-02 2.83472E-03-3.08514E-01 1.17663E-13 1.78755E-13
 -1      1966 1.98606E+01 4.58282E-02-2.95446E-03-3.70597E-01 1.36564E-13 3.26891E-14
 -1      1967 2.02213E+01 4.51401E-02 4.89315E-03-4.12059E-01 9.67867E-14 5.00598E-15
 -1      1968 2.00488E+01 4.18912E-02 2.69888E-03-3.75652E-01 1.01557E-13 7.19858E-14
 -1      1969 2.00787E+01 5.40895E-02-2.79459E-03-4.56532E-01 1.38983E-13-1.99583E-14
 -1      1970 2.05874E+01 5.97273E-02 5.78111E-03-5.03751E-01-1.05753E-15 1.19900E-14
 -1      1971 2.03748E+01 5.44593E-02 2.92833E-03-4.57410E-01 5.05993E-14 9.27942E-15
 -1      1972 2.03569E+01 7.05593E-02-2.85836E-03-5.57852E-01 5.99785E-14-1.75719E-14
 -1      1973 2.10381E+01 7.90780E-02 6.84293E-03-6.23796E-01-6.15567E-15 4.43772E-14
 -1      1974 2.07760E+01 7.23138E-02 3.35150E-03-5.63004E-01-5.68122E-15 1.89623E-14
 -1      1975 2.07010E+01 9.43444E-02-3.16171E-03-6.86260E-01-7.26849E-16-6.08005E-14
 -1      1976 2.15915E+01 1.01302E-01 7.77155E-03-7.78757E-01 1.19713E-14 1.01469E-13
 -1      1977 2.12680E+01 9.42263E-02 3.76489E-03-6.99873E-01-3.48202E-15 8.02541E-14
 -1      1978 2.11212E+01 1.23763E-01-3.74449E-03-8.51134E-01-1.48709E-14-4.83682E-14
 -1      1979 2.22669E+01 1.21216E-01 7.92344E-03-9.69428E-01 1.49664E-13 6.60860E-14
 -1      1980 2.18698E+01 1.16692E-01 3.85762E-03-8.71437E-01 9.20570E-14 9.70276E-14
 -1      1981 2.16309E+01 1.54179E-01-4.70196E-03-1.05720E+00 9.75808E-14-1.91378E-14
 -1      1982 2.30772E+01 1.26634E-01 6.18854E-03-1.18288E+00 5.64813E-14 2.13406E-14
 -1      1983 2.26000E+01 1.30964E-01 3.18590E-03-1.07150E+00 8.41896E-14 7.08994E-14
 -1      1984 2.22438E+01 1.74065E-01-6.18730E-03-1.29850E+00 8.49442E-14 5.89513E-14
 -1      1985 2.40187E+01 9.29007E-02 1.14027E-03-1.37743E+00-3.07983E-14 2.49332E-14
 -1      1986 2.34696E+01 1.18181E-01 1.29445E-03-1.27308E+00 3.28773E-15 2.06363E-14
 -1      1987 2.29703E+01 1.58552E-01-8.32307E-03-1.54631E+00 2.55117E-14 6.85910E-15
 -1      1988 2.50527E+01-2.14824E-02-8.12098E-03-1.45973E+00-6.50593E-14 6.25108E-14
 -1      1989 2.44702E+01 4.37494E-02-1.79567E-03-1.41000E+00-6.72375E-14 3.63910E-14
 -1      1990 2.38140E+01 6.18707E-02-1.08711E-02-1.72901E+00-7.67507E-14-3.19857E-14
 -1      1991 2.60853E+01-2.64603E-01-1.95087E-02-1.26309E+00-4.08354E-15 1.32611E-13
 -1      1992 2.55560E+01-1.42222E-01-4.80221E-03-1.35408E+00 1.47955E-14 1.24135E-13
 -1      1993 2.47661E+01-1.82886E-01-1.25133E-02-1.70765E+00-5.64652E-15 1.17581E-13
 -1      1994 2.69943E+01-6.61916E-01-2.36239E-02-5.08050E-01-9.07729E-14 1.07182E-13
 -1      1995 2.66415E+01-4.88111E-01-4.89265E-03-8.94165E-01-9.81368E-14 1.04283E-13
 -1      1996 2.58191E+01-6.35712E-01-8.92094E-03-1.24416E+00-6.78173E-14 1.21980E-13
 -1      1997 2.74226E+01-9.81139E-01-1.49816E-02 8.53531E-01 7.61492E-14 2.80401E-13
 -1      1998 2.74487E+01-8.94504E-01-6.26499E-03 1.59084E-01-1.34823E-14 1.95937E-13
 -1      1999 2.68367E+01-1.18350E+00 3.24788E-03-1.03215E-01-8.69652E-14 1.81636E-13
 -1      2000 2.71258E+01-7.96460E-01-8.60686E-03 2.46372E+00 5.82191E-14 3.41074E-13
 -1      2001 2.76110E+01-1.00612E+00-2.16998E-02 1.64791E+00 9.91984E-14 3.22273E-13
 -1      2002 2.75255E+01-1.37731E+00 3.60238E-03 1.61411E+00 3.88144E-14 2.64449E-13
 -1      2003 2.60149E+01 2.53454E-01-3.95153E-02 3.10018E+00 5.18474E-14 3.17007E-13
 -1      2004 2.68438E+01-3.16318E-01-5.67924E-02 2.80962E+00 1.32529E-13 3.29917E-13
 -1      2005 2.75155E+01-5.48726E-01-1.98049E-02 3.14105E+00 1.40846E-13 3.52380E-13
 -1      2006 2.48695E+01 1.43316E+00-1.14071E-01 1.86267E+00 6.44207E-14 9.14937E-14
 -1      2007 2.55761E+01 9.80291E-01-7.83882E-02 2.47006E+00 1.95122E-14 1.74524E-13
 -1      2008 2.68526E+01 1.11392E+00-8.50394E-02 3.01326E+00 9.70335E-14 2.63920E-13
 -1      2009 2.46443E+01 1.67531E+00-1.56386E-01-9.70215E-01 2.88242E-13-3.54897E-13
 -1      2010 2.47729E+01 1.79259E+00-8.22534E-02 3.57735E-01 1.99507E-13-1.51113E-13
 -1      2011 2.62639E+01 2.38730E+00-1.24556E-01 7.23179E-01 2.95292E-13-1.85993E-13
 -1      2012 2.57716E+01 5.96554E-01-1.04546E-01-2.93361E+00 2.94952E-13-5.05693E-13
 -1      2013 2.51496E+01 1.18561E+00-6.26364E-02-2.06276E+00 3.18912E-13-4.12392E-13
 -1      2014 2.65713E+01 1.90271E+00-9.33291E-02-2.21451E+00 3.74298E-13-4.92230E-13
 -1      2015 2.72231E+01-6.28730E-01-4.95442E-03-2.85041E+00 1.36370E-13-7.84903E-13
 -1      2016 2.62661E+01-1.45508E-01-4.62686E-02-2.89266E+00 2.33286E-13-6.63400E-13
 -1      2017 2.73440E+01 1.33924E-01-4.25038E-02-3.36747E+00 3.43177E-13-7.59301E-13
 -1      2018 2.78055E+01-9.83478E-01 4.55916E-02-1.35162E+00 3.83218E-14-6.69624E-13
 -1      2019 2.71639E+01-9.40948E-01-3.86766E-02-1.96200E+00 1.27721E-13-7.25427E-13
 -1      2020 2.76310E+01-1.24550E+00-3.96236E-02-2.34436E+00 1.54582E-13-8.46219E-13
 -1      2021 2.74537E+01-7.27187E-01 4.41817E-02 1.62002E-01-1.99198E-13-4.60737E-13
 -1      2022 2.73413E+01-9.06361E-01-2.28510E-02-4.59884E-01-1.47497E-13-5.93397E-13
 -1      2023 2.71722E+01-1.37670E+00-2.69192E-02-5.59009E-01-1.35503E-13-5.05788E-13
 -1      2024 2.65495E+01-3.48508E-01 1.66960E-02 1.07104E+00-2.49049E-13-2.10564E-13
 -1      2025 2.68580E+01-5.27430E-01-1.27449E-02 6.88227E-01-2.37147E-13-3.02196E-13
 -1      2026 2.62700E+01-9.01225E-01-2.46431E-02 8.36961E-01-3.21840E-13-3.25386E-13
 -1      2027 2.54595E+01-7.00209E-02-1.59994E-03 1.40814E+00-1.68116E-13-5.90916E-14
 -1      2028 2.59897E+01-1.85825E-01-8.29463E-03 1.25848E+00-1.91923E-13-1.29039E-13
 -1      2029 2.52663E+01-3.69855E-01-1.72829E-02 1.54229E+00-2.57142E-13-1.14561E-14
 -1      2030 2.43917E+01 7.27653E-02-8.14878E-03 1.38726E+00-3.60213E-13 4.40984E-14
 -1      2031 2.49810E+01 2.14853E-02-2.33924E-03 1.38446E+00-2.49283E-13-5.71834E-14
 -1      2032 2.43081E+01-1.84828E-02-7.49151E-03 1.71304E+00-2.29394E-13-1.10051E-14
 -1      2033 2.33981E+01 1.25127E-01-8.11712E-03 1.19330E+00-1.68642E-13 2.44749E-13
 -1      2034 2.39723E+01 1.11888E-01 2.30499E-03 1.26493E+00-2.26286E-13 1.30202E-13
 -1      2035 2.34312E+01 1.46409E-01-1.12584E-03 1.58265E+00-2.54985E-13 2.77478E-13
 -1      2036 2.26085E+01 1.26768E-01-5.88392E-03 9.64607E-01-5.61079E-14 2.19112E-13
 -1      2037 2.30746E+01 1.32927E-01 5.10704E-03 1.05291E+00-1.80700E-13 1.51153E-13
 -1      2038 2.26773E+01 1.94371E-01 1.14333E-03 1.33014E+00-1.70437E-13 9.83614E-14
 -1      2039 2.19680E+01 1.10292E-01-3.91613E-03 7.50595E-01 1.30221E-13 3.21121E-13
 -1      2040 2.23451E+01 1.22515E-01 6.03767E-03 8.35255E-01 5.33419E-14 3.01978E-13
 -1      2041 2.20661E+01 1.85117E-01 1.60919E-03 1.06489E+00 3.06378E-14 1.58518E-13
 -1      2042 2.14629E+01 8.92419E-02-2.39229E-03 5.70078E-01 7.79472E-14 2.05000E-13
 -1      2043 2.17578E+01 1.02084E-01 5.82558E-03 6.42304E-01 2.07380E-13 3.75560E-13
 -1      2044 2.15699E+01 1.56240E-01 1.27533E-03 8.25651E-01 1.95583E-13 1.28750E-13
 -1      2045 2.10723E+01 6.94614E-02-1.37098E-03 4.25908E-01 1.58359E-14 4.95518E-14
 -1      2046 2.12978E+01 8.07670E-02 5.08537E-03 4.84070E-01-7.98927E-15 1.17262E-13
 -1      2047 2.11755E+01 1.24169E-01 7.62815E-04 6.26833E-01 9.90063E-14 1.25034E-14
 -1      2048 2.07746E+01 5.29000E-02-7.26035E-04 3.14235E-01-8.44832E-15 1.26864E-13
 -1      2049 2.09443E+01 6.21099E-02 4.19179E-03 3.59602E-01-6.40542E-14 9.65997E-14
 -1      2050 2.08677E+01 9.54973E-02 3.23246E-04 4.68768E-01-4.47923E-14-1.13026E-14
 -1      2051 2.05507E+01 3.97721E-02-3.34301E-04 2.29275E-01 2.07213E-13 6.00305E-14
 -1      2052 2.06767E+01 4.69843E-02 3.33647E-03 2.64012E-01 1.24396E-13 1.73521E-13
 -1      2053 2.06310E+01 7.20817E-02 2.02621E-05 3.46309E-01 1.33107E-13-7.46572E-14
 -1      2054 2.03843E+01 2.96548E-02-1.04414E-04 1.65357E-01 2.13110E-13 2.06939E-13
 -1      2055 2.04768E+01 3.51838E-02 2.59719E-03 1.91653E-01 1.68628E-13 1.91617E-13
 -1      2056 2.04515E+01 5.37946E-02-1.58768E-04 2.52932E-01 2.29504E-13 2.57053E-13
 -1      2057 2.02622E+01 2.19735E-02 2.49171E-05 1.17646E-01-1.14516E-13 1.37060E-13
 -1      2058 2.03293E+01 2.61617E-02 1.99161E-03 1.37398E-01 1.92600E-13 2.07437E-13
 -1      2059 2.03171E+01 3.98425E-02-2.47121E-04 1.82476E-01 1.22204E-13 3.25943E-13
 -1      2060 2.01740E+01 1.61895E-02 9.29967E-05 8.22588E-02 2.40938E-13 5.82564E-15
 -1      2061 2.02219E+01 1.93391E-02 1.51049E-03 9.70041E-02-1.61067E-13-1.49323E-13
 -1      2062 2.02178E+01 2.93300E-02-2.76659E-04 1.29728E-01 3.60516E-14-5.07161E-14
 -1      2063 2.01113E+01 1.18563E-02 1.24468E-04 5.61757E-02-1.09224E-13-1.08970E-13
 -1      2064 2.01449E+01 1.42125E-02 1.13516E-03 6.71206E-02 2.54157E-13 4.85444E-14
 -1      2065 2.01456E+01 2.14645E-02-2.71523E-04 9.05049E-02 1.89432E-13-2.29194E-14
 -1      2066 2.00678E+01 8.62390E-03 1.34486E-04 3.70806E-02 9.03477E-14-5.47903E-14
 -1      2067 2.00907E+01 1.03777E-02 8.45564E-04 4.51567E-02 3.44907E-14-2.46052E-14
 -1      2068 2.00941E+01 1.56067E-02-2.48088E-04 6.15375E-02 4.36391E-14-6.13371E-15
 -1      2069 2.00385E+01 6.22459E-03 1.31875E-04 2.32108E-02 2.42000E-13-1.45099E-13
 -1      2070 2.00536E+01 7.52221E-03 6.23319E-04 2.91327E-02 1.75710E-13-1.15321E-14
 -1      2071 2.00582E+01 1.12628E-02-2.16782E-04 4.03052E-02 1.65733E-13 2.35495E-13
 -1      2072 2.00196E+01 4.45219E-03 1.20723E-04 1.32308E-02 1.59277E-14-2.77276E-13
 -1      2073 2.00291E+01 5.40721E-03 4.52541E-04 1.75445E-02 1.47610E-13-1.98551E-13
 -1      2074 2.00338E+01 8.05731E-03-1.84068E-04 2.48817E-02 1.97859E-13 5.62723E-14
 -1      2075 2.00084E+01 3.12768E-03 1.01678E-04 6.14586E-03-1.97508E-13 1.70734E-14
 -1      2076 2.00138E+01 3.83978E-03 3.20076E-04 9.26052E-03-5.14870E-14-1.38351E-13
 -1      2077 2.00181E+01 5.69372E-03-1.53209E-04 1.38068E-02-1.04244E-13 1.54224E-13
 -1      2078 2.00024E+01 2.07240E-03 7.42987E-05 1.29653E-03-4.28520E-13 2.49924E-14
 -1      2079 2.00050E+01 2.63239E-03 2.14842E-04 3.47835E-03-2.38457E-13-1.12119E-13
 -1      2080 2.00085E+01 3.89048E-03-1.26310E-04 6.03345E-03-2.69774E-13 2.38105E-13
 -1      2081 2.00000E+01 1.06852E-03 7.33768E-05-1.59614E-03-3.52745E-13 1.37082E-13
 -1      2082 2.00007E+01 1.57265E-03 1.29280E-04-3.01408E-04-2.36701E-13 1.49957E-13
 -1      2083 2.00032E+01 2.37808E-03-9.50179E-05 8.74138E-04-3.12546E-13 2.31786E-14
 -1      2084 1.99997E+01-7.11006E-05 6.71631E-05-2.38205E-03-2.43365E-13 2.25183E-15
 -1      2085 1.99994E+01 7.06263E-04 7.32994E-05-2.06088E-03-3.81319E-13 1.13227E-13
 -1      2086 2.00010E+01 1.19190E-03-3.59005E-05-1.64855E-03-3.16942E-13 1.01934E-13
 -1      2087 2.00003E+01-4.12163E-04 3.43177E-05-2.43516E-03-1.71375E-13-2.46459E-13
 -1      2088 2.00014E+01 7.21091E-03-4.09897E-05 4.55295E-03 2.00875E-13 4.94171E-13
 -1      2089 2.00018E+01 5.74122E-03 1.02681E-04 3.54245E-03 3.91203E-14 3.94497E-13
 -1      2090 2.00021E+01 3.28714E-03-1.67464E-07 2.08040E-03-1.27788E-13-8.33091E-14
 -1      2091 2.00021E+01 2.41069E-03 8.29855E-05 7.83756E-04-2.26757E-15-2.01290E-13
 -1      2092 2.00030E+01 8.08093E-03-3.89996E-05 4.40800E-03-8.80829E-14 2.95629E-13
 -1      2093 2.00017E+01 7.07888E-04 2.70332E-05-5.93732E-04 1.05741E-14-2.91393E-13
 -1      2094 2.00012E+01 4.55293E-04 4.28825E-05-1.46408E-03 5.82444E-15-3.56720E-13
 -1      2095 2.00017E+01 1.37019E-03 1.19933E-05-1.26906E-03-9.59268E-14-1.87723E-13
 -1      2096 2.00029E+01 3.95157E-03-7.83152E-05 1.17066E-03 8.17455E-14-2.18961E-13
 -1      2097 2.00003E+01 1.17550E-02-7.76912E-05 5.81118E-03-1.21146E-14-2.47490E-13
 -1      2098 2.00009E+01 9.94315E-03 8.76633E-05 5.39658E-03 9.37933E-14 2.38097E-13
 -1      2099 2.00018E+01 1.32262E-02 5.87326E-06 6.94449E-03 1.15984E-13 9.86789E-14
 -1      2100 1.99991E+01 1.62139E-02-1.04316E-04 5.55313E-03 1.85934E-15 1.06601E-14
 -1      2101 1.99997E+01 1.44011E-02 4.14812E-05 5.80953E-03-1.11644E-14-9.52104E-14
 -1      2102 2.00001E+01 1.85637E-02 5.59968E-05 7.80952E-03 1.67844E-13-9.23832E-14
 -1      2103 1.99981E+01 1.96471E-02-1.12870E-04 3.88192E-03-1.37725E-14 6.45671E-14
 -1      2104 1.99986E+01 1.82936E-02-1.48313E-05 4.71365E-03-3.40969E-14 8.02848E-14
 -1      2105 1.99984E+01 2.32607E-02 1.02282E-04 6.77010E-03 1.44385E-13 4.87800E-14
 -1      2106 1.99977E+01 2.13884E-02-1.00511E-04 1.27455E-03 3.99786E-14 2.02599E-13
 -1      2107 1.99979E+01 2.08090E-02-6.64479E-05 2.44234E-03-2.57920E-14 2.42872E-13
 -1      2108 1.99972E+01 2.64834E-02 1.33541E-04 4.11338E-03-8.81854E-14 1.12021E-13
 -1      2109 1.99978E+01 2.11192E-02-6.80629E-05-1.59816E-03 1.60843E-13-1.80428E-13
 -1      2110 1.99977E+01 2.14411E-02-1.02179E-04-4.01429E-04 1.97720E-13 5.14894E-14
 -1      2111 1.99968E+01 2.76902E-02 1.43924E-04 5.18027E-04-1.44433E-13 1.33074E-13
 -1      2112 1.99984E+01 1.89243E-02-2.18050E-05-4.02242E-03 1.87323E-13-3.50994E-13
 -1      2113 1.99980E+01 2.00631E-02-1.15821E-04-3.10527E-03 2.08375E-13-3.18045E-13
 -1      2114 1.99971E+01 2.66896E-02 1.31708E-04-3.14871E-03 1.95638E-14-3.01404E-13
 -1      2115 1.99994E+01 1.53480E-02 3.08609E-05-5.37956E-03 5.29701E-14-4.04174E-13
 -1      2116 1.99988E+01 1.69826E-02-1.09170E-04-4.98384E-03 1.55690E-13-2.47407E-13
 -1      2117 1.99981E+01 2.37037E-02 1.03178E-04-6.00574E-03 2.02309E-13-3.34353E-13
 -1      2118 2.00006E+01 1.09796E-02 7.56789E-05-5.34916E-03-9.15811E-14 2.20084E-13
 -1      2119 1.99999E+01 1.27852E-02-8.50245E-05-5.58940E-03 2.78218E-14-8.79552E-14
 -1      2120 1.99996E+01 1.92301E-02 5.60029E-05-7.40424E-03 1.62745E-13-2.74329E-13
 -1      2121 2.00015E+01 6.69781E-03 9.43066E-05-3.88654E-03 4.85068E-14-3.62828E-14
 -1      2122 2.00011E+01 8.24377E-03-5.01728E-05-4.72089E-03 1.87073E-14 1.10482E-13
 -1      2123 2.00013E+01 1.39615E-02 3.39225E-06-6.99519E-03 9.52142E-14 1.57633E-13
 -1      2124 2.00018E+01 2.95835E-03-1.63803E-05-1.35178E-03 1.01174E-14-1.26572E-13
 -1      2125 2.00019E+01 4.18719E-03 4.46092E-06-2.59684E-03-1.39492E-14-2.23550E-13
 -1      2126 2.00026E+01 8.80528E-03-1.40466E-05-4.89888E-03-6.45887E-14-1.76138E-13
 -1      2127 9.28534E+00-6.09023E+00-2.34033E-01 5.68344E+00 4.10338E-13 9.00648E-13
 -1      2128 5.78627E+00-7.31992E+00-4.26991E-01 4.50652E+00 2.41140E-13 7.58921E-13
 -1      2129 3.45229E-01-7.16254E+00-3.63107E-01 9.15117E-02 2.17465E-14 4.31322E-13
 -1      2130 5.51806E-01-6.44430E+00-2.60672E-01-1.53063E+00-8.20455E-14 3.65208E-13
 -1      2131 2.58596E+00-6.68430E+00-2.96084E-01 3.18368E+00 2.69229E-13 6.59306E-13
 -1      2132 9.91734E-01-7.48968E+00-4.02428E-01 1.61780E+00 8.40716E-14 5.26301E-13
 -1      2133 2.08288E+00-4.43417E+00-1.45018E-01 1.23110E+00-1.67658E-13 5.22860E-13
 -1      2134 1.82351E+01-4.48436E+00-1.04766E-01 6.49859E+00 4.84501E-13 8.24119E-13
 -1      2135 1.30475E+01-6.25244E+00-4.35601E-01 5.58438E+00 3.87690E-13 8.73357E-13
 -1      2136 2.84970E+01-2.31370E+00 6.83262E-02 5.08780E+00 7.20313E-13 3.39284E-13
 -1      2137 2.30284E+01-4.07028E+00-2.36848E-01 5.11499E+00 5.72653E-13 5.15865E-13
 -1      2138 1.95427E+01 4.03487E+00-2.51247E-02-1.64911E+00-3.09079E-13-6.98261E-13
 -1      2139 1.96688E+01 3.95722E+00-2.42574E-02-1.90430E+00-3.80567E-13-6.29059E-13
 -1      2140 1.99848E+01 3.25217E+00-1.85567E-02-1.86958E+00-4.19265E-13-5.39844E-13
 -1      2141 1.97103E+01 3.61787E+00-6.39310E-03-1.46564E+00-3.01987E-13-6.81278E-13
 -1      2142 4.16163E+01 5.14743E+00 4.18484E-01 9.48477E-01 7.42073E-13-1.28009E-13
 -1      2143 3.84675E+01 3.79929E+00 1.83131E-01 1.73322E+00 8.50015E-13 8.88178E-15
 -1      2144 4.26174E+01 7.05771E+00 3.36780E-01-1.70947E-01 7.65055E-13-4.21635E-13
 -1      2145 4.27834E+01 6.63118E+00 4.75197E-01 7.85966E-01 7.41185E-13-2.17548E-13
 -1      2146 3.99892E+01 6.14187E+00 1.96900E-01-2.10168E-01 6.13343E-13-4.92273E-13
 -1      2147 4.21159E+01 6.98563E+00 4.52274E-01-2.44816E-02 6.96720E-13-4.28824E-13
 -1      2148 3.64688E+01 2.33489E+00 1.34971E-01-1.83868E+00 4.87249E-13-5.80203E-13
 -1      2149 3.96187E+01 4.16868E+00 2.73870E-01-9.68852E-01 4.28740E-13-5.47340E-13
 -1      2150 2.91825E+01-2.20701E+00-4.68901E-02-3.64352E+00 5.34128E-13-3.88467E-13
 -1      2151 3.41854E+01 1.32903E-01 2.47188E-01-3.34976E+00 5.45147E-13-4.97602E-13
 -1      2152 1.86997E+01-5.40052E+00-3.07137E-01-5.61702E+00 3.99292E-13-6.78235E-13
 -1      2153 2.43506E+01-4.25892E+00-1.19769E-01-5.47260E+00 4.36318E-13-4.32765E-13
 -1      2154 9.51465E+00-6.96887E+00-4.84243E-01-5.24299E+00 3.73257E-13-7.37544E-13
 -1      2155 1.40557E+01-5.35712E+00-1.86493E-01-6.40657E+00 4.12004E-13-8.45268E-13
 -1      2156 3.42839E+00-7.57787E+00-4.38721E-01-3.60803E+00 1.55265E-13-6.00076E-13
 -1      2157 6.12335E+00-6.66578E+00-3.06662E-01-4.83825E+00 3.68816E-13-6.12510E-13
 -1      2158 5.12185E-01-6.92010E+00-3.31623E-01-5.70048E-01-8.16708E-15-8.55871E-13
 -1      2159 1.45223E+00-6.92178E+00-3.29226E-01-2.20423E+00 1.59706E-13-7.30249E-13
 -1      2160 1.53223E+00-6.22150E+00-2.73844E-01 3.09799E+00-1.31672E-13-8.70748E-13
 -1      2161 3.56553E-01-7.18176E+00-3.83822E-01 1.22057E+00 2.20657E-14-9.33253E-13
 -1      2162 1.74922E+00-4.47793E+00-1.34911E-01 1.73057E-01 5.68885E-14-9.68337E-13
 -1      2163 7.42204E+00-5.85178E+00-2.24481E-01 6.10555E+00-4.90497E-13-8.14265E-13
 -1      2164 4.75305E+00-6.39759E+00-2.31964E-01 5.25305E+00-2.15938E-13-7.55285E-13
 -1      2165 1.46778E+01-4.04004E+00-6.81024E-02 7.27674E+00-6.24611E-13-5.61634E-13
 -1      2166 1.04035E+01-5.89895E+00-3.66663E-01 6.22986E+00-4.97269E-13-6.71192E-13
 -1      2167 1.12164E+01-5.64884E+00-1.37113E-01 7.18934E+00-3.75255E-14-5.87225E-13
 -1      2168 2.38705E+01-1.70144E+00 7.83513E-02 6.83399E+00-6.42042E-13-4.17555E-13
 -1      2169 1.89562E+01-3.55346E+00-2.13781E-01 6.49911E+00-6.57030E-13-4.82614E-13
 -1      2170 3.20139E+01 1.67624E+00 2.47071E-01 5.20486E+00-7.34357E-13-2.23155E-13
 -1      2171 2.74218E+01-2.28378E-01-6.27615E-02 5.27937E+00-6.68410E-13-3.58158E-13
 -1      2172 3.72364E+01 4.77870E+00 2.16253E-01 2.69887E+00-8.04135E-13 5.31797E-14
 -1      2173 3.41827E+01 3.46919E+00 1.34367E-01 3.90528E+00-8.19830E-13-1.94178E-13
 -1      2174 3.97493E+01 7.23191E+00 3.16250E-01 5.57314E-01-7.83706E-13 1.38209E-13
 -1      2175 3.75757E+01 6.55464E+00 1.16936E-01 1.32034E+00-8.12517E-13 7.70495E-14
 -1      2176 4.07513E+01 7.18285E+00 3.27177E-01-1.17967E+00-6.10068E-13 2.42167E-13
 -1      2177 4.07869E+01 7.40460E+00 2.69708E-01 2.50249E-01-6.97942E-13 1.49172E-13
 -1      2178 3.66584E+01 5.41137E+00 1.03656E-01-2.39380E+00-4.60187E-13 2.40308E-13
 -1      2179 3.98971E+01 6.38619E+00 3.95930E-01-1.69167E+00-4.86666E-13 2.20046E-13
 -1      2180 3.12847E+01 1.72216E+00-3.33956E-03-4.31352E+00-3.39728E-13 2.49689E-13
 -1      2181 3.51765E+01 3.36212E+00 2.30552E-01-3.53956E+00-3.57075E-13 1.77747E-13
 -1      2182 2.46476E+01-1.72391E+00-9.72940E-02-5.62139E+00-2.56795E-13 4.55913E-13
 -1      2183 2.92762E+01 3.23191E-01 1.98894E-01-5.75262E+00-2.70367E-13 4.52638E-13
 -1      2184 3.06937E+01-2.63401E-01 1.54235E-01-2.71064E+00-5.65034E-14 2.30926E-14
 -1      2185 1.51709E+01-4.79545E+00-2.62112E-01-6.62440E+00-1.77691E-13 4.86555E-13
 -1      2186 2.01625E+01-3.05649E+00 1.04451E-02-7.21880E+00-2.57905E-13 4.58245E-13
 -1      2187 7.56695E+00-6.40642E+00-3.28811E-01-5.90550E+00 7.53841E-14 6.61846E-13
 -1      2188 1.13913E+01-4.83161E+00-8.44014E-02-7.05371E+00-6.63913E-14 6.56718E-13
 -1      2189 1.95495E+00-6.92302E+00-3.39494E-01-3.55123E+00 6.73073E-14 4.41203E-13
 -1      2190 4.12373E+00-6.14114E+00-2.34218E-01-4.99501E+00-4.71290E-14 5.82145E-13
 -1      2191 3.70484E+01 1.88081E+00 3.33959E-01 3.08128E+00 9.11909E-13 1.05360E-13
 -1      2192 3.18958E+01-1.73544E-01-6.01767E-02 3.25288E+00 9.11160E-13 1.18017E-13
 -1      2193 3.11793E+01-2.72956E+00 7.49720E-02 2.14330E+00 6.37795E-13-5.80647E-14
 -1      2194 2.07431E+01 1.10856E+00-2.03953E-02-1.57604E+00-4.79630E-13 1.51972E-13
 -1      2195 3.60575E+01 2.17890E+00 2.67926E-01-4.70186E-01 8.84709E-13-1.32117E-13
 -1      2196 2.06461E+01 1.33516E+00-1.82055E-02-1.62632E+00-5.10323E-13-8.69183E-14
 -1      2197 6.07725E+00-5.50667E+00-1.51729E-01 4.78883E+00-7.33857E-14 6.48759E-13
 -1      2198 1.38823E+01-6.23793E+00-1.17755E-01 6.37392E+00 4.73510E-14 6.69867E-13
 -1      2199 2.00021E+01 2.89954E-03 1.86300E-05-8.01132E-04-1.04653E-14-3.39700E-14
 -1      2200 2.67346E+00-4.51787E+00-1.19942E-01-3.01582E+00-1.05471E-15 4.03289E-13
 -1      2201 2.30865E+01-5.51916E+00 3.85545E-02 5.27264E+00 1.99507E-13 3.90854E-13
 -1      2202 7.96834E+00-5.16925E+00-8.53915E-02-6.54176E+00 1.77802E-13 5.80869E-13
 -1      2203 2.42824E+01-3.77646E+00 5.57059E-02-5.58620E+00 4.56857E-14 2.34479E-13
 -1      2204 3.42114E+01 4.01355E+00 2.10954E-01-7.10556E-01-2.54907E-13-1.21458E-13
 -1      2205 3.62503E+01 7.66084E+00 3.26713E-01 3.14773E-02-5.47506E-13-2.07612E-14
 -1      2206 3.58942E+01 8.29835E+00 2.49919E-01-2.11514E-01-8.04801E-13 7.49331E-14
 -1      2207 3.49676E+01 5.81728E+00 2.20782E-01 3.17297E-01-7.96918E-13 1.64091E-13
 -1      2208 3.25649E+01 1.59320E+00 2.22752E-01 2.16473E+00-6.30558E-13 1.11633E-13
 -1      2209 1.90329E+01-4.96805E+00-9.10509E-04 6.90736E+00-2.26152E-13-2.37005E-13
 -1      2210 4.03809E+00-5.39839E+00-1.49660E-01 4.58382E+00-4.04121E-14-7.67608E-13
 -1      2211 4.02953E+00-3.37700E+00 1.01280E-01 3.90181E+00 1.25788E-13-8.79741E-13
 -1      2212 6.92460E+00-4.21680E+00-3.52412E-02 5.92826E+00 1.85102E-13-7.39825E-13
 -1      2213 4.10224E+00-5.22803E+00-1.72917E-01-3.73199E+00-3.99680E-15-6.80789E-13
 -1      2214 1.02335E+01-6.16243E+00-1.59016E-01-6.10498E+00 5.97855E-14-6.25916E-13
 -1      2215 1.89259E+01-6.01730E+00 2.65794E-02-6.14048E+00 1.39500E-13-5.79994E-13
 -1      2216 2.77139E+01-4.03824E+00 1.81406E-02-3.72440E+00 3.54328E-13-2.49079E-13
 -1      2217 2.98477E+01-4.23108E+00-2.27540E-01-1.71869E+00 2.02671E-13 1.05721E-13
 -1      2218 2.62723E+01-5.35842E+00 1.36854E-01-3.76171E+00 9.92817E-14-6.20060E-14
 -1      2219 3.45325E+01 3.01046E-01 1.74153E-01-2.19701E-01 3.37987E-13-1.32783E-13
 -1      2220 3.71467E+01 5.10858E+00 2.54440E-01 1.01764E+00 4.63352E-13-2.03282E-13
 -1      2221 3.81251E+01 6.21891E+00 3.84390E-01-1.01392E+00 7.80209E-13-2.71450E-13
 -1      2222 3.80637E+01 7.61209E+00 3.48849E-01 1.35966E-01 8.04801E-13-1.65382E-13
 -1      2223 2.70455E+01-2.48933E+00 1.04425E-01 4.70361E+00-3.78947E-13-9.25371E-14
 -1      2224 1.57269E+01-5.38607E+00-8.25032E-03-7.27834E+00 1.94567E-13 4.53228E-13
 -1      2225 2.01971E+01 5.21463E-01 4.59905E-03 6.15247E-01 3.84904E-13 2.24740E-13
 -1      2226 2.04483E+01 7.10625E-01 2.08612E-02 9.13222E-01 4.41416E-13 2.92358E-13
 -1      2227 1.95439E+01 3.58381E+00-1.12726E-02-5.55079E-01-5.96418E-14-7.10197E-13
 -1      2228 1.95855E+01 3.53351E+00-1.01729E-02-7.31940E-01-1.20414E-13-7.24499E-13
 -1      2229 1.96388E+01 3.43643E+00-1.30395E-02-8.88826E-01-1.72228E-13-7.17050E-13
 -1      2230 1.97069E+01 3.35023E+00-1.24036E-02-1.07351E+00-2.33912E-13-6.91098E-13
 -1      2231 1.97746E+01 3.10583E+00 6.80279E-04-7.38212E-01-1.36455E-13-6.63647E-13
 -1      2232 1.94871E+01 3.67772E+00-9.55246E-03 9.52474E-02 1.48886E-13-7.01880E-13
 -1      2233 1.94863E+01 3.67826E+00-9.50350E-03-7.43418E-02 9.46455E-14-7.11518E-13
 -1      2234 1.95189E+01 3.63509E+00-9.53868E-03 4.20126E-01 2.23956E-13-6.78319E-13
 -1      2235 1.94977E+01 3.65963E+00-1.01604E-02 2.48783E-01 1.79131E-13-6.90578E-13
 -1      2236 1.96459E+01 3.31720E+00-3.11118E-04 1.58601E-01 1.56089E-13-6.66525E-13
 -1      2237 1.95922E+01 3.52967E+00-1.03257E-02 7.45894E-01 3.16652E-13-6.44235E-13
 -1      2238 1.95495E+01 3.58060E+00-1.13752E-02 5.72341E-01 2.61000E-13-6.65845E-13
 -1      2239 1.96908E+01 3.24790E+00 5.95616E-05 4.53985E-01 2.37667E-13-6.29158E-13
 -1      2240 1.97177E+01 3.34216E+00-1.25750E-02 1.08555E+00 4.25796E-13-5.13983E-13
 -1      2241 1.96473E+01 3.43105E+00-1.31676E-02 9.01935E-01 3.63065E-13-5.90169E-13
 -1      2242 1.97819E+01 3.10192E+00 7.18764E-04 7.50297E-01 3.36301E-13-5.66707E-13
 -1      2243 1.99106E+01 3.03986E+00-1.77370E-02 1.42562E+00 5.37144E-13-3.86257E-13
 -1      2244 1.98045E+01 3.18750E+00-1.55376E-02 1.23779E+00 4.58254E-13-4.49646E-13
 -1      2245 1.99283E+01 2.85928E+00 2.24337E-03 1.04318E+00 4.30013E-13-4.47308E-13
 -1      2246 2.01960E+01 2.56334E+00-2.80141E-02 1.73038E+00 5.96200E-13-2.09202E-13
 -1      2247 2.00422E+01 2.80903E+00-1.73913E-02 1.55544E+00 5.56231E-13-3.17704E-13
 -1      2248 2.01381E+01 2.48889E+00 6.00598E-03 1.30397E+00 5.25422E-13-3.12445E-13
 -1      2249 1.99555E+01 2.92966E-01 5.93672E-03 2.01906E-01 3.08250E-13 1.27545E-13
 -1      2250 2.00938E+01 3.87496E-01 2.03018E-02 3.69512E-01 3.39867E-13 1.91608E-13
 -1      2251 2.02649E+01 6.58927E-01-2.82302E-03 6.22826E-01 4.12753E-13 4.18025E-14
 -1      2252 2.04389E+01 8.71832E-01 1.36950E-02-9.32985E-01-4.20819E-13-1.85000E-13
 -1      2253 2.02406E+01 6.47911E-01-3.85692E-03-6.17840E-01-3.65563E-13-2.12755E-13
 -1      2254 3.41911E+01 2.05370E+00-1.55986E-01-1.91477E+00 7.97723E-13-3.19134E-13
 -1      2255 3.33929E+01 6.30533E-02-3.16177E-02-1.45671E+00 7.64305E-13-2.25542E-13
 -1      2256 2.01850E+01 4.95373E-01 1.61796E-02-3.90104E-01-3.17263E-13-1.91006E-13
 -1      2257 2.00632E+01 3.75151E-01 1.03170E-03-2.07788E-01-2.87163E-13-2.24920E-13
 -1      2258 2.02948E+01 7.80309E-01-1.20815E-03-6.03240E-01-3.64081E-13-2.79317E-13
 -1      2259 2.00127E+01 2.94666E-01 1.08960E-02-5.58959E-02-2.72997E-13-2.14001E-13
 -1      2260 1.99582E+01 2.28310E-01 1.82480E-03 5.57015E-02-2.26809E-13-2.58601E-13
 -1      2261 2.01543E+01 4.59892E-01-4.10335E-03-1.92653E-01-2.88701E-13-2.75603E-13
 -1      2262 1.99308E+01 1.83176E-01 6.48354E-03 1.56238E-01-1.89400E-13-2.51119E-13
 -1      2263 1.99263E+01 1.45643E-01 1.95979E-03 2.27323E-01-1.70618E-13-2.70949E-13
 -1      2264 2.00645E+01 2.83507E-01-4.15605E-03 8.15282E-02-2.26156E-13-2.69859E-13
 -1      2265 1.99223E+01 1.19505E-01 3.73846E-03 2.95221E-01-1.34342E-13-2.60984E-13
 -1      2266 1.99528E+01 9.78142E-02 1.93875E-03 3.42483E-01-1.04046E-13-2.41978E-13
 -1      2267 2.00289E+01 1.82666E-01-3.56082E-03 2.65408E-01-1.59131E-13-2.71635E-13
 -1      2268 1.99689E+01 8.19484E-02 2.12084E-03 3.89937E-01-1.05977E-13-2.36587E-13
 -1      2269 2.00240E+01 6.84911E-02 1.78572E-03 4.22593E-01-6.55392E-14-2.42218E-13
 -1      2270 2.00400E+01 1.23446E-01-2.86818E-03 3.91943E-01-1.04648E-13-2.57748E-13
 -1      2271 2.00571E+01 5.73690E-02 1.20889E-03 4.56701E-01-6.51110E-14-2.64399E-13
 -1      2272 2.01296E+01 4.68046E-02 1.45037E-03 4.79219E-01-8.57436E-14-2.79704E-13
 -1      2273 2.00896E+01 8.58487E-02-2.30827E-03 4.81748E-01-9.95054E-14-3.22835E-13
 -1      2274 2.01774E+01 3.61494E-02 7.72496E-04 5.03083E-01-1.50447E-13-2.59653E-13
 -1      2275 2.02617E+01 2.39982E-02 8.55693E-04 5.16365E-01-1.85825E-13-2.92325E-13
 -1      2276 2.01709E+01 5.60020E-02-1.93178E-03 5.45952E-01-1.13851E-13-3.30238E-13
 -1      2277 2.03233E+01 9.97807E-03 6.84806E-04 5.29617E-01-1.67505E-13-2.36060E-13
 -1      2278 2.04146E+01-7.90445E-03-9.10447E-05 5.31506E-01-1.54623E-13-2.52554E-13
 -1      2279 2.02800E+01 2.24638E-02-1.72266E-03 5.87849E-01-1.53088E-13-2.52204E-13
 -1      2280 2.04897E+01-2.88407E-02 8.61175E-04 5.30544E-01-1.72354E-13-2.47855E-13
 -1      2281 2.05828E+01-5.61579E-02-1.47081E-03 5.16155E-01-1.18628E-13-3.01941E-13
 -1      2282 2.04146E+01-2.51418E-02-1.64063E-03 6.03707E-01-1.68564E-13-1.86494E-13
 -1      2283 2.06713E+01-8.68717E-02 1.21352E-03 4.94401E-01-1.05892E-13-3.00830E-13
 -1      2284 2.07596E+01-1.26092E-01-3.30302E-03 4.56724E-01-4.01321E-14-3.03618E-13
 -1      2285 2.05738E+01-9.58453E-02-1.61992E-03 5.83288E-01-1.56470E-13-1.65254E-13
 -1      2286 2.08607E+01-1.67648E-01 1.60097E-03 4.05350E-01 7.77069E-15-3.42493E-13
 -1      2287 2.09359E+01-2.18352E-01-5.46438E-03 3.36622E-01-7.69794E-15-3.66790E-13
 -1      2288 2.07559E+01-1.95297E-01-1.54256E-03 5.10807E-01-4.59372E-14-2.65658E-13
 -1      2289 2.10456E+01-2.68087E-01 1.77852E-03 2.46331E-01-3.10370E-14-3.61038E-13
 -1      2290 2.10972E+01-3.24439E-01-7.57645E-03 1.40744E-01-4.54628E-15-3.47957E-13
 -1      2291 2.09565E+01-3.21621E-01-1.20084E-03 3.67354E-01-2.07095E-14-2.94485E-13
 -1      2292 2.12065E+01-3.73433E-01 1.36568E-03 5.43538E-03-4.23294E-14-3.30285E-13
 -1      2293 2.12226E+01-4.21436E-01-8.88356E-03-1.36424E-01-9.69112E-14-2.89564E-13
 -1      2294 2.11642E+01-4.59224E-01-2.82920E-04 1.36220E-01-3.32071E-14-3.05467E-13
 -1      2295 2.13143E+01-4.52471E-01-5.66047E-05-3.13475E-01-1.60132E-13-2.77345E-13
 -1      2296 2.12838E+01-4.69041E-01-8.29394E-03-4.78721E-01-1.45251E-13-2.64257E-13
 -1      2297 2.13560E+01-5.72393E-01 1.54436E-03-1.87275E-01-1.21129E-13-2.27044E-13
 -1      2298 2.13323E+01-4.57806E-01-2.81047E-03-6.76661E-01-1.37914E-13-2.96087E-13
 -1      2299 2.12495E+01-4.15206E-01-4.72701E-03-8.34980E-01-1.65708E-13-3.08778E-13
 -1      2300 2.14939E+01-6.03673E-01 4.28337E-03-5.80794E-01-1.45320E-13-2.98812E-13
 -1      2301 2.12275E+01-3.38050E-01-6.33363E-03-1.00872E+00-1.59839E-13-2.48257E-13
 -1      2302 2.10982E+01-2.17762E-01 1.93968E-03-1.11242E+00-1.18935E-13-2.63609E-13
 -1      2303 2.15296E+01-4.86515E-01 7.02069E-03-9.78406E-01-1.28361E-13-2.40678E-13
 -1      2304 2.09940E+01-6.89801E-02-9.10053E-03-1.19619E+00-8.33770E-14-2.88741E-13
 -1      2305 2.08412E+01 1.17927E-01 9.86078E-03-1.19274E+00-2.03982E-14-2.83587E-13
 -1      2306 2.14248E+01-1.79777E-01 7.74932E-03-1.26383E+00-9.95785E-14-1.67349E-13
 -1      2307 2.06795E+01 3.08842E-01-8.25645E-03-1.12290E+00 6.33111E-14-2.90948E-13
 -1      2308 2.05416E+01 5.06543E-01 1.46624E-02-9.80010E-01 1.85416E-13-3.02564E-13
 -1      2309 2.11875E+01 2.83993E-01 4.45737E-03-1.29572E+00 1.39197E-14-1.92886E-13
 -1      2310 2.03938E+01 6.68582E-01-2.70195E-03-7.38821E-01 2.20343E-13-3.27627E-13
 -1      2311 2.03137E+01 7.95394E-01 1.30099E-02-4.76922E-01 1.84101E-13-2.85378E-13
 -1      2312 2.09030E+01 7.64431E-01-2.99877E-03-9.75343E-01 1.75624E-13-2.44686E-13
 -1      2313 2.02560E+01 8.57734E-01 6.05216E-03-1.22888E-01 1.19764E-13-2.74726E-13
 -1      2314 2.02609E+01 8.53378E-01 5.57309E-03 1.85246E-01 3.73568E-14-2.26640E-13
 -1      2315 2.07125E+01 1.06952E+00-9.34971E-03-3.43034E-01 1.61670E-13-2.05575E-13
 -1      2316 2.03291E+01 7.83302E-01 1.34890E-02 5.35526E-01 5.83084E-15-2.28835E-13
 -1      2317 2.04182E+01 6.49724E-01-2.91600E-03 7.91857E-01 7.17707E-14-2.14902E-13
 -1      2318 2.07223E+01 1.05900E+00-8.92165E-03 4.12392E-01 3.72692E-14-2.02928E-13
 -1      2319 2.05725E+01 4.83604E-01 1.46007E-02 1.02297E+00 4.34871E-14-3.24163E-13
 -1      2320 2.07171E+01 2.85618E-01-8.13928E-03 1.15730E+00 1.04584E-13-3.22506E-13
 -1      2321 2.09295E+01 7.38340E-01-2.01289E-03 1.02965E+00 4.07378E-15-2.93365E-13
 -1      2322 2.08787E+01 9.77269E-02 9.31738E-03 1.21734E+00 1.91077E-13-3.66102E-13
 -1      2323 2.10360E+01-8.38630E-02-8.64710E-03 1.21478E+00 1.45965E-13-3.18027E-13
 -1      2324 2.12199E+01 2.55955E-01 4.86124E-03 1.32748E+00 9.65103E-14-5.05624E-13
 -1      2325 2.11380E+01-2.26722E-01 1.37738E-03 1.12632E+00 1.05304E-13-3.00337E-13
 -1      2326 2.12709E+01-3.39682E-01-5.78917E-03 1.02102E+00 1.03537E-13-2.42230E-13
 -1      2327 2.14557E+01-1.95185E-01 7.71645E-03 1.28067E+00 1.44033E-13-4.80464E-13
 -1      2328 2.12911E+01-4.09995E-01-5.07796E-03 8.48866E-01-4.44722E-14-3.04374E-13
 -1      2329 2.13784E+01-4.45782E-01-2.13844E-03 6.94052E-01-5.84975E-14-3.14283E-13
 -1      2330 2.15576E+01-4.84174E-01 6.78280E-03 9.92328E-01-6.94225E-15-4.33489E-13
 -1      2331 2.13310E+01-4.51726E-01-8.37255E-03 5.03046E-01-4.90426E-14-2.73938E-13
 -1      2332 2.13681E+01-4.30323E-01 5.53178E-04 3.45187E-01 1.06122E-14-2.30259E-13
 -1      2333 2.15227E+01-5.84513E-01 4.03007E-03 6.04437E-01-6.65516E-14-3.98963E-13
 -1      2334 2.12806E+01-3.95832E-01-8.81681E-03 1.78458E-01 2.94315E-14-2.96474E-13
 -1      2335 2.12742E+01-3.44844E-01 1.94178E-03 4.65476E-02 3.62948E-15-2.02178E-13
 -1      2336 2.13913E+01-5.41046E-01 1.33002E-03 2.29455E-01-3.07705E-14-3.08883E-13
 -1      2337 2.11716E+01-2.93918E-01-7.45300E-03-7.65873E-02-6.82594E-14-1.34655E-13
 -1      2338 2.11331E+01-2.35918E-01 2.33055E-03-1.70786E-01-2.61707E-14-8.53587E-14
 -1      2339 2.12113E+01-4.20395E-01-4.51959E-04-7.02928E-02 5.23390E-14-2.39136E-13
 -1      2340 2.10320E+01-1.85282E-01-5.34937E-03-2.48091E-01 1.95721E-14-7.63625E-14
 -1      2341 2.09734E+01-1.33818E-01 2.14847E-03-3.04787E-01 7.91069E-14 4.63692E-14
 -1      2342 2.10197E+01-2.78749E-01-1.30214E-03-2.75121E-01 8.86525E-15-6.72082E-14
 -1      2343 2.08822E+01-9.21183E-02-3.23782E-03-3.43095E-01-1.96931E-14 6.99839E-14
 -1      2344 2.08137E+01-5.28755E-02 1.73348E-03-3.68743E-01-9.35202E-14-1.45915E-13
 -1      2345 2.08382E+01-1.50816E-01-1.55550E-03-3.91522E-01 1.56857E-15-1.29550E-13
 -1      2346 2.07356E+01-2.27994E-02-1.48404E-03-3.78056E-01-8.80073E-14-1.32077E-13
 -1      2347 2.06649E+01 3.59478E-03 1.29147E-03-3.81131E-01-1.33807E-13-1.53253E-13
 -1      2348 2.06771E+01-5.18456E-02-1.51449E-03-4.37723E-01-1.17800E-13-1.61691E-13
 -1      2349 2.05999E+01 2.27638E-02-2.02019E-04-3.71253E-01-1.05924E-13-1.43410E-13
 -1      2350 2.05324E+01 3.82071E-02 9.16164E-04-3.59804E-01-7.59368E-14-6.45559E-14
 -1      2351 2.05392E+01 1.57342E-02-1.36231E-03-4.34463E-01-9.51446E-14-7.24312E-14
 -1      2352 2.04792E+01 4.86452E-02 6.31011E-04-3.38842E-01-7.58088E-14 5.55216E-14
 -1      2353 2.04181E+01 5.58646E-02 6.31964E-04-3.19393E-01-5.62453E-14 9.72015E-14
 -1      2354 2.04238E+01 5.60918E-02-1.18865E-03-4.00268E-01 3.03972E-14 2.47702E-13
 -1      2355 2.03752E+01 6.00366E-02 1.09745E-03-2.93360E-01-8.15169E-14 1.17896E-13
 -1      2356 2.03222E+01 6.16713E-02 4.31392E-04-2.70661E-01 2.46169E-14 2.85716E-13
 -1      2357 2.03289E+01 7.57267E-02-1.02695E-03-3.49675E-01 5.61645E-15 3.50831E-13
 -1      2358 2.02880E+01 6.17608E-02 1.29420E-03-2.43634E-01-6.40301E-14 1.39799E-13
 -1      2359 2.02434E+01 5.99750E-02 2.96293E-04-2.20826E-01-1.54306E-13 4.09621E-14
 -1      2360 2.02518E+01 8.11009E-02-8.83995E-04-2.93059E-01-7.62192E-14 2.94631E-13
 -1      2361 2.02165E+01 5.76837E-02 1.30982E-03-1.95316E-01-5.23629E-14-6.46251E-14
 -1      2362 2.01802E+01 5.40785E-02 2.07919E-04-1.74263E-01-4.86294E-15 2.22582E-14
 -1      2363 2.01900E+01 7.75987E-02-7.57827E-04-2.37194E-01-1.80749E-13 3.08014E-13
 -1      2364 2.01592E+01 5.06192E-02 1.21568E-03-1.51621E-01-6.93237E-14 4.05550E-14
 -1      2365 2.01305E+01 4.62857E-02 1.50847E-04-1.33260E-01-6.59204E-14 7.62865E-14
 -1      2366 2.01411E+01 6.92532E-02-6.45088E-04-1.86057E-01-3.44377E-14 7.41836E-14
 -1      2367 2.01144E+01 4.24577E-02 1.06434E-03-1.14042E-01-3.83642E-15 1.83606E-13
 -1      2368 2.00922E+01 3.80811E-02 1.13637E-04-9.86899E-02 9.25288E-14 2.07327E-13
 -1      2369 2.01029E+01 5.88458E-02-5.43225E-04-1.41605E-01 2.16500E-15 1.58024E-13
 -1      2370 2.00800E+01 3.43689E-02 8.91559E-04-8.29427E-02 8.12413E-14 6.94878E-14
 -1      2371 2.00634E+01 3.03403E-02 8.87100E-05-7.05346E-02 1.22457E-13-1.79365E-14
 -1      2372 2.00736E+01 4.81469E-02-4.50947E-04-1.04455E-01 5.35912E-14 2.02819E-13
 -1      2373 2.00543E+01 2.70072E-02 7.19668E-04-5.80104E-02 3.60370E-13 1.11454E-15
 -1      2374 2.00422E+01 2.35123E-02 7.04734E-05-4.82685E-02 4.50576E-13-2.28951E-14
 -1      2375 2.00514E+01 3.81869E-02-3.66872E-04-7.43922E-02 2.64662E-13-2.57447E-16
 -1      2376 2.00355E+01 2.06632E-02 5.62473E-04-3.85723E-02 3.20770E-13 6.95365E-14
 -1      2377 2.00270E+01 1.77415E-02 5.37598E-05-3.11317E-02 3.53109E-13 1.53276E-13
 -1      2378 2.00349E+01 2.94639E-02-2.92392E-04-5.07409E-02 4.43795E-13 1.59071E-14
 -1      2379 2.00222E+01 1.53687E-02 4.25144E-04-2.38373E-02 2.25933E-13 1.59850E-13
 -1      2380 2.00164E+01 1.29792E-02 4.26323E-05-1.83415E-02 1.32179E-13 3.13006E-13
 -1      2381 2.00229E+01 2.21082E-02-2.25149E-04-3.26359E-02 2.80141E-13 2.36402E-13
 -1      2382 2.00130E+01 1.09459E-02 2.92438E-04-1.30328E-02-2.69084E-14 2.45225E-13
 -1      2383 2.00093E+01 9.06251E-03 6.94441E-05-9.20638E-03-1.16246E-13 1.84213E-13
 -1      2384 2.00143E+01 1.60429E-02-1.60199E-04-1.92190E-02 1.57156E-14 9.55824E-14
 -1      2385 1.98195E+01 1.23306E-01 4.24530E-03-2.24129E-01 1.68092E-13-8.69162E-15
 -1      2386 1.98063E+01 1.46978E-01 7.24437E-03-1.56360E-01 2.06033E-13 4.82656E-14
 -1      2387 1.98808E+01 9.99619E-02 4.23269E-03-3.49273E-01 1.36313E-13-7.19237E-14
 -1      2388 1.98231E+01 1.08521E-01 4.11879E-03-2.97260E-01 1.52061E-13-2.31552E-14
 -1      2389 1.99492E+01 1.66866E-01-4.06208E-03-2.78080E-01 1.98171E-13-9.66912E-14
 -1      2390 2.00045E+01 9.87426E-02 4.68134E-03-4.57347E-01 1.63624E-13-9.48169E-14
 -1      2391 1.99115E+01 9.66281E-02 2.34602E-03-4.09525E-01 1.46304E-13-7.87632E-14
 -1      2392 1.99852E+01 1.40401E-01-3.31258E-03-4.25611E-01 1.75951E-13-1.44542E-13
 -1      2393 2.01820E+01 1.14651E-01 5.49543E-03-5.68190E-01 1.26372E-13-7.64949E-14
 -1      2394 2.00572E+01 1.03964E-01 1.31531E-03-5.16090E-01 1.46477E-13-8.72665E-14
 -1      2395 2.00713E+01 1.43588E-01-2.66425E-03-5.56827E-01 1.51737E-13-1.85475E-13
 -1      2396 2.04106E+01 1.45178E-01 6.62496E-03-6.97499E-01 2.44173E-14-7.79972E-14
 -1      2397 2.02533E+01 1.27021E-01 6.87619E-04-6.34236E-01 1.03195E-13-5.82045E-14
 -1      2398 2.01988E+01 1.70010E-01-2.16010E-03-6.93207E-01 9.24476E-14-1.55328E-13
 -1      2399 2.06921E+01 1.88261E-01 7.97498E-03-8.58216E-01 7.41594E-17-1.18877E-13
 -1      2400 2.04986E+01 1.63740E-01 2.70753E-04-7.78059E-01 1.37854E-14-9.36545E-14
 -1      2401 2.03625E+01 2.16130E-01-1.74908E-03-8.51788E-01 5.59346E-14-1.53371E-13
 -1      2402 2.10310E+01 2.39996E-01 9.32081E-03-1.06009E+00-2.11270E-14-1.37012E-13
 -1      2403 2.07958E+01 2.11525E-01-5.65106E-05-9.59021E-01-1.18772E-14-1.32882E-13
 -1      2404 2.05597E+01 2.78349E-01-1.38627E-03-1.04625E+00 1.92363E-14-1.88243E-13
 -1      2405 2.14336E+01 2.90833E-01 1.01989E-02-1.30685E+00 9.66506E-14-1.25768E-13
 -1      2406 2.11507E+01 2.64395E-01-3.46534E-04-1.18454E+00 3.96109E-14-1.19171E-13
 -1      2407 2.07894E+01 3.49370E-01-1.11863E-03-1.28616E+00 1.15783E-14-2.12405E-13
 -1      2408 2.19076E+01 3.18891E-01 9.78605E-03-1.58953E+00 4.62239E-14-4.61467E-14
 -1      2409 2.15722E+01 3.07971E-01-5.10041E-04-1.45369E+00 9.65417E-14-6.54019E-14
 -1      2410 2.10535E+01 4.12115E-01-1.22445E-03-1.57394E+00 4.28043E-14-1.26340E-13
 -1      2411 2.24649E+01 2.79587E-01 6.83920E-03-1.87407E+00-2.58181E-14-5.99390E-15
 -1      2412 2.20749E+01 3.11019E-01-1.25491E-04-1.74820E+00 4.46713E-15-6.06308E-15
 -1      2413 2.13611E+01 4.29527E-01-2.44794E-03-1.89808E+00-3.11242E-15-9.03886E-14
 -1      2414 2.31277E+01 9.39115E-02-3.81852E-04-2.08167E+00-1.05690E-13-3.72211E-14
 -1      2415 2.26867E+01 2.13762E-01 1.89697E-03-2.01634E+00-3.28532E-14-2.80496E-14
 -1      2416 2.17397E+01 3.30081E-01-6.30794E-03-2.22112E+00-2.61228E-14-1.45588E-14
 -1      2417 2.39396E+01-3.47790E-01-1.34895E-02-2.06513E+00-3.51993E-14 4.62330E-14
 -1      2418 2.34612E+01-7.76532E-02 8.34810E-03-2.14696E+00-6.13160E-14-2.85154E-14
 -1      2419 2.22587E+01-5.85977E-03-1.51705E-02-2.45949E+00-7.05865E-14-9.90298E-14
 -1      2420 2.50322E+01-1.16584E+00-2.94555E-02-1.55676E+00-1.23733E-13 1.18248E-13
 -1      2421 2.45147E+01-6.95898E-01 2.09030E-02-1.93451E+00-3.92468E-14 1.23209E-13
 -1      2422 2.30816E+01-7.37602E-01-2.87995E-02-2.44601E+00-9.50828E-14-7.08019E-14
 -1      2423 2.63507E+01-2.06485E+00-2.92751E-02-3.43547E-01-1.25972E-13 1.59471E-13
 -1      2424 2.59179E+01-1.62254E+00 3.84617E-02-1.06240E+00-1.63040E-13 1.12185E-13
 -1      2425 2.44022E+01-1.94915E+00-5.98105E-02-1.89869E+00-1.52196E-13 8.45114E-14
 -1      2426 2.77020E+01-2.32756E+00-5.51457E-02 1.57278E+00 1.39368E-14 1.87824E-13
 -1      2427 2.75020E+01-2.38532E+00 9.78734E-03 6.24517E-01-4.98785E-14 1.56725E-13
 -1      2428 2.64536E+01-2.95960E+00-2.90913E-02-4.40367E-01-1.05464E-13 2.56418E-14
 -1      2429 2.85990E+01-6.06760E-01-5.13374E-02 3.23606E+00 9.16212E-14 1.77192E-13
 -1      2430 2.87125E+01-1.80367E+00-7.76551E-02 2.69195E+00 7.24976E-14 1.38951E-13
 -1      2431 2.87017E+01-2.75205E+00-4.63422E-02 1.63841E+00 7.51968E-14-8.88178E-16
 -1      2432 2.82773E+01 4.05352E+00-1.72084E-01-3.44026E-02 4.98657E-13-1.78774E-13
 -1      2433 2.84358E+01 3.62983E+00-1.64975E-01 1.55719E+00 4.15723E-13-6.01342E-15
 -1      2434 2.83356E+01 2.08827E+00-1.98746E-01-2.95167E+00 4.60992E-13-5.46247E-13
 -1      2435 2.80367E+01 3.39330E+00-1.08121E-01-1.86193E+00 5.02570E-13-3.70502E-13
 -1      2436 2.89315E+01-9.10212E-01-7.71537E-02-3.34806E+00 2.98150E-13-7.23331E-13
 -1      2437 2.85502E+01 6.35957E-01-5.68674E-02-3.43753E+00 4.67806E-13-6.74488E-13
 -1      2438 2.80359E+01-2.25099E+00-6.50476E-03-1.53062E+00 3.09995E-14-6.52929E-13
 -1      2439 2.80373E+01-1.89827E+00-7.68598E-02-2.33608E+00 1.85900E-13-7.18202E-13
 -1      2440 2.93456E+01-1.98124E+00-1.22238E-01-2.51677E+00 2.81074E-13-6.12427E-13
 -1      2441 2.66403E+01-1.93187E+00 3.85431E-02 4.17007E-01-3.12569E-13-3.39589E-13
 -1      2442 2.69524E+01-2.26418E+00-5.00388E-02-4.21312E-01-1.75283E-13-5.20087E-13
 -1      2443 2.73710E+01-2.95969E+00-1.54645E-02-5.24735E-01-1.10814E-13-3.63692E-13
 -1      2444 2.51681E+01-9.89127E-01 3.34841E-02 1.59148E+00-4.88373E-13-1.54935E-13
 -1      2445 2.56357E+01-1.44899E+00-1.95244E-02 1.13101E+00-3.84692E-13-2.56383E-13
 -1      2446 2.53610E+01-2.24508E+00-4.22047E-02 1.25000E+00-4.01975E-13-3.22055E-13
 -1      2447 2.40233E+01-2.77323E-01 1.24442E-02 2.03637E+00-2.08500E-13-2.15323E-14
 -1      2448 2.45031E+01-6.17955E-01-1.78566E-02 1.86674E+00-3.68523E-13-1.09931E-13
 -1      2449 2.37441E+01-1.14592E+00-5.17502E-02 2.17318E+00-4.27238E-13-1.59677E-13
 -1      2450 2.31644E+01 1.25035E-01 2.92492E-03 2.01992E+00-2.81543E-13 1.42177E-13
 -1      2451 2.36161E+01-4.83673E-02-4.52542E-03 2.03772E+00-2.16974E-13 2.95848E-14
 -1      2452 2.27957E+01-2.42142E-01-2.04879E-02 2.38631E+00-3.38429E-13-8.78919E-15
 -1      2453 2.24720E+01 2.96037E-01-1.68407E-04 1.77108E+00-1.24727E-13 9.19781E-14
 -1      2454 2.28888E+01 2.30393E-01 3.35587E-03 1.88726E+00-1.98539E-13 1.11123E-13
 -1      2455 2.21590E+01 2.32881E-01-8.26846E-03 2.22623E+00-2.37738E-13-8.94996E-14
 -1      2456 2.19498E+01 3.23123E-01-8.17279E-04 1.46339E+00-2.05779E-13-1.64144E-14
 -1      2457 2.22892E+01 3.18618E-01 7.82778E-03 1.60105E+00-1.47415E-13 1.45144E-13
 -1      2458 2.17129E+01 4.14007E-01-2.71334E-03 1.90774E+00-1.47290E-13-9.87765E-14
 -1      2459 2.15237E+01 2.92826E-01-6.26460E-04 1.16398E+00 4.86620E-14 1.84814E-15
 -1      2460 2.18048E+01 3.12368E-01 9.09440E-03 1.29609E+00-5.68239E-14-7.75770E-14
 -1      2461 2.13786E+01 4.33622E-01-5.14161E-04 1.56261E+00-8.36512E-14-1.62888E-13
 -1      2462 2.11766E+01 2.43491E-01-2.65472E-04 9.02818E-01 2.57764E-13-1.47227E-13
 -1      2463 2.14036E+01 2.69818E-01 8.68550E-03 1.01663E+00 2.02685E-13-1.00145E-13
 -1      2464 2.11033E+01 3.86450E-01-1.07936E-04 1.24059E+00 1.19287E-13-3.28047E-13
 -1      2465 2.08965E+01 1.93399E-01 2.71970E-05 6.87991E-01 1.25328E-13-1.26696E-13
 -1      2466 2.10760E+01 2.18901E-01 7.54651E-03 7.80661E-01 2.18001E-13-7.92181E-14
 -1      2467 2.08722E+01 3.18901E-01-2.98845E-04 9.63755E-01 1.63208E-13-2.57389E-13
 -1      2468 2.06732E+01 1.49640E-01 2.12333E-04 5.17207E-01-5.25832E-14-1.21788E-13
 -1      2469 2.08127E+01 1.71519E-01 6.20841E-03 5.90255E-01-9.39314E-14-1.19147E-13
 -1      2470 2.06791E+01 2.52362E-01-5.71577E-04 7.36691E-01 7.02957E-14-8.49760E-14
 -1      2471 2.04978E+01 1.13968E-01 3.07176E-04 3.84272E-01 2.07670E-13-1.40143E-13
 -1      2472 2.06047E+01 1.31674E-01 4.93849E-03 4.40722E-01 6.80573E-14-1.75301E-13
 -1      2473 2.05202E+01 1.94892E-01-7.55785E-04 5.55779E-01 5.33088E-14-7.68991E-14
 -1      2474 2.03621E+01 8.59141E-02 3.39077E-04 2.82223E-01 6.06078E-14 2.43146E-13
 -1      2475 2.04428E+01 9.98050E-02 3.84373E-03 3.25289E-01 2.06337E-13 1.47945E-13
 -1      2476 2.03918E+01 1.48268E-01-8.27561E-04 4.14348E-01 3.03666E-14-1.84011E-14
 -1      2477 2.02586E+01 6.42805E-02 3.32090E-04 2.04657E-01 1.74547E-13 2.21170E-13
 -1      2478 2.03188E+01 7.49919E-02 2.94733E-03 2.37213E-01 1.66994E-13 2.05987E-13
 -1      2479 2.02899E+01 1.11678E-01-8.12143E-04 3.05233E-01 1.37695E-13 1.33273E-13
 -1      2480 2.01808E+01 4.77831E-02 3.03860E-04 1.46170E-01 4.58452E-14 6.46066E-14
 -1      2481 2.02250E+01 5.59599E-02 2.23481E-03 1.70598E-01 2.04526E-13 2.51889E-13
 -1      2482 2.02105E+01 8.34890E-02-7.42967E-04 2.21887E-01 2.03807E-13 2.16558E-13
 -1      2483 2.01233E+01 3.52889E-02 2.66061E-04 1.02393E-01 1.74889E-13 9.39829E-14
 -1      2484 2.01553E+01 4.14904E-02 1.67856E-03 1.20594E-01 9.69640E-14 9.04393E-14
 -1      2485 2.01498E+01 6.20027E-02-6.47415E-04 1.58760E-01 9.56346E-14 1.39399E-13
 -1      2486 2.00817E+01 2.58734E-02 2.25652E-04 6.98747E-02-3.71797E-14 7.55824E-14
 -1      2487 2.01044E+01 3.05536E-02 1.24919E-03 8.33354E-02 1.05134E-13 1.08863E-13
 -1      2488 2.01041E+01 4.57363E-02-5.43900E-04 1.11327E-01 1.34368E-13 2.62382E-13
 -1      2489 2.00522E+01 1.88094E-02 1.86072E-04 4.59263E-02 2.60604E-13 1.78317E-13
 -1      2490 2.00679E+01 2.23255E-02 9.19929E-04 5.57976E-02 4.29676E-14 1.26340E-13
 -1      2491 2.00705E+01 3.34831E-02-4.43410E-04 7.59856E-02 5.20043E-15 2.23304E-13
 -1      2492 2.00318E+01 1.35311E-02 1.47586E-04 2.84750E-02 1.91020E-13 2.60363E-13
 -1      2493 2.00423E+01 1.61630E-02 6.67882E-04 3.56384E-02 3.55217E-13 2.84336E-13
 -1      2494 2.00463E+01 2.42937E-02-3.51737E-04 4.99083E-02 2.60595E-13 2.55897E-13
 -1      2495 2.00183E+01 9.58757E-03 1.17772E-04 1.59460E-02-3.35168E-13 2.59767E-13
 -1      2496 2.00250E+01 1.15630E-02 4.75833E-04 2.10630E-02-2.05832E-13 1.28515E-13
 -1      2497 2.00292E+01 1.74206E-02-2.70986E-04 3.09019E-02 5.44425E-14 3.39231E-13
 -1      2498 2.00097E+01 6.49238E-03 7.64301E-05 7.16003E-03-1.60972E-13 3.75064E-14
 -1      2499 2.00136E+01 8.06533E-03 3.22128E-04 1.06914E-02-7.13047E-14 2.89645E-13
 -1      2500 2.00174E+01 1.22672E-02-2.05788E-04 1.73206E-02-1.65411E-13 1.90044E-13
 -1      2501 2.00044E+01 3.86363E-03 3.69261E-05 1.49632E-03-2.89407E-13 1.66735E-13
 -1      2502 2.00066E+01 5.25028E-03 2.31205E-04 3.70782E-03-3.16453E-13 4.08988E-14
 -1      2503 2.00096E+01 7.95498E-03-1.89634E-04 7.83528E-03-2.03414E-13 4.18772E-14
 -1      2504 2.00024E+01 2.40404E-03 1.22131E-04-5.62798E-04-6.64558E-14-3.13940E-14
 -1      2505 1.99990E+01 2.53524E-02-1.59854E-04 1.03668E-02 2.07344E-13-1.21387E-13
 -1      2506 2.00006E+01 2.30609E-02 9.42791E-05 1.05213E-02 2.61470E-13-4.40435E-13
 -1      2507 1.99964E+01 3.04527E-02-1.61325E-04 8.20413E-03 2.40692E-13 7.15846E-14
 -1      2508 1.99977E+01 2.86628E-02 3.91375E-05 9.35421E-03 2.52491E-13 6.61157E-14
 -1      2509 1.99979E+01 3.36727E-02 1.28272E-04 1.22459E-02 3.28846E-13 1.98013E-14
 -1      2510 2.00043E+01 1.26843E-02-8.36280E-05 7.87589E-03 3.49525E-15 4.69521E-13
 -1      2511 2.00050E+01 1.05244E-02 1.06720E-04 6.34214E-03 2.81169E-14 5.61232E-14
 -1      2512 2.00019E+01 1.91156E-02-1.31157E-04 1.02434E-02 5.83906E-14-4.82194E-14
 -1      2513 2.00033E+01 1.67312E-02 1.28338E-04 9.39847E-03 3.15665E-14 5.17232E-13
 -1      2514 2.00051E+01 1.89205E-02 5.64948E-05 1.14915E-02-5.03887E-14 3.53909E-13
 -1      2515 2.00016E+01 2.66605E-02 7.31505E-05 1.32080E-02 2.62651E-13-5.46725E-14
 -1      2516 1.99947E+01 3.36251E-02-1.36098E-04 4.27050E-03-4.79794E-14-2.42027E-14
 -1      2517 1.99954E+01 3.26234E-02-2.74145E-05 6.13150E-03 8.54453E-14-7.00010E-14
 -1      2518 1.99947E+01 3.89475E-02 1.70262E-04 8.75858E-03 3.10509E-13-3.26403E-14
 -1      2519 1.99943E+01 3.44108E-02-8.92431E-05-5.39944E-04-1.21402E-13-5.08689E-14
 -1      2520 1.99943E+01 3.43606E-02-8.98300E-05 1.59656E-03-1.87982E-13 1.43773E-13
 -1      2521 1.99929E+01 4.17319E-02 1.90268E-04 3.49673E-03 1.40583E-13 3.07088E-14
 -1      2522 1.99952E+01 3.27157E-02-3.00961E-05-5.17139E-03 4.45846E-14-2.10095E-13
 -1      2523 1.99945E+01 3.36254E-02-1.35427E-04-3.24479E-03-9.40519E-14-5.75419E-14
 -1      2524 1.99927E+01 4.16674E-02 1.86059E-04-2.43253E-03-2.32566E-14 8.51824E-14
 -1      2525 1.99971E+01 2.89151E-02 3.34940E-05-8.58248E-03 2.49438E-13-3.48892E-13
 -1      2526 1.99960E+01 3.05778E-02-1.59404E-04-7.30775E-03 1.78591E-13-2.69022E-13
 -1      2527 1.99943E+01 3.88329E-02 1.63445E-04-7.77469E-03 4.57267E-14-2.35464E-13
 -1      2528 1.99998E+01 2.34401E-02 8.36005E-05-1.01557E-02 1.47421E-13-2.50286E-13
 -1      2529 1.99984E+01 2.56669E-02-1.57411E-04-9.78316E-03 2.25875E-13-5.06856E-13
 -1      2530 1.99971E+01 3.36314E-02 1.16924E-04-1.15038E-02 2.43309E-13-4.59545E-13
 -1      2531 2.00026E+01 1.70881E-02 9.65538E-05-9.49665E-03 1.17485E-13 1.53330E-13
 -1      2532 2.00012E+01 1.95685E-02-1.18668E-04-1.01479E-02 8.05598E-14 1.83479E-13
 -1      2533 2.00007E+01 2.67442E-02 6.64855E-05-1.28898E-02 2.35121E-13-2.85270E-13
 -1      2534 2.00044E+01 1.08355E-02 9.27698E-05-6.88603E-03-1.01868E-13-2.86779E-13
 -1      2535 2.00036E+01 1.31906E-02-6.72807E-05-8.31686E-03-8.84188E-14-6.03796E-14
 -1      2536 2.00040E+01 1.90172E-02-3.81458E-05-1.17237E-02-1.04558E-14-1.35277E-13
 -1      2537 1.74431E+01-5.85120E+00-2.96219E-02 6.47970E+00-6.43929E-14 5.99559E-13
 -1      2538 1.35103E+01-5.47192E+00 3.10281E-02 6.29906E+00-1.25344E-13 5.77996E-13
 -1      2539 2.00034E+01 4.78586E-03 1.25129E-04-2.04071E-03 9.82266E-14 6.91835E-14
 -1      2540 3.58355E+00-2.48430E+00 1.14209E-01-1.99681E+00-1.04555E-13 2.01283E-13
 -1      2541 4.95322E+00-2.97718E+00 6.50621E-02-4.45356E+00 8.08242E-14 2.33147E-13
 -1      2542 1.98367E+01 1.79599E-01 4.88615E-03-5.44661E-02 2.37907E-13 6.64653E-14
 -1      2543 1.98851E+01 2.28076E-01 1.26132E-02 4.71625E-02 2.67778E-13 1.11399E-13
 -1      2544 1.99758E+01 2.36484E-01-4.60184E-03-8.52981E-02 2.57428E-13-5.19851E-14
 -1      2545 4.04830E+00-2.88908E+00 7.75292E-02 2.44922E+00-1.82424E-13 7.27529E-13
 -1      2546 3.28947E+00-2.48948E+00 9.73008E-02 4.17410E-01-3.65845E-13 6.03018E-13
 -1      2547 7.73299E+00-3.71711E+00 1.03340E-01-5.96136E+00 2.47552E-13 4.51750E-13
 -1      2548 1.09849E+01-4.23946E+00 2.79638E-02-7.19997E+00 2.41002E-13 5.06845E-13
 -1      2549 2.05683E+01 1.96280E+00-1.33227E-02-1.83937E+00-5.03379E-13-2.78715E-13
 -1      2550 2.04397E+01 1.22173E+00-8.31124E-03-1.22833E+00-4.68977E-13-2.30315E-13
 -1      2551 2.04147E+01 1.40485E+00 8.44198E-03-1.16556E+00-4.47813E-13-3.05388E-13
 -1      2552 2.03184E+01 2.40975E+00 4.28791E-04-1.77520E+00-4.87522E-13-3.99795E-13
 -1      2553 2.54841E+01-5.55958E+00-7.55120E-02 4.07238E+00 1.25816E-13 1.30035E-13
 -1      2554 2.13009E+01-6.07524E+00-2.37457E-02 5.31281E+00 3.86358E-14 3.82722E-13
 -1      2555 3.12661E+01 2.15555E+00-8.86512E-02 1.64703E-01 5.66214E-15-3.24685E-13
 -1      2556 3.22648E+01 4.38005E+00-1.46911E-01 6.82103E-01-1.54987E-13-2.79443E-13
 -1      2557 4.59431E+00-3.33130E+00 5.88939E-02-3.21108E+00-7.64111E-14-6.22002E-13
 -1      2558 6.89139E+00-4.16332E+00 3.36363E-02-5.05444E+00-8.34333E-14-4.98490E-13
 -1      2559 1.94952E+01 3.66102E+00-1.01480E-02-2.28100E-01 5.94007E-14-7.06778E-13
 -1      2560 1.95146E+01 3.63787E+00-9.42233E-03-3.99630E-01-1.19323E-14-7.03962E-13
 -1      2561 1.96860E+01 3.24987E+00-8.15710E-05-4.37762E-01-3.41082E-14-6.51388E-13
 -1      2562 1.96443E+01 3.31795E+00-3.57751E-04-1.38791E-01 6.83214E-14-6.73482E-13
 -1      2563 3.32433E+01 6.06734E+00-2.03516E-01 1.09546E+00 6.59472E-13-6.05072E-15
 -1      2564 3.41629E+01 6.53246E+00-8.53794E-02-1.20679E-01 8.28226E-13-8.46129E-14
 -1      2565 2.84104E+01-2.60858E+00-9.67883E-02 3.09147E+00-2.41029E-13 1.67255E-13
 -1      2566 2.54558E+01-4.07197E+00 1.20316E-02 4.34289E+00-1.43829E-13 7.89646E-14
 -1      2567 3.51343E+01 6.00769E+00-1.01785E-01-1.28521E+00 7.34357E-13-1.90806E-13
 -1      2568 3.44700E+01 4.61440E+00-8.61047E-02-1.96410E+00 7.66776E-13-1.43496E-13
 -1      2569 3.40843E+01 3.06107E+00-5.89467E-02 2.17542E+00 2.86021E-13-1.13520E-13
 -1      2570 3.39191E+01 4.96851E+00-1.77500E-01 1.92013E+00 4.87610E-13-7.05824E-14
 -1      2571 3.23207E+01-1.49548E+00-1.44099E-02 5.97264E-01 2.15591E-13 5.08482E-14
 -1      2572 3.38711E+01 5.83037E-01-1.60516E-01 1.32065E+00 1.67436E-13-3.93019E-14
 -1      2573 1.73960E+01-5.95947E+00 4.74444E-03-6.17098E+00-5.41234E-14-5.36748E-13
 -1      2574 2.14544E+01-5.90366E+00-4.65427E-02-5.52851E+00-4.74620E-14-3.23824E-13
 -1      2575 1.02644E+01-4.93597E+00 3.49712E-02-5.92715E+00-1.25677E-13-5.48034E-13
 -1      2576 1.38677E+01-5.39671E+00 8.71169E-03-6.63741E+00-2.64788E-14-6.19130E-13
 -1      2577 1.70803E+01-5.17461E+00 1.03860E-01-6.15856E+00-1.81744E-13-5.16462E-13
 -1      2578 3.41560E+00-2.43281E+00 1.07104E-01 1.34736E+00 7.64874E-14-9.09439E-13
 -1      2579 3.61499E+00-2.42630E+00 1.29052E-01-9.26052E-01 2.01228E-14-7.98916E-13
 -1      2580 1.45725E+01-4.98403E+00 4.69359E-02 7.51178E+00 9.55347E-14-2.30038E-13
 -1      2581 1.14839E+01-4.63750E+00 8.51306E-02 7.06912E+00 2.03282E-13-4.71623E-13
 -1      2582 1.51937E+01-5.04511E+00 8.90885E-02-7.18365E+00 2.06168E-13 3.76359E-13
 -1      2583 1.87775E+01-5.25640E+00-3.58305E-02-7.08862E+00 1.73084E-13 2.81795E-13
 -1      2584 2.18803E+01-5.01577E+00-5.34484E-02 6.29891E+00-5.20695E-14 3.01148E-14
 -1      2585 1.79529E+01-5.39588E+00 2.38450E-02 6.87599E+00 3.63876E-14-1.19779E-13
 -1      2586 1.78239E+01-5.07678E+00 7.87811E-02 6.87813E+00 2.55407E-13-6.27970E-14
 -1      2587 3.17257E+01 1.55430E+00-1.34197E-01 4.45248E-01-6.06348E-13 2.62290E-13
 -1      2588 3.01800E+01-3.57513E-01-4.60224E-02 1.23747E+00-3.78732E-13 2.24265E-13
 -1      2589 3.19046E+01 5.96136E+00-2.00083E-01-1.02326E+00-7.63112E-13 1.84935E-13
 -1      2590 3.22376E+01 4.11869E+00-5.45842E-02-4.98910E-01-7.40297E-13 2.91489E-13
 -1      2591 3.04990E+01 2.47571E+00-2.76405E-02-1.09644E+00-5.74790E-13 3.62071E-13
 -1      2592 3.29598E+01 7.87200E+00-8.59171E-02 8.17606E-02-6.58584E-13-5.51642E-14
 -1      2593 3.17550E+01 7.57591E+00-1.78108E-01-3.30478E-01-7.96641E-13-2.98789E-14
 -1      2594 3.21528E+01 6.45006E+00-1.44645E-01 8.04259E-01-3.19411E-13-2.27429E-13
 -1      2595 3.28385E+01 7.37261E+00-1.34695E-01 4.53973E-01-4.55413E-13-1.17364E-13
 -1      2596 3.00607E+01 7.33461E+00-7.51254E-02 5.07326E-01-4.20969E-13-2.14634E-13
 -1      2597 2.87878E+01-2.05494E+00-1.78336E-02-2.02218E+00 1.43160E-13-2.07334E-13
 -1      2598 3.03024E+01-5.02218E-01-1.41299E-01-1.05382E+00 3.99784E-14-3.21437E-13
 -1      2599 2.26841E+01-4.93295E+00 3.22364E-02-5.51247E+00 1.99535E-13 9.05387E-14
 -1      2600 2.65080E+01-3.78908E+00-8.71870E-02-4.15321E+00 1.58290E-13-6.75571E-14
 -1      2601 9.55511E+00-4.37930E+00 3.36932E-02 5.94115E+00-1.51990E-13 5.64299E-13
 -1      2602 6.27159E+00-3.52876E+00 8.39027E-02 4.24175E+00-1.24900E-13 5.20695E-13
 -1      2603 2.05149E+01 8.81466E-01-6.56348E-03 1.17713E+00 5.02964E-13 3.29424E-13
 -1      2604 2.08528E+01 1.25962E+00-5.79205E-03 1.68076E+00 5.43180E-13 3.98336E-13
 -1      2605 2.06646E+01 1.71909E+00-1.57892E-02 1.86970E+00 5.93312E-13 2.09562E-13
 -1      2606 2.04826E+01 1.07094E+00-9.61533E-03 1.17788E+00 5.13611E-13 1.14699E-13
 -1      2607 3.20670E+01-2.13418E+00-8.41235E-02 3.07243E-01 6.24802E-13-2.84994E-13
 -1      2608 2.91452E+01-4.23596E+00-5.63120E-02 1.83601E+00 3.82708E-13-2.04031E-13
 -1      2609 3.18534E+01 5.65066E+00-5.83069E-02-7.85001E-01 7.15483E-13 3.08434E-15
 -1      2610 1.99167E+01 2.86571E+00 1.36726E-03-1.03171E+00-2.55918E-13-6.32217E-13
 -1      2611 1.97905E+01 3.19569E+00-1.64615E-02-1.22645E+00-2.79187E-13-6.73751E-13
 -1      2612 1.98988E+01 3.04574E+00-1.83860E-02-1.41456E+00-3.40139E-13-6.35476E-13
 -1      2613 2.00800E+01 3.78611E-01-4.20359E-03 1.94437E-01 3.20607E-13-6.02426E-15
 -1      2614 2.04473E+01 2.12415E+00-1.26553E-02 1.81767E+00 5.81912E-13-1.04552E-14
 -1      2615 3.19448E+01-1.40051E+00 5.80645E-02-1.68594E+00 5.09641E-13-4.57134E-13
 -1      2616 2.20167E+01-5.11443E+00 8.78454E-02-5.64924E+00 2.69729E-13 6.59472E-14
 -1      2617 3.03587E+01 4.96932E+00-6.40091E-02 1.38838E+00-2.00895E-13-4.39385E-13
 -1      2618 2.79706E+01-5.19782E+00 8.47956E-03 2.27366E+00 8.84015E-14-1.20709E-13
 -1      2619 2.62189E+01-5.30719E+00 1.07083E-01 2.79214E+00-6.61138E-14-1.16247E-13
 -1      2620 2.91147E+01-4.76398E+00-2.13285E-01 5.17904E-01 1.30125E-13-4.80019E-13
 -1      2621 3.06357E+01 6.61247E+00-1.22714E-01-9.82925E-01-6.89920E-13 1.37487E-13
 -1      2622 2.89105E+01 5.39723E+00-1.12652E-01-1.45206E+00-5.40484E-13 3.10044E-13
 -1      2623 2.86441E+01 6.82630E+00-1.62070E-01-8.03323E-01-5.22554E-13-2.23085E-14
 -1      2624 2.43819E+01-4.86200E+00 4.70445E-02 4.69737E+00 9.36473E-14 1.83242E-13
 -1      2625 8.12842E+00-2.30700E+00 1.74241E-01-5.14955E+00 1.65368E-13 3.24907E-13
 -1      2626 1.45194E+01-4.18804E+00 1.33003E-01-6.97948E+00 2.72088E-13 4.45699E-13
 -1      2627 2.81488E+01 2.29748E+00-9.88921E-02 2.85799E+00 2.55823E-13 1.13666E-13
 -1      2628 2.85020E+01 8.26226E-01-1.88465E-01 3.43154E+00 1.57194E-13 2.74489E-13
 -1      2629 3.02366E+01 1.74038E+00-1.06800E-01-3.28176E+00 5.13312E-13-5.73486E-13
 -1      2630 2.00045E+01 4.59608E-03-1.24776E-05 1.88046E-03-7.21500E-14-1.26355E-13
 -1      2631 2.00053E+01 6.33642E-03 2.60894E-05 3.60447E-03-4.09016E-14-7.82926E-14
 -1      2632 2.89773E+01-2.03714E+00 6.67671E-03 1.20498E+00-1.93128E-13 3.54272E-13
 -1      2633 1.32667E+01-4.20448E+00 1.33312E-01 5.97309E+00-2.74558E-13 5.90195E-13
 -1      2634 2.07900E+01-5.72643E+00 9.32880E-02 5.44526E+00-1.04361E-13 3.52346E-13
 -1      2635 2.00054E+01 6.21423E-03 9.09131E-05-4.20059E-03 3.92128E-14 1.82624E-13
 -1      2636 2.00050E+01 8.08664E-03-9.81582E-05-5.57118E-03-3.01389E-14-6.42600E-14
 -1      2637 2.00066E+01 1.27631E-02 9.92249E-05-9.30716E-03-4.46241E-14-4.59198E-14
 -1      2638 2.00076E+01 7.80473E-03 2.24986E-04-6.52594E-03-6.21706E-14 1.56308E-13
 -1      2639 1.04119E+01-3.64984E+00 1.25502E-01-5.55715E+00-1.84242E-13-5.33518E-13
 -1      2640 5.13691E+00-1.40436E+00 1.77484E-01-9.25376E-01-2.34868E-13 3.26628E-13
 -1      2641 2.04641E+01 1.82640E+00 1.24370E-02 1.49692E+00 5.45819E-13-6.40052E-14
 -1      2642 7.19789E+00-2.15246E+00 1.68032E-01 3.54936E+00-2.02810E-13 6.73656E-13
 -1      2643 5.77833E+00-1.85322E+00 1.49121E-01-2.12565E+00-1.10842E-13-6.53977E-13
 -1      2644 3.01296E+01 7.83795E-02-6.92424E-02 3.30548E+00 9.11909E-14 1.24900E-15
 -1      2645 3.07624E+01-3.16211E+00-1.81718E-02-2.73614E-02 1.37626E-13 1.33782E-13
 -1      2646 2.99133E+01 4.86123E-01-2.75012E-02 5.94254E-01 1.24414E-13-4.78367E-13
 -1      2647 3.24841E+01 1.44885E+00-1.98006E-02 2.70723E+00 1.52101E-13-8.15181E-14
 -1      2648 2.01423E+01 2.63252E+00-9.69147E-03-1.61398E+00-4.25510E-13-4.99789E-13
 -1      2649 1.00044E+01-3.84893E+00 8.83085E-02 6.63593E+00 2.27929E-13-6.81261E-13
 -1      2650 8.84331E+00-2.51934E+00 1.93462E-01 5.77979E+00 2.56684E-13-6.54615E-13
 -1      2651 1.29361E+01-3.58572E+00 9.04343E-02 6.71314E+00 3.66027E-13-3.53495E-13
 -1      2652 2.43824E+01-5.75807E+00 6.14325E-02-4.32316E+00-1.64035E-14-7.46209E-14
 -1      2653 2.63139E+01-5.56326E+00-1.25791E-01-2.71003E+00-3.88023E-14 1.70919E-13
 -1      2654 2.27448E+01-5.52050E+00 9.94551E-02-4.73491E+00-1.41137E-13-1.27150E-13
 -1      2655 3.27667E+01 2.95272E+00-2.25468E-02-2.69240E+00 7.28168E-13-1.69337E-13
 -1      2656 3.15245E+01 4.70699E+00-5.16842E-02 1.87138E+00 5.17919E-13 5.82173E-14
 -1      2657 4.82317E+00-2.11203E+00 1.53209E-01 2.63070E+00 1.90126E-13-8.91953E-13
 -1      2658 6.08407E+00-7.95389E-01 1.46672E-01 1.65095E+00 1.23367E-13-7.70800E-13
 -1      2659 6.55116E+00-1.66019E+00 1.30909E-01 4.01282E+00 2.21836E-13-7.75824E-13
 -1      2660 2.74407E+01-3.50601E+00 1.47200E-02-2.39713E+00 2.66898E-13-2.94959E-13
 -1      2661 2.00071E+01 1.07465E-02 8.25316E-05 7.18305E-03-4.81075E-14 5.51973E-14
 -1      2662 2.00089E+01 1.13286E-02-1.86228E-04-1.07997E-02-1.33822E-13 9.92609E-14
 -1      2663 1.98116E+01 2.87014E+00-6.19942E-03 4.71857E-01 2.49067E-13-5.92870E-13
 -1      2664 1.97799E+01 2.92403E+00-6.01185E-03 3.32350E-01 2.09595E-13-6.08710E-13
 -1      2665 1.97583E+01 2.96529E+00-5.69647E-03 2.11591E-01 1.70165E-13-6.25799E-13
 -1      2666 1.97474E+01 2.98327E+00-5.57463E-03 6.97004E-02 1.27830E-13-6.39258E-13
 -1      2667 1.98967E+01 2.63220E+00 4.26034E-03 2.36835E-01 1.84059E-13-5.81132E-13
 -1      2668 2.00508E+01 2.39301E+00-1.03207E-02 9.66749E-01 4.40039E-13-3.81422E-13
 -1      2669 1.99752E+01 2.55060E+00-6.89084E-03 8.36265E-01 3.89067E-13-4.43778E-13
 -1      2670 2.02425E+01 1.95438E+00-1.16149E-02 1.14520E+00 4.98816E-13-2.85073E-13
 -1      2671 2.01415E+01 2.20129E+00-5.36450E-03 1.05196E+00 4.66544E-13-3.31732E-13
 -1      2672 2.01992E+01 1.96218E+00 6.69768E-03 8.35813E-01 4.24869E-13-3.23093E-13
 -1      2673 2.02706E+01 7.68060E-01-2.46696E-03 5.46117E-01 3.90056E-13-9.50967E-14
 -1      2674 2.03984E+01 9.84068E-01 9.15567E-03 8.22129E-01 4.30513E-13-6.48605E-14
 -1      2675 9.29853E+00-1.73215E+00 7.08058E-02 4.36525E+00-2.96679E-13 6.22558E-13
 -1      2676 7.29428E+00-8.92000E-01 1.60062E-01 2.44465E+00-3.23255E-13 7.04437E-13
 -1      2677 2.01538E+01 4.77003E-01-3.43302E-04 1.56832E-01 2.99110E-13-1.02341E-13
 -1      2678 2.02360E+01 6.04429E-01 1.02757E-02 3.37820E-01 3.42001E-13-9.12943E-14
 -1      2679 2.03034E+01 8.80355E-01 2.28433E-04 5.02554E-01 3.77167E-13-1.80044E-13
 -1      2680 2.07515E+01-4.83581E+00 1.43161E-01-5.75033E+00 3.57325E-13 1.23773E-14
 -1      2681 2.36267E+01-5.08534E+00-9.68757E-02-4.56638E+00 3.38979E-13-1.73129E-13
 -1      2682 2.02679E+01 6.82268E-01 7.62767E-03-3.18967E-01-2.74110E-13-3.14046E-13
 -1      2683 2.01994E+01 5.39646E-01-2.23520E-03-1.43710E-01-2.50314E-13-3.01127E-13
 -1      2684 2.01795E+01 4.34137E-01 6.34252E-03-4.43183E-03-2.38358E-13-2.82927E-13
 -1      2685 2.01392E+01 3.48057E-01-7.49240E-04 1.13669E-01-2.05222E-13-3.03838E-13
 -1      2686 2.02446E+01 6.12257E-01-1.83701E-03-1.07645E-01-2.43229E-13-2.99600E-13
 -1      2687 2.01220E+01 2.85316E-01 4.27756E-03 2.13289E-01-1.66463E-13-3.02878E-13
 -1      2688 2.01099E+01 2.33485E-01 2.61787E-04 2.94305E-01-1.32163E-13-2.93604E-13
 -1      2689 2.01924E+01 4.02189E-01-2.42892E-03 1.44268E-01-2.05243E-13-3.04456E-13
 -1      2690 2.01013E+01 1.95357E-01 2.71431E-03 3.66393E-01-1.07482E-13-3.02547E-13
 -1      2691 2.01126E+01 1.63487E-01 8.39804E-04 4.23595E-01-9.87666E-14-3.11690E-13
 -1      2692 2.01587E+01 2.73634E-01-2.36673E-03 3.26309E-01-1.41498E-13-3.31635E-13
 -1      2693 2.01149E+01 1.38873E-01 1.70961E-03 4.77385E-01-1.16196E-13-3.24890E-13
 -1      2694 2.01452E+01 1.17032E-01 1.08536E-03 5.18822E-01-1.11156E-13-3.59842E-13
 -1      2695 2.01484E+01 1.93260E-01-2.15785E-03 4.60419E-01-1.34407E-13-3.52420E-13
 -1      2696 2.01598E+01 9.77592E-02 1.20034E-03 5.60037E-01-9.03621E-14-3.29545E-13
 -1      2697 2.02055E+01 7.79753E-02 1.04035E-03 5.89536E-01-8.87615E-14-3.04667E-13
 -1      2698 2.01632E+01 1.37420E-01-2.02544E-03 5.62148E-01-9.49766E-14-3.51231E-13
 -1      2699 2.02345E+01 5.70615E-02 1.14774E-03 6.20430E-01-8.09653E-14-2.92045E-13
 -1      2700 2.02934E+01 3.21174E-02 6.94088E-04 6.38139E-01-1.00602E-13-2.54990E-13
 -1      2701 2.02047E+01 8.70944E-02-2.07054E-03 6.40118E-01-8.11470E-14-2.68150E-13
 -1      2702 2.03400E+01 3.05731E-03 1.53324E-03 6.57498E-01-1.59462E-13-1.96068E-13
 -1      2703 2.04107E+01-3.38271E-02-1.06646E-07 6.60153E-01-1.74479E-13-1.72872E-13
 -1      2704 2.02768E+01 2.51832E-02-2.34085E-03 6.95991E-01-1.01448E-13-2.46469E-13
 -1      2705 2.04794E+01-7.69401E-02 2.33323E-03 6.63205E-01-1.62489E-13-1.11429E-13
 -1      2706 2.05606E+01-1.31528E-01-1.10511E-03 6.44411E-01-1.17805E-13-1.12567E-13
 -1      2707 2.03860E+01-6.42151E-02-2.84638E-03 7.24364E-01-1.40609E-13-1.57123E-13
 -1      2708 2.06569E+01-1.92922E-01 3.47040E-03 6.22793E-01-1.01740E-13-1.37506E-13
 -1      2709 2.07466E+01-2.68209E-01-2.66513E-03 5.73687E-01-3.93496E-14-1.64832E-13
 -1      2710 2.05410E+01-1.94437E-01-3.53298E-03 7.12585E-01-1.26407E-13-1.11355E-13
 -1      2711 2.08752E+01-3.48087E-01 4.72654E-03 5.15864E-01-2.98910E-14-2.22627E-13
 -1      2712 2.09693E+01-4.41014E-01-4.62684E-03 4.26735E-01-2.83079E-14-2.44086E-13
 -1      2713 2.07515E+01-3.72144E-01-4.21498E-03 6.40936E-01-7.29231E-14-8.11879E-14
 -1      2714 2.11305E+01-5.31717E-01 5.63522E-03 3.19686E-01-4.63019E-14-2.38038E-13
 -1      2715 2.12210E+01-6.28383E-01-6.68077E-03 1.83364E-01-5.53058E-14-2.63261E-13
 -1      2716 2.10233E+01-5.89635E-01-4.47965E-03 4.84271E-01-6.24477E-14-1.77916E-13
 -1      2717 2.14050E+01-7.09685E-01 5.38557E-03 1.70344E-02-9.93410E-14-2.11423E-13
 -1      2718 2.14787E+01-7.80472E-01-7.97377E-03-1.65136E-01-1.27281E-13-2.04213E-13
 -1      2719 2.13504E+01-8.13620E-01-3.62295E-03 2.17389E-01-7.73735E-14-1.36780E-13
 -1      2720 2.16592E+01-8.16364E-01 3.04973E-03-3.88819E-01-1.58017E-13-2.13553E-13
 -1      2721 2.16979E+01-8.15506E-01-7.10341E-03-5.98193E-01-1.59484E-13-2.12408E-13
 -1      2722 2.17035E+01-9.74115E-01-7.56539E-04-1.72285E-01-1.57229E-13-1.11926E-13
 -1      2723 2.18290E+01-7.58871E-01-2.52435E-03-8.51129E-01-9.50170E-14-2.07232E-13
 -1      2724 2.18164E+01-6.35655E-01-2.46844E-03-1.04357E+00-7.21997E-14-1.50453E-13
 -1      2725 2.20192E+01-9.63076E-01 4.34970E-03-6.61050E-01-1.22198E-13-8.83765E-14
 -1      2726 2.18444E+01-4.46558E-01-1.00452E-02-1.25732E+00-6.11538E-14-1.59342E-13
 -1      2727 2.17762E+01-1.79121E-01 5.79205E-03-1.36172E+00-2.76723E-14-7.72421E-14
 -1      2728 2.22050E+01-6.64504E-01 9.73661E-03-1.15731E+00-5.60394E-14-7.97961E-14
 -1      2729 2.16768E+01 1.33546E-01-1.67825E-02-1.43554E+00 1.58500E-14-3.77548E-14
 -1      2730 2.15740E+01 5.00722E-01 1.46720E-02-1.37938E+00 6.14472E-14-7.60088E-14
 -1      2731 2.21810E+01-3.26121E-02 1.12084E-02-1.48534E+00 1.77368E-14-4.09416E-14
 -1      2732 2.13897E+01 8.52372E-01-1.58215E-02-1.21509E+00 4.30011E-14-8.63593E-14
 -1      2733 2.13005E+01 1.17244E+00 1.56832E-02-9.63758E-01 1.45957E-13-1.72172E-13
 -1      2734 2.19474E+01 8.21159E-01 5.00389E-03-1.42464E+00 3.99851E-14-2.94252E-15
 -1      2735 2.11601E+01 1.40048E+00-7.30216E-03-5.80779E-01 1.69082E-13-1.63655E-13
 -1      2736 2.11257E+01 1.52811E+00 6.08436E-03-1.99995E-01 1.15518E-13-2.24169E-13
 -1      2737 2.16701E+01 1.56820E+00-3.48194E-03-8.68351E-01 1.18118E-13-7.21101E-14
 -1      2738 2.11313E+01 1.52151E+00 7.34279E-03 2.78837E-01 1.02856E-13-2.19540E-13
 -1      2739 2.11726E+01 1.37858E+00-7.49133E-03 6.56138E-01 1.62574E-14-1.79903E-13
 -1      2740 2.15481E+01 1.85362E+00-1.01805E-02 4.43818E-02 1.50676E-13-2.50736E-13
 -1      2741 2.13237E+01 1.13594E+00 1.65569E-02 1.02915E+00-8.84228E-14-2.29884E-13
 -1      2742 2.14188E+01 8.07250E-01-1.56707E-02 1.26783E+00-3.59201E-14-2.52457E-13
 -1      2743 2.16878E+01 1.53258E+00-2.31324E-03 9.45707E-01-7.52774E-14-1.17527E-13
 -1      2744 2.15992E+01 4.57540E-01 1.38778E-02 1.41381E+00-6.19903E-15-3.17774E-13
 -1      2745 2.17045E+01 9.88989E-02-1.59189E-02 1.46022E+00 5.19937E-14-4.03999E-13
 -1      2746 2.19744E+01 7.70656E-01 7.28071E-03 1.46863E+00-4.80478E-14-1.07747E-13
 -1      2747 2.17962E+01-2.05424E-01 4.78962E-03 1.37800E+00 1.28471E-13-4.41189E-13
 -1      2748 2.18651E+01-4.60872E-01-9.48725E-03 1.26850E+00 1.67029E-13-4.19220E-13
 -1      2749 2.21954E+01-7.12836E-02 1.01885E-02 1.50159E+00 4.17119E-14-2.25702E-13
 -1      2750 2.18286E+01-6.36705E-01-3.07908E-03 1.05349E+00 7.46272E-14-4.59156E-13
 -1      2751 2.18421E+01-7.46473E-01-1.49759E-03 8.63844E-01-3.41406E-14-4.66018E-13
 -1      2752 2.22070E+01-6.74352E-01 9.10597E-03 1.16451E+00 1.19759E-13-3.27838E-13
 -1      2753 2.17070E+01-7.92612E-01-7.20182E-03 6.18213E-01-1.28528E-14-3.89485E-13
 -1      2754 2.16708E+01-7.83998E-01 3.72459E-03 4.16724E-01 8.95529E-15-3.39502E-13
 -1      2755 2.20114E+01-9.41322E-01 4.20432E-03 6.76244E-01 5.80723E-14-3.94041E-13
 -1      2756 2.14904E+01-7.40959E-01-7.96324E-03 2.04519E-01-4.23604E-14-2.59767E-13
 -1      2757 2.14218E+01-6.64290E-01 5.87440E-03 3.35282E-02-1.53852E-14-1.90757E-13
 -1      2758 2.16940E+01-9.29806E-01-7.81737E-04 2.07618E-01-1.44163E-14-1.03456E-13
 -1      2759 2.12402E+01-5.78920E-01-6.68081E-03-1.19412E-01 1.19368E-13-2.41627E-13
 -1      2760 2.11568E+01-4.79091E-01 5.94592E-03-2.42876E-01 1.54267E-13-4.41409E-14
 -1      2761 2.13449E+01-7.55682E-01-3.62590E-03-1.56377E-01 3.90334E-14-1.41022E-14
 -1      2762 2.09991E+01-3.86425E-01-4.67421E-03-3.35924E-01 1.98599E-15-5.17345E-14
 -1      2763 2.09139E+01-2.92134E-01 4.97089E-03-4.11557E-01 1.10628E-15-6.31136E-14
 -1      2764 2.10246E+01-5.24364E-01-4.39989E-03-3.95444E-01 7.86794E-14-1.24117E-13
 -1      2765 2.07885E+01-2.11759E-01-2.76462E-03-4.55569E-01-1.44253E-14-6.59964E-14
 -1      2766 2.07088E+01-1.36475E-01 3.65756E-03-4.91329E-01-6.96569E-14-9.24852E-14
 -1      2767 2.07602E+01-3.04030E-01-4.03020E-03-5.24197E-01 1.04567E-14-4.87618E-14
 -1      2768 2.06147E+01-7.59212E-02-1.25697E-03-4.99982E-01-1.26749E-13-8.65848E-14
 -1      2769 2.05439E+01-2.28864E-02 2.42045E-03-5.06407E-01-1.62516E-13-1.13028E-13
 -1      2770 2.05557E+01-1.26958E-01-3.24428E-03-5.69246E-01-1.18073E-13-8.42743E-14
 -1      2771 2.04757E+01 1.76061E-02-1.87606E-04-4.92167E-01-1.18388E-13-1.66682E-14
 -1      2772 2.04146E+01 5.05978E-02 1.43509E-03-4.79299E-01-1.22097E-14 3.33475E-14
 -1      2773 2.04039E+01-1.33868E-03-2.42830E-03-5.57381E-01-1.35405E-13-8.46890E-14
 -1      2774 2.03663E+01 7.42459E-02 5.03053E-04-4.52025E-01 2.74254E-14 7.39456E-14
 -1      2775 2.03147E+01 9.15288E-02 7.28970E-04-4.28089E-01 6.00758E-15 1.58278E-13
 -1      2776 2.02939E+01 7.75410E-02-1.74632E-03-5.10898E-01-3.74004E-15 1.25681E-13
 -1      2777 2.02808E+01 1.02588E-01 8.98752E-04-3.94919E-01-2.44710E-14 1.02864E-13
 -1      2778 2.02379E+01 1.08742E-01 2.65422E-04-3.66012E-01-3.59619E-15 9.81657E-14
 -1      2779 2.02148E+01 1.19539E-01-1.23643E-03-4.46542E-01-9.33653E-14-1.86572E-13
 -1      2780 2.02141E+01 1.11241E-01 1.08020E-03-3.31739E-01-6.44358E-14 5.61560E-14
 -1      2781 2.01789E+01 1.10221E-01-1.19135E-05-3.02009E-01-2.16812E-13-2.10645E-14
 -1      2782 2.01581E+01 1.35222E-01-8.78151E-04-3.75979E-01-1.10547E-13-1.95015E-13
 -1      2783 2.01621E+01 1.07446E-01 1.11519E-03-2.69596E-01-2.43560E-13 2.02903E-15
 -1      2784 2.01337E+01 1.02302E-01-1.58232E-04-2.41613E-01-8.96530E-14 5.89664E-14
 -1      2785 2.01171E+01 1.33793E-01-6.34891E-04-3.06763E-01-1.16701E-13-2.26131E-13
 -1      2786 2.01217E+01 9.66887E-02 1.05741E-03-2.12681E-01-5.56632E-14 8.43431E-14
 -1      2787 2.00990E+01 8.95827E-02-2.19031E-04-1.87836E-01-6.80452E-14 2.64684E-14
 -1      2788 2.00872E+01 1.22400E-01-4.71946E-04-2.43338E-01-9.98824E-14-2.29096E-14
 -1      2789 2.00903E+01 8.28010E-02 9.47367E-04-1.63079E-01 4.82666E-14-2.24637E-14
 -1      2790 2.00725E+01 7.51545E-02-2.28332E-04-1.41947E-01 7.09726E-14 9.11239E-14
 -1      2791 2.00650E+01 1.06151E-01-3.61392E-04-1.87924E-01-4.56581E-14-2.12028E-14
 -1      2792 2.00661E+01 6.82616E-02 8.13474E-04-1.21461E-01-2.19193E-14 2.22441E-13
 -1      2793 2.00524E+01 6.09296E-02-2.10729E-04-1.04093E-01-1.42876E-14 7.88643E-14
 -1      2794 2.00484E+01 8.84304E-02-2.83450E-04-1.41249E-01 1.21343E-14-5.23824E-14
 -1      2795 2.00476E+01 5.45335E-02 6.74056E-04-8.76240E-02 8.25458E-14 6.34531E-14
 -1      2796 2.00372E+01 4.79819E-02-1.80236E-04-7.37664E-02 3.57841E-13 3.29637E-14
 -1      2797 2.00359E+01 7.12938E-02-2.26765E-04-1.03111E-01 5.14834E-14 2.83874E-14
 -1      2798 2.00336E+01 4.23929E-02 5.41779E-04-6.08609E-02 4.25286E-13-1.32447E-13
 -1      2799 2.00259E+01 3.67967E-02-1.47718E-04-5.00937E-02 3.82272E-13-1.29890E-13
 -1      2800 2.00263E+01 5.58802E-02-1.81771E-04-7.27861E-02 2.45679E-13-1.93362E-13
 -1      2801 2.00231E+01 3.20833E-02 4.29646E-04-4.02371E-02 2.88377E-13-2.54858E-13
 -1      2802 2.00174E+01 2.74110E-02-1.10906E-04-3.21038E-02 2.14655E-14-3.78243E-13
 -1      2803 2.00189E+01 4.26472E-02-1.37181E-04-4.92609E-02 1.53293E-13-6.80492E-13
 -1      2804 2.00152E+01 2.34385E-02 3.09447E-04-2.48492E-02 1.69462E-14-1.84837E-13
 -1      2805 2.00112E+01 1.97535E-02-2.76851E-05-1.89704E-02 8.25617E-14-2.25241E-13
 -1      2806 2.00131E+01 3.14223E-02-1.49484E-04-3.15011E-02 1.21897E-13-5.94878E-13
 -1      2807 2.00725E+01 2.06677E-01 2.70618E-03-4.71811E-01 1.69651E-13-1.67910E-13
 -1      2808 2.00438E+01 2.16421E-01 2.38897E-03-3.98780E-01 1.86349E-13-1.44611E-13
 -1      2809 9.87434E+00-2.33146E+00 1.47379E-01-4.81932E+00-1.67116E-13-4.49474E-13
 -1      2810 1.28847E+01-3.31821E+00 8.21072E-02-5.82073E+00-2.10720E-13-5.09814E-13
 -1      2811 2.00546E+01 2.36291E-01 1.82608E-03-3.13812E-01 1.95124E-13-1.32751E-13
 -1      2812 2.00570E+01 2.70512E-01 4.64535E-03-2.24577E-01 2.31837E-13-9.77872E-14
 -1      2813 2.01094E+01 2.96148E-01-2.62768E-03-3.57351E-01 2.20390E-13-1.89212E-13
 -1      2814 2.02061E+01 2.53132E-01 4.37919E-03-7.66207E-01 5.61810E-14-1.55823E-13
 -1      2815 2.01310E+01 2.29131E-01-6.73457E-04-6.90594E-01 8.04682E-14-1.73465E-13
 -1      2816 2.03072E+01 3.17184E-01 5.27419E-03-9.39465E-01 5.56455E-14-1.97411E-13
 -1      2817 2.02132E+01 2.80252E-01-1.86925E-03-8.49975E-01 7.38789E-14-1.90646E-13
 -1      2818 2.01311E+01 3.39214E-01-2.66122E-04-8.47803E-01 7.29534E-14-1.99194E-13
 -1      2819 2.04223E+01 4.01445E-01 6.19561E-03-1.14856E+00 1.35931E-14-1.52666E-13
 -1      2820 2.03108E+01 3.54666E-01-2.99683E-03-1.03933E+00 2.27687E-14-1.70634E-13
 -1      2821 2.01541E+01 4.23914E-01 7.22805E-04-1.03539E+00 6.70506E-14-2.09729E-13
 -1      2822 2.05459E+01 4.95309E-01 7.08717E-03-1.40235E+00-3.03837E-14-1.04929E-13
 -1      2823 2.04172E+01 4.45077E-01-4.06327E-03-1.27017E+00 7.98065E-15-1.26282E-13
 -1      2824 2.01680E+01 5.31037E-01 1.83393E-03-1.25887E+00-1.12685E-14-1.25390E-13
 -1      2825 2.06762E+01 5.75524E-01 7.89271E-03-1.70323E+00 8.89696E-15-3.56856E-14
 -1      2826 2.05282E+01 5.35846E-01-4.90291E-03-1.54951E+00-1.47321E-15-4.57493E-14
 -1      2827 2.01622E+01 6.44484E-01 2.88630E-03-1.52739E+00-4.22029E-14-5.27391E-14
 -1      2828 2.08230E+01 5.93939E-01 8.63317E-03-2.04251E+00-6.52635E-14-3.99843E-14
 -1      2829 2.06478E+01 5.93356E-01-5.00545E-03-1.87708E+00-1.55070E-14-6.15154E-14
 -1      2830 2.01313E+01 7.30400E-01 3.29858E-03-1.84613E+00-2.27822E-14 3.21110E-14
 -1      2831 2.10267E+01 4.60047E-01 9.35116E-03-2.39266E+00-3.99053E-14-4.90682E-14
 -1      2832 2.08015E+01 5.51203E-01-3.14842E-03-2.23964E+00-6.17746E-14-2.28825E-14
 -1      2833 2.00867E+01 7.21692E-01 1.73298E-03-2.21523E+00-4.53616E-14-3.11319E-14
 -1      2834 2.13908E+01 2.55089E-02 1.00601E-02-2.69358E+00-6.17358E-14-7.84633E-14
 -1      2835 2.10642E+01 2.94362E-01 3.87139E-03-2.60048E+00-1.16872E-15-4.72343E-14
 -1      2836 2.00807E+01 4.97214E-01-4.36133E-03-2.62678E+00-3.77847E-14-4.26295E-14
 -1      2837 2.21737E+01-9.56480E-01 1.19263E-02-2.82025E+00-1.17100E-13-8.11122E-14
 -1      2838 2.16270E+01-3.78877E-01 2.21624E-02-2.88154E+00-9.99845E-14-1.05610E-13
 -1      2839 2.02623E+01-1.57979E-01-1.87461E-02-3.06727E+00-7.31980E-14-8.41193E-14
 -1      2840 2.36256E+01-2.51019E+00 1.51247E-02-2.53785E+00-1.80030E-13-8.00501E-14
 -1      2841 2.28228E+01-1.60149E+00 6.93357E-02-2.86733E+00-1.29965E-13-2.31753E-14
 -1      2842 2.09688E+01-1.46073E+00-3.10383E-02-3.43016E+00-1.46206E-13-1.17113E-13
 -1      2843 2.65926E+01-4.46901E+00-2.33849E-02-1.41109E+00-5.95947E-14-4.86555E-14
 -1      2844 2.53267E+01-3.96816E+00 5.09475E-02-2.22799E+00-1.41765E-13-4.33265E-14
 -1      2845 3.03858E+01 4.89675E+00-1.56154E-01-1.06005E+00 6.21447E-13-1.77740E-13
 -1      2846 2.83919E+01-3.93769E+00-4.11292E-03-2.72993E-01 4.70162E-14-4.88401E-13
 -1      2847 2.97461E+01-2.89309E+00-2.24261E-02-1.28896E+00 1.72109E-13-6.33021E-13
 -1      2848 2.22621E+01-7.65131E-01 4.01999E-02 2.81167E+00-4.47838E-13-9.01692E-14
 -1      2849 2.29611E+01-1.44071E+00 2.27497E-02 2.60302E+00-5.06477E-13-1.50205E-13
 -1      2850 2.14833E+01 7.53364E-02 8.40838E-03 2.63759E+00-3.86218E-13 1.18612E-16
 -1      2851 2.18805E+01-2.88932E-01 9.84764E-03 2.66991E+00-3.74924E-13 5.19237E-14
 -1      2852 2.07093E+01-5.75050E-01-2.31157E-02 3.12696E+00-5.08059E-13-1.11213E-14
 -1      2853 2.10897E+01 4.93166E-01-2.45166E-04 2.28334E+00-8.21617E-14-1.30539E-13
 -1      2854 2.13616E+01 3.32496E-01 7.90676E-03 2.42928E+00-1.66302E-13-1.07787E-14
 -1      2855 2.03279E+01 2.97642E-01-1.13152E-02 2.71641E+00-2.43733E-13-6.14537E-14
 -1      2856 2.08906E+01 6.03772E-01-3.56694E-03 1.90080E+00-2.21702E-13-1.91382E-13
 -1      2857 2.10831E+01 5.73764E-01 8.30007E-03 2.07280E+00-2.05131E-13-2.14005E-13
 -1      2858 2.02493E+01 6.79275E-01-1.12554E-03 2.27573E+00-7.92482E-14-7.41380E-14
 -1      2859 2.07527E+01 5.79485E-01-4.04010E-03 1.53781E+00-7.68929E-14-2.38339E-13
 -1      2860 2.09079E+01 6.05134E-01 7.87632E-03 1.70738E+00-1.08799E-13-2.08337E-13
 -1      2861 2.02663E+01 7.60984E-01 2.43064E-03 1.86981E+00-1.75401E-13-2.30927E-13
 -1      2862 2.06363E+01 5.00511E-01-3.54444E-03 1.21818E+00 2.63669E-13-3.08092E-13
 -1      2863 2.07667E+01 5.46251E-01 7.23953E-03 1.36918E+00 9.60055E-14-2.83758E-13
 -1      2864 2.02896E+01 7.07545E-01 2.89002E-03 1.50834E+00 5.01503E-14-2.65578E-13
 -1      2865 2.05294E+01 4.08970E-01-2.79528E-03 9.49206E-01 4.83363E-14-1.76396E-13
 -1      2866 2.06396E+01 4.57272E-01 6.39216E-03 1.07624E+00 1.76821E-13-2.21774E-13
 -1      2867 2.02939E+01 6.03237E-01 2.23649E-03 1.19750E+00 1.60289E-13-2.42235E-13
 -1      2868 2.04311E+01 3.23614E-01-2.07419E-03 7.29582E-01 3.78075E-14-5.82424E-14
 -1      2869 2.05231E+01 3.67069E-01 5.44990E-03 8.32751E-01 7.37867E-14-1.24963E-13
 -1      2870 2.02781E+01 4.90334E-01 1.37693E-03 9.37335E-01-2.58925E-14-2.00680E-13
 -1      2871 2.03433E+01 2.51073E-01-1.47830E-03 5.53974E-01-2.28791E-14 1.20856E-14
 -1      2872 2.04187E+01 2.87369E-01 4.51624E-03 6.35851E-01-2.68224E-14-3.86515E-14
 -1      2873 2.02483E+01 3.87353E-01 6.55098E-04 7.24289E-01 2.53568E-14 3.30451E-16
 -1      2874 2.02674E+01 1.92293E-01-1.02344E-03 4.15693E-01 2.63207E-14 3.06420E-14
 -1      2875 2.03281E+01 2.21432E-01 3.66041E-03 4.79646E-01-4.83742E-14-3.33387E-15
 -1      2876 2.02118E+01 3.00522E-01 1.51463E-04 5.52849E-01-5.08009E-14 7.41907E-14
 -1      2877 2.02039E+01 1.45910E-01-6.92527E-04 3.08087E-01 8.33116E-14 1.26822E-13
 -1      2878 2.02518E+01 1.68783E-01 2.91557E-03 3.57455E-01 3.44145E-14 4.68236E-14
 -1      2879 2.01741E+01 2.30318E-01-1.55118E-04 4.16832E-01-1.57676E-14-3.30209E-14
 -1      2880 2.01522E+01 1.09874E-01-4.59321E-04 2.25178E-01 1.60738E-13 2.12661E-13
 -1      2881 2.01893E+01 1.27586E-01 2.28943E-03 2.62924E-01 1.64157E-13 1.54822E-13
 -1      2882 2.01387E+01 1.74908E-01-3.14495E-04 3.10198E-01 6.81354E-14 4.25418E-14
 -1      2883 2.01112E+01 8.21469E-02-2.98709E-04 1.61871E-01 8.47194E-14 3.69672E-13
 -1      2884 2.01395E+01 9.57444E-02 1.77566E-03 1.90484E-01 1.35822E-13 2.69565E-13
 -1      2885 2.01075E+01 1.31803E-01-3.76054E-04 2.27478E-01 1.34348E-13 2.48261E-13
 -1      2886 2.00795E+01 6.09555E-02-1.90267E-04 1.13960E-01-2.03743E-14 3.31408E-13
 -1      2887 2.01006E+01 7.13289E-02 1.36172E-03 1.35464E-01 3.84299E-14 2.72922E-13
 -1      2888 2.00813E+01 9.85856E-02-3.77613E-04 1.63944E-01 1.69408E-14 3.24555E-13
 -1      2889 2.00554E+01 4.48414E-02-1.19011E-04 7.80477E-02 6.98514E-15 3.25249E-13
 -1      2890 2.00709E+01 5.27163E-02 1.03272E-03 9.40583E-02 2.40811E-15 4.12945E-13
 -1      2891 2.00600E+01 7.31552E-02-3.45635E-04 1.15629E-01-7.29056E-14 3.54014E-13
 -1      2892 2.00375E+01 3.26378E-02-7.54998E-05 5.14339E-02 2.27457E-13 3.69879E-13
 -1      2893 2.00486E+01 3.85920E-02 7.72736E-04 6.32184E-02 1.15040E-13 3.02885E-13
 -1      2894 2.00432E+01 5.37890E-02-2.95714E-04 7.92861E-02 8.34680E-14 4.91703E-13
 -1      2895 2.00246E+01 2.34459E-02-3.74078E-05 3.20060E-02 2.25714E-14 5.73346E-13
 -1      2896 2.00323E+01 2.79202E-02 5.68023E-04 4.05438E-02 1.95411E-13 5.84575E-13
 -1      2897 2.00303E+01 3.90990E-02-2.40762E-04 5.23077E-02 1.21060E-13 4.59470E-13
 -1      2898 2.00155E+01 1.65393E-02 8.10374E-05 1.81877E-02-1.53491E-13 3.82285E-13
 -1      2899 2.00206E+01 1.97740E-02 4.01163E-04 2.40990E-02-2.95186E-14 4.46316E-13
 -1      2900 2.00204E+01 2.80072E-02-1.86083E-04 3.25995E-02 1.38974E-13 5.27225E-13
 -1      2901 2.00093E+01 1.25206E-02 8.19081E-05 1.01208E-02-1.42668E-13 9.42878E-14
 -1      2902 2.00127E+01 1.52312E-02 2.58892E-04 1.42677E-02-1.73403E-13 1.01906E-13
 -1      2903 2.00132E+01 2.09699E-02-2.68267E-04 2.02367E-02 2.69175E-14 2.89269E-13
 -1      2904 2.00083E+01 1.67074E-02-2.04699E-04 1.29262E-02 2.08238E-14 1.56581E-13
 -1      2905 1.99889E+01 5.01882E-02-1.33336E-04 2.56283E-03 1.77636E-13-8.38953E-14
 -1      2906 1.99896E+01 4.95749E-02-6.46239E-05 5.76353E-03 3.33789E-13-2.52459E-13
 -1      2907 2.00100E+01 1.73782E-02 2.22012E-04-1.53006E-02 5.63425E-14-2.50038E-13
 -1      2908 2.00079E+01 1.51002E-02 1.98097E-05-1.23163E-02 3.51750E-14-4.45839E-14
 -1      2909 2.00092E+01 2.32943E-02-1.64319E-04-2.02144E-02 4.61147E-14-4.10992E-13
 -1      2910 1.99949E+01 4.20652E-02-2.24759E-04 1.47760E-02 3.03650E-13 5.50285E-14
 -1      2911 1.99975E+01 3.92629E-02 8.42717E-05 1.61443E-02 3.35881E-13-1.52763E-13
 -1      2912 1.99894E+01 4.93792E-02-5.95148E-05-4.84761E-03 5.77578E-14-4.18473E-15
 -1      2913 1.99888E+01 5.00466E-02-1.36785E-04-1.62648E-03 3.74720E-14 1.23071E-13
 -1      2914 1.99862E+01 5.95386E-02 2.55310E-04 3.92412E-04 1.63480E-13-1.55227E-13
 -1      2915 1.99908E+01 4.76506E-02-1.93212E-04 9.55721E-03 2.07295E-13-1.34763E-13
 -1      2916 1.99927E+01 4.58314E-02 1.57215E-05 1.21009E-02 2.35048E-13 8.47246E-14
 -1      2917 1.99922E+01 5.24662E-02 2.12889E-04 1.61498E-02 1.31865E-13-5.07630E-15
 -1      2918 1.99879E+01 5.78732E-02 2.48648E-04 9.05971E-03 2.99064E-13-2.21438E-13
 -1      2919 2.00798E+01 3.17292E-01 8.15321E-04-1.15839E-01 2.49868E-13-1.09554E-13
 -1      2920 2.01200E+01 3.87437E-01 7.47653E-03 6.83685E-03 2.61668E-13-9.19589E-14
 -1      2921 2.02140E+01 5.63132E-01-2.37457E-03 1.24673E-01 2.94725E-13-1.78127E-13
 -1      2922 2.01470E+01 3.84712E-01-3.06423E-03-1.50589E-01 2.49850E-13-1.61864E-13
 -1      2923 1.99921E+01 4.54815E-02 2.03040E-05-1.11741E-02 2.04686E-14-2.41050E-13
 -1      2924 1.99904E+01 4.72706E-02-1.89717E-04-8.59665E-03-6.70005E-15-1.44789E-13
 -1      2925 1.99875E+01 5.73520E-02 2.36473E-04-8.20402E-03 6.56611E-14-1.13360E-13
 -1      2926 1.99965E+01 3.88640E-02 7.79577E-05-1.54584E-02 1.97317E-13-4.69424E-13
 -1      2927 1.99941E+01 4.16442E-02-2.15329E-04-1.39351E-02 1.37337E-13-2.65292E-13
 -1      2928 1.99914E+01 5.16547E-02 1.86553E-04-1.52833E-02 9.39180E-14-1.71105E-13
 -1      2929 2.00015E+01 3.02697E-02 2.67853E-05-1.67708E-02 2.75096E-13-1.57185E-13
 -1      2930 1.99991E+01 3.38309E-02-1.95969E-04-1.67269E-02 3.23807E-13-3.36434E-13
 -1      2931 1.99971E+01 4.31849E-02 1.27892E-04-1.96797E-02 2.61607E-13-2.65340E-13
 -1      2932 2.03472E+01 1.73801E+00-9.69918E-03-1.25726E+00-4.17716E-13-3.92628E-13
 -1      2933 2.03220E+01 1.36208E+00-6.32140E-03-9.52721E-01-3.94605E-13-3.58471E-13
 -1      2934 2.03736E+01 1.52555E+00-1.46182E-03 1.19397E+00 5.04896E-13-1.05793E-13
 -1      2935 2.28531E+01-5.44911E+00-2.23996E-02 4.56772E+00-2.43888E-13 1.63758E-13
 -1      2936 1.96897E+01-4.81903E+00 1.26102E-01 5.34627E+00-3.46903E-13 3.45578E-13
 -1      2937 6.29363E+00-5.44454E-01 1.52226E-01 4.70593E-01-2.05315E-13 4.19387E-13
 -1      2938 6.46971E+00-5.81910E-01 1.17658E-01-2.05851E+00-4.26187E-14-6.74183E-14
 -1      2939 1.35247E+01-3.15164E+00 1.75434E-01-6.51649E+00 2.87742E-13 4.86555E-13
 -1      2940 1.68243E+01-4.40534E+00-4.00792E-02-6.79795E+00 2.92294E-13 2.99927E-13
 -1      2941 2.70832E+01-4.08268E+00-2.56210E-02 9.69643E-01-2.02942E-13-3.54713E-13
 -1      2942 2.86112E+01-1.50220E+00-1.76583E-01-4.65744E-02-2.00777E-13 4.46948E-13
 -1      2943 2.76783E+01-3.09031E+00 5.15604E-02 1.30961E+00-5.44929E-14 3.81611E-13
 -1      2944 2.01255E+01 2.14722E-01 3.53166E-03-6.15797E-01 1.25261E-13-1.93296E-13
 -1      2945 2.00717E+01 2.05963E-01 6.89428E-04-5.46331E-01 1.62623E-13-1.86256E-13
 -1      2946 2.00994E+01 2.67916E-01-1.91629E-03-5.26683E-01 1.75247E-13-1.88195E-13
 -1      2947 2.01095E+01 2.85124E-01-1.13007E-03-6.83547E-01 1.02922E-13-1.83167E-13
 -1      2948 2.03560E+01 1.07644E+00 4.94709E-03-7.41027E-01-3.55797E-13-3.40377E-13
 -1      2949 2.02732E+01 8.47462E-01-4.39761E-03-4.88408E-01-3.10424E-13-3.31658E-13
 -1      2950 2.02978E+01 9.43237E-01 1.63442E-03-4.34058E-01-3.01897E-13-3.44631E-13
 -1      2951 2.03075E+01 1.43456E+00 1.64151E-03-8.25060E-01-3.56184E-13-3.97854E-13
 -1      2952 1.62671E+01-4.20594E+00 2.74948E-02 6.03128E+00-3.35565E-13 5.66561E-13
 -1      2953 1.28492E+01-2.79000E+00 1.70482E-01 5.42537E+00-4.06189E-13 5.83034E-13
 -1      2954 1.87763E+01-3.88621E+00 3.32198E-02 5.15224E+00-4.47795E-13 3.64583E-13
 -1      2955 2.00066E+01 1.79529E-02-1.70875E-05-1.34048E-02 2.10833E-14-2.22265E-13
 -1      2956 1.99087E+01 2.68580E+00-7.63364E-03 7.28820E-01 3.56569E-13-5.01499E-13
 -1      2957 1.98548E+01 2.78473E+00-6.58425E-03 5.88799E-01 2.89028E-13-5.46289E-13
 -1      2958 1.99606E+01 2.50816E+00 4.89680E-03 4.59893E-01 2.51285E-13-5.30706E-13
 -1      2959 2.00645E+01 2.29105E+00 6.08016E-03 6.66951E-01 3.33451E-13-4.39190E-13
 -1      2960 1.98497E+01 2.78681E+00-6.39752E-03-5.77537E-01-9.96369E-14-6.14758E-13
 -1      2961 1.99022E+01 2.69005E+00-7.22705E-03-7.18563E-01-1.64940E-13-6.15678E-13
 -1      2962 8.14348E+00-1.03366E+00 1.86440E-01-4.03873E+00 2.00326E-14 8.84293E-14
 -1      2963 1.02449E+01-2.03287E+00 4.86681E-02-5.72306E+00 1.49075E-13 4.29934E-13
 -1      2964 2.01058E+01 2.55744E+00-2.32914E-03-1.38792E+00-3.71047E-13-5.19168E-13
 -1      2965 2.84560E+01-7.71018E-01-5.25018E-03 7.01754E-01 1.39930E-13-4.30989E-13
 -1      2966 2.87185E+01 1.18036E+00-2.00756E-01 1.46843E+00 1.38778E-16-4.44283E-13
 -1      2967 1.55236E+01-4.10683E+00 1.41648E-01-5.97469E+00-2.63761E-13-4.44506E-13
 -1      2968 1.84828E+01-4.80433E+00 5.63232E-02-5.72968E+00-2.98594E-13-3.04146E-13
 -1      2969 1.48268E+01-2.99385E+00 1.42071E-01-5.47535E+00-2.78860E-13-4.22218E-13
 -1      2970 2.60367E+01-4.22260E+00 6.50632E-02-2.64051E+00 3.24536E-13-2.48093E-13
 -1      2971 2.73876E+01-3.16907E+00-1.67331E-01-1.04674E+00 2.40329E-13-3.68261E-13
 -1      2972 2.85095E+01 3.48973E+00-1.00923E-01 1.89671E+00-8.14071E-14-4.46504E-13
 -1      2973 2.81602E+01 5.16857E+00-2.04835E-01 1.59254E+00-1.72418E-13-4.10991E-13
 -1      2974 1.99636E+01-5.10185E+00-7.89214E-03 6.29015E+00 2.40641E-13 8.47378E-14
 -1      2975 1.70564E+01-4.44188E+00 1.00752E-01 6.64825E+00 3.29001E-13-7.63486E-14
 -1      2976 2.55293E+01-4.73700E+00-1.37306E-01 3.44600E+00 1.14270E-13 2.30954E-13
 -1      2977 2.29419E+01-5.07493E+00 9.50620E-02 4.97973E+00 2.12386E-13 1.79662E-13
 -1      2978 2.87973E+01 2.87579E+00-2.08458E-01-1.73222E+00-5.12007E-13 5.30118E-13
 -1      2979 2.90951E+01 8.47225E-01-5.46618E-02-1.29673E+00-3.52232E-13 5.13700E-13
 -1      2980 2.81169E+01 6.46484E+00-1.57653E-01 9.77196E-01-3.35676E-13-3.25837E-13
 -1      2981 2.80682E+01 6.79054E+00-1.99214E-01 1.68909E-01-4.26603E-13-2.69346E-13
 -1      2982 6.65103E+00-6.47962E-01 1.55020E-01-1.20685E+00-5.90951E-14-6.29913E-13
 -1      2983 7.79173E+00-1.44147E+00 1.57034E-01-3.51705E+00-1.45273E-13-5.30881E-13
 -1      2984 1.99665E+01 2.56002E+00-5.90320E-03-8.29064E-01-2.05969E-13-5.97157E-13
 -1      2985 2.00379E+01 2.42208E+00-6.38299E-03-9.58691E-01-2.73933E-13-5.82907E-13
 -1      2986 2.00569E+01 2.29528E+00 6.14244E-03-6.61471E-01-1.61965E-13-5.51933E-13
 -1      2987 1.98750E+01 2.67189E+00 4.02008E-03 7.67166E-03 9.31066E-14-6.03155E-13
 -1      2988 1.97468E+01 2.98277E+00-5.71568E-03-5.21597E-02 8.12835E-14-6.36859E-13
 -1      2989 1.97569E+01 2.96596E+00-5.50284E-03-1.94441E-01 3.73726E-14-6.30245E-13
 -1      2990 2.47031E+01-4.41474E+00 3.65620E-02-3.08942E+00 3.99250E-13-3.63709E-13
 -1      2991 8.54143E+00-4.33353E-02 1.98062E-01 1.34487E+00-2.24161E-13 5.11535E-13
 -1      2992 1.94704E+01-4.20627E+00 9.97820E-02-5.71400E+00 4.42035E-13-8.70831E-15
 -1      2993 2.71744E+01 6.20633E+00-1.24704E-01-3.29811E-01-3.54855E-13-1.78251E-13
 -1      2994 1.99983E+01 4.39906E-02 1.31757E-04 2.03439E-02 2.31500E-13-2.32161E-14
 -1      2995 2.00001E+01 3.41906E-02-2.16126E-04 1.71860E-02 2.44911E-13-2.17263E-13
 -1      2996 2.00029E+01 3.07305E-02 1.12077E-04 1.70963E-02 1.07145E-13 1.52122E-13
 -1      2997 2.72366E+01-2.08288E+00-4.03001E-02 1.53374E-01 2.03364E-13-3.33955E-13
 -1      2998 3.04114E+01 3.86237E+00-1.42571E-01 2.30819E+00 4.67432E-13 1.49714E-13
 -1      2999 2.29274E+01-3.92050E+00-3.78053E-03-3.53898E+00-1.81168E-13-1.03376E-13
 -1      3000 2.93160E+01-3.30346E+00-4.94123E-02 1.00071E+00 1.01544E-13 4.76702E-14
 -1      3001 2.82279E+01-4.10435E+00-3.39935E-02-6.00297E-02 3.02119E-14-1.04430E-14
 -1      3002 2.63026E+01-3.89161E+00-2.93616E-03 1.97645E+00 1.00919E-13 2.95874E-13
 -1      3003 3.11909E+01-3.50936E-01-2.63457E-01-3.08643E+00 5.08704E-13-5.87530E-13
 -1      3004 3.13921E+01 2.46652E+00-7.70232E-02-2.82999E+00 6.08319E-13-3.90354E-13
 -1      3005 2.13431E+01-2.76194E+00 1.37512E-02 3.83049E+00-4.80088E-13-9.34808E-14
 -1      3006 2.34647E+01-3.02586E+00 3.08424E-02 2.92634E+00-4.33337E-13-2.15738E-13
 -1      3007 2.00049E+01 2.55560E-02-1.90198E-04 1.63494E-02 8.13759E-14 5.57703E-13
 -1      3008 2.00071E+01 2.18901E-02 1.12961E-04 1.49444E-02 7.02086E-14 4.05475E-13
 -1      3009 2.00093E+01 2.44983E-02 1.96724E-04 1.83090E-02 5.58224E-14 3.00021E-13
 -1      3010 2.00045E+01 3.41816E-02 1.25244E-04 2.08816E-02 1.00831E-13 3.35682E-13
 -1      3011 1.32118E+01-2.07462E+00 1.66469E-01-5.66372E+00 2.04878E-13 4.25895E-13
 -1      3012 1.26516E+01-1.63807E+00 1.75231E-01 4.53091E+00-3.99999E-13 5.83852E-13
 -1      3013 2.74095E+01 1.92432E+00-7.79826E-02 1.91194E+00 9.71445E-16-4.06855E-13
 -1      3014 2.00053E+01 2.20886E-02 7.93786E-05-1.47740E-02 4.26986E-14-2.16294E-13
 -1      3015 7.02170E+00-2.22862E-01 2.24916E-01 4.76094E-02 1.78269E-14-6.42930E-13
 -1      3016 8.43787E+00 2.66255E-02 1.23179E-01-1.24196E+00-5.45189E-14-5.19390E-13
 -1      3017 7.78161E+00-6.97939E-02 1.35280E-01 1.30409E+00 9.62958E-14-6.27109E-13
 -1      3018 2.81330E+01 3.89579E+00-1.16574E-01-1.83264E+00-4.12739E-13 4.06744E-13
 -1      3019 2.71301E+01 2.34960E+00-8.75197E-02-1.89928E+00-2.43056E-13 5.15244E-13
 -1      3020 2.68283E+01 4.72577E+00-1.14657E-01-1.73406E+00-3.60226E-13 2.62484E-13
 -1      3021 2.67925E+01 5.04944E+00-1.04883E-01 1.41349E+00-1.91014E-13-4.95479E-13
 -1      3022 3.09122E+01-1.68844E+00 5.03149E-02-2.05433E+00 3.76352E-13-5.61828E-13
 -1      3023 2.03234E+01 1.62610E+00-1.69302E-03 1.08091E+00 4.84850E-13-2.11331E-13
 -1      3024 2.50666E+01-5.05420E+00 4.54968E-02 2.88606E+00-2.72379E-13-2.20580E-13
 -1      3025 8.94478E+00-2.00410E-01 1.87485E-01-2.78693E+00-4.74967E-14-3.10862E-14
 -1      3026 1.04638E+01-1.19808E+00 1.80126E-01-3.91161E+00-1.21007E-13-5.19973E-13
 -1      3027 2.01623E+01 2.21660E+00 6.06976E-04-1.12994E+00-3.28602E-13-5.22197E-13
 -1      3028 3.13526E+01 9.52570E-01-4.73309E-02 2.92012E+00 1.48243E-13 2.05391E-15
 -1      3029 3.10285E+01-1.71816E+00-1.44585E-01 2.40731E+00 8.44706E-14-8.13238E-15
 -1      3030 1.54463E+01-3.79217E+00 9.64491E-02 6.69049E+00 3.22908E-13-1.17892E-13
 -1      3031 1.37514E+01-2.73325E+00 1.16402E-01 6.20316E+00 2.99191E-13-3.15512E-13
 -1      3032 1.76844E+01-3.77771E+00 8.24451E-02 6.02121E+00 3.30888E-13-2.69090E-14
 -1      3033 2.45434E+01-3.84764E+00 1.96039E-02 2.42457E+00-3.63581E-13-3.38174E-13
 -1      3034 1.97772E+01 2.92448E+00-6.02130E-03-3.15787E-01-2.46141E-16-6.01924E-13
 -1      3035 1.98081E+01 2.87118E+00-5.96380E-03-4.58603E-01-6.06732E-14-6.05183E-13
 -1      3036 1.99568E+01 2.50727E+00 4.64961E-03-4.48411E-01-8.27783E-14-5.71152E-13
 -1      3037 1.98954E+01 2.63071E+00 4.12438E-03-2.22300E-01 4.87814E-15-5.85799E-13
 -1      3038 2.79895E+01-5.81121E-01-4.25207E-02-1.03336E+00-1.40027E-13 5.91666E-13
 -1      3039 2.20043E+01-4.82276E+00 6.54289E-02 5.04299E+00 2.69687E-13 1.92731E-13
 -1      3040 2.00066E+01 2.66077E-02-7.48503E-05-1.99031E-02-1.30945E-13-5.29471E-13
 -1      3041 2.00036E+01 2.78817E-02-8.10485E-05-1.78691E-02 1.40228E-13-3.03390E-13
 -1      3042 2.00031E+01 3.59043E-02 1.99152E-04-2.21718E-02 1.40744E-13-3.95309E-13
 -1      3043 2.00085E+01 3.03732E-02 2.75785E-04-2.39774E-02-6.90993E-15-5.61030E-13
 -1      3044 9.18778E+00-1.60131E+00 1.59258E-01 4.70649E+00 2.59570E-13-7.09321E-13
 -1      3045 3.05210E+01-3.07673E+00-7.05566E-02 7.81850E-01 1.34396E-13 1.68088E-13
 -1      3046 2.03123E+01 1.42203E+00 2.53070E-03 8.23205E-01 4.30704E-13-2.42430E-13
 -1      3047 2.02539E+01 1.56451E+00-5.91161E-03 6.97851E-01 4.03867E-13-2.84514E-13
 -1      3048 2.01999E+01 1.76504E+00-1.00741E-03 6.44558E-01 3.63387E-13-3.23774E-13
 -1      3049 2.68306E+01 6.81084E-02-1.32306E-01-1.64679E+00-2.20240E-13 5.80445E-13
 -1      3050 2.70330E+01-1.56721E+00 2.75816E-02-8.04255E-01-7.57658E-14 5.28980E-13
 -1      3051 2.02498E+01 5.43319E-01 3.51655E-03 7.06912E-02-2.00252E-13-3.00610E-13
 -1      3052 2.02216E+01 4.47958E-01-1.38753E-03 1.80882E-01-1.85488E-13-3.02098E-13
 -1      3053 2.02060E+01 3.75165E-01 2.62591E-03 2.71389E-01-1.69772E-13-3.12281E-13
 -1      3054 2.01903E+01 3.15141E-01-2.89417E-04 3.52269E-01-1.53764E-13-3.47946E-13
 -1      3055 2.02381E+01 4.94041E-01-1.03263E-03 2.09274E-01-1.97613E-13-3.35026E-13
 -1      3056 2.01742E+01 2.68992E-01 1.76867E-03 4.22484E-01-1.36560E-13-3.25274E-13
 -1      3057 2.01722E+01 2.30125E-01 4.69264E-04 4.83475E-01-1.10654E-13-3.43402E-13
 -1      3058 2.01988E+01 3.53306E-01-1.28599E-03 3.76226E-01-1.45215E-13-3.42695E-13
 -1      3059 2.01609E+01 1.98279E-01 1.21241E-03 5.40257E-01-6.71591E-14-3.37829E-13
 -1      3060 2.01729E+01 1.69008E-01 9.44817E-04 5.87565E-01-5.33033E-14-2.84118E-13
 -1      3061 2.01668E+01 2.60846E-01-1.48267E-03 5.08826E-01-8.28820E-14-3.15218E-13
 -1      3062 2.01711E+01 1.41068E-01 1.04766E-03 6.35394E-01-6.68342E-14-2.36594E-13
 -1      3063 2.01979E+01 1.11040E-01 1.17191E-03 6.71892E-01-6.94489E-14-2.45308E-13
 -1      3064 2.01504E+01 1.90918E-01-1.77897E-03 6.18804E-01-3.66729E-14-2.37392E-13
 -1      3065 2.02114E+01 7.73661E-02 1.34095E-03 7.12430E-01-1.01336E-13-2.37639E-13
 -1      3066 2.02550E+01 3.66216E-02 1.14777E-03 7.37609E-01-6.91901E-14-2.06801E-13
 -1      3067 2.01586E+01 1.20191E-01-2.30531E-03 7.12932E-01-6.42805E-14-2.38745E-13
 -1      3068 2.02916E+01-1.20682E-02 2.15647E-03 7.69247E-01-7.43857E-14-1.69917E-13
 -1      3069 2.03551E+01-7.30430E-02 8.15458E-04 7.79108E-01-8.39422E-14-1.32287E-13
 -1      3070 2.02030E+01 2.61634E-02-3.16668E-03 7.92137E-01-6.42047E-14-1.69651E-13
 -1      3071 2.04248E+01-1.45092E-01 3.54129E-03 7.96366E-01-1.04597E-13-7.86799E-14
 -1      3072 2.05121E+01-2.34171E-01 5.14572E-05 7.83303E-01-9.07870E-14-6.24992E-14
 -1      3073 2.02999E+01-1.12714E-01-4.43077E-03 8.50419E-01-5.59023E-14-8.61066E-14
 -1      3074 2.06271E+01-3.35026E-01 5.47606E-03 7.76022E-01-9.75167E-14-2.65626E-14
 -1      3075 2.07415E+01-4.55504E-01-1.33573E-03 7.28975E-01-9.14606E-14-7.42883E-14
 -1      3076 2.04697E+01-3.14467E-01-6.07180E-03 8.73329E-01-5.17621E-14-1.93844E-14
 -1      3077 2.09136E+01-5.83755E-01 7.72415E-03 6.81571E-01-6.03222E-14-4.78660E-14
 -1      3078 2.10547E+01-7.28869E-01-3.52646E-03 5.87113E-01-2.19416E-14-6.70824E-14
 -1      3079 2.07357E+01-5.87075E-01-7.83831E-03 8.36040E-01-6.57734E-14-5.42451E-14
 -1      3080 2.12901E+01-8.69689E-01 9.61795E-03 4.79078E-01-7.50652E-14-6.50589E-14
 -1      3081 2.14491E+01-1.01433E+00-6.41089E-03 3.24917E-01-1.26660E-13-5.49435E-14
 -1      3082 2.11173E+01-9.16109E-01-9.07215E-03 7.02102E-01-8.14366E-14 1.76815E-14
 -1      3083 2.17377E+01-1.13131E+00 9.73517E-03 1.35703E-01-1.72221E-13-3.14782E-14
 -1      3084 2.18937E+01-1.22314E+00-8.83855E-03-8.13423E-02-1.58903E-13-2.85345E-14
 -1      3085 2.16156E+01-1.24524E+00-8.48521E-03 4.26974E-01-1.16209E-13-2.40520E-14
 -1      3086 2.21959E+01-1.25235E+00 6.49159E-03-3.58485E-01-1.64555E-13-2.32827E-15
 -1      3087 2.23145E+01-1.21151E+00-8.65085E-03-6.17246E-01-1.22252E-13-3.37654E-14
 -1      3088 2.21921E+01-1.45566E+00-4.03397E-03-2.50720E-02-1.57160E-13 2.67410E-14
 -1      3089 2.25497E+01-1.07041E+00-4.04225E-03-9.49566E-01-8.30234E-14-5.41644E-14
 -1      3090 2.25987E+01-8.07120E-01-1.74407E-03-1.18791E+00-5.71244E-14-4.59355E-14
 -1      3091 2.27449E+01-1.35748E+00 6.02082E-03-6.44230E-01-1.43701E-13-7.09285E-15
 -1      3092 2.26667E+01-4.38154E-01-1.85188E-02-1.45841E+00 3.55681E-14-3.46000E-14
 -1      3093 2.26289E+01 5.17687E-02 6.39532E-03-1.56400E+00 5.21153E-14-1.58024E-14
 -1      3094 2.30974E+01-7.59028E-01 1.31781E-02-1.29759E+00 4.56536E-15-1.80168E-14
 -1      3095 2.25072E+01 6.26997E-01-2.62961E-02-1.64276E+00 1.25719E-14-9.24608E-16
 -1      3096 2.24053E+01 1.25281E+00 2.26257E-02-1.49991E+00 3.08529E-14-1.20709E-14
 -1      3097 2.31336E+01 3.01339E-01 9.88570E-03-1.69247E+00 6.48526E-14-2.95510E-14
 -1      3098 2.21558E+01 1.73431E+00-4.01395E-02-1.14963E+00 4.48279E-14-4.85272E-14
 -1      3099 2.21097E+01 2.15784E+00 7.07721E-03-7.88050E-01 1.71359E-13-7.75916E-14
 -1      3100 2.28331E+01 1.86115E+00 1.47852E-02-1.49739E+00 3.69652E-14-8.13815E-14
 -1      3101 2.19932E+01 2.38054E+00-1.32152E-02-1.98024E-01 1.89160E-13-1.29271E-13
 -1      3102 2.19856E+01 2.36615E+00-1.78557E-02 2.85704E-01 1.28046E-13-1.47358E-13
 -1      3103 2.25855E+01 2.64809E+00 3.98570E-03-5.69451E-01 9.67499E-14-1.83658E-13
 -1      3104 2.21295E+01 2.12955E+00 1.26005E-02 8.82841E-01-4.29717E-14-1.42999E-13
 -1      3105 2.21829E+01 1.67445E+00-3.79140E-02 1.23623E+00-1.32412E-13-1.11578E-13
 -1      3106 2.25970E+01 2.69639E+00 1.72419E-02 6.93395E-01 2.30211E-14-1.71608E-13
 -1      3107 2.24271E+01 1.16226E+00 1.88602E-02 1.54745E+00-1.36940E-13-8.98624E-14
 -1      3108 2.25336E+01 5.53056E-01-2.49787E-02 1.66318E+00-8.47573E-14-2.07024E-13
 -1      3109 2.28613E+01 1.74590E+00 1.90610E-02 1.56861E+00-1.17622E-13-2.11657E-13
 -1      3110 2.26258E+01 8.38633E-04 2.27606E-03 1.58210E+00-5.60099E-15-2.07886E-13
 -1      3111 2.26783E+01-4.72124E-01-1.47913E-02 1.47065E+00 8.23958E-14-1.79235E-13
 -1      3112 2.31426E+01 2.88889E-01 8.39765E-03 1.71371E+00-6.99731E-14-2.45479E-13
 -1      3113 2.25822E+01-8.30648E-01-5.41567E-03 1.18332E+00 9.98437E-14-1.62873E-13
 -1      3114 2.25339E+01-1.06483E+00-1.85712E-03 9.47268E-01 7.80125E-14-1.66355E-13
 -1      3115 2.30831E+01-8.14429E-01 7.82331E-03 1.28890E+00 5.55300E-14-1.76573E-13
 -1      3116 2.22884E+01-1.18718E+00-8.25462E-03 6.24994E-01 1.14845E-13-1.47222E-13
 -1      3117 2.21676E+01-1.21246E+00 7.51799E-03 3.74849E-01 1.06343E-13-1.09192E-13
 -1      3118 2.27002E+01-1.34200E+00 4.57315E-03 6.40523E-01 9.90103E-14-5.84079E-14
 -1      3119 2.18628E+01-1.17163E+00-8.54997E-03 1.10570E-01-6.76651E-15 1.68069E-14
 -1      3120 2.17079E+01-1.07006E+00 1.03684E-02-9.44012E-02 1.71128E-14 1.07834E-13
 -1      3121 2.21414E+01-1.40022E+00-3.31013E-03 4.69550E-02 1.38564E-13 3.32358E-14
 -1      3122 2.14192E+01-9.46209E-01-6.33118E-03-2.69192E-01-5.85346E-14 5.30781E-14
 -1      3123 2.12629E+01-7.96538E-01 9.73327E-03-4.09854E-01 6.15116E-14 3.27309E-14
 -1      3124 2.15638E+01-1.16952E+00-8.31550E-03-3.77682E-01-2.38430E-14 5.39909E-14
 -1      3125 2.10282E+01-6.52453E-01-3.60246E-03-5.03569E-01-4.74710E-14-6.55735E-14
 -1      3126 2.08907E+01-5.05298E-01 7.73296E-03-5.84285E-01-1.00213E-13-1.18941E-13
 -1      3127 2.10672E+01-8.29078E-01-8.83017E-03-6.23965E-01-8.11431E-14 9.18829E-14
 -1      3128 2.07179E+01-3.76118E-01-1.50050E-03-6.18251E-01 1.45981E-14-1.91192E-13
 -1      3129 2.06067E+01-2.55587E-01 5.43420E-03-6.52037E-01 5.96297E-14-1.51026E-13
 -1      3130 2.06862E+01-4.96040E-01-7.45854E-03-7.30810E-01-9.06344E-14-1.20635E-13
 -1      3131 2.04888E+01-1.55663E-01-1.72626E-04-6.47016E-01-6.10688E-14-1.54783E-13
 -1      3132 2.04034E+01-6.85639E-02 3.41387E-03-6.47981E-01-2.13838E-13-1.37761E-13
 -1      3133 2.04168E+01-2.24111E-01-5.60760E-03-7.43301E-01-1.27467E-14-2.61510E-13
 -1      3134 2.03281E+01 2.51167E-04 5.77802E-04-6.20172E-01-2.24474E-13-9.00674E-14
 -1      3135 2.02647E+01 5.63114E-02 1.88055E-03-6.00429E-01-1.35006E-13-7.19216E-14
 -1      3136 2.02385E+01-2.78807E-02-3.89311E-03-6.98731E-01-1.41560E-13-1.47544E-13
 -1      3137 2.02197E+01 9.82374E-02 9.57933E-04-5.61191E-01-8.02237E-14-5.41297E-14
 -1      3138 2.01731E+01 1.29390E-01 8.17817E-04-5.30032E-01-5.75069E-14-5.82630E-14
 -1      3139 2.01275E+01 9.84504E-02-2.53527E-03-6.23825E-01-7.45394E-14-1.89152E-13
 -1      3140 2.01483E+01 1.50697E-01 1.11307E-03-4.86830E-01-1.73114E-13-7.73136E-14
 -1      3141 2.01143E+01 1.63753E-01 1.38434E-04-4.50873E-01-1.29977E-13-3.98178E-14
 -1      3142 2.00625E+01 1.68819E-01-1.56194E-03-5.36337E-01-1.83881E-13-2.05942E-13
 -1      3143 2.01021E+01 1.70633E-01 1.13606E-03-4.08350E-01-1.45284E-13-5.57230E-14
 -1      3144 2.00770E+01 1.71643E-01-2.55860E-04-3.72004E-01-1.92386E-13-1.67987E-13
 -1      3145 2.00273E+01 1.98530E-01-9.08789E-04-4.47441E-01-1.99421E-13 1.28480E-14
 -1      3146 2.00723E+01 1.69299E-01 1.08148E-03-3.32841E-01-1.43974E-13-1.59756E-13
 -1      3147 2.00536E+01 1.63057E-01-4.52675E-04-2.98818E-01-9.17791E-14-2.08964E-13
 -1      3148 2.00102E+01 2.01124E-01-4.95453E-04-3.63775E-01-1.61076E-13-7.13058E-14
 -1      3149 2.00528E+01 1.55457E-01 9.83031E-04-2.64360E-01-5.82473E-15-8.64197E-14
 -1      3150 2.00387E+01 1.45459E-01-5.21376E-04-2.34124E-01-2.98503E-14 1.55415E-14
 -1      3151 2.00033E+01 1.87321E-01-2.49307E-04-2.88898E-01 4.59309E-14-9.82504E-16
 -1      3152 2.00397E+01 1.35403E-01 8.63541E-04-2.04835E-01-1.33359E-13 9.63121E-14
 -1      3153 2.00290E+01 1.24015E-01-5.13090E-04-1.78992E-01-1.02987E-13 9.08760E-15
 -1      3154 2.00017E+01 1.64953E-01-1.13209E-04-2.24321E-01 6.50287E-15 6.96769E-14
 -1      3155 2.00306E+01 1.13337E-01 7.38123E-04-1.54792E-01-1.65225E-14 2.64625E-14
 -1      3156 2.00224E+01 1.02048E-01-4.62721E-04-1.33390E-01 1.96587E-14 1.06001E-14
 -1      3157 2.00023E+01 1.39348E-01-4.30523E-05-1.70247E-01-3.43251E-14 1.26731E-13
 -1      3158 2.00239E+01 9.18484E-02 6.14463E-04-1.13877E-01 1.22715E-14-5.15284E-14
 -1      3159 2.00175E+01 8.14771E-02-4.00189E-04-9.66334E-02 1.38448E-13-7.95654E-14
 -1      3160 2.00036E+01 1.13866E-01-9.85236E-06-1.26094E-01 2.62790E-14 1.86683E-14
 -1      3161 2.00187E+01 7.23693E-02 4.96787E-04-8.13025E-02 1.10456E-13-1.56945E-13
 -1      3162 2.00137E+01 6.33827E-02-3.28905E-04-6.77511E-02 5.26950E-15-3.84423E-13
 -1      3163 2.00047E+01 9.04283E-02 8.59700E-06-9.08784E-02 3.59648E-16-1.90324E-13
 -1      3164 2.00145E+01 5.55584E-02 3.94593E-04-5.59115E-02-8.17891E-14-4.29311E-13
 -1      3165 2.00107E+01 4.79865E-02-2.24288E-04-4.55531E-02-4.18129E-14-6.52825E-13
 -1      3166 2.00052E+01 6.99920E-02 1.74317E-05-6.34296E-02-8.42451E-14-3.71317E-13
 -1      3167 2.00115E+01 4.17116E-02 3.23122E-04-3.76661E-02 1.97261E-13-7.91496E-13
 -1      3168 2.00084E+01 3.55027E-02-1.31606E-04-2.98810E-02 2.22495E-13-5.17894E-13
 -1      3169 2.00054E+01 3.87583E-02-1.76797E-04-2.93568E-02 6.09650E-14-8.00331E-13
 -1      3170 2.00056E+01 5.26788E-02-8.52511E-05-4.35216E-02 4.23721E-14-6.64006E-13
 -1      3171 1.99835E+01 6.58879E-02-1.13648E-05-1.24777E-02 2.95803E-14-2.44625E-13
 -1      3172 1.99816E+01 6.76505E-02-2.14414E-04-8.13329E-03 1.04731E-13-1.67349E-13
 -1      3173 2.00035E+01 5.34003E-01 2.92479E-03-1.05824E+00 2.11030E-14-1.82376E-13
 -1      3174 1.99914E+01 4.77080E-01-3.65009E-03-9.58593E-01 8.55353E-14-2.01857E-13
 -1      3175 2.00534E+01 4.31552E-01 2.52939E-03-8.73380E-01 9.86689E-14-2.03441E-13
 -1      3176 2.00403E+01 3.91435E-01-2.18401E-03-7.86903E-01 7.89578E-14-1.82472E-13
 -1      3177 1.99082E+01 5.37001E-01 2.21721E-03-8.94677E-01 8.58806E-14-1.93944E-13
 -1      3178 1.97953E+01 7.92875E-01 3.90499E-03-1.53149E+00-1.13339E-13-1.07138E-13
 -1      3179 1.98006E+01 7.24663E-01-6.86129E-03-1.39233E+00-7.44735E-14-1.61135E-13
 -1      3180 1.96137E+01 8.92866E-01 5.29785E-03-1.83574E+00-3.68591E-14-4.51736E-14
 -1      3181 1.96286E+01 8.46275E-01-8.59949E-03-1.67371E+00-7.91238E-14-7.38667E-14
 -1      3182 1.93180E+01 9.57985E-01 7.90164E-03-1.52477E+00-1.03870E-13-2.31375E-13
 -1      3183 1.93880E+01 8.88722E-01 8.70085E-03-2.19716E+00-3.60235E-14-6.81552E-14
 -1      3184 1.93963E+01 9.04919E-01-1.00791E-02-2.01213E+00-4.33784E-15-2.42588E-14
 -1      3185 1.89563E+01 1.06168E+00 9.70429E-03-1.82178E+00-3.58654E-14-1.94196E-13
 -1      3186 1.91776E+01 6.52925E-01 1.64648E-02-2.63148E+00-2.96524E-14-1.06092E-13
 -1      3187 1.91282E+01 8.04555E-01-9.78067E-03-2.42528E+00-3.69067E-14-1.09118E-13
 -1      3188 1.84957E+01 1.03567E+00 1.02405E-02-2.20090E+00-3.20966E-14-1.51215E-13
 -1      3189 1.91239E+01-6.77991E-02 3.13693E-02-3.19461E+00-7.55398E-14-1.76093E-13
 -1      3190 1.89092E+01 3.72391E-01-8.43093E-04-2.95383E+00-2.58300E-14-1.36296E-13
 -1      3191 1.79562E+01 7.11876E-01 5.91987E-03-2.73268E+00-3.04151E-14-2.11489E-13
 -1      3192 1.95568E+01-1.54677E+00 3.65089E-02-3.82444E+00-1.59737E-13-1.84415E-13
 -1      3193 1.90099E+01-6.79147E-01 2.22498E-02-3.60305E+00-1.12435E-13-1.81367E-13
 -1      3194 1.75048E+01-1.51859E-01 5.82501E-03-3.50827E+00-7.00672E-14-2.37557E-13
 -1      3195 2.03279E+01 1.05688E+00-6.17452E-04 5.76762E-01 3.69083E-13-2.23785E-13
 -1      3196 2.02915E+01 1.38183E+00 2.41299E-03 6.60757E-01 3.98090E-13-2.57470E-13
 -1      3197 2.02883E+01 1.22616E+00 6.33763E-04 4.69824E-01 3.58987E-13-2.57215E-13
 -1      3198 2.02780E+01 8.58190E-01-2.86995E-03 3.53644E-01 3.31735E-13-2.21921E-13
 -1      3199 3.12900E+01 4.11971E+00-2.42684E-01-2.48140E+00 5.53640E-13-2.03976E-13
 -1      3200 2.62802E+01-3.38471E+00-1.35746E-01 7.78191E-01 2.88476E-14 4.60826E-13
 -1      3201 2.51383E+01-4.18217E+00 8.58134E-02 2.44765E+00 1.59288E-13 2.88575E-13
 -1      3202 2.86385E+01-4.95094E+00 1.93384E-02-1.30970E+00 5.19584E-14 1.36918E-13
 -1      3203 1.91469E+01 2.74801E-02 3.57555E-03 3.11511E+00-4.11747E-13 4.66615E-14
 -1      3204 1.95125E+01-4.85541E-01 4.78212E-02 3.31371E+00-4.76449E-13-7.98441E-14
 -1      3205 1.96598E+01 9.11618E-01-8.84621E-03 1.68899E+00-5.30295E-14-1.63471E-13
 -1      3206 1.96536E+01 9.36013E-01 6.01936E-03 1.87139E+00-1.48399E-13-6.45481E-14
 -1      3207 1.98344E+01 8.11862E-01-7.26564E-03 1.36169E+00 9.44768E-14-2.12210E-13
 -1      3208 1.98315E+01 8.72549E-01 4.24117E-03 1.52171E+00 2.30675E-15-2.30240E-13
 -1      3209 1.92588E+01 1.04994E+00 8.35949E-03 1.52723E+00 8.12685E-15-2.67245E-13
 -1      3210 1.99525E+01 6.80981E-01-5.74285E-03 1.08592E+00 1.02501E-13-7.93458E-14
 -1      3211 1.99596E+01 7.50793E-01 3.46791E-03 1.22277E+00 1.20628E-13-1.61440E-13
 -1      3212 1.95345E+01 9.16213E-01 6.60332E-03 1.23824E+00 1.33372E-13-2.05541E-13
 -1      3213 2.00235E+01 5.51223E-01-4.42932E-03 8.55784E-01-1.14291E-13-1.45029E-13
 -1      3214 2.00390E+01 6.17312E-01 3.05283E-03 9.70122E-01-2.06712E-14-5.66209E-14
 -1      3215 1.97268E+01 7.62157E-01 4.80198E-03 9.95305E-01-9.58603E-15 5.01206E-14
 -1      3216 2.00602E+01 4.36232E-01-3.35089E-03 6.66248E-01-9.96351E-14 1.96255E-13
 -1      3217 2.00805E+01 4.93537E-01 2.72308E-03 7.59897E-01-5.80478E-14 3.83941E-14
 -1      3218 1.98538E+01 6.15311E-01 3.28508E-03 7.90948E-01-2.22401E-13 1.14434E-13
 -1      3219 2.00742E+01 3.40022E-01-2.49841E-03 5.12273E-01-3.41298E-14 2.36065E-13
 -1      3220 2.00962E+01 3.87417E-01 2.39573E-03 5.87721E-01-4.13689E-14 2.87167E-13
 -1      3221 1.99335E+01 4.86987E-01 2.13120E-03 6.20644E-01-1.01716E-13 3.46456E-13
 -1      3222 2.00748E+01 2.62105E-01-1.84291E-03 3.88800E-01 3.05140E-14-3.02848E-14
 -1      3223 2.00960E+01 3.00242E-01 2.06245E-03 4.48744E-01 9.30774E-15 1.41332E-13
 -1      3224 1.99808E+01 3.80068E-01 1.31035E-03 4.80542E-01 4.78771E-14 2.60517E-13
 -1      3225 2.00681E+01 2.00235E-01-1.34810E-03 2.90984E-01 4.16567E-14 1.83809E-13
 -1      3226 2.00871E+01 2.30400E-01 1.73577E-03 3.38038E-01-1.61910E-14 6.47377E-14
 -1      3227 2.00068E+01 2.93464E-01 7.56231E-04 3.66870E-01-2.76593E-14 1.47020E-13
 -1      3228 2.00582E+01 1.51733E-01-9.79787E-04 2.14381E-01 1.84645E-14 2.27327E-13
 -1      3229 2.00745E+01 1.75320E-01 1.42988E-03 2.50913E-01 8.24756E-14 2.35994E-13
 -1      3230 2.00193E+01 2.24558E-01 3.98286E-04 2.75893E-01 1.15346E-14 3.05181E-13
 -1      3231 2.00475E+01 1.14048E-01-7.08084E-04 1.55058E-01 5.58026E-14 3.80587E-13
 -1      3232 2.00610E+01 1.32341E-01 1.15569E-03 1.83121E-01 4.90514E-14 4.39774E-13
 -1      3233 2.00239E+01 1.70393E-01 1.75916E-04 2.04028E-01-7.02859E-15 3.42437E-13
 -1      3234 2.00374E+01 8.49658E-02-5.10374E-04 1.09637E-01-1.55957E-13 4.89097E-13
 -1      3235 2.00482E+01 9.90628E-02 9.19430E-04 1.30963E-01-4.32904E-14 4.89803E-13
 -1      3236 2.00239E+01 1.28188E-01 4.56527E-05 1.47986E-01-3.01422E-14 6.28600E-13
 -1      3237 2.00285E+01 6.26246E-02-3.67464E-04 7.53023E-02 1.16930E-13 4.45106E-13
 -1      3238 2.00370E+01 7.34381E-02 7.21820E-04 9.12977E-02 1.27910E-14 4.49788E-13
 -1      3239 2.00216E+01 9.54865E-02-3.65137E-05 1.04831E-01 7.39031E-15 6.14132E-13
 -1      3240 2.00210E+01 4.55435E-02-2.76016E-04 4.97722E-02 5.27623E-14 4.52362E-13
 -1      3241 2.00275E+01 5.37862E-02 5.49117E-04 6.15596E-02 1.01647E-13 3.94397E-13
 -1      3242 2.00182E+01 7.02675E-02-8.56191E-05 7.21236E-02 5.56797E-14 3.87223E-13
 -1      3243 2.00150E+01 3.27376E-02-5.48067E-05 3.11896E-02 2.09848E-13 4.93233E-13
 -1      3244 2.00197E+01 3.87602E-02 4.04585E-04 3.96040E-02 8.82182E-14 4.67782E-13
 -1      3245 2.00145E+01 5.11903E-02-3.95588E-05 4.77623E-02 5.37880E-14 4.19992E-13
 -1      3246 2.00106E+01 2.73329E-02 7.37072E-05 2.20707E-02 1.86792E-13 3.02361E-13
 -1      3247 2.00136E+01 2.99757E-02 2.27770E-04 2.65023E-02 2.92893E-13 4.73330E-13
 -1      3248 2.00109E+01 3.92279E-02-9.36539E-05 3.27336E-02 1.57523E-13 5.71958E-13
 -1      3249 2.00079E+01 3.18668E-02-2.39994E-04 2.38947E-02 1.85546E-13 4.66975E-13
 -1      3250 1.13771E+01-1.48014E+00 1.05869E-01 5.25816E+00 2.89407E-13-5.88099E-13
 -1      3251 9.43581E+00-4.80642E-01 1.26070E-01 3.61284E+00 1.86132E-13-6.33493E-13
 -1      3252 1.99780E+01 2.31071E+00-4.39298E-03 2.53007E-01 2.00680E-13-5.42439E-13
 -1      3253 1.99587E+01 2.35271E+00-3.67398E-03 1.47375E-01 1.46943E-13-5.55328E-13
 -1      3254 1.99808E+01 6.93356E-02-1.14874E-04-2.18030E-03 2.37640E-13-1.99288E-13
 -1      3255 1.99808E+01 6.94527E-02-1.34056E-04 2.66992E-03 4.41572E-13-3.58990E-13
 -1      3256 1.99773E+01 7.97334E-02 3.17915E-04-6.28852E-03 2.13510E-13-3.62906E-13
 -1      3257 1.82041E+01-3.35786E+00 1.35559E-01-5.61315E+00 4.41661E-13-3.90833E-14
 -1      3258 2.09328E+01-4.36972E+00-8.33373E-02-4.90672E+00 4.47552E-13-2.81115E-13
 -1      3259 1.99894E+01 5.84554E-02 7.75537E-05-2.06694E-02 1.65749E-13-1.22636E-13
 -1      3260 1.99860E+01 6.17133E-02-2.66111E-04-1.74148E-02 8.64780E-14-1.47926E-13
 -1      3261 1.99816E+01 7.41019E-02 2.72783E-04-1.79687E-02 1.57647E-13-2.08004E-13
 -1      3262 1.94352E+01 9.14987E-01-9.88646E-03 2.07738E+00-1.19801E-13-5.63091E-15
 -1      3263 1.94553E+01 8.52637E-01 1.11138E-02 2.27896E+00-1.61906E-14 1.13280E-13
 -1      3264 1.88879E+01 1.10686E+00 9.29135E-03 1.87816E+00 1.93156E-15-4.19890E-15
 -1      3265 1.92049E+01 7.00194E-01-7.00063E-03 2.55398E+00-1.56766E-13-1.76599E-14
 -1      3266 1.93113E+01 4.27977E-01 1.38409E-02 2.78465E+00-3.65824E-13-4.53760E-14
 -1      3267 1.79702E+01 4.04869E-01-6.57714E-03 2.97720E+00-2.86146E-13 2.95042E-14
 -1      3268 1.84225E+01 9.76409E-01 6.75157E-03 2.33410E+00-1.43689E-13 4.56856E-15
 -1      3269 1.99223E+01 6.60720E-01 3.30514E-03-1.27482E+00-5.25605E-14-1.49070E-13
 -1      3270 1.99167E+01 5.92677E-01-5.19386E-03-1.15702E+00-2.21415E-14-1.76449E-13
 -1      3271 1.97744E+01 6.60818E-01 3.83355E-03-1.07383E+00-9.85880E-15-1.72556E-13
 -1      3272 1.95846E+01 8.09123E-01 5.78799E-03-1.28050E+00-7.49942E-14-1.74495E-13
 -1      3273 2.01452E+01 3.61667E-01 4.37038E-04-3.85680E-01 2.21443E-13-2.07926E-13
 -1      3274 2.01611E+01 3.98135E-01 2.42250E-03-2.90157E-01 2.31914E-13-1.82152E-13
 -1      3275 9.46709E+00 5.75677E-01 1.28596E-01-1.43061E+00-4.47207E-14-1.32158E-13
 -1      3276 1.05135E+01-5.97692E-02 3.09542E-02-3.40866E+00-6.23807E-15 1.22860E-13
 -1      3277 2.02911E+01 8.09004E-01 3.21770E-03-1.99492E-01-2.35378E-13-3.22615E-13
 -1      3278 2.02575E+01 6.60003E-01-2.68245E-03-4.78845E-02-2.02369E-13-3.12377E-13
 -1      3279 2.02743E+01 7.13830E-01-4.63821E-04-6.69103E-03-1.90842E-13-3.19698E-13
 -1      3280 3.08061E+01 2.40202E+00-3.00296E-01 3.17591E+00 3.17885E-13 3.75255E-14
 -1      3281 2.55918E+01 5.59562E+00-1.08484E-01-1.05562E-02-1.38556E-13-3.22995E-13
 -1      3282 2.61391E+01 5.31005E+00-1.48157E-01-1.13661E+00-2.63040E-13-8.89913E-14
 -1      3283 2.35293E+01-4.32012E+00 1.05669E-01-3.55509E+00 4.62699E-13-4.12649E-13
 -1      3284 2.49214E+01-4.03864E+00-7.38168E-02-2.04175E+00 4.66739E-13-4.62880E-13
 -1      3285 2.62060E+01-2.76793E+00 1.12706E-02-2.51912E-01 2.97455E-13-3.43336E-13
 -1      3286 2.66507E+01-1.21988E+00-1.26993E-01 1.11070E+00 1.54217E-13-4.22658E-13
 -1      3287 1.99972E+01 4.77397E-02 1.26533E-05-2.52786E-02 3.13766E-13-2.20021E-13
 -1      3288 1.99932E+01 5.23213E-02-2.66146E-04-2.38328E-02 2.36189E-13-2.50974E-13
 -1      3289 1.99893E+01 6.42631E-02 2.02561E-04-2.67017E-02 1.29736E-13-1.03119E-13
 -1      3290 1.47320E+01-1.86206E+00 1.14573E-01-4.88720E+00-2.09943E-13-4.07466E-13
 -1      3291 1.69093E+01-2.74158E+00 8.78265E-02-5.19298E+00-2.37040E-13-3.07226E-13
 -1      3292 2.70468E+01-5.16721E+00 5.30941E-02-2.00387E+00-5.66769E-14 1.29757E-13
 -1      3293 1.07987E+01-2.70660E-01 1.13736E-01-3.12605E+00-9.62980E-14-4.85625E-13
 -1      3294 1.26389E+01-1.11180E+00 1.01117E-01-4.40535E+00-1.53863E-13-4.47462E-13
 -1      3295 1.49413E+01-9.70526E-01 1.07734E-01-4.19426E+00-1.59806E-13-3.59615E-13
 -1      3296 1.47896E+01-1.64271E+00 4.83755E-02 4.74359E+00-4.36630E-13 5.89792E-13
 -1      3297 1.19679E+01-4.63634E-01 1.30449E-01 3.74638E+00-4.27325E-13 5.27259E-13
 -1      3298 1.84824E+01-3.87140E+00 8.08854E-02-5.29239E+00-3.28959E-13-2.92877E-13
 -1      3299 2.02084E+01-4.94157E+00 7.47629E-02-5.33462E+00-3.07587E-13-3.42858E-13
 -1      3300 2.24262E+01-5.03163E+00 7.30331E-03-4.32059E+00-2.38295E-13-1.24767E-13
 -1      3301 1.83022E+01-2.83262E+00 7.51210E-02-4.80084E+00-2.48551E-13-2.76286E-13
 -1      3302 9.89180E+00 2.38591E-01 5.40306E-02 2.06072E+00-1.86344E-13 5.40595E-13
 -1      3303 9.16840E+00 6.21530E-01 9.95279E-02 6.54079E-02-7.50186E-14 2.56919E-13
 -1      3304 1.09726E+01 9.35718E-01 1.28493E-01-6.56501E-01-1.10155E-16 1.07830E-14
 -1      3305 2.66847E+01 8.07930E-01 5.37269E-03 1.95436E+00 3.05450E-14-4.85487E-13
 -1      3306 2.60178E+01 2.38138E+00-1.62216E-01 2.04381E+00-1.31145E-14-5.16177E-13
 -1      3307 2.30855E+01-4.76917E+00-7.14258E-02 4.07086E+00 2.30198E-13 2.50210E-13
 -1      3308 2.08838E+01-4.35692E+00 7.04897E-02 5.06650E+00 2.81671E-13 1.64826E-13
 -1      3309 1.26857E+01-1.04774E+00 1.26994E-01-4.84791E+00 1.54477E-13 3.75269E-13
 -1      3310 1.50900E+01-2.47569E+00-3.16809E-02-5.76801E+00 2.34771E-13 2.35950E-13
 -1      3311 2.02076E+01 1.95023E+00 9.36704E-04-9.21335E-01-2.89746E-13-5.05342E-13
 -1      3312 2.58079E+01 4.17129E+00-4.30349E-02 1.77393E+00-8.58896E-14-5.09016E-13
 -1      3313 2.55311E+01 5.04724E+00-1.51974E-01 9.54858E-01-1.53696E-13-4.52912E-13
 -1      3314 1.99490E+01 2.37231E+00-3.98061E-03 6.22717E-02 1.12892E-13-5.58713E-13
 -1      3315 1.99491E+01 2.37204E+00-3.81924E-03-4.53403E-02 5.21358E-14-5.62640E-13
 -1      3316 2.00503E+01 2.09954E+00 5.65841E-03 8.70649E-02 1.18942E-13-5.09883E-13
 -1      3317 2.59722E+01-2.45137E+00-1.33721E-02-1.16288E-01-1.12237E-14 4.65961E-13
 -1      3318 2.09371E+01-3.81336E+00 5.10087E-02 4.47176E+00 2.47590E-13 1.16391E-13
 -1      3319 1.94890E+01-4.00398E+00 3.31486E-02 5.48633E+00 2.83260E-13 8.75133E-14
 -1      3320 1.78797E+01-3.22722E+00 5.30416E-02 5.49469E+00 2.79742E-13 1.75901E-14
 -1      3321 1.99943E+01 5.38770E-02-2.77360E-04 2.45309E-02 2.09600E-13-2.75828E-13
 -1      3322 1.99987E+01 4.94012E-02 8.11162E-05 2.59177E-02 3.02485E-13 1.85214E-13
 -1      3323 2.03049E+01 1.17997E+00-3.93272E-04-5.16716E-01-2.87200E-13-3.89736E-13
 -1      3324 2.02803E+01 9.78978E-01-3.94967E-03-3.33890E-01-2.58081E-13-3.62309E-13
 -1      3325 2.02900E+01 1.03788E+00 1.26352E-03-2.67963E-01-2.27552E-13-3.61139E-13
 -1      3326 2.20782E+01-3.88861E+00 4.01078E-02-3.80145E+00 3.94712E-13-3.95248E-13
 -1      3327 2.01151E+01 3.42474E-01 7.94647E-04-4.70344E-01 1.99920E-13-1.96538E-13
 -1      3328 2.01441E+01 4.29325E-01-6.99070E-04-4.11125E-01 2.10550E-13-2.10105E-13
 -1      3329 2.01136E+01 3.37150E-01 1.35154E-03-5.52659E-01 1.42877E-13-2.03500E-13
 -1      3330 2.02305E+01 1.63698E+00-1.78326E-03-7.10493E-01-2.87065E-13-4.67819E-13
 -1      3331 2.02033E+01 5.19119E-01-1.05489E-03-2.16907E-01 2.36802E-13-2.14634E-13
 -1      3332 2.01863E+01 4.51752E-01-7.56375E-04-1.87257E-01 2.44384E-13-1.93917E-13
 -1      3333 2.02181E+01 5.30043E-01 3.65743E-03-6.45742E-02 2.51174E-13-1.94482E-13
 -1      3334 1.88603E+01-1.28318E+00 1.44569E-03 3.91425E+00-5.37618E-13 1.02515E-13
 -1      3335 1.90771E+01-2.97791E+00 9.09437E-02 4.58253E+00-4.29191E-13 3.08725E-13
 -1      3336 2.00050E+01 4.50797E-01 9.47573E-04-7.33113E-01 8.14575E-14-1.88578E-13
 -1      3337 2.00860E+01 3.63448E-01 2.02557E-03-7.09459E-01 6.22032E-14-1.91173E-13
 -1      3338 2.00777E+01 3.43965E-01-7.25685E-04-6.29394E-01 9.72292E-14-2.16928E-13
 -1      3339 1.93127E+01-2.08856E+00 2.72426E-02-4.20455E+00-1.75845E-13-2.24397E-13
 -1      3340 1.71321E+01-1.26173E+00 5.17422E-02-4.31588E+00-1.32745E-13-2.19685E-13
 -1      3341 2.39423E+01-4.12109E+00 1.45913E-02 2.80835E+00 1.67533E-13 2.65378E-13
 -1      3342 1.12923E+01 1.00725E-01 6.74677E-02 3.01394E+00 1.26615E-13-5.53516E-13
 -1      3343 9.39612E+00 1.61479E-01 1.62037E-01 2.45408E+00 1.13517E-13-6.29122E-13
 -1      3344 9.75976E+00 5.95474E-01 8.41475E-02 1.03015E+00 2.64753E-14-5.26912E-13
 -1      3345 1.37060E+01-1.77813E+00 1.04754E-01 5.27172E+00 2.71484E-13-3.87357E-13
 -1      3346 2.00071E+01 2.24801E+00-3.62782E-03 3.33424E-01 2.20437E-13-5.21773E-13
 -1      3347 2.00858E+01 2.01738E+00 6.00951E-03 2.36847E-01 1.97253E-13-5.03200E-13
 -1      3348 2.00444E+01 2.16066E+00-5.17483E-03 4.33111E-01 2.65552E-13-4.82407E-13
 -1      3349 1.99866E+01 6.30260E-02-2.78361E-04 1.80800E-02 5.87098E-14 1.91834E-15
 -1      3350 1.99903E+01 5.98783E-02 6.49781E-05 2.13262E-02 1.67882E-13-1.90570E-13
 -1      3351 1.99903E+01 6.65296E-02 2.28539E-04 2.73051E-02 1.12461E-13-3.18093E-13
 -1      3352 1.74440E+01-2.45636E+00 9.73137E-02-5.05355E+00 3.40006E-13-8.08797E-14
 -1      3353 1.99818E+01 6.83887E-02-2.07331E-04 8.63940E-03 3.98395E-13-9.79211E-14
 -1      3354 1.99839E+01 6.67755E-02-3.40009E-05 1.30859E-02 2.26233E-13 1.03919E-13
 -1      3355 1.99821E+01 7.58096E-02 3.09315E-04 1.83311E-02 1.89339E-13 1.35607E-13
 -1      3356 1.99774E+01 8.03608E-02 3.29903E-04 6.49507E-03 3.60746E-13-1.39772E-13
 -1      3357 2.00893E+01 2.04970E+00-3.08569E-03-4.97798E-01-1.27668E-13-5.10464E-13
 -1      3358 2.01405E+01 1.90962E+00-6.42671E-03-5.89672E-01-1.83705E-13-5.10502E-13
 -1      3359 2.56434E+01 4.42654E+00 4.10659E-03-1.48677E+00-1.56861E-13 2.36269E-15
 -1      3360 2.55044E+01-3.39138E+00-1.64459E-03-8.92291E-01 3.84501E-13-3.01183E-13
 -1      3361 2.52177E+01-2.50195E+00-4.06963E-02 1.55983E-01 2.77067E-13-2.26673E-13
 -1      3362 2.43080E+01-3.45894E+00-4.47777E-03-1.51374E+00 4.23537E-13-2.36074E-13
 -1      3363 2.51879E+01 2.86308E+00-2.32765E-02 1.87885E+00-2.81303E-14-5.19113E-13
 -1      3364 1.28229E+01-2.05477E-01 1.03986E-01-3.69722E+00 4.24868E-14 2.64018E-13
 -1      3365 2.47278E+01 4.67845E+00-6.05784E-02 3.66324E-01-3.56243E-14-3.79658E-13
 -1      3366 2.58571E+01-4.64203E-01-4.34849E-02 1.50248E+00 1.51221E-13-4.49831E-13
 -1      3367 1.24092E+01 3.06814E-01 1.27848E-01 2.54962E+00-2.03728E-13 4.11324E-13
 -1      3368 1.64083E+01-1.89362E+00 2.16136E-01 4.82452E+00-4.83995E-13 6.14543E-13
 -1      3369 2.01405E+01 1.91355E+00-6.96782E-03 5.89881E-01 3.34489E-13-3.74839E-13
 -1      3370 2.00896E+01 2.05357E+00-3.52716E-03 5.04852E-01 2.88195E-13-4.23900E-13
 -1      3371 2.01535E+01 1.84754E+00 6.90927E-03 3.71868E-01 2.54917E-13-4.16458E-13
 -1      3372 2.02385E+01 1.58374E+00 7.02955E-03 4.76949E-01 3.26270E-13-3.06286E-13
 -1      3373 1.51824E+01-9.84705E-01-2.76168E-03 4.28425E+00-4.32356E-13 5.75165E-13
 -1      3374 2.65027E+01 9.99578E-01-6.97670E-02-2.05234E+00-2.15536E-13 3.54862E-13
 -1      3375 2.57023E+01-3.24551E-02 3.42875E-03-1.66525E+00-1.90660E-13 1.84587E-13
 -1      3376 2.55886E+01 1.83349E+00-1.73981E-01-2.09336E+00-1.79939E-13 1.28009E-13
 -1      3377 1.71881E+01-5.71652E-01 3.42784E-02 3.79092E+00-4.67708E-13 3.19255E-13
 -1      3378 1.03457E+01 2.32667E-01 1.54876E-01-2.31514E+00-5.75234E-14-5.26870E-13
 -1      3379 1.23716E+01 2.54881E-01 8.97644E-02-2.77669E+00-9.28320E-14-4.73496E-13
 -1      3380 1.00996E+01 5.45424E-01 7.80328E-02-1.15522E+00-2.38108E-14-4.96728E-13
 -1      3381 2.00077E+01 2.24347E+00-3.41555E-03-3.20592E-01-5.43570E-14-5.33301E-13
 -1      3382 2.00436E+01 2.15719E+00-4.88726E-03-4.23924E-01-1.00021E-13-5.40500E-13
 -1      3383 2.01508E+01 1.83539E+00 4.46817E-03-3.60977E-01-1.25009E-13-4.96670E-13
 -1      3384 2.00025E+01 4.21303E-02-1.09919E-04-2.83942E-02 7.81163E-14-6.72213E-13
 -1      3385 1.99997E+01 4.46849E-02-1.58940E-04-2.69348E-02 2.80381E-13-3.11719E-13
 -1      3386 1.99968E+01 5.54536E-02 1.77289E-04-3.17090E-02 2.38425E-13-2.33362E-13
 -1      3387 2.00031E+01 4.92576E-02 2.56919E-04-3.46944E-02 1.44111E-13-6.47108E-13
 -1      3388 2.02304E+01 6.02410E-01-1.81955E-03 4.61578E-02 2.68231E-13-2.18896E-13
 -1      3389 2.02745E+01 7.33213E-01 3.46593E-03 2.10374E-01 2.99729E-13-2.09384E-13
 -1      3390 2.02882E+01 9.02038E-01 8.48389E-04 2.73331E-01 3.06722E-13-2.24147E-13
 -1      3391 2.02524E+01 6.73751E-01-1.20095E-03 6.86045E-03 2.59654E-13-2.18946E-13
 -1      3392 1.99774E+01 8.30943E-02 5.95000E-05-2.48130E-02 2.46396E-13-5.05712E-14
 -1      3393 1.99733E+01 8.66306E-02-3.13179E-04-1.91883E-02 1.61842E-13-3.55926E-13
 -1      3394 1.65920E+01-1.56168E+00 8.83970E-02-4.61364E+00 2.38302E-13-5.68087E-14
 -1      3395 1.87235E+01-2.82151E+00-7.21648E-02-4.62976E+00 3.05027E-13-1.93255E-13
 -1      3396 2.02159E+01 4.47728E-01 1.24981E-03 3.17607E-01-1.49440E-13-3.25613E-13
 -1      3397 2.01948E+01 3.85990E-01-2.50081E-04 3.93183E-01-1.05135E-13-3.07945E-13
 -1      3398 2.01667E+01 3.36782E-01 8.31840E-04 4.59039E-01-8.47580E-14-2.87702E-13
 -1      3399 2.01526E+01 2.95124E-01 5.84013E-04 5.20829E-01-5.16320E-14-2.60237E-13
 -1      3400 2.01712E+01 4.21121E-01-4.39185E-04 4.05816E-01-8.73706E-14-2.47812E-13
 -1      3401 2.01250E+01 2.58931E-01 5.47549E-04 5.79957E-01-5.79949E-14-2.71716E-13
 -1      3402 2.01219E+01 2.24665E-01 1.26263E-03 6.32866E-01-4.16956E-14-2.78121E-13
 -1      3403 2.01119E+01 3.26852E-01-9.15121E-04 5.34211E-01-6.73882E-14-2.75913E-13
 -1      3404 2.01019E+01 1.89213E-01 6.06046E-04 6.89311E-01-2.47647E-14-2.85028E-13
 -1      3405 2.01145E+01 1.49839E-01 1.80864E-03 7.35723E-01-2.69928E-14-2.85575E-13
 -1      3406 2.00616E+01 2.49913E-01-1.55826E-03 6.53957E-01-4.43320E-14-3.17937E-13
 -1      3407 2.01112E+01 1.02971E-01 1.13476E-03 7.91338E-01-4.36096E-14-2.27594E-13
 -1      3408 2.01459E+01 4.58468E-02 2.21107E-03 8.30683E-01-3.67110E-14-2.15251E-13
 -1      3409 2.00349E+01 1.63159E-01-2.51833E-03 7.71735E-01-1.99865E-14-2.84537E-13
 -1      3410 2.01711E+01-2.45626E-02 2.27904E-03 8.84343E-01-4.14626E-14-1.98769E-13
 -1      3411 2.02366E+01-1.11883E-01 2.37132E-03 9.12476E-01-4.19718E-14-1.48149E-13
 -1      3412 2.00507E+01 3.88247E-02-3.97494E-03 8.89550E-01-1.88815E-14-2.32785E-13
 -1      3413 2.03065E+01-2.16934E-01 4.20443E-03 9.58788E-01-5.20694E-14-1.50763E-13
 -1      3414 2.04129E+01-3.45025E-01 2.05017E-03 9.67054E-01-5.22189E-14-1.29436E-13
 -1      3415 2.01349E+01-1.50881E-01-6.10392E-03 1.00267E+00-2.57982E-14-2.54431E-13
 -1      3416 2.05480E+01-4.92016E-01 7.09055E-03 9.94175E-01-5.27103E-14-1.16423E-13
 -1      3417 2.07049E+01-6.65505E-01 8.03923E-04 9.68237E-01-3.91443E-14-9.53201E-14
 -1      3418 2.03215E+01-4.30578E-01-8.97867E-03 1.09617E+00-5.48352E-14-1.67215E-13
 -1      3419 2.09282E+01-8.52169E-01 1.08267E-02 9.54684E-01-8.29188E-14-4.22889E-14
 -1      3420 2.11394E+01-1.06137E+00-2.00685E-03 8.73845E-01-1.11416E-13-7.50930E-14
 -1      3421 2.06518E+01-8.13111E-01-1.23845E-02 1.13910E+00-1.72001E-14-1.01333E-13
 -1      3422 2.14692E+01-1.26510E+00 1.46224E-02 7.85784E-01-8.97930E-14-6.99199E-14
 -1      3423 2.17243E+01-1.47189E+00-6.84503E-03 6.25982E-01-9.13995E-14-6.07082E-14
 -1      3424 2.11676E+01-1.28103E+00-1.54516E-02 1.07713E+00-1.05569E-13-7.02701E-14
 -1      3425 2.21557E+01-1.63479E+00 1.58091E-02 4.20157E-01-1.28728E-13-2.14895E-14
 -1      3426 2.24237E+01-1.75079E+00-1.03777E-02 1.63672E-01-1.75838E-13-2.21089E-14
 -1      3427 2.18903E+01-1.75349E+00-1.62536E-02 8.28176E-01-7.67495E-14-8.26767E-14
 -1      3428 2.28980E+01-1.78035E+00 8.61879E-03-1.79738E-01-1.67299E-13 4.63158E-14
 -1      3429 2.31327E+01-1.66604E+00-9.00483E-03-5.23339E-01-1.13675E-13 3.23851E-14
 -1      3430 2.27722E+01-2.03275E+00-9.81673E-03 3.12488E-01-1.26903E-13 1.53861E-14
 -1      3431 2.34955E+01-1.40021E+00-1.50650E-02-9.76241E-01-5.50957E-14 1.26842E-13
 -1      3432 2.36014E+01-9.26903E-01 2.16392E-03-1.27855E+00 5.45258E-14 6.00240E-14
 -1      3433 2.36698E+01-1.82956E+00 5.55121E-03-5.09895E-01-6.34369E-14 1.87241E-13
 -1      3434 2.40888E+01 5.91278E-02-3.00129E-02-1.75551E+00 1.33340E-14-2.56800E-14
 -1      3435 2.40023E+01 9.22461E-01-5.04215E-02-1.90063E+00-4.55764E-14-7.29607E-14
 -1      3436 2.38740E+01 1.93355E+00-3.88141E-03-1.71086E+00-6.54650E-14-1.63447E-13
 -1      3437 2.35267E+01 3.51186E+00-7.99423E-02-9.83508E-01 1.30798E-14-3.03783E-13
 -1      3438 2.34288E+01 3.90539E+00-4.76158E-02-3.23757E-01 3.32408E-14-3.40774E-13
 -1      3439 2.34147E+01 3.64949E+00-4.10948E-02 6.41608E-01 4.69763E-15-3.52589E-13
 -1      3440 2.35049E+01 3.13256E+00-9.04196E-02 1.25114E+00-4.73493E-14-2.96866E-13
 -1      3441 2.39711E+01 2.04346E+00-2.42520E-02 1.71590E+00-3.64812E-14-3.07531E-13
 -1      3442 2.41549E+01 1.10626E+00-3.90061E-02 1.96368E+00-3.93956E-14-2.52261E-13
 -1      3443 2.35644E+01-9.83599E-01-2.15374E-02 1.25245E+00 4.82895E-14-2.02259E-13
 -1      3444 2.34562E+01-1.39080E+00-2.78099E-03 9.47265E-01 6.52590E-14-1.37540E-13
 -1      3445 2.30639E+01-1.64782E+00-1.14347E-02 5.06823E-01 1.10804E-13-1.05871E-13
 -1      3446 2.28352E+01-1.72798E+00 1.27720E-02 1.80947E-01 1.36561E-13-7.10847E-14
 -1      3447 2.35932E+01-1.79083E+00 8.95854E-03 5.03554E-01 6.69343E-14-1.19932E-13
 -1      3448 2.23528E+01-1.69122E+00-1.01871E-02-1.51650E-01 1.15160E-13 3.61560E-15
 -1      3449 2.20834E+01-1.55983E+00 1.65979E-02-3.95012E-01 9.73723E-14 6.76455E-15
 -1      3450 2.26975E+01-1.95501E+00-3.25525E-03-2.90819E-01 1.36023E-13-5.22205E-14
 -1      3451 2.16516E+01-1.38526E+00-6.46456E-03-5.83317E-01 2.87819E-14 5.72659E-14
 -1      3452 2.13963E+01-1.17180E+00 1.43789E-02-7.28784E-01-2.72590E-14 9.99466E-14
 -1      3453 2.17938E+01-1.66333E+00-1.80796E-02-7.93088E-01 8.95722E-14 1.11653E-13
 -1      3454 2.10674E+01-9.64058E-01-2.12132E-03-8.02515E-01-1.32665E-13 6.33583E-14
 -1      3455 2.08566E+01-7.52426E-01 1.05133E-02-8.69927E-01-1.53217E-13 2.46484E-14
 -1      3456 2.10767E+01-1.17331E+00-1.53174E-02-1.01177E+00-9.22986E-14 3.98938E-14
 -1      3457 2.06312E+01-5.64587E-01 6.19234E-04-8.71162E-01-2.31220E-13-4.23904E-14
 -1      3458 2.04734E+01-3.91117E-01 6.86148E-03-8.84906E-01-1.48976E-13-8.44995E-14
 -1      3459 2.05596E+01-7.00973E-01-1.18400E-02-1.04918E+00-1.81355E-13 7.57857E-14
 -1      3460 2.03326E+01-2.45092E-01 1.79177E-03-8.47153E-01-7.96931E-14-2.96171E-13
 -1      3461 2.02230E+01-1.19195E-01 3.94698E-03-8.28056E-01-1.50107E-13-3.93504E-13
 -1      3462 2.02214E+01-3.19711E-01-8.34354E-03-9.84917E-01-3.02511E-13-1.82853E-13
 -1      3463 2.01437E+01-1.76521E-02 2.09019E-03-7.72730E-01-1.13252E-13-3.30478E-13
 -1      3464 2.00721E+01 6.43136E-02 1.92489E-03-7.35819E-01-5.98417E-14-2.79075E-13
 -1      3465 2.00196E+01-4.59765E-02-5.45531E-03-8.73543E-01-1.27669E-13-3.69898E-13
 -1      3466 2.00341E+01 1.27339E-01 1.99071E-03-6.75501E-01-2.47839E-14-2.64521E-13
 -1      3467 1.99898E+01 1.74043E-01 6.21450E-04-6.30739E-01-8.89966E-14-2.78082E-13
 -1      3468 1.99128E+01 1.30591E-01-3.30103E-03-7.46671E-01-4.46409E-14-3.03621E-13
 -1      3469 1.99775E+01 2.07354E-01 1.74111E-03-5.72234E-01-1.50172E-13-1.69568E-13
 -1      3470 1.99516E+01 2.28256E-01-1.62425E-04-5.25869E-01-1.32447E-13-1.45266E-13
 -1      3471 1.98677E+01 2.30182E-01-1.83120E-03-6.21483E-01-2.25062E-14-2.96219E-13
 -1      3472 1.99542E+01 2.40506E-01 1.46939E-03-4.72567E-01-2.20265E-13-2.77760E-14
 -1      3473 1.99400E+01 2.43970E-01-5.86643E-04-4.28338E-01-1.78196E-13 5.16650E-14
 -1      3474 1.98595E+01 2.73954E-01-8.75557E-04-5.06404E-01-1.28241E-13-1.07911E-13
 -1      3475 1.99499E+01 2.42469E-01 1.22029E-03-3.81700E-01-1.76055E-13 1.38060E-13
 -1      3476 1.99427E+01 2.35163E-01-7.76174E-04-3.41673E-01-6.23830E-14 1.44973E-13
 -1      3477 1.98714E+01 2.80175E-01-2.93565E-04-4.05053E-01-1.15407E-13 2.85731E-13
 -1      3478 1.99555E+01 2.25562E-01 1.00422E-03-3.02053E-01 4.29251E-14 4.80338E-14
 -1      3479 1.99521E+01 2.12427E-01-8.18138E-04-2.67180E-01 1.39806E-13 8.63430E-14
 -1      3480 1.98924E+01 2.63290E-01 3.40143E-05-3.18427E-01-5.61218E-14 2.35443E-13
 -1      3481 1.99649E+01 1.98794E-01 8.21556E-04-2.34291E-01 9.21748E-14 7.79461E-14
 -1      3482 1.99635E+01 1.83237E-01-7.75395E-04-2.04799E-01 6.54691E-14 1.49614E-13
 -1      3483 1.99157E+01 2.33940E-01 1.92898E-04-2.46076E-01 1.40953E-13 4.38500E-14
 -1      3484 1.99750E+01 1.68284E-01 6.70326E-04-1.78035E-01-4.84573E-14 1.08086E-13
 -1      3485 1.99744E+01 1.52490E-01-6.88529E-04-1.53718E-01-5.56185E-14 1.83016E-13
 -1      3486 1.99376E+01 1.99453E-01 2.49329E-04-1.86786E-01-1.75817E-14 9.69465E-15
 -1      3487 1.99840E+01 1.37913E-01 5.46928E-04-1.32346E-01 3.25710E-14 3.78761E-14
 -1      3488 1.99836E+01 1.23197E-01-5.82151E-04-1.12747E-01-1.29754E-16-1.02722E-13
 -1      3489 1.99563E+01 1.64536E-01 2.53482E-04-1.39055E-01-8.38228E-14-5.39395E-15
 -1      3490 1.99911E+01 1.09775E-01 4.04967E-04-9.59557E-02-6.45316E-14-1.99228E-13
 -1      3491 1.99906E+01 9.67664E-02-5.59664E-04-8.06848E-02-8.24228E-14-1.92711E-13
 -1      3492 1.99713E+01 1.31942E-01 2.51454E-04-1.01218E-01-4.67584E-14-2.31659E-13
 -1      3493 1.99962E+01 8.53954E-02 3.32941E-04-6.75015E-02-8.42034E-14-2.95724E-13
 -1      3494 1.99960E+01 7.44040E-02-2.47626E-04-5.56932E-02-5.92874E-14-4.32338E-13
 -1      3495 1.99823E+01 1.03850E-01 3.67761E-04-7.19015E-02-1.36898E-13-2.41943E-13
 -1      3496 2.00020E+01 4.28356E-02-2.36447E-04 2.59248E-02 2.98363E-13 2.59624E-13
 -1      3497 2.00054E+01 3.81778E-02 3.55537E-05 2.53311E-02 1.90179E-13 3.61163E-13
 -1      3498 2.00064E+01 4.18539E-02 3.45753E-05 2.93317E-02 2.73639E-13 4.52906E-13
 -1      3499 1.99991E+01 5.43126E-02 9.36523E-05 3.07471E-02 3.38275E-13 1.45299E-13
 -1      3500 2.09429E+01-2.99694E+00 1.18522E-01-4.13251E+00-2.80501E-13-2.05176E-13
 -1      3501 1.83514E+01 1.19241E+00 1.08241E-03-1.64188E+00-9.79978E-14-2.38124E-13
 -1      3502 1.85556E+01 1.14111E+00-1.23839E-02-1.49817E+00-8.16259E-14-2.77946E-13
 -1      3503 1.88757E+01 1.07919E+00-2.41137E-04-1.39520E+00-5.62034E-14-2.73690E-13
 -1      3504 1.90318E+01 9.99108E-01-8.93448E-03-1.27734E+00-7.58754E-14-2.28266E-13
 -1      3505 1.83734E+01 1.23256E+00 1.40361E-02-1.22892E+00-5.30263E-14-2.74485E-13
 -1      3506 1.68364E+01 8.92726E-01 2.48423E-02-2.48630E+00-4.18659E-14-2.25433E-13
 -1      3507 1.70884E+01 1.08342E+00-1.88384E-02-2.19586E+00-9.93042E-15-1.86166E-13
 -1      3508 2.02973E+01 1.04519E+00 5.73862E-04 3.23357E-01 3.03334E-13-2.58913E-13
 -1      3509 2.02731E+01 1.22637E+00-1.75315E-03 3.65409E-01 3.23519E-13-2.68368E-13
 -1      3510 2.02787E+01 9.06648E-01-1.33908E-03 1.74793E-01 2.64094E-13-2.60508E-13
 -1      3511 1.95103E+01 7.93038E-01-5.69065E-03 8.43782E-01-9.63714E-14 2.68261E-13
 -1      3512 1.94324E+01 8.76827E-01-1.00111E-04 9.46231E-01-1.24422E-14 1.16003E-13
 -1      3513 2.41616E+01-3.81082E+00-7.64376E-02 1.87737E+00 1.04850E-13 2.86850E-13
 -1      3514 2.28736E+01-3.86446E+00 5.02913E-02 3.15988E+00 1.99677E-13 1.80286E-13
 -1      3515 1.99596E+01 2.34964E+00-3.66042E-03-1.31021E-01 2.19295E-14-5.62505E-13
 -1      3516 1.99785E+01 2.30764E+00-4.15920E-03-2.38100E-01-2.93469E-14-5.43130E-13
 -1      3517 2.00859E+01 2.00913E+00 5.01537E-03-2.21049E-01-5.47907E-14-5.10081E-13
 -1      3518 1.88874E+01 1.11658E+00-1.01658E-02 1.25929E+00 9.21036E-14-1.30938E-13
 -1      3519 1.87273E+01 1.18634E+00 5.35435E-05 1.39942E+00 5.63478E-14 4.68256E-14
 -1      3520 1.96878E+01 6.40898E-01-4.33604E-03 6.78862E-01-2.78286E-13 3.07946E-13
 -1      3521 1.96383E+01 7.16325E-01 2.82102E-04 7.66185E-01-2.36011E-13 2.36834E-13
 -1      3522 1.93873E+01 8.40504E-01 6.05334E-03 7.22112E-01-1.89305E-13 4.14399E-13
 -1      3523 1.98073E+01 5.09269E-01-3.30736E-03 5.38439E-01-3.90649E-14 3.37392E-13
 -1      3524 1.97778E+01 5.73699E-01 5.85256E-04 6.11804E-01-1.31717E-13 3.17012E-13
 -1      3525 1.95910E+01 6.79456E-01 4.25457E-03 5.89510E-01-1.82952E-13 3.73806E-13
 -1      3526 1.98858E+01 3.99545E-01-2.51783E-03 4.20660E-01 1.04679E-13 2.17873E-13
 -1      3527 1.98697E+01 4.52872E-01 7.63902E-04 4.81316E-01 1.06293E-13 3.50972E-13
 -1      3528 1.97320E+01 5.40939E-01 2.93904E-03 4.73191E-01-2.17227E-14 2.54594E-13
 -1      3529 1.99363E+01 3.10183E-01-1.91009E-03 3.23503E-01-1.38591E-13 3.09928E-13
 -1      3530 1.99287E+01 3.53431E-01 8.30036E-04 3.72855E-01-1.21816E-13 2.36822E-13
 -1      3531 1.98283E+01 4.25420E-01 1.99200E-03 3.73244E-01-6.85506E-14 2.95748E-13
 -1      3532 1.99679E+01 2.38561E-01-1.44152E-03 2.44673E-01-8.03626E-14 4.01308E-13
 -1      3533 1.99654E+01 2.73126E-01 8.12317E-04 2.84224E-01-3.68192E-14 3.97358E-13
 -1      3534 1.98932E+01 3.31075E-01 1.33150E-03 2.89220E-01-2.15566E-13 5.10782E-13
 -1      3535 1.99870E+01 1.81825E-01-1.08297E-03 1.81697E-01-1.96100E-13 7.08596E-13
 -1      3536 1.99874E+01 2.09156E-01 7.43207E-04 2.12950E-01-1.55207E-13 5.27725E-13
 -1      3537 1.99362E+01 2.55168E-01 8.73054E-04 2.20031E-01-2.08005E-13 5.81621E-13
 -1      3538 1.99979E+01 1.37250E-01-8.18952E-04 1.32138E-01-1.02922E-13 9.18245E-13
 -1      3539 1.99998E+01 1.58704E-01 6.51782E-04 1.56495E-01-1.47509E-13 8.58867E-13
 -1      3540 1.99642E+01 1.94788E-01 5.58692E-04 1.64112E-01-2.89446E-13 8.29139E-13
 -1      3541 2.00037E+01 1.02528E-01-6.04813E-04 9.36732E-02 2.39179E-13 8.39236E-13
 -1      3542 2.00062E+01 1.19336E-01 5.90310E-04 1.12492E-01 1.25885E-13 9.04171E-13
 -1      3543 1.99819E+01 1.47092E-01 3.15031E-04 1.19779E-01-8.93645E-16 8.84952E-13
 -1      3544 2.00061E+01 7.56362E-02-4.46634E-04 6.43084E-02 1.56251E-13 4.94685E-13
 -1      3545 2.00089E+01 8.86743E-02 5.19320E-04 7.86849E-02 2.14674E-13 5.93644E-13
 -1      3546 1.99924E+01 1.09565E-01-8.72396E-06 8.52741E-02 3.69135E-13 8.08501E-13
 -1      3547 2.53393E+01-1.82285E+00-7.18242E-02-8.37842E-01-1.06352E-13 3.36944E-13
 -1      3548 2.52236E+01-2.89324E+00 6.26630E-02 3.76315E-01 2.60729E-14 3.65603E-13
 -1      3549 2.02435E+01 1.47543E+00 2.77331E-03-4.24703E-01-2.04981E-13-4.32067E-13
 -1      3550 2.02160E+01 1.66914E+00 1.10757E-03-5.95157E-01-2.33672E-13-4.54188E-13
 -1      3551 2.02609E+01 6.19102E-01 1.54398E-03 1.43372E-01-1.91396E-13-3.40219E-13
 -1      3552 2.02380E+01 5.23569E-01-1.09906E-03 2.39823E-01-1.80307E-13-3.47379E-13
 -1      3553 2.02271E+01 5.59572E-01-9.92218E-05 2.58892E-01-1.45467E-13-3.00812E-13
 -1      3554 1.56607E+01-2.21493E+00 5.68903E-02 5.43649E+00 3.22291E-13-1.31062E-13
 -1      3555 1.35016E+01-9.70771E-01 5.43691E-02 4.53427E+00 2.89279E-13-3.68643E-13
 -1      3556 1.99706E+01 9.06987E-02-6.99236E-05-1.13476E-02 1.68040E-13-5.75315E-13
 -1      3557 1.99691E+01 9.21018E-02-2.41401E-04-4.59961E-03 3.60638E-13-5.63546E-13
 -1      3558 1.99667E+01 1.01700E-01 3.73861E-04-1.81766E-02 2.01128E-13-4.64445E-13
 -1      3559 1.52020E+01-5.18711E-01 4.41730E-02-3.87219E+00-7.52245E-14-3.55077E-13
 -1      3560 1.83857E+01 1.22879E+00-1.39731E-02 1.52926E+00-4.15770E-14-1.03337E-13
 -1      3561 1.81823E+01 1.25287E+00 2.33998E-03 1.70081E+00-8.20740E-14-1.03267E-13
 -1      3562 1.81303E+01 1.35408E+00 1.57022E-02 1.23580E+00 4.25820E-16 5.47511E-14
 -1      3563 2.10312E+01-3.24787E+00 9.02418E-02-3.93920E+00 2.57682E-13-3.59786E-13
 -1      3564 2.26664E+01-3.68954E+00-4.99519E-02-2.87529E+00 3.09599E-13-4.29193E-13
 -1      3565 2.02862E+01 8.81662E-01 6.84477E-04-7.70413E-02-1.84581E-13-3.41189E-13
 -1      3566 2.02702E+01 7.37286E-01-1.86977E-03 4.78363E-02-1.84902E-13-3.53479E-13
 -1      3567 2.02663E+01 7.72760E-01 4.71762E-04 8.25371E-02-1.89119E-13-3.63063E-13
 -1      3568 1.99881E+01 7.08272E-02 1.04061E-04-3.43021E-02 8.87539E-14-1.99910E-13
 -1      3569 1.99824E+01 7.61142E-02-3.43833E-04-3.07016E-02 9.30380E-14-1.94934E-13
 -1      3570 1.99759E+01 9.11157E-02 2.99503E-04-3.28383E-02 1.06050E-13-3.17759E-13
 -1      3571 1.76812E+01 1.18178E+00 7.09846E-03-1.97016E+00-4.33202E-14-2.16235E-13
 -1      3572 1.79205E+01 1.20235E+00-1.70576E-02-1.78133E+00-7.06822E-14-2.35600E-13
 -1      3573 1.76610E+01 1.35568E+00 1.94947E-02-1.42509E+00-1.05525E-13-2.96175E-13
 -1      3574 1.97675E+01 6.23136E-01 2.77408E-04-8.60780E-01 5.54643E-14-1.64121E-13
 -1      3575 1.98246E+01 5.67456E-01-3.12990E-03-7.80523E-01 7.80768E-14-1.86297E-13
 -1      3576 1.15871E+01 1.13870E+00 4.20670E-02 2.66415E-01 1.54895E-13 1.85178E-13
 -1      3577 1.17690E+01 1.03661E+00 2.41307E-02-1.17464E+00 1.44746E-13-4.68375E-14
 -1      3578 1.40868E+01 3.01077E-01 6.45743E-02 3.10849E+00-2.71349E-13 2.88096E-13
 -1      3579 1.24066E+01 1.05078E+00 7.30020E-02 1.59650E+00 2.70860E-14 1.73750E-13
 -1      3580 1.41525E+01 1.84398E-01 8.28269E-02-3.28293E+00-6.82093E-14-4.22391E-13
 -1      3581 1.62087E+01-5.37566E-02 5.26408E-02-3.45104E+00-4.77032E-14-3.14557E-13
 -1      3582 1.63311E+01 4.74231E-01-4.32171E-03-2.98510E+00-5.43723E-14-2.83823E-13
 -1      3583 1.33823E+01 5.86946E-01 2.31222E-02-2.54067E+00-5.10841E-14-4.50084E-13
 -1      3584 1.27891E+01 5.40964E-01 6.74548E-02-2.69364E+00-5.43142E-14 1.30840E-13
 -1      3585 1.42924E+01-5.79214E-01-1.77196E-02-4.09529E+00 1.27068E-13 2.41182E-13
 -1      3586 1.92525E+01 9.58031E-01-7.52992E-03 1.03554E+00 1.12135E-14-6.16580E-14
 -1      3587 1.91370E+01 1.04274E+00-3.70312E-04 1.15479E+00 7.46618E-14-1.53356E-13
 -1      3588 1.86910E+01 1.19950E+00 1.15540E-02 1.03870E+00 6.45849E-14 1.77210E-13
 -1      3589 1.90973E+01 1.01860E+00 8.43781E-03 8.71046E-01-8.34744E-14 2.50005E-13
 -1      3590 2.53184E+01-1.27124E+00 3.39934E-02 1.21731E+00 1.82458E-13-2.53254E-13
 -1      3591 2.49345E+01 1.55239E-01-4.42146E-02 1.83563E+00 5.48971E-14-2.38806E-13
 -1      3592 2.37334E+01 1.05246E-01-2.29081E-02 1.67200E+00-2.77361E-14-2.02846E-13
 -1      3593 2.47103E+01-1.87253E+00-3.77404E-03 6.33754E-01 1.64649E-13-1.39631E-13
 -1      3594 1.98002E+01 6.15824E-01 3.07957E-03-6.84239E-01 4.43514E-14-2.33264E-13
 -1      3595 1.99221E+01 5.24679E-01 3.07661E-04-7.15586E-01 6.37696E-14-2.16173E-13
 -1      3596 1.99653E+01 4.92611E-01-1.72713E-03-6.39122E-01 7.06399E-14-2.14130E-13
 -1      3597 2.18618E+01-3.77313E+00-1.43345E-02 3.71019E+00 1.92834E-13 1.75464E-13
 -1      3598 2.07079E+01-3.30794E+00 2.73663E-02 4.03461E+00 2.00607E-13 1.43186E-13
 -1      3599 2.25096E+01-3.34098E+00 3.16460E-02 2.70164E+00 1.71022E-13 1.12486E-13
 -1      3600 2.00328E+01-2.57877E+00 3.44051E-02-3.74501E+00 2.30416E-13-2.70759E-13
 -1      3601 2.46563E+01-5.75050E-01-1.13253E-02-1.52402E+00-6.17085E-14 7.75855E-14
 -1      3602 2.02728E+01 1.23576E+00-1.54077E-03-3.13456E-01-2.04404E-13-4.01917E-13
 -1      3603 2.02754E+01 1.04865E+00-1.77268E-03-1.74925E-01-1.81385E-13-3.72792E-13
 -1      3604 2.02711E+01 1.07588E+00 9.20002E-04-1.15442E-01-1.67661E-13-3.73625E-13
 -1      3605 2.02241E+01 1.48481E+00 1.78412E-03-3.22812E-01-1.68935E-13-4.33433E-13
 -1      3606 2.00800E+01 4.11527E-01-1.89429E-05-5.77014E-01 1.31023E-13-2.28400E-13
 -1      3607 2.38097E+01-5.53865E-01-4.12936E-03 1.57636E+00 7.90062E-14-1.99877E-13
 -1      3608 2.50829E+01 3.04236E+00-3.41426E-02-1.70884E+00-1.17156E-13-9.30922E-14
 -1      3609 1.99962E+01 6.43120E-02-2.78020E-04 3.75455E-02 1.50531E-13 6.63612E-14
 -1      3610 2.00011E+01 5.84750E-02 6.78291E-05 3.78349E-02 2.27220E-13 2.31452E-13
 -1      3611 2.00003E+01 6.52383E-02 1.95282E-04-4.86261E-02-1.01058E-13-5.62624E-13
 -1      3612 2.00005E+01 5.67222E-02-1.19001E-04-4.05531E-02 2.77319E-14-5.39072E-13
 -1      3613 1.99972E+01 6.02964E-02-5.76940E-05-3.92126E-02 3.14807E-14-3.11022E-13
 -1      3614 1.99913E+01 7.94599E-02 1.94058E-04-5.22813E-02-8.39925E-14-4.68980E-13
 -1      3615 2.02012E+01 5.67736E-01-1.37857E-03-2.44244E-01 2.24225E-13-2.24152E-13
 -1      3616 2.02350E+01 6.44152E-01 1.94330E-03-1.35042E-01 2.22297E-13-2.33915E-13
 -1      3617 1.61365E+01-7.72293E-01 4.92257E-02-3.83143E+00 2.06012E-13-4.50785E-14
 -1      3618 2.42142E+01-1.19267E+00-2.60022E-02 1.23988E+00 6.92588E-14-1.06107E-13
 -1      3619 1.89022E+01 1.06047E+00 1.01134E-02-1.07381E+00 3.77411E-16-2.49270E-13
 -1      3620 1.92687E+01 9.20059E-01-2.71442E-04-1.19270E+00-5.12854E-14-1.86660E-13
 -1      3621 1.93818E+01 8.36203E-01-6.49400E-03-1.09170E+00-2.37335E-14-1.64436E-13
 -1      3622 1.55664E+01 9.45928E-01 2.60343E-02-2.40152E+00-2.37020E-14-2.67716E-13
 -1      3623 2.02421E+01 1.37817E+00-6.39304E-04 3.37454E-01 2.91966E-13-3.04949E-13
 -1      3624 1.29787E+01 9.22218E-01 5.64693E-02-1.91352E+00-4.87054E-14 8.07531E-14
 -1      3625 1.42935E+01 6.90168E-01 6.07102E-03-2.33181E+00-1.73958E-14 1.21004E-13
 -1      3626 1.34117E+01 1.20142E+00 3.13287E-03-1.07614E+00 6.14274E-14 2.33417E-13
 -1      3627 1.75363E+01-2.42710E+00 6.54070E-02 4.92738E+00 3.08135E-13-5.10911E-14
 -1      3628 1.28387E+01-1.96287E-01 1.13948E-01 3.82034E+00 2.09520E-13-4.62602E-13
 -1      3629 1.23405E+01 3.16860E-01 3.21259E-02 2.77380E+00 1.58186E-13-4.61145E-13
 -1      3630 1.45373E+01-6.86277E-01 3.95447E-02 4.06188E+00 2.85268E-13-2.75453E-13
 -1      3631 1.68469E+01 1.03182E+00 5.07125E-03 2.40069E+00-1.20055E-13-6.69031E-14
 -1      3632 1.65388E+01 6.22728E-01-7.12438E-03 2.80191E+00-1.22400E-13 1.32930E-13
 -1      3633 2.00079E+01 6.53638E-02 3.68688E-04 5.23264E-02 2.68820E-14 3.67031E-13
 -1      3634 1.99971E+01 8.05564E-02-3.11661E-04 5.74766E-02 1.77701E-13 3.45208E-13
 -1      3635 2.00057E+01 5.56739E-02-1.73384E-04 4.18093E-02 2.82567E-14 3.94354E-13
 -1      3636 2.00079E+01 4.56925E-02 6.87637E-05 3.43806E-02 2.30823E-13 5.15405E-13
 -1      3637 1.99938E+01 6.31523E-02-2.13345E-04-3.73237E-02-3.18003E-14-3.25501E-14
 -1      3638 1.96371E+01 6.86018E-01-4.66729E-03-9.28688E-01 2.62124E-14-1.48353E-13
 -1      3639 1.95836E+01 7.30554E-01 4.76849E-03-8.08771E-01 4.28005E-14-1.81660E-13
 -1      3640 1.95572E+01 7.59792E-01 3.18024E-05-1.01743E+00-3.14654E-14-1.55765E-13
 -1      3641 1.99833E+01 7.81274E-02-4.08252E-04 3.06070E-02 2.72982E-13-2.26598E-13
 -1      3642 1.99896E+01 7.31228E-02 1.45962E-04 3.45648E-02 2.27069E-13-3.12942E-13
 -1      3643 1.99918E+01 7.83949E-02 4.89507E-04 4.22381E-02 3.03122E-13-1.04828E-13
 -1      3644 1.99692E+01 9.27824E-02-1.77899E-04 4.01411E-03 3.51639E-13-2.16167E-13
 -1      3645 1.99706E+01 9.17828E-02-1.43982E-04 1.07856E-02 2.08695E-13 1.28854E-13
 -1      3646 1.99633E+01 1.06249E-01 3.85578E-04-7.27534E-04 2.74930E-13-3.03028E-13
 -1      3647 2.35569E+01-3.38453E+00 3.75009E-02-1.95559E+00 4.03943E-13-1.13960E-13
 -1      3648 2.37728E+01-2.91671E+00-1.59114E-02-9.30816E-01 2.58586E-13-5.13754E-14
 -1      3649 2.24233E+01-3.03105E+00-2.21246E-03-2.27922E+00 2.62926E-13-1.57491E-13
 -1      3650 1.77136E+01 1.22330E+00-1.76106E-02 1.88199E+00-7.20479E-14-1.68513E-13
 -1      3651 1.74695E+01 1.13344E+00 6.33654E-03 2.12285E+00-1.61895E-13-7.61985E-14
 -1      3652 1.63153E+01 1.28298E+00 2.00305E-02 1.89662E+00-5.13591E-14-1.29937E-13
 -1      3653 1.73602E+01 1.42600E+00 2.11965E-02 1.49651E+00-2.20007E-13-1.39879E-13
 -1      3654 2.01296E+01 4.84538E-01-5.14532E-04-4.20682E-01 1.84074E-13-2.01365E-13
 -1      3655 2.01637E+01 5.16471E-01 8.25321E-04-3.31349E-01 2.08459E-13-2.22706E-13
 -1      3656 2.01841E+01 6.28707E-01 7.94924E-04-2.56585E-01 2.17484E-13-2.54235E-13
 -1      3657 2.41531E+01-3.08758E+00-9.63696E-03 9.90855E-01 2.53408E-14 2.85811E-13
 -1      3658 2.01316E+01 1.73799E+00-4.20546E-03 2.14510E-01 2.07960E-13-4.74875E-13
 -1      3659 2.01093E+01 1.80305E+00-2.63469E-03 1.50860E-01 1.64755E-13-4.84862E-13
 -1      3660 1.66805E+01 1.34421E+00 2.26868E-02-1.71666E+00-3.25451E-14-2.27057E-13
 -1      3661 1.32677E+01 1.25269E+00 7.06393E-02 1.01793E+00 1.30199E-13 1.24373E-13
 -1      3662 1.99879E+01 7.68660E-02 4.19921E-05-4.22939E-02 6.87677E-15-2.38511E-13
 -1      3663 2.00506E+01 2.09642E+00 5.31620E-03-6.87155E-02 2.46505E-14-5.31772E-13
 -1      3664 1.07384E+01 9.27035E-01 1.28212E-01-8.62542E-02 2.92067E-14-4.38725E-13
 -1      3665 1.20830E+01 1.02878E+00 6.01253E-02-9.93071E-01 2.58482E-14-4.51743E-13
 -1      3666 1.16903E+01 9.73868E-01 2.44817E-02 8.49905E-01 9.46101E-14-4.58411E-13
 -1      3667 2.00935E+01 1.84020E+00-3.64180E-03 1.04983E-01 1.44624E-13-4.85404E-13
 -1      3668 2.00864E+01 1.86070E+00-3.00114E-03 3.57402E-02 9.83394E-14-4.83584E-13
 -1      3669 2.01625E+01 1.61223E+00 5.97216E-03 9.25230E-02 1.43562E-13-4.63060E-13
 -1      3670 1.57877E+01 1.21983E-01 3.34805E-02 3.23260E+00-2.60173E-13 2.97921E-13
 -1      3671 2.01578E+01 1.68729E+00-6.97401E-04-2.26838E-01-1.04173E-13-4.78337E-13
 -1      3672 2.01896E+01 1.57917E+00-3.34241E-03-2.82975E-01-1.50656E-13-4.53867E-13
 -1      3673 2.02343E+01 1.36345E+00 2.57305E-03-1.83277E-01-1.70028E-13-4.42626E-13
 -1      3674 1.99832E+01 8.64272E-02-3.35540E-04-4.90669E-02 9.65127E-14-3.90670E-13
 -1      3675 2.50449E+01-1.42006E+00-3.11756E-02-1.16003E+00-1.06617E-13 2.79266E-13
 -1      3676 2.43193E+01-1.87586E+00 3.86329E-03-6.17535E-01-6.29722E-14 2.39010E-13
 -1      3677 2.00940E+01 4.00878E-01-1.87887E-04 4.69768E-01-6.96747E-14-2.63506E-13
 -1      3678 2.00660E+01 3.61465E-01 9.85458E-04 5.32026E-01-6.52059E-14-2.81359E-13
 -1      3679 2.00172E+01 3.25118E-01-3.80554E-04 5.94659E-01-5.29980E-14-2.65962E-13
 -1      3680 1.99983E+01 2.89950E-01 1.89524E-03 6.55206E-01-1.80651E-14-2.50873E-13
 -1      3681 1.99929E+01 3.97140E-01-3.37050E-04 5.31404E-01-4.50341E-14-2.21538E-13
 -1      3682 1.99546E+01 2.50209E-01-2.71330E-04 7.23830E-01 8.39665E-15-2.37670E-13
 -1      3683 1.99530E+01 2.04891E-01 2.84395E-03 7.85454E-01-1.00869E-14-2.12297E-13
 -1      3684 1.98999E+01 3.23543E-01-1.17236E-03 6.65406E-01 4.19701E-15-2.26412E-13
 -1      3685 1.99255E+01 1.47243E-01 3.13182E-04 8.63235E-01-3.47641E-14-2.07430E-13
 -1      3686 1.99520E+01 7.64778E-02 3.81942E-03 9.26303E-01-5.19563E-15-2.15513E-13
 -1      3687 1.98273E+01 2.30411E-01-2.40431E-03 8.16916E-01-2.46954E-14-1.90733E-13
 -1      3688 1.99559E+01-1.42529E-02 1.59660E-03 1.01394E+00-1.04787E-14-2.27869E-13
 -1      3689 2.00250E+01-1.26288E-01 4.68946E-03 1.07514E+00-1.72869E-14-2.07748E-13
 -1      3690 1.97995E+01 8.47897E-02-4.33761E-03 9.91549E-01-2.01077E-14-1.74289E-13
 -1      3691 2.00824E+01-2.64841E-01 3.94222E-03 1.16900E+00-2.20787E-14-1.83690E-13
 -1      3692 2.02121E+01-4.32963E-01 5.14570E-03 1.21920E+00-1.12302E-14-1.20262E-13
 -1      3693 1.98507E+01-1.48462E-01-7.34121E-03 1.18905E+00-8.00759E-15-1.37941E-13
 -1      3694 2.03542E+01-6.30576E-01 8.05765E-03 1.30711E+00-4.17884E-15-7.75467E-14
 -1      3695 2.05634E+01-8.64088E-01 4.38834E-03 1.32787E+00-2.85164E-14-6.13647E-14
 -1      3696 2.00295E+01-5.04616E-01-1.17365E-02 1.39777E+00 2.50740E-14-2.13147E-14
 -1      3697 2.08312E+01-1.12094E+00 1.42530E-02 1.38124E+00-5.83140E-14-6.98975E-14
 -1      3698 2.11350E+01-1.41019E+00 1.93484E-03 1.33990E+00-8.56953E-14-3.27867E-14
 -1      3699 2.04033E+01-1.00959E+00-1.72601E-02 1.58259E+00-1.53385E-14-6.00024E-14
 -1      3700 2.15688E+01-1.70106E+00 2.10840E-02 1.30895E+00-6.47882E-14-8.46762E-16
 -1      3701 2.19591E+01-1.99860E+00-6.62445E-03 1.15989E+00-5.93627E-14 5.27607E-14
 -1      3702 2.10471E+01-1.65194E+00-2.43649E-02 1.66551E+00-6.02228E-14-1.45973E-14
 -1      3703 2.25892E+01-2.23404E+00 2.68751E-02 9.43610E-01-2.66358E-14 5.24815E-14
 -1      3704 2.29977E+01-2.40563E+00-1.12924E-02 6.59190E-01-5.01532E-14 1.62956E-13
 -1      3705 2.20591E+01-2.35508E+00-3.01304E-02 1.51919E+00 4.93551E-15 6.20066E-14
 -1      3706 2.39884E+01-2.26099E+00 6.27160E-03-1.34135E-01-4.35979E-14 2.20003E-13
 -1      3707 2.02499E+01 1.16680E+00-2.10168E-03-1.08788E-01-1.53179E-13-4.09476E-13
 -1      3708 2.02599E+01 1.00471E+00 4.51128E-04-1.35660E-02-1.52345E-13-3.84575E-13
 -1      3709 2.02273E+01 1.26907E+00-2.71653E-04-8.51164E-02-1.20930E-13-4.29907E-13
 -1      3710 1.99724E+01 1.00327E-01 2.28208E-04-4.28010E-02-1.33142E-13-2.74463E-13
 -1      3711 1.99650E+01 1.06169E-01-3.90296E-04-3.60934E-02-3.69497E-14-3.07875E-13
 -1      3712 2.00885E+01 1.85780E+00-2.87649E-03-1.35441E-02 6.04501E-14-4.88964E-13
 -1      3713 2.00966E+01 1.83418E+00-3.44882E-03-8.38924E-02 1.17963E-15-4.91552E-13
 -1      3714 2.01503E+01 1.64644E+00 5.52605E-03 1.31921E-02 7.68020E-14-4.46223E-13
 -1      3715 2.02465E+01 8.03792E-01 8.67495E-04-5.84678E-02 2.28805E-13-2.84707E-13
 -1      3716 2.02539E+01 7.47841E-01-1.85729E-03-2.49383E-02 2.30347E-13-2.48835E-13
 -1      3717 2.31187E+01-2.46621E+00-1.29199E-02-6.81237E-01 1.88520E-13-6.29271E-16
 -1      3718 2.26576E+01-2.31249E+00 1.56475E-02-9.81210E-01 2.38201E-13 7.65945E-14
 -1      3719 2.18504E+01-1.89302E+00-3.46447E-03-1.13510E+00 1.33663E-13 1.21649E-13
 -1      3720 2.14604E+01-1.58249E+00 2.23762E-02-1.26508E+00 1.03023E-13 1.06407E-13
 -1      3721 2.10306E+01-1.29262E+00 1.96329E-03-1.28174E+00-6.40808E-14 1.59760E-13
 -1      3722 2.07221E+01-1.00294E+00 1.22161E-02-1.31125E+00-1.05492E-13 1.37757E-13
 -1      3723 2.09260E+01-1.53056E+00-2.72273E-02-1.61636E+00 1.10197E-14 6.22804E-14
 -1      3724 2.04564E+01-7.43351E-01 4.58761E-03-1.24513E+00-1.59586E-13 1.41628E-13
 -1      3725 2.02436E+01-5.11309E-01 7.55570E-03-1.21426E+00-1.89770E-13 1.77577E-13
 -1      3726 2.02810E+01-8.75561E-01-1.70287E-02-1.50497E+00-1.90544E-13 1.80005E-13
 -1      3727 2.00948E+01-3.14970E-01 4.78577E-03-1.11891E+00-3.13299E-13 6.80264E-14
 -1      3728 1.99592E+01-1.49090E-01 3.58761E-03-1.06005E+00-4.33267E-13 1.59378E-15
 -1      3729 1.99029E+01-3.77638E-01-1.09661E-02-1.30581E+00-3.02842E-13 9.19094E-14
 -1      3730 1.98903E+01-1.39663E-02 4.35371E-03-9.59664E-01-2.97864E-13-3.41489E-14
 -1      3731 1.98114E+01 9.28164E-02 1.20487E-03-8.91566E-01-6.11505E-14-9.50838E-15
 -1      3732 1.97051E+01-2.72451E-02-6.59254E-03-1.08530E+00-3.36810E-13 1.94240E-13
 -1      3733 1.97920E+01 1.76249E-01 3.53430E-03-7.99008E-01-1.42003E-14-1.23271E-13
 -1      3734 1.97519E+01 2.36840E-01-1.39263E-04-7.31651E-01-5.83248E-14-1.94698E-13
 -1      3735 1.96265E+01 1.93556E-01-3.59783E-03-8.78564E-01-1.46294E-13 1.17040E-13
 -1      3736 1.97608E+01 2.81140E-01 2.69972E-03-6.51421E-01-1.92923E-14-2.56651E-13
 -1      3737 1.97453E+01 3.08368E-01-8.49820E-04-5.89499E-01 1.98005E-14-2.44980E-13
 -1      3738 1.96193E+01 3.15690E-01-1.73441E-03-6.98966E-01-3.01732E-14-8.31633E-14
 -1      3739 1.97687E+01 3.25017E-01 2.01048E-03-5.22242E-01-1.85637E-14-1.92297E-13
 -1      3740 1.97676E+01 3.29714E-01-1.15851E-03-4.67715E-01-9.63910E-14-9.96856E-14
 -1      3741 1.96513E+01 3.68010E-01-5.74379E-04-5.48751E-01 2.75438E-14-1.98911E-13
 -1      3742 1.97967E+01 3.28234E-01 1.47852E-03-4.12556E-01-6.31776E-14 6.68918E-14
 -1      3743 1.98031E+01 3.18906E-01-1.23772E-03-3.65899E-01 2.18005E-14 1.47220E-13
 -1      3744 1.97017E+01 3.73709E-01 1.03470E-04-4.25974E-01 4.84710E-14-9.56019E-14
 -1      3745 1.98326E+01 3.06581E-01 1.08478E-03-3.21369E-01-9.61523E-14 3.12302E-13
 -1      3746 1.98421E+01 2.89527E-01-1.18552E-03-2.82323E-01-1.40386E-14 1.96704E-13
 -1      3747 1.97573E+01 3.50661E-01 4.31492E-04-3.27125E-01 4.07715E-14-4.20193E-14
 -1      3748 1.98691E+01 2.71684E-01 7.97196E-04-2.46829E-01 4.15072E-14 6.31631E-14
 -1      3749 1.98790E+01 2.51319E-01-1.06189E-03-2.14719E-01 5.38610E-14-9.11729E-14
 -1      3750 1.98105E+01 3.12131E-01 5.79162E-04-2.48489E-01 1.25020E-14 2.74937E-14
 -1      3751 1.99022E+01 2.31526E-01 5.92031E-04-1.86704E-01 1.24083E-13-9.84874E-14
 -1      3752 1.99112E+01 2.10668E-01-9.13776E-04-1.60714E-01 2.81510E-14-9.55077E-15
 -1      3753 1.98576E+01 2.67184E-01 6.02122E-04-1.86482E-01 5.60371E-15-1.59783E-13
 -1      3754 1.99301E+01 1.91156E-01 4.51454E-04-1.38845E-01-1.50125E-13 3.93348E-14
 -1      3755 1.99376E+01 1.71499E-01-7.55615E-04-1.18137E-01-1.13771E-13-6.43837E-14
 -1      3756 1.98968E+01 2.21616E-01 5.57160E-04-1.37978E-01 4.73866E-14 1.00650E-13
 -1      3757 1.99524E+01 1.53805E-01 4.12550E-04-1.01295E-01-7.38440E-14-1.30140E-13
 -1      3758 1.99576E+01 1.36190E-01-7.03033E-04-8.47018E-02-1.04610E-13-1.31608E-13
 -1      3759 1.99278E+01 1.78823E-01 4.09459E-04-1.00512E-01-1.37154E-13 1.61018E-13
 -1      3760 1.56843E+01-6.97724E-02 3.59536E-02-3.21165E+00 1.15046E-13-5.46507E-14
 -1      3761 1.73020E+01-1.18000E+00-4.15820E-02-3.76691E+00 1.70837E-13-4.38434E-14
 -1      3762 2.02769E+01 8.50838E-01 2.09664E-03 9.35895E-02 2.48586E-13-2.59593E-13
 -1      3763 2.02739E+01 9.87077E-01-1.21047E-03 1.35242E-01 2.57404E-13-2.69219E-13
 -1      3764 1.95024E+01 6.74187E-01-3.41894E-03 4.73353E-01-1.47259E-13 2.34789E-13
 -1      3765 1.94164E+01 7.50180E-01-1.60632E-03 5.28888E-01-1.23608E-13 3.98909E-13
 -1      3766 1.70558E+01 1.40179E+00-5.84116E-03-1.04821E+00-8.48265E-14-2.75215E-13
 -1      3767 1.74725E+01 1.34989E+00-1.46451E-02-9.70127E-01-9.77989E-14-2.47972E-13
 -1      3768 1.92181E+01-1.82938E+00 6.49357E-02-3.61074E+00 2.05722E-13-1.24408E-13
 -1      3769 2.07441E+01-2.54695E+00-2.72780E-02-3.06951E+00 2.09769E-13-3.87738E-13
 -1      3770 1.96609E+01 5.39774E-01-2.67065E-03 3.86066E-01-2.79664E-14 9.65229E-14
 -1      3771 1.96024E+01 6.04880E-01-8.46918E-04 4.35501E-01-5.97631E-14 1.68542E-13
 -1      3772 1.94634E+01 6.87043E-01 4.34380E-03 3.80160E-01-4.37007E-14 2.65805E-13
 -1      3773 2.43863E+01-2.17248E+00 9.47425E-03 3.08558E-01 1.15634E-13-1.65926E-13
 -1      3774 1.99860E+01 9.18973E-02-1.66709E-04 5.25942E-02 3.68589E-13 6.19737E-14
 -1      3775 1.99852E+01 1.06347E-01 5.97705E-04 6.53841E-02 4.43992E-13 3.08673E-13
 -1      3776 1.99772E+01 9.98537E-02-5.05161E-04 4.86577E-02 4.91527E-13-4.80767E-14
 -1      3777 1.92788E+01 8.29906E-01-4.41950E-03 5.67697E-01-2.17022E-13 4.02148E-13
 -1      3778 1.91548E+01 9.15475E-01-2.64661E-03 6.28331E-01-2.46205E-13 3.97318E-13
 -1      3779 1.92357E+01 8.43090E-01 6.02877E-03 4.43596E-01-1.67065E-13 2.57905E-13
 -1      3780 1.97724E+01 4.26890E-01-2.09707E-03 3.08170E-01-2.33061E-13 2.59715E-13
 -1      3781 1.97332E+01 4.81339E-01-3.40605E-04 3.50972E-01-1.09095E-13 2.46231E-13
 -1      3782 1.96276E+01 5.52074E-01 3.12949E-03 3.16317E-01-1.67072E-13 1.69953E-13
 -1      3783 1.98502E+01 3.33859E-01-1.64461E-03 2.40919E-01-2.45377E-13 4.20162E-13
 -1      3784 1.98244E+01 3.78581E-01-2.59474E-05 2.76994E-01-2.89655E-13 3.52169E-13
 -1      3785 1.97451E+01 4.38045E-01 2.21460E-03 2.56209E-01-2.95847E-13 3.04279E-13
 -1      3786 1.99038E+01 2.58430E-01-1.27909E-03 1.84450E-01-4.13402E-13 4.13739E-13
 -1      3787 1.98872E+01 2.94611E-01 1.47420E-04 2.14188E-01-2.87254E-13 3.45793E-13
 -1      3788 1.98287E+01 3.43577E-01 1.55574E-03 2.02506E-01-2.86524E-13 2.26118E-13
 -1      3789 1.99403E+01 1.97931E-01-9.94160E-04 1.38124E-01-3.18172E-13 5.68570E-13
 -1      3790 1.99299E+01 2.26927E-01 2.38755E-04 1.62147E-01-3.61223E-13 5.31013E-13
 -1      3791 1.98874E+01 2.66570E-01 1.08991E-03 1.56280E-01-4.71368E-13 2.68468E-13
 -1      3792 1.99648E+01 1.50053E-01-6.88561E-04 1.01107E-01 2.95248E-13 3.18093E-13
 -1      3793 1.99586E+01 1.73002E-01 3.18780E-04 1.19993E-01-1.31883E-14 5.11429E-13
 -1      3794 1.99281E+01 2.04367E-01 7.07550E-04 1.17723E-01-1.10734E-13 1.81669E-13
 -1      3795 1.99782E+01 1.17985E-01-3.10021E-04 7.51506E-02 3.74313E-13 3.22273E-13
 -1      3796 1.99743E+01 1.35994E-01 4.01669E-04 8.96867E-02 3.67407E-13 3.72728E-13
 -1      3797 1.99520E+01 1.60679E-01 3.03614E-04 8.90726E-02 3.11243E-13-1.36495E-13
 -1      3798 1.99657E+01 1.30714E-01 6.73822E-05 6.85864E-02 3.63372E-13-5.92590E-14
 -1      3799 1.99734E+01 1.03192E-01-2.29297E-04-5.34400E-02-1.20768E-13-2.82142E-13
 -1      3800 1.99593E+01 1.13398E-01-1.70414E-05-2.65032E-02 9.03093E-14-3.78009E-13
 -1      3801 1.99551E+01 1.16997E-01-3.29637E-04-1.77540E-02 1.67390E-13-6.25719E-13
 -1      3802 1.99558E+01 1.24556E-01 5.26084E-04-3.67487E-02-1.01839E-13-4.25789E-13
 -1      3803 2.00387E+01 4.74929E-01 5.54674E-05-5.72850E-01 1.04499E-13-2.09994E-13
 -1      3804 2.00750E+01 4.71625E-01-4.12560E-04-4.93952E-01 1.53140E-13-2.06182E-13
 -1      3805 1.99642E+01 5.52261E-01 1.86172E-03-5.57046E-01 9.96192E-14-2.28395E-13
 -1      3806 1.79235E+01 1.28618E+00-6.54946E-03-9.54261E-01-8.14012E-14-2.44897E-13
 -1      3807 1.82379E+01 1.20572E+00-9.69484E-03-8.93628E-01-2.99087E-14-2.40131E-13
 -1      3808 1.74990E+01 1.38551E+00 2.03831E-02-6.07867E-01-6.56437E-14-1.50828E-13
 -1      3809 2.02312E+01 6.65884E-01 2.18045E-06 1.95015E-01-1.43561E-13-2.95617E-13
 -1      3810 2.02052E+01 5.77205E-01-6.02315E-04 2.75240E-01-9.46744E-14-2.72532E-13
 -1      3811 2.01957E+01 1.55062E+00-4.59091E-03 3.06350E-01 2.73509E-13-3.78750E-13
 -1      3812 2.01615E+01 1.66083E+00-2.22262E-03 2.52930E-01 2.32035E-13-4.36986E-13
 -1      3813 2.01998E+01 1.49514E+00 5.61450E-03 1.60268E-01 2.26204E-13-4.26313E-13
 -1      3814 1.79304E+01 1.34760E+00-1.17380E-02 8.66553E-01 3.18604E-14 1.21500E-13
 -1      3815 1.75960E+01 1.41720E+00-6.90633E-03 9.47631E-01-1.47062E-13 5.01324E-14
 -1      3816 2.02607E+01 8.79639E-01-4.59807E-04 4.65833E-02-1.53739E-13-3.55558E-13
 -1      3817 2.02459E+01 7.51170E-01-7.41164E-04 1.40684E-01-1.59968E-13-3.38532E-13
 -1      3818 2.02237E+01 7.73026E-01 1.26438E-03 1.57939E-01-1.01400E-13-2.77160E-13
 -1      3819 2.02430E+01 9.72264E-01-4.57333E-05 4.48906E-02-1.11811E-13-3.57654E-13
 -1      3820 2.01114E+01 1.80460E+00-2.16024E-03-1.22628E-01-2.93802E-14-4.70899E-13
 -1      3821 2.01336E+01 1.73941E+00-3.60942E-03-1.89293E-01-6.52077E-14-4.80092E-13
 -1      3822 2.01927E+01 1.52264E+00 4.49473E-03-1.22094E-01-9.04241E-14-4.45950E-13
 -1      3823 2.01649E+01 1.60995E+00 5.57689E-03-5.99571E-02-1.47489E-14-4.42390E-13
 -1      3824 2.39030E+01-2.48047E+00 2.33769E-03-2.00674E-01 1.12795E-13-1.60020E-13
 -1      3825 1.58672E+01 1.40830E+00 1.08895E-02-1.20623E+00-4.82561E-14-2.98352E-13
 -1      3826 1.64102E+01 1.41760E+00-1.93599E-02-1.08527E+00-5.58750E-14-2.89953E-13
 -1      3827 1.64459E+01 1.50568E+00 2.71283E-02-5.73799E-01-5.93759E-14-2.63694E-13
 -1      3828 1.31543E+01 1.07439E+00 7.19406E-02-1.62392E+00 1.92212E-14-3.86410E-13
 -1      3829 1.46507E+01 1.00426E+00 4.17204E-02-2.07342E+00-1.43358E-14-3.16901E-13
 -1      3830 1.50993E+01 1.26972E+00-2.07764E-02-1.58007E+00 1.16198E-14-2.67259E-13
 -1      3831 1.32997E+01 1.26372E+00-1.11184E-02-7.18740E-01 9.42367E-14-4.07233E-13
 -1      3832 1.89784E+01-2.73267E+00 1.64669E-03 4.51201E+00 2.47795E-13 4.24313E-15
 -1      3833 1.70373E+01-1.72535E+00 2.47379E-02 4.42238E+00 2.86679E-13-1.23145E-13
 -1      3834 2.01700E+01 5.05117E-01 7.51821E-05 3.40077E-01-7.98916E-14-2.58633E-13
 -1      3835 2.01395E+01 4.47736E-01 7.43748E-05 4.08587E-01-7.60769E-14-2.82924E-13
 -1      3836 2.01723E+01 6.05384E-01 6.79904E-04 2.79630E-01-7.95203E-14-2.52766E-13
 -1      3837 2.02575E+01 1.24452E+00 4.00371E-03 2.15373E-01 2.68673E-13-3.06156E-13
 -1      3838 2.37183E+01-2.64285E+00-1.86575E-02 5.53356E-01-1.43080E-14 2.66218E-13
 -1      3839 2.30722E+01-3.09952E+00 1.52674E-02 1.79734E+00 9.59476E-14 1.80956E-13
 -1      3840 1.99734E+01 8.89643E-02-2.74021E-04 1.89185E-02 3.91392E-13 2.82844E-13
 -1      3841 1.99777E+01 8.57494E-02 3.83209E-05 2.47490E-02 2.76614E-13 3.84615E-14
 -1      3842 1.99666E+01 1.04124E-01 4.15612E-04 1.70528E-02 2.39601E-13 1.16700E-13
 -1      3843 2.00885E+01 4.81586E-01 2.67550E-04 4.06176E-01-6.64839E-14-2.45326E-13
 -1      3844 1.99461E+01 1.34731E-01 4.34860E-04-1.43908E-02-5.08913E-14-6.03104E-13
 -1      3845 1.99531E+01 1.20175E-01-1.38725E-04-6.24429E-03 1.22697E-13-5.51161E-13
 -1      3846 1.99526E+01 1.20493E-01-3.66865E-04 3.10753E-03 7.97968E-14-9.96710E-14
 -1      3847 1.96819E+01 6.72133E-01-1.63013E-03-6.16773E-01 3.02745E-14-2.15918E-13
 -1      3848 1.97787E+01 6.29459E-01-2.13492E-03-5.59048E-01 5.14900E-14-2.25734E-13
 -1      3849 2.02270E+01 8.19601E-01-2.09431E-03-9.60037E-02 2.36600E-13-3.14386E-13
 -1      3850 2.02528E+01 9.41622E-01 2.23770E-04 1.41241E-02 2.27204E-13-3.09568E-13
 -1      3851 2.20963E+01-2.35744E+00-2.54561E-02-1.52363E+00 2.02641E-13 4.17895E-14
 -1      3852 1.85467E+01-1.17040E+00 3.52857E-02-3.21033E+00 1.08890E-13-1.26475E-13
 -1      3853 1.54093E+01 3.85658E-01 2.97801E-02-2.70922E+00 5.97189E-14 1.80160E-14
 -1      3854 1.65852E+01 8.25236E-02 1.46419E-02-2.69422E+00-2.30805E-15-6.99545E-14
 -1      3855 1.52762E+01 7.57907E-01-1.26709E-02-2.03393E+00 9.62494E-14 4.40715E-14
 -1      3856 1.99687E+01 1.17564E-01 1.88621E-04-6.54512E-02-1.98411E-13-1.25683E-13
 -1      3857 1.94106E+01 7.92638E-01-2.37480E-03-7.09296E-01 3.11022E-14-2.29518E-13
 -1      3858 1.95390E+01 7.26744E-01-3.34215E-03-6.53952E-01 3.64250E-14-2.46545E-13
 -1      3859 1.95490E+01 7.50464E-01 4.77703E-03-5.24849E-01 4.18130E-14-2.62006E-13
 -1      3860 2.01858E+01-2.64369E+00 4.15928E-02 3.73106E+00 1.72582E-13 2.33381E-14
 -1      3861 2.02484E+01 1.15842E+00-5.42560E-04 1.30252E-01 2.42773E-13-3.10845E-13
 -1      3862 1.85694E+01 1.12163E+00-4.90040E-03-8.75454E-01-1.91302E-15-2.53328E-13
 -1      3863 1.88025E+01 1.03349E+00-6.59847E-03-8.20202E-01 1.32902E-15-2.21102E-13
 -1      3864 1.82479E+01 1.21963E+00 1.41266E-02-6.22404E-01-1.30080E-14-2.27615E-13
 -1      3865 1.36689E+01 1.46182E+00 3.85926E-02-8.36794E-02 1.13507E-14 2.58715E-13
 -1      3866 1.44306E+01 1.32684E+00 1.26022E-02-7.63267E-01-8.27307E-14 2.76646E-13
 -1      3867 1.61374E+01-1.09353E+00 4.69529E-02 4.21983E+00 2.76716E-13-1.31277E-13
 -1      3868 1.51880E+01-4.59527E-01 5.33592E-03 3.62589E+00 2.34115E-13-2.15068E-13
 -1      3869 1.76286E+01-1.37732E+00 3.85522E-02 3.87114E+00 2.18668E-13-8.95135E-14
 -1      3870 2.00896E+01 5.51704E-01 1.08206E-03-4.18356E-01 1.72788E-13-1.96266E-13
 -1      3871 1.92935E+01 8.84272E-01 7.07601E-03-9.36880E-01-3.81989E-15-1.67212E-13
 -1      3872 1.99771E+01 9.40447E-02 4.71394E-04 3.22431E-02 3.91902E-13-6.31854E-14
 -1      3873 2.02130E+01 1.26815E+00-3.10347E-03 1.06691E-01 2.27491E-13-3.84605E-13
 -1      3874 2.01928E+01 1.34958E+00-1.37782E-03 8.52580E-02 1.94473E-13-4.26271E-13
 -1      3875 1.35320E+01 5.05466E-01 9.56519E-03 2.49749E+00 1.86046E-13-3.99084E-13
 -1      3876 1.24760E+01 9.27458E-01 1.00364E-01 1.78321E+00 1.33511E-13-4.97252E-13
 -1      3877 1.29677E+01 1.13557E+00 3.09066E-02 8.10431E-01 1.21157E-13-4.06883E-13
 -1      3878 2.01967E+01 7.25861E-01 1.31283E-04-1.75312E-01 1.84291E-13-2.80596E-13
 -1      3879 2.02049E+01 8.57664E-01 1.69911E-03-1.08101E-01 1.99200E-13-3.24058E-13
 -1      3880 2.01548E+01 6.58042E-01-1.60593E-03-2.63546E-01 1.66387E-13-2.56350E-13
 -1      3881 1.70908E+01 1.46121E+00-1.71639E-02 9.84937E-01-1.65597E-13 1.22997E-13
 -1      3882 1.66597E+01 1.49000E+00-1.45183E-03 1.09151E+00-2.22752E-13 1.24926E-13
 -1      3883 1.70818E+01 1.53103E+00 2.47594E-02 5.83056E-01-1.10958E-13 8.90212E-14
 -1      3884 1.50626E+01 1.45580E+00 2.43743E-02-8.95486E-01-6.82505E-15-3.52575E-13
 -1      3885 1.99516E+01 1.37435E-01 1.50894E-04-6.45967E-02-1.39463E-13-1.01605E-13
 -1      3886 1.89218E+01 1.01727E+00 8.36025E-03 5.00769E-01-3.04059E-13 1.51562E-13
 -1      3887 1.89660E+01 1.00299E+00-5.84944E-03 6.65898E-01-2.23355E-13 2.57440E-13
 -1      3888 1.87902E+01 1.09389E+00-4.00271E-03 7.30772E-01-1.18155E-13 3.06928E-13
 -1      3889 1.42489E+01 1.28529E+00 1.23280E-02 1.51959E+00 5.27772E-14 9.40810E-14
 -1      3890 1.35946E+01 1.43009E+00 3.37617E-02 3.35482E-01 1.19944E-13 5.43628E-14
 -1      3891 2.01732E+01 1.39811E+00-3.74852E-03 7.58512E-02 1.72438E-13-4.42118E-13
 -1      3892 2.01628E+01 1.43704E+00-2.62511E-03 4.69751E-02 1.35231E-13-4.55339E-13
 -1      3893 2.02067E+01 1.21723E+00 4.62336E-03 3.40882E-02 1.75528E-13-4.03409E-13
 -1      3894 1.85313E+01 1.18259E+00-8.06018E-03 7.65071E-01 2.42536E-16 2.49579E-13
 -1      3895 1.82867E+01 1.27034E+00-5.58223E-03 8.34917E-01 9.40525E-14 2.09424E-13
 -1      3896 1.79006E+01 1.38115E+00 1.63634E-02 5.71585E-01-7.00720E-15 1.29272E-13
 -1      3897 1.84910E+01 1.20153E+00 1.16102E-02 5.45199E-01-1.18351E-13 2.58240E-13
 -1      3898 2.23133E+01-2.91553E+00 1.58719E-02 2.23771E+00 1.17380E-13 1.26450E-13
 -1      3899 2.00788E+01 5.52830E-01-9.93114E-04 3.28475E-01-6.75163E-14-2.27454E-13
 -1      3900 2.00338E+01 5.05907E-01 4.76042E-04 3.90068E-01-5.04121E-14-2.24135E-13
 -1      3901 1.98416E+01 4.05016E-01-1.69723E-03 5.78637E-01-1.35269E-14-2.27363E-13
 -1      3902 1.98026E+01 3.74908E-01 2.65021E-03 6.49828E-01-1.34871E-14-2.42518E-13
 -1      3903 1.97253E+01 3.36546E-01-1.73397E-03 7.33903E-01-1.30164E-14-2.13206E-13
 -1      3904 1.97037E+01 2.91673E-01 4.08138E-03 8.16882E-01-3.46445E-15-2.13014E-13
 -1      3905 1.96646E+01 4.23649E-01-4.32953E-04 6.44238E-01-1.98270E-14-1.96680E-13
 -1      3906 1.96374E+01 2.29102E-01-1.36757E-03 9.23264E-01 1.78940E-14-1.93252E-13
 -1      3907 1.96477E+01 1.51573E-01 5.76416E-03 1.02061E+00 4.82849E-16-1.64640E-13
 -1      3908 1.95246E+01 3.40158E-01-1.50065E-03 8.37769E-01 1.96069E-14-2.23630E-13
 -1      3909 1.96089E+01 4.65881E-02-2.90764E-04 1.15365E+00 6.65301E-15-1.27499E-13
 -1      3910 1.96717E+01-8.32302E-02 7.70999E-03 1.26487E+00 4.83158E-14-8.45017E-14
 -1      3911 1.94205E+01 1.91149E-01-3.52983E-03 1.08473E+00 5.09385E-14-1.15477E-13
 -1      3912 1.96862E+01-2.50695E-01 1.95077E-03 1.42569E+00 3.96819E-14-6.76352E-14
 -1      3913 1.98292E+01-4.53752E-01 9.60575E-03 1.54293E+00 2.12245E-14-5.16257E-14
 -1      3914 1.93912E+01-6.56948E-02-7.00077E-03 1.39382E+00 6.78700E-14-7.61164E-14
 -1      3915 1.99400E+01-7.03558E-01 7.35758E-03 1.72540E+00-3.51337E-14-7.52732E-14
 -1      3916 2.02001E+01-1.00006E+00 1.12055E-02 1.82609E+00-5.13929E-14-9.77134E-14
 -1      3917 1.94944E+01-4.84277E-01-1.38253E-02 1.76882E+00-2.52221E-14-1.32607E-13
 -1      3918 2.04751E+01-1.34620E+00 1.64335E-02 1.99734E+00 3.08723E-14-9.04907E-14
 -1      3919 2.09065E+01-1.71911E+00 1.78816E-02 2.02534E+00 3.82331E-14-1.70042E-14
 -1      3920 1.98362E+01-1.10880E+00-1.92104E-02 2.17967E+00 3.97577E-15-1.69466E-13
 -1      3921 2.12094E+01-2.09008E+00 2.46447E-02 2.22162E+00 4.25490E-14 1.92489E-14
 -1      3922 2.18365E+01-2.50016E+00 1.49518E-02 2.12142E+00 1.00863E-13 1.00569E-13
 -1      3923 2.11228E+01-2.80281E+00-2.58695E-02 3.04579E+00 1.64312E-13 5.03486E-14
 -1      3924 2.03575E+01-1.89120E+00-2.86285E-02 2.61354E+00 8.88777E-14-1.42221E-14
 -1      3925 2.01608E+01 1.45022E+00-2.60703E-03 3.34398E-02 8.45865E-14-4.26005E-13
 -1      3926 2.01626E+01 1.44616E+00-2.71075E-03 6.54627E-05 3.28746E-14-3.97094E-13
 -1      3927 2.01922E+01 1.28350E+00 5.82716E-03 2.71323E-02 1.12264E-13-3.96534E-13
 -1      3928 2.02077E+01 1.31989E+00-2.68673E-03-7.48489E-02-9.52533E-14-3.93645E-13
 -1      3929 2.02317E+01 1.15488E+00 3.15058E-03-9.51248E-03-8.68558E-14-3.70181E-13
 -1      3930 2.01924E+01 1.37469E+00-1.53559E-03-4.94120E-02-4.24411E-14-3.88408E-13
 -1      3931 1.96916E+01-2.14408E+00 1.16119E-02 3.45065E+00 1.59066E-13 2.14160E-14
 -1      3932 2.00921E+01-8.57280E-01 1.57753E-02-1.74653E+00-1.91326E-13-3.79989E-14
 -1      3933 1.98162E+01-5.76074E-01 5.64948E-03-1.64611E+00-1.94327E-13 4.10072E-14
 -1      3934 1.96962E+01-3.22355E-01 9.40978E-03-1.46158E+00-2.73326E-13 1.27150E-13
 -1      3935 1.95447E+01-1.22075E-01 1.27448E-03-1.33905E+00-3.75916E-13 9.99012E-14
 -1      3936 1.93680E+01-3.40618E-01-9.30648E-03-1.69863E+00-1.84673E-13 8.88159E-14
 -1      3937 1.95190E+01 4.24824E-02 7.45006E-03-1.17471E+00-3.89105E-13 2.11006E-13
 -1      3938 1.94437E+01 1.67425E-01-8.27023E-04-1.05947E+00-3.13977E-13 2.26777E-13
 -1      3939 1.92382E+01 6.82450E-02-5.63138E-03-1.31494E+00-3.26816E-13 1.26496E-13
 -1      3940 1.94657E+01 2.65916E-01 5.44386E-03-9.24011E-01-2.54875E-13 2.05419E-13
 -1      3941 1.94394E+01 3.34194E-01-1.71374E-03-8.24330E-01-1.88343E-13 6.42684E-14
 -1      3942 1.92382E+01 3.13473E-01-2.27552E-03-1.00297E+00-2.94321E-13 1.64533E-13
 -1      3943 1.94846E+01 3.84747E-01 3.79856E-03-7.17140E-01-1.53350E-13-3.36449E-14
 -1      3944 1.94867E+01 4.13631E-01-2.08483E-03-6.34237E-01-1.34210E-13-2.41951E-14
 -1      3945 1.93033E+01 4.40470E-01-7.83594E-04-7.55295E-01-2.12342E-13 5.71136E-14
 -1      3946 1.95410E+01 4.31030E-01 2.61386E-03-5.50698E-01-1.01879E-13-1.44009E-13
 -1      3947 1.95584E+01 4.33515E-01-2.08130E-03-4.83397E-01 3.45440E-14-1.69836E-13
 -1      3948 1.93982E+01 4.89100E-01 2.47903E-04-5.64031E-01-2.16303E-13-1.41342E-13
 -1      3949 1.96132E+01 4.29366E-01 1.74788E-03-4.19385E-01 4.48557E-14-2.45524E-13
 -1      3950 1.96371E+01 4.15672E-01-1.89790E-03-3.65584E-01 5.16986E-14-1.93340E-13
 -1      3951 1.95021E+01 4.85199E-01 7.59734E-04-4.18245E-01 5.62527E-14-3.37615E-13
 -1      3952 1.96874E+01 3.98925E-01 1.14443E-03-3.16958E-01 1.26846E-13-2.25964E-13
 -1      3953 1.97126E+01 3.76303E-01-1.68531E-03-2.74240E-01 5.87554E-14-1.65095E-13
 -1      3954 1.96020E+01 4.50216E-01 1.02738E-03-3.08555E-01 8.54818E-14-2.81711E-13
 -1      3955 1.97564E+01 3.52977E-01 7.45461E-04-2.37612E-01 4.66793E-14-1.51209E-13
 -1      3956 1.97798E+01 3.26727E-01-1.42300E-03-2.04058E-01 6.35269E-14-8.28729E-14
 -1      3957 1.96913E+01 3.98791E-01 1.13952E-03-2.26068E-01 1.02921E-13-1.58641E-13
 -1      3958 1.98163E+01 3.01237E-01 4.72029E-04-1.76471E-01-1.12970E-14-1.30660E-13
 -1      3959 1.98366E+01 2.74653E-01-1.16157E-03-1.50282E-01 6.66326E-14-1.59081E-13
 -1      3960 1.97673E+01 3.40752E-01 1.03026E-03-1.64943E-01 4.26227E-14-3.04676E-13
 -1      3961 1.98660E+01 2.49595E-01 3.04250E-04-1.29579E-01 1.64629E-13-1.47146E-13
 -1      3962 1.98826E+01 2.24522E-01-9.38657E-04-1.09301E-01 1.61088E-14-1.19221E-13
 -1      3963 1.98296E+01 2.82831E-01 8.69731E-04-1.19181E-01 1.45112E-13-3.41621E-13
 -1      3964 1.99055E+01 2.01730E-01 2.67318E-04-9.39562E-02-1.10913E-13-2.69593E-14
 -1      3965 1.99182E+01 1.79047E-01-8.63376E-04-7.83550E-02-2.18253E-13-1.17699E-13
 -1      3966 1.98788E+01 2.28851E-01 6.58738E-04-8.53928E-02-2.91573E-14-3.56553E-13
 -1      3967 1.96005E+01 5.33396E-01-1.84889E-03 2.36627E-01-2.91346E-13 2.38844E-13
 -1      3968 1.95296E+01 5.94195E-01-1.64663E-03 2.63375E-01-1.50646E-13 2.20410E-13
 -1      3969 1.46665E+01 1.49058E+00 1.16064E-02 4.35741E-01-5.71756E-14 2.53176E-13
 -1      3970 1.99650E+01 4.67171E-01-1.36001E-03 4.47186E-01-4.41840E-14-2.07785E-13
 -1      3971 1.99188E+01 4.35956E-01 1.48294E-03 5.10936E-01-2.69987E-14-2.21826E-13
 -1      3972 1.98152E+01 4.80040E-01 3.01949E-04 4.91995E-01-2.02624E-14-1.58671E-13
 -1      3973 2.07629E+01-1.89019E+00-3.83939E-03-2.30703E+00 9.58660E-14-2.24655E-13
 -1      3974 2.16501E+01-2.44764E+00 2.48175E-02-2.25957E+00 1.49836E-13-1.95487E-13
 -1      3975 1.94347E+01 6.59626E-01-2.25545E-03 2.76437E-01-2.61737E-14 2.12071E-13
 -1      3976 1.93355E+01 7.29453E-01-2.61120E-03 3.02451E-01-3.74155E-15 2.56916E-13
 -1      3977 1.94370E+01 6.51165E-01 3.80646E-03 1.92308E-01-1.41471E-13 3.14708E-13
 -1      3978 1.99671E+01 1.10344E-01-2.35224E-04 3.99527E-02 4.57564E-13-2.06112E-13
 -1      3979 1.99607E+01 1.27773E-01 1.62175E-04 5.02852E-02 5.33714E-13-1.63277E-13
 -1      3980 1.99600E+01 1.17520E-01-2.91062E-04 3.29628E-02 3.69863E-13-1.05988E-13
 -1      3981 1.92090E+01 8.03673E-01-2.74887E-03 3.09348E-01-1.89358E-13 1.07544E-13
 -1      3982 1.90711E+01 8.81097E-01-3.97342E-03 3.31277E-01-3.33598E-13 2.28652E-14
 -1      3983 1.92206E+01 7.89164E-01 5.11537E-03 2.00127E-01-1.74661E-13 1.62293E-13
 -1      3984 1.98089E+01 3.35180E-01-1.27375E-03 1.56350E-01-3.59818E-13 2.79918E-13
 -1      3985 1.97737E+01 3.78410E-01-6.01870E-04 1.79153E-01-2.69758E-13 2.23004E-13
 -1      3986 1.98717E+01 2.60914E-01-1.02045E-03 1.21672E-01-4.58428E-13 1.46965E-13
 -1      3987 1.98473E+01 2.96427E-01-3.06389E-04 1.41312E-01-3.41917E-13 2.76790E-13
 -1      3988 1.98044E+01 3.35020E-01 1.55909E-03 1.19548E-01-3.45036E-13 2.70840E-13
 -1      3989 1.99161E+01 2.00718E-01-7.59886E-04 9.22184E-02 1.32841E-13-1.96361E-13
 -1      3990 1.98996E+01 2.29550E-01-3.47068E-05 1.08450E-01-2.93863E-13-1.12728E-13
 -1      3991 1.98677E+01 2.61155E-01 1.10223E-03 9.42753E-02-1.10547E-13-5.27549E-14
 -1      3992 1.98870E+01 6.00835E-01-1.31960E-03-5.15317E-01 1.01693E-13-2.12140E-13
 -1      3993 1.99614E+01 5.87586E-01-1.15509E-03-4.52269E-01 1.37239E-13-1.99054E-13
 -1      3994 1.97942E+01 6.68922E-01 3.36930E-03-4.53314E-01 9.93057E-14-2.10423E-13
 -1      3995 1.71433E+01 1.32066E+00-1.35522E-02-1.98138E-01-3.16045E-14-1.96704E-13
 -1      3996 1.75939E+01 1.26431E+00-7.66668E-03-2.43302E-01-5.31362E-14-1.66728E-13
 -1      3997 2.02294E+01 1.17297E+00 4.56954E-04 8.13418E-02 2.41392E-13-3.39457E-13
 -1      3998 2.02231E+01 1.06021E+00 7.20021E-04 2.67619E-03 2.32453E-13-3.41236E-13
 -1      3999 2.01693E+01 6.90259E-01-9.03312E-04 2.11884E-01-8.13839E-14-2.24762E-13
 -1      4000 2.01332E+01 6.14097E-01-1.69716E-04 2.76081E-01-8.14136E-14-2.34920E-13
 -1      4001 2.00816E+01 6.38553E-01 1.41611E-03 2.60657E-01-7.46411E-14-2.40844E-13
 -1      4002 1.97214E+01 4.25456E-01-1.54943E-03 1.95255E-01-2.52181E-13 1.98251E-13
 -1      4003 1.96711E+01 4.77397E-01-1.00772E-03 2.20677E-01-2.62933E-13 2.01173E-13
 -1      4004 1.95979E+01 5.29084E-01 2.79203E-03 1.72044E-01-2.71507E-13 2.68993E-13
 -1      4005 1.97170E+01 4.23718E-01 2.03772E-03 1.46170E-01-2.93111E-13 1.72729E-13
 -1      4006 1.36001E+01 1.37250E+00 5.08192E-02 1.17702E-01 8.60833E-14-3.96013E-13
 -1      4007 1.44184E+01 1.40556E+00 2.86695E-02-4.40703E-01 2.24707E-14-3.97469E-13
 -1      4008 1.51021E+01 1.42867E+00-2.00602E-02-1.19212E-01-8.91388E-15-3.61264E-13
 -1      4009 1.39778E+01 1.16928E+00-1.85213E-02 9.51292E-01 1.06020E-13-3.81596E-13
 -1      4010 1.99335E+01 1.62869E-01 5.39841E-04-6.44692E-02-3.16906E-13-1.33940E-13
 -1      4011 1.99437E+01 1.39459E-01-4.54360E-04-4.59601E-02-2.17624E-13-3.46615E-13
 -1      4012 1.99371E+01 1.46643E-01-3.06267E-04-3.55094E-02-1.28114E-13-6.64270E-13
 -1      4013 1.99129E+01 1.84171E-01 2.71533E-04-5.75891E-02-2.47802E-13-4.77369E-13
 -1      4014 1.60285E+01 1.39974E+00-1.97050E-03 4.68981E-03-8.22693E-15-2.72087E-13
 -1      4015 1.66250E+01 1.35922E+00-1.18839E-02-7.63663E-02-1.22762E-14-2.20219E-13
 -1      4016 1.69092E+01 1.30053E+00 2.12531E-02 3.20592E-01 1.07451E-14-2.64541E-13
 -1      4017 1.48503E+01 1.15048E+00 4.50426E-02 2.14108E+00 1.01030E-14 2.07282E-14
 -1      4018 1.50981E+01 1.28744E+00 6.52731E-03 1.51742E+00 5.54261E-14 6.01255E-14
 -1      4019 1.99531E+01 1.22273E-01-1.43712E-04 1.37165E-02 1.58795E-13-1.21327E-14
 -1      4020 1.99563E+01 1.19077E-01-3.63231E-04 2.26579E-02 3.00551E-13 3.87345E-14
 -1      4021 1.99473E+01 1.39496E-01 5.00055E-04 3.00289E-02 2.76707E-13-1.52213E-13
 -1      4022 1.99428E+01 1.39137E-01 1.26149E-04 8.70634E-03 8.99279E-14-1.76171E-13
 -1      4023 1.57135E+01 1.45950E+00-5.54463E-03 1.28636E+00-9.67421E-14 9.16021E-15
 -1      4024 2.06230E+01-1.51717E+00 1.65152E-02-2.04511E+00 1.00180E-13-2.12766E-13
 -1      4025 2.01771E+01-1.14305E+00 7.45300E-03-1.98772E+00-4.40909E-14-1.84285E-13
 -1      4026 1.95679E+01-8.75687E-01-1.10530E-02-2.15935E+00-4.20514E-14-2.68001E-13
 -1      4027 1.98090E+01-1.57856E+00-2.70026E-02-2.71922E+00 4.03298E-14-3.06286E-13
 -1      4028 1.50629E+01-1.05071E-01 3.52987E-02 3.37806E+00-3.39454E-13 3.92360E-13
 -1      4029 1.90502E+01 9.48401E-01-3.48639E-03-7.95246E-01-1.12535E-15-2.31315E-13
 -1      4030 1.92229E+01 8.66677E-01-4.71374E-03-7.40704E-01 4.00858E-14-2.06588E-13
 -1      4031 1.92276E+01 8.79896E-01 6.67838E-03-5.79004E-01 3.26257E-14-2.56895E-13
 -1      4032 1.88055E+01 1.04210E+00 9.52641E-03-6.13215E-01 1.14086E-14-2.70481E-13
 -1      4033 1.50332E+01 1.41216E+00-2.48337E-02-4.01570E-01-8.49811E-14 2.44337E-13
 -1      4034 1.50441E+01 1.26150E+00 3.72605E-02-1.25861E+00-1.40443E-14 1.76141E-13
 -1      4035 1.83974E+01-8.22261E-01 2.65251E-03-2.87212E+00 8.16632E-14-1.83861E-13
 -1      4036 2.00418E+01 5.91418E-01-1.31880E-03-4.00196E-01 1.31642E-13-1.99434E-13
 -1      4037 2.00992E+01 6.14492E-01-3.22719E-04-3.27237E-01 1.58126E-13-2.13126E-13
 -1      4038 2.01167E+01 7.05380E-01 1.67229E-03-2.49931E-01 1.30941E-13-2.61057E-13
 -1      4039 1.99803E+01 6.48831E-01 2.25725E-03-3.62950E-01 1.21184E-13-2.34286E-13
 -1      4040 1.56457E+01 1.55995E+00 1.33465E-02 7.18011E-01-1.03104E-13 2.36629E-13
 -1      4041 2.02048E+01 9.23135E-01-9.42568E-04-6.19932E-02 2.08339E-13-3.10008E-13
 -1      4042 2.01961E+01 1.01848E+00-3.86187E-04-3.04582E-02 1.84365E-13-3.32833E-13
 -1      4043 2.01698E+01 8.24453E-01-7.08484E-04-1.39083E-01 1.42444E-13-3.04649E-13
 -1      4044 1.99317E+01 1.52451E-01-2.88134E-04-2.02995E-02-1.51422E-13-6.55403E-13
 -1      4045 1.99298E+01 1.56143E-01 5.45415E-05-7.14655E-03-9.53084E-14-6.69000E-13
 -1      4046 1.99212E+01 1.71682E-01 5.88475E-04-2.92603E-02-2.66215E-13-6.58415E-13
 -1      4047 1.99540E+01 1.41293E-01 7.02077E-05 5.87773E-02 3.37510E-13-2.78439E-13
 -1      4048 1.47559E+01 2.25426E-01 6.10106E-02 3.00817E+00 2.12518E-13-2.36863E-13
 -1      4049 1.45107E+01 6.57904E-01 2.95143E-03 2.17940E+00 1.66181E-13-3.15581E-13
 -1      4050 1.60595E+01-2.12545E-01 1.67941E-02 3.13622E+00 2.42554E-13-1.62636E-13
 -1      4051 1.59007E+01 9.47011E-01 1.35955E-02-1.58579E+00 6.76468E-14 8.22285E-14
 -1      4052 1.79697E+01 1.19511E+00-1.01623E-02-3.24720E-01-3.87960E-14-1.85787E-13
 -1      4053 1.83029E+01 1.12191E+00-5.55651E-03-3.48951E-01-1.26696E-14-2.01490E-13
 -1      4054 1.77891E+01 1.20699E+00 1.84386E-02 5.25487E-02-4.53848E-14-2.17770E-13
 -1      4055 1.99590E+01 5.42164E-01 1.05904E-03 3.68421E-01-4.27268E-14-2.08486E-13
 -1      4056 1.55346E+01 1.37353E+00 2.20446E-02 4.12857E-01 2.37042E-14-2.98569E-13
 -1      4057 2.01965E+01 7.64990E-01-2.07596E-04 1.72115E-01-5.28218E-14-2.34788E-13
 -1      4058 2.01608E+01 7.73911E-01 1.14023E-03 1.68803E-01-4.89289E-14-2.48801E-13
 -1      4059 2.02151E+01 8.50697E-01 4.26158E-04 1.16494E-01-5.75806E-14-2.85228E-13
 -1      4060 1.99311E+01 1.82431E-01 1.49374E-04 8.30552E-02 2.82404E-13-2.20938E-13
 -1      4061 1.99070E+01 2.07910E-01 6.32333E-04 7.36395E-02 1.42960E-13-2.96653E-13
 -1      4062 1.99385E+01 1.64879E-01-5.87600E-04 7.17648E-02 2.42630E-13-1.97430E-13
 -1      4063 1.97029E+01 6.93691E-01-2.71558E-03-3.71937E-01 6.11199E-14-2.31774E-13
 -1      4064 1.98138E+01 6.73367E-01-1.22695E-03-3.36020E-01 1.05849E-13-2.46453E-13
 -1      4065 2.01676E+01 1.43381E+00-2.63811E-03-1.04566E-02 2.28954E-15-4.02077E-13
 -1      4066 2.01784E+01 1.40264E+00-3.24554E-03-3.64427E-02-3.51392E-14-4.07926E-13
 -1      4067 2.02131E+01 1.23465E+00 4.88769E-03 3.61861E-03-3.87405E-14-3.78123E-13
 -1      4068 2.01971E+01 1.28215E+00 6.33603E-03 1.58866E-02 2.25787E-14-3.67989E-13
 -1      4069 2.02270E+01 1.02133E+00-1.49589E-03 4.65380E-02-7.92732E-14-3.41691E-13
 -1      4070 1.71554E+01 1.41823E+00-9.12003E-03 1.72531E-01-2.06651E-14 2.82191E-14
 -1      4071 1.66350E+01 1.45817E+00-2.05277E-02 1.41883E-01-1.03252E-13 1.50968E-13
 -1      4072 2.01824E+01 1.06776E+00-1.28973E-03-1.98894E-02 1.55823E-13-3.81642E-13
 -1      4073 1.89317E+01 9.39071E-01 6.79320E-03 1.85592E-01-2.97852E-13 6.53145E-14
 -1      4074 1.89030E+01 9.62152E-01-3.46452E-03 3.26892E-01-3.08608E-13 1.40291E-13
 -1      4075 1.87125E+01 1.04424E+00-5.86289E-03 3.40432E-01-1.94167E-13 8.32688E-14
 -1      4076 1.98487E+01-1.76256E+00 3.20136E-02 3.00069E+00 1.38334E-13 5.57878E-14
 -1      4077 1.87196E+01-1.68394E+00-8.32345E-05 3.60350E+00 1.59916E-13 3.45383E-15
 -1      4078 1.77780E+01-1.10965E+00-5.44185E-03 3.44795E+00 1.61388E-13-8.50682E-14
 -1      4079 1.95413E+01-1.39302E+00 5.46233E-03 2.75157E+00 9.07935E-14 3.67954E-14
 -1      4080 1.79238E+01 1.28705E+00-6.31838E-03 2.71074E-01-4.90456E-14 1.13394E-13
 -1      4081 1.75618E+01 1.35486E+00-1.28628E-02 2.54130E-01-8.90867E-15 8.16030E-14
 -1      4082 1.73393E+01 1.37307E+00 2.10820E-02-1.48186E-01-3.48723E-15 1.13469E-13
 -1      4083 1.75251E+01-2.36702E-01 1.13369E-02-2.72913E+00 8.89842E-14-1.95136E-13
 -1      4084 1.88499E+01-5.78550E-01 1.72646E-02-2.37991E+00 6.68566E-14-2.79208E-13
 -1      4085 1.94232E+01 7.75602E-01-3.93161E-03-4.08452E-01 2.74579E-14-2.22841E-13
 -1      4086 1.95690E+01 7.29230E-01-1.77262E-03-3.83538E-01 5.19633E-14-2.35960E-13
 -1      4087 1.96158E+01 7.38704E-01 3.92343E-03-2.64609E-01 5.30124E-14-1.92221E-13
 -1      4088 1.70699E+01 1.88785E-01-2.37337E-02-2.29992E+00 5.10898E-14-1.25371E-13
 -1      4089 2.02047E+01 1.00843E+00-9.19896E-04 6.22800E-02-5.41924E-14-3.34946E-13
 -1      4090 1.94098E+01 4.61266E-01-3.92057E-03 7.04036E-01 4.17725E-15-1.71811E-13
 -1      4091 1.93548E+01 4.26332E-01 5.09204E-03 8.12449E-01 3.95395E-14-1.63926E-13
 -1      4092 1.92271E+01 3.68867E-01-4.24510E-03 9.49574E-01 6.50455E-14-1.32921E-13
 -1      4093 1.92023E+01 2.97339E-01 7.95103E-03 1.08918E+00 8.96764E-14-1.03999E-13
 -1      4094 1.91179E+01 5.08395E-01 3.71569E-04 8.06722E-01 9.40074E-14-9.97419E-14
 -1      4095 1.90864E+01 1.86825E-01-4.01556E-03 1.27646E+00 5.36108E-14-1.00781E-13
 -1      4096 1.91173E+01 5.15172E-02 1.07667E-02 1.45151E+00 1.58794E-14-1.33251E-13
 -1      4097 1.88860E+01 3.89954E-01 1.54216E-03 1.13536E+00 8.63515E-14-9.53757E-14
 -1      4098 1.90322E+01-1.21122E-01-1.06310E-03 1.68551E+00 7.99165E-15-1.32583E-13
 -1      4099 1.91453E+01-3.47772E-01 1.36064E-02 1.90628E+00 1.77655E-14-1.21603E-13
 -1      4100 1.86937E+01 1.09659E-01-1.10976E-02 1.58133E+00 1.53241E-14-1.15874E-13
 -1      4101 1.91442E+01-6.31807E-01 1.71705E-03 2.19703E+00 2.25451E-14-9.28207E-14
 -1      4102 1.94021E+01-9.78195E-01 1.71333E-02 2.42841E+00 5.28527E-14-4.10354E-14
 -1      4103 1.87072E+01-9.26748E-01-4.86603E-03 2.79861E+00 1.10284E-13 2.69277E-14
 -1      4104 1.85851E+01-2.69800E-01-1.66185E-02 2.10839E+00 4.33690E-14-6.26611E-14
 -1      4105 1.94500E+01 6.10566E-01-1.24222E-03 1.08423E-01-2.35985E-13 1.45593E-13
 -1      4106 1.93533E+01 6.70946E-01-2.86990E-03 1.11252E-01-1.42966E-13 1.15103E-13
 -1      4107 1.90109E+01-2.20925E-01 7.56592E-03-1.84183E+00-1.10194E-13-1.23142E-13
 -1      4108 1.88813E+01 3.01585E-03-9.37929E-03-1.62273E+00-9.44199E-14 1.63923E-14
 -1      4109 2.01206E+01 7.48865E-01-9.12539E-04-1.89109E-01 1.16996E-13-3.08604E-13
 -1      4110 2.01279E+01 8.19301E-01 1.96393E-03-1.42227E-01 1.30901E-13-3.09195E-13
 -1      4111 2.00601E+01 6.98672E-01-1.76025E-03-2.50146E-01 1.10112E-13-2.89864E-13
 -1      4112 2.00815E+01 7.00057E-01-1.43684E-03 1.84223E-01-5.57243E-14-2.32730E-13
 -1      4113 2.00279E+01 6.41885E-01-6.22966E-05 2.33002E-01-5.53815E-14-2.09216E-13
 -1      4114 2.01748E+01 1.12986E+00-2.20742E-03 1.75165E-02 1.45502E-13-3.87533E-13
 -1      4115 2.01714E+01 1.14101E+00-2.67076E-03 1.78343E-02 9.27280E-14-3.61766E-13
 -1      4116 1.68224E+01 1.07899E+00-9.08472E-03 8.14515E-01-7.03517E-15-2.28592E-13
 -1      4117 1.73047E+01 1.06964E+00-5.75632E-03 6.04136E-01 5.15885E-15-2.25071E-13
 -1      4118 1.89686E+01 1.87966E-01 1.09116E-02-1.38109E+00-2.33079E-13-1.42832E-14
 -1      4119 1.89180E+01 3.10998E-01-8.20257E-03-1.20968E+00-3.18229E-13 3.30149E-14
 -1      4120 1.85733E+01 2.94477E-01 1.04431E-02-1.51843E+00-1.17449E-13-8.59356E-14
 -1      4121 1.90257E+01 4.20133E-01 8.33394E-03-1.02086E+00-3.14510E-13 1.76332E-13
 -1      4122 1.90332E+01 4.82420E-01-4.07568E-03-8.84027E-01-2.05065E-13 1.64147E-13
 -1      4123 1.87185E+01 5.25163E-01 6.93078E-03-1.08865E+00-1.98716E-13 2.01242E-14
 -1      4124 1.91339E+01 5.31309E-01 4.42063E-03-7.49980E-01-2.65716E-13 1.26197E-13
 -1      4125 1.91684E+01 5.53793E-01-4.02393E-03-6.43114E-01-3.25234E-13-6.14152E-14
 -1      4126 1.89137E+01 6.18645E-01 3.40884E-03-7.67160E-01-2.85540E-13 1.74532E-13
 -1      4127 1.92673E+01 5.66017E-01 3.09803E-03-5.43732E-01-2.78620E-13-5.92294E-14
 -1      4128 1.93130E+01 5.60393E-01-3.21463E-03-4.62532E-01-1.70850E-13-6.15987E-14
 -1      4129 1.90987E+01 6.44447E-01 1.74724E-03-5.32946E-01-3.13178E-13-9.19144E-14
 -1      4130 1.94008E+01 5.49124E-01 1.83775E-03-3.92102E-01-3.68653E-14-3.64100E-14
 -1      4131 1.94493E+01 5.27224E-01-2.53589E-03-3.30905E-01 1.64191E-13-1.31305E-13
 -1      4132 1.92765E+01 6.16619E-01 1.36341E-03-3.68712E-01-1.03240E-13 1.28769E-13
 -1      4133 1.95247E+01 5.02202E-01 1.00215E-03-2.81562E-01 1.85774E-13-2.22255E-13
 -1      4134 1.95694E+01 4.72372E-01-2.23780E-03-2.36294E-01 9.68955E-14-1.43182E-13
 -1      4135 1.94326E+01 5.59381E-01 9.12458E-04-2.53178E-01 7.96107E-14-1.63687E-16
 -1      4136 1.96332E+01 4.41205E-01 6.90577E-04-2.01137E-01 1.56604E-14-2.58316E-13
 -1      4137 1.96711E+01 4.07003E-01-2.33270E-03-1.68518E-01-3.95277E-14-3.37766E-13
 -1      4138 1.95672E+01 4.91909E-01 2.33745E-03-1.71914E-01 2.15992E-14-3.38824E-13
 -1      4139 1.97232E+01 3.75507E-01 3.11741E-04-1.42395E-01-1.31783E-14-3.85861E-13
 -1      4140 1.97565E+01 3.41836E-01-1.45308E-03-1.18054E-01 3.12526E-14-3.50616E-13
 -1      4141 1.96731E+01 4.21403E-01 2.60869E-03-1.16475E-01-9.70646E-14-4.63054E-13
 -1      4142 1.97967E+01 3.10885E-01 9.78505E-05-1.01137E-01 4.87783E-16-5.59024E-13
 -1      4143 1.98242E+01 2.79992E-01-9.35304E-04-8.26508E-02 3.27107E-14-6.28297E-13
 -1      4144 1.97606E+01 3.43945E-01 5.37505E-04-7.75312E-02-1.81625E-13-4.59840E-13
 -1      4145 1.98549E+01 2.51246E-01 1.36698E-05-7.12924E-02 8.14091E-14-6.47576E-13
 -1      4146 1.98758E+01 2.24103E-01-7.86784E-04-5.79640E-02-2.51462E-14-6.22826E-13
 -1      4147 1.98292E+01 2.78440E-01 6.82258E-04-5.32857E-02-3.51038E-14-8.34877E-13
 -1      4148 1.47264E+01 1.02463E+00 4.40694E-02 1.52498E+00 1.22235E-13-3.39579E-13
 -1      4149 1.51142E+01 1.21909E+00 1.78661E-02 9.12926E-01 5.27842E-14-3.03855E-13
 -1      4150 1.54901E+01 6.22797E-01-3.00428E-02 2.03675E+00 1.41880E-13-2.30579E-13
 -1      4151 1.61833E+01 1.09661E+00-2.63286E-02-1.14942E+00-2.46826E-14-2.95714E-14
 -1      4152 1.65782E+01 7.44565E-01 1.73675E-02-1.84080E+00 1.15227E-13-7.91910E-14
 -1      4153 1.92484E+01 7.34838E-01-1.15840E-03 9.59664E-02-1.66451E-13 2.83067E-14
 -1      4154 1.91189E+01 7.98635E-01-4.05461E-03 8.86349E-02-2.40963E-13 8.92802E-14
 -1      4155 1.92921E+01 7.01748E-01 3.72804E-03 9.30459E-03-2.22805E-13-3.88181E-14
 -1      4156 1.98651E+01 2.48834E-01-6.95456E-04 6.42825E-02 7.94377E-14-2.98968E-13
 -1      4157 1.98379E+01 2.82152E-01-5.62882E-04 7.44563E-02-1.20249E-13-1.05463E-13
 -1      4158 1.98029E+01 3.18400E-01-7.86435E-04 7.94306E-02-3.27736E-13-1.08312E-13
 -1      4159 1.97641E+01 3.57908E-01-1.19059E-03 9.00921E-02-4.04739E-13-1.35066E-13
 -1      4160 1.98115E+01 3.10225E-01 1.82764E-03 4.84564E-02-1.83069E-13-3.02194E-13
 -1      4161 1.73699E+01 4.60744E-01 4.25655E-03-1.87187E+00 1.04233E-13-1.56742E-13
 -1      4162 1.59447E+01 1.13921E+00-1.91422E-02 9.47966E-01 4.35012E-14-3.05532E-13
 -1      4163 1.87485E+01-3.61121E-01-1.23741E-02-2.11590E+00-7.96980E-14-2.24856E-13
 -1      4164 1.99506E+01 5.97713E-01-1.89864E-03 2.73997E-01-2.17298E-14-2.06565E-13
 -1      4165 1.98857E+01 5.66750E-01 9.14303E-04 3.28745E-01-9.18536E-16-1.65586E-13
 -1      4166 1.99633E+01 6.67890E-01 2.94649E-03 1.94993E-01-1.62416E-14-1.84752E-13
 -1      4167 2.01681E+01 9.71264E-01 2.42263E-03-3.76773E-02 1.33561E-13-3.63263E-13
 -1      4168 1.98932E+01 2.07846E-01 3.60794E-04-4.84169E-02-9.35994E-14-7.19224E-13
 -1      4169 1.99060E+01 1.86698E-01-5.96204E-04-3.56967E-02-2.52163E-13-7.32739E-13
 -1      4170 1.99018E+01 1.93051E-01 1.15360E-05-1.92601E-02-1.66847E-13-9.17612E-13
 -1      4171 1.98731E+01 2.29812E-01 4.89207E-04-3.40467E-02-3.63309E-14-9.35880E-13
 -1      4172 1.63222E+01 1.40537E+00 2.55511E-02-5.48125E-01-8.63515E-14 1.33627E-13
 -1      4173 1.60232E+01 1.47508E+00-1.65064E-03-9.58036E-02-1.24076E-13 2.06208E-13
 -1      4174 1.99360E+01 1.61861E-01 2.97032E-04 5.21870E-02 3.73087E-13-1.73368E-13
 -1      4175 1.84886E+01 1.12753E+00-4.60382E-03 3.18475E-01-1.28302E-13 2.49714E-13
 -1      4176 1.82259E+01 1.20754E+00-8.88957E-03 3.18495E-01-7.18286E-14 2.21168E-13
 -1      4177 1.85477E+01 1.09480E+00 9.57203E-03 1.35638E-01-5.03093E-14 3.16751E-13
 -1      4178 1.97855E+01 5.43134E-01-3.05913E-03 3.81708E-01-1.13073E-14-1.72415E-13
 -1      4179 1.97177E+01 5.27760E-01 2.66762E-03 4.48898E-01-1.85892E-14-1.69021E-13
 -1      4180 1.97896E+01 6.10643E-01 2.12612E-03 2.85171E-01-1.06761E-14-1.55047E-13
 -1      4181 1.96005E+01 5.07338E-01-4.03240E-03 5.20229E-01-4.47211E-14-1.89570E-13
 -1      4182 1.95343E+01 4.91284E-01 3.55343E-03 6.04820E-01-2.11464E-14-1.87951E-13
 -1      4183 1.95860E+01 5.82569E-01 1.26115E-03 4.06612E-01-4.30302E-14-1.80433E-13
 -1      4184 1.82926E+01 4.20742E-02 1.77193E-02-2.01984E+00 7.62519E-16-1.35843E-13
 -1      4185 1.68500E+01 1.19083E+00 7.24917E-03-8.03762E-01-7.25273E-14-9.28764E-14
 -1      4186 1.96025E+01 4.99888E-01-9.82522E-04 1.05959E-01-1.76366E-13 7.31950E-14
 -1      4187 1.95319E+01 5.53594E-01-1.65184E-03 1.14975E-01-1.82656E-13 1.24936E-13
 -1      4188 1.94784E+01 5.84750E-01 2.08080E-03 3.98400E-02-1.68287E-13-1.05125E-13
 -1      4189 1.93599E+01 5.61608E-01 1.51652E-03 5.73217E-01-8.12151E-15-1.53620E-13
 -1      4190 1.76256E+01 4.74383E-01-2.47145E-02-1.65007E+00-1.03355E-14-1.95521E-13
 -1      4191 1.71561E+01 1.17929E+00-2.44448E-02-5.89772E-01-1.05709E-13-3.39960E-14
 -1      4192 1.72470E+01 1.02272E+00 2.35482E-02-1.13137E+00-1.25083E-13-2.22611E-13
 -1      4193 1.75924E+01 1.17872E+00-1.13100E-03-4.44112E-01-4.13721E-14-2.95395E-14
 -1      4194 2.01227E+01 7.59636E-01-2.65627E-05 1.56552E-01-3.80440E-14-2.35912E-13
 -1      4195 2.00772E+01 7.62121E-01 1.62533E-03 1.29343E-01-1.87909E-14-1.84529E-13
 -1      4196 2.01488E+01 8.26473E-01-2.18248E-03 1.16731E-01-1.84601E-14-2.59939E-13
 -1      4197 2.01737E+01 1.02233E+00 3.88069E-03 2.78156E-02 6.86787E-14-3.12924E-13
 -1      4198 2.01750E+01 1.13685E+00-2.94899E-03 3.11311E-02 5.60254E-14-3.21779E-13
 -1      4199 2.01819E+01 1.12376E+00-2.94180E-03 2.76285E-02 1.32494E-14-3.24819E-13
 -1      4200 1.76306E+01 1.06905E+00-1.59488E-02 4.07494E-01 9.25388E-15-2.36076E-13
 -1      4201 1.80075E+01 1.04246E+00-6.23975E-03 2.91632E-01-1.92728E-15-1.55647E-13
 -1      4202 1.76551E+01 9.26288E-01 1.97200E-03 8.34952E-01 2.97115E-14-2.11899E-13
 -1      4203 1.56579E+01 1.57480E+00 1.69168E-02 3.48227E-01-1.72503E-13 3.21015E-13
 -1      4204 1.80317E+01 1.24695E+00 1.44276E-02 3.24477E-02-9.14860E-14 2.47766E-13
 -1      4205 1.90524E+01 8.17773E-01 4.03222E-03-5.21332E-02-2.02977E-13 2.41692E-13
 -1      4206 1.89839E+01 8.66080E-01-1.25327E-03 5.61531E-02-2.70524E-13 1.48362E-13
 -1      4207 1.88113E+01 9.30398E-01-5.68864E-03 3.29366E-02-1.84347E-13 3.06996E-13
 -1      4208 1.84202E+01 1.08181E+00 1.11959E-02-1.11236E-01-8.18920E-15-1.30270E-13
 -1      4209 1.85857E+01 1.04781E+00-7.88512E-03-3.92701E-01-1.61710E-14-1.90592E-13
 -1      4210 1.88407E+01 9.74369E-01-2.83865E-03-3.94760E-01 1.42126E-14-2.07785E-13
 -1      4211 1.98850E+01 2.26803E-01-1.65316E-04 5.91306E-02 1.45306E-13-1.51494E-13
 -1      4212 1.98633E+01 2.49997E-01 9.36862E-04 3.99820E-02-1.79644E-14-1.06586E-13
 -1      4213 1.98988E+01 2.05584E-01-7.00121E-04 5.08723E-02 1.45367E-13-1.28714E-13
 -1      4214 1.97282E+01 3.93661E-01 2.79492E-03 5.37264E-02-3.33022E-13-3.09296E-13
 -1      4215 1.97167E+01 4.01839E-01-1.14669E-03 9.49988E-02-4.20786E-13-1.20322E-13
 -1      4216 1.96649E+01 4.48444E-01-1.41852E-03 1.05563E-01-2.98909E-13-3.57633E-14
 -1      4217 1.98513E+01 7.07879E-01 3.12631E-03-2.37592E-01 6.78975E-14-2.56673E-13
 -1      4218 1.99161E+01 6.68528E-01-2.10976E-03-3.11904E-01 1.07600E-13-2.87682E-13
 -1      4219 1.65477E+01 9.90588E-01 2.46336E-02 1.23352E+00 4.35771E-14-2.42867E-13
 -1      4220 2.00000E+01 6.82304E-01-5.94565E-04-2.64977E-01 9.51021E-14-2.88121E-13
 -1      4221 1.99283E+01 1.58272E-01-1.92064E-04 4.44443E-03 8.13367E-15-3.99987E-13
 -1      4222 1.90584E+01 8.99152E-01-6.11042E-03-4.17163E-01 3.42734E-14-2.45136E-13
 -1      4223 1.92525E+01 8.35583E-01-2.06189E-03-4.03892E-01 2.79365E-14-2.29763E-13
 -1      4224 1.93153E+01 8.21968E-01 5.94831E-03-2.60046E-01 2.83419E-14-1.91746E-13
 -1      4225 1.89226E+01 9.41444E-01 7.53462E-03-2.12325E-01 1.32960E-14-2.05243E-13
 -1      4226 1.80908E+01-7.38360E-01 1.85511E-02 2.93966E+00 1.52689E-13-8.51488E-14
 -1      4227 1.70190E+01-4.83350E-01 2.21433E-02 3.18830E+00 1.61688E-13-1.88903E-13
 -1      4228 1.63984E+01 1.02029E-01 9.80414E-03 2.66810E+00 1.34470E-13-2.20479E-13
 -1      4229 1.79940E+01-3.81522E-01 1.68506E-04 2.56399E+00 1.19219E-13-1.20234E-13
 -1      4230 1.99326E+01 1.57168E-01-5.31209E-04 3.38458E-02 3.22468E-13-1.51084E-13
 -1      4231 1.99178E+01 1.83774E-01 1.71930E-04 4.53029E-02 2.24002E-13-1.90345E-13
 -1      4232 1.98998E+01 2.02711E-01 4.33062E-04 3.03999E-02 1.92016E-13-1.34522E-13
 -1      4233 1.99305E+01 1.59361E-01 1.40528E-04 2.29264E-02 2.13428E-13-1.28327E-13
 -1      4234 1.95321E+01 7.34334E-01-3.98812E-03-1.48940E-01 1.98222E-14-2.04021E-13
 -1      4235 1.96724E+01 7.13220E-01-4.70091E-04-1.46049E-01 3.74493E-14-2.14905E-13
 -1      4236 1.97869E+01 7.01859E-01-3.12287E-03-1.56812E-01 2.82603E-14-2.32513E-13
 -1      4237 1.98926E+01 7.09741E-01-7.36098E-04-1.39643E-01 3.69832E-14-2.60038E-13
 -1      4238 1.97346E+01 7.07809E-01 1.85094E-04-4.72661E-02 2.82654E-14-1.91812E-13
 -1      4239 1.98201E+01 2.89027E-01-3.80144E-04 1.68346E-02-1.95178E-13-3.72311E-13
 -1      4240 1.97822E+01 3.24467E-01-1.31639E-03 1.96795E-02-1.65354E-13-4.93036E-13
 -1      4241 1.86854E+01 5.81331E-01-9.10438E-03 8.91280E-01 1.12193E-13-1.61372E-13
 -1      4242 1.85830E+01 5.24082E-01 1.86365E-03 1.08447E+00 7.77800E-14-1.45782E-13
 -1      4243 1.80560E+01 5.92558E-01 6.39113E-04 1.25458E+00 3.67872E-14-1.76282E-13
 -1      4244 1.79306E+01 4.48341E-01-2.52379E-04 1.51328E+00 1.86795E-14-1.46731E-13
 -1      4245 1.81783E+01 1.10232E+00-3.05457E-03-2.01891E-01-1.83762E-13 4.36479E-14
 -1      4246 1.78551E+01 1.14392E+00-1.65591E-02-2.92955E-01-1.07171E-13-4.14290E-14
 -1      4247 1.78697E+01 1.06250E+00 1.99725E-02-6.88538E-01-1.22905E-13-2.05872E-13
 -1      4248 2.00906E+01 8.03632E-01-1.98045E-03-1.19780E-01 1.23104E-13-3.69411E-13
 -1      4249 2.01420E+01 8.82259E-01-1.50228E-03-7.57259E-02 1.28484E-13-3.58192E-13
 -1      4250 1.93541E+01 6.43851E-01 8.96771E-04-6.31381E-02-2.45116E-13-6.57643E-15
 -1      4251 1.92432E+01 6.91871E-01-3.25202E-03-9.09613E-02-1.45811E-13 1.73885E-14
 -1      4252 1.83101E+01 7.50765E-01-4.47430E-04-9.17173E-01-1.03340E-13-1.19390E-13
 -1      4253 1.84209E+01 7.90701E-01-1.00228E-02-7.35259E-01-1.57907E-13-1.67404E-13
 -1      4254 1.89477E+01 7.31496E-01 1.72082E-03-4.78510E-01-2.84595E-13-2.11038E-14
 -1      4255 1.90393E+01 7.12456E-01-4.21723E-03-3.85203E-01-1.84825E-13 5.74679E-14
 -1      4256 1.93411E+01 6.19022E-01 1.47893E-03-2.30019E-01-4.60798E-14 6.73852E-14
 -1      4257 1.94094E+01 5.79011E-01-2.41305E-03-1.84020E-01-2.79878E-14-7.02436E-14
 -1      4258 1.95083E+01 5.35139E-01 9.51311E-04-1.28829E-01-4.81482E-14-2.09801E-13
 -1      4259 1.95623E+01 4.91597E-01-2.69452E-03-9.81472E-02-4.32552E-14-2.79927E-13
 -1      4260 1.96386E+01 4.47617E-01-5.95086E-04-4.05627E-02-1.57332E-13-2.80056E-13
 -1      4261 1.96868E+01 4.05682E-01-2.02273E-03-2.31281E-02-2.21749E-13-2.75770E-13
 -1      4262 1.98008E+01 3.07381E-01 3.70362E-04-3.82441E-02-2.13884E-13-5.39905E-13
 -1      4263 1.98285E+01 2.74612E-01-7.84410E-04-2.96414E-02-1.06037E-13-6.81891E-13
 -1      4264 1.63629E+01 4.30452E-01-1.78313E-03 2.13702E+00 9.24556E-14-2.29413E-13
 -1      4265 1.79601E+01 5.99819E-01 1.42233E-03-1.36456E+00-1.11317E-13-2.34725E-13
 -1      4266 1.80259E+01 6.99673E-01-2.01365E-02-1.11682E+00-1.90516E-13-1.20624E-13
 -1      4267 1.93893E+01 7.68462E-01-3.58050E-04-1.23481E-01 9.29833E-15-1.80445E-13
 -1      4268 1.94724E+01 7.44169E-01 3.04439E-03-5.69670E-04 1.30855E-15-1.45151E-13
 -1      4269 1.92082E+01 8.11125E-01-4.09346E-03-1.04425E-01 2.70281E-15-1.66508E-13
 -1      4270 2.01930E+01 1.03845E+00-1.26462E-03 6.17175E-02-3.43184E-14-3.51791E-13
 -1      4271 1.71513E+01 4.22798E-01-1.86640E-02 1.85822E+00 5.84329E-14-1.90762E-13
 -1      4272 1.99732E+01 7.03476E-01-1.49094E-03 1.04103E-01 2.42056E-15-1.87520E-13
 -1      4273 1.98951E+01 6.65330E-01-1.22034E-03 1.42530E-01-2.16209E-15-1.58058E-13
 -1      4274 2.00134E+01 7.30763E-01 2.59733E-03-2.04173E-01 1.09634E-13-3.13751E-13
 -1      4275 1.93113E+01 6.41925E-01-3.55298E-03 4.03193E-01-3.92772E-14-5.44486E-14
 -1      4276 1.92003E+01 6.41757E-01 3.23091E-03 4.94040E-01 4.28451E-14-6.77789E-14
 -1      4277 1.86383E+01 9.96850E-01-1.53289E-03-2.58171E-02-1.37032E-13 2.34586E-13
 -1      4278 1.84051E+01 1.05720E+00-8.52329E-03-7.25025E-02-1.55930E-13 9.59510E-14
 -1      4279 1.87455E+01 9.28593E-01 4.30888E-03-1.58944E-01-1.80347E-13 2.20741E-13
 -1      4280 1.97431E+01 6.65483E-01-2.05921E-03 1.11836E-01 6.18949E-15-1.36770E-13
 -1      4281 1.96451E+01 6.61023E-01 1.11556E-03 1.58975E-01-1.42604E-14-1.31615E-13
 -1      4282 2.01393E+01 9.44461E-01-1.67424E-04-1.80797E-02 1.02858E-13-3.63788E-13
 -1      4283 1.90106E+01 6.34447E-01-7.17632E-03 6.04171E-01 6.34630E-14-9.12150E-14
 -1      4284 1.88966E+01 6.19840E-01 3.31082E-03 7.38926E-01 1.09800E-13-9.83107E-14
 -1      4285 1.86179E+01 7.28203E-01-2.66379E-03 6.73831E-01 7.82382E-14-1.64454E-13
 -1      4286 1.94969E+01 6.71797E-01-3.32139E-03 2.00347E-01-2.87585E-14-8.65693E-14
 -1      4287 1.93854E+01 6.79712E-01 1.78639E-03 2.63611E-01-4.31712E-14-9.02805E-14
 -1      4288 1.99146E+01 1.78643E-01 1.07599E-05 6.74641E-03 3.40121E-14-4.88327E-13
 -1      4289 2.00435E+01 7.62471E-01 6.50306E-05-1.23101E-01 1.05480E-13-3.15068E-13
 -1      4290 2.00700E+01 8.20194E-01 1.10970E-03-5.88858E-02 7.97280E-14-3.12660E-13
 -1      4291 1.99790E+01 7.33269E-01-2.50235E-03-1.34104E-01 6.99714E-14-2.87245E-13
 -1      4292 2.01142E+01 8.66513E-01 2.19584E-03-1.69920E-02 6.71764E-14-3.02696E-13
 -1      4293 2.01323E+01 9.33599E-01-1.15434E-03 1.28575E-02 7.94341E-14-2.75829E-13
 -1      4294 2.00615E+01 8.12232E-01-2.65599E-04-1.50719E-02 4.15096E-14-2.51763E-13
 -1      4295 1.80383E+01-7.06341E-02 1.39835E-02 2.21117E+00 6.48210E-14-1.19734E-13
 -1      4296 2.01808E+01 9.37566E-01 2.65663E-03 8.35242E-02 8.18932E-15-2.84708E-13
 -1      4297 2.01448E+01 9.11387E-01 6.57008E-05 6.98223E-02 2.19748E-14-2.36500E-13
 -1      4298 2.00998E+01 8.12058E-01 1.02301E-03 7.78018E-02-1.01312E-14-1.95799E-13
 -1      4299 2.00547E+01 7.52911E-01-1.46906E-03 1.03073E-01 1.35813E-15-1.80932E-13
 -1      4300 2.00050E+01 7.55008E-01 1.53413E-03 5.07863E-02-5.09475E-15-1.62498E-13
 -1      4301 2.01286E+01 9.02528E-01-4.65275E-04 4.93392E-02 3.44907E-14-2.41205E-13
 -1      4302 1.92369E+01 6.84548E-01 2.24527E-03-1.93934E-01-5.98136E-14 8.00980E-14
 -1      4303 1.91537E+01 7.42114E-01 2.70858E-04-1.19353E-01-1.85155E-13 1.52431E-13
 -1      4304 1.90155E+01 7.90442E-01-3.59535E-03-1.64921E-01-1.57724E-13 2.51240E-13
 -1      4305 1.92428E+01 6.52680E-01-2.73393E-03-2.67299E-01-4.98848E-14 7.96794E-14
 -1      4306 1.95999E+01 4.87887E-01 1.36582E-03 3.89876E-03-1.56635E-13-1.62072E-13
 -1      4307 1.90314E+01 7.64954E-01 2.70190E-03-2.75468E-01-1.21263E-13 1.62973E-13
 -1      4308 1.91608E+01 6.84735E-01 1.28010E-03-3.32586E-01-9.57618E-14 9.02325E-14
 -1      4309 1.86818E+01 7.21893E-01-2.93908E-03-7.22912E-01-3.20367E-13 6.98747E-15
 -1      4310 1.87862E+01 7.38408E-01-7.10615E-03-5.80238E-01-3.49344E-13 4.46324E-14
 -1      4311 1.94249E+01 5.91200E-01 1.09780E-03-1.05684E-01-2.04556E-13-4.10291E-15
 -1      4312 1.97364E+01 3.65409E-01-9.29246E-04-1.96468E-02-2.50999E-13-3.75481E-13
 -1      4313 1.98332E+01 2.74581E-01 4.21113E-04-3.90400E-03-1.59708E-13-5.55677E-13
 -1      4314 1.98596E+01 2.46018E-01 4.41971E-04-1.90119E-02-6.30159E-14-8.40927E-13
 -1      4315 1.98740E+01 2.26535E-01-2.43801E-04-1.14317E-02-1.50320E-13-9.71072E-13
 -1      4316 1.98502E+01 2.56314E-01-7.18086E-04 2.40540E-02-2.45147E-13-3.73300E-13
 -1      4317 1.89953E+01 7.43921E-01 5.82296E-03 4.27407E-01 3.92662E-14-1.65315E-14
 -1      4318 1.83754E+01 9.41813E-01 4.57600E-03-5.19741E-01-2.01129E-13-2.01621E-13
 -1      4319 1.84353E+01 9.23353E-01-8.97058E-03 2.73500E-01 2.22470E-14-1.15304E-13
 -1      4320 1.87123E+01 8.83337E-01-1.21057E-03 1.89412E-01 3.09447E-14-1.09184E-13
 -1      4321 1.87668E+01 8.28822E-01 2.43337E-03-4.19208E-01-3.45926E-13-2.00678E-14
 -1      4322 1.98696E+01 2.34505E-01-3.62197E-04 1.98279E-02-8.50263E-15-4.94877E-13
 -1      4323 1.97620E+01 3.44975E-01 1.17118E-03-5.09257E-02-2.53370E-13-4.53991E-13
 -1      4324 1.94502E+01 5.82399E-01-2.60799E-03-1.57012E-02-2.45875E-13-1.26231E-13
 -1      4325 1.79208E+01 8.11609E-01 7.92307E-03 9.54544E-01 4.67016E-14-2.38655E-13
 -1      4326 1.92319E+01 7.54100E-01 1.89294E-03 1.78309E-01-1.33924E-14-4.89808E-14
 -1      4327 1.97760E+01 7.05861E-01 1.80964E-03 1.17873E-02 2.20490E-14-1.62964E-13
 -1      4328 1.98962E+01 2.01395E-01-2.29825E-04 9.13704E-03 9.45325E-15-5.25141E-13
 -1      4329 1.99400E+01 7.40672E-01 2.79191E-03-6.00769E-02 3.39493E-14-2.07538E-13
 -1      4330 1.91163E+01 8.08833E-01-5.52573E-04 4.40528E-02 5.47311E-15-1.12860E-13
 -1      4331 1.83525E+01 1.01266E+00 5.73756E-03-3.65280E-01-2.20261E-13-1.56386E-13
 -1      4332 1.85957E+01 9.13825E-01 3.85741E-03-3.70726E-01-2.32451E-13-1.10192E-13
 -1      4333 1.98822E+01 2.20022E-01 1.09847E-04 4.06142E-03-4.25388E-14-6.90749E-13
 -1      4334 2.01382E+01 9.29073E-01-1.02543E-03 3.56686E-02 3.92862E-14-2.70382E-13
 -1      4335 1.88915E+01 8.52622E-01-7.25226E-03 9.67263E-02 5.97450E-16-1.10181E-13
 -1      4336 1.89082E+01 8.38735E-01 1.47229E-03-2.06511E-01-2.41308E-13 2.51174E-13
 -1      4337 1.95383E+01 5.33706E-01 9.88421E-04-2.20241E-03-1.20504E-13-1.15434E-13
 -1      4338 1.84370E+01 8.50760E-01 1.07116E-02 5.81931E-01 4.75632E-14-1.40956E-13
 -1      4339 1.87310E+01 8.80265E-01-3.99320E-03-2.80544E-01-2.76113E-13 2.79547E-14
 -1      4340 1.96195E+01 4.80824E-01 1.09010E-03 5.44326E-02-1.82017E-13-2.18088E-13
 -1      4341 1.82360E+01 8.18452E-01 4.84078E-03 7.41207E-01 6.33309E-14-2.12030E-13
 -1      4342 1.98865E+01 7.06524E-01 9.20556E-04-4.49210E-03 1.87204E-14-1.68850E-13
 -1      4343 1.99687E+01 7.33211E-01-1.50189E-03-8.10297E-03 1.79668E-14-1.85011E-13
 -1      4344 2.00504E+01 7.90557E-01 5.97733E-04 1.48857E-05 1.40267E-14-2.09363E-13
 -1      4345 2.00915E+01 8.28741E-01-9.31564E-04 3.80944E-02 3.94919E-14-2.14833E-13
 -3
    1PSTEP                         3           1           1          
  100CL  101 1.000000000        4345                     0    1           1
 -4  TOSTRAIN    6    1
 -5  EXX         1    4    1    1
 -5  EYY         1    4    2    2
 -5  EZZ         1    4    3    3
 -5  EXY         1    4    1    2
 -5  EYZ         1    4    2    3
 -5  EZX         1    4    3    1
 -1         1 3.08809E-04-9.49400E-05-7.94684E-05-2.02652E-05-7.55130E-19 5.53086E-18
 -1         2 3.75131E-05-1.14558E-04 2.09405E-05 5.04084E-07 3.69730E-18-7.80594E-20
 -1         3 9.52370E-05-2.85714E-05-2.85679E-05 1.84888E-09 4.92010E-18 3.23915E-18
 -1         4 9.52366E-05-2.85717E-05-2.85678E-05-1.11411E-09 1.16200E-18 1.91642E-19
 -1         5 1.42689E-04-2.13638E-05-4.23725E-05 3.83623E-05-3.33890E-19 2.39727E-17
 -1         6 1.44754E-04 2.56651E-10-4.40330E-05-5.32733E-05-1.50602E-18 2.13711E-17
 -1         7 9.04693E-05-5.19966E-07-3.89904E-05-2.90693E-05-2.06041E-19 2.89500E-18
 -1         8 8.51211E-05 7.94417E-08-3.63262E-05-2.00557E-05-2.64063E-19-2.50836E-18
 -1         9 8.28821E-05 7.14162E-08-3.53728E-05-1.53900E-05-2.18812E-19-5.26081E-18
 -1        10 8.18686E-05 3.58254E-08-3.49195E-05-1.18177E-05-1.38199E-19-6.49888E-18
 -1        11 8.13486E-05 1.73557E-08-3.46946E-05-8.76877E-06-8.37305E-20-7.05823E-18
 -1        12 8.10650E-05 8.50160E-09-3.45773E-05-6.08385E-06-3.31468E-20-7.20835E-18
 -1        13 8.09084E-05 4.77389E-09-3.45153E-05-3.55484E-06-1.27617E-20-7.15682E-18
 -1        14 8.08411E-05 3.29834E-09-3.44895E-05-1.13900E-06 1.86083E-20-7.04686E-18
 -1        15 8.08462E-05 3.21825E-09-3.44915E-05 1.24150E-06 6.01410E-20-6.89322E-18
 -1        16 8.09235E-05 4.46736E-09-3.45211E-05 3.66203E-06 9.77463E-20-6.67745E-18
 -1        17 8.10898E-05 7.33598E-09-3.45862E-05 6.20313E-06 1.29048E-19-6.27510E-18
 -1        18 8.13805E-05 1.58560E-08-3.47054E-05 8.90810E-06 1.56536E-19-5.63446E-18
 -1        19 8.19070E-05 3.43305E-08-3.49331E-05 1.19953E-05 2.31597E-19-4.58036E-18
 -1        20 8.29135E-05 7.58956E-08-3.53887E-05 1.56225E-05 3.02510E-19-2.65772E-18
 -1        21 8.50847E-05 1.61709E-07-3.63634E-05 2.02707E-05 3.34340E-19 9.54836E-19
 -1        22 9.14716E-05-1.07037E-07-3.86570E-05 2.78243E-05 4.10811E-20 8.11743E-18
 -1        23 1.12589E-04-3.79988E-05-3.52839E-05-4.35807E-06-1.04386E-18 1.61758E-17
 -1        24 9.26387E-05-2.76493E-05-2.89450E-05 3.93400E-07-2.77893E-19 1.15920E-17
 -1        25 8.91186E-05-2.68536E-05-2.69282E-05 3.75014E-07-1.14831E-19 7.27081E-18
 -1        26 8.81985E-05-2.65453E-05-2.64483E-05 2.03509E-07-9.15590E-20 4.31341E-18
 -1        27 8.84591E-05-2.65944E-05-2.65122E-05 1.40601E-07-4.96006E-20 2.28926E-18
 -1        28 8.93049E-05-2.68249E-05-2.67768E-05 1.03825E-07-9.11338E-20 6.69553E-19
 -1        29 9.04755E-05-2.71627E-05-2.71356E-05 8.14739E-08 3.62698E-21-4.01461E-19
 -1        30 9.18436E-05-2.75656E-05-2.75500E-05 6.78101E-08 6.69213E-20-1.88866E-18
 -1        31 9.33438E-05-2.80109E-05-2.80024E-05 6.00939E-08 2.11818E-20-2.94771E-18
 -1        32 9.49382E-05-2.84857E-05-2.84820E-05 5.67655E-08-8.56447E-20-3.94410E-18
 -1        33 9.65935E-05-2.89790E-05-2.89784E-05 5.64658E-08 2.62210E-19-4.46445E-18
 -1        34 9.82607E-05-2.94756E-05-2.94758E-05 5.73944E-08-4.21625E-19-5.41140E-18
 -1        35 9.98543E-05-2.99497E-05-2.99475E-05 5.67922E-08 8.76921E-20-6.18670E-18
 -1        36 1.01234E-04-3.03592E-05-3.03502E-05 5.05550E-08-2.72624E-20-6.60423E-18
 -1        37 1.02193E-04-3.06426E-05-3.06214E-05 3.32229E-08-2.17487E-19-6.57575E-18
 -1        38 1.02461E-04-3.07201E-05-3.06821E-05-1.14759E-09-5.82323E-20-6.85819E-18
 -1        39 1.01744E-04-3.05047E-05-3.04491E-05-5.65606E-08-1.04665E-19-7.93170E-18
 -1        40 9.98061E-05-2.99265E-05-2.98601E-05-1.30843E-07-1.56848E-19-7.97376E-18
 -1        41 9.65961E-05-2.89705E-05-2.89107E-05-2.10711E-07 1.58485E-19-9.31711E-18
 -1        42 9.23901E-05-2.77182E-05-2.76905E-05-2.70005E-07-2.84552E-20-9.19380E-18
 -1        43 8.78639E-05-2.63703E-05-2.63978E-05-2.76334E-07-4.12019E-19-8.99807E-18
 -1        44 8.40031E-05-2.52201E-05-2.53079E-05-2.08424E-07 4.99530E-19-7.81258E-18
 -1        45 8.18094E-05-2.45663E-05-2.46934E-05-7.44849E-08 2.66418E-20-7.32414E-18
 -1        46 8.19112E-05-2.45968E-05-2.47222E-05 8.48491E-08 4.18152E-19-7.78592E-18
 -1        47 8.42858E-05-2.53047E-05-2.53886E-05 2.15093E-07-2.17030E-19-7.19969E-18
 -1        48 8.82716E-05-2.64925E-05-2.65155E-05 2.77593E-07 3.71857E-19-7.25592E-18
 -1        49 9.28619E-05-2.78598E-05-2.78292E-05 2.66916E-07 2.48265E-19-7.29141E-18
 -1        50 9.70946E-05-2.91203E-05-2.90598E-05 2.05828E-07 6.16163E-20-6.96192E-18
 -1        51 1.00330E-04-3.00846E-05-3.00192E-05 1.26662E-07-2.93125E-19-6.19746E-18
 -1        52 1.02329E-04-3.06814E-05-3.06280E-05 5.47867E-08-1.29874E-19-7.02972E-18
 -1        53 1.03168E-04-3.09340E-05-3.08988E-05 2.62763E-09 3.72694E-20-7.43413E-18
 -1        54 1.03102E-04-3.09173E-05-3.08993E-05-2.80961E-08 2.74837E-19-7.32574E-18
 -1        55 1.02436E-04-3.07215E-05-3.07160E-05-4.14617E-08-5.35319E-19-7.51445E-18
 -1        56 1.01444E-04-3.04281E-05-3.04302E-05-4.32287E-08 5.96618E-19-7.51762E-18
 -1        57 1.00338E-04-3.00998E-05-3.01055E-05-3.85402E-08 4.22522E-19-5.11132E-18
 -1        58 9.92597E-05-2.97789E-05-2.97855E-05-3.11106E-08 1.78559E-19-4.98635E-18
 -1        59 9.82915E-05-2.94901E-05-2.94962E-05-2.32410E-08 1.78548E-19-6.12139E-18
 -1        60 9.74712E-05-2.92449E-05-2.92498E-05-1.61494E-08-8.98910E-20-6.58135E-18
 -1        61 9.68075E-05-2.90460E-05-2.90496E-05-1.03381E-08 5.34948E-19-6.37196E-18
 -1        62 9.62913E-05-2.88911E-05-2.88935E-05-5.89035E-09-6.02661E-19-5.74304E-18
 -1        63 9.59047E-05-2.87747E-05-2.87762E-05-2.67484E-09-7.91572E-19-7.19714E-18
 -1        64 9.56261E-05-2.86907E-05-2.86915E-05-4.72466E-10-9.99479E-20-7.60213E-18
 -1        65 9.54345E-05-2.86327E-05-2.86330E-05 9.54231E-10 3.02630E-19-5.57014E-18
 -1        66 9.53105E-05-2.85950E-05-2.85951E-05 1.82858E-09-1.08985E-20-4.37855E-18
 -1        67 9.52378E-05-2.85728E-05-2.85727E-05 2.34764E-09-1.12717E-19-2.92250E-18
 -1        68 9.52034E-05-2.85621E-05-2.85620E-05 2.68843E-09 1.21785E-18 1.32944E-18
 -1        69 9.51964E-05-2.85596E-05-2.85596E-05 3.00290E-09-8.90115E-20 3.36889E-18
 -1        70 9.52079E-05-2.85628E-05-2.85625E-05 3.32922E-09 2.88026E-19 4.22699E-18
 -1        71 9.52281E-05-2.85690E-05-2.85669E-05 3.16360E-09-9.85245E-19 6.11320E-19
 -1        72 1.01801E-04-3.04707E-05-3.40333E-05-1.92646E-06 3.43816E-19 2.18666E-17
 -1        73 9.23578E-05-2.74544E-05-2.88422E-05-3.31941E-07 1.87618E-19 1.66663E-17
 -1        74 8.90594E-05-2.66895E-05-2.69574E-05-1.21857E-07 9.40264E-20 1.28893E-17
 -1        75 8.81769E-05-2.64808E-05-2.64768E-05-8.91132E-08-8.48179E-20 1.06131E-17
 -1        76 8.84447E-05-2.65598E-05-2.65247E-05-6.80165E-08 1.35726E-19 8.69090E-18
 -1        77 8.93105E-05-2.68112E-05-2.67869E-05-5.19450E-08-2.12751E-21 6.73989E-18
 -1        78 9.05378E-05-2.71743E-05-2.71603E-05-3.91809E-08 1.32998E-20 5.85220E-18
 -1        79 9.20351E-05-2.76212E-05-2.76143E-05-2.84752E-08 2.60163E-20 4.84398E-18
 -1        80 9.37952E-05-2.81486E-05-2.81484E-05-1.95598E-08-1.17821E-19 4.14643E-18
 -1        81 9.58737E-05-2.87721E-05-2.87805E-05-1.30199E-08 1.12485E-19 3.33857E-18
 -1        82 9.83820E-05-2.95244E-05-2.95451E-05-1.04272E-08 1.17699E-19 2.33741E-18
 -1        83 1.01485E-04-3.04540E-05-3.04926E-05-1.49030E-08 4.14599E-20 2.29459E-18
 -1        84 1.05397E-04-3.16233E-05-3.16874E-05-3.21172E-08-1.16989E-19 2.58857E-18
 -1        85 1.10360E-04-3.31027E-05-3.31996E-05-7.15216E-08 2.15064E-19 1.60707E-18
 -1        86 1.16579E-04-3.49520E-05-3.50810E-05-1.46658E-07-1.53892E-19 3.45192E-19
 -1        87 1.24071E-04-3.71773E-05-3.73099E-05-2.70756E-07-1.30785E-19 6.93244E-19
 -1        88 1.32344E-04-3.96431E-05-3.96861E-05-4.38136E-07 1.27812E-20 1.74176E-18
 -1        89 1.39915E-04-4.19305E-05-4.16987E-05-6.01979E-07 7.59617E-20 1.48008E-18
 -1        90 1.43681E-04-4.31868E-05-4.24092E-05-4.38481E-07-9.74220E-20 2.93599E-18
 -1        91 1.38894E-04-4.19075E-05-4.07096E-05 2.52984E-07 5.18708E-19 5.53907E-19
 -1        92 1.23231E-04-3.72512E-05-3.64424E-05 1.53066E-06 3.78485E-20-6.93402E-19
 -1        93 1.01135E-04-3.03073E-05-3.10790E-05 2.33480E-06-3.09908E-19-8.45974E-19
 -1        94 8.57853E-05-2.52919E-05-2.76525E-05 1.80013E-06-2.63401E-19 1.14641E-18
 -1        95 8.62243E-05-2.51991E-05-2.77717E-05-3.87551E-07-2.30089E-20-1.95982E-19
 -1        96 1.03143E-04-3.05804E-05-3.16586E-05-1.96583E-06 3.16500E-19-2.68329E-18
 -1        97 1.25508E-04-3.77079E-05-3.71256E-05-2.07450E-06-2.21410E-19-3.01798E-18
 -1        98 1.40352E-04-4.23241E-05-4.11837E-05-1.12540E-06 2.30807E-19-4.09503E-18
 -1        99 1.44241E-04-4.34506E-05-4.25781E-05-2.43810E-07-2.62223E-19-3.73585E-18
 -1       100 1.40297E-04-4.21739E-05-4.17800E-05 2.18095E-07 2.34253E-19-1.05993E-18
 -1       101 1.32776E-04-3.98517E-05-3.97921E-05 3.59591E-07-2.25543E-19 8.54444E-20
 -1       102 1.24648E-04-3.73847E-05-3.74766E-05 3.40830E-07 6.54956E-19 2.02504E-18
 -1       103 1.17118E-04-3.51208E-05-3.52456E-05 2.62343E-07-4.68299E-19 3.72020E-18
 -1       104 1.11313E-04-3.33841E-05-3.34932E-05 1.88901E-07 1.98178E-19 5.11480E-18
 -1       105 1.06835E-04-3.20452E-05-3.21283E-05 1.31585E-07 2.28198E-20 2.25695E-18
 -1       106 1.03476E-04-3.10409E-05-3.11004E-05 8.94726E-08-6.77924E-20 1.13893E-18
 -1       107 1.01001E-04-3.03005E-05-3.03419E-05 5.99898E-08-3.06489E-19 2.45326E-18
 -1       108 9.92014E-05-2.97614E-05-2.97899E-05 3.97652E-08 1.07843E-19 1.16930E-18
 -1       109 9.79060E-05-2.93732E-05-2.93926E-05 2.60160E-08-5.35041E-21 7.14430E-19
 -1       110 9.69841E-05-2.90966E-05-2.91100E-05 1.67067E-08 1.41080E-18-2.97398E-18
 -1       111 9.63368E-05-2.89023E-05-2.89114E-05 1.04202E-08-9.13964E-20-1.97832E-18
 -1       112 9.58902E-05-2.87682E-05-2.87743E-05 6.19007E-09 8.86614E-20-5.15948E-18
 -1       113 9.55896E-05-2.86778E-05-2.86820E-05 3.36006E-09-1.71097E-19-6.01540E-18
 -1       114 9.53947E-05-2.86192E-05-2.86219E-05 1.48172E-09-2.98073E-19-4.70779E-18
 -1       115 9.52757E-05-2.85833E-05-2.85852E-05 2.40815E-10 2.36974E-19-4.37294E-18
 -1       116 9.52110E-05-2.85637E-05-2.85650E-05-6.01266E-10 2.55734E-19-6.44945E-18
 -1       117 9.51847E-05-2.85557E-05-2.85566E-05-1.24427E-09 7.72018E-19-6.65937E-18
 -1       118 9.51852E-05-2.85556E-05-2.85564E-05-1.87799E-09 8.08486E-19-5.89555E-18
 -1       119 9.52029E-05-2.85608E-05-2.85610E-05-2.80185E-09-6.71118E-19 1.17518E-18
 -1       120 9.52266E-05-2.85683E-05-2.85666E-05-3.66319E-09-1.95239E-18 8.17322E-18
 -1       121 9.52401E-05-2.85816E-05-2.85670E-05-4.14231E-09 8.55625E-18-1.70060E-18
 -1       122 9.52467E-05-2.86029E-05-2.85622E-05-2.98258E-09 2.90212E-18 2.41983E-19
 -1       123 9.52502E-05-2.86145E-05-2.85593E-05-1.48618E-09 2.57683E-19 3.91425E-19
 -1       124 9.52491E-05-2.86109E-05-2.85602E-05-1.71024E-10-1.71605E-18 1.14414E-18
 -1       125 9.52443E-05-2.85948E-05-2.85646E-05 6.49803E-10 2.14323E-18 3.53332E-19
 -1       126 9.52378E-05-2.85730E-05-2.85706E-05 9.51890E-10-6.94607E-19-1.42148E-19
 -1       127 9.52316E-05-2.85520E-05-2.85765E-05 8.30881E-10 1.40399E-18 7.72167E-19
 -1       128 9.52277E-05-2.85385E-05-2.85803E-05 4.13872E-10 2.94443E-19 1.09529E-18
 -1       129 9.52269E-05-2.85362E-05-2.85810E-05-1.19068E-10 3.40110E-18 1.16755E-18
 -1       130 9.52296E-05-2.85453E-05-2.85785E-05-5.78932E-10 2.46660E-18-1.35565E-18
 -1       131 9.52348E-05-2.85630E-05-2.85735E-05-7.91195E-10 6.34249E-19 7.03413E-20
 -1       132 9.52408E-05-2.85832E-05-2.85679E-05-6.15179E-10-2.34463E-18 1.94295E-18
 -1       133 9.52458E-05-2.85998E-05-2.85634E-05 4.62292E-11-1.30956E-18-8.26188E-19
 -1       134 9.52476E-05-2.86060E-05-2.85618E-05 1.14876E-09-3.39927E-18-1.02180E-18
 -1       135 9.52456E-05-2.85986E-05-2.85636E-05 3.60272E-09-3.52593E-18 1.56067E-18
 -1       136 9.52396E-05-2.85810E-05-2.85671E-05 5.10647E-09-1.47631E-18-7.61286E-19
 -1       137 2.93494E-05-9.88279E-05 1.80447E-05-2.60522E-05 6.04951E-18 1.43576E-18
 -1       138 1.02629E-05-4.92493E-05 7.03840E-06-2.68387E-05 1.08903E-17 4.53830E-18
 -1       139 7.94457E-06 4.63116E-06-1.10882E-05 1.02017E-05 1.65476E-17 1.36567E-17
 -1       140 5.25498E-05 2.42647E-05-3.31890E-05 6.97659E-05 1.38875E-17 1.54588E-17
 -1       141 1.47569E-04-3.14539E-06-5.58827E-05 1.13666E-04 8.20584E-18 1.36741E-17
 -1       142 2.61002E-04-6.06457E-05-7.40611E-05 1.02215E-04 1.85596E-18 5.61202E-18
 -1       143 3.29491E-04-1.00510E-04-8.31488E-05 3.31360E-05-2.07788E-20-1.41984E-18
 -1       144 3.16701E-04-9.22903E-05-8.17200E-05-5.53407E-05 1.24473E-18-1.01081E-17
 -1       145 2.28418E-04-4.25418E-05-6.93768E-05-1.09764E-04 5.25542E-18-1.45253E-17
 -1       146 1.07099E-04 1.12141E-05-4.72176E-05-1.00098E-04 1.13257E-17-1.59162E-17
 -1       147 2.79295E-05 1.98375E-05-2.32426E-05-4.32234E-05 1.58798E-17-1.44203E-17
 -1       148 4.68598E-06-1.65737E-05-2.49863E-06 1.03512E-05 1.41505E-17-8.87818E-18
 -1       149 1.77977E-05-7.12288E-05 1.22618E-05 3.04702E-05 1.13968E-17-3.49994E-18
 -1       150 3.47369E-05-1.10109E-04 2.02369E-05 1.65075E-05 4.82978E-18-1.52645E-18
 -1       151 3.33896E-05-1.06204E-04 1.96243E-05-1.30341E-05-7.46427E-18-1.31270E-18
 -1       152 1.55890E-05-5.85677E-05 9.30583E-06-2.21759E-05-1.50611E-17-5.04800E-18
 -1       153 5.37043E-06-1.93488E-06-6.78101E-06 2.91294E-06-1.92395E-17-1.16806E-17
 -1       154 3.17182E-05 2.87417E-05-2.65668E-05 5.58767E-05-1.68348E-17-1.51483E-17
 -1       155 1.05100E-04 1.61098E-05-4.76175E-05 1.04720E-04-1.19237E-17-1.67183E-17
 -1       156 2.02847E-04-3.10746E-05-6.49583E-05 1.11980E-04-5.97465E-18-1.33022E-17
 -1       157 2.89526E-04-8.22047E-05-7.71898E-05 6.12224E-05-9.59512E-19-3.42879E-18
 -1       158 2.58114E-04-6.29498E-05-7.30224E-05-9.13617E-05-2.88436E-18 1.26587E-17
 -1       159 1.60122E-04-8.43958E-06-5.80367E-05-1.15521E-04-8.00340E-18 1.48921E-17
 -1       160 6.91655E-05 2.67965E-05-3.88870E-05-8.72994E-05-1.05523E-17 1.33704E-17
 -1       161 1.54309E-05 1.98648E-05-1.78627E-05-3.17587E-05-1.20372E-17 9.54733E-18
 -1       162 7.13227E-06-2.86977E-05 1.81717E-06 1.46085E-05-8.59865E-18 5.07606E-18
 -1       163 2.49787E-05-8.48816E-05 1.51065E-05 2.25872E-05-9.32372E-19 4.07317E-19
 -1       164 9.48417E-05-1.23860E-05-3.55389E-05-2.21013E-05-3.27255E-18 1.13608E-19
 -1       165 8.93184E-05-8.49152E-06-3.48003E-05-1.71143E-05-2.91954E-18-3.13869E-18
 -1       166 8.66291E-05-6.49997E-06-3.44521E-05-1.32980E-05-2.25753E-18-4.84528E-18
 -1       167 8.52657E-05-5.47673E-06-3.42785E-05-1.00869E-05-1.56488E-18-5.68952E-18
 -1       168 8.44771E-05-4.85755E-06-3.41907E-05-7.30314E-06-9.53787E-19-5.97639E-18
 -1       169 8.40077E-05-4.47488E-06-3.41458E-05-4.72425E-06-4.46002E-19-6.07464E-18
 -1       170 8.37587E-05-4.26431E-06-3.41256E-05-2.29960E-06 1.06231E-19-5.94501E-18
 -1       171 8.36845E-05-4.19858E-06-3.41209E-05 5.13629E-08 5.72377E-19-5.85590E-18
 -1       172 8.37734E-05-4.27120E-06-3.41291E-05 2.40369E-06 1.02947E-18-5.67130E-18
 -1       173 8.40396E-05-4.49234E-06-3.41522E-05 4.83311E-06 1.49018E-18-5.45353E-18
 -1       174 8.45189E-05-4.88443E-06-3.41974E-05 7.37813E-06 1.92349E-18-4.95466E-18
 -1       175 8.53380E-05-5.53367E-06-3.42856E-05 1.02288E-05 2.58239E-18-4.11850E-18
 -1       176 8.67524E-05-6.61279E-06-3.44605E-05 1.34907E-05 3.10861E-18-2.80991E-18
 -1       177 8.94656E-05-8.63505E-06-3.48068E-05 1.73475E-05 3.43922E-18-4.45513E-19
 -1       178 9.57355E-05-1.36430E-05-3.53919E-05 2.16541E-05 3.26833E-18 3.92944E-18
 -1       179 1.05396E-04-2.60625E-05-3.51851E-05 1.84862E-05 2.43619E-18 9.68254E-18
 -1       180 1.03289E-04-2.72834E-05-3.25714E-05-1.19472E-05-2.90900E-18 4.32604E-18
 -1       181 9.71272E-05-2.82948E-05-2.95341E-05-4.55572E-06-2.48830E-18 2.96925E-18
 -1       182 9.36783E-05-2.76781E-05-2.82371E-05-1.56956E-06-1.81794E-18 1.76765E-18
 -1       183 9.23316E-05-2.74960E-05-2.77504E-05-1.66908E-07-1.33700E-18 6.50197E-19
 -1       184 9.19994E-05-2.74872E-05-2.76287E-05 5.78575E-07-9.94275E-19-1.20457E-19
 -1       185 9.22733E-05-2.76141E-05-2.77012E-05 1.01085E-06-7.68157E-19-4.87006E-19
 -1       186 9.29214E-05-2.78321E-05-2.78900E-05 1.27935E-06-8.72647E-19-1.14339E-18
 -1       187 9.38126E-05-2.81123E-05-2.81541E-05 1.45811E-06-6.92108E-19-1.65404E-18
 -1       188 9.48678E-05-2.84376E-05-2.84684E-05 1.58232E-06-5.20517E-19-1.79547E-18
 -1       189 9.60325E-05-2.87971E-05-2.88147E-05 1.66130E-06-5.81915E-19-2.20980E-18
 -1       190 9.72568E-05-2.91812E-05-2.91761E-05 1.68268E-06-6.64119E-19-3.20245E-18
 -1       191 9.84799E-05-2.95771E-05-2.95322E-05 1.61372E-06-4.06146E-19-3.46462E-18
 -1       192 9.96165E-05-2.99637E-05-2.98555E-05 1.40363E-06-2.84345E-19-3.48468E-18
 -1       193 1.00547E-04-3.03071E-05-3.01090E-05 9.90691E-07-8.69847E-20-3.44188E-18
 -1       194 1.01114E-04-3.05559E-05-3.02473E-05 3.18736E-07-2.50973E-19-3.08572E-18
 -1       195 1.01139E-04-3.06411E-05-3.02219E-05-6.32931E-07-6.82126E-19-3.09717E-18
 -1       196 1.00450E-04-3.04830E-05-2.99935E-05-1.80708E-06-5.32173E-19-3.73187E-18
 -1       197 9.89497E-05-3.00129E-05-2.95494E-05-3.02634E-06-7.38646E-19-4.15320E-18
 -1       198 9.66961E-05-2.92126E-05-2.89224E-05-3.98174E-06-5.80146E-19-4.38282E-18
 -1       199 9.39772E-05-2.81639E-05-2.82018E-05-4.29410E-06-3.02541E-19-5.37529E-18
 -1       200 9.13211E-05-2.70769E-05-2.75254E-05-3.66766E-06 5.45944E-19-5.33293E-18
 -1       201 8.93833E-05-2.62521E-05-2.70458E-05-2.08429E-06 5.69140E-19-4.72858E-18
 -1       202 8.87138E-05-2.59597E-05-2.68832E-05 1.00130E-07 2.39280E-19-4.12933E-18
 -1       203 8.95205E-05-2.63053E-05-2.70818E-05 2.26334E-06 4.04960E-19-4.02555E-18
 -1       204 9.15699E-05-2.71693E-05-2.75923E-05 3.79392E-06-3.32950E-19-3.12993E-18
 -1       205 9.42996E-05-2.82750E-05-2.82924E-05 4.36369E-06 5.44827E-19-3.30509E-18
 -1       206 9.70632E-05-2.93280E-05-2.90302E-05 4.01742E-06 2.60496E-20-2.87252E-18
 -1       207 9.93536E-05-3.01289E-05-2.96726E-05 3.06329E-06 4.52425E-19-3.06138E-18
 -1       208 1.00907E-04-3.06064E-05-3.01360E-05 1.87954E-06-2.65844E-19-2.73656E-18
 -1       209 1.01685E-04-3.07854E-05-3.03933E-05 7.66703E-07-5.17172E-19-2.28387E-18
 -1       210 1.01798E-04-3.07383E-05-3.04614E-05-1.07068E-07-2.35883E-19-2.21358E-18
 -1       211 1.01426E-04-3.05461E-05-3.03825E-05-6.91462E-07-9.09810E-19-3.01686E-18
 -1       212 1.00752E-04-3.02785E-05-3.02065E-05-1.01161E-06 6.40488E-19-2.14504E-18
 -1       213 9.99331E-05-2.99865E-05-2.99788E-05-1.12692E-06 1.07767E-18-1.60588E-18
 -1       214 9.90853E-05-2.97035E-05-2.97354E-05-1.10286E-06-3.05235E-19-3.38853E-18
 -1       215 9.82852E-05-2.94486E-05-2.95007E-05-9.96281E-07-7.16854E-19-3.20897E-18
 -1       216 9.75761E-05-2.92306E-05-2.92897E-05-8.50134E-07-6.00195E-19-4.30285E-18
 -1       217 9.69770E-05-2.90516E-05-2.91094E-05-6.93616E-07 9.92116E-20-3.12636E-18
 -1       218 9.64901E-05-2.89096E-05-2.89616E-05-5.44581E-07-7.13383E-19-3.96582E-18
 -1       219 9.61079E-05-2.88005E-05-2.88447E-05-4.12506E-07-1.16947E-18-4.36592E-18
 -1       220 9.58176E-05-2.87192E-05-2.87552E-05-3.01200E-07-1.26161E-19-3.45338E-18
 -1       221 9.56045E-05-2.86608E-05-2.86891E-05-2.10935E-07 1.77230E-18-2.91056E-18
 -1       222 9.54540E-05-2.86204E-05-2.86421E-05-1.39985E-07 9.76933E-19-7.27232E-19
 -1       223 9.53528E-05-2.85940E-05-2.86103E-05-8.56916E-08 2.14543E-18 9.64662E-19
 -1       224 9.52893E-05-2.85781E-05-2.85900E-05-4.51847E-08 1.94154E-18 1.96544E-18
 -1       225 9.52536E-05-2.85699E-05-2.85784E-05-1.58844E-08 4.21486E-19-7.05628E-20
 -1       226 9.52376E-05-2.85675E-05-2.85727E-05 3.81440E-09 9.64412E-19-4.91290E-20
 -1       227 9.52339E-05-2.85695E-05-2.85703E-05 1.38269E-08-1.00734E-18 4.64702E-19
 -1       228 9.94025E-05-2.85294E-05-3.05541E-05 7.06649E-06 2.51790E-18 8.24273E-18
 -1       229 9.44612E-05-2.78010E-05-2.85385E-05 2.59545E-06 1.83593E-18 6.34829E-18
 -1       230 9.23155E-05-2.74568E-05-2.77508E-05 7.46243E-07 1.26405E-18 4.80148E-18
 -1       231 9.15969E-05-2.73562E-05-2.75038E-05-1.81510E-07 1.21274E-18 3.57407E-18
 -1       232 9.17003E-05-2.74353E-05-2.75274E-05-7.09963E-07 9.06721E-19 2.78666E-18
 -1       233 9.23197E-05-2.76413E-05-2.77109E-05-1.05442E-06 5.15246E-19 2.14589E-18
 -1       234 9.33053E-05-2.79411E-05-2.80075E-05-1.32656E-06 5.72678E-19 1.91861E-18
 -1       235 9.46002E-05-2.83214E-05-2.84005E-05-1.59724E-06 4.91636E-19 1.31501E-18
 -1       236 9.62098E-05-2.87853E-05-2.88920E-05-1.92077E-06 5.56651E-19 5.53165E-19
 -1       237 9.81874E-05-2.93489E-05-2.94982E-05-2.34469E-06 5.99640E-20 6.45993E-19
 -1       238 1.00625E-04-3.00401E-05-3.02472E-05-2.91228E-06-2.76659E-20 1.03940E-18
 -1       239 1.03642E-04-3.08972E-05-3.11745E-05-3.65753E-06 1.15203E-19 9.12981E-19
 -1       240 1.07367E-04-3.19673E-05-3.23162E-05-4.58706E-06 6.62883E-19 4.33648E-19
 -1       241 1.11898E-04-3.33024E-05-3.36917E-05-5.63772E-06 3.71373E-19 6.42223E-20
 -1       242 1.17216E-04-3.49491E-05-3.52716E-05-6.59379E-06-1.56687E-19 2.93371E-19
 -1       243 1.23047E-04-3.69231E-05-3.69252E-05-6.95692E-06-1.62956E-19 6.34335E-19
 -1       244 1.28658E-04-3.91275E-05-3.83641E-05-5.83652E-06-5.35616E-20 8.72067E-19
 -1       245 1.32784E-04-4.12830E-05-3.91570E-05-1.72248E-06-3.48389E-19 9.08957E-19
 -1       246 1.32879E-04-4.21088E-05-3.88125E-05 5.52652E-06 1.01799E-18 1.63116E-18
 -1       247 1.27517E-04-4.01044E-05-3.74613E-05 1.37157E-05 3.68908E-19 1.92001E-18
 -1       248 1.17704E-04-3.46346E-05-3.58234E-05 1.63550E-05 4.30266E-20 1.28439E-18
 -1       249 1.09956E-04-2.94771E-05-3.49171E-05 9.27339E-06-1.90847E-19 6.43341E-19
 -1       250 1.09304E-04-2.87426E-05-3.49435E-05-5.52427E-06 1.24551E-18-1.56193E-18
 -1       251 1.17221E-04-3.36460E-05-3.60059E-05-1.56226E-05 1.42824E-18-2.63025E-18
 -1       252 1.27571E-04-3.96597E-05-3.76493E-05-1.52054E-05 6.25689E-19-4.04997E-18
 -1       253 1.33442E-04-4.22768E-05-3.89899E-05-7.58941E-06 2.05783E-19-4.75180E-18
 -1       254 1.33653E-04-4.17414E-05-3.93416E-05 1.87912E-07-8.35042E-19-2.75559E-18
 -1       255 1.29978E-04-3.97652E-05-3.86656E-05 4.91118E-06-1.23567E-18-1.85819E-18
 -1       256 1.24520E-04-3.75018E-05-3.73164E-05 6.68271E-06-6.73860E-19-3.86472E-19
 -1       257 1.18776E-04-3.54717E-05-3.57217E-05 6.61016E-06-1.65702E-18-3.23216E-19
 -1       258 1.13304E-04-3.37261E-05-3.41141E-05 5.66082E-06-1.35611E-18 1.54569E-18
 -1       259 1.08952E-04-3.24252E-05-3.27983E-05 4.54526E-06 1.43340E-19 2.12551E-18
 -1       260 1.05453E-04-3.14139E-05-3.17279E-05 3.50924E-06 1.20049E-18 2.90939E-18
 -1       261 1.02730E-04-3.06429E-05-3.08900E-05 2.64436E-06-1.13673E-19 1.66141E-18
 -1       262 1.00654E-04-3.00614E-05-3.02494E-05 1.96060E-06-2.04820E-19 8.70672E-19
 -1       263 9.90951E-05-2.96272E-05-2.97678E-05 1.43598E-06 3.10832E-19 1.34400E-18
 -1       264 9.79386E-05-2.93063E-05-2.94104E-05 1.04029E-06 1.03279E-18 1.43430E-19
 -1       265 9.70909E-05-2.90718E-05-2.91483E-05 7.44934E-07 1.87436E-18-3.37389E-19
 -1       266 9.64772E-05-2.89024E-05-2.89584E-05 5.26038E-07-1.77890E-18-7.16379E-19
 -1       267 9.60396E-05-2.87821E-05-2.88229E-05 3.64752E-07 1.96997E-18 6.03136E-19
 -1       268 9.57334E-05-2.86984E-05-2.87280E-05 2.46599E-07-4.55269E-19 1.34097E-20
 -1       269 9.55246E-05-2.86418E-05-2.86631E-05 1.60595E-07 4.86296E-19-7.77106E-19
 -1       270 9.53873E-05-2.86050E-05-2.86202E-05 9.84472E-08 1.09231E-18-2.45914E-18
 -1       271 9.53021E-05-2.85827E-05-2.85935E-05 5.39045E-08 4.39826E-19-2.94593E-18
 -1       272 9.52543E-05-2.85707E-05-2.85784E-05 2.23475E-08-3.58217E-19-1.91513E-18
 -1       273 9.52327E-05-2.85660E-05-2.85712E-05 7.05139E-10-2.01391E-18 9.23620E-19
 -1       274 9.52279E-05-2.85663E-05-2.85690E-05-1.24681E-08-3.02812E-18 1.17411E-18
 -1       275 9.52326E-05-2.85714E-05-2.85687E-05-1.55881E-08-1.78219E-18 8.54185E-19
 -1       276 9.52399E-05-2.85776E-05-2.85694E-05-1.55912E-08 5.30909E-19-2.58796E-18
 -1       277 9.52432E-05-2.85778E-05-2.85709E-05-6.26264E-09 6.46907E-19-1.03253E-18
 -1       278 9.52408E-05-2.85695E-05-2.85734E-05 7.95355E-09-1.31083E-19 1.54534E-19
 -1       279 9.52346E-05-2.85537E-05-2.85775E-05 1.93527E-08 3.56430E-19 2.81894E-18
 -1       280 9.52266E-05-2.85341E-05-2.85825E-05 2.44132E-08-7.56743E-19-1.79639E-18
 -1       281 9.52188E-05-2.85146E-05-2.85876E-05 2.23210E-08-1.02041E-18 2.71917E-19
 -1       282 9.52130E-05-2.85000E-05-2.85913E-05 1.40729E-08 1.99946E-19 1.11505E-18
 -1       283 9.52105E-05-2.84939E-05-2.85929E-05 2.22503E-09 2.04835E-18 7.33489E-19
 -1       284 9.52120E-05-2.84975E-05-2.85920E-05-9.95370E-09 1.82802E-18-1.20121E-18
 -1       285 9.52169E-05-2.85097E-05-2.85889E-05-1.91882E-08 1.04261E-18-1.57455E-18
 -1       286 9.52241E-05-2.85274E-05-2.85843E-05-2.28527E-08-6.94538E-19-2.68250E-18
 -1       287 9.52319E-05-2.85470E-05-2.85793E-05-1.97471E-08-1.16318E-18 9.41552E-19
 -1       288 9.52385E-05-2.85635E-05-2.85750E-05-1.01739E-08-7.23186E-19-1.01313E-18
 -1       289 9.52412E-05-2.85727E-05-2.85722E-05 1.94776E-09-5.83803E-19-9.04820E-19
 -1       290 9.52411E-05-2.85716E-05-2.85726E-05 1.07419E-08-1.57583E-18 3.37626E-19
 -1       291 1.22121E-05-5.11423E-05 1.31489E-05 2.16840E-06 1.34403E-18 2.44433E-18
 -1       292 2.36782E-05-4.63734E-05 6.66434E-06 1.69642E-05 3.55627E-18 4.56625E-18
 -1       293 4.86017E-05-4.10875E-05-5.66697E-06 2.90147E-05 5.14043E-18 7.20682E-18
 -1       294 9.18164E-05-3.92397E-05-2.34312E-05 4.06175E-05 5.91208E-18 5.83521E-18
 -1       295 1.41759E-04-4.10751E-05-4.25197E-05 3.92855E-05 6.31770E-18 3.82732E-18
 -1       296 1.86788E-04-3.90302E-05-6.05644E-05 3.57529E-05 6.15225E-18 1.62122E-18
 -1       297 2.18725E-04-4.05650E-05-7.21758E-05 1.85012E-05 4.02447E-18-6.72121E-19
 -1       298 2.18234E-04-3.59526E-05-7.43670E-05-1.98907E-06 4.21844E-18-4.25983E-18
 -1       299 1.99556E-04-3.57909E-05-6.77024E-05-1.34920E-05 3.85718E-18-5.49110E-18
 -1       300 1.70552E-04-4.10750E-05-5.39984E-05-3.07562E-05 4.58668E-18-5.69270E-18
 -1       301 1.29094E-04-4.87680E-05-3.44657E-05-3.63356E-05 4.60193E-18-4.03103E-18
 -1       302 7.26858E-05-4.01437E-05-1.54284E-05-3.76490E-05 4.65720E-18-6.47694E-18
 -1       303 3.65311E-05-4.38064E-05 2.70915E-07-2.35376E-05 4.58478E-18-4.88793E-18
 -1       304 1.75202E-05-4.78813E-05 9.83884E-06-1.15396E-05 1.87745E-18-3.87285E-18
 -1       305 1.00423E-05-4.65552E-05 1.27278E-05 3.43822E-06-4.73134E-19-5.59031E-18
 -1       306 1.94132E-05-4.10478E-05 7.22891E-06 2.29721E-05-2.41288E-18-5.15568E-18
 -1       307 3.96367E-05-3.86438E-05-2.61006E-06 3.05924E-05-6.12638E-18-5.93704E-18
 -1       308 7.38449E-05-3.29241E-05-1.83754E-05 4.32752E-05-6.82158E-18-5.24610E-18
 -1       309 1.16848E-04-3.19314E-05-3.59489E-05 4.67405E-05-6.01944E-18-5.08072E-18
 -1       310 1.57114E-04-3.03122E-05-5.26157E-05 4.42145E-05-5.84580E-18-3.98593E-18
 -1       311 1.87692E-04-3.08562E-05-6.48959E-05 2.44583E-05-5.17992E-18-7.42213E-19
 -1       312 2.09333E-04-3.43400E-05-7.17538E-05 6.02761E-06-4.33850E-18 7.20084E-19
 -1       313 2.08163E-04-3.58382E-05-7.04070E-05-1.91054E-05-3.52959E-18 3.00718E-18
 -1       314 1.77427E-04-3.12792E-05-6.04113E-05-3.40979E-05-3.48890E-18 3.89699E-18
 -1       315 1.39859E-04-2.99724E-05-4.58798E-05-4.69091E-05-3.49020E-18 5.27490E-18
 -1       316 1.01448E-04-3.50453E-05-2.85217E-05-4.56860E-05-3.37394E-18 4.53713E-18
 -1       317 5.71972E-05-3.52398E-05-1.08171E-05-3.88312E-05-2.84095E-18 4.72433E-18
 -1       318 2.84890E-05-4.20546E-05 3.35503E-06-2.59525E-05-1.24027E-18 4.47646E-18
 -1       319 1.25994E-05-4.53994E-05 1.11982E-05-1.25695E-05-1.60195E-19 2.23786E-18
 -1       320 9.17402E-05-1.43888E-05-3.32134E-05-1.27213E-05-3.04918E-18-2.76812E-18
 -1       321 9.57589E-05-1.91251E-05-3.29054E-05-1.43327E-05-3.44631E-18-9.32921E-19
 -1       322 8.79988E-05-1.02214E-05-3.33877E-05-7.83974E-06-1.59048E-18-4.48415E-18
 -1       323 8.71196E-05-9.23019E-06-3.34286E-05-5.45806E-06-9.52335E-19-4.72475E-18
 -1       324 8.65993E-05-8.63982E-06-3.34550E-05-3.19608E-06-2.20399E-19-4.65084E-18
 -1       325 8.63606E-05-8.36577E-06-3.34685E-05-1.01157E-06 4.95844E-19-4.58087E-18
 -1       326 8.63706E-05-8.37271E-06-3.34699E-05 1.14633E-06 1.05526E-18-4.46714E-18
 -1       327 8.66313E-05-8.66372E-06-3.34586E-05 3.33002E-06 1.52108E-18-4.35650E-18
 -1       328 8.71665E-05-9.26507E-06-3.34341E-05 5.55182E-06 2.09593E-18-4.05306E-18
 -1       329 8.80815E-05-1.02939E-05-3.33923E-05 7.92541E-06 2.75042E-18-3.18851E-18
 -1       330 8.95610E-05-1.19590E-05-3.33242E-05 1.04058E-05 3.47610E-18-2.36993E-18
 -1       331 9.20068E-05-1.47159E-05-3.32051E-05 1.28212E-05 3.84414E-18-9.58788E-19
 -1       332 9.58602E-05-1.94773E-05-3.28423E-05 1.40809E-05 3.87224E-18 1.74059E-18
 -1       333 9.87814E-05-2.44511E-05-3.19427E-05 1.16642E-05 3.38243E-18 4.25461E-18
 -1       334 9.64857E-05-2.68256E-05-2.98241E-05 5.48096E-06 2.72937E-18 3.23231E-18
 -1       335 9.65765E-05-2.60377E-05-3.01860E-05-6.01523E-06-2.75360E-18-4.27053E-19
 -1       336 9.51802E-05-2.70446E-05-2.91750E-05-2.41777E-06-2.06670E-18-7.23650E-19
 -1       337 9.43677E-05-2.74637E-05-2.86576E-05-3.79929E-07-1.64935E-18-1.01738E-18
 -1       338 9.40620E-05-2.77136E-05-2.84273E-05 8.45098E-07-1.20463E-18-1.43524E-18
 -1       339 9.41441E-05-2.79238E-05-2.83761E-05 1.61498E-06-9.91094E-19-1.71265E-18
 -1       340 9.45080E-05-2.81377E-05-2.84421E-05 2.12232E-06-7.56569E-19-1.37758E-18
 -1       341 9.50775E-05-2.83731E-05-2.85862E-05 2.47122E-06-3.48963E-19-1.24994E-18
 -1       342 9.58006E-05-2.86425E-05-2.87814E-05 2.71046E-06-7.25729E-19-1.24576E-18
 -1       343 9.66400E-05-2.89581E-05-2.90067E-05 2.84747E-06-1.16755E-18-1.71627E-18
 -1       344 9.75633E-05-2.93324E-05-2.92431E-05 2.85388E-06-1.05553E-18-1.97701E-18
 -1       345 9.85330E-05-2.97735E-05-2.94711E-05 2.66919E-06-5.51716E-19-2.82574E-18
 -1       346 9.94961E-05-3.02783E-05-2.96695E-05 2.20785E-06 9.45221E-20-2.76549E-18
 -1       347 1.00374E-04-3.08186E-05-2.98161E-05 1.37607E-06-1.51346E-19-2.67126E-18
 -1       348 1.01050E-04-3.13245E-05-2.98910E-05 1.05288E-07-1.91241E-19-2.69134E-18
 -1       349 1.01370E-04-3.16692E-05-2.98815E-05-1.59291E-06-8.43834E-19-2.25548E-18
 -1       350 1.01157E-04-3.16710E-05-2.97885E-05-3.55603E-06-8.76745E-19-2.05810E-18
 -1       351 1.00265E-04-3.11396E-05-2.96306E-05-5.41213E-06-8.97101E-19-2.49402E-18
 -1       352 9.86825E-05-2.99832E-05-2.94423E-05-6.59245E-06-6.70623E-19-2.52158E-18
 -1       353 9.66515E-05-2.83517E-05-2.92644E-05-6.48796E-06 5.06896E-21-2.26695E-18
 -1       354 9.47146E-05-2.67110E-05-2.91321E-05-4.75785E-06 1.31213E-18-2.38746E-18
 -1       355 9.35441E-05-2.56882E-05-2.90659E-05-1.65142E-06 5.74407E-19-1.90675E-18
 -1       356 9.36048E-05-2.57299E-05-2.90739E-05 1.97870E-06-7.03004E-20-2.03573E-18
 -1       357 9.48817E-05-2.68206E-05-2.91567E-05 5.01962E-06 5.15193E-19-2.22177E-18
 -1       358 9.68819E-05-2.84833E-05-2.93068E-05 6.65261E-06 7.67144E-19-1.76956E-18
 -1       359 9.89373E-05-3.00956E-05-2.95034E-05 6.68341E-06 5.60817E-19-1.23134E-18
 -1       360 1.00530E-04-3.12161E-05-2.97114E-05 5.48197E-06 1.18938E-19-9.46277E-19
 -1       361 1.01442E-04-3.17168E-05-2.98908E-05 3.66376E-06-8.25543E-20-1.28264E-18
 -1       362 1.01703E-04-3.17022E-05-3.00094E-05 1.78589E-06 5.84089E-20-1.45767E-18
 -1       363 1.01465E-04-3.13654E-05-3.00509E-05 2.04341E-07-2.91990E-19-7.37628E-19
 -1       364 1.00909E-04-3.08858E-05-3.00159E-05-9.31710E-07-5.45134E-19-5.85448E-19
 -1       365 1.00187E-04-3.03873E-05-2.99179E-05-1.62010E-06 3.17120E-19 1.34568E-18
 -1       366 9.94122E-05-2.99381E-05-2.97765E-05-1.93657E-06-1.32473E-19-6.28591E-19
 -1       367 9.86587E-05-2.95651E-05-2.96119E-05-1.98257E-06-8.97487E-19-1.44723E-18
 -1       368 9.79700E-05-2.92719E-05-2.94415E-05-1.85477E-06-5.54541E-19-1.48972E-18
 -1       369 9.73680E-05-2.90500E-05-2.92780E-05-1.63142E-06-1.12412E-18-1.11972E-18
 -1       370 9.68599E-05-2.88871E-05-2.91298E-05-1.36928E-06 5.37322E-19-2.20452E-20
 -1       371 9.64436E-05-2.87706E-05-2.90014E-05-1.10569E-06-5.41051E-19-1.46789E-18
 -1       372 9.61117E-05-2.86895E-05-2.88940E-05-8.62637E-07-1.88386E-19-1.74407E-19
 -1       373 9.58536E-05-2.86345E-05-2.88071E-05-6.51088E-07-3.34126E-19 9.22295E-19
 -1       374 9.56581E-05-2.85987E-05-2.87388E-05-4.74651E-07 7.51476E-19 1.06631E-18
 -1       375 9.55139E-05-2.85764E-05-2.86868E-05-3.32430E-07 2.25082E-18-3.70492E-19
 -1       376 9.54109E-05-2.85636E-05-2.86483E-05-2.21071E-07 2.26199E-18 1.13467E-18
 -1       377 9.53398E-05-2.85574E-05-2.86206E-05-1.36222E-07 1.90776E-18 1.05098E-18
 -1       378 9.52930E-05-2.85557E-05-2.86014E-05-7.35966E-08-1.15971E-19 1.51939E-18
 -1       379 9.52639E-05-2.85574E-05-2.85883E-05-2.93770E-08 2.90073E-19 9.55848E-19
 -1       380 9.52484E-05-2.85628E-05-2.85795E-05-2.77998E-09 4.04393E-19 6.64566E-19
 -1       381 9.46111E-05-2.73756E-05-2.87763E-05 2.14169E-06 2.05787E-18 2.34201E-18
 -1       382 9.36008E-05-2.75297E-05-2.82932E-05 3.03207E-07 1.69479E-18 1.57618E-18
 -1       383 9.33126E-05-2.76578E-05-2.81261E-05-7.87611E-07 1.17330E-18 1.08931E-18
 -1       384 9.35312E-05-2.78217E-05-2.81547E-05-1.50275E-06 7.66082E-19 6.55437E-19
 -1       385 9.41204E-05-2.80293E-05-2.83199E-05-2.04892E-06 6.72151E-19 1.93161E-19
 -1       386 9.50077E-05-2.82790E-05-2.85934E-05-2.55627E-06 9.59317E-19 2.94254E-21
 -1       387 9.61693E-05-2.85720E-05-2.89649E-05-3.12016E-06 7.70059E-19-1.67640E-19
 -1       388 9.76176E-05-2.89158E-05-2.94370E-05-3.81894E-06-4.57675E-20-2.33498E-19
 -1       389 9.93927E-05-2.93265E-05-3.00204E-05-4.71926E-06-5.44889E-20-4.24960E-19
 -1       390 1.01556E-04-2.98331E-05-3.07294E-05-5.86966E-06 8.58365E-21-1.13781E-19
 -1       391 1.04182E-04-3.04877E-05-3.15747E-05-7.27699E-06 9.28930E-19 1.39231E-20
 -1       392 1.07353E-04-3.13860E-05-3.25520E-05-8.85318E-06 2.78996E-19 2.01006E-19
 -1       393 1.11149E-04-3.26997E-05-3.36243E-05-1.03159E-05-1.81993E-19-2.86238E-20
 -1       394 1.15641E-04-3.47049E-05-3.47034E-05-1.10377E-05-5.42718E-19 1.18634E-19
 -1       395 1.20850E-04-3.77318E-05-3.56512E-05-9.89584E-06 1.25402E-19 1.03123E-18
 -1       396 1.26869E-04-4.20808E-05-3.63627E-05-4.99406E-06-9.17757E-19 5.54727E-19
 -1       397 1.31927E-04-4.59227E-05-3.68888E-05 4.28845E-06-1.39628E-19 1.65925E-18
 -1       398 1.33726E-04-4.58845E-05-3.77646E-05 1.59695E-05 4.34279E-19 2.00213E-18
 -1       399 1.29373E-04-3.79395E-05-3.94823E-05 2.18268E-05 7.74360E-19 2.50092E-18
 -1       400 1.22827E-04-2.76748E-05-4.11801E-05 1.41473E-05 1.03497E-18 2.31766E-19
 -1       401 1.20822E-04-2.43429E-05-4.17614E-05-5.75915E-06 2.40568E-18-2.33361E-18
 -1       402 1.26769E-04-3.30744E-05-4.04611E-05-2.03211E-05 2.51444E-18-3.79952E-18
 -1       403 1.33390E-04-4.38884E-05-3.85071E-05-1.99136E-05 1.39731E-18-5.53566E-18
 -1       404 1.33705E-04-4.68012E-05-3.73266E-05-9.14647E-06 1.65846E-19-4.33624E-18
 -1       405 1.29438E-04-4.39452E-05-3.66666E-05 1.74655E-06-1.68657E-18-2.57686E-18
 -1       406 1.23658E-04-3.96018E-05-3.60591E-05 8.20433E-06-2.30164E-18-9.60499E-19
 -1       407 1.18139E-04-3.59909E-05-3.52319E-05 1.06367E-05-9.76996E-19 1.52400E-20
 -1       408 1.13413E-04-3.35657E-05-3.42295E-05 1.04950E-05-2.01097E-18 1.02723E-18
 -1       409 1.09298E-04-3.19534E-05-3.31439E-05 9.08930E-06-8.62856E-19 1.64725E-18
 -1       410 1.06113E-04-3.09771E-05-3.21915E-05 7.40717E-06-1.01306E-18 2.81741E-19
 -1       411 1.03535E-04-3.03119E-05-3.13707E-05 5.80760E-06 8.05294E-19 1.33832E-18
 -1       412 1.01485E-04-2.98386E-05-3.06957E-05 4.44224E-06 1.39629E-18 7.56825E-19
 -1       413 9.98779E-05-2.94907E-05-3.01577E-05 3.34066E-06-9.13158E-20-3.77470E-19
 -1       414 9.86353E-05-2.92306E-05-2.97383E-05 2.47989E-06-2.15232E-19-4.17256E-19
 -1       415 9.76869E-05-2.90355E-05-2.94170E-05 1.82004E-06 1.77320E-18 2.68365E-19
 -1       416 9.69722E-05-2.88901E-05-2.91743E-05 1.32035E-06 8.25050E-19 2.09802E-18
 -1       417 9.64408E-05-2.87829E-05-2.89934E-05 9.45166E-07 7.28238E-19 1.71233E-18
 -1       418 9.60514E-05-2.87055E-05-2.88604E-05 6.65423E-07 2.61722E-19-8.15150E-19
 -1       419 9.57709E-05-2.86508E-05-2.87642E-05 4.58216E-07 5.69431E-19-2.44583E-19
 -1       420 9.55731E-05-2.86135E-05-2.86959E-05 3.05821E-07 3.30218E-19 5.21457E-19
 -1       421 9.54375E-05-2.85891E-05-2.86485E-05 1.94654E-07 1.85808E-18 1.24789E-18
 -1       422 9.53479E-05-2.85743E-05-2.86167E-05 1.14367E-07 7.86562E-20-2.16793E-20
 -1       423 9.52918E-05-2.85664E-05-2.85962E-05 5.71993E-08-1.35390E-18 2.40539E-18
 -1       424 9.52596E-05-2.85638E-05-2.85837E-05 1.79211E-08-2.35871E-18-2.62900E-19
 -1       425 9.52440E-05-2.85658E-05-2.85763E-05-6.30129E-09-1.66614E-18 1.33848E-18
 -1       426 9.52405E-05-2.85700E-05-2.85730E-05-1.39366E-08-1.86065E-18-1.34405E-19
 -1       427 9.52355E-05-2.85248E-05-2.85902E-05 3.68504E-08 6.85134E-19 3.91689E-18
 -1       428 9.52462E-05-2.85487E-05-2.85846E-05 1.72205E-08-2.19823E-19-9.93025E-19
 -1       429 9.52468E-05-2.85634E-05-2.85785E-05-1.63081E-09 4.19797E-19-1.97676E-18
 -1       430 9.52201E-05-2.84973E-05-2.85955E-05 4.80362E-08 8.36819E-19-1.74435E-18
 -1       431 9.52039E-05-2.84703E-05-2.86001E-05 4.74763E-08 8.36403E-19 2.44513E-19
 -1       432 9.51906E-05-2.84489E-05-2.86036E-05 3.53696E-08 3.65579E-19 4.97716E-19
 -1       433 9.51831E-05-2.84370E-05-2.86056E-05 1.49949E-08-1.42073E-18 1.54110E-18
 -1       434 9.51825E-05-2.84364E-05-2.86056E-05-8.62371E-09-4.88792E-19-7.29842E-19
 -1       435 9.51891E-05-2.84472E-05-2.86038E-05-2.98823E-08 9.39774E-19-2.19545E-18
 -1       436 9.52011E-05-2.84670E-05-2.86004E-05-4.36098E-08 1.40694E-18-2.57733E-18
 -1       437 9.52166E-05-2.84931E-05-2.85958E-05-4.69442E-08 1.56873E-19 4.95427E-19
 -1       438 9.52321E-05-2.85206E-05-2.85906E-05-3.86605E-08 6.61599E-19 6.34244E-19
 -1       439 9.52440E-05-2.85458E-05-2.85849E-05-2.09915E-08 9.59735E-20-1.61966E-18
 -1       440 5.50384E-05-4.17630E-05-5.86814E-06 3.92074E-05-4.09858E-19 4.27720E-18
 -1       441 1.24941E-05-1.98836E-05 3.24722E-06-3.97953E-06-1.27514E-18 2.44411E-18
 -1       442 2.05037E-05-2.54608E-05 2.06778E-06 1.94797E-05-3.65071E-19 3.64595E-18
 -1       443 9.51355E-05-5.52756E-05-1.73440E-05 3.98099E-05 4.55704E-19 4.03431E-18
 -1       444 1.38510E-04-6.32880E-05-3.23524E-05 2.33261E-05 1.94383E-18 5.26960E-19
 -1       445 8.94853E-05-1.18536E-05-3.33328E-05-1.04090E-05-2.30702E-18-3.90957E-18
 -1       446 1.68288E-04-3.23750E-05-5.81279E-05-8.40419E-06 5.18511E-18-1.54075E-18
 -1       447 1.71177E-04-1.93448E-05-6.46179E-05-3.99461E-06 5.23128E-18-1.62731E-18
 -1       448 1.64826E-04-1.97391E-05-6.21266E-05 6.58299E-06 3.98635E-18-9.21519E-19
 -1       449 1.68693E-04-3.92596E-05-5.53112E-05 5.15730E-06 1.80693E-18-1.18532E-18
 -1       450 1.54732E-04-5.57912E-05-4.24892E-05-8.33672E-06 2.08746E-18-1.93335E-19
 -1       451 1.19380E-04-6.14935E-05-2.48642E-05-3.28920E-05 7.54812E-19-1.85754E-18
 -1       452 7.63791E-05-4.97826E-05-1.16597E-05-4.15574E-05 5.93982E-19-4.32386E-18
 -1       453 3.94971E-05-3.60614E-05-1.75409E-06-3.38832E-05-2.43522E-21-3.35690E-18
 -1       454 1.61060E-05-2.26615E-05 2.77886E-06-1.25406E-05 1.58078E-19-5.05573E-18
 -1       455 1.44820E-05-2.20732E-05 3.27383E-06 1.42992E-05 6.14549E-19-6.22273E-18
 -1       456 4.62749E-05-3.62852E-05-4.32636E-06 4.26295E-05 3.08744E-19-4.68092E-18
 -1       457 7.75546E-05-4.71925E-05-1.31816E-05 4.65144E-05-7.26860E-19-2.16407E-18
 -1       458 1.16774E-04-5.34639E-05-2.71695E-05 3.76969E-05-1.75622E-18-5.79688E-19
 -1       459 1.44845E-04-4.68499E-05-4.18922E-05 1.99303E-05-2.76824E-18 4.23834E-19
 -1       460 1.57329E-04-3.20703E-05-5.35207E-05 6.94517E-06-4.86695E-18 1.14879E-18
 -1       461 1.52318E-04-1.30408E-05-5.98830E-05-3.00836E-06-5.36849E-18 6.94832E-19
 -1       462 1.61489E-04-1.28208E-05-6.35092E-05 1.95080E-08-4.26905E-18 4.99247E-19
 -1       463 1.57262E-04-2.04062E-05-5.85788E-05 5.42205E-07-2.38122E-18-5.02820E-19
 -1       464 1.51702E-04-3.95843E-05-4.80924E-05-9.06246E-06-8.01955E-19-1.19389E-18
 -1       465 1.38469E-04-5.12158E-05-3.72825E-05-2.46265E-05 1.78089E-19 7.07273E-19
 -1       466 1.00956E-04-5.26878E-05-2.07623E-05-4.31896E-05 7.13308E-19 1.88168E-18
 -1       467 6.33396E-05-4.18593E-05-9.14182E-06-4.68229E-05 1.42958E-18 3.52816E-18
 -1       468 2.78133E-05-2.81703E-05 1.39396E-07-3.31394E-05 8.29033E-19 2.81300E-18
 -1       469 1.63404E-04-5.06837E-05-4.81645E-05 2.77517E-06 5.30901E-18-8.45868E-19
 -1       470 3.28784E-05-2.23401E-05-4.04615E-06 3.20462E-05 1.40613E-18-4.49764E-18
 -1       471 1.43461E-04-6.63164E-05-3.32338E-05-1.28862E-05 4.10070E-19 1.00310E-18
 -1       472 9.59989E-05-2.51217E-05-3.03615E-05 5.57663E-06 2.81870E-18 3.90806E-19
 -1       473 8.93282E-05-1.29919E-05-3.27340E-05-3.64040E-06-5.17982E-19-4.08849E-18
 -1       474 9.01345E-05-1.40549E-05-3.26254E-05-5.50045E-06-1.24270E-18-4.07525E-18
 -1       475 8.87356E-05-1.22135E-05-3.28124E-05 6.21117E-08 7.10437E-19-4.18318E-18
 -1       476 8.88949E-05-1.24142E-05-3.27950E-05 1.90215E-06 1.20589E-18-4.01360E-18
 -1       477 8.93582E-05-1.30119E-05-3.27386E-05 3.72071E-06 1.74621E-18-3.79837E-18
 -1       478 9.01837E-05-1.40953E-05-3.26301E-05 5.56901E-06 2.46229E-18-3.17265E-18
 -1       479 9.14437E-05-1.57913E-05-3.24454E-05 7.33759E-06 3.01724E-18-2.35282E-18
 -1       480 9.33212E-05-1.83753E-05-3.21398E-05 8.84635E-06 3.42396E-18-1.58863E-18
 -1       481 9.54003E-05-2.65272E-05-2.94985E-05 2.29300E-06 2.22763E-18 2.24580E-21
 -1       482 9.56417E-05-2.43723E-05-3.05340E-05-5.32766E-06-2.52746E-18-1.78969E-18
 -1       483 1.54271E-04-4.40132E-05-4.76483E-05-1.77226E-05 4.25571E-18-2.51733E-18
 -1       484 9.55130E-05-2.61300E-05-2.97269E-05-2.25982E-06-1.88854E-18-1.74633E-18
 -1       485 9.52699E-05-2.70468E-05-2.92341E-05-2.02269E-07-1.62122E-18-1.65357E-18
 -1       486 9.51456E-05-2.75695E-05-2.89590E-05 1.16474E-06-1.12639E-18-1.71303E-18
 -1       487 9.51894E-05-2.79085E-05-2.88335E-05 2.09218E-06-7.05006E-19-1.59878E-18
 -1       488 9.53956E-05-2.81672E-05-2.88115E-05 2.74200E-06-5.94470E-19-1.72397E-18
 -1       489 9.57493E-05-2.84091E-05-2.88597E-05 3.20969E-06-5.49710E-19-2.14550E-18
 -1       490 9.62420E-05-2.86844E-05-2.89531E-05 3.53845E-06-8.95927E-19-1.88798E-18
 -1       491 9.68742E-05-2.90403E-05-2.90720E-05 3.72624E-06-9.39662E-19-1.21155E-18
 -1       492 9.76533E-05-2.95225E-05-2.91998E-05 3.72907E-06-1.13414E-18-1.00817E-18
 -1       493 9.85859E-05-3.01682E-05-2.93235E-05 3.46451E-06-6.70214E-19-1.10615E-18
 -1       494 9.96649E-05-3.09897E-05-2.94349E-05 2.82065E-06-3.97188E-20-1.81854E-18
 -1       495 1.00846E-04-3.19445E-05-2.95329E-05 1.67791E-06-5.79409E-20-1.73066E-18
 -1       496 1.02016E-04-3.28953E-05-2.96277E-05-4.58431E-08-4.27454E-19-1.65473E-18
 -1       497 1.02963E-04-3.35749E-05-2.97421E-05-2.31770E-06-9.12906E-19-1.58999E-18
 -1       498 1.03375E-04-3.35974E-05-2.99082E-05-4.88296E-06-8.79954E-19-1.82358E-18
 -1       499 1.02930E-04-3.25749E-05-3.01529E-05-7.17171E-06-7.43942E-19-1.09994E-18
 -1       500 1.01501E-04-3.03861E-05-3.04759E-05-8.32623E-06-2.97749E-19-8.51068E-19
 -1       501 9.94093E-05-2.74724E-05-3.08248E-05-7.49010E-06 5.88387E-19-1.20095E-18
 -1       502 9.75400E-05-2.49590E-05-3.11016E-05-4.38454E-06 1.31569E-18-1.57898E-18
 -1       503 9.68121E-05-2.39843E-05-3.12073E-05 2.23999E-07 7.29407E-19-1.26584E-18
 -1       504 9.76611E-05-2.50889E-05-3.10961E-05 4.78554E-06-4.90158E-20-1.17849E-18
 -1       505 9.96059E-05-2.76734E-05-3.08225E-05 7.75426E-06 1.09799E-19-2.31582E-18
 -1       506 1.01688E-04-3.05453E-05-3.04877E-05 8.46362E-06 1.03932E-18-3.35298E-18
 -1       507 1.03080E-04-3.26497E-05-3.01857E-05 7.24965E-06 8.10790E-19-2.60233E-18
 -1       508 1.03490E-04-3.35791E-05-2.99649E-05 4.98537E-06-6.65922E-19-2.72489E-18
 -1       509 1.03074E-04-3.34917E-05-2.98249E-05 2.51266E-06-2.95770E-19-2.13738E-18
 -1       510 1.02158E-04-3.27801E-05-2.97374E-05 3.75739E-07 2.05479E-19-2.17476E-18
 -1       511 1.01047E-04-3.18238E-05-2.96704E-05-1.19037E-06 6.88766E-20-4.14719E-19
 -1       512 9.99468E-05-3.08821E-05-2.96014E-05-2.16598E-06 3.31851E-19-6.34499E-19
 -1       513 9.89628E-05-3.00870E-05-2.95195E-05-2.64278E-06-6.58181E-19-8.73434E-19
 -1       514 9.81330E-05-2.94795E-05-2.94234E-05-2.74992E-06-8.58033E-19-5.19368E-19
 -1       515 9.74574E-05-2.90498E-05-2.93174E-05-2.61270E-06-6.99009E-20 6.85028E-20
 -1       516 9.69191E-05-2.87661E-05-2.92080E-05-2.33445E-06 1.03075E-19 2.24529E-18
 -1       517 9.64964E-05-2.85921E-05-2.91013E-05-1.99186E-06 2.10160E-19 2.44782E-18
 -1       518 9.61682E-05-2.84952E-05-2.90021E-05-1.63706E-06-1.53995E-18 1.51222E-18
 -1       519 9.59159E-05-2.84493E-05-2.89137E-05-1.30227E-06-1.46956E-19 1.15096E-18
 -1       520 9.57240E-05-2.84353E-05-2.88375E-05-1.00492E-06-2.94108E-19 3.52889E-19
 -1       521 9.55797E-05-2.84397E-05-2.87739E-05-7.52210E-07 2.29593E-19 1.89297E-18
 -1       522 9.54728E-05-2.84536E-05-2.87221E-05-5.44824E-07 2.76422E-19 2.04249E-19
 -1       523 9.53947E-05-2.84714E-05-2.86811E-05-3.79622E-07 3.04341E-18 2.53473E-19
 -1       524 9.53387E-05-2.84898E-05-2.86493E-05-2.51522E-07 2.59818E-18 9.83484E-19
 -1       525 9.52993E-05-2.85074E-05-2.86250E-05-1.55083E-07 4.36452E-19 1.17262E-18
 -1       526 9.52724E-05-2.85237E-05-2.86065E-05-8.51858E-08-5.13753E-19 2.09655E-19
 -1       527 9.47813E-05-2.75909E-05-2.87911E-05-1.20530E-06 1.41577E-18-4.38682E-19
 -1       528 9.48666E-05-2.78105E-05-2.87354E-05-2.21508E-06 1.07948E-18-7.69399E-19
 -1       529 9.51720E-05-2.79471E-05-2.88081E-05-3.04645E-06 1.03049E-18-1.10058E-18
 -1       530 9.56588E-05-2.80268E-05-2.89823E-05-3.85040E-06 7.29874E-19-1.10520E-18
 -1       531 9.62996E-05-2.80602E-05-2.92419E-05-4.74365E-06 4.32195E-19-8.75463E-19
 -1       532 9.70791E-05-2.80556E-05-2.95771E-05-5.82096E-06 1.70443E-19-1.05527E-18
 -1       533 9.79938E-05-2.80312E-05-2.99785E-05-7.15651E-06 5.76119E-20-1.30592E-18
 -1       534 9.90581E-05-2.80360E-05-3.04319E-05-8.79319E-06 1.67765E-19-1.04649E-18
 -1       535 1.00327E-04-2.81894E-05-3.09102E-05-1.07143E-05 2.57423E-19-7.45913E-19
 -1       536 1.01949E-04-2.87514E-05-3.13674E-05-1.27879E-05-3.30424E-19-1.50242E-19
 -1       537 1.04274E-04-3.02225E-05-3.17404E-05-1.46730E-05-2.53090E-19-3.25686E-19
 -1       538 1.08002E-04-3.34093E-05-3.19800E-05-1.56558E-05-5.14600E-19-6.90362E-19
 -1       539 1.14582E-04-3.96039E-05-3.21532E-05-1.43255E-05-6.54440E-19 2.23844E-19
 -1       540 1.24703E-04-4.85185E-05-3.26647E-05-8.47612E-06-1.12086E-18 2.73615E-19
 -1       541 1.36454E-04-5.54214E-05-3.49026E-05 3.16323E-06-1.00234E-19 7.62859E-20
 -1       542 1.45127E-04-5.19935E-05-4.01992E-05 1.71670E-05 4.25879E-19-3.17399E-19
 -1       543 1.38100E-04-1.65581E-05-5.26483E-05 4.99266E-06 4.24660E-18 3.52908E-19
 -1       544 1.38028E-04-2.48292E-05-4.90855E-05-1.71573E-05 3.37283E-18-2.45073E-18
 -1       545 1.45707E-04-4.57738E-05-4.31782E-05-2.20168E-05 2.58035E-18-4.22680E-18
 -1       546 1.39527E-04-5.43981E-05-3.66619E-05-9.79021E-06 8.54855E-19-3.20021E-18
 -1       547 1.29683E-04-5.14270E-05-3.36238E-05 3.64186E-06-2.09858E-18-2.26067E-18
 -1       548 1.19141E-04-4.27884E-05-3.27585E-05 1.15773E-05-3.05203E-18-1.15228E-18
 -1       549 1.11380E-04-3.57671E-05-3.24245E-05 1.47981E-05-2.03435E-18-5.96857E-19
 -1       550 1.06759E-04-3.16315E-05-3.22068E-05 1.46064E-05-2.03446E-18 2.21091E-19
 -1       551 1.03770E-04-2.94698E-05-3.18412E-05 1.28751E-05-9.10828E-19-1.02007E-18
 -1       552 1.01900E-04-2.86205E-05-3.13988E-05 1.07339E-05-1.08166E-18-4.99632E-19
 -1       553 1.00513E-04-2.83321E-05-3.09267E-05 8.62419E-06-1.70468E-19-1.39969E-18
 -1       554 9.94123E-05-2.82822E-05-3.04767E-05 6.75682E-06 1.67139E-18-2.19513E-18
 -1       555 9.85087E-05-2.83145E-05-3.00768E-05 5.19869E-06 1.05578E-18-1.10257E-18
 -1       556 9.77642E-05-2.83638E-05-2.97379E-05 3.94380E-06-3.55208E-19-6.18142E-19
 -1       557 9.71570E-05-2.84076E-05-2.94601E-05 2.95570E-06 2.69305E-19-8.70837E-19
 -1       558 9.66697E-05-2.84409E-05-2.92380E-05 2.18944E-06 4.17780E-19 8.61997E-19
 -1       559 9.62855E-05-2.84651E-05-2.90637E-05 1.60173E-06 1.18807E-18 9.33135E-19
 -1       560 9.59883E-05-2.84828E-05-2.89293E-05 1.15497E-06 1.15127E-18 1.48260E-18
 -1       561 9.57627E-05-2.84963E-05-2.88273E-05 8.18063E-07 8.72172E-19 1.35051E-18
 -1       562 9.55950E-05-2.85075E-05-2.87509E-05 5.66035E-07 2.16635E-19 1.73601E-18
 -1       563 9.54731E-05-2.85171E-05-2.86948E-05 3.79181E-07 5.90608E-19 9.73635E-19
 -1       564 9.53865E-05-2.85258E-05-2.86541E-05 2.42145E-07 2.09087E-18 2.57294E-18
 -1       565 9.53269E-05-2.85339E-05-2.86252E-05 1.43124E-07-1.50288E-18 1.60521E-18
 -1       566 9.52872E-05-2.85419E-05-2.86049E-05 7.32438E-08-7.40087E-19 6.43881E-19
 -1       567 9.52624E-05-2.85510E-05-2.85904E-05 2.61898E-08-1.53061E-18 1.14922E-19
 -1       568 9.51930E-05-2.84270E-05-2.86140E-05 8.22735E-08 2.13655E-18-1.88919E-18
 -1       569 9.51662E-05-2.83919E-05-2.86176E-05 6.78597E-08 2.34805E-18 9.51997E-19
 -1       570 9.52474E-05-2.85097E-05-2.86019E-05 6.12105E-08 1.79879E-19 1.33009E-18
 -1       571 9.52224E-05-2.84684E-05-2.86088E-05 7.97464E-08 2.94609E-19 2.57193E-18
 -1       572 9.51477E-05-2.83686E-05-2.86196E-05 3.95408E-08 1.42269E-18-1.01043E-18
 -1       573 9.51407E-05-2.83605E-05-2.86201E-05 3.36549E-09-1.09328E-19 8.47160E-19
 -1       574 9.51465E-05-2.83688E-05-2.86191E-05-3.31594E-08-1.52586E-19-1.02500E-19
 -1       575 9.51634E-05-2.83913E-05-2.86166E-05-6.21719E-08 9.99931E-19-1.67727E-18
 -1       576 9.51888E-05-2.84257E-05-2.86128E-05-7.88180E-08 1.66125E-18-3.37960E-18
 -1       577 9.52172E-05-2.84661E-05-2.86076E-05-7.93128E-08 1.02682E-18 5.02865E-20
 -1       578 9.52423E-05-2.85066E-05-2.86010E-05-6.45187E-08-5.66776E-19-1.28062E-18
 -1       579 8.86868E-05-4.98510E-05-1.63240E-05 3.96883E-05-1.40692E-18 3.56381E-18
 -1       580 2.83387E-05-1.48457E-05-5.14654E-06-2.12349E-05 8.25063E-20 1.42090E-19
 -1       581 9.49583E-05-2.72212E-05-2.90207E-05 1.92721E-07 1.69694E-18-1.82567E-19
 -1       582 2.54846E-05-1.39201E-05-4.32979E-06 9.99449E-06-2.08668E-18 4.70273E-18
 -1       583 5.49252E-05-3.02737E-05-1.00552E-05-4.16065E-05 1.85617E-18 3.27664E-18
 -1       584 9.47385E-05-2.07311E-05-3.17386E-05-9.10401E-06-2.96545E-18-2.26338E-18
 -1       585 1.23005E-04-6.26230E-05-2.58270E-05 2.74603E-05-5.97688E-20 9.50444E-19
 -1       586 1.40121E-04-2.94207E-05-4.79392E-05 9.38351E-06-7.18919E-20-3.03248E-18
 -1       587 3.75138E-05-2.30444E-05-5.68769E-06-2.78343E-05-1.07240E-18-3.01628E-18
 -1       588 8.88768E-05-1.24008E-05-3.27929E-05-1.78165E-06 1.66595E-19-4.05028E-18
 -1       589 1.35739E-04-5.82425E-05-3.33153E-05 1.76075E-05-1.29067E-19 1.74187E-18
 -1       590 1.48435E-04-2.30103E-05-5.43791E-05-1.41588E-05 4.17640E-18-1.63795E-19
 -1       591 1.47616E-04-2.97426E-05-5.12048E-05 1.84111E-05 2.11430E-18-1.88147E-19
 -1       592 1.55864E-04-5.05724E-05-4.53918E-05 1.32647E-05 6.00361E-19 3.92600E-19
 -1       593 1.04259E-04-5.61672E-05-2.04255E-05-3.58196E-05-1.42243E-18-2.19915E-18
 -1       594 7.15027E-05-4.10342E-05-1.26229E-05-3.99231E-05-1.22179E-18-3.68036E-18
 -1       595 2.47622E-05-1.18279E-05-4.81831E-06 1.46450E-06 3.90595E-20-4.77864E-18
 -1       596 7.59435E-05-4.23957E-05-1.39735E-05 4.51129E-05 2.12452E-18-1.05771E-18
 -1       597 9.44537E-05-5.06174E-05-1.85039E-05-4.33245E-05 1.47108E-18 1.65091E-18
 -1       598 1.07891E-04-5.62864E-05-2.19760E-05 3.92452E-05 1.18346E-18 5.98012E-19
 -1       599 1.43634E-04-4.29973E-05-4.34777E-05-2.37747E-06-2.29549E-18 2.34946E-18
 -1       600 1.37193E-04-2.07943E-05-5.04666E-05-1.03460E-05-4.15941E-18 2.36349E-18
 -1       601 1.30883E-04-5.88056E-06-5.42500E-05-8.07649E-07-3.64679E-18-9.63371E-19
 -1       602 1.32717E-04-1.02237E-05-5.31256E-05 7.36354E-06-1.86384E-18-2.03029E-18
 -1       603 1.41075E-04-5.07251E-05-3.90020E-05-2.97279E-06 1.32769E-18-2.86371E-18
 -1       604 1.27564E-04-5.97474E-05-2.90637E-05-2.60849E-05 1.83031E-18-8.99443E-19
 -1       605 4.90238E-05-2.73619E-05-8.75537E-06 3.33182E-05-1.56447E-18 3.50058E-18
 -1       606 9.62731E-05-2.31907E-05-3.13243E-05 9.23103E-06 3.43134E-18 8.77715E-19
 -1       607 1.50214E-04-5.99080E-05-3.89595E-05-8.65715E-07 2.32539E-18-2.85233E-18
 -1       608 9.13292E-05-1.57036E-05-3.24451E-05-7.24011E-06-1.92672E-18-3.81174E-18
 -1       609 1.41736E-04-6.52151E-05-3.27976E-05 7.02403E-06-5.56421E-19-2.75852E-18
 -1       610 1.23039E-04-1.07005E-05-4.86496E-05-8.57934E-06-2.87181E-18 8.94321E-19
 -1       611 1.40104E-04-3.28581E-05-4.65741E-05 2.17121E-05 1.59242E-18 7.94411E-19
 -1       612 9.52596E-05-2.85350E-05-2.85961E-05-4.96487E-08-5.60889E-19 1.07768E-18
 -1       613 5.77927E-05-2.84640E-05-1.20176E-05 3.91464E-05 2.02833E-18-3.55092E-18
 -1       614 1.27093E-04-6.24843E-05-2.76226E-05-2.12313E-05-7.48936E-19 3.78068E-19
 -1       615 3.50809E-05-1.31090E-05-8.78113E-06 1.81110E-05 1.29220E-18-4.68711E-18
 -1       616 9.11412E-05-1.61781E-05-3.21325E-05 2.16950E-06 1.36170E-18-3.53932E-18
 -1       617 9.08221E-05-1.57277E-05-3.21885E-05 7.60731E-07 8.69779E-19-3.72055E-18
 -1       618 9.27502E-05-1.85751E-05-3.17949E-05 4.72267E-06 2.37181E-18-2.35686E-18
 -1       619 9.39999E-05-2.06663E-05-3.14366E-05 5.56496E-06 2.77805E-18-1.77842E-18
 -1       620 9.54097E-05-2.39307E-05-3.06236E-05 4.53788E-06 2.54940E-18-1.14755E-18
 -1       621 4.54984E-05-1.59820E-05-1.21483E-05 2.06472E-05-2.27688E-18 4.03410E-18
 -1       622 9.55175E-05-2.56845E-05-2.99242E-05 1.78271E-06 2.03548E-18-1.13620E-18
 -1       623 1.14792E-04-5.56625E-05-2.51989E-05-2.94579E-05 2.74969E-18-1.60728E-18
 -1       624 9.55114E-05-2.54105E-05-3.00410E-05-1.60917E-06-1.62478E-18-2.00220E-18
 -1       625 9.56126E-05-2.65788E-05-2.95851E-05 2.18080E-07-1.38498E-18-1.85988E-18
 -1       626 9.56235E-05-2.72749E-05-2.92919E-05 1.53041E-06-9.93858E-19-1.87873E-18
 -1       627 9.56506E-05-2.77090E-05-2.91176E-05 2.48474E-06-7.90213E-19-2.13560E-18
 -1       628 9.57455E-05-2.80124E-05-2.90283E-05 3.19920E-06-7.36494E-19-2.32713E-18
 -1       629 9.59434E-05-2.82836E-05-2.89970E-05 3.74879E-06-5.00139E-19-1.81618E-18
 -1       630 9.62820E-05-2.86104E-05-2.90021E-05 4.16538E-06-4.77854E-19-1.70819E-18
 -1       631 9.68093E-05-2.90787E-05-2.90275E-05 4.43765E-06-7.53095E-19-1.23056E-18
 -1       632 9.75845E-05-2.97722E-05-2.90628E-05 4.50986E-06-8.28203E-19-6.37449E-19
 -1       633 9.86702E-05-3.07595E-05-2.91053E-05 4.28103E-06-6.46859E-19-4.10736E-19
 -1       634 1.00110E-04-3.20627E-05-2.91645E-05 3.60850E-06-4.09881E-19-8.79207E-19
 -1       635 1.01887E-04-3.36036E-05-2.92661E-05 2.32577E-06-2.74818E-19-1.00021E-18
 -1       636 1.03853E-04-3.51286E-05-2.94554E-05 2.93402E-07-8.52474E-19-7.14044E-19
 -1       637 1.05659E-04-3.61441E-05-2.97935E-05-2.49162E-06-1.08707E-18-5.75303E-19
 -1       638 1.06740E-04-3.59442E-05-3.03430E-05-5.71262E-06-3.88557E-19-5.38293E-19
 -1       639 1.06478E-04-3.38624E-05-3.11213E-05-8.52690E-06-1.19977E-19-5.05408E-19
 -1       640 1.04643E-04-2.98608E-05-3.20541E-05-9.63614E-06 2.88883E-19 6.75224E-20
 -1       641 1.01926E-04-2.50931E-05-3.29287E-05-7.65663E-06 1.99506E-19-1.40206E-19
 -1       642 9.99251E-05-2.18578E-05-3.34662E-05-2.81259E-06 1.12516E-18-9.80542E-19
 -1       643 1.00002E-04-2.19670E-05-3.34483E-05 3.34639E-06 4.93209E-19-1.07433E-18
 -1       644 1.02132E-04-2.53980E-05-3.28843E-05 8.06429E-06-8.15696E-19-4.80240E-19
 -1       645 1.04819E-04-3.01291E-05-3.20134E-05 9.79053E-06-1.29579E-19-1.30102E-18
 -1       646 1.06557E-04-3.39962E-05-3.11013E-05 8.58589E-06 9.21669E-19-1.58216E-18
 -1       647 1.06709E-04-3.58971E-05-3.03482E-05 5.75957E-06 4.02369E-19-2.43624E-18
 -1       648 1.05562E-04-3.59603E-05-2.98297E-05 2.63797E-06 5.66701E-20-1.54908E-18
 -1       649 1.03738E-04-3.48640E-05-2.95188E-05 2.89693E-10-2.30073E-19-1.75393E-20
 -1       650 1.01785E-04-3.33005E-05-2.93521E-05-1.86321E-06 1.03670E-18-3.59507E-19
 -1       651 1.00037E-04-3.17484E-05-2.92675E-05-2.97143E-06-7.05003E-20-6.73847E-19
 -1       652 9.86275E-05-3.04503E-05-2.92194E-05-3.47349E-06-4.55972E-20-3.31812E-19
 -1       653 9.75672E-05-2.94812E-05-2.91799E-05-3.54423E-06-1.38341E-18-5.47279E-19
 -1       654 9.68070E-05-2.88228E-05-2.91361E-05-3.33865E-06-4.00846E-19 3.36802E-19
 -1       655 9.62805E-05-2.84172E-05-2.90842E-05-2.97762E-06-3.05534E-19-8.26132E-21
 -1       656 9.59250E-05-2.81982E-05-2.90256E-05-2.54797E-06-3.88415E-19-9.48932E-19
 -1       657 9.56892E-05-2.81065E-05-2.89638E-05-2.10790E-06-9.36144E-19-1.49676E-18
 -1       658 9.55345E-05-2.80952E-05-2.89023E-05-1.69330E-06-6.36444E-19-1.15221E-18
 -1       659 9.54335E-05-2.81298E-05-2.88443E-05-1.32375E-06-6.46328E-19 2.57080E-19
 -1       660 9.53677E-05-2.81869E-05-2.87916E-05-1.00756E-06 1.97645E-19-6.58974E-19
 -1       661 9.53245E-05-2.82513E-05-2.87455E-05-7.45732E-07-2.70007E-19-3.01466E-20
 -1       662 9.52958E-05-2.83143E-05-2.87063E-05-5.35020E-07 1.25513E-18 1.78257E-19
 -1       663 9.52761E-05-2.83709E-05-2.86736E-05-3.69670E-07 1.19669E-18-2.76094E-18
 -1       664 9.52624E-05-2.84196E-05-2.86468E-05-2.43206E-07 6.99189E-19-5.43974E-18
 -1       665 9.52524E-05-2.84606E-05-2.86250E-05-1.49864E-07 8.83237E-19-2.17385E-18
 -1       666 9.53573E-05-2.74265E-05-2.91123E-05-2.76667E-06 1.26071E-18-1.18759E-18
 -1       667 6.19472E-05-2.78446E-05-1.41149E-05-3.20541E-05-1.24130E-18-2.96647E-18
 -1       668 9.53970E-05-2.72020E-05-2.92254E-05-1.63836E-06 1.44073E-18-9.74792E-19
 -1       669 9.53843E-05-2.72932E-05-2.91808E-05-4.71913E-06 3.74255E-19-1.00784E-18
 -1       670 9.53905E-05-2.69919E-05-2.93122E-05-5.78991E-06 6.19896E-19-1.36710E-18
 -1       671 9.53381E-05-2.65545E-05-2.94768E-05-7.04820E-06 6.35270E-20-1.04283E-18
 -1       672 9.51888E-05-2.60143E-05-2.96439E-05-8.56157E-06-2.02811E-19-5.99849E-19
 -1       673 9.49310E-05-2.54624E-05-2.97697E-05-1.03753E-05-2.72029E-19 1.48413E-19
 -1       674 9.46339E-05-2.51157E-05-2.97910E-05-1.25080E-05-1.85178E-19 1.42207E-19
 -1       675 9.45589E-05-2.54293E-05-2.96251E-05-1.49435E-05-3.87540E-19-2.74974E-19
 -1       676 9.53542E-05-2.72372E-05-2.91905E-05-1.75985E-05-1.54197E-19-2.20024E-19
 -1       677 9.86167E-05-3.22731E-05-2.84185E-05-2.03544E-05-6.90678E-19-7.90035E-19
 -1       678 1.06260E-04-4.16106E-05-2.75738E-05-2.21643E-05-1.13651E-18-9.01766E-19
 -1       679 1.02223E-04-3.54920E-05-2.85335E-05 2.05489E-05-3.54812E-18-1.03930E-18
 -1       680 9.73841E-05-2.91637E-05-2.92431E-05 1.81912E-05-2.73404E-18 1.62305E-19
 -1       681 9.56013E-05-2.61213E-05-2.97770E-05 1.54130E-05-3.62776E-20 3.77062E-20
 -1       682 9.53108E-05-2.52858E-05-3.00092E-05 1.27814E-05-1.51622E-18-1.22990E-18
 -1       683 9.54676E-05-2.53891E-05-3.00309E-05 1.03923E-05-4.09020E-19-1.54867E-18
 -1       684 9.56841E-05-2.58527E-05-2.99249E-05 8.30841E-06 1.09606E-18-1.82386E-18
 -1       685 9.58269E-05-2.63897E-05-2.97563E-05 6.54393E-06 5.10405E-19-1.08671E-18
 -1       686 9.58766E-05-2.68795E-05-2.95682E-05 5.08556E-06 1.74280E-19-8.65726E-19
 -1       687 9.58538E-05-2.72838E-05-2.93856E-05 3.90334E-06-3.71300E-19 5.38995E-19
 -1       688 9.57872E-05-2.76012E-05-2.92214E-05 2.95974E-06-2.04088E-19 2.26564E-19
 -1       689 9.57006E-05-2.78442E-05-2.90804E-05 2.21617E-06 3.03509E-20-2.49678E-19
 -1       690 9.56106E-05-2.80278E-05-2.89634E-05 1.63667E-06 8.29963E-19 9.08750E-19
 -1       691 9.55270E-05-2.81657E-05-2.88686E-05 1.18958E-06 5.34323E-19 2.39918E-18
 -1       692 9.54547E-05-2.82694E-05-2.87934E-05 8.48013E-07-1.10846E-19 1.63101E-18
 -1       693 9.53953E-05-2.83473E-05-2.87346E-05 5.89725E-07-3.48129E-19 2.68381E-18
 -1       694 9.53482E-05-2.84060E-05-2.86893E-05 3.96713E-07 9.83831E-19 2.50894E-18
 -1       695 9.53119E-05-2.84503E-05-2.86548E-05 2.54720E-07 6.02953E-19 3.89223E-18
 -1       696 9.52848E-05-2.84842E-05-2.86287E-05 1.52284E-07 8.17555E-19 3.09577E-18
 -1       697 9.52628E-05-2.84954E-05-2.86145E-05 1.00293E-07-1.53719E-19 7.96140E-19
 -1       698 9.50870E-05-2.82702E-05-2.86358E-05 3.02870E-08 2.40292E-18-2.26280E-18
 -1       699 9.52471E-05-2.84850E-05-2.86124E-05-1.02132E-07 8.27778E-20-2.35814E-18
 -1       700 9.51440E-05-2.83335E-05-2.86331E-05 1.17294E-07 1.56131E-18-1.21193E-18
 -1       701 9.50867E-05-2.82714E-05-2.86351E-05-2.54172E-08 5.26185E-19-1.52971E-19
 -1       702 9.51073E-05-2.82919E-05-2.86352E-05 8.09749E-08 6.83559E-19-1.40072E-19
 -1       703 9.54707E-05-2.66768E-05-2.94808E-05-1.90596E-07 1.61418E-18-1.08921E-18
 -1       704 9.51055E-05-2.82942E-05-2.86334E-05-7.52949E-08 1.98178E-20-1.17255E-18
 -1       705 9.51404E-05-2.83361E-05-2.86304E-05-1.12263E-07 1.16672E-18-1.63837E-18
 -1       706 9.51849E-05-2.83910E-05-2.86260E-05-1.28966E-07 2.10757E-18-1.12086E-18
 -1       707 9.42376E-05-2.08199E-05-3.14645E-05-6.54270E-06-2.25644E-18-2.62895E-18
 -1       708 1.11210E-04-5.36380E-05-2.45026E-05 2.75138E-05-2.67797E-18 2.83491E-20
 -1       709 3.56376E-05-9.75206E-06-1.05231E-05-4.36772E-06-5.74366E-19 1.51619E-19
 -1       710 8.09367E-05-3.91683E-05-1.75801E-05-4.00225E-05 2.05207E-18 1.85167E-18
 -1       711 1.35634E-04-5.17497E-05-3.61223E-05 4.10019E-07-2.02560E-19 3.10620E-18
 -1       712 9.53611E-05-2.74439E-05-2.91065E-05-3.74795E-06 8.44982E-19-1.23615E-18
 -1       713 9.51574E-05-2.36361E-05-3.06525E-05-3.81868E-06-2.04712E-18-2.35327E-18
 -1       714 7.92701E-05-3.62876E-05-1.79571E-05 3.40197E-05-2.86355E-18 3.80500E-18
 -1       715 9.17832E-05-1.71089E-05-3.20090E-05 3.51913E-06 1.84632E-18-3.02188E-18
 -1       716 9.17568E-05-1.70959E-05-3.20030E-05-3.46088E-06-7.35987E-19-3.51449E-18
 -1       717 5.01824E-05-1.88134E-05-1.29755E-05-2.91656E-05 3.66342E-19 1.85577E-18
 -1       718 1.32134E-04-3.97078E-05-3.98869E-05 1.01131E-05 4.21717E-19-2.42929E-18
 -1       719 8.64856E-05-4.25760E-05-1.84278E-05-3.51758E-05-1.99696E-18-1.82321E-18
 -1       720 1.31238E-04-5.62180E-05-3.22543E-05-8.52054E-06 2.29468E-18-2.45996E-18
 -1       721 1.22381E-04-1.97616E-05-4.44055E-05 1.29935E-05-3.32037E-19-3.01384E-18
 -1       722 9.85415E-05-4.94087E-05-2.08307E-05 3.76326E-05 2.02624E-18 4.09871E-19
 -1       723 1.23590E-04-5.87310E-05-2.77943E-05 2.36287E-05 1.50800E-18 1.38654E-18
 -1       724 1.31080E-04-3.33223E-05-4.23005E-05-1.21143E-05-1.81212E-18 4.23993E-18
 -1       725 1.17660E-04-8.31779E-06-4.73956E-05 4.09969E-06-1.75304E-18-2.54433E-18
 -1       726 4.09118E-05-1.39820E-05-1.09687E-05-1.58432E-05-5.44325E-19-3.35287E-18
 -1       727 9.27249E-05-1.85347E-05-3.17999E-05-4.75927E-06-1.37170E-18-3.38621E-18
 -1       728 9.08216E-05-1.57314E-05-3.21867E-05-6.66273E-07 2.88898E-19-3.73040E-18
 -1       729 9.51903E-05-2.83892E-05-2.86291E-05 1.32438E-07 1.02888E-18 6.76411E-19
 -1       730 1.43837E-04-6.36997E-05-3.42982E-05-3.58526E-06 2.62236E-19 8.82132E-19
 -1       731 9.52305E-05-2.84437E-05-2.86229E-05 1.24389E-07 5.28493E-19 3.24276E-18
 -1       732 3.99655E-05-1.03358E-05-1.21916E-05-5.90243E-07-3.82224E-20-3.17235E-18
 -1       733 1.20296E-04-2.13968E-05-4.27047E-05-1.22588E-05-1.32389E-18 1.90412E-18
 -1       734 8.06945E-05-3.75373E-05-1.81824E-05 3.78034E-05 1.83874E-18-5.85895E-19
 -1       735 9.11336E-05-1.61810E-05-3.21279E-05-2.08455E-06-2.18880E-19-3.47755E-18
 -1       736 9.52163E-05-2.84219E-05-2.86262E-05-1.44719E-07-2.64704E-19-4.30327E-18
 -1       737 9.44958E-05-2.22237E-05-3.09728E-05 3.17801E-06 2.21569E-18-1.69093E-18
 -1       738 1.26061E-04-4.21878E-05-3.60924E-05-8.61307E-06-1.08099E-18 2.69234E-18
 -1       739 9.56594E-05-2.61764E-05-2.97785E-05 6.99202E-07-1.21479E-18-2.01261E-18
 -1       740 9.57119E-05-2.69365E-05-2.94752E-05 1.86535E-06-1.10315E-18-2.16406E-18
 -1       741 9.56887E-05-2.74055E-05-2.92642E-05 2.77468E-06-7.08870E-19-2.04559E-18
 -1       742 9.56718E-05-2.77263E-05-2.91195E-05 3.51346E-06-2.57563E-19-1.69559E-18
 -1       743 9.57351E-05-2.80246E-05-2.90188E-05 4.14004E-06-2.23399E-19-1.45269E-18
 -1       744 9.59595E-05-2.84224E-05-2.89445E-05 4.67947E-06-4.27608E-19-1.28984E-18
 -1       745 9.64433E-05-2.90453E-05-2.88848E-05 5.11770E-06-2.93941E-19-9.22879E-19
 -1       746 9.73046E-05-3.00186E-05-2.88369E-05 5.39369E-06-3.69771E-19-2.24429E-19
 -1       747 9.86728E-05-3.14471E-05-2.88113E-05 5.38836E-06-4.37734E-19-2.61386E-19
 -1       748 1.00658E-04-3.33677E-05-2.88391E-05 4.91197E-06-2.93655E-19 6.48757E-20
 -1       749 1.03278E-04-3.56612E-05-2.89797E-05 3.70311E-06-6.32276E-19-1.33509E-19
 -1       750 1.06340E-04-3.79184E-05-2.93256E-05 1.47860E-06-8.89851E-19 6.54637E-20
 -1       751 1.09298E-04-3.93163E-05-2.99913E-05-1.89871E-06-1.18211E-18 2.25688E-19
 -1       752 1.11156E-04-3.86123E-05-3.10950E-05-6.12513E-06-5.61478E-19-3.15950E-20
 -1       753 1.10798E-04-3.48138E-05-3.25562E-05-9.70110E-06 6.66835E-19-1.64697E-19
 -1       754 1.08132E-04-2.78376E-05-3.43888E-05-1.10229E-05 1.67789E-19-1.68682E-19
 -1       755 1.04150E-04-2.07101E-05-3.58130E-05-7.02159E-06 3.92863E-19-9.48359E-19
 -1       756 1.02499E-04-1.79436E-05-3.62832E-05 2.93122E-07 6.46283E-19-1.26136E-18
 -1       757 1.04331E-04-2.10726E-05-3.57406E-05 7.67479E-06-5.57743E-19-1.15200E-18
 -1       758 1.08369E-04-2.83754E-05-3.42847E-05 1.11756E-05-9.53609E-19-1.29731E-18
 -1       759 1.10899E-04-3.49699E-05-3.25575E-05 9.83521E-06 1.98873E-19-1.24253E-18
 -1       760 1.11004E-04-3.85965E-05-3.10361E-05 6.02847E-06 4.84325E-19-6.79254E-19
 -1       761 1.09001E-04-3.90440E-05-2.99780E-05 1.95374E-06 9.94043E-19-1.54741E-20
 -1       762 1.05994E-04-3.75195E-05-2.93459E-05-1.26348E-06 3.75130E-19 4.91883E-19
 -1       763 1.02913E-04-3.51902E-05-2.90250E-05-3.30736E-06-2.69981E-19 7.36830E-19
 -1       764 1.00291E-04-3.28681E-05-2.88960E-05-4.34177E-06-1.13894E-18-1.18469E-19
 -1       765 9.82980E-05-3.09392E-05-2.88683E-05-4.65694E-06 2.73189E-19-1.32163E-18
 -1       766 9.69056E-05-2.95159E-05-2.88814E-05-4.51680E-06-8.45896E-19-1.52395E-18
 -1       767 9.60015E-05-2.85661E-05-2.89009E-05-4.11907E-06-6.02773E-19-9.05666E-19
 -1       768 9.54579E-05-2.79988E-05-2.89110E-05-3.59844E-06-8.07439E-19-1.08104E-18
 -1       769 9.51617E-05-2.77124E-05-2.89068E-05-3.04151E-06-1.35436E-18-5.02074E-19
 -1       770 9.50247E-05-2.76165E-05-2.88892E-05-2.50116E-06-1.41425E-18-3.92358E-19
 -1       771 9.49833E-05-2.76394E-05-2.88616E-05-2.00742E-06-2.56318E-19-3.60736E-19
 -1       772 9.49941E-05-2.77286E-05-2.88280E-05-1.57485E-06 5.95924E-19 2.29127E-19
 -1       773 9.50294E-05-2.78480E-05-2.87920E-05-1.20796E-06-3.55324E-19 8.40080E-19
 -1       774 9.50724E-05-2.79744E-05-2.87562E-05-9.05044E-07 1.54798E-19 8.23392E-19
 -1       775 9.51138E-05-2.80943E-05-2.87226E-05-6.60657E-07 9.71431E-20-6.81261E-19
 -1       776 9.51494E-05-2.82007E-05-2.86923E-05-4.68633E-07-2.02713E-19-1.63662E-18
 -1       777 9.51779E-05-2.82914E-05-2.86656E-05-3.20241E-07-8.73078E-19-3.03433E-18
 -1       778 9.52020E-05-2.83644E-05-2.86447E-05-2.20798E-07 1.27291E-18-4.58457E-18
 -1       779 9.50231E-05-2.81717E-05-2.86506E-05-7.78162E-08 5.21082E-19-2.28821E-18
 -1       780 9.36615E-05-2.55506E-05-2.91900E-05-6.06341E-06 3.07313E-19-1.05748E-18
 -1       781 9.43617E-05-2.62194E-05-2.92036E-05-5.02270E-06 5.94867E-19-1.18835E-18
 -1       782 9.13800E-05-2.36014E-05-2.90472E-05-8.62664E-06-7.28028E-19-1.23414E-18
 -1       783 8.96705E-05-2.24896E-05-2.87909E-05-1.02764E-05-4.12531E-19-1.46195E-18
 -1       784 8.75867E-05-2.15911E-05-2.82826E-05-1.23182E-05-2.12379E-19-8.81915E-19
 -1       785 8.53477E-05-2.14368E-05-2.73861E-05-1.50016E-05-1.44425E-19-1.03187E-18
 -1       786 8.34910E-05-2.31346E-05-2.58396E-05-1.89516E-05-3.26506E-19-1.43508E-18
 -1       787 8.38768E-05-2.84574E-05-2.36240E-05-2.45949E-05-5.18930E-19-1.42211E-18
 -1       788 9.52270E-05-2.40915E-05-3.04863E-05 2.62489E-06 2.11042E-18-1.47148E-18
 -1       789 1.26408E-04-5.42684E-05-3.09583E-05 8.06536E-06 6.04789E-19 2.47150E-18
 -1       790 8.47848E-05-2.52731E-05-2.54293E-05 2.04735E-05-2.07932E-18 7.78483E-19
 -1       791 8.92435E-05-2.20256E-05-2.88073E-05 1.04449E-05 3.04214E-20-4.41029E-19
 -1       792 9.09640E-05-2.30237E-05-2.91166E-05 8.49305E-06 5.92790E-19-1.98930E-18
 -1       793 9.23023E-05-2.40789E-05-2.92379E-05 6.85986E-06 5.45996E-19-3.56685E-19
 -1       794 9.32822E-05-2.50344E-05-2.92484E-05 5.48232E-06-8.97928E-19 4.16211E-19
 -1       795 9.39696E-05-2.58366E-05-2.91994E-05 4.32783E-06-1.28042E-18 1.60897E-18
 -1       796 9.44362E-05-2.64819E-05-2.91229E-05 3.37195E-06-2.45325E-21 2.34079E-18
 -1       797 9.47445E-05-2.69883E-05-2.90381E-05 2.59134E-06 2.75764E-19 7.03915E-19
 -1       798 9.49435E-05-2.73799E-05-2.89557E-05 1.96265E-06-1.50964E-19 1.47390E-18
 -1       799 9.50691E-05-2.76799E-05-2.88810E-05 1.46308E-06-1.60270E-19 1.51508E-18
 -1       800 9.51464E-05-2.79084E-05-2.88162E-05 1.07118E-06-1.03562E-19 3.53814E-18
 -1       801 9.51924E-05-2.80817E-05-2.87617E-05 7.67717E-07-4.86324E-19 4.48987E-18
 -1       802 9.52190E-05-2.82131E-05-2.87168E-05 5.35827E-07 6.94086E-19 3.15343E-18
 -1       803 9.52325E-05-2.83118E-05-2.86803E-05 3.61712E-07 2.01268E-19 2.40727E-18
 -1       804 9.52383E-05-2.83857E-05-2.86510E-05 2.33653E-07 4.51927E-19 3.21198E-18
 -1       805 9.52329E-05-2.84155E-05-2.86361E-05 1.72615E-07 1.75183E-18 3.23040E-18
 -1       806 5.57215E-05-1.89594E-05-1.54022E-05 2.61818E-05 1.34618E-18-3.56754E-18
 -1       807 9.25414E-05-1.88196E-05-3.15962E-05 1.01616E-06 1.00882E-18-3.16890E-18
 -1       808 9.50081E-05-2.81534E-05-2.86520E-05 6.11601E-10 2.60995E-18-2.55069E-18
 -1       809 9.98144E-05-4.54051E-05-2.31961E-05-3.04862E-05 2.60836E-18-1.69447E-18
 -1       810 9.50648E-05-2.82183E-05-2.86485E-05-1.42945E-07 1.10887E-18-9.58756E-20
 -1       811 8.72343E-05-2.14306E-05-2.82017E-05 1.28531E-05-1.50160E-19 1.36886E-19
 -1       812 8.52035E-05-2.19464E-05-2.71113E-05 1.61744E-05-1.63152E-18-3.46540E-19
 -1       813 9.26924E-05-2.46616E-05-2.91554E-05-7.24549E-06-3.18218E-19-1.07328E-18
 -1       814 9.54406E-05-2.66569E-05-2.94785E-05-1.99289E-06 1.42014E-18-1.26598E-18
 -1       815 5.18967E-05-1.22848E-05-1.66823E-05-1.33445E-05-2.02515E-19-5.20608E-19
 -1       816 9.54132E-05-2.49351E-05-3.02051E-05-8.20819E-07-1.24836E-18-2.04374E-18
 -1       817 1.10874E-04-1.17602E-05-4.27094E-05-5.04940E-06-2.91128E-19-1.77915E-18
 -1       818 1.19824E-04-5.34564E-05-2.84010E-05-1.59770E-05 3.01398E-18-2.56591E-18
 -1       819 1.26110E-04-4.63240E-05-3.43309E-05 4.71849E-06 1.55802E-18-2.36294E-18
 -1       820 9.51258E-05-2.82868E-05-2.86453E-05-1.84520E-07 1.08179E-18-7.25538E-19
 -1       821 8.25110E-05-3.23845E-05-2.11978E-05-2.90459E-05-1.10215E-18-1.74004E-18
 -1       822 6.20806E-05-1.96894E-05-1.78434E-05-2.25728E-05-7.08225E-19-2.70770E-18
 -1       823 6.78999E-05-2.27553E-05-1.92016E-05 2.54727E-05-2.61088E-18 3.06494E-18
 -1       824 1.01270E-04-4.80784E-05-2.24729E-05-3.00831E-05-2.14130E-18-1.78586E-18
 -1       825 4.91681E-05-1.05346E-05-1.62449E-05 5.32659E-06 8.15108E-20 2.02684E-18
 -1       826 1.19522E-04-3.01073E-05-3.85109E-05 1.34297E-05 1.52929E-19-2.82663E-18
 -1       827 1.11910E-04-5.22671E-05-2.55016E-05 2.57271E-05 1.49305E-18 1.18376E-18
 -1       828 7.20469E-05-2.76218E-05-1.88254E-05-3.11934E-05 1.15765E-18 1.56833E-18
 -1       829 1.11509E-04-1.51034E-05-4.15785E-05 8.36445E-06-3.83852E-19-2.89477E-18
 -1       830 9.24021E-05-1.86059E-05-3.16281E-05 5.83108E-08 4.60706E-19-3.20822E-18
 -1       831 9.83408E-05-4.43926E-05-2.29841E-05 3.03793E-05 1.56266E-18 5.87100E-19
 -1       832 9.51286E-05-2.82776E-05-2.86504E-05 1.88990E-07 1.23662E-18-9.67679E-19
 -1       833 9.48838E-05-2.31753E-05-3.07315E-05-2.54847E-06-1.51469E-18-2.42000E-18
 -1       834 9.52129E-05-2.68053E-05-2.93173E-05-3.08203E-06 1.11305E-18-1.28052E-18
 -1       835 9.55341E-05-2.61165E-05-2.97505E-05-6.62226E-07 1.49704E-18-1.32703E-18
 -1       836 8.00865E-05-2.96178E-05-2.13829E-05 2.74309E-05-3.16231E-18 3.47028E-18
 -1       837 9.48618E-05-2.66453E-05-2.92354E-05-4.05692E-06 4.86594E-19-1.31135E-18
 -1       838 5.17595E-05-1.25165E-05-1.65515E-05 1.22238E-05 5.80400E-19-3.40213E-18
 -1       839 9.29728E-05-1.94971E-05-3.14906E-05 1.90814E-06 1.39351E-18-2.97633E-18
 -1       840 9.50650E-05-2.82093E-05-2.86524E-05 1.45906E-07 6.84366E-19-7.30472E-19
 -1       841 9.50227E-05-2.81663E-05-2.86527E-05 7.93774E-08 1.91896E-18 1.68955E-18
 -1       842 9.36715E-05-2.06829E-05-3.12838E-05-2.63413E-06-9.84041E-19-2.87354E-18
 -1       843 1.21760E-04-4.92858E-05-3.10749E-05-2.57974E-06 1.62224E-18-1.18320E-18
 -1       844 9.36722E-05-2.06508E-05-3.12946E-05 2.68024E-06 1.80481E-18-2.22693E-18
 -1       845 1.18755E-04-3.22127E-05-3.72950E-05-1.32075E-05-9.04476E-19-2.24642E-19
 -1       846 5.49787E-05-1.35149E-05-1.74784E-05-1.26314E-05-2.74379E-19-3.07736E-18
 -1       847 9.29915E-05-1.95393E-05-3.14813E-05-1.82881E-06-5.12309E-19-3.18710E-18
 -1       848 9.51618E-05-2.83221E-05-2.86453E-05-2.07235E-07 1.32738E-18-3.10412E-18
 -1       849 9.54626E-05-2.53257E-05-3.00581E-05 7.84450E-07 1.69440E-18-1.44765E-18
 -1       850 9.49551E-05-2.80663E-05-2.86666E-05-1.63030E-07 1.17709E-18-1.46145E-18
 -1       851 8.87342E-05-3.48061E-05-2.30469E-05-2.65214E-05 1.49556E-18-7.04037E-19
 -1       852 9.55258E-05-2.65921E-05-2.95432E-05 2.08771E-06-6.52544E-19-1.66004E-18
 -1       853 9.53969E-05-2.70278E-05-2.93011E-05 2.92627E-06-4.20808E-19-1.60647E-18
 -1       854 9.52372E-05-2.73202E-05-2.91073E-05 3.68334E-06-4.28171E-19-1.92858E-18
 -1       855 9.51485E-05-2.76161E-05-2.89424E-05 4.41258E-06-5.12847E-20-1.93556E-18
 -1       856 9.52487E-05-2.80686E-05-2.87914E-05 5.14291E-06-1.95121E-19-1.56376E-18
 -1       857 9.56845E-05-2.88428E-05-2.86464E-05 5.86927E-06-9.75114E-20-1.56473E-18
 -1       858 9.66385E-05-3.01113E-05-2.85117E-05 6.53657E-06-2.72849E-19-1.48069E-18
 -1       859 9.83254E-05-3.20320E-05-2.84115E-05 7.01164E-06-1.41812E-19-8.49957E-19
 -1       860 1.00958E-04-3.46864E-05-2.84025E-05 7.03923E-06-4.76746E-19-5.55449E-19
 -1       861 1.04656E-04-3.79483E-05-2.85897E-05 6.19579E-06-5.20025E-19-4.83521E-19
 -1       862 1.09209E-04-4.12171E-05-2.91424E-05 3.88734E-06-6.54822E-19-2.90964E-19
 -1       863 1.13834E-04-4.33323E-05-3.02314E-05-2.01037E-07-6.93177E-19 6.81828E-19
 -1       864 1.16705E-04-4.19054E-05-3.20822E-05-6.06618E-06-1.66740E-19 1.31163E-18
 -1       865 1.16356E-04-4.15476E-05-3.20976E-05 5.79783E-06 2.23759E-19-8.05699E-19
 -1       866 1.13349E-04-4.28665E-05-3.02033E-05 2.48937E-07 6.52936E-19-7.10665E-19
 -1       867 1.08656E-04-4.07139E-05-2.91229E-05-3.75982E-06 8.67348E-19 4.10975E-19
 -1       868 1.04063E-04-3.73167E-05-2.86070E-05-5.87669E-06 1.14515E-19 6.91459E-19
 -1       869 1.00365E-04-3.40297E-05-2.84304E-05-6.55498E-06-9.73925E-19 2.85123E-19
 -1       870 9.77076E-05-3.13623E-05-2.84338E-05-6.38424E-06-1.51385E-18 6.40187E-20
 -1       871 9.59702E-05-2.94406E-05-2.85127E-05-5.78815E-06-1.92644E-18-2.23752E-18
 -1       872 9.49375E-05-2.81864E-05-2.86075E-05-5.02093E-06 5.67065E-22-2.10647E-18
 -1       873 9.44016E-05-2.74588E-05-2.86897E-05-4.22552E-06-1.85250E-19-2.11489E-18
 -1       874 9.41913E-05-2.71117E-05-2.87484E-05-3.47479E-06-2.63918E-19-1.19346E-18
 -1       875 9.41791E-05-2.70203E-05-2.87823E-05-2.80232E-06-1.23824E-18 4.31956E-19
 -1       876 9.42754E-05-2.70873E-05-2.87949E-05-2.22035E-06-5.83682E-19 2.19061E-18
 -1       877 9.44209E-05-2.72414E-05-2.87912E-05-1.72951E-06 5.47333E-19 8.60710E-19
 -1       878 9.45786E-05-2.74335E-05-2.87765E-05-1.32390E-06 6.90546E-19 2.07164E-19
 -1       879 9.47274E-05-2.76323E-05-2.87550E-05-9.94664E-07-8.43658E-19 4.25599E-19
 -1       880 9.48571E-05-2.78194E-05-2.87304E-05-7.32274E-07-1.52920E-19-9.89518E-19
 -1       881 9.49620E-05-2.79842E-05-2.87049E-05-5.25870E-07-8.98383E-19-1.32144E-18
 -1       882 9.50467E-05-2.81252E-05-2.86805E-05-3.67533E-07-1.18192E-19-2.57637E-18
 -1       883 9.51850E-05-2.83482E-05-2.86443E-05 1.90069E-07 2.31947E-18 1.99678E-18
 -1       884 8.39603E-05-1.95746E-05-2.75938E-05-8.13826E-06-6.79754E-19-1.80721E-18
 -1       885 8.71477E-05-2.12096E-05-2.82592E-05-7.09392E-06-1.42643E-19-1.71661E-18
 -1       886 7.45244E-05-1.68611E-05-2.46984E-05-1.17973E-05-9.97898E-20-1.30673E-18
 -1       887 9.51013E-05-2.39768E-05-3.04822E-05 1.39426E-06 1.70448E-18-1.67303E-18
 -1       888 9.03400E-05-2.31204E-05-2.88084E-05 4.90944E-06-8.32785E-19 2.33766E-18
 -1       889 1.16152E-04-5.04570E-05-2.81473E-05 1.40755E-05 9.09247E-19 1.07232E-18
 -1       890 9.25555E-05-1.88479E-05-3.15910E-05-9.07239E-07-1.04712E-19-3.22036E-18
 -1       891 8.58695E-05-2.02429E-05-2.81261E-05 6.98863E-06 8.07819E-19 1.06990E-18
 -1       892 9.17552E-05-2.42792E-05-2.89182E-05 4.03883E-06-1.47675E-18 2.62164E-18
 -1       893 9.27851E-05-2.52323E-05-2.89512E-05 3.26810E-06-7.11496E-19 1.66217E-18
 -1       894 9.35263E-05-2.59987E-05-2.89404E-05 2.59893E-06 4.94115E-19 1.57886E-18
 -1       895 9.40550E-05-2.66057E-05-2.89068E-05 2.03051E-06-1.48190E-18 2.24789E-18
 -1       896 9.44293E-05-2.70813E-05-2.88634E-05 1.55808E-06-9.27019E-19 3.32582E-18
 -1       897 9.46922E-05-2.74506E-05-2.88178E-05 1.17302E-06-2.01142E-18 4.57720E-18
 -1       898 9.48754E-05-2.77357E-05-2.87742E-05 8.64798E-07-1.42716E-18 5.94081E-18
 -1       899 9.50021E-05-2.79544E-05-2.87347E-05 6.23477E-07 1.95915E-18 5.66661E-18
 -1       900 9.50881E-05-2.81211E-05-2.87000E-05 4.36837E-07 2.05196E-18 3.82489E-18
 -1       901 1.21211E-04-4.65744E-05-3.19737E-05-1.98200E-06-3.44445E-19 1.89632E-18
 -1       902 9.55239E-05-2.58591E-05-2.98561E-05 1.10083E-06-1.15204E-18-2.08166E-18
 -1       903 7.54825E-05-2.88236E-05-1.98339E-05 2.94514E-05 2.13838E-18-1.04638E-18
 -1       904 9.49124E-05-2.80203E-05-2.86681E-05-6.04888E-08 1.67784E-18-4.37351E-18
 -1       905 8.25295E-05-1.86931E-05-2.73587E-05 8.34209E-06-9.62338E-19-3.48222E-19
 -1       906 1.08156E-04-4.61550E-05-2.65226E-05-1.91485E-05 1.25695E-18-2.67372E-18
 -1       907 9.52733E-05-2.46628E-05-3.02613E-05-1.01317E-07-1.11744E-18-2.29546E-18
 -1       908 9.50299E-05-2.81454E-05-2.86648E-05-2.40328E-07 5.10820E-19-2.01794E-18
 -1       909 7.98747E-05-1.80126E-05-2.65088E-05-9.54530E-06-4.11808E-19-1.71267E-18
 -1       910 9.28569E-05-2.50054E-05-2.90793E-05-4.61987E-06 2.69337E-19-1.19400E-18
 -1       911 5.76048E-05-1.14892E-05-1.96441E-05-1.75109E-06 1.36921E-18 8.47728E-19
 -1       912 6.54009E-05-1.49675E-05-2.13466E-05 1.36881E-05-2.42165E-19 5.23499E-19
 -1       913 7.08752E-05-1.88441E-05-2.21719E-05-1.81766E-05-3.36371E-19-2.17914E-18
 -1       914 6.75844E-05-1.91833E-05-2.06620E-05-1.95627E-05 4.31034E-19 6.92238E-19
 -1       915 8.84232E-05-2.17596E-05-2.85703E-05 5.88294E-06-8.04894E-20 1.03592E-18
 -1       916 1.17757E-04-3.86078E-05-3.39476E-05 9.71497E-06 5.24065E-19-6.72831E-19
 -1       917 9.38923E-05-2.57072E-05-2.92222E-05-3.85027E-06 3.62172E-19-1.55116E-18
 -1       918 1.07913E-04-4.64078E-05-2.63168E-05 2.00313E-05 9.86972E-19 6.77753E-19
 -1       919 9.46923E-05-2.29884E-05-3.07297E-05-1.32613E-06-1.07950E-18-2.53193E-18
 -1       920 9.51336E-05-2.82411E-05-2.86683E-05 2.81303E-07 5.77675E-19 8.43202E-19
 -1       921 9.51147E-05-2.82353E-05-2.86626E-05-2.80310E-07-1.04234E-18-1.65616E-18
 -1       922 9.53222E-05-2.56108E-05-2.98761E-05-1.03056E-06 1.41983E-18-1.67583E-18
 -1       923 8.95963E-05-2.27177E-05-2.86621E-05-6.20763E-06-2.71878E-20-1.19875E-18
 -1       924 6.68830E-05-1.53746E-05-2.20319E-05-1.04177E-05-1.98529E-19 1.30777E-18
 -1       925 6.54042E-05-1.96789E-05-1.94366E-05 2.13463E-05 1.39122E-18-2.13882E-18
 -1       926 7.22482E-05-1.65119E-05-2.38620E-05 1.34137E-05 3.42640E-19-2.56386E-19
 -1       927 9.14572E-05-2.39990E-05-2.89107E-05-5.39507E-06 1.25187E-19-9.63591E-19
 -1       928 9.50365E-05-2.81398E-05-2.86701E-05 2.37624E-07 2.53523E-18-1.63359E-18
 -1       929 9.49104E-05-2.80147E-05-2.86697E-05 5.17480E-08 1.01977E-18 1.06752E-19
 -1       930 1.13728E-04-4.64831E-05-2.88248E-05-8.78366E-06 1.95865E-18 5.39450E-19
 -1       931 7.82237E-05-1.73589E-05-2.60780E-05 1.02607E-05-1.12917E-18-1.00252E-18
 -1       932 9.51098E-05-2.60685E-05-2.95891E-05-2.12682E-06 1.21147E-18-1.35858E-18
 -1       933 9.38176E-05-2.13931E-05-3.10391E-05 8.02027E-07 1.14174E-18-2.83318E-18
 -1       934 5.75302E-05-1.17731E-05-1.94677E-05-6.06964E-07 6.11003E-19-2.58530E-18
 -1       935 9.35850E-05-2.09950E-05-3.11101E-05 3.36672E-07 7.41711E-19-2.89111E-18
 -1       936 9.41437E-05-2.19362E-05-3.09456E-05-9.47318E-07-8.31577E-19-2.78531E-18
 -1       937 9.48224E-05-2.65700E-05-2.92511E-05 2.89702E-06-3.27912E-19-1.44295E-18
 -1       938 9.44627E-05-2.67706E-05-2.90110E-05 3.68690E-06-1.30700E-19-1.38520E-18
 -1       939 9.41614E-05-2.70039E-05-2.87818E-05 4.56091E-06 5.19978E-20-1.31626E-18
 -1       940 9.40626E-05-2.74487E-05-2.85487E-05 5.56616E-06-1.31211E-19-1.13892E-18
 -1       941 9.43538E-05-2.83083E-05-2.83050E-05 6.72372E-06-1.68674E-19-1.06969E-18
 -1       942 9.52829E-05-2.98117E-05-2.80593E-05 8.00738E-06 1.10637E-19-5.14481E-19
 -1       943 9.71762E-05-3.22019E-05-2.78456E-05 9.29323E-06 4.20727E-20-1.82673E-19
 -1       944 1.00427E-04-3.56735E-05-2.77490E-05 1.02525E-05-2.50519E-19-3.11693E-19
 -1       945 1.05395E-04-4.01899E-05-2.79436E-05 1.02626E-05-2.51727E-19 2.93197E-19
 -1       946 1.12266E-04-4.52209E-05-2.87219E-05 8.26858E-06 2.37697E-19 1.00466E-18
 -1       947 9.48391E-05-2.37107E-05-3.04815E-05-7.94726E-08-7.27116E-19-2.46300E-18
 -1       948 9.48894E-05-2.79614E-05-2.86834E-05-2.87650E-07-1.28477E-18-1.28683E-18
 -1       949 9.36110E-05-2.10334E-05-3.11054E-05-1.73038E-07 1.53286E-19-2.73697E-18
 -1       950 9.52143E-05-2.45808E-05-3.02729E-05 3.38421E-07 1.42821E-18-1.74374E-18
 -1       951 1.04714E-04-3.94586E-05-2.79644E-05-9.98692E-06 7.43583E-19 5.81525E-20
 -1       952 9.96757E-05-3.48832E-05-2.77729E-05-9.83936E-06-9.78084E-19 9.52035E-19
 -1       953 9.64120E-05-3.14152E-05-2.78549E-05-8.76115E-06-1.34471E-18 9.93426E-19
 -1       954 9.44573E-05-2.90253E-05-2.80424E-05-7.39922E-06-2.62120E-18 9.74887E-19
 -1       955 9.34279E-05-2.75271E-05-2.82431E-05-6.04855E-06-1.42646E-18 1.30136E-18
 -1       956 9.30105E-05-2.67022E-05-2.84177E-05-4.84490E-06-4.61076E-19-2.02304E-19
 -1       957 9.29691E-05-2.63456E-05-2.85529E-05-3.82480E-06-3.23780E-20-9.18668E-19
 -1       958 9.31418E-05-2.62972E-05-2.86476E-05-2.98368E-06 2.95839E-19-1.08624E-18
 -1       959 9.34190E-05-2.64361E-05-2.87070E-05-2.30264E-06 5.98836E-19-5.37209E-19
 -1       960 9.37310E-05-2.66756E-05-2.87380E-05-1.75798E-06-1.95908E-19 4.35725E-19
 -1       961 9.40347E-05-2.69554E-05-2.87483E-05-1.32705E-06-3.68612E-20-1.61175E-19
 -1       962 9.43076E-05-2.72378E-05-2.87442E-05-9.88581E-07 8.49557E-19-3.08728E-19
 -1       963 9.45399E-05-2.75011E-05-2.87309E-05-7.25285E-07-6.83656E-19 9.81820E-19
 -1       964 9.47279E-05-2.77327E-05-2.87124E-05-5.22142E-07-1.18668E-18 3.49505E-19
 -1       965 8.12095E-05-2.62057E-05-2.35562E-05-1.99818E-05 6.28523E-19-7.26675E-19
 -1       966 9.10824E-05-2.40547E-05-2.87263E-05 2.55353E-06-3.41277E-19 1.73992E-18
 -1       967 7.88863E-05-1.74391E-05-2.63326E-05-3.66756E-06-4.15205E-19-1.23248E-18
 -1       968 9.80251E-05-3.76222E-05-2.58538E-05-1.87362E-05 7.04407E-19-1.89891E-18
 -1       969 9.22184E-05-2.50206E-05-2.87991E-05 2.15307E-06-2.10837E-19 8.08163E-19
 -1       970 9.49385E-05-2.79752E-05-2.86983E-05 3.67750E-07 3.36774E-18 2.14880E-19
 -1       971 8.95619E-05-2.28873E-05-2.85750E-05 2.93507E-06-1.95794E-18 1.52878E-18
 -1       972 9.30620E-05-2.58069E-05-2.88236E-05 1.76518E-06-1.61655E-18 1.43563E-18
 -1       973 9.36857E-05-2.64404E-05-2.88194E-05 1.41057E-06-1.74109E-18 1.64930E-18
 -1       974 9.41430E-05-2.69440E-05-2.87996E-05 1.10061E-06-2.55068E-18 1.57447E-18
 -1       975 9.44758E-05-2.73406E-05-2.87723E-05 8.38244E-07-2.97080E-18 1.48054E-18
 -1       976 9.47156E-05-2.76502E-05-2.87423E-05 6.24155E-07 1.68843E-18-2.36533E-19
 -1       977 9.48385E-05-2.78265E-05-2.87195E-05 4.83923E-07 1.60533E-18-6.08955E-19
 -1       978 9.48061E-05-2.78768E-05-2.86840E-05-1.63969E-07-1.03812E-19-3.71718E-18
 -1       979 9.46317E-05-2.60762E-05-2.93810E-05-3.04065E-06 8.47880E-19-1.23199E-18
 -1       980 8.32954E-05-1.93910E-05-2.73878E-05-3.83679E-06-3.23976E-19-1.07680E-18
 -1       981 9.52529E-05-2.56181E-05-2.98432E-05 1.32389E-06-5.50459E-19-1.51457E-18
 -1       982 9.42839E-05-2.22171E-05-3.08861E-05 1.18695E-06 1.54598E-18-2.33359E-18
 -1       983 8.12764E-05-1.81152E-05-2.70702E-05 3.58218E-06-3.47033E-19 3.33491E-19
 -1       984 9.51652E-05-2.48487E-05-3.01378E-05 6.38297E-07-6.60173E-19-1.99625E-18
 -1       985 9.38123E-05-2.13598E-05-3.10503E-05-5.69416E-07-2.59258E-19-2.70382E-18
 -1       986 7.27762E-05-1.52798E-05-2.46369E-05-3.42042E-06-2.80410E-19-2.09311E-18
 -1       987 6.60897E-05-1.39691E-05-2.22767E-05-7.78541E-06 2.79836E-19-2.03267E-18
 -1       988 9.12129E-05-3.61141E-05-2.35539E-05 2.52532E-05 1.29291E-18-2.36117E-19
 -1       989 9.51227E-05-2.62400E-05-2.95213E-05 2.13031E-06-4.58949E-19-1.60252E-18
 -1       990 9.49504E-05-2.80508E-05-2.86713E-05 1.58536E-07 2.44764E-18 1.01555E-18
 -1       991 9.47722E-05-2.78384E-05-2.86856E-05-1.40301E-08-9.98556E-20-2.71922E-18
 -1       992 9.27156E-05-2.48157E-05-2.91000E-05-3.05056E-06 2.97592E-19-1.44398E-18
 -1       993 9.49865E-05-2.43423E-05-3.02753E-05-1.69480E-07 1.51664E-18-2.03938E-18
 -1       994 7.67444E-05-2.08560E-05-2.39290E-05-1.42513E-05 4.62290E-19-7.91058E-20
 -1       995 9.12113E-05-2.38989E-05-2.88487E-05-3.43898E-06 1.54953E-19-1.62982E-18
 -1       996 8.66591E-05-2.11575E-05-2.80721E-05-3.85961E-06-1.03613E-20-1.54931E-18
 -1       997 6.75325E-05-1.36389E-05-2.30553E-05 5.07736E-07-8.37907E-19 2.29620E-18
 -1       998 8.05727E-05-2.77621E-05-2.25589E-05 2.30202E-05 1.42255E-18-8.16017E-19
 -1       999 9.46093E-05-2.33764E-05-3.05268E-05 2.03707E-07 1.25006E-18-2.33128E-18
 -1      1000 6.30882E-05-1.45844E-05-2.06911E-05 1.01059E-05 9.46750E-19-2.71666E-18
 -1      1001 9.49687E-05-2.52178E-05-2.98932E-05-1.15163E-06 8.37045E-19-1.84518E-18
 -1      1002 7.64284E-05-1.60778E-05-2.58635E-05 3.66407E-06-1.00195E-18 1.62399E-18
 -1      1003 8.75353E-05-2.15031E-05-2.82998E-05 3.25823E-06-1.40292E-18 1.07241E-18
 -1      1004 6.73366E-05-1.37154E-05-2.29513E-05 5.25933E-06 2.84223E-19 6.65523E-19
 -1      1005 9.43459E-05-2.28682E-05-3.06328E-05 2.05388E-07 1.01887E-18-2.63086E-18
 -1      1006 8.48466E-05-1.99058E-05-2.78322E-05 3.48020E-06-4.08735E-20 1.16104E-18
 -1      1007 9.45308E-05-2.58579E-05-2.94312E-05 1.93288E-06-3.72875E-19-1.40309E-18
 -1      1008 9.33483E-05-2.60367E-05-2.88483E-05 3.47368E-06-1.66897E-19-1.16736E-18
 -1      1009 9.27269E-05-2.61121E-05-2.85492E-05 4.52626E-06-1.40723E-20-1.29691E-18
 -1      1010 9.22777E-05-2.64336E-05-2.82186E-05 5.87448E-06 2.46273E-19-1.17199E-18
 -1      1011 9.22076E-05-2.72323E-05-2.78458E-05 7.59053E-06 4.67745E-19-4.93740E-19
 -1      1012 9.28039E-05-2.87915E-05-2.74356E-05 9.70569E-06 1.21887E-19-7.36048E-19
 -1      1013 9.45423E-05-3.15038E-05-2.70152E-05 1.22131E-05-2.51996E-19-9.93466E-19
 -1      1014 9.80663E-05-3.57486E-05-2.67028E-05 1.47356E-05 4.83737E-19-5.26474E-19
 -1      1015 1.01951E-04-4.04226E-05-2.63577E-05 1.75696E-05 8.23879E-19 2.70869E-19
 -1      1016 9.42829E-05-2.27350E-05-3.06627E-05 1.31758E-07 3.65118E-19-2.31011E-18
 -1      1017 9.45609E-05-2.31812E-05-3.05884E-05-2.17264E-08-3.53101E-19-2.20350E-18
 -1      1018 9.37712E-05-3.06861E-05-2.70377E-05-1.18085E-05-1.00865E-18-7.68280E-19
 -1      1019 9.19197E-05-2.79345E-05-2.74235E-05-9.24223E-06-1.64131E-18 6.65183E-19
 -1      1020 9.12257E-05-2.63859E-05-2.77881E-05-7.09143E-06-2.36253E-18 1.31806E-18
 -1      1021 9.11522E-05-2.56072E-05-2.80901E-05-5.36284E-06-1.34455E-18 8.61807E-19
 -1      1022 9.14369E-05-2.53500E-05-2.83228E-05-4.01905E-06-1.57648E-18-2.72764E-19
 -1      1023 9.18985E-05-2.54200E-05-2.84908E-05-2.98807E-06-6.10396E-19-1.19177E-18
 -1      1024 9.24260E-05-2.56829E-05-2.86042E-05-2.20877E-06 8.27862E-19-2.29096E-18
 -1      1025 9.29449E-05-2.60375E-05-2.86746E-05-1.62361E-06 5.75582E-19-1.24626E-18
 -1      1026 9.34243E-05-2.64288E-05-2.87124E-05-1.18778E-06 3.58349E-19-1.50349E-18
 -1      1027 9.38388E-05-2.68081E-05-2.87275E-05-8.62139E-07 4.46644E-19-1.92481E-18
 -1      1028 9.41861E-05-2.71567E-05-2.87270E-05-6.19456E-07 8.40583E-19-2.42348E-18
 -1      1029 9.44649E-05-2.74603E-05-2.87164E-05-4.41650E-07-7.97764E-19-2.43969E-18
 -1      1030 9.21228E-05-2.51128E-05-2.87186E-05 1.13946E-06-1.68089E-18 2.03289E-18
 -1      1031 9.39903E-05-2.60097E-05-2.91349E-05 2.63432E-06-1.70958E-19-1.05964E-18
 -1      1032 9.10412E-05-2.42275E-05-2.86344E-05 1.23580E-06-3.51152E-19 1.32596E-18
 -1      1033 9.48053E-05-2.78485E-05-2.86959E-05 2.51300E-07 2.84584E-18-1.51944E-18
 -1      1034 8.96358E-05-2.31844E-05-2.84794E-05 1.23013E-06-2.05751E-18 2.17429E-20
 -1      1035 9.35755E-05-2.64545E-05-2.87663E-05 8.21415E-07-2.47824E-18 1.12864E-18
 -1      1036 9.40460E-05-2.69427E-05-2.87586E-05 6.58357E-07-1.78198E-18 1.31198E-18
 -1      1037 9.43967E-05-2.73344E-05-2.87410E-05 5.11601E-07 3.58268E-19-2.06563E-18
 -1      1038 9.38196E-05-2.53746E-05-2.93337E-05-2.55160E-06 8.45881E-19-1.39049E-18
 -1      1039 8.09094E-05-1.88921E-05-2.65801E-05 9.87755E-07-1.15392E-19-1.57966E-18
 -1      1040 9.48706E-05-2.54305E-05-2.97600E-05 1.29601E-06-4.82499E-19-1.52236E-18
 -1      1041 9.29482E-05-2.58490E-05-2.87569E-05 9.87951E-07-1.57654E-18 1.16028E-18
 -1      1042 6.73307E-05-1.40858E-05-2.27804E-05 2.04853E-06 2.16903E-19-2.25761E-18
 -1      1043 9.46502E-05-2.76808E-05-2.87011E-05-2.78290E-07-2.03600E-18-3.38858E-18
 -1      1044 7.59756E-05-1.71545E-05-2.52156E-05 3.05986E-06 7.03137E-20-1.64177E-18
 -1      1045 9.47674E-05-2.78236E-05-2.86902E-05 1.21016E-07 1.28525E-18-2.11411E-19
 -1      1046 9.54408E-05-3.36411E-05-2.64929E-05-1.50312E-05 4.04775E-19-2.07539E-18
 -1      1047 8.92323E-05-2.26681E-05-2.85281E-05-3.71621E-06 2.13395E-19-1.62466E-18
 -1      1048 7.23807E-05-1.58577E-05-2.42113E-05-5.32072E-06-4.43147E-19 9.58514E-19
 -1      1049 9.45689E-05-2.55303E-05-2.95882E-05-1.93119E-06 7.13310E-19-1.46532E-18
 -1      1050 9.47972E-05-2.45697E-05-3.00980E-05-5.61723E-07 9.40208E-19-1.93425E-18
 -1      1051 9.45800E-05-2.76101E-05-2.87017E-05-8.04997E-08-1.12397E-18-4.89766E-18
 -1      1052 7.33358E-05-2.04744E-05-2.26413E-05 1.61678E-05 1.23845E-18-1.23124E-18
 -1      1053 8.45973E-05-2.04658E-05-2.74847E-05-2.68593E-07-1.62491E-19-9.86971E-19
 -1      1054 9.49325E-05-2.48357E-05-3.00427E-05 7.88459E-07-1.96199E-19-1.77886E-18
 -1      1055 9.45886E-05-2.75662E-05-2.87239E-05 4.01985E-07 1.34654E-18-1.43257E-18
 -1      1056 9.29943E-05-2.48438E-05-2.92079E-05-1.58943E-06 3.68446E-19-1.37502E-18
 -1      1057 9.43847E-05-2.28836E-05-3.06416E-05 5.99781E-08-1.34018E-19-2.36467E-18
 -1      1058 7.83473E-05-1.74437E-05-2.61031E-05-1.63916E-06-3.86736E-19 6.22718E-19
 -1      1059 8.78169E-05-2.19777E-05-2.82174E-05 1.04824E-06-1.08489E-18 1.46982E-18
 -1      1060 9.18296E-05-3.33101E-05-2.50532E-05 1.95819E-05 8.57963E-19 3.75343E-19
 -1      1061 8.23473E-05-1.90623E-05-2.71223E-05-2.53216E-07-1.65648E-19 9.76506E-19
 -1      1062 8.57486E-05-2.59811E-05-2.56005E-05-1.42092E-05 4.79945E-19-1.38379E-18
 -1      1063 9.16253E-05-2.41743E-05-2.89080E-05-1.67065E-06 2.09890E-19-1.21158E-18
 -1      1064 9.08225E-05-2.48845E-05-2.82596E-05 4.16831E-06 3.21592E-19-8.06540E-19
 -1      1065 8.97706E-05-2.48946E-05-2.78043E-05 5.86846E-06 7.34110E-19-6.32887E-19
 -1      1066 8.89878E-05-2.54217E-05-2.72490E-05 8.27579E-06 2.24825E-19-6.85978E-19
 -1      1067 8.87943E-05-2.67029E-05-2.66057E-05 1.12579E-05 9.02524E-20-5.75721E-19
 -1      1068 8.93510E-05-2.91153E-05-2.58330E-05 1.50836E-05 4.25576E-19-2.29847E-19
 -1      1069 9.14149E-05-2.46563E-05-2.86106E-05 1.81746E-07-1.46151E-18-4.70552E-19
 -1      1070 8.78865E-05-2.58462E-05-2.65846E-05-1.10221E-05-9.25833E-20-8.85085E-19
 -1      1071 9.45156E-05-2.51230E-05-2.97396E-05-1.16996E-06 7.59789E-19-2.06375E-18
 -1      1072 9.43929E-05-2.52650E-05-2.96263E-05 9.66426E-07-1.27352E-19-1.16991E-18
 -1      1073 9.45591E-05-2.39501E-05-3.02606E-05 6.09554E-08 7.10558E-19-2.14414E-18
 -1      1074 8.10569E-05-2.03468E-05-2.60188E-05 6.72546E-06 4.21844E-20-1.26942E-18
 -1      1075 8.80023E-05-2.45308E-05-2.72035E-05-7.95108E-06-1.26944E-18-2.22476E-19
 -1      1076 8.87093E-05-2.40794E-05-2.76961E-05-5.62600E-06-1.54347E-18 7.90437E-19
 -1      1077 8.95488E-05-2.40707E-05-2.80630E-05-3.91837E-06-2.17176E-18 8.04082E-20
 -1      1078 9.04563E-05-2.43739E-05-2.83212E-05-2.71547E-06-1.33467E-18 3.02065E-19
 -1      1079 9.13260E-05-2.48326E-05-2.84971E-05-1.86936E-06 3.77020E-20 8.63867E-19
 -1      1080 9.21082E-05-2.53514E-05-2.86101E-05-1.27785E-06 6.71843E-19-1.08880E-18
 -1      1081 9.27766E-05-2.58656E-05-2.86757E-05-8.66350E-07-4.03326E-19-2.80194E-18
 -1      1082 9.33450E-05-2.63546E-05-2.87098E-05-5.80836E-07-8.85270E-19-2.37174E-18
 -1      1083 9.38326E-05-2.68088E-05-2.87231E-05-3.92746E-07-7.06939E-19-4.46625E-18
 -1      1084 9.42005E-05-2.71872E-05-2.87198E-05-2.68296E-07 1.94648E-19-5.61582E-18
 -1      1085 7.30671E-05-1.76096E-05-2.37492E-05 8.94512E-06 5.57790E-19-1.65724E-18
 -1      1086 7.88633E-05-1.96146E-05-2.53975E-05-8.73810E-06 1.18195E-19-1.43291E-18
 -1      1087 9.02367E-05-2.38000E-05-2.84733E-05-8.44345E-08-1.25386E-18 2.16583E-19
 -1      1088 9.40962E-05-2.70507E-05-2.87338E-05 2.76054E-07-8.42949E-19-1.45676E-18
 -1      1089 9.36508E-05-2.65944E-05-2.87376E-05 3.22279E-07-1.88716E-18-2.31934E-18
 -1      1090 9.37817E-05-2.54286E-05-2.92931E-05 1.46053E-06-7.97526E-21-9.62939E-19
 -1      1091 9.44019E-05-2.74063E-05-2.87120E-05-1.59398E-07-8.70748E-19-6.33976E-18
 -1      1092 8.54513E-05-2.05999E-05-2.77939E-05 6.06267E-07-5.01446E-19 1.94390E-18
 -1      1093 9.29178E-05-2.53125E-05-2.89725E-05 2.10421E-06-1.64087E-19-9.95943E-19
 -1      1094 9.18995E-05-2.50765E-05-2.86376E-05 2.96366E-06-3.62962E-19-1.04985E-18
 -1      1095 9.23593E-05-2.54128E-05-2.86888E-05 3.11879E-07-6.57991E-19-6.38585E-19
 -1      1096 8.19850E-05-2.00851E-05-2.65299E-05-5.47952E-06-9.92820E-19-1.22388E-18
 -1      1097 9.46276E-05-2.48571E-05-2.99009E-05 6.34910E-07-1.01657E-19-1.29161E-18
 -1      1098 9.46169E-05-2.40119E-05-3.02612E-05 2.75598E-07 2.65168E-19-1.70112E-18
 -1      1099 8.42681E-05-2.12241E-05-2.70262E-05 3.92335E-06 2.53920E-19-1.13632E-18
 -1      1100 8.87785E-05-2.28605E-05-2.82513E-05-5.77930E-07-1.24390E-18 2.05185E-18
 -1      1101 8.74882E-05-2.19054E-05-2.81067E-05-1.06113E-06-5.20332E-20-1.03483E-18
 -1      1102 9.43426E-05-2.73218E-05-2.87232E-05 2.16553E-07 8.25845E-19-6.31143E-19
 -1      1103 9.30664E-05-2.60406E-05-2.87254E-05 3.46699E-07-1.91269E-18-1.60009E-18
 -1      1104 9.39752E-05-2.51327E-05-2.95039E-05-1.33754E-06 4.95489E-19-1.89989E-18
 -1      1105 8.98160E-05-2.31734E-05-2.85595E-05-1.52404E-06 1.52148E-19-1.26742E-18
 -1      1106 8.25070E-05-2.54198E-05-2.44318E-05 1.66976E-05 6.93397E-19-1.20993E-18
 -1      1107 9.45857E-05-2.75988E-05-2.87080E-05 1.63272E-07 1.47490E-18-1.15198E-18
 -1      1108 9.23712E-05-2.46149E-05-2.90390E-05-1.79679E-07 1.40752E-19-1.08662E-18
 -1      1109 9.34935E-05-2.49751E-05-2.93643E-05-3.73090E-07 1.14450E-19-1.25699E-18
 -1      1110 9.38547E-05-2.68337E-05-2.87248E-05-8.12788E-08-1.15076E-18-3.08342E-18
 -1      1111 8.67358E-05-2.29145E-05-2.73475E-05 5.15458E-06 5.17458E-19-1.36417E-18
 -1      1112 8.46842E-05-2.09145E-05-2.73305E-05-3.22406E-06-8.61790E-19-1.56256E-18
 -1      1113 9.45537E-05-2.46053E-05-2.99787E-05-3.36545E-07 6.21084E-19-2.35893E-18
 -1      1114 9.10997E-05-2.45508E-05-2.85204E-05-9.90852E-07-6.21058E-19 2.99808E-19
 -1      1115 8.88887E-05-2.31863E-05-2.81574E-05-2.01099E-06-1.65206E-18 5.17949E-19
 -1      1116 9.21702E-05-2.53254E-05-2.86503E-05-3.42446E-07-8.24797E-19-7.80969E-19
 -1      1117 9.08601E-05-2.39321E-05-2.86857E-05 2.30385E-07-1.01830E-19-6.33111E-19
 -1      1118 9.38526E-05-2.51053E-05-2.94634E-05 2.99069E-07 4.40540E-20-9.66824E-19
 -1      1119 9.01503E-05-2.38885E-05-2.83984E-05 2.03544E-06 2.77404E-20-1.44064E-20
 -1      1120 8.69826E-05-2.18662E-05-2.79079E-05-1.41906E-06-1.25028E-18-2.23848E-19
 -1      1121 8.84898E-05-2.33032E-05-2.79373E-05 3.31853E-06 3.74370E-19-4.57965E-19
 -1      1122 9.42355E-05-2.49357E-05-2.96990E-05-3.56829E-07 2.73587E-19-1.55524E-18
 -1      1123 9.45126E-05-2.46516E-05-2.99427E-05 1.31964E-07 3.01284E-19-1.46739E-18
 -1      1124 9.44787E-05-2.48529E-05-2.98383E-05 3.30349E-07 5.39656E-20-1.11903E-18
 -1      1125 9.00931E-05-2.38880E-05-2.83729E-05-1.41438E-06-4.49672E-19 7.69489E-19
 -1      1126 8.73824E-05-2.25282E-05-2.77939E-05-3.21463E-06-2.03756E-18-5.35376E-19
 -1      1127 9.42311E-05-2.72179E-05-2.87208E-05 2.65968E-08-8.98899E-19-4.53417E-18
 -1      1128 1.16473E-04 2.56651E-10-4.17376E-05-4.12554E-05-4.26905E-19 1.18972E-17
 -1      1129 8.85686E-05 7.21207E-11-3.72098E-05-2.39693E-05-2.24464E-19 7.78159E-19
 -1      1130 8.41074E-05 4.16740E-11-3.57722E-05-1.76439E-05-1.49395E-19-3.74981E-18
 -1      1131 8.24158E-05 3.20555E-11-3.51031E-05-1.35796E-05-9.49206E-20-5.74870E-18
 -1      1132 8.16267E-05 2.71565E-11-3.47785E-05-1.02788E-05-5.10999E-20-6.63866E-18
 -1      1133 8.12178E-05 2.41855E-11-3.46137E-05-7.41622E-06-2.78661E-20-7.01936E-18
 -1      1134 8.09945E-05 2.23312E-11-3.45269E-05-4.81299E-06-1.61598E-20-7.05758E-18
 -1      1135 8.08814E-05 2.13019E-11-3.44845E-05-2.34385E-06 2.79091E-21-6.98575E-18
 -1      1136 8.08500E-05 2.09807E-11-3.44730E-05 5.11207E-08 1.62003E-20-6.83387E-18
 -1      1137 8.08916E-05 2.13397E-11-3.44883E-05 2.44838E-06 3.30343E-20-6.66167E-18
 -1      1138 8.10144E-05 2.24254E-11-3.45342E-05 4.92554E-06 4.82941E-20-6.35640E-18
 -1      1139 8.12474E-05 2.43460E-11-3.46234E-05 7.54527E-06 7.28382E-20-5.83176E-18
 -1      1140 8.16632E-05 2.74631E-11-3.47905E-05 1.04363E-05 9.67073E-20-4.97233E-18
 -1      1141 8.24510E-05 3.25595E-11-3.51175E-05 1.37856E-05 1.34016E-19-3.48430E-18
 -1      1142 8.41083E-05 4.21534E-11-3.57934E-05 1.78982E-05 1.67501E-19-7.11918E-19
 -1      1143 8.82591E-05 6.69667E-11-3.72756E-05 2.38180E-05 1.87618E-19 4.58139E-18
 -1      1144 1.06265E-04 1.63603E-10-4.05139E-05 3.60053E-05 3.82859E-19 1.54278E-17
 -1      1145 1.29689E-04-2.56650E-05-4.01376E-05-2.59635E-05-1.73568E-18 1.89109E-17
 -1      1146 9.71908E-05-2.87849E-05-3.14954E-05-6.65659E-07-5.91017E-19 1.47898E-17
 -1      1147 9.00709E-05-2.70025E-05-2.78643E-05 3.87802E-07-2.37434E-19 9.40237E-18
 -1      1148 8.83262E-05-2.65983E-05-2.66689E-05 2.50390E-07-1.38827E-19 5.74855E-18
 -1      1149 8.81697E-05-2.65330E-05-2.64761E-05 1.66250E-07-1.04135E-19 3.27804E-18
 -1      1150 8.87955E-05-2.66906E-05-2.66435E-05 1.20211E-07-1.22972E-19 1.54660E-18
 -1      1151 8.98392E-05-2.69833E-05-2.69557E-05 9.24334E-08-4.87731E-20 6.87553E-20
 -1      1152 9.11271E-05-2.73579E-05-2.73424E-05 7.52383E-08-1.80586E-20-1.05720E-18
 -1      1153 9.25717E-05-2.77843E-05-2.77758E-05 6.48951E-08 5.26004E-21-2.57187E-18
 -1      1154 9.41261E-05-2.82460E-05-2.82418E-05 5.94476E-08-4.75050E-20-3.43940E-18
 -1      1155 9.57586E-05-2.87318E-05-2.87300E-05 5.75045E-08 6.79539E-20-4.43533E-18
 -1      1156 9.74314E-05-2.92293E-05-2.92274E-05 5.74980E-08-5.67739E-20-4.81804E-18
 -1      1157 9.90803E-05-2.97183E-05-2.97131E-05 5.71446E-08-9.31703E-20-5.91717E-18
 -1      1158 1.00595E-04-3.01654E-05-3.01523E-05 5.30273E-08-2.80232E-20-6.57253E-18
 -1      1159 1.01802E-04-3.05186E-05-3.04922E-05 4.04320E-08-1.01792E-19-6.73055E-18
 -1      1160 1.02460E-04-3.07062E-05-3.06618E-05 1.38029E-08-8.04367E-20-6.74394E-18
 -1      1161 1.02277E-04-3.06429E-05-3.05793E-05-3.16153E-08-1.23966E-19-7.54480E-18
 -1      1162 1.00972E-04-3.02473E-05-3.01706E-05-9.65255E-08-7.47639E-20-7.78287E-18
 -1      1163 9.83802E-05-2.94741E-05-2.94004E-05-1.73112E-07-3.66276E-20-8.82516E-18
 -1      1164 9.45975E-05-2.83556E-05-2.83098E-05-2.41823E-07-2.25787E-20-9.45733E-18
 -1      1165 9.01007E-05-2.70348E-05-2.70425E-05-2.73738E-07 1.07672E-20-8.97553E-18
 -1      1166 8.57507E-05-2.57640E-05-2.58378E-05-2.42357E-07 2.00360E-20-8.83056E-18
 -1      1167 8.25949E-05-2.48458E-05-2.49745E-05-1.41284E-07 1.45544E-19-6.99915E-18
 -1      1168 8.15012E-05-2.45284E-05-2.46775E-05 5.20475E-09 1.27601E-19-7.99193E-18
 -1      1169 8.27933E-05-2.49040E-05-2.50298E-05 1.49869E-07 6.06820E-21-7.31143E-18
 -1      1170 8.61050E-05-2.58685E-05-2.59379E-05 2.46421E-07 2.18756E-20-6.94771E-18
 -1      1171 9.05480E-05-2.71676E-05-2.71714E-05 2.72968E-07 2.90432E-19-7.23363E-18
 -1      1172 9.50854E-05-2.85017E-05-2.84540E-05 2.38023E-07 1.44177E-19-7.46157E-18
 -1      1173 9.88888E-05-2.96277E-05-2.95544E-05 1.68782E-07-1.14833E-19-6.31458E-18
 -1      1174 1.01519E-04-3.04135E-05-3.03391E-05 9.37507E-08-1.47743E-19-6.62094E-18
 -1      1175 1.02912E-04-3.08363E-05-3.07763E-05 3.16835E-08-1.14073E-19-7.14137E-18
 -1      1176 1.03255E-04-3.09482E-05-3.09081E-05-1.02530E-08 2.20133E-19-7.77268E-18
 -1      1177 1.02843E-04-3.08344E-05-3.08129E-05-3.30187E-08-2.52613E-20-7.61818E-18
 -1      1178 1.01975E-04-3.05830E-05-3.05754E-05-4.13219E-08 1.53720E-19-7.45899E-18
 -1      1179 1.00898E-04-3.02668E-05-3.02680E-05-4.04785E-08 3.61942E-19-6.69268E-18
 -1      1180 9.97880E-05-2.99385E-05-2.99445E-05-3.48627E-08 5.37877E-19-5.30371E-18
 -1      1181 9.87550E-05-2.96315E-05-2.96392E-05-2.74855E-08 1.17739E-19-5.65758E-18
 -1      1182 9.78568E-05-2.93635E-05-2.93711E-05-2.01386E-08-1.99450E-20-6.42836E-18
 -1      1183 9.71147E-05-2.91412E-05-2.91479E-05-1.37225E-08 1.07113E-19-6.59299E-18
 -1      1184 9.65268E-05-2.89646E-05-2.89700E-05-8.56680E-09 9.81675E-20-6.21534E-18
 -1      1185 9.60785E-05-2.88294E-05-2.88335E-05-4.67604E-09-5.74022E-19-6.13676E-18
 -1      1186 9.57493E-05-2.87298E-05-2.87328E-05-1.89493E-09-4.63233E-19-7.58723E-18
 -1      1187 9.55175E-05-2.86593E-05-2.86614E-05-7.76477E-12 2.06942E-19-6.82196E-18
 -1      1188 9.53625E-05-2.86120E-05-2.86134E-05 1.20874E-09-2.27217E-20-4.69180E-18
 -1      1189 9.52667E-05-2.85825E-05-2.85835E-05 1.96112E-09-4.17903E-20-3.24519E-18
 -1      1190 9.52151E-05-2.85664E-05-2.85671E-05 2.43319E-09 4.17343E-19-1.13294E-18
 -1      1191 9.51960E-05-2.85601E-05-2.85606E-05 2.78749E-09 2.47637E-19 2.85281E-18
 -1      1192 9.51999E-05-2.85608E-05-2.85609E-05 3.10428E-09 3.27232E-19 4.71633E-18
 -1      1193 9.52178E-05-2.85662E-05-2.85646E-05 3.46045E-09-3.42000E-19 1.41822E-18
 -1      1194 9.52332E-05-2.85701E-05-2.85677E-05 1.13827E-09 5.29329E-20 4.64375E-19
 -1      1195 1.30483E-04-3.75613E-05-3.85228E-05 1.21224E-05-2.69356E-19 2.42912E-17
 -1      1196 9.62666E-05-2.81047E-05-3.12388E-05 7.96783E-07 1.78830E-19 1.94948E-17
 -1      1197 9.02423E-05-2.68933E-05-2.78326E-05 1.22101E-07 1.13284E-19 1.48778E-17
 -1      1198 8.83653E-05-2.65122E-05-2.66907E-05 1.47234E-08 6.59759E-21 1.18304E-17
 -1      1199 8.81618E-05-2.64821E-05-2.64888E-05-1.63376E-08 4.32119E-21 9.87656E-18
 -1      1200 8.87794E-05-2.66635E-05-2.66489E-05-2.21159E-08 4.36288E-20 7.76822E-18
 -1      1201 8.98512E-05-2.69790E-05-2.69687E-05-1.97100E-08 5.02140E-20 6.33554E-18
 -1      1202 9.12239E-05-2.73882E-05-2.73831E-05-1.38947E-08 3.59199E-20 5.62043E-18
 -1      1203 9.28523E-05-2.78772E-05-2.78770E-05-6.21935E-09-5.67876E-20 4.37522E-18
 -1      1204 9.47617E-05-2.84527E-05-2.84592E-05 2.36734E-09 1.71590E-20 3.95390E-18
 -1      1205 9.70353E-05-2.91392E-05-2.91558E-05 1.06876E-08 9.80970E-20 2.83269E-18
 -1      1206 9.98106E-05-2.99771E-05-3.00088E-05 1.66630E-08 1.05640E-19 2.20787E-18
 -1      1207 1.03277E-04-3.10218E-05-3.10756E-05 1.62966E-08-7.07587E-20 2.63495E-18
 -1      1208 1.07665E-04-3.23393E-05-3.24232E-05 2.09691E-09-3.16959E-20 2.27452E-18
 -1      1209 1.13212E-04-3.39946E-05-3.41135E-05-3.87948E-08 9.18369E-20 9.75279E-19
 -1      1210 1.20057E-04-3.60215E-05-3.61645E-05-1.24933E-07-5.52441E-20 4.03929E-19
 -1      1211 1.28027E-04-3.83592E-05-3.84730E-05-2.73282E-07-4.69301E-21 9.29830E-19
 -1      1212 1.36220E-04-4.07350E-05-4.06935E-05-4.73813E-07 2.49901E-19 1.74711E-18
 -1      1213 1.42503E-04-4.25626E-05-4.21367E-05-6.24991E-07-2.12916E-19 2.10811E-18
 -1      1214 1.42708E-04-4.26560E-05-4.17198E-05-3.97570E-07 8.25063E-20 2.08582E-18
 -1      1215 1.32846E-04-3.99021E-05-3.87733E-05 3.89052E-07 3.58057E-19-3.69730E-19
 -1      1216 1.13085E-04-3.42048E-05-3.38340E-05 1.52063E-06-1.42500E-19-6.38239E-19
 -1      1217 9.27595E-05-2.79965E-05-2.93038E-05 1.93477E-06-2.56148E-19-4.04458E-20
 -1      1218 8.37802E-05-2.48565E-05-2.74841E-05 1.15067E-06-1.68798E-19 1.10273E-18
 -1      1219 9.26800E-05-2.73204E-05-2.95193E-05-5.59369E-07 7.12302E-20-1.79105E-18
 -1      1220 1.13620E-04-3.37516E-05-3.43214E-05-1.60024E-06-7.45455E-21-3.01586E-18
 -1      1221 1.33462E-04-4.00625E-05-3.92072E-05-1.54807E-06 1.95638E-19-2.95276E-18
 -1      1222 1.43143E-04-4.31149E-05-4.19701E-05-8.63617E-07 1.63749E-19-4.44173E-18
 -1      1223 1.42916E-04-4.30175E-05-4.22499E-05-2.28892E-07-5.39719E-20-1.93043E-18
 -1      1224 1.36890E-04-4.11338E-05-4.08269E-05 1.35644E-07 1.45572E-19-3.85135E-19
 -1      1225 1.28853E-04-3.86675E-05-3.86530E-05 2.67193E-07 6.51332E-20 1.98687E-18
 -1      1226 1.20889E-04-3.62601E-05-3.63618E-05 2.74499E-07 9.53847E-20 1.92462E-18
 -1      1227 1.14165E-04-3.42387E-05-3.43660E-05 2.25583E-07-1.25090E-19 5.36145E-18
 -1      1228 1.09010E-04-3.26957E-05-3.28057E-05 1.72647E-07 1.63332E-19 4.15205E-18
 -1      1229 1.05093E-04-3.15245E-05-3.16093E-05 1.26311E-07-3.02124E-19 1.39206E-18
 -1      1230 1.02184E-04-3.06547E-05-3.07168E-05 9.01040E-08-5.02049E-20 9.14385E-19
 -1      1231 1.00057E-04-3.00180E-05-3.00623E-05 6.33315E-08-9.58297E-20 2.51051E-18
 -1      1232 9.85177E-05-2.95572E-05-2.95885E-05 4.40634E-08 7.40943E-20 8.49237E-19
 -1      1233 9.74166E-05-2.92271E-05-2.92491E-05 3.03800E-08 8.67189E-19-1.01698E-18
 -1      1234 9.66382E-05-2.89936E-05-2.90090E-05 2.07255E-08 1.82429E-19-2.15064E-18
 -1      1235 9.60962E-05-2.88308E-05-2.88415E-05 1.39369E-08-5.87257E-21-3.92126E-18
 -1      1236 9.57265E-05-2.87196E-05-2.87271E-05 9.17613E-09 1.42283E-19-5.33765E-18
 -1      1237 9.54818E-05-2.86460E-05-2.86512E-05 5.84763E-09 8.61033E-20-6.30780E-18
 -1      1238 9.53273E-05-2.85993E-05-2.86029E-05 3.52706E-09-2.61753E-19-3.16288E-18
 -1      1239 9.52372E-05-2.85721E-05-2.85746E-05 1.90148E-09 2.98182E-19-5.79845E-18
 -1      1240 9.51930E-05-2.85586E-05-2.85604E-05 7.21022E-10 1.33328E-19-6.68925E-18
 -1      1241 9.51812E-05-2.85548E-05-2.85562E-05-2.41476E-10 1.07117E-18-6.48782E-18
 -1      1242 9.51913E-05-2.85576E-05-2.85584E-05-1.27239E-09 1.39518E-19-3.28030E-18
 -1      1243 9.52139E-05-2.85639E-05-2.85636E-05-2.61200E-09-4.25705E-19 5.20886E-18
 -1      1244 9.52332E-05-2.85704E-05-2.85675E-05-1.24654E-09 1.66956E-19 6.73262E-18
 -1      1245 9.52379E-05-2.85750E-05-2.85678E-05-1.44028E-09 8.09550E-18-7.41724E-19
 -1      1246 9.52433E-05-2.85926E-05-2.85644E-05-3.22092E-09 5.40019E-18-6.20722E-19
 -1      1247 9.52486E-05-2.86106E-05-2.85606E-05-2.21276E-09 2.03430E-18 7.12328E-19
 -1      1248 9.52499E-05-2.86149E-05-2.85596E-05-8.52630E-10-1.50937E-18-4.40605E-19
 -1      1249 9.52469E-05-2.86043E-05-2.85623E-05 1.92083E-10 9.00215E-19 7.11080E-19
 -1      1250 9.52411E-05-2.85842E-05-2.85676E-05 7.58455E-10 3.48523E-19 2.22717E-22
 -1      1251 9.52347E-05-2.85617E-05-2.85736E-05 8.59506E-10 3.07616E-19 8.50459E-21
 -1      1252 9.52294E-05-2.85437E-05-2.85785E-05 6.05170E-10 2.71277E-19 5.59828E-19
 -1      1253 9.52270E-05-2.85354E-05-2.85808E-05 1.48908E-10 2.49158E-18 8.95617E-19
 -1      1254 9.52281E-05-2.85390E-05-2.85799E-05-3.29574E-10 3.40233E-18-4.66840E-22
 -1      1255 9.52321E-05-2.85531E-05-2.85761E-05-6.48418E-10 1.50457E-18-5.85515E-19
 -1      1256 9.52379E-05-2.85731E-05-2.85707E-05-6.59328E-10-8.78170E-19 3.75208E-19
 -1      1257 9.52435E-05-2.85926E-05-2.85655E-05-2.41758E-10-1.49544E-18 3.42774E-20
 -1      1258 9.52469E-05-2.86048E-05-2.85624E-05 6.44108E-10-2.31843E-18-6.37484E-19
 -1      1259 9.52469E-05-2.86041E-05-2.85625E-05 2.18774E-09-4.45332E-18 3.84928E-19
 -1      1260 9.52422E-05-2.85895E-05-2.85651E-05 4.24132E-09-1.69927E-18-4.33837E-19
 -1      1261 9.52380E-05-2.85754E-05-2.85678E-05 1.75418E-09 9.13585E-20 9.10344E-20
 -1      1262 3.68492E-05-1.14972E-04 1.97144E-05-1.43937E-05 5.10083E-18 8.36392E-19
 -1      1263 2.07572E-05-7.90363E-05 1.27812E-05-3.02905E-05 8.41104E-18 2.95085E-18
 -1      1264 7.32349E-06-2.32756E-05-1.83675E-06-1.28312E-05 1.31155E-17 8.68548E-18
 -1      1265 2.68064E-05 1.74704E-05-2.20367E-05 3.87704E-05 1.72015E-17 1.58124E-17
 -1      1266 9.82487E-05 1.43055E-05-4.46012E-05 9.45681E-05 1.10512E-17 1.53821E-17
 -1      1267 2.08564E-04-3.15569E-05-6.52221E-05 1.14190E-04 4.60828E-18 1.02643E-17
 -1      1268 3.06126E-04-8.43208E-05-7.88915E-05 7.20533E-05 9.50265E-19 2.32765E-18
 -1      1269 3.36992E-04-1.01536E-04-8.28280E-05-1.20912E-05 6.11822E-19-6.21955E-18
 -1      1270 2.82544E-04-6.93037E-05-7.59023E-05-8.80337E-05 3.28119E-18-1.30765E-17
 -1      1271 1.70565E-04-1.34541E-05-5.85474E-05-1.12400E-04 8.33396E-18-1.58514E-17
 -1      1272 6.42346E-05 1.99231E-05-3.51734E-05-7.27106E-05 1.42251E-17-1.61275E-17
 -1      1273 1.31034E-05 3.58193E-06-1.26733E-05-1.35419E-05 1.55549E-17-1.24455E-17
 -1      1274 1.06881E-05-4.67350E-05 5.06462E-06 2.50120E-05 1.28783E-17-6.31040E-18
 -1      1275 2.82374E-05-9.73119E-05 1.64747E-05 2.68576E-05 9.09375E-18-2.62633E-18
 -1      1276 3.79548E-05-1.17587E-04 2.02427E-05 1.73632E-06-1.67448E-18-1.19702E-18
 -1      1277 2.60365E-05-8.85543E-05 1.47703E-05-2.10665E-05-1.18949E-17-3.24424E-18
 -1      1278 9.52388E-06-3.23447E-05 1.36849E-06-1.42416E-05-1.77572E-17-9.07003E-18
 -1      1279 1.57147E-05 1.57387E-05-1.65841E-05 2.77014E-05-1.88583E-17-1.39760E-17
 -1      1280 6.63682E-05 2.62220E-05-3.71401E-05 8.23377E-05-1.45410E-17-1.64358E-17
 -1      1281 1.56174E-04-5.38853E-06-5.63939E-05 1.13838E-04-9.31821E-18-1.61190E-17
 -1      1282 2.53844E-04-5.81401E-05-7.14122E-05 9.17472E-05-3.27802E-18-8.55842E-18
 -1      1283 3.10096E-04-9.27297E-05-7.86021E-05 2.15961E-05-6.06423E-19 1.17865E-18
 -1      1284 2.93491E-04-8.27673E-05-7.65017E-05-5.90649E-05-2.02250E-18 9.75951E-18
 -1      1285 2.13913E-04-3.54738E-05-6.57791E-05-1.08778E-04-5.36511E-18 1.44080E-17
 -1      1286 1.14502E-04 1.23803E-05-4.85582E-05-1.05725E-04-9.82389E-18 1.50755E-17
 -1      1287 3.94989E-05 2.69419E-05-2.83859E-05-5.99078E-05-1.12605E-17 1.15247E-17
 -1      1288 8.73425E-06-3.47747E-06-7.86590E-06-5.18936E-06-1.14841E-17 7.53859E-18
 -1      1289 1.65979E-05-6.10390E-05 8.64629E-06 2.29819E-05-4.50876E-18 2.66307E-18
 -1      1290 3.38909E-05-1.07044E-04 1.83314E-05 1.35646E-05 1.68305E-18 3.70709E-19
 -1      1291 1.04169E-04-2.19531E-05-3.77930E-05-1.71582E-05-6.50098E-19 9.35971E-18
 -1      1292 9.03006E-05-6.70437E-06-3.59950E-05-2.02498E-05-1.65674E-18-1.40290E-18
 -1      1293 9.25722E-05-6.76780E-06-3.71691E-05-2.55410E-05-2.16205E-18 9.95899E-19
 -1      1294 8.59695E-05-4.11904E-06-3.51464E-05-1.61732E-05-1.60650E-18-4.67967E-18
 -1      1295 8.71899E-05-4.11377E-06-3.55989E-05-1.86068E-05-1.84367E-18-3.30986E-18
 -1      1296 9.21527E-05-1.04950E-05-3.50856E-05-1.87794E-05-2.87671E-18-1.23529E-18
 -1      1297 8.41856E-05-3.19369E-06-3.47232E-05-1.25459E-05-1.21443E-18-6.17236E-18
 -1      1298 8.47850E-05-3.16494E-06-3.49395E-05-1.43614E-05-1.42812E-18-5.50577E-18
 -1      1299 8.79408E-05-7.40918E-06-3.45983E-05-1.51267E-05-2.48897E-18-3.91107E-18
 -1      1300 8.32664E-05-2.70946E-06-3.45139E-05-9.42527E-06-8.24924E-19-6.86589E-18
 -1      1301 8.35855E-05-2.69423E-06-3.46212E-05-1.09629E-05-9.76404E-19-6.56719E-18
 -1      1302 8.59436E-05-5.96207E-06-3.43472E-05-1.16739E-05-1.81269E-18-5.22918E-18
 -1      1303 8.27461E-05-2.41436E-06-3.44068E-05-6.69468E-06-4.91150E-19-7.10176E-18
 -1      1304 8.29266E-05-2.40712E-06-3.44626E-05-8.04211E-06-5.96933E-19-6.99107E-18
 -1      1305 8.48707E-05-5.15097E-06-3.42212E-05-8.67949E-06-1.18919E-18-5.75479E-18
 -1      1306 8.24424E-05-2.22914E-06-3.43505E-05-4.14109E-06-2.08684E-19-7.12323E-18
 -1      1307 8.25439E-05-2.22598E-06-3.43798E-05-5.40715E-06-2.80001E-19-7.15125E-18
 -1      1308 8.42422E-05-4.65447E-06-3.41571E-05-6.00505E-06-6.70875E-19-6.01937E-18
 -1      1309 8.22911E-05-2.12624E-06-3.43259E-05-1.72045E-06 1.20696E-19-6.99125E-18
 -1      1310 8.23358E-05-2.12503E-06-3.43381E-05-2.92850E-06 1.55510E-21-7.02634E-18
 -1      1311 8.38834E-05-4.35930E-06-3.41259E-05-3.50702E-06-2.17371E-19-5.93630E-18
 -1      1312 8.22625E-05-2.09379E-06-3.43238E-05 6.46244E-07 3.77130E-19-6.86617E-18
 -1      1313 8.22597E-05-2.09378E-06-3.43228E-05-5.43740E-07 2.83103E-19-6.95083E-18
 -1      1314 8.37217E-05-4.22163E-06-3.41139E-05-1.12259E-06 3.53714E-19-5.87478E-18
 -1      1315 8.23511E-05-2.12877E-06-3.43427E-05 3.03400E-06 6.45753E-19-6.64410E-18
 -1      1316 8.23008E-05-2.12991E-06-3.43287E-05 1.82369E-06 5.55496E-19-6.77849E-18
 -1      1317 8.37290E-05-4.22496E-06-3.41156E-05 1.22582E-06 7.52108E-19-5.71804E-18
 -1      1318 8.25728E-05-2.23578E-06-3.43875E-05 5.52085E-06 9.06603E-19-6.33319E-18
 -1      1319 8.24654E-05-2.23820E-06-3.43566E-05 4.24920E-06 8.22122E-19-6.54152E-18
 -1      1320 8.39062E-05-4.37079E-06-3.41308E-05 3.61323E-06 1.20113E-18-5.50872E-18
 -1      1321 8.29640E-05-2.42226E-06-3.44712E-05 8.14843E-06 1.17794E-18-5.73984E-18
 -1      1322 8.27793E-05-2.42979E-06-3.44146E-05 6.79209E-06 1.06804E-18-6.09349E-18
 -1      1323 8.42800E-05-4.67596E-06-3.41638E-05 6.09670E-06 1.61827E-18-5.16672E-18
 -1      1324 8.36438E-05-2.72451E-06-3.46320E-05 1.11218E-05 1.58394E-18-4.78754E-18
 -1      1325 8.33181E-05-2.74017E-06-3.45233E-05 9.56661E-06 1.41260E-18-5.34925E-18
 -1      1326 8.49275E-05-5.19147E-06-3.42280E-05 8.78832E-06 2.13448E-18-4.46680E-18
 -1      1327 8.48578E-05-3.21100E-06-3.49521E-05 1.45729E-05 1.94569E-18-3.15282E-18
 -1      1328 8.42575E-05-3.24610E-06-3.47343E-05 1.27287E-05 1.75008E-18-4.15687E-18
 -1      1329 8.60414E-05-6.04191E-06-3.43545E-05 1.18333E-05 2.71489E-18-3.42786E-18
 -1      1330 8.72906E-05-4.11569E-06-3.56207E-05 1.88464E-05 2.17428E-18-1.24726E-19
 -1      1331 8.60461E-05-4.17775E-06-3.51568E-05 1.64348E-05 1.94677E-18-1.94818E-18
 -1      1332 8.80796E-05-7.53383E-06-3.46045E-05 1.53657E-05 3.11159E-18-1.53924E-18
 -1      1333 9.33631E-05-6.81564E-06-3.70597E-05 2.48869E-05 1.83923E-18 5.53467E-18
 -1      1334 9.01114E-05-6.46219E-06-3.60152E-05 2.09269E-05 1.82313E-18 2.10054E-18
 -1      1335 9.23792E-05-1.07288E-05-3.50700E-05 1.94189E-05 3.23035E-18 1.83610E-18
 -1      1336 1.23204E-04-2.48438E-05-3.88976E-05 2.81953E-05 8.94467E-19 1.61635E-17
 -1      1337 9.98846E-05-1.44052E-05-3.72725E-05 2.38743E-05 9.14584E-19 8.80067E-18
 -1      1338 1.01550E-04-1.93367E-05-3.53479E-05 2.11826E-05 2.98999E-18 6.99522E-18
 -1      1339 1.02322E-04-2.77307E-05-3.46607E-05 7.24192E-06 1.61855E-18 1.55469E-17
 -1      1340 1.04923E-04-3.01685E-05-3.34524E-05-7.85237E-06-1.83245E-18 1.00261E-17
 -1      1341 9.81269E-05-2.78101E-05-3.07154E-05-4.89915E-06-1.67585E-18 7.86047E-18
 -1      1342 9.54304E-05-2.78282E-05-2.92308E-05-2.40181E-06-1.33945E-18 7.04952E-18
 -1      1343 9.32805E-05-2.75599E-05-2.82173E-05-1.95550E-06-1.25816E-18 5.11071E-18
 -1      1344 9.94396E-05-2.80446E-05-3.09661E-05-7.71058E-06-2.88992E-18 3.72541E-18
 -1      1345 9.16679E-05-2.72226E-05-2.76080E-05-7.40322E-07-9.98003E-19 4.42781E-18
 -1      1346 9.10436E-05-2.71532E-05-2.73340E-05-6.26287E-07-9.21433E-19 3.02510E-18
 -1      1347 9.48096E-05-2.77934E-05-2.88466E-05-2.93503E-06-2.21703E-18 2.47850E-18
 -1      1348 9.03890E-05-2.69968E-05-2.71209E-05-4.95090E-08-7.23647E-19 2.45460E-18
 -1      1349 9.04339E-05-2.70575E-05-2.71215E-05 1.50596E-08-6.46528E-19 1.43294E-18
 -1      1350 9.27778E-05-2.75656E-05-2.79800E-05-8.27683E-07-1.60102E-18 1.24816E-18
 -1      1351 9.02976E-05-2.70249E-05-2.70856E-05 3.18911E-07-5.15125E-19 1.06755E-18
 -1      1352 9.06680E-05-2.71606E-05-2.71939E-05 3.56578E-07-5.14329E-19 3.44147E-19
 -1      1353 9.20327E-05-2.74795E-05-2.76807E-05 2.23784E-07-1.19097E-18 2.39518E-19
 -1      1354 9.08316E-05-2.72093E-05-2.72501E-05 5.31762E-07-4.57853E-19 3.68459E-20
 -1      1355 9.13804E-05-2.73903E-05-2.74108E-05 5.54981E-07-3.38135E-19-4.71453E-19
 -1      1356 9.20566E-05-2.75447E-05-2.76592E-05 8.04772E-07-9.52988E-19-2.42794E-19
 -1      1357 9.17276E-05-2.74909E-05-2.75215E-05 6.63369E-07-3.95531E-19-7.73732E-19
 -1      1358 9.23839E-05-2.76998E-05-2.77134E-05 6.78857E-07-4.01475E-19-1.47094E-18
 -1      1359 9.25471E-05-2.77201E-05-2.77918E-05 1.15110E-06-7.25957E-19-8.24324E-19
 -1      1360 9.28498E-05-2.78347E-05-2.78594E-05 7.50857E-07-3.27641E-19-1.75676E-18
 -1      1361 9.35770E-05-2.80626E-05-2.80722E-05 7.62169E-07-3.07283E-19-2.25793E-18
 -1      1362 9.33340E-05-2.79707E-05-2.80196E-05 1.37264E-06-8.38854E-19-1.37592E-18
 -1      1363 9.41229E-05-2.82213E-05-2.82419E-05 8.12145E-07-2.97663E-19-2.29519E-18
 -1      1364 9.48994E-05-2.84632E-05-2.84694E-05 8.20682E-07-3.36433E-19-2.83811E-18
 -1      1365 9.43183E-05-2.82745E-05-2.83096E-05 1.52324E-06-6.04274E-19-1.76477E-18
 -1      1366 9.54985E-05-2.86386E-05-2.86543E-05 8.52294E-07-4.17056E-19-2.97653E-18
 -1      1367 9.63058E-05-2.88903E-05-2.88908E-05 8.57537E-07-2.46776E-19-3.30355E-18
 -1      1368 9.54369E-05-2.86176E-05-2.86405E-05 1.62494E-06-5.75446E-19-2.11428E-18
 -1      1369 9.69334E-05-2.90763E-05-2.90829E-05 8.65420E-07-1.66143E-19-3.81913E-18
 -1      1370 9.77453E-05-2.93313E-05-2.93202E-05 8.64889E-07-5.63787E-19-4.35230E-18
 -1      1371 9.66405E-05-2.89901E-05-2.89951E-05 1.67615E-06-5.88286E-19-2.76797E-18
 -1      1372 9.83706E-05-2.95201E-05-2.95094E-05 8.35195E-07-5.47253E-19-4.37926E-18
 -1      1373 9.91440E-05-2.97664E-05-2.97343E-05 8.24377E-07-2.03357E-19-4.76673E-18
 -1      1374 9.78762E-05-2.93807E-05-2.93547E-05 1.65426E-06-6.07641E-19-3.41214E-18
 -1      1375 9.97231E-05-2.99464E-05-2.99062E-05 7.35729E-07-1.27697E-19-4.71626E-18
 -1      1376 1.00389E-04-3.01635E-05-3.00980E-05 7.08278E-07-1.67479E-19-4.98377E-18
 -1      1377 9.90726E-05-2.97724E-05-2.96955E-05 1.51733E-06-3.04852E-19-3.50354E-18
 -1      1378 1.00860E-04-3.03175E-05-3.02328E-05 5.34770E-07-9.38701E-20-4.93380E-18
 -1      1379 1.01316E-04-3.04739E-05-3.03621E-05 4.83424E-07-1.92071E-19-5.00723E-18
 -1      1380 1.00128E-04-3.01374E-05-2.99852E-05 1.20859E-06-2.33679E-19-3.57556E-18
 -1      1381 1.01598E-04-3.05779E-05-3.04351E-05 2.01580E-07-2.52260E-19-4.76878E-18
 -1      1382 1.01718E-04-3.06314E-05-3.04649E-05 1.20371E-07-2.19229E-19-5.05927E-18
 -1      1383 1.00903E-04-3.04327E-05-3.01827E-05 6.67987E-07-1.04013E-19-3.26673E-18
 -1      1384 1.01718E-04-3.06553E-05-3.04488E-05-2.78247E-07-4.22315E-19-5.07456E-18
 -1      1385 1.01361E-04-3.05577E-05-3.03409E-05-3.90001E-07-4.14772E-19-5.56565E-18
 -1      1386 1.01225E-04-3.05979E-05-3.02407E-05-1.44705E-07-5.28290E-19-3.26304E-18
 -1      1387 1.00992E-04-3.04696E-05-3.02126E-05-8.80992E-07-1.57240E-19-5.72220E-18
 -1      1388 1.00052E-04-3.01791E-05-2.99389E-05-1.01326E-06-3.09690E-19-5.80652E-18
 -1      1389 1.00911E-04-3.05584E-05-3.01149E-05-1.21353E-06-5.91375E-19-3.34122E-18
 -1      1390 9.92646E-05-2.99547E-05-2.96896E-05-1.52185E-06-5.15105E-19-6.17200E-18
 -1      1391 9.77239E-05-2.94568E-05-2.92493E-05-1.64911E-06-3.88560E-19-6.56036E-18
 -1      1392 9.98163E-05-3.02408E-05-2.97786E-05-2.42299E-06-6.94375E-19-4.17763E-18
 -1      1393 9.65508E-05-2.90956E-05-2.88954E-05-2.04587E-06-3.28589E-20-6.65728E-18
 -1      1394 9.45467E-05-2.84281E-05-2.83310E-05-2.12786E-06-2.94915E-19-6.88617E-18
 -1      1395 9.79104E-05-2.96033E-05-2.92411E-05-3.52916E-06-6.49234E-19-4.11943E-18
 -1      1396 9.31385E-05-2.79705E-05-2.79217E-05-2.25493E-06-9.18485E-20-7.06674E-18
 -1      1397 9.09940E-05-2.72393E-05-2.73251E-05-2.24801E-06-3.38301E-19-7.20012E-18
 -1      1398 9.53616E-05-2.86801E-05-2.85635E-05-4.18250E-06-4.50982E-19-4.81557E-18
 -1      1399 8.96231E-05-2.67758E-05-2.69385E-05-1.98358E-06-8.08122E-20-6.98101E-18
 -1      1400 8.78015E-05-2.61439E-05-2.64366E-05-1.86358E-06 6.67164E-19-6.43450E-18
 -1      1401 9.25872E-05-2.76187E-05-2.78598E-05-4.03540E-06-1.84643E-20-5.68147E-18
 -1      1402 8.68034E-05-2.57972E-05-2.61611E-05-1.20152E-06 5.76141E-19-6.16198E-18
 -1      1403 8.57713E-05-2.54352E-05-2.58785E-05-9.85478E-07 2.33344E-19-5.87752E-18
 -1      1404 9.02041E-05-2.66723E-05-2.72766E-05-2.92139E-06 7.53939E-19-5.11654E-18
 -1      1405 8.54267E-05-2.53134E-05-2.57847E-05-7.42078E-08 1.34897E-19-5.96414E-18
 -1      1406 8.54752E-05-2.53299E-05-2.57982E-05 1.78157E-07 2.84213E-19-6.09356E-18
 -1      1407 8.88469E-05-2.61206E-05-2.69524E-05-1.00913E-06 3.01193E-19-4.25947E-18
 -1      1408 8.58900E-05-2.54750E-05-2.59118E-05 1.08060E-06 4.68363E-19-5.89768E-18
 -1      1409 8.70088E-05-2.58661E-05-2.62188E-05 1.29181E-06 1.65132E-19-5.59101E-18
 -1      1410 8.89173E-05-2.61470E-05-2.69705E-05 1.20105E-06 3.69167E-19-4.17812E-18
 -1      1411 8.80639E-05-2.62307E-05-2.65109E-05 1.93199E-06-2.03228E-19-5.37887E-18
 -1      1412 8.99465E-05-2.68817E-05-2.70306E-05 2.04490E-06-3.01491E-20-5.10766E-18
 -1      1413 9.04014E-05-2.67444E-05-2.73283E-05 3.07518E-06 3.80768E-20-3.56772E-18
 -1      1414 9.13551E-05-2.73553E-05-2.74294E-05 2.28574E-06 6.25199E-19-5.60664E-18
 -1      1415 9.35327E-05-2.80950E-05-2.80364E-05 2.28697E-06 5.62833E-19-5.45648E-18
 -1      1416 9.28774E-05-2.77198E-05-2.79388E-05 4.13278E-06-3.11913E-20-3.14435E-18
 -1      1417 9.49636E-05-2.85569E-05-2.84540E-05 2.14564E-06 1.22140E-19-5.16584E-18
 -1      1418 9.69835E-05-2.92267E-05-2.90242E-05 2.06163E-06-4.24244E-20-4.97973E-18
 -1      1419 9.57089E-05-2.87931E-05-2.86628E-05 4.23356E-06 4.11933E-19-3.09520E-18
 -1      1420 9.81751E-05-2.95910E-05-2.93851E-05 1.66524E-06 3.78981E-19-5.00456E-18
 -1      1421 9.97313E-05-3.00910E-05-2.98310E-05 1.53997E-06 1.96664E-19-4.73188E-18
 -1      1422 9.82952E-05-2.97191E-05-2.93566E-05 3.56368E-06 2.35270E-19-3.22014E-18
 -1      1423 1.00545E-04-3.03213E-05-3.00896E-05 1.04604E-06-4.68396E-19-4.66341E-18
 -1      1424 1.01517E-04-3.06197E-05-3.03734E-05 9.18982E-07-2.58927E-19-4.82031E-18
 -1      1425 1.00243E-04-3.03607E-05-2.99111E-05 2.47624E-06-5.68968E-20-2.97924E-18
 -1      1426 1.01932E-04-3.07198E-05-3.05161E-05 4.53501E-07-1.85318E-19-4.82866E-18
 -1      1427 1.02350E-04-3.08352E-05-3.06427E-05 3.49012E-07-1.29189E-19-4.74055E-18
 -1      1428 1.01406E-04-3.06925E-05-3.02714E-05 1.31573E-06-2.61240E-19-2.70913E-18
 -1      1429 1.02420E-04-3.08311E-05-3.06807E-05-1.70992E-08-2.50206E-20-4.74169E-18
 -1      1430 1.02401E-04-3.08077E-05-3.06806E-05-8.98563E-08-1.20322E-20-4.47700E-18
 -1      1431 1.01831E-04-3.07614E-05-3.04330E-05 3.16960E-07-3.43988E-19-2.26350E-18
 -1      1432 1.02219E-04-3.07323E-05-3.06385E-05-3.35086E-07-2.11532E-19-5.03799E-18
 -1      1433 1.01906E-04-3.06198E-05-3.05517E-05-3.77302E-07-5.18194E-19-5.41602E-18
 -1      1434 1.01675E-04-3.06435E-05-3.04260E-05-4.12685E-07-6.73970E-19-2.53198E-18
 -1      1435 1.01566E-04-3.05036E-05-3.04575E-05-5.11932E-07-1.48486E-19-4.81819E-18
 -1      1436 1.01091E-04-3.03449E-05-3.03216E-05-5.29828E-07 5.28696E-19-4.88871E-18
 -1      1437 1.01126E-04-3.04143E-05-3.02969E-05-8.62880E-07-2.25331E-19-2.94121E-18
 -1      1438 1.00675E-04-3.02120E-05-3.02005E-05-5.78650E-07 5.91836E-19-4.40842E-18
 -1      1439 1.00141E-04-3.00392E-05-3.00456E-05-5.79680E-07 6.22208E-19-3.25889E-18
 -1      1440 1.00358E-04-3.01345E-05-3.00936E-05-1.07762E-06 8.19706E-19-1.62090E-18
 -1      1441 9.97090E-05-2.99063E-05-2.99168E-05-5.70116E-07 7.10331E-20-3.81687E-18
 -1      1442 9.91842E-05-2.97403E-05-2.97636E-05-5.60925E-07-2.31227E-20-3.94614E-18
 -1      1443 9.95088E-05-2.98467E-05-2.98571E-05-1.12036E-06 3.79233E-19-2.53143E-18
 -1      1444 9.87766E-05-2.96177E-05-2.96402E-05-5.16791E-07-7.08584E-20-4.15834E-18
 -1      1445 9.83027E-05-2.94703E-05-2.95010E-05-5.02457E-07 2.23963E-20-4.43694E-18
 -1      1446 9.86751E-05-2.95773E-05-2.96174E-05-1.05271E-06-4.35464E-19-3.64489E-18
 -1      1447 9.79417E-05-2.93635E-05-2.93907E-05-4.41753E-07-1.06516E-20-5.30685E-18
 -1      1448 9.75383E-05-2.92396E-05-2.92717E-05-4.25753E-07-1.77676E-19-5.33443E-18
 -1      1449 9.79153E-05-2.93404E-05-2.93943E-05-9.24648E-07-6.11306E-19-3.67314E-18
 -1      1450 9.72335E-05-2.91505E-05-2.91781E-05-3.60703E-07-1.34080E-19-4.47480E-18
 -1      1451 9.69056E-05-2.90510E-05-2.90810E-05-3.45178E-07 2.60932E-19-4.55903E-18
 -1      1452 9.72593E-05-2.91415E-05-2.91985E-05-7.72196E-07-4.22318E-19-3.63057E-18
 -1      1453 9.66583E-05-2.89794E-05-2.90046E-05-2.83247E-07-2.11785E-19-5.00436E-18
 -1      1454 9.64022E-05-2.89024E-05-2.89285E-05-2.69355E-07-9.38028E-19-5.19727E-18
 -1      1455 9.67165E-05-2.89808E-05-2.90344E-05-6.18750E-07-2.24752E-19-3.45730E-18
 -1      1456 9.62084E-05-2.88468E-05-2.88685E-05-2.14497E-07-8.14959E-19-5.09015E-18
 -1      1457 9.60157E-05-2.87895E-05-2.88110E-05-2.02730E-07-1.02135E-18-6.23281E-18
 -1      1458 9.62835E-05-2.88551E-05-2.89021E-05-4.77846E-07-9.07217E-19-4.22664E-18
 -1      1459 9.58688E-05-2.87476E-05-2.87655E-05-1.56530E-07-5.37538E-19-5.55498E-18
 -1      1460 9.57293E-05-2.87066E-05-2.87237E-05-1.46964E-07 6.52879E-20-5.25812E-18
 -1      1461 9.59493E-05-2.87598E-05-2.87990E-05-3.56021E-07-1.02767E-18-4.31937E-18
 -1      1462 9.56217E-05-2.86760E-05-2.86903E-05-1.09526E-07 7.82390E-19-4.98273E-18
 -1      1463 9.55251E-05-2.86480E-05-2.86612E-05-1.02000E-07 1.07827E-18-4.45276E-18
 -1      1464 9.56999E-05-2.86899E-05-2.87214E-05-2.55232E-07 9.73081E-19-3.06249E-18
 -1      1465 9.54494E-05-2.86267E-05-2.86377E-05-7.25967E-08 5.13756E-19-3.29017E-18
 -1      1466 9.53863E-05-2.86087E-05-2.86186E-05-6.68356E-08 5.66615E-19-2.60892E-18
 -1      1467 9.55203E-05-2.86404E-05-2.86650E-05-1.74695E-07 1.41764E-18-2.14105E-18
 -1      1468 9.53357E-05-2.85945E-05-2.86029E-05-4.43527E-08 7.99068E-19-2.00683E-18
 -1      1469 9.52982E-05-2.85842E-05-2.85914E-05-4.00435E-08 7.74650E-19-1.12634E-18
 -1      1470 9.53964E-05-2.86071E-05-2.86257E-05-1.12175E-07 1.60504E-18 1.34766E-19
 -1      1471 9.52668E-05-2.85754E-05-2.85816E-05-2.32779E-08 8.57538E-19-4.62401E-19
 -1      1472 9.52483E-05-2.85707E-05-2.85758E-05-2.01201E-08 1.70822E-18 1.35829E-18
 -1      1473 9.53158E-05-2.85859E-05-2.85998E-05-6.48836E-08 1.75905E-18 1.75217E-18
 -1      1474 9.52309E-05-2.85659E-05-2.85705E-05-7.99397E-09 8.54162E-19 5.93454E-19
 -1      1475 9.52262E-05-2.85653E-05-2.85688E-05-5.74324E-09-7.20261E-20 1.40211E-18
 -1      1476 9.52676E-05-2.85739E-05-2.85840E-05-3.00714E-08 1.39311E-18 7.72521E-19
 -1      1477 9.52188E-05-2.85634E-05-2.85665E-05 2.38619E-09 5.66661E-19 1.60980E-18
 -1      1478 9.52231E-05-2.85656E-05-2.85673E-05 3.82496E-09 4.43211E-19 2.28574E-18
 -1      1479 9.52431E-05-2.85686E-05-2.85754E-05-5.63481E-09 6.46527E-19 3.92688E-20
 -1      1480 9.52216E-05-2.85654E-05-2.85667E-05 7.75139E-09-4.56262E-19 2.20957E-18
 -1      1481 9.52305E-05-2.85696E-05-2.85684E-05 8.48035E-09-1.24014E-18 1.04082E-18
 -1      1482 9.52344E-05-2.85684E-05-2.85714E-05 9.00721E-09 2.70835E-19 1.74285E-19
 -1      1483 9.52341E-05-2.85734E-05-2.85676E-05 4.00221E-09-1.01285E-18 4.48512E-19
 -1      1484 9.52368E-05-2.85754E-05-2.85688E-05 1.04873E-08-1.49342E-18 2.20240E-19
 -1      1485 9.64271E-05-2.83207E-05-2.97236E-05 2.92328E-06 1.43773E-18 1.23011E-17
 -1      1486 1.02298E-04-2.93289E-05-3.20821E-05 4.38432E-06 1.27261E-18 1.45775E-17
 -1      1487 1.02168E-04-2.66882E-05-3.26517E-05 1.26236E-05 2.51558E-18 9.59710E-18
 -1      1488 9.20307E-05-2.74277E-05-2.77615E-05 1.07740E-06 1.01344E-18 9.49876E-18
 -1      1489 9.38989E-05-2.75603E-05-2.86508E-05 1.40021E-06 1.00299E-18 1.11782E-17
 -1      1490 9.64583E-05-2.80237E-05-2.95244E-05 4.72339E-06 2.15755E-18 7.45612E-18
 -1      1491 9.03755E-05-2.70532E-05-2.71182E-05 2.39027E-07 6.01440E-19 7.59225E-18
 -1      1492 9.08995E-05-2.70432E-05-2.73624E-05 4.06392E-07 6.58231E-19 8.72968E-18
 -1      1493 9.31697E-05-2.76119E-05-2.81401E-05 1.68797E-06 1.53723E-18 5.74995E-18
 -1      1494 9.00929E-05-2.70025E-05-2.70148E-05-1.81881E-07 6.92307E-19 6.10739E-18
 -1      1495 9.00092E-05-2.69023E-05-2.70057E-05-8.44192E-08 5.63595E-19 6.98917E-18
 -1      1496 9.18152E-05-2.73942E-05-2.76195E-05 3.04264E-07 1.23077E-18 4.23490E-18
 -1      1497 9.05505E-05-2.71492E-05-2.71563E-05-4.21425E-07 3.81042E-19 4.69651E-18
 -1      1498 9.01520E-05-2.69876E-05-2.70393E-05-3.58141E-07 5.21996E-19 5.49243E-18
 -1      1499 9.15515E-05-2.73869E-05-2.75076E-05-4.27588E-07 1.09570E-18 3.18108E-18
 -1      1500 9.14611E-05-2.74245E-05-2.74345E-05-5.79450E-07 3.19196E-19 3.94555E-18
 -1      1501 9.08723E-05-2.72198E-05-2.72593E-05-5.32607E-07 2.91715E-19 4.30888E-18
 -1      1502 9.19382E-05-2.75326E-05-2.76123E-05-8.66847E-07 6.51431E-19 2.58325E-18
 -1      1503 9.26979E-05-2.77936E-05-2.78099E-05-7.08051E-07 2.84226E-19 3.31461E-18
 -1      1504 9.19672E-05-2.75530E-05-2.75922E-05-6.66938E-07 2.98051E-19 3.73017E-18
 -1      1505 9.27534E-05-2.77873E-05-2.78535E-05-1.17630E-06 6.05562E-19 2.15428E-18
 -1      1506 9.42264E-05-2.82465E-05-2.82737E-05-8.41318E-07 1.58441E-19 2.60428E-18
 -1      1507 9.33589E-05-2.79674E-05-2.80144E-05-7.97780E-07 2.50195E-19 2.91365E-18
 -1      1508 9.38972E-05-2.81282E-05-2.81988E-05-1.44720E-06 5.17334E-19 1.72845E-18
 -1      1509 9.60763E-05-2.87921E-05-2.88356E-05-1.00633E-06 3.63198E-19 1.94606E-18
 -1      1510 9.50452E-05-2.84632E-05-2.85266E-05-9.52973E-07 2.15438E-19 2.39184E-18
 -1      1511 9.53456E-05-2.85506E-05-2.86409E-05-1.74219E-06 4.88718E-19 1.00578E-18
 -1      1512 9.83293E-05-2.94547E-05-2.95209E-05-1.22759E-06 1.11926E-19 1.51510E-18
 -1      1513 9.70807E-05-2.90567E-05-2.91458E-05-1.15686E-06 1.49551E-19 1.89022E-18
 -1      1514 9.71285E-05-2.90641E-05-2.91889E-05-2.11216E-06 4.05615E-19 5.76357E-19
 -1      1515 1.01114E-04-3.02728E-05-3.03684E-05-1.52802E-06 5.99987E-20 1.62046E-18
 -1      1516 9.95674E-05-2.97783E-05-2.99036E-05-1.43192E-06 4.27818E-21 1.69028E-18
 -1      1517 9.93184E-05-2.96907E-05-2.98650E-05-2.60254E-06-4.82147E-20 8.96374E-19
 -1      1518 1.04595E-04-3.12974E-05-3.14278E-05-1.92615E-06 4.68647E-20 1.62824E-18
 -1      1519 1.02649E-04-3.06718E-05-3.08433E-05-1.79686E-06 4.87573E-20 1.44255E-18
 -1      1520 1.02022E-04-3.04635E-05-3.07010E-05-3.25238E-06 3.80635E-20 1.02277E-18
 -1      1521 1.08956E-04-3.25874E-05-3.27514E-05-2.42598E-06 3.07301E-19 1.01160E-18
 -1      1522 1.06497E-04-3.17926E-05-3.20154E-05-2.25867E-06 1.58263E-19 1.32604E-18
 -1      1523 1.05366E-04-3.14250E-05-3.17328E-05-4.08335E-06 4.60806E-19 6.96794E-19
 -1      1524 1.14339E-04-3.41971E-05-3.43743E-05-2.99303E-06 1.74221E-20 1.86056E-19
 -1      1525 1.11279E-04-3.32022E-05-3.34654E-05-2.79334E-06 3.92755E-19 7.11005E-19
 -1      1526 1.09471E-04-3.26245E-05-3.29886E-05-5.07078E-06 5.61709E-19 3.51625E-19
 -1      1527 1.20723E-04-3.61456E-05-3.62705E-05-3.50696E-06-2.89670E-19 4.30663E-19
 -1      1528 1.17076E-04-3.49531E-05-3.52046E-05-3.30689E-06-1.49357E-19 2.31955E-19
 -1      1529 1.14391E-04-3.41106E-05-3.44651E-05-6.08273E-06 1.58786E-19 1.50362E-19
 -1      1530 1.27695E-04-3.83542E-05-3.82771E-05-3.68524E-06-1.26042E-19 1.16589E-18
 -1      1531 1.23733E-04-3.70526E-05-3.71560E-05-3.57175E-06-1.74521E-19 6.43745E-19
 -1      1532 1.20009E-04-3.59129E-05-3.60853E-05-6.77496E-06-2.56553E-19 3.93089E-19
 -1      1533 1.34109E-04-4.05299E-05-4.00002E-05-3.01484E-06 1.33064E-19 1.36931E-18
 -1      1534 1.30584E-04-3.93809E-05-3.90706E-05-3.15669E-06 1.42857E-19 1.43972E-18
 -1      1535 1.25864E-04-3.79923E-05-3.76436E-05-6.46254E-06 4.68714E-20 7.26754E-19
 -1      1536 1.37793E-04-4.20369E-05-4.07810E-05-6.40747E-07-1.73668E-19 1.89452E-18
 -1      1537 1.36203E-04-4.15690E-05-4.04759E-05-1.36401E-06-3.30303E-19 1.37246E-18
 -1      1538 1.31016E-04-4.01736E-05-3.87938E-05-3.98096E-06-4.02129E-19 1.07666E-18
 -1      1539 1.35230E-04-4.15240E-05-3.98172E-05 3.48114E-06 8.91476E-19 1.04037E-18
 -1      1540 1.37695E-04-4.25741E-05-4.06104E-05 2.15833E-06 5.45225E-19 2.01578E-18
 -1      1541 1.33466E-04-4.16929E-05-3.90427E-05 1.66075E-06 3.73012E-19 1.10629E-18
 -1      1542 1.24839E-04-3.80328E-05-3.70706E-05 8.03165E-06 1.43020E-19 5.12031E-19
 -1      1543 1.32260E-04-4.09811E-05-3.89866E-05 6.48660E-06 4.45751E-19 1.01167E-18
 -1      1544 1.31100E-04-4.12475E-05-3.82074E-05 9.47718E-06 6.66350E-19 1.82101E-18
 -1      1545 1.09473E-04-3.21901E-05-3.35506E-05 9.25953E-06-9.01296E-20 1.91853E-19
 -1      1546 1.19559E-04-3.60891E-05-3.58960E-05 8.76561E-06 2.09495E-19 2.87568E-19
 -1      1547 1.23324E-04-3.76615E-05-3.66750E-05 1.52556E-05 4.00938E-19 1.43260E-18
 -1      1548 9.86914E-05-2.78662E-05-3.13162E-05 4.97489E-06-1.23455E-19 7.03673E-19
 -1      1549 1.05384E-04-3.01156E-05-3.27598E-05 6.09191E-06-3.64118E-19 2.75286E-21
 -1      1550 1.13882E-04-3.22293E-05-3.53859E-05 1.31182E-05-4.81485E-19 1.10294E-18
 -1      1551 9.87399E-05-2.79017E-05-3.12748E-05-3.49549E-06 5.03243E-19-6.49039E-19
 -1      1552 9.80471E-05-2.70353E-05-3.11565E-05-1.08446E-06 3.73489E-19 3.31402E-20
 -1      1553 1.08882E-04-2.88651E-05-3.49087E-05 2.06794E-06 6.17911E-19-5.61457E-19
 -1      1554 1.10664E-04-3.27374E-05-3.37037E-05-9.06430E-06 7.39804E-19-2.57858E-18
 -1      1555 1.02727E-04-2.92578E-05-3.19739E-05-7.47832E-06 7.46871E-19-1.56976E-18
 -1      1556 1.12440E-04-3.08948E-05-3.54544E-05-1.07839E-05 1.42016E-18-2.19392E-18
 -1      1557 1.26363E-04-3.86580E-05-3.72877E-05-8.62048E-06 5.74601E-20-3.54695E-18
 -1      1558 1.16196E-04-3.49215E-05-3.48853E-05-8.59666E-06 4.22954E-19-3.24858E-18
 -1      1559 1.21861E-04-3.64751E-05-3.67957E-05-1.56696E-05 9.04658E-19-3.08331E-18
 -1      1560 1.36428E-04-4.19223E-05-4.00349E-05-4.17445E-06 2.38029E-20-4.29297E-18
 -1      1561 1.29841E-04-3.99672E-05-3.82807E-05-5.14831E-06 1.98073E-19-3.98730E-18
 -1      1562 1.30403E-04-4.10491E-05-3.82917E-05-1.14231E-05 8.30225E-19-4.54687E-18
 -1      1563 1.38524E-04-4.22212E-05-4.09464E-05 1.66537E-07-6.73722E-19-3.35999E-18
 -1      1564 1.36926E-04-4.21008E-05-4.03871E-05-8.10154E-07-3.28622E-19-3.87083E-18
 -1      1565 1.33688E-04-4.21207E-05-3.91537E-05-3.61404E-06-4.19678E-19-3.83468E-18
 -1      1566 1.34888E-04-4.07365E-05-4.02304E-05 2.70007E-06-6.01665E-19-1.61513E-18
 -1      1567 1.36852E-04-4.16749E-05-4.06518E-05 2.10758E-06-8.31601E-19-2.87302E-18
 -1      1568 1.32022E-04-4.08220E-05-3.90051E-05 2.62234E-06-1.03195E-18-1.92490E-18
 -1      1569 1.28555E-04-3.85792E-05-3.85712E-05 3.58836E-06-1.86357E-19-4.02235E-19
 -1      1570 1.32160E-04-3.98790E-05-3.95232E-05 3.35367E-06-1.37107E-19-1.09302E-18
 -1      1571 1.27427E-04-3.86688E-05-3.79984E-05 5.83400E-06-1.15558E-18-9.86026E-19
 -1      1572 1.21718E-04-3.64152E-05-3.66195E-05 3.49416E-06-3.53785E-19 1.00871E-18
 -1      1573 1.25604E-04-3.76769E-05-3.77135E-05 3.47016E-06-9.87741E-19-4.74312E-19
 -1      1574 1.21763E-04-3.64970E-05-3.65283E-05 6.65198E-06-1.11279E-18-1.49501E-19
 -1      1575 1.15257E-04-3.44486E-05-3.46964E-05 2.95243E-06-1.04098E-18 2.49388E-18
 -1      1576 1.18869E-04-3.55542E-05-3.57495E-05 3.03203E-06-3.41573E-19 1.66376E-18
 -1      1577 1.16096E-04-3.46009E-05-3.49235E-05 6.13045E-06-1.28927E-18 8.04443E-19
 -1      1578 1.10194E-04-3.29439E-05-3.31594E-05 2.34406E-06 3.57044E-19 3.62358E-18
 -1      1579 1.12991E-04-3.37658E-05-3.39882E-05 2.44619E-06-5.85677E-20 3.13648E-18
 -1      1580 1.11143E-04-3.30713E-05-3.34618E-05 5.09535E-06-6.19277E-19 1.66762E-18
 -1      1581 1.06203E-04-3.17683E-05-3.19386E-05 1.79492E-06 8.74184E-19 2.72549E-18
 -1      1582 1.08370E-04-3.23895E-05-3.25862E-05 1.89204E-06 6.45856E-19 3.51955E-18
 -1      1583 1.07191E-04-3.19137E-05-3.22656E-05 4.02231E-06 3.91670E-19 2.34232E-18
 -1      1584 1.03154E-04-3.08753E-05-3.10029E-05 1.34296E-06-2.52604E-19 1.62141E-18
 -1      1585 1.04785E-04-3.13351E-05-3.14925E-05 1.42518E-06-3.49169E-20 1.71333E-18
 -1      1586 1.04070E-04-3.10228E-05-3.13100E-05 3.07438E-06 8.13830E-19 2.43776E-18
 -1      1587 1.00869E-04-3.02079E-05-3.03012E-05 9.89554E-07-5.04875E-19 1.43942E-18
 -1      1588 1.02074E-04-3.05435E-05-3.06638E-05 1.05526E-06-5.36675E-21 1.10370E-18
 -1      1589 1.01668E-04-3.03472E-05-3.05697E-05 2.30191E-06-1.53095E-20 1.19065E-18
 -1      1590 9.91805E-05-2.97153E-05-2.97828E-05 7.20683E-07 2.17934E-19 8.17531E-19
 -1      1591 1.00060E-04-2.99577E-05-3.00476E-05 7.71655E-07 9.54963E-20 1.55341E-18
 -1      1592 9.98515E-05-2.98402E-05-3.00081E-05 1.69888E-06-2.58914E-19 8.97661E-19
 -1      1593 9.79472E-05-2.93558E-05-2.94043E-05 5.19271E-07 4.89100E-19 1.52218E-20
 -1      1594 9.85817E-05-2.95291E-05-2.95956E-05 5.58189E-07 5.36686E-19 5.48178E-19
 -1      1595 9.84963E-05-2.94635E-05-2.95883E-05 1.23933E-06 6.19538E-19 1.22278E-18
 -1      1596 9.70564E-05-2.90964E-05-2.91310E-05 3.69793E-07 1.77804E-18-2.20062E-18
 -1      1597 9.75091E-05-2.92188E-05-2.92676E-05 3.99239E-07 9.66076E-19-2.20258E-19
 -1      1598 9.74972E-05-2.91864E-05-2.92785E-05 8.94042E-07 1.35150E-18-2.21462E-19
 -1      1599 9.64213E-05-2.89115E-05-2.89363E-05 2.59564E-07-1.04836E-18-1.43171E-18
 -1      1600 9.67400E-05-2.89968E-05-2.90325E-05 2.81717E-07 7.96112E-20-1.62905E-18
 -1      1601 9.67695E-05-2.89851E-05-2.90525E-05 6.36934E-07 4.16031E-19-1.01769E-19
 -1      1602 9.59756E-05-2.87820E-05-2.87995E-05 1.78716E-07 7.61961E-19-2.28851E-18
 -1      1603 9.61961E-05-2.88402E-05-2.88662E-05 1.95314E-07 8.02584E-19-6.93104E-19
 -1      1604 9.62466E-05-2.88407E-05-2.88900E-05 4.46744E-07-3.55254E-19-4.74955E-19
 -1      1605 9.56695E-05-2.86932E-05-2.87056E-05 1.19744E-07-4.62640E-19-2.57841E-18
 -1      1606 9.58183E-05-2.87317E-05-2.87507E-05 1.32136E-07 9.40082E-20-2.19527E-18
 -1      1607 9.58770E-05-2.87391E-05-2.87748E-05 3.06874E-07 1.00569E-18 4.66606E-19
 -1      1608 9.54656E-05-2.86342E-05-2.86429E-05 7.69965E-08 2.07416E-19-3.13037E-18
 -1      1609 9.55625E-05-2.86587E-05-2.86724E-05 8.62213E-08 8.23150E-20-3.06746E-18
 -1      1610 9.56214E-05-2.86692E-05-2.86950E-05 2.04631E-07-8.81402E-20-2.29125E-19
 -1      1611 9.53359E-05-2.85970E-05-2.86029E-05 4.62285E-08 4.99044E-19-3.44820E-18
 -1      1612 9.53954E-05-2.86112E-05-2.86211E-05 5.30851E-08 2.93937E-19-2.89917E-18
 -1      1613 9.54499E-05-2.86227E-05-2.86412E-05 1.30399E-07 9.69441E-19-1.66382E-18
 -1      1614 9.52598E-05-2.85753E-05-2.85794E-05 2.42506E-08 4.15335E-19-4.21230E-18
 -1      1615 9.52926E-05-2.85824E-05-2.85895E-05 2.93590E-08 2.83591E-19-3.64046E-18
 -1      1616 9.53399E-05-2.85933E-05-2.86065E-05 7.69156E-08 4.65092E-19-2.91031E-18
 -1      1617 9.52219E-05-2.85647E-05-2.85675E-05 8.71778E-09 2.05851E-19-4.60641E-18
 -1      1618 9.52357E-05-2.85668E-05-2.85719E-05 1.25451E-08-1.78255E-19-4.29228E-18
 -1      1619 9.52744E-05-2.85763E-05-2.85856E-05 3.87430E-08 1.05351E-19-2.66819E-18
 -1      1620 9.52106E-05-2.85620E-05-2.85637E-05-1.91784E-09-8.93841E-19-2.46462E-18
 -1      1621 9.52112E-05-2.85606E-05-2.85642E-05 9.43471E-10-4.37688E-19-2.98072E-18
 -1      1622 9.52406E-05-2.85680E-05-2.85745E-05 1.20158E-08-9.37783E-19-2.23323E-19
 -1      1623 9.52163E-05-2.85645E-05-2.85649E-05-8.33478E-09-2.24765E-18 9.99769E-19
 -1      1624 9.52087E-05-2.85609E-05-2.85630E-05-6.29833E-09-1.08425E-18-1.77646E-18
 -1      1625 9.52281E-05-2.85659E-05-2.85699E-05-5.49664E-09-1.95438E-18 1.05625E-18
 -1      1626 9.52294E-05-2.85700E-05-2.85676E-05-9.35011E-09-1.39137E-18 4.20260E-18
 -1      1627 9.52192E-05-2.85658E-05-2.85653E-05-8.58633E-09-1.46711E-18 1.19610E-18
 -1      1628 9.52290E-05-2.85687E-05-2.85687E-05-1.41467E-08-2.87634E-18 4.27302E-19
 -1      1629 9.52340E-05-2.85739E-05-2.85673E-05-4.47359E-09 3.43855E-18 2.75910E-18
 -1      1630 9.52436E-05-2.85895E-05-2.85661E-05-8.82956E-09 1.92976E-18-1.66994E-18
 -1      1631 9.52398E-05-2.85805E-05-2.85678E-05-8.92939E-09 4.21868E-18-1.60950E-18
 -1      1632 9.52464E-05-2.85948E-05-2.85653E-05-3.23675E-09 7.17657E-19-5.51982E-20
 -1      1633 9.52444E-05-2.85899E-05-2.85663E-05-4.80206E-09 2.24178E-18 2.80819E-19
 -1      1634 9.52417E-05-2.85785E-05-2.85701E-05-1.14772E-08 8.13166E-19-1.85594E-18
 -1      1635 9.52445E-05-2.85892E-05-2.85669E-05 4.32822E-09-7.90784E-19 3.93556E-19
 -1      1636 9.52452E-05-2.85911E-05-2.85662E-05 2.73103E-09 6.53679E-21-2.03772E-19
 -1      1637 9.52419E-05-2.85748E-05-2.85721E-05 8.25368E-10 1.14862E-19-1.14886E-18
 -1      1638 9.52390E-05-2.85738E-05-2.85710E-05 1.01477E-08 1.04404E-18 1.45505E-18
 -1      1639 9.52417E-05-2.85815E-05-2.85688E-05 9.15495E-09-5.42416E-19 2.38716E-18
 -1      1640 9.52376E-05-2.85625E-05-2.85754E-05 1.38859E-08 5.05538E-19 1.56055E-18
 -1      1641 9.52319E-05-2.85536E-05-2.85765E-05 1.25168E-08-6.45583E-19-4.25424E-19
 -1      1642 9.52355E-05-2.85640E-05-2.85736E-05 1.23232E-08 6.20874E-19-4.66686E-19
 -1      1643 9.52306E-05-2.85442E-05-2.85800E-05 2.22254E-08-4.80408E-19-3.06003E-20
 -1      1644 9.52251E-05-2.85339E-05-2.85820E-05 1.11606E-08 1.53030E-19 5.38238E-19
 -1      1645 9.52285E-05-2.85439E-05-2.85792E-05 1.17185E-08-1.10216E-18 2.41662E-19
 -1      1646 9.52227E-05-2.85239E-05-2.85851E-05 2.37124E-08-8.77490E-19-5.61570E-19
 -1      1647 9.52203E-05-2.85202E-05-2.85858E-05 6.69790E-09 1.64380E-19 1.28447E-18
 -1      1648 9.52225E-05-2.85266E-05-2.85840E-05 7.79341E-09 5.18075E-19 9.54284E-19
 -1      1649 9.52159E-05-2.85063E-05-2.85895E-05 1.84459E-08-7.98704E-19 3.64962E-19
 -1      1650 9.52189E-05-2.85159E-05-2.85870E-05 5.19085E-10 2.62264E-18 7.42067E-19
 -1      1651 9.52193E-05-2.85171E-05-2.85867E-05 1.82809E-09 1.28878E-18 8.53604E-19
 -1      1652 9.52119E-05-2.84956E-05-2.85922E-05 8.25026E-09 1.30061E-18 1.35911E-18
 -1      1653 9.52210E-05-2.85220E-05-2.85853E-05-5.65562E-09 1.77366E-18-1.41391E-18
 -1      1654 9.52195E-05-2.85177E-05-2.85865E-05-4.49162E-09 2.73262E-18 5.92114E-19
 -1      1655 9.52114E-05-2.84942E-05-2.85926E-05-3.92866E-09 2.59243E-18 2.92565E-19
 -1      1656 9.52261E-05-2.85366E-05-2.85812E-05-1.01355E-08 7.39484E-19-3.52130E-19
 -1      1657 9.52232E-05-2.85282E-05-2.85836E-05-9.44410E-09 1.72705E-18-1.30435E-18
 -1      1658 9.52145E-05-2.85025E-05-2.85905E-05-1.47847E-08 1.27064E-18-2.01738E-18
 -1      1659 9.52326E-05-2.85551E-05-2.85761E-05-1.16081E-08-1.51367E-18-6.42544E-19
 -1      1660 9.52292E-05-2.85454E-05-2.85789E-05-1.15998E-08 3.79693E-20-1.86815E-18
 -1      1661 9.52206E-05-2.85180E-05-2.85866E-05-2.13263E-08-1.90814E-19-2.14518E-18
 -1      1662 9.52388E-05-2.85727E-05-2.85713E-05-9.48652E-09-1.29812E-18-6.54282E-19
 -1      1663 9.52360E-05-2.85647E-05-2.85736E-05-1.02523E-08-1.58449E-18 1.62005E-18
 -1      1664 9.52280E-05-2.85373E-05-2.85818E-05-2.16392E-08-8.35316E-19 4.11677E-19
 -1      1665 9.52428E-05-2.85840E-05-2.85683E-05-4.01090E-09-2.28473E-18-8.26859E-19
 -1      1666 9.52417E-05-2.85807E-05-2.85692E-05-5.44156E-09-1.36373E-18-3.96949E-19
 -1      1667 9.52352E-05-2.85559E-05-2.85771E-05-1.52509E-08-1.18546E-18-5.74921E-19
 -1      1668 9.52435E-05-2.85857E-05-2.85677E-05 2.53960E-09-2.61590E-18 7.75803E-19
 -1      1669 9.52442E-05-2.85884E-05-2.85671E-05 9.40488E-10-1.80077E-18-1.35412E-18
 -1      1670 9.52396E-05-2.85690E-05-2.85735E-05-3.80277E-09-5.89144E-19-1.85355E-18
 -1      1671 9.52398E-05-2.85775E-05-2.85693E-05 7.71057E-09-2.01208E-18-3.64836E-19
 -1      1672 9.52427E-05-2.85839E-05-2.85683E-05 7.45707E-09-2.36878E-18 1.10276E-18
 -1      1673 9.52419E-05-2.85719E-05-2.85725E-05 6.23751E-09-1.36206E-18 5.82883E-19
 -1      1674 9.52377E-05-2.85696E-05-2.85716E-05 1.20039E-08-1.10489E-18-1.43194E-19
 -1      1675 2.16707E-05-7.33792E-05 1.56680E-05-9.94005E-06 3.78116E-18 1.80122E-18
 -1      1676 2.42973E-05-7.98071E-05 1.70560E-05-5.53753E-07 2.44435E-18 8.56139E-19
 -1      1677 1.96712E-05-4.80927E-05 7.01284E-06-3.66484E-06 7.17352E-18 4.55016E-18
 -1      1678 2.46748E-05-6.85430E-05 1.22432E-05-4.71596E-06 4.69129E-18 3.02327E-18
 -1      1679 3.02706E-05-1.87420E-05-8.14972E-06 1.86036E-05 1.02931E-17 1.01733E-17
 -1      1680 2.71360E-05-4.17083E-05 5.21457E-07 2.41320E-06 8.04766E-18 5.71112E-18
 -1      1681 7.22328E-05-7.53356E-06-2.80055E-05 5.25598E-05 1.04710E-17 9.88657E-18
 -1      1682 4.90937E-05-1.65056E-05-1.75049E-05 2.83508E-05 1.11436E-17 9.58672E-18
 -1      1683 1.41983E-04-2.07113E-05-4.88877E-05 7.32486E-05 7.30905E-18 8.37716E-18
 -1      1684 9.87654E-05-1.09483E-05-3.81784E-05 5.66061E-05 9.10730E-18 9.74088E-18
 -1      1685 2.18469E-04-4.67244E-05-6.71456E-05 6.91426E-05 4.35608E-18 3.30173E-18
 -1      1686 1.67888E-04-2.41217E-05-5.84716E-05 7.49577E-05 6.96642E-18 7.13541E-18
 -1      1687 2.68559E-04-6.89944E-05-7.75960E-05 2.79699E-05 1.90921E-18-7.55130E-19
 -1      1688 2.38948E-04-5.30971E-05-7.32792E-05 5.74947E-05 2.87679E-18 2.27682E-18
 -1      1689 2.63276E-04-6.46843E-05-7.81285E-05-2.47956E-05 2.65926E-18-6.74450E-18
 -1      1690 2.69254E-04-6.76533E-05-7.88149E-05 1.22353E-05 2.16311E-18-3.22233E-18
 -1      1691 2.13537E-04-4.26105E-05-6.87826E-05-5.82645E-05 4.37493E-18-9.69090E-18
 -1      1692 2.50374E-04-6.10277E-05-7.45500E-05-3.51530E-05 2.94344E-18-7.81134E-18
 -1      1693 1.39788E-04-1.79281E-05-5.09423E-05-6.60013E-05 7.51488E-18-1.03025E-17
 -1      1694 1.93246E-04-3.88051E-05-6.14422E-05-6.83254E-05 5.02735E-18-9.78916E-18
 -1      1695 8.00960E-05-1.60398E-05-2.92510E-05-4.32924E-05 9.54691E-18-8.87691E-18
 -1      1696 1.16344E-04-1.86144E-05-4.04255E-05-6.40452E-05 8.16370E-18-9.48084E-18
 -1      1697 3.68257E-05-2.62046E-05-9.15167E-06-1.59923E-05 9.29195E-18-7.76433E-18
 -1      1698 5.08062E-05-1.04483E-05-1.90411E-05-3.82035E-05 1.02898E-17-9.79932E-18
 -1      1699 2.49608E-05-5.36991E-05 6.13086E-06 2.68844E-06 7.77407E-18-4.28493E-18
 -1      1700 2.29436E-05-3.06202E-05-9.21565E-07-6.54327E-06 9.38343E-18-6.54587E-18
 -1      1701 2.45382E-05-7.47811E-05 1.49683E-05 3.52913E-06 3.37458E-18-2.72872E-18
 -1      1702 1.95842E-05-5.88932E-05 1.11755E-05 7.72976E-06 6.52385E-18-3.26441E-18
 -1      1703 2.18204E-05-7.35953E-05 1.62407E-05-2.64974E-06-3.71424E-18-3.20094E-18
 -1      1704 2.22372E-05-7.53626E-05 1.65298E-05 7.58170E-06 1.75908E-18-3.39576E-18
 -1      1705 1.97323E-05-4.97188E-05 8.51998E-06 2.24003E-06-8.44661E-18-4.60579E-18
 -1      1706 2.43302E-05-6.85819E-05 1.33566E-05 4.27966E-06-4.88738E-18-3.50820E-18
 -1      1707 2.42826E-05-2.04884E-05-4.51227E-06 1.62176E-05-1.25971E-17-8.41104E-18
 -1      1708 2.52281E-05-4.45417E-05 3.17722E-06 5.00487E-06-1.03914E-17-5.70201E-18
 -1      1709 5.35462E-05-2.69226E-06-2.22112E-05 4.72892E-05-1.18551E-17-9.69345E-18
 -1      1710 3.86178E-05-1.62327E-05-1.28113E-05 2.56074E-05-1.23963E-17-8.39833E-18
 -1      1711 1.09335E-04-7.36007E-06-4.15088E-05 7.25499E-05-9.07511E-18-1.04185E-17
 -1      1712 7.52027E-05-3.32043E-06-3.15414E-05 5.35366E-05-1.09064E-17-1.00814E-17
 -1      1713 1.74982E-04-2.81985E-05-5.85781E-05 7.64609E-05-6.13464E-18-8.78797E-18
 -1      1714 1.31596E-04-9.87999E-06-5.03271E-05 7.46400E-05-8.48303E-18-1.03753E-17
 -1      1715 2.32586E-04-5.38953E-05-7.09185E-05 4.38471E-05-3.13667E-18-2.67154E-18
 -1      1716 1.95485E-04-3.42952E-05-6.51402E-05 6.59457E-05-5.25272E-18-6.52300E-18
 -1      1717 2.55415E-04-6.42493E-05-7.56246E-05-4.59970E-06-2.34289E-18 2.54131E-18
 -1      1718 2.46545E-04-5.93132E-05-7.45346E-05 3.02028E-05-2.45682E-18-1.12105E-18
 -1      1719 2.31711E-04-5.13516E-05-7.18252E-05-5.26300E-05-3.06425E-18 7.42678E-18
 -1      1720 2.54164E-04-6.41855E-05-7.49069E-05-2.17222E-05-2.47143E-18 4.39822E-18
 -1      1721 1.69790E-04-2.35785E-05-5.94614E-05-7.35871E-05-5.44388E-18 8.82270E-18
 -1      1722 2.12568E-04-4.45253E-05-6.65592E-05-6.23753E-05-3.31301E-18 8.28059E-18
 -1      1723 1.04748E-04-3.49261E-06-4.26100E-05-6.83708E-05-6.70850E-18 9.49778E-18
 -1      1724 1.46112E-04-1.68887E-05-5.17349E-05-7.90825E-05-5.96565E-18 1.00907E-17
 -1      1725 5.92147E-05-8.52462E-06-2.34987E-05-4.16913E-05-7.27771E-18 6.99056E-18
 -1      1726 8.53927E-05-4.82075E-06-3.33907E-05-6.31997E-05-6.86351E-18 8.38478E-18
 -1      1727 3.00005E-05-2.91720E-05-4.69743E-06-1.37778E-05-5.62430E-18 4.91152E-18
 -1      1728 3.75705E-05-8.25822E-06-1.40849E-05-3.35232E-05-7.60297E-18 6.88553E-18
 -1      1729 2.46140E-05-5.93367E-05 9.09629E-06-1.73309E-06-1.41963E-18 2.40602E-18
 -1      1730 2.03190E-05-3.58036E-05 2.78144E-06-6.27314E-06-4.52570E-18 4.60807E-18
 -1      1731 2.39902E-05-7.63268E-05 1.60383E-05-4.36700E-06 1.56108E-18 9.19666E-19
 -1      1732 2.02612E-05-6.40229E-05 1.32841E-05 2.82364E-06-5.31090E-19 1.30676E-18
 -1      1733 1.17939E-04-4.01262E-05-3.30279E-05 4.08148E-05 6.69961E-18 5.45574E-18
 -1      1734 6.96451E-05-4.04659E-05-1.44798E-05 3.50138E-05 5.18977E-18 7.45897E-18
 -1      1735 9.52369E-05-2.85768E-05-2.85679E-05-1.03225E-08 2.63649E-18 7.17933E-19
 -1      1736 9.52359E-05-2.85738E-05-2.85691E-05-1.57697E-08-2.71328E-19-2.92720E-19
 -1      1737 1.72891E-05-5.16893E-05 1.00899E-05 9.19840E-06 2.51653E-18 3.50058E-18
 -1      1738 3.55067E-05-4.60386E-05 7.09800E-07 2.19612E-05 4.67732E-18 5.51665E-18
 -1      1739 1.17009E-05-5.14518E-05 1.23927E-05-5.19787E-06 5.10496E-19 2.25226E-18
 -1      1740 1.65785E-04-3.92668E-05-5.15675E-05 3.78772E-05 6.38197E-18 3.06202E-18
 -1      1741 2.07111E-04-3.90097E-05-6.66174E-05 2.81613E-05 4.93799E-18 6.31887E-19
 -1      1742 2.24530E-04-3.79232E-05-7.35808E-05 8.33513E-06 4.08948E-18-2.77213E-18
 -1      1743 2.13187E-04-3.42995E-05-7.12435E-05-8.10640E-06 4.29361E-18-4.86578E-18
 -1      1744 1.89740E-04-3.80090E-05-6.11415E-05-2.31991E-05 4.08852E-18-5.97921E-18
 -1      1745 1.50558E-04-4.45807E-05-4.41952E-05-3.35297E-05 5.13006E-18-5.07203E-18
 -1      1746 1.01665E-04-4.35742E-05-2.51100E-05-3.94543E-05 4.66292E-18-5.54976E-18
 -1      1747 5.36444E-05-4.26168E-05-7.45160E-06-3.02759E-05 4.93481E-18-6.27884E-18
 -1      1748 2.64339E-05-4.85857E-05 5.26131E-06-1.66110E-05 3.46987E-18-4.27582E-18
 -1      1749 1.30213E-05-5.04221E-05 1.15150E-05-3.85191E-06 6.86097E-19-4.90347E-18
 -1      1750 1.37116E-05-4.64562E-05 1.02531E-05 1.31077E-05-1.70127E-18-5.71027E-18
 -1      1751 2.92658E-05-4.33934E-05 2.66206E-06 2.55614E-05-4.43252E-18-5.57168E-18
 -1      1752 5.61252E-05-3.62085E-05-1.04500E-05 3.69886E-05-6.71443E-18-5.76978E-18
 -1      1753 9.59239E-05-3.21878E-05-2.71991E-05 4.57178E-05-6.85673E-18-5.67936E-18
 -1      1754 1.38186E-04-3.02329E-05-4.42940E-05 4.59562E-05-6.06137E-18-4.93736E-18
 -1      1755 1.76640E-04-3.04512E-05-5.90072E-05 3.57266E-05-5.56088E-18-2.33781E-18
 -1      1756 2.02155E-04-3.12298E-05-6.85247E-05 1.58521E-05-4.83741E-18-2.53686E-19
 -1      1757 2.14222E-04-3.50815E-05-7.13316E-05-6.67101E-06-4.09075E-18 1.69131E-18
 -1      1758 1.96090E-04-3.24284E-05-6.55756E-05-2.75536E-05-3.41566E-18 4.07719E-18
 -1      1759 1.61682E-04-3.00638E-05-5.33303E-05-4.19015E-05-3.78296E-18 4.88399E-18
 -1      1760 1.21096E-04-3.19954E-05-3.71324E-05-4.59942E-05-3.37119E-18 5.41762E-18
 -1      1761 7.95660E-05-3.50330E-05-1.97186E-05-4.32330E-05-3.58126E-18 4.86028E-18
 -1      1762 4.21636E-05-4.01817E-05-3.57454E-06-3.18577E-05-1.53991E-18 4.88802E-18
 -1      1763 2.01855E-05-4.68605E-05 7.51370E-06-1.86970E-05-7.38189E-19 3.46648E-18
 -1      1764 1.05847E-04-2.31377E-05-3.55325E-05-1.66897E-05-2.18963E-18 7.48163E-18
 -1      1765 8.92297E-05-1.05781E-05-3.38337E-05-1.30082E-05-2.57892E-18-3.36505E-18
 -1      1766 9.05663E-05-1.16476E-05-3.39627E-05-1.48263E-05-3.04174E-18-2.58356E-18
 -1      1767 9.25510E-05-1.39035E-05-3.38672E-05-1.57184E-05-3.06384E-18-1.47778E-18
 -1      1768 9.42290E-05-1.58523E-05-3.40905E-05-1.73944E-05-3.35178E-18 2.07523E-20
 -1      1769 9.34921E-05-1.63533E-05-3.30741E-05-1.34600E-05-3.24960E-18-1.83465E-18
 -1      1770 8.62207E-05-7.55327E-06-3.37866E-05-7.58534E-06-1.26064E-18-4.75573E-18
 -1      1771 8.66477E-05-7.87591E-06-3.38197E-05-8.95348E-06-1.59937E-18-4.61253E-18
 -1      1772 8.55510E-05-6.86287E-06-3.37831E-05-5.10330E-06-6.89156E-19-4.88148E-18
 -1      1773 8.58097E-05-7.05970E-06-3.37991E-05-6.37470E-06-9.89144E-19-4.85092E-18
 -1      1774 8.75577E-05-9.67891E-06-3.34078E-05-6.64159E-06-1.28099E-18-4.62821E-18
 -1      1775 8.51717E-05-6.46134E-06-3.37851E-05-2.75742E-06-7.23692E-20-4.81872E-18
 -1      1776 8.53103E-05-6.56893E-06-3.37919E-05-3.95423E-06-3.45862E-19-4.86753E-18
 -1      1777 8.68579E-05-8.89960E-06-3.34414E-05-4.32221E-06-5.48378E-19-4.70570E-18
 -1      1778 8.50202E-05-6.29119E-06-3.37886E-05-4.87854E-07 5.32301E-19-4.72123E-18
 -1      1779 8.50616E-05-6.32460E-06-3.37900E-05-1.64887E-06 3.03461E-19-4.78653E-18
 -1      1780 8.64790E-05-8.47330E-06-3.34613E-05-2.10143E-06 1.16090E-19-4.61988E-18
 -1      1781 8.50744E-05-6.33161E-06-3.37924E-05 1.76850E-06 1.06383E-18-4.57938E-18
 -1      1782 8.50246E-05-6.29442E-06-3.37894E-05 6.06966E-07 8.08634E-19-4.67217E-18
 -1      1783 8.63648E-05-8.34125E-06-3.34687E-05 6.73719E-08 7.39686E-19-4.55561E-18
 -1      1784 8.53427E-05-6.58990E-06-3.37969E-05 4.07588E-06 1.52737E-18-4.42334E-18
 -1      1785 8.51944E-05-6.47622E-06-3.37888E-05 2.87712E-06 1.28782E-18-4.56107E-18
 -1      1786 8.64996E-05-8.48790E-06-3.34638E-05 2.23583E-06 1.26350E-18-4.43263E-18
 -1      1787 8.58549E-05-7.09126E-06-3.38052E-05 6.45884E-06 2.02939E-18-4.03390E-18
 -1      1788 8.55901E-05-6.88971E-06-3.37889E-05 5.20542E-06 1.78209E-18-4.27290E-18
 -1      1789 8.68980E-05-8.92858E-06-3.34459E-05 4.43615E-06 1.76543E-18-4.20054E-18
 -1      1790 8.67280E-05-7.94301E-06-3.38249E-05 9.06865E-06 2.70926E-18-3.21364E-18
 -1      1791 8.62811E-05-7.60329E-06-3.37921E-05 7.66902E-06 2.32089E-18-3.64329E-18
 -1      1792 8.76196E-05-9.72847E-06-3.34130E-05 6.73182E-06 2.37129E-18-3.62801E-18
 -1      1793 8.81816E-05-9.35394E-06-3.38707E-05 1.19287E-05 3.31130E-18-2.18106E-18
 -1      1794 8.74280E-05-8.77407E-06-3.38046E-05 1.03423E-05 3.00390E-18-2.82695E-18
 -1      1795 8.88113E-05-1.10433E-05-3.33588E-05 9.15877E-06 3.05030E-18-2.79066E-18
 -1      1796 9.07224E-05-1.18553E-05-3.39581E-05 1.49913E-05 3.67741E-18-3.97947E-19
 -1      1797 8.93538E-05-1.07408E-05-3.38318E-05 1.31943E-05 3.41806E-18-1.45293E-18
 -1      1798 9.07531E-05-1.31810E-05-3.32633E-05 1.16215E-05 3.61436E-18-1.62589E-18
 -1      1799 9.58828E-05-1.70580E-05-3.39838E-05 1.74248E-05 3.57861E-18 3.06705E-18
 -1      1800 9.29187E-05-1.43706E-05-3.38408E-05 1.59085E-05 3.55311E-18 9.92379E-19
 -1      1801 9.40489E-05-1.68938E-05-3.30552E-05 1.35730E-05 3.78396E-18 4.01176E-19
 -1      1802 1.01817E-04-2.50782E-05-3.33178E-05 1.42228E-05 2.96737E-18 7.29168E-18
 -1      1803 9.80406E-05-1.96315E-05-3.36036E-05 1.67282E-05 3.25906E-18 4.51410E-18
 -1      1804 9.73538E-05-2.18673E-05-3.24305E-05 1.29820E-05 3.68695E-18 2.98322E-18
 -1      1805 9.87011E-05-2.61272E-05-3.13215E-05 9.24252E-06 2.99723E-18 6.30976E-18
 -1      1806 1.00080E-04-1.95746E-05-3.41825E-05-1.86465E-05-2.93318E-18 2.73973E-18
 -1      1807 9.53830E-05-2.72966E-05-2.92093E-05 3.86015E-06 2.27019E-18 4.85624E-18
 -1      1808 9.77417E-05-2.73862E-05-3.01950E-05 6.20152E-06 2.53205E-18 5.70957E-18
 -1      1809 9.76124E-05-2.56240E-05-3.08452E-05 8.51521E-06 3.05408E-18 3.79636E-18
 -1      1810 9.97888E-05-2.25453E-05-3.28243E-05-1.42229E-05-3.14974E-18 1.66532E-18
 -1      1811 9.70431E-05-2.69896E-05-2.99072E-05-5.45213E-06-2.53340E-18 1.25539E-18
 -1      1812 9.53096E-05-2.70576E-05-2.92213E-05-3.62925E-06-2.21747E-18 6.19876E-19
 -1      1813 9.45518E-05-2.72670E-05-2.87387E-05-2.11644E-06-1.92647E-18 5.11277E-19
 -1      1814 9.38738E-05-2.73666E-05-2.84632E-05-1.22959E-06-1.68481E-18-2.97686E-20
 -1      1815 9.56997E-05-2.65572E-05-2.96545E-05-4.10125E-06-2.44440E-18-5.37709E-19
 -1      1816 9.34316E-05-2.74332E-05-2.82251E-05-3.47761E-07-1.47658E-18-1.39936E-19
 -1      1817 9.32517E-05-2.75248E-05-2.81403E-05 1.39021E-07-1.24870E-18-5.93214E-19
 -1      1818 9.46309E-05-2.72476E-05-2.89006E-05-1.35288E-06-1.90458E-18-8.20672E-19
 -1      1819 9.30831E-05-2.75754E-05-2.80426E-05 6.67313E-07-1.12211E-18-7.81916E-19
 -1      1820 9.32090E-05-2.76907E-05-2.80602E-05 9.54378E-07-9.71284E-19-8.98344E-19
 -1      1821 9.41161E-05-2.75838E-05-2.85324E-05 2.57439E-07-1.47406E-18-1.24351E-18
 -1      1822 9.32429E-05-2.77548E-05-2.80496E-05 1.28502E-06-8.73355E-19-1.11454E-18
 -1      1823 9.35589E-05-2.78933E-05-2.81287E-05 1.46537E-06-8.64223E-19-1.43461E-18
 -1      1824 9.40358E-05-2.78152E-05-2.83951E-05 1.24416E-06-1.17816E-18-1.57297E-18
 -1      1825 9.37377E-05-2.79763E-05-2.81748E-05 1.68271E-06-9.04901E-19-1.30449E-18
 -1      1826 9.41774E-05-2.81344E-05-2.82937E-05 1.80313E-06-6.80013E-19-1.50664E-18
 -1      1827 9.42799E-05-2.80286E-05-2.84048E-05 1.87698E-06-8.96798E-19-1.59421E-18
 -1      1828 9.44606E-05-2.82367E-05-2.83775E-05 1.95252E-06-5.73240E-19-1.48300E-18
 -1      1829 9.49837E-05-2.84122E-05-2.85227E-05 2.03579E-06-3.80419E-19-1.52961E-18
 -1      1830 9.47607E-05-2.82542E-05-2.85113E-05 2.30213E-06-5.50157E-19-1.27500E-18
 -1      1831 9.53441E-05-2.85342E-05-2.86313E-05 2.13821E-06-6.04100E-19-1.46464E-18
 -1      1832 9.59229E-05-2.87266E-05-2.87932E-05 2.19127E-06-5.58130E-19-1.67585E-18
 -1      1833 9.54171E-05-2.85073E-05-2.86820E-05 2.59516E-06-5.80160E-19-1.30204E-18
 -1      1834 9.63409E-05-2.88698E-05-2.89164E-05 2.24934E-06-8.03998E-19-1.99364E-18
 -1      1835 9.69500E-05-2.90785E-05-2.90861E-05 2.26613E-06-8.68601E-19-2.27680E-18
 -1      1836 9.62065E-05-2.88003E-05-2.88931E-05 2.78386E-06-9.86052E-19-1.53647E-18
 -1      1837 9.74088E-05-2.92450E-05-2.92146E-05 2.26647E-06-8.76197E-19-2.52475E-18
 -1      1838 9.80177E-05-2.94674E-05-2.93819E-05 2.22901E-06-5.66632E-19-2.77338E-18
 -1      1839 9.70959E-05-2.91456E-05-2.91248E-05 2.85766E-06-1.10680E-18-1.81409E-18
 -1      1840 9.84977E-05-2.96580E-05-2.95055E-05 2.14376E-06-4.04736E-19-3.14675E-18
 -1      1841 9.90638E-05-2.98865E-05-2.96571E-05 2.02372E-06-4.12938E-19-3.15071E-18
 -1      1842 9.80516E-05-2.95536E-05-2.93578E-05 2.77197E-06-7.77491E-19-2.43302E-18
 -1      1843 9.95382E-05-3.00974E-05-2.97646E-05 1.81368E-06-1.51670E-19-3.33653E-18
 -1      1844 1.00002E-04-3.03158E-05-2.98832E-05 1.57657E-06 1.07355E-19-3.01720E-18
 -1      1845 9.90295E-05-3.00267E-05-2.95719E-05 2.45331E-06-3.40800E-19-3.03719E-18
 -1      1846 1.00431E-04-3.05343E-05-2.99618E-05 1.19888E-06-6.95808E-20-2.95217E-18
 -1      1847 1.00714E-04-3.07130E-05-3.00269E-05 8.13455E-07-8.90377E-20-2.68522E-18
 -1      1848 9.99637E-05-3.05490E-05-2.97453E-05 1.81099E-06 7.17174E-20-2.62591E-18
 -1      1849 1.01042E-04-3.09115E-05-3.00642E-05 2.36949E-07-2.58378E-19-2.83532E-18
 -1      1850 1.01055E-04-3.10049E-05-3.00546E-05-3.08048E-07-3.33599E-19-2.74074E-18
 -1      1851 1.00756E-04-3.10714E-05-2.98567E-05 7.61838E-07-2.53868E-19-2.88053E-18
 -1      1852 1.01207E-04-3.11353E-05-3.00414E-05-1.07759E-06-6.81491E-19-2.63837E-18
 -1      1853 1.00864E-04-3.10840E-05-2.99407E-05-1.74968E-06-7.43252E-19-2.89465E-18
 -1      1854 1.01270E-04-3.14955E-05-2.98897E-05-7.25706E-07-4.56035E-19-2.67707E-18
 -1      1855 1.00755E-04-3.10791E-05-2.98747E-05-2.63725E-06-8.27157E-19-3.04079E-18
 -1      1856 1.00008E-04-3.08227E-05-2.96793E-05-3.33644E-06-6.83211E-19-3.22203E-18
 -1      1857 1.01335E-04-3.16668E-05-2.98382E-05-2.56822E-06-1.00384E-18-1.99492E-18
 -1      1858 9.95701E-05-3.06130E-05-2.95683E-05-4.17175E-06-5.42227E-19-3.35425E-18
 -1      1859 9.84461E-05-3.01199E-05-2.92949E-05-4.72311E-06-6.75752E-19-3.53295E-18
 -1      1860 1.00782E-04-3.13998E-05-2.97119E-05-4.50073E-06-8.68619E-19-2.29984E-18
 -1      1861 9.76761E-05-2.96739E-05-2.91579E-05-5.24833E-06-7.38141E-19-3.45568E-18
 -1      1862 9.63200E-05-2.89836E-05-2.88470E-05-5.43533E-06-5.08547E-19-3.75818E-18
 -1      1863 9.95247E-05-3.05544E-05-2.95374E-05-6.04988E-06-7.90315E-19-2.62010E-18
 -1      1864 9.53355E-05-2.83598E-05-2.87107E-05-5.37772E-06-2.77317E-19-3.73620E-18
 -1      1865 9.40109E-05-2.76138E-05-2.84217E-05-5.02769E-06 2.69184E-19-3.97112E-18
 -1      1866 9.76746E-05-2.91622E-05-2.93527E-05-6.61546E-06-4.39738E-19-2.36103E-18
 -1      1867 9.30741E-05-2.69893E-05-2.83140E-05-4.23989E-06 8.31369E-19-3.90808E-18
 -1      1868 9.21082E-05-2.64086E-05-2.81108E-05-3.33885E-06 9.50874E-19-3.57091E-18
 -1      1869 9.56315E-05-2.75330E-05-2.91960E-05-5.70362E-06 6.69209E-19-2.31645E-18
 -1      1870 9.15425E-05-2.60202E-05-2.80537E-05-1.93532E-06 4.09673E-19-3.06552E-18
 -1      1871 9.12089E-05-2.58108E-05-2.79854E-05-6.86545E-07 2.28950E-19-2.86308E-18
 -1      1872 9.40259E-05-2.62091E-05-2.90958E-05-3.25677E-06 1.12314E-18-2.05087E-18
 -1      1873 9.12386E-05-2.58274E-05-2.79903E-05 9.49789E-07 1.31595E-19-3.06720E-18
 -1      1874 9.16408E-05-2.60715E-05-2.80747E-05 2.18650E-06 2.87336E-19-3.23249E-18
 -1      1875 9.34506E-05-2.57229E-05-2.90662E-05 1.65414E-07 1.24408E-21-2.04041E-18
 -1      1876 9.22585E-05-2.64872E-05-2.81417E-05 3.56057E-06 2.92097E-19-3.17145E-18
 -1      1877 9.32803E-05-2.70915E-05-2.83592E-05 4.43127E-06 1.55596E-19-2.69452E-18
 -1      1878 9.41420E-05-2.62842E-05-2.91120E-05 3.55428E-06 3.56158E-19-2.37091E-18
 -1      1879 9.42488E-05-2.77263E-05-2.84765E-05 5.17575E-06 4.68863E-20-2.36306E-18
 -1      1880 9.56102E-05-2.84794E-05-2.87770E-05 5.49360E-06 3.33101E-19-2.27369E-18
 -1      1881 9.58335E-05-2.76528E-05-2.92295E-05 5.91689E-06 6.59217E-19-2.32311E-18
 -1      1882 9.66077E-05-2.90982E-05-2.89226E-05 5.51753E-06 5.47229E-19-1.90499E-18
 -1      1883 9.79862E-05-2.97844E-05-2.92426E-05 5.31194E-06 4.03043E-19-1.95960E-18
 -1      1884 9.79191E-05-2.92840E-05-2.94044E-05 6.74108E-06 7.23230E-19-1.32273E-18
 -1      1885 9.87627E-05-3.02196E-05-2.93889E-05 4.77668E-06-1.25268E-20-1.87229E-18
 -1      1886 9.99051E-05-3.07058E-05-2.96707E-05 4.22689E-06 2.87874E-19-1.77638E-18
 -1      1887 9.97844E-05-3.06490E-05-2.96083E-05 6.12741E-06 2.75584E-19-1.33581E-18
 -1      1888 1.00354E-04-3.09069E-05-2.97919E-05 3.40802E-06 4.24708E-20-1.89348E-18
 -1      1889 1.01128E-04-3.11610E-05-2.99975E-05 2.73003E-06 3.14064E-20-1.81051E-18
 -1      1890 1.01055E-04-3.14611E-05-2.98032E-05 4.58693E-06 4.95580E-20-1.36251E-18
 -1      1891 1.01262E-04-3.11646E-05-3.00761E-05 1.88049E-06-6.26771E-20-1.93855E-18
 -1      1892 1.01649E-04-3.12223E-05-3.01914E-05 1.24421E-06-4.22703E-19-1.56319E-18
 -1      1893 1.01640E-04-3.17064E-05-2.99531E-05 2.71683E-06 3.08538E-21-1.38725E-18
 -1      1894 1.01539E-04-3.10990E-05-3.02207E-05 5.27058E-07-5.45440E-19-1.46362E-18
 -1      1895 1.01595E-04-3.10223E-05-3.02513E-05 2.72414E-08-5.62863E-20-1.37446E-18
 -1      1896 1.01639E-04-3.15326E-05-3.00333E-05 9.75984E-07-1.28484E-19-1.34532E-18
 -1      1897 1.01328E-04-3.08386E-05-3.02348E-05-4.88537E-07-6.62883E-19-1.81446E-18
 -1      1898 1.01142E-04-3.06872E-05-3.01981E-05-8.23432E-07-9.84869E-19-1.40265E-18
 -1      1899 1.01226E-04-3.11256E-05-3.00362E-05-3.85353E-07-3.81339E-19-8.84111E-19
 -1      1900 1.00791E-04-3.04902E-05-3.01455E-05-1.13629E-06-6.02604E-19-1.10425E-18
 -1      1901 1.00455E-04-3.03095E-05-3.00636E-05-1.32022E-06 6.67353E-19-3.62319E-19
 -1      1902 1.00571E-04-3.06372E-05-2.99690E-05-1.29509E-06-2.42262E-19 3.04314E-19
 -1      1903 1.00075E-04-3.01261E-05-2.99870E-05-1.46446E-06 6.68211E-19-7.96339E-19
 -1      1904 9.96670E-05-2.99456E-05-2.98804E-05-1.53083E-06 6.98875E-19-1.00213E-18
 -1      1905 9.98098E-05-3.01637E-05-2.98485E-05-1.79299E-06 3.19501E-19 8.27554E-19
 -1      1906 9.92953E-05-2.97878E-05-2.97917E-05-1.55260E-06 1.98687E-19-1.86480E-18
 -1      1907 9.88728E-05-2.96239E-05-2.96769E-05-1.53846E-06-5.41288E-19-2.49792E-18
 -1      1908 9.90357E-05-2.97526E-05-2.96948E-05-1.96949E-06-6.27345E-19-1.42693E-18
 -1      1909 9.85314E-05-2.94948E-05-2.95857E-05-1.48170E-06-2.48282E-19-2.98061E-18
 -1      1910 9.81325E-05-2.93547E-05-2.94743E-05-1.41947E-06-7.24319E-19-2.51836E-18
 -1      1911 9.83077E-05-2.94194E-05-2.95266E-05-1.92455E-06-5.80452E-19-1.18178E-18
 -1      1912 9.78328E-05-2.92528E-05-2.93876E-05-1.31968E-06-1.27334E-18-2.13913E-18
 -1      1913 9.74791E-05-2.91383E-05-2.92867E-05-1.23406E-06-1.05814E-18-2.79948E-18
 -1      1914 9.76583E-05-2.91616E-05-2.93593E-05-1.74594E-06-7.79451E-19-1.19779E-18
 -1      1915 9.72254E-05-2.90598E-05-2.92087E-05-1.11689E-06-8.21117E-20-2.33164E-18
 -1      1916 9.69263E-05-2.89696E-05-2.91220E-05-1.02481E-06 6.48008E-19-1.84215E-18
 -1      1917 9.71013E-05-2.89690E-05-2.92032E-05-1.50113E-06-4.04179E-19-7.48287E-19
 -1      1918 9.67178E-05-2.89106E-05-2.90549E-05-9.07092E-07-1.00121E-19-2.25057E-18
 -1      1919 9.64747E-05-2.88417E-05-2.89833E-05-8.19029E-07-4.57961E-19-2.20043E-18
 -1      1920 9.66388E-05-2.88292E-05-2.90647E-05-1.23699E-06-3.38751E-21-7.39678E-19
 -1      1921 9.63080E-05-2.87982E-05-2.89277E-05-7.10623E-07-2.72117E-19-2.31384E-18
 -1      1922 9.61169E-05-2.87471E-05-2.88707E-05-6.32232E-07-5.53507E-19-1.89650E-18
 -1      1923 9.62654E-05-2.87302E-05-2.89468E-05-9.82968E-07-3.51290E-19-1.15127E-18
 -1      1924 9.59870E-05-2.87158E-05-2.88260E-05-5.38016E-07-7.99071E-19-1.68584E-18
 -1      1925 9.58418E-05-2.86792E-05-2.87822E-05-4.71651E-07-3.39157E-19-9.89136E-19
 -1      1926 9.59716E-05-2.86621E-05-2.88497E-05-7.55372E-07-3.28100E-19 3.45211E-19
 -1      1927 9.57432E-05-2.86572E-05-2.87474E-05-3.93196E-07 4.09185E-19-7.79233E-19
 -1      1928 9.56365E-05-2.86319E-05-2.87147E-05-3.39130E-07 1.28303E-18-5.52683E-19
 -1      1929 9.57463E-05-2.86166E-05-2.87722E-05-5.61338E-07 2.67117E-19 1.19223E-18
 -1      1930 9.55636E-05-2.86169E-05-2.86884E-05-2.75990E-07 2.13661E-18-1.36225E-18
 -1      1931 9.54881E-05-2.86003E-05-2.86649E-05-2.33303E-07 2.23918E-18-3.26471E-19
 -1      1932 9.55781E-05-2.85875E-05-2.87122E-05-4.02115E-07 1.16428E-18 1.31485E-19
 -1      1933 9.54360E-05-2.85906E-05-2.86456E-05-1.83940E-07 1.51501E-18 8.49250E-19
 -1      1934 9.53851E-05-2.85805E-05-2.86295E-05-1.51141E-07 2.71992E-18 2.07836E-18
 -1      1935 9.54560E-05-2.85699E-05-2.86670E-05-2.75503E-07 2.83426E-18-3.09078E-20
 -1      1936 9.53490E-05-2.85745E-05-2.86159E-05-1.13579E-07 2.28491E-18 1.51308E-18
 -1      1937 9.53170E-05-2.85691E-05-2.86054E-05-8.90410E-08 1.82431E-18 1.68876E-18
 -1      1938 9.53704E-05-2.85604E-05-2.86340E-05-1.77595E-07 2.06425E-18 1.43105E-18
 -1      1939 9.52931E-05-2.85658E-05-2.85961E-05-6.13220E-08 4.89877E-19 1.03195E-18
 -1      1940 9.52750E-05-2.85639E-05-2.85899E-05-4.36006E-08-7.95520E-21 5.06236E-19
 -1      1941 9.53127E-05-2.85565E-05-2.86107E-05-1.04017E-07 7.87596E-19 9.34366E-19
 -1      1942 9.52601E-05-2.85628E-05-2.85837E-05-2.39280E-08 7.02999E-19 3.91799E-19
 -1      1943 9.52519E-05-2.85634E-05-2.85804E-05-1.21550E-08 9.48255E-19 2.13553E-19
 -1      1944 9.52757E-05-2.85562E-05-2.85946E-05-5.07686E-08 2.04922E-19 1.33240E-18
 -1      1945 9.52436E-05-2.85641E-05-2.85764E-05-2.66778E-10 8.90760E-19 3.74715E-20
 -1      1946 9.52417E-05-2.85671E-05-2.85746E-05 5.45794E-09-1.01462E-19-4.14068E-19
 -1      1947 9.52442E-05-2.85678E-05-2.85760E-05 4.64044E-09-4.97963E-19 3.78217E-19
 -1      1948 9.52544E-05-2.85604E-05-2.85837E-05-1.53789E-08 5.49234E-19 5.99300E-19
 -1      1949 9.34429E-05-2.74063E-05-2.82714E-05 1.34694E-06 1.73625E-18 3.54924E-18
 -1      1950 9.45492E-05-2.74906E-05-2.86799E-05 2.44214E-06 1.88732E-18 4.34028E-18
 -1      1951 9.53909E-05-2.70702E-05-2.92869E-05 3.76274E-06 2.35458E-18 2.87148E-18
 -1      1952 9.26042E-05-2.74404E-05-2.79000E-05-7.59651E-10 1.50501E-18 2.52814E-18
 -1      1953 9.29821E-05-2.74436E-05-2.80358E-05 5.89526E-07 1.49161E-18 3.12662E-18
 -1      1954 9.39548E-05-2.74191E-05-2.85238E-05 1.20479E-06 1.89307E-18 2.03828E-18
 -1      1955 9.25201E-05-2.75460E-05-2.78265E-05-7.90987E-07 1.05120E-18 1.94637E-18
 -1      1956 9.24757E-05-2.74782E-05-2.78238E-05-4.34919E-07 1.15431E-18 2.30049E-18
 -1      1957 9.33511E-05-2.75764E-05-2.82012E-05-2.48348E-07 1.47480E-18 1.36034E-18
 -1      1958 9.29432E-05-2.77317E-05-2.79323E-05-1.31061E-06 6.20306E-19 1.37090E-18
 -1      1959 9.26348E-05-2.76120E-05-2.78477E-05-1.06716E-06 8.13153E-19 1.87040E-18
 -1      1960 9.33457E-05-2.77299E-05-2.81338E-05-1.14456E-06 9.26710E-19 9.39065E-19
 -1      1961 9.37339E-05-2.79856E-05-2.81634E-05-1.71531E-06 6.09068E-19 1.16342E-18
 -1      1962 9.32384E-05-2.78262E-05-2.80211E-05-1.51827E-06 5.55125E-19 1.22687E-18
 -1      1963 9.37667E-05-2.79193E-05-2.82319E-05-1.77097E-06 7.49888E-19 4.54791E-19
 -1      1964 9.48292E-05-2.83008E-05-2.84969E-05-2.10401E-06 6.96582E-19 6.73715E-19
 -1      1965 9.41758E-05-2.81056E-05-2.83058E-05-1.90985E-06 7.28391E-19 1.10658E-18
 -1      1966 9.45132E-05-2.81499E-05-2.84519E-05-2.29417E-06 8.45393E-19 2.02361E-19
 -1      1967 9.62206E-05-2.86797E-05-2.89288E-05-2.55084E-06 5.99157E-19 3.09891E-20
 -1      1968 9.54068E-05-2.84455E-05-2.86882E-05-2.32547E-06 6.28689E-19 4.45627E-19
 -1      1969 9.55393E-05-2.84222E-05-2.87744E-05-2.82615E-06 8.60374E-19-1.23552E-19
 -1      1970 9.79417E-05-2.91344E-05-2.94684E-05-3.11846E-06-6.54796E-21 7.42233E-20
 -1      1971 9.69409E-05-2.88517E-05-2.91707E-05-2.83158E-06 3.13233E-19 5.74444E-20
 -1      1972 9.68410E-05-2.87412E-05-2.91957E-05-3.45337E-06 3.71297E-19-1.08779E-19
 -1      1973 1.00059E-04-2.96876E-05-3.01348E-05-3.86159E-06-3.81082E-20 2.74716E-19
 -1      1974 9.88252E-05-2.93404E-05-2.97673E-05-3.48526E-06-3.51717E-20 1.17386E-19
 -1      1975 9.84458E-05-2.91190E-05-2.97226E-05-4.24828E-06-4.50152E-21-3.76384E-19
 -1      1976 1.02661E-04-3.03738E-05-3.09528E-05-4.82088E-06 7.41088E-20 6.28144E-19
 -1      1977 1.01136E-04-2.99395E-05-3.04995E-05-4.33255E-06-2.15596E-20 4.96811E-19
 -1      1978 1.00406E-04-2.95785E-05-3.03678E-05-5.26893E-06-9.20553E-20-2.99423E-19
 -1      1979 1.05848E-04-3.12439E-05-3.19452E-05-6.00122E-06 9.26485E-19 4.09097E-19
 -1      1980 1.03970E-04-3.06924E-05-3.13909E-05-5.39461E-06 5.69875E-19 6.00646E-19
 -1      1981 1.02791E-04-3.01605E-05-3.11440E-05-6.54459E-06 6.04073E-19-1.18473E-19
 -1      1982 1.09702E-04-3.23733E-05-3.31189E-05-7.32260E-06 3.49653E-19 1.32111E-19
 -1      1983 1.07428E-04-3.16667E-05-3.24577E-05-6.63308E-06 5.21170E-19 4.38902E-19
 -1      1984 1.05683E-04-3.09391E-05-3.20550E-05-8.03835E-06 5.25842E-19 3.64936E-19
 -1      1985 1.14240E-04-3.38717E-05-3.44397E-05-8.52696E-06-1.90655E-19 1.54352E-19
 -1      1986 1.11589E-04-3.29671E-05-3.36907E-05-7.88098E-06 2.03553E-20 1.27743E-19
 -1      1987 1.09168E-04-3.20478E-05-3.30809E-05-9.57238E-06 1.57932E-19 4.24575E-20
 -1      1988 1.19341E-04-3.58802E-05-3.57975E-05-9.03643E-06-4.02748E-19 3.86975E-19
 -1      1989 1.16465E-04-3.47465E-05-3.50285E-05-8.72857E-06-4.16231E-19 2.25284E-19
 -1      1990 1.13327E-04-3.37098E-05-3.41601E-05-1.07034E-05-4.75123E-19-1.98014E-19
 -1      1991 1.24621E-04-3.84968E-05-3.69796E-05-7.81911E-06-2.52853E-20 8.20907E-19
 -1      1992 1.21906E-04-3.71790E-05-3.63283E-05-8.38240E-06 9.15987E-20 7.68457E-19
 -1      1993 1.18213E-04-3.62332E-05-3.51785E-05-1.05712E-05-3.49567E-20 7.27886E-19
 -1      1994 1.29523E-04-4.16815E-05-3.77301E-05-3.14507E-06-5.61914E-19 6.63515E-19
 -1      1995 1.27569E-04-4.03767E-05-3.73853E-05-5.53531E-06-6.07508E-19 6.45558E-19
 -1      1996 1.23869E-04-3.98989E-05-3.60188E-05-7.70195E-06-4.19811E-19 7.55103E-19
 -1      1997 1.32007E-04-4.38258E-05-3.78448E-05 5.28377E-06 4.71414E-19 1.73581E-18
 -1      1998 1.31995E-04-4.34631E-05-3.79645E-05 9.84805E-07-8.34857E-20 1.21294E-18
 -1      1999 1.29480E-04-4.39785E-05-3.66319E-05-6.38952E-07-5.38395E-19 1.12441E-18
 -1      2000 1.30321E-04-4.25316E-05-3.76544E-05 1.52516E-05 3.60399E-19 2.11139E-18
 -1      2001 1.32949E-04-4.42043E-05-3.81103E-05 1.02013E-05 6.14072E-19 1.99497E-18
 -1      2002 1.33036E-04-4.58859E-05-3.73375E-05 9.99213E-06 2.40279E-19 1.63707E-18
 -1      2003 1.23575E-04-3.59008E-05-3.77144E-05 1.91916E-05 3.20920E-19 1.96242E-18
 -1      2004 1.28360E-04-3.97734E-05-3.81668E-05 1.73929E-05 8.20404E-19 2.04236E-18
 -1      2005 1.31838E-04-4.18926E-05-3.86183E-05 1.94446E-05 8.71888E-19 2.18140E-18
 -1      2006 1.16542E-04-2.85403E-05-3.81184E-05 1.15308E-05 3.98953E-19 5.66389E-19
 -1      2007 1.20502E-04-3.17572E-05-3.83109E-05 1.52909E-05 1.20808E-19 1.08039E-18
 -1      2008 1.26400E-04-3.29349E-05-4.03571E-05 1.86535E-05 6.00758E-19 1.63378E-18
 -1      2009 1.15184E-04-2.70051E-05-3.83442E-05-6.00609E-06 1.78449E-18-2.19710E-18
 -1      2010 1.15523E-04-2.67362E-05-3.83424E-05 2.21455E-06 1.23519E-18-9.35508E-19
 -1      2011 1.21834E-04-2.59739E-05-4.15235E-05 4.47682E-06 1.82811E-18-1.15139E-18
 -1      2012 1.22019E-04-3.38265E-05-3.81667E-05-1.81604E-05 1.82594E-18-3.13053E-18
 -1      2013 1.18156E-04-3.01927E-05-3.79199E-05-1.27695E-05 1.97412E-18-2.55293E-18
 -1      2014 1.23945E-04-2.87651E-05-4.11215E-05-1.37089E-05 2.31695E-18-3.04714E-18
 -1      2015 1.30539E-04-4.18770E-05-3.80156E-05-1.76454E-05 8.44201E-19-4.85893E-18
 -1      2016 1.25350E-04-3.81498E-05-3.75354E-05-1.79070E-05 1.44409E-18-4.10673E-18
 -1      2017 1.30079E-04-3.83645E-05-3.94566E-05-2.08463E-05 2.12436E-18-4.70042E-18
 -1      2018 1.33747E-04-4.44705E-05-3.81001E-05-8.36719E-06 2.37232E-19-4.14531E-18
 -1      2019 1.30751E-04-4.32310E-05-3.76455E-05-1.21457E-05 7.90639E-19-4.49070E-18
 -1      2020 1.33412E-04-4.53472E-05-3.78823E-05-1.45127E-05 9.56939E-19-5.23849E-18
 -1      2021 1.31708E-04-4.27455E-05-3.79703E-05 1.00287E-06-1.23312E-18-2.85220E-18
 -1      2022 1.31524E-04-4.33423E-05-3.78730E-05-2.84690E-06-9.13102E-19-3.67344E-18
 -1      2023 1.31397E-04-4.53347E-05-3.69789E-05-3.46053E-06-8.38841E-19-3.13108E-18
 -1      2024 1.26900E-04-3.96113E-05-3.73506E-05 6.63026E-06-1.54173E-18-1.30350E-18
 -1      2025 1.28667E-04-4.08620E-05-3.76758E-05 4.26046E-06-1.46804E-18-1.87075E-18
 -1      2026 1.26418E-04-4.17850E-05-3.63585E-05 5.18119E-06-1.99233E-18-2.01429E-18
 -1      2027 1.21338E-04-3.67019E-05-3.62783E-05 8.71704E-06-1.04072E-18-3.65799E-19
 -1      2028 1.24038E-04-3.80012E-05-3.69022E-05 7.79057E-06-1.18809E-18-7.98792E-19
 -1      2029 1.20869E-04-3.78313E-05-3.56487E-05 9.54750E-06-1.59183E-18-7.09125E-20
 -1      2030 1.16059E-04-3.44872E-05-3.49881E-05 8.58778E-06-2.22989E-18 2.72983E-19
 -1      2031 1.18930E-04-3.55815E-05-3.57290E-05 8.57044E-06-1.54318E-18-3.53980E-19
 -1      2032 1.15790E-04-3.48032E-05-3.47352E-05 1.06045E-05-1.42006E-18-6.81200E-20
 -1      2033 1.11252E-04-3.28184E-05-3.36432E-05 7.38709E-06-1.04397E-18 1.51510E-18
 -1      2034 1.13990E-04-3.37166E-05-3.43949E-05 7.83053E-06-1.40082E-18 8.06011E-19
 -1      2035 1.11370E-04-3.27744E-05-3.36877E-05 9.79733E-06-1.57848E-18 1.71771E-18
 -1      2036 1.07487E-04-3.16858E-05-3.25070E-05 5.97138E-06-3.47333E-19 1.35641E-18
 -1      2037 1.09682E-04-3.23380E-05-3.31292E-05 6.51799E-06-1.11862E-18 9.35717E-19
 -1      2038 1.07708E-04-3.14721E-05-3.26683E-05 8.23419E-06-1.05509E-18 6.08904E-19
 -1      2039 1.04457E-04-3.08520E-05-3.15590E-05 4.64654E-06 8.06131E-19 1.98789E-18
 -1      2040 1.06221E-04-3.13467E-05-3.20678E-05 5.17062E-06 3.30211E-19 1.86939E-18
 -1      2041 1.04810E-04-3.06439E-05-3.17799E-05 6.59220E-06 1.89669E-19 9.81302E-19
 -1      2042 1.02080E-04-3.02330E-05-3.08002E-05 3.52905E-06 4.82534E-19 1.26905E-18
 -1      2043 1.03455E-04-3.06048E-05-3.12007E-05 3.97617E-06 1.28378E-18 2.32489E-18
 -1      2044 1.02489E-04-3.00719E-05-3.10313E-05 5.11117E-06 1.21075E-18 7.97024E-19
 -1      2045 1.00247E-04-2.97705E-05-3.02090E-05 2.63657E-06 9.80341E-20 3.06750E-19
 -1      2046 1.01295E-04-3.00480E-05-3.05165E-05 2.99662E-06-4.94455E-20 7.25910E-19
 -1      2047 1.00657E-04-2.96606E-05-3.04245E-05 3.88039E-06 6.12895E-19 7.74022E-20
 -1      2048 9.88520E-05-2.94250E-05-2.97570E-05 1.94527E-06-5.22977E-20 7.85348E-19
 -1      2049 9.96398E-05-2.96306E-05-2.99891E-05 2.22611E-06-3.96524E-19 5.97999E-19
 -1      2050 9.92332E-05-2.93567E-05-2.99459E-05 2.90189E-06-2.77281E-19-6.99683E-20
 -1      2051 9.78040E-05-2.91682E-05-2.94165E-05 1.41932E-06 1.28274E-18 3.71617E-19
 -1      2052 9.83885E-05-2.93192E-05-2.95894E-05 1.63436E-06 7.70069E-19 1.07418E-18
 -1      2053 9.81400E-05-2.91297E-05-2.95758E-05 2.14382E-06 8.23996E-19-4.62164E-19
 -1      2054 9.70258E-05-2.89791E-05-2.91633E-05 1.02364E-06 1.31925E-18 1.28105E-18
 -1      2055 9.74545E-05-2.90887E-05-2.92904E-05 1.18643E-06 1.04389E-18 1.18620E-18
 -1      2056 9.73114E-05-2.89600E-05-2.92940E-05 1.56577E-06 1.42074E-18 1.59128E-18
 -1      2057 9.64554E-05-2.88414E-05-2.89773E-05 7.28283E-07-7.08908E-19 8.48464E-19
 -1      2058 9.67658E-05-2.89201E-05-2.90697E-05 8.50557E-07 1.19229E-18 1.28413E-18
 -1      2059 9.66914E-05-2.88343E-05-2.90825E-05 1.12961E-06 7.56503E-19 2.01774E-18
 -1      2060 9.60433E-05-2.87430E-05-2.88427E-05 5.09221E-07 1.49152E-18 3.60634E-20
 -1      2061 9.62648E-05-2.87984E-05-2.89088E-05 6.00502E-07-9.97084E-19-9.24380E-19
 -1      2062 9.62338E-05-2.87425E-05-2.89258E-05 8.03075E-07 2.23177E-19-3.13957E-19
 -1      2063 9.57509E-05-2.86741E-05-2.87468E-05 3.47754E-07-6.76150E-19-6.74573E-19
 -1      2064 9.59060E-05-2.87123E-05-2.87933E-05 4.15509E-07 1.57335E-18 3.00513E-19
 -1      2065 9.59013E-05-2.86769E-05-2.88114E-05 5.60268E-07 1.17268E-18-1.41882E-19
 -1      2066 9.55483E-05-2.86274E-05-2.86799E-05 2.29547E-07 5.59295E-19-3.39178E-19
 -1      2067 9.56541E-05-2.86528E-05-2.87118E-05 2.79542E-07 2.13515E-19-1.52318E-19
 -1      2068 9.56642E-05-2.86312E-05-2.87293E-05 3.80946E-07 2.70148E-19-3.79707E-20
 -1      2069 9.54122E-05-2.85969E-05-2.86347E-05 1.43686E-07 1.49810E-18-8.98230E-19
 -1      2070 9.54819E-05-2.86131E-05-2.86558E-05 1.80345E-07 1.08773E-18-7.13890E-20
 -1      2071 9.54992E-05-2.86006E-05-2.86716E-05 2.49508E-07 1.02597E-18 1.45782E-18
 -1      2072 9.53251E-05-2.85785E-05-2.86053E-05 8.19046E-08 9.86001E-20-1.71647E-18
 -1      2073 9.53684E-05-2.85879E-05-2.86186E-05 1.08609E-07 9.13776E-19-1.22913E-18
 -1      2074 9.53880E-05-2.85811E-05-2.86322E-05 1.54030E-07 1.22484E-18 3.48352E-19
 -1      2075 9.52734E-05-2.85686E-05-2.85874E-05 3.80458E-08-1.22267E-18 1.05692E-19
 -1      2076 9.52978E-05-2.85733E-05-2.85951E-05 5.73270E-08-3.18729E-19-8.56460E-19
 -1      2077 9.53163E-05-2.85699E-05-2.86061E-05 8.54708E-08-6.45319E-19 9.54720E-19
 -1      2078 9.52465E-05-2.85651E-05-2.85775E-05 8.02617E-09-2.65275E-18 1.54715E-19
 -1      2079 9.52577E-05-2.85663E-05-2.85813E-05 2.15326E-08-1.47616E-18-6.94068E-19
 -1      2080 9.52731E-05-2.85648E-05-2.85897E-05 3.73499E-08-1.67003E-18 1.47398E-18
 -1      2081 9.52363E-05-2.85664E-05-2.85726E-05-9.88084E-09-2.18366E-18 8.48605E-19
 -1      2082 9.52389E-05-2.85651E-05-2.85740E-05-1.86586E-09-1.46529E-18 9.28304E-19
 -1      2083 9.52499E-05-2.85645E-05-2.85798E-05 5.41133E-09-1.93481E-18 1.43487E-19
 -1      2084 9.52365E-05-2.85714E-05-2.85705E-05-1.47460E-08-1.50654E-18 1.39400E-20
 -1      2085 9.52342E-05-2.85673E-05-2.85713E-05-1.27578E-08-2.36055E-18 7.00926E-19
 -1      2086 9.52412E-05-2.85671E-05-2.85747E-05-1.02053E-08-1.96202E-18 6.31020E-19
 -1      2087 9.52403E-05-2.85739E-05-2.85712E-05-1.50748E-08-1.06089E-18-1.52570E-18
 -1      2088 9.52345E-05-2.85390E-05-2.85839E-05 2.81849E-08 1.24351E-18 3.05915E-18
 -1      2089 9.52385E-05-2.85469E-05-2.85818E-05 2.19295E-08 2.42173E-19 2.44213E-18
 -1      2090 9.52433E-05-2.85588E-05-2.85791E-05 1.28787E-08-7.91067E-19-5.15723E-19
 -1      2091 9.52446E-05-2.85631E-05-2.85775E-05 4.85183E-09-1.40373E-20-1.24608E-18
 -1      2092 9.52407E-05-2.85371E-05-2.85874E-05 2.72876E-08-5.45275E-19 1.83008E-18
 -1      2093 9.52452E-05-2.85705E-05-2.85748E-05-3.67548E-09 6.54585E-20-1.80386E-18
 -1      2094 9.52430E-05-2.85710E-05-2.85736E-05-9.06334E-09 3.60560E-20-2.20827E-18
 -1      2095 9.52442E-05-2.85673E-05-2.85757E-05-7.85609E-09-5.93833E-19-1.16210E-18
 -1      2096 9.52462E-05-2.85566E-05-2.85816E-05 7.24696E-09 5.06043E-19-1.35548E-18
 -1      2097 9.52226E-05-2.85157E-05-2.85890E-05 3.59740E-08-7.49950E-20-1.53208E-18
 -1      2098 9.52280E-05-2.85255E-05-2.85865E-05 3.34074E-08 5.80625E-19 1.47393E-18
 -1      2099 9.52278E-05-2.85110E-05-2.85929E-05 4.29897E-08 7.17999E-19 6.10870E-19
 -1      2100 9.52106E-05-2.84927E-05-2.85938E-05 3.43765E-08 1.15102E-20 6.59909E-20
 -1      2101 9.52160E-05-2.85025E-05-2.85914E-05 3.59638E-08-6.91131E-20-5.89398E-19
 -1      2102 9.52120E-05-2.84833E-05-2.85978E-05 4.83447E-08 1.03903E-18-5.71896E-19
 -1      2103 9.52014E-05-2.84751E-05-2.85974E-05 2.40309E-08-8.52586E-20 3.99701E-19
 -1      2104 9.52053E-05-2.84823E-05-2.85956E-05 2.91798E-08-2.11076E-19 4.97001E-19
 -1      2105 9.51973E-05-2.84586E-05-2.86019E-05 4.19101E-08 8.93810E-19 3.01971E-19
 -1      2106 9.51967E-05-2.84661E-05-2.85992E-05 7.89008E-09 2.47487E-19 1.25419E-18
 -1      2107 9.51983E-05-2.84692E-05-2.85984E-05 1.51193E-08-1.59665E-19 1.50349E-18
 -1      2108 9.51869E-05-2.84416E-05-2.86047E-05 2.54638E-08-5.45909E-19 6.93463E-19
 -1      2109 9.51975E-05-2.84676E-05-2.85988E-05-9.89337E-09 9.95696E-19-1.11693E-18
 -1      2110 9.51965E-05-2.84658E-05-2.85992E-05-2.48504E-09 1.22398E-18 3.18744E-19
 -1      2111 9.51829E-05-2.84351E-05-2.86057E-05 3.20683E-09-8.94108E-19 8.23790E-19
 -1      2112 9.52035E-05-2.84790E-05-2.85963E-05-2.49007E-08 1.15962E-18-2.17282E-18
 -1      2113 9.52002E-05-2.84729E-05-2.85978E-05-1.92231E-08 1.28994E-18-1.96885E-18
 -1      2114 9.51859E-05-2.84404E-05-2.86048E-05-1.94920E-08 1.21109E-19-1.86583E-18
 -1      2115 9.52132E-05-2.84975E-05-2.85923E-05-3.33021E-08 3.27910E-19-2.50203E-18
 -1      2116 9.52084E-05-2.84887E-05-2.85945E-05-3.08523E-08 9.63794E-19-1.53157E-18
 -1      2117 9.51952E-05-2.84560E-05-2.86021E-05-3.71784E-08 1.25239E-18-2.06981E-18
 -1      2118 9.52250E-05-2.85201E-05-2.85876E-05-3.31139E-08-5.66931E-19 1.36243E-18
 -1      2119 9.52196E-05-2.85103E-05-2.85900E-05-3.46011E-08 1.72230E-19-5.44485E-19
 -1      2120 9.52089E-05-2.84794E-05-2.85981E-05-4.58358E-08 1.00747E-18-1.69822E-18
 -1      2121 9.52358E-05-2.85419E-05-2.85828E-05-2.40595E-08 3.00280E-19-2.24608E-19
 -1      2122 9.52314E-05-2.85336E-05-2.85850E-05-2.92246E-08 1.15807E-19 6.83937E-19
 -1      2123 9.52243E-05-2.85068E-05-2.85932E-05-4.33035E-08 5.89421E-19 9.75825E-19
 -1      2124 9.52424E-05-2.85599E-05-2.85783E-05-8.36814E-09 6.26314E-20-7.83539E-19
 -1      2125 9.52411E-05-2.85542E-05-2.85801E-05-1.60756E-08-8.63525E-20-1.38388E-18
 -1      2126 9.52378E-05-2.85332E-05-2.85878E-05-3.03264E-08-3.99835E-19-1.09038E-18
 -1      2127 5.32506E-05-4.19315E-05-5.67889E-06 3.51832E-05 2.54152E-18 5.57538E-18
 -1      2128 3.86207E-05-4.25129E-05 1.57639E-07 2.78975E-05 1.49247E-18 4.69786E-18
 -1      2129 1.23949E-05-3.40818E-05 8.00993E-06 5.66501E-07 1.34678E-19 2.67027E-18
 -1      2130 1.22062E-05-3.11031E-05 7.17656E-06-9.47530E-06-5.07584E-19 2.26158E-18
 -1      2131 2.22861E-05-3.51012E-05 4.44484E-06 1.97085E-05 1.66654E-18 4.08185E-18
 -1      2132 1.59970E-05-3.65070E-05 7.36645E-06 1.00150E-05 5.20502E-19 3.25727E-18
 -1      2133 1.64602E-05-2.38835E-05 2.66843E-06 7.62112E-06-1.03793E-18 3.23651E-18
 -1      2134 9.33899E-05-4.72546E-05-2.01428E-05 4.02294E-05 2.99934E-18 5.10189E-18
 -1      2135 7.16852E-05-4.77905E-05-1.17815E-05 3.45700E-05 2.40007E-18 5.40640E-18
 -1      2136 1.38907E-04-5.18252E-05-3.70793E-05 3.14959E-05 4.45920E-18 2.09895E-18
 -1      2137 1.15812E-04-5.19417E-05-2.82109E-05 3.16642E-05 3.54526E-18 3.19331E-18
 -1      2138 8.73322E-05-8.66854E-06-3.38019E-05-1.02088E-05-1.91334E-18-4.32258E-18
 -1      2139 8.80426E-05-9.21979E-06-3.38670E-05-1.17886E-05-2.35588E-18-3.89419E-18
 -1      2140 9.05461E-05-1.30366E-05-3.32840E-05-1.15736E-05-2.59545E-18-3.34190E-18
 -1      2141 8.86995E-05-1.09205E-05-3.33565E-05-9.07299E-06-1.86944E-18-4.21742E-18
 -1      2142 1.90222E-04-3.55382E-05-6.48126E-05 5.87153E-06 4.59388E-18-7.92399E-19
 -1      2143 1.77490E-04-3.71234E-05-5.95091E-05 1.07295E-05 5.26219E-18 5.50571E-20
 -1      2144 1.92376E-04-2.77549E-05-6.93607E-05-1.05824E-06 4.73618E-18-2.61003E-18
 -1      2145 1.93579E-04-3.02210E-05-6.83294E-05 4.86550E-06 4.58795E-18-1.34594E-18
 -1      2146 1.81370E-04-2.81618E-05-6.49640E-05-1.30104E-06 3.79640E-18-3.04720E-18
 -1      2147 1.89926E-04-2.75467E-05-6.79913E-05-1.51553E-07 4.31352E-18-2.65460E-18
 -1      2148 1.70133E-04-4.11726E-05-5.47911E-05-1.13823E-05 3.01618E-18-3.59142E-18
 -1      2149 1.82314E-04-3.71386E-05-6.12493E-05-5.99765E-06 2.65460E-18-3.38771E-18
 -1      2150 1.42184E-04-5.21319E-05-3.87598E-05-2.25551E-05 3.30682E-18-2.40557E-18
 -1      2151 1.62245E-04-4.85565E-05-4.78490E-05-2.07366E-05 3.37447E-18-3.08024E-18
 -1      2152 9.72002E-05-5.19919E-05-2.04614E-05-3.47720E-05 2.47207E-18-4.19917E-18
 -1      2153 1.22211E-04-5.48961E-05-2.92728E-05-3.38780E-05 2.70119E-18-2.67959E-18
 -1      2154 5.59552E-05-4.60857E-05-5.94275E-06-3.24566E-05 2.31198E-18-4.56572E-18
 -1      2155 7.48515E-05-4.53233E-05-1.33146E-05-3.96597E-05 2.55253E-18-5.23276E-18
 -1      2156 2.77780E-05-4.03561E-05 3.83868E-06-2.23354E-05 9.61382E-19-3.71403E-18
 -1      2157 3.91194E-05-4.00514E-05-6.85389E-07-2.99511E-05 2.28487E-18-3.79174E-18
 -1      2158 1.27986E-05-3.32108E-05 7.57501E-06-3.52887E-06-5.06632E-20-5.29819E-18
 -1      2159 1.72740E-05-3.45652E-05 6.24590E-06-1.36453E-05 9.88276E-19-4.52104E-18
 -1      2160 1.65754E-05-3.14239E-05 5.39494E-06 1.91780E-05-8.15481E-19-5.39009E-18
 -1      2161 1.25058E-05-3.41599E-05 7.92257E-06 7.55590E-06 1.36584E-19-5.77761E-18
 -1      2162 1.49194E-05-2.36296E-05 3.25572E-06 1.07131E-06 3.52180E-19-5.99488E-18
 -1      2163 4.40234E-05-3.81479E-05-3.31219E-06 3.77963E-05-3.03577E-18-5.04059E-18
 -1      2164 3.21044E-05-3.69234E-05 1.24475E-06 3.25189E-05-1.33747E-18-4.67541E-18
 -1      2165 7.57629E-05-4.01092E-05-1.55211E-05 4.50465E-05-3.86713E-18-3.47686E-18
 -1      2166 5.84912E-05-4.24285E-05-8.18104E-06 3.85658E-05-3.07727E-18-4.15512E-18
 -1      2167 6.16770E-05-4.27268E-05-8.60653E-06 4.45054E-05-2.32087E-19-3.63525E-18
 -1      2168 1.15988E-04-4.23147E-05-3.12969E-05 4.23056E-05-3.97470E-18-2.58514E-18
 -1      2169 9.56494E-05-4.36961E-05-2.30219E-05 4.02326E-05-4.06745E-18-2.98749E-18
 -1      2170 1.49700E-04-3.81051E-05-4.69523E-05 3.22206E-05-4.54571E-18-1.38109E-18
 -1      2171 1.30996E-04-4.01719E-05-3.91466E-05 3.26818E-05-4.13776E-18-2.21753E-18
 -1      2172 1.70180E-04-3.07480E-05-5.89917E-05 1.67073E-05-4.97780E-18 3.29496E-19
 -1      2173 1.57627E-04-3.25045E-05-5.31486E-05 2.41756E-05-5.07502E-18-1.20152E-18
 -1      2174 1.78499E-04-2.27989E-05-6.56101E-05 3.45004E-06-4.85138E-18 8.55715E-19
 -1      2175 1.69401E-04-2.26341E-05-6.24865E-05 8.17355E-06-5.02968E-18 4.76033E-19
 -1      2176 1.83325E-04-2.44795E-05-6.69193E-05-7.30274E-06-3.77650E-18 1.49882E-18
 -1      2177 1.83260E-04-2.33924E-05-6.75607E-05 1.54916E-06-4.31987E-18 9.23398E-19
 -1      2178 1.66685E-04-2.67487E-05-5.96060E-05-1.48188E-05-2.84857E-18 1.48739E-18
 -1      2179 1.80298E-04-2.71511E-05-6.42336E-05-1.04722E-05-3.01290E-18 1.36245E-18
 -1      2180 1.46519E-04-3.64869E-05-4.71685E-05-2.67027E-05-2.10308E-18 1.54584E-18
 -1      2181 1.62375E-04-3.45714E-05-5.39573E-05-2.19116E-05-2.21054E-18 1.09987E-18
 -1      2182 1.19971E-04-4.32809E-05-3.32114E-05-3.47991E-05-1.59009E-18 2.82189E-18
 -1      2183 1.38665E-04-4.05682E-05-4.13377E-05-3.56114E-05-1.67395E-18 2.80156E-18
 -1      2184 1.46317E-04-4.53228E-05-4.27375E-05-1.67802E-05-3.49825E-19 1.43149E-19
 -1      2185 7.94674E-05-4.41337E-05-1.60702E-05-4.10082E-05-1.10030E-18 3.01184E-18
 -1      2186 1.00364E-04-4.33732E-05-2.43875E-05-4.46878E-05-1.59623E-18 2.83629E-18
 -1      2187 4.56549E-05-4.08469E-05-3.22368E-06-3.65579E-05 4.67562E-19 4.09710E-18
 -1      2188 6.12674E-05-3.91604E-05-9.77297E-06-4.36658E-05-4.11234E-19 4.06533E-18
 -1      2189 1.96843E-05-3.52745E-05 5.48060E-06-2.19838E-05 4.16317E-19 2.73126E-18
 -1      2190 2.87445E-05-3.48000E-05 1.76669E-06-3.09215E-05-2.91379E-19 3.60370E-18
 -1      2191 1.73257E-04-4.44472E-05-5.40229E-05 1.90746E-05 5.64500E-18 6.51792E-19
 -1      2192 1.52219E-04-4.63058E-05-4.56040E-05 2.01369E-05 5.64060E-18 7.30142E-19
 -1      2193 1.52265E-04-5.76469E-05-4.02855E-05 1.32681E-05 3.94834E-18-3.59565E-19
 -1      2194 9.72220E-05-2.43249E-05-3.13137E-05-9.75642E-06-2.96914E-18 9.40749E-19
 -1      2195 1.68207E-04-4.15178E-05-5.33476E-05-2.91067E-06 5.47692E-18-8.17387E-19
 -1      2196 9.64332E-05-2.31105E-05-3.14884E-05-1.00677E-05-3.15914E-18-5.38064E-19
 -1      2197 3.70227E-05-3.46873E-05-1.53764E-06 2.96451E-05-4.54433E-19 4.01621E-18
 -1      2198 7.51856E-05-4.93680E-05-1.14812E-05 3.94576E-05 2.94767E-19 4.14684E-18
 -1      2199 9.52437E-05-2.85606E-05-2.85784E-05-4.95939E-09-6.47852E-20-2.10291E-19
 -1      2200 1.93562E-05-2.51615E-05 2.06372E-06-1.86694E-05-6.56451E-21 2.49663E-18
 -1      2201 1.17765E-04-5.93175E-05-2.49126E-05 3.26401E-05 1.23540E-18 2.41955E-18
 -1      2202 4.54511E-05-3.58768E-05-4.40532E-06-4.04966E-05 1.10030E-18 3.59587E-18
 -1      2203 1.20946E-04-5.27518E-05-2.90289E-05-3.45812E-05 2.82697E-19 1.45160E-18
 -1      2204 1.56876E-04-3.00626E-05-5.36025E-05-4.39868E-06-1.57781E-18-7.51318E-19
 -1      2205 1.61210E-04-1.57727E-05-6.11744E-05 1.94860E-07-3.38940E-18-1.28537E-19
 -1      2206 1.58713E-04-1.21185E-05-6.19421E-05-1.30937E-06-4.98182E-18 4.63909E-19
 -1      2207 1.57887E-04-2.25678E-05-5.72128E-05 1.96422E-06-4.93333E-18 1.01538E-18
 -1      2208 1.52477E-04-3.92529E-05-4.77366E-05 1.34007E-05-3.90337E-18 6.90755E-19
 -1      2209 9.77313E-05-5.08459E-05-2.00970E-05 4.27598E-05-1.40057E-18-1.46717E-18
 -1      2210 2.71548E-05-3.12615E-05 1.23063E-06 2.83760E-05-2.50298E-19-4.75143E-18
 -1      2211 2.38678E-05-2.19821E-05-4.49902E-07 2.41541E-05 7.78847E-19-5.44515E-18
 -1      2212 3.90486E-05-2.99219E-05-4.03610E-06 3.66987E-05 1.14582E-18-4.57991E-18
 -1      2213 2.72501E-05-3.05087E-05 7.84862E-07-2.31028E-05-2.45640E-20-4.21484E-18
 -1      2214 5.77614E-05-4.37370E-05-6.57298E-06-3.77927E-05 3.70577E-19-3.87475E-18
 -1      2215 9.86815E-05-5.57288E-05-1.83143E-05-3.80125E-05 8.63127E-19-3.59041E-18
 -1      2216 1.37714E-04-5.88469E-05-3.37360E-05-2.30558E-05 2.19339E-18-1.54287E-18
 -1      2217 1.48501E-04-6.24625E-05-3.76787E-05-1.06395E-05 1.25467E-18 6.54333E-19
 -1      2218 1.32565E-04-6.32436E-05-2.92252E-05-2.32868E-05 6.14522E-19-3.83706E-19
 -1      2219 1.63762E-04-4.81474E-05-4.89329E-05-1.36005E-06 2.09212E-18-8.21198E-19
 -1      2220 1.69228E-04-2.91036E-05-5.91531E-05 6.29970E-06 2.86848E-18-1.25827E-18
 -1      2221 1.72115E-04-2.53997E-05-6.15181E-05-6.27664E-06 4.82936E-18-1.68051E-18
 -1      2222 1.69883E-04-1.86269E-05-6.35899E-05 8.41692E-07 4.98267E-18-1.02393E-18
 -1      2223 1.32195E-04-5.06396E-05-3.45830E-05 2.91176E-05-2.34565E-18-5.73441E-19
 -1      2224 8.25962E-05-4.81032E-05-1.48119E-05-4.50564E-05 1.20448E-18 2.80568E-18
 -1      2225 9.54253E-05-2.63765E-05-2.95761E-05 3.80867E-06 2.38274E-18 1.39125E-18
 -1      2226 9.63279E-05-2.58578E-05-3.01277E-05 5.65328E-06 2.73258E-18 1.80983E-18
 -1      2227 8.79625E-05-1.08380E-05-3.30932E-05-3.43620E-06-3.69211E-19-4.39645E-18
 -1      2228 8.82308E-05-1.11385E-05-3.30755E-05-4.53106E-06-7.45419E-19-4.48499E-18
 -1      2229 8.86276E-05-1.16729E-05-3.30267E-05-5.50226E-06-1.06617E-18-4.43886E-18
 -1      2230 8.90739E-05-1.21815E-05-3.29978E-05-6.64553E-06-1.44803E-18-4.27824E-18
 -1      2231 8.97268E-05-1.34607E-05-3.26831E-05-4.56989E-06-8.44721E-19-4.10829E-18
 -1      2232 8.75555E-05-1.03121E-05-3.31381E-05 5.89626E-07 9.21676E-19-4.34497E-18
 -1      2233 8.75507E-05-1.03084E-05-3.31375E-05-4.60211E-07 5.85901E-19-4.40464E-18
 -1      2234 8.77679E-05-1.05606E-05-3.31226E-05 2.60078E-06 1.38639E-18-4.19911E-18
 -1      2235 8.76328E-05-1.04126E-05-3.31303E-05 1.54008E-06 1.10891E-18-4.27501E-18
 -1      2236 8.88136E-05-1.22689E-05-3.28059E-05 9.81815E-07 9.66265E-19-4.12611E-18
 -1      2237 8.82687E-05-1.11662E-05-3.30805E-05 4.61744E-06 1.96023E-18-3.98812E-18
 -1      2238 8.79940E-05-1.08611E-05-3.30972E-05 3.54306E-06 1.61571E-18-4.12189E-18
 -1      2239 8.91256E-05-1.26636E-05-3.27692E-05 2.81038E-06 1.47127E-18-3.89478E-18
 -1      2240 8.91373E-05-1.22352E-05-3.30025E-05 6.72007E-06 2.63588E-18-3.18180E-18
 -1      2241 8.86758E-05-1.17104E-05-3.30318E-05 5.58341E-06 2.24754E-18-3.65345E-18
 -1      2242 8.97673E-05-1.34899E-05-3.26878E-05 4.64470E-06 2.08186E-18-3.50819E-18
 -1      2243 9.04948E-05-1.39428E-05-3.28708E-05 8.82526E-06 3.32518E-18-2.39112E-18
 -1      2244 8.97756E-05-1.30913E-05-3.29196E-05 7.66250E-06 2.83681E-18-2.78354E-18
 -1      2245 9.08087E-05-1.48565E-05-3.25430E-05 6.45777E-06 2.66198E-18-2.76905E-18
 -1      2246 9.25498E-05-1.66051E-05-3.26468E-05 1.07119E-05 3.69076E-18-1.29506E-18
 -1      2247 9.14512E-05-1.52306E-05-3.27275E-05 9.62888E-06 3.44333E-18-1.96673E-18
 -1      2248 9.23317E-05-1.69255E-05-3.22957E-05 8.07217E-06 3.25261E-18-1.93418E-18
 -1      2249 9.45990E-05-2.71212E-05-2.88980E-05 1.24990E-06 1.90821E-18 7.89562E-19
 -1      2250 9.51021E-05-2.68892E-05-2.91623E-05 2.28746E-06 2.10394E-18 1.18614E-18
 -1      2251 9.55622E-05-2.58081E-05-2.99046E-05 3.85559E-06 2.55514E-18 2.58782E-19
 -1      2252 9.60631E-05-2.50664E-05-3.03787E-05-5.77562E-06-2.60507E-18-1.14524E-18
 -1      2253 9.54638E-05-2.58244E-05-2.98591E-05-3.82472E-06-2.26302E-18-1.31705E-18
 -1      2254 1.60104E-04-3.88421E-05-5.25211E-05-1.18534E-05 4.93863E-18-1.97528E-18
 -1      2255 1.58969E-04-4.73588E-05-4.79448E-05-9.01772E-06 4.73142E-18-1.39591E-18
 -1      2256 9.53885E-05-2.65000E-05-2.94664E-05-2.41493E-06-1.96401E-18-1.18242E-18
 -1      2257 9.50016E-05-2.68767E-05-2.91927E-05-1.28630E-06-1.77768E-18-1.39236E-18
 -1      2258 9.55290E-05-2.52751E-05-3.01131E-05-3.73434E-06-2.25384E-18-1.72911E-18
 -1      2259 9.48619E-05-2.72019E-05-2.89586E-05-3.46022E-07-1.68998E-18-1.32477E-18
 -1      2260 9.47101E-05-2.74271E-05-2.88291E-05 3.44819E-07-1.40405E-18-1.60086E-18
 -1      2261 9.53215E-05-2.65960E-05-2.94683E-05-1.19262E-06-1.78720E-18-1.70611E-18
 -1      2262 9.46377E-05-2.76096E-05-2.87034E-05 9.67188E-07-1.17248E-18-1.55454E-18
 -1      2263 9.46760E-05-2.77753E-05-2.86648E-05 1.40724E-06-1.05620E-18-1.67730E-18
 -1      2264 9.51463E-05-2.73077E-05-2.90884E-05 5.04698E-07-1.40002E-18-1.67056E-18
 -1      2265 9.46918E-05-2.78966E-05-2.86133E-05 1.82756E-06-8.31642E-19-1.61562E-18
 -1      2266 9.48707E-05-2.80410E-05-2.86345E-05 2.12013E-06-6.44092E-19-1.49796E-18
 -1      2267 9.51199E-05-2.77378E-05-2.88906E-05 1.64300E-06-9.85096E-19-1.68155E-18
 -1      2268 9.49700E-05-2.81398E-05-2.86340E-05 2.41390E-06-6.56046E-19-1.46458E-18
 -1      2269 9.52522E-05-2.82822E-05-2.86951E-05 2.61605E-06-4.05719E-19-1.49945E-18
 -1      2270 9.52565E-05-2.80367E-05-2.88186E-05 2.42631E-06-6.47818E-19-1.59558E-18
 -1      2271 9.54264E-05-2.83816E-05-2.87292E-05 2.82720E-06-4.03068E-19-1.63676E-18
 -1      2272 9.57862E-05-2.85357E-05-2.88165E-05 2.96659E-06-5.30793E-19-1.73150E-18
 -1      2273 9.55453E-05-2.82873E-05-2.88330E-05 2.98225E-06-6.15986E-19-1.99850E-18
 -1      2274 9.60303E-05-2.86539E-05-2.88729E-05 3.11432E-06-9.31338E-19-1.60738E-18
 -1      2275 9.64489E-05-2.88323E-05-2.89755E-05 3.19654E-06-1.15035E-18-1.80963E-18
 -1      2276 9.59748E-05-2.85462E-05-2.89048E-05 3.37970E-06-7.04794E-19-2.04433E-18
 -1      2277 9.67625E-05-2.89868E-05-2.90443E-05 3.27858E-06-1.03693E-18-1.46133E-18
 -1      2278 9.72239E-05-2.92013E-05-2.91529E-05 3.29028E-06-9.57193E-19-1.56343E-18
 -1      2279 9.65418E-05-2.88620E-05-2.90117E-05 3.63907E-06-9.47690E-19-1.56126E-18
 -1      2280 9.76101E-05-2.94096E-05-2.92258E-05 3.28432E-06-1.06695E-18-1.53434E-18
 -1      2281 9.80956E-05-2.96693E-05-2.93308E-05 3.19524E-06-7.34361E-19-1.86916E-18
 -1      2282 9.72508E-05-2.92812E-05-2.91357E-05 3.73724E-06-1.04349E-18-1.15448E-18
 -1      2283 9.85574E-05-2.99459E-05-2.94006E-05 3.06058E-06-6.55525E-19-1.86228E-18
 -1      2284 9.90403E-05-3.02524E-05-2.94922E-05 2.82734E-06-2.48437E-19-1.87954E-18
 -1      2285 9.81097E-05-2.98452E-05-2.92619E-05 3.61083E-06-9.68621E-19-1.02300E-18
 -1      2286 9.95738E-05-3.06016E-05-2.95539E-05 2.50931E-06 4.81055E-20-2.12020E-18
 -1      2287 1.00014E-04-3.09403E-05-2.96225E-05 2.08385E-06-4.76555E-20-2.27060E-18
 -1      2288 9.91189E-05-3.05791E-05-2.93797E-05 3.16214E-06-2.84373E-19-1.64455E-18
 -1      2289 1.00598E-04-3.13443E-05-2.96737E-05 1.52491E-06-1.92133E-19-2.23500E-18
 -1      2290 1.00937E-04-3.16730E-05-2.97115E-05 8.71269E-07-2.81415E-20-2.15402E-18
 -1      2291 1.00254E-04-3.14677E-05-2.94841E-05 2.27410E-06-1.28201E-19-1.82300E-18
 -1      2292 1.01515E-04-3.20753E-05-2.97551E-05 3.36476E-08-2.62039E-19-2.04462E-18
 -1      2293 1.01675E-04-3.23122E-05-2.97583E-05-8.44530E-07-5.99924E-19-1.79254E-18
 -1      2294 1.01439E-04-3.24210E-05-2.95799E-05 8.43267E-07-2.05567E-19-1.89099E-18
 -1      2295 1.02143E-04-3.26036E-05-2.98029E-05-1.94056E-06-9.91293E-19-1.71690E-18
 -1      2296 1.02033E-04-3.26271E-05-2.97749E-05-2.96351E-06-8.99167E-19-1.63588E-18
 -1      2297 1.02511E-04-3.32365E-05-2.96836E-05-1.15932E-06-7.49842E-19-1.40551E-18
 -1      2298 1.02240E-04-3.26507E-05-2.98341E-05-4.18885E-06-8.53753E-19-1.83292E-18
 -1      2299 1.01788E-04-3.23269E-05-2.97858E-05-5.16893E-06-1.02581E-18-1.91148E-18
 -1      2300 1.03208E-04-3.35864E-05-2.98228E-05-3.59539E-06-8.99600E-19-1.84979E-18
 -1      2301 1.01575E-04-3.19257E-05-2.98722E-05-6.24448E-06-9.89482E-19-1.53683E-18
 -1      2302 1.00776E-04-3.11800E-05-2.98199E-05-6.88638E-06-7.36266E-19-1.63186E-18
 -1      2303 1.03207E-04-3.30834E-05-3.00282E-05-6.05680E-06-7.94617E-19-1.48991E-18
 -1      2304 1.00083E-04-3.03069E-05-2.99362E-05-7.40499E-06-5.16144E-19-1.78744E-18
 -1      2305 9.90614E-05-2.92257E-05-2.98947E-05-7.38365E-06-1.26275E-19-1.75554E-18
 -1      2306 1.02269E-04-3.14740E-05-3.03132E-05-7.82368E-06-6.16438E-19-1.03597E-18
 -1      2307 9.80444E-05-2.80597E-05-3.00227E-05-6.95131E-06 3.91926E-19-1.80110E-18
 -1      2308 9.70725E-05-2.69539E-05-2.99989E-05-6.06673E-06 1.14782E-18-1.87301E-18
 -1      2309 1.00481E-04-2.89219E-05-3.06523E-05-8.02111E-06 8.61713E-20-1.19405E-18
 -1      2310 9.61620E-05-2.59464E-05-3.01020E-05-4.57366E-06 1.36402E-18-2.02817E-18
 -1      2311 9.55771E-05-2.52506E-05-3.00939E-05-2.95237E-06 1.13968E-18-1.76663E-18
 -1      2312 9.84503E-05-2.62170E-05-3.09677E-05-6.03784E-06 1.08719E-18-1.51472E-18
 -1      2313 9.52234E-05-2.48614E-05-3.01337E-05-7.60738E-07 7.41399E-19-1.70068E-18
 -1      2314 9.52534E-05-2.48884E-05-3.01367E-05 1.14676E-06 2.31260E-19-1.40301E-18
 -1      2315 9.71164E-05-2.44830E-05-3.11617E-05-2.12354E-06 1.00081E-18-1.27260E-18
 -1      2316 9.56668E-05-2.53308E-05-3.00963E-05 3.31516E-06 3.61015E-20-1.41660E-18
 -1      2317 9.63053E-05-2.60707E-05-3.01109E-05 4.90197E-06 4.44295E-19-1.33034E-18
 -1      2318 9.71774E-05-2.45476E-05-3.11586E-05 2.55290E-06 2.30716E-19-1.25622E-18
 -1      2319 9.72528E-05-2.71073E-05-3.00107E-05 6.33264E-06 2.69203E-19-2.00673E-18
 -1      2320 9.82564E-05-2.82241E-05-3.00426E-05 7.16424E-06 6.47422E-19-1.99646E-18
 -1      2321 9.86126E-05-2.63806E-05-3.09637E-05 6.37401E-06 2.52183E-20-1.81607E-18
 -1      2322 9.92692E-05-2.93746E-05-2.99219E-05 7.53591E-06 1.18286E-18-2.26635E-18
 -1      2323 1.00304E-04-3.04384E-05-2.99728E-05 7.52007E-06 9.03591E-19-1.96874E-18
 -1      2324 1.00674E-04-2.91022E-05-3.06566E-05 8.21776E-06 5.97443E-19-3.13005E-18
 -1      2325 1.00979E-04-3.12787E-05-2.98667E-05 6.97246E-06 6.51880E-19-1.85923E-18
 -1      2326 1.01783E-04-3.19962E-05-2.99293E-05 6.32060E-06 6.40942E-19-1.49952E-18
 -1      2327 1.02438E-04-3.15915E-05-3.03354E-05 7.92794E-06 8.91635E-19-2.97430E-18
 -1      2328 1.01979E-04-3.23610E-05-2.98544E-05 5.25489E-06-2.75304E-19-1.88422E-18
 -1      2329 1.02442E-04-3.26602E-05-2.99139E-05 4.29651E-06-3.62128E-19-1.94556E-18
 -1      2330 1.03337E-04-3.31119E-05-3.00726E-05 6.14298E-06-4.29741E-20-2.68350E-18
 -1      2331 1.02234E-04-3.26120E-05-2.98674E-05 3.11410E-06-3.03598E-19-1.69580E-18
 -1      2332 1.02367E-04-3.25758E-05-2.99084E-05 2.13687E-06 6.56947E-20-1.42541E-18
 -1      2333 1.03318E-04-3.35359E-05-2.98925E-05 3.74175E-06-4.11986E-19-2.46977E-18
 -1      2334 1.01914E-04-3.22732E-05-2.98774E-05 1.10474E-06 1.82195E-19-1.83532E-18
 -1      2335 1.01795E-04-3.20365E-05-2.98898E-05 2.88152E-07 2.24687E-20-1.25158E-18
 -1      2336 1.02634E-04-3.31373E-05-2.97797E-05 1.42043E-06-1.90484E-19-1.91213E-18
 -1      2337 1.01247E-04-3.16340E-05-2.98607E-05-4.74112E-07-4.22558E-19-8.33577E-19
 -1      2338 1.00968E-04-3.13169E-05-2.98420E-05-1.05725E-06-1.62010E-19-5.28410E-19
 -1      2339 1.01608E-04-3.23031E-05-2.97035E-05-4.35146E-07 3.24003E-19-1.48037E-18
 -1      2340 1.00425E-04-3.09203E-05-2.98064E-05-1.53580E-06 1.21161E-19-4.72720E-19
 -1      2341 1.00061E-04-3.06023E-05-2.97606E-05-1.88678E-06 4.89710E-19 2.87047E-19
 -1      2342 1.00494E-04-3.13537E-05-2.96361E-05-1.70313E-06 5.48801E-20-4.16051E-19
 -1      2343 9.95753E-05-3.02658E-05-2.97156E-05-2.12392E-06-1.21909E-19 4.33234E-19
 -1      2344 9.91861E-05-2.99882E-05-2.96501E-05-2.28269E-06-5.78935E-19-9.03280E-19
 -1      2345 9.94474E-05-3.04849E-05-2.95609E-05-2.42371E-06 9.71027E-21-8.01975E-19
 -1      2346 9.87755E-05-2.97287E-05-2.95967E-05-2.34034E-06-5.44808E-19-8.17617E-19
 -1      2347 9.83974E-05-2.95061E-05-2.95203E-05-2.35938E-06-8.28330E-19-9.48710E-19
 -1      2348 9.85385E-05-2.97834E-05-2.94718E-05-2.70972E-06-7.29238E-19-1.00094E-18
 -1      2349 9.80624E-05-2.93197E-05-2.94619E-05-2.29824E-06-6.55722E-19-8.87777E-19
 -1      2350 9.77173E-05-2.91513E-05-2.93822E-05-2.22736E-06-4.70085E-19-3.99632E-19
 -1      2351 9.77850E-05-2.92648E-05-2.93706E-05-2.68953E-06-5.88990E-19-4.48384E-19
 -1      2352 9.74497E-05-2.90253E-05-2.93225E-05-2.09759E-06-4.69293E-19 3.43705E-19
 -1      2353 9.71483E-05-2.89036E-05-2.92455E-05-1.97720E-06-3.48185E-19 6.01724E-19
 -1      2354 9.71778E-05-2.89081E-05-2.92627E-05-2.47785E-06 1.88173E-19 1.53339E-18
 -1      2355 9.69377E-05-2.88232E-05-2.91880E-05-1.81604E-06-5.04628E-19 7.29831E-19
 -1      2356 9.66834E-05-2.87386E-05-2.91177E-05-1.67552E-06 1.52390E-19 1.76872E-18
 -1      2357 9.66976E-05-2.86792E-05-2.91544E-05-2.16466E-06 3.47685E-20 2.17181E-18
 -1      2358 9.65194E-05-2.86906E-05-2.90649E-05-1.50821E-06-3.96376E-19 8.65422E-19
 -1      2359 9.63112E-05-2.86340E-05-2.90035E-05-1.36702E-06-9.55226E-19 2.53575E-19
 -1      2360 9.63227E-05-2.85437E-05-2.90513E-05-1.81417E-06-4.71833E-19 1.82391E-18
 -1      2361 9.61848E-05-2.86079E-05-2.89569E-05-1.20910E-06-3.24151E-19-4.00060E-19
 -1      2362 9.60188E-05-2.85717E-05-2.89052E-05-1.07877E-06-3.01038E-20 1.37789E-19
 -1      2363 9.60333E-05-2.84723E-05-2.89574E-05-1.46835E-06-1.11893E-18 1.90675E-18
 -1      2364 9.59224E-05-2.85596E-05-2.88655E-05-9.38607E-07-4.29147E-19 2.51055E-19
 -1      2365 9.57933E-05-2.85377E-05-2.88233E-05-8.24943E-07-4.08079E-19 4.72250E-19
 -1      2366 9.58121E-05-2.84423E-05-2.88750E-05-1.15178E-06-2.13186E-19 4.59232E-19
 -1      2367 9.57206E-05-2.85342E-05-2.87904E-05-7.05973E-07-2.37491E-20 1.13661E-18
 -1      2368 9.56228E-05-2.85220E-05-2.87571E-05-6.10937E-07 5.72797E-19 1.28345E-18
 -1      2369 9.56450E-05-2.84375E-05-2.88051E-05-8.76604E-07 1.34024E-20 9.78245E-19
 -1      2370 9.55687E-05-2.85233E-05-2.87306E-05-5.13455E-07 5.02922E-19 4.30162E-19
 -1      2371 9.54966E-05-2.85177E-05-2.87049E-05-4.36643E-07 7.58068E-19-1.11036E-19
 -1      2372 9.55204E-05-2.84466E-05-2.87475E-05-6.46625E-07 3.31755E-19 1.25554E-18
 -1      2373 9.54570E-05-2.85214E-05-2.86841E-05-3.59112E-07 2.23086E-18 6.89954E-21
 -1      2374 9.54054E-05-2.85199E-05-2.86650E-05-2.98805E-07 2.78928E-18-1.41732E-19
 -1      2375 9.54289E-05-2.84625E-05-2.87012E-05-4.60523E-07 1.63838E-18-1.59372E-21
 -1      2376 9.53769E-05-2.85246E-05-2.86490E-05-2.38781E-07 1.98572E-18 4.30464E-19
 -1      2377 9.53413E-05-2.85256E-05-2.86351E-05-1.92720E-07 2.18591E-18 9.48849E-19
 -1      2378 9.53628E-05-2.84806E-05-2.86648E-05-3.14110E-07 2.74730E-18 9.84725E-20
 -1      2379 9.53212E-05-2.85306E-05-2.86231E-05-1.47564E-07 1.39863E-18 9.89545E-19
 -1      2380 9.52977E-05-2.85331E-05-2.86132E-05-1.13543E-07 8.18249E-19 1.93766E-18
 -1      2381 9.53160E-05-2.84986E-05-2.86368E-05-2.02032E-07 1.73421E-18 1.46344E-18
 -1      2382 9.52838E-05-2.85383E-05-2.86042E-05-8.06795E-08-1.66576E-19 1.51806E-18
 -1      2383 9.52693E-05-2.85417E-05-2.85973E-05-5.69919E-08-7.19617E-19 1.14037E-18
 -1      2384 9.52834E-05-2.85152E-05-2.86155E-05-1.18975E-07 9.72870E-20 5.91700E-19
 -1      2385 9.41963E-05-2.77325E-05-2.84695E-05-1.38747E-06 1.04057E-18-5.38062E-20
 -1      2386 9.40952E-05-2.76051E-05-2.84701E-05-9.67943E-07 1.27544E-18 2.98787E-19
 -1      2387 9.45215E-05-2.79311E-05-2.85237E-05-2.16217E-06 8.43842E-19-4.45242E-19
 -1      2388 9.42346E-05-2.78078E-05-2.84541E-05-1.84018E-06 9.41330E-19-1.43342E-19
 -1      2389 9.47635E-05-2.76984E-05-2.87565E-05-1.72145E-06 1.22677E-18-5.98564E-19
 -1      2390 9.51116E-05-2.81143E-05-2.86966E-05-2.83119E-06 1.01291E-18-5.86962E-19
 -1      2391 9.46754E-05-2.79882E-05-2.85719E-05-2.53516E-06 9.05693E-19-4.87581E-19
 -1      2392 9.49717E-05-2.78770E-05-2.87666E-05-2.63474E-06 1.08922E-18-8.94785E-19
 -1      2393 9.59330E-05-2.82933E-05-2.89690E-05-3.51737E-06 7.82303E-19-4.73541E-19
 -1      2394 9.53601E-05-2.81600E-05-2.87954E-05-3.19484E-06 9.06763E-19-5.40221E-19
 -1      2395 9.53762E-05-2.79857E-05-2.88911E-05-3.44703E-06 9.39324E-19-1.14818E-18
 -1      2396 9.69765E-05-2.84762E-05-2.93339E-05-4.31785E-06 1.51157E-19-4.82840E-19
 -1      2397 9.62619E-05-2.83294E-05-2.91115E-05-3.92622E-06 6.38828E-19-3.60314E-19
 -1      2398 9.59449E-05-2.80427E-05-2.91086E-05-4.29128E-06 5.72295E-19-9.61555E-19
 -1      2399 9.82535E-05-2.86751E-05-2.97911E-05-5.31276E-06 4.59912E-22-7.35905E-19
 -1      2400 9.73781E-05-2.85044E-05-2.95164E-05-4.81656E-06 8.53394E-20-5.79766E-19
 -1      2401 9.66581E-05-2.80576E-05-2.94064E-05-5.27297E-06 3.46264E-19-9.49437E-19
 -1      2402 9.97915E-05-2.89148E-05-3.03428E-05-6.56247E-06-1.30787E-19-8.48173E-19
 -1      2403 9.87257E-05-2.87010E-05-3.00108E-05-5.93680E-06-7.35231E-20-8.22606E-19
 -1      2404 9.75077E-05-2.80435E-05-2.97752E-05-6.47676E-06 1.19083E-19-1.16532E-18
 -1      2405 1.01635E-04-2.92491E-05-3.09863E-05-8.09000E-06 5.98313E-19-7.78561E-19
 -1      2406 1.00341E-04-2.89558E-05-3.05947E-05-7.33285E-06 2.45213E-19-7.37723E-19
 -1      2407 9.84997E-05-2.80339E-05-3.02036E-05-7.96196E-06 7.16744E-20-1.31489E-18
 -1      2408 1.03853E-04-2.97921E-05-3.17056E-05-9.83998E-06 2.86142E-19-2.85672E-19
 -1      2409 1.02285E-04-2.93501E-05-3.12598E-05-8.99902E-06 5.97638E-19-4.04869E-19
 -1      2410 9.96679E-05-2.81123E-05-3.06710E-05-9.74342E-06 2.64978E-19-7.82103E-19
 -1      2411 1.06567E-04-3.07711E-05-3.24595E-05-1.16014E-05-1.59828E-19-3.71040E-20
 -1      2412 1.04674E-04-3.00543E-05-3.19805E-05-1.08222E-05 2.76543E-20-3.75341E-20
 -1      2413 1.01109E-04-2.84670E-05-3.11411E-05-1.17500E-05-1.92683E-20-5.59548E-19
 -1      2414 1.09998E-04-3.25918E-05-3.31755E-05-1.28865E-05-6.54270E-19-2.30419E-19
 -1      2415 1.07724E-04-3.13944E-05-3.27059E-05-1.24821E-05-2.03378E-19-1.73642E-19
 -1      2416 1.03060E-04-2.94758E-05-3.15582E-05-1.37498E-05-1.61714E-19-9.01271E-20
 -1      2417 1.14514E-04-3.58362E-05-3.37668E-05-1.27841E-05-2.17899E-19 2.86211E-19
 -1      2418 1.11819E-04-3.38977E-05-3.33654E-05-1.32907E-05-3.79577E-19-1.76530E-19
 -1      2419 1.06024E-04-3.18044E-05-3.18621E-05-1.52254E-05-4.36965E-19-6.13042E-19
 -1      2420 1.20909E-04-4.12699E-05-3.42351E-05-9.63708E-06-7.65956E-19 7.32012E-19
 -1      2421 1.17701E-04-3.83646E-05-3.39273E-05-1.19755E-05-2.42959E-19 7.62720E-19
 -1      2422 1.11007E-04-3.64450E-05-3.20572E-05-1.51420E-05-5.88608E-19-4.38297E-19
 -1      2423 1.28471E-04-4.74346E-05-3.48335E-05-2.12672E-06-7.79826E-19 9.87177E-19
 -1      2424 1.25682E-04-4.48069E-05-3.45245E-05-6.57678E-06-1.00928E-18 6.94474E-19
 -1      2425 1.19071E-04-4.40565E-05-3.23607E-05-1.17538E-05-9.42152E-19 5.23159E-19
 -1      2426 1.35318E-04-5.05791E-05-3.65118E-05 9.73628E-06 8.62782E-20 1.16272E-18
 -1      2427 1.34355E-04-5.06612E-05-3.58343E-05 3.86606E-06-3.08787E-19 9.70197E-19
 -1      2428 1.30239E-04-5.18427E-05-3.37014E-05-2.72608E-06-6.52904E-19 1.58736E-19
 -1      2429 1.37126E-04-4.36718E-05-4.02334E-05 2.00328E-05 5.67194E-19 1.09693E-18
 -1      2430 1.39414E-04-4.94958E-05-3.88109E-05 1.66645E-05 4.48788E-19 8.60215E-19
 -1      2431 1.40672E-04-5.40412E-05-3.72916E-05 1.01425E-05 4.65471E-19-5.45277E-21
 -1      2432 1.29109E-04-2.08479E-05-4.70064E-05-2.12968E-07 3.08638E-18-1.10669E-18
 -1      2433 1.30459E-04-2.31020E-05-4.65937E-05 9.63974E-06 2.57371E-18-3.72364E-20
 -1      2434 1.32232E-04-3.02513E-05-4.44090E-05-1.82723E-05 2.85365E-18-3.38151E-18
 -1      2435 1.28815E-04-2.37395E-05-4.54149E-05-1.15262E-05 3.11094E-18-2.29355E-18
 -1      2436 1.39179E-04-4.55548E-05-4.03978E-05-2.07261E-05 1.84576E-18-4.47779E-18
 -1      2437 1.35126E-04-3.76763E-05-4.19652E-05-2.12800E-05 2.89601E-18-4.17548E-18
 -1      2438 1.36729E-04-5.07610E-05-3.68666E-05-9.47529E-06 1.91893E-19-4.04195E-18
 -1      2439 1.36333E-04-4.89829E-05-3.77075E-05-1.44615E-05 1.15080E-18-4.44602E-18
 -1      2440 1.42746E-04-5.11821E-05-3.96740E-05-1.55800E-05 1.73996E-18-3.79121E-18
 -1      2441 1.29563E-04-4.73120E-05-3.51142E-05 2.58147E-06-1.93494E-18-2.10223E-18
 -1      2442 1.31651E-04-4.92137E-05-3.55071E-05-2.60812E-06-1.08510E-18-3.21959E-18
 -1      2443 1.34588E-04-5.31731E-05-3.49470E-05-3.24836E-06-6.85991E-19-2.25145E-18
 -1      2444 1.21213E-04-4.07124E-05-3.43820E-05 9.85202E-06-3.02325E-18-9.59139E-19
 -1      2445 1.24173E-04-4.34945E-05-3.46454E-05 7.00152E-06-2.38141E-18-1.58715E-18
 -1      2446 1.24034E-04-4.68606E-05-3.32238E-05 7.73810E-06-2.48842E-18-1.99368E-18
 -1      2447 1.14775E-04-3.56574E-05-3.38636E-05 1.26061E-05-1.29071E-18-1.33295E-19
 -1      2448 1.17590E-04-3.79216E-05-3.42067E-05 1.15560E-05-2.28133E-18-6.80541E-19
 -1      2449 1.14778E-04-3.93029E-05-3.25295E-05 1.34530E-05-2.64481E-18-9.88481E-19
 -1      2450 1.10124E-04-3.25007E-05-3.32566E-05 1.25043E-05-1.74289E-18 8.80147E-19
 -1      2451 1.12533E-04-3.39612E-05-3.36898E-05 1.26145E-05-1.34317E-18 1.83154E-19
 -1      2452 1.08926E-04-3.36891E-05-3.23169E-05 1.47724E-05-2.09503E-18-5.44070E-20
 -1      2453 1.06587E-04-3.06929E-05-3.25265E-05 1.09638E-05-7.72120E-19 5.69388E-19
 -1      2454 1.08660E-04-3.16059E-05-3.30114E-05 1.16831E-05-1.22905E-18 6.87903E-19
 -1      2455 1.05198E-04-3.05349E-05-3.20277E-05 1.37814E-05-1.47171E-18-5.54046E-19
 -1      2456 1.04063E-04-2.98171E-05-3.18224E-05 9.05909E-06-1.27387E-18-1.01613E-19
 -1      2457 1.05673E-04-3.03357E-05-3.22596E-05 9.91128E-06-9.12574E-19 8.98510E-19
 -1      2458 1.02807E-04-2.90431E-05-3.16228E-05 1.18098E-05-9.11793E-19-6.11474E-19
 -1      2459 1.02076E-04-2.93529E-05-3.11695E-05 7.20561E-06 3.01244E-19 1.14406E-20
 -1      2460 1.03373E-04-2.96752E-05-3.15526E-05 8.02344E-06-3.51767E-19-4.80237E-19
 -1      2461 1.01184E-04-2.84753E-05-3.11628E-05 9.67330E-06-5.17842E-19-1.00835E-18
 -1      2462 1.00494E-04-2.90925E-05-3.06015E-05 5.58887E-06 1.59568E-18-9.11405E-19
 -1      2463 1.01524E-04-2.93042E-05-3.09207E-05 6.29339E-06 1.25472E-18-6.19946E-19
 -1      2464 9.99400E-05-2.83072E-05-3.07002E-05 7.67983E-06 7.38444E-19-2.03077E-18
 -1      2465 9.92306E-05-2.89312E-05-3.01282E-05 4.25899E-06 7.75842E-19-7.84309E-19
 -1      2466 1.00038E-04-2.90769E-05-3.03853E-05 4.83266E-06 1.34953E-18-4.90398E-19
 -1      2467 9.89362E-05-2.82984E-05-3.02744E-05 5.96610E-06 1.01034E-18-1.59336E-18
 -1      2468 9.82297E-05-2.88209E-05-2.97459E-05 3.20176E-06-3.25515E-19-7.53928E-19
 -1      2469 9.88544E-05-2.89246E-05-2.99480E-05 3.65396E-06-5.81478E-19-7.37577E-19
 -1      2470 9.81122E-05-2.83390E-05-2.99048E-05 4.56047E-06 4.35165E-19-5.26042E-19
 -1      2471 9.74455E-05-2.87403E-05-2.94440E-05 2.37883E-06 1.28558E-18-8.67551E-19
 -1      2472 9.79225E-05-2.88153E-05-2.95999E-05 2.72828E-06 4.21307E-19-1.08520E-18
 -1      2473 9.74379E-05-2.83854E-05-2.95966E-05 3.44054E-06 3.30006E-19-4.76042E-19
 -1      2474 9.68391E-05-2.86801E-05-2.92098E-05 1.74709E-06 3.75191E-19 1.50519E-18
 -1      2475 9.71988E-05-2.87343E-05-2.93283E-05 2.01370E-06 1.27732E-18 9.15853E-19
 -1      2476 9.68931E-05-2.84239E-05-2.93469E-05 2.56501E-06 1.87984E-19-1.13912E-19
 -1      2477 9.63770E-05-2.86352E-05-2.90310E-05 1.26692E-06 1.08053E-18 1.36915E-18
 -1      2478 9.66447E-05-2.86739E-05-2.91199E-05 1.46846E-06 1.03377E-18 1.27516E-18
 -1      2479 9.64602E-05-2.84526E-05-2.91490E-05 1.88954E-06 8.52400E-19 8.25021E-19
 -1      2480 9.60303E-05-2.86026E-05-2.88965E-05 9.04865E-07 2.83803E-19 3.99946E-19
 -1      2481 9.62266E-05-2.86296E-05-2.89622E-05 1.05608E-06 1.26611E-18 1.55931E-18
 -1      2482 9.61224E-05-2.84736E-05-2.89950E-05 1.37359E-06 1.26166E-18 1.34060E-18
 -1      2483 9.57747E-05-2.85800E-05-2.87968E-05 6.33864E-07 1.08265E-18 5.81799E-19
 -1      2484 9.59161E-05-2.85982E-05-2.88446E-05 7.46532E-07 6.00254E-19 5.59862E-19
 -1      2485 9.58637E-05-2.84892E-05-2.88771E-05 9.82800E-07 5.92024E-19 8.62949E-19
 -1      2486 9.55899E-05-2.85653E-05-2.87240E-05 4.32558E-07-2.30160E-19 4.67891E-19
 -1      2487 9.56897E-05-2.85768E-05-2.87582E-05 5.15886E-07 6.50829E-19 6.73915E-19
 -1      2488 9.56695E-05-2.85016E-05-2.87881E-05 6.89169E-07 8.31802E-19 1.62427E-18
 -1      2489 9.54595E-05-2.85567E-05-2.86720E-05 2.84305E-07 1.61326E-18 1.10387E-18
 -1      2490 9.55281E-05-2.85634E-05-2.86959E-05 3.45414E-07 2.65990E-19 7.82103E-19
 -1      2491 9.55267E-05-2.85121E-05-2.87221E-05 4.70387E-07 3.21932E-20 1.38236E-18
 -1      2492 9.53702E-05-2.85527E-05-2.86356E-05 1.76274E-07 1.18251E-18 1.61177E-18
 -1      2493 9.54156E-05-2.85559E-05-2.86518E-05 2.20619E-07 2.19896E-18 1.76018E-18
 -1      2494 9.54241E-05-2.85213E-05-2.86739E-05 3.08956E-07 1.61321E-18 1.58412E-18
 -1      2495 9.53114E-05-2.85521E-05-2.86107E-05 9.87133E-08-2.07485E-18 1.60808E-18
 -1      2496 9.53399E-05-2.85527E-05-2.86214E-05 1.30390E-07-1.27420E-18 7.95571E-19
 -1      2497 9.53525E-05-2.85297E-05-2.86393E-05 1.91298E-07 3.37025E-19 2.10000E-18
 -1      2498 9.52747E-05-2.85544E-05-2.85941E-05 4.43240E-08-9.96492E-19 2.32182E-19
 -1      2499 9.52910E-05-2.85529E-05-2.86009E-05 6.61847E-08-4.41410E-19 1.79304E-18
 -1      2500 9.53036E-05-2.85375E-05-2.86147E-05 1.07223E-07-1.02397E-18 1.17646E-18
 -1      2501 9.52534E-05-2.85594E-05-2.85830E-05 9.26295E-09-1.79157E-18 1.03217E-18
 -1      2502 9.52617E-05-2.85562E-05-2.85873E-05 2.29532E-08-1.95899E-18 2.53183E-19
 -1      2503 9.52726E-05-2.85470E-05-2.85974E-05 4.85041E-08-1.25923E-18 2.59240E-19
 -1      2504 9.52460E-05-2.85636E-05-2.85777E-05-3.48399E-09-4.11393E-19-1.94344E-19
 -1      2505 9.51974E-05-2.84491E-05-2.86070E-05 6.41757E-08 1.28356E-18-7.51444E-19
 -1      2506 9.52077E-05-2.84625E-05-2.86047E-05 6.51320E-08 1.61862E-18-2.72650E-18
 -1      2507 9.51776E-05-2.84210E-05-2.86105E-05 5.07875E-08 1.49000E-18 4.43143E-19
 -1      2508 9.51860E-05-2.84317E-05-2.86089E-05 5.79070E-08 1.56304E-18 4.09288E-19
 -1      2509 9.51797E-05-2.84082E-05-2.86159E-05 7.58079E-08 2.03571E-18 1.22579E-19
 -1      2510 9.52406E-05-2.85170E-05-2.85961E-05 4.87555E-08 2.16373E-20 2.90656E-18
 -1      2511 9.52469E-05-2.85287E-05-2.85932E-05 3.92608E-08 1.74057E-19 3.47429E-19
 -1      2512 9.52202E-05-2.84830E-05-2.86021E-05 6.34118E-08 3.61466E-19-2.98501E-19
 -1      2513 9.52299E-05-2.84967E-05-2.85995E-05 5.81810E-08 1.95412E-19 3.20191E-18
 -1      2514 9.52352E-05-2.84887E-05-2.86054E-05 7.11377E-08-3.11930E-19 2.19087E-18
 -1      2515 9.52077E-05-2.84469E-05-2.86115E-05 8.17640E-08 1.62594E-18-3.38449E-19
 -1      2516 9.51649E-05-2.84035E-05-2.86125E-05 2.64364E-08-2.97016E-19-1.49826E-19
 -1      2517 9.51698E-05-2.84095E-05-2.86116E-05 3.79569E-08 5.28947E-19-4.33339E-19
 -1      2518 9.51570E-05-2.83786E-05-2.86187E-05 5.42198E-08 1.92220E-18-2.02059E-19
 -1      2519 9.51617E-05-2.83992E-05-2.86128E-05-3.34251E-09-7.51534E-19-3.14903E-19
 -1      2520 9.51620E-05-2.83995E-05-2.86128E-05 9.88347E-09-1.16370E-18 8.90021E-19
 -1      2521 9.51443E-05-2.83628E-05-2.86200E-05 2.16464E-08 8.70275E-19 1.90102E-19
 -1      2522 9.51683E-05-2.84087E-05-2.86114E-05-3.20134E-08 2.76000E-19-1.30059E-18
 -1      2523 9.51642E-05-2.84033E-05-2.86123E-05-2.00868E-08-5.82226E-19-3.56212E-19
 -1      2524 9.51437E-05-2.83629E-05-2.86197E-05-1.50585E-08-1.43970E-19 5.27320E-19
 -1      2525 9.51831E-05-2.84297E-05-2.86085E-05-5.31297E-08 1.54414E-18-2.15981E-18
 -1      2526 9.51755E-05-2.84199E-05-2.86101E-05-4.52385E-08 1.10556E-18-1.66537E-18
 -1      2527 9.51551E-05-2.83785E-05-2.86179E-05-4.81291E-08 2.83070E-19-1.45763E-18
 -1      2528 9.52037E-05-2.84597E-05-2.86043E-05-6.28686E-08 9.12607E-19-1.54939E-18
 -1      2529 9.51940E-05-2.84467E-05-2.86065E-05-6.05624E-08 1.39828E-18-3.13768E-18
 -1      2530 9.51761E-05-2.84073E-05-2.86148E-05-7.12142E-08 1.50620E-18-2.84481E-18
 -1      2531 9.52258E-05-2.84939E-05-2.85990E-05-5.87888E-08 7.27289E-19 9.49183E-19
 -1      2532 9.52161E-05-2.84798E-05-2.86017E-05-6.28203E-08 4.98704E-19 1.13582E-18
 -1      2533 9.52030E-05-2.84451E-05-2.86103E-05-7.97940E-08 1.45551E-18-1.76596E-18
 -1      2534 9.52436E-05-2.85263E-05-2.85928E-05-4.26278E-08-6.30612E-19-1.77530E-18
 -1      2535 9.52367E-05-2.85137E-05-2.85958E-05-5.14853E-08-5.47354E-19-3.73779E-19
 -1      2536 9.52298E-05-2.84865E-05-2.86044E-05-7.25753E-08-6.47262E-20-8.37430E-19
 -1      2537 9.14634E-05-5.27392E-05-1.67009E-05 4.01125E-05-3.98105E-19 3.71159E-18
 -1      2538 7.21074E-05-4.54015E-05-1.13356E-05 3.89942E-05-7.75459E-19 3.57808E-18
 -1      2539 9.52471E-05-2.85536E-05-2.85825E-05-1.26330E-08 6.08070E-19 4.28279E-19
 -1      2540 2.04504E-05-1.71125E-05-1.02650E-06-1.23612E-05-6.47239E-19 1.24599E-18
 -1      2541 2.77469E-05-2.13460E-05-2.51309E-06-2.75697E-05 5.00385E-19 1.44334E-18
 -1      2542 9.41969E-05-2.74899E-05-2.85714E-05-3.37171E-07 1.47276E-18 4.11452E-19
 -1      2543 9.43473E-05-2.73393E-05-2.86731E-05 2.91958E-07 1.65767E-18 6.89614E-19
 -1      2544 9.47918E-05-2.74042E-05-2.88967E-05-5.28036E-07 1.59360E-18-3.21811E-19
 -1      2545 2.32941E-05-1.96516E-05-1.28684E-06 1.51618E-05-1.12941E-18 4.50410E-18
 -1      2546 1.90815E-05-1.66929E-05-6.79505E-07 2.58397E-06-2.26473E-18 3.73287E-18
 -1      2547 4.19863E-05-2.88953E-05-5.24488E-06-3.69037E-05 1.53228E-18 2.79669E-18
 -1      2548 5.83255E-05-3.59206E-05-9.50320E-06-4.45712E-05 1.49184E-18 3.13741E-18
 -1      2549 9.51591E-05-2.00175E-05-3.22507E-05-1.13865E-05-3.11617E-18-1.72538E-18
 -1      2550 9.55986E-05-2.33700E-05-3.09845E-05-7.60392E-06-2.90320E-18-1.42576E-18
 -1      2551 9.51940E-05-2.24862E-05-3.11306E-05-7.21539E-06-2.77217E-18-1.89050E-18
 -1      2552 9.33113E-05-1.75519E-05-3.24668E-05-1.09893E-05-3.01799E-18-2.47494E-18
 -1      2553 1.29403E-04-6.27722E-05-2.88232E-05 2.52100E-05 7.78847E-19 8.04893E-19
 -1      2554 1.10146E-04-5.93256E-05-2.18640E-05 3.28888E-05 2.39075E-19 2.36915E-18
 -1      2555 1.45934E-04-3.42747E-05-4.81674E-05 1.01959E-06 3.50460E-20-2.00980E-18
 -1      2556 1.47594E-04-2.50253E-05-5.30493E-05 4.22255E-06-9.59477E-19-1.72964E-18
 -1      2557 2.65525E-05-2.25108E-05-1.52385E-06-1.98781E-05-4.72962E-19-3.85061E-18
 -1      2558 3.87157E-05-2.97182E-05-3.73707E-06-3.12894E-05-5.16478E-19-3.08616E-18
 -1      2559 8.76187E-05-1.04023E-05-3.31286E-05-1.41205E-06 3.67718E-19-4.37529E-18
 -1      2560 8.77431E-05-1.05413E-05-3.31198E-05-2.47390E-06-7.38664E-20-4.35785E-18
 -1      2561 8.91004E-05-1.26472E-05-3.27659E-05-2.70996E-06-2.11146E-19-4.03240E-18
 -1      2562 8.88047E-05-1.22630E-05-3.28049E-05-8.59181E-07 4.22942E-19-4.16917E-18
 -1      2563 1.49924E-04-1.83076E-05-5.71271E-05 6.78139E-06 4.08270E-18-3.77988E-20
 -1      2564 1.53470E-04-1.75752E-05-5.85428E-05-7.47062E-07 5.12709E-18-5.23837E-19
 -1      2565 1.39152E-04-5.28698E-05-3.73206E-05 1.91377E-05-1.49184E-18 1.03529E-18
 -1      2566 1.27018E-04-5.57730E-05-3.04911E-05 2.68846E-05-8.90549E-19 4.88950E-19
 -1      2567 1.58869E-04-2.14385E-05-5.92590E-05-7.95606E-06 4.54560E-18-1.18119E-18
 -1      2568 1.57674E-04-2.71465E-05-5.62449E-05-1.21587E-05 4.74677E-18-8.88326E-19
 -1      2569 1.58017E-04-3.40311E-05-5.33455E-05 1.34669E-05 1.77093E-18-7.03037E-19
 -1      2570 1.54675E-04-2.45427E-05-5.63990E-05 1.18865E-05 3.01883E-18-4.36963E-19
 -1      2571 1.56065E-04-5.32731E-05-4.41046E-05 3.69735E-06 1.33461E-18 3.14673E-19
 -1      2572 1.60687E-04-4.53816E-05-4.99846E-05 8.17543E-06 1.03634E-18-2.43098E-19
 -1      2573 9.13449E-05-5.32366E-05-1.63153E-05-3.82013E-05-3.35002E-19-3.32278E-18
 -1      2574 1.10664E-04-5.86954E-05-2.24370E-05-3.42241E-05-2.93920E-19-2.00472E-18
 -1      2575 5.58795E-05-3.82180E-05-7.44550E-06-3.66919E-05-7.78212E-19-3.39279E-18
 -1      2576 7.37340E-05-4.55221E-05-1.20600E-05-4.10887E-05-1.63689E-19-3.83282E-18
 -1      2577 8.85789E-05-4.91899E-05-1.65136E-05-3.81244E-05-1.12486E-18-3.19723E-18
 -1      2578 1.95872E-05-1.66172E-05-8.93959E-07 8.34079E-06 4.73491E-19-5.63023E-18
 -1      2579 2.04960E-05-1.69024E-05-1.08360E-06-5.73270E-06 1.24620E-19-4.94625E-18
 -1      2580 7.64458E-05-4.46184E-05-1.34743E-05 4.65015E-05 5.91653E-19-1.42397E-18
 -1      2581 6.11886E-05-3.86105E-05-9.37520E-06 4.37612E-05 1.25827E-18-2.91972E-18
 -1      2582 7.94309E-05-4.58569E-05-1.40737E-05-4.44702E-05 1.27606E-18 2.32982E-18
 -1      2583 9.69769E-05-5.18043E-05-1.94864E-05-4.38819E-05 1.07150E-18 1.74449E-18
 -1      2584 1.11433E-04-5.50658E-05-2.43466E-05 3.89932E-05-3.22720E-19 1.86559E-19
 -1      2585 9.31643E-05-5.13757E-05-1.78250E-05 4.25656E-05 2.25311E-19-7.41498E-19
 -1      2586 9.20158E-05-4.97504E-05-1.78350E-05 4.25789E-05 1.58120E-18-3.88735E-19
 -1      2587 1.49046E-04-3.77293E-05-4.81819E-05 2.75630E-06-3.75352E-18 1.62397E-18
 -1      2588 1.44291E-04-4.47510E-05-4.28228E-05 7.66055E-06-2.34451E-18 1.38850E-18
 -1      2589 1.43696E-04-1.69048E-05-5.50471E-05-6.33445E-06-4.72411E-18 1.14498E-18
 -1      2590 1.47706E-04-2.63629E-05-5.21974E-05-3.08849E-06-4.58266E-18 1.80503E-18
 -1      2591 1.41736E-04-3.17414E-05-4.72383E-05-6.78748E-06-3.55817E-18 2.24104E-18
 -1      2592 1.45828E-04-9.47696E-06-5.87403E-05 5.06137E-07-4.07677E-18-3.41460E-19
 -1      2593 1.40646E-04-9.03410E-06-5.70352E-05-2.04581E-06-4.93227E-18-1.84971E-19
 -1      2594 1.44101E-04-1.50114E-05-5.58358E-05 4.97875E-06-1.97782E-18-1.40798E-18
 -1      2595 1.46034E-04-1.16121E-05-5.80859E-05 2.81031E-06-2.81935E-18-7.26437E-19
 -1      2596 1.32776E-04-7.90984E-06-5.37796E-05 3.14059E-06-2.60611E-18-1.32868E-18
 -1      2597 1.40046E-04-5.08854E-05-3.82748E-05-1.25182E-05 8.86314E-19-1.28325E-18
 -1      2598 1.45216E-04-4.54788E-05-4.32445E-05-6.52367E-06 2.47466E-19-1.99010E-18
 -1      2599 1.15020E-04-5.59421E-05-2.52052E-05-3.41248E-05 1.23519E-18 5.60418E-19
 -1      2600 1.31766E-04-5.57873E-05-3.28709E-05-2.57103E-05 9.80123E-19-4.18011E-19
 -1      2601 5.17086E-05-3.45521E-05-7.23358E-06 3.67785E-05-9.41054E-19 3.49295E-18
 -1      2602 3.47860E-05-2.58829E-05-3.51879E-06 2.62584E-05-7.73341E-19 3.22296E-18
 -1      2603 9.64403E-05-2.51002E-05-3.05975E-05 7.28701E-06 3.11361E-18 2.03929E-18
 -1      2604 9.75081E-05-2.37833E-05-3.16168E-05 1.04047E-05 3.36259E-18 2.46588E-18
 -1      2605 9.59697E-05-2.13122E-05-3.20519E-05 1.15743E-05 3.67287E-18 1.29731E-18
 -1      2606 9.60198E-05-2.41473E-05-3.08365E-05 7.29164E-06 3.17950E-18 7.10045E-19
 -1      2607 1.55869E-04-5.58525E-05-4.31617E-05 1.90198E-06 3.86782E-18-1.76395E-18
 -1      2608 1.44919E-04-6.17269E-05-3.58528E-05 1.13658E-05 2.36915E-18-1.26335E-18
 -1      2609 1.43694E-04-1.85137E-05-5.38549E-05-4.85953E-06 4.42914E-18 1.91377E-20
 -1      2610 9.07457E-05-1.48082E-05-3.25398E-05-6.38675E-06-1.58426E-18-3.91373E-18
 -1      2611 8.96986E-05-1.30310E-05-3.29158E-05-7.59233E-06-1.72830E-18-4.17083E-18
 -1      2612 9.04315E-05-1.38971E-05-3.28655E-05-8.75679E-06-2.10562E-18-3.93391E-18
 -1      2613 9.50843E-05-2.68768E-05-2.92466E-05 1.20366E-06 1.98471E-18-3.72910E-20
 -1      2614 9.43517E-05-1.90774E-05-3.23052E-05 1.12522E-05 3.60232E-18-6.47318E-20
 -1      2615 1.54036E-04-5.23875E-05-4.33582E-05-1.04367E-05 3.15488E-18-2.82994E-18
 -1      2616 1.12022E-04-5.59324E-05-2.37278E-05-3.49715E-05 1.66993E-18 4.08323E-19
 -1      2617 1.37558E-04-1.96148E-05-5.07735E-05 8.59476E-06-1.24344E-18-2.72003E-18
 -1      2618 1.40607E-04-6.47216E-05-3.24922E-05 1.40750E-05 5.47395E-19-7.47507E-19
 -1      2619 1.32281E-04-6.28809E-05-2.93640E-05 1.72847E-05-4.09435E-19-7.19607E-19
 -1      2620 1.45752E-04-6.39734E-05-3.58025E-05 3.20608E-06 8.05581E-19-2.97139E-18
 -1      2621 1.36613E-04-1.21020E-05-5.37960E-05-6.08477E-06-4.27159E-18 8.51268E-19
 -1      2622 1.30120E-04-1.54387E-05-4.95475E-05-8.98895E-06-3.34557E-18 1.91938E-18
 -1      2623 1.26880E-04-8.18247E-06-5.14438E-05-4.97295E-06-3.23503E-18-1.38066E-19
 -1      2624 1.22983E-04-5.80508E-05-2.76615E-05 2.90789E-05 5.79688E-19 1.13439E-18
 -1      2625 4.17535E-05-2.28466E-05-7.48659E-06-3.18782E-05 1.02364E-18 2.01128E-18
 -1      2626 7.49328E-05-4.08750E-05-1.41257E-05-4.32063E-05 1.68433E-18 2.75900E-18
 -1      2627 1.30901E-04-2.91310E-05-4.39657E-05 1.76923E-05 1.58385E-18 7.03514E-19
 -1      2628 1.34813E-04-3.65135E-05-4.27950E-05 2.12429E-05 9.73241E-19 1.69928E-18
 -1      2629 1.41650E-04-3.47550E-05-4.61899E-05-2.03157E-05 3.17754E-18-3.54992E-18
 -1      2630 9.52527E-05-2.85559E-05-2.85844E-05 1.16409E-08-4.46643E-19-7.82200E-19
 -1      2631 9.52542E-05-2.85488E-05-2.85879E-05 2.23134E-08-2.53200E-19-4.84668E-19
 -1      2632 1.40888E-04-5.11064E-05-3.84542E-05 7.45941E-06-1.19551E-18 2.19318E-18
 -1      2633 6.89907E-05-3.91642E-05-1.23112E-05 3.69763E-05-1.69936E-18 3.65325E-18
 -1      2634 1.07047E-04-5.71019E-05-2.10751E-05 3.37087E-05-6.46074E-19 2.18124E-18
 -1      2635 9.52548E-05-2.85497E-05-2.85876E-05-2.60037E-08 2.42746E-19 1.13053E-18
 -1      2636 9.52505E-05-2.85399E-05-2.85906E-05-3.44882E-08-1.86574E-19-3.97800E-19
 -1      2637 9.52513E-05-2.85203E-05-2.85987E-05-5.76158E-08-2.76244E-19-2.84266E-19
 -1      2638 9.52627E-05-2.85454E-05-2.85923E-05-4.03986E-08-3.84866E-19 9.67623E-19
 -1      2639 5.46153E-05-3.24336E-05-9.06246E-06-3.44014E-05-1.14053E-18-3.30279E-18
 -1      2640 2.62141E-05-1.42794E-05-4.48705E-06-5.72852E-06-1.45397E-18 2.02208E-18
 -1      2641 9.48212E-05-2.05550E-05-3.17844E-05 9.26663E-06 3.37888E-18-3.96233E-19
 -1      2642 3.71106E-05-2.07725E-05-6.40761E-06 2.19722E-05-1.25551E-18 4.17015E-18
 -1      2643 2.99503E-05-1.72926E-05-4.89720E-06-1.31588E-05-6.86044E-19-4.04839E-18
 -1      2644 1.43461E-04-4.25701E-05-4.34839E-05 2.04625E-05 5.64336E-19 7.83505E-21
 -1      2645 1.51031E-04-5.89780E-05-3.95155E-05-1.69380E-07 8.52009E-19 8.27975E-19
 -1      2646 1.41789E-04-4.03791E-05-4.35587E-05 3.67871E-06 7.70059E-19-2.96080E-18
 -1      2647 1.52645E-04-3.94783E-05-4.85699E-05 1.67590E-05 9.41901E-19-5.04832E-19
 -1      2648 9.21688E-05-1.62250E-05-3.25816E-05-9.99133E-06-2.63410E-18-3.09393E-18
 -1      2649 5.30124E-05-3.27464E-05-8.37302E-06 4.10795E-05 1.41095E-18-4.21717E-18
 -1      2650 4.54337E-05-2.49065E-05-8.11300E-06 3.57796E-05 1.58893E-18-4.05221E-18
 -1      2651 6.65935E-05-3.56841E-05-1.29270E-05 4.15575E-05 2.26581E-18-2.18820E-18
 -1      2652 1.24245E-04-6.23391E-05-2.63136E-05-2.67624E-05-1.01432E-19-4.62056E-19
 -1      2653 1.33432E-04-6.39033E-05-3.02428E-05-1.67764E-05-2.40346E-19 1.05816E-18
 -1      2654 1.16053E-04-5.89227E-05-2.41325E-05-2.93113E-05-8.73820E-19-7.87119E-19
 -1      2655 1.51846E-04-3.27167E-05-5.11351E-05-1.66672E-05 4.50770E-18-1.04799E-18
 -1      2656 1.43466E-04-2.25469E-05-5.20053E-05 1.15847E-05 3.20665E-18 3.60360E-19
 -1      2657 2.57658E-05-1.71664E-05-3.14349E-06 1.62853E-05 1.17701E-18-5.52138E-18
 -1      2658 2.98985E-05-1.26886E-05-6.85682E-06 1.02202E-05 7.63653E-19-4.77218E-18
 -1      2659 3.33807E-05-1.74515E-05-6.36374E-06 2.48413E-05 1.37336E-18-4.80247E-18
 -1      2660 1.35658E-04-5.59173E-05-3.41223E-05-1.48394E-05 1.65214E-18-1.82599E-18
 -1      2661 9.52564E-05-2.85305E-05-2.85965E-05 4.44665E-08-2.97808E-19 3.41697E-19
 -1      2662 9.52646E-05-2.85299E-05-2.86012E-05-6.68550E-08-8.28424E-19 6.14472E-19
 -1      2663 9.02497E-05-1.46261E-05-3.24320E-05 2.92102E-06 1.54184E-18-3.67015E-18
 -1      2664 9.00214E-05-1.43245E-05-3.24628E-05 2.05740E-06 1.29749E-18-3.76820E-18
 -1      2665 8.98592E-05-1.40976E-05-3.24894E-05 1.30985E-06 1.05340E-18-3.87400E-18
 -1      2666 8.97814E-05-1.39966E-05-3.24989E-05 4.31479E-07 7.91326E-19-3.95731E-18
 -1      2667 9.09798E-05-1.58956E-05-3.21639E-05 1.46612E-06 1.13941E-18-3.59748E-18
 -1      2668 9.20762E-05-1.72340E-05-3.21117E-05 5.98464E-06 2.72405E-18-2.36118E-18
 -1      2669 9.14861E-05-1.63804E-05-3.22125E-05 5.17688E-06 2.40851E-18-2.74720E-18
 -1      2670 9.36173E-05-1.95946E-05-3.17651E-05 7.08933E-06 3.08791E-18-1.76474E-18
 -1      2671 9.27749E-05-1.82836E-05-3.19438E-05 6.51215E-06 2.88813E-18-2.05358E-18
 -1      2672 9.33740E-05-1.95218E-05-3.16272E-05 5.17408E-06 2.63014E-18-2.00010E-18
 -1      2673 9.54329E-05-2.52970E-05-3.00669E-05 3.38072E-06 2.41463E-18-5.88695E-19
 -1      2674 9.57162E-05-2.44676E-05-3.05027E-05 5.08937E-06 2.66509E-18-4.01516E-19
 -1      2675 4.66521E-05-2.16331E-05-1.04719E-05 2.70230E-05-1.83658E-18 3.85358E-18
 -1      2676 3.57803E-05-1.48967E-05-8.38391E-06 1.51336E-05-2.00106E-18 4.36074E-18
 -1      2677 9.52897E-05-2.65193E-05-2.94743E-05 9.70862E-07 1.85163E-18-6.33537E-19
 -1      2678 9.54838E-05-2.60450E-05-2.97231E-05 2.09126E-06 2.11714E-18-5.65155E-19
 -1      2679 9.54249E-05-2.48130E-05-3.02614E-05 3.11105E-06 2.33484E-18-1.11456E-18
 -1      2680 1.05520E-04-5.28772E-05-2.20549E-05-3.55973E-05 2.21203E-18 7.66499E-20
 -1      2681 1.19911E-04-5.78299E-05-2.69489E-05-2.82681E-05 2.09831E-18-1.07173E-18
 -1      2682 9.55280E-05-2.57161E-05-2.98924E-05-1.97456E-06-1.69688E-18-1.94409E-18
 -1      2683 9.54197E-05-2.62833E-05-2.96378E-05-8.89632E-07-1.54956E-18-1.86412E-18
 -1      2684 9.54637E-05-2.67696E-05-2.94179E-05-2.74351E-08-1.47555E-18-1.75146E-18
 -1      2685 9.54050E-05-2.71119E-05-2.92711E-05 7.03666E-07-1.27042E-18-1.88090E-18
 -1      2686 9.55307E-05-2.60027E-05-2.98042E-05-6.66374E-07-1.50571E-18-1.85467E-18
 -1      2687 9.54053E-05-2.73932E-05-2.91329E-05 1.32036E-06-1.03048E-18-1.87496E-18
 -1      2688 9.54274E-05-2.76169E-05-2.90607E-05 1.82189E-06-8.18154E-19-1.81755E-18
 -1      2689 9.55830E-05-2.69276E-05-2.94323E-05 8.93086E-07-1.27055E-18-1.88473E-18
 -1      2690 9.54373E-05-2.77897E-05-2.89822E-05 2.26815E-06-6.65363E-19-1.87291E-18
 -1      2691 9.55396E-05-2.79550E-05-2.89619E-05 2.62225E-06-6.11412E-19-1.92951E-18
 -1      2692 9.56061E-05-2.74917E-05-2.92003E-05 2.02001E-06-8.75939E-19-2.05298E-18
 -1      2693 9.55845E-05-2.80767E-05-2.89258E-05 2.95524E-06-7.19309E-19-2.01122E-18
 -1      2694 9.57606E-05-2.82231E-05-2.89408E-05 3.21175E-06-6.88111E-19-2.22759E-18
 -1      2695 9.56719E-05-2.78601E-05-2.90698E-05 2.85021E-06-8.32043E-19-2.18165E-18
 -1      2696 9.58577E-05-2.83359E-05-2.89337E-05 3.46689E-06-5.59384E-19-2.04004E-18
 -1      2697 9.61039E-05-2.84952E-05-2.89715E-05 3.64951E-06-5.49476E-19-1.88603E-18
 -1      2698 9.58218E-05-2.81473E-05-2.90105E-05 3.47996E-06-5.87950E-19-2.17429E-18
 -1      2699 9.62717E-05-2.86364E-05-2.89825E-05 3.84076E-06-5.01214E-19-1.80790E-18
 -1      2700 9.65885E-05-2.88387E-05-2.90332E-05 3.95038E-06-6.22774E-19-1.57851E-18
 -1      2701 9.60916E-05-2.84462E-05-2.89982E-05 3.96264E-06-5.02339E-19-1.65998E-18
 -1      2702 9.68506E-05-2.90448E-05-2.90542E-05 4.07022E-06-9.87144E-19-1.21376E-18
 -1      2703 9.72419E-05-2.93192E-05-2.91098E-05 4.08666E-06-1.08011E-18-1.07016E-18
 -1      2704 9.65238E-05-2.88437E-05-2.90140E-05 4.30852E-06-6.28013E-19-1.52576E-18
 -1      2705 9.76276E-05-2.96260E-05-2.91353E-05 4.10555E-06-1.00589E-18-6.89801E-19
 -1      2706 9.80969E-05-2.99970E-05-2.91896E-05 3.98921E-06-7.29270E-19-6.96845E-19
 -1      2707 9.71718E-05-2.94245E-05-2.90446E-05 4.48416E-06-8.70437E-19-9.72669E-19
 -1      2708 9.86370E-05-3.04335E-05-2.92178E-05 3.85539E-06-6.29820E-19-8.51225E-19
 -1      2709 9.91802E-05-3.09114E-05-2.92675E-05 3.55140E-06-2.43593E-19-1.02039E-18
 -1      2710 9.80970E-05-3.02651E-05-2.90833E-05 4.41124E-06-7.82521E-19-6.89340E-19
 -1      2711 9.98962E-05-3.14860E-05-2.93019E-05 3.19345E-06-1.85039E-19-1.37817E-18
 -1      2712 1.00490E-04-3.20496E-05-2.93482E-05 2.64169E-06-1.75239E-19-1.51101E-18
 -1      2713 9.93541E-05-3.14110E-05-2.91334E-05 3.96770E-06-4.51429E-19-5.02591E-19
 -1      2714 1.01373E-04-3.27264E-05-2.93999E-05 1.97901E-06-2.86630E-19-1.47357E-18
 -1      2715 1.01960E-04-3.32985E-05-2.94499E-05 1.13511E-06-3.42369E-19-1.62971E-18
 -1      2716 1.00959E-04-3.28346E-05-2.92122E-05 2.99787E-06-3.86581E-19-1.10138E-18
 -1      2717 1.02935E-04-3.39657E-05-2.95391E-05 1.05451E-07-6.14969E-19-1.30881E-18
 -1      2718 1.03406E-04-3.43890E-05-2.96069E-05-1.02227E-06-7.87926E-19-1.26417E-18
 -1      2719 1.02836E-04-3.43698E-05-2.93555E-05 1.34574E-06-4.78979E-19-8.46733E-19
 -1      2720 1.04301E-04-3.48335E-05-2.97609E-05-2.40698E-06-9.78201E-19-1.32200E-18
 -1      2721 1.04498E-04-3.48702E-05-2.98658E-05-3.70310E-06-9.87280E-19-1.31491E-18
 -1      2722 1.04743E-04-3.56425E-05-2.96170E-05-1.06653E-06-9.73323E-19-6.92873E-19
 -1      2723 1.05036E-04-3.47944E-05-3.01123E-05-5.26890E-06-5.88200E-19-1.28287E-18
 -1      2724 1.04799E-04-3.41897E-05-3.02700E-05-6.46020E-06-4.46951E-19-9.31375E-19
 -1      2725 1.06223E-04-3.60483E-05-3.00595E-05-4.09222E-06-7.56465E-19-5.47093E-19
 -1      2726 1.04673E-04-3.33184E-05-3.06162E-05-7.78339E-06-3.78569E-19-9.86402E-19
 -1      2727 1.03944E-04-3.19701E-05-3.08254E-05-8.42967E-06-1.71305E-19-4.78166E-19
 -1      2728 1.06674E-04-3.48997E-05-3.07258E-05-7.16430E-06-3.46911E-19-4.93976E-19
 -1      2729 1.03056E-04-3.03069E-05-3.12376E-05-8.88666E-06 9.81185E-20-2.33721E-19
 -1      2730 1.01997E-04-2.84566E-05-3.14654E-05-8.53903E-06 3.80387E-19-4.70528E-19
 -1      2731 1.05654E-04-3.18585E-05-3.15872E-05-9.19496E-06 1.09799E-19-2.53448E-19
 -1      2732 1.00660E-04-2.64751E-05-3.18497E-05-7.52197E-06 2.66196E-19-5.34607E-19
 -1      2733 9.97334E-05-2.48686E-05-3.20295E-05-5.96612E-06 9.03543E-19-1.06583E-18
 -1      2734 1.03331E-04-2.74503E-05-3.25027E-05-8.81919E-06 2.47520E-19-1.82145E-20
 -1      2735 9.87721E-05-2.35493E-05-3.22642E-05-3.59530E-06 1.04670E-18-1.01310E-18
 -1      2736 9.84068E-05-2.29116E-05-3.23336E-05-1.23807E-06 7.15108E-19-1.38772E-18
 -1      2737 1.00956E-04-2.34847E-05-3.32141E-05-5.37551E-06 7.31202E-19-4.46396E-19
 -1      2738 9.84410E-05-2.29527E-05-3.23262E-05 1.72613E-06 6.36727E-19-1.35906E-18
 -1      2739 9.88630E-05-2.36712E-05-3.22516E-05 4.06181E-06 1.00642E-19-1.11368E-18
 -1      2740 9.99768E-05-2.19418E-05-3.34796E-05 2.74744E-07 9.32750E-19-1.55217E-18
 -1      2741 9.98949E-05-2.50768E-05-3.20063E-05 6.37093E-06-5.47377E-19-1.42309E-18
 -1      2742 1.00864E-04-2.67319E-05-3.18262E-05 7.84850E-06-2.22359E-19-1.56283E-18
 -1      2743 1.01089E-04-2.36813E-05-3.31830E-05 5.85438E-06-4.66005E-19-7.27547E-19
 -1      2744 1.02180E-04-2.86971E-05-3.14435E-05 8.75214E-06-3.83770E-20-1.96717E-18
 -1      2745 1.03236E-04-3.05127E-05-3.12235E-05 9.03944E-06 3.21864E-19-2.50095E-18
 -1      2746 1.03529E-04-2.77326E-05-3.24583E-05 9.09150E-06-2.97438E-19-6.67005E-19
 -1      2747 1.04078E-04-3.21225E-05-3.08211E-05 8.53046E-06 7.95299E-19-2.73117E-18
 -1      2748 1.04791E-04-3.34169E-05-3.06226E-05 7.85263E-06 1.03399E-18-2.59517E-18
 -1      2749 1.05780E-04-3.20617E-05-3.15573E-05 9.29558E-06 2.58216E-19-1.39720E-18
 -1      2750 1.04860E-04-3.42112E-05-3.02888E-05 6.52162E-06 4.61979E-19-2.84239E-18
 -1      2751 1.05078E-04-3.47554E-05-3.01437E-05 5.34761E-06-2.11345E-19-2.88487E-18
 -1      2752 1.06698E-04-3.49485E-05-3.07175E-05 7.20884E-06 7.41364E-19-2.02947E-18
 -1      2753 1.04509E-04-3.47741E-05-2.99120E-05 3.82703E-06-7.95632E-20-2.41110E-18
 -1      2754 1.04309E-04-3.46970E-05-2.98206E-05 2.57972E-06 5.54376E-20-2.10168E-18
 -1      2755 1.06155E-04-3.59333E-05-3.00801E-05 4.18627E-06 3.59494E-19-2.43930E-18
 -1      2756 1.03405E-04-3.42176E-05-2.96800E-05 1.26607E-06-2.62230E-19-1.60808E-18
 -1      2757 1.02949E-04-3.37742E-05-2.96256E-05 2.07556E-07-9.52424E-20-1.18088E-18
 -1      2758 1.04634E-04-3.54180E-05-2.96669E-05 1.28525E-06-8.92441E-20-6.40442E-19
 -1      2759 1.01981E-04-3.30904E-05-2.95480E-05-7.39219E-07 7.38944E-19-1.49579E-18
 -1      2760 1.01423E-04-3.25139E-05-2.95113E-05-1.50352E-06 9.54986E-19-2.73253E-19
 -1      2761 1.02727E-04-3.40860E-05-2.94304E-05-9.68050E-07 2.41636E-19-8.72986E-20
 -1      2762 1.00555E-04-3.18322E-05-2.94690E-05-2.07953E-06 1.22948E-20-3.20261E-19
 -1      2763 1.00000E-04-3.12752E-05-2.94360E-05-2.54773E-06 6.84823E-21-3.90703E-19
 -1      2764 1.00873E-04-3.25258E-05-2.93070E-05-2.44798E-06 4.87062E-19-7.68345E-19
 -1      2765 9.92994E-05-3.07023E-05-2.94085E-05-2.82019E-06-8.92993E-20-4.08549E-19
 -1      2766 9.88033E-05-3.02392E-05-2.93717E-05-3.04156E-06-4.31209E-19-5.72527E-19
 -1      2767 9.92980E-05-3.10994E-05-2.92422E-05-3.24503E-06 6.47318E-20-3.01859E-19
 -1      2768 9.82755E-05-2.98093E-05-2.93471E-05-3.09512E-06-7.84639E-19-5.36002E-19
 -1      2769 9.78572E-05-2.94608E-05-2.93042E-05-3.13490E-06-1.00605E-18-6.99695E-19
 -1      2770 9.80702E-05-2.99652E-05-2.91993E-05-3.52390E-06-7.30931E-19-5.21698E-19
 -1      2771 9.74785E-05-2.91669E-05-2.92771E-05-3.04675E-06-7.32881E-19-1.03184E-19
 -1      2772 9.71382E-05-2.89249E-05-2.92292E-05-2.96709E-06-7.55840E-20 2.06437E-19
 -1      2773 9.71669E-05-2.91514E-05-2.91581E-05-3.45045E-06-8.38220E-19-5.24266E-19
 -1      2774 9.68757E-05-2.87419E-05-2.91984E-05-2.79825E-06 1.69776E-19 4.57758E-19
 -1      2775 9.66049E-05-2.85862E-05-2.91483E-05-2.65008E-06 3.71898E-20 9.79817E-19
 -1      2776 9.65291E-05-2.86195E-05-2.91103E-05-3.16270E-06-2.31526E-20 7.78024E-19
 -1      2777 9.64274E-05-2.84853E-05-2.91149E-05-2.44474E-06-1.51487E-19 6.36777E-19
 -1      2778 9.62152E-05-2.83938E-05-2.90653E-05-2.26579E-06-2.22621E-20 6.07692E-19
 -1      2779 9.60922E-05-2.83073E-05-2.90550E-05-2.76431E-06-5.77976E-19-1.15497E-18
 -1      2780 9.60972E-05-2.83491E-05-2.90311E-05-2.05362E-06-3.98888E-19 3.47633E-19
 -1      2781 9.59326E-05-2.83021E-05-2.89845E-05-1.86958E-06-1.34217E-18-1.30399E-19
 -1      2782 9.57992E-05-2.81522E-05-2.89947E-05-2.32749E-06-6.84339E-19-1.20723E-18
 -1      2783 9.58550E-05-2.82930E-05-2.89512E-05-1.66893E-06-1.50776E-18 1.25606E-20
 -1      2784 9.57286E-05-2.82750E-05-2.89093E-05-1.49570E-06-5.54995E-19 3.65030E-19
 -1      2785 9.56057E-05-2.81008E-05-2.89329E-05-1.89901E-06-7.22433E-19-1.39986E-18
 -1      2786 9.56778E-05-2.82863E-05-2.88783E-05-1.31660E-06-3.44582E-19 5.22124E-19
 -1      2787 9.55818E-05-2.82859E-05-2.88419E-05-1.16279E-06-4.21232E-19 1.63852E-19
 -1      2788 9.54791E-05-2.81125E-05-2.88731E-05-1.50638E-06-6.18319E-19-1.41821E-19
 -1      2789 9.55485E-05-2.83075E-05-2.88142E-05-1.00954E-06 2.98793E-19-1.39061E-19
 -1      2790 9.54763E-05-2.83168E-05-2.87835E-05-8.78722E-07 4.39354E-19 5.64100E-19
 -1      2791 9.53966E-05-2.81583E-05-2.88177E-05-1.16334E-06-2.82646E-19-1.31256E-19
 -1      2792 9.54543E-05-2.83420E-05-2.87595E-05-7.51903E-07-1.35691E-19 1.37702E-18
 -1      2793 9.54008E-05-2.83558E-05-2.87343E-05-6.44386E-07-8.84469E-20 4.88208E-19
 -1      2794 9.53427E-05-2.82191E-05-2.87683E-05-8.74398E-07 7.51172E-20-3.24272E-19
 -1      2795 9.53861E-05-2.83808E-05-2.87142E-05-5.42435E-07 5.10998E-19 3.92805E-19
 -1      2796 9.53471E-05-2.83959E-05-2.86940E-05-4.56649E-07 2.21521E-18 2.04061E-19
 -1      2797 9.53073E-05-2.82828E-05-2.87256E-05-6.38308E-07 3.18707E-19 1.75731E-19
 -1      2798 9.53369E-05-2.84184E-05-2.86774E-05-3.76758E-07 2.63272E-18-8.19908E-19
 -1      2799 9.53089E-05-2.84329E-05-2.86616E-05-3.10104E-07 2.36645E-18-8.04084E-19
 -1      2800 9.52836E-05-2.83426E-05-2.86896E-05-4.50581E-07 1.52087E-18-1.19701E-18
 -1      2801 9.53016E-05-2.84522E-05-2.86482E-05-2.49087E-07 1.78519E-18-1.57769E-18
 -1      2802 9.52820E-05-2.84656E-05-2.86360E-05-1.98738E-07 1.32882E-19-2.34150E-18
 -1      2803 9.52673E-05-2.83951E-05-2.86600E-05-3.04948E-07 9.48955E-19-4.21257E-18
 -1      2804 9.52766E-05-2.84820E-05-2.86252E-05-1.53828E-07 1.04905E-19-1.14423E-18
 -1      2805 9.52632E-05-2.84933E-05-2.86158E-05-1.17436E-07 5.11096E-19-1.39435E-18
 -1      2806 9.52557E-05-2.84403E-05-2.86357E-05-1.95007E-07 7.54601E-19-3.68258E-18
 -1      2807 9.52840E-05-2.76946E-05-2.89573E-05-2.92073E-06 1.05022E-18-1.03944E-18
 -1      2808 9.51343E-05-2.76069E-05-2.89319E-05-2.46864E-06 1.15359E-18-8.95211E-19
 -1      2809 5.01408E-05-2.54189E-05-1.00737E-05-2.98339E-05-1.03454E-18-2.78250E-18
 -1      2810 6.59789E-05-3.43250E-05-1.32755E-05-3.60331E-05-1.30464E-18-3.15604E-18
 -1      2811 9.51577E-05-2.75268E-05-2.89782E-05-1.94264E-06 1.20791E-18-8.21794E-19
 -1      2812 9.51163E-05-2.73713E-05-2.90172E-05-1.39024E-06 1.43518E-18-6.05349E-19
 -1      2813 9.53399E-05-2.73138E-05-2.91633E-05-2.21218E-06 1.36432E-18-1.17132E-18
 -1      2814 9.58515E-05-2.76667E-05-2.92066E-05-4.74318E-06 3.47787E-19-9.64622E-19
 -1      2815 9.55356E-05-2.76665E-05-2.90891E-05-4.27510E-06 4.98136E-19-1.07383E-18
 -1      2816 9.62401E-05-2.75074E-05-2.94382E-05-5.81574E-06 3.44472E-19-1.22207E-18
 -1      2817 9.58558E-05-2.75388E-05-2.92853E-05-5.26175E-06 4.57346E-19-1.18019E-18
 -1      2818 9.53781E-05-2.71430E-05-2.92445E-05-5.24831E-06 4.51616E-19-1.23310E-18
 -1      2819 9.66668E-05-2.72719E-05-2.97187E-05-7.11015E-06 8.41483E-20-9.45077E-19
 -1      2820 9.62159E-05-2.73223E-05-2.95364E-05-6.43396E-06 1.40949E-19-1.05631E-18
 -1      2821 9.53654E-05-2.67740E-05-2.93938E-05-6.40956E-06 4.15075E-19-1.29832E-18
 -1      2822 9.71202E-05-2.70029E-05-3.00252E-05-8.68123E-06-1.88091E-19-6.49561E-19
 -1      2823 9.65948E-05-2.70422E-05-2.98226E-05-7.86293E-06 4.94034E-20-7.81745E-19
 -1      2824 9.52766E-05-2.62852E-05-2.95613E-05-7.79303E-06-6.97586E-20-7.76221E-19
 -1      2825 9.76245E-05-2.68081E-05-3.03220E-05-1.05438E-05 5.50770E-20-2.20911E-19
 -1      2826 9.69950E-05-2.67674E-05-3.01149E-05-9.59222E-06-9.12049E-21-2.83209E-19
 -1      2827 9.50855E-05-2.57382E-05-2.97100E-05-9.45530E-06-2.61255E-19-3.26480E-19
 -1      2828 9.82964E-05-2.69312E-05-3.05545E-05-1.26441E-05-4.04013E-19-2.47521E-19
 -1      2829 9.74823E-05-2.66642E-05-3.03683E-05-1.16200E-05-9.59951E-20-3.80809E-19
 -1      2830 9.48153E-05-2.52857E-05-2.97868E-05-1.14284E-05-1.41034E-19 1.98783E-19
 -1      2831 9.94565E-05-2.78608E-05-3.06508E-05-1.48117E-05-2.47033E-19-3.03756E-19
 -1      2832 9.82720E-05-2.70872E-05-3.05189E-05-1.38644E-05-3.82414E-19-1.41653E-19
 -1      2833 9.46173E-05-2.52611E-05-2.97180E-05-1.37133E-05-2.80810E-19-1.92721E-19
 -1      2834 1.01810E-04-3.04511E-05-3.05468E-05-1.66745E-05-3.82174E-19-4.85724E-19
 -1      2835 9.98797E-05-2.86955E-05-3.04938E-05-1.60982E-05-7.23556E-21-2.92402E-19
 -1      2836 9.49183E-05-2.63128E-05-2.94178E-05-1.62610E-05-2.33905E-19-2.63897E-19
 -1      2837 1.06938E-04-3.62484E-05-3.02535E-05-1.74587E-05-7.24901E-19-5.02118E-19
 -1      2838 1.03495E-04-3.27315E-05-3.02489E-05-1.78381E-05-6.18949E-19-6.53771E-19
 -1      2839 9.67398E-05-2.96717E-05-2.88098E-05-1.89879E-05-4.53130E-19-5.20740E-19
 -1      2840 1.16067E-04-4.57258E-05-3.00929E-05-1.57105E-05-1.11448E-18-4.95549E-19
 -1      2841 1.10869E-04-4.03292E-05-2.99861E-05-1.77502E-05-8.04539E-19-1.43456E-19
 -1      2842 1.01983E-04-3.68670E-05-2.80165E-05-2.12344E-05-9.05055E-19-7.24974E-19
 -1      2843 1.33049E-04-5.92370E-05-3.17164E-05-8.73533E-06-3.68936E-19-3.01173E-19
 -1      2844 1.26199E-04-5.51497E-05-3.02696E-05-1.37923E-05-8.77632E-19-2.68212E-19
 -1      2845 1.37922E-04-1.98673E-05-5.11472E-05-6.56224E-06 3.84659E-18-1.10035E-18
 -1      2846 1.40831E-04-5.93049E-05-3.49542E-05-1.68996E-06 2.91062E-19-3.02343E-18
 -1      2847 1.45813E-04-5.62390E-05-3.84683E-05-7.97928E-06 1.06554E-18-3.91869E-18
 -1      2848 1.07046E-04-3.55040E-05-3.05186E-05 1.74056E-05-2.77233E-18-5.58188E-19
 -1      2849 1.11364E-04-3.96946E-05-3.06351E-05 1.61139E-05-3.13537E-18-9.29817E-19
 -1      2850 1.02182E-04-3.03437E-05-3.07580E-05 1.63279E-05-2.39087E-18 7.34536E-22
 -1      2851 1.04591E-04-3.26478E-05-3.07982E-05 1.65280E-05-2.32096E-18 3.21432E-19
 -1      2852 9.94702E-05-3.22900E-05-2.88733E-05 1.93574E-05-3.14511E-18-6.88413E-20
 -1      2853 9.97232E-05-2.77795E-05-3.08339E-05 1.41350E-05-5.08620E-19-8.08097E-19
 -1      2854 1.01236E-04-2.89446E-05-3.09540E-05 1.50384E-05-1.02949E-18-6.67278E-20
 -1      2855 9.63903E-05-2.76063E-05-2.95189E-05 1.68159E-05-1.50882E-18-3.80425E-19
 -1      2856 9.86218E-05-2.69636E-05-3.07233E-05 1.17668E-05-1.37244E-18-1.18475E-18
 -1      2857 9.95640E-05-2.73983E-05-3.08988E-05 1.28316E-05-1.26986E-18-1.32479E-18
 -1      2858 9.54564E-05-2.56913E-05-2.99033E-05 1.40879E-05-4.90582E-19-4.58950E-19
 -1      2859 9.80003E-05-2.68815E-05-3.04938E-05 9.51976E-06-4.76004E-19-1.47543E-18
 -1      2860 9.86859E-05-2.69981E-05-3.06954E-05 1.05695E-05-6.73517E-19-1.28970E-18
 -1      2861 9.54157E-05-2.53316E-05-3.00274E-05 1.15750E-05-1.08582E-18-1.42955E-18
 -1      2862 9.75579E-05-2.70919E-05-3.02123E-05 7.54108E-06 1.63224E-18-1.90724E-18
 -1      2863 9.80984E-05-2.70759E-05-3.04126E-05 8.47588E-06 5.94319E-19-1.75660E-18
 -1      2864 9.56022E-05-2.56200E-05-2.99821E-05 9.33735E-06 3.10455E-19-1.64405E-18
 -1      2865 9.71786E-05-2.73762E-05-2.99252E-05 5.87604E-06 2.99224E-19-1.09198E-18
 -1      2866 9.76213E-05-2.73168E-05-3.01079E-05 6.66244E-06 1.09461E-18-1.37289E-18
 -1      2867 9.57728E-05-2.61220E-05-2.98425E-05 7.41308E-06 9.92265E-19-1.49955E-18
 -1      2868 9.68317E-05-2.76433E-05-2.96595E-05 4.51646E-06 2.34047E-19-3.60548E-19
 -1      2869 9.71969E-05-2.75786E-05-2.98171E-05 5.15513E-06 4.56774E-19-7.73577E-19
 -1      2870 9.58598E-05-2.66357E-05-2.96626E-05 5.80255E-06-1.60288E-19-1.24230E-18
 -1      2871 9.65164E-05-2.78642E-05-2.94276E-05 3.42936E-06-1.41632E-19 7.48154E-20
 -1      2872 9.68149E-05-2.78076E-05-2.95586E-05 3.93622E-06-1.66044E-19-2.39271E-19
 -1      2873 9.58662E-05-2.70826E-05-2.94764E-05 4.48370E-06 1.56971E-19 2.04567E-21
 -1      2874 9.62384E-05-2.80363E-05-2.92331E-05 2.57334E-06 1.62938E-19 1.89689E-19
 -1      2875 9.64787E-05-2.79909E-05-2.93390E-05 2.96924E-06-2.99459E-19-2.06379E-20
 -1      2876 9.58171E-05-2.74432E-05-2.93026E-05 3.42240E-06-3.14482E-19 4.59275E-19
 -1      2877 9.60017E-05-2.81670E-05-2.90745E-05 1.90721E-06 5.15739E-19 7.85089E-19
 -1      2878 9.61917E-05-2.81315E-05-2.91583E-05 2.21281E-06 2.13043E-19 2.89860E-19
 -1      2879 9.57382E-05-2.77231E-05-2.91499E-05 2.58039E-06-9.76093E-20-2.04415E-19
 -1      2880 9.58068E-05-2.82651E-05-2.89481E-05 1.39396E-06 9.95044E-19 1.31647E-18
 -1      2881 9.59540E-05-2.82376E-05-2.90132E-05 1.62762E-06 1.01621E-18 9.58421E-19
 -1      2882 9.56491E-05-2.79362E-05-2.90209E-05 1.92027E-06 4.21791E-19 2.63354E-19
 -1      2883 9.56509E-05-2.83387E-05-2.88491E-05 1.00206E-06 5.24454E-19 2.28845E-18
 -1      2884 9.57629E-05-2.83173E-05-2.88990E-05 1.17918E-06 8.40803E-19 1.66874E-18
 -1      2885 9.55623E-05-2.80969E-05-2.89151E-05 1.40820E-06 8.31675E-19 1.53685E-18
 -1      2886 9.55297E-05-2.83944E-05-2.87729E-05 7.05468E-07-1.26126E-19 2.05158E-18
 -1      2887 9.56132E-05-2.83774E-05-2.88105E-05 8.38590E-07 2.37899E-19 1.68952E-18
 -1      2888 9.54850E-05-2.82176E-05-2.88302E-05 1.01489E-06 1.04872E-19 2.00915E-18
 -1      2889 9.54379E-05-2.84368E-05-2.87152E-05 4.83153E-07 4.32415E-20 2.01345E-18
 -1      2890 9.54988E-05-2.84231E-05-2.87431E-05 5.82266E-07 1.49073E-20 2.55633E-18
 -1      2891 9.54199E-05-2.83083E-05-2.87633E-05 7.15797E-07-4.51320E-19 2.19151E-18
 -1      2892 9.53703E-05-2.84695E-05-2.86720E-05 3.18400E-07 1.40807E-18 2.28972E-18
 -1      2893 9.54135E-05-2.84583E-05-2.86924E-05 3.91352E-07 7.12153E-19 1.87500E-18
 -1      2894 9.53675E-05-2.83766E-05-2.87114E-05 4.90819E-07 5.16707E-19 3.04387E-18
 -1      2895 9.53216E-05-2.84948E-05-2.86402E-05 1.98132E-07 1.39728E-19 3.54928E-18
 -1      2896 9.53514E-05-2.84855E-05-2.86548E-05 2.50986E-07 1.20969E-18 3.61880E-18
 -1      2897 9.53267E-05-2.84281E-05-2.86717E-05 3.23809E-07 7.49417E-19 2.84434E-18
 -1      2898 9.52881E-05-2.85149E-05-2.86168E-05 1.12591E-07-9.50181E-19 2.36653E-18
 -1      2899 9.53075E-05-2.85073E-05-2.86272E-05 1.49184E-07-1.82734E-19 2.76291E-18
 -1      2900 9.52953E-05-2.84669E-05-2.86414E-05 2.01806E-07 8.60318E-19 3.26377E-18
 -1      2901 9.52645E-05-2.85253E-05-2.86023E-05 6.26525E-08-8.83181E-19 5.83686E-19
 -1      2902 9.52764E-05-2.85174E-05-2.86101E-05 8.83237E-08-1.07345E-18 6.30847E-19
 -1      2903 9.52714E-05-2.84900E-05-2.86215E-05 1.25275E-07 1.66632E-19 1.79071E-18
 -1      2904 9.52540E-05-2.85034E-05-2.86081E-05 8.00191E-08 1.28909E-19 9.69311E-19
 -1      2905 9.51137E-05-2.83164E-05-2.86279E-05 1.58652E-08 1.09965E-18-5.19352E-19
 -1      2906 9.51178E-05-2.83204E-05-2.86277E-05 3.56790E-08 2.06631E-18-1.56284E-18
 -1      2907 9.52608E-05-2.85033E-05-2.86095E-05-9.47178E-08 3.48787E-19-1.54785E-18
 -1      2908 9.52542E-05-2.85109E-05-2.86042E-05-7.62439E-08 2.17750E-19-2.75996E-19
 -1      2909 9.52488E-05-2.84734E-05-2.86186E-05-1.25137E-07 2.85472E-19-2.54423E-18
 -1      2910 9.51539E-05-2.83635E-05-2.86253E-05 9.14707E-08 1.87974E-18 3.40652E-19
 -1      2911 9.51700E-05-2.83810E-05-2.86235E-05 9.99411E-08 2.07926E-18-9.45674E-19
 -1      2912 9.51171E-05-2.83210E-05-2.86271E-05-3.00090E-08 3.57549E-19-2.59055E-20
 -1      2913 9.51136E-05-2.83169E-05-2.86276E-05-1.00687E-08 2.31969E-19 7.61866E-19
 -1      2914 9.50869E-05-2.82685E-05-2.86355E-05 2.42922E-09 1.01202E-18-9.60926E-19
 -1      2915 9.51267E-05-2.83312E-05-2.86273E-05 5.91637E-08 1.28326E-18-8.34246E-19
 -1      2916 9.51378E-05-2.83428E-05-2.86264E-05 7.49105E-08 1.45506E-18 5.24485E-19
 -1      2917 9.51257E-05-2.83108E-05-2.86342E-05 9.99750E-08 8.16305E-19-3.14247E-20
 -1      2918 9.50972E-05-2.82788E-05-2.86356E-05 5.60839E-08 1.85135E-18-1.37080E-18
 -1      2919 9.51637E-05-2.71757E-05-2.91348E-05-7.17101E-07 1.54681E-18-6.78193E-19
 -1      2920 9.52454E-05-2.69086E-05-2.92607E-05 4.23233E-08 1.61985E-18-5.69269E-19
 -1      2921 9.54562E-05-2.61922E-05-2.96930E-05 7.71788E-07 1.82449E-18-1.10269E-18
 -1      2922 9.53931E-05-2.69452E-05-2.93457E-05-9.32217E-07 1.54669E-18-1.00201E-18
 -1      2923 9.51354E-05-2.83436E-05-2.86250E-05-6.91732E-08 1.26710E-19-1.49222E-18
 -1      2924 9.51253E-05-2.83324E-05-2.86262E-05-5.32174E-08-4.14765E-20-8.96315E-19
 -1      2925 9.50962E-05-2.82808E-05-2.86343E-05-5.07868E-08 4.06474E-19-7.01755E-19
 -1      2926 9.51659E-05-2.83815E-05-2.86216E-05-9.56951E-08 1.22149E-18-2.90596E-18
 -1      2927 9.51507E-05-2.83644E-05-2.86235E-05-8.62647E-08 8.50181E-19-1.64229E-18
 -1      2928 9.51229E-05-2.83134E-05-2.86320E-05-9.46110E-08 5.81397E-19-1.05922E-18
 -1      2929 9.52021E-05-2.84295E-05-2.86167E-05-1.03819E-07 1.70298E-18-9.73048E-19
 -1      2930 9.51856E-05-2.84087E-05-2.86194E-05-1.03547E-07 2.00452E-18-2.08269E-18
 -1      2931 9.51622E-05-2.83618E-05-2.86283E-05-1.21826E-07 1.61947E-18-1.64258E-18
 -1      2932 9.44224E-05-2.07773E-05-3.15965E-05-7.78304E-06-2.58586E-18-2.43055E-18
 -1      2933 9.48348E-05-2.25363E-05-3.10074E-05-5.89780E-06-2.44279E-18-2.21911E-18
 -1      2934 9.48400E-05-2.18386E-05-3.12915E-05 7.39122E-06 3.12554E-18-6.54909E-19
 -1      2935 1.16641E-04-5.85634E-05-2.49695E-05 2.82764E-05-1.50984E-18 1.01374E-18
 -1      2936 1.00464E-04-5.12560E-05-2.06433E-05 3.30959E-05-2.14744E-18 2.13929E-18
 -1      2937 3.05300E-05-1.18010E-05-7.48822E-06 2.91319E-06-1.27100E-18 2.59637E-18
 -1      2938 3.14713E-05-1.21815E-05-7.85086E-06-1.27431E-05-2.63851E-19-4.17164E-19
 -1      2939 6.86552E-05-3.45795E-05-1.39833E-05-4.03402E-05 1.78131E-18 3.01194E-18
 -1      2940 8.64661E-05-4.49552E-05-1.79322E-05-4.20825E-05 1.80926E-18 1.85659E-18
 -1      2941 1.34837E-04-5.80951E-05-3.29799E-05 6.00255E-06-1.25631E-18-2.19585E-18
 -1      2942 1.38642E-04-4.77742E-05-3.95681E-05-2.88318E-07-1.24291E-18 2.76683E-18
 -1      2943 1.36142E-04-5.43298E-05-3.48801E-05 8.10708E-06-3.37318E-19 2.36237E-18
 -1      2944 9.55240E-05-2.77333E-05-2.90407E-05-3.81208E-06 7.75423E-19-1.19659E-18
 -1      2945 9.52844E-05-2.76941E-05-2.89648E-05-3.38205E-06 1.00672E-18-1.15301E-18
 -1      2946 9.53314E-05-2.74349E-05-2.91053E-05-3.26042E-06 1.08486E-18-1.16501E-18
 -1      2947 9.53540E-05-2.73686E-05-2.91406E-05-4.23148E-06 6.37135E-19-1.13389E-18
 -1      2948 9.53884E-05-2.39612E-05-3.05942E-05-4.58731E-06-2.20255E-18-2.10709E-18
 -1      2949 9.53347E-05-2.49199E-05-3.01933E-05-3.02348E-06-1.92167E-18-2.05312E-18
 -1      2950 9.53065E-05-2.45076E-05-3.03366E-05-2.68702E-06-1.86889E-18-2.13343E-18
 -1      2951 9.46506E-05-2.21818E-05-3.10523E-05-5.10751E-06-2.20495E-18-2.46290E-18
 -1      2952 8.34316E-05-4.33063E-05-1.70993E-05 3.73365E-05-2.07714E-18 3.50735E-18
 -1      2953 6.49286E-05-3.18852E-05-1.35584E-05 3.35856E-05-2.51452E-18 3.60910E-18
 -1      2954 9.49152E-05-4.53765E-05-2.11134E-05 3.18948E-05-2.77202E-18 2.25703E-18
 -1      2955 9.52441E-05-2.84954E-05-2.86066E-05-8.29819E-08 1.30515E-19-1.37592E-18
 -1      2956 9.09773E-05-1.56406E-05-3.23142E-05 4.51174E-06 2.20733E-18-3.10451E-18
 -1      2957 9.05777E-05-1.50939E-05-3.23735E-05 3.64495E-06 1.78922E-18-3.38179E-18
 -1      2958 9.14603E-05-1.65785E-05-3.20749E-05 2.84696E-06 1.55557E-18-3.28533E-18
 -1      2959 9.22637E-05-1.77625E-05-3.19076E-05 4.12875E-06 2.06422E-18-2.71880E-18
 -1      2960 9.05502E-05-1.50770E-05-3.23683E-05-3.57523E-06-6.16800E-19-3.80564E-18
 -1      2961 9.09397E-05-1.56116E-05-3.23090E-05-4.44825E-06-1.02106E-18-3.81134E-18
 -1      2962 3.99888E-05-1.68221E-05-9.26908E-06-2.50016E-05 1.23984E-19 5.47607E-19
 -1      2963 5.16199E-05-2.43855E-05-1.14998E-05-3.54285E-05 9.22842E-19 2.66106E-18
 -1      2964 9.20918E-05-1.65410E-05-3.23872E-05-8.59187E-06-2.29695E-18-3.21389E-18
 -1      2965 1.36614E-04-4.43155E-05-3.95750E-05 4.34419E-06 8.66144E-19-2.66805E-18
 -1      2966 1.35355E-04-3.51188E-05-4.36686E-05 9.09028E-06 7.41154E-22-2.75010E-18
 -1      2967 7.95866E-05-4.19353E-05-1.56352E-05-3.69862E-05-1.63276E-18-2.75159E-18
 -1      2968 9.47961E-05-4.93622E-05-1.92724E-05-3.54694E-05-1.84823E-18-1.88285E-18
 -1      2969 7.46779E-05-3.56406E-05-1.62277E-05-3.38950E-05-1.72625E-18-2.61373E-18
 -1      2970 1.29923E-04-5.73958E-05-3.08531E-05-1.63460E-05 2.00895E-18-1.53588E-18
 -1      2971 1.35184E-04-5.39769E-05-3.53947E-05-6.47979E-06 1.48772E-18-2.27995E-18
 -1      2972 1.30918E-04-2.39659E-05-4.61938E-05 1.17416E-05-5.03985E-19-2.76429E-18
 -1      2973 1.27005E-04-1.53241E-05-4.85880E-05 9.85859E-06-1.06747E-18-2.54428E-18
 -1      2974 1.02365E-04-5.28027E-05-2.12687E-05 3.89390E-05 1.48993E-18 5.24631E-19
 -1      2975 8.74224E-05-4.56620E-05-1.75409E-05 4.11558E-05 2.03669E-18-4.72644E-19
 -1      2976 1.28531E-04-5.88314E-05-3.03571E-05 2.13324E-05 7.07431E-19 1.42969E-18
 -1      2977 1.16361E-04-5.70763E-05-2.50716E-05 3.08269E-05 1.31481E-18 1.11218E-18
 -1      2978 1.33319E-04-2.71469E-05-4.62399E-05-1.07232E-05-3.16939E-18 3.28162E-18
 -1      2979 1.37416E-04-3.74519E-05-4.30350E-05-8.02739E-06-2.18058E-18 3.18019E-18
 -1      2980 1.24880E-04-9.15679E-06-5.01532E-05 6.04931E-06-2.07798E-18-2.01710E-18
 -1      2981 1.24242E-04-7.47686E-06-5.07468E-05 1.04563E-06-2.64063E-18-1.66736E-18
 -1      2982 3.23758E-05-1.28085E-05-7.83763E-06-7.47098E-06-3.65839E-19-3.89932E-18
 -1      2983 3.89384E-05-1.82195E-05-8.32402E-06-2.17722E-05-8.99231E-19-3.28628E-18
 -1      2984 9.14300E-05-1.63246E-05-3.22089E-05-5.13230E-06-1.27504E-18-3.69669E-18
 -1      2985 9.19677E-05-1.70827E-05-3.21161E-05-5.93476E-06-1.69578E-18-3.60847E-18
 -1      2986 9.22215E-05-1.77316E-05-3.19025E-05-4.09482E-06-1.00264E-18-3.41673E-18
 -1      2987 9.08202E-05-1.56753E-05-3.21907E-05 4.74912E-08 5.76374E-19-3.73382E-18
 -1      2988 8.97797E-05-1.39980E-05-3.24981E-05-3.22893E-07 5.03184E-19-3.94246E-18
 -1      2989 8.98514E-05-1.40927E-05-3.24875E-05-1.20369E-06 2.31354E-19-3.90152E-18
 -1      2990 1.23888E-04-5.63649E-05-2.88092E-05-1.91250E-05 2.47159E-18-2.25152E-18
 -1      2991 4.04524E-05-1.26913E-05-1.11970E-05 8.32539E-06-1.38765E-18 3.16674E-18
 -1      2992 9.85826E-05-4.79872E-05-2.13307E-05-3.53724E-05 2.73645E-18-5.38792E-20
 -1      2993 1.20714E-04-9.08845E-06-4.82806E-05-2.04169E-06-2.19678E-18-1.10344E-18
 -1      2994 9.51669E-05-2.83597E-05-2.86312E-05 1.25938E-07 1.43309E-18-1.43719E-19
 -1      2995 9.51901E-05-2.84085E-05-2.86215E-05 1.06389E-07 1.51612E-18-1.34496E-18
 -1      2996 9.52077E-05-2.84294E-05-2.86189E-05 1.05834E-07 6.63276E-19 9.41707E-19
 -1      2997 1.32731E-04-4.87704E-05-3.61258E-05 9.49458E-07 1.25889E-18-2.06734E-18
 -1      2998 1.39502E-04-2.48489E-05-4.96414E-05 1.42888E-05 2.89389E-18 9.26654E-19
 -1      2999 1.14784E-04-5.14171E-05-2.71708E-05-2.19080E-05-1.12163E-18-6.39933E-19
 -1      3000 1.44390E-04-5.75402E-05-3.73961E-05 6.19485E-06 6.28631E-19 2.94979E-19
 -1      3001 1.40330E-04-5.98215E-05-3.46241E-05-3.71612E-07 1.87088E-19-6.47980E-20
 -1      3002 1.30814E-04-5.61025E-05-3.20297E-05 1.22352E-05 6.24740E-19 1.83160E-18
 -1      3003 1.49406E-04-4.58532E-05-4.53117E-05-1.91065E-05 3.14895E-18-3.63716E-18
 -1      3004 1.46073E-04-3.29905E-05-4.87362E-05-1.75190E-05 3.76548E-18-2.41669E-18
 -1      3005 1.05560E-04-4.36619E-05-2.64790E-05 2.37126E-05-2.97195E-18-5.78682E-19
 -1      3006 1.16015E-04-4.79740E-05-2.90515E-05 1.81154E-05-2.68256E-18-1.33548E-18
 -1      3007 9.52251E-05-2.84564E-05-2.86158E-05 1.01210E-07 5.03756E-19 3.45245E-18
 -1      3008 9.52404E-05-2.84775E-05-2.86123E-05 9.25130E-08 4.34625E-19 2.51008E-18
 -1      3009 9.52472E-05-2.84684E-05-2.86188E-05 1.13342E-07 3.45567E-19 1.85727E-18
 -1      3010 9.52106E-05-2.84153E-05-2.86261E-05 1.29267E-07 6.24190E-19 2.07803E-18
 -1      3011 6.56390E-05-2.89909E-05-1.51175E-05-3.50611E-05 1.26822E-18 2.63650E-18
 -1      3012 6.23354E-05-2.61244E-05-1.48992E-05 2.80485E-05-2.47619E-18 3.61408E-18
 -1      3013 1.27884E-04-2.98816E-05-4.22768E-05 1.18358E-05 6.03511E-21-2.51865E-18
 -1      3014 9.52315E-05-2.84739E-05-2.86101E-05-9.14580E-08 2.64324E-19-1.33896E-18
 -1      3015 3.34337E-05-1.14136E-05-8.64160E-06 2.94725E-07 1.10376E-19-3.98021E-18
 -1      3016 3.99663E-05-1.21033E-05-1.15056E-05-7.68831E-06-3.37490E-19-3.21555E-18
 -1      3017 3.69617E-05-1.16422E-05-1.03727E-05 8.07295E-06 5.96121E-19-3.88216E-18
 -1      3018 1.28568E-04-2.14720E-05-4.63105E-05-1.13449E-05-2.55486E-18 2.51791E-18
 -1      3019 1.25959E-04-2.74436E-05-4.25306E-05-1.17574E-05-1.50465E-18 3.18966E-18
 -1      3020 1.21166E-04-1.56586E-05-4.56232E-05-1.07346E-05-2.22992E-18 1.62487E-18
 -1      3021 1.20520E-04-1.40802E-05-4.59879E-05 8.75018E-06-1.18256E-18-3.06721E-18
 -1      3022 1.49541E-04-5.22724E-05-4.15087E-05-1.27172E-05 2.32982E-18-3.47813E-18
 -1      3023 9.44574E-05-2.12876E-05-3.13645E-05 6.69134E-06 3.00145E-18-1.30824E-18
 -1      3024 1.26520E-04-5.99421E-05-2.83725E-05 1.78661E-05-1.68612E-18-1.36547E-18
 -1      3025 4.26126E-05-1.40004E-05-1.15992E-05-1.72524E-05-2.94026E-19-1.92488E-19
 -1      3026 5.12819E-05-2.09108E-05-1.23790E-05-2.42148E-05-7.49095E-19-3.21904E-18
 -1      3027 9.28436E-05-1.82489E-05-3.19670E-05-6.99485E-06-2.03420E-18-3.23266E-18
 -1      3028 1.48005E-04-4.01858E-05-4.63756E-05 1.80769E-05 9.17760E-19 1.23879E-20
 -1      3029 1.50416E-04-5.23016E-05-4.25604E-05 1.49024E-05 5.22937E-19-5.01867E-20
 -1      3030 7.88334E-05-4.02619E-05-1.61895E-05 4.14173E-05 1.99889E-18-7.29666E-19
 -1      3031 6.92212E-05-3.28266E-05-1.51859E-05 3.84005E-05 1.85214E-18-1.95294E-18
 -1      3032 8.94905E-05-4.33703E-05-1.94741E-05 3.72741E-05 2.04844E-18-1.66548E-19
 -1      3033 1.22342E-04-5.34121E-05-2.94720E-05 1.50093E-05-2.25077E-18-2.09346E-18
 -1      3034 9.00077E-05-1.43184E-05-3.24596E-05-1.95487E-06-1.52372E-21-3.72620E-18
 -1      3035 9.02313E-05-1.46165E-05-3.24274E-05-2.83897E-06-3.75596E-19-3.74637E-18
 -1      3036 9.14440E-05-1.65770E-05-3.20694E-05-2.77588E-06-5.12437E-19-3.53570E-18
 -1      3037 9.09761E-05-1.59007E-05-3.21606E-05-1.37614E-06 3.01979E-20-3.62638E-18
 -1      3038 1.34174E-04-4.26916E-05-3.93574E-05-6.39701E-06-8.66885E-19 3.66268E-18
 -1      3039 1.11579E-04-5.44937E-05-2.42335E-05 3.12185E-05 1.66950E-18 1.19307E-18
 -1      3040 9.52318E-05-2.84541E-05-2.86193E-05-1.23210E-07-8.10614E-19-3.27768E-18
 -1      3041 9.52156E-05-2.84437E-05-2.86168E-05-1.10618E-07 8.68077E-19-1.87813E-18
 -1      3042 9.52011E-05-2.84051E-05-2.86261E-05-1.37254E-07 8.71269E-19-2.44715E-18
 -1      3043 9.52349E-05-2.84394E-05-2.86257E-05-1.48432E-07-4.27757E-20-3.47304E-18
 -1      3044 4.58114E-05-2.09782E-05-1.00794E-05 2.91354E-05 1.60693E-18-4.39102E-18
 -1      3045 1.49834E-04-5.81517E-05-3.95421E-05 4.84002E-06 8.31972E-19 1.04058E-18
 -1      3046 9.46900E-05-2.22496E-05-3.10369E-05 5.09603E-06 2.66626E-18-1.50076E-18
 -1      3047 9.42206E-05-2.14756E-05-3.11973E-05 4.32003E-06 2.50013E-18-1.76128E-18
 -1      3048 9.36701E-05-2.04506E-05-3.13833E-05 3.99012E-06 2.24954E-18-2.00431E-18
 -1      3049 1.27856E-04-3.78160E-05-3.90567E-05-1.01944E-05-1.36346E-18 3.59322E-18
 -1      3050 1.30928E-04-4.61209E-05-3.62484E-05-4.97872E-06-4.69044E-19 3.27452E-18
 -1      3051 9.56463E-05-2.63460E-05-2.96877E-05 4.37612E-07-1.23965E-18-1.86092E-18
 -1      3052 9.56554E-05-2.67529E-05-2.95346E-05 1.11975E-06-1.14826E-18-1.87013E-18
 -1      3053 9.56795E-05-2.70830E-05-2.93892E-05 1.68002E-06-1.05097E-18-1.93317E-18
 -1      3054 9.56944E-05-2.73422E-05-2.92948E-05 2.18071E-06-9.51875E-19-2.15395E-18
 -1      3055 9.56677E-05-2.65575E-05-2.96223E-05 1.29550E-06-1.22332E-18-2.07397E-18
 -1      3056 9.56810E-05-2.75419E-05-2.91962E-05 2.61538E-06-8.45372E-19-2.01360E-18
 -1      3057 9.57289E-05-2.77223E-05-2.91440E-05 2.99294E-06-6.84998E-19-2.12582E-18
 -1      3058 9.56819E-05-2.71712E-05-2.93663E-05 2.32902E-06-8.98948E-19-2.12144E-18
 -1      3059 9.57193E-05-2.78588E-05-2.90788E-05 3.34445E-06-4.15747E-19-2.09132E-18
 -1      3060 9.58188E-05-2.80150E-05-2.90554E-05 3.63731E-06-3.29973E-19-1.75883E-18
 -1      3061 9.56619E-05-2.75655E-05-2.91894E-05 3.14987E-06-5.13079E-19-1.95135E-18
 -1      3062 9.58499E-05-2.81456E-05-2.90124E-05 3.93339E-06-4.13735E-19-1.46463E-18
 -1      3063 9.60204E-05-2.83271E-05-2.90073E-05 4.15933E-06-4.29921E-19-1.51857E-18
 -1      3064 9.56842E-05-2.78746E-05-2.90675E-05 3.83069E-06-2.27023E-19-1.46957E-18
 -1      3065 9.61325E-05-2.85070E-05-2.89776E-05 4.41028E-06-6.27316E-19-1.47110E-18
 -1      3066 9.63985E-05-2.87630E-05-2.89826E-05 4.56615E-06-4.28320E-19-1.28020E-18
 -1      3067 9.58247E-05-2.82223E-05-2.89806E-05 4.41339E-06-3.97927E-19-1.47795E-18
 -1      3068 9.66407E-05-2.90485E-05-2.89604E-05 4.76200E-06-4.60483E-19-1.05187E-18
 -1      3069 9.70320E-05-2.94276E-05-2.89704E-05 4.82305E-06-5.19642E-19-8.18921E-19
 -1      3070 9.61720E-05-2.87323E-05-2.89139E-05 4.90371E-06-3.97458E-19-1.05022E-18
 -1      3071 9.74630E-05-2.98742E-05-2.89541E-05 4.92989E-06-6.47506E-19-4.87066E-19
 -1      3072 9.80113E-05-3.04182E-05-2.89683E-05 4.84902E-06-5.62015E-19-3.86900E-19
 -1      3073 9.68333E-05-2.95302E-05-2.88599E-05 5.26450E-06-3.46062E-19-5.33041E-19
 -1      3074 9.86950E-05-3.10704E-05-2.89626E-05 4.80395E-06-6.03675E-19-1.64435E-19
 -1      3075 9.94218E-05-3.17979E-05-2.89864E-05 4.51270E-06-5.66184E-19-4.59880E-19
 -1      3076 9.79327E-05-3.07312E-05-2.88221E-05 5.40633E-06-3.20432E-19-1.19999E-19
 -1      3077 1.00412E-04-3.26674E-05-2.90059E-05 4.21925E-06-3.73424E-19-2.96314E-19
 -1      3078 1.01307E-04-3.35439E-05-2.90536E-05 3.63451E-06-1.35830E-19-4.15272E-19
 -1      3079 9.95915E-05-3.24069E-05-2.88211E-05 5.17549E-06-4.07169E-19-3.35803E-19
 -1      3080 1.02610E-04-3.45695E-05-2.91261E-05 2.96572E-06-4.64689E-19-4.02745E-19
 -1      3081 1.03597E-04-3.54625E-05-2.92230E-05 2.01139E-06-7.84086E-19-3.40127E-19
 -1      3082 1.01880E-04-3.45170E-05-2.89020E-05 4.34635E-06-5.04132E-19 1.09456E-19
 -1      3083 1.05115E-04-3.64550E-05-2.93914E-05 8.40066E-07-1.06613E-18-1.94866E-19
 -1      3084 1.06016E-04-3.70885E-05-2.95714E-05-5.03548E-07-9.83683E-19-1.76642E-19
 -1      3085 1.04722E-04-3.67970E-05-2.91409E-05 2.64317E-06-7.19391E-19-1.48893E-19
 -1      3086 1.07475E-04-3.76813E-05-2.98885E-05-2.21920E-06-1.01867E-18-1.44128E-20
 -1      3087 1.08003E-04-3.76347E-05-3.01884E-05-3.82105E-06-7.56795E-19-2.09023E-19
 -1      3088 1.07762E-04-3.86289E-05-2.96427E-05-1.55207E-07-9.72896E-19 1.65540E-19
 -1      3089 1.08915E-04-3.73053E-05-3.07040E-05-5.87827E-06-5.13954E-19-3.35303E-19
 -1      3090 1.08768E-04-3.61248E-05-3.11391E-05-7.35374E-06-3.53627E-19-2.84359E-19
 -1      3091 1.10240E-04-3.89656E-05-3.05248E-05-3.98809E-06-8.89581E-19-4.39067E-20
 -1      3092 1.08589E-04-3.44410E-05-3.18433E-05-9.02828E-06 2.20181E-19-2.14192E-19
 -1      3093 1.07673E-04-3.20896E-05-3.23705E-05-9.68189E-06 3.22619E-19-9.78207E-20
 -1      3094 1.11053E-04-3.66296E-05-3.18492E-05-8.03268E-06 2.82619E-20-1.11530E-19
 -1      3095 1.06319E-04-2.91298E-05-3.31740E-05-1.01694E-05 7.78212E-20-5.72078E-21
 -1      3096 1.04870E-04-2.60741E-05-3.36895E-05-9.28515E-06 1.90993E-19-7.47225E-20
 -1      3097 1.09715E-04-3.16272E-05-3.34314E-05-1.04772E-05 4.01461E-19-1.82946E-19
 -1      3098 1.03084E-04-2.33352E-05-3.43199E-05-7.11678E-06 2.77501E-19-3.00399E-19
 -1      3099 1.02192E-04-2.13200E-05-3.46342E-05-4.87840E-06 1.06079E-18-4.80334E-19
 -1      3100 1.06049E-04-2.37772E-05-3.52071E-05-9.26957E-06 2.28831E-19-5.03776E-19
 -1      3101 1.01347E-04-2.00640E-05-3.48825E-05-1.22586E-06 1.17100E-18-8.00252E-19
 -1      3102 1.01339E-04-2.01152E-05-3.48733E-05 1.76865E-06 7.92657E-19-9.12213E-19
 -1      3103 1.03761E-04-1.96607E-05-3.60290E-05-3.52517E-06 5.98928E-19-1.13693E-18
 -1      3104 1.02318E-04-2.14909E-05-3.45958E-05 5.46521E-06-2.66021E-19-8.85230E-19
 -1      3105 1.03295E-04-2.36620E-05-3.42624E-05 7.65283E-06-8.19698E-19-6.90719E-19
 -1      3106 1.03728E-04-1.94661E-05-3.60513E-05 4.29245E-06 1.42500E-19-1.06234E-18
 -1      3107 1.05108E-04-2.65310E-05-3.36093E-05 9.57943E-06-8.47724E-19-5.56292E-19
 -1      3108 1.06548E-04-2.95215E-05-3.30998E-05 1.02959E-05-5.24691E-19-1.28158E-18
 -1      3109 1.06342E-04-2.43725E-05-3.50624E-05 9.71044E-06-7.28124E-19-1.31024E-18
 -1      3110 1.07737E-04-3.23218E-05-3.23129E-05 9.79395E-06-3.46721E-20-1.28692E-18
 -1      3111 1.08687E-04-3.46246E-05-3.17935E-05 9.10403E-06 5.10071E-19-1.10955E-18
 -1      3112 1.09778E-04-3.16973E-05-3.34336E-05 1.06087E-05-4.33166E-19-1.51963E-18
 -1      3113 1.08729E-04-3.62080E-05-3.10994E-05 7.32532E-06 6.18081E-19-1.00826E-18
 -1      3114 1.08828E-04-3.72593E-05-3.06790E-05 5.86404E-06 4.82935E-19-1.02982E-18
 -1      3115 1.11072E-04-3.68652E-05-3.17751E-05 7.97890E-06 3.43757E-19-1.09307E-18
 -1      3116 1.07843E-04-3.74820E-05-3.01839E-05 3.86901E-06 7.10942E-19-9.11376E-19
 -1      3117 1.07281E-04-3.74523E-05-2.99000E-05 2.32049E-06 6.58314E-19-6.75953E-19
 -1      3118 1.10007E-04-3.88258E-05-3.04899E-05 3.96514E-06 6.12922E-19-3.61574E-19
 -1      3119 1.05794E-04-3.67995E-05-2.95995E-05 6.84482E-07-4.18884E-20 1.04043E-19
 -1      3120 1.04885E-04-3.61217E-05-2.94333E-05-5.84388E-07 1.05937E-19 6.67543E-19
 -1      3121 1.07440E-04-3.82936E-05-2.96461E-05 2.90674E-07 8.57779E-19 2.05745E-19
 -1      3122 1.03357E-04-3.50955E-05-2.92772E-05-1.66642E-06-3.62356E-19 3.28579E-19
 -1      3123 1.02376E-04-3.41825E-05-2.91913E-05-2.53719E-06 3.80786E-19 2.02620E-19
 -1      3124 1.04367E-04-3.63627E-05-2.91743E-05-2.33803E-06-1.47600E-19 3.34230E-19
 -1      3125 1.01071E-04-3.31420E-05-2.91253E-05-3.11733E-06-2.93868E-19-4.05931E-19
 -1      3126 1.00190E-04-3.22610E-05-2.90851E-05-3.61700E-06-6.20369E-19-7.36302E-19
 -1      3127 1.01517E-04-3.40313E-05-2.89536E-05-3.86264E-06-5.02316E-19 5.68800E-19
 -1      3128 9.91961E-05-3.13859E-05-2.90668E-05-3.82727E-06 9.03689E-20-1.18357E-18
 -1      3129 9.84843E-05-3.06629E-05-2.90471E-05-4.03642E-06 3.69136E-19-9.34922E-19
 -1      3130 9.92249E-05-3.19031E-05-2.88786E-05-4.52406E-06-5.61072E-19-7.46786E-19
 -1      3131 9.77882E-05-3.00107E-05-2.90481E-05-4.00534E-06-3.78045E-19-9.58181E-19
 -1      3132 9.72523E-05-2.94791E-05-2.90336E-05-4.01131E-06-1.32376E-18-8.52809E-19
 -1      3133 9.75511E-05-3.02261E-05-2.88734E-05-4.60139E-06-7.89083E-20-1.61887E-18
 -1      3134 9.67995E-05-2.90398E-05-2.90378E-05-3.83916E-06-1.38960E-18-5.57560E-19
 -1      3135 9.64152E-05-2.86840E-05-2.90210E-05-3.71694E-06-8.35750E-19-4.45229E-19
 -1      3136 9.64194E-05-2.90394E-05-2.88909E-05-4.32548E-06-8.76326E-19-9.13367E-19
 -1      3137 9.61425E-05-2.84188E-05-2.90210E-05-3.47404E-06-4.96623E-19-3.35089E-19
 -1      3138 9.58765E-05-2.82038E-05-2.89997E-05-3.28115E-06-3.55995E-19-3.60676E-19
 -1      3139 9.57082E-05-2.82811E-05-2.89063E-05-3.86177E-06-4.61435E-19-1.17094E-18
 -1      3140 9.57275E-05-2.80673E-05-2.89933E-05-3.01371E-06-1.07166E-18-4.78608E-19
 -1      3141 9.55481E-05-2.79551E-05-2.89679E-05-2.79112E-06-8.04621E-19-2.46491E-19
 -1      3142 9.52970E-05-2.78546E-05-2.89094E-05-3.32018E-06-1.13831E-18-1.27488E-18
 -1      3143 9.54789E-05-2.79064E-05-2.89556E-05-2.52788E-06-8.99375E-19-3.44952E-19
 -1      3144 9.53601E-05-2.78638E-05-2.89279E-05-2.30288E-06-1.19096E-18-1.03992E-18
 -1      3145 9.50860E-05-2.76638E-05-2.88984E-05-2.76988E-06-1.23451E-18 7.95353E-20
 -1      3146 9.53388E-05-2.78700E-05-2.89114E-05-2.06044E-06-8.91265E-19-9.88968E-19
 -1      3147 9.52610E-05-2.78709E-05-2.88831E-05-1.84983E-06-5.68156E-19-1.29359E-18
 -1      3148 9.50001E-05-2.76276E-05-2.88757E-05-2.25194E-06-9.97135E-19-4.41417E-19
 -1      3149 9.52660E-05-2.79080E-05-2.88642E-05-1.63651E-06-3.60577E-20-5.34979E-19
 -1      3150 9.52154E-05-2.79333E-05-2.88370E-05-1.44934E-06-1.84788E-19 9.62090E-20
 -1      3151 9.49867E-05-2.76838E-05-2.88450E-05-1.78842E-06 2.84334E-19-6.08218E-21
 -1      3152 9.52326E-05-2.79846E-05-2.88175E-05-1.26803E-06-8.25557E-19 5.96217E-19
 -1      3153 9.51997E-05-2.80216E-05-2.87925E-05-1.10805E-06-6.37539E-19 5.62565E-20
 -1      3154 9.50107E-05-2.77882E-05-2.88100E-05-1.38866E-06 4.02559E-20 4.31333E-19
 -1      3155 9.52209E-05-2.80765E-05-2.87736E-05-9.58235E-07-1.02282E-19 1.63815E-19
 -1      3156 9.51994E-05-2.81168E-05-2.87513E-05-8.25747E-07 1.21697E-19 6.56196E-20
 -1      3157 9.50503E-05-2.79112E-05-2.87741E-05-1.05391E-06-2.12489E-19 7.84523E-19
 -1      3158 9.52199E-05-2.81691E-05-2.87339E-05-7.04956E-07 7.59667E-20-3.18985E-19
 -1      3159 9.52057E-05-2.82079E-05-2.87148E-05-5.98207E-07 8.57062E-19-4.92548E-19
 -1      3160 9.50927E-05-2.80344E-05-2.87393E-05-7.80580E-07 1.62679E-19 1.15566E-19
 -1      3161 9.52232E-05-2.82543E-05-2.86992E-05-5.03301E-07 6.83776E-19-9.71564E-19
 -1      3162 9.52134E-05-2.82888E-05-2.86832E-05-4.19412E-07 3.26207E-20-2.37976E-18
 -1      3163 9.51313E-05-2.81476E-05-2.87073E-05-5.62581E-07 2.22642E-21-1.17820E-18
 -1      3164 9.52272E-05-2.83281E-05-2.86696E-05-3.46119E-07-5.06313E-19-2.65764E-18
 -1      3165 9.52208E-05-2.83579E-05-2.86563E-05-2.81996E-07-2.58842E-19-4.04130E-18
 -1      3166 9.51629E-05-2.82456E-05-2.86788E-05-3.92659E-07-5.21517E-19-2.29863E-18
 -1      3167 9.52326E-05-2.83896E-05-2.86459E-05-2.33171E-07 1.22114E-18-4.89974E-18
 -1      3168 9.52278E-05-2.84142E-05-2.86348E-05-1.84978E-07 1.37735E-18-3.20601E-18
 -1      3169 9.52086E-05-2.83943E-05-2.86353E-05-1.81733E-07 3.77402E-19-4.95443E-18
 -1      3170 9.51895E-05-2.83284E-05-2.86551E-05-2.69419E-07 2.62303E-19-4.11051E-18
 -1      3171 9.50653E-05-2.82341E-05-2.86420E-05-7.72428E-08 1.83116E-19-1.51434E-18
 -1      3172 9.50543E-05-2.82227E-05-2.86429E-05-5.03490E-08 6.48337E-19-1.03597E-18
 -1      3173 9.44879E-05-2.60378E-05-2.93254E-05-6.55103E-06 1.30637E-19-1.12899E-18
 -1      3174 9.45207E-05-2.62821E-05-2.92580E-05-5.93415E-06 5.29504E-19-1.24959E-18
 -1      3175 9.48721E-05-2.65963E-05-2.92521E-05-5.40664E-06 6.10808E-19-1.25940E-18
 -1      3176 9.48742E-05-2.67620E-05-2.91987E-05-4.87130E-06 4.88786E-19-1.12959E-18
 -1      3177 9.40309E-05-2.58864E-05-2.91969E-05-5.53848E-06 5.31642E-19-1.20061E-18
 -1      3178 9.31249E-05-2.45089E-05-2.93930E-05-9.48066E-06-7.01621E-19-6.63233E-19
 -1      3179 9.32630E-05-2.48259E-05-2.93544E-05-8.61920E-06-4.61027E-19-9.97503E-19
 -1      3180 9.21153E-05-2.37753E-05-2.92698E-05-1.13641E-05-2.28176E-19-2.79644E-19
 -1      3181 9.22728E-05-2.39987E-05-2.92908E-05-1.03611E-05-4.89814E-19-4.57270E-19
 -1      3182 9.06104E-05-2.30465E-05-2.89280E-05-9.43906E-06-6.43006E-19-1.43232E-18
 -1      3183 9.10419E-05-2.34776E-05-2.89253E-05-1.36015E-05-2.23003E-19-4.21911E-19
 -1      3184 9.10850E-05-2.33855E-05-2.90498E-05-1.24560E-05-2.68536E-20-1.50173E-19
 -1      3185 8.87375E-05-2.20387E-05-2.85509E-05-1.12777E-05-2.22025E-19-1.20217E-18
 -1      3186 9.03656E-05-2.43109E-05-2.82509E-05-1.62901E-05-1.83562E-19-6.56764E-19
 -1      3187 8.99514E-05-2.34808E-05-2.85220E-05-1.50136E-05-2.28470E-19-6.75488E-19
 -1      3188 8.65806E-05-2.15053E-05-2.78532E-05-1.36246E-05-1.98695E-19-9.36092E-19
 -1      3189 9.11183E-05-2.76876E-05-2.70737E-05-1.97762E-05-4.67628E-19-1.09010E-18
 -1      3190 8.95131E-05-2.52387E-05-2.75492E-05-1.82856E-05-1.59899E-19-8.43739E-19
 -1      3191 8.44802E-05-2.22703E-05-2.66405E-05-1.69166E-05-1.88281E-19-1.30922E-18
 -1      3192 9.52849E-05-3.53560E-05-2.55547E-05-2.36751E-05-9.88858E-19-1.14160E-18
 -1      3193 9.14616E-05-3.04228E-05-2.60808E-05-2.23046E-05-6.96026E-19-1.12274E-18
 -1      3194 8.35646E-05-2.57383E-05-2.47621E-05-2.17179E-05-4.33747E-19-1.47061E-18
 -1      3195 9.52908E-05-2.40063E-05-3.05527E-05 3.57043E-06 2.28480E-18-1.38534E-18
 -1      3196 9.46487E-05-2.24112E-05-3.09504E-05 4.09040E-06 2.46437E-18-1.59386E-18
 -1      3197 9.48584E-05-2.31453E-05-3.07319E-05 2.90843E-06 2.22230E-18-1.59228E-18
 -1      3198 9.53401E-05-2.48779E-05-3.02083E-05 2.18923E-06 2.05360E-18-1.37380E-18
 -1      3199 1.43461E-04-2.47356E-05-5.17409E-05-1.53611E-05 3.42710E-18-1.26271E-18
 -1      3200 1.30173E-04-5.34668E-05-3.33542E-05 4.81737E-06 1.78559E-19 2.85267E-18
 -1      3201 1.25558E-04-5.59495E-05-2.95286E-05 1.51521E-05 9.86085E-19 1.78642E-18
 -1      3202 1.43419E-04-6.45157E-05-3.37473E-05-8.10764E-06 3.21767E-19 8.47456E-19
 -1      3203 9.11313E-05-2.72270E-05-2.73749E-05 1.92840E-05-2.54891E-18 2.88858E-19
 -1      3204 9.35419E-05-3.02554E-05-2.69536E-05 2.05134E-05-2.94946E-18-4.94283E-19
 -1      3205 9.23286E-05-2.37318E-05-2.94299E-05 1.04556E-05-3.28278E-19-1.01196E-18
 -1      3206 9.22427E-05-2.36279E-05-2.93850E-05 1.15848E-05-9.18660E-19-3.99583E-19
 -1      3207 9.33001E-05-2.44585E-05-2.95293E-05 8.42954E-06 5.84856E-19-1.31368E-18
 -1      3208 9.31832E-05-2.41818E-05-2.95570E-05 9.42011E-06 1.42813E-20-1.42530E-18
 -1      3209 9.01967E-05-2.25248E-05-2.89727E-05 9.45429E-06 5.03087E-20-1.65437E-18
 -1      3210 9.40475E-05-2.52527E-05-2.95038E-05 6.72239E-06 6.34528E-19-4.91188E-19
 -1      3211 9.39680E-05-2.49434E-05-2.95697E-05 7.56955E-06 7.46745E-19-9.99392E-19
 -1      3212 9.17033E-05-2.35530E-05-2.91839E-05 7.66532E-06 8.25634E-19-1.27240E-18
 -1      3213 9.45688E-05-2.59738E-05-2.94135E-05 5.29771E-06-7.07518E-19-8.97800E-19
 -1      3214 9.45374E-05-2.56919E-05-2.94944E-05 6.00552E-06-1.27964E-19-3.50510E-19
 -1      3215 9.28413E-05-2.45586E-05-2.92470E-05 6.16141E-06-5.93417E-20 3.10271E-19
 -1      3216 9.49061E-05-2.65753E-05-2.92965E-05 4.12439E-06-6.16789E-19 1.21491E-18
 -1      3217 9.49125E-05-2.63401E-05-2.93785E-05 4.70413E-06-3.59344E-19 2.37678E-19
 -1      3218 9.36582E-05-2.54372E-05-2.92259E-05 4.89635E-06-1.37677E-18 7.08400E-19
 -1      3219 9.51095E-05-2.70548E-05-2.91751E-05 3.17122E-06-2.11280E-19 1.46136E-18
 -1      3220 9.51392E-05-2.68674E-05-2.92509E-05 3.63827E-06-2.56093E-19 1.77770E-18
 -1      3221 9.42229E-05-2.61605E-05-2.91620E-05 3.84208E-06-6.29669E-19 2.14473E-18
 -1      3222 9.52224E-05-2.74275E-05-2.90615E-05 2.40685E-06 1.88896E-19-1.87477E-19
 -1      3223 9.52632E-05-2.72818E-05-2.91276E-05 2.77794E-06 5.76195E-20 8.74915E-19
 -1      3224 9.46018E-05-2.67360E-05-2.90807E-05 2.97479E-06 2.96382E-19 1.61272E-18
 -1      3225 9.52781E-05-2.77132E-05-2.89611E-05 1.80133E-06 2.57875E-19 1.13786E-18
 -1      3226 9.53214E-05-2.76013E-05-2.90168E-05 2.09262E-06-1.00230E-19 4.00757E-19
 -1      3227 9.48500E-05-2.71847E-05-2.89967E-05 2.27110E-06-1.71224E-19 9.10122E-19
 -1      3228 9.52997E-05-2.79306E-05-2.88759E-05 1.32712E-06 1.14304E-19 1.40726E-18
 -1      3229 9.53403E-05-2.78450E-05-2.89215E-05 1.55327E-06 5.10563E-19 1.46092E-18
 -1      3230 9.50088E-05-2.75303E-05-2.89180E-05 1.70791E-06 7.14045E-20 1.88922E-18
 -1      3231 9.53023E-05-2.80952E-05-2.88056E-05 9.59880E-07 3.45445E-19 2.35601E-18
 -1      3232 9.53377E-05-2.80300E-05-2.88421E-05 1.13361E-06 3.03652E-19 2.72241E-18
 -1      3233 9.51082E-05-2.77944E-05-2.88481E-05 1.26303E-06-4.35104E-20 2.11985E-18
 -1      3234 9.52955E-05-2.82195E-05-2.87487E-05 6.78706E-07-9.65448E-19 3.02775E-18
 -1      3235 9.53248E-05-2.81699E-05-2.87774E-05 8.10722E-07-2.67988E-19 3.03211E-18
 -1      3236 9.51688E-05-2.79952E-05-2.87885E-05 9.16104E-07-1.86595E-19 3.89133E-18
 -1      3237 9.52849E-05-2.83134E-05-2.87034E-05 4.66157E-07 7.23853E-19 2.75542E-18
 -1      3238 9.53083E-05-2.82756E-05-2.87257E-05 5.65176E-07 7.91824E-20 2.78440E-18
 -1      3239 9.52045E-05-2.81475E-05-2.87388E-05 6.48955E-07 4.57496E-20 3.80177E-18
 -1      3240 9.52733E-05-2.83841E-05-2.86678E-05 3.08114E-07 3.26623E-19 2.80033E-18
 -1      3241 9.52915E-05-2.83554E-05-2.86850E-05 3.81083E-07 6.29241E-19 2.44151E-18
 -1      3242 9.52244E-05-2.82627E-05-2.86982E-05 4.46480E-07 3.44684E-19 2.39710E-18
 -1      3243 9.52629E-05-2.84369E-05-2.86399E-05 1.93078E-07 1.29906E-18 3.05334E-18
 -1      3244 9.52762E-05-2.84156E-05-2.86531E-05 2.45168E-07 5.46113E-19 2.89579E-18
 -1      3245 9.52339E-05-2.83483E-05-2.86654E-05 2.95671E-07 3.32974E-19 2.59995E-18
 -1      3246 9.52494E-05-2.84565E-05-2.86253E-05 1.36628E-07 1.15633E-18 1.87176E-18
 -1      3247 9.52599E-05-2.84485E-05-2.86327E-05 1.64062E-07 1.81315E-18 2.93014E-18
 -1      3248 9.52342E-05-2.84001E-05-2.86435E-05 2.02637E-07 9.75142E-19 3.54069E-18
 -1      3249 9.52307E-05-2.84307E-05-2.86294E-05 1.47919E-07 1.14862E-18 2.89080E-18
 -1      3250 5.61401E-05-2.34526E-05-1.36344E-05 3.25505E-05 1.79158E-18-3.64055E-18
 -1      3251 4.54389E-05-1.59486E-05-1.21928E-05 2.23652E-05 1.15228E-18-3.92155E-18
 -1      3252 9.18384E-05-1.75303E-05-3.18619E-05 1.56623E-06 1.24231E-18-3.35795E-18
 -1      3253 9.16859E-05-1.73039E-05-3.18910E-05 9.12325E-07 9.09645E-19-3.43775E-18
 -1      3254 9.50476E-05-2.82136E-05-2.86435E-05-1.34971E-08 1.47110E-18-1.23369E-18
 -1      3255 9.50478E-05-2.82131E-05-2.86439E-05 1.65281E-08 2.73354E-18-2.22232E-18
 -1      3256 9.50156E-05-2.81598E-05-2.86514E-05-3.89289E-08 1.32173E-18-2.24656E-18
 -1      3257 9.12897E-05-4.21894E-05-2.05635E-05-3.47481E-05 2.73409E-18-2.41934E-19
 -1      3258 1.06041E-04-5.05931E-05-2.40584E-05-3.03749E-05 2.77054E-18-1.74020E-18
 -1      3259 9.51042E-05-2.82781E-05-2.86395E-05-1.27953E-07 1.02607E-18-7.59175E-19
 -1      3260 9.50838E-05-2.82572E-05-2.86409E-05-1.07806E-07 5.35340E-19-9.15734E-19
 -1      3261 9.50440E-05-2.81926E-05-2.86496E-05-1.11235E-07 9.75910E-19-1.28765E-18
 -1      3262 9.12558E-05-2.33934E-05-2.91188E-05 1.28599E-05-7.41626E-19-3.48586E-20
 -1      3263 9.14106E-05-2.37491E-05-2.89585E-05 1.41078E-05-1.00226E-19 7.01259E-19
 -1      3264 8.83480E-05-2.17253E-05-2.85197E-05 1.16267E-05 1.19571E-20-2.59933E-20
 -1      3265 9.04617E-05-2.40913E-05-2.84692E-05 1.58103E-05-9.70460E-19-1.09323E-19
 -1      3266 9.13273E-05-2.55693E-05-2.81330E-05 1.72383E-05-2.26462E-18-2.80901E-19
 -1      3267 8.50032E-05-2.37343E-05-2.62814E-05 1.84303E-05-1.77138E-18 1.82648E-19
 -1      3268 8.63218E-05-2.16780E-05-2.76806E-05 1.44492E-05-8.89505E-19 2.82805E-20
 -1      3269 9.39195E-05-2.53189E-05-2.93886E-05-7.89172E-06-3.25375E-19-9.22814E-19
 -1      3270 9.40022E-05-2.56227E-05-2.93238E-05-7.16248E-06-1.37067E-19-1.09230E-18
 -1      3271 9.32143E-05-2.51079E-05-2.91749E-05-6.64750E-06-6.10305E-20-1.06821E-18
 -1      3272 9.20959E-05-2.41333E-05-2.91064E-05-7.92690E-06-4.64250E-19-1.08021E-18
 -1      3273 9.54124E-05-2.70573E-05-2.92935E-05-2.38754E-06 1.37084E-18-1.28716E-18
 -1      3274 9.54330E-05-2.69092E-05-2.93588E-05-1.79621E-06 1.43566E-18-1.12761E-18
 -1      3275 4.40753E-05-1.09668E-05-1.37345E-05-8.85614E-06-2.76862E-19-8.18022E-19
 -1      3276 5.01053E-05-1.53481E-05-1.47864E-05-2.11012E-05-3.86194E-20 7.60530E-19
 -1      3277 9.54639E-05-2.51395E-05-3.01277E-05-1.23495E-06-1.45710E-18-1.99714E-18
 -1      3278 9.55254E-05-2.57926E-05-2.98950E-05-2.96428E-07-1.25276E-18-1.93376E-18
 -1      3279 9.55250E-05-2.55634E-05-2.99852E-05-4.14207E-08-1.18140E-18-1.97908E-18
 -1      3280 1.43693E-04-3.21416E-05-4.88702E-05 1.96604E-05 1.96808E-18 2.32087E-19
 -1      3281 1.14027E-04-9.75890E-06-4.50700E-05-6.53478E-08-8.57621E-19-1.99951E-18
 -1      3282 1.17098E-04-1.18440E-05-4.56329E-05-7.03614E-06-1.62831E-18-5.50889E-19
 -1      3283 1.18065E-04-5.43362E-05-2.69385E-05-2.20077E-05 2.86432E-18-2.55448E-18
 -1      3284 1.24548E-04-5.47281E-05-3.01840E-05-1.26394E-05 2.88937E-18-2.86547E-18
 -1      3285 1.28729E-04-5.06339E-05-3.34293E-05-1.55946E-06 1.84134E-18-2.12544E-18
 -1      3286 1.28832E-04-4.37000E-05-3.69345E-05 6.87575E-06 9.54659E-19-2.61648E-18
 -1      3287 9.51567E-05-2.83401E-05-2.86356E-05-1.56487E-07 1.94236E-18-1.36204E-18
 -1      3288 9.51316E-05-2.83123E-05-2.86378E-05-1.47536E-07 1.46212E-18-1.55365E-18
 -1      3289 9.50951E-05-2.82504E-05-2.86470E-05-1.65296E-07 8.03128E-19-6.38358E-19
 -1      3290 7.26489E-05-3.00764E-05-1.78401E-05-3.02541E-05-1.29972E-18-2.52236E-18
 -1      3291 8.43115E-05-3.73367E-05-1.98214E-05-3.21470E-05-1.46748E-18-1.90180E-18
 -1      3292 1.36100E-04-6.33199E-05-3.10038E-05-1.24049E-05-3.50778E-19 8.03199E-19
 -1      3293 5.16465E-05-1.68780E-05-1.44984E-05-1.93518E-05-5.96179E-19-3.00612E-18
 -1      3294 6.16293E-05-2.34943E-05-1.59858E-05-2.72712E-05-9.52383E-19-2.77001E-18
 -1      3295 7.23814E-05-2.61201E-05-1.94452E-05-2.59645E-05-9.89202E-19-2.22611E-18
 -1      3296 7.27042E-05-2.90195E-05-1.85509E-05 2.93651E-05-2.70288E-18 3.65092E-18
 -1      3297 5.74662E-05-1.94912E-05-1.58135E-05 2.31919E-05-2.64523E-18 3.26383E-18
 -1      3298 9.34265E-05-4.49542E-05-2.04877E-05-3.27624E-05-2.03648E-18-1.81297E-18
 -1      3299 1.03183E-04-5.25073E-05-2.14538E-05-3.30239E-05-1.90413E-18-2.12240E-18
 -1      3300 1.13969E-04-5.60080E-05-2.48146E-05-2.67465E-05-1.47521E-18-7.72353E-19
 -1      3301 9.10924E-05-3.97419E-05-2.17416E-05-2.97195E-05-1.53864E-18-1.71032E-18
 -1      3302 4.66858E-05-1.30722E-05-1.42147E-05 1.27568E-05-1.15353E-18 3.34663E-18
 -1      3303 4.26289E-05-1.02802E-05-1.35117E-05 4.04906E-07-4.64399E-19 1.59052E-18
 -1      3304 5.07303E-05-1.14030E-05-1.64001E-05-4.06405E-06-6.74979E-22 6.67038E-20
 -1      3305 1.25908E-04-3.42814E-05-3.92496E-05 1.20984E-05 1.89100E-19-3.00538E-18
 -1      3306 1.20724E-04-2.55967E-05-4.13427E-05 1.26522E-05-8.12622E-20-3.19535E-18
 -1      3307 1.16846E-04-5.55876E-05-2.65063E-05 2.52006E-05 1.42503E-18 1.54891E-18
 -1      3308 1.05570E-04-5.06819E-05-2.32742E-05 3.13641E-05 1.74378E-18 1.02037E-18
 -1      3309 6.17235E-05-2.32931E-05-1.60209E-05-3.00108E-05 9.56247E-19 2.32315E-18
 -1      3310 7.54390E-05-3.33009E-05-1.81713E-05-3.57068E-05 1.45340E-18 1.46055E-18
 -1      3311 9.34394E-05-1.95826E-05-3.16496E-05-5.70350E-06-1.79366E-18-3.12831E-18
 -1      3312 1.16997E-04-1.69436E-05-4.30323E-05 1.09815E-05-5.31725E-19-3.15109E-18
 -1      3313 1.14583E-04-1.22214E-05-4.44070E-05 5.91102E-06-9.51430E-19-2.80376E-18
 -1      3314 9.16119E-05-1.71962E-05-3.19066E-05 3.85492E-07 6.98855E-19-3.45870E-18
 -1      3315 9.16127E-05-1.71979E-05-3.19056E-05-2.80678E-07 3.22745E-19-3.48301E-18
 -1      3316 9.24704E-05-1.86536E-05-3.16157E-05 5.38973E-07 7.36306E-19-3.15642E-18
 -1      3317 1.27198E-04-4.87573E-05-3.36649E-05-7.19875E-07-6.94898E-20 2.88452E-18
 -1      3318 1.05075E-04-4.81418E-05-2.42195E-05 2.76823E-05 1.53271E-18 7.20521E-19
 -1      3319 9.84772E-05-4.69553E-05-2.19635E-05 3.39630E-05 1.75352E-18 5.41783E-19
 -1      3320 8.96758E-05-4.09858E-05-2.06795E-05 3.40148E-05 1.73173E-18 1.08870E-19
 -1      3321 9.51346E-05-2.83064E-05-2.86416E-05 1.51858E-07 1.29752E-18-1.70750E-18
 -1      3322 9.51611E-05-2.83344E-05-2.86397E-05 1.60443E-07 1.87253E-18 1.14656E-18
 -1      3323 9.50050E-05-2.33875E-05-3.06946E-05-3.19872E-06-1.77791E-18-2.41265E-18
 -1      3324 9.51797E-05-2.43043E-05-3.03891E-05-2.06694E-06-1.59764E-18-2.24287E-18
 -1      3325 9.51344E-05-2.40452E-05-3.04623E-05-1.65882E-06-1.40865E-18-2.23562E-18
 -1      3326 1.10632E-04-5.01148E-05-2.57942E-05-2.35328E-05 2.44348E-18-2.44675E-18
 -1      3327 9.52960E-05-2.71062E-05-2.92214E-05-2.91165E-06 1.23760E-18-1.21666E-18
 -1      3328 9.53119E-05-2.67318E-05-2.93939E-05-2.54506E-06 1.30341E-18-1.30065E-18
 -1      3329 9.52954E-05-2.71301E-05-2.92089E-05-3.42122E-06 8.84475E-19-1.25976E-18
 -1      3330 9.39998E-05-2.11030E-05-3.12478E-05-4.39829E-06-1.77707E-18-2.89602E-18
 -1      3331 9.54662E-05-2.63884E-05-2.96085E-05-1.34276E-06 1.46592E-18-1.32869E-18
 -1      3332 9.54811E-05-2.66853E-05-2.94866E-05-1.15921E-06 1.51285E-18-1.20044E-18
 -1      3333 9.55144E-05-2.63643E-05-2.96228E-05-3.99745E-07 1.55489E-18-1.20394E-18
 -1      3334 9.16419E-05-3.30557E-05-2.51032E-05 2.42311E-05-3.32811E-18 6.34560E-19
 -1      3335 9.49675E-05-4.15634E-05-2.25658E-05 2.83680E-05-2.65693E-18 1.91117E-18
 -1      3336 9.46167E-05-2.64333E-05-2.92181E-05-4.53832E-06 5.04261E-19-1.16739E-18
 -1      3337 9.51257E-05-2.69665E-05-2.92039E-05-4.39189E-06 3.85067E-19-1.18345E-18
 -1      3338 9.51180E-05-2.70435E-05-2.91773E-05-3.89625E-06 6.01895E-19-1.34289E-18
 -1      3339 9.49098E-05-3.75739E-05-2.44761E-05-2.60281E-05-1.08857E-18-1.38911E-18
 -1      3340 8.33099E-05-3.05566E-05-2.24255E-05-2.67174E-05-8.21807E-19-1.36002E-18
 -1      3341 1.19878E-04-5.38484E-05-2.82466E-05 1.73850E-05 1.03717E-18 1.64277E-18
 -1      3342 5.35328E-05-1.57486E-05-1.59545E-05 1.86577E-05 7.83810E-19-3.42651E-18
 -1      3343 4.42813E-05-1.28856E-05-1.28821E-05 1.51919E-05 7.02693E-19-3.89445E-18
 -1      3344 4.55041E-05-1.12271E-05-1.43925E-05 6.37713E-06 1.63874E-19-3.26182E-18
 -1      3345 6.76572E-05-2.81969E-05-1.65410E-05 3.26344E-05 1.68067E-18-2.39800E-18
 -1      3346 9.20658E-05-1.78716E-05-3.18104E-05 2.06405E-06 1.36461E-18-3.23002E-18
 -1      3347 9.27563E-05-1.90961E-05-3.15474E-05 1.46620E-06 1.22109E-18-3.11505E-18
 -1      3348 9.23704E-05-1.83387E-05-3.17462E-05 2.68116E-06 1.64389E-18-2.98633E-18
 -1      3349 9.50848E-05-2.82518E-05-2.86437E-05 1.11924E-07 3.63441E-19 1.18755E-20
 -1      3350 9.51061E-05-2.82725E-05-2.86428E-05 1.32019E-07 1.03927E-18-1.17972E-18
 -1      3351 9.50965E-05-2.82411E-05-2.86515E-05 1.69031E-07 6.96187E-19-1.96915E-18
 -1      3352 8.64368E-05-3.67560E-05-2.09476E-05-3.12839E-05 2.10480E-18-5.00702E-19
 -1      3353 9.50543E-05-2.82195E-05-2.86442E-05 5.34820E-08 2.46625E-18-6.06178E-19
 -1      3354 9.50660E-05-2.82304E-05-2.86440E-05 8.10080E-08 1.40049E-18 6.43305E-19
 -1      3355 9.50440E-05-2.81853E-05-2.86527E-05 1.13478E-07 1.17210E-18 8.39470E-19
 -1      3356 9.50154E-05-2.81570E-05-2.86524E-05 4.02075E-08 2.23319E-18-8.65255E-19
 -1      3357 9.27394E-05-1.89341E-05-3.16418E-05-3.08161E-06-7.90326E-19-3.16001E-18
 -1      3358 9.31884E-05-1.96696E-05-3.15308E-05-3.65035E-06-1.13722E-18-3.16025E-18
 -1      3359 1.15782E-04-1.55606E-05-4.29375E-05-9.20384E-06-9.71123E-19 1.45848E-20
 -1      3360 1.26296E-04-5.25819E-05-3.15978E-05-5.52371E-06 2.38025E-18-1.86447E-18
 -1      3361 1.23717E-04-4.78812E-05-3.26449E-05 9.65607E-07 1.71515E-18-1.40321E-18
 -1      3362 1.20700E-04-5.11905E-05-2.98057E-05-9.37075E-06 2.62190E-18-1.46141E-18
 -1      3363 1.15886E-04-2.23158E-05-4.01837E-05 1.16310E-05-1.74171E-19-3.21359E-18
 -1      3364 6.12062E-05-1.94454E-05-1.75297E-05-2.28876E-05 2.63030E-19 1.63435E-18
 -1      3365 1.11154E-04-1.29605E-05-4.22973E-05 2.26772E-06-2.20546E-19-2.35026E-18
 -1      3366 1.23854E-04-3.90871E-05-3.64826E-05 9.30106E-06 9.36170E-19-2.78470E-18
 -1      3367 5.84704E-05-1.64490E-05-1.75569E-05 1.57833E-05-1.26118E-18 2.54629E-18
 -1      3368 8.05313E-05-3.27665E-05-1.97061E-05 2.98661E-05-2.99622E-18 3.80429E-18
 -1      3369 9.31833E-05-1.96500E-05-3.15389E-05 3.65164E-06 2.07065E-18-2.32043E-18
 -1      3370 9.27364E-05-1.89156E-05-3.16500E-05 3.12528E-06 1.78406E-18-2.62414E-18
 -1      3371 9.33198E-05-2.00028E-05-3.13972E-05 2.30204E-06 1.57805E-18-2.57808E-18
 -1      3372 9.41015E-05-2.13806E-05-3.11412E-05 2.95254E-06 2.01977E-18-1.89605E-18
 -1      3373 7.37079E-05-2.63743E-05-2.02956E-05 2.65216E-05-2.67648E-18 3.56056E-18
 -1      3374 1.24875E-04-3.30015E-05-3.96212E-05-1.27049E-05-1.33429E-18 2.19670E-18
 -1      3375 1.22434E-04-3.68771E-05-3.66549E-05-1.03087E-05-1.18027E-18 1.14269E-18
 -1      3376 1.19480E-04-2.75757E-05-4.00029E-05-1.29589E-05-1.11401E-18 7.92399E-19
 -1      3377 8.26156E-05-2.73255E-05-2.35745E-05 2.34676E-05-2.89535E-18 1.97631E-18
 -1      3378 4.87118E-05-1.38929E-05-1.43745E-05-1.43318E-05-3.56151E-19-3.26182E-18
 -1      3379 5.84198E-05-1.65882E-05-1.76103E-05-1.71890E-05-5.74672E-19-2.93110E-18
 -1      3380 4.72027E-05-1.19422E-05-1.48356E-05-7.15139E-06-1.47397E-19-3.07494E-18
 -1      3381 9.20748E-05-1.78944E-05-3.18037E-05-1.98462E-06-3.36495E-19-3.30139E-18
 -1      3382 9.23708E-05-1.83544E-05-3.17386E-05-2.62429E-06-6.19178E-19-3.34596E-18
 -1      3383 9.33277E-05-2.00532E-05-3.13875E-05-2.23462E-06-7.73864E-19-3.07463E-18
 -1      3384 9.51900E-05-2.83742E-05-2.86357E-05-1.75774E-07 4.83577E-19-4.16132E-18
 -1      3385 9.51729E-05-2.83579E-05-2.86355E-05-1.66739E-07 1.73569E-18-1.92969E-18
 -1      3386 9.51436E-05-2.83031E-05-2.86453E-05-1.96294E-07 1.47596E-18-1.44462E-18
 -1      3387 9.51823E-05-2.83417E-05-2.86451E-05-2.14775E-07 8.92113E-19-4.00591E-18
 -1      3388 9.54770E-05-2.60293E-05-2.97698E-05 2.85739E-07 1.66048E-18-1.35507E-18
 -1      3389 9.54930E-05-2.54771E-05-2.99946E-05 1.30231E-06 1.85546E-18-1.29619E-18
 -1      3390 9.53209E-05-2.46890E-05-3.02678E-05 1.69205E-06 1.89876E-18-1.38758E-18
 -1      3391 9.54792E-05-2.57219E-05-2.99002E-05 4.24695E-08 1.60738E-18-1.35538E-18
 -1      3392 9.50118E-05-2.81436E-05-2.86576E-05-1.53604E-07 1.52531E-18-3.13060E-19
 -1      3393 9.49878E-05-2.81203E-05-2.86586E-05-1.18785E-07 1.00188E-18-2.20335E-18
 -1      3394 8.11141E-05-3.12657E-05-2.10509E-05-2.85606E-05 1.47525E-18-3.51664E-19
 -1      3395 9.32934E-05-4.00805E-05-2.30608E-05-2.86604E-05 1.88827E-18-1.19633E-18
 -1      3396 9.56248E-05-2.67496E-05-2.95135E-05 1.96614E-06-9.25103E-19-2.01570E-18
 -1      3397 9.56147E-05-2.70113E-05-2.94023E-05 2.43399E-06-6.50833E-19-1.90633E-18
 -1      3398 9.55498E-05-2.72071E-05-2.92868E-05 2.84167E-06-5.24693E-19-1.78101E-18
 -1      3399 9.55424E-05-2.73849E-05-2.92083E-05 3.22418E-06-3.19627E-19-1.61099E-18
 -1      3400 9.54521E-05-2.68100E-05-2.94196E-05 2.51219E-06-5.40865E-19-1.53407E-18
 -1      3401 9.54628E-05-2.75178E-05-2.91173E-05 3.59021E-06-3.59016E-19-1.68205E-18
 -1      3402 9.54958E-05-2.76775E-05-2.90605E-05 3.91774E-06-2.58116E-19-1.72170E-18
 -1      3403 9.53052E-05-2.71735E-05-2.92025E-05 3.30702E-06-4.17165E-19-1.70803E-18
 -1      3404 9.54523E-05-2.78169E-05-2.89845E-05 4.26717E-06-1.53305E-19-1.76446E-18
 -1      3405 9.55668E-05-2.80241E-05-2.89405E-05 4.55447E-06-1.67098E-19-1.76784E-18
 -1      3406 9.51766E-05-2.74671E-05-2.90239E-05 4.04831E-06-2.74436E-19-1.96818E-18
 -1      3407 9.56187E-05-2.82415E-05-2.88719E-05 4.89876E-06-2.69964E-19-1.40891E-18
 -1      3408 9.58642E-05-2.85647E-05-2.88348E-05 5.14233E-06-2.27258E-19-1.33250E-18
 -1      3409 9.51747E-05-2.78407E-05-2.88663E-05 4.77741E-06-1.23726E-19-1.76142E-18
 -1      3410 9.60849E-05-2.89361E-05-2.87700E-05 5.47450E-06-2.56674E-19-1.23047E-18
 -1      3411 9.65213E-05-2.94456E-05-2.87383E-05 5.64866E-06-2.59826E-19-9.17116E-19
 -1      3412 9.54299E-05-2.84533E-05-2.87183E-05 5.50674E-06-1.16885E-19-1.44105E-18
 -1      3413 9.70017E-05-3.00484E-05-2.86794E-05 5.93535E-06-3.22335E-19-9.33297E-19
 -1      3414 9.76944E-05-3.08072E-05-2.86587E-05 5.98653E-06-3.23259E-19-8.01268E-19
 -1      3415 9.61048E-05-2.94739E-05-2.85777E-05 6.20703E-06-1.59703E-19-1.57505E-18
 -1      3416 9.85405E-05-3.17074E-05-2.86177E-05 6.15442E-06-3.26301E-19-7.20714E-19
 -1      3417 9.95442E-05-3.27486E-05-2.86238E-05 5.99385E-06-2.42321E-19-5.90076E-19
 -1      3418 9.73969E-05-3.10682E-05-2.84583E-05 6.78584E-06-3.39454E-19-1.03514E-18
 -1      3419 1.00860E-04-3.39708E-05-2.86285E-05 5.90995E-06-5.13308E-19-2.61789E-19
 -1      3420 1.02183E-04-3.52504E-05-2.86925E-05 5.40952E-06-6.89721E-19-4.64862E-19
 -1      3421 9.95214E-05-3.33569E-05-2.84000E-05 7.05154E-06-1.06476E-19-6.27297E-19
 -1      3422 1.04021E-04-3.67154E-05-2.87933E-05 4.86438E-06-5.55862E-19-4.32835E-19
 -1      3423 1.05562E-04-3.80340E-05-2.89646E-05 3.87512E-06-5.65807E-19-3.75816E-19
 -1      3424 1.02650E-04-3.63175E-05-2.84830E-05 6.66793E-06-6.53521E-19-4.35005E-19
 -1      3425 1.07816E-04-3.94583E-05-2.92403E-05 2.60097E-06-7.96888E-19-1.33035E-19
 -1      3426 1.09295E-04-4.03560E-05-2.95821E-05 1.01321E-06-1.08852E-18-1.36864E-19
 -1      3427 1.06768E-04-3.95986E-05-2.88443E-05 5.12680E-06-4.75119E-19-5.11809E-19
 -1      3428 1.11569E-04-4.12016E-05-3.01270E-05-1.11266E-06-1.03566E-18 2.86718E-19
 -1      3429 1.12549E-04-4.09674E-05-3.07096E-05-3.23972E-06-7.03706E-19 2.00480E-19
 -1      3430 1.11357E-04-4.21975E-05-2.96746E-05 1.93445E-06-7.85592E-19 9.52515E-20
 -1      3431 1.13905E-04-4.02111E-05-3.16364E-05-6.04340E-06-3.41070E-19 7.85219E-19
 -1      3432 1.13709E-04-3.81333E-05-3.23819E-05-7.91483E-06 3.37529E-19 3.71583E-19
 -1      3433 1.15319E-04-4.25342E-05-3.11740E-05-3.15649E-06-3.92696E-19 1.15911E-18
 -1      3434 1.14667E-04-3.40881E-05-3.46399E-05-1.08674E-05 8.25228E-20-1.58964E-19
 -1      3435 1.13051E-04-2.98244E-05-3.58470E-05-1.17658E-05-2.82128E-19-4.51654E-19
 -1      3436 1.10929E-04-2.48928E-05-3.68864E-05-1.05911E-05-4.05252E-19-1.01182E-18
 -1      3437 1.07129E-04-1.67723E-05-3.90073E-05-6.08838E-06 8.09975E-20-1.88056E-18
 -1      3438 1.06054E-04-1.48045E-05-3.92756E-05-2.00421E-06 2.05776E-19-2.10956E-18
 -1      3439 1.06344E-04-1.60123E-05-3.88588E-05 3.97186E-06 2.90638E-20-2.18271E-18
 -1      3440 1.07582E-04-1.85324E-05-3.84841E-05 7.74514E-06-2.93153E-19-1.83773E-18
 -1      3441 1.11264E-04-2.44790E-05-3.72791E-05 1.06222E-05-2.25840E-19-1.90377E-18
 -1      3442 1.13499E-04-2.91834E-05-3.62732E-05 1.21561E-05-2.43879E-19-1.56163E-18
 -1      3443 1.13647E-04-3.83165E-05-3.23608E-05 7.75326E-06 2.98933E-19-1.25209E-18
 -1      3444 1.13687E-04-4.01278E-05-3.15353E-05 5.86402E-06 4.03982E-19-8.51435E-19
 -1      3445 1.12198E-04-4.07788E-05-3.06488E-05 3.13747E-06 6.85931E-19-6.55394E-19
 -1      3446 1.11189E-04-4.08684E-05-3.00923E-05 1.12015E-06 8.45376E-19-4.40051E-19
 -1      3447 1.14894E-04-4.22452E-05-3.11036E-05 3.11724E-06 4.14351E-19-7.42431E-19
 -1      3448 1.08873E-04-3.99715E-05-2.95651E-05-9.38785E-07 7.12897E-19 2.23769E-20
 -1      3449 1.07364E-04-3.89992E-05-2.92404E-05-2.44532E-06 6.02783E-19 4.18752E-20
 -1      3450 1.10881E-04-4.17298E-05-2.96476E-05-1.80031E-06 8.42049E-19-3.23269E-19
 -1      3451 1.05091E-04-3.75181E-05-2.89827E-05-3.61101E-06 1.78175E-19 3.54501E-19
 -1      3452 1.03541E-04-3.61668E-05-2.88237E-05-4.51152E-06-1.68746E-19 6.18715E-19
 -1      3453 1.06182E-04-3.90288E-05-2.88439E-05-4.90959E-06 5.54498E-19 6.91189E-19
 -1      3454 1.01701E-04-3.46841E-05-2.87292E-05-4.96795E-06-8.21263E-19 3.92217E-19
 -1      3455 1.00377E-04-3.33931E-05-2.86701E-05-5.38526E-06-9.48485E-19 1.52586E-19
 -1      3456 1.02063E-04-3.56749E-05-2.85064E-05-6.26336E-06-5.71372E-19 2.46963E-19
 -1      3457 9.90493E-05-3.21625E-05-2.86636E-05-5.39291E-06-1.43136E-18-2.62416E-19
 -1      3458 9.80415E-05-3.11200E-05-2.86564E-05-5.47799E-06-9.22230E-19-5.23094E-19
 -1      3459 9.89211E-05-3.26919E-05-2.84258E-05-6.49494E-06-1.12267E-18 4.69149E-19
 -1      3460 9.71696E-05-3.02163E-05-2.86879E-05-5.24428E-06-4.93338E-19-1.83344E-18
 -1      3461 9.64647E-05-2.94633E-05-2.87009E-05-5.12606E-06-9.29235E-19-2.43598E-18
 -1      3462 9.67611E-05-3.03982E-05-2.84707E-05-6.09710E-06-1.87269E-18-1.13195E-18
 -1      3463 9.59447E-05-2.88638E-05-2.87416E-05-4.78357E-06-7.01086E-19-2.04581E-18
 -1      3464 9.54867E-05-2.83709E-05-2.87571E-05-4.55507E-06-3.70448E-19-1.72761E-18
 -1      3465 9.54047E-05-2.88105E-05-2.85597E-05-5.40765E-06-7.90331E-19-2.28985E-18
 -1      3466 9.52156E-05-2.80166E-05-2.87925E-05-4.18167E-06-1.53424E-19-1.63751E-18
 -1      3467 9.49399E-05-2.77289E-05-2.88025E-05-3.90458E-06-5.50932E-19-1.72146E-18
 -1      3468 9.46411E-05-2.78203E-05-2.86492E-05-4.62225E-06-2.76349E-19-1.87956E-18
 -1      3469 9.48324E-05-2.75544E-05-2.88273E-05-3.54240E-06-9.29634E-19-1.04970E-18
 -1      3470 9.46820E-05-2.74152E-05-2.88292E-05-3.25538E-06-8.19909E-19-8.99267E-19
 -1      3471 9.42818E-05-2.72837E-05-2.87200E-05-3.84728E-06-1.39324E-19-1.83373E-18
 -1      3472 9.46742E-05-2.73628E-05-2.88426E-05-2.92542E-06-1.36354E-18-1.71947E-19
 -1      3473 9.46045E-05-2.73230E-05-2.88370E-05-2.65161E-06-1.10312E-18 3.19831E-19
 -1      3474 9.41790E-05-2.70649E-05-2.87663E-05-3.13488E-06-7.93874E-19-6.68023E-19
 -1      3475 9.46516E-05-2.73470E-05-2.88405E-05-2.36291E-06-1.08987E-18 8.54659E-19
 -1      3476 9.46303E-05-2.73686E-05-2.88292E-05-2.11512E-06-3.86181E-19 8.97451E-19
 -1      3477 9.42259E-05-2.70531E-05-2.87894E-05-2.50747E-06-7.14427E-19 1.76881E-18
 -1      3478 9.47024E-05-2.74351E-05-2.88253E-05-1.86985E-06 2.65727E-19 2.97352E-19
 -1      3479 9.47076E-05-2.74902E-05-2.88103E-05-1.65397E-06 8.65463E-19 5.34505E-19
 -1      3480 9.43494E-05-2.71640E-05-2.87936E-05-1.97121E-06-3.47421E-19 1.45750E-18
 -1      3481 9.47860E-05-2.75759E-05-2.88014E-05-1.45037E-06 5.70606E-19 4.82523E-19
 -1      3482 9.48037E-05-2.76456E-05-2.87848E-05-1.26781E-06 4.05285E-19 9.26180E-19
 -1      3483 9.45020E-05-2.73372E-05-2.87842E-05-1.52333E-06 8.72566E-19 2.71453E-19
 -1      3484 9.48778E-05-2.77354E-05-2.87730E-05-1.10212E-06-2.99974E-19 6.69105E-19
 -1      3485 9.48995E-05-2.78078E-05-2.87560E-05-9.51586E-07-3.44305E-19 1.13296E-18
 -1      3486 9.46555E-05-2.75328E-05-2.87660E-05-1.15630E-06-1.08839E-19 6.00145E-20
 -1      3487 9.49641E-05-2.78926E-05-2.87430E-05-8.19284E-07 2.01630E-19 2.34471E-19
 -1      3488 9.49849E-05-2.79605E-05-2.87268E-05-6.97956E-07-8.03231E-22-6.35898E-19
 -1      3489 9.47945E-05-2.77258E-05-2.87428E-05-8.60815E-07-5.18903E-19-3.33912E-20
 -1      3490 9.50384E-05-2.80366E-05-2.87136E-05-5.94012E-07-3.99481E-19-1.23331E-18
 -1      3491 9.50557E-05-2.80963E-05-2.86988E-05-4.99477E-07-5.10236E-19-1.19297E-18
 -1      3492 9.49125E-05-2.79025E-05-2.87177E-05-6.26586E-07-2.89457E-19-1.43408E-18
 -1      3493 9.50974E-05-2.81598E-05-2.86864E-05-4.17866E-07-5.21259E-19-1.83067E-18
 -1      3494 9.51132E-05-2.82111E-05-2.86732E-05-3.44767E-07-3.67017E-19-2.67638E-18
 -1      3495 9.50048E-05-2.80521E-05-2.86927E-05-4.45105E-07-8.47463E-19-1.49774E-18
 -1      3496 9.51867E-05-2.83699E-05-2.86366E-05 1.60487E-07 1.84701E-18 1.60719E-18
 -1      3497 9.52093E-05-2.83974E-05-2.86336E-05 1.56812E-07 1.17730E-18 2.23577E-18
 -1      3498 9.52089E-05-2.83814E-05-2.86403E-05 1.81577E-07 1.69395E-18 2.80370E-18
 -1      3499 9.51563E-05-2.83117E-05-2.86473E-05 1.90339E-07 2.09408E-18 8.99469E-19
 -1      3500 1.03840E-04-4.43590E-05-2.50727E-05-2.55822E-05-1.73639E-18-1.27015E-18
 -1      3501 8.56828E-05-2.05398E-05-2.79146E-05-1.01640E-05-6.06654E-19-1.47410E-18
 -1      3502 8.67476E-05-2.10565E-05-2.81972E-05-9.27441E-06-5.05303E-19-1.72062E-18
 -1      3503 8.83428E-05-2.18259E-05-2.85081E-05-8.63695E-06-3.47925E-19-1.69427E-18
 -1      3504 8.92131E-05-2.24179E-05-2.86581E-05-7.90733E-06-4.69705E-19-1.41307E-18
 -1      3505 8.57114E-05-2.03984E-05-2.79416E-05-7.60757E-06-3.28258E-19-1.69919E-18
 -1      3506 7.88626E-05-1.98364E-05-2.52090E-05-1.53914E-05-2.59170E-19-1.39553E-18
 -1      3507 7.98525E-05-1.92260E-05-2.60494E-05-1.35934E-05-6.14761E-20-1.15246E-18
 -1      3508 9.51599E-05-2.40199E-05-3.04865E-05 2.00174E-06 1.87778E-18-1.60279E-18
 -1      3509 9.47890E-05-2.31192E-05-3.07218E-05 2.26206E-06 2.00274E-18-1.66133E-18
 -1      3510 9.52718E-05-2.46503E-05-3.02711E-05 1.08205E-06 1.63486E-18-1.61267E-18
 -1      3511 9.17813E-05-2.40873E-05-2.90318E-05 5.22341E-06-5.96584E-19 1.66066E-18
 -1      3512 9.12826E-05-2.35850E-05-2.90136E-05 5.85762E-06-7.70237E-20 7.18111E-19
 -1      3513 1.20609E-04-5.25542E-05-2.94366E-05 1.16218E-05 6.49089E-19 1.77574E-18
 -1      3514 1.14371E-04-5.11506E-05-2.69164E-05 1.95611E-05 1.23611E-18 1.11605E-18
 -1      3515 9.16943E-05-1.73197E-05-3.18878E-05-8.11084E-07 1.35754E-19-3.48217E-18
 -1      3516 9.18448E-05-1.75459E-05-3.18571E-05-1.47395E-06-1.81671E-19-3.36223E-18
 -1      3517 9.27698E-05-1.91341E-05-3.15405E-05-1.36840E-06-3.39181E-19-3.15764E-18
 -1      3518 8.83596E-05-2.16505E-05-2.86256E-05 7.79563E-06 5.70165E-19-8.10571E-19
 -1      3519 8.74826E-05-2.11041E-05-2.84477E-05 8.66305E-06 3.48820E-19 2.89873E-19
 -1      3520 9.28423E-05-2.50674E-05-2.90617E-05 4.20248E-06-1.72273E-18 1.90633E-18
 -1      3521 9.24921E-05-2.46441E-05-2.90767E-05 4.74305E-06-1.46102E-18 1.46611E-18
 -1      3522 9.11110E-05-2.37024E-05-2.88680E-05 4.47021E-06-1.17188E-18 2.56533E-18
 -1      3523 9.35975E-05-2.58663E-05-2.90394E-05 3.33319E-06-2.41830E-19 2.08862E-18
 -1      3524 9.33595E-05-2.55229E-05-2.90708E-05 3.78736E-06-8.15393E-19 1.96246E-18
 -1      3525 9.23136E-05-2.47577E-05-2.89375E-05 3.64935E-06-1.13256E-18 2.31403E-18
 -1      3526 9.41272E-05-2.65021E-05-2.89911E-05 2.60409E-06 6.48015E-19 1.34874E-18
 -1      3527 9.39696E-05-2.62299E-05-2.90286E-05 2.97957E-06 6.58005E-19 2.17269E-18
 -1      3528 9.31849E-05-2.56169E-05-2.89473E-05 2.92928E-06-1.34474E-19 1.57606E-18
 -1      3529 9.44944E-05-2.70006E-05-2.89326E-05 2.00264E-06-8.57943E-19 1.91860E-18
 -1      3530 9.43924E-05-2.67877E-05-2.89705E-05 2.30815E-06-7.54101E-19 1.46604E-18
 -1      3531 9.38099E-05-2.63032E-05-2.89244E-05 2.31056E-06-4.24361E-19 1.83082E-18
 -1      3532 9.47465E-05-2.73875E-05-2.88732E-05 1.51464E-06-4.97482E-19 2.48429E-18
 -1      3533 9.46820E-05-2.72226E-05-2.89083E-05 1.75948E-06-2.27929E-19 2.45984E-18
 -1      3534 9.42546E-05-2.68442E-05-2.88855E-05 1.79041E-06-1.33446E-18 3.16199E-18
 -1      3535 9.49179E-05-2.76855E-05-2.88177E-05 1.12479E-06-1.21395E-18 4.38655E-18
 -1      3536 9.48781E-05-2.75585E-05-2.88486E-05 1.31826E-06-9.60802E-19 3.26687E-18
 -1      3537 9.45685E-05-2.72665E-05-2.88407E-05 1.36210E-06-1.28765E-18 3.60051E-18
 -1      3538 9.50333E-05-2.79137E-05-2.87684E-05 8.17999E-07-6.37139E-19 5.68438E-18
 -1      3539 9.50095E-05-2.78164E-05-2.87948E-05 9.68781E-07-9.13148E-19 5.31679E-18
 -1      3540 9.47885E-05-2.75935E-05-2.87959E-05 1.01593E-06-1.79181E-18 5.13277E-18
 -1      3541 9.51100E-05-2.80876E-05-2.87260E-05 5.79882E-07 1.48063E-18 5.19527E-18
 -1      3542 9.50963E-05-2.80129E-05-2.87480E-05 6.96382E-07 7.79285E-19 5.59725E-18
 -1      3543 9.49414E-05-2.78456E-05-2.87542E-05 7.41489E-07-5.53203E-21 5.47827E-18
 -1      3544 9.51596E-05-2.82193E-05-2.86903E-05 3.98099E-07 9.67270E-19 3.06233E-18
 -1      3545 9.51528E-05-2.81626E-05-2.87083E-05 4.87097E-07 1.32893E-18 3.67494E-18
 -1      3546 9.50454E-05-2.80388E-05-2.87171E-05 5.27887E-07 2.28512E-18 5.00500E-18
 -1      3547 1.23370E-04-4.47766E-05-3.39369E-05-5.18664E-06-6.58383E-19 2.08586E-18
 -1      3548 1.24156E-04-4.99006E-05-3.16022E-05 2.32957E-06 1.61386E-19 2.26331E-18
 -1      3549 9.42861E-05-2.18975E-05-3.10139E-05-2.62911E-06-1.26893E-18-2.67470E-18
 -1      3550 9.38807E-05-2.09333E-05-3.12592E-05-3.68430E-06-1.44654E-18-2.81164E-18
 -1      3551 9.55939E-05-2.59983E-05-2.98212E-05 8.87542E-07-1.18483E-18-2.10612E-18
 -1      3552 9.56252E-05-2.64167E-05-2.96647E-05 1.48462E-06-1.11619E-18-2.15044E-18
 -1      3553 9.55205E-05-2.62311E-05-2.96958E-05 1.60266E-06-9.00511E-19-1.86217E-18
 -1      3554 7.76575E-05-3.30009E-05-1.89373E-05 3.36545E-05 1.99519E-18-8.11352E-19
 -1      3555 6.56027E-05-2.39885E-05-1.76423E-05 2.80693E-05 1.79079E-18-2.28207E-18
 -1      3556 9.49687E-05-2.80975E-05-2.86594E-05-7.02472E-08 1.04025E-18-3.56147E-18
 -1      3557 9.49598E-05-2.80884E-05-2.86600E-05-2.84738E-08 2.23252E-18-3.48862E-18
 -1      3558 9.49338E-05-2.80401E-05-2.86674E-05-1.12522E-07 1.24508E-18-2.87513E-18
 -1      3559 7.30682E-05-2.42502E-05-2.07657E-05-2.39707E-05-4.65709E-19-2.19810E-18
 -1      3560 8.58154E-05-2.03939E-05-2.80872E-05 9.46686E-06-2.57381E-19-6.39705E-19
 -1      3561 8.47894E-05-2.00121E-05-2.77534E-05 1.05288E-05-5.08077E-19-6.39270E-19
 -1      3562 8.43780E-05-1.94749E-05-2.77601E-05 7.65022E-06 2.63622E-21 3.38936E-19
 -1      3563 1.04660E-04-4.56395E-05-2.49751E-05-2.43855E-05 1.59518E-18-2.22724E-18
 -1      3564 1.13277E-04-4.98784E-05-2.73476E-05-1.77994E-05 1.91656E-18-2.65691E-18
 -1      3565 9.53403E-05-2.47828E-05-3.02365E-05-4.76922E-07-1.14265E-18-2.11212E-18
 -1      3566 9.54740E-05-2.54438E-05-3.00195E-05 2.96130E-07-1.14463E-18-2.18820E-18
 -1      3567 9.54016E-05-2.52727E-05-3.00536E-05 5.10944E-07-1.17073E-18-2.24753E-18
 -1      3568 9.50800E-05-2.82173E-05-2.86551E-05-2.12347E-07 5.49429E-19-1.23754E-18
 -1      3569 9.50458E-05-2.81833E-05-2.86566E-05-1.90058E-07 5.75949E-19-1.20673E-18
 -1      3570 9.49929E-05-2.81036E-05-2.86658E-05-2.03285E-07 6.56497E-19-1.96708E-18
 -1      3571 8.24976E-05-1.96414E-05-2.69133E-05-1.21962E-05-2.68173E-19-1.33860E-18
 -1      3572 8.36425E-05-1.98509E-05-2.73996E-05-1.10273E-05-4.37557E-19-1.45848E-18
 -1      3573 8.21357E-05-1.88023E-05-2.70739E-05-8.82200E-06-6.53250E-19-1.83347E-18
 -1      3574 9.32404E-05-2.52724E-05-2.91282E-05-5.32864E-06 3.43350E-19-1.01598E-18
 -1      3575 9.35966E-05-2.56142E-05-2.91464E-05-4.83181E-06 4.83333E-19-1.15327E-18
 -1      3576 5.34896E-05-1.11906E-05-1.79793E-05 1.64924E-06 9.58881E-19 1.14641E-18
 -1      3577 5.45277E-05-1.19112E-05-1.81789E-05-7.27160E-06 8.96038E-19-2.89976E-19
 -1      3578 6.65576E-05-1.87825E-05-2.02466E-05 1.92430E-05-1.67979E-18 1.78348E-18
 -1      3579 5.74736E-05-1.28243E-05-1.88772E-05 9.88312E-06 1.67673E-19 1.07563E-18
 -1      3580 6.70111E-05-1.94581E-05-2.00869E-05-2.03229E-05-4.22299E-19-2.61479E-18
 -1      3581 7.71860E-05-2.34865E-05-2.28279E-05-2.13636E-05-2.95284E-19-1.94730E-18
 -1      3582 7.70958E-05-2.10657E-05-2.40282E-05-1.84792E-05-3.36590E-19-1.75702E-18
 -1      3583 6.28539E-05-1.63557E-05-1.98460E-05-1.57280E-05-3.16234E-19-2.78621E-18
 -1      3584 6.00315E-05-1.57906E-05-1.87218E-05-1.66749E-05-3.36239E-19 8.09975E-19
 -1      3585 6.89118E-05-2.31505E-05-1.96746E-05-2.53518E-05 7.86669E-19 1.49300E-18
 -1      3586 9.03205E-05-2.29307E-05-2.89080E-05 6.41046E-06 6.94174E-20-3.81692E-19
 -1      3587 8.96394E-05-2.23726E-05-2.88299E-05 7.14870E-06 4.62193E-19-9.49344E-19
 -1      3588 8.72746E-05-2.10060E-05-2.83600E-05 6.43002E-06 3.99811E-19 1.09702E-18
 -1      3589 8.94725E-05-2.24435E-05-2.86969E-05 5.39219E-06-5.16746E-19 1.54765E-18
 -1      3590 1.22331E-04-4.22712E-05-3.41912E-05 7.53573E-06 1.12953E-18-1.56774E-18
 -1      3591 1.18577E-04-3.48183E-05-3.60531E-05 1.13634E-05 3.39846E-19-1.47834E-18
 -1      3592 1.12899E-04-3.33710E-05-3.41643E-05 1.03505E-05-1.71696E-19-1.25572E-18
 -1      3593 1.20348E-04-4.42118E-05-3.26433E-05 3.92324E-06 1.01927E-18-8.64371E-19
 -1      3594 9.34027E-05-2.53580E-05-2.91512E-05-4.23576E-06 2.74557E-19-1.44402E-18
 -1      3595 9.41174E-05-2.59622E-05-2.92083E-05-4.42982E-06 3.94765E-19-1.33821E-18
 -1      3596 9.43718E-05-2.61737E-05-2.92339E-05-3.95647E-06 4.37294E-19-1.32556E-18
 -1      3597 1.09515E-04-4.91780E-05-2.59093E-05 2.29679E-05 1.19373E-18 1.08619E-18
 -1      3598 1.03296E-04-4.53739E-05-2.47268E-05 2.49761E-05 1.24187E-18 8.86380E-19
 -1      3599 1.11916E-04-4.81113E-05-2.72331E-05 1.67244E-05 1.05871E-18 6.96340E-19
 -1      3600 9.90291E-05-4.09473E-05-2.47705E-05-2.31834E-05 1.42639E-18-1.67613E-18
 -1      3601 1.18248E-04-3.79454E-05-3.44557E-05-9.43443E-06-3.82025E-19 4.80301E-19
 -1      3602 9.47738E-05-2.30743E-05-3.07338E-05-1.94044E-06-1.26536E-18-2.48806E-18
 -1      3603 9.50541E-05-2.39688E-05-3.04714E-05-1.08287E-06-1.12286E-18-2.30776E-18
 -1      3604 9.49910E-05-2.38368E-05-3.04914E-05-7.14640E-07-1.03790E-18-2.31292E-18
 -1      3605 9.41815E-05-2.18236E-05-3.10042E-05-1.99836E-06-1.04579E-18-2.68316E-18
 -1      3606 9.50310E-05-2.67260E-05-2.92736E-05-3.57199E-06 8.11097E-19-1.41391E-18
 -1      3607 1.14177E-04-3.66454E-05-3.32423E-05 9.75841E-06 4.89082E-19-1.23734E-18
 -1      3608 1.15145E-04-2.12966E-05-4.03416E-05-1.05785E-05-7.25219E-19-5.76300E-19
 -1      3609 9.51285E-05-2.82593E-05-2.86592E-05 2.32425E-07 9.31857E-19 4.10807E-19
 -1      3610 9.51595E-05-2.82946E-05-2.86562E-05 2.34216E-07 1.40660E-18 1.43280E-18
 -1      3611 9.51461E-05-2.82615E-05-2.86641E-05-3.01019E-07-6.25596E-19-3.48291E-18
 -1      3612 9.51595E-05-2.83018E-05-2.86537E-05-2.51043E-07 1.71674E-19-3.33711E-18
 -1      3613 9.51389E-05-2.82803E-05-2.86539E-05-2.42745E-07 1.94880E-19-1.92538E-18
 -1      3614 9.50827E-05-2.81809E-05-2.86715E-05-3.23646E-07-5.19954E-19-2.90321E-18
 -1      3615 9.53870E-05-2.61534E-05-2.96765E-05-1.51199E-06 1.38806E-18-1.38761E-18
 -1      3616 9.54340E-05-2.58425E-05-2.98181E-05-8.35976E-07 1.37612E-18-1.44805E-18
 -1      3617 7.78734E-05-2.68000E-05-2.17144E-05-2.37184E-05 1.27531E-18-2.79071E-19
 -1      3618 1.17047E-04-4.02339E-05-3.30117E-05 7.67545E-06 4.28751E-19-6.56861E-19
 -1      3619 8.84813E-05-2.19678E-05-2.84700E-05-6.64740E-06 2.33616E-21-1.54310E-18
 -1      3620 9.04417E-05-2.31451E-05-2.88424E-05-7.38341E-06-3.17481E-19-1.15551E-18
 -1      3621 9.11091E-05-2.36971E-05-2.89138E-05-6.75814E-06-1.46923E-19-1.01793E-18
 -1      3622 7.27370E-05-1.77704E-05-2.34650E-05-1.48666E-05-1.46727E-19-1.65729E-18
 -1      3623 9.44228E-05-2.23536E-05-3.08891E-05 2.08900E-06 1.80741E-18-1.88778E-18
 -1      3624 6.04053E-05-1.42302E-05-1.95896E-05-1.18456E-05-3.01524E-19 4.99895E-19
 -1      3625 6.70696E-05-1.71414E-05-2.13763E-05-1.44350E-05-1.07692E-19 7.49042E-19
 -1      3626 6.21443E-05-1.34430E-05-2.08609E-05-6.66181E-06 3.80265E-19 1.44497E-18
 -1      3627 8.68802E-05-3.67030E-05-2.12732E-05 3.05028E-05 1.90749E-18-3.16314E-19
 -1      3628 6.12541E-05-1.94384E-05-1.75179E-05 2.36497E-05 1.29705E-18-2.86371E-18
 -1      3629 5.82660E-05-1.61664E-05-1.79290E-05 1.71711E-05 9.79223E-19-2.85461E-18
 -1      3630 7.01493E-05-2.40921E-05-1.95989E-05 2.51450E-05 1.76594E-18-1.70518E-18
 -1      3631 7.87422E-05-1.91609E-05-2.55169E-05 1.48614E-05-7.43199E-19-4.14166E-19
 -1      3632 7.78770E-05-2.06514E-05-2.45505E-05 1.73452E-05-7.57724E-19 8.22906E-19
 -1      3633 9.51818E-05-2.82720E-05-2.86743E-05 3.23926E-07 1.66413E-19 2.27210E-18
 -1      3634 9.51095E-05-2.81832E-05-2.86838E-05 3.55808E-07 1.10005E-18 2.13700E-18
 -1      3635 9.51858E-05-2.83142E-05-2.86599E-05 2.58819E-07 1.74922E-19 2.44124E-18
 -1      3636 9.52106E-05-2.83653E-05-2.86477E-05 2.12832E-07 1.42890E-18 3.19061E-18
 -1      3637 9.51186E-05-2.82615E-05-2.86538E-05-2.31052E-07-1.96859E-19-2.01500E-19
 -1      3638 9.25368E-05-2.47796E-05-2.90553E-05-5.74902E-06 1.62267E-19-9.18376E-19
 -1      3639 9.22047E-05-2.45045E-05-2.89975E-05-5.00668E-06 2.64955E-19-1.12456E-18
 -1      3640 9.20440E-05-2.43208E-05-2.90241E-05-6.29840E-06-1.94786E-19-9.64262E-19
 -1      3641 9.50474E-05-2.81749E-05-2.86611E-05 1.89472E-07 1.68989E-18-1.40275E-18
 -1      3642 9.50837E-05-2.82085E-05-2.86603E-05 2.13973E-07 1.40567E-18-1.93726E-18
 -1      3643 9.50863E-05-2.81871E-05-2.86694E-05 2.61474E-07 1.87647E-18-6.48937E-19
 -1      3644 9.49591E-05-2.80853E-05-2.86608E-05 2.48492E-08 2.17681E-18-1.33818E-18
 -1      3645 9.49672E-05-2.80922E-05-2.86612E-05 6.67681E-08 1.29192E-18 7.97668E-19
 -1      3646 9.49109E-05-2.80136E-05-2.86689E-05-4.50378E-09 1.70195E-18-1.87589E-18
 -1      3647 1.16957E-04-4.98230E-05-2.86390E-05-1.21060E-05 2.50060E-18-7.05473E-19
 -1      3648 1.17393E-04-4.78274E-05-2.98701E-05-5.76219E-06 1.60077E-18-3.18038E-19
 -1      3649 1.11111E-04-4.64638E-05-2.77138E-05-1.41094E-05 1.62763E-18-9.74958E-19
 -1      3650 8.26280E-05-1.94547E-05-2.71366E-05 1.16504E-05-4.46011E-19-1.04318E-18
 -1      3651 8.15598E-05-1.95681E-05-2.65454E-05 1.31414E-05-1.00221E-18-4.71702E-19
 -1      3652 7.58304E-05-1.72267E-05-2.50450E-05 1.17410E-05-3.17929E-19-8.04367E-19
 -1      3653 8.06001E-05-1.80401E-05-2.67365E-05 9.26413E-06-1.36195E-18-8.65919E-19
 -1      3654 9.51637E-05-2.64485E-05-2.94512E-05-2.60422E-06 1.13950E-18-1.24654E-18
 -1      3655 9.52785E-05-2.63470E-05-2.95391E-05-2.05121E-06 1.29046E-18-1.37866E-18
 -1      3656 9.52154E-05-2.58417E-05-2.97288E-05-1.58838E-06 1.34633E-18-1.57384E-18
 -1      3657 1.19439E-04-4.91934E-05-3.01395E-05 6.13387E-06 1.56893E-19 1.76931E-18
 -1      3658 9.33881E-05-2.04773E-05-3.12624E-05 1.32792E-06 1.28737E-18-2.93970E-18
 -1      3659 9.31865E-05-2.01379E-05-3.13159E-05 9.33896E-07 1.01991E-18-3.00152E-18
 -1      3660 7.74781E-05-1.74606E-05-2.56415E-05-1.06269E-05-2.01471E-19-1.40560E-18
 -1      3661 6.12888E-05-1.30895E-05-2.04070E-05 6.30147E-06 8.05997E-19 7.69926E-19
 -1      3662 9.50704E-05-2.81881E-05-2.86637E-05-2.61820E-07 4.25705E-20-1.47650E-18
 -1      3663 9.24764E-05-1.86683E-05-3.16132E-05-4.25382E-07 1.52599E-19-3.29192E-18
 -1      3664 4.96277E-05-1.11093E-05-1.60544E-05-5.33955E-07 1.80802E-19-2.71591E-18
 -1      3665 5.59826E-05-1.24484E-05-1.84448E-05-6.14758E-06 1.60010E-19-2.79648E-18
 -1      3666 5.42421E-05-1.20980E-05-1.79751E-05 5.26132E-06 5.85674E-19-2.83783E-18
 -1      3667 9.30595E-05-1.99369E-05-3.13512E-05 6.49895E-07 8.95289E-19-3.00488E-18
 -1      3668 9.29959E-05-1.98302E-05-3.13673E-05 2.21249E-07 6.08768E-19-2.99362E-18
 -1      3669 9.37003E-05-2.11349E-05-3.10784E-05 5.72762E-07 8.88720E-19-2.86656E-18
 -1      3670 7.49576E-05-2.20209E-05-2.25687E-05 2.00113E-05-1.61059E-18 1.84428E-18
 -1      3671 9.35801E-05-2.07612E-05-3.12106E-05-1.40424E-06-6.44878E-19-2.96113E-18
 -1      3672 9.38896E-05-2.13176E-05-3.11141E-05-1.75175E-06-9.32632E-19-2.80966E-18
 -1      3673 9.44021E-05-2.24171E-05-3.08416E-05-1.13457E-06-1.05256E-18-2.74006E-18
 -1      3674 9.50350E-05-2.81354E-05-2.86725E-05-3.03748E-07 5.97459E-19-2.41843E-18
 -1      3675 1.21335E-04-4.24961E-05-3.38983E-05-7.18113E-06-6.60016E-19 1.72880E-18
 -1      3676 1.18481E-04-4.36801E-05-3.20437E-05-3.82284E-06-3.89834E-19 1.47959E-18
 -1      3677 9.51133E-05-2.67965E-05-2.92793E-05 2.90809E-06-4.31319E-19-1.63123E-18
 -1      3678 9.50345E-05-2.69458E-05-2.91774E-05 3.29350E-06-4.03656E-19-1.74175E-18
 -1      3679 9.48561E-05-2.70473E-05-2.90623E-05 3.68122E-06-3.28083E-19-1.64643E-18
 -1      3680 9.48132E-05-2.71910E-05-2.89742E-05 4.05604E-06-1.11831E-19-1.55302E-18
 -1      3681 9.46373E-05-2.66696E-05-2.91302E-05 3.28964E-06-2.78782E-19-1.37142E-18
 -1      3682 9.46651E-05-2.73148E-05-2.88654E-05 4.48085E-06 5.19793E-20-1.47129E-18
 -1      3683 9.47178E-05-2.75327E-05-2.87835E-05 4.86234E-06-6.24428E-20-1.31422E-18
 -1      3684 9.43007E-05-2.68860E-05-2.88962E-05 4.11918E-06 2.59816E-20-1.40160E-18
 -1      3685 9.46723E-05-2.77642E-05-2.86738E-05 5.34384E-06-2.15206E-19-1.28409E-18
 -1      3686 9.48947E-05-2.81441E-05-2.85939E-05 5.73426E-06-3.21635E-20-1.33413E-18
 -1      3687 9.40902E-05-2.72241E-05-2.86654E-05 5.05710E-06-1.52876E-19-1.18073E-18
 -1      3688 9.50463E-05-2.85786E-05-2.84805E-05 6.27678E-06-6.48681E-20-1.41062E-18
 -1      3689 9.55308E-05-2.92152E-05-2.84044E-05 6.65563E-06-1.07014E-19-1.28606E-18
 -1      3690 9.41686E-05-2.78751E-05-2.84268E-05 6.13816E-06-1.24477E-19-1.07893E-18
 -1      3691 9.60034E-05-2.99560E-05-2.82921E-05 7.23668E-06-1.36677E-19-1.13713E-18
 -1      3692 9.68592E-05-3.09435E-05-2.82314E-05 7.54742E-06-6.95200E-20-7.44478E-19
 -1      3693 9.47497E-05-2.90546E-05-2.81810E-05 7.36080E-06-4.95707E-20-8.53917E-19
 -1      3694 9.78141E-05-3.20917E-05-2.81382E-05 8.09164E-06-2.58688E-20-4.80051E-19
 -1      3695 9.91489E-05-3.34972E-05-2.81209E-05 8.22017E-06-1.76528E-19-3.79876E-19
 -1      3696 9.61163E-05-3.09998E-05-2.79486E-05 8.65287E-06 1.55221E-19-1.31947E-19
 -1      3697 1.00777E-04-3.51170E-05-2.80896E-05 8.55055E-06-3.60990E-19-4.32700E-19
 -1      3698 1.02655E-04-3.69108E-05-2.81691E-05 8.29461E-06-5.30495E-19-2.02965E-19
 -1      3699 9.86254E-05-3.39305E-05-2.77874E-05 9.79700E-06-9.49521E-20-3.71440E-19
 -1      3700 1.05108E-04-3.89429E-05-2.82820E-05 8.10301E-06-4.01072E-19-5.24267E-21
 -1      3701 1.07432E-04-4.08778E-05-2.85465E-05 7.18026E-06-3.67483E-19 3.26618E-19
 -1      3702 1.02619E-04-3.78989E-05-2.78234E-05 1.03103E-05-3.72805E-19-9.03645E-20
 -1      3703 1.10721E-04-4.29469E-05-2.89508E-05 5.84139E-06-1.64900E-19 3.24883E-19
 -1      3704 1.12966E-04-4.42931E-05-2.94710E-05 4.08070E-06-3.10474E-19 1.00878E-18
 -1      3705 1.08451E-04-4.26847E-05-2.82921E-05 9.40450E-06 3.05511E-20 3.83852E-19
 -1      3706 1.17451E-04-4.50447E-05-3.10093E-05-8.30360E-07-2.69892E-19 1.36192E-18
 -1      3707 9.47641E-05-2.33692E-05-3.06052E-05-6.73452E-07-9.48252E-19-2.53485E-18
 -1      3708 9.50398E-05-2.41590E-05-3.03759E-05-8.39803E-08-9.43090E-19-2.38071E-18
 -1      3709 9.45080E-05-2.28526E-05-3.07104E-05-5.26911E-07-7.48617E-19-2.66133E-18
 -1      3710 9.49630E-05-2.80546E-05-2.86742E-05-2.64959E-07-8.24212E-19-1.69906E-18
 -1      3711 9.49204E-05-2.80153E-05-2.86750E-05-2.23435E-07-2.28736E-19-1.90589E-18
 -1      3712 9.30098E-05-1.98471E-05-3.13656E-05-8.38443E-08 3.74215E-19-3.02692E-18
 -1      3713 9.30830E-05-1.99703E-05-3.13462E-05-5.19334E-07 7.30245E-21-3.04294E-18
 -1      3714 9.35938E-05-2.09538E-05-3.11119E-05 8.16657E-08 4.75441E-19-2.76233E-18
 -1      3715 9.52625E-05-2.50973E-05-3.00677E-05-3.61943E-07 1.41641E-18-1.76247E-18
 -1      3716 9.53812E-05-2.53703E-05-3.00113E-05-1.54380E-07 1.42596E-18-1.54041E-18
 -1      3717 1.13631E-04-4.47522E-05-2.95651E-05-4.21718E-06 1.16703E-18-3.89437E-21
 -1      3718 1.11174E-04-4.34022E-05-2.89899E-05-6.07416E-06 1.47458E-18 4.74152E-19
 -1      3719 1.06759E-04-4.02243E-05-2.85271E-05-7.02679E-06 8.27439E-19 7.53062E-19
 -1      3720 1.04421E-04-3.82254E-05-2.82905E-05-7.83142E-06 6.37764E-19 6.58705E-19
 -1      3721 1.01989E-04-3.62018E-05-2.81877E-05-7.93461E-06-3.96691E-19 9.88986E-19
 -1      3722 1.00092E-04-3.43963E-05-2.81120E-05-8.11728E-06-6.53043E-19 8.52778E-19
 -1      3723 1.01873E-04-3.71437E-05-2.78374E-05-1.00060E-05 6.82225E-20 3.85545E-19
 -1      3724 9.84668E-05-3.27698E-05-2.81397E-05-7.70794E-06-9.87917E-19 8.76745E-19
 -1      3725 9.71179E-05-3.13651E-05-2.81531E-05-7.51687E-06-1.17477E-18 1.09929E-18
 -1      3726 9.78514E-05-3.31179E-05-2.78032E-05-9.31648E-06-1.17956E-18 1.11432E-18
 -1      3727 9.61329E-05-3.02136E-05-2.82342E-05-6.92659E-06-1.93947E-18 4.21117E-19
 -1      3728 9.52519E-05-2.92283E-05-2.82831E-05-6.56223E-06-2.68213E-18 9.86620E-21
 -1      3729 9.53311E-05-3.02154E-05-2.79455E-05-8.08358E-06-1.87474E-18 5.68965E-19
 -1      3730 9.47296E-05-2.84875E-05-2.83741E-05-5.94078E-06-1.84392E-18-2.11397E-19
 -1      3731 9.42056E-05-2.78617E-05-2.84288E-05-5.51922E-06-3.78551E-19-5.88615E-20
 -1      3732 9.38821E-05-2.82705E-05-2.81426E-05-6.71851E-06-2.08501E-18 1.20244E-18
 -1      3733 9.39907E-05-2.74400E-05-2.85092E-05-4.94624E-06-8.79069E-20-7.63106E-19
 -1      3734 9.37183E-05-2.70889E-05-2.85560E-05-4.52927E-06-3.61059E-19-1.20527E-18
 -1      3735 9.31883E-05-2.71111E-05-2.83315E-05-5.43873E-06-9.05627E-19 7.24532E-19
 -1      3736 9.36934E-05-2.68947E-05-2.86184E-05-4.03261E-06-1.19428E-19-1.58879E-18
 -1      3737 9.35857E-05-2.67379E-05-2.86521E-05-3.64928E-06 1.22575E-19-1.51654E-18
 -1      3738 9.29768E-05-2.65218E-05-2.84868E-05-4.32693E-06-1.86787E-19-5.14820E-19
 -1      3739 9.36693E-05-2.66961E-05-2.86957E-05-3.23293E-06-1.14918E-19-1.19041E-18
 -1      3740 9.36620E-05-2.66677E-05-2.87159E-05-2.89538E-06-5.96706E-19-6.17102E-19
 -1      3741 9.30528E-05-2.63201E-05-2.86018E-05-3.39703E-06 1.70509E-19-1.23135E-18
 -1      3742 9.37989E-05-2.67201E-05-2.87428E-05-2.55392E-06-3.91099E-19 4.14092E-19
 -1      3743 9.38466E-05-2.67697E-05-2.87516E-05-2.26509E-06 1.34955E-19 9.11364E-19
 -1      3744 9.32835E-05-2.63658E-05-2.86786E-05-2.63698E-06 3.00059E-19-5.91821E-19
 -1      3745 9.40015E-05-2.68739E-05-2.87651E-05-1.98943E-06-5.95228E-19 1.93330E-18
 -1      3746 9.40742E-05-2.69655E-05-2.87651E-05-1.74771E-06-8.69054E-20 1.21769E-18
 -1      3747 9.35806E-05-2.65555E-05-2.87235E-05-2.02506E-06 2.52395E-19-2.60119E-19
 -1      3748 9.42256E-05-2.70919E-05-2.87688E-05-1.52799E-06 2.56949E-19 3.91010E-19
 -1      3749 9.43046E-05-2.72004E-05-2.87627E-05-1.32922E-06 3.33425E-19-5.64404E-19
 -1      3750 9.38892E-05-2.68153E-05-2.87439E-05-1.53826E-06 7.73932E-20 1.70199E-19
 -1      3751 9.44409E-05-2.73301E-05-2.87597E-05-1.15579E-06 7.68133E-19-6.09684E-19
 -1      3752 9.45156E-05-2.74401E-05-2.87499E-05-9.94893E-07 1.74268E-19-5.91238E-20
 -1      3753 9.41773E-05-2.70965E-05-2.87468E-05-1.15441E-06 3.46896E-20-9.89131E-19
 -1      3754 9.46317E-05-2.75620E-05-2.87426E-05-8.59517E-07-9.29343E-19 2.43501E-19
 -1      3755 9.46969E-05-2.76645E-05-2.87308E-05-7.31327E-07-7.04296E-19-3.98566E-19
 -1      3756 9.44292E-05-2.73695E-05-2.87379E-05-8.54152E-07 2.93346E-19 6.23072E-19
 -1      3757 9.47910E-05-2.77716E-05-2.87211E-05-6.27067E-07-4.57130E-19-8.05629E-19
 -1      3758 9.48424E-05-2.78613E-05-2.87087E-05-5.24344E-07-6.47588E-19-8.14719E-19
 -1      3759 9.46385E-05-2.76174E-05-2.87219E-05-6.22219E-07-8.49049E-19 9.96776E-19
 -1      3760 7.47353E-05-2.27897E-05-2.21352E-05-1.98816E-05 7.12199E-19-3.38323E-19
 -1      3761 8.41358E-05-3.02769E-05-2.32295E-05-2.33190E-05 1.05757E-18-2.71421E-19
 -1      3762 9.53380E-05-2.49183E-05-3.01724E-05 5.79363E-07 1.53887E-18-1.60700E-18
 -1      3763 9.51342E-05-2.42607E-05-3.03786E-05 8.37212E-07 1.59345E-18-1.66659E-18
 -1      3764 9.19103E-05-2.46453E-05-2.88400E-05 2.93028E-06-9.11601E-19 1.45346E-18
 -1      3765 9.13899E-05-2.41632E-05-2.88171E-05 3.27407E-06-7.65194E-19 2.46944E-18
 -1      3766 7.92237E-05-1.76818E-05-2.63957E-05-6.48892E-06-5.25117E-19-1.70372E-18
 -1      3767 8.12948E-05-1.85117E-05-2.69588E-05-6.00555E-06-6.05423E-19-1.53506E-18
 -1      3768 9.40353E-05-3.62585E-05-2.45318E-05-2.23522E-05 1.27352E-18-7.70140E-19
 -1      3769 1.02459E-04-4.17238E-05-2.61258E-05-1.90017E-05 1.29856E-18-2.40029E-18
 -1      3770 9.28563E-05-2.55129E-05-2.88709E-05 2.38993E-06-1.73125E-19 5.97522E-19
 -1      3771 9.24817E-05-2.51218E-05-2.88715E-05 2.69596E-06-3.69962E-19 1.04335E-18
 -1      3772 9.16950E-05-2.45394E-05-2.87656E-05 2.35337E-06-2.70528E-19 1.64546E-18
 -1      3773 1.19215E-04-4.51962E-05-3.16888E-05 1.91012E-06 7.15829E-19-1.02715E-18
 -1      3774 9.50402E-05-2.81135E-05-2.86835E-05 3.25583E-07 2.28174E-18 3.83646E-19
 -1      3775 9.50150E-05-2.80448E-05-2.86994E-05 4.04759E-07 2.74852E-18 1.91083E-18
 -1      3776 9.49876E-05-2.80626E-05-2.86839E-05 3.01214E-07 3.04278E-18-2.97618E-19
 -1      3777 9.06247E-05-2.35829E-05-2.87478E-05 3.51432E-06-1.34347E-18 2.48949E-18
 -1      3778 8.99095E-05-2.30009E-05-2.86845E-05 3.88967E-06-1.52413E-18 2.45959E-18
 -1      3779 9.03855E-05-2.34735E-05-2.86553E-05 2.74607E-06-1.03421E-18 1.59655E-18
 -1      3780 9.35477E-05-2.62105E-05-2.88662E-05 1.90772E-06-1.44276E-18 1.60776E-18
 -1      3781 9.32804E-05-2.58977E-05-2.88795E-05 2.17268E-06-6.75349E-19 1.52429E-18
 -1      3782 9.26715E-05-2.54149E-05-2.88132E-05 1.95815E-06-1.03426E-18 1.05209E-18
 -1      3783 9.40502E-05-2.67653E-05-2.88422E-05 1.49140E-06-1.51900E-18 2.60101E-18
 -1      3784 9.38610E-05-2.65177E-05-2.88615E-05 1.71472E-06-1.79310E-18 2.18009E-18
 -1      3785 9.33955E-05-2.61246E-05-2.88226E-05 1.58606E-06-1.83144E-18 1.88363E-18
 -1      3786 9.44128E-05-2.72016E-05-2.88093E-05 1.14183E-06-2.55915E-18 2.56124E-18
 -1      3787 9.42798E-05-2.70076E-05-2.88304E-05 1.32592E-06-1.77824E-18 2.14063E-18
 -1      3788 9.39293E-05-2.66928E-05-2.88101E-05 1.25361E-06-1.77372E-18 1.39978E-18
 -1      3789 9.46726E-05-2.75422E-05-2.87737E-05 8.55054E-07-1.96963E-18 3.51972E-18
 -1      3790 9.45799E-05-2.73911E-05-2.87944E-05 1.00376E-06-2.23614E-18 3.28722E-18
 -1      3791 9.43196E-05-2.71428E-05-2.87862E-05 9.67450E-07-2.91799E-18 1.66194E-18
 -1      3792 9.48573E-05-2.78057E-05-2.87388E-05 6.25903E-07 1.82773E-18 1.96914E-18
 -1      3793 9.47931E-05-2.76889E-05-2.87578E-05 7.42815E-07-8.16417E-20 3.16599E-18
 -1      3794 9.46030E-05-2.74966E-05-2.87574E-05 7.28761E-07-6.85499E-19 1.12462E-18
 -1      3795 9.49661E-05-2.79780E-05-2.87103E-05 4.65218E-07 2.31717E-18 1.99502E-18
 -1      3796 9.49211E-05-2.78878E-05-2.87271E-05 5.55204E-07 2.27443E-18 2.30736E-18
 -1      3797 9.47793E-05-2.77381E-05-2.87309E-05 5.51402E-07 1.92674E-18-8.44969E-19
 -1      3798 9.48879E-05-2.79001E-05-2.87088E-05 4.24582E-07 2.24945E-18-3.66841E-19
 -1      3799 9.49643E-05-2.80417E-05-2.86819E-05-3.30819E-07-7.47613E-19-1.74660E-18
 -1      3800 9.48823E-05-2.79733E-05-2.86754E-05-1.64067E-07 5.59058E-19-2.34005E-18
 -1      3801 9.48577E-05-2.79497E-05-2.86760E-05-1.09906E-07 1.03622E-18-3.87350E-18
 -1      3802 9.48491E-05-2.79160E-05-2.86838E-05-2.27492E-07-6.30435E-19-2.63584E-18
 -1      3803 9.47441E-05-2.63653E-05-2.93050E-05-3.54621E-06 6.46899E-19-1.29997E-18
 -1      3804 9.49223E-05-2.64322E-05-2.93543E-05-3.05780E-06 9.48010E-19-1.27636E-18
 -1      3805 9.42759E-05-2.58931E-05-2.93003E-05-3.44838E-06 6.16690E-19-1.41387E-18
 -1      3806 8.35217E-05-1.94709E-05-2.74735E-05-5.90733E-06-5.03915E-19-1.51603E-18
 -1      3807 8.51387E-05-2.02988E-05-2.78228E-05-5.53198E-06-1.85150E-19-1.48652E-18
 -1      3808 8.13201E-05-1.84300E-05-2.68808E-05-3.76298E-06-4.06366E-19-9.33697E-19
 -1      3809 9.53876E-05-2.57308E-05-2.98529E-05 1.20724E-06-8.88713E-19-1.83001E-18
 -1      3810 9.53918E-05-2.61152E-05-2.96921E-05 1.70387E-06-5.86080E-19-1.68710E-18
 -1      3811 9.39614E-05-2.14605E-05-3.10880E-05 1.89645E-06 1.69315E-18-2.34464E-18
 -1      3812 9.36375E-05-2.08902E-05-3.11853E-05 1.56576E-06 1.43640E-18-2.70515E-18
 -1      3813 9.40454E-05-2.17451E-05-3.09660E-05 9.92137E-07 1.40031E-18-2.63908E-18
 -1      3814 8.34744E-05-1.91809E-05-2.75959E-05 5.36437E-06 1.97233E-19 7.52141E-19
 -1      3815 8.17756E-05-1.83786E-05-2.71945E-05 5.86629E-06-9.10383E-19 3.10342E-19
 -1      3816 9.52233E-05-2.47544E-05-3.02026E-05 2.88373E-07-9.51721E-19-2.20107E-18
 -1      3817 9.53369E-05-2.53446E-05-2.99993E-05 8.70903E-07-9.90280E-19-2.09567E-18
 -1      3818 9.51971E-05-2.52117E-05-2.99893E-05 9.77715E-07-6.27716E-19-1.71575E-18
 -1      3819 9.50063E-05-2.42887E-05-3.03077E-05 2.77894E-07-6.92164E-19-2.21405E-18
 -1      3820 9.31936E-05-2.01341E-05-3.13188E-05-7.59127E-07-1.81877E-19-2.91509E-18
 -1      3821 9.33948E-05-2.04743E-05-3.12644E-05-1.17181E-06-4.03667E-19-2.97200E-18
 -1      3822 9.39740E-05-2.16024E-05-3.10005E-05-7.55823E-07-5.59768E-19-2.76064E-18
 -1      3823 9.37156E-05-2.11486E-05-3.10804E-05-3.71163E-07-9.13028E-20-2.73861E-18
 -1      3824 1.17364E-04-4.59622E-05-3.05925E-05-1.24227E-06 6.98256E-19-9.90603E-19
 -1      3825 7.35306E-05-1.59768E-05-2.46274E-05-7.46712E-06-2.98728E-19-1.84694E-18
 -1      3826 7.61462E-05-1.66650E-05-2.55604E-05-6.71834E-06-3.45894E-19-1.79495E-18
 -1      3827 7.61242E-05-1.63630E-05-2.55160E-05-3.55209E-06-3.67564E-19-1.63239E-18
 -1      3828 6.10019E-05-1.37785E-05-1.99841E-05-1.00529E-05 1.18982E-19-2.39207E-18
 -1      3829 6.82708E-05-1.62069E-05-2.21655E-05-1.28355E-05-8.87432E-20-1.96175E-18
 -1      3830 7.01174E-05-1.54945E-05-2.34833E-05-9.78140E-06 7.19316E-20-1.65444E-18
 -1      3831 6.15426E-05-1.29660E-05-2.08579E-05-4.44934E-06 5.83367E-19-2.52097E-18
 -1      3832 9.42746E-05-4.01270E-05-2.32003E-05 2.79315E-05 1.53399E-18 2.62580E-20
 -1      3833 8.35596E-05-3.25903E-05-2.17565E-05 2.73767E-05 1.77465E-18-7.62356E-19
 -1      3834 9.53259E-05-2.64091E-05-2.95355E-05 2.10524E-06-4.94567E-19-1.60106E-18
 -1      3835 9.52628E-05-2.66388E-05-2.94100E-05 2.52935E-06-4.70952E-19-1.75143E-18
 -1      3836 9.51927E-05-2.59357E-05-2.96791E-05 1.73104E-06-4.92268E-19-1.56474E-18
 -1      3837 9.46806E-05-2.30187E-05-3.06981E-05 1.33326E-06 1.66321E-18-1.89525E-18
 -1      3838 1.16746E-04-4.64416E-05-3.01966E-05 3.42553E-06-8.85745E-20 1.64802E-18
 -1      3839 1.14274E-04-4.77417E-05-2.84597E-05 1.11264E-05 5.93964E-19 1.12020E-18
 -1      3840 9.49849E-05-2.81095E-05-2.86619E-05 1.17115E-07 2.42290E-18 1.75094E-18
 -1      3841 9.50094E-05-2.81313E-05-2.86619E-05 1.53208E-07 1.71237E-18 2.38095E-19
 -1      3842 9.49298E-05-2.80285E-05-2.86705E-05 1.05565E-07 1.48324E-18 7.22427E-19
 -1      3843 9.49711E-05-2.64049E-05-2.93845E-05 2.51442E-06-4.11567E-19-1.51869E-18
 -1      3844 9.47882E-05-2.78534E-05-2.86848E-05-8.90856E-08-3.15041E-19-3.73350E-18
 -1      3845 9.48435E-05-2.79320E-05-2.86768E-05-3.86551E-08 7.59554E-19-3.41195E-18
 -1      3846 9.48410E-05-2.79295E-05-2.86777E-05 1.92371E-08 4.93980E-19-6.17011E-19
 -1      3847 9.27654E-05-2.49140E-05-2.90849E-05-3.81812E-06 1.87414E-19-1.33663E-18
 -1      3848 9.32880E-05-2.52548E-05-2.91646E-05-3.46078E-06 3.18748E-19-1.39740E-18
 -1      3849 9.51512E-05-2.49899E-05-3.00766E-05-5.94309E-07 1.46466E-18-1.94620E-18
 -1      3850 9.50962E-05-2.44489E-05-3.02766E-05 8.74348E-08 1.40650E-18-1.91638E-18
 -1      3851 1.08624E-04-4.27556E-05-2.83195E-05-9.43201E-06 1.25445E-18 2.58696E-19
 -1      3852 8.99393E-05-3.21191E-05-2.46553E-05-1.98735E-05 6.74086E-19-7.82936E-19
 -1      3853 7.27842E-05-2.02194E-05-2.24224E-05-1.67713E-05 3.69695E-19 1.11527E-19
 -1      3854 7.88385E-05-2.33211E-05-2.37414E-05-1.66785E-05-1.42804E-20-4.33046E-19
 -1      3855 7.16791E-05-1.81959E-05-2.29662E-05-1.25910E-05 5.95828E-19 2.72824E-19
 -1      3856 9.49209E-05-2.79672E-05-2.86938E-05-4.05174E-07-1.22826E-18-7.78035E-19
 -1      3857 9.13023E-05-2.39515E-05-2.88730E-05-4.39088E-06 1.92537E-19-1.42082E-18
 -1      3858 9.20094E-05-2.44474E-05-2.89670E-05-4.04827E-06 2.25488E-19-1.52623E-18
 -1      3859 9.20115E-05-2.43603E-05-2.89765E-05-3.24906E-06 2.58843E-19-1.62194E-18
 -1      3860 9.98401E-05-4.14852E-05-2.48621E-05 2.30970E-05 1.06837E-18 1.44475E-19
 -1      3861 9.47666E-05-2.34092E-05-3.05837E-05 8.06320E-07 1.50288E-18-1.92428E-18
 -1      3862 8.68303E-05-2.11796E-05-2.81534E-05-5.41948E-06-1.18423E-20-1.56822E-18
 -1      3863 8.80689E-05-2.19300E-05-2.83686E-05-5.07744E-06 8.22714E-21-1.36873E-18
 -1      3864 8.51320E-05-2.02808E-05-2.77434E-05-3.85298E-06-8.05248E-20-1.40905E-18
 -1      3865 6.29464E-05-1.26210E-05-2.14315E-05-5.18015E-07 7.02673E-20 1.60157E-18
 -1      3866 6.68035E-05-1.43148E-05-2.24506E-05-4.72498E-06-5.12144E-19 1.71256E-18
 -1      3867 7.83399E-05-2.83278E-05-2.12677E-05 2.61228E-05 1.71299E-18-8.12675E-19
 -1      3868 7.29727E-05-2.38930E-05-2.10153E-05 2.24460E-05 1.44927E-18-1.33136E-18
 -1      3869 8.58582E-05-3.17975E-05-2.30325E-05 2.39642E-05 1.35365E-18-5.54125E-19
 -1      3870 9.48750E-05-2.60738E-05-2.94824E-05-2.58983E-06 1.06964E-18-1.21498E-18
 -1      3871 9.06007E-05-2.33615E-05-2.87918E-05-5.79973E-06-2.36474E-20-1.03512E-18
 -1      3872 9.49940E-05-2.80916E-05-2.86708E-05 1.99600E-07 2.42606E-18-3.91148E-19
 -1      3873 9.44452E-05-2.28325E-05-3.07022E-05 6.60467E-07 1.40828E-18-2.38089E-18
 -1      3874 9.42302E-05-2.24183E-05-3.07814E-05 5.27788E-07 1.20388E-18-2.63882E-18
 -1      3875 6.37025E-05-1.69382E-05-2.00080E-05 1.54606E-05 1.15171E-18-2.47053E-18
 -1      3876 5.79414E-05-1.35498E-05-1.86699E-05 1.10389E-05 8.26476E-19-3.07822E-18
 -1      3877 6.00846E-05-1.31620E-05-2.00004E-05 5.01695E-06 7.50021E-19-2.51881E-18
 -1      3878 9.51378E-05-2.53962E-05-2.98888E-05-1.08526E-06 1.14085E-18-1.73702E-18
 -1      3879 9.49860E-05-2.47824E-05-3.00812E-05-6.69197E-07 1.23314E-18-2.00607E-18
 -1      3880 9.50376E-05-2.56568E-05-2.97403E-05-1.63148E-06 1.03002E-18-1.58693E-18
 -1      3881 7.93219E-05-1.74328E-05-2.65846E-05 6.09723E-06-1.02512E-18 7.61407E-19
 -1      3882 7.72056E-05-1.67023E-05-2.59351E-05 6.75698E-06-1.37894E-18 7.73350E-19
 -1      3883 7.91196E-05-1.71474E-05-2.64719E-05 3.60939E-06-6.86884E-19 5.51086E-19
 -1      3884 6.96124E-05-1.46205E-05-2.34817E-05-5.54348E-06-4.22511E-20-2.18261E-18
 -1      3885 9.48109E-05-2.78480E-05-2.86978E-05-3.99885E-07-8.63340E-19-6.28984E-19
 -1      3886 8.86386E-05-2.21989E-05-2.84446E-05 3.10000E-06-1.88227E-18 9.38243E-19
 -1      3887 8.88896E-05-2.23097E-05-2.85549E-05 4.12222E-06-1.38267E-18 1.59368E-18
 -1      3888 8.79203E-05-2.16284E-05-2.84249E-05 4.52383E-06-7.31434E-19 1.90003E-18
 -1      3889 6.59982E-05-1.42528E-05-2.21330E-05 9.40699E-06 3.26716E-19 5.82415E-19
 -1      3890 6.26450E-05-1.26591E-05-2.13031E-05 2.07679E-06 7.42514E-19 3.36524E-19
 -1      3891 9.40709E-05-2.21558E-05-3.08340E-05 4.69555E-07 1.06748E-18-2.73692E-18
 -1      3892 9.39644E-05-2.19572E-05-3.08695E-05 2.90798E-07 8.37142E-19-2.81876E-18
 -1      3893 9.44767E-05-2.30769E-05-3.05835E-05 2.11022E-07 1.08660E-18-2.49729E-18
 -1      3894 8.65666E-05-2.08305E-05-2.82012E-05 4.73615E-06 1.50092E-21 1.54501E-18
 -1      3895 8.52725E-05-2.00666E-05-2.79652E-05 5.16853E-06 5.82229E-19 1.29643E-18
 -1      3896 8.32446E-05-1.90188E-05-2.74675E-05 3.53838E-06-4.33790E-20 8.00253E-19
 -1      3897 8.63194E-05-2.07108E-05-2.80769E-05 3.37504E-06-7.32648E-19 1.59863E-18
 -1      3898 1.10396E-04-4.57824E-05-2.76356E-05 1.38525E-05 7.26638E-19 7.82784E-19
 -1      3899 9.48252E-05-2.60501E-05-2.94786E-05 2.03342E-06-4.17958E-19-1.40805E-18
 -1      3900 9.46755E-05-2.62113E-05-2.93401E-05 2.41471E-06-3.12075E-19-1.38750E-18
 -1      3901 9.39078E-05-2.64141E-05-2.89319E-05 3.58204E-06-8.37381E-20-1.40748E-18
 -1      3902 9.37589E-05-2.65080E-05-2.88124E-05 4.02274E-06-8.34914E-20-1.50130E-18
 -1      3903 9.34518E-05-2.65740E-05-2.86681E-05 4.54321E-06-8.05776E-20-1.31985E-18
 -1      3904 9.34047E-05-2.67651E-05-2.85454E-05 5.05689E-06-2.14466E-20-1.31866E-18
 -1      3905 9.30364E-05-2.60743E-05-2.86996E-05 3.98814E-06-1.22739E-19-1.21754E-18
 -1      3906 9.31860E-05-2.69605E-05-2.83872E-05 5.71544E-06 1.10773E-19-1.19632E-18
 -1      3907 9.33357E-05-2.73546E-05-2.82572E-05 6.31806E-06 2.98907E-21-1.01920E-18
 -1      3908 9.24906E-05-2.62704E-05-2.83854E-05 5.18619E-06 1.21377E-19-1.38438E-18
 -1      3909 9.33096E-05-2.77905E-05-2.80807E-05 7.14167E-06 4.11852E-20-7.89281E-19
 -1      3910 9.37825E-05-2.85097E-05-2.79468E-05 7.83013E-06 2.99097E-19-5.23106E-19
 -1      3911 9.22106E-05-2.68283E-05-2.80335E-05 6.71500E-06 3.15334E-19-7.14856E-19
 -1      3912 9.40990E-05-2.93197E-05-2.77557E-05 8.82567E-06 2.45650E-19-4.18694E-19
 -1      3913 9.50594E-05-3.05019E-05-2.76335E-05 9.55150E-06 1.31390E-19-3.19587E-19
 -1      3914 9.24430E-05-2.80046E-05-2.76412E-05 8.62841E-06 4.20147E-19-4.71196E-19
 -1      3915 9.59470E-05-3.18465E-05-2.74456E-05 1.06811E-05-2.17493E-19-4.65976E-19
 -1      3916 9.76036E-05-3.36355E-05-2.73753E-05 1.13044E-05-3.18145E-19-6.04894E-19
 -1      3917 9.35418E-05-3.01354E-05-2.72231E-05 1.09498E-05-1.56137E-19-8.20897E-19
 -1      3918 9.94003E-05-3.56841E-05-2.72488E-05 1.23645E-05 1.91117E-19-5.60182E-19
 -1      3919 1.01985E-04-3.80781E-05-2.73253E-05 1.25378E-05 2.36680E-19-1.05266E-19
 -1      3920 9.60697E-05-3.35900E-05-2.68450E-05 1.34932E-05 2.46119E-20-1.04907E-18
 -1      3921 1.03948E-04-4.02871E-05-2.71959E-05 1.37529E-05 2.63397E-19 1.19159E-19
 -1      3922 1.07534E-04-4.31219E-05-2.75521E-05 1.31326E-05 6.24389E-19 6.22563E-19
 -1      3923 1.04626E-04-4.34852E-05-2.62946E-05 1.88549E-05 1.01717E-18 3.11668E-19
 -1      3924 9.96831E-05-3.80470E-05-2.65168E-05 1.61791E-05 5.50196E-19-8.80352E-20
 -1      3925 9.39357E-05-2.18916E-05-3.08853E-05 2.07008E-07 5.23631E-19-2.63717E-18
 -1      3926 9.39501E-05-2.19133E-05-3.08825E-05 4.05245E-10 2.03509E-19-2.45820E-18
 -1      3927 9.43114E-05-2.27424E-05-3.06518E-05 1.67962E-07 6.94968E-19-2.45473E-18
 -1      3928 9.43456E-05-2.25792E-05-3.07665E-05-4.63351E-07-5.89663E-19-2.43685E-18
 -1      3929 9.46871E-05-2.34075E-05-3.05372E-05-5.88868E-08-5.37679E-19-2.29159E-18
 -1      3930 9.41928E-05-2.22980E-05-3.08175E-05-3.05884E-07-2.62730E-19-2.40443E-18
 -1      3931 9.68160E-05-3.83574E-05-2.50126E-05 2.13612E-05 9.84692E-19 1.32561E-19
 -1      3932 9.68790E-05-3.28079E-05-2.74032E-05-1.08119E-05-1.18440E-18-2.35230E-19
 -1      3933 9.51777E-05-3.10601E-05-2.74590E-05-1.01902E-05-1.20298E-18 2.53854E-19
 -1      3934 9.42385E-05-2.96859E-05-2.76321E-05-9.04789E-06-1.69202E-18 7.87121E-19
 -1      3935 9.32425E-05-2.85041E-05-2.77405E-05-8.28933E-06-2.32710E-18 6.18436E-19
 -1      3936 9.27286E-05-2.92773E-05-2.72263E-05-1.05153E-05-1.14322E-18 5.49814E-19
 -1      3937 9.28762E-05-2.76926E-05-2.79095E-05-7.27200E-06-2.40875E-18 1.30623E-18
 -1      3938 9.23509E-05-2.69782E-05-2.80198E-05-6.55863E-06-1.94367E-18 1.40386E-18
 -1      3939 9.15210E-05-2.71501E-05-2.76074E-05-8.14012E-06-2.02315E-18 7.83073E-19
 -1      3940 9.23059E-05-2.65496E-05-2.81620E-05-5.72007E-06-1.57780E-18 1.27164E-18
 -1      3941 9.20936E-05-2.61767E-05-2.82562E-05-5.10300E-06-1.16593E-18 3.97852E-19
 -1      3942 9.11661E-05-2.59872E-05-2.79418E-05-6.20888E-06-1.82199E-18 1.01854E-18
 -1      3943 9.22286E-05-2.60084E-05-2.83666E-05-4.43944E-06-9.49311E-19-2.08278E-19
 -1      3944 9.22060E-05-2.58655E-05-2.84390E-05-3.92623E-06-8.30824E-19-1.49779E-19
 -1      3945 9.12926E-05-2.54776E-05-2.82092E-05-4.67563E-06-1.31450E-18 3.53560E-19
 -1      3946 9.24331E-05-2.58670E-05-2.85191E-05-3.40908E-06-6.30678E-19-8.91485E-19
 -1      3947 9.25189E-05-2.58732E-05-2.85698E-05-2.99246E-06 2.13844E-19-1.05136E-18
 -1      3948 9.16735E-05-2.53831E-05-2.84093E-05-3.49162E-06-1.33902E-18-8.74977E-19
 -1      3949 9.27802E-05-2.59767E-05-2.86239E-05-2.59619E-06 2.77678E-19-1.51991E-18
 -1      3950 9.29190E-05-2.60709E-05-2.86559E-05-2.26314E-06 3.20039E-19-1.19687E-18
 -1      3951 9.21727E-05-2.55507E-05-2.85496E-05-2.58913E-06 3.48231E-19-2.09000E-18
 -1      3952 9.31779E-05-2.62268E-05-2.86893E-05-1.96212E-06 7.85237E-19-1.39882E-18
 -1      3953 9.33342E-05-2.63665E-05-2.87064E-05-1.69768E-06 3.63724E-19-1.02201E-18
 -1      3954 9.26982E-05-2.58604E-05-2.86411E-05-1.91010E-06 5.29173E-19-1.74393E-18
 -1      3955 9.35729E-05-2.65437E-05-2.87242E-05-1.47093E-06 2.88967E-19-9.36053E-19
 -1      3956 9.37250E-05-2.66990E-05-2.87304E-05-1.26322E-06 3.93262E-19-5.13022E-19
 -1      3957 9.31969E-05-2.62331E-05-2.86947E-05-1.39947E-06 6.37128E-19-9.82063E-19
 -1      3958 9.39325E-05-2.68753E-05-2.87371E-05-1.09244E-06-6.99335E-20-8.08848E-19
 -1      3959 9.40694E-05-2.70285E-05-2.87359E-05-9.30319E-07 4.12487E-19-9.84788E-19
 -1      3960 9.36417E-05-2.66178E-05-2.87209E-05-1.02107E-06 2.63855E-19-1.88609E-18
 -1      3961 9.42430E-05-2.71919E-05-2.87351E-05-8.02155E-07 1.01913E-18-9.10907E-19
 -1      3962 9.43598E-05-2.73333E-05-2.87290E-05-6.76628E-07 9.97213E-20-7.38033E-19
 -1      3963 9.40214E-05-2.69824E-05-2.87279E-05-7.37785E-07 8.98315E-19-2.11480E-18
 -1      3964 9.44996E-05-2.74762E-05-2.87234E-05-5.81633E-07-6.86602E-19-1.66891E-19
 -1      3965 9.45940E-05-2.76007E-05-2.87144E-05-4.85055E-07-1.35109E-18-7.28616E-19
 -1      3966 9.43331E-05-2.73095E-05-2.87221E-05-5.28622E-07-1.80498E-19-2.20724E-18
 -1      3967 9.25763E-05-2.54581E-05-2.87715E-05 1.46483E-06-1.80357E-18 1.47856E-18
 -1      3968 9.21518E-05-2.50676E-05-2.87562E-05 1.63042E-06-9.32572E-19 1.36444E-18
 -1      3969 6.76945E-05-1.38707E-05-2.30263E-05 2.69745E-06-3.53947E-19 1.56728E-18
 -1      3970 9.44058E-05-2.62948E-05-2.91952E-05 2.76830E-06-2.73520E-19-1.28629E-18
 -1      3971 9.42266E-05-2.63816E-05-2.90712E-05 3.16294E-06-1.67135E-19-1.37321E-18
 -1      3972 9.36718E-05-2.60219E-05-2.89917E-05 3.04569E-06-1.25434E-19-9.82248E-19
 -1      3973 1.01577E-04-3.86567E-05-2.69793E-05-1.42816E-05 5.93454E-19-1.39072E-18
 -1      3974 1.06557E-04-4.26196E-05-2.73139E-05-1.39878E-05 9.27557E-19-1.21016E-18
 -1      3975 9.16073E-05-2.46196E-05-2.87170E-05 1.71128E-06-1.62028E-19 1.31282E-18
 -1      3976 9.10354E-05-2.41448E-05-2.86766E-05 1.87232E-06-2.31617E-20 1.59043E-18
 -1      3977 9.16213E-05-2.46718E-05-2.86792E-05 1.19048E-06-8.75771E-19 1.94819E-18
 -1      3978 9.49243E-05-2.79987E-05-2.86832E-05 2.47326E-07 2.83254E-18-1.27593E-18
 -1      3979 9.48682E-05-2.79071E-05-2.86970E-05 3.11290E-07 3.30394E-18-1.01076E-18
 -1      3980 9.48800E-05-2.79542E-05-2.86835E-05 2.04055E-07 2.28963E-18-6.56117E-19
 -1      3981 9.03275E-05-2.36106E-05-2.86027E-05 1.91501E-06-1.17221E-18 6.65749E-19
 -1      3982 8.95620E-05-2.30431E-05-2.85221E-05 2.05077E-06-2.06513E-18 1.41546E-19
 -1      3983 9.03919E-05-2.37074E-05-2.85610E-05 1.23888E-06-1.08123E-18 1.00467E-18
 -1      3984 9.38512E-05-2.67006E-05-2.87834E-05 9.67883E-07-2.22744E-18 1.73283E-18
 -1      3985 9.36208E-05-2.64453E-05-2.87916E-05 1.10904E-06-1.66993E-18 1.38050E-18
 -1      3986 9.42558E-05-2.71442E-05-2.87657E-05 7.53209E-07-2.83789E-18 9.09786E-19
 -1      3987 9.40880E-05-2.69413E-05-2.87782E-05 8.74788E-07-2.11663E-18 1.71346E-18
 -1      3988 9.38257E-05-2.66989E-05-2.87631E-05 7.40061E-07-2.13593E-18 1.67663E-18
 -1      3989 9.45528E-05-2.74947E-05-2.87419E-05 5.70876E-07 8.22348E-19-1.21557E-18
 -1      3990 9.44322E-05-2.73349E-05-2.87561E-05 6.71355E-07-1.81915E-18-6.97840E-19
 -1      3991 9.42333E-05-2.71404E-05-2.87502E-05 5.83609E-07-6.84340E-19-3.26578E-19
 -1      3992 9.38438E-05-2.55471E-05-2.92747E-05-3.19006E-06 6.29527E-19-1.31325E-18
 -1      3993 9.42164E-05-2.57166E-05-2.93612E-05-2.79976E-06 8.49572E-19-1.23224E-18
 -1      3994 9.32978E-05-2.50969E-05-2.92170E-05-2.80623E-06 6.14749E-19-1.30262E-18
 -1      3995 7.97675E-05-1.81822E-05-2.64416E-05-1.22657E-06-1.95646E-19-1.21769E-18
 -1      3996 8.19854E-05-1.91027E-05-2.69769E-05-1.50616E-06-3.28938E-19-1.03213E-18
 -1      3997 9.46541E-05-2.33142E-05-3.05726E-05 5.03544E-07 1.49433E-18-2.10140E-18
 -1      3998 9.47850E-05-2.38426E-05-3.04014E-05 1.65669E-08 1.43899E-18-2.11241E-18
 -1      3999 9.50595E-05-2.55251E-05-2.98037E-05 1.31166E-06-5.03805E-19-1.39138E-18
 -1      4000 9.49955E-05-2.58373E-05-2.96399E-05 1.70907E-06-5.03989E-19-1.45427E-18
 -1      4001 9.47126E-05-2.56493E-05-2.95935E-05 1.61359E-06-4.62064E-19-1.49094E-18
 -1      4002 9.33057E-05-2.61452E-05-2.87886E-05 1.20872E-06-1.56112E-18 1.22727E-18
 -1      4003 9.29915E-05-2.58268E-05-2.87884E-05 1.36609E-06-1.62768E-18 1.24536E-18
 -1      4004 9.25636E-05-2.54816E-05-2.87396E-05 1.06504E-06-1.68076E-18 1.66519E-18
 -1      4005 9.32822E-05-2.61523E-05-2.87627E-05 9.04863E-07-1.81450E-18 1.06928E-18
 -1      4006 6.27289E-05-1.29655E-05-2.11474E-05 7.28630E-07 5.32898E-19-2.45151E-18
 -1      4007 6.66103E-05-1.39456E-05-2.24692E-05-2.72816E-06 1.39102E-19-2.46052E-18
 -1      4008 6.99023E-05-1.47425E-05-2.37109E-05-7.37978E-07-5.51796E-20-2.23640E-18
 -1      4009 6.49172E-05-1.43739E-05-2.17270E-05 5.88895E-06 6.56310E-19-2.36226E-18
 -1      4010 9.46880E-05-2.77016E-05-2.87065E-05-3.99095E-07-1.96180E-18-8.29152E-19
 -1      4011 9.47715E-05-2.78263E-05-2.86924E-05-2.84515E-07-1.34720E-18-2.14571E-18
 -1      4012 9.47297E-05-2.77829E-05-2.86926E-05-2.19820E-07-7.93087E-19-4.11215E-18
 -1      4013 9.45600E-05-2.75704E-05-2.87088E-05-3.56504E-07-1.53401E-18-2.95514E-18
 -1      4014 7.43295E-05-1.62296E-05-2.49069E-05 2.90321E-08-5.09279E-20-1.68435E-18
 -1      4015 7.72419E-05-1.72606E-05-2.57483E-05-4.72744E-07-7.59914E-20-1.36326E-18
 -1      4016 7.86318E-05-1.79934E-05-2.59127E-05 1.98461E-06 6.65161E-20-1.63764E-18
 -1      4017 6.90080E-05-1.58006E-05-2.26438E-05 1.32543E-05 6.25415E-20 1.28325E-19
 -1      4018 7.00470E-05-1.54473E-05-2.33768E-05 9.39353E-06 3.43121E-19 3.72192E-19
 -1      4019 9.48405E-05-2.79220E-05-2.86799E-05 8.49115E-08 9.83019E-19-7.51072E-20
 -1      4020 9.48603E-05-2.79414E-05-2.86808E-05 1.40263E-07 1.86056E-18 2.39785E-19
 -1      4021 9.47873E-05-2.78326E-05-2.86931E-05 1.85893E-07 1.71295E-18-9.42271E-19
 -1      4022 9.47666E-05-2.78273E-05-2.86878E-05 5.38964E-08 5.56696E-19-1.09058E-18
 -1      4023 7.27491E-05-1.54899E-05-2.45593E-05 7.96316E-06-5.98879E-19 5.66917E-20
 -1      4024 1.00349E-04-3.67096E-05-2.72154E-05-1.26602E-05 6.20167E-19-1.31713E-18
 -1      4025 9.77037E-05-3.42782E-05-2.71560E-05-1.23049E-05-2.72942E-19-1.14081E-18
 -1      4026 9.44470E-05-3.21082E-05-2.67557E-05-1.33674E-05-2.60320E-19-1.65906E-18
 -1      4027 9.66221E-05-3.57769E-05-2.61720E-05-1.68333E-05 2.49667E-19-1.89605E-18
 -1      4028 7.18278E-05-2.20692E-05-2.12003E-05 2.09118E-05-2.10140E-18 2.42892E-18
 -1      4029 8.93653E-05-2.26934E-05-2.85860E-05-4.92295E-06-6.96569E-21-1.43195E-18
 -1      4030 9.03062E-05-2.33275E-05-2.87218E-05-4.58531E-06 2.48150E-19-1.27888E-18
 -1      4031 9.02933E-05-2.32875E-05-2.86932E-05-3.58431E-06 2.01968E-19-1.59031E-18
 -1      4032 8.80477E-05-2.19163E-05-2.83084E-05-3.79610E-06 7.06241E-20-1.67441E-18
 -1      4033 6.96048E-05-1.47159E-05-2.36117E-05-2.48591E-06-5.26074E-19 1.51256E-18
 -1      4034 6.97831E-05-1.55377E-05-2.31163E-05-7.79142E-06-8.69466E-20 1.09039E-18
 -1      4035 8.87773E-05-3.02013E-05-2.50946E-05-1.77798E-05 5.05536E-19-1.13818E-18
 -1      4036 9.45942E-05-2.58130E-05-2.94823E-05-2.47740E-06 8.14927E-19-1.23459E-18
 -1      4037 9.48329E-05-2.57865E-05-2.95925E-05-2.02575E-06 9.78874E-19-1.31935E-18
 -1      4038 9.47839E-05-2.53816E-05-2.97379E-05-1.54719E-06 8.10587E-19-1.61607E-18
 -1      4039 9.42142E-05-2.54568E-05-2.94595E-05-2.24683E-06 7.50188E-19-1.45034E-18
 -1      4040 7.22558E-05-1.49417E-05-2.45160E-05 4.44483E-06-6.38264E-19 1.46484E-18
 -1      4041 9.48960E-05-2.44668E-05-3.01873E-05-3.83768E-07 1.28972E-18-1.91910E-18
 -1      4042 9.47176E-05-2.40011E-05-3.03084E-05-1.88551E-07 1.14131E-18-2.06040E-18
 -1      4043 9.48699E-05-2.48870E-05-2.99952E-05-8.60989E-07 8.81797E-19-1.88592E-18
 -1      4044 9.46952E-05-2.77474E-05-2.86929E-05-1.25664E-07-9.37376E-19-4.05726E-18
 -1      4045 9.46805E-05-2.77276E-05-2.86939E-05-4.42406E-08-5.90004E-19-4.14143E-18
 -1      4046 9.46168E-05-2.76422E-05-2.87013E-05-1.81135E-07-1.64800E-18-4.07590E-18
 -1      4047 9.48172E-05-2.78330E-05-2.87073E-05 3.63859E-07 2.08935E-18-1.72367E-18
 -1      4048 6.98569E-05-2.00935E-05-2.11113E-05 1.86220E-05 1.31560E-18-1.46629E-18
 -1      4049 6.81544E-05-1.76009E-05-2.16553E-05 1.34915E-05 1.02875E-18-1.95364E-18
 -1      4050 7.67534E-05-2.39782E-05-2.25585E-05 1.94147E-05 1.50152E-18-1.00682E-18
 -1      4051 7.43455E-05-1.82252E-05-2.40035E-05-9.81677E-06 4.18762E-19 5.09035E-19
 -1      4052 8.38773E-05-1.99655E-05-2.74267E-05-2.01017E-06-2.40167E-19-1.15011E-18
 -1      4053 8.55621E-05-2.07967E-05-2.77763E-05-2.16017E-06-7.84283E-20-1.24732E-18
 -1      4054 8.29596E-05-1.96918E-05-2.70495E-05 3.25302E-07-2.80953E-19-1.34810E-18
 -1      4055 9.42667E-05-2.59326E-05-2.92823E-05 2.28070E-06-2.64499E-19-1.29063E-18
 -1      4056 7.19806E-05-1.56831E-05-2.40495E-05 2.55578E-06 1.46747E-19-1.84829E-18
 -1      4057 9.50811E-05-2.52090E-05-2.99459E-05 1.06547E-06-3.26992E-19-1.45345E-18
 -1      4058 9.48964E-05-2.51174E-05-2.99013E-05 1.04497E-06-3.02894E-19-1.54020E-18
 -1      4059 9.50466E-05-2.48284E-05-3.00920E-05 7.21155E-07-3.56451E-19-1.76570E-18
 -1      4060 9.46493E-05-2.76045E-05-2.87329E-05 5.14152E-07 1.74822E-18-1.36771E-18
 -1      4061 9.44973E-05-2.74494E-05-2.87326E-05 4.55864E-07 8.84987E-19-1.83642E-18
 -1      4062 9.47104E-05-2.76975E-05-2.87219E-05 4.44259E-07 1.50199E-18-1.22218E-18
 -1      4063 9.28362E-05-2.48398E-05-2.91509E-05-2.30247E-06 3.78362E-19-1.43479E-18
 -1      4064 9.33914E-05-2.50972E-05-2.92733E-05-2.08013E-06 6.55253E-19-1.52566E-18
 -1      4065 9.39918E-05-2.19794E-05-3.08718E-05-6.47315E-08 1.41734E-20-2.48905E-18
 -1      4066 9.40883E-05-2.21424E-05-3.08455E-05-2.25597E-07-2.17529E-19-2.52526E-18
 -1      4067 9.44822E-05-2.30036E-05-3.06164E-05 2.24009E-08-2.39822E-19-2.34076E-18
 -1      4068 9.43361E-05-2.27566E-05-3.06545E-05 9.83455E-08 1.39773E-19-2.27803E-18
 -1      4069 9.48623E-05-2.40302E-05-3.03619E-05 2.88092E-07-4.90739E-19-2.11523E-18
 -1      4070 7.96796E-05-1.77413E-05-2.65772E-05 1.06805E-06-1.27928E-19 1.74691E-19
 -1      4071 7.71606E-05-1.67913E-05-2.59452E-05 8.78323E-07-6.39182E-19 9.34564E-19
 -1      4072 9.45831E-05-2.37456E-05-3.03635E-05-1.23125E-07 9.64618E-19-2.36255E-18
 -1      4073 8.87996E-05-2.25832E-05-2.83544E-05 1.14890E-06-1.84385E-18 4.04328E-19
 -1      4074 8.86446E-05-2.24176E-05-2.83952E-05 2.02362E-06-1.91043E-18 8.68466E-19
 -1      4075 8.76236E-05-2.17512E-05-2.82518E-05 2.10744E-06-1.20199E-18 5.15475E-19
 -1      4076 9.69899E-05-3.67942E-05-2.56849E-05 1.85757E-05 8.56352E-19 3.45356E-19
 -1      4077 9.15468E-05-3.47610E-05-2.43371E-05 2.23074E-05 9.89950E-19 2.13743E-20
 -1      4078 8.62499E-05-3.06734E-05-2.38378E-05 2.13444E-05 9.99065E-19-5.26610E-19
 -1      4079 9.50362E-05-3.45574E-05-2.59002E-05 1.70335E-05 5.62054E-19 2.27783E-19
 -1      4080 8.35218E-05-1.94676E-05-2.74742E-05 1.67808E-06-3.03616E-19 7.01960E-19
 -1      4081 8.17105E-05-1.86182E-05-2.70851E-05 1.57319E-06-5.51498E-20 5.05161E-19
 -1      4082 8.05766E-05-1.82622E-05-2.66316E-05-9.17343E-07-2.15886E-20 7.02424E-19
 -1      4083 8.37746E-05-2.61791E-05-2.46437E-05-1.68946E-05 5.50857E-19-1.20799E-18
 -1      4084 9.05635E-05-2.97082E-05-2.60198E-05-1.47328E-05 4.13874E-19-1.72843E-18
 -1      4085 9.13891E-05-2.40485E-05-2.88742E-05-2.52851E-06 1.69977E-19-1.37949E-18
 -1      4086 9.21464E-05-2.44806E-05-2.90059E-05-2.37428E-06 3.21677E-19-1.46071E-18
 -1      4087 9.23475E-05-2.45105E-05-2.90591E-05-1.63806E-06 3.28172E-19-1.18994E-18
 -1      4088 8.10496E-05-2.34527E-05-2.47683E-05-1.42376E-05 3.16272E-19-7.76104E-19
 -1      4089 9.47737E-05-2.40605E-05-3.03089E-05 3.85543E-07-3.35477E-19-2.07348E-18
 -1      4090 9.17744E-05-2.55262E-05-2.84060E-05 4.35832E-06 2.58592E-20-1.06359E-18
 -1      4091 9.15496E-05-2.56269E-05-2.82346E-05 5.02945E-06 2.44769E-19-1.01478E-18
 -1      4092 9.10368E-05-2.57047E-05-2.80145E-05 5.87832E-06 4.02663E-19-8.22842E-19
 -1      4093 9.10034E-05-2.60273E-05-2.78188E-05 6.74254E-06 5.55140E-19-6.43804E-19
 -1      4094 9.03108E-05-2.48909E-05-2.80358E-05 4.99399E-06 5.81951E-19-6.17450E-19
 -1      4095 9.06266E-05-2.63709E-05-2.75523E-05 7.90189E-06 3.31876E-19-6.23879E-19
 -1      4096 9.09458E-05-2.70805E-05-2.73328E-05 8.98551E-06 9.83001E-20-8.24886E-19
 -1      4097 8.93738E-05-2.51252E-05-2.75297E-05 7.02845E-06 5.34557E-19-5.90421E-19
 -1      4098 9.08040E-05-2.77641E-05-2.70209E-05 1.04341E-05 4.94720E-20-8.20752E-19
 -1      4099 9.16453E-05-2.90259E-05-2.67888E-05 1.18008E-05 1.09977E-19-7.52785E-19
 -1      4100 8.88770E-05-2.61673E-05-2.69148E-05 9.78917E-06 9.48627E-20-7.17318E-19
 -1      4101 9.20630E-05-3.03599E-05-2.64381E-05 1.36007E-05 1.39567E-19-5.74604E-19
 -1      4102 9.37639E-05-3.23998E-05-2.62383E-05 1.50330E-05 3.27186E-19-2.54028E-19
 -1      4103 9.04129E-05-3.11308E-05-2.54239E-05 1.73247E-05 6.82712E-19 1.66697E-19
 -1      4104 8.89096E-05-2.78112E-05-2.62438E-05 1.30519E-05 2.68480E-19-3.87903E-19
 -1      4105 9.17484E-05-2.48764E-05-2.86638E-05 6.71190E-07-1.46086E-18 9.01291E-19
 -1      4106 9.12041E-05-2.44485E-05-2.86197E-05 6.88703E-07-8.85025E-19 7.12544E-19
 -1      4107 9.08331E-05-2.82213E-05-2.68069E-05-1.14018E-05-6.82151E-19-7.62305E-19
 -1      4108 8.99201E-05-2.69456E-05-2.70223E-05-1.00455E-05-5.84506E-19 1.01477E-19
 -1      4109 9.47441E-05-2.51764E-05-2.98179E-05-1.17067E-06 7.24264E-19-1.91041E-18
 -1      4110 9.46741E-05-2.48556E-05-2.99153E-05-8.80450E-07 8.10337E-19-1.91406E-18
 -1      4111 9.45287E-05-2.53278E-05-2.96638E-05-1.54853E-06 6.81643E-19-1.79440E-18
 -1      4112 9.46283E-05-2.53522E-05-2.96948E-05 1.14043E-06-3.44960E-19-1.44071E-18
 -1      4113 9.44542E-05-2.55547E-05-2.95286E-05 1.44239E-06-3.42838E-19-1.29514E-18
 -1      4114 9.44596E-05-2.34377E-05-3.04458E-05 1.08436E-07 9.00725E-19-2.39901E-18
 -1      4115 9.44280E-05-2.33791E-05-3.04590E-05 1.10403E-07 5.74030E-19-2.23950E-18
 -1      4116 7.85784E-05-1.88810E-05-2.56167E-05 5.04224E-06-4.35527E-20-1.41509E-18
 -1      4117 8.08837E-05-1.96193E-05-2.62765E-05 3.73989E-06 3.19341E-20-1.39330E-18
 -1      4118 9.00425E-05-2.62185E-05-2.73145E-05-8.54959E-06-1.44287E-18-8.84198E-20
 -1      4119 8.96533E-05-2.55331E-05-2.75091E-05-7.48852E-06-1.96999E-18 2.04378E-19
 -1      4120 8.80089E-05-2.51460E-05-2.69043E-05-9.39980E-06-7.27070E-19-5.31980E-19
 -1      4121 8.99865E-05-2.51908E-05-2.77401E-05-6.31963E-06-1.94697E-18 1.09158E-18
 -1      4122 8.99508E-05-2.48872E-05-2.78988E-05-5.47255E-06-1.26945E-18 1.01615E-18
 -1      4123 8.83754E-05-2.42498E-05-2.74579E-05-6.73928E-06-1.23015E-18 1.24578E-19
 -1      4124 9.03483E-05-2.48104E-05-2.80720E-05-4.64274E-06-1.64491E-18 7.81219E-19
 -1      4125 9.04927E-05-2.47406E-05-2.81937E-05-3.98118E-06-2.01335E-18-3.80190E-19
 -1      4126 8.91768E-05-2.40786E-05-2.78872E-05-4.74909E-06-1.76763E-18 1.08043E-18
 -1      4127 9.09363E-05-2.48339E-05-2.83186E-05-3.36596E-06-1.72479E-18-3.66658E-19
 -1      4128 9.11706E-05-2.49168E-05-2.84058E-05-2.86329E-06-1.05764E-18-3.81325E-19
 -1      4129 9.00232E-05-2.42176E-05-2.81962E-05-3.29919E-06-1.93872E-18-5.68994E-19
 -1      4130 9.15977E-05-2.51032E-05-2.84912E-05-2.42730E-06-2.28214E-19-2.25395E-19
 -1      4131 9.18659E-05-2.52704E-05-2.85499E-05-2.04846E-06 1.01642E-18-8.12842E-19
 -1      4132 9.09101E-05-2.46035E-05-2.84123E-05-2.28250E-06-6.39106E-19 7.97140E-19
 -1      4133 9.22558E-05-2.55024E-05-2.86051E-05-1.74301E-06 1.15003E-18-1.37587E-18
 -1      4134 9.25159E-05-2.57037E-05-2.86417E-05-1.46277E-06 5.99829E-19-8.86364E-19
 -1      4135 9.17357E-05-2.50984E-05-2.85556E-05-1.56729E-06 4.92828E-19-1.01309E-21
 -1      4136 9.28601E-05-2.59474E-05-2.86744E-05-1.24514E-06 9.69458E-20-1.59910E-18
 -1      4137 9.30939E-05-2.61601E-05-2.86941E-05-1.04321E-06-2.44695E-19-2.09093E-18
 -1      4138 9.24712E-05-2.56141E-05-2.86448E-05-1.06423E-06 1.33710E-19-2.09748E-18
 -1      4139 9.33829E-05-2.63883E-05-2.87109E-05-8.81496E-07-8.15800E-20-2.38866E-18
 -1      4140 9.35925E-05-2.65938E-05-2.87189E-05-7.30809E-07 1.93468E-19-2.17048E-18
 -1      4141 9.30756E-05-2.61014E-05-2.86940E-05-7.21034E-07-6.00876E-19-2.86653E-18
 -1      4142 9.38259E-05-2.68008E-05-2.87247E-05-6.26084E-07 3.01957E-21-3.46062E-18
 -1      4143 9.40023E-05-2.69857E-05-2.87247E-05-5.11648E-07 2.02495E-19-3.88946E-18
 -1      4144 9.36061E-05-2.65924E-05-2.87182E-05-4.79955E-07-1.12434E-18-2.84663E-18
 -1      4145 9.41883E-05-2.71678E-05-2.87230E-05-4.41334E-07 5.03961E-19-4.00881E-18
 -1      4146 9.43279E-05-2.73258E-05-2.87180E-05-3.58825E-07-1.55667E-19-3.85559E-18
 -1      4147 9.40258E-05-2.70024E-05-2.87219E-05-3.29864E-07-2.17309E-19-5.16829E-18
 -1      4148 6.85988E-05-1.62214E-05-2.22916E-05 9.44033E-06 7.56693E-19-2.10216E-18
 -1      4149 7.02053E-05-1.58120E-05-2.32482E-05 5.65145E-06 3.26756E-19-1.88100E-18
 -1      4150 7.29158E-05-1.91202E-05-2.31615E-05 1.26085E-05 8.78303E-19-1.42741E-18
 -1      4151 7.55343E-05-1.78594E-05-2.48109E-05-7.11545E-06-1.52799E-19-1.83058E-19
 -1      4152 7.78555E-05-2.01624E-05-2.46641E-05-1.13954E-05 7.13308E-19-4.90230E-19
 -1      4153 9.06107E-05-2.39968E-05-2.85529E-05 5.94078E-07-1.03041E-18 1.75232E-19
 -1      4154 8.99074E-05-2.35039E-05-2.84730E-05 5.48692E-07-1.49167E-18 5.52687E-19
 -1      4155 9.08595E-05-2.42239E-05-2.85449E-05 5.75998E-08-1.37927E-18-2.40302E-19
 -1      4156 9.42411E-05-2.71928E-05-2.87375E-05 3.97939E-07 4.91757E-19-1.85075E-18
 -1      4157 9.40640E-05-2.69955E-05-2.87456E-05 4.60920E-07-7.44396E-19-6.52865E-19
 -1      4158 9.38459E-05-2.67726E-05-2.87485E-05 4.91713E-07-2.02884E-18-6.70506E-19
 -1      4159 9.36052E-05-2.65284E-05-2.87514E-05 5.57713E-07-2.50553E-18-8.36121E-19
 -1      4160 9.38947E-05-2.68275E-05-2.87366E-05 2.99968E-07-1.13329E-18-1.87073E-18
 -1      4161 8.20493E-05-2.26261E-05-2.54520E-05-1.15877E-05 6.45252E-19-9.70304E-19
 -1      4162 7.43269E-05-1.73259E-05-2.44967E-05 5.86836E-06 2.69297E-19-1.89139E-18
 -1      4163 8.98120E-05-2.84855E-05-2.63266E-05-1.30984E-05-4.93369E-19-1.39197E-18
 -1      4164 9.41518E-05-2.56519E-05-2.93638E-05 1.69617E-06-1.34518E-19-1.27874E-18
 -1      4165 9.38827E-05-2.57106E-05-2.92134E-05 2.03509E-06-5.68604E-21-1.02506E-18
 -1      4166 9.41050E-05-2.53428E-05-2.94591E-05 1.20710E-06-1.00544E-19-1.14370E-18
 -1      4167 9.46478E-05-2.41900E-05-3.01876E-05-2.33241E-07 8.26804E-19-2.24877E-18
 -1      4168 9.44319E-05-2.74296E-05-2.87140E-05-2.99723E-07-5.79425E-19-4.45234E-18
 -1      4169 9.45245E-05-2.75472E-05-2.87067E-05-2.20979E-07-1.56101E-18-4.53601E-18
 -1      4170 9.44948E-05-2.75119E-05-2.87069E-05-1.19229E-07-1.03286E-18-5.68046E-18
 -1      4171 9.43048E-05-2.72965E-05-2.87161E-05-2.10765E-07-2.24905E-19-5.79354E-18
 -1      4172 7.56804E-05-1.66616E-05-2.52034E-05-3.39315E-06-5.34557E-19 8.27217E-19
 -1      4173 7.41962E-05-1.58638E-05-2.50055E-05-5.93070E-07-7.68087E-19 1.27652E-18
 -1      4174 9.47018E-05-2.77097E-05-2.87099E-05 3.23062E-07 2.30959E-18-1.07323E-18
 -1      4175 8.64366E-05-2.10365E-05-2.80449E-05 1.97151E-06-7.94247E-19 1.54585E-18
 -1      4176 8.50777E-05-2.02741E-05-2.78044E-05 1.97164E-06-4.44653E-19 1.36914E-18
 -1      4177 8.67449E-05-2.12971E-05-2.80152E-05 8.39666E-07-3.11438E-19 1.96084E-18
 -1      4178 9.34452E-05-2.56743E-05-2.90555E-05 2.36296E-06-6.99977E-20-1.06733E-18
 -1      4179 9.31360E-05-2.56588E-05-2.89094E-05 2.77889E-06-1.15076E-19-1.04632E-18
 -1      4180 9.33608E-05-2.53661E-05-2.91331E-05 1.76534E-06-6.60900E-20-9.59812E-19
 -1      4181 9.26169E-05-2.55791E-05-2.87447E-05 3.22047E-06-2.76845E-19-1.17353E-18
 -1      4182 9.23138E-05-2.55718E-05-2.85911E-05 3.74412E-06-1.30907E-19-1.16351E-18
 -1      4183 9.24327E-05-2.52077E-05-2.88063E-05 2.51712E-06-2.66378E-19-1.11696E-18
 -1      4184 8.70222E-05-2.59572E-05-2.61080E-05-1.25038E-05 4.71989E-21-8.40928E-19
 -1      4185 7.85264E-05-1.84111E-05-2.57380E-05-4.97567E-06-4.48977E-19-5.74950E-19
 -1      4186 9.26325E-05-2.56217E-05-2.87224E-05 6.55939E-07-1.09179E-18 4.53112E-19
 -1      4187 9.22208E-05-2.52643E-05-2.87015E-05 7.11750E-07-1.13072E-18 7.73412E-19
 -1      4188 9.19158E-05-2.50447E-05-2.86517E-05 2.46629E-07-1.04177E-18-6.50773E-19
 -1      4189 9.13855E-05-2.49848E-05-2.84521E-05 3.54849E-06-5.02765E-20-9.50983E-19
 -1      4190 8.32892E-05-2.28852E-05-2.59748E-05-1.02147E-05-6.39775E-20-1.21037E-18
 -1      4191 8.00458E-05-1.88581E-05-2.63098E-05-3.65097E-06-6.54396E-19-2.10453E-19
 -1      4192 8.06337E-05-1.98021E-05-2.59874E-05-7.00375E-06-7.74327E-19-1.37806E-18
 -1      4193 8.20910E-05-1.95174E-05-2.68212E-05-2.74926E-06-2.56112E-19-1.82864E-19
 -1      4194 9.47374E-05-2.51294E-05-2.98321E-05 9.69132E-07-2.35510E-19-1.46041E-18
 -1      4195 9.45148E-05-2.50549E-05-2.97628E-05 8.00695E-07-1.16324E-19-1.14232E-18
 -1      4196 9.47689E-05-2.48452E-05-2.99750E-05 7.22623E-07-1.14277E-19-1.60914E-18
 -1      4197 9.45991E-05-2.39568E-05-3.02615E-05 1.72192E-07 4.25153E-19-1.93715E-18
 -1      4198 9.44517E-05-2.34037E-05-3.04596E-05 1.92717E-07 3.46824E-19-1.99197E-18
 -1      4199 9.45029E-05-2.34758E-05-3.04506E-05 1.71034E-07 8.20200E-20-2.01078E-18
 -1      4200 8.24510E-05-2.00731E-05-2.67898E-05 2.52258E-06 5.72864E-20-1.46142E-18
 -1      4201 8.42695E-05-2.07520E-05-2.72439E-05 1.80534E-06-1.19300E-20-9.63528E-19
 -1      4202 8.27459E-05-2.08135E-05-2.65355E-05 5.16875E-06 1.83929E-19-1.31176E-18
 -1      4203 7.22877E-05-1.48936E-05-2.45377E-05 2.15569E-06-1.06788E-18 1.98724E-18
 -1      4204 8.40630E-05-1.98422E-05-2.74722E-05 2.00867E-07-5.66341E-19 1.53379E-18
 -1      4205 8.95519E-05-2.33294E-05-2.83668E-05-3.22729E-07-1.25653E-18 1.49619E-18
 -1      4206 8.91639E-05-2.29938E-05-2.83630E-05 3.47614E-07-1.67467E-18 9.18434E-19
 -1      4207 8.82565E-05-2.24346E-05-2.82295E-05 2.03893E-07-1.14119E-18 1.90045E-18
 -1      4208 8.61536E-05-2.11790E-05-2.78066E-05-6.88605E-07-5.06921E-20-8.06433E-19
 -1      4209 8.70177E-05-2.15502E-05-2.80854E-05-2.43101E-06-1.00103E-19-1.17986E-18
 -1      4210 8.83295E-05-2.22713E-05-2.83207E-05-2.44375E-06 8.79827E-20-1.28629E-18
 -1      4211 9.43665E-05-2.73268E-05-2.87319E-05 3.66046E-07 8.99515E-19-9.37822E-19
 -1      4212 9.42285E-05-2.71870E-05-2.87288E-05 2.47507E-07-1.11208E-19-6.59817E-19
 -1      4213 9.44633E-05-2.74468E-05-2.87238E-05 3.14924E-07 8.99892E-19-7.96803E-19
 -1      4214 9.33776E-05-2.63126E-05-2.87323E-05 3.32592E-07-2.06156E-18-1.91469E-18
 -1      4215 9.33167E-05-2.62516E-05-2.87462E-05 5.88088E-07-2.60487E-18-7.44853E-19
 -1      4216 9.30037E-05-2.59552E-05-2.87401E-05 6.53486E-07-1.85039E-18-2.21392E-19
 -1      4217 9.35142E-05-2.49926E-05-2.93553E-05-1.47081E-06 4.20318E-19-1.58893E-18
 -1      4218 9.38863E-05-2.52650E-05-2.94166E-05-1.93084E-06 6.66093E-19-1.78089E-18
 -1      4219 7.73484E-05-1.89577E-05-2.49375E-05 7.63610E-06 2.69760E-19-1.50346E-18
 -1      4220 9.42644E-05-2.53216E-05-2.95490E-05-1.64033E-06 5.88727E-19-1.78361E-18
 -1      4221 9.46710E-05-2.77151E-05-2.86961E-05 2.75131E-08 5.03513E-20-2.47611E-18
 -1      4222 8.94783E-05-2.29358E-05-2.85398E-05-2.58244E-06 2.12168E-19-1.51751E-18
 -1      4223 9.04878E-05-2.35216E-05-2.87071E-05-2.50029E-06 1.72941E-19-1.42234E-18
 -1      4224 9.07951E-05-2.36877E-05-2.87393E-05-1.60981E-06 1.75450E-19-1.18700E-18
 -1      4225 8.87521E-05-2.25600E-05-2.83414E-05-1.31439E-06 8.23072E-20-1.27055E-18
 -1      4226 8.71748E-05-2.93865E-05-2.47008E-05 1.81979E-05 9.45223E-19-5.27109E-19
 -1      4227 8.17019E-05-2.66462E-05-2.35170E-05 1.97371E-05 1.00093E-18-1.16941E-18
 -1      4228 7.79279E-05-2.29545E-05-2.35254E-05 1.65168E-05 8.32428E-19-1.36489E-18
 -1      4229 8.62306E-05-2.75227E-05-2.51599E-05 1.58723E-05 7.38024E-19-7.44305E-19
 -1      4230 9.46932E-05-2.77259E-05-2.87022E-05 2.09521E-07 1.99623E-18-9.35281E-19
 -1      4231 9.45839E-05-2.75791E-05-2.87157E-05 2.80446E-07 1.38668E-18-1.17832E-18
 -1      4232 9.44709E-05-2.74637E-05-2.87158E-05 1.88190E-07 1.18867E-18-8.32758E-19
 -1      4233 9.46794E-05-2.77135E-05-2.86992E-05 1.41925E-07 1.32122E-18-7.94402E-19
 -1      4234 9.19669E-05-2.44005E-05-2.89711E-05-9.22009E-07 1.22709E-19-1.26299E-18
 -1      4235 9.26599E-05-2.47065E-05-2.91246E-05-9.04115E-07 2.31829E-19-1.33036E-18
 -1      4236 9.32253E-05-2.49204E-05-2.92846E-05-9.70744E-07 1.74945E-19-1.43937E-18
 -1      4237 9.37139E-05-2.50373E-05-2.94354E-05-8.64457E-07 2.28943E-19-1.60976E-18
 -1      4238 9.29628E-05-2.48220E-05-2.92025E-05-2.92600E-07 1.74976E-19-1.18741E-18
 -1      4239 9.39688E-05-2.69375E-05-2.87291E-05 1.04214E-07-1.20825E-18-2.30478E-18
 -1      4240 9.37394E-05-2.67133E-05-2.87301E-05 1.21825E-07-1.02362E-18-3.05213E-18
 -1      4241 8.81607E-05-2.39122E-05-2.75673E-05 5.51744E-06 6.94527E-19-9.98967E-19
 -1      4242 8.77391E-05-2.40542E-05-2.72869E-05 6.71338E-06 4.81495E-19-9.02461E-19
 -1      4243 8.51337E-05-2.29736E-05-2.66378E-05 7.76642E-06 2.27733E-19-1.09127E-18
 -1      4244 8.47436E-05-2.34798E-05-2.62568E-05 9.36794E-06 1.15633E-19-9.08337E-19
 -1      4245 8.49929E-05-2.07155E-05-2.75583E-05-1.24980E-06-1.13757E-18 2.70200E-19
 -1      4246 8.34138E-05-2.00364E-05-2.72203E-05-1.81353E-06-6.63442E-19-2.56467E-19
 -1      4247 8.35472E-05-2.04971E-05-2.69508E-05-4.26238E-06-7.60840E-19-1.27444E-18
 -1      4248 9.45241E-05-2.48711E-05-2.98583E-05-7.41498E-07 7.62075E-19-2.28683E-18
 -1      4249 9.46561E-05-2.45709E-05-3.00418E-05-4.68779E-07 7.95379E-19-2.21738E-18
 -1      4250 9.12414E-05-2.45841E-05-2.85643E-05-3.90855E-07-1.51738E-18-4.07113E-20
 -1      4251 9.06507E-05-2.41911E-05-2.84942E-05-5.63094E-07-9.02637E-19 1.07643E-19
 -1      4252 8.61190E-05-2.25816E-05-2.72319E-05-5.67774E-06-6.39722E-19-7.39079E-19
 -1      4253 8.66032E-05-2.25360E-05-2.74928E-05-4.55160E-06-9.77517E-19-1.03631E-18
 -1      4254 8.91798E-05-2.35873E-05-2.81050E-05-2.96221E-06-1.76178E-18-1.30643E-19
 -1      4255 8.96518E-05-2.38004E-05-2.82369E-05-2.38459E-06-1.14416E-18 3.55754E-19
 -1      4256 9.12142E-05-2.46846E-05-2.85075E-05-1.42393E-06-2.85256E-19 4.17147E-19
 -1      4257 9.16018E-05-2.49670E-05-2.85663E-05-1.13917E-06-1.73258E-19-4.34842E-19
 -1      4258 9.21309E-05-2.53221E-05-2.86290E-05-7.97515E-07-2.98060E-19-1.29877E-18
 -1      4259 9.24552E-05-2.56013E-05-2.86612E-05-6.07578E-07-2.67770E-19-1.73288E-18
 -1      4260 9.28785E-05-2.59228E-05-2.86974E-05-2.51102E-07-9.73958E-19-1.73368E-18
 -1      4261 9.31701E-05-2.61893E-05-2.87132E-05-1.43174E-07-1.37273E-18-1.70715E-18
 -1      4262 9.38498E-05-2.68236E-05-2.87242E-05-2.36749E-07-1.32404E-18-3.34227E-18
 -1      4263 9.40302E-05-2.70176E-05-2.87224E-05-1.83495E-07-6.56423E-19-4.22123E-18
 -1      4264 7.73062E-05-2.13233E-05-2.39990E-05 1.32292E-05 5.72343E-19-1.42017E-18
 -1      4265 8.46654E-05-2.28031E-05-2.65074E-05-8.44728E-06-6.89104E-19-1.45306E-18
 -1      4266 8.48668E-05-2.23907E-05-2.68467E-05-6.91364E-06-1.17939E-18-7.46719E-19
 -1      4267 9.12328E-05-2.40392E-05-2.87985E-05-7.64404E-07 5.75610E-20-1.11704E-18
 -1      4268 9.16581E-05-2.42783E-05-2.88663E-05-3.52653E-09 8.10110E-21-8.98555E-19
 -1      4269 9.03146E-05-2.35719E-05-2.86185E-05-6.46440E-07 1.67310E-20-1.03076E-18
 -1      4270 9.46754E-05-2.39003E-05-3.03367E-05 3.82061E-07-2.12447E-19-2.17775E-18
 -1      4271 8.10957E-05-2.24619E-05-2.51948E-05 1.15032E-05 3.61721E-19-1.18090E-18
 -1      4272 9.41074E-05-2.51811E-05-2.95451E-05 6.44446E-07 1.49841E-20-1.16084E-18
 -1      4273 9.37901E-05-2.52517E-05-2.93779E-05 8.82328E-07-1.33838E-20-9.78456E-19
 -1      4274 9.42544E-05-2.51145E-05-2.96222E-05-1.26393E-06 6.78687E-19-1.94227E-18
 -1      4275 9.10464E-05-2.45256E-05-2.85215E-05 2.49596E-06-2.43145E-19-3.37062E-19
 -1      4276 9.05088E-05-2.43777E-05-2.83305E-05 3.05834E-06 2.65231E-19-4.19583E-19
 -1      4277 8.73318E-05-2.18770E-05-2.80575E-05-1.59820E-07-8.48294E-19 1.45220E-18
 -1      4278 8.61451E-05-2.12465E-05-2.78438E-05-4.48825E-07-9.65279E-19 5.93982E-19
 -1      4279 8.79314E-05-2.23635E-05-2.80853E-05-9.83942E-07-1.11644E-18 1.36649E-18
 -1      4280 9.30672E-05-2.50326E-05-2.91650E-05 6.92320E-07 3.83158E-20-8.46674E-19
 -1      4281 9.26023E-05-2.49183E-05-2.90035E-05 9.84131E-07-8.82784E-20-8.14763E-19
 -1      4282 9.45523E-05-2.42727E-05-3.01204E-05-1.11922E-07 6.36742E-19-2.25202E-18
 -1      4283 8.96306E-05-2.41266E-05-2.80985E-05 3.74010E-06 3.92867E-19-5.64664E-19
 -1      4284 8.90935E-05-2.40482E-05-2.78648E-05 4.57430E-06 6.79714E-19-6.08590E-19
 -1      4285 8.76201E-05-2.31255E-05-2.76499E-05 4.17133E-06 4.84331E-19-1.01805E-18
 -1      4286 9.18876E-05-2.46490E-05-2.88283E-05 1.24025E-06-1.78028E-19-5.35905E-19
 -1      4287 9.13377E-05-2.44592E-05-2.86559E-05 1.63187E-06-2.67251E-19-5.58880E-19
 -1      4288 9.45761E-05-2.75987E-05-2.87046E-05 4.17635E-08 2.10551E-19-3.02298E-18
 -1      4289 9.43558E-05-2.50028E-05-2.97225E-05-7.62051E-07 6.52974E-19-1.95042E-18
 -1      4290 9.43982E-05-2.47673E-05-2.98379E-05-3.64531E-07 4.93554E-19-1.93551E-18
 -1      4291 9.40942E-05-2.50461E-05-2.96009E-05-8.30166E-07 4.33156E-19-1.77818E-18
 -1      4292 9.45410E-05-2.46115E-05-2.99620E-05-1.05189E-07 4.15854E-19-1.87383E-18
 -1      4293 9.45358E-05-2.43130E-05-3.00996E-05 7.95943E-08 4.91735E-19-1.70751E-18
 -1      4294 9.43708E-05-2.47911E-05-2.98208E-05-9.33020E-08 2.56964E-19-1.55853E-18
 -1      4295 8.59778E-05-2.61254E-05-2.56016E-05 1.36882E-05 4.01275E-19-7.41207E-19
 -1      4296 9.47560E-05-2.43689E-05-3.01565E-05 5.17055E-07 5.06959E-20-1.76248E-18
 -1      4297 9.46255E-05-2.44384E-05-3.00800E-05 4.32233E-07 1.36034E-19-1.46405E-18
 -1      4298 9.45519E-05-2.48485E-05-2.98692E-05 4.81630E-07-6.27169E-20-1.21209E-18
 -1      4299 9.44252E-05-2.50622E-05-2.97322E-05 6.38073E-07 8.40705E-21-1.12006E-18
 -1      4300 9.41810E-05-2.49855E-05-2.96498E-05 3.14391E-07-3.15396E-20-1.00594E-18
 -1      4301 9.45616E-05-2.44567E-05-3.00466E-05 3.05433E-07 2.13514E-19-1.49317E-18
 -1      4302 9.06230E-05-2.42247E-05-2.84485E-05-1.20055E-06-3.70275E-19 4.95845E-19
 -1      4303 9.01477E-05-2.38290E-05-2.84214E-05-7.38849E-07-1.14620E-18 9.43619E-19
 -1      4304 8.94262E-05-2.33959E-05-2.83114E-05-1.02094E-06-9.76389E-19 1.55530E-18
 -1      4305 9.07039E-05-2.43778E-05-2.84351E-05-1.65471E-06-3.08811E-19 4.93253E-19
 -1      4306 9.26339E-05-2.56785E-05-2.86903E-05 2.41352E-08-9.69646E-19-1.00330E-18
 -1      4307 8.95289E-05-2.35489E-05-2.82676E-05-1.70528E-06-7.50675E-19 1.00888E-18
 -1      4308 9.02617E-05-2.41137E-05-2.83446E-05-2.05887E-06-5.92811E-19 5.58582E-19
 -1      4309 8.79341E-05-2.32466E-05-2.77336E-05-4.47517E-06-1.98322E-18 4.32558E-20
 -1      4310 8.84135E-05-2.33111E-05-2.79262E-05-3.59195E-06-2.16261E-18 2.76297E-19
 -1      4311 9.16533E-05-2.49362E-05-2.85892E-05-6.54234E-07-1.26630E-18-2.53989E-20
 -1      4312 9.34622E-05-2.64535E-05-2.87213E-05-1.21623E-07-1.55381E-18-2.32441E-18
 -1      4313 9.40510E-05-2.70262E-05-2.87234E-05-2.41676E-08-9.88666E-19-3.43990E-18
 -1      4314 9.42174E-05-2.72000E-05-2.87202E-05-1.17693E-07-3.90098E-19-5.20574E-18
 -1      4315 9.43149E-05-2.73124E-05-2.87162E-05-7.07679E-08-9.30555E-19-6.01140E-18
 -1      4316 9.41597E-05-2.71359E-05-2.87270E-05 1.48905E-07-1.51758E-18-2.31091E-18
 -1      4317 8.93829E-05-2.36020E-05-2.81712E-05 2.64585E-06 2.43077E-19-1.02338E-19
 -1      4318 8.61501E-05-2.17723E-05-2.75743E-05-3.21744E-06-1.24508E-18-1.24813E-18
 -1      4319 8.64807E-05-2.19264E-05-2.76979E-05 1.69309E-06 1.37721E-19-7.13784E-19
 -1      4320 8.78458E-05-2.25237E-05-2.79995E-05 1.17255E-06 1.91562E-19-6.75901E-19
 -1      4321 8.81782E-05-2.28664E-05-2.79822E-05-2.59510E-06-2.14145E-18-1.24229E-19
 -1      4322 9.42828E-05-2.72680E-05-2.87219E-05 1.22744E-07-5.26353E-20-3.06352E-18
 -1      4323 9.36103E-05-2.65904E-05-2.87187E-05-3.15254E-07-1.56848E-18-2.81042E-18
 -1      4324 9.17915E-05-2.50089E-05-2.86304E-05-9.71978E-08-1.52208E-18-7.81429E-19
 -1      4325 8.41663E-05-2.17476E-05-2.67228E-05 5.90908E-06 2.89107E-19-1.47739E-18
 -1      4326 9.05005E-05-2.38859E-05-2.85424E-05 1.10382E-06-8.29056E-20-3.03215E-19
 -1      4327 9.31606E-05-2.48928E-05-2.92512E-05 7.29688E-08 1.36494E-19-1.00882E-18
 -1      4328 9.44565E-05-2.74638E-05-2.87120E-05 5.65627E-08 5.85201E-20-3.25087E-18
 -1      4329 9.38903E-05-2.49627E-05-2.95305E-05-3.71904E-07 2.10163E-19-1.28476E-18
 -1      4330 8.98751E-05-2.34566E-05-2.84671E-05 2.72708E-07 3.38811E-20-6.98659E-19
 -1      4331 8.59381E-05-2.14039E-05-2.76372E-05-2.26126E-06-1.36352E-18-9.68106E-19
 -1      4332 8.72398E-05-2.22192E-05-2.78523E-05-2.29497E-06-1.43898E-18-6.82140E-19
 -1      4333 9.43627E-05-2.73556E-05-2.87170E-05 2.51421E-08-2.63335E-19-4.27607E-18
 -1      4334 9.45702E-05-2.43432E-05-3.01009E-05 2.20806E-07 2.43200E-19-1.67379E-18
 -1      4335 8.87519E-05-2.29174E-05-2.82404E-05 5.98782E-07 3.69832E-21-6.82072E-19
 -1      4336 8.88388E-05-2.30198E-05-2.82029E-05-1.27840E-06-1.49381E-18 1.55489E-18
 -1      4337 9.22755E-05-2.53718E-05-2.86695E-05-1.36340E-08-7.45974E-19-7.14590E-19
 -1      4338 8.65645E-05-2.23026E-05-2.75029E-05 3.60243E-06 2.94440E-19-8.72583E-19
 -1      4339 8.79435E-05-2.25612E-05-2.80351E-05-1.73670E-06-1.70927E-18 1.73053E-19
 -1      4340 9.27378E-05-2.57398E-05-2.87096E-05 3.36963E-07-1.12677E-18-1.35007E-18
 -1      4341 8.56621E-05-2.21610E-05-2.71976E-05 4.58842E-06 3.92047E-19-1.31257E-18
 -1      4342 9.36871E-05-2.50462E-05-2.94142E-05-2.78083E-08 1.15889E-19-1.04526E-18
 -1      4343 9.40437E-05-2.50331E-05-2.95813E-05-5.01613E-08 1.11223E-19-1.14531E-18
 -1      4344 9.43480E-05-2.48798E-05-2.97700E-05 9.21496E-11 8.68321E-20-1.29606E-18
 -1      4345 9.44911E-05-2.47544E-05-2.98904E-05 2.35823E-07 2.44474E-19-1.32992E-18
 -3
    1PSTEP                         4           1           1          
  100CL  101 1.000000000        4345                     0    1           1
 -4  ERROR       1    1
 -5  STR(%)      1    1    0    0
 -1         1 1.19606E+01
 -1         2 2.52548E+01
 -1         3 2.28958E-03
 -1         4 2.07088E-03
 -1         5 1.40153E+01
 -1         6 1.31164E+01
 -1         7 1.31164E+01
 -1         8 3.62107E+00
 -1         9 1.79864E+00
 -1        10 1.27987E+00
 -1        11 1.03585E+00
 -1        12 8.85607E-01
 -1        13 7.89538E-01
 -1        14 7.28699E-01
 -1        15 7.31287E-01
 -1        16 7.93700E-01
 -1        17 8.85852E-01
 -1        18 1.04126E+00
 -1        19 1.29706E+00
 -1        20 1.80598E+00
 -1        21 3.45969E+00
 -1        22 8.58856E+00
 -1        23 1.31164E+01
 -1        24 4.33751E+00
 -1        25 3.35000E+00
 -1        26 2.11798E+00
 -1        27 1.41182E+00
 -1        28 1.08234E+00
 -1        29 8.50014E-01
 -1        30 6.71877E-01
 -1        31 5.24952E-01
 -1        32 3.95231E-01
 -1        33 3.86142E-01
 -1        34 3.83693E-01
 -1        35 4.46619E-01
 -1        36 5.09358E-01
 -1        37 5.09358E-01
 -1        38 5.45607E-01
 -1        39 5.61893E-01
 -1        40 7.85291E-01
 -1        41 1.00418E+00
 -1        42 1.57524E+00
 -1        43 2.18565E+00
 -1        44 2.50845E+00
 -1        45 2.50845E+00
 -1        46 2.50447E+00
 -1        47 2.50447E+00
 -1        48 2.15724E+00
 -1        49 1.53728E+00
 -1        50 1.00615E+00
 -1        51 7.85424E-01
 -1        52 5.75670E-01
 -1        53 5.60992E-01
 -1        54 4.91301E-01
 -1        55 4.91301E-01
 -1        56 4.35986E-01
 -1        57 3.55661E-01
 -1        58 2.76842E-01
 -1        59 2.29285E-01
 -1        60 2.00821E-01
 -1        61 1.67284E-01
 -1        62 1.33602E-01
 -1        63 1.02697E-01
 -1        64 7.60056E-02
 -1        65 6.26015E-02
 -1        66 5.17094E-02
 -1        67 4.08897E-02
 -1        68 3.05649E-02
 -1        69 2.07589E-02
 -1        70 1.36076E-02
 -1        71 6.85938E-03
 -1        72 1.40153E+01
 -1        73 3.42474E+00
 -1        74 2.44183E+00
 -1        75 1.69834E+00
 -1        76 1.22050E+00
 -1        77 1.03230E+00
 -1        78 8.94537E-01
 -1        79 7.96787E-01
 -1        80 7.32387E-01
 -1        81 6.97456E-01
 -1        82 7.46231E-01
 -1        83 9.02898E-01
 -1        84 1.08365E+00
 -1        85 1.26355E+00
 -1        86 1.39077E+00
 -1        87 1.52912E+00
 -1        88 2.12436E+00
 -1        89 2.55733E+00
 -1        90 2.87246E+00
 -1        91 2.91552E+00
 -1        92 4.11870E+00
 -1        93 6.55282E+00
 -1        94 7.48722E+00
 -1        95 8.08262E+00
 -1        96 8.08262E+00
 -1        97 4.83995E+00
 -1        98 2.42844E+00
 -1        99 2.90082E+00
 -1       100 2.93507E+00
 -1       101 2.93507E+00
 -1       102 2.53458E+00
 -1       103 2.13069E+00
 -1       104 1.62161E+00
 -1       105 1.22551E+00
 -1       106 8.95395E-01
 -1       107 6.36369E-01
 -1       108 4.58886E-01
 -1       109 3.40331E-01
 -1       110 2.48470E-01
 -1       111 1.78581E-01
 -1       112 1.26107E-01
 -1       113 8.71206E-02
 -1       114 5.84231E-02
 -1       115 4.39590E-02
 -1       116 3.48879E-02
 -1       117 2.65095E-02
 -1       118 1.85634E-02
 -1       119 1.41153E-02
 -1       120 7.97691E-03
 -1       121 3.66140E-03
 -1       122 2.06918E-03
 -1       123 2.09244E-03
 -1       124 2.09244E-03
 -1       125 1.39998E-03
 -1       126 8.99482E-04
 -1       127 1.50349E-03
 -1       128 1.72404E-03
 -1       129 1.72404E-03
 -1       130 1.56552E-03
 -1       131 1.02781E-03
 -1       132 1.09452E-03
 -1       133 1.86558E-03
 -1       134 1.86558E-03
 -1       135 1.77878E-03
 -1       136 2.80509E-03
 -1       137 2.51055E+01
 -1       138 2.93550E+01
 -1       139 2.93550E+01
 -1       140 2.62389E+01
 -1       141 1.28109E+01
 -1       142 1.25507E+01
 -1       143 1.29131E+01
 -1       144 1.40865E+01
 -1       145 1.40865E+01
 -1       146 1.56820E+01
 -1       147 4.18416E+01
 -1       148 4.18416E+01
 -1       149 2.52616E+01
 -1       150 2.52616E+01
 -1       151 2.64834E+01
 -1       152 2.81841E+01
 -1       153 3.20126E+01
 -1       154 3.10088E+01
 -1       155 1.31533E+01
 -1       156 1.30608E+01
 -1       157 1.30608E+01
 -1       158 1.24460E+01
 -1       159 1.24460E+01
 -1       160 1.75015E+01
 -1       161 4.60462E+01
 -1       162 4.60462E+01
 -1       163 2.52548E+01
 -1       164 6.01729E+00
 -1       165 2.27036E+00
 -1       166 1.50095E+00
 -1       167 1.15081E+00
 -1       168 9.62656E-01
 -1       169 8.48416E-01
 -1       170 7.74605E-01
 -1       171 7.31287E-01
 -1       172 7.78384E-01
 -1       173 8.51138E-01
 -1       174 9.69900E-01
 -1       175 1.16470E+00
 -1       176 1.51956E+00
 -1       177 2.24783E+00
 -1       178 3.89332E+00
 -1       179 1.40153E+01
 -1       180 4.33751E+00
 -1       181 3.35000E+00
 -1       182 2.11798E+00
 -1       183 1.44270E+00
 -1       184 1.08234E+00
 -1       185 8.50014E-01
 -1       186 6.71877E-01
 -1       187 5.24952E-01
 -1       188 3.95231E-01
 -1       189 3.86142E-01
 -1       190 3.83693E-01
 -1       191 3.75613E-01
 -1       192 4.46619E-01
 -1       193 5.09358E-01
 -1       194 5.08774E-01
 -1       195 5.45607E-01
 -1       196 5.61893E-01
 -1       197 7.85291E-01
 -1       198 1.10656E+00
 -1       199 1.57524E+00
 -1       200 2.18565E+00
 -1       201 2.50845E+00
 -1       202 2.43162E+00
 -1       203 2.50447E+00
 -1       204 2.15724E+00
 -1       205 1.54722E+00
 -1       206 1.07949E+00
 -1       207 7.85424E-01
 -1       208 5.75670E-01
 -1       209 5.60992E-01
 -1       210 4.91260E-01
 -1       211 4.91301E-01
 -1       212 4.35986E-01
 -1       213 3.55661E-01
 -1       214 2.92496E-01
 -1       215 2.47870E-01
 -1       216 2.02057E-01
 -1       217 1.67284E-01
 -1       218 1.33602E-01
 -1       219 1.04536E-01
 -1       220 8.09790E-02
 -1       221 6.26015E-02
 -1       222 5.17094E-02
 -1       223 4.08897E-02
 -1       224 3.05649E-02
 -1       225 2.07589E-02
 -1       226 1.36076E-02
 -1       227 6.85938E-03
 -1       228 3.42474E+00
 -1       229 2.44183E+00
 -1       230 1.69834E+00
 -1       231 1.22050E+00
 -1       232 1.03230E+00
 -1       233 8.94537E-01
 -1       234 7.96787E-01
 -1       235 7.32387E-01
 -1       236 6.97456E-01
 -1       237 6.87646E-01
 -1       238 7.66247E-01
 -1       239 9.13212E-01
 -1       240 1.08365E+00
 -1       241 1.26355E+00
 -1       242 1.40569E+00
 -1       243 1.79082E+00
 -1       244 2.12436E+00
 -1       245 2.55733E+00
 -1       246 2.87246E+00
 -1       247 2.91552E+00
 -1       248 4.11870E+00
 -1       249 6.55282E+00
 -1       250 7.48722E+00
 -1       251 8.08262E+00
 -1       252 4.83995E+00
 -1       253 2.41481E+00
 -1       254 2.42844E+00
 -1       255 2.90082E+00
 -1       256 2.93507E+00
 -1       257 2.53458E+00
 -1       258 2.13069E+00
 -1       259 1.65756E+00
 -1       260 1.29014E+00
 -1       261 9.68129E-01
 -1       262 7.05802E-01
 -1       263 5.02645E-01
 -1       264 3.56626E-01
 -1       265 2.48470E-01
 -1       266 1.78581E-01
 -1       267 1.28801E-01
 -1       268 9.12630E-02
 -1       269 6.32207E-02
 -1       270 4.39590E-02
 -1       271 3.48879E-02
 -1       272 2.65095E-02
 -1       273 1.85634E-02
 -1       274 1.41153E-02
 -1       275 7.97691E-03
 -1       276 3.64811E-03
 -1       277 4.01465E-03
 -1       278 4.01465E-03
 -1       279 3.57932E-03
 -1       280 2.00901E-03
 -1       281 3.34174E-03
 -1       282 3.93729E-03
 -1       283 3.93729E-03
 -1       284 3.93516E-03
 -1       285 3.43889E-03
 -1       286 2.27105E-03
 -1       287 3.03422E-03
 -1       288 4.01218E-03
 -1       289 4.01218E-03
 -1       290 4.51609E-03
 -1       291 3.21130E+01
 -1       292 3.35355E+01
 -1       293 3.35355E+01
 -1       294 2.85501E+01
 -1       295 1.28109E+01
 -1       296 1.20688E+01
 -1       297 1.25507E+01
 -1       298 1.29131E+01
 -1       299 1.40865E+01
 -1       300 1.27737E+01
 -1       301 1.73621E+01
 -1       302 4.18416E+01
 -1       303 3.69355E+01
 -1       304 2.84091E+01
 -1       305 2.84091E+01
 -1       306 3.34771E+01
 -1       307 3.34771E+01
 -1       308 3.20126E+01
 -1       309 1.31533E+01
 -1       310 1.17575E+01
 -1       311 1.30608E+01
 -1       312 1.19606E+01
 -1       313 1.18576E+01
 -1       314 1.24460E+01
 -1       315 1.07696E+01
 -1       316 1.97393E+01
 -1       317 4.60462E+01
 -1       318 2.73048E+01
 -1       319 3.21130E+01
 -1       320 1.03170E+00
 -1       321 2.44064E+00
 -1       322 7.89039E-01
 -1       323 6.85153E-01
 -1       324 6.17827E-01
 -1       325 5.69555E-01
 -1       326 5.73061E-01
 -1       327 6.20380E-01
 -1       328 6.91081E-01
 -1       329 7.89508E-01
 -1       330 9.26759E-01
 -1       331 1.13997E+00
 -1       332 1.30103E+00
 -1       333 2.17910E+00
 -1       334 1.88207E+00
 -1       335 1.72462E+00
 -1       336 1.25320E+00
 -1       337 8.80742E-01
 -1       338 6.81400E-01
 -1       339 5.70082E-01
 -1       340 4.63751E-01
 -1       341 3.61348E-01
 -1       342 2.90655E-01
 -1       343 2.93287E-01
 -1       344 2.94405E-01
 -1       345 2.94864E-01
 -1       346 3.32356E-01
 -1       347 3.17773E-01
 -1       348 2.52825E-01
 -1       349 3.21692E-01
 -1       350 5.41692E-01
 -1       351 8.63903E-01
 -1       352 1.17084E+00
 -1       353 1.46389E+00
 -1       354 1.68750E+00
 -1       355 1.69574E+00
 -1       356 1.70689E+00
 -1       357 1.68361E+00
 -1       358 1.44661E+00
 -1       359 1.15304E+00
 -1       360 8.38884E-01
 -1       361 5.12893E-01
 -1       362 2.72403E-01
 -1       363 2.72812E-01
 -1       364 3.30694E-01
 -1       365 3.54121E-01
 -1       366 3.33415E-01
 -1       367 2.94766E-01
 -1       368 2.58355E-01
 -1       369 2.25722E-01
 -1       370 1.86799E-01
 -1       371 1.47598E-01
 -1       372 1.11765E-01
 -1       373 8.11395E-02
 -1       374 6.06025E-02
 -1       375 4.37033E-02
 -1       376 3.17816E-02
 -1       377 2.39177E-02
 -1       378 1.79178E-02
 -1       379 1.18330E-02
 -1       380 8.01308E-03
 -1       381 1.14379E+00
 -1       382 8.70421E-01
 -1       383 6.64980E-01
 -1       384 5.84755E-01
 -1       385 5.52335E-01
 -1       386 5.22882E-01
 -1       387 4.99802E-01
 -1       388 5.23992E-01
 -1       389 7.49139E-01
 -1       390 1.05999E+00
 -1       391 1.41174E+00
 -1       392 1.77170E+00
 -1       393 2.06731E+00
 -1       394 2.30256E+00
 -1       395 2.49285E+00
 -1       396 2.69788E+00
 -1       397 2.76723E+00
 -1       398 2.67225E+00
 -1       399 2.65113E+00
 -1       400 4.75046E+00
 -1       401 5.60205E+00
 -1       402 4.10669E+00
 -1       403 2.95917E+00
 -1       404 2.53712E+00
 -1       405 2.65025E+00
 -1       406 2.43070E+00
 -1       407 2.24399E+00
 -1       408 2.08678E+00
 -1       409 1.89536E+00
 -1       410 1.54471E+00
 -1       411 1.22705E+00
 -1       412 9.36516E-01
 -1       413 6.94138E-01
 -1       414 5.02645E-01
 -1       415 3.56626E-01
 -1       416 2.47971E-01
 -1       417 1.78568E-01
 -1       418 1.28801E-01
 -1       419 9.12630E-02
 -1       420 6.32207E-02
 -1       421 4.24660E-02
 -1       422 2.78970E-02
 -1       423 1.89299E-02
 -1       424 1.38648E-02
 -1       425 8.95173E-03
 -1       426 4.01895E-03
 -1       427 5.56784E-03
 -1       428 6.12456E-03
 -1       429 6.12456E-03
 -1       430 4.03854E-03
 -1       431 5.34242E-03
 -1       432 6.44573E-03
 -1       433 6.44573E-03
 -1       434 6.36989E-03
 -1       435 6.36989E-03
 -1       436 5.42074E-03
 -1       437 3.69587E-03
 -1       438 5.00501E-03
 -1       439 5.62176E-03
 -1       440 3.35355E+01
 -1       441 3.46382E+01
 -1       442 3.46382E+01
 -1       443 1.98437E+01
 -1       444 1.09505E+01
 -1       445 9.07118E-01
 -1       446 1.02340E+01
 -1       447 1.04689E+01
 -1       448 1.08813E+01
 -1       449 7.90002E+00
 -1       450 7.56385E+00
 -1       451 1.37398E+01
 -1       452 2.44794E+01
 -1       453 2.69965E+01
 -1       454 3.99097E+01
 -1       455 3.99097E+01
 -1       456 3.34771E+01
 -1       457 2.07818E+01
 -1       458 1.19735E+01
 -1       459 7.18355E+00
 -1       460 8.15958E+00
 -1       461 1.11631E+01
 -1       462 1.02356E+01
 -1       463 1.03533E+01
 -1       464 7.55976E+00
 -1       465 9.11244E+00
 -1       466 1.53931E+01
 -1       467 2.73048E+01
 -1       468 2.81191E+01
 -1       469 7.83350E+00
 -1       470 2.31612E+01
 -1       471 7.44326E+00
 -1       472 1.03967E+00
 -1       473 4.77415E-01
 -1       474 5.10777E-01
 -1       475 4.12537E-01
 -1       476 4.42593E-01
 -1       477 4.77300E-01
 -1       478 5.06569E-01
 -1       479 5.07431E-01
 -1       480 6.01930E-01
 -1       481 8.70421E-01
 -1       482 7.69355E-01
 -1       483 4.47466E+00
 -1       484 6.68707E-01
 -1       485 5.36792E-01
 -1       486 4.06105E-01
 -1       487 3.55178E-01
 -1       488 2.89376E-01
 -1       489 2.16769E-01
 -1       490 2.04766E-01
 -1       491 2.10664E-01
 -1       492 2.18447E-01
 -1       493 2.48413E-01
 -1       494 2.90323E-01
 -1       495 3.70747E-01
 -1       496 4.43256E-01
 -1       497 5.58188E-01
 -1       498 7.76475E-01
 -1       499 9.80699E-01
 -1       500 1.16229E+00
 -1       501 1.27065E+00
 -1       502 1.32565E+00
 -1       503 1.16899E+00
 -1       504 1.32997E+00
 -1       505 1.25262E+00
 -1       506 1.15149E+00
 -1       507 9.58293E-01
 -1       508 7.40663E-01
 -1       509 5.10843E-01
 -1       510 4.38049E-01
 -1       511 3.62998E-01
 -1       512 3.32703E-01
 -1       513 3.30042E-01
 -1       514 3.05702E-01
 -1       515 2.76792E-01
 -1       516 2.43711E-01
 -1       517 2.08060E-01
 -1       518 1.70146E-01
 -1       519 1.34030E-01
 -1       520 1.02004E-01
 -1       521 7.50726E-02
 -1       522 5.33914E-02
 -1       523 3.66140E-02
 -1       524 2.41337E-02
 -1       525 1.54062E-02
 -1       526 1.09575E-02
 -1       527 5.28923E-01
 -1       528 4.58836E-01
 -1       529 3.77264E-01
 -1       530 3.28212E-01
 -1       531 4.03183E-01
 -1       532 6.02885E-01
 -1       533 8.74388E-01
 -1       534 1.19840E+00
 -1       535 1.57090E+00
 -1       536 1.96934E+00
 -1       537 2.34350E+00
 -1       538 2.61425E+00
 -1       539 3.38703E+00
 -1       540 4.72069E+00
 -1       541 3.87958E+00
 -1       542 4.09316E+00
 -1       543 9.26739E+00
 -1       544 5.60205E+00
 -1       545 4.50535E+00
 -1       546 2.92565E+00
 -1       547 5.49912E+00
 -1       548 3.87054E+00
 -1       549 2.86822E+00
 -1       550 2.45155E+00
 -1       551 2.17171E+00
 -1       552 1.76135E+00
 -1       553 1.39388E+00
 -1       554 1.06962E+00
 -1       555 8.02193E-01
 -1       556 5.90633E-01
 -1       557 4.27903E-01
 -1       558 3.05224E-01
 -1       559 2.14174E-01
 -1       560 1.47510E-01
 -1       561 9.93489E-02
 -1       562 6.50704E-02
 -1       563 4.13685E-02
 -1       564 2.96589E-02
 -1       565 2.08437E-02
 -1       566 1.43293E-02
 -1       567 9.33342E-03
 -1       568 7.70748E-03
 -1       569 9.61728E-03
 -1       570 6.16266E-03
 -1       571 7.03303E-03
 -1       572 9.81984E-03
 -1       573 9.81984E-03
 -1       574 9.58881E-03
 -1       575 9.38270E-03
 -1       576 7.57082E-03
 -1       577 7.57370E-03
 -1       578 7.57370E-03
 -1       579 1.45241E+01
 -1       580 2.81191E+01
 -1       581 6.64980E-01
 -1       582 3.46382E+01
 -1       583 1.86116E+01
 -1       584 8.48674E-01
 -1       585 9.34398E+00
 -1       586 5.57389E+00
 -1       587 2.69965E+01
 -1       588 4.43027E-01
 -1       589 7.32612E+00
 -1       590 7.27127E+00
 -1       591 6.14583E+00
 -1       592 4.96085E+00
 -1       593 1.07089E+01
 -1       594 1.73402E+01
 -1       595 3.99097E+01
 -1       596 1.45672E+01
 -1       597 1.22666E+01
 -1       598 1.02285E+01
 -1       599 4.18267E+00
 -1       600 6.13249E+00
 -1       601 8.41132E+00
 -1       602 8.22484E+00
 -1       603 4.92499E+00
 -1       604 8.25781E+00
 -1       605 2.38382E+01
 -1       606 1.30138E+00
 -1       607 5.11599E+00
 -1       608 5.41139E-01
 -1       609 6.06488E+00
 -1       610 6.75271E+00
 -1       611 4.75046E+00
 -1       612 8.01308E-03
 -1       613 1.60741E+01
 -1       614 7.27066E+00
 -1       615 2.05036E+01
 -1       616 3.47010E-01
 -1       617 3.23323E-01
 -1       618 3.59628E-01
 -1       619 3.45625E-01
 -1       620 5.12084E-01
 -1       621 1.59692E+01
 -1       622 4.69566E-01
 -1       623 8.34804E+00
 -1       624 3.47851E-01
 -1       625 3.12313E-01
 -1       626 2.43753E-01
 -1       627 1.97424E-01
 -1       628 1.51571E-01
 -1       629 1.22947E-01
 -1       630 1.49771E-01
 -1       631 2.04099E-01
 -1       632 2.73397E-01
 -1       633 3.40526E-01
 -1       634 3.94034E-01
 -1       635 5.47875E-01
 -1       636 6.95694E-01
 -1       637 7.88118E-01
 -1       638 1.03200E+00
 -1       639 1.15749E+00
 -1       640 1.27065E+00
 -1       641 1.53816E+00
 -1       642 1.75506E+00
 -1       643 1.70908E+00
 -1       644 1.53952E+00
 -1       645 1.25262E+00
 -1       646 1.17479E+00
 -1       647 1.00650E+00
 -1       648 7.85236E-01
 -1       649 6.97500E-01
 -1       650 5.45821E-01
 -1       651 4.46256E-01
 -1       652 4.11454E-01
 -1       653 3.58747E-01
 -1       654 3.08028E-01
 -1       655 2.69159E-01
 -1       656 2.27942E-01
 -1       657 1.86870E-01
 -1       658 1.48613E-01
 -1       659 1.14977E-01
 -1       660 8.66585E-02
 -1       661 6.36521E-02
 -1       662 4.55414E-02
 -1       663 3.17064E-02
 -1       664 2.14462E-02
 -1       665 1.25512E-02
 -1       666 2.43087E-01
 -1       667 1.35216E+01
 -1       668 2.93055E-01
 -1       669 2.50616E-01
 -1       670 4.18904E-01
 -1       671 6.28514E-01
 -1       672 8.92199E-01
 -1       673 1.23017E+00
 -1       674 1.67596E+00
 -1       675 2.27181E+00
 -1       676 3.11518E+00
 -1       677 4.28420E+00
 -1       678 6.21696E+00
 -1       679 6.47231E+00
 -1       680 3.49201E+00
 -1       681 2.60172E+00
 -1       682 1.93613E+00
 -1       683 1.45891E+00
 -1       684 1.09995E+00
 -1       685 8.27585E-01
 -1       686 6.19146E-01
 -1       687 4.59537E-01
 -1       688 3.37768E-01
 -1       689 2.45451E-01
 -1       690 1.76026E-01
 -1       691 1.24319E-01
 -1       692 8.62426E-02
 -1       693 5.85921E-02
 -1       694 3.88424E-02
 -1       695 2.50578E-02
 -1       696 1.54987E-02
 -1       697 9.33342E-03
 -1       698 1.45161E-02
 -1       699 7.57370E-03
 -1       700 1.36401E-02
 -1       701 1.39894E-02
 -1       702 1.45161E-02
 -1       703 3.90938E-01
 -1       704 1.39894E-02
 -1       705 1.28227E-02
 -1       706 9.86720E-03
 -1       707 5.41139E-01
 -1       708 7.90255E+00
 -1       709 1.44131E+01
 -1       710 1.04524E+01
 -1       711 4.60002E+00
 -1       712 1.71348E-01
 -1       713 3.76310E-01
 -1       714 1.22971E+01
 -1       715 3.59628E-01
 -1       716 3.57147E-01
 -1       717 1.41467E+01
 -1       718 2.86504E+00
 -1       719 8.43516E+00
 -1       720 4.97339E+00
 -1       721 4.76106E+00
 -1       722 8.19590E+00
 -1       723 6.14236E+00
 -1       724 3.29096E+00
 -1       725 5.61556E+00
 -1       726 1.64056E+01
 -1       727 3.92978E-01
 -1       728 3.23758E-01
 -1       729 1.07505E-02
 -1       730 5.25729E+00
 -1       731 8.92163E-03
 -1       732 1.07499E+01
 -1       733 4.70916E+00
 -1       734 8.95808E+00
 -1       735 3.47117E-01
 -1       736 8.46526E-03
 -1       737 2.49176E-01
 -1       738 2.76733E+00
 -1       739 1.70169E-01
 -1       740 1.33107E-01
 -1       741 7.92435E-02
 -1       742 1.05914E-01
 -1       743 1.44198E-01
 -1       744 2.12291E-01
 -1       745 2.85193E-01
 -1       746 3.78021E-01
 -1       747 4.92365E-01
 -1       748 5.98730E-01
 -1       749 7.68628E-01
 -1       750 1.02693E+00
 -1       751 1.20559E+00
 -1       752 1.32075E+00
 -1       753 2.34225E+00
 -1       754 2.32695E+00
 -1       755 3.51692E+00
 -1       756 3.50566E+00
 -1       757 3.80152E+00
 -1       758 2.55109E+00
 -1       759 1.62726E+00
 -1       760 1.32333E+00
 -1       761 1.24380E+00
 -1       762 1.01609E+00
 -1       763 7.64159E-01
 -1       764 6.44482E-01
 -1       765 5.48252E-01
 -1       766 4.45384E-01
 -1       767 3.66986E-01
 -1       768 3.11023E-01
 -1       769 2.55915E-01
 -1       770 2.04024E-01
 -1       771 1.58388E-01
 -1       772 1.20281E-01
 -1       773 9.05422E-02
 -1       774 6.69387E-02
 -1       775 4.85909E-02
 -1       776 3.47336E-02
 -1       777 2.41167E-02
 -1       778 1.45638E-02
 -1       779 1.93548E-02
 -1       780 5.31836E-01
 -1       781 3.38131E-01
 -1       782 1.14865E+00
 -1       783 1.60205E+00
 -1       784 2.21560E+00
 -1       785 3.04751E+00
 -1       786 3.69020E+00
 -1       787 6.55950E+00
 -1       788 2.61166E-01
 -1       789 4.11583E+00
 -1       790 4.77718E+00
 -1       791 1.85543E+00
 -1       792 1.37496E+00
 -1       793 1.00927E+00
 -1       794 7.33622E-01
 -1       795 5.28063E-01
 -1       796 3.76066E-01
 -1       797 2.64611E-01
 -1       798 1.84544E-01
 -1       799 1.29190E-01
 -1       800 9.26314E-02
 -1       801 6.58200E-02
 -1       802 4.59258E-02
 -1       803 3.12685E-02
 -1       804 2.37170E-02
 -1       805 1.32715E-02
 -1       806 1.19176E+01
 -1       807 2.68294E-01
 -1       808 1.95415E-02
 -1       809 7.10451E+00
 -1       810 1.93548E-02
 -1       811 2.54195E+00
 -1       812 3.49578E+00
 -1       813 7.99606E-01
 -1       814 1.46714E-01
 -1       815 1.02207E+01
 -1       816 1.72359E-01
 -1       817 4.38607E+00
 -1       818 5.19399E+00
 -1       819 1.96617E+00
 -1       820 1.63275E-02
 -1       821 7.19100E+00
 -1       822 9.84295E+00
 -1       823 9.84933E+00
 -1       824 6.21696E+00
 -1       825 1.02207E+01
 -1       826 3.80152E+00
 -1       827 4.73999E+00
 -1       828 8.78654E+00
 -1       829 3.80152E+00
 -1       830 2.53205E-01
 -1       831 5.29745E+00
 -1       832 1.71044E-02
 -1       833 2.71676E-01
 -1       834 1.31742E-01
 -1       835 2.08998E-01
 -1       836 6.47231E+00
 -1       837 2.09182E-01
 -1       838 8.57357E+00
 -1       839 2.71609E-01
 -1       840 2.05472E-02
 -1       841 2.05472E-02
 -1       842 2.76556E-01
 -1       843 3.00145E+00
 -1       844 2.71609E-01
 -1       845 3.51692E+00
 -1       846 8.85531E+00
 -1       847 2.76556E-01
 -1       848 1.37749E-02
 -1       849 2.14750E-01
 -1       850 2.75669E-02
 -1       851 5.97739E+00
 -1       852 9.59966E-02
 -1       853 1.32013E-01
 -1       854 1.77463E-01
 -1       855 2.29884E-01
 -1       856 2.95616E-01
 -1       857 4.09298E-01
 -1       858 5.29831E-01
 -1       859 7.09362E-01
 -1       860 9.18618E-01
 -1       861 1.11702E+00
 -1       862 1.47569E+00
 -1       863 2.36591E+00
 -1       864 2.40417E+00
 -1       865 1.62726E+00
 -1       866 1.97977E+00
 -1       867 1.85167E+00
 -1       868 1.11132E+00
 -1       869 9.47054E-01
 -1       870 7.45830E-01
 -1       871 5.81279E-01
 -1       872 4.71381E-01
 -1       873 3.71678E-01
 -1       874 2.91053E-01
 -1       875 2.33117E-01
 -1       876 1.87280E-01
 -1       877 1.50697E-01
 -1       878 1.17472E-01
 -1       879 8.89452E-02
 -1       880 6.53938E-02
 -1       881 4.64067E-02
 -1       882 3.36058E-02
 -1       883 1.68957E-02
 -1       884 1.97369E+00
 -1       885 1.37506E+00
 -1       886 3.69020E+00
 -1       887 1.81089E-01
 -1       888 8.58034E-01
 -1       889 2.51637E+00
 -1       890 2.71404E-01
 -1       891 1.64211E+00
 -1       892 6.26479E-01
 -1       893 4.56818E-01
 -1       894 3.31497E-01
 -1       895 2.38628E-01
 -1       896 1.69880E-01
 -1       897 1.19234E-01
 -1       898 8.23440E-02
 -1       899 5.69986E-02
 -1       900 4.58908E-02
 -1       901 2.51637E+00
 -1       902 8.62172E-02
 -1       903 7.97511E+00
 -1       904 2.75669E-02
 -1       905 2.35858E+00
 -1       906 4.72809E+00
 -1       907 9.29383E-02
 -1       908 2.55010E-02
 -1       909 2.96369E+00
 -1       910 4.51087E-01
 -1       911 7.77583E+00
 -1       912 7.77583E+00
 -1       913 6.23696E+00
 -1       914 6.90549E+00
 -1       915 1.18022E+00
 -1       916 2.55109E+00
 -1       917 2.86784E-01
 -1       918 3.62165E+00
 -1       919 1.36557E-01
 -1       920 3.58327E-02
 -1       921 2.10221E-02
 -1       922 1.24431E-01
 -1       923 9.64401E-01
 -1       924 6.05726E+00
 -1       925 6.38754E+00
 -1       926 3.92117E+00
 -1       927 6.69541E-01
 -1       928 4.13198E-02
 -1       929 3.19680E-02
 -1       930 2.83188E+00
 -1       931 3.72315E+00
 -1       932 1.44529E-01
 -1       933 1.87072E-01
 -1       934 8.43762E+00
 -1       935 1.83584E-01
 -1       936 1.65593E-01
 -1       937 1.85272E-01
 -1       938 2.47869E-01
 -1       939 3.35623E-01
 -1       940 4.33881E-01
 -1       941 5.76574E-01
 -1       942 7.94073E-01
 -1       943 1.02677E+00
 -1       944 1.36325E+00
 -1       945 1.74613E+00
 -1       946 2.41652E+00
 -1       947 9.36435E-02
 -1       948 4.55228E-02
 -1       949 1.84938E-01
 -1       950 1.07357E-01
 -1       951 2.27313E+00
 -1       952 1.51740E+00
 -1       953 1.03175E+00
 -1       954 8.25181E-01
 -1       955 6.16526E-01
 -1       956 4.50743E-01
 -1       957 3.60405E-01
 -1       958 2.86282E-01
 -1       959 2.33117E-01
 -1       960 1.84853E-01
 -1       961 1.43174E-01
 -1       962 1.08460E-01
 -1       963 8.04034E-02
 -1       964 5.85329E-02
 -1       965 4.73309E+00
 -1       966 4.68759E-01
 -1       967 2.06729E+00
 -1       968 4.24932E+00
 -1       969 3.50892E-01
 -1       970 4.58908E-02
 -1       971 6.25793E-01
 -1       972 2.61154E-01
 -1       973 1.92616E-01
 -1       974 1.40282E-01
 -1       975 1.00729E-01
 -1       976 7.11880E-02
 -1       977 5.14223E-02
 -1       978 4.55228E-02
 -1       979 1.95021E-01
 -1       980 1.32932E+00
 -1       981 1.12111E-01
 -1       982 1.87072E-01
 -1       983 1.63601E+00
 -1       984 8.96283E-02
 -1       985 1.84938E-01
 -1       986 3.18027E+00
 -1       987 5.51056E+00
 -1       988 5.18466E+00
 -1       989 1.44077E-01
 -1       990 4.13198E-02
 -1       991 3.99738E-02
 -1       992 3.36918E-01
 -1       993 1.09559E-01
 -1       994 3.57784E+00
 -1       995 4.82057E-01
 -1       996 9.42269E-01
 -1       997 4.16424E+00
 -1       998 4.78622E+00
 -1       999 1.07592E-01
 -1      1000 4.96242E+00
 -1      1001 1.51715E-01
 -1      1002 3.35194E+00
 -1      1003 8.39972E-01
 -1      1004 3.86560E+00
 -1      1005 1.07592E-01
 -1      1006 1.14780E+00
 -1      1007 1.84971E-01
 -1      1008 3.35623E-01
 -1      1009 4.42753E-01
 -1      1010 6.02795E-01
 -1      1011 7.95565E-01
 -1      1012 1.15202E+00
 -1      1013 1.67600E+00
 -1      1014 1.99671E+00
 -1      1015 3.29111E+00
 -1      1016 1.04491E-01
 -1      1017 1.01112E-01
 -1      1018 2.11813E+00
 -1      1019 1.22003E+00
 -1      1020 8.10105E-01
 -1      1021 5.71355E-01
 -1      1022 4.50743E-01
 -1      1023 3.60405E-01
 -1      1024 2.81231E-01
 -1      1025 2.15433E-01
 -1      1026 1.63692E-01
 -1      1027 1.22190E-01
 -1      1028 8.95108E-02
 -1      1029 6.47036E-02
 -1      1030 2.40035E-01
 -1      1031 2.47869E-01
 -1      1032 3.29683E-01
 -1      1033 4.28243E-02
 -1      1034 4.53568E-01
 -1      1035 1.39890E-01
 -1      1036 1.04494E-01
 -1      1037 7.65052E-02
 -1      1038 2.49197E-01
 -1      1039 1.56776E+00
 -1      1040 1.39924E-01
 -1      1041 1.83979E-01
 -1      1042 4.35890E+00
 -1      1043 4.80809E-02
 -1      1044 3.18027E+00
 -1      1045 3.91499E-02
 -1      1046 3.35928E+00
 -1      1047 6.76350E-01
 -1      1048 3.19904E+00
 -1      1049 1.96774E-01
 -1      1050 1.34054E-01
 -1      1051 4.67810E-02
 -1      1052 4.12209E+00
 -1      1053 1.19754E+00
 -1      1054 1.06382E-01
 -1      1055 5.74919E-02
 -1      1056 3.26701E-01
 -1      1057 1.04491E-01
 -1      1058 2.04191E+00
 -1      1059 6.22741E-01
 -1      1060 2.78394E+00
 -1      1061 1.21971E+00
 -1      1062 2.85926E+00
 -1      1063 4.36182E-01
 -1      1064 6.02795E-01
 -1      1065 7.95565E-01
 -1      1066 1.84634E+00
 -1      1067 2.43735E+00
 -1      1068 2.17025E+00
 -1      1069 2.81173E-01
 -1      1070 2.43815E+00
 -1      1071 1.59545E-01
 -1      1072 1.88083E-01
 -1      1073 1.05613E-01
 -1      1074 2.65729E+00
 -1      1075 1.64049E+00
 -1      1076 1.09198E+00
 -1      1077 5.71355E-01
 -1      1078 4.43835E-01
 -1      1079 3.24664E-01
 -1      1080 2.58749E-01
 -1      1081 2.03248E-01
 -1      1082 1.32028E-01
 -1      1083 1.00673E-01
 -1      1084 7.76823E-02
 -1      1085 3.78566E+00
 -1      1086 2.43815E+00
 -1      1087 3.72854E-01
 -1      1088 8.16092E-02
 -1      1089 1.14623E-01
 -1      1090 3.48407E-01
 -1      1091 4.81738E-02
 -1      1092 8.69291E-01
 -1      1093 4.83100E-01
 -1      1094 4.83100E-01
 -1      1095 2.13937E-01
 -1      1096 2.05100E+00
 -1      1097 1.16593E-01
 -1      1098 1.20115E-01
 -1      1099 1.59502E+00
 -1      1100 4.90333E-01
 -1      1101 8.14146E-01
 -1      1102 5.21765E-02
 -1      1103 2.03248E-01
 -1      1104 2.45327E-01
 -1      1105 5.76498E-01
 -1      1106 3.17795E+00
 -1      1107 4.37492E-02
 -1      1108 4.30661E-01
 -1      1109 3.77249E-01
 -1      1110 1.00673E-01
 -1      1111 1.72162E+00
 -1      1112 1.26737E+00
 -1      1113 1.34054E-01
 -1      1114 2.81173E-01
 -1      1115 4.95037E-01
 -1      1116 2.58749E-01
 -1      1117 4.83100E-01
 -1      1118 3.77249E-01
 -1      1119 7.31047E-01
 -1      1120 7.14691E-01
 -1      1121 1.19754E+00
 -1      1122 2.14430E-01
 -1      1123 1.33898E-01
 -1      1124 2.04012E-01
 -1      1125 3.72854E-01
 -1      1126 7.93917E-01
 -1      1127 7.76823E-02
 -1      1128 1.31164E+01
 -1      1129 8.36876E+00
 -1      1130 2.70986E+00
 -1      1131 1.53926E+00
 -1      1132 1.15786E+00
 -1      1133 9.60728E-01
 -1      1134 8.37572E-01
 -1      1135 7.59118E-01
 -1      1136 7.29993E-01
 -1      1137 7.62493E-01
 -1      1138 8.39776E-01
 -1      1139 9.63554E-01
 -1      1140 1.16916E+00
 -1      1141 1.55152E+00
 -1      1142 2.63283E+00
 -1      1143 6.02413E+00
 -1      1144 1.13019E+01
 -1      1145 1.31164E+01
 -1      1146 8.72698E+00
 -1      1147 3.84376E+00
 -1      1148 2.73399E+00
 -1      1149 1.76490E+00
 -1      1150 1.24708E+00
 -1      1151 9.66176E-01
 -1      1152 7.60945E-01
 -1      1153 5.98414E-01
 -1      1154 4.60092E-01
 -1      1155 3.90687E-01
 -1      1156 3.84918E-01
 -1      1157 4.15156E-01
 -1      1158 4.77988E-01
 -1      1159 5.09358E-01
 -1      1160 5.27482E-01
 -1      1161 5.53750E-01
 -1      1162 6.73592E-01
 -1      1163 8.94736E-01
 -1      1164 1.28971E+00
 -1      1165 1.88045E+00
 -1      1166 2.34705E+00
 -1      1167 2.50845E+00
 -1      1168 2.50646E+00
 -1      1169 2.50447E+00
 -1      1170 2.33085E+00
 -1      1171 1.84726E+00
 -1      1172 1.27172E+00
 -1      1173 8.95788E-01
 -1      1174 6.80547E-01
 -1      1175 5.68331E-01
 -1      1176 5.26146E-01
 -1      1177 4.91301E-01
 -1      1178 4.63644E-01
 -1      1179 3.95824E-01
 -1      1180 3.16252E-01
 -1      1181 2.53064E-01
 -1      1182 2.15053E-01
 -1      1183 1.84053E-01
 -1      1184 1.50443E-01
 -1      1185 1.18150E-01
 -1      1186 8.93511E-02
 -1      1187 6.93035E-02
 -1      1188 5.71554E-02
 -1      1189 4.62996E-02
 -1      1190 3.57273E-02
 -1      1191 2.56619E-02
 -1      1192 1.71833E-02
 -1      1193 1.02335E-02
 -1      1194 4.46513E-03
 -1      1195 1.40153E+01
 -1      1196 8.72002E+00
 -1      1197 2.93329E+00
 -1      1198 2.07009E+00
 -1      1199 1.45942E+00
 -1      1200 1.12640E+00
 -1      1201 9.63419E-01
 -1      1202 8.45662E-01
 -1      1203 7.64587E-01
 -1      1204 7.14922E-01
 -1      1205 7.21843E-01
 -1      1206 8.24564E-01
 -1      1207 9.93271E-01
 -1      1208 1.17360E+00
 -1      1209 1.32716E+00
 -1      1210 1.45994E+00
 -1      1211 1.82674E+00
 -1      1212 2.34085E+00
 -1      1213 2.71489E+00
 -1      1214 2.89399E+00
 -1      1215 3.51711E+00
 -1      1216 5.33576E+00
 -1      1217 7.02002E+00
 -1      1218 7.78492E+00
 -1      1219 8.08262E+00
 -1      1220 6.46129E+00
 -1      1221 3.63419E+00
 -1      1222 2.66463E+00
 -1      1223 2.91794E+00
 -1      1224 2.93507E+00
 -1      1225 2.73483E+00
 -1      1226 2.33263E+00
 -1      1227 1.87615E+00
 -1      1228 1.42356E+00
 -1      1229 1.06045E+00
 -1      1230 7.65882E-01
 -1      1231 5.47628E-01
 -1      1232 3.99609E-01
 -1      1233 2.94400E-01
 -1      1234 2.13525E-01
 -1      1235 1.52344E-01
 -1      1236 1.06614E-01
 -1      1237 7.27719E-02
 -1      1238 5.11911E-02
 -1      1239 3.94235E-02
 -1      1240 3.06987E-02
 -1      1241 2.25364E-02
 -1      1242 1.63393E-02
 -1      1243 1.10461E-02
 -1      1244 5.13325E-03
 -1      1245 2.97549E-03
 -1      1246 2.86529E-03
 -1      1247 2.08081E-03
 -1      1248 2.09244E-03
 -1      1249 1.74621E-03
 -1      1250 1.14973E-03
 -1      1251 1.20148E-03
 -1      1252 1.61376E-03
 -1      1253 1.72404E-03
 -1      1254 1.64478E-03
 -1      1255 1.29667E-03
 -1      1256 1.06117E-03
 -1      1257 1.48005E-03
 -1      1258 1.86558E-03
 -1      1259 1.82218E-03
 -1      1260 2.29193E-03
 -1      1261 2.43798E-03
 -1      1262 2.51802E+01
 -1      1263 2.72303E+01
 -1      1264 2.93550E+01
 -1      1265 2.77970E+01
 -1      1266 1.95249E+01
 -1      1267 1.26808E+01
 -1      1268 1.27319E+01
 -1      1269 1.34998E+01
 -1      1270 1.40865E+01
 -1      1271 1.48843E+01
 -1      1272 2.87618E+01
 -1      1273 4.18416E+01
 -1      1274 3.35516E+01
 -1      1275 2.52616E+01
 -1      1276 2.58725E+01
 -1      1277 2.73338E+01
 -1      1278 3.00983E+01
 -1      1279 3.15107E+01
 -1      1280 2.20811E+01
 -1      1281 1.31070E+01
 -1      1282 1.30608E+01
 -1      1283 1.25107E+01
 -1      1284 1.22033E+01
 -1      1285 1.24460E+01
 -1      1286 1.49738E+01
 -1      1287 3.17739E+01
 -1      1288 4.60462E+01
 -1      1289 3.56505E+01
 -1      1290 2.52548E+01
 -1      1291 1.31164E+01
 -1      1292 4.81918E+00
 -1      1293 9.56687E+00
 -1      1294 2.03450E+00
 -1      1295 2.94572E+00
 -1      1296 4.14383E+00
 -1      1297 1.39041E+00
 -1      1298 1.64980E+00
 -1      1299 1.88566E+00
 -1      1300 1.09333E+00
 -1      1301 1.21534E+00
 -1      1302 1.32588E+00
 -1      1303 9.24131E-01
 -1      1304 9.99252E-01
 -1      1305 1.05673E+00
 -1      1306 8.18977E-01
 -1      1307 8.67011E-01
 -1      1308 9.05536E-01
 -1      1309 7.51652E-01
 -1      1310 7.82072E-01
 -1      1311 8.11511E-01
 -1      1312 7.31287E-01
 -1      1313 7.29993E-01
 -1      1314 7.52946E-01
 -1      1315 7.86042E-01
 -1      1316 7.54835E-01
 -1      1317 7.54835E-01
 -1      1318 8.68495E-01
 -1      1319 8.22419E-01
 -1      1320 8.14761E-01
 -1      1321 1.00558E+00
 -1      1322 9.27876E-01
 -1      1323 9.10519E-01
 -1      1324 1.23088E+00
 -1      1325 1.10298E+00
 -1      1326 1.06730E+00
 -1      1327 1.66277E+00
 -1      1328 1.40831E+00
 -1      1329 1.34213E+00
 -1      1330 2.85376E+00
 -1      1331 2.02691E+00
 -1      1332 1.88370E+00
 -1      1333 6.24094E+00
 -1      1334 3.67651E+00
 -1      1335 3.07058E+00
 -1      1336 1.40153E+01
 -1      1337 1.13019E+01
 -1      1338 8.95431E+00
 -1      1339 1.40153E+01
 -1      1340 8.72698E+00
 -1      1341 4.33751E+00
 -1      1342 3.84376E+00
 -1      1343 3.35000E+00
 -1      1344 3.84376E+00
 -1      1345 2.73399E+00
 -1      1346 2.11798E+00
 -1      1347 2.73399E+00
 -1      1348 1.78034E+00
 -1      1349 1.42726E+00
 -1      1350 1.78034E+00
 -1      1351 1.24708E+00
 -1      1352 1.08234E+00
 -1      1353 1.26252E+00
 -1      1354 9.66176E-01
 -1      1355 8.50014E-01
 -1      1356 9.66176E-01
 -1      1357 7.60945E-01
 -1      1358 6.71877E-01
 -1      1359 7.60945E-01
 -1      1360 5.98414E-01
 -1      1361 5.24952E-01
 -1      1362 5.98414E-01
 -1      1363 4.60092E-01
 -1      1364 3.95231E-01
 -1      1365 4.60092E-01
 -1      1366 3.90687E-01
 -1      1367 3.86142E-01
 -1      1368 3.90687E-01
 -1      1369 3.84918E-01
 -1      1370 3.83693E-01
 -1      1371 3.84918E-01
 -1      1372 3.79653E-01
 -1      1373 4.11116E-01
 -1      1374 3.79653E-01
 -1      1375 4.46619E-01
 -1      1376 4.77988E-01
 -1      1377 4.11116E-01
 -1      1378 5.09358E-01
 -1      1379 5.09358E-01
 -1      1380 4.77988E-01
 -1      1381 5.09066E-01
 -1      1382 5.27190E-01
 -1      1383 5.09066E-01
 -1      1384 5.45607E-01
 -1      1385 5.53750E-01
 -1      1386 5.27190E-01
 -1      1387 5.61893E-01
 -1      1388 6.73592E-01
 -1      1389 5.53750E-01
 -1      1390 7.85291E-01
 -1      1391 8.94736E-01
 -1      1392 6.73592E-01
 -1      1393 1.05537E+00
 -1      1394 1.34090E+00
 -1      1395 9.45926E-01
 -1      1396 1.57524E+00
 -1      1397 1.88045E+00
 -1      1398 1.34090E+00
 -1      1399 2.18565E+00
 -1      1400 2.34705E+00
 -1      1401 1.88045E+00
 -1      1402 2.50845E+00
 -1      1403 2.50845E+00
 -1      1404 2.34705E+00
 -1      1405 2.47004E+00
 -1      1406 2.46804E+00
 -1      1407 2.47004E+00
 -1      1408 2.50447E+00
 -1      1409 2.50447E+00
 -1      1410 2.46804E+00
 -1      1411 2.33085E+00
 -1      1412 2.15724E+00
 -1      1413 2.33085E+00
 -1      1414 1.85223E+00
 -1      1415 1.54225E+00
 -1      1416 1.85223E+00
 -1      1417 1.30838E+00
 -1      1418 1.04282E+00
 -1      1419 1.31336E+00
 -1      1420 8.95788E-01
 -1      1421 7.85424E-01
 -1      1422 9.32455E-01
 -1      1423 6.80547E-01
 -1      1424 5.75670E-01
 -1      1425 6.80547E-01
 -1      1426 5.68331E-01
 -1      1427 5.60992E-01
 -1      1428 5.68331E-01
 -1      1429 5.26126E-01
 -1      1430 4.91281E-01
 -1      1431 5.26126E-01
 -1      1432 4.91301E-01
 -1      1433 4.91301E-01
 -1      1434 4.91281E-01
 -1      1435 4.63644E-01
 -1      1436 4.35986E-01
 -1      1437 4.63644E-01
 -1      1438 3.95824E-01
 -1      1439 3.55661E-01
 -1      1440 3.95824E-01
 -1      1441 3.24078E-01
 -1      1442 2.84669E-01
 -1      1443 3.24078E-01
 -1      1444 2.62356E-01
 -1      1445 2.38577E-01
 -1      1446 2.70183E-01
 -1      1447 2.15671E-01
 -1      1448 2.01439E-01
 -1      1449 2.24963E-01
 -1      1450 1.84053E-01
 -1      1451 1.67284E-01
 -1      1452 1.84671E-01
 -1      1453 1.50443E-01
 -1      1454 1.33602E-01
 -1      1455 1.50443E-01
 -1      1456 1.19069E-01
 -1      1457 1.03616E-01
 -1      1458 1.19069E-01
 -1      1459 9.18379E-02
 -1      1460 7.84923E-02
 -1      1461 9.27574E-02
 -1      1462 6.93035E-02
 -1      1463 6.26015E-02
 -1      1464 7.17903E-02
 -1      1465 5.71554E-02
 -1      1466 5.17094E-02
 -1      1467 5.71554E-02
 -1      1468 4.62996E-02
 -1      1469 4.08897E-02
 -1      1470 4.62996E-02
 -1      1471 3.57273E-02
 -1      1472 3.05649E-02
 -1      1473 3.57273E-02
 -1      1474 2.56619E-02
 -1      1475 2.07589E-02
 -1      1476 2.56619E-02
 -1      1477 1.71833E-02
 -1      1478 1.36076E-02
 -1      1479 1.71833E-02
 -1      1480 1.02335E-02
 -1      1481 6.85938E-03
 -1      1482 1.02335E-02
 -1      1483 4.83224E-03
 -1      1484 4.83224E-03
 -1      1485 3.42474E+00
 -1      1486 8.72002E+00
 -1      1487 8.72002E+00
 -1      1488 2.44183E+00
 -1      1489 2.93329E+00
 -1      1490 2.93329E+00
 -1      1491 1.69834E+00
 -1      1492 2.07009E+00
 -1      1493 2.07009E+00
 -1      1494 1.22050E+00
 -1      1495 1.45942E+00
 -1      1496 1.45942E+00
 -1      1497 1.03230E+00
 -1      1498 1.12640E+00
 -1      1499 1.12640E+00
 -1      1500 8.94537E-01
 -1      1501 9.63419E-01
 -1      1502 9.63419E-01
 -1      1503 7.96787E-01
 -1      1504 8.45662E-01
 -1      1505 8.45662E-01
 -1      1506 7.32387E-01
 -1      1507 7.64587E-01
 -1      1508 7.64587E-01
 -1      1509 6.97456E-01
 -1      1510 7.14922E-01
 -1      1511 7.14922E-01
 -1      1512 7.16938E-01
 -1      1513 6.92551E-01
 -1      1514 6.92551E-01
 -1      1515 8.34572E-01
 -1      1516 7.56239E-01
 -1      1517 7.26946E-01
 -1      1518 9.98428E-01
 -1      1519 9.08055E-01
 -1      1520 8.39729E-01
 -1      1521 1.17360E+00
 -1      1522 1.08365E+00
 -1      1523 9.98428E-01
 -1      1524 1.32716E+00
 -1      1525 1.26355E+00
 -1      1526 1.17360E+00
 -1      1527 1.46741E+00
 -1      1528 1.39823E+00
 -1      1529 1.33462E+00
 -1      1530 1.95759E+00
 -1      1531 1.65997E+00
 -1      1532 1.59825E+00
 -1      1533 2.34085E+00
 -1      1534 2.12436E+00
 -1      1535 1.95759E+00
 -1      1536 2.71489E+00
 -1      1537 2.55733E+00
 -1      1538 2.34085E+00
 -1      1539 2.89399E+00
 -1      1540 2.87246E+00
 -1      1541 2.71489E+00
 -1      1542 3.51711E+00
 -1      1543 2.91552E+00
 -1      1544 2.89399E+00
 -1      1545 5.33576E+00
 -1      1546 4.11870E+00
 -1      1547 3.51711E+00
 -1      1548 7.02002E+00
 -1      1549 6.55282E+00
 -1      1550 5.33576E+00
 -1      1551 7.78492E+00
 -1      1552 7.48722E+00
 -1      1553 7.02002E+00
 -1      1554 8.08262E+00
 -1      1555 8.08262E+00
 -1      1556 7.78492E+00
 -1      1557 4.83995E+00
 -1      1558 6.46129E+00
 -1      1559 6.46129E+00
 -1      1560 2.42163E+00
 -1      1561 3.62738E+00
 -1      1562 3.62738E+00
 -1      1563 2.66463E+00
 -1      1564 2.42844E+00
 -1      1565 2.42163E+00
 -1      1566 2.91794E+00
 -1      1567 2.90082E+00
 -1      1568 2.66463E+00
 -1      1569 2.93507E+00
 -1      1570 2.93507E+00
 -1      1571 2.91794E+00
 -1      1572 2.53458E+00
 -1      1573 2.73483E+00
 -1      1574 2.73483E+00
 -1      1575 2.13069E+00
 -1      1576 2.33263E+00
 -1      1577 2.33263E+00
 -1      1578 1.63959E+00
 -1      1579 1.89413E+00
 -1      1580 1.89413E+00
 -1      1581 1.25782E+00
 -1      1582 1.45587E+00
 -1      1583 1.47385E+00
 -1      1584 9.31762E-01
 -1      1585 1.09682E+00
 -1      1586 1.12913E+00
 -1      1587 6.71086E-01
 -1      1588 8.00599E-01
 -1      1589 8.36966E-01
 -1      1590 4.80766E-01
 -1      1591 5.69507E-01
 -1      1592 6.04224E-01
 -1      1593 3.48479E-01
 -1      1594 4.07756E-01
 -1      1595 4.29636E-01
 -1      1596 2.48470E-01
 -1      1597 2.94400E-01
 -1      1598 3.02548E-01
 -1      1599 1.78581E-01
 -1      1600 2.13525E-01
 -1      1601 2.13525E-01
 -1      1602 1.27454E-01
 -1      1603 1.53691E-01
 -1      1604 1.53691E-01
 -1      1605 8.91918E-02
 -1      1606 1.08685E-01
 -1      1607 1.10032E-01
 -1      1608 6.08219E-02
 -1      1609 7.51706E-02
 -1      1610 7.72419E-02
 -1      1611 4.39590E-02
 -1      1612 5.11911E-02
 -1      1613 5.35898E-02
 -1      1614 3.48879E-02
 -1      1615 3.94235E-02
 -1      1616 3.94235E-02
 -1      1617 2.65095E-02
 -1      1618 3.06987E-02
 -1      1619 3.06987E-02
 -1      1620 1.85634E-02
 -1      1621 2.25364E-02
 -1      1622 2.25364E-02
 -1      1623 1.41153E-02
 -1      1624 1.63393E-02
 -1      1625 1.63393E-02
 -1      1626 7.97691E-03
 -1      1627 1.10461E-02
 -1      1628 1.10461E-02
 -1      1629 5.81916E-03
 -1      1630 2.85864E-03
 -1      1631 3.65476E-03
 -1      1632 3.05354E-03
 -1      1633 3.04191E-03
 -1      1634 3.83138E-03
 -1      1635 3.05354E-03
 -1      1636 3.05354E-03
 -1      1637 4.01465E-03
 -1      1638 2.48965E-03
 -1      1639 2.83588E-03
 -1      1640 3.79699E-03
 -1      1641 1.45425E-03
 -1      1642 1.70450E-03
 -1      1643 2.79417E-03
 -1      1644 2.42261E-03
 -1      1645 2.12061E-03
 -1      1646 2.67538E-03
 -1      1647 2.83067E-03
 -1      1648 2.72039E-03
 -1      1649 3.63952E-03
 -1      1650 2.83067E-03
 -1      1651 2.83067E-03
 -1      1652 3.93729E-03
 -1      1653 2.75034E-03
 -1      1654 2.82960E-03
 -1      1655 3.93623E-03
 -1      1656 2.23335E-03
 -1      1657 2.50221E-03
 -1      1658 3.68703E-03
 -1      1659 1.68279E-03
 -1      1660 1.64943E-03
 -1      1661 2.85497E-03
 -1      1662 2.44990E-03
 -1      1663 2.06437E-03
 -1      1664 2.65264E-03
 -1      1665 2.93888E-03
 -1      1666 2.93888E-03
 -1      1667 3.52320E-03
 -1      1668 2.89548E-03
 -1      1669 2.93888E-03
 -1      1670 4.01218E-03
 -1      1671 3.66059E-03
 -1      1672 3.14744E-03
 -1      1673 4.26414E-03
 -1      1674 5.68774E-03
 -1      1675 2.86092E+01
 -1      1676 2.86839E+01
 -1      1677 3.14453E+01
 -1      1678 2.93205E+01
 -1      1679 3.14453E+01
 -1      1680 3.14453E+01
 -1      1681 2.73945E+01
 -1      1682 2.89525E+01
 -1      1683 1.28109E+01
 -1      1684 1.95249E+01
 -1      1685 1.23098E+01
 -1      1686 1.24399E+01
 -1      1687 1.27319E+01
 -1      1688 1.25507E+01
 -1      1689 1.34998E+01
 -1      1690 1.29131E+01
 -1      1691 1.40865E+01
 -1      1692 1.40865E+01
 -1      1693 1.42279E+01
 -1      1694 1.34301E+01
 -1      1695 2.96019E+01
 -1      1696 1.65221E+01
 -1      1697 4.18416E+01
 -1      1698 4.18416E+01
 -1      1699 3.10985E+01
 -1      1700 3.93886E+01
 -1      1701 2.68354E+01
 -1      1702 2.68354E+01
 -1      1703 2.74463E+01
 -1      1704 2.68354E+01
 -1      1705 3.08306E+01
 -1      1706 2.99803E+01
 -1      1707 3.27448E+01
 -1      1708 3.08306E+01
 -1      1709 3.15107E+01
 -1      1710 3.20126E+01
 -1      1711 1.31533E+01
 -1      1712 2.20811E+01
 -1      1713 1.24092E+01
 -1      1714 1.24554E+01
 -1      1715 1.30608E+01
 -1      1716 1.30608E+01
 -1      1717 1.19606E+01
 -1      1718 1.25107E+01
 -1      1719 1.21518E+01
 -1      1720 1.19091E+01
 -1      1721 1.24460E+01
 -1      1722 1.24460E+01
 -1      1723 1.41356E+01
 -1      1724 1.16078E+01
 -1      1725 3.28927E+01
 -1      1726 1.86204E+01
 -1      1727 4.60462E+01
 -1      1728 4.60462E+01
 -1      1729 2.62798E+01
 -1      1730 3.66755E+01
 -1      1731 2.86839E+01
 -1      1732 2.86839E+01
 -1      1733 2.06805E+01
 -1      1734 3.10428E+01
 -1      1735 5.81916E-03
 -1      1736 5.81251E-03
 -1      1737 3.28243E+01
 -1      1738 3.35355E+01
 -1      1739 3.21130E+01
 -1      1740 1.24399E+01
 -1      1741 1.23098E+01
 -1      1742 1.27319E+01
 -1      1743 1.34998E+01
 -1      1744 1.34301E+01
 -1      1745 1.50679E+01
 -1      1746 2.96019E+01
 -1      1747 3.93886E+01
 -1      1748 3.26723E+01
 -1      1749 2.84091E+01
 -1      1750 3.09431E+01
 -1      1751 3.34771E+01
 -1      1752 3.27448E+01
 -1      1753 2.25829E+01
 -1      1754 1.24554E+01
 -1      1755 1.24092E+01
 -1      1756 1.25107E+01
 -1      1757 1.19091E+01
 -1      1758 1.21518E+01
 -1      1759 1.16078E+01
 -1      1760 1.52544E+01
 -1      1761 3.28927E+01
 -1      1762 3.66755E+01
 -1      1763 2.97089E+01
 -1      1764 9.56687E+00
 -1      1765 1.26633E+00
 -1      1766 1.65103E+00
 -1      1767 2.35550E+00
 -1      1768 4.22896E+00
 -1      1769 1.73617E+00
 -1      1770 8.75847E-01
 -1      1771 9.69923E-01
 -1      1772 7.66784E-01
 -1      1773 8.23904E-01
 -1      1774 7.37096E-01
 -1      1775 6.96216E-01
 -1      1776 7.33121E-01
 -1      1777 6.51490E-01
 -1      1778 6.50421E-01
 -1      1779 6.72080E-01
 -1      1780 5.93691E-01
 -1      1781 6.75722E-01
 -1      1782 6.52174E-01
 -1      1783 5.71308E-01
 -1      1784 7.35759E-01
 -1      1785 6.99382E-01
 -1      1786 5.96720E-01
 -1      1787 8.30491E-01
 -1      1788 7.71110E-01
 -1      1789 6.55730E-01
 -1      1790 9.77105E-01
 -1      1791 8.79704E-01
 -1      1792 7.40295E-01
 -1      1793 1.22316E+00
 -1      1794 1.04573E+00
 -1      1795 8.58133E-01
 -1      1796 1.69390E+00
 -1      1797 1.32976E+00
 -1      1798 1.03336E+00
 -1      1799 2.59717E+00
 -1      1800 1.77443E+00
 -1      1801 1.22050E+00
 -1      1802 8.09720E+00
 -1      1803 3.03621E+00
 -1      1804 1.74007E+00
 -1      1805 2.80192E+00
 -1      1806 5.17740E+00
 -1      1807 2.16195E+00
 -1      1808 2.65340E+00
 -1      1809 2.03058E+00
 -1      1810 3.38908E+00
 -1      1811 2.53731E+00
 -1      1812 1.92130E+00
 -1      1813 1.68559E+00
 -1      1814 1.34795E+00
 -1      1815 1.48891E+00
 -1      1816 1.16172E+00
 -1      1817 9.81540E-01
 -1      1818 1.06697E+00
 -1      1819 8.81869E-01
 -1      1820 7.65707E-01
 -1      1821 7.81071E-01
 -1      1822 7.10048E-01
 -1      1823 6.20979E-01
 -1      1824 6.25741E-01
 -1      1825 5.67814E-01
 -1      1826 4.94352E-01
 -1      1827 5.16917E-01
 -1      1828 4.43150E-01
 -1      1829 3.78290E-01
 -1      1830 4.12550E-01
 -1      1831 3.42943E-01
 -1      1832 3.38399E-01
 -1      1833 3.26002E-01
 -1      1834 3.39715E-01
 -1      1835 3.38490E-01
 -1      1836 2.91971E-01
 -1      1837 3.39049E-01
 -1      1838 3.35009E-01
 -1      1839 2.93846E-01
 -1      1840 3.35239E-01
 -1      1841 3.70742E-01
 -1      1842 2.94635E-01
 -1      1843 3.89488E-01
 -1      1844 4.20857E-01
 -1      1845 3.13610E-01
 -1      1846 4.13565E-01
 -1      1847 4.13273E-01
 -1      1848 3.25064E-01
 -1      1849 3.80799E-01
 -1      1850 3.99216E-01
 -1      1851 2.85299E-01
 -1      1852 4.33649E-01
 -1      1853 4.41792E-01
 -1      1854 2.87259E-01
 -1      1855 5.51792E-01
 -1      1856 6.63491E-01
 -1      1857 4.31692E-01
 -1      1858 8.24597E-01
 -1      1859 9.85232E-01
 -1      1860 7.02798E-01
 -1      1861 1.13870E+00
 -1      1862 1.37304E+00
 -1      1863 1.01737E+00
 -1      1864 1.51957E+00
 -1      1865 1.82477E+00
 -1      1866 1.31737E+00
 -1      1867 1.93658E+00
 -1      1868 2.09798E+00
 -1      1869 1.57570E+00
 -1      1870 2.10210E+00
 -1      1871 2.06368E+00
 -1      1872 1.69162E+00
 -1      1873 2.06925E+00
 -1      1874 2.10568E+00
 -1      1875 1.70131E+00
 -1      1876 2.09404E+00
 -1      1877 1.92042E+00
 -1      1878 1.69525E+00
 -1      1879 1.80192E+00
 -1      1880 1.49692E+00
 -1      1881 1.56511E+00
 -1      1882 1.35013E+00
 -1      1883 1.11626E+00
 -1      1884 1.29982E+00
 -1      1885 9.59185E-01
 -1      1886 8.12154E-01
 -1      1887 9.95961E-01
 -1      1888 6.49159E-01
 -1      1889 5.44281E-01
 -1      1890 6.75888E-01
 -1      1891 4.24036E-01
 -1      1892 4.16697E-01
 -1      1893 3.92648E-01
 -1      1894 4.16902E-01
 -1      1895 3.82036E-01
 -1      1896 2.72607E-01
 -1      1897 4.10977E-01
 -1      1898 4.10998E-01
 -1      1899 3.01753E-01
 -1      1900 4.22711E-01
 -1      1901 3.95054E-01
 -1      1902 3.42408E-01
 -1      1903 3.84700E-01
 -1      1904 3.44538E-01
 -1      1905 3.43768E-01
 -1      1906 3.25214E-01
 -1      1907 2.93631E-01
 -1      1908 3.14090E-01
 -1      1909 2.75425E-01
 -1      1910 2.53112E-01
 -1      1911 2.76561E-01
 -1      1912 2.36796E-01
 -1      1913 2.13890E-01
 -1      1914 2.42039E-01
 -1      1915 1.94428E-01
 -1      1916 1.77042E-01
 -1      1917 2.06261E-01
 -1      1918 1.57441E-01
 -1      1919 1.40600E-01
 -1      1920 1.67199E-01
 -1      1921 1.22684E-01
 -1      1922 1.08151E-01
 -1      1923 1.29682E-01
 -1      1924 9.28377E-02
 -1      1925 8.10593E-02
 -1      1926 9.64524E-02
 -1      1927 7.07907E-02
 -1      1928 6.16020E-02
 -1      1929 7.08710E-02
 -1      1930 5.31524E-02
 -1      1931 4.77064E-02
 -1      1932 5.21529E-02
 -1      1933 4.17455E-02
 -1      1934 3.63356E-02
 -1      1935 3.77424E-02
 -1      1936 3.24037E-02
 -1      1937 2.72413E-02
 -1      1938 2.78496E-02
 -1      1939 2.42413E-02
 -1      1940 1.93384E-02
 -1      1941 2.09177E-02
 -1      1942 1.62960E-02
 -1      1943 1.27203E-02
 -1      1944 1.48754E-02
 -1      1945 1.08103E-02
 -1      1946 7.43623E-03
 -1      1947 6.26459E-03
 -1      1948 9.92304E-03
 -1      1949 1.42106E+00
 -1      1950 1.79281E+00
 -1      1951 1.51293E+00
 -1      1952 1.04546E+00
 -1      1953 1.28438E+00
 -1      1954 1.00710E+00
 -1      1955 8.48640E-01
 -1      1956 9.42742E-01
 -1      1957 7.67700E-01
 -1      1958 7.39646E-01
 -1      1959 8.08528E-01
 -1      1960 6.24867E-01
 -1      1961 6.74561E-01
 -1      1962 7.23436E-01
 -1      1963 5.68545E-01
 -1      1964 6.27635E-01
 -1      1965 6.59834E-01
 -1      1966 5.37608E-01
 -1      1967 5.98629E-01
 -1      1968 6.16095E-01
 -1      1969 5.11342E-01
 -1      1970 6.05819E-01
 -1      1971 6.10724E-01
 -1      1972 5.11897E-01
 -1      1973 7.57693E-01
 -1      1974 7.18393E-01
 -1      1975 6.36566E-01
 -1      1976 9.86600E-01
 -1      1977 9.13118E-01
 -1      1978 9.04564E-01
 -1      1979 1.24769E+00
 -1      1980 1.16248E+00
 -1      1981 1.23586E+00
 -1      1982 1.51762E+00
 -1      1983 1.42767E+00
 -1      1984 1.59172E+00
 -1      1985 1.73650E+00
 -1      1986 1.66543E+00
 -1      1987 1.91950E+00
 -1      1988 2.04669E+00
 -1      1989 1.85412E+00
 -1      1990 2.18493E+00
 -1      1991 2.30860E+00
 -1      1992 2.14183E+00
 -1      1993 2.39770E+00
 -1      1994 2.62760E+00
 -1      1995 2.41112E+00
 -1      1996 2.59536E+00
 -1      1997 2.81985E+00
 -1      1998 2.66228E+00
 -1      1999 2.73255E+00
 -1      2000 2.79389E+00
 -1      2001 2.77236E+00
 -1      2002 2.71974E+00
 -1      2003 3.38492E+00
 -1      2004 2.78332E+00
 -1      2005 2.66169E+00
 -1      2006 5.65164E+00
 -1      2007 4.43458E+00
 -1      2008 3.70079E+00
 -1      2009 6.54464E+00
 -1      2010 6.07744E+00
 -1      2011 5.17625E+00
 -1      2012 6.09465E+00
 -1      2013 5.79696E+00
 -1      2014 4.85437E+00
 -1      2015 3.89956E+00
 -1      2016 5.52090E+00
 -1      2017 3.53293E+00
 -1      2018 2.47597E+00
 -1      2019 3.68854E+00
 -1      2020 2.74815E+00
 -1      2021 2.53934E+00
 -1      2022 2.53253E+00
 -1      2023 2.59368E+00
 -1      2024 2.66576E+00
 -1      2025 2.42957E+00
 -1      2026 2.54047E+00
 -1      2027 2.58953E+00
 -1      2028 2.57240E+00
 -1      2029 2.33735E+00
 -1      2030 2.31068E+00
 -1      2031 2.51092E+00
 -1      2032 2.16539E+00
 -1      2033 2.01302E+00
 -1      2034 2.21497E+00
 -1      2035 1.99107E+00
 -1      2036 1.60114E+00
 -1      2037 1.83770E+00
 -1      2038 1.72003E+00
 -1      2039 1.25859E+00
 -1      2040 1.44231E+00
 -1      2041 1.38588E+00
 -1      2042 9.52322E-01
 -1      2043 1.11333E+00
 -1      2044 1.08178E+00
 -1      2045 6.99970E-01
 -1      2046 8.31133E-01
 -1      2047 8.15327E-01
 -1      2048 5.02645E-01
 -1      2049 6.04224E-01
 -1      2050 5.98391E-01
 -1      2051 3.56626E-01
 -1      2052 4.29636E-01
 -1      2053 4.29636E-01
 -1      2054 2.48220E-01
 -1      2055 3.02299E-01
 -1      2056 3.02299E-01
 -1      2057 1.78574E-01
 -1      2058 2.13519E-01
 -1      2059 2.13269E-01
 -1      2060 1.28801E-01
 -1      2061 1.53691E-01
 -1      2062 1.53684E-01
 -1      2063 9.12630E-02
 -1      2064 1.10032E-01
 -1      2065 1.10032E-01
 -1      2066 6.32207E-02
 -1      2067 7.72419E-02
 -1      2068 7.72419E-02
 -1      2069 4.32125E-02
 -1      2070 5.28433E-02
 -1      2071 5.28433E-02
 -1      2072 3.13924E-02
 -1      2073 3.59280E-02
 -1      2074 3.51815E-02
 -1      2075 2.27197E-02
 -1      2076 2.69089E-02
 -1      2077 2.34134E-02
 -1      2078 1.62141E-02
 -1      2079 2.01871E-02
 -1      2080 1.63974E-02
 -1      2081 1.15335E-02
 -1      2082 1.37576E-02
 -1      2083 1.14083E-02
 -1      2084 5.99793E-03
 -1      2085 9.06712E-03
 -1      2086 6.48534E-03
 -1      2087 3.83353E-03
 -1      2088 4.57358E-03
 -1      2089 4.79125E-03
 -1      2090 5.06961E-03
 -1      2091 5.06961E-03
 -1      2092 5.84620E-03
 -1      2093 5.06961E-03
 -1      2094 4.88633E-03
 -1      2095 5.07175E-03
 -1      2096 6.12456E-03
 -1      2097 3.02377E-03
 -1      2098 3.80893E-03
 -1      2099 4.80319E-03
 -1      2100 4.34208E-03
 -1      2101 3.67571E-03
 -1      2102 4.69048E-03
 -1      2103 5.19151E-03
 -1      2104 4.89373E-03
 -1      2105 5.89407E-03
 -1      2106 5.19151E-03
 -1      2107 5.19151E-03
 -1      2108 6.44573E-03
 -1      2109 5.15252E-03
 -1      2110 5.15359E-03
 -1      2111 6.40781E-03
 -1      2112 4.90439E-03
 -1      2113 5.15252E-03
 -1      2114 6.36989E-03
 -1      2115 3.84590E-03
 -1      2116 4.42981E-03
 -1      2117 5.89531E-03
 -1      2118 3.36504E-03
 -1      2119 2.98346E-03
 -1      2120 4.55830E-03
 -1      2121 4.50860E-03
 -1      2122 4.01962E-03
 -1      2123 4.35044E-03
 -1      2124 4.81697E-03
 -1      2125 4.81697E-03
 -1      2126 5.31338E-03
 -1      2127 3.35355E+01
 -1      2128 3.35355E+01
 -1      2129 3.33756E+01
 -1      2130 3.33756E+01
 -1      2131 3.40868E+01
 -1      2132 3.33756E+01
 -1      2133 3.46382E+01
 -1      2134 2.41969E+01
 -1      2135 2.66896E+01
 -1      2136 1.18807E+01
 -1      2137 1.97503E+01
 -1      2138 1.02896E+00
 -1      2139 1.20403E+00
 -1      2140 9.69411E-01
 -1      2141 8.48078E-01
 -1      2142 1.13924E+01
 -1      2143 1.11514E+01
 -1      2144 1.16910E+01
 -1      2145 1.15098E+01
 -1      2146 1.24839E+01
 -1      2147 1.18972E+01
 -1      2148 1.03369E+01
 -1      2149 1.09933E+01
 -1      2150 1.24630E+01
 -1      2151 1.01688E+01
 -1      2152 2.77907E+01
 -1      2153 1.55509E+01
 -1      2154 3.07074E+01
 -1      2155 3.31605E+01
 -1      2156 2.77028E+01
 -1      2157 3.19660E+01
 -1      2158 3.41594E+01
 -1      2159 3.41594E+01
 -1      2160 3.66934E+01
 -1      2161 3.41594E+01
 -1      2162 3.99097E+01
 -1      2163 3.34771E+01
 -1      2164 3.34771E+01
 -1      2165 2.63972E+01
 -1      2166 2.71295E+01
 -1      2167 2.71295E+01
 -1      2168 1.25634E+01
 -1      2169 2.19931E+01
 -1      2170 9.47052E+00
 -1      2171 1.01684E+01
 -1      2172 1.06102E+01
 -1      2173 9.95854E+00
 -1      2174 1.15618E+01
 -1      2175 1.21119E+01
 -1      2176 1.10466E+01
 -1      2177 1.10981E+01
 -1      2178 1.13996E+01
 -1      2179 1.11055E+01
 -1      2180 9.16468E+00
 -1      2181 1.00029E+01
 -1      2182 1.44259E+01
 -1      2183 9.94102E+00
 -1      2184 8.33610E+00
 -1      2185 3.07197E+01
 -1      2186 1.75662E+01
 -1      2187 2.73048E+01
 -1      2188 3.66755E+01
 -1      2189 3.01160E+01
 -1      2190 2.77120E+01
 -1      2191 9.95117E+00
 -1      2192 1.03222E+01
 -1      2193 9.39199E+00
 -1      2194 2.89532E+00
 -1      2195 9.03375E+00
 -1      2196 2.08263E+00
 -1      2197 3.40868E+01
 -1      2198 2.66896E+01
 -1      2199 5.06892E-03
 -1      2200 3.13786E+01
 -1      2201 1.53971E+01
 -1      2202 2.77120E+01
 -1      2203 1.22528E+01
 -1      2204 8.95651E+00
 -1      2205 1.02944E+01
 -1      2206 1.06993E+01
 -1      2207 9.66132E+00
 -1      2208 7.67156E+00
 -1      2209 1.63777E+01
 -1      2210 2.83191E+01
 -1      2211 3.15355E+01
 -1      2212 2.83191E+01
 -1      2213 3.34531E+01
 -1      2214 2.57379E+01
 -1      2215 1.91096E+01
 -1      2216 1.24027E+01
 -1      2217 7.50355E+00
 -1      2218 1.05915E+01
 -1      2219 7.73193E+00
 -1      2220 9.39066E+00
 -1      2221 1.03514E+01
 -1      2222 1.06751E+01
 -1      2223 9.57854E+00
 -1      2224 2.13490E+01
 -1      2225 1.09173E+00
 -1      2226 1.46087E+00
 -1      2227 5.47621E-01
 -1      2228 5.81284E-01
 -1      2229 5.97965E-01
 -1      2230 6.49908E-01
 -1      2231 4.94096E-01
 -1      2232 4.92799E-01
 -1      2233 4.91046E-01
 -1      2234 5.31486E-01
 -1      2235 5.07827E-01
 -1      2236 4.27565E-01
 -1      2237 5.84191E-01
 -1      2238 5.48840E-01
 -1      2239 4.59946E-01
 -1      2240 6.48038E-01
 -1      2241 5.98825E-01
 -1      2242 4.91934E-01
 -1      2243 7.17095E-01
 -1      2244 6.48469E-01
 -1      2245 5.07000E-01
 -1      2246 8.70950E-01
 -1      2247 7.64344E-01
 -1      2248 5.54681E-01
 -1      2249 8.70421E-01
 -1      2250 1.00710E+00
 -1      2251 9.55045E-01
 -1      2252 1.24699E+00
 -1      2253 1.01128E+00
 -1      2254 7.35433E+00
 -1      2255 6.15408E+00
 -1      2256 9.60956E-01
 -1      2257 7.74724E-01
 -1      2258 7.19031E-01
 -1      2259 7.08767E-01
 -1      2260 6.09096E-01
 -1      2261 6.02750E-01
 -1      2262 5.43753E-01
 -1      2263 4.88094E-01
 -1      2264 4.71449E-01
 -1      2265 4.62630E-01
 -1      2266 4.09465E-01
 -1      2267 3.80642E-01
 -1      2268 3.76564E-01
 -1      2269 3.25362E-01
 -1      2270 3.22277E-01
 -1      2271 2.89059E-01
 -1      2272 2.53712E-01
 -1      2273 2.53073E-01
 -1      2274 2.47711E-01
 -1      2275 2.49027E-01
 -1      2276 2.10768E-01
 -1      2277 2.51976E-01
 -1      2278 2.52535E-01
 -1      2279 2.07715E-01
 -1      2280 2.56426E-01
 -1      2281 2.56656E-01
 -1      2282 2.14556E-01
 -1      2283 2.71639E-01
 -1      2284 2.90384E-01
 -1      2285 2.33430E-01
 -1      2286 3.11339E-01
 -1      2287 3.04048E-01
 -1      2288 2.69368E-01
 -1      2289 3.44260E-01
 -1      2290 3.11786E-01
 -1      2291 3.30535E-01
 -1      2292 3.48041E-01
 -1      2293 3.82474E-01
 -1      2294 4.07001E-01
 -1      2295 4.39940E-01
 -1      2296 5.49940E-01
 -1      2297 5.00722E-01
 -1      2298 6.59083E-01
 -1      2299 8.20189E-01
 -1      2300 6.67332E-01
 -1      2301 9.22301E-01
 -1      2302 1.07577E+00
 -1      2303 8.78587E-01
 -1      2304 1.16656E+00
 -1      2305 1.31309E+00
 -1      2306 1.07150E+00
 -1      2307 1.36727E+00
 -1      2308 1.47907E+00
 -1      2309 1.21647E+00
 -1      2310 1.50658E+00
 -1      2311 1.51069E+00
 -1      2312 1.29815E+00
 -1      2313 1.43236E+00
 -1      2314 1.43794E+00
 -1      2315 1.24732E+00
 -1      2316 1.51843E+00
 -1      2317 1.50679E+00
 -1      2318 1.24948E+00
 -1      2319 1.46812E+00
 -1      2320 1.34961E+00
 -1      2321 1.29129E+00
 -1      2322 1.29905E+00
 -1      2323 1.15227E+00
 -1      2324 1.20206E+00
 -1      2325 1.05567E+00
 -1      2326 8.98589E-01
 -1      2327 1.05489E+00
 -1      2328 7.89773E-01
 -1      2329 6.26778E-01
 -1      2330 8.49478E-01
 -1      2331 5.11868E-01
 -1      2332 3.91623E-01
 -1      2333 6.25753E-01
 -1      2334 3.55226E-01
 -1      2335 3.55431E-01
 -1      2336 4.74446E-01
 -1      2337 3.17905E-01
 -1      2338 3.46846E-01
 -1      2339 4.00524E-01
 -1      2340 3.31698E-01
 -1      2341 3.43412E-01
 -1      2342 3.47850E-01
 -1      2343 3.42082E-01
 -1      2344 3.31728E-01
 -1      2345 3.31372E-01
 -1      2346 3.19558E-01
 -1      2347 3.00234E-01
 -1      2348 3.17872E-01
 -1      2349 2.85779E-01
 -1      2350 2.67574E-01
 -1      2351 2.91247E-01
 -1      2352 2.51033E-01
 -1      2353 2.34717E-01
 -1      2354 2.60252E-01
 -1      2355 2.16891E-01
 -1      2356 1.97430E-01
 -1      2357 2.25886E-01
 -1      2358 1.78472E-01
 -1      2359 1.58872E-01
 -1      2360 1.89103E-01
 -1      2361 1.40814E-01
 -1      2362 1.22898E-01
 -1      2363 1.52088E-01
 -1      2364 1.06885E-01
 -1      2365 9.15719E-02
 -1      2366 1.18017E-01
 -1      2367 7.81060E-02
 -1      2368 6.78375E-02
 -1      2369 8.85385E-02
 -1      2370 5.69969E-02
 -1      2371 4.85473E-02
 -1      2372 6.42320E-02
 -1      2373 4.01587E-02
 -1      2374 3.41978E-02
 -1      2375 4.50027E-02
 -1      2376 2.79576E-02
 -1      2377 2.40257E-02
 -1      2378 3.03739E-02
 -1      2379 1.96620E-02
 -1      2380 1.66620E-02
 -1      2381 1.97700E-02
 -1      2382 1.44376E-02
 -1      2383 1.13952E-02
 -1      2384 1.31819E-02
 -1      2385 5.56839E-01
 -1      2386 5.96951E-01
 -1      2387 5.05585E-01
 -1      2388 5.21795E-01
 -1      2389 4.93879E-01
 -1      2390 4.50073E-01
 -1      2391 4.64800E-01
 -1      2392 4.18050E-01
 -1      2393 4.14007E-01
 -1      2394 4.25547E-01
 -1      2395 3.52738E-01
 -1      2396 4.63588E-01
 -1      2397 4.51492E-01
 -1      2398 3.65697E-01
 -1      2399 6.76012E-01
 -1      2400 5.63438E-01
 -1      2401 5.03034E-01
 -1      2402 9.67188E-01
 -1      2403 8.11763E-01
 -1      2404 7.38636E-01
 -1      2405 1.30507E+00
 -1      2406 1.12919E+00
 -1      2407 1.03639E+00
 -1      2408 1.67130E+00
 -1      2409 1.49132E+00
 -1      2410 1.38465E+00
 -1      2411 2.01832E+00
 -1      2412 1.87052E+00
 -1      2413 1.77012E+00
 -1      2414 2.32303E+00
 -1      2415 2.20540E+00
 -1      2416 2.15642E+00
 -1      2417 2.55355E+00
 -1      2418 2.45840E+00
 -1      2419 2.47888E+00
 -1      2420 3.04245E+00
 -1      2421 2.93994E+00
 -1      2422 3.00064E+00
 -1      2423 3.74396E+00
 -1      2424 3.70928E+00
 -1      2425 4.05386E+00
 -1      2426 3.27592E+00
 -1      2427 3.32341E+00
 -1      2428 4.30013E+00
 -1      2429 3.37215E+00
 -1      2430 3.38271E+00
 -1      2431 3.98637E+00
 -1      2432 7.43472E+00
 -1      2433 7.00892E+00
 -1      2434 4.85437E+00
 -1      2435 5.60205E+00
 -1      2436 3.73226E+00
 -1      2437 4.30602E+00
 -1      2438 2.73139E+00
 -1      2439 2.94241E+00
 -1      2440 3.71550E+00
 -1      2441 4.07468E+00
 -1      2442 4.01812E+00
 -1      2443 4.21239E+00
 -1      2444 3.15062E+00
 -1      2445 3.26039E+00
 -1      2446 4.68483E+00
 -1      2447 2.55611E+00
 -1      2448 2.64946E+00
 -1      2449 3.36938E+00
 -1      2450 2.26916E+00
 -1      2451 2.34777E+00
 -1      2452 2.65988E+00
 -1      2453 2.03353E+00
 -1      2454 2.12924E+00
 -1      2455 2.31163E+00
 -1      2456 1.65303E+00
 -1      2457 1.82835E+00
 -1      2458 1.96653E+00
 -1      2459 1.31047E+00
 -1      2460 1.46929E+00
 -1      2461 1.57761E+00
 -1      2462 1.00307E+00
 -1      2463 1.14833E+00
 -1      2464 1.23175E+00
 -1      2465 7.48165E-01
 -1      2466 8.69354E-01
 -1      2467 9.35905E-01
 -1      2468 5.46639E-01
 -1      2469 6.42385E-01
 -1      2470 6.96413E-01
 -1      2471 3.92265E-01
 -1      2472 4.65274E-01
 -1      2473 5.09268E-01
 -1      2474 2.76597E-01
 -1      2475 3.30925E-01
 -1      2476 3.66563E-01
 -1      2477 1.96371E-01
 -1      2478 2.31073E-01
 -1      2479 2.59699E-01
 -1      2480 1.38156E-01
 -1      2481 1.63039E-01
 -1      2482 1.80842E-01
 -1      2483 9.53059E-02
 -1      2484 1.14075E-01
 -1      2485 1.23429E-01
 -1      2486 6.41456E-02
 -1      2487 7.81667E-02
 -1      2488 8.22097E-02
 -1      2489 4.19172E-02
 -1      2490 5.22946E-02
 -1      2491 5.32195E-02
 -1      2492 2.87779E-02
 -1      2493 3.60624E-02
 -1      2494 3.55137E-02
 -1      2495 1.98868E-02
 -1      2496 2.43703E-02
 -1      2497 2.52513E-02
 -1      2498 1.40971E-02
 -1      2499 1.66296E-02
 -1      2500 1.75865E-02
 -1      2501 9.14258E-03
 -1      2502 1.15991E-02
 -1      2503 1.18314E-02
 -1      2504 7.53815E-03
 -1      2505 6.52495E-03
 -1      2506 5.87301E-03
 -1      2507 8.03150E-03
 -1      2508 7.47985E-03
 -1      2509 8.66238E-03
 -1      2510 5.86525E-03
 -1      2511 6.14361E-03
 -1      2512 5.53578E-03
 -1      2513 6.30044E-03
 -1      2514 6.59784E-03
 -1      2515 7.37025E-03
 -1      2516 8.13278E-03
 -1      2517 8.13278E-03
 -1      2518 9.71856E-03
 -1      2519 8.09486E-03
 -1      2520 8.13278E-03
 -1      2521 9.81984E-03
 -1      2522 7.97935E-03
 -1      2523 7.97935E-03
 -1      2524 9.70433E-03
 -1      2525 7.40172E-03
 -1      2526 7.87629E-03
 -1      2527 9.48576E-03
 -1      2528 5.63335E-03
 -1      2529 6.49578E-03
 -1      2530 8.47676E-03
 -1      2531 6.28936E-03
 -1      2532 5.63478E-03
 -1      2533 7.57226E-03
 -1      2534 6.59773E-03
 -1      2535 6.28936E-03
 -1      2536 7.57370E-03
 -1      2537 1.71839E+01
 -1      2538 2.40298E+01
 -1      2539 6.81742E-03
 -1      2540 3.13786E+01
 -1      2541 2.81191E+01
 -1      2542 6.64980E-01
 -1      2543 7.67700E-01
 -1      2544 5.96951E-01
 -1      2545 3.46382E+01
 -1      2546 3.46382E+01
 -1      2547 2.33653E+01
 -1      2548 2.29582E+01
 -1      2549 1.64466E+00
 -1      2550 1.28665E+00
 -1      2551 8.09014E-01
 -1      2552 9.40189E-01
 -1      2553 1.01472E+01
 -1      2554 1.45939E+01
 -1      2555 6.56682E+00
 -1      2556 7.96358E+00
 -1      2557 3.34531E+01
 -1      2558 2.69965E+01
 -1      2559 5.06291E-01
 -1      2560 5.30427E-01
 -1      2561 4.60221E-01
 -1      2562 4.27782E-01
 -1      2563 1.00743E+01
 -1      2564 9.86812E+00
 -1      2565 7.25483E+00
 -1      2566 9.64983E+00
 -1      2567 8.87006E+00
 -1      2568 8.75264E+00
 -1      2569 7.02293E+00
 -1      2570 8.51356E+00
 -1      2571 6.26235E+00
 -1      2572 6.43044E+00
 -1      2573 1.75941E+01
 -1      2574 1.22243E+01
 -1      2575 2.21683E+01
 -1      2576 2.09098E+01
 -1      2577 1.40245E+01
 -1      2578 3.99097E+01
 -1      2579 3.99097E+01
 -1      2580 1.76745E+01
 -1      2581 2.40221E+01
 -1      2582 1.97857E+01
 -1      2583 1.38299E+01
 -1      2584 1.11010E+01
 -1      2585 1.55052E+01
 -1      2586 1.23979E+01
 -1      2587 6.17112E+00
 -1      2588 5.68311E+00
 -1      2589 8.64777E+00
 -1      2590 7.14603E+00
 -1      2591 5.15758E+00
 -1      2592 9.32345E+00
 -1      2593 9.78719E+00
 -1      2594 9.28905E+00
 -1      2595 9.23021E+00
 -1      2596 8.31808E+00
 -1      2597 7.01872E+00
 -1      2598 6.24237E+00
 -1      2599 1.18255E+01
 -1      2600 8.68513E+00
 -1      2601 2.86868E+01
 -1      2602 2.92382E+01
 -1      2603 1.59172E+00
 -1      2604 1.74024E+00
 -1      2605 1.30120E+00
 -1      2606 1.17052E+00
 -1      2607 6.47474E+00
 -1      2608 8.03324E+00
 -1      2609 8.26933E+00
 -1      2610 5.25958E-01
 -1      2611 6.65089E-01
 -1      2612 7.24128E-01
 -1      2613 7.67700E-01
 -1      2614 1.22067E+00
 -1      2615 4.79533E+00
 -1      2616 1.02622E+01
 -1      2617 6.89936E+00
 -1      2618 8.50768E+00
 -1      2619 7.70443E+00
 -1      2620 5.59044E+00
 -1      2621 8.95788E+00
 -1      2622 6.44260E+00
 -1      2623 7.58202E+00
 -1      2624 8.77733E+00
 -1      2625 2.33653E+01
 -1      2626 1.54391E+01
 -1      2627 4.75046E+00
 -1      2628 3.70079E+00
 -1      2629 5.05370E+00
 -1      2630 7.72899E-03
 -1      2631 7.72899E-03
 -1      2632 5.75439E+00
 -1      2633 1.91811E+01
 -1      2634 1.19340E+01
 -1      2635 8.01308E-03
 -1      2636 6.81742E-03
 -1      2637 7.79339E-03
 -1      2638 9.92304E-03
 -1      2639 2.21683E+01
 -1      2640 3.13786E+01
 -1      2641 9.51653E-01
 -1      2642 2.92382E+01
 -1      2643 3.34531E+01
 -1      2644 4.42181E+00
 -1      2645 6.20206E+00
 -1      2646 5.24944E+00
 -1      2647 5.55334E+00
 -1      2648 8.77896E-01
 -1      2649 2.47756E+01
 -1      2650 1.96177E+01
 -1      2651 1.53206E+01
 -1      2652 1.05052E+01
 -1      2653 7.35696E+00
 -1      2654 8.98976E+00
 -1      2655 5.87297E+00
 -1      2656 7.70661E+00
 -1      2657 3.02067E+01
 -1      2658 3.02067E+01
 -1      2659 2.18324E+01
 -1      2660 6.59140E+00
 -1      2661 7.74804E-03
 -1      2662 9.48527E-03
 -1      2663 4.12155E-01
 -1      2664 3.94802E-01
 -1      2665 3.82958E-01
 -1      2666 3.67930E-01
 -1      2667 3.35167E-01
 -1      2668 4.33529E-01
 -1      2669 4.33098E-01
 -1      2670 4.73777E-01
 -1      2671 4.26528E-01
 -1      2672 3.52626E-01
 -1      2673 6.91252E-01
 -1      2674 7.75877E-01
 -1      2675 1.99037E+01
 -1      2676 2.53037E+01
 -1      2677 5.67273E-01
 -1      2678 6.69994E-01
 -1      2679 4.90825E-01
 -1      2680 1.03073E+01
 -1      2681 8.30293E+00
 -1      2682 5.08279E-01
 -1      2683 4.42322E-01
 -1      2684 4.24553E-01
 -1      2685 3.59209E-01
 -1      2686 3.30082E-01
 -1      2687 3.24929E-01
 -1      2688 2.99466E-01
 -1      2689 2.78033E-01
 -1      2690 2.76301E-01
 -1      2691 2.43400E-01
 -1      2692 2.20588E-01
 -1      2693 2.20474E-01
 -1      2694 1.84170E-01
 -1      2695 1.74497E-01
 -1      2696 1.69858E-01
 -1      2697 1.63857E-01
 -1      2698 1.37259E-01
 -1      2699 1.77269E-01
 -1      2700 1.80218E-01
 -1      2701 1.36359E-01
 -1      2702 2.07381E-01
 -1      2703 2.11273E-01
 -1      2704 1.76935E-01
 -1      2705 2.45922E-01
 -1      2706 2.60905E-01
 -1      2707 2.38748E-01
 -1      2708 2.94470E-01
 -1      2709 3.15424E-01
 -1      2710 3.06962E-01
 -1      2711 3.42178E-01
 -1      2712 3.82390E-01
 -1      2713 3.67280E-01
 -1      2714 4.59311E-01
 -1      2715 4.95566E-01
 -1      2716 4.70955E-01
 -1      2717 5.69475E-01
 -1      2718 6.26941E-01
 -1      2719 6.21785E-01
 -1      2720 6.73153E-01
 -1      2721 7.82296E-01
 -1      2722 7.41906E-01
 -1      2723 9.04236E-01
 -1      2724 1.00635E+00
 -1      2725 9.10058E-01
 -1      2726 1.06909E+00
 -1      2727 1.15989E+00
 -1      2728 1.09474E+00
 -1      2729 1.21647E+00
 -1      2730 1.27065E+00
 -1      2731 1.21407E+00
 -1      2732 1.40440E+00
 -1      2733 1.43190E+00
 -1      2734 1.40440E+00
 -1      2735 1.54036E+00
 -1      2736 1.46203E+00
 -1      2737 1.64661E+00
 -1      2738 1.43904E+00
 -1      2739 1.51952E+00
 -1      2740 1.73207E+00
 -1      2741 1.43474E+00
 -1      2742 1.39607E+00
 -1      2743 1.62430E+00
 -1      2744 1.25262E+00
 -1      2745 1.20206E+00
 -1      2746 1.39607E+00
 -1      2747 1.16314E+00
 -1      2748 1.06654E+00
 -1      2749 1.21371E+00
 -1      2750 9.82398E-01
 -1      2751 8.73583E-01
 -1      2752 1.09065E+00
 -1      2753 7.62950E-01
 -1      2754 6.48040E-01
 -1      2755 8.95870E-01
 -1      2756 6.04172E-01
 -1      2757 5.67775E-01
 -1      2758 7.41368E-01
 -1      2759 4.91935E-01
 -1      2760 4.54409E-01
 -1      2761 6.21660E-01
 -1      2762 4.04627E-01
 -1      2763 3.89480E-01
 -1      2764 4.96038E-01
 -1      2765 3.72078E-01
 -1      2766 3.70748E-01
 -1      2767 4.28855E-01
 -1      2768 3.44395E-01
 -1      2769 3.32224E-01
 -1      2770 3.85101E-01
 -1      2771 3.06865E-01
 -1      2772 2.92410E-01
 -1      2773 3.33388E-01
 -1      2774 2.72976E-01
 -1      2775 2.56435E-01
 -1      2776 2.88593E-01
 -1      2777 2.35827E-01
 -1      2778 2.18001E-01
 -1      2779 2.48550E-01
 -1      2780 1.97465E-01
 -1      2781 1.78508E-01
 -1      2782 2.07406E-01
 -1      2783 1.59379E-01
 -1      2784 1.41322E-01
 -1      2785 1.67741E-01
 -1      2786 1.24504E-01
 -1      2787 1.08491E-01
 -1      2788 1.31795E-01
 -1      2789 9.43315E-02
 -1      2790 8.08655E-02
 -1      2791 1.00818E-01
 -1      2792 6.93623E-02
 -1      2793 5.85217E-02
 -1      2794 7.51553E-02
 -1      2795 4.94664E-02
 -1      2796 4.10777E-02
 -1      2797 5.45968E-02
 -1      2798 3.41602E-02
 -1      2799 2.79201E-02
 -1      2800 3.86239E-02
 -1      2801 2.27900E-02
 -1      2802 1.84262E-02
 -1      2803 2.65763E-02
 -1      2804 1.39787E-02
 -1      2805 1.17543E-02
 -1      2806 1.69987E-02
 -1      2807 3.10175E-01
 -1      2808 3.50961E-01
 -1      2809 2.02591E+01
 -1      2810 1.54309E+01
 -1      2811 3.75945E-01
 -1      2812 4.10989E-01
 -1      2813 2.68071E-01
 -1      2814 3.26899E-01
 -1      2815 2.89414E-01
 -1      2816 5.10894E-01
 -1      2817 4.11043E-01
 -1      2818 3.34760E-01
 -1      2819 7.51451E-01
 -1      2820 6.15700E-01
 -1      2821 5.23709E-01
 -1      2822 1.04530E+00
 -1      2823 8.83293E-01
 -1      2824 7.60357E-01
 -1      2825 1.40054E+00
 -1      2826 1.21428E+00
 -1      2827 1.06119E+00
 -1      2828 1.82265E+00
 -1      2829 1.62343E+00
 -1      2830 1.45306E+00
 -1      2831 2.30766E+00
 -1      2832 2.12057E+00
 -1      2833 1.97388E+00
 -1      2834 2.86471E+00
 -1      2835 2.72934E+00
 -1      2836 2.69349E+00
 -1      2837 3.83561E+00
 -1      2838 3.44922E+00
 -1      2839 3.69969E+00
 -1      2840 5.46883E+00
 -1      2841 4.80199E+00
 -1      2842 5.25058E+00
 -1      2843 5.57512E+00
 -1      2844 5.99567E+00
 -1      2845 7.43472E+00
 -1      2846 4.49526E+00
 -1      2847 5.28512E+00
 -1      2848 4.67026E+00
 -1      2849 5.17142E+00
 -1      2850 2.97178E+00
 -1      2851 3.18011E+00
 -1      2852 4.98216E+00
 -1      2853 2.38672E+00
 -1      2854 2.52663E+00
 -1      2855 3.04687E+00
 -1      2856 1.84874E+00
 -1      2857 2.05392E+00
 -1      2858 2.26893E+00
 -1      2859 1.42639E+00
 -1      2860 1.61013E+00
 -1      2861 1.69752E+00
 -1      2862 1.08478E+00
 -1      2863 1.24692E+00
 -1      2864 1.27943E+00
 -1      2865 8.14889E-01
 -1      2866 9.48601E-01
 -1      2867 9.63767E-01
 -1      2868 6.04890E-01
 -1      2869 7.10669E-01
 -1      2870 7.23365E-01
 -1      2871 4.43720E-01
 -1      2872 5.25085E-01
 -1      2873 5.39342E-01
 -1      2874 3.21496E-01
 -1      2875 3.82836E-01
 -1      2876 3.98653E-01
 -1      2877 2.29813E-01
 -1      2878 2.75338E-01
 -1      2879 2.91610E-01
 -1      2880 1.61768E-01
 -1      2881 1.95100E-01
 -1      2882 2.10739E-01
 -1      2883 1.11834E-01
 -1      2884 1.35914E-01
 -1      2885 1.50173E-01
 -1      2886 7.56565E-02
 -1      2887 9.27957E-02
 -1      2888 1.05281E-01
 -1      2889 4.99803E-02
 -1      2890 6.18312E-02
 -1      2891 7.24173E-02
 -1      2892 3.42506E-02
 -1      2893 4.01055E-02
 -1      2894 4.87172E-02
 -1      2895 2.29508E-02
 -1      2896 2.73583E-02
 -1      2897 3.19501E-02
 -1      2898 1.49140E-02
 -1      2899 1.81712E-02
 -1      2900 2.02783E-02
 -1      2901 9.33342E-03
 -1      2902 1.18314E-02
 -1      2903 1.24161E-02
 -1      2904 7.74804E-03
 -1      2905 1.21680E-02
 -1      2906 1.21680E-02
 -1      2907 9.26558E-03
 -1      2908 7.79339E-03
 -1      2909 1.00624E-02
 -1      2910 1.16287E-02
 -1      2911 1.06738E-02
 -1      2912 1.17891E-02
 -1      2913 1.19046E-02
 -1      2914 1.42527E-02
 -1      2915 1.21680E-02
 -1      2916 1.20667E-02
 -1      2917 1.40781E-02
 -1      2918 1.45161E-02
 -1      2919 4.59931E-01
 -1      2920 5.27959E-01
 -1      2921 4.30252E-01
 -1      2922 3.41997E-01
 -1      2923 1.16860E-02
 -1      2924 1.17891E-02
 -1      2925 1.39894E-02
 -1      2926 1.01968E-02
 -1      2927 1.11027E-02
 -1      2928 1.34060E-02
 -1      2929 8.72045E-03
 -1      2930 8.71901E-03
 -1      2931 1.13449E-02
 -1      2932 6.94907E-01
 -1      2933 6.55247E-01
 -1      2934 8.20800E-01
 -1      2935 8.62327E+00
 -1      2936 1.12133E+01
 -1      2937 2.45256E+01
 -1      2938 2.12661E+01
 -1      2939 1.45320E+01
 -1      2940 1.13595E+01
 -1      2941 5.78200E+00
 -1      2942 4.39135E+00
 -1      2943 5.96307E+00
 -1      2944 2.49780E-01
 -1      2945 2.74306E-01
 -1      2946 2.07217E-01
 -1      2947 2.10982E-01
 -1      2948 5.72832E-01
 -1      2949 5.22508E-01
 -1      2950 3.62081E-01
 -1      2951 4.58724E-01
 -1      2952 1.34106E+01
 -1      2953 1.80676E+01
 -1      2954 1.00998E+01
 -1      2955 7.57370E-03
 -1      2956 4.33098E-01
 -1      2957 4.18464E-01
 -1      2958 3.53319E-01
 -1      2959 3.59628E-01
 -1      2960 4.17281E-01
 -1      2961 4.33962E-01
 -1      2962 2.11329E+01
 -1      2963 1.63791E+01
 -1      2964 7.24128E-01
 -1      2965 3.89502E+00
 -1      2966 4.21946E+00
 -1      2967 1.28877E+01
 -1      2968 9.57201E+00
 -1      2969 1.09784E+01
 -1      2970 6.61560E+00
 -1      2971 4.94919E+00
 -1      2972 5.16747E+00
 -1      2973 6.49295E+00
 -1      2974 9.21222E+00
 -1      2975 1.13815E+01
 -1      2976 6.73424E+00
 -1      2977 8.18545E+00
 -1      2978 4.71173E+00
 -1      2979 3.73682E+00
 -1      2980 6.92020E+00
 -1      2981 7.01344E+00
 -1      2982 2.81577E+01
 -1      2983 2.17011E+01
 -1      2984 4.51877E-01
 -1      2985 4.67058E-01
 -1      2986 3.75063E-01
 -1      2987 3.23540E-01
 -1      2988 3.68147E-01
 -1      2989 3.83392E-01
 -1      2990 6.66072E+00
 -1      2991 1.51911E+01
 -1      2992 9.40022E+00
 -1      2993 6.18413E+00
 -1      2994 1.21953E-02
 -1      2995 9.22901E-03
 -1      2996 8.89179E-03
 -1      2997 3.91922E+00
 -1      2998 7.00892E+00
 -1      2999 6.74381E+00
 -1      3000 4.67523E+00
 -1      3001 4.56843E+00
 -1      3002 5.37119E+00
 -1      3003 4.49001E+00
 -1      3004 5.03835E+00
 -1      3005 7.18743E+00
 -1      3006 5.88654E+00
 -1      3007 7.97733E-03
 -1      3008 7.54214E-03
 -1      3009 9.12753E-03
 -1      3010 9.83609E-03
 -1      3011 1.22995E+01
 -1      3012 1.41331E+01
 -1      3013 3.81305E+00
 -1      3014 7.57370E-03
 -1      3015 2.53298E+01
 -1      3016 1.35778E+01
 -1      3017 1.56267E+01
 -1      3018 5.42082E+00
 -1      3019 4.00006E+00
 -1      3020 5.73094E+00
 -1      3021 5.18831E+00
 -1      3022 4.81067E+00
 -1      3023 5.57007E-01
 -1      3024 6.98371E+00
 -1      3025 1.42799E+01
 -1      3026 1.49636E+01
 -1      3027 5.41139E-01
 -1      3028 4.85565E+00
 -1      3029 4.52701E+00
 -1      3030 1.17626E+01
 -1      3031 1.25161E+01
 -1      3032 8.57699E+00
 -1      3033 6.70083E+00
 -1      3034 3.95072E-01
 -1      3035 4.12266E-01
 -1      3036 3.52132E-01
 -1      3037 3.35437E-01
 -1      3038 3.94549E+00
 -1      3039 7.16913E+00
 -1      3040 8.01948E-03
 -1      3041 8.01948E-03
 -1      3042 9.16623E-03
 -1      3043 1.05082E-02
 -1      3044 1.82888E+01
 -1      3045 5.10907E+00
 -1      3046 4.28854E-01
 -1      3047 2.97400E-01
 -1      3048 3.04402E-01
 -1      3049 3.02915E+00
 -1      3050 3.68368E+00
 -1      3051 2.41241E-01
 -1      3052 2.06961E-01
 -1      3053 1.88430E-01
 -1      3054 1.65266E-01
 -1      3055 1.51638E-01
 -1      3056 1.38334E-01
 -1      3057 1.15407E-01
 -1      3058 1.06175E-01
 -1      3059 1.28742E-01
 -1      3060 1.14430E-01
 -1      3061 9.25786E-02
 -1      3062 1.33573E-01
 -1      3063 1.46985E-01
 -1      3064 1.25056E-01
 -1      3065 1.81031E-01
 -1      3066 2.08195E-01
 -1      3067 1.78245E-01
 -1      3068 2.44646E-01
 -1      3069 2.79295E-01
 -1      3070 2.48742E-01
 -1      3071 3.25709E-01
 -1      3072 3.59274E-01
 -1      3073 3.31607E-01
 -1      3074 4.16446E-01
 -1      3075 4.43199E-01
 -1      3076 4.35193E-01
 -1      3077 4.96382E-01
 -1      3078 5.73303E-01
 -1      3079 5.45547E-01
 -1      3080 6.58252E-01
 -1      3081 7.32161E-01
 -1      3082 6.83679E-01
 -1      3083 8.61313E-01
 -1      3084 9.07525E-01
 -1      3085 8.97780E-01
 -1      3086 9.96854E-01
 -1      3087 1.11879E+00
 -1      3088 1.11626E+00
 -1      3089 1.17638E+00
 -1      3090 1.23912E+00
 -1      3091 1.26317E+00
 -1      3092 1.74987E+00
 -1      3093 1.80645E+00
 -1      3094 1.83150E+00
 -1      3095 1.79880E+00
 -1      3096 1.93255E+00
 -1      3097 2.33460E+00
 -1      3098 2.52754E+00
 -1      3099 2.63599E+00
 -1      3100 2.92194E+00
 -1      3101 2.63036E+00
 -1      3102 2.60737E+00
 -1      3103 3.51129E+00
 -1      3104 2.75530E+00
 -1      3105 2.67052E+00
 -1      3106 3.65359E+00
 -1      3107 2.04530E+00
 -1      3108 1.90186E+00
 -1      3109 3.17630E+00
 -1      3110 1.43994E+00
 -1      3111 1.40102E+00
 -1      3112 2.08917E+00
 -1      3113 1.24906E+00
 -1      3114 1.16491E+00
 -1      3115 1.47529E+00
 -1      3116 1.12515E+00
 -1      3117 1.01452E+00
 -1      3118 1.28356E+00
 -1      3119 9.00664E-01
 -1      3120 8.56796E-01
 -1      3121 1.12995E+00
 -1      3122 7.30830E-01
 -1      3123 6.54990E-01
 -1      3124 8.90125E-01
 -1      3125 5.95151E-01
 -1      3126 5.45369E-01
 -1      3127 7.04321E-01
 -1      3128 4.97254E-01
 -1      3129 4.79853E-01
 -1      3130 5.96367E-01
 -1      3131 4.28419E-01
 -1      3132 4.02065E-01
 -1      3133 4.96818E-01
 -1      3134 3.62866E-01
 -1      3135 3.37507E-01
 -1      3136 4.06185E-01
 -1      3137 3.09526E-01
 -1      3138 2.90091E-01
 -1      3139 3.39005E-01
 -1      3140 2.62537E-01
 -1      3141 2.41928E-01
 -1      3142 2.83469E-01
 -1      3143 2.15983E-01
 -1      3144 1.95447E-01
 -1      3145 2.29969E-01
 -1      3146 1.72629E-01
 -1      3147 1.53500E-01
 -1      3148 1.81206E-01
 -1      3149 1.34447E-01
 -1      3150 1.17629E-01
 -1      3151 1.39334E-01
 -1      3152 1.02760E-01
 -1      3153 8.86003E-02
 -1      3154 1.05411E-01
 -1      3155 7.67986E-02
 -1      3156 6.52954E-02
 -1      3157 7.87404E-02
 -1      3158 5.61215E-02
 -1      3159 4.70661E-02
 -1      3160 5.77648E-02
 -1      3161 4.01375E-02
 -1      3162 3.32200E-02
 -1      3163 4.16623E-02
 -1      3164 2.79116E-02
 -1      3165 2.27814E-02
 -1      3166 2.94252E-02
 -1      3167 1.80050E-02
 -1      3168 1.35575E-02
 -1      3169 1.15145E-02
 -1      3170 1.93402E-02
 -1      3171 1.66721E-02
 -1      3172 1.66721E-02
 -1      3173 5.80175E-01
 -1      3174 4.75370E-01
 -1      3175 3.78518E-01
 -1      3176 2.94374E-01
 -1      3177 4.34983E-01
 -1      3178 1.18941E+00
 -1      3179 1.02042E+00
 -1      3180 1.63900E+00
 -1      3181 1.41611E+00
 -1      3182 1.37535E+00
 -1      3183 2.24370E+00
 -1      3184 1.94578E+00
 -1      3185 1.90882E+00
 -1      3186 3.08134E+00
 -1      3187 2.65966E+00
 -1      3188 2.63155E+00
 -1      3189 3.98720E+00
 -1      3190 3.40269E+00
 -1      3191 3.36885E+00
 -1      3192 6.38823E+00
 -1      3193 5.42185E+00
 -1      3194 5.12485E+00
 -1      3195 3.86625E-01
 -1      3196 3.03395E-01
 -1      3197 2.55171E-01
 -1      3198 3.65366E-01
 -1      3199 6.43666E+00
 -1      3200 4.35792E+00
 -1      3201 5.12909E+00
 -1      3202 6.35028E+00
 -1      3203 4.13460E+00
 -1      3204 5.62475E+00
 -1      3205 1.65717E+00
 -1      3206 1.89578E+00
 -1      3207 1.23745E+00
 -1      3208 1.41693E+00
 -1      3209 1.61520E+00
 -1      3210 9.18425E-01
 -1      3211 1.05461E+00
 -1      3212 1.19211E+00
 -1      3213 6.76384E-01
 -1      3214 7.80603E-01
 -1      3215 8.71443E-01
 -1      3216 4.93800E-01
 -1      3217 5.73604E-01
 -1      3218 6.30842E-01
 -1      3219 3.56917E-01
 -1      3220 4.17802E-01
 -1      3221 4.52064E-01
 -1      3222 2.55031E-01
 -1      3223 3.01190E-01
 -1      3224 3.20339E-01
 -1      3225 1.80285E-01
 -1      3226 2.14998E-01
 -1      3227 2.24578E-01
 -1      3228 1.26754E-01
 -1      3229 1.52608E-01
 -1      3230 1.56867E-01
 -1      3231 8.94370E-02
 -1      3232 1.08475E-01
 -1      3233 1.10911E-01
 -1      3234 6.22060E-02
 -1      3235 7.60313E-02
 -1      3236 7.92257E-02
 -1      3237 4.23841E-02
 -1      3238 5.22589E-02
 -1      3239 5.58729E-02
 -1      3240 2.81631E-02
 -1      3241 3.50555E-02
 -1      3242 3.85971E-02
 -1      3243 1.96078E-02
 -1      3244 2.43874E-02
 -1      3245 2.74927E-02
 -1      3246 1.13024E-02
 -1      3247 1.43851E-02
 -1      3248 1.84942E-02
 -1      3249 1.10965E-02
 -1      3250 1.39958E+01
 -1      3251 1.62106E+01
 -1      3252 3.07652E-01
 -1      3253 2.95809E-01
 -1      3254 1.67654E-02
 -1      3255 1.70288E-02
 -1      3256 1.94481E-02
 -1      3257 8.77845E+00
 -1      3258 7.72628E+00
 -1      3259 1.60887E-02
 -1      3260 1.66721E-02
 -1      3261 1.93548E-02
 -1      3262 2.23904E+00
 -1      3263 2.57184E+00
 -1      3264 2.19869E+00
 -1      3265 3.04875E+00
 -1      3266 3.49390E+00
 -1      3267 4.13648E+00
 -1      3268 3.01887E+00
 -1      3269 8.45902E-01
 -1      3270 7.14060E-01
 -1      3271 6.65721E-01
 -1      3272 9.74126E-01
 -1      3273 1.94900E-01
 -1      3274 2.19885E-01
 -1      3275 1.23169E+01
 -1      3276 1.21837E+01
 -1      3277 2.60105E-01
 -1      3278 2.42336E-01
 -1      3279 1.71264E-01
 -1      3280 5.44814E+00
 -1      3281 5.00081E+00
 -1      3282 5.56939E+00
 -1      3283 6.77102E+00
 -1      3284 5.08369E+00
 -1      3285 3.46978E+00
 -1      3286 2.41560E+00
 -1      3287 1.30973E-02
 -1      3288 1.45751E-02
 -1      3289 1.78411E-02
 -1      3290 1.03563E+01
 -1      3291 7.81308E+00
 -1      3292 6.26397E+00
 -1      3293 1.31243E+01
 -1      3294 1.16823E+01
 -1      3295 8.51698E+00
 -1      3296 1.10732E+01
 -1      3297 1.29093E+01
 -1      3298 7.32606E+00
 -1      3299 8.46291E+00
 -1      3300 6.74381E+00
 -1      3301 6.70398E+00
 -1      3302 1.30950E+01
 -1      3303 1.23169E+01
 -1      3304 1.02207E+01
 -1      3305 3.33328E+00
 -1      3306 4.28129E+00
 -1      3307 5.44117E+00
 -1      3308 6.46795E+00
 -1      3309 1.14666E+01
 -1      3310 9.61947E+00
 -1      3311 4.67058E-01
 -1      3312 4.28129E+00
 -1      3313 4.70854E+00
 -1      3314 2.88264E-01
 -1      3315 2.88482E-01
 -1      3316 2.60750E-01
 -1      3317 3.44158E+00
 -1      3318 5.01872E+00
 -1      3319 6.74667E+00
 -1      3320 7.12776E+00
 -1      3321 1.53722E-02
 -1      3322 1.39275E-02
 -1      3323 3.23993E-01
 -1      3324 3.09764E-01
 -1      3325 2.22018E-01
 -1      3326 6.14925E+00
 -1      3327 1.87414E-01
 -1      3328 1.39228E-01
 -1      3329 1.51545E-01
 -1      3330 3.84644E-01
 -1      3331 1.77856E-01
 -1      3332 2.51027E-01
 -1      3333 2.99968E-01
 -1      3334 6.47231E+00
 -1      3335 7.18743E+00
 -1      3336 2.73656E-01
 -1      3337 2.29899E-01
 -1      3338 1.90265E-01
 -1      3339 6.70398E+00
 -1      3340 6.87525E+00
 -1      3341 4.42791E+00
 -1      3342 1.02456E+01
 -1      3343 1.45386E+01
 -1      3344 9.66174E+00
 -1      3345 1.04378E+01
 -1      3346 3.09310E-01
 -1      3347 2.69952E-01
 -1      3348 3.15618E-01
 -1      3349 1.75317E-02
 -1      3350 1.70936E-02
 -1      3351 1.88258E-02
 -1      3352 7.94552E+00
 -1      3353 1.75317E-02
 -1      3354 1.75317E-02
 -1      3355 2.05472E-02
 -1      3356 2.00444E-02
 -1      3357 3.16852E-01
 -1      3358 3.34767E-01
 -1      3359 4.54761E+00
 -1      3360 3.98742E+00
 -1      3361 2.48381E+00
 -1      3362 4.09772E+00
 -1      3363 3.80152E+00
 -1      3364 9.50363E+00
 -1      3365 4.09379E+00
 -1      3366 2.88384E+00
 -1      3367 1.00350E+01
 -1      3368 9.38471E+00
 -1      3369 3.15618E-01
 -1      3370 3.15618E-01
 -1      3371 2.71609E-01
 -1      3372 2.60393E-01
 -1      3373 8.16082E+00
 -1      3374 3.40394E+00
 -1      3375 3.14213E+00
 -1      3376 4.11304E+00
 -1      3377 5.62475E+00
 -1      3378 1.26305E+01
 -1      3379 9.34913E+00
 -1      3380 9.80261E+00
 -1      3381 3.11837E-01
 -1      3382 3.16852E-01
 -1      3383 2.76556E-01
 -1      3384 1.11201E-02
 -1      3385 1.18210E-02
 -1      3386 1.50512E-02
 -1      3387 1.41693E-02
 -1      3388 3.02844E-01
 -1      3389 3.42158E-01
 -1      3390 2.37958E-01
 -1      3391 2.11874E-01
 -1      3392 2.34609E-02
 -1      3393 2.34609E-02
 -1      3394 7.38196E+00
 -1      3395 6.54095E+00
 -1      3396 1.14552E-01
 -1      3397 8.76201E-02
 -1      3398 1.05628E-01
 -1      3399 1.18964E-01
 -1      3400 1.14005E-01
 -1      3401 1.41688E-01
 -1      3402 1.60831E-01
 -1      3403 1.54738E-01
 -1      3404 1.87041E-01
 -1      3405 2.21088E-01
 -1      3406 2.03674E-01
 -1      3407 2.53953E-01
 -1      3408 2.90404E-01
 -1      3409 2.62750E-01
 -1      3410 3.47245E-01
 -1      3411 3.93660E-01
 -1      3412 3.52457E-01
 -1      3413 4.53926E-01
 -1      3414 5.11098E-01
 -1      3415 4.69565E-01
 -1      3416 6.00863E-01
 -1      3417 6.54046E-01
 -1      3418 6.19596E-01
 -1      3419 7.58674E-01
 -1      3420 8.43623E-01
 -1      3421 8.13990E-01
 -1      3422 9.42823E-01
 -1      3423 1.07197E+00
 -1      3424 1.01782E+00
 -1      3425 1.25131E+00
 -1      3426 1.34064E+00
 -1      3427 1.29635E+00
 -1      3428 1.78575E+00
 -1      3429 1.84333E+00
 -1      3430 1.92080E+00
 -1      3431 1.86246E+00
 -1      3432 2.37321E+00
 -1      3433 2.38504E+00
 -1      3434 2.92958E+00
 -1      3435 2.92194E+00
 -1      3436 3.51692E+00
 -1      3437 3.95149E+00
 -1      3438 3.94587E+00
 -1      3439 3.65359E+00
 -1      3440 3.80152E+00
 -1      3441 3.80152E+00
 -1      3442 3.17630E+00
 -1      3443 1.62726E+00
 -1      3444 1.47529E+00
 -1      3445 1.65155E+00
 -1      3446 1.61179E+00
 -1      3447 1.80351E+00
 -1      3448 1.54774E+00
 -1      3449 1.43388E+00
 -1      3450 1.91572E+00
 -1      3451 1.06370E+00
 -1      3452 9.37738E-01
 -1      3453 1.48149E+00
 -1      3454 8.55606E-01
 -1      3455 7.95768E-01
 -1      3456 1.02919E+00
 -1      3457 6.95156E-01
 -1      3458 6.47041E-01
 -1      3459 8.46442E-01
 -1      3460 5.64765E-01
 -1      3461 5.13331E-01
 -1      3462 6.63554E-01
 -1      3463 4.58382E-01
 -1      3464 4.19183E-01
 -1      3465 5.26330E-01
 -1      3466 3.69332E-01
 -1      3467 3.41351E-01
 -1      3468 4.21529E-01
 -1      3469 3.01038E-01
 -1      3470 2.73484E-01
 -1      3471 3.31366E-01
 -1      3472 2.44516E-01
 -1      3473 2.18570E-01
 -1      3474 2.62085E-01
 -1      3475 1.95652E-01
 -1      3476 1.72834E-01
 -1      3477 2.10198E-01
 -1      3478 1.54542E-01
 -1      3479 1.35489E-01
 -1      3480 1.68988E-01
 -1      3481 1.18876E-01
 -1      3482 1.04007E-01
 -1      3483 1.34084E-01
 -1      3484 8.97437E-02
 -1      3485 7.79420E-02
 -1      3486 1.03209E-01
 -1      3487 6.61663E-02
 -1      3488 5.69924E-02
 -1      3489 7.71695E-02
 -1      3490 4.74988E-02
 -1      3491 4.05702E-02
 -1      3492 5.59003E-02
 -1      3493 3.41697E-02
 -1      3494 2.88612E-02
 -1      3495 4.00063E-02
 -1      3496 1.38231E-02
 -1      3497 1.29087E-02
 -1      3498 1.50836E-02
 -1      3499 1.70000E-02
 -1      3500 6.21696E+00
 -1      3501 2.09464E+00
 -1      3502 1.78787E+00
 -1      3503 1.48856E+00
 -1      3504 1.26185E+00
 -1      3505 1.67438E+00
 -1      3506 3.69020E+00
 -1      3507 3.36885E+00
 -1      3508 2.21127E-01
 -1      3509 2.15132E-01
 -1      3510 1.97920E-01
 -1      3511 7.95828E-01
 -1      3512 9.33649E-01
 -1      3513 3.31610E+00
 -1      3514 3.62818E+00
 -1      3515 2.97581E-01
 -1      3516 3.09261E-01
 -1      3517 2.73980E-01
 -1      3518 1.50853E+00
 -1      3519 1.74877E+00
 -1      3520 5.77271E-01
 -1      3521 6.80050E-01
 -1      3522 7.42256E-01
 -1      3523 4.16442E-01
 -1      3524 4.92441E-01
 -1      3525 5.41649E-01
 -1      3526 2.98054E-01
 -1      3527 3.53781E-01
 -1      3528 3.94158E-01
 -1      3529 2.11586E-01
 -1      3530 2.51620E-01
 -1      3531 2.85062E-01
 -1      3532 1.49535E-01
 -1      3533 1.77212E-01
 -1      3534 2.04254E-01
 -1      3535 1.05933E-01
 -1      3536 1.24212E-01
 -1      3537 1.44557E-01
 -1      3538 7.40820E-02
 -1      3539 8.74877E-02
 -1      3540 1.00789E-01
 -1      3541 5.14622E-02
 -1      3542 6.14093E-02
 -1      3543 6.96713E-02
 -1      3544 3.85797E-02
 -1      3545 4.59083E-02
 -1      3546 5.14447E-02
 -1      3547 2.64185E+00
 -1      3548 3.31610E+00
 -1      3549 2.74116E-01
 -1      3550 3.32327E-01
 -1      3551 1.28193E-01
 -1      3552 1.09662E-01
 -1      3553 9.11069E-02
 -1      3554 8.46660E+00
 -1      3555 9.94633E+00
 -1      3556 2.34609E-02
 -1      3557 2.35542E-02
 -1      3558 2.75669E-02
 -1      3559 8.20123E+00
 -1      3560 2.10701E+00
 -1      3561 2.45027E+00
 -1      3562 2.00034E+00
 -1      3563 5.91630E+00
 -1      3564 4.96104E+00
 -1      3565 1.32649E-01
 -1      3566 1.31554E-01
 -1      3567 8.95778E-02
 -1      3568 2.09143E-02
 -1      3569 2.24279E-02
 -1      3570 2.65340E-02
 -1      3571 3.00560E+00
 -1      3572 2.58964E+00
 -1      3573 2.46869E+00
 -1      3574 4.91461E-01
 -1      3575 3.94609E-01
 -1      3576 8.99827E+00
 -1      3577 8.99827E+00
 -1      3578 8.81258E+00
 -1      3579 8.99827E+00
 -1      3580 8.03995E+00
 -1      3581 6.39823E+00
 -1      3582 4.96358E+00
 -1      3583 7.54613E+00
 -1      3584 8.56311E+00
 -1      3585 7.84602E+00
 -1      3586 1.09474E+00
 -1      3587 1.27759E+00
 -1      3588 1.41116E+00
 -1      3589 1.01913E+00
 -1      3590 2.25863E+00
 -1      3591 3.17630E+00
 -1      3592 2.55109E+00
 -1      3593 2.77627E+00
 -1      3594 3.68936E-01
 -1      3595 3.12458E-01
 -1      3596 2.47983E-01
 -1      3597 4.18082E+00
 -1      3598 4.45955E+00
 -1      3599 3.06901E+00
 -1      3600 5.35274E+00
 -1      3601 2.96054E+00
 -1      3602 2.04116E-01
 -1      3603 1.54458E-01
 -1      3604 1.14747E-01
 -1      3605 2.06556E-01
 -1      3606 1.70462E-01
 -1      3607 2.08917E+00
 -1      3608 3.95149E+00
 -1      3609 2.64685E-02
 -1      3610 2.63642E-02
 -1      3611 2.25694E-02
 -1      3612 1.77929E-02
 -1      3613 1.73985E-02
 -1      3614 2.73139E-02
 -1      3615 1.35573E-01
 -1      3616 1.66714E-01
 -1      3617 6.44144E+00
 -1      3618 2.08917E+00
 -1      3619 1.16973E+00
 -1      3620 1.05652E+00
 -1      3621 8.82004E-01
 -1      3622 4.96358E+00
 -1      3623 2.26349E-01
 -1      3624 8.13899E+00
 -1      3625 6.48138E+00
 -1      3626 6.91655E+00
 -1      3627 6.63628E+00
 -1      3628 9.15255E+00
 -1      3629 7.48056E+00
 -1      3630 7.18133E+00
 -1      3631 3.70848E+00
 -1      3632 4.34918E+00
 -1      3633 3.35506E-02
 -1      3634 4.08618E-02
 -1      3635 2.97748E-02
 -1      3636 2.03063E-02
 -1      3637 1.86748E-02
 -1      3638 6.00688E-01
 -1      3639 5.60314E-01
 -1      3640 7.34574E-01
 -1      3641 3.09335E-02
 -1      3642 2.92121E-02
 -1      3643 3.85762E-02
 -1      3644 2.57548E-02
 -1      3645 2.62576E-02
 -1      3646 2.97675E-02
 -1      3647 4.01294E+00
 -1      3648 2.91667E+00
 -1      3649 3.77998E+00
 -1      3650 3.13255E+00
 -1      3651 3.60947E+00
 -1      3652 3.82216E+00
 -1      3653 3.04087E+00
 -1      3654 1.38136E-01
 -1      3655 1.45622E-01
 -1      3656 1.34480E-01
 -1      3657 2.51637E+00
 -1      3658 2.29341E-01
 -1      3659 2.27683E-01
 -1      3660 3.32695E+00
 -1      3661 7.77583E+00
 -1      3662 2.32616E-02
 -1      3663 2.62305E-01
 -1      3664 9.59377E+00
 -1      3665 8.64647E+00
 -1      3666 8.50559E+00
 -1      3667 2.25939E-01
 -1      3668 2.18395E-01
 -1      3669 1.85328E-01
 -1      3670 5.19674E+00
 -1      3671 2.21074E-01
 -1      3672 2.21074E-01
 -1      3673 1.51075E-01
 -1      3674 2.95534E-02
 -1      3675 2.58575E+00
 -1      3676 2.46027E+00
 -1      3677 1.58643E-01
 -1      3678 1.81368E-01
 -1      3679 2.12666E-01
 -1      3680 2.38877E-01
 -1      3681 2.16571E-01
 -1      3682 2.82754E-01
 -1      3683 3.15619E-01
 -1      3684 2.91746E-01
 -1      3685 3.64748E-01
 -1      3686 4.21589E-01
 -1      3687 3.84752E-01
 -1      3688 4.92936E-01
 -1      3689 5.53202E-01
 -1      3690 5.05227E-01
 -1      3691 6.61952E-01
 -1      3692 7.51717E-01
 -1      3693 6.85323E-01
 -1      3694 8.68067E-01
 -1      3695 9.72696E-01
 -1      3696 9.10423E-01
 -1      3697 1.14093E+00
 -1      3698 1.24013E+00
 -1      3699 1.19501E+00
 -1      3700 1.43157E+00
 -1      3701 1.61091E+00
 -1      3702 1.55469E+00
 -1      3703 1.94611E+00
 -1      3704 2.39122E+00
 -1      3705 2.08133E+00
 -1      3706 2.44114E+00
 -1      3707 1.15100E-01
 -1      3708 9.32909E-02
 -1      3709 1.29618E-01
 -1      3710 3.55119E-02
 -1      3711 3.65449E-02
 -1      3712 2.19072E-01
 -1      3713 2.28171E-01
 -1      3714 1.84261E-01
 -1      3715 1.15894E-01
 -1      3716 1.58177E-01
 -1      3717 2.40583E+00
 -1      3718 2.34178E+00
 -1      3719 2.06240E+00
 -1      3720 1.69222E+00
 -1      3721 1.31436E+00
 -1      3722 1.23223E+00
 -1      3723 1.89526E+00
 -1      3724 9.89402E-01
 -1      3725 8.88790E-01
 -1      3726 1.27457E+00
 -1      3727 7.85505E-01
 -1      3728 7.03230E-01
 -1      3729 9.28466E-01
 -1      3730 5.98902E-01
 -1      3731 5.43953E-01
 -1      3732 7.20854E-01
 -1      3733 4.61062E-01
 -1      3734 4.11211E-01
 -1      3735 5.33635E-01
 -1      3736 3.66042E-01
 -1      3737 3.25729E-01
 -1      3738 4.05574E-01
 -1      3739 2.88668E-01
 -1      3740 2.59699E-01
 -1      3741 3.23343E-01
 -1      3742 2.33117E-01
 -1      3743 2.10198E-01
 -1      3744 2.59699E-01
 -1      3745 1.86066E-01
 -1      3746 1.67775E-01
 -1      3747 2.08985E-01
 -1      3748 1.46936E-01
 -1      3749 1.30323E-01
 -1      3750 1.64014E-01
 -1      3751 1.12966E-01
 -1      3752 9.87025E-02
 -1      3753 1.25817E-01
 -1      3754 8.46743E-02
 -1      3755 7.28986E-02
 -1      3756 9.44315E-02
 -1      3757 6.19634E-02
 -1      3758 5.24698E-02
 -1      3759 6.94682E-02
 -1      3760 5.81929E+00
 -1      3761 5.35524E+00
 -1      3762 1.61053E-01
 -1      3763 1.44223E-01
 -1      3764 4.62789E-01
 -1      3765 5.47619E-01
 -1      3766 2.51549E+00
 -1      3767 2.02049E+00
 -1      3768 5.11336E+00
 -1      3769 4.48870E+00
 -1      3770 3.41194E-01
 -1      3771 4.03855E-01
 -1      3772 4.09825E-01
 -1      3773 2.31435E+00
 -1      3774 4.08618E-02
 -1      3775 4.58908E-02
 -1      3776 4.36053E-02
 -1      3777 6.26136E-01
 -1      3778 7.41913E-01
 -1      3779 5.47276E-01
 -1      3780 2.49891E-01
 -1      3781 2.96325E-01
 -1      3782 3.06023E-01
 -1      3783 1.81248E-01
 -1      3784 2.15622E-01
 -1      3785 2.26885E-01
 -1      3786 1.29758E-01
 -1      3787 1.55081E-01
 -1      3788 1.66449E-01
 -1      3789 9.15363E-02
 -1      3790 1.09981E-01
 -1      3791 1.20506E-01
 -1      3792 6.40933E-02
 -1      3793 7.67660E-02
 -1      3794 8.59583E-02
 -1      3795 4.86566E-02
 -1      3796 5.42104E-02
 -1      3797 6.13051E-02
 -1      3798 4.86566E-02
 -1      3799 3.95643E-02
 -1      3800 3.65449E-02
 -1      3801 3.65449E-02
 -1      3802 4.55228E-02
 -1      3803 2.02101E-01
 -1      3804 1.63382E-01
 -1      3805 2.40902E-01
 -1      3806 1.65150E+00
 -1      3807 1.35219E+00
 -1      3808 1.69830E+00
 -1      3809 9.91642E-02
 -1      3810 1.04054E-01
 -1      3811 2.29341E-01
 -1      3812 2.29341E-01
 -1      3813 1.87072E-01
 -1      3814 1.63906E+00
 -1      3815 1.99730E+00
 -1      3816 9.12833E-02
 -1      3817 8.79227E-02
 -1      3818 1.00870E-01
 -1      3819 9.16359E-02
 -1      3820 2.28171E-01
 -1      3821 2.30747E-01
 -1      3822 1.75266E-01
 -1      3823 1.84938E-01
 -1      3824 2.49061E+00
 -1      3825 3.43523E+00
 -1      3826 3.07198E+00
 -1      3827 2.62378E+00
 -1      3828 7.18293E+00
 -1      3829 5.87376E+00
 -1      3830 4.60038E+00
 -1      3831 6.97409E+00
 -1      3832 5.24105E+00
 -1      3833 6.57989E+00
 -1      3834 1.20037E-01
 -1      3835 1.38045E-01
 -1      3836 1.28094E-01
 -1      3837 1.84081E-01
 -1      3838 2.46645E+00
 -1      3839 2.46645E+00
 -1      3840 3.09335E-02
 -1      3841 3.09335E-02
 -1      3842 3.66439E-02
 -1      3843 1.64675E-01
 -1      3844 4.27483E-02
 -1      3845 3.37704E-02
 -1      3846 3.59709E-02
 -1      3847 3.94003E-01
 -1      3848 3.11851E-01
 -1      3849 1.16995E-01
 -1      3850 1.08458E-01
 -1      3851 2.55251E+00
 -1      3852 4.49120E+00
 -1      3853 5.24167E+00
 -1      3854 4.15546E+00
 -1      3855 4.81755E+00
 -1      3856 4.59647E-02
 -1      3857 5.75799E-01
 -1      3858 4.66572E-01
 -1      3859 4.09487E-01
 -1      3860 4.40315E+00
 -1      3861 1.47215E-01
 -1      3862 1.15867E+00
 -1      3863 9.53335E-01
 -1      3864 1.13579E+00
 -1      3865 5.97004E+00
 -1      3866 5.11075E+00
 -1      3867 6.38067E+00
 -1      3868 5.58688E+00
 -1      3869 4.98544E+00
 -1      3870 1.69775E-01
 -1      3871 8.16971E-01
 -1      3872 4.13198E-02
 -1      3873 1.47332E-01
 -1      3874 1.47332E-01
 -1      3875 5.67498E+00
 -1      3876 6.76799E+00
 -1      3877 6.70002E+00
 -1      3878 1.38073E-01
 -1      3879 1.30637E-01
 -1      3880 1.48122E-01
 -1      3881 2.85526E+00
 -1      3882 3.53755E+00
 -1      3883 2.49398E+00
 -1      3884 4.34541E+00
 -1      3885 5.20279E-02
 -1      3886 7.32882E-01
 -1      3887 8.49003E-01
 -1      3888 1.01010E+00
 -1      3889 5.82071E+00
 -1      3890 5.82071E+00
 -1      3891 1.47332E-01
 -1      3892 1.45588E-01
 -1      3893 1.07592E-01
 -1      3894 1.16401E+00
 -1      3895 1.39495E+00
 -1      3896 1.39190E+00
 -1      3897 9.93884E-01
 -1      3898 3.01908E+00
 -1      3899 1.64524E-01
 -1      3900 1.85122E-01
 -1      3901 2.91746E-01
 -1      3902 3.35623E-01
 -1      3903 3.89188E-01
 -1      3904 4.38317E-01
 -1      3905 3.89188E-01
 -1      3906 5.18338E-01
 -1      3907 5.89684E-01
 -1      3908 5.22774E-01
 -1      3909 6.86069E-01
 -1      3910 7.94819E-01
 -1      3911 6.99180E-01
 -1      3912 9.73045E-01
 -1      3913 1.08939E+00
 -1      3914 9.73791E-01
 -1      3915 1.35139E+00
 -1      3916 1.51963E+00
 -1      3917 1.41401E+00
 -1      3918 1.67998E+00
 -1      3919 1.87142E+00
 -1      3920 1.83635E+00
 -1      3921 2.51862E+00
 -1      3922 2.85382E+00
 -1      3923 3.45638E+00
 -1      3924 2.64391E+00
 -1      3925 1.44038E-01
 -1      3926 1.44715E-01
 -1      3927 1.06042E-01
 -1      3928 1.33352E-01
 -1      3929 9.73777E-02
 -1      3930 1.43025E-01
 -1      3931 4.23789E+00
 -1      3932 1.81776E+00
 -1      3933 1.57494E+00
 -1      3934 1.12589E+00
 -1      3935 1.02260E+00
 -1      3936 1.66908E+00
 -1      3937 8.17643E-01
 -1      3938 7.13315E-01
 -1      3939 1.01507E+00
 -1      3940 5.93940E-01
 -1      3941 5.11049E-01
 -1      3942 6.90730E-01
 -1      3943 4.50743E-01
 -1      3944 4.05574E-01
 -1      3945 5.11049E-01
 -1      3946 3.60405E-01
 -1      3947 3.23343E-01
 -1      3948 4.05574E-01
 -1      3949 2.83756E-01
 -1      3950 2.57174E-01
 -1      3951 3.20818E-01
 -1      3952 2.24275E-01
 -1      3953 2.00143E-01
 -1      3954 2.48332E-01
 -1      3955 1.74273E-01
 -1      3956 1.53433E-01
 -1      3957 1.89562E-01
 -1      3958 1.32682E-01
 -1      3959 1.15325E-01
 -1      3960 1.42941E-01
 -1      3961 9.89852E-02
 -1      3962 8.49571E-02
 -1      3963 1.05850E-01
 -1      3964 7.25535E-02
 -1      3965 6.16183E-02
 -1      3966 7.71072E-02
 -1      3967 2.50594E-01
 -1      3968 2.95463E-01
 -1      3969 4.01492E+00
 -1      3970 2.16571E-01
 -1      3971 2.47869E-01
 -1      3972 2.91746E-01
 -1      3973 3.26123E+00
 -1      3974 3.50061E+00
 -1      3975 3.40287E-01
 -1      3976 3.99221E-01
 -1      3977 2.84859E-01
 -1      3978 4.20721E-02
 -1      3979 4.43576E-02
 -1      3980 4.20721E-02
 -1      3981 4.61164E-01
 -1      3982 5.39681E-01
 -1      3983 3.91626E-01
 -1      3984 1.40086E-01
 -1      3985 1.66253E-01
 -1      3986 1.02611E-01
 -1      3987 1.22388E-01
 -1      3988 1.22192E-01
 -1      3989 7.38466E-02
 -1      3990 8.86169E-02
 -1      3991 9.04997E-02
 -1      3992 2.67990E-01
 -1      3993 2.22109E-01
 -1      3994 2.93057E-01
 -1      3995 1.81752E+00
 -1      3996 1.44854E+00
 -1      3997 1.48316E-01
 -1      3998 1.08576E-01
 -1      3999 1.26018E-01
 -1      4000 1.42001E-01
 -1      4001 1.62447E-01
 -1      4002 1.88297E-01
 -1      4003 2.22566E-01
 -1      4004 2.12007E-01
 -1      4005 1.61935E-01
 -1      4006 6.39826E+00
 -1      4007 4.93473E+00
 -1      4008 3.76958E+00
 -1      4009 4.66066E+00
 -1      4010 5.33069E-02
 -1      4011 4.68018E-02
 -1      4012 4.68018E-02
 -1      4013 5.63923E-02
 -1      4014 3.18027E+00
 -1      4015 2.62378E+00
 -1      4016 2.37401E+00
 -1      4017 5.84850E+00
 -1      4018 3.89338E+00
 -1      4019 3.55589E-02
 -1      4020 4.02348E-02
 -1      4021 4.09871E-02
 -1      4022 3.95618E-02
 -1      4023 3.79437E+00
 -1      4024 2.81621E+00
 -1      4025 2.43834E+00
 -1      4026 2.73870E+00
 -1      4027 3.80430E+00
 -1      4028 7.12407E+00
 -1      4029 8.20375E-01
 -1      4030 6.72945E-01
 -1      4031 5.79203E-01
 -1      4032 8.09309E-01
 -1      4033 3.68164E+00
 -1      4034 4.62815E+00
 -1      4035 4.04618E+00
 -1      4036 1.95897E-01
 -1      4037 1.70651E-01
 -1      4038 1.74245E-01
 -1      4039 2.22985E-01
 -1      4040 3.60877E+00
 -1      4041 1.21807E-01
 -1      4042 1.20823E-01
 -1      4043 1.42885E-01
 -1      4044 4.61519E-02
 -1      4045 4.33774E-02
 -1      4046 4.74309E-02
 -1      4047 4.71233E-02
 -1      4048 5.25482E+00
 -1      4049 4.54225E+00
 -1      4050 4.45415E+00
 -1      4051 3.38844E+00
 -1      4052 1.26343E+00
 -1      4053 1.06991E+00
 -1      4054 1.38265E+00
 -1      4055 2.16420E-01
 -1      4056 3.76958E+00
 -1      4057 1.09247E-01
 -1      4058 1.23153E-01
 -1      4059 9.80053E-02
 -1      4060 6.43399E-02
 -1      4061 6.69985E-02
 -1      4062 5.44571E-02
 -1      4063 3.31809E-01
 -1      4064 2.87949E-01
 -1      4065 1.44715E-01
 -1      4066 1.44715E-01
 -1      4067 1.02802E-01
 -1      4068 1.04491E-01
 -1      4069 9.53701E-02
 -1      4070 1.83896E+00
 -1      4071 2.69693E+00
 -1      4072 1.20823E-01
 -1      4073 5.38155E-01
 -1      4074 6.24267E-01
 -1      4075 7.31356E-01
 -1      4076 3.03753E+00
 -1      4077 3.98430E+00
 -1      4078 3.78508E+00
 -1      4079 2.39032E+00
 -1      4080 1.18376E+00
 -1      4081 1.42786E+00
 -1      4082 1.63081E+00
 -1      4083 3.79617E+00
 -1      4084 3.10927E+00
 -1      4085 4.59119E-01
 -1      4086 3.86550E-01
 -1      4087 3.81441E-01
 -1      4088 3.21855E+00
 -1      4089 1.03747E-01
 -1      4090 5.22774E-01
 -1      4091 6.02795E-01
 -1      4092 6.99180E-01
 -1      4093 7.95565E-01
 -1      4094 6.99180E-01
 -1      4095 1.32095E+00
 -1      4096 1.49918E+00
 -1      4097 1.32095E+00
 -1      4098 1.79468E+00
 -1      4099 2.05668E+00
 -1      4100 2.14184E+00
 -1      4101 1.92313E+00
 -1      4102 2.08348E+00
 -1      4103 2.47709E+00
 -1      4104 2.30380E+00
 -1      4105 2.60604E-01
 -1      4106 3.05428E-01
 -1      4107 2.27814E+00
 -1      4108 1.82909E+00
 -1      4109 1.55630E-01
 -1      4110 1.46799E-01
 -1      4111 1.78160E-01
 -1      4112 1.64003E-01
 -1      4113 1.86527E-01
 -1      4114 1.06603E-01
 -1      4115 1.05052E-01
 -1      4116 2.91878E+00
 -1      4117 2.11253E+00
 -1      4118 1.43026E+00
 -1      4119 1.22530E+00
 -1      4120 2.03932E+00
 -1      4121 9.51042E-01
 -1      4122 8.31667E-01
 -1      4123 1.36623E+00
 -1      4124 5.71355E-01
 -1      4125 5.11049E-01
 -1      4126 8.31667E-01
 -1      4127 4.47289E-01
 -1      4128 4.02120E-01
 -1      4129 5.07595E-01
 -1      4130 3.42535E-01
 -1      4131 3.02947E-01
 -1      4132 3.84249E-01
 -1      4133 2.69990E-01
 -1      4134 2.37091E-01
 -1      4135 2.91706E-01
 -1      4136 2.09340E-01
 -1      4137 1.83470E-01
 -1      4138 2.30999E-01
 -1      4139 1.47860E-01
 -1      4140 1.27109E-01
 -1      4141 1.67638E-01
 -1      4142 1.11431E-01
 -1      4143 9.50920E-02
 -1      4144 1.16350E-01
 -1      4145 8.35965E-02
 -1      4146 7.11929E-02
 -1      4147 8.91777E-02
 -1      4148 4.37404E+00
 -1      4149 4.07228E+00
 -1      4150 3.95387E+00
 -1      4151 2.81859E+00
 -1      4152 3.00800E+00
 -1      4153 3.51269E-01
 -1      4154 4.13211E-01
 -1      4155 3.27014E-01
 -1      4156 7.90572E-02
 -1      4157 9.30517E-02
 -1      4158 1.09559E-01
 -1      4159 1.27257E-01
 -1      4160 9.81161E-02
 -1      4161 2.64871E+00
 -1      4162 3.48296E+00
 -1      4163 2.48869E+00
 -1      4164 2.66689E-01
 -1      4165 2.98138E-01
 -1      4166 2.68245E-01
 -1      4167 1.19833E-01
 -1      4168 5.64387E-02
 -1      4169 4.81274E-02
 -1      4170 4.74774E-02
 -1      4171 6.29280E-02
 -1      4172 2.62047E+00
 -1      4173 3.27549E+00
 -1      4174 5.01581E-02
 -1      4175 8.54631E-01
 -1      4176 1.00854E+00
 -1      4177 7.46016E-01
 -1      4178 3.65485E-01
 -1      4179 4.09361E-01
 -1      4180 4.15754E-01
 -1      4181 4.09361E-01
 -1      4182 4.62926E-01
 -1      4183 4.83100E-01
 -1      4184 2.64871E+00
 -1      4185 2.24003E+00
 -1      4186 1.98958E-01
 -1      4187 2.26986E-01
 -1      4188 2.47555E-01
 -1      4189 5.42947E-01
 -1      4190 2.43815E+00
 -1      4191 2.04646E+00
 -1      4192 2.24458E+00
 -1      4193 1.63536E+00
 -1      4194 1.28259E-01
 -1      4195 1.52338E-01
 -1      4196 1.11488E-01
 -1      4197 1.12864E-01
 -1      4198 1.12303E-01
 -1      4199 1.12303E-01
 -1      4200 1.58139E+00
 -1      4201 1.39628E+00
 -1      4202 2.12615E+00
 -1      4203 3.75809E+00
 -1      4204 1.04450E+00
 -1      4205 4.31594E-01
 -1      4206 4.71951E-01
 -1      4207 5.56537E-01
 -1      4208 1.00584E+00
 -1      4209 8.78207E-01
 -1      4210 7.45248E-01
 -1      4211 6.43408E-02
 -1      4212 6.68928E-02
 -1      4213 5.48342E-02
 -1      4214 1.58935E-01
 -1      4215 1.71569E-01
 -1      4216 1.93614E-01
 -1      4217 2.86014E-01
 -1      4218 2.47262E-01
 -1      4219 3.22147E+00
 -1      4220 2.21050E-01
 -1      4221 4.29654E-02
 -1      4222 6.26424E-01
 -1      4223 5.29278E-01
 -1      4224 5.06340E-01
 -1      4225 6.95322E-01
 -1      4226 2.98094E+00
 -1      4227 3.98208E+00
 -1      4228 3.65002E+00
 -1      4229 2.67410E+00
 -1      4230 4.32868E-02
 -1      4231 5.06205E-02
 -1      4232 4.79628E-02
 -1      4233 4.14495E-02
 -1      4234 4.33421E-01
 -1      4235 3.78681E-01
 -1      4236 3.51975E-01
 -1      4237 3.11288E-01
 -1      4238 4.03955E-01
 -1      4239 9.11412E-02
 -1      4240 1.07648E-01
 -1      4241 1.25859E+00
 -1      4242 1.78398E+00
 -1      4243 2.25181E+00
 -1      4244 2.54732E+00
 -1      4245 1.06833E+00
 -1      4246 1.24354E+00
 -1      4247 1.65918E+00
 -1      4248 1.46799E-01
 -1      4249 1.34054E-01
 -1      4250 2.81173E-01
 -1      4251 3.27014E-01
 -1      4252 1.45393E+00
 -1      4253 1.17967E+00
 -1      4254 5.33196E-01
 -1      4255 4.69436E-01
 -1      4256 3.02919E-01
 -1      4257 2.69961E-01
 -1      4258 2.58749E-01
 -1      4259 2.30999E-01
 -1      4260 2.03248E-01
 -1      4261 1.67638E-01
 -1      4262 1.00673E-01
 -1      4263 8.91777E-02
 -1      4264 3.48180E+00
 -1      4265 2.24458E+00
 -1      4266 1.84575E+00
 -1      4267 4.59641E-01
 -1      4268 4.56880E-01
 -1      4269 5.29799E-01
 -1      4270 1.05437E-01
 -1      4271 2.91762E+00
 -1      4272 2.82666E-01
 -1      4273 3.62828E-01
 -1      4274 2.02436E-01
 -1      4275 6.07074E-01
 -1      4276 6.66921E-01
 -1      4277 6.68716E-01
 -1      4278 7.91991E-01
 -1      4279 6.02512E-01
 -1      4280 3.89534E-01
 -1      4281 4.56880E-01
 -1      4282 1.19833E-01
 -1      4283 9.00169E-01
 -1      4284 9.96554E-01
 -1      4285 1.45958E+00
 -1      4286 4.83100E-01
 -1      4287 4.83100E-01
 -1      4288 4.52651E-02
 -1      4289 1.86988E-01
 -1      4290 1.74242E-01
 -1      4291 2.29878E-01
 -1      4292 1.33976E-01
 -1      4293 1.19756E-01
 -1      4294 1.74164E-01
 -1      4295 2.80765E+00
 -1      4296 1.13249E-01
 -1      4297 1.18354E-01
 -1      4298 1.60303E-01
 -1      4299 1.96048E-01
 -1      4300 2.90631E-01
 -1      4301 1.62064E-01
 -1      4302 3.27014E-01
 -1      4303 3.72854E-01
 -1      4304 4.31594E-01
 -1      4305 3.48759E-01
 -1      4306 2.30999E-01
 -1      4307 4.33946E-01
 -1      4308 4.08344E-01
 -1      4309 9.42947E-01
 -1      4310 6.82636E-01
 -1      4311 2.69961E-01
 -1      4312 1.23325E-01
 -1      4313 8.91777E-02
 -1      4314 7.76823E-02
 -1      4315 6.29280E-02
 -1      4316 7.96457E-02
 -1      4317 9.64295E-01
 -1      4318 1.03064E+00
 -1      4319 1.19754E+00
 -1      4320 1.00584E+00
 -1      4321 6.44477E-01
 -1      4322 6.49294E-02
 -1      4323 1.16350E-01
 -1      4324 2.69961E-01
 -1      4325 2.18945E+00
 -1      4326 6.07074E-01
 -1      4327 4.03955E-01
 -1      4328 4.94787E-02
 -1      4329 2.95840E-01
 -1      4330 6.53773E-01
 -1      4331 9.91028E-01
 -1      4332 7.54304E-01
 -1      4333 5.01751E-02
 -1      4334 1.27006E-01
 -1      4335 7.72596E-01
 -1      4336 4.92685E-01
 -1      4337 2.36343E-01
 -1      4338 1.39628E+00
 -1      4339 6.04864E-01
 -1      4340 2.08592E-01
 -1      4341 1.65832E+00
 -1      4342 3.77249E-01
 -1      4343 2.95840E-01
 -1      4344 2.09221E-01
 -1      4345 1.68955E-01
 -3
 9999
