    1C
    1UUSER                                                              
    1UDATE              27.october.2022                                 
    1UTIME              00:44:38                                        
    1UHOST                                                              
    1UPGM               CalculiX                                        
    1UVERSION           Version 2.17                             
    1UCOMPILETIME       Thu Jul 23 21:43:50 CEST 2020                    
    1UDIR                                                               
    1UDBN                                                               
    1UMAT    1SOLIDMATERIAL                                             
    2C                          4320                                     1
 -1         1 6.84546E+01 3.14133E+01 0.00000E+00
 -1         2 8.08933E+01 2.70063E+01 0.00000E+00
 -1         3 1.50000E+02 0.00000E+00 0.00000E+00
 -1         4 1.50000E+02 5.00000E+01 0.00000E+00
 -1         5 0.00000E+00 0.00000E+00 0.00000E+00
 -1         6 0.00000E+00 5.00000E+01 0.00000E+00
 -1         7 0.00000E+00 4.70500E+01 0.00000E+00
 -1         8 0.00000E+00 4.41000E+01 0.00000E+00
 -1         9 0.00000E+00 4.11500E+01 0.00000E+00
 -1        10 0.00000E+00 3.82000E+01 0.00000E+00
 -1        11 0.00000E+00 3.52500E+01 0.00000E+00
 -1        12 0.00000E+00 3.23500E+01 0.00000E+00
 -1        13 0.00000E+00 2.94000E+01 0.00000E+00
 -1        14 0.00000E+00 2.64500E+01 0.00000E+00
 -1        15 0.00000E+00 2.35000E+01 0.00000E+00
 -1        16 0.00000E+00 2.05500E+01 0.00000E+00
 -1        17 0.00000E+00 1.76000E+01 0.00000E+00
 -1        18 0.00000E+00 1.47000E+01 0.00000E+00
 -1        19 0.00000E+00 1.17500E+01 0.00000E+00
 -1        20 0.00000E+00 8.80000E+00 0.00000E+00
 -1        21 0.00000E+00 5.85000E+00 0.00000E+00
 -1        22 0.00000E+00 2.90000E+00 0.00000E+00
 -1        23 3.15000E+00 5.00000E+01 0.00000E+00
 -1        24 6.15000E+00 5.00000E+01 0.00000E+00
 -1        25 9.15000E+00 5.00000E+01 0.00000E+00
 -1        26 1.21500E+01 5.00000E+01 0.00000E+00
 -1        27 1.51500E+01 5.00000E+01 0.00000E+00
 -1        28 1.81500E+01 5.00000E+01 0.00000E+00
 -1        29 2.11500E+01 5.00000E+01 0.00000E+00
 -1        30 2.41500E+01 5.00000E+01 0.00000E+00
 -1        31 2.71500E+01 5.00000E+01 0.00000E+00
 -1        32 3.01500E+01 5.00000E+01 0.00000E+00
 -1        33 3.31500E+01 5.00000E+01 0.00000E+00
 -1        34 3.61500E+01 5.00000E+01 0.00000E+00
 -1        35 3.91500E+01 5.00000E+01 0.00000E+00
 -1        36 4.21500E+01 5.00000E+01 0.00000E+00
 -1        37 4.51500E+01 5.00000E+01 0.00000E+00
 -1        38 4.81500E+01 5.00000E+01 0.00000E+00
 -1        39 5.11500E+01 5.00000E+01 0.00000E+00
 -1        40 5.41500E+01 5.00000E+01 0.00000E+00
 -1        41 5.71500E+01 5.00000E+01 0.00000E+00
 -1        42 6.01500E+01 5.00000E+01 0.00000E+00
 -1        43 6.31500E+01 5.00000E+01 0.00000E+00
 -1        44 6.61500E+01 5.00000E+01 0.00000E+00
 -1        45 6.91500E+01 5.00000E+01 0.00000E+00
 -1        46 7.21500E+01 5.00000E+01 0.00000E+00
 -1        47 7.51500E+01 5.00000E+01 0.00000E+00
 -1        48 7.81500E+01 5.00000E+01 0.00000E+00
 -1        49 8.11500E+01 5.00000E+01 0.00000E+00
 -1        50 8.41500E+01 5.00000E+01 0.00000E+00
 -1        51 8.71500E+01 5.00000E+01 0.00000E+00
 -1        52 9.01500E+01 5.00000E+01 0.00000E+00
 -1        53 9.31500E+01 5.00000E+01 0.00000E+00
 -1        54 9.61500E+01 5.00000E+01 0.00000E+00
 -1        55 9.91500E+01 5.00000E+01 0.00000E+00
 -1        56 1.02150E+02 5.00000E+01 0.00000E+00
 -1        57 1.05150E+02 5.00000E+01 0.00000E+00
 -1        58 1.08150E+02 5.00000E+01 0.00000E+00
 -1        59 1.11150E+02 5.00000E+01 0.00000E+00
 -1        60 1.14150E+02 5.00000E+01 0.00000E+00
 -1        61 1.17150E+02 5.00000E+01 0.00000E+00
 -1        62 1.20150E+02 5.00000E+01 0.00000E+00
 -1        63 1.23150E+02 5.00000E+01 0.00000E+00
 -1        64 1.26150E+02 5.00000E+01 0.00000E+00
 -1        65 1.29150E+02 5.00000E+01 0.00000E+00
 -1        66 1.32150E+02 5.00000E+01 0.00000E+00
 -1        67 1.35150E+02 5.00000E+01 0.00000E+00
 -1        68 1.38150E+02 5.00000E+01 0.00000E+00
 -1        69 1.41150E+02 5.00000E+01 0.00000E+00
 -1        70 1.44150E+02 5.00000E+01 0.00000E+00
 -1        71 1.47150E+02 5.00000E+01 0.00000E+00
 -1        72 3.15000E+00 0.00000E+00 0.00000E+00
 -1        73 6.15000E+00 0.00000E+00 0.00000E+00
 -1        74 9.15000E+00 0.00000E+00 0.00000E+00
 -1        75 1.21500E+01 0.00000E+00 0.00000E+00
 -1        76 1.51500E+01 0.00000E+00 0.00000E+00
 -1        77 1.81500E+01 0.00000E+00 0.00000E+00
 -1        78 2.11500E+01 0.00000E+00 0.00000E+00
 -1        79 2.41500E+01 0.00000E+00 0.00000E+00
 -1        80 2.71500E+01 0.00000E+00 0.00000E+00
 -1        81 3.01500E+01 0.00000E+00 0.00000E+00
 -1        82 3.31500E+01 0.00000E+00 0.00000E+00
 -1        83 3.61500E+01 0.00000E+00 0.00000E+00
 -1        84 3.91500E+01 0.00000E+00 0.00000E+00
 -1        85 4.21500E+01 0.00000E+00 0.00000E+00
 -1        86 4.51500E+01 0.00000E+00 0.00000E+00
 -1        87 4.81500E+01 0.00000E+00 0.00000E+00
 -1        88 5.11500E+01 0.00000E+00 0.00000E+00
 -1        89 5.41500E+01 0.00000E+00 0.00000E+00
 -1        90 5.71500E+01 0.00000E+00 0.00000E+00
 -1        91 6.01500E+01 0.00000E+00 0.00000E+00
 -1        92 6.31500E+01 0.00000E+00 0.00000E+00
 -1        93 6.61500E+01 0.00000E+00 0.00000E+00
 -1        94 6.91500E+01 0.00000E+00 0.00000E+00
 -1        95 7.21500E+01 0.00000E+00 0.00000E+00
 -1        96 7.51500E+01 0.00000E+00 0.00000E+00
 -1        97 7.81500E+01 0.00000E+00 0.00000E+00
 -1        98 8.11500E+01 0.00000E+00 0.00000E+00
 -1        99 8.41500E+01 0.00000E+00 0.00000E+00
 -1       100 8.71500E+01 0.00000E+00 0.00000E+00
 -1       101 9.01500E+01 0.00000E+00 0.00000E+00
 -1       102 9.31500E+01 0.00000E+00 0.00000E+00
 -1       103 9.61500E+01 0.00000E+00 0.00000E+00
 -1       104 9.91500E+01 0.00000E+00 0.00000E+00
 -1       105 1.02150E+02 0.00000E+00 0.00000E+00
 -1       106 1.05150E+02 0.00000E+00 0.00000E+00
 -1       107 1.08150E+02 0.00000E+00 0.00000E+00
 -1       108 1.11150E+02 0.00000E+00 0.00000E+00
 -1       109 1.14150E+02 0.00000E+00 0.00000E+00
 -1       110 1.17150E+02 0.00000E+00 0.00000E+00
 -1       111 1.20150E+02 0.00000E+00 0.00000E+00
 -1       112 1.23150E+02 0.00000E+00 0.00000E+00
 -1       113 1.26150E+02 0.00000E+00 0.00000E+00
 -1       114 1.29150E+02 0.00000E+00 0.00000E+00
 -1       115 1.32150E+02 0.00000E+00 0.00000E+00
 -1       116 1.35150E+02 0.00000E+00 0.00000E+00
 -1       117 1.38150E+02 0.00000E+00 0.00000E+00
 -1       118 1.41150E+02 0.00000E+00 0.00000E+00
 -1       119 1.44150E+02 0.00000E+00 0.00000E+00
 -1       120 1.47150E+02 0.00000E+00 0.00000E+00
 -1       121 1.50000E+02 2.95000E+00 0.00000E+00
 -1       122 1.50000E+02 5.90000E+00 0.00000E+00
 -1       123 1.50000E+02 8.85000E+00 0.00000E+00
 -1       124 1.50000E+02 1.18000E+01 0.00000E+00
 -1       125 1.50000E+02 1.47500E+01 0.00000E+00
 -1       126 1.50000E+02 1.76500E+01 0.00000E+00
 -1       127 1.50000E+02 2.06000E+01 0.00000E+00
 -1       128 1.50000E+02 2.35500E+01 0.00000E+00
 -1       129 1.50000E+02 2.65000E+01 0.00000E+00
 -1       130 1.50000E+02 2.94500E+01 0.00000E+00
 -1       131 1.50000E+02 3.24000E+01 0.00000E+00
 -1       132 1.50000E+02 3.53000E+01 0.00000E+00
 -1       133 1.50000E+02 3.82500E+01 0.00000E+00
 -1       134 1.50000E+02 4.12000E+01 0.00000E+00
 -1       135 1.50000E+02 4.41500E+01 0.00000E+00
 -1       136 1.50000E+02 4.71000E+01 0.00000E+00
 -1       137 8.07503E+01 2.55989E+01 0.00000E+00
 -1       138 8.03158E+01 2.42222E+01 0.00000E+00
 -1       139 7.95423E+01 2.28725E+01 0.00000E+00
 -1       140 7.84946E+01 2.17311E+01 0.00000E+00
 -1       141 7.72957E+01 2.08888E+01 0.00000E+00
 -1       142 7.58124E+01 2.02745E+01 0.00000E+00
 -1       143 7.44017E+01 2.00248E+01 0.00000E+00
 -1       144 7.28522E+01 2.00841E+01 0.00000E+00
 -1       145 7.14259E+01 2.04556E+01 0.00000E+00
 -1       146 7.01289E+01 2.11046E+01 0.00000E+00
 -1       147 6.89843E+01 2.20161E+01 0.00000E+00
 -1       148 6.80923E+01 2.30885E+01 0.00000E+00
 -1       149 6.73752E+01 2.44540E+01 0.00000E+00
 -1       150 6.69995E+01 2.57915E+01 0.00000E+00
 -1       151 6.69002E+01 2.73182E+01 0.00000E+00
 -1       152 6.71307E+01 2.88139E+01 0.00000E+00
 -1       153 6.76516E+01 3.01751E+01 0.00000E+00
 -1       154 6.94281E+01 3.23973E+01 0.00000E+00
 -1       155 7.05837E+01 3.31745E+01 0.00000E+00
 -1       156 7.18536E+01 3.37025E+01 0.00000E+00
 -1       157 7.32310E+01 3.39749E+01 0.00000E+00
 -1       158 7.46007E+01 3.39704E+01 0.00000E+00
 -1       159 7.60123E+01 3.36778E+01 0.00000E+00
 -1       160 7.73503E+01 3.30931E+01 0.00000E+00
 -1       161 7.85043E+01 3.22730E+01 0.00000E+00
 -1       162 7.95293E+01 3.11578E+01 0.00000E+00
 -1       163 8.02665E+01 2.99014E+01 0.00000E+00
 -1       164 8.07306E+01 2.85067E+01 0.00000E+00
 -1       165 2.59800E+00 4.55750E+01 0.00000E+00
 -1       166 2.59800E+00 4.26250E+01 0.00000E+00
 -1       167 2.59800E+00 3.96750E+01 0.00000E+00
 -1       168 2.59800E+00 3.67250E+01 0.00000E+00
 -1       169 2.59800E+00 3.38250E+01 0.00000E+00
 -1       170 2.59800E+00 3.08750E+01 0.00000E+00
 -1       171 2.59800E+00 2.79250E+01 0.00000E+00
 -1       172 2.59800E+00 2.49750E+01 0.00000E+00
 -1       173 2.59800E+00 2.20250E+01 0.00000E+00
 -1       174 2.59800E+00 1.90750E+01 0.00000E+00
 -1       175 2.59800E+00 1.61750E+01 0.00000E+00
 -1       176 2.59800E+00 1.32250E+01 0.00000E+00
 -1       177 2.59800E+00 1.02750E+01 0.00000E+00
 -1       178 2.59800E+00 7.32500E+00 0.00000E+00
 -1       179 2.59800E+00 4.37500E+00 0.00000E+00
 -1       180 2.87400E+00 2.18750E+00 0.00000E+00
 -1       181 4.65000E+00 4.74020E+01 0.00000E+00
 -1       182 7.65000E+00 4.74020E+01 0.00000E+00
 -1       183 1.06500E+01 4.74020E+01 0.00000E+00
 -1       184 1.36500E+01 4.74020E+01 0.00000E+00
 -1       185 1.66500E+01 4.74020E+01 0.00000E+00
 -1       186 1.96500E+01 4.74020E+01 0.00000E+00
 -1       187 2.26500E+01 4.74020E+01 0.00000E+00
 -1       188 2.56500E+01 4.74020E+01 0.00000E+00
 -1       189 2.86500E+01 4.74020E+01 0.00000E+00
 -1       190 3.16500E+01 4.74020E+01 0.00000E+00
 -1       191 3.46500E+01 4.74020E+01 0.00000E+00
 -1       192 3.76500E+01 4.74020E+01 0.00000E+00
 -1       193 4.06500E+01 4.74020E+01 0.00000E+00
 -1       194 4.36500E+01 4.74020E+01 0.00000E+00
 -1       195 4.66500E+01 4.74020E+01 0.00000E+00
 -1       196 4.96500E+01 4.74020E+01 0.00000E+00
 -1       197 5.26500E+01 4.74020E+01 0.00000E+00
 -1       198 5.56500E+01 4.74020E+01 0.00000E+00
 -1       199 5.86500E+01 4.74020E+01 0.00000E+00
 -1       200 6.16500E+01 4.74020E+01 0.00000E+00
 -1       201 6.46500E+01 4.74020E+01 0.00000E+00
 -1       202 6.76500E+01 4.74020E+01 0.00000E+00
 -1       203 7.06500E+01 4.74020E+01 0.00000E+00
 -1       204 7.36500E+01 4.74020E+01 0.00000E+00
 -1       205 7.66500E+01 4.74020E+01 0.00000E+00
 -1       206 7.96500E+01 4.74020E+01 0.00000E+00
 -1       207 8.26500E+01 4.74020E+01 0.00000E+00
 -1       208 8.56500E+01 4.74020E+01 0.00000E+00
 -1       209 8.86500E+01 4.74020E+01 0.00000E+00
 -1       210 9.16500E+01 4.74020E+01 0.00000E+00
 -1       211 9.46500E+01 4.74020E+01 0.00000E+00
 -1       212 9.76500E+01 4.74020E+01 0.00000E+00
 -1       213 1.00650E+02 4.74020E+01 0.00000E+00
 -1       214 1.03650E+02 4.74020E+01 0.00000E+00
 -1       215 1.06650E+02 4.74020E+01 0.00000E+00
 -1       216 1.09650E+02 4.74020E+01 0.00000E+00
 -1       217 1.12650E+02 4.74020E+01 0.00000E+00
 -1       218 1.15650E+02 4.74020E+01 0.00000E+00
 -1       219 1.18650E+02 4.74020E+01 0.00000E+00
 -1       220 1.21650E+02 4.74020E+01 0.00000E+00
 -1       221 1.24650E+02 4.74020E+01 0.00000E+00
 -1       222 1.27650E+02 4.74020E+01 0.00000E+00
 -1       223 1.30650E+02 4.74020E+01 0.00000E+00
 -1       224 1.33650E+02 4.74020E+01 0.00000E+00
 -1       225 1.36650E+02 4.74020E+01 0.00000E+00
 -1       226 1.39650E+02 4.74020E+01 0.00000E+00
 -1       227 1.42650E+02 4.74020E+01 0.00000E+00
 -1       228 1.45650E+02 4.74020E+01 0.00000E+00
 -1       229 5.87400E+00 2.18750E+00 0.00000E+00
 -1       230 8.87400E+00 2.18750E+00 0.00000E+00
 -1       231 1.18740E+01 2.18750E+00 0.00000E+00
 -1       232 1.48740E+01 2.18750E+00 0.00000E+00
 -1       233 1.78740E+01 2.18750E+00 0.00000E+00
 -1       234 2.08740E+01 2.18750E+00 0.00000E+00
 -1       235 2.38740E+01 2.18750E+00 0.00000E+00
 -1       236 2.68740E+01 2.18750E+00 0.00000E+00
 -1       237 2.98740E+01 2.18750E+00 0.00000E+00
 -1       238 3.28740E+01 2.18750E+00 0.00000E+00
 -1       239 3.58740E+01 2.18750E+00 0.00000E+00
 -1       240 3.88740E+01 2.18750E+00 0.00000E+00
 -1       241 4.18740E+01 2.18750E+00 0.00000E+00
 -1       242 4.48740E+01 2.18750E+00 0.00000E+00
 -1       243 4.78740E+01 2.18750E+00 0.00000E+00
 -1       244 5.08740E+01 2.18750E+00 0.00000E+00
 -1       245 5.38740E+01 2.18750E+00 0.00000E+00
 -1       246 5.68740E+01 2.18750E+00 0.00000E+00
 -1       247 5.98740E+01 2.18750E+00 0.00000E+00
 -1       248 6.28740E+01 2.18750E+00 0.00000E+00
 -1       249 6.58740E+01 2.18750E+00 0.00000E+00
 -1       250 6.88740E+01 2.18750E+00 0.00000E+00
 -1       251 7.18740E+01 2.18750E+00 0.00000E+00
 -1       252 7.48740E+01 2.18750E+00 0.00000E+00
 -1       253 7.78740E+01 2.18750E+00 0.00000E+00
 -1       254 8.08740E+01 2.18750E+00 0.00000E+00
 -1       255 8.38740E+01 2.18750E+00 0.00000E+00
 -1       256 8.68740E+01 2.18750E+00 0.00000E+00
 -1       257 8.98740E+01 2.18750E+00 0.00000E+00
 -1       258 9.28740E+01 2.18750E+00 0.00000E+00
 -1       259 9.58740E+01 2.18750E+00 0.00000E+00
 -1       260 9.88740E+01 2.18750E+00 0.00000E+00
 -1       261 1.01874E+02 2.18750E+00 0.00000E+00
 -1       262 1.04874E+02 2.18750E+00 0.00000E+00
 -1       263 1.07874E+02 2.18750E+00 0.00000E+00
 -1       264 1.10874E+02 2.18750E+00 0.00000E+00
 -1       265 1.13874E+02 2.18750E+00 0.00000E+00
 -1       266 1.16874E+02 2.18750E+00 0.00000E+00
 -1       267 1.19874E+02 2.18750E+00 0.00000E+00
 -1       268 1.22874E+02 2.18750E+00 0.00000E+00
 -1       269 1.25874E+02 2.18750E+00 0.00000E+00
 -1       270 1.28874E+02 2.18750E+00 0.00000E+00
 -1       271 1.31874E+02 2.18750E+00 0.00000E+00
 -1       272 1.34874E+02 2.18750E+00 0.00000E+00
 -1       273 1.37874E+02 2.18750E+00 0.00000E+00
 -1       274 1.40874E+02 2.18750E+00 0.00000E+00
 -1       275 1.43874E+02 2.18750E+00 0.00000E+00
 -1       276 1.46874E+02 2.18750E+00 0.00000E+00
 -1       277 1.47402E+02 4.42500E+00 0.00000E+00
 -1       278 1.47402E+02 7.37500E+00 0.00000E+00
 -1       279 1.47402E+02 1.03250E+01 0.00000E+00
 -1       280 1.47402E+02 1.32750E+01 0.00000E+00
 -1       281 1.47402E+02 1.61750E+01 0.00000E+00
 -1       282 1.47402E+02 1.91250E+01 0.00000E+00
 -1       283 1.47402E+02 2.20750E+01 0.00000E+00
 -1       284 1.47402E+02 2.50250E+01 0.00000E+00
 -1       285 1.47402E+02 2.79750E+01 0.00000E+00
 -1       286 1.47402E+02 3.09250E+01 0.00000E+00
 -1       287 1.47402E+02 3.38250E+01 0.00000E+00
 -1       288 1.47402E+02 3.67750E+01 0.00000E+00
 -1       289 1.47402E+02 3.97250E+01 0.00000E+00
 -1       290 1.47402E+02 4.26750E+01 0.00000E+00
 -1       291 1.46526E+02 4.50385E+01 0.00000E+00
 -1       292 8.20280E+01 2.61801E+01 0.00000E+00
 -1       293 8.16892E+01 2.45456E+01 0.00000E+00
 -1       294 8.11264E+01 2.28612E+01 0.00000E+00
 -1       295 7.99116E+01 2.14819E+01 0.00000E+00
 -1       296 7.85921E+01 2.03179E+01 0.00000E+00
 -1       297 7.70821E+01 1.93067E+01 0.00000E+00
 -1       298 7.53184E+01 1.89558E+01 0.00000E+00
 -1       299 7.35741E+01 1.86755E+01 0.00000E+00
 -1       300 7.18335E+01 1.90966E+01 0.00000E+00
 -1       301 7.01973E+01 1.96210E+01 0.00000E+00
 -1       302 6.88013E+01 2.06119E+01 0.00000E+00
 -1       303 6.76062E+01 2.17770E+01 0.00000E+00
 -1       304 6.65120E+01 2.31296E+01 0.00000E+00
 -1       305 6.60201E+01 2.47949E+01 0.00000E+00
 -1       306 6.56564E+01 2.64707E+01 0.00000E+00
 -1       307 6.58172E+01 2.82507E+01 0.00000E+00
 -1       308 6.61805E+01 2.99577E+01 0.00000E+00
 -1       309 6.68250E+01 3.15907E+01 0.00000E+00
 -1       310 6.80795E+01 3.27579E+01 0.00000E+00
 -1       311 6.92825E+01 3.38614E+01 0.00000E+00
 -1       312 7.07532E+01 3.45580E+01 0.00000E+00
 -1       313 7.23071E+01 3.50281E+01 0.00000E+00
 -1       314 7.39198E+01 3.51851E+01 0.00000E+00
 -1       315 7.55696E+01 3.50933E+01 0.00000E+00
 -1       316 7.71668E+01 3.44964E+01 0.00000E+00
 -1       317 7.86296E+01 3.36713E+01 0.00000E+00
 -1       318 8.00328E+01 3.26492E+01 0.00000E+00
 -1       319 8.10158E+01 3.11856E+01 0.00000E+00
 -1       320 8.16489E+01 2.95869E+01 0.00000E+00
 -1       321 8.21838E+01 2.79053E+01 0.00000E+00
 -1       322 5.19600E+00 4.11500E+01 0.00000E+00
 -1       323 5.19600E+00 4.41000E+01 0.00000E+00
 -1       324 5.19600E+00 3.52750E+01 0.00000E+00
 -1       325 5.19600E+00 3.23250E+01 0.00000E+00
 -1       326 5.19600E+00 2.93750E+01 0.00000E+00
 -1       327 5.19600E+00 2.64250E+01 0.00000E+00
 -1       328 5.19600E+00 2.34750E+01 0.00000E+00
 -1       329 5.19600E+00 2.05250E+01 0.00000E+00
 -1       330 5.19600E+00 1.76250E+01 0.00000E+00
 -1       331 5.19600E+00 1.46750E+01 0.00000E+00
 -1       332 5.19600E+00 1.17250E+01 0.00000E+00
 -1       333 5.19600E+00 8.77500E+00 0.00000E+00
 -1       334 5.19600E+00 5.82500E+00 0.00000E+00
 -1       335 5.53500E+00 4.00625E+00 0.00000E+00
 -1       336 8.53500E+00 4.00625E+00 0.00000E+00
 -1       337 9.15000E+00 4.48040E+01 0.00000E+00
 -1       338 1.21500E+01 4.48040E+01 0.00000E+00
 -1       339 1.51500E+01 4.48040E+01 0.00000E+00
 -1       340 1.81500E+01 4.48040E+01 0.00000E+00
 -1       341 2.11500E+01 4.48040E+01 0.00000E+00
 -1       342 2.41500E+01 4.48040E+01 0.00000E+00
 -1       343 2.71500E+01 4.48040E+01 0.00000E+00
 -1       344 3.01500E+01 4.48040E+01 0.00000E+00
 -1       345 3.31500E+01 4.48040E+01 0.00000E+00
 -1       346 3.61500E+01 4.48040E+01 0.00000E+00
 -1       347 3.91500E+01 4.48040E+01 0.00000E+00
 -1       348 4.21500E+01 4.48040E+01 0.00000E+00
 -1       349 4.51500E+01 4.48040E+01 0.00000E+00
 -1       350 4.81500E+01 4.48040E+01 0.00000E+00
 -1       351 5.11500E+01 4.48040E+01 0.00000E+00
 -1       352 5.41500E+01 4.48040E+01 0.00000E+00
 -1       353 5.71500E+01 4.48040E+01 0.00000E+00
 -1       354 6.01500E+01 4.48040E+01 0.00000E+00
 -1       355 6.31500E+01 4.48040E+01 0.00000E+00
 -1       356 6.61500E+01 4.48040E+01 0.00000E+00
 -1       357 6.91500E+01 4.48040E+01 0.00000E+00
 -1       358 7.21500E+01 4.48040E+01 0.00000E+00
 -1       359 7.51500E+01 4.48040E+01 0.00000E+00
 -1       360 7.81500E+01 4.48040E+01 0.00000E+00
 -1       361 8.11500E+01 4.48040E+01 0.00000E+00
 -1       362 8.41500E+01 4.48040E+01 0.00000E+00
 -1       363 8.71500E+01 4.48040E+01 0.00000E+00
 -1       364 9.01500E+01 4.48040E+01 0.00000E+00
 -1       365 9.31500E+01 4.48040E+01 0.00000E+00
 -1       366 9.61500E+01 4.48040E+01 0.00000E+00
 -1       367 9.91500E+01 4.48040E+01 0.00000E+00
 -1       368 1.02150E+02 4.48040E+01 0.00000E+00
 -1       369 1.05150E+02 4.48040E+01 0.00000E+00
 -1       370 1.08150E+02 4.48040E+01 0.00000E+00
 -1       371 1.11150E+02 4.48040E+01 0.00000E+00
 -1       372 1.14150E+02 4.48040E+01 0.00000E+00
 -1       373 1.17150E+02 4.48040E+01 0.00000E+00
 -1       374 1.20150E+02 4.48040E+01 0.00000E+00
 -1       375 1.23150E+02 4.48040E+01 0.00000E+00
 -1       376 1.26150E+02 4.48040E+01 0.00000E+00
 -1       377 1.29150E+02 4.48040E+01 0.00000E+00
 -1       378 1.32150E+02 4.48040E+01 0.00000E+00
 -1       379 1.35150E+02 4.48040E+01 0.00000E+00
 -1       380 1.38150E+02 4.48040E+01 0.00000E+00
 -1       381 1.41150E+02 4.48040E+01 0.00000E+00
 -1       382 1.43838E+02 4.49212E+01 0.00000E+00
 -1       383 1.15350E+01 4.00625E+00 0.00000E+00
 -1       384 1.45350E+01 4.00625E+00 0.00000E+00
 -1       385 1.75350E+01 4.00625E+00 0.00000E+00
 -1       386 2.05350E+01 4.00625E+00 0.00000E+00
 -1       387 2.35350E+01 4.00625E+00 0.00000E+00
 -1       388 2.65350E+01 4.00625E+00 0.00000E+00
 -1       389 2.95350E+01 4.00625E+00 0.00000E+00
 -1       390 3.25350E+01 4.00625E+00 0.00000E+00
 -1       391 3.55350E+01 4.00625E+00 0.00000E+00
 -1       392 3.85350E+01 4.00625E+00 0.00000E+00
 -1       393 4.15350E+01 4.00625E+00 0.00000E+00
 -1       394 4.45350E+01 4.00625E+00 0.00000E+00
 -1       395 4.75350E+01 4.00625E+00 0.00000E+00
 -1       396 5.05350E+01 4.00625E+00 0.00000E+00
 -1       397 5.35350E+01 4.00625E+00 0.00000E+00
 -1       398 5.65350E+01 4.00625E+00 0.00000E+00
 -1       399 5.95350E+01 4.00625E+00 0.00000E+00
 -1       400 6.25350E+01 4.00625E+00 0.00000E+00
 -1       401 6.55350E+01 4.00625E+00 0.00000E+00
 -1       402 6.85350E+01 4.00625E+00 0.00000E+00
 -1       403 7.15350E+01 4.00625E+00 0.00000E+00
 -1       404 7.45350E+01 4.00625E+00 0.00000E+00
 -1       405 7.75350E+01 4.00625E+00 0.00000E+00
 -1       406 8.05350E+01 4.00625E+00 0.00000E+00
 -1       407 8.35350E+01 4.00625E+00 0.00000E+00
 -1       408 8.65350E+01 4.00625E+00 0.00000E+00
 -1       409 8.95350E+01 4.00625E+00 0.00000E+00
 -1       410 9.25350E+01 4.00625E+00 0.00000E+00
 -1       411 9.55350E+01 4.00625E+00 0.00000E+00
 -1       412 9.85350E+01 4.00625E+00 0.00000E+00
 -1       413 1.01535E+02 4.00625E+00 0.00000E+00
 -1       414 1.04535E+02 4.00625E+00 0.00000E+00
 -1       415 1.07535E+02 4.00625E+00 0.00000E+00
 -1       416 1.10535E+02 4.00625E+00 0.00000E+00
 -1       417 1.13535E+02 4.00625E+00 0.00000E+00
 -1       418 1.16535E+02 4.00625E+00 0.00000E+00
 -1       419 1.19535E+02 4.00625E+00 0.00000E+00
 -1       420 1.22535E+02 4.00625E+00 0.00000E+00
 -1       421 1.25535E+02 4.00625E+00 0.00000E+00
 -1       422 1.28535E+02 4.00625E+00 0.00000E+00
 -1       423 1.31535E+02 4.00625E+00 0.00000E+00
 -1       424 1.34535E+02 4.00625E+00 0.00000E+00
 -1       425 1.37535E+02 4.00625E+00 0.00000E+00
 -1       426 1.40535E+02 4.00625E+00 0.00000E+00
 -1       427 1.43535E+02 4.00625E+00 0.00000E+00
 -1       428 1.45469E+02 4.21562E+00 0.00000E+00
 -1       429 1.44804E+02 1.18000E+01 0.00000E+00
 -1       430 1.44804E+02 8.85000E+00 0.00000E+00
 -1       431 1.45136E+02 6.53281E+00 0.00000E+00
 -1       432 1.44804E+02 1.47000E+01 0.00000E+00
 -1       433 1.44804E+02 1.76500E+01 0.00000E+00
 -1       434 1.44804E+02 2.06000E+01 0.00000E+00
 -1       435 1.44804E+02 2.35500E+01 0.00000E+00
 -1       436 1.44804E+02 2.65000E+01 0.00000E+00
 -1       437 1.44804E+02 2.94500E+01 0.00000E+00
 -1       438 1.44804E+02 3.23500E+01 0.00000E+00
 -1       439 1.44804E+02 3.53000E+01 0.00000E+00
 -1       440 1.44804E+02 3.82500E+01 0.00000E+00
 -1       441 1.44804E+02 4.12000E+01 0.00000E+00
 -1       442 8.26372E+01 2.32926E+01 0.00000E+00
 -1       443 8.33968E+01 2.69260E+01 0.00000E+00
 -1       444 8.32099E+01 2.50828E+01 0.00000E+00
 -1       445 8.18061E+01 2.10380E+01 0.00000E+00
 -1       446 8.04865E+01 1.98739E+01 0.00000E+00
 -1       447 5.19600E+00 3.82125E+01 0.00000E+00
 -1       448 7.64695E+01 1.77778E+01 0.00000E+00
 -1       449 7.46652E+01 1.74532E+01 0.00000E+00
 -1       450 7.23399E+01 1.73819E+01 0.00000E+00
 -1       451 7.07037E+01 1.79063E+01 0.00000E+00
 -1       452 6.85065E+01 1.87179E+01 0.00000E+00
 -1       453 6.73113E+01 1.98830E+01 0.00000E+00
 -1       454 6.60514E+01 2.16381E+01 0.00000E+00
 -1       455 6.46212E+01 2.34764E+01 0.00000E+00
 -1       456 6.42575E+01 2.51522E+01 0.00000E+00
 -1       457 6.40286E+01 2.75150E+01 0.00000E+00
 -1       458 6.46491E+01 2.93915E+01 0.00000E+00
 -1       459 6.52971E+01 3.12501E+01 0.00000E+00
 -1       460 6.65122E+01 3.31846E+01 0.00000E+00
 -1       461 6.77152E+01 3.42881E+01 0.00000E+00
 -1       462 6.94630E+01 3.53811E+01 0.00000E+00
 -1       463 7.10821E+01 3.62743E+01 0.00000E+00
 -1       464 7.29717E+01 3.65634E+01 0.00000E+00
 -1       465 7.48167E+01 3.64334E+01 0.00000E+00
 -1       466 7.68220E+01 3.60090E+01 0.00000E+00
 -1       467 7.86173E+01 3.53588E+01 0.00000E+00
 -1       468 8.00206E+01 3.43367E+01 0.00000E+00
 -1       469 8.17395E+01 3.27335E+01 0.00000E+00
 -1       470 8.26154E+01 3.08943E+01 0.00000E+00
 -1       471 8.31503E+01 2.92127E+01 0.00000E+00
 -1       472 7.86049E+01 1.86657E+01 0.00000E+00
 -1       473 8.43633E+01 2.82335E+01 0.00000E+00
 -1       474 6.49843E+01 3.28440E+01 0.00000E+00
 -1       475 1.00350E+01 6.60425E+00 0.00000E+00
 -1       476 7.79400E+00 3.08500E+01 0.00000E+00
 -1       477 7.79400E+00 3.38000E+01 0.00000E+00
 -1       478 7.79400E+00 2.49500E+01 0.00000E+00
 -1       479 7.79400E+00 2.20000E+01 0.00000E+00
 -1       480 7.79400E+00 1.91000E+01 0.00000E+00
 -1       481 7.79400E+00 1.61500E+01 0.00000E+00
 -1       482 7.79400E+00 1.32000E+01 0.00000E+00
 -1       483 7.79400E+00 1.02500E+01 0.00000E+00
 -1       484 1.30350E+01 6.60425E+00 0.00000E+00
 -1       485 1.06500E+01 4.22060E+01 0.00000E+00
 -1       486 8.04272E+01 1.78971E+01 0.00000E+00
 -1       487 1.36500E+01 4.22060E+01 0.00000E+00
 -1       488 1.66500E+01 4.22060E+01 0.00000E+00
 -1       489 1.96500E+01 4.22060E+01 0.00000E+00
 -1       490 2.26500E+01 4.22060E+01 0.00000E+00
 -1       491 2.56500E+01 4.22060E+01 0.00000E+00
 -1       492 2.86500E+01 4.22060E+01 0.00000E+00
 -1       493 3.16500E+01 4.22060E+01 0.00000E+00
 -1       494 3.46500E+01 4.22060E+01 0.00000E+00
 -1       495 3.76500E+01 4.22060E+01 0.00000E+00
 -1       496 4.06500E+01 4.22060E+01 0.00000E+00
 -1       497 4.36500E+01 4.22060E+01 0.00000E+00
 -1       498 4.66500E+01 4.22060E+01 0.00000E+00
 -1       499 4.96500E+01 4.22060E+01 0.00000E+00
 -1       500 5.26500E+01 4.22060E+01 0.00000E+00
 -1       501 5.56500E+01 4.22060E+01 0.00000E+00
 -1       502 5.86500E+01 4.22060E+01 0.00000E+00
 -1       503 6.16500E+01 4.22060E+01 0.00000E+00
 -1       504 6.46500E+01 4.22060E+01 0.00000E+00
 -1       505 6.76500E+01 4.22060E+01 0.00000E+00
 -1       506 7.06500E+01 4.22060E+01 0.00000E+00
 -1       507 7.36500E+01 4.22060E+01 0.00000E+00
 -1       508 7.66500E+01 4.22060E+01 0.00000E+00
 -1       509 7.96500E+01 4.22060E+01 0.00000E+00
 -1       510 8.26500E+01 4.22060E+01 0.00000E+00
 -1       511 8.56500E+01 4.22060E+01 0.00000E+00
 -1       512 8.86500E+01 4.22060E+01 0.00000E+00
 -1       513 9.16500E+01 4.22060E+01 0.00000E+00
 -1       514 9.46500E+01 4.22060E+01 0.00000E+00
 -1       515 9.76500E+01 4.22060E+01 0.00000E+00
 -1       516 1.00650E+02 4.22060E+01 0.00000E+00
 -1       517 1.03650E+02 4.22060E+01 0.00000E+00
 -1       518 1.06650E+02 4.22060E+01 0.00000E+00
 -1       519 1.09650E+02 4.22060E+01 0.00000E+00
 -1       520 1.12650E+02 4.22060E+01 0.00000E+00
 -1       521 1.15650E+02 4.22060E+01 0.00000E+00
 -1       522 1.18650E+02 4.22060E+01 0.00000E+00
 -1       523 1.21650E+02 4.22060E+01 0.00000E+00
 -1       524 1.24650E+02 4.22060E+01 0.00000E+00
 -1       525 1.27650E+02 4.22060E+01 0.00000E+00
 -1       526 1.30650E+02 4.22060E+01 0.00000E+00
 -1       527 1.33650E+02 4.22060E+01 0.00000E+00
 -1       528 1.36650E+02 4.22060E+01 0.00000E+00
 -1       529 1.39650E+02 4.22060E+01 0.00000E+00
 -1       530 1.90350E+01 6.60425E+00 0.00000E+00
 -1       531 2.20350E+01 6.60425E+00 0.00000E+00
 -1       532 2.50350E+01 6.60425E+00 0.00000E+00
 -1       533 2.80350E+01 6.60425E+00 0.00000E+00
 -1       534 3.10350E+01 6.60425E+00 0.00000E+00
 -1       535 3.40350E+01 6.60425E+00 0.00000E+00
 -1       536 3.70350E+01 6.60425E+00 0.00000E+00
 -1       537 4.00350E+01 6.60425E+00 0.00000E+00
 -1       538 4.30350E+01 6.60425E+00 0.00000E+00
 -1       539 4.60350E+01 6.60425E+00 0.00000E+00
 -1       540 4.90350E+01 6.60425E+00 0.00000E+00
 -1       541 5.20350E+01 6.60425E+00 0.00000E+00
 -1       542 5.50350E+01 6.60425E+00 0.00000E+00
 -1       543 5.80350E+01 6.60425E+00 0.00000E+00
 -1       544 6.10350E+01 6.60425E+00 0.00000E+00
 -1       545 6.40350E+01 6.60425E+00 0.00000E+00
 -1       546 6.70350E+01 6.60425E+00 0.00000E+00
 -1       547 7.00350E+01 6.60425E+00 0.00000E+00
 -1       548 7.30350E+01 6.60425E+00 0.00000E+00
 -1       549 7.60350E+01 6.60425E+00 0.00000E+00
 -1       550 7.90350E+01 6.60425E+00 0.00000E+00
 -1       551 8.20350E+01 6.60425E+00 0.00000E+00
 -1       552 8.50350E+01 6.60425E+00 0.00000E+00
 -1       553 8.80350E+01 6.60425E+00 0.00000E+00
 -1       554 9.10350E+01 6.60425E+00 0.00000E+00
 -1       555 9.40350E+01 6.60425E+00 0.00000E+00
 -1       556 9.70350E+01 6.60425E+00 0.00000E+00
 -1       557 1.00035E+02 6.60425E+00 0.00000E+00
 -1       558 1.03035E+02 6.60425E+00 0.00000E+00
 -1       559 1.06035E+02 6.60425E+00 0.00000E+00
 -1       560 1.09035E+02 6.60425E+00 0.00000E+00
 -1       561 1.12035E+02 6.60425E+00 0.00000E+00
 -1       562 1.15035E+02 6.60425E+00 0.00000E+00
 -1       563 1.18035E+02 6.60425E+00 0.00000E+00
 -1       564 1.21035E+02 6.60425E+00 0.00000E+00
 -1       565 1.24035E+02 6.60425E+00 0.00000E+00
 -1       566 1.27035E+02 6.60425E+00 0.00000E+00
 -1       567 1.30035E+02 6.60425E+00 0.00000E+00
 -1       568 1.33035E+02 6.60425E+00 0.00000E+00
 -1       569 1.36035E+02 6.60425E+00 0.00000E+00
 -1       570 1.39035E+02 6.60425E+00 0.00000E+00
 -1       571 1.42035E+02 6.60425E+00 0.00000E+00
 -1       572 1.42206E+02 1.61750E+01 0.00000E+00
 -1       573 1.42206E+02 1.91250E+01 0.00000E+00
 -1       574 1.42206E+02 1.03250E+01 0.00000E+00
 -1       575 1.42206E+02 1.32500E+01 0.00000E+00
 -1       576 1.42206E+02 2.20750E+01 0.00000E+00
 -1       577 1.42206E+02 2.50250E+01 0.00000E+00
 -1       578 1.42206E+02 2.79750E+01 0.00000E+00
 -1       579 1.42206E+02 3.08750E+01 0.00000E+00
 -1       580 1.42206E+02 3.38250E+01 0.00000E+00
 -1       581 1.42206E+02 3.67750E+01 0.00000E+00
 -1       582 1.42206E+02 3.97250E+01 0.00000E+00
 -1       583 8.50097E+01 2.58313E+01 0.00000E+00
 -1       584 8.38309E+01 2.15721E+01 0.00000E+00
 -1       585 1.60350E+01 6.60425E+00 0.00000E+00
 -1       586 8.22809E+01 1.91698E+01 0.00000E+00
 -1       587 8.20498E+01 3.47893E+01 0.00000E+00
 -1       588 7.81957E+01 1.66381E+01 0.00000E+00
 -1       589 7.82467E+01 3.71389E+01 0.00000E+00
 -1       590 6.53562E+01 1.98092E+01 0.00000E+00
 -1       591 7.58414E+01 1.60924E+01 0.00000E+00
 -1       592 7.79400E+00 2.79000E+01 0.00000E+00
 -1       593 7.35551E+01 1.57032E+01 0.00000E+00
 -1       594 6.39826E+01 2.15041E+01 0.00000E+00
 -1       595 7.09472E+01 1.58512E+01 0.00000E+00
 -1       596 6.87500E+01 1.66629E+01 0.00000E+00
 -1       597 6.65947E+01 1.79523E+01 0.00000E+00
 -1       598 6.29491E+01 2.89128E+01 0.00000E+00
 -1       599 6.27632E+01 2.39505E+01 0.00000E+00
 -1       600 6.94441E+01 3.73295E+01 0.00000E+00
 -1       601 6.25193E+01 2.61763E+01 0.00000E+00
 -1       602 6.35971E+01 3.07714E+01 0.00000E+00
 -1       603 6.59544E+01 3.50003E+01 0.00000E+00
 -1       604 8.35746E+01 3.24793E+01 0.00000E+00
 -1       605 6.76963E+01 3.62364E+01 0.00000E+00
 -1       606 7.17674E+01 3.81142E+01 0.00000E+00
 -1       607 7.40089E+01 3.81257E+01 0.00000E+00
 -1       608 7.61224E+01 3.76533E+01 0.00000E+00
 -1       609 8.03287E+01 3.62341E+01 0.00000E+00
 -1       610 8.43576E+01 3.05226E+01 0.00000E+00
 -1       611 7.92300E+00 4.16780E+01 0.00000E+00
 -1       612 7.61550E+00 6.21462E+00 0.00000E+00
 -1       613 8.45571E+01 2.36651E+01 0.00000E+00
 -1       614 7.79400E+00 3.67375E+01 0.00000E+00
 -1       615 7.85850E+00 3.92077E+01 0.00000E+00
 -1       616 6.32843E+01 3.23653E+01 0.00000E+00
 -1       617 8.43057E+01 1.97039E+01 0.00000E+00
 -1       618 6.14398E+01 2.75741E+01 0.00000E+00
 -1       619 1.41678E+02 4.22645E+01 0.00000E+00
 -1       620 1.03920E+01 2.05500E+01 0.00000E+00
 -1       621 1.03920E+01 2.35000E+01 0.00000E+00
 -1       622 1.03920E+01 1.46750E+01 0.00000E+00
 -1       623 1.03920E+01 1.17250E+01 0.00000E+00
 -1       624 1.15350E+01 9.20225E+00 0.00000E+00
 -1       625 8.42436E+01 3.45792E+01 0.00000E+00
 -1       626 6.74830E+01 3.85212E+01 0.00000E+00
 -1       627 1.51500E+01 3.96080E+01 0.00000E+00
 -1       628 1.81500E+01 3.96080E+01 0.00000E+00
 -1       629 2.11500E+01 3.96080E+01 0.00000E+00
 -1       630 2.41500E+01 3.96080E+01 0.00000E+00
 -1       631 2.71500E+01 3.96080E+01 0.00000E+00
 -1       632 3.01500E+01 3.96080E+01 0.00000E+00
 -1       633 3.31500E+01 3.96080E+01 0.00000E+00
 -1       634 3.61500E+01 3.96080E+01 0.00000E+00
 -1       635 3.91500E+01 3.96080E+01 0.00000E+00
 -1       636 4.21500E+01 3.96080E+01 0.00000E+00
 -1       637 4.51500E+01 3.96080E+01 0.00000E+00
 -1       638 4.81500E+01 3.96080E+01 0.00000E+00
 -1       639 5.11500E+01 3.96080E+01 0.00000E+00
 -1       640 5.41500E+01 3.96080E+01 0.00000E+00
 -1       641 5.71500E+01 3.96080E+01 0.00000E+00
 -1       642 6.01500E+01 3.96080E+01 0.00000E+00
 -1       643 6.31500E+01 3.96080E+01 0.00000E+00
 -1       644 7.21500E+01 3.99882E+01 0.00000E+00
 -1       645 7.51500E+01 3.98206E+01 0.00000E+00
 -1       646 7.81500E+01 4.01557E+01 0.00000E+00
 -1       647 8.11500E+01 3.96080E+01 0.00000E+00
 -1       648 8.41500E+01 3.96080E+01 0.00000E+00
 -1       649 8.71500E+01 3.96080E+01 0.00000E+00
 -1       650 9.01500E+01 3.96080E+01 0.00000E+00
 -1       651 9.31500E+01 3.96080E+01 0.00000E+00
 -1       652 9.61500E+01 3.96080E+01 0.00000E+00
 -1       653 9.91500E+01 3.96080E+01 0.00000E+00
 -1       654 1.02150E+02 3.96080E+01 0.00000E+00
 -1       655 1.05150E+02 3.96080E+01 0.00000E+00
 -1       656 1.08150E+02 3.96080E+01 0.00000E+00
 -1       657 1.11150E+02 3.96080E+01 0.00000E+00
 -1       658 1.14150E+02 3.96080E+01 0.00000E+00
 -1       659 1.17150E+02 3.96080E+01 0.00000E+00
 -1       660 1.20150E+02 3.96080E+01 0.00000E+00
 -1       661 1.23150E+02 3.96080E+01 0.00000E+00
 -1       662 1.26150E+02 3.96080E+01 0.00000E+00
 -1       663 1.29150E+02 3.96080E+01 0.00000E+00
 -1       664 1.32150E+02 3.96080E+01 0.00000E+00
 -1       665 1.35150E+02 3.96080E+01 0.00000E+00
 -1       666 1.38150E+02 3.96080E+01 0.00000E+00
 -1       667 2.35350E+01 9.20225E+00 0.00000E+00
 -1       668 1.39206E+02 1.03250E+01 0.00000E+00
 -1       669 2.05350E+01 9.20225E+00 0.00000E+00
 -1       670 2.95350E+01 9.20225E+00 0.00000E+00
 -1       671 3.25350E+01 9.20225E+00 0.00000E+00
 -1       672 3.55350E+01 9.20225E+00 0.00000E+00
 -1       673 3.85350E+01 9.20225E+00 0.00000E+00
 -1       674 4.15350E+01 9.20225E+00 0.00000E+00
 -1       675 4.45350E+01 9.20225E+00 0.00000E+00
 -1       676 4.75350E+01 9.20225E+00 0.00000E+00
 -1       677 5.05350E+01 9.20225E+00 0.00000E+00
 -1       678 5.35350E+01 9.20225E+00 0.00000E+00
 -1       679 5.65350E+01 9.20225E+00 0.00000E+00
 -1       680 5.95350E+01 9.20225E+00 0.00000E+00
 -1       681 6.25350E+01 9.20225E+00 0.00000E+00
 -1       682 6.55350E+01 9.20225E+00 0.00000E+00
 -1       683 6.85350E+01 9.20225E+00 0.00000E+00
 -1       684 7.15350E+01 9.20225E+00 0.00000E+00
 -1       685 7.45350E+01 9.20225E+00 0.00000E+00
 -1       686 7.75350E+01 9.20225E+00 0.00000E+00
 -1       687 8.05350E+01 9.20225E+00 0.00000E+00
 -1       688 8.35350E+01 9.20225E+00 0.00000E+00
 -1       689 8.65350E+01 9.20225E+00 0.00000E+00
 -1       690 8.95350E+01 9.20225E+00 0.00000E+00
 -1       691 9.25350E+01 9.20225E+00 0.00000E+00
 -1       692 9.55350E+01 9.20225E+00 0.00000E+00
 -1       693 9.85350E+01 9.20225E+00 0.00000E+00
 -1       694 1.01535E+02 9.20225E+00 0.00000E+00
 -1       695 1.04535E+02 9.20225E+00 0.00000E+00
 -1       696 1.07535E+02 9.20225E+00 0.00000E+00
 -1       697 1.10535E+02 9.20225E+00 0.00000E+00
 -1       698 1.13535E+02 9.20225E+00 0.00000E+00
 -1       699 1.16535E+02 9.20225E+00 0.00000E+00
 -1       700 1.19535E+02 9.20225E+00 0.00000E+00
 -1       701 1.22535E+02 9.20225E+00 0.00000E+00
 -1       702 1.25535E+02 9.20225E+00 0.00000E+00
 -1       703 1.28535E+02 9.20225E+00 0.00000E+00
 -1       704 1.31535E+02 9.20225E+00 0.00000E+00
 -1       705 1.34535E+02 9.20225E+00 0.00000E+00
 -1       706 1.36870E+02 9.76363E+00 0.00000E+00
 -1       707 1.39608E+02 2.35500E+01 0.00000E+00
 -1       708 1.40178E+02 3.96665E+01 0.00000E+00
 -1       709 1.39608E+02 1.76500E+01 0.00000E+00
 -1       710 1.39608E+02 2.65000E+01 0.00000E+00
 -1       711 1.39608E+02 2.06000E+01 0.00000E+00
 -1       712 1.39608E+02 2.94000E+01 0.00000E+00
 -1       713 1.39608E+02 3.23500E+01 0.00000E+00
 -1       714 1.39608E+02 3.53000E+01 0.00000E+00
 -1       715 8.67903E+01 2.43289E+01 0.00000E+00
 -1       716 8.57140E+01 3.22004E+01 0.00000E+00
 -1       717 8.22920E+01 3.68253E+01 0.00000E+00
 -1       718 7.75684E+01 3.89816E+01 0.00000E+00
 -1       719 8.01542E+01 1.57738E+01 0.00000E+00
 -1       720 6.42698E+01 1.77431E+01 0.00000E+00
 -1       721 8.60756E+01 2.93823E+01 0.00000E+00
 -1       722 1.75350E+01 9.20225E+00 0.00000E+00
 -1       723 6.16879E+01 2.18875E+01 0.00000E+00
 -1       724 2.65350E+01 9.20225E+00 0.00000E+00
 -1       725 8.59726E+01 2.20015E+01 0.00000E+00
 -1       726 1.45350E+01 9.20225E+00 0.00000E+00
 -1       727 1.21500E+01 3.96080E+01 0.00000E+00
 -1       728 6.66197E+01 1.55482E+01 0.00000E+00
 -1       729 7.99713E+01 3.82595E+01 0.00000E+00
 -1       730 6.90801E+01 1.41766E+01 0.00000E+00
 -1       731 6.28963E+01 1.94379E+01 0.00000E+00
 -1       732 1.03920E+01 1.76125E+01 0.00000E+00
 -1       733 7.21350E+01 1.37303E+01 0.00000E+00
 -1       734 8.67219E+01 2.69802E+01 0.00000E+00
 -1       735 1.03920E+01 3.23250E+01 0.00000E+00
 -1       736 6.14954E+01 3.04619E+01 0.00000E+00
 -1       737 6.35996E+01 3.47633E+01 0.00000E+00
 -1       738 6.57411E+01 3.72851E+01 0.00000E+00
 -1       739 8.24196E+01 1.69814E+01 0.00000E+00
 -1       740 7.74814E+01 1.43679E+01 0.00000E+00
 -1       741 6.07698E+01 2.48584E+01 0.00000E+00
 -1       742 1.00042E+01 3.94079E+01 0.00000E+00
 -1       743 7.51952E+01 1.39787E+01 0.00000E+00
 -1       744 1.03920E+01 3.52625E+01 0.00000E+00
 -1       745 1.03920E+01 2.64500E+01 0.00000E+00
 -1       746 8.44444E+01 1.75155E+01 0.00000E+00
 -1       747 1.39608E+02 1.47250E+01 0.00000E+00
 -1       748 6.33863E+01 3.70481E+01 0.00000E+00
 -1       749 1.03920E+01 2.93875E+01 0.00000E+00
 -1       750 6.99497E+01 3.96643E+01 0.00000E+00
 -1       751 1.38879E+02 3.74540E+01 0.00000E+00
 -1       752 6.67701E+01 1.29253E+01 0.00000E+00
 -1       753 1.29900E+01 1.32000E+01 0.00000E+00
 -1       754 1.01981E+01 3.73352E+01 0.00000E+00
 -1       755 8.46890E+01 3.69371E+01 0.00000E+00
 -1       756 1.96500E+01 3.70100E+01 0.00000E+00
 -1       757 2.26500E+01 3.70100E+01 0.00000E+00
 -1       758 2.56500E+01 3.70100E+01 0.00000E+00
 -1       759 2.86500E+01 3.70100E+01 0.00000E+00
 -1       760 3.16500E+01 3.70100E+01 0.00000E+00
 -1       761 3.46500E+01 3.70100E+01 0.00000E+00
 -1       762 3.76500E+01 3.70100E+01 0.00000E+00
 -1       763 4.06500E+01 3.70100E+01 0.00000E+00
 -1       764 4.36500E+01 3.70100E+01 0.00000E+00
 -1       765 4.66500E+01 3.70100E+01 0.00000E+00
 -1       766 4.96500E+01 3.70100E+01 0.00000E+00
 -1       767 5.26500E+01 3.70100E+01 0.00000E+00
 -1       768 5.56500E+01 3.70100E+01 0.00000E+00
 -1       769 5.86500E+01 3.70100E+01 0.00000E+00
 -1       770 8.86500E+01 3.70100E+01 0.00000E+00
 -1       771 9.16500E+01 3.70100E+01 0.00000E+00
 -1       772 9.46500E+01 3.70100E+01 0.00000E+00
 -1       773 9.76500E+01 3.70100E+01 0.00000E+00
 -1       774 1.00650E+02 3.70100E+01 0.00000E+00
 -1       775 1.03650E+02 3.70100E+01 0.00000E+00
 -1       776 1.06650E+02 3.70100E+01 0.00000E+00
 -1       777 1.09650E+02 3.70100E+01 0.00000E+00
 -1       778 1.12650E+02 3.70100E+01 0.00000E+00
 -1       779 1.15650E+02 3.70100E+01 0.00000E+00
 -1       780 1.18650E+02 3.70100E+01 0.00000E+00
 -1       781 1.21650E+02 3.70100E+01 0.00000E+00
 -1       782 1.24650E+02 3.70100E+01 0.00000E+00
 -1       783 1.27650E+02 3.70100E+01 0.00000E+00
 -1       784 1.30650E+02 3.70100E+01 0.00000E+00
 -1       785 1.33650E+02 3.70100E+01 0.00000E+00
 -1       786 1.36264E+02 3.72320E+01 0.00000E+00
 -1       787 1.37010E+02 2.79500E+01 0.00000E+00
 -1       788 2.20350E+01 1.18003E+01 0.00000E+00
 -1       789 3.40350E+01 1.18003E+01 0.00000E+00
 -1       790 3.10350E+01 1.18003E+01 0.00000E+00
 -1       791 4.00350E+01 1.18003E+01 0.00000E+00
 -1       792 4.30350E+01 1.18003E+01 0.00000E+00
 -1       793 4.60350E+01 1.18003E+01 0.00000E+00
 -1       794 4.90350E+01 1.18003E+01 0.00000E+00
 -1       795 5.20350E+01 1.18003E+01 0.00000E+00
 -1       796 5.50350E+01 1.18003E+01 0.00000E+00
 -1       797 5.80350E+01 1.18003E+01 0.00000E+00
 -1       798 6.10350E+01 1.18003E+01 0.00000E+00
 -1       799 6.40350E+01 1.18003E+01 0.00000E+00
 -1       800 7.30350E+01 1.15876E+01 0.00000E+00
 -1       801 7.90350E+01 1.15876E+01 0.00000E+00
 -1       802 8.20350E+01 1.15876E+01 0.00000E+00
 -1       803 8.50350E+01 1.15876E+01 0.00000E+00
 -1       804 8.80350E+01 1.15876E+01 0.00000E+00
 -1       805 9.10350E+01 1.15876E+01 0.00000E+00
 -1       806 9.40350E+01 1.15876E+01 0.00000E+00
 -1       807 9.70350E+01 1.15876E+01 0.00000E+00
 -1       808 1.00035E+02 1.15876E+01 0.00000E+00
 -1       809 1.03035E+02 1.15876E+01 0.00000E+00
 -1       810 1.06035E+02 1.15876E+01 0.00000E+00
 -1       811 1.09035E+02 1.15876E+01 0.00000E+00
 -1       812 1.12035E+02 1.15876E+01 0.00000E+00
 -1       813 1.15035E+02 1.15876E+01 0.00000E+00
 -1       814 1.18035E+02 1.15876E+01 0.00000E+00
 -1       815 1.21035E+02 1.15876E+01 0.00000E+00
 -1       816 1.24035E+02 1.15876E+01 0.00000E+00
 -1       817 1.27035E+02 1.15876E+01 0.00000E+00
 -1       818 1.30035E+02 1.15876E+01 0.00000E+00
 -1       819 1.33035E+02 1.15876E+01 0.00000E+00
 -1       820 1.29900E+01 2.20250E+01 0.00000E+00
 -1       821 5.97528E+01 2.90510E+01 0.00000E+00
 -1       822 1.37010E+02 3.38250E+01 0.00000E+00
 -1       823 1.37010E+02 2.50000E+01 0.00000E+00
 -1       824 6.14092E+01 3.38316E+01 0.00000E+00
 -1       825 7.67105E+01 1.19870E+01 0.00000E+00
 -1       826 1.90350E+01 1.18003E+01 0.00000E+00
 -1       827 7.02627E+01 1.15931E+01 0.00000E+00
 -1       828 5.90828E+01 2.63352E+01 0.00000E+00
 -1       829 1.37010E+02 3.08875E+01 0.00000E+00
 -1       830 3.70350E+01 1.18003E+01 0.00000E+00
 -1       831 8.79284E+01 3.10522E+01 0.00000E+00
 -1       832 1.37625E+01 1.12011E+01 0.00000E+00
 -1       833 1.36500E+01 3.70100E+01 0.00000E+00
 -1       834 6.04534E+01 1.97557E+01 0.00000E+00
 -1       835 8.83158E+01 2.24856E+01 0.00000E+00
 -1       836 8.69343E+01 1.95503E+01 0.00000E+00
 -1       837 7.96943E+01 1.34047E+01 0.00000E+00
 -1       838 8.22513E+01 1.45683E+01 0.00000E+00
 -1       839 1.66500E+01 3.70100E+01 0.00000E+00
 -1       840 6.18600E+01 1.71941E+01 0.00000E+00
 -1       841 8.85748E+01 2.86501E+01 0.00000E+00
 -1       842 5.92700E+01 2.27676E+01 0.00000E+00
 -1       843 8.65803E+01 3.43797E+01 0.00000E+00
 -1       844 6.39309E+01 1.50248E+01 0.00000E+00
 -1       845 8.86382E+01 2.57030E+01 0.00000E+00
 -1       846 1.29900E+01 2.49750E+01 0.00000E+00
 -1       847 1.29900E+01 1.61375E+01 0.00000E+00
 -1       848 8.42761E+01 1.51024E+01 0.00000E+00
 -1       849 1.37010E+02 1.61875E+01 0.00000E+00
 -1       850 2.50350E+01 1.18003E+01 0.00000E+00
 -1       851 8.87946E+01 3.32315E+01 0.00000E+00
 -1       852 2.80350E+01 1.18003E+01 0.00000E+00
 -1       853 1.35370E+02 1.21490E+01 0.00000E+00
 -1       854 1.29900E+01 1.90875E+01 0.00000E+00
 -1       855 1.37010E+02 1.91375E+01 0.00000E+00
 -1       856 1.37010E+02 2.20688E+01 0.00000E+00
 -1       857 5.92352E+01 3.20900E+01 0.00000E+00
 -1       858 5.75830E+01 2.42444E+01 0.00000E+00
 -1       859 1.63988E+01 1.15007E+01 0.00000E+00
 -1       860 1.36637E+02 3.55285E+01 0.00000E+00
 -1       861 1.36940E+02 1.29756E+01 0.00000E+00
 -1       862 1.29900E+01 3.08563E+01 0.00000E+00
 -1       863 1.29900E+01 3.37938E+01 0.00000E+00
 -1       864 2.41500E+01 3.44120E+01 0.00000E+00
 -1       865 2.71500E+01 3.44120E+01 0.00000E+00
 -1       866 3.01500E+01 3.44120E+01 0.00000E+00
 -1       867 3.31500E+01 3.44120E+01 0.00000E+00
 -1       868 3.61500E+01 3.44120E+01 0.00000E+00
 -1       869 3.91500E+01 3.44120E+01 0.00000E+00
 -1       870 4.21500E+01 3.44120E+01 0.00000E+00
 -1       871 4.51500E+01 3.44120E+01 0.00000E+00
 -1       872 4.81500E+01 3.44120E+01 0.00000E+00
 -1       873 5.11500E+01 3.44120E+01 0.00000E+00
 -1       874 5.41500E+01 3.44120E+01 0.00000E+00
 -1       875 5.71500E+01 3.44120E+01 0.00000E+00
 -1       876 9.06837E+01 2.38732E+01 0.00000E+00
 -1       877 1.51500E+01 3.44120E+01 0.00000E+00
 -1       878 9.31500E+01 3.44120E+01 0.00000E+00
 -1       879 9.61500E+01 3.44120E+01 0.00000E+00
 -1       880 9.91500E+01 3.44120E+01 0.00000E+00
 -1       881 1.02150E+02 3.44120E+01 0.00000E+00
 -1       882 1.05150E+02 3.44120E+01 0.00000E+00
 -1       883 1.08150E+02 3.44120E+01 0.00000E+00
 -1       884 1.11150E+02 3.44120E+01 0.00000E+00
 -1       885 1.14150E+02 3.44120E+01 0.00000E+00
 -1       886 1.17150E+02 3.44120E+01 0.00000E+00
 -1       887 1.20150E+02 3.44120E+01 0.00000E+00
 -1       888 1.23150E+02 3.44120E+01 0.00000E+00
 -1       889 1.26150E+02 3.44120E+01 0.00000E+00
 -1       890 1.29150E+02 3.44120E+01 0.00000E+00
 -1       891 1.32150E+02 3.44120E+01 0.00000E+00
 -1       892 4.45350E+01 1.43982E+01 0.00000E+00
 -1       893 4.15350E+01 1.43982E+01 0.00000E+00
 -1       894 5.05350E+01 1.43982E+01 0.00000E+00
 -1       895 5.35350E+01 1.43982E+01 0.00000E+00
 -1       896 5.65350E+01 1.43982E+01 0.00000E+00
 -1       897 5.95350E+01 1.43982E+01 0.00000E+00
 -1       898 8.95350E+01 1.41856E+01 0.00000E+00
 -1       899 9.25350E+01 1.41856E+01 0.00000E+00
 -1       900 9.55350E+01 1.41856E+01 0.00000E+00
 -1       901 9.85350E+01 1.41856E+01 0.00000E+00
 -1       902 1.01535E+02 1.41856E+01 0.00000E+00
 -1       903 1.04535E+02 1.41856E+01 0.00000E+00
 -1       904 1.07535E+02 1.41856E+01 0.00000E+00
 -1       905 1.10535E+02 1.41856E+01 0.00000E+00
 -1       906 1.13535E+02 1.41856E+01 0.00000E+00
 -1       907 1.16535E+02 1.41856E+01 0.00000E+00
 -1       908 1.19535E+02 1.41856E+01 0.00000E+00
 -1       909 1.22535E+02 1.41856E+01 0.00000E+00
 -1       910 1.25535E+02 1.41856E+01 0.00000E+00
 -1       911 1.28535E+02 1.41856E+01 0.00000E+00
 -1       912 1.31535E+02 1.41856E+01 0.00000E+00
 -1       913 1.29900E+01 2.79188E+01 0.00000E+00
 -1       914 8.71989E+01 1.66858E+01 0.00000E+00
 -1       915 2.05350E+01 1.43982E+01 0.00000E+00
 -1       916 1.34412E+02 2.64750E+01 0.00000E+00
 -1       917 5.72645E+01 2.82243E+01 0.00000E+00
 -1       918 4.75350E+01 1.43982E+01 0.00000E+00
 -1       919 3.25350E+01 1.43982E+01 0.00000E+00
 -1       920 5.67469E+01 3.12634E+01 0.00000E+00
 -1       921 9.04887E+01 2.72171E+01 0.00000E+00
 -1       922 5.77975E+01 2.04506E+01 0.00000E+00
 -1       923 2.11500E+01 3.44120E+01 0.00000E+00
 -1       924 1.81500E+01 3.44120E+01 0.00000E+00
 -1       925 9.02314E+01 3.03839E+01 0.00000E+00
 -1       926 5.86662E+01 1.74244E+01 0.00000E+00
 -1       927 8.99350E+01 1.99308E+01 0.00000E+00
 -1       928 1.55880E+01 1.46687E+01 0.00000E+00
 -1       929 1.55880E+01 2.35000E+01 0.00000E+00
 -1       930 2.95350E+01 1.43982E+01 0.00000E+00
 -1       931 2.35350E+01 1.43982E+01 0.00000E+00
 -1       932 3.55350E+01 1.43982E+01 0.00000E+00
 -1       933 1.34394E+02 3.49702E+01 0.00000E+00
 -1       934 3.85350E+01 1.43982E+01 0.00000E+00
 -1       935 1.33870E+02 1.47470E+01 0.00000E+00
 -1       936 1.55880E+01 2.93875E+01 0.00000E+00
 -1       937 1.55880E+01 2.05625E+01 0.00000E+00
 -1       938 1.34412E+02 2.94125E+01 0.00000E+00
 -1       939 1.34412E+02 2.35438E+01 0.00000E+00
 -1       940 1.75351E+01 1.43983E+01 0.00000E+00
 -1       941 9.01995E+01 1.70663E+01 0.00000E+00
 -1       942 1.34412E+02 1.76625E+01 0.00000E+00
 -1       943 8.65350E+01 1.41856E+01 0.00000E+00
 -1       944 5.57648E+01 2.61336E+01 0.00000E+00
 -1       945 5.61105E+01 2.19275E+01 0.00000E+00
 -1       946 1.53690E+01 3.18997E+01 0.00000E+00
 -1       947 1.34580E+02 3.26497E+01 0.00000E+00
 -1       948 9.28175E+01 2.14257E+01 0.00000E+00
 -1       949 2.86500E+01 3.18140E+01 0.00000E+00
 -1       950 3.16500E+01 3.18140E+01 0.00000E+00
 -1       951 3.46500E+01 3.18140E+01 0.00000E+00
 -1       952 3.76500E+01 3.18140E+01 0.00000E+00
 -1       953 4.06500E+01 3.18140E+01 0.00000E+00
 -1       954 4.36500E+01 3.18140E+01 0.00000E+00
 -1       955 4.66500E+01 3.18140E+01 0.00000E+00
 -1       956 4.96500E+01 3.18140E+01 0.00000E+00
 -1       957 5.26500E+01 3.18140E+01 0.00000E+00
 -1       958 4.30350E+01 1.69963E+01 0.00000E+00
 -1       959 9.46500E+01 3.18140E+01 0.00000E+00
 -1       960 9.76500E+01 3.18140E+01 0.00000E+00
 -1       961 1.00650E+02 3.18140E+01 0.00000E+00
 -1       962 1.03650E+02 3.18140E+01 0.00000E+00
 -1       963 1.06650E+02 3.18140E+01 0.00000E+00
 -1       964 1.09650E+02 3.18140E+01 0.00000E+00
 -1       965 1.12650E+02 3.18140E+01 0.00000E+00
 -1       966 1.15650E+02 3.18140E+01 0.00000E+00
 -1       967 1.18650E+02 3.18140E+01 0.00000E+00
 -1       968 1.21650E+02 3.18140E+01 0.00000E+00
 -1       969 1.24650E+02 3.18140E+01 0.00000E+00
 -1       970 1.27650E+02 3.18140E+01 0.00000E+00
 -1       971 1.30650E+02 3.18140E+01 0.00000E+00
 -1       972 5.50350E+01 1.69963E+01 0.00000E+00
 -1       973 5.20350E+01 1.69963E+01 0.00000E+00
 -1       974 9.40350E+01 1.67836E+01 0.00000E+00
 -1       975 1.55880E+01 2.64438E+01 0.00000E+00
 -1       976 2.26500E+01 3.18140E+01 0.00000E+00
 -1       977 1.00035E+02 1.67836E+01 0.00000E+00
 -1       978 1.03035E+02 1.67836E+01 0.00000E+00
 -1       979 1.06035E+02 1.67836E+01 0.00000E+00
 -1       980 1.09035E+02 1.67836E+01 0.00000E+00
 -1       981 1.12035E+02 1.67836E+01 0.00000E+00
 -1       982 1.15035E+02 1.67836E+01 0.00000E+00
 -1       983 1.18035E+02 1.67836E+01 0.00000E+00
 -1       984 1.21035E+02 1.67836E+01 0.00000E+00
 -1       985 1.24035E+02 1.67836E+01 0.00000E+00
 -1       986 1.27035E+02 1.67836E+01 0.00000E+00
 -1       987 1.30035E+02 1.67836E+01 0.00000E+00
 -1       988 1.55880E+01 1.76156E+01 0.00000E+00
 -1       989 2.65350E+01 1.43982E+01 0.00000E+00
 -1       990 1.90351E+01 1.69963E+01 0.00000E+00
 -1       991 1.34412E+02 2.05938E+01 0.00000E+00
 -1       992 9.28003E+01 2.56743E+01 0.00000E+00
 -1       993 5.46542E+01 2.93433E+01 0.00000E+00
 -1       994 1.96500E+01 3.18140E+01 0.00000E+00
 -1       995 9.25706E+01 2.89801E+01 0.00000E+00
 -1       996 9.70350E+01 1.67836E+01 0.00000E+00
 -1       997 1.32223E+02 1.72231E+01 0.00000E+00
 -1       998 2.56500E+01 3.18140E+01 0.00000E+00
 -1       999 1.73115E+01 1.73059E+01 0.00000E+00
 -1      1000 4.60350E+01 1.69963E+01 0.00000E+00
 -1      1001 3.10350E+01 1.69963E+01 0.00000E+00
 -1      1002 4.00350E+01 1.69963E+01 0.00000E+00
 -1      1003 1.81860E+01 2.79156E+01 0.00000E+00
 -1      1004 2.20351E+01 1.69963E+01 0.00000E+00
 -1      1005 1.81860E+01 2.20313E+01 0.00000E+00
 -1      1006 1.31814E+02 2.50094E+01 0.00000E+00
 -1      1007 3.40350E+01 1.69963E+01 0.00000E+00
 -1      1008 1.81860E+01 2.49734E+01 0.00000E+00
 -1      1009 4.90350E+01 1.69963E+01 0.00000E+00
 -1      1010 5.42922E+01 2.38166E+01 0.00000E+00
 -1      1011 1.31814E+02 2.79469E+01 0.00000E+00
 -1      1012 5.52724E+01 1.92681E+01 0.00000E+00
 -1      1013 9.34262E+01 1.91046E+01 0.00000E+00
 -1      1014 1.32223E+02 2.01543E+01 0.00000E+00
 -1      1015 3.31500E+01 2.92160E+01 0.00000E+00
 -1      1016 3.61500E+01 2.92160E+01 0.00000E+00
 -1      1017 3.91500E+01 2.92160E+01 0.00000E+00
 -1      1018 4.21500E+01 2.92160E+01 0.00000E+00
 -1      1019 4.51500E+01 2.92160E+01 0.00000E+00
 -1      1020 4.81500E+01 2.92160E+01 0.00000E+00
 -1      1021 5.11500E+01 2.92160E+01 0.00000E+00
 -1      1022 5.27543E+01 2.68890E+01 0.00000E+00
 -1      1023 2.50351E+01 1.69963E+01 0.00000E+00
 -1      1024 9.61500E+01 2.92160E+01 0.00000E+00
 -1      1025 9.91500E+01 2.92160E+01 0.00000E+00
 -1      1026 1.02150E+02 2.92160E+01 0.00000E+00
 -1      1027 1.05150E+02 2.92160E+01 0.00000E+00
 -1      1028 1.08150E+02 2.92160E+01 0.00000E+00
 -1      1029 1.11150E+02 2.92160E+01 0.00000E+00
 -1      1030 1.14150E+02 2.92160E+01 0.00000E+00
 -1      1031 1.17150E+02 2.92160E+01 0.00000E+00
 -1      1032 1.20150E+02 2.92160E+01 0.00000E+00
 -1      1033 1.23150E+02 2.92160E+01 0.00000E+00
 -1      1034 1.26150E+02 2.92160E+01 0.00000E+00
 -1      1035 1.29150E+02 2.92160E+01 0.00000E+00
 -1      1036 3.70350E+01 1.69963E+01 0.00000E+00
 -1      1037 2.11860E+01 2.79156E+01 0.00000E+00
 -1      1038 1.30035E+02 1.97149E+01 0.00000E+00
 -1      1039 1.01535E+02 1.93816E+01 0.00000E+00
 -1      1040 1.10535E+02 1.93816E+01 0.00000E+00
 -1      1041 1.13535E+02 1.93816E+01 0.00000E+00
 -1      1042 1.16535E+02 1.93816E+01 0.00000E+00
 -1      1043 1.19535E+02 1.93816E+01 0.00000E+00
 -1      1044 1.22535E+02 1.93816E+01 0.00000E+00
 -1      1045 1.25535E+02 1.93816E+01 0.00000E+00
 -1      1046 1.27785E+02 1.95483E+01 0.00000E+00
 -1      1047 1.77488E+01 1.96686E+01 0.00000E+00
 -1      1048 5.05350E+01 1.95942E+01 0.00000E+00
 -1      1049 2.80350E+01 1.69963E+01 0.00000E+00
 -1      1050 1.32019E+02 2.25818E+01 0.00000E+00
 -1      1051 2.71500E+01 2.92160E+01 0.00000E+00
 -1      1052 9.64262E+01 1.91046E+01 0.00000E+00
 -1      1053 9.89806E+01 1.92431E+01 0.00000E+00
 -1      1054 5.34541E+01 2.11573E+01 0.00000E+00
 -1      1055 1.04535E+02 1.93816E+01 0.00000E+00
 -1      1056 9.53618E+01 2.35603E+01 0.00000E+00
 -1      1057 1.07535E+02 1.93816E+01 0.00000E+00
 -1      1058 2.41680E+01 2.85658E+01 0.00000E+00
 -1      1059 3.01500E+01 2.92160E+01 0.00000E+00
 -1      1060 4.15350E+01 1.95942E+01 0.00000E+00
 -1      1061 4.45350E+01 1.95942E+01 0.00000E+00
 -1      1062 2.95350E+01 1.95943E+01 0.00000E+00
 -1      1063 4.75350E+01 1.95942E+01 0.00000E+00
 -1      1064 2.07840E+01 2.35023E+01 0.00000E+00
 -1      1065 3.25350E+01 1.95943E+01 0.00000E+00
 -1      1066 2.07488E+01 1.96686E+01 0.00000E+00
 -1      1067 1.29150E+02 2.62785E+01 0.00000E+00
 -1      1068 9.58940E+01 2.13325E+01 0.00000E+00
 -1      1069 1.29355E+02 2.38510E+01 0.00000E+00
 -1      1070 3.76500E+01 2.66180E+01 0.00000E+00
 -1      1071 4.06500E+01 2.66180E+01 0.00000E+00
 -1      1072 4.36500E+01 2.66180E+01 0.00000E+00
 -1      1073 4.66500E+01 2.66180E+01 0.00000E+00
 -1      1074 4.96500E+01 2.66180E+01 0.00000E+00
 -1      1075 2.37488E+01 1.96686E+01 0.00000E+00
 -1      1076 3.85350E+01 1.95942E+01 0.00000E+00
 -1      1077 1.03035E+02 2.19796E+01 0.00000E+00
 -1      1078 1.00650E+02 2.66180E+01 0.00000E+00
 -1      1079 1.03650E+02 2.66180E+01 0.00000E+00
 -1      1080 1.06650E+02 2.66180E+01 0.00000E+00
 -1      1081 1.09650E+02 2.66180E+01 0.00000E+00
 -1      1082 1.12650E+02 2.66180E+01 0.00000E+00
 -1      1083 1.15650E+02 2.66180E+01 0.00000E+00
 -1      1084 1.18650E+02 2.66180E+01 0.00000E+00
 -1      1085 1.21650E+02 2.66180E+01 0.00000E+00
 -1      1086 1.24650E+02 2.66180E+01 0.00000E+00
 -1      1087 1.26900E+02 2.64482E+01 0.00000E+00
 -1      1088 2.66419E+01 1.96314E+01 0.00000E+00
 -1      1089 1.15035E+02 2.19796E+01 0.00000E+00
 -1      1090 1.12035E+02 2.19796E+01 0.00000E+00
 -1      1091 1.21035E+02 2.19796E+01 0.00000E+00
 -1      1092 1.24035E+02 2.19796E+01 0.00000E+00
 -1      1093 5.12001E+01 2.41898E+01 0.00000E+00
 -1      1094 2.86500E+01 2.66180E+01 0.00000E+00
 -1      1095 1.06035E+02 2.19796E+01 0.00000E+00
 -1      1096 3.16500E+01 2.66180E+01 0.00000E+00
 -1      1097 4.90350E+01 2.21922E+01 0.00000E+00
 -1      1098 1.09035E+02 2.19796E+01 0.00000E+00
 -1      1099 1.18035E+02 2.19796E+01 0.00000E+00
 -1      1100 3.46500E+01 2.66180E+01 0.00000E+00
 -1      1101 9.81185E+01 2.60589E+01 0.00000E+00
 -1      1102 4.60350E+01 2.21922E+01 0.00000E+00
 -1      1103 1.26285E+02 2.21463E+01 0.00000E+00
 -1      1104 9.86507E+01 2.38311E+01 0.00000E+00
 -1      1105 4.00350E+01 2.21922E+01 0.00000E+00
 -1      1106 1.00481E+02 2.18411E+01 0.00000E+00
 -1      1107 4.30350E+01 2.21922E+01 0.00000E+00
 -1      1108 3.55350E+01 1.95943E+01 0.00000E+00
 -1      1109 2.56680E+01 2.59678E+01 0.00000E+00
 -1      1110 2.43215E+01 2.31748E+01 0.00000E+00
 -1      1111 3.10350E+01 2.21923E+01 0.00000E+00
 -1      1112 9.81873E+01 2.15868E+01 0.00000E+00
 -1      1113 2.81419E+01 2.22294E+01 0.00000E+00
 -1      1114 1.16535E+02 2.45776E+01 0.00000E+00
 -1      1115 1.05150E+02 2.40200E+01 0.00000E+00
 -1      1116 1.20150E+02 2.40200E+01 0.00000E+00
 -1      1117 1.27105E+02 2.40207E+01 0.00000E+00
 -1      1118 3.70350E+01 2.21923E+01 0.00000E+00
 -1      1119 3.40350E+01 2.21923E+01 0.00000E+00
 -1      1120 3.61500E+01 2.40200E+01 0.00000E+00
 -1      1121 1.01900E+02 2.39255E+01 0.00000E+00
 -1      1122 0.00000E+00 4.85250E+01 0.00000E+00
 -1      1123 0.00000E+00 4.55750E+01 0.00000E+00
 -1      1124 0.00000E+00 4.26250E+01 0.00000E+00
 -1      1125 0.00000E+00 3.96750E+01 0.00000E+00
 -1      1126 0.00000E+00 3.67250E+01 0.00000E+00
 -1      1127 0.00000E+00 3.38000E+01 0.00000E+00
 -1      1128 0.00000E+00 3.08750E+01 0.00000E+00
 -1      1129 0.00000E+00 2.79250E+01 0.00000E+00
 -1      1130 0.00000E+00 2.49750E+01 0.00000E+00
 -1      1131 0.00000E+00 2.20250E+01 0.00000E+00
 -1      1132 0.00000E+00 1.90750E+01 0.00000E+00
 -1      1133 0.00000E+00 1.61500E+01 0.00000E+00
 -1      1134 0.00000E+00 1.32250E+01 0.00000E+00
 -1      1135 0.00000E+00 1.02750E+01 0.00000E+00
 -1      1136 0.00000E+00 7.32500E+00 0.00000E+00
 -1      1137 0.00000E+00 4.37500E+00 0.00000E+00
 -1      1138 0.00000E+00 1.45000E+00 0.00000E+00
 -1      1139 1.57500E+00 5.00000E+01 0.00000E+00
 -1      1140 4.65000E+00 5.00000E+01 0.00000E+00
 -1      1141 7.65000E+00 5.00000E+01 0.00000E+00
 -1      1142 1.06500E+01 5.00000E+01 0.00000E+00
 -1      1143 1.36500E+01 5.00000E+01 0.00000E+00
 -1      1144 1.66500E+01 5.00000E+01 0.00000E+00
 -1      1145 1.96500E+01 5.00000E+01 0.00000E+00
 -1      1146 2.26500E+01 5.00000E+01 0.00000E+00
 -1      1147 2.56500E+01 5.00000E+01 0.00000E+00
 -1      1148 2.86500E+01 5.00000E+01 0.00000E+00
 -1      1149 3.16500E+01 5.00000E+01 0.00000E+00
 -1      1150 3.46500E+01 5.00000E+01 0.00000E+00
 -1      1151 3.76500E+01 5.00000E+01 0.00000E+00
 -1      1152 4.06500E+01 5.00000E+01 0.00000E+00
 -1      1153 4.36500E+01 5.00000E+01 0.00000E+00
 -1      1154 4.66500E+01 5.00000E+01 0.00000E+00
 -1      1155 4.96500E+01 5.00000E+01 0.00000E+00
 -1      1156 5.26500E+01 5.00000E+01 0.00000E+00
 -1      1157 5.56500E+01 5.00000E+01 0.00000E+00
 -1      1158 5.86500E+01 5.00000E+01 0.00000E+00
 -1      1159 6.16500E+01 5.00000E+01 0.00000E+00
 -1      1160 6.46500E+01 5.00000E+01 0.00000E+00
 -1      1161 6.76500E+01 5.00000E+01 0.00000E+00
 -1      1162 7.06500E+01 5.00000E+01 0.00000E+00
 -1      1163 7.36500E+01 5.00000E+01 0.00000E+00
 -1      1164 7.66500E+01 5.00000E+01 0.00000E+00
 -1      1165 7.96500E+01 5.00000E+01 0.00000E+00
 -1      1166 8.26500E+01 5.00000E+01 0.00000E+00
 -1      1167 8.56500E+01 5.00000E+01 0.00000E+00
 -1      1168 8.86500E+01 5.00000E+01 0.00000E+00
 -1      1169 9.16500E+01 5.00000E+01 0.00000E+00
 -1      1170 9.46500E+01 5.00000E+01 0.00000E+00
 -1      1171 9.76500E+01 5.00000E+01 0.00000E+00
 -1      1172 1.00650E+02 5.00000E+01 0.00000E+00
 -1      1173 1.03650E+02 5.00000E+01 0.00000E+00
 -1      1174 1.06650E+02 5.00000E+01 0.00000E+00
 -1      1175 1.09650E+02 5.00000E+01 0.00000E+00
 -1      1176 1.12650E+02 5.00000E+01 0.00000E+00
 -1      1177 1.15650E+02 5.00000E+01 0.00000E+00
 -1      1178 1.18650E+02 5.00000E+01 0.00000E+00
 -1      1179 1.21650E+02 5.00000E+01 0.00000E+00
 -1      1180 1.24650E+02 5.00000E+01 0.00000E+00
 -1      1181 1.27650E+02 5.00000E+01 0.00000E+00
 -1      1182 1.30650E+02 5.00000E+01 0.00000E+00
 -1      1183 1.33650E+02 5.00000E+01 0.00000E+00
 -1      1184 1.36650E+02 5.00000E+01 0.00000E+00
 -1      1185 1.39650E+02 5.00000E+01 0.00000E+00
 -1      1186 1.42650E+02 5.00000E+01 0.00000E+00
 -1      1187 1.45650E+02 5.00000E+01 0.00000E+00
 -1      1188 1.48575E+02 5.00000E+01 0.00000E+00
 -1      1189 1.57500E+00 0.00000E+00 0.00000E+00
 -1      1190 4.65000E+00 0.00000E+00 0.00000E+00
 -1      1191 7.65000E+00 0.00000E+00 0.00000E+00
 -1      1192 1.06500E+01 0.00000E+00 0.00000E+00
 -1      1193 1.36500E+01 0.00000E+00 0.00000E+00
 -1      1194 1.66500E+01 0.00000E+00 0.00000E+00
 -1      1195 1.96500E+01 0.00000E+00 0.00000E+00
 -1      1196 2.26500E+01 0.00000E+00 0.00000E+00
 -1      1197 2.56500E+01 0.00000E+00 0.00000E+00
 -1      1198 2.86500E+01 0.00000E+00 0.00000E+00
 -1      1199 3.16500E+01 0.00000E+00 0.00000E+00
 -1      1200 3.46500E+01 0.00000E+00 0.00000E+00
 -1      1201 3.76500E+01 0.00000E+00 0.00000E+00
 -1      1202 4.06500E+01 0.00000E+00 0.00000E+00
 -1      1203 4.36500E+01 0.00000E+00 0.00000E+00
 -1      1204 4.66500E+01 0.00000E+00 0.00000E+00
 -1      1205 4.96500E+01 0.00000E+00 0.00000E+00
 -1      1206 5.26500E+01 0.00000E+00 0.00000E+00
 -1      1207 5.56500E+01 0.00000E+00 0.00000E+00
 -1      1208 5.86500E+01 0.00000E+00 0.00000E+00
 -1      1209 6.16500E+01 0.00000E+00 0.00000E+00
 -1      1210 6.46500E+01 0.00000E+00 0.00000E+00
 -1      1211 6.76500E+01 0.00000E+00 0.00000E+00
 -1      1212 7.06500E+01 0.00000E+00 0.00000E+00
 -1      1213 7.36500E+01 0.00000E+00 0.00000E+00
 -1      1214 7.66500E+01 0.00000E+00 0.00000E+00
 -1      1215 7.96500E+01 0.00000E+00 0.00000E+00
 -1      1216 8.26500E+01 0.00000E+00 0.00000E+00
 -1      1217 8.56500E+01 0.00000E+00 0.00000E+00
 -1      1218 8.86500E+01 0.00000E+00 0.00000E+00
 -1      1219 9.16500E+01 0.00000E+00 0.00000E+00
 -1      1220 9.46500E+01 0.00000E+00 0.00000E+00
 -1      1221 9.76500E+01 0.00000E+00 0.00000E+00
 -1      1222 1.00650E+02 0.00000E+00 0.00000E+00
 -1      1223 1.03650E+02 0.00000E+00 0.00000E+00
 -1      1224 1.06650E+02 0.00000E+00 0.00000E+00
 -1      1225 1.09650E+02 0.00000E+00 0.00000E+00
 -1      1226 1.12650E+02 0.00000E+00 0.00000E+00
 -1      1227 1.15650E+02 0.00000E+00 0.00000E+00
 -1      1228 1.18650E+02 0.00000E+00 0.00000E+00
 -1      1229 1.21650E+02 0.00000E+00 0.00000E+00
 -1      1230 1.24650E+02 0.00000E+00 0.00000E+00
 -1      1231 1.27650E+02 0.00000E+00 0.00000E+00
 -1      1232 1.30650E+02 0.00000E+00 0.00000E+00
 -1      1233 1.33650E+02 0.00000E+00 0.00000E+00
 -1      1234 1.36650E+02 0.00000E+00 0.00000E+00
 -1      1235 1.39650E+02 0.00000E+00 0.00000E+00
 -1      1236 1.42650E+02 0.00000E+00 0.00000E+00
 -1      1237 1.45650E+02 0.00000E+00 0.00000E+00
 -1      1238 1.48575E+02 0.00000E+00 0.00000E+00
 -1      1239 1.50000E+02 1.47500E+00 0.00000E+00
 -1      1240 1.50000E+02 4.42500E+00 0.00000E+00
 -1      1241 1.50000E+02 7.37500E+00 0.00000E+00
 -1      1242 1.50000E+02 1.03250E+01 0.00000E+00
 -1      1243 1.50000E+02 1.32750E+01 0.00000E+00
 -1      1244 1.50000E+02 1.62000E+01 0.00000E+00
 -1      1245 1.50000E+02 1.91250E+01 0.00000E+00
 -1      1246 1.50000E+02 2.20750E+01 0.00000E+00
 -1      1247 1.50000E+02 2.50250E+01 0.00000E+00
 -1      1248 1.50000E+02 2.79750E+01 0.00000E+00
 -1      1249 1.50000E+02 3.09250E+01 0.00000E+00
 -1      1250 1.50000E+02 3.38500E+01 0.00000E+00
 -1      1251 1.50000E+02 3.67750E+01 0.00000E+00
 -1      1252 1.50000E+02 3.97250E+01 0.00000E+00
 -1      1253 1.50000E+02 4.26750E+01 0.00000E+00
 -1      1254 1.50000E+02 4.56250E+01 0.00000E+00
 -1      1255 1.50000E+02 4.85500E+01 0.00000E+00
 -1      1256 8.08574E+01 2.62989E+01 0.00000E+00
 -1      1257 8.05686E+01 2.48993E+01 0.00000E+00
 -1      1258 7.99667E+01 2.35258E+01 0.00000E+00
 -1      1259 7.90501E+01 2.22727E+01 0.00000E+00
 -1      1260 7.79172E+01 2.12785E+01 0.00000E+00
 -1      1261 7.65717E+01 2.05390E+01 0.00000E+00
 -1      1262 7.51134E+01 2.01134E+01 0.00000E+00
 -1      1263 7.36253E+01 2.00114E+01 0.00000E+00
 -1      1264 7.21292E+01 2.02322E+01 0.00000E+00
 -1      1265 7.07605E+01 2.07464E+01 0.00000E+00
 -1      1266 6.95327E+01 2.15304E+01 0.00000E+00
 -1      1267 6.85115E+01 2.25300E+01 0.00000E+00
 -1      1268 6.76960E+01 2.37515E+01 0.00000E+00
 -1      1269 6.71541E+01 2.51134E+01 0.00000E+00
 -1      1270 6.69080E+01 2.65521E+01 0.00000E+00
 -1      1271 6.69749E+01 2.80723E+01 0.00000E+00
 -1      1272 6.73556E+01 2.95081E+01 0.00000E+00
 -1      1273 6.80204E+01 3.08154E+01 0.00000E+00
 -1      1274 6.89170E+01 3.19294E+01 0.00000E+00
 -1      1275 6.99866E+01 3.28147E+01 0.00000E+00
 -1      1276 7.12057E+01 3.34698E+01 0.00000E+00
 -1      1277 7.25355E+01 3.38733E+01 0.00000E+00
 -1      1278 7.39160E+01 3.40062E+01 0.00000E+00
 -1      1279 7.53141E+01 3.38606E+01 0.00000E+00
 -1      1280 7.66966E+01 3.34204E+01 0.00000E+00
 -1      1281 7.79481E+01 3.27123E+01 0.00000E+00
 -1      1282 7.90471E+01 3.17432E+01 0.00000E+00
 -1      1283 7.99307E+01 3.05488E+01 0.00000E+00
 -1      1284 8.05352E+01 2.92163E+01 0.00000E+00
 -1      1285 8.08525E+01 2.77609E+01 0.00000E+00
 -1      1286 1.57500E+00 4.85250E+01 0.00000E+00
 -1      1287 1.29900E+00 4.48375E+01 0.00000E+00
 -1      1288 1.29900E+00 4.63125E+01 0.00000E+00
 -1      1289 1.29900E+00 4.18875E+01 0.00000E+00
 -1      1290 1.29900E+00 4.33625E+01 0.00000E+00
 -1      1291 2.59800E+00 4.41000E+01 0.00000E+00
 -1      1292 1.29900E+00 3.89375E+01 0.00000E+00
 -1      1293 1.29900E+00 4.04125E+01 0.00000E+00
 -1      1294 2.59800E+00 4.11500E+01 0.00000E+00
 -1      1295 1.29900E+00 3.59875E+01 0.00000E+00
 -1      1296 1.29900E+00 3.74625E+01 0.00000E+00
 -1      1297 2.59800E+00 3.82000E+01 0.00000E+00
 -1      1298 1.29900E+00 3.30875E+01 0.00000E+00
 -1      1299 1.29900E+00 3.45375E+01 0.00000E+00
 -1      1300 2.59800E+00 3.52750E+01 0.00000E+00
 -1      1301 1.29900E+00 3.01375E+01 0.00000E+00
 -1      1302 1.29900E+00 3.16125E+01 0.00000E+00
 -1      1303 2.59800E+00 3.23500E+01 0.00000E+00
 -1      1304 1.29900E+00 2.71875E+01 0.00000E+00
 -1      1305 1.29900E+00 2.86625E+01 0.00000E+00
 -1      1306 2.59800E+00 2.94000E+01 0.00000E+00
 -1      1307 1.29900E+00 2.42375E+01 0.00000E+00
 -1      1308 1.29900E+00 2.57125E+01 0.00000E+00
 -1      1309 2.59800E+00 2.64500E+01 0.00000E+00
 -1      1310 1.29900E+00 2.12875E+01 0.00000E+00
 -1      1311 1.29900E+00 2.27625E+01 0.00000E+00
 -1      1312 2.59800E+00 2.35000E+01 0.00000E+00
 -1      1313 1.29900E+00 1.83375E+01 0.00000E+00
 -1      1314 1.29900E+00 1.98125E+01 0.00000E+00
 -1      1315 2.59800E+00 2.05500E+01 0.00000E+00
 -1      1316 1.29900E+00 1.54375E+01 0.00000E+00
 -1      1317 1.29900E+00 1.68875E+01 0.00000E+00
 -1      1318 2.59800E+00 1.76250E+01 0.00000E+00
 -1      1319 1.29900E+00 1.24875E+01 0.00000E+00
 -1      1320 1.29900E+00 1.39625E+01 0.00000E+00
 -1      1321 2.59800E+00 1.47000E+01 0.00000E+00
 -1      1322 1.29900E+00 9.53750E+00 0.00000E+00
 -1      1323 1.29900E+00 1.10125E+01 0.00000E+00
 -1      1324 2.59800E+00 1.17500E+01 0.00000E+00
 -1      1325 1.29900E+00 6.58750E+00 0.00000E+00
 -1      1326 1.29900E+00 8.06250E+00 0.00000E+00
 -1      1327 2.59800E+00 8.80000E+00 0.00000E+00
 -1      1328 1.29900E+00 3.63750E+00 0.00000E+00
 -1      1329 1.29900E+00 5.11250E+00 0.00000E+00
 -1      1330 2.59800E+00 5.85000E+00 0.00000E+00
 -1      1331 1.43700E+00 1.09375E+00 0.00000E+00
 -1      1332 1.43700E+00 2.54375E+00 0.00000E+00
 -1      1333 2.73600E+00 3.28125E+00 0.00000E+00
 -1      1334 3.01200E+00 1.09375E+00 0.00000E+00
 -1      1335 3.90000E+00 4.87010E+01 0.00000E+00
 -1      1336 5.40000E+00 4.87010E+01 0.00000E+00
 -1      1337 6.90000E+00 4.87010E+01 0.00000E+00
 -1      1338 8.40000E+00 4.87010E+01 0.00000E+00
 -1      1339 6.15000E+00 4.74020E+01 0.00000E+00
 -1      1340 9.90000E+00 4.87010E+01 0.00000E+00
 -1      1341 1.14000E+01 4.87010E+01 0.00000E+00
 -1      1342 9.15000E+00 4.74020E+01 0.00000E+00
 -1      1343 1.29000E+01 4.87010E+01 0.00000E+00
 -1      1344 1.44000E+01 4.87010E+01 0.00000E+00
 -1      1345 1.21500E+01 4.74020E+01 0.00000E+00
 -1      1346 1.59000E+01 4.87010E+01 0.00000E+00
 -1      1347 1.74000E+01 4.87010E+01 0.00000E+00
 -1      1348 1.51500E+01 4.74020E+01 0.00000E+00
 -1      1349 1.89000E+01 4.87010E+01 0.00000E+00
 -1      1350 2.04000E+01 4.87010E+01 0.00000E+00
 -1      1351 1.81500E+01 4.74020E+01 0.00000E+00
 -1      1352 2.19000E+01 4.87010E+01 0.00000E+00
 -1      1353 2.34000E+01 4.87010E+01 0.00000E+00
 -1      1354 2.11500E+01 4.74020E+01 0.00000E+00
 -1      1355 2.49000E+01 4.87010E+01 0.00000E+00
 -1      1356 2.64000E+01 4.87010E+01 0.00000E+00
 -1      1357 2.41500E+01 4.74020E+01 0.00000E+00
 -1      1358 2.79000E+01 4.87010E+01 0.00000E+00
 -1      1359 2.94000E+01 4.87010E+01 0.00000E+00
 -1      1360 2.71500E+01 4.74020E+01 0.00000E+00
 -1      1361 3.09000E+01 4.87010E+01 0.00000E+00
 -1      1362 3.24000E+01 4.87010E+01 0.00000E+00
 -1      1363 3.01500E+01 4.74020E+01 0.00000E+00
 -1      1364 3.39000E+01 4.87010E+01 0.00000E+00
 -1      1365 3.54000E+01 4.87010E+01 0.00000E+00
 -1      1366 3.31500E+01 4.74020E+01 0.00000E+00
 -1      1367 3.69000E+01 4.87010E+01 0.00000E+00
 -1      1368 3.84000E+01 4.87010E+01 0.00000E+00
 -1      1369 3.61500E+01 4.74020E+01 0.00000E+00
 -1      1370 3.99000E+01 4.87010E+01 0.00000E+00
 -1      1371 4.14000E+01 4.87010E+01 0.00000E+00
 -1      1372 3.91500E+01 4.74020E+01 0.00000E+00
 -1      1373 4.29000E+01 4.87010E+01 0.00000E+00
 -1      1374 4.44000E+01 4.87010E+01 0.00000E+00
 -1      1375 4.21500E+01 4.74020E+01 0.00000E+00
 -1      1376 4.59000E+01 4.87010E+01 0.00000E+00
 -1      1377 4.74000E+01 4.87010E+01 0.00000E+00
 -1      1378 4.51500E+01 4.74020E+01 0.00000E+00
 -1      1379 4.89000E+01 4.87010E+01 0.00000E+00
 -1      1380 5.04000E+01 4.87010E+01 0.00000E+00
 -1      1381 4.81500E+01 4.74020E+01 0.00000E+00
 -1      1382 5.19000E+01 4.87010E+01 0.00000E+00
 -1      1383 5.34000E+01 4.87010E+01 0.00000E+00
 -1      1384 5.11500E+01 4.74020E+01 0.00000E+00
 -1      1385 5.49000E+01 4.87010E+01 0.00000E+00
 -1      1386 5.64000E+01 4.87010E+01 0.00000E+00
 -1      1387 5.41500E+01 4.74020E+01 0.00000E+00
 -1      1388 5.79000E+01 4.87010E+01 0.00000E+00
 -1      1389 5.94000E+01 4.87010E+01 0.00000E+00
 -1      1390 5.71500E+01 4.74020E+01 0.00000E+00
 -1      1391 6.09000E+01 4.87010E+01 0.00000E+00
 -1      1392 6.24000E+01 4.87010E+01 0.00000E+00
 -1      1393 6.01500E+01 4.74020E+01 0.00000E+00
 -1      1394 6.39000E+01 4.87010E+01 0.00000E+00
 -1      1395 6.54000E+01 4.87010E+01 0.00000E+00
 -1      1396 6.31500E+01 4.74020E+01 0.00000E+00
 -1      1397 6.69000E+01 4.87010E+01 0.00000E+00
 -1      1398 6.84000E+01 4.87010E+01 0.00000E+00
 -1      1399 6.61500E+01 4.74020E+01 0.00000E+00
 -1      1400 6.99000E+01 4.87010E+01 0.00000E+00
 -1      1401 7.14000E+01 4.87010E+01 0.00000E+00
 -1      1402 6.91500E+01 4.74020E+01 0.00000E+00
 -1      1403 7.29000E+01 4.87010E+01 0.00000E+00
 -1      1404 7.44000E+01 4.87010E+01 0.00000E+00
 -1      1405 7.21500E+01 4.74020E+01 0.00000E+00
 -1      1406 7.59000E+01 4.87010E+01 0.00000E+00
 -1      1407 7.74000E+01 4.87010E+01 0.00000E+00
 -1      1408 7.51500E+01 4.74020E+01 0.00000E+00
 -1      1409 7.89000E+01 4.87010E+01 0.00000E+00
 -1      1410 8.04000E+01 4.87010E+01 0.00000E+00
 -1      1411 7.81500E+01 4.74020E+01 0.00000E+00
 -1      1412 8.19000E+01 4.87010E+01 0.00000E+00
 -1      1413 8.34000E+01 4.87010E+01 0.00000E+00
 -1      1414 8.11500E+01 4.74020E+01 0.00000E+00
 -1      1415 8.49000E+01 4.87010E+01 0.00000E+00
 -1      1416 8.64000E+01 4.87010E+01 0.00000E+00
 -1      1417 8.41500E+01 4.74020E+01 0.00000E+00
 -1      1418 8.79000E+01 4.87010E+01 0.00000E+00
 -1      1419 8.94000E+01 4.87010E+01 0.00000E+00
 -1      1420 8.71500E+01 4.74020E+01 0.00000E+00
 -1      1421 9.09000E+01 4.87010E+01 0.00000E+00
 -1      1422 9.24000E+01 4.87010E+01 0.00000E+00
 -1      1423 9.01500E+01 4.74020E+01 0.00000E+00
 -1      1424 9.39000E+01 4.87010E+01 0.00000E+00
 -1      1425 9.54000E+01 4.87010E+01 0.00000E+00
 -1      1426 9.31500E+01 4.74020E+01 0.00000E+00
 -1      1427 9.69000E+01 4.87010E+01 0.00000E+00
 -1      1428 9.84000E+01 4.87010E+01 0.00000E+00
 -1      1429 9.61500E+01 4.74020E+01 0.00000E+00
 -1      1430 9.99000E+01 4.87010E+01 0.00000E+00
 -1      1431 1.01400E+02 4.87010E+01 0.00000E+00
 -1      1432 9.91500E+01 4.74020E+01 0.00000E+00
 -1      1433 1.02900E+02 4.87010E+01 0.00000E+00
 -1      1434 1.04400E+02 4.87010E+01 0.00000E+00
 -1      1435 1.02150E+02 4.74020E+01 0.00000E+00
 -1      1436 1.05900E+02 4.87010E+01 0.00000E+00
 -1      1437 1.07400E+02 4.87010E+01 0.00000E+00
 -1      1438 1.05150E+02 4.74020E+01 0.00000E+00
 -1      1439 1.08900E+02 4.87010E+01 0.00000E+00
 -1      1440 1.10400E+02 4.87010E+01 0.00000E+00
 -1      1441 1.08150E+02 4.74020E+01 0.00000E+00
 -1      1442 1.11900E+02 4.87010E+01 0.00000E+00
 -1      1443 1.13400E+02 4.87010E+01 0.00000E+00
 -1      1444 1.11150E+02 4.74020E+01 0.00000E+00
 -1      1445 1.14900E+02 4.87010E+01 0.00000E+00
 -1      1446 1.16400E+02 4.87010E+01 0.00000E+00
 -1      1447 1.14150E+02 4.74020E+01 0.00000E+00
 -1      1448 1.17900E+02 4.87010E+01 0.00000E+00
 -1      1449 1.19400E+02 4.87010E+01 0.00000E+00
 -1      1450 1.17150E+02 4.74020E+01 0.00000E+00
 -1      1451 1.20900E+02 4.87010E+01 0.00000E+00
 -1      1452 1.22400E+02 4.87010E+01 0.00000E+00
 -1      1453 1.20150E+02 4.74020E+01 0.00000E+00
 -1      1454 1.23900E+02 4.87010E+01 0.00000E+00
 -1      1455 1.25400E+02 4.87010E+01 0.00000E+00
 -1      1456 1.23150E+02 4.74020E+01 0.00000E+00
 -1      1457 1.26900E+02 4.87010E+01 0.00000E+00
 -1      1458 1.28400E+02 4.87010E+01 0.00000E+00
 -1      1459 1.26150E+02 4.74020E+01 0.00000E+00
 -1      1460 1.29900E+02 4.87010E+01 0.00000E+00
 -1      1461 1.31400E+02 4.87010E+01 0.00000E+00
 -1      1462 1.29150E+02 4.74020E+01 0.00000E+00
 -1      1463 1.32900E+02 4.87010E+01 0.00000E+00
 -1      1464 1.34400E+02 4.87010E+01 0.00000E+00
 -1      1465 1.32150E+02 4.74020E+01 0.00000E+00
 -1      1466 1.35900E+02 4.87010E+01 0.00000E+00
 -1      1467 1.37400E+02 4.87010E+01 0.00000E+00
 -1      1468 1.35150E+02 4.74020E+01 0.00000E+00
 -1      1469 1.38900E+02 4.87010E+01 0.00000E+00
 -1      1470 1.40400E+02 4.87010E+01 0.00000E+00
 -1      1471 1.38150E+02 4.74020E+01 0.00000E+00
 -1      1472 1.41900E+02 4.87010E+01 0.00000E+00
 -1      1473 1.43400E+02 4.87010E+01 0.00000E+00
 -1      1474 1.41150E+02 4.74020E+01 0.00000E+00
 -1      1475 1.44900E+02 4.87010E+01 0.00000E+00
 -1      1476 1.46400E+02 4.87010E+01 0.00000E+00
 -1      1477 1.44150E+02 4.74020E+01 0.00000E+00
 -1      1478 1.48575E+02 4.85500E+01 0.00000E+00
 -1      1479 1.47825E+02 4.72510E+01 0.00000E+00
 -1      1480 6.01200E+00 1.09375E+00 0.00000E+00
 -1      1481 4.51200E+00 1.09375E+00 0.00000E+00
 -1      1482 4.37400E+00 2.18750E+00 0.00000E+00
 -1      1483 9.01200E+00 1.09375E+00 0.00000E+00
 -1      1484 7.51200E+00 1.09375E+00 0.00000E+00
 -1      1485 7.37400E+00 2.18750E+00 0.00000E+00
 -1      1486 1.20120E+01 1.09375E+00 0.00000E+00
 -1      1487 1.05120E+01 1.09375E+00 0.00000E+00
 -1      1488 1.03740E+01 2.18750E+00 0.00000E+00
 -1      1489 1.50120E+01 1.09375E+00 0.00000E+00
 -1      1490 1.35120E+01 1.09375E+00 0.00000E+00
 -1      1491 1.33740E+01 2.18750E+00 0.00000E+00
 -1      1492 1.80120E+01 1.09375E+00 0.00000E+00
 -1      1493 1.65120E+01 1.09375E+00 0.00000E+00
 -1      1494 1.63740E+01 2.18750E+00 0.00000E+00
 -1      1495 2.10120E+01 1.09375E+00 0.00000E+00
 -1      1496 1.95120E+01 1.09375E+00 0.00000E+00
 -1      1497 1.93740E+01 2.18750E+00 0.00000E+00
 -1      1498 2.40120E+01 1.09375E+00 0.00000E+00
 -1      1499 2.25120E+01 1.09375E+00 0.00000E+00
 -1      1500 2.23740E+01 2.18750E+00 0.00000E+00
 -1      1501 2.70120E+01 1.09375E+00 0.00000E+00
 -1      1502 2.55120E+01 1.09375E+00 0.00000E+00
 -1      1503 2.53740E+01 2.18750E+00 0.00000E+00
 -1      1504 3.00120E+01 1.09375E+00 0.00000E+00
 -1      1505 2.85120E+01 1.09375E+00 0.00000E+00
 -1      1506 2.83740E+01 2.18750E+00 0.00000E+00
 -1      1507 3.30120E+01 1.09375E+00 0.00000E+00
 -1      1508 3.15120E+01 1.09375E+00 0.00000E+00
 -1      1509 3.13740E+01 2.18750E+00 0.00000E+00
 -1      1510 3.60120E+01 1.09375E+00 0.00000E+00
 -1      1511 3.45120E+01 1.09375E+00 0.00000E+00
 -1      1512 3.43740E+01 2.18750E+00 0.00000E+00
 -1      1513 3.90120E+01 1.09375E+00 0.00000E+00
 -1      1514 3.75120E+01 1.09375E+00 0.00000E+00
 -1      1515 3.73740E+01 2.18750E+00 0.00000E+00
 -1      1516 4.20120E+01 1.09375E+00 0.00000E+00
 -1      1517 4.05120E+01 1.09375E+00 0.00000E+00
 -1      1518 4.03740E+01 2.18750E+00 0.00000E+00
 -1      1519 4.50120E+01 1.09375E+00 0.00000E+00
 -1      1520 4.35120E+01 1.09375E+00 0.00000E+00
 -1      1521 4.33740E+01 2.18750E+00 0.00000E+00
 -1      1522 4.80120E+01 1.09375E+00 0.00000E+00
 -1      1523 4.65120E+01 1.09375E+00 0.00000E+00
 -1      1524 4.63740E+01 2.18750E+00 0.00000E+00
 -1      1525 5.10120E+01 1.09375E+00 0.00000E+00
 -1      1526 4.95120E+01 1.09375E+00 0.00000E+00
 -1      1527 4.93740E+01 2.18750E+00 0.00000E+00
 -1      1528 5.40120E+01 1.09375E+00 0.00000E+00
 -1      1529 5.25120E+01 1.09375E+00 0.00000E+00
 -1      1530 5.23740E+01 2.18750E+00 0.00000E+00
 -1      1531 5.70120E+01 1.09375E+00 0.00000E+00
 -1      1532 5.55120E+01 1.09375E+00 0.00000E+00
 -1      1533 5.53740E+01 2.18750E+00 0.00000E+00
 -1      1534 6.00120E+01 1.09375E+00 0.00000E+00
 -1      1535 5.85120E+01 1.09375E+00 0.00000E+00
 -1      1536 5.83740E+01 2.18750E+00 0.00000E+00
 -1      1537 6.30120E+01 1.09375E+00 0.00000E+00
 -1      1538 6.15120E+01 1.09375E+00 0.00000E+00
 -1      1539 6.13740E+01 2.18750E+00 0.00000E+00
 -1      1540 6.60120E+01 1.09375E+00 0.00000E+00
 -1      1541 6.45120E+01 1.09375E+00 0.00000E+00
 -1      1542 6.43740E+01 2.18750E+00 0.00000E+00
 -1      1543 6.90120E+01 1.09375E+00 0.00000E+00
 -1      1544 6.75120E+01 1.09375E+00 0.00000E+00
 -1      1545 6.73740E+01 2.18750E+00 0.00000E+00
 -1      1546 7.20120E+01 1.09375E+00 0.00000E+00
 -1      1547 7.05120E+01 1.09375E+00 0.00000E+00
 -1      1548 7.03740E+01 2.18750E+00 0.00000E+00
 -1      1549 7.50120E+01 1.09375E+00 0.00000E+00
 -1      1550 7.35120E+01 1.09375E+00 0.00000E+00
 -1      1551 7.33740E+01 2.18750E+00 0.00000E+00
 -1      1552 7.80120E+01 1.09375E+00 0.00000E+00
 -1      1553 7.65120E+01 1.09375E+00 0.00000E+00
 -1      1554 7.63740E+01 2.18750E+00 0.00000E+00
 -1      1555 8.10120E+01 1.09375E+00 0.00000E+00
 -1      1556 7.95120E+01 1.09375E+00 0.00000E+00
 -1      1557 7.93740E+01 2.18750E+00 0.00000E+00
 -1      1558 8.40120E+01 1.09375E+00 0.00000E+00
 -1      1559 8.25120E+01 1.09375E+00 0.00000E+00
 -1      1560 8.23740E+01 2.18750E+00 0.00000E+00
 -1      1561 8.70120E+01 1.09375E+00 0.00000E+00
 -1      1562 8.55120E+01 1.09375E+00 0.00000E+00
 -1      1563 8.53740E+01 2.18750E+00 0.00000E+00
 -1      1564 9.00120E+01 1.09375E+00 0.00000E+00
 -1      1565 8.85120E+01 1.09375E+00 0.00000E+00
 -1      1566 8.83740E+01 2.18750E+00 0.00000E+00
 -1      1567 9.30120E+01 1.09375E+00 0.00000E+00
 -1      1568 9.15120E+01 1.09375E+00 0.00000E+00
 -1      1569 9.13740E+01 2.18750E+00 0.00000E+00
 -1      1570 9.60120E+01 1.09375E+00 0.00000E+00
 -1      1571 9.45120E+01 1.09375E+00 0.00000E+00
 -1      1572 9.43740E+01 2.18750E+00 0.00000E+00
 -1      1573 9.90120E+01 1.09375E+00 0.00000E+00
 -1      1574 9.75120E+01 1.09375E+00 0.00000E+00
 -1      1575 9.73740E+01 2.18750E+00 0.00000E+00
 -1      1576 1.02012E+02 1.09375E+00 0.00000E+00
 -1      1577 1.00512E+02 1.09375E+00 0.00000E+00
 -1      1578 1.00374E+02 2.18750E+00 0.00000E+00
 -1      1579 1.05012E+02 1.09375E+00 0.00000E+00
 -1      1580 1.03512E+02 1.09375E+00 0.00000E+00
 -1      1581 1.03374E+02 2.18750E+00 0.00000E+00
 -1      1582 1.08012E+02 1.09375E+00 0.00000E+00
 -1      1583 1.06512E+02 1.09375E+00 0.00000E+00
 -1      1584 1.06374E+02 2.18750E+00 0.00000E+00
 -1      1585 1.11012E+02 1.09375E+00 0.00000E+00
 -1      1586 1.09512E+02 1.09375E+00 0.00000E+00
 -1      1587 1.09374E+02 2.18750E+00 0.00000E+00
 -1      1588 1.14012E+02 1.09375E+00 0.00000E+00
 -1      1589 1.12512E+02 1.09375E+00 0.00000E+00
 -1      1590 1.12374E+02 2.18750E+00 0.00000E+00
 -1      1591 1.17012E+02 1.09375E+00 0.00000E+00
 -1      1592 1.15512E+02 1.09375E+00 0.00000E+00
 -1      1593 1.15374E+02 2.18750E+00 0.00000E+00
 -1      1594 1.20012E+02 1.09375E+00 0.00000E+00
 -1      1595 1.18512E+02 1.09375E+00 0.00000E+00
 -1      1596 1.18374E+02 2.18750E+00 0.00000E+00
 -1      1597 1.23012E+02 1.09375E+00 0.00000E+00
 -1      1598 1.21512E+02 1.09375E+00 0.00000E+00
 -1      1599 1.21374E+02 2.18750E+00 0.00000E+00
 -1      1600 1.26012E+02 1.09375E+00 0.00000E+00
 -1      1601 1.24512E+02 1.09375E+00 0.00000E+00
 -1      1602 1.24374E+02 2.18750E+00 0.00000E+00
 -1      1603 1.29012E+02 1.09375E+00 0.00000E+00
 -1      1604 1.27512E+02 1.09375E+00 0.00000E+00
 -1      1605 1.27374E+02 2.18750E+00 0.00000E+00
 -1      1606 1.32012E+02 1.09375E+00 0.00000E+00
 -1      1607 1.30512E+02 1.09375E+00 0.00000E+00
 -1      1608 1.30374E+02 2.18750E+00 0.00000E+00
 -1      1609 1.35012E+02 1.09375E+00 0.00000E+00
 -1      1610 1.33512E+02 1.09375E+00 0.00000E+00
 -1      1611 1.33374E+02 2.18750E+00 0.00000E+00
 -1      1612 1.38012E+02 1.09375E+00 0.00000E+00
 -1      1613 1.36512E+02 1.09375E+00 0.00000E+00
 -1      1614 1.36374E+02 2.18750E+00 0.00000E+00
 -1      1615 1.41012E+02 1.09375E+00 0.00000E+00
 -1      1616 1.39512E+02 1.09375E+00 0.00000E+00
 -1      1617 1.39374E+02 2.18750E+00 0.00000E+00
 -1      1618 1.44012E+02 1.09375E+00 0.00000E+00
 -1      1619 1.42512E+02 1.09375E+00 0.00000E+00
 -1      1620 1.42374E+02 2.18750E+00 0.00000E+00
 -1      1621 1.47012E+02 1.09375E+00 0.00000E+00
 -1      1622 1.45512E+02 1.09375E+00 0.00000E+00
 -1      1623 1.45374E+02 2.18750E+00 0.00000E+00
 -1      1624 1.48575E+02 1.47500E+00 0.00000E+00
 -1      1625 1.48701E+02 5.16250E+00 0.00000E+00
 -1      1626 1.48701E+02 3.68750E+00 0.00000E+00
 -1      1627 1.48701E+02 8.11250E+00 0.00000E+00
 -1      1628 1.48701E+02 6.63750E+00 0.00000E+00
 -1      1629 1.47402E+02 5.90000E+00 0.00000E+00
 -1      1630 1.48701E+02 1.10625E+01 0.00000E+00
 -1      1631 1.48701E+02 9.58750E+00 0.00000E+00
 -1      1632 1.47402E+02 8.85000E+00 0.00000E+00
 -1      1633 1.48701E+02 1.40125E+01 0.00000E+00
 -1      1634 1.48701E+02 1.25375E+01 0.00000E+00
 -1      1635 1.47402E+02 1.18000E+01 0.00000E+00
 -1      1636 1.48701E+02 1.69125E+01 0.00000E+00
 -1      1637 1.48701E+02 1.54625E+01 0.00000E+00
 -1      1638 1.47402E+02 1.47250E+01 0.00000E+00
 -1      1639 1.48701E+02 1.98625E+01 0.00000E+00
 -1      1640 1.48701E+02 1.83875E+01 0.00000E+00
 -1      1641 1.47402E+02 1.76500E+01 0.00000E+00
 -1      1642 1.48701E+02 2.28125E+01 0.00000E+00
 -1      1643 1.48701E+02 2.13375E+01 0.00000E+00
 -1      1644 1.47402E+02 2.06000E+01 0.00000E+00
 -1      1645 1.48701E+02 2.57625E+01 0.00000E+00
 -1      1646 1.48701E+02 2.42875E+01 0.00000E+00
 -1      1647 1.47402E+02 2.35500E+01 0.00000E+00
 -1      1648 1.48701E+02 2.87125E+01 0.00000E+00
 -1      1649 1.48701E+02 2.72375E+01 0.00000E+00
 -1      1650 1.47402E+02 2.65000E+01 0.00000E+00
 -1      1651 1.48701E+02 3.16625E+01 0.00000E+00
 -1      1652 1.48701E+02 3.01875E+01 0.00000E+00
 -1      1653 1.47402E+02 2.94500E+01 0.00000E+00
 -1      1654 1.48701E+02 3.45625E+01 0.00000E+00
 -1      1655 1.48701E+02 3.31125E+01 0.00000E+00
 -1      1656 1.47402E+02 3.23750E+01 0.00000E+00
 -1      1657 1.48701E+02 3.75125E+01 0.00000E+00
 -1      1658 1.48701E+02 3.60375E+01 0.00000E+00
 -1      1659 1.47402E+02 3.53000E+01 0.00000E+00
 -1      1660 1.48701E+02 4.04625E+01 0.00000E+00
 -1      1661 1.48701E+02 3.89875E+01 0.00000E+00
 -1      1662 1.47402E+02 3.82500E+01 0.00000E+00
 -1      1663 1.48701E+02 4.34125E+01 0.00000E+00
 -1      1664 1.48701E+02 4.19375E+01 0.00000E+00
 -1      1665 1.47402E+02 4.12000E+01 0.00000E+00
 -1      1666 1.48263E+02 4.60692E+01 0.00000E+00
 -1      1667 1.48263E+02 4.45942E+01 0.00000E+00
 -1      1668 1.46964E+02 4.38568E+01 0.00000E+00
 -1      1669 1.46088E+02 4.62202E+01 0.00000E+00
 -1      1670 8.13891E+01 2.58895E+01 0.00000E+00
 -1      1671 8.14606E+01 2.65932E+01 0.00000E+00
 -1      1672 8.10025E+01 2.43839E+01 0.00000E+00
 -1      1673 8.12198E+01 2.50722E+01 0.00000E+00
 -1      1674 8.03343E+01 2.28668E+01 0.00000E+00
 -1      1675 8.07211E+01 2.35417E+01 0.00000E+00
 -1      1676 7.92031E+01 2.16065E+01 0.00000E+00
 -1      1677 7.97270E+01 2.21772E+01 0.00000E+00
 -1      1678 7.79439E+01 2.06033E+01 0.00000E+00
 -1      1679 7.85433E+01 2.10245E+01 0.00000E+00
 -1      1680 7.64472E+01 1.97906E+01 0.00000E+00
 -1      1681 7.71889E+01 2.00978E+01 0.00000E+00
 -1      1682 7.48600E+01 1.94903E+01 0.00000E+00
 -1      1683 7.55654E+01 1.96151E+01 0.00000E+00
 -1      1684 7.32131E+01 1.93798E+01 0.00000E+00
 -1      1685 7.39879E+01 1.93501E+01 0.00000E+00
 -1      1686 7.16297E+01 1.97761E+01 0.00000E+00
 -1      1687 7.23428E+01 1.95903E+01 0.00000E+00
 -1      1688 7.01631E+01 2.03628E+01 0.00000E+00
 -1      1689 7.08116E+01 2.00383E+01 0.00000E+00
 -1      1690 6.88928E+01 2.13140E+01 0.00000E+00
 -1      1691 6.94651E+01 2.08583E+01 0.00000E+00
 -1      1692 6.78492E+01 2.24328E+01 0.00000E+00
 -1      1693 6.82952E+01 2.18965E+01 0.00000E+00
 -1      1694 6.69436E+01 2.37918E+01 0.00000E+00
 -1      1695 6.73021E+01 2.31091E+01 0.00000E+00
 -1      1696 6.65098E+01 2.52932E+01 0.00000E+00
 -1      1697 6.66976E+01 2.46244E+01 0.00000E+00
 -1      1698 6.62783E+01 2.68944E+01 0.00000E+00
 -1      1699 6.63279E+01 2.61311E+01 0.00000E+00
 -1      1700 6.64739E+01 2.85323E+01 0.00000E+00
 -1      1701 6.63587E+01 2.77844E+01 0.00000E+00
 -1      1702 6.69161E+01 3.00664E+01 0.00000E+00
 -1      1703 6.66556E+01 2.93858E+01 0.00000E+00
 -1      1704 6.76398E+01 3.15020E+01 0.00000E+00
 -1      1705 6.72383E+01 3.08829E+01 0.00000E+00
 -1      1706 6.87538E+01 3.25776E+01 0.00000E+00
 -1      1707 6.82671E+01 3.20856E+01 0.00000E+00
 -1      1708 6.99331E+01 3.35180E+01 0.00000E+00
 -1      1709 6.93553E+01 3.31293E+01 0.00000E+00
 -1      1710 7.13034E+01 3.41303E+01 0.00000E+00
 -1      1711 7.06684E+01 3.38662E+01 0.00000E+00
 -1      1712 7.27691E+01 3.45015E+01 0.00000E+00
 -1      1713 7.20804E+01 3.43653E+01 0.00000E+00
 -1      1714 7.42603E+01 3.45777E+01 0.00000E+00
 -1      1715 7.35754E+01 3.45800E+01 0.00000E+00
 -1      1716 7.57909E+01 3.43856E+01 0.00000E+00
 -1      1717 7.50852E+01 3.45319E+01 0.00000E+00
 -1      1718 7.72585E+01 3.37947E+01 0.00000E+00
 -1      1719 7.65895E+01 3.40871E+01 0.00000E+00
 -1      1720 7.85670E+01 3.29721E+01 0.00000E+00
 -1      1721 7.79899E+01 3.33822E+01 0.00000E+00
 -1      1722 7.97811E+01 3.19035E+01 0.00000E+00
 -1      1723 7.92686E+01 3.24611E+01 0.00000E+00
 -1      1724 8.06412E+01 3.05435E+01 0.00000E+00
 -1      1725 8.02726E+01 3.11717E+01 0.00000E+00
 -1      1726 8.11897E+01 2.90468E+01 0.00000E+00
 -1      1727 8.09577E+01 2.97441E+01 0.00000E+00
 -1      1728 8.15386E+01 2.74558E+01 0.00000E+00
 -1      1729 8.14572E+01 2.82060E+01 0.00000E+00
 -1      1730 7.92518E+01 2.08999E+01 0.00000E+00
 -1      1731 8.05190E+01 2.21716E+01 0.00000E+00
 -1      1732 1.48437E+02 2.56875E+00 0.00000E+00
 -1      1733 1.47138E+02 3.30625E+00 0.00000E+00
 -1      1734 8.18586E+01 2.53628E+01 0.00000E+00
 -1      1735 8.14078E+01 2.37034E+01 0.00000E+00
 -1      1736 8.21059E+01 2.70427E+01 0.00000E+00
 -1      1737 7.78371E+01 1.98123E+01 0.00000E+00
 -1      1738 7.62002E+01 1.91312E+01 0.00000E+00
 -1      1739 7.44462E+01 1.88156E+01 0.00000E+00
 -1      1740 7.27038E+01 1.88860E+01 0.00000E+00
 -1      1741 7.10154E+01 1.93588E+01 0.00000E+00
 -1      1742 6.94993E+01 2.01164E+01 0.00000E+00
 -1      1743 6.82038E+01 2.11945E+01 0.00000E+00
 -1      1744 6.70591E+01 2.24533E+01 0.00000E+00
 -1      1745 6.62660E+01 2.39622E+01 0.00000E+00
 -1      1746 6.58382E+01 2.56328E+01 0.00000E+00
 -1      1747 6.57368E+01 2.73607E+01 0.00000E+00
 -1      1748 6.59989E+01 2.91042E+01 0.00000E+00
 -1      1749 6.65028E+01 3.07742E+01 0.00000E+00
 -1      1750 6.74523E+01 3.21743E+01 0.00000E+00
 -1      1751 6.86810E+01 3.33097E+01 0.00000E+00
 -1      1752 7.00178E+01 3.42097E+01 0.00000E+00
 -1      1753 7.15301E+01 3.47930E+01 0.00000E+00
 -1      1754 7.31135E+01 3.51066E+01 0.00000E+00
 -1      1755 7.47447E+01 3.51392E+01 0.00000E+00
 -1      1756 7.63682E+01 3.47949E+01 0.00000E+00
 -1      1757 7.78982E+01 3.40838E+01 0.00000E+00
 -1      1758 7.93312E+01 3.31602E+01 0.00000E+00
 -1      1759 8.05243E+01 3.19174E+01 0.00000E+00
 -1      1760 8.13324E+01 3.03862E+01 0.00000E+00
 -1      1761 8.19164E+01 2.87461E+01 0.00000E+00
 -1      1762 2.87400E+00 4.77875E+01 0.00000E+00
 -1      1763 3.89700E+00 4.04125E+01 0.00000E+00
 -1      1764 3.89700E+00 4.18875E+01 0.00000E+00
 -1      1765 3.89700E+00 4.33625E+01 0.00000E+00
 -1      1766 3.89700E+00 4.48375E+01 0.00000E+00
 -1      1767 5.19600E+00 4.26250E+01 0.00000E+00
 -1      1768 3.89700E+00 3.45500E+01 0.00000E+00
 -1      1769 3.89700E+00 3.60000E+01 0.00000E+00
 -1      1770 3.89700E+00 3.16000E+01 0.00000E+00
 -1      1771 3.89700E+00 3.30750E+01 0.00000E+00
 -1      1772 5.19600E+00 3.38000E+01 0.00000E+00
 -1      1773 3.89700E+00 2.86500E+01 0.00000E+00
 -1      1774 3.89700E+00 3.01250E+01 0.00000E+00
 -1      1775 5.19600E+00 3.08500E+01 0.00000E+00
 -1      1776 3.89700E+00 2.57000E+01 0.00000E+00
 -1      1777 3.89700E+00 2.71750E+01 0.00000E+00
 -1      1778 5.19600E+00 2.79000E+01 0.00000E+00
 -1      1779 3.89700E+00 2.27500E+01 0.00000E+00
 -1      1780 3.89700E+00 2.42250E+01 0.00000E+00
 -1      1781 5.19600E+00 2.49500E+01 0.00000E+00
 -1      1782 3.89700E+00 1.98000E+01 0.00000E+00
 -1      1783 3.89700E+00 2.12750E+01 0.00000E+00
 -1      1784 5.19600E+00 2.20000E+01 0.00000E+00
 -1      1785 3.89700E+00 1.69000E+01 0.00000E+00
 -1      1786 3.89700E+00 1.83500E+01 0.00000E+00
 -1      1787 5.19600E+00 1.90750E+01 0.00000E+00
 -1      1788 3.89700E+00 1.39500E+01 0.00000E+00
 -1      1789 3.89700E+00 1.54250E+01 0.00000E+00
 -1      1790 5.19600E+00 1.61500E+01 0.00000E+00
 -1      1791 3.89700E+00 1.10000E+01 0.00000E+00
 -1      1792 3.89700E+00 1.24750E+01 0.00000E+00
 -1      1793 5.19600E+00 1.32000E+01 0.00000E+00
 -1      1794 3.89700E+00 8.05000E+00 0.00000E+00
 -1      1795 3.89700E+00 9.52500E+00 0.00000E+00
 -1      1796 5.19600E+00 1.02500E+01 0.00000E+00
 -1      1797 3.89700E+00 5.10000E+00 0.00000E+00
 -1      1798 3.89700E+00 6.57500E+00 0.00000E+00
 -1      1799 5.19600E+00 7.30000E+00 0.00000E+00
 -1      1800 4.20450E+00 3.09687E+00 0.00000E+00
 -1      1801 4.06650E+00 4.19063E+00 0.00000E+00
 -1      1802 5.36550E+00 4.91563E+00 0.00000E+00
 -1      1803 5.70450E+00 3.09687E+00 0.00000E+00
 -1      1804 3.62400E+00 4.64885E+01 0.00000E+00
 -1      1805 8.70450E+00 3.09687E+00 0.00000E+00
 -1      1806 7.20450E+00 3.09687E+00 0.00000E+00
 -1      1807 7.03500E+00 4.00625E+00 0.00000E+00
 -1      1808 4.92300E+00 4.57510E+01 0.00000E+00
 -1      1809 8.40000E+00 4.61030E+01 0.00000E+00
 -1      1810 9.90000E+00 4.61030E+01 0.00000E+00
 -1      1811 1.14000E+01 4.61030E+01 0.00000E+00
 -1      1812 1.29000E+01 4.61030E+01 0.00000E+00
 -1      1813 1.06500E+01 4.48040E+01 0.00000E+00
 -1      1814 1.44000E+01 4.61030E+01 0.00000E+00
 -1      1815 1.59000E+01 4.61030E+01 0.00000E+00
 -1      1816 1.36500E+01 4.48040E+01 0.00000E+00
 -1      1817 1.74000E+01 4.61030E+01 0.00000E+00
 -1      1818 1.89000E+01 4.61030E+01 0.00000E+00
 -1      1819 1.66500E+01 4.48040E+01 0.00000E+00
 -1      1820 2.04000E+01 4.61030E+01 0.00000E+00
 -1      1821 2.19000E+01 4.61030E+01 0.00000E+00
 -1      1822 1.96500E+01 4.48040E+01 0.00000E+00
 -1      1823 2.34000E+01 4.61030E+01 0.00000E+00
 -1      1824 2.49000E+01 4.61030E+01 0.00000E+00
 -1      1825 2.26500E+01 4.48040E+01 0.00000E+00
 -1      1826 2.64000E+01 4.61030E+01 0.00000E+00
 -1      1827 2.79000E+01 4.61030E+01 0.00000E+00
 -1      1828 2.56500E+01 4.48040E+01 0.00000E+00
 -1      1829 2.94000E+01 4.61030E+01 0.00000E+00
 -1      1830 3.09000E+01 4.61030E+01 0.00000E+00
 -1      1831 2.86500E+01 4.48040E+01 0.00000E+00
 -1      1832 3.24000E+01 4.61030E+01 0.00000E+00
 -1      1833 3.39000E+01 4.61030E+01 0.00000E+00
 -1      1834 3.16500E+01 4.48040E+01 0.00000E+00
 -1      1835 3.54000E+01 4.61030E+01 0.00000E+00
 -1      1836 3.69000E+01 4.61030E+01 0.00000E+00
 -1      1837 3.46500E+01 4.48040E+01 0.00000E+00
 -1      1838 3.84000E+01 4.61030E+01 0.00000E+00
 -1      1839 3.99000E+01 4.61030E+01 0.00000E+00
 -1      1840 3.76500E+01 4.48040E+01 0.00000E+00
 -1      1841 4.14000E+01 4.61030E+01 0.00000E+00
 -1      1842 4.29000E+01 4.61030E+01 0.00000E+00
 -1      1843 4.06500E+01 4.48040E+01 0.00000E+00
 -1      1844 4.44000E+01 4.61030E+01 0.00000E+00
 -1      1845 4.59000E+01 4.61030E+01 0.00000E+00
 -1      1846 4.36500E+01 4.48040E+01 0.00000E+00
 -1      1847 4.74000E+01 4.61030E+01 0.00000E+00
 -1      1848 4.89000E+01 4.61030E+01 0.00000E+00
 -1      1849 4.66500E+01 4.48040E+01 0.00000E+00
 -1      1850 5.04000E+01 4.61030E+01 0.00000E+00
 -1      1851 5.19000E+01 4.61030E+01 0.00000E+00
 -1      1852 4.96500E+01 4.48040E+01 0.00000E+00
 -1      1853 5.34000E+01 4.61030E+01 0.00000E+00
 -1      1854 5.49000E+01 4.61030E+01 0.00000E+00
 -1      1855 5.26500E+01 4.48040E+01 0.00000E+00
 -1      1856 5.64000E+01 4.61030E+01 0.00000E+00
 -1      1857 5.79000E+01 4.61030E+01 0.00000E+00
 -1      1858 5.56500E+01 4.48040E+01 0.00000E+00
 -1      1859 5.94000E+01 4.61030E+01 0.00000E+00
 -1      1860 6.09000E+01 4.61030E+01 0.00000E+00
 -1      1861 5.86500E+01 4.48040E+01 0.00000E+00
 -1      1862 6.24000E+01 4.61030E+01 0.00000E+00
 -1      1863 6.39000E+01 4.61030E+01 0.00000E+00
 -1      1864 6.16500E+01 4.48040E+01 0.00000E+00
 -1      1865 6.54000E+01 4.61030E+01 0.00000E+00
 -1      1866 6.69000E+01 4.61030E+01 0.00000E+00
 -1      1867 6.46500E+01 4.48040E+01 0.00000E+00
 -1      1868 6.84000E+01 4.61030E+01 0.00000E+00
 -1      1869 6.99000E+01 4.61030E+01 0.00000E+00
 -1      1870 6.76500E+01 4.48040E+01 0.00000E+00
 -1      1871 7.14000E+01 4.61030E+01 0.00000E+00
 -1      1872 7.29000E+01 4.61030E+01 0.00000E+00
 -1      1873 7.06500E+01 4.48040E+01 0.00000E+00
 -1      1874 7.44000E+01 4.61030E+01 0.00000E+00
 -1      1875 7.59000E+01 4.61030E+01 0.00000E+00
 -1      1876 7.36500E+01 4.48040E+01 0.00000E+00
 -1      1877 7.74000E+01 4.61030E+01 0.00000E+00
 -1      1878 7.89000E+01 4.61030E+01 0.00000E+00
 -1      1879 7.66500E+01 4.48040E+01 0.00000E+00
 -1      1880 8.04000E+01 4.61030E+01 0.00000E+00
 -1      1881 8.19000E+01 4.61030E+01 0.00000E+00
 -1      1882 7.96500E+01 4.48040E+01 0.00000E+00
 -1      1883 8.34000E+01 4.61030E+01 0.00000E+00
 -1      1884 8.49000E+01 4.61030E+01 0.00000E+00
 -1      1885 8.26500E+01 4.48040E+01 0.00000E+00
 -1      1886 8.64000E+01 4.61030E+01 0.00000E+00
 -1      1887 8.79000E+01 4.61030E+01 0.00000E+00
 -1      1888 8.56500E+01 4.48040E+01 0.00000E+00
 -1      1889 8.94000E+01 4.61030E+01 0.00000E+00
 -1      1890 9.09000E+01 4.61030E+01 0.00000E+00
 -1      1891 8.86500E+01 4.48040E+01 0.00000E+00
 -1      1892 9.24000E+01 4.61030E+01 0.00000E+00
 -1      1893 9.39000E+01 4.61030E+01 0.00000E+00
 -1      1894 9.16500E+01 4.48040E+01 0.00000E+00
 -1      1895 9.54000E+01 4.61030E+01 0.00000E+00
 -1      1896 9.69000E+01 4.61030E+01 0.00000E+00
 -1      1897 9.46500E+01 4.48040E+01 0.00000E+00
 -1      1898 9.84000E+01 4.61030E+01 0.00000E+00
 -1      1899 9.99000E+01 4.61030E+01 0.00000E+00
 -1      1900 9.76500E+01 4.48040E+01 0.00000E+00
 -1      1901 1.01400E+02 4.61030E+01 0.00000E+00
 -1      1902 1.02900E+02 4.61030E+01 0.00000E+00
 -1      1903 1.00650E+02 4.48040E+01 0.00000E+00
 -1      1904 1.04400E+02 4.61030E+01 0.00000E+00
 -1      1905 1.05900E+02 4.61030E+01 0.00000E+00
 -1      1906 1.03650E+02 4.48040E+01 0.00000E+00
 -1      1907 1.07400E+02 4.61030E+01 0.00000E+00
 -1      1908 1.08900E+02 4.61030E+01 0.00000E+00
 -1      1909 1.06650E+02 4.48040E+01 0.00000E+00
 -1      1910 1.10400E+02 4.61030E+01 0.00000E+00
 -1      1911 1.11900E+02 4.61030E+01 0.00000E+00
 -1      1912 1.09650E+02 4.48040E+01 0.00000E+00
 -1      1913 1.13400E+02 4.61030E+01 0.00000E+00
 -1      1914 1.14900E+02 4.61030E+01 0.00000E+00
 -1      1915 1.12650E+02 4.48040E+01 0.00000E+00
 -1      1916 1.16400E+02 4.61030E+01 0.00000E+00
 -1      1917 1.17900E+02 4.61030E+01 0.00000E+00
 -1      1918 1.15650E+02 4.48040E+01 0.00000E+00
 -1      1919 1.19400E+02 4.61030E+01 0.00000E+00
 -1      1920 1.20900E+02 4.61030E+01 0.00000E+00
 -1      1921 1.18650E+02 4.48040E+01 0.00000E+00
 -1      1922 1.22400E+02 4.61030E+01 0.00000E+00
 -1      1923 1.23900E+02 4.61030E+01 0.00000E+00
 -1      1924 1.21650E+02 4.48040E+01 0.00000E+00
 -1      1925 1.25400E+02 4.61030E+01 0.00000E+00
 -1      1926 1.26900E+02 4.61030E+01 0.00000E+00
 -1      1927 1.24650E+02 4.48040E+01 0.00000E+00
 -1      1928 1.28400E+02 4.61030E+01 0.00000E+00
 -1      1929 1.29900E+02 4.61030E+01 0.00000E+00
 -1      1930 1.27650E+02 4.48040E+01 0.00000E+00
 -1      1931 1.31400E+02 4.61030E+01 0.00000E+00
 -1      1932 1.32900E+02 4.61030E+01 0.00000E+00
 -1      1933 1.30650E+02 4.48040E+01 0.00000E+00
 -1      1934 1.34400E+02 4.61030E+01 0.00000E+00
 -1      1935 1.35900E+02 4.61030E+01 0.00000E+00
 -1      1936 1.33650E+02 4.48040E+01 0.00000E+00
 -1      1937 1.37400E+02 4.61030E+01 0.00000E+00
 -1      1938 1.38900E+02 4.61030E+01 0.00000E+00
 -1      1939 1.36650E+02 4.48040E+01 0.00000E+00
 -1      1940 1.40400E+02 4.61030E+01 0.00000E+00
 -1      1941 1.41900E+02 4.61030E+01 0.00000E+00
 -1      1942 1.39650E+02 4.48040E+01 0.00000E+00
 -1      1943 1.43244E+02 4.61616E+01 0.00000E+00
 -1      1944 1.44744E+02 4.61616E+01 0.00000E+00
 -1      1945 1.45182E+02 4.49799E+01 0.00000E+00
 -1      1946 1.42494E+02 4.48626E+01 0.00000E+00
 -1      1947 1.17045E+01 3.09687E+00 0.00000E+00
 -1      1948 1.02045E+01 3.09687E+00 0.00000E+00
 -1      1949 1.00350E+01 4.00625E+00 0.00000E+00
 -1      1950 1.47045E+01 3.09687E+00 0.00000E+00
 -1      1951 1.32045E+01 3.09687E+00 0.00000E+00
 -1      1952 1.30350E+01 4.00625E+00 0.00000E+00
 -1      1953 1.77045E+01 3.09687E+00 0.00000E+00
 -1      1954 1.62045E+01 3.09687E+00 0.00000E+00
 -1      1955 1.60350E+01 4.00625E+00 0.00000E+00
 -1      1956 2.07045E+01 3.09687E+00 0.00000E+00
 -1      1957 1.92045E+01 3.09687E+00 0.00000E+00
 -1      1958 1.90350E+01 4.00625E+00 0.00000E+00
 -1      1959 2.37045E+01 3.09687E+00 0.00000E+00
 -1      1960 2.22045E+01 3.09687E+00 0.00000E+00
 -1      1961 2.20350E+01 4.00625E+00 0.00000E+00
 -1      1962 2.67045E+01 3.09687E+00 0.00000E+00
 -1      1963 2.52045E+01 3.09687E+00 0.00000E+00
 -1      1964 2.50350E+01 4.00625E+00 0.00000E+00
 -1      1965 2.97045E+01 3.09687E+00 0.00000E+00
 -1      1966 2.82045E+01 3.09687E+00 0.00000E+00
 -1      1967 2.80350E+01 4.00625E+00 0.00000E+00
 -1      1968 3.27045E+01 3.09687E+00 0.00000E+00
 -1      1969 3.12045E+01 3.09687E+00 0.00000E+00
 -1      1970 3.10350E+01 4.00625E+00 0.00000E+00
 -1      1971 3.57045E+01 3.09687E+00 0.00000E+00
 -1      1972 3.42045E+01 3.09687E+00 0.00000E+00
 -1      1973 3.40350E+01 4.00625E+00 0.00000E+00
 -1      1974 3.87045E+01 3.09687E+00 0.00000E+00
 -1      1975 3.72045E+01 3.09687E+00 0.00000E+00
 -1      1976 3.70350E+01 4.00625E+00 0.00000E+00
 -1      1977 4.17045E+01 3.09687E+00 0.00000E+00
 -1      1978 4.02045E+01 3.09687E+00 0.00000E+00
 -1      1979 4.00350E+01 4.00625E+00 0.00000E+00
 -1      1980 4.47045E+01 3.09687E+00 0.00000E+00
 -1      1981 4.32045E+01 3.09687E+00 0.00000E+00
 -1      1982 4.30350E+01 4.00625E+00 0.00000E+00
 -1      1983 4.77045E+01 3.09687E+00 0.00000E+00
 -1      1984 4.62045E+01 3.09687E+00 0.00000E+00
 -1      1985 4.60350E+01 4.00625E+00 0.00000E+00
 -1      1986 5.07045E+01 3.09687E+00 0.00000E+00
 -1      1987 4.92045E+01 3.09687E+00 0.00000E+00
 -1      1988 4.90350E+01 4.00625E+00 0.00000E+00
 -1      1989 5.37045E+01 3.09687E+00 0.00000E+00
 -1      1990 5.22045E+01 3.09687E+00 0.00000E+00
 -1      1991 5.20350E+01 4.00625E+00 0.00000E+00
 -1      1992 5.67045E+01 3.09687E+00 0.00000E+00
 -1      1993 5.52045E+01 3.09687E+00 0.00000E+00
 -1      1994 5.50350E+01 4.00625E+00 0.00000E+00
 -1      1995 5.97045E+01 3.09687E+00 0.00000E+00
 -1      1996 5.82045E+01 3.09687E+00 0.00000E+00
 -1      1997 5.80350E+01 4.00625E+00 0.00000E+00
 -1      1998 6.27045E+01 3.09687E+00 0.00000E+00
 -1      1999 6.12045E+01 3.09687E+00 0.00000E+00
 -1      2000 6.10350E+01 4.00625E+00 0.00000E+00
 -1      2001 6.57045E+01 3.09687E+00 0.00000E+00
 -1      2002 6.42045E+01 3.09687E+00 0.00000E+00
 -1      2003 6.40350E+01 4.00625E+00 0.00000E+00
 -1      2004 6.87045E+01 3.09687E+00 0.00000E+00
 -1      2005 6.72045E+01 3.09687E+00 0.00000E+00
 -1      2006 6.70350E+01 4.00625E+00 0.00000E+00
 -1      2007 7.17045E+01 3.09687E+00 0.00000E+00
 -1      2008 7.02045E+01 3.09687E+00 0.00000E+00
 -1      2009 7.00350E+01 4.00625E+00 0.00000E+00
 -1      2010 7.47045E+01 3.09687E+00 0.00000E+00
 -1      2011 7.32045E+01 3.09687E+00 0.00000E+00
 -1      2012 7.30350E+01 4.00625E+00 0.00000E+00
 -1      2013 7.77045E+01 3.09687E+00 0.00000E+00
 -1      2014 7.62045E+01 3.09687E+00 0.00000E+00
 -1      2015 7.60350E+01 4.00625E+00 0.00000E+00
 -1      2016 8.07045E+01 3.09687E+00 0.00000E+00
 -1      2017 7.92045E+01 3.09687E+00 0.00000E+00
 -1      2018 7.90350E+01 4.00625E+00 0.00000E+00
 -1      2019 8.37045E+01 3.09687E+00 0.00000E+00
 -1      2020 8.22045E+01 3.09687E+00 0.00000E+00
 -1      2021 8.20350E+01 4.00625E+00 0.00000E+00
 -1      2022 8.67045E+01 3.09687E+00 0.00000E+00
 -1      2023 8.52045E+01 3.09687E+00 0.00000E+00
 -1      2024 8.50350E+01 4.00625E+00 0.00000E+00
 -1      2025 8.97045E+01 3.09687E+00 0.00000E+00
 -1      2026 8.82045E+01 3.09687E+00 0.00000E+00
 -1      2027 8.80350E+01 4.00625E+00 0.00000E+00
 -1      2028 9.27045E+01 3.09687E+00 0.00000E+00
 -1      2029 9.12045E+01 3.09687E+00 0.00000E+00
 -1      2030 9.10350E+01 4.00625E+00 0.00000E+00
 -1      2031 9.57045E+01 3.09687E+00 0.00000E+00
 -1      2032 9.42045E+01 3.09687E+00 0.00000E+00
 -1      2033 9.40350E+01 4.00625E+00 0.00000E+00
 -1      2034 9.87045E+01 3.09687E+00 0.00000E+00
 -1      2035 9.72045E+01 3.09687E+00 0.00000E+00
 -1      2036 9.70350E+01 4.00625E+00 0.00000E+00
 -1      2037 1.01704E+02 3.09687E+00 0.00000E+00
 -1      2038 1.00204E+02 3.09687E+00 0.00000E+00
 -1      2039 1.00035E+02 4.00625E+00 0.00000E+00
 -1      2040 1.04704E+02 3.09687E+00 0.00000E+00
 -1      2041 1.03204E+02 3.09687E+00 0.00000E+00
 -1      2042 1.03035E+02 4.00625E+00 0.00000E+00
 -1      2043 1.07704E+02 3.09687E+00 0.00000E+00
 -1      2044 1.06204E+02 3.09687E+00 0.00000E+00
 -1      2045 1.06035E+02 4.00625E+00 0.00000E+00
 -1      2046 1.10704E+02 3.09687E+00 0.00000E+00
 -1      2047 1.09204E+02 3.09687E+00 0.00000E+00
 -1      2048 1.09035E+02 4.00625E+00 0.00000E+00
 -1      2049 1.13704E+02 3.09687E+00 0.00000E+00
 -1      2050 1.12204E+02 3.09687E+00 0.00000E+00
 -1      2051 1.12035E+02 4.00625E+00 0.00000E+00
 -1      2052 1.16704E+02 3.09687E+00 0.00000E+00
 -1      2053 1.15204E+02 3.09687E+00 0.00000E+00
 -1      2054 1.15035E+02 4.00625E+00 0.00000E+00
 -1      2055 1.19704E+02 3.09687E+00 0.00000E+00
 -1      2056 1.18204E+02 3.09687E+00 0.00000E+00
 -1      2057 1.18035E+02 4.00625E+00 0.00000E+00
 -1      2058 1.22704E+02 3.09687E+00 0.00000E+00
 -1      2059 1.21204E+02 3.09687E+00 0.00000E+00
 -1      2060 1.21035E+02 4.00625E+00 0.00000E+00
 -1      2061 1.25704E+02 3.09687E+00 0.00000E+00
 -1      2062 1.24204E+02 3.09687E+00 0.00000E+00
 -1      2063 1.24035E+02 4.00625E+00 0.00000E+00
 -1      2064 1.28704E+02 3.09687E+00 0.00000E+00
 -1      2065 1.27204E+02 3.09687E+00 0.00000E+00
 -1      2066 1.27035E+02 4.00625E+00 0.00000E+00
 -1      2067 1.31704E+02 3.09687E+00 0.00000E+00
 -1      2068 1.30204E+02 3.09687E+00 0.00000E+00
 -1      2069 1.30035E+02 4.00625E+00 0.00000E+00
 -1      2070 1.34704E+02 3.09687E+00 0.00000E+00
 -1      2071 1.33204E+02 3.09687E+00 0.00000E+00
 -1      2072 1.33035E+02 4.00625E+00 0.00000E+00
 -1      2073 1.37704E+02 3.09687E+00 0.00000E+00
 -1      2074 1.36204E+02 3.09687E+00 0.00000E+00
 -1      2075 1.36035E+02 4.00625E+00 0.00000E+00
 -1      2076 1.40704E+02 3.09687E+00 0.00000E+00
 -1      2077 1.39204E+02 3.09687E+00 0.00000E+00
 -1      2078 1.39035E+02 4.00625E+00 0.00000E+00
 -1      2079 1.43704E+02 3.09687E+00 0.00000E+00
 -1      2080 1.42204E+02 3.09687E+00 0.00000E+00
 -1      2081 1.42035E+02 4.00625E+00 0.00000E+00
 -1      2082 1.46171E+02 3.20156E+00 0.00000E+00
 -1      2083 1.44671E+02 3.20156E+00 0.00000E+00
 -1      2084 1.44502E+02 4.11094E+00 0.00000E+00
 -1      2085 1.46435E+02 4.32031E+00 0.00000E+00
 -1      2086 1.46103E+02 1.25375E+01 0.00000E+00
 -1      2087 1.46103E+02 1.10625E+01 0.00000E+00
 -1      2088 1.46103E+02 9.58750E+00 0.00000E+00
 -1      2089 1.46103E+02 8.11250E+00 0.00000E+00
 -1      2090 1.44804E+02 1.03250E+01 0.00000E+00
 -1      2091 1.46269E+02 6.95391E+00 0.00000E+00
 -1      2092 1.46269E+02 5.47891E+00 0.00000E+00
 -1      2093 1.45302E+02 5.37422E+00 0.00000E+00
 -1      2094 1.44970E+02 7.69141E+00 0.00000E+00
 -1      2095 1.46103E+02 1.54375E+01 0.00000E+00
 -1      2096 1.46103E+02 1.39875E+01 0.00000E+00
 -1      2097 1.44804E+02 1.32500E+01 0.00000E+00
 -1      2098 1.46103E+02 1.83875E+01 0.00000E+00
 -1      2099 1.46103E+02 1.69125E+01 0.00000E+00
 -1      2100 1.44804E+02 1.61750E+01 0.00000E+00
 -1      2101 1.46103E+02 2.13375E+01 0.00000E+00
 -1      2102 1.46103E+02 1.98625E+01 0.00000E+00
 -1      2103 1.44804E+02 1.91250E+01 0.00000E+00
 -1      2104 1.46103E+02 2.42875E+01 0.00000E+00
 -1      2105 1.46103E+02 2.28125E+01 0.00000E+00
 -1      2106 1.44804E+02 2.20750E+01 0.00000E+00
 -1      2107 1.46103E+02 2.72375E+01 0.00000E+00
 -1      2108 1.46103E+02 2.57625E+01 0.00000E+00
 -1      2109 1.44804E+02 2.50250E+01 0.00000E+00
 -1      2110 1.46103E+02 3.01875E+01 0.00000E+00
 -1      2111 1.46103E+02 2.87125E+01 0.00000E+00
 -1      2112 1.44804E+02 2.79750E+01 0.00000E+00
 -1      2113 1.46103E+02 3.30875E+01 0.00000E+00
 -1      2114 1.46103E+02 3.16375E+01 0.00000E+00
 -1      2115 1.44804E+02 3.09000E+01 0.00000E+00
 -1      2116 1.46103E+02 3.60375E+01 0.00000E+00
 -1      2117 1.46103E+02 3.45625E+01 0.00000E+00
 -1      2118 1.44804E+02 3.38250E+01 0.00000E+00
 -1      2119 1.46103E+02 3.89875E+01 0.00000E+00
 -1      2120 1.46103E+02 3.75125E+01 0.00000E+00
 -1      2121 1.44804E+02 3.67750E+01 0.00000E+00
 -1      2122 1.46103E+02 4.19375E+01 0.00000E+00
 -1      2123 1.46103E+02 4.04625E+01 0.00000E+00
 -1      2124 1.44804E+02 3.97250E+01 0.00000E+00
 -1      2125 8.18818E+01 2.30769E+01 0.00000E+00
 -1      2126 8.21632E+01 2.39191E+01 0.00000E+00
 -1      2127 8.27124E+01 2.65531E+01 0.00000E+00
 -1      2128 8.27903E+01 2.74157E+01 0.00000E+00
 -1      2129 8.24495E+01 2.48142E+01 0.00000E+00
 -1      2130 8.26189E+01 2.56314E+01 0.00000E+00
 -1      2131 8.08588E+01 2.12600E+01 0.00000E+00
 -1      2132 8.14662E+01 2.19496E+01 0.00000E+00
 -1      2133 7.95393E+01 2.00959E+01 0.00000E+00
 -1      2134 8.01991E+01 2.06779E+01 0.00000E+00
 -1      2135 8.11463E+01 2.04560E+01 0.00000E+00
 -1      2136 3.89700E+00 3.74688E+01 0.00000E+00
 -1      2137 3.89700E+00 3.89437E+01 0.00000E+00
 -1      2138 5.19600E+00 3.96813E+01 0.00000E+00
 -1      2139 5.19600E+00 3.67438E+01 0.00000E+00
 -1      2140 7.58939E+01 1.83668E+01 0.00000E+00
 -1      2141 7.67758E+01 1.85423E+01 0.00000E+00
 -1      2142 7.41197E+01 1.80643E+01 0.00000E+00
 -1      2143 7.49918E+01 1.82045E+01 0.00000E+00
 -1      2144 7.20867E+01 1.82392E+01 0.00000E+00
 -1      2145 7.29570E+01 1.80287E+01 0.00000E+00
 -1      2146 7.04505E+01 1.87636E+01 0.00000E+00
 -1      2147 7.12686E+01 1.85014E+01 0.00000E+00
 -1      2148 7.15218E+01 1.76441E+01 0.00000E+00
 -1      2149 6.86539E+01 1.96649E+01 0.00000E+00
 -1      2150 6.93519E+01 1.91694E+01 0.00000E+00
 -1      2151 6.74588E+01 2.08300E+01 0.00000E+00
 -1      2152 6.80563E+01 2.02475E+01 0.00000E+00
 -1      2153 6.79089E+01 1.93004E+01 0.00000E+00
 -1      2154 6.62817E+01 2.23839E+01 0.00000E+00
 -1      2155 6.68288E+01 2.17076E+01 0.00000E+00
 -1      2156 6.53206E+01 2.41356E+01 0.00000E+00
 -1      2157 6.55666E+01 2.33030E+01 0.00000E+00
 -1      2158 6.49569E+01 2.58115E+01 0.00000E+00
 -1      2159 6.51388E+01 2.49736E+01 0.00000E+00
 -1      2160 6.44393E+01 2.43143E+01 0.00000E+00
 -1      2161 6.49229E+01 2.78828E+01 0.00000E+00
 -1      2162 6.48425E+01 2.69929E+01 0.00000E+00
 -1      2163 6.54148E+01 2.96746E+01 0.00000E+00
 -1      2164 6.52332E+01 2.88211E+01 0.00000E+00
 -1      2165 6.60611E+01 3.14204E+01 0.00000E+00
 -1      2166 6.57388E+01 3.06039E+01 0.00000E+00
 -1      2167 6.72959E+01 3.29713E+01 0.00000E+00
 -1      2168 6.66686E+01 3.23876E+01 0.00000E+00
 -1      2169 6.84989E+01 3.40747E+01 0.00000E+00
 -1      2170 6.78974E+01 3.35230E+01 0.00000E+00
 -1      2171 6.71137E+01 3.37363E+01 0.00000E+00
 -1      2172 7.01081E+01 3.49696E+01 0.00000E+00
 -1      2173 6.93728E+01 3.46213E+01 0.00000E+00
 -1      2174 7.16946E+01 3.56512E+01 0.00000E+00
 -1      2175 7.09176E+01 3.54161E+01 0.00000E+00
 -1      2176 7.34458E+01 3.58742E+01 0.00000E+00
 -1      2177 7.26394E+01 3.57958E+01 0.00000E+00
 -1      2178 7.51931E+01 3.57634E+01 0.00000E+00
 -1      2179 7.43682E+01 3.58092E+01 0.00000E+00
 -1      2180 7.69944E+01 3.52527E+01 0.00000E+00
 -1      2181 7.61958E+01 3.55512E+01 0.00000E+00
 -1      2182 7.86235E+01 3.45150E+01 0.00000E+00
 -1      2183 7.78921E+01 3.49276E+01 0.00000E+00
 -1      2184 8.00267E+01 3.34929E+01 0.00000E+00
 -1      2185 7.93251E+01 3.40040E+01 0.00000E+00
 -1      2186 7.93190E+01 3.48477E+01 0.00000E+00
 -1      2187 8.13777E+01 3.19595E+01 0.00000E+00
 -1      2188 8.08862E+01 3.26914E+01 0.00000E+00
 -1      2189 8.21322E+01 3.02406E+01 0.00000E+00
 -1      2190 8.18156E+01 3.10399E+01 0.00000E+00
 -1      2191 8.26671E+01 2.85590E+01 0.00000E+00
 -1      2192 8.23996E+01 2.93998E+01 0.00000E+00
 -1      2193 8.28829E+01 3.00535E+01 0.00000E+00
 -1      2194 7.78435E+01 1.89862E+01 0.00000E+00
 -1      2195 7.85985E+01 1.94918E+01 0.00000E+00
 -1      2196 6.42300E+00 4.57510E+01 0.00000E+00
 -1      2197 7.95457E+01 1.92698E+01 0.00000E+00
 -1      2198 7.75372E+01 1.82217E+01 0.00000E+00
 -1      2199 7.17300E+00 4.44520E+01 0.00000E+00
 -1      2200 8.29235E+01 2.41877E+01 0.00000E+00
 -1      2201 8.33033E+01 2.60044E+01 0.00000E+00
 -1      2202 1.45665E+02 4.31193E+01 0.00000E+00
 -1      2203 8.22216E+01 2.21653E+01 0.00000E+00
 -1      2204 8.38801E+01 2.75798E+01 0.00000E+00
 -1      2205 8.32736E+01 2.80694E+01 0.00000E+00
 -1      2206 8.37568E+01 2.87231E+01 0.00000E+00
 -1      2207 8.08800E+01 3.35351E+01 0.00000E+00
 -1      2208 7.77197E+01 3.56839E+01 0.00000E+00
 -1      2209 7.58193E+01 3.62212E+01 0.00000E+00
 -1      2210 7.38942E+01 3.64984E+01 0.00000E+00
 -1      2211 7.20269E+01 3.64189E+01 0.00000E+00
 -1      2212 6.85891E+01 3.48346E+01 0.00000E+00
 -1      2213 6.59047E+01 3.22173E+01 0.00000E+00
 -1      2214 6.51407E+01 3.20470E+01 0.00000E+00
 -1      2215 6.57483E+01 3.30143E+01 0.00000E+00
 -1      2216 6.49731E+01 3.03208E+01 0.00000E+00
 -1      2217 6.41431E+01 2.63336E+01 0.00000E+00
 -1      2218 6.66814E+01 2.07605E+01 0.00000E+00
 -1      2219 6.96051E+01 1.83121E+01 0.00000E+00
 -1      2220 7.55673E+01 1.76155E+01 0.00000E+00
 -1      2221 7.35026E+01 1.74175E+01 0.00000E+00
 -1      2222 6.53363E+01 2.25572E+01 0.00000E+00
 -1      2223 6.43389E+01 2.84533E+01 0.00000E+00
 -1      2224 7.02725E+01 3.58277E+01 0.00000E+00
 -1      2225 8.21774E+01 3.18139E+01 0.00000E+00
 -1      2226 1.07850E+01 5.30525E+00 0.00000E+00
 -1      2227 9.28500E+00 5.30525E+00 0.00000E+00
 -1      2228 6.49500E+00 3.01125E+01 0.00000E+00
 -1      2229 6.49500E+00 3.15875E+01 0.00000E+00
 -1      2230 6.49500E+00 3.30625E+01 0.00000E+00
 -1      2231 6.49500E+00 3.45375E+01 0.00000E+00
 -1      2232 7.79400E+00 3.23250E+01 0.00000E+00
 -1      2233 6.49500E+00 2.42125E+01 0.00000E+00
 -1      2234 6.49500E+00 2.56875E+01 0.00000E+00
 -1      2235 6.49500E+00 2.12625E+01 0.00000E+00
 -1      2236 6.49500E+00 2.27375E+01 0.00000E+00
 -1      2237 7.79400E+00 2.34750E+01 0.00000E+00
 -1      2238 6.49500E+00 1.83625E+01 0.00000E+00
 -1      2239 6.49500E+00 1.98125E+01 0.00000E+00
 -1      2240 7.79400E+00 2.05500E+01 0.00000E+00
 -1      2241 6.49500E+00 1.54125E+01 0.00000E+00
 -1      2242 6.49500E+00 1.68875E+01 0.00000E+00
 -1      2243 7.79400E+00 1.76250E+01 0.00000E+00
 -1      2244 6.49500E+00 1.24625E+01 0.00000E+00
 -1      2245 6.49500E+00 1.39375E+01 0.00000E+00
 -1      2246 7.79400E+00 1.46750E+01 0.00000E+00
 -1      2247 6.49500E+00 9.51250E+00 0.00000E+00
 -1      2248 6.49500E+00 1.09875E+01 0.00000E+00
 -1      2249 7.79400E+00 1.17250E+01 0.00000E+00
 -1      2250 1.37850E+01 5.30525E+00 0.00000E+00
 -1      2251 1.22850E+01 5.30525E+00 0.00000E+00
 -1      2252 1.15350E+01 6.60425E+00 0.00000E+00
 -1      2253 9.90000E+00 4.35050E+01 0.00000E+00
 -1      2254 1.14000E+01 4.35050E+01 0.00000E+00
 -1      2255 7.95160E+01 1.82814E+01 0.00000E+00
 -1      2256 8.04569E+01 1.88855E+01 0.00000E+00
 -1      2257 1.29000E+01 4.35050E+01 0.00000E+00
 -1      2258 1.44000E+01 4.35050E+01 0.00000E+00
 -1      2259 1.21500E+01 4.22060E+01 0.00000E+00
 -1      2260 1.59000E+01 4.35050E+01 0.00000E+00
 -1      2261 1.74000E+01 4.35050E+01 0.00000E+00
 -1      2262 1.51500E+01 4.22060E+01 0.00000E+00
 -1      2263 1.89000E+01 4.35050E+01 0.00000E+00
 -1      2264 2.04000E+01 4.35050E+01 0.00000E+00
 -1      2265 1.81500E+01 4.22060E+01 0.00000E+00
 -1      2266 2.19000E+01 4.35050E+01 0.00000E+00
 -1      2267 2.34000E+01 4.35050E+01 0.00000E+00
 -1      2268 2.11500E+01 4.22060E+01 0.00000E+00
 -1      2269 2.49000E+01 4.35050E+01 0.00000E+00
 -1      2270 2.64000E+01 4.35050E+01 0.00000E+00
 -1      2271 2.41500E+01 4.22060E+01 0.00000E+00
 -1      2272 2.79000E+01 4.35050E+01 0.00000E+00
 -1      2273 2.94000E+01 4.35050E+01 0.00000E+00
 -1      2274 2.71500E+01 4.22060E+01 0.00000E+00
 -1      2275 3.09000E+01 4.35050E+01 0.00000E+00
 -1      2276 3.24000E+01 4.35050E+01 0.00000E+00
 -1      2277 3.01500E+01 4.22060E+01 0.00000E+00
 -1      2278 3.39000E+01 4.35050E+01 0.00000E+00
 -1      2279 3.54000E+01 4.35050E+01 0.00000E+00
 -1      2280 3.31500E+01 4.22060E+01 0.00000E+00
 -1      2281 3.69000E+01 4.35050E+01 0.00000E+00
 -1      2282 3.84000E+01 4.35050E+01 0.00000E+00
 -1      2283 3.61500E+01 4.22060E+01 0.00000E+00
 -1      2284 3.99000E+01 4.35050E+01 0.00000E+00
 -1      2285 4.14000E+01 4.35050E+01 0.00000E+00
 -1      2286 3.91500E+01 4.22060E+01 0.00000E+00
 -1      2287 4.29000E+01 4.35050E+01 0.00000E+00
 -1      2288 4.44000E+01 4.35050E+01 0.00000E+00
 -1      2289 4.21500E+01 4.22060E+01 0.00000E+00
 -1      2290 4.59000E+01 4.35050E+01 0.00000E+00
 -1      2291 4.74000E+01 4.35050E+01 0.00000E+00
 -1      2292 4.51500E+01 4.22060E+01 0.00000E+00
 -1      2293 4.89000E+01 4.35050E+01 0.00000E+00
 -1      2294 5.04000E+01 4.35050E+01 0.00000E+00
 -1      2295 4.81500E+01 4.22060E+01 0.00000E+00
 -1      2296 5.19000E+01 4.35050E+01 0.00000E+00
 -1      2297 5.34000E+01 4.35050E+01 0.00000E+00
 -1      2298 5.11500E+01 4.22060E+01 0.00000E+00
 -1      2299 5.49000E+01 4.35050E+01 0.00000E+00
 -1      2300 5.64000E+01 4.35050E+01 0.00000E+00
 -1      2301 5.41500E+01 4.22060E+01 0.00000E+00
 -1      2302 5.79000E+01 4.35050E+01 0.00000E+00
 -1      2303 5.94000E+01 4.35050E+01 0.00000E+00
 -1      2304 5.71500E+01 4.22060E+01 0.00000E+00
 -1      2305 6.09000E+01 4.35050E+01 0.00000E+00
 -1      2306 6.24000E+01 4.35050E+01 0.00000E+00
 -1      2307 6.01500E+01 4.22060E+01 0.00000E+00
 -1      2308 6.39000E+01 4.35050E+01 0.00000E+00
 -1      2309 6.54000E+01 4.35050E+01 0.00000E+00
 -1      2310 6.31500E+01 4.22060E+01 0.00000E+00
 -1      2311 6.69000E+01 4.35050E+01 0.00000E+00
 -1      2312 6.84000E+01 4.35050E+01 0.00000E+00
 -1      2313 6.61500E+01 4.22060E+01 0.00000E+00
 -1      2314 6.99000E+01 4.35050E+01 0.00000E+00
 -1      2315 7.14000E+01 4.35050E+01 0.00000E+00
 -1      2316 6.91500E+01 4.22060E+01 0.00000E+00
 -1      2317 7.29000E+01 4.35050E+01 0.00000E+00
 -1      2318 7.44000E+01 4.35050E+01 0.00000E+00
 -1      2319 7.21500E+01 4.22060E+01 0.00000E+00
 -1      2320 7.59000E+01 4.35050E+01 0.00000E+00
 -1      2321 7.74000E+01 4.35050E+01 0.00000E+00
 -1      2322 7.51500E+01 4.22060E+01 0.00000E+00
 -1      2323 7.89000E+01 4.35050E+01 0.00000E+00
 -1      2324 8.04000E+01 4.35050E+01 0.00000E+00
 -1      2325 7.81500E+01 4.22060E+01 0.00000E+00
 -1      2326 8.19000E+01 4.35050E+01 0.00000E+00
 -1      2327 8.34000E+01 4.35050E+01 0.00000E+00
 -1      2328 8.11500E+01 4.22060E+01 0.00000E+00
 -1      2329 8.49000E+01 4.35050E+01 0.00000E+00
 -1      2330 8.64000E+01 4.35050E+01 0.00000E+00
 -1      2331 8.41500E+01 4.22060E+01 0.00000E+00
 -1      2332 8.79000E+01 4.35050E+01 0.00000E+00
 -1      2333 8.94000E+01 4.35050E+01 0.00000E+00
 -1      2334 8.71500E+01 4.22060E+01 0.00000E+00
 -1      2335 9.09000E+01 4.35050E+01 0.00000E+00
 -1      2336 9.24000E+01 4.35050E+01 0.00000E+00
 -1      2337 9.01500E+01 4.22060E+01 0.00000E+00
 -1      2338 9.39000E+01 4.35050E+01 0.00000E+00
 -1      2339 9.54000E+01 4.35050E+01 0.00000E+00
 -1      2340 9.31500E+01 4.22060E+01 0.00000E+00
 -1      2341 9.69000E+01 4.35050E+01 0.00000E+00
 -1      2342 9.84000E+01 4.35050E+01 0.00000E+00
 -1      2343 9.61500E+01 4.22060E+01 0.00000E+00
 -1      2344 9.99000E+01 4.35050E+01 0.00000E+00
 -1      2345 1.01400E+02 4.35050E+01 0.00000E+00
 -1      2346 9.91500E+01 4.22060E+01 0.00000E+00
 -1      2347 1.02900E+02 4.35050E+01 0.00000E+00
 -1      2348 1.04400E+02 4.35050E+01 0.00000E+00
 -1      2349 1.02150E+02 4.22060E+01 0.00000E+00
 -1      2350 1.05900E+02 4.35050E+01 0.00000E+00
 -1      2351 1.07400E+02 4.35050E+01 0.00000E+00
 -1      2352 1.05150E+02 4.22060E+01 0.00000E+00
 -1      2353 1.08900E+02 4.35050E+01 0.00000E+00
 -1      2354 1.10400E+02 4.35050E+01 0.00000E+00
 -1      2355 1.08150E+02 4.22060E+01 0.00000E+00
 -1      2356 1.11900E+02 4.35050E+01 0.00000E+00
 -1      2357 1.13400E+02 4.35050E+01 0.00000E+00
 -1      2358 1.11150E+02 4.22060E+01 0.00000E+00
 -1      2359 1.14900E+02 4.35050E+01 0.00000E+00
 -1      2360 1.16400E+02 4.35050E+01 0.00000E+00
 -1      2361 1.14150E+02 4.22060E+01 0.00000E+00
 -1      2362 1.17900E+02 4.35050E+01 0.00000E+00
 -1      2363 1.19400E+02 4.35050E+01 0.00000E+00
 -1      2364 1.17150E+02 4.22060E+01 0.00000E+00
 -1      2365 1.20900E+02 4.35050E+01 0.00000E+00
 -1      2366 1.22400E+02 4.35050E+01 0.00000E+00
 -1      2367 1.20150E+02 4.22060E+01 0.00000E+00
 -1      2368 1.23900E+02 4.35050E+01 0.00000E+00
 -1      2369 1.25400E+02 4.35050E+01 0.00000E+00
 -1      2370 1.23150E+02 4.22060E+01 0.00000E+00
 -1      2371 1.26900E+02 4.35050E+01 0.00000E+00
 -1      2372 1.28400E+02 4.35050E+01 0.00000E+00
 -1      2373 1.26150E+02 4.22060E+01 0.00000E+00
 -1      2374 1.29900E+02 4.35050E+01 0.00000E+00
 -1      2375 1.31400E+02 4.35050E+01 0.00000E+00
 -1      2376 1.29150E+02 4.22060E+01 0.00000E+00
 -1      2377 1.32900E+02 4.35050E+01 0.00000E+00
 -1      2378 1.34400E+02 4.35050E+01 0.00000E+00
 -1      2379 1.32150E+02 4.22060E+01 0.00000E+00
 -1      2380 1.35900E+02 4.35050E+01 0.00000E+00
 -1      2381 1.37400E+02 4.35050E+01 0.00000E+00
 -1      2382 1.35150E+02 4.22060E+01 0.00000E+00
 -1      2383 1.38900E+02 4.35050E+01 0.00000E+00
 -1      2384 1.40400E+02 4.35050E+01 0.00000E+00
 -1      2385 1.38150E+02 4.22060E+01 0.00000E+00
 -1      2386 1.97850E+01 5.30525E+00 0.00000E+00
 -1      2387 1.82850E+01 5.30525E+00 0.00000E+00
 -1      2388 2.27850E+01 5.30525E+00 0.00000E+00
 -1      2389 2.12850E+01 5.30525E+00 0.00000E+00
 -1      2390 2.05350E+01 6.60425E+00 0.00000E+00
 -1      2391 2.57850E+01 5.30525E+00 0.00000E+00
 -1      2392 2.42850E+01 5.30525E+00 0.00000E+00
 -1      2393 2.35350E+01 6.60425E+00 0.00000E+00
 -1      2394 2.87850E+01 5.30525E+00 0.00000E+00
 -1      2395 2.72850E+01 5.30525E+00 0.00000E+00
 -1      2396 2.65350E+01 6.60425E+00 0.00000E+00
 -1      2397 3.17850E+01 5.30525E+00 0.00000E+00
 -1      2398 3.02850E+01 5.30525E+00 0.00000E+00
 -1      2399 2.95350E+01 6.60425E+00 0.00000E+00
 -1      2400 3.47850E+01 5.30525E+00 0.00000E+00
 -1      2401 3.32850E+01 5.30525E+00 0.00000E+00
 -1      2402 3.25350E+01 6.60425E+00 0.00000E+00
 -1      2403 3.77850E+01 5.30525E+00 0.00000E+00
 -1      2404 3.62850E+01 5.30525E+00 0.00000E+00
 -1      2405 3.55350E+01 6.60425E+00 0.00000E+00
 -1      2406 4.07850E+01 5.30525E+00 0.00000E+00
 -1      2407 3.92850E+01 5.30525E+00 0.00000E+00
 -1      2408 3.85350E+01 6.60425E+00 0.00000E+00
 -1      2409 4.37850E+01 5.30525E+00 0.00000E+00
 -1      2410 4.22850E+01 5.30525E+00 0.00000E+00
 -1      2411 4.15350E+01 6.60425E+00 0.00000E+00
 -1      2412 4.67850E+01 5.30525E+00 0.00000E+00
 -1      2413 4.52850E+01 5.30525E+00 0.00000E+00
 -1      2414 4.45350E+01 6.60425E+00 0.00000E+00
 -1      2415 4.97850E+01 5.30525E+00 0.00000E+00
 -1      2416 4.82850E+01 5.30525E+00 0.00000E+00
 -1      2417 4.75350E+01 6.60425E+00 0.00000E+00
 -1      2418 5.27850E+01 5.30525E+00 0.00000E+00
 -1      2419 5.12850E+01 5.30525E+00 0.00000E+00
 -1      2420 5.05350E+01 6.60425E+00 0.00000E+00
 -1      2421 5.57850E+01 5.30525E+00 0.00000E+00
 -1      2422 5.42850E+01 5.30525E+00 0.00000E+00
 -1      2423 5.35350E+01 6.60425E+00 0.00000E+00
 -1      2424 5.87850E+01 5.30525E+00 0.00000E+00
 -1      2425 5.72850E+01 5.30525E+00 0.00000E+00
 -1      2426 5.65350E+01 6.60425E+00 0.00000E+00
 -1      2427 6.17850E+01 5.30525E+00 0.00000E+00
 -1      2428 6.02850E+01 5.30525E+00 0.00000E+00
 -1      2429 5.95350E+01 6.60425E+00 0.00000E+00
 -1      2430 6.47850E+01 5.30525E+00 0.00000E+00
 -1      2431 6.32850E+01 5.30525E+00 0.00000E+00
 -1      2432 6.25350E+01 6.60425E+00 0.00000E+00
 -1      2433 6.77850E+01 5.30525E+00 0.00000E+00
 -1      2434 6.62850E+01 5.30525E+00 0.00000E+00
 -1      2435 6.55350E+01 6.60425E+00 0.00000E+00
 -1      2436 7.07850E+01 5.30525E+00 0.00000E+00
 -1      2437 6.92850E+01 5.30525E+00 0.00000E+00
 -1      2438 6.85350E+01 6.60425E+00 0.00000E+00
 -1      2439 7.37850E+01 5.30525E+00 0.00000E+00
 -1      2440 7.22850E+01 5.30525E+00 0.00000E+00
 -1      2441 7.15350E+01 6.60425E+00 0.00000E+00
 -1      2442 7.67850E+01 5.30525E+00 0.00000E+00
 -1      2443 7.52850E+01 5.30525E+00 0.00000E+00
 -1      2444 7.45350E+01 6.60425E+00 0.00000E+00
 -1      2445 7.97850E+01 5.30525E+00 0.00000E+00
 -1      2446 7.82850E+01 5.30525E+00 0.00000E+00
 -1      2447 7.75350E+01 6.60425E+00 0.00000E+00
 -1      2448 8.27850E+01 5.30525E+00 0.00000E+00
 -1      2449 8.12850E+01 5.30525E+00 0.00000E+00
 -1      2450 8.05350E+01 6.60425E+00 0.00000E+00
 -1      2451 8.57850E+01 5.30525E+00 0.00000E+00
 -1      2452 8.42850E+01 5.30525E+00 0.00000E+00
 -1      2453 8.35350E+01 6.60425E+00 0.00000E+00
 -1      2454 8.87850E+01 5.30525E+00 0.00000E+00
 -1      2455 8.72850E+01 5.30525E+00 0.00000E+00
 -1      2456 8.65350E+01 6.60425E+00 0.00000E+00
 -1      2457 9.17850E+01 5.30525E+00 0.00000E+00
 -1      2458 9.02850E+01 5.30525E+00 0.00000E+00
 -1      2459 8.95350E+01 6.60425E+00 0.00000E+00
 -1      2460 9.47850E+01 5.30525E+00 0.00000E+00
 -1      2461 9.32850E+01 5.30525E+00 0.00000E+00
 -1      2462 9.25350E+01 6.60425E+00 0.00000E+00
 -1      2463 9.77850E+01 5.30525E+00 0.00000E+00
 -1      2464 9.62850E+01 5.30525E+00 0.00000E+00
 -1      2465 9.55350E+01 6.60425E+00 0.00000E+00
 -1      2466 1.00785E+02 5.30525E+00 0.00000E+00
 -1      2467 9.92850E+01 5.30525E+00 0.00000E+00
 -1      2468 9.85350E+01 6.60425E+00 0.00000E+00
 -1      2469 1.03785E+02 5.30525E+00 0.00000E+00
 -1      2470 1.02285E+02 5.30525E+00 0.00000E+00
 -1      2471 1.01535E+02 6.60425E+00 0.00000E+00
 -1      2472 1.06785E+02 5.30525E+00 0.00000E+00
 -1      2473 1.05285E+02 5.30525E+00 0.00000E+00
 -1      2474 1.04535E+02 6.60425E+00 0.00000E+00
 -1      2475 1.09785E+02 5.30525E+00 0.00000E+00
 -1      2476 1.08285E+02 5.30525E+00 0.00000E+00
 -1      2477 1.07535E+02 6.60425E+00 0.00000E+00
 -1      2478 1.12785E+02 5.30525E+00 0.00000E+00
 -1      2479 1.11285E+02 5.30525E+00 0.00000E+00
 -1      2480 1.10535E+02 6.60425E+00 0.00000E+00
 -1      2481 1.15785E+02 5.30525E+00 0.00000E+00
 -1      2482 1.14285E+02 5.30525E+00 0.00000E+00
 -1      2483 1.13535E+02 6.60425E+00 0.00000E+00
 -1      2484 1.18785E+02 5.30525E+00 0.00000E+00
 -1      2485 1.17285E+02 5.30525E+00 0.00000E+00
 -1      2486 1.16535E+02 6.60425E+00 0.00000E+00
 -1      2487 1.21785E+02 5.30525E+00 0.00000E+00
 -1      2488 1.20285E+02 5.30525E+00 0.00000E+00
 -1      2489 1.19535E+02 6.60425E+00 0.00000E+00
 -1      2490 1.24785E+02 5.30525E+00 0.00000E+00
 -1      2491 1.23285E+02 5.30525E+00 0.00000E+00
 -1      2492 1.22535E+02 6.60425E+00 0.00000E+00
 -1      2493 1.27785E+02 5.30525E+00 0.00000E+00
 -1      2494 1.26285E+02 5.30525E+00 0.00000E+00
 -1      2495 1.25535E+02 6.60425E+00 0.00000E+00
 -1      2496 1.30785E+02 5.30525E+00 0.00000E+00
 -1      2497 1.29285E+02 5.30525E+00 0.00000E+00
 -1      2498 1.28535E+02 6.60425E+00 0.00000E+00
 -1      2499 1.33785E+02 5.30525E+00 0.00000E+00
 -1      2500 1.32285E+02 5.30525E+00 0.00000E+00
 -1      2501 1.31535E+02 6.60425E+00 0.00000E+00
 -1      2502 1.36785E+02 5.30525E+00 0.00000E+00
 -1      2503 1.35285E+02 5.30525E+00 0.00000E+00
 -1      2504 1.34535E+02 6.60425E+00 0.00000E+00
 -1      2505 1.39785E+02 5.30525E+00 0.00000E+00
 -1      2506 1.38285E+02 5.30525E+00 0.00000E+00
 -1      2507 1.37535E+02 6.60425E+00 0.00000E+00
 -1      2508 1.42785E+02 5.30525E+00 0.00000E+00
 -1      2509 1.41285E+02 5.30525E+00 0.00000E+00
 -1      2510 1.40535E+02 6.60425E+00 0.00000E+00
 -1      2511 1.44336E+02 5.26953E+00 0.00000E+00
 -1      2512 1.43505E+02 1.69125E+01 0.00000E+00
 -1      2513 1.43505E+02 1.54375E+01 0.00000E+00
 -1      2514 1.43505E+02 1.98625E+01 0.00000E+00
 -1      2515 1.43505E+02 1.83875E+01 0.00000E+00
 -1      2516 1.42206E+02 1.76500E+01 0.00000E+00
 -1      2517 1.43505E+02 1.10625E+01 0.00000E+00
 -1      2518 1.43505E+02 9.58750E+00 0.00000E+00
 -1      2519 1.43505E+02 1.39750E+01 0.00000E+00
 -1      2520 1.43505E+02 1.25250E+01 0.00000E+00
 -1      2521 1.42206E+02 1.17875E+01 0.00000E+00
 -1      2522 1.42206E+02 1.47125E+01 0.00000E+00
 -1      2523 1.43505E+02 2.28125E+01 0.00000E+00
 -1      2524 1.43505E+02 2.13375E+01 0.00000E+00
 -1      2525 1.42206E+02 2.06000E+01 0.00000E+00
 -1      2526 1.43505E+02 2.57625E+01 0.00000E+00
 -1      2527 1.43505E+02 2.42875E+01 0.00000E+00
 -1      2528 1.42206E+02 2.35500E+01 0.00000E+00
 -1      2529 1.43505E+02 2.87125E+01 0.00000E+00
 -1      2530 1.43505E+02 2.72375E+01 0.00000E+00
 -1      2531 1.42206E+02 2.65000E+01 0.00000E+00
 -1      2532 1.43505E+02 3.16125E+01 0.00000E+00
 -1      2533 1.43505E+02 3.01625E+01 0.00000E+00
 -1      2534 1.42206E+02 2.94250E+01 0.00000E+00
 -1      2535 1.43505E+02 3.45625E+01 0.00000E+00
 -1      2536 1.43505E+02 3.30875E+01 0.00000E+00
 -1      2537 1.42206E+02 3.23500E+01 0.00000E+00
 -1      2538 1.43505E+02 3.75125E+01 0.00000E+00
 -1      2539 1.43505E+02 3.60375E+01 0.00000E+00
 -1      2540 1.42206E+02 3.53000E+01 0.00000E+00
 -1      2541 1.43505E+02 4.04625E+01 0.00000E+00
 -1      2542 1.43505E+02 3.89875E+01 0.00000E+00
 -1      2543 1.42206E+02 3.82500E+01 0.00000E+00
 -1      2544 8.41098E+01 2.54570E+01 0.00000E+00
 -1      2545 8.42033E+01 2.63787E+01 0.00000E+00
 -1      2546 8.28185E+01 2.13050E+01 0.00000E+00
 -1      2547 8.32340E+01 2.24323E+01 0.00000E+00
 -1      2548 1.67850E+01 5.30525E+00 0.00000E+00
 -1      2549 1.52850E+01 5.30525E+00 0.00000E+00
 -1      2550 1.75350E+01 6.60425E+00 0.00000E+00
 -1      2551 1.44321E+02 4.30606E+01 0.00000E+00
 -1      2552 8.13837E+01 1.95219E+01 0.00000E+00
 -1      2553 8.20435E+01 2.01039E+01 0.00000E+00
 -1      2554 8.18947E+01 3.37614E+01 0.00000E+00
 -1      2555 8.10352E+01 3.45630E+01 0.00000E+00
 -1      2556 7.73326E+01 1.72079E+01 0.00000E+00
 -1      2557 7.84003E+01 1.76519E+01 0.00000E+00
 -1      2558 7.84320E+01 3.62489E+01 0.00000E+00
 -1      2559 7.75343E+01 3.65740E+01 0.00000E+00
 -1      2560 6.57038E+01 2.07236E+01 0.00000E+00
 -1      2561 6.63337E+01 1.98461E+01 0.00000E+00
 -1      2562 7.52533E+01 1.67728E+01 0.00000E+00
 -1      2563 7.61554E+01 1.69351E+01 0.00000E+00
 -1      2564 6.49500E+00 2.71625E+01 0.00000E+00
 -1      2565 6.49500E+00 2.86375E+01 0.00000E+00
 -1      2566 7.79400E+00 2.93750E+01 0.00000E+00
 -1      2567 7.79400E+00 2.64250E+01 0.00000E+00
 -1      2568 7.29475E+01 1.65426E+01 0.00000E+00
 -1      2569 7.41102E+01 1.65782E+01 0.00000E+00
 -1      2570 6.43019E+01 2.24902E+01 0.00000E+00
 -1      2571 6.50170E+01 2.15711E+01 0.00000E+00
 -1      2572 7.08255E+01 1.68788E+01 0.00000E+00
 -1      2573 7.16436E+01 1.66166E+01 0.00000E+00
 -1      2574 6.86283E+01 1.76904E+01 0.00000E+00
 -1      2575 6.97269E+01 1.72846E+01 0.00000E+00
 -1      2576 6.98486E+01 1.62570E+01 0.00000E+00
 -1      2577 6.69530E+01 1.89177E+01 0.00000E+00
 -1      2578 6.75506E+01 1.83351E+01 0.00000E+00
 -1      2579 6.37991E+01 2.91522E+01 0.00000E+00
 -1      2580 6.34889E+01 2.82139E+01 0.00000E+00
 -1      2581 6.35104E+01 2.45514E+01 0.00000E+00
 -1      2582 6.36922E+01 2.37135E+01 0.00000E+00
 -1      2583 7.02631E+01 3.68019E+01 0.00000E+00
 -1      2584 6.94535E+01 3.63553E+01 0.00000E+00
 -1      2585 6.32740E+01 2.68457E+01 0.00000E+00
 -1      2586 6.33884E+01 2.56643E+01 0.00000E+00
 -1      2587 6.44471E+01 3.10107E+01 0.00000E+00
 -1      2588 6.41231E+01 3.00814E+01 0.00000E+00
 -1      2589 6.32731E+01 2.98421E+01 0.00000E+00
 -1      2590 6.68348E+01 3.46442E+01 0.00000E+00
 -1      2591 6.62333E+01 3.40924E+01 0.00000E+00
 -1      2592 8.30950E+01 3.16868E+01 0.00000E+00
 -1      2593 8.26570E+01 3.26064E+01 0.00000E+00
 -1      2594 6.85797E+01 3.58088E+01 0.00000E+00
 -1      2595 6.77058E+01 3.52622E+01 0.00000E+00
 -1      2596 6.85702E+01 3.67829E+01 0.00000E+00
 -1      2597 7.23696E+01 3.73388E+01 0.00000E+00
 -1      2598 7.14247E+01 3.71943E+01 0.00000E+00
 -1      2599 7.44128E+01 3.72795E+01 0.00000E+00
 -1      2600 7.34903E+01 3.73446E+01 0.00000E+00
 -1      2601 7.64722E+01 3.68311E+01 0.00000E+00
 -1      2602 7.54695E+01 3.70433E+01 0.00000E+00
 -1      2603 8.01747E+01 3.52854E+01 0.00000E+00
 -1      2604 7.94730E+01 3.57964E+01 0.00000E+00
 -1      2605 8.37540E+01 2.98677E+01 0.00000E+00
 -1      2606 8.34865E+01 3.07085E+01 0.00000E+00
 -1      2607 6.55950E+00 4.28890E+01 0.00000E+00
 -1      2608 8.53650E+00 4.32410E+01 0.00000E+00
 -1      2609 9.28650E+00 4.19420E+01 0.00000E+00
 -1      2610 6.55950E+00 4.14140E+01 0.00000E+00
 -1      2611 8.07525E+00 5.11044E+00 0.00000E+00
 -1      2612 6.57525E+00 5.11044E+00 0.00000E+00
 -1      2613 6.40575E+00 6.01981E+00 0.00000E+00
 -1      2614 8.82525E+00 6.40944E+00 0.00000E+00
 -1      2615 8.35971E+01 2.34788E+01 0.00000E+00
 -1      2616 8.38835E+01 2.43739E+01 0.00000E+00
 -1      2617 7.46983E+01 1.58978E+01 0.00000E+00
 -1      2618 7.79400E+00 3.52687E+01 0.00000E+00
 -1      2619 6.49500E+00 3.60062E+01 0.00000E+00
 -1      2620 6.49500E+00 3.74750E+01 0.00000E+00
 -1      2621 1.45350E+01 6.60425E+00 0.00000E+00
 -1      2622 6.40575E+00 7.49481E+00 0.00000E+00
 -1      2623 8.41940E+01 2.26186E+01 0.00000E+00
 -1      2624 6.52725E+00 3.87101E+01 0.00000E+00
 -1      2625 6.52725E+00 4.01789E+01 0.00000E+00
 -1      2626 7.89075E+00 4.04429E+01 0.00000E+00
 -1      2627 7.82625E+00 3.79726E+01 0.00000E+00
 -1      2628 7.50656E+01 3.78895E+01 0.00000E+00
 -1      2629 8.13541E+01 1.85335E+01 0.00000E+00
 -1      2630 8.39661E+01 3.15010E+01 0.00000E+00
 -1      2631 6.42907E+01 3.18077E+01 0.00000E+00
 -1      2632 6.34407E+01 3.15683E+01 0.00000E+00
 -1      2633 6.41343E+01 3.26046E+01 0.00000E+00
 -1      2634 8.32933E+01 1.94368E+01 0.00000E+00
 -1      2635 8.30559E+01 2.03709E+01 0.00000E+00
 -1      2636 8.40683E+01 2.06380E+01 0.00000E+00
 -1      2637 6.27342E+01 2.75446E+01 0.00000E+00
 -1      2638 6.19796E+01 2.68752E+01 0.00000E+00
 -1      2639 6.21945E+01 2.82435E+01 0.00000E+00
 -1      2640 1.43586E+02 6.56853E+00 0.00000E+00
 -1      2641 1.43419E+02 7.72713E+00 0.00000E+00
 -1      2642 7.06058E+01 3.77219E+01 0.00000E+00
 -1      2643 8.46865E+01 2.70324E+01 0.00000E+00
 -1      2644 8.47834E+01 2.47482E+01 0.00000E+00
 -1      2645 6.26413E+01 2.50634E+01 0.00000E+00
 -1      2646 7.70475E+00 8.23231E+00 0.00000E+00
 -1      2647 8.28122E+01 3.36343E+01 0.00000E+00
 -1      2648 6.54693E+01 3.39221E+01 0.00000E+00
 -1      2649 8.43605E+01 2.93780E+01 0.00000E+00
 -1      2650 8.11893E+01 3.55117E+01 0.00000E+00
 -1      2651 7.71845E+01 3.73961E+01 0.00000E+00
 -1      2652 7.93114E+01 1.72676E+01 0.00000E+00
 -1      2653 6.76724E+01 1.73076E+01 0.00000E+00
 -1      2654 6.59754E+01 1.88808E+01 0.00000E+00
 -1      2655 6.46694E+01 2.06566E+01 0.00000E+00
 -1      2656 7.92877E+01 3.66865E+01 0.00000E+00
 -1      2657 7.70185E+01 1.63652E+01 0.00000E+00
 -1      2658 6.33729E+01 2.27273E+01 0.00000E+00
 -1      2659 7.22512E+01 1.57772E+01 0.00000E+00
 -1      2660 6.68254E+01 3.56183E+01 0.00000E+00
 -1      2661 7.28882E+01 3.81200E+01 0.00000E+00
 -1      2662 1.42758E+02 4.35929E+01 0.00000E+00
 -1      2663 1.43241E+02 4.17323E+01 0.00000E+00
 -1      2664 1.41942E+02 4.09948E+01 0.00000E+00
 -1      2665 1.41414E+02 4.35342E+01 0.00000E+00
 -1      2666 1.42120E+02 8.46463E+00 0.00000E+00
 -1      2667 1.40664E+02 4.22352E+01 0.00000E+00
 -1      2668 9.09300E+00 1.98250E+01 0.00000E+00
 -1      2669 9.09300E+00 2.12750E+01 0.00000E+00
 -1      2670 9.09300E+00 2.27500E+01 0.00000E+00
 -1      2671 9.09300E+00 2.42250E+01 0.00000E+00
 -1      2672 1.03920E+01 2.20250E+01 0.00000E+00
 -1      2673 9.09300E+00 1.39375E+01 0.00000E+00
 -1      2674 9.09300E+00 1.54125E+01 0.00000E+00
 -1      2675 9.09300E+00 1.09875E+01 0.00000E+00
 -1      2676 9.09300E+00 1.24625E+01 0.00000E+00
 -1      2677 1.03920E+01 1.32000E+01 0.00000E+00
 -1      2678 1.22850E+01 7.90325E+00 0.00000E+00
 -1      2679 1.07850E+01 7.90325E+00 0.00000E+00
 -1      2680 8.39091E+01 3.35292E+01 0.00000E+00
 -1      2681 8.31467E+01 3.46842E+01 0.00000E+00
 -1      2682 6.84636E+01 3.79254E+01 0.00000E+00
 -1      2683 6.75897E+01 3.73788E+01 0.00000E+00
 -1      2684 8.91450E+00 8.42712E+00 0.00000E+00
 -1      2685 1.44000E+01 4.09070E+01 0.00000E+00
 -1      2686 1.59000E+01 4.09070E+01 0.00000E+00
 -1      2687 1.74000E+01 4.09070E+01 0.00000E+00
 -1      2688 1.89000E+01 4.09070E+01 0.00000E+00
 -1      2689 1.66500E+01 3.96080E+01 0.00000E+00
 -1      2690 2.04000E+01 4.09070E+01 0.00000E+00
 -1      2691 2.19000E+01 4.09070E+01 0.00000E+00
 -1      2692 1.96500E+01 3.96080E+01 0.00000E+00
 -1      2693 2.34000E+01 4.09070E+01 0.00000E+00
 -1      2694 2.49000E+01 4.09070E+01 0.00000E+00
 -1      2695 2.26500E+01 3.96080E+01 0.00000E+00
 -1      2696 2.64000E+01 4.09070E+01 0.00000E+00
 -1      2697 2.79000E+01 4.09070E+01 0.00000E+00
 -1      2698 2.56500E+01 3.96080E+01 0.00000E+00
 -1      2699 2.94000E+01 4.09070E+01 0.00000E+00
 -1      2700 3.09000E+01 4.09070E+01 0.00000E+00
 -1      2701 2.86500E+01 3.96080E+01 0.00000E+00
 -1      2702 3.24000E+01 4.09070E+01 0.00000E+00
 -1      2703 3.39000E+01 4.09070E+01 0.00000E+00
 -1      2704 3.16500E+01 3.96080E+01 0.00000E+00
 -1      2705 3.54000E+01 4.09070E+01 0.00000E+00
 -1      2706 3.69000E+01 4.09070E+01 0.00000E+00
 -1      2707 3.46500E+01 3.96080E+01 0.00000E+00
 -1      2708 3.84000E+01 4.09070E+01 0.00000E+00
 -1      2709 3.99000E+01 4.09070E+01 0.00000E+00
 -1      2710 3.76500E+01 3.96080E+01 0.00000E+00
 -1      2711 4.14000E+01 4.09070E+01 0.00000E+00
 -1      2712 4.29000E+01 4.09070E+01 0.00000E+00
 -1      2713 4.06500E+01 3.96080E+01 0.00000E+00
 -1      2714 4.44000E+01 4.09070E+01 0.00000E+00
 -1      2715 4.59000E+01 4.09070E+01 0.00000E+00
 -1      2716 4.36500E+01 3.96080E+01 0.00000E+00
 -1      2717 4.74000E+01 4.09070E+01 0.00000E+00
 -1      2718 4.89000E+01 4.09070E+01 0.00000E+00
 -1      2719 4.66500E+01 3.96080E+01 0.00000E+00
 -1      2720 5.04000E+01 4.09070E+01 0.00000E+00
 -1      2721 5.19000E+01 4.09070E+01 0.00000E+00
 -1      2722 4.96500E+01 3.96080E+01 0.00000E+00
 -1      2723 5.34000E+01 4.09070E+01 0.00000E+00
 -1      2724 5.49000E+01 4.09070E+01 0.00000E+00
 -1      2725 5.26500E+01 3.96080E+01 0.00000E+00
 -1      2726 5.64000E+01 4.09070E+01 0.00000E+00
 -1      2727 5.79000E+01 4.09070E+01 0.00000E+00
 -1      2728 5.56500E+01 3.96080E+01 0.00000E+00
 -1      2729 5.94000E+01 4.09070E+01 0.00000E+00
 -1      2730 6.09000E+01 4.09070E+01 0.00000E+00
 -1      2731 5.86500E+01 3.96080E+01 0.00000E+00
 -1      2732 6.24000E+01 4.09070E+01 0.00000E+00
 -1      2733 6.39000E+01 4.09070E+01 0.00000E+00
 -1      2734 6.16500E+01 3.96080E+01 0.00000E+00
 -1      2735 6.60665E+01 4.03636E+01 0.00000E+00
 -1      2736 6.75665E+01 4.03636E+01 0.00000E+00
 -1      2737 6.90665E+01 4.03636E+01 0.00000E+00
 -1      2738 7.14000E+01 4.10971E+01 0.00000E+00
 -1      2739 7.29000E+01 4.10971E+01 0.00000E+00
 -1      2740 7.44000E+01 4.10133E+01 0.00000E+00
 -1      2741 7.59000E+01 4.10133E+01 0.00000E+00
 -1      2742 7.74000E+01 4.11809E+01 0.00000E+00
 -1      2743 7.89000E+01 4.11809E+01 0.00000E+00
 -1      2744 8.04000E+01 4.09070E+01 0.00000E+00
 -1      2745 8.19000E+01 4.09070E+01 0.00000E+00
 -1      2746 8.34000E+01 4.09070E+01 0.00000E+00
 -1      2747 8.49000E+01 4.09070E+01 0.00000E+00
 -1      2748 8.26500E+01 3.96080E+01 0.00000E+00
 -1      2749 8.64000E+01 4.09070E+01 0.00000E+00
 -1      2750 8.79000E+01 4.09070E+01 0.00000E+00
 -1      2751 8.56500E+01 3.96080E+01 0.00000E+00
 -1      2752 8.94000E+01 4.09070E+01 0.00000E+00
 -1      2753 9.09000E+01 4.09070E+01 0.00000E+00
 -1      2754 8.86500E+01 3.96080E+01 0.00000E+00
 -1      2755 9.24000E+01 4.09070E+01 0.00000E+00
 -1      2756 9.39000E+01 4.09070E+01 0.00000E+00
 -1      2757 9.16500E+01 3.96080E+01 0.00000E+00
 -1      2758 9.54000E+01 4.09070E+01 0.00000E+00
 -1      2759 9.69000E+01 4.09070E+01 0.00000E+00
 -1      2760 9.46500E+01 3.96080E+01 0.00000E+00
 -1      2761 9.84000E+01 4.09070E+01 0.00000E+00
 -1      2762 9.99000E+01 4.09070E+01 0.00000E+00
 -1      2763 9.76500E+01 3.96080E+01 0.00000E+00
 -1      2764 1.01400E+02 4.09070E+01 0.00000E+00
 -1      2765 1.02900E+02 4.09070E+01 0.00000E+00
 -1      2766 1.00650E+02 3.96080E+01 0.00000E+00
 -1      2767 1.04400E+02 4.09070E+01 0.00000E+00
 -1      2768 1.05900E+02 4.09070E+01 0.00000E+00
 -1      2769 1.03650E+02 3.96080E+01 0.00000E+00
 -1      2770 1.07400E+02 4.09070E+01 0.00000E+00
 -1      2771 1.08900E+02 4.09070E+01 0.00000E+00
 -1      2772 1.06650E+02 3.96080E+01 0.00000E+00
 -1      2773 1.10400E+02 4.09070E+01 0.00000E+00
 -1      2774 1.11900E+02 4.09070E+01 0.00000E+00
 -1      2775 1.09650E+02 3.96080E+01 0.00000E+00
 -1      2776 1.13400E+02 4.09070E+01 0.00000E+00
 -1      2777 1.14900E+02 4.09070E+01 0.00000E+00
 -1      2778 1.12650E+02 3.96080E+01 0.00000E+00
 -1      2779 1.16400E+02 4.09070E+01 0.00000E+00
 -1      2780 1.17900E+02 4.09070E+01 0.00000E+00
 -1      2781 1.15650E+02 3.96080E+01 0.00000E+00
 -1      2782 1.19400E+02 4.09070E+01 0.00000E+00
 -1      2783 1.20900E+02 4.09070E+01 0.00000E+00
 -1      2784 1.18650E+02 3.96080E+01 0.00000E+00
 -1      2785 1.22400E+02 4.09070E+01 0.00000E+00
 -1      2786 1.23900E+02 4.09070E+01 0.00000E+00
 -1      2787 1.21650E+02 3.96080E+01 0.00000E+00
 -1      2788 1.25400E+02 4.09070E+01 0.00000E+00
 -1      2789 1.26900E+02 4.09070E+01 0.00000E+00
 -1      2790 1.24650E+02 3.96080E+01 0.00000E+00
 -1      2791 1.28400E+02 4.09070E+01 0.00000E+00
 -1      2792 1.29900E+02 4.09070E+01 0.00000E+00
 -1      2793 1.27650E+02 3.96080E+01 0.00000E+00
 -1      2794 1.31400E+02 4.09070E+01 0.00000E+00
 -1      2795 1.32900E+02 4.09070E+01 0.00000E+00
 -1      2796 1.30650E+02 3.96080E+01 0.00000E+00
 -1      2797 1.34400E+02 4.09070E+01 0.00000E+00
 -1      2798 1.35900E+02 4.09070E+01 0.00000E+00
 -1      2799 1.33650E+02 3.96080E+01 0.00000E+00
 -1      2800 1.37400E+02 4.09070E+01 0.00000E+00
 -1      2801 1.38900E+02 4.09070E+01 0.00000E+00
 -1      2802 1.36650E+02 3.96080E+01 0.00000E+00
 -1      2803 2.42850E+01 7.90325E+00 0.00000E+00
 -1      2804 2.27850E+01 7.90325E+00 0.00000E+00
 -1      2805 1.40706E+02 1.03250E+01 0.00000E+00
 -1      2806 1.40620E+02 8.46463E+00 0.00000E+00
 -1      2807 1.39120E+02 8.46463E+00 0.00000E+00
 -1      2808 2.12850E+01 7.90325E+00 0.00000E+00
 -1      2809 1.97850E+01 7.90325E+00 0.00000E+00
 -1      2810 2.20350E+01 9.20225E+00 0.00000E+00
 -1      2811 3.02850E+01 7.90325E+00 0.00000E+00
 -1      2812 2.87850E+01 7.90325E+00 0.00000E+00
 -1      2813 3.32850E+01 7.90325E+00 0.00000E+00
 -1      2814 3.17850E+01 7.90325E+00 0.00000E+00
 -1      2815 3.10350E+01 9.20225E+00 0.00000E+00
 -1      2816 3.62850E+01 7.90325E+00 0.00000E+00
 -1      2817 3.47850E+01 7.90325E+00 0.00000E+00
 -1      2818 3.40350E+01 9.20225E+00 0.00000E+00
 -1      2819 3.92850E+01 7.90325E+00 0.00000E+00
 -1      2820 3.77850E+01 7.90325E+00 0.00000E+00
 -1      2821 3.70350E+01 9.20225E+00 0.00000E+00
 -1      2822 4.22850E+01 7.90325E+00 0.00000E+00
 -1      2823 4.07850E+01 7.90325E+00 0.00000E+00
 -1      2824 4.00350E+01 9.20225E+00 0.00000E+00
 -1      2825 4.52850E+01 7.90325E+00 0.00000E+00
 -1      2826 4.37850E+01 7.90325E+00 0.00000E+00
 -1      2827 4.30350E+01 9.20225E+00 0.00000E+00
 -1      2828 4.82850E+01 7.90325E+00 0.00000E+00
 -1      2829 4.67850E+01 7.90325E+00 0.00000E+00
 -1      2830 4.60350E+01 9.20225E+00 0.00000E+00
 -1      2831 5.12850E+01 7.90325E+00 0.00000E+00
 -1      2832 4.97850E+01 7.90325E+00 0.00000E+00
 -1      2833 4.90350E+01 9.20225E+00 0.00000E+00
 -1      2834 5.42850E+01 7.90325E+00 0.00000E+00
 -1      2835 5.27850E+01 7.90325E+00 0.00000E+00
 -1      2836 5.20350E+01 9.20225E+00 0.00000E+00
 -1      2837 5.72850E+01 7.90325E+00 0.00000E+00
 -1      2838 5.57850E+01 7.90325E+00 0.00000E+00
 -1      2839 5.50350E+01 9.20225E+00 0.00000E+00
 -1      2840 6.02850E+01 7.90325E+00 0.00000E+00
 -1      2841 5.87850E+01 7.90325E+00 0.00000E+00
 -1      2842 5.80350E+01 9.20225E+00 0.00000E+00
 -1      2843 6.32850E+01 7.90325E+00 0.00000E+00
 -1      2844 6.17850E+01 7.90325E+00 0.00000E+00
 -1      2845 6.10350E+01 9.20225E+00 0.00000E+00
 -1      2846 6.62850E+01 7.90325E+00 0.00000E+00
 -1      2847 6.47850E+01 7.90325E+00 0.00000E+00
 -1      2848 6.40350E+01 9.20225E+00 0.00000E+00
 -1      2849 6.92850E+01 7.90325E+00 0.00000E+00
 -1      2850 6.77850E+01 7.90325E+00 0.00000E+00
 -1      2851 6.70350E+01 9.20225E+00 0.00000E+00
 -1      2852 7.22850E+01 7.90325E+00 0.00000E+00
 -1      2853 7.07850E+01 7.90325E+00 0.00000E+00
 -1      2854 7.00350E+01 9.20225E+00 0.00000E+00
 -1      2855 7.52850E+01 7.90325E+00 0.00000E+00
 -1      2856 7.37850E+01 7.90325E+00 0.00000E+00
 -1      2857 7.30350E+01 9.20225E+00 0.00000E+00
 -1      2858 7.82850E+01 7.90325E+00 0.00000E+00
 -1      2859 7.67850E+01 7.90325E+00 0.00000E+00
 -1      2860 7.60350E+01 9.20225E+00 0.00000E+00
 -1      2861 8.12850E+01 7.90325E+00 0.00000E+00
 -1      2862 7.97850E+01 7.90325E+00 0.00000E+00
 -1      2863 7.90350E+01 9.20225E+00 0.00000E+00
 -1      2864 8.42850E+01 7.90325E+00 0.00000E+00
 -1      2865 8.27850E+01 7.90325E+00 0.00000E+00
 -1      2866 8.20350E+01 9.20225E+00 0.00000E+00
 -1      2867 8.72850E+01 7.90325E+00 0.00000E+00
 -1      2868 8.57850E+01 7.90325E+00 0.00000E+00
 -1      2869 8.50350E+01 9.20225E+00 0.00000E+00
 -1      2870 9.02850E+01 7.90325E+00 0.00000E+00
 -1      2871 8.87850E+01 7.90325E+00 0.00000E+00
 -1      2872 8.80350E+01 9.20225E+00 0.00000E+00
 -1      2873 9.32850E+01 7.90325E+00 0.00000E+00
 -1      2874 9.17850E+01 7.90325E+00 0.00000E+00
 -1      2875 9.10350E+01 9.20225E+00 0.00000E+00
 -1      2876 9.62850E+01 7.90325E+00 0.00000E+00
 -1      2877 9.47850E+01 7.90325E+00 0.00000E+00
 -1      2878 9.40350E+01 9.20225E+00 0.00000E+00
 -1      2879 9.92850E+01 7.90325E+00 0.00000E+00
 -1      2880 9.77850E+01 7.90325E+00 0.00000E+00
 -1      2881 9.70350E+01 9.20225E+00 0.00000E+00
 -1      2882 1.02285E+02 7.90325E+00 0.00000E+00
 -1      2883 1.00785E+02 7.90325E+00 0.00000E+00
 -1      2884 1.00035E+02 9.20225E+00 0.00000E+00
 -1      2885 1.05285E+02 7.90325E+00 0.00000E+00
 -1      2886 1.03785E+02 7.90325E+00 0.00000E+00
 -1      2887 1.03035E+02 9.20225E+00 0.00000E+00
 -1      2888 1.08285E+02 7.90325E+00 0.00000E+00
 -1      2889 1.06785E+02 7.90325E+00 0.00000E+00
 -1      2890 1.06035E+02 9.20225E+00 0.00000E+00
 -1      2891 1.11285E+02 7.90325E+00 0.00000E+00
 -1      2892 1.09785E+02 7.90325E+00 0.00000E+00
 -1      2893 1.09035E+02 9.20225E+00 0.00000E+00
 -1      2894 1.14285E+02 7.90325E+00 0.00000E+00
 -1      2895 1.12785E+02 7.90325E+00 0.00000E+00
 -1      2896 1.12035E+02 9.20225E+00 0.00000E+00
 -1      2897 1.17285E+02 7.90325E+00 0.00000E+00
 -1      2898 1.15785E+02 7.90325E+00 0.00000E+00
 -1      2899 1.15035E+02 9.20225E+00 0.00000E+00
 -1      2900 1.20285E+02 7.90325E+00 0.00000E+00
 -1      2901 1.18785E+02 7.90325E+00 0.00000E+00
 -1      2902 1.18035E+02 9.20225E+00 0.00000E+00
 -1      2903 1.23285E+02 7.90325E+00 0.00000E+00
 -1      2904 1.21785E+02 7.90325E+00 0.00000E+00
 -1      2905 1.21035E+02 9.20225E+00 0.00000E+00
 -1      2906 1.26285E+02 7.90325E+00 0.00000E+00
 -1      2907 1.24785E+02 7.90325E+00 0.00000E+00
 -1      2908 1.24035E+02 9.20225E+00 0.00000E+00
 -1      2909 1.29285E+02 7.90325E+00 0.00000E+00
 -1      2910 1.27785E+02 7.90325E+00 0.00000E+00
 -1      2911 1.27035E+02 9.20225E+00 0.00000E+00
 -1      2912 1.32285E+02 7.90325E+00 0.00000E+00
 -1      2913 1.30785E+02 7.90325E+00 0.00000E+00
 -1      2914 1.30035E+02 9.20225E+00 0.00000E+00
 -1      2915 1.35285E+02 7.90325E+00 0.00000E+00
 -1      2916 1.33785E+02 7.90325E+00 0.00000E+00
 -1      2917 1.33035E+02 9.20225E+00 0.00000E+00
 -1      2918 1.37953E+02 8.18394E+00 0.00000E+00
 -1      2919 1.36453E+02 8.18394E+00 0.00000E+00
 -1      2920 1.35703E+02 9.48294E+00 0.00000E+00
 -1      2921 1.38038E+02 1.00443E+01 0.00000E+00
 -1      2922 1.40907E+02 2.42875E+01 0.00000E+00
 -1      2923 1.40907E+02 2.28125E+01 0.00000E+00
 -1      2924 1.39914E+02 4.09362E+01 0.00000E+00
 -1      2925 1.40928E+02 4.09655E+01 0.00000E+00
 -1      2926 1.39164E+02 3.96372E+01 0.00000E+00
 -1      2927 1.40907E+02 1.83875E+01 0.00000E+00
 -1      2928 1.40907E+02 1.69125E+01 0.00000E+00
 -1      2929 1.40907E+02 2.72375E+01 0.00000E+00
 -1      2930 1.40907E+02 2.57625E+01 0.00000E+00
 -1      2931 1.39608E+02 2.50250E+01 0.00000E+00
 -1      2932 1.40907E+02 2.13375E+01 0.00000E+00
 -1      2933 1.40907E+02 1.98625E+01 0.00000E+00
 -1      2934 1.39608E+02 1.91250E+01 0.00000E+00
 -1      2935 1.39608E+02 2.20750E+01 0.00000E+00
 -1      2936 1.40907E+02 3.01375E+01 0.00000E+00
 -1      2937 1.40907E+02 2.86875E+01 0.00000E+00
 -1      2938 1.39608E+02 2.79500E+01 0.00000E+00
 -1      2939 1.40907E+02 3.30875E+01 0.00000E+00
 -1      2940 1.40907E+02 3.16125E+01 0.00000E+00
 -1      2941 1.39608E+02 3.08750E+01 0.00000E+00
 -1      2942 1.40907E+02 3.60375E+01 0.00000E+00
 -1      2943 1.40907E+02 3.45625E+01 0.00000E+00
 -1      2944 1.39608E+02 3.38250E+01 0.00000E+00
 -1      2945 8.56737E+01 2.39970E+01 0.00000E+00
 -1      2946 8.59000E+01 2.50801E+01 0.00000E+00
 -1      2947 8.50358E+01 3.13615E+01 0.00000E+00
 -1      2948 8.46443E+01 3.23399E+01 0.00000E+00
 -1      2949 8.21709E+01 3.58073E+01 0.00000E+00
 -1      2950 8.13104E+01 3.65297E+01 0.00000E+00
 -1      2951 7.79075E+01 3.80603E+01 0.00000E+00
 -1      2952 7.68454E+01 3.83174E+01 0.00000E+00
 -1      2953 7.91749E+01 1.62059E+01 0.00000E+00
 -1      2954 8.02907E+01 1.68355E+01 0.00000E+00
 -1      2955 6.48130E+01 1.87761E+01 0.00000E+00
 -1      2956 6.54323E+01 1.78477E+01 0.00000E+00
 -1      2957 7.56362E+01 3.87369E+01 0.00000E+00
 -1      2958 7.45794E+01 3.89732E+01 0.00000E+00
 -1      2959 8.52194E+01 2.88079E+01 0.00000E+00
 -1      2960 8.52166E+01 2.99525E+01 0.00000E+00
 -1      2961 1.82850E+01 7.90325E+00 0.00000E+00
 -1      2962 1.67850E+01 7.90325E+00 0.00000E+00
 -1      2963 1.90350E+01 9.20225E+00 0.00000E+00
 -1      2964 6.22256E+01 2.29190E+01 0.00000E+00
 -1      2965 6.28353E+01 2.16958E+01 0.00000E+00
 -1      2966 2.72850E+01 7.90325E+00 0.00000E+00
 -1      2967 2.57850E+01 7.90325E+00 0.00000E+00
 -1      2968 2.50350E+01 9.20225E+00 0.00000E+00
 -1      2969 2.80350E+01 9.20225E+00 0.00000E+00
 -1      2970 8.49017E+01 2.17868E+01 0.00000E+00
 -1      2971 8.52648E+01 2.28333E+01 0.00000E+00
 -1      2972 1.52850E+01 7.90325E+00 0.00000E+00
 -1      2973 1.37850E+01 7.90325E+00 0.00000E+00
 -1      2974 1.30350E+01 9.20225E+00 0.00000E+00
 -1      2975 1.60350E+01 9.20225E+00 0.00000E+00
 -1      2976 1.14000E+01 4.09070E+01 0.00000E+00
 -1      2977 1.29000E+01 4.09070E+01 0.00000E+00
 -1      2978 1.36500E+01 3.96080E+01 0.00000E+00
 -1      2979 6.66072E+01 1.67503E+01 0.00000E+00
 -1      2980 6.76849E+01 1.61055E+01 0.00000E+00
 -1      2981 8.01500E+01 3.72468E+01 0.00000E+00
 -1      2982 7.91090E+01 3.76992E+01 0.00000E+00
 -1      2983 6.89151E+01 1.54197E+01 0.00000E+00
 -1      2984 7.00137E+01 1.50139E+01 0.00000E+00
 -1      2985 6.34394E+01 2.04710E+01 0.00000E+00
 -1      2986 6.41262E+01 1.96236E+01 0.00000E+00
 -1      2987 6.35830E+01 1.85905E+01 0.00000E+00
 -1      2988 9.09300E+00 1.68813E+01 0.00000E+00
 -1      2989 9.09300E+00 1.83563E+01 0.00000E+00
 -1      2990 1.03920E+01 1.90812E+01 0.00000E+00
 -1      2991 1.03920E+01 1.61437E+01 0.00000E+00
 -1      2992 7.15411E+01 1.47908E+01 0.00000E+00
 -1      2993 7.28451E+01 1.47167E+01 0.00000E+00
 -1      2994 8.58658E+01 2.64058E+01 0.00000E+00
 -1      2995 8.55426E+01 2.76068E+01 0.00000E+00
 -1      2996 8.63987E+01 2.81813E+01 0.00000E+00
 -1      2997 9.09300E+00 3.15875E+01 0.00000E+00
 -1      2998 9.09300E+00 3.30625E+01 0.00000E+00
 -1      2999 6.25462E+01 3.06166E+01 0.00000E+00
 -1      3000 6.22223E+01 2.96873E+01 0.00000E+00
 -1      3001 6.47770E+01 3.48818E+01 0.00000E+00
 -1      3002 6.42919E+01 3.38036E+01 0.00000E+00
 -1      3003 6.67187E+01 3.67607E+01 0.00000E+00
 -1      3004 6.58477E+01 3.61427E+01 0.00000E+00
 -1      3005 6.66121E+01 3.79032E+01 0.00000E+00
 -1      3006 7.30794E+01 3.90569E+01 0.00000E+00
 -1      3007 7.19587E+01 3.90512E+01 0.00000E+00
 -1      3008 1.41192E+02 3.96958E+01 0.00000E+00
 -1      3009 8.14234E+01 1.74392E+01 0.00000E+00
 -1      3010 8.23503E+01 1.80756E+01 0.00000E+00
 -1      3011 7.66614E+01 1.52302E+01 0.00000E+00
 -1      3012 7.78386E+01 1.55030E+01 0.00000E+00
 -1      3013 6.16446E+01 2.55173E+01 0.00000E+00
 -1      3014 6.17665E+01 2.44044E+01 0.00000E+00
 -1      3015 8.96362E+00 4.05429E+01 0.00000E+00
 -1      3016 1.03271E+01 4.08069E+01 0.00000E+00
 -1      3017 1.10771E+01 3.95079E+01 0.00000E+00
 -1      3018 8.93137E+00 3.93078E+01 0.00000E+00
 -1      3019 7.43751E+01 1.48410E+01 0.00000E+00
 -1      3020 7.55183E+01 1.50356E+01 0.00000E+00
 -1      3021 7.63383E+01 1.41733E+01 0.00000E+00
 -1      3022 9.09300E+00 3.45313E+01 0.00000E+00
 -1      3023 9.09300E+00 3.60000E+01 0.00000E+00
 -1      3024 1.03920E+01 3.37938E+01 0.00000E+00
 -1      3025 1.03920E+01 2.49750E+01 0.00000E+00
 -1      3026 9.09300E+00 2.57000E+01 0.00000E+00
 -1      3027 9.09300E+00 2.71750E+01 0.00000E+00
 -1      3028 7.36651E+01 1.38545E+01 0.00000E+00
 -1      3029 8.32678E+01 3.57023E+01 0.00000E+00
 -1      3030 6.11048E+01 2.62162E+01 0.00000E+00
 -1      3031 9.66450E+00 9.72612E+00 0.00000E+00
 -1      3032 6.78499E+01 1.48624E+01 0.00000E+00
 -1      3033 6.34419E+01 3.35643E+01 0.00000E+00
 -1      3034 8.33627E+01 1.83426E+01 0.00000E+00
 -1      3035 8.43751E+01 1.86097E+01 0.00000E+00
 -1      3036 8.34320E+01 1.72484E+01 0.00000E+00
 -1      3037 6.14676E+01 2.90180E+01 0.00000E+00
 -1      3038 7.36500E+01 3.99044E+01 0.00000E+00
 -1      3039 6.53165E+01 3.90646E+01 0.00000E+00
 -1      3040 7.66500E+01 3.99882E+01 0.00000E+00
 -1      3041 7.96500E+01 3.98819E+01 0.00000E+00
 -1      3042 8.63815E+01 2.31652E+01 0.00000E+00
 -1      3043 1.39608E+02 1.61875E+01 0.00000E+00
 -1      3044 1.40907E+02 1.54500E+01 0.00000E+00
 -1      3045 1.40907E+02 1.39875E+01 0.00000E+00
 -1      3046 8.51392E+01 2.08527E+01 0.00000E+00
 -1      3047 6.22921E+01 2.06627E+01 0.00000E+00
 -1      3048 6.46703E+01 3.60242E+01 0.00000E+00
 -1      3049 6.34929E+01 3.59057E+01 0.00000E+00
 -1      3050 6.45637E+01 3.71666E+01 0.00000E+00
 -1      3051 1.40706E+02 1.17875E+01 0.00000E+00
 -1      3052 8.58948E+01 3.07914E+01 0.00000E+00
 -1      3053 1.09635E+01 1.04636E+01 0.00000E+00
 -1      3054 6.23898E+01 3.14136E+01 0.00000E+00
 -1      3055 8.67561E+01 2.56545E+01 0.00000E+00
 -1      3056 1.41192E+02 3.82207E+01 0.00000E+00
 -1      3057 8.49788E+01 3.33898E+01 0.00000E+00
 -1      3058 8.11317E+01 3.75424E+01 0.00000E+00
 -1      3059 7.88178E+01 1.50709E+01 0.00000E+00
 -1      3060 7.87699E+01 3.86206E+01 0.00000E+00
 -1      3061 8.12869E+01 1.63776E+01 0.00000E+00
 -1      3062 6.54448E+01 1.66456E+01 0.00000E+00
 -1      3063 6.12289E+01 2.33729E+01 0.00000E+00
 -1      3064 9.09300E+00 2.86437E+01 0.00000E+00
 -1      3065 9.09300E+00 3.01187E+01 0.00000E+00
 -1      3066 1.03920E+01 3.08563E+01 0.00000E+00
 -1      3067 1.03920E+01 2.79188E+01 0.00000E+00
 -1      3068 7.06076E+01 1.39534E+01 0.00000E+00
 -1      3069 7.08585E+01 3.88893E+01 0.00000E+00
 -1      3070 6.96969E+01 3.84969E+01 0.00000E+00
 -1      3071 1.39529E+02 3.85602E+01 0.00000E+00
 -1      3072 1.40542E+02 3.71145E+01 0.00000E+00
 -1      3073 1.39243E+02 3.63770E+01 0.00000E+00
 -1      3074 1.38514E+02 3.85310E+01 0.00000E+00
 -1      3075 7.10498E+01 3.98262E+01 0.00000E+00
 -1      3076 6.66949E+01 1.42367E+01 0.00000E+00
 -1      3077 6.79251E+01 1.35509E+01 0.00000E+00
 -1      3078 1.16910E+01 1.24625E+01 0.00000E+00
 -1      3079 1.16910E+01 1.39375E+01 0.00000E+00
 -1      3080 8.99606E+00 3.70363E+01 0.00000E+00
 -1      3081 9.02831E+00 3.82715E+01 0.00000E+00
 -1      3082 1.01012E+01 3.83715E+01 0.00000E+00
 -1      3083 1.02951E+01 3.62988E+01 0.00000E+00
 -1      3084 8.44663E+01 3.57581E+01 0.00000E+00
 -1      3085 8.34905E+01 3.68812E+01 0.00000E+00
 -1      3086 1.89000E+01 3.83090E+01 0.00000E+00
 -1      3087 2.04000E+01 3.83090E+01 0.00000E+00
 -1      3088 2.19000E+01 3.83090E+01 0.00000E+00
 -1      3089 2.34000E+01 3.83090E+01 0.00000E+00
 -1      3090 2.11500E+01 3.70100E+01 0.00000E+00
 -1      3091 2.49000E+01 3.83090E+01 0.00000E+00
 -1      3092 2.64000E+01 3.83090E+01 0.00000E+00
 -1      3093 2.41500E+01 3.70100E+01 0.00000E+00
 -1      3094 2.79000E+01 3.83090E+01 0.00000E+00
 -1      3095 2.94000E+01 3.83090E+01 0.00000E+00
 -1      3096 2.71500E+01 3.70100E+01 0.00000E+00
 -1      3097 3.09000E+01 3.83090E+01 0.00000E+00
 -1      3098 3.24000E+01 3.83090E+01 0.00000E+00
 -1      3099 3.01500E+01 3.70100E+01 0.00000E+00
 -1      3100 3.39000E+01 3.83090E+01 0.00000E+00
 -1      3101 3.54000E+01 3.83090E+01 0.00000E+00
 -1      3102 3.31500E+01 3.70100E+01 0.00000E+00
 -1      3103 3.69000E+01 3.83090E+01 0.00000E+00
 -1      3104 3.84000E+01 3.83090E+01 0.00000E+00
 -1      3105 3.61500E+01 3.70100E+01 0.00000E+00
 -1      3106 3.99000E+01 3.83090E+01 0.00000E+00
 -1      3107 4.14000E+01 3.83090E+01 0.00000E+00
 -1      3108 3.91500E+01 3.70100E+01 0.00000E+00
 -1      3109 4.29000E+01 3.83090E+01 0.00000E+00
 -1      3110 4.44000E+01 3.83090E+01 0.00000E+00
 -1      3111 4.21500E+01 3.70100E+01 0.00000E+00
 -1      3112 4.59000E+01 3.83090E+01 0.00000E+00
 -1      3113 4.74000E+01 3.83090E+01 0.00000E+00
 -1      3114 4.51500E+01 3.70100E+01 0.00000E+00
 -1      3115 4.89000E+01 3.83090E+01 0.00000E+00
 -1      3116 5.04000E+01 3.83090E+01 0.00000E+00
 -1      3117 4.81500E+01 3.70100E+01 0.00000E+00
 -1      3118 5.19000E+01 3.83090E+01 0.00000E+00
 -1      3119 5.34000E+01 3.83090E+01 0.00000E+00
 -1      3120 5.11500E+01 3.70100E+01 0.00000E+00
 -1      3121 5.49000E+01 3.83090E+01 0.00000E+00
 -1      3122 5.64000E+01 3.83090E+01 0.00000E+00
 -1      3123 5.41500E+01 3.70100E+01 0.00000E+00
 -1      3124 5.79000E+01 3.83090E+01 0.00000E+00
 -1      3125 5.94000E+01 3.83090E+01 0.00000E+00
 -1      3126 5.71500E+01 3.70100E+01 0.00000E+00
 -1      3127 6.17681E+01 3.83281E+01 0.00000E+00
 -1      3128 6.32681E+01 3.83281E+01 0.00000E+00
 -1      3129 7.02998E+01 4.09352E+01 0.00000E+00
 -1      3130 8.44195E+01 3.82725E+01 0.00000E+00
 -1      3131 8.59195E+01 3.82725E+01 0.00000E+00
 -1      3132 8.79000E+01 3.83090E+01 0.00000E+00
 -1      3133 8.94000E+01 3.83090E+01 0.00000E+00
 -1      3134 9.09000E+01 3.83090E+01 0.00000E+00
 -1      3135 9.24000E+01 3.83090E+01 0.00000E+00
 -1      3136 9.01500E+01 3.70100E+01 0.00000E+00
 -1      3137 9.39000E+01 3.83090E+01 0.00000E+00
 -1      3138 9.54000E+01 3.83090E+01 0.00000E+00
 -1      3139 9.31500E+01 3.70100E+01 0.00000E+00
 -1      3140 9.69000E+01 3.83090E+01 0.00000E+00
 -1      3141 9.84000E+01 3.83090E+01 0.00000E+00
 -1      3142 9.61500E+01 3.70100E+01 0.00000E+00
 -1      3143 9.99000E+01 3.83090E+01 0.00000E+00
 -1      3144 1.01400E+02 3.83090E+01 0.00000E+00
 -1      3145 9.91500E+01 3.70100E+01 0.00000E+00
 -1      3146 1.02900E+02 3.83090E+01 0.00000E+00
 -1      3147 1.04400E+02 3.83090E+01 0.00000E+00
 -1      3148 1.02150E+02 3.70100E+01 0.00000E+00
 -1      3149 1.05900E+02 3.83090E+01 0.00000E+00
 -1      3150 1.07400E+02 3.83090E+01 0.00000E+00
 -1      3151 1.05150E+02 3.70100E+01 0.00000E+00
 -1      3152 1.08900E+02 3.83090E+01 0.00000E+00
 -1      3153 1.10400E+02 3.83090E+01 0.00000E+00
 -1      3154 1.08150E+02 3.70100E+01 0.00000E+00
 -1      3155 1.11900E+02 3.83090E+01 0.00000E+00
 -1      3156 1.13400E+02 3.83090E+01 0.00000E+00
 -1      3157 1.11150E+02 3.70100E+01 0.00000E+00
 -1      3158 1.14900E+02 3.83090E+01 0.00000E+00
 -1      3159 1.16400E+02 3.83090E+01 0.00000E+00
 -1      3160 1.14150E+02 3.70100E+01 0.00000E+00
 -1      3161 1.17900E+02 3.83090E+01 0.00000E+00
 -1      3162 1.19400E+02 3.83090E+01 0.00000E+00
 -1      3163 1.17150E+02 3.70100E+01 0.00000E+00
 -1      3164 1.20900E+02 3.83090E+01 0.00000E+00
 -1      3165 1.22400E+02 3.83090E+01 0.00000E+00
 -1      3166 1.20150E+02 3.70100E+01 0.00000E+00
 -1      3167 1.23900E+02 3.83090E+01 0.00000E+00
 -1      3168 1.25400E+02 3.83090E+01 0.00000E+00
 -1      3169 1.23150E+02 3.70100E+01 0.00000E+00
 -1      3170 1.26900E+02 3.83090E+01 0.00000E+00
 -1      3171 1.28400E+02 3.83090E+01 0.00000E+00
 -1      3172 1.26150E+02 3.70100E+01 0.00000E+00
 -1      3173 1.29900E+02 3.83090E+01 0.00000E+00
 -1      3174 1.31400E+02 3.83090E+01 0.00000E+00
 -1      3175 1.29150E+02 3.70100E+01 0.00000E+00
 -1      3176 1.32900E+02 3.83090E+01 0.00000E+00
 -1      3177 1.34400E+02 3.83090E+01 0.00000E+00
 -1      3178 1.32150E+02 3.70100E+01 0.00000E+00
 -1      3179 1.35707E+02 3.84200E+01 0.00000E+00
 -1      3180 1.37207E+02 3.84200E+01 0.00000E+00
 -1      3181 1.37572E+02 3.73430E+01 0.00000E+00
 -1      3182 1.34957E+02 3.71210E+01 0.00000E+00
 -1      3183 1.38309E+02 2.86750E+01 0.00000E+00
 -1      3184 1.38309E+02 2.72250E+01 0.00000E+00
 -1      3185 2.27850E+01 1.05013E+01 0.00000E+00
 -1      3186 2.12850E+01 1.05013E+01 0.00000E+00
 -1      3187 3.47850E+01 1.05013E+01 0.00000E+00
 -1      3188 3.32850E+01 1.05013E+01 0.00000E+00
 -1      3189 3.17850E+01 1.05013E+01 0.00000E+00
 -1      3190 3.02850E+01 1.05013E+01 0.00000E+00
 -1      3191 3.25350E+01 1.18003E+01 0.00000E+00
 -1      3192 4.07850E+01 1.05013E+01 0.00000E+00
 -1      3193 3.92850E+01 1.05013E+01 0.00000E+00
 -1      3194 4.37850E+01 1.05013E+01 0.00000E+00
 -1      3195 4.22850E+01 1.05013E+01 0.00000E+00
 -1      3196 4.15350E+01 1.18003E+01 0.00000E+00
 -1      3197 4.67850E+01 1.05013E+01 0.00000E+00
 -1      3198 4.52850E+01 1.05013E+01 0.00000E+00
 -1      3199 4.45350E+01 1.18003E+01 0.00000E+00
 -1      3200 4.97850E+01 1.05013E+01 0.00000E+00
 -1      3201 4.82850E+01 1.05013E+01 0.00000E+00
 -1      3202 4.75350E+01 1.18003E+01 0.00000E+00
 -1      3203 5.27850E+01 1.05013E+01 0.00000E+00
 -1      3204 5.12850E+01 1.05013E+01 0.00000E+00
 -1      3205 5.05350E+01 1.18003E+01 0.00000E+00
 -1      3206 5.57850E+01 1.05013E+01 0.00000E+00
 -1      3207 5.42850E+01 1.05013E+01 0.00000E+00
 -1      3208 5.35350E+01 1.18003E+01 0.00000E+00
 -1      3209 5.87850E+01 1.05013E+01 0.00000E+00
 -1      3210 5.72850E+01 1.05013E+01 0.00000E+00
 -1      3211 5.65350E+01 1.18003E+01 0.00000E+00
 -1      3212 6.17850E+01 1.05013E+01 0.00000E+00
 -1      3213 6.02850E+01 1.05013E+01 0.00000E+00
 -1      3214 5.95350E+01 1.18003E+01 0.00000E+00
 -1      3215 6.47850E+01 1.05013E+01 0.00000E+00
 -1      3216 6.32850E+01 1.05013E+01 0.00000E+00
 -1      3217 6.25350E+01 1.18003E+01 0.00000E+00
 -1      3218 6.76525E+01 1.10638E+01 0.00000E+00
 -1      3219 6.61525E+01 1.10638E+01 0.00000E+00
 -1      3220 7.37850E+01 1.03949E+01 0.00000E+00
 -1      3221 7.22850E+01 1.03949E+01 0.00000E+00
 -1      3222 7.97850E+01 1.03949E+01 0.00000E+00
 -1      3223 7.82850E+01 1.03949E+01 0.00000E+00
 -1      3224 8.27850E+01 1.03949E+01 0.00000E+00
 -1      3225 8.12850E+01 1.03949E+01 0.00000E+00
 -1      3226 8.05350E+01 1.15876E+01 0.00000E+00
 -1      3227 8.57850E+01 1.03949E+01 0.00000E+00
 -1      3228 8.42850E+01 1.03949E+01 0.00000E+00
 -1      3229 8.35350E+01 1.15876E+01 0.00000E+00
 -1      3230 8.87850E+01 1.03949E+01 0.00000E+00
 -1      3231 8.72850E+01 1.03949E+01 0.00000E+00
 -1      3232 8.65350E+01 1.15876E+01 0.00000E+00
 -1      3233 9.17850E+01 1.03949E+01 0.00000E+00
 -1      3234 9.02850E+01 1.03949E+01 0.00000E+00
 -1      3235 8.95350E+01 1.15876E+01 0.00000E+00
 -1      3236 9.47850E+01 1.03949E+01 0.00000E+00
 -1      3237 9.32850E+01 1.03949E+01 0.00000E+00
 -1      3238 9.25350E+01 1.15876E+01 0.00000E+00
 -1      3239 9.77850E+01 1.03949E+01 0.00000E+00
 -1      3240 9.62850E+01 1.03949E+01 0.00000E+00
 -1      3241 9.55350E+01 1.15876E+01 0.00000E+00
 -1      3242 1.00785E+02 1.03949E+01 0.00000E+00
 -1      3243 9.92850E+01 1.03949E+01 0.00000E+00
 -1      3244 9.85350E+01 1.15876E+01 0.00000E+00
 -1      3245 1.03785E+02 1.03949E+01 0.00000E+00
 -1      3246 1.02285E+02 1.03949E+01 0.00000E+00
 -1      3247 1.01535E+02 1.15876E+01 0.00000E+00
 -1      3248 1.06785E+02 1.03949E+01 0.00000E+00
 -1      3249 1.05285E+02 1.03949E+01 0.00000E+00
 -1      3250 1.04535E+02 1.15876E+01 0.00000E+00
 -1      3251 1.09785E+02 1.03949E+01 0.00000E+00
 -1      3252 1.08285E+02 1.03949E+01 0.00000E+00
 -1      3253 1.07535E+02 1.15876E+01 0.00000E+00
 -1      3254 1.12785E+02 1.03949E+01 0.00000E+00
 -1      3255 1.11285E+02 1.03949E+01 0.00000E+00
 -1      3256 1.10535E+02 1.15876E+01 0.00000E+00
 -1      3257 1.15785E+02 1.03949E+01 0.00000E+00
 -1      3258 1.14285E+02 1.03949E+01 0.00000E+00
 -1      3259 1.13535E+02 1.15876E+01 0.00000E+00
 -1      3260 1.18785E+02 1.03949E+01 0.00000E+00
 -1      3261 1.17285E+02 1.03949E+01 0.00000E+00
 -1      3262 1.16535E+02 1.15876E+01 0.00000E+00
 -1      3263 1.21785E+02 1.03949E+01 0.00000E+00
 -1      3264 1.20285E+02 1.03949E+01 0.00000E+00
 -1      3265 1.19535E+02 1.15876E+01 0.00000E+00
 -1      3266 1.24785E+02 1.03949E+01 0.00000E+00
 -1      3267 1.23285E+02 1.03949E+01 0.00000E+00
 -1      3268 1.22535E+02 1.15876E+01 0.00000E+00
 -1      3269 1.27785E+02 1.03949E+01 0.00000E+00
 -1      3270 1.26285E+02 1.03949E+01 0.00000E+00
 -1      3271 1.25535E+02 1.15876E+01 0.00000E+00
 -1      3272 1.30785E+02 1.03949E+01 0.00000E+00
 -1      3273 1.29285E+02 1.03949E+01 0.00000E+00
 -1      3274 1.28535E+02 1.15876E+01 0.00000E+00
 -1      3275 1.33785E+02 1.03949E+01 0.00000E+00
 -1      3276 1.32285E+02 1.03949E+01 0.00000E+00
 -1      3277 1.31535E+02 1.15876E+01 0.00000E+00
 -1      3278 1.16910E+01 2.12875E+01 0.00000E+00
 -1      3279 1.16910E+01 2.27625E+01 0.00000E+00
 -1      3280 6.06241E+01 2.97564E+01 0.00000E+00
 -1      3281 6.05963E+01 2.83126E+01 0.00000E+00
 -1      3282 1.38309E+02 3.45625E+01 0.00000E+00
 -1      3283 1.38309E+02 3.30875E+01 0.00000E+00
 -1      3284 1.38309E+02 2.57500E+01 0.00000E+00
 -1      3285 1.38309E+02 2.42750E+01 0.00000E+00
 -1      3286 1.37010E+02 2.64750E+01 0.00000E+00
 -1      3287 6.25044E+01 3.42974E+01 0.00000E+00
 -1      3288 6.23467E+01 3.30984E+01 0.00000E+00
 -1      3289 6.14523E+01 3.21467E+01 0.00000E+00
 -1      3290 7.59528E+01 1.29829E+01 0.00000E+00
 -1      3291 7.70960E+01 1.31774E+01 0.00000E+00
 -1      3292 1.97850E+01 1.05013E+01 0.00000E+00
 -1      3293 1.82850E+01 1.05013E+01 0.00000E+00
 -1      3294 2.05350E+01 1.18003E+01 0.00000E+00
 -1      3295 6.96714E+01 1.28849E+01 0.00000E+00
 -1      3296 7.11989E+01 1.26617E+01 0.00000E+00
 -1      3297 7.63592E+01 3.94011E+01 0.00000E+00
 -1      3298 6.02613E+01 2.69547E+01 0.00000E+00
 -1      3299 5.99263E+01 2.55968E+01 0.00000E+00
 -1      3300 5.94178E+01 2.76931E+01 0.00000E+00
 -1      3301 1.38309E+02 3.16187E+01 0.00000E+00
 -1      3302 1.38309E+02 3.01437E+01 0.00000E+00
 -1      3303 1.37010E+02 2.94188E+01 0.00000E+00
 -1      3304 1.37010E+02 3.23563E+01 0.00000E+00
 -1      3305 3.77850E+01 1.05013E+01 0.00000E+00
 -1      3306 3.62850E+01 1.05013E+01 0.00000E+00
 -1      3307 3.55350E+01 1.18003E+01 0.00000E+00
 -1      3308 3.85350E+01 1.18003E+01 0.00000E+00
 -1      3309 8.70020E+01 3.02173E+01 0.00000E+00
 -1      3310 8.68212E+01 3.16263E+01 0.00000E+00
 -1      3311 7.25850E+01 1.26590E+01 0.00000E+00
 -1      3312 7.41151E+01 1.27832E+01 0.00000E+00
 -1      3313 1.26488E+01 1.02017E+01 0.00000E+00
 -1      3314 1.20772E+01 1.14631E+01 0.00000E+00
 -1      3315 1.33763E+01 1.22006E+01 0.00000E+00
 -1      3316 1.41488E+01 1.02017E+01 0.00000E+00
 -1      3317 1.29000E+01 3.83090E+01 0.00000E+00
 -1      3318 1.44000E+01 3.83090E+01 0.00000E+00
 -1      3319 6.10707E+01 2.08216E+01 0.00000E+00
 -1      3320 6.16748E+01 1.95968E+01 0.00000E+00
 -1      3321 8.71442E+01 2.22435E+01 0.00000E+00
 -1      3322 8.75530E+01 2.34072E+01 0.00000E+00
 -1      3323 7.90607E+01 3.92076E+01 0.00000E+00
 -1      3324 8.05607E+01 3.89337E+01 0.00000E+00
 -1      3325 8.56200E+01 1.96271E+01 0.00000E+00
 -1      3326 8.64535E+01 2.07759E+01 0.00000E+00
 -1      3327 7.85879E+01 1.38863E+01 0.00000E+00
 -1      3328 7.99243E+01 1.45893E+01 0.00000E+00
 -1      3329 8.12028E+01 1.51711E+01 0.00000E+00
 -1      3330 8.23355E+01 1.57748E+01 0.00000E+00
 -1      3331 1.59000E+01 3.83090E+01 0.00000E+00
 -1      3332 1.74000E+01 3.83090E+01 0.00000E+00
 -1      3333 1.81500E+01 3.70100E+01 0.00000E+00
 -1      3334 6.23781E+01 1.83160E+01 0.00000E+00
 -1      3335 6.30649E+01 1.74686E+01 0.00000E+00
 -1      3336 8.76483E+01 2.78151E+01 0.00000E+00
 -1      3337 8.73252E+01 2.90162E+01 0.00000E+00
 -1      3338 8.82516E+01 2.98512E+01 0.00000E+00
 -1      3339 6.87163E+01 3.90928E+01 0.00000E+00
 -1      3340 1.39407E+02 1.25250E+01 0.00000E+00
 -1      3341 6.00199E+01 2.38130E+01 0.00000E+00
 -1      3342 6.04790E+01 2.23275E+01 0.00000E+00
 -1      3343 8.61472E+01 3.32900E+01 0.00000E+00
 -1      3344 8.54119E+01 3.44794E+01 0.00000E+00
 -1      3345 6.41004E+01 1.63839E+01 0.00000E+00
 -1      3346 6.52753E+01 1.52865E+01 0.00000E+00
 -1      3347 8.77142E+01 2.50160E+01 0.00000E+00
 -1      3348 8.76800E+01 2.63416E+01 0.00000E+00
 -1      3349 8.17210E+01 3.82167E+01 0.00000E+00
 -1      3350 8.32210E+01 3.82167E+01 0.00000E+00
 -1      3351 1.16910E+01 2.42375E+01 0.00000E+00
 -1      3352 1.16910E+01 2.57125E+01 0.00000E+00
 -1      3353 1.29900E+01 2.35000E+01 0.00000E+00
 -1      3354 1.29900E+01 1.46687E+01 0.00000E+00
 -1      3355 1.16910E+01 1.54063E+01 0.00000E+00
 -1      3356 1.16910E+01 1.68750E+01 0.00000E+00
 -1      3357 6.85164E+01 1.22592E+01 0.00000E+00
 -1      3358 6.28955E+01 1.61095E+01 0.00000E+00
 -1      3359 6.44455E+01 3.84465E+01 0.00000E+00
 -1      3360 8.33479E+01 1.60419E+01 0.00000E+00
 -1      3361 8.43603E+01 1.63089E+01 0.00000E+00
 -1      3362 8.32637E+01 1.48354E+01 0.00000E+00
 -1      3363 6.10181E+01 3.70291E+01 0.00000E+00
 -1      3364 8.84770E+01 2.40943E+01 0.00000E+00
 -1      3365 8.86065E+01 2.71766E+01 0.00000E+00
 -1      3366 1.38309E+02 1.69188E+01 0.00000E+00
 -1      3367 1.38309E+02 1.54563E+01 0.00000E+00
 -1      3368 1.51500E+01 3.70100E+01 0.00000E+00
 -1      3369 7.78727E+01 1.17873E+01 0.00000E+00
 -1      3370 7.82582E+01 1.29778E+01 0.00000E+00
 -1      3371 2.42850E+01 1.05013E+01 0.00000E+00
 -1      3372 2.35350E+01 1.18003E+01 0.00000E+00
 -1      3373 2.57850E+01 1.05013E+01 0.00000E+00
 -1      3374 8.09728E+01 1.39865E+01 0.00000E+00
 -1      3375 7.16488E+01 1.15904E+01 0.00000E+00
 -1      3376 8.83615E+01 3.21419E+01 0.00000E+00
 -1      3377 8.72543E+01 3.27160E+01 0.00000E+00
 -1      3378 8.76874E+01 3.38056E+01 0.00000E+00
 -1      3379 2.95350E+01 1.18003E+01 0.00000E+00
 -1      3380 2.87850E+01 1.05013E+01 0.00000E+00
 -1      3381 2.72850E+01 1.05013E+01 0.00000E+00
 -1      3382 6.54025E+01 1.23628E+01 0.00000E+00
 -1      3383 7.08988E+01 1.03977E+01 0.00000E+00
 -1      3384 6.93988E+01 1.03977E+01 0.00000E+00
 -1      3385 7.71227E+01 1.05946E+01 0.00000E+00
 -1      3386 7.56227E+01 1.05946E+01 0.00000E+00
 -1      3387 1.34953E+02 1.06756E+01 0.00000E+00
 -1      3388 1.34203E+02 1.18683E+01 0.00000E+00
 -1      3389 1.36120E+02 1.09563E+01 0.00000E+00
 -1      3390 1.16910E+01 1.98188E+01 0.00000E+00
 -1      3391 1.29900E+01 2.05562E+01 0.00000E+00
 -1      3392 1.16910E+01 1.83500E+01 0.00000E+00
 -1      3393 1.38309E+02 1.98687E+01 0.00000E+00
 -1      3394 1.38309E+02 1.83937E+01 0.00000E+00
 -1      3395 1.37010E+02 1.76625E+01 0.00000E+00
 -1      3396 8.66695E+01 3.69735E+01 0.00000E+00
 -1      3397 1.38309E+02 2.28094E+01 0.00000E+00
 -1      3398 1.38309E+02 2.13344E+01 0.00000E+00
 -1      3399 1.37010E+02 2.06031E+01 0.00000E+00
 -1      3400 1.37010E+02 2.35344E+01 0.00000E+00
 -1      3401 8.56894E+01 1.85329E+01 0.00000E+00
 -1      3402 7.78592E+01 3.95687E+01 0.00000E+00
 -1      3403 8.76251E+01 2.10180E+01 0.00000E+00
 -1      3404 5.98617E+01 2.12616E+01 0.00000E+00
 -1      3405 6.03222E+01 3.29608E+01 0.00000E+00
 -1      3406 6.03653E+01 3.12759E+01 0.00000E+00
 -1      3407 7.48727E+01 1.17873E+01 0.00000E+00
 -1      3408 5.94940E+01 3.05705E+01 0.00000E+00
 -1      3409 8.56346E+01 3.56584E+01 0.00000E+00
 -1      3410 5.83329E+01 2.52898E+01 0.00000E+00
 -1      3411 5.91764E+01 2.45514E+01 0.00000E+00
 -1      3412 5.84265E+01 2.35060E+01 0.00000E+00
 -1      3413 6.11567E+01 1.84749E+01 0.00000E+00
 -1      3414 1.69669E+01 1.03515E+01 0.00000E+00
 -1      3415 1.54669E+01 1.03515E+01 0.00000E+00
 -1      3416 1.50806E+01 1.13509E+01 0.00000E+00
 -1      3417 1.77169E+01 1.16505E+01 0.00000E+00
 -1      3418 6.53505E+01 1.39751E+01 0.00000E+00
 -1      3419 1.37758E+02 3.64912E+01 0.00000E+00
 -1      3420 1.38123E+02 3.54142E+01 0.00000E+00
 -1      3421 1.36824E+02 3.46768E+01 0.00000E+00
 -1      3422 1.36451E+02 3.63802E+01 0.00000E+00
 -1      3423 1.38274E+02 1.38503E+01 0.00000E+00
 -1      3424 1.38073E+02 1.16503E+01 0.00000E+00
 -1      3425 1.36905E+02 1.13696E+01 0.00000E+00
 -1      3426 1.36975E+02 1.45815E+01 0.00000E+00
 -1      3427 1.16910E+01 3.01219E+01 0.00000E+00
 -1      3428 1.16910E+01 3.15906E+01 0.00000E+00
 -1      3429 1.11741E+01 3.84716E+01 0.00000E+00
 -1      3430 1.16910E+01 3.30594E+01 0.00000E+00
 -1      3431 1.16910E+01 3.45281E+01 0.00000E+00
 -1      3432 1.29900E+01 3.23250E+01 0.00000E+00
 -1      3433 1.19241E+01 3.71726E+01 0.00000E+00
 -1      3434 2.34000E+01 3.57110E+01 0.00000E+00
 -1      3435 2.49000E+01 3.57110E+01 0.00000E+00
 -1      3436 2.64000E+01 3.57110E+01 0.00000E+00
 -1      3437 2.79000E+01 3.57110E+01 0.00000E+00
 -1      3438 2.56500E+01 3.44120E+01 0.00000E+00
 -1      3439 2.94000E+01 3.57110E+01 0.00000E+00
 -1      3440 3.09000E+01 3.57110E+01 0.00000E+00
 -1      3441 2.86500E+01 3.44120E+01 0.00000E+00
 -1      3442 3.24000E+01 3.57110E+01 0.00000E+00
 -1      3443 3.39000E+01 3.57110E+01 0.00000E+00
 -1      3444 3.16500E+01 3.44120E+01 0.00000E+00
 -1      3445 3.54000E+01 3.57110E+01 0.00000E+00
 -1      3446 3.69000E+01 3.57110E+01 0.00000E+00
 -1      3447 3.46500E+01 3.44120E+01 0.00000E+00
 -1      3448 3.84000E+01 3.57110E+01 0.00000E+00
 -1      3449 3.99000E+01 3.57110E+01 0.00000E+00
 -1      3450 3.76500E+01 3.44120E+01 0.00000E+00
 -1      3451 4.14000E+01 3.57110E+01 0.00000E+00
 -1      3452 4.29000E+01 3.57110E+01 0.00000E+00
 -1      3453 4.06500E+01 3.44120E+01 0.00000E+00
 -1      3454 4.44000E+01 3.57110E+01 0.00000E+00
 -1      3455 4.59000E+01 3.57110E+01 0.00000E+00
 -1      3456 4.36500E+01 3.44120E+01 0.00000E+00
 -1      3457 4.74000E+01 3.57110E+01 0.00000E+00
 -1      3458 4.89000E+01 3.57110E+01 0.00000E+00
 -1      3459 4.66500E+01 3.44120E+01 0.00000E+00
 -1      3460 5.04000E+01 3.57110E+01 0.00000E+00
 -1      3461 5.19000E+01 3.57110E+01 0.00000E+00
 -1      3462 4.96500E+01 3.44120E+01 0.00000E+00
 -1      3463 5.34000E+01 3.57110E+01 0.00000E+00
 -1      3464 5.49000E+01 3.57110E+01 0.00000E+00
 -1      3465 5.26500E+01 3.44120E+01 0.00000E+00
 -1      3466 5.64000E+01 3.57110E+01 0.00000E+00
 -1      3467 5.79000E+01 3.57110E+01 0.00000E+00
 -1      3468 5.56500E+01 3.44120E+01 0.00000E+00
 -1      3469 8.94998E+01 2.31794E+01 0.00000E+00
 -1      3470 8.96609E+01 2.47881E+01 0.00000E+00
 -1      3471 8.76151E+01 3.56948E+01 0.00000E+00
 -1      3472 1.44000E+01 3.57110E+01 0.00000E+00
 -1      3473 1.59000E+01 3.57110E+01 0.00000E+00
 -1      3474 9.24000E+01 3.57110E+01 0.00000E+00
 -1      3475 9.39000E+01 3.57110E+01 0.00000E+00
 -1      3476 9.54000E+01 3.57110E+01 0.00000E+00
 -1      3477 9.69000E+01 3.57110E+01 0.00000E+00
 -1      3478 9.46500E+01 3.44120E+01 0.00000E+00
 -1      3479 9.84000E+01 3.57110E+01 0.00000E+00
 -1      3480 9.99000E+01 3.57110E+01 0.00000E+00
 -1      3481 9.76500E+01 3.44120E+01 0.00000E+00
 -1      3482 1.01400E+02 3.57110E+01 0.00000E+00
 -1      3483 1.02900E+02 3.57110E+01 0.00000E+00
 -1      3484 1.00650E+02 3.44120E+01 0.00000E+00
 -1      3485 1.04400E+02 3.57110E+01 0.00000E+00
 -1      3486 1.05900E+02 3.57110E+01 0.00000E+00
 -1      3487 1.03650E+02 3.44120E+01 0.00000E+00
 -1      3488 1.07400E+02 3.57110E+01 0.00000E+00
 -1      3489 1.08900E+02 3.57110E+01 0.00000E+00
 -1      3490 1.06650E+02 3.44120E+01 0.00000E+00
 -1      3491 1.10400E+02 3.57110E+01 0.00000E+00
 -1      3492 1.11900E+02 3.57110E+01 0.00000E+00
 -1      3493 1.09650E+02 3.44120E+01 0.00000E+00
 -1      3494 1.13400E+02 3.57110E+01 0.00000E+00
 -1      3495 1.14900E+02 3.57110E+01 0.00000E+00
 -1      3496 1.12650E+02 3.44120E+01 0.00000E+00
 -1      3497 1.16400E+02 3.57110E+01 0.00000E+00
 -1      3498 1.17900E+02 3.57110E+01 0.00000E+00
 -1      3499 1.15650E+02 3.44120E+01 0.00000E+00
 -1      3500 1.19400E+02 3.57110E+01 0.00000E+00
 -1      3501 1.20900E+02 3.57110E+01 0.00000E+00
 -1      3502 1.18650E+02 3.44120E+01 0.00000E+00
 -1      3503 1.22400E+02 3.57110E+01 0.00000E+00
 -1      3504 1.23900E+02 3.57110E+01 0.00000E+00
 -1      3505 1.21650E+02 3.44120E+01 0.00000E+00
 -1      3506 1.25400E+02 3.57110E+01 0.00000E+00
 -1      3507 1.26900E+02 3.57110E+01 0.00000E+00
 -1      3508 1.24650E+02 3.44120E+01 0.00000E+00
 -1      3509 1.28400E+02 3.57110E+01 0.00000E+00
 -1      3510 1.29900E+02 3.57110E+01 0.00000E+00
 -1      3511 1.27650E+02 3.44120E+01 0.00000E+00
 -1      3512 1.31400E+02 3.57110E+01 0.00000E+00
 -1      3513 1.32900E+02 3.57110E+01 0.00000E+00
 -1      3514 1.30650E+02 3.44120E+01 0.00000E+00
 -1      3515 4.52850E+01 1.30992E+01 0.00000E+00
 -1      3516 4.37850E+01 1.30992E+01 0.00000E+00
 -1      3517 4.22850E+01 1.30992E+01 0.00000E+00
 -1      3518 4.07850E+01 1.30992E+01 0.00000E+00
 -1      3519 4.30350E+01 1.43982E+01 0.00000E+00
 -1      3520 5.12850E+01 1.30992E+01 0.00000E+00
 -1      3521 4.97850E+01 1.30992E+01 0.00000E+00
 -1      3522 5.42850E+01 1.30992E+01 0.00000E+00
 -1      3523 5.27850E+01 1.30992E+01 0.00000E+00
 -1      3524 5.20350E+01 1.43982E+01 0.00000E+00
 -1      3525 5.72850E+01 1.30992E+01 0.00000E+00
 -1      3526 5.57850E+01 1.30992E+01 0.00000E+00
 -1      3527 5.50350E+01 1.43982E+01 0.00000E+00
 -1      3528 6.02850E+01 1.30992E+01 0.00000E+00
 -1      3529 5.87850E+01 1.30992E+01 0.00000E+00
 -1      3530 5.80350E+01 1.43982E+01 0.00000E+00
 -1      3531 9.02850E+01 1.28866E+01 0.00000E+00
 -1      3532 8.87850E+01 1.28866E+01 0.00000E+00
 -1      3533 9.32850E+01 1.28866E+01 0.00000E+00
 -1      3534 9.17850E+01 1.28866E+01 0.00000E+00
 -1      3535 9.10350E+01 1.41856E+01 0.00000E+00
 -1      3536 9.62850E+01 1.28866E+01 0.00000E+00
 -1      3537 9.47850E+01 1.28866E+01 0.00000E+00
 -1      3538 9.40350E+01 1.41856E+01 0.00000E+00
 -1      3539 9.92850E+01 1.28866E+01 0.00000E+00
 -1      3540 9.77850E+01 1.28866E+01 0.00000E+00
 -1      3541 9.70350E+01 1.41856E+01 0.00000E+00
 -1      3542 1.02285E+02 1.28866E+01 0.00000E+00
 -1      3543 1.00785E+02 1.28866E+01 0.00000E+00
 -1      3544 1.00035E+02 1.41856E+01 0.00000E+00
 -1      3545 1.05285E+02 1.28866E+01 0.00000E+00
 -1      3546 1.03785E+02 1.28866E+01 0.00000E+00
 -1      3547 1.03035E+02 1.41856E+01 0.00000E+00
 -1      3548 1.08285E+02 1.28866E+01 0.00000E+00
 -1      3549 1.06785E+02 1.28866E+01 0.00000E+00
 -1      3550 1.06035E+02 1.41856E+01 0.00000E+00
 -1      3551 1.11285E+02 1.28866E+01 0.00000E+00
 -1      3552 1.09785E+02 1.28866E+01 0.00000E+00
 -1      3553 1.09035E+02 1.41856E+01 0.00000E+00
 -1      3554 1.14285E+02 1.28866E+01 0.00000E+00
 -1      3555 1.12785E+02 1.28866E+01 0.00000E+00
 -1      3556 1.12035E+02 1.41856E+01 0.00000E+00
 -1      3557 1.17285E+02 1.28866E+01 0.00000E+00
 -1      3558 1.15785E+02 1.28866E+01 0.00000E+00
 -1      3559 1.15035E+02 1.41856E+01 0.00000E+00
 -1      3560 1.20285E+02 1.28866E+01 0.00000E+00
 -1      3561 1.18785E+02 1.28866E+01 0.00000E+00
 -1      3562 1.18035E+02 1.41856E+01 0.00000E+00
 -1      3563 1.23285E+02 1.28866E+01 0.00000E+00
 -1      3564 1.21785E+02 1.28866E+01 0.00000E+00
 -1      3565 1.21035E+02 1.41856E+01 0.00000E+00
 -1      3566 1.26285E+02 1.28866E+01 0.00000E+00
 -1      3567 1.24785E+02 1.28866E+01 0.00000E+00
 -1      3568 1.24035E+02 1.41856E+01 0.00000E+00
 -1      3569 1.29285E+02 1.28866E+01 0.00000E+00
 -1      3570 1.27785E+02 1.28866E+01 0.00000E+00
 -1      3571 1.27035E+02 1.41856E+01 0.00000E+00
 -1      3572 1.32285E+02 1.28866E+01 0.00000E+00
 -1      3573 1.30785E+02 1.28866E+01 0.00000E+00
 -1      3574 1.30035E+02 1.41856E+01 0.00000E+00
 -1      3575 1.16910E+01 2.86531E+01 0.00000E+00
 -1      3576 1.29900E+01 2.93875E+01 0.00000E+00
 -1      3577 1.16910E+01 2.71844E+01 0.00000E+00
 -1      3578 7.93646E+01 1.24962E+01 0.00000E+00
 -1      3579 8.58216E+01 1.71007E+01 0.00000E+00
 -1      3580 8.70666E+01 1.81181E+01 0.00000E+00
 -1      3581 6.23977E+01 3.54398E+01 0.00000E+00
 -1      3582 2.12850E+01 1.30992E+01 0.00000E+00
 -1      3583 1.97850E+01 1.30992E+01 0.00000E+00
 -1      3584 1.35711E+02 2.72125E+01 0.00000E+00
 -1      3585 1.35711E+02 2.57375E+01 0.00000E+00
 -1      3586 5.92796E+01 3.41218E+01 0.00000E+00
 -1      3587 5.81926E+01 3.32510E+01 0.00000E+00
 -1      3588 6.39830E+01 1.34125E+01 0.00000E+00
 -1      3589 6.06975E+01 1.57962E+01 0.00000E+00
 -1      3590 6.17330E+01 1.47115E+01 0.00000E+00
 -1      3591 5.85087E+01 2.86377E+01 0.00000E+00
 -1      3592 5.81737E+01 2.72798E+01 0.00000E+00
 -1      3593 8.46556E+01 1.33450E+01 0.00000E+00
 -1      3594 8.31556E+01 1.33450E+01 0.00000E+00
 -1      3595 4.82850E+01 1.30992E+01 0.00000E+00
 -1      3596 4.67850E+01 1.30992E+01 0.00000E+00
 -1      3597 4.60350E+01 1.43982E+01 0.00000E+00
 -1      3598 4.90350E+01 1.43982E+01 0.00000E+00
 -1      3599 3.32850E+01 1.30992E+01 0.00000E+00
 -1      3600 3.17850E+01 1.30992E+01 0.00000E+00
 -1      3601 5.79910E+01 3.16767E+01 0.00000E+00
 -1      3602 5.82499E+01 3.01572E+01 0.00000E+00
 -1      3603 5.70057E+01 2.97438E+01 0.00000E+00
 -1      3604 8.95634E+01 2.64601E+01 0.00000E+00
 -1      3605 8.95317E+01 2.79336E+01 0.00000E+00
 -1      3606 5.85338E+01 2.16091E+01 0.00000E+00
 -1      3607 5.91254E+01 2.01032E+01 0.00000E+00
 -1      3608 8.08646E+01 1.24962E+01 0.00000E+00
 -1      3609 2.04000E+01 3.57110E+01 0.00000E+00
 -1      3610 2.19000E+01 3.57110E+01 0.00000E+00
 -1      3611 2.26500E+01 3.44120E+01 0.00000E+00
 -1      3612 6.00296E+01 3.54208E+01 0.00000E+00
 -1      3613 8.87223E+01 3.51208E+01 0.00000E+00
 -1      3614 1.74000E+01 3.57110E+01 0.00000E+00
 -1      3615 1.89000E+01 3.57110E+01 0.00000E+00
 -1      3616 1.96500E+01 3.44120E+01 0.00000E+00
 -1      3617 8.94031E+01 2.95170E+01 0.00000E+00
 -1      3618 8.90799E+01 3.07181E+01 0.00000E+00
 -1      3619 1.20210E+01 3.61362E+01 0.00000E+00
 -1      3620 5.95598E+01 1.85901E+01 0.00000E+00
 -1      3621 6.02631E+01 1.73093E+01 0.00000E+00
 -1      3622 5.91006E+01 1.59113E+01 0.00000E+00
 -1      3623 5.82319E+01 1.89375E+01 0.00000E+00
 -1      3624 8.84346E+01 1.97406E+01 0.00000E+00
 -1      3625 8.91254E+01 2.12082E+01 0.00000E+00
 -1      3626 6.24830E+01 1.34125E+01 0.00000E+00
 -1      3627 1.42890E+01 1.39344E+01 0.00000E+00
 -1      3628 1.42890E+01 1.54031E+01 0.00000E+00
 -1      3629 1.42890E+01 2.27625E+01 0.00000E+00
 -1      3630 1.42890E+01 2.42375E+01 0.00000E+00
 -1      3631 9.03094E+01 2.19020E+01 0.00000E+00
 -1      3632 1.29900E+01 2.64469E+01 0.00000E+00
 -1      3633 2.65350E+01 1.18003E+01 0.00000E+00
 -1      3634 1.33200E+01 3.54019E+01 0.00000E+00
 -1      3635 1.40700E+01 3.41029E+01 0.00000E+00
 -1      3636 3.10350E+01 1.43982E+01 0.00000E+00
 -1      3637 3.02850E+01 1.30992E+01 0.00000E+00
 -1      3638 2.87850E+01 1.30992E+01 0.00000E+00
 -1      3639 1.36155E+02 1.25623E+01 0.00000E+00
 -1      3640 2.42850E+01 1.30992E+01 0.00000E+00
 -1      3641 2.27850E+01 1.30992E+01 0.00000E+00
 -1      3642 2.20350E+01 1.43982E+01 0.00000E+00
 -1      3643 3.47850E+01 1.30992E+01 0.00000E+00
 -1      3644 3.40350E+01 1.43982E+01 0.00000E+00
 -1      3645 3.62850E+01 1.30992E+01 0.00000E+00
 -1      3646 1.34022E+02 3.59901E+01 0.00000E+00
 -1      3647 1.35329E+02 3.61011E+01 0.00000E+00
 -1      3648 1.35515E+02 3.52494E+01 0.00000E+00
 -1      3649 1.33272E+02 3.46911E+01 0.00000E+00
 -1      3650 8.95130E+01 3.18077E+01 0.00000E+00
 -1      3651 4.00350E+01 1.43982E+01 0.00000E+00
 -1      3652 3.92850E+01 1.30992E+01 0.00000E+00
 -1      3653 3.77850E+01 1.30992E+01 0.00000E+00
 -1      3654 1.34620E+02 1.34480E+01 0.00000E+00
 -1      3655 1.33453E+02 1.31673E+01 0.00000E+00
 -1      3656 1.32703E+02 1.44663E+01 0.00000E+00
 -1      3657 1.42890E+01 2.86531E+01 0.00000E+00
 -1      3658 1.42890E+01 3.01219E+01 0.00000E+00
 -1      3659 1.29900E+01 1.76125E+01 0.00000E+00
 -1      3660 1.42890E+01 1.98250E+01 0.00000E+00
 -1      3661 1.42890E+01 2.12938E+01 0.00000E+00
 -1      3662 1.55880E+01 2.20313E+01 0.00000E+00
 -1      3663 1.35711E+02 2.86812E+01 0.00000E+00
 -1      3664 1.34412E+02 2.79438E+01 0.00000E+00
 -1      3665 1.35711E+02 3.01500E+01 0.00000E+00
 -1      3666 1.35711E+02 2.42719E+01 0.00000E+00
 -1      3667 1.35711E+02 2.28062E+01 0.00000E+00
 -1      3668 1.34412E+02 2.50094E+01 0.00000E+00
 -1      3669 8.57375E+01 1.58941E+01 0.00000E+00
 -1      3670 9.02223E+01 3.51208E+01 0.00000E+00
 -1      3671 1.90350E+01 1.43983E+01 0.00000E+00
 -1      3672 1.82850E+01 1.30993E+01 0.00000E+00
 -1      3673 5.69485E+01 3.28377E+01 0.00000E+00
 -1      3674 9.05862E+01 2.55451E+01 0.00000E+00
 -1      3675 1.66500E+01 3.44120E+01 0.00000E+00
 -1      3676 8.85669E+01 1.83083E+01 0.00000E+00
 -1      3677 9.00672E+01 1.84986E+01 0.00000E+00
 -1      3678 8.86992E+01 1.68761E+01 0.00000E+00
 -1      3679 1.35711E+02 1.84000E+01 0.00000E+00
 -1      3680 1.35711E+02 1.69250E+01 0.00000E+00
 -1      3681 8.72850E+01 1.28866E+01 0.00000E+00
 -1      3682 8.57850E+01 1.28866E+01 0.00000E+00
 -1      3683 5.74238E+01 2.62344E+01 0.00000E+00
 -1      3684 5.66739E+01 2.51890E+01 0.00000E+00
 -1      3685 5.65146E+01 2.71789E+01 0.00000E+00
 -1      3686 1.69669E+01 1.29495E+01 0.00000E+00
 -1      3687 8.21432E+01 1.30780E+01 0.00000E+00
 -1      3688 5.76903E+01 2.23475E+01 0.00000E+00
 -1      3689 5.69540E+01 2.11890E+01 0.00000E+00
 -1      3690 5.68467E+01 2.30859E+01 0.00000E+00
 -1      3691 1.34141E+02 1.62048E+01 0.00000E+00
 -1      3692 1.35440E+02 1.54673E+01 0.00000E+00
 -1      3693 9.03600E+01 2.88005E+01 0.00000E+00
 -1      3694 9.09723E+01 3.38218E+01 0.00000E+00
 -1      3695 8.80350E+01 1.41856E+01 0.00000E+00
 -1      3696 1.35702E+02 3.43976E+01 0.00000E+00
 -1      3697 1.41795E+01 3.13780E+01 0.00000E+00
 -1      3698 1.41795E+01 3.28467E+01 0.00000E+00
 -1      3699 1.52595E+01 3.31559E+01 0.00000E+00
 -1      3700 1.54785E+01 3.06436E+01 0.00000E+00
 -1      3701 1.34487E+02 3.38100E+01 0.00000E+00
 -1      3702 1.35795E+02 3.32374E+01 0.00000E+00
 -1      3703 1.35795E+02 3.17686E+01 0.00000E+00
 -1      3704 1.33365E+02 3.35309E+01 0.00000E+00
 -1      3705 9.13762E+01 2.06782E+01 0.00000E+00
 -1      3706 9.17506E+01 2.26494E+01 0.00000E+00
 -1      3707 2.79000E+01 3.31130E+01 0.00000E+00
 -1      3708 2.94000E+01 3.31130E+01 0.00000E+00
 -1      3709 3.09000E+01 3.31130E+01 0.00000E+00
 -1      3710 3.24000E+01 3.31130E+01 0.00000E+00
 -1      3711 3.01500E+01 3.18140E+01 0.00000E+00
 -1      3712 3.39000E+01 3.31130E+01 0.00000E+00
 -1      3713 3.54000E+01 3.31130E+01 0.00000E+00
 -1      3714 3.31500E+01 3.18140E+01 0.00000E+00
 -1      3715 3.69000E+01 3.31130E+01 0.00000E+00
 -1      3716 3.84000E+01 3.31130E+01 0.00000E+00
 -1      3717 3.61500E+01 3.18140E+01 0.00000E+00
 -1      3718 3.99000E+01 3.31130E+01 0.00000E+00
 -1      3719 4.14000E+01 3.31130E+01 0.00000E+00
 -1      3720 3.91500E+01 3.18140E+01 0.00000E+00
 -1      3721 4.29000E+01 3.31130E+01 0.00000E+00
 -1      3722 4.44000E+01 3.31130E+01 0.00000E+00
 -1      3723 4.21500E+01 3.18140E+01 0.00000E+00
 -1      3724 4.59000E+01 3.31130E+01 0.00000E+00
 -1      3725 4.74000E+01 3.31130E+01 0.00000E+00
 -1      3726 4.51500E+01 3.18140E+01 0.00000E+00
 -1      3727 4.89000E+01 3.31130E+01 0.00000E+00
 -1      3728 5.04000E+01 3.31130E+01 0.00000E+00
 -1      3729 4.81500E+01 3.18140E+01 0.00000E+00
 -1      3730 5.19000E+01 3.31130E+01 0.00000E+00
 -1      3731 5.34000E+01 3.31130E+01 0.00000E+00
 -1      3732 5.11500E+01 3.18140E+01 0.00000E+00
 -1      3733 5.54485E+01 3.28377E+01 0.00000E+00
 -1      3734 4.37850E+01 1.56973E+01 0.00000E+00
 -1      3735 4.22850E+01 1.56973E+01 0.00000E+00
 -1      3736 9.39000E+01 3.31130E+01 0.00000E+00
 -1      3737 9.54000E+01 3.31130E+01 0.00000E+00
 -1      3738 9.16907E+01 3.23979E+01 0.00000E+00
 -1      3739 9.69000E+01 3.31130E+01 0.00000E+00
 -1      3740 9.84000E+01 3.31130E+01 0.00000E+00
 -1      3741 9.61500E+01 3.18140E+01 0.00000E+00
 -1      3742 9.99000E+01 3.31130E+01 0.00000E+00
 -1      3743 1.01400E+02 3.31130E+01 0.00000E+00
 -1      3744 9.91500E+01 3.18140E+01 0.00000E+00
 -1      3745 1.02900E+02 3.31130E+01 0.00000E+00
 -1      3746 1.04400E+02 3.31130E+01 0.00000E+00
 -1      3747 1.02150E+02 3.18140E+01 0.00000E+00
 -1      3748 1.05900E+02 3.31130E+01 0.00000E+00
 -1      3749 1.07400E+02 3.31130E+01 0.00000E+00
 -1      3750 1.05150E+02 3.18140E+01 0.00000E+00
 -1      3751 1.08900E+02 3.31130E+01 0.00000E+00
 -1      3752 1.10400E+02 3.31130E+01 0.00000E+00
 -1      3753 1.08150E+02 3.18140E+01 0.00000E+00
 -1      3754 1.11900E+02 3.31130E+01 0.00000E+00
 -1      3755 1.13400E+02 3.31130E+01 0.00000E+00
 -1      3756 1.11150E+02 3.18140E+01 0.00000E+00
 -1      3757 1.14900E+02 3.31130E+01 0.00000E+00
 -1      3758 1.16400E+02 3.31130E+01 0.00000E+00
 -1      3759 1.14150E+02 3.18140E+01 0.00000E+00
 -1      3760 1.17900E+02 3.31130E+01 0.00000E+00
 -1      3761 1.19400E+02 3.31130E+01 0.00000E+00
 -1      3762 1.17150E+02 3.18140E+01 0.00000E+00
 -1      3763 1.20900E+02 3.31130E+01 0.00000E+00
 -1      3764 1.22400E+02 3.31130E+01 0.00000E+00
 -1      3765 1.20150E+02 3.18140E+01 0.00000E+00
 -1      3766 1.23900E+02 3.31130E+01 0.00000E+00
 -1      3767 1.25400E+02 3.31130E+01 0.00000E+00
 -1      3768 1.23150E+02 3.18140E+01 0.00000E+00
 -1      3769 1.26900E+02 3.31130E+01 0.00000E+00
 -1      3770 1.28400E+02 3.31130E+01 0.00000E+00
 -1      3771 1.26150E+02 3.18140E+01 0.00000E+00
 -1      3772 1.29900E+02 3.31130E+01 0.00000E+00
 -1      3773 1.31400E+02 3.31130E+01 0.00000E+00
 -1      3774 1.29150E+02 3.18140E+01 0.00000E+00
 -1      3775 5.57850E+01 1.56973E+01 0.00000E+00
 -1      3776 5.42850E+01 1.56973E+01 0.00000E+00
 -1      3777 5.27850E+01 1.56973E+01 0.00000E+00
 -1      3778 5.12850E+01 1.56973E+01 0.00000E+00
 -1      3779 5.35350E+01 1.69963E+01 0.00000E+00
 -1      3780 9.47850E+01 1.54846E+01 0.00000E+00
 -1      3781 9.32850E+01 1.54846E+01 0.00000E+00
 -1      3782 1.42890E+01 2.71812E+01 0.00000E+00
 -1      3783 1.55880E+01 2.79156E+01 0.00000E+00
 -1      3784 1.42890E+01 2.57094E+01 0.00000E+00
 -1      3785 2.19000E+01 3.31130E+01 0.00000E+00
 -1      3786 2.34000E+01 3.31130E+01 0.00000E+00
 -1      3787 9.13673E+01 1.56260E+01 0.00000E+00
 -1      3788 8.98673E+01 1.56260E+01 0.00000E+00
 -1      3789 1.00785E+02 1.54846E+01 0.00000E+00
 -1      3790 9.92850E+01 1.54846E+01 0.00000E+00
 -1      3791 1.03785E+02 1.54846E+01 0.00000E+00
 -1      3792 1.02285E+02 1.54846E+01 0.00000E+00
 -1      3793 1.01535E+02 1.67836E+01 0.00000E+00
 -1      3794 1.06785E+02 1.54846E+01 0.00000E+00
 -1      3795 1.05285E+02 1.54846E+01 0.00000E+00
 -1      3796 1.04535E+02 1.67836E+01 0.00000E+00
 -1      3797 1.09785E+02 1.54846E+01 0.00000E+00
 -1      3798 1.08285E+02 1.54846E+01 0.00000E+00
 -1      3799 1.07535E+02 1.67836E+01 0.00000E+00
 -1      3800 1.12785E+02 1.54846E+01 0.00000E+00
 -1      3801 1.11285E+02 1.54846E+01 0.00000E+00
 -1      3802 1.10535E+02 1.67836E+01 0.00000E+00
 -1      3803 1.15785E+02 1.54846E+01 0.00000E+00
 -1      3804 1.14285E+02 1.54846E+01 0.00000E+00
 -1      3805 1.13535E+02 1.67836E+01 0.00000E+00
 -1      3806 1.18785E+02 1.54846E+01 0.00000E+00
 -1      3807 1.17285E+02 1.54846E+01 0.00000E+00
 -1      3808 1.16535E+02 1.67836E+01 0.00000E+00
 -1      3809 1.21785E+02 1.54846E+01 0.00000E+00
 -1      3810 1.20285E+02 1.54846E+01 0.00000E+00
 -1      3811 1.19535E+02 1.67836E+01 0.00000E+00
 -1      3812 1.24785E+02 1.54846E+01 0.00000E+00
 -1      3813 1.23285E+02 1.54846E+01 0.00000E+00
 -1      3814 1.22535E+02 1.67836E+01 0.00000E+00
 -1      3815 1.27785E+02 1.54846E+01 0.00000E+00
 -1      3816 1.26285E+02 1.54846E+01 0.00000E+00
 -1      3817 1.25535E+02 1.67836E+01 0.00000E+00
 -1      3818 1.30785E+02 1.54846E+01 0.00000E+00
 -1      3819 1.29285E+02 1.54846E+01 0.00000E+00
 -1      3820 1.28535E+02 1.67836E+01 0.00000E+00
 -1      3821 1.42890E+01 1.68766E+01 0.00000E+00
 -1      3822 1.42890E+01 1.83516E+01 0.00000E+00
 -1      3823 1.55880E+01 1.90891E+01 0.00000E+00
 -1      3824 1.55880E+01 1.61422E+01 0.00000E+00
 -1      3825 2.72850E+01 1.30992E+01 0.00000E+00
 -1      3826 2.57850E+01 1.30992E+01 0.00000E+00
 -1      3827 2.80350E+01 1.43982E+01 0.00000E+00
 -1      3828 1.97850E+01 1.56973E+01 0.00000E+00
 -1      3829 1.82851E+01 1.56973E+01 0.00000E+00
 -1      3830 1.35405E+02 1.38613E+01 0.00000E+00
 -1      3831 1.35711E+02 1.98656E+01 0.00000E+00
 -1      3832 1.34412E+02 1.91281E+01 0.00000E+00
 -1      3833 1.35711E+02 2.13312E+01 0.00000E+00
 -1      3834 1.46944E+01 1.23503E+01 0.00000E+00
 -1      3835 1.59934E+01 1.30847E+01 0.00000E+00
 -1      3836 8.54056E+01 1.46440E+01 0.00000E+00
 -1      3837 9.17420E+01 2.47738E+01 0.00000E+00
 -1      3838 9.16445E+01 2.64457E+01 0.00000E+00
 -1      3839 5.57006E+01 3.03033E+01 0.00000E+00
 -1      3840 5.59594E+01 2.87838E+01 0.00000E+00
 -1      3841 1.89000E+01 3.31130E+01 0.00000E+00
 -1      3842 2.04000E+01 3.31130E+01 0.00000E+00
 -1      3843 2.11500E+01 3.18140E+01 0.00000E+00
 -1      3844 1.67595E+01 3.31559E+01 0.00000E+00
 -1      3845 9.15296E+01 2.80986E+01 0.00000E+00
 -1      3846 9.14010E+01 2.96820E+01 0.00000E+00
 -1      3847 9.77850E+01 1.54846E+01 0.00000E+00
 -1      3848 9.62850E+01 1.54846E+01 0.00000E+00
 -1      3849 9.85350E+01 1.67836E+01 0.00000E+00
 -1      3850 1.33047E+02 1.59850E+01 0.00000E+00
 -1      3851 1.31879E+02 1.57044E+01 0.00000E+00
 -1      3852 1.31129E+02 1.70034E+01 0.00000E+00
 -1      3853 1.33318E+02 1.74428E+01 0.00000E+00
 -1      3854 1.65615E+01 1.45335E+01 0.00000E+00
 -1      3855 5.76006E+01 1.59113E+01 0.00000E+00
 -1      3856 2.49000E+01 3.31130E+01 0.00000E+00
 -1      3857 2.64000E+01 3.31130E+01 0.00000E+00
 -1      3858 2.41500E+01 3.18140E+01 0.00000E+00
 -1      3859 5.46985E+01 3.15387E+01 0.00000E+00
 -1      3860 9.24407E+01 3.10989E+01 0.00000E+00
 -1      3861 8.68669E+01 1.54357E+01 0.00000E+00
 -1      3862 1.74233E+01 1.58521E+01 0.00000E+00
 -1      3863 1.64498E+01 1.59873E+01 0.00000E+00
 -1      3864 1.64498E+01 1.74608E+01 0.00000E+00
 -1      3865 1.81733E+01 1.71511E+01 0.00000E+00
 -1      3866 8.83669E+01 1.54357E+01 0.00000E+00
 -1      3867 1.55880E+01 2.49719E+01 0.00000E+00
 -1      3868 9.21173E+01 1.69250E+01 0.00000E+00
 -1      3869 9.36103E+01 3.03970E+01 0.00000E+00
 -1      3870 9.55350E+01 1.67836E+01 0.00000E+00
 -1      3871 4.52850E+01 1.56973E+01 0.00000E+00
 -1      3872 4.45350E+01 1.69963E+01 0.00000E+00
 -1      3873 4.67850E+01 1.56973E+01 0.00000E+00
 -1      3874 1.32615E+02 3.22319E+01 0.00000E+00
 -1      3875 3.17850E+01 1.56973E+01 0.00000E+00
 -1      3876 3.02850E+01 1.56973E+01 0.00000E+00
 -1      3877 2.50350E+01 1.43982E+01 0.00000E+00
 -1      3878 3.70350E+01 1.43982E+01 0.00000E+00
 -1      3879 5.68506E+01 1.72103E+01 0.00000E+00
 -1      3880 9.28089E+01 2.35500E+01 0.00000E+00
 -1      3881 4.07850E+01 1.56973E+01 0.00000E+00
 -1      3882 3.92850E+01 1.56973E+01 0.00000E+00
 -1      3883 4.15350E+01 1.69963E+01 0.00000E+00
 -1      3884 2.71500E+01 3.18140E+01 0.00000E+00
 -1      3885 1.68870E+01 2.71797E+01 0.00000E+00
 -1      3886 1.68870E+01 2.86516E+01 0.00000E+00
 -1      3887 1.75095E+01 3.18569E+01 0.00000E+00
 -1      3888 9.26854E+01 2.73272E+01 0.00000E+00
 -1      3889 2.27850E+01 1.56973E+01 0.00000E+00
 -1      3890 2.12850E+01 1.56973E+01 0.00000E+00
 -1      3891 2.05351E+01 1.69963E+01 0.00000E+00
 -1      3892 5.36521E+01 3.05787E+01 0.00000E+00
 -1      3893 1.34496E+02 3.10311E+01 0.00000E+00
 -1      3894 1.68870E+01 2.12969E+01 0.00000E+00
 -1      3895 1.68870E+01 2.27656E+01 0.00000E+00
 -1      3896 1.33113E+02 2.57422E+01 0.00000E+00
 -1      3897 1.33113E+02 2.42766E+01 0.00000E+00
 -1      3898 1.34412E+02 2.20688E+01 0.00000E+00
 -1      3899 3.47850E+01 1.56973E+01 0.00000E+00
 -1      3900 3.32850E+01 1.56973E+01 0.00000E+00
 -1      3901 3.25350E+01 1.69963E+01 0.00000E+00
 -1      3902 5.52095E+01 2.77384E+01 0.00000E+00
 -1      3903 1.68870E+01 2.42367E+01 0.00000E+00
 -1      3904 1.68870E+01 2.57086E+01 0.00000E+00
 -1      3905 1.81860E+01 2.64445E+01 0.00000E+00
 -1      3906 1.81860E+01 2.35023E+01 0.00000E+00
 -1      3907 4.97850E+01 1.56973E+01 0.00000E+00
 -1      3908 4.82850E+01 1.56973E+01 0.00000E+00
 -1      3909 4.75350E+01 1.69963E+01 0.00000E+00
 -1      3910 5.50285E+01 2.49751E+01 0.00000E+00
 -1      3911 5.59376E+01 2.40305E+01 0.00000E+00
 -1      3912 5.52013E+01 2.28720E+01 0.00000E+00
 -1      3913 1.33113E+02 2.86797E+01 0.00000E+00
 -1      3914 1.33113E+02 2.72109E+01 0.00000E+00
 -1      3915 1.31814E+02 2.64781E+01 0.00000E+00
 -1      3916 5.56914E+01 2.05978E+01 0.00000E+00
 -1      3917 5.65349E+01 1.98594E+01 0.00000E+00
 -1      3918 9.18129E+01 1.80855E+01 0.00000E+00
 -1      3919 9.16806E+01 1.95177E+01 0.00000E+00
 -1      3920 9.31219E+01 2.02652E+01 0.00000E+00
 -1      3921 9.37306E+01 1.79441E+01 0.00000E+00
 -1      3922 1.33318E+02 1.89084E+01 0.00000E+00
 -1      3923 1.32223E+02 1.86887E+01 0.00000E+00
 -1      3924 1.33318E+02 2.03740E+01 0.00000E+00
 -1      3925 5.69693E+01 1.83463E+01 0.00000E+00
 -1      3926 1.76190E+01 3.06007E+01 0.00000E+00
 -1      3927 1.89180E+01 2.98648E+01 0.00000E+00
 -1      3928 5.05350E+01 1.69963E+01 0.00000E+00
 -1      3929 3.24000E+01 3.05150E+01 0.00000E+00
 -1      3930 3.39000E+01 3.05150E+01 0.00000E+00
 -1      3931 3.54000E+01 3.05150E+01 0.00000E+00
 -1      3932 3.69000E+01 3.05150E+01 0.00000E+00
 -1      3933 3.46500E+01 2.92160E+01 0.00000E+00
 -1      3934 3.84000E+01 3.05150E+01 0.00000E+00
 -1      3935 3.99000E+01 3.05150E+01 0.00000E+00
 -1      3936 3.76500E+01 2.92160E+01 0.00000E+00
 -1      3937 4.14000E+01 3.05150E+01 0.00000E+00
 -1      3938 4.29000E+01 3.05150E+01 0.00000E+00
 -1      3939 4.06500E+01 2.92160E+01 0.00000E+00
 -1      3940 4.44000E+01 3.05150E+01 0.00000E+00
 -1      3941 4.59000E+01 3.05150E+01 0.00000E+00
 -1      3942 4.36500E+01 2.92160E+01 0.00000E+00
 -1      3943 4.74000E+01 3.05150E+01 0.00000E+00
 -1      3944 4.89000E+01 3.05150E+01 0.00000E+00
 -1      3945 4.66500E+01 2.92160E+01 0.00000E+00
 -1      3946 5.04000E+01 3.05150E+01 0.00000E+00
 -1      3947 5.19000E+01 3.05150E+01 0.00000E+00
 -1      3948 4.96500E+01 2.92160E+01 0.00000E+00
 -1      3949 5.37042E+01 2.81161E+01 0.00000E+00
 -1      3950 5.42595E+01 2.65113E+01 0.00000E+00
 -1      3951 2.57850E+01 1.56973E+01 0.00000E+00
 -1      3952 2.42850E+01 1.56973E+01 0.00000E+00
 -1      3953 2.35351E+01 1.69963E+01 0.00000E+00
 -1      3954 9.54000E+01 3.05150E+01 0.00000E+00
 -1      3955 9.69000E+01 3.05150E+01 0.00000E+00
 -1      3956 9.43603E+01 2.90980E+01 0.00000E+00
 -1      3957 9.84000E+01 3.05150E+01 0.00000E+00
 -1      3958 9.99000E+01 3.05150E+01 0.00000E+00
 -1      3959 9.76500E+01 2.92160E+01 0.00000E+00
 -1      3960 1.01400E+02 3.05150E+01 0.00000E+00
 -1      3961 1.02900E+02 3.05150E+01 0.00000E+00
 -1      3962 1.00650E+02 2.92160E+01 0.00000E+00
 -1      3963 1.04400E+02 3.05150E+01 0.00000E+00
 -1      3964 1.05900E+02 3.05150E+01 0.00000E+00
 -1      3965 1.03650E+02 2.92160E+01 0.00000E+00
 -1      3966 1.07400E+02 3.05150E+01 0.00000E+00
 -1      3967 1.08900E+02 3.05150E+01 0.00000E+00
 -1      3968 1.06650E+02 2.92160E+01 0.00000E+00
 -1      3969 1.10400E+02 3.05150E+01 0.00000E+00
 -1      3970 1.11900E+02 3.05150E+01 0.00000E+00
 -1      3971 1.09650E+02 2.92160E+01 0.00000E+00
 -1      3972 1.13400E+02 3.05150E+01 0.00000E+00
 -1      3973 1.14900E+02 3.05150E+01 0.00000E+00
 -1      3974 1.12650E+02 2.92160E+01 0.00000E+00
 -1      3975 1.16400E+02 3.05150E+01 0.00000E+00
 -1      3976 1.17900E+02 3.05150E+01 0.00000E+00
 -1      3977 1.15650E+02 2.92160E+01 0.00000E+00
 -1      3978 1.19400E+02 3.05150E+01 0.00000E+00
 -1      3979 1.20900E+02 3.05150E+01 0.00000E+00
 -1      3980 1.18650E+02 2.92160E+01 0.00000E+00
 -1      3981 1.22400E+02 3.05150E+01 0.00000E+00
 -1      3982 1.23900E+02 3.05150E+01 0.00000E+00
 -1      3983 1.21650E+02 2.92160E+01 0.00000E+00
 -1      3984 1.25400E+02 3.05150E+01 0.00000E+00
 -1      3985 1.26900E+02 3.05150E+01 0.00000E+00
 -1      3986 1.24650E+02 2.92160E+01 0.00000E+00
 -1      3987 1.28400E+02 3.05150E+01 0.00000E+00
 -1      3988 1.29900E+02 3.05150E+01 0.00000E+00
 -1      3989 1.27650E+02 2.92160E+01 0.00000E+00
 -1      3990 3.77850E+01 1.56973E+01 0.00000E+00
 -1      3991 3.62850E+01 1.56973E+01 0.00000E+00
 -1      3992 3.55350E+01 1.69963E+01 0.00000E+00
 -1      3993 3.85350E+01 1.69963E+01 0.00000E+00
 -1      3994 1.96860E+01 2.79156E+01 0.00000E+00
 -1      3995 2.04180E+01 2.98648E+01 0.00000E+00
 -1      3996 2.19180E+01 2.98648E+01 0.00000E+00
 -1      3997 1.31129E+02 1.84690E+01 0.00000E+00
 -1      3998 1.30035E+02 1.82493E+01 0.00000E+00
 -1      3999 1.31129E+02 1.99346E+01 0.00000E+00
 -1      4000 1.02285E+02 1.80826E+01 0.00000E+00
 -1      4001 1.00785E+02 1.80826E+01 0.00000E+00
 -1      4002 1.11285E+02 1.80826E+01 0.00000E+00
 -1      4003 1.09785E+02 1.80826E+01 0.00000E+00
 -1      4004 1.14285E+02 1.80826E+01 0.00000E+00
 -1      4005 1.12785E+02 1.80826E+01 0.00000E+00
 -1      4006 1.12035E+02 1.93816E+01 0.00000E+00
 -1      4007 1.17285E+02 1.80826E+01 0.00000E+00
 -1      4008 1.15785E+02 1.80826E+01 0.00000E+00
 -1      4009 1.15035E+02 1.93816E+01 0.00000E+00
 -1      4010 1.20285E+02 1.80826E+01 0.00000E+00
 -1      4011 1.18785E+02 1.80826E+01 0.00000E+00
 -1      4012 1.18035E+02 1.93816E+01 0.00000E+00
 -1      4013 1.23285E+02 1.80826E+01 0.00000E+00
 -1      4014 1.21785E+02 1.80826E+01 0.00000E+00
 -1      4015 1.21035E+02 1.93816E+01 0.00000E+00
 -1      4016 1.26285E+02 1.80826E+01 0.00000E+00
 -1      4017 1.24785E+02 1.80826E+01 0.00000E+00
 -1      4018 1.24035E+02 1.93816E+01 0.00000E+00
 -1      4019 1.28910E+02 1.81660E+01 0.00000E+00
 -1      4020 1.27410E+02 1.81660E+01 0.00000E+00
 -1      4021 1.26660E+02 1.94650E+01 0.00000E+00
 -1      4022 1.28910E+02 1.96316E+01 0.00000E+00
 -1      4023 1.66684E+01 1.86421E+01 0.00000E+00
 -1      4024 1.66684E+01 2.01155E+01 0.00000E+00
 -1      4025 1.79674E+01 2.08499E+01 0.00000E+00
 -1      4026 1.75301E+01 1.84873E+01 0.00000E+00
 -1      4027 5.12850E+01 1.82952E+01 0.00000E+00
 -1      4028 4.97850E+01 1.82952E+01 0.00000E+00
 -1      4029 5.29021E+01 2.92797E+01 0.00000E+00
 -1      4030 2.87850E+01 1.56973E+01 0.00000E+00
 -1      4031 2.72850E+01 1.56973E+01 0.00000E+00
 -1      4032 2.65350E+01 1.69963E+01 0.00000E+00
 -1      4033 2.95350E+01 1.69963E+01 0.00000E+00
 -1      4034 1.33215E+02 2.30628E+01 0.00000E+00
 -1      4035 1.33215E+02 2.15878E+01 0.00000E+00
 -1      4036 1.32121E+02 2.13681E+01 0.00000E+00
 -1      4037 1.31916E+02 2.37956E+01 0.00000E+00
 -1      4038 2.64000E+01 3.05150E+01 0.00000E+00
 -1      4039 2.79000E+01 3.05150E+01 0.00000E+00
 -1      4040 9.67306E+01 1.79441E+01 0.00000E+00
 -1      4041 9.52306E+01 1.79441E+01 0.00000E+00
 -1      4042 9.49262E+01 1.91046E+01 0.00000E+00
 -1      4043 9.95078E+01 1.80134E+01 0.00000E+00
 -1      4044 9.80078E+01 1.80134E+01 0.00000E+00
 -1      4045 9.77034E+01 1.91739E+01 0.00000E+00
 -1      4046 1.00258E+02 1.93124E+01 0.00000E+00
 -1      4047 1.32531E+02 3.06133E+01 0.00000E+00
 -1      4048 5.47823E+01 2.15424E+01 0.00000E+00
 -1      4049 5.43633E+01 2.02127E+01 0.00000E+00
 -1      4050 5.38732E+01 2.24869E+01 0.00000E+00
 -1      4051 5.51537E+01 1.81322E+01 0.00000E+00
 -1      4052 9.44751E+01 2.74451E+01 0.00000E+00
 -1      4053 1.05285E+02 1.80826E+01 0.00000E+00
 -1      4054 1.03785E+02 1.80826E+01 0.00000E+00
 -1      4055 1.03035E+02 1.93816E+01 0.00000E+00
 -1      4056 9.40896E+01 2.24930E+01 0.00000E+00
 -1      4057 9.40810E+01 2.46173E+01 0.00000E+00
 -1      4058 1.08285E+02 1.80826E+01 0.00000E+00
 -1      4059 1.06785E+02 1.80826E+01 0.00000E+00
 -1      4060 1.09035E+02 1.93816E+01 0.00000E+00
 -1      4061 2.34090E+01 3.01899E+01 0.00000E+00
 -1      4062 2.49090E+01 3.01899E+01 0.00000E+00
 -1      4063 2.56590E+01 2.88909E+01 0.00000E+00
 -1      4064 2.26770E+01 2.82407E+01 0.00000E+00
 -1      4065 2.94000E+01 3.05150E+01 0.00000E+00
 -1      4066 3.09000E+01 3.05150E+01 0.00000E+00
 -1      4067 3.16500E+01 2.92160E+01 0.00000E+00
 -1      4068 5.36537E+01 1.81322E+01 0.00000E+00
 -1      4069 5.29037E+01 1.94312E+01 0.00000E+00
 -1      4070 5.35233E+01 2.53528E+01 0.00000E+00
 -1      4071 5.19521E+01 2.80525E+01 0.00000E+00
 -1      4072 1.30482E+02 2.85814E+01 0.00000E+00
 -1      4073 1.31232E+02 2.98804E+01 0.00000E+00
 -1      4074 4.22850E+01 1.82952E+01 0.00000E+00
 -1      4075 4.07850E+01 1.82952E+01 0.00000E+00
 -1      4076 4.52850E+01 1.82952E+01 0.00000E+00
 -1      4077 4.37850E+01 1.82952E+01 0.00000E+00
 -1      4078 4.30350E+01 1.95942E+01 0.00000E+00
 -1      4079 9.57559E+01 2.63882E+01 0.00000E+00
 -1      4080 3.02850E+01 1.82953E+01 0.00000E+00
 -1      4081 2.87850E+01 1.82953E+01 0.00000E+00
 -1      4082 2.86500E+01 2.92160E+01 0.00000E+00
 -1      4083 4.82850E+01 1.82952E+01 0.00000E+00
 -1      4084 4.67850E+01 1.82952E+01 0.00000E+00
 -1      4085 4.60350E+01 1.95942E+01 0.00000E+00
 -1      4086 1.96860E+01 2.64445E+01 0.00000E+00
 -1      4087 4.90350E+01 1.95942E+01 0.00000E+00
 -1      4088 1.94850E+01 2.27668E+01 0.00000E+00
 -1      4089 1.94850E+01 2.42379E+01 0.00000E+00
 -1      4090 3.32850E+01 1.82953E+01 0.00000E+00
 -1      4091 3.17850E+01 1.82953E+01 0.00000E+00
 -1      4092 3.10350E+01 1.95943E+01 0.00000E+00
 -1      4093 1.83919E+01 1.83324E+01 0.00000E+00
 -1      4094 2.13919E+01 1.83324E+01 0.00000E+00
 -1      4095 1.98919E+01 1.83324E+01 0.00000E+00
 -1      4096 1.92488E+01 1.96686E+01 0.00000E+00
 -1      4097 1.94674E+01 2.08499E+01 0.00000E+00
 -1      4098 1.30482E+02 2.71127E+01 0.00000E+00
 -1      4099 1.30482E+02 2.56439E+01 0.00000E+00
 -1      4100 1.29150E+02 2.77472E+01 0.00000E+00
 -1      4101 9.46601E+01 2.02186E+01 0.00000E+00
 -1      4102 9.43558E+01 2.13791E+01 0.00000E+00
 -1      4103 9.56279E+01 2.24464E+01 0.00000E+00
 -1      4104 9.61601E+01 2.02186E+01 0.00000E+00
 -1      4105 1.06035E+02 1.93816E+01 0.00000E+00
 -1      4106 1.30584E+02 2.44302E+01 0.00000E+00
 -1      4107 1.30687E+02 2.32164E+01 0.00000E+00
 -1      4108 1.29252E+02 2.50647E+01 0.00000E+00
 -1      4109 2.07664E+01 2.15855E+01 0.00000E+00
 -1      4110 3.69000E+01 2.79170E+01 0.00000E+00
 -1      4111 3.84000E+01 2.79170E+01 0.00000E+00
 -1      4112 3.99000E+01 2.79170E+01 0.00000E+00
 -1      4113 4.14000E+01 2.79170E+01 0.00000E+00
 -1      4114 3.91500E+01 2.66180E+01 0.00000E+00
 -1      4115 4.29000E+01 2.79170E+01 0.00000E+00
 -1      4116 4.44000E+01 2.79170E+01 0.00000E+00
 -1      4117 4.21500E+01 2.66180E+01 0.00000E+00
 -1      4118 4.59000E+01 2.79170E+01 0.00000E+00
 -1      4119 4.74000E+01 2.79170E+01 0.00000E+00
 -1      4120 4.51500E+01 2.66180E+01 0.00000E+00
 -1      4121 4.89000E+01 2.79170E+01 0.00000E+00
 -1      4122 5.04000E+01 2.79170E+01 0.00000E+00
 -1      4123 4.81500E+01 2.66180E+01 0.00000E+00
 -1      4124 2.43919E+01 1.83324E+01 0.00000E+00
 -1      4125 2.28919E+01 1.83324E+01 0.00000E+00
 -1      4126 2.22488E+01 1.96686E+01 0.00000E+00
 -1      4127 4.00350E+01 1.95942E+01 0.00000E+00
 -1      4128 3.92850E+01 1.82952E+01 0.00000E+00
 -1      4129 3.77850E+01 1.82952E+01 0.00000E+00
 -1      4130 1.03785E+02 2.06806E+01 0.00000E+00
 -1      4131 1.02285E+02 2.06806E+01 0.00000E+00
 -1      4132 9.99000E+01 2.79170E+01 0.00000E+00
 -1      4133 1.01400E+02 2.79170E+01 0.00000E+00
 -1      4134 1.02900E+02 2.79170E+01 0.00000E+00
 -1      4135 1.04400E+02 2.79170E+01 0.00000E+00
 -1      4136 1.02150E+02 2.66180E+01 0.00000E+00
 -1      4137 1.05900E+02 2.79170E+01 0.00000E+00
 -1      4138 1.07400E+02 2.79170E+01 0.00000E+00
 -1      4139 1.05150E+02 2.66180E+01 0.00000E+00
 -1      4140 1.08900E+02 2.79170E+01 0.00000E+00
 -1      4141 1.10400E+02 2.79170E+01 0.00000E+00
 -1      4142 1.08150E+02 2.66180E+01 0.00000E+00
 -1      4143 1.11900E+02 2.79170E+01 0.00000E+00
 -1      4144 1.13400E+02 2.79170E+01 0.00000E+00
 -1      4145 1.11150E+02 2.66180E+01 0.00000E+00
 -1      4146 1.14900E+02 2.79170E+01 0.00000E+00
 -1      4147 1.16400E+02 2.79170E+01 0.00000E+00
 -1      4148 1.14150E+02 2.66180E+01 0.00000E+00
 -1      4149 1.17900E+02 2.79170E+01 0.00000E+00
 -1      4150 1.19400E+02 2.79170E+01 0.00000E+00
 -1      4151 1.17150E+02 2.66180E+01 0.00000E+00
 -1      4152 1.20900E+02 2.79170E+01 0.00000E+00
 -1      4153 1.22400E+02 2.79170E+01 0.00000E+00
 -1      4154 1.20150E+02 2.66180E+01 0.00000E+00
 -1      4155 1.23900E+02 2.79170E+01 0.00000E+00
 -1      4156 1.25400E+02 2.79170E+01 0.00000E+00
 -1      4157 1.23150E+02 2.66180E+01 0.00000E+00
 -1      4158 1.26525E+02 2.78321E+01 0.00000E+00
 -1      4159 1.28025E+02 2.78321E+01 0.00000E+00
 -1      4160 1.28025E+02 2.63634E+01 0.00000E+00
 -1      4161 1.25775E+02 2.65331E+01 0.00000E+00
 -1      4162 2.73385E+01 1.83138E+01 0.00000E+00
 -1      4163 2.58385E+01 1.83138E+01 0.00000E+00
 -1      4164 2.51953E+01 1.96500E+01 0.00000E+00
 -1      4165 2.80885E+01 1.96128E+01 0.00000E+00
 -1      4166 2.09850E+01 2.57090E+01 0.00000E+00
 -1      4167 1.15785E+02 2.06806E+01 0.00000E+00
 -1      4168 1.14285E+02 2.06806E+01 0.00000E+00
 -1      4169 1.31027E+02 2.11484E+01 0.00000E+00
 -1      4170 1.12785E+02 2.06806E+01 0.00000E+00
 -1      4171 1.11285E+02 2.06806E+01 0.00000E+00
 -1      4172 1.13535E+02 2.19796E+01 0.00000E+00
 -1      4173 1.21785E+02 2.06806E+01 0.00000E+00
 -1      4174 1.20285E+02 2.06806E+01 0.00000E+00
 -1      4175 1.24785E+02 2.06806E+01 0.00000E+00
 -1      4176 1.23285E+02 2.06806E+01 0.00000E+00
 -1      4177 1.22535E+02 2.19796E+01 0.00000E+00
 -1      4178 2.22664E+01 2.15855E+01 0.00000E+00
 -1      4179 5.19772E+01 2.55394E+01 0.00000E+00
 -1      4180 5.27461E+01 2.40032E+01 0.00000E+00
 -1      4181 2.79000E+01 2.79170E+01 0.00000E+00
 -1      4182 2.94000E+01 2.79170E+01 0.00000E+00
 -1      4183 1.06785E+02 2.06806E+01 0.00000E+00
 -1      4184 1.05285E+02 2.06806E+01 0.00000E+00
 -1      4185 1.04535E+02 2.19796E+01 0.00000E+00
 -1      4186 5.19946E+01 2.03758E+01 0.00000E+00
 -1      4187 5.12021E+01 2.67535E+01 0.00000E+00
 -1      4188 3.09000E+01 2.79170E+01 0.00000E+00
 -1      4189 3.24000E+01 2.79170E+01 0.00000E+00
 -1      4190 3.01500E+01 2.66180E+01 0.00000E+00
 -1      4191 5.23271E+01 2.26736E+01 0.00000E+00
 -1      4192 4.97850E+01 2.08932E+01 0.00000E+00
 -1      4193 4.82850E+01 2.08932E+01 0.00000E+00
 -1      4194 1.09785E+02 2.06806E+01 0.00000E+00
 -1      4195 1.08285E+02 2.06806E+01 0.00000E+00
 -1      4196 1.07535E+02 2.19796E+01 0.00000E+00
 -1      4197 1.10535E+02 2.19796E+01 0.00000E+00
 -1      4198 1.18785E+02 2.06806E+01 0.00000E+00
 -1      4199 1.17285E+02 2.06806E+01 0.00000E+00
 -1      4200 1.19535E+02 2.19796E+01 0.00000E+00
 -1      4201 3.39000E+01 2.79170E+01 0.00000E+00
 -1      4202 3.54000E+01 2.79170E+01 0.00000E+00
 -1      4203 3.31500E+01 2.66180E+01 0.00000E+00
 -1      4204 5.08675E+01 2.18920E+01 0.00000E+00
 -1      4205 1.29695E+02 2.17829E+01 0.00000E+00
 -1      4206 9.67401E+01 2.48096E+01 0.00000E+00
 -1      4207 9.71342E+01 2.76375E+01 0.00000E+00
 -1      4208 4.75350E+01 2.21922E+01 0.00000E+00
 -1      4209 4.67850E+01 2.08932E+01 0.00000E+00
 -1      4210 4.52850E+01 2.08932E+01 0.00000E+00
 -1      4211 1.25910E+02 2.07640E+01 0.00000E+00
 -1      4212 1.25160E+02 2.20630E+01 0.00000E+00
 -1      4213 1.27035E+02 2.08473E+01 0.00000E+00
 -1      4214 9.72723E+01 2.25818E+01 0.00000E+00
 -1      4215 9.70062E+01 2.36957E+01 0.00000E+00
 -1      4216 9.83846E+01 2.49450E+01 0.00000E+00
 -1      4217 4.07850E+01 2.08932E+01 0.00000E+00
 -1      4218 3.92850E+01 2.08932E+01 0.00000E+00
 -1      4219 9.86342E+01 2.76375E+01 0.00000E+00
 -1      4220 1.28127E+02 2.51496E+01 0.00000E+00
 -1      4221 1.01758E+02 2.19104E+01 0.00000E+00
 -1      4222 1.01008E+02 2.06114E+01 0.00000E+00
 -1      4223 9.97306E+01 2.05421E+01 0.00000E+00
 -1      4224 4.37850E+01 2.08932E+01 0.00000E+00
 -1      4225 4.22850E+01 2.08932E+01 0.00000E+00
 -1      4226 4.45350E+01 2.21922E+01 0.00000E+00
 -1      4227 1.16535E+02 2.19796E+01 0.00000E+00
 -1      4228 3.62850E+01 1.82953E+01 0.00000E+00
 -1      4229 3.47850E+01 1.82953E+01 0.00000E+00
 -1      4230 3.40350E+01 1.95943E+01 0.00000E+00
 -1      4231 3.70350E+01 1.95943E+01 0.00000E+00
 -1      4232 2.49180E+01 2.72668E+01 0.00000E+00
 -1      4233 2.64090E+01 2.75919E+01 0.00000E+00
 -1      4234 2.71590E+01 2.62929E+01 0.00000E+00
 -1      4235 2.40352E+01 2.14217E+01 0.00000E+00
 -1      4236 2.25528E+01 2.33386E+01 0.00000E+00
 -1      4237 2.27538E+01 2.55452E+01 0.00000E+00
 -1      4238 5.04250E+01 2.54039E+01 0.00000E+00
 -1      4239 3.61500E+01 2.66180E+01 0.00000E+00
 -1      4240 3.17850E+01 2.08933E+01 0.00000E+00
 -1      4241 3.02850E+01 2.08933E+01 0.00000E+00
 -1      4242 9.85840E+01 2.04150E+01 0.00000E+00
 -1      4243 9.73068E+01 2.03457E+01 0.00000E+00
 -1      4244 9.70407E+01 2.14596E+01 0.00000E+00
 -1      4245 9.93340E+01 2.17140E+01 0.00000E+00
 -1      4246 4.15350E+01 2.21922E+01 0.00000E+00
 -1      4247 2.88385E+01 2.09118E+01 0.00000E+00
 -1      4248 2.73919E+01 2.09304E+01 0.00000E+00
 -1      4249 2.95885E+01 2.22108E+01 0.00000E+00
 -1      4250 9.93842E+01 2.63385E+01 0.00000E+00
 -1      4251 1.17285E+02 2.32786E+01 0.00000E+00
 -1      4252 1.15785E+02 2.32786E+01 0.00000E+00
 -1      4253 4.18425E+01 2.44051E+01 0.00000E+00
 -1      4254 4.33425E+01 2.44051E+01 0.00000E+00
 -1      4255 4.48425E+01 2.44051E+01 0.00000E+00
 -1      4256 4.63425E+01 2.44051E+01 0.00000E+00
 -1      4257 4.78425E+01 2.44051E+01 0.00000E+00
 -1      4258 4.93425E+01 2.44051E+01 0.00000E+00
 -1      4259 2.54817E+01 2.14031E+01 0.00000E+00
 -1      4260 1.04400E+02 2.53190E+01 0.00000E+00
 -1      4261 1.05900E+02 2.53190E+01 0.00000E+00
 -1      4262 1.07842E+02 2.42988E+01 0.00000E+00
 -1      4263 1.09342E+02 2.42988E+01 0.00000E+00
 -1      4264 1.10842E+02 2.42988E+01 0.00000E+00
 -1      4265 1.12342E+02 2.42988E+01 0.00000E+00
 -1      4266 1.16092E+02 2.55978E+01 0.00000E+00
 -1      4267 1.17592E+02 2.55978E+01 0.00000E+00
 -1      4268 1.19400E+02 2.53190E+01 0.00000E+00
 -1      4269 1.20900E+02 2.53190E+01 0.00000E+00
 -1      4270 1.22842E+02 2.42988E+01 0.00000E+00
 -1      4271 1.24342E+02 2.42988E+01 0.00000E+00
 -1      4272 1.25877E+02 2.53194E+01 0.00000E+00
 -1      4273 1.27002E+02 2.52345E+01 0.00000E+00
 -1      4274 1.28230E+02 2.39358E+01 0.00000E+00
 -1      4275 1.20592E+02 2.29998E+01 0.00000E+00
 -1      4276 1.19092E+02 2.29998E+01 0.00000E+00
 -1      4277 3.85350E+01 2.21923E+01 0.00000E+00
 -1      4278 3.77850E+01 2.08933E+01 0.00000E+00
 -1      4279 3.62850E+01 2.08933E+01 0.00000E+00
 -1      4280 1.13842E+02 2.42988E+01 0.00000E+00
 -1      4281 2.49948E+01 2.45713E+01 0.00000E+00
 -1      4282 2.34270E+01 2.69417E+01 0.00000E+00
 -1      4283 1.28570E+02 2.16996E+01 0.00000E+00
 -1      4284 1.05592E+02 2.29998E+01 0.00000E+00
 -1      4285 1.04092E+02 2.29998E+01 0.00000E+00
 -1      4286 3.32850E+01 2.08933E+01 0.00000E+00
 -1      4287 3.25350E+01 2.21923E+01 0.00000E+00
 -1      4288 3.47850E+01 2.08933E+01 0.00000E+00
 -1      4289 5.01175E+01 2.31910E+01 0.00000E+00
 -1      4290 9.96503E+01 2.52245E+01 0.00000E+00
 -1      4291 2.69049E+01 2.40986E+01 0.00000E+00
 -1      4292 2.83959E+01 2.44237E+01 0.00000E+00
 -1      4293 2.98425E+01 2.44051E+01 0.00000E+00
 -1      4294 3.13425E+01 2.44051E+01 0.00000E+00
 -1      4295 2.62317E+01 2.27021E+01 0.00000E+00
 -1      4296 3.28425E+01 2.44051E+01 0.00000E+00
 -1      4297 4.03425E+01 2.44051E+01 0.00000E+00
 -1      4298 3.54000E+01 2.53190E+01 0.00000E+00
 -1      4299 3.69000E+01 2.53190E+01 0.00000E+00
 -1      4300 1.01275E+02 2.52718E+01 0.00000E+00
 -1      4301 1.02775E+02 2.52718E+01 0.00000E+00
 -1      4302 1.03525E+02 2.39728E+01 0.00000E+00
 -1      4303 1.00276E+02 2.38783E+01 0.00000E+00
 -1      4304 3.43425E+01 2.44051E+01 0.00000E+00
 -1      4305 3.88425E+01 2.44051E+01 0.00000E+00
 -1      4306 3.50925E+01 2.31061E+01 0.00000E+00
 -1      4307 1.18342E+02 2.42988E+01 0.00000E+00
 -1      4308 1.02468E+02 2.29526E+01 0.00000E+00
 -1      4309 1.01190E+02 2.28833E+01 0.00000E+00
 -1      4310 1.15342E+02 2.42988E+01 0.00000E+00
 -1      4311 1.25467E+02 2.43821E+01 0.00000E+00
 -1      4312 1.27820E+02 2.29986E+01 0.00000E+00
 -1      4313 1.21342E+02 2.42988E+01 0.00000E+00
 -1      4314 3.80925E+01 2.31061E+01 0.00000E+00
 -1      4315 9.84190E+01 2.27089E+01 0.00000E+00
 -1      4316 9.95656E+01 2.28361E+01 0.00000E+00
 -1      4317 1.26695E+02 2.30835E+01 0.00000E+00
 -1      4318 1.07092E+02 2.29998E+01 0.00000E+00
 -1      4319 3.65925E+01 2.31061E+01 0.00000E+00
 -1      4320 3.55350E+01 2.21923E+01 0.00000E+00
 -3
    3C                          2078                                     1
 -1       165    8    0    1
 -2         6         7        23      1122      1286      1139
 -1       166    8    0    1
 -2         7         8       165      1123      1287      1288
 -1       167    8    0    1
 -2         8         9       166      1124      1289      1290
 -1       168    8    0    1
 -2         8       166       165      1290      1291      1287
 -1       169    8    0    1
 -2         9        10       167      1125      1292      1293
 -1       170    8    0    1
 -2         9       167       166      1293      1294      1289
 -1       171    8    0    1
 -2        10        11       168      1126      1295      1296
 -1       172    8    0    1
 -2        10       168       167      1296      1297      1292
 -1       173    8    0    1
 -2        11        12       169      1127      1298      1299
 -1       174    8    0    1
 -2        11       169       168      1299      1300      1295
 -1       175    8    0    1
 -2        12        13       170      1128      1301      1302
 -1       176    8    0    1
 -2        12       170       169      1302      1303      1298
 -1       177    8    0    1
 -2        13        14       171      1129      1304      1305
 -1       178    8    0    1
 -2        13       171       170      1305      1306      1301
 -1       179    8    0    1
 -2        14        15       172      1130      1307      1308
 -1       180    8    0    1
 -2        14       172       171      1308      1309      1304
 -1       181    8    0    1
 -2        15        16       173      1131      1310      1311
 -1       182    8    0    1
 -2        15       173       172      1311      1312      1307
 -1       183    8    0    1
 -2        16        17       174      1132      1313      1314
 -1       184    8    0    1
 -2        16       174       173      1314      1315      1310
 -1       185    8    0    1
 -2        17        18       175      1133      1316      1317
 -1       186    8    0    1
 -2        17       175       174      1317      1318      1313
 -1       187    8    0    1
 -2        18        19       176      1134      1319      1320
 -1       188    8    0    1
 -2        18       176       175      1320      1321      1316
 -1       189    8    0    1
 -2        19        20       177      1135      1322      1323
 -1       190    8    0    1
 -2        19       177       176      1323      1324      1319
 -1       191    8    0    1
 -2        20        21       178      1136      1325      1326
 -1       192    8    0    1
 -2        20       178       177      1326      1327      1322
 -1       193    8    0    1
 -2        21        22       179      1137      1328      1329
 -1       194    8    0    1
 -2        21       179       178      1329      1330      1325
 -1       195    8    0    1
 -2        22         5       180      1138      1331      1332
 -1       196    8    0    1
 -2       179        22       180      1328      1332      1333
 -1       197    8    0    1
 -2         5        72       180      1189      1334      1331
 -1       198    8    0    1
 -2        24        23       181      1140      1335      1336
 -1       199    8    0    1
 -2        25        24       182      1141      1337      1338
 -1       200    8    0    1
 -2        24       181       182      1336      1339      1337
 -1       201    8    0    1
 -2        26        25       183      1142      1340      1341
 -1       202    8    0    1
 -2        25       182       183      1338      1342      1340
 -1       203    8    0    1
 -2        27        26       184      1143      1343      1344
 -1       204    8    0    1
 -2        26       183       184      1341      1345      1343
 -1       205    8    0    1
 -2        28        27       185      1144      1346      1347
 -1       206    8    0    1
 -2        27       184       185      1344      1348      1346
 -1       207    8    0    1
 -2        29        28       186      1145      1349      1350
 -1       208    8    0    1
 -2        28       185       186      1347      1351      1349
 -1       209    8    0    1
 -2        30        29       187      1146      1352      1353
 -1       210    8    0    1
 -2        29       186       187      1350      1354      1352
 -1       211    8    0    1
 -2        31        30       188      1147      1355      1356
 -1       212    8    0    1
 -2        30       187       188      1353      1357      1355
 -1       213    8    0    1
 -2        32        31       189      1148      1358      1359
 -1       214    8    0    1
 -2        31       188       189      1356      1360      1358
 -1       215    8    0    1
 -2        33        32       190      1149      1361      1362
 -1       216    8    0    1
 -2        32       189       190      1359      1363      1361
 -1       217    8    0    1
 -2        34        33       191      1150      1364      1365
 -1       218    8    0    1
 -2        33       190       191      1362      1366      1364
 -1       219    8    0    1
 -2        35        34       192      1151      1367      1368
 -1       220    8    0    1
 -2        34       191       192      1365      1369      1367
 -1       221    8    0    1
 -2        36        35       193      1152      1370      1371
 -1       222    8    0    1
 -2        35       192       193      1368      1372      1370
 -1       223    8    0    1
 -2        37        36       194      1153      1373      1374
 -1       224    8    0    1
 -2        36       193       194      1371      1375      1373
 -1       225    8    0    1
 -2        38        37       195      1154      1376      1377
 -1       226    8    0    1
 -2        37       194       195      1374      1378      1376
 -1       227    8    0    1
 -2        39        38       196      1155      1379      1380
 -1       228    8    0    1
 -2        38       195       196      1377      1381      1379
 -1       229    8    0    1
 -2        40        39       197      1156      1382      1383
 -1       230    8    0    1
 -2        39       196       197      1380      1384      1382
 -1       231    8    0    1
 -2        41        40       198      1157      1385      1386
 -1       232    8    0    1
 -2        40       197       198      1383      1387      1385
 -1       233    8    0    1
 -2        42        41       199      1158      1388      1389
 -1       234    8    0    1
 -2        41       198       199      1386      1390      1388
 -1       235    8    0    1
 -2        43        42       200      1159      1391      1392
 -1       236    8    0    1
 -2        42       199       200      1389      1393      1391
 -1       237    8    0    1
 -2        44        43       201      1160      1394      1395
 -1       238    8    0    1
 -2        43       200       201      1392      1396      1394
 -1       239    8    0    1
 -2        45        44       202      1161      1397      1398
 -1       240    8    0    1
 -2        44       201       202      1395      1399      1397
 -1       241    8    0    1
 -2        46        45       203      1162      1400      1401
 -1       242    8    0    1
 -2        45       202       203      1398      1402      1400
 -1       243    8    0    1
 -2        47        46       204      1163      1403      1404
 -1       244    8    0    1
 -2        46       203       204      1401      1405      1403
 -1       245    8    0    1
 -2        48        47       205      1164      1406      1407
 -1       246    8    0    1
 -2        47       204       205      1404      1408      1406
 -1       247    8    0    1
 -2        49        48       206      1165      1409      1410
 -1       248    8    0    1
 -2        48       205       206      1407      1411      1409
 -1       249    8    0    1
 -2        50        49       207      1166      1412      1413
 -1       250    8    0    1
 -2        49       206       207      1410      1414      1412
 -1       251    8    0    1
 -2        51        50       208      1167      1415      1416
 -1       252    8    0    1
 -2        50       207       208      1413      1417      1415
 -1       253    8    0    1
 -2        52        51       209      1168      1418      1419
 -1       254    8    0    1
 -2        51       208       209      1416      1420      1418
 -1       255    8    0    1
 -2        53        52       210      1169      1421      1422
 -1       256    8    0    1
 -2        52       209       210      1419      1423      1421
 -1       257    8    0    1
 -2        54        53       211      1170      1424      1425
 -1       258    8    0    1
 -2        53       210       211      1422      1426      1424
 -1       259    8    0    1
 -2        55        54       212      1171      1427      1428
 -1       260    8    0    1
 -2        54       211       212      1425      1429      1427
 -1       261    8    0    1
 -2        56        55       213      1172      1430      1431
 -1       262    8    0    1
 -2        55       212       213      1428      1432      1430
 -1       263    8    0    1
 -2        57        56       214      1173      1433      1434
 -1       264    8    0    1
 -2        56       213       214      1431      1435      1433
 -1       265    8    0    1
 -2        58        57       215      1174      1436      1437
 -1       266    8    0    1
 -2        57       214       215      1434      1438      1436
 -1       267    8    0    1
 -2        59        58       216      1175      1439      1440
 -1       268    8    0    1
 -2        58       215       216      1437      1441      1439
 -1       269    8    0    1
 -2        60        59       217      1176      1442      1443
 -1       270    8    0    1
 -2        59       216       217      1440      1444      1442
 -1       271    8    0    1
 -2        61        60       218      1177      1445      1446
 -1       272    8    0    1
 -2        60       217       218      1443      1447      1445
 -1       273    8    0    1
 -2        62        61       219      1178      1448      1449
 -1       274    8    0    1
 -2        61       218       219      1446      1450      1448
 -1       275    8    0    1
 -2        63        62       220      1179      1451      1452
 -1       276    8    0    1
 -2        62       219       220      1449      1453      1451
 -1       277    8    0    1
 -2        64        63       221      1180      1454      1455
 -1       278    8    0    1
 -2        63       220       221      1452      1456      1454
 -1       279    8    0    1
 -2        65        64       222      1181      1457      1458
 -1       280    8    0    1
 -2        64       221       222      1455      1459      1457
 -1       281    8    0    1
 -2        66        65       223      1182      1460      1461
 -1       282    8    0    1
 -2        65       222       223      1458      1462      1460
 -1       283    8    0    1
 -2        67        66       224      1183      1463      1464
 -1       284    8    0    1
 -2        66       223       224      1461      1465      1463
 -1       285    8    0    1
 -2        68        67       225      1184      1466      1467
 -1       286    8    0    1
 -2        67       224       225      1464      1468      1466
 -1       287    8    0    1
 -2        69        68       226      1185      1469      1470
 -1       288    8    0    1
 -2        68       225       226      1467      1471      1469
 -1       289    8    0    1
 -2        70        69       227      1186      1472      1473
 -1       290    8    0    1
 -2        69       226       227      1470      1474      1472
 -1       291    8    0    1
 -2        71        70       228      1187      1475      1476
 -1       292    8    0    1
 -2        70       227       228      1473      1477      1475
 -1       293    8    0    1
 -2         4        71       136      1188      1478      1255
 -1       294    8    0    1
 -2       136        71       228      1478      1476      1479
 -1       295    8    0    1
 -2        72        73       229      1190      1480      1481
 -1       296    8    0    1
 -2        72       229       180      1481      1482      1334
 -1       297    8    0    1
 -2        73        74       230      1191      1483      1484
 -1       298    8    0    1
 -2        73       230       229      1484      1485      1480
 -1       299    8    0    1
 -2        74        75       231      1192      1486      1487
 -1       300    8    0    1
 -2        74       231       230      1487      1488      1483
 -1       301    8    0    1
 -2        75        76       232      1193      1489      1490
 -1       302    8    0    1
 -2        75       232       231      1490      1491      1486
 -1       303    8    0    1
 -2        76        77       233      1194      1492      1493
 -1       304    8    0    1
 -2        76       233       232      1493      1494      1489
 -1       305    8    0    1
 -2        77        78       234      1195      1495      1496
 -1       306    8    0    1
 -2        77       234       233      1496      1497      1492
 -1       307    8    0    1
 -2        78        79       235      1196      1498      1499
 -1       308    8    0    1
 -2        78       235       234      1499      1500      1495
 -1       309    8    0    1
 -2        79        80       236      1197      1501      1502
 -1       310    8    0    1
 -2        79       236       235      1502      1503      1498
 -1       311    8    0    1
 -2        80        81       237      1198      1504      1505
 -1       312    8    0    1
 -2        80       237       236      1505      1506      1501
 -1       313    8    0    1
 -2        81        82       238      1199      1507      1508
 -1       314    8    0    1
 -2        81       238       237      1508      1509      1504
 -1       315    8    0    1
 -2        82        83       239      1200      1510      1511
 -1       316    8    0    1
 -2        82       239       238      1511      1512      1507
 -1       317    8    0    1
 -2        83        84       240      1201      1513      1514
 -1       318    8    0    1
 -2        83       240       239      1514      1515      1510
 -1       319    8    0    1
 -2        84        85       241      1202      1516      1517
 -1       320    8    0    1
 -2        84       241       240      1517      1518      1513
 -1       321    8    0    1
 -2        85        86       242      1203      1519      1520
 -1       322    8    0    1
 -2        85       242       241      1520      1521      1516
 -1       323    8    0    1
 -2        86        87       243      1204      1522      1523
 -1       324    8    0    1
 -2        86       243       242      1523      1524      1519
 -1       325    8    0    1
 -2        87        88       244      1205      1525      1526
 -1       326    8    0    1
 -2        87       244       243      1526      1527      1522
 -1       327    8    0    1
 -2        88        89       245      1206      1528      1529
 -1       328    8    0    1
 -2        88       245       244      1529      1530      1525
 -1       329    8    0    1
 -2        89        90       246      1207      1531      1532
 -1       330    8    0    1
 -2        89       246       245      1532      1533      1528
 -1       331    8    0    1
 -2        90        91       247      1208      1534      1535
 -1       332    8    0    1
 -2        90       247       246      1535      1536      1531
 -1       333    8    0    1
 -2        91        92       248      1209      1537      1538
 -1       334    8    0    1
 -2        91       248       247      1538      1539      1534
 -1       335    8    0    1
 -2        92        93       249      1210      1540      1541
 -1       336    8    0    1
 -2        92       249       248      1541      1542      1537
 -1       337    8    0    1
 -2        93        94       250      1211      1543      1544
 -1       338    8    0    1
 -2        93       250       249      1544      1545      1540
 -1       339    8    0    1
 -2        94        95       251      1212      1546      1547
 -1       340    8    0    1
 -2        94       251       250      1547      1548      1543
 -1       341    8    0    1
 -2        95        96       252      1213      1549      1550
 -1       342    8    0    1
 -2        95       252       251      1550      1551      1546
 -1       343    8    0    1
 -2        96        97       253      1214      1552      1553
 -1       344    8    0    1
 -2        96       253       252      1553      1554      1549
 -1       345    8    0    1
 -2        97        98       254      1215      1555      1556
 -1       346    8    0    1
 -2        97       254       253      1556      1557      1552
 -1       347    8    0    1
 -2        98        99       255      1216      1558      1559
 -1       348    8    0    1
 -2        98       255       254      1559      1560      1555
 -1       349    8    0    1
 -2        99       100       256      1217      1561      1562
 -1       350    8    0    1
 -2        99       256       255      1562      1563      1558
 -1       351    8    0    1
 -2       100       101       257      1218      1564      1565
 -1       352    8    0    1
 -2       100       257       256      1565      1566      1561
 -1       353    8    0    1
 -2       101       102       258      1219      1567      1568
 -1       354    8    0    1
 -2       101       258       257      1568      1569      1564
 -1       355    8    0    1
 -2       102       103       259      1220      1570      1571
 -1       356    8    0    1
 -2       102       259       258      1571      1572      1567
 -1       357    8    0    1
 -2       103       104       260      1221      1573      1574
 -1       358    8    0    1
 -2       103       260       259      1574      1575      1570
 -1       359    8    0    1
 -2       104       105       261      1222      1576      1577
 -1       360    8    0    1
 -2       104       261       260      1577      1578      1573
 -1       361    8    0    1
 -2       105       106       262      1223      1579      1580
 -1       362    8    0    1
 -2       105       262       261      1580      1581      1576
 -1       363    8    0    1
 -2       106       107       263      1224      1582      1583
 -1       364    8    0    1
 -2       106       263       262      1583      1584      1579
 -1       365    8    0    1
 -2       107       108       264      1225      1585      1586
 -1       366    8    0    1
 -2       107       264       263      1586      1587      1582
 -1       367    8    0    1
 -2       108       109       265      1226      1588      1589
 -1       368    8    0    1
 -2       108       265       264      1589      1590      1585
 -1       369    8    0    1
 -2       109       110       266      1227      1591      1592
 -1       370    8    0    1
 -2       109       266       265      1592      1593      1588
 -1       371    8    0    1
 -2       110       111       267      1228      1594      1595
 -1       372    8    0    1
 -2       110       267       266      1595      1596      1591
 -1       373    8    0    1
 -2       111       112       268      1229      1597      1598
 -1       374    8    0    1
 -2       111       268       267      1598      1599      1594
 -1       375    8    0    1
 -2       112       113       269      1230      1600      1601
 -1       376    8    0    1
 -2       112       269       268      1601      1602      1597
 -1       377    8    0    1
 -2       113       114       270      1231      1603      1604
 -1       378    8    0    1
 -2       113       270       269      1604      1605      1600
 -1       379    8    0    1
 -2       114       115       271      1232      1606      1607
 -1       380    8    0    1
 -2       114       271       270      1607      1608      1603
 -1       381    8    0    1
 -2       115       116       272      1233      1609      1610
 -1       382    8    0    1
 -2       115       272       271      1610      1611      1606
 -1       383    8    0    1
 -2       116       117       273      1234      1612      1613
 -1       384    8    0    1
 -2       116       273       272      1613      1614      1609
 -1       385    8    0    1
 -2       117       118       274      1235      1615      1616
 -1       386    8    0    1
 -2       117       274       273      1616      1617      1612
 -1       387    8    0    1
 -2       118       119       275      1236      1618      1619
 -1       388    8    0    1
 -2       118       275       274      1619      1620      1615
 -1       389    8    0    1
 -2       119       120       276      1237      1621      1622
 -1       390    8    0    1
 -2       119       276       275      1622      1623      1618
 -1       391    8    0    1
 -2       120         3       121      1238      1239      1624
 -1       392    8    0    1
 -2       121       122       277      1240      1625      1626
 -1       393    8    0    1
 -2       122       123       278      1241      1627      1628
 -1       394    8    0    1
 -2       122       278       277      1628      1629      1625
 -1       395    8    0    1
 -2       123       124       279      1242      1630      1631
 -1       396    8    0    1
 -2       123       279       278      1631      1632      1627
 -1       397    8    0    1
 -2       124       125       280      1243      1633      1634
 -1       398    8    0    1
 -2       124       280       279      1634      1635      1630
 -1       399    8    0    1
 -2       125       126       281      1244      1636      1637
 -1       400    8    0    1
 -2       125       281       280      1637      1638      1633
 -1       401    8    0    1
 -2       126       127       282      1245      1639      1640
 -1       402    8    0    1
 -2       126       282       281      1640      1641      1636
 -1       403    8    0    1
 -2       127       128       283      1246      1642      1643
 -1       404    8    0    1
 -2       127       283       282      1643      1644      1639
 -1       405    8    0    1
 -2       128       129       284      1247      1645      1646
 -1       406    8    0    1
 -2       128       284       283      1646      1647      1642
 -1       407    8    0    1
 -2       129       130       285      1248      1648      1649
 -1       408    8    0    1
 -2       129       285       284      1649      1650      1645
 -1       409    8    0    1
 -2       130       131       286      1249      1651      1652
 -1       410    8    0    1
 -2       130       286       285      1652      1653      1648
 -1       411    8    0    1
 -2       131       132       287      1250      1654      1655
 -1       412    8    0    1
 -2       131       287       286      1655      1656      1651
 -1       413    8    0    1
 -2       132       133       288      1251      1657      1658
 -1       414    8    0    1
 -2       132       288       287      1658      1659      1654
 -1       415    8    0    1
 -2       133       134       289      1252      1660      1661
 -1       416    8    0    1
 -2       133       289       288      1661      1662      1657
 -1       417    8    0    1
 -2       134       135       290      1253      1663      1664
 -1       418    8    0    1
 -2       134       290       289      1664      1665      1660
 -1       419    8    0    1
 -2       135       136       291      1254      1666      1667
 -1       420    8    0    1
 -2       290       135       291      1663      1667      1668
 -1       421    8    0    1
 -2       136       228       291      1479      1669      1666
 -1       422    8    0    1
 -2         2       137       292      1256      1670      1671
 -1       423    8    0    1
 -2       137       138       293      1257      1672      1673
 -1       424    8    0    1
 -2       138       139       294      1258      1674      1675
 -1       425    8    0    1
 -2       139       140       295      1259      1676      1677
 -1       426    8    0    1
 -2       140       141       296      1260      1678      1679
 -1       427    8    0    1
 -2       141       142       297      1261      1680      1681
 -1       428    8    0    1
 -2       142       143       298      1262      1682      1683
 -1       429    8    0    1
 -2       143       144       299      1263      1684      1685
 -1       430    8    0    1
 -2       144       145       300      1264      1686      1687
 -1       431    8    0    1
 -2       145       146       301      1265      1688      1689
 -1       432    8    0    1
 -2       146       147       302      1266      1690      1691
 -1       433    8    0    1
 -2       147       148       303      1267      1692      1693
 -1       434    8    0    1
 -2       148       149       304      1268      1694      1695
 -1       435    8    0    1
 -2       149       150       305      1269      1696      1697
 -1       436    8    0    1
 -2       150       151       306      1270      1698      1699
 -1       437    8    0    1
 -2       151       152       307      1271      1700      1701
 -1       438    8    0    1
 -2       152       153       308      1272      1702      1703
 -1       439    8    0    1
 -2       153         1       309      1273      1704      1705
 -1       440    8    0    1
 -2         1       154       310      1274      1706      1707
 -1       441    8    0    1
 -2       154       155       311      1275      1708      1709
 -1       442    8    0    1
 -2       155       156       312      1276      1710      1711
 -1       443    8    0    1
 -2       156       157       313      1277      1712      1713
 -1       444    8    0    1
 -2       157       158       314      1278      1714      1715
 -1       445    8    0    1
 -2       158       159       315      1279      1716      1717
 -1       446    8    0    1
 -2       159       160       316      1280      1718      1719
 -1       447    8    0    1
 -2       160       161       317      1281      1720      1721
 -1       448    8    0    1
 -2       161       162       318      1282      1722      1723
 -1       449    8    0    1
 -2       162       163       319      1283      1724      1725
 -1       450    8    0    1
 -2       163       164       320      1284      1726      1727
 -1       451    8    0    1
 -2       164         2       321      1285      1728      1729
 -1       452    8    0    1
 -2       295       140       296      1676      1679      1730
 -1       453    8    0    1
 -2       294       139       295      1674      1677      1731
 -1       454    8    0    1
 -2       120       121       276      1624      1732      1621
 -1       455    8    0    1
 -2       121       277       276      1626      1733      1732
 -1       456    8    0    1
 -2       292       137       293      1670      1673      1734
 -1       457    8    0    1
 -2       293       138       294      1672      1675      1735
 -1       458    8    0    1
 -2         2       292       321      1671      1736      1728
 -1       459    8    0    1
 -2       141       297       296      1681      1737      1678
 -1       460    8    0    1
 -2       142       298       297      1683      1738      1680
 -1       461    8    0    1
 -2       143       299       298      1685      1739      1682
 -1       462    8    0    1
 -2       144       300       299      1687      1740      1684
 -1       463    8    0    1
 -2       145       301       300      1689      1741      1686
 -1       464    8    0    1
 -2       146       302       301      1691      1742      1688
 -1       465    8    0    1
 -2       147       303       302      1693      1743      1690
 -1       466    8    0    1
 -2       148       304       303      1695      1744      1692
 -1       467    8    0    1
 -2       149       305       304      1697      1745      1694
 -1       468    8    0    1
 -2       150       306       305      1699      1746      1696
 -1       469    8    0    1
 -2       151       307       306      1701      1747      1698
 -1       470    8    0    1
 -2       152       308       307      1703      1748      1700
 -1       471    8    0    1
 -2       153       309       308      1705      1749      1702
 -1       472    8    0    1
 -2         1       310       309      1707      1750      1704
 -1       473    8    0    1
 -2       154       311       310      1709      1751      1706
 -1       474    8    0    1
 -2       155       312       311      1711      1752      1708
 -1       475    8    0    1
 -2       156       313       312      1713      1753      1710
 -1       476    8    0    1
 -2       157       314       313      1715      1754      1712
 -1       477    8    0    1
 -2       158       315       314      1717      1755      1714
 -1       478    8    0    1
 -2       159       316       315      1719      1756      1716
 -1       479    8    0    1
 -2       160       317       316      1721      1757      1718
 -1       480    8    0    1
 -2       161       318       317      1723      1758      1720
 -1       481    8    0    1
 -2       162       319       318      1725      1759      1722
 -1       482    8    0    1
 -2       163       320       319      1727      1760      1724
 -1       483    8    0    1
 -2       164       321       320      1729      1761      1726
 -1       484    8    0    1
 -2        23         7       165      1286      1288      1762
 -1       485    8    0    1
 -2       166       167       322      1294      1763      1764
 -1       486    8    0    1
 -2       165       166       323      1291      1765      1766
 -1       487    8    0    1
 -2       166       322       323      1764      1767      1765
 -1       488    8    0    1
 -2       168       169       324      1300      1768      1769
 -1       489    8    0    1
 -2       169       170       325      1303      1770      1771
 -1       490    8    0    1
 -2       169       325       324      1771      1772      1768
 -1       491    8    0    1
 -2       170       171       326      1306      1773      1774
 -1       492    8    0    1
 -2       170       326       325      1774      1775      1770
 -1       493    8    0    1
 -2       171       172       327      1309      1776      1777
 -1       494    8    0    1
 -2       171       327       326      1777      1778      1773
 -1       495    8    0    1
 -2       172       173       328      1312      1779      1780
 -1       496    8    0    1
 -2       172       328       327      1780      1781      1776
 -1       497    8    0    1
 -2       173       174       329      1315      1782      1783
 -1       498    8    0    1
 -2       173       329       328      1783      1784      1779
 -1       499    8    0    1
 -2       174       175       330      1318      1785      1786
 -1       500    8    0    1
 -2       174       330       329      1786      1787      1782
 -1       501    8    0    1
 -2       175       176       331      1321      1788      1789
 -1       502    8    0    1
 -2       175       331       330      1789      1790      1785
 -1       503    8    0    1
 -2       176       177       332      1324      1791      1792
 -1       504    8    0    1
 -2       176       332       331      1792      1793      1788
 -1       505    8    0    1
 -2       177       178       333      1327      1794      1795
 -1       506    8    0    1
 -2       177       333       332      1795      1796      1791
 -1       507    8    0    1
 -2       178       179       334      1330      1797      1798
 -1       508    8    0    1
 -2       178       334       333      1798      1799      1794
 -1       509    8    0    1
 -2       179       180       335      1333      1800      1801
 -1       510    8    0    1
 -2       334       179       335      1797      1801      1802
 -1       511    8    0    1
 -2       180       229       335      1482      1803      1800
 -1       512    8    0    1
 -2       181        23       165      1335      1762      1804
 -1       513    8    0    1
 -2       229       230       336      1485      1805      1806
 -1       514    8    0    1
 -2       229       336       335      1806      1807      1803
 -1       515    8    0    1
 -2       181       165       323      1804      1766      1808
 -1       516    8    0    1
 -2       183       182       337      1342      1809      1810
 -1       517    8    0    1
 -2       184       183       338      1345      1811      1812
 -1       518    8    0    1
 -2       183       337       338      1810      1813      1811
 -1       519    8    0    1
 -2       185       184       339      1348      1814      1815
 -1       520    8    0    1
 -2       184       338       339      1812      1816      1814
 -1       521    8    0    1
 -2       186       185       340      1351      1817      1818
 -1       522    8    0    1
 -2       185       339       340      1815      1819      1817
 -1       523    8    0    1
 -2       187       186       341      1354      1820      1821
 -1       524    8    0    1
 -2       186       340       341      1818      1822      1820
 -1       525    8    0    1
 -2       188       187       342      1357      1823      1824
 -1       526    8    0    1
 -2       187       341       342      1821      1825      1823
 -1       527    8    0    1
 -2       189       188       343      1360      1826      1827
 -1       528    8    0    1
 -2       188       342       343      1824      1828      1826
 -1       529    8    0    1
 -2       190       189       344      1363      1829      1830
 -1       530    8    0    1
 -2       189       343       344      1827      1831      1829
 -1       531    8    0    1
 -2       191       190       345      1366      1832      1833
 -1       532    8    0    1
 -2       190       344       345      1830      1834      1832
 -1       533    8    0    1
 -2       192       191       346      1369      1835      1836
 -1       534    8    0    1
 -2       191       345       346      1833      1837      1835
 -1       535    8    0    1
 -2       193       192       347      1372      1838      1839
 -1       536    8    0    1
 -2       192       346       347      1836      1840      1838
 -1       537    8    0    1
 -2       194       193       348      1375      1841      1842
 -1       538    8    0    1
 -2       193       347       348      1839      1843      1841
 -1       539    8    0    1
 -2       195       194       349      1378      1844      1845
 -1       540    8    0    1
 -2       194       348       349      1842      1846      1844
 -1       541    8    0    1
 -2       196       195       350      1381      1847      1848
 -1       542    8    0    1
 -2       195       349       350      1845      1849      1847
 -1       543    8    0    1
 -2       197       196       351      1384      1850      1851
 -1       544    8    0    1
 -2       196       350       351      1848      1852      1850
 -1       545    8    0    1
 -2       198       197       352      1387      1853      1854
 -1       546    8    0    1
 -2       197       351       352      1851      1855      1853
 -1       547    8    0    1
 -2       199       198       353      1390      1856      1857
 -1       548    8    0    1
 -2       198       352       353      1854      1858      1856
 -1       549    8    0    1
 -2       200       199       354      1393      1859      1860
 -1       550    8    0    1
 -2       199       353       354      1857      1861      1859
 -1       551    8    0    1
 -2       201       200       355      1396      1862      1863
 -1       552    8    0    1
 -2       200       354       355      1860      1864      1862
 -1       553    8    0    1
 -2       202       201       356      1399      1865      1866
 -1       554    8    0    1
 -2       201       355       356      1863      1867      1865
 -1       555    8    0    1
 -2       203       202       357      1402      1868      1869
 -1       556    8    0    1
 -2       202       356       357      1866      1870      1868
 -1       557    8    0    1
 -2       204       203       358      1405      1871      1872
 -1       558    8    0    1
 -2       203       357       358      1869      1873      1871
 -1       559    8    0    1
 -2       205       204       359      1408      1874      1875
 -1       560    8    0    1
 -2       204       358       359      1872      1876      1874
 -1       561    8    0    1
 -2       206       205       360      1411      1877      1878
 -1       562    8    0    1
 -2       205       359       360      1875      1879      1877
 -1       563    8    0    1
 -2       207       206       361      1414      1880      1881
 -1       564    8    0    1
 -2       206       360       361      1878      1882      1880
 -1       565    8    0    1
 -2       208       207       362      1417      1883      1884
 -1       566    8    0    1
 -2       207       361       362      1881      1885      1883
 -1       567    8    0    1
 -2       209       208       363      1420      1886      1887
 -1       568    8    0    1
 -2       208       362       363      1884      1888      1886
 -1       569    8    0    1
 -2       210       209       364      1423      1889      1890
 -1       570    8    0    1
 -2       209       363       364      1887      1891      1889
 -1       571    8    0    1
 -2       211       210       365      1426      1892      1893
 -1       572    8    0    1
 -2       210       364       365      1890      1894      1892
 -1       573    8    0    1
 -2       212       211       366      1429      1895      1896
 -1       574    8    0    1
 -2       211       365       366      1893      1897      1895
 -1       575    8    0    1
 -2       213       212       367      1432      1898      1899
 -1       576    8    0    1
 -2       212       366       367      1896      1900      1898
 -1       577    8    0    1
 -2       214       213       368      1435      1901      1902
 -1       578    8    0    1
 -2       213       367       368      1899      1903      1901
 -1       579    8    0    1
 -2       215       214       369      1438      1904      1905
 -1       580    8    0    1
 -2       214       368       369      1902      1906      1904
 -1       581    8    0    1
 -2       216       215       370      1441      1907      1908
 -1       582    8    0    1
 -2       215       369       370      1905      1909      1907
 -1       583    8    0    1
 -2       217       216       371      1444      1910      1911
 -1       584    8    0    1
 -2       216       370       371      1908      1912      1910
 -1       585    8    0    1
 -2       218       217       372      1447      1913      1914
 -1       586    8    0    1
 -2       217       371       372      1911      1915      1913
 -1       587    8    0    1
 -2       219       218       373      1450      1916      1917
 -1       588    8    0    1
 -2       218       372       373      1914      1918      1916
 -1       589    8    0    1
 -2       220       219       374      1453      1919      1920
 -1       590    8    0    1
 -2       219       373       374      1917      1921      1919
 -1       591    8    0    1
 -2       221       220       375      1456      1922      1923
 -1       592    8    0    1
 -2       220       374       375      1920      1924      1922
 -1       593    8    0    1
 -2       222       221       376      1459      1925      1926
 -1       594    8    0    1
 -2       221       375       376      1923      1927      1925
 -1       595    8    0    1
 -2       223       222       377      1462      1928      1929
 -1       596    8    0    1
 -2       222       376       377      1926      1930      1928
 -1       597    8    0    1
 -2       224       223       378      1465      1931      1932
 -1       598    8    0    1
 -2       223       377       378      1929      1933      1931
 -1       599    8    0    1
 -2       225       224       379      1468      1934      1935
 -1       600    8    0    1
 -2       224       378       379      1932      1936      1934
 -1       601    8    0    1
 -2       226       225       380      1471      1937      1938
 -1       602    8    0    1
 -2       225       379       380      1935      1939      1937
 -1       603    8    0    1
 -2       227       226       381      1474      1940      1941
 -1       604    8    0    1
 -2       226       380       381      1938      1942      1940
 -1       605    8    0    1
 -2       228       227       382      1477      1943      1944
 -1       606    8    0    1
 -2       291       228       382      1669      1944      1945
 -1       607    8    0    1
 -2       227       381       382      1941      1946      1943
 -1       608    8    0    1
 -2       230       231       383      1488      1947      1948
 -1       609    8    0    1
 -2       230       383       336      1948      1949      1805
 -1       610    8    0    1
 -2       231       232       384      1491      1950      1951
 -1       611    8    0    1
 -2       231       384       383      1951      1952      1947
 -1       612    8    0    1
 -2       232       233       385      1494      1953      1954
 -1       613    8    0    1
 -2       232       385       384      1954      1955      1950
 -1       614    8    0    1
 -2       233       234       386      1497      1956      1957
 -1       615    8    0    1
 -2       233       386       385      1957      1958      1953
 -1       616    8    0    1
 -2       234       235       387      1500      1959      1960
 -1       617    8    0    1
 -2       234       387       386      1960      1961      1956
 -1       618    8    0    1
 -2       235       236       388      1503      1962      1963
 -1       619    8    0    1
 -2       235       388       387      1963      1964      1959
 -1       620    8    0    1
 -2       236       237       389      1506      1965      1966
 -1       621    8    0    1
 -2       236       389       388      1966      1967      1962
 -1       622    8    0    1
 -2       237       238       390      1509      1968      1969
 -1       623    8    0    1
 -2       237       390       389      1969      1970      1965
 -1       624    8    0    1
 -2       238       239       391      1512      1971      1972
 -1       625    8    0    1
 -2       238       391       390      1972      1973      1968
 -1       626    8    0    1
 -2       239       240       392      1515      1974      1975
 -1       627    8    0    1
 -2       239       392       391      1975      1976      1971
 -1       628    8    0    1
 -2       240       241       393      1518      1977      1978
 -1       629    8    0    1
 -2       240       393       392      1978      1979      1974
 -1       630    8    0    1
 -2       241       242       394      1521      1980      1981
 -1       631    8    0    1
 -2       241       394       393      1981      1982      1977
 -1       632    8    0    1
 -2       242       243       395      1524      1983      1984
 -1       633    8    0    1
 -2       242       395       394      1984      1985      1980
 -1       634    8    0    1
 -2       243       244       396      1527      1986      1987
 -1       635    8    0    1
 -2       243       396       395      1987      1988      1983
 -1       636    8    0    1
 -2       244       245       397      1530      1989      1990
 -1       637    8    0    1
 -2       244       397       396      1990      1991      1986
 -1       638    8    0    1
 -2       245       246       398      1533      1992      1993
 -1       639    8    0    1
 -2       245       398       397      1993      1994      1989
 -1       640    8    0    1
 -2       246       247       399      1536      1995      1996
 -1       641    8    0    1
 -2       246       399       398      1996      1997      1992
 -1       642    8    0    1
 -2       247       248       400      1539      1998      1999
 -1       643    8    0    1
 -2       247       400       399      1999      2000      1995
 -1       644    8    0    1
 -2       248       249       401      1542      2001      2002
 -1       645    8    0    1
 -2       248       401       400      2002      2003      1998
 -1       646    8    0    1
 -2       249       250       402      1545      2004      2005
 -1       647    8    0    1
 -2       249       402       401      2005      2006      2001
 -1       648    8    0    1
 -2       250       251       403      1548      2007      2008
 -1       649    8    0    1
 -2       250       403       402      2008      2009      2004
 -1       650    8    0    1
 -2       251       252       404      1551      2010      2011
 -1       651    8    0    1
 -2       251       404       403      2011      2012      2007
 -1       652    8    0    1
 -2       252       253       405      1554      2013      2014
 -1       653    8    0    1
 -2       252       405       404      2014      2015      2010
 -1       654    8    0    1
 -2       253       254       406      1557      2016      2017
 -1       655    8    0    1
 -2       253       406       405      2017      2018      2013
 -1       656    8    0    1
 -2       254       255       407      1560      2019      2020
 -1       657    8    0    1
 -2       254       407       406      2020      2021      2016
 -1       658    8    0    1
 -2       255       256       408      1563      2022      2023
 -1       659    8    0    1
 -2       255       408       407      2023      2024      2019
 -1       660    8    0    1
 -2       256       257       409      1566      2025      2026
 -1       661    8    0    1
 -2       256       409       408      2026      2027      2022
 -1       662    8    0    1
 -2       257       258       410      1569      2028      2029
 -1       663    8    0    1
 -2       257       410       409      2029      2030      2025
 -1       664    8    0    1
 -2       258       259       411      1572      2031      2032
 -1       665    8    0    1
 -2       258       411       410      2032      2033      2028
 -1       666    8    0    1
 -2       259       260       412      1575      2034      2035
 -1       667    8    0    1
 -2       259       412       411      2035      2036      2031
 -1       668    8    0    1
 -2       260       261       413      1578      2037      2038
 -1       669    8    0    1
 -2       260       413       412      2038      2039      2034
 -1       670    8    0    1
 -2       261       262       414      1581      2040      2041
 -1       671    8    0    1
 -2       261       414       413      2041      2042      2037
 -1       672    8    0    1
 -2       262       263       415      1584      2043      2044
 -1       673    8    0    1
 -2       262       415       414      2044      2045      2040
 -1       674    8    0    1
 -2       263       264       416      1587      2046      2047
 -1       675    8    0    1
 -2       263       416       415      2047      2048      2043
 -1       676    8    0    1
 -2       264       265       417      1590      2049      2050
 -1       677    8    0    1
 -2       264       417       416      2050      2051      2046
 -1       678    8    0    1
 -2       265       266       418      1593      2052      2053
 -1       679    8    0    1
 -2       265       418       417      2053      2054      2049
 -1       680    8    0    1
 -2       266       267       419      1596      2055      2056
 -1       681    8    0    1
 -2       266       419       418      2056      2057      2052
 -1       682    8    0    1
 -2       267       268       420      1599      2058      2059
 -1       683    8    0    1
 -2       267       420       419      2059      2060      2055
 -1       684    8    0    1
 -2       268       269       421      1602      2061      2062
 -1       685    8    0    1
 -2       268       421       420      2062      2063      2058
 -1       686    8    0    1
 -2       269       270       422      1605      2064      2065
 -1       687    8    0    1
 -2       269       422       421      2065      2066      2061
 -1       688    8    0    1
 -2       270       271       423      1608      2067      2068
 -1       689    8    0    1
 -2       270       423       422      2068      2069      2064
 -1       690    8    0    1
 -2       271       272       424      1611      2070      2071
 -1       691    8    0    1
 -2       271       424       423      2071      2072      2067
 -1       692    8    0    1
 -2       272       273       425      1614      2073      2074
 -1       693    8    0    1
 -2       272       425       424      2074      2075      2070
 -1       694    8    0    1
 -2       273       274       426      1617      2076      2077
 -1       695    8    0    1
 -2       273       426       425      2077      2078      2073
 -1       696    8    0    1
 -2       274       275       427      1620      2079      2080
 -1       697    8    0    1
 -2       274       427       426      2080      2081      2076
 -1       698    8    0    1
 -2       275       276       428      1623      2082      2083
 -1       699    8    0    1
 -2       427       275       428      2079      2083      2084
 -1       700    8    0    1
 -2       276       277       428      1733      2085      2082
 -1       701    8    0    1
 -2       279       280       429      1635      2086      2087
 -1       702    8    0    1
 -2       278       279       430      1632      2088      2089
 -1       703    8    0    1
 -2       279       429       430      2087      2090      2088
 -1       704    8    0    1
 -2       277       278       431      1629      2091      2092
 -1       705    8    0    1
 -2       428       277       431      2085      2092      2093
 -1       706    8    0    1
 -2       278       430       431      2089      2094      2091
 -1       707    8    0    1
 -2       280       281       432      1638      2095      2096
 -1       708    8    0    1
 -2       280       432       429      2096      2097      2086
 -1       709    8    0    1
 -2       281       282       433      1641      2098      2099
 -1       710    8    0    1
 -2       281       433       432      2099      2100      2095
 -1       711    8    0    1
 -2       282       283       434      1644      2101      2102
 -1       712    8    0    1
 -2       282       434       433      2102      2103      2098
 -1       713    8    0    1
 -2       283       284       435      1647      2104      2105
 -1       714    8    0    1
 -2       283       435       434      2105      2106      2101
 -1       715    8    0    1
 -2       284       285       436      1650      2107      2108
 -1       716    8    0    1
 -2       284       436       435      2108      2109      2104
 -1       717    8    0    1
 -2       285       286       437      1653      2110      2111
 -1       718    8    0    1
 -2       285       437       436      2111      2112      2107
 -1       719    8    0    1
 -2       286       287       438      1656      2113      2114
 -1       720    8    0    1
 -2       286       438       437      2114      2115      2110
 -1       721    8    0    1
 -2       287       288       439      1659      2116      2117
 -1       722    8    0    1
 -2       287       439       438      2117      2118      2113
 -1       723    8    0    1
 -2       288       289       440      1662      2119      2120
 -1       724    8    0    1
 -2       288       440       439      2120      2121      2116
 -1       725    8    0    1
 -2       289       290       441      1665      2122      2123
 -1       726    8    0    1
 -2       289       441       440      2123      2124      2119
 -1       727    8    0    1
 -2       293       294       442      1735      2125      2126
 -1       728    8    0    1
 -2       321       292       443      1736      2127      2128
 -1       729    8    0    1
 -2       292       293       444      1734      2129      2130
 -1       730    8    0    1
 -2       294       295       445      1731      2131      2132
 -1       731    8    0    1
 -2       295       296       446      1730      2133      2134
 -1       732    8    0    1
 -2       295       446       445      2134      2135      2131
 -1       733    8    0    1
 -2       167       168       447      1297      2136      2137
 -1       734    8    0    1
 -2       322       167       447      1763      2137      2138
 -1       735    8    0    1
 -2       168       324       447      1769      2139      2136
 -1       736    8    0    1
 -2       297       298       448      1738      2140      2141
 -1       737    8    0    1
 -2       298       299       449      1739      2142      2143
 -1       738    8    0    1
 -2       299       300       450      1740      2144      2145
 -1       739    8    0    1
 -2       300       301       451      1741      2146      2147
 -1       740    8    0    1
 -2       300       451       450      2147      2148      2144
 -1       741    8    0    1
 -2       301       302       452      1742      2149      2150
 -1       742    8    0    1
 -2       302       303       453      1743      2151      2152
 -1       743    8    0    1
 -2       302       453       452      2152      2153      2149
 -1       744    8    0    1
 -2       303       304       454      1744      2154      2155
 -1       745    8    0    1
 -2       304       305       455      1745      2156      2157
 -1       746    8    0    1
 -2       305       306       456      1746      2158      2159
 -1       747    8    0    1
 -2       305       456       455      2159      2160      2156
 -1       748    8    0    1
 -2       306       307       457      1747      2161      2162
 -1       749    8    0    1
 -2       307       308       458      1748      2163      2164
 -1       750    8    0    1
 -2       308       309       459      1749      2165      2166
 -1       751    8    0    1
 -2       309       310       460      1750      2167      2168
 -1       752    8    0    1
 -2       310       311       461      1751      2169      2170
 -1       753    8    0    1
 -2       310       461       460      2170      2171      2167
 -1       754    8    0    1
 -2       311       312       462      1752      2172      2173
 -1       755    8    0    1
 -2       312       313       463      1753      2174      2175
 -1       756    8    0    1
 -2       313       314       464      1754      2176      2177
 -1       757    8    0    1
 -2       314       315       465      1755      2178      2179
 -1       758    8    0    1
 -2       315       316       466      1756      2180      2181
 -1       759    8    0    1
 -2       316       317       467      1757      2182      2183
 -1       760    8    0    1
 -2       317       318       468      1758      2184      2185
 -1       761    8    0    1
 -2       317       468       467      2185      2186      2182
 -1       762    8    0    1
 -2       318       319       469      1759      2187      2188
 -1       763    8    0    1
 -2       319       320       470      1760      2189      2190
 -1       764    8    0    1
 -2       320       321       471      1761      2191      2192
 -1       765    8    0    1
 -2       320       471       470      2192      2193      2189
 -1       766    8    0    1
 -2       296       297       472      1737      2194      2195
 -1       767    8    0    1
 -2       181       323       182      1808      2196      1339
 -1       768    8    0    1
 -2       446       296       472      2133      2195      2197
 -1       769    8    0    1
 -2       297       448       472      2141      2198      2194
 -1       770    8    0    1
 -2       337       182       323      1809      2196      2199
 -1       771    8    0    1
 -2       444       293       442      2129      2126      2200
 -1       772    8    0    1
 -2       443       292       444      2127      2130      2201
 -1       773    8    0    1
 -2       441       290       291      2122      1668      2202
 -1       774    8    0    1
 -2       442       294       445      2125      2132      2203
 -1       775    8    0    1
 -2       321       443       473      2128      2204      2205
 -1       776    8    0    1
 -2       321       473       471      2205      2206      2191
 -1       777    8    0    1
 -2       468       318       469      2184      2188      2207
 -1       778    8    0    1
 -2       466       316       467      2180      2183      2208
 -1       779    8    0    1
 -2       465       315       466      2178      2181      2209
 -1       780    8    0    1
 -2       464       314       465      2176      2179      2210
 -1       781    8    0    1
 -2       463       313       464      2174      2177      2211
 -1       782    8    0    1
 -2       461       311       462      2169      2173      2212
 -1       783    8    0    1
 -2       459       309       474      2165      2213      2214
 -1       784    8    0    1
 -2       309       460       474      2168      2215      2213
 -1       785    8    0    1
 -2       458       308       459      2163      2166      2216
 -1       786    8    0    1
 -2       456       306       457      2158      2162      2217
 -1       787    8    0    1
 -2       453       303       454      2151      2155      2218
 -1       788    8    0    1
 -2       451       301       452      2146      2150      2219
 -1       789    8    0    1
 -2       448       298       449      2140      2143      2220
 -1       790    8    0    1
 -2       449       299       450      2142      2145      2221
 -1       791    8    0    1
 -2       454       304       455      2154      2157      2222
 -1       792    8    0    1
 -2       457       307       458      2161      2164      2223
 -1       793    8    0    1
 -2       462       312       463      2172      2175      2224
 -1       794    8    0    1
 -2       469       319       470      2187      2190      2225
 -1       795    8    0    1
 -2       336       383       475      1949      2226      2227
 -1       796    8    0    1
 -2       325       326       476      1775      2228      2229
 -1       797    8    0    1
 -2       324       325       477      1772      2230      2231
 -1       798    8    0    1
 -2       325       476       477      2229      2232      2230
 -1       799    8    0    1
 -2       327       328       478      1781      2233      2234
 -1       800    8    0    1
 -2       328       329       479      1784      2235      2236
 -1       801    8    0    1
 -2       328       479       478      2236      2237      2233
 -1       802    8    0    1
 -2       329       330       480      1787      2238      2239
 -1       803    8    0    1
 -2       329       480       479      2239      2240      2235
 -1       804    8    0    1
 -2       330       331       481      1790      2241      2242
 -1       805    8    0    1
 -2       330       481       480      2242      2243      2238
 -1       806    8    0    1
 -2       331       332       482      1793      2244      2245
 -1       807    8    0    1
 -2       331       482       481      2245      2246      2241
 -1       808    8    0    1
 -2       332       333       483      1796      2247      2248
 -1       809    8    0    1
 -2       332       483       482      2248      2249      2244
 -1       810    8    0    1
 -2       383       384       484      1952      2250      2251
 -1       811    8    0    1
 -2       383       484       475      2251      2252      2226
 -1       812    8    0    1
 -2       338       337       485      1813      2253      2254
 -1       813    8    0    1
 -2       446       472       486      2197      2255      2256
 -1       814    8    0    1
 -2       339       338       487      1816      2257      2258
 -1       815    8    0    1
 -2       338       485       487      2254      2259      2257
 -1       816    8    0    1
 -2       340       339       488      1819      2260      2261
 -1       817    8    0    1
 -2       339       487       488      2258      2262      2260
 -1       818    8    0    1
 -2       341       340       489      1822      2263      2264
 -1       819    8    0    1
 -2       340       488       489      2261      2265      2263
 -1       820    8    0    1
 -2       342       341       490      1825      2266      2267
 -1       821    8    0    1
 -2       341       489       490      2264      2268      2266
 -1       822    8    0    1
 -2       343       342       491      1828      2269      2270
 -1       823    8    0    1
 -2       342       490       491      2267      2271      2269
 -1       824    8    0    1
 -2       344       343       492      1831      2272      2273
 -1       825    8    0    1
 -2       343       491       492      2270      2274      2272
 -1       826    8    0    1
 -2       345       344       493      1834      2275      2276
 -1       827    8    0    1
 -2       344       492       493      2273      2277      2275
 -1       828    8    0    1
 -2       346       345       494      1837      2278      2279
 -1       829    8    0    1
 -2       345       493       494      2276      2280      2278
 -1       830    8    0    1
 -2       347       346       495      1840      2281      2282
 -1       831    8    0    1
 -2       346       494       495      2279      2283      2281
 -1       832    8    0    1
 -2       348       347       496      1843      2284      2285
 -1       833    8    0    1
 -2       347       495       496      2282      2286      2284
 -1       834    8    0    1
 -2       349       348       497      1846      2287      2288
 -1       835    8    0    1
 -2       348       496       497      2285      2289      2287
 -1       836    8    0    1
 -2       350       349       498      1849      2290      2291
 -1       837    8    0    1
 -2       349       497       498      2288      2292      2290
 -1       838    8    0    1
 -2       351       350       499      1852      2293      2294
 -1       839    8    0    1
 -2       350       498       499      2291      2295      2293
 -1       840    8    0    1
 -2       352       351       500      1855      2296      2297
 -1       841    8    0    1
 -2       351       499       500      2294      2298      2296
 -1       842    8    0    1
 -2       353       352       501      1858      2299      2300
 -1       843    8    0    1
 -2       352       500       501      2297      2301      2299
 -1       844    8    0    1
 -2       354       353       502      1861      2302      2303
 -1       845    8    0    1
 -2       353       501       502      2300      2304      2302
 -1       846    8    0    1
 -2       355       354       503      1864      2305      2306
 -1       847    8    0    1
 -2       354       502       503      2303      2307      2305
 -1       848    8    0    1
 -2       356       355       504      1867      2308      2309
 -1       849    8    0    1
 -2       355       503       504      2306      2310      2308
 -1       850    8    0    1
 -2       357       356       505      1870      2311      2312
 -1       851    8    0    1
 -2       356       504       505      2309      2313      2311
 -1       852    8    0    1
 -2       358       357       506      1873      2314      2315
 -1       853    8    0    1
 -2       357       505       506      2312      2316      2314
 -1       854    8    0    1
 -2       359       358       507      1876      2317      2318
 -1       855    8    0    1
 -2       358       506       507      2315      2319      2317
 -1       856    8    0    1
 -2       360       359       508      1879      2320      2321
 -1       857    8    0    1
 -2       359       507       508      2318      2322      2320
 -1       858    8    0    1
 -2       361       360       509      1882      2323      2324
 -1       859    8    0    1
 -2       360       508       509      2321      2325      2323
 -1       860    8    0    1
 -2       362       361       510      1885      2326      2327
 -1       861    8    0    1
 -2       361       509       510      2324      2328      2326
 -1       862    8    0    1
 -2       363       362       511      1888      2329      2330
 -1       863    8    0    1
 -2       362       510       511      2327      2331      2329
 -1       864    8    0    1
 -2       364       363       512      1891      2332      2333
 -1       865    8    0    1
 -2       363       511       512      2330      2334      2332
 -1       866    8    0    1
 -2       365       364       513      1894      2335      2336
 -1       867    8    0    1
 -2       364       512       513      2333      2337      2335
 -1       868    8    0    1
 -2       366       365       514      1897      2338      2339
 -1       869    8    0    1
 -2       365       513       514      2336      2340      2338
 -1       870    8    0    1
 -2       367       366       515      1900      2341      2342
 -1       871    8    0    1
 -2       366       514       515      2339      2343      2341
 -1       872    8    0    1
 -2       368       367       516      1903      2344      2345
 -1       873    8    0    1
 -2       367       515       516      2342      2346      2344
 -1       874    8    0    1
 -2       369       368       517      1906      2347      2348
 -1       875    8    0    1
 -2       368       516       517      2345      2349      2347
 -1       876    8    0    1
 -2       370       369       518      1909      2350      2351
 -1       877    8    0    1
 -2       369       517       518      2348      2352      2350
 -1       878    8    0    1
 -2       371       370       519      1912      2353      2354
 -1       879    8    0    1
 -2       370       518       519      2351      2355      2353
 -1       880    8    0    1
 -2       372       371       520      1915      2356      2357
 -1       881    8    0    1
 -2       371       519       520      2354      2358      2356
 -1       882    8    0    1
 -2       373       372       521      1918      2359      2360
 -1       883    8    0    1
 -2       372       520       521      2357      2361      2359
 -1       884    8    0    1
 -2       374       373       522      1921      2362      2363
 -1       885    8    0    1
 -2       373       521       522      2360      2364      2362
 -1       886    8    0    1
 -2       375       374       523      1924      2365      2366
 -1       887    8    0    1
 -2       374       522       523      2363      2367      2365
 -1       888    8    0    1
 -2       376       375       524      1927      2368      2369
 -1       889    8    0    1
 -2       375       523       524      2366      2370      2368
 -1       890    8    0    1
 -2       377       376       525      1930      2371      2372
 -1       891    8    0    1
 -2       376       524       525      2369      2373      2371
 -1       892    8    0    1
 -2       378       377       526      1933      2374      2375
 -1       893    8    0    1
 -2       377       525       526      2372      2376      2374
 -1       894    8    0    1
 -2       379       378       527      1936      2377      2378
 -1       895    8    0    1
 -2       378       526       527      2375      2379      2377
 -1       896    8    0    1
 -2       380       379       528      1939      2380      2381
 -1       897    8    0    1
 -2       379       527       528      2378      2382      2380
 -1       898    8    0    1
 -2       381       380       529      1942      2383      2384
 -1       899    8    0    1
 -2       380       528       529      2381      2385      2383
 -1       900    8    0    1
 -2       385       386       530      1958      2386      2387
 -1       901    8    0    1
 -2       386       387       531      1961      2388      2389
 -1       902    8    0    1
 -2       386       531       530      2389      2390      2386
 -1       903    8    0    1
 -2       387       388       532      1964      2391      2392
 -1       904    8    0    1
 -2       387       532       531      2392      2393      2388
 -1       905    8    0    1
 -2       388       389       533      1967      2394      2395
 -1       906    8    0    1
 -2       388       533       532      2395      2396      2391
 -1       907    8    0    1
 -2       389       390       534      1970      2397      2398
 -1       908    8    0    1
 -2       389       534       533      2398      2399      2394
 -1       909    8    0    1
 -2       390       391       535      1973      2400      2401
 -1       910    8    0    1
 -2       390       535       534      2401      2402      2397
 -1       911    8    0    1
 -2       391       392       536      1976      2403      2404
 -1       912    8    0    1
 -2       391       536       535      2404      2405      2400
 -1       913    8    0    1
 -2       392       393       537      1979      2406      2407
 -1       914    8    0    1
 -2       392       537       536      2407      2408      2403
 -1       915    8    0    1
 -2       393       394       538      1982      2409      2410
 -1       916    8    0    1
 -2       393       538       537      2410      2411      2406
 -1       917    8    0    1
 -2       394       395       539      1985      2412      2413
 -1       918    8    0    1
 -2       394       539       538      2413      2414      2409
 -1       919    8    0    1
 -2       395       396       540      1988      2415      2416
 -1       920    8    0    1
 -2       395       540       539      2416      2417      2412
 -1       921    8    0    1
 -2       396       397       541      1991      2418      2419
 -1       922    8    0    1
 -2       396       541       540      2419      2420      2415
 -1       923    8    0    1
 -2       397       398       542      1994      2421      2422
 -1       924    8    0    1
 -2       397       542       541      2422      2423      2418
 -1       925    8    0    1
 -2       398       399       543      1997      2424      2425
 -1       926    8    0    1
 -2       398       543       542      2425      2426      2421
 -1       927    8    0    1
 -2       399       400       544      2000      2427      2428
 -1       928    8    0    1
 -2       399       544       543      2428      2429      2424
 -1       929    8    0    1
 -2       400       401       545      2003      2430      2431
 -1       930    8    0    1
 -2       400       545       544      2431      2432      2427
 -1       931    8    0    1
 -2       401       402       546      2006      2433      2434
 -1       932    8    0    1
 -2       401       546       545      2434      2435      2430
 -1       933    8    0    1
 -2       402       403       547      2009      2436      2437
 -1       934    8    0    1
 -2       402       547       546      2437      2438      2433
 -1       935    8    0    1
 -2       403       404       548      2012      2439      2440
 -1       936    8    0    1
 -2       403       548       547      2440      2441      2436
 -1       937    8    0    1
 -2       404       405       549      2015      2442      2443
 -1       938    8    0    1
 -2       404       549       548      2443      2444      2439
 -1       939    8    0    1
 -2       405       406       550      2018      2445      2446
 -1       940    8    0    1
 -2       405       550       549      2446      2447      2442
 -1       941    8    0    1
 -2       406       407       551      2021      2448      2449
 -1       942    8    0    1
 -2       406       551       550      2449      2450      2445
 -1       943    8    0    1
 -2       407       408       552      2024      2451      2452
 -1       944    8    0    1
 -2       407       552       551      2452      2453      2448
 -1       945    8    0    1
 -2       408       409       553      2027      2454      2455
 -1       946    8    0    1
 -2       408       553       552      2455      2456      2451
 -1       947    8    0    1
 -2       409       410       554      2030      2457      2458
 -1       948    8    0    1
 -2       409       554       553      2458      2459      2454
 -1       949    8    0    1
 -2       410       411       555      2033      2460      2461
 -1       950    8    0    1
 -2       410       555       554      2461      2462      2457
 -1       951    8    0    1
 -2       411       412       556      2036      2463      2464
 -1       952    8    0    1
 -2       411       556       555      2464      2465      2460
 -1       953    8    0    1
 -2       412       413       557      2039      2466      2467
 -1       954    8    0    1
 -2       412       557       556      2467      2468      2463
 -1       955    8    0    1
 -2       413       414       558      2042      2469      2470
 -1       956    8    0    1
 -2       413       558       557      2470      2471      2466
 -1       957    8    0    1
 -2       414       415       559      2045      2472      2473
 -1       958    8    0    1
 -2       414       559       558      2473      2474      2469
 -1       959    8    0    1
 -2       415       416       560      2048      2475      2476
 -1       960    8    0    1
 -2       415       560       559      2476      2477      2472
 -1       961    8    0    1
 -2       416       417       561      2051      2478      2479
 -1       962    8    0    1
 -2       416       561       560      2479      2480      2475
 -1       963    8    0    1
 -2       417       418       562      2054      2481      2482
 -1       964    8    0    1
 -2       417       562       561      2482      2483      2478
 -1       965    8    0    1
 -2       418       419       563      2057      2484      2485
 -1       966    8    0    1
 -2       418       563       562      2485      2486      2481
 -1       967    8    0    1
 -2       419       420       564      2060      2487      2488
 -1       968    8    0    1
 -2       419       564       563      2488      2489      2484
 -1       969    8    0    1
 -2       420       421       565      2063      2490      2491
 -1       970    8    0    1
 -2       420       565       564      2491      2492      2487
 -1       971    8    0    1
 -2       421       422       566      2066      2493      2494
 -1       972    8    0    1
 -2       421       566       565      2494      2495      2490
 -1       973    8    0    1
 -2       422       423       567      2069      2496      2497
 -1       974    8    0    1
 -2       422       567       566      2497      2498      2493
 -1       975    8    0    1
 -2       423       424       568      2072      2499      2500
 -1       976    8    0    1
 -2       423       568       567      2500      2501      2496
 -1       977    8    0    1
 -2       424       425       569      2075      2502      2503
 -1       978    8    0    1
 -2       424       569       568      2503      2504      2499
 -1       979    8    0    1
 -2       425       426       570      2078      2505      2506
 -1       980    8    0    1
 -2       425       570       569      2506      2507      2502
 -1       981    8    0    1
 -2       426       427       571      2081      2508      2509
 -1       982    8    0    1
 -2       426       571       570      2509      2510      2505
 -1       983    8    0    1
 -2       427       428       431      2084      2093      2511
 -1       984    8    0    1
 -2       432       433       572      2100      2512      2513
 -1       985    8    0    1
 -2       433       434       573      2103      2514      2515
 -1       986    8    0    1
 -2       433       573       572      2515      2516      2512
 -1       987    8    0    1
 -2       430       429       574      2090      2517      2518
 -1       988    8    0    1
 -2       429       432       575      2097      2519      2520
 -1       989    8    0    1
 -2       574       429       575      2517      2520      2521
 -1       990    8    0    1
 -2       432       572       575      2513      2522      2519
 -1       991    8    0    1
 -2       434       435       576      2106      2523      2524
 -1       992    8    0    1
 -2       434       576       573      2524      2525      2514
 -1       993    8    0    1
 -2       435       436       577      2109      2526      2527
 -1       994    8    0    1
 -2       435       577       576      2527      2528      2523
 -1       995    8    0    1
 -2       436       437       578      2112      2529      2530
 -1       996    8    0    1
 -2       436       578       577      2530      2531      2526
 -1       997    8    0    1
 -2       437       438       579      2115      2532      2533
 -1       998    8    0    1
 -2       437       579       578      2533      2534      2529
 -1       999    8    0    1
 -2       438       439       580      2118      2535      2536
 -1      1000    8    0    1
 -2       438       580       579      2536      2537      2532
 -1      1001    8    0    1
 -2       439       440       581      2121      2538      2539
 -1      1002    8    0    1
 -2       439       581       580      2539      2540      2535
 -1      1003    8    0    1
 -2       440       441       582      2124      2541      2542
 -1      1004    8    0    1
 -2       440       582       581      2542      2543      2538
 -1      1005    8    0    1
 -2       443       444       583      2201      2544      2545
 -1      1006    8    0    1
 -2       442       445       584      2203      2546      2547
 -1      1007    8    0    1
 -2       384       385       585      1955      2548      2549
 -1      1008    8    0    1
 -2       385       530       585      2387      2550      2548
 -1      1009    8    0    1
 -2       441       291       382      2202      1945      2551
 -1      1010    8    0    1
 -2       445       446       586      2135      2552      2553
 -1      1011    8    0    1
 -2       468       469       587      2207      2554      2555
 -1      1012    8    0    1
 -2       472       448       588      2198      2556      2557
 -1      1013    8    0    1
 -2       466       467       589      2208      2558      2559
 -1      1014    8    0    1
 -2       453       454       590      2218      2560      2561
 -1      1015    8    0    1
 -2       448       449       591      2220      2562      2563
 -1      1016    8    0    1
 -2       326       327       592      1778      2564      2565
 -1      1017    8    0    1
 -2       476       326       592      2228      2565      2566
 -1      1018    8    0    1
 -2       327       478       592      2234      2567      2564
 -1      1019    8    0    1
 -2       449       450       593      2221      2568      2569
 -1      1020    8    0    1
 -2       454       455       594      2222      2570      2571
 -1      1021    8    0    1
 -2       450       451       595      2148      2572      2573
 -1      1022    8    0    1
 -2       451       452       596      2219      2574      2575
 -1      1023    8    0    1
 -2       451       596       595      2575      2576      2572
 -1      1024    8    0    1
 -2       452       453       597      2153      2577      2578
 -1      1025    8    0    1
 -2       457       458       598      2223      2579      2580
 -1      1026    8    0    1
 -2       455       456       599      2160      2581      2582
 -1      1027    8    0    1
 -2       462       463       600      2224      2583      2584
 -1      1028    8    0    1
 -2       456       457       601      2217      2585      2586
 -1      1029    8    0    1
 -2       458       459       602      2216      2587      2588
 -1      1030    8    0    1
 -2       458       602       598      2588      2589      2579
 -1      1031    8    0    1
 -2       460       461       603      2171      2590      2591
 -1      1032    8    0    1
 -2       469       470       604      2225      2592      2593
 -1      1033    8    0    1
 -2       461       462       605      2212      2594      2595
 -1      1034    8    0    1
 -2       462       600       605      2584      2596      2594
 -1      1035    8    0    1
 -2       463       464       606      2211      2597      2598
 -1      1036    8    0    1
 -2       464       465       607      2210      2599      2600
 -1      1037    8    0    1
 -2       465       466       608      2209      2601      2602
 -1      1038    8    0    1
 -2       467       468       609      2186      2603      2604
 -1      1039    8    0    1
 -2       470       471       610      2193      2605      2606
 -1      1040    8    0    1
 -2       337       323       611      2199      2607      2608
 -1      1041    8    0    1
 -2       485       337       611      2253      2608      2609
 -1      1042    8    0    1
 -2       323       322       611      1767      2610      2607
 -1      1043    8    0    1
 -2       335       336       612      1807      2611      2612
 -1      1044    8    0    1
 -2       334       335       612      1802      2612      2613
 -1      1045    8    0    1
 -2       336       475       612      2227      2614      2611
 -1      1046    8    0    1
 -2       444       442       613      2200      2615      2616
 -1      1047    8    0    1
 -2       449       593       591      2569      2617      2562
 -1      1048    8    0    1
 -2       324       477       614      2231      2618      2619
 -1      1049    8    0    1
 -2       324       614       447      2619      2620      2139
 -1      1050    8    0    1
 -2       484       384       585      2250      2549      2621
 -1      1051    8    0    1
 -2       333       334       612      1799      2613      2622
 -1      1052    8    0    1
 -2       613       442       584      2615      2547      2623
 -1      1053    8    0    1
 -2       322       447       615      2138      2624      2625
 -1      1054    8    0    1
 -2       611       322       615      2610      2625      2626
 -1      1055    8    0    1
 -2       447       614       615      2620      2627      2624
 -1      1056    8    0    1
 -2       607       465       608      2599      2602      2628
 -1      1057    8    0    1
 -2       446       486       586      2256      2629      2552
 -1      1058    8    0    1
 -2       604       470       610      2592      2606      2630
 -1      1059    8    0    1
 -2       602       459       616      2587      2631      2632
 -1      1060    8    0    1
 -2       459       474       616      2214      2633      2631
 -1      1061    8    0    1
 -2       445       586       617      2553      2634      2635
 -1      1062    8    0    1
 -2       445       617       584      2635      2636      2546
 -1      1063    8    0    1
 -2       601       457       618      2585      2637      2638
 -1      1064    8    0    1
 -2       457       598       618      2580      2639      2637
 -1      1065    8    0    1
 -2       427       431       571      2511      2640      2508
 -1      1066    8    0    1
 -2       431       430       571      2094      2641      2640
 -1      1067    8    0    1
 -2       600       463       606      2583      2598      2642
 -1      1068    8    0    1
 -2       443       583       473      2545      2643      2204
 -1      1069    8    0    1
 -2       583       444       613      2544      2616      2644
 -1      1070    8    0    1
 -2       599       456       601      2581      2586      2645
 -1      1071    8    0    1
 -2       333       612       483      2622      2646      2247
 -1      1072    8    0    1
 -2       587       469       604      2554      2593      2647
 -1      1073    8    0    1
 -2       460       603       474      2591      2648      2215
 -1      1074    8    0    1
 -2       471       473       610      2206      2649      2605
 -1      1075    8    0    1
 -2       468       587       609      2555      2650      2603
 -1      1076    8    0    1
 -2       608       466       589      2601      2559      2651
 -1      1077    8    0    1
 -2       472       588       486      2557      2652      2255
 -1      1078    8    0    1
 -2       596       452       597      2574      2578      2653
 -1      1079    8    0    1
 -2       453       590       597      2561      2654      2577
 -1      1080    8    0    1
 -2       590       454       594      2560      2571      2655
 -1      1081    8    0    1
 -2       589       467       609      2558      2604      2656
 -1      1082    8    0    1
 -2       588       448       591      2556      2563      2657
 -1      1083    8    0    1
 -2       594       455       599      2570      2582      2658
 -1      1084    8    0    1
 -2       450       595       593      2573      2659      2568
 -1      1085    8    0    1
 -2       603       461       605      2590      2595      2660
 -1      1086    8    0    1
 -2       606       464       607      2597      2600      2661
 -1      1087    8    0    1
 -2       441       382       619      2551      2662      2663
 -1      1088    8    0    1
 -2       582       441       619      2541      2663      2664
 -1      1089    8    0    1
 -2       382       381       619      1946      2665      2662
 -1      1090    8    0    1
 -2       571       430       574      2641      2518      2666
 -1      1091    8    0    1
 -2       619       381       529      2665      2384      2667
 -1      1092    8    0    1
 -2       479       480       620      2240      2668      2669
 -1      1093    8    0    1
 -2       478       479       621      2237      2670      2671
 -1      1094    8    0    1
 -2       479       620       621      2669      2672      2670
 -1      1095    8    0    1
 -2       481       482       622      2246      2673      2674
 -1      1096    8    0    1
 -2       482       483       623      2249      2675      2676
 -1      1097    8    0    1
 -2       482       623       622      2676      2677      2673
 -1      1098    8    0    1
 -2       475       484       624      2252      2678      2679
 -1      1099    8    0    1
 -2       587       604       625      2647      2680      2681
 -1      1100    8    0    1
 -2       605       600       626      2596      2682      2683
 -1      1101    8    0    1
 -2       612       475       483      2614      2684      2646
 -1      1102    8    0    1
 -2       488       487       627      2262      2685      2686
 -1      1103    8    0    1
 -2       489       488       628      2265      2687      2688
 -1      1104    8    0    1
 -2       488       627       628      2686      2689      2687
 -1      1105    8    0    1
 -2       490       489       629      2268      2690      2691
 -1      1106    8    0    1
 -2       489       628       629      2688      2692      2690
 -1      1107    8    0    1
 -2       491       490       630      2271      2693      2694
 -1      1108    8    0    1
 -2       490       629       630      2691      2695      2693
 -1      1109    8    0    1
 -2       492       491       631      2274      2696      2697
 -1      1110    8    0    1
 -2       491       630       631      2694      2698      2696
 -1      1111    8    0    1
 -2       493       492       632      2277      2699      2700
 -1      1112    8    0    1
 -2       492       631       632      2697      2701      2699
 -1      1113    8    0    1
 -2       494       493       633      2280      2702      2703
 -1      1114    8    0    1
 -2       493       632       633      2700      2704      2702
 -1      1115    8    0    1
 -2       495       494       634      2283      2705      2706
 -1      1116    8    0    1
 -2       494       633       634      2703      2707      2705
 -1      1117    8    0    1
 -2       496       495       635      2286      2708      2709
 -1      1118    8    0    1
 -2       495       634       635      2706      2710      2708
 -1      1119    8    0    1
 -2       497       496       636      2289      2711      2712
 -1      1120    8    0    1
 -2       496       635       636      2709      2713      2711
 -1      1121    8    0    1
 -2       498       497       637      2292      2714      2715
 -1      1122    8    0    1
 -2       497       636       637      2712      2716      2714
 -1      1123    8    0    1
 -2       499       498       638      2295      2717      2718
 -1      1124    8    0    1
 -2       498       637       638      2715      2719      2717
 -1      1125    8    0    1
 -2       500       499       639      2298      2720      2721
 -1      1126    8    0    1
 -2       499       638       639      2718      2722      2720
 -1      1127    8    0    1
 -2       501       500       640      2301      2723      2724
 -1      1128    8    0    1
 -2       500       639       640      2721      2725      2723
 -1      1129    8    0    1
 -2       502       501       641      2304      2726      2727
 -1      1130    8    0    1
 -2       501       640       641      2724      2728      2726
 -1      1131    8    0    1
 -2       503       502       642      2307      2729      2730
 -1      1132    8    0    1
 -2       502       641       642      2727      2731      2729
 -1      1133    8    0    1
 -2       504       503       643      2310      2732      2733
 -1      1134    8    0    1
 -2       503       642       643      2730      2734      2732
 -1      1135    8    0    1
 -2       505       504       626      2313      2735      2736
 -1      1136    8    0    1
 -2       506       505       626      2316      2736      2737
 -1      1137    8    0    1
 -2       507       506       644      2319      2738      2739
 -1      1138    8    0    1
 -2       508       507       645      2322      2740      2741
 -1      1139    8    0    1
 -2       509       508       646      2325      2742      2743
 -1      1140    8    0    1
 -2       510       509       647      2328      2744      2745
 -1      1141    8    0    1
 -2       511       510       648      2331      2746      2747
 -1      1142    8    0    1
 -2       510       647       648      2745      2748      2746
 -1      1143    8    0    1
 -2       512       511       649      2334      2749      2750
 -1      1144    8    0    1
 -2       511       648       649      2747      2751      2749
 -1      1145    8    0    1
 -2       513       512       650      2337      2752      2753
 -1      1146    8    0    1
 -2       512       649       650      2750      2754      2752
 -1      1147    8    0    1
 -2       514       513       651      2340      2755      2756
 -1      1148    8    0    1
 -2       513       650       651      2753      2757      2755
 -1      1149    8    0    1
 -2       515       514       652      2343      2758      2759
 -1      1150    8    0    1
 -2       514       651       652      2756      2760      2758
 -1      1151    8    0    1
 -2       516       515       653      2346      2761      2762
 -1      1152    8    0    1
 -2       515       652       653      2759      2763      2761
 -1      1153    8    0    1
 -2       517       516       654      2349      2764      2765
 -1      1154    8    0    1
 -2       516       653       654      2762      2766      2764
 -1      1155    8    0    1
 -2       518       517       655      2352      2767      2768
 -1      1156    8    0    1
 -2       517       654       655      2765      2769      2767
 -1      1157    8    0    1
 -2       519       518       656      2355      2770      2771
 -1      1158    8    0    1
 -2       518       655       656      2768      2772      2770
 -1      1159    8    0    1
 -2       520       519       657      2358      2773      2774
 -1      1160    8    0    1
 -2       519       656       657      2771      2775      2773
 -1      1161    8    0    1
 -2       521       520       658      2361      2776      2777
 -1      1162    8    0    1
 -2       520       657       658      2774      2778      2776
 -1      1163    8    0    1
 -2       522       521       659      2364      2779      2780
 -1      1164    8    0    1
 -2       521       658       659      2777      2781      2779
 -1      1165    8    0    1
 -2       523       522       660      2367      2782      2783
 -1      1166    8    0    1
 -2       522       659       660      2780      2784      2782
 -1      1167    8    0    1
 -2       524       523       661      2370      2785      2786
 -1      1168    8    0    1
 -2       523       660       661      2783      2787      2785
 -1      1169    8    0    1
 -2       525       524       662      2373      2788      2789
 -1      1170    8    0    1
 -2       524       661       662      2786      2790      2788
 -1      1171    8    0    1
 -2       526       525       663      2376      2791      2792
 -1      1172    8    0    1
 -2       525       662       663      2789      2793      2791
 -1      1173    8    0    1
 -2       527       526       664      2379      2794      2795
 -1      1174    8    0    1
 -2       526       663       664      2792      2796      2794
 -1      1175    8    0    1
 -2       528       527       665      2382      2797      2798
 -1      1176    8    0    1
 -2       527       664       665      2795      2799      2797
 -1      1177    8    0    1
 -2       529       528       666      2385      2800      2801
 -1      1178    8    0    1
 -2       528       665       666      2798      2802      2800
 -1      1179    8    0    1
 -2       531       532       667      2393      2803      2804
 -1      1180    8    0    1
 -2       571       574       668      2666      2805      2806
 -1      1181    8    0    1
 -2       571       668       570      2806      2807      2510
 -1      1182    8    0    1
 -2       530       531       669      2390      2808      2809
 -1      1183    8    0    1
 -2       531       667       669      2804      2810      2808
 -1      1184    8    0    1
 -2       533       534       670      2399      2811      2812
 -1      1185    8    0    1
 -2       534       535       671      2402      2813      2814
 -1      1186    8    0    1
 -2       534       671       670      2814      2815      2811
 -1      1187    8    0    1
 -2       535       536       672      2405      2816      2817
 -1      1188    8    0    1
 -2       535       672       671      2817      2818      2813
 -1      1189    8    0    1
 -2       536       537       673      2408      2819      2820
 -1      1190    8    0    1
 -2       536       673       672      2820      2821      2816
 -1      1191    8    0    1
 -2       537       538       674      2411      2822      2823
 -1      1192    8    0    1
 -2       537       674       673      2823      2824      2819
 -1      1193    8    0    1
 -2       538       539       675      2414      2825      2826
 -1      1194    8    0    1
 -2       538       675       674      2826      2827      2822
 -1      1195    8    0    1
 -2       539       540       676      2417      2828      2829
 -1      1196    8    0    1
 -2       539       676       675      2829      2830      2825
 -1      1197    8    0    1
 -2       540       541       677      2420      2831      2832
 -1      1198    8    0    1
 -2       540       677       676      2832      2833      2828
 -1      1199    8    0    1
 -2       541       542       678      2423      2834      2835
 -1      1200    8    0    1
 -2       541       678       677      2835      2836      2831
 -1      1201    8    0    1
 -2       542       543       679      2426      2837      2838
 -1      1202    8    0    1
 -2       542       679       678      2838      2839      2834
 -1      1203    8    0    1
 -2       543       544       680      2429      2840      2841
 -1      1204    8    0    1
 -2       543       680       679      2841      2842      2837
 -1      1205    8    0    1
 -2       544       545       681      2432      2843      2844
 -1      1206    8    0    1
 -2       544       681       680      2844      2845      2840
 -1      1207    8    0    1
 -2       545       546       682      2435      2846      2847
 -1      1208    8    0    1
 -2       545       682       681      2847      2848      2843
 -1      1209    8    0    1
 -2       546       547       683      2438      2849      2850
 -1      1210    8    0    1
 -2       546       683       682      2850      2851      2846
 -1      1211    8    0    1
 -2       547       548       684      2441      2852      2853
 -1      1212    8    0    1
 -2       547       684       683      2853      2854      2849
 -1      1213    8    0    1
 -2       548       549       685      2444      2855      2856
 -1      1214    8    0    1
 -2       548       685       684      2856      2857      2852
 -1      1215    8    0    1
 -2       549       550       686      2447      2858      2859
 -1      1216    8    0    1
 -2       549       686       685      2859      2860      2855
 -1      1217    8    0    1
 -2       550       551       687      2450      2861      2862
 -1      1218    8    0    1
 -2       550       687       686      2862      2863      2858
 -1      1219    8    0    1
 -2       551       552       688      2453      2864      2865
 -1      1220    8    0    1
 -2       551       688       687      2865      2866      2861
 -1      1221    8    0    1
 -2       552       553       689      2456      2867      2868
 -1      1222    8    0    1
 -2       552       689       688      2868      2869      2864
 -1      1223    8    0    1
 -2       553       554       690      2459      2870      2871
 -1      1224    8    0    1
 -2       553       690       689      2871      2872      2867
 -1      1225    8    0    1
 -2       554       555       691      2462      2873      2874
 -1      1226    8    0    1
 -2       554       691       690      2874      2875      2870
 -1      1227    8    0    1
 -2       555       556       692      2465      2876      2877
 -1      1228    8    0    1
 -2       555       692       691      2877      2878      2873
 -1      1229    8    0    1
 -2       556       557       693      2468      2879      2880
 -1      1230    8    0    1
 -2       556       693       692      2880      2881      2876
 -1      1231    8    0    1
 -2       557       558       694      2471      2882      2883
 -1      1232    8    0    1
 -2       557       694       693      2883      2884      2879
 -1      1233    8    0    1
 -2       558       559       695      2474      2885      2886
 -1      1234    8    0    1
 -2       558       695       694      2886      2887      2882
 -1      1235    8    0    1
 -2       559       560       696      2477      2888      2889
 -1      1236    8    0    1
 -2       559       696       695      2889      2890      2885
 -1      1237    8    0    1
 -2       560       561       697      2480      2891      2892
 -1      1238    8    0    1
 -2       560       697       696      2892      2893      2888
 -1      1239    8    0    1
 -2       561       562       698      2483      2894      2895
 -1      1240    8    0    1
 -2       561       698       697      2895      2896      2891
 -1      1241    8    0    1
 -2       562       563       699      2486      2897      2898
 -1      1242    8    0    1
 -2       562       699       698      2898      2899      2894
 -1      1243    8    0    1
 -2       563       564       700      2489      2900      2901
 -1      1244    8    0    1
 -2       563       700       699      2901      2902      2897
 -1      1245    8    0    1
 -2       564       565       701      2492      2903      2904
 -1      1246    8    0    1
 -2       564       701       700      2904      2905      2900
 -1      1247    8    0    1
 -2       565       566       702      2495      2906      2907
 -1      1248    8    0    1
 -2       565       702       701      2907      2908      2903
 -1      1249    8    0    1
 -2       566       567       703      2498      2909      2910
 -1      1250    8    0    1
 -2       566       703       702      2910      2911      2906
 -1      1251    8    0    1
 -2       567       568       704      2501      2912      2913
 -1      1252    8    0    1
 -2       567       704       703      2913      2914      2909
 -1      1253    8    0    1
 -2       568       569       705      2504      2915      2916
 -1      1254    8    0    1
 -2       568       705       704      2916      2917      2912
 -1      1255    8    0    1
 -2       569       570       706      2507      2918      2919
 -1      1256    8    0    1
 -2       705       569       706      2915      2919      2920
 -1      1257    8    0    1
 -2       570       668       706      2807      2921      2918
 -1      1258    8    0    1
 -2       576       577       707      2528      2922      2923
 -1      1259    8    0    1
 -2       619       529       708      2667      2924      2925
 -1      1260    8    0    1
 -2       529       666       708      2801      2926      2924
 -1      1261    8    0    1
 -2       572       573       709      2516      2927      2928
 -1      1262    8    0    1
 -2       577       578       710      2531      2929      2930
 -1      1263    8    0    1
 -2       577       710       707      2930      2931      2922
 -1      1264    8    0    1
 -2       573       576       711      2525      2932      2933
 -1      1265    8    0    1
 -2       709       573       711      2927      2933      2934
 -1      1266    8    0    1
 -2       576       707       711      2923      2935      2932
 -1      1267    8    0    1
 -2       578       579       712      2534      2936      2937
 -1      1268    8    0    1
 -2       578       712       710      2937      2938      2929
 -1      1269    8    0    1
 -2       579       580       713      2537      2939      2940
 -1      1270    8    0    1
 -2       579       713       712      2940      2941      2936
 -1      1271    8    0    1
 -2       580       581       714      2540      2942      2943
 -1      1272    8    0    1
 -2       580       714       713      2943      2944      2939
 -1      1273    8    0    1
 -2       583       613       715      2644      2945      2946
 -1      1274    8    0    1
 -2       604       610       716      2630      2947      2948
 -1      1275    8    0    1
 -2       609       587       717      2650      2949      2950
 -1      1276    8    0    1
 -2       608       589       718      2651      2951      2952
 -1      1277    8    0    1
 -2       486       588       719      2652      2953      2954
 -1      1278    8    0    1
 -2       597       590       720      2654      2955      2956
 -1      1279    8    0    1
 -2       607       608       645      2628      2957      2958
 -1      1280    8    0    1
 -2       610       473       721      2649      2959      2960
 -1      1281    8    0    1
 -2       585       530       722      2550      2961      2962
 -1      1282    8    0    1
 -2       530       669       722      2809      2963      2961
 -1      1283    8    0    1
 -2       594       599       723      2658      2964      2965
 -1      1284    8    0    1
 -2       532       533       724      2396      2966      2967
 -1      1285    8    0    1
 -2       667       532       724      2803      2967      2968
 -1      1286    8    0    1
 -2       533       670       724      2812      2969      2966
 -1      1287    8    0    1
 -2       613       584       725      2623      2970      2971
 -1      1288    8    0    1
 -2       484       585       726      2621      2972      2973
 -1      1289    8    0    1
 -2       624       484       726      2678      2973      2974
 -1      1290    8    0    1
 -2       585       722       726      2962      2975      2972
 -1      1291    8    0    1
 -2       487       485       727      2259      2976      2977
 -1      1292    8    0    1
 -2       487       727       627      2977      2978      2685
 -1      1293    8    0    1
 -2       596       597       728      2653      2979      2980
 -1      1294    8    0    1
 -2       589       609       729      2656      2981      2982
 -1      1295    8    0    1
 -2       595       596       730      2576      2983      2984
 -1      1296    8    0    1
 -2       590       594       731      2655      2985      2986
 -1      1297    8    0    1
 -2       590       731       720      2986      2987      2955
 -1      1298    8    0    1
 -2       480       481       732      2243      2988      2989
 -1      1299    8    0    1
 -2       620       480       732      2668      2989      2990
 -1      1300    8    0    1
 -2       481       622       732      2674      2991      2988
 -1      1301    8    0    1
 -2       593       595       733      2659      2992      2993
 -1      1302    8    0    1
 -2       473       583       734      2643      2994      2995
 -1      1303    8    0    1
 -2       473       734       721      2995      2996      2959
 -1      1304    8    0    1
 -2       477       476       735      2232      2997      2998
 -1      1305    8    0    1
 -2       598       602       736      2589      2999      3000
 -1      1306    8    0    1
 -2       474       603       737      2648      3001      3002
 -1      1307    8    0    1
 -2       603       605       738      2660      3003      3004
 -1      1308    8    0    1
 -2       605       626       738      2683      3005      3003
 -1      1309    8    0    1
 -2       606       607       644      2661      3006      3007
 -1      1310    8    0    1
 -2       582       619       708      2664      2925      3008
 -1      1311    8    0    1
 -2       586       486       739      2629      3009      3010
 -1      1312    8    0    1
 -2       588       591       740      2657      3011      3012
 -1      1313    8    0    1
 -2       599       601       741      2645      3013      3014
 -1      1314    8    0    1
 -2       485       611       742      2609      3015      3016
 -1      1315    8    0    1
 -2       727       485       742      2976      3016      3017
 -1      1316    8    0    1
 -2       611       615       742      2626      3018      3015
 -1      1317    8    0    1
 -2       591       593       743      2617      3019      3020
 -1      1318    8    0    1
 -2       591       743       740      3020      3021      3011
 -1      1319    8    0    1
 -2       614       477       744      2618      3022      3023
 -1      1320    8    0    1
 -2       477       735       744      2998      3024      3022
 -1      1321    8    0    1
 -2       478       621       745      2671      3025      3026
 -1      1322    8    0    1
 -2       478       745       592      3026      3027      2567
 -1      1323    8    0    1
 -2       743       593       733      3019      2993      3028
 -1      1324    8    0    1
 -2       587       625       717      2681      3029      2949
 -1      1325    8    0    1
 -2       741       601       618      3013      2638      3030
 -1      1326    8    0    1
 -2       483       475       624      2684      2679      3031
 -1      1327    8    0    1
 -2       596       728       730      2980      3032      2983
 -1      1328    8    0    1
 -2       616       474       737      2633      3002      3033
 -1      1329    8    0    1
 -2       617       586       746      2634      3034      3035
 -1      1330    8    0    1
 -2       586       739       746      3010      3036      3034
 -1      1331    8    0    1
 -2       618       598       736      2639      3000      3037
 -1      1332    8    0    1
 -2       507       644       645      2739      3038      2740
 -1      1333    8    0    1
 -2       626       504       643      2735      2733      3039
 -1      1334    8    0    1
 -2       508       645       646      2741      3040      2742
 -1      1335    8    0    1
 -2       509       646       647      2743      3041      2744
 -1      1336    8    0    1
 -2       613       725       715      2971      3042      2945
 -1      1337    8    0    1
 -2       572       709       747      2928      3043      3044
 -1      1338    8    0    1
 -2       572       747       575      3044      3045      2522
 -1      1339    8    0    1
 -2       725       584       617      2970      2636      3046
 -1      1340    8    0    1
 -2       594       723       731      2965      3047      2985
 -1      1341    8    0    1
 -2       737       603       748      3001      3048      3049
 -1      1342    8    0    1
 -2       603       738       748      3004      3050      3048
 -1      1343    8    0    1
 -2       574       575       668      2521      3051      2805
 -1      1344    8    0    1
 -2       716       610       721      2947      2960      3052
 -1      1345    8    0    1
 -2       483       624       623      3031      3053      2675
 -1      1346    8    0    1
 -2       736       602       616      2999      2632      3054
 -1      1347    8    0    1
 -2       583       715       734      2946      3055      2994
 -1      1348    8    0    1
 -2       581       582       708      2543      3008      3056
 -1      1349    8    0    1
 -2       604       716       625      2948      3057      2680
 -1      1350    8    0    1
 -2       609       717       729      2950      3058      2981
 -1      1351    8    0    1
 -2       719       588       740      2953      3012      3059
 -1      1352    8    0    1
 -2       718       589       729      2951      2982      3060
 -1      1353    8    0    1
 -2       486       719       739      2954      3061      3009
 -1      1354    8    0    1
 -2       597       720       728      2956      3062      2979
 -1      1355    8    0    1
 -2       607       645       644      2958      3038      3006
 -1      1356    8    0    1
 -2       723       599       741      2964      3014      3063
 -1      1357    8    0    1
 -2       476       592       749      2566      3064      3065
 -1      1358    8    0    1
 -2       735       476       749      2997      3065      3066
 -1      1359    8    0    1
 -2       592       745       749      3027      3067      3064
 -1      1360    8    0    1
 -2       595       730       733      2984      3068      2992
 -1      1361    8    0    1
 -2       600       606       750      2642      3069      3070
 -1      1362    8    0    1
 -2       581       708       751      3056      3071      3072
 -1      1363    8    0    1
 -2       714       581       751      2942      3072      3073
 -1      1364    8    0    1
 -2       708       666       751      2926      3074      3071
 -1      1365    8    0    1
 -2       750       606       644      3069      3007      3075
 -1      1366    8    0    1
 -2       730       728       752      3032      3076      3077
 -1      1367    8    0    1
 -2       622       623       753      2677      3078      3079
 -1      1368    8    0    1
 -2       615       614       754      2627      3080      3081
 -1      1369    8    0    1
 -2       742       615       754      3018      3081      3082
 -1      1370    8    0    1
 -2       614       744       754      3023      3083      3080
 -1      1371    8    0    1
 -2       717       625       755      3029      3084      3085
 -1      1372    8    0    1
 -2       629       628       756      2692      3086      3087
 -1      1373    8    0    1
 -2       630       629       757      2695      3088      3089
 -1      1374    8    0    1
 -2       629       756       757      3087      3090      3088
 -1      1375    8    0    1
 -2       631       630       758      2698      3091      3092
 -1      1376    8    0    1
 -2       630       757       758      3089      3093      3091
 -1      1377    8    0    1
 -2       632       631       759      2701      3094      3095
 -1      1378    8    0    1
 -2       631       758       759      3092      3096      3094
 -1      1379    8    0    1
 -2       633       632       760      2704      3097      3098
 -1      1380    8    0    1
 -2       632       759       760      3095      3099      3097
 -1      1381    8    0    1
 -2       634       633       761      2707      3100      3101
 -1      1382    8    0    1
 -2       633       760       761      3098      3102      3100
 -1      1383    8    0    1
 -2       635       634       762      2710      3103      3104
 -1      1384    8    0    1
 -2       634       761       762      3101      3105      3103
 -1      1385    8    0    1
 -2       636       635       763      2713      3106      3107
 -1      1386    8    0    1
 -2       635       762       763      3104      3108      3106
 -1      1387    8    0    1
 -2       637       636       764      2716      3109      3110
 -1      1388    8    0    1
 -2       636       763       764      3107      3111      3109
 -1      1389    8    0    1
 -2       638       637       765      2719      3112      3113
 -1      1390    8    0    1
 -2       637       764       765      3110      3114      3112
 -1      1391    8    0    1
 -2       639       638       766      2722      3115      3116
 -1      1392    8    0    1
 -2       638       765       766      3113      3117      3115
 -1      1393    8    0    1
 -2       640       639       767      2725      3118      3119
 -1      1394    8    0    1
 -2       639       766       767      3116      3120      3118
 -1      1395    8    0    1
 -2       641       640       768      2728      3121      3122
 -1      1396    8    0    1
 -2       640       767       768      3119      3123      3121
 -1      1397    8    0    1
 -2       642       641       769      2731      3124      3125
 -1      1398    8    0    1
 -2       641       768       769      3122      3126      3124
 -1      1399    8    0    1
 -2       643       642       748      2734      3127      3128
 -1      1400    8    0    1
 -2       644       506       750      2738      3129      3075
 -1      1401    8    0    1
 -2       649       648       755      2751      3130      3131
 -1      1402    8    0    1
 -2       650       649       770      2754      3132      3133
 -1      1403    8    0    1
 -2       651       650       771      2757      3134      3135
 -1      1404    8    0    1
 -2       650       770       771      3133      3136      3134
 -1      1405    8    0    1
 -2       652       651       772      2760      3137      3138
 -1      1406    8    0    1
 -2       651       771       772      3135      3139      3137
 -1      1407    8    0    1
 -2       653       652       773      2763      3140      3141
 -1      1408    8    0    1
 -2       652       772       773      3138      3142      3140
 -1      1409    8    0    1
 -2       654       653       774      2766      3143      3144
 -1      1410    8    0    1
 -2       653       773       774      3141      3145      3143
 -1      1411    8    0    1
 -2       655       654       775      2769      3146      3147
 -1      1412    8    0    1
 -2       654       774       775      3144      3148      3146
 -1      1413    8    0    1
 -2       656       655       776      2772      3149      3150
 -1      1414    8    0    1
 -2       655       775       776      3147      3151      3149
 -1      1415    8    0    1
 -2       657       656       777      2775      3152      3153
 -1      1416    8    0    1
 -2       656       776       777      3150      3154      3152
 -1      1417    8    0    1
 -2       658       657       778      2778      3155      3156
 -1      1418    8    0    1
 -2       657       777       778      3153      3157      3155
 -1      1419    8    0    1
 -2       659       658       779      2781      3158      3159
 -1      1420    8    0    1
 -2       658       778       779      3156      3160      3158
 -1      1421    8    0    1
 -2       660       659       780      2784      3161      3162
 -1      1422    8    0    1
 -2       659       779       780      3159      3163      3161
 -1      1423    8    0    1
 -2       661       660       781      2787      3164      3165
 -1      1424    8    0    1
 -2       660       780       781      3162      3166      3164
 -1      1425    8    0    1
 -2       662       661       782      2790      3167      3168
 -1      1426    8    0    1
 -2       661       781       782      3165      3169      3167
 -1      1427    8    0    1
 -2       663       662       783      2793      3170      3171
 -1      1428    8    0    1
 -2       662       782       783      3168      3172      3170
 -1      1429    8    0    1
 -2       664       663       784      2796      3173      3174
 -1      1430    8    0    1
 -2       663       783       784      3171      3175      3173
 -1      1431    8    0    1
 -2       665       664       785      2799      3176      3177
 -1      1432    8    0    1
 -2       664       784       785      3174      3178      3176
 -1      1433    8    0    1
 -2       666       665       786      2802      3179      3180
 -1      1434    8    0    1
 -2       751       666       786      3074      3180      3181
 -1      1435    8    0    1
 -2       665       785       786      3177      3182      3179
 -1      1436    8    0    1
 -2       710       712       787      2938      3183      3184
 -1      1437    8    0    1
 -2       669       667       788      2810      3185      3186
 -1      1438    8    0    1
 -2       671       672       789      2818      3187      3188
 -1      1439    8    0    1
 -2       670       671       790      2815      3189      3190
 -1      1440    8    0    1
 -2       671       789       790      3188      3191      3189
 -1      1441    8    0    1
 -2       673       674       791      2824      3192      3193
 -1      1442    8    0    1
 -2       674       675       792      2827      3194      3195
 -1      1443    8    0    1
 -2       674       792       791      3195      3196      3192
 -1      1444    8    0    1
 -2       675       676       793      2830      3197      3198
 -1      1445    8    0    1
 -2       675       793       792      3198      3199      3194
 -1      1446    8    0    1
 -2       676       677       794      2833      3200      3201
 -1      1447    8    0    1
 -2       676       794       793      3201      3202      3197
 -1      1448    8    0    1
 -2       677       678       795      2836      3203      3204
 -1      1449    8    0    1
 -2       677       795       794      3204      3205      3200
 -1      1450    8    0    1
 -2       678       679       796      2839      3206      3207
 -1      1451    8    0    1
 -2       678       796       795      3207      3208      3203
 -1      1452    8    0    1
 -2       679       680       797      2842      3209      3210
 -1      1453    8    0    1
 -2       679       797       796      3210      3211      3206
 -1      1454    8    0    1
 -2       680       681       798      2845      3212      3213
 -1      1455    8    0    1
 -2       680       798       797      3213      3214      3209
 -1      1456    8    0    1
 -2       681       682       799      2848      3215      3216
 -1      1457    8    0    1
 -2       681       799       798      3216      3217      3212
 -1      1458    8    0    1
 -2       682       683       752      2851      3218      3219
 -1      1459    8    0    1
 -2       684       685       800      2857      3220      3221
 -1      1460    8    0    1
 -2       686       687       801      2863      3222      3223
 -1      1461    8    0    1
 -2       687       688       802      2866      3224      3225
 -1      1462    8    0    1
 -2       687       802       801      3225      3226      3222
 -1      1463    8    0    1
 -2       688       689       803      2869      3227      3228
 -1      1464    8    0    1
 -2       688       803       802      3228      3229      3224
 -1      1465    8    0    1
 -2       689       690       804      2872      3230      3231
 -1      1466    8    0    1
 -2       689       804       803      3231      3232      3227
 -1      1467    8    0    1
 -2       690       691       805      2875      3233      3234
 -1      1468    8    0    1
 -2       690       805       804      3234      3235      3230
 -1      1469    8    0    1
 -2       691       692       806      2878      3236      3237
 -1      1470    8    0    1
 -2       691       806       805      3237      3238      3233
 -1      1471    8    0    1
 -2       692       693       807      2881      3239      3240
 -1      1472    8    0    1
 -2       692       807       806      3240      3241      3236
 -1      1473    8    0    1
 -2       693       694       808      2884      3242      3243
 -1      1474    8    0    1
 -2       693       808       807      3243      3244      3239
 -1      1475    8    0    1
 -2       694       695       809      2887      3245      3246
 -1      1476    8    0    1
 -2       694       809       808      3246      3247      3242
 -1      1477    8    0    1
 -2       695       696       810      2890      3248      3249
 -1      1478    8    0    1
 -2       695       810       809      3249      3250      3245
 -1      1479    8    0    1
 -2       696       697       811      2893      3251      3252
 -1      1480    8    0    1
 -2       696       811       810      3252      3253      3248
 -1      1481    8    0    1
 -2       697       698       812      2896      3254      3255
 -1      1482    8    0    1
 -2       697       812       811      3255      3256      3251
 -1      1483    8    0    1
 -2       698       699       813      2899      3257      3258
 -1      1484    8    0    1
 -2       698       813       812      3258      3259      3254
 -1      1485    8    0    1
 -2       699       700       814      2902      3260      3261
 -1      1486    8    0    1
 -2       699       814       813      3261      3262      3257
 -1      1487    8    0    1
 -2       700       701       815      2905      3263      3264
 -1      1488    8    0    1
 -2       700       815       814      3264      3265      3260
 -1      1489    8    0    1
 -2       701       702       816      2908      3266      3267
 -1      1490    8    0    1
 -2       701       816       815      3267      3268      3263
 -1      1491    8    0    1
 -2       702       703       817      2911      3269      3270
 -1      1492    8    0    1
 -2       702       817       816      3270      3271      3266
 -1      1493    8    0    1
 -2       703       704       818      2914      3272      3273
 -1      1494    8    0    1
 -2       703       818       817      3273      3274      3269
 -1      1495    8    0    1
 -2       704       705       819      2917      3275      3276
 -1      1496    8    0    1
 -2       704       819       818      3276      3277      3272
 -1      1497    8    0    1
 -2       621       620       820      2672      3278      3279
 -1      1498    8    0    1
 -2       618       736       821      3037      3280      3281
 -1      1499    8    0    1
 -2       713       714       822      2944      3282      3283
 -1      1500    8    0    1
 -2       707       710       823      2931      3284      3285
 -1      1501    8    0    1
 -2       710       787       823      3184      3286      3284
 -1      1502    8    0    1
 -2       616       737       824      3033      3287      3288
 -1      1503    8    0    1
 -2       736       616       824      3054      3288      3289
 -1      1504    8    0    1
 -2       740       743       825      3021      3290      3291
 -1      1505    8    0    1
 -2       722       669       826      2963      3292      3293
 -1      1506    8    0    1
 -2       669       788       826      3186      3294      3292
 -1      1507    8    0    1
 -2       733       730       827      3068      3295      3296
 -1      1508    8    0    1
 -2       645       608       718      2957      2952      3297
 -1      1509    8    0    1
 -2       741       618       828      3030      3298      3299
 -1      1510    8    0    1
 -2       618       821       828      3281      3300      3298
 -1      1511    8    0    1
 -2       712       713       829      2941      3301      3302
 -1      1512    8    0    1
 -2       787       712       829      3183      3302      3303
 -1      1513    8    0    1
 -2       713       822       829      3283      3304      3301
 -1      1514    8    0    1
 -2       672       673       830      2821      3305      3306
 -1      1515    8    0    1
 -2       789       672       830      3187      3306      3307
 -1      1516    8    0    1
 -2       673       791       830      3193      3308      3305
 -1      1517    8    0    1
 -2       716       721       831      3052      3309      3310
 -1      1518    8    0    1
 -2       743       733       800      3028      3311      3312
 -1      1519    8    0    1
 -2       623       624       832      3053      3313      3314
 -1      1520    8    0    1
 -2       753       623       832      3078      3314      3315
 -1      1521    8    0    1
 -2       624       726       832      2974      3316      3313
 -1      1522    8    0    1
 -2       627       727       833      2978      3317      3318
 -1      1523    8    0    1
 -2       731       723       834      3047      3319      3320
 -1      1524    8    0    1
 -2       715       725       835      3042      3321      3322
 -1      1525    8    0    1
 -2       647       646       729      3041      3323      3324
 -1      1526    8    0    1
 -2       725       617       836      3046      3325      3326
 -1      1527    8    0    1
 -2       719       740       837      3059      3327      3328
 -1      1528    8    0    1
 -2       739       719       838      3061      3329      3330
 -1      1529    8    0    1
 -2       628       627       839      2689      3331      3332
 -1      1530    8    0    1
 -2       628       839       756      3332      3333      3086
 -1      1531    8    0    1
 -2       720       731       840      2987      3334      3335
 -1      1532    8    0    1
 -2       721       734       841      2996      3336      3337
 -1      1533    8    0    1
 -2       721       841       831      3337      3338      3309
 -1      1534    8    0    1
 -2       626       600       750      2682      3070      3339
 -1      1535    8    0    1
 -2       668       575       747      3051      3045      3340
 -1      1536    8    0    1
 -2       723       741       842      3063      3341      3342
 -1      1537    8    0    1
 -2       625       716       843      3057      3343      3344
 -1      1538    8    0    1
 -2       728       720       844      3062      3345      3346
 -1      1539    8    0    1
 -2       734       715       845      3055      3347      3348
 -1      1540    8    0    1
 -2       729       717       647      3058      3349      3324
 -1      1541    8    0    1
 -2       647       717       648      3349      3350      2748
 -1      1542    8    0    1
 -2       648       717       755      3350      3085      3130
 -1      1543    8    0    1
 -2       745       621       846      3025      3351      3352
 -1      1544    8    0    1
 -2       621       820       846      3279      3353      3351
 -1      1545    8    0    1
 -2       622       753       847      3079      3354      3355
 -1      1546    8    0    1
 -2       622       847       732      3355      3356      2991
 -1      1547    8    0    1
 -2       730       752       827      3077      3357      3295
 -1      1548    8    0    1
 -2       720       840       844      3335      3358      3345
 -1      1549    8    0    1
 -2       643       748       738      3128      3050      3359
 -1      1550    8    0    1
 -2       746       739       848      3036      3360      3361
 -1      1551    8    0    1
 -2       739       838       848      3330      3362      3360
 -1      1552    8    0    1
 -2       642       769       748      3125      3363      3127
 -1      1553    8    0    1
 -2       845       715       835      3347      3322      3364
 -1      1554    8    0    1
 -2       841       734       845      3336      3348      3365
 -1      1555    8    0    1
 -2       747       709       849      3043      3366      3367
 -1      1556    8    0    1
 -2       839       627       833      3331      3318      3368
 -1      1557    8    0    1
 -2       740       825       801      3291      3369      3370
 -1      1558    8    0    1
 -2       788       667       850      3185      3371      3372
 -1      1559    8    0    1
 -2       667       724       850      2968      3373      3371
 -1      1560    8    0    1
 -2       838       719       837      3329      3328      3374
 -1      1561    8    0    1
 -2       733       827       800      3296      3375      3311
 -1      1562    8    0    1
 -2       716       831       851      3310      3376      3377
 -1      1563    8    0    1
 -2       716       851       843      3377      3378      3343
 -1      1564    8    0    1
 -2       738       626       643      3005      3039      3359
 -1      1565    8    0    1
 -2       670       790       852      3190      3379      3380
 -1      1566    8    0    1
 -2       670       852       724      3380      3381      2969
 -1      1567    8    0    1
 -2       682       752       799      3219      3382      3215
 -1      1568    8    0    1
 -2       684       800       827      3221      3375      3383
 -1      1569    8    0    1
 -2       683       684       827      2854      3383      3384
 -1      1570    8    0    1
 -2       686       801       825      3223      3369      3385
 -1      1571    8    0    1
 -2       685       686       825      2860      3385      3386
 -1      1572    8    0    1
 -2       819       705       853      3275      3387      3388
 -1      1573    8    0    1
 -2       705       706       853      2920      3389      3387
 -1      1574    8    0    1
 -2       820       620       854      3278      3390      3391
 -1      1575    8    0    1
 -2       620       732       854      2990      3392      3390
 -1      1576    8    0    1
 -2       709       711       855      2934      3393      3394
 -1      1577    8    0    1
 -2       709       855       849      3394      3395      3366
 -1      1578    8    0    1
 -2       649       755       770      3131      3396      3132
 -1      1579    8    0    1
 -2       711       707       856      2935      3397      3398
 -1      1580    8    0    1
 -2       855       711       856      3393      3398      3399
 -1      1581    8    0    1
 -2       707       823       856      3285      3400      3397
 -1      1582    8    0    1
 -2       836       617       746      3325      3035      3401
 -1      1583    8    0    1
 -2       729       646       718      3323      3402      3060
 -1      1584    8    0    1
 -2       835       725       836      3321      3326      3403
 -1      1585    8    0    1
 -2       723       842       834      3342      3404      3319
 -1      1586    8    0    1
 -2       736       824       857      3289      3405      3406
 -1      1587    8    0    1
 -2       825       743       800      3290      3312      3407
 -1      1588    8    0    1
 -2       821       736       857      3280      3406      3408
 -1      1589    8    0    1
 -2       800       685       825      3220      3386      3407
 -1      1590    8    0    1
 -2       755       625       843      3084      3344      3409
 -1      1591    8    0    1
 -2       741       828       858      3299      3410      3411
 -1      1592    8    0    1
 -2       741       858       842      3411      3412      3341
 -1      1593    8    0    1
 -2       731       834       840      3320      3413      3334
 -1      1594    8    0    1
 -2       683       827       752      3384      3357      3218
 -1      1595    8    0    1
 -2       726       722       859      2975      3414      3415
 -1      1596    8    0    1
 -2       832       726       859      3316      3415      3416
 -1      1597    8    0    1
 -2       722       826       859      3293      3417      3414
 -1      1598    8    0    1
 -2       752       728       844      3076      3346      3418
 -1      1599    8    0    1
 -2       714       751       860      3073      3419      3420
 -1      1600    8    0    1
 -2       822       714       860      3282      3420      3421
 -1      1601    8    0    1
 -2       751       786       860      3181      3422      3419
 -1      1602    8    0    1
 -2       668       747       861      3340      3423      3424
 -1      1603    8    0    1
 -2       706       668       861      2921      3424      3425
 -1      1604    8    0    1
 -2       747       849       861      3367      3426      3423
 -1      1605    8    0    1
 -2       735       749       862      3066      3427      3428
 -1      1606    8    0    1
 -2       727       742       754      3017      3082      3429
 -1      1607    8    0    1
 -2       744       735       863      3024      3430      3431
 -1      1608    8    0    1
 -2       735       862       863      3428      3432      3430
 -1      1609    8    0    1
 -2       727       754       833      3429      3433      3317
 -1      1610    8    0    1
 -2       758       757       864      3093      3434      3435
 -1      1611    8    0    1
 -2       759       758       865      3096      3436      3437
 -1      1612    8    0    1
 -2       758       864       865      3435      3438      3436
 -1      1613    8    0    1
 -2       760       759       866      3099      3439      3440
 -1      1614    8    0    1
 -2       759       865       866      3437      3441      3439
 -1      1615    8    0    1
 -2       761       760       867      3102      3442      3443
 -1      1616    8    0    1
 -2       760       866       867      3440      3444      3442
 -1      1617    8    0    1
 -2       762       761       868      3105      3445      3446
 -1      1618    8    0    1
 -2       761       867       868      3443      3447      3445
 -1      1619    8    0    1
 -2       763       762       869      3108      3448      3449
 -1      1620    8    0    1
 -2       762       868       869      3446      3450      3448
 -1      1621    8    0    1
 -2       764       763       870      3111      3451      3452
 -1      1622    8    0    1
 -2       763       869       870      3449      3453      3451
 -1      1623    8    0    1
 -2       765       764       871      3114      3454      3455
 -1      1624    8    0    1
 -2       764       870       871      3452      3456      3454
 -1      1625    8    0    1
 -2       766       765       872      3117      3457      3458
 -1      1626    8    0    1
 -2       765       871       872      3455      3459      3457
 -1      1627    8    0    1
 -2       767       766       873      3120      3460      3461
 -1      1628    8    0    1
 -2       766       872       873      3458      3462      3460
 -1      1629    8    0    1
 -2       768       767       874      3123      3463      3464
 -1      1630    8    0    1
 -2       767       873       874      3461      3465      3463
 -1      1631    8    0    1
 -2       769       768       875      3126      3466      3467
 -1      1632    8    0    1
 -2       768       874       875      3464      3468      3466
 -1      1633    8    0    1
 -2       845       835       876      3364      3469      3470
 -1      1634    8    0    1
 -2       750       506       626      3129      2737      3339
 -1      1635    8    0    1
 -2       770       755       843      3396      3409      3471
 -1      1636    8    0    1
 -2       839       833       877      3368      3472      3473
 -1      1637    8    0    1
 -2       772       771       878      3139      3474      3475
 -1      1638    8    0    1
 -2       773       772       879      3142      3476      3477
 -1      1639    8    0    1
 -2       772       878       879      3475      3478      3476
 -1      1640    8    0    1
 -2       774       773       880      3145      3479      3480
 -1      1641    8    0    1
 -2       773       879       880      3477      3481      3479
 -1      1642    8    0    1
 -2       775       774       881      3148      3482      3483
 -1      1643    8    0    1
 -2       774       880       881      3480      3484      3482
 -1      1644    8    0    1
 -2       776       775       882      3151      3485      3486
 -1      1645    8    0    1
 -2       775       881       882      3483      3487      3485
 -1      1646    8    0    1
 -2       777       776       883      3154      3488      3489
 -1      1647    8    0    1
 -2       776       882       883      3486      3490      3488
 -1      1648    8    0    1
 -2       778       777       884      3157      3491      3492
 -1      1649    8    0    1
 -2       777       883       884      3489      3493      3491
 -1      1650    8    0    1
 -2       779       778       885      3160      3494      3495
 -1      1651    8    0    1
 -2       778       884       885      3492      3496      3494
 -1      1652    8    0    1
 -2       780       779       886      3163      3497      3498
 -1      1653    8    0    1
 -2       779       885       886      3495      3499      3497
 -1      1654    8    0    1
 -2       781       780       887      3166      3500      3501
 -1      1655    8    0    1
 -2       780       886       887      3498      3502      3500
 -1      1656    8    0    1
 -2       782       781       888      3169      3503      3504
 -1      1657    8    0    1
 -2       781       887       888      3501      3505      3503
 -1      1658    8    0    1
 -2       783       782       889      3172      3506      3507
 -1      1659    8    0    1
 -2       782       888       889      3504      3508      3506
 -1      1660    8    0    1
 -2       784       783       890      3175      3509      3510
 -1      1661    8    0    1
 -2       783       889       890      3507      3511      3509
 -1      1662    8    0    1
 -2       785       784       891      3178      3512      3513
 -1      1663    8    0    1
 -2       784       890       891      3510      3514      3512
 -1      1664    8    0    1
 -2       792       793       892      3199      3515      3516
 -1      1665    8    0    1
 -2       791       792       893      3196      3517      3518
 -1      1666    8    0    1
 -2       792       892       893      3516      3519      3517
 -1      1667    8    0    1
 -2       794       795       894      3205      3520      3521
 -1      1668    8    0    1
 -2       795       796       895      3208      3522      3523
 -1      1669    8    0    1
 -2       795       895       894      3523      3524      3520
 -1      1670    8    0    1
 -2       796       797       896      3211      3525      3526
 -1      1671    8    0    1
 -2       796       896       895      3526      3527      3522
 -1      1672    8    0    1
 -2       797       798       897      3214      3528      3529
 -1      1673    8    0    1
 -2       797       897       896      3529      3530      3525
 -1      1674    8    0    1
 -2       804       805       898      3235      3531      3532
 -1      1675    8    0    1
 -2       805       806       899      3238      3533      3534
 -1      1676    8    0    1
 -2       805       899       898      3534      3535      3531
 -1      1677    8    0    1
 -2       806       807       900      3241      3536      3537
 -1      1678    8    0    1
 -2       806       900       899      3537      3538      3533
 -1      1679    8    0    1
 -2       807       808       901      3244      3539      3540
 -1      1680    8    0    1
 -2       807       901       900      3540      3541      3536
 -1      1681    8    0    1
 -2       808       809       902      3247      3542      3543
 -1      1682    8    0    1
 -2       808       902       901      3543      3544      3539
 -1      1683    8    0    1
 -2       809       810       903      3250      3545      3546
 -1      1684    8    0    1
 -2       809       903       902      3546      3547      3542
 -1      1685    8    0    1
 -2       810       811       904      3253      3548      3549
 -1      1686    8    0    1
 -2       810       904       903      3549      3550      3545
 -1      1687    8    0    1
 -2       811       812       905      3256      3551      3552
 -1      1688    8    0    1
 -2       811       905       904      3552      3553      3548
 -1      1689    8    0    1
 -2       812       813       906      3259      3554      3555
 -1      1690    8    0    1
 -2       812       906       905      3555      3556      3551
 -1      1691    8    0    1
 -2       813       814       907      3262      3557      3558
 -1      1692    8    0    1
 -2       813       907       906      3558      3559      3554
 -1      1693    8    0    1
 -2       814       815       908      3265      3560      3561
 -1      1694    8    0    1
 -2       814       908       907      3561      3562      3557
 -1      1695    8    0    1
 -2       815       816       909      3268      3563      3564
 -1      1696    8    0    1
 -2       815       909       908      3564      3565      3560
 -1      1697    8    0    1
 -2       816       817       910      3271      3566      3567
 -1      1698    8    0    1
 -2       816       910       909      3567      3568      3563
 -1      1699    8    0    1
 -2       817       818       911      3274      3569      3570
 -1      1700    8    0    1
 -2       817       911       910      3570      3571      3566
 -1      1701    8    0    1
 -2       818       819       912      3277      3572      3573
 -1      1702    8    0    1
 -2       818       912       911      3573      3574      3569
 -1      1703    8    0    1
 -2       862       749       913      3427      3575      3576
 -1      1704    8    0    1
 -2       749       745       913      3067      3577      3575
 -1      1705    8    0    1
 -2       837       740       801      3327      3370      3578
 -1      1706    8    0    1
 -2       836       746       914      3401      3579      3580
 -1      1707    8    0    1
 -2       824       737       748      3287      3049      3581
 -1      1708    8    0    1
 -2       826       788       915      3294      3582      3583
 -1      1709    8    0    1
 -2       823       787       916      3286      3584      3585
 -1      1710    8    0    1
 -2       857       824       875      3405      3586      3587
 -1      1711    8    0    1
 -2       799       752       844      3382      3418      3588
 -1      1712    8    0    1
 -2       844       840       897      3358      3589      3590
 -1      1713    8    0    1
 -2       645       718       646      3297      3402      3040
 -1      1714    8    0    1
 -2       828       821       917      3300      3591      3592
 -1      1715    8    0    1
 -2       802       803       848      3229      3593      3594
 -1      1716    8    0    1
 -2       793       794       918      3202      3595      3596
 -1      1717    8    0    1
 -2       892       793       918      3515      3596      3597
 -1      1718    8    0    1
 -2       794       894       918      3521      3598      3595
 -1      1719    8    0    1
 -2       790       789       919      3191      3599      3600
 -1      1720    8    0    1
 -2       821       857       920      3408      3601      3602
 -1      1721    8    0    1
 -2       821       920       917      3602      3603      3591
 -1      1722    8    0    1
 -2       841       845       921      3365      3604      3605
 -1      1723    8    0    1
 -2       834       842       922      3404      3606      3607
 -1      1724    8    0    1
 -2       837       801       802      3578      3226      3608
 -1      1725    8    0    1
 -2       757       756       923      3090      3609      3610
 -1      1726    8    0    1
 -2       757       923       864      3610      3611      3434
 -1      1727    8    0    1
 -2       748       769       824      3363      3612      3581
 -1      1728    8    0    1
 -2       770       843       851      3471      3378      3613
 -1      1729    8    0    1
 -2       756       839       924      3333      3614      3615
 -1      1730    8    0    1
 -2       756       924       923      3615      3616      3609
 -1      1731    8    0    1
 -2       831       841       925      3338      3617      3618
 -1      1732    8    0    1
 -2       754       744       833      3083      3619      3433
 -1      1733    8    0    1
 -2       840       834       926      3413      3620      3621
 -1      1734    8    0    1
 -2       897       840       926      3589      3621      3622
 -1      1735    8    0    1
 -2       834       922       926      3607      3623      3620
 -1      1736    8    0    1
 -2       835       836       927      3403      3624      3625
 -1      1737    8    0    1
 -2       824       769       875      3612      3467      3586
 -1      1738    8    0    1
 -2       799       844       798      3588      3626      3217
 -1      1739    8    0    1
 -2       798       844       897      3626      3590      3528
 -1      1740    8    0    1
 -2       847       753       928      3354      3627      3628
 -1      1741    8    0    1
 -2       846       820       929      3353      3629      3630
 -1      1742    8    0    1
 -2       876       835       927      3469      3625      3631
 -1      1743    8    0    1
 -2       745       846       913      3352      3632      3577
 -1      1744    8    0    1
 -2       850       724       852      3373      3381      3633
 -1      1745    8    0    1
 -2       877       833       863      3472      3634      3635
 -1      1746    8    0    1
 -2       790       919       930      3600      3636      3637
 -1      1747    8    0    1
 -2       790       930       852      3637      3638      3379
 -1      1748    8    0    1
 -2       706       861       853      3425      3639      3389
 -1      1749    8    0    1
 -2       788       850       931      3372      3640      3641
 -1      1750    8    0    1
 -2       788       931       915      3641      3642      3582
 -1      1751    8    0    1
 -2       919       789       932      3599      3643      3644
 -1      1752    8    0    1
 -2       789       830       932      3307      3645      3643
 -1      1753    8    0    1
 -2       786       785       933      3182      3646      3647
 -1      1754    8    0    1
 -2       860       786       933      3422      3647      3648
 -1      1755    8    0    1
 -2       785       891       933      3513      3649      3646
 -1      1756    8    0    1
 -2       851       831       925      3376      3618      3650
 -1      1757    8    0    1
 -2       791       893       934      3518      3651      3652
 -1      1758    8    0    1
 -2       791       934       830      3652      3653      3308
 -1      1759    8    0    1
 -2       819       853       935      3388      3654      3655
 -1      1760    8    0    1
 -2       819       935       912      3655      3656      3572
 -1      1761    8    0    1
 -2       862       913       936      3576      3657      3658
 -1      1762    8    0    1
 -2       732       847       854      3356      3659      3392
 -1      1763    8    0    1
 -2       820       854       937      3391      3660      3661
 -1      1764    8    0    1
 -2       820       937       929      3661      3662      3629
 -1      1765    8    0    1
 -2       916       787       938      3584      3663      3664
 -1      1766    8    0    1
 -2       787       829       938      3303      3665      3663
 -1      1767    8    0    1
 -2       856       823       939      3400      3666      3667
 -1      1768    8    0    1
 -2       823       916       939      3585      3668      3666
 -1      1769    8    0    1
 -2       746       848       914      3361      3669      3579
 -1      1770    8    0    1
 -2       770       851       771      3613      3670      3136
 -1      1771    8    0    1
 -2       826       915       940      3583      3671      3672
 -1      1772    8    0    1
 -2       857       875       920      3587      3673      3601
 -1      1773    8    0    1
 -2       845       876       921      3470      3674      3604
 -1      1774    8    0    1
 -2       839       877       924      3473      3675      3614
 -1      1775    8    0    1
 -2       927       836       941      3624      3676      3677
 -1      1776    8    0    1
 -2       836       914       941      3580      3678      3676
 -1      1777    8    0    1
 -2       849       855       942      3395      3679      3680
 -1      1778    8    0    1
 -2       803       804       943      3232      3681      3682
 -1      1779    8    0    1
 -2       858       828       944      3410      3683      3684
 -1      1780    8    0    1
 -2       828       917       944      3592      3685      3683
 -1      1781    8    0    1
 -2       826       940       859      3672      3686      3417
 -1      1782    8    0    1
 -2       837       802       838      3608      3687      3374
 -1      1783    8    0    1
 -2       922       842       945      3606      3688      3689
 -1      1784    8    0    1
 -2       842       858       945      3412      3690      3688
 -1      1785    8    0    1
 -2       849       942       935      3680      3691      3692
 -1      1786    8    0    1
 -2       925       841       921      3617      3605      3693
 -1      1787    8    0    1
 -2       833       744       863      3619      3431      3634
 -1      1788    8    0    1
 -2       771       851       878      3670      3694      3474
 -1      1789    8    0    1
 -2       943       804       898      3681      3532      3695
 -1      1790    8    0    1
 -2       822       860       933      3421      3648      3696
 -1      1791    8    0    1
 -2       863       862       946      3432      3697      3698
 -1      1792    8    0    1
 -2       877       863       946      3635      3698      3699
 -1      1793    8    0    1
 -2       862       936       946      3658      3700      3697
 -1      1794    8    0    1
 -2       822       933       947      3696      3701      3702
 -1      1795    8    0    1
 -2       829       822       947      3304      3702      3703
 -1      1796    8    0    1
 -2       933       891       947      3649      3704      3701
 -1      1797    8    0    1
 -2       876       927       948      3631      3705      3706
 -1      1798    8    0    1
 -2       866       865       949      3441      3707      3708
 -1      1799    8    0    1
 -2       867       866       950      3444      3709      3710
 -1      1800    8    0    1
 -2       866       949       950      3708      3711      3709
 -1      1801    8    0    1
 -2       868       867       951      3447      3712      3713
 -1      1802    8    0    1
 -2       867       950       951      3710      3714      3712
 -1      1803    8    0    1
 -2       869       868       952      3450      3715      3716
 -1      1804    8    0    1
 -2       868       951       952      3713      3717      3715
 -1      1805    8    0    1
 -2       870       869       953      3453      3718      3719
 -1      1806    8    0    1
 -2       869       952       953      3716      3720      3718
 -1      1807    8    0    1
 -2       871       870       954      3456      3721      3722
 -1      1808    8    0    1
 -2       870       953       954      3719      3723      3721
 -1      1809    8    0    1
 -2       872       871       955      3459      3724      3725
 -1      1810    8    0    1
 -2       871       954       955      3722      3726      3724
 -1      1811    8    0    1
 -2       873       872       956      3462      3727      3728
 -1      1812    8    0    1
 -2       872       955       956      3725      3729      3727
 -1      1813    8    0    1
 -2       874       873       957      3465      3730      3731
 -1      1814    8    0    1
 -2       873       956       957      3728      3732      3730
 -1      1815    8    0    1
 -2       875       874       920      3468      3733      3673
 -1      1816    8    0    1
 -2       893       892       958      3519      3734      3735
 -1      1817    8    0    1
 -2       879       878       959      3478      3736      3737
 -1      1818    8    0    1
 -2       878       851       925      3694      3650      3738
 -1      1819    8    0    1
 -2       880       879       960      3481      3739      3740
 -1      1820    8    0    1
 -2       879       959       960      3737      3741      3739
 -1      1821    8    0    1
 -2       881       880       961      3484      3742      3743
 -1      1822    8    0    1
 -2       880       960       961      3740      3744      3742
 -1      1823    8    0    1
 -2       882       881       962      3487      3745      3746
 -1      1824    8    0    1
 -2       881       961       962      3743      3747      3745
 -1      1825    8    0    1
 -2       883       882       963      3490      3748      3749
 -1      1826    8    0    1
 -2       882       962       963      3746      3750      3748
 -1      1827    8    0    1
 -2       884       883       964      3493      3751      3752
 -1      1828    8    0    1
 -2       883       963       964      3749      3753      3751
 -1      1829    8    0    1
 -2       885       884       965      3496      3754      3755
 -1      1830    8    0    1
 -2       884       964       965      3752      3756      3754
 -1      1831    8    0    1
 -2       886       885       966      3499      3757      3758
 -1      1832    8    0    1
 -2       885       965       966      3755      3759      3757
 -1      1833    8    0    1
 -2       887       886       967      3502      3760      3761
 -1      1834    8    0    1
 -2       886       966       967      3758      3762      3760
 -1      1835    8    0    1
 -2       888       887       968      3505      3763      3764
 -1      1836    8    0    1
 -2       887       967       968      3761      3765      3763
 -1      1837    8    0    1
 -2       889       888       969      3508      3766      3767
 -1      1838    8    0    1
 -2       888       968       969      3764      3768      3766
 -1      1839    8    0    1
 -2       890       889       970      3511      3769      3770
 -1      1840    8    0    1
 -2       889       969       970      3767      3771      3769
 -1      1841    8    0    1
 -2       891       890       971      3514      3772      3773
 -1      1842    8    0    1
 -2       890       970       971      3770      3774      3772
 -1      1843    8    0    1
 -2       895       896       972      3527      3775      3776
 -1      1844    8    0    1
 -2       894       895       973      3524      3777      3778
 -1      1845    8    0    1
 -2       895       972       973      3776      3779      3777
 -1      1846    8    0    1
 -2       899       900       974      3538      3780      3781
 -1      1847    8    0    1
 -2       936       913       975      3657      3782      3783
 -1      1848    8    0    1
 -2       913       846       975      3632      3784      3782
 -1      1849    8    0    1
 -2       864       923       976      3611      3785      3786
 -1      1850    8    0    1
 -2       898       899       941      3535      3787      3788
 -1      1851    8    0    1
 -2       901       902       977      3544      3789      3790
 -1      1852    8    0    1
 -2       902       903       978      3547      3791      3792
 -1      1853    8    0    1
 -2       902       978       977      3792      3793      3789
 -1      1854    8    0    1
 -2       903       904       979      3550      3794      3795
 -1      1855    8    0    1
 -2       903       979       978      3795      3796      3791
 -1      1856    8    0    1
 -2       904       905       980      3553      3797      3798
 -1      1857    8    0    1
 -2       904       980       979      3798      3799      3794
 -1      1858    8    0    1
 -2       905       906       981      3556      3800      3801
 -1      1859    8    0    1
 -2       905       981       980      3801      3802      3797
 -1      1860    8    0    1
 -2       906       907       982      3559      3803      3804
 -1      1861    8    0    1
 -2       906       982       981      3804      3805      3800
 -1      1862    8    0    1
 -2       907       908       983      3562      3806      3807
 -1      1863    8    0    1
 -2       907       983       982      3807      3808      3803
 -1      1864    8    0    1
 -2       908       909       984      3565      3809      3810
 -1      1865    8    0    1
 -2       908       984       983      3810      3811      3806
 -1      1866    8    0    1
 -2       909       910       985      3568      3812      3813
 -1      1867    8    0    1
 -2       909       985       984      3813      3814      3809
 -1      1868    8    0    1
 -2       910       911       986      3571      3815      3816
 -1      1869    8    0    1
 -2       910       986       985      3816      3817      3812
 -1      1870    8    0    1
 -2       911       912       987      3574      3818      3819
 -1      1871    8    0    1
 -2       911       987       986      3819      3820      3815
 -1      1872    8    0    1
 -2       854       847       988      3659      3821      3822
 -1      1873    8    0    1
 -2       937       854       988      3660      3822      3823
 -1      1874    8    0    1
 -2       847       928       988      3628      3824      3821
 -1      1875    8    0    1
 -2       850       852       989      3633      3825      3826
 -1      1876    8    0    1
 -2       852       930       989      3638      3827      3825
 -1      1877    8    0    1
 -2       940       915       990      3671      3828      3829
 -1      1878    8    0    1
 -2       861       849       935      3426      3692      3830
 -1      1879    8    0    1
 -2       942       855       991      3679      3831      3832
 -1      1880    8    0    1
 -2       855       856       991      3399      3833      3831
 -1      1881    8    0    1
 -2       928       753       859      3627      3834      3835
 -1      1882    8    0    1
 -2       848       803       943      3593      3682      3836
 -1      1883    8    0    1
 -2       921       876       992      3674      3837      3838
 -1      1884    8    0    1
 -2       917       920       993      3603      3839      3840
 -1      1885    8    0    1
 -2       923       924       994      3616      3841      3842
 -1      1886    8    0    1
 -2       923       994       976      3842      3843      3785
 -1      1887    8    0    1
 -2       924       877       946      3675      3699      3844
 -1      1888    8    0    1
 -2       753       832       859      3315      3416      3834
 -1      1889    8    0    1
 -2       925       921       995      3693      3845      3846
 -1      1890    8    0    1
 -2       838       802       848      3687      3594      3362
 -1      1891    8    0    1
 -2       900       901       996      3541      3847      3848
 -1      1892    8    0    1
 -2       901       977       996      3790      3849      3847
 -1      1893    8    0    1
 -2       912       935       997      3656      3850      3851
 -1      1894    8    0    1
 -2       987       912       997      3818      3851      3852
 -1      1895    8    0    1
 -2       935       942       997      3691      3853      3850
 -1      1896    8    0    1
 -2       928       859       940      3835      3686      3854
 -1      1897    8    0    1
 -2       896       897       926      3530      3622      3855
 -1      1898    8    0    1
 -2       865       864       998      3438      3856      3857
 -1      1899    8    0    1
 -2       864       976       998      3786      3858      3856
 -1      1900    8    0    1
 -2       920       874       957      3733      3731      3859
 -1      1901    8    0    1
 -2       878       925       959      3738      3860      3736
 -1      1902    8    0    1
 -2       848       943       914      3836      3861      3669
 -1      1903    8    0    1
 -2       928       940       999      3854      3862      3863
 -1      1904    8    0    1
 -2       988       928       999      3824      3863      3864
 -1      1905    8    0    1
 -2       940       990       999      3829      3865      3862
 -1      1906    8    0    1
 -2       914       943       898      3861      3695      3866
 -1      1907    8    0    1
 -2       914       898       941      3866      3788      3678
 -1      1908    8    0    1
 -2       846       929       975      3630      3867      3784
 -1      1909    8    0    1
 -2       941       899       974      3787      3781      3868
 -1      1910    8    0    1
 -2       959       925       995      3860      3846      3869
 -1      1911    8    0    1
 -2       900       996       974      3848      3870      3780
 -1      1912    8    0    1
 -2       958       892      1000      3734      3871      3872
 -1      1913    8    0    1
 -2       892       918      1000      3597      3873      3871
 -1      1914    8    0    1
 -2       891       971       947      3773      3874      3704
 -1      1915    8    0    1
 -2       930       919      1001      3636      3875      3876
 -1      1916    8    0    1
 -2       931       850       989      3640      3826      3877
 -1      1917    8    0    1
 -2       932       830       934      3645      3653      3878
 -1      1918    8    0    1
 -2       972       896       926      3775      3855      3879
 -1      1919    8    0    1
 -2       876       948       992      3706      3880      3837
 -1      1920    8    0    1
 -2       934       893      1002      3651      3881      3882
 -1      1921    8    0    1
 -2       893       958      1002      3735      3883      3881
 -1      1922    8    0    1
 -2       935       853       861      3654      3639      3830
 -1      1923    8    0    1
 -2       949       865       998      3707      3857      3884
 -1      1924    8    0    1
 -2       936       975      1003      3783      3885      3886
 -1      1925    8    0    1
 -2       924       946       994      3844      3887      3841
 -1      1926    8    0    1
 -2       995       921       992      3845      3838      3888
 -1      1927    8    0    1
 -2       915       931      1004      3642      3889      3890
 -1      1928    8    0    1
 -2       915      1004       990      3890      3891      3828
 -1      1929    8    0    1
 -2       993       920       957      3839      3859      3892
 -1      1930    8    0    1
 -2       829       947       938      3703      3893      3665
 -1      1931    8    0    1
 -2       929       937      1005      3662      3894      3895
 -1      1932    8    0    1
 -2       939       916      1006      3668      3896      3897
 -1      1933    8    0    1
 -2       856       939       991      3667      3898      3833
 -1      1934    8    0    1
 -2       919       932      1007      3644      3899      3900
 -1      1935    8    0    1
 -2       919      1007      1001      3900      3901      3875
 -1      1936    8    0    1
 -2       944       917       993      3685      3840      3902
 -1      1937    8    0    1
 -2       975       929      1008      3867      3903      3904
 -1      1938    8    0    1
 -2      1003       975      1008      3885      3904      3905
 -1      1939    8    0    1
 -2       929      1005      1008      3895      3906      3903
 -1      1940    8    0    1
 -2       918       894      1009      3598      3907      3908
 -1      1941    8    0    1
 -2       918      1009      1000      3908      3909      3873
 -1      1942    8    0    1
 -2       858       944      1010      3684      3910      3911
 -1      1943    8    0    1
 -2       858      1010       945      3911      3912      3690
 -1      1944    8    0    1
 -2       916       938      1011      3664      3913      3914
 -1      1945    8    0    1
 -2       916      1011      1006      3914      3915      3896
 -1      1946    8    0    1
 -2       922       945      1012      3689      3916      3917
 -1      1947    8    0    1
 -2       927       941      1013      3677      3918      3919
 -1      1948    8    0    1
 -2       948       927      1013      3705      3919      3920
 -1      1949    8    0    1
 -2       941       974      1013      3868      3921      3918
 -1      1950    8    0    1
 -2       997       942      1014      3853      3922      3923
 -1      1951    8    0    1
 -2       942       991      1014      3832      3924      3922
 -1      1952    8    0    1
 -2       926       922      1012      3623      3917      3925
 -1      1953    8    0    1
 -2       946       936       994      3700      3926      3887
 -1      1954    8    0    1
 -2       936      1003       994      3886      3927      3926
 -1      1955    8    0    1
 -2      1009       894       973      3907      3778      3928
 -1      1956    8    0    1
 -2       951       950      1015      3714      3929      3930
 -1      1957    8    0    1
 -2       952       951      1016      3717      3931      3932
 -1      1958    8    0    1
 -2       951      1015      1016      3930      3933      3931
 -1      1959    8    0    1
 -2       953       952      1017      3720      3934      3935
 -1      1960    8    0    1
 -2       952      1016      1017      3932      3936      3934
 -1      1961    8    0    1
 -2       954       953      1018      3723      3937      3938
 -1      1962    8    0    1
 -2       953      1017      1018      3935      3939      3937
 -1      1963    8    0    1
 -2       955       954      1019      3726      3940      3941
 -1      1964    8    0    1
 -2       954      1018      1019      3938      3942      3940
 -1      1965    8    0    1
 -2       956       955      1020      3729      3943      3944
 -1      1966    8    0    1
 -2       955      1019      1020      3941      3945      3943
 -1      1967    8    0    1
 -2       957       956      1021      3732      3946      3947
 -1      1968    8    0    1
 -2       956      1020      1021      3944      3948      3946
 -1      1969    8    0    1
 -2       944       993      1022      3902      3949      3950
 -1      1970    8    0    1
 -2       931       989      1023      3877      3951      3952
 -1      1971    8    0    1
 -2       931      1023      1004      3952      3953      3889
 -1      1972    8    0    1
 -2       960       959      1024      3741      3954      3955
 -1      1973    8    0    1
 -2       959       995      1024      3869      3956      3954
 -1      1974    8    0    1
 -2       961       960      1025      3744      3957      3958
 -1      1975    8    0    1
 -2       960      1024      1025      3955      3959      3957
 -1      1976    8    0    1
 -2       962       961      1026      3747      3960      3961
 -1      1977    8    0    1
 -2       961      1025      1026      3958      3962      3960
 -1      1978    8    0    1
 -2       963       962      1027      3750      3963      3964
 -1      1979    8    0    1
 -2       962      1026      1027      3961      3965      3963
 -1      1980    8    0    1
 -2       964       963      1028      3753      3966      3967
 -1      1981    8    0    1
 -2       963      1027      1028      3964      3968      3966
 -1      1982    8    0    1
 -2       965       964      1029      3756      3969      3970
 -1      1983    8    0    1
 -2       964      1028      1029      3967      3971      3969
 -1      1984    8    0    1
 -2       966       965      1030      3759      3972      3973
 -1      1985    8    0    1
 -2       965      1029      1030      3970      3974      3972
 -1      1986    8    0    1
 -2       967       966      1031      3762      3975      3976
 -1      1987    8    0    1
 -2       966      1030      1031      3973      3977      3975
 -1      1988    8    0    1
 -2       968       967      1032      3765      3978      3979
 -1      1989    8    0    1
 -2       967      1031      1032      3976      3980      3978
 -1      1990    8    0    1
 -2       969       968      1033      3768      3981      3982
 -1      1991    8    0    1
 -2       968      1032      1033      3979      3983      3981
 -1      1992    8    0    1
 -2       970       969      1034      3771      3984      3985
 -1      1993    8    0    1
 -2       969      1033      1034      3982      3986      3984
 -1      1994    8    0    1
 -2       971       970      1035      3774      3987      3988
 -1      1995    8    0    1
 -2       970      1034      1035      3985      3989      3987
 -1      1996    8    0    1
 -2       932       934      1036      3878      3990      3991
 -1      1997    8    0    1
 -2      1007       932      1036      3899      3991      3992
 -1      1998    8    0    1
 -2       934      1002      1036      3882      3993      3990
 -1      1999    8    0    1
 -2       994      1003      1037      3927      3994      3995
 -1      2000    8    0    1
 -2       994      1037       976      3995      3996      3843
 -1      2001    8    0    1
 -2       987       997      1038      3852      3997      3998
 -1      2002    8    0    1
 -2       997      1014      1038      3923      3999      3997
 -1      2003    8    0    1
 -2       977       978      1039      3793      4000      4001
 -1      2004    8    0    1
 -2       980       981      1040      3802      4002      4003
 -1      2005    8    0    1
 -2       981       982      1041      3805      4004      4005
 -1      2006    8    0    1
 -2       981      1041      1040      4005      4006      4002
 -1      2007    8    0    1
 -2       982       983      1042      3808      4007      4008
 -1      2008    8    0    1
 -2       982      1042      1041      4008      4009      4004
 -1      2009    8    0    1
 -2       983       984      1043      3811      4010      4011
 -1      2010    8    0    1
 -2       983      1043      1042      4011      4012      4007
 -1      2011    8    0    1
 -2       984       985      1044      3814      4013      4014
 -1      2012    8    0    1
 -2       984      1044      1043      4014      4015      4010
 -1      2013    8    0    1
 -2       985       986      1045      3817      4016      4017
 -1      2014    8    0    1
 -2       985      1045      1044      4017      4018      4013
 -1      2015    8    0    1
 -2       986       987      1046      3820      4019      4020
 -1      2016    8    0    1
 -2      1045       986      1046      4016      4020      4021
 -1      2017    8    0    1
 -2       987      1038      1046      3998      4022      4019
 -1      2018    8    0    1
 -2       937       988      1047      3823      4023      4024
 -1      2019    8    0    1
 -2      1005       937      1047      3894      4024      4025
 -1      2020    8    0    1
 -2       988       999      1047      3864      4026      4023
 -1      2021    8    0    1
 -2      1009       973      1048      3928      4027      4028
 -1      2022    8    0    1
 -2       993       957      1021      3892      3947      4029
 -1      2023    8    0    1
 -2       989       930      1049      3827      4030      4031
 -1      2024    8    0    1
 -2      1023       989      1049      3951      4031      4032
 -1      2025    8    0    1
 -2       930      1001      1049      3876      4033      4030
 -1      2026    8    0    1
 -2       991       939      1050      3898      4034      4035
 -1      2027    8    0    1
 -2      1014       991      1050      3924      4035      4036
 -1      2028    8    0    1
 -2       939      1006      1050      3897      4037      4034
 -1      2029    8    0    1
 -2       949       998      1051      3884      4038      4039
 -1      2030    8    0    1
 -2       974       996      1052      3870      4040      4041
 -1      2031    8    0    1
 -2       974      1052      1013      4041      4042      3921
 -1      2032    8    0    1
 -2       996       977      1053      3849      4043      4044
 -1      2033    8    0    1
 -2      1052       996      1053      4040      4044      4045
 -1      2034    8    0    1
 -2       977      1039      1053      4001      4046      4043
 -1      2035    8    0    1
 -2       947       971       938      3874      4047      3893
 -1      2036    8    0    1
 -2      1012       945      1054      3916      4048      4049
 -1      2037    8    0    1
 -2       945      1010      1054      3912      4050      4048
 -1      2038    8    0    1
 -2       972       926      1012      3879      3925      4051
 -1      2039    8    0    1
 -2       995       992      1024      3888      4052      3956
 -1      2040    8    0    1
 -2       978       979      1055      3796      4053      4054
 -1      2041    8    0    1
 -2       978      1055      1039      4054      4055      4000
 -1      2042    8    0    1
 -2       992       948      1056      3880      4056      4057
 -1      2043    8    0    1
 -2       979       980      1057      3799      4058      4059
 -1      2044    8    0    1
 -2       980      1040      1057      4003      4060      4058
 -1      2045    8    0    1
 -2       998       976      1058      3858      4061      4062
 -1      2046    8    0    1
 -2      1051       998      1058      4038      4062      4063
 -1      2047    8    0    1
 -2       976      1037      1058      3996      4064      4061
 -1      2048    8    0    1
 -2       950       949      1059      3711      4065      4066
 -1      2049    8    0    1
 -2       950      1059      1015      4066      4067      3929
 -1      2050    8    0    1
 -2       972      1012       973      4051      4068      3779
 -1      2051    8    0    1
 -2       973      1012      1048      4068      4069      4027
 -1      2052    8    0    1
 -2       944      1022      1010      3950      4070      3910
 -1      2053    8    0    1
 -2      1022       993      1021      3949      4029      4071
 -1      2054    8    0    1
 -2       971      1035      1011      3988      4072      4073
 -1      2055    8    0    1
 -2      1002       958      1060      3883      4074      4075
 -1      2056    8    0    1
 -2       958      1000      1061      3872      4076      4077
 -1      2057    8    0    1
 -2       958      1061      1060      4077      4078      4074
 -1      2058    8    0    1
 -2       992      1056      1024      4057      4079      4052
 -1      2059    8    0    1
 -2       971      1011       938      4073      3913      4047
 -1      2060    8    0    1
 -2      1049      1001      1062      4033      4080      4081
 -1      2061    8    0    1
 -2       949      1051      1059      4039      4082      4065
 -1      2062    8    0    1
 -2      1000      1009      1063      3909      4083      4084
 -1      2063    8    0    1
 -2      1000      1063      1061      4084      4085      4076
 -1      2064    8    0    1
 -2      1037      1003      1008      3994      3905      4086
 -1      2065    8    0    1
 -2      1009      1048      1063      4028      4087      4083
 -1      2066    8    0    1
 -2      1008      1005      1064      3906      4088      4089
 -1      2067    8    0    1
 -2      1001      1007      1065      3901      4090      4091
 -1      2068    8    0    1
 -2      1001      1065      1062      4091      4092      4080
 -1      2069    8    0    1
 -2       999       990      1047      3865      4093      4026
 -1      2070    8    0    1
 -2       990      1004      1066      3891      4094      4095
 -1      2071    8    0    1
 -2       990      1066      1047      4095      4096      4093
 -1      2072    8    0    1
 -2      1005      1047      1066      4025      4096      4097
 -1      2073    8    0    1
 -2      1006      1011      1067      3915      4098      4099
 -1      2074    8    0    1
 -2      1011      1035      1067      4072      4100      4098
 -1      2075    8    0    1
 -2       948      1013      1068      3920      4101      4102
 -1      2076    8    0    1
 -2      1056       948      1068      4056      4102      4103
 -1      2077    8    0    1
 -2      1013      1052      1068      4042      4104      4101
 -1      2078    8    0    1
 -2      1055       979      1057      4053      4059      4105
 -1      2079    8    0    1
 -2      1050      1006      1069      4037      4106      4107
 -1      2080    8    0    1
 -2      1006      1067      1069      4099      4108      4106
 -1      2081    8    0    1
 -2      1064      1005      1066      4088      4097      4109
 -1      2082    8    0    1
 -2      1017      1016      1070      3936      4110      4111
 -1      2083    8    0    1
 -2      1018      1017      1071      3939      4112      4113
 -1      2084    8    0    1
 -2      1017      1070      1071      4111      4114      4112
 -1      2085    8    0    1
 -2      1019      1018      1072      3942      4115      4116
 -1      2086    8    0    1
 -2      1018      1071      1072      4113      4117      4115
 -1      2087    8    0    1
 -2      1020      1019      1073      3945      4118      4119
 -1      2088    8    0    1
 -2      1019      1072      1073      4116      4120      4118
 -1      2089    8    0    1
 -2      1021      1020      1074      3948      4121      4122
 -1      2090    8    0    1
 -2      1020      1073      1074      4119      4123      4121
 -1      2091    8    0    1
 -2      1004      1023      1075      3953      4124      4125
 -1      2092    8    0    1
 -2      1004      1075      1066      4125      4126      4094
 -1      2093    8    0    1
 -2      1002      1060      1076      4075      4127      4128
 -1      2094    8    0    1
 -2      1002      1076      1036      4128      4129      3993
 -1      2095    8    0    1
 -2      1039      1055      1077      4055      4130      4131
 -1      2096    8    0    1
 -2      1026      1025      1078      3962      4132      4133
 -1      2097    8    0    1
 -2      1027      1026      1079      3965      4134      4135
 -1      2098    8    0    1
 -2      1026      1078      1079      4133      4136      4134
 -1      2099    8    0    1
 -2      1028      1027      1080      3968      4137      4138
 -1      2100    8    0    1
 -2      1027      1079      1080      4135      4139      4137
 -1      2101    8    0    1
 -2      1029      1028      1081      3971      4140      4141
 -1      2102    8    0    1
 -2      1028      1080      1081      4138      4142      4140
 -1      2103    8    0    1
 -2      1030      1029      1082      3974      4143      4144
 -1      2104    8    0    1
 -2      1029      1081      1082      4141      4145      4143
 -1      2105    8    0    1
 -2      1031      1030      1083      3977      4146      4147
 -1      2106    8    0    1
 -2      1030      1082      1083      4144      4148      4146
 -1      2107    8    0    1
 -2      1032      1031      1084      3980      4149      4150
 -1      2108    8    0    1
 -2      1031      1083      1084      4147      4151      4149
 -1      2109    8    0    1
 -2      1033      1032      1085      3983      4152      4153
 -1      2110    8    0    1
 -2      1032      1084      1085      4150      4154      4152
 -1      2111    8    0    1
 -2      1034      1033      1086      3986      4155      4156
 -1      2112    8    0    1
 -2      1033      1085      1086      4153      4157      4155
 -1      2113    8    0    1
 -2      1035      1034      1087      3989      4158      4159
 -1      2114    8    0    1
 -2      1067      1035      1087      4100      4159      4160
 -1      2115    8    0    1
 -2      1034      1086      1087      4156      4161      4158
 -1      2116    8    0    1
 -2      1023      1049      1088      4032      4162      4163
 -1      2117    8    0    1
 -2      1075      1023      1088      4124      4163      4164
 -1      2118    8    0    1
 -2      1049      1062      1088      4081      4165      4162
 -1      2119    8    0    1
 -2      1037      1008      1064      4086      4089      4166
 -1      2120    8    0    1
 -2      1041      1042      1089      4009      4167      4168
 -1      2121    8    0    1
 -2      1038      1014      1050      3999      4036      4169
 -1      2122    8    0    1
 -2      1040      1041      1090      4006      4170      4171
 -1      2123    8    0    1
 -2      1041      1089      1090      4168      4172      4170
 -1      2124    8    0    1
 -2      1043      1044      1091      4015      4173      4174
 -1      2125    8    0    1
 -2      1044      1045      1092      4018      4175      4176
 -1      2126    8    0    1
 -2      1044      1092      1091      4176      4177      4173
 -1      2127    8    0    1
 -2      1064      1066      1075      4109      4126      4178
 -1      2128    8    0    1
 -2      1010      1022      1093      4070      4179      4180
 -1      2129    8    0    1
 -2      1059      1051      1094      4082      4181      4182
 -1      2130    8    0    1
 -2      1055      1057      1095      4105      4183      4184
 -1      2131    8    0    1
 -2      1055      1095      1077      4184      4185      4130
 -1      2132    8    0    1
 -2      1048      1012      1054      4069      4049      4186
 -1      2133    8    0    1
 -2      1022      1021      1074      4071      4122      4187
 -1      2134    8    0    1
 -2      1015      1059      1096      4067      4188      4189
 -1      2135    8    0    1
 -2      1059      1094      1096      4182      4190      4188
 -1      2136    8    0    1
 -2      1054      1010      1093      4050      4180      4191
 -1      2137    8    0    1
 -2      1063      1048      1097      4087      4192      4193
 -1      2138    8    0    1
 -2      1057      1040      1098      4060      4194      4195
 -1      2139    8    0    1
 -2      1095      1057      1098      4183      4195      4196
 -1      2140    8    0    1
 -2      1040      1090      1098      4171      4197      4194
 -1      2141    8    0    1
 -2      1042      1043      1099      4012      4198      4199
 -1      2142    8    0    1
 -2      1043      1091      1099      4174      4200      4198
 -1      2143    8    0    1
 -2      1016      1015      1100      3933      4201      4202
 -1      2144    8    0    1
 -2      1015      1096      1100      4189      4203      4201
 -1      2145    8    0    1
 -2      1048      1054      1093      4186      4191      4204
 -1      2146    8    0    1
 -2      1038      1050      1069      4169      4107      4205
 -1      2147    8    0    1
 -2      1024      1056      1101      4079      4206      4207
 -1      2148    8    0    1
 -2      1063      1097      1102      4193      4208      4209
 -1      2149    8    0    1
 -2      1063      1102      1061      4209      4210      4085
 -1      2150    8    0    1
 -2      1092      1045      1103      4175      4211      4212
 -1      2151    8    0    1
 -2      1045      1046      1103      4021      4213      4211
 -1      2152    8    0    1
 -2      1056      1068      1104      4103      4214      4215
 -1      2153    8    0    1
 -2      1056      1104      1101      4215      4216      4206
 -1      2154    8    0    1
 -2      1076      1060      1105      4127      4217      4218
 -1      2155    8    0    1
 -2      1025      1024      1101      3959      4207      4219
 -1      2156    8    0    1
 -2      1067      1087      1069      4160      4220      4108
 -1      2157    8    0    1
 -2      1039      1077      1106      4131      4221      4222
 -1      2158    8    0    1
 -2      1039      1106      1053      4222      4223      4046
 -1      2159    8    0    1
 -2      1060      1061      1107      4078      4224      4225
 -1      2160    8    0    1
 -2      1061      1102      1107      4210      4226      4224
 -1      2161    8    0    1
 -2      1089      1042      1099      4167      4199      4227
 -1      2162    8    0    1
 -2      1007      1036      1108      3992      4228      4229
 -1      2163    8    0    1
 -2      1065      1007      1108      4090      4229      4230
 -1      2164    8    0    1
 -2      1036      1076      1108      4129      4231      4228
 -1      2165    8    0    1
 -2      1051      1058      1109      4063      4232      4233
 -1      2166    8    0    1
 -2      1051      1109      1094      4233      4234      4181
 -1      2167    8    0    1
 -2      1064      1075      1110      4178      4235      4236
 -1      2168    8    0    1
 -2      1064      1110      1037      4236      4237      4166
 -1      2169    8    0    1
 -2      1093      1022      1074      4179      4187      4238
 -1      2170    8    0    1
 -2      1016      1100      1070      4202      4239      4110
 -1      2171    8    0    1
 -2      1062      1065      1111      4092      4240      4241
 -1      2172    8    0    1
 -2      1052      1053      1112      4045      4242      4243
 -1      2173    8    0    1
 -2      1068      1052      1112      4104      4243      4244
 -1      2174    8    0    1
 -2      1053      1106      1112      4223      4245      4242
 -1      2175    8    0    1
 -2      1060      1107      1105      4225      4246      4217
 -1      2176    8    0    1
 -2      1088      1062      1113      4165      4247      4248
 -1      2177    8    0    1
 -2      1062      1111      1113      4241      4249      4247
 -1      2178    8    0    1
 -2      1078      1025      1101      4132      4219      4250
 -1      2179    8    0    1
 -2      1089      1099      1114      4227      4251      4252
 -1      2180    8    0    1
 -2      1072      1071      1107      4117      4253      4254
 -1      2181    8    0    1
 -2      1073      1072      1102      4120      4255      4256
 -1      2182    8    0    1
 -2      1074      1073      1097      4123      4257      4258
 -1      2183    8    0    1
 -2      1075      1088      1110      4164      4259      4235
 -1      2184    8    0    1
 -2      1080      1079      1115      4139      4260      4261
 -1      2185    8    0    1
 -2      1081      1080      1098      4142      4262      4263
 -1      2186    8    0    1
 -2      1082      1081      1090      4145      4264      4265
 -1      2187    8    0    1
 -2      1084      1083      1114      4151      4266      4267
 -1      2188    8    0    1
 -2      1085      1084      1116      4154      4268      4269
 -1      2189    8    0    1
 -2      1086      1085      1092      4157      4270      4271
 -1      2190    8    0    1
 -2      1087      1086      1117      4161      4272      4273
 -1      2191    8    0    1
 -2      1087      1117      1069      4273      4274      4220
 -1      2192    8    0    1
 -2      1099      1091      1116      4200      4275      4276
 -1      2193    8    0    1
 -2      1076      1105      1118      4218      4277      4278
 -1      2194    8    0    1
 -2      1076      1118      1108      4278      4279      4231
 -1      2195    8    0    1
 -2      1090      1089      1082      4172      4280      4265
 -1      2196    8    0    1
 -2      1090      1081      1098      4264      4263      4197
 -1      2197    8    0    1
 -2      1037      1110      1109      4237      4281      4282
 -1      2198    8    0    1
 -2      1046      1038      1069      4022      4205      4283
 -1      2199    8    0    1
 -2      1077      1095      1115      4185      4284      4285
 -1      2200    8    0    1
 -2      1111      1065      1119      4240      4286      4287
 -1      2201    8    0    1
 -2      1065      1108      1119      4230      4288      4286
 -1      2202    8    0    1
 -2      1093      1074      1097      4238      4258      4289
 -1      2203    8    0    1
 -2      1078      1101      1104      4250      4216      4290
 -1      2204    8    0    1
 -2      1097      1073      1102      4257      4256      4208
 -1      2205    8    0    1
 -2      1094      1109      1113      4234      4291      4292
 -1      2206    8    0    1
 -2      1096      1094      1111      4190      4293      4294
 -1      2207    8    0    1
 -2      1072      1107      1102      4254      4226      4255
 -1      2208    8    0    1
 -2      1110      1088      1113      4259      4248      4295
 -1      2209    8    0    1
 -2      1109      1110      1113      4281      4295      4291
 -1      2210    8    0    1
 -2      1111      1094      1113      4293      4292      4249
 -1      2211    8    0    1
 -2      1096      1111      1119      4294      4287      4296
 -1      2212    8    0    1
 -2      1037      1109      1058      4282      4232      4064
 -1      2213    8    0    1
 -2      1048      1093      1097      4204      4289      4192
 -1      2214    8    0    1
 -2      1107      1071      1105      4253      4297      4246
 -1      2215    8    0    1
 -2      1070      1100      1120      4239      4298      4299
 -1      2216    8    0    1
 -2      1079      1078      1121      4136      4300      4301
 -1      2217    8    0    1
 -2      1115      1079      1121      4260      4301      4302
 -1      2218    8    0    1
 -2      1078      1104      1121      4290      4303      4300
 -1      2219    8    0    1
 -2      1100      1096      1119      4203      4296      4304
 -1      2220    8    0    1
 -2      1071      1070      1105      4114      4305      4297
 -1      2221    8    0    1
 -2      1100      1119      1120      4304      4306      4298
 -1      2222    8    0    1
 -2      1116      1084      1114      4268      4267      4307
 -1      2223    8    0    1
 -2      1106      1077      1121      4221      4308      4309
 -1      2224    8    0    1
 -2      1083      1082      1089      4148      4280      4310
 -1      2225    8    0    1
 -2      1086      1092      1103      4271      4212      4311
 -1      2226    8    0    1
 -2      1046      1069      1103      4283      4312      4213
 -1      2227    8    0    1
 -2      1091      1092      1085      4177      4270      4313
 -1      2228    8    0    1
 -2      1077      1115      1121      4285      4302      4308
 -1      2229    8    0    1
 -2      1105      1070      1120      4305      4299      4314
 -1      2230    8    0    1
 -2      1114      1099      1116      4251      4276      4307
 -1      2231    8    0    1
 -2      1104      1068      1112      4214      4244      4315
 -1      2232    8    0    1
 -2      1106      1121      1104      4309      4303      4316
 -1      2233    8    0    1
 -2      1069      1117      1103      4274      4317      4312
 -1      2234    8    0    1
 -2      1080      1115      1098      4261      4318      4262
 -1      2235    8    0    1
 -2      1112      1106      1104      4245      4316      4315
 -1      2236    8    0    1
 -2      1091      1085      1116      4313      4269      4275
 -1      2237    8    0    1
 -2      1105      1120      1118      4314      4319      4277
 -1      2238    8    0    1
 -2      1083      1089      1114      4310      4252      4266
 -1      2239    8    0    1
 -2      1118      1120      1119      4319      4306      4320
 -1      2240    8    0    1
 -2      1118      1119      1108      4320      4288      4279
 -1      2241    8    0    1
 -2      1086      1103      1117      4311      4317      4272
 -1      2242    8    0    1
 -2      1115      1095      1098      4284      4196      4318
 -3
    1PSTEP                         1           1           1          
  100CL  101 1.000000000        4320                     0    1           1
 -4  DISP        4    1
 -5  D1          1    2    1    0
 -5  D2          1    2    2    0
 -5  D3          1    2    3    0
 -5  ALL         1    2    0    0    1ALL
 -1         1 5.77363E-03-6.53718E-04-2.53759E-14
 -1         2 9.66157E-03-1.85958E-04-3.53500E-14
 -1         3 1.49627E-02 3.79936E-06-1.14133E-13
 -1         4 1.54301E-02-1.42167E-03-1.18373E-13
 -1         5 0.00000E+00 0.00000E+00 0.00000E+00
 -1         6 0.00000E+00 0.00000E+00 0.00000E+00
 -1         7 0.00000E+00 0.00000E+00 0.00000E+00
 -1         8 0.00000E+00 0.00000E+00 0.00000E+00
 -1         9 0.00000E+00 0.00000E+00 0.00000E+00
 -1        10 0.00000E+00 0.00000E+00 0.00000E+00
 -1        11 0.00000E+00 0.00000E+00 0.00000E+00
 -1        12 0.00000E+00 0.00000E+00 0.00000E+00
 -1        13 0.00000E+00 0.00000E+00 0.00000E+00
 -1        14 0.00000E+00 0.00000E+00 0.00000E+00
 -1        15 0.00000E+00 0.00000E+00 0.00000E+00
 -1        16 0.00000E+00 0.00000E+00 0.00000E+00
 -1        17 0.00000E+00 0.00000E+00 0.00000E+00
 -1        18 0.00000E+00 0.00000E+00 0.00000E+00
 -1        19 0.00000E+00 0.00000E+00 0.00000E+00
 -1        20 0.00000E+00 0.00000E+00 0.00000E+00
 -1        21 0.00000E+00 0.00000E+00 0.00000E+00
 -1        22 0.00000E+00 0.00000E+00 0.00000E+00
 -1        23 4.09565E-04-2.59007E-04 2.79792E-17
 -1        24 7.00519E-04-3.97237E-04-6.19418E-17
 -1        25 9.69993E-04-4.92121E-04-2.66422E-16
 -1        26 1.23430E-03-5.57847E-04-5.83026E-16
 -1        27 1.49817E-03-6.03474E-04-1.00951E-15
 -1        28 1.76390E-03-6.34301E-04-1.54644E-15
 -1        29 2.03273E-03-6.53972E-04-2.19151E-15
 -1        30 2.30546E-03-6.65166E-04-2.94491E-15
 -1        31 2.58272E-03-6.69967E-04-3.80798E-15
 -1        32 2.86510E-03-6.70101E-04-4.77671E-15
 -1        33 3.15335E-03-6.67127E-04-5.84748E-15
 -1        34 3.44838E-03-6.62619E-04-7.01296E-15
 -1        35 3.75133E-03-6.58368E-04-8.27353E-15
 -1        36 4.06358E-03-6.56605E-04-9.63318E-15
 -1        37 4.38662E-03-6.60250E-04-1.10875E-14
 -1        38 4.72178E-03-6.73140E-04-1.26365E-14
 -1        39 5.06969E-03-7.00142E-04-1.42802E-14
 -1        40 5.42945E-03-7.46908E-04-1.60147E-14
 -1        41 5.79740E-03-8.18886E-04-1.78410E-14
 -1        42 6.16596E-03-9.19078E-04-1.97554E-14
 -1        43 6.52353E-03-1.04438E-03-2.17720E-14
 -1        44 6.85699E-03-1.18163E-03-2.38940E-14
 -1        45 7.15758E-03-1.30651E-03-2.61244E-14
 -1        46 7.42801E-03-1.38945E-03-2.84794E-14
 -1        47 7.68486E-03-1.40860E-03-3.09570E-14
 -1        48 7.95175E-03-1.36212E-03-3.35466E-14
 -1        49 8.24710E-03-1.26924E-03-3.62428E-14
 -1        50 8.57593E-03-1.15930E-03-3.90518E-14
 -1        51 8.93091E-03-1.05807E-03-4.19603E-14
 -1        52 9.29918E-03-9.80566E-04-4.49624E-14
 -1        53 9.66871E-03-9.31252E-04-4.80467E-14
 -1        54 1.00313E-02-9.07852E-04-5.12088E-14
 -1        55 1.03830E-02-9.05177E-04-5.44493E-14
 -1        56 1.07225E-02-9.17614E-04-5.77754E-14
 -1        57 1.10506E-02-9.40291E-04-6.11860E-14
 -1        58 1.13687E-02-9.69433E-04-6.46625E-14
 -1        59 1.16786E-02-1.00231E-03-6.81906E-14
 -1        60 1.19819E-02-1.03706E-03-7.17632E-14
 -1        61 1.22800E-02-1.07245E-03-7.53830E-14
 -1        62 1.25743E-02-1.10773E-03-7.90538E-14
 -1        63 1.28658E-02-1.14245E-03-8.27984E-14
 -1        64 1.31552E-02-1.17641E-03-8.66016E-14
 -1        65 1.34430E-02-1.20951E-03-9.04620E-14
 -1        66 1.37299E-02-1.24178E-03-9.43749E-14
 -1        67 1.40161E-02-1.27327E-03-9.83385E-14
 -1        68 1.43020E-02-1.30408E-03-1.02333E-13
 -1        69 1.45876E-02-1.33432E-03-1.06367E-13
 -1        70 1.48731E-02-1.36413E-03-1.10403E-13
 -1        71 1.51587E-02-1.39367E-03-1.14472E-13
 -1        72 4.12006E-04 2.59707E-04 6.06442E-17
 -1        73 7.00386E-04 3.99940E-04 2.77386E-17
 -1        74 9.70603E-04 4.93922E-04-9.91198E-17
 -1        75 1.23524E-03 5.59639E-04-3.23943E-16
 -1        76 1.49928E-03 6.05401E-04-6.47997E-16
 -1        77 1.76512E-03 6.36460E-04-1.07299E-15
 -1        78 2.03402E-03 6.56468E-04-1.59708E-15
 -1        79 2.30677E-03 6.68135E-04-2.22037E-15
 -1        80 2.58394E-03 6.73593E-04-2.94629E-15
 -1        81 2.86604E-03 6.74629E-04-3.77372E-15
 -1        82 3.15364E-03 6.72869E-04-4.70145E-15
 -1        83 3.44737E-03 6.69939E-04-5.72477E-15
 -1        84 3.74793E-03 6.67620E-04-6.84583E-15
 -1        85 4.05602E-03 6.67997E-04-8.06243E-15
 -1        86 4.37214E-03 6.73557E-04-9.37678E-15
 -1        87 4.69635E-03 6.87211E-04-1.07945E-14
 -1        88 5.02780E-03 7.12122E-04-1.23113E-14
 -1        89 5.36425E-03 7.51210E-04-1.39293E-14
 -1        90 5.70160E-03 8.06197E-04-1.56504E-14
 -1        91 6.03381E-03 8.76140E-04-1.74678E-14
 -1        92 6.35365E-03 9.55770E-04-1.93843E-14
 -1        93 6.65474E-03 1.03448E-03-2.14021E-14
 -1        94 6.93448E-03 1.09729E-03-2.35345E-14
 -1        95 7.19659E-03 1.12863E-03-2.57810E-14
 -1        96 7.45113E-03 1.11800E-03-2.81481E-14
 -1        97 7.71119E-03 1.06451E-03-3.06316E-14
 -1        98 7.98769E-03 9.77281E-04-3.32326E-14
 -1        99 8.28553E-03 8.71454E-04-3.59473E-14
 -1       100 8.60305E-03 7.62418E-04-3.87629E-14
 -1       101 8.93431E-03 6.61628E-04-4.16769E-14
 -1       102 9.27213E-03 5.75207E-04-4.46831E-14
 -1       103 9.61027E-03 5.04728E-04-4.77729E-14
 -1       104 9.94442E-03 4.48855E-04-5.09326E-14
 -1       105 1.02722E-02 4.04880E-04-5.41775E-14
 -1       106 1.05928E-02 3.69789E-04-5.75145E-14
 -1       107 1.09064E-02 3.40836E-04-6.09381E-14
 -1       108 1.12136E-02 3.15784E-04-6.44341E-14
 -1       109 1.15155E-02 2.92946E-04-6.79934E-14
 -1       110 1.18129E-02 2.71118E-04-7.16063E-14
 -1       111 1.21069E-02 2.49495E-04-7.52701E-14
 -1       112 1.23982E-02 2.27573E-04-7.89874E-14
 -1       113 1.26875E-02 2.05067E-04-8.27583E-14
 -1       114 1.29754E-02 1.81843E-04-8.65698E-14
 -1       115 1.32624E-02 1.57870E-04-9.04178E-14
 -1       116 1.35486E-02 1.33181E-04-9.43044E-14
 -1       117 1.38345E-02 1.07848E-04-9.82313E-14
 -1       118 1.41201E-02 8.19706E-05-1.02207E-13
 -1       119 1.44057E-02 5.56707E-05-1.06220E-13
 -1       120 1.46913E-02 2.91041E-05-1.10277E-13
 -1       121 1.49889E-02-8.05112E-05-1.14454E-13
 -1       122 1.50151E-02-1.64891E-04-1.14765E-13
 -1       123 1.50416E-02-2.49294E-04-1.15035E-13
 -1       124 1.50684E-02-3.33620E-04-1.15300E-13
 -1       125 1.50955E-02-4.17788E-04-1.15562E-13
 -1       126 1.51223E-02-5.00339E-04-1.15813E-13
 -1       127 1.51497E-02-5.84133E-04-1.16083E-13
 -1       128 1.51773E-02-6.67798E-04-1.16357E-13
 -1       129 1.52048E-02-7.51419E-04-1.16606E-13
 -1       130 1.52324E-02-8.35092E-04-1.16828E-13
 -1       131 1.52601E-02-9.18898E-04-1.17066E-13
 -1       132 1.52875E-02-1.00147E-03-1.17325E-13
 -1       133 1.53156E-02-1.08565E-03-1.17578E-13
 -1       134 1.53440E-02-1.16999E-03-1.17814E-13
 -1       135 1.53727E-02-1.25441E-03-1.18032E-13
 -1       136 1.54016E-02-1.33879E-03-1.18213E-13
 -1       137 9.60712E-03-2.20129E-05-3.51348E-14
 -1       138 9.46326E-03 1.39830E-04-3.46749E-14
 -1       139 9.21510E-03 3.01028E-04-3.39181E-14
 -1       140 8.88319E-03 4.42563E-04-3.29363E-14
 -1       141 8.50476E-03 5.50785E-04-3.18641E-14
 -1       142 8.04001E-03 6.34324E-04-3.05837E-14
 -1       143 7.59650E-03 6.72267E-04-2.94170E-14
 -1       144 7.11391E-03 6.72094E-04-2.81807E-14
 -1       145 6.66885E-03 6.32420E-04-2.70846E-14
 -1       146 6.26744E-03 5.58145E-04-2.61205E-14
 -1       147 5.91437E-03 4.53130E-04-2.53027E-14
 -1       148 5.64085E-03 3.29270E-04-2.46955E-14
 -1       149 5.42241E-03 1.73234E-04-2.42362E-14
 -1       150 5.30943E-03 1.91596E-05-2.40261E-14
 -1       151 5.28177E-03-1.56906E-04-2.40262E-14
 -1       152 5.35596E-03-3.33631E-04-2.42660E-14
 -1       153 5.52043E-03-4.98485E-04-2.47174E-14
 -1       154 6.08149E-03-7.83526E-04-2.61619E-14
 -1       155 6.44815E-03-8.91196E-04-2.70875E-14
 -1       156 6.85297E-03-9.68607E-04-2.81077E-14
 -1       157 7.29266E-03-1.01261E-03-2.92221E-14
 -1       158 7.72969E-03-1.01816E-03-3.03402E-14
 -1       159 8.17672E-03-9.83869E-04-3.15010E-14
 -1       160 8.59781E-03-9.10669E-04-3.26111E-14
 -1       161 8.95613E-03-8.08219E-04-3.35635E-14
 -1       162 9.26888E-03-6.72266E-04-3.43979E-14
 -1       163 9.48924E-03-5.22767E-04-3.49790E-14
 -1       164 9.62249E-03-3.58781E-04-3.53048E-14
 -1       165 2.40140E-04-1.24348E-04-2.22261E-17
 -1       166 2.25332E-04-9.33889E-05-3.74253E-17
 -1       167 2.19737E-04-7.15209E-05-4.52959E-17
 -1       168 2.16962E-04-5.38993E-05-4.95074E-17
 -1       169 2.15444E-04-3.89253E-05-5.14793E-17
 -1       170 2.14560E-04-2.51499E-05-5.21433E-17
 -1       171 2.14098E-04-1.22400E-05-5.19434E-17
 -1       172 2.13959E-04 2.69665E-07-5.13844E-17
 -1       173 2.14114E-04 1.27922E-05-4.99682E-17
 -1       174 2.14595E-04 2.57431E-05-4.79929E-17
 -1       175 2.15484E-04 3.93520E-05-4.47572E-17
 -1       176 2.17056E-04 5.47042E-05-3.99698E-17
 -1       177 2.19875E-04 7.25506E-05-3.25362E-17
 -1       178 2.25502E-04 9.47843E-05-2.05050E-17
 -1       179 2.39074E-04 1.26418E-04-7.48777E-19
 -1       180 2.96932E-04 1.84116E-04 2.11792E-17
 -1       181 4.67614E-04-2.61053E-04-6.10948E-17
 -1       182 7.65390E-04-3.77314E-04-2.29526E-16
 -1       183 1.04923E-03-4.57347E-04-5.04727E-16
 -1       184 1.32708E-03-5.12676E-04-8.87491E-16
 -1       185 1.60274E-03-5.50214E-04-1.37735E-15
 -1       186 1.87851E-03-5.74549E-04-1.97395E-15
 -1       187 2.15582E-03-5.88910E-04-2.67693E-15
 -1       188 2.43568E-03-5.95707E-04-3.48661E-15
 -1       189 2.71887E-03-5.96836E-04-4.40077E-15
 -1       190 3.00609E-03-5.93902E-04-5.41739E-15
 -1       191 3.29811E-03-5.88415E-04-6.53203E-15
 -1       192 3.59574E-03-5.81986E-04-7.74167E-15
 -1       193 3.89993E-03-5.76550E-04-9.04900E-15
 -1       194 4.21166E-03-5.74628E-04-1.04515E-14
 -1       195 4.53188E-03-5.79597E-04-1.19488E-14
 -1       196 4.86126E-03-5.95935E-04-1.35399E-14
 -1       197 5.19982E-03-6.29257E-04-1.52207E-14
 -1       198 5.54643E-03-6.85840E-04-1.69949E-14
 -1       199 5.89817E-03-7.71102E-04-1.88595E-14
 -1       200 6.24991E-03-8.86477E-04-2.08179E-14
 -1       201 6.59465E-03-1.02485E-03-2.28804E-14
 -1       202 6.92552E-03-1.16662E-03-2.50520E-14
 -1       203 7.23958E-03-1.28103E-03-2.73417E-14
 -1       204 7.54136E-03-1.33701E-03-2.97501E-14
 -1       205 7.84214E-03-1.31970E-03-3.22747E-14
 -1       206 8.15383E-03-1.24003E-03-3.49111E-14
 -1       207 8.48226E-03-1.12758E-03-3.76529E-14
 -1       208 8.82553E-03-1.01416E-03-4.05040E-14
 -1       209 9.17714E-03-9.21444E-04-4.34494E-14
 -1       210 9.52998E-03-8.58343E-04-4.64855E-14
 -1       211 9.87863E-03-8.24461E-04-4.96047E-14
 -1       212 1.02199E-02-8.14797E-04-5.28001E-14
 -1       213 1.05526E-02-8.23147E-04-5.60746E-14
 -1       214 1.08766E-02-8.43854E-04-5.94308E-14
 -1       215 1.11927E-02-8.72430E-04-6.28613E-14
 -1       216 1.15019E-02-9.05602E-04-6.63549E-14
 -1       217 1.18055E-02-9.41112E-04-6.98957E-14
 -1       218 1.21044E-02-9.77481E-04-7.34865E-14
 -1       219 1.23998E-02-1.01379E-03-7.71255E-14
 -1       220 1.26923E-02-1.04951E-03-8.08340E-14
 -1       221 1.29827E-02-1.08436E-03-8.46052E-14
 -1       222 1.32716E-02-1.11825E-03-8.84317E-14
 -1       223 1.35594E-02-1.15118E-03-9.23049E-14
 -1       224 1.38463E-02-1.18321E-03-9.62338E-14
 -1       225 1.41327E-02-1.21445E-03-1.00198E-13
 -1       226 1.44187E-02-1.24502E-03-1.04205E-13
 -1       227 1.47046E-02-1.27506E-03-1.08237E-13
 -1       228 1.49903E-02-1.30471E-03-1.12289E-13
 -1       229 6.03181E-04 3.27624E-04-3.09912E-17
 -1       230 8.92005E-04 4.26741E-04-1.71436E-16
 -1       231 1.17103E-03 4.95472E-04-4.06210E-16
 -1       232 1.44603E-03 5.42942E-04-7.38328E-16
 -1       233 1.72018E-03 5.74888E-04-1.16919E-15
 -1       234 1.99534E-03 5.95231E-04-1.69868E-15
 -1       235 2.27269E-03 6.06836E-04-2.32745E-15
 -1       236 2.55305E-03 6.11919E-04-3.05564E-15
 -1       237 2.83707E-03 6.12302E-04-3.88429E-15
 -1       238 3.12533E-03 6.09612E-04-4.81150E-15
 -1       239 3.41841E-03 6.05459E-04-5.83688E-15
 -1       240 3.71691E-03 6.01598E-04-6.95823E-15
 -1       241 4.02133E-03 6.00093E-04-8.17504E-15
 -1       242 4.33206E-03 6.03444E-04-9.48835E-15
 -1       243 4.64914E-03 6.14639E-04-1.09035E-14
 -1       244 4.97199E-03 6.37031E-04-1.24167E-14
 -1       245 5.29918E-03 6.73895E-04-1.40316E-14
 -1       246 5.62810E-03 7.27492E-04-1.57453E-14
 -1       247 5.95493E-03 7.97557E-04-1.75557E-14
 -1       248 6.27512E-03 8.79426E-04-1.94694E-14
 -1       249 6.58446E-03 9.62652E-04-2.14864E-14
 -1       250 6.88092E-03 1.03158E-03-2.36146E-14
 -1       251 7.16628E-03 1.06911E-03-2.58522E-14
 -1       252 7.44634E-03 1.06290E-03-2.82095E-14
 -1       253 7.72909E-03 1.01093E-03-3.06880E-14
 -1       254 8.02144E-03 9.22432E-04-3.32812E-14
 -1       255 8.32665E-03 8.13600E-04-3.59836E-14
 -1       256 8.64387E-03 7.01135E-04-3.87900E-14
 -1       257 8.96948E-03 5.97452E-04-4.16949E-14
 -1       258 9.29893E-03 5.09108E-04-4.46912E-14
 -1       259 9.62817E-03 4.37703E-04-4.77713E-14
 -1       260 9.95424E-03 3.81708E-04-5.09297E-14
 -1       261 1.02754E-02 3.38161E-04-5.41703E-14
 -1       262 1.05911E-02 3.03813E-04-5.74988E-14
 -1       263 1.09012E-02 2.75740E-04-6.09112E-14
 -1       264 1.12061E-02 2.51586E-04-6.43934E-14
 -1       265 1.15067E-02 2.29585E-04-6.79387E-14
 -1       266 1.18035E-02 2.08499E-04-7.15412E-14
 -1       267 1.20973E-02 1.87506E-04-7.51987E-14
 -1       268 1.23888E-02 1.66102E-04-7.89146E-14
 -1       269 1.26785E-02 1.44011E-04-8.26787E-14
 -1       270 1.29668E-02 1.21111E-04-8.64832E-14
 -1       271 1.32541E-02 9.73843E-05-9.03282E-14
 -1       272 1.35408E-02 7.28760E-05-9.42084E-14
 -1       273 1.38270E-02 4.76705E-05-9.81276E-14
 -1       274 1.41129E-02 2.18759E-05-1.02095E-13
 -1       275 1.43987E-02-4.38018E-06-1.06101E-13
 -1       276 1.46844E-02-3.09396E-05-1.10143E-13
 -1       277 1.47545E-02-9.95603E-05-1.11097E-13
 -1       278 1.47809E-02-1.83820E-04-1.11398E-13
 -1       279 1.48075E-02-2.67995E-04-1.11679E-13
 -1       280 1.48345E-02-3.52036E-04-1.11956E-13
 -1       281 1.48613E-02-4.34494E-04-1.12219E-13
 -1       282 1.48887E-02-5.18214E-04-1.12487E-13
 -1       283 1.49163E-02-6.01806E-04-1.12755E-13
 -1       284 1.49438E-02-6.85328E-04-1.13015E-13
 -1       285 1.49714E-02-7.68853E-04-1.13254E-13
 -1       286 1.49990E-02-8.52450E-04-1.13484E-13
 -1       287 1.50262E-02-9.34759E-04-1.13713E-13
 -1       288 1.50542E-02-1.01865E-03-1.13945E-13
 -1       289 1.50823E-02-1.10270E-03-1.14171E-13
 -1       290 1.51109E-02-1.18688E-03-1.14381E-13
 -1       291 1.50505E-02-1.24580E-03-1.13341E-13
 -1       292 9.66635E-03-1.48571E-04-3.63852E-14
 -1       293 9.53021E-03-4.86101E-05-3.59784E-14
 -1       294 9.26691E-03 7.19979E-05-3.53700E-14
 -1       295 8.92231E-03 2.53610E-04-3.41905E-14
 -1       296 8.53644E-03 4.33701E-04-3.29565E-14
 -1       297 8.12139E-03 6.01652E-04-3.15959E-14
 -1       298 7.74183E-03 7.15725E-04-3.00996E-14
 -1       299 7.36594E-03 7.57464E-04-2.86709E-14
 -1       300 6.98386E-03 7.01487E-04-2.73274E-14
 -1       301 6.61553E-03 5.85404E-04-2.61083E-14
 -1       302 6.23565E-03 4.31454E-04-2.51241E-14
 -1       303 5.88816E-03 2.72592E-04-2.43199E-14
 -1       304 5.58569E-03 1.15840E-04-2.36163E-14
 -1       305 5.36072E-03 7.44200E-06-2.33478E-14
 -1       306 5.25647E-03-9.00505E-05-2.31776E-14
 -1       307 5.29044E-03-1.85752E-04-2.33680E-14
 -1       308 5.45845E-03-2.91822E-04-2.37010E-14
 -1       309 5.74124E-03-4.19724E-04-2.42311E-14
 -1       310 6.06555E-03-6.04220E-04-2.51853E-14
 -1       311 6.43393E-03-7.75353E-04-2.61270E-14
 -1       312 6.79501E-03-9.36731E-04-2.72772E-14
 -1       313 7.15880E-03-1.05124E-03-2.85156E-14
 -1       314 7.51487E-03-1.09628E-03-2.98214E-14
 -1       315 7.87131E-03-1.06450E-03-3.11823E-14
 -1       316 8.25113E-03-9.53102E-04-3.25141E-14
 -1       317 8.62571E-03-7.98303E-04-3.37476E-14
 -1       318 8.98138E-03-6.17817E-04-3.49429E-14
 -1       319 9.31302E-03-4.63965E-04-3.57543E-14
 -1       320 9.55286E-03-3.42999E-04-3.62415E-14
 -1       321 9.67872E-03-2.37436E-04-3.66380E-14
 -1       322 4.55624E-04-1.61890E-04-1.56162E-16
 -1       323 4.74178E-04-2.10126E-04-1.31910E-16
 -1       324 4.40823E-04-9.15874E-05-1.78029E-16
 -1       325 4.37710E-04-6.29965E-05-1.81573E-16
 -1       326 4.35939E-04-3.66833E-05-1.82569E-16
 -1       327 4.35139E-04-1.16077E-05-1.81319E-16
 -1       328 4.35167E-04 1.30925E-05-1.78016E-16
 -1       329 4.36031E-04 3.82304E-05-1.72619E-16
 -1       330 4.37839E-04 6.42128E-05-1.64890E-16
 -1       331 4.41040E-04 9.29804E-05-1.53547E-16
 -1       332 4.46492E-04 1.25589E-04-1.37507E-16
 -1       333 4.56214E-04 1.64450E-04-1.14038E-16
 -1       334 4.75792E-04 2.14183E-04-7.89841E-17
 -1       335 5.31424E-04 2.66858E-04-6.07458E-17
 -1       336 8.23842E-04 3.67917E-04-2.09197E-16
 -1       337 8.63140E-04-3.51232E-04-4.16205E-16
 -1       338 1.14989E-03-4.16795E-04-7.57878E-16
 -1       339 1.43349E-03-4.62094E-04-1.20381E-15
 -1       340 1.71557E-03-4.92155E-04-1.75376E-15
 -1       341 1.99747E-03-5.10674E-04-2.40878E-15
 -1       342 2.28019E-03-5.20405E-04-3.16760E-15
 -1       343 2.56451E-03-5.23470E-04-4.02960E-15
 -1       344 2.85109E-03-5.21583E-04-4.99328E-15
 -1       345 3.14052E-03-5.16254E-04-6.05626E-15
 -1       346 3.43340E-03-5.08974E-04-7.21557E-15
 -1       347 3.73036E-03-5.01426E-04-8.46997E-15
 -1       348 4.03212E-03-4.95720E-04-9.82108E-15
 -1       349 4.33948E-03-4.94662E-04-1.12671E-14
 -1       350 4.65331E-03-5.02032E-04-1.28069E-14
 -1       351 4.97455E-03-5.22801E-04-1.44369E-14
 -1       352 5.30411E-03-5.63092E-04-1.61574E-14
 -1       353 5.64253E-03-6.29537E-04-1.79692E-14
 -1       354 5.98924E-03-7.27405E-04-1.98727E-14
 -1       355 6.34130E-03-8.56707E-04-2.18759E-14
 -1       356 6.69257E-03-1.00641E-03-2.39854E-14
 -1       357 7.03521E-03-1.14965E-03-2.62094E-14
 -1       358 7.36554E-03-1.24764E-03-2.85531E-14
 -1       359 7.68922E-03-1.26809E-03-3.10136E-14
 -1       360 8.01792E-03-1.20819E-03-3.35866E-14
 -1       361 8.35878E-03-1.09665E-03-3.62691E-14
 -1       362 8.70939E-03-9.72891E-04-3.90581E-14
 -1       363 9.06217E-03-8.66320E-04-4.19513E-14
 -1       364 9.41048E-03-7.90265E-04-4.49335E-14
 -1       365 9.75095E-03-7.46033E-04-4.80038E-14
 -1       366 1.00828E-02-7.28893E-04-5.11565E-14
 -1       367 1.04065E-02-7.32320E-04-5.43858E-14
 -1       368 1.07229E-02-7.50128E-04-5.76909E-14
 -1       369 1.10332E-02-7.77289E-04-6.10758E-14
 -1       370 1.13383E-02-8.10058E-04-6.45292E-14
 -1       371 1.16390E-02-8.45806E-04-6.80383E-14
 -1       372 1.19362E-02-8.82784E-04-7.15987E-14
 -1       373 1.22305E-02-9.19880E-04-7.52077E-14
 -1       374 1.25226E-02-9.56440E-04-7.88755E-14
 -1       375 1.28129E-02-9.92112E-04-8.26157E-14
 -1       376 1.31019E-02-1.02675E-03-8.64120E-14
 -1       377 1.33898E-02-1.06034E-03-9.02559E-14
 -1       378 1.36770E-02-1.09294E-03-9.41438E-14
 -1       379 1.39637E-02-1.12465E-03-9.80784E-14
 -1       380 1.42500E-02-1.15559E-03-1.02054E-13
 -1       381 1.45360E-02-1.18590E-03-1.06067E-13
 -1       382 1.47933E-02-1.21599E-03-1.09690E-13
 -1       383 1.10959E-03 4.39231E-04-4.49100E-16
 -1       384 1.39104E-03 4.88672E-04-7.84444E-16
 -1       385 1.67064E-03 5.21954E-04-1.21740E-15
 -1       386 1.95012E-03 5.43123E-04-1.74799E-15
 -1       387 2.23068E-03 5.55160E-04-2.37695E-15
 -1       388 2.51317E-03 5.60355E-04-3.10437E-15
 -1       389 2.79829E-03 5.60570E-04-3.93086E-15
 -1       390 3.08660E-03 5.57439E-04-4.85529E-15
 -1       391 3.37865E-03 5.52553E-04-5.87705E-15
 -1       392 3.67496E-03 5.47625E-04-6.99499E-15
 -1       393 3.97604E-03 5.44665E-04-8.20917E-15
 -1       394 4.28230E-03 5.46120E-04-9.51847E-15
 -1       395 4.59399E-03 5.54955E-04-1.09284E-14
 -1       396 4.91105E-03 5.74581E-04-1.24354E-14
 -1       397 5.23286E-03 6.08494E-04-1.40426E-14
 -1       398 5.55802E-03 6.59439E-04-1.57481E-14
 -1       399 5.88413E-03 7.27962E-04-1.75512E-14
 -1       400 6.20775E-03 8.10417E-04-1.94570E-14
 -1       401 6.52504E-03 8.97140E-04-2.14674E-14
 -1       402 6.83317E-03 9.72292E-04-2.35858E-14
 -1       403 7.13224E-03 1.01720E-03-2.58137E-14
 -1       404 7.42627E-03 1.01710E-03-2.81594E-14
 -1       405 7.72179E-03 9.68171E-04-3.06279E-14
 -1       406 8.02461E-03 8.79489E-04-3.32102E-14
 -1       407 8.33709E-03 7.68460E-04-3.59009E-14
 -1       408 8.65787E-03 6.53223E-04-3.86958E-14
 -1       409 8.98350E-03 5.47136E-04-4.15914E-14
 -1       410 9.31023E-03 4.57113E-04-4.45759E-14
 -1       411 9.63510E-03 3.84749E-04-4.76455E-14
 -1       412 9.95624E-03 3.28375E-04-5.07971E-14
 -1       413 1.02727E-02 2.84861E-04-5.40319E-14
 -1       414 1.05842E-02 2.50811E-04-5.73543E-14
 -1       415 1.08910E-02 2.23185E-04-6.07548E-14
 -1       416 1.11935E-02 1.99543E-04-6.42262E-14
 -1       417 1.14923E-02 1.78064E-04-6.77617E-14
 -1       418 1.17879E-02 1.57470E-04-7.13511E-14
 -1       419 1.20811E-02 1.36921E-04-7.50021E-14
 -1       420 1.23721E-02 1.15902E-04-7.87116E-14
 -1       421 1.26616E-02 9.41339E-05-8.24704E-14
 -1       422 1.29500E-02 7.14992E-05-8.62692E-14
 -1       423 1.32374E-02 4.79846E-05-9.01053E-14
 -1       424 1.35242E-02 2.36420E-05-9.39794E-14
 -1       425 1.38105E-02-1.43845E-06-9.78951E-14
 -1       426 1.40966E-02-2.71433E-05-1.01851E-13
 -1       427 1.43825E-02-5.33434E-05-1.05847E-13
 -1       428 1.45685E-02-7.64029E-05-1.08466E-13
 -1       429 1.45736E-02-2.86710E-04-1.08343E-13
 -1       430 1.45467E-02-2.02740E-04-1.08054E-13
 -1       431 1.45575E-02-1.39611E-04-1.08264E-13
 -1       432 1.46004E-02-3.69070E-04-1.08616E-13
 -1       433 1.46278E-02-4.52661E-04-1.08889E-13
 -1       434 1.46553E-02-5.36088E-04-1.09155E-13
 -1       435 1.46829E-02-6.19405E-04-1.09415E-13
 -1       436 1.47105E-02-7.02686E-04-1.09667E-13
 -1       437 1.47380E-02-7.86005E-04-1.09904E-13
 -1       438 1.47651E-02-8.68019E-04-1.10125E-13
 -1       439 1.47929E-02-9.51611E-04-1.10343E-13
 -1       440 1.48208E-02-1.03539E-03-1.10557E-13
 -1       441 1.48491E-02-1.11937E-03-1.10759E-13
 -1       442 9.41112E-03-5.90768E-05-3.68016E-14
 -1       443 9.70434E-03-1.97697E-04-3.77308E-14
 -1       444 9.61960E-03-1.43628E-04-3.74457E-14
 -1       445 9.02363E-03 9.52465E-05-3.58933E-14
 -1       446 8.70138E-03 2.62115E-04-3.46173E-14
 -1       447 4.46124E-04-1.23754E-04-1.70010E-16
 -1       448 7.85851E-03 6.89555E-04-3.09849E-14
 -1       449 7.55186E-03 7.74973E-04-2.94743E-14
 -1       450 7.17718E-03 7.65742E-04-2.76204E-14
 -1       451 6.89156E-03 6.74809E-04-2.63976E-14
 -1       452 6.48223E-03 4.79381E-04-2.48204E-14
 -1       453 6.17419E-03 3.25008E-04-2.40300E-14
 -1       454 5.78212E-03 1.44104E-04-2.32432E-14
 -1       455 5.44756E-03-3.09958E-06-2.23686E-14
 -1       456 5.29059E-03-6.41537E-05-2.22041E-14
 -1       457 5.23557E-03-1.22146E-04-2.21591E-14
 -1       458 5.35021E-03-1.85407E-04-2.26505E-14
 -1       459 5.59111E-03-2.83748E-04-2.31662E-14
 -1       460 5.98382E-03-4.63714E-04-2.40859E-14
 -1       461 6.29662E-03-6.30192E-04-2.49880E-14
 -1       462 6.69789E-03-8.50754E-04-2.63211E-14
 -1       463 7.04051E-03-1.01604E-03-2.75913E-14
 -1       464 7.36341E-03-1.11720E-03-2.90959E-14
 -1       465 7.67034E-03-1.12302E-03-3.05982E-14
 -1       466 8.02501E-03-1.02626E-03-3.22738E-14
 -1       467 8.36994E-03-8.64685E-04-3.38074E-14
 -1       468 8.69942E-03-6.93114E-04-3.50114E-14
 -1       469 9.12780E-03-4.75071E-04-3.65004E-14
 -1       470 9.44085E-03-3.42110E-04-3.72208E-14
 -1       471 9.62639E-03-2.64575E-04-3.76305E-14
 -1       472 8.27683E-03 4.91924E-04-3.28699E-14
 -1       473 9.70698E-03-2.27401E-04-3.87261E-14
 -1       474 5.78186E-03-3.42861E-04-2.30154E-14
 -1       475 9.31628E-04 3.39049E-04-3.95449E-16
 -1       476 6.65724E-04-7.25889E-05-3.89012E-16
 -1       477 6.70014E-04-1.12335E-04-3.85170E-16
 -1       478 6.62712E-04 1.07110E-06-3.84085E-16
 -1       479 6.63522E-04 3.73911E-05-3.75422E-16
 -1       480 6.65900E-04 7.42466E-05-3.62798E-16
 -1       481 6.70312E-04 1.14160E-04-3.44949E-16
 -1       482 6.77600E-04 1.58064E-04-3.20162E-16
 -1       483 6.89603E-04 2.08008E-04-2.85999E-16
 -1       484 1.21800E-03 3.96222E-04-7.03766E-16
 -1       485 9.77005E-04-3.21052E-04-6.23728E-16
 -1       486 8.45653E-03 3.71770E-04-3.44339E-14
 -1       487 1.26340E-03-3.72455E-04-1.02763E-15
 -1       488 1.54919E-03-4.07977E-04-1.53254E-15
 -1       489 1.83446E-03-4.30942E-04-2.14073E-15
 -1       490 2.11963E-03-4.44153E-04-2.85118E-15
 -1       491 2.40518E-03-4.49855E-04-3.66274E-15
 -1       492 2.69153E-03-4.49858E-04-4.57459E-15
 -1       493 2.97905E-03-4.45691E-04-5.58506E-15
 -1       494 3.26810E-03-4.38762E-04-6.69366E-15
 -1       495 3.55906E-03-4.30538E-04-7.89795E-15
 -1       496 3.85236E-03-4.22739E-04-9.19686E-15
 -1       497 4.14859E-03-4.17562E-04-1.05908E-14
 -1       498 4.44861E-03-4.17932E-04-1.20792E-14
 -1       499 4.75374E-03-4.27761E-04-1.36597E-14
 -1       500 5.06599E-03-4.52179E-04-1.53289E-14
 -1       501 5.38817E-03-4.97609E-04-1.70884E-14
 -1       502 5.72360E-03-5.71387E-04-1.89372E-14
 -1       503 6.07448E-03-6.80131E-04-2.08839E-14
 -1       504 6.43846E-03-8.24405E-04-2.29297E-14
 -1       505 6.80751E-03-9.90491E-04-2.50872E-14
 -1       506 7.16675E-03-1.13732E-03-2.73657E-14
 -1       507 7.51392E-03-1.21136E-03-2.97601E-14
 -1       508 7.85958E-03-1.18068E-03-3.22702E-14
 -1       509 8.21734E-03-1.06856E-03-3.48943E-14
 -1       510 8.58528E-03-9.29746E-04-3.76258E-14
 -1       511 8.95116E-03-8.07603E-04-4.04607E-14
 -1       512 9.30469E-03-7.20075E-04-4.33930E-14
 -1       513 9.64283E-03-6.68100E-04-4.64137E-14
 -1       514 9.96735E-03-6.45537E-04-4.95188E-14
 -1       515 1.02816E-02-6.45080E-04-5.27027E-14
 -1       516 1.05884E-02-6.60172E-04-5.59645E-14
 -1       517 1.08901E-02-6.85574E-04-5.92998E-14
 -1       518 1.11881E-02-7.17360E-04-6.27112E-14
 -1       519 1.14832E-02-7.52723E-04-6.61879E-14
 -1       520 1.17763E-02-7.89739E-04-6.97199E-14
 -1       521 1.20676E-02-8.27149E-04-7.32976E-14
 -1       522 1.23576E-02-8.64178E-04-7.69296E-14
 -1       523 1.26465E-02-9.00390E-04-8.06285E-14
 -1       524 1.29346E-02-9.35580E-04-8.43919E-14
 -1       525 1.32220E-02-9.69691E-04-8.82053E-14
 -1       526 1.35089E-02-1.00276E-03-9.20636E-14
 -1       527 1.37955E-02-1.03488E-03-9.59697E-14
 -1       528 1.40817E-02-1.06616E-03-9.99191E-14
 -1       529 1.43678E-02-1.09675E-03-1.03902E-13
 -1       530 1.78700E-03 4.61995E-04-1.60584E-15
 -1       531 2.07093E-03 4.77708E-04-2.20199E-15
 -1       532 2.35543E-03 4.85525E-04-2.89498E-15
 -1       533 2.64109E-03 4.87442E-04-3.68581E-15
 -1       534 2.92841E-03 4.85143E-04-4.57402E-15
 -1       535 3.21785E-03 4.80170E-04-5.55965E-15
 -1       536 3.50987E-03 4.74091E-04-6.64066E-15
 -1       537 3.80497E-03 4.68664E-04-7.81667E-15
 -1       538 4.10370E-03 4.66003E-04-9.08927E-15
 -1       539 4.40670E-03 4.68713E-04-1.04596E-14
 -1       540 4.71465E-03 4.79952E-04-1.19263E-14
 -1       541 5.02826E-03 5.03333E-04-1.34893E-14
 -1       542 5.34794E-03 5.42513E-04-1.51518E-14
 -1       543 5.67348E-03 6.00239E-04-1.69107E-14
 -1       544 6.00325E-03 6.76609E-04-1.87691E-14
 -1       545 6.33372E-03 7.66512E-04-2.07325E-14
 -1       546 6.65989E-03 8.57090E-04-2.27991E-14
 -1       547 6.97780E-03 9.27918E-04-2.49751E-14
 -1       548 7.28779E-03 9.56765E-04-2.72646E-14
 -1       549 7.59558E-03 9.30387E-04-2.96756E-14
 -1       550 7.90858E-03 8.52554E-04-3.22057E-14
 -1       551 8.23046E-03 7.41826E-04-3.48475E-14
 -1       552 8.55931E-03 6.20746E-04-3.75932E-14
 -1       553 8.89031E-03 5.06813E-04-4.04409E-14
 -1       554 9.21897E-03 4.09308E-04-4.33822E-14
 -1       555 9.54264E-03 3.30773E-04-4.64076E-14
 -1       556 9.86043E-03 2.69735E-04-4.95178E-14
 -1       557 1.01725E-02 2.22954E-04-5.27165E-14
 -1       558 1.04795E-02 1.86815E-04-5.60021E-14
 -1       559 1.07821E-02 1.58035E-04-5.93655E-14
 -1       560 1.10812E-02 1.33933E-04-6.27999E-14
 -1       561 1.13773E-02 1.12481E-04-6.62992E-14
 -1       562 1.16710E-02 9.22282E-05-6.98590E-14
 -1       563 1.19627E-02 7.21995E-05-7.34780E-14
 -1       564 1.22529E-02 5.17824E-05-7.71535E-14
 -1       565 1.25419E-02 3.06301E-05-8.08873E-14
 -1       566 1.28300E-02 8.58091E-06-8.46613E-14
 -1       567 1.31173E-02-1.44036E-05-8.84771E-14
 -1       568 1.34042E-02-3.82839E-05-9.23297E-14
 -1       569 1.36906E-02-6.29755E-05-9.62246E-14
 -1       570 1.39767E-02-8.83684E-05-1.00156E-13
 -1       571 1.42627E-02-1.14337E-04-1.04125E-13
 -1       572 1.43669E-02-3.87537E-04-1.05298E-13
 -1       573 1.43945E-02-4.70763E-04-1.05569E-13
 -1       574 1.43127E-02-2.21775E-04-1.04735E-13
 -1       575 1.43396E-02-3.04782E-04-1.05023E-13
 -1       576 1.44221E-02-5.53810E-04-1.05828E-13
 -1       577 1.44497E-02-6.36762E-04-1.06080E-13
 -1       578 1.44772E-02-7.19713E-04-1.06322E-13
 -1       579 1.45043E-02-8.01350E-04-1.06545E-13
 -1       580 1.45318E-02-8.84570E-04-1.06757E-13
 -1       581 1.45595E-02-9.68027E-04-1.06965E-13
 -1       582 1.45875E-02-1.05175E-03-1.07163E-13
 -1       583 9.70826E-03-1.89231E-04-3.92072E-14
 -1       584 9.27899E-03-3.60441E-05-3.78173E-14
 -1       585 1.50295E-03 4.35892E-04-1.10673E-15
 -1       586 8.83339E-03 1.67869E-04-3.62072E-14
 -1       587 8.90593E-03-5.71876E-04-3.68738E-14
 -1       588 8.04289E-03 6.01279E-04-3.23801E-14
 -1       589 8.17206E-03-9.65596E-04-3.35428E-14
 -1       590 5.94791E-03 2.02585E-04-2.26794E-14
 -1       591 7.68890E-03 7.54947E-04-3.03502E-14
 -1       592 6.63412E-04-3.52080E-05-3.88625E-16
 -1       593 7.37309E-03 8.06056E-04-2.84678E-14
 -1       594 5.62076E-03 6.07490E-05-2.18503E-14
 -1       595 7.02005E-03 7.38100E-04-2.64546E-14
 -1       596 6.68230E-03 5.86580E-04-2.48764E-14
 -1       597 6.29104E-03 3.79946E-04-2.34228E-14
 -1       598 5.26419E-03-1.38812E-04-2.15144E-14
 -1       599 5.31689E-03-4.64166E-05-2.11779E-14
 -1       600 6.86242E-03-9.25827E-04-2.63641E-14
 -1       601 5.20503E-03-9.14517E-05-2.11224E-14
 -1       602 5.43617E-03-1.99955E-04-2.20097E-14
 -1       603 6.15993E-03-5.25092E-04-2.37561E-14
 -1       604 9.32496E-03-3.77313E-04-3.81959E-14
 -1       605 6.52552E-03-7.32058E-04-2.50374E-14
 -1       606 7.22799E-03-1.09706E-03-2.81786E-14
 -1       607 7.53874E-03-1.15347E-03-2.99801E-14
 -1       608 7.84220E-03-1.10315E-03-3.17286E-14
 -1       609 8.53661E-03-7.70325E-04-3.53614E-14
 -1       610 9.57013E-03-2.83652E-04-3.88415E-14
 -1       611 7.13174E-04-2.46909E-04-3.50807E-16
 -1       612 7.03880E-04 2.86138E-04-2.05924E-16
 -1       613 9.54838E-03-1.34512E-04-3.86414E-14
 -1       614 6.77097E-04-1.55792E-04-3.75463E-16
 -1       615 6.92432E-04-1.98192E-04-3.67124E-16
 -1       616 5.57754E-03-2.52764E-04-2.18557E-14
 -1       617 9.12041E-03 3.96386E-05-3.81343E-14
 -1       618 5.16940E-03-1.06247E-04-2.04887E-14
 -1       619 1.45616E-02-1.11876E-03-1.06620E-13
 -1       620 8.98863E-04 7.12140E-05-6.38263E-16
 -1       621 8.96477E-04 2.41556E-05-6.55089E-16
 -1       622 9.12024E-04 1.72418E-04-5.82152E-16
 -1       623 9.24849E-04 2.30097E-04-5.38642E-16
 -1       624 1.04975E-03 3.05615E-04-6.08715E-16
 -1       625 9.18234E-03-4.64634E-04-3.89126E-14
 -1       626 6.65495E-03-8.29084E-04-2.49309E-14
 -1       627 1.38441E-03-3.24612E-04-1.31348E-15
 -1       628 1.67087E-03-3.51111E-04-1.87517E-15
 -1       629 1.95741E-03-3.67587E-04-2.53803E-15
 -1       630 2.24384E-03-3.76123E-04-3.30072E-15
 -1       631 2.53018E-03-3.78496E-04-4.16182E-15
 -1       632 2.81645E-03-3.76212E-04-5.12097E-15
 -1       633 3.10274E-03-3.70603E-04-6.17688E-15
 -1       634 3.38912E-03-3.62958E-04-7.33083E-15
 -1       635 3.67571E-03-3.54664E-04-8.57991E-15
 -1       636 3.96277E-03-3.47375E-04-9.92244E-15
 -1       637 4.25084E-03-3.43183E-04-1.13579E-14
 -1       638 4.54097E-03-3.44833E-04-1.28885E-14
 -1       639 4.83516E-03-3.55976E-04-1.45081E-14
 -1       640 5.13681E-03-3.81550E-04-1.62167E-14
 -1       641 5.45118E-03-4.28353E-04-1.80144E-14
 -1       642 5.78520E-03-5.05514E-04-1.99042E-14
 -1       643 6.14465E-03-6.24764E-04-2.18905E-14
 -1       644 7.31613E-03-1.14420E-03-2.85204E-14
 -1       645 7.68719E-03-1.16661E-03-3.09637E-14
 -1       646 8.06174E-03-1.07076E-03-3.35350E-14
 -1       647 8.46677E-03-8.87922E-04-3.61992E-14
 -1       648 8.85389E-03-7.41631E-04-3.89804E-14
 -1       649 9.21779E-03-6.42000E-04-4.18603E-14
 -1       650 9.55570E-03-5.85854E-04-4.48321E-14
 -1       651 9.87282E-03-5.61858E-04-4.78904E-14
 -1       652 1.01762E-02-5.60313E-04-5.10281E-14
 -1       653 1.04714E-02-5.74137E-04-5.42448E-14
 -1       654 1.07622E-02-5.98192E-04-5.75354E-14
 -1       655 1.10506E-02-6.28777E-04-6.09040E-14
 -1       656 1.13379E-02-6.63224E-04-6.43428E-14
 -1       657 1.16248E-02-6.99647E-04-6.78439E-14
 -1       658 1.19113E-02-7.36754E-04-7.13954E-14
 -1       659 1.21977E-02-7.73709E-04-7.49940E-14
 -1       660 1.24840E-02-8.10008E-04-7.86553E-14
 -1       661 1.27702E-02-8.45385E-04-8.23807E-14
 -1       662 1.30563E-02-8.79736E-04-8.61613E-14
 -1       663 1.33423E-02-9.13064E-04-8.99912E-14
 -1       664 1.36283E-02-9.45436E-04-9.38704E-14
 -1       665 1.39142E-02-9.76956E-04-9.77922E-14
 -1       666 1.42000E-02-1.00774E-03-1.01748E-13
 -1       667 2.19437E-03 4.10232E-04-2.67463E-15
 -1       668 1.40269E-02-1.95663E-04-1.00772E-13
 -1       669 1.90827E-03 3.99465E-04-2.01451E-15
 -1       670 2.76744E-03 4.13642E-04-4.28361E-15
 -1       671 3.05496E-03 4.09444E-04-5.23264E-15
 -1       672 3.34355E-03 4.03215E-04-6.27644E-15
 -1       673 3.63363E-03 3.96443E-04-7.41685E-15
 -1       674 3.92574E-03 3.90845E-04-8.65191E-15
 -1       675 4.22066E-03 3.88523E-04-9.98412E-15
 -1       676 4.51950E-03 3.92097E-04-1.14133E-14
 -1       677 4.82377E-03 4.04806E-04-1.29344E-14
 -1       678 5.13533E-03 4.30498E-04-1.45545E-14
 -1       679 5.45605E-03 4.73345E-04-1.62706E-14
 -1       680 5.78690E-03 5.36915E-04-1.80820E-14
 -1       681 6.12649E-03 6.22023E-04-1.99955E-14
 -1       682 6.46973E-03 7.22601E-04-2.20108E-14
 -1       683 6.80785E-03 8.20422E-04-2.41332E-14
 -1       684 7.13605E-03 8.86711E-04-2.63657E-14
 -1       685 7.45629E-03 8.92465E-04-2.87183E-14
 -1       686 7.77867E-03 8.29634E-04-3.11963E-14
 -1       687 8.11153E-03 7.17305E-04-3.37888E-14
 -1       688 8.45306E-03 5.86557E-04-3.64910E-14
 -1       689 8.79567E-03 4.62597E-04-3.92914E-14
 -1       690 9.13204E-03 3.57696E-04-4.21874E-14
 -1       691 9.45874E-03 2.74430E-04-4.51740E-14
 -1       692 9.77559E-03 2.10439E-04-4.82421E-14
 -1       693 1.00841E-02 1.61760E-04-5.13992E-14
 -1       694 1.03863E-02 1.24369E-04-5.46443E-14
 -1       695 1.06838E-02 9.47910E-05-5.79722E-14
 -1       696 1.09781E-02 7.02504E-05-6.13743E-14
 -1       697 1.12700E-02 4.86469E-05-6.48386E-14
 -1       698 1.15603E-02 2.84649E-05-6.83673E-14
 -1       699 1.18494E-02 8.66433E-06-7.19561E-14
 -1       700 1.21376E-02-1.14254E-05-7.56029E-14
 -1       701 1.24251E-02-3.21997E-05-7.93035E-14
 -1       702 1.27122E-02-5.38574E-05-8.30538E-14
 -1       703 1.29988E-02-7.64629E-05-8.68463E-14
 -1       704 1.32852E-02-9.99939E-05-9.06782E-14
 -1       705 1.35714E-02-1.24377E-04-9.45517E-14
 -1       706 1.37992E-02-1.59808E-04-9.76526E-14
 -1       707 1.41892E-02-5.71235E-04-1.02515E-13
 -1       708 1.43938E-02-1.02986E-03-1.04448E-13
 -1       709 1.41337E-02-4.05931E-04-1.01997E-13
 -1       710 1.42168E-02-6.53726E-04-1.02756E-13
 -1       711 1.41615E-02-4.88677E-04-1.02262E-13
 -1       712 1.42437E-02-7.34878E-04-1.02977E-13
 -1       713 1.42711E-02-8.17611E-04-1.03195E-13
 -1       714 1.42985E-02-9.00624E-04-1.03399E-13
 -1       715 9.70502E-03-1.76347E-04-4.08340E-14
 -1       716 9.52161E-03-3.26990E-04-4.02132E-14
 -1       717 8.76072E-03-6.78525E-04-3.71686E-14
 -1       718 8.00940E-03-1.06598E-03-3.30034E-14
 -1       719 8.26365E-03 4.94693E-04-3.40344E-14
 -1       720 6.00783E-03 2.72652E-04-2.18251E-14
 -1       721 9.72139E-03-2.48606E-04-4.04272E-14
 -1       722 1.62213E-03 3.80091E-04-1.45089E-15
 -1       723 5.40418E-03 1.11167E-05-2.03819E-14
 -1       724 2.48067E-03 4.14397E-04-3.43037E-15
 -1       725 9.48857E-03-1.05008E-04-3.98870E-14
 -1       726 1.33587E-03 3.49704E-04-9.82863E-16
 -1       727 1.09864E-03-2.85820E-04-8.51620E-16
 -1       728 6.44862E-03 5.06895E-04-2.32850E-14
 -1       729 8.36083E-03-8.96207E-04-3.51015E-14
 -1       730 6.81645E-03 6.92545E-04-2.49480E-14
 -1       731 5.71416E-03 1.36105E-04-2.10227E-14
 -1       732 9.03824E-04 1.20089E-04-6.14451E-16
 -1       733 7.19925E-03 8.12194E-04-2.72130E-14
 -1       734 9.78835E-03-2.15645E-04-4.09255E-14
 -1       735 9.03460E-04-1.17726E-04-6.68058E-16
 -1       736 5.29486E-03-1.57792E-04-2.06269E-14
 -1       737 5.85397E-03-3.82679E-04-2.21293E-14
 -1       738 6.34055E-03-6.44561E-04-2.36584E-14
 -1       739 8.64637E-03 2.84754E-04-3.61746E-14
 -1       740 7.85614E-03 7.09156E-04-3.16016E-14
 -1       741 5.17708E-03-6.53949E-05-1.99471E-14
 -1       742 8.94243E-04-2.45216E-04-5.84365E-16
 -1       743 7.56668E-03 8.03888E-04-2.96648E-14
 -1       744 9.11441E-04-1.69806E-04-6.58958E-16
 -1       745 8.96415E-04-2.22162E-05-6.65643E-16
 -1       746 8.94052E-03 1.52355E-04-3.80971E-14
 -1       747 1.41062E-02-3.23607E-04-1.01728E-13
 -1       748 6.02043E-03-5.00122E-04-2.20258E-14
 -1       749 8.98657E-04-6.90026E-05-6.70128E-16
 -1       750 7.02888E-03-1.03570E-03-2.67965E-14
 -1       751 1.42492E-02-9.54146E-04-1.02574E-13
 -1       752 6.55499E-03 6.29449E-04-2.31955E-14
 -1       753 1.16181E-03 2.34889E-04-8.72173E-16
 -1       754 9.01550E-04-2.06527E-04-6.23972E-16
 -1       755 9.05765E-03-5.79275E-04-3.94158E-14
 -1       756 1.79652E-03-2.91937E-04-2.23006E-15
 -1       757 2.08313E-03-3.02811E-04-2.94462E-15
 -1       758 2.36938E-03-3.07507E-04-3.75637E-15
 -1       759 2.65492E-03-3.07404E-04-4.66489E-15
 -1       760 2.93944E-03-3.03726E-04-5.66967E-15
 -1       761 3.22270E-03-2.97599E-04-6.77169E-15
 -1       762 3.50451E-03-2.90154E-04-7.96959E-15
 -1       763 3.78472E-03-2.82620E-04-9.26189E-15
 -1       764 4.06337E-03-2.76437E-04-1.06464E-14
 -1       765 4.34085E-03-2.73359E-04-1.21248E-14
 -1       766 4.61824E-03-2.75607E-04-1.36946E-14
 -1       767 4.89790E-03-2.86152E-04-1.53535E-14
 -1       768 5.18425E-03-3.09375E-04-1.71012E-14
 -1       769 5.48501E-03-3.53217E-04-1.89374E-14
 -1       770 9.49854E-03-4.96578E-04-4.32583E-14
 -1       771 9.80295E-03-4.76253E-04-4.62702E-14
 -1       772 1.00905E-02-4.77264E-04-4.93643E-14
 -1       773 1.03705E-02-4.92051E-04-5.25369E-14
 -1       774 1.06475E-02-5.15715E-04-5.57853E-14
 -1       775 1.09242E-02-5.45207E-04-5.91044E-14
 -1       776 1.12019E-02-5.78364E-04-6.25009E-14
 -1       777 1.14808E-02-6.13589E-04-6.59703E-14
 -1       778 1.17611E-02-6.49724E-04-6.94942E-14
 -1       779 1.20427E-02-6.85959E-04-7.30631E-14
 -1       780 1.23253E-02-7.21768E-04-7.66914E-14
 -1       781 1.26088E-02-7.56842E-04-8.03786E-14
 -1       782 1.28929E-02-7.91030E-04-8.41281E-14
 -1       783 1.31774E-02-8.24295E-04-8.79267E-14
 -1       784 1.34624E-02-8.56670E-04-9.17765E-14
 -1       785 1.37476E-02-8.88231E-04-9.56689E-14
 -1       786 1.39983E-02-9.21401E-04-9.91081E-14
 -1       787 1.39838E-02-6.69455E-04-9.94406E-14
 -1       788 2.03287E-03 3.35114E-04-2.44351E-15
 -1       789 3.17816E-03 3.34490E-04-5.90530E-15
 -1       790 2.89215E-03 3.39983E-04-4.89858E-15
 -1       791 3.75063E-03 3.20344E-04-8.20805E-15
 -1       792 4.03814E-03 3.14556E-04-9.50272E-15
 -1       793 4.32781E-03 3.12068E-04-1.08923E-14
 -1       794 4.62136E-03 3.15352E-04-1.23765E-14
 -1       795 4.92129E-03 3.27663E-04-1.39555E-14
 -1       796 5.23099E-03 3.53292E-04-1.56295E-14
 -1       797 5.55420E-03 3.97745E-04-1.73961E-14
 -1       798 5.89353E-03 4.66918E-04-1.92590E-14
 -1       799 6.24752E-03 5.64739E-04-2.12239E-14
 -1       800 7.30365E-03 8.54506E-04-2.77408E-14
 -1       801 7.98275E-03 7.08568E-04-3.27048E-14
 -1       802 8.33948E-03 5.62554E-04-3.53620E-14
 -1       803 8.69772E-03 4.23076E-04-3.81219E-14
 -1       804 9.04549E-03 3.08496E-04-4.09763E-14
 -1       805 9.37789E-03 2.20972E-04-4.39201E-14
 -1       806 9.69533E-03 1.55600E-04-4.69503E-14
 -1       807 1.00010E-02 1.06617E-04-5.00673E-14
 -1       808 1.02984E-02 6.91466E-05-5.32687E-14
 -1       809 1.05905E-02 3.94430E-05-5.65538E-14
 -1       810 1.08794E-02 1.47214E-05-5.99199E-14
 -1       811 1.11664E-02-7.05889E-06-6.33573E-14
 -1       812 1.14525E-02-2.73615E-05-6.68547E-14
 -1       813 1.17381E-02-4.72024E-05-7.04132E-14
 -1       814 1.20235E-02-6.72529E-05-7.40307E-14
 -1       815 1.23089E-02-8.79227E-05-7.77023E-14
 -1       816 1.25944E-02-1.09430E-04-8.14254E-14
 -1       817 1.28799E-02-1.31859E-04-8.51910E-14
 -1       818 1.31654E-02-1.55204E-04-8.90023E-14
 -1       819 1.34510E-02-1.79403E-04-9.28556E-14
 -1       820 1.13601E-03 5.63204E-05-9.90283E-16
 -1       821 5.13430E-03-1.19713E-04-1.94729E-14
 -1       822 1.40378E-02-8.33279E-04-9.98612E-14
 -1       823 1.39564E-02-5.87512E-04-9.92154E-14
 -1       824 5.54883E-03-2.71158E-04-2.06593E-14
 -1       825 7.71958E-03 7.92473E-04-3.07566E-14
 -1       826 1.74610E-03 3.21766E-04-1.81729E-15
 -1       827 6.99074E-03 8.06951E-04-2.56184E-14
 -1       828 5.06678E-03-7.95636E-05-1.89555E-14
 -1       829 1.40109E-02-7.51213E-04-9.96570E-14
 -1       830 3.46419E-03 3.27504E-04-7.00876E-15
 -1       831 9.74595E-03-2.89104E-04-4.23082E-14
 -1       832 1.24700E-03 2.90505E-04-9.31828E-16
 -1       833 1.22487E-03-2.45456E-04-1.09837E-15
 -1       834 5.44991E-03 8.52624E-05-1.94756E-14
 -1       835 9.68905E-03-1.44616E-04-4.21984E-14
 -1       836 9.36984E-03-2.51001E-05-4.06308E-14
 -1       837 8.10640E-03 6.16709E-04-3.34392E-14
 -1       838 8.47683E-03 4.20002E-04-3.58244E-14
 -1       839 1.51012E-03-2.73336E-04-1.61504E-15
 -1       840 5.76038E-03 2.27330E-04-2.02052E-14
 -1       841 9.85987E-03-2.46658E-04-4.28288E-14
 -1       842 5.18038E-03-1.63426E-05-1.89076E-14
 -1       843 9.43756E-03-4.06553E-04-4.11381E-14
 -1       844 6.12637E-03 4.07040E-04-2.14106E-14
 -1       845 9.85011E-03-2.08228E-04-4.27279E-14
 -1       846 1.13439E-03 1.12230E-06-1.00967E-15
 -1       847 1.14914E-03 1.71905E-04-9.22930E-16
 -1       848 8.75963E-03 2.88796E-04-3.77373E-14
 -1       849 1.38730E-02-3.42036E-04-9.84559E-14
 -1       850 2.31955E-03 3.41595E-04-3.16646E-15
 -1       851 9.70287E-03-3.51691E-04-4.32586E-14
 -1       852 2.60598E-03 3.42765E-04-3.98538E-15
 -1       853 1.36787E-02-2.14602E-04-9.59365E-14
 -1       854 1.14078E-03 1.12646E-04-9.61755E-16
 -1       855 1.39011E-02-4.24479E-04-9.87227E-14
 -1       856 1.39289E-02-5.06081E-04-9.89779E-14
 -1       857 5.24836E-03-1.83011E-04-1.92325E-14
 -1       858 5.01913E-03-4.01202E-05-1.79464E-14
 -1       859 1.49630E-03 3.10569E-04-1.33652E-15
 -1       860 1.40181E-02-8.77295E-04-9.94856E-14
 -1       861 1.38359E-02-2.51193E-04-9.80609E-14
 -1       862 1.14043E-03-1.10138E-04-1.02350E-15
 -1       863 1.14858E-03-1.68976E-04-1.01732E-15
 -1       864 2.21099E-03-2.37217E-04-3.35920E-15
 -1       865 2.49606E-03-2.39086E-04-4.21826E-15
 -1       866 2.77964E-03-2.37491E-04-5.17272E-15
 -1       867 3.06116E-03-2.33396E-04-6.22275E-15
 -1       868 3.34011E-03-2.27717E-04-7.36885E-15
 -1       869 3.61597E-03-2.21386E-04-8.60858E-15
 -1       870 3.88830E-03-2.15400E-04-9.94328E-15
 -1       871 4.15676E-03-2.10859E-04-1.13707E-14
 -1       872 4.42128E-03-2.08992E-04-1.28894E-14
 -1       873 4.68233E-03-2.11222E-04-1.44983E-14
 -1       874 4.94156E-03-2.19568E-04-1.61958E-14
 -1       875 5.20313E-03-2.37292E-04-1.79827E-14
 -1       876 9.91187E-03-1.87663E-04-4.46371E-14
 -1       877 1.35432E-03-2.00077E-04-1.36318E-15
 -1       878 1.00252E-02-3.97013E-04-4.77103E-14
 -1       879 1.02840E-02-4.14771E-04-5.08391E-14
 -1       880 1.05437E-02-4.38906E-04-5.40435E-14
 -1       881 1.08064E-02-4.67409E-04-5.73217E-14
 -1       882 1.10727E-02-4.98930E-04-6.06735E-14
 -1       883 1.13426E-02-5.32375E-04-6.41000E-14
 -1       884 1.16158E-02-5.66856E-04-6.75933E-14
 -1       885 1.18917E-02-6.01683E-04-7.11352E-14
 -1       886 1.21699E-02-6.36359E-04-7.47342E-14
 -1       887 1.24499E-02-6.70558E-04-7.83909E-14
 -1       888 1.27315E-02-7.04095E-04-8.21047E-14
 -1       889 1.30141E-02-7.36890E-04-8.58762E-14
 -1       890 1.32977E-02-7.68935E-04-8.96916E-14
 -1       891 1.35819E-02-8.00269E-04-9.35583E-14
 -1       892 4.14292E-03 2.40096E-04-1.03665E-14
 -1       893 3.86172E-03 2.46379E-04-9.01486E-15
 -1       894 4.71149E-03 2.37832E-04-1.33525E-14
 -1       895 5.00461E-03 2.47207E-04-1.49866E-14
 -1       896 5.30992E-03 2.69801E-04-1.67108E-14
 -1       897 5.63397E-03 3.13452E-04-1.85284E-14
 -1       898 9.32097E-03 1.51821E-04-4.26953E-14
 -1       899 9.63695E-03 8.86614E-05-4.56864E-14
 -1       900 9.93701E-03 4.27257E-05-4.87605E-14
 -1       901 1.02270E-02 7.77438E-06-5.19228E-14
 -1       902 1.05112E-02-2.03797E-05-5.51660E-14
 -1       903 1.07926E-02-4.43755E-05-5.84923E-14
 -1       904 1.10730E-02-6.59849E-05-6.18937E-14
 -1       905 1.13533E-02-8.64252E-05-6.53624E-14
 -1       906 1.16341E-02-1.06536E-04-6.88902E-14
 -1       907 1.19157E-02-1.26880E-04-7.24806E-14
 -1       908 1.21981E-02-1.47812E-04-7.61250E-14
 -1       909 1.24811E-02-1.69527E-04-7.98208E-14
 -1       910 1.27649E-02-1.92103E-04-8.35636E-14
 -1       911 1.30491E-02-2.15542E-04-8.73530E-14
 -1       912 1.33338E-02-2.39790E-04-9.11843E-14
 -1       913 1.13583E-03-5.39213E-05-1.02066E-15
 -1       914 9.19772E-03 1.00162E-04-4.06491E-14
 -1       915 1.87338E-03 2.61258E-04-2.20645E-15
 -1       916 1.37242E-02-6.03866E-04-9.59419E-14
 -1       917 4.97885E-03-9.83328E-05-1.79101E-14
 -1       918 4.42543E-03 2.36528E-04-1.18130E-14
 -1       919 3.01548E-03 2.67348E-04-5.52865E-15
 -1       920 5.02912E-03-1.51272E-04-1.76821E-14
 -1       921 9.97032E-03-2.37933E-04-4.46556E-14
 -1       922 5.17825E-03 5.21869E-05-1.78777E-14
 -1       923 1.92507E-03-2.30844E-04-2.59626E-15
 -1       924 1.63916E-03-2.18829E-04-1.93083E-15
 -1       925 9.91890E-03-2.85644E-04-4.45626E-14
 -1       926 5.40640E-03 1.67416E-04-1.82132E-14
 -1       927 9.66604E-03-8.17076E-05-4.35963E-14
 -1       928 1.40051E-03 2.26356E-04-1.28557E-15
 -1       929 1.37677E-03 3.21978E-05-1.41778E-15
 -1       930 2.73127E-03 2.71469E-04-4.55769E-15
 -1       931 2.15989E-03 2.69525E-04-2.89458E-15
 -1       932 3.29853E-03 2.61141E-04-6.59470E-15
 -1       933 1.37998E-02-8.38860E-04-9.65108E-14
 -1       934 3.58050E-03 2.53805E-04-7.75643E-15
 -1       935 1.35610E-02-2.74861E-04-9.42452E-14
 -1       936 1.38029E-03-9.19499E-05-1.44840E-15
 -1       937 1.38063E-03 9.45396E-05-1.38602E-15
 -1       938 1.37512E-02-6.84846E-04-9.61556E-14
 -1       939 1.36968E-02-5.23154E-04-9.57162E-14
 -1       940 1.58708E-03 2.46450E-04-1.61398E-15
 -1       941 9.53308E-03 1.88745E-05-4.36150E-14
 -1       942 1.36406E-02-3.60643E-04-9.52128E-14
 -1       943 8.98332E-03 2.42148E-04-3.97886E-14
 -1       944 4.87836E-03-6.24646E-05-1.69384E-14
 -1       945 4.98619E-03 1.55519E-05-1.69507E-14
 -1       946 1.36590E-03-1.45464E-04-1.40973E-15
 -1       947 1.37965E-02-7.76145E-04-9.66000E-14
 -1       948 9.97295E-03-1.45431E-04-4.66069E-14
 -1       949 2.62419E-03-1.71508E-04-4.68503E-15
 -1       950 2.90510E-03-1.69472E-04-5.68376E-15
 -1       951 3.18289E-03-1.65963E-04-6.77753E-15
 -1       952 3.45679E-03-1.61684E-04-7.96515E-15
 -1       953 3.72600E-03-1.57360E-04-9.24778E-15
 -1       954 3.98965E-03-1.53724E-04-1.06242E-14
 -1       955 4.24680E-03-1.51505E-04-1.20930E-14
 -1       956 4.49642E-03-1.51385E-04-1.36513E-14
 -1       957 4.73746E-03-1.53938E-04-1.52993E-14
 -1       958 3.96793E-03 1.75178E-04-9.83429E-15
 -1       959 1.02078E-02-3.44765E-04-4.91479E-14
 -1       960 1.04462E-02-3.69036E-04-5.23084E-14
 -1       961 1.06930E-02-3.96127E-04-5.55466E-14
 -1       962 1.09472E-02-4.25462E-04-5.88584E-14
 -1       963 1.12075E-02-4.56492E-04-6.22414E-14
 -1       964 1.14731E-02-4.88641E-04-6.56969E-14
 -1       965 1.17430E-02-5.21378E-04-6.92106E-14
 -1       966 1.20165E-02-5.54270E-04-7.27792E-14
 -1       967 1.22929E-02-5.86998E-04-7.64076E-14
 -1       968 1.25716E-02-6.19353E-04-8.00923E-14
 -1       969 1.28521E-02-6.51220E-04-8.38303E-14
 -1       970 1.31340E-02-6.82551E-04-8.76215E-14
 -1       971 1.34170E-02-7.13348E-04-9.14567E-14
 -1       972 5.06876E-03 1.63413E-04-1.60237E-14
 -1       973 4.78806E-03 1.59978E-04-1.43380E-14
 -1       974 9.88996E-03-2.32908E-05-4.74549E-14
 -1       975 1.37666E-03-2.96030E-05-1.43821E-15
 -1       976 2.05621E-03-1.68238E-04-2.97196E-15
 -1       977 1.04413E-02-7.81988E-05-5.37844E-14
 -1       978 1.07132E-02-1.00602E-04-5.70701E-14
 -1       979 1.09853E-02-1.21693E-04-6.04331E-14
 -1       980 1.12588E-02-1.42269E-04-6.38657E-14
 -1       981 1.15340E-02-1.62861E-04-6.73652E-14
 -1       982 1.18110E-02-1.83828E-04-7.09272E-14
 -1       983 1.20897E-02-2.05401E-04-7.45444E-14
 -1       984 1.23699E-02-2.27706E-04-7.82117E-14
 -1       985 1.26515E-02-2.50791E-04-8.19285E-14
 -1       986 1.29340E-02-2.74641E-04-8.56991E-14
 -1       987 1.32174E-02-2.99216E-04-8.95069E-14
 -1       988 1.38843E-03 1.58949E-04-1.34253E-15
 -1       989 2.44599E-03 2.72541E-04-3.67908E-15
 -1       990 1.71761E-03 1.90025E-04-1.96517E-15
 -1       991 1.36688E-02-4.41805E-04-9.54703E-14
 -1       992 1.00952E-02-2.27988E-04-4.68949E-14
 -1       993 4.83065E-03-1.10019E-04-1.63926E-14
 -1       994 1.77101E-03-1.61385E-04-2.25927E-15
 -1       995 1.00953E-02-2.77429E-04-4.68582E-14
 -1       996 1.01680E-02-5.31936E-05-5.05772E-14
 -1       997 1.34289E-02-3.29701E-04-9.23508E-14
 -1       998 2.34094E-03-1.71351E-04-3.78139E-15
 -1       999 1.55262E-03 1.75123E-04-1.63934E-15
 -1      1000 4.24079E-03 1.68013E-04-1.12424E-14
 -1      1001 2.85681E-03 2.01238E-04-5.14611E-15
 -1      1002 3.69350E-03 1.82817E-04-8.51954E-15
 -1      1003 1.62263E-03-6.57940E-05-1.93981E-15
 -1      1004 2.00335E-03 1.98952E-04-2.61772E-15
 -1      1005 1.62285E-03 6.84386E-05-1.88647E-15
 -1      1006 1.34652E-02-5.39272E-04-9.24787E-14
 -1      1007 3.13798E-03 1.96496E-04-6.17488E-15
 -1      1008 1.62055E-03 1.30754E-06-1.91990E-15
 -1      1009 4.51336E-03 1.62369E-04-1.27444E-14
 -1      1010 4.80577E-03-1.67186E-05-1.59828E-14
 -1      1011 1.34923E-02-6.19329E-04-9.26939E-14
 -1      1012 5.01013E-03 9.04789E-05-1.63075E-14
 -1      1013 9.92939E-03-8.81723E-05-4.70370E-14
 -1      1014 1.34575E-02-4.10359E-04-9.26112E-14
 -1      1015 3.03253E-03-1.03809E-04-6.19700E-15
 -1      1016 3.30644E-03-1.01826E-04-7.33282E-15
 -1      1017 3.57530E-03-9.98189E-05-8.56200E-15
 -1      1018 3.83802E-03-9.83305E-05-9.88591E-15
 -1      1019 4.09328E-03-9.78715E-05-1.13030E-14
 -1      1020 4.33938E-03-9.89183E-05-1.28117E-14
 -1      1021 4.57388E-03-1.01778E-04-1.44094E-14
 -1      1022 4.67453E-03-6.46818E-05-1.52312E-14
 -1      1023 2.28897E-03 2.03226E-04-3.36642E-15
 -1      1024 1.03471E-02-3.07339E-04-5.05818E-14
 -1      1025 1.05779E-02-3.31831E-04-5.37749E-14
 -1      1026 1.08204E-02-3.58064E-04-5.70456E-14
 -1      1027 1.10718E-02-3.85978E-04-6.03903E-14
 -1      1028 1.13303E-02-4.15150E-04-6.38052E-14
 -1      1029 1.15946E-02-4.45185E-04-6.72869E-14
 -1      1030 1.18637E-02-4.75701E-04-7.08297E-14
 -1      1031 1.21365E-02-5.06398E-04-7.44268E-14
 -1      1032 1.24124E-02-5.37059E-04-7.80801E-14
 -1      1033 1.26907E-02-5.67540E-04-8.17901E-14
 -1      1034 1.29709E-02-5.97762E-04-8.55557E-14
 -1      1035 1.32526E-02-6.27677E-04-8.93652E-14
 -1      1036 3.41691E-03 1.90147E-04-7.29884E-15
 -1      1037 1.90654E-03-6.97771E-05-2.60068E-15
 -1      1038 1.32466E-02-3.79313E-04-8.97730E-14
 -1      1039 1.06395E-02-1.53206E-04-5.56513E-14
 -1      1040 1.14364E-02-2.15743E-04-6.58380E-14
 -1      1041 1.17083E-02-2.37686E-04-6.93728E-14
 -1      1042 1.19830E-02-2.60297E-04-7.29610E-14
 -1      1043 1.22601E-02-2.83600E-04-7.65986E-14
 -1      1044 1.25392E-02-3.07585E-04-8.02880E-14
 -1      1045 1.28199E-02-3.32210E-04-8.40355E-14
 -1      1046 1.30330E-02-3.55565E-04-8.68952E-14
 -1      1047 1.58646E-03 1.21780E-04-1.76483E-15
 -1      1048 4.59227E-03 9.12062E-05-1.36861E-14
 -1      1049 2.57366E-03 2.03720E-04-4.21023E-15
 -1      1050 1.34616E-02-4.74953E-04-9.25515E-14
 -1      1051 2.47340E-03-1.05674E-04-4.20915E-15
 -1      1052 1.01898E-02-1.11239E-04-5.01428E-14
 -1      1053 1.04147E-02-1.32560E-04-5.28659E-14
 -1      1054 4.79966E-03 4.36780E-05-1.53747E-14
 -1      1055 1.09018E-02-1.73623E-04-5.89774E-14
 -1      1056 1.02330E-02-2.04509E-04-4.93881E-14
 -1      1057 1.11675E-02-1.94422E-04-6.23723E-14
 -1      1058 2.19027E-03-8.82700E-05-3.35743E-15
 -1      1059 2.75454E-03-1.05257E-04-5.15526E-15
 -1      1060 3.80468E-03 1.15259E-04-9.29583E-15
 -1      1061 4.07079E-03 1.07575E-04-1.06661E-14
 -1      1062 2.70290E-03 1.35714E-04-4.75799E-15
 -1      1063 4.33300E-03 9.93676E-05-1.21301E-14
 -1      1064 1.86694E-03 3.65914E-05-2.46258E-15
 -1      1065 2.98325E-03 1.32701E-04-5.75060E-15
 -1      1066 1.87098E-03 1.29428E-04-2.38825E-15
 -1      1067 1.32261E-02-5.48565E-04-8.91638E-14
 -1      1068 1.02149E-02-1.61586E-04-4.97723E-14
 -1      1069 1.32227E-02-4.85170E-04-8.92450E-14
 -1      1070 3.43417E-03-4.08993E-05-7.88711E-15
 -1      1071 3.69882E-03-4.18405E-05-9.15743E-15
 -1      1072 3.95644E-03-4.37655E-05-1.05201E-14
 -1      1073 4.20536E-03-4.71377E-05-1.19771E-14
 -1      1074 4.44298E-03-5.23539E-05-1.35264E-14
 -1      1075 2.15594E-03 1.33588E-04-3.10653E-15
 -1      1076 3.53456E-03 1.22178E-04-8.01861E-15
 -1      1077 1.08198E-02-2.21107E-04-5.75205E-14
 -1      1078 1.06856E-02-2.95910E-04-5.52364E-14
 -1      1079 1.09304E-02-3.20108E-04-5.85417E-14
 -1      1080 1.11838E-02-3.45824E-04-6.19199E-14
 -1      1081 1.14437E-02-3.72766E-04-6.53684E-14
 -1      1082 1.17092E-02-4.00466E-04-6.88799E-14
 -1      1083 1.19791E-02-4.28709E-04-7.24495E-14
 -1      1084 1.22527E-02-4.57235E-04-7.60738E-14
 -1      1085 1.25291E-02-4.85926E-04-7.97513E-14
 -1      1086 1.28078E-02-5.14670E-04-8.34850E-14
 -1      1087 1.30166E-02-5.31696E-04-8.63155E-14
 -1      1088 2.43016E-03 1.35768E-04-3.88905E-15
 -1      1089 1.18768E-02-3.12274E-04-7.13760E-14
 -1      1090 1.16061E-02-2.88188E-04-6.78118E-14
 -1      1091 1.24274E-02-3.62248E-04-7.86469E-14
 -1      1092 1.27062E-02-3.88029E-04-8.23671E-14
 -1      1093 4.57169E-03-1.18935E-05-1.42691E-14
 -1      1094 2.60910E-03-4.05221E-05-4.63993E-15
 -1      1095 1.10770E-02-2.42438E-04-6.08792E-14
 -1      1096 2.88821E-03-4.05947E-05-5.62818E-15
 -1      1097 4.42255E-03 3.58673E-05-1.30275E-14
 -1      1098 1.13393E-02-2.64867E-04-6.43132E-14
 -1      1099 1.21508E-02-3.36979E-04-7.49876E-14
 -1      1100 3.16350E-03-4.06330E-05-6.71072E-15
 -1      1101 1.04824E-02-2.67096E-04-5.24709E-14
 -1      1102 4.17305E-03 4.45461E-05-1.15105E-14
 -1      1103 1.29181E-02-4.12060E-04-8.52087E-14
 -1      1104 1.04920E-02-2.29469E-04-5.28821E-14
 -1      1105 3.65336E-03 5.77705E-05-8.75241E-15
 -1      1106 1.06028E-02-2.00960E-04-5.47038E-14
 -1      1107 3.91633E-03 5.17915E-05-1.00845E-14
 -1      1108 3.26064E-03 1.28081E-04-6.83705E-15
 -1      1109 2.32841E-03-2.38269E-05-3.74307E-15
 -1      1110 2.20220E-03 4.58580E-05-3.33085E-15
 -1      1111 2.83444E-03 6.90270E-05-5.32179E-15
 -1      1112 1.04080E-02-1.80944E-04-5.22131E-14
 -1      1113 2.56398E-03 6.95314E-05-4.39956E-15
 -1      1114 1.20407E-02-3.87747E-04-7.33695E-14
 -1      1115 1.10291E-02-2.79439E-04-6.00380E-14
 -1      1116 1.23663E-02-4.06262E-04-7.77176E-14
 -1      1117 1.30131E-02-4.69156E-04-8.63952E-14
 -1      1118 3.38488E-03 6.26379E-05-7.51400E-15
 -1      1119 3.11163E-03 6.63596E-05-6.37127E-15
 -1      1120 3.29994E-03 2.03235E-05-7.22348E-15
 -1      1121 1.07559E-02-2.53357E-04-5.64155E-14
 -1      1122 0.00000E+00 0.00000E+00 0.00000E+00
 -1      1123 0.00000E+00 0.00000E+00 0.00000E+00
 -1      1124 0.00000E+00 0.00000E+00 0.00000E+00
 -1      1125 0.00000E+00 0.00000E+00 0.00000E+00
 -1      1126 0.00000E+00 0.00000E+00 0.00000E+00
 -1      1127 0.00000E+00 0.00000E+00 0.00000E+00
 -1      1128 0.00000E+00 0.00000E+00 0.00000E+00
 -1      1129 0.00000E+00 0.00000E+00 0.00000E+00
 -1      1130 0.00000E+00 0.00000E+00 0.00000E+00
 -1      1131 0.00000E+00 0.00000E+00 0.00000E+00
 -1      1132 0.00000E+00 0.00000E+00 0.00000E+00
 -1      1133 0.00000E+00 0.00000E+00 0.00000E+00
 -1      1134 0.00000E+00 0.00000E+00 0.00000E+00
 -1      1135 0.00000E+00 0.00000E+00 0.00000E+00
 -1      1136 0.00000E+00 0.00000E+00 0.00000E+00
 -1      1137 0.00000E+00 0.00000E+00 0.00000E+00
 -1      1138 0.00000E+00 0.00000E+00 0.00000E+00
 -1      1139 2.10724E-04-1.47596E-04 1.19533E-17
 -1      1140 5.49340E-04-3.34993E-04-3.24583E-17
 -1      1141 8.30369E-04-4.54200E-04-1.77701E-16
 -1      1142 1.09957E-03-5.33123E-04-4.39143E-16
 -1      1143 1.36509E-03-5.87052E-04-8.11512E-16
 -1      1144 1.63063E-03-6.23783E-04-1.29397E-15
 -1      1145 1.89831E-03-6.47878E-04-1.88501E-15
 -1      1146 2.16933E-03-6.62400E-04-2.58345E-15
 -1      1147 2.44449E-03-6.69640E-04-3.39156E-15
 -1      1148 2.72445E-03-6.71429E-04-4.30675E-15
 -1      1149 3.00990E-03-6.69343E-04-5.32664E-15
 -1      1150 3.30165E-03-6.64880E-04-6.44553E-15
 -1      1151 3.60074E-03-6.59651E-04-7.65737E-15
 -1      1152 3.90843E-03-6.55594E-04-8.96681E-15
 -1      1153 4.22610E-03-6.55223E-04-1.03750E-14
 -1      1154 4.55513E-03-6.61899E-04-1.18763E-14
 -1      1155 4.89648E-03-6.80066E-04-1.34714E-14
 -1      1156 5.25001E-03-7.15278E-04-1.51604E-14
 -1      1157 5.61351E-03-7.73697E-04-1.69424E-14
 -1      1158 5.98153E-03-8.60506E-04-1.88137E-14
 -1      1159 6.34469E-03-9.76700E-04-2.07795E-14
 -1      1160 6.69066E-03-1.11462E-03-2.28512E-14
 -1      1161 7.00814E-03-1.25444E-03-2.50265E-14
 -1      1162 7.29357E-03-1.36626E-03-2.73177E-14
 -1      1163 7.55651E-03-1.42087E-03-2.97354E-14
 -1      1164 7.81761E-03-1.40459E-03-3.22703E-14
 -1      1165 8.09856E-03-1.32746E-03-3.49108E-14
 -1      1166 8.41105E-03-1.21720E-03-3.76595E-14
 -1      1167 8.75345E-03-1.10452E-03-4.05216E-14
 -1      1168 9.11524E-03-1.01119E-03-4.34780E-14
 -1      1169 9.48396E-03-9.46676E-04-4.65157E-14
 -1      1170 9.84970E-03-9.11054E-04-4.96379E-14
 -1      1171 1.02065E-02-8.99586E-04-5.28404E-14
 -1      1172 1.05519E-02-9.06200E-04-5.61223E-14
 -1      1173 1.08857E-02-9.25305E-04-5.94900E-14
 -1      1174 1.12088E-02-9.52456E-04-6.29326E-14
 -1      1175 1.15229E-02-9.84395E-04-6.64334E-14
 -1      1176 1.18296E-02-1.01887E-03-6.99852E-14
 -1      1177 1.21304E-02-1.05438E-03-7.35849E-14
 -1      1178 1.24267E-02-1.09001E-03-7.72265E-14
 -1      1179 1.27197E-02-1.12518E-03-8.09347E-14
 -1      1180 1.30102E-02-1.15962E-03-8.47069E-14
 -1      1181 1.32989E-02-1.19319E-03-8.85415E-14
 -1      1182 1.35863E-02-1.22589E-03-9.24276E-14
 -1      1183 1.38729E-02-1.25775E-03-9.63689E-14
 -1      1184 1.41590E-02-1.28888E-03-1.00344E-13
 -1      1185 1.44447E-02-1.31936E-03-1.04356E-13
 -1      1186 1.47303E-02-1.34934E-03-1.08388E-13
 -1      1187 1.50159E-02-1.37896E-03-1.12437E-13
 -1      1188 1.52944E-02-1.40769E-03-1.16428E-13
 -1      1189 2.27412E-04 1.59917E-04 3.06558E-17
 -1      1190 5.51531E-04 3.39599E-04 3.35561E-17
 -1      1191 8.31353E-04 4.56373E-04-4.71086E-17
 -1      1192 1.10056E-03 5.34855E-04-2.24660E-16
 -1      1193 1.36611E-03 5.88843E-04-4.99871E-16
 -1      1194 1.63175E-03 6.25771E-04-8.74531E-16
 -1      1195 1.89951E-03 6.50145E-04-1.34995E-15
 -1      1196 2.17058E-03 6.65063E-04-1.92279E-15
 -1      1197 2.44570E-03 6.72857E-04-2.59749E-15
 -1      1198 2.72545E-03 6.75417E-04-3.37402E-15
 -1      1199 3.01040E-03 6.74391E-04-4.25244E-15
 -1      1200 3.30114E-03 6.71351E-04-5.22707E-15
 -1      1201 3.59833E-03 6.67955E-04-6.29871E-15
 -1      1202 3.90266E-03 6.66104E-04-7.46838E-15
 -1      1203 4.21473E-03 6.68082E-04-8.73398E-15
 -1      1204 4.53479E-03 6.76646E-04-1.01016E-14
 -1      1205 4.86243E-03 6.94980E-04-1.15688E-14
 -1      1206 5.19615E-03 7.26401E-04-1.31343E-14
 -1      1207 5.53282E-03 7.73638E-04-1.48051E-14
 -1      1208 5.86745E-03 8.37549E-04-1.65769E-14
 -1      1209 6.19347E-03 9.15356E-04-1.84440E-14
 -1      1210 6.50408E-03 9.99001E-04-2.04100E-14
 -1      1211 6.79467E-03 1.07485E-03-2.24819E-14
 -1      1212 7.06565E-03 1.12614E-03-2.46724E-14
 -1      1213 7.32389E-03 1.13828E-03-2.69831E-14
 -1      1214 7.58109E-03 1.10484E-03-2.94089E-14
 -1      1215 7.84940E-03 1.03048E-03-3.19475E-14
 -1      1216 8.13672E-03 9.28832E-04-3.46036E-14
 -1      1217 8.44455E-03 8.16739E-04-3.73689E-14
 -1      1218 8.76897E-03 7.08590E-04-4.02332E-14
 -1      1219 9.10340E-03 6.13367E-04-4.31911E-14
 -1      1220 9.44117E-03 5.34603E-04-4.62390E-14
 -1      1221 9.77709E-03 4.71932E-04-4.93639E-14
 -1      1222 1.01079E-02 4.22896E-04-5.25650E-14
 -1      1223 1.04320E-02 3.84335E-04-5.58575E-14
 -1      1224 1.07490E-02 3.53201E-04-5.92374E-14
 -1      1225 1.10595E-02 3.26932E-04-6.26950E-14
 -1      1226 1.13640E-02 3.03550E-04-6.62240E-14
 -1      1227 1.16637E-02 2.81624E-04-6.98078E-14
 -1      1228 1.19595E-02 2.60178E-04-7.34486E-14
 -1      1229 1.22522E-02 2.38586E-04-7.71376E-14
 -1      1230 1.25426E-02 2.16478E-04-8.08798E-14
 -1      1231 1.28313E-02 1.93667E-04-8.46690E-14
 -1      1232 1.31188E-02 1.70086E-04-8.84977E-14
 -1      1233 1.34054E-02 1.45748E-04-9.23625E-14
 -1      1234 1.36915E-02 1.20713E-04-9.62732E-14
 -1      1235 1.39772E-02 9.50728E-05-1.00226E-13
 -1      1236 1.42629E-02 6.89383E-05-1.04219E-13
 -1      1237 1.45485E-02 4.24506E-05-1.08248E-13
 -1      1238 1.48270E-02 1.64703E-05-1.12209E-13
 -1      1239 1.49758E-02-3.83354E-05-1.14293E-13
 -1      1240 1.50019E-02-1.22678E-04-1.14615E-13
 -1      1241 1.50283E-02-2.07073E-04-1.14899E-13
 -1      1242 1.50549E-02-2.91440E-04-1.15164E-13
 -1      1243 1.50818E-02-3.75688E-04-1.15432E-13
 -1      1244 1.51088E-02-4.59049E-04-1.15683E-13
 -1      1245 1.51360E-02-5.42225E-04-1.15944E-13
 -1      1246 1.51635E-02-6.25959E-04-1.16220E-13
 -1      1247 1.51910E-02-7.09609E-04-1.16484E-13
 -1      1248 1.52186E-02-7.93262E-04-1.16716E-13
 -1      1249 1.52462E-02-8.77006E-04-1.16940E-13
 -1      1250 1.52737E-02-9.60197E-04-1.17192E-13
 -1      1251 1.53015E-02-1.04358E-03-1.17455E-13
 -1      1252 1.53297E-02-1.12784E-03-1.17694E-13
 -1      1253 1.53583E-02-1.21222E-03-1.17922E-13
 -1      1254 1.53871E-02-1.29662E-03-1.18128E-13
 -1      1255 1.54159E-02-1.38025E-03-1.18302E-13
 -1      1256 9.68471E-03-1.16106E-04-3.52719E-14
 -1      1257 9.57047E-03 2.64513E-05-3.49404E-14
 -1      1258 9.34989E-03 1.80425E-04-3.43425E-14
 -1      1259 9.03308E-03 3.41169E-04-3.34750E-14
 -1      1260 8.66051E-03 4.88183E-04-3.24502E-14
 -1      1261 8.23924E-03 6.11743E-04-3.12772E-14
 -1      1262 7.79908E-03 6.93009E-04-3.00525E-14
 -1      1263 7.35921E-03 7.17302E-04-2.88403E-14
 -1      1264 6.91696E-03 6.86101E-04-2.76637E-14
 -1      1265 6.50388E-03 6.05670E-04-2.66263E-14
 -1      1266 6.12102E-03 4.90204E-04-2.57235E-14
 -1      1267 5.78993E-03 3.56745E-04-2.49998E-14
 -1      1268 5.51607E-03 2.11753E-04-2.44508E-14
 -1      1269 5.32792E-03 6.64600E-05-2.41148E-14
 -1      1270 5.24294E-03-7.66900E-05-2.40004E-14
 -1      1271 5.26921E-03-2.27173E-04-2.41205E-14
 -1      1272 5.40765E-03-3.79180E-04-2.44761E-14
 -1      1273 5.64272E-03-5.35137E-04-2.50437E-14
 -1      1274 5.94838E-03-6.89339E-04-2.57794E-14
 -1      1275 6.29999E-03-8.30559E-04-2.66433E-14
 -1      1276 6.68596E-03-9.48980E-04-2.76247E-14
 -1      1277 7.09437E-03-1.03028E-03-2.87002E-14
 -1      1278 7.51081E-03-1.06252E-03-2.98252E-14
 -1      1279 7.93122E-03-1.03994E-03-3.09696E-14
 -1      1280 8.35239E-03-9.64648E-04-3.21042E-14
 -1      1281 8.74335E-03-8.49647E-04-3.31345E-14
 -1      1282 9.09667E-03-7.08460E-04-3.40266E-14
 -1      1283 9.38892E-03-5.56564E-04-3.47281E-14
 -1      1284 9.59184E-03-4.07466E-04-3.51796E-14
 -1      1285 9.69393E-03-2.59512E-04-3.53654E-14
 -1      1286 1.66163E-04-1.09760E-04-4.17418E-18
 -1      1287 1.12472E-04-5.65169E-05-2.28089E-17
 -1      1288 1.17443E-04-6.71415E-05-1.76996E-17
 -1      1289 1.08480E-04-4.29649E-05-3.12386E-17
 -1      1290 1.10285E-04-4.91031E-05-2.87856E-17
 -1      1291 2.26285E-04-1.06539E-04-6.78711E-17
 -1      1292 1.06975E-04-3.30501E-05-3.56296E-17
 -1      1293 1.07793E-04-3.77826E-05-3.44234E-17
 -1      1294 2.19279E-04-8.12978E-05-8.26569E-17
 -1      1295 1.06214E-04-2.47936E-05-3.80148E-17
 -1      1296 1.06642E-04-2.88041E-05-3.74185E-17
 -1      1297 2.16149E-04-6.20849E-05-9.08155E-17
 -1      1298 1.05800E-04-1.76148E-05-3.93023E-17
 -1      1299 1.06036E-04-2.11311E-05-3.90313E-17
 -1      1300 2.14485E-04-4.60751E-05-9.53827E-17
 -1      1301 1.05565E-04-1.09030E-05-3.98038E-17
 -1      1302 1.05697E-04-1.42091E-05-3.97360E-17
 -1      1303 2.13529E-04-3.18486E-05-9.75917E-17
 -1      1304 1.05452E-04-4.53713E-06-3.95598E-17
 -1      1305 1.05511E-04-7.69328E-06-3.96682E-17
 -1      1306 2.12987E-04-1.86004E-05-9.80796E-17
 -1      1307 1.05437E-04 1.69048E-06-3.91397E-17
 -1      1308 1.05435E-04-1.41952E-06-3.93972E-17
 -1      1309 2.12742E-04-5.95700E-06-9.75375E-17
 -1      1310 1.05517E-04 7.97425E-06-3.80419E-17
 -1      1311 1.05455E-04 4.81140E-06-3.82859E-17
 -1      1312 2.12749E-04 6.50057E-06-9.57486E-17
 -1      1313 1.05709E-04 1.45158E-05-3.65918E-17
 -1      1314 1.05573E-04 1.11946E-05-3.70797E-17
 -1      1315 2.13007E-04 1.91707E-05-9.28890E-17
 -1      1316 1.06054E-04 2.14229E-05-3.40982E-17
 -1      1317 1.05813E-04 1.78833E-05-3.48571E-17
 -1      1318 2.13561E-04 3.23618E-05-8.85929E-17
 -1      1319 1.06673E-04 2.92397E-05-3.05881E-17
 -1      1320 1.06238E-04 2.51847E-05-3.17536E-17
 -1      1321 2.14537E-04 4.66827E-05-8.21961E-17
 -1      1322 1.07824E-04 3.83525E-05-2.53703E-17
 -1      1323 1.06998E-04 3.35519E-05-2.73897E-17
 -1      1324 2.16237E-04 6.30081E-05-7.32108E-17
 -1      1325 1.10270E-04 4.98411E-05-1.72795E-17
 -1      1326 1.08488E-04 4.36313E-05-2.08031E-17
 -1      1327 2.19379E-04 8.25304E-05-6.00241E-17
 -1      1328 1.16763E-04 6.71789E-05-4.68917E-18
 -1      1329 1.12120E-04 5.73138E-05-1.07878E-17
 -1      1330 2.26278E-04 1.08355E-04-4.06169E-17
 -1      1331 1.57029E-04 1.09306E-04 1.45690E-17
 -1      1332 1.35357E-04 8.55960E-05 2.90024E-18
 -1      1333 2.55622E-04 1.50968E-04-1.74421E-17
 -1      1334 3.33955E-04 2.19353E-04 1.49484E-17
 -1      1335 4.20212E-04-2.59833E-04-4.40457E-17
 -1      1336 5.72932E-04-3.33837E-04-9.25909E-17
 -1      1337 7.19839E-04-3.93274E-04-1.71778E-16
 -1      1338 8.62819E-04-4.41291E-04-2.79019E-16
 -1      1339 6.10936E-04-3.27417E-04-1.61560E-16
 -1      1340 1.00276E-03-4.80957E-04-4.12959E-16
 -1      1341 1.14064E-03-5.13406E-04-5.74410E-16
 -1      1342 9.03996E-04-4.25512E-04-3.83333E-16
 -1      1343 1.27729E-03-5.40484E-04-7.62696E-16
 -1      1344 1.41325E-03-5.62666E-04-9.79035E-16
 -1      1345 1.18667E-03-4.91788E-04-7.12375E-16
 -1      1346 1.54898E-03-5.80992E-04-1.22213E-15
 -1      1347 1.68476E-03-5.95797E-04-1.49234E-15
 -1      1348 1.46438E-03-5.36765E-04-1.14874E-15
 -1      1349 1.82087E-03-6.07681E-04-1.78915E-15
 -1      1350 1.95747E-03-6.16946E-04-2.11238E-15
 -1      1351 1.74058E-03-5.66506E-04-1.69220E-15
 -1      1352 2.09472E-03-6.23968E-04-2.46282E-15
 -1      1353 2.23273E-03-6.29016E-04-2.84034E-15
 -1      1354 2.01740E-03-5.84893E-04-2.34163E-15
 -1      1355 2.37162E-03-6.32346E-04-3.24466E-15
 -1      1356 2.51146E-03-6.34197E-04-3.67555E-15
 -1      1357 2.29617E-03-5.94678E-04-3.09773E-15
 -1      1358 2.65237E-03-6.34755E-04-4.13276E-15
 -1      1359 2.79442E-03-6.34246E-04-4.61583E-15
 -1      1360 2.57783E-03-5.97948E-04-3.95924E-15
 -1      1361 2.93772E-03-6.32817E-04-5.12416E-15
 -1      1362 3.08235E-03-6.30694E-04-5.65849E-15
 -1      1363 2.86316E-03-5.96394E-04-4.92384E-15
 -1      1364 3.22844E-03-6.28015E-04-6.21650E-15
 -1      1365 3.37609E-03-6.25029E-04-6.79806E-15
 -1      1366 3.15291E-03-5.91508E-04-5.98873E-15
 -1      1367 3.52543E-03-6.21892E-04-7.40455E-15
 -1      1368 3.67660E-03-6.18896E-04-8.03349E-15
 -1      1369 3.44786E-03-5.84786E-04-7.15140E-15
 -1      1370 3.82974E-03-6.16256E-04-8.68794E-15
 -1      1371 3.98498E-03-6.14331E-04-9.36686E-15
 -1      1372 3.74889E-03-5.77928E-04-8.41007E-15
 -1      1373 4.14249E-03-6.13438E-04-1.00686E-14
 -1      1374 4.30238E-03-6.14026E-04-1.07955E-14
 -1      1375 4.05694E-03-5.73096E-04-9.76504E-15
 -1      1376 4.46478E-03-6.16568E-04-1.15449E-14
 -1      1377 4.62977E-03-6.21620E-04-1.23176E-14
 -1      1378 4.37293E-03-5.73191E-04-1.12144E-14
 -1      1379 4.79740E-03-6.29858E-04-1.31136E-14
 -1      1380 4.96763E-03-6.41931E-04-1.39330E-14
 -1      1381 4.69763E-03-5.82159E-04-1.27576E-14
 -1      1382 5.14037E-03-6.58731E-04-1.47761E-14
 -1      1383 5.31537E-03-6.80936E-04-1.56423E-14
 -1      1384 5.03132E-03-6.05203E-04-1.43942E-14
 -1      1385 5.49229E-03-7.09547E-04-1.65303E-14
 -1      1386 5.67057E-03-7.45091E-04-1.74423E-14
 -1      1387 5.37346E-03-6.48676E-04-1.61216E-14
 -1      1388 5.84957E-03-7.88362E-04-1.83764E-14
 -1      1389 6.02835E-03-8.39395E-04-1.93335E-14
 -1      1390 5.72210E-03-7.19182E-04-1.79413E-14
 -1      1391 6.20596E-03-8.98167E-04-2.03162E-14
 -1      1392 6.38118E-03-9.63654E-04-2.13240E-14
 -1      1393 6.07344E-03-8.21251E-04-1.98537E-14
 -1      1394 6.55294E-03-1.03429E-03-2.23570E-14
 -1      1395 6.72015E-03-1.10758E-03-2.34178E-14
 -1      1396 6.42167E-03-9.53057E-04-2.18658E-14
 -1      1397 6.88206E-03-1.18003E-03-2.45064E-14
 -1      1398 7.03826E-03-1.24769E-03-2.56206E-14
 -1      1399 6.75990E-03-1.10132E-03-2.39844E-14
 -1      1400 7.18894E-03-1.30603E-03-2.67659E-14
 -1      1401 7.33504E-03-1.35118E-03-2.79421E-14
 -1      1402 7.08280E-03-1.23883E-03-2.62152E-14
 -1      1403 7.47780E-03-1.37962E-03-2.91477E-14
 -1      1404 7.61933E-03-1.38950E-03-3.03842E-14
 -1      1405 7.39068E-03-1.33075E-03-2.85638E-14
 -1      1406 7.76146E-03-1.38052E-03-3.16476E-14
 -1      1407 7.90639E-03-1.35403E-03-3.29398E-14
 -1      1408 7.69159E-03-1.35064E-03-3.10288E-14
 -1      1409 8.05551E-03-1.31315E-03-3.42601E-14
 -1      1410 8.21001E-03-1.26157E-03-3.56042E-14
 -1      1411 7.99772E-03-1.29622E-03-3.36089E-14
 -1      1412 8.37020E-03-1.20386E-03-3.69778E-14
 -1      1413 8.53591E-03-1.14402E-03-3.83797E-14
 -1      1414 8.31817E-03-1.19090E-03-3.62986E-14
 -1      1415 8.70650E-03-1.08582E-03-3.98058E-14
 -1      1416 8.88095E-03-1.03203E-03-4.12580E-14
 -1      1417 8.65448E-03-1.06940E-03-3.90946E-14
 -1      1418 9.05819E-03-9.84526E-04-4.27328E-14
 -1      1419 9.23702E-03-9.44543E-04-4.42294E-14
 -1      1420 9.00200E-03-9.60823E-04-4.19915E-14
 -1      1421 9.41643E-03-9.12294E-04-4.57487E-14
 -1      1422 9.59546E-03-8.87881E-04-4.72865E-14
 -1      1423 9.35389E-03-8.80706E-04-4.49809E-14
 -1      1424 9.77341E-03-8.70589E-04-4.88462E-14
 -1      1425 9.94967E-03-8.59951E-04-5.04267E-14
 -1      1426 9.70411E-03-8.32346E-04-4.80563E-14
 -1      1427 1.01239E-02-8.54970E-04-5.20267E-14
 -1      1428 1.02958E-02-8.54993E-04-5.36450E-14
 -1      1429 1.00486E-02-8.11915E-04-5.12138E-14
 -1      1430 1.04652E-02-8.59104E-04-5.52846E-14
 -1      1431 1.06322E-02-8.66663E-04-5.69451E-14
 -1      1432 1.03853E-02-8.12984E-04-5.44488E-14
 -1      1433 1.07967E-02-8.76968E-04-5.86265E-14
 -1      1434 1.09589E-02-8.89478E-04-6.03256E-14
 -1      1435 1.07135E-02-8.29162E-04-5.77648E-14
 -1      1436 1.11189E-02-9.03707E-04-6.20427E-14
 -1      1437 1.12768E-02-9.19232E-04-6.37751E-14
 -1      1438 1.10336E-02-8.55179E-04-6.11575E-14
 -1      1439 1.14328E-02-9.35743E-04-6.55237E-14
 -1      1440 1.15871E-02-9.52924E-04-6.72845E-14
 -1      1441 1.13463E-02-8.87113E-04-6.46171E-14
 -1      1442 1.17399E-02-9.70594E-04-6.90573E-14
 -1      1443 1.18913E-02-9.88526E-04-7.08438E-14
 -1      1444 1.16529E-02-9.22226E-04-6.81340E-14
 -1      1445 1.20414E-02-1.00662E-03-7.26415E-14
 -1      1446 1.21904E-02-1.02473E-03-7.44493E-14
 -1      1447 1.19543E-02-9.58703E-04-7.16996E-14
 -1      1448 1.23385E-02-1.04279E-03-7.62729E-14
 -1      1449 1.24857E-02-1.06072E-03-7.81104E-14
 -1      1450 1.22516E-02-9.95401E-04-7.53179E-14
 -1      1451 1.26322E-02-1.07850E-03-7.99618E-14
 -1      1452 1.27781E-02-1.09607E-03-8.18327E-14
 -1      1453 1.25456E-02-1.03164E-03-7.89907E-14
 -1      1454 1.29234E-02-1.11343E-03-8.37176E-14
 -1      1455 1.30683E-02-1.13054E-03-8.56166E-14
 -1      1456 1.28372E-02-1.06706E-03-8.27292E-14
 -1      1457 1.32127E-02-1.14743E-03-8.75306E-14
 -1      1458 1.33569E-02-1.16407E-03-8.94597E-14
 -1      1459 1.31270E-02-1.10151E-03-8.65263E-14
 -1      1460 1.35007E-02-1.18048E-03-9.14022E-14
 -1      1461 1.36443E-02-1.19667E-03-9.33541E-14
 -1      1462 1.34153E-02-1.13494E-03-9.03769E-14
 -1      1463 1.37878E-02-1.21264E-03-9.53181E-14
 -1      1464 1.39310E-02-1.22842E-03-9.72965E-14
 -1      1465 1.37027E-02-1.16742E-03-9.42770E-14
 -1      1466 1.40742E-02-1.24400E-03-9.92853E-14
 -1      1467 1.42172E-02-1.25942E-03-1.01276E-13
 -1      1468 1.39894E-02-1.19905E-03-9.82245E-14
 -1      1469 1.43602E-02-1.27468E-03-1.03279E-13
 -1      1470 1.45031E-02-1.28979E-03-1.05292E-13
 -1      1471 1.42757E-02-1.22992E-03-1.02209E-13
 -1      1472 1.46460E-02-1.30479E-03-1.07308E-13
 -1      1473 1.47888E-02-1.31967E-03-1.09326E-13
 -1      1474 1.45616E-02-1.26018E-03-1.06227E-13
 -1      1475 1.49317E-02-1.33448E-03-1.11353E-13
 -1      1476 1.50745E-02-1.34922E-03-1.13390E-13
 -1      1477 1.48474E-02-1.28997E-03-1.10267E-13
 -1      1478 1.52802E-02-1.36626E-03-1.16348E-13
 -1      1479 1.51960E-02-1.32178E-03-1.15250E-13
 -1      1480 6.41150E-04 3.68566E-04-2.69695E-17
 -1      1481 4.91377E-04 3.01329E-04 5.55654E-18
 -1      1482 4.43845E-04 2.63691E-04-1.84179E-17
 -1      1483 9.26336E-04 4.66027E-04-1.62915E-16
 -1      1484 7.85623E-04 4.21845E-04-8.31854E-17
 -1      1485 7.43283E-04 3.86225E-04-1.13923E-16
 -1      1486 1.20127E-03 5.32445E-04-3.93958E-16
 -1      1487 1.06452E-03 5.02333E-04-2.66063E-16
 -1      1488 1.02928E-03 4.68902E-04-3.02696E-16
 -1      1489 1.47240E-03 5.78049E-04-7.22228E-16
 -1      1490 1.33698E-03 5.57462E-04-5.45774E-16
 -1      1491 1.30760E-03 5.25410E-04-5.86608E-16
 -1      1492 1.74326E-03 6.08677E-04-1.15008E-15
 -1      1493 1.60768E-03 5.94993E-04-9.23510E-16
 -1      1494 1.58286E-03 5.63732E-04-9.67949E-16
 -1      1495 2.01580E-03 6.28138E-04-1.67725E-15
 -1      1496 1.87921E-03 6.19626E-04-1.40125E-15
 -1      1497 1.85787E-03 5.88760E-04-1.44816E-15
 -1      1498 2.29118E-03 6.39176E-04-2.30287E-15
 -1      1499 2.15307E-03 6.34566E-04-1.97792E-15
 -1      1500 2.13433E-03 6.03830E-04-2.02743E-15
 -1      1501 2.57021E-03 6.43918E-04-3.03026E-15
 -1      1502 2.43020E-03 6.42211E-04-2.65386E-15
 -1      1503 2.41332E-03 6.11412E-04-2.70607E-15
 -1      1504 2.85350E-03 6.44131E-04-3.85805E-15
 -1      1505 2.71128E-03 6.44477E-04-3.43192E-15
 -1      1506 2.69562E-03 6.13464E-04-3.48453E-15
 -1      1507 3.14165E-03 6.41406E-04-4.78587E-15
 -1      1508 2.99693E-03 6.43022E-04-4.30968E-15
 -1      1509 2.98185E-03 6.11656E-04-4.36290E-15
 -1      1510 3.43527E-03 6.37329E-04-5.80883E-15
 -1      1511 3.28774E-03 6.39414E-04-5.28513E-15
 -1      1512 3.27260E-03 6.07556E-04-5.33863E-15
 -1      1513 3.73498E-03 6.33645E-04-6.92962E-15
 -1      1514 3.58433E-03 6.35298E-04-6.35688E-15
 -1      1515 3.56845E-03 6.02801E-04-6.41094E-15
 -1      1516 4.04131E-03 6.32423E-04-8.14737E-15
 -1      1517 3.88728E-03 6.32566E-04-7.52622E-15
 -1      1518 3.86994E-03 5.99269E-04-7.58024E-15
 -1      1519 4.35464E-03 6.36182E-04-9.46225E-15
 -1      1520 4.19709E-03 6.33498E-04-8.79236E-15
 -1      1521 4.17749E-03 5.99237E-04-8.84576E-15
 -1      1522 4.67490E-03 6.47947E-04-1.08787E-14
 -1      1523 4.51392E-03 6.40873E-04-1.01581E-14
 -1      1524 4.49129E-03 6.05493E-04-1.02111E-14
 -1      1525 5.00128E-03 6.71125E-04-1.23940E-14
 -1      1526 4.83740E-03 6.57939E-04-1.16241E-14
 -1      1527 4.81104E-03 6.21336E-04-1.16751E-14
 -1      1528 5.33187E-03 7.09045E-04-1.40098E-14
 -1      1529 5.16620E-03 6.88148E-04-1.31890E-14
 -1      1530 5.13575E-03 6.50323E-04-1.32387E-14
 -1      1531 5.66339E-03 7.63981E-04-1.57265E-14
 -1      1532 5.49777E-03 7.34451E-04-1.48559E-14
 -1      1533 5.46343E-03 6.95603E-04-1.49034E-14
 -1      1534 5.99119E-03 8.35577E-04-1.75459E-14
 -1      1535 5.82810E-03 7.98022E-04-1.66237E-14
 -1      1536 5.79096E-03 7.58637E-04-1.66674E-14
 -1      1537 6.30989E-03 9.18907E-04-1.94581E-14
 -1      1538 6.15204E-03 8.76433E-04-1.84890E-14
 -1      1539 6.11426E-03 8.37348E-04-1.85299E-14
 -1      1540 6.61481E-03 1.00311E-03-2.14772E-14
 -1      1541 6.46433E-03 9.61857E-04-2.04543E-14
 -1      1542 6.42903E-03 9.24181E-04-2.04947E-14
 -1      1543 6.90404E-03 1.07210E-03-2.36036E-14
 -1      1544 6.76138E-03 1.04056E-03-2.25267E-14
 -1      1545 6.73212E-03 1.00538E-03-2.25653E-14
 -1      1546 7.18020E-03 1.10857E-03-2.58516E-14
 -1      1547 7.04341E-03 1.09519E-03-2.47130E-14
 -1      1548 7.02329E-03 1.06312E-03-2.47490E-14
 -1      1549 7.45047E-03 1.10039E-03-2.82164E-14
 -1      1550 7.31546E-03 1.11024E-03-2.70187E-14
 -1      1551 7.30627E-03 1.08101E-03-2.70496E-14
 -1      1552 7.72433E-03 1.04599E-03-3.06946E-14
 -1      1553 7.58632E-03 1.07843E-03-2.94404E-14
 -1      1554 7.58795E-03 1.05093E-03-2.94678E-14
 -1      1555 8.00989E-03 9.55160E-04-3.32877E-14
 -1      1556 7.86524E-03 1.00410E-03-3.19778E-14
 -1      1557 7.87578E-03 9.76892E-04-3.20018E-14
 -1      1558 8.31105E-03 8.44516E-04-3.59958E-14
 -1      1559 8.15843E-03 9.01200E-04-3.46280E-14
 -1      1560 8.17479E-03 8.73097E-04-3.46484E-14
 -1      1561 8.62698E-03 7.30977E-04-3.88046E-14
 -1      1562 8.46736E-03 7.87254E-04-3.73872E-14
 -1      1563 8.48607E-03 7.57658E-04-3.74018E-14
 -1      1564 8.95356E-03 6.26915E-04-4.17113E-14
 -1      1565 8.78927E-03 6.77294E-04-4.02464E-14
 -1      1566 8.80735E-03 6.46183E-04-4.02564E-14
 -1      1567 9.28547E-03 5.38698E-04-4.47106E-14
 -1      1568 9.11919E-03 5.80699E-04-4.31995E-14
 -1      1569 9.13457E-03 5.48400E-04-4.32045E-14
 -1      1570 9.61786E-03 4.67678E-04-4.77933E-14
 -1      1571 9.45188E-03 5.01129E-04-4.62416E-14
 -1      1572 9.46355E-03 4.68094E-04-4.62411E-14
 -1      1573 9.94720E-03 4.12127E-04-5.09535E-14
 -1      1574 9.78310E-03 4.38161E-04-4.93642E-14
 -1      1575 9.79088E-03 4.04816E-04-4.93607E-14
 -1      1576 1.02714E-02 3.68958E-04-5.41997E-14
 -1      1577 1.01100E-02 3.89208E-04-5.25650E-14
 -1      1578 1.01143E-02 3.55885E-04-5.25605E-14
 -1      1579 1.05895E-02 3.34864E-04-5.75314E-14
 -1      1580 1.04312E-02 3.50969E-04-5.58543E-14
 -1      1581 1.04326E-02 3.17887E-04-5.58470E-14
 -1      1582 1.09015E-02 3.06919E-04-6.09444E-14
 -1      1583 1.07462E-02 3.20280E-04-5.92290E-14
 -1      1584 1.07454E-02 2.87561E-04-5.92170E-14
 -1      1585 1.12079E-02 2.82783E-04-6.44336E-14
 -1      1586 1.10554E-02 2.94492E-04-6.26799E-14
 -1      1587 1.10530E-02 2.62187E-04-6.26629E-14
 -1      1588 1.15094E-02 2.60723E-04-6.79834E-14
 -1      1589 1.13592E-02 2.71577E-04-6.62020E-14
 -1      1590 1.13558E-02 2.39685E-04-6.61781E-14
 -1      1591 1.18069E-02 2.39528E-04-7.15906E-14
 -1      1592 1.16586E-02 2.50074E-04-6.97809E-14
 -1      1593 1.16546E-02 2.18564E-04-6.97509E-14
 -1      1594 1.21011E-02 2.18401E-04-7.52530E-14
 -1      1595 1.19543E-02 2.28992E-04-7.34148E-14
 -1      1596 1.19500E-02 1.97818E-04-7.33815E-14
 -1      1597 1.23927E-02 1.96857E-04-7.89661E-14
 -1      1598 1.22472E-02 2.07702E-04-7.71025E-14
 -1      1599 1.22427E-02 1.76813E-04-7.70655E-14
 -1      1600 1.26824E-02 1.74628E-04-8.27290E-14
 -1      1601 1.25378E-02 1.85838E-04-8.08416E-14
 -1      1602 1.25334E-02 1.55182E-04-8.08022E-14
 -1      1603 1.29707E-02 1.51603E-04-8.65364E-14
 -1      1604 1.28267E-02 1.63218E-04-8.46280E-14
 -1      1605 1.28224E-02 1.32749E-04-8.45849E-14
 -1      1606 1.32580E-02 1.27766E-04-9.03799E-14
 -1      1607 1.31144E-02 1.39784E-04-8.84545E-14
 -1      1608 1.31103E-02 1.09461E-04-8.84088E-14
 -1      1609 1.35445E-02 1.03163E-04-9.42670E-14
 -1      1610 1.34013E-02 1.15556E-04-9.23182E-14
 -1      1611 1.33974E-02 8.53420E-05-9.22705E-14
 -1      1612 1.38306E-02 7.78781E-05-9.81934E-14
 -1      1613 1.36876E-02 9.05995E-05-9.62248E-14
 -1      1614 1.36838E-02 6.04666E-05-9.61749E-14
 -1      1615 1.41165E-02 5.20172E-05-1.02162E-13
 -1      1616 1.39736E-02 6.50120E-05-1.00172E-13
 -1      1617 1.39699E-02 3.49356E-05-1.00118E-13
 -1      1618 1.44022E-02 2.57072E-05-1.06169E-13
 -1      1619 1.42593E-02 3.89092E-05-1.04161E-13
 -1      1620 1.42558E-02 8.86894E-06-1.04102E-13
 -1      1621 1.46878E-02-8.89122E-07-1.10211E-13
 -1      1622 1.45450E-02 1.24330E-05-1.08187E-13
 -1      1623 1.45415E-02-1.75901E-05-1.08123E-13
 -1      1624 1.48401E-02-2.56756E-05-1.12367E-13
 -1      1625 1.48848E-02-1.32187E-04-1.12929E-13
 -1      1626 1.48717E-02-9.00282E-05-1.12777E-13
 -1      1627 1.49112E-02-2.16491E-04-1.13214E-13
 -1      1628 1.48979E-02-1.74345E-04-1.13074E-13
 -1      1629 1.47676E-02-1.41672E-04-1.11247E-13
 -1      1630 1.49379E-02-3.00720E-04-1.13489E-13
 -1      1631 1.49245E-02-2.58619E-04-1.13352E-13
 -1      1632 1.47941E-02-2.25891E-04-1.11537E-13
 -1      1633 1.49649E-02-3.84816E-04-1.13760E-13
 -1      1634 1.49514E-02-3.42787E-04-1.13627E-13
 -1      1635 1.48209E-02-3.09999E-04-1.11818E-13
 -1      1636 1.49917E-02-4.67327E-04-1.14017E-13
 -1      1637 1.49783E-02-4.26092E-04-1.13890E-13
 -1      1638 1.48478E-02-3.93247E-04-1.12089E-13
 -1      1639 1.50192E-02-5.51105E-04-1.14283E-13
 -1      1640 1.50054E-02-5.09235E-04-1.14148E-13
 -1      1641 1.48749E-02-4.76339E-04-1.12353E-13
 -1      1642 1.50467E-02-6.34765E-04-1.14553E-13
 -1      1643 1.50329E-02-5.92947E-04-1.14416E-13
 -1      1644 1.49024E-02-5.60000E-04-1.12618E-13
 -1      1645 1.50743E-02-7.18369E-04-1.14805E-13
 -1      1646 1.50605E-02-6.76569E-04-1.14681E-13
 -1      1647 1.49300E-02-6.43564E-04-1.12880E-13
 -1      1648 1.51019E-02-8.01996E-04-1.15038E-13
 -1      1649 1.50881E-02-7.60176E-04-1.14925E-13
 -1      1650 1.49576E-02-7.27094E-04-1.13129E-13
 -1      1651 1.51295E-02-8.85717E-04-1.15271E-13
 -1      1652 1.51157E-02-8.43841E-04-1.15153E-13
 -1      1653 1.49851E-02-8.10662E-04-1.13363E-13
 -1      1654 1.51568E-02-9.68160E-04-1.15514E-13
 -1      1655 1.51431E-02-9.26919E-04-1.15391E-13
 -1      1656 1.50125E-02-8.93620E-04-1.13595E-13
 -1      1657 1.51848E-02-1.05219E-03-1.15759E-13
 -1      1658 1.51708E-02-1.01015E-03-1.15639E-13
 -1      1659 1.50401E-02-9.76720E-04-1.13830E-13
 -1      1660 1.52131E-02-1.13637E-03-1.15986E-13
 -1      1661 1.51989E-02-1.09426E-03-1.15878E-13
 -1      1662 1.50681E-02-1.06069E-03-1.14062E-13
 -1      1663 1.52417E-02-1.22065E-03-1.16204E-13
 -1      1664 1.52274E-02-1.17850E-03-1.16096E-13
 -1      1665 1.50965E-02-1.14481E-03-1.14280E-13
 -1      1666 1.52260E-02-1.29230E-03-1.15778E-13
 -1      1667 1.52116E-02-1.25015E-03-1.15685E-13
 -1      1668 1.50806E-02-1.21637E-03-1.13866E-13
 -1      1669 1.50204E-02-1.27529E-03-1.12823E-13
 -1      1670 9.67679E-03-1.20896E-04-3.57614E-14
 -1      1671 9.71170E-03-1.64388E-04-3.58688E-14
 -1      1672 9.51319E-03-1.09140E-05-3.53334E-14
 -1      1673 9.60383E-03-6.44168E-05-3.55631E-14
 -1      1674 9.22302E-03 1.25269E-04-3.46573E-14
 -1      1675 9.37017E-03 5.36366E-05-3.50394E-14
 -1      1676 8.86154E-03 3.11275E-04-3.35887E-14
 -1      1677 9.03876E-03 2.27113E-04-3.40782E-14
 -1      1678 8.47154E-03 4.88275E-04-3.24425E-14
 -1      1679 8.65116E-03 4.07858E-04-3.29817E-14
 -1      1680 8.04667E-03 6.49505E-04-3.11335E-14
 -1      1681 8.24069E-03 5.77067E-04-3.17713E-14
 -1      1682 7.66651E-03 7.43865E-04-2.98068E-14
 -1      1683 7.83837E-03 7.10102E-04-3.03929E-14
 -1      1684 7.27738E-03 7.62281E-04-2.84719E-14
 -1      1685 7.45712E-03 7.66284E-04-2.90913E-14
 -1      1686 6.88711E-03 6.91493E-04-2.72485E-14
 -1      1687 7.06374E-03 7.31820E-04-2.77960E-14
 -1      1688 6.51097E-03 5.62756E-04-2.61571E-14
 -1      1689 6.68552E-03 6.28463E-04-2.66331E-14
 -1      1690 6.12752E-03 4.04866E-04-2.52463E-14
 -1      1691 6.30061E-03 4.80878E-04-2.56543E-14
 -1      1692 5.78821E-03 2.48285E-04-2.45307E-14
 -1      1693 5.93853E-03 3.18557E-04-2.48326E-14
 -1      1694 5.49322E-03 9.50209E-05-2.39439E-14
 -1      1695 5.62577E-03 1.60015E-04-2.41705E-14
 -1      1696 5.29698E-03-1.19031E-05-2.36969E-14
 -1      1697 5.37024E-03 3.62449E-05-2.38012E-14
 -1      1698 5.22132E-03-1.12997E-04-2.36073E-14
 -1      1699 5.24026E-03-6.79171E-05-2.36078E-14
 -1      1700 5.28650E-03-2.17279E-04-2.38199E-14
 -1      1701 5.23879E-03-1.68223E-04-2.37025E-14
 -1      1702 5.48074E-03-3.33501E-04-2.42199E-14
 -1      1703 5.37737E-03-2.75867E-04-2.39953E-14
 -1      1704 5.78305E-03-4.75355E-04-2.48240E-14
 -1      1705 5.63505E-03-4.01827E-04-2.44988E-14
 -1      1706 6.11828E-03-6.59417E-04-2.57007E-14
 -1      1707 5.95579E-03-5.79786E-04-2.53129E-14
 -1      1708 6.49346E-03-8.30460E-04-2.66380E-14
 -1      1709 6.32108E-03-7.50209E-04-2.61793E-14
 -1      1710 6.86116E-03-9.81963E-04-2.77286E-14
 -1      1711 6.68981E-03-9.17331E-04-2.72205E-14
 -1      1712 7.23316E-03-1.08140E-03-2.89085E-14
 -1      1713 7.06152E-03-1.04296E-03-2.83525E-14
 -1      1714 7.59510E-03-1.10789E-03-3.01250E-14
 -1      1715 7.42987E-03-1.10539E-03-2.95635E-14
 -1      1716 7.96517E-03-1.05593E-03-3.13830E-14
 -1      1717 7.79209E-03-1.09109E-03-3.08032E-14
 -1      1718 8.35558E-03-9.31637E-04-3.25970E-14
 -1      1719 8.17610E-03-9.96248E-04-3.20428E-14
 -1      1720 8.73228E-03-7.71644E-04-3.36853E-14
 -1      1721 8.56090E-03-8.48095E-04-3.32055E-14
 -1      1722 9.09204E-03-5.90583E-04-3.46909E-14
 -1      1723 8.92363E-03-6.71830E-04-3.42721E-14
 -1      1724 9.40598E-03-4.40924E-04-3.53773E-14
 -1      1725 9.27389E-03-5.07383E-04-3.50849E-14
 -1      1726 9.62331E-03-3.20914E-04-3.57790E-14
 -1      1727 9.53678E-03-3.74776E-04-3.56122E-14
 -1      1728 9.71918E-03-2.15451E-04-3.59973E-14
 -1      1729 9.69165E-03-2.59380E-04-3.59722E-14
 -1      1730 8.69816E-03 3.18380E-04-3.35994E-14
 -1      1731 9.08810E-03 1.19445E-04-3.47981E-14
 -1      1732 1.48366E-02-5.57042E-05-1.12301E-13
 -1      1733 1.47194E-02-6.52233E-05-1.10622E-13
 -1      1734 9.64159E-03-1.24588E-04-3.61845E-14
 -1      1735 9.42055E-03-2.95295E-05-3.56847E-14
 -1      1736 9.72532E-03-1.95144E-04-3.65125E-14
 -1      1737 8.28609E-03 5.19382E-04-3.23099E-14
 -1      1738 7.90338E-03 6.89358E-04-3.08868E-14
 -1      1739 7.54159E-03 7.80898E-04-2.94278E-14
 -1      1740 7.19671E-03 7.70163E-04-2.80386E-14
 -1      1741 6.83508E-03 6.64918E-04-2.67546E-14
 -1      1742 6.46686E-03 5.01263E-04-2.56490E-14
 -1      1743 6.08923E-03 3.20923E-04-2.47465E-14
 -1      1744 5.73915E-03 1.49457E-04-2.39855E-14
 -1      1745 5.44760E-03 2.22125E-05-2.34952E-14
 -1      1746 5.26255E-03-6.42426E-05-2.32698E-14
 -1      1747 5.22039E-03-1.31435E-04-2.32766E-14
 -1      1748 5.33333E-03-2.08848E-04-2.35415E-14
 -1      1749 5.58426E-03-3.11664E-04-2.39828E-14
 -1      1750 5.91593E-03-4.69304E-04-2.47316E-14
 -1      1751 6.28489E-03-6.65981E-04-2.56854E-14
 -1      1752 6.65502E-03-8.59222E-04-2.67331E-14
 -1      1753 7.01017E-03-1.02237E-03-2.79309E-14
 -1      1754 7.34951E-03-1.11780E-03-2.92054E-14
 -1      1755 7.68173E-03-1.12442E-03-3.05392E-14
 -1      1756 8.02533E-03-1.03591E-03-3.18825E-14
 -1      1757 8.39706E-03-8.76014E-04-3.31598E-14
 -1      1758 8.77316E-03-6.81369E-04-3.43670E-14
 -1      1759 9.13950E-03-4.97118E-04-3.53629E-14
 -1      1760 9.45440E-03-3.60312E-04-3.60050E-14
 -1      1761 9.66062E-03-2.60964E-04-3.64421E-14
 -1      1762 2.84538E-04-1.75029E-04-4.00206E-17
 -1      1763 3.32476E-04-1.14851E-04-1.31270E-16
 -1      1764 3.36479E-04-1.31074E-04-1.23355E-16
 -1      1765 3.42275E-04-1.50114E-04-1.13651E-16
 -1      1766 3.51607E-04-1.72162E-04-9.95840E-17
 -1      1767 4.58537E-04-1.85291E-04-1.79503E-16
 -1      1768 3.24910E-04-6.37141E-05-1.47194E-16
 -1      1769 3.26087E-04-7.48791E-05-1.44809E-16
 -1      1770 3.23333E-04-4.26058E-05-1.49566E-16
 -1      1771 3.24031E-04-5.28819E-05-1.48603E-16
 -1      1772 4.36867E-04-7.71037E-05-2.18697E-16
 -1      1773 3.22466E-04-2.30125E-05-1.49972E-16
 -1      1774 3.22836E-04-3.26486E-05-1.50121E-16
 -1      1775 4.34720E-04-4.97293E-05-2.21313E-16
 -1      1776 3.22129E-04-4.18746E-06-1.48685E-16
 -1      1777 3.22241E-04-1.35281E-05-1.49430E-16
 -1      1778 4.33578E-04-2.40949E-05-2.21286E-16
 -1      1779 3.22263E-04 1.45045E-05-1.45351E-16
 -1      1780 3.22136E-04 5.15319E-06-1.47330E-16
 -1      1781 4.33234E-04 7.41140E-07-2.18507E-16
 -1      1782 3.22891E-04 3.36812E-05-1.40689E-16
 -1      1783 3.22504E-04 2.40110E-05-1.43304E-16
 -1      1784 4.33633E-04 2.56083E-05-2.13385E-16
 -1      1785 3.24105E-04 5.36673E-05-1.33560E-16
 -1      1786 3.23399E-04 4.35137E-05-1.37545E-16
 -1      1787 4.34825E-04 5.11160E-05-2.05727E-16
 -1      1788 3.26230E-04 7.60140E-05-1.23220E-16
 -1      1789 3.25005E-04 6.45644E-05-1.28979E-16
 -1      1790 4.37026E-04 7.84060E-05-1.94763E-16
 -1      1791 3.29912E-04 1.01716E-04-1.08759E-16
 -1      1792 3.27782E-04 8.84129E-05-1.16836E-16
 -1      1793 4.40785E-04 1.08984E-04-1.79205E-16
 -1      1794 3.36795E-04 1.33181E-04-8.74816E-17
 -1      1795 3.32713E-04 1.16663E-04-9.94078E-17
 -1      1796 4.47242E-04 1.44571E-04-1.57209E-16
 -1      1797 3.52135E-04 1.75742E-04-5.61075E-17
 -1      1798 3.42870E-04 1.52861E-04-7.34818E-17
 -1      1799 4.59533E-04 1.88673E-04-1.25605E-16
 -1      1800 4.07017E-04 2.31624E-04-3.27700E-17
 -1      1801 3.77723E-04 2.00699E-04-4.76236E-17
 -1      1802 4.95620E-04 2.41115E-04-9.61552E-17
 -1      1803 5.57690E-04 2.99362E-04-7.11237E-17
 -1      1804 3.39542E-04-1.89261E-04-7.15438E-17
 -1      1805 8.52574E-04 4.01456E-04-2.17626E-16
 -1      1806 7.06199E-04 3.55035E-04-1.33005E-16
 -1      1807 6.72839E-04 3.24617E-04-1.49037E-16
 -1      1808 4.58562E-04-2.34187E-04-1.29454E-16
 -1      1809 8.06622E-04-3.68728E-04-3.50821E-16
 -1      1810 9.51970E-04-4.08464E-04-4.92201E-16
 -1      1811 1.09499E-03-4.41554E-04-6.59656E-16
 -1      1812 1.23696E-03-4.68698E-04-8.53728E-16
 -1      1813 1.00408E-03-3.90294E-04-6.05242E-16
 -1      1814 1.37779E-03-4.91248E-04-1.07385E-15
 -1      1815 1.51806E-03-5.09502E-04-1.32101E-15
 -1      1816 1.29040E-03-4.44715E-04-9.98428E-16
 -1      1817 1.65798E-03-5.24350E-04-1.59456E-15
 -1      1818 1.79779E-03-5.36031E-04-1.89421E-15
 -1      1819 1.57393E-03-4.81369E-04-1.49586E-15
 -1      1820 1.93771E-03-5.45125E-04-2.21980E-15
 -1      1821 2.07786E-03-5.51843E-04-2.57209E-15
 -1      1822 1.85634E-03-5.04750E-04-2.09813E-15
 -1      1823 2.21841E-03-5.56580E-04-2.95106E-15
 -1      1824 2.35944E-03-5.59525E-04-3.35578E-15
 -1      1825 2.13892E-03-5.18092E-04-2.80448E-15
 -1      1826 2.50107E-03-5.60961E-04-3.78633E-15
 -1      1827 2.64339E-03-5.61061E-04-4.24297E-15
 -1      1828 2.42263E-03-5.23801E-04-3.61461E-15
 -1      1829 2.78648E-03-5.60044E-04-4.72536E-15
 -1      1830 2.93045E-03-5.58078E-04-5.23193E-15
 -1      1831 2.70823E-03-5.23751E-04-4.52726E-15
 -1      1832 3.07534E-03-5.55352E-04-5.76369E-15
 -1      1833 3.22130E-03-5.52043E-04-6.31968E-15
 -1      1834 2.99635E-03-5.19502E-04-5.53985E-15
 -1      1835 3.36835E-03-5.48346E-04-6.89982E-15
 -1      1836 3.51666E-03-5.44465E-04-7.50451E-15
 -1      1837 3.28761E-03-5.12500E-04-6.65048E-15
 -1      1838 3.66624E-03-5.40637E-04-8.13298E-15
 -1      1839 3.81730E-03-5.37111E-04-8.78566E-15
 -1      1840 3.58261E-03-5.04271E-04-7.85723E-15
 -1      1841 3.96982E-03-5.34216E-04-9.46197E-15
 -1      1842 4.12402E-03-5.32271E-04-1.01623E-14
 -1      1843 3.88201E-03-4.96649E-04-9.16019E-15
 -1      1844 4.27989E-03-5.31739E-04-1.08858E-14
 -1      1845 4.43763E-03-5.33045E-04-1.16334E-14
 -1      1846 4.18654E-03-4.92039E-04-1.05586E-14
 -1      1847 4.59726E-03-5.36830E-04-1.24033E-14
 -1      1848 4.75886E-03-5.43651E-04-1.31960E-14
 -1      1849 4.49700E-03-4.93715E-04-1.20502E-14
 -1      1850 4.92255E-03-5.54343E-04-1.40138E-14
 -1      1851 5.08817E-03-5.69607E-04-1.48536E-14
 -1      1852 4.81429E-03-5.06112E-04-1.36351E-14
 -1      1853 5.25602E-03-5.90406E-04-1.57152E-14
 -1      1854 5.42553E-03-6.17546E-04-1.66001E-14
 -1      1855 5.13935E-03-5.34984E-04-1.53108E-14
 -1      1856 5.59724E-03-6.51900E-04-1.75085E-14
 -1      1857 5.76998E-03-6.94156E-04-1.84390E-14
 -1      1858 5.47305E-03-5.87191E-04-1.70774E-14
 -1      1859 5.94453E-03-7.44642E-04-1.93928E-14
 -1      1860 6.11903E-03-8.03500E-04-2.03722E-14
 -1      1861 5.81569E-03-6.69521E-04-1.89353E-14
 -1      1862 6.29430E-03-8.69875E-04-2.13776E-14
 -1      1863 6.46800E-03-9.42381E-04-2.24071E-14
 -1      1864 6.16589E-03-7.85878E-04-2.08900E-14
 -1      1865 6.64057E-03-1.01838E-03-2.34650E-14
 -1      1866 6.81023E-03-1.09456E-03-2.45513E-14
 -1      1867 6.51911E-03-9.31752E-04-2.29490E-14
 -1      1868 6.97672E-03-1.16657E-03-2.56652E-14
 -1      1869 7.13995E-03-1.22907E-03-2.68077E-14
 -1      1870 6.86756E-03-1.08806E-03-2.51158E-14
 -1      1871 7.29885E-03-1.27771E-03-2.79809E-14
 -1      1872 7.45672E-03-1.30823E-03-2.91828E-14
 -1      1873 7.20362E-03-1.21862E-03-2.74000E-14
 -1      1874 7.61194E-03-1.31837E-03-3.04136E-14
 -1      1875 7.76938E-03-1.30783E-03-3.16729E-14
 -1      1876 7.52765E-03-1.28253E-03-2.98000E-14
 -1      1877 7.92741E-03-1.27822E-03-3.29609E-14
 -1      1878 8.08965E-03-1.23332E-03-3.42770E-14
 -1      1879 7.85071E-03-1.25926E-03-3.23157E-14
 -1      1880 8.25492E-03-1.17743E-03-3.56206E-14
 -1      1881 8.42374E-03-1.11576E-03-3.69901E-14
 -1      1882 8.18460E-03-1.16410E-03-3.49445E-14
 -1      1883 8.59571E-03-1.05282E-03-3.83855E-14
 -1      1884 8.76915E-03-9.92406E-04-3.98078E-14
 -1      1885 8.53160E-03-1.03638E-03-3.76794E-14
 -1      1886 8.94444E-03-9.37450E-04-4.12536E-14
 -1      1887 9.11925E-03-8.89599E-04-4.27235E-14
 -1      1888 8.88497E-03-9.14181E-04-4.05187E-14
 -1      1889 9.29437E-03-8.49958E-04-4.42174E-14
 -1      1890 9.46784E-03-8.18572E-04-4.57316E-14
 -1      1891 9.23648E-03-8.19575E-04-4.34555E-14
 -1      1892 9.64047E-03-7.95252E-04-4.72680E-14
 -1      1893 9.81101E-03-7.79356E-04-4.88250E-14
 -1      1894 9.58105E-03-7.58918E-04-4.64811E-14
 -1      1895 9.98002E-03-7.70062E-04-5.04029E-14
 -1      1896 1.01469E-02-7.66576E-04-5.19995E-14
 -1      1897 9.91695E-03-7.29223E-04-4.95930E-14
 -1      1898 1.03119E-02-7.67935E-04-5.36143E-14
 -1      1899 1.04750E-02-7.73428E-04-5.52496E-14
 -1      1900 1.02444E-02-7.23945E-04-5.27825E-14
 -1      1901 1.06361E-02-7.82202E-04-5.69055E-14
 -1      1902 1.07955E-02-7.93698E-04-5.85810E-14
 -1      1903 1.05642E-02-7.36197E-04-5.60497E-14
 -1      1904 1.09532E-02-8.07261E-04-6.02752E-14
 -1      1905 1.11092E-02-8.22475E-04-6.19855E-14
 -1      1906 1.08774E-02-7.60117E-04-5.93941E-14
 -1      1907 1.12638E-02-8.38884E-04-6.37134E-14
 -1      1908 1.14170E-02-8.56189E-04-6.54568E-14
 -1      1909 1.11850E-02-7.91237E-04-6.28126E-14
 -1      1910 1.15689E-02-8.74094E-04-6.72121E-14
 -1      1911 1.17197E-02-8.92390E-04-6.89809E-14
 -1      1912 1.14880E-02-8.26370E-04-6.62943E-14
 -1      1913 1.18695E-02-9.10901E-04-7.07616E-14
 -1      1914 1.20183E-02-9.29484E-04-7.25560E-14
 -1      1915 1.17870E-02-8.63368E-04-6.98279E-14
 -1      1916 1.21663E-02-9.48043E-04-7.43652E-14
 -1      1917 1.23136E-02-9.66483E-04-7.61870E-14
 -1      1918 1.20829E-02-9.00846E-04-7.34141E-14
 -1      1919 1.24602E-02-9.84763E-04-7.80235E-14
 -1      1920 1.26063E-02-1.00282E-03-7.98748E-14
 -1      1921 1.23761E-02-9.37969E-04-7.70546E-14
 -1      1922 1.27519E-02-1.02065E-03-8.17409E-14
 -1      1923 1.28970E-02-1.03821E-03-8.36249E-14
 -1      1924 1.26674E-02-9.74274E-04-8.07571E-14
 -1      1925 1.30417E-02-1.05552E-03-8.55224E-14
 -1      1926 1.31861E-02-1.07256E-03-8.74337E-14
 -1      1927 1.29571E-02-1.00954E-03-8.45197E-14
 -1      1928 1.33303E-02-1.08934E-03-8.93569E-14
 -1      1929 1.34742E-02-1.10586E-03-9.12917E-14
 -1      1930 1.32457E-02-1.04372E-03-8.83396E-14
 -1      1931 1.36179E-02-1.12214E-03-9.32426E-14
 -1      1932 1.37614E-02-1.13819E-03-9.52003E-14
 -1      1933 1.35333E-02-1.07683E-03-9.22054E-14
 -1      1934 1.39047E-02-1.15403E-03-9.71684E-14
 -1      1935 1.40480E-02-1.16967E-03-9.91509E-14
 -1      1936 1.38203E-02-1.10899E-03-9.61206E-14
 -1      1937 1.41912E-02-1.18512E-03-1.01140E-13
 -1      1938 1.43342E-02-1.20041E-03-1.03138E-13
 -1      1939 1.41068E-02-1.14029E-03-1.00072E-13
 -1      1940 1.44773E-02-1.21555E-03-1.05146E-13
 -1      1941 1.46202E-02-1.23056E-03-1.07159E-13
 -1      1942 1.43930E-02-1.17089E-03-1.04068E-13
 -1      1943 1.47489E-02-1.24558E-03-1.08972E-13
 -1      1944 1.48918E-02-1.26040E-03-1.10998E-13
 -1      1945 1.49219E-02-1.23096E-03-1.11518E-13
 -1      1946 1.46646E-02-1.20105E-03-1.07885E-13
 -1      1947 1.13787E-03 4.71385E-04-4.55758E-16
 -1      1948 9.95923E-04 4.39720E-04-3.24746E-16
 -1      1949 9.64025E-04 4.10429E-04-3.43787E-16
 -1      1950 1.41772E-03 5.19222E-04-7.90045E-16
 -1      1951 1.27812E-03 4.97675E-04-6.10826E-16
 -1      1952 1.24901E-03 4.69707E-04-6.31588E-16
 -1      1953 1.69549E-03 5.51163E-04-1.22175E-15
 -1      1954 1.55667E-03 5.36936E-04-9.93617E-16
 -1      1955 1.53030E-03 5.09930E-04-1.01587E-15
 -1      1956 1.97335E-03 5.71309E-04-1.75165E-15
 -1      1957 1.83430E-03 5.62538E-04-1.47422E-15
 -1      1958 1.81027E-03 5.36154E-04-1.49746E-15
 -1      1959 2.25265E-03 5.82588E-04-2.38076E-15
 -1      1960 2.11275E-03 5.77924E-04-2.05379E-15
 -1      1961 2.09054E-03 5.51908E-04-2.07701E-15
 -1      1962 2.53434E-03 5.87231E-04-3.10841E-15
 -1      1963 2.39315E-03 5.85630E-04-2.73208E-15
 -1      1964 2.37224E-03 5.59791E-04-2.75501E-15
 -1      1965 2.81911E-03 5.87055E-04-3.93584E-15
 -1      1966 2.67630E-03 5.87649E-04-3.50947E-15
 -1      1967 2.65617E-03 5.61833E-04-3.53164E-15
 -1      1968 3.10758E-03 5.83664E-04-4.86198E-15
 -1      1969 2.96284E-03 5.85668E-04-4.38678E-15
 -1      1970 2.94298E-03 5.59735E-04-4.40739E-15
 -1      1971 3.40031E-03 5.78634E-04-5.88428E-15
 -1      1972 3.25337E-03 5.81254E-04-5.36093E-15
 -1      1973 3.23323E-03 5.55066E-04-5.38049E-15
 -1      1974 3.69783E-03 5.73682E-04-7.00393E-15
 -1      1975 3.54843E-03 5.76033E-04-6.43257E-15
 -1      1976 3.52746E-03 5.49435E-04-6.45038E-15
 -1      1977 4.00064E-03 5.70844E-04-8.21917E-15
 -1      1978 3.84854E-03 5.71863E-04-7.59912E-15
 -1      1979 3.82616E-03 5.44673E-04-7.61598E-15
 -1      1980 4.30906E-03 5.72621E-04-9.53240E-15
 -1      1981 4.15412E-03 5.70995E-04-8.86353E-15
 -1      1982 4.12978E-03 5.43000E-04-8.87791E-15
 -1      1983 4.62319E-03 5.82061E-04-1.09444E-14
 -1      1984 4.46541E-03 5.76201E-04-1.02263E-14
 -1      1985 4.43864E-03 5.47157E-04-1.02386E-14
 -1      1986 4.94265E-03 6.02677E-04-1.24557E-14
 -1      1987 4.78231E-03 5.90788E-04-1.16878E-14
 -1      1988 4.75283E-03 5.60441E-04-1.16973E-14
 -1      1989 5.26640E-03 6.38055E-04-1.40662E-14
 -1      1990 5.10413E-03 6.18378E-04-1.32484E-14
 -1      1991 5.07201E-03 5.86525E-04-1.32553E-14
 -1      1992 5.59251E-03 6.90944E-04-1.57748E-14
 -1      1993 5.42940E-03 6.62287E-04-1.49084E-14
 -1      1994 5.39526E-03 6.28885E-04-1.49112E-14
 -1      1995 5.91804E-03 7.61691E-04-1.75850E-14
 -1      1996 5.75569E-03 7.24288E-04-1.66665E-14
 -1      1997 5.72079E-03 6.89628E-04-1.66654E-14
 -1      1998 6.23927E-03 8.46179E-04-1.94940E-14
 -1      1999 6.07958E-03 8.02755E-04-1.85270E-14
 -1      2000 6.04578E-03 7.67636E-04-1.85202E-14
 -1      2001 6.55244E-03 9.34061E-04-2.15084E-14
 -1      2002 6.39716E-03 8.90593E-04-2.04880E-14
 -1      2003 6.36659E-03 8.56365E-04-2.04788E-14
 -1      2004 6.85528E-03 1.00892E-03-2.36298E-14
 -1      2005 6.70520E-03 9.74199E-04-2.25555E-14
 -1      2006 6.67966E-03 9.42455E-04-2.25420E-14
 -1      2007 7.14863E-03 1.05201E-03-2.58670E-14
 -1      2008 7.00282E-03 1.03533E-03-2.47342E-14
 -1      2009 6.98330E-03 1.00721E-03-2.47164E-14
 -1      2010 7.43711E-03 1.04919E-03-2.82213E-14
 -1      2011 7.29286E-03 1.05663E-03-2.70283E-14
 -1      2012 7.27944E-03 1.03215E-03-2.70048E-14
 -1      2013 7.72752E-03 9.97392E-04-3.06909E-14
 -1      2014 7.58141E-03 1.02892E-03-2.94412E-14
 -1      2015 7.57367E-03 1.00689E-03-2.94117E-14
 -1      2016 8.02582E-03 9.06282E-04-3.32769E-14
 -1      2017 7.87526E-03 9.55730E-04-3.19700E-14
 -1      2018 7.87259E-03 9.34402E-04-3.19350E-14
 -1      2019 8.33462E-03 7.93420E-04-3.59724E-14
 -1      2020 8.17884E-03 8.51455E-04-3.46116E-14
 -1      2021 8.18045E-03 8.29469E-04-3.45717E-14
 -1      2022 8.65292E-03 6.76992E-04-3.87715E-14
 -1      2023 8.49279E-03 7.34817E-04-3.73592E-14
 -1      2024 8.49748E-03 7.11549E-04-3.73140E-14
 -1      2025 8.97748E-03 5.70304E-04-4.16689E-14
 -1      2026 8.81475E-03 6.21996E-04-4.02084E-14
 -1      2027 8.82096E-03 5.97452E-04-4.01581E-14
 -1      2028 9.30449E-03 4.80177E-04-4.46566E-14
 -1      2029 9.14101E-03 5.23076E-04-4.31517E-14
 -1      2030 9.14716E-03 4.97554E-04-4.30964E-14
 -1      2031 9.63065E-03 4.08048E-04-4.77299E-14
 -1      2032 9.46793E-03 4.41973E-04-4.61830E-14
 -1      2033 9.47280E-03 4.15827E-04-4.61223E-14
 -1      2034 9.95368E-03 3.52081E-04-5.08863E-14
 -1      2035 9.79273E-03 3.78243E-04-4.92988E-14
 -1      2036 9.79557E-03 3.51773E-04-4.92335E-14
 -1      2037 1.02722E-02 3.09008E-04-5.41253E-14
 -1      2038 1.01136E-02 3.29143E-04-5.24939E-14
 -1      2039 1.01142E-02 3.02577E-04-5.24261E-14
 -1      2040 1.05858E-02 2.75344E-04-5.74502E-14
 -1      2041 1.04296E-02 2.91184E-04-5.57773E-14
 -1      2042 1.04280E-02 2.64680E-04-5.57054E-14
 -1      2043 1.08943E-02 2.48009E-04-6.08530E-14
 -1      2044 1.07406E-02 2.61030E-04-5.91420E-14
 -1      2045 1.07371E-02 2.34689E-04-5.90657E-14
 -1      2046 1.11982E-02 2.24552E-04-6.43292E-14
 -1      2047 1.10468E-02 2.35902E-04-6.25821E-14
 -1      2048 1.10417E-02 2.09779E-04-6.25004E-14
 -1      2049 1.14981E-02 2.03167E-04-6.78672E-14
 -1      2050 1.13487E-02 2.13674E-04-6.60910E-14
 -1      2051 1.13424E-02 1.87794E-04-6.60036E-14
 -1      2052 1.17946E-02 1.82595E-04-7.14651E-14
 -1      2053 1.16468E-02 1.92826E-04-6.96593E-14
 -1      2054 1.16397E-02 1.67189E-04-6.95664E-14
 -1      2055 1.20883E-02 1.62017E-04-7.51186E-14
 -1      2056 1.19418E-02 1.72335E-04-7.32846E-14
 -1      2057 1.19341E-02 1.46925E-04-7.31884E-14
 -1      2058 1.23798E-02 1.40938E-04-7.88274E-14
 -1      2059 1.22343E-02 1.51555E-04-7.69657E-14
 -1      2060 1.22263E-02 1.26348E-04-7.68655E-14
 -1      2061 1.26695E-02 1.19094E-04-8.25830E-14
 -1      2062 1.25248E-02 1.30117E-04-8.06983E-14
 -1      2063 1.25166E-02 1.05086E-04-8.05955E-14
 -1      2064 1.29580E-02 9.63768E-05-8.63854E-14
 -1      2065 1.28139E-02 1.07844E-04-8.44796E-14
 -1      2066 1.28056E-02 8.29600E-05-8.43716E-14
 -1      2067 1.32455E-02 7.27807E-05-9.02230E-14
 -1      2068 1.31018E-02 8.46849E-05-8.83003E-14
 -1      2069 1.30935E-02 5.99209E-05-8.81902E-14
 -1      2070 1.35323E-02 4.83617E-05-9.41029E-14
 -1      2071 1.33890E-02 6.06684E-05-9.21575E-14
 -1      2072 1.33807E-02 3.60006E-05-9.20443E-14
 -1      2073 1.38186E-02 2.32119E-05-9.80223E-14
 -1      2074 1.36755E-02 3.58714E-05-9.60571E-14
 -1      2075 1.36673E-02 1.12783E-05-9.59398E-14
 -1      2076 1.41047E-02-2.55447E-06-1.01984E-13
 -1      2077 1.39617E-02 1.03985E-05-9.99995E-14
 -1      2078 1.39535E-02-1.41384E-05-9.98766E-14
 -1      2079 1.43905E-02-2.88067E-05-1.05982E-13
 -1      2080 1.42476E-02-1.56283E-05-1.03978E-13
 -1      2081 1.42395E-02-4.01254E-05-1.03853E-13
 -1      2082 1.46264E-02-5.36361E-05-1.09308E-13
 -1      2083 1.44835E-02-4.03348E-05-1.07290E-13
 -1      2084 1.44755E-02-6.48113E-05-1.07162E-13
 -1      2085 1.46615E-02-8.79406E-05-1.09783E-13
 -1      2086 1.47040E-02-3.19287E-04-1.10153E-13
 -1      2087 1.46905E-02-2.77311E-04-1.10011E-13
 -1      2088 1.46771E-02-2.35291E-04-1.09868E-13
 -1      2089 1.46637E-02-1.93238E-04-1.09723E-13
 -1      2090 1.45601E-02-2.44712E-04-1.08204E-13
 -1      2091 1.46691E-02-1.61660E-04-1.09830E-13
 -1      2092 1.46560E-02-1.19554E-04-1.09680E-13
 -1      2093 1.45629E-02-1.07976E-04-1.08370E-13
 -1      2094 1.45520E-02-1.71150E-04-1.08163E-13
 -1      2095 1.47308E-02-4.01695E-04-1.10422E-13
 -1      2096 1.47173E-02-3.60512E-04-1.10288E-13
 -1      2097 1.45869E-02-3.27880E-04-1.08488E-13
 -1      2098 1.47582E-02-4.85359E-04-1.10690E-13
 -1      2099 1.47445E-02-4.43547E-04-1.10556E-13
 -1      2100 1.46140E-02-4.10859E-04-1.08759E-13
 -1      2101 1.47857E-02-5.68888E-04-1.10954E-13
 -1      2102 1.47720E-02-5.27137E-04-1.10823E-13
 -1      2103 1.46415E-02-4.94369E-04-1.09027E-13
 -1      2104 1.48133E-02-6.52332E-04-1.11213E-13
 -1      2105 1.47995E-02-6.10615E-04-1.11085E-13
 -1      2106 1.46691E-02-5.77744E-04-1.09289E-13
 -1      2107 1.48409E-02-7.35760E-04-1.11457E-13
 -1      2108 1.48271E-02-6.94043E-04-1.11336E-13
 -1      2109 1.46966E-02-6.61045E-04-1.09543E-13
 -1      2110 1.48684E-02-8.19242E-04-1.11690E-13
 -1      2111 1.48546E-02-7.77489E-04-1.11574E-13
 -1      2112 1.47242E-02-7.44347E-04-1.09784E-13
 -1      2113 1.48956E-02-9.01419E-04-1.11918E-13
 -1      2114 1.48820E-02-8.60313E-04-1.11804E-13
 -1      2115 1.47515E-02-8.27017E-04-1.10014E-13
 -1      2116 1.49234E-02-9.85168E-04-1.12143E-13
 -1      2117 1.49095E-02-9.43273E-04-1.12030E-13
 -1      2118 1.47789E-02-9.09821E-04-1.10235E-13
 -1      2119 1.49515E-02-1.06909E-03-1.12362E-13
 -1      2120 1.49374E-02-1.02711E-03-1.12254E-13
 -1      2121 1.48067E-02-9.93512E-04-1.10451E-13
 -1      2122 1.49799E-02-1.15317E-03-1.12571E-13
 -1      2123 1.49657E-02-1.11111E-03-1.12470E-13
 -1      2124 1.48349E-02-1.07740E-03-1.10663E-13
 -1      2125 9.34253E-03-4.47269E-05-3.60988E-14
 -1      2126 9.48443E-03-9.29455E-05-3.64036E-14
 -1      2127 9.72222E-03-1.88254E-04-3.70618E-14
 -1      2128 9.73058E-03-2.05273E-04-3.71876E-14
 -1      2129 9.60050E-03-1.36379E-04-3.67187E-14
 -1      2130 9.67647E-03-1.62594E-04-3.69217E-14
 -1      2131 8.94303E-03 1.24585E-04-3.50624E-14
 -1      2132 9.12585E-03 3.57921E-05-3.56544E-14
 -1      2133 8.57783E-03 3.21208E-04-3.38127E-14
 -1      2134 8.76546E-03 2.18854E-04-3.44337E-14
 -1      2135 8.84232E-03 1.44899E-04-3.52786E-14
 -1      2136 3.27599E-04-8.70947E-05-1.41475E-16
 -1      2137 3.29690E-04-1.00225E-04-1.36989E-16
 -1      2138 4.46813E-04-1.42372E-04-1.99940E-16
 -1      2139 4.40519E-04-1.07379E-04-2.12124E-16
 -1      2140 7.77892E-03 7.35084E-04-3.05857E-14
 -1      2141 7.93808E-03 6.63328E-04-3.13321E-14
 -1      2142 7.46810E-03 8.06560E-04-2.91157E-14
 -1      2143 7.61625E-03 7.83088E-04-2.98326E-14
 -1      2144 7.12347E-03 7.65494E-04-2.75164E-14
 -1      2145 7.27327E-03 8.00430E-04-2.81866E-14
 -1      2146 6.81258E-03 6.39738E-04-2.62936E-14
 -1      2147 6.96923E-03 7.12962E-04-2.69001E-14
 -1      2148 7.06236E-03 7.48489E-04-2.70436E-14
 -1      2149 6.42135E-03 4.33744E-04-2.50096E-14
 -1      2150 6.59361E-03 5.27130E-04-2.54973E-14
 -1      2151 6.07449E-03 2.57826E-04-2.42044E-14
 -1      2152 6.24895E-03 3.47036E-04-2.46054E-14
 -1      2153 6.36436E-03 3.84605E-04-2.44557E-14
 -1      2154 5.69386E-03 8.40305E-05-2.34528E-14
 -1      2155 5.85698E-03 1.58625E-04-2.38012E-14
 -1      2156 5.38909E-03-3.56621E-05-2.28734E-14
 -1      2157 5.51032E-03 2.86482E-06-2.30061E-14
 -1      2158 5.23819E-03-8.84456E-05-2.27015E-14
 -1      2159 5.29965E-03-6.70131E-05-2.27868E-14
 -1      2160 5.34024E-03-6.32818E-05-2.23022E-14
 -1      2161 5.22674E-03-1.31867E-04-2.27700E-14
 -1      2162 5.20741E-03-1.15438E-04-2.26775E-14
 -1      2163 5.38239E-03-1.94051E-04-2.31848E-14
 -1      2164 5.28967E-03-1.63818E-04-2.30189E-14
 -1      2165 5.66778E-03-3.00370E-04-2.37156E-14
 -1      2166 5.51739E-03-2.44965E-04-2.34511E-14
 -1      2167 6.05750E-03-4.88829E-04-2.46613E-14
 -1      2168 5.88405E-03-3.96529E-04-2.41872E-14
 -1      2169 6.40802E-03-6.79928E-04-2.55858E-14
 -1      2170 6.22923E-03-5.81621E-04-2.51217E-14
 -1      2171 6.16574E-03-5.14809E-04-2.45646E-14
 -1      2172 6.78895E-03-9.00482E-04-2.68322E-14
 -1      2173 6.62387E-03-8.03501E-04-2.62594E-14
 -1      2174 7.12425E-03-1.06424E-03-2.80894E-14
 -1      2175 6.97445E-03-9.93212E-04-2.74721E-14
 -1      2176 7.43473E-03-1.14906E-03-2.94977E-14
 -1      2177 7.29558E-03-1.12113E-03-2.88445E-14
 -1      2178 7.73791E-03-1.12965E-03-3.09303E-14
 -1      2179 7.59602E-03-1.15155E-03-3.02491E-14
 -1      2180 8.08241E-03-1.00428E-03-3.24310E-14
 -1      2181 7.92296E-03-1.07441E-03-3.17646E-14
 -1      2182 8.43657E-03-8.17656E-04-3.38083E-14
 -1      2183 8.26653E-03-9.12218E-04-3.31895E-14
 -1      2184 8.79642E-03-6.19761E-04-3.50027E-14
 -1      2185 8.61693E-03-7.20664E-04-3.44037E-14
 -1      2186 8.49655E-03-7.66143E-04-3.44348E-14
 -1      2187 9.20262E-03-4.20506E-04-3.61445E-14
 -1      2188 9.02987E-03-4.98092E-04-3.57376E-14
 -1      2189 9.50965E-03-3.01642E-04-3.67415E-14
 -1      2190 9.37875E-03-3.49358E-04-3.64957E-14
 -1      2191 9.68749E-03-2.33835E-04-3.71422E-14
 -1      2192 9.61285E-03-2.61954E-04-3.69413E-14
 -1      2193 9.56074E-03-2.68234E-04-3.74372E-14
 -1      2194 8.15975E-03 5.52115E-04-3.22681E-14
 -1      2195 8.34658E-03 4.50088E-04-3.29505E-14
 -1      2196 6.07420E-04-2.94449E-04-2.11636E-16
 -1      2197 8.45460E-03 3.63747E-04-3.37698E-14
 -1      2198 8.03085E-03 6.08352E-04-3.19576E-14
 -1      2199 6.63571E-04-2.88120E-04-2.85647E-16
 -1      2200 9.54539E-03-1.34996E-04-3.71359E-14
 -1      2201 9.70570E-03-1.84463E-04-3.75959E-14
 -1      2202 1.49497E-02-1.18259E-03-1.12056E-13
 -1      2203 9.22370E-03-2.36220E-05-3.63669E-14
 -1      2204 9.73981E-03-2.09994E-04-3.82387E-14
 -1      2205 9.72116E-03-2.16210E-04-3.76892E-14
 -1      2206 9.69699E-03-2.23305E-04-3.81890E-14
 -1      2207 8.89587E-03-5.47941E-04-3.57744E-14
 -1      2208 8.16056E-03-9.58189E-04-3.30687E-14
 -1      2209 7.82365E-03-1.11119E-03-3.14678E-14
 -1      2210 7.51526E-03-1.16285E-03-2.98794E-14
 -1      2211 7.22347E-03-1.10185E-03-2.83746E-14
 -1      2212 6.53445E-03-7.29938E-04-2.56830E-14
 -1      2213 5.78481E-03-3.27369E-04-2.36452E-14
 -1      2214 5.69147E-03-2.75005E-04-2.31124E-14
 -1      2215 5.89446E-03-3.62210E-04-2.35714E-14
 -1      2216 5.44408E-03-1.97319E-04-2.29223E-14
 -1      2217 5.21023E-03-1.02820E-04-2.21949E-14
 -1      2218 5.99598E-03 1.98420E-04-2.36610E-14
 -1      2219 6.72245E-03 5.86126E-04-2.56374E-14
 -1      2220 7.68489E-03 7.67427E-04-3.02651E-14
 -1      2221 7.36713E-03 8.15401E-04-2.85790E-14
 -1      2222 5.59972E-03 2.49890E-05-2.28227E-14
 -1      2223 5.24937E-03-1.33395E-04-2.24158E-14
 -1      2224 6.90861E-03-9.48544E-04-2.69870E-14
 -1      2225 9.28997E-03-3.65566E-04-3.68766E-14
 -1      2226 1.01679E-03 3.92087E-04-4.51408E-16
 -1      2227 8.72148E-04 3.57221E-04-3.25586E-16
 -1      2228 5.47845E-04-5.34868E-05-3.14798E-16
 -1      2229 5.48991E-04-6.97542E-05-3.13958E-16
 -1      2230 5.50530E-04-8.66816E-05-3.12454E-16
 -1      2231 5.52509E-04-1.04324E-04-3.09662E-16
 -1      2232 6.65404E-04-9.24139E-05-4.24939E-16
 -1      2233 5.46269E-04 8.55819E-06-3.09187E-16
 -1      2234 5.46250E-04-6.72928E-06-3.11979E-16
 -1      2235 5.47121E-04 3.95059E-05-3.01124E-16
 -1      2236 5.46557E-04 2.39527E-05-3.05515E-16
 -1      2237 6.60970E-04 1.92182E-05-4.17025E-16
 -1      2238 5.49141E-04 7.12106E-05-2.89834E-16
 -1      2239 5.47973E-04 5.51554E-05-2.96109E-16
 -1      2240 6.62470E-04 5.57907E-05-4.05546E-16
 -1      2241 5.52763E-04 1.05959E-04-2.73585E-16
 -1      2242 5.50726E-04 8.82161E-05-2.82448E-16
 -1      2243 6.65628E-04 9.41546E-05-3.89351E-16
 -1      2244 5.58806E-04 1.44822E-04-2.50857E-16
 -1      2245 5.55422E-04 1.24800E-04-2.63149E-16
 -1      2246 6.71043E-04 1.36075E-04-3.66569E-16
 -1      2247 5.69109E-04 1.90195E-04-2.19524E-16
 -1      2248 5.63317E-04 1.66561E-04-2.36600E-16
 -1      2249 6.79909E-04 1.83072E-04-3.35439E-16
 -1      2250 1.30289E-03 4.45521E-04-7.73443E-16
 -1      2251 1.16020E-03 4.21414E-04-6.00377E-16
 -1      2252 1.07248E-03 3.72816E-04-5.65344E-16
 -1      2253 9.15645E-04-3.39561E-04-5.49203E-16
 -1      2254 1.05996E-03-3.71279E-04-7.22743E-16
 -1      2255 8.33231E-03 4.21123E-04-3.36813E-14
 -1      2256 8.53537E-03 2.98611E-04-3.45575E-14
 -1      2257 1.20352E-03-3.97890E-04-9.21802E-16
 -1      2258 1.34672E-03-4.19815E-04-1.14654E-15
 -1      2259 1.11802E-03-3.51310E-04-8.44715E-16
 -1      2260 1.48939E-03-4.37884E-04-1.39722E-15
 -1      2261 1.63179E-03-4.52361E-04-1.67414E-15
 -1      2262 1.40500E-03-3.94203E-04-1.29879E-15
 -1      2263 1.77397E-03-4.63895E-04-1.97616E-15
 -1      2264 1.91608E-03-4.72701E-04-2.30449E-15
 -1      2265 1.69111E-03-4.22741E-04-1.85449E-15
 -1      2266 2.05821E-03-4.79249E-04-2.65833E-15
 -1      2267 2.20047E-03-4.83721E-04-3.03842E-15
 -1      2268 1.97673E-03-4.40142E-04-2.51303E-15
 -1      2269 2.34293E-03-4.86461E-04-3.44364E-15
 -1      2270 2.48568E-03-4.87628E-04-3.87426E-15
 -1      2271 2.26236E-03-4.48962E-04-3.27321E-15
 -1      2272 2.62878E-03-4.87485E-04-4.33021E-15
 -1      2273 2.77231E-03-4.86179E-04-4.81127E-15
 -1      2274 2.54850E-03-4.51217E-04-4.13459E-15
 -1      2275 2.91631E-03-4.83926E-04-5.31721E-15
 -1      2276 3.06087E-03-4.80870E-04-5.84758E-15
 -1      2277 2.83558E-03-4.48545E-04-5.09553E-15
 -1      2278 3.20602E-03-4.77217E-04-6.40190E-15
 -1      2279 3.35186E-03-4.73122E-04-6.98039E-15
 -1      2280 3.12397E-03-4.42372E-04-6.15481E-15
 -1      2281 3.49839E-03-4.68812E-04-7.58290E-15
 -1      2282 3.64577E-03-4.64474E-04-8.20993E-15
 -1      2283 3.41403E-03-4.34089E-04-7.31038E-15
 -1      2284 3.79397E-03-4.60391E-04-8.86053E-15
 -1      2285 3.94317E-03-4.56809E-04-9.53450E-15
 -1      2286 3.70616E-03-4.25237E-04-8.56200E-15
 -1      2287 4.09337E-03-4.54105E-04-1.02326E-14
 -1      2288 4.24475E-03-4.52616E-04-1.09543E-14
 -1      2289 4.00085E-03-4.17724E-04-9.90835E-15
 -1      2290 4.39736E-03-4.52846E-04-1.16993E-14
 -1      2291 4.55140E-03-4.55274E-04-1.24669E-14
 -1      2292 4.29879E-03-4.14069E-04-1.13492E-14
 -1      2293 4.70700E-03-4.60543E-04-1.32576E-14
 -1      2294 4.86432E-03-4.69336E-04-1.40726E-14
 -1      2295 4.60106E-03-4.17677E-04-1.28830E-14
 -1      2296 5.02371E-03-4.82405E-04-1.49088E-14
 -1      2297 5.18518E-03-5.00691E-04-1.57674E-14
 -1      2298 4.90935E-03-4.33120E-04-1.45077E-14
 -1      2299 5.34938E-03-5.24938E-04-1.66491E-14
 -1      2300 5.51601E-03-5.56375E-04-1.75530E-14
 -1      2301 5.22622E-03-4.66337E-04-1.62231E-14
 -1      2302 5.68609E-03-5.95527E-04-1.84803E-14
 -1      2303 5.85861E-03-6.43545E-04-1.94311E-14
 -1      2304 5.55512E-03-5.24682E-04-1.80279E-14
 -1      2305 6.03474E-03-7.00344E-04-2.04064E-14
 -1      2306 6.21264E-03-7.66395E-04-2.14078E-14
 -1      2307 5.89939E-03-6.16055E-04-1.99269E-14
 -1      2308 6.39318E-03-8.40396E-04-2.24343E-14
 -1      2309 6.57340E-03-9.20129E-04-2.34881E-14
 -1      2310 6.25961E-03-7.46089E-04-2.19237E-14
 -1      2311 6.75343E-03-1.00240E-03-2.45705E-14
 -1      2312 6.93049E-03-1.08188E-03-2.56808E-14
 -1      2313 6.62983E-03-9.09102E-04-2.40270E-14
 -1      2314 7.10391E-03-1.15436E-03-2.68214E-14
 -1      2315 7.27372E-03-1.21012E-03-2.79908E-14
 -1      2316 6.99586E-03-1.07940E-03-2.62449E-14
 -1      2317 7.43840E-03-1.24549E-03-2.91899E-14
 -1      2318 7.60386E-03-1.25624E-03-3.04172E-14
 -1      2319 7.34535E-03-1.20248E-03-2.85805E-14
 -1      2320 7.76775E-03-1.24189E-03-3.16732E-14
 -1      2321 7.93653E-03-1.20591E-03-3.29582E-14
 -1      2322 7.68324E-03-1.22485E-03-3.10326E-14
 -1      2323 8.10816E-03-1.15171E-03-3.42701E-14
 -1      2324 8.28432E-03-1.08788E-03-3.56111E-14
 -1      2325 8.02964E-03-1.14261E-03-3.35985E-14
 -1      2326 8.46368E-03-1.01906E-03-3.69770E-14
 -1      2327 8.64392E-03-9.51661E-04-3.83692E-14
 -1      2328 8.39345E-03-1.00329E-03-3.62755E-14
 -1      2329 8.82502E-03-8.89104E-04-3.97880E-14
 -1      2330 9.00372E-03-8.33935E-04-4.12299E-14
 -1      2331 8.76435E-03-8.63299E-04-3.90580E-14
 -1      2332 9.18098E-03-7.87726E-04-4.26972E-14
 -1      2333 9.35465E-03-7.50342E-04-4.41875E-14
 -1      2334 9.12720E-03-7.54404E-04-4.19414E-14
 -1      2335 9.52595E-03-7.22023E-04-4.56987E-14
 -1      2336 9.69375E-03-7.01613E-04-4.72314E-14
 -1      2337 9.47445E-03-6.84132E-04-4.49178E-14
 -1      2338 9.85913E-03-6.88666E-04-4.87833E-14
 -1      2339 1.00217E-02-6.81952E-04-5.03580E-14
 -1      2340 9.80601E-03-6.47980E-04-4.79789E-14
 -1      2341 1.01822E-02-6.80752E-04-5.19524E-14
 -1      2342 1.03406E-02-6.84081E-04-5.35646E-14
 -1      2343 1.01251E-02-6.38109E-04-5.11224E-14
 -1      2344 1.04973E-02-6.91185E-04-5.51971E-14
 -1      2345 1.06524E-02-7.01357E-04-5.68487E-14
 -1      2346 1.04352E-02-6.47085E-04-5.43460E-14
 -1      2347 1.08061E-02-7.13951E-04-5.85187E-14
 -1      2348 1.09587E-02-7.28477E-04-6.02073E-14
 -1      2349 1.07392E-02-6.68792E-04-5.76445E-14
 -1      2350 1.11101E-02-7.44440E-04-6.19138E-14
 -1      2351 1.12605E-02-7.61507E-04-6.36374E-14
 -1      2352 1.10388E-02-6.98584E-04-6.10179E-14
 -1      2353 1.14101E-02-7.79330E-04-6.53750E-14
 -1      2354 1.15589E-02-7.97689E-04-6.71280E-14
 -1      2355 1.13352E-02-7.33092E-04-6.44591E-14
 -1      2356 1.17069E-02-8.16353E-04-6.88928E-14
 -1      2357 1.18544E-02-8.35178E-04-7.06722E-14
 -1      2358 1.16293E-02-7.69980E-04-6.79607E-14
 -1      2359 1.20012E-02-8.54026E-04-7.24627E-14
 -1      2360 1.21476E-02-8.72804E-04-7.42677E-14
 -1      2361 1.19215E-02-8.07698E-04-7.15157E-14
 -1      2362 1.22934E-02-8.91438E-04-7.60901E-14
 -1      2363 1.24389E-02-9.09871E-04-7.79263E-14
 -1      2364 1.22122E-02-8.45270E-04-7.51239E-14
 -1      2365 1.25840E-02-9.28071E-04-7.97748E-14
 -1      2366 1.27288E-02-9.46006E-04-8.16376E-14
 -1      2367 1.25017E-02-8.82127E-04-7.87934E-14
 -1      2368 1.28733E-02-9.63672E-04-8.35168E-14
 -1      2369 1.30176E-02-9.81052E-04-8.54124E-14
 -1      2370 1.27903E-02-9.17980E-04-8.25180E-14
 -1      2371 1.31616E-02-9.98159E-04-8.73222E-14
 -1      2372 1.33054E-02-1.01499E-03-8.92421E-14
 -1      2373 1.30781E-02-9.52721E-04-8.63045E-14
 -1      2374 1.34491E-02-1.03156E-03-9.11730E-14
 -1      2375 1.35926E-02-1.04787E-03-9.31177E-14
 -1      2376 1.33653E-02-9.86359E-04-9.01427E-14
 -1      2377 1.37360E-02-1.06396E-03-9.50730E-14
 -1      2378 1.38793E-02-1.07981E-03-9.70358E-14
 -1      2379 1.36521E-02-1.01897E-03-9.40240E-14
 -1      2380 1.40225E-02-1.09547E-03-9.90095E-14
 -1      2381 1.41657E-02-1.11094E-03-1.00995E-13
 -1      2382 1.39385E-02-1.05067E-03-9.79506E-14
 -1      2383 1.43087E-02-1.12624E-03-1.02990E-13
 -1      2384 1.44518E-02-1.14138E-03-1.04992E-13
 -1      2385 1.42247E-02-1.08159E-03-1.01914E-13
 -1      2386 1.86893E-03 5.04759E-04-1.70599E-15
 -1      2387 1.72773E-03 4.94635E-04-1.43680E-15
 -1      2388 2.15161E-03 5.18116E-04-2.31834E-15
 -1      2389 2.01019E-03 5.12522E-04-1.99976E-15
 -1      2390 1.92869E-03 4.72726E-04-1.91938E-15
 -1      2391 2.43538E-03 5.24110E-04-3.02803E-15
 -1      2392 2.29332E-03 5.21921E-04-2.66096E-15
 -1      2393 2.21316E-03 4.83793E-04-2.56388E-15
 -1      2394 2.72093E-03 5.24662E-04-3.83635E-15
 -1      2395 2.57789E-03 5.24969E-04-3.41993E-15
 -1      2396 2.49842E-03 4.88023E-04-3.30526E-15
 -1      2397 3.00883E-03 5.21416E-04-4.74296E-15
 -1      2398 2.86454E-03 5.23423E-04-4.27701E-15
 -1      2399 2.78504E-03 4.87227E-04-4.14453E-15
 -1      2400 3.29960E-03 5.15918E-04-5.74574E-15
 -1      2401 3.15382E-03 5.18857E-04-5.23258E-15
 -1      2402 3.07350E-03 4.82980E-04-5.08121E-15
 -1      2403 3.59375E-03 5.09794E-04-6.84496E-15
 -1      2404 3.44621E-03 5.12831E-04-6.28328E-15
 -1      2405 3.36427E-03 4.76802E-04-6.11429E-15
 -1      2406 3.89175E-03 5.04926E-04-8.03989E-15
 -1      2407 3.74223E-03 5.07079E-04-7.43072E-15
 -1      2408 3.65782E-03 4.70322E-04-7.24271E-15
 -1      2409 4.19410E-03 5.03619E-04-9.33201E-15
 -1      2410 4.04235E-03 5.03675E-04-8.67345E-15
 -1      2411 3.95468E-03 4.65458E-04-8.46769E-15
 -1      2412 4.50123E-03 5.08726E-04-1.07219E-14
 -1      2413 4.34705E-03 5.05184E-04-1.00148E-14
 -1      2414 4.25542E-03 4.64575E-04-9.78898E-15
 -1      2415 4.81348E-03 5.23665E-04-1.22087E-14
 -1      2416 4.65674E-03 5.14749E-04-1.14530E-14
 -1      2417 4.56072E-03 4.70605E-04-1.12081E-14
 -1      2418 5.13097E-03 5.52205E-04-1.37943E-14
 -1      2419 4.97166E-03 5.36008E-04-1.29893E-14
 -1      2420 4.87131E-03 4.87060E-04-1.27224E-14
 -1      2421 5.45333E-03 5.97841E-04-1.54772E-14
 -1      2422 5.29172E-03 5.72705E-04-1.46239E-14
 -1      2423 5.18786E-03 5.17812E-04-1.43357E-14
 -1      2424 5.77933E-03 6.62518E-04-1.72591E-14
 -1      2425 5.61617E-03 6.27776E-04-1.63552E-14
 -1      2426 5.51061E-03 5.66452E-04-1.60465E-14
 -1      2427 6.10649E-03 7.44585E-04-1.91427E-14
 -1      2428 5.94316E-03 7.01667E-04-1.81881E-14
 -1      2429 5.83881E-03 6.34915E-04-1.78555E-14
 -1      2430 6.43097E-03 8.36376E-04-2.11293E-14
 -1      2431 6.26947E-03 7.90037E-04-2.01228E-14
 -1      2432 6.16992E-03 7.21213E-04-1.97668E-14
 -1      2433 6.74858E-03 9.22653E-04-2.32218E-14
 -1      2434 6.59084E-03 8.81458E-04-2.21625E-14
 -1      2435 6.49930E-03 8.16479E-04-2.17813E-14
 -1      2436 7.05717E-03 9.82692E-04-2.54268E-14
 -1      2437 6.90377E-03 9.57339E-04-2.43096E-14
 -1      2438 6.82167E-03 9.03075E-04-2.39040E-14
 -1      2439 7.35898E-03 9.97243E-04-2.77461E-14
 -1      2440 7.20820E-03 9.96537E-04-2.65707E-14
 -1      2441 7.13449E-03 9.57629E-04-2.61369E-14
 -1      2442 7.66049E-03 9.57936E-04-3.01825E-14
 -1      2443 7.50894E-03 9.84210E-04-2.89503E-14
 -1      2444 7.44121E-03 9.60068E-04-2.84870E-14
 -1      2445 7.96833E-03 8.72024E-04-3.27381E-14
 -1      2446 7.81308E-03 9.19764E-04-3.14468E-14
 -1      2447 7.74974E-03 9.05053E-04-3.09572E-14
 -1      2448 8.28535E-03 7.58231E-04-3.54024E-14
 -1      2449 8.12570E-03 8.17218E-04-3.40564E-14
 -1      2450 8.06671E-03 8.05235E-04-3.35421E-14
 -1      2451 8.60963E-03 6.37539E-04-3.81730E-14
 -1      2452 8.44693E-03 6.97607E-04-3.67754E-14
 -1      2453 8.39282E-03 6.83603E-04-3.62362E-14
 -1      2454 8.93711E-03 5.25638E-04-4.10414E-14
 -1      2455 8.77341E-03 5.79827E-04-3.95953E-14
 -1      2456 8.72386E-03 5.61836E-04-3.90329E-14
 -1      2457 9.26386E-03 4.30732E-04-4.40014E-14
 -1      2458 9.10093E-03 4.75841E-04-4.25101E-14
 -1      2459 9.05452E-03 4.53745E-04-4.19254E-14
 -1      2460 9.58732E-03 3.54785E-04-4.70488E-14
 -1      2461 9.42623E-03 3.90437E-04-4.55148E-14
 -1      2462 9.38105E-03 3.64895E-04-4.49084E-14
 -1      2463 9.90622E-03 2.96069E-04-5.01817E-14
 -1      2464 9.74745E-03 3.23452E-04-4.86043E-14
 -1      2465 9.70180E-03 2.95258E-04-4.79768E-14
 -1      2466 1.02202E-02 2.51217E-04-5.33986E-14
 -1      2467 1.00639E-02 2.72125E-04-5.17794E-14
 -1      2468 1.00166E-02 2.42011E-04-5.11313E-14
 -1      2469 1.05294E-02 2.16567E-04-5.66996E-14
 -1      2470 1.03754E-02 2.32818E-04-5.50376E-14
 -1      2471 1.03259E-02 2.01403E-04-5.43711E-14
 -1      2472 1.08343E-02 1.88847E-04-6.00786E-14
 -1      2473 1.06824E-02 2.02008E-04-5.83798E-14
 -1      2474 1.06306E-02 1.69793E-04-5.76936E-14
 -1      2475 1.11353E-02 1.65427E-04-6.35291E-14
 -1      2476 1.09852E-02 1.76728E-04-6.17948E-14
 -1      2477 1.09314E-02 1.44102E-04-6.10911E-14
 -1      2478 1.14330E-02 1.44348E-04-6.70457E-14
 -1      2479 1.12845E-02 1.54689E-04-6.52804E-14
 -1      2480 1.12289E-02 1.21940E-04-6.45570E-14
 -1      2481 1.17280E-02 1.24236E-04-7.06219E-14
 -1      2482 1.15808E-02 1.34237E-04-6.88263E-14
 -1      2483 1.15238E-02 1.01563E-04-6.80882E-14
 -1      2484 1.20207E-02 1.04185E-04-7.42556E-14
 -1      2485 1.18746E-02 1.14246E-04-7.24315E-14
 -1      2486 1.18165E-02 8.17728E-05-7.16765E-14
 -1      2487 1.23116E-02 8.36401E-05-7.79479E-14
 -1      2488 1.21664E-02 9.40007E-05-7.60951E-14
 -1      2489 1.21075E-02 6.17964E-05-7.53245E-14
 -1      2490 1.26011E-02 6.23005E-05-8.16870E-14
 -1      2491 1.24565E-02 7.30843E-05-7.98120E-14
 -1      2492 1.23972E-02 4.11763E-05-7.90271E-14
 -1      2493 1.28895E-02 4.00375E-05-8.54746E-14
 -1      2494 1.27454E-02 5.12909E-05-8.35743E-14
 -1      2495 1.26858E-02 1.96780E-05-8.27788E-14
 -1      2496 1.31770E-02 1.68354E-05-8.92976E-14
 -1      2497 1.30333E-02 2.85550E-05-8.73818E-14
 -1      2498 1.29735E-02-2.78155E-06-8.65731E-14
 -1      2499 1.34639E-02-7.25196E-06-9.31643E-14
 -1      2500 1.33205E-02 4.90023E-06-9.12264E-14
 -1      2501 1.32606E-02-2.61888E-05-9.04074E-14
 -1      2502 1.37504E-02-3.21314E-05-9.70665E-14
 -1      2503 1.36072E-02-1.95967E-05-9.51088E-14
 -1      2504 1.35473E-02-5.04712E-05-9.42806E-14
 -1      2505 1.40365E-02-5.76867E-05-1.01012E-13
 -1      2506 1.38935E-02-4.48301E-05-9.90334E-14
 -1      2507 1.38336E-02-7.55265E-05-9.81925E-14
 -1      2508 1.43225E-02-8.37879E-05-1.04996E-13
 -1      2509 1.41795E-02-7.06746E-05-1.03000E-13
 -1      2510 1.41197E-02-1.01231E-04-1.02145E-13
 -1      2511 1.44699E-02-9.64249E-05-1.07062E-13
 -1      2512 1.44973E-02-4.20016E-04-1.07098E-13
 -1      2513 1.44835E-02-3.78279E-04-1.06962E-13
 -1      2514 1.45248E-02-5.03353E-04-1.07364E-13
 -1      2515 1.45110E-02-4.61706E-04-1.07231E-13
 -1      2516 1.43806E-02-4.29156E-04-1.05440E-13
 -1      2517 1.44431E-02-2.54157E-04-1.06544E-13
 -1      2518 1.44296E-02-2.12202E-04-1.06397E-13
 -1      2519 1.44699E-02-3.36841E-04-1.06825E-13
 -1      2520 1.44565E-02-2.95705E-04-1.06685E-13
 -1      2521 1.43261E-02-2.63275E-04-1.04888E-13
 -1      2522 1.43532E-02-3.46164E-04-1.05168E-13
 -1      2523 1.45524E-02-5.86551E-04-1.07622E-13
 -1      2524 1.45386E-02-5.44964E-04-1.07494E-13
 -1      2525 1.44082E-02-5.12292E-04-1.05704E-13
 -1      2526 1.45800E-02-6.69686E-04-1.07875E-13
 -1      2527 1.45662E-02-6.28120E-04-1.07751E-13
 -1      2528 1.44359E-02-5.95288E-04-1.05961E-13
 -1      2529 1.46075E-02-7.52843E-04-1.08111E-13
 -1      2530 1.45938E-02-7.11256E-04-1.07993E-13
 -1      2531 1.44634E-02-6.78235E-04-1.06207E-13
 -1      2532 1.46346E-02-8.34689E-04-1.08333E-13
 -1      2533 1.46211E-02-7.93749E-04-1.08222E-13
 -1      2534 1.44907E-02-7.60526E-04-1.06435E-13
 -1      2535 1.46622E-02-9.18114E-04-1.08551E-13
 -1      2536 1.46484E-02-8.76377E-04-1.08445E-13
 -1      2537 1.45180E-02-8.42953E-04-1.06654E-13
 -1      2538 1.46901E-02-1.00175E-03-1.08763E-13
 -1      2539 1.46761E-02-9.59906E-04-1.08659E-13
 -1      2540 1.45455E-02-9.26294E-04-1.06870E-13
 -1      2541 1.47182E-02-1.08562E-03-1.08963E-13
 -1      2542 1.47041E-02-1.04366E-03-1.08862E-13
 -1      2543 1.45734E-02-1.00989E-03-1.07073E-13
 -1      2544 9.69117E-03-1.87718E-04-3.83368E-14
 -1      2545 9.73509E-03-1.97340E-04-3.84782E-14
 -1      2546 9.14891E-03-1.21563E-05-3.68719E-14
 -1      2547 9.34065E-03-8.44449E-05-3.73291E-14
 -1      2548 1.58643E-03 4.81622E-04-1.19143E-15
 -1      2549 1.44486E-03 4.65503E-04-9.70456E-16
 -1      2550 1.64431E-03 4.52596E-04-1.37215E-15
 -1      2551 1.48211E-02-1.16771E-03-1.10234E-13
 -1      2552 8.73976E-03 1.84120E-04-3.54368E-14
 -1      2553 8.90138E-03 1.00611E-04-3.60772E-14
 -1      2554 8.98884E-03-4.89538E-04-3.67121E-14
 -1      2555 8.77507E-03-6.00553E-04-3.59628E-14
 -1      2556 7.92514E-03 6.60564E-04-3.17182E-14
 -1      2557 8.11108E-03 5.51729E-04-3.26638E-14
 -1      2558 8.22395E-03-9.18908E-04-3.37075E-14
 -1      2559 8.06819E-03-1.00848E-03-3.29401E-14
 -1      2560 5.89030E-03 1.36974E-04-2.29876E-14
 -1      2561 6.08315E-03 2.29919E-04-2.33762E-14
 -1      2562 7.61232E-03 7.95033E-04-2.99513E-14
 -1      2563 7.74172E-03 7.47370E-04-3.07076E-14
 -1      2564 5.46499E-04-2.21053E-05-3.13646E-16
 -1      2565 5.47022E-04-3.76214E-05-3.14744E-16
 -1      2566 6.62328E-04-5.38637E-05-4.26593E-16
 -1      2567 6.60919E-04-1.70564E-05-4.24086E-16
 -1      2568 7.29555E-03 8.18230E-04-2.80822E-14
 -1      2569 7.45060E-03 8.23779E-04-2.90095E-14
 -1      2570 5.53168E-03-5.38234E-06-2.21310E-14
 -1      2571 5.70828E-03 5.84160E-05-2.25647E-14
 -1      2572 6.99396E-03 7.25070E-04-2.64641E-14
 -1      2573 7.11447E-03 7.76098E-04-2.70717E-14
 -1      2574 6.62908E-03 5.31366E-04-2.48857E-14
 -1      2575 6.81567E-03 6.38194E-04-2.56675E-14
 -1      2576 6.87867E-03 6.80303E-04-2.56916E-14
 -1      2577 6.27428E-03 3.30023E-04-2.37587E-14
 -1      2578 6.41856E-03 4.12701E-04-2.41491E-14
 -1      2579 5.28398E-03-1.36139E-04-2.20925E-14
 -1      2580 5.21978E-03-1.21081E-04-2.18505E-14
 -1      2581 5.28562E-03-7.71105E-05-2.17061E-14
 -1      2582 5.36586E-03-5.78406E-05-2.17876E-14
 -1      2583 6.97875E-03-9.84353E-04-2.70082E-14
 -1      2584 6.82805E-03-8.92484E-04-2.63786E-14
 -1      2585 5.18879E-03-1.05046E-04-2.16522E-14
 -1      2586 5.21880E-03-9.62164E-05-2.16758E-14
 -1      2587 5.50253E-03-2.01894E-04-2.26024E-14
 -1      2588 5.37790E-03-1.64441E-04-2.23462E-14
 -1      2589 5.32120E-03-1.44216E-04-2.17781E-14
 -1      2590 6.25904E-03-5.48354E-04-2.43989E-14
 -1      2591 6.10415E-03-4.62712E-04-2.39523E-14
 -1      2592 9.37999E-03-3.22273E-04-3.77260E-14
 -1      2593 9.22129E-03-3.83627E-04-3.73639E-14
 -1      2594 6.64714E-03-7.83117E-04-2.57076E-14
 -1      2595 6.45769E-03-6.64500E-04-2.50481E-14
 -1      2596 6.72658E-03-8.31939E-04-2.57280E-14
 -1      2597 7.30539E-03-1.13668E-03-2.86723E-14
 -1      2598 7.16857E-03-1.08109E-03-2.79213E-14
 -1      2599 7.59080E-03-1.17144E-03-3.03263E-14
 -1      2600 7.46424E-03-1.16924E-03-2.95734E-14
 -1      2601 7.89688E-03-1.08862E-03-3.20387E-14
 -1      2602 7.74606E-03-1.14376E-03-3.11989E-14
 -1      2603 8.57251E-03-7.13632E-04-3.52147E-14
 -1      2604 8.41777E-03-8.06575E-04-3.46088E-14
 -1      2605 9.61513E-03-2.47450E-04-3.82509E-14
 -1      2606 9.51837E-03-2.74286E-04-3.80437E-14
 -1      2607 5.88812E-04-2.34203E-04-2.62526E-16
 -1      2608 7.81687E-04-2.99355E-04-4.18312E-16
 -1      2609 8.41449E-04-2.87464E-04-5.10239E-16
 -1      2610 5.79445E-04-2.06388E-04-2.77922E-16
 -1      2611 7.57751E-04 3.29138E-04-2.36058E-16
 -1      2612 6.11287E-04 2.81050E-04-1.51544E-16
 -1      2613 5.84794E-04 2.54414E-04-1.61153E-16
 -1      2614 8.14015E-04 3.17137E-04-3.19853E-16
 -1      2615 9.49327E-03-1.34877E-04-3.77356E-14
 -1      2616 9.60186E-03-1.63661E-04-3.80584E-14
 -1      2617 7.52192E-03 8.17698E-04-2.94371E-14
 -1      2618 6.70657E-04-1.34034E-04-4.18055E-16
 -1      2619 5.55086E-04-1.22959E-04-3.05488E-16
 -1      2620 5.58361E-04-1.42729E-04-2.99457E-16
 -1      2621 1.35919E-03 4.20541E-04-9.21084E-16
 -1      2622 5.72569E-04 2.24216E-04-1.86374E-16
 -1      2623 9.43032E-03-1.17534E-04-3.82494E-14
 -1      2624 5.64879E-04-1.61346E-04-2.95432E-16
 -1      2625 5.70280E-04-1.84320E-04-2.85769E-16
 -1      2626 6.98495E-04-2.22959E-04-3.94406E-16
 -1      2627 6.81357E-04-1.77193E-04-4.07945E-16
 -1      2628 7.67793E-03-1.16527E-03-3.08836E-14
 -1      2629 8.62201E-03 2.50086E-04-3.53438E-14
 -1      2630 9.46374E-03-2.96692E-04-3.85390E-14
 -1      2631 5.59060E-03-2.28630E-04-2.25285E-14
 -1      2632 5.49982E-03-1.97639E-04-2.19532E-14
 -1      2633 5.67765E-03-2.62058E-04-2.24521E-14
 -1      2634 8.96936E-03 7.44295E-05-3.71889E-14
 -1      2635 9.05108E-03 2.83698E-05-3.70316E-14
 -1      2636 9.19090E-03-2.57702E-05-3.79980E-14
 -1      2637 5.18246E-03-1.08770E-04-2.13325E-14
 -1      2638 5.15974E-03-1.01187E-04-2.08204E-14
 -1      2639 5.18909E-03-1.11190E-04-2.10140E-14
 -1      2640 1.44101E-02-1.26878E-04-1.06197E-13
 -1      2641 1.44046E-02-1.58451E-04-1.06096E-13
 -1      2642 7.07155E-03-1.03738E-03-2.72958E-14
 -1      2643 9.75360E-03-2.05788E-04-3.89816E-14
 -1      2644 9.66289E-03-1.82060E-04-3.89431E-14
 -1      2645 5.22607E-03-8.55380E-05-2.11673E-14
 -1      2646 6.90056E-04 2.46534E-04-2.77664E-16
 -1      2647 9.11131E-03-4.38394E-04-3.75566E-14
 -1      2648 5.98606E-03-4.02202E-04-2.34104E-14
 -1      2649 9.67373E-03-2.34259E-04-3.88017E-14
 -1      2650 8.69668E-03-6.51651E-04-3.61404E-14
 -1      2651 7.98124E-03-1.05797E-03-3.26639E-14
 -1      2652 8.21682E-03 4.90163E-04-3.34331E-14
 -1      2653 6.51617E-03 4.79490E-04-2.41739E-14
 -1      2654 6.14373E-03 2.69558E-04-2.30774E-14
 -1      2655 5.78694E-03 9.74538E-05-2.22860E-14
 -1      2656 8.32362E-03-8.69501E-04-3.44759E-14
 -1      2657 7.84161E-03 7.03986E-04-3.13928E-14
 -1      2658 5.44350E-03-2.72595E-05-2.15334E-14
 -1      2659 7.20883E-03 8.08245E-04-2.74843E-14
 -1      2660 6.36820E-03-6.11344E-04-2.44215E-14
 -1      2661 7.39103E-03-1.16266E-03-2.91064E-14
 -1      2662 1.46774E-02-1.16743E-03-1.08162E-13
 -1      2663 1.47053E-02-1.11917E-03-1.08694E-13
 -1      2664 1.45744E-02-1.08528E-03-1.06898E-13
 -1      2665 1.45487E-02-1.15238E-03-1.06353E-13
 -1      2666 1.42875E-02-1.68054E-04-1.04444E-13
 -1      2667 1.44646E-02-1.10784E-03-1.05267E-13
 -1      2668 7.79809E-04 7.45474E-05-5.25743E-16
 -1      2669 7.78387E-04 5.34159E-05-5.34295E-16
 -1      2670 7.77422E-04 3.22928E-05-5.41491E-16
 -1      2671 7.76939E-04 1.14457E-05-5.47454E-16
 -1      2672 8.95470E-04 4.76949E-05-6.82180E-16
 -1      2673 7.92007E-04 1.68088E-04-4.73119E-16
 -1      2674 7.87796E-04 1.43113E-04-4.89639E-16
 -1      2675 8.04133E-04 2.22677E-04-4.32420E-16
 -1      2676 7.97414E-04 1.94544E-04-4.54416E-16
 -1      2677 9.15369E-04 2.01532E-04-5.93113E-16
 -1      2678 1.13084E-03 3.52686E-04-6.85961E-16
 -1      2679 9.87013E-04 3.25267E-04-5.26841E-16
 -1      2680 9.24156E-03-3.92738E-04-3.85785E-14
 -1      2681 9.03528E-03-4.87667E-04-3.79118E-14
 -1      2682 6.78162E-03-8.78505E-04-2.56766E-14
 -1      2683 6.62589E-03-7.78054E-04-2.50205E-14
 -1      2684 8.03737E-04 2.72481E-04-3.71597E-16
 -1      2685 1.32157E-03-3.50968E-04-1.20006E-15
 -1      2686 1.46508E-03-3.67860E-04-1.45432E-15
 -1      2687 1.60844E-03-3.81634E-04-1.73373E-15
 -1      2688 1.75177E-03-3.92514E-04-2.03823E-15
 -1      2689 1.52637E-03-3.40828E-04-1.61337E-15
 -1      2690 1.89499E-03-4.00948E-04-2.36834E-15
 -1      2691 2.03819E-03-4.07117E-04-2.72368E-15
 -1      2692 1.81338E-03-3.61813E-04-2.22477E-15
 -1      2693 2.18135E-03-4.11386E-04-3.10444E-15
 -1      2694 2.32454E-03-4.13907E-04-3.51010E-15
 -1      2695 2.10022E-03-3.73792E-04-2.93681E-15
 -1      2696 2.46777E-03-4.14968E-04-3.94042E-15
 -1      2697 2.61109E-03-4.14701E-04-4.39574E-15
 -1      2698 2.38687E-03-3.78725E-04-3.74794E-15
 -1      2699 2.75450E-03-4.13344E-04-4.87615E-15
 -1      2700 2.89808E-03-4.11016E-04-5.38062E-15
 -1      2701 2.67336E-03-3.78249E-04-4.65794E-15
 -1      2702 3.04179E-03-4.07931E-04-5.90944E-15
 -1      2703 3.18573E-03-4.04208E-04-6.46201E-15
 -1      2704 2.95976E-03-3.73761E-04-5.66566E-15
 -1      2705 3.32986E-03-4.00061E-04-7.03910E-15
 -1      2706 3.47427E-03-3.95626E-04-7.64063E-15
 -1      2707 3.24616E-03-3.66537E-04-6.76993E-15
 -1      2708 3.61894E-03-3.91147E-04-8.26520E-15
 -1      2709 3.76400E-03-3.86794E-04-8.91412E-15
 -1      2710 3.53263E-03-3.57878E-04-7.97077E-15
 -1      2711 3.90940E-03-3.82867E-04-9.58683E-15
 -1      2712 4.05532E-03-3.79602E-04-1.02823E-14
 -1      2713 3.81935E-03-3.49258E-04-9.26635E-15
 -1      2714 4.20177E-03-3.77376E-04-1.10012E-14
 -1      2715 4.34897E-03-3.76535E-04-1.17436E-14
 -1      2716 4.10670E-03-3.42507E-04-1.06555E-14
 -1      2717 4.49703E-03-3.77542E-04-1.25097E-14
 -1      2718 4.64625E-03-3.80926E-04-1.32981E-14
 -1      2719 4.39545E-03-3.39995E-04-1.21379E-14
 -1      2720 4.79689E-03-3.87215E-04-1.41089E-14
 -1      2721 4.94936E-03-3.97243E-04-1.49425E-14
 -1      2722 4.68711E-03-3.44869E-04-1.37126E-14
 -1      2723 5.10421E-03-4.11544E-04-1.57983E-14
 -1      2724 5.26186E-03-4.31402E-04-1.66771E-14
 -1      2725 4.98448E-03-3.61375E-04-1.53761E-14
 -1      2726 5.42329E-03-4.57235E-04-1.75776E-14
 -1      2727 5.58875E-03-4.91069E-04-1.85013E-14
 -1      2728 5.29218E-03-3.95326E-04-1.71299E-14
 -1      2729 5.75972E-03-5.33212E-04-1.94492E-14
 -1      2730 5.93544E-03-5.85756E-04-2.04209E-14
 -1      2731 5.61700E-03-4.55276E-04-1.89747E-14
 -1      2732 6.11800E-03-6.47854E-04-2.14174E-14
 -1      2733 6.30432E-03-7.22489E-04-2.24393E-14
 -1      2734 5.96706E-03-5.52346E-04-2.09141E-14
 -1      2735 6.56247E-03-8.22233E-04-2.39601E-14
 -1      2736 6.75638E-03-9.17228E-04-2.50495E-14
 -1      2737 6.94869E-03-1.01330E-03-2.61673E-14
 -1      2738 7.24759E-03-1.15750E-03-2.79749E-14
 -1      2739 7.42339E-03-1.20050E-03-2.91704E-14
 -1      2740 7.59376E-03-1.21163E-03-3.03949E-14
 -1      2741 7.76918E-03-1.19107E-03-3.16479E-14
 -1      2742 7.94548E-03-1.14449E-03-3.29330E-14
 -1      2743 8.12894E-03-1.07746E-03-3.42435E-14
 -1      2744 8.32206E-03-9.87840E-04-3.55764E-14
 -1      2745 8.51358E-03-9.08538E-04-3.69408E-14
 -1      2746 8.70613E-03-8.34751E-04-3.83310E-14
 -1      2747 8.89378E-03-7.70589E-04-3.97467E-14
 -1      2748 8.65090E-03-8.06577E-04-3.76056E-14
 -1      2749 9.07807E-03-7.18117E-04-4.11876E-14
 -1      2750 9.25564E-03-6.75733E-04-4.26516E-14
 -1      2751 9.03332E-03-6.79102E-04-4.04358E-14
 -1      2752 9.42839E-03-6.44165E-04-4.41385E-14
 -1      2753 9.59546E-03-6.21197E-04-4.56478E-14
 -1      2754 9.38772E-03-6.01791E-04-4.33614E-14
 -1      2755 9.75835E-03-6.06566E-04-4.71769E-14
 -1      2756 9.91721E-03-5.98204E-04-4.87248E-14
 -1      2757 9.71608E-03-5.63865E-04-4.63757E-14
 -1      2758 1.00731E-02-5.95757E-04-5.02952E-14
 -1      2759 1.02264E-02-5.97817E-04-5.18855E-14
 -1      2760 1.00261E-02-5.53299E-04-4.94714E-14
 -1      2761 1.03778E-02-6.03865E-04-5.34958E-14
 -1      2762 1.05277E-02-6.13019E-04-5.51247E-14
 -1      2763 1.03249E-02-5.61331E-04-5.26488E-14
 -1      2764 1.06763E-02-6.24758E-04-5.67743E-14
 -1      2765 1.08240E-02-6.38525E-04-5.84406E-14
 -1      2766 1.06173E-02-5.81786E-04-5.59046E-14
 -1      2767 1.09710E-02-6.53869E-04-6.01244E-14
 -1      2768 1.11174E-02-6.70440E-04-6.18273E-14
 -1      2769 1.09066E-02-6.10315E-04-5.92338E-14
 -1      2770 1.12633E-02-6.87885E-04-6.35468E-14
 -1      2771 1.14089E-02-7.05983E-04-6.52819E-14
 -1      2772 1.11942E-02-6.43777E-04-6.26350E-14
 -1      2773 1.15541E-02-7.24478E-04-6.70294E-14
 -1      2774 1.16990E-02-7.43231E-04-6.87934E-14
 -1      2775 1.14811E-02-6.79934E-04-6.61013E-14
 -1      2776 1.18437E-02-7.62070E-04-7.05704E-14
 -1      2777 1.19882E-02-7.80911E-04-7.23575E-14
 -1      2778 1.17677E-02-7.17236E-04-6.96252E-14
 -1      2779 1.21325E-02-7.99646E-04-7.41631E-14
 -1      2780 1.22766E-02-8.18227E-04-7.59835E-14
 -1      2781 1.20542E-02-7.54656E-04-7.32038E-14
 -1      2782 1.24206E-02-8.36596E-04-7.78136E-14
 -1      2783 1.25644E-02-8.54725E-04-7.96591E-14
 -1      2784 1.23405E-02-7.91555E-04-7.68354E-14
 -1      2785 1.27081E-02-8.72592E-04-8.15227E-14
 -1      2786 1.28517E-02-8.90185E-04-8.33974E-14
 -1      2787 1.26268E-02-8.27576E-04-8.05266E-14
 -1      2788 1.29952E-02-9.07502E-04-8.52895E-14
 -1      2789 1.31386E-02-9.24541E-04-8.71947E-14
 -1      2790 1.29130E-02-8.62558E-04-8.42792E-14
 -1      2791 1.32820E-02-9.41314E-04-8.91113E-14
 -1      2792 1.34252E-02-9.57825E-04-9.10412E-14
 -1      2793 1.31991E-02-8.96468E-04-8.80833E-14
 -1      2794 1.35684E-02-9.74093E-04-9.29804E-14
 -1      2795 1.37116E-02-9.90125E-04-9.49318E-14
 -1      2796 1.34852E-02-9.29355E-04-9.19388E-14
 -1      2797 1.38547E-02-1.00595E-03-9.68941E-14
 -1      2798 1.39977E-02-1.02156E-03-9.88641E-14
 -1      2799 1.37711E-02-9.61316E-04-9.58374E-14
 -1      2800 1.41407E-02-1.03700E-03-1.00843E-13
 -1      2801 1.42837E-02-1.05226E-03-1.02832E-13
 -1      2802 1.40570E-02-9.92468E-04-9.97747E-14
 -1      2803 2.27514E-03 4.49008E-04-2.81364E-15
 -1      2804 2.13225E-03 4.45475E-04-2.46340E-15
 -1      2805 1.41698E-02-2.08614E-04-1.02757E-13
 -1      2806 1.41446E-02-1.54978E-04-1.02455E-13
 -1      2807 1.40017E-02-1.42025E-04-1.00474E-13
 -1      2808 1.98944E-03 4.40091E-04-2.13764E-15
 -1      2809 1.84664E-03 4.32687E-04-1.83597E-15
 -1      2810 2.05093E-03 4.07044E-04-2.36061E-15
 -1      2811 2.84852E-03 4.49649E-04-4.45730E-15
 -1      2812 2.70479E-03 4.51131E-04-4.01004E-15
 -1      2813 3.13703E-03 4.44562E-04-5.42378E-15
 -1      2814 2.99257E-03 4.47412E-04-4.92831E-15
 -1      2815 2.91133E-03 4.12080E-04-4.77382E-15
 -1      2816 3.42731E-03 4.37848E-04-6.48609E-15
 -1      2817 3.28192E-03 4.41322E-04-5.94326E-15
 -1      2818 3.19944E-03 4.06294E-04-5.76976E-15
 -1      2819 3.71981E-03 4.31125E-04-7.64457E-15
 -1      2820 3.57324E-03 4.34385E-04-7.05343E-15
 -1      2821 3.48876E-03 3.99164E-04-6.86198E-15
 -1      2822 4.01511E-03 4.26314E-04-8.89890E-15
 -1      2823 3.86706E-03 4.28351E-04-8.25971E-15
 -1      2824 3.77978E-03 3.92270E-04-8.04984E-15
 -1      2825 4.31395E-03 4.25801E-04-1.02499E-14
 -1      2826 4.16403E-03 4.25353E-04-9.56166E-15
 -1      2827 4.07315E-03 3.87505E-04-9.33348E-15
 -1      2828 4.61730E-03 4.32557E-04-1.16964E-14
 -1      2829 4.46501E-03 4.28055E-04-1.09610E-14
 -1      2830 4.36983E-03 3.87235E-04-1.07129E-14
 -1      2831 4.92639E-03 4.50163E-04-1.32400E-14
 -1      2832 4.77110E-03 4.39739E-04-1.24567E-14
 -1      2833 4.67116E-03 3.94430E-04-1.21889E-14
 -1      2834 5.24251E-03 4.82625E-04-1.48807E-14
 -1      2835 5.08359E-03 4.64238E-04-1.40480E-14
 -1      2836 4.97894E-03 4.12740E-04-1.37600E-14
 -1      2837 5.56665E-03 5.33776E-04-1.66174E-14
 -1      2838 5.40371E-03 5.05597E-04-1.57370E-14
 -1      2839 5.29522E-03 4.46401E-04-1.54280E-14
 -1      2840 5.89851E-03 6.05866E-04-1.84551E-14
 -1      2841 5.73193E-03 5.67145E-04-1.75239E-14
 -1      2842 5.62174E-03 4.99765E-04-1.71916E-14
 -1      2843 6.23521E-03 6.96871E-04-2.03920E-14
 -1      2844 6.06676E-03 6.49401E-04-1.94106E-14
 -1      2845 5.95848E-03 5.75754E-04-1.90547E-14
 -1      2846 6.57092E-03 7.96722E-04-2.24345E-14
 -1      2847 6.40383E-03 7.46864E-04-2.13998E-14
 -1      2848 6.30203E-03 6.72574E-04-2.10189E-14
 -1      2849 6.89862E-03 8.84776E-04-2.45844E-14
 -1      2850 6.73605E-03 8.44107E-04-2.34956E-14
 -1      2851 6.64462E-03 7.78711E-04-2.30877E-14
 -1      2852 7.21532E-03 9.33622E-04-2.68488E-14
 -1      2853 7.05784E-03 9.16063E-04-2.57029E-14
 -1      2854 6.97723E-03 8.68587E-04-2.52663E-14
 -1      2855 7.52641E-03 9.21738E-04-2.92307E-14
 -1      2856 7.37037E-03 9.35855E-04-2.80243E-14
 -1      2857 7.29760E-03 9.09355E-04-2.75602E-14
 -1      2858 7.84206E-03 8.48467E-04-3.17324E-14
 -1      2859 7.68259E-03 8.91787E-04-3.04663E-14
 -1      2860 7.61407E-03 8.79631E-04-2.99749E-14
 -1      2861 8.16878E-03 7.33523E-04-3.43477E-14
 -1      2862 8.00392E-03 7.94110E-04-3.30262E-14
 -1      2863 7.93924E-03 7.85262E-04-3.25080E-14
 -1      2864 8.50411E-03 6.04935E-04-3.70700E-14
 -1      2865 8.33589E-03 6.69235E-04-3.56951E-14
 -1      2866 8.27704E-03 6.55921E-04-3.51553E-14
 -1      2867 8.84122E-03 4.83991E-04-3.98935E-14
 -1      2868 8.67314E-03 5.42565E-04-3.84705E-14
 -1      2869 8.62133E-03 5.22830E-04-3.79061E-14
 -1      2870 9.17384E-03 3.81573E-04-4.28088E-14
 -1      2871 9.00855E-03 4.30245E-04-4.13394E-14
 -1      2872 8.96283E-03 4.05463E-04-4.07549E-14
 -1      2873 9.49899E-03 3.00007E-04-4.58146E-14
 -1      2874 9.33758E-03 3.38307E-04-4.43012E-14
 -1      2875 9.29555E-03 3.10495E-04-4.36945E-14
 -1      2876 9.81622E-03 2.37288E-04-4.89052E-14
 -1      2877 9.65865E-03 2.66556E-04-4.73496E-14
 -1      2878 9.61778E-03 2.37086E-04-4.67232E-14
 -1      2879 1.01264E-02 1.89670E-04-5.20838E-14
 -1      2880 9.97218E-03 2.11868E-04-5.04834E-14
 -1      2881 9.93048E-03 1.81477E-04-4.98375E-14
 -1      2882 1.04310E-02 1.53207E-04-5.53449E-14
 -1      2883 1.02794E-02 1.70284E-04-5.37040E-14
 -1      2884 1.02356E-02 1.39323E-04-5.30364E-14
 -1      2885 1.07312E-02 1.24419E-04-5.86878E-14
 -1      2886 1.05816E-02 1.38043E-04-5.70068E-14
 -1      2887 1.05353E-02 1.06699E-04-5.63198E-14
 -1      2888 1.10280E-02 1.00505E-04-6.21023E-14
 -1      2889 1.08800E-02 1.11994E-04-6.03856E-14
 -1      2890 1.08310E-02 8.04011E-05-5.96804E-14
 -1      2891 1.13222E-02 7.93551E-05-6.55839E-14
 -1      2892 1.11754E-02 8.96855E-05-6.38349E-14
 -1      2893 1.11240E-02 5.79605E-05-6.31133E-14
 -1      2894 1.16144E-02 5.94642E-05-6.91288E-14
 -1      2895 1.14685E-02 6.93214E-05-6.73490E-14
 -1      2896 1.14150E-02 3.75672E-05-6.66108E-14
 -1      2897 1.19050E-02 3.98162E-05-7.27314E-14
 -1      2898 1.17598E-02 4.96546E-05-7.09225E-14
 -1      2899 1.17046E-02 1.79547E-05-7.01695E-14
 -1      2900 1.21944E-02 1.97712E-05-7.63930E-14
 -1      2901 1.20498E-02 2.98702E-05-7.45555E-14
 -1      2902 1.19932E-02-1.71457E-06-7.37866E-14
 -1      2903 1.24828E-02-1.03580E-06-8.01052E-14
 -1      2904 1.23387E-02 9.47723E-06-7.82431E-14
 -1      2905 1.22811E-02-2.19541E-05-7.74581E-14
 -1      2906 1.27705E-02-2.27765E-05-8.38668E-14
 -1      2907 1.26268E-02-1.17837E-05-8.19809E-14
 -1      2908 1.25684E-02-4.30426E-05-8.11833E-14
 -1      2909 1.30577E-02-4.54938E-05-8.76702E-14
 -1      2910 1.29142E-02-3.40128E-05-8.57640E-14
 -1      2911 1.28553E-02-6.50954E-05-8.49539E-14
 -1      2912 1.33444E-02-6.91492E-05-9.15139E-14
 -1      2913 1.32011E-02-5.72073E-05-8.95866E-14
 -1      2914 1.31419E-02-8.81205E-05-8.87655E-14
 -1      2915 1.36308E-02-9.36557E-05-9.53971E-14
 -1      2916 1.34876E-02-8.13017E-05-9.34523E-14
 -1      2917 1.34282E-02-1.12059E-04-9.26201E-14
 -1      2918 1.38878E-02-1.24062E-04-9.89103E-14
 -1      2919 1.37447E-02-1.11385E-04-9.69468E-14
 -1      2920 1.36852E-02-1.41997E-04-9.61083E-14
 -1      2921 1.39130E-02-1.77646E-04-9.92162E-14
 -1      2922 1.43194E-02-6.03938E-04-1.04302E-13
 -1      2923 1.43056E-02-5.62564E-04-1.04177E-13
 -1      2924 1.43806E-02-1.06333E-03-1.04185E-13
 -1      2925 1.44776E-02-1.07434E-03-1.05542E-13
 -1      2926 1.42968E-02-1.01888E-03-1.03106E-13
 -1      2927 1.42640E-02-4.38265E-04-1.03787E-13
 -1      2928 1.42502E-02-3.96731E-04-1.03652E-13
 -1      2929 1.43469E-02-6.86676E-04-1.04539E-13
 -1      2930 1.43332E-02-6.45302E-04-1.04423E-13
 -1      2931 1.42029E-02-6.12480E-04-1.02645E-13
 -1      2932 1.42917E-02-5.21170E-04-1.04050E-13
 -1      2933 1.42779E-02-4.79740E-04-1.03920E-13
 -1      2934 1.41475E-02-4.47324E-04-1.02140E-13
 -1      2935 1.41753E-02-5.29967E-04-1.02400E-13
 -1      2936 1.43739E-02-7.68091E-04-1.04760E-13
 -1      2937 1.43604E-02-7.27366E-04-1.04653E-13
 -1      2938 1.42302E-02-6.94291E-04-1.02875E-13
 -1      2939 1.44013E-02-8.51091E-04-1.04979E-13
 -1      2940 1.43876E-02-8.09562E-04-1.04869E-13
 -1      2941 1.42573E-02-7.76224E-04-1.03094E-13
 -1      2942 1.44289E-02-9.34353E-04-1.05187E-13
 -1      2943 1.44151E-02-8.92686E-04-1.05084E-13
 -1      2944 1.42847E-02-8.59095E-04-1.03306E-13
 -1      2945 9.64469E-03-1.77262E-04-3.97500E-14
 -1      2946 9.72483E-03-1.94136E-04-4.00339E-14
 -1      2947 9.55136E-03-2.80453E-04-3.95492E-14
 -1      2948 9.42950E-03-3.20187E-04-3.92228E-14
 -1      2949 8.80575E-03-6.07220E-04-3.70509E-14
 -1      2950 8.62676E-03-7.08562E-04-3.62887E-14
 -1      2951 8.05921E-03-1.03022E-03-3.33064E-14
 -1      2952 7.90934E-03-1.10284E-03-3.23982E-14
 -1      2953 8.13012E-03 5.50003E-04-3.32380E-14
 -1      2954 8.32408E-03 4.30612E-04-3.42684E-14
 -1      2955 6.00366E-03 2.15523E-04-2.22793E-14
 -1      2956 6.16578E-03 3.05657E-04-2.26453E-14
 -1      2957 7.74444E-03-1.16105E-03-3.13819E-14
 -1      2958 7.61257E-03-1.18626E-03-3.05051E-14
 -1      2959 9.73399E-03-2.25011E-04-3.95928E-14
 -1      2960 9.66911E-03-2.42200E-04-3.96515E-14
 -1      2961 1.70380E-03 4.22853E-04-1.55817E-15
 -1      2962 1.56082E-03 4.10385E-04-1.30455E-15
 -1      2963 1.76445E-03 3.92567E-04-1.74951E-15
 -1      2964 5.35120E-03-3.97153E-05-2.07988E-14
 -1      2965 5.50532E-03 5.55471E-06-2.11308E-14
 -1      2966 2.56135E-03 4.51631E-04-3.58699E-15
 -1      2967 2.41815E-03 4.51010E-04-3.18826E-15
 -1      2968 2.33738E-03 4.13943E-04-3.06835E-15
 -1      2969 2.62408E-03 4.15102E-04-3.87307E-15
 -1      2970 9.39091E-03-1.01056E-04-3.88664E-14
 -1      2971 9.52411E-03-1.43260E-04-3.92838E-14
 -1      2972 1.41772E-03 3.94763E-04-1.07485E-15
 -1      2973 1.27432E-03 3.75733E-04-8.68568E-16
 -1      2974 1.19082E-03 3.31520E-04-8.13206E-16
 -1      2975 1.47775E-03 3.68287E-04-1.23400E-15
 -1      2976 1.03469E-03-3.06041E-04-7.67615E-16
 -1      2977 1.17814E-03-3.30440E-04-9.71337E-16
 -1      2978 1.23954E-03-3.08551E-04-1.10223E-15
 -1      2979 6.40308E-03 4.37452E-04-2.33869E-14
 -1      2980 6.58767E-03 5.42701E-04-2.41064E-14
 -1      2981 8.41410E-03-8.31170E-04-3.52616E-14
 -1      2982 8.24164E-03-9.32583E-04-3.43494E-14
 -1      2983 6.78171E-03 6.48895E-04-2.49483E-14
 -1      2984 6.93489E-03 7.27307E-04-2.57295E-14
 -1      2985 5.67907E-03 7.22986E-05-2.14608E-14
 -1      2986 5.84012E-03 1.38342E-04-2.18680E-14
 -1      2987 5.86882E-03 1.82964E-04-2.14468E-14
 -1      2988 7.84424E-04 1.19383E-04-5.03436E-16
 -1      2989 7.81815E-04 9.65568E-05-5.15376E-16
 -1      2990 8.99007E-04 9.56929E-05-6.60875E-16
 -1      2991 9.05323E-04 1.46370E-04-6.31832E-16
 -1      2992 7.13111E-03 7.98809E-04-2.68681E-14
 -1      2993 7.28788E-03 8.32900E-04-2.78742E-14
 -1      2994 9.77322E-03-2.08356E-04-4.00804E-14
 -1      2995 9.77312E-03-2.13266E-04-3.98351E-14
 -1      2996 9.78998E-03-2.23118E-04-4.06960E-14
 -1      2997 7.81561E-04-9.45377E-05-5.56250E-16
 -1      2998 7.84097E-04-1.17272E-04-5.53919E-16
 -1      2999 5.35172E-03-1.52930E-04-2.13312E-14
 -1      3000 5.26329E-03-1.31381E-04-2.10865E-14
 -1      3001 6.01593E-03-4.23352E-04-2.29616E-14
 -1      3002 5.83694E-03-3.32422E-04-2.25974E-14
 -1      3003 6.45708E-03-6.74421E-04-2.43750E-14
 -1      3004 6.28111E-03-5.70599E-04-2.37405E-14
 -1      3005 6.51927E-03-7.32630E-04-2.43223E-14
 -1      3006 7.42521E-03-1.17822E-03-2.92806E-14
 -1      3007 7.28741E-03-1.14301E-03-2.83842E-14
 -1      3008 1.44906E-02-1.04088E-03-1.05810E-13
 -1      3009 8.52809E-03 3.12403E-04-3.53291E-14
 -1      3010 8.71163E-03 2.10017E-04-3.62195E-14
 -1      3011 7.75904E-03 7.50397E-04-3.10109E-14
 -1      3012 7.91814E-03 6.70834E-04-3.20297E-14
 -1      3013 5.17181E-03-8.66656E-05-2.05480E-14
 -1      3014 5.22621E-03-7.37395E-05-2.05762E-14
 -1      3015 8.00184E-04-2.49469E-04-4.94681E-16
 -1      3016 9.31613E-04-2.83721E-04-6.38758E-16
 -1      3017 9.93760E-04-2.67837E-04-7.45010E-16
 -1      3018 7.90029E-04-2.23677E-04-5.03856E-16
 -1      3019 7.47319E-03 8.31868E-04-2.91004E-14
 -1      3020 7.61154E-03 8.02719E-04-3.00463E-14
 -1      3021 7.69875E-03 7.81789E-04-3.06610E-14
 -1      3022 7.87375E-04-1.40882E-04-5.49691E-16
 -1      3023 7.91450E-04-1.65608E-04-5.43538E-16
 -1      3024 9.04866E-04-1.43874E-04-7.00083E-16
 -1      3025 8.94290E-04 9.69981E-07-6.96464E-16
 -1      3026 7.76910E-04-9.34283E-06-5.51886E-16
 -1      3027 7.77336E-04-3.01704E-05-5.54935E-16
 -1      3028 7.38334E-03 8.43555E-04-2.84575E-14
 -1      3029 8.96020E-03-5.47324E-04-3.80645E-14
 -1      3030 5.13770E-03-9.00514E-05-2.02350E-14
 -1      3031 8.65645E-04 2.60221E-04-4.61721E-16
 -1      3032 6.65586E-03 6.08079E-04-2.41377E-14
 -1      3033 5.71980E-03-2.89661E-04-2.20169E-14
 -1      3034 8.86675E-03 1.37166E-04-3.71752E-14
 -1      3035 9.01639E-03 7.74261E-05-3.81402E-14
 -1      3036 8.78256E-03 2.01540E-04-3.71560E-14
 -1      3037 5.19575E-03-1.18161E-04-2.05767E-14
 -1      3038 7.50187E-03-1.19440E-03-2.97596E-14
 -1      3039 6.40724E-03-7.10459E-04-2.34162E-14
 -1      3040 7.86419E-03-1.14676E-03-3.22680E-14
 -1      3041 8.24742E-03-9.89103E-04-3.48849E-14
 -1      3042 9.61980E-03-1.61957E-04-4.03780E-14
 -1      3043 1.41198E-02-3.64791E-04-1.01873E-13
 -1      3044 1.42365E-02-3.55485E-04-1.03520E-13
 -1      3045 1.42228E-02-3.14169E-04-1.03382E-13
 -1      3046 9.31594E-03-6.32209E-05-3.90268E-14
 -1      3047 5.55110E-03 4.68103E-05-2.07234E-14
 -1      3048 6.11342E-03-4.88944E-04-2.29156E-14
 -1      3049 5.95208E-03-4.23249E-04-2.21069E-14
 -1      3050 6.19045E-03-5.55257E-04-2.28637E-14
 -1      3051 1.41832E-02-2.50116E-04-1.02901E-13
 -1      3052 9.64776E-03-2.63844E-04-4.03458E-14
 -1      3053 9.83823E-04 2.68311E-04-6.04822E-16
 -1      3054 5.41392E-03-1.75264E-04-2.12557E-14
 -1      3055 9.78045E-03-2.04312E-04-4.08973E-14
 -1      3056 1.44765E-02-9.99007E-04-1.05716E-13
 -1      3057 9.36096E-03-3.65167E-04-3.95876E-14
 -1      3058 8.53828E-03-7.80908E-04-3.61587E-14
 -1      3059 8.03351E-03 6.18280E-04-3.28402E-14
 -1      3060 8.16237E-03-9.93577E-04-3.40749E-14
 -1      3061 8.43322E-03 3.83465E-04-3.51264E-14
 -1      3062 6.24951E-03 3.79184E-04-2.25758E-14
 -1      3063 5.26070E-03-4.90410E-05-2.01845E-14
 -1      3064 7.78233E-04-5.11637E-05-5.56697E-16
 -1      3065 7.79619E-04-7.26017E-05-5.56982E-16
 -1      3066 8.98731E-04-9.34017E-05-7.05572E-16
 -1      3067 8.95342E-04-4.56198E-05-7.04135E-16
 -1      3068 7.02327E-03 7.78111E-04-2.60980E-14
 -1      3069 7.14160E-03-1.08406E-03-2.75173E-14
 -1      3070 6.97706E-03-9.94227E-04-2.66148E-14
 -1      3071 1.43213E-02-9.92008E-04-1.03522E-13
 -1      3072 1.44043E-02-9.61203E-04-1.04776E-13
 -1      3073 1.42737E-02-9.27403E-04-1.02998E-13
 -1      3074 1.42245E-02-9.80965E-04-1.02173E-13
 -1      3075 7.18568E-03-1.11420E-03-2.76825E-14
 -1      3076 6.52469E-03 5.71398E-04-2.32734E-14
 -1      3077 6.69861E-03 6.64998E-04-2.40946E-14
 -1      3078 1.04090E-03 2.35560E-04-7.25792E-16
 -1      3079 1.03396E-03 2.04358E-04-7.51745E-16
 -1      3080 7.86050E-04-1.82296E-04-5.27519E-16
 -1      3081 7.94007E-04-2.05564E-04-5.22287E-16
 -1      3082 8.94953E-04-2.26807E-04-6.38744E-16
 -1      3083 9.03905E-04-1.88858E-04-6.76718E-16
 -1      3084 9.10414E-03-5.04229E-04-3.91918E-14
 -1      3085 8.89964E-03-6.09658E-04-3.83128E-14
 -1      3086 1.73233E-03-3.23035E-04-2.08292E-15
 -1      3087 1.87588E-03-3.30667E-04-2.41425E-15
 -1      3088 2.01937E-03-3.36349E-04-2.77024E-15
 -1      3089 2.16282E-03-3.40224E-04-3.15163E-15
 -1      3090 1.93905E-03-2.99158E-04-2.60600E-15
 -1      3091 2.30614E-03-3.42571E-04-3.55702E-15
 -1      3092 2.44936E-03-3.43511E-04-3.98687E-15
 -1      3093 2.22581E-03-3.06529E-04-3.36791E-15
 -1      3094 2.59244E-03-3.43283E-04-4.44187E-15
 -1      3095 2.73538E-03-3.41989E-04-4.92099E-15
 -1      3096 2.51194E-03-3.08397E-04-4.22772E-15
 -1      3097 2.87815E-03-3.39842E-04-5.42384E-15
 -1      3098 3.02077E-03-3.36933E-04-5.95121E-15
 -1      3099 2.79713E-03-3.06058E-04-5.18447E-15
 -1      3100 3.16318E-03-3.33469E-04-6.50285E-15
 -1      3101 3.30544E-03-3.29538E-04-7.07830E-15
 -1      3102 3.08111E-03-3.00670E-04-6.23777E-15
 -1      3103 3.44747E-03-3.25359E-04-7.67756E-15
 -1      3104 3.58935E-03-3.21033E-04-8.30056E-15
 -1      3105 3.36365E-03-2.93336E-04-7.38690E-15
 -1      3106 3.73101E-03-3.16811E-04-8.94712E-15
 -1      3107 3.87257E-03-3.12823E-04-9.61785E-15
 -1      3108 3.64457E-03-2.85204E-04-8.63075E-15
 -1      3109 4.01395E-03-3.09363E-04-1.03115E-14
 -1      3110 4.15537E-03-3.06622E-04-1.10280E-14
 -1      3111 3.92378E-03-2.77569E-04-9.96927E-15
 -1      3112 4.29679E-03-3.04938E-04-1.17683E-14
 -1      3113 4.43853E-03-3.04615E-04-1.25318E-14
 -1      3114 4.20148E-03-2.71981E-04-1.14010E-14
 -1      3115 4.58068E-03-3.06018E-04-1.33170E-14
 -1      3116 4.72374E-03-3.09661E-04-1.41251E-14
 -1      3117 4.47838E-03-2.70352E-04-1.29241E-14
 -1      3118 4.86798E-03-3.15887E-04-1.49564E-14
 -1      3119 5.01422E-03-3.25657E-04-1.58092E-14
 -1      3120 4.75619E-03-2.75116E-04-1.45380E-14
 -1      3121 5.16304E-03-3.39210E-04-1.66848E-14
 -1      3122 5.31558E-03-3.58272E-04-1.75827E-14
 -1      3123 5.03844E-03-2.89706E-04-1.62417E-14
 -1      3124 5.47293E-03-3.83057E-04-1.85022E-14
 -1      3125 5.63629E-03-4.16643E-04-1.94465E-14
 -1      3126 5.33154E-03-3.19480E-04-1.80337E-14
 -1      3127 5.91314E-03-4.90658E-04-2.09845E-14
 -1      3128 6.09789E-03-5.53973E-04-2.19905E-14
 -1      3129 7.11467E-03-1.10305E-03-2.71152E-14
 -1      3130 8.94006E-03-6.51397E-04-3.92277E-14
 -1      3131 9.12538E-03-6.00232E-04-4.06593E-14
 -1      3132 9.35606E-03-5.56516E-04-4.25859E-14
 -1      3133 9.52170E-03-5.33502E-04-4.40707E-14
 -1      3134 9.68105E-03-5.19925E-04-4.55771E-14
 -1      3135 9.83495E-03-5.12402E-04-4.71032E-14
 -1      3136 9.65356E-03-4.73934E-04-4.47794E-14
 -1      3137 9.98483E-03-5.10902E-04-4.86502E-14
 -1      3138 1.01318E-02-5.13383E-04-5.02176E-14
 -1      3139 9.94938E-03-4.68029E-04-4.78321E-14
 -1      3140 1.02765E-02-5.19628E-04-5.18044E-14
 -1      3141 1.04198E-02-5.28621E-04-5.34115E-14
 -1      3142 1.02325E-02-4.78536E-04-5.09633E-14
 -1      3143 1.05621E-02-5.40035E-04-5.50367E-14
 -1      3144 1.07038E-02-5.53310E-04-5.66818E-14
 -1      3145 1.05103E-02-4.99419E-04-5.41735E-14
 -1      3146 1.08451E-02-5.68099E-04-5.83444E-14
 -1      3147 1.09864E-02-5.84084E-04-6.00246E-14
 -1      3148 1.07866E-02-5.27210E-04-5.74569E-14
 -1      3149 1.11276E-02-6.00954E-04-6.17250E-14
 -1      3150 1.12689E-02-6.18523E-04-6.34413E-14
 -1      3151 1.10633E-02-5.59451E-04-6.08165E-14
 -1      3152 1.14103E-02-6.36536E-04-6.51742E-14
 -1      3153 1.15518E-02-6.54883E-04-6.69204E-14
 -1      3154 1.13414E-02-5.94342E-04-6.42468E-14
 -1      3155 1.16935E-02-6.73374E-04-6.86807E-14
 -1      3156 1.18353E-02-6.91944E-04-7.04555E-14
 -1      3157 1.16208E-02-6.30553E-04-6.77394E-14
 -1      3158 1.19773E-02-7.10461E-04-7.22426E-14
 -1      3159 1.21194E-02-7.28890E-04-7.40465E-14
 -1      3160 1.19017E-02-6.67133E-04-7.12852E-14
 -1      3161 1.22616E-02-7.47147E-04-7.58618E-14
 -1      3162 1.24040E-02-7.65217E-04-7.76900E-14
 -1      3163 1.21837E-02-7.03442E-04-7.48853E-14
 -1      3164 1.25464E-02-7.83052E-04-7.95356E-14
 -1      3165 1.26889E-02-8.00650E-04-8.13954E-14
 -1      3166 1.24668E-02-7.39084E-04-7.85461E-14
 -1      3167 1.28315E-02-8.17989E-04-8.32705E-14
 -1      3168 1.29741E-02-8.35075E-04-8.51588E-14
 -1      3169 1.27506E-02-7.73851E-04-8.22646E-14
 -1      3170 1.31168E-02-8.51903E-04-8.70583E-14
 -1      3171 1.32595E-02-8.68483E-04-8.89728E-14
 -1      3172 1.30349E-02-8.07665E-04-8.60376E-14
 -1      3173 1.34023E-02-8.84824E-04-9.08981E-14
 -1      3174 1.35450E-02-9.00936E-04-9.28349E-14
 -1      3175 1.33197E-02-8.40537E-04-8.98598E-14
 -1      3176 1.36878E-02-9.16835E-04-9.47825E-14
 -1      3177 1.38306E-02-9.32532E-04-9.67404E-14
 -1      3178 1.36048E-02-8.72532E-04-9.37289E-14
 -1      3179 1.39561E-02-9.49192E-04-9.84613E-14
 -1      3180 1.40990E-02-9.64558E-04-1.00435E-13
 -1      3181 1.41236E-02-9.37845E-04-1.00849E-13
 -1      3182 1.38728E-02-9.04882E-04-9.73955E-14
 -1      3183 1.41136E-02-7.02115E-04-1.01218E-13
 -1      3184 1.41002E-02-6.61666E-04-1.01108E-13
 -1      3185 2.11309E-03 3.73627E-04-2.58838E-15
 -1      3186 1.96965E-03 3.68679E-04-2.25525E-15
 -1      3187 3.26081E-03 3.68296E-04-6.11918E-15
 -1      3188 3.11711E-03 3.71700E-04-5.59455E-15
 -1      3189 2.97355E-03 3.74635E-04-5.09332E-15
 -1      3190 2.83006E-03 3.76983E-04-4.61659E-15
 -1      3191 3.03515E-03 3.37437E-04-5.41761E-15
 -1      3192 3.83788E-03 3.53838E-04-8.45828E-15
 -1      3193 3.69312E-03 3.57199E-04-7.83743E-15
 -1      3194 4.12893E-03 3.49053E-04-9.77103E-15
 -1      3195 3.98309E-03 3.51036E-04-9.10269E-15
 -1      3196 3.89415E-03 3.15858E-04-8.87035E-15
 -1      3197 4.42310E-03 3.48805E-04-1.11791E-14
 -1      3198 4.27553E-03 3.48185E-04-1.04633E-14
 -1      3199 4.18250E-03 3.10927E-04-1.02119E-14
 -1      3200 4.72215E-03 3.56022E-04-1.26839E-14
 -1      3201 4.57190E-03 3.51233E-04-1.19196E-14
 -1      3202 4.47381E-03 3.10397E-04-1.16494E-14
 -1      3203 5.02850E-03 3.74423E-04-1.42828E-14
 -1      3204 4.87428E-03 3.63495E-04-1.34713E-14
 -1      3205 4.77029E-03 3.17127E-04-1.31808E-14
 -1      3206 5.34505E-03 4.08564E-04-1.59757E-14
 -1      3207 5.18540E-03 3.89097E-04-1.51170E-14
 -1      3208 5.07503E-03 3.34914E-04-1.48067E-14
 -1      3209 5.67444E-03 4.63570E-04-1.77674E-14
 -1      3210 5.50820E-03 4.32998E-04-1.68596E-14
 -1      3211 5.39194E-03 3.68848E-04-1.65273E-14
 -1      3212 6.01726E-03 5.43733E-04-1.96554E-14
 -1      3213 5.84459E-03 5.00325E-04-1.86992E-14
 -1      3214 5.72476E-03 4.25427E-04-1.83438E-14
 -1      3215 6.36958E-03 6.47405E-04-2.16451E-14
 -1      3216 6.19326E-03 5.92976E-04-2.06373E-14
 -1      3217 6.07486E-03 5.10445E-04-2.02571E-14
 -1      3218 6.70047E-03 7.38719E-04-2.36959E-14
 -1      3219 6.52339E-03 6.79019E-04-2.26372E-14
 -1      3220 7.38238E-03 8.87981E-04-2.82644E-14
 -1      3221 7.22113E-03 8.83364E-04-2.70875E-14
 -1      3222 8.04064E-03 7.18074E-04-3.32768E-14
 -1      3223 7.87050E-03 7.81974E-04-3.19783E-14
 -1      3224 8.38984E-03 5.75782E-04-3.59539E-14
 -1      3225 8.21430E-03 6.47169E-04-3.46029E-14
 -1      3226 8.15143E-03 6.41682E-04-3.40492E-14
 -1      3227 8.74189E-03 4.41563E-04-3.87345E-14
 -1      3228 8.56686E-03 5.06104E-04-3.73309E-14
 -1      3229 8.51248E-03 4.90042E-04-3.67568E-14
 -1      3230 9.08539E-03 3.30804E-04-4.16072E-14
 -1      3231 8.91538E-03 3.83084E-04-4.01603E-14
 -1      3232 8.86916E-03 3.59454E-04-3.95645E-14
 -1      3233 9.41596E-03 2.44862E-04-4.45716E-14
 -1      3234 9.25255E-03 2.84996E-04-4.30779E-14
 -1      3235 9.21160E-03 2.57871E-04-4.24639E-14
 -1      3236 9.73372E-03 1.80071E-04-4.76220E-14
 -1      3237 9.57641E-03 2.10238E-04-4.60851E-14
 -1      3238 9.53754E-03 1.82103E-04-4.54505E-14
 -1      3239 1.00411E-02 1.31397E-04-5.07580E-14
 -1      3240 9.88858E-03 1.54090E-04-4.91783E-14
 -1      3241 9.84928E-03 1.26001E-04-4.85226E-14
 -1      3242 1.03411E-02 9.42614E-05-5.39796E-14
 -1      3243 1.01919E-02 1.11670E-04-5.23594E-14
 -1      3244 1.01506E-02 8.38604E-05-5.16814E-14
 -1      3245 1.06360E-02 6.49865E-05-5.72833E-14
 -1      3246 1.04890E-02 7.88498E-05-5.56215E-14
 -1      3247 1.04451E-02 5.12212E-05-5.49248E-14
 -1      3248 1.09276E-02 4.07393E-05-6.06633E-14
 -1      3249 1.07821E-02 5.23837E-05-5.89641E-14
 -1      3250 1.07353E-02 2.48023E-05-5.82481E-14
 -1      3251 1.12172E-02 1.94131E-05-6.41126E-14
 -1      3252 1.10726E-02 2.98154E-05-6.23794E-14
 -1      3253 1.10230E-02 2.19613E-06-6.16468E-14
 -1      3254 1.15055E-02-5.03375E-07-6.76263E-14
 -1      3255 1.13614E-02 9.34932E-06-6.58613E-14
 -1      3256 1.13094E-02-1.83359E-05-6.51126E-14
 -1      3257 1.17929E-02-2.00483E-05-7.11990E-14
 -1      3258 1.16493E-02-1.02765E-05-6.94060E-14
 -1      3259 1.15951E-02-3.80167E-05-6.86410E-14
 -1      3260 1.20798E-02-3.98942E-05-7.48291E-14
 -1      3261 1.19364E-02-2.99059E-05-7.30059E-14
 -1      3262 1.18806E-02-5.76714E-05-7.22283E-14
 -1      3263 1.23664E-02-6.04406E-05-7.85132E-14
 -1      3264 1.22232E-02-5.00651E-05-7.66646E-14
 -1      3265 1.21660E-02-7.78224E-05-7.58714E-14
 -1      3266 1.26528E-02-8.18899E-05-8.22498E-14
 -1      3267 1.25096E-02-7.10464E-05-8.03767E-14
 -1      3268 1.24514E-02-9.87669E-05-7.95702E-14
 -1      3269 1.29390E-02-1.04309E-04-8.60292E-14
 -1      3270 1.27959E-02-9.29782E-05-8.41335E-14
 -1      3271 1.27369E-02-1.20641E-04-8.33161E-14
 -1      3272 1.32250E-02-1.27679E-04-8.98495E-14
 -1      3273 1.30820E-02-1.15879E-04-8.79339E-14
 -1      3274 1.30225E-02-1.43470E-04-8.71029E-14
 -1      3275 1.35110E-02-1.51923E-04-9.37128E-14
 -1      3276 1.33680E-02-1.39697E-04-9.17740E-14
 -1      3277 1.33081E-02-1.67212E-04-9.09324E-14
 -1      3278 1.01512E-03 6.53104E-05-8.38603E-16
 -1      3279 1.01375E-03 3.94382E-05-8.49079E-16
 -1      3280 5.19367E-03-1.24036E-04-2.00639E-14
 -1      3281 5.13390E-03-1.06515E-04-1.99962E-14
 -1      3282 1.41680E-02-8.66952E-04-1.01638E-13
 -1      3283 1.41544E-02-8.25535E-04-1.01535E-13
 -1      3284 1.40865E-02-6.20548E-04-1.00990E-13
 -1      3285 1.40727E-02-5.79437E-04-1.00873E-13
 -1      3286 1.39701E-02-6.28472E-04-9.93447E-14
 -1      3287 5.69819E-03-3.00905E-04-2.14105E-14
 -1      3288 5.56748E-03-2.38578E-04-2.12765E-14
 -1      3289 5.40860E-03-1.90211E-04-2.06669E-14
 -1      3290 7.63834E-03 8.14807E-04-3.02448E-14
 -1      3291 7.77194E-03 7.67250E-04-3.12171E-14
 -1      3292 1.82618E-03 3.61752E-04-1.94586E-15
 -1      3293 1.68266E-03 3.52682E-04-1.66031E-15
 -1      3294 1.88870E-03 3.30502E-04-2.14753E-15
 -1      3295 6.92229E-03 7.64993E-04-2.53161E-14
 -1      3296 7.10116E-03 8.23989E-04-2.64453E-14
 -1      3297 7.83149E-03-1.14575E-03-3.20075E-14
 -1      3298 5.10083E-03-9.24208E-05-1.97331E-14
 -1      3299 5.10105E-03-7.90579E-05-1.94668E-14
 -1      3300 5.07202E-03-9.58491E-05-1.92338E-14
 -1      3301 1.41408E-02-7.84382E-04-1.01433E-13
 -1      3302 1.41272E-02-7.43130E-04-1.01325E-13
 -1      3303 1.39973E-02-7.10303E-04-9.95664E-14
 -1      3304 1.40243E-02-7.92202E-04-9.97738E-14
 -1      3305 3.54876E-03 3.60861E-04-7.24125E-15
 -1      3306 3.40467E-03 3.64636E-04-6.66811E-15
 -1      3307 3.32117E-03 3.30673E-04-6.47269E-15
 -1      3308 3.60734E-03 3.23011E-04-7.62393E-15
 -1      3309 9.74372E-03-2.54179E-04-4.13899E-14
 -1      3310 9.65017E-03-2.86081E-04-4.12817E-14
 -1      3311 7.25885E-03 8.51460E-04-2.75140E-14
 -1      3312 7.42832E-03 8.52849E-04-2.87336E-14
 -1      3313 1.14603E-03 3.01244E-04-7.91725E-16
 -1      3314 1.08317E-03 2.63251E-04-7.51732E-16
 -1      3315 1.20211E-03 2.63521E-04-9.32888E-16
 -1      3316 1.28932E-03 3.21429E-04-9.87817E-16
 -1      3317 1.15931E-03-2.67688E-04-1.00556E-15
 -1      3318 1.30219E-03-2.85719E-04-1.23756E-15
 -1      3319 5.42845E-03 3.04482E-05-1.99498E-14
 -1      3320 5.57933E-03 8.88009E-05-2.02648E-14
 -1      3321 9.59971E-03-1.43235E-04-4.10536E-14
 -1      3322 9.70728E-03-1.73453E-04-4.15299E-14
 -1      3323 8.18498E-03-9.96841E-04-3.43459E-14
 -1      3324 8.39484E-03-8.91269E-04-3.56784E-14
 -1      3325 9.24509E-03-1.65206E-05-3.93953E-14
 -1      3326 9.42774E-03-8.43203E-05-4.02807E-14
 -1      3327 7.96784E-03 6.72123E-04-3.25476E-14
 -1      3328 8.15944E-03 5.61959E-04-3.37708E-14
 -1      3329 8.35332E-03 4.52185E-04-3.49565E-14
 -1      3330 8.53705E-03 3.47873E-04-3.60293E-14
 -1      3331 1.44537E-03-3.00801E-04-1.49444E-15
 -1      3332 1.58883E-03-3.13134E-04-1.77623E-15
 -1      3333 1.65210E-03-2.84795E-04-1.94228E-15
 -1      3334 5.74982E-03 1.66195E-04-2.06396E-14
 -1      3335 5.89163E-03 2.32209E-04-2.10336E-14
 -1      3336 9.84331E-03-2.28032E-04-4.18937E-14
 -1      3337 9.80713E-03-2.36737E-04-4.16424E-14
 -1      3338 9.82597E-03-2.55763E-04-4.25946E-14
 -1      3339 6.86420E-03-9.45296E-04-2.58862E-14
 -1      3340 1.40664E-02-2.59693E-04-1.01262E-13
 -1      3341 5.16690E-03-5.24130E-05-1.94435E-14
 -1      3342 5.27909E-03-2.09371E-05-1.96576E-14
 -1      3343 9.47801E-03-3.46749E-04-4.07014E-14
 -1      3344 9.31079E-03-4.11067E-04-4.00440E-14
 -1      3345 6.08945E-03 3.30918E-04-2.16472E-14
 -1      3346 6.29980E-03 4.47214E-04-2.23660E-14
 -1      3347 9.79770E-03-2.01710E-04-4.17919E-14
 -1      3348 9.83641E-03-2.14471E-04-4.18394E-14
 -1      3349 8.58508E-03-7.81302E-04-3.67156E-14
 -1      3350 8.78610E-03-7.00165E-04-3.81015E-14
 -1      3351 1.01306E-03 1.38126E-05-8.57672E-16
 -1      3352 1.01302E-03-1.17010E-05-8.64218E-16
 -1      3353 1.13309E-03 2.87413E-05-1.03475E-15
 -1      3354 1.15298E-03 2.03759E-04-9.30273E-16
 -1      3355 1.02825E-03 1.74624E-04-7.74446E-16
 -1      3356 1.02368E-03 1.46056E-04-7.94205E-16
 -1      3357 6.78922E-03 7.35074E-04-2.44193E-14
 -1      3358 5.95291E-03 3.04280E-04-2.08286E-14
 -1      3359 6.25867E-03-6.22490E-04-2.28003E-14
 -1      3360 8.68582E-03 2.75918E-04-3.69811E-14
 -1      3361 8.83377E-03 2.11080E-04-3.79450E-14
 -1      3362 8.60667E-03 3.47692E-04-3.68021E-14
 -1      3363 5.74560E-03-3.99007E-04-2.04794E-14
 -1      3364 9.79657E-03-1.89115E-04-4.24807E-14
 -1      3365 9.88507E-03-2.26810E-04-4.28005E-14
 -1      3366 1.40033E-02-3.73894E-04-1.00233E-13
 -1      3367 1.39895E-02-3.32820E-04-1.00099E-13
 -1      3368 1.36570E-03-2.61819E-04-1.37721E-15
 -1      3369 7.84291E-03 7.64281E-04-3.17543E-14
 -1      3370 7.90682E-03 7.16425E-04-3.21882E-14
 -1      3371 2.25649E-03 3.76911E-04-2.94599E-15
 -1      3372 2.17575E-03 3.39963E-04-2.82177E-15
 -1      3373 2.39988E-03 3.78672E-04-3.32797E-15
 -1      3374 8.27429E-03 5.21749E-04-3.46515E-14
 -1      3375 7.15325E-03 8.52224E-04-2.67009E-14
 -1      3376 9.73129E-03-3.06151E-04-4.28121E-14
 -1      3377 9.61229E-03-3.20480E-04-4.17511E-14
 -1      3378 9.57923E-03-3.60233E-04-4.22196E-14
 -1      3379 2.74899E-03 3.42057E-04-4.45752E-15
 -1      3380 2.68665E-03 3.78533E-04-4.16321E-15
 -1      3381 2.54325E-03 3.79172E-04-3.73350E-15
 -1      3382 6.40929E-03 5.94660E-04-2.22285E-14
 -1      3383 7.07149E-03 8.60570E-04-2.60254E-14
 -1      3384 6.90493E-03 8.21253E-04-2.49045E-14
 -1      3385 7.74378E-03 8.20704E-04-3.10128E-14
 -1      3386 7.57938E-03 8.61256E-04-2.97665E-14
 -1      3387 1.36249E-02-1.69510E-04-9.52562E-14
 -1      3388 1.35648E-02-1.96926E-04-9.44007E-14
 -1      3389 1.37388E-02-1.87221E-04-9.68010E-14
 -1      3390 1.01719E-03 9.15250E-05-8.25905E-16
 -1      3391 1.13623E-03 8.45579E-05-1.00999E-15
 -1      3392 1.02000E-03 1.18329E-04-8.11024E-16
 -1      3393 1.40312E-02-4.56492E-04-1.00500E-13
 -1      3394 1.40173E-02-4.15231E-04-1.00367E-13
 -1      3395 1.38870E-02-3.83299E-04-9.86025E-14
 -1      3396 9.28125E-03-5.15269E-04-4.13442E-14
 -1      3397 1.40589E-02-5.38578E-04-1.00752E-13
 -1      3398 1.40450E-02-4.97426E-04-1.00626E-13
 -1      3399 1.39149E-02-4.65309E-04-9.88623E-14
 -1      3400 1.39426E-02-5.46806E-04-9.91087E-14
 -1      3401 9.15872E-03 3.92269E-05-3.93786E-14
 -1      3402 8.01946E-03-1.08074E-03-3.33017E-14
 -1      3403 9.54539E-03-1.06255E-04-4.14314E-14
 -1      3404 5.29946E-03 1.43590E-05-1.92136E-14
 -1      3405 5.38311E-03-2.05469E-04-1.99609E-14
 -1      3406 5.26758E-03-1.54718E-04-1.99456E-14
 -1      3407 7.50719E-03 8.55513E-04-2.92608E-14
 -1      3408 5.17210E-03-1.36692E-04-1.93754E-14
 -1      3409 9.24746E-03-4.69590E-04-4.03011E-14
 -1      3410 5.02789E-03-6.48919E-05-1.84677E-14
 -1      3411 5.09132E-03-6.05586E-05-1.89536E-14
 -1      3412 5.08500E-03-3.77378E-05-1.84431E-14
 -1      3413 5.60481E-03 1.37590E-04-1.98633E-14
 -1      3414 1.55770E-03 3.46589E-04-1.42407E-15
 -1      3415 1.41419E-03 3.32539E-04-1.18373E-15
 -1      3416 1.36999E-03 3.03155E-04-1.15428E-15
 -1      3417 1.62001E-03 3.18446E-04-1.59661E-15
 -1      3418 6.35837E-03 5.17715E-04-2.23202E-14
 -1      3419 1.41335E-02-9.15711E-04-1.01041E-13
 -1      3420 1.41582E-02-8.89046E-04-1.01449E-13
 -1      3421 1.40279E-02-8.55286E-04-9.96876E-14
 -1      3422 1.40081E-02-8.99349E-04-9.93096E-14
 -1      3423 1.39710E-02-2.87302E-04-9.99016E-14
 -1      3424 1.39313E-02-2.23442E-04-9.94240E-14
 -1      3425 1.38174E-02-2.05539E-04-9.78677E-14
 -1      3426 1.38544E-02-2.96667E-04-9.82718E-14
 -1      3427 1.01692E-03-8.91366E-05-8.73000E-16
 -1      3428 1.01964E-03-1.15867E-04-8.72132E-16
 -1      3429 9.96672E-04-2.46530E-04-7.68089E-16
 -1      3430 1.02321E-03-1.43382E-04-8.69015E-16
 -1      3431 1.02766E-03-1.71844E-04-8.63703E-16
 -1      3432 1.14220E-03-1.39718E-04-1.05609E-15
 -1      3433 1.06054E-03-2.29196E-04-8.78529E-16
 -1      3434 2.14614E-03-2.70736E-04-3.18102E-15
 -1      3435 2.28925E-03-2.72772E-04-3.58607E-15
 -1      3436 2.43211E-03-2.73656E-04-4.01557E-15
 -1      3437 2.57469E-03-2.73470E-04-4.46985E-15
 -1      3438 2.35306E-03-2.39046E-04-3.80639E-15
 -1      3439 2.71691E-03-2.72417E-04-4.94702E-15
 -1      3440 2.85875E-03-2.70563E-04-5.44873E-15
 -1      3441 2.63759E-03-2.38836E-04-4.71223E-15
 -1      3442 3.00011E-03-2.68104E-04-5.97488E-15
 -1      3443 3.14100E-03-2.65094E-04-6.52481E-15
 -1      3444 2.92027E-03-2.35616E-04-5.71436E-15
 -1      3445 3.28132E-03-2.61733E-04-7.09847E-15
 -1      3446 3.42108E-03-2.58068E-04-7.69544E-15
 -1      3447 3.20054E-03-2.30314E-04-6.81196E-15
 -1      3448 3.56018E-03-2.54319E-04-8.31666E-15
 -1      3449 3.69865E-03-2.50536E-04-8.96117E-15
 -1      3450 3.47788E-03-2.23833E-04-8.00477E-15
 -1      3451 3.83638E-03-2.46962E-04-9.62899E-15
 -1      3452 3.97347E-03-2.43663E-04-1.03209E-14
 -1      3453 3.75180E-03-2.17113E-04-9.29127E-15
 -1      3454 4.10980E-03-2.40908E-04-1.10352E-14
 -1      3455 4.24556E-03-2.38795E-04-1.17729E-14
 -1      3456 4.02187E-03-2.11167E-04-1.06717E-14
 -1      3457 4.38064E-03-2.37608E-04-1.25331E-14
 -1      3458 4.51542E-03-2.37521E-04-1.33160E-14
 -1      3459 4.28784E-03-2.07101E-04-1.21440E-14
 -1      3460 4.64983E-03-2.38803E-04-1.41219E-14
 -1      3461 4.78460E-03-2.41803E-04-1.49500E-14
 -1      3462 4.54988E-03-2.06120E-04-1.37079E-14
 -1      3463 4.91970E-03-2.46702E-04-1.58005E-14
 -1      3464 5.05650E-03-2.54437E-04-1.66735E-14
 -1      3465 4.80901E-03-2.09530E-04-1.53612E-14
 -1      3466 5.19507E-03-2.65202E-04-1.75672E-14
 -1      3467 5.33772E-03-2.80655E-04-1.84838E-14
 -1      3468 5.06813E-03-2.19551E-04-1.71029E-14
 -1      3469 9.81500E-03-1.76416E-04-4.34270E-14
 -1      3470 9.89175E-03-2.03770E-04-4.36965E-14
 -1      3471 9.45919E-03-4.38841E-04-4.22211E-14
 -1      3472 1.28755E-03-2.24353E-04-1.26196E-15
 -1      3473 1.43006E-03-2.36983E-04-1.52070E-15
 -1      3474 9.92056E-03-4.25851E-04-4.70142E-14
 -1      3475 1.00578E-02-4.30795E-04-4.85587E-14
 -1      3476 1.01930E-02-4.38645E-04-5.01241E-14
 -1      3477 1.03276E-02-4.48517E-04-5.17078E-14
 -1      3478 1.01577E-02-3.99734E-04-4.92864E-14
 -1      3479 1.04616E-02-4.60269E-04-5.33114E-14
 -1      3480 1.05959E-02-4.73464E-04-5.49344E-14
 -1      3481 1.04159E-02-4.22546E-04-5.24523E-14
 -1      3482 1.07304E-02-4.87862E-04-5.65752E-14
 -1      3483 1.08655E-02-5.03270E-04-5.82339E-14
 -1      3484 1.06763E-02-4.50057E-04-5.56951E-14
 -1      3485 1.10010E-02-5.19431E-04-5.99111E-14
 -1      3486 1.11372E-02-5.36252E-04-6.16075E-14
 -1      3487 1.09403E-02-4.80918E-04-5.90101E-14
 -1      3488 1.12740E-02-5.53497E-04-6.33215E-14
 -1      3489 1.14115E-02-5.71114E-04-6.50522E-14
 -1      3490 1.12080E-02-5.14035E-04-6.23980E-14
 -1      3491 1.15495E-02-5.88908E-04-6.67962E-14
 -1      3492 1.16881E-02-6.06853E-04-6.85541E-14
 -1      3493 1.14793E-02-5.48483E-04-6.58555E-14
 -1      3494 1.18272E-02-6.24798E-04-7.03280E-14
 -1      3495 1.19668E-02-6.42734E-04-7.21150E-14
 -1      3496 1.17536E-02-5.83505E-04-6.93717E-14
 -1      3497 1.21068E-02-6.60553E-04-7.39132E-14
 -1      3498 1.22472E-02-6.78256E-04-7.57294E-14
 -1      3499 1.20306E-02-6.18532E-04-7.29433E-14
 -1      3500 1.23879E-02-6.95773E-04-7.75586E-14
 -1      3501 1.25289E-02-7.13112E-04-7.94017E-14
 -1      3502 1.23097E-02-6.53169E-04-7.65723E-14
 -1      3503 1.26702E-02-7.30232E-04-8.12593E-14
 -1      3504 1.28118E-02-7.47144E-04-8.31321E-14
 -1      3505 1.25905E-02-6.87178E-04-8.02575E-14
 -1      3506 1.29535E-02-7.63830E-04-8.50178E-14
 -1      3507 1.30955E-02-7.80303E-04-8.69143E-14
 -1      3508 1.28726E-02-7.20439E-04-8.39995E-14
 -1      3509 1.32375E-02-7.96557E-04-8.88248E-14
 -1      3510 1.33798E-02-8.12608E-04-9.07467E-14
 -1      3511 1.31557E-02-7.52920E-04-8.77922E-14
 -1      3512 1.35221E-02-8.28458E-04-9.26796E-14
 -1      3513 1.36645E-02-8.44127E-04-9.46237E-14
 -1      3514 1.34396E-02-7.84648E-04-9.16337E-14
 -1      3515 4.23393E-03 2.73195E-04-1.06565E-14
 -1      3516 4.09111E-03 2.75428E-04-9.95977E-15
 -1      3517 3.94875E-03 2.78419E-04-9.28616E-15
 -1      3518 3.80663E-03 2.81919E-04-8.63640E-15
 -1      3519 4.00173E-03 2.41540E-04-9.70534E-15
 -1      3520 4.81508E-03 2.77736E-04-1.36816E-14
 -1      3521 4.66757E-03 2.73760E-04-1.28897E-14
 -1      3522 5.11749E-03 2.94144E-04-1.53328E-14
 -1      3523 4.96486E-03 2.84183E-04-1.44958E-14
 -1      3524 4.85636E-03 2.37633E-04-1.41830E-14
 -1      3525 5.43404E-03 3.26967E-04-1.70805E-14
 -1      3526 5.27372E-03 3.07832E-04-1.61946E-14
 -1      3527 5.15552E-03 2.51702E-04-1.58628E-14
 -1      3528 5.77021E-03 3.84262E-04-1.89210E-14
 -1      3529 5.59968E-03 3.51611E-04-1.79888E-14
 -1      3530 5.47104E-03 2.82461E-04-1.76340E-14
 -1      3531 9.34507E-03 1.82747E-04-4.33324E-14
 -1      3532 9.17900E-03 2.23929E-04-4.18593E-14
 -1      3533 9.66355E-03 1.18610E-04-4.63425E-14
 -1      3534 9.50658E-03 1.48315E-04-4.48279E-14
 -1      3535 9.48033E-03 1.12362E-04-4.42044E-14
 -1      3536 9.96741E-03 7.15394E-05-4.94385E-14
 -1      3537 9.81699E-03 9.34797E-05-4.78805E-14
 -1      3538 9.78875E-03 5.97161E-05-4.72379E-14
 -1      3539 1.02616E-02 3.57213E-05-5.26195E-14
 -1      3540 1.01154E-02 5.25759E-05-5.10177E-14
 -1      3541 1.00835E-02 2.08958E-05-5.03563E-14
 -1      3542 1.05500E-02 7.19192E-06-5.58824E-14
 -1      3543 1.04063E-02 2.07702E-05-5.42416E-14
 -1      3544 1.03703E-02-9.49642E-06-5.35582E-14
 -1      3545 1.08353E-02-1.67784E-05-5.92250E-14
 -1      3546 1.06929E-02-5.21677E-06-5.75444E-14
 -1      3547 1.06527E-02-3.47060E-05-5.68417E-14
 -1      3548 1.11190E-02-3.81095E-05-6.26414E-14
 -1      3549 1.09772E-02-2.76776E-05-6.09256E-14
 -1      3550 1.09332E-02-5.68522E-05-6.02039E-14
 -1      3551 1.14022E-02-5.81538E-05-6.61240E-14
 -1      3552 1.12606E-02-4.82297E-05-6.43744E-14
 -1      3553 1.12133E-02-7.73756E-05-6.36373E-14
 -1      3554 1.16855E-02-7.78454E-05-6.96679E-14
 -1      3555 1.15438E-02-6.80036E-05-6.78884E-14
 -1      3556 1.14937E-02-9.72698E-05-6.71347E-14
 -1      3557 1.19691E-02-9.78037E-05-7.32687E-14
 -1      3558 1.18272E-02-8.77672E-05-7.14611E-14
 -1      3559 1.17748E-02-1.17212E-04-7.06930E-14
 -1      3560 1.22530E-02-1.18410E-04-7.69243E-14
 -1      3561 1.21110E-02-1.08013E-04-7.50883E-14
 -1      3562 1.20567E-02-1.37641E-04-7.43074E-14
 -1      3563 1.25373E-02-1.39865E-04-8.06349E-14
 -1      3564 1.23951E-02-1.29027E-04-7.87735E-14
 -1      3565 1.23394E-02-1.58817E-04-7.79761E-14
 -1      3566 1.28220E-02-1.62248E-04-8.43889E-14
 -1      3567 1.26796E-02-1.50941E-04-8.25060E-14
 -1      3568 1.26228E-02-1.80862E-04-8.16958E-14
 -1      3569 1.31070E-02-1.85549E-04-8.81874E-14
 -1      3570 1.29644E-02-1.73788E-04-8.62832E-14
 -1      3571 1.29068E-02-2.03805E-04-8.54620E-14
 -1      3572 1.33922E-02-2.09707E-04-9.20256E-14
 -1      3573 1.32495E-02-1.97527E-04-9.01020E-14
 -1      3574 1.31913E-02-2.27610E-04-8.92706E-14
 -1      3575 1.01493E-03-6.29794E-05-8.71753E-16
 -1      3576 1.13597E-03-8.21006E-05-1.05777E-15
 -1      3577 1.01365E-03-3.72544E-05-8.68920E-16
 -1      3578 8.03029E-03 6.71382E-04-3.31031E-14
 -1      3579 9.06402E-03 1.10386E-04-3.93892E-14
 -1      3580 9.27665E-03 2.42736E-05-4.06639E-14
 -1      3581 5.78411E-03-3.59551E-04-2.13633E-14
 -1      3582 1.95198E-03 2.98850E-04-2.35551E-15
 -1      3583 1.80843E-03 2.92774E-04-2.03902E-15
 -1      3584 1.38539E-02-6.36577E-04-9.77012E-14
 -1      3585 1.38402E-02-5.95774E-04-9.75872E-14
 -1      3586 5.37284E-03-2.36011E-04-1.93230E-14
 -1      3587 5.22534E-03-1.98924E-04-1.86280E-14
 -1      3588 6.20492E-03 4.85730E-04-2.13489E-14
 -1      3589 5.70833E-03 2.62122E-04-1.93891E-14
 -1      3590 5.88038E-03 3.43528E-04-1.99703E-14
 -1      3591 5.04431E-03-1.03701E-04-1.87031E-14
 -1      3592 5.00671E-03-8.82338E-05-1.84502E-14
 -1      3593 8.71241E-03 3.54537E-04-3.79611E-14
 -1      3594 8.52724E-03 4.27936E-04-3.65712E-14
 -1      3595 4.52184E-03 2.72054E-04-1.21221E-14
 -1      3596 4.37739E-03 2.71937E-04-1.13774E-14
 -1      3597 4.28324E-03 2.35816E-04-1.11046E-14
 -1      3598 4.56712E-03 2.33643E-04-1.25974E-14
 -1      3599 3.09625E-03 3.00588E-04-5.74573E-15
 -1      3600 2.95379E-03 3.03492E-04-5.23901E-15
 -1      3601 5.12793E-03-1.55579E-04-1.84706E-14
 -1      3602 5.07735E-03-1.26032E-04-1.85908E-14
 -1      3603 4.98713E-03-1.17490E-04-1.78204E-14
 -1      3604 9.92576E-03-2.24509E-04-4.37029E-14
 -1      3605 9.93054E-03-2.39212E-04-4.37573E-14
 -1      3606 5.17634E-03 6.85164E-06-1.84113E-14
 -1      3607 5.30661E-03 5.37196E-05-1.86903E-14
 -1      3608 8.21274E-03 5.90375E-04-3.44260E-14
 -1      3609 1.85953E-03-2.62450E-04-2.44348E-15
 -1      3610 2.00289E-03-2.67330E-04-2.79995E-15
 -1      3611 2.06727E-03-2.35248E-04-2.99623E-15
 -1      3612 5.53038E-03-2.98699E-04-1.98192E-14
 -1      3613 9.60182E-03-4.08198E-04-4.32910E-14
 -1      3614 1.57299E-03-2.47440E-04-1.80368E-15
 -1      3615 1.71621E-03-2.55857E-04-2.11144E-15
 -1      3616 1.78097E-03-2.26348E-04-2.28317E-15
 -1      3617 9.90098E-03-2.58944E-04-4.37150E-14
 -1      3618 9.84409E-03-2.76096E-04-4.34549E-14
 -1      3619 1.06487E-03-2.08396E-04-8.99752E-16
 -1      3620 5.43400E-03 1.14942E-04-1.88659E-14
 -1      3621 5.58102E-03 1.80998E-04-1.92211E-14
 -1      3622 5.52426E-03 2.30177E-04-1.83988E-14
 -1      3623 5.28790E-03 9.59363E-05-1.80708E-14
 -1      3624 9.52449E-03-6.93290E-05-4.21240E-14
 -1      3625 9.67976E-03-1.24855E-04-4.29144E-14
 -1      3626 6.02092E-03 4.31477E-04-2.03564E-14
 -1      3627 1.27923E-03 2.33135E-04-1.09918E-15
 -1      3628 1.27248E-03 1.99817E-04-1.12855E-15
 -1      3629 1.25434E-03 4.54246E-05-1.22768E-15
 -1      3630 1.25345E-03 1.59040E-05-1.23931E-15
 -1      3631 9.80804E-03-1.49521E-04-4.41399E-14
 -1      3632 1.13301E-03-2.64176E-05-1.05029E-15
 -1      3633 2.46253E-03 3.43328E-04-3.59204E-15
 -1      3634 1.18397E-03-2.07043E-04-1.09304E-15
 -1      3635 1.24942E-03-1.85463E-04-1.21784E-15
 -1      3636 2.87319E-03 2.69769E-04-5.05878E-15
 -1      3637 2.81117E-03 3.05766E-04-4.75569E-15
 -1      3638 2.66835E-03 3.07329E-04-4.29668E-15
 -1      3639 1.37572E-02-2.32851E-04-9.70071E-14
 -1      3640 2.23891E-03 3.06106E-04-3.06042E-15
 -1      3641 2.09547E-03 3.03253E-04-2.69557E-15
 -1      3642 2.01585E-03 2.66860E-04-2.56849E-15
 -1      3643 3.23852E-03 2.97238E-04-6.27627E-15
 -1      3644 3.15686E-03 2.64190E-04-6.07796E-15
 -1      3645 3.38066E-03 2.93532E-04-6.83062E-15
 -1      3646 1.37736E-02-8.63532E-04-9.60999E-14
 -1      3647 1.38989E-02-8.80071E-04-9.78156E-14
 -1      3648 1.39088E-02-8.58102E-04-9.80066E-14
 -1      3649 1.36907E-02-8.19570E-04-9.50417E-14
 -1      3650 9.82973E-03-3.03541E-04-4.39358E-14
 -1      3651 3.72077E-03 2.49038E-04-8.40044E-15
 -1      3652 3.66465E-03 2.85718E-04-8.01038E-15
 -1      3653 3.52267E-03 2.89654E-04-7.40818E-15
 -1      3654 1.36197E-02-2.44808E-04-9.50971E-14
 -1      3655 1.35059E-02-2.27190E-04-9.35586E-14
 -1      3656 1.34473E-02-2.57270E-04-9.27180E-14
 -1      3657 1.25586E-03-7.25776E-05-1.25938E-15
 -1      3658 1.25838E-03-1.02586E-04-1.26154E-15
 -1      3659 1.14266E-03 1.42446E-04-9.75809E-16
 -1      3660 1.25872E-03 1.05157E-04-1.19650E-15
 -1      3661 1.25610E-03 7.50825E-05-1.21348E-15
 -1      3662 1.37669E-03 6.34352E-05-1.43575E-15
 -1      3663 1.38674E-02-6.77241E-04-9.78102E-14
 -1      3664 1.37377E-02-6.44322E-04-9.60635E-14
 -1      3665 1.38809E-02-7.17963E-04-9.79155E-14
 -1      3666 1.38265E-02-5.55242E-04-9.74717E-14
 -1      3667 1.38127E-02-5.14693E-04-9.73527E-14
 -1      3668 1.37105E-02-5.63510E-04-9.58419E-14
 -1      3669 8.97557E-03 1.78698E-04-3.92069E-14
 -1      3670 9.74301E-03-4.03724E-04-4.47858E-14
 -1      3671 1.72905E-03 2.55640E-04-1.92863E-15
 -1      3672 1.66495E-03 2.84761E-04-1.74567E-15
 -1      3673 5.10455E-03-1.82185E-04-1.78584E-14
 -1      3674 9.96424E-03-2.17249E-04-4.46665E-14
 -1      3675 1.49510E-03-2.11133E-04-1.66784E-15
 -1      3676 9.44309E-03-1.41597E-05-4.21371E-14
 -1      3677 9.59958E-03-4.18463E-05-4.36292E-14
 -1      3678 9.36816E-03 4.64017E-05-4.21446E-14
 -1      3679 1.37708E-02-3.92466E-04-9.69751E-14
 -1      3680 1.37566E-02-3.51370E-04-9.68430E-14
 -1      3681 9.00694E-03 2.71864E-04-4.04077E-14
 -1      3682 8.83032E-03 3.28747E-04-3.89788E-14
 -1      3683 4.96617E-03-7.25340E-05-1.79542E-14
 -1      3684 4.93424E-03-5.48882E-05-1.74602E-14
 -1      3685 4.91443E-03-8.01927E-05-1.74433E-14
 -1      3686 1.53986E-03 2.79779E-04-1.50373E-15
 -1      3687 8.38965E-03 4.94148E-04-3.56250E-14
 -1      3688 5.08051E-03-8.79979E-06-1.79378E-14
 -1      3689 5.07306E-03 2.44515E-05-1.74333E-14
 -1      3690 4.99471E-03-1.94770E-05-1.74678E-14
 -1      3691 1.36007E-02-3.17796E-04-9.47393E-14
 -1      3692 1.37170E-02-3.08320E-04-9.63550E-14
 -1      3693 9.96770E-03-2.55777E-04-4.46313E-14
 -1      3694 9.86325E-03-3.63830E-04-4.54882E-14
 -1      3695 9.15134E-03 1.87355E-04-4.12544E-14
 -1      3696 1.39187E-02-8.36158E-04-9.81933E-14
 -1      3697 1.25102E-03-1.28083E-04-1.24335E-15
 -1      3698 1.25527E-03-1.59143E-04-1.24026E-15
 -1      3699 1.35817E-03-1.73255E-04-1.42085E-15
 -1      3700 1.37122E-03-1.19037E-04-1.46344E-15
 -1      3701 1.37981E-02-8.07461E-04-9.65648E-14
 -1      3702 1.39170E-02-8.04692E-04-9.82373E-14
 -1      3703 1.39036E-02-7.63767E-04-9.81376E-14
 -1      3704 1.36891E-02-7.88295E-04-9.50889E-14
 -1      3705 9.83018E-03-1.24161E-04-4.51131E-14
 -1      3706 9.94721E-03-1.73077E-04-4.56400E-14
 -1      3707 2.55931E-03-2.05358E-04-4.48030E-15
 -1      3708 2.70080E-03-2.04562E-04-4.95625E-15
 -1      3709 2.84168E-03-2.03196E-04-5.45642E-15
 -1      3710 2.98192E-03-2.01290E-04-5.98076E-15
 -1      3711 2.76435E-03-1.70732E-04-5.20139E-15
 -1      3712 3.12138E-03-1.99022E-04-6.52825E-15
 -1      3713 3.26002E-03-1.96406E-04-7.09963E-15
 -1      3714 3.04378E-03-1.67668E-04-6.24700E-15
 -1      3715 3.39773E-03-1.93636E-04-7.69488E-15
 -1      3716 3.53446E-03-1.90712E-04-8.31315E-15
 -1      3717 3.31961E-03-1.63447E-04-7.38740E-15
 -1      3718 3.67007E-03-1.87848E-04-8.95567E-15
 -1      3719 3.80455E-03-1.85031E-04-9.62128E-15
 -1      3720 3.59103E-03-1.58768E-04-8.62205E-15
 -1      3721 3.93772E-03-1.82501E-04-1.03099E-14
 -1      3722 4.06963E-03-1.80220E-04-1.10223E-14
 -1      3723 3.85719E-03-1.54345E-04-9.95058E-15
 -1      3724 4.20005E-03-1.78459E-04-1.17575E-14
 -1      3725 4.32912E-03-1.77148E-04-1.25154E-14
 -1      3726 4.11714E-03-1.50875E-04-1.13726E-14
 -1      3727 4.45652E-03-1.76580E-04-1.32956E-14
 -1      3728 4.58262E-03-1.76660E-04-1.40984E-14
 -1      3729 4.36984E-03-1.49000E-04-1.28855E-14
 -1      3730 4.70690E-03-1.77696E-04-1.49238E-14
 -1      3731 4.83021E-03-1.79510E-04-1.57717E-14
 -1      3732 4.61413E-03-1.49211E-04-1.44887E-14
 -1      3733 4.98526E-03-1.77203E-04-1.69594E-14
 -1      3734 4.05326E-03 2.05364E-04-1.01283E-14
 -1      3735 3.91465E-03 2.09139E-04-9.44970E-15
 -1      3736 1.01266E-02-3.63127E-04-4.84511E-14
 -1      3737 1.02490E-02-3.74547E-04-5.00139E-14
 -1      3738 9.97203E-03-3.31501E-04-4.61517E-14
 -1      3739 1.03722E-02-3.86811E-04-5.15954E-14
 -1      3740 1.04973E-02-4.00095E-04-5.31955E-14
 -1      3741 1.03301E-02-3.53140E-04-5.07408E-14
 -1      3742 1.06235E-02-4.14068E-04-5.48151E-14
 -1      3743 1.07514E-02-4.28807E-04-5.64549E-14
 -1      3744 1.05716E-02-3.79924E-04-5.39376E-14
 -1      3745 1.08805E-02-4.44050E-04-5.81107E-14
 -1      3746 1.10110E-02-4.59878E-04-5.97853E-14
 -1      3747 1.08212E-02-4.08846E-04-5.72130E-14
 -1      3748 1.11428E-02-4.76047E-04-6.14787E-14
 -1      3749 1.12757E-02-4.92607E-04-6.31894E-14
 -1      3750 1.10780E-02-4.39547E-04-6.05604E-14
 -1      3751 1.14097E-02-5.09352E-04-6.49166E-14
 -1      3752 1.15448E-02-5.26314E-04-6.66577E-14
 -1      3753 1.13406E-02-4.71533E-04-6.39780E-14
 -1      3754 1.16807E-02-5.43327E-04-6.84158E-14
 -1      3755 1.18174E-02-5.60414E-04-7.01880E-14
 -1      3756 1.16081E-02-5.04284E-04-6.74620E-14
 -1      3757 1.19549E-02-5.77450E-04-7.19730E-14
 -1      3758 1.20931E-02-5.94457E-04-7.37732E-14
 -1      3759 1.18797E-02-5.37336E-04-7.10040E-14
 -1      3760 1.22319E-02-6.11342E-04-7.55869E-14
 -1      3761 1.23713E-02-6.28128E-04-7.74164E-14
 -1      3762 1.21545E-02-5.70323E-04-7.46035E-14
 -1      3763 1.25111E-02-6.44754E-04-7.92584E-14
 -1      3764 1.26513E-02-6.61241E-04-8.11134E-14
 -1      3765 1.24320E-02-6.02993E-04-7.82592E-14
 -1      3766 1.27920E-02-6.77550E-04-8.29851E-14
 -1      3767 1.29329E-02-6.93702E-04-8.48682E-14
 -1      3768 1.27116E-02-6.35196E-04-8.19708E-14
 -1      3769 1.30742E-02-7.09676E-04-8.67625E-14
 -1      3770 1.32157E-02-7.25491E-04-8.86694E-14
 -1      3771 1.29928E-02-6.66857E-04-8.57357E-14
 -1      3772 1.33574E-02-7.41139E-04-9.05880E-14
 -1      3773 1.34993E-02-7.56637E-04-9.25183E-14
 -1      3774 1.32753E-02-6.97960E-04-8.95460E-14
 -1      3775 5.18759E-03 2.08166E-04-1.63928E-14
 -1      3776 5.03870E-03 2.00966E-04-1.55286E-14
 -1      3777 4.89336E-03 1.97176E-04-1.46878E-14
 -1      3778 4.75044E-03 1.95379E-04-1.38698E-14
 -1      3779 4.92582E-03 1.56186E-04-1.51947E-14
 -1      3780 9.91204E-03 5.77020E-06-4.81338E-14
 -1      3781 9.76573E-03 2.51420E-05-4.65951E-14
 -1      3782 1.25420E-03-4.28995E-05-1.25507E-15
 -1      3783 1.37648E-03-6.08460E-05-1.47792E-15
 -1      3784 1.25340E-03-1.34649E-05-1.24835E-15
 -1      3785 1.98939E-03-2.00233E-04-2.81394E-15
 -1      3786 2.13228E-03-2.02966E-04-3.19437E-15
 -1      3787 9.58001E-03 4.86971E-05-4.46710E-14
 -1      3788 9.42457E-03 7.68820E-05-4.31801E-14
 -1      3789 1.04761E-02-5.18676E-05-5.44987E-14
 -1      3790 1.03369E-02-3.93561E-05-5.28765E-14
 -1      3791 1.07528E-02-7.45830E-05-5.78023E-14
 -1      3792 1.06145E-02-6.35104E-05-5.61405E-14
 -1      3793 1.05784E-02-9.16582E-05-5.54397E-14
 -1      3794 1.10290E-02-9.55292E-05-6.11806E-14
 -1      3795 1.08909E-02-8.52063E-05-5.94824E-14
 -1      3796 1.08500E-02-1.12740E-04-5.87634E-14
 -1      3797 1.13059E-02-1.15699E-04-6.46316E-14
 -1      3798 1.11673E-02-1.05670E-04-6.28983E-14
 -1      3799 1.11225E-02-1.33093E-04-6.21593E-14
 -1      3800 1.15838E-02-1.35765E-04-6.81457E-14
 -1      3801 1.14447E-02-1.25720E-04-6.63803E-14
 -1      3802 1.13966E-02-1.53325E-04-6.56266E-14
 -1      3803 1.18631E-02-1.56182E-04-7.17171E-14
 -1      3804 1.17233E-02-1.45916E-04-6.99237E-14
 -1      3805 1.16725E-02-1.73844E-04-6.91543E-14
 -1      3806 1.21436E-02-1.77237E-04-7.53446E-14
 -1      3807 1.20032E-02-1.66624E-04-7.35255E-14
 -1      3808 1.19503E-02-1.94923E-04-7.27414E-14
 -1      3809 1.24253E-02-1.99088E-04-7.90278E-14
 -1      3810 1.22843E-02-1.88063E-04-7.71787E-14
 -1      3811 1.22297E-02-2.16725E-04-7.63821E-14
 -1      3812 1.27079E-02-2.21791E-04-8.27570E-14
 -1      3813 1.25665E-02-2.10336E-04-8.08866E-14
 -1      3814 1.25105E-02-2.39326E-04-8.00743E-14
 -1      3815 1.29913E-02-2.45337E-04-8.65357E-14
 -1      3816 1.28495E-02-2.33463E-04-8.46405E-14
 -1      3817 1.27926E-02-2.62730E-04-8.38177E-14
 -1      3818 1.32754E-02-2.69673E-04-9.03531E-14
 -1      3819 1.31333E-02-2.57413E-04-8.84399E-14
 -1      3820 1.30756E-02-2.86907E-04-8.76073E-14
 -1      3821 1.26684E-03 1.67440E-04-1.15451E-15
 -1      3822 1.26230E-03 1.35908E-04-1.17692E-15
 -1      3823 1.38247E-03 1.26906E-04-1.39756E-15
 -1      3824 1.39234E-03 1.92978E-04-1.34670E-15
 -1      3825 2.52537E-03 3.07985E-04-3.86144E-15
 -1      3826 2.38220E-03 3.07649E-04-3.44887E-15
 -1      3827 2.58833E-03 2.72751E-04-4.13459E-15
 -1      3828 1.79390E-03 2.25945E-04-2.11705E-15
 -1      3829 1.65077E-03 2.19380E-04-1.81722E-15
 -1      3830 1.36983E-02-2.63032E-04-9.61562E-14
 -1      3831 1.37848E-02-4.33197E-04-9.71063E-14
 -1      3832 1.36546E-02-4.01281E-04-9.53555E-14
 -1      3833 1.37987E-02-4.73847E-04-9.72321E-14
 -1      3834 1.32667E-03 2.74577E-04-1.12288E-15
 -1      3835 1.44611E-03 2.68733E-04-1.34376E-15
 -1      3836 8.86478E-03 2.56965E-04-3.87827E-14
 -1      3837 1.00162E-02-2.11461E-04-4.57809E-14
 -1      3838 1.00422E-02-2.33772E-04-4.57889E-14
 -1      3839 4.91711E-03-1.24243E-04-1.70548E-14
 -1      3840 4.89846E-03-1.00698E-04-1.71657E-14
 -1      3841 1.70354E-03-1.91110E-04-2.12616E-15
 -1      3842 1.84644E-03-1.96305E-04-2.45818E-15
 -1      3843 1.91255E-03-1.65770E-04-2.63521E-15
 -1      3844 1.50022E-03-1.82114E-04-1.69413E-15
 -1      3845 1.00426E-02-2.54668E-04-4.57695E-14
 -1      3846 1.00186E-02-2.75765E-04-4.57283E-14
 -1      3847 1.01969E-02-2.58879E-05-5.12738E-14
 -1      3848 1.00554E-02-1.08575E-05-4.96928E-14
 -1      3849 1.03064E-02-6.88883E-05-5.21941E-14
 -1      3850 1.34948E-02-3.02403E-04-9.33053E-14
 -1      3851 1.33813E-02-2.84820E-04-9.17766E-14
 -1      3852 1.33231E-02-3.14431E-04-9.09351E-14
 -1      3853 1.35347E-02-3.45133E-04-9.37886E-14
 -1      3854 1.49228E-03 2.37685E-04-1.47521E-15
 -1      3855 5.36492E-03 2.12622E-04-1.74841E-14
 -1      3856 2.27496E-03-2.04668E-04-3.59905E-15
 -1      3857 2.41734E-03-2.05410E-04-4.02773E-15
 -1      3858 2.19786E-03-1.70541E-04-3.39491E-15
 -1      3859 4.88158E-03-1.46530E-04-1.64936E-14
 -1      3860 1.00623E-02-3.08785E-04-4.68557E-14
 -1      3861 9.08224E-03 1.62889E-04-4.02432E-14
 -1      3862 1.56796E-03 2.11108E-04-1.65920E-15
 -1      3863 1.47475E-03 2.02177E-04-1.48895E-15
 -1      3864 1.46895E-03 1.67797E-04-1.51840E-15
 -1      3865 1.63376E-03 1.83359E-04-1.82967E-15
 -1      3866 9.25207E-03 1.19143E-04-4.16921E-14
 -1      3867 1.37472E-03 1.29724E-06-1.46230E-15
 -1      3868 9.71454E-03-1.03509E-05-4.55429E-14
 -1      3869 1.01581E-02-3.05707E-04-4.80209E-14
 -1      3870 1.00313E-02-4.28467E-05-4.90304E-14
 -1      3871 4.19175E-03 2.01914E-04-1.08296E-14
 -1      3872 4.10340E-03 1.69919E-04-1.05533E-14
 -1      3873 4.33048E-03 1.98986E-04-1.15547E-14
 -1      3874 1.36065E-02-7.44743E-04-9.40296E-14
 -1      3875 2.93517E-03 2.34146E-04-5.36582E-15
 -1      3876 2.79353E-03 2.36268E-04-4.87709E-15
 -1      3877 2.30245E-03 2.72148E-04-3.30401E-15
 -1      3878 3.43932E-03 2.56956E-04-7.19127E-15
 -1      3879 5.23522E-03 1.56128E-04-1.71261E-14
 -1      3880 1.00527E-02-1.94453E-04-4.67806E-14
 -1      3881 3.77589E-03 2.13089E-04-8.79447E-15
 -1      3882 3.63679E-03 2.17110E-04-8.16323E-15
 -1      3883 3.83010E-03 1.77927E-04-9.19241E-15
 -1      3884 2.48210E-03-1.71937E-04-4.25057E-15
 -1      3885 1.49779E-03-4.73179E-05-1.71317E-15
 -1      3886 1.49976E-03-8.00069E-05-1.71908E-15
 -1      3887 1.56664E-03-1.55249E-04-1.84312E-15
 -1      3888 1.01129E-02-2.51486E-04-4.69024E-14
 -1      3889 2.08036E-03 2.34579E-04-2.78663E-15
 -1      3890 1.93712E-03 2.30977E-04-2.44002E-15
 -1      3891 1.85938E-03 1.95702E-04-2.31056E-15
 -1      3892 4.77838E-03-1.27219E-04-1.58675E-14
 -1      3893 1.37738E-02-7.30409E-04-9.63908E-14
 -1      3894 1.50004E-03 8.26149E-05-1.65894E-15
 -1      3895 1.49797E-03 4.99696E-05-1.67711E-15
 -1      3896 1.35946E-02-5.71459E-04-9.42175E-14
 -1      3897 1.35809E-02-5.31313E-04-9.41037E-14
 -1      3898 1.36828E-02-4.82511E-04-9.56064E-14
 -1      3899 3.21715E-03 2.28335E-04-6.41379E-15
 -1      3900 3.07637E-03 2.31488E-04-5.87792E-15
 -1      3901 2.99713E-03 1.98992E-04-5.67663E-15
 -1      3902 4.83784E-03-8.41462E-05-1.66907E-14
 -1      3903 1.49689E-03 1.75094E-05-1.69211E-15
 -1      3904 1.49683E-03-1.48804E-05-1.70428E-15
 -1      3905 1.61970E-03-3.22720E-05-1.96414E-15
 -1      3906 1.61984E-03 3.49060E-05-1.93721E-15
 -1      3907 4.60944E-03 1.95462E-04-1.30750E-14
 -1      3908 4.46952E-03 1.96717E-04-1.23033E-14
 -1      3909 4.37565E-03 1.62695E-04-1.20079E-14
 -1      3910 4.83214E-03-4.27964E-05-1.64822E-14
 -1      3911 4.90818E-03-3.23478E-05-1.69732E-14
 -1      3912 4.88501E-03-6.26939E-06-1.64875E-14
 -1      3913 1.36216E-02-6.51987E-04-9.44325E-14
 -1      3914 1.36081E-02-6.11699E-04-9.43271E-14
 -1      3915 1.34788E-02-5.79275E-04-9.25985E-14
 -1      3916 4.99381E-03 4.54132E-05-1.66532E-14
 -1      3917 5.09335E-03 6.38489E-05-1.71070E-14
 -1      3918 9.74091E-03-4.68495E-05-4.53386E-14
 -1      3919 9.79925E-03-9.25886E-05-4.53258E-14
 -1      3920 9.95533E-03-1.23193E-04-4.68473E-14
 -1      3921 9.91103E-03-6.12721E-05-4.72734E-14
 -1      3922 1.35489E-02-3.85648E-04-9.39191E-14
 -1      3923 1.34432E-02-3.70116E-04-9.24905E-14
 -1      3924 1.35631E-02-4.26047E-04-9.40481E-14
 -1      3925 5.19779E-03 1.14660E-04-1.72722E-14
 -1      3926 1.57324E-03-1.26438E-04-1.86534E-15
 -1      3927 1.69437E-03-1.12938E-04-2.13191E-15
 -1      3928 4.64864E-03 1.57377E-04-1.35551E-14
 -1      3929 2.96777E-03-1.36226E-04-5.96889E-15
 -1      3930 3.10616E-03-1.34774E-04-6.51406E-15
 -1      3931 3.24349E-03-1.33191E-04-7.08259E-15
 -1      3932 3.37969E-03-1.31447E-04-7.67532E-15
 -1      3933 3.16919E-03-1.02659E-04-6.78116E-15
 -1      3934 3.51460E-03-1.29735E-04-8.29148E-15
 -1      3935 3.64814E-03-1.28005E-04-8.93097E-15
 -1      3936 3.44050E-03-1.00438E-04-7.96340E-15
 -1      3937 3.78011E-03-1.26478E-04-9.59398E-15
 -1      3938 3.91043E-03-1.25060E-04-1.02799E-14
 -1      3939 3.70608E-03-9.84427E-05-9.23929E-15
 -1      3940 4.03887E-03-1.24014E-04-1.09892E-14
 -1      3941 4.16535E-03-1.23176E-04-1.17220E-14
 -1      3942 3.96471E-03-9.71867E-05-1.06086E-14
 -1      3943 4.28951E-03-1.22876E-04-1.24771E-14
 -1      3944 4.41131E-03-1.22826E-04-1.32548E-14
 -1      3945 4.21482E-03-9.71377E-05-1.20701E-14
 -1      3946 4.53018E-03-1.23446E-04-1.40553E-14
 -1      3947 4.64621E-03-1.24256E-04-1.48779E-14
 -1      3948 4.45427E-03-9.86904E-05-1.36232E-14
 -1      3949 4.74118E-03-8.55559E-05-1.58317E-14
 -1      3950 4.77107E-03-6.33048E-05-1.60965E-14
 -1      3951 2.36643E-03 2.38147E-04-3.55240E-15
 -1      3952 2.22348E-03 2.36942E-04-3.15718E-15
 -1      3953 2.14541E-03 2.02068E-04-3.01011E-15
 -1      3954 1.02877E-02-3.22012E-04-4.98867E-14
 -1      3955 1.04019E-02-3.34801E-04-5.14648E-14
 -1      3956 1.02241E-02-2.89506E-04-4.87265E-14
 -1      3957 1.05190E-02-3.47839E-04-5.30620E-14
 -1      3958 1.06391E-02-3.61480E-04-5.46793E-14
 -1      3959 1.04651E-02-3.17810E-04-5.21879E-14
 -1      3960 1.07615E-02-3.75355E-04-5.63152E-14
 -1      3961 1.08863E-02-3.89816E-04-5.79708E-14
 -1      3962 1.07007E-02-3.43554E-04-5.54188E-14
 -1      3963 1.10129E-02-4.04533E-04-5.96427E-14
 -1      3964 1.11413E-02-4.19680E-04-6.13334E-14
 -1      3965 1.09470E-02-3.70978E-04-5.87264E-14
 -1      3966 1.12713E-02-4.35017E-04-6.30424E-14
 -1      3967 1.14028E-02-4.50646E-04-6.47660E-14
 -1      3968 1.12016E-02-3.99776E-04-6.21055E-14
 -1      3969 1.15356E-02-4.66378E-04-6.65073E-14
 -1      3970 1.16695E-02-4.82278E-04-6.82642E-14
 -1      3971 1.14627E-02-4.29593E-04-6.55551E-14
 -1      3972 1.18045E-02-4.98198E-04-7.00353E-14
 -1      3973 1.19405E-02-5.14187E-04-7.18203E-14
 -1      3974 1.17292E-02-4.60036E-04-6.90676E-14
 -1      3975 1.20773E-02-5.30131E-04-7.36194E-14
 -1      3976 1.22149E-02-5.46068E-04-7.54332E-14
 -1      3977 1.20000E-02-4.90775E-04-7.26362E-14
 -1      3978 1.23531E-02-5.61922E-04-7.72610E-14
 -1      3979 1.24920E-02-5.77719E-04-7.91020E-14
 -1      3980 1.22743E-02-5.21552E-04-7.62623E-14
 -1      3981 1.26314E-02-5.93406E-04-8.09568E-14
 -1      3982 1.27714E-02-6.09009E-04-8.28257E-14
 -1      3983 1.25513E-02-5.52198E-04-7.99443E-14
 -1      3984 1.29117E-02-6.24493E-04-8.47065E-14
 -1      3985 1.30524E-02-6.39877E-04-8.65999E-14
 -1      3986 1.28306E-02-5.82600E-04-8.36785E-14
 -1      3987 1.31934E-02-6.55142E-04-8.85061E-14
 -1      3988 1.33347E-02-6.70306E-04-9.04203E-14
 -1      3989 1.31116E-02-6.12701E-04-8.74661E-14
 -1      3990 3.49735E-03 2.21048E-04-7.55621E-15
 -1      3991 3.35746E-03 2.24841E-04-6.97345E-15
 -1      3992 3.27717E-03 1.93111E-04-6.75325E-15
 -1      3993 3.55482E-03 1.85883E-04-7.92511E-15
 -1      3994 1.76323E-03-6.81746E-05-2.29036E-15
 -1      3995 1.83672E-03-1.16221E-04-2.46271E-15
 -1      3996 1.97918E-03-1.18671E-04-2.81749E-15
 -1      3997 1.33376E-02-3.54692E-04-9.10666E-14
 -1      3998 1.32320E-02-3.39389E-04-8.96487E-14
 -1      3999 1.33520E-02-3.94802E-04-9.11959E-14
 -1      4000 1.06771E-02-1.29121E-04-5.63815E-14
 -1      4001 1.05441E-02-1.18861E-04-5.47382E-14
 -1      4002 1.14854E-02-1.90383E-04-6.66201E-14
 -1      4003 1.13492E-02-1.80001E-04-6.48697E-14
 -1      4004 1.17598E-02-2.11607E-04-7.01637E-14
 -1      4005 1.16223E-02-2.00928E-04-6.83843E-14
 -1      4006 1.15725E-02-2.27136E-04-6.76128E-14
 -1      4007 1.20364E-02-2.33510E-04-7.37620E-14
 -1      4008 1.18978E-02-2.22478E-04-7.19558E-14
 -1      4009 1.18457E-02-2.49259E-04-7.11712E-14
 -1      4010 1.23150E-02-2.56162E-04-7.74158E-14
 -1      4011 1.21754E-02-2.44748E-04-7.55846E-14
 -1      4012 1.21215E-02-2.72103E-04-7.47838E-14
 -1      4013 1.25952E-02-2.79575E-04-8.11221E-14
 -1      4014 1.24549E-02-2.67781E-04-7.92637E-14
 -1      4015 1.23995E-02-2.95670E-04-7.84508E-14
 -1      4016 1.28768E-02-3.03715E-04-8.48791E-14
 -1      4017 1.27359E-02-2.91561E-04-8.29939E-14
 -1      4018 1.26794E-02-3.19927E-04-8.21688E-14
 -1      4019 1.31250E-02-3.27663E-04-8.82081E-14
 -1      4020 1.29836E-02-3.15200E-04-8.63047E-14
 -1      4021 1.29263E-02-3.43900E-04-8.54707E-14
 -1      4022 1.31397E-02-3.67427E-04-8.83360E-14
 -1      4023 1.48574E-03 1.41762E-04-1.57853E-15
 -1      4024 1.48183E-03 1.08414E-04-1.60204E-15
 -1      4025 1.60298E-03 9.54439E-05-1.85820E-15
 -1      4026 1.56785E-03 1.48936E-04-1.73388E-15
 -1      4027 4.68475E-03 1.20049E-04-1.40377E-14
 -1      4028 4.55175E-03 1.23606E-04-1.32389E-14
 -1      4029 4.69906E-03-1.03190E-04-1.54090E-14
 -1      4030 2.65151E-03 2.37695E-04-4.41181E-15
 -1      4031 2.50912E-03 2.38377E-04-3.97040E-15
 -1      4032 2.43081E-03 2.04184E-04-3.80495E-15
 -1      4033 2.71489E-03 2.02909E-04-4.69426E-15
 -1      4034 1.35791E-02-4.98987E-04-9.41385E-14
 -1      4035 1.35650E-02-4.58505E-04-9.40191E-14
 -1      4036 1.34595E-02-4.42714E-04-9.25907E-14
 -1      4037 1.34634E-02-5.07143E-04-9.25257E-14
 -1      4038 2.40604E-03-1.38646E-04-4.02398E-15
 -1      4039 2.54748E-03-1.38673E-04-4.47472E-15
 -1      4040 1.01807E-02-8.61257E-05-5.03849E-14
 -1      4041 1.00463E-02-7.41134E-05-4.88192E-14
 -1      4042 1.00627E-02-1.04287E-04-4.86041E-14
 -1      4043 1.04293E-02-1.08251E-04-5.33493E-14
 -1      4044 1.02962E-02-9.74794E-05-5.17421E-14
 -1      4045 1.03047E-02-1.24846E-04-5.15209E-14
 -1      4046 1.05289E-02-1.44926E-04-5.42725E-14
 -1      4047 1.35840E-02-6.99343E-04-9.38146E-14
 -1      4048 4.89004E-03 2.48680E-05-1.61764E-14
 -1      4049 4.89719E-03 6.02305E-05-1.58627E-14
 -1      4050 4.79567E-03 8.39075E-06-1.57042E-14
 -1      4051 5.03756E-03 1.20450E-04-1.61912E-14
 -1      4052 1.02329E-02-2.65321E-04-4.87502E-14
 -1      4053 1.09442E-02-1.49382E-04-5.97224E-14
 -1      4054 1.08103E-02-1.39275E-04-5.80435E-14
 -1      4055 1.07717E-02-1.64792E-04-5.73234E-14
 -1      4056 1.01136E-02-1.80393E-04-4.80119E-14
 -1      4057 1.01697E-02-2.19024E-04-4.81578E-14
 -1      4058 1.12135E-02-1.69708E-04-6.31368E-14
 -1      4059 1.10785E-02-1.59530E-04-6.14218E-14
 -1      4060 1.13022E-02-2.05718E-04-6.41146E-14
 -1      4061 2.12169E-03-1.28610E-04-3.19512E-15
 -1      4062 2.26391E-03-1.29789E-04-3.59814E-15
 -1      4063 2.33110E-03-9.72829E-05-3.80101E-15
 -1      4064 2.04739E-03-7.92448E-05-2.99771E-15
 -1      4065 2.68832E-03-1.38247E-04-4.94904E-15
 -1      4066 2.82846E-03-1.37380E-04-5.44691E-15
 -1      4067 2.89321E-03-1.04567E-04-5.69309E-15
 -1      4068 4.90099E-03 1.20793E-04-1.53350E-14
 -1      4069 4.79657E-03 8.52379E-05-1.49932E-14
 -1      4070 4.72636E-03-4.25101E-05-1.56326E-14
 -1      4071 4.61671E-03-8.14881E-05-1.48437E-14
 -1      4072 1.33724E-02-6.23595E-04-9.10368E-14
 -1      4073 1.34548E-02-6.66352E-04-9.20889E-14
 -1      4074 3.88370E-03 1.43700E-04-9.59248E-15
 -1      4075 3.74822E-03 1.47726E-04-8.93231E-15
 -1      4076 4.15245E-03 1.35440E-04-1.09812E-14
 -1      4077 4.01837E-03 1.39604E-04-1.02757E-14
 -1      4078 3.93685E-03 1.10474E-04-9.99594E-15
 -1      4079 1.03143E-02-2.57182E-04-5.00167E-14
 -1      4080 2.77862E-03 1.68455E-04-4.98021E-15
 -1      4081 2.63740E-03 1.69713E-04-4.50936E-15
 -1      4082 2.61352E-03-1.05675E-04-4.69958E-15
 -1      4083 4.41898E-03 1.27322E-04-1.24641E-14
 -1      4084 4.28584E-03 1.31313E-04-1.17112E-14
 -1      4085 4.20055E-03 1.01983E-04-1.14131E-14
 -1      4086 1.76157E-03-3.33753E-05-2.28039E-15
 -1      4087 4.46056E-03 9.29103E-05-1.29221E-14
 -1      4088 1.74346E-03 5.32374E-05-2.19682E-15
 -1      4089 1.74223E-03 1.85844E-05-2.21551E-15
 -1      4090 3.05926E-03 1.64377E-04-5.99117E-15
 -1      4091 2.91925E-03 1.66675E-04-5.47384E-15
 -1      4092 2.84272E-03 1.34414E-04-5.27009E-15
 -1      4093 1.65016E-03 1.55849E-04-1.89716E-15
 -1      4094 1.93558E-03 1.64255E-04-2.53482E-15
 -1      4095 1.79278E-03 1.60628E-04-2.20407E-15
 -1      4096 1.72734E-03 1.26438E-04-2.09622E-15
 -1      4097 1.74511E-03 9.86660E-05-2.16346E-15
 -1      4098 1.33591E-02-5.83787E-04-9.09333E-14
 -1      4099 1.33455E-02-5.44021E-04-9.08266E-14
 -1      4100 1.32395E-02-5.88058E-04-8.92748E-14
 -1      4101 1.00809E-02-1.31420E-04-4.84211E-14
 -1      4102 1.00975E-02-1.57618E-04-4.81999E-14
 -1      4103 1.02298E-02-1.86630E-04-4.96021E-14
 -1      4104 1.02060E-02-1.40414E-04-4.99816E-14
 -1      4105 1.10353E-02-1.84951E-04-6.06841E-14
 -1      4106 1.33438E-02-5.12122E-04-9.08659E-14
 -1      4107 1.33420E-02-4.80168E-04-9.09016E-14
 -1      4108 1.32245E-02-5.16881E-04-8.92103E-14
 -1      4109 1.86679E-03 8.29922E-05-2.45988E-15
 -1      4110 3.36856E-03-7.07999E-05-7.63755E-15
 -1      4111 3.50250E-03-7.03346E-05-8.25078E-15
 -1      4112 3.63485E-03-7.00937E-05-8.88697E-15
 -1      4113 3.76551E-03-6.99575E-05-9.54652E-15
 -1      4114 3.56595E-03-4.11644E-05-8.53706E-15
 -1      4115 3.89425E-03-7.01606E-05-1.02304E-14
 -1      4116 4.02092E-03-7.05494E-05-1.09363E-14
 -1      4117 3.82681E-03-4.25220E-05-9.85385E-15
 -1      4118 4.14519E-03-7.14450E-05-1.16656E-14
 -1      4119 4.26686E-03-7.25471E-05-1.24185E-14
 -1      4120 4.07961E-03-4.51226E-05-1.12631E-14
 -1      4121 4.38546E-03-7.43474E-05-1.31934E-14
 -1      4122 4.50073E-03-7.63635E-05-1.39913E-14
 -1      4123 4.32220E-03-4.94230E-05-1.27657E-14
 -1      4124 2.22108E-03 1.68513E-04-3.26750E-15
 -1      4125 2.07839E-03 1.66871E-04-2.88932E-15
 -1      4126 2.01245E-03 1.32199E-04-2.76638E-15
 -1      4127 3.66904E-03 1.18162E-04-8.67217E-15
 -1      4128 3.61200E-03 1.51563E-04-8.29684E-15
 -1      4129 3.47496E-03 1.55230E-04-7.68533E-15
 -1      4130 1.08624E-02-1.99001E-04-5.82667E-14
 -1      4131 1.07336E-02-1.89074E-04-5.66053E-14
 -1      4132 1.06375E-02-3.13222E-04-5.45269E-14
 -1      4133 1.07571E-02-3.25847E-04-5.61602E-14
 -1      4134 1.08794E-02-3.38694E-04-5.78119E-14
 -1      4135 1.10039E-02-3.52074E-04-5.94835E-14
 -1      4136 1.08093E-02-3.07589E-04-5.69001E-14
 -1      4137 1.11306E-02-3.65674E-04-6.11733E-14
 -1      4138 1.12590E-02-3.79655E-04-6.28800E-14
 -1      4139 1.10579E-02-3.32610E-04-6.02411E-14
 -1      4140 1.13890E-02-3.93824E-04-6.46038E-14
 -1      4141 1.15205E-02-4.08259E-04-6.63436E-14
 -1      4142 1.13142E-02-3.59027E-04-6.36536E-14
 -1      4143 1.16533E-02-4.22779E-04-6.80992E-14
 -1      4144 1.17873E-02-4.37474E-04-6.98704E-14
 -1      4145 1.15766E-02-3.86394E-04-6.71332E-14
 -1      4146 1.19223E-02-4.52209E-04-7.16548E-14
 -1      4147 1.20583E-02-4.67041E-04-7.34530E-14
 -1      4148 1.18442E-02-4.14418E-04-7.06734E-14
 -1      4149 1.21952E-02-4.81864E-04-7.52663E-14
 -1      4150 1.23328E-02-4.96731E-04-7.70922E-14
 -1      4151 1.21158E-02-4.42837E-04-7.42702E-14
 -1      4152 1.24711E-02-5.11568E-04-7.89335E-14
 -1      4153 1.26101E-02-5.26398E-04-8.07871E-14
 -1      4154 1.23907E-02-4.71509E-04-7.79225E-14
 -1      4155 1.27495E-02-5.41185E-04-8.26529E-14
 -1      4156 1.28894E-02-5.55947E-04-8.45334E-14
 -1      4157 1.26683E-02-5.00256E-04-8.16271E-14
 -1      4158 1.29939E-02-5.64730E-04-8.59449E-14
 -1      4159 1.31345E-02-5.79386E-04-8.78477E-14
 -1      4160 1.31212E-02-5.40127E-04-8.77439E-14
 -1      4161 1.29121E-02-5.23169E-04-8.49068E-14
 -1      4162 2.50066E-03 1.69823E-04-4.07846E-15
 -1      4163 2.35853E-03 1.69783E-04-3.65401E-15
 -1      4164 2.29233E-03 1.35214E-04-3.51654E-15
 -1      4165 2.56602E-03 1.36122E-04-4.34096E-15
 -1      4166 1.88419E-03-1.64406E-05-2.56671E-15
 -1      4167 1.19303E-02-2.86901E-04-7.21773E-14
 -1      4168 1.17936E-02-2.75239E-04-7.03861E-14
 -1      4169 1.33541E-02-4.27016E-04-9.11679E-14
 -1      4170 1.16578E-02-2.63724E-04-6.86053E-14
 -1      4171 1.15227E-02-2.52424E-04-6.68412E-14
 -1      4172 1.17415E-02-3.00375E-04-6.95982E-14
 -1      4173 1.24834E-02-3.35303E-04-7.94830E-14
 -1      4174 1.23442E-02-3.22966E-04-7.76378E-14
 -1      4175 1.27631E-02-3.60421E-04-8.32186E-14
 -1      4176 1.26230E-02-3.47798E-04-8.13452E-14
 -1      4177 1.25666E-02-3.75155E-04-8.05161E-14
 -1      4178 2.00914E-03 8.45181E-05-2.81065E-15
 -1      4179 4.61487E-03-3.96434E-05-1.47728E-14
 -1      4180 4.68458E-03-1.60643E-05-1.51380E-14
 -1      4181 2.53997E-03-7.30650E-05-4.45346E-15
 -1      4182 2.68042E-03-7.29612E-05-4.92508E-15
 -1      4183 1.11234E-02-2.19682E-04-6.16459E-14
 -1      4184 1.09923E-02-2.09237E-04-5.99469E-14
 -1      4185 1.09493E-02-2.32390E-04-5.92103E-14
 -1      4186 4.69504E-03 6.42487E-05-1.45443E-14
 -1      4187 4.55590E-03-5.80116E-05-1.43902E-14
 -1      4188 2.82008E-03-7.27039E-05-5.42031E-15
 -1      4189 2.95885E-03-7.22794E-05-5.93953E-15
 -1      4190 2.74824E-03-4.05696E-05-5.15106E-15
 -1      4191 4.67427E-03 1.14123E-05-1.48442E-14
 -1      4192 4.50072E-03 6.00175E-05-1.33819E-14
 -1      4193 4.37515E-03 6.51165E-05-1.26033E-14
 -1      4194 1.13887E-02-2.41301E-04-6.50937E-14
 -1      4195 1.12555E-02-2.30419E-04-6.33610E-14
 -1      4196 1.12087E-02-2.54066E-04-6.26066E-14
 -1      4197 1.14729E-02-2.76777E-04-6.60708E-14
 -1      4198 1.22056E-02-3.10776E-04-7.58050E-14
 -1      4199 1.20676E-02-2.98763E-04-7.39844E-14
 -1      4200 1.22890E-02-3.49664E-04-7.68253E-14
 -1      4201 3.09660E-03-7.18169E-05-6.48240E-15
 -1      4202 3.23321E-03-7.12810E-05-7.04803E-15
 -1      4203 3.02550E-03-4.05511E-05-6.18621E-15
 -1      4204 4.57232E-03 3.41385E-05-1.40088E-14
 -1      4205 1.32348E-02-4.32451E-04-8.95172E-14
 -1      4206 1.03653E-02-2.36906E-04-5.09425E-14
 -1      4207 1.04239E-02-2.86667E-04-5.15466E-14
 -1      4208 4.29608E-03 3.92045E-05-1.22826E-14
 -1      4209 4.24830E-03 6.98626E-05-1.18467E-14
 -1      4210 4.11980E-03 7.43158E-05-1.11127E-14
 -1      4211 1.28692E-02-3.72188E-04-8.46360E-14
 -1      4212 1.28121E-02-4.00045E-04-8.38012E-14
 -1      4213 1.29755E-02-3.84048E-04-8.60613E-14
 -1      4214 1.03615E-02-1.98261E-04-5.13425E-14
 -1      4215 1.03654E-02-2.18296E-04-5.11447E-14
 -1      4216 1.04925E-02-2.49324E-04-5.26990E-14
 -1      4217 3.72633E-03 8.57712E-05-9.05084E-15
 -1      4218 3.59255E-03 8.90482E-05-8.41085E-15
 -1      4219 1.05375E-02-2.98294E-04-5.31439E-14
 -1      4220 1.31196E-02-5.08667E-04-8.77833E-14
 -1      4221 1.07130E-02-2.12066E-04-5.61263E-14
 -1      4222 1.06235E-02-1.79241E-04-5.51995E-14
 -1      4223 1.05138E-02-1.69663E-04-5.38073E-14
 -1      4224 3.99004E-03 7.84091E-05-1.04027E-14
 -1      4225 3.85879E-03 8.22516E-05-9.71506E-15
 -1      4226 4.04355E-03 4.76030E-05-1.08112E-14
 -1      4227 1.20137E-02-3.24708E-04-7.31854E-14
 -1      4228 3.33716E-03 1.58598E-04-7.09704E-15
 -1      4229 3.19856E-03 1.61687E-04-6.53232E-15
 -1      4230 3.12161E-03 1.30379E-04-6.30984E-15
 -1      4231 3.39720E-03 1.24877E-04-7.44400E-15
 -1      4232 2.25792E-03-5.62609E-05-3.57948E-15
 -1      4233 2.39916E-03-6.47366E-05-4.00469E-15
 -1      4234 2.46812E-03-3.22342E-05-4.20913E-15
 -1      4235 2.17726E-03 8.98090E-05-3.25113E-15
 -1      4236 2.03355E-03 4.14439E-05-2.91106E-15
 -1      4237 2.05174E-03-1.28370E-05-2.99195E-15
 -1      4238 4.50016E-03-3.25602E-05-1.39219E-14
 -1      4239 3.29845E-03-4.06150E-05-7.31502E-15
 -1      4240 2.90737E-03 1.00832E-04-5.56451E-15
 -1      4241 2.76758E-03 1.02200E-04-5.06565E-15
 -1      4242 1.04143E-02-1.59625E-04-5.25655E-14
 -1      4243 1.03054E-02-1.50254E-04-5.12020E-14
 -1      4244 1.03148E-02-1.73629E-04-5.10105E-14
 -1      4245 1.05080E-02-1.92623E-04-5.34776E-14
 -1      4246 3.78409E-03 5.44724E-05-9.43341E-15
 -1      4247 2.63203E-03 1.02639E-04-4.60709E-15
 -1      4248 2.49590E-03 1.02710E-04-4.17086E-15
 -1      4249 2.69872E-03 6.94473E-05-4.87784E-15
 -1      4250 1.05864E-02-2.81125E-04-5.38674E-14
 -1      4251 1.20962E-02-3.62762E-04-7.41909E-14
 -1      4252 1.19596E-02-3.49939E-04-7.23850E-14
 -1      4253 3.80163E-03 5.08370E-06-9.64951E-15
 -1      4254 3.93018E-03 2.84150E-06-1.03352E-14
 -1      4255 4.05678E-03 3.56719E-08-1.10437E-14
 -1      4256 4.18112E-03-2.99295E-06-1.17757E-14
 -1      4257 4.30313E-03-6.79622E-06-1.25309E-14
 -1      4258 4.42236E-03-1.07959E-05-1.33082E-14
 -1      4259 2.31428E-03 9.07325E-05-3.63774E-15
 -1      4260 1.09826E-02-3.00269E-04-5.93087E-14
 -1      4261 1.11091E-02-3.12473E-04-6.09978E-14
 -1      4262 1.12648E-02-3.06823E-04-6.31371E-14
 -1      4263 1.13954E-02-3.19179E-04-6.48657E-14
 -1      4264 1.15274E-02-3.31689E-04-6.66085E-14
 -1      4265 1.16605E-02-3.44490E-04-6.83682E-14
 -1      4266 1.20105E-02-4.08306E-04-7.29244E-14
 -1      4267 1.21470E-02-4.22153E-04-7.47334E-14
 -1      4268 1.23099E-02-4.31976E-04-7.69122E-14
 -1      4269 1.24480E-02-4.45861E-04-7.87500E-14
 -1      4270 1.26182E-02-4.37630E-04-8.10782E-14
 -1      4271 1.27577E-02-4.51285E-04-8.29481E-14
 -1      4272 1.29105E-02-4.92180E-04-8.49490E-14
 -1      4273 1.30149E-02-5.00439E-04-8.63630E-14
 -1      4274 1.31178E-02-4.77173E-04-8.78231E-14
 -1      4275 1.23971E-02-3.84459E-04-7.81989E-14
 -1      4276 1.22589E-02-3.71468E-04-7.63638E-14
 -1      4277 3.51860E-03 6.00321E-05-8.14855E-15
 -1      4278 3.45763E-03 9.19978E-05-7.79484E-15
 -1      4279 3.32155E-03 9.47007E-05-7.20193E-15
 -1      4280 1.17948E-02-3.57402E-04-7.01424E-14
 -1      4281 2.26380E-03 1.11384E-05-3.56553E-15
 -1      4282 2.11644E-03-4.75651E-05-3.17875E-15
 -1      4283 1.31281E-02-4.20270E-04-8.80766E-14
 -1      4284 1.10550E-02-2.61703E-04-6.04787E-14
 -1      4285 1.09273E-02-2.50795E-04-5.87945E-14
 -1      4286 3.04634E-03 9.91302E-05-6.08659E-15
 -1      4287 2.97266E-03 6.77876E-05-5.86280E-15
 -1      4288 3.18444E-03 9.70504E-05-6.63272E-15
 -1      4289 4.49406E-03 9.95045E-06-1.36673E-14
 -1      4290 1.05950E-02-2.62984E-04-5.40800E-14
 -1      4291 2.44416E-03 2.27794E-05-4.09834E-15
 -1      4292 2.58394E-03 1.43824E-05-4.55296E-15
 -1      4293 2.71914E-03 1.44466E-05-5.01030E-15
 -1      4294 2.85852E-03 1.39573E-05-5.50802E-15
 -1      4295 2.38242E-03 5.79799E-05-3.87633E-15
 -1      4296 2.99699E-03 1.32595E-05-6.02955E-15
 -1      4297 3.67122E-03 7.13924E-06-8.98718E-15
 -1      4298 3.23001E-03-9.88009E-06-6.99556E-15
 -1      4299 3.36520E-03-1.05886E-05-7.58131E-15
 -1      4300 1.07251E-02-2.75348E-04-5.58488E-14
 -1      4301 1.08473E-02-2.86688E-04-5.74971E-14
 -1      4302 1.08935E-02-2.66566E-04-5.82358E-14
 -1      4303 1.06256E-02-2.41872E-04-5.46588E-14
 -1      4304 3.13442E-03 1.24889E-05-6.57434E-15
 -1      4305 3.53915E-03 8.77133E-06-8.34863E-15
 -1      4306 3.20490E-03 4.30230E-05-6.81927E-15
 -1      4307 1.22032E-02-3.97097E-04-7.55492E-14
 -1      4308 1.07903E-02-2.38328E-04-5.69875E-14
 -1      4309 1.06834E-02-2.28325E-04-5.55805E-14
 -1      4310 1.19301E-02-3.70506E-04-7.19313E-14
 -1      4311 1.28634E-02-4.63742E-04-8.43645E-14
 -1      4312 1.30703E-02-4.48417E-04-8.72314E-14
 -1      4313 1.24792E-02-4.24066E-04-7.92194E-14
 -1      4314 3.47566E-03 3.94484E-05-7.99789E-15
 -1      4315 1.04555E-02-2.07437E-04-5.25740E-14
 -1      4316 1.05501E-02-2.16871E-04-5.38132E-14
 -1      4317 1.29657E-02-4.40582E-04-8.58120E-14
 -1      4318 1.11842E-02-2.72988E-04-6.21807E-14
 -1      4319 3.34091E-03 4.13481E-05-7.39725E-15
 -1      4320 3.24785E-03 6.44487E-05-6.95873E-15
 -3
    1PSTEP                         2           1           1          
  100CL  101 1.000000000        4320                     0    1           1
 -4  STRESS      6    1
 -5  SXX         1    4    1    1
 -5  SYY         1    4    2    2
 -5  SZZ         1    4    3    3
 -5  SXY         1    4    1    2
 -5  SYZ         1    4    2    3
 -5  SZX         1    4    3    1
 -1         1 4.77579E+00 4.91690E+00-8.71574E-01 5.14231E+00-3.12378E-12-2.47785E-12
 -1         2-7.11550E-01-2.43202E+01-3.32884E+00 1.53256E-01-1.21748E-12 1.78441E-13
 -1         3 2.00000E+01 2.46581E-04 1.96852E-03 2.11715E-04-7.35808E-13-6.88179E-13
 -1         4 2.00000E+01 1.83613E-04 1.93334E-03-1.54554E-04 3.41966E-13 3.19293E-14
 -1         5 3.26158E+01 6.11429E+00 2.72199E+00 6.19799E+00-3.55341E-14 2.51228E-12
 -1         6 3.55806E+01 1.22016E+01 5.09108E+00-8.60654E+00-1.40776E-13 2.12935E-12
 -1         7 2.07768E+01 6.08683E+00-1.25374E-01-4.69937E+00-2.01783E-14 3.69538E-13
 -1         8 1.96636E+01 5.93180E+00 5.27269E-02-3.24551E+00-2.50598E-14-1.52316E-13
 -1         9 1.91497E+01 5.77514E+00 5.03907E-02-2.49306E+00-1.98661E-14-4.32886E-13
 -1        10 1.89188E+01 5.69858E+00 5.18699E-02-1.91552E+00-1.45153E-14-5.60443E-13
 -1        11 1.87998E+01 5.65863E+00 5.02498E-02-1.42221E+00-9.72269E-15-6.16521E-13
 -1        12 1.87355E+01 5.63670E+00 4.79411E-02-9.87251E-01-3.56854E-15-6.41916E-13
 -1        13 1.86999E+01 5.62465E+00 4.60515E-02-5.77029E-01-7.46148E-16-6.44401E-13
 -1        14 1.86842E+01 5.61933E+00 4.50443E-02-1.84850E-01 4.68505E-15-6.35722E-13
 -1        15 1.86845E+01 5.61945E+00 4.50850E-02 2.01751E-01 8.85425E-15-6.14025E-13
 -1        16 1.87010E+01 5.62501E+00 4.61853E-02 5.94774E-01 1.05739E-14-5.97901E-13
 -1        17 1.87376E+01 5.63725E+00 4.82180E-02 1.00699E+00 1.34435E-14-5.51967E-13
 -1        18 1.88030E+01 5.65944E+00 5.06449E-02 1.44512E+00 1.80181E-14-4.76608E-13
 -1        19 1.89230E+01 5.69984E+00 5.21249E-02 1.94428E+00 2.70140E-14-3.59856E-13
 -1        20 1.91546E+01 5.77751E+00 5.01524E-02 2.52982E+00 3.42330E-14-1.49228E-13
 -1        21 1.96592E+01 5.94632E+00 4.78917E-02 3.27948E+00 3.52079E-14 2.39351E-13
 -1        22 2.11552E+01 6.36670E+00 1.40736E-01 4.49775E+00 2.77556E-15 9.76458E-13
 -1        23 2.29358E+01-1.37540E+00-9.37182E-01-7.05219E-01-9.33351E-14 1.64967E-12
 -1        24 1.93107E+01-9.94805E-02-3.08849E-01 6.32310E-02-3.51386E-14 1.21503E-12
 -1        25 1.86501E+01-5.67395E-02-6.87497E-02 6.03535E-02-6.74699E-15 8.16451E-13
 -1        26 1.84796E+01-2.29377E-02-7.10060E-03 3.25399E-02-3.00096E-15 5.73212E-13
 -1        27 1.85336E+01-1.30938E-02 3.89880E-04 2.22114E-02-1.37492E-14 3.91265E-13
 -1        28 1.87078E+01-8.04775E-03-2.43290E-05 1.60897E-02-3.11508E-15 3.11848E-13
 -1        29 1.89529E+01-5.50155E-03-8.11463E-04 1.22819E-02-1.84227E-14 2.12805E-13
 -1        30 1.92471E+01-4.36360E-03-1.53503E-03 9.89224E-03 1.49709E-15 6.12635E-14
 -1        31 1.95838E+01-4.09235E-03-2.49380E-03 8.55735E-03 1.81897E-14-3.91202E-14
 -1        32 1.99669E+01-4.37156E-03-3.81159E-03 8.17308E-03-3.32714E-14-1.50267E-13
 -1        33 2.04069E+01-4.95948E-03-5.45441E-03 8.77468E-03 4.39637E-14-3.05556E-13
 -1        34 2.09191E+01-5.59768E-03-7.26070E-03 1.04759E-02 1.97964E-14-1.33148E-13
 -1        35 2.15198E+01-5.93276E-03-8.87209E-03 1.34097E-02-4.31067E-14-2.19644E-13
 -1        36 2.22217E+01-5.43703E-03-9.56482E-03 1.76153E-02-1.98550E-15-3.87233E-13
 -1        37 2.30250E+01-3.34601E-03-7.99844E-03 2.27946E-02-1.91182E-14-2.96764E-13
 -1        38 2.39033E+01 1.31694E-03-1.98396E-03 2.78359E-02-3.89514E-14-3.49368E-13
 -1        39 2.47821E+01 9.44801E-03 1.13514E-02 3.00398E-02-1.23208E-14-5.34238E-13
 -1        40 2.55143E+01 2.10838E-02 3.42157E-02 2.42514E-02 7.47091E-15-5.53707E-13
 -1        41 2.58646E+01 3.38501E-02 6.42008E-02 3.02865E-03 5.41869E-14-3.41617E-13
 -1        42 2.55399E+01 4.17030E-02 8.93212E-02-3.97494E-02-4.43304E-14-2.64339E-13
 -1        43 2.43113E+01 3.54564E-02 8.52201E-02-9.93477E-02 8.42620E-15-2.49238E-13
 -1        44 2.22411E+01 9.37279E-03 3.06572E-02-1.50006E-01 2.30466E-14-4.76355E-14
 -1        45 1.98904E+01-3.02525E-02-6.83961E-02-1.47860E-01 4.71758E-15-9.04068E-14
 -1        46 1.82295E+01-6.23094E-02-1.55212E-01-6.96009E-02-2.33732E-14-5.20157E-13
 -1        47 1.80935E+01-6.51569E-02-1.63304E-01 5.11831E-02 3.21323E-14-5.52343E-13
 -1        48 1.95579E+01-3.67798E-02-8.62031E-02 1.40418E-01 4.18415E-14-3.21500E-13
 -1        49 2.18756E+01 3.36701E-03 1.59885E-02 1.54193E-01-3.64611E-14-3.62155E-13
 -1        50 2.40519E+01 3.25000E-02 8.03360E-02 1.09137E-01-3.26705E-14-8.07375E-13
 -1        51 2.54425E+01 4.15946E-02 9.11939E-02 4.85095E-02 3.90577E-14-6.76664E-13
 -1        52 2.59165E+01 3.52625E-02 6.86455E-02 2.34046E-03-7.34395E-15-3.06029E-13
 -1        53 2.56757E+01 2.26432E-02 3.80609E-02-2.18827E-02-2.04357E-14-4.83473E-13
 -1        54 2.50164E+01 1.04776E-02 1.35803E-02-2.94063E-02 4.09637E-14-5.80012E-13
 -1        55 2.41882E+01 1.63377E-03-1.35891E-03-2.78272E-02-2.12469E-14-4.84718E-13
 -1        56 2.33542E+01-3.64669E-03-8.55257E-03-2.26713E-02-3.72730E-15-7.55575E-13
 -1        57 2.26011E+01-6.17832E-03-1.08876E-02-1.69548E-02 4.90911E-14-7.49780E-13
 -1        58 2.19635E+01-6.93168E-03-1.06740E-02-1.19613E-02-3.93054E-14-9.25320E-13
 -1        59 2.14465E+01-6.68224E-03-9.36242E-03-8.04665E-03 2.51677E-14-8.26054E-13
 -1        60 2.10401E+01-5.94921E-03-7.73402E-03-5.16007E-03-3.43724E-14-5.93657E-13
 -1        61 2.07285E+01-5.04389E-03-6.15748E-03-3.11602E-03 1.17354E-13-1.97887E-13
 -1        62 2.04948E+01-4.13640E-03-4.77975E-03-1.71399E-03-1.26149E-13-2.88858E-13
 -1        63 2.03231E+01-3.31011E-03-3.63969E-03-7.81122E-04-6.24387E-14-4.88692E-13
 -1        64 2.02000E+01-2.59865E-03-2.72882E-03-1.81169E-04 1.56251E-14-6.64955E-13
 -1        65 2.01140E+01-2.00885E-03-2.02161E-03 1.89305E-04-4.79809E-14-4.08068E-13
 -1        66 2.00562E+01-1.53387E-03-1.49027E-03 4.08640E-04 5.68329E-14-7.72590E-13
 -1        67 2.00196E+01-1.15968E-03-1.11074E-03 5.38773E-04 1.30760E-13-1.06400E-13
 -1        68 1.99988E+01-8.65719E-04-8.57303E-04 6.35387E-04-9.38253E-14 3.86361E-13
 -1        69 1.99899E+01-6.18872E-04-6.68161E-04 7.54063E-04 9.99570E-14 4.97399E-13
 -1        70 1.99900E+01-3.45669E-04-3.54923E-04 9.47749E-04-7.75258E-14 8.64292E-13
 -1        71 1.99962E+01 5.58106E-05 6.22060E-04 1.05779E-03-1.02718E-13 2.45292E-13
 -1        72 2.09578E+01-4.03435E-01-9.78803E-01-3.10881E-01 3.08469E-14 2.35914E-12
 -1        73 1.92774E+01-6.59605E-02-2.90262E-01-5.35921E-02 2.20193E-14 1.89398E-12
 -1        74 1.86616E+01-2.09326E-02-6.43164E-02-1.97704E-02 9.99266E-15 1.55590E-12
 -1        75 1.84909E+01-1.05770E-02-1.00052E-02-1.45853E-02 5.09477E-15 1.38278E-12
 -1        76 1.85448E+01-6.15400E-03-5.67582E-04-1.13082E-02 1.16651E-14 1.20484E-12
 -1        77 1.87178E+01-3.92682E-03-8.30668E-05-8.90475E-03-9.99634E-16 1.01820E-12
 -1        78 1.89602E+01-2.81367E-03-6.09255E-04-7.12897E-03-1.03432E-14 1.02603E-12
 -1        79 1.92490E+01-2.32497E-03-1.17944E-03-5.80554E-03 7.23651E-16 8.88220E-13
 -1        80 1.95755E+01-2.18517E-03-1.88788E-03-4.90972E-03-1.98423E-14 7.02611E-13
 -1        81 1.99394E+01-2.19561E-03-2.75213E-03-4.51396E-03 2.17732E-14 6.30220E-13
 -1        82 2.03453E+01-2.16842E-03-3.62947E-03-4.74917E-03-9.73473E-15 5.90884E-13
 -1        83 2.07988E+01-1.88916E-03-4.23332E-03-5.78094E-03 2.60067E-14 5.07714E-13
 -1        84 2.13027E+01-1.09676E-03-4.10233E-03-7.77045E-03 9.57309E-15 3.39027E-13
 -1        85 2.18512E+01 5.09418E-04-2.54736E-03-1.07878E-02-1.70410E-14 3.59200E-13
 -1        86 2.24227E+01 3.20711E-03 1.35531E-03-1.46354E-02 3.20587E-14 2.21693E-13
 -1        87 2.29707E+01 7.08932E-03 8.59690E-03-1.85441E-02-7.62727E-14 2.83224E-13
 -1        88 2.34148E+01 1.17698E-02 1.96890E-02-2.07665E-02 2.92858E-14 3.11250E-13
 -1        89 2.36382E+01 1.60051E-02 3.35429E-02-1.82952E-02 2.47441E-14-3.47707E-14
 -1        90 2.35003E+01 1.75123E-02 4.59648E-02-7.30241E-03-3.47053E-15-6.16399E-14
 -1        91 2.28802E+01 1.35810E-02 4.89884E-02 1.48093E-02-3.06994E-14 2.88259E-13
 -1        92 2.17541E+01 2.96562E-03 3.35462E-02 4.54219E-02-3.98162E-14 6.72403E-13
 -1        93 2.02836E+01-1.18831E-02-3.32855E-03 7.33075E-02 1.49188E-14 8.17905E-13
 -1        94 1.88444E+01-2.46554E-02-5.09676E-02 8.15647E-02 8.89512E-14 4.49325E-13
 -1        95 1.79204E+01-2.86566E-02-8.59205E-02 5.86870E-02-1.92858E-15 2.67127E-13
 -1        96 1.78708E+01-2.19977E-02-8.70874E-02 1.09425E-02 5.63794E-14 4.11652E-13
 -1        97 1.87179E+01-8.73223E-03-5.38266E-02-3.88860E-02-6.91309E-14 5.62623E-13
 -1        98 2.01323E+01 4.64747E-03-6.04563E-03-6.84904E-02 7.26698E-14 3.97470E-13
 -1        99 2.16308E+01 1.33599E-02 3.20380E-02-7.09310E-02-6.99401E-14-1.55317E-13
 -1       100 2.28188E+01 1.61615E-02 4.88113E-02-5.43243E-02-7.58725E-15 1.70948E-13
 -1       101 2.35125E+01 1.44151E-02 4.65336E-02-3.14772E-02-1.75664E-14 6.46271E-14
 -1       102 2.37215E+01 1.04139E-02 3.42244E-02-1.15622E-02 5.58167E-14-3.06940E-13
 -1       103 2.35621E+01 6.05548E-03 1.99682E-02 1.89366E-03-3.83371E-14-2.36086E-13
 -1       104 2.31767E+01 2.41949E-03 8.26720E-03 9.12406E-03-1.24988E-14-1.09556E-13
 -1       105 2.26879E+01-1.38325E-04 4.30508E-04 1.18373E-02 3.63623E-14-3.92232E-13
 -1       106 2.21819E+01-1.68201E-03-3.96575E-03 1.18328E-02-7.10419E-14-4.62032E-13
 -1       107 2.17109E+01-2.44290E-03-5.90274E-03 1.04686E-02 1.59190E-14-4.10564E-13
 -1       108 2.13007E+01-2.67270E-03-6.31908E-03 8.60413E-03-9.16666E-14-4.96333E-13
 -1       109 2.09599E+01-2.58013E-03-5.91111E-03 6.71520E-03 5.20735E-14-8.78340E-14
 -1       110 2.06871E+01-2.31632E-03-5.12935E-03 5.02896E-03 6.36120E-14-2.43157E-13
 -1       111 2.04753E+01-1.98119E-03-4.23836E-03 3.62837E-03-1.11857E-13 1.11157E-13
 -1       112 2.03154E+01-1.63597E-03-3.38034E-03 2.52040E-03 4.20714E-14 3.64690E-13
 -1       113 2.01982E+01-1.31516E-03-2.62360E-03 1.67623E-03 4.95975E-14 3.57387E-14
 -1       114 2.01149E+01-1.03589E-03-1.99497E-03 1.05301E-03-1.92433E-14 4.87985E-14
 -1       115 2.00580E+01-8.02695E-04-1.49921E-03 6.03189E-04 1.10415E-13-3.33969E-13
 -1       116 2.00214E+01-6.13651E-04-1.12990E-03 2.78817E-04-4.01546E-14-5.57940E-13
 -1       117 2.00003E+01-4.60460E-04-8.78947E-04 3.55954E-05 3.87423E-14-5.25087E-13
 -1       118 1.99910E+01-3.20197E-04-6.93636E-04-1.96126E-04 2.62885E-14-6.63831E-13
 -1       119 1.99908E+01-1.02936E-04-3.41822E-04-5.53311E-04 3.80359E-14-7.46920E-13
 -1       120 1.99964E+01 2.27532E-04 5.72596E-04-9.95463E-04 2.95142E-13-1.25597E-12
 -1       121 1.99999E+01-3.56923E-03 4.04394E-04-1.20626E-03-1.03717E-12 2.43604E-13
 -1       122 1.99996E+01-8.46476E-03-5.30293E-04-6.57827E-04 4.75693E-13-2.38359E-13
 -1       123 1.99995E+01-6.54843E-03-6.89302E-04-1.34328E-04 9.65423E-13 1.37296E-13
 -1       124 1.99996E+01 2.15519E-03-4.66661E-04 2.34354E-04 5.85869E-13 9.14616E-14
 -1       125 1.99998E+01 1.51572E-02-1.26274E-04 4.10573E-04 9.30596E-13-2.23747E-13
 -1       126 2.00000E+01 2.88025E-02 1.92609E-04 4.23388E-04 1.85052E-14 4.19381E-14
 -1       127 2.00001E+01 4.02020E-02 4.38365E-04 3.04902E-04-7.13438E-13 1.74662E-13
 -1       128 2.00002E+01 4.64862E-02 5.69130E-04 1.02676E-04-2.19940E-13-1.36350E-13
 -1       129 2.00002E+01 4.62316E-02 5.65920E-04-1.27370E-04 3.50925E-13 1.54261E-14
 -1       130 2.00001E+01 3.94697E-02 4.28311E-04-3.26564E-04 1.41758E-13 4.92166E-14
 -1       131 2.00000E+01 2.76959E-02 1.73903E-04-4.40484E-04-8.74126E-13-9.40802E-14
 -1       132 1.99998E+01 1.38523E-02-1.51398E-04-4.15152E-04-1.56303E-12 1.96022E-13
 -1       133 1.99996E+01 8.96981E-04-4.90122E-04-2.19535E-04-1.20839E-12-2.60779E-13
 -1       134 1.99995E+01-7.55445E-03-7.32236E-04 1.35572E-04-1.32935E-12 2.86253E-13
 -1       135 1.99997E+01-8.95389E-03-4.90353E-04 9.57146E-04-9.49201E-13-7.66295E-14
 -1       136 1.99997E+01-3.77968E-03 4.16092E-04 1.76061E-03-2.66406E-13 3.18335E-14
 -1       137-1.27384E+00-1.99598E+01-3.07293E+00-3.67829E+00 1.36677E-12 3.99403E-13
 -1       138-1.60285E+00-8.96345E+00-2.30013E+00-3.13795E+00 2.53847E-12 1.01943E-12
 -1       139 2.92776E+00 3.46054E+00-1.08051E+00 3.53433E+00 2.19336E-12 1.69736E-12
 -1       140 1.56610E+01 1.06580E+01 4.11647E-01 1.27960E+01 2.02632E-12 2.31204E-12
 -1       141 3.44951E+01 1.00155E+01 1.80955E+00 1.80536E+01 1.16773E-12 2.11609E-12
 -1       142 5.44617E+01 4.92320E+00 2.94772E+00 1.50431E+01 5.15921E-13 1.77292E-12
 -1       143 6.49432E+01 1.12609E+00 3.48187E+00 4.32039E+00 9.89521E-14 2.40641E-13
 -1       144 6.24300E+01 2.07261E+00 3.36272E+00-8.80887E+00 1.66249E-13-9.89153E-13
 -1       145 4.79186E+01 6.90949E+00 2.59506E+00-1.73130E+01 6.88810E-13-1.79085E-12
 -1       146 2.86777E+01 1.08519E+01 1.42439E+00-1.72470E+01 1.65540E-12-2.59492E-12
 -1       147 1.14423E+01 9.51639E+00 2.08334E-02-1.04642E+01 2.31537E-12-2.28512E-12
 -1       148 1.68834E+00 1.47131E+00-1.30769E+00-2.02200E+00 2.40274E-12-1.69820E-12
 -1       149-1.76051E+00-1.11159E+01-2.46644E+00 3.64788E+00 1.83836E-12-7.01716E-13
 -1       150-1.15078E+00-2.11319E+01-3.15416E+00 3.23261E+00 7.88036E-13-1.92820E-13
 -1       151-7.43302E-01-2.43253E+01-3.36782E+00-9.38973E-01-7.31033E-13 2.53894E-14
 -1       152-1.64305E+00-1.79733E+01-2.97994E+00-4.28974E+00-2.43866E-12-8.03059E-13
 -1       153-1.17901E+00-6.22412E+00-2.10005E+00-2.20047E+00-3.14265E-12-1.61526E-12
 -1       154 1.75473E+01 1.05596E+01 5.10579E-01 1.34715E+01-2.42095E-12-2.79421E-12
 -1       155 3.57946E+01 9.83128E+00 1.87379E+00 1.82267E+01-1.42966E-12-2.72404E-12
 -1       156 5.40394E+01 5.28486E+00 2.98787E+00 1.57454E+01-7.78738E-13-2.09460E-12
 -1       157 6.56000E+01 1.34417E+00 3.61821E+00 6.00082E+00-1.59829E-13-1.20923E-12
 -1       158 6.53209E+01 1.47747E+00 3.60149E+00-6.46069E+00-9.25596E-14-4.22440E-14
 -1       159 5.30523E+01 5.59670E+00 2.92682E+00-1.60253E+01-3.35829E-13 1.09601E-12
 -1       160 3.34438E+01 1.01799E+01 1.70560E+00-1.80395E+01-9.85989E-13 1.49208E-12
 -1       161 1.52144E+01 1.01409E+01 2.74537E-01-1.23638E+01-1.81999E-12 2.13124E-12
 -1       162 2.78723E+00 2.94348E+00-1.17653E+00-3.21546E+00-2.28839E-12 1.71652E-12
 -1       163-1.65079E+00-8.81328E+00-2.33727E+00 3.23092E+00-2.53114E-12 1.19682E-12
 -1       164-1.40715E+00-1.99491E+01-3.08613E+00 3.78662E+00-2.33058E-12 5.86028E-13
 -1       165 2.09937E+01 3.68304E+00-5.68268E-02-3.57535E+00-3.12604E-13 1.02324E-13
 -1       166 1.99974E+01 4.20509E+00-4.54722E-02-2.76998E+00-2.90089E-13-2.19082E-13
 -1       167 1.95302E+01 4.48194E+00-3.10089E-02-2.15519E+00-2.17538E-13-3.89591E-13
 -1       168 1.92905E+01 4.62935E+00-2.31972E-02-1.63511E+00-1.51492E-13-4.82294E-13
 -1       169 1.91573E+01 4.71860E+00-1.92045E-02-1.18462E+00-9.10461E-14-5.13864E-13
 -1       170 1.90788E+01 4.77554E+00-1.70617E-02-7.66608E-01-3.26696E-14-5.32187E-13
 -1       171 1.90376E+01 4.80715E+00-1.60148E-02-3.73400E-01 1.98545E-14-5.26697E-13
 -1       172 1.90250E+01 4.81691E+00-1.57112E-02 8.16934E-03 6.67551E-14-5.21836E-13
 -1       173 1.90390E+01 4.80573E+00-1.60573E-02 3.90098E-01 1.26834E-13-5.04047E-13
 -1       174 1.90820E+01 4.77234E+00-1.71446E-02 7.84415E-01 1.68790E-13-4.75598E-13
 -1       175 1.91609E+01 4.71402E+00-1.93577E-02 1.19706E+00 2.16441E-13-4.21379E-13
 -1       176 1.92990E+01 4.61925E+00-2.37069E-02 1.65854E+00 2.84378E-13-3.27811E-13
 -1       177 1.95430E+01 4.46483E+00-3.25250E-02 2.18568E+00 3.26938E-13-1.93161E-13
 -1       178 2.00201E+01 4.18055E+00-4.67446E-02 2.80818E+00 3.41551E-13 6.59091E-14
 -1       179 2.11139E+01 3.45429E+00-5.92683E-02 3.50270E+00 3.11567E-13 5.30645E-13
 -1       180 2.23661E+01 1.13917E+00-3.35055E-01 2.98960E+00 2.08852E-13 1.12334E-12
 -1       181 2.19331E+01 8.55097E-01 7.67327E-04-1.93454E+00-2.68847E-13 4.86371E-13
 -1       182 2.04331E+01 1.90752E-01-9.70268E-03-7.40318E-01-2.26414E-13 3.63869E-13
 -1       183 1.96869E+01 1.04015E-01 1.38210E-02-2.57688E-01-1.56240E-13 2.53262E-13
 -1       184 1.93846E+01 5.14738E-02 1.03145E-02-3.08217E-02-1.14714E-13 1.49432E-13
 -1       185 1.93053E+01 2.90106E-02 5.57987E-03 9.09569E-02-7.44476E-14 9.83621E-14
 -1       186 1.93608E+01 1.85193E-02 3.00079E-03 1.64198E-01-6.00687E-14 6.84551E-14
 -1       187 1.95030E+01 1.42023E-02 1.86359E-03 2.14507E-01-6.87122E-14 3.32105E-14
 -1       188 1.97083E+01 1.36674E-02 1.41072E-03 2.56097E-01-8.52199E-14 4.26473E-14
 -1       189 1.99664E+01 1.57020E-02 1.26172E-03 2.97908E-01-4.51528E-14 9.18996E-15
 -1       190 2.02761E+01 1.94916E-02 1.24189E-03 3.45893E-01-8.43763E-14 5.55773E-14
 -1       191 2.06411E+01 2.42213E-02 1.24221E-03 4.03664E-01 2.68895E-14-6.28583E-14
 -1       192 2.10677E+01 2.87359E-02 1.15514E-03 4.72151E-01-6.12984E-14-1.77607E-13
 -1       193 2.15610E+01 3.11187E-02 8.51442E-04 5.48298E-01-8.00792E-14-1.30020E-13
 -1       194 2.21208E+01 2.81423E-02 1.86489E-04 6.22627E-01 9.62544E-15-1.26250E-13
 -1       195 2.27347E+01 1.47125E-02-9.51360E-04 6.75558E-01-4.81063E-15-1.04525E-13
 -1       196 2.33698E+01-1.61572E-02-2.52229E-03 6.73201E-01-8.92896E-14-5.99640E-14
 -1       197 2.39628E+01-7.14908E-02-4.17835E-03 5.65485E-01-2.77471E-14-6.42342E-14
 -1       198 2.44130E+01-1.51860E-01-5.06862E-03 2.93874E-01 1.03394E-13-1.04794E-13
 -1       199 2.45865E+01-2.38615E-01-4.48765E-03-1.78545E-01 4.53630E-16-1.28057E-13
 -1       200 2.43489E+01-2.79584E-01-1.88043E-03-8.06068E-01-5.67515E-15-9.12699E-14
 -1       201 2.36418E+01-1.99773E-01 2.98347E-04-1.39139E+00-1.54664E-14-8.33795E-14
 -1       202 2.25951E+01 4.23619E-02 1.35186E-03-1.59555E+00-8.16741E-14-1.89668E-13
 -1       203 2.15909E+01 3.50050E-01-2.15604E-03-1.13377E+00-1.34827E-13-1.64214E-13
 -1       204 2.11281E+01 5.12939E-01-5.14055E-03-9.22864E-02-4.63293E-14-5.93281E-14
 -1       205 2.14737E+01 3.92255E-01-3.75550E-03 1.00124E+00 2.14464E-14-2.40597E-13
 -1       206 2.24300E+01 9.16081E-02 1.82052E-04 1.57619E+00-6.99284E-14-3.51671E-13
 -1       207 2.35096E+01-1.70431E-01 1.14617E-03 1.46731E+00-1.51036E-13-2.60006E-13
 -1       208 2.42961E+01-2.76094E-01-1.19813E-03 9.20164E-01 1.04017E-13-1.49834E-13
 -1       209 2.46209E+01-2.48575E-01-3.97642E-03 2.84694E-01 1.53787E-13-8.50794E-14
 -1       210 2.45215E+01-1.64052E-01-4.98985E-03-2.14040E-01-2.19795E-13-1.97750E-13
 -1       211 2.41280E+01-8.02063E-02-4.25673E-03-5.10313E-01-3.61161E-14-2.88168E-13
 -1       212 2.35786E+01-2.00825E-02-2.63142E-03-6.32918E-01 2.39002E-14-3.34249E-13
 -1       213 2.29812E+01 1.49446E-02-9.87498E-04-6.39443E-01-1.08729E-13-3.15517E-13
 -1       214 2.24061E+01 3.13289E-02 2.41999E-04-5.82108E-01 5.11617E-14-1.80510E-13
 -1       215 2.18915E+01 3.61972E-02 9.81987E-04-4.97510E-01-1.16642E-14-3.75346E-13
 -1       216 2.14532E+01 3.48960E-02 1.32040E-03-4.07562E-01 6.06877E-14-2.70756E-13
 -1       217 2.10928E+01 3.08009E-02 1.38872E-03-3.23681E-01-5.69689E-14-5.14955E-13
 -1       218 2.08045E+01 2.58156E-02 1.30233E-03-2.50782E-01 1.92766E-13-2.69439E-13
 -1       219 2.05793E+01 2.09126E-02 1.14277E-03-1.90144E-01-5.10887E-14-2.46305E-13
 -1       220 2.04068E+01 1.65294E-02 9.60463E-04-1.41205E-01-1.58666E-13-2.21583E-13
 -1       221 2.02775E+01 1.28178E-02 7.83257E-04-1.02585E-01-6.26773E-14-3.15191E-13
 -1       222 2.01825E+01 9.78766E-03 6.24546E-04-7.26457E-02 2.69917E-13-3.88238E-13
 -1       223 2.01145E+01 7.38586E-03 4.88856E-04-4.97650E-02-1.94503E-15-9.76616E-14
 -1       224 2.00673E+01 5.53609E-03 3.74876E-04-3.24633E-02 3.53238E-13 1.21826E-13
 -1       225 2.00359E+01 4.15589E-03 2.76967E-04-1.94563E-02 3.35991E-13 2.00414E-14
 -1       226 2.00164E+01 3.14205E-03 1.89806E-04-9.68951E-03 2.39077E-13 5.34205E-13
 -1       227 2.00056E+01 2.29742E-03 1.31193E-04-2.47841E-03-6.99479E-14 3.39883E-13
 -1       228 2.00007E+01 1.18997E-03 1.06513E-04 2.24023E-03-3.66468E-13 1.90674E-13
 -1       229 2.09311E+01 2.76329E-01-5.09299E-02 1.14459E+00 2.39760E-13 9.79423E-13
 -1       230 1.98628E+01 1.27601E-01 8.49049E-03 4.22420E-01 1.69075E-13 8.15739E-13
 -1       231 1.93885E+01 6.01367E-02 1.28840E-02 1.24422E-01 1.24156E-13 6.52813E-13
 -1       232 1.92207E+01 3.11331E-02 7.81672E-03-2.38563E-02 1.15819E-13 5.33182E-13
 -1       233 1.92276E+01 1.79686E-02 4.06646E-03-1.06345E-01 6.44771E-14 4.57210E-13
 -1       234 1.93401E+01 1.17090E-02 2.20312E-03-1.57014E-01-8.10647E-15 4.19403E-13
 -1       235 1.95220E+01 9.07329E-03 1.34438E-03-1.92513E-01 8.48253E-14 3.87854E-13
 -1       236 1.97553E+01 8.55962E-03 9.08508E-04-2.22075E-01 8.10867E-14 3.29971E-13
 -1       237 2.00320E+01 9.26399E-03 6.34648E-04-2.51060E-01 7.00460E-14 2.63653E-13
 -1       238 2.03499E+01 1.04316E-02 4.08095E-04-2.82123E-01 2.86625E-15 2.36157E-13
 -1       239 2.07085E+01 1.12204E-02 1.66257E-04-3.15372E-01 9.15264E-14 2.19605E-13
 -1       240 2.11061E+01 1.05278E-02-1.27921E-04-3.47896E-01 1.13200E-13 1.62358E-13
 -1       241 2.15354E+01 6.86003E-03-4.78665E-04-3.72871E-01-2.22358E-15-2.30682E-14
 -1       242 2.19790E+01-1.68541E-03-8.30952E-04-3.78489E-01 3.93043E-14-6.75131E-14
 -1       243 2.24039E+01-1.71297E-02-1.04238E-03-3.47369E-01-3.19908E-14-2.70537E-14
 -1       244 2.27579E+01-4.06656E-02-8.83889E-04-2.57821E-01 1.13499E-14-7.95011E-14
 -1       245 2.29685E+01-7.06499E-02-1.18029E-04-8.93793E-02 1.21253E-13 4.38756E-14
 -1       246 2.29529E+01-9.96697E-02 1.23231E-03 1.64686E-01 8.03307E-15 9.69101E-14
 -1       247 2.26414E+01-1.12338E-01 2.56474E-03 4.77729E-01-1.97946E-13 1.24582E-13
 -1       248 2.20199E+01-8.82939E-02 2.73341E-03 7.71250E-01-1.58331E-13 3.31821E-13
 -1       249 2.11778E+01-1.56861E-02 7.43723E-04 9.19693E-01 3.78785E-14 3.48870E-13
 -1       250 2.03277E+01 8.94833E-02-3.06385E-03 8.03984E-01 1.37918E-13 2.72758E-13
 -1       251 1.97523E+01 1.79475E-01-6.16112E-03 3.99791E-01 2.11775E-14 1.68564E-13
 -1       252 1.96766E+01 2.00791E-01-5.72872E-03-1.64913E-01-6.60930E-15 1.72574E-13
 -1       253 2.01339E+01 1.40117E-01-1.85978E-03-6.63331E-01-6.91543E-14 2.94541E-13
 -1       254 2.09451E+01 3.61374E-02 2.54277E-03-9.10861E-01 1.57258E-13 3.13099E-13
 -1       255 2.18271E+01-5.55021E-02 4.42828E-03-8.67758E-01 1.23282E-13 3.63327E-13
 -1       256 2.25381E+01-1.02662E-01 3.56791E-03-6.23666E-01-7.62914E-14 1.64267E-13
 -1       257 2.29547E+01-1.05987E-01 1.38098E-03-3.10618E-01 1.50843E-14 1.40652E-13
 -1       258 2.30684E+01-8.34182E-02-5.39010E-04-3.00290E-02 1.80820E-13 1.33156E-13
 -1       259 2.29396E+01-5.31067E-02-1.54614E-03 1.70580E-01 3.72571E-14 2.61304E-14
 -1       260 2.26519E+01-2.60383E-02-1.68604E-03 2.85850E-01 1.63384E-13-3.64621E-13
 -1       261 2.22833E+01-6.36158E-03-1.31644E-03 3.31953E-01 5.43240E-14-5.14216E-13
 -1       262 2.18929E+01 5.86676E-03-7.82228E-04 3.30876E-01-1.07501E-13-2.14218E-13
 -1       263 2.15200E+01 1.22556E-02-2.91601E-04 3.02229E-01-5.92891E-15-1.75932E-13
 -1       264 2.11865E+01 1.46773E-02 7.09406E-05 2.60514E-01-4.31512E-17-3.98103E-14
 -1       265 2.09020E+01 1.46900E-02 2.96656E-04 2.15210E-01-1.76865E-13-3.63810E-14
 -1       266 2.06681E+01 1.34071E-02 4.10530E-04 1.71863E-01 5.66914E-14 1.04301E-13
 -1       267 2.04815E+01 1.15523E-02 4.45716E-04 1.33296E-01-1.67376E-13 9.52708E-14
 -1       268 2.03366E+01 9.56169E-03 4.31673E-04 1.00598E-01 4.98683E-14 8.71315E-14
 -1       269 2.02271E+01 7.67831E-03 3.90445E-04 7.38299E-02 7.36692E-14-8.51183E-14
 -1       270 2.01464E+01 6.02385E-03 3.36675E-04 5.24988E-02-5.93863E-14-3.19356E-14
 -1       271 2.00888E+01 4.64877E-03 2.79142E-04 3.58467E-02 3.26490E-13-8.33183E-14
 -1       272 2.00494E+01 3.55218E-03 2.20187E-04 2.30292E-02 1.05829E-13-1.81743E-13
 -1       273 2.00239E+01 2.71111E-03 1.57716E-04 1.32603E-02 3.19767E-14-1.94464E-13
 -1       274 2.00091E+01 2.10271E-03 9.74335E-05 5.84001E-03 1.41733E-14-7.82213E-14
 -1       275 2.00019E+01 1.57049E-03 1.06524E-04 3.45261E-04 1.50240E-13-1.91163E-13
 -1       276 1.99997E+01 2.30719E-04 2.25475E-04-2.67530E-03 1.20798E-13-1.64540E-13
 -1       277 2.00013E+01 8.45213E-04 8.31562E-05-1.38239E-03-1.71910E-14 6.65713E-13
 -1       278 2.00020E+01 5.07364E-03 1.83936E-05 3.11737E-03 1.98437E-13 4.72814E-13
 -1       279 2.00015E+01 1.28849E-02 3.55447E-06 7.86540E-03 2.70995E-13-1.07256E-13
 -1       280 2.00006E+01 2.33548E-02-8.10122E-07 1.07863E-02 1.83484E-13 1.17312E-13
 -1       281 1.99995E+01 3.45274E-02-2.37705E-05 1.12049E-02-2.67534E-15-7.63384E-13
 -1       282 1.99985E+01 4.46770E-02-4.73669E-05 9.10543E-03-9.77007E-14-4.66461E-13
 -1       283 1.99979E+01 5.16205E-02-6.66729E-05 5.00385E-03-1.61657E-13 3.09133E-13
 -1       284 1.99977E+01 5.40063E-02-7.36093E-05-1.81318E-04 1.37356E-13 2.15207E-13
 -1       285 1.99979E+01 5.13600E-02-6.63118E-05-5.34392E-03 8.24144E-14-1.99095E-13
 -1       286 1.99986E+01 4.41832E-02-4.70566E-05-9.37578E-03-1.60312E-13-4.08527E-13
 -1       287 1.99995E+01 3.40656E-02-2.11651E-05-1.13418E-02-1.45973E-13-3.55642E-13
 -1       288 2.00007E+01 2.26255E-02-1.08661E-06-1.07734E-02-3.32146E-13 6.65712E-14
 -1       289 2.00016E+01 1.21830E-02 4.84337E-07-7.62350E-03-4.41201E-13-1.95374E-14
 -1       290 2.00020E+01 4.86634E-03 6.28801E-05-2.95847E-03-5.55245E-13 1.63813E-13
 -1       291 2.00028E+01 3.04341E-03 4.90234E-05 1.38795E-04-2.58145E-13 5.09481E-13
 -1       292-8.74823E-01-1.07522E+01-9.89741E-01 1.11933E+00-8.55149E-14 1.29327E-12
 -1       293 2.29151E+00-8.62507E+00-8.32067E-01 3.22330E+00 4.57551E-13 8.53768E-13
 -1       294 9.55691E+00-5.10372E+00-4.40939E-01 5.83869E+00 7.89202E-13 5.92693E-13
 -1       295 1.82331E+01-8.32034E-01-1.13874E-01 7.19889E+00 7.86482E-13 9.48880E-13
 -1       296 2.87073E+01 2.68501E+00 3.32595E-01 7.71219E+00 8.94437E-13 8.60201E-13
 -1       297 3.79136E+01 4.83175E+00 6.10416E-01 5.43941E+00 6.72292E-13 7.28889E-13
 -1       298 4.49640E+01 6.29022E+00 9.63646E-01 3.22219E+00 7.81722E-13 4.22967E-13
 -1       299 4.50056E+01 7.01218E+00 8.73900E-01-6.15832E-01 6.48509E-13 1.40967E-13
 -1       300 4.31306E+01 5.95314E+00 8.97659E-01-4.51218E+00 5.52322E-13-3.26822E-13
 -1       301 3.54361E+01 4.18547E+00 5.58354E-01-6.44973E+00 8.82679E-13-4.26437E-13
 -1       302 2.59174E+01 1.75111E+00 2.20393E-01-7.72116E+00 8.61727E-13-9.02445E-13
 -1       303 1.60418E+01-1.69945E+00-1.98515E-01-6.91448E+00 9.14185E-13-8.92730E-13
 -1       304 8.22198E+00-5.77017E+00-4.91503E-01-5.53627E+00 5.25441E-13-8.52582E-13
 -1       305 1.66331E+00-9.01302E+00-8.28691E-01-2.98190E+00 2.40835E-13-7.21305E-13
 -1       306-1.10540E+00-1.04022E+01-9.20644E-01-8.80679E-01-2.28546E-13-7.24171E-13
 -1       307-4.99589E-01-1.05940E+01-9.78046E-01 1.39158E+00-7.60239E-13-9.25732E-13
 -1       308 3.90191E+00-7.82093E+00-7.05596E-01 3.92144E+00-9.78329E-13-7.76830E-13
 -1       309 1.22530E+01-4.91658E+00-3.30161E-01 6.24933E+00-9.77940E-13-1.08119E-12
 -1       310 2.00572E+01-6.09622E-01-6.64082E-02 7.16568E+00-1.35866E-12-1.13268E-12
 -1       311 3.00688E+01 2.19789E+00 3.19824E-01 7.01245E+00-1.11815E-12-9.60454E-13
 -1       312 3.89663E+01 4.81305E+00 7.38292E-01 6.10105E+00-8.47171E-13-8.78686E-13
 -1       313 4.52303E+01 6.24441E+00 1.01948E+00 3.42874E+00-6.47926E-13-8.23563E-13
 -1       314 4.74178E+01 6.65690E+00 1.10251E+00-2.76676E-02-5.38819E-13-5.86546E-13
 -1       315 4.43593E+01 6.24013E+00 9.14532E-01-3.24862E+00-6.08097E-13-3.16219E-13
 -1       316 3.82353E+01 4.68294E+00 7.11273E-01-6.36584E+00-4.23460E-13 4.25771E-14
 -1       317 2.86832E+01 2.15032E+00 2.92177E-01-7.46553E+00-6.15508E-13 1.26288E-13
 -1       318 1.90281E+01-1.89209E+00-1.28643E-01-6.84856E+00-4.41674E-13 2.75446E-13
 -1       319 9.40023E+00-5.23198E+00-4.94480E-01-5.52868E+00-7.02993E-13 4.06661E-13
 -1       320 2.43436E+00-8.67827E+00-8.38940E-01-3.07492E+00-9.86988E-13 3.32206E-13
 -1       321-6.67088E-01-9.64871E+00-7.91549E-01-1.19412E+00-5.89778E-13 7.50386E-13
 -1       322 2.01543E+01 3.00839E+00-2.19145E-02-2.04824E+00-2.90696E-13-1.85953E-13
 -1       323 2.07589E+01 2.20677E+00-1.74480E-02-2.32237E+00-3.27123E-13-1.55362E-14
 -1       324 1.96002E+01 3.72540E+00-1.54477E-02-1.27040E+00-1.37987E-13-3.63814E-13
 -1       325 1.94691E+01 3.89441E+00-1.34730E-02-8.85893E-01-7.57767E-14-3.94558E-13
 -1       326 1.93926E+01 3.99421E+00-1.24174E-02-5.19474E-01 5.62938E-15-4.13120E-13
 -1       327 1.93575E+01 4.04017E+00-1.19642E-02-1.65032E-01 6.51464E-14-4.06977E-13
 -1       328 1.93588E+01 4.03836E+00-1.19824E-02 1.85509E-01 1.18044E-13-3.96494E-13
 -1       329 1.93965E+01 3.98849E+00-1.24607E-02 5.40441E-01 1.80319E-13-3.75179E-13
 -1       330 1.94746E+01 3.88628E+00-1.35248E-02 9.01433E-01 2.40557E-13-3.33481E-13
 -1       331 1.96092E+01 3.71199E+00-1.54791E-02 1.28656E+00 3.01584E-13-2.53293E-13
 -1       332 1.98291E+01 3.42992E+00-1.87115E-02 1.68812E+00 3.64441E-13-1.58561E-13
 -1       333 2.01966E+01 2.96266E+00-2.27639E-02 2.07826E+00 3.87513E-13-1.64530E-14
 -1       334 2.07503E+01 2.12859E+00-3.02208E-02 2.28069E+00 3.63339E-13 2.86385E-13
 -1       335 2.10816E+01 1.18580E+00-2.46045E-02 1.88909E+00 3.18256E-13 5.59228E-13
 -1       336 2.03986E+01 4.92495E-01 8.50622E-03 8.90877E-01 2.49419E-13 4.53398E-13
 -1       337 2.04774E+01 6.83107E-01 1.27388E-02-9.76901E-01-2.37075E-13 4.16590E-14
 -1       338 2.00827E+01 3.51804E-01 7.35700E-03-3.95870E-01-1.99673E-13 2.37177E-14
 -1       339 1.98647E+01 1.99543E-01 4.37027E-03-6.48026E-02-1.44268E-13 5.53203E-15
 -1       340 1.97779E+01 1.22965E-01 2.27221E-03 1.37923E-01-1.13489E-13-4.19205E-14
 -1       341 1.97870E+01 8.51350E-02 1.30743E-03 2.71860E-01-5.67324E-14-5.83626E-14
 -1       342 1.98667E+01 6.96339E-02 9.46343E-04 3.71158E-01-4.99568E-14-2.90853E-14
 -1       343 2.00011E+01 6.83994E-02 8.64785E-04 4.56956E-01-2.46477E-14-4.65102E-15
 -1       344 2.01819E+01 7.66958E-02 9.16921E-04 5.43083E-01-4.72500E-14-3.96640E-14
 -1       345 2.04059E+01 9.08139E-02 1.02607E-03 6.38435E-01-7.58364E-14-5.66955E-14
 -1       346 2.06733E+01 1.06625E-01 1.12281E-03 7.47481E-01-9.72556E-14-1.16804E-13
 -1       347 2.09861E+01 1.18195E-01 1.11548E-03 8.69381E-01-3.27662E-15-9.08604E-14
 -1       348 2.13466E+01 1.16137E-01 8.73091E-04 9.95700E-01-3.17901E-14 1.32993E-14
 -1       349 2.17561E+01 8.58041E-02 2.21760E-04 1.10659E+00-4.32918E-14-9.82859E-15
 -1       350 2.22143E+01 6.30922E-03-1.03034E-03 1.16573E+00-3.00056E-14-1.12276E-13
 -1       351 2.27165E+01-1.46753E-01-2.97312E-03 1.11560E+00-3.13382E-14 1.28200E-14
 -1       352 2.32498E+01-3.89026E-01-5.40974E-03 8.78191E-01 5.76907E-14 1.11181E-13
 -1       353 2.37800E+01-6.96075E-01-7.19090E-03 3.71934E-01 4.23754E-14 1.37962E-13
 -1       354 2.42252E+01-9.54080E-01-8.29225E-03-4.33359E-01-1.19971E-14 7.78949E-14
 -1       355 2.44455E+01-9.33275E-01-6.29326E-03-1.41067E+00-8.94215E-14 4.70501E-14
 -1       356 2.42743E+01-3.83735E-01-8.65276E-03-2.17960E+00-8.97473E-14 7.03894E-14
 -1       357 2.37444E+01 6.56178E-01-8.59860E-03-2.14343E+00-6.14378E-14 1.14917E-14
 -1       358 2.31946E+01 1.62308E+00-1.28941E-02-1.00553E+00-8.80147E-14 1.69892E-13
 -1       359 2.31494E+01 1.70497E+00-1.59523E-02 7.48859E-01-8.60301E-14 5.97575E-14
 -1       360 2.36451E+01 8.47739E-01-1.07912E-02 2.04831E+00-7.34838E-14-1.07409E-13
 -1       361 2.42253E+01-2.37735E-01-6.29013E-03 2.25317E+00-6.87406E-15-9.72250E-14
 -1       362 2.44678E+01-8.81815E-01-5.77296E-03 1.57906E+00 7.14112E-14 5.95969E-14
 -1       363 2.43103E+01-9.71757E-01-7.51246E-03 6.05831E-01 7.17785E-14-7.45591E-14
 -1       364 2.39008E+01-7.37700E-01-7.39096E-03-2.34391E-01-8.89610E-15-3.18772E-13
 -1       365 2.33919E+01-4.25673E-01-5.63914E-03-7.79222E-01-1.23300E-13-2.27074E-14
 -1       366 2.28748E+01-1.68034E-01-3.19815E-03-1.04327E+00-3.86119E-14 1.58866E-14
 -1       367 2.23893E+01 1.13559E-03-1.11505E-03-1.10421E+00-6.85314E-14-1.62216E-13
 -1       368 2.19517E+01 9.31757E-02 2.55042E-04-1.04217E+00 3.37055E-14-2.66886E-13
 -1       369 2.15678E+01 1.31972E-01 1.00657E-03-9.18549E-01-1.00268E-13-2.29414E-13
 -1       370 2.12386E+01 1.39005E-01 1.31569E-03-7.73412E-01-3.12613E-14-2.09220E-13
 -1       371 2.09622E+01 1.29438E-01 1.35144E-03-6.29955E-01-3.63879E-14-1.28791E-13
 -1       372 2.07347E+01 1.12666E-01 1.24215E-03-4.99941E-01 2.85012E-13 1.70597E-13
 -1       373 2.05510E+01 9.39846E-02 1.07101E-03-3.88128E-01 8.10278E-14 1.22724E-13
 -1       374 2.04055E+01 7.61151E-02 8.86098E-04-2.95312E-01 1.18221E-14 4.33409E-13
 -1       375 2.02922E+01 6.02849E-02 7.12207E-04-2.20241E-01-1.07831E-13 4.02913E-13
 -1       376 2.02056E+01 4.69049E-02 5.60222E-04-1.60745E-01-3.53567E-14 4.81351E-13
 -1       377 2.01407E+01 3.59677E-02 4.33476E-04-1.14377E-01 1.25099E-13 2.08410E-13
 -1       378 2.00931E+01 2.72713E-02 3.30959E-04-7.87458E-02 3.47825E-13 2.92219E-13
 -1       379 2.00590E+01 2.05243E-02 2.48662E-04-5.16841E-02 3.02004E-13 3.33306E-13
 -1       380 2.00353E+01 1.53765E-02 1.85023E-04-3.13679E-02 2.73065E-13 4.91568E-13
 -1       381 2.00192E+01 1.13454E-02 1.54326E-04-1.63197E-02-2.34149E-13 8.31865E-14
 -1       382 2.00092E+01 7.39108E-03 5.86068E-05-6.28103E-03-1.24260E-13 2.66040E-13
 -1       383 1.99248E+01 2.36063E-01 1.09620E-02 3.52944E-01 2.11412E-13 3.75324E-13
 -1       384 1.96733E+01 1.27495E-01 6.43053E-03 5.88224E-02 1.62435E-13 2.77979E-13
 -1       385 1.95881E+01 7.48669E-02 3.16663E-03-1.12408E-01 1.08521E-13 2.34500E-13
 -1       386 1.96140E+01 4.86949E-02 1.64770E-03-2.19547E-01 3.07442E-14 1.59888E-13
 -1       387 1.97164E+01 3.66283E-02 1.03531E-03-2.93824E-01 7.53641E-14 7.79582E-14
 -1       388 1.98749E+01 3.27619E-02 8.00856E-04-3.52912E-01 1.15006E-13 1.11280E-13
 -1       389 2.00785E+01 3.35630E-02 7.11194E-04-4.07147E-01 1.03749E-13 9.60486E-14
 -1       390 2.03217E+01 3.62132E-02 6.57937E-04-4.61888E-01 1.50748E-14 1.12363E-13
 -1       391 2.06018E+01 3.77473E-02 5.63531E-04-5.18096E-01 9.23326E-14 4.66584E-14
 -1       392 2.09165E+01 3.44774E-02 3.50479E-04-5.71884E-01 1.45932E-13 6.00281E-14
 -1       393 2.12608E+01 2.16073E-02-6.06050E-05-6.13397E-01 1.49419E-13-8.43119E-15
 -1       394 2.16248E+01-6.75956E-03-7.34052E-04-6.25452E-01 1.02654E-14-1.01086E-13
 -1       395 2.19898E+01-5.66546E-02-1.67630E-03-5.82827E-01-6.94926E-14-4.41616E-14
 -1       396 2.23259E+01-1.31357E-01-2.78838E-03-4.54040E-01 1.76956E-14 1.40711E-14
 -1       397 2.25896E+01-2.25501E-01-3.78420E-03-2.08738E-01 3.70255E-15 2.05295E-14
 -1       398 2.27247E+01-3.16464E-01-4.16454E-03 1.65434E-01 3.52281E-14 1.98579E-13
 -1       399 2.26708E+01-3.57969E-01-3.60561E-03 6.35344E-01-1.56332E-13 1.30850E-13
 -1       400 2.23857E+01-2.87717E-01-2.00624E-03 1.09349E+00-2.44426E-13 4.72612E-14
 -1       401 2.18881E+01-6.56753E-02 3.71823E-04 1.35656E+00-2.35333E-14 1.87034E-14
 -1       402 2.13015E+01 2.64558E-01 2.41001E-03 1.23453E+00 2.00776E-13 5.58850E-14
 -1       403 2.08448E+01 5.59178E-01 3.67018E-03 6.65196E-01 8.01867E-14-5.52325E-14
 -1       404 2.07340E+01 6.43306E-01 4.61726E-03-1.78904E-01-1.07144E-13 9.38919E-17
 -1       405 2.10278E+01 4.63074E-01 4.93391E-03-9.50850E-01-3.67302E-14 5.35383E-14
 -1       406 2.15840E+01 1.32712E-01 3.81084E-03-1.34985E+00 1.55211E-13 5.73075E-14
 -1       407 2.21646E+01-1.67797E-01 7.42826E-04-1.30105E+00 1.04305E-13 3.32349E-13
 -1       408 2.25855E+01-3.29027E-01-2.41575E-03-9.37009E-01-4.66318E-14 3.11146E-13
 -1       409 2.27750E+01-3.47355E-01-4.39790E-03-4.60296E-01 9.25182E-14 4.50288E-13
 -1       410 2.27502E+01-2.78244E-01-4.66910E-03-2.76566E-02 2.52985E-13 2.70198E-13
 -1       411 2.25677E+01-1.80484E-01-3.84247E-03 2.86077E-01 2.09964E-13 4.75759E-15
 -1       412 2.22893E+01-9.09379E-02-2.53867E-03 4.70081E-01 3.77583E-13-1.22190E-13
 -1       413 2.19671E+01-2.44564E-02-1.26497E-03 5.46852E-01-1.30240E-14-1.94734E-13
 -1       414 2.16388E+01 1.77902E-02-2.78273E-04 5.48773E-01-2.42046E-13-8.52787E-14
 -1       415 2.13290E+01 4.05322E-02 3.69342E-04 5.05599E-01-5.91919E-14 9.31890E-14
 -1       416 2.10517E+01 4.97181E-02 7.25071E-04 4.39952E-01 5.11055E-14 1.39308E-13
 -1       417 2.08134E+01 5.04747E-02 8.68315E-04 3.67062E-01-1.87593E-13 6.61996E-14
 -1       418 2.06150E+01 4.65620E-02 8.75199E-04 2.96166E-01-5.75010E-14 5.57456E-14
 -1       419 2.04542E+01 4.04798E-02 8.05184E-04 2.32208E-01-2.27829E-13 1.96191E-13
 -1       420 2.03273E+01 3.37696E-02 6.99314E-04 1.77304E-01-2.14581E-14 3.05180E-13
 -1       421 2.02293E+01 2.73130E-02 5.83410E-04 1.31842E-01 7.97764E-14 3.28117E-13
 -1       422 2.01555E+01 2.15651E-02 4.72182E-04 9.52294E-02-1.79355E-14 2.62029E-13
 -1       423 2.01012E+01 1.67213E-02 3.72542E-04 6.63816E-02 3.57089E-13 2.51019E-13
 -1       424 2.00626E+01 1.28099E-02 2.88187E-04 4.40195E-02 6.61703E-14 8.49058E-14
 -1       425 2.00362E+01 9.71119E-03 2.11931E-04 2.69293E-02-7.73964E-14 2.15041E-13
 -1       426 2.00188E+01 7.33298E-03 1.45003E-04 1.40730E-02 8.72912E-14 3.52159E-13
 -1       427 2.00082E+01 5.10276E-03 9.63974E-05 4.75410E-03 1.25776E-13 3.28174E-13
 -1       428 2.00041E+01 3.52163E-03 4.12534E-05 1.03964E-03 1.99055E-13 5.59439E-13
 -1       429 2.00042E+01 3.04280E-02 3.01313E-05 1.96502E-02-7.94633E-14-6.72277E-14
 -1       430 2.00073E+01 1.83363E-02 6.96747E-05 1.39466E-02-8.42627E-15 1.32938E-13
 -1       431 2.00067E+01 9.63400E-03 6.28761E-05 6.99886E-03 6.56673E-14 7.05634E-13
 -1       432 2.00003E+01 4.28695E-02 1.22958E-06 2.16980E-02-1.99395E-13-6.40158E-13
 -1       433 1.99962E+01 5.45269E-02-2.80041E-05 1.94460E-02-9.69341E-14-4.79380E-13
 -1       434 1.99930E+01 6.34229E-02-5.56766E-05 1.33287E-02 9.66374E-14-1.47723E-13
 -1       435 1.99913E+01 6.82256E-02-7.10866E-05 4.58072E-03-2.46427E-13 4.49226E-13
 -1       436 1.99913E+01 6.81913E-02-7.09753E-05-5.08276E-03-1.96693E-13 1.99050E-14
 -1       437 1.99931E+01 6.33102E-02-5.51035E-05-1.37773E-02-2.14015E-13-4.18525E-13
 -1       438 1.99963E+01 5.45074E-02-2.75462E-05-1.97040E-02-3.04241E-14-2.65861E-13
 -1       439 2.00004E+01 4.27874E-02 2.65164E-06-2.18345E-02 6.09291E-14 2.23587E-13
 -1       440 2.00045E+01 3.00358E-02 3.24891E-05-1.95594E-02 5.73254E-14-3.04899E-13
 -1       441 2.00075E+01 1.77642E-02 5.17126E-05-1.34471E-02-5.17927E-14-6.96885E-14
 -1       442 9.22198E+00-5.46269E+00-8.29858E-02 6.73150E+00 9.31477E-14 5.56825E-13
 -1       443 9.94390E-01-4.51466E+00-8.98735E-02 4.06762E-01-1.10974E-13 1.08316E-12
 -1       444 3.34250E+00-4.87895E+00-8.83886E-02 4.27087E+00-2.00298E-13 1.05761E-12
 -1       445 1.97969E+01-5.40077E+00 3.30419E-02 6.61365E+00 1.03251E-14 4.10279E-13
 -1       446 2.56983E+01-3.68159E+00-2.93201E-02 4.59266E+00 1.72765E-13 5.81618E-14
 -1       447 1.98118E+01 3.45357E+00-1.86059E-02-1.66933E+00-2.18615E-13-3.05335E-13
 -1       448 3.50457E+01 5.58944E+00 8.09684E-02 1.19822E-01 5.71945E-13-6.02574E-14
 -1       449 3.58576E+01 7.84783E+00 7.05297E-02-1.02505E-01 6.77652E-13 1.91139E-13
 -1       450 3.48290E+01 7.20381E+00 1.91994E-02 3.01405E-01 5.98160E-13 2.27179E-13
 -1       451 3.41780E+01 4.32188E+00 4.01317E-02-2.35701E-01 6.74766E-13 1.10328E-13
 -1       452 3.02209E+01-9.76131E-01-3.71485E-02-1.99831E+00 4.53559E-13 1.17198E-13
 -1       453 2.58467E+01-3.59678E+00 2.31566E-02-4.77025E+00 2.52978E-13-1.57319E-13
 -1       454 1.70110E+01-5.34712E+00-3.31055E-02-6.96412E+00 4.35763E-14-5.29576E-13
 -1       455 8.87602E+00-4.95002E+00 7.95771E-03-6.67406E+00-2.07251E-13-7.21048E-13
 -1       456 3.71812E+00-4.08256E+00 3.22514E-02-4.18134E+00-2.94195E-13-8.14709E-13
 -1       457 1.92377E+00-3.52195E+00 4.88260E-02 9.66279E-01-3.07105E-13-8.47808E-13
 -1       458 4.45678E+00-5.07554E+00-8.35760E-02 4.74249E+00-2.19880E-13-7.60100E-13
 -1       459 1.14274E+01-5.56799E+00-4.18594E-02 6.81427E+00-2.79679E-13-7.30305E-13
 -1       460 2.10925E+01-5.03104E+00-1.78825E-02 5.98635E+00-4.69361E-13-5.21375E-13
 -1       461 2.72062E+01-3.16986E+00-1.38961E-02 4.14032E+00-6.87159E-13-2.06807E-13
 -1       462 3.29320E+01 1.07924E+00 6.09459E-02 1.64787E+00-6.90500E-13-2.37921E-13
 -1       463 3.49425E+01 4.89693E+00 3.69477E-02-3.05731E-01-6.42153E-13-2.84980E-13
 -1       464 3.62170E+01 7.61148E+00 7.35349E-02-2.42545E-01-5.16864E-13-3.57013E-13
 -1       465 3.69760E+01 7.58769E+00 1.33932E-01 1.43138E-01-5.74568E-13-4.38392E-13
 -1       466 3.55836E+01 4.63309E+00 9.52700E-02-2.73338E-01-3.96766E-13-3.83360E-13
 -1       467 3.21747E+01 3.23688E-01 2.61691E-02-1.61624E+00-1.90663E-13-4.43284E-13
 -1       468 2.74858E+01-3.04513E+00 2.74883E-02-4.10378E+00-6.67244E-14-4.35346E-13
 -1       469 1.86386E+01-5.58902E+00-3.66099E-02-6.56938E+00 1.65604E-13-3.68330E-13
 -1       470 9.83765E+00-5.58157E+00-6.73461E-02-6.60228E+00-3.89966E-14-2.32245E-13
 -1       471 3.95076E+00-4.93986E+00-6.82823E-02-4.41483E+00-3.97044E-14 1.42691E-13
 -1       472 3.17659E+01 7.45212E-01 2.31486E-02 1.95330E+00 2.59711E-13-2.58682E-14
 -1       473 3.95316E+00-2.41443E+00 1.18664E-01-2.48196E+00 2.68386E-13 5.08482E-13
 -1       474 1.84919E+01-5.73450E+00 3.88594E-02 6.55632E+00-1.43260E-13-5.30839E-13
 -1       475 2.04035E+01 8.48041E-01 4.05456E-03 9.10044E-01 2.71708E-13 1.14372E-13
 -1       476 1.97241E+01 3.18228E+00-5.29239E-03-5.92931E-01-2.88370E-14-3.45798E-13
 -1       477 1.98330E+01 2.99389E+00-5.91875E-03-8.94926E-01-7.61857E-14-3.29881E-13
 -1       478 1.96440E+01 3.31768E+00-4.88958E-03 8.22170E-03 8.34388E-14-3.57456E-13
 -1       479 1.96658E+01 3.28087E+00-4.97607E-03 3.07941E-01 1.37776E-13-3.41891E-13
 -1       480 1.97285E+01 3.17410E+00-5.30780E-03 6.04475E-01 1.97994E-13-3.14470E-13
 -1       481 1.98394E+01 2.98119E+00-5.86811E-03 9.05804E-01 2.63742E-13-2.38008E-13
 -1       482 2.00068E+01 2.67816E+00-6.48440E-03 1.19338E+00 3.05951E-13-1.71247E-13
 -1       483 2.02560E+01 2.21401E+00-5.67782E-03 1.43789E+00 3.34277E-13-8.76957E-14
 -1       484 2.01655E+01 4.80357E-01 5.20111E-03 3.82802E-01 2.33641E-13 7.59878E-14
 -1       485 2.03788E+01 9.99666E-01 2.74496E-03-8.68196E-01-2.08048E-13-9.41826E-14
 -1       486 2.85801E+01-2.76174E+00-6.03790E-02 1.09669E+00 1.50973E-13-3.22201E-13
 -1       487 2.02279E+01 5.85321E-01 1.99058E-03-3.69275E-01-1.64669E-13-7.39488E-14
 -1       488 2.01086E+01 3.62968E-01 1.18268E-03-3.27449E-02-1.27754E-13-4.14931E-14
 -1       489 2.00446E+01 2.42237E-01 6.36429E-04 1.96666E-01-9.80453E-14-2.87515E-14
 -1       490 2.00331E+01 1.81278E-01 4.10274E-04 3.62302E-01-5.27616E-14-6.65441E-14
 -1       491 2.00657E+01 1.58254E-01 3.48840E-04 4.94264E-01-7.64472E-14-1.07167E-13
 -1       492 2.01344E+01 1.60614E-01 3.62213E-04 6.13626E-01-3.80999E-14-1.20821E-13
 -1       493 2.02338E+01 1.79658E-01 4.12776E-04 7.34946E-01-8.45994E-14-1.16202E-13
 -1       494 2.03610E+01 2.07448E-01 4.75064E-04 8.67474E-01-1.12843E-13-4.87165E-14
 -1       495 2.05154E+01 2.34334E-01 5.18729E-04 1.01520E+00 7.49686E-15-1.40869E-14
 -1       496 2.06997E+01 2.46309E-01 4.97678E-04 1.17578E+00 4.58365E-14-1.26547E-14
 -1       497 2.09216E+01 2.21954E-01 3.41569E-04 1.33818E+00-2.66903E-14 1.22973E-14
 -1       498 2.11969E+01 1.29567E-01-5.32238E-05 1.47888E+00-8.78673E-14 4.08437E-14
 -1       499 2.15542E+01-7.30149E-02-8.37688E-04 1.55643E+00 1.54620E-14 1.25396E-13
 -1       500 2.20379E+01-4.29353E-01-2.05297E-03 1.50500E+00 4.12616E-14 1.31061E-13
 -1       501 2.27010E+01-9.54624E-01-3.66557E-03 1.23004E+00 8.23779E-14 1.53799E-13
 -1       502 2.35735E+01-1.56385E+00-3.16241E-03 6.15892E-01-1.28489E-15 2.08385E-13
 -1       503 2.45649E+01-1.95615E+00-5.71542E-03-4.14883E-01-5.22312E-14 1.76982E-13
 -1       504 2.53737E+01-1.65998E+00-9.54110E-03-1.68002E+00-3.22823E-14 1.65608E-13
 -1       505 2.56428E+01 1.57183E-02-3.14431E-02-2.64943E+00-1.16249E-13 1.74265E-13
 -1       506 2.52117E+01 2.34797E+00-9.11920E-02-2.23595E+00-9.36803E-14 1.29619E-13
 -1       507 2.49130E+01 3.59622E+00-7.58662E-02-1.83606E-01-1.79502E-13 1.01542E-13
 -1       508 2.51873E+01 2.60883E+00-5.99046E-02 1.93773E+00-2.93892E-13 5.11945E-14
 -1       509 2.56000E+01 3.18798E-01-4.39279E-02 2.65232E+00-9.34166E-14-2.27765E-14
 -1       510 2.54899E+01-1.44392E+00-1.42445E-02 1.90267E+00 9.09901E-14-1.35830E-13
 -1       511 2.47327E+01-1.95893E+00-5.26059E-03 6.30530E-01 3.44240E-14-1.43021E-13
 -1       512 2.37516E+01-1.63966E+00-3.91958E-03-4.46308E-01 2.72161E-14-7.95232E-14
 -1       513 2.28588E+01-1.03192E+00-3.53017E-03-1.11406E+00 6.17553E-14 9.78360E-14
 -1       514 2.21734E+01-4.81477E-01-2.17650E-03-1.42264E+00-1.40489E-13 2.60584E-14
 -1       515 2.16761E+01-9.29990E-02-8.24114E-04-1.48793E+00-2.08422E-13-1.02175E-13
 -1       516 2.13160E+01 1.36136E-01-3.88249E-05-1.40787E+00-1.45112E-13-9.36886E-14
 -1       517 2.10462E+01 2.47238E-01 3.87914E-04-1.25362E+00-5.94224E-16-1.77341E-13
 -1       518 2.08353E+01 2.83113E-01 5.79090E-04-1.07085E+00-3.86072E-15-1.30993E-13
 -1       519 2.06648E+01 2.76384E-01 6.21708E-04-8.86823E-01 8.12920E-14 6.40180E-14
 -1       520 2.05246E+01 2.48600E-01 5.83567E-04-7.16429E-01 2.00507E-13 9.37220E-14
 -1       521 2.04089E+01 2.12719E-01 5.09063E-04-5.66626E-01 2.11313E-13-2.84097E-14
 -1       522 2.03141E+01 1.75943E-01 4.24195E-04-4.39572E-01 1.33503E-13 1.87472E-13
 -1       523 2.02374E+01 1.41919E-01 3.42563E-04-3.34681E-01 5.64274E-14 3.80809E-13
 -1       524 2.01762E+01 1.12227E-01 2.70272E-04-2.49935E-01-1.18409E-13 3.86233E-13
 -1       525 2.01282E+01 8.73015E-02 2.09258E-04-1.82697E-01-3.42523E-13 2.30144E-13
 -1       526 2.00911E+01 6.69786E-02 1.60109E-04-1.30197E-01 2.24549E-13 2.52615E-13
 -1       527 2.00629E+01 5.08131E-02 1.22065E-04-8.97990E-02 3.70025E-13 2.91911E-13
 -1       528 2.00418E+01 3.81577E-02 9.24891E-05-5.91617E-02 3.76555E-13 2.19045E-13
 -1       529 2.00262E+01 2.82669E-02 7.86672E-05-3.63345E-02-8.87134E-14-7.72172E-14
 -1       530 1.99376E+01 1.81201E-01 1.25494E-03-1.67713E-01 1.33061E-13 3.71683E-15
 -1       531 1.99347E+01 1.26947E-01 6.89054E-04-3.16198E-01 1.16225E-13-5.04046E-14
 -1       532 1.99864E+01 1.01697E-01 4.82560E-04-4.27007E-01 8.42274E-14-9.85176E-14
 -1       533 2.00818E+01 9.37575E-02 4.15234E-04-5.19648E-01 4.36164E-14-7.83665E-14
 -1       534 2.02135E+01 9.49887E-02 3.96082E-04-6.05884E-01 3.37131E-14-7.11311E-15
 -1       535 2.03778E+01 9.80680E-02 3.74501E-04-6.91290E-01 1.05658E-13-2.92721E-14
 -1       536 2.05733E+01 9.48512E-02 3.04177E-04-7.75404E-01 1.76073E-13-1.07726E-13
 -1       537 2.08001E+01 7.52542E-02 1.33030E-04-8.50951E-01 1.49191E-13-8.15721E-14
 -1       538 2.10594E+01 2.67557E-02-1.94573E-04-9.02451E-01 7.15512E-14-7.41780E-14
 -1       539 2.13527E+01-6.47409E-02-7.27647E-04-9.04748E-01-6.59333E-14-3.23807E-14
 -1       540 2.16799E+01-2.11045E-01-1.46324E-03-8.22614E-01-9.32283E-14 8.88901E-14
 -1       541 2.20351E+01-4.12499E-01-2.34454E-03-6.13861E-01-8.85425E-15 1.26911E-13
 -1       542 2.23985E+01-6.41454E-01-3.06860E-03-2.40375E-01-7.70769E-14 2.33045E-13
 -1       543 2.27234E+01-8.21862E-01-2.96864E-03 3.06713E-01-1.58369E-13 3.39046E-13
 -1       544 2.29272E+01-8.22065E-01-2.33131E-03 9.64585E-01-1.76783E-13 3.60651E-13
 -1       545 2.29090E+01-4.94795E-01-1.64792E-03 1.55098E+00-1.14587E-14 2.43085E-13
 -1       546 2.26338E+01 1.89423E-01-5.00730E-04 1.76602E+00 8.43804E-14 1.10718E-13
 -1       547 2.22177E+01 1.01286E+00-5.83980E-04 1.35743E+00 2.39602E-13 1.83661E-13
 -1       548 2.19454E+01 1.51739E+00-2.12391E-03 3.41943E-01 6.36149E-14 6.30376E-14
 -1       549 2.20278E+01 1.37378E+00-1.63850E-03-8.41019E-01-4.42940E-14-1.41260E-13
 -1       550 2.24056E+01 6.72822E-01 1.63267E-04-1.63084E+00 3.96358E-14-2.08169E-13
 -1       551 2.27928E+01-1.34457E-01-1.89798E-04-1.75601E+00 4.82557E-14-1.74426E-13
 -1       552 2.29687E+01-6.75618E-01-1.49457E-03-1.34569E+00 3.04676E-14-2.29389E-13
 -1       553 2.28877E+01-8.45250E-01-3.07067E-03-7.05244E-01 3.58092E-14-2.61647E-13
 -1       554 2.26302E+01-7.46164E-01-3.30015E-03-8.98836E-02 1.05282E-13-2.51273E-13
 -1       555 2.22934E+01-5.28653E-01-2.89114E-03 3.73685E-01 2.14241E-13 8.37317E-14
 -1       556 2.19451E+01-3.01881E-01-2.01245E-03 6.59151E-01 2.79905E-13 2.18685E-13
 -1       557 2.16193E+01-1.19038E-01-1.07519E-03 7.92015E-01 7.69861E-14 4.73549E-13
 -1       558 2.13286E+01 6.28403E-03-3.36514E-04 8.14394E-01-1.14619E-13 5.21449E-13
 -1       559 2.10757E+01 8.05105E-02 1.58370E-04 7.66725E-01-4.48699E-14 2.11932E-13
 -1       560 2.08591E+01 1.16600E-01 4.40360E-04 6.80943E-01-2.36449E-14 3.73082E-14
 -1       561 2.06762E+01 1.27328E-01 5.64815E-04 5.79539E-01 3.72816E-16 1.59946E-13
 -1       562 2.05241E+01 1.22840E-01 5.85986E-04 4.76955E-01-3.64258E-14 2.69119E-13
 -1       563 2.03994E+01 1.10310E-01 5.47509E-04 3.81580E-01-2.43786E-13 3.31876E-13
 -1       564 2.02990E+01 9.44240E-02 4.79982E-04 2.97611E-01-1.70659E-13 1.35278E-13
 -1       565 2.02194E+01 7.80418E-02 4.02634E-04 2.26516E-01 1.51278E-13 1.96411E-13
 -1       566 2.01575E+01 6.27709E-02 3.26710E-04 1.68103E-01 6.28360E-14 1.33242E-13
 -1       567 2.01103E+01 4.94059E-02 2.57208E-04 1.21263E-01 2.28604E-13 1.83733E-13
 -1       568 2.00749E+01 3.82291E-02 2.06295E-04 8.44932E-02 8.18821E-14 5.23011E-13
 -1       569 2.00490E+01 2.92956E-02 1.98682E-04 5.62032E-02-1.07963E-13 5.97005E-13
 -1       570 2.00303E+01 2.18743E-02 1.28456E-04 3.45263E-02-1.35731E-13 4.54376E-13
 -1       571 2.00169E+01 1.58627E-02 8.65080E-05 1.85258E-02 2.74861E-14 7.20524E-13
 -1       572 1.99953E+01 6.59911E-02-5.63506E-06 3.24878E-02 2.79610E-13-6.08243E-13
 -1       573 1.99876E+01 7.87471E-02-1.96044E-05 2.54175E-02 1.56787E-13-3.28276E-13
 -1       574 2.00113E+01 3.45846E-02-9.52450E-06 2.96519E-02 3.32580E-14-1.35881E-13
 -1       575 2.00040E+01 5.06804E-02 3.68042E-05 3.38446E-02-1.24200E-13-2.68358E-13
 -1       576 1.99823E+01 8.71563E-02-2.95044E-05 1.38230E-02 1.09053E-13-4.96632E-14
 -1       577 1.99805E+01 9.01337E-02-3.31762E-05-2.38243E-04-1.22803E-13 2.13648E-13
 -1       578 1.99824E+01 8.72823E-02-2.90533E-05-1.42932E-02-2.37653E-13-1.12648E-13
 -1       579 1.99877E+01 7.91341E-02-1.91912E-05-2.56860E-02 2.01088E-13-1.42773E-13
 -1       580 1.99956E+01 6.63825E-02-1.31111E-05-3.27477E-02 2.08264E-13-1.66406E-13
 -1       581 2.00043E+01 5.08189E-02-1.22949E-05-3.39812E-02 1.60489E-14 3.13381E-14
 -1       582 2.00120E+01 3.44917E-02 3.16403E-05-2.93772E-02-7.36274E-14-1.40759E-13
 -1       583 5.16509E+00-1.51344E+00 1.89516E-01 2.62557E+00 6.28421E-14 1.03227E-12
 -1       584 1.61138E+01-4.74354E+00 9.53867E-02 6.77981E+00-9.62147E-14 9.16038E-14
 -1       585 2.00102E+01 2.85060E-01 2.64497E-03 4.91713E-02 1.77340E-13 3.59603E-14
 -1       586 2.44269E+01-5.16386E+00 6.93559E-03 4.07362E+00-8.82835E-14-1.19134E-13
 -1       587 2.49827E+01-5.38386E+00 2.57380E-02-3.94960E+00 2.35645E-13-3.93328E-13
 -1       588 3.03177E+01 2.05126E+00-1.25505E-01-1.47272E+00 2.80165E-13-3.05173E-13
 -1       589 3.11156E+01 1.48741E+00-1.13635E-01 1.55569E+00-7.85899E-14-4.11712E-13
 -1       590 2.28969E+01-5.46603E+00 1.97052E-02-5.11685E+00-7.88952E-14-6.50868E-15
 -1       591 3.04684E+01 6.16023E+00-1.66133E-01-1.32769E+00 4.66557E-13-1.84679E-13
 -1       592 1.96629E+01 3.28598E+00-4.98501E-03-2.91449E-01 3.97225E-14-3.54068E-13
 -1       593 2.97503E+01 7.31442E+00-1.75971E-01 2.65256E-01 4.85875E-13-1.00918E-14
 -1       594 1.64725E+01-4.93941E+00 1.05333E-01-6.86661E+00-3.46882E-13-4.78905E-13
 -1       595 2.96007E+01 4.59650E+00-1.76856E-01 1.84433E+00 5.76136E-13 2.75294E-13
 -1       596 2.96346E+01 3.39002E-01-1.12894E-01 1.19031E+00 4.32564E-13 5.31936E-13
 -1       597 2.74907E+01-3.80460E+00-4.81265E-02-1.67821E+00-1.61156E-15 2.31731E-13
 -1       598 6.01242E+00-2.03414E+00 1.50985E-01 3.60849E+00-1.39541E-14-6.26360E-13
 -1       599 9.02570E+00-2.49908E+00 1.50359E-01-5.52814E+00-3.53773E-13-7.09648E-13
 -1       600 3.07209E+01 1.35502E+00-1.25829E-01-1.73261E+00-4.75370E-13-8.67015E-14
 -1       601 5.28311E+00-1.20802E+00 1.78261E-01-1.86112E+00-2.38025E-13-7.52967E-13
 -1       602 1.03625E+01-3.73663E+00 1.14705E-01 6.26567E+00 2.39947E-14-6.06099E-13
 -1       603 2.57896E+01-5.25351E+00 6.26954E-03 3.48644E+00-2.33570E-13 1.53239E-13
 -1       604 1.65171E+01-5.16558E+00 8.29346E-02-6.69028E+00 2.75766E-13-5.86736E-13
 -1       605 2.95198E+01-2.55017E+00-6.47408E-02 4.06834E-01-4.20855E-13 1.67567E-13
 -1       606 3.04988E+01 5.47240E+00-1.75550E-01-1.72147E+00-4.64809E-13-1.98244E-13
 -1       607 3.06991E+01 7.12646E+00-1.66980E-01 1.05351E-01-4.94951E-13-3.91794E-13
 -1       608 3.15583E+01 5.61283E+00-1.36876E-01 1.59864E+00-5.40526E-13-5.80105E-13
 -1       609 2.91685E+01-2.94775E+00-6.82309E-02-5.60488E-01-2.74420E-14-7.54591E-13
 -1       610 9.68795E+00-3.39753E+00 1.43896E-01-5.98141E+00 2.94230E-13-2.02685E-13
 -1       611 2.04139E+01 1.77364E+00-5.20411E-03-1.46450E+00-2.69864E-13-1.40617E-13
 -1       612 2.05998E+01 1.31193E+00-9.41991E-04 1.49849E+00 3.34177E-13 1.83520E-13
 -1       613 9.44173E+00-3.07993E+00 1.53941E-01 6.03041E+00-2.09784E-13 8.30176E-13
 -1       614 1.99945E+01 2.69862E+00-6.72930E-03-1.18047E+00-1.45804E-13-2.82184E-13
 -1       615 2.01858E+01 2.31270E+00-6.08683E-03-1.37121E+00-2.12274E-13-2.12367E-13
 -1       616 1.58879E+01-4.41982E+00 1.09441E-01 6.34198E+00 1.73160E-13-6.25132E-13
 -1       617 2.09124E+01-4.99281E+00 6.98918E-02 5.30868E+00-1.25178E-13 2.83731E-14
 -1       618 7.04923E+00-2.77551E-01 1.67021E-01 8.26632E-01-3.03898E-14-5.99285E-13
 -1       619 2.00179E+01 2.23282E-02 6.96886E-05-2.41615E-02-2.52447E-13 1.65789E-13
 -1       620 1.99269E+01 2.56615E+00-1.55762E-03 3.51425E-01 1.64784E-13-2.69865E-13
 -1       621 1.98858E+01 2.65044E+00-1.48078E-03 1.20358E-01 1.05357E-13-2.96304E-13
 -1       622 2.01226E+01 2.12399E+00-1.57689E-03 7.71776E-01 2.40617E-13-1.74078E-13
 -1       623 2.02597E+01 1.72920E+00-2.20358E-03 9.09360E-01 2.79832E-13-1.07839E-13
 -1       624 2.03541E+01 1.07767E+00 2.85619E-03 7.45391E-01 2.73057E-13-5.27616E-14
 -1       625 2.16709E+01-5.09474E+00 4.28548E-02-4.78729E+00 3.73982E-13-4.48634E-13
 -1       626 2.82507E+01-1.39579E+00-7.93590E-02-1.84753E+00-5.96571E-14 4.39086E-13
 -1       627 2.02824E+01 7.56222E-01 4.69159E-04-2.61450E-01-1.21607E-13-1.12909E-13
 -1       628 2.02226E+01 5.05314E-01 2.23709E-04 3.81802E-02-1.02274E-13-1.03233E-13
 -1       629 2.01728E+01 3.62702E-01 1.15847E-04 2.60988E-01-9.69052E-14-1.27660E-13
 -1       630 2.01409E+01 2.91646E-01 9.40017E-05 4.34000E-01-6.46244E-14-1.44014E-13
 -1       631 2.01266E+01 2.69783E-01 9.96279E-05 5.80459E-01-4.59978E-14-9.65580E-14
 -1       632 2.01270E+01 2.81823E-01 1.17943E-04 7.18375E-01-4.19867E-14-6.66762E-14
 -1       633 2.01386E+01 3.15412E-01 1.43371E-04 8.60852E-01-4.07145E-14-1.77066E-14
 -1       634 2.01594E+01 3.57838E-01 1.72361E-04 1.01654E+00-5.38042E-14 3.35381E-14
 -1       635 2.01900E+01 3.92834E-01 1.96851E-04 1.18963E+00 1.25973E-14 1.95230E-14
 -1       636 2.02365E+01 3.96924E-01 2.01883E-04 1.37947E+00 1.01387E-14-3.38445E-14
 -1       637 2.03158E+01 3.35182E-01 1.58965E-04 1.57929E+00-1.24968E-14 6.41811E-14
 -1       638 2.04627E+01 1.57488E-01 2.70109E-06 1.77360E+00 3.50352E-14 1.41576E-13
 -1       639 2.07416E+01-2.01143E-01-4.60331E-04 1.93189E+00-1.20154E-15 1.62426E-13
 -1       640 2.12558E+01-8.05621E-01-8.81074E-04 1.99521E+00 2.56514E-14 1.68275E-13
 -1       641 2.21398E+01-1.67290E+00-1.87066E-03 1.84707E+00 7.70631E-14 1.24026E-13
 -1       642 2.35187E+01-2.68455E+00-4.96219E-04 1.29388E+00 4.47767E-14 1.65494E-13
 -1       643 2.52299E+01-3.18565E+00 1.00708E-03 1.24894E-01-9.24000E-15 3.55793E-13
 -1       644 2.72261E+01 4.74603E+00-1.56446E-01-1.48024E+00-2.56691E-13 4.23394E-14
 -1       645 2.74831E+01 5.26174E+00-1.45556E-01 1.22694E+00-4.48322E-13-2.69789E-13
 -1       646 2.73073E+01 1.86048E+00-1.06665E-01 2.72198E+00-1.48544E-13-3.04201E-13
 -1       647 2.72020E+01-1.71339E+00-6.36456E-02 1.87705E+00-8.79574E-14-2.44107E-13
 -1       648 2.56175E+01-3.11250E+00-1.27909E-02 1.75343E-01 1.14078E-13-2.87197E-13
 -1       649 2.37970E+01-2.78484E+00-3.02264E-03-1.11250E+00 1.21688E-13-1.23155E-13
 -1       650 2.23387E+01-1.80401E+00-1.38073E-03-1.75524E+00 1.29739E-13-6.12956E-14
 -1       651 2.13868E+01-8.99786E-01-9.48755E-04-1.93299E+00-7.07285E-14 2.55286E-14
 -1       652 2.08227E+01-2.42652E-01-8.23542E-05-1.88142E+00-1.60790E-13 1.87582E-14
 -1       653 2.05175E+01 1.58395E-01 1.27780E-04-1.71522E+00-4.81100E-14 1.07874E-13
 -1       654 2.03579E+01 3.66634E-01 1.89456E-04-1.50410E+00-2.08118E-13 2.78560E-13
 -1       655 2.02733E+01 4.47922E-01 2.27275E-04-1.28233E+00-1.00074E-13 4.39924E-13
 -1       656 2.02241E+01 4.53715E-01 2.29781E-04-1.06856E+00 2.74959E-14 3.45857E-13
 -1       657 2.01900E+01 4.19254E-01 2.09949E-04-8.72797E-01-9.69657E-15 1.23158E-13
 -1       658 2.01621E+01 3.66703E-01 1.80213E-04-6.99928E-01 1.91191E-13 8.59689E-15
 -1       659 2.01370E+01 3.09086E-01 1.48549E-04-5.51561E-01 1.12272E-13-1.24875E-13
 -1       660 2.01139E+01 2.53530E-01 1.19339E-04-4.27206E-01 1.17387E-13-9.56509E-14
 -1       661 2.00929E+01 2.03553E-01 9.39002E-05-3.25085E-01-4.26113E-14-4.66083E-13
 -1       662 2.00742E+01 1.60544E-01 7.25183E-05-2.42729E-01-1.36958E-13-4.65172E-13
 -1       663 2.00580E+01 1.24686E-01 5.43781E-05-1.77406E-01 2.75485E-14 1.06520E-14
 -1       664 2.00442E+01 9.55217E-02 3.97008E-05-1.26424E-01 2.01777E-13-7.63870E-14
 -1       665 2.00326E+01 7.22824E-02 4.47685E-05-8.72422E-02 2.99884E-13-2.51359E-13
 -1       666 2.00230E+01 5.38905E-02 2.36107E-05-5.77352E-02 8.65317E-14-9.38701E-14
 -1       667 2.01054E+01 2.22856E-01 1.82060E-04-3.94236E-01 1.24077E-13-5.84309E-14
 -1       668 2.00198E+01 4.70370E-02 1.39483E-05 4.91324E-02-3.21968E-14-1.40404E-15
 -1       669 2.01250E+01 2.96454E-01 2.65901E-04-2.29417E-01 1.57875E-13-5.12971E-14
 -1       670 2.01543E+01 1.79807E-01 1.50314E-04-6.41197E-01 7.36469E-15 5.30463E-15
 -1       671 2.02168E+01 1.81746E-01 1.51342E-04-7.51440E-01 1.01651E-13-3.53441E-14
 -1       672 2.03039E+01 1.82203E-01 1.44641E-04-8.61362E-01 1.79820E-13-1.97551E-14
 -1       673 2.04188E+01 1.66282E-01 1.13986E-04-9.69620E-01 1.23358E-13-4.54722E-14
 -1       674 2.05689E+01 1.15620E-01 3.77710E-05-1.06769E+00 6.10921E-14 1.21610E-13
 -1       675 2.07674E+01 8.12723E-03-1.09610E-04-1.13831E+00-4.09578E-14 1.62705E-13
 -1       676 2.10340E+01-1.79619E-01-3.68869E-04-1.15334E+00-1.06943E-13 6.36248E-14
 -1       677 2.13933E+01-4.64122E-01-7.14469E-04-1.07172E+00-8.85436E-14 2.04148E-14
 -1       678 2.18669E+01-8.36969E-01-1.26486E-03-8.39705E-01-1.92518E-13 1.21253E-13
 -1       679 2.24520E+01-1.23166E+00-1.68593E-03-3.99807E-01-1.82431E-13 1.73201E-13
 -1       680 2.30890E+01-1.48703E+00-6.74672E-04 2.77131E-01-1.65747E-13 1.68225E-13
 -1       681 2.36218E+01-1.33465E+00-1.93429E-03 1.12255E+00-1.30552E-13 2.39303E-13
 -1       682 2.38462E+01-5.09503E-01-3.18339E-03 1.87574E+00 6.24665E-14 3.16334E-13
 -1       683 2.35916E+01 9.48435E-01-2.12060E-02 2.00869E+00 2.22828E-13 2.71694E-13
 -1       684 2.32051E+01 2.32999E+00-1.86054E-02 1.16778E+00 3.08771E-13 2.68086E-13
 -1       685 2.30625E+01 2.75122E+00-2.46419E-02-3.46310E-01 2.83243E-13 1.45730E-13
 -1       686 2.33825E+01 1.79676E+00-1.65999E-02-1.65697E+00 1.16991E-13-1.10016E-13
 -1       687 2.37573E+01 2.69017E-01-1.07616E-02-2.05596E+00 1.02522E-14-1.63640E-13
 -1       688 2.38027E+01-9.49757E-01-4.16103E-03-1.60473E+00 1.60973E-13-2.87417E-13
 -1       689 2.34281E+01-1.45412E+00-2.53239E-03-7.79427E-01-7.18578E-14-2.70361E-13
 -1       690 2.28333E+01-1.38930E+00-8.95620E-04 2.97463E-03 4.14274E-14-7.51467E-14
 -1       691 2.22120E+01-1.04167E+00-1.00481E-03 5.67035E-01 1.08050E-14-7.25026E-14
 -1       692 2.16786E+01-6.37948E-01-8.80411E-04 8.96574E-01 5.52691E-14 7.76536E-14
 -1       693 2.12638E+01-2.93790E-01-4.84735E-04 1.03969E+00 7.12007E-15 3.46469E-13
 -1       694 2.09560E+01-4.65809E-02-1.87918E-04 1.05446E+00-3.78309E-14 2.82784E-13
 -1       695 2.07306E+01 1.08446E-01 7.54861E-06 9.90058E-01 9.06135E-14 1.83345E-13
 -1       696 2.05638E+01 1.91357E-01 1.22353E-04 8.82767E-01 1.78349E-13 1.24350E-13
 -1       697 2.04379E+01 2.24097E-01 1.78419E-04 7.57516E-01-9.32730E-14-6.50422E-14
 -1       698 2.03406E+01 2.25108E-01 1.94097E-04 6.30410E-01-1.78747E-13 1.46516E-14
 -1       699 2.02642E+01 2.08035E-01 1.85973E-04 5.11100E-01-1.47342E-13 1.27238E-13
 -1       700 2.02035E+01 1.82184E-01 1.66123E-04 4.04729E-01-9.71867E-14-2.14997E-14
 -1       701 2.01552E+01 1.53507E-01 1.41604E-04 3.13407E-01-3.80012E-14-7.92919E-14
 -1       702 2.01169E+01 1.25565E-01 1.16153E-04 2.37296E-01 1.87126E-13 8.95086E-14
 -1       703 2.00866E+01 1.00282E-01 9.13673E-05 1.75404E-01 1.42859E-13-6.07542E-14
 -1       704 2.00630E+01 7.85286E-02 7.63401E-05 1.26158E-01-4.00489E-14 1.23675E-13
 -1       705 2.00446E+01 6.05701E-02 6.74550E-05 8.79000E-02-1.08647E-13 9.95673E-14
 -1       706 2.00303E+01 5.38880E-02 5.49146E-05 6.66977E-02 9.22943E-15 1.23684E-13
 -1       707 1.99660E+01 1.16625E-01-1.31320E-05 9.96665E-03-9.40267E-14-6.31864E-14
 -1       708 2.00172E+01 4.34673E-02 4.42472E-06-4.21531E-02-2.69677E-14-1.35149E-13
 -1       709 1.99834E+01 9.53672E-02-6.22396E-06 4.24807E-02 1.33041E-13-6.77830E-13
 -1       710 1.99661E+01 1.16834E-01-1.09198E-05-1.02166E-02-3.01248E-13-2.03723E-13
 -1       711 1.99722E+01 1.09168E-01-1.09127E-05 2.85143E-02 2.99132E-14-9.62242E-14
 -1       712 1.99722E+01 1.09916E-01-8.02576E-06-2.85239E-02-1.78931E-14 3.91597E-13
 -1       713 1.99835E+01 9.63682E-02-1.54754E-05-4.26249E-02 1.53115E-13-1.02518E-14
 -1       714 1.99980E+01 7.77583E-02-2.03035E-05-4.97655E-02 2.68123E-13-3.00219E-13
 -1       715 1.00230E+01-8.22545E-01 1.39473E-01 4.03632E+00 1.47262E-13 5.81854E-13
 -1       716 1.50815E+01-3.18362E+00 1.13613E-01-5.83029E+00 3.49224E-13-4.27682E-13
 -1       717 2.69415E+01-4.37448E+00-1.52438E-02-1.14160E+00 4.22700E-14-5.36848E-13
 -1       718 2.87557E+01 2.75280E+00-1.58930E-01 2.49655E+00-2.24230E-13-5.10501E-13
 -1       719 2.80963E+01-1.00967E+00-8.40780E-02-1.31172E+00 1.48350E-13-2.44769E-14
 -1       720 2.47438E+01-4.82353E+00-9.16972E-03-2.78669E+00-1.87220E-13 2.48015E-13
 -1       721 8.69280E+00-1.10046E+00 1.46912E-01-3.74733E+00 4.81306E-13-7.70911E-15
 -1       722 2.01767E+01 4.35093E-01 7.00986E-04-6.88179E-03 2.00426E-13-4.99188E-14
 -1       723 1.48169E+01-2.93916E+00 1.04003E-01-5.89044E+00-3.91045E-13-4.48669E-13
 -1       724 2.01163E+01 1.89222E-01 1.55011E-04-5.25746E-01 3.26602E-14 1.02339E-14
 -1       725 1.45548E+01-2.94046E+00 1.03059E-01 5.91029E+00-2.73313E-13 4.22325E-13
 -1       726 2.02566E+01 6.73817E-01 1.05399E-03 3.04685E-01 2.17753E-13-5.91536E-14
 -1       727 2.03245E+01 1.17322E+00-4.06997E-04-6.65833E-01-1.63419E-13-1.34759E-13
 -1       728 2.73967E+01-2.16000E+00-5.02419E-02 8.38929E-01 2.25972E-13 4.39985E-13
 -1       729 2.87624E+01-1.09944E+00-7.35008E-02 1.77252E+00 7.75716E-14-4.88443E-13
 -1       730 2.70735E+01 1.60410E+00-1.00592E-01 2.35433E+00 3.59390E-13 2.46234E-13
 -1       731 2.08617E+01-4.68431E+00 5.86725E-02-5.02387E+00-3.73084E-13-1.52994E-14
 -1       732 2.00069E+01 2.39482E+00-1.62938E-03 5.73203E-01 2.13836E-13-2.44654E-13
 -1       733 2.64542E+01 5.05469E+00-1.42127E-01 1.37483E+00 3.80307E-13 6.40998E-14
 -1       734 7.47835E+00 2.56773E-02 1.61956E-01 2.22690E-01 5.20636E-13 6.98691E-13
 -1       735 2.00014E+01 2.40717E+00-1.61248E-03-5.65336E-01-5.74209E-14-3.04010E-13
 -1       736 1.10749E+01-1.63817E+00 1.41083E-01 4.88219E+00 1.59466E-13-4.84765E-13
 -1       737 2.19928E+01-4.96579E+00 4.39529E-02 4.54727E+00 9.96599E-14 1.50833E-13
 -1       738 2.71438E+01-3.93725E+00-5.86057E-02 5.19996E-01-7.26919E-14 3.93189E-13
 -1       739 2.63479E+01-4.04231E+00-3.19105E-02 1.28333E+00 4.35155E-15-1.59775E-13
 -1       740 2.73418E+01 3.24717E+00-1.30156E-01-2.25918E+00 4.25628E-13-9.38451E-14
 -1       741 9.56925E+00-4.70076E-01 1.49321E-01-3.35677E+00-2.02081E-13-6.85174E-13
 -1       742 2.02959E+01 1.67045E+00 6.57286E-04-1.00977E+00-1.89402E-13-1.64252E-13
 -1       743 2.66892E+01 5.59191E+00-1.42836E-01-1.03605E+00 4.13530E-13-7.57311E-14
 -1       744 2.01196E+01 2.13846E+00-6.46321E-04-7.65409E-01-1.07988E-13-2.34418E-13
 -1       745 1.98848E+01 2.65259E+00-1.47425E-03-1.12653E-01 5.34334E-14-3.14915E-13
 -1       746 2.38769E+01-4.55724E+00 2.30866E-02 2.96547E+00-5.27200E-14-1.71853E-13
 -1       747 1.99975E+01 7.71113E-02-1.80459E-05 4.97823E-02 2.25276E-13-1.46775E-13
 -1       748 2.47415E+01-4.42526E+00 4.49196E-02 2.19724E+00 2.81849E-14 4.39224E-13
 -1       749 1.99235E+01 2.57338E+00-1.53965E-03-3.42826E-01-6.68096E-15-2.98173E-13
 -1       750 2.79293E+01 2.37239E+00-8.49752E-02-2.67964E+00-2.61478E-13 3.74811E-13
 -1       751 2.00096E+01 6.72096E-02-9.48287E-06-5.56576E-02-3.49596E-14-5.36034E-13
 -1       752 2.58550E+01-6.68281E-01-3.32847E-02 1.98538E+00 2.15437E-13 7.78821E-14
 -1       753 2.02795E+01 1.39296E+00 8.46858E-04 5.24661E-01 2.27158E-13-1.00287E-13
 -1       754 2.02058E+01 1.93252E+00 3.74869E-05-9.03331E-01-1.56519E-13-1.97073E-13
 -1       755 2.42847E+01-4.31614E+00 2.16568E-02-2.35814E+00 2.28746E-13-3.42074E-13
 -1       756 2.02578E+01 6.16918E-01 2.25036E-05 1.14795E-01-9.95260E-14-1.16227E-13
 -1       757 2.02045E+01 4.72412E-01-6.24050E-07 3.12156E-01-9.82487E-14-4.27289E-14
 -1       758 2.01431E+01 4.05221E-01 1.15862E-05 4.74304E-01-5.67315E-14-1.11591E-13
 -1       759 2.00763E+01 3.93728E-01 2.24658E-05 6.18512E-01-2.51059E-15-1.14555E-13
 -1       760 2.00030E+01 4.21061E-01 3.08660E-05 7.58943E-01 1.76358E-14-1.15950E-13
 -1       761 1.99207E+01 4.71853E-01 4.33441E-05 9.06752E-01-6.35919E-15-3.05607E-14
 -1       762 1.98274E+01 5.29032E-01 6.23301E-05 1.07033E+00-2.54478E-14-1.66240E-14
 -1       763 1.97240E+01 5.70493E-01 8.88929E-05 1.25611E+00-1.59831E-14-3.01079E-14
 -1       764 1.96184E+01 5.64867E-01 1.22852E-04 1.46971E+00 4.98437E-14-1.12971E-13
 -1       765 1.95322E+01 4.66483E-01 1.65378E-04 1.71715E+00 4.45303E-14-7.26023E-14
 -1       766 1.95129E+01 2.09974E-01 2.09077E-04 2.00487E+00 1.78977E-14-4.77758E-14
 -1       767 1.96520E+01-2.92406E-01-5.22801E-05 2.33220E+00 1.00121E-14-5.19320E-14
 -1       768 2.01083E+01-1.13975E+00 8.58064E-04 2.67932E+00 1.05623E-13 4.44078E-14
 -1       769 2.11375E+01-2.37460E+00 1.26075E-02 2.90293E+00 1.99437E-13 2.82291E-13
 -1       770 2.14211E+01-2.57946E+00 2.27445E-02-2.89279E+00 1.96302E-13-2.64506E-13
 -1       771 2.02512E+01-1.28393E+00-4.52981E-03-2.66565E+00 1.44280E-13-1.31695E-13
 -1       772 1.96827E+01-3.51445E-01 1.16922E-03-2.32899E+00-1.57731E-13-5.60438E-14
 -1       773 1.95068E+01 2.04680E-01 7.82179E-04-1.97736E+00-1.55793E-13-4.75045E-14
 -1       774 1.95017E+01 5.02521E-01 2.31500E-04-1.66532E+00 1.08703E-13-2.29256E-13
 -1       775 1.95724E+01 6.27967E-01 1.29600E-04-1.39253E+00 1.20997E-13 2.08708E-13
 -1       776 1.96649E+01 6.48415E-01 9.70194E-05-1.15437E+00-1.08212E-13 2.52355E-13
 -1       777 1.97536E+01 6.10085E-01 7.63240E-05-9.46444E-01-7.35410E-14 3.28903E-13
 -1       778 1.98283E+01 5.42826E-01 5.79310E-05-7.66010E-01-1.48636E-13 2.47717E-13
 -1       779 1.98867E+01 4.64979E-01 4.22429E-05-6.11209E-01 8.08479E-15-1.34061E-13
 -1       780 1.99299E+01 3.87213E-01 3.10803E-05-4.80337E-01 1.69754E-13-1.35291E-13
 -1       781 1.99604E+01 3.15310E-01 2.36642E-05-3.71470E-01-2.52787E-14-1.68036E-13
 -1       782 1.99811E+01 2.51996E-01 1.80611E-05-2.82373E-01 4.14343E-17 2.66919E-14
 -1       783 1.99943E+01 1.98122E-01 1.23740E-05-2.10616E-01 6.88484E-14 4.27397E-14
 -1       784 2.00022E+01 1.53443E-01 7.87164E-06-1.53729E-01 1.12286E-13-3.41954E-13
 -1       785 2.00064E+01 1.17105E-01 9.97810E-06-1.09587E-01 2.58000E-13-3.46544E-13
 -1       786 2.00096E+01 8.92057E-02 8.30267E-06-7.93983E-02 6.66016E-14-2.93226E-13
 -1       787 1.99489E+01 1.47609E-01-5.32878E-07-2.67671E-02-1.39582E-14 3.42386E-13
 -1       788 2.02025E+01 4.04170E-01 3.27619E-05-2.88605E-01 1.11277E-13 3.12600E-15
 -1       789 2.01050E+01 2.86779E-01 4.97790E-05-8.43787E-01 9.51048E-14-6.21902E-14
 -1       790 2.01121E+01 2.83049E-01 4.41007E-05-7.16940E-01 7.61743E-14-7.20212E-14
 -1       791 2.01510E+01 2.47827E-01 5.24360E-05-1.10941E+00-3.46230E-14 1.16714E-13
 -1       792 2.02298E+01 1.56029E-01 3.50546E-05-1.24189E+00-3.52717E-14 6.02788E-14
 -1       793 2.03789E+01-2.52494E-02-8.53979E-06-1.35818E+00 1.51725E-15 3.74134E-14
 -1       794 2.06400E+01-3.29938E-01-1.63457E-04-1.43244E+00-5.44780E-14 1.61821E-14
 -1       795 2.10683E+01-7.80579E-01-1.96803E-04-1.42018E+00-2.00824E-13 8.22251E-14
 -1       796 2.17237E+01-1.36310E+00-8.80159E-04-1.24691E+00-1.94352E-13 1.75121E-14
 -1       797 2.26314E+01-1.95994E+00-9.05580E-04-8.07672E-01-2.34400E-13 1.03925E-13
 -1       798 2.37124E+01-2.31158E+00-3.16914E-04-8.10468E-05-2.39994E-13 1.45794E-13
 -1       799 2.46317E+01-1.79938E+00-1.42494E-02 1.10062E+00-5.45545E-14 1.40101E-13
 -1       800 2.44170E+01 4.12209E+00-6.94566E-02 5.69597E-01 3.29112E-13-1.81756E-15
 -1       801 2.49588E+01 1.23426E+00-3.32753E-02-2.24691E+00 6.28265E-14-2.06731E-13
 -1       802 2.49815E+01-9.79333E-01-2.25672E-02-1.82611E+00 2.59659E-13-4.21676E-13
 -1       803 2.42838E+01-2.04516E+00-3.81667E-03-7.27705E-01-2.51891E-14-3.15695E-13
 -1       804 2.32523E+01-2.12536E+00 1.49333E-03 2.87787E-01-1.60597E-13-2.25788E-13
 -1       805 2.22517E+01-1.64946E+00 2.67120E-04 9.28916E-01-6.00798E-14-5.66217E-14
 -1       806 2.14657E+01-1.04836E+00-5.86879E-04 1.23994E+00-9.24668E-14 1.07699E-13
 -1       807 2.09164E+01-5.20473E-01-2.30058E-04 1.33292E+00-1.97706E-14 1.34611E-14
 -1       808 2.05621E+01-1.32753E-01-5.97963E-05 1.29460E+00-1.25923E-14-2.30709E-14
 -1       809 2.03458E+01 1.18141E-01 2.00119E-05 1.18621E+00 6.87456E-14 2.52484E-14
 -1       810 2.02186E+01 2.59767E-01 6.00390E-05 1.04485E+00 9.33523E-14 2.61052E-14
 -1       811 2.01455E+01 3.23369E-01 8.00554E-05 8.93134E-01 1.63927E-13 8.68822E-14
 -1       812 2.01036E+01 3.35927E-01 8.22189E-05 7.44659E-01-1.82442E-13-4.52157E-14
 -1       813 2.00789E+01 3.17950E-01 7.54782E-05 6.07299E-01-1.77891E-15-2.28602E-13
 -1       814 2.00633E+01 2.83840E-01 6.64040E-05 4.85200E-01-1.33254E-13-2.44254E-13
 -1       815 2.00524E+01 2.43134E-01 5.66396E-05 3.80023E-01-1.53976E-13-2.54945E-13
 -1       816 2.00439E+01 2.01807E-01 4.71650E-05 2.91765E-01-3.96734E-14-3.79577E-13
 -1       817 2.00368E+01 1.63302E-01 3.66641E-05 2.19352E-01 1.72457E-14-6.79848E-14
 -1       818 2.00304E+01 1.29358E-01 3.48988E-05 1.61190E-01-8.91680E-15 1.11276E-13
 -1       819 2.00246E+01 1.00734E-01 4.59518E-05 1.15561E-01-1.71465E-13 1.01113E-13
 -1       820 2.00721E+01 2.05311E+00-3.31525E-04 1.60159E-01 1.32339E-13-2.36965E-13
 -1       821 1.05741E+01 3.35487E-02 9.40949E-02 2.46956E+00 1.07320E-13-4.35853E-13
 -1       822 1.99824E+01 1.13482E-01-1.00256E-05-6.56447E-02-1.34851E-13-1.36472E-13
 -1       823 1.99442E+01 1.51817E-01-7.62588E-06 4.09806E-04-1.12975E-13-2.54262E-13
 -1       824 1.85552E+01-3.54831E+00 4.04152E-02 5.08051E+00 2.75641E-13-2.72928E-13
 -1       825 2.49006E+01 3.35210E+00-6.85893E-02-1.74088E+00 3.23321E-13-6.66966E-14
 -1       826 2.02484E+01 5.54733E-01-1.39361E-04-8.27261E-02 1.67450E-13-1.09580E-14
 -1       827 2.47903E+01 2.55535E+00-4.88140E-02 2.00432E+00 3.46537E-13 4.47819E-15
 -1       828 1.04458E+01 5.51185E-01 8.50551E-02-9.20707E-01-6.96560E-14-5.09866E-13
 -1       829 1.99622E+01 1.34415E-01-1.26307E-05-4.99898E-02-8.28955E-14 3.45375E-13
 -1       830 2.01150E+01 2.82384E-01 5.36531E-05-9.74672E-01 1.10520E-13 3.20363E-14
 -1       831 1.31734E+01-9.46475E-01 6.82760E-02-4.12497E+00 4.14239E-13-3.91250E-14
 -1       832 2.03046E+01 1.02087E+00 1.83160E-04 4.38453E-01 2.34556E-13-4.87737E-14
 -1       833 2.02917E+01 1.26288E+00-4.47423E-04-4.52479E-01-1.24790E-13-1.68029E-13
 -1       834 1.86473E+01-3.12739E+00 3.74539E-02-4.74456E+00-4.75911E-13-1.10902E-13
 -1       835 1.40639E+01-1.15735E+00 6.09944E-02 4.43869E+00-1.44731E-13 2.74513E-13
 -1       836 1.91842E+01-3.39912E+00 4.97674E-02 4.74903E+00-2.44844E-13-3.51442E-14
 -1       837 2.63241E+01 4.93044E-01-5.36617E-02-2.21783E+00 1.94168E-13-2.53884E-13
 -1       838 2.62386E+01-2.35196E+00-2.73762E-02-8.12507E-01 6.55049E-14-7.01713E-14
 -1       839 2.02935E+01 8.67259E-01-5.58525E-05-1.35403E-01-1.05227E-13-1.60136E-13
 -1       840 2.27894E+01-4.08571E+00 8.11684E-03-3.05049E+00-3.69056E-13 1.83722E-13
 -1       841 1.07227E+01 4.24848E-01 9.18860E-02-1.81053E+00 7.73515E-13 1.89907E-13
 -1       842 1.38173E+01-9.84202E-01 5.62043E-02-4.18188E+00-3.50806E-13-4.10626E-13
 -1       843 1.93588E+01-3.50186E+00 3.30365E-02-4.58432E+00 1.68518E-13-4.97397E-13
 -1       844 2.53799E+01-3.43391E+00-1.23012E-02-4.41081E-01-1.05263E-13 3.75137E-13
 -1       845 1.05342E+01 4.53123E-01 8.16348E-02 1.72113E+00 2.29879E-13 4.09280E-13
 -1       846 2.00536E+01 2.09812E+00-3.09618E-04 1.95613E-03 8.75336E-14-2.67026E-13
 -1       847 2.01975E+01 1.70413E+00-2.80716E-04 4.39195E-01 1.90626E-13-2.04281E-13
 -1       848 2.51125E+01-3.51460E+00-1.00449E-02 6.64598E-01-6.28690E-14 2.35315E-15
 -1       849 1.99823E+01 1.11605E-01 1.25254E-06 6.55554E-02-1.09024E-13-5.49047E-13
 -1       850 2.01624E+01 3.23798E-01 3.30208E-05-4.51196E-01 6.48926E-14-5.26926E-14
 -1       851 1.69852E+01-1.67853E+00 3.99656E-02-4.16809E+00 2.74561E-13-4.40745E-13
 -1       852 2.01318E+01 2.89660E-01 3.92100E-05-5.89252E-01 1.26728E-16-8.52569E-14
 -1       853 2.00149E+01 8.75714E-02-1.68105E-04 8.76679E-02 9.11887E-15 4.19690E-14
 -1       854 2.01229E+01 1.92295E+00-3.58526E-04 3.09855E-01 1.64585E-13-2.26893E-13
 -1       855 1.99624E+01 1.32724E-01-6.82724E-06 5.00491E-02 1.35609E-14-3.40665E-13
 -1       856 1.99490E+01 1.46635E-01-1.07187E-05 2.72501E-02-8.59117E-14-1.90805E-13
 -1       857 1.52042E+01-1.23236E+00 7.44817E-02 4.20212E+00 1.98709E-13-4.09044E-13
 -1       858 1.31987E+01 2.59201E-01 3.90797E-02-2.49049E+00-1.78747E-13-3.90203E-13
 -1       859 2.02834E+01 7.37057E-01-3.98008E-04 1.47670E-01 1.95745E-13-4.19859E-14
 -1       860 1.99953E+01 1.02731E-01 1.42757E-04-7.40481E-02-1.38119E-13-4.97242E-13
 -1       861 2.00074E+01 8.36821E-02-5.48859E-06 7.24056E-02 4.47927E-14-1.25384E-13
 -1       862 2.01183E+01 1.93286E+00-5.09995E-04-3.04974E-01-4.10905E-14-2.66806E-13
 -1       863 2.01922E+01 1.71870E+00-8.07072E-04-4.33645E-01-1.06320E-13-2.30099E-13
 -1       864 2.01679E+01 5.65452E-01-3.68254E-05 3.31071E-01-8.47516E-14-1.01652E-13
 -1       865 2.00673E+01 5.13548E-01 3.73069E-06 4.68903E-01-3.63734E-14-5.60525E-14
 -1       866 1.99422E+01 5.19505E-01 1.57708E-06 5.95974E-01-6.57522E-15-9.91463E-14
 -1       867 1.97912E+01 5.65944E-01 4.58471E-07 7.23040E-01 3.61789E-14-1.38732E-13
 -1       868 1.96111E+01 6.35239E-01 4.87423E-06 8.59432E-01 4.75221E-15-7.67040E-14
 -1       869 1.93976E+01 7.07575E-01 1.53732E-05 1.01377E+00-8.15636E-14-1.18783E-13
 -1       870 1.91480E+01 7.57904E-01 3.13357E-05 1.19633E+00-2.00587E-14-1.33279E-13
 -1       871 1.88643E+01 7.51712E-01 6.32645E-05 1.42220E+00 7.79182E-14-1.75837E-13
 -1       872 1.85590E+01 6.40202E-01 1.88700E-04 1.71610E+00 4.95448E-14-1.30330E-13
 -1       873 1.82651E+01 3.52329E-01 3.42452E-04 2.12038E+00 2.79802E-14-1.07671E-13
 -1       874 1.80878E+01-2.24830E-01-1.12799E-03 2.68347E+00 1.01953E-13-6.90753E-14
 -1       875 1.81891E+01-1.20612E+00 1.97862E-02 3.47521E+00 2.29836E-13-4.34461E-14
 -1       876 1.36190E+01 2.96580E-01 2.83060E-02 2.61766E+00-3.19141E-14 5.84159E-14
 -1       877 2.02644E+01 1.30067E+00 6.93468E-04-2.63682E-01-1.03816E-13-1.85654E-13
 -1       878 1.80929E+01-2.90298E-01 3.62224E-03-2.76198E+00 4.81028E-14-2.01324E-13
 -1       879 1.81856E+01 3.44385E-01 2.25113E-04-2.13679E+00-8.32092E-14 7.31999E-15
 -1       880 1.84572E+01 6.83074E-01 6.73889E-05-1.69544E+00-2.14253E-13-1.53162E-13
 -1       881 1.87473E+01 8.26059E-01-1.40580E-05-1.37123E+00 3.44489E-13-2.10602E-13
 -1       882 1.90149E+01 8.50728E-01 2.11273E-05-1.12028E+00 6.18106E-14-1.78608E-13
 -1       883 1.92447E+01 8.06508E-01 3.22558E-05-9.16675E-01-6.02364E-14-9.08600E-14
 -1       884 1.94336E+01 7.25976E-01 2.66151E-05-7.46309E-01-2.04001E-13-1.38157E-13
 -1       885 1.95841E+01 6.30091E-01 1.13239E-05-6.01824E-01-1.11633E-13 1.66271E-14
 -1       886 1.97011E+01 5.31816E-01 2.16565E-06-4.79278E-01 1.21261E-13-6.18070E-15
 -1       887 1.97901E+01 4.38786E-01 1.09963E-06-3.76242E-01 9.33514E-14-6.13169E-14
 -1       888 1.98565E+01 3.55125E-01 3.31180E-06-2.90713E-01-1.48811E-14-4.67468E-14
 -1       889 1.99050E+01 2.82577E-01 2.26814E-06-2.20728E-01 1.37633E-13-1.70253E-13
 -1       890 1.99398E+01 2.21336E-01 1.37862E-05-1.64451E-01 2.23865E-14 8.26206E-14
 -1       891 1.99639E+01 1.70433E-01-6.41596E-05-1.19692E-01 2.49940E-13 2.65570E-13
 -1       892 1.97697E+01 2.13800E-01 4.76290E-05-1.38370E+00-1.48537E-14-5.33987E-14
 -1       893 1.97733E+01 3.45825E-01 4.24276E-05-1.19783E+00 9.76663E-15-7.15814E-14
 -1       894 2.00858E+01-4.63193E-01-2.59753E-04-1.78022E+00-1.57095E-13 7.57527E-14
 -1       895 2.05657E+01-1.09377E+00 6.78939E-04-1.93599E+00-1.73473E-13 8.88597E-14
 -1       896 2.14113E+01-1.92219E+00-1.75085E-03-1.93372E+00-2.15445E-13 5.41079E-14
 -1       897 2.27245E+01-2.81283E+00 8.03339E-03-1.62215E+00-2.92283E-13 1.84656E-13
 -1       898 2.21733E+01-2.37722E+00 3.16648E-03 1.67025E+00-2.66686E-13 2.01277E-14
 -1       899 2.10639E+01-1.49792E+00-9.20728E-04 1.84444E+00-3.78699E-14-1.15814E-13
 -1       900 2.03747E+01-7.48873E-01 3.25681E-04 1.78005E+00 9.87007E-14-2.51726E-13
 -1       901 1.99945E+01-2.05857E-01 2.02740E-04 1.60145E+00-9.83944E-14-2.70684E-13
 -1       902 1.98115E+01 1.46116E-01 4.96914E-05 1.39355E+00-3.86963E-14-1.71595E-13
 -1       903 1.97457E+01 3.49223E-01 2.48594E-05 1.18693E+00-8.36972E-14-7.73931E-14
 -1       904 1.97443E+01 4.45431E-01 3.27151E-05 9.94179E-01 1.31878E-13-5.01945E-14
 -1       905 1.97741E+01 4.70585E-01 2.29838E-05 8.20192E-01-2.43729E-14 1.41130E-13
 -1       906 1.98155E+01 4.51983E-01 1.17445E-05 6.66544E-01-2.27413E-14 6.97692E-14
 -1       907 1.98580E+01 4.09045E-01 1.04792E-05 5.33384E-01-1.27260E-13 3.48634E-13
 -1       908 1.98962E+01 3.54940E-01 9.26926E-06 4.20035E-01 1.21967E-14 1.95215E-13
 -1       909 1.99279E+01 2.98217E-01 8.89784E-06 3.25294E-01-3.30177E-14-7.24904E-14
 -1       910 1.99528E+01 2.44160E-01 4.70448E-06 2.47480E-01-2.44646E-14-1.39815E-13
 -1       911 1.99714E+01 1.95404E-01-5.22853E-06 1.84625E-01-1.59942E-13-8.72448E-14
 -1       912 1.99845E+01 1.53644E-01 6.13925E-07 1.34992E-01-1.35116E-13-3.48545E-14
 -1       913 2.00706E+01 2.05761E+00-3.20724E-04-1.56313E-01 1.74236E-14-2.59998E-13
 -1       914 2.21803E+01-3.48172E+00 3.42016E-03 2.80216E+00-2.18455E-13-1.48708E-13
 -1       915 2.02584E+01 6.43281E-01-3.65934E-05-1.51864E-01 1.48278E-13-7.51919E-14
 -1       916 1.99173E+01 1.92265E-01-1.05904E-05-1.75130E-02 2.17265E-13 1.77526E-13
 -1       917 1.24578E+01 7.93332E-01 3.74422E-02 1.01825E+00 1.71278E-14-2.74463E-13
 -1       918 1.98526E+01-4.00366E-02 6.74224E-05-1.58353E+00-6.61876E-14 1.27181E-14
 -1       919 1.99747E+01 3.98057E-01 1.57631E-05-7.41171E-01 4.38742E-14-1.28107E-13
 -1       920 1.50033E+01 2.57398E-02 2.01006E-02 2.87111E+00 1.35334E-13-3.17078E-13
 -1       921 1.20755E+01 9.45863E-01 3.92294E-02-6.94864E-02 2.88689E-13 1.09182E-13
 -1       922 1.71150E+01-1.45099E+00 1.58068E-02-3.85204E+00-4.15356E-13-1.85995E-13
 -1       923 2.02415E+01 6.95832E-01-1.28274E-05 1.70923E-01-7.06438E-14-1.15708E-13
 -1       924 2.02803E+01 9.25202E-01-5.56599E-04-2.63502E-02-5.56995E-14-1.34728E-13
 -1       925 1.37216E+01 2.16877E-01 4.58001E-02-2.71332E+00 5.28139E-13 2.64567E-13
 -1       926 2.05006E+01-2.63759E+00 1.39670E-02-3.26401E+00-4.10219E-13 5.28490E-14
 -1       927 1.76506E+01-1.57587E+00 2.35563E-02 3.87076E+00-2.58995E-13 9.06176E-15
 -1       928 2.02838E+01 1.14555E+00-4.75933E-04 2.33250E-01 1.72271E-13-1.19365E-13
 -1       929 2.01660E+01 1.62553E+00 3.49096E-05 4.20397E-02 7.93345E-14-2.19547E-13
 -1       930 2.00555E+01 3.96678E-01 1.22089E-05-6.09931E-01 4.16326E-14-1.62313E-13
 -1       931 2.02024E+01 4.97385E-01-4.20592E-06-3.28117E-01 1.30645E-13-1.15823E-13
 -1       932 1.98946E+01 4.06444E-01 1.98787E-05-8.78954E-01 1.81702E-14-7.60935E-15
 -1       933 1.99831E+01 1.33154E-01 2.58682E-05-9.53077E-02 1.57399E-13-9.09435E-14
 -1       934 1.98229E+01 3.98440E-01 2.88801E-05-1.02989E+00 3.11811E-14 1.52338E-14
 -1       935 1.99851E+01 1.32246E-01 6.86529E-05 1.02164E-01-1.67306E-14-1.27653E-13
 -1       936 2.01932E+01 1.54752E+00 4.89987E-04-1.25933E-01 4.15781E-15-2.07005E-13
 -1       937 2.01926E+01 1.54269E+00-2.58574E-04 1.22696E-01 1.02331E-13-2.44205E-13
 -1       938 1.99300E+01 1.81449E-01 3.14767E-06-5.19406E-02 1.09901E-13 1.70817E-13
 -1       939 1.99176E+01 1.91320E-01-1.85900E-05 1.93780E-02-2.48514E-14-2.19041E-13
 -1       940 2.02897E+01 8.93734E-01 3.74175E-04 6.79145E-02 1.31856E-13-1.07990E-13
 -1       941 2.03187E+01-2.15850E+00 6.31778E-03 2.93319E+00-1.59494E-13-9.39879E-14
 -1       942 1.99555E+01 1.56103E-01 3.76744E-06 8.03766E-02 3.42474E-13-3.59961E-13
 -1       943 2.36731E+01-3.05109E+00-5.73049E-03 1.04150E+00-2.00995E-13-3.65333E-14
 -1       944 1.35321E+01 9.41386E-01 1.58824E-02-6.87824E-01-4.46763E-14-2.87412E-13
 -1       945 1.58713E+01-2.78646E-01 1.70393E-02-3.01350E+00-2.65912E-13-9.85895E-14
 -1       946 2.02281E+01 1.45052E+00 1.02218E-03-1.97942E-01-3.72109E-14-1.86475E-13
 -1       947 1.99590E+01 1.54313E-01 9.46888E-06-8.02146E-02-9.02226E-14-6.67873E-14
 -1       948 1.63889E+01-6.31007E-02 1.59061E-02 2.75010E+00-2.09644E-13-1.55151E-13
 -1       949 1.99393E+01 6.08813E-01-2.70866E-05 4.06171E-01-2.23622E-14-9.83978E-14
 -1       950 1.97540E+01 6.36165E-01-2.54954E-05 5.02942E-01 4.85201E-15-7.85649E-14
 -1       951 1.95257E+01 7.02709E-01-3.01033E-05 6.01052E-01 2.71932E-14-1.33447E-13
 -1       952 1.92487E+01 7.89407E-01-6.11577E-05 7.07508E-01 1.93668E-14-1.09473E-13
 -1       953 1.89130E+01 8.76745E-01-9.93569E-05 8.30531E-01-4.00799E-14-4.55459E-15
 -1       954 1.85061E+01 9.40542E-01-1.49490E-04 9.83307E-01-3.28134E-16-3.93447E-14
 -1       955 1.80125E+01 9.49793E-01-2.17607E-04 1.18790E+00 7.84483E-14-7.96814E-14
 -1       956 1.74131E+01 8.63087E-01-7.05328E-05 1.48442E+00 4.23579E-14-1.15073E-13
 -1       957 1.67056E+01 6.26221E-01 2.07259E-03 1.94659E+00 1.93642E-14-1.71535E-13
 -1       958 1.92804E+01 4.73580E-01-2.29113E-05-1.22552E+00-1.22214E-14-5.09392E-14
 -1       959 1.65454E+01 6.32471E-01 1.26542E-03-1.99581E+00 8.81144E-14 2.50460E-13
 -1       960 1.72318E+01 9.18344E-01-1.66383E-03-1.49198E+00-1.52035E-13 3.30641E-13
 -1       961 1.78325E+01 1.03550E+00-5.92531E-04-1.16008E+00-1.15768E-14 4.96287E-13
 -1       962 1.83159E+01 1.04552E+00-1.51333E-04-9.32938E-01 8.35352E-14 7.91209E-14
 -1       963 1.87035E+01 9.90493E-01-3.04194E-05-7.62092E-01-7.46375E-14-1.24797E-13
 -1       964 1.90129E+01 8.98247E-01 1.05468E-05-6.25207E-01-1.46908E-13-1.26602E-13
 -1       965 1.92579E+01 7.88179E-01-6.87374E-06-5.10649E-01-1.07771E-13-1.74406E-13
 -1       966 1.94501E+01 6.73533E-01-2.13177E-05-4.12998E-01 2.37648E-14-3.21002E-13
 -1       967 1.95991E+01 5.62705E-01-1.90326E-05-3.29682E-01 5.80977E-14-4.47679E-13
 -1       968 1.97131E+01 4.61004E-01-1.96761E-06-2.59212E-01 1.10220E-13-4.39599E-13
 -1       969 1.97991E+01 3.71223E-01-2.84461E-06-2.00411E-01-8.38667E-15-2.89904E-13
 -1       970 1.98630E+01 2.94004E-01-6.73275E-06-1.52009E-01 3.31208E-13-5.98334E-14
 -1       971 1.99094E+01 2.29355E-01 1.64637E-05-1.12651E-01 2.40814E-13 5.13097E-14
 -1       972 1.96259E+01-1.30331E+00-1.94744E-03-2.63509E+00-2.07474E-13-2.90109E-14
 -1       973 1.92375E+01-5.00207E-01-1.36796E-03-2.17505E+00-2.06830E-13-8.38749E-14
 -1       974 1.94705E+01-8.80078E-01-3.70147E-04 2.36575E+00 4.07824E-14 8.23871E-14
 -1       975 2.01641E+01 1.62902E+00-3.11741E-06-4.27432E-02 4.03492E-14-2.33302E-13
 -1       976 2.01897E+01 7.45352E-01-4.30868E-05 1.86576E-01-4.61113E-14-1.10171E-13
 -1       977 1.91110E+01 2.26047E-01-2.05451E-04 1.58275E+00-1.37806E-13 1.31776E-13
 -1       978 1.91587E+01 4.71906E-01-6.37782E-05 1.28413E+00-1.56932E-13 2.47186E-13
 -1       979 1.92603E+01 5.89262E-01 5.91108E-06 1.03962E+00-3.82329E-14 2.15245E-13
 -1       980 1.93815E+01 6.20550E-01-1.77343E-05 8.38553E-01 1.84577E-13 8.01696E-14
 -1       981 1.95019E+01 5.98375E-01-4.94364E-05 6.72278E-01-9.39673E-14 2.87170E-14
 -1       982 1.96116E+01 5.45315E-01-3.47640E-05 5.34397E-01-2.45430E-13 4.02401E-13
 -1       983 1.97056E+01 4.77345E-01-9.87883E-06 4.20224E-01-2.39513E-14 4.87984E-13
 -1       984 1.97832E+01 4.04784E-01-3.22438E-06 3.26253E-01 1.63594E-13 4.17624E-13
 -1       985 1.98451E+01 3.34437E-01-1.56417E-05 2.49744E-01 1.93515E-13 1.35693E-13
 -1       986 1.98929E+01 2.70379E-01-3.73278E-05 1.88237E-01-1.26556E-13-1.08011E-13
 -1       987 1.99292E+01 2.14238E-01 2.41810E-05 1.39567E-01-2.43656E-13-1.84168E-14
 -1       988 2.02382E+01 1.38173E+00-2.70993E-04 1.90967E-01 1.39985E-13-1.93433E-13
 -1       989 2.01327E+01 4.22848E-01 1.77851E-06-4.76136E-01 4.90441E-14-1.04647E-13
 -1       990 2.02671E+01 9.27185E-01-2.14579E-04-2.64441E-02 1.16015E-13-1.55550E-13
 -1       991 1.99310E+01 1.78735E-01-5.18772E-05 5.39022E-02 2.22347E-14-5.42837E-13
 -1       992 1.39929E+01 1.03748E+00 9.46806E-03 9.19862E-01 7.90761E-14 7.77564E-14
 -1       993 1.47093E+01 8.92706E-01 1.78046E-02 1.34500E+00 4.76577E-14-1.06375E-13
 -1       994 2.02502E+01 9.43702E-01-2.63190E-04 4.61924E-02-3.55475E-14-1.19087E-13
 -1       995 1.42017E+01 9.40420E-01 1.63749E-02-1.21852E+00 2.02145E-13-1.23314E-13
 -1       996 1.91799E+01-2.02986E-01-3.84473E-04 1.94437E+00 5.09000E-15 1.69307E-13
 -1       997 1.99427E+01 1.84102E-01-2.38577E-05 1.06894E-01-4.02910E-14-3.80336E-14
 -1       998 2.00848E+01 6.38878E-01 2.18461E-05 3.02997E-01-2.36811E-14-9.04851E-14
 -1       999 2.02641E+01 1.13555E+00 7.56243E-04 8.18542E-02 1.53068E-13-1.75618E-13
 -1      1000 1.91587E+01 3.17184E-01 4.08926E-05-1.48109E+00-5.50383E-15-2.05844E-14
 -1      1001 1.99081E+01 5.05895E-01 1.04675E-05-5.79308E-01 3.73335E-14-1.27778E-13
 -1      1002 1.94366E+01 5.34228E-01-1.17277E-05-1.01933E+00 2.73430E-14-1.23747E-13
 -1      1003 2.02160E+01 1.24644E+00-3.65789E-05-1.86040E-02 4.22108E-15-1.97399E-13
 -1      1004 2.02259E+01 7.02266E-01-6.25847E-05-1.92764E-01 1.14587E-13-1.20802E-13
 -1      1005 2.02199E+01 1.23988E+00 3.45451E-04 1.40431E-02 6.64427E-14-1.73305E-13
 -1      1006 1.98779E+01 2.42992E-01 4.52738E-06 2.08114E-03 3.31112E-13 1.60812E-13
 -1      1007 1.97612E+01 5.21136E-01-8.42603E-06-7.06604E-01-1.12418E-15-1.29161E-13
 -1      1008 2.02064E+01 1.27991E+00 6.31332E-05-5.40401E-03 3.79861E-14-1.79642E-13
 -1      1009 1.91104E+01 1.66026E-02-4.00546E-04-1.80163E+00-8.95038E-14-1.03078E-13
 -1      1010 1.52033E+01 6.33239E-01 2.56684E-03-1.76588E+00-1.17795E-13-1.78908E-13
 -1      1011 1.98860E+01 2.37313E-01 7.97099E-06-4.63257E-02 3.31718E-13-2.15146E-14
 -1      1012 1.81078E+01-8.74443E-01 1.01759E-02-2.98000E+00-2.46576E-13-1.71686E-13
 -1      1013 1.81161E+01-5.90024E-01 2.92520E-03 2.71355E+00-9.73364E-14 9.30886E-14
 -1      1014 1.99093E+01 2.13049E-01 7.37256E-05 7.48898E-02 1.65557E-13-9.06000E-13
 -1      1015 1.95447E+01 7.31668E-01-8.42922E-05 3.34935E-01 3.91357E-14-4.18193E-14
 -1      1016 1.92469E+01 8.15418E-01-6.44223E-05 3.88859E-01 2.40889E-14-1.49510E-14
 -1      1017 1.88835E+01 9.13602E-01-2.24805E-04 4.43605E-01 2.85165E-14-7.75085E-14
 -1      1018 1.84343E+01 1.01172E+00-3.91004E-04 5.06235E-01 1.06790E-14 2.49940E-14
 -1      1019 1.78737E+01 1.08712E+00-5.77373E-04 5.85800E-01-6.06879E-14-6.03636E-14
 -1      1020 1.71605E+01 1.11732E+00-2.40069E-04 6.99130E-01 2.31316E-14-1.93253E-13
 -1      1021 1.62158E+01 1.08133E+00-7.07755E-04 8.84520E-01 1.69402E-14-1.21420E-13
 -1      1022 1.52288E+01 1.13160E+00 6.72473E-03-7.53002E-02-4.36340E-14-2.05073E-13
 -1      1023 2.01458E+01 5.74425E-01 9.89495E-06-3.33044E-01 1.07404E-13-1.07542E-13
 -1      1024 1.58932E+01 1.19791E+00 3.98286E-03-9.11239E-01 8.88606E-14 3.60963E-14
 -1      1025 1.69295E+01 1.20852E+00 3.08254E-04-6.80827E-01 1.10668E-13 2.29731E-13
 -1      1026 1.76438E+01 1.19768E+00-3.70351E-04-5.55125E-01-1.89339E-13 2.41096E-13
 -1      1027 1.81898E+01 1.13506E+00-2.59613E-05-4.62920E-01-1.10857E-13 3.27628E-14
 -1      1028 1.86143E+01 1.03605E+00-2.43469E-05-3.92100E-01-1.02159E-13-5.05999E-14
 -1      1029 1.89454E+01 9.20238E-01-1.27149E-04-3.30305E-01-1.04002E-13-4.86324E-14
 -1      1030 1.92067E+01 7.95938E-01-9.61399E-05-2.75585E-01-1.15964E-13 2.29592E-14
 -1      1031 1.94104E+01 6.73754E-01-8.69488E-05-2.26303E-01 2.65633E-14-6.57783E-15
 -1      1032 1.95683E+01 5.59128E-01 8.59626E-06-1.82904E-01-1.53950E-14-8.90825E-15
 -1      1033 1.96895E+01 4.55392E-01-3.04205E-05-1.44952E-01 9.09118E-14-1.89781E-14
 -1      1034 1.97811E+01 3.65130E-01-9.40324E-05-1.12643E-01 3.24005E-13-1.13129E-13
 -1      1035 1.98497E+01 2.87867E-01-1.05863E-04-8.59378E-02 4.36479E-13-1.07398E-13
 -1      1036 1.96013E+01 5.39640E-01-1.96757E-06-8.49978E-01 2.82362E-14-1.52410E-13
 -1      1037 2.01943E+01 9.61410E-01-5.01313E-04 5.00294E-02-4.42179E-15-1.60278E-13
 -1      1038 1.98826E+01 2.51806E-01 1.53839E-04 1.01264E-01-7.40237E-14-7.59806E-13
 -1      1039 1.84356E+01 6.47094E-01-5.27771E-04 1.29508E+00-1.98733E-13 2.52909E-13
 -1      1040 1.91523E+01 7.53216E-01-2.44648E-04 6.11656E-01-6.70187E-15 6.58819E-13
 -1      1041 1.93390E+01 6.86369E-01-1.54962E-04 4.77882E-01-1.89341E-13 5.64434E-13
 -1      1042 1.94945E+01 6.03705E-01-1.58627E-05 3.72275E-01-1.18959E-13 2.09918E-13
 -1      1043 1.96216E+01 5.15095E-01 1.33425E-05 2.87683E-01 8.34089E-14 2.03105E-13
 -1      1044 1.97229E+01 4.28564E-01-6.48011E-05 2.19804E-01 3.63419E-13 1.68710E-13
 -1      1045 1.98022E+01 3.49233E-01 5.59014E-06 1.66461E-01 2.48832E-13-8.22885E-14
 -1      1046 1.98456E+01 2.98757E-01 8.56178E-05 1.30470E-01-3.86070E-15-3.24163E-13
 -1      1047 2.02394E+01 1.20928E+00 4.65879E-04 4.33850E-02 1.12748E-13-1.95915E-13
 -1      1048 1.80611E+01 2.05966E-01-9.39675E-04-1.95113E+00-1.24865E-13 8.52438E-15
 -1      1049 2.00377E+01 5.16557E-01 8.09651E-06-4.58031E-01 8.09890E-14-1.28259E-13
 -1      1050 1.98876E+01 2.32651E-01-1.08724E-05 4.05551E-02 8.66280E-14-9.01099E-14
 -1      1051 1.99760E+01 6.88175E-01-5.48251E-05 2.20258E-01-2.09425E-14-2.05638E-13
 -1      1052 1.81542E+01 5.93126E-02-2.02812E-03 2.07006E+00-7.04119E-14 3.54040E-13
 -1      1053 1.82630E+01 4.27562E-01-7.91689E-04 1.63364E+00-2.78005E-14 3.73651E-13
 -1      1054 1.69586E+01 7.48809E-02 1.06559E-02-2.33180E+00-1.03393E-13-1.43232E-13
 -1      1055 1.86952E+01 7.61988E-01-1.01232E-05 1.00284E+00 2.40748E-14 1.23154E-13
 -1      1056 1.58994E+01 8.77964E-01 4.76429E-03 1.44631E+00-7.25986E-14-2.95302E-13
 -1      1057 1.89373E+01 7.85279E-01-1.19010E-04 7.81587E-01-3.26452E-14 1.39792E-13
 -1      1058 2.01093E+01 7.80676E-01 2.91849E-04 1.26507E-01-3.49172E-14-1.76054E-13
 -1      1059 1.97854E+01 6.83375E-01-1.54391E-04 2.80054E-01 1.14523E-14-1.32502E-13
 -1      1060 1.89679E+01 6.93717E-01-7.23871E-05-9.24078E-01-1.14328E-14-5.29519E-14
 -1      1061 1.86692E+01 6.45216E-01-2.47996E-04-1.16185E+00-1.55776E-14-9.38488E-14
 -1      1062 1.98968E+01 6.02028E-01-2.60602E-05-3.88015E-01 9.67348E-14-5.38309E-14
 -1      1063 1.83618E+01 4.94271E-01-1.10706E-03-1.49125E+00-3.27734E-14-3.10812E-14
 -1      1064 2.01970E+01 1.01256E+00 1.41866E-04-2.52113E-02 4.68474E-14-1.46290E-13
 -1      1065 1.97101E+01 6.13843E-01-3.37675E-05-4.89411E-01 2.17249E-14-7.93358E-14
 -1      1066 2.02256E+01 9.12399E-01-3.48185E-05-8.39326E-02 7.94047E-14-1.34555E-13
 -1      1067 1.98292E+01 3.02422E-01 2.03665E-04-2.41869E-02 4.35111E-13 1.68324E-13
 -1      1068 1.70309E+01 4.43061E-01-1.13244E-03 1.93146E+00-1.24083E-13-2.02973E-13
 -1      1069 1.98315E+01 2.96611E-01-2.22804E-04 2.86693E-02 3.58088E-13 2.11134E-13
 -1      1070 1.90018E+01 8.86472E-01 1.08495E-03 9.31412E-02 8.70365E-15-6.76078E-14
 -1      1071 1.85659E+01 9.87987E-01 1.92202E-04 7.53204E-02 1.65674E-14-1.18087E-13
 -1      1072 1.80338E+01 1.07771E+00-7.98652E-05 4.01658E-02-5.91035E-14-1.41529E-13
 -1      1073 1.73546E+01 1.14451E+00-3.27830E-04-1.89141E-02-3.78408E-14-1.21080E-13
 -1      1074 1.64922E+01 1.14922E+00-1.30458E-03-9.67285E-02 4.81251E-14-1.64742E-13
 -1      1075 2.01564E+01 7.27548E-01 1.31443E-05-1.93219E-01 8.67706E-14-8.67209E-14
 -1      1076 1.92440E+01 6.84556E-01-5.11950E-05-7.45212E-01 2.20492E-15-8.96178E-14
 -1      1077 1.80718E+01 9.57955E-01 9.36751E-05 8.33005E-01 4.58986E-14-2.25194E-13
 -1      1078 1.71235E+01 1.25152E+00 3.05110E-03 3.63812E-02-3.84564E-14-3.36236E-13
 -1      1079 1.77947E+01 1.19404E+00 4.54443E-04-1.23458E-02-2.63554E-13-2.88901E-13
 -1      1080 1.82981E+01 1.11212E+00 5.30198E-04-3.83407E-02 2.89597E-15-1.97710E-13
 -1      1081 1.86872E+01 1.00622E+00 3.12692E-05-5.60906E-02 2.83270E-14-2.13868E-13
 -1      1082 1.89998E+01 8.83409E-01-2.37433E-04-6.57908E-02 9.54341E-15-1.94496E-13
 -1      1083 1.92521E+01 7.57892E-01 8.30727E-04-6.73837E-02 4.54977E-14 1.34520E-13
 -1      1084 1.94440E+01 6.36563E-01-5.12910E-06-6.23174E-02-4.80770E-14 3.06000E-13
 -1      1085 1.95882E+01 5.29251E-01 1.57531E-04-5.25389E-02-1.59644E-13 4.92839E-13
 -1      1086 1.97050E+01 4.28577E-01 1.15945E-04-4.27086E-02 5.15236E-14 3.15503E-13
 -1      1087 1.97750E+01 3.60784E-01 1.44978E-04-3.25346E-02 2.91689E-13 1.90745E-13
 -1      1088 2.00435E+01 6.34392E-01-7.76238E-05-2.92127E-01 7.33464E-14-2.22068E-16
 -1      1089 1.92743E+01 7.30217E-01 5.94155E-04 2.71482E-01 7.16201E-14-3.19024E-13
 -1      1090 1.90538E+01 8.27995E-01 1.52029E-04 3.59490E-01-8.31577E-14-1.74196E-13
 -1      1091 1.95989E+01 5.20942E-01 4.50494E-04 1.53823E-01 1.83792E-13-7.90037E-13
 -1      1092 1.97059E+01 4.28311E-01-1.81170E-05 1.16402E-01 3.03483E-13-2.04200E-13
 -1      1093 1.62374E+01 9.43019E-01 1.01393E-03-1.08353E+00-5.37957E-14-1.74222E-13
 -1      1094 1.98584E+01 7.14101E-01 1.47396E-05 8.19042E-02 7.10464E-14-7.18866E-14
 -1      1095 1.84734E+01 9.55809E-01 8.33690E-04 6.24977E-01-3.15303E-14-4.59389E-14
 -1      1096 1.96297E+01 7.33155E-01-3.02115E-05 9.26638E-02 7.23398E-14-3.95864E-14
 -1      1097 1.73622E+01 7.71557E-01 2.15424E-03-1.29516E+00-7.34624E-14-7.15112E-14
 -1      1098 1.87874E+01 9.11056E-01-5.95073E-05 4.74803E-01-1.88210E-13-1.45820E-13
 -1      1099 1.94599E+01 6.20184E-01 1.42088E-04 2.03090E-01 1.50677E-13-4.56845E-13
 -1      1100 1.93509E+01 7.93394E-01 2.80877E-04 9.54209E-02 6.72265E-15-7.66717E-14
 -1      1101 1.63608E+01 1.22207E+00-7.45204E-03 2.94283E-01 4.47349E-14-2.52388E-13
 -1      1102 1.79459E+01 8.60609E-01-2.45886E-04-9.50739E-01-3.35758E-14-9.88195E-14
 -1      1103 1.97720E+01 3.64938E-01 1.45469E-04 8.88393E-02 3.02062E-13-1.51089E-13
 -1      1104 1.68706E+01 1.04957E+00-9.58339E-04 8.86653E-01-1.14070E-13-3.16877E-13
 -1      1105 1.88415E+01 8.39380E-01 2.26503E-04-5.44884E-01-5.27490E-14-7.45479E-14
 -1      1106 1.76975E+01 8.83403E-01-4.14693E-04 1.11031E+00-7.75209E-14-1.39073E-13
 -1      1107 1.84306E+01 8.74643E-01-2.27436E-04-7.16333E-01 1.42367E-14-8.54271E-14
 -1      1108 1.94921E+01 6.49124E-01-7.09769E-05-6.04170E-01 2.71683E-14-1.11419E-13
 -1      1109 2.00351E+01 7.55991E-01 2.27012E-04 3.44631E-02-1.78344E-14-1.10354E-13
 -1      1110 2.01015E+01 7.88831E-01-1.76972E-04-8.05256E-02 1.63293E-14-1.38177E-13
 -1      1111 1.97264E+01 6.80287E-01-1.80213E-05-2.58589E-01 1.02986E-13-1.37111E-13
 -1      1112 1.73833E+01 7.13114E-01 2.82272E-03 1.45857E+00-9.31877E-14-2.39741E-13
 -1      1113 1.99212E+01 6.80642E-01 1.11833E-04-1.95235E-01 9.77766E-14-9.90391E-14
 -1      1114 1.93072E+01 7.12227E-01-1.71993E-03 7.03428E-02 2.24421E-13-5.25625E-13
 -1      1115 1.81519E+01 1.07849E+00-1.43050E-03 3.84839E-01-7.08941E-14-8.34483E-14
 -1      1116 1.95217E+01 5.72752E-01-1.15510E-03 7.11485E-02 2.64225E-13-2.66724E-13
 -1      1117 1.97776E+01 3.53878E-01-2.93336E-04 3.16771E-02 3.67076E-13 2.12166E-13
 -1      1118 1.92017E+01 7.74719E-01 1.39990E-03-4.23128E-01 8.72986E-16-7.86386E-14
 -1      1119 1.94803E+01 7.20385E-01 1.73599E-04-3.33817E-01 3.14392E-14-1.39325E-13
 -1      1120 1.92027E+01 8.05597E-01-2.82775E-03-2.01885E-01-2.05615E-14-6.32078E-14
 -1      1121 1.75987E+01 1.10181E+00-5.84313E-04 5.89553E-01-8.76680E-15-2.57784E-13
 -1      1122 2.78606E+01 9.05193E+00 2.31228E+00-6.66625E+00-4.01346E-14 1.22710E-12
 -1      1123 2.05200E+01 6.21926E+00 2.10873E-01-3.87676E+00-2.15106E-14 1.64563E-13
 -1      1124 1.94368E+01 5.85417E+00 7.70369E-02-2.85663E+00-1.40166E-14-2.78154E-13
 -1      1125 1.90442E+01 5.73174E+00 6.16142E-02-2.20049E+00-1.01412E-14-4.84911E-13
 -1      1126 1.88649E+01 5.67695E+00 5.82365E-02-1.66651E+00-6.29011E-15-5.75737E-13
 -1      1127 1.87719E+01 5.64812E+00 5.51589E-02-1.20315E+00-3.27256E-15-6.17937E-13
 -1      1128 1.87215E+01 5.63228E+00 5.27013E-02-7.81131E-01-5.72459E-16-6.31334E-13
 -1      1129 1.86957E+01 5.62400E+00 5.10029E-02-3.80451E-01-9.41087E-17-6.26900E-13
 -1      1130 1.86879E+01 5.62151E+00 5.04457E-02 8.43081E-03 2.29992E-15-6.12663E-13
 -1      1131 1.86964E+01 5.62426E+00 5.11128E-02 3.97728E-01 3.88860E-15-5.95192E-13
 -1      1132 1.87231E+01 5.63283E+00 5.29470E-02 7.99771E-01 4.79044E-15-5.65698E-13
 -1      1133 1.87751E+01 5.64927E+00 5.58305E-02 1.22443E+00 8.65714E-15-4.99796E-13
 -1      1134 1.88690E+01 5.67835E+00 5.88374E-02 1.69227E+00 1.11629E-14-4.05688E-13
 -1      1135 1.90489E+01 5.73316E+00 6.16316E-02 2.23335E+00 1.43045E-14-2.39789E-13
 -1      1136 1.94333E+01 5.85134E+00 7.11416E-02 2.89689E+00 1.76387E-14 5.64618E-14
 -1      1137 2.04267E+01 6.17450E+00 1.54884E-01 3.85159E+00 1.66811E-14 6.11844E-13
 -1      1138 2.51280E+01 7.96490E+00 1.42160E+00 5.81847E+00 2.93654E-14 1.69315E-12
 -1      1139 2.86805E+01 3.59467E+00 1.25741E+00-4.19529E+00-1.59150E-13 1.90126E-12
 -1      1140 2.01549E+01-1.77827E-01-6.15620E-01-1.08190E-01-5.80369E-14 1.52800E-12
 -1      1141 1.87909E+01-9.68417E-02-2.36065E-01 6.23813E-02-2.25549E-14 1.00494E-12
 -1      1142 1.84855E+01-4.91438E-02-6.04629E-02 4.01698E-02-9.38052E-15 6.93966E-13
 -1      1143 1.84664E+01-2.64038E-02-1.70665E-02 2.64402E-02-1.61993E-14 4.89254E-13
 -1      1144 1.85981E+01-1.56568E-02-7.88804E-03 1.88412E-02-3.98683E-15 3.46705E-13
 -1      1145 1.88160E+01-1.01673E-02-5.58506E-03 1.41808E-02-1.55501E-14 2.79768E-13
 -1      1146 1.90893E+01-7.53818E-03-4.99647E-03 1.12383E-02-5.69770E-15 1.42502E-13
 -1      1147 1.94056E+01-6.64579E-03-5.43854E-03 9.47029E-03 1.49251E-15-8.81760E-15
 -1      1148 1.97645E+01-6.88242E-03-6.78709E-03 8.67884E-03-1.74979E-15-6.93473E-14
 -1      1149 2.01738E+01-7.84175E-03-8.86872E-03 8.84366E-03-5.07396E-15-2.68677E-13
 -1      1150 2.06472E+01-9.15067E-03-1.13866E-02 1.00406E-02 2.97201E-14-2.20879E-13
 -1      1151 2.12011E+01-1.03394E-02-1.38255E-02 1.23835E-02 1.09157E-15-1.18690E-13
 -1      1152 2.18514E+01-1.07052E-02-1.52526E-02 1.59364E-02-2.79731E-14-3.51282E-13
 -1      1153 2.26067E+01-9.16120E-03-1.40163E-02 2.05357E-02 1.81116E-15-3.23679E-13
 -1      1154 2.34569E+01-4.12218E-03-7.42770E-03 2.54365E-02-1.38329E-14-3.06626E-13
 -1      1155 2.43558E+01 6.40804E-03 8.23782E-03 2.87136E-02-4.64157E-14-4.58671E-13
 -1      1156 2.51961E+01 2.41330E-02 3.66091E-02 2.64805E-02 2.89408E-14-5.31550E-13
 -1      1157 2.57854E+01 4.86533E-02 7.74536E-02 1.25950E-02 1.01182E-14-5.02360E-13
 -1      1158 2.58463E+01 7.36718E-02 1.19994E-01-1.95560E-02-1.00380E-14-2.38472E-13
 -1      1159 2.50867E+01 8.43007E-02 1.37049E-01-7.05965E-02 1.66265E-14-2.99816E-13
 -1      1160 2.33831E+01 5.88947E-02 9.27920E-02-1.25660E-01 1.52508E-14-1.60927E-13
 -1      1161 2.10330E+01-1.18220E-02-2.62335E-02-1.50073E-01 2.09201E-14 9.99617E-14
 -1      1162 1.88592E+01-1.01600E-01-1.72861E-01-1.09789E-01-2.91208E-14-3.41213E-13
 -1      1163 1.78747E+01-1.48803E-01-2.48430E-01-9.31875E-03 1.54841E-14-6.49290E-13
 -1      1164 1.86024E+01-1.14071E-01-1.93214E-01 9.67765E-02 2.63661E-14-4.60826E-13
 -1      1165 2.06562E+01-2.65979E-02-5.13373E-02 1.48496E-01 3.59955E-16-2.57419E-13
 -1      1166 2.30531E+01 5.03504E-02 7.79278E-02 1.32670E-01-3.02458E-14-6.58501E-13
 -1      1167 2.49047E+01 8.27854E-02 1.34734E-01 7.98665E-02-1.81183E-14-7.38798E-13
 -1      1168 2.58284E+01 7.63109E-02 1.24778E-01 2.66209E-02 3.57648E-14-5.21250E-13
 -1      1169 2.58989E+01 5.20781E-02 8.36711E-02-8.65817E-03 8.04218E-15-3.54348E-13
 -1      1170 2.53992E+01 2.66972E-02 4.11715E-02-2.48794E-02-2.97375E-15-5.31738E-13
 -1      1171 2.46179E+01 7.56936E-03 1.03569E-02-2.82890E-02 2.01581E-14-4.76705E-13
 -1      1172 2.37640E+01-4.23546E-03-7.44794E-03-2.52791E-02-1.89809E-14-6.43697E-13
 -1      1173 2.29591E+01-1.02168E-02-1.55571E-02-2.00631E-02 4.56986E-14-8.32272E-13
 -1      1174 2.22599E+01-1.23615E-02-1.77673E-02-1.48062E-02-3.55965E-15-8.42824E-13
 -1      1175 2.16829E+01-1.22995E-02-1.69148E-02-1.03674E-02 1.51893E-14-9.28611E-13
 -1      1176 2.12235E+01-1.11352E-02-1.47509E-02-6.93626E-03 2.30518E-14-5.91091E-13
 -1      1177 2.08675E+01-9.53702E-03-1.22275E-02-4.42074E-03 1.03195E-14-4.69224E-13
 -1      1178 2.05979E+01-7.87433E-03-9.80683E-03-2.64331E-03 7.67398E-16-1.64127E-13
 -1      1179 2.03980E+01-6.33203E-03-7.68156E-03-1.42525E-03-3.78276E-14-4.58804E-13
 -1      1180 2.02530E+01-4.98895E-03-5.90749E-03-6.15292E-04-7.01593E-14-4.98687E-13
 -1      1181 2.01504E+01-3.86641E-03-4.47691E-03-9.43013E-05 2.15416E-14-5.68201E-13
 -1      1182 2.00802E+01-2.95666E-03-3.35704E-03 2.29121E-04-3.59237E-14-4.67887E-13
 -1      1183 2.00342E+01-2.23809E-03-2.50890E-03 4.26013E-04 6.97279E-14-5.82488E-13
 -1      1184 2.00064E+01-1.68150E-03-1.89147E-03 5.55640E-04 1.58392E-14 4.25121E-13
 -1      1185 1.99922E+01-1.24864E-03-1.43942E-03 6.73470E-04 3.68698E-15 1.08218E-13
 -1      1186 1.99885E+01-8.61420E-04-9.96415E-04 8.23878E-04 3.56838E-16 8.89200E-13
 -1      1187 1.99925E+01-5.44673E-04-1.11491E-04 1.07498E-03-1.92991E-14 5.37963E-13
 -1      1188 1.99985E+01 5.38349E-04 1.36935E-03 4.47917E-04 5.76689E-14 1.45789E-13
 -1      1189 2.76673E+01 5.23144E-01 3.68843E-01 1.95861E+00-2.54935E-14 2.55640E-12
 -1      1190 2.00158E+01-6.65580E-02-5.72852E-01 1.28841E-01 1.20147E-14 2.15725E-12
 -1      1191 1.88675E+01-4.12451E-02-1.93114E-01 1.97000E-02 1.72327E-14 1.72932E-12
 -1      1192 1.85169E+01-2.24997E-02-5.14316E-02 2.23731E-03 7.76896E-15 1.47218E-12
 -1      1193 1.84821E+01-1.40119E-02-1.51654E-02-2.91421E-03 8.73672E-15 1.32216E-12
 -1      1194 1.86077E+01-9.63089E-03-7.34045E-03-4.03680E-03 1.01311E-14 1.11462E-12
 -1      1195 1.88218E+01-7.28934E-03-5.66516E-03-3.93769E-03-4.43244E-15 1.01946E-12
 -1      1196 1.90907E+01-6.16136E-03-5.31109E-03-3.43846E-03-1.71346E-14 1.02183E-12
 -1      1197 1.93996E+01-5.80856E-03-5.59863E-03-2.84740E-03-1.56949E-15 7.89695E-13
 -1      1198 1.97448E+01-5.92013E-03-6.40272E-03-2.37385E-03-4.82616E-15 6.92141E-13
 -1      1199 2.01288E+01-6.19691E-03-7.49753E-03-2.22656E-03 2.81231E-15 5.78921E-13
 -1      1200 2.05575E+01-6.27741E-03-8.47799E-03-2.64373E-03 8.28217E-15 5.90345E-13
 -1      1201 2.10356E+01-5.67826E-03-8.70948E-03-3.89770E-03 2.14784E-14 4.20771E-13
 -1      1202 2.15629E+01-3.75702E-03-7.24831E-03-6.26457E-03-1.75454E-14 3.35114E-13
 -1      1203 2.21272E+01 2.60773E-04-2.79745E-03-9.92477E-03 7.15693E-15 3.41963E-13
 -1      1204 2.26965E+01 7.10053E-03 6.16046E-03-1.47434E-02-3.66281E-15 2.22135E-13
 -1      1205 2.32092E+01 1.69756E-02 2.08078E-02-1.98897E-02-3.07146E-14 3.19645E-13
 -1      1206 2.35670E+01 2.87669E-02 4.07327E-02-2.33544E-02 3.73607E-14 1.80631E-13
 -1      1207 2.36380E+01 3.90372E-02 6.19697E-02-2.17030E-02 2.06276E-14-7.34838E-14
 -1      1208 2.32824E+01 4.17853E-02 7.53739E-02-1.08173E-02-1.35859E-14 4.08909E-14
 -1      1209 2.24132E+01 3.05779E-02 6.80623E-02 1.14981E-02-1.94376E-14 5.40165E-13
 -1      1210 2.10855E+01 3.81226E-03 3.07316E-02 4.14185E-02-2.32073E-14 7.95336E-13
 -1      1211 1.95679E+01-3.03185E-02-3.13408E-02 6.70265E-02 2.90228E-14 6.55476E-13
 -1      1212 1.83117E+01-5.54585E-02-9.33685E-02 7.29449E-02 2.39895E-14 3.24345E-13
 -1      1213 1.77739E+01-5.80287E-02-1.22769E-01 5.12698E-02 9.94170E-15 2.84073E-13
 -1      1214 1.81699E+01-3.87218E-02-1.03638E-01 9.94811E-03 1.78009E-14 5.35412E-13
 -1      1215 1.93412E+01-1.06582E-02-4.94148E-02-3.14982E-02-5.70897E-15 5.50171E-13
 -1      1216 2.08541E+01 1.21192E-02 9.21328E-03-5.61511E-02 7.92037E-15-2.95597E-15
 -1      1217 2.22429E+01 2.34569E-02 4.77682E-02-5.92802E-02-3.23140E-14 5.35266E-14
 -1      1218 2.32071E+01 2.46172E-02 5.97838E-02-4.71488E-02-1.17085E-14 1.35628E-13
 -1      1219 2.36622E+01 1.99809E-02 5.24378E-02-2.93161E-02 4.48001E-14-2.25053E-13
 -1      1220 2.36794E+01 1.34508E-02 3.66580E-02-1.29180E-02 2.60449E-14-3.17534E-13
 -1      1221 2.33956E+01 7.37722E-03 2.05414E-02-1.07694E-03-6.39744E-14-6.64226E-14
 -1      1222 2.29477E+01 2.71708E-03 7.96660E-03 5.94050E-03 1.71523E-14-3.18318E-13
 -1      1223 2.24419E+01-4.06912E-04-2.74397E-04 9.17980E-03-5.09304E-17-5.21036E-13
 -1      1224 2.19477E+01-2.24352E-03-4.87150E-03 9.94305E-03-1.81351E-14-3.41229E-13
 -1      1225 2.15036E+01-3.13868E-03-6.90893E-03 9.31145E-03 1.74074E-15-5.58779E-13
 -1      1226 2.11263E+01-3.40887E-03-7.35782E-03 8.03160E-03-4.06449E-14-2.32947E-13
 -1      1227 2.08188E+01-3.30005E-03-6.92813E-03 6.55894E-03 1.72516E-14-2.13937E-13
 -1      1228 2.05764E+01-2.98660E-03-6.08318E-03 5.14179E-03-2.19934E-14-6.08966E-14
 -1      1229 2.03909E+01-2.58442E-03-5.10224E-03 3.89700E-03-3.76756E-14 2.48652E-13
 -1      1230 2.02528E+01-2.16641E-03-4.14222E-03 2.86467E-03 4.13176E-14 2.38170E-13
 -1      1231 2.01531E+01-1.77597E-03-3.28455E-03 2.04339E-03 3.63004E-15 3.95187E-14
 -1      1232 2.00836E+01-1.43664E-03-2.56655E-03 1.41048E-03-6.54286E-15-2.04256E-13
 -1      1233 2.00373E+01-1.15492E-03-1.99847E-03 9.32522E-04 3.03004E-14-4.08429E-13
 -1      1234 2.00089E+01-9.30606E-04-1.57772E-03 5.71498E-04-3.73304E-15-4.67306E-13
 -1      1235 1.99939E+01-7.47072E-04-1.27514E-03 2.76891E-04 6.00818E-14-5.78403E-13
 -1      1236 1.99894E+01-5.15418E-04-9.25211E-04-5.00578E-05-4.20178E-14-6.20520E-13
 -1      1237 1.99928E+01 2.92162E-05-4.29605E-05-5.35975E-04 1.42748E-13-1.13460E-12
 -1      1238 1.99986E+01 4.28889E-04 1.35190E-03-4.25754E-04-5.24615E-14-1.08166E-12
 -1      1239 2.00002E+01-1.31170E-03 1.22013E-03-4.80143E-04-1.06357E-12-6.57089E-14
 -1      1240 1.99994E+01-6.89162E-03-3.07236E-04-8.71634E-04-3.64482E-13 2.93707E-14
 -1      1241 1.99992E+01-8.74368E-03-9.99280E-04-3.89617E-04 8.56690E-13-1.31073E-13
 -1      1242 1.99993E+01-3.21940E-03-8.90475E-04 4.31529E-05 8.78209E-13 3.94060E-15
 -1      1243 1.99996E+01 8.20624E-03-4.24498E-04 3.08981E-04 6.98810E-13-1.19514E-15
 -1      1244 2.00000E+01 2.21864E-02 1.11357E-04 4.02686E-04 5.53316E-13-8.74494E-14
 -1      1245 2.00003E+01 3.52918E-02 5.78169E-04 3.54983E-04-3.03857E-13-1.45705E-14
 -1      1246 2.00005E+01 4.45349E-02 8.93606E-04 1.98529E-04-6.04146E-13-2.48509E-14
 -1      1247 2.00006E+01 4.76868E-02 1.00091E-03-1.25023E-05 5.60688E-14-1.40232E-13
 -1      1248 2.00005E+01 4.40293E-02 8.83344E-04-2.22216E-04 4.54995E-13 6.47747E-14
 -1      1249 2.00003E+01 3.43478E-02 5.56410E-04-3.73044E-04-3.70148E-13-6.41766E-14
 -1      1250 1.99999E+01 2.09395E-02 7.99206E-05-4.15306E-04-1.46306E-12-8.52532E-14
 -1      1251 1.99996E+01 6.87581E-03-4.63779E-04-3.05458E-04-1.24541E-12-5.62866E-15
 -1      1252 1.99993E+01-4.35986E-03-9.24643E-04-2.41822E-05-1.28539E-12 3.63764E-14
 -1      1253 1.99993E+01-9.54781E-03-9.95476E-04 4.84978E-04-1.30606E-12 4.75802E-14
 -1      1254 1.99994E+01-6.71134E-03-9.92096E-05 1.36720E-03-4.57697E-13-9.83352E-14
 -1      1255 2.00002E+01-1.57276E-03 1.17563E-03 6.20444E-04 2.51033E-14 6.31497E-14
 -1      1256-1.03086E+00-2.38794E+01-3.68957E+00-2.03249E+00 6.07292E-14 2.32300E-13
 -1      1257-1.67756E+00-1.56099E+01-3.05729E+00-4.05405E+00 2.22211E-12 7.97251E-13
 -1      1258 1.19704E-01-2.98931E+00-1.88931E+00-3.82395E-01 2.41807E-12 1.40377E-12
 -1      1259 8.77037E+00 7.59241E+00-3.31493E-01 8.11630E+00 2.12830E-12 2.04836E-12
 -1      1260 2.53502E+01 1.11600E+01 1.42864E+00 1.60458E+01 1.68243E-12 2.30260E-12
 -1      1261 4.57257E+01 8.07739E+00 2.88163E+00 1.73884E+01 8.38996E-13 2.07789E-12
 -1      1262 6.20751E+01 3.18708E+00 3.92765E+00 1.02626E+01 2.68341E-13 1.10334E-12
 -1      1263 6.60239E+01 1.81023E+00 4.11836E+00-2.35630E+00 1.15200E-13-4.62241E-13
 -1      1264 5.71753E+01 4.75665E+00 3.61115E+00-1.38508E+01 4.14863E-13-1.47993E-12
 -1      1265 3.91514E+01 9.59510E+00 2.44902E+00-1.80251E+01 1.19438E-12-2.26263E-12
 -1      1266 2.00326E+01 1.09554E+01 9.37437E-01-1.42844E+01 2.12630E-12-2.61791E-12
 -1      1267 6.05203E+00 5.82924E+00-6.94131E-01-6.04108E+00 2.41451E-12-2.05880E-12
 -1      1268-5.95799E-01-5.20198E+00-2.13087E+00 1.40391E+00 2.17026E-12-1.21869E-12
 -1      1269-1.68300E+00-1.74330E+01-3.23385E+00 4.07517E+00 1.40721E-12-4.56468E-13
 -1      1270-9.84184E-01-2.44380E+01-3.72472E+00 1.34613E+00 3.83582E-14-1.13701E-13
 -1      1271-1.19681E+00-2.28506E+01-3.62879E+00-3.04221E+00-1.58179E-12-4.13142E-13
 -1      1272-1.80832E+00-1.30210E+01-2.89184E+00-3.94904E+00-3.01670E-12-1.28786E-12
 -1      1273 1.17919E+00-7.46309E-01-1.67578E+00 1.00271E+00-3.15437E-12-2.09899E-12
 -1      1274 1.07043E+01 8.26737E+00-1.61701E-01 9.33234E+00-2.92011E-12-2.78733E-12
 -1      1275 2.69343E+01 1.09673E+01 1.48470E+00 1.63827E+01-1.95699E-12-2.81197E-12
 -1      1276 4.61135E+01 8.14702E+00 2.93149E+00 1.77885E+01-1.09851E-12-2.50000E-12
 -1      1277 6.18495E+01 3.58635E+00 3.94308E+00 1.14404E+01-4.71692E-13-1.64724E-12
 -1      1278 6.78996E+01 1.56394E+00 4.33782E+00-2.42418E-01-6.99649E-14-6.94722E-13
 -1      1279 6.12226E+01 3.87322E+00 3.92102E+00-1.18070E+01-2.14842E-13 6.54810E-13
 -1      1280 4.44147E+01 8.47464E+00 2.80511E+00-1.79081E+01-6.36491E-13 1.33182E-12
 -1      1281 2.44283E+01 1.09040E+01 1.22385E+00-1.57194E+01-1.40132E-12 1.87383E-12
 -1      1282 8.48831E+00 7.02346E+00-4.55049E-01-7.70697E+00-2.19069E-12 2.03459E-12
 -1      1283 1.24197E-02-3.15475E+00-1.95760E+00 5.84064E-01-2.44160E-12 1.51656E-12
 -1      1284-1.80931E+00-1.55992E+01-3.11740E+00 4.22038E+00-2.46125E-12 9.22484E-13
 -1      1285-1.16718E+00-2.37818E+01-3.67273E+00 2.22392E+00-1.97231E-12 3.38389E-13
 -1      1286 2.21973E+01 1.83518E+00-7.22971E-01-2.77408E+00-5.92304E-14 9.91540E-13
 -1      1287 2.03447E+01 4.68300E+00-4.76545E-02-3.27634E+00-1.60635E-13-4.54775E-14
 -1      1288 2.08352E+01 4.79778E+00-1.12193E-01-4.13042E+00-2.07695E-13 1.86268E-13
 -1      1289 1.95407E+01 4.99302E+00-1.91142E-02-2.61903E+00-1.58137E-13-3.73444E-13
 -1      1290 1.98289E+01 5.08637E+00 1.07558E-03-3.01155E+00-1.79100E-13-2.33848E-13
 -1      1291 2.05196E+01 3.94663E+00-2.54625E-02-3.03869E+00-2.78336E-13-3.13916E-14
 -1      1292 1.92059E+01 5.08932E+00-3.25456E-03-2.03305E+00-1.20251E-13-5.22981E-13
 -1      1293 1.93497E+01 5.14317E+00 1.13689E-02-2.32692E+00-1.36904E-13-4.54654E-13
 -1      1294 1.97688E+01 4.36883E+00-2.33358E-02-2.45085E+00-2.43434E-13-2.96083E-13
 -1      1295 1.90330E+01 5.14121E+00 3.27116E-03-1.52825E+00-8.20784E-14-5.97418E-13
 -1      1296 1.91105E+01 5.17071E+00 1.34021E-02-1.77692E+00-9.52294E-14-5.65738E-13
 -1      1297 1.94146E+01 4.56548E+00-1.90348E-02-1.89114E+00-1.75467E-13-4.31554E-13
 -1      1298 1.89378E+01 5.17475E+00 6.13975E-03-1.08616E+00-4.55495E-14-6.26794E-13
 -1      1299 1.89815E+01 5.19151E+00 1.30799E-02-1.30440E+00-5.66890E-14-6.11552E-13
 -1      1300 1.92273E+01 4.67987E+00-1.56024E-02-1.40760E+00-1.16011E-13-4.91329E-13
 -1      1301 1.88832E+01 5.19738E+00 7.64536E-03-6.72112E-01-1.47775E-14-6.35643E-13
 -1      1302 1.89079E+01 5.20678E+00 1.20260E-02-8.77389E-01-2.22582E-14-6.34347E-13
 -1      1303 1.91208E+01 4.75189E+00-1.35342E-02-9.74190E-01-5.96719E-14-5.20688E-13
 -1      1304 1.88567E+01 5.21109E+00 8.74263E-03-2.79342E-01 1.80412E-14-6.25852E-13
 -1      1305 1.88677E+01 5.21528E+00 1.08280E-02-4.75377E-01 4.36456E-15-6.28487E-13
 -1      1306 1.90607E+01 4.79562E+00-1.24420E-02-5.69225E-01-1.12946E-14-5.22606E-13
 -1      1307 1.88523E+01 5.21672E+00 9.78504E-03 1.04905E-01 4.18240E-14-6.14467E-13
 -1      1308 1.88520E+01 5.21660E+00 9.70963E-03-8.82879E-02 3.55564E-14-6.27031E-13
 -1      1309 1.90337E+01 4.81606E+00-1.19838E-02-1.82378E-01 4.76684E-14-5.21500E-13
 -1      1310 1.88691E+01 5.21479E+00 1.09231E-02 4.92603E-01 7.83705E-14-5.94138E-13
 -1      1311 1.88574E+01 5.21035E+00 8.67629E-03 2.96132E-01 6.87327E-14-6.04744E-13
 -1      1312 1.90344E+01 4.81534E+00-1.20053E-02 1.98856E-01 8.71926E-14-5.07292E-13
 -1      1313 1.89106E+01 5.20540E+00 1.21130E-02 8.96133E-01 1.01633E-13-5.59303E-13
 -1      1314 1.88852E+01 5.19587E+00 7.58624E-03 6.89873E-01 9.41512E-14-5.84269E-13
 -1      1315 1.90629E+01 4.79334E+00-1.25077E-02 5.86430E-01 1.43808E-13-4.86108E-13
 -1      1316 1.89850E+01 5.18943E+00 1.31985E-02 1.32195E+00 1.31973E-13-4.90240E-13
 -1      1317 1.89405E+01 5.17231E+00 6.01432E-03 1.10226E+00 1.19153E-13-5.29703E-13
 -1      1318 1.91245E+01 4.74811E+00-1.35458E-02 9.89316E-01 1.81903E-13-4.42760E-13
 -1      1319 1.91173E+01 5.16649E+00 1.34106E-02 1.80299E+00 1.75623E-13-3.83249E-13
 -1      1320 1.90384E+01 5.13633E+00 2.93395E-03 1.55151E+00 1.56154E-13-4.46133E-13
 -1      1321 1.92334E+01 4.67308E+00-1.57154E-02 1.42538E+00 2.37929E-13-3.66818E-13
 -1      1322 1.93594E+01 5.13714E+00 1.10114E-02 2.36041E+00 2.04836E-13-2.05724E-13
 -1      1323 1.92134E+01 5.08134E+00-4.24494E-03 2.06264E+00 1.83853E-13-3.16167E-13
 -1      1324 1.94259E+01 4.55260E+00-1.95482E-02 1.91787E+00 2.91028E-13-2.56045E-13
 -1      1325 1.98543E+01 5.09531E+00 7.06100E-03 3.04990E+00 2.15800E-13 1.19696E-13
 -1      1326 1.95521E+01 4.98343E+00-1.99440E-02 2.66084E+00 1.97911E-13-7.59115E-14
 -1      1327 1.97876E+01 4.34800E+00-2.40759E-02 2.48834E+00 3.20705E-13-5.48173E-14
 -1      1328 2.10695E+01 4.89411E+00 8.90021E-03 4.02415E+00 1.72917E-13 7.10279E-13
 -1      1329 2.03193E+01 4.72641E+00-4.69233E-02 3.38527E+00 1.74596E-13 3.55271E-13
 -1      1330 2.05576E+01 3.90997E+00-2.18458E-02 3.14223E+00 3.12667E-13 3.08129E-13
 -1      1331 2.71024E+01 3.19122E+00 9.21261E-01 4.55680E+00 6.99718E-14 1.76220E-12
 -1      1332 2.19685E+01 3.51314E+00-1.80620E-01 3.85971E+00 7.63001E-14 1.04333E-12
 -1      1333 2.20735E+01 2.55442E+00-3.22612E-02 3.42596E+00 2.74463E-13 8.41577E-13
 -1      1334 2.13596E+01 3.58341E-01-7.61351E-01 1.17182E+00 1.39756E-13 1.72118E-12
 -1      1335 2.19384E+01 1.30652E-01-3.99871E-01-1.27122E+00-1.70794E-13 1.05019E-12
 -1      1336 2.06314E+01 3.05637E-01-1.63904E-01-7.93842E-01-1.64362E-13 8.41896E-13
 -1      1337 2.00451E+01 1.53581E-01-7.30596E-02-3.90303E-01-1.26347E-13 7.67983E-13
 -1      1338 1.95897E+01 9.17485E-02-1.44906E-02-3.18144E-01-1.12223E-13 5.90198E-13
 -1      1339 2.09454E+01 3.68246E-01-1.03998E-01-1.25015E+00-2.69007E-13 4.33011E-13
 -1      1340 1.92468E+01 6.54776E-02 3.30391E-03-1.21777E-01-8.18928E-14 5.23574E-13
 -1      1341 1.91091E+01 4.27023E-02 1.35391E-02-1.03381E-01-8.05224E-14 4.09891E-13
 -1      1342 1.99204E+01 1.34691E-01-3.54170E-02-4.78367E-01-1.89192E-13 3.16519E-13
 -1      1343 1.89674E+01 3.34002E-02 1.34447E-02-1.00942E-02-5.85855E-14 3.50681E-13
 -1      1344 1.89699E+01 2.17600E-02 1.13831E-02 3.43497E-04-6.84288E-14 2.59725E-13
 -1      1345 1.94756E+01 5.79187E-02-9.03285E-03-1.37735E-01-1.40003E-13 2.11406E-13
 -1      1346 1.89390E+01 1.89001E-02 8.98030E-03 4.99726E-02-3.33999E-14 2.33832E-13
 -1      1347 1.90121E+01 1.25178E-02 6.82165E-03 5.61934E-02-3.41229E-14 1.98832E-13
 -1      1348 1.93095E+01 2.84889E-02-4.32473E-03 3.28961E-02-1.00460E-13 1.23337E-13
 -1      1349 1.90465E+01 1.19415E-02 4.89583E-03 8.58935E-02-3.18621E-14 1.82481E-13
 -1      1350 1.91603E+01 8.20704E-03 4.11953E-03 9.00079E-02-4.03679E-14 1.40484E-13
 -1      1351 1.93110E+01 1.61598E-02-3.35270E-03 1.29085E-01-7.08253E-14 8.81331E-14
 -1      1352 1.92367E+01 8.72059E-03 2.67519E-03 1.10383E-01-3.79469E-14 1.15147E-13
 -1      1353 1.93779E+01 6.54167E-03 2.77987E-03 1.13643E-01-3.35227E-14 5.32204E-14
 -1      1354 1.94168E+01 1.09732E-02-2.83437E-03 1.90126E-01-6.15779E-14 5.77641E-14
 -1      1355 1.94849E+01 7.72352E-03 1.53742E-03 1.30549E-01-3.98453E-14 4.90441E-14
 -1      1356 1.96493E+01 6.52643E-03 2.08385E-03 1.33787E-01-2.46671E-14 5.62571E-15
 -1      1357 1.95938E+01 9.59785E-03-2.52221E-03 2.35622E-01-8.72182E-14 3.32361E-14
 -1      1358 1.97821E+01 8.20783E-03 8.67382E-04 1.50910E-01-1.82575E-14-1.21049E-14
 -1      1359 1.99707E+01 7.61854E-03 1.65271E-03 1.54729E-01-5.29639E-14-6.16885E-14
 -1      1360 1.98266E+01 1.06253E-02-2.49599E-03 2.77019E-01-5.41344E-14 2.80808E-14
 -1      1361 2.01292E+01 9.71694E-03 3.57461E-04 1.74524E-01-7.91622E-14-5.49959E-14
 -1      1362 2.03467E+01 9.41413E-03 1.30388E-03 1.79359E-01-2.99407E-14-1.35088E-13
 -1      1363 2.01102E+01 1.32937E-02-2.75176E-03 3.21722E-01-8.38591E-14 2.86591E-14
 -1      1364 2.05332E+01 1.18516E-02-1.48532E-04 2.03319E-01 3.22368E-14-1.75838E-13
 -1      1365 2.07863E+01 1.14724E-02 9.24480E-04 2.09425E-01 2.19868E-14-1.31652E-13
 -1      1366 2.04465E+01 1.69891E-02-3.22102E-03 3.74514E-01-2.10051E-14-1.34398E-15
 -1      1367 2.10042E+01 1.41005E-02-7.44309E-04 2.37922E-01-1.73000E-14-1.38581E-13
 -1      1368 2.13003E+01 1.31532E-02 4.25363E-04 2.45293E-01-6.37960E-14-1.93561E-13
 -1      1369 2.08411E+01 2.09401E-02-3.79501E-03 4.37706E-01-4.99340E-15-1.35784E-13
 -1      1370 2.15527E+01 1.56482E-02-1.47343E-03 2.77031E-01-5.47054E-14-1.93592E-13
 -1      1371 2.18968E+01 1.34170E-02-2.46640E-04 2.85209E-01-3.89094E-14-2.52090E-13
 -1      1372 2.13004E+01 2.38961E-02-4.30700E-03 5.10316E-01-7.52276E-14-1.79767E-13
 -1      1373 2.21839E+01 1.51255E-02-2.27962E-03 3.16177E-01 1.17852E-14-2.43770E-13
 -1      1374 2.25745E+01 1.05872E-02-1.04111E-03 3.23917E-01-1.00332E-14-2.31336E-13
 -1      1375 2.18282E+01 2.37097E-02-4.48071E-03 5.86218E-01-3.28401E-14-1.04147E-13
 -1      1376 2.28903E+01 1.03317E-02-2.89301E-03 3.45829E-01-1.49375E-14-2.19961E-13
 -1      1377 2.33126E+01 2.17451E-03-1.67426E-03 3.50587E-01-2.39076E-14-2.41290E-13
 -1      1378 2.24196E+01 1.68557E-02-3.85221E-03 6.51079E-01 3.28427E-15-1.21011E-13
 -1      1379 2.36402E+01-1.87892E-03-2.66749E-03 3.49085E-01-6.68354E-14-2.32326E-13
 -1      1380 2.40559E+01-1.49106E-02-1.48224E-03 3.46428E-01-5.86037E-14-2.92289E-13
 -1      1381 2.30540E+01-1.82524E-03-1.69035E-03 6.78358E-01-5.24546E-14-1.07324E-13
 -1      1382 2.43621E+01-2.50372E-02-5.03430E-04 3.00311E-01-1.43956E-14-3.01027E-13
 -1      1383 2.46994E+01-4.30337E-02 5.89780E-04 2.83660E-01-8.13759E-15-3.16965E-13
 -1      1384 2.36850E+01-3.82996E-02 2.98779E-03 6.26062E-01-6.79990E-14-3.17385E-14
 -1      1385 2.49306E+01-6.06416E-02 4.83388E-03 1.68273E-01 4.90389E-14-3.28309E-13
 -1      1386 2.50796E+01-8.02185E-02 5.32049E-03 1.30264E-01 7.96941E-14-2.33362E-13
 -1      1387 2.42309E+01-9.56997E-02 1.10713E-02 4.39160E-01 3.59851E-14-9.70283E-14
 -1      1388 2.51637E+01-1.02896E-01 1.31529E-02-6.95475E-02 6.34093E-14-2.32305E-13
 -1      1389 2.49946E+01-1.14236E-01 1.18570E-02-1.32164E-01-3.94979E-14-1.93411E-13
 -1      1390 2.45704E+01-1.65485E-01 2.22355E-02 6.76909E-02 8.42885E-14-1.43482E-13
 -1      1391 2.48583E+01-1.31371E-01 2.11598E-02-3.96054E-01-1.22350E-14-2.07528E-13
 -1      1392 2.42795E+01-1.18349E-01 1.56243E-02-4.72573E-01 2.77209E-15-1.86039E-13
 -1      1393 2.45579E+01-2.16971E-01 3.26695E-02-4.87973E-01-4.59840E-14-9.67945E-14
 -1      1394 2.38900E+01-1.12382E-01 2.06445E-02-7.16398E-01-3.24393E-15-1.41609E-13
 -1      1395 2.29472E+01-6.15980E-02 9.91961E-03-7.74400E-01 1.39385E-15-8.91648E-14
 -1      1396 2.40777E+01-1.95305E-01 3.39372E-02-1.10945E+00 2.96291E-15-7.70738E-14
 -1      1397 2.23732E+01-1.86618E-02 5.82635E-03-8.56005E-01-8.14832E-15-1.22000E-13
 -1      1398 2.13256E+01 6.06061E-02-9.27069E-03-8.48008E-01-3.19952E-14-1.30534E-13
 -1      1399 2.31486E+01-5.69190E-02 1.50493E-02-1.52496E+00-4.23099E-14-1.41560E-13
 -1      1400 2.07761E+01 1.22159E-01-2.10547E-02-6.51439E-01-7.92422E-14-2.05905E-13
 -1      1401 2.00463E+01 1.88196E-01-3.32416E-02-5.56291E-01-9.41087E-14-3.07025E-13
 -1      1402 2.20341E+01 1.71390E-01-2.33479E-02-1.40496E+00-1.10547E-13-1.70759E-13
 -1      1403 1.97927E+01 2.22490E-01-4.07887E-02-1.20430E-01-2.57329E-14-2.95975E-13
 -1      1404 1.97336E+01 2.28382E-01-4.19761E-02 2.19155E-02 2.00742E-14-2.93786E-13
 -1      1405 2.12230E+01 3.59013E-01-6.13499E-02-6.34708E-01-1.11047E-13-1.30557E-13
 -1      1406 1.99227E+01 2.02943E-01-3.66667E-02 4.79365E-01 2.20258E-14-3.69749E-13
 -1      1407 2.05655E+01 1.44007E-01-2.61115E-02 5.86762E-01 3.00072E-14-3.37175E-13
 -1      1408 2.11575E+01 3.75651E-01-6.53722E-02 4.70492E-01 9.20444E-15-1.48328E-13
 -1      1409 2.10888E+01 8.30745E-02-1.39920E-02 8.30211E-01 6.14786E-15-3.78989E-13
 -1      1410 2.21191E+01 2.41761E-03 1.35010E-03 8.51931E-01-5.07476E-14-3.78170E-13
 -1      1411 2.18776E+01 2.07693E-01-3.16467E-02 1.32833E+00-1.36367E-14-3.43885E-13
 -1      1412 2.27102E+01-4.52524E-02 7.55269E-03 8.10375E-01-1.13619E-13-3.35398E-13
 -1      1413 2.36980E+01-1.02029E-01 1.96753E-02 7.60140E-01-1.08845E-13-5.48117E-13
 -1      1414 2.29869E+01-2.33744E-02 9.86126E-03 1.55590E+00-1.34755E-13-2.81636E-13
 -1      1415 2.41302E+01-1.13649E-01 1.58159E-02 5.32838E-01 3.39728E-14-4.84612E-13
 -1      1416 2.47813E+01-1.32066E-01 2.21053E-02 4.56631E-01 8.98344E-14-4.16299E-13
 -1      1417 2.39796E+01-1.80848E-01 3.26286E-02 1.20771E+00-2.46921E-14-2.61327E-13
 -1      1418 2.49641E+01-1.17109E-01 1.29473E-02 1.89672E-01 6.43340E-14-3.39596E-13
 -1      1419 2.52028E+01-1.08331E-01 1.47622E-02 1.23982E-01 3.20525E-14-2.29297E-13
 -1      1420 2.45491E+01-2.19056E-01 3.37798E-02 5.99753E-01 1.30665E-13-3.94788E-14
 -1      1421 2.51578E+01-8.54144E-02 6.35064E-03-8.68296E-02-8.33379E-14-2.32223E-13
 -1      1422 2.50619E+01-6.61974E-02 6.05935E-03-1.28235E-01-9.77603E-14-3.34096E-13
 -1      1423 2.46450E+01-1.74752E-01 2.38933E-02 2.55981E-02-1.73368E-14-1.84005E-13
 -1      1424 2.48603E+01-4.72999E-02 1.15609E-03-2.54062E-01-4.51449E-14-4.10278E-13
 -1      1425 2.45596E+01-2.86314E-02 1.92190E-04-2.72999E-01 2.46634E-15-4.23390E-13
 -1      1426 2.43710E+01-1.04602E-01 1.23672E-02-3.72016E-01-1.43271E-13-2.70705E-13
 -1      1427 2.42758E+01-1.71596E-02-1.31524E-03-3.25458E-01 3.18101E-14-4.57424E-13
 -1      1428 2.38863E+01-3.23296E-03-2.39507E-03-3.29080E-01 1.39660E-14-4.11803E-13
 -1      1429 2.38740E+01-4.37939E-02 3.65282E-03-5.78851E-01-1.57574E-14-2.74681E-13
 -1      1430 2.35778E+01 1.90160E-03-1.75920E-03-3.32405E-01-7.10941E-14-3.99720E-13
 -1      1431 2.31786E+01 1.07929E-02-2.85023E-03-3.27525E-01-6.03175E-14-5.07304E-13
 -1      1432 2.32821E+01-3.54621E-03-1.59789E-03-6.40607E-01-3.44298E-14-3.63896E-13
 -1      1433 2.28824E+01 1.18252E-02-1.24952E-03-3.03807E-01 2.44865E-14-4.55998E-13
 -1      1434 2.25173E+01 1.68137E-02-2.33732E-03-2.95204E-01 6.96481E-14-4.70301E-13
 -1      1435 2.26847E+01 1.81481E-02-4.16798E-03-6.13070E-01-3.18206E-14-2.81508E-13
 -1      1436 2.22532E+01 1.56794E-02-5.24528E-04-2.59942E-01-1.91750E-14-5.23206E-13
 -1      1437 2.19412E+01 1.80700E-02-1.57569E-03-2.50437E-01-2.44364E-14-6.45876E-13
 -1      1438 2.21344E+01 2.70676E-02-5.04995E-03-5.40742E-01 5.10529E-15-2.78964E-13
 -1      1439 2.17170E+01 1.60461E-02 7.36363E-05-2.12900E-01 2.43811E-14-6.25625E-13
 -1      1440 2.14621E+01 1.68698E-02-8.96222E-04-2.03936E-01 6.30648E-14-5.51961E-13
 -1      1441 2.16563E+01 2.85464E-02-5.00789E-03-4.52699E-01 4.01038E-14-4.20753E-13
 -1      1442 2.12783E+01 1.46728E-02 4.54144E-04-1.68941E-01 1.18607E-14-6.47561E-13
 -1      1443 2.10768E+01 1.46277E-02-3.97344E-04-1.61133E-01-1.99673E-14-5.77574E-13
 -1      1444 2.12574E+01 2.63004E-02-4.52753E-03-3.65395E-01 8.99779E-15-3.15436E-13
 -1      1445 2.09303E+01 1.26031E-02 6.41912E-04-1.30745E-01 6.19765E-14-4.45086E-13
 -1      1446 2.07749E+01 1.21229E-02-7.22979E-05-1.24258E-01 1.33927E-13-2.70211E-13
 -1      1447 2.09347E+01 2.25580E-02-3.88387E-03-2.86840E-01 6.11553E-14-4.50247E-13
 -1      1448 2.06607E+01 1.04036E-02 6.94731E-04-9.90087E-02 5.79875E-14-2.37652E-13
 -1      1449 2.05436E+01 9.74264E-03 1.18844E-04-9.37856E-02-1.40550E-13-3.22972E-13
 -1      1450 2.06799E+01 1.85170E-02-3.22019E-03-2.20029E-01 1.18287E-13-2.52660E-13
 -1      1451 2.04565E+01 8.35270E-03 6.66452E-04-7.34302E-02-1.31641E-13-3.05734E-13
 -1      1452 2.03701E+01 7.65295E-03 2.17633E-04-6.93206E-02-8.92950E-14-4.39782E-13
 -1      1453 2.04832E+01 1.47522E-02-2.60509E-03-1.65259E-01-1.36186E-13-2.60734E-13
 -1      1454 2.03049E+01 6.56700E-03 5.96306E-04-5.32759E-02-9.75194E-14-4.49277E-13
 -1      1455 2.02426E+01 5.90328E-03 2.57005E-04-5.01006E-02-2.46409E-14-5.60097E-13
 -1      1456 2.03342E+01 1.14956E-02-2.06704E-03-1.21526E-01-1.23348E-13-2.61295E-13
 -1      1457 2.01949E+01 5.07817E-03 5.09137E-04-3.76765E-02 1.33428E-13-5.58487E-13
 -1      1458 2.01511E+01 4.48623E-03 2.59834E-04-3.52595E-02 1.10155E-13-4.84447E-13
 -1      1459 2.02237E+01 8.80361E-03-1.61367E-03-8.73017E-02 8.51895E-14-3.78503E-13
 -1      1460 2.01171E+01 3.87668E-03 4.18429E-04-2.57746E-02-5.43382E-14-2.16978E-13
 -1      1461 2.00875E+01 3.36985E-03 2.39942E-04-2.39559E-02-2.18993E-14-3.62494E-13
 -1      1462 2.01436E+01 6.65125E-03-1.24237E-03-6.09477E-02 1.79742E-13-2.76209E-13
 -1      1463 2.00640E+01 2.93522E-03 3.28936E-04-1.67901E-02 2.42521E-13-4.09108E-13
 -1      1464 2.00450E+01 2.51347E-03 2.03356E-04-1.54299E-02 2.85965E-13-1.13149E-13
 -1      1465 2.00871E+01 4.98100E-03-9.46263E-04-4.09086E-02 1.41403E-13-7.21129E-14
 -1      1466 2.00295E+01 2.21969E-03 2.38571E-04-1.00449E-02 2.88627E-13-5.91914E-14
 -1      1467 2.00184E+01 1.87303E-03 1.51449E-04-9.02387E-03 1.25204E-13 2.66830E-13
 -1      1468 2.00487E+01 3.72647E-03-7.16936E-04-2.58001E-02 3.83401E-13 5.67530E-14
 -1      1469 2.00089E+01 1.68821E-03 1.43894E-04-4.97827E-03 4.51944E-14 3.97853E-13
 -1      1470 2.00039E+01 1.38823E-03 9.38673E-05-4.20001E-03 1.66703E-13 4.93617E-13
 -1      1471 2.00240E+01 2.81710E-03-5.42250E-04-1.44506E-02 2.26364E-13 2.21896E-13
 -1      1472 1.99988E+01 1.25357E-03 6.06972E-05-1.21619E-03 6.58881E-14 5.01287E-13
 -1      1473 1.99982E+01 9.31117E-04 7.57352E-05-6.28080E-04-3.50315E-14 6.37608E-13
 -1      1474 2.00095E+01 2.13131E-03-3.92053E-04-5.98687E-03 6.96279E-14 4.33138E-13
 -1      1475 1.99960E+01 9.02958E-04 1.05288E-04 1.28727E-03-2.34447E-13 5.12217E-13
 -1      1476 1.99983E+01 2.78707E-04 3.02059E-04 1.71465E-03-2.36201E-13 2.40208E-13
 -1      1477 2.00022E+01 1.36569E-03-2.18462E-04-9.03063E-05-2.07705E-13 3.49530E-13
 -1      1478 1.99985E+01-9.28295E-04 7.13562E-04 1.24942E-03-1.99496E-13 1.67591E-13
 -1      1479 1.99999E+01-1.20723E-03 1.47686E-04 2.35621E-03-3.15004E-13 9.14519E-14
 -1      1480 2.02159E+01 7.53814E-02-1.51378E-01 4.73814E-01 1.39284E-13 1.42462E-12
 -1      1481 2.14700E+01 2.15837E-01-2.28927E-01 7.09943E-01 1.19141E-13 1.62428E-12
 -1      1482 2.16837E+01 8.78050E-01-8.55982E-02 2.04239E+00 2.25348E-13 1.10656E-12
 -1      1483 1.93148E+01 3.27996E-02-2.11263E-02 1.75635E-01 9.26967E-14 1.17462E-12
 -1      1484 1.97214E+01 1.13938E-01-6.22501E-02 2.27784E-01 9.67663E-14 1.31400E-12
 -1      1485 2.02830E+01 1.87310E-01-5.52057E-02 7.66085E-01 2.07633E-13 9.05727E-13
 -1      1486 1.89653E+01 1.59856E-02 5.60412E-03 4.05619E-02 6.12461E-14 1.00545E-12
 -1      1487 1.90876E+01 5.27054E-02 1.23226E-03 6.75185E-02 5.97335E-14 1.09054E-12
 -1      1488 1.95667E+01 7.28062E-02-1.23923E-02 2.76139E-01 1.43646E-13 7.55909E-13
 -1      1489 1.88974E+01 8.48709E-03 6.75255E-03-2.66192E-02 6.47885E-14 8.65101E-13
 -1      1490 1.88904E+01 2.77246E-02 1.12716E-02-1.10591E-02 5.45341E-14 9.46427E-13
 -1      1491 1.92675E+01 3.31117E-02-2.90498E-03 5.37484E-02 1.11888E-13 5.94174E-13
 -1      1492 1.89819E+01 5.11709E-03 4.42316E-03-6.38313E-02 3.50451E-14 7.26450E-13
 -1      1493 1.89081E+01 1.65637E-02 8.70717E-03-5.39533E-02 4.70763E-14 8.03999E-13
 -1      1494 1.91993E+01 1.64725E-02-2.28293E-03-6.22862E-02 1.01930E-13 5.02520E-13
 -1      1495 1.91566E+01 3.57507E-03 2.78935E-03-8.67751E-02 1.38669E-15 7.08053E-13
 -1      1496 1.90442E+01 1.10713E-02 5.58659E-03-7.98326E-02-5.01183E-15 7.11084E-13
 -1      1497 1.92660E+01 8.98929E-03-2.57302E-03-1.29404E-01 1.61368E-14 4.54476E-13
 -1      1498 1.93907E+01 3.01526E-03 1.83875E-03-1.03122E-01 3.66261E-14 6.31783E-13
 -1      1499 1.92528E+01 8.43885E-03 3.68849E-03-9.75931E-02 2.42962E-14 6.95830E-13
 -1      1500 1.94172E+01 5.72276E-03-2.66061E-03-1.72819E-01 3.18990E-14 4.13660E-13
 -1      1501 1.96700E+01 3.04106E-03 1.18064E-03-1.17190E-01 4.12814E-14 4.97349E-13
 -1      1502 1.95120E+01 7.45878E-03 2.61864E-03-1.12103E-01 5.22548E-14 5.85706E-13
 -1      1503 1.96269E+01 4.72749E-03-2.69953E-03-2.05506E-01 8.97459E-14 3.75735E-13
 -1      1504 1.99903E+01 3.38525E-03 6.26042E-04-1.31507E-01 4.39852E-14 4.45113E-13
 -1      1505 1.98129E+01 7.48163E-03 1.95602E-03-1.26222E-01 1.91532E-14 4.84919E-13
 -1      1506 1.98827E+01 5.03475E-03-2.83473E-03-2.34820E-01 6.86445E-14 2.95933E-13
 -1      1507 2.03524E+01 3.79316E-03 1.34075E-04-1.47295E-01 1.18894E-14 4.09769E-13
 -1      1508 2.01539E+01 8.02231E-03 1.48201E-03-1.41451E-01 2.47678E-14 4.26958E-13
 -1      1509 2.01800E+01 5.97825E-03-3.08300E-03-2.64828E-01 4.53087E-14 2.43319E-13
 -1      1510 2.07585E+01 3.95564E-03-2.55904E-04-1.64488E-01 5.76675E-14 3.57114E-13
 -1      1511 2.05367E+01 8.57900E-03 1.09588E-03-1.58031E-01 2.99168E-14 4.02602E-13
 -1      1512 2.05180E+01 6.92387E-03-3.37450E-03-2.96988E-01 4.07483E-14 2.31729E-13
 -1      1513 2.12089E+01 3.45724E-03-4.35769E-04-1.81438E-01 6.28213E-14 2.26390E-13
 -1      1514 2.09631E+01 8.51235E-03 7.53734E-04-1.74734E-01 6.99584E-14 2.92082E-13
 -1      1515 2.08961E+01 7.10590E-03-3.56649E-03-3.30001E-01 1.03508E-13 2.13263E-13
 -1      1516 2.16963E+01 1.74159E-03-2.08074E-04-1.94402E-01-1.86049E-14 1.49237E-13
 -1      1517 2.14300E+01 6.95162E-03 4.56744E-04-1.88426E-01-6.12618E-15 1.58726E-13
 -1      1518 2.13107E+01 5.50322E-03-3.42465E-03-3.59141E-01 5.59497E-14 9.54996E-14
 -1      1519 2.22007E+01-1.87020E-03 7.36030E-04-1.96933E-01 4.63322E-14 9.66900E-14
 -1      1520 2.19251E+01 2.75551E-03 2.68470E-04-1.93501E-01 2.88882E-14 1.70126E-13
 -1      1521 2.17502E+01 7.71452E-04-2.59764E-03-3.75270E-01 9.07063E-15-4.30914E-14
 -1      1522 2.26818E+01-8.02797E-03 2.79057E-03-1.79537E-01-7.10658E-14 1.09268E-13
 -1      1523 2.24199E+01-5.37382E-03 3.39435E-04-1.81501E-01 6.36947E-15 7.61526E-14
 -1      1524 2.21906E+01-8.66415E-03-6.22344E-04-3.63973E-01 2.29920E-14-4.68466E-14
 -1      1525 2.30731E+01-1.69405E-02 6.27051E-03-1.30360E-01 3.36389E-14 1.01025E-13
 -1      1526 2.28637E+01-1.84370E-02 9.01521E-04-1.41519E-01-2.74858E-14 9.65322E-14
 -1      1527 2.25903E+01-2.41464E-02 2.96796E-03-3.05794E-01-2.61713E-14-5.75295E-14
 -1      1528 2.32806E+01-2.75892E-02 1.09981E-02-3.82718E-02 7.15630E-14 2.50977E-14
 -1      1529 2.31791E+01-3.61107E-02 2.16669E-03-6.25580E-02 8.29866E-14 1.37336E-13
 -1      1530 2.28870E+01-4.56279E-02 8.34839E-03-1.79441E-01 5.74965E-14-5.34512E-14
 -1      1531 2.31955E+01-3.67142E-02 1.56165E-02 1.00132E-01-2.28454E-14-1.49429E-14
 -1      1532 2.32662E+01-5.51317E-02 4.03238E-03 6.07391E-02 9.46292E-15-4.18242E-15
 -1      1533 2.30013E+01-6.96355E-02 1.48591E-02 2.94480E-02 8.20516E-14 1.35084E-13
 -1      1534 2.27270E+01-3.83662E-02 1.70609E-02 2.69603E-01-1.17127E-13 1.77490E-13
 -1      1535 2.30230E+01-6.78264E-02 5.63668E-03 2.18543E-01-9.65885E-14 3.27117E-14
 -1      1536 2.28519E+01-8.70680E-02 2.03508E-02 3.12308E-01-9.35137E-14 8.15389E-14
 -1      1537 2.18612E+01-2.57372E-02 1.13242E-02 4.26249E-01-8.48046E-14 5.05443E-13
 -1      1538 2.23890E+01-6.29271E-02 5.19237E-03 3.75763E-01-9.87708E-14 3.63466E-13
 -1      1539 2.23894E+01-8.29632E-02 2.13025E-02 6.18140E-01-1.94620E-13 2.46740E-13
 -1      1540 2.07252E+01 3.32289E-03-3.61631E-03 5.01026E-01 5.39168E-14 5.79523E-13
 -1      1541 2.14062E+01-3.15139E-02 7.87305E-04 4.71406E-01-2.49167E-14 5.28230E-13
 -1      1542 2.16438E+01-4.26816E-02 1.45405E-02 8.45232E-01-7.14121E-14 3.58045E-13
 -1      1543 1.96077E+01 4.02418E-02-2.39278E-02 4.30130E-01 1.18629E-13 3.72757E-13
 -1      1544 2.02683E+01 2.29153E-02-7.63525E-03 4.40702E-01 6.02834E-14 5.21090E-13
 -1      1545 2.07659E+01 3.40702E-02 3.58093E-04 8.68772E-01 9.84178E-14 3.04270E-13
 -1      1546 1.88799E+01 6.67657E-02-3.91354E-02 2.03493E-01 6.71598E-15 2.38219E-13
 -1      1547 1.93011E+01 7.93074E-02-1.65369E-02 2.58523E-01 6.08333E-14 3.11667E-13
 -1      1548 2.00135E+01 1.21188E-01-1.56584E-02 6.12799E-01 9.30558E-14 2.25191E-13
 -1      1549 1.88229E+01 6.66535E-02-3.85892E-02-1.05720E-01 2.60035E-15 2.78225E-13
 -1      1550 1.88433E+01 1.08241E-01-1.98744E-02-2.53208E-02-3.10550E-14 2.45181E-13
 -1      1551 1.96582E+01 1.73259E-01-2.50324E-02 1.26290E-01-5.75928E-15 1.76572E-13
 -1      1552 1.94625E+01 4.00685E-02-2.14445E-02-3.72761E-01-6.68129E-14 4.13711E-13
 -1      1553 1.90727E+01 9.40190E-02-1.42479E-02-2.99999E-01 9.38138E-15 3.46501E-13
 -1      1554 1.98411E+01 1.56165E-01-2.36512E-02-4.11168E-01-2.97332E-14 2.40842E-13
 -1      1555 2.05527E+01 3.41746E-03 2.31793E-03-4.99356E-01 1.16819E-13 3.91187E-13
 -1      1556 1.99011E+01 4.75143E-02-2.50793E-03-4.60005E-01 1.26444E-14 4.47878E-13
 -1      1557 2.04885E+01 7.87084E-02-1.44087E-02-7.89059E-01 2.82795E-14 3.28817E-13
 -1      1558 2.17220E+01-2.50611E-02 2.01005E-02-4.67975E-01 3.71751E-15 9.33975E-14
 -1      1559 2.10275E+01-4.32590E-03 8.65159E-03-4.67243E-01 1.16329E-13 3.49935E-13
 -1      1560 2.13588E+01-1.46409E-02-3.86085E-03-8.92739E-01 1.74115E-13 3.47543E-13
 -1      1561 2.26589E+01-3.71180E-02 2.63696E-02-3.30760E-01-7.79815E-14 1.59473E-13
 -1      1562 2.21034E+01-3.95834E-02 1.41436E-02-3.56635E-01-9.78601E-14 4.56857E-14
 -1      1563 2.21783E+01-8.02773E-02 3.46171E-03-7.48117E-01-1.74548E-14 2.68455E-13
 -1      1564 2.32107E+01-3.51931E-02 2.30425E-02-1.60462E-01 2.23085E-15 1.51131E-13
 -1      1565 2.28820E+01-5.19717E-02 1.35249E-02-1.96017E-01 1.50505E-14 1.46799E-13
 -1      1566 2.27578E+01-1.02522E-01 6.57181E-03-4.68087E-01-2.37796E-14 9.94083E-14
 -1      1567 2.33750E+01-2.60454E-02 1.53838E-02-1.10435E-02 1.04185E-13-8.12716E-14
 -1      1568 2.32726E+01-4.71939E-02 9.33498E-03-4.36440E-02 1.08618E-13 6.00249E-14
 -1      1569 2.30302E+01-9.09644E-02 6.64940E-03-1.70427E-01 1.22875E-13 1.16302E-13
 -1      1570 2.32366E+01-1.55215E-02 7.65106E-03 9.36111E-02-2.52142E-15-1.22609E-13
 -1      1571 2.33090E+01-3.43570E-02 4.53194E-03 6.97669E-02 5.08061E-14-1.28514E-13
 -1      1572 2.30232E+01-6.38936E-02 5.26859E-03 7.03767E-02 1.14862E-13 8.15550E-14
 -1      1573 2.29060E+01-6.75480E-03 1.91372E-03 1.52176E-01 6.79693E-14-2.12438E-13
 -1      1574 2.30877E+01-2.04371E-02 8.29305E-04 1.37832E-01 1.79190E-14-2.22981E-13
 -1      1575 2.28118E+01-3.56119E-02 3.55412E-03 2.28242E-01 3.94489E-14-1.05835E-13
 -1      1576 2.24821E+01-6.95415E-04-1.50313E-03 1.74266E-01 4.92278E-14-4.49880E-13
 -1      1577 2.27154E+01-8.99681E-03-1.30578E-03 1.67670E-01 4.80070E-14-3.89362E-13
 -1      1578 2.24789E+01-1.32126E-02 2.07416E-03 3.08828E-01 1.76924E-13-5.20828E-13
 -1      1579 2.20373E+01 2.88384E-03-3.09379E-03 1.72009E-01-8.38823E-14-3.53884E-13
 -1      1580 2.22808E+01-1.04447E-03-2.14959E-03 1.70764E-01-2.02257E-14-2.99384E-13
 -1      1581 2.20948E+01 1.62933E-03 9.89179E-04 3.31313E-01-4.42260E-14-3.62778E-13
 -1      1582 2.16173E+01 4.61831E-03-3.51632E-03 1.55882E-01-2.69086E-14-2.48249E-13
 -1      1583 2.18456E+01 3.74613E-03-2.18940E-03 1.57853E-01-9.68275E-14-2.92631E-13
 -1      1584 2.17095E+01 9.95420E-03 2.69747E-04 3.16491E-01-7.47953E-14-1.98387E-13
 -1      1585 2.12465E+01 5.14860E-03-3.30819E-03 1.33452E-01-4.77756E-14-3.20115E-13
 -1      1586 2.14465E+01 6.15988E-03-1.84187E-03 1.37060E-01 3.21714E-14-2.92705E-13
 -1      1587 2.13536E+01 1.36123E-02-1.69866E-04 2.81382E-01 5.85131E-14-6.78966E-14
 -1      1588 2.09343E+01 4.97615E-03-2.82447E-03 1.09561E-01-2.36687E-14-6.05063E-14
 -1      1589 2.11012E+01 6.98789E-03-1.37661E-03 1.13763E-01-1.69910E-13-2.24699E-13
 -1      1590 2.10429E+01 1.43287E-02-4.14367E-04 2.37948E-01-1.38756E-13-3.48226E-14
 -1      1591 2.06808E+01 4.44567E-03-2.26883E-03 8.69770E-02 3.69618E-14-4.26542E-14
 -1      1592 2.08151E+01 6.86016E-03-9.34647E-04 9.11489E-02 4.66553E-14 1.20403E-14
 -1      1593 2.07827E+01 1.34011E-02-5.29730E-04 1.93681E-01 1.08507E-15 1.72722E-14
 -1      1594 2.04813E+01 3.77446E-03-1.74386E-03 6.70631E-02-1.39302E-13 4.68933E-14
 -1      1595 2.05861E+01 6.22129E-03-5.72800E-04 7.08702E-02-3.07159E-14-3.68932E-14
 -1      1596 2.05721E+01 1.16956E-02-5.62922E-04 1.52762E-01-2.47578E-14 1.47966E-13
 -1      1597 2.03286E+01 3.08972E-03-1.29289E-03 5.03016E-02 1.81430E-14 1.93975E-13
 -1      1598 2.04080E+01 5.36096E-03-3.02228E-04 5.35966E-02-7.22350E-14 5.50740E-14
 -1      1599 2.04063E+01 9.74226E-03-5.46424E-04 1.17146E-01-9.09030E-14 2.63985E-14
 -1      1600 2.02148E+01 2.45980E-03-9.27782E-04 3.66662E-02 8.40691E-14-4.14657E-14
 -1      1601 2.02733E+01 4.45594E-03-1.13617E-04 3.94151E-02 7.70292E-14 1.22681E-13
 -1      1602 2.02792E+01 7.84023E-03-5.02641E-04 8.74146E-02 9.12533E-14 2.28944E-14
 -1      1603 2.01324E+01 1.91697E-03-6.45559E-04 2.58606E-02 4.37064E-15-4.55513E-15
 -1      1604 2.01742E+01 3.60702E-03 8.87690E-06 2.80944E-02 9.51257E-15-8.88951E-15
 -1      1605 2.01843E+01 6.14136E-03-4.47213E-04 6.33568E-02-5.85025E-15-1.41076E-14
 -1      1606 2.00748E+01 1.47272E-03-4.37750E-04 1.74654E-02 2.37085E-13-2.67998E-13
 -1      1607 2.01035E+01 2.86700E-03 8.08858E-05 1.92504E-02 1.73307E-13 3.01191E-15
 -1      1608 2.01155E+01 4.70957E-03-3.91441E-04 4.43518E-02 1.66947E-13-8.98994E-14
 -1      1609 2.00365E+01 1.12193E-03-2.95078E-04 1.10282E-02 1.68974E-14-4.22945E-13
 -1      1610 2.00552E+01 2.25592E-03 1.14383E-04 1.24451E-02 1.09530E-13-2.44900E-13
 -1      1611 2.00674E+01 3.55824E-03-3.43189E-04 2.96028E-02 2.03068E-13-1.22660E-13
 -1      1612 2.00130E+01 8.54788E-04-2.10724E-04 6.13026E-03 7.76306E-14-3.25913E-13
 -1      1613 2.00240E+01 1.77291E-03 1.16732E-04 7.26019E-03-2.10935E-14-3.63345E-13
 -1      1614 2.00352E+01 2.66462E-03-3.08492E-04 1.82950E-02 1.52949E-14-2.32580E-13
 -1      1615 2.00007E+01 6.53810E-04-1.60344E-04 2.39829E-03 1.23148E-14-3.66524E-13
 -1      1616 2.00058E+01 1.40792E-03 9.36901E-05 3.32567E-03-1.57798E-14-3.40596E-13
 -1      1617 2.00152E+01 2.00127E-03-2.87712E-04 9.68784E-03 2.25949E-14-1.50938E-13
 -1      1618 1.99968E+01 4.55238E-04-4.02220E-05-3.91697E-04 5.13583E-14-4.56343E-13
 -1      1619 1.99975E+01 1.09114E-03 8.10722E-05 3.97397E-04 3.10819E-14-4.62099E-13
 -1      1620 2.00044E+01 1.51500E-03-2.37936E-04 3.22622E-03 5.08544E-14-1.01080E-13
 -1      1621 1.99981E+01 4.57575E-06 3.74443E-04-1.81232E-03 8.26614E-14-6.60774E-13
 -1      1622 1.99961E+01 5.02973E-04 1.83612E-04-1.34782E-03 1.49073E-13-5.15164E-13
 -1      1623 2.00000E+01 6.86137E-04-9.20597E-05-1.18250E-03 2.55503E-13-1.84933E-13
 -1      1624 1.99987E+01-9.85633E-04 6.53700E-04-1.13592E-03-3.83010E-13-4.57502E-13
 -1      1625 2.00006E+01-3.23275E-03-8.87261E-05-8.34465E-04 1.45733E-13 2.36895E-13
 -1      1626 2.00003E+01-1.65404E-03 2.10291E-04-1.17424E-03-4.76941E-13 5.29775E-13
 -1      1627 2.00008E+01-1.17103E-04-1.72858E-04 1.69072E-03 5.46277E-13 2.33135E-13
 -1      1628 2.00008E+01-1.27801E-03-7.50576E-05 1.11128E-03 3.52183E-13 8.91476E-14
 -1      1629 2.00015E+01 2.37540E-03-1.64441E-04 7.58127E-04 5.02368E-14 5.36164E-13
 -1      1630 2.00005E+01 7.86576E-03-1.36985E-04 4.14592E-03 4.38150E-13-1.46752E-13
 -1      1631 2.00007E+01 3.71371E-03-1.12721E-04 3.68271E-03 6.49642E-13 2.11169E-14
 -1      1632 2.00014E+01 8.32431E-03-2.69086E-04 5.54264E-03 3.25068E-13 1.47759E-13
 -1      1633 2.00000E+01 1.92584E-02-7.75422E-05 5.58923E-03 5.21470E-13-6.76495E-14
 -1      1634 2.00003E+01 1.31604E-02-7.56134E-05 5.38942E-03 3.55048E-13 1.82727E-13
 -1      1635 2.00009E+01 1.77288E-02-1.55789E-04 9.43819E-03 1.54871E-13-6.83859E-14
 -1      1636 1.99995E+01 3.13464E-02-3.63136E-05 5.69895E-03 2.81300E-14-2.42741E-13
 -1      1637 1.99998E+01 2.49683E-02-3.33550E-05 5.77950E-03 4.80566E-13-4.49568E-13
 -1      1638 2.00000E+01 2.89756E-02-3.85017E-06 1.11219E-02 1.13988E-13-4.40668E-13
 -1      1639 1.99991E+01 4.18921E-02-7.40424E-06 4.51205E-03-3.43285E-13-1.89995E-13
 -1      1640 1.99993E+01 3.65616E-02-4.85700E-06 4.84229E-03-3.29597E-14-1.87767E-13
 -1      1641 1.99992E+01 4.00846E-02 1.51512E-04 1.02722E-02-6.76034E-14-5.03272E-13
 -1      1642 1.99988E+01 4.84040E-02 8.03250E-06 2.32404E-03-1.64765E-13 5.31341E-14
 -1      1643 1.99990E+01 4.54653E-02 1.01895E-05 2.82011E-03-4.51517E-13 2.82054E-13
 -1      1644 1.99986E+01 4.89917E-02 2.70977E-04 7.13301E-03-1.23929E-13-9.49785E-14
 -1      1645 1.99988E+01 4.95114E-02 1.30184E-05-3.72390E-04 2.46838E-13 1.11322E-13
 -1      1646 1.99988E+01 4.96313E-02 1.42392E-05 1.80610E-04-3.90702E-14 1.08720E-13
 -1      1647 1.99983E+01 5.38549E-02 3.35292E-04 2.43808E-03-6.44619E-14 2.71931E-13
 -1      1648 1.99990E+01 4.49819E-02 7.70823E-06-2.99742E-03 8.85008E-14-7.91164E-14
 -1      1649 1.99988E+01 4.81454E-02 8.33485E-06-2.50620E-03 1.89478E-13 6.22537E-15
 -1      1650 1.99983E+01 5.37216E-02 3.34364E-04-2.79229E-03 1.82271E-13 5.36397E-14
 -1      1651 1.99993E+01 3.57786E-02-9.46123E-06-4.97863E-03-4.44113E-13-3.26740E-13
 -1      1652 1.99991E+01 4.12869E-02-7.57187E-06-4.66031E-03-2.10183E-14-2.08884E-13
 -1      1653 1.99986E+01 4.86072E-02 2.67362E-04-7.44147E-03 1.76635E-14-3.26615E-13
 -1      1654 1.99998E+01 2.41125E-02-3.69893E-05-5.84653E-03-8.53935E-13-1.28336E-13
 -1      1655 1.99995E+01 3.05796E-02-3.86109E-05-5.77936E-03-4.84442E-13-2.83943E-13
 -1      1656 1.99993E+01 3.95879E-02 1.49330E-04-1.04743E-02-2.36150E-13-4.63325E-13
 -1      1657 2.00003E+01 1.21887E-02-7.80915E-05-5.36750E-03-7.94812E-13-1.72378E-13
 -1      1658 2.00001E+01 1.82621E-02-8.40908E-05-5.58927E-03-8.35325E-13 2.57055E-13
 -1      1659 2.00001E+01 2.83617E-02-8.91952E-06-1.11908E-02-2.28598E-13 5.26358E-14
 -1      1660 2.00007E+01 2.86647E-03-1.37789E-04-3.54522E-03-8.87994E-13 2.19340E-13
 -1      1661 2.00005E+01 6.92206E-03-1.41158E-04-4.03417E-03-8.92577E-13-1.43690E-13
 -1      1662 2.00009E+01 1.69927E-02-1.67322E-04-9.32210E-03-4.91068E-13-2.37341E-13
 -1      1663 2.00010E+01-1.78005E-03-4.48748E-05-1.01802E-03-8.00091E-13 6.99194E-14
 -1      1664 2.00007E+01-7.84652E-04-1.95219E-04-1.63893E-03-9.42185E-13 2.04732E-13
 -1      1665 2.00014E+01 7.84131E-03-2.76001E-04-5.24938E-03-5.33948E-13 1.01461E-13
 -1      1666 2.00008E+01-8.68999E-04 1.67068E-04 1.03129E-03-2.69499E-13 2.70893E-13
 -1      1667 2.00010E+01-2.30006E-03-1.74426E-04 6.10787E-04-5.48764E-13 2.90445E-13
 -1      1668 2.00027E+01 4.03403E-03 1.02359E-04-1.44010E-03-4.04380E-13 3.94929E-13
 -1      1669 2.00020E+01 2.55884E-03 2.50070E-04 1.09330E-03-2.73462E-13 2.22690E-13
 -1      1670-6.30987E-01-1.48299E+01-1.72419E+00-9.64530E-01 5.72153E-13 7.68857E-13
 -1      1671-6.13490E-01-1.67130E+01-1.86382E+00 3.82229E-01-5.90250E-13 7.45182E-13
 -1      1672 9.34599E-01-8.58140E+00-1.29135E+00 1.46740E-01 1.47926E-12 8.67001E-13
 -1      1673 3.78004E-01-1.35051E+01-1.77581E+00-2.68683E-01 8.92841E-13 6.72858E-13
 -1      1674 6.84536E+00-8.84167E-01-5.36999E-01 4.51514E+00 1.49925E-12 1.07903E-12
 -1      1675 3.86741E+00-6.47453E+00-1.27901E+00 1.73348E+00 1.58074E-12 7.90590E-13
 -1      1676 1.68846E+01 5.14539E+00 2.43649E-01 9.61884E+00 1.42120E-12 1.55287E-12
 -1      1677 1.03240E+01 1.44511E+00-6.87673E-01 5.74469E+00 1.45128E-12 1.32616E-12
 -1      1678 3.08639E+01 6.48846E+00 9.34063E-01 1.25587E+01 1.08580E-12 1.42353E-12
 -1      1679 2.20309E+01 6.10414E+00 1.05292E-01 1.04927E+01 1.41798E-12 1.45750E-12
 -1      1680 4.50362E+01 4.97620E+00 1.50028E+00 1.01138E+01 6.30232E-13 1.27043E-12
 -1      1681 3.61174E+01 6.50187E+00 8.55282E-01 1.15639E+01 8.56537E-13 1.45883E-12
 -1      1682 5.37685E+01 3.54753E+00 1.83041E+00 4.08514E+00 4.51444E-13 3.50553E-13
 -1      1683 4.90712E+01 4.88695E+00 1.52575E+00 8.73693E+00 6.29802E-13 9.75109E-13
 -1      1684 5.28307E+01 4.00296E+00 1.67608E+00-4.15495E+00 3.97293E-13-3.77809E-13
 -1      1685 5.39373E+01 3.68432E+00 1.74656E+00 1.38828E+00 3.82694E-13 1.55376E-13
 -1      1686 4.50539E+01 5.67601E+00 1.34778E+00-1.06439E+01 5.74180E-13-1.02696E-12
 -1      1687 5.15902E+01 3.99103E+00 1.78308E+00-6.90513E+00 3.93893E-13-6.51701E-13
 -1      1688 3.19361E+01 6.65533E+00 6.48668E-01-1.18211E+01 1.19249E-12-1.44018E-12
 -1      1689 4.07381E+01 5.66429E+00 1.37080E+00-1.16748E+01 8.19650E-13-1.04139E-12
 -1      1690 1.84607E+01 5.28802E+00-9.21160E-02-9.38512E+00 1.51290E-12-1.61671E-12
 -1      1691 2.67710E+01 6.51250E+00 7.77130E-01-1.21266E+01 1.29241E-12-1.74749E-12
 -1      1692 8.69411E+00 8.71326E-02-7.85470E-01-4.83910E+00 1.61360E-12-1.31450E-12
 -1      1693 1.38775E+01 4.01477E+00 3.43981E-02-8.33208E+00 1.61382E-12-1.50591E-12
 -1      1694 3.09816E+00-7.79467E+00-1.36946E+00-1.24828E+00 1.13920E-12-7.85372E-13
 -1      1695 5.58032E+00-2.19431E+00-6.72895E-01-3.66004E+00 1.42841E-12-1.20071E-12
 -1      1696 1.48900E-01-1.42687E+01-1.79779E+00 2.60658E-01 5.18918E-13-4.67820E-13
 -1      1697 5.55043E-01-9.76441E+00-1.34368E+00 1.99202E-01 1.03983E-12-6.75487E-13
 -1      1698-6.64187E-01-1.66352E+01-1.84562E+00-5.60840E-01-4.55181E-13-3.45252E-13
 -1      1699-6.40464E-01-1.52178E+01-1.70867E+00 8.32244E-01 2.36811E-13-4.52777E-13
 -1      1700-5.36915E-01-1.38755E+01-1.67386E+00-1.19760E+00-1.53400E-12-8.27630E-13
 -1      1701-5.25126E-01-1.66624E+01-1.90895E+00-7.93671E-02-7.75241E-13-4.20941E-13
 -1      1702 1.96096E+00-6.85369E+00-1.13373E+00 9.28177E-01-2.03715E-12-1.11633E-12
 -1      1703 9.45463E-01-1.20762E+01-1.67932E+00-1.05142E-01-1.70497E-12-8.14696E-13
 -1      1704 8.98052E+00-9.11695E-02-4.20824E-01 5.43180E+00-1.99751E-12-1.67788E-12
 -1      1705 5.46578E+00-4.99808E+00-1.11189E+00 2.49367E+00-1.95322E-12-1.33821E-12
 -1      1706 1.86750E+01 5.13292E+00 2.75253E-01 9.94065E+00-1.91958E-12-1.89559E-12
 -1      1707 1.22468E+01 2.21746E+00-5.47522E-01 6.52703E+00-2.20080E-12-1.80045E-12
 -1      1708 3.23154E+01 6.06834E+00 9.75354E-01 1.22023E+01-1.30218E-12-1.80700E-12
 -1      1709 2.38349E+01 5.74468E+00 1.79626E-01 1.04311E+01-1.69498E-12-1.86318E-12
 -1      1710 4.54491E+01 5.19301E+00 1.62093E+00 1.08824E+01-8.53956E-13-1.50580E-12
 -1      1711 3.71285E+01 6.54316E+00 9.57953E-01 1.20868E+01-1.10478E-12-1.79456E-12
 -1      1712 5.43086E+01 3.66877E+00 1.95927E+00 4.98784E+00-4.34097E-13-1.06204E-12
 -1      1713 4.90990E+01 5.00298E+00 1.58572E+00 9.19775E+00-6.85854E-13-1.43852E-12
 -1      1714 5.54147E+01 3.59417E+00 1.91685E+00-2.81132E+00-3.25712E-13-3.47999E-13
 -1      1715 5.55497E+01 3.56709E+00 1.93592E+00 2.51936E+00-3.80029E-13-8.84598E-13
 -1      1716 4.81782E+01 5.13948E+00 1.49901E+00-9.18262E+00-4.84189E-13 3.60045E-13
 -1      1717 5.36001E+01 3.76240E+00 1.87330E+00-5.06863E+00-3.83554E-13-1.63591E-13
 -1      1718 3.56293E+01 6.63769E+00 8.63979E-01-1.21266E+01-6.81177E-13 7.62057E-13
 -1      1719 4.45752E+01 5.24438E+00 1.56123E+00-1.11162E+01-3.78225E-13 5.30687E-13
 -1      1720 2.18193E+01 5.72911E+00 7.30515E-02-1.01826E+01-1.11688E-12 1.08935E-12
 -1      1721 3.05025E+01 6.39353E+00 9.44747E-01-1.24056E+01-8.18789E-13 7.77822E-13
 -1      1722 1.09353E+01 5.12688E-01-7.06705E-01-5.49897E+00-1.31295E-12 1.00187E-12
 -1      1723 1.72397E+01 4.05509E+00 1.48738E-01-9.13992E+00-1.15352E-12 1.11677E-12
 -1      1724 3.67681E+00-6.48911E+00-1.35517E+00-1.46359E+00-1.58040E-12 8.38218E-13
 -1      1725 6.56595E+00-1.13076E+00-6.38343E-01-4.18978E+00-1.45839E-12 9.75886E-13
 -1      1726 4.01499E-01-1.34529E+01-1.75802E+00 3.90008E-01-1.59339E-12 5.03632E-13
 -1      1727 9.85872E-01-8.50057E+00-1.30115E+00-3.57876E-02-1.73950E-12 7.11597E-13
 -1      1728-5.44882E-01-1.61470E+01-1.75555E+00-2.48872E-01-8.87956E-13 4.60659E-13
 -1      1729-5.58374E-01-1.42853E+01-1.60827E+00 9.41961E-01-1.44901E-12 5.76761E-13
 -1      1730 2.37349E+01 1.20896E+00 2.66283E-01 7.59739E+00 8.69194E-13 8.81628E-13
 -1      1731 1.37183E+01-3.28597E+00-3.90904E-01 6.36050E+00 7.76934E-13 8.55371E-13
 -1      1732 1.99998E+01-1.53230E-03 3.04193E-04-2.07406E-03-4.19927E-13-5.49468E-14
 -1      1733 2.00004E+01 6.72419E-04 1.47126E-04-2.10888E-03 2.76112E-14 3.36533E-13
 -1      1734 2.51299E-01-1.04793E+01-1.24483E+00 2.09083E+00 2.39531E-13 1.10001E-12
 -1      1735 5.58548E+00-7.23087E+00-8.28617E-01 4.52284E+00 6.93223E-13 6.99382E-13
 -1      1736-1.25534E+00-1.11008E+01-1.24993E+00-1.14344E-02-3.66693E-13 1.09401E-12
 -1      1737 3.42522E+01 4.21695E+00 8.41822E-01 6.82332E+00 7.81708E-13 9.32143E-13
 -1      1738 4.24149E+01 6.23225E+00 1.25228E+00 4.46142E+00 7.58643E-13 5.87974E-13
 -1      1739 4.63731E+01 7.31108E+00 1.48239E+00 1.29894E+00 7.06879E-13 2.97040E-13
 -1      1740 4.54515E+01 7.16327E+00 1.45025E+00-2.62108E+00 6.01796E-13-1.39333E-13
 -1      1741 4.02560E+01 5.65417E+00 1.16595E+00-5.64712E+00 6.85882E-13-4.18221E-13
 -1      1742 3.13654E+01 3.42141E+00 7.09026E-01-7.30206E+00 9.46576E-13-7.43960E-13
 -1      1743 2.10999E+01 1.67520E-01 8.82241E-02-7.37133E+00 9.29035E-13-9.39027E-13
 -1      1744 1.19122E+01-4.08941E+00-4.77574E-01-6.05724E+00 7.34413E-13-9.55680E-13
 -1      1745 4.53605E+00-7.85158E+00-9.03812E-01-4.25847E+00 4.46865E-13-8.11386E-13
 -1      1746-2.18930E-01-1.06738E+01-1.26596E+00-1.82316E+00 4.38538E-15-7.38298E-13
 -1      1747-1.31799E+00-1.14675E+01-1.34251E+00 2.42477E-01-5.02487E-13-7.96585E-13
 -1      1748 1.23394E+00-9.94611E+00-1.16389E+00 2.57422E+00-9.14990E-13-9.53237E-13
 -1      1749 7.77210E+00-6.55714E+00-6.51118E-01 5.12978E+00-1.03673E-12-9.51156E-13
 -1      1750 1.58161E+01-3.10880E+00-3.57570E-01 6.46281E+00-1.19615E-12-1.19194E-12
 -1      1751 2.54129E+01 1.06088E+00 2.90975E-01 7.27787E+00-1.29008E-12-1.06781E-12
 -1      1752 3.51567E+01 3.95981E+00 8.44300E-01 6.69597E+00-9.91873E-13-9.90541E-13
 -1      1753 4.32200E+01 6.16527E+00 1.36962E+00 4.90957E+00-7.55035E-13-8.43769E-13
 -1      1754 4.76974E+01 7.14478E+00 1.63697E+00 1.77803E+00-6.25000E-13-7.61696E-13
 -1      1755 4.71766E+01 7.12119E+00 1.55719E+00-1.71213E+00-5.57998E-13-4.40453E-13
 -1      1756 4.24730E+01 6.03702E+00 1.29168E+00-4.98085E+00-4.83447E-13-8.85958E-14
 -1      1757 3.41142E+01 3.86101E+00 8.08057E-01-7.09105E+00-5.68823E-13 1.56430E-13
 -1      1758 2.39251E+01 2.35474E-01 1.50053E-01-7.09381E+00-5.63882E-13 2.24265E-13
 -1      1759 1.41605E+01-3.67450E+00-3.56756E-01-6.24310E+00-5.94635E-13 4.17166E-13
 -1      1760 5.55398E+00-7.38906E+00-8.79310E-01-4.24791E+00-9.11160E-13 4.51743E-13
 -1      1761 4.00429E-01-1.01042E+01-1.17610E+00-2.01449E+00-8.40217E-13 5.10370E-13
 -1      1762 2.28013E+01 1.97797E+00-2.41835E-02-2.69943E+00-2.07653E-13 8.11740E-13
 -1      1763 1.98403E+01 3.72456E+00-3.49872E-02-2.11051E+00-2.46306E-13-2.46154E-13
 -1      1764 2.00644E+01 3.56297E+00-4.24105E-02-2.39774E+00-2.96218E-13-1.65236E-13
 -1      1765 2.03693E+01 3.17968E+00-4.50115E-02-2.54521E+00-2.97073E-13-6.30537E-14
 -1      1766 2.05768E+01 2.80375E+00-1.41694E-01-2.81548E+00-3.16695E-13 8.40092E-14
 -1      1767 2.04407E+01 2.69442E+00-2.76954E-03-2.17589E+00-3.05438E-13-9.41053E-14
 -1      1768 1.93725E+01 4.21615E+00-2.03327E-02-1.23010E+00-1.17977E-13-3.95479E-13
 -1      1769 1.94483E+01 4.17322E+00-1.67718E-02-1.45166E+00-1.48877E-13-3.76768E-13
 -1      1770 1.92697E+01 4.33091E+00-1.68642E-02-8.28236E-01-5.29470E-14-4.13758E-13
 -1      1771 1.93157E+01 4.30445E+00-1.39592E-02-1.03422E+00-8.84256E-14-4.05384E-13
 -1      1772 1.95396E+01 3.82338E+00-8.89455E-03-1.07707E+00-1.09991E-13-3.82847E-13
 -1      1773 1.92125E+01 4.39776E+00-1.47447E-02-4.48007E-01 1.02972E-14-4.27391E-13
 -1      1774 1.92372E+01 4.38335E+00-1.29633E-02-6.42035E-01-1.44433E-14-4.26324E-13
 -1      1775 1.94348E+01 3.95429E+00-8.69410E-03-7.01928E-01-3.13781E-14-4.06335E-13
 -1      1776 1.91903E+01 4.42642E+00-1.34823E-02-7.97057E-02 7.02228E-14-4.17309E-13
 -1      1777 1.91977E+01 4.42198E+00-1.29351E-02-2.68092E-01 4.20406E-14-4.23916E-13
 -1      1778 1.93784E+01 4.02558E+00-8.56458E-03-3.41882E-01 3.11520E-14-4.11974E-13
 -1      1779 1.91992E+01 4.42045E+00-1.28747E-02 2.86735E-01 1.26100E-13-4.01977E-13
 -1      1780 1.91907E+01 4.42548E+00-1.35746E-02 9.81717E-02 9.13213E-14-4.11594E-13
 -1      1781 1.93614E+01 4.04721E+00-8.52718E-03 1.02224E-02 8.84835E-14-4.07372E-13
 -1      1782 1.92409E+01 4.37895E+00-1.29587E-02 6.61496E-01 1.77756E-13-3.78603E-13
 -1      1783 1.92150E+01 4.39426E+00-1.48549E-02 4.66927E-01 1.54222E-13-3.98622E-13
 -1      1784 1.93810E+01 4.02189E+00-8.60056E-03 3.62592E-01 1.46109E-13-3.84611E-13
 -1      1785 1.93204E+01 4.29823E+00-1.40002E-02 1.04825E+00 2.30971E-13-3.35943E-13
 -1      1786 1.92738E+01 4.32516E+00-1.70206E-02 8.44994E-01 2.04045E-13-3.61159E-13
 -1      1787 1.94396E+01 3.94740E+00-8.67717E-03 7.20173E-01 2.07454E-13-3.55322E-13
 -1      1788 1.94573E+01 4.16126E+00-1.69782E-02 1.47117E+00 2.96845E-13-2.50605E-13
 -1      1789 1.93784E+01 4.20709E+00-2.06254E-02 1.24455E+00 2.55998E-13-2.96842E-13
 -1      1790 1.95468E+01 3.81296E+00-8.84380E-03 1.09293E+00 2.63145E-13-2.92625E-13
 -1      1791 1.96874E+01 3.93376E+00-2.47695E-02 1.93374E+00 3.50655E-13-1.42913E-13
 -1      1792 1.95548E+01 4.01426E+00-2.70324E-02 1.67732E+00 3.22963E-13-2.07962E-13
 -1      1793 1.97263E+01 3.59307E+00-8.43562E-03 1.48627E+00 3.27796E-13-2.05540E-13
 -1      1794 2.00884E+01 3.52491E+00-4.46949E-02 2.42819E+00 3.67316E-13 4.99219E-14
 -1      1795 1.98535E+01 3.68923E+00-3.96897E-02 2.13812E+00 3.55897E-13-6.95104E-14
 -1      1796 2.00232E+01 3.23684E+00-5.16459E-03 1.88453E+00 3.73995E-13-8.46337E-14
 -1      1797 2.09119E+01 2.67715E+00-5.70996E-02 2.82017E+00 3.40575E-13 4.29490E-13
 -1      1798 2.04175E+01 3.09480E+00-5.01361E-02 2.57579E+00 3.42805E-13 2.04434E-13
 -1      1799 2.05269E+01 2.61311E+00 3.19764E-03 2.19919E+00 3.65317E-13 1.36058E-13
 -1      1800 2.16986E+01 1.20984E+00-1.21470E-01 2.30158E+00 2.72456E-13 8.64933E-13
 -1      1801 2.12560E+01 2.25736E+00 9.99830E-05 2.70699E+00 3.08925E-13 5.81285E-13
 -1      1802 2.09323E+01 1.68391E+00-2.24642E-02 2.10261E+00 3.41612E-13 4.22308E-13
 -1      1803 2.09309E+01 7.77447E-01-6.18338E-02 1.49708E+00 2.87430E-13 7.75975E-13
 -1      1804 2.17668E+01 2.45015E+00 9.05336E-02-3.01709E+00-2.71939E-13 3.47292E-13
 -1      1805 2.01037E+01 3.00330E-01-8.42340E-03 6.27951E-01 2.10103E-13 6.39060E-13
 -1      1806 2.06422E+01 4.41525E-01-1.21201E-02 1.00601E+00 2.36013E-13 7.13983E-13
 -1      1807 2.07407E+01 8.45350E-01 2.01742E-03 1.38067E+00 2.84398E-13 5.15038E-13
 -1      1808 2.14899E+01 1.73926E+00 7.92667E-02-2.30321E+00-2.89980E-13 2.31246E-13
 -1      1809 2.05247E+01 5.04410E-01 3.26930E-02-8.85937E-01-2.21771E-13 1.97167E-13
 -1      1810 2.01084E+01 3.58171E-01 8.45182E-03-5.91247E-01-1.87394E-13 1.40378E-13
 -1      1811 1.99269E+01 2.65507E-01 2.76699E-02-3.46668E-01-1.81592E-13 1.35415E-13
 -1      1812 1.97554E+01 1.88930E-01 1.13917E-02-2.03160E-01-1.54878E-13 8.75541E-14
 -1      1813 2.02303E+01 4.94007E-01-6.40225E-03-6.67936E-01-2.18090E-13 3.64726E-14
 -1      1814 1.96511E+01 1.45935E-01 1.70147E-02-5.99059E-02-1.21621E-13 7.76540E-14
 -1      1815 1.95991E+01 1.09351E-01 8.25513E-03 1.96726E-02-1.09408E-13 4.44649E-14
 -1      1816 1.99355E+01 2.61920E-01-6.39992E-03-2.23055E-01-1.78267E-13 1.56238E-14
 -1      1817 1.95580E+01 8.73746E-02 9.21472E-03 1.07108E-01-1.02765E-13 3.00443E-14
 -1      1818 1.95790E+01 6.93429E-02 5.84262E-03 1.55665E-01-8.57257E-14 1.02219E-14
 -1      1819 1.97945E+01 1.51700E-01-5.40976E-03 4.04288E-02-1.33366E-13-1.55279E-14
 -1      1820 1.95845E+01 5.82136E-02 4.94916E-03 2.13270E-01-6.08905E-14 8.68825E-15
 -1      1821 1.96524E+01 5.01890E-02 4.69080E-03 2.46706E-01-5.68772E-14-2.47205E-14
 -1      1822 1.97636E+01 9.73028E-02-4.42693E-03 2.06917E-01-8.83180E-14-5.41732E-14
 -1      1823 1.96922E+01 4.53567E-02 2.75225E-03 2.89475E-01-6.21994E-14-4.96375E-15
 -1      1824 1.97937E+01 4.34482E-02 4.32299E-03 3.16660E-01-6.95316E-14 7.20962E-15
 -1      1825 1.98128E+01 7.23169E-02-3.53449E-03 3.22443E-01-5.36117E-14-5.25222E-14
 -1      1826 1.98602E+01 4.26754E-02 1.63288E-03 3.53874E-01-6.30809E-14 2.04858E-14
 -1      1827 1.99897E+01 4.48280E-02 4.40291E-03 3.80363E-01-1.43538E-14 3.35647E-15
 -1      1828 1.99226E+01 6.48603E-02-2.89174E-03 4.14288E-01-4.57573E-14-5.32975E-15
 -1      1829 2.00789E+01 4.67755E-02 1.07705E-03 4.18107E-01-3.70128E-14-8.89566E-15
 -1      1830 2.02351E+01 5.16295E-02 4.73435E-03 4.47559E-01-5.38390E-14 2.82848E-14
 -1      1831 2.00816E+01 6.87778E-02-2.52046E-03 4.99783E-01-3.47463E-14-2.59933E-14
 -1      1832 2.03456E+01 5.52192E-02 8.17899E-04 4.89762E-01-5.98862E-14 1.59363E-14
 -1      1833 2.05300E+01 6.15069E-02 5.14841E-03 5.24365E-01-1.02401E-14-1.19950E-14
 -1      1834 2.02844E+01 8.00298E-02-2.36698E-03 5.90237E-01-6.93988E-14-4.35639E-14
 -1      1835 2.06620E+01 6.55169E-02 6.93690E-04 5.73008E-01-3.67701E-14-7.65506E-14
 -1      1836 2.08772E+01 7.15837E-02 5.42443E-03 6.13322E-01-6.79459E-14-1.28145E-13
 -1      1837 2.05302E+01 9.48540E-02-2.36486E-03 6.92349E-01-8.47430E-14-9.31370E-14
 -1      1838 2.10318E+01 7.42493E-02 5.90533E-04 6.68008E-01-3.18708E-14-1.52326E-13
 -1      1839 2.12799E+01 7.75146E-02 5.23319E-03 7.12267E-01-5.11759E-14-1.10278E-13
 -1      1840 2.08202E+01 1.08375E-01-2.46104E-03 8.08002E-01-4.73121E-14-1.16103E-13
 -1      1841 2.14586E+01 7.60411E-02 4.31471E-04 7.69153E-01-5.86280E-14-7.38662E-14
 -1      1842 2.17384E+01 7.23521E-02 4.09604E-03 8.11954E-01-7.80561E-15-4.18472E-14
 -1      1843 2.11571E+01 1.13103E-01-2.62818E-03 9.32701E-01-1.71115E-14-3.44943E-14
 -1      1844 2.19428E+01 6.23703E-02 1.94595E-04 8.61937E-01-1.23459E-14-6.26571E-14
 -1      1845 2.22466E+01 4.54047E-02 1.38873E-03 8.92305E-01-3.28546E-15-3.97848E-14
 -1      1846 2.15432E+01 9.72067E-02-2.87136E-03 1.05252E+00-4.10166E-14 1.68989E-14
 -1      1847 2.24774E+01 2.06553E-02-5.61781E-05 9.18585E-01-2.49911E-14-7.66453E-14
 -1      1848 2.27872E+01-1.79841E-02-3.52620E-03 9.17818E-01-3.73496E-14-5.85760E-14
 -1      1849 2.19792E+01 4.31058E-02-3.21548E-03 1.13964E+00-5.25278E-14-7.99961E-14
 -1      1850 2.30435E+01-6.48568E-02-1.55285E-04 8.93617E-01-6.74296E-14-3.35365E-14
 -1      1851 2.33260E+01-1.33327E-01-1.09221E-02 8.34486E-01-4.11832E-14-9.36924E-15
 -1      1852 2.24629E+01-7.16983E-02-3.61930E-03 1.14735E+00-1.54818E-14-8.28346E-14
 -1      1853 2.36026E+01-2.07097E-01 5.91387E-07 7.23306E-01 2.20770E-14 6.42281E-15
 -1      1854 2.38070E+01-3.05848E-01-1.98203E-02 5.74240E-01 7.96811E-14-1.62114E-14
 -1      1855 2.29858E+01-2.67090E-01-3.73903E-03 1.00774E+00-5.40193E-15 9.88753E-14
 -1      1856 2.40866E+01-3.99029E-01 1.98664E-04 3.38190E-01 7.21801E-14 1.24623E-14
 -1      1857 2.41494E+01-5.05857E-01-2.69662E-02 7.90281E-02 3.60476E-14-8.72707E-15
 -1      1858 2.35254E+01-5.38763E-01-2.41245E-03 6.39762E-01 3.81327E-14 1.10115E-13
 -1      1859 2.43872E+01-5.83693E-01-1.75202E-03-2.94313E-01-2.66124E-14 1.67331E-14
 -1      1860 2.42526E+01-6.37077E-01-2.64478E-02-6.40653E-01-2.36096E-14 2.30432E-14
 -1      1861 2.40255E+01-8.15530E-01 2.26612E-03-1.63104E-02 2.69507E-14 9.21777E-14
 -1      1862 2.43673E+01-6.27528E-01-7.27285E-03-1.08884E+00-4.27731E-14 7.93853E-15
 -1      1863 2.40238E+01-5.37716E-01-1.30561E-02-1.41710E+00-4.58964E-14-3.56191E-14
 -1      1864 2.43725E+01-9.26390E-01 9.98331E-03-9.18621E-01-7.24941E-14 6.32229E-14
 -1      1865 2.39254E+01-3.64907E-01-1.85788E-02-1.75948E+00-4.96304E-14-1.66204E-14
 -1      1866 2.34509E+01-7.91241E-02 9.65447E-03-1.88556E+00-1.06870E-13-4.40360E-14
 -1      1867 2.44076E+01-6.34111E-01 1.53049E-02-1.81946E+00-7.05436E-14 5.57310E-14
 -1      1868 2.31484E+01 2.50385E-01-2.25093E-02-1.85567E+00-9.87231E-14-5.99295E-14
 -1      1869 2.27131E+01 6.18172E-01 2.46766E-02-1.61205E+00-6.16469E-14-5.92373E-14
 -1      1870 2.40316E+01 1.45914E-01-6.60800E-04-2.21436E+00-1.04854E-13 4.81943E-14
 -1      1871 2.24073E+01 9.19168E-01-1.33498E-02-1.08457E+00-1.11331E-13 1.24258E-14
 -1      1872 2.22139E+01 1.11580E+00 1.40193E-02-5.08629E-01-8.70588E-14 7.46803E-14
 -1      1873 2.34462E+01 1.13212E+00-2.29995E-02-1.63479E+00-5.66179E-14 6.54047E-14
 -1      1874 2.21875E+01 1.14212E+00 9.57060E-03 2.89988E-01-5.83977E-14 2.02785E-14
 -1      1875 2.23322E+01 9.96470E-01-1.13642E-02 8.94963E-01-1.34164E-14-4.18086E-14
 -1      1876 2.31189E+01 1.62864E+00-4.58114E-02-1.32541E-01-8.18234E-14 9.93691E-14
 -1      1877 2.26110E+01 7.27462E-01 2.35985E-02 1.49276E+00-5.33809E-14-1.57600E-13
 -1      1878 2.30220E+01 3.66636E-01-2.38381E-02 1.80135E+00-7.74242E-14-2.18353E-13
 -1      1879 2.33676E+01 1.25897E+00-3.11666E-02 1.45016E+00-7.46000E-14-3.64128E-14
 -1      1880 2.33492E+01 2.60585E-02 1.36026E-02 1.90888E+00-6.76889E-14-1.88844E-13
 -1      1881 2.38342E+01-2.84124E-01-1.88777E-02 1.83580E+00-6.80601E-14-1.43371E-13
 -1      1882 2.39567E+01 3.17986E-01 4.50497E-04 2.21085E+00-5.22759E-14-1.62037E-13
 -1      1883 2.39744E+01-4.87297E-01-8.98501E-03 1.53752E+00-4.84482E-14-7.33198E-14
 -1      1884 2.43517E+01-6.07967E-01-8.22995E-03 1.22873E+00 4.14287E-14-2.91460E-14
 -1      1885 2.43920E+01-5.34402E-01 1.59557E-02 1.94563E+00 3.76481E-14 1.08429E-14
 -1      1886 2.42698E+01-6.38601E-01-2.49139E-02 7.83627E-01 9.24677E-14-7.47111E-14
 -1      1887 2.44456E+01-6.00887E-01-1.71311E-03 4.32629E-01 1.63336E-13-6.35197E-14
 -1      1888 2.44287E+01-9.08787E-01 1.17999E-02 1.09223E+00 7.82100E-14-4.12847E-14
 -1      1889 2.42264E+01-5.30678E-01-2.74125E-02 4.34599E-02 8.35183E-14-2.20976E-13
 -1      1890 2.42006E+01-4.26257E-01 4.51251E-04-2.30040E-01-1.42417E-13-2.53982E-13
 -1      1891 2.41299E+01-8.44604E-01 3.31952E-03 1.72020E-01 1.37911E-14-1.69274E-13
 -1      1892 2.39310E+01-3.31640E-01-2.10677E-02-4.84113E-01-2.20501E-13-1.46694E-13
 -1      1893 2.37561E+01-2.28589E-01 5.04187E-04-6.46414E-01-8.40474E-14-1.35049E-13
 -1      1894 2.36577E+01-5.77485E-01-2.14109E-03-5.21964E-01-4.74638E-14-2.10236E-13
 -1      1895 2.34866E+01-1.50257E-01-1.21234E-02-7.70142E-01-5.46997E-14-1.38425E-13
 -1      1896 2.32273E+01-7.58502E-02 4.02383E-04-8.37215E-01-1.32776E-14-1.44520E-13
 -1      1897 2.31362E+01-2.95972E-01-3.83805E-03-9.22841E-01-9.60187E-14 4.83120E-14
 -1      1898 2.29785E+01-2.41926E-02-4.37403E-03-8.66637E-01-2.15085E-14-2.12815E-13
 -1      1899 2.26887E+01 1.96678E-02 5.68552E-04-8.69477E-01-5.80594E-14-2.28442E-13
 -1      1900 2.26292E+01-8.50652E-02-3.89271E-03-1.08116E+00-5.77394E-14-5.88243E-14
 -1      1901 2.24675E+01 4.81032E-02 9.40639E-04-8.42034E-01-5.93737E-14-2.18695E-13
 -1      1902 2.21840E+01 6.88453E-02 8.86486E-04-8.09042E-01 2.97763E-14-1.93175E-13
 -1      1903 2.21638E+01 4.39000E-02-3.52301E-03-1.07721E+00-2.17284E-14-2.42193E-13
 -1      1904 2.19919E+01 8.12672E-02 3.94265E-03-7.53332E-01-5.34340E-14-1.65844E-13
 -1      1905 2.17354E+01 8.74030E-02 1.19700E-03-7.04683E-01-3.12632E-14-2.39031E-13
 -1      1906 2.17507E+01 1.08388E-01-3.16696E-03-9.82082E-01-9.07998E-15-3.13990E-13
 -1      1907 2.15719E+01 9.02498E-02 5.24074E-03-6.39231E-01-5.22369E-16-3.31250E-13
 -1      1908 2.13517E+01 8.83508E-02 1.39721E-03-5.87222E-01 3.99628E-14-2.31895E-13
 -1      1909 2.13930E+01 1.30948E-01-2.87585E-03-8.46329E-01-4.56861E-14-2.42172E-13
 -1      1910 2.12150E+01 8.61480E-02 5.45861E-03-5.22644E-01-1.26049E-15-1.75163E-13
 -1      1911 2.10329E+01 8.04888E-02 1.46435E-03-4.73828E-01-7.66481E-14-2.47555E-13
 -1      1912 2.10900E+01 1.29744E-01-2.61542E-03-7.01299E-01-2.81372E-15-1.68341E-13
 -1      1913 2.09207E+01 7.60346E-02 5.08053E-03-4.15442E-01 1.31591E-13-1.34420E-13
 -1      1914 2.07744E+01 6.91059E-02 1.42188E-03-3.72742E-01 2.32890E-13-2.28813E-14
 -1      1915 2.08386E+01 1.16905E-01-2.35380E-03-5.64231E-01 1.39050E-13 1.72813E-14
 -1      1916 2.06841E+01 6.39801E-02 4.43013E-03-3.22655E-01 1.83798E-13-4.59366E-14
 -1      1917 2.05693E+01 5.71010E-02 1.30716E-03-2.86916E-01 5.94249E-14 7.19148E-14
 -1      1918 2.06340E+01 9.96516E-02-2.08031E-03-4.43216E-01 1.30383E-13 8.25294E-14
 -1      1919 2.04978E+01 5.21223E-02 3.70130E-03-2.45439E-01-1.30625E-14 1.44959E-13
 -1      1920 2.04096E+01 4.59145E-02 1.15463E-03-2.16425E-01-7.29033E-14 2.00997E-13
 -1      1921 2.04706E+01 8.19027E-02-1.80007E-03-3.40923E-01 8.07167E-14 2.55747E-13
 -1      1922 2.03540E+01 4.14607E-02 2.99887E-03-1.82953E-01-1.34569E-13 2.02570E-13
 -1      1923 2.02876E+01 3.61583E-02 9.90122E-04-1.59929E-01-4.24333E-14 2.18263E-13
 -1      1924 2.03424E+01 6.55746E-02-1.52454E-03-2.57059E-01-7.22499E-14 3.99871E-13
 -1      1925 2.02452E+01 3.23655E-02 2.37222E-03-1.33459E-01-4.76181E-14 2.07744E-13
 -1      1926 2.01963E+01 2.80014E-02 8.30612E-04-1.15516E-01 1.22621E-13 1.92244E-13
 -1      1927 2.02436E+01 5.14519E-02-1.26497E-03-1.89877E-01-5.33045E-14 3.82152E-13
 -1      1928 2.01645E+01 2.48812E-02 1.83858E-03-9.49271E-02 2.51698E-13 4.46762E-15
 -1      1929 2.01294E+01 2.13924E-02 6.85826E-04-8.11479E-02 1.76042E-13 9.44339E-14
 -1      1930 2.01689E+01 3.97198E-02-1.02914E-03-1.37051E-01-6.60762E-15 3.38203E-13
 -1      1931 2.01060E+01 1.88972E-02 1.39736E-03-6.53536E-02 2.04128E-13 1.63183E-13
 -1      1932 2.00815E+01 1.61801E-02 5.59045E-04-5.48918E-02 3.50299E-13 3.97900E-13
 -1      1933 2.01135E+01 3.02687E-02-8.20719E-04-9.61503E-02 2.58589E-13 1.91070E-13
 -1      1934 2.00649E+01 1.42342E-02 1.03829E-03-4.29117E-02 2.73181E-13 4.07465E-13
 -1      1935 2.00485E+01 1.21673E-02 4.46858E-04-3.50303E-02 2.99966E-13 2.79254E-13
 -1      1936 2.00734E+01 2.28530E-02-6.40969E-04-6.48908E-02 3.28124E-13 3.20916E-13
 -1      1937 2.00368E+01 1.06770E-02 7.45851E-04-2.60347E-02 2.80299E-13 3.36718E-13
 -1      1938 2.00266E+01 9.13202E-03 3.50846E-04-2.01392E-02 3.02928E-13 4.46777E-13
 -1      1939 2.00451E+01 1.71644E-02-4.85364E-04-4.12673E-02 3.13862E-13 4.52392E-13
 -1      1940 2.00186E+01 7.89932E-03 4.90375E-04-1.34399E-02 2.39352E-14 2.66546E-13
 -1      1941 2.00129E+01 6.64848E-03 2.57548E-04-9.15717E-03-1.96069E-13 1.89268E-13
 -1      1942 2.00257E+01 1.28641E-02-3.36986E-04-2.36482E-02 2.42406E-14 1.92208E-13
 -1      1943 2.00080E+01 5.47455E-03 3.39573E-04-4.63985E-03-1.55863E-13 1.83550E-13
 -1      1944 2.00052E+01 4.05815E-03 1.89251E-04-1.98826E-03-2.34260E-13 2.19511E-13
 -1      1945 2.00056E+01 4.68234E-03-2.19447E-04-2.88963E-03-1.87436E-13 4.34053E-13
 -1      1946 2.00131E+01 8.80926E-03-3.46576E-04-1.10930E-02-1.82652E-13 1.00653E-13
 -1      1947 1.96510E+01 1.47378E-01 8.36878E-03 2.23094E-01 1.84415E-13 5.11672E-13
 -1      1948 1.99066E+01 2.08314E-01 1.67627E-02 3.99488E-01 1.87971E-13 6.04862E-13
 -1      1949 2.01228E+01 3.55467E-01-1.82216E-03 6.14009E-01 2.29847E-13 4.23111E-13
 -1      1950 1.94484E+01 8.03249E-02 7.55785E-03 7.67034E-03 1.49563E-13 3.97363E-13
 -1      1951 1.95419E+01 1.09074E-01 1.46373E-02 1.01971E-01 1.46579E-13 4.59261E-13
 -1      1952 1.97621E+01 1.74403E-01-2.33533E-03 2.02945E-01 1.85889E-13 3.28380E-13
 -1      1953 1.94113E+01 4.79762E-02 5.22593E-03-1.15959E-01 8.32919E-14 3.44884E-13
 -1      1954 1.94126E+01 6.25908E-02 8.94749E-03-6.02983E-02 1.15412E-13 3.80802E-13
 -1      1955 1.96045E+01 9.45016E-02-3.31578E-03-2.79158E-02 1.44226E-13 2.57835E-13
 -1      1956 1.94813E+01 3.19012E-02 3.88532E-03-1.93060E-01 1.21823E-14 2.81674E-13
 -1      1957 1.94271E+01 3.94845E-02 5.15692E-03-1.56926E-01 2.90659E-14 3.24431E-13
 -1      1958 1.95824E+01 5.64252E-02-3.47133E-03-1.66105E-01 5.51902E-14 2.19006E-13
 -1      1959 1.96239E+01 2.45808E-02 3.26884E-03-2.46968E-01 8.57259E-14 2.40395E-13
 -1      1960 1.95334E+01 2.82831E-02 3.15839E-03-2.20545E-01 2.75204E-14 2.45069E-13
 -1      1961 1.96513E+01 3.83305E-02-3.11441E-03-2.56276E-01 5.56139E-14 1.13156E-13
 -1      1962 1.98200E+01 2.23896E-02 2.99450E-03-2.90823E-01 8.73985E-14 2.35857E-13
 -1      1963 1.97030E+01 2.38562E-02 2.16734E-03-2.68479E-01 1.04822E-13 2.56269E-13
 -1      1964 1.97846E+01 3.10003E-02-2.69781E-03-3.22625E-01 9.51845E-14 9.60192E-14
 -1      1965 2.00604E+01 2.30938E-02 2.85307E-03-3.32276E-01 7.78945E-14 1.66912E-13
 -1      1966 1.99211E+01 2.34022E-02 1.68090E-03-3.10661E-01 7.73476E-14 2.01417E-13
 -1      1967 1.99672E+01 2.97916E-02-2.40394E-03-3.79074E-01 1.10066E-13 1.14796E-13
 -1      1968 2.03411E+01 2.48454E-02 2.71624E-03-3.75187E-01-4.78090E-15 1.60364E-13
 -1      1969 2.01811E+01 2.48945E-02 1.42598E-03-3.52572E-01 5.69564E-14 1.74081E-13
 -1      1970 2.01914E+01 3.16273E-02-2.25607E-03-4.33455E-01 6.87614E-14 1.05920E-13
 -1      1971 2.06604E+01 2.56433E-02 2.45787E-03-4.19936E-01 1.20206E-13 1.38535E-13
 -1      1972 2.04803E+01 2.63750E-02 1.23142E-03-3.96148E-01 4.44735E-14 1.51199E-13
 -1      1973 2.04536E+01 3.37302E-02-2.21785E-03-4.88964E-01 4.46748E-14 9.37648E-14
 -1      1974 2.10159E+01 2.29648E-02 1.92504E-03-4.62936E-01 1.32988E-13 1.58029E-13
 -1      1975 2.08171E+01 2.55095E-02 9.56848E-04-4.39660E-01 1.13863E-13 1.71593E-13
 -1      1976 2.07516E+01 3.29123E-02-2.23185E-03-5.44212E-01 1.09197E-13 4.93920E-14
 -1      1977 2.14013E+01 1.35284E-02 9.43781E-04-4.95600E-01 8.29840E-14 4.74057E-15
 -1      1978 2.11880E+01 1.92749E-02 4.69833E-04-4.76940E-01 1.27475E-13 8.39502E-14
 -1      1979 2.10823E+01 2.51068E-02-2.22084E-03-5.92438E-01 1.59903E-13 1.10089E-14
 -1      1980 2.18023E+01-6.65189E-03-6.34658E-04-5.03127E-01 1.46536E-14-1.08059E-13
 -1      1981 2.15838E+01 3.84898E-03-3.47435E-04-4.96281E-01 3.99583E-15-7.40404E-14
 -1      1982 2.14388E+01 5.19080E-03-2.07291E-03-6.20258E-01 7.25590E-14-3.92932E-14
 -1      1983 2.21930E+01-4.15100E-02-2.82849E-03-4.63885E-01-5.18381E-14-3.62280E-14
 -1      1984 2.19861E+01-2.49981E-02-1.56378E-03-4.79536E-01-1.28398E-14-1.01789E-13
 -1      1985 2.18072E+01-3.25320E-02-1.61807E-03-6.06577E-01-1.01569E-14-1.08893E-13
 -1      1986 2.25322E+01-9.28034E-02-5.36054E-03-3.51061E-01 6.26235E-16-1.85607E-14
 -1      1987 2.23631E+01-7.04386E-02-3.14903E-03-4.02658E-01-2.13354E-14-7.32053E-15
 -1      1988 2.21638E+01-9.24314E-02-6.12230E-04-5.22999E-01-4.10557E-14-2.23374E-14
 -1      1989 2.27633E+01-1.55943E-01-7.46667E-03-1.39388E-01 4.27171E-14 3.82572E-15
 -1      1990 2.26664E+01-1.31278E-01-4.90234E-03-2.39846E-01-8.17749E-15-5.60836E-15
 -1      1991 2.24718E+01-1.73275E-01 1.23466E-03-3.38197E-01 2.30501E-14 4.21191E-14
 -1      1992 2.28190E+01-2.14265E-01-7.92451E-03 1.79751E-01 4.03306E-14 1.88372E-13
 -1      1993 2.28323E+01-1.96558E-01-6.39335E-03 2.56326E-02 7.63261E-14 1.47071E-13
 -1      1994 2.26806E+01-2.61217E-01 4.13382E-03-2.97588E-02 2.69663E-15 1.02708E-13
 -1      1995 2.26378E+01-2.35537E-01-5.69360E-03 5.74418E-01-1.88175E-13 1.01081E-13
 -1      1996 2.27907E+01-2.40194E-01-7.10656E-03 3.81978E-01-7.60685E-14 1.32428E-13
 -1      1997 2.27295E+01-3.22575E-01 7.78594E-03 3.93713E-01-3.18929E-14 1.94176E-13
 -1      1998 2.21934E+01-1.79151E-01-1.01374E-03 9.48686E-01-1.84543E-13 1.51460E-13
 -1      1999 2.24889E+01-2.22056E-01-6.44796E-03 7.65023E-01-2.20968E-13 8.60666E-14
 -1      2000 2.25631E+01-3.05268E-01 1.06962E-02 8.63741E-01-2.31527E-13 9.35215E-14
 -1      2001 2.15365E+01-2.37761E-02 3.55637E-03 1.14613E+00 1.70090E-14 1.79886E-13
 -1      2002 2.19323E+01-1.06773E-01-3.79244E-03 1.04746E+00-9.14446E-14 1.57815E-13
 -1      2003 2.21644E+01-1.61710E-01 1.03399E-02 1.23452E+00-1.26617E-13 2.16337E-14
 -1      2004 2.08274E+01 1.94189E-01 4.15370E-03 1.01423E+00 1.90598E-13 1.47909E-13
 -1      2005 2.12291E+01 9.78418E-02 9.77502E-04 1.07234E+00 1.19153E-13 1.62974E-13
 -1      2006 2.16026E+01 1.03414E-01 4.51520E-03 1.31402E+00 7.67823E-14 5.39976E-14
 -1      2007 2.03102E+01 3.75736E-01-2.95031E-04 5.15920E-01 4.68410E-14 4.02421E-14
 -1      2008 2.05924E+01 3.15650E-01 6.86953E-03 7.44911E-01 1.16528E-13 7.58109E-14
 -1      2009 2.10554E+01 3.99230E-01-5.13505E-03 9.68708E-01 1.62240E-13-8.37004E-15
 -1      2010 2.02073E+01 4.13270E-01-5.40075E-03-1.92364E-01-2.20397E-14 7.27829E-14
 -1      2011 2.02643E+01 4.29135E-01 1.17884E-02 1.29978E-01-3.88665E-14 6.76543E-14
 -1      2012 2.07540E+01 5.77534E-01-1.16533E-02 2.49585E-01-2.01714E-14-7.30969E-15
 -1      2013 2.05755E+01 2.83372E-01-5.84142E-03-8.23183E-01-8.19596E-14 1.87426E-13
 -1      2014 2.03798E+01 3.68045E-01 1.27247E-02-5.39428E-01-3.05971E-14 1.08739E-13
 -1      2015 2.08461E+01 5.32819E-01-9.61858E-03-5.74580E-01-7.51222E-14 5.66882E-14
 -1      2016 2.12606E+01 6.77048E-02-9.99622E-04-1.13859E+00 1.57774E-13 1.69616E-13
 -1      2017 2.08827E+01 1.72202E-01 8.51905E-03-9.95961E-01 4.92453E-14 1.80626E-13
 -1      2018 2.12867E+01 2.92023E-01-1.54922E-03-1.16818E+00 7.72073E-14 3.90087E-14
 -1      2019 2.19994E+01-1.20049E-01 4.59497E-03-1.08530E+00 1.35521E-13 3.48555E-13
 -1      2020 2.15689E+01-4.51638E-02 1.20329E-03-1.10259E+00 1.40923E-13 3.26997E-13
 -1      2021 2.18721E+01-1.15990E-02 4.12691E-03-1.33986E+00 1.11201E-13 2.20424E-13
 -1      2022 2.25722E+01-2.15772E-01 7.44773E-03-7.76386E-01-4.50473E-14 2.47398E-13
 -1      2023 2.22104E+01-1.89640E-01-5.52616E-03-9.02907E-01 2.76732E-14 3.22758E-13
 -1      2024 2.23836E+01-2.38047E-01 4.76258E-03-1.12468E+00 3.81483E-14 3.04756E-13
 -1      2025 2.28776E+01-2.21802E-01 6.85253E-03-3.79227E-01 4.38018E-15 2.83484E-13
 -1      2026 2.26538E+01-2.34560E-01-9.20328E-03-5.43912E-01 1.86023E-14 3.38057E-13
 -1      2027 2.26928E+01-3.29445E-01 2.33947E-03-6.96965E-01 8.68489E-15 3.78070E-13
 -1      2028 2.29201E+01-1.74828E-01 4.44864E-03-2.23845E-02 2.05449E-13 2.00694E-13
 -1      2029 2.28465E+01-2.06161E-01-9.62935E-03-1.71524E-01 1.11657E-13 2.01141E-13
 -1      2030 2.27752E+01-3.07190E-01 2.34746E-05-2.38891E-01 1.73131E-13 3.57990E-13
 -1      2031 2.27605E+01-1.11740E-01 1.85056E-03 2.33740E-01 9.09745E-14-1.77510E-14
 -1      2032 2.28114E+01-1.45120E-01-7.90868E-03 1.25503E-01 1.55488E-13 7.08088E-14
 -1      2033 2.26696E+01-2.26510E-01-1.10463E-03 1.34601E-01 2.49007E-13 1.54336E-13
 -1      2034 2.24735E+01-5.50149E-02-1.87796E-05 3.81783E-01 2.54476E-13-3.09660E-13
 -1      2035 2.26086E+01-8.18968E-02-5.32550E-03 3.17956E-01 1.89196E-13-6.87432E-14
 -1      2036 2.24363E+01-1.34671E-01-1.26101E-03 3.82302E-01 2.63228E-13-7.52131E-14
 -1      2037 2.21251E+01-1.33621E-02-1.00623E-03 4.41613E-01 1.67703E-14-3.05859E-13
 -1      2038 2.23051E+01-3.14212E-02-2.77252E-03 4.14380E-01 1.66999E-13-2.94635E-13
 -1      2039 2.21329E+01-5.77631E-02-9.85145E-04 5.11196E-01 2.38028E-13-1.90077E-13
 -1      2040 2.17641E+01 1.28618E-02-1.32581E-03 4.40702E-01-1.95288E-13-1.38964E-13
 -1      2041 2.19580E+01 2.66200E-03-7.20602E-04 4.38951E-01-1.46651E-13-2.27487E-13
 -1      2042 2.18048E+01-4.06637E-03-6.71662E-04 5.49276E-01-1.78975E-13-1.80074E-13
 -1      2043 2.14220E+01 2.68097E-02-1.25479E-03 4.03826E-01-1.77364E-14-7.38697E-14
 -1      2044 2.16092E+01 2.23968E-02 6.94615E-04 4.17415E-01-1.21563E-13-7.05993E-14
 -1      2045 2.14834E+01 2.80287E-02-4.72754E-04 5.27763E-01-1.58904E-13 1.89918E-14
 -1      2046 2.11165E+01 3.22854E-02-1.01079E-03 3.49531E-01-4.81863E-15 1.03908E-13
 -1      2047 2.12850E+01 3.16175E-02 1.52903E-03 3.70789E-01 5.03738E-14-3.29580E-14
 -1      2048 2.11882E+01 4.37737E-02-3.92344E-04 4.72811E-01 2.04894E-14 1.25031E-13
 -1      2049 2.08553E+01 3.25232E-02-7.26891E-04 2.90103E-01-2.67954E-13 1.47534E-14
 -1      2050 2.09998E+01 3.40023E-02 1.91446E-03 3.13890E-01-1.25987E-13 2.67238E-14
 -1      2051 2.09294E+01 4.86589E-02-3.85016E-04 4.03253E-01-5.14311E-14 1.45472E-13
 -1      2052 2.06395E+01 2.98796E-02-4.69345E-04 2.32854E-01 1.68437E-14 1.09840E-13
 -1      2053 2.07588E+01 3.24014E-02 1.99219E-03 2.56065E-01-6.79359E-14 7.08616E-14
 -1      2054 2.07106E+01 4.70937E-02-4.05373E-04 3.31237E-01-1.34861E-13 7.02588E-14
 -1      2055 2.04663E+01 2.59151E-02-2.62699E-04 1.81596E-01-2.04569E-13 1.92835E-13
 -1      2056 2.05617E+01 2.87810E-02 1.88179E-03 2.02573E-01-6.40862E-14 1.39538E-13
 -1      2057 2.05309E+01 4.21792E-02-4.23908E-04 2.63784E-01-1.37056E-13 9.20853E-14
 -1      2058 2.03308E+01 2.15893E-02-1.09571E-04 1.37879E-01 7.18826E-15 2.06522E-13
 -1      2059 2.04050E+01 2.43921E-02 1.67210E-03 1.55910E-01-1.29443E-13 1.90614E-13
 -1      2060 2.03872E+01 3.59101E-02-4.27148E-04 2.04380E-01-1.70841E-13 2.53825E-13
 -1      2061 2.02273E+01 1.74492E-02-2.97212E-06 1.01888E-01 3.26922E-14 1.34986E-13
 -1      2062 2.02836E+01 1.99752E-02 1.42320E-03 1.16840E-01 1.17501E-13 2.44823E-13
 -1      2063 2.02751E+01 2.94762E-02-4.12622E-04 1.54250E-01 5.31086E-14 2.84279E-13
 -1      2064 2.01504E+01 1.37765E-02 6.70234E-05 7.30519E-02-1.15636E-13 1.25569E-13
 -1      2065 2.01919E+01 1.59323E-02 1.17233E-03 8.51196E-02-2.64022E-14 1.09179E-13
 -1      2066 2.01896E+01 2.35290E-02-3.83477E-04 1.13272E-01 6.56419E-15 2.80080E-13
 -1      2067 2.00947E+01 1.06905E-02 1.10040E-04 5.04343E-02 3.48837E-13 5.70603E-14
 -1      2068 2.01244E+01 1.24536E-02 9.40061E-04 5.99782E-02 1.71216E-13 8.99537E-14
 -1      2069 2.01260E+01 1.83817E-02-3.44847E-04 8.06016E-02 2.10725E-13 2.34845E-13
 -1      2070 2.00558E+01 8.20310E-03 1.30897E-04 3.29599E-02 1.33508E-13-4.37150E-14
 -1      2071 2.00763E+01 9.60264E-03 7.36064E-04 4.04127E-02 1.93854E-13 3.31849E-14
 -1      2072 2.00800E+01 1.41463E-02-3.00893E-04 5.50528E-02 2.07629E-13 2.21098E-13
 -1      2073 2.00300E+01 6.24385E-03 1.31094E-04 1.96341E-02-4.35535E-14 1.18864E-14
 -1      2074 2.00433E+01 7.32604E-03 5.59109E-04 2.53963E-02-6.39549E-15 5.88095E-14
 -1      2075 2.00478E+01 1.07463E-02-2.65138E-04 3.53685E-02-4.35178E-14 1.42955E-13
 -1      2076 2.00140E+01 4.72208E-03 1.08032E-04 9.58807E-03 4.14662E-14 1.43992E-13
 -1      2077 2.00218E+01 5.56428E-03 4.05672E-04 1.40262E-02 3.05649E-14 5.69329E-14
 -1      2078 2.00263E+01 8.10317E-03-2.28314E-04 2.04360E-02 4.67028E-14 2.42566E-13
 -1      2079 2.00052E+01 3.31744E-03 1.37090E-04 2.38843E-03 1.44405E-13 4.15536E-14
 -1      2080 2.00090E+01 4.05610E-03 2.65509E-04 5.57854E-03 1.10177E-13 1.09387E-13
 -1      2081 2.00126E+01 5.95363E-03-1.77882E-04 9.30919E-03 7.66257E-14 3.81080E-13
 -1      2082 2.00019E+01 1.67532E-03 1.61745E-04-8.94457E-04 1.76956E-13 2.69994E-13
 -1      2083 2.00032E+01 2.90060E-03 1.59668E-04 8.14534E-04 2.37154E-13 2.37582E-13
 -1      2084 2.00057E+01 4.35396E-03-8.87371E-05 2.87022E-03 1.76522E-13 4.82543E-13
 -1      2085 2.00027E+01 2.08145E-03 4.73933E-05-2.52730E-04 9.05383E-14 5.72756E-13
 -1      2086 2.00020E+01 2.68124E-02-1.02444E-04 1.52048E-02 8.37738E-14-1.01996E-14
 -1      2087 2.00033E+01 2.19160E-02 1.99676E-04 1.36290E-02 5.49130E-14-4.47061E-15
 -1      2088 2.00042E+01 1.56839E-02-1.77704E-05 1.09979E-02 1.14317E-13 2.83915E-14
 -1      2089 2.00048E+01 1.18732E-02 1.82963E-04 8.29211E-03 8.83712E-14 3.50102E-13
 -1      2090 2.00056E+01 2.41722E-02-5.34763E-05 1.69929E-02-4.94942E-14-8.48377E-15
 -1      2091 2.00044E+01 7.45355E-03 5.22868E-05 5.12170E-03 8.60464E-14 6.55628E-13
 -1      2092 2.00040E+01 5.03540E-03 1.21149E-04 2.60051E-03 7.28346E-14 5.88802E-13
 -1      2093 2.00056E+01 6.39021E-03 6.00381E-05 3.98304E-03 1.71394E-13 5.28416E-13
 -1      2094 2.00066E+01 1.36567E-02-1.35874E-04 1.03232E-02-4.16930E-14 5.40298E-13
 -1      2095 1.99994E+01 3.84439E-02-1.84341E-04 1.63215E-02-1.36133E-13-8.56899E-13
 -1      2096 2.00008E+01 3.32308E-02 1.32026E-04 1.61717E-02 1.64726E-14-1.73512E-13
 -1      2097 2.00022E+01 3.66893E-02 1.20187E-05 2.08638E-02-7.87803E-14-3.05555E-13
 -1      2098 1.99969E+01 4.91947E-02-2.45607E-04 1.40604E-02-1.26527E-13-4.26191E-13
 -1      2099 1.99982E+01 4.44650E-02 2.76282E-05 1.53768E-02-7.69766E-14-5.41991E-13
 -1      2100 1.99984E+01 4.90874E-02 1.33708E-04 2.07733E-02-1.59012E-13-5.91013E-13
 -1      2101 1.99951E+01 5.70302E-02-2.70949E-04 8.89606E-03-4.11617E-14 1.21279E-13
 -1      2102 1.99959E+01 5.37919E-02-8.85322E-05 1.13749E-02 1.57888E-14-2.71495E-13
 -1      2103 1.99949E+01 5.96679E-02 2.26832E-04 1.65449E-02-2.38882E-14-4.16432E-13
 -1      2104 1.99943E+01 6.06227E-02-2.51910E-04 1.92091E-03-9.93248E-14 2.45548E-13
 -1      2105 1.99946E+01 5.95122E-02-1.87160E-04 5.03169E-03-2.20518E-13 3.50393E-13
 -1      2106 1.99926E+01 6.67276E-02 2.89943E-04 9.04050E-03-3.02884E-14 1.08524E-13
 -1      2107 1.99946E+01 5.93660E-02-1.88265E-04-5.45187E-03-1.73201E-14-1.18316E-13
 -1      2108 1.99943E+01 6.06060E-02-2.50187E-04-2.35306E-03 1.45821E-14 1.23193E-13
 -1      2109 1.99918E+01 6.91877E-02 3.12599E-04-2.52558E-04-2.34440E-13 3.20198E-13
 -1      2110 1.99960E+01 5.34891E-02-9.07304E-05-1.17307E-02-1.74412E-13-3.28693E-13
 -1      2111 1.99951E+01 5.68485E-02-2.67491E-04-9.29169E-03-5.81449E-14-2.72473E-13
 -1      2112 1.99926E+01 6.66592E-02 2.90268E-04-9.51943E-03-2.40810E-13-2.29080E-13
 -1      2113 1.99983E+01 4.42224E-02 2.72813E-05-1.55697E-02-1.11375E-13-3.38788E-13
 -1      2114 1.99970E+01 4.89384E-02-2.44010E-04-1.43259E-02-1.87511E-13-2.39273E-13
 -1      2115 1.99951E+01 5.96019E-02 2.33321E-04-1.68977E-02-9.04063E-14-3.78860E-13
 -1      2116 2.00010E+01 3.28357E-02 1.36528E-04-1.62366E-02-7.53198E-14 2.68598E-13
 -1      2117 1.99995E+01 3.81723E-02-1.85150E-04-1.64630E-02-1.20546E-14-1.91106E-14
 -1      2118 1.99985E+01 4.90487E-02 1.35005E-04-2.09758E-02 5.69407E-14-1.72280E-13
 -1      2119 2.00035E+01 2.13619E-02 1.98553E-04-1.34601E-02-1.11070E-13-1.78788E-13
 -1      2120 2.00022E+01 2.62590E-02-1.04537E-04-1.51565E-02-1.25343E-13-1.89850E-13
 -1      2121 2.00025E+01 3.64706E-02 2.22462E-05-2.08944E-02-1.87770E-14 6.06866E-14
 -1      2122 2.00046E+01 1.09863E-02-8.81329E-06-7.83418E-03-2.88260E-13-8.15084E-15
 -1      2123 2.00044E+01 1.51458E-02 6.47586E-06-1.06803E-02-2.39878E-13 7.06276E-15
 -1      2124 2.00059E+01 2.38636E-02-2.54758E-05-1.66878E-02-4.34448E-14-1.77896E-13
 -1      2125 9.40162E+00-5.15472E+00-1.92318E-01 6.33915E+00 4.54303E-13 5.46341E-13
 -1      2126 5.71686E+00-6.88276E+00-4.63907E-01 4.86816E+00 2.14218E-13 7.14873E-13
 -1      2127 1.33280E-01-7.52388E+00-4.95232E-01 9.99673E-01-7.14151E-14 1.16845E-12
 -1      2128 2.18000E-01-6.89426E+00-3.86091E-01-5.12158E-01-2.98636E-13 9.38249E-13
 -1      2129 3.03732E+00-6.60560E+00-3.40432E-01 3.95988E+00 1.57319E-13 9.67948E-13
 -1      2130 1.26322E+00-7.51531E+00-4.76991E-01 2.54842E+00-1.25844E-13 1.19021E-12
 -1      2131 1.92226E+01-3.27209E+00 3.25442E-02 6.89421E+00 3.53273E-13 6.93390E-13
 -1      2132 1.47573E+01-5.13112E+00-2.22463E-01 6.27044E+00 3.09808E-13 5.61856E-13
 -1      2133 2.69450E+01-5.79132E-01 1.37869E-01 6.04345E+00 5.32685E-13 4.57134E-13
 -1      2134 2.19741E+01-2.54699E+00-2.01171E-01 5.83949E+00 4.36373E-13 4.19609E-13
 -1      2135 2.27891E+01-4.62940E+00 3.67035E-03 5.54528E+00 1.38112E-13 2.65538E-13
 -1      2136 1.95441E+01 4.03265E+00-2.58164E-02-1.65596E+00-1.80625E-13-3.51993E-13
 -1      2137 1.96722E+01 3.95538E+00-2.39047E-02-1.91017E+00-2.24720E-13-3.02106E-13
 -1      2138 1.99930E+01 3.26745E+00-7.78609E-03-1.85916E+00-2.57021E-13-2.42127E-13
 -1      2139 1.97127E+01 3.61061E+00-9.01020E-03-1.46866E+00-1.67518E-13-3.37622E-13
 -1      2140 3.95225E+01 5.90763E+00 4.19118E-01 1.86168E+00 6.98996E-13 2.69229E-13
 -1      2141 3.62273E+01 4.92499E+00 1.62565E-01 2.49916E+00 6.22918E-13 2.44138E-13
 -1      2142 3.98924E+01 7.26743E+00 2.81069E-01-7.64978E-02 6.35381E-13 1.92291E-13
 -1      2143 4.00890E+01 6.83158E+00 3.66998E-01 1.18568E+00 7.12874E-13 3.20688E-13
 -1      2144 3.86504E+01 6.25713E+00 2.74144E-01-1.67494E+00 5.45841E-13-1.36557E-14
 -1      2145 3.93405E+01 6.99969E+00 2.70513E-01-4.35956E-01 6.10512E-13 1.58790E-13
 -1      2146 3.45831E+01 3.95145E+00 9.53240E-02-3.09577E+00 7.22256E-13-1.63536E-13
 -1      2147 3.81349E+01 5.09974E+00 3.51575E-01-2.46281E+00 6.11206E-13-8.14904E-14
 -1      2148 3.50934E+01 6.14054E+00 3.05788E-01 3.92871E-02 6.14453E-13 1.87683E-13
 -1      2149 2.81338E+01-8.37812E-02-7.85662E-02-4.67995E+00 6.16313E-13-3.23963E-13
 -1      2150 3.24282E+01 1.57274E+00 2.02144E-01-4.16563E+00 7.24573E-13-1.29008E-13
 -1      2151 2.10652E+01-2.80714E+00-1.84844E-01-5.91090E+00 5.32352E-13-4.84057E-13
 -1      2152 2.58546E+01-1.00108E+00 1.34288E-01-6.15825E+00 5.50338E-13-5.11480E-13
 -1      2153 2.83917E+01-2.13850E+00 1.33250E-01-3.42097E+00 3.60934E-13-9.34808E-14
 -1      2154 1.24711E+01-5.38341E+00-2.94499E-01-6.19096E+00 2.76890E-13-6.87839E-13
 -1      2155 1.66715E+01-3.50521E+00-3.86150E-02-6.98284E+00 4.80060E-13-6.74405E-13
 -1      2156 5.34963E+00-6.65335E+00-3.61673E-01-4.88318E+00-1.17684E-14-7.31831E-13
 -1      2157 8.73357E+00-5.25389E+00-1.14707E-01-6.27493E+00 1.58318E-13-7.41060E-13
 -1      2158 1.28837E+00-6.74769E+00-3.34321E-01-2.42972E+00-2.83135E-13-7.79710E-13
 -1      2159 2.97082E+00-6.26668E+00-2.43936E-01-3.85767E+00-3.31402E-14-7.57283E-13
 -1      2160 6.21452E+00-4.78089E+00-9.36243E-02-5.44637E+00-1.85435E-13-7.87370E-13
 -1      2161 8.76418E-01-6.68160E+00-3.14800E-01 1.47882E+00-5.28161E-13-8.55926E-13
 -1      2162 4.54603E-01-6.49646E+00-2.92344E-01-1.75821E-01-2.43638E-13-7.88480E-13
 -1      2163 4.33993E+00-6.31047E+00-2.86627E-01 4.49140E+00-6.06404E-13-7.52259E-13
 -1      2164 1.96646E+00-7.46136E+00-4.65366E-01 2.98148E+00-4.74121E-13-8.60256E-13
 -1      2165 1.17033E+01-5.35521E+00-2.22203E-01 6.45737E+00-6.26721E-13-8.96519E-13
 -1      2166 7.59453E+00-6.66779E+00-4.28401E-01 5.24032E+00-6.26554E-13-7.23338E-13
 -1      2167 2.07842E+01-2.85024E+00 6.34155E-02 6.64796E+00-9.05276E-13-8.10629E-13
 -1      2168 1.67351E+01-4.77192E+00-1.55261E-01 6.25552E+00-7.29250E-13-7.97973E-13
 -1      2169 2.84175E+01-4.22546E-01 1.65490E-01 5.58629E+00-9.02500E-13-5.08038E-13
 -1      2170 2.36682E+01-2.13747E+00-1.51374E-01 5.61972E+00-9.52294E-13-6.45095E-13
 -1      2171 2.42944E+01-4.14903E+00 2.66532E-02 5.06778E+00-5.90028E-13-3.72036E-13
 -1      2172 3.55577E+01 2.95686E+00 3.33741E-01 3.90268E+00-7.72433E-13-5.23359E-13
 -1      2173 3.13152E+01 1.38316E+00 2.22709E-02 4.19213E+00-8.52554E-13-5.76206E-13
 -1      2174 3.94399E+01 5.52235E+00 3.74324E-01 1.68301E+00-6.25722E-13-5.24469E-13
 -1      2175 3.67436E+01 4.44952E+00 1.81553E-01 2.53611E+00-6.97775E-13-5.45897E-13
 -1      2176 4.12641E+01 7.00815E+00 4.12986E-01 1.59574E-01-5.17864E-13-5.05547E-13
 -1      2177 4.02227E+01 6.65364E+00 3.20367E-01 1.22121E+00-5.79425E-13-5.53890E-13
 -1      2178 4.03075E+01 6.67282E+00 3.46390E-01-1.25583E+00-5.95191E-13-4.32765E-13
 -1      2179 4.16929E+01 6.99354E+00 4.59938E-01-2.28688E-01-5.09814E-13-4.88803E-13
 -1      2180 3.67198E+01 4.30531E+00 2.27873E-01-3.01485E+00-3.93796E-13-2.23710E-13
 -1      2181 3.94913E+01 5.40754E+00 3.92825E-01-1.95779E+00-4.96325E-13-3.19245E-13
 -1      2182 3.04181E+01 8.37895E-01-1.25518E-02-4.37617E+00-3.61849E-13-1.92291E-13
 -1      2183 3.48224E+01 2.49726E+00 3.17158E-01-3.97286E+00-3.01495E-13-1.78857E-13
 -1      2184 2.31777E+01-2.50674E+00-1.48142E-01-5.46092E+00-1.71307E-13-1.24567E-13
 -1      2185 2.80651E+01-4.27692E-01 2.00368E-01-5.76830E+00-3.41949E-13-1.70197E-13
 -1      2186 3.01620E+01-1.24139E+00 1.41382E-01-2.87734E+00-1.67560E-13-4.41591E-13
 -1      2187 1.40654E+01-5.40983E+00-3.13476E-01-6.04679E+00-2.30482E-13 1.92901E-14
 -1      2188 1.88413E+01-3.73036E+00-2.60782E-02-6.76078E+00-1.34170E-13-5.92859E-14
 -1      2189 6.11639E+00-6.93113E+00-4.53871E-01-4.80690E+00-4.84723E-13 4.52693E-14
 -1      2190 9.74877E+00-5.35597E+00-1.91457E-01-6.15071E+00-3.80806E-13 2.44943E-14
 -1      2191 1.60597E+00-6.99267E+00-3.82223E-01-2.74590E+00-3.48693E-13 4.60798E-13
 -1      2192 3.39273E+00-6.76064E+00-3.70991E-01-3.97721E+00-5.14144E-13 2.18880E-13
 -1      2193 6.74446E+00-5.52362E+00-1.60593E-01-5.50915E+00-7.72715E-14-6.96665E-14
 -1      2194 3.43560E+01 2.79994E+00 2.28244E-01 3.81832E+00 4.38542E-13 3.65596E-13
 -1      2195 3.02495E+01 1.35857E+00 4.52683E-02 4.60820E+00 4.89969E-13 5.10925E-13
 -1      2196 2.07304E+01 1.10893E+00-2.00589E-02-1.58186E+00-2.76789E-13 1.65951E-13
 -1      2197 2.91085E+01-1.35902E+00 1.42810E-01 3.31773E+00 2.35284E-13 4.42979E-14
 -1      2198 3.39971E+01 3.41098E+00 2.42113E-01 1.05303E+00 4.06758E-13-5.87308E-14
 -1      2199 2.06346E+01 1.33244E+00-1.91752E-02-1.63271E+00-2.87121E-13 2.90722E-14
 -1      2200 6.11923E+00-5.44856E+00-1.77379E-01 5.49107E+00-3.66374E-14 7.99499E-13
 -1      2201 1.96117E+00-5.06127E+00-2.17667E-01 2.32741E+00-1.45967E-13 1.14053E-12
 -1      2202 2.00055E+01 9.75925E-03 6.41190E-05-6.60694E-03-1.28034E-13 1.83545E-13
 -1      2203 1.45436E+01-5.46331E+00-2.31727E-02 6.90886E+00 8.92064E-14 4.63492E-13
 -1      2204 2.39694E+00-3.39767E+00 2.35048E-03-1.06628E+00 1.03390E-14 7.63889E-13
 -1      2205 1.93458E+00-5.56053E+00-2.04228E-01-1.92035E+00-1.30729E-13 6.72684E-13
 -1      2206 3.79935E+00-3.77811E+00-5.09510E-02-3.46298E+00 1.80772E-13 3.36231E-13
 -1      2207 2.32209E+01-4.46379E+00 2.16863E-02-5.34633E+00 6.09512E-14-3.74034E-13
 -1      2208 3.43408E+01 2.73156E+00 2.59542E-01-9.37429E-01-3.03882E-13-3.74478E-13
 -1      2209 3.69461E+01 6.43673E+00 3.52044E-01-8.50347E-02-5.31075E-13-4.22995E-13
 -1      2210 3.72500E+01 8.01712E+00 3.87864E-01-3.71214E-02-5.32019E-13-3.94386E-13
 -1      2211 3.62324E+01 6.63476E+00 3.29749E-01-2.75648E-01-5.78315E-13-3.13555E-13
 -1      2212 3.04451E+01-9.34004E-01 1.55037E-01 2.95404E+00-7.06199E-13-2.34701E-13
 -1      2213 1.57863E+01-5.31525E+00-5.43428E-02 6.48399E+00-5.13145E-13-7.82027E-13
 -1      2214 1.52425E+01-5.37826E+00 1.30091E-01 6.81849E+00-1.82632E-13-6.77118E-13
 -1      2215 1.94316E+01-5.73684E+00-1.74639E-01 6.25901E+00-3.13416E-13-5.52586E-13
 -1      2216 7.80486E+00-5.54926E+00-1.25649E-01 5.83247E+00-2.86660E-13-6.98303E-13
 -1      2217 2.38181E+00-4.21220E+00-1.19352E-01-1.63582E+00-3.07476E-13-8.80185E-13
 -1      2218 2.15917E+01-4.51652E+00 9.73197E-03-6.00762E+00 1.66256E-13-3.24935E-13
 -1      2219 3.27092E+01 1.86048E+00 1.78318E-01-1.13001E+00 6.11081E-13 6.90004E-14
 -1      2220 3.60054E+01 7.11344E+00 3.39195E-01 3.77387E-03 6.82787E-13 1.09024E-13
 -1      2221 3.60753E+01 7.89446E+00 2.93158E-01 9.19221E-02 6.18505E-13 1.89543E-13
 -1      2222 1.27860E+01-5.48573E+00-7.68863E-02-6.79618E+00-7.88813E-14-6.48315E-13
 -1      2223 2.88264E+00-4.68062E+00-1.72866E-01 2.85709E+00-2.81886E-13-8.45213E-13
 -1      2224 3.45651E+01 3.26840E+00 2.79611E-01 7.15798E-01-6.94306E-13-2.73226E-13
 -1      2225 1.42694E+01-5.69106E+00-5.77618E-02-6.69975E+00 5.83977E-14-2.28512E-13
 -1      2226 2.01816E+01 5.19402E-01 4.45048E-03 6.23447E-01 2.35456E-13 2.41023E-13
 -1      2227 2.04350E+01 7.09249E-01 2.08486E-02 9.20532E-01 2.57770E-13 2.82254E-13
 -1      2228 1.95555E+01 3.58201E+00-1.13097E-02-5.59147E-01-7.35593E-15-3.74138E-13
 -1      2229 1.95959E+01 3.53217E+00-1.02526E-02-7.36439E-01-5.52064E-14-3.70388E-13
 -1      2230 1.96476E+01 3.43610E+00-1.30761E-02-8.94051E-01-7.23149E-14-3.66715E-13
 -1      2231 1.97139E+01 3.35017E+00-1.25490E-02-1.07845E+00-1.10826E-13-3.45288E-13
 -1      2232 1.97847E+01 3.10496E+00 5.87261E-04-7.43731E-01-5.65898E-14-3.43150E-13
 -1      2233 1.95002E+01 3.67332E+00-9.55199E-03 9.45065E-02 1.02732E-13-3.84271E-13
 -1      2234 1.94995E+01 3.67423E+00-9.57367E-03-7.60288E-02 7.42583E-14-3.87745E-13
 -1      2235 1.95304E+01 3.62967E+00-9.54097E-03 4.21730E-01 1.64093E-13-3.56864E-13
 -1      2236 1.95102E+01 3.65445E+00-1.02057E-02 2.49293E-01 1.25606E-13-3.72320E-13
 -1      2237 1.96596E+01 3.31149E+00-3.42343E-04 1.58007E-01 1.09317E-13-3.52207E-13
 -1      2238 1.96007E+01 3.52387E+00-1.03330E-02 7.49927E-01 2.22320E-13-3.26616E-13
 -1      2239 1.95597E+01 3.57481E+00-1.13874E-02 5.75302E-01 1.89335E-13-3.49505E-13
 -1      2240 1.97025E+01 3.24099E+00-3.58197E-06 4.56035E-01 1.66753E-13-3.26475E-13
 -1      2241 1.97216E+01 3.33674E+00-1.26012E-02 1.09182E+00 2.86308E-13-2.50452E-13
 -1      2242 1.96537E+01 3.42540E+00-1.31337E-02 9.07280E-01 2.49822E-13-2.92648E-13
 -1      2243 1.97902E+01 3.09467E+00 6.52224E-04 7.55114E-01 2.31093E-13-2.78924E-13
 -1      2244 1.99092E+01 3.03568E+00-1.77757E-02 1.43326E+00 3.42036E-13-1.63432E-13
 -1      2245 1.98058E+01 3.18287E+00-1.54765E-02 1.24494E+00 3.04498E-13-2.15742E-13
 -1      2246 1.99315E+01 2.85282E+00 2.19513E-03 1.05040E+00 2.80360E-13-2.09240E-13
 -1      2247 2.01897E+01 2.56077E+00-2.80621E-02 1.73838E+00 3.69610E-13-5.53377E-14
 -1      2248 2.00384E+01 2.80589E+00-1.73292E-02 1.56336E+00 3.47041E-13-1.20006E-13
 -1      2249 2.01356E+01 2.48398E+00 5.92274E-03 1.31243E+00 3.15312E-13-1.17047E-13
 -1      2250 1.99354E+01 2.89030E-01 5.70679E-03 2.13230E-01 1.95602E-13 1.83653E-13
 -1      2251 2.00768E+01 3.84636E-01 2.02945E-02 3.79182E-01 2.15216E-13 2.27466E-13
 -1      2252 2.02510E+01 6.55333E-01-2.78034E-03 6.33538E-01 2.54424E-13 9.68310E-14
 -1      2253 2.04300E+01 8.71107E-01 1.33632E-02-9.40090E-01-2.22282E-13-3.08273E-14
 -1      2254 2.02315E+01 6.49183E-01-3.63907E-03-6.23187E-01-1.99644E-13-3.71156E-14
 -1      2255 2.98922E+01-1.18398E+00-9.53232E-02 1.61420E+00 2.33771E-13-2.32675E-13
 -1      2256 2.72400E+01-3.11714E+00-3.74177E-02 2.78601E+00 1.74458E-13-1.34892E-13
 -1      2257 2.01763E+01 4.96951E-01 1.61717E-02-3.95413E-01-1.76395E-13-1.78726E-14
 -1      2258 2.00540E+01 3.78501E-01 1.07120E-03-2.11699E-01-1.49438E-13-3.03248E-14
 -1      2259 2.02875E+01 7.79034E-01-2.66647E-03-6.07787E-01-1.94584E-13-8.23293E-14
 -1      2260 2.00039E+01 2.99714E-01 1.08046E-02-5.76757E-02-1.43579E-13-6.58241E-15
 -1      2261 1.99507E+01 2.35938E-01 2.12256E-03 5.66076E-02-1.28725E-13-2.70794E-14
 -1      2262 2.01485E+01 4.66033E-01-4.28335E-03-1.94899E-01-1.41000E-13-5.91742E-14
 -1      2263 1.99236E+01 1.93884E-01 6.37487E-03 1.61124E-01-1.02621E-13-1.54566E-14
 -1      2264 1.99223E+01 1.60806E-01 2.54833E-03 2.37452E-01-7.70978E-14-3.73514E-14
 -1      2265 2.00599E+01 2.96148E-01-4.27149E-03 8.55003E-02-1.17017E-13-2.25577E-14
 -1      2266 1.99186E+01 1.39739E-01 3.57743E-03 3.12763E-01-4.73755E-14-4.68229E-14
 -1      2267 1.99556E+01 1.25206E-01 2.92077E-03 3.69388E-01-3.79302E-14-4.95972E-14
 -1      2268 2.00256E+01 2.06789E-01-3.66111E-03 2.81461E-01-8.28855E-14-5.20394E-14
 -1      2269 1.99721E+01 1.17303E-01 1.84895E-03 4.29601E-01-6.63537E-14-5.64326E-14
 -1      2270 2.00386E+01 1.14875E-01 3.33128E-03 4.77978E-01-4.65845E-14-4.96274E-14
 -1      2271 2.00390E+01 1.65883E-01-2.95809E-03 4.29197E-01-6.75699E-14-9.21348E-14
 -1      2272 2.00720E+01 1.15745E-01 7.65200E-04 5.32934E-01-3.30586E-14-7.39630E-14
 -1      2273 2.01632E+01 1.21464E-01 3.78207E-03 5.80593E-01-3.87557E-14-9.19453E-14
 -1      2274 2.00917E+01 1.56281E-01-2.37603E-03 5.54121E-01-5.75429E-14-1.18200E-13
 -1      2275 2.02110E+01 1.28074E-01 8.76958E-05 6.37095E-01-6.66911E-14-1.03638E-13
 -1      2276 2.03249E+01 1.38841E-01 4.23527E-03 6.88876E-01-9.09082E-14-9.78951E-14
 -1      2277 2.01771E+01 1.67453E-01-1.95171E-03 6.73966E-01-5.11159E-14-1.19395E-13
 -1      2278 2.03860E+01 1.48382E-01-3.05266E-04 7.51251E-01-9.83478E-14-9.29248E-14
 -1      2279 2.05222E+01 1.60877E-01 4.59984E-03 8.09599E-01-9.50047E-14-1.05304E-13
 -1      2280 2.02913E+01 1.91159E-01-1.67408E-03 8.00609E-01-1.12290E-13-7.73633E-14
 -1      2281 2.05967E+01 1.69862E-01-4.51953E-04 8.79687E-01-4.49387E-14-6.54085E-14
 -1      2282 2.07556E+01 1.79529E-01 4.71430E-03 9.44254E-01 1.55730E-14-5.55041E-14
 -1      2283 2.04326E+01 2.18665E-01-1.54659E-03 9.40694E-01-5.47478E-14-3.06880E-14
 -1      2284 2.08455E+01 1.82817E-01-3.07962E-04 1.02081E+00 1.69584E-14-2.78459E-14
 -1      2285 2.10275E+01 1.82679E-01 4.32472E-03 1.08737E+00 8.09476E-15 5.44024E-15
 -1      2286 2.06021E+01 2.38154E-01-1.63221E-03 1.09512E+00 2.51932E-14-2.48277E-14
 -1      2287 2.11375E+01 1.72330E-01 2.72013E-04 1.16481E+00-4.05219E-14 3.73269E-14
 -1      2288 2.13422E+01 1.51697E-01 3.06350E-03 1.22349E+00-4.49528E-14 2.04211E-14
 -1      2289 2.08047E+01 2.31840E-01-2.09975E-03 1.25732E+00 2.16252E-14-3.52059E-15
 -1      2290 2.14818E+01 1.15917E-01 1.54722E-03 1.28982E+00-8.37810E-14 1.70436E-14
 -1      2291 2.17075E+01 5.95758E-02 4.37719E-04 1.32274E+00-6.44014E-14-2.42056E-14
 -1      2292 2.10515E+01 1.72937E-01-3.26733E-03 1.41024E+00-7.08492E-14 1.64405E-14
 -1      2293 2.18930E+01-1.72301E-02 3.83423E-03 1.35667E+00 4.30927E-15-2.18046E-14
 -1      2294 2.21354E+01-1.27506E-01-4.09885E-03 1.33580E+00 1.61728E-14 6.27082E-14
 -1      2295 2.13635E+01 2.40804E-02-5.60003E-03 1.52166E+00-3.16266E-14 7.18653E-14
 -1      2296 2.23912E+01-2.60958E-01 7.34735E-03 1.30339E+00 2.27726E-14 9.68236E-14
 -1      2297 2.26410E+01-4.38746E-01-1.09245E-02 1.19105E+00 5.46035E-14 1.49894E-13
 -1      2298 2.17762E+01-2.58253E-01-9.47928E-03 1.53829E+00 3.30842E-14 1.38811E-13
 -1      2299 2.29949E+01-6.32646E-01 1.14941E-02 1.04407E+00 7.48312E-14 1.32110E-13
 -1      2300 2.32331E+01-8.66308E-01-1.92816E-02 8.00181E-01 6.55366E-14 1.48090E-13
 -1      2301 2.23385E+01-7.03679E-01-1.45333E-02 1.38023E+00 4.12088E-14 1.29583E-13
 -1      2302 2.36968E+01-1.08513E+00 1.45129E-02 4.82002E-01-6.78537E-15 1.92755E-13
 -1      2303 2.38849E+01-1.29946E+00-2.59886E-02 8.84419E-02-1.96891E-14 1.08884E-13
 -1      2304 2.30970E+01-1.27820E+00-1.79519E-02 9.42089E-01 5.63408E-14 1.99288E-13
 -1      2305 2.43994E+01-1.42880E+00 7.00888E-03-4.27522E-01-1.17666E-14 9.53074E-14
 -1      2306 2.44899E+01-1.44831E+00-2.22023E-02-9.17675E-01-5.81601E-14 8.56312E-14
 -1      2307 2.40362E+01-1.77473E+00-1.20075E-02 1.21888E-01-3.73560E-14 1.48003E-13
 -1      2308 2.48853E+01-1.30506E+00-1.71618E-02-1.52496E+00-7.65256E-14 1.46730E-13
 -1      2309 2.48310E+01-9.33685E-01-8.95270E-03-1.92741E+00-9.13408E-14 1.26006E-13
 -1      2310 2.49579E+01-1.78604E+00-8.91876E-03-1.05230E+00-2.27530E-14 1.99134E-13
 -1      2311 2.49054E+01-3.17076E-01-4.89726E-02-2.36634E+00-1.15141E-13 1.30281E-13
 -1      2312 2.46828E+01 4.71734E-01 1.33550E-03-2.36098E+00-9.46604E-14 6.48188E-14
 -1      2313 2.55748E+01-9.00534E-01-3.98695E-03-2.21540E+00-8.23334E-14 1.79575E-13
 -1      2314 2.44565E+01 1.30458E+00-6.71926E-02-2.12042E+00-5.31415E-14 5.45310E-14
 -1      2315 2.42507E+01 2.07750E+00 1.75362E-03-1.55949E+00-4.68028E-14 1.43087E-13
 -1      2316 2.54912E+01 1.21892E+00-5.55643E-02-2.52483E+00-1.06450E-13 1.12469E-13
 -1      2317 2.40367E+01 2.55179E+00-5.11286E-02-6.00283E-01-1.22888E-13 9.39505E-14
 -1      2318 2.40185E+01 2.61734E+00-4.66259E-02 2.93306E-01-1.29063E-13 1.07435E-13
 -1      2319 2.51355E+01 2.98198E+00-5.73627E-02-1.24162E+00-1.26892E-13 7.85422E-14
 -1      2320 2.41835E+01 2.26723E+00-7.62068E-03 1.32185E+00-2.13794E-13 4.42567E-14
 -1      2321 2.43590E+01 1.57644E+00-7.31175E-02 1.96976E+00-1.64747E-13 7.63452E-15
 -1      2322 2.50661E+01 3.12678E+00-7.33524E-02 9.24441E-01-2.24112E-13 1.16797E-13
 -1      2323 2.46518E+01 7.38347E-01 9.57012E-03 2.34181E+00-8.85299E-14-6.47095E-14
 -1      2324 2.48554E+01-1.00024E-01-5.97381E-02 2.40906E+00-2.77833E-14-8.79344E-14
 -1      2325 2.54638E+01 1.48627E+00-3.13026E-02 2.38520E+00-2.11414E-13-2.19963E-15
 -1      2326 2.48562E+01-7.50031E-01-3.32116E-03 2.08567E+00 7.42349E-14-9.60462E-14
 -1      2327 2.49482E+01-1.20720E+00-1.96261E-02 1.72031E+00 1.31234E-13-1.51851E-14
 -1      2328 2.56084E+01-5.32750E-01 3.22943E-03 2.33338E+00 2.15054E-14-1.26038E-13
 -1      2329 2.45842E+01-1.41839E+00-2.15882E-02 1.11103E+00 6.59941E-14-1.10839E-13
 -1      2330 2.45248E+01-1.44466E+00 6.13975E-03 6.21067E-01 3.94806E-14-1.46098E-13
 -1      2331 2.51199E+01-1.70395E+00-4.63261E-04 1.26448E+00 2.15420E-14-1.69926E-13
 -1      2332 2.40163E+01-1.34342E+00-2.60452E-02 8.28055E-02 3.61542E-14-1.37472E-13
 -1      2333 2.38459E+01-1.14408E+00 1.44083E-02-3.29078E-01 4.31166E-14-1.57103E-13
 -1      2334 2.42120E+01-1.81549E+00-1.17680E-02 7.24552E-02 4.77220E-14-1.51438E-13
 -1      2335 2.33715E+01-9.27221E-01-2.05712E-02-6.73494E-01 3.19493E-14-1.73069E-13
 -1      2336 2.31459E+01-6.87753E-01 1.25670E-02-9.35877E-01 2.45515E-14-3.39958E-14
 -1      2337 2.32645E+01-1.35512E+00-1.80480E-02-8.00596E-01 4.10024E-15 6.03556E-14
 -1      2338 2.27794E+01-4.85175E-01-1.21143E-02-1.10037E+00-1.14659E-13-1.40044E-14
 -1      2339 2.25395E+01-2.95208E-01 8.45307E-03-1.22536E+00-6.99660E-14 3.15015E-14
 -1      2340 2.24831E+01-7.69509E-01-1.52177E-02-1.28186E+00-1.01861E-15 7.24951E-14
 -1      2341 2.22752E+01-1.50167E-01-5.01663E-03-1.26548E+00-1.20667E-13-4.72969E-14
 -1      2342 2.20427E+01-2.77200E-02 4.87085E-03-1.29107E+00-1.53765E-13-1.08581E-13
 -1      2343 2.19028E+01-2.95199E-01-1.02766E-02-1.46379E+00-1.90900E-13-4.77087E-14
 -1      2344 2.18546E+01 5.88128E-02-1.36497E-04-1.25653E+00-8.97548E-14-1.74847E-13
 -1      2345 2.16401E+01 1.24422E-01 2.39738E-03-1.22168E+00-1.88466E-14-2.11760E-13
 -1      2346 2.14825E+01 1.68114E-02-6.15647E-03-1.45249E+00-1.97716E-13-1.35925E-13
 -1      2347 2.15024E+01 1.67083E-01 2.71554E-03-1.14907E+00 2.78498E-14-2.93064E-13
 -1      2348 2.13111E+01 1.93917E-01 9.92998E-04-1.08366E+00-2.23857E-14-3.12734E-13
 -1      2349 2.11724E+01 1.88522E-01-3.61254E-03-1.33283E+00-8.10498E-14-1.27064E-13
 -1      2350 2.12059E+01 2.08489E-01 4.12356E-03-9.96416E-01-7.70689E-14-2.38914E-13
 -1      2351 2.10399E+01 2.12182E-01 3.09296E-04-9.20187E-01-3.73577E-14-2.13274E-13
 -1      2352 2.09344E+01 2.62695E-01-2.24937E-03-1.16278E+00 2.65537E-15-1.77683E-13
 -1      2353 2.09565E+01 2.10820E-01 4.58080E-03-8.32161E-01-5.34928E-14-1.10336E-13
 -1      2354 2.08159E+01 2.02346E-01 3.20968E-05-7.56736E-01-2.01748E-14-3.96829E-14
 -1      2355 2.07447E+01 2.77538E-01-1.59923E-03-9.78512E-01 7.54914E-14-6.64193E-14
 -1      2356 2.07482E+01 1.93083E-01 4.46708E-03-6.75342E-01 6.67725E-14 3.31061E-14
 -1      2357 2.06317E+01 1.79295E-01-4.41360E-05-6.06746E-01 2.43025E-13 1.85745E-13
 -1      2358 2.05898E+01 2.60417E-01-1.31052E-03-8.00860E-01 1.18255E-13 7.75662E-14
 -1      2359 2.05764E+01 1.66943E-01 4.04948E-03-5.35373E-01 2.22381E-13 8.23063E-14
 -1      2360 2.04818E+01 1.51761E-01-3.57313E-05-4.76127E-01 8.42967E-14 1.00562E-13
 -1      2361 2.04621E+01 2.28713E-01-1.17132E-03-6.40584E-01 1.91315E-13-1.19546E-14
 -1      2362 2.04368E+01 1.38981E-01 3.50109E-03-4.15771E-01 1.21937E-13 1.38117E-13
 -1      2363 2.03614E+01 1.24460E-01-1.05702E-06-3.66371E-01 1.33320E-13 3.20226E-13
 -1      2364 2.03572E+01 1.92545E-01-1.07517E-03-5.02134E-01 1.67528E-13 7.54128E-14
 -1      2365 2.03251E+01 1.12593E-01 2.92603E-03-3.16691E-01-1.80391E-14 3.79593E-13
 -1      2366 2.02662E+01 9.96855E-02 3.42676E-05-2.76559E-01-6.53371E-14 3.59373E-13
 -1      2367 2.02719E+01 1.57338E-01-9.79020E-04-3.86224E-01 6.88332E-14 3.16316E-13
 -1      2368 2.02373E+01 8.93152E-02 2.38187E-03-2.36534E-01-1.33279E-13 3.56783E-13
 -1      2369 2.01921E+01 7.83523E-02 6.10844E-05-2.04596E-01-5.02225E-14 3.87334E-13
 -1      2370 2.02034E+01 1.25690E-01-8.72160E-04-2.91508E-01-1.49589E-14 4.19545E-13
 -1      2371 2.01695E+01 6.96427E-02 1.89648E-03-1.72924E-01-1.83682E-13 3.05698E-13
 -1      2372 2.01354E+01 6.06304E-02 7.77769E-05-1.47935E-01-1.63871E-13 1.98226E-13
 -1      2373 2.01493E+01 9.85937E-02-7.56937E-04-2.15634E-01-2.13362E-13 2.83802E-13
 -1      2374 2.01180E+01 5.35308E-02 1.47988E-03-1.23265E-01 1.23676E-13 1.27802E-13
 -1      2375 2.00929E+01 4.63159E-02 8.60129E-05-1.03995E-01 2.96307E-13 8.88645E-14
 -1      2376 2.01072E+01 7.61726E-02-6.38768E-04-1.55880E-01-1.43752E-13 2.64946E-13
 -1      2377 2.00797E+01 4.06741E-02 1.13183E-03-8.50484E-02 2.83209E-13 1.05607E-13
 -1      2378 2.00616E+01 3.50254E-02 8.51234E-05-7.03741E-02 3.34128E-13 1.87743E-13
 -1      2379 2.00750E+01 5.81179E-02-5.21372E-04-1.09539E-01 3.11308E-13 2.32492E-13
 -1      2380 2.00517E+01 3.06194E-02 8.45192E-04-5.60175E-02 4.34654E-13 2.62653E-13
 -1      2381 2.00390E+01 2.62759E-02 8.57981E-05-4.49985E-02 3.93871E-13 3.18525E-13
 -1      2382 2.00508E+01 4.38780E-02-4.12111E-04-7.41021E-02 4.25382E-13 3.55499E-13
 -1      2383 2.00316E+01 2.27359E-02 5.82912E-04-3.42575E-02 4.13060E-15 2.47055E-13
 -1      2384 2.00231E+01 1.95309E-02 1.53648E-04-2.62080E-02-2.48671E-13 7.31246E-14
 -1      2385 2.00328E+01 3.28437E-02-2.99291E-04-4.74185E-02 1.40651E-13-3.31651E-14
 -1      2386 1.97835E+01 1.11978E-01 3.65247E-03-1.98566E-01 8.32012E-14 8.09596E-14
 -1      2387 1.97771E+01 1.38368E-01 7.23562E-03-1.35496E-01 1.20185E-13 1.26908E-13
 -1      2388 1.98313E+01 8.11436E-02 3.27978E-03-3.09156E-01 8.90293E-14-4.02282E-15
 -1      2389 1.97838E+01 9.41077E-02 4.11222E-03-2.64898E-01 7.82407E-14 4.63035E-14
 -1      2390 1.99208E+01 1.48453E-01-3.98161E-03-2.44062E-01 1.21692E-13-1.97448E-14
 -1      2391 1.99353E+01 6.79492E-02 3.18265E-03-3.93647E-01 1.01407E-13-1.17690E-14
 -1      2392 1.98580E+01 7.28539E-02 2.35419E-03-3.58437E-01 8.04816E-14-1.34981E-14
 -1      2393 1.99489E+01 1.10032E-01-3.24999E-03-3.72696E-01 1.02155E-13-7.89956E-14
 -1      2394 2.00841E+01 6.51216E-02 3.19132E-03-4.66852E-01 8.15253E-14 1.50197E-14
 -1      2395 1.99831E+01 6.53541E-02 1.36602E-03-4.34924E-01 8.33142E-14 1.54068E-14
 -1      2396 2.00249E+01 9.42786E-02-2.64702E-03-4.73802E-01 6.66677E-14-9.33149E-14
 -1      2397 2.02710E+01 6.72557E-02 3.17893E-03-5.37212E-01 3.39754E-14 5.70410E-14
 -1      2398 2.01497E+01 6.55173E-02 8.23109E-04-5.05538E-01 8.66629E-14 5.10410E-14
 -1      2399 2.01400E+01 9.14292E-02-2.24194E-03-5.62894E-01 3.99048E-14-3.09153E-14
 -1      2400 2.04927E+01 6.91321E-02 3.00134E-03-6.07859E-01 8.74408E-14 9.72727E-15
 -1      2401 2.03529E+01 6.81894E-02 5.57376E-04-5.75825E-01 5.78727E-14 5.81694E-14
 -1      2402 2.02890E+01 9.38744E-02-2.01248E-03-6.48615E-01 6.97252E-14-1.12762E-14
 -1      2403 2.07467E+01 6.46578E-02 2.47188E-03-6.76455E-01 1.50465E-13-4.82727E-14
 -1      2404 2.05903E+01 6.78456E-02 4.74682E-04-6.46084E-01 1.25211E-13-3.61375E-14
 -1      2405 2.04695E+01 9.39825E-02-1.92504E-03-7.33540E-01 1.52651E-13-5.87283E-14
 -1      2406 2.10307E+01 4.61608E-02 1.35968E-03-7.34239E-01 1.60296E-13-3.79697E-14
 -1      2407 2.08606E+01 5.77056E-02 5.23269E-04-7.10749E-01 1.63568E-13-4.28874E-14
 -1      2408 2.06812E+01 8.27252E-02-1.95900E-03-8.13856E-01 1.48750E-13-9.98477E-14
 -1      2409 2.13399E+01 4.23326E-03-5.84675E-04-7.64666E-01 4.18628E-14-5.38838E-14
 -1      2410 2.11618E+01 2.92377E-02 6.79071E-04-7.57138E-01 1.17290E-13-2.76572E-14
 -1      2411 2.09250E+01 4.88663E-02-2.10868E-03-8.78260E-01 1.18314E-13-7.89127E-14
 -1      2412 2.16657E+01-7.11552E-02-3.54773E-03-7.42351E-01-5.55769E-14-2.32165E-14
 -1      2413 2.14894E+01-2.75263E-02 9.24242E-04-7.64051E-01-1.23655E-14-5.61565E-14
 -1      2414 2.12021E+01-2.08543E-02-2.36303E-03-9.06497E-01-9.91503E-17-6.65451E-14
 -1      2415 2.19931E+01-1.86909E-01-7.49095E-03-6.33849E-01-3.37074E-14 5.99820E-14
 -1      2416 2.18340E+01-1.21820E-01 1.20670E-03-7.01250E-01-8.72967E-14 5.89657E-14
 -1      2417 2.15135E+01-1.39341E-01-2.63851E-03-8.68361E-01-7.91214E-14 1.10514E-14
 -1      2418 2.22982E+01-3.38680E-01-1.18525E-02-4.03048E-01 9.66198E-15 8.51385E-14
 -1      2419 2.21774E+01-2.56531E-01 1.31616E-03-5.32021E-01 2.81017E-14 1.04581E-13
 -1      2420 2.18565E+01-3.12530E-01-2.66390E-03-7.24917E-01-4.97835E-14 1.30347E-13
 -1      2421 2.25442E+01-4.97779E-01-1.51070E-02-2.53745E-02-3.99173E-14 1.80262E-13
 -1      2422 2.24876E+01-4.17497E-01 8.15993E-04-2.22576E-01-1.59521E-14 1.31735E-13
 -1      2423 2.22193E+01-5.26400E-01-1.81260E-03-4.35305E-01-3.39184E-14 1.75337E-13
 -1      2424 2.26800E+01-5.98154E-01-1.47682E-02 4.85571E-01-1.07634E-13 2.64168E-13
 -1      2425 2.27130E+01-5.59130E-01-9.33967E-04 2.36827E-01-7.03907E-14 2.66462E-13
 -1      2426 2.25698E+01-7.28549E-01 9.62207E-04 2.54838E-02-1.47797E-13 2.66078E-13
 -1      2427 2.26466E+01-5.39372E-01-8.39983E-03 1.04220E+00-2.16740E-13 2.09450E-13
 -1      2428 2.27825E+01-5.96213E-01-4.96835E-03 7.97103E-01-1.51428E-13 2.70271E-13
 -1      2429 2.28438E+01-8.13880E-01 6.21857E-03 6.32902E-01-1.52853E-13 4.02951E-13
 -1      2430 2.24052E+01-2.33235E-01 4.09458E-03 1.45903E+00-2.64511E-14 1.00155E-13
 -1      2431 2.26280E+01-4.23543E-01-1.07379E-02 1.31383E+00-1.43753E-13 1.53467E-13
 -1      2432 2.29462E+01-6.45093E-01 1.13563E-02 1.26695E+00-1.12903E-13 2.74783E-13
 -1      2433 2.19938E+01 2.93555E-01 1.67068E-02 1.49163E+00 1.39420E-13 6.60132E-14
 -1      2434 2.22447E+01 6.68896E-03-1.43259E-02 1.54999E+00 4.40947E-14 4.28546E-14
 -1      2435 2.27965E+01-1.36517E-01 1.12445E-02 1.68354E+00 5.04568E-14 1.71244E-13
 -1      2436 2.15691E+01 8.35486E-01 1.94440E-02 9.89658E-01 1.63747E-13 6.55712E-14
 -1      2437 2.17609E+01 5.79223E-01-1.07356E-02 1.28819E+00 1.86413E-13 1.17205E-13
 -1      2438 2.24334E+01 6.05725E-01 1.74309E-03 1.59815E+00 1.30619E-13 1.42291E-13
 -1      2439 2.13684E+01 1.07976E+00 8.81187E-03 6.17914E-02-6.34527E-14-1.99904E-14
 -1      2440 2.14186E+01 1.01236E+00 1.70437E-03 5.06732E-01 4.32302E-14-7.06032E-15
 -1      2441 2.20622E+01 1.25146E+00-1.40138E-02 8.72096E-01 1.80508E-13 1.59208E-13
 -1      2442 2.15321E+01 8.66425E-01-5.93780E-03-9.01115E-01-1.87619E-14-5.31797E-14
 -1      2443 2.14179E+01 1.03177E+00 1.58548E-02-4.98612E-01-8.87363E-14-5.22193E-14
 -1      2444 2.19584E+01 1.42558E+00-1.95557E-02-2.56429E-01-1.60583E-14-6.08490E-14
 -1      2445 2.19768E+01 3.34751E-01-1.30330E-02-1.48058E+00 6.16833E-14-7.62159E-14
 -1      2446 2.17463E+01 6.23835E-01 2.05233E-02-1.28190E+00 1.80472E-14-1.19563E-13
 -1      2447 2.22086E+01 1.02010E+00-6.34824E-03-1.26799E+00 2.02486E-14-2.24969E-13
 -1      2448 2.24503E+01-2.00507E-01-1.18193E-02-1.51472E+00 5.42626E-14 1.60670E-14
 -1      2449 2.21959E+01 5.19029E-02 1.17935E-02-1.55048E+00 1.00488E-13-5.77871E-14
 -1      2450 2.26171E+01 2.79036E-01 7.55635E-03-1.72567E+00 3.75719E-14-1.47363E-13
 -1      2451 2.27508E+01-5.20097E-01-6.17099E-03-1.13204E+00-2.09464E-14 2.68325E-14
 -1      2452 2.25527E+01-3.92999E-01-1.92906E-03-1.32658E+00 5.33835E-14 1.94775E-14
 -1      2453 2.29092E+01-3.89418E-01 1.29658E-02-1.56908E+00 5.03372E-14-2.27716E-13
 -1      2454 2.28128E+01-5.89772E-01-1.39318E-03-5.79346E-01 5.30179E-14 5.13920E-14
 -1      2455 2.27119E+01-5.83444E-01-1.19571E-02-8.26356E-01-3.78946E-14 3.68106E-14
 -1      2456 2.29510E+01-7.50055E-01 8.66755E-03-1.02838E+00 2.59038E-14-2.40272E-13
 -1      2457 2.26798E+01-4.94288E-01 1.28337E-03-5.90483E-02 1.49903E-13 1.65041E-14
 -1      2458 2.26776E+01-5.57932E-01-1.51254E-02-2.80283E-01 1.03022E-13 9.18726E-14
 -1      2459 2.27713E+01-7.90425E-01 2.85420E-03-3.91985E-01 6.63031E-14-2.63055E-13
 -1      2460 2.24264E+01-3.35148E-01 2.00076E-03 3.28244E-01 2.67321E-13 9.90629E-14
 -1      2461 2.25024E+01-4.19574E-01-1.33690E-02 1.68820E-01 2.40280E-13 1.83920E-13
 -1      2462 2.24660E+01-6.36053E-01-1.19855E-03 1.50114E-01 1.51632E-13-1.17979E-13
 -1      2463 2.21173E+01-1.80422E-01 1.86155E-03 5.62845E-01 3.32243E-13 7.68348E-14
 -1      2464 2.22440E+01-2.56215E-01-9.46393E-03 4.69746E-01 2.83360E-13 9.35889E-14
 -1      2465 2.21187E+01-4.15787E-01-2.86899E-03 5.24008E-01 2.63226E-13 1.77640E-13
 -1      2466 2.17959E+01-6.05442E-02 1.50487E-03 6.67908E-01 1.46518E-14 1.46516E-13
 -1      2467 2.19484E+01-1.16405E-01-5.33776E-03 6.29509E-01 2.71384E-13 1.97598E-13
 -1      2468 2.17793E+01-2.11892E-01-3.05086E-03 7.31361E-01 2.05593E-13 2.59799E-13
 -1      2469 2.14878E+01 1.89245E-02 1.18654E-03 6.80292E-01-2.11916E-13 1.68637E-13
 -1      2470 2.16468E+01-1.65026E-02-1.96216E-03 6.80209E-01-1.17789E-13 1.37601E-13
 -1      2471 2.14699E+01-5.82851E-02-2.67215E-03 8.07061E-01-4.36450E-14 5.03986E-13
 -1      2472 2.12071E+01 6.41665E-02 9.71727E-04 6.35002E-01-9.90120E-14 1.39081E-13
 -1      2473 2.13594E+01 4.51251E-02 3.95838E-04 6.58177E-01-1.77835E-13 1.07829E-13
 -1      2474 2.11974E+01 4.12104E-02-2.23204E-03 7.92831E-01-1.16209E-13 4.18235E-13
 -1      2475 2.09603E+01 8.46327E-02 8.38118E-04 5.59350E-01 1.88164E-14 1.02155E-13
 -1      2476 2.10981E+01 7.70371E-02 1.82668E-03 5.94246E-01-3.44723E-14 1.73379E-13
 -1      2477 2.09622E+01 9.62234E-02-1.88414E-03 7.24949E-01-1.48197E-14 8.26129E-14
 -1      2478 2.07494E+01 8.90543E-02 7.48537E-04 4.72244E-01-7.66200E-14 1.54931E-13
 -1      2479 2.08690E+01 8.86442E-02 2.54161E-03 5.11015E-01 3.29350E-14 1.39434E-13
 -1      2480 2.07623E+01 1.19608E-01-1.63412E-03 6.30587E-01-3.37467E-14 1.82378E-14
 -1      2481 2.05737E+01 8.41324E-02 6.76039E-04 3.85553E-01-1.20321E-13 1.07452E-13
 -1      2482 2.06739E+01 8.77530E-02 2.76226E-03 4.23379E-01-8.00111E-14 1.25175E-13
 -1      2483 2.05949E+01 1.22810E-01-1.44670E-03 5.28123E-01 4.96776E-14 2.51460E-13
 -1      2484 2.04305E+01 7.44945E-02 6.07367E-04 3.05955E-01-2.35113E-13 2.16677E-13
 -1      2485 2.05121E+01 8.00191E-02 2.67445E-03 3.40213E-01-1.85065E-13 1.31324E-13
 -1      2486 2.04567E+01 1.14464E-01-1.28843E-03 4.28886E-01-1.68548E-13 3.12151E-13
 -1      2487 2.03162E+01 6.31028E-02 5.38616E-04 2.36606E-01-6.40153E-14 1.98154E-13
 -1      2488 2.03810E+01 6.91976E-02 2.41604E-03 2.66139E-01-2.16758E-13 1.53946E-13
 -1      2489 2.03447E+01 1.00474E-01-1.13957E-03 3.39099E-01-2.44207E-13 2.06516E-13
 -1      2490 2.02269E+01 5.17242E-02 4.70432E-04 1.78426E-01 1.00084E-13 2.34659E-13
 -1      2491 2.02772E+01 5.76123E-02 2.08092E-03 2.02987E-01 8.99054E-14 2.56984E-13
 -1      2492 2.02552E+01 8.45864E-02-9.93253E-04 2.61541E-01 1.74790E-15 1.16769E-13
 -1      2493 2.01585E+01 4.13235E-02 4.04884E-04 1.31016E-01 4.42287E-14 2.16334E-13
 -1      2494 2.01966E+01 4.65959E-02 1.72857E-03 1.50884E-01 9.63875E-14 2.52244E-13
 -1      2495 2.01850E+01 6.90109E-02-8.49967E-04 1.96814E-01 1.28318E-13 2.27972E-13
 -1      2496 2.01073E+01 3.23518E-02 3.41741E-04 9.32713E-02 2.77905E-13 2.46908E-13
 -1      2497 2.01354E+01 3.68331E-02 1.39322E-03 1.08995E-01 1.64724E-13 3.12354E-13
 -1      2498 2.01310E+01 5.49339E-02-7.12787E-04 1.44243E-01 1.28669E-13 1.47288E-13
 -1      2499 2.00700E+01 2.49721E-02 2.98311E-04 6.37987E-02 1.10825E-13 3.16558E-13
 -1      2500 2.00901E+01 2.86085E-02 1.09302E-03 7.60285E-02 1.97656E-13 4.12670E-13
 -1      2501 2.00902E+01 4.28821E-02-5.84153E-04 1.02491E-01 1.06301E-13 3.28401E-13
 -1      2502 2.00434E+01 1.90288E-02 2.43796E-04 4.10593E-02-7.86250E-14 3.12557E-13
 -1      2503 2.00572E+01 2.19523E-02 8.23960E-04 5.04665E-02-9.68853E-14 3.41470E-13
 -1      2504 2.00599E+01 3.30259E-02-4.85915E-04 7.00421E-02-5.62525E-15 6.69499E-13
 -1      2505 2.00250E+01 1.42756E-02 1.74612E-04 2.39034E-02-8.55396E-15 3.64917E-13
 -1      2506 2.00342E+01 1.66123E-02 6.17047E-04 3.10273E-02-9.96796E-14 2.96054E-13
 -1      2507 2.00378E+01 2.47140E-02-5.44511E-04 4.50344E-02-9.79532E-14 4.53339E-13
 -1      2508 2.00126E+01 1.03322E-02 1.23350E-04 1.14392E-02 6.25010E-14 4.93711E-13
 -1      2509 2.00186E+01 1.23831E-02 4.94971E-04 1.66502E-02 1.10303E-13 5.67790E-13
 -1      2510 2.00222E+01 1.79329E-02-5.04733E-04 2.61409E-02-2.48891E-14 5.96304E-13
 -1      2511 2.00080E+01 7.79712E-03 2.58319E-04 6.02928E-03 1.26984E-13 5.02893E-13
 -1      2512 1.99951E+01 5.97755E-02-3.32827E-04 2.57407E-02 7.99922E-14-5.85822E-13
 -1      2513 1.99983E+01 5.44971E-02 1.64038E-04 2.70992E-02 2.74009E-14-6.32322E-13
 -1      2514 1.99897E+01 7.05424E-02-3.39163E-04 1.90954E-02 1.27008E-13-1.86625E-13
 -1      2515 1.99923E+01 6.65175E-02 4.63977E-05 2.25183E-02 3.00255E-14-4.20013E-13
 -1      2516 1.99917E+01 7.30408E-02 2.47450E-04 2.92014E-02 1.69137E-13-5.35829E-13
 -1      2517 2.00072E+01 3.22938E-02-1.93573E-04 2.45948E-02-3.77553E-14-1.17677E-13
 -1      2518 2.00099E+01 2.67177E-02 2.86267E-04 2.18742E-02 6.91040E-14-7.88825E-17
 -1      2519 2.00016E+01 4.63504E-02-2.50739E-04 2.76195E-02-1.87866E-13-4.09693E-13
 -1      2520 2.00047E+01 4.06925E-02 2.59797E-04 2.65685E-02-1.37510E-13-1.17165E-13
 -1      2521 2.00071E+01 4.25486E-02-1.68166E-04 3.17395E-02-6.37667E-14-2.68712E-13
 -1      2522 1.99999E+01 5.86819E-02 1.63725E-04 3.35023E-02 1.00040E-13-3.47642E-13
 -1      2523 1.99864E+01 7.71636E-02-2.95733E-04 8.92131E-03-6.30317E-14 1.65758E-13
 -1      2524 1.99878E+01 7.49947E-02-8.51137E-05 1.37512E-02 1.13338E-13-1.56977E-13
 -1      2525 1.99853E+01 8.38353E-02 3.27258E-04 1.97857E-02 1.62502E-13-1.53040E-13
 -1      2526 1.99858E+01 7.87209E-02-2.08415E-04-2.90528E-03-1.99422E-13 9.77943E-14
 -1      2527 1.99858E+01 7.87405E-02-2.05254E-04 2.41562E-03-2.04141E-13 3.77571E-13
 -1      2528 1.99819E+01 8.96497E-02 3.71871E-04 6.84961E-03 1.35110E-14 1.21286E-13
 -1      2529 1.99879E+01 7.49923E-02-9.19226E-05-1.42093E-02-2.46936E-13-2.58722E-13
 -1      2530 1.99865E+01 7.72125E-02-2.92282E-04-9.40613E-03-2.28553E-13-1.47012E-13
 -1      2531 1.99819E+01 8.97231E-02 3.73659E-04-7.32526E-03-1.82375E-13-6.88016E-14
 -1      2532 1.99924E+01 6.66914E-02 4.12273E-05-2.27839E-02 7.80217E-14-1.70173E-13
 -1      2533 1.99898E+01 7.06687E-02-3.38891E-04-1.94510E-02 9.51183E-15-2.90503E-13
 -1      2534 1.99855E+01 8.41016E-02 3.38960E-04-2.01510E-02-6.99067E-15-4.42080E-14
 -1      2535 1.99985E+01 5.46311E-02 1.54633E-04-2.72883E-02 1.29372E-13-2.76486E-14
 -1      2536 1.99952E+01 5.99638E-02-3.35720E-04-2.59850E-02 1.15633E-13-1.77771E-13
 -1      2537 1.99919E+01 7.34624E-02 2.53683E-04-2.94721E-02 2.19150E-13-1.90493E-13
 -1      2538 2.00050E+01 4.04660E-02 2.00393E-04-2.66881E-02-1.92659E-14 1.59710E-14
 -1      2539 2.00018E+01 4.64529E-02-2.58334E-04-2.77716E-02-1.93139E-14 2.47043E-13
 -1      2540 2.00001E+01 5.90630E-02 1.46105E-04-3.36333E-02 5.79252E-14-1.17628E-13
 -1      2541 2.00101E+01 2.62350E-02 2.10852E-04-2.13262E-02-1.24543E-13-1.59632E-13
 -1      2542 2.00078E+01 3.20496E-02-1.46776E-04-2.44182E-02 6.07411E-16-3.39482E-13
 -1      2543 2.00081E+01 4.26226E-02-6.64351E-05-3.19094E-02 4.00304E-14-8.93307E-14
 -1      2544 4.22873E+00-3.12633E+00 5.07984E-02 3.51597E+00-9.18154E-14 9.96092E-13
 -1      2545 3.18431E+00-2.93194E+00 8.79963E-02 1.41449E+00-5.70516E-14 1.08591E-12
 -1      2546 1.76870E+01-5.17242E+00 7.57242E-03 6.65114E+00-5.73708E-14 1.98782E-13
 -1      2547 1.29459E+01-5.06850E+00 3.78145E-02 6.74355E+00-3.21965E-15 3.46223E-13
 -1      2548 1.98101E+01 1.72873E-01 4.52710E-03-3.77610E-02 1.45383E-13 1.37278E-13
 -1      2549 1.98631E+01 2.22978E-01 1.26024E-02 6.10557E-02 1.56633E-13 1.64705E-13
 -1      2550 1.99536E+01 2.25448E-01-4.52809E-03-6.29662E-02 1.60147E-13 2.71872E-14
 -1      2551 2.00089E+01 1.30174E-02 2.54842E-04-1.01491E-02-2.00044E-14 2.70558E-13
 -1      2552 2.49948E+01-4.46228E+00-1.26957E-02 4.48772E+00 5.25413E-14-1.22125E-15
 -1      2553 2.21669E+01-5.12298E+00 3.16062E-02 5.29066E+00-1.24345E-14 1.66880E-13
 -1      2554 2.20402E+01-5.34963E+00 4.43707E-02-5.16634E+00 1.67311E-13-3.70079E-13
 -1      2555 2.59500E+01-4.43255E+00-6.22784E-02-4.06686E+00 4.94327E-14-4.07535E-13
 -1      2556 3.23289E+01 3.65798E+00-1.23249E-01-5.75629E-01 4.02456E-13-1.98813E-13
 -1      2557 3.11099E+01 1.45368E+00-4.98719E-02 5.77064E-02 3.14609E-13-2.17382E-13
 -1      2558 3.16215E+01 9.43337E-01-6.65836E-02 8.80078E-02-1.56264E-13-4.44755E-13
 -1      2559 3.30657E+01 2.90569E+00-8.77203E-02 5.41219E-01-2.36033E-13-3.36453E-13
 -1      2560 2.01258E+01-5.33053E+00 5.35042E-03-5.95382E+00-3.13083E-14-2.89158E-13
 -1      2561 2.40537E+01-4.66034E+00-5.67109E-02-4.96840E+00 1.04194E-13-6.44484E-14
 -1      2562 3.28547E+01 6.89620E+00-1.35121E-01-5.78744E-01 5.93581E-13 1.53766E-14
 -1      2563 3.25903E+01 5.85651E+00-9.23562E-02-7.86713E-01 5.33906E-13-1.06443E-13
 -1      2564 1.95082E+01 3.65794E+00-1.01576E-02-2.30755E-01 5.60627E-14-3.79857E-13
 -1      2565 1.95270E+01 3.63519E+00-9.50514E-03-4.02991E-01 1.85820E-14-3.80925E-13
 -1      2566 1.96986E+01 3.24764E+00-8.21807E-05-4.42035E-01 9.22323E-15-3.49087E-13
 -1      2567 1.96581E+01 3.31397E+00-3.61679E-04-1.41556E-01 6.19954E-14-3.58865E-13
 -1      2568 3.21229E+01 7.23799E+00-1.37561E-01 4.11991E-01 5.45730E-13 1.04500E-13
 -1      2569 3.26089E+01 7.50882E+00-1.12854E-01-7.91746E-02 5.86919E-13 1.00232E-13
 -1      2570 1.27465E+01-4.80616E+00 8.21631E-02-6.75197E+00-3.14387E-13-5.89889E-13
 -1      2571 1.66782E+01-5.28786E+00 4.69571E-03-6.99547E+00-1.58096E-13-5.53097E-13
 -1      2572 3.17492E+01 4.40883E+00-1.08569E-01 9.91907E-01 6.12649E-13 2.37393E-13
 -1      2573 3.18562E+01 5.73654E+00-1.80833E-01 9.65792E-01 6.09068E-13 2.59126E-13
 -1      2574 2.99344E+01-2.28129E-01-8.13791E-02-2.88294E-01 4.16847E-13 3.07421E-13
 -1      2575 3.15577E+01 2.16527E+00-1.24296E-01 4.02823E-01 5.61884E-13 2.92794E-13
 -1      2576 2.99069E+01 2.57027E+00-4.87683E-02 1.53936E+00 4.97838E-13 4.22773E-13
 -1      2577 2.67572E+01-3.68291E+00 2.73662E-04-3.03994E+00 1.09829E-13 3.60822E-14
 -1      2578 2.85145E+01-2.54970E+00-1.34050E-01-1.93423E+00 1.92735E-13 1.48992E-13
 -1      2579 5.28507E+00-3.56919E+00 3.78956E-02 4.24574E+00-1.36807E-13-6.98330E-13
 -1      2580 3.96762E+00-2.71210E+00 9.37316E-02 2.33642E+00-2.15425E-13-7.22811E-13
 -1      2581 6.55523E+00-3.21410E+00 1.09739E-01-4.75453E+00-2.95347E-13-7.30999E-13
 -1      2582 8.85982E+00-3.69787E+00 5.32096E-02-6.15195E+00-2.38365E-13-6.72129E-13
 -1      2583 3.24846E+01 2.96238E+00-1.51156E-01-9.33392E-01-6.04267E-13-2.14162E-13
 -1      2584 3.18230E+01 1.16550E+00-5.97636E-02-2.40433E-01-5.79051E-13-1.80689E-13
 -1      2585 3.60351E+00-2.30134E+00 1.15565E-01-4.61779E-01-2.27202E-13-7.76268E-13
 -1      2586 4.41622E+00-2.67645E+00 8.23211E-02-3.05407E+00-2.78777E-13-8.02525E-13
 -1      2587 1.07899E+01-4.72705E+00 8.02418E-03 6.55265E+00-1.25233E-13-6.46316E-13
 -1      2588 7.50694E+00-4.37291E+00 1.45802E-02 5.44948E+00-1.05527E-13-6.15008E-13
 -1      2589 8.25830E+00-3.01989E+00 1.42355E-01 4.93409E+00-1.52656E-15-6.19199E-13
 -1      2590 2.62915E+01-4.32615E+00-5.73712E-02 3.88367E+00-5.07427E-13-3.92464E-14
 -1      2591 2.36435E+01-5.09687E+00 2.22094E-02 4.63573E+00-3.68816E-13-2.23266E-13
 -1      2592 1.33556E+01-5.24204E+00 5.28024E-02-6.55389E+00 1.07470E-13-3.45293E-13
 -1      2593 1.73029E+01-5.49348E+00-6.10617E-02-6.72083E+00 1.76636E-13-4.96072E-13
 -1      2594 3.09276E+01-8.96508E-01-8.06761E-02 1.07237E+00-5.67435E-13-2.35922E-14
 -1      2595 2.84274E+01-2.82149E+00-5.84869E-02 2.18280E+00-5.38847E-13-2.05946E-14
 -1      2596 3.04392E+01-5.40121E-01 1.03665E-03-6.42623E-01-4.57759E-13 8.85403E-15
 -1      2597 3.31132E+01 6.43201E+00-1.18272E-01-8.33493E-01-4.73455E-13-3.08531E-13
 -1      2598 3.26027E+01 5.18947E+00-1.11671E-01-1.17840E+00-5.55889E-13-2.61346E-13
 -1      2599 3.36413E+01 7.28383E+00-6.93404E-02 3.03859E-01-5.12423E-13-4.25202E-13
 -1      2600 3.31984E+01 7.27247E+00-1.36260E-01-1.89627E-01-4.85167E-13-3.65652E-13
 -1      2601 3.34990E+01 5.10679E+00-5.91025E-02 8.07278E-01-4.72400E-13-4.60132E-13
 -1      2602 3.39711E+01 6.48279E+00-9.53945E-02 7.49935E-01-5.69156E-13-4.59605E-13
 -1      2603 2.83902E+01-2.96546E+00-2.73190E-02-2.15632E+00-9.32310E-14-6.02296E-13
 -1      2604 3.03892E+01-1.48201E+00-1.02416E-01-1.16535E+00-1.18430E-13-6.05960E-13
 -1      2605 6.96570E+00-4.08318E+00 7.66801E-02-5.11042E+00 1.43829E-13-4.51028E-14
 -1      2606 9.65926E+00-4.52470E+00 3.96933E-03-6.34474E+00 1.18183E-13-2.41807E-13
 -1      2607 2.05609E+01 1.96294E+00-1.33275E-02-1.85181E+00-2.90573E-13-8.57838E-14
 -1      2608 2.04327E+01 1.22956E+00-5.83623E-03-1.23306E+00-2.59769E-13-5.32706E-14
 -1      2609 2.04015E+01 1.39668E+00 3.31871E-03-1.16572E+00-2.41032E-13-1.11674E-13
 -1      2610 2.03064E+01 2.37629E+00-8.22336E-03-1.77246E+00-2.72869E-13-1.56462E-13
 -1      2611 2.05023E+01 8.80629E-01-6.66852E-03 1.18358E+00 2.95675E-13 3.16541E-13
 -1      2612 2.08418E+01 1.25921E+00-5.82247E-03 1.68678E+00 3.19075E-13 3.62274E-13
 -1      2613 2.06541E+01 1.71850E+00-1.57900E-02 1.87637E+00 3.50315E-13 2.36536E-13
 -1      2614 2.04708E+01 1.06921E+00-9.60153E-03 1.18611E+00 3.06834E-13 1.57551E-13
 -1      2615 9.23567E+00-4.28750E+00 1.54108E-02 6.46724E+00-6.62803E-14 6.92918E-13
 -1      2616 6.48251E+00-3.82951E+00 6.24874E-02 5.09668E+00-2.39503E-13 8.78353E-13
 -1      2617 3.03992E+01 6.94068E+00-6.42912E-02-5.33179E-01 5.06817E-13-7.34482E-14
 -1      2618 1.99219E+01 2.86834E+00 1.38688E-03-1.03916E+00-1.08906E-13-3.05762E-13
 -1      2619 1.97972E+01 3.20057E+00-1.50412E-02-1.23179E+00-1.32370E-13-3.26212E-13
 -1      2620 1.98974E+01 3.05861E+00-1.68346E-02-1.41930E+00-1.82257E-13-3.00174E-13
 -1      2621 2.00626E+01 3.72207E-01-4.09530E-03 2.09566E-01 2.09192E-13 5.69432E-14
 -1      2622 2.04382E+01 2.12299E+00-1.26470E-02 1.82496E+00 3.55515E-13 8.55201E-14
 -1      2623 1.29150E+01-4.02974E+00 1.45552E-01 6.50224E+00-1.34476E-13 4.74107E-13
 -1      2624 2.00070E+01 2.86402E+00-1.54049E-02-1.52922E+00-2.10000E-13-2.62936E-13
 -1      2625 2.01527E+01 2.63263E+00-2.16998E-02-1.69653E+00-2.54036E-13-2.05466E-13
 -1      2626 2.03036E+01 2.07457E+00 1.79385E-03-1.42322E+00-2.46660E-13-1.69641E-13
 -1      2627 2.01020E+01 2.53144E+00 2.85249E-03-1.27746E+00-1.81568E-13-2.46533E-13
 -1      2628 3.14508E+01 6.53750E+00-4.25846E-02 8.71663E-01-5.30742E-13-5.03708E-13
 -1      2629 2.66546E+01-4.05390E+00 1.62313E-03 2.61058E+00 8.48072E-14-1.86018E-13
 -1      2630 1.31830E+01-4.33585E+00 1.37428E-01-6.36629E+00 2.56156E-13-4.20775E-13
 -1      2631 1.39852E+01-4.94286E+00 9.75476E-02 6.58418E+00-4.28269E-14-7.10071E-13
 -1      2632 1.30840E+01-3.99785E+00 1.14949E-01 6.32835E+00 9.39526E-14-6.49397E-13
 -1      2633 1.68218E+01-5.23550E+00-6.02422E-02 6.37801E+00 2.66176E-14-5.56236E-13
 -1      2634 2.25156E+01-5.14757E+00 1.14038E-03 4.61261E+00-1.80148E-13-8.11400E-14
 -1      2635 2.04570E+01-5.31028E+00 4.09941E-02 5.85629E+00-8.37108E-14 2.24310E-13
 -1      2636 1.87021E+01-4.77767E+00 1.41210E-01 6.06493E+00-8.14626E-14 1.06172E-13
 -1      2637 4.89173E+00-1.77759E+00 1.62229E-01 8.68047E-01-1.70624E-13-7.37438E-13
 -1      2638 6.06042E+00-7.97551E-01 1.11858E-01-4.72960E-01-1.29371E-13-6.78374E-13
 -1      2639 6.38735E+00-1.17467E+00 1.09447E-01 2.19793E+00-1.70003E-14-6.36879E-13
 -1      2640 2.00110E+01 1.29944E-02-4.23352E-05 1.25687E-02 1.27340E-14 7.29835E-13
 -1      2641 2.00118E+01 1.73237E-02-6.04106E-06 1.63133E-02 7.15503E-15 4.54779E-13
 -1      2642 3.09445E+01 3.59006E+00-4.85099E-02-1.79398E+00-5.26218E-13-1.45439E-13
 -1      2643 4.36404E+00-2.02648E+00 1.40844E-01 1.67161E-01 1.68910E-13 8.44436E-13
 -1      2644 7.24463E+00-2.39769E+00 1.55356E-01 4.35518E+00-9.83102E-14 8.81989E-13
 -1      2645 7.17272E+00-1.90975E+00 1.81084E-01-3.75303E+00-3.03202E-13-8.02913E-13
 -1      2646 2.04559E+01 1.82400E+00 1.24451E-02 1.50515E+00 3.30440E-13 4.10522E-14
 -1      2647 2.09282E+01-5.38773E+00 8.25660E-02-5.46926E+00 2.80553E-13-4.18915E-13
 -1      2648 2.23344E+01-5.43798E+00 7.58736E-02 5.19852E+00-2.45026E-13-2.09083E-13
 -1      2649 6.73178E+00-2.96913E+00 1.22836E-01-4.38356E+00 3.12611E-13 1.36030E-13
 -1      2650 2.72991E+01-4.20102E+00 3.09392E-02-2.23815E+00 6.24223E-14-6.12732E-13
 -1      2651 3.16307E+01 3.67214E+00-2.92094E-02 1.62451E+00-3.10363E-13-4.56329E-13
 -1      2652 2.97824E+01-3.49937E-01-2.20966E-02-2.16846E-01 1.83339E-13-2.82607E-13
 -1      2653 2.88845E+01-1.74533E+00-6.56133E-03-2.04872E-01 2.38021E-13 3.58158E-13
 -1      2654 2.54286E+01-4.64051E+00 3.29250E-02-3.51290E+00-1.73889E-14 1.27620E-13
 -1      2655 1.98149E+01-5.29787E+00 8.57294E-02-5.99453E+00-1.83131E-13-3.15597E-13
 -1      2656 3.03897E+01-6.93144E-01-1.69353E-02 5.46437E-01-3.13777E-14-6.02046E-13
 -1      2657 3.06713E+01 4.26494E+00-4.61921E-02-1.45584E+00 3.54411E-13-2.54935E-13
 -1      2658 1.26931E+01-3.79653E+00 1.41188E-01-6.30620E+00-3.68511E-13-5.47312E-13
 -1      2659 2.99743E+01 6.14292E+00-8.24492E-02 1.12842E+00 5.26079E-13 5.81896E-14
 -1      2660 2.78193E+01-3.94192E+00 5.42878E-03 1.91963E+00-3.24338E-13 1.94567E-13
 -1      2661 3.08697E+01 6.48804E+00-6.84066E-02-7.86214E-01-4.59077E-13-2.27728E-13
 -1      2662 2.00140E+01 1.47586E-02 2.16922E-04-1.51336E-02-1.44278E-13 2.38924E-13
 -1      2663 2.00120E+01 1.99517E-02-1.97534E-04-1.85739E-02-1.17521E-13 9.99395E-14
 -1      2664 2.00152E+01 2.87284E-02 1.92571E-04-2.69584E-02-2.44350E-13 8.47105E-14
 -1      2665 2.00193E+01 1.74415E-02 4.62472E-04-2.05071E-02-2.41130E-13 1.33987E-13
 -1      2666 2.00151E+01 2.53071E-02 2.64299E-04 2.43459E-02 5.26954E-15 3.47575E-13
 -1      2667 2.00211E+01 2.46606E-02-3.61325E-04-3.00639E-02-1.71420E-13 2.59648E-14
 -1      2668 1.98244E+01 2.86182E+00-6.16776E-03 4.74102E-01 1.77018E-13-2.89932E-13
 -1      2669 1.97939E+01 2.91602E+00-6.04166E-03 3.33152E-01 1.47501E-13-3.10289E-13
 -1      2670 1.97731E+01 2.95855E+00-5.65008E-03 2.10686E-01 1.23878E-13-3.22811E-13
 -1      2671 1.97625E+01 2.97714E+00-5.64075E-03 6.75676E-02 9.38936E-14-3.22661E-13
 -1      2672 1.99123E+01 2.62378E+00 4.19829E-03 2.36006E-01 1.39295E-13-2.92033E-13
 -1      2673 2.00535E+01 2.38531E+00-1.03440E-02 9.75161E-01 2.76984E-13-1.81379E-13
 -1      2674 1.99812E+01 2.54229E+00-6.78579E-03 8.43663E-01 2.49213E-13-2.06306E-13
 -1      2675 2.02391E+01 1.94827E+00-1.17092E-02 1.15482E+00 3.06648E-13-1.02297E-13
 -1      2676 2.01412E+01 2.19466E+00-5.25396E-03 1.06108E+00 2.85939E-13-1.36131E-13
 -1      2677 2.02009E+01 1.95309E+00 6.60870E-03 8.45459E-01 2.59961E-13-1.37431E-13
 -1      2678 2.02585E+01 7.62172E-01-2.63604E-03 5.58467E-01 2.51321E-13 2.77258E-15
 -1      2679 2.03879E+01 9.79778E-01 9.16152E-03 8.32822E-01 2.68782E-13 2.96285E-14
 -1      2680 1.93476E+01-4.97249E+00 1.43868E-01-5.64574E+00 3.38563E-13-4.89418E-13
 -1      2681 2.29357E+01-5.44840E+00-1.06846E-01-4.47039E+00 3.29556E-13-4.42495E-13
 -1      2682 2.92081E+01-2.22702E-01-1.97022E-01-1.64860E+00-2.30468E-13 1.74388E-13
 -1      2683 2.89240E+01-1.88736E+00-5.33304E-02-7.68436E-01-2.39642E-13 2.39558E-13
 -1      2684 2.03648E+01 1.52228E+00-1.51744E-03 1.20321E+00 3.05756E-13 9.63552E-15
 -1      2685 2.02663E+01 6.88984E-01 8.23434E-03-3.21919E-01-1.42921E-13-9.41221E-14
 -1      2686 2.01970E+01 5.48432E-01-2.31203E-03-1.45028E-01-1.10128E-13-8.67220E-14
 -1      2687 2.01761E+01 4.47541E-01 6.11059E-03-2.96222E-03-1.04293E-13-7.52436E-14
 -1      2688 2.01368E+01 3.67187E-01-4.48914E-04 1.19583E-01-9.75233E-14-7.51185E-14
 -1      2689 2.02433E+01 6.26650E-01-1.90274E-03-1.07572E-01-1.12939E-13-9.64145E-14
 -1      2690 2.01169E+01 3.11337E-01 3.89974E-03 2.24496E-01-9.46054E-14-8.86380E-14
 -1      2691 2.01066E+01 2.68861E-01 7.92131E-04 3.13613E-01-7.75716E-14-9.85965E-14
 -1      2692 2.01885E+01 4.30322E-01-2.34984E-03 1.52328E-01-1.00156E-13-1.16740E-13
 -1      2693 2.00929E+01 2.41645E-01 2.11705E-03 3.95024E-01-5.69392E-14-1.08785E-13
 -1      2694 2.01070E+01 2.24341E-01 1.67741E-03 4.65902E-01-6.64785E-14-1.25371E-13
 -1      2695 2.01490E+01 3.24167E-01-2.13209E-03 3.49096E-01-8.43023E-14-1.42396E-13
 -1      2696 2.01000E+01 2.16397E-01 7.58690E-04 5.35172E-01-6.32023E-14-9.79466E-14
 -1      2697 2.01341E+01 2.16387E-01 2.34616E-03 5.98634E-01-4.64307E-14-9.99803E-14
 -1      2698 2.01275E+01 2.78369E-01-1.71080E-03 5.07938E-01-5.30298E-14-1.07379E-13
 -1      2699 2.01331E+01 2.21560E-01-2.58365E-04 6.64519E-01-3.75602E-14-1.03643E-13
 -1      2700 2.01839E+01 2.33153E-01 2.88115E-03 7.28084E-01-4.90530E-14-9.12413E-14
 -1      2701 2.01222E+01 2.74067E-01-1.25817E-03 6.49471E-01-5.05775E-14-9.17789E-14
 -1      2702 2.01875E+01 2.46512E-01-9.98812E-04 7.96934E-01-7.49948E-14-5.93600E-14
 -1      2703 2.02531E+01 2.64541E-01 3.31573E-03 8.65407E-01-8.87508E-14-3.50706E-14
 -1      2704 2.01296E+01 2.97417E-01-8.48341E-04 7.89214E-01-3.74692E-14-1.74840E-14
 -1      2705 2.02607E+01 2.80931E-01-1.47355E-03 9.41381E-01-8.72747E-14 1.97107E-14
 -1      2706 2.03406E+01 2.99327E-01 3.64885E-03 1.01691E+00-2.93903E-14 1.83899E-14
 -1      2707 2.01470E+01 3.35878E-01-5.33860E-04 9.38029E-01-4.66324E-14-4.07343E-15
 -1      2708 2.03530E+01 3.11993E-01-1.62021E-03 1.10192E+00 1.05940E-14 3.17786E-14
 -1      2709 2.04481E+01 3.22253E-01 3.85607E-03 1.18356E+00 3.48741E-14-9.04631E-16
 -1      2710 2.01734E+01 3.74916E-01-4.07580E-04 1.10235E+00-2.42274E-14 4.67326E-14
 -1      2711 2.04692E+01 3.21269E-01-1.26997E-03 1.27691E+00 3.24264E-14-1.36700E-14
 -1      2712 2.05827E+01 3.10660E-01 3.89107E-03 1.35962E+00 7.10564E-15-2.36968E-14
 -1      2713 2.02117E+01 3.94512E-01-6.70485E-04 1.28397E+00 1.28047E-14-2.70652E-14
 -1      2714 2.06220E+01 2.81157E-01-1.01262E-04 1.45716E+00-3.46349E-14 1.38239E-14
 -1      2715 2.07612E+01 2.30873E-01 3.65482E-03 1.53022E+00-6.21613E-14 7.23437E-15
 -1      2716 2.02724E+01 3.65139E-01-1.70461E-03 1.47924E+00-1.55817E-15 3.15469E-14
 -1      2717 2.08380E+01 1.51704E-01 2.40074E-03 1.62258E+00-2.81646E-15 7.03367E-14
 -1      2718 2.10160E+01 3.60832E-02 2.85769E-03 1.66736E+00 3.18912E-14 1.30004E-13
 -1      2719 2.03796E+01 2.43649E-01-4.16079E-03 1.67718E+00 7.13486E-15 6.37392E-14
 -1      2720 2.11649E+01-1.19209E-01 6.88622E-03 1.73638E+00-3.03146E-15 1.72295E-13
 -1      2721 2.14016E+01-3.29143E-01 8.67582E-04 1.72339E+00 2.36241E-14 1.68105E-13
 -1      2722 2.05804E+01-2.85200E-02-9.01204E-03 1.85515E+00 1.41333E-14 1.41219E-13
 -1      2723 2.16773E+01-5.83992E-01 1.42286E-02 1.73517E+00 2.58377E-14 1.57214E-13
 -1      2724 2.19947E+01-9.06536E-01-3.60624E-03 1.62214E+00 4.41663E-14 1.65249E-13
 -1      2725 2.09554E+01-5.17976E-01-1.71320E-02 1.96923E+00 1.95190E-14 1.71670E-13
 -1      2726 2.24674E+01-1.25831E+00 2.40912E-02 1.51555E+00 8.78238E-14 1.66793E-13
 -1      2727 2.28729E+01-1.66100E+00-1.09711E-02 1.24801E+00 7.20470E-14 1.88941E-13
 -1      2728 2.16231E+01-1.26746E+00-2.85538E-02 1.93459E+00 6.13015E-14 1.61571E-13
 -1      2729 2.36063E+01-2.04289E+00 3.29694E-02 9.26637E-01 2.37380E-14 1.75695E-13
 -1      2730 2.40727E+01-2.35069E+00-1.36178E-02 4.46828E-01-4.75401E-14 1.92010E-13
 -1      2731 2.27168E+01-2.22509E+00-4.34879E-02 1.60557E+00 4.88221E-14 1.02513E-13
 -1      2732 2.49705E+01-2.51910E+00 1.30371E-02-1.58700E-01-4.58140E-14 2.85792E-13
 -1      2733 2.53508E+01-2.43472E+00-1.04496E-02-7.66513E-01-1.31587E-14 2.51223E-13
 -1      2734 2.43248E+01-2.89428E+00-9.15958E-03 7.05083E-01 2.89100E-14 2.76286E-13
 -1      2735 2.66458E+01-1.68890E+00-3.91546E-02-1.71644E+00-1.38518E-14 2.79088E-13
 -1      2736 2.68940E+01-5.75958E-01-7.86368E-02-2.30190E+00-7.33649E-14 3.48981E-13
 -1      2737 2.69886E+01 8.69656E-01-6.49166E-02-2.32226E+00-9.48824E-14 2.97897E-13
 -1      2738 2.61224E+01 3.41220E+00-1.36997E-01-1.79925E+00-1.84755E-13 8.39476E-14
 -1      2739 2.60174E+01 4.24721E+00-1.12323E-01-8.64409E-01-2.05835E-13 4.64039E-14
 -1      2740 2.61451E+01 4.46665E+00-9.97235E-02 5.01882E-01-3.09225E-13-4.66762E-14
 -1      2741 2.62251E+01 3.74298E+00-1.46252E-01 1.53151E+00-3.34330E-13-6.85545E-14
 -1      2742 2.62311E+01 2.43322E+00-3.86211E-02 2.32963E+00-2.36963E-13-1.17663E-13
 -1      2743 2.63425E+01 8.58551E-01-1.41853E-01 2.62216E+00-1.13867E-13-9.78696E-14
 -1      2744 2.64379E+01-5.35605E-01-2.57936E-02 2.30516E+00-1.02772E-13-5.94941E-14
 -1      2745 2.63078E+01-1.67467E+00-5.22201E-02 1.86108E+00 5.23019E-16-1.88370E-13
 -1      2746 2.55613E+01-2.27165E+00-2.75162E-02 1.03397E+00 9.26819E-14-1.83555E-13
 -1      2747 2.51974E+01-2.49192E+00 1.27794E-02 4.11792E-01 8.72366E-14-1.61959E-13
 -1      2748 2.63973E+01-2.45696E+00-2.55710E-02 1.02595E+00 3.65610E-14-3.07502E-13
 -1      2749 2.42785E+01-2.40875E+00-2.07720E-02-2.53238E-01 9.97605E-14-9.68626E-14
 -1      2750 2.38306E+01-2.13151E+00 3.28892E-02-7.49463E-01 8.15801E-14-8.66451E-14
 -1      2751 2.46133E+01-2.95994E+00-2.55225E-02-4.85408E-01 1.05142E-13-2.07410E-13
 -1      2752 2.30619E+01-1.77030E+00-1.34183E-02-1.11641E+00 8.36085E-14-1.09327E-14
 -1      2753 2.26490E+01-1.35882E+00 2.63679E-02-1.40819E+00 1.06996E-13 1.30152E-13
 -1      2754 2.29551E+01-2.34504E+00-4.18824E-02-1.46930E+00 1.38972E-13-9.88072E-14
 -1      2755 2.21391E+01-9.93189E-01-4.27015E-03-1.53397E+00-6.89553E-16 1.43576E-13
 -1      2756 2.18127E+01-6.52810E-01 1.60539E-02-1.66206E+00-1.12867E-13 5.19582E-14
 -1      2757 2.17812E+01-1.38341E+00-3.10364E-02-1.85677E+00 3.59570E-14-1.02886E-14
 -1      2758 2.15106E+01-3.78278E-01 3.09890E-04-1.65782E+00-2.28674E-13-8.41113E-15
 -1      2759 2.12687E+01-1.47426E-01 8.44684E-03-1.67581E+00-1.77466E-13-4.66699E-14
 -1      2760 2.10557E+01-5.87650E-01-1.87377E-02-1.91494E+00-1.76607E-13-1.88969E-14
 -1      2761 2.11049E+01 2.52687E-02 2.63968E-03-1.60423E+00-1.37739E-13 2.79320E-14
 -1      2762 2.09263E+01 1.57021E-01 3.38609E-03-1.55732E+00-1.47695E-13 4.75667E-14
 -1      2763 2.06456E+01-4.97253E-02-9.77963E-03-1.80112E+00-5.76556E-14 4.05492E-14
 -1      2764 2.08420E+01 2.49033E-01 3.41160E-03-1.45724E+00-1.70943E-13 1.99064E-13
 -1      2765 2.07061E+01 3.10467E-01 5.34273E-04-1.37702E+00-8.78892E-14 1.23369E-13
 -1      2766 2.04268E+01 2.59388E-01-4.61497E-03-1.61068E+00-1.24489E-13 2.18144E-13
 -1      2767 2.06633E+01 3.48276E-01 3.65507E-03-1.26876E+00-2.17064E-14 1.93300E-13
 -1      2768 2.05556E+01 3.65576E-01-8.60639E-04-1.17585E+00-1.95095E-14 2.00363E-13
 -1      2769 2.03116E+01 4.06291E-01-1.85060E-03-1.39322E+00-1.37361E-13 3.13382E-13
 -1      2770 2.05327E+01 3.70882E-01 3.63044E-03-1.07046E+00 3.62869E-14 1.48850E-13
 -1      2771 2.04445E+01 3.63321E-01-1.41345E-03-9.77394E-01 1.42000E-13 2.62097E-13
 -1      2772 2.02476E+01 4.50624E-01-5.60705E-04-1.17489E+00-3.91399E-14 3.77692E-13
 -1      2773 2.04302E+01 3.51210E-01 3.43931E-03-8.80687E-01 4.64683E-14 1.28850E-13
 -1      2774 2.03569E+01 3.31413E-01-1.51620E-03-7.94449E-01 1.16479E-13 3.02144E-15
 -1      2775 2.02068E+01 4.36457E-01-7.84810E-05-9.69813E-01-3.44461E-15 2.43141E-13
 -1      2776 2.03460E+01 3.11392E-01 3.14084E-03-7.09165E-01 1.61385E-13 4.36627E-14
 -1      2777 2.02851E+01 2.86988E-01-1.40188E-03-6.33126E-01 1.96781E-13-2.08761E-14
 -1      2778 2.01758E+01 3.92873E-01 1.86507E-05-7.85361E-01 8.47296E-14-2.73859E-14
 -1      2779 2.02756E+01 2.64621E-01 2.78054E-03-5.60131E-01 2.19286E-13-1.46145E-13
 -1      2780 2.02253E+01 2.39897E-01-1.20057E-03-4.95396E-01 1.30908E-13-1.03247E-14
 -1      2781 2.01490E+01 3.37655E-01-3.39066E-05-6.24720E-01 1.79719E-13-1.01103E-13
 -1      2782 2.02165E+01 2.18202E-01 2.39574E-03-4.34411E-01 9.60273E-14 4.26722E-14
 -1      2783 2.01755E+01 1.95368E-01-9.80185E-04-3.80756E-01 1.30348E-13 1.01003E-13
 -1      2784 2.01247E+01 2.80958E-01-1.19585E-04-4.88407E-01 9.82850E-14-4.29199E-14
 -1      2785 2.01673E+01 1.75825E-01 2.01493E-03-3.30838E-01 6.41982E-14-5.56908E-14
 -1      2786 2.01345E+01 1.55858E-01-7.73919E-04-2.87318E-01-4.13297E-14-5.45163E-14
 -1      2787 2.01024E+01 2.28127E-01-1.90262E-04-3.75261E-01 2.03760E-14-2.99673E-13
 -1      2788 2.01271E+01 1.39048E-01 1.65801E-03-2.47189E-01-1.55093E-13-7.44665E-14
 -1      2789 2.01012E+01 1.22222E-01-5.96075E-04-2.12529E-01-2.35669E-13-1.04179E-13
 -1      2790 2.00825E+01 1.81614E-01-2.32029E-04-2.83134E-01-7.76673E-14-4.58478E-13
 -1      2791 2.00947E+01 1.08228E-01 1.33640E-03-1.80793E-01-2.46597E-13 7.14829E-14
 -1      2792 2.00746E+01 9.44378E-02-4.50642E-04-1.53636E-01 5.48462E-14 2.41775E-13
 -1      2793 2.00650E+01 1.42196E-01-2.45245E-04-2.09410E-01-6.95457E-14-2.81682E-13
 -1      2794 2.00690E+01 8.30829E-02 1.05588E-03-1.28931E-01 3.24591E-13 1.18437E-13
 -1      2795 2.00537E+01 7.20460E-02-3.34141E-04-1.07976E-01 3.39434E-13 1.37788E-13
 -1      2796 2.00501E+01 1.09725E-01-2.34934E-04-1.51366E-01 1.66980E-13 5.54559E-14
 -1      2797 2.00488E+01 6.30598E-02 8.26981E-04-8.90307E-02 3.83958E-13 2.43893E-14
 -1      2798 2.00373E+01 5.43491E-02-2.31335E-04-7.30709E-02 2.92734E-13 9.22281E-15
 -1      2799 2.00376E+01 8.36071E-02-2.02072E-04-1.06395E-01 2.30704E-13-2.10146E-13
 -1      2800 2.00331E+01 4.71822E-02 5.93608E-04-5.88581E-02 1.30711E-13 2.00053E-14
 -1      2801 2.00247E+01 4.06762E-02-5.42714E-05-4.70016E-02 8.49048E-14-1.49554E-13
 -1      2802 2.00269E+01 6.26820E-02-2.55252E-04-7.20445E-02 1.74713E-13-1.71482E-13
 -1      2803 2.00502E+01 1.61257E-01 1.87870E-03-4.12640E-01 1.02228E-13-6.78107E-14
 -1      2804 2.00271E+01 1.81118E-01 2.86876E-03-3.51528E-01 1.24615E-13-4.51361E-14
 -1      2805 2.00152E+01 4.06037E-02-6.29919E-05 3.89207E-02-6.41263E-14-7.09030E-14
 -1      2806 2.00194E+01 3.08155E-02 2.03088E-04 3.34882E-02-7.96099E-14 2.92075E-13
 -1      2807 2.00265E+01 3.51706E-02 5.80540E-04 4.22887E-02-1.43168E-13 2.29352E-13
 -1      2808 2.00345E+01 2.08313E-01 1.28763E-03-2.75171E-01 1.33738E-13-3.66794E-14
 -1      2809 2.00411E+01 2.48908E-01 4.94035E-03-1.93429E-01 1.44867E-13-2.47450E-14
 -1      2810 2.01050E+01 2.55815E-01-2.87639E-03-3.13707E-01 1.36864E-13-6.73718E-14
 -1      2811 2.01875E+01 1.38726E-01 2.55727E-03-6.25097E-01 3.34934E-15-2.34505E-14
 -1      2812 2.01216E+01 1.38610E-01 5.82692E-04-5.78443E-01 2.40364E-14-3.73092E-14
 -1      2813 2.03006E+01 1.41407E-01 2.65635E-03-7.22736E-01 9.49737E-14-3.62254E-14
 -1      2814 2.02178E+01 1.39349E-01 8.42774E-05-6.77088E-01 4.22088E-14-1.84434E-14
 -1      2815 2.01801E+01 1.78692E-01-1.71525E-03-6.96394E-01 4.34718E-14-2.63891E-14
 -1      2816 2.04416E+01 1.39461E-01 2.52281E-03-8.19548E-01 1.88268E-13-6.88374E-14
 -1      2817 2.03432E+01 1.41121E-01-6.00086E-05-7.74919E-01 1.56310E-13-2.90946E-14
 -1      2818 2.02555E+01 1.80102E-01-1.62926E-03-8.06403E-01 1.54960E-13-2.12867E-14
 -1      2819 2.06120E+01 1.20235E-01 2.04524E-03-9.11203E-01 1.09585E-13-6.00241E-14
 -1      2820 2.04985E+01 1.32510E-01 1.72886E-04-8.71038E-01 1.39793E-13-5.35675E-14
 -1      2821 2.03565E+01 1.72378E-01-1.77650E-03-9.15700E-01 1.50031E-13-3.70561E-14
 -1      2822 2.08161E+01 6.80706E-02 1.07090E-03-9.85706E-01 6.90006E-14 3.06714E-15
 -1      2823 2.06878E+01 9.94821E-02 8.58712E-04-9.57503E-01 1.17912E-13 4.08416E-15
 -1      2824 2.04883E+01 1.38829E-01-2.24372E-03-1.01941E+00 8.57253E-14 7.92968E-15
 -1      2825 2.10612E+01-3.53330E-02-5.94569E-04-1.02188E+00-6.39824E-14 2.76883E-14
 -1      2826 2.09184E+01 2.49625E-02 2.10801E-03-1.01786E+00 9.25306E-15 2.68808E-14
 -1      2827 2.06608E+01 5.90985E-02-3.15573E-03-1.10472E+00 1.11459E-14 1.66293E-13
 -1      2828 2.13569E+01-2.07631E-01-3.14573E-03-9.88093E-01-1.19784E-13 4.51020E-14
 -1      2829 2.12008E+01-1.09679E-01 3.99546E-03-1.02537E+00-1.02608E-13 2.75071E-14
 -1      2830 2.08902E+01-8.97425E-02-4.62965E-03-1.14903E+00-5.93699E-14 8.09483E-14
 -1      2831 2.17122E+01-4.56777E-01-6.70960E-03-8.42724E-01-4.90085E-14 7.38493E-14
 -1      2832 2.15471E+01-3.18900E-01 6.44219E-03-9.41941E-01-9.27388E-14 7.44301E-14
 -1      2833 2.11985E+01-3.27791E-01-6.60972E-03-1.11785E+00-1.17452E-13 5.13692E-14
 -1      2834 2.21278E+01-7.62782E-01-1.09576E-02-5.39519E-01-1.47262E-13 1.58109E-13
 -1      2835 2.19641E+01-6.00119E-01 8.78679E-03-7.20059E-01-1.03294E-13 1.02138E-13
 -1      2836 2.16100E+01-6.58910E-01-8.62499E-03-9.63794E-01-1.18689E-13 5.71251E-14
 -1      2837 2.25791E+01-1.04996E+00-1.42125E-02-4.49016E-02-1.82539E-13 2.46128E-13
 -1      2838 2.24379E+01-9.10128E-01 9.64586E-03-3.13300E-01-1.49885E-13 2.22669E-13
 -1      2839 2.21374E+01-1.04449E+00-9.21857E-03-6.30510E-01-1.96334E-13 1.59170E-13
 -1      2840 2.29967E+01-1.16357E+00-1.31679E-02 6.24805E-01-1.62829E-13 2.62238E-13
 -1      2841 2.29113E+01-1.13697E+00 6.92084E-03 2.95120E-01-1.66710E-13 2.28403E-13
 -1      2842 2.27545E+01-1.36865E+00-5.62149E-03-7.29716E-02-1.75701E-13 1.39100E-13
 -1      2843 2.32558E+01-8.89488E-01-6.37589E-03 1.34021E+00-7.35596E-14 2.16483E-13
 -1      2844 2.32620E+01-1.08848E+00-3.86487E-03 1.03613E+00-1.64792E-13 2.34333E-13
 -1      2845 2.33587E+01-1.40882E+00 4.53915E-03 6.95343E-01-1.31812E-13 2.28721E-13
 -1      2846 2.32382E+01-7.78469E-02 1.08581E-02 1.81677E+00 9.20557E-14 2.52440E-13
 -1      2847 2.33406E+01-5.55715E-01-2.05017E-02 1.68819E+00 4.58100E-14 2.85539E-13
 -1      2848 2.37601E+01-9.24440E-01 7.21510E-03 1.50991E+00-5.13426E-14 2.68982E-13
 -1      2849 2.29423E+01 1.06477E+00 2.01371E-02 1.66242E+00 2.28895E-13 2.18299E-13
 -1      2850 2.30709E+01 4.58904E-01-4.02936E-02 1.84724E+00 1.21868E-13 2.24297E-13
 -1      2851 2.37534E+01 2.69919E-01 9.96264E-03 1.99235E+00 1.61747E-13 3.13930E-13
 -1      2852 2.25895E+01 1.97191E+00 6.59169E-03 7.38672E-01 2.20306E-13 2.12445E-13
 -1      2853 2.26844E+01 1.59201E+00-3.04111E-02 1.25315E+00 2.78094E-13 1.89467E-13
 -1      2854 2.34438E+01 1.62478E+00-1.22885E-02 1.63734E+00 2.45988E-13 2.37170E-13
 -1      2855 2.25294E+01 2.00734E+00-2.44556E-02-5.89812E-01 9.49171E-14-2.45638E-14
 -1      2856 2.25162E+01 2.11771E+00-7.89365E-03 1.09027E-02 1.98650E-13 1.28111E-13
 -1      2857 2.31397E+01 2.52523E+00-3.25804E-02 4.22603E-01 3.06149E-13 2.73293E-13
 -1      2858 2.28573E+01 1.13875E+00-3.55622E-02-1.62599E+00 6.66309E-14-1.76148E-13
 -1      2859 2.27284E+01 1.66810E+00 1.65270E-02-1.24124E+00 4.49172E-14-1.20563E-13
 -1      2860 2.32346E+01 2.31749E+00-1.50453E-02-1.04943E+00 2.09447E-13-3.15468E-14
 -1      2861 2.32342E+01-1.33208E-02-3.06097E-02-1.87957E+00 3.69687E-14-1.66497E-13
 -1      2862 2.30967E+01 5.64440E-01 1.65785E-02-1.83918E+00 8.83391E-14-1.57335E-13
 -1      2863 2.36059E+01 1.04706E+00-2.72372E-03-1.90532E+00 6.76785E-14-1.40874E-13
 -1      2864 2.33615E+01-8.46107E-01-1.31567E-02-1.45983E+00 9.38238E-14-2.48145E-13
 -1      2865 2.32970E+01-4.84310E-01 3.73418E-03-1.68628E+00 1.06319E-13-1.75154E-13
 -1      2866 2.38206E+01-3.18549E-01 1.20225E-02-1.86062E+00 8.88621E-14-2.01126E-13
 -1      2867 2.31543E+01-1.14511E+00 8.51891E-04-7.40472E-01 1.29744E-14-1.94515E-13
 -1      2868 2.31895E+01-1.05544E+00-9.71130E-03-1.06833E+00 1.29269E-15-1.67182E-13
 -1      2869 2.36342E+01-1.19990E+00 6.58721E-03-1.19396E+00 2.74500E-14-3.62930E-13
 -1      2870 2.27412E+01-1.04456E+00 8.56664E-03-4.92524E-02 1.40958E-13-1.24041E-13
 -1      2871 2.28517E+01-1.13402E+00-1.40675E-02-3.55203E-01 9.11398E-14-1.15570E-13
 -1      2872 2.31269E+01-1.42517E+00-1.32438E-04-3.79259E-01-2.71234E-14-1.39493E-13
 -1      2873 2.22664E+01-7.58761E-01 9.69627E-03 4.62823E-01 8.43522E-14-2.56246E-14
 -1      2874 2.24156E+01-9.18260E-01-1.26721E-02 2.36660E-01 9.23098E-14-1.58994E-13
 -1      2875 2.25052E+01-1.22421E+00-6.21903E-03 2.96447E-01 7.12598E-14-8.93705E-14
 -1      2876 2.18245E+01-4.47684E-01 8.00449E-03 7.71404E-01 1.76661E-13 1.53307E-13
 -1      2877 2.19836E+01-6.05084E-01-8.96149E-03 6.34369E-01 1.76017E-13 9.04510E-14
 -1      2878 2.19253E+01-8.48189E-01-8.10405E-03 7.41236E-01 4.11652E-14-1.09407E-14
 -1      2879 2.14513E+01-1.90435E-01 5.64951E-03 9.11139E-01 8.82033E-14 3.65133E-13
 -1      2880 2.16040E+01-3.13922E-01-5.11900E-03 8.49310E-01 1.64777E-13 3.29976E-13
 -1      2881 2.14544E+01-4.72334E-01-7.13784E-03 9.74875E-01 3.24075E-14 1.94869E-13
 -1      2882 2.11492E+01-9.89842E-03 3.52307E-03 9.31233E-01-5.90669E-14 3.63616E-13
 -1      2883 2.12884E+01-9.31061E-02-2.07659E-03 9.23542E-01-4.94255E-15 4.59836E-13
 -1      2884 2.10976E+01-1.74715E-01-5.30189E-03 1.05139E+00-1.86631E-14 3.48224E-13
 -1      2885 2.09077E+01 1.00328E-01 1.95353E-03 8.76271E-01 6.85911E-14 2.47178E-13
 -1      2886 2.10311E+01 5.17505E-02 1.03772E-05 9.02904E-01 3.65031E-14 3.79559E-13
 -1      2887 2.08348E+01 2.78131E-02-3.66427E-03 1.02477E+00 1.55925E-14 1.70942E-13
 -1      2888 2.07146E+01 1.56770E-01 9.25920E-04 7.80417E-01 6.26809E-14 5.96419E-14
 -1      2889 2.08218E+01 1.33714E-01 1.30974E-03 8.25743E-01 1.11505E-13 1.77222E-13
 -1      2890 2.06413E+01 1.47668E-01-2.48437E-03 9.37657E-01 1.26740E-13 1.98151E-13
 -1      2891 2.05592E+01 1.76539E-01 3.14240E-04 6.67505E-01-4.60289E-14-1.11897E-14
 -1      2892 2.06509E+01 1.70389E-01 2.01811E-03 7.20457E-01 7.20826E-15-2.62186E-15
 -1      2893 2.04965E+01 2.06011E-01-1.72156E-03 8.20549E-01 5.60382E-14 1.02413E-13
 -1      2894 2.04340E+01 1.73635E-01-1.59978E-05 5.52912E-01-6.20668E-14 1.61303E-13
 -1      2895 2.05111E+01 1.77629E-01 2.30975E-03 6.06328E-01-3.31000E-14 1.01907E-13
 -1      2896 2.03858E+01 2.23186E-01-1.25789E-03 6.93849E-01-1.46000E-13-1.29543E-13
 -1      2897 2.03331E+01 1.58215E-01-1.70560E-04 4.45730E-01-1.67585E-13 2.61742E-13
 -1      2898 2.03968E+01 1.67572E-01 2.32625E-03 4.95408E-01-8.42473E-14 2.89433E-13
 -1      2899 2.02995E+01 2.15343E-01-9.79490E-04 5.70343E-01-1.86454E-13 1.24838E-13
 -1      2900 2.02523E+01 1.37083E-01-2.22618E-04 3.50671E-01-1.55256E-13 1.55970E-13
 -1      2901 2.03040E+01 1.48661E-01 2.17521E-03 3.94481E-01-1.67415E-13 2.69133E-13
 -1      2902 2.02313E+01 1.94023E-01-8.03132E-04 4.57356E-01-1.11713E-13-4.41104E-15
 -1      2903 2.01882E+01 1.14508E-01-2.19686E-04 2.69547E-01 6.86810E-14 6.92048E-14
 -1      2904 2.02295E+01 1.26374E-01 1.93361E-03 3.06727E-01-8.59237E-14 1.23370E-13
 -1      2905 2.01771E+01 1.66885E-01-6.78216E-04 3.58464E-01-5.14806E-14-4.49892E-14
 -1      2906 2.01379E+01 9.29781E-02-1.91144E-04 2.02355E-01 1.15793E-13 1.11634E-13
 -1      2907 2.01703E+01 1.04035E-01 1.65408E-03 2.32982E-01 1.87235E-13 1.35445E-13
 -1      2908 2.01340E+01 1.38698E-01-5.78752E-04 2.74765E-01 6.11771E-14-1.52527E-14
 -1      2909 2.00990E+01 7.37914E-02-1.55476E-04 1.48051E-01 1.96105E-13-1.65100E-14
 -1      2910 2.01239E+01 8.34949E-02 1.37094E-03 1.72675E-01 8.69520E-14-5.20755E-14
 -1      2911 2.01000E+01 1.12204E-01-4.92390E-04 2.05817E-01 1.66019E-13 3.85878E-14
 -1      2912 2.00694E+01 5.75157E-02-9.45929E-05 1.05088E-01-3.85689E-14 2.77277E-13
 -1      2913 2.00881E+01 6.56457E-02 1.10614E-03 1.24466E-01 1.01837E-13 1.86517E-13
 -1      2914 2.00733E+01 8.87991E-02-4.13347E-04 1.50303E-01 5.30576E-14 5.69553E-14
 -1      2915 2.00477E+01 4.44651E-02 1.82041E-04 7.18793E-02-7.73281E-14 4.40020E-13
 -1      2916 2.00610E+01 5.06653E-02 8.62672E-04 8.66056E-02-2.10300E-14 3.58252E-13
 -1      2917 2.00524E+01 6.90168E-02-3.86775E-04 1.06550E-01-7.14004E-14 3.33230E-14
 -1      2918 2.00316E+01 3.75087E-02 3.05591E-04 5.04996E-02-5.60312E-14 3.36849E-13
 -1      2919 2.00409E+01 4.24601E-02 6.67678E-04 6.19389E-02-3.61480E-14 3.88191E-13
 -1      2920 2.00356E+01 5.64456E-02-6.64233E-04 7.69516E-02-3.34939E-14 6.30169E-14
 -1      2921 2.00233E+01 4.91555E-02-8.16430E-04 5.75033E-02-1.02948E-14 4.86447E-14
 -1      2922 1.99730E+01 1.02813E-01-2.71639E-04 4.56880E-03-6.69368E-14 1.36474E-13
 -1      2923 1.99742E+01 1.01488E-01-1.22405E-04 1.21224E-02 2.90176E-14-2.52883E-15
 -1      2924 2.00225E+01 3.65975E-02 4.35411E-04-3.95691E-02 4.02597E-14-8.22061E-14
 -1      2925 2.00179E+01 3.26849E-02 4.62097E-05-3.32634E-02-1.29174E-13 4.12434E-14
 -1      2926 2.00195E+01 4.81972E-02-2.96365E-04-4.96853E-02 8.70614E-15-8.34863E-14
 -1      2927 1.99846E+01 8.63740E-02-4.36046E-04 3.36144E-02 1.07464E-13-6.17134E-13
 -1      2928 1.99900E+01 8.06391E-02 1.69439E-04 3.75338E-02 2.71144E-13-7.00695E-13
 -1      2929 1.99743E+01 1.01639E-01-1.35037E-04-1.24837E-02-2.68254E-13-1.29809E-13
 -1      2930 1.99730E+01 1.02926E-01-2.63624E-04-4.92800E-03-2.44011E-13 4.13625E-14
 -1      2931 1.99666E+01 1.17911E-01 4.74590E-04-1.24407E-04-2.17023E-13-1.56312E-13
 -1      2932 1.99766E+01 9.75046E-02-3.77943E-04 2.08379E-02 5.49065E-14-5.29564E-15
 -1      2933 1.99803E+01 9.37428E-02 3.02523E-05 2.71028E-02 9.17587E-14-2.14682E-13
 -1      2934 1.99782E+01 1.03206E-01 3.70997E-04 3.57546E-02 4.15253E-14-3.83711E-13
 -1      2935 1.99696E+01 1.14005E-01 4.43628E-04 1.93844E-02-4.22448E-14-8.81468E-14
 -1      2936 1.99803E+01 9.42956E-02 2.09878E-05-2.72489E-02 5.52670E-14 4.35130E-14
 -1      2937 1.99767E+01 9.79274E-02-3.74021E-04-2.10783E-02-1.29330E-13 9.42745E-14
 -1      2938 1.99697E+01 1.14494E-01 4.60929E-04-1.95079E-02-1.00288E-13 1.10343E-13
 -1      2939 1.99901E+01 8.13233E-02 1.42752E-04-3.77376E-02 2.25253E-13-7.21526E-14
 -1      2940 1.99847E+01 8.70778E-02-4.37450E-04-3.38237E-02 1.76550E-13-4.84293E-14
 -1      2941 1.99782E+01 1.04128E-01 3.82728E-04-3.58517E-02-3.51371E-14 2.40590E-13
 -1      2942 2.00016E+01 6.40488E-02 5.41702E-05-4.17464E-02 1.54782E-13-9.79939E-14
 -1      2943 1.99959E+01 7.15206E-02-4.02494E-04-4.11065E-02 2.53154E-13-2.12425E-13
 -1      2944 1.99909E+01 8.79557E-02 2.65164E-04-4.66215E-02 2.01246E-13-2.33819E-13
 -1      2945 9.57953E+00-1.97811E+00 8.98330E-02 5.03007E+00-5.05707E-14 7.38465E-13
 -1      2946 7.70893E+00-1.11464E+00 1.74170E-01 3.30459E+00 1.06186E-13 8.07021E-13
 -1      2947 1.26327E+01-3.18540E+00 1.97551E-01-5.83651E+00 3.50636E-13-3.78364E-13
 -1      2948 1.54785E+01-4.26354E+00-4.40035E-03-6.32457E+00 3.44114E-13-5.85490E-13
 -1      2949 2.61557E+01-4.67370E+00 9.43162E-02-2.40224E+00 1.32457E-13-5.33518E-13
 -1      2950 2.77426E+01-3.84666E+00-1.50677E-01-1.00544E+00-8.01442E-15-7.25808E-13
 -1      2951 2.99198E+01 2.27886E+00-1.04320E-01 2.12994E+00-1.58151E-13-4.40981E-13
 -1      2952 2.99784E+01 4.05198E+00-1.99841E-01 1.94765E+00-3.79224E-13-5.97591E-13
 -1      2953 2.89794E+01 3.13457E-01-1.97476E-01-1.29502E+00 1.93554E-13-1.56791E-13
 -1      2954 2.84416E+01-1.69931E+00-1.41410E-02-2.12866E-01 1.10204E-13-1.55598E-13
 -1      2955 2.39837E+01-4.99580E+00 6.83754E-02-3.84108E+00-1.16573E-13 1.46647E-13
 -1      2956 2.58123E+01-4.50724E+00-1.39166E-01-2.33197E+00-6.77514E-14 2.54678E-13
 -1      2957 2.94183E+01 5.46761E+00-1.52630E-01 1.49744E+00-5.07039E-13-4.52152E-13
 -1      2958 2.89296E+01 6.08576E+00-2.12433E-01 5.69195E-01-4.66321E-13-3.65406E-13
 -1      2959 6.47199E+00-1.68717E+00 1.64258E-01-3.05629E+00 3.61253E-13 2.34285E-13
 -1      2960 8.88374E+00-2.32557E+00 5.35470E-02-4.89061E+00 4.01831E-13-7.81875E-14
 -1      2961 2.00625E+01 3.00387E-01 5.04415E-04-9.01833E-02 1.64583E-13-2.46457E-14
 -1      2962 2.01057E+01 3.74448E-01 7.61823E-03 2.79171E-02 1.87129E-13-5.75362E-15
 -1      2963 2.01394E+01 3.59963E-01-3.17688E-03-1.21201E-01 1.82448E-13-4.71512E-14
 -1      2964 1.20405E+01-2.66087E+00 1.54222E-01-5.68872E+00-3.87509E-13-5.75318E-13
 -1      2965 1.53987E+01-4.03618E+00 1.77590E-02-6.41102E+00-3.49137E-13-4.30211E-13
 -1      2966 2.01030E+01 1.41988E-01 2.29210E-03-5.24455E-01 4.27164E-14-4.26683E-14
 -1      2967 2.00564E+01 1.48992E-01 1.47366E-03-4.73716E-01 7.42584E-14-4.10185E-14
 -1      2968 2.01027E+01 2.02969E-01-2.39229E-03-4.60984E-01 8.44893E-14-2.03917E-14
 -1      2969 2.01287E+01 1.82034E-01-1.98198E-03-5.83875E-01 2.50561E-14 1.31114E-14
 -1      2970 1.51213E+01-3.93320E+00 2.97398E-02 6.40985E+00-1.93651E-13 2.44485E-13
 -1      2971 1.21679E+01-2.92970E+00 1.59899E-01 5.90371E+00-2.52284E-13 6.53075E-13
 -1      2972 2.01397E+01 4.66589E-01-5.11192E-04 1.74479E-01 2.03772E-13-1.13391E-14
 -1      2973 2.02239E+01 5.96329E-01 1.03120E-02 3.52316E-01 2.19323E-13 2.32832E-15
 -1      2974 2.02950E+01 8.71110E-01 5.72172E-05 5.16834E-01 2.47487E-13-6.59890E-14
 -1      2975 2.02055E+01 5.47384E-01-2.64189E-03 1.45105E-01 2.08864E-13-4.87567E-14
 -1      2976 2.03557E+01 1.10180E+00 5.84452E-03-7.71206E-01-1.76010E-13-1.13568E-13
 -1      2977 2.02730E+01 8.66151E-01-4.90360E-03-5.16162E-01-1.71288E-13-1.03900E-13
 -1      2978 2.02972E+01 9.62828E-01-1.92401E-04-4.57562E-01-1.51302E-13-1.21881E-13
 -1      2979 2.76228E+01-2.75586E+00 4.05089E-02-2.89847E-01 9.84664E-14 3.64472E-13
 -1      2980 2.82465E+01-1.13430E+00-1.82950E-01 9.06260E-01 3.44613E-13 4.81185E-13
 -1      2981 2.90327E+01-1.85617E+00-2.22883E-02 7.13336E-01 5.38319E-14-5.66741E-13
 -1      2982 2.97053E+01-4.68471E-02-1.82583E-01 1.53996E+00 4.78784E-15-4.87665E-13
 -1      2983 2.83828E+01 1.13541E+00-6.00865E-02 1.86525E+00 3.84706E-13 4.18943E-13
 -1      2984 2.81461E+01 2.91370E+00-2.04905E-01 2.00929E+00 4.32529E-13 2.70811E-13
 -1      2985 1.88618E+01-4.69471E+00 1.24430E-01-5.83214E+00-3.36328E-13-2.14401E-13
 -1      2986 2.16175E+01-5.17439E+00-3.20289E-02-5.12616E+00-2.40072E-13 2.32800E-14
 -1      2987 2.29080E+01-4.75559E+00 6.32118E-02-3.92721E+00-2.76321E-13 1.12143E-13
 -1      2988 1.99175E+01 2.67704E+00-7.60219E-03 7.34335E-01 2.42750E-13-2.37606E-13
 -1      2989 1.98657E+01 2.77593E+00-6.55753E-03 5.92890E-01 2.06156E-13-2.78052E-13
 -1      2990 1.99736E+01 2.49792E+00 4.78185E-03 4.62793E-01 1.84800E-13-2.53733E-13
 -1      2991 2.00727E+01 2.28045E+00 5.90562E-03 6.73754E-01 2.23201E-13-2.06869E-13
 -1      2992 2.80105E+01 4.99616E+00-1.24938E-01 1.67063E+00 4.91662E-13 1.02918E-13
 -1      2993 2.79830E+01 6.06325E+00-1.99107E-01 7.39984E-01 4.45088E-13-1.50695E-14
 -1      2994 6.20973E+00-7.55909E-01 1.27272E-01 1.41904E+00 3.49901E-13 8.48543E-13
 -1      2995 5.68675E+00-1.10947E+00 1.36226E-01-1.09590E+00 3.98397E-13 5.91555E-13
 -1      2996 8.07930E+00-5.09191E-01 1.90160E-01-1.73719E+00 4.89858E-13 3.55133E-13
 -1      2997 1.98608E+01 2.78614E+00-6.54676E-03-5.83150E-01-3.73459E-14-3.29512E-13
 -1      2998 1.99118E+01 2.68980E+00-7.48297E-03-7.24772E-01-6.96649E-14-3.19634E-13
 -1      2999 1.07711E+01-2.66274E+00 1.51176E-01 5.59506E+00 9.85462E-14-5.53335E-13
 -1      3000 8.70498E+00-1.72512E+00 2.03775E-01 4.19068E+00 1.18086E-13-5.10925E-13
 -1      3001 2.36351E+01-5.22873E+00-3.25513E-02 3.97122E+00-4.24105E-14 1.43999E-13
 -1      3002 2.05174E+01-5.24634E+00 1.14830E-01 5.44863E+00-6.09235E-15-1.81001E-13
 -1      3003 2.81696E+01-3.30799E+00-1.00364E-01 5.61663E-01-2.71977E-13 2.97345E-13
 -1      3004 2.65453E+01-4.46336E+00-1.44841E-02 1.91587E+00-1.51573E-13 3.09669E-13
 -1      3005 2.78629E+01-2.74518E+00-3.18886E-02-5.71146E-01-8.85091E-14 3.89161E-13
 -1      3006 2.88580E+01 5.96296E+00-1.70551E-01-6.56940E-01-3.70565E-13-1.45474E-13
 -1      3007 2.87726E+01 5.05811E+00-1.81292E-01-1.65539E+00-3.83027E-13-4.73233E-14
 -1      3008 2.00144E+01 3.90287E-02-2.10505E-05-3.56739E-02-3.69784E-15-3.90466E-14
 -1      3009 2.72791E+01-3.56935E+00-1.07912E-01 1.30589E+00 1.10672E-13-2.60084E-13
 -1      3010 2.54703E+01-4.49659E+00 6.41394E-03 2.63691E+00-2.68535E-15-1.53370E-13
 -1      3011 2.87015E+01 4.57882E+00-2.05524E-01-1.72056E+00 4.40536E-13-1.71321E-13
 -1      3012 2.88510E+01 2.84549E+00-8.55732E-02-1.98233E+00 3.58685E-13-2.30746E-13
 -1      3013 7.60246E+00-7.63408E-01 2.20488E-01-2.58009E+00-2.34188E-13-7.11931E-13
 -1      3014 9.06786E+00-1.53885E+00 7.00730E-02-4.44298E+00-2.90087E-13-7.38382E-13
 -1      3015 2.03413E+01 1.71861E+00-6.56257E-03-1.22613E+00-2.26024E-13-1.51434E-13
 -1      3016 2.03298E+01 1.33815E+00-2.52127E-03-9.43629E-01-1.97977E-13-1.31781E-13
 -1      3017 2.03088E+01 1.42383E+00 3.82327E-04-8.35640E-01-1.78736E-13-1.51888E-13
 -1      3018 2.02463E+01 1.98873E+00-9.82774E-04-1.19459E+00-1.98024E-13-1.79632E-13
 -1      3019 2.80700E+01 6.45538E+00-1.84727E-01-3.56010E-01 4.39759E-13-4.45009E-14
 -1      3020 2.85029E+01 5.85317E+00-1.58431E-01-1.25634E+00 4.38205E-13-1.62870E-13
 -1      3021 2.71474E+01 4.42979E+00-1.07111E-01-1.65634E+00 4.09367E-13-9.28008E-14
 -1      3022 1.99745E+01 2.55859E+00-6.48339E-03-8.35456E-01-8.49240E-14-2.74344E-13
 -1      3023 2.00471E+01 2.40626E+00-8.72892E-03-9.64103E-01-1.26683E-13-2.51391E-13
 -1      3024 2.00669E+01 2.29679E+00 6.44607E-03-6.67821E-01-8.73772E-14-2.68852E-13
 -1      3025 1.98911E+01 2.66634E+00 4.03817E-03 3.86704E-03 7.94516E-14-3.03319E-13
 -1      3026 1.97619E+01 2.97824E+00-5.68458E-03-5.55617E-02 6.69996E-14-3.33267E-13
 -1      3027 1.97713E+01 2.96221E+00-5.60257E-03-1.98712E-01 4.24333E-14-3.37187E-13
 -1      3028 2.66677E+01 5.47303E+00-1.17174E-01 1.57525E-01 4.04829E-13-9.45251E-15
 -1      3029 2.44919E+01-4.82115E+00 4.70378E-02-3.03662E+00 2.50355E-13-4.87346E-13
 -1      3030 8.19550E+00-3.35924E-01 1.77126E-01-1.36042E+00-1.34170E-13-6.37712E-13
 -1      3031 2.03172E+01 1.62124E+00-1.55878E-03 1.09152E+00 3.05163E-13-5.87204E-14
 -1      3032 2.73781E+01-3.10094E-01-6.15465E-02 1.62967E+00 3.25219E-13 2.89914E-13
 -1      3033 1.91127E+01-4.74472E+00 8.68005E-02 5.64462E+00 1.37224E-13-2.39531E-13
 -1      3034 2.41694E+01-4.94004E+00-1.42445E-03 3.49704E+00-5.72459E-14-1.75346E-13
 -1      3035 2.24249E+01-4.66094E+00 6.31601E-02 4.10898E+00-7.36494E-14-5.61591E-14
 -1      3036 2.50761E+01-4.27139E+00 5.37541E-03 2.08248E+00-5.46820E-14-1.79905E-13
 -1      3037 8.87124E+00-9.14454E-01 1.66791E-01 2.93902E+00 7.99777E-14-5.09953E-13
 -1      3038 2.74667E+01 5.17394E+00-1.18924E-01-1.77347E-01-2.98761E-13-1.29263E-13
 -1      3039 2.66299E+01-2.60702E+00-3.86996E-02-8.03385E-01-3.80199E-14 3.94695E-13
 -1      3040 2.74250E+01 3.61075E+00-1.17851E-01 2.06868E+00-3.34788E-13-3.01086E-13
 -1      3041 2.74129E+01 8.34645E-02-3.86452E-02 2.39156E+00-1.15866E-13-2.39551E-13
 -1      3042 1.23804E+01-1.87883E+00 1.67598E-01 5.00723E+00-9.46188E-14 5.54543E-13
 -1      3043 1.99908E+01 8.69089E-02 2.82703E-04 4.63236E-02 2.34722E-13-5.03557E-13
 -1      3044 1.99953E+01 7.08534E-02-4.94407E-04 4.07486E-02 2.52127E-13-3.17676E-13
 -1      3045 2.00016E+01 6.42016E-02 3.26559E-04 4.19527E-02 8.90594E-14-1.49954E-13
 -1      3046 1.77697E+01-4.04740E+00 1.06675E-01 5.68957E+00-1.55348E-13 1.86587E-13
 -1      3047 1.79758E+01-3.87540E+00 1.10537E-01-5.53654E+00-3.69454E-13-2.49148E-13
 -1      3048 2.52452E+01-4.92734E+00 4.85767E-03 2.74458E+00-2.60139E-14 2.76987E-13
 -1      3049 2.36682E+01-4.56252E+00 1.53024E-01 3.35766E+00 4.95888E-14 2.93682E-13
 -1      3050 2.58496E+01-4.22320E+00-3.34078E-02 1.23527E+00 6.30572E-15 3.90424E-13
 -1      3051 2.00107E+01 4.90559E-02-2.14835E-04 4.14928E-02-6.55890E-14-1.90505E-13
 -1      3052 1.18163E+01-2.12926E+00 1.47626E-01-4.94905E+00 4.54387E-13-2.70478E-13
 -1      3053 2.03084E+01 1.41480E+00 2.70629E-03 8.35098E-01 2.80736E-13-7.56683E-14
 -1      3054 1.31039E+01-3.14852E+00 3.29679E-02 5.62387E+00 1.66964E-13-6.02379E-13
 -1      3055 8.72968E+00-3.75367E-01 1.80873E-01 2.20630E+00 3.65440E-13 6.52062E-13
 -1      3056 2.00106E+01 4.77431E-02 1.38191E-04-3.82830E-02 2.96384E-14-1.80624E-13
 -1      3057 1.84395E+01-4.19346E+00 1.09472E-01-5.40744E+00 3.17579E-13-4.09887E-13
 -1      3058 2.80229E+01-2.76563E+00-1.10037E-02 3.84878E-01 5.06270E-14-5.12576E-13
 -1      3059 2.79349E+01 1.20339E+00-7.69238E-02-1.87967E+00 2.95805E-13-5.29021E-14
 -1      3060 2.88892E+01 9.32671E-01-5.75991E-02 2.23078E+00-5.91888E-14-4.76411E-13
 -1      3061 2.73953E+01-2.60705E+00-2.54407E-02-1.98964E-02 9.35536E-14-7.30666E-14
 -1      3062 2.62997E+01-3.58282E+00-6.48095E-03-9.93723E-01-2.84321E-14 3.58880E-13
 -1      3063 1.20714E+01-1.69488E+00 1.42543E-01-4.73695E+00-3.05922E-13-6.00506E-13
 -1      3064 1.97907E+01 2.92226E+00-6.04366E-03-3.20677E-01 1.90364E-14-3.25015E-13
 -1      3065 1.98206E+01 2.86966E+00-6.09053E-03-4.64003E-01-1.66169E-14-3.25476E-13
 -1      3066 1.99693E+01 2.50746E+00 4.76884E-03-4.54561E-01-2.70583E-14-3.03038E-13
 -1      3067 1.99101E+01 2.62834E+00 4.19873E-03-2.27913E-01 2.05331E-14-3.05220E-13
 -1      3068 2.68905E+01 3.42108E+00-8.44147E-02 1.96790E+00 3.54605E-13 1.41519E-13
 -1      3069 2.90199E+01 3.77786E+00-1.80650E-01-2.14941E+00-4.03400E-13 7.44127E-14
 -1      3070 2.93199E+01 2.02055E+00-6.86537E-02-2.31144E+00-3.63376E-13 1.89765E-13
 -1      3071 2.00133E+01 5.50407E-02-1.44529E-04-4.88170E-02-1.13933E-13-3.63439E-13
 -1      3072 2.00064E+01 5.88997E-02-1.52621E-04-4.44131E-02 3.10257E-14-2.76070E-13
 -1      3073 2.00044E+01 7.32586E-02 3.76711E-04-5.28393E-02 1.52987E-13-3.55950E-13
 -1      3074 2.00170E+01 6.16423E-02 5.16729E-04-5.70112E-02-4.93037E-15-2.97621E-13
 -1      3075 2.77078E+01 3.46401E+00-1.06694E-01-2.03928E+00-2.94514E-13 1.91076E-13
 -1      3076 2.67463E+01-1.20200E+00 4.71094E-02 1.49322E+00 2.35735E-13 2.88915E-13
 -1      3077 2.62917E+01 2.46790E-01-1.55755E-01 2.06311E+00 3.22686E-13 1.80151E-13
 -1      3078 2.02549E+01 1.54802E+00-7.73588E-03 7.07173E-01 2.52708E-13-1.11064E-13
 -1      3079 2.02041E+01 1.75367E+00-1.09835E-03 6.54017E-01 2.28694E-13-1.38483E-13
 -1      3080 2.01001E+01 2.30323E+00-6.51072E-03-1.04563E+00-1.45958E-13-2.34395E-13
 -1      3081 2.01833E+01 2.11310E+00-8.17038E-03-1.12749E+00-1.81833E-13-2.07152E-13
 -1      3082 2.02556E+01 1.81873E+00 5.90396E-03-9.58331E-01-1.76960E-13-1.86139E-13
 -1      3083 2.01762E+01 2.05163E+00 8.11783E-03-8.35178E-01-1.31261E-13-2.10180E-13
 -1      3084 2.32430E+01-4.55056E+00 1.19630E-01-3.46762E+00 3.41040E-13-4.12859E-13
 -1      3085 2.53807E+01-4.47374E+00-6.87513E-02-1.79624E+00 1.73046E-13-4.23030E-13
 -1      3086 2.02460E+01 5.70019E-01 3.27441E-03 7.32097E-02-1.05090E-13-1.12648E-13
 -1      3087 2.02159E+01 4.84449E-01-1.23668E-03 1.88708E-01-1.00506E-13-1.23713E-13
 -1      3088 2.01933E+01 4.23638E-01 2.05209E-03 2.83993E-01-9.71768E-14-8.43881E-14
 -1      3089 2.01741E+01 3.79262E-01-2.46205E-05 3.73976E-01-8.46368E-14-1.10942E-13
 -1      3090 2.02274E+01 5.43255E-01-5.31418E-04 2.15444E-01-9.29794E-14-7.05894E-14
 -1      3091 2.01451E+01 3.51775E-01 8.24919E-04 4.52336E-01-5.97938E-14-1.24820E-13
 -1      3092 2.01366E+01 3.36810E-01 8.71648E-04 5.28216E-01-4.16092E-14-1.24513E-13
 -1      3093 2.01707E+01 4.37590E-01-5.50727E-04 3.94357E-01-8.52596E-14-6.23274E-14
 -1      3094 2.01030E+01 3.32815E-01-2.64856E-04 5.98410E-01-2.52321E-14-1.16897E-13
 -1      3095 2.01033E+01 3.38613E-01 1.52770E-03 6.69109E-01-2.95333E-14-8.78888E-14
 -1      3096 2.01077E+01 3.98731E-01-2.81179E-04 5.46861E-01-2.81381E-14-1.33156E-13
 -1      3097 2.00652E+01 3.50691E-01-1.19907E-03 7.38254E-01-2.32247E-14-6.42708E-14
 -1      3098 2.00723E+01 3.70139E-01 2.02966E-03 8.10330E-01-1.36237E-14-5.55172E-14
 -1      3099 2.00391E+01 4.07242E-01 1.21386E-04 6.88647E-01 7.90025E-15-9.96479E-14
 -1      3100 2.00287E+01 3.91534E-01-1.96606E-03 8.83974E-01-1.24239E-14-3.45794E-14
 -1      3101 2.00413E+01 4.17420E-01 2.45931E-03 9.61803E-01-2.19321E-14-2.79300E-14
 -1      3102 1.99629E+01 4.46936E-01 5.62153E-04 8.32364E-01 3.64151E-15-7.74325E-14
 -1      3103 1.99916E+01 4.40455E-01-2.53587E-03 1.04406E+00-4.80614E-14 3.69676E-15
 -1      3104 2.00099E+01 4.63887E-01 2.91858E-03 1.12989E+00-1.35165E-14-1.06544E-14
 -1      3105 1.98766E+01 5.01549E-01 9.58380E-04 9.87770E-01-2.11326E-14-7.07277E-15
 -1      3106 1.99549E+01 4.78317E-01-2.82927E-03 1.22373E+00-1.53597E-14-1.56963E-14
 -1      3107 1.99820E+01 4.86884E-01 3.55879E-03 1.31763E+00-3.00888E-15-3.17098E-14
 -1      3108 1.97793E+01 5.51379E-01 1.15853E-03 1.16222E+00-2.48646E-14-8.64470E-15
 -1      3109 1.99263E+01 4.77876E-01-2.66170E-03 1.42524E+00 1.87879E-14-5.59388E-14
 -1      3110 1.99706E+01 4.53414E-01 4.60117E-03 1.52476E+00 2.31978E-14 1.45228E-14
 -1      3111 1.96746E+01 5.69445E-01 8.74352E-04 1.36168E+00 2.59535E-14-6.52371E-14
 -1      3112 1.99259E+01 3.99307E-01-1.65381E-03 1.64775E+00 4.48504E-14 2.50297E-14
 -1      3113 2.00051E+01 3.15546E-01 6.29468E-03 1.74706E+00 2.66366E-14 4.91749E-14
 -1      3114 1.95758E+01 5.16782E-01-4.04668E-04 1.59189E+00 5.69239E-14-1.16273E-13
 -1      3115 1.99968E+01 1.86133E-01 9.45894E-04 1.88579E+00-2.48594E-15 5.91273E-14
 -1      3116 2.01428E+01 7.23422E-03 8.56549E-03 1.97345E+00 8.82904E-15 4.39867E-14
 -1      3117 1.95148E+01 3.37022E-01-3.59338E-03 1.85906E+00 1.18960E-14-6.09637E-14
 -1      3118 2.02197E+01-2.35152E-01 6.43103E-03 2.12255E+00 1.01714E-14 4.31525E-14
 -1      3119 2.04829E+01-5.49906E-01 1.12220E-02 2.17522E+00 2.40071E-14 6.47888E-14
 -1      3120 1.95563E+01-4.81198E-02-1.03358E-02 2.16683E+00 2.28129E-14-8.62342E-14
 -1      3121 2.07323E+01-9.40556E-01 1.85926E-02 2.31334E+00 5.46219E-14 1.06480E-13
 -1      3122 2.11719E+01-1.42855E+00 9.54389E-03 2.28644E+00 7.92604E-14 9.09160E-14
 -1      3123 1.98184E+01-7.34922E-01-2.27126E-02 2.50314E+00 6.06824E-14-2.39713E-14
 -1      3124 2.17347E+01-1.92437E+00 5.06521E-02 2.32618E+00 7.76957E-14 1.86955E-13
 -1      3125 2.23264E+01-2.59320E+00-2.78037E-03 2.18554E+00 9.23185E-14 1.99766E-13
 -1      3126 2.05037E+01-1.81736E+00-4.36949E-02 2.79036E+00 1.43532E-13 1.72392E-13
 -1      3127 2.40875E+01-3.44267E+00 4.91586E-02 1.66569E+00 4.70435E-14 3.63044E-13
 -1      3128 2.49335E+01-3.68557E+00 4.96867E-03 1.11846E+00-2.21750E-14 4.06843E-13
 -1      3129 2.64492E+01 2.39219E+00-1.38687E-01-2.44001E+00-1.70336E-13 2.36641E-13
 -1      3130 2.49878E+01-3.74029E+00-1.95626E-02-1.10015E+00 1.49076E-13-3.22326E-13
 -1      3131 2.41068E+01-3.45266E+00 5.11543E-02-1.65882E+00 1.35385E-13-2.44194E-13
 -1      3132 2.26122E+01-2.75909E+00-5.72791E-03-2.04232E+00 1.48643E-13-1.87480E-13
 -1      3133 2.19651E+01-2.11132E+00 4.98433E-02-2.25420E+00 1.48593E-13-1.54946E-13
 -1      3134 2.13411E+01-1.55332E+00 1.57772E-02-2.24978E+00 6.06780E-14-1.66511E-13
 -1      3135 2.08583E+01-1.04296E+00 2.32258E-02-2.28026E+00 6.22822E-14-6.82579E-14
 -1      3136 2.06984E+01-2.01744E+00-5.77208E-02-2.78147E+00 1.48864E-13-2.06600E-13
 -1      3137 2.05687E+01-6.31822E-01 1.16597E-02-2.14507E+00-1.43977E-13-2.92157E-14
 -1      3138 2.02808E+01-2.84075E-01 8.81663E-03-2.09310E+00-1.71809E-13 2.76843E-14
 -1      3139 1.98737E+01-8.38051E-01-2.78433E-02-2.50053E+00 2.65562E-14-4.50655E-14
 -1      3140 2.01819E+01-1.65200E-02 9.43807E-03-1.93487E+00-1.12684E-13 1.30347E-14
 -1      3141 2.00226E+01 1.85148E-01 2.04134E-03-1.84217E+00-8.72542E-14-6.30290E-15
 -1      3142 1.95668E+01-8.21965E-02-1.06113E-02-2.14966E+00-1.51220E-13-4.66537E-14
 -1      3143 2.00179E+01 3.33663E-01 6.45774E-03-1.69220E+00 6.11835E-14-8.37245E-14
 -1      3144 1.99324E+01 4.33614E-01-1.17221E-03-1.58400E+00-5.87920E-14-5.30495E-15
 -1      3145 1.94949E+01 3.51860E-01-3.96499E-03-1.81954E+00-2.52854E-14-1.89854E-13
 -1      3146 1.99687E+01 5.00466E-01 4.53674E-03-1.44855E+00-7.55554E-14 1.70662E-13
 -1      3147 1.99217E+01 5.35029E-01-2.45858E-03-1.33816E+00-3.05431E-14 2.90938E-13
 -1      3148 1.95375E+01 5.66416E-01-4.93616E-04-1.52736E+00 1.06618E-13 8.20043E-15
 -1      3149 1.99705E+01 5.51243E-01 3.38416E-03-1.21801E+00-1.47466E-13 3.86089E-13
 -1      3150 1.99419E+01 5.47390E-01-2.82332E-03-1.11264E+00-5.65344E-14 3.10928E-13
 -1      3151 1.96229E+01 6.40293E-01 1.06777E-03-1.27216E+00-1.06895E-14 2.54944E-13
 -1      3152 1.99895E+01 5.34990E-01 2.71585E-03-1.00713E+00-5.90955E-14 3.20399E-13
 -1      3153 1.99690E+01 5.10811E-01-2.74865E-03-9.10797E-01-3.06746E-14 3.29124E-13
 -1      3154 1.97143E+01 6.31412E-01 1.56329E-03-1.04926E+00-7.27058E-14 1.63269E-13
 -1      3155 2.00097E+01 4.84161E-01 2.30318E-03-8.19209E-01-7.00018E-14 2.46069E-13
 -1      3156 1.99926E+01 4.51029E-01-2.47580E-03-7.33974E-01 7.15363E-14 1.31843E-13
 -1      3157 1.97955E+01 5.78304E-01 1.53518E-03-8.55153E-01-1.41393E-13 3.14530E-13
 -1      3158 2.00251E+01 4.18927E-01 2.00696E-03-6.55584E-01 9.38464E-14-3.35482E-14
 -1      3159 2.00097E+01 3.83588E-01-2.12920E-03-5.82177E-01-1.72109E-15-1.25833E-13
 -1      3160 1.98612E+01 5.05330E-01 1.29208E-03-6.87592E-01-3.99215E-14 9.56250E-14
 -1      3161 2.00343E+01 3.51102E-01 1.75675E-03-5.16137E-01 1.12630E-13-6.49099E-14
 -1      3162 2.00202E+01 3.17308E-01-1.77246E-03-4.54365E-01 1.52792E-13-8.27711E-14
 -1      3163 1.99110E+01 4.27123E-01 9.97013E-04-5.44819E-01 9.24858E-14-2.00017E-13
 -1      3164 2.00381E+01 2.87146E-01 1.52335E-03-3.99640E-01 3.86332E-15-1.43104E-13
 -1      3165 2.00254E+01 2.56785E-01-1.43887E-03-3.48705E-01-6.07224E-14-2.93673E-13
 -1      3166 1.99470E+01 3.51955E-01 7.24061E-04-4.25031E-01 3.96221E-14-1.08663E-13
 -1      3167 2.00380E+01 2.30212E-01 1.29954E-03-3.04089E-01-4.81491E-14-2.40250E-13
 -1      3168 2.00267E+01 2.04036E-01-1.14518E-03-2.62849E-01-4.28179E-14-2.31018E-13
 -1      3169 1.99719E+01 2.84090E-01 4.99336E-04-3.26146E-01-2.41263E-14-1.06891E-13
 -1      3170 2.00352E+01 1.81452E-01 1.08776E-03-2.27048E-01-2.93993E-14-2.19808E-13
 -1      3171 2.00254E+01 1.59553E-01-8.97754E-04-1.94217E-01 9.48575E-14-9.24206E-14
 -1      3172 1.99884E+01 2.25310E-01 3.26757E-04-2.45821E-01 4.80474E-14 1.36438E-13
 -1      3173 2.00309E+01 1.40865E-01 8.89768E-04-1.65937E-01 1.40207E-13-1.18712E-13
 -1      3174 2.00227E+01 1.22964E-01-6.97119E-04-1.40225E-01 1.22690E-13-2.30767E-13
 -1      3175 1.99986E+01 1.75928E-01 2.06632E-04-1.81602E-01 6.57097E-14-1.95497E-13
 -1      3176 2.00259E+01 1.07853E-01 7.09199E-04-1.18300E-01 1.18836E-13-1.97100E-13
 -1      3177 2.00192E+01 9.35942E-02-4.61451E-04-9.84971E-02 2.51778E-13-2.35398E-13
 -1      3178 2.00044E+01 1.35433E-01 1.46236E-04-1.31164E-01 1.66010E-13-3.96032E-13
 -1      3179 2.00218E+01 8.20157E-02 5.94445E-04-8.36451E-02 1.70855E-13-1.23688E-13
 -1      3180 2.00162E+01 7.07762E-02-2.66161E-04-6.84568E-02 1.03957E-13-1.46147E-13
 -1      3181 2.00091E+01 7.75302E-02-3.05870E-04-6.72182E-02-1.42974E-14-4.45883E-13
 -1      3182 2.00078E+01 1.02860E-01-1.04407E-04-9.41815E-02 2.04075E-13-3.20402E-13
 -1      3183 1.99608E+01 1.28387E-01-4.03434E-05-2.78625E-02-1.24043E-14 5.06559E-13
 -1      3184 1.99569E+01 1.31466E-01-3.83061E-04-1.81135E-02-1.51486E-13 4.93069E-14
 -1      3185 2.01563E+01 3.10314E-01 2.00080E-04-3.42777E-01 1.22652E-13-3.75380E-14
 -1      3186 2.01701E+01 3.57833E-01 2.94932E-03-2.55618E-01 1.46167E-13-1.62548E-14
 -1      3187 2.02072E+01 2.35881E-01 2.29994E-03-8.53517E-01 1.31717E-13-3.43382E-14
 -1      3188 2.01625E+01 2.34549E-01-4.64390E-04-7.96628E-01 1.20456E-13-4.73294E-14
 -1      3189 2.01671E+01 2.33546E-01 2.04530E-03-7.35220E-01 8.25677E-14-6.09432E-14
 -1      3190 2.01353E+01 2.32424E-01-8.79505E-05-6.77787E-01 3.69050E-14-2.39031E-14
 -1      3191 2.01054E+01 2.83783E-01-1.01392E-03-7.80272E-01 8.63053E-14-6.21025E-14
 -1      3192 2.03632E+01 1.81624E-01 2.36006E-03-1.08961E+00-9.55654E-15 1.17797E-13
 -1      3193 2.02874E+01 2.08581E-01 3.95442E-05-1.03822E+00 6.69166E-14 2.29614E-14
 -1      3194 2.05028E+01 7.99534E-02 2.07108E-03-1.19156E+00-4.05934E-14 1.56523E-13
 -1      3195 2.04038E+01 1.39768E-01 1.19901E-03-1.15264E+00-2.87803E-15 1.30176E-13
 -1      3196 2.01840E+01 1.99688E-01-2.74742E-03-1.17599E+00-5.32054E-14 7.27995E-14
 -1      3197 2.07120E+01-1.07893E-01 1.33293E-03-1.25807E+00-3.88187E-14 5.72792E-14
 -1      3198 2.05812E+01-4.42570E-04 3.26669E-03-1.24446E+00-1.17805E-14 1.55550E-13
 -1      3199 2.02931E+01 6.14327E-02-4.67985E-03-1.30114E+00-2.90845E-15 6.87261E-14
 -1      3200 2.10238E+01-4.07632E-01-2.19717E-04-1.25573E+00-7.35401E-14 2.34090E-14
 -1      3201 2.08505E+01-2.40145E-01 6.46499E-03-1.28642E+00-6.40501E-14 5.15068E-14
 -1      3202 2.04902E+01-1.84573E-01-7.78292E-03-1.39784E+00-2.46697E-14-8.77607E-15
 -1      3203 2.14754E+01-8.27127E-01-3.39218E-03-1.13543E+00-2.04434E-13 9.76025E-14
 -1      3204 2.12515E+01-5.98474E-01 1.09870E-02-1.23556E+00-1.40157E-13 3.61753E-14
 -1      3205 2.08232E+01-5.66999E-01-1.20730E-02-1.43119E+00-1.29599E-13 4.73063E-14
 -1      3206 2.20933E+01-1.32403E+00-8.73401E-03-8.29997E-01-1.80056E-13 7.62736E-14
 -1      3207 2.18228E+01-1.06468E+00 1.58063E-02-1.02872E+00-1.97009E-13 9.35710E-14
 -1      3208 2.13507E+01-1.08980E+00-1.70529E-02-1.34300E+00-2.04453E-13 6.67270E-14
 -1      3209 2.28585E+01-1.75292E+00-1.36951E-02-2.70833E-01-2.15501E-13 1.51855E-13
 -1      3210 2.25704E+01-1.55241E+00 1.89636E-02-5.87198E-01-1.93154E-13 1.22268E-13
 -1      3211 2.21208E+01-1.68738E+00-2.08786E-02-1.04282E+00-2.03803E-13 1.47732E-14
 -1      3212 2.36697E+01-1.82323E+00-1.12555E-02 5.61946E-01-1.52314E-13 2.63099E-13
 -1      3213 2.34174E+01-1.85774E+00 1.44380E-02 1.45666E-01-1.95400E-13 2.36215E-13
 -1      3214 2.31159E+01-2.15513E+00-1.91054E-02-4.25759E-01-2.51195E-13 1.46378E-13
 -1      3215 2.42491E+01-1.17172E+00-1.93989E-02 1.46382E+00-2.21221E-14 2.15901E-13
 -1      3216 2.41383E+01-1.58783E+00-5.23943E-03 1.10100E+00-9.22491E-14 2.27622E-13
 -1      3217 2.41913E+01-2.04645E+00 8.94089E-03 5.79008E-01-1.28889E-13 1.61940E-13
 -1      3218 2.47333E+01 3.60456E-01 3.32589E-03 2.04872E+00 2.55383E-13 1.61602E-13
 -1      3219 2.47659E+01-6.19651E-01-3.08428E-02 1.91234E+00 1.04968E-13 1.79754E-13
 -1      3220 2.37039E+01 3.42381E+00-5.48009E-02 1.08588E-01 3.07018E-13 6.84825E-14
 -1      3221 2.37940E+01 3.14854E+00-5.08073E-02 8.63278E-01 3.33671E-13 1.12545E-13
 -1      3222 2.42975E+01 6.48808E-01-6.24326E-02-2.13373E+00 2.32453E-15-1.98021E-13
 -1      3223 2.41676E+01 1.65025E+00-2.69004E-03-1.93463E+00 1.29150E-13-1.46246E-13
 -1      3224 2.43643E+01-1.00667E+00-1.79489E-02-1.68755E+00 2.51465E-13-3.40951E-13
 -1      3225 2.43582E+01-2.53724E-01 1.75126E-03-1.92854E+00 1.30852E-13-2.64710E-13
 -1      3226 2.49911E+01 8.87106E-02-2.71555E-02-2.06465E+00 1.08902E-13-3.26739E-13
 -1      3227 2.38466E+01-1.73964E+00 4.89880E-03-7.41342E-01-6.51120E-14-4.08623E-13
 -1      3228 2.40111E+01-1.49499E+00-1.73387E-02-1.14185E+00 1.04364E-13-3.37958E-13
 -1      3229 2.46222E+01-1.56169E+00-2.43197E-02-1.27142E+00 1.65378E-13-3.75396E-13
 -1      3230 2.30635E+01-1.71760E+00 1.84191E-02 1.33323E-01-1.04445E-13-2.22531E-13
 -1      3231 2.33278E+01-1.81321E+00-1.64204E-02-2.39413E-01-1.09964E-13-2.86819E-13
 -1      3232 2.37219E+01-2.11878E+00-1.34310E-02-2.05093E-01-1.24991E-13-2.75961E-13
 -1      3233 2.22587E+01-1.30567E+00 1.83764E-02 7.33476E-01 1.95665E-14-5.37331E-14
 -1      3234 2.25387E+01-1.54977E+00-1.23306E-02 4.73708E-01 5.86163E-15-9.49109E-14
 -1      3235 2.27021E+01-1.91096E+00-1.52342E-02 6.25436E-01-9.71309E-14-1.43593E-13
 -1      3236 2.15944E+01-8.12439E-01 1.36467E-02 1.05693E+00-1.95468E-14 8.47404E-14
 -1      3237 2.18405E+01-1.06779E+00-7.18018E-03 9.10576E-01-1.13231E-14-1.08739E-14
 -1      3238 2.18110E+01-1.36996E+00-1.75438E-02 1.09580E+00-8.17879E-14 3.13985E-14
 -1      3239 2.11056E+01-3.86708E-01 8.93214E-03 1.17827E+00-3.39737E-14 1.40223E-13
 -1      3240 2.13012E+01-5.94239E-01-3.07082E-03 1.11962E+00-7.90568E-15 9.71205E-14
 -1      3241 2.11553E+01-7.98831E-01-1.38952E-02 1.29355E+00-4.89588E-14 7.14207E-14
 -1      3242 2.07687E+01-7.73355E-02 5.10614E-03 1.16937E+00-8.24667E-15 1.02373E-13
 -1      3243 2.09168E+01-2.21923E-01-4.55392E-04 1.16992E+00-2.85032E-14 1.45276E-13
 -1      3244 2.07159E+01-3.35435E-01-9.32867E-03 1.31752E+00-1.91867E-14-5.23865E-14
 -1      3245 2.05435E+01 1.20010E-01 2.44982E-03 1.08495E+00 9.58944E-14 9.67251E-16
 -1      3246 2.06542E+01 3.14088E-02 9.00400E-04 1.12173E+00 6.91848E-14 9.03027E-14
 -1      3247 2.04400E+01-1.23631E-02-5.74938E-03 1.24233E+00 1.92325E-14 4.83663E-14
 -1      3248 2.03937E+01 2.28592E-01 7.67800E-04 9.61875E-01 1.66725E-13-8.87272E-15
 -1      3249 2.04773E+01 1.82546E-01 1.58029E-03 1.01810E+00 9.69774E-14 8.90513E-14
 -1      3250 2.02745E+01 1.86224E-01-3.30970E-03 1.11635E+00 6.24062E-14 1.54332E-14
 -1      3251 2.02925E+01 2.74459E-01-2.08964E-04 8.24135E-01-9.07030E-16 1.11590E-14
 -1      3252 2.03570E+01 2.57622E-01 1.89210E-03 8.88262E-01 2.10889E-13 8.52683E-14
 -1      3253 2.01780E+01 2.90186E-01-1.77958E-03 9.69131E-01 1.39260E-13 6.70405E-14
 -1      3254 2.02221E+01 2.79888E-01-7.17284E-04 6.86772E-01-1.93583E-13 1.97140E-14
 -1      3255 2.02729E+01 2.81399E-01 1.98545E-03 7.51310E-01-1.64421E-13-6.51341E-14
 -1      3256 2.01226E+01 3.28976E-01-8.96805E-04 8.18624E-01 1.93395E-16-5.43549E-14
 -1      3257 2.01711E+01 2.61638E-01-9.29758E-04 5.58683E-01-1.33748E-13-6.73717E-14
 -1      3258 2.02117E+01 2.73555E-01 1.94237E-03 6.19100E-01-1.19230E-13-6.79538E-14
 -1      3259 2.00902E+01 3.26606E-01-4.28455E-04 6.75471E-01-1.02900E-13-1.03987E-13
 -1      3260 2.01328E+01 2.31342E-01-9.64929E-04 4.44591E-01-1.09460E-13-2.39810E-13
 -1      3261 2.01656E+01 2.48253E-01 1.81353E-03 4.98451E-01-1.09897E-13-1.03392E-13
 -1      3262 2.00705E+01 3.00704E-01-2.00823E-04 5.45623E-01-5.33709E-14-2.35984E-13
 -1      3263 2.01032E+01 1.96593E-01-9.01497E-04 3.46431E-01-1.06056E-13-2.68932E-13
 -1      3264 2.01296E+01 2.15021E-01 1.63265E-03 3.92726E-01-1.15344E-13-2.08793E-13
 -1      3265 2.00574E+01 2.63339E-01-1.03483E-04 4.31947E-01-2.03999E-13-2.15508E-13
 -1      3266 2.00799E+01 1.62052E-01-7.90890E-04 2.64305E-01 6.04712E-14-1.84918E-13
 -1      3267 2.01011E+01 1.79903E-01 1.42466E-03 3.02961E-01-6.05734E-14-2.92895E-13
 -1      3268 2.00478E+01 2.22329E-01-6.90751E-05 3.35249E-01-4.94538E-14-2.81774E-13
 -1      3269 2.00612E+01 1.30327E-01-6.67302E-04 1.97199E-01 1.49093E-13-5.19671E-14
 -1      3270 2.00782E+01 1.46467E-01 1.20906E-03 2.28703E-01 1.63659E-13 1.53478E-14
 -1      3271 2.00399E+01 1.82403E-01-6.55133E-05 2.54966E-01-4.01143E-14-2.15758E-13
 -1      3272 2.00464E+01 1.02711E-01-5.24087E-04 1.43515E-01-2.38601E-14 6.45365E-14
 -1      3273 2.00597E+01 1.16603E-01 1.00175E-03 1.68643E-01 1.04940E-13 3.46281E-14
 -1      3274 2.00332E+01 1.46175E-01-6.75578E-05 1.89734E-01 3.92394E-14 1.97785E-14
 -1      3275 2.00348E+01 7.99558E-02-1.58779E-04 1.01553E-01-1.18736E-13 7.51399E-14
 -1      3276 2.00448E+01 9.10215E-02 8.09687E-04 1.20955E-01-6.64847E-14 5.95325E-14
 -1      3277 2.00269E+01 1.14784E-01-1.38216E-04 1.37825E-01-1.11270E-13 8.35373E-14
 -1      3278 1.99954E+01 2.30082E+00-4.28858E-03 2.51585E-01 1.57627E-13-2.59009E-13
 -1      3279 1.99765E+01 2.34381E+00-3.76254E-03 1.44143E-01 1.16098E-13-2.70387E-13
 -1      3280 1.05098E+01-8.80729E-01 1.79000E-02 3.61451E+00 1.15657E-13-4.63254E-13
 -1      3281 8.81141E+00-1.14327E-01 1.30856E-01 1.66742E+00 6.14604E-14-4.96159E-13
 -1      3282 1.99907E+01 9.52444E-02 1.78043E-05-5.76705E-02 6.66377E-14-2.27704E-13
 -1      3283 1.99819E+01 1.04095E-01-5.22306E-04-5.39153E-02 6.07906E-14-1.06499E-13
 -1      3284 1.99550E+01 1.33738E-01-2.36582E-04-5.23013E-03-2.00730E-13-2.66736E-13
 -1      3285 1.99550E+01 1.33643E-01-2.16417E-04 5.48406E-03-9.79546E-14-1.42699E-13
 -1      3286 1.99472E+01 1.51116E-01 5.88947E-04-1.32645E-02-7.89574E-15-9.96928E-14
 -1      3287 1.99353E+01-4.49799E+00-1.01531E-01 4.87594E+00 1.62141E-13-2.88936E-14
 -1      3288 1.75527E+01-3.78852E+00 2.10258E-01 5.67969E+00 2.34965E-13-4.47732E-13
 -1      3289 1.49132E+01-2.62666E+00 1.02540E-01 5.16938E+00 2.14079E-13-4.79394E-13
 -1      3290 2.57277E+01 4.35922E+00-1.35704E-01-1.35619E+00 3.80765E-13-2.72993E-14
 -1      3291 2.60877E+01 3.38595E+00-7.31781E-02-1.99654E+00 3.27835E-13-5.51295E-14
 -1      3292 2.01884E+01 4.19826E-01-9.23347E-04-1.57563E-01 1.69682E-13-3.65249E-14
 -1      3293 2.02195E+01 5.04917E-01 3.92095E-03-4.02519E-02 1.87306E-13-3.12958E-14
 -1      3294 2.02191E+01 4.76715E-01-1.54559E-03-1.88375E-01 1.48938E-13 1.04193E-14
 -1      3295 2.60061E+01 2.29814E+00-4.01569E-03 2.24230E+00 3.66027E-13 1.32162E-13
 -1      3296 2.55123E+01 3.64027E+00-1.39332E-01 1.63829E+00 3.39097E-13 6.53956E-14
 -1      3297 2.82687E+01 4.20995E+00-8.44594E-02 1.88195E+00-3.87079E-13-4.18804E-13
 -1      3298 8.79189E+00 1.95594E-01 1.41001E-01-1.06937E-01-7.86550E-14-5.01779E-13
 -1      3299 9.83686E+00 2.65794E-03 5.78564E-02-2.06250E+00-1.46640E-13-6.11039E-13
 -1      3300 1.04810E+01 3.55202E-01 1.36781E-01 7.18916E-01 1.96648E-14-4.13961E-13
 -1      3301 1.99735E+01 1.15238E-01 1.30072E-04-4.63872E-02 5.11247E-14 2.28277E-13
 -1      3302 1.99663E+01 1.21277E-01-5.14571E-04-3.88133E-02-5.56700E-15 4.74288E-13
 -1      3303 1.99562E+01 1.42258E-01 5.50425E-04-3.86516E-02-1.00370E-13 4.05827E-13
 -1      3304 1.99724E+01 1.24998E-01 3.13914E-04-5.83580E-02-5.93908E-14 6.93847E-14
 -1      3305 2.02697E+01 2.25340E-01 2.41187E-03-9.73069E-01 1.35258E-13-2.70273E-15
 -1      3306 2.02111E+01 2.32698E-01-4.57822E-04-9.17058E-01 1.35660E-13 9.08883E-15
 -1      3307 2.01069E+01 2.83488E-01-1.15969E-03-9.09037E-01 9.71412E-14-3.47753E-14
 -1      3308 2.01290E+01 2.63712E-01-1.66795E-03-1.04198E+00 4.96812E-14 7.39390E-14
 -1      3309 1.10980E+01-9.84585E-01 1.34325E-01-3.95503E+00 4.78569E-13-6.86812E-14
 -1      3310 1.39006E+01-2.05550E+00 4.54718E-02-4.94237E+00 3.76449E-13-1.98536E-13
 -1      3311 2.54046E+01 4.59251E+00-9.66829E-02 9.90232E-01 3.27127E-13 8.66286E-14
 -1      3312 2.55207E+01 4.95736E+00-8.89644E-02-2.41184E-01 3.81237E-13 2.71649E-14
 -1      3313 2.03218E+01 1.04797E+00-8.56621E-04 5.90072E-01 2.57187E-13-5.64924E-14
 -1      3314 2.02915E+01 1.37595E+00 4.07097E-03 6.75342E-01 2.61122E-13-7.49932E-14
 -1      3315 2.03008E+01 1.21600E+00 5.52238E-03 4.86580E-01 2.29111E-13-7.41810E-14
 -1      3316 2.02729E+01 8.45504E-01-3.06911E-03 3.67563E-01 2.27266E-13-5.69952E-14
 -1      3317 2.03142E+01 1.23261E+00 5.36830E-03-5.60594E-01-1.42475E-13-1.53929E-13
 -1      3318 2.02830E+01 1.00253E+00-4.11119E-03-3.56552E-01-1.31164E-13-1.56851E-13
 -1      3319 1.69447E+01-2.94639E+00 1.26610E-01-5.23902E+00-4.45810E-13-2.48919E-13
 -1      3320 1.94887E+01-4.03213E+00-5.10437E-02-4.92082E+00-3.94920E-13-9.14824E-14
 -1      3321 1.41220E+01-2.13505E+00-2.50207E-03 5.17000E+00-2.12205E-13 3.67456E-13
 -1      3322 1.21945E+01-9.50914E-01 1.34381E-01 4.20953E+00 8.35443E-15 3.66207E-13
 -1      3323 2.81103E+01 6.02877E-01-4.29829E-02 2.27236E+00-4.52693E-14-4.04982E-13
 -1      3324 2.78750E+01-1.57941E+00-1.41952E-01 1.77167E+00-2.83593E-14-4.02012E-13
 -1      3325 1.98102E+01-4.25779E+00-8.75109E-03 5.08336E+00-1.45793E-13-4.06584E-14
 -1      3326 1.69988E+01-3.10354E+00 1.06444E-01 5.31350E+00-2.37588E-13 1.58019E-13
 -1      3327 2.67553E+01 1.73922E+00-1.36280E-01-2.23188E+00 3.18495E-13-1.77802E-13
 -1      3328 2.72940E+01-8.67926E-02-1.80720E-02-1.84596E+00 2.01561E-13-1.42927E-13
 -1      3329 2.69955E+01-1.87221E+00-1.20996E-01-9.59819E-01 1.27679E-13-3.24185E-14
 -1      3330 2.63194E+01-3.09481E+00-1.40453E-02 2.17285E-01 1.59664E-14-7.66123E-14
 -1      3331 2.02936E+01 8.22532E-01 3.99421E-03-2.01982E-01-1.14100E-13-1.34047E-13
 -1      3332 2.02572E+01 6.78254E-01-2.78245E-03-4.82476E-02-1.00419E-13-1.42864E-13
 -1      3333 2.02725E+01 7.40817E-01-1.11423E-04-7.52766E-03-1.03734E-13-1.41871E-13
 -1      3334 2.19831E+01-4.23079E+00 9.83364E-02-3.92212E+00-3.76379E-13 5.82507E-14
 -1      3335 2.35050E+01-4.56454E+00-9.30918E-02-2.99925E+00-2.87281E-13 1.84238E-13
 -1      3336 9.03167E+00 2.03193E-01 8.60362E-02-8.36812E-01 6.30468E-13 4.32390E-13
 -1      3337 9.68419E+00-3.40232E-01 8.75516E-02-2.75236E+00 6.09825E-13 5.48867E-14
 -1      3338 1.20797E+01-2.60774E-01 1.30844E-01-2.98653E+00 6.10980E-13 5.80647E-14
 -1      3339 2.83283E+01 6.59248E-01-2.22340E-02-2.37630E+00-1.45023E-13 4.52471E-13
 -1      3340 2.00086E+01 6.29036E-02 1.55825E-04 5.02879E-02 1.72143E-13 2.77061E-14
 -1      3341 1.17817E+01-7.30144E-01 1.08802E-01-3.79007E+00-2.59594E-13-5.33878E-13
 -1      3342 1.40664E+01-1.99732E+00 1.45701E-02-5.05298E+00-3.72938E-13-4.67543E-13
 -1      3343 1.73297E+01-3.27513E+00 9.65410E-02-5.16419E+00 2.21941E-13-4.36116E-13
 -1      3344 2.02354E+01-4.42733E+00-5.85235E-02-4.77079E+00 2.69909E-13-4.68126E-13
 -1      3345 2.52605E+01-3.90788E+00 7.73676E-02-1.51433E+00-1.44948E-13 3.49120E-13
 -1      3346 2.61671E+01-3.00120E+00-1.30221E-01 1.13747E-01 5.87950E-14 4.16694E-13
 -1      3347 1.00780E+01-2.78508E-01 2.73033E-02 2.86041E+00 2.08198E-13 4.08382E-13
 -1      3348 9.11518E+00 2.37967E-01 1.33220E-01 9.71353E-01 3.35060E-13 5.87475E-13
 -1      3349 2.71926E+01-2.91796E+00-2.12983E-02 4.30439E-01-1.80862E-14-3.78107E-13
 -1      3350 2.63095E+01-3.70749E+00 7.17750E-03-3.97295E-01 7.41204E-14-4.14939E-13
 -1      3351 1.99665E+01 2.36618E+00-3.89431E-03 5.72849E-02 9.42868E-14-2.73554E-13
 -1      3352 1.99661E+01 2.36728E+00-3.87392E-03-5.14113E-02 6.79857E-14-2.87810E-13
 -1      3353 2.00692E+01 2.09167E+00 5.62922E-03 8.11940E-02 1.06108E-13-2.49444E-13
 -1      3354 2.02446E+01 1.56984E+00 6.56482E-03 4.85027E-01 2.12233E-13-1.42956E-13
 -1      3355 2.01504E+01 1.90131E+00-6.57715E-03 5.98847E-01 2.13027E-13-1.90448E-13
 -1      3356 2.01028E+01 2.04079E+00-3.15012E-03 5.10664E-01 1.98345E-13-2.31574E-13
 -1      3357 2.54304E+01 1.00605E+00-2.60739E-02 2.10650E+00 3.17586E-13 3.73451E-14
 -1      3358 2.42036E+01-3.84265E+00 6.13914E-03-1.78132E+00-2.39538E-13 3.25458E-13
 -1      3359 2.62062E+01-3.63543E+00-6.80301E-03 2.90522E-01 2.23606E-15 3.86177E-13
 -1      3360 2.56868E+01-3.82490E+00-3.16569E-02 1.01079E+00-7.45983E-14-9.80327E-14
 -1      3361 2.44752E+01-3.94238E+00 1.56044E-02 1.80548E+00-1.09988E-13-1.40902E-13
 -1      3362 2.56524E+01-2.96832E+00-3.72260E-02-6.54396E-02-1.06633E-14 1.82840E-15
 -1      3363 2.26079E+01-3.50204E+00-4.47610E-02 2.65462E+00 1.21243E-13 3.82683E-13
 -1      3364 1.22769E+01-2.80012E-01 1.12392E-01 3.17121E+00 7.55160E-14 2.78819E-13
 -1      3365 1.06068E+01 5.28111E-01 1.34562E-01-5.30044E-02 5.34288E-13 4.09700E-13
 -1      3366 1.99816E+01 1.02678E-01-5.73088E-04 5.36546E-02-1.90331E-14-5.49612E-13
 -1      3367 1.99911E+01 9.45294E-02 4.01656E-04 5.76106E-02 2.73661E-14-3.88798E-13
 -1      3368 2.02904E+01 1.06484E+00 3.14410E-04-2.89474E-01-1.21037E-13-1.68098E-13
 -1      3369 2.49834E+01 2.28079E+00-3.24764E-02-2.04143E+00 1.61385E-13-1.47292E-13
 -1      3370 2.60590E+01 2.09342E+00-9.43572E-02-2.20679E+00 2.25681E-13-1.36228E-13
 -1      3371 2.01385E+01 2.77971E-01 1.63767E-03-4.20209E-01 9.54533E-14-4.49865E-14
 -1      3372 2.01768E+01 3.61815E-01-1.45011E-03-3.71339E-01 8.42621E-14-3.44310E-14
 -1      3373 2.01420E+01 2.55406E-01 1.04949E-03-4.89730E-01 3.45974E-14-2.35901E-14
 -1      3374 2.64423E+01-1.00750E+00-2.51364E-02-1.57492E+00 1.46036E-13-1.82174E-13
 -1      3375 2.46305E+01 3.29756E+00-6.39784E-02 1.30559E+00 3.33601E-13 1.38431E-14
 -1      3376 1.49893E+01-1.32458E+00 2.55124E-02-4.16996E+00 2.90618E-13-1.82021E-13
 -1      3377 1.61508E+01-2.40924E+00 8.72023E-02-4.90437E+00 2.61569E-13-3.21909E-13
 -1      3378 1.80180E+01-2.57870E+00 8.00188E-03-4.37155E+00 1.91682E-13-5.24671E-13
 -1      3379 2.01182E+01 2.84973E-01-1.08812E-03-6.53308E-01 3.92378E-14-8.21014E-14
 -1      3380 2.01457E+01 2.35058E-01 1.64152E-03-6.16370E-01 1.66081E-15-3.32056E-14
 -1      3381 2.01273E+01 2.41894E-01 6.18995E-04-5.55703E-01 5.82971E-15-3.41528E-14
 -1      3382 2.51814E+01-1.35262E+00-4.87534E-02 1.49716E+00 4.35190E-14 7.67520E-14
 -1      3383 2.39930E+01 2.55369E+00-6.03482E-04 1.56457E+00 3.37411E-13 1.43590E-13
 -1      3384 2.41021E+01 1.61066E+00-8.62144E-02 1.98376E+00 2.87374E-13 1.17201E-13
 -1      3385 2.40940E+01 2.43206E+00-7.46007E-02-1.65798E+00 2.35445E-13-1.11250E-13
 -1      3386 2.39815E+01 3.16908E+00-2.60283E-02-1.03077E+00 3.41338E-13 2.29825E-14
 -1      3387 2.00307E+01 7.52383E-02 5.45452E-04 8.84615E-02-4.60101E-14 1.19461E-13
 -1      3388 2.00186E+01 9.38989E-02-4.10057E-04 1.01239E-01-6.99881E-14 8.93966E-14
 -1      3389 2.00235E+01 7.09543E-02 2.53924E-04 7.75161E-02 2.53822E-14 7.41903E-14
 -1      3390 2.00234E+01 2.23628E+00-3.63659E-03 3.34646E-01 1.63839E-13-2.41902E-13
 -1      3391 2.01042E+01 2.00473E+00 5.80946E-03 2.35529E-01 1.46597E-13-2.33348E-13
 -1      3392 2.00587E+01 2.14850E+00-5.19022E-03 4.36472E-01 1.96699E-13-2.38749E-13
 -1      3393 1.99663E+01 1.20124E-01-5.08557E-04 3.88822E-02 3.61692E-14-2.42048E-13
 -1      3394 1.99736E+01 1.13936E-01 1.45673E-04 4.63562E-02 2.86445E-14-4.34707E-13
 -1      3395 1.99728E+01 1.23208E-01 4.19768E-04 5.81555E-02-3.09493E-14-4.99356E-13
 -1      3396 2.25590E+01-3.52249E+00-4.17576E-02-2.68738E+00 1.96025E-13-3.20730E-13
 -1      3397 1.99569E+01 1.30887E-01-3.96578E-04 1.82284E-02-1.02595E-13-1.39232E-13
 -1      3398 1.99609E+01 1.27551E-01-3.19567E-05 2.80904E-02-3.04775E-14-1.44575E-13
 -1      3399 1.99563E+01 1.40914E-01 5.08398E-04 3.89111E-02-7.52945E-14-1.73709E-13
 -1      3400 1.99472E+01 1.50585E-01 5.67258E-04 1.39230E-02-8.54538E-14-2.55112E-13
 -1      3401 2.15518E+01-4.09038E+00 4.45050E-02 3.93030E+00-1.06901E-13-1.02945E-13
 -1      3402 2.79500E+01 2.14566E+00-2.02584E-01 2.58227E+00-1.75249E-13-4.18610E-13
 -1      3403 1.67045E+01-2.26415E+00 1.02712E-01 4.66727E+00-2.49779E-13 1.50005E-13
 -1      3404 1.62257E+01-2.05142E+00 7.60362E-02-4.59179E+00-4.42937E-13-2.89557E-13
 -1      3405 1.66221E+01-2.38045E+00 1.72330E-02 4.65921E+00 2.46816E-13-3.96363E-13
 -1      3406 1.34935E+01-1.35713E+00 1.87280E-01 4.51638E+00 1.63862E-13-4.54463E-13
 -1      3407 2.46949E+01 3.88948E+00-6.12860E-02-6.31352E-01 3.74659E-13 2.81806E-15
 -1      3408 1.29656E+01-5.92803E-01 1.13014E-01 3.51613E+00 1.48419E-13-4.22939E-13
 -1      3409 2.19912E+01-4.04687E+00 4.81205E-02-3.58473E+00 2.18686E-13-3.73498E-13
 -1      3410 1.17945E+01 3.80136E-01 3.99404E-02-1.80324E+00-1.22478E-13-4.92481E-13
 -1      3411 1.16246E+01-1.01390E-01 1.11552E-01-2.89299E+00-1.87489E-13-5.26398E-13
 -1      3412 1.34521E+01-3.37955E-01 4.07897E-02-3.23859E+00-2.59517E-13-3.75991E-13
 -1      3413 2.07958E+01-3.65928E+00 3.18291E-02-3.95802E+00-3.98626E-13 2.72391E-14
 -1      3414 2.02278E+01 5.84462E-01-1.26440E-03 6.77702E-02 2.11534E-13-4.75890E-14
 -1      3415 2.02732E+01 7.17201E-01 3.94923E-03 2.30061E-01 2.09978E-13-4.45852E-14
 -1      3416 2.02849E+01 8.68058E-01-4.92438E-03 2.88405E-01 2.12348E-13-4.03413E-14
 -1      3417 2.02574E+01 6.46238E-01-2.03287E-03 2.79055E-02 1.79517E-13-2.38725E-14
 -1      3418 2.57842E+01-2.14487E+00-2.07323E-02 8.01049E-01 3.67985E-14 2.12570E-13
 -1      3419 2.00025E+01 8.40462E-02-2.27367E-04-6.48086E-02-8.25712E-14-4.53093E-13
 -1      3420 1.99962E+01 8.94266E-02-2.93127E-04-6.15212E-02 6.74413E-14-4.23836E-13
 -1      3421 1.99891E+01 1.08744E-01 3.36292E-04-6.99410E-02-1.26425E-13-3.02959E-13
 -1      3422 2.00030E+01 9.68400E-02 4.65754E-04-7.69377E-02-7.69088E-14-4.56304E-13
 -1      3423 2.00008E+01 7.95319E-02-6.81290E-04 6.08133E-02 1.03478E-13-1.64058E-13
 -1      3424 2.00147E+01 6.55426E-02 3.61231E-04 6.07972E-02 1.40239E-13-3.26981E-14
 -1      3425 2.00197E+01 6.98857E-02 5.52007E-04 7.01193E-02 8.89126E-14 7.21937E-14
 -1      3426 1.99949E+01 9.84150E-02 2.48789E-04 6.95314E-02-1.13280E-13-3.05930E-13
 -1      3427 2.00201E+01 2.24446E+00-3.63993E-03-3.28264E-01-1.96320E-14-2.84108E-13
 -1      3428 2.00546E+01 2.15950E+00-5.02538E-03-4.31063E-01-5.17315E-14-2.92726E-13
 -1      3429 2.02625E+01 1.54337E+00-5.02738E-03-7.88451E-01-1.66154E-13-1.74740E-13
 -1      3430 2.00988E+01 2.05262E+00-3.30739E-03-5.04581E-01-8.45567E-14-2.62704E-13
 -1      3431 2.01484E+01 1.91423E+00-6.25631E-03-5.96213E-01-1.11508E-13-2.40579E-13
 -1      3432 2.01618E+01 1.84170E+00 5.06408E-03-3.69832E-01-7.83663E-14-2.54810E-13
 -1      3433 2.02458E+01 1.58370E+00-2.68179E-03-6.72445E-01-1.40868E-13-1.65818E-13
 -1      3434 2.01880E+01 5.22464E-01 6.16021E-04 3.20454E-01-1.05624E-13-7.47943E-14
 -1      3435 2.01552E+01 4.83067E-01-4.64927E-04 4.02688E-01-7.52074E-14-9.57923E-14
 -1      3436 2.01059E+01 4.60948E-01-2.46512E-04 4.70993E-01-4.51146E-14-9.31683E-14
 -1      3437 2.00717E+01 4.52860E-01 2.49100E-04 5.43622E-01-1.44484E-14-8.38213E-14
 -1      3438 2.01183E+01 5.39769E-01 7.98678E-04 4.00679E-01-5.60294E-14-8.54677E-14
 -1      3439 2.00086E+01 4.56378E-01-1.14560E-03 6.07294E-01 1.81807E-15-9.51291E-14
 -1      3440 1.99723E+01 4.70690E-01 7.62830E-04 6.77142E-01 1.73795E-14-1.20017E-13
 -1      3441 2.00067E+01 5.17287E-01 1.08910E-03 5.32688E-01-1.79549E-14-5.36101E-14
 -1      3442 1.98951E+01 4.91642E-01-2.02417E-03 7.41722E-01 3.22868E-14-1.33813E-13
 -1      3443 1.98553E+01 5.20178E-01 1.16725E-03 8.14240E-01 6.09221E-15-8.24917E-14
 -1      3444 1.98703E+01 5.44165E-01 1.54059E-03 6.59323E-01 1.17386E-14-1.23841E-13
 -1      3445 1.97624E+01 5.50249E-01-2.86140E-03 8.84509E-01-1.47853E-15-5.41008E-14
 -1      3446 1.97181E+01 5.84150E-01 1.58140E-03 9.63824E-01 6.73552E-15-4.44104E-14
 -1      3447 1.97068E+01 6.02839E-01 2.11729E-03 7.90702E-01 2.46046E-14-1.18126E-13
 -1      3448 1.96078E+01 6.13620E-01-3.67709E-03 1.04414E+00-4.60047E-14-7.50509E-14
 -1      3449 1.95595E+01 6.41962E-01 2.20677E-03 1.13354E+00-4.30522E-14-8.39731E-14
 -1      3450 1.95123E+01 6.74592E-01 2.76305E-03 9.35715E-01-4.56037E-14-6.69932E-14
 -1      3451 1.94304E+01 6.57995E-01-4.47862E-03 1.22888E+00-2.25358E-14-1.15803E-13
 -1      3452 1.93826E+01 6.65849E-01 3.35482E-03 1.33153E+00 1.47592E-14-1.25030E-13
 -1      3453 1.92830E+01 7.36854E-01 3.33024E-03 1.10367E+00-4.45845E-14-1.33815E-13
 -1      3454 1.92357E+01 6.50259E-01-5.21469E-03 1.44888E+00 7.10618E-14-1.66462E-13
 -1      3455 1.92001E+01 6.16372E-01 5.53924E-03 1.56873E+00 6.26606E-14-1.46197E-13
 -1      3456 1.90179E+01 7.59693E-01 3.60928E-03 1.30710E+00 2.43494E-14-1.46163E-13
 -1      3457 1.90419E+01 5.43157E-01-5.63148E-03 1.71913E+00 4.09959E-14-1.14516E-13
 -1      3458 1.90438E+01 4.37100E-01 9.59955E-03 1.86137E+00 1.86387E-14-8.15961E-14
 -1      3459 1.87231E+01 7.01124E-01 3.21935E-03 1.56562E+00 9.83066E-14-1.70791E-13
 -1      3460 1.88928E+01 2.69366E-01-4.77431E-03 2.06226E+00 2.02723E-14-9.95141E-14
 -1      3461 1.89796E+01 4.60381E-02 1.55274E-02 2.23196E+00 2.46757E-14-9.43868E-14
 -1      3462 1.84191E+01 5.00660E-01 1.40041E-03 1.91151E+00-4.34364E-15-1.17470E-13
 -1      3463 1.88839E+01-2.60152E-01 1.24801E-03 2.50082E+00 4.24743E-14-3.90904E-14
 -1      3464 1.91367E+01-6.58207E-01 2.66965E-02 2.69780E+00 1.00453E-13-7.86719E-15
 -1      3465 1.81598E+01 6.53974E-02-3.83928E-03 2.39330E+00 7.76558E-14-1.19179E-13
 -1      3466 1.91962E+01-1.15471E+00 2.37907E-02 3.03857E+00 1.63910E-13 2.84891E-14
 -1      3467 1.97588E+01-1.82531E+00 3.32381E-02 3.20314E+00 2.53962E-13 1.07548E-13
 -1      3468 1.80656E+01-7.71537E-01-2.94931E-02 3.06821E+00 1.53273E-13-2.95666E-14
 -1      3469 1.36044E+01-5.27164E-01-4.94048E-02 3.51644E+00-3.69479E-14 1.61364E-13
 -1      3470 1.22139E+01 4.17331E-01 8.83337E-02 2.16534E+00 5.15044E-14 1.99819E-13
 -1      3471 2.06420E+01-2.92033E+00 1.16320E-01-3.70142E+00 1.65676E-13-3.99616E-13
 -1      3472 2.02754E+01 1.28658E+00-4.45144E-04-3.57858E-01-1.12798E-13-1.92813E-13
 -1      3473 2.02747E+01 1.07649E+00-3.47422E-03-1.98795E-01-1.07205E-13-1.72780E-13
 -1      3474 1.92350E+01-7.67239E-01 2.97765E-02-2.69744E+00 1.29911E-13-1.13082E-13
 -1      3475 1.88902E+01-3.29326E-01 4.35883E-03-2.52092E+00-2.15839E-14-1.53090E-13
 -1      3476 1.89559E+01 1.24450E-02 1.62991E-02-2.23573E+00-8.33335E-14-1.21238E-13
 -1      3477 1.88519E+01 2.62700E-01-4.11597E-03-2.05581E+00-1.11216E-13-8.01572E-15
 -1      3478 1.81231E+01 3.05854E-02 5.40000E-03-2.43981E+00-3.25659E-14-1.17995E-13
 -1      3479 1.89910E+01 4.56362E-01 1.03730E-02-1.83766E+00-1.65286E-13-1.19774E-13
 -1      3480 1.89761E+01 5.82336E-01-5.58924E-03-1.68285E+00-4.01496E-14-2.26444E-13
 -1      3481 1.83277E+01 5.19181E-01 1.26416E-03-1.90928E+00-1.79916E-13-4.40953E-14
 -1      3482 1.91264E+01 6.71889E-01 5.70740E-03-1.51726E+00 2.30569E-13-2.26969E-13
 -1      3483 1.91539E+01 7.18544E-01-5.34586E-03-1.38508E+00 2.64277E-13-1.23841E-14
 -1      3484 1.86143E+01 7.60244E-01 3.29936E-03-1.52949E+00 8.09505E-14-2.20147E-13
 -1      3485 1.92926E+01 7.43940E-01 3.27641E-03-1.25466E+00 9.59859E-14 6.33445E-17
 -1      3486 1.93336E+01 7.42772E-01-4.68159E-03-1.14042E+00-3.53753E-14 3.38175E-14
 -1      3487 1.88942E+01 8.43850E-01 3.96560E-03-1.24342E+00 2.06194E-13-2.05279E-13
 -1      3488 1.94529E+01 7.30546E-01 2.04190E-03-1.03375E+00-9.65130E-14 4.03685E-14
 -1      3489 1.94934E+01 7.02690E-01-3.99879E-03-9.34259E-01-4.72438E-14 1.25563E-13
 -1      3490 1.91418E+01 8.33438E-01 3.86223E-03-1.01693E+00-2.48443E-14-1.29047E-13
 -1      3491 1.95917E+01 6.70464E-01 1.44147E-03-8.44892E-01-1.57199E-13 1.62366E-13
 -1      3492 1.96260E+01 6.29651E-01-3.37982E-03-7.58390E-01-2.19182E-13 6.16689E-14
 -1      3493 1.93493E+01 7.70240E-01 3.39609E-03-8.30349E-01-9.59783E-14-1.25272E-13
 -1      3494 1.97047E+01 5.88647E-01 1.15277E-03-6.82807E-01-1.72917E-13 9.08262E-14
 -1      3495 1.97313E+01 5.43446E-01-2.83289E-03-6.08298E-01-5.82713E-14-3.67263E-14
 -1      3496 1.95170E+01 6.81223E-01 2.81551E-03-6.73122E-01-1.61419E-13-5.69363E-14
 -1      3497 1.97929E+01 5.00489E-01 1.00368E-03-5.44488E-01 1.12308E-13-9.91606E-14
 -1      3498 1.98122E+01 4.55985E-01-2.34711E-03-4.81200E-01 1.69348E-13-9.24828E-14
 -1      3499 1.96489E+01 5.83422E-01 2.24461E-03-5.39712E-01 9.77728E-15 3.43126E-14
 -1      3500 1.98594E+01 4.15002E-01 9.05262E-04-4.27825E-01 1.41958E-13-7.62743E-14
 -1      3501 1.98727E+01 3.74025E-01-1.91683E-03-3.74923E-01 9.60917E-14-7.88093E-14
 -1      3502 1.97504E+01 4.87165E-01 1.74438E-03-4.26997E-01 1.01666E-13-2.95955E-14
 -1      3503 1.99083E+01 3.37092E-01 8.17011E-04-3.30846E-01-2.50540E-14-1.20009E-13
 -1      3504 1.99168E+01 3.01008E-01-1.54325E-03-2.87346E-01-2.31747E-14 5.17638E-14
 -1      3505 1.98268E+01 3.98330E-01 1.32761E-03-3.32791E-01 2.56781E-14-9.06425E-15
 -1      3506 1.99431E+01 2.68993E-01 7.25349E-04-2.51462E-01 8.45091E-14-7.21081E-15
 -1      3507 1.99482E+01 2.38214E-01-1.23243E-03-2.16270E-01 1.50662E-13 4.98130E-14
 -1      3508 1.98833E+01 3.19839E-01 9.88056E-04-2.55115E-01 6.60225E-14-1.52542E-13
 -1      3509 1.99672E+01 2.11241E-01 6.27742E-04-1.87525E-01-1.47238E-14 7.63762E-14
 -1      3510 1.99698E+01 1.85707E-01-9.40694E-04-1.59549E-01 5.90895E-15-4.72384E-14
 -1      3511 1.99242E+01 2.52650E-01 7.27563E-04-1.92029E-01 8.88621E-14-2.64934E-14
 -1      3512 1.99831E+01 1.63193E-01 4.32603E-04-1.36733E-01 1.64246E-13-6.23575E-14
 -1      3513 1.99848E+01 1.42641E-01-5.45952E-04-1.15135E-01 3.07330E-13-6.23288E-14
 -1      3514 1.99530E+01 1.96798E-01 5.83737E-04-1.41620E-01 7.57245E-14 2.24628E-13
 -1      3515 2.00818E+01 9.57866E-02 4.31859E-03-1.37358E+00-2.17772E-14-2.00919E-14
 -1      3516 2.00046E+01 1.86663E-01 6.69251E-04-1.31066E+00-1.27104E-14-2.03916E-14
 -1      3517 2.00062E+01 2.53044E-01 3.49797E-03-1.22128E+00-1.93597E-14 2.40747E-16
 -1      3518 1.99640E+01 2.96568E-01-5.89849E-04-1.15275E+00-2.39977E-14 2.86128E-14
 -1      3519 1.97651E+01 2.77838E-01-2.85912E-03-1.29004E+00 2.46210E-15-6.03904E-14
 -1      3520 2.05947E+01-6.26917E-01 5.00308E-03-1.60836E+00-1.84452E-13 7.86461E-14
 -1      3521 2.03823E+01-3.82986E-01 7.35162E-03-1.59758E+00-1.26500E-13 3.59821E-14
 -1      3522 2.11677E+01-1.24505E+00 2.58242E-03-1.60408E+00-1.96512E-13 8.22674E-14
 -1      3523 2.08490E+01-9.09364E-01 1.47760E-02-1.66146E+00-1.90891E-13 9.49128E-14
 -1      3524 2.02771E+01-7.95763E-01-1.81197E-02-1.86111E+00-1.71511E-13 8.64309E-14
 -1      3525 2.20462E+01-1.97336E+00-3.38321E-03-1.39472E+00-2.33948E-13 6.19578E-14
 -1      3526 2.16145E+01-1.59310E+00 2.44805E-02-1.56820E+00-2.17388E-13 3.89992E-14
 -1      3527 2.09082E+01-1.53834E+00-2.80450E-02-1.94426E+00-1.82159E-13 8.63669E-14
 -1      3528 2.32258E+01-2.61550E+00-1.05500E-02-8.40296E-01-2.91426E-13 8.13555E-14
 -1      3529 2.27484E+01-2.30899E+00 3.73994E-02-1.17886E+00-2.54490E-13 9.70747E-14
 -1      3530 2.19640E+01-2.41401E+00-4.05160E-02-1.79150E+00-2.48420E-13 9.07581E-14
 -1      3531 2.22654E+01-1.95956E+00 2.94063E-02 1.27301E+00-2.18209E-13-4.13189E-16
 -1      3532 2.27386E+01-2.29341E+00-5.19555E-03 9.88387E-01-2.28433E-13-6.34250E-14
 -1      3533 2.13047E+01-1.23415E+00 2.00584E-02 1.52373E+00-1.47406E-13 5.33536E-14
 -1      3534 2.16803E+01-1.59763E+00-3.69730E-04 1.40437E+00-1.38028E-13-8.21448E-14
 -1      3535 2.15316E+01-1.96742E+00-2.92558E-02 1.77369E+00-1.36815E-13-3.25356E-14
 -1      3536 2.06718E+01-6.14323E-01 1.12584E-02 1.54339E+00 3.66644E-14-9.76060E-14
 -1      3537 2.09410E+01-9.12335E-01 2.90440E-03 1.52020E+00-2.22218E-14-5.59204E-14
 -1      3538 2.06567E+01-1.15003E+00-2.31629E-02 1.82054E+00 2.57655E-14-1.69344E-13
 -1      3539 2.02933E+01-1.59384E-01 5.62325E-03 1.44117E+00-7.69399E-14-1.47123E-13
 -1      3540 2.04704E+01-3.67561E-01 4.58038E-03 1.47326E+00-6.11716E-14-1.04894E-13
 -1      3541 2.01484E+01-4.89735E-01-1.34562E-02 1.69202E+00 7.60633E-15-2.29195E-13
 -1      3542 2.00863E+01 1.36243E-01 2.20140E-03 1.28673E+00 2.27022E-14 8.98619E-15
 -1      3543 2.01962E+01 6.08575E-03 4.17058E-03 1.34765E+00 4.10533E-15-5.75554E-14
 -1      3544 1.98833E+01-3.64166E-02-7.81883E-03 1.49755E+00-6.63022E-14-2.27488E-13
 -1      3545 1.99854E+01 3.05282E-01 2.41379E-04 1.11480E+00-2.66792E-15 5.42795E-15
 -1      3546 2.00512E+01 2.34667E-01 3.41241E-03 1.18858E+00-1.81952E-15 5.60917E-14
 -1      3547 1.97691E+01 2.44673E-01-4.11553E-03 1.28979E+00-5.67590E-14-1.00521E-13
 -1      3548 1.99457E+01 3.83370E-01-8.05355E-04 9.43644E-01 1.50709E-13 5.45400E-14
 -1      3549 1.99845E+01 3.54313E-01 2.74150E-03 1.02060E+00 1.18250E-13 6.90238E-15
 -1      3550 1.97415E+01 3.96369E-01-1.79240E-03 1.08985E+00 7.95857E-15-1.04129E-13
 -1      3551 1.99384E+01 4.01292E-01-1.30604E-03 7.82913E-01-1.20106E-13 6.33648E-14
 -1      3552 1.99616E+01 3.99050E-01 2.22713E-03 8.57271E-01 2.33140E-14 8.26868E-14
 -1      3553 1.97589E+01 4.58113E-01-4.82387E-04 9.06383E-01 3.99780E-14-6.01749E-14
 -1      3554 1.99462E+01 3.82585E-01-1.47911E-03 6.37595E-01 2.66093E-14-7.61135E-14
 -1      3555 1.99607E+01 3.96199E-01 1.85048E-03 7.06000E-01-7.87643E-14 8.66757E-15
 -1      3556 1.97959E+01 4.61841E-01 1.69375E-04 7.42539E-01 2.32675E-15 1.65499E-13
 -1      3557 1.99595E+01 3.43959E-01-1.45857E-03 5.09979E-01-1.60704E-13 1.20017E-13
 -1      3558 1.99693E+01 3.65790E-01 1.57195E-03 5.70663E-01-4.05103E-14 7.67891E-14
 -1      3559 1.98384E+01 4.31221E-01 4.59004E-04 5.99143E-01-8.05503E-14 1.31652E-13
 -1      3560 1.99731E+01 2.96643E-01-1.33685E-03 4.00652E-01-1.03200E-13-8.71061E-14
 -1      3561 1.99805E+01 3.21634E-01 1.35011E-03 4.52925E-01-8.02617E-14 1.97665E-14
 -1      3562 1.98787E+01 3.82665E-01 5.36214E-04 4.75921E-01-5.83800E-14 4.29936E-13
 -1      3563 1.99849E+01 2.47832E-01-1.16466E-03 3.09056E-01-1.13285E-14-1.50248E-13
 -1      3564 1.99909E+01 2.72791E-01 1.15867E-03 3.52965E-01-7.48632E-14-2.29671E-13
 -1      3565 1.99135E+01 3.27145E-01 5.07753E-04 3.71928E-01-4.12812E-14-5.55504E-14
 -1      3566 1.99939E+01 2.01809E-01-9.85886E-04 2.33827E-01-7.89542E-14-9.86133E-14
 -1      3567 1.99990E+01 2.24905E-01 9.85359E-04 2.69921E-01-5.58313E-15-2.89735E-13
 -1      3568 1.99415E+01 2.71631E-01 4.32844E-04 2.85731E-01 5.87236E-15-4.40786E-14
 -1      3569 2.00003E+01 1.60790E-01-7.90093E-04 1.73227E-01-1.06705E-13 2.28299E-14
 -1      3570 2.00047E+01 1.81095E-01 8.29400E-04 2.02263E-01-1.21296E-13-1.65627E-13
 -1      3571 1.99629E+01 2.20070E-01 3.12262E-04 2.15434E-01-1.09412E-13-1.51644E-13
 -1      3572 2.00044E+01 1.26110E-01-4.25412E-04 1.25406E-01-2.02493E-13 3.67272E-14
 -1      3573 2.00081E+01 1.42934E-01 7.12341E-04 1.48133E-01-1.05646E-13 3.59330E-14
 -1      3574 1.99783E+01 1.74594E-01 1.44928E-04 1.59241E-01-1.38415E-13-3.77581E-14
 -1      3575 1.99926E+01 2.30680E+00-4.32910E-03-2.45376E-01 2.90214E-16-2.78001E-13
 -1      3576 2.01015E+01 2.01166E+00 5.75533E-03-2.31427E-01-1.40578E-14-2.61611E-13
 -1      3577 1.99750E+01 2.34724E+00-3.76748E-03-1.38214E-01 4.12034E-14-2.79906E-13
 -1      3578 2.56279E+01 9.37072E-01-1.97129E-02-2.19635E+00 1.09454E-13-2.06854E-13
 -1      3579 2.29203E+01-4.05555E+00-1.09947E-02 2.94315E+00-1.21583E-13-1.59433E-13
 -1      3580 2.07575E+01-3.43417E+00 2.63131E-02 3.76367E+00-2.07390E-13-9.62147E-14
 -1      3581 2.17862E+01-4.21890E+00 1.84576E-02 3.78150E+00 1.12681E-13 1.16192E-13
 -1      3582 2.02305E+01 5.19148E-01-1.24638E-03-2.20601E-01 1.18903E-13-3.13906E-14
 -1      3583 2.02577E+01 6.05399E-01 2.15363E-03-1.15459E-01 1.50611E-13-5.09516E-14
 -1      3584 1.99332E+01 1.69372E-01-1.60135E-04-2.24802E-02 1.67268E-13 1.58010E-13
 -1      3585 1.99303E+01 1.71244E-01-3.72609E-04-8.13879E-03 7.33041E-14-7.22936E-14
 -1      3586 1.82342E+01-2.29722E+00 9.89725E-03 4.23003E+00 2.69545E-13-1.63772E-13
 -1      3587 1.66896E+01-1.20978E+00 3.66528E-02 3.77704E+00 2.03595E-13-2.21809E-13
 -1      3588 2.50731E+01-2.52034E+00 5.33767E-03 4.02071E-01-5.64306E-14 2.38086E-13
 -1      3589 2.28758E+01-3.33300E+00 6.95202E-02-2.25623E+00-3.27424E-13 2.61416E-13
 -1      3590 2.38464E+01-3.20558E+00-3.39674E-02-1.11075E+00-2.31102E-13 2.88023E-13
 -1      3591 1.15041E+01 3.98048E-01 4.58668E-02 1.70189E+00 5.24624E-14-3.42296E-13
 -1      3592 1.13678E+01 6.43426E-01 3.31703E-02 9.49442E-02 1.90039E-15-3.78954E-13
 -1      3593 2.47516E+01-2.67177E+00 1.65003E-02-1.21529E-01-2.09182E-14-7.69905E-14
 -1      3594 2.52133E+01-2.19604E+00-9.64163E-03-7.05720E-01 1.41586E-13-1.11649E-13
 -1      3595 2.02580E+01-1.85524E-01 4.96110E-03-1.51289E+00-6.45645E-14 3.65390E-14
 -1      3596 2.01259E+01-2.67434E-02 3.13653E-03-1.46622E+00-3.57937E-14-1.65743E-14
 -1      3597 1.97973E+01 8.23911E-02-5.71531E-03-1.48310E+00-4.17278E-14-4.05267E-14
 -1      3598 1.99424E+01-2.61376E-01-1.07511E-02-1.68259E+00-9.95523E-14 6.69881E-14
 -1      3599 2.00416E+01 3.43825E-01 1.78655E-03-7.92978E-01 6.87031E-14-7.95099E-14
 -1      3600 2.00439E+01 3.40331E-01-8.03487E-04-7.28589E-01 7.82045E-14-9.71345E-14
 -1      3601 1.49120E+01-7.06003E-01-3.46500E-02 3.54472E+00 1.79881E-13-3.62821E-13
 -1      3602 1.29728E+01 9.10122E-02 8.70519E-02 2.70516E+00 1.15936E-13-3.51282E-13
 -1      3603 1.37809E+01 4.24124E-01 5.88795E-02 2.01460E+00 4.09534E-14-2.71807E-13
 -1      3604 1.12149E+01 6.36852E-01 9.02527E-03 7.98987E-01 3.08421E-13 3.13326E-13
 -1      3605 1.13677E+01 6.53333E-01 4.63820E-02-9.26046E-01 5.67994E-13 1.99216E-13
 -1      3606 1.55862E+01-1.21412E+00 5.62271E-02-4.03105E+00-3.75812E-13-2.66610E-13
 -1      3607 1.76975E+01-2.33443E+00-2.78085E-02-4.32716E+00-4.48849E-13-1.47892E-13
 -1      3608 2.55191E+01-4.11503E-01-9.42384E-02-1.94531E+00 1.61968E-13-3.42200E-13
 -1      3609 2.02523E+01 6.62237E-01 1.57573E-03 1.41452E-01-8.07329E-14-1.14753E-13
 -1      3610 2.02219E+01 5.80032E-01-1.43955E-03 2.41349E-01-8.52094E-14-8.63285E-14
 -1      3611 2.02049E+01 6.30778E-01 8.04469E-04 2.52092E-01-9.12521E-14-1.07340E-13
 -1      3612 2.00838E+01-2.85428E+00 8.13641E-02 3.84560E+00 2.76255E-13 6.29202E-14
 -1      3613 1.93633E+01-2.19092E+00 4.89341E-02-3.61094E+00 2.12150E-13-4.06599E-13
 -1      3614 2.02905E+01 9.04744E-01 2.29035E-03-8.25127E-02-7.74707E-14-1.54678E-13
 -1      3615 2.02657E+01 7.67416E-01-2.67493E-03 4.38883E-02-7.21614E-14-1.33979E-13
 -1      3616 2.02602E+01 8.14728E-01 1.47145E-03 7.48844E-02-5.99615E-14-1.13600E-13
 -1      3617 1.22277E+01 3.02145E-01 6.19072E-02-2.25627E+00 6.08709E-13 2.13392E-13
 -1      3618 1.33786E+01-3.74008E-01 4.22255E-02-3.41696E+00 4.44542E-13 1.56125E-13
 -1      3619 2.02093E+01 1.68493E+00-3.04080E-03-6.14852E-01-1.16878E-13-1.91581E-13
 -1      3620 1.97598E+01-2.77841E+00 8.77206E-02-3.91766E+00-4.47488E-13-2.39739E-14
 -1      3621 2.14494E+01-3.40060E+00-3.89693E-02-3.18274E+00-3.73823E-13 1.25570E-13
 -1      3622 2.16936E+01-2.79927E+00-1.19302E-03-2.46009E+00-3.30372E-13 1.64120E-13
 -1      3623 1.88316E+01-2.12140E+00 3.95815E-03-3.65221E+00-4.33525E-13-9.18172E-14
 -1      3624 1.82114E+01-2.49507E+00-2.01729E-02 4.28885E+00-3.08503E-13 1.62648E-14
 -1      3625 1.60669E+01-1.34808E+00 8.84327E-02 4.14387E+00-2.36665E-13 1.57579E-13
 -1      3626 2.44938E+01-2.83748E+00 7.34294E-03-2.21555E-01-2.00589E-13 1.61456E-13
 -1      3627 2.02741E+01 1.25777E+00-4.56769E-03 3.73933E-01 2.06693E-13-1.10963E-13
 -1      3628 2.02444E+01 1.41652E+00-9.13149E-04 3.40215E-01 1.84569E-13-1.50967E-13
 -1      3629 2.01150E+01 1.83085E+00-3.46854E-03 9.70602E-02 1.08624E-13-2.21795E-13
 -1      3630 2.01067E+01 1.85377E+00-3.10242E-03 2.59826E-02 8.84646E-14-2.49471E-13
 -1      3631 1.56851E+01-6.33813E-01 6.16247E-02 3.34932E+00-7.25114E-14 1.07379E-14
 -1      3632 2.00685E+01 2.09417E+00 5.70426E-03-7.71310E-02 5.31088E-14-2.63049E-13
 -1      3633 2.01424E+01 3.04985E-01-1.26747E-03-5.20939E-01 3.76678E-14-8.71928E-14
 -1      3634 2.02475E+01 1.50658E+00 3.53333E-03-4.48388E-01-1.13772E-13-1.99510E-13
 -1      3635 2.02286E+01 1.51169E+00 6.71081E-04-3.52381E-01-1.00653E-13-2.03538E-13
 -1      3636 2.00143E+01 3.97134E-01-1.04392E-04-6.75472E-01 4.37805E-14-1.66029E-13
 -1      3637 2.00853E+01 3.40369E-01 1.25983E-03-6.63964E-01 5.42372E-14-1.15842E-13
 -1      3638 2.00950E+01 3.44202E-01-2.26973E-04-5.98727E-01 2.06606E-14-1.14077E-13
 -1      3639 2.00100E+01 8.48782E-02-6.22835E-04 7.98029E-02 4.56265E-14-9.35453E-14
 -1      3640 2.01831E+01 4.08065E-01-2.11183E-04-3.90177E-01 9.61389E-14-7.47535E-14
 -1      3641 2.02058E+01 4.55627E-01 1.42635E-03-3.06499E-01 1.05864E-13-5.89203E-14
 -1      3642 2.02284E+01 5.69607E-01 5.97493E-06-2.41605E-01 1.37030E-13-8.86973E-14
 -1      3643 2.00001E+01 3.45660E-01-1.12880E-03-8.61116E-01 3.66416E-14-4.03759E-14
 -1      3644 1.99342E+01 4.02179E-01-1.60725E-04-8.09647E-01 2.86119E-14-8.09147E-14
 -1      3645 2.00070E+01 3.46371E-01 2.28108E-03-9.27369E-01 4.58503E-14 1.35081E-14
 -1      3646 1.99949E+01 1.25997E-01 3.25423E-04-1.02702E-01 2.53964E-13-2.11206E-13
 -1      3647 1.99965E+01 1.10401E-01-2.52536E-04-8.75735E-02 1.53485E-13-3.12246E-13
 -1      3648 1.99893E+01 1.17290E-01-9.27766E-05-8.43706E-02 1.37545E-14-3.72466E-13
 -1      3649 1.99743E+01 1.52053E-01 2.79731E-04-1.07505E-01 2.61905E-13 1.61547E-13
 -1      3650 1.52483E+01-6.85154E-01 6.01056E-02-3.47936E+00 4.23475E-13-3.10724E-14
 -1      3651 1.97956E+01 3.71465E-01-1.26424E-03-1.11312E+00 2.40977E-14-6.96550E-14
 -1      3652 1.99900E+01 3.25328E-01 2.82618E-03-1.07045E+00 7.04943E-15 7.42314E-14
 -1      3653 1.99695E+01 3.39386E-01-1.10597E-03-1.00194E+00 7.92727E-14 3.93890E-14
 -1      3654 2.00009E+01 1.09722E-01 9.88325E-05 9.52524E-02-1.00786E-14-1.17389E-13
 -1      3655 2.00052E+01 1.17779E-01 5.34676E-04 1.09750E-01-1.16134E-13-2.86579E-14
 -1      3656 1.99838E+01 1.42532E-01-3.33021E-04 1.18180E-01-1.04774E-13-3.03842E-14
 -1      3657 2.01281E+01 1.79696E+00-2.65246E-03-1.43973E-01 9.91855E-15-2.38668E-13
 -1      3658 2.01487E+01 1.73232E+00-4.13200E-03-2.08126E-01-1.92814E-14-2.25282E-13
 -1      3659 2.01675E+01 1.83160E+00 6.17488E-03 3.75838E-01 1.79203E-13-2.21412E-13
 -1      3660 2.01532E+01 1.72360E+00-3.88294E-03 2.12689E-01 1.36279E-13-2.36814E-13
 -1      3661 2.01314E+01 1.78968E+00-2.66634E-03 1.45864E-01 1.16166E-13-2.40106E-13
 -1      3662 2.01858E+01 1.59905E+00 5.52812E-03 8.28166E-02 8.52162E-14-2.20084E-13
 -1      3663 1.99385E+01 1.63490E-01-5.78153E-04-3.89641E-02 4.22848E-14 2.30644E-13
 -1      3664 1.99246E+01 1.88503E-01 7.78461E-04-3.49505E-02 2.07642E-13 6.23061E-14
 -1      3665 1.99470E+01 1.57945E-01 2.07433E-04-5.14036E-02-7.15626E-14 2.74072E-13
 -1      3666 1.99305E+01 1.70778E-01-3.73868E-04 9.45603E-03-7.94000E-14-1.67692E-13
 -1      3667 1.99334E+01 1.68379E-01-1.69470E-04 2.35222E-02-2.96728E-14-2.56618E-13
 -1      3668 1.99181E+01 1.93437E-01 6.85391E-04 9.60723E-04 1.05818E-13 2.55379E-14
 -1      3669 2.36858E+01-3.58188E+00 1.41470E-02 1.81010E+00-1.50135E-13-9.37792E-14
 -1      3670 1.87733E+01-1.46489E+00 2.43388E-02-3.37173E+00 2.45884E-13-3.05304E-13
 -1      3671 2.02731E+01 7.64659E-01 1.73512E-04-4.47790E-02 1.42547E-13-9.88938E-14
 -1      3672 2.02702E+01 7.17672E-01-1.44144E-03-6.99171E-03 1.41321E-13-6.03288E-14
 -1      3673 1.66317E+01-5.84335E-01 4.61292E-02 3.23331E+00 1.88405E-13-2.14739E-13
 -1      3674 1.28689E+01 7.07614E-01 8.08718E-02 1.31138E+00 7.20951E-14 1.06012E-13
 -1      3675 2.02729E+01 1.10590E+00-6.63083E-04-1.40650E-01-8.40903E-14-1.59972E-13
 -1      3676 1.98798E+01-2.72940E+00 4.15984E-02 3.71033E+00-2.72194E-13-1.01909E-13
 -1      3677 1.90245E+01-1.92776E+00-3.40221E-03 3.41919E+00-2.14695E-13-4.71567E-14
 -1      3678 2.11426E+01-2.79855E+00-1.65668E-02 2.84718E+00-2.49822E-13-1.86279E-13
 -1      3679 1.99576E+01 1.43507E-01-6.13970E-04 6.46396E-02 1.64916E-13-3.77742E-13
 -1      3680 1.99697E+01 1.33452E-01 1.16025E-04 7.28014E-02 1.89723E-13-4.69358E-13
 -1      3681 2.35390E+01-2.53807E+00 3.11520E-02 6.37150E-01-2.11556E-13-9.42352E-14
 -1      3682 2.40730E+01-2.58978E+00-3.75546E-03 1.32688E-01-1.36537E-13-1.04041E-13
 -1      3683 1.22141E+01 7.64220E-01 8.65597E-02-8.00420E-01-5.02810E-14-4.26024E-13
 -1      3684 1.32873E+01 5.94661E-01 1.22903E-02-1.54566E+00-1.08127E-13-3.33563E-13
 -1      3685 1.28869E+01 8.40840E-01-1.01286E-02 9.62462E-02-9.70643E-15-2.97647E-13
 -1      3686 2.02890E+01 8.21427E-01 6.77222E-04 1.10997E-01 1.52732E-13-7.81766E-14
 -1      3687 2.57248E+01-1.53208E+00 2.55902E-02-1.38029E+00 1.72608E-13-2.42188E-13
 -1      3688 1.49749E+01-6.05419E-01 5.50548E-02-3.56571E+00-3.11709E-13-2.20463E-13
 -1      3689 1.64711E+01-8.35811E-01 2.07663E-02-3.37714E+00-3.45960E-13-1.30812E-13
 -1      3690 1.44912E+01-5.75420E-02 1.10667E-03-2.79752E+00-2.13156E-13-2.44497E-13
 -1      3691 1.99706E+01 1.45526E-01 5.44114E-04 9.15510E-02 1.93603E-13-1.51644E-13
 -1      3692 1.99821E+01 1.21228E-01-5.55340E-04 8.29599E-02-4.63972E-14-3.80809E-13
 -1      3693 1.28435E+01 6.49615E-01 7.60498E-02-1.41527E+00 4.02706E-13 1.80612E-13
 -1      3694 1.75149E+01-9.56232E-01 2.35846E-03-3.42592E+00 2.21696E-13-3.13853E-13
 -1      3695 2.28423E+01-2.71587E+00-1.48693E-02 1.36684E+00-2.55597E-13-4.99982E-14
 -1      3696 1.99818E+01 1.22775E-01-3.68735E-04-7.99356E-02-9.32072E-14-1.95351E-13
 -1      3697 2.01714E+01 1.68493E+00-2.28383E-03-2.54732E-01-3.89210E-14-2.26471E-13
 -1      3698 2.02028E+01 1.58190E+00-2.84093E-03-3.09940E-01-7.58800E-14-2.10196E-13
 -1      3699 2.02492E+01 1.39004E+00 5.27309E-03-2.32056E-01-7.07249E-14-1.86504E-13
 -1      3700 2.02200E+01 1.51096E+00 6.66745E-03-1.61685E-01-1.53669E-14-1.90570E-13
 -1      3701 1.99706E+01 1.44729E-01 1.91220E-04-8.80563E-02 2.62917E-14-1.14376E-13
 -1      3702 1.99716E+01 1.34018E-01 2.68604E-04-7.29365E-02-1.31184E-13-6.80904E-14
 -1      3703 1.99591E+01 1.43200E-01-7.42651E-04-6.48789E-02-8.26330E-14 1.09131E-13
 -1      3704 1.99603E+01 1.61977E-01-4.22349E-04-9.93683E-02 7.80577E-14-9.31065E-15
 -1      3705 1.68635E+01-8.45740E-01-2.29831E-02 3.29161E+00-1.82959E-13-1.06559E-13
 -1      3706 1.51771E+01 1.62374E-01 7.15982E-02 2.71703E+00-8.03303E-14-4.71524E-14
 -1      3707 2.00019E+01 5.61301E-01-1.07593E-03 4.37999E-01-2.38981E-14-6.08895E-14
 -1      3708 1.99389E+01 5.63134E-01-3.74129E-04 5.00149E-01-2.13193E-14-9.37556E-14
 -1      3709 1.98454E+01 5.76561E-01-1.83383E-03 5.50539E-01-6.00572E-15-7.76130E-14
 -1      3710 1.97702E+01 6.00829E-01-7.96549E-05 6.11678E-01 2.35854E-14-1.00947E-13
 -1      3711 1.98520E+01 6.24563E-01 2.25297E-03 4.54706E-01-1.30042E-14-9.34281E-14
 -1      3712 1.96542E+01 6.31558E-01-2.69248E-03 6.63879E-01 4.38150E-14-1.22851E-13
 -1      3713 1.95652E+01 6.69312E-01 1.22295E-04 7.28413E-01 1.37052E-14-1.01876E-13
 -1      3714 1.96474E+01 6.72383E-01 2.87223E-03 5.51791E-01 1.82786E-14-1.04409E-13
 -1      3715 1.94238E+01 7.07976E-01-3.68485E-03 7.86214E-01-1.61646E-14-8.33076E-14
 -1      3716 1.93190E+01 7.49583E-01 3.77660E-04 8.58145E-01-5.13104E-14-1.01372E-13
 -1      3717 1.93977E+01 7.50109E-01 3.72104E-03 6.53850E-01 1.69530E-14-1.41655E-13
 -1      3718 1.91470E+01 7.85694E-01-4.95155E-03 9.25969E-01-5.10428E-14-7.93443E-14
 -1      3719 1.90254E+01 8.19743E-01 9.13988E-04 1.01026E+00-1.37303E-14-6.61047E-14
 -1      3720 1.90951E+01 8.38547E-01 4.81235E-03 7.68166E-01-1.70376E-14-4.40527E-14
 -1      3721 1.88163E+01 8.39676E-01-6.66096E-03 1.09491E+00-9.96376E-15-9.14628E-14
 -1      3722 1.86796E+01 8.51119E-01 2.09491E-03 1.19900E+00 3.20149E-14-1.00628E-13
 -1      3723 1.87286E+01 9.15869E-01 6.17697E-03 9.05383E-01-2.13202E-14-2.88172E-14
 -1      3724 1.84246E+01 8.36415E-01-9.09670E-03 1.31171E+00 9.19185E-14-1.15232E-13
 -1      3725 1.82806E+01 8.05063E-01 4.60894E-03 1.44795E+00 8.51001E-14-8.77617E-14
 -1      3726 1.82844E+01 9.54586E-01 7.90210E-03 1.08290E+00 5.10250E-14-6.13693E-14
 -1      3727 1.79688E+01 7.29942E-01-1.24842E-02 1.60865E+00 3.57901E-14-1.17596E-13
 -1      3728 1.78357E+01 6.26822E-01 9.27408E-03 1.79773E+00 2.57991E-14-6.33039E-14
 -1      3729 1.77452E+01 9.19135E-01 1.02384E-02 1.33127E+00 6.38906E-14-1.12465E-13
 -1      3730 1.74554E+01 4.55202E-01-1.60087E-02 2.04042E+00 3.69598E-14-1.18304E-13
 -1      3731 1.74070E+01 2.28870E-01 1.76589E-02 2.30811E+00 8.31809E-14-1.33845E-13
 -1      3732 1.70952E+01 7.58899E-01 1.51056E-02 1.70466E+00 1.12442E-14-1.39371E-13
 -1      3733 1.66134E+01-1.17361E-01 6.36650E-03 2.79280E+00 1.35008E-13-1.90616E-13
 -1      3734 1.95306E+01 3.49546E-01 5.04410E-03-1.30612E+00-1.75319E-14-2.44709E-14
 -1      3735 1.95266E+01 4.05784E-01-2.21015E-03-1.21188E+00 3.14228E-15-4.59470E-14
 -1      3736 1.72811E+01 2.02715E-01 1.00320E-02-2.37828E+00 6.65258E-14 4.02545E-14
 -1      3737 1.73107E+01 4.51428E-01-2.16096E-02-2.06716E+00 2.02954E-14 2.02672E-13
 -1      3738 1.59908E+01-1.14239E-01-6.81559E-03-2.82593E+00 3.04999E-13 8.48193E-15
 -1      3739 1.77032E+01 6.50238E-01 8.03096E-03-1.81043E+00-1.09734E-13 1.81339E-13
 -1      3740 1.78269E+01 7.76964E-01-1.39728E-02-1.60173E+00-2.16341E-13 1.73456E-13
 -1      3741 1.69227E+01 7.93209E-01 1.74533E-02-1.73296E+00-4.47282E-14 2.54370E-13
 -1      3742 1.81393E+01 8.70334E-01 4.66433E-03-1.42334E+00-1.00706E-13 1.90640E-13
 -1      3743 1.82752E+01 9.15106E-01-9.83907E-03-1.27301E+00 1.69894E-13 2.28690E-13
 -1      3744 1.75681E+01 9.91795E-01 1.06673E-02-1.31971E+00-7.54147E-14 3.92791E-13
 -1      3745 1.85251E+01 9.41051E-01 1.96362E-03-1.14790E+00 2.41643E-13-7.67545E-15
 -1      3746 1.86534E+01 9.37675E-01-7.11436E-03-1.03231E+00 1.33641E-13-4.54158E-14
 -1      3747 1.81021E+01 1.05065E+00 8.57919E-03-1.04356E+00 2.17362E-14 2.85341E-13
 -1      3748 1.88532E+01 9.23140E-01 7.47941E-04-9.37534E-01 5.36260E-15-1.38378E-13
 -1      3749 1.89646E+01 8.91076E-01-5.34958E-03-8.43884E-01-5.00657E-14-1.19253E-13
 -1      3750 1.85312E+01 1.02616E+00 6.97352E-03-8.45806E-01 1.03498E-14-5.75635E-14
 -1      3751 1.91237E+01 8.53699E-01 2.26890E-04-7.67943E-01-1.15938E-13-1.30140E-13
 -1      3752 1.92157E+01 8.06511E-01-4.17059E-03-6.89277E-01-1.60285E-13-1.79349E-13
 -1      3753 1.88749E+01 9.50799E-01 5.61476E-03-6.92608E-01-1.22688E-13-1.08669E-13
 -1      3754 1.93417E+01 7.57999E-01 6.53538E-05-6.26134E-01-1.81145E-13-1.70685E-13
 -1      3755 1.94150E+01 7.04673E-01-3.35001E-03-5.59007E-01-7.12535E-14-1.52369E-13
 -1      3756 1.91484E+01 8.48185E-01 4.44323E-03-5.67188E-01-1.52357E-13-1.35119E-13
 -1      3757 1.95140E+01 6.52682E-01 6.36900E-05-5.05639E-01-4.56686E-15-9.98889E-14
 -1      3758 1.95709E+01 5.98968E-01-2.72551E-03-4.48301E-01 5.29872E-14-1.69810E-13
 -1      3759 1.93641E+01 7.34767E-01 3.51769E-03-4.61224E-01-6.13420E-15-2.20336E-13
 -1      3760 1.96479E+01 5.48204E-01 1.24556E-04-4.03178E-01 1.05224E-13-2.16121E-13
 -1      3761 1.96909E+01 4.97630E-01-2.21462E-03-3.54637E-01 6.77131E-14-2.73331E-13
 -1      3762 1.95324E+01 6.21142E-01 2.76009E-03-3.70788E-01 5.72957E-14-3.80270E-13
 -1      3763 1.97500E+01 4.50903E-01 1.91849E-04-3.16813E-01 9.47859E-14-2.45395E-13
 -1      3764 1.97819E+01 4.05455E-01-1.78370E-03-2.76252E-01 1.17465E-13-1.79670E-13
 -1      3765 1.96620E+01 5.14143E-01 2.14261E-03-2.93935E-01 3.56471E-14-4.33257E-13
 -1      3766 1.98267E+01 3.64187E-01 2.37825E-04-2.44934E-01-1.60610E-14-2.26004E-13
 -1      3767 1.98498E+01 3.24716E-01-1.43409E-03-2.11537E-01 3.26811E-14-2.52392E-13
 -1      3768 1.97605E+01 4.17828E-01 1.64933E-03-2.29356E-01 5.26171E-14-3.38253E-13
 -1      3769 1.98833E+01 2.89323E-01 2.63798E-04-1.85951E-01 2.10073E-13-1.58326E-13
 -1      3770 1.98997E+01 2.55882E-01-1.13414E-03-1.58932E-01 2.53156E-13-4.60908E-14
 -1      3771 1.98343E+01 3.33863E-01 1.22148E-03-1.75759E-01 1.48636E-13-1.42287E-13
 -1      3772 1.99243E+01 2.26031E-01 2.12919E-04-1.38495E-01 2.06004E-13 7.06383E-15
 -1      3773 1.99364E+01 1.98936E-01-4.74761E-04-1.16992E-01 1.89108E-13 1.74004E-13
 -1      3774 1.98886E+01 2.62448E-01 8.58305E-04-1.32177E-01 3.47928E-13 5.16787E-14
 -1      3775 2.05821E+01-1.62338E+00 1.49398E-02-2.29469E+00-1.78984E-13 2.36903E-14
 -1      3776 2.01500E+01-1.17745E+00 1.58264E-02-2.26459E+00-1.77935E-13 4.41760E-14
 -1      3777 1.99247E+01-7.86719E-01 1.35099E-02-2.07366E+00-1.73641E-13-3.56219E-14
 -1      3778 1.96834E+01-4.70169E-01 7.55832E-03-1.97147E+00-1.65912E-13-1.78416E-15
 -1      3779 1.93735E+01-9.04524E-01-2.23315E-02-2.39627E+00-2.22455E-13-6.35516E-14
 -1      3780 1.99635E+01-8.03809E-01 9.63534E-03 2.05883E+00 8.44305E-14-1.12332E-13
 -1      3781 2.03175E+01-1.20336E+00 1.06573E-02 2.11616E+00 6.90750E-14-4.57382E-14
 -1      3782 2.01136E+01 1.83457E+00-3.51328E-03-9.51233E-02 2.79929E-14-2.49043E-13
 -1      3783 2.01846E+01 1.60819E+00 6.88700E-03-8.51308E-02 1.80121E-14-2.20346E-13
 -1      3784 2.01059E+01 1.85544E+00-3.08964E-03-2.44653E-02 6.94773E-14-2.51455E-13
 -1      3785 2.02155E+01 7.23014E-01 1.23354E-04 1.78267E-01-6.97058E-14-1.05753E-13
 -1      3786 2.01769E+01 6.52025E-01-1.32244E-03 2.58249E-01-7.20991E-14-1.13821E-13
 -1      3787 2.07430E+01-1.77856E+00 2.23574E-02 2.34570E+00-2.56132E-14-1.03457E-13
 -1      3788 2.12836E+01-2.31459E+00-1.88451E-04 2.32705E+00-1.73962E-13-6.71620E-15
 -1      3789 1.94679E+01 1.83625E-01-5.48984E-04 1.48579E+00-1.36314E-13-2.37865E-14
 -1      3790 1.95674E+01 1.77190E-02 8.47839E-03 1.59577E+00-1.26987E-13-1.25494E-13
 -1      3791 1.94532E+01 4.07116E-01-1.72961E-03 1.23533E+00-1.42183E-13 9.70128E-14
 -1      3792 1.94924E+01 3.15323E-01 5.81879E-03 1.34104E+00-1.26310E-13 4.44942E-14
 -1      3793 1.91291E+01 3.47889E-01-3.19465E-03 1.43111E+00-1.41456E-13 2.46863E-13
 -1      3794 1.95009E+01 5.13311E-01-2.28719E-03 1.01769E+00 3.97936E-14 1.37836E-13
 -1      3795 1.95065E+01 4.73988E-01 3.93969E-03 1.11401E+00-7.55947E-14 1.03425E-13
 -1      3796 1.92096E+01 5.31181E-01-6.87088E-04 1.15993E+00-9.16698E-14 2.58835E-13
 -1      3797 1.95753E+01 5.41597E-01-2.43040E-03 8.30578E-01 3.37979E-14 9.66832E-14
 -1      3798 1.95644E+01 5.36713E-01 2.71195E-03 9.16323E-01 9.39400E-14 6.56808E-14
 -1      3799 1.93241E+01 6.06447E-01 6.37256E-04 9.37456E-01 8.61487E-14 1.38803E-13
 -1      3800 1.96559E+01 5.21446E-01-2.35583E-03 6.70719E-01-5.29054E-14 1.37761E-13
 -1      3801 1.96384E+01 5.37459E-01 1.90202E-03 7.45901E-01-1.44959E-14 1.39214E-13
 -1      3802 1.94460E+01 6.11225E-01 1.14781E-03 7.54147E-01 2.59182E-14-2.28349E-14
 -1      3803 1.97321E+01 4.73782E-01-2.13768E-03 5.35129E-01-1.69057E-13 3.23056E-13
 -1      3804 1.97135E+01 5.01161E-01 1.40966E-03 6.00042E-01-1.29434E-13 3.00362E-13
 -1      3805 1.95612E+01 5.73690E-01 1.36071E-03 6.02272E-01-1.38796E-13 2.70712E-13
 -1      3806 1.97985E+01 4.13093E-01-1.87104E-03 4.21216E-01-7.71149E-15 3.51938E-13
 -1      3807 1.97816E+01 4.45367E-01 1.10016E-03 4.76423E-01-8.06414E-14 3.93979E-13
 -1      3808 1.96627E+01 5.12985E-01 1.35212E-03 4.76428E-01-1.69931E-13 4.64021E-13
 -1      3809 1.98535E+01 3.48827E-01-1.60079E-03 3.26682E-01 6.08452E-14 2.36003E-13
 -1      3810 1.98395E+01 3.81800E-01 8.92919E-04 3.72851E-01 6.95856E-14 2.95257E-13
 -1      3811 1.97479E+01 4.42480E-01 1.23151E-03 3.72462E-01 7.59343E-14 4.35053E-13
 -1      3812 1.98972E+01 2.87008E-01-1.34953E-03 2.49347E-01 8.40134E-14-1.15885E-14
 -1      3813 1.98864E+01 3.18058E-01 7.37760E-04 2.87320E-01 1.20542E-13 5.75210E-14
 -1      3814 1.98170E+01 3.70724E-01 1.02705E-03 2.87324E-01 2.35483E-13 2.91483E-13
 -1      3815 1.99307E+01 2.31027E-01-1.10531E-03 1.86767E-01-1.79998E-13-6.83420E-14
 -1      3816 1.99229E+01 2.58991E-01 6.77298E-04 2.17699E-01-9.05075E-14-1.13997E-13
 -1      3817 1.98712E+01 3.03206E-01 7.86272E-04 2.18427E-01 1.52637E-14-1.41246E-15
 -1      3818 1.99559E+01 1.82792E-01-6.57196E-04 1.37435E-01-8.58379E-14 3.55598E-14
 -1      3819 1.99504E+01 2.06299E-01 6.02794E-04 1.61835E-01-1.10875E-13 6.11623E-14
 -1      3820 1.99120E+01 2.42309E-01 2.72509E-04 1.63268E-01-1.95263E-13-6.02447E-14
 -1      3821 2.02119E+01 1.53231E+00-4.39668E-03 3.11164E-01 1.67306E-13-2.07481E-13
 -1      3822 2.01818E+01 1.64363E+00-1.99950E-03 2.54736E-01 1.46088E-13-2.17703E-13
 -1      3823 2.02207E+01 1.47578E+00 4.46616E-03 1.57308E-01 1.26577E-13-2.19782E-13
 -1      3824 2.02661E+01 1.27502E+00 3.51604E-03 2.13581E-01 1.57236E-13-1.53202E-13
 -1      3825 2.01335E+01 3.55476E-01 6.22377E-04-5.33246E-01 2.14357E-14-9.55265E-14
 -1      3826 2.01499E+01 3.76099E-01 5.39920E-04-4.62307E-01 5.40156E-14-8.03712E-14
 -1      3827 2.00927E+01 4.09266E-01-1.56800E-04-5.43375E-01 5.31372E-14-1.26643E-13
 -1      3828 2.02612E+01 7.80690E-01-1.88679E-03-8.83216E-02 1.31733E-13-1.19379E-13
 -1      3829 2.02786E+01 9.13305E-01 4.50186E-04 2.02528E-02 1.25469E-13-1.45351E-13
 -1      3830 1.99975E+01 1.07264E-01 1.64402E-04 8.69299E-02-3.40544E-15-2.45374E-13
 -1      3831 1.99473E+01 1.55321E-01 2.19610E-05 5.20088E-02 6.53154E-14-4.08166E-13
 -1      3832 1.99438E+01 1.68795E-01 5.57538E-04 6.75362E-02 1.76615E-13-5.36228E-13
 -1      3833 1.99390E+01 1.61882E-01-5.20340E-04 3.99818E-02-3.34767E-14-2.51664E-13
 -1      3834 2.02883E+01 1.05511E+00 1.51125E-03 3.36222E-01 2.06201E-13-6.69214E-14
 -1      3835 2.02911E+01 9.47912E-01 2.31657E-03 1.95342E-01 1.78567E-13-8.68868E-14
 -1      3836 2.42892E+01-3.29779E+00-2.27947E-02 8.99922E-01-9.31338E-14-4.61332E-14
 -1      3837 1.36364E+01 5.74064E-01-5.81958E-02 1.74557E+00 1.53991E-14 9.46014E-14
 -1      3838 1.31130E+01 1.00976E+00 3.95631E-02 4.42349E-01 1.22323E-13 9.86052E-14
 -1      3839 1.47349E+01 4.50412E-01-5.93313E-03 2.04871E+00 8.08034E-14-1.96123E-13
 -1      3840 1.37267E+01 9.18991E-01 8.44415E-02 1.20472E+00 2.95085E-14-1.90875E-13
 -1      3841 2.02691E+01 9.43718E-01 3.01402E-03 1.08589E-02-4.27229E-14-1.12045E-13
 -1      3842 2.02409E+01 8.17078E-01-2.70544E-03 1.08974E-01-5.46280E-14-1.21686E-13
 -1      3843 2.02208E+01 8.50039E-01 2.01997E-03 1.19089E-01-5.06556E-14-1.00529E-13
 -1      3844 2.02506E+01 1.17463E+00-4.18552E-03-1.15095E-01-4.89161E-14-1.59228E-13
 -1      3845 1.31149E+01 9.13617E-01 8.15751E-03-6.60926E-01 2.08686E-13-3.72202E-14
 -1      3846 1.39013E+01 5.87234E-01 1.93361E-02-1.90659E+00 3.80303E-13 1.00489E-13
 -1      3847 1.96051E+01-2.04144E-01 2.20535E-03 1.76694E+00-4.30874E-14-1.22276E-13
 -1      3848 1.98056E+01-4.70231E-01 1.16756E-02 1.86719E+00 7.01171E-14-7.43762E-14
 -1      3849 1.91321E+01 1.21105E-02-5.13596E-03 1.76041E+00-7.49408E-14 4.69834E-14
 -1      3850 1.99636E+01 1.57633E-01-2.80563E-04 1.04740E-01 1.44694E-14 1.85594E-14
 -1      3851 1.99641E+01 1.70380E-01 6.15549E-04 1.21502E-01-7.89886E-14 6.50069E-14
 -1      3852 1.99354E+01 1.98618E-01-2.90819E-04 1.22689E-01-1.96320E-13-9.58581E-15
 -1      3853 1.99486E+01 1.69200E-01-4.13915E-04 9.31790E-02 1.98421E-13-1.97869E-13
 -1      3854 2.02841E+01 1.02463E+00 7.58333E-04 1.51497E-01 1.46047E-13-1.03197E-13
 -1      3855 2.10540E+01-2.21652E+00 3.36015E-02-2.53531E+00-2.93331E-13 8.52653E-14
 -1      3856 2.01257E+01 6.03447E-01-5.19107E-04 3.17060E-01-4.53498E-14-9.73745E-14
 -1      3857 2.00745E+01 5.74221E-01-7.15111E-04 3.85418E-01-3.58995E-14-8.79899E-14
 -1      3858 2.01408E+01 6.93467E-01 2.06311E-03 2.45505E-01-4.11331E-14-9.63640E-14
 -1      3859 1.59275E+01 3.34005E-01 1.68041E-02 2.36953E+00 9.72816E-14-2.43540E-13
 -1      3860 1.53174E+01 3.97974E-01 2.45791E-02-2.32450E+00 3.42732E-13 2.00049E-13
 -1      3861 2.29850E+01-3.28524E+00 3.42290E-03 1.90953E+00-1.95375E-13-4.28537E-14
 -1      3862 2.02751E+01 1.01700E+00-1.42717E-04 7.42771E-02 1.42131E-13-1.50043E-13
 -1      3863 2.02713E+01 1.13979E+00-1.52611E-03 1.55070E-01 1.57418E-13-1.54111E-13
 -1      3864 2.02505E+01 1.25720E+00-5.17134E-05 1.37660E-01 1.45694E-13-1.66401E-13
 -1      3865 2.02652E+01 1.03404E+00 1.20859E-03 2.80768E-02 1.39107E-13-1.65261E-13
 -1      3866 2.22492E+01-2.86286E+00 3.33557E-02 2.18471E+00-2.48261E-13-7.08236E-14
 -1      3867 2.01716E+01 1.64306E+00 5.95735E-03-5.80154E-04 6.16197E-14-2.26579E-13
 -1      3868 1.98134E+01-1.49234E+00-4.51920E-03 2.65077E+00-3.15570E-14 2.68036E-14
 -1      3869 1.53675E+01 7.68848E-01-9.01979E-03-1.67433E+00 1.55289E-13 5.71737E-14
 -1      3870 1.93003E+01-5.38329E-01-7.38783E-03 2.14851E+00 4.16348E-14 1.47314E-13
 -1      3871 1.94669E+01 2.62192E-01-1.45393E-03-1.43134E+00-7.76892E-15-1.14701E-14
 -1      3872 1.92167E+01 3.94977E-01-1.77187E-03-1.35099E+00-4.74843E-15-1.73171E-14
 -1      3873 1.95160E+01 1.46400E-01 7.44083E-03-1.53563E+00-5.06673E-14-2.58449E-14
 -1      3874 1.99366E+01 1.90885E-01 3.49092E-04-9.59046E-02 1.53549E-14 2.56686E-14
 -1      3875 1.99417E+01 4.52886E-01 1.01351E-03-6.60170E-01 2.78138E-14-1.22515E-13
 -1      3876 1.99812E+01 4.50725E-01-1.07160E-03-5.94708E-01 4.26996E-14-1.53898E-13
 -1      3877 2.01656E+01 4.59408E-01-1.62137E-04-4.03037E-01 9.54980E-14-1.12364E-13
 -1      3878 1.98579E+01 4.02280E-01-4.82337E-04-9.53792E-01 2.51769E-14 2.57858E-14
 -1      3879 1.99922E+01-1.93402E+00 2.53417E-03-2.94109E+00-2.91721E-13 4.61089E-15
 -1      3880 1.52382E+01 5.21115E-01 5.14449E-02 1.92290E+00-3.98431E-14-6.68927E-14
 -1      3881 1.96078E+01 4.44365E-01 3.49643E-03-1.10908E+00 1.43023E-14-9.47519E-14
 -1      3882 1.96283E+01 4.62753E-01-2.30619E-03-1.02530E+00 2.27408E-14-7.45781E-14
 -1      3883 1.93596E+01 5.04752E-01-1.12862E-04-1.12061E+00-8.08334E-16-1.00297E-13
 -1      3884 2.00163E+01 6.25173E-01 1.99274E-03 3.55048E-01-1.89798E-14-9.31735E-14
 -1      3885 2.01894E+01 1.42823E+00-2.58068E-03-3.42492E-02 2.56977E-14-2.16258E-13
 -1      3886 2.02010E+01 1.38441E+00-4.11566E-03-7.15789E-02 8.13260E-15-2.15098E-13
 -1      3887 2.02415E+01 1.18032E+00-1.36849E-03-7.21989E-02-2.58645E-14-1.43744E-13
 -1      3888 1.40947E+01 1.03532E+00 3.78611E-02-1.30440E-01 1.10184E-13-5.51191E-14
 -1      3889 2.02130E+01 5.96593E-01-1.18170E-03-2.59958E-01 1.18765E-13-1.12235E-13
 -1      3890 2.02433E+01 6.76747E-01 6.99937E-04-1.71377E-01 1.29477E-13-8.94096E-14
 -1      3891 2.02483E+01 8.14796E-01 1.37001E-03-1.11298E-01 1.12628E-13-1.44785E-13
 -1      3892 1.56700E+01 7.19231E-01-2.01282E-02 1.66789E+00 2.03474E-14-1.31533E-13
 -1      3893 1.99446E+01 1.68977E-01 3.54713E-04-6.68959E-02-7.31010E-15 2.09214E-13
 -1      3894 2.02021E+01 1.38517E+00-2.58643E-03 6.38429E-02 8.05985E-14-2.05320E-13
 -1      3895 2.01903E+01 1.42559E+00-2.36653E-03 3.21655E-02 7.19405E-14-1.97675E-13
 -1      3896 1.98974E+01 2.16793E-01-3.28102E-04-8.18362E-03 2.63193E-13 2.19891E-13
 -1      3897 1.98977E+01 2.16435E-01-2.59553E-04 1.11295E-02 1.49864E-13-2.30994E-14
 -1      3898 1.99246E+01 1.86637E-01 5.58995E-04 3.68240E-02-3.92780E-14-3.23701E-13
 -1      3899 1.98286E+01 4.65813E-01 1.65410E-03-7.92701E-01 1.63832E-14-8.03514E-14
 -1      3900 1.98667E+01 4.57778E-01-1.64007E-03-7.24345E-01 1.78434E-14-1.23019E-13
 -1      3901 1.98369E+01 5.14456E-01 9.30057E-04-6.42533E-01 1.64000E-14-1.23955E-13
 -1      3902 1.40596E+01 9.18265E-01 1.79203E-02 3.92991E-01-3.83200E-15-2.36188E-13
 -1      3903 2.01824E+01 1.44512E+00-2.95677E-03 1.49450E-02 5.07186E-14-2.14327E-13
 -1      3904 2.01808E+01 1.44635E+00-3.26498E-03-1.90458E-02 3.76305E-14-2.11901E-13
 -1      3905 2.02159E+01 1.27525E+00 4.45131E-03-1.21237E-02 2.75720E-14-1.72287E-13
 -1      3906 2.02201E+01 1.27487E+00 5.97900E-03 4.51611E-03 4.61515E-14-1.77494E-13
 -1      3907 1.96158E+01-2.18571E-01 8.68470E-03-1.79893E+00-1.30813E-13-2.04913E-14
 -1      3908 1.94929E+01-1.30306E-02 8.41311E-04-1.68832E+00-8.81627E-14-4.97884E-14
 -1      3909 1.91249E+01 1.63160E-01-4.95571E-03-1.63672E+00-4.51515E-14-8.28744E-14
 -1      3910 1.42813E+01 7.34311E-01-3.03856E-02-1.27396E+00-6.13736E-14-2.24919E-13
 -1      3911 1.43325E+01 4.77961E-01 5.61591E-02-2.10731E+00-1.57954E-13-2.80283E-13
 -1      3912 1.54751E+01 1.84771E-01 1.76128E-03-2.36971E+00-1.99205E-13-1.40703E-13
 -1      3913 1.99084E+01 2.08308E-01-2.31479E-04-4.92138E-02 2.49384E-13 6.70847E-14
 -1      3914 1.99009E+01 2.13444E-01-6.27476E-04-3.15260E-02 2.51021E-13 1.16490E-13
 -1      3915 1.98826E+01 2.41919E-01 7.48620E-04-2.24000E-02 3.10001E-13 6.80996E-14
 -1      3916 1.69707E+01-6.44125E-01-1.21471E-02-3.04368E+00-2.63144E-13-1.37114E-13
 -1      3917 1.77179E+01-1.09415E+00 6.00256E-02-3.40862E+00-3.51620E-13-1.88963E-13
 -1      3918 1.91535E+01-1.36934E+00 6.42059E-03 2.85868E+00-1.09909E-13 7.28849E-15
 -1      3919 1.79688E+01-1.04096E+00 3.96099E-02 3.22743E+00-1.82088E-13-1.46105E-14
 -1      3920 1.72184E+01-3.83913E-01-2.34241E-02 2.74170E+00-1.35626E-13-8.17280E-14
 -1      3921 1.87601E+01-7.66606E-01-1.76411E-02 2.54015E+00-5.83308E-14 1.54537E-13
 -1      3922 1.99325E+01 1.84014E-01-1.66248E-04 7.81472E-02 2.21170E-13-6.46934E-13
 -1      3923 1.99267E+01 1.99827E-01 5.96328E-04 9.10889E-02 6.57698E-14-5.41929E-13
 -1      3924 1.99197E+01 1.94653E-01-4.95258E-04 6.43632E-02 6.22902E-14-7.90738E-13
 -1      3925 1.91792E+01-1.77891E+00-3.47845E-03-3.16735E+00-3.43096E-13-8.52686E-14
 -1      3926 2.02242E+01 1.22991E+00-1.96940E-03-4.71739E-02-6.60612E-15-1.66030E-13
 -1      3927 2.02331E+01 1.10512E+00 1.54481E-03 9.96974E-03-1.45105E-14-1.68530E-13
 -1      3928 1.91445E+01-2.62508E-01-1.39897E-02-1.99295E+00-1.48051E-13-7.29569E-14
 -1      3929 1.96448E+01 6.82166E-01-2.26023E-03 4.20876E-01 1.96544E-14-7.84614E-14
 -1      3930 1.95306E+01 7.16066E-01-1.09511E-03 4.65681E-01 2.64887E-14-8.73411E-14
 -1      3931 1.93803E+01 7.55713E-01-3.07547E-03 4.97674E-01 1.99204E-14-8.81922E-14
 -1      3932 1.92420E+01 8.00815E-01-1.30877E-03 5.45007E-01 4.47395E-14-6.76116E-14
 -1      3933 1.94071E+01 7.77752E-01 4.04199E-03 3.61535E-01 1.97003E-14-1.83642E-15
 -1      3934 1.90574E+01 8.46714E-01-4.29931E-03 5.79523E-01 4.77488E-14-7.17295E-14
 -1      3935 1.88900E+01 8.94265E-01-1.58389E-03 6.32904E-01-1.76364E-14-1.60928E-14
 -1      3936 1.90809E+01 8.70239E-01 5.35971E-03 4.16390E-01 3.17243E-14-4.41508E-14
 -1      3937 1.86616E+01 9.36521E-01-6.08642E-03 6.73873E-01-1.45302E-14 1.05295E-14
 -1      3938 1.84595E+01 9.75757E-01-1.77050E-03 7.39151E-01 1.13322E-14 2.26595E-14
 -1      3939 1.86802E+01 9.70660E-01 7.00116E-03 4.74304E-01 1.65014E-14-4.60831E-14
 -1      3940 1.81730E+01 1.00180E+00-8.80389E-03 7.92369E-01-1.11741E-14-2.53256E-14
 -1      3941 1.79287E+01 1.01982E+00-1.77215E-03 8.79458E-01 1.32739E-15-6.51682E-14
 -1      3942 1.81846E+01 1.06051E+00 9.77511E-03 5.44972E-01-1.64978E-14 1.03900E-14
 -1      3943 1.75607E+01 1.01498E+00-1.30748E-02 9.55255E-01 4.15734E-14-1.30193E-13
 -1      3944 1.72667E+01 9.98001E-01-1.96461E-04 1.08207E+00 3.75751E-14-1.25759E-13
 -1      3945 1.75598E+01 1.11755E+00 1.37539E-02 6.41403E-01-1.63916E-14-1.54583E-13
 -1      3946 1.67746E+01 9.39655E-01-2.04177E-02 1.20414E+00 2.24183E-14-1.56736E-13
 -1      3947 1.64350E+01 8.69785E-01 5.81666E-03 1.40288E+00-4.43059E-16-1.34515E-13
 -1      3948 1.67477E+01 1.12292E+00 2.03968E-02 7.86809E-01 1.42644E-14-1.84890E-13
 -1      3949 1.48816E+01 9.83290E-01-1.59579E-02 6.01069E-01 2.12408E-14-1.34486E-13
 -1      3950 1.44777E+01 1.10403E+00 5.54855E-02-3.59762E-01-5.31450E-14-2.40867E-13
 -1      3951 2.01389E+01 4.96951E-01-3.03782E-04-4.04384E-01 7.31906E-14-1.12764E-13
 -1      3952 2.01748E+01 5.38349E-01 1.63613E-04-3.29751E-01 1.18839E-13-1.10891E-13
 -1      3953 2.01868E+01 6.38781E-01 1.00909E-03-2.63625E-01 1.13167E-13-9.95576E-14
 -1      3954 1.61985E+01 8.93378E-01-4.20125E-03-1.42850E+00 4.74964E-14 1.18905E-13
 -1      3955 1.65469E+01 9.95540E-01-2.60695E-02-1.21043E+00-4.00435E-14 1.73328E-13
 -1      3956 1.51722E+01 1.08758E+00 3.42372E-02-1.07764E+00 1.23140E-13-1.15884E-13
 -1      3957 1.70566E+01 1.07417E+00-1.57723E-03-1.07270E+00 1.30334E-14 2.90877E-13
 -1      3958 1.73550E+01 1.10286E+00-1.36894E-02-9.31608E-01 4.32212E-14 3.58336E-13
 -1      3959 1.65158E+01 1.21241E+00 2.63235E-02-7.75492E-01 1.36518E-13 1.51602E-13
 -1      3960 1.77216E+01 1.11761E+00-2.51117E-03-8.49527E-01-1.37848E-13 3.19041E-13
 -1      3961 1.79612E+01 1.10901E+00-9.28369E-03-7.52608E-01-9.79022E-14 1.86313E-13
 -1      3962 1.73371E+01 1.21777E+00 1.55693E-02-6.17549E-01-8.37535E-14 2.05164E-13
 -1      3963 1.82410E+01 1.08991E+00-1.84186E-03-6.91778E-01-3.89428E-14 9.44994E-14
 -1      3964 1.84331E+01 1.05403E+00-6.44079E-03-6.18979E-01-7.73423E-14-4.19896E-14
 -1      3965 1.79499E+01 1.17855E+00 1.08893E-02-5.07884E-01-1.35328E-13 1.91670E-13
 -1      3966 1.86495E+01 1.01244E+00-1.71746E-03-5.72209E-01-1.22550E-13-8.34543E-14
 -1      3967 1.88033E+01 9.61545E-01-4.67604E-03-5.13362E-01-1.06973E-13-5.01414E-14
 -1      3968 1.84263E+01 1.09474E+00 8.23763E-03-4.26566E-01-1.09958E-13-2.62618E-14
 -1      3969 1.89721E+01 9.08083E-01-1.48250E-03-4.74097E-01-1.57768E-13-1.15819E-13
 -1      3970 1.90940E+01 8.49754E-01-3.62791E-03-4.24108E-01-1.42437E-13-1.32309E-13
 -1      3971 1.87975E+01 9.85050E-01 6.00431E-03-3.61159E-01-9.97806E-14-1.70989E-14
 -1      3972 1.92268E+01 7.91320E-01-1.14886E-03-3.90239E-01-6.42917E-14-1.57054E-13
 -1      3973 1.93224E+01 7.31378E-01-2.87236E-03-3.47097E-01-4.90324E-14-2.69374E-13
 -1      3974 1.90897E+01 8.63307E-01 4.63350E-03-3.02625E-01-1.01494E-13-4.64547E-14
 -1      3975 1.94262E+01 6.73151E-01-8.62741E-04-3.17497E-01 6.74585E-15-3.26762E-13
 -1      3976 1.95002E+01 6.15335E-01-2.30481E-03-2.80237E-01 3.57621E-14-3.22314E-13
 -1      3977 1.93189E+01 7.38865E-01 3.58734E-03-2.50854E-01-6.02089E-14-1.44034E-14
 -1      3978 1.95807E+01 5.60705E-01-5.80414E-04-2.54725E-01-1.15945E-14-2.94836E-13
 -1      3979 1.96371E+01 5.07630E-01-1.84812E-03-2.22749E-01 1.03914E-14-2.99031E-13
 -1      3980 1.94975E+01 6.19416E-01 2.86454E-03-2.04407E-01 2.15847E-14 2.47740E-15
 -1      3981 1.96991E+01 4.58332E-01-3.69917E-04-2.00910E-01 5.26921E-14-2.75443E-13
 -1      3982 1.97414E+01 4.11323E-01-1.52214E-03-1.73948E-01 7.69040E-14-2.29017E-13
 -1      3983 1.96350E+01 5.09716E-01 2.25687E-03-1.63618E-01-3.94491E-15 6.40847E-14
 -1      3984 1.97887E+01 3.68639E-01-1.39260E-04-1.55674E-01 1.60712E-13-1.69995E-13
 -1      3985 1.98199E+01 3.27979E-01-1.21420E-03-1.33089E-01 3.13883E-13-9.00012E-14
 -1      3986 1.97400E+01 4.11850E-01 1.61442E-03-1.28618E-01 2.22820E-13-5.64259E-14
 -1      3987 1.98556E+01 2.91503E-01 1.70055E-05-1.18063E-01 3.57266E-13-1.28079E-14
 -1      3988 1.98778E+01 2.57527E-01-9.13306E-04-9.98257E-02 3.03123E-13-2.17935E-14
 -1      3989 1.98186E+01 3.27345E-01 9.88403E-04-9.91198E-02 4.07778E-13-5.83535E-14
 -1      3990 1.97135E+01 4.72098E-01 2.42106E-03-9.40019E-01 1.87925E-14-7.01948E-14
 -1      3991 1.97464E+01 4.70159E-01-2.07661E-03-8.65149E-01 3.29971E-14-6.99384E-14
 -1      3992 1.96840E+01 5.31587E-01 9.08629E-04-7.77406E-01 1.67203E-15-1.37658E-13
 -1      3993 1.95216E+01 5.38180E-01 6.50220E-04-9.33411E-01 4.67062E-14-1.58603E-13
 -1      3994 2.02066E+01 1.10535E+00 1.09990E-03 1.39823E-02-2.91527E-15-1.75664E-13
 -1      3995 2.02195E+01 9.60856E-01-6.49808E-04 4.81241E-02-2.04376E-14-1.50108E-13
 -1      3996 2.01897E+01 8.54777E-01-1.16094E-03 1.16313E-01-1.37570E-14-1.43970E-13
 -1      3997 1.99132E+01 2.17034E-01-1.68454E-04 1.04663E-01-1.20584E-13-3.32637E-13
 -1      3998 1.99069E+01 2.34126E-01 6.86058E-04 1.20774E-01-2.74520E-13-3.49856E-13
 -1      3999 1.98968E+01 2.32215E-01 2.90157E-04 8.76073E-02 6.14430E-14-7.93839E-13
 -1      4000 1.87939E+01 5.49449E-01-5.47557E-03 1.29203E+00-2.02471E-13 2.56272E-13
 -1      4001 1.87779E+01 4.48437E-01 6.85053E-03 1.44179E+00-1.74217E-13 2.15253E-13
 -1      4002 1.93222E+01 6.70207E-01-3.49015E-03 6.44306E-01-6.48534E-14 2.99443E-13
 -1      4003 1.92660E+01 6.90379E-01 1.65850E-03 7.24072E-01 1.42879E-13 2.71695E-13
 -1      4004 1.94708E+01 6.11373E-01-2.90816E-03 5.08226E-01-2.81376E-13 4.09214E-13
 -1      4005 1.94190E+01 6.45069E-01 1.04211E-03 5.73970E-01-1.71689E-13 2.15326E-13
 -1      4006 1.92538E+01 7.23222E-01 2.52866E-03 5.43257E-01-5.66110E-14 6.35652E-13
 -1      4007 1.95964E+01 5.36724E-01-2.35737E-03 3.97938E-01-7.36220E-14 3.51113E-13
 -1      4008 1.95516E+01 5.76325E-01 6.73968E-04 4.52289E-01-2.03573E-13 3.66877E-13
 -1      4009 1.94239E+01 6.48087E-01 2.43411E-03 4.24224E-01-1.77168E-13 4.95558E-13
 -1      4010 1.96993E+01 4.56845E-01-1.93648E-03 3.08369E-01 1.47803E-13 2.49219E-13
 -1      4011 1.96624E+01 4.97756E-01 5.03765E-04 3.53058E-01 9.94733E-14 3.18827E-13
 -1      4012 1.95641E+01 5.61679E-01 2.10692E-03 3.29143E-01 4.51827E-15 1.16301E-13
 -1      4013 1.97814E+01 3.78948E-01-1.64872E-03 2.35921E-01 2.56998E-13 1.26401E-13
 -1      4014 1.97520E+01 4.18075E-01 3.64113E-04 2.72388E-01 2.80985E-13 1.94590E-13
 -1      4015 1.96769E+01 4.73613E-01 1.63704E-03 2.53039E-01 2.43730E-13 2.31950E-13
 -1      4016 1.98455E+01 3.07929E-01-1.25109E-03 1.78134E-01 9.26569E-14-9.90303E-14
 -1      4017 1.98230E+01 3.43132E-01 3.66375E-04 2.07439E-01 1.95161E-13 4.26041E-14
 -1      4018 1.97661E+01 3.90118E-01 1.23497E-03 1.92468E-01 2.64389E-13-2.26283E-14
 -1      4019 1.98871E+01 2.54671E-01-7.72095E-04 1.36347E-01-2.40484E-13-1.49170E-13
 -1      4020 1.98698E+01 2.85358E-01 4.94002E-04 1.59585E-01-7.67125E-14-2.11594E-13
 -1      4021 1.98265E+01 3.24811E-01 9.78473E-04 1.47990E-01 1.29631E-13-1.99719E-13
 -1      4022 1.98648E+01 2.75951E-01 4.99662E-04 1.15323E-01-5.41067E-14-5.57483E-13
 -1      4023 2.02347E+01 1.29193E+00-2.22163E-03 1.13104E-01 1.27560E-13-1.93242E-13
 -1      4024 2.02150E+01 1.36955E+00-1.79637E-03 8.48688E-02 1.07534E-13-2.25317E-13
 -1      4025 2.02340E+01 1.23358E+00 4.19247E-03 2.79694E-02 8.51203E-14-1.80519E-13
 -1      4026 2.02513E+01 1.17766E+00 1.72814E-03 6.29362E-02 1.34333E-13-1.79224E-13
 -1      4027 1.86501E+01-1.46543E-01 2.65304E-03-2.06669E+00-1.86961E-13-4.18233E-14
 -1      4028 1.86075E+01 1.07771E-01 2.38847E-03-1.86037E+00-9.74336E-14-6.35248E-14
 -1      4029 1.55643E+01 9.99455E-01 2.98016E-02 1.09792E+00 2.87511E-14-8.20136E-14
 -1      4030 2.00467E+01 4.56319E-01 4.01138E-04-5.33935E-01 6.82706E-14-1.43291E-13
 -1      4031 2.00854E+01 4.70492E-01-4.69118E-04-4.66714E-01 6.86881E-14-1.19280E-13
 -1      4032 2.00929E+01 5.45817E-01 8.91261E-04-3.95832E-01 8.73035E-14-1.23250E-13
 -1      4033 1.99746E+01 5.11860E-01 9.02936E-04-5.18679E-01 7.04119E-14-1.36985E-13
 -1      4034 1.99025E+01 2.10694E-01-4.58343E-04 2.97260E-02 1.60106E-14-1.42148E-13
 -1      4035 1.99093E+01 2.05268E-01-2.04546E-04 4.76076E-02 2.19539E-15-3.52140E-13
 -1      4036 1.98972E+01 2.23636E-01-2.29823E-05 5.77218E-02 1.35104E-13-5.44347E-13
 -1      4037 1.98845E+01 2.39088E-01 8.80939E-04 2.17887E-02 2.04718E-13 1.34353E-13
 -1      4038 2.00270E+01 6.62744E-01-1.73522E-03 2.62238E-01-1.10181E-14-1.56148E-13
 -1      4039 1.99548E+01 6.46743E-01-1.13266E-03 3.12160E-01-2.17773E-14-1.60785E-13
 -1      4040 1.86542E+01-9.46964E-02-1.24555E-02 2.00956E+00-2.03491E-14 4.19138E-13
 -1      4041 1.88146E+01-3.79462E-01 1.36500E-02 2.22379E+00-4.21939E-15 2.79580E-13
 -1      4042 1.81559E+01-2.45311E-01 9.66921E-03 2.37444E+00-7.94438E-14 2.40394E-13
 -1      4043 1.86810E+01 3.12384E-01-7.63014E-03 1.61052E+00-4.56251E-14 2.58481E-13
 -1      4044 1.87239E+01 1.32993E-01 9.60931E-03 1.79465E+00-5.86206E-15 3.30066E-13
 -1      4045 1.82191E+01 2.56074E-01 3.54823E-03 1.84398E+00-3.27961E-14 3.72272E-13
 -1      4046 1.83573E+01 5.39178E-01 8.87482E-04 1.45986E+00-1.24723E-13 2.48274E-13
 -1      4047 1.99181E+01 2.04883E-01-4.70675E-04-8.05892E-02 1.42754E-13 1.15281E-13
 -1      4048 1.64981E+01-7.40341E-02 4.30424E-02-2.65421E+00-1.79719E-13-1.07449E-13
 -1      4049 1.75208E+01-4.21771E-01 3.22048E-03-2.66917E+00-1.84739E-13-1.51866E-13
 -1      4050 1.59914E+01 3.04423E-01-3.08724E-02-2.08685E+00-9.76901E-14-1.48871E-13
 -1      4051 1.88515E+01-1.10545E+00-2.67287E-03-2.81352E+00-2.32994E-13-1.18307E-13
 -1      4052 1.48447E+01 1.11891E+00-2.41242E-02-9.70400E-02 6.26187E-14-1.88877E-14
 -1      4053 1.89724E+01 6.67217E-01-4.60555E-03 1.02388E+00-5.32401E-14 1.61653E-13
 -1      4054 1.89291E+01 6.24952E-01 4.76085E-03 1.14339E+00-9.00773E-14 1.50712E-13
 -1      4055 1.85746E+01 7.08351E-01 1.86484E-03 1.14524E+00-8.82014E-14 2.23195E-13
 -1      4056 1.60430E+01 3.55926E-01-3.01434E-02 2.10064E+00-1.79069E-13-1.98881E-13
 -1      4057 1.50262E+01 9.82332E-01 3.14624E-02 1.22188E+00 1.20628E-15-7.47128E-14
 -1      4058 1.91541E+01 6.96231E-01-3.98025E-03 8.12723E-01 1.08918E-13 1.27211E-13
 -1      4059 1.90986E+01 6.92834E-01 2.88170E-03 9.09678E-01-1.27734E-14 6.30545E-14
 -1      4060 1.90539E+01 7.72353E-01 2.52061E-03 6.95098E-01-6.08471E-14 3.90407E-13
 -1      4061 2.01461E+01 7.61414E-01-2.19707E-03 1.55903E-01-2.93626E-14-1.67059E-13
 -1      4062 2.00941E+01 7.08839E-01-1.08364E-03 2.13480E-01-3.17690E-14-1.47356E-13
 -1      4063 2.00470E+01 7.38408E-01 2.99694E-03 1.73464E-01-3.21799E-14-1.85559E-13
 -1      4064 2.01529E+01 8.62563E-01-1.25572E-03 8.83716E-02-1.49567E-14-1.50124E-13
 -1      4065 1.98592E+01 6.45244E-01-1.71078E-03 3.44350E-01-1.40554E-14-1.26716E-13
 -1      4066 1.97662E+01 6.58254E-01-1.11736E-03 3.89825E-01 1.47975E-15-1.17567E-13
 -1      4067 1.96730E+01 7.10660E-01 3.05392E-03 3.07738E-01 3.19708E-14-9.88694E-14
 -1      4068 1.87250E+01-6.64059E-01 1.17196E-02-2.52271E+00-2.31600E-13-1.11765E-13
 -1      4069 1.80296E+01-2.88201E-01-3.97969E-03-2.42324E+00-1.77860E-13-7.07863E-14
 -1      4070 1.51708E+01 9.02780E-01 9.09444E-03-8.83799E-01-9.64237E-14-2.31828E-13
 -1      4071 1.56719E+01 1.07819E+00-1.99674E-02 4.25333E-01 4.16485E-15-1.12752E-13
 -1      4072 1.98681E+01 2.62526E-01 1.39416E-05-6.52780E-02 3.97797E-13-1.56988E-13
 -1      4073 1.98964E+01 2.35754E-01 5.01023E-04-7.96592E-02 3.29455E-13-1.46090E-14
 -1      4074 1.91256E+01 5.90207E-01 3.85768E-03-1.07433E+00-4.31231E-15-6.24081E-14
 -1      4075 1.91973E+01 6.06505E-01-4.28693E-03-9.73907E-01 1.57171E-14-8.02099E-14
 -1      4076 1.89191E+01 4.91175E-01 6.40518E-03-1.32203E+00-1.41159E-14-6.32020E-14
 -1      4077 1.89702E+01 5.49280E-01-5.25306E-03-1.19602E+00-1.29999E-14-6.24613E-14
 -1      4078 1.88283E+01 6.73671E-01 2.79130E-03-1.03970E+00-1.04975E-14-5.99125E-14
 -1      4079 1.57516E+01 1.12005E+00 1.71530E-02 2.72317E-01 2.73670E-14-7.58287E-14
 -1      4080 1.99014E+01 5.54219E-01 1.80235E-04-4.82966E-01 7.34398E-14-8.77525E-14
 -1      4081 1.99655E+01 5.58477E-01-1.32888E-03-4.23656E-01 8.53969E-14-8.31631E-14
 -1      4082 1.98873E+01 6.87604E-01 2.55339E-03 2.50538E-01-8.48287E-15-1.73121E-13
 -1      4083 1.87463E+01 2.66281E-01 8.00943E-03-1.64651E+00-4.35060E-14-5.57855E-14
 -1      4084 1.87590E+01 3.93087E-01-5.98497E-03-1.48641E+00-1.68761E-14-3.12609E-14
 -1      4085 1.85246E+01 5.75960E-01 2.32390E-03-1.32051E+00-3.71100E-14-9.91128E-14
 -1      4086 2.01979E+01 1.11726E+00-1.59883E-03 1.15285E-02 2.60399E-14-1.72629E-13
 -1      4087 1.82503E+01 3.46190E-01 7.71602E-03-1.71075E+00-6.42810E-14 5.18574E-15
 -1      4088 2.02076E+01 1.12000E+00-1.57958E-03-1.01440E-02 5.99339E-14-1.59150E-13
 -1      4089 2.02000E+01 1.13740E+00-2.66281E-03-1.39673E-02 4.11789E-14-1.57654E-13
 -1      4090 1.97346E+01 5.68759E-01 6.85920E-04-5.97309E-01 1.24150E-14-9.51705E-14
 -1      4091 1.98066E+01 5.57698E-01-1.92936E-03-5.35347E-01 2.94302E-14-9.59493E-14
 -1      4092 1.98079E+01 6.09757E-01 1.85303E-03-4.38272E-01 5.25358E-14-6.97082E-14
 -1      4093 2.02505E+01 1.06683E+00-1.51345E-03 1.04258E-02 1.21184E-13-1.63625E-13
 -1      4094 2.02221E+01 8.05182E-01-1.93959E-03-1.39266E-01 1.00574E-13-1.43387E-13
 -1      4095 2.02476E+01 9.21581E-01 3.37223E-04-5.66835E-02 9.89040E-14-1.43474E-13
 -1      4096 2.02352E+01 1.05641E+00 6.15407E-04-2.10771E-02 9.80908E-14-1.61236E-13
 -1      4097 2.02201E+01 1.06867E+00-2.55749E-03-3.00465E-02 6.81130E-14-1.51261E-13
 -1      4098 1.98573E+01 2.68680E-01-4.22559E-04-3.56801E-02 3.63301E-13 5.23116E-14
 -1      4099 1.98531E+01 2.71431E-01-4.39062E-04-1.08669E-02 4.05262E-13 8.99957E-14
 -1      4100 1.98392E+01 2.96442E-01 4.22916E-04-5.53289E-02 4.78393E-13 5.80521E-15
 -1      4101 1.75632E+01-5.84177E-02 7.82692E-03 2.32012E+00-1.32062E-13-1.21905E-15
 -1      4102 1.67992E+01 2.13579E-01 3.27104E-02 2.28937E+00-1.95631E-13-9.64051E-14
 -1      4103 1.64304E+01 6.11854E-01-2.70373E-02 1.71987E+00-5.68972E-14-3.12891E-13
 -1      4104 1.75554E+01 2.02018E-01-2.74315E-02 2.01818E+00-1.58142E-13-4.22861E-15
 -1      4105 1.88257E+01 7.77702E-01 2.76896E-03 8.89635E-01 3.99673E-14 7.31626E-14
 -1      4106 1.98548E+01 2.68402E-01-5.91205E-04 1.50584E-02 3.24639E-13 1.76181E-13
 -1      4107 1.98617E+01 2.64741E-01 4.49566E-04 3.51454E-02 1.62312E-13 8.30062E-14
 -1      4108 1.98304E+01 3.00274E-01 2.55232E-04 2.40560E-03 4.04686E-13 2.15348E-13
 -1      4109 2.02113E+01 9.75101E-01 2.76277E-03-5.27851E-02 5.87652E-14-1.42957E-13
 -1      4110 1.91199E+01 8.44810E-01-3.01214E-03 2.41768E-01 1.56084E-14-4.77982E-14
 -1      4111 1.89330E+01 8.92738E-01-4.32430E-03 2.59611E-01 7.84740E-15-7.62427E-14
 -1      4112 1.87205E+01 9.42779E-01-4.60734E-03 2.63823E-01 2.44668E-14-1.02157E-13
 -1      4113 1.84928E+01 9.90592E-01-5.28033E-03 2.81767E-01 2.60576E-14-7.43615E-14
 -1      4114 1.88120E+01 9.52192E-01 1.18955E-02 8.72424E-02 1.86927E-15-7.50923E-14
 -1      4115 1.82281E+01 1.03259E+00-6.94648E-03 2.81192E-01-3.44099E-14-6.71853E-14
 -1      4116 1.79428E+01 1.07005E+00-7.70180E-03 3.01345E-01-9.47328E-14-1.17842E-13
 -1      4117 1.83517E+01 1.05394E+00 1.87727E-02 6.26004E-02 8.69237E-15-1.22776E-13
 -1      4118 1.76042E+01 1.09902E+00-1.00595E-02 2.98304E-01-8.41189E-14-1.10343E-13
 -1      4119 1.72409E+01 1.11664E+00-9.85223E-03 3.27726E-01-2.65671E-14-1.85576E-13
 -1      4120 1.77677E+01 1.14024E+00 2.58589E-02 1.82460E-02-6.61704E-14-1.35708E-13
 -1      4121 1.67924E+01 1.11813E+00-1.50534E-02 3.30909E-01 5.29863E-14-1.93588E-13
 -1      4122 1.63352E+01 1.11179E+00-5.06224E-03 3.83997E-01 4.98557E-14-1.31485E-13
 -1      4123 1.69907E+01 1.19119E+00 2.80920E-02-5.54494E-02 1.47039E-15-1.59757E-13
 -1      4124 2.01484E+01 6.50875E-01-8.29389E-04-2.63882E-01 1.13001E-13-9.28132E-14
 -1      4125 2.01918E+01 7.16450E-01 1.50327E-05-1.93793E-01 1.11602E-13-1.08992E-13
 -1      4126 2.01936E+01 8.18367E-01 8.27295E-04-1.41236E-01 8.49340E-14-1.12052E-13
 -1      4127 1.91145E+01 6.92797E-01 2.73148E-03-8.32496E-01-1.37403E-14-6.88301E-14
 -1      4128 1.93402E+01 6.13592E-01 2.34797E-03-8.81379E-01 1.82703E-14-8.61339E-14
 -1      4129 1.94184E+01 6.06878E-01-3.35603E-03-7.99484E-01 2.29539E-14-1.24906E-13
 -1      4130 1.83719E+01 8.47030E-01-7.32798E-03 9.25194E-01 2.07797E-14-5.23931E-14
 -1      4131 1.82477E+01 8.11019E-01 3.02377E-03 1.06371E+00-9.49370E-14-1.25643E-14
 -1      4132 1.69869E+01 1.21364E+00-1.17982E-02-3.12309E-01-8.35874E-15-4.32982E-14
 -1      4133 1.73592E+01 1.21171E+00-9.05923E-03-2.70198E-01-8.85247E-14-3.67924E-14
 -1      4134 1.76992E+01 1.18927E+00-6.10215E-03-2.73310E-01-2.30569E-13 9.36642E-15
 -1      4135 1.79750E+01 1.15694E+00-6.41006E-03-2.45801E-01-2.40459E-13-1.91300E-13
 -1      4136 1.75054E+01 1.23692E+00 1.61254E-02 1.14594E-02-8.86284E-14-2.36706E-13
 -1      4137 1.82337E+01 1.11600E+00-4.09186E-03-2.48172E-01-1.06377E-13-1.15005E-13
 -1      4138 1.84439E+01 1.06632E+00-5.48255E-03-2.27321E-01-5.73225E-14-1.08896E-13
 -1      4139 1.80855E+01 1.16439E+00 1.30636E-02-2.62675E-02-1.53515E-13-2.86572E-13
 -1      4140 1.86430E+01 1.01567E+00-3.83798E-03-2.21317E-01-4.14969E-14-5.62467E-14
 -1      4141 1.88117E+01 9.58352E-01-3.39153E-03-2.00540E-01-2.44644E-14 9.68811E-15
 -1      4142 1.85167E+01 1.07231E+00 9.73604E-03-4.75273E-02 4.63021E-14-1.56720E-13
 -1      4143 1.89668E+01 8.97236E-01-3.27307E-03-1.94907E-01-7.11689E-14 4.58075E-15
 -1      4144 1.91000E+01 8.35953E-01-2.67936E-03-1.75194E-01-1.05234E-13 6.43870E-14
 -1      4145 1.88698E+01 9.53679E-01 8.63600E-03-6.15281E-02-4.81050E-15-1.80359E-13
 -1      4146 1.92221E+01 7.74502E-01-2.35646E-03-1.67675E-01-7.19558E-14 2.66265E-13
 -1      4147 1.93270E+01 7.13845E-01-1.66587E-03-1.48195E-01-2.36966E-15 2.37343E-13
 -1      4148 1.91406E+01 8.26162E-01 5.26062E-03-6.71107E-02 6.89052E-14-8.26524E-14
 -1      4149 1.94223E+01 6.53196E-01-1.64734E-03-1.42238E-01 1.43682E-14 2.50419E-13
 -1      4150 1.95015E+01 5.96234E-01-1.72915E-03-1.24700E-01 1.40498E-14 1.89384E-13
 -1      4151 1.93593E+01 6.98708E-01 3.35756E-03-6.58818E-02-2.97467E-14 1.84329E-13
 -1      4152 1.95772E+01 5.41580E-01-9.52305E-04-1.16586E-01-4.25662E-14 1.71709E-13
 -1      4153 1.96372E+01 4.88958E-01-1.62146E-03-1.01197E-01-1.45963E-15 2.40880E-13
 -1      4154 1.95257E+01 5.85202E-01 3.05464E-03-5.75388E-02-6.75960E-14 3.75612E-13
 -1      4155 1.96953E+01 4.40881E-01-8.54286E-04-9.29490E-02 6.06068E-15 1.84061E-13
 -1      4156 1.97416E+01 3.94765E-01-1.18190E-03-7.91560E-02 1.25780E-13 5.18600E-14
 -1      4157 1.96540E+01 4.80976E-01 2.51412E-03-4.76698E-02-5.97383E-14 5.23780E-13
 -1      4158 1.97762E+01 3.63530E-01-2.43263E-04-7.24555E-02 3.02639E-13-2.14336E-14
 -1      4159 1.98111E+01 3.23424E-01-7.00636E-04-6.12961E-02 4.34015E-13 1.80047E-15
 -1      4160 1.98033E+01 3.31284E-01 3.71122E-04-2.82358E-02 3.67104E-13 1.71552E-13
 -1      4161 1.97446E+01 3.95091E-01 1.36807E-03-3.74822E-02 1.42799E-13 2.13803E-13
 -1      4162 2.00395E+01 5.74743E-01-3.66675E-04-3.74962E-01 7.07066E-14-6.61463E-14
 -1      4163 2.00940E+01 6.04028E-01-9.60361E-04-3.13544E-01 1.00128E-13-5.89209E-14
 -1      4164 2.01020E+01 6.84418E-01 1.91412E-03-2.44483E-01 8.88657E-14-2.90670E-14
 -1      4165 1.99741E+01 6.20580E-01 2.06605E-03-3.40232E-01 8.10951E-14-2.11934E-14
 -1      4166 2.01940E+01 1.00029E+00 1.96621E-03 1.04247E-02 1.93324E-14-1.53049E-13
 -1      4167 1.93837E+01 6.59305E-01-2.80394E-03 3.22599E-01-4.41220E-14 5.42089E-14
 -1      4168 1.93071E+01 7.06376E-01-2.67150E-04 3.70041E-01-5.34601E-14 2.79219E-13
 -1      4169 1.98826E+01 2.42016E-01-5.72903E-04 7.04794E-02 5.65136E-14-5.56813E-13
 -1      4170 1.91923E+01 7.49272E-01-4.33505E-03 4.19303E-01-5.66236E-14 2.60924E-13
 -1      4171 1.91044E+01 7.91359E-01 5.52480E-04 4.80308E-01 1.46316E-14 3.44929E-13
 -1      4172 1.91822E+01 7.85789E-01 6.52849E-03 3.15205E-01-4.93202E-14-2.67592E-13
 -1      4173 1.96567E+01 4.71763E-01-2.07679E-03 1.88594E-01 3.42340E-13-1.78574E-13
 -1      4174 1.96087E+01 5.18715E-01 1.78395E-04 2.20150E-01 1.03265E-13-1.49327E-13
 -1      4175 1.97522E+01 3.85669E-01-1.65315E-03 1.41660E-01 2.73591E-13-6.93241E-14
 -1      4176 1.97145E+01 4.28401E-01-1.22431E-05 1.66191E-01 3.74864E-13-2.68453E-14
 -1      4177 1.96581E+01 4.76743E-01 2.25988E-03 1.34423E-01 2.49032E-13-5.71206E-13
 -1      4178 2.01732E+01 8.64345E-01-2.40766E-03-1.02464E-01 5.40579E-14-1.32950E-13
 -1      4179 1.56774E+01 9.98695E-01-2.30866E-02-5.99122E-01-5.96446E-14-2.23924E-13
 -1      4180 1.58091E+01 8.48734E-01 4.17427E-02-1.39789E+00-8.56387E-14-1.68982E-13
 -1      4181 1.99143E+01 6.97508E-01-2.29160E-03 1.50970E-01 1.69890E-14-1.14669E-13
 -1      4182 1.98198E+01 6.95547E-01-1.51743E-03 1.78278E-01 3.66048E-14-9.07883E-14
 -1      4183 1.86929E+01 8.63102E-01-5.24953E-03 7.06357E-01-1.77959E-14 2.43809E-14
 -1      4184 1.85771E+01 8.67227E-01 2.62753E-03 8.10710E-01 7.31257E-14-1.96257E-15
 -1      4185 1.82886E+01 9.64258E-01 5.65451E-03 7.24079E-01 1.39330E-14-1.09090E-13
 -1      4186 1.75576E+01 1.76637E-01 2.34945E-02-2.12919E+00-1.22023E-13-7.26890E-14
 -1      4187 1.59829E+01 1.15489E+00 3.41745E-02-9.03862E-02 1.18109E-14-1.80869E-13
 -1      4188 1.97049E+01 7.05316E-01-2.14495E-03 1.87780E-01 5.29366E-14-6.90557E-14
 -1      4189 1.95845E+01 7.28590E-01-1.85543E-03 2.11117E-01 6.66836E-14-6.49355E-14
 -1      4190 1.97571E+01 7.28099E-01 5.06466E-03 8.80182E-02 7.45829E-14-5.31967E-14
 -1      4191 1.65132E+01 5.13671E-01-8.84629E-03-1.70962E+00-6.34215E-14-1.55544E-13
 -1      4192 1.76693E+01 4.49666E-01-1.95952E-02-1.63661E+00-7.35881E-14-1.68249E-14
 -1      4193 1.78382E+01 6.00945E-01-1.99215E-02-1.39926E+00-3.44951E-14-2.45830E-14
 -1      4194 1.89624E+01 8.23097E-01-5.33654E-03 5.44062E-01-1.52956E-13 2.42830E-13
 -1      4195 1.88596E+01 8.49400E-01 3.69346E-04 6.23487E-01-1.70226E-13 4.56444E-14
 -1      4196 1.86411E+01 9.32227E-01 6.92959E-04 5.47575E-01-1.38045E-13-9.37619E-14
 -1      4197 1.89425E+01 8.78317E-01 8.32652E-03 4.14729E-01-1.21681E-13-1.15817E-13
 -1      4198 1.95364E+01 5.64188E-01-2.18650E-03 2.47408E-01 5.96149E-15-9.26928E-14
 -1      4199 1.94739E+01 6.13098E-01-1.19213E-04 2.86024E-01-5.58299E-15-1.53778E-13
 -1      4200 1.95369E+01 5.71620E-01 2.37931E-03 1.77459E-01 1.67180E-13-6.36708E-13
 -1      4201 1.94418E+01 7.60585E-01-2.52300E-03 2.18814E-01 2.36515E-14-6.49514E-14
 -1      4202 1.92941E+01 8.01692E-01-1.80721E-03 2.40053E-01 7.57822E-15-6.53304E-14
 -1      4203 1.95020E+01 7.69481E-01 5.14740E-03 9.44149E-02 3.99731E-14-6.34206E-14
 -1      4204 1.71468E+01 5.37490E-01-4.34189E-03-1.57525E+00-7.64796E-14-5.43546E-14
 -1      4205 1.98544E+01 2.74960E-01-4.18794E-04 6.60990E-02 1.37768E-13-3.77248E-13
 -1      4206 1.61312E+01 1.07363E+00 9.32907E-03 8.34707E-01-9.57557E-15-2.26530E-13
 -1      4207 1.60759E+01 1.22335E+00-3.40698E-03-2.68321E-01 1.22873E-13 2.59181E-14
 -1      4208 1.77195E+01 8.45666E-01 2.39207E-02-1.10585E+00-5.67669E-14-9.59358E-14
 -1      4209 1.81609E+01 6.86273E-01 4.21844E-03-1.21218E+00-5.81553E-14-7.91353E-14
 -1      4210 1.83009E+01 7.28956E-01-1.20444E-02-1.06250E+00-2.43497E-14-8.58553E-14
 -1      4211 1.97864E+01 3.57515E-01 4.54887E-05 1.26442E-01 3.00132E-13-9.19242E-14
 -1      4212 1.97428E+01 3.99491E-01 1.94577E-03 1.02101E-01 2.85001E-13-2.04796E-14
 -1      4213 1.98077E+01 3.30092E-01-7.81668E-04 1.09134E-01 2.18873E-13-3.01587E-13
 -1      4214 1.69275E+01 7.70778E-01 2.73896E-03 1.39004E+00-5.00411E-14-3.08648E-13
 -1      4215 1.64801E+01 9.77859E-01 2.20922E-02 1.12344E+00-6.15215E-14-3.32334E-13
 -1      4216 1.65986E+01 1.10619E+00-1.87971E-02 6.16094E-01-5.65680E-14-2.41373E-13
 -1      4217 1.89066E+01 7.68408E-01 1.52502E-03-7.30808E-01-4.33277E-14-7.00257E-14
 -1      4218 1.90396E+01 7.49907E-01-5.36154E-03-6.49125E-01-3.12805E-14-7.88318E-14
 -1      4219 1.66167E+01 1.21213E+00-9.57973E-03-2.21038E-01 9.75301E-14-4.12352E-14
 -1      4220 1.98035E+01 3.27838E-01-1.97539E-04-1.86421E-04 3.44624E-13 1.80902E-13
 -1      4221 1.79034E+01 9.28117E-01 6.34223E-03 9.66029E-01 1.44551E-14-2.05472E-13
 -1      4222 1.80512E+01 7.49454E-01-9.26228E-03 1.20974E+00-1.31678E-13 5.11800E-14
 -1      4223 1.79721E+01 6.62757E-01 2.54412E-03 1.37575E+00-1.26959E-13 1.24425E-13
 -1      4224 1.85557E+01 7.64091E-01 2.75856E-03-9.32379E-01 1.55337E-14-7.45452E-14
 -1      4225 1.86948E+01 7.67564E-01-8.24180E-03-8.24651E-01 1.81772E-15-6.64914E-14
 -1      4226 1.82393E+01 8.90797E-01 1.83780E-02-8.26079E-01 2.70107E-15-9.88638E-14
 -1      4227 1.93809E+01 6.77173E-01 3.95135E-03 2.36148E-01 1.38711E-13-2.76873E-13
 -1      4228 1.95460E+01 5.97056E-01 1.38460E-03-7.26269E-01 1.06127E-14-1.23160E-13
 -1      4229 1.96233E+01 5.81389E-01-2.61372E-03-6.56952E-01 2.84413E-15-1.17365E-13
 -1      4230 1.96069E+01 6.33511E-01 2.04666E-03-5.46054E-01 2.90204E-14-1.01298E-13
 -1      4231 1.93751E+01 6.69872E-01 2.35907E-03-6.73449E-01 1.90234E-14-1.03985E-13
 -1      4232 2.00759E+01 7.70088E-01 1.79734E-03 8.34544E-02-3.68291E-14-1.22611E-13
 -1      4233 2.00046E+01 7.20502E-01-9.24906E-04 1.23317E-01-3.13693E-14-1.42061E-13
 -1      4234 1.99530E+01 7.39356E-01 3.36668E-03 5.43202E-02 3.27683E-14-9.29911E-14
 -1      4235 2.01271E+01 7.62716E-01 9.78481E-05-1.37729E-01 3.60340E-14-1.29636E-13
 -1      4236 2.01542E+01 9.00576E-01 1.94504E-03-5.50448E-02 3.97700E-14-1.32767E-13
 -1      4237 2.01454E+01 8.75859E-01-1.79576E-03-5.10375E-03 1.23120E-14-1.41941E-13
 -1      4238 1.62745E+01 1.00985E+00-3.57616E-02-5.82059E-01-1.77853E-14-1.92177E-13
 -1      4239 1.91997E+01 8.42189E-01 7.03870E-03 9.45462E-02 1.59818E-14-7.33803E-14
 -1      4240 1.97174E+01 6.46501E-01-2.07520E-04-3.72817E-01 5.94794E-14-9.23902E-14
 -1      4241 1.98098E+01 6.37426E-01-2.08416E-03-3.24928E-01 9.47632E-14-8.12819E-14
 -1      4242 1.78000E+01 5.49305E-01-1.23254E-02 1.55313E+00-8.40401E-14 8.56207E-14
 -1      4243 1.77602E+01 4.14520E-01 9.78275E-03 1.76352E+00-6.82136E-14 1.29289E-14
 -1      4244 1.72358E+01 6.06656E-01 1.58533E-02 1.68054E+00-8.53399E-14-2.49214E-13
 -1      4245 1.75509E+01 7.93081E-01 1.08885E-03 1.28664E+00-1.32298E-13-1.90952E-13
 -1      4246 1.86701E+01 8.73062E-01 1.27548E-02-6.27987E-01-1.99901E-14-8.42991E-14
 -1      4247 1.99063E+01 6.40579E-01-8.82700E-04-2.91266E-01 1.06052E-13-6.83184E-14
 -1      4248 1.99801E+01 6.55457E-01-1.58159E-03-2.44355E-01 8.08610E-14-4.84229E-14
 -1      4249 1.98322E+01 6.84936E-01 3.73278E-03-2.27741E-01 1.03907E-13-1.21178E-13
 -1      4250 1.68072E+01 1.27012E+00 2.29900E-02 1.55544E-01-4.81292E-14-3.88377E-13
 -1      4251 1.93817E+01 6.64715E-01-1.72244E-03 1.40591E-01 2.51373E-13-5.13443E-13
 -1      4252 1.92889E+01 7.25795E-01 9.17410E-04 1.68501E-01 2.10457E-13-5.14646E-13
 -1      4253 1.84489E+01 9.29918E-01-1.01247E-02-3.18717E-01 3.50523E-16-1.07357E-13
 -1      4254 1.81739E+01 9.63422E-01-1.53877E-02-3.51841E-01-3.91321E-15-9.64039E-14
 -1      4255 1.79197E+01 9.68123E-01-1.38874E-02-4.54166E-01-2.63448E-14-1.11485E-13
 -1      4256 1.75736E+01 9.83205E-01-2.06469E-02-5.06528E-01 5.23908E-15-8.36017E-14
 -1      4257 1.72741E+01 9.58702E-01-1.39873E-02-6.48300E-01-3.82027E-14-9.94036E-14
 -1      4258 1.68670E+01 9.59620E-01-7.95795E-03-7.35105E-01-5.17952E-14-1.11853E-13
 -1      4259 2.00700E+01 7.09671E-01-1.26717E-03-1.84467E-01 3.82470E-14-9.12416E-14
 -1      4260 1.79489E+01 1.12677E+00-9.09450E-03 1.96114E-01-1.55725E-13-1.93129E-13
 -1      4261 1.82010E+01 1.09363E+00-6.48241E-03 1.74365E-01-4.12376E-15-1.94211E-13
 -1      4262 1.85178E+01 1.00667E+00-5.95837E-03 2.34147E-01-3.02018E-14-1.87332E-13
 -1      4263 1.87073E+01 9.59642E-01-4.12889E-03 2.09013E-01-3.79821E-14-2.41617E-13
 -1      4264 1.88452E+01 9.09778E-01-7.24974E-03 1.61770E-01-5.20811E-14-2.83886E-13
 -1      4265 1.90040E+01 8.57384E-01-3.43948E-03 1.46669E-01-4.97737E-14-3.23444E-13
 -1      4266 1.92758E+01 7.32834E-01-1.57346E-03 1.27105E-03 1.25947E-13-2.57901E-13
 -1      4267 1.93741E+01 6.73638E-01-1.78935E-03 5.93081E-04 1.41021E-14-1.08094E-13
 -1      4268 1.94821E+01 6.04074E-01-8.59042E-04 7.76768E-03 6.14956E-14 1.02988E-13
 -1      4269 1.95532E+01 5.52519E-01-2.73964E-04 7.08948E-03 8.43203E-15 2.45938E-13
 -1      4270 1.96404E+01 4.77768E-01-1.69234E-03 3.74797E-02-1.15870E-14 8.97756E-14
 -1      4271 1.96989E+01 4.29696E-01-8.81961E-04 3.61702E-02 2.22031E-13 7.45389E-14
 -1      4272 1.97428E+01 3.91627E-01 4.87337E-04-3.74726E-03 2.36082E-13 2.07160E-13
 -1      4273 1.97755E+01 3.57720E-01-1.24883E-04-4.04736E-04 3.22660E-13 2.78424E-13
 -1      4274 1.98062E+01 3.24449E-01-1.32436E-04 2.94878E-02 4.13087E-13 2.51851E-13
 -1      4275 1.95573E+01 5.44943E-01-1.50044E-03 1.12577E-01 2.18803E-13-6.17085E-13
 -1      4276 1.94892E+01 5.96288E-01-1.02415E-03 1.34561E-01 2.83515E-13-4.61476E-13
 -1      4277 1.90344E+01 8.05635E-01 2.14368E-03-4.78398E-01-2.25746E-14-6.20537E-14
 -1      4278 1.92167E+01 7.33411E-01 9.06492E-04-5.82888E-01 7.11958E-15-9.99672E-14
 -1      4279 1.93392E+01 7.07704E-01-2.94129E-03-5.16686E-01 2.28691E-14-1.09049E-13
 -1      4280 1.91186E+01 8.03204E-01-4.63854E-03 1.12769E-01 6.29171E-14-4.49901E-13
 -1      4281 2.00611E+01 7.70464E-01-2.83712E-03-2.18829E-02 6.53674E-15-1.15566E-13
 -1      4282 2.01241E+01 8.53718E-01 2.26779E-03 5.05341E-02-1.16466E-14-1.21028E-13
 -1      4283 1.98351E+01 2.99545E-01-2.22144E-04 7.90912E-02 2.14458E-13-1.75134E-13
 -1      4284 1.83183E+01 1.00773E+00-1.67436E-03 5.08612E-01-8.32560E-14-4.39323E-14
 -1      4285 1.81103E+01 1.02190E+00 3.84928E-04 5.98926E-01 3.29218E-15-1.52732E-13
 -1      4286 1.95924E+01 6.60959E-01-3.07780E-03-4.14175E-01 2.29226E-14-1.34744E-13
 -1      4287 1.96154E+01 7.05515E-01 4.81586E-03-2.94789E-01 7.22136E-14-1.48883E-13
 -1      4288 1.94854E+01 6.82802E-01-3.52491E-04-4.67999E-01 3.06352E-14-1.48512E-13
 -1      4289 1.69064E+01 8.92644E-01 3.94201E-02-1.20012E+00-7.30542E-14-1.43313E-13
 -1      4290 1.69829E+01 1.15150E+00 2.92250E-04 4.54123E-01-9.68476E-14-3.13146E-13
 -1      4291 1.99692E+01 7.16447E-01-2.93522E-03-7.83533E-02 4.96375E-14-1.15710E-13
 -1      4292 1.98815E+01 7.01076E-01-1.49106E-03-5.73943E-02 9.20568E-14-1.01028E-13
 -1      4293 1.97821E+01 6.95684E-01-3.18966E-03-8.38227E-02 9.66207E-14-1.28355E-13
 -1      4294 1.96655E+01 7.07088E-01-3.16829E-03-8.52124E-02 8.55222E-14-1.10417E-13
 -1      4295 2.00213E+01 7.34848E-01 3.77240E-03-1.36814E-01 4.91362E-14-1.15173E-13
 -1      4296 1.95408E+01 7.27126E-01-3.04181E-03-1.14904E-01 5.40933E-14-8.68287E-14
 -1      4297 1.86637E+01 9.05851E-01-9.82255E-03-2.46589E-01-2.23326E-14-1.11643E-13
 -1      4298 1.92653E+01 7.97276E-01-4.81632E-03-5.28922E-02-3.42087E-15-4.86274E-14
 -1      4299 1.90881E+01 8.43544E-01-4.91374E-03-5.43159E-02 1.70369E-15-6.62645E-14
 -1      4300 1.73318E+01 1.16082E+00-1.05683E-02 3.28000E-01-4.11934E-14-2.85814E-13
 -1      4301 1.76743E+01 1.14981E+00-3.97928E-03 2.81136E-01-1.03020E-13-2.77129E-13
 -1      4302 1.79020E+01 1.10390E+00 8.74365E-03 4.83198E-01-5.13277E-14-1.61401E-13
 -1      4303 1.72808E+01 1.08847E+00 1.23858E-02 7.36063E-01-9.64362E-14-3.17101E-13
 -1      4304 1.94008E+01 7.59745E-01-1.98912E-03-1.22311E-01 2.07823E-14-8.31845E-14
 -1      4305 1.88883E+01 8.67399E-01-4.46382E-03-2.23308E-01-2.01457E-14-7.44376E-14
 -1      4306 1.93504E+01 7.65888E-01 1.78588E-03-2.71216E-01 4.33789E-16-8.44386E-14
 -1      4307 1.94247E+01 6.45857E-01 1.64487E-03 7.06157E-02 2.46415E-13-3.90566E-13
 -1      4308 1.78215E+01 1.01363E+00-9.12613E-03 7.17155E-01 7.10991E-14-1.99208E-13
 -1      4309 1.76523E+01 9.97382E-01 2.66996E-03 8.39273E-01 5.09055E-15-2.22982E-13
 -1      4310 1.92420E+01 7.46608E-01-2.45206E-03 1.01452E-01 1.14428E-13-3.69017E-13
 -1      4311 1.97321E+01 3.96753E-01-1.24417E-03 2.51927E-02 2.00190E-13 1.63223E-13
 -1      4312 1.98040E+01 3.31235E-01 6.39055E-04 5.69529E-02 3.82793E-13-8.03226E-14
 -1      4313 1.95835E+01 5.27618E-01-8.90545E-04 5.02390E-02-7.82594E-14-9.17907E-14
 -1      4314 1.90348E+01 8.31760E-01 4.24400E-03-3.65160E-01-3.34184E-14-6.45491E-14
 -1      4315 1.70916E+01 8.62884E-01-1.22462E-02 1.18375E+00-1.13479E-13-3.20814E-13
 -1      4316 1.72841E+01 9.57491E-01-5.90550E-03 1.00939E+00-1.12967E-13-2.57289E-13
 -1      4317 1.97736E+01 3.59133E-01-4.42966E-04 6.10371E-02 3.26812E-13-4.59407E-14
 -1      4318 1.84996E+01 1.00044E+00 6.45270E-03 4.34225E-01-7.90505E-14-1.04700E-13
 -1      4319 1.92108E+01 7.88004E-01 9.62468E-04-3.11486E-01-1.54596E-14-7.02265E-14
 -1      4320 1.93508E+01 7.45734E-01 2.40606E-03-3.79250E-01 5.07321E-15-9.52857E-14
 -3
    1PSTEP                         3           1           1          
  100CL  101 1.000000000        4320                     0    1           1
 -4  TOSTRAIN    6    1
 -5  EXX         1    4    1    1
 -5  EYY         1    4    2    2
 -5  EZZ         1    4    3    3
 -5  EXY         1    4    1    2
 -5  EYZ         1    4    2    3
 -5  EZX         1    4    3    1
 -1         1 1.69628E-05 1.78364E-05-1.79970E-05 3.18334E-05-1.93395E-17-1.53410E-17
 -1         2 3.61103E-05-1.10038E-04 1.99080E-05 9.48728E-07-7.53663E-18 1.10456E-18
 -1         3 9.52351E-05-2.85731E-05-2.85625E-05 1.31062E-09-4.55500E-18-4.26016E-18
 -1         4 9.52350E-05-2.85733E-05-2.85625E-05-9.56764E-10 2.11693E-18 1.97658E-19
 -1         5 1.42690E-04-2.13669E-05-4.23668E-05 3.83685E-05-2.19487E-19 1.55517E-17
 -1         6 1.44728E-04 2.56512E-10-4.40170E-05-5.32786E-05-8.71173E-19 1.31814E-17
 -1         7 9.04210E-05-5.17205E-07-3.89737E-05-2.90913E-05-1.24726E-19 2.28739E-18
 -1         8 8.50866E-05 8.05370E-08-3.63137E-05-2.00913E-05-1.55139E-19-9.42877E-19
 -1         9 8.28670E-05 7.19282E-08-3.53670E-05-1.54333E-05-1.22992E-19-2.67975E-18
 -1        10 8.18748E-05 3.50754E-08-3.49207E-05-1.18580E-05-8.98649E-20-3.46941E-18
 -1        11 8.13674E-05 1.71813E-08-3.47014E-05-8.80416E-06-6.01956E-20-3.81655E-18
 -1        12 8.10958E-05 7.93239E-09-3.45892E-05-6.11155E-06-2.20874E-20-3.97376E-18
 -1        13 8.09461E-05 4.11394E-09-3.45300E-05-3.57208E-06-4.61732E-21-3.98914E-18
 -1        14 8.08804E-05 2.68612E-09-3.45048E-05-1.14431E-06 2.90028E-20-3.93543E-18
 -1        15 8.08818E-05 2.68964E-09-3.45053E-05 1.24894E-06 5.48125E-20-3.80111E-18
 -1        16 8.09506E-05 4.07700E-09-3.45315E-05 3.68194E-06 6.54573E-20-3.70129E-18
 -1        17 8.11046E-05 7.15153E-09-3.45916E-05 6.23374E-06 8.32193E-20-3.41693E-18
 -1        18 8.13809E-05 1.59208E-08-3.47052E-05 8.94601E-06 1.11544E-19-2.95043E-18
 -1        19 8.18927E-05 3.46932E-08-3.49273E-05 1.20360E-05 1.67216E-19-2.22768E-18
 -1        20 8.28871E-05 7.65976E-08-3.53785E-05 1.56608E-05 2.11944E-19-9.23792E-19
 -1        21 8.50519E-05 1.62881E-07-3.63512E-05 2.03015E-05 2.18005E-19 1.48169E-18
 -1        22 9.14428E-05-1.05195E-07-3.86469E-05 2.78432E-05 1.72583E-20 6.04478E-18
 -1        23 1.12522E-04-3.79761E-05-3.52633E-05-4.36564E-06-5.77809E-19 1.02123E-17
 -1        24 9.25389E-05-2.76192E-05-2.89153E-05 3.91430E-07-2.17522E-19 7.52163E-18
 -1        25 8.89895E-05-2.68150E-05-2.68894E-05 3.73617E-07-4.17610E-20 5.05419E-18
 -1        26 8.80411E-05-2.64985E-05-2.64005E-05 2.01438E-07-1.85719E-20 3.54847E-18
 -1        27 8.82733E-05-2.65394E-05-2.64560E-05 1.37499E-07-8.51127E-20 2.42211E-18
 -1        28 8.90962E-05-2.67637E-05-2.67140E-05 9.96030E-08-1.92861E-20 1.93049E-18
 -1        29 9.02611E-05-2.71007E-05-2.70716E-05 7.60305E-08-1.14045E-19 1.31735E-18
 -1        30 9.16613E-05-2.75144E-05-2.74969E-05 6.12377E-08 9.26877E-21 3.79256E-19
 -1        31 9.32658E-05-2.79928E-05-2.79830E-05 5.29740E-08 1.12603E-19-2.42179E-19
 -1        32 9.50921E-05-2.85395E-05-2.85360E-05 5.05952E-08-2.05967E-19-9.30224E-19
 -1        33 9.71906E-05-2.91685E-05-2.91716E-05 5.43195E-08 2.72156E-19-1.89154E-18
 -1        34 9.96329E-05-2.99006E-05-2.99109E-05 6.48507E-08 1.22549E-19-8.24259E-19
 -1        35 1.02496E-04-3.07581E-05-3.07763E-05 8.30123E-08-2.66850E-19-1.35971E-18
 -1        36 1.05839E-04-3.17575E-05-3.17830E-05 1.09047E-07-1.22896E-20-2.39714E-18
 -1        37 1.09659E-04-3.28974E-05-3.29262E-05 1.41109E-07-1.18351E-19-1.83710E-18
 -1        38 1.13826E-04-3.41384E-05-3.41588E-05 1.72317E-07-2.41128E-19-2.16277E-18
 -1        39 1.17980E-04-3.53742E-05-3.53624E-05 1.85960E-07-7.62689E-20-3.30713E-18
 -1        40 1.21418E-04-3.63974E-05-3.63161E-05 1.50128E-07 4.62535E-20-3.42769E-18
 -1        41 1.23025E-04-3.68800E-05-3.66921E-05 1.87488E-08 3.35443E-19-2.11477E-18
 -1        42 1.21432E-04-3.64146E-05-3.61199E-05-2.46068E-07-2.74425E-19-1.63639E-18
 -1        43 1.15596E-04-3.46833E-05-3.43752E-05-6.15009E-07 5.21686E-20-1.54298E-18
 -1        44 1.05853E-04-3.17722E-05-3.16404E-05-9.28606E-07 1.42670E-19-2.94715E-19
 -1        45 9.48571E-05-2.84612E-05-2.86973E-05-9.15324E-07 2.92028E-20-5.59809E-19
 -1        46 8.71177E-05-2.61171E-05-2.66922E-05-4.30863E-07-1.44677E-19-3.21997E-18
 -1        47 8.64859E-05-2.59248E-05-2.65324E-05 3.16848E-07 1.98924E-19-3.41926E-18
 -1        48 9.33087E-05-2.79919E-05-2.82978E-05 8.69252E-07 2.59013E-19-1.99024E-18
 -1        49 1.04142E-04-3.12577E-05-3.11796E-05 9.54527E-07-2.25715E-19-2.24188E-18
 -1        50 1.14372E-04-3.43198E-05-3.40237E-05 6.75610E-07-2.02242E-19-4.99792E-18
 -1        51 1.20965E-04-3.62786E-05-3.59715E-05 3.00297E-07 2.41795E-19-4.18891E-18
 -1        52 1.23263E-04-3.69537E-05-3.67471E-05 1.44885E-08-4.54734E-20-1.89448E-18
 -1        53 1.22179E-04-3.66262E-05-3.65307E-05-1.35464E-07-1.26510E-19-2.99293E-18
 -1        54 1.19091E-04-3.57072E-05-3.56879E-05-1.82039E-07 2.53586E-19-3.59051E-18
 -1        55 1.15182E-04-3.45449E-05-3.45634E-05-1.72264E-07-1.31528E-19-3.00060E-18
 -1        56 1.11228E-04-3.33684E-05-3.33987E-05-1.40346E-07-2.30736E-20-4.67735E-18
 -1        57 1.07649E-04-3.23011E-05-3.23303E-05-1.04958E-07 3.03897E-19-4.64148E-18
 -1        58 1.04613E-04-3.13942E-05-3.14174E-05-7.40462E-08-2.43319E-19-5.72817E-18
 -1        59 1.02149E-04-3.06563E-05-3.06729E-05-4.98126E-08 1.55799E-19-5.11368E-18
 -1        60 1.00211E-04-3.00746E-05-3.00856E-05-3.19433E-08-2.12781E-19-3.67503E-18
 -1        61 9.87231E-05-2.96274E-05-2.96343E-05-1.92897E-08 7.26480E-19-1.22501E-18
 -1        62 9.76068E-05-2.92911E-05-2.92951E-05-1.06104E-08-7.80925E-19-1.78817E-18
 -1        63 9.67867E-05-2.90436E-05-2.90456E-05-4.83552E-09-3.86525E-19-3.02524E-18
 -1        64 9.61979E-05-2.88656E-05-2.88664E-05-1.12152E-09 9.67274E-20-4.11639E-18
 -1        65 9.57868E-05-2.87410E-05-2.87411E-05 1.17189E-09-2.97025E-19-2.52614E-18
 -1        66 9.55103E-05-2.86570E-05-2.86567E-05 2.52967E-09 3.51823E-19-4.78270E-18
 -1        67 9.53347E-05-2.86034E-05-2.86031E-05 3.33526E-09 8.09464E-19-6.58669E-19
 -1        68 9.52347E-05-2.85726E-05-2.85725E-05 3.93335E-09-5.80824E-19 2.39176E-18
 -1        69 9.51918E-05-2.85590E-05-2.85593E-05 4.66801E-09 6.18782E-19 3.07914E-18
 -1        70 9.51915E-05-2.85583E-05-2.85584E-05 5.86702E-09-4.79922E-19 5.35038E-18
 -1        71 9.52191E-05-2.85666E-05-2.85631E-05 6.54825E-09-6.35875E-19 1.51848E-18
 -1        72 1.01774E-04-3.04626E-05-3.40244E-05-1.92450E-06 1.91006E-19 1.46045E-17
 -1        73 9.23059E-05-2.74385E-05-2.88271E-05-3.31761E-07 1.36316E-19 1.17247E-17
 -1        74 8.89866E-05-2.66672E-05-2.69358E-05-1.22388E-07 6.18673E-20 9.63177E-18
 -1        75 8.80812E-05-2.64516E-05-2.64481E-05-9.02901E-08 3.15371E-20 8.56001E-18
 -1        76 8.83182E-05-2.65211E-05-2.64865E-05-7.00033E-08 7.22129E-20 7.45852E-18
 -1        77 8.91380E-05-2.67583E-05-2.67345E-05-5.51246E-08-6.18793E-21 6.30318E-18
 -1        78 9.02917E-05-2.70986E-05-2.70849E-05-4.41317E-08-6.40281E-20 6.35165E-18
 -1        79 9.16670E-05-2.75080E-05-2.75009E-05-3.59390E-08 4.48042E-21 5.49851E-18
 -1        80 9.32223E-05-2.79726E-05-2.79708E-05-3.03935E-08-1.22833E-19 4.34949E-18
 -1        81 9.49565E-05-2.84913E-05-2.84948E-05-2.79436E-08 1.34786E-19 3.90136E-18
 -1        82 9.68905E-05-2.90698E-05-2.90789E-05-2.93996E-08-6.02624E-20 3.65786E-18
 -1        83 9.90506E-05-2.97155E-05-2.97300E-05-3.57868E-08 1.60993E-19 3.14300E-18
 -1        84 1.01449E-04-3.04318E-05-3.04504E-05-4.81028E-08 5.92617E-20 2.09873E-18
 -1        85 1.04056E-04-3.12099E-05-3.12288E-05-6.67816E-08-1.05492E-19 2.22362E-18
 -1        86 1.06768E-04-3.20191E-05-3.20305E-05-9.05998E-08 1.98459E-19 1.37238E-18
 -1        87 1.09362E-04-3.27938E-05-3.27844E-05-1.14797E-07-4.72165E-19 1.75330E-18
 -1        88 1.11454E-04-3.34218E-05-3.33728E-05-1.28555E-07 1.81292E-19 1.92678E-18
 -1        89 1.12492E-04-3.37405E-05-3.36320E-05-1.13256E-07 1.53180E-19-2.15250E-19
 -1        90 1.11816E-04-3.35541E-05-3.33780E-05-4.52054E-08-2.14902E-20-3.81582E-19
 -1        91 1.08864E-04-3.26913E-05-3.24721E-05 9.16767E-08-1.90041E-19 1.78445E-18
 -1        92 1.03539E-04-3.11110E-05-3.09217E-05 2.81183E-07-2.46482E-19 4.16248E-18
 -1        93 9.66102E-05-2.90284E-05-2.89754E-05 4.53808E-07 9.23540E-20 5.06317E-18
 -1        94 8.98435E-05-2.69652E-05-2.71281E-05 5.04924E-07 5.50653E-19 2.78147E-18
 -1        95 8.54987E-05-2.56142E-05-2.59687E-05 3.63300E-07-1.19412E-20 1.65364E-18
 -1        96 8.52551E-05-2.55101E-05-2.59131E-05 6.77392E-08 3.49011E-19 2.54833E-18
 -1        97 8.92224E-05-2.67046E-05-2.69838E-05-2.40723E-07-4.27951E-19 3.48289E-18
 -1        98 9.58699E-05-2.87296E-05-2.87958E-05-4.23988E-07 4.49862E-19 2.46058E-18
 -1        99 1.02939E-04-3.08833E-05-3.07677E-05-4.39097E-07-4.32957E-19-9.61568E-19
 -1       100 1.08568E-04-3.25910E-05-3.23889E-05-3.36294E-07-4.69739E-20 1.05825E-18
 -1       101 1.11877E-04-3.35872E-05-3.33884E-05-1.94859E-07-1.08746E-19 4.00084E-19
 -1       102 1.12896E-04-3.38872E-05-3.37398E-05-7.15754E-08 3.45531E-19-1.90010E-18
 -1       103 1.12163E-04-3.36598E-05-3.35736E-05 1.17226E-08-2.37327E-19-1.46149E-18
 -1       104 1.10350E-04-3.31099E-05-3.30737E-05 5.64822E-08-7.73736E-20-6.78205E-19
 -1       105 1.08037E-04-3.24125E-05-3.24090E-05 7.32785E-08 2.25100E-19-2.42812E-18
 -1       106 1.05636E-04-3.16908E-05-3.17049E-05 7.32509E-08-4.39784E-19-2.86021E-18
 -1       107 1.03397E-04-3.10187E-05-3.10401E-05 6.48058E-08 9.85459E-20-2.54161E-18
 -1       108 1.01445E-04-3.04332E-05-3.04558E-05 5.32637E-08-5.67460E-19-3.07254E-18
 -1       109 9.98214E-05-2.99466E-05-2.99672E-05 4.15703E-08 3.22360E-19-5.43736E-19
 -1       110 9.85207E-05-2.95567E-05-2.95741E-05 3.11316E-08 3.93789E-19-1.50526E-18
 -1       111 9.75103E-05-2.92538E-05-2.92678E-05 2.24613E-08-6.92450E-19 6.88117E-19
 -1       112 9.67474E-05-2.90250E-05-2.90358E-05 1.56025E-08 2.60442E-19 2.25761E-18
 -1       113 9.61874E-05-2.88571E-05-2.88652E-05 1.03766E-08 3.07032E-19 2.21239E-19
 -1       114 9.57893E-05-2.87376E-05-2.87435E-05 6.51862E-09-1.19125E-19 3.02086E-19
 -1       115 9.55174E-05-2.86559E-05-2.86602E-05 3.73402E-09 6.83522E-19-2.06743E-18
 -1       116 9.53425E-05-2.86033E-05-2.86065E-05 1.72601E-09-2.48576E-19-3.45391E-18
 -1       117 9.52413E-05-2.85728E-05-2.85754E-05 2.20352E-10 2.39834E-19-3.25054E-18
 -1       118 9.51965E-05-2.85591E-05-2.85614E-05-1.21411E-09 1.62738E-19-4.10943E-18
 -1       119 9.51947E-05-2.85582E-05-2.85597E-05-3.42526E-09 2.35460E-19-4.62379E-18
 -1       120 9.52197E-05-2.85660E-05-2.85639E-05-6.16239E-09 1.82707E-18-7.77502E-18
 -1       121 9.52422E-05-2.85889E-05-2.85643E-05-7.46734E-09-6.42057E-18 1.50802E-18
 -1       122 9.52488E-05-2.86104E-05-2.85612E-05-4.07226E-09 2.94476E-18-1.47555E-18
 -1       123 9.52460E-05-2.86009E-05-2.85646E-05-8.31554E-10 5.97643E-18 8.49926E-19
 -1       124 9.52338E-05-2.85599E-05-2.85762E-05 1.45076E-09 3.62681E-18 5.66191E-19
 -1       125 9.52156E-05-2.84988E-05-2.85934E-05 2.54164E-09 5.76083E-18-1.38510E-18
 -1       126 9.51966E-05-2.84345E-05-2.86116E-05 2.62097E-09 1.14556E-19 2.59617E-19
 -1       127 9.51807E-05-2.83808E-05-2.86270E-05 1.88749E-09-4.41652E-18 1.08124E-18
 -1       128 9.51719E-05-2.83512E-05-2.86354E-05 6.35611E-10-1.36154E-18-8.44071E-19
 -1       129 9.51723E-05-2.83524E-05-2.86351E-05-7.88479E-10 2.17239E-18 9.54948E-20
 -1       130 9.51817E-05-2.83843E-05-2.86260E-05-2.02159E-09 8.77547E-19 3.04674E-19
 -1       131 9.51981E-05-2.84398E-05-2.86101E-05-2.72681E-09-5.41126E-18-5.82401E-19
 -1       132 9.52175E-05-2.85049E-05-2.85916E-05-2.56999E-09-9.67589E-18 1.21347E-18
 -1       133 9.52356E-05-2.85659E-05-2.85745E-05-1.35903E-09-7.48052E-18-1.61435E-18
 -1       134 9.52474E-05-2.86056E-05-2.85634E-05 8.39258E-10-8.22932E-18 1.77204E-18
 -1       135 9.52499E-05-2.86129E-05-2.85605E-05 5.92519E-09-5.87601E-18-4.74373E-19
 -1       136 9.52415E-05-2.85896E-05-2.85636E-05 1.08990E-08-1.64918E-18 1.97065E-19
 -1       137 2.68380E-05-8.88370E-05 1.57008E-05-2.27704E-05 8.45953E-18 2.47241E-18
 -1       138 8.45823E-06-3.71074E-05 4.14172E-06-1.94254E-05 1.57142E-17 6.31082E-18
 -1       139 1.05417E-05 1.38398E-05-1.42714E-05 2.18792E-05 1.35767E-17 1.05104E-17
 -1       140 5.87624E-05 2.77913E-05-3.56383E-05 7.92131E-05 1.25433E-17 1.43123E-17
 -1       141 1.47369E-04-4.17066E-06-5.49697E-05 1.11760E-04 7.23027E-18 1.30972E-17
 -1       142 2.48097E-04-5.85696E-05-7.07987E-05 9.31238E-05 3.19368E-18 1.09759E-17
 -1       143 3.02670E-04-9.23877E-05-7.78043E-05 2.67452E-05 6.12590E-19 1.48983E-18
 -1       144 2.89521E-04-8.41201E-05-7.61337E-05-5.45311E-05 1.02909E-18-6.12320E-18
 -1       145 2.14606E-04-3.92600E-05-6.59684E-05-1.07175E-04 4.26396E-18-1.10864E-17
 -1       146 1.19023E-04 8.67261E-06-4.96880E-05-1.06767E-04 1.02489E-17-1.60653E-17
 -1       147 4.08627E-05 2.89402E-05-2.98418E-05-6.47784E-05 1.43335E-17-1.41455E-17
 -1       148 7.80598E-06 6.46247E-06-1.07409E-05-1.25171E-05 1.48726E-17-1.05129E-17
 -1       149 1.10200E-05-4.68945E-05 6.64998E-06 2.25821E-05 1.13820E-17-4.34433E-18
 -1       150 2.92145E-05-9.44781E-05 1.68125E-05 2.00114E-05 4.87722E-18-1.19362E-18
 -1       151 3.60220E-05-1.09962E-04 1.97750E-05-5.81269E-06-4.52538E-18 1.57204E-19
 -1       152 2.21092E-05-7.89830E-05 1.38332E-05-2.65556E-05-1.50962E-17-4.97150E-18
 -1       153 6.27733E-06-2.49543E-05 5.75683E-07-1.36219E-05-1.94555E-17-9.99859E-18
 -1       154 6.77440E-05 2.44869E-05-3.77214E-05 8.33951E-05-1.49874E-17-1.72985E-17
 -1       155 1.53729E-04-6.99641E-06-5.62570E-05 1.12832E-04-8.85065E-18-1.68619E-17
 -1       156 2.45513E-04-5.63016E-05-7.05211E-05 9.74717E-05-4.82068E-18-1.29677E-17
 -1       157 3.05292E-04-9.24823E-05-7.84049E-05 3.71479E-05-9.89348E-19-7.48587E-18
 -1       158 3.03796E-04-9.14249E-05-7.82762E-05-3.99947E-05-5.72991E-19-2.60992E-19
 -1       159 2.40453E-04-5.33192E-05-6.98470E-05-9.92045E-05-2.07904E-18 6.78473E-18
 -1       160 1.42277E-04-1.73763E-06-5.41977E-05-1.11673E-04-6.10308E-18 9.23562E-18
 -1       161 5.75705E-05 2.61628E-05-3.49146E-05-7.65376E-05-1.12672E-17 1.31938E-17
 -1       162 1.07483E-05 1.17156E-05-1.37892E-05-1.99052E-05-1.41645E-17 1.06248E-17
 -1       163 8.06842E-06-3.62708E-05 3.81885E-06 2.00010E-05-1.56697E-17 7.40836E-18
 -1       164 2.62067E-05-8.85766E-05 1.58130E-05 2.34410E-05-1.44273E-17 3.62784E-18
 -1       165 9.47899E-05-1.23716E-05-3.55231E-05-2.21331E-05-1.93519E-18 6.33342E-19
 -1       166 8.92832E-05-8.47846E-06-3.47915E-05-1.71475E-05-1.79578E-18-1.35621E-18
 -1       167 8.66423E-05-6.51335E-06-3.44507E-05-1.33417E-05-1.34665E-18-2.41173E-18
 -1       168 8.52792E-05-5.48016E-06-3.42816E-05-1.01221E-05-9.37809E-19-2.98561E-18
 -1       169 8.45118E-05-4.87060E-06-3.41999E-05-7.33337E-06-5.63618E-19-3.18106E-18
 -1       170 8.40536E-05-4.49039E-06-3.41589E-05-4.74567E-06-2.02240E-19-3.29449E-18
 -1       171 8.38106E-05-4.28245E-06-3.41401E-05-2.31152E-06 1.22909E-19-3.26053E-18
 -1       172 8.37365E-05-4.21851E-06-3.41347E-05 5.05721E-08 4.13246E-19-3.23042E-18
 -1       173 8.38194E-05-4.29119E-06-3.41403E-05 2.41489E-06 7.85164E-19-3.12028E-18
 -1       174 8.40733E-05-4.51004E-06-3.41592E-05 4.85590E-06 1.04489E-18-2.94417E-18
 -1       175 8.45358E-05-4.89738E-06-3.41992E-05 7.41037E-06 1.33987E-18-2.60853E-18
 -1       176 8.53349E-05-5.53972E-06-3.42818E-05 1.02671E-05 1.76043E-18-2.02931E-18
 -1       177 8.67300E-05-6.61102E-06-3.44518E-05 1.35304E-05 2.02390E-18-1.19580E-18
 -1       178 8.94283E-05-8.62600E-06-3.47949E-05 1.73840E-05 2.11436E-18 4.07979E-19
 -1       179 9.56925E-05-1.36291E-05-3.53797E-05 2.16834E-05 1.92871E-18 3.28487E-18
 -1       180 1.05357E-04-2.60484E-05-3.51745E-05 1.85070E-05 1.29290E-18 6.95366E-18
 -1       181 1.03221E-04-2.72622E-05-3.25510E-05-1.19758E-05-1.66421E-18 3.01091E-18
 -1       182 9.70419E-05-2.82680E-05-2.95089E-05-4.58292E-06-1.40161E-18 2.25253E-18
 -1       183 9.35788E-05-2.76486E-05-2.82069E-05-1.59521E-06-9.67202E-19 1.56781E-18
 -1       184 9.22194E-05-2.74619E-05-2.77167E-05-1.90801E-07-7.10135E-19 9.25056E-19
 -1       185 9.18808E-05-2.74489E-05-2.75939E-05 5.63067E-07-4.60868E-19 6.08906E-19
 -1       186 9.21633E-05-2.75743E-05-2.76704E-05 1.01646E-06-3.71857E-19 4.23769E-19
 -1       187 9.28487E-05-2.77965E-05-2.78729E-05 1.32790E-06-4.25361E-19 2.05590E-19
 -1       188 9.38273E-05-2.80916E-05-2.81675E-05 1.58536E-06-5.27552E-19 2.64008E-19
 -1       189 9.50538E-05-2.84504E-05-2.85398E-05 1.84419E-06-2.79516E-19 5.68891E-20
 -1       190 9.65230E-05-2.88748E-05-2.89877E-05 2.14124E-06-5.22329E-19 3.44050E-19
 -1       191 9.82545E-05-2.93737E-05-2.95160E-05 2.49887E-06 1.66460E-19-3.89123E-19
 -1       192 1.00280E-04-2.99615E-05-3.01322E-05 2.92284E-06-3.79465E-19-1.09947E-18
 -1       193 1.02626E-04-3.06545E-05-3.08418E-05 3.39423E-06-4.95729E-19-8.04885E-19
 -1       194 1.05297E-04-3.14674E-05-3.16404E-05 3.85436E-06 5.95864E-20-7.81546E-19
 -1       195 1.08241E-04-3.24067E-05-3.25037E-05 4.18202E-06-2.97794E-20-6.47060E-19
 -1       196 1.11311E-04-3.34587E-05-3.33743E-05 4.16744E-06-5.52744E-19-3.71209E-19
 -1       197 1.14217E-04-3.45670E-05-3.41504E-05 3.50062E-06-1.71767E-19-3.97642E-19
 -1       198 1.16477E-04-3.55916E-05-3.46829E-05 1.81922E-06 6.40059E-19-6.48720E-19
 -1       199 1.17426E-04-3.62534E-05-3.48041E-05-1.10528E-06 2.81903E-21-7.92732E-19
 -1       200 1.16349E-04-3.61129E-05-3.43937E-05-4.98994E-06-3.51386E-20-5.64994E-19
 -1       201 1.12865E-04-3.47257E-05-3.34871E-05-8.61334E-06-9.57544E-20-5.16154E-19
 -1       202 1.07533E-04-3.20790E-05-3.23328E-05-9.87720E-06-5.05603E-19-1.17414E-18
 -1       203 1.02317E-04-2.91742E-05-3.13545E-05-7.01860E-06-8.34632E-19-1.01657E-18
 -1       204 9.98844E-05-2.77330E-05-3.09402E-05-5.71296E-07-2.86807E-19-3.67275E-19
 -1       205 1.01701E-04-2.88034E-05-3.12549E-05 6.19817E-06 1.32779E-19-1.48941E-18
 -1       206 1.06678E-04-3.16069E-05-3.21729E-05 9.75734E-06-4.32888E-19-2.17697E-18
 -1       207 1.12193E-04-3.43984E-05-3.33363E-05 9.08336E-06-9.34975E-19-1.60957E-18
 -1       208 1.16092E-04-3.60218E-05-3.43200E-05 5.69626E-06 6.43917E-19-9.27537E-19
 -1       209 1.17603E-04-3.63507E-05-3.48366E-05 1.76239E-06 9.52015E-19-5.26686E-19
 -1       210 1.17011E-04-3.58048E-05-3.48201E-05-1.32501E-06-1.36064E-18-1.22417E-18
 -1       211 1.15016E-04-3.48445E-05-3.43743E-05-3.15908E-06-2.23567E-19-1.78390E-18
 -1       212 1.12311E-04-3.37756E-05-3.36675E-05-3.91806E-06 1.47954E-19-2.06916E-18
 -1       213 1.09414E-04-3.27577E-05-3.28563E-05-3.95846E-06-6.73086E-19-1.95320E-18
 -1       214 1.06651E-04-3.18599E-05-3.20523E-05-3.60352E-06 3.16714E-19-1.11745E-18
 -1       215 1.04192E-04-3.11027E-05-3.13207E-05-3.07982E-06-7.22087E-20-2.32357E-18
 -1       216 1.02106E-04-3.04831E-05-3.06909E-05-2.52300E-06 3.75686E-19-1.67611E-18
 -1       217 1.00396E-04-2.99878E-05-3.01699E-05-2.00374E-06-3.52662E-19-3.18782E-18
 -1       218 9.90304E-05-2.95997E-05-2.97514E-05-1.55246E-06 1.19331E-18-1.66796E-18
 -1       219 9.79650E-05-2.93010E-05-2.94234E-05-1.17708E-06-3.16264E-19-1.52475E-18
 -1       220 9.71504E-05-2.90753E-05-2.91717E-05-8.74127E-07-9.82220E-19-1.37170E-18
 -1       221 9.65401E-05-2.89079E-05-2.89824E-05-6.35051E-07-3.88003E-19-1.95118E-18
 -1       222 9.60924E-05-2.87865E-05-2.88432E-05-4.49712E-07 1.67091E-18-2.40338E-18
 -1       223 9.57720E-05-2.87005E-05-2.87432E-05-3.08069E-07-1.20404E-20-6.04572E-19
 -1       224 9.55499E-05-2.86417E-05-2.86736E-05-2.00964E-07 2.18671E-18 7.54162E-19
 -1       225 9.54026E-05-2.86033E-05-2.86273E-05-1.20444E-07 2.07995E-18 1.24066E-19
 -1       226 9.53114E-05-2.85801E-05-2.85984E-05-5.99827E-08 1.48000E-18 3.30699E-18
 -1       227 9.52614E-05-2.85687E-05-2.85821E-05-1.53426E-08-4.33011E-19 2.10404E-18
 -1       228 9.52395E-05-2.85669E-05-2.85736E-05 1.38681E-08-2.26861E-18 1.18036E-18
 -1       229 9.93500E-05-2.85130E-05-3.05389E-05 7.08557E-06 1.48424E-18 6.06308E-18
 -1       230 9.43904E-05-2.77800E-05-2.85173E-05 2.61498E-06 1.04665E-18 5.04983E-18
 -1       231 9.22219E-05-2.74299E-05-2.77224E-05 7.70230E-07 7.68583E-19 4.04122E-18
 -1       232 9.14717E-05-2.73211E-05-2.74655E-05-1.47682E-07 7.16974E-19 3.30064E-18
 -1       233 9.15283E-05-2.73882E-05-2.74742E-05-6.58325E-07 3.99139E-19 2.83035E-18
 -1       234 9.20757E-05-2.75761E-05-2.76349E-05-9.71993E-07-5.01826E-20 2.59631E-18
 -1       235 9.29472E-05-2.78473E-05-2.78952E-05-1.19175E-06 5.25109E-19 2.40100E-18
 -1       236 9.40594E-05-2.81824E-05-2.82298E-05-1.37475E-06 5.01965E-19 2.04268E-18
 -1       237 9.53765E-05-2.85740E-05-2.86274E-05-1.55418E-06 4.33617E-19 1.63214E-18
 -1       238 9.68887E-05-2.90221E-05-2.90842E-05-1.74647E-06 1.77443E-20 1.46193E-18
 -1       239 9.85956E-05-2.95304E-05-2.95988E-05-1.95230E-06 5.66591E-19 1.35946E-18
 -1       240 1.00490E-04-3.01012E-05-3.01672E-05-2.15364E-06 7.00764E-19 1.00507E-18
 -1       241 1.02540E-04-3.07315E-05-3.07770E-05-2.30825E-06-1.37653E-20-1.42804E-19
 -1       242 1.04665E-04-3.14054E-05-3.14001E-05-2.34303E-06 2.43311E-19-4.17940E-19
 -1       243 1.06711E-04-3.20857E-05-3.19861E-05-2.15038E-06-1.98039E-19-1.67474E-19
 -1       244 1.08430E-04-3.27036E-05-3.24574E-05-1.59604E-06 7.02607E-20-4.92153E-19
 -1       245 1.09475E-04-3.31484E-05-3.27118E-05-5.53300E-07 7.50617E-19 2.71610E-19
 -1       246 1.09440E-04-3.32662E-05-3.26415E-05 1.01948E-06 4.97268E-20 5.99923E-19
 -1       247 1.07973E-04-3.28834E-05-3.21721E-05 2.95737E-06-1.22538E-18 7.71217E-19
 -1       248 1.04979E-04-3.18814E-05-3.13179E-05 4.77441E-06-9.80149E-19 2.05413E-18
 -1       249 1.00868E-04-3.03298E-05-3.02281E-05 5.69334E-06 2.34486E-19 2.15966E-18
 -1       250 9.66749E-05-2.86090E-05-2.91819E-05 4.97704E-06 8.53783E-19 1.68848E-18
 -1       251 9.38112E-05-2.73542E-05-2.85034E-05 2.47489E-06 1.31098E-19 1.04351E-18
 -1       252 9.34193E-05-2.71451E-05-2.84235E-05-1.02089E-06-4.09256E-20 1.06832E-18
 -1       253 9.56782E-05-2.80928E-05-2.89717E-05-4.10633E-06-4.28109E-19 1.82336E-18
 -1       254 9.96831E-05-2.97531E-05-2.99610E-05-5.63866E-06 9.73503E-19 1.93822E-18
 -1       255 1.04012E-04-3.14522E-05-3.10812E-05-5.37184E-06 7.63170E-19 2.24918E-18
 -1       256 1.07466E-04-3.26912E-05-3.20336E-05-3.86079E-06-4.72277E-19 1.01690E-18
 -1       257 1.09458E-04-3.32991E-05-3.26345E-05-1.92287E-06 9.33755E-20 8.70707E-19
 -1       258 1.09970E-04-3.33513E-05-3.28383E-05-1.85894E-07 1.11937E-18 8.24296E-19
 -1       259 1.09314E-04-3.30215E-05-3.27024E-05 1.05597E-06 2.30639E-19 1.61758E-19
 -1       260 1.07906E-04-3.24815E-05-3.23307E-05 1.76955E-06 1.01142E-18-2.25718E-18
 -1       261 1.06122E-04-3.18616E-05-3.18304E-05 2.05495E-06 3.36291E-19-3.18324E-18
 -1       262 1.04245E-04-3.12465E-05-3.12877E-05 2.04828E-06-6.65485E-19-1.32611E-18
 -1       263 1.02459E-04-3.06840E-05-3.07617E-05 1.87094E-06-3.67032E-20-1.08910E-18
 -1       264 1.00867E-04-3.01966E-05-3.02870E-05 1.61270E-06-2.67179E-22-2.46444E-19
 -1       265 9.95119E-05-2.97905E-05-2.98796E-05 1.33225E-06-1.09488E-18-2.25216E-19
 -1       266 9.83997E-05-2.94626E-05-2.95430E-05 1.06391E-06 3.50947E-19 6.45670E-19
 -1       267 9.75138E-05-2.92049E-05-2.92737E-05 8.25165E-07-1.03614E-18 5.89771E-19
 -1       268 9.68268E-05-2.90074E-05-2.90639E-05 6.22747E-07 3.08709E-19 5.39386E-19
 -1       269 9.63078E-05-2.88598E-05-2.89049E-05 4.57043E-07 4.56047E-19-5.26923E-19
 -1       270 9.59261E-05-2.87524E-05-2.87876E-05 3.24993E-07-3.67630E-19-1.97696E-19
 -1       271 9.56541E-05-2.86766E-05-2.87037E-05 2.21908E-07 2.02113E-18-5.15780E-19
 -1       272 9.54680E-05-2.86254E-05-2.86460E-05 1.42562E-07 6.55134E-19-1.12508E-18
 -1       273 9.53480E-05-2.85930E-05-2.86088E-05 8.20877E-08 1.97951E-19-1.20382E-18
 -1       274 9.52781E-05-2.85745E-05-2.85869E-05 3.61525E-08 8.77393E-20-4.84227E-19
 -1       275 9.52447E-05-2.85668E-05-2.85759E-05 2.13733E-09 9.30058E-19-1.18339E-18
 -1       276 9.52362E-05-2.85703E-05-2.85703E-05-1.65614E-08 7.47797E-19-1.01858E-18
 -1       277 9.52429E-05-2.85694E-05-2.85741E-05-8.55764E-09-1.06420E-19 4.12108E-18
 -1       278 9.52405E-05-2.85502E-05-2.85815E-05 1.92980E-08 1.22842E-18 2.92695E-18
 -1       279 9.52270E-05-2.85123E-05-2.85920E-05 4.86906E-08 1.67759E-18-6.63963E-19
 -1       280 9.52075E-05-2.84610E-05-2.86056E-05 6.67723E-08 1.13585E-18 7.26217E-19
 -1       281 9.51864E-05-2.84063E-05-2.86202E-05 6.93635E-08-1.65616E-20-4.72571E-18
 -1       282 9.51674E-05-2.83565E-05-2.86334E-05 5.63670E-08-6.04814E-19-2.88762E-18
 -1       283 9.51544E-05-2.83225E-05-2.86425E-05 3.09762E-08-1.00074E-18 1.91368E-18
 -1       284 9.51500E-05-2.83108E-05-2.86456E-05-1.12244E-09 8.50302E-19 1.33223E-18
 -1       285 9.51549E-05-2.83238E-05-2.86421E-05-3.30814E-08 5.10184E-19-1.23249E-18
 -1       286 9.51683E-05-2.83589E-05-2.86327E-05-5.80406E-08-9.92409E-19-2.52898E-18
 -1       287 9.51873E-05-2.84085E-05-2.86195E-05-7.02112E-08-9.03645E-19-2.20159E-18
 -1       288 9.52089E-05-2.84646E-05-2.86047E-05-6.66923E-08-2.05614E-18 4.12107E-19
 -1       289 9.52284E-05-2.85157E-05-2.85912E-05-4.71931E-08-2.73125E-18-1.20946E-19
 -1       290 9.52405E-05-2.85512E-05-2.85809E-05-1.83144E-08-3.43723E-18 1.01408E-18
 -1       291 9.52468E-05-2.85610E-05-2.85795E-05 8.59207E-10-1.59804E-18 3.15393E-18
 -1       292 1.26084E-05-4.85373E-05 1.18970E-05 6.92920E-06-5.29078E-19 8.00584E-18
 -1       293 2.44221E-05-4.31567E-05 5.08572E-06 1.99538E-05 2.83184E-18 5.28527E-18
 -1       294 5.34300E-05-3.73263E-05-8.46140E-06 3.61443E-05 4.88505E-18 3.66892E-18
 -1       295 8.81757E-05-2.98467E-05-2.54010E-05 4.45645E-05 4.86832E-18 5.87396E-18
 -1       296 1.32390E-04-2.86998E-05-4.32623E-05 4.77421E-05 5.53705E-18 5.32466E-18
 -1       297 1.72767E-04-3.20260E-05-5.81581E-05 3.36725E-05 4.16176E-18 4.51109E-18
 -1       298 2.03752E-04-3.56575E-05-6.86315E-05 1.99469E-05 4.83921E-18 2.61881E-18
 -1       299 2.03047E-04-3.21509E-05-7.01497E-05-3.81229E-06 4.01430E-18 8.72709E-19
 -1       300 1.95597E-04-3.45492E-05-6.58450E-05-2.79325E-05 3.41910E-18-2.02229E-18
 -1       301 1.61967E-04-3.14899E-05-5.39434E-05-3.99269E-05 5.46421E-18-2.63957E-18
 -1       302 1.20600E-04-2.90011E-05-3.84770E-05-4.77976E-05 5.33440E-18-5.58639E-18
 -1       303 7.91008E-05-3.07258E-05-2.14344E-05-4.28039E-05 5.65882E-18-5.52625E-18
 -1       304 4.80976E-05-3.85205E-05-5.84309E-06-3.42722E-05 3.25197E-18-5.27770E-18
 -1       305 2.19801E-05-4.41115E-05 6.55344E-06-1.84594E-05 1.49014E-18-4.46524E-18
 -1       306 1.09117E-05-4.66401E-05 1.20555E-05-5.45183E-06-1.41507E-18-4.48313E-18
 -1       307 1.41524E-05-4.83365E-05 1.11906E-05 8.61456E-06-4.70633E-18-5.73050E-18
 -1       308 3.07613E-05-4.18087E-05 2.23861E-06 2.42756E-05-6.05586E-18-4.80890E-18
 -1       309 6.58430E-05-4.04449E-05-1.20528E-05 3.86863E-05-6.05480E-18-6.69283E-18
 -1       310 9.64762E-05-3.14612E-05-2.80985E-05 4.43590E-05-8.41125E-18-7.01153E-18
 -1       311 1.39588E-04-3.29462E-05-4.45723E-05 4.34104E-05-6.92206E-18-5.94490E-18
 -1       312 1.77623E-04-3.38016E-05-5.90263E-05 3.77684E-05-5.24437E-18-5.43922E-18
 -1       313 2.05005E-04-3.63358E-05-6.86806E-05 2.12255E-05-4.01060E-18-5.09808E-18
 -1       314 2.14714E-04-3.76152E-05-7.19995E-05-1.71276E-07-3.33593E-18-3.63106E-18
 -1       315 2.01014E-04-3.49620E-05-6.79300E-05-2.01105E-05-3.76432E-18-1.95728E-18
 -1       316 1.74367E-04-3.33383E-05-5.79248E-05-3.94076E-05-2.62147E-18 2.64698E-19
 -1       317 1.33097E-04-3.11537E-05-4.26565E-05-4.62152E-05-3.81059E-18 7.81176E-19
 -1       318 9.34966E-05-3.60091E-05-2.50925E-05-4.23959E-05-2.73422E-18 1.70529E-18
 -1       319 5.29437E-05-3.76367E-05-8.30931E-06-3.42252E-05-4.35142E-18 2.51743E-18
 -1       320 2.51882E-05-4.36043E-05 4.92493E-06-1.90352E-05-6.10944E-18 2.05654E-18
 -1       321 1.17380E-05-4.38625E-05 1.09676E-05-7.39217E-06-3.65092E-18 4.64534E-18
 -1       322 9.17066E-05-1.44349E-05-3.31939E-05-1.26796E-05-1.79955E-18-1.15114E-18
 -1       323 9.57243E-05-1.91222E-05-3.28912E-05-1.43766E-05-2.02504E-18-9.61779E-20
 -1       324 8.80343E-05-1.02382E-05-3.33958E-05-7.86438E-06-8.54207E-19-2.25219E-18
 -1       325 8.71659E-05-9.24898E-06-3.34406E-05-5.48410E-06-4.69093E-19-2.44251E-18
 -1       326 8.66572E-05-8.66588E-06-3.34688E-05-3.21579E-06 3.48486E-20-2.55742E-18
 -1       327 8.64240E-05-8.39757E-06-3.34822E-05-1.02163E-06 4.03287E-19-2.51939E-18
 -1       328 8.64326E-05-8.40795E-06-3.34815E-05 1.14839E-06 7.30751E-19-2.45450E-18
 -1       329 8.66844E-05-8.69872E-06-3.34665E-05 3.34559E-06 1.11626E-18-2.32254E-18
 -1       330 8.72035E-05-9.29541E-06-3.34370E-05 5.58030E-06 1.48916E-18-2.06442E-18
 -1       331 8.80962E-05-1.03148E-05-3.33896E-05 7.96440E-06 1.86695E-18-1.56801E-18
 -1       332 8.95510E-05-1.19676E-05-3.33162E-05 1.04503E-05 2.25606E-18-9.81549E-19
 -1       333 9.19743E-05-1.47118E-05-3.31930E-05 1.28654E-05 2.39888E-18-1.01856E-19
 -1       334 9.58131E-05-1.94639E-05-3.28280E-05 1.41186E-05 2.24924E-18 1.77289E-18
 -1       335 9.87296E-05-2.44347E-05-3.19277E-05 1.16944E-05 1.97016E-18 3.46189E-18
 -1       336 9.64206E-05-2.68078E-05-2.98040E-05 5.51495E-06 1.54402E-18 2.80675E-18
 -1       337 9.65176E-05-2.60188E-05-3.01687E-05-6.04748E-06-1.46760E-18 2.57893E-19
 -1       338 9.51188E-05-2.70248E-05-2.91571E-05-2.45062E-06-1.23607E-18 1.46824E-19
 -1       339 9.43026E-05-2.74342E-05-2.86424E-05-4.01159E-07-8.93084E-19 3.42445E-20
 -1       340 9.40014E-05-2.76718E-05-2.84189E-05 8.53812E-07-7.02551E-19-2.59509E-19
 -1       341 9.41004E-05-2.78636E-05-2.83826E-05 1.68294E-06-3.51200E-19-3.61293E-19
 -1       342 9.45023E-05-2.80507E-05-2.84759E-05 2.29765E-06-3.09255E-19-1.80052E-19
 -1       343 9.51442E-05-2.82485E-05-2.86665E-05 2.82878E-06-1.52581E-19-2.87921E-20
 -1       344 9.59932E-05-2.84673E-05-2.89364E-05 3.36194E-06-2.92500E-19-2.45539E-19
 -1       345 9.70397E-05-2.87203E-05-2.92761E-05 3.95222E-06-4.69463E-19-3.50972E-19
 -1       346 9.82906E-05-2.90272E-05-2.96803E-05 4.62726E-06-6.02057E-19-7.23071E-19
 -1       347 9.97636E-05-2.94190E-05-3.01437E-05 5.38188E-06-2.02833E-20-5.62469E-19
 -1       348 1.01483E-04-2.99433E-05-3.06569E-05 6.16386E-06-1.96795E-19 8.23290E-20
 -1       349 1.03478E-04-3.06719E-05-3.12017E-05 6.85035E-06-2.67997E-19-6.08437E-20
 -1       350 1.05775E-04-3.17031E-05-3.17486E-05 7.21641E-06-1.85748E-19-6.95041E-19
 -1       351 1.08388E-04-3.31467E-05-3.22566E-05 6.90607E-06-1.93999E-19 7.93614E-20
 -1       352 1.11277E-04-3.50588E-05-3.26840E-05 5.43642E-06 3.57134E-19 6.88260E-19
 -1       353 1.14243E-04-3.72758E-05-3.30113E-05 2.30245E-06 2.62320E-19 8.54048E-19
 -1       354 1.16733E-04-3.91388E-05-3.32839E-05-2.68270E-06-7.42676E-20 4.82208E-19
 -1       355 1.17749E-04-3.93573E-05-3.36189E-05-8.73269E-06-5.53563E-19 2.91261E-19
 -1       356 1.16153E-04-3.64926E-05-3.41706E-05-1.34928E-05-5.55578E-19 4.35741E-19
 -1       357 1.12144E-04-3.07837E-05-3.48990E-05-1.32689E-05-3.80338E-19 7.11342E-20
 -1       358 1.08150E-04-2.53877E-05-3.55152E-05-6.22468E-06-5.44867E-19 1.05171E-18
 -1       359 1.07822E-04-2.49288E-05-3.55822E-05 4.63579E-06-5.32539E-19 3.69925E-19
 -1       360 1.11400E-04-2.97264E-05-3.50411E-05 1.26800E-05-4.54900E-19-6.64913E-19
 -1       361 1.15707E-04-3.57306E-05-3.42979E-05 1.39482E-05-4.25533E-20-6.01863E-19
 -1       362 1.17781E-04-3.91449E-05-3.37217E-05 9.77511E-06 4.42075E-19 3.68932E-19
 -1       363 1.17163E-04-3.93457E-05-3.33766E-05 3.75038E-06 4.44338E-19-4.61557E-19
 -1       364 1.14878E-04-3.76463E-05-3.31254E-05-1.45099E-06-5.50737E-20-1.97335E-18
 -1       365 1.12006E-04-3.54360E-05-3.28358E-05-4.82375E-06-7.63288E-19-1.40569E-19
 -1       366 1.09172E-04-3.34738E-05-3.24534E-05-6.45835E-06-2.39028E-19 9.83435E-20
 -1       367 1.06616E-04-3.19777E-05-3.19916E-05-6.83561E-06-4.24242E-19-1.00419E-18
 -1       368 1.04398E-04-3.09163E-05-3.14915E-05-6.45154E-06 2.08653E-19-1.65215E-18
 -1       369 1.02514E-04-3.01842E-05-3.09949E-05-5.68626E-06-6.20706E-19-1.42018E-18
 -1       370 1.00936E-04-2.96808E-05-3.05332E-05-4.78779E-06-1.93521E-19-1.29517E-18
 -1       371 9.96331E-05-2.93315E-05-3.01245E-05-3.89972E-06-2.25260E-19-7.97277E-19
 -1       372 9.85739E-05-2.90863E-05-2.97760E-05-3.09487E-06 1.76436E-18 1.05608E-18
 -1       373 9.77263E-05-2.89126E-05-2.94878E-05-2.40270E-06 5.01600E-19 7.59721E-19
 -1       374 9.70589E-05-2.87895E-05-2.92552E-05-1.82812E-06 7.31844E-20 2.68301E-18
 -1       375 9.65423E-05-2.87028E-05-2.90716E-05-1.36339E-06-6.67524E-19 2.49422E-18
 -1       376 9.61494E-05-2.86426E-05-2.89295E-05-9.95087E-07-2.18875E-19 2.97979E-18
 -1       377 9.58562E-05-2.86018E-05-2.88218E-05-7.08049E-07 7.74419E-19 1.29016E-18
 -1       378 9.56421E-05-2.85751E-05-2.87418E-05-4.87474E-07 2.15320E-18 1.80897E-18
 -1       379 9.54895E-05-2.85584E-05-2.86839E-05-3.19949E-07 1.86955E-18 2.06332E-18
 -1       380 9.53838E-05-2.85488E-05-2.86429E-05-1.94182E-07 1.69040E-18 3.04304E-18
 -1       381 9.53130E-05-2.85450E-05-2.86143E-05-1.01027E-07-1.44949E-18 5.14964E-19
 -1       382 9.52715E-05-2.85495E-05-2.85949E-05-3.88825E-08-7.69230E-19 1.64691E-18
 -1       383 9.45273E-05-2.73556E-05-2.87491E-05 2.18489E-06 1.30874E-18 2.32344E-18
 -1       384 9.34909E-05-2.75067E-05-2.82562E-05 3.64138E-07 1.00555E-18 1.72083E-18
 -1       385 9.31650E-05-2.76310E-05-2.80748E-05-6.95860E-07 6.71794E-19 1.45166E-18
 -1       386 9.33282E-05-2.77905E-05-2.80817E-05-1.35910E-06 1.90322E-19 9.89782E-19
 -1       387 9.38340E-05-2.79934E-05-2.82137E-05-1.81891E-06 4.66541E-19 4.82598E-19
 -1       388 9.45946E-05-2.82379E-05-2.84358E-05-2.18469E-06 7.11939E-19 6.88875E-19
 -1       389 9.55629E-05-2.85247E-05-2.87281E-05-2.52044E-06 6.42255E-19 5.94587E-19
 -1       390 9.67172E-05-2.88594E-05-2.90796E-05-2.85930E-06 9.33209E-20 6.95581E-19
 -1       391 9.80491E-05-2.92522E-05-2.94824E-05-3.20726E-06 5.71582E-19 2.88837E-19
 -1       392 9.95526E-05-2.97170E-05-2.99283E-05-3.54024E-06 9.03391E-19 3.71602E-19
 -1       393 1.01211E-04-3.02697E-05-3.04038E-05-3.79722E-06 9.24976E-19-5.21939E-20
 -1       394 1.02986E-04-3.09237E-05-3.08864E-05-3.87184E-06 6.35477E-20-6.25773E-19
 -1       395 1.04797E-04-3.16813E-05-3.13410E-05-3.60798E-06-4.30193E-19-2.73380E-19
 -1       396 1.06505E-04-3.25156E-05-3.17197E-05-2.81072E-06 1.09543E-19 8.71079E-20
 -1       397 1.07897E-04-3.33392E-05-3.19667E-05-1.29219E-06 2.29212E-20 1.27090E-19
 -1       398 1.08671E-04-3.39649E-05-3.20316E-05 1.02412E-06 2.18081E-19 1.22930E-18
 -1       399 1.08473E-04-3.40863E-05-3.18926E-05 3.93308E-06-9.67780E-19 8.10025E-19
 -1       400 1.07012E-04-3.33468E-05-3.15781E-05 6.76923E-06-1.51311E-18 2.92569E-19
 -1       401 1.04322E-04-3.15819E-05-3.11731E-05 8.39773E-06-1.45683E-19 1.15779E-19
 -1       402 1.01055E-04-2.91744E-05-3.07972E-05 7.64235E-06 1.24290E-18 3.45957E-19
 -1       403 9.84570E-05-2.71208E-05-3.05597E-05 4.11788E-06 4.96388E-19-3.41913E-19
 -1       404 9.78075E-05-2.65632E-05-3.05170E-05-1.10750E-06-6.63276E-19 5.84817E-22
 -1       405 9.94639E-05-2.78417E-05-3.06778E-05-5.88621E-06-2.27375E-19 3.31433E-19
 -1       406 1.02586E-04-3.02078E-05-3.10058E-05-8.35622E-06 9.60829E-19 3.54755E-19
 -1       407 1.05784E-04-3.24638E-05-3.14204E-05-8.05412E-06 6.45698E-19 2.05740E-18
 -1       408 1.08023E-04-3.38283E-05-3.18064E-05-5.80053E-06-2.88676E-19 1.92615E-18
 -1       409 1.08955E-04-3.41835E-05-3.20604E-05-2.84945E-06 5.72730E-19 2.78750E-18
 -1       410 1.08739E-04-3.38186E-05-3.21251E-05-1.71208E-07 1.56610E-18 1.67265E-18
 -1       411 1.07729E-04-3.30935E-05-3.20000E-05 1.77096E-06 1.29978E-18 2.94526E-20
 -1       412 1.06273E-04-3.22713E-05-3.17241E-05 2.91003E-06 2.33742E-18-7.56411E-19
 -1       413 1.04642E-04-3.14962E-05-3.13527E-05 3.38527E-06-8.06255E-20-1.20549E-18
 -1       414 1.03017E-04-3.08274E-05-3.09393E-05 3.39716E-06-1.49838E-18-5.27915E-19
 -1       415 1.01508E-04-3.02775E-05-3.05261E-05 3.12990E-06-3.66426E-19 5.76884E-19
 -1       416 1.00174E-04-2.98382E-05-3.01415E-05 2.72351E-06 3.16367E-19 8.62384E-19
 -1       417 9.90380E-05-2.94943E-05-2.98014E-05 2.27229E-06-1.16129E-18 4.09807E-19
 -1       418 9.80987E-05-2.92295E-05-2.95123E-05 1.83341E-06-3.55958E-19 3.45092E-19
 -1       419 9.73421E-05-2.90287E-05-2.92743E-05 1.43748E-06-1.41037E-18 1.21452E-18
 -1       420 9.67472E-05-2.88791E-05-2.90839E-05 1.09760E-06-1.32836E-19 1.88921E-18
 -1       421 9.62900E-05-2.87697E-05-2.89352E-05 8.16167E-07 4.93854E-19 2.03120E-18
 -1       422 9.59469E-05-2.86915E-05-2.88221E-05 5.89515E-07-1.11029E-19 1.62208E-18
 -1       423 9.56958E-05-2.86370E-05-2.87382E-05 4.10934E-07 2.21055E-18 1.55393E-18
 -1       424 9.55176E-05-2.86003E-05-2.86778E-05 2.72502E-07 4.09625E-19 5.25608E-19
 -1       425 9.53961E-05-2.85771E-05-2.86359E-05 1.66705E-07-4.79120E-19 1.33121E-18
 -1       426 9.53171E-05-2.85636E-05-2.86081E-05 8.71186E-08 5.40374E-19 2.18003E-18
 -1       427 9.52699E-05-2.85590E-05-2.85900E-05 2.94302E-08 7.78613E-19 2.03155E-18
 -1       428 9.52528E-05-2.85606E-05-2.85822E-05 6.43587E-09 1.23225E-18 3.46319E-18
 -1       429 9.52145E-05-2.84325E-05-2.86207E-05 1.21644E-07-4.91916E-19-4.16172E-19
 -1       430 9.52465E-05-2.84946E-05-2.86077E-05 8.63360E-08-5.21626E-20 8.22948E-19
 -1       431 9.52563E-05-2.85353E-05-2.85945E-05 4.33262E-08 4.06512E-19 4.36821E-18
 -1       432 9.51781E-05-2.83677E-05-2.86330E-05 1.34321E-07-1.23435E-18-3.96288E-18
 -1       433 9.51422E-05-2.83063E-05-2.86440E-05 1.20380E-07-6.00069E-19-2.96759E-18
 -1       434 9.51144E-05-2.82594E-05-2.86523E-05 8.25108E-08 5.98231E-19-9.14475E-19
 -1       435 9.50993E-05-2.82340E-05-2.86568E-05 2.83569E-08-1.52550E-18 2.78092E-18
 -1       436 9.50995E-05-2.82342E-05-2.86568E-05-3.14647E-08-1.21763E-18 1.23222E-19
 -1       437 9.51150E-05-2.82601E-05-2.86523E-05-8.52879E-08-1.32486E-18-2.59087E-18
 -1       438 9.51428E-05-2.83066E-05-2.86442E-05-1.21977E-07-1.88340E-19-1.64581E-18
 -1       439 9.51791E-05-2.83683E-05-2.86332E-05-1.35166E-07 3.77180E-19 1.38411E-18
 -1       440 9.52166E-05-2.84349E-05-2.86206E-05-1.21082E-07 3.54872E-19-1.88747E-18
 -1       441 9.52484E-05-2.84976E-05-2.86073E-05-8.32442E-08-3.20622E-19-4.31405E-19
 -1       442 5.18366E-05-3.90685E-05-5.76558E-06 4.16712E-05 5.76406E-19 3.44716E-18
 -1       443 1.13131E-05-2.27905E-05 4.60099E-06 2.51805E-06-6.86925E-19 6.70511E-18
 -1       444 2.30129E-05-2.78818E-05 1.77403E-06 2.64387E-05-1.24006E-18 6.54735E-18
 -1       445 1.01939E-04-5.40464E-05-2.04085E-05 4.09416E-05 6.34216E-20 2.53978E-18
 -1       446 1.27674E-04-5.42013E-05-3.15920E-05 2.84308E-05 1.06970E-18 3.60307E-19
 -1       447 8.94347E-05-1.18304E-05-3.33248E-05-1.03340E-05-1.35333E-18-1.89017E-18
 -1       448 1.58784E-04-2.35646E-05-5.76647E-05 7.41753E-07 3.54081E-18-3.73330E-19
 -1       449 1.59439E-04-1.39553E-05-6.21005E-05-6.34556E-07 4.19504E-18 1.18336E-18
 -1       450 1.55534E-04-1.54793E-05-5.99555E-05 1.86584E-06 3.70249E-18 1.40639E-18
 -1       451 1.56521E-04-2.83027E-05-5.48087E-05-1.45910E-06 4.17714E-18 6.83238E-19
 -1       452 1.45357E-04-4.77680E-05-4.19552E-05-1.23705E-05 2.80770E-18 7.25695E-19
 -1       453 1.28185E-04-5.40845E-05-3.16753E-05-2.95301E-05 1.56616E-18-9.73982E-19
 -1       454 8.86907E-05-4.97166E-05-1.68203E-05-4.31112E-05 2.70415E-19-3.27823E-18
 -1       455 4.93269E-05-3.62629E-05-5.57068E-06-4.13156E-05-1.28294E-18-4.46333E-18
 -1       456 2.34915E-05-2.47984E-05 6.74213E-07-2.58845E-05-1.82117E-18-5.04366E-18
 -1       457 1.41224E-05-1.95892E-05 2.51561E-06 5.98172E-06-1.90110E-18-5.24832E-18
 -1       458 2.85929E-05-3.04167E-05 4.85954E-07 2.93583E-05-1.36161E-18-4.70537E-18
 -1       459 6.24302E-05-4.27793E-05-8.56989E-06 4.21836E-05-1.73123E-18-4.52088E-18
 -1       460 1.07653E-04-5.40639E-05-2.30301E-05 3.70584E-05-2.90543E-18-3.22741E-18
 -1       461 1.34102E-04-5.39407E-05-3.44038E-05 2.56306E-05-4.25353E-18-1.27987E-18
 -1       462 1.55190E-04-4.19935E-05-4.82972E-05 1.02011E-05-4.27449E-18-1.47341E-18
 -1       463 1.59344E-04-2.66519E-05-5.67375E-05-1.89262E-06-3.97502E-18-1.76426E-18
 -1       464 1.61483E-04-1.55985E-05-6.22620E-05-1.50147E-06-3.19967E-18-2.21012E-18
 -1       465 1.65045E-04-1.68824E-05-6.30247E-05 8.86092E-07-3.55659E-18-2.71379E-18
 -1       466 1.62691E-04-2.89075E-05-5.69988E-05-1.69210E-06-2.45618E-18-2.37317E-18
 -1       467 1.52713E-04-4.44599E-05-4.63017E-05-1.00053E-05-1.18028E-18-2.74492E-18
 -1       468 1.35196E-04-5.38053E-05-3.47844E-05-2.54044E-05-4.13087E-19-2.69494E-18
 -1       469 9.67920E-05-5.31887E-05-1.88166E-05-4.06676E-05 1.02586E-18-2.28005E-18
 -1       470 5.49159E-05-4.05365E-05-6.40081E-06-4.08712E-05-2.41193E-19-1.43773E-18
 -1       471 2.59676E-05-2.90695E-05 1.08784E-06-2.73299E-05-2.45745E-19 8.83561E-19
 -1       472 1.50169E-04-4.18644E-05-4.63343E-05 1.20918E-05 1.60778E-18-1.59983E-19
 -1       473 2.21042E-05-1.73142E-05-1.63312E-06-1.53645E-05 1.66153E-18 3.14789E-18
 -1       474 9.61932E-05-5.37796E-05-1.80398E-05 4.05867E-05-8.86843E-19-3.28614E-18
 -1       475 9.59423E-05-2.51154E-05-3.03400E-05 5.63361E-06 1.68200E-18 7.08016E-19
 -1       476 8.93858E-05-1.30160E-05-3.27486E-05-3.67052E-06-1.78515E-19-2.14065E-18
 -1       477 9.01741E-05-1.40677E-05-3.26380E-05-5.54002E-06-4.71625E-19-2.04212E-18
 -1       478 8.88101E-05-1.22573E-05-3.28256E-05 5.08962E-08 5.16526E-19-2.21282E-18
 -1       479 8.89669E-05-1.24637E-05-3.28047E-05 1.90630E-06 8.52897E-19-2.11647E-18
 -1       480 8.94184E-05-1.30612E-05-3.27433E-05 3.74199E-06 1.22568E-18-1.94671E-18
 -1       481 9.02231E-05-1.41375E-05-3.26288E-05 5.60736E-06 1.63269E-18-1.47338E-18
 -1       482 9.14537E-05-1.58187E-05-3.24379E-05 7.38760E-06 1.89398E-18-1.06010E-18
 -1       483 9.33022E-05-1.83861E-05-3.21270E-05 8.90124E-06 2.06934E-18-5.42882E-19
 -1       484 9.53326E-05-2.65279E-05-2.94693E-05 2.36972E-06 1.44635E-18 4.70396E-19
 -1       485 9.56097E-05-2.43561E-05-3.05275E-05-5.37455E-06-1.28792E-18-5.83037E-19
 -1       486 1.40127E-04-5.38936E-05-3.71709E-05 6.78904E-06 9.34608E-19-1.99487E-18
 -1       487 9.54844E-05-2.61126E-05-2.97237E-05-2.28599E-06-1.01938E-18-4.57778E-19
 -1       488 9.52351E-05-2.69999E-05-2.92395E-05-2.02707E-07-7.90861E-19-2.56863E-19
 -1       489 9.51035E-05-2.74825E-05-2.89782E-05 1.21746E-06-6.06947E-19-1.77986E-19
 -1       490 9.51363E-05-2.77561E-05-2.88758E-05 2.24282E-06-3.26620E-19-4.11940E-19
 -1       491 9.53242E-05-2.79121E-05-2.88896E-05 3.05973E-06-4.73245E-19-6.63412E-19
 -1       492 9.56481E-05-2.79991E-05-2.89911E-05 3.79864E-06-2.35857E-19-7.47942E-19
 -1       493 9.60943E-05-2.80505E-05-2.91602E-05 4.54967E-06-5.23711E-19-7.19348E-19
 -1       494 9.66600E-05-2.80999E-05-2.93812E-05 5.37008E-06-6.98551E-19-3.01578E-19
 -1       495 9.73568E-05-2.81926E-05-2.96400E-05 6.28459E-06 4.64094E-20-8.72053E-20
 -1       496 9.82175E-05-2.83988E-05-2.99205E-05 7.27866E-06 2.83750E-19-7.83388E-20
 -1       497 9.93092E-05-2.88316E-05-3.02035E-05 8.28399E-06-1.65226E-19 7.61259E-20
 -1       498 1.00753E-04-2.96642E-05-3.04666E-05 9.15497E-06-5.43940E-19 2.52842E-19
 -1       499 1.02745E-04-3.11382E-05-3.06914E-05 9.63505E-06 9.57168E-20 7.76261E-19
 -1       500 1.05559E-04-3.35243E-05-3.08791E-05 9.31668E-06 2.55431E-19 8.11328E-19
 -1       501 1.09469E-04-3.69706E-05-3.10837E-05 7.61456E-06 5.09959E-19 9.52089E-19
 -1       502 1.14493E-04-4.11189E-05-3.14574E-05 3.81266E-06-7.95417E-21 1.29000E-18
 -1       503 1.19779E-04-4.43996E-05-3.23255E-05-2.56832E-06-3.23340E-19 1.09560E-18
 -1       504 1.23212E-04-4.41392E-05-3.39222E-05-1.04001E-05-1.99840E-19 1.02518E-18
 -1       505 1.22131E-04-3.65127E-05-3.68047E-05-1.64012E-05-7.19621E-19 1.07876E-18
 -1       506 1.16832E-04-2.47056E-05-3.98052E-05-1.38416E-05-5.79887E-19 8.02415E-19
 -1       507 1.13604E-04-1.83567E-05-4.10887E-05-1.13661E-06-1.11117E-18 6.28593E-19
 -1       508 1.16298E-04-2.34733E-05-3.99940E-05 1.19955E-05-1.81933E-18 3.16923E-19
 -1       509 1.21512E-04-3.49906E-05-3.72360E-05 1.64191E-05-5.78299E-19-1.40998E-19
 -1       510 1.23463E-04-4.32696E-05-3.44192E-05 1.17784E-05 5.63274E-19-8.40852E-19
 -1       511 1.20581E-04-4.46532E-05-3.25590E-05 3.90328E-06 2.13102E-19-8.85374E-19
 -1       512 1.15451E-04-4.17332E-05-3.16072E-05-2.76286E-06 1.68482E-19-4.92291E-19
 -1       513 1.10330E-04-3.75642E-05-3.11980E-05-6.89657E-06 3.82297E-19 6.05653E-19
 -1       514 1.06279E-04-3.39660E-05-3.09989E-05-8.80684E-06-8.69694E-19 1.61316E-19
 -1       515 1.03354E-04-3.14076E-05-3.08370E-05-9.21099E-06-1.29023E-18-6.32509E-19
 -1       516 1.01310E-04-2.98031E-05-3.06461E-05-8.71539E-06-8.98311E-19-5.79977E-19
 -1       517 9.98664E-05-2.88893E-05-3.04174E-05-7.76051E-06-3.67878E-21-1.09782E-18
 -1       518 9.88105E-05-2.84174E-05-3.01664E-05-6.62905E-06-2.38996E-20-8.10908E-19
 -1       519 9.80082E-05-2.82059E-05-2.99130E-05-5.48986E-06 5.03236E-19 3.96302E-19
 -1       520 9.73801E-05-2.81379E-05-2.96732E-05-4.43504E-06 1.24123E-18 5.80184E-19
 -1       521 9.68807E-05-2.81434E-05-2.94571E-05-3.50769E-06 1.30813E-18-1.75870E-19
 -1       522 9.64820E-05-2.81830E-05-2.92695E-05-2.72116E-06 8.26446E-19 1.16054E-18
 -1       523 9.61653E-05-2.82352E-05-2.91117E-05-2.07183E-06 3.49312E-19 2.35739E-18
 -1       524 9.59164E-05-2.82891E-05-2.89822E-05-1.54722E-06-7.33009E-19 2.39097E-18
 -1       525 9.57233E-05-2.83391E-05-2.88782E-05-1.13098E-06-2.12038E-18 1.42470E-18
 -1       526 9.55759E-05-2.83828E-05-2.87965E-05-8.05980E-07 1.39006E-18 1.56381E-18
 -1       527 9.54650E-05-2.84195E-05-2.87333E-05-5.55899E-07 2.29063E-18 1.80707E-18
 -1       528 9.53826E-05-2.84496E-05-2.86852E-05-3.66239E-07 2.33105E-18 1.35600E-18
 -1       529 9.53222E-05-2.84743E-05-2.86488E-05-2.24928E-07-5.49178E-19-4.78011E-19
 -1       530 9.46802E-05-2.76212E-05-2.87351E-05-1.03822E-06 8.23709E-19 2.30095E-20
 -1       531 9.47447E-05-2.78746E-05-2.86562E-05-1.95742E-06 7.19485E-19-3.12029E-19
 -1       532 9.50276E-05-2.80685E-05-2.86950E-05-2.64337E-06 5.21408E-19-6.09871E-19
 -1       533 9.54929E-05-2.82424E-05-2.88202E-05-3.21687E-06 2.70007E-19-4.85126E-19
 -1       534 9.61184E-05-2.84247E-05-2.90102E-05-3.75071E-06 2.08700E-19-4.40335E-20
 -1       535 9.68965E-05-2.86447E-05-2.92494E-05-4.27941E-06 6.54074E-19-1.81208E-19
 -1       536 9.78319E-05-2.89391E-05-2.95244E-05-4.80012E-06 1.08997E-18-6.66876E-19
 -1       537 9.89402E-05-2.93562E-05-2.98213E-05-5.26779E-06 9.23566E-19-5.04970E-19
 -1       538 1.00245E-04-2.99572E-05-3.01241E-05-5.58660E-06 4.42936E-19-4.59197E-19
 -1       539 1.01773E-04-3.08112E-05-3.04149E-05-5.60082E-06-4.08159E-19-2.00452E-19
 -1       540 1.03541E-04-3.19741E-05-3.06767E-05-5.09237E-06-5.77128E-19 5.50272E-19
 -1       541 1.05522E-04-3.34396E-05-3.09006E-05-3.80009E-06-5.48115E-20 7.85639E-19
 -1       542 1.07580E-04-3.50480E-05-3.10961E-05-1.48804E-06-4.77145E-19 1.44266E-18
 -1       543 1.09385E-04-3.63714E-05-3.13021E-05 1.89870E-06-9.80379E-19 2.09886E-18
 -1       544 1.10355E-04-3.66645E-05-3.15899E-05 5.97124E-06-1.09437E-18 2.23260E-18
 -1       545 1.09800E-04-3.50810E-05-3.20281E-05 9.60132E-06-7.09328E-20 1.50481E-18
 -1       546 1.07510E-04-3.14313E-05-3.26070E-05 1.09325E-05 5.22354E-19 6.85394E-19
 -1       547 1.04352E-04-2.69156E-05-3.31893E-05 8.40313E-06 1.48325E-18 1.13695E-18
 -1       548 1.02337E-04-2.41219E-05-3.35284E-05 2.11679E-06 3.93804E-19 3.90234E-19
 -1       549 1.02934E-04-2.49242E-05-3.34387E-05-5.20631E-06-2.74194E-19-8.74463E-19
 -1       550 1.05732E-04-2.88042E-05-3.29683E-05-1.00957E-05 2.45367E-19-1.28866E-18
 -1       551 1.08729E-04-3.32011E-05-3.23700E-05-1.08705E-05 2.98725E-19-1.07978E-18
 -1       552 1.10342E-04-3.60275E-05-3.18543E-05-8.33044E-06 1.88609E-19-1.42003E-18
 -1       553 1.10201E-04-3.67173E-05-3.15038E-05-4.36579E-06 2.21676E-19-1.61972E-18
 -1       554 1.08834E-04-3.58773E-05-3.12786E-05-5.56422E-07 6.51741E-19-1.55550E-18
 -1       555 1.06919E-04-3.43610E-05-3.11063E-05 2.31329E-06 1.32625E-18 5.18338E-19
 -1       556 1.04935E-04-3.27848E-05-3.09285E-05 4.08046E-06 1.73274E-18 1.35377E-18
 -1       557 1.03121E-04-3.14500E-05-3.07197E-05 4.90295E-06 4.76580E-19 2.93149E-18
 -1       558 1.01556E-04-3.04391E-05-3.04800E-05 5.04149E-06-7.09548E-19 3.22802E-18
 -1       559 1.00245E-04-2.97250E-05-3.02224E-05 4.74639E-06-2.77766E-19 1.31196E-18
 -1       560 9.91618E-05-2.92441E-05-2.99632E-05 4.21536E-06-1.46373E-19 2.30955E-19
 -1       561 9.82755E-05-2.89319E-05-2.97167E-05 3.58762E-06 2.30825E-21 9.90141E-19
 -1       562 9.75573E-05-2.87360E-05-2.94928E-05 2.95258E-06-2.25493E-19 1.66598E-18
 -1       563 9.69817E-05-2.86175E-05-2.92970E-05 2.36216E-06-1.50915E-18 2.05447E-18
 -1       564 9.65263E-05-2.85496E-05-2.91312E-05 1.84235E-06-1.05646E-18 8.37433E-19
 -1       565 9.61709E-05-2.85138E-05-2.89945E-05 1.40224E-06 9.36480E-19 1.21588E-18
 -1       566 9.58981E-05-2.84980E-05-2.88846E-05 1.04064E-06 3.88984E-19 8.24829E-19
 -1       567 9.56922E-05-2.84940E-05-2.87983E-05 7.50674E-07 1.41517E-18 1.13739E-18
 -1       568 9.55398E-05-2.84967E-05-2.87320E-05 5.23053E-07 5.06889E-19 3.23768E-18
 -1       569 9.54292E-05-2.85022E-05-2.86823E-05 3.47925E-07-6.68339E-19 3.69574E-18
 -1       570 9.53511E-05-2.85108E-05-2.86454E-05 2.13734E-07-8.40238E-19 2.81281E-18
 -1       571 9.52957E-05-2.85201E-05-2.86178E-05 1.14683E-07 1.70152E-19 4.46039E-18
 -1       572 9.51215E-05-2.82505E-05-2.86590E-05 2.01115E-07 1.73092E-18-3.76531E-18
 -1       573 9.50665E-05-2.81787E-05-2.86663E-05 1.57347E-07 9.70587E-19-2.03218E-18
 -1       574 9.52424E-05-2.84228E-05-2.86370E-05 1.83559E-07 2.05883E-19-8.41170E-19
 -1       575 9.51847E-05-2.83359E-05-2.86494E-05 2.09514E-07-7.68860E-19-1.66126E-18
 -1       576 9.50295E-05-2.81311E-05-2.86708E-05 8.55710E-08 6.75092E-19-3.07439E-19
 -1       577 9.50165E-05-2.81143E-05-2.86725E-05-1.47484E-09-7.60208E-19 1.32258E-18
 -1       578 9.50298E-05-2.81307E-05-2.86712E-05-8.84815E-08-1.47119E-18-6.97343E-19
 -1       579 9.50664E-05-2.81770E-05-2.86670E-05-1.59008E-07 1.24483E-18-8.83833E-19
 -1       580 9.51221E-05-2.82489E-05-2.86600E-05-2.02724E-07 1.28925E-18-1.03013E-18
 -1       581 9.51860E-05-2.83356E-05-2.86502E-05-2.10360E-07 9.93502E-20 1.93998E-19
 -1       582 9.52458E-05-2.84243E-05-2.86376E-05-1.81859E-07-4.55788E-19-8.71367E-19
 -1       583 2.64870E-05-1.48563E-05-4.31419E-06 1.62535E-05 3.89106E-19 6.39033E-18
 -1       584 8.33725E-05-4.57442E-05-1.57890E-05 4.19702E-05-5.95782E-19 5.67036E-19
 -1       585 9.48755E-05-2.72323E-05-2.89806E-05 3.04394E-07 1.09782E-18 2.22613E-19
 -1       586 1.23685E-04-5.94952E-05-2.74855E-05 2.52177E-05-5.46495E-19-7.37527E-19
 -1       587 1.26620E-04-6.13637E-05-2.78757E-05-2.44499E-05 1.45864E-18-2.43477E-18
 -1       588 1.41619E-04-3.33639E-05-4.68390E-05-9.11685E-06 1.73441E-18-1.88915E-18
 -1       589 1.46207E-04-3.72056E-05-4.71168E-05 9.63047E-06-4.86567E-19-2.54872E-18
 -1       590 1.16814E-04-5.87668E-05-2.48075E-05-3.16757E-05-4.88526E-19-4.02870E-20
 -1       591 1.36525E-04-1.39546E-05-5.31178E-05-8.21905E-06 2.88817E-18-1.14326E-18
 -1       592 8.89456E-05-1.24352E-05-3.28078E-05-1.80421E-06 2.45901E-19-2.19185E-18
 -1       593 1.31470E-04-7.41847E-06-5.37876E-05 1.64206E-06 3.00760E-18-6.24852E-20
 -1       594 8.53461E-05-4.72036E-05-1.59742E-05-4.25076E-05-2.14744E-18-2.96454E-18
 -1       595 1.34642E-04-2.01460E-05-4.96953E-05 1.14173E-05 3.56643E-18 1.70412E-18
 -1       596 1.40794E-04-4.05596E-05-4.33571E-05 7.36858E-06 2.67776E-18 3.29295E-18
 -1       597 1.36412E-04-5.73208E-05-3.40664E-05-1.03889E-05-9.97911E-21 1.43456E-18
 -1       598 3.13208E-05-1.84912E-05-4.96428E-06 2.23383E-05-8.64503E-20-3.87740E-18
 -1       599 4.63348E-05-2.50090E-05-8.60776E-06-3.42218E-05-2.18984E-18-4.39292E-18
 -1       600 1.44534E-04-3.72547E-05-4.64219E-05-1.07257E-05-2.94286E-18-5.36542E-19
 -1       601 2.66287E-05-1.35544E-05-4.97270E-06-1.15212E-05-1.47348E-18-4.66133E-18
 -1       602 5.45195E-05-3.27609E-05-8.91935E-06 3.87875E-05 1.48919E-19-3.75204E-18
 -1       603 1.30304E-04-6.18679E-05-2.93074E-05 2.15827E-05-1.44589E-18 9.48624E-19
 -1       604 8.59138E-05-4.83123E-05-1.58215E-05-4.14160E-05 1.70741E-18-3.63221E-18
 -1       605 1.44306E-04-5.42224E-05-3.88364E-05 2.51850E-06-2.60527E-18 1.03735E-18
 -1       606 1.37665E-04-1.72598E-05-5.22233E-05-1.06567E-05-2.87737E-18-1.22722E-18
 -1       607 1.36244E-04-9.68182E-06-5.48317E-05 6.52176E-07-3.06404E-18-2.42539E-18
 -1       608 1.42455E-04-1.81600E-05-5.37534E-05 9.89631E-06-3.34599E-18-3.59110E-18
 -1       609 1.43206E-04-5.56087E-05-3.77831E-05-3.46969E-06-1.69919E-19-4.67139E-18
 -1       610 5.07811E-05-3.02242E-05-8.30108E-06-3.70278E-05 1.82154E-18-1.25477E-18
 -1       611 9.46826E-05-2.07093E-05-3.17212E-05-9.06597E-06-1.67058E-18-8.70483E-19
 -1       612 9.62213E-05-2.31796E-05-3.13069E-05 9.27634E-06 2.06871E-18 1.13608E-18
 -1       613 4.91406E-05-2.83745E-05-8.35523E-06 3.73311E-05-1.29850E-18 5.13900E-18
 -1       614 9.13662E-05-1.57033E-05-3.24507E-05-7.30769E-06-9.02597E-19-1.74685E-18
 -1       615 9.28278E-05-1.78153E-05-3.21697E-05-8.48844E-06-1.31408E-18-1.31465E-18
 -1       616 8.18143E-05-4.39001E-05-1.58618E-05 3.92599E-05 1.07203E-18-3.86986E-18
 -1       617 1.06615E-04-5.37499E-05-2.24094E-05 3.28633E-05-7.74929E-19 1.75670E-19
 -1       618 3.37257E-05-1.16306E-05-8.87849E-06 5.11725E-06-1.88151E-19-3.70985E-18
 -1       619 9.52913E-05-2.84908E-05-2.86286E-05-1.49571E-07-1.56277E-18 1.02631E-18
 -1       620 9.12261E-05-1.62449E-05-3.21403E-05 2.17549E-06 1.02009E-18-1.67059E-18
 -1       621 9.09099E-05-1.57850E-05-3.22016E-05 7.45071E-07 6.52212E-19-1.83426E-18
 -1       622 9.27901E-05-1.86301E-05-3.17884E-05 4.77766E-06 1.48954E-18-1.07763E-18
 -1       623 9.40079E-05-2.07051E-05-3.14233E-05 5.62937E-06 1.73229E-18-6.67577E-19
 -1       624 9.53806E-05-2.39496E-05-3.06032E-05 4.61433E-06 1.69036E-18-3.26620E-19
 -1       625 1.10412E-04-5.52803E-05-2.34761E-05-2.96356E-05 2.31510E-18-2.77726E-18
 -1       626 1.36635E-04-4.68914E-05-3.87421E-05-1.14371E-05-3.69280E-19 2.71812E-18
 -1       627 9.55019E-05-2.53745E-05-3.00530E-05-1.61850E-06-7.52806E-19-6.98963E-19
 -1       628 9.55759E-05-2.64835E-05-2.96103E-05 2.36353E-07-6.33127E-19-6.39060E-19
 -1       629 9.55425E-05-2.70913E-05-2.93358E-05 1.61564E-06-5.99890E-19-7.90275E-19
 -1       630 9.54922E-05-2.73840E-05-2.91889E-05 2.68667E-06-4.00056E-19-8.91518E-19
 -1       631 9.54554E-05-2.74677E-05-2.91372E-05 3.59332E-06-2.84749E-19-5.97740E-19
 -1       632 9.54399E-05-2.74109E-05-2.91548E-05 4.44708E-06-2.59918E-19-4.12758E-19
 -1       633 9.54474E-05-2.72677E-05-2.92194E-05 5.32909E-06-2.52042E-19-1.09612E-19
 -1       634 9.54859E-05-2.70954E-05-2.93096E-05 6.29284E-06-3.33073E-19 2.07617E-19
 -1       635 9.55814E-05-2.69725E-05-2.94031E-05 7.36440E-06 7.79837E-20 1.20856E-19
 -1       636 9.57972E-05-2.70195E-05-2.94754E-05 8.53958E-06 6.27638E-20-2.09513E-19
 -1       637 9.62626E-05-2.74266E-05-2.95006E-05 9.77659E-06-7.73610E-20 3.97311E-19
 -1       638 9.72164E-05-2.84825E-05-2.94574E-05 1.09794E-05 2.16885E-19 8.76421E-19
 -1       639 9.90575E-05-3.05880E-05-2.93457E-05 1.19593E-05-7.43780E-21 1.00549E-18
 -1       640 1.02370E-04-3.42005E-05-2.92188E-05 1.23513E-05 1.58794E-19 1.04171E-18
 -1       641 1.07820E-04-3.95919E-05-2.92474E-05 1.14342E-05 4.77056E-19 7.67784E-19
 -1       642 1.15830E-04-4.63810E-05-2.97655E-05 8.00974E-06 2.77192E-19 1.02449E-18
 -1       643 1.24692E-04-5.12138E-05-3.14869E-05 7.73152E-07-5.72078E-20 2.20252E-18
 -1       644 1.23091E-04-1.60708E-05-4.64194E-05-9.16340E-06-1.58919E-18 2.62091E-19
 -1       645 1.23563E-04-1.39977E-05-4.74714E-05 7.59533E-06-2.77530E-18-1.67015E-18
 -1       646 1.27529E-04-2.99987E-05-4.21762E-05 1.68504E-05-9.19640E-19-1.88314E-18
 -1       647 1.32072E-04-4.69281E-05-3.67154E-05 1.16199E-05-5.44516E-19-1.51111E-18
 -1       648 1.26453E-04-5.13995E-05-3.22108E-05 1.08546E-06 7.06200E-19-1.77789E-18
 -1       649 1.17302E-04-4.72525E-05-3.00317E-05-6.88688E-06 7.53312E-19-7.62386E-19
 -1       650 1.08954E-04-4.05010E-05-2.93419E-05-1.08658E-05 8.03148E-19-3.79451E-19
 -1       651 1.03129E-04-3.48359E-05-2.92717E-05-1.19661E-05-4.37840E-19 1.58034E-19
 -1       652 9.95024E-05-3.09021E-05-2.94004E-05-1.16469E-05-9.95367E-19 1.16122E-19
 -1       653 9.74761E-05-2.85567E-05-2.95364E-05-1.06180E-05-2.97824E-19 6.67789E-19
 -1       654 9.64184E-05-2.73371E-05-2.96056E-05-9.31109E-06-1.28835E-18 1.72442E-18
 -1       655 9.58996E-05-2.68293E-05-2.96007E-05-7.93826E-06-6.19508E-19 2.72334E-18
 -1       656 9.56566E-05-2.67313E-05-2.95386E-05-6.61490E-06 1.70213E-19 2.14102E-18
 -1       657 9.55435E-05-2.68467E-05-2.94408E-05-5.40303E-06-6.00263E-20 7.62408E-19
 -1       658 9.54857E-05-2.70570E-05-2.93259E-05-4.33288E-06 1.18357E-18 5.32187E-20
 -1       659 9.54485E-05-2.72955E-05-2.92079E-05-3.41442E-06 6.95017E-19-7.73034E-19
 -1       660 9.54180E-05-2.75270E-05-2.90957E-05-2.64461E-06 7.26684E-19-5.92125E-19
 -1       661 9.53893E-05-2.77349E-05-2.89944E-05-2.01243E-06-2.63784E-19-2.88528E-18
 -1       662 9.53618E-05-2.79130E-05-2.89064E-05-1.50261E-06-8.47837E-19-2.87964E-18
 -1       663 9.53359E-05-2.80606E-05-2.88321E-05-1.09823E-06 1.70538E-19 6.59407E-20
 -1       664 9.53120E-05-2.81797E-05-2.87708E-05-7.82627E-07 1.24910E-18-4.72872E-19
 -1       665 9.52902E-05-2.82739E-05-2.87211E-05-5.40071E-07 1.85643E-18-1.55603E-18
 -1       666 9.52704E-05-2.83476E-05-2.86811E-05-3.57408E-07 5.35673E-19-5.81101E-19
 -1       667 9.54211E-05-2.76610E-05-2.90394E-05-2.44051E-06 7.68098E-19-3.61715E-19
 -1       668 9.52649E-05-2.83757E-05-2.86668E-05 3.04153E-07-1.99313E-19-8.69167E-21
 -1       669 9.54093E-05-2.73387E-05-2.91722E-05-1.42020E-06 9.77320E-19-3.17553E-19
 -1       670 9.57157E-05-2.79358E-05-2.90480E-05-3.96931E-06 4.55911E-20 3.28381E-20
 -1       671 9.60107E-05-2.80159E-05-2.91401E-05-4.65177E-06 6.29270E-19-2.18797E-19
 -1       672 9.64248E-05-2.81382E-05-2.92652E-05-5.33224E-06 1.11317E-18-1.22293E-19
 -1       673 9.69945E-05-2.83780E-05-2.94067E-05-6.00241E-06 7.63645E-19-2.81494E-19
 -1       674 9.77818E-05-2.88336E-05-2.95491E-05-6.60952E-06 3.78189E-19 7.52822E-19
 -1       675 9.88809E-05-2.96288E-05-2.96798E-05-7.04668E-06-2.53549E-19 1.00722E-18
 -1       676 1.00419E-04-3.09033E-05-2.97937E-05-7.13969E-06-6.62031E-19 3.93868E-19
 -1       677 1.02537E-04-3.27709E-05-2.99022E-05-6.63447E-06-5.48127E-19 1.26378E-19
 -1       678 1.05325E-04-3.52221E-05-3.00487E-05-5.19817E-06-1.19178E-18 7.50612E-19
 -1       679 1.08676E-04-3.79369E-05-3.03227E-05-2.47499E-06-1.12933E-18 1.07219E-18
 -1       680 1.12073E-04-4.00645E-05-3.08632E-05 1.71558E-06-1.02606E-18 1.04139E-18
 -1       681 1.14394E-04-4.00981E-05-3.18480E-05 6.94915E-06-8.08182E-19 1.48140E-18
 -1       682 1.14286E-04-3.64876E-05-3.33532E-05 1.16117E-05 3.86694E-19 1.95827E-18
 -1       683 1.11016E-04-2.91557E-05-3.51582E-05 1.24347E-05 1.37940E-18 1.68191E-18
 -1       684 1.07198E-04-2.20283E-05-3.65672E-05 7.22914E-06 1.91144E-18 1.65958E-18
 -1       685 1.05927E-04-1.98102E-05-3.69941E-05-2.14383E-06 1.75342E-18 9.02143E-19
 -1       686 1.08802E-04-2.48239E-05-3.60494E-05-1.02574E-05 7.24236E-19-6.81057E-19
 -1       687 1.12761E-04-3.26427E-05-3.43746E-05-1.27274E-05 6.34696E-20-1.01301E-18
 -1       688 1.14709E-04-3.85206E-05-3.26669E-05-9.93403E-06 9.96498E-19-1.77925E-18
 -1       689 1.13643E-04-4.03895E-05-3.14035E-05-4.82502E-06-4.44834E-19-1.67366E-18
 -1       690 1.10716E-04-3.92334E-05-3.06386E-05 1.84143E-08 2.56453E-19-4.65194E-19
 -1       691 1.07261E-04-3.66904E-05-3.02481E-05 3.51022E-06 6.68877E-20-4.48825E-19
 -1       692 1.04144E-04-3.40060E-05-3.00623E-05 5.55022E-06 3.42142E-19 4.80713E-19
 -1       693 1.01676E-04-3.17751E-05-2.99594E-05 6.43621E-06 4.40766E-20 2.14481E-18
 -1       694 9.98574E-05-3.01587E-05-2.98715E-05 6.52759E-06-2.34191E-19 1.75056E-18
 -1       695 9.85620E-05-2.90987E-05-2.97700E-05 6.12893E-06 5.60940E-19 1.13500E-18
 -1       696 9.76493E-05-2.84658E-05-2.96496E-05 5.46475E-06 1.10406E-18 7.69785E-19
 -1       697 9.70027E-05-2.81301E-05-2.95162E-05 4.68938E-06-5.77404E-19-4.02642E-19
 -1       698 9.65381E-05-2.79863E-05-2.93787E-05 3.90254E-06-1.10653E-18 9.07007E-20
 -1       699 9.61986E-05-2.79584E-05-2.92451E-05 3.16395E-06-9.12118E-19 7.87661E-19
 -1       700 9.59467E-05-2.79948E-05-2.91216E-05 2.50546E-06-6.01632E-19-1.33094E-19
 -1       701 9.57577E-05-2.80624E-05-2.90118E-05 1.94014E-06-2.35245E-19-4.90855E-19
 -1       702 9.56150E-05-2.81406E-05-2.89172E-05 1.46898E-06 1.15840E-18 5.54101E-19
 -1       703 9.55071E-05-2.82178E-05-2.88380E-05 1.08583E-06 8.84368E-19-3.76097E-19
 -1       704 9.54257E-05-2.82875E-05-2.87732E-05 7.80979E-07-2.47922E-19 7.65609E-19
 -1       705 9.53639E-05-2.83468E-05-2.87214E-05 5.44143E-07-6.72579E-19 6.16369E-19
 -1       706 9.53054E-05-2.83582E-05-2.86915E-05 4.12890E-07 5.71346E-20 7.65663E-19
 -1       707 9.49098E-05-2.79676E-05-2.86896E-05 6.16983E-08-5.82070E-19-3.91154E-19
 -1       708 9.52581E-05-2.83891E-05-2.86581E-05-2.60948E-07-1.66943E-19-8.36635E-19
 -1       709 9.50227E-05-2.80935E-05-2.86839E-05 2.62976E-07 8.23590E-19-4.19609E-18
 -1       710 9.49098E-05-2.79666E-05-2.86900E-05-6.32457E-08-1.86487E-18-1.26114E-18
 -1       711 9.49496E-05-2.80118E-05-2.86877E-05 1.76517E-07 1.85177E-19-5.95674E-19
 -1       712 9.49485E-05-2.80082E-05-2.86887E-05-1.76576E-07-1.10767E-19 2.42417E-18
 -1       713 9.50217E-05-2.80889E-05-2.86855E-05-2.63869E-07 9.47858E-19-6.34637E-20
 -1       714 9.51176E-05-2.81983E-05-2.86798E-05-3.08072E-07 1.65981E-18-1.85850E-18
 -1       715 4.87043E-05-1.84347E-05-1.24793E-05 2.49867E-05 9.11606E-19 3.60201E-18
 -1       716 7.62024E-05-3.68674E-05-1.64559E-05-3.60923E-05 2.16192E-18-2.64764E-18
 -1       717 1.34564E-04-5.92970E-05-3.23112E-05-7.06706E-06 2.61654E-19-3.32331E-18
 -1       718 1.33226E-04-2.77439E-05-4.57689E-05 1.54549E-05-1.38797E-18-3.16020E-18
 -1       719 1.35354E-04-4.48254E-05-3.90955E-05-8.12016E-06 9.18343E-19-1.51513E-19
 -1       720 1.24731E-04-5.83043E-05-2.85011E-05-1.72510E-05-1.15895E-18 1.53530E-18
 -1       721 4.27565E-05-1.78684E-05-1.01466E-05-2.31978E-05 2.97952E-18-4.78044E-20
 -1       722 9.54570E-05-2.67530E-05-2.94421E-05-4.26015E-08 1.24073E-18-3.09021E-19
 -1       723 7.46068E-05-3.53115E-05-1.64729E-05-3.64646E-05-2.42069E-18-2.77747E-18
 -1       724 9.55215E-05-2.78368E-05-2.90072E-05-3.25462E-06 2.02183E-19 6.33529E-20
 -1       725 7.33618E-05-3.49419E-05-1.61011E-05 3.65875E-05-1.69192E-18 2.61437E-18
 -1       726 9.54961E-05-2.57309E-05-2.98956E-05 1.88614E-06 1.34799E-18-3.66189E-19
 -1       727 9.51081E-05-2.34477E-05-3.07130E-05-4.12183E-06-1.01164E-18-8.34223E-19
 -1       728 1.33618E-04-4.93520E-05-3.62916E-05 5.19337E-06 1.39889E-18 2.72379E-18
 -1       729 1.38639E-04-4.62196E-05-3.98685E-05 1.09728E-05 4.80202E-19-3.02364E-18
 -1       730 1.26774E-04-3.08942E-05-4.14470E-05 1.45745E-05 2.22478E-18 1.52430E-18
 -1       731 1.05950E-04-5.21925E-05-2.28312E-05-3.11002E-05-2.30958E-18-9.46692E-20
 -1       732 9.18520E-05-1.71750E-05-3.20102E-05 3.54840E-06 1.32374E-18-1.51453E-18
 -1       733 1.18954E-04-1.35187E-05-4.56895E-05 8.51086E-06 2.35433E-18 3.96782E-19
 -1       734 3.53432E-05-1.07925E-05-9.94882E-06 1.37856E-06 3.22299E-18 4.32506E-18
 -1       735 9.18084E-05-1.71085E-05-3.20200E-05-3.49970E-06-3.55463E-19-1.88197E-18
 -1       736 5.48763E-05-2.38236E-05-1.28092E-05 3.02231E-05 9.87137E-19-3.00093E-18
 -1       737 1.11759E-04-5.51277E-05-2.41150E-05 2.81498E-05 6.16918E-19 9.33771E-19
 -1       738 1.34964E-04-5.74419E-05-3.34312E-05 3.21902E-06-4.49986E-19 2.43403E-18
 -1       739 1.31287E-04-5.68434E-05-3.20171E-05 7.94441E-06 2.69198E-20-9.89096E-19
 -1       740 1.25746E-04-2.34111E-05-4.43184E-05-1.39854E-05 2.63480E-18-5.80959E-19
 -1       741 4.60261E-05-1.61221E-05-1.22878E-05-2.07800E-05-1.25096E-18-4.24152E-18
 -1       742 9.42598E-05-2.10405E-05-3.13774E-05-6.25098E-06-1.17249E-18-1.01680E-18
 -1       743 1.19307E-04-1.12952E-05-4.67960E-05-6.41362E-06 2.55979E-18-4.68786E-19
 -1       744 9.27537E-05-1.85583E-05-3.18003E-05-4.73825E-06-6.68497E-19-1.45116E-18
 -1       745 9.09022E-05-1.57734E-05-3.22033E-05-6.97373E-07 3.30778E-19-1.94948E-18
 -1       746 1.20177E-04-5.58440E-05-2.74896E-05 1.83576E-05-3.26319E-19-1.06384E-18
 -1       747 9.51158E-05-2.82006E-05-2.86780E-05 3.08176E-07 1.39457E-18-9.08604E-19
 -1       748 1.24074E-04-5.64818E-05-2.88092E-05 1.36020E-05 1.74509E-19 2.71902E-18
 -1       749 9.11995E-05-1.62057E-05-3.21457E-05-2.12225E-06-4.13583E-20-1.84583E-18
 -1       750 1.29729E-04-2.84805E-05-4.36928E-05-1.65883E-05-1.61865E-18 2.32026E-18
 -1       751 9.51878E-05-2.82651E-05-2.86812E-05-3.44547E-07-2.16417E-19-3.31831E-18
 -1       752 1.24122E-04-4.00705E-05-3.61396E-05 1.22904E-05 1.33365E-18 4.82167E-19
 -1       753 9.45778E-05-2.23388E-05-3.09566E-05 3.24790E-06 1.40622E-18-6.20823E-19
 -1       754 9.34574E-05-1.96630E-05-3.16260E-05-5.59205E-06-9.68928E-19-1.21997E-18
 -1       755 1.21776E-04-5.52764E-05-2.84233E-05-1.45980E-05 1.41607E-18-2.11760E-18
 -1       756 9.55843E-05-2.60020E-05-2.98209E-05 7.10635E-07-6.16113E-19-7.19502E-19
 -1       757 9.55371E-05-2.66140E-05-2.95385E-05 1.93239E-06-6.08206E-19-2.64512E-19
 -1       758 9.53407E-05-2.68463E-05-2.93547E-05 2.93617E-06-3.51195E-19-6.90803E-19
 -1       759 9.50388E-05-2.68055E-05-2.92428E-05 3.82888E-06-1.55415E-20-7.09153E-19
 -1       760 9.46507E-05-2.65707E-05-2.91770E-05 4.69822E-06 1.09174E-19-7.17786E-19
 -1       761 9.41862E-05-2.62112E-05-2.91320E-05 5.61323E-06-3.93664E-20-1.89185E-19
 -1       762 9.36602E-05-2.58057E-05-2.90803E-05 6.62588E-06-1.57533E-19-1.02911E-19
 -1       763 9.31087E-05-2.54606E-05-2.89917E-05 7.77594E-06-9.89430E-20-1.86382E-19
 -1       764 9.26137E-05-2.53366E-05-2.88326E-05 9.09821E-06 3.08556E-19-6.99347E-19
 -1       765 9.23440E-05-2.56821E-05-2.85688E-05 1.06300E-05 2.75664E-19-4.49443E-19
 -1       766 9.26182E-05-2.68760E-05-2.81745E-05 1.24111E-05 1.10795E-19-2.95754E-19
 -1       767 9.39989E-05-2.94667E-05-2.76569E-05 1.44374E-05 6.19822E-20-3.21484E-19
 -1       768 9.73810E-05-3.41548E-05-2.70939E-05 1.65863E-05 6.53856E-19 2.74907E-19
 -1       769 1.04029E-04-4.15220E-05-2.67440E-05 1.79705E-05 1.23462E-18 1.74751E-18
 -1       770 1.05658E-04-4.29172E-05-2.68083E-05-1.79078E-05 1.21520E-18-1.63742E-18
 -1       771 9.82750E-05-3.50378E-05-2.71177E-05-1.65016E-05 8.93166E-19-8.15258E-19
 -1       772 9.42275E-05-2.97933E-05-2.76105E-05-1.44176E-05-9.76427E-19-3.46936E-19
 -1       773 9.25962E-05-2.68934E-05-2.81556E-05-1.22408E-05-9.64433E-19-2.94073E-19
 -1       774 9.21472E-05-2.54670E-05-2.85764E-05-1.03091E-05 6.72925E-19-1.41921E-18
 -1       775 9.23047E-05-2.49705E-05-2.88571E-05-8.62043E-06 7.49028E-19 1.29200E-18
 -1       776 9.27159E-05-2.50051E-05-2.90185E-05-7.14611E-06-6.69886E-19 1.56220E-18
 -1       777 9.31931E-05-2.53144E-05-2.90906E-05-5.85894E-06-4.55253E-19 2.03607E-18
 -1       778 9.36451E-05-2.57414E-05-2.91014E-05-4.74197E-06-9.20126E-19 1.53349E-18
 -1       779 9.40342E-05-2.61954E-05-2.90736E-05-3.78367E-06 5.00486E-20-8.29899E-19
 -1       780 9.43510E-05-2.66274E-05-2.90243E-05-2.97351E-06 1.05086E-18-8.37517E-19
 -1       781 9.45992E-05-2.70134E-05-2.89652E-05-2.29958E-06-1.56487E-19-1.04023E-18
 -1       782 9.47880E-05-2.73444E-05-2.89043E-05-1.74802E-06 2.56478E-22 1.65236E-19
 -1       783 9.49280E-05-2.76199E-05-2.88463E-05-1.30381E-06 4.26204E-19 2.64579E-19
 -1       784 9.50293E-05-2.78439E-05-2.87937E-05-9.51656E-07 6.95101E-19-2.11686E-18
 -1       785 9.51011E-05-2.80229E-05-2.87478E-05-6.78397E-07 1.59714E-18-2.14527E-18
 -1       786 9.51564E-05-2.81604E-05-2.87126E-05-4.91514E-07 4.12296E-19-1.81521E-18
 -1       787 9.47839E-05-2.77955E-05-2.87093E-05-1.65701E-07-8.64080E-20 2.11953E-18
 -1       788 9.56251E-05-2.69362E-05-2.94380E-05-1.78660E-06 6.88860E-19 1.93515E-20
 -1       789 9.53285E-05-2.73559E-05-2.91309E-05-5.22345E-06 5.88744E-19-3.84987E-19
 -1       790 9.53673E-05-2.73837E-05-2.91357E-05-4.43820E-06 4.71555E-19-4.45845E-19
 -1       791 9.56032E-05-2.76071E-05-2.91410E-05-6.86780E-06-2.14333E-19 7.22513E-19
 -1       792 9.61096E-05-2.81568E-05-2.91225E-05-7.68789E-06-2.18349E-19 3.73155E-19
 -1       793 9.70786E-05-2.92330E-05-2.90767E-05-8.40779E-06 9.39227E-21 2.31607E-19
 -1       794 9.87573E-05-3.10566E-05-2.90152E-05-8.86749E-06-3.37244E-19 1.00175E-19
 -1       795 1.01441E-04-3.38144E-05-2.89834E-05-8.79161E-06-1.24319E-18 5.09013E-19
 -1       796 1.05395E-04-3.75236E-05-2.90908E-05-7.71899E-06-1.20313E-18 1.08408E-19
 -1       797 1.10570E-04-4.16623E-05-2.95349E-05-4.99987E-06-1.45105E-18 6.43347E-19
 -1       798 1.16219E-04-4.48820E-05-3.05742E-05-5.01718E-10-1.48568E-18 9.02533E-19
 -1       799 1.19885E-04-4.37363E-05-3.26854E-05 6.81337E-06-3.37708E-19 8.67305E-19
 -1       800 1.10482E-04-1.51532E-05-4.11009E-05 3.52608E-06 2.03739E-18-1.12430E-20
 -1       801 1.17136E-04-2.97305E-05-3.75771E-05-1.39094E-05 3.88927E-19-1.27976E-18
 -1       802 1.20391E-04-4.03191E-05-3.43963E-05-1.13045E-05 1.60742E-18-2.61038E-18
 -1       803 1.18564E-04-4.44245E-05-3.17876E-05-4.50484E-06-1.55940E-19-1.95429E-18
 -1       804 1.13759E-04-4.33404E-05-3.01742E-05 1.78154E-06-9.94172E-19-1.39773E-18
 -1       805 1.08317E-04-3.96432E-05-2.94306E-05 5.75043E-06-3.71923E-19-3.50513E-19
 -1       806 1.03716E-04-3.56566E-05-2.91704E-05 7.67580E-06-5.72414E-19 6.66707E-19
 -1       807 1.00346E-04-3.23586E-05-2.91381E-05 8.25139E-06-1.22389E-19 8.33313E-20
 -1       808 9.81046E-05-3.00065E-05-2.91851E-05 8.01421E-06-7.79527E-20-1.42820E-19
 -1       809 9.67158E-05-2.85028E-05-2.92340E-05 7.34320E-06 4.25567E-19 1.56299E-19
 -1       810 9.59076E-05-2.76468E-05-2.92545E-05 6.46813E-06 5.77895E-19 1.61604E-19
 -1       811 9.54688E-05-2.72395E-05-2.92408E-05 5.52892E-06 1.01479E-18 5.37842E-19
 -1       812 9.52513E-05-2.71199E-05-2.91989E-05 4.60979E-06-1.12940E-18-2.79907E-19
 -1       813 9.51593E-05-2.71701E-05-2.91379E-05 3.75947E-06-1.10122E-20-1.41515E-18
 -1       814 9.51337E-05-2.73103E-05-2.90670E-05 3.00362E-06-8.24906E-19-1.51205E-18
 -1       815 9.51401E-05-2.74886E-05-2.89933E-05 2.35252E-06-9.53188E-19-1.57823E-18
 -1       816 9.51589E-05-2.76733E-05-2.89222E-05 1.80616E-06-2.45597E-19-2.34976E-18
 -1       817 9.51799E-05-2.78464E-05-2.88571E-05 1.35789E-06 1.06759E-19-4.20858E-19
 -1       818 9.51982E-05-2.79990E-05-2.87995E-05 9.97844E-07-5.51992E-20 6.88853E-19
 -1       819 9.52113E-05-2.81269E-05-2.87503E-05 7.15380E-07-1.06145E-18 6.25940E-19
 -1       820 9.26491E-05-1.88973E-05-3.16091E-05 9.91460E-07 8.19241E-19-1.46693E-18
 -1       821 5.01707E-05-1.50806E-05-1.47058E-05 1.52877E-05 6.64361E-19-2.69806E-18
 -1       822 9.49920E-05-2.80058E-05-2.87084E-05-4.06372E-07-8.34791E-19-8.44824E-19
 -1       823 9.47557E-05-2.77688E-05-2.87087E-05 2.53689E-09-6.99368E-19-1.57400E-18
 -1       824 9.33695E-05-4.34619E-05-2.12460E-05 3.14508E-05 1.70632E-18-1.68955E-18
 -1       825 1.13883E-04-1.95118E-05-4.06876E-05-1.07769E-05 2.00154E-18-4.12889E-19
 -1       826 9.56285E-05-2.62844E-05-2.97194E-05-5.12114E-07 1.03660E-18-6.78347E-20
 -1       827 1.14468E-04-2.31766E-05-3.92976E-05 1.24077E-05 2.14524E-18 2.77271E-20
 -1       828 4.88332E-05-1.24194E-05-1.53050E-05-5.69962E-06-4.31197E-19-3.15628E-18
 -1       829 9.48661E-05-2.78774E-05-2.87095E-05-3.09460E-07-5.13162E-19 2.13804E-18
 -1       830 9.53822E-05-2.73911E-05-2.91388E-05-6.03368E-06 6.84171E-19 1.98320E-19
 -1       831 6.39848E-05-2.34236E-05-1.71418E-05-2.55355E-05 2.56436E-18-2.42146E-19
 -1       832 9.52300E-05-2.41456E-05-3.04641E-05 2.71423E-06 1.45201E-18-3.01932E-19
 -1       833 9.48235E-05-2.29737E-05-3.07943E-05-2.80106E-06-7.72509E-19-1.04018E-18
 -1       834 9.32106E-05-4.15847E-05-2.19929E-05-2.93711E-05-2.94611E-18-6.86533E-19
 -1       835 6.85371E-05-2.56896E-05-1.81475E-05 2.74776E-05-8.95956E-19 1.69936E-18
 -1       836 9.61381E-05-4.36634E-05-2.23131E-05 2.93987E-05-1.51571E-18-2.17552E-19
 -1       837 1.24725E-04-3.51813E-05-3.85657E-05-1.37294E-05 1.20190E-18-1.57167E-18
 -1       838 1.28345E-04-4.86445E-05-3.42542E-05-5.02981E-06 4.05524E-19-4.34376E-19
 -1       839 9.53968E-05-2.48608E-05-3.02299E-05-8.38208E-07-6.51408E-19-9.91316E-19
 -1       840 1.14346E-04-5.20236E-05-2.66808E-05-1.88840E-05-2.28465E-18 1.13733E-18
 -1       841 5.03221E-05-1.34263E-05-1.54874E-05-1.12080E-05 4.78843E-18 1.17555E-18
 -1       842 6.71224E-05-2.45060E-05-1.80654E-05-2.58878E-05-2.17169E-18-2.54188E-18
 -1       843 9.71400E-05-4.43781E-05-2.24954E-05-2.83791E-05 1.04320E-18-3.07914E-18
 -1       844 1.25780E-04-5.25914E-05-3.14100E-05-2.73050E-06-6.51618E-19 2.32227E-18
 -1       845 4.93988E-05-1.30077E-05-1.53074E-05 1.06546E-05 1.42305E-18 2.53366E-18
 -1       846 9.24964E-05-1.86565E-05-3.16468E-05 1.21094E-08 5.41874E-19-1.65302E-18
 -1       847 9.37446E-05-2.07383E-05-3.12894E-05 2.71882E-06 1.18006E-18-1.26459E-18
 -1       848 1.24619E-04-5.25968E-05-3.09020E-05 4.11418E-06-3.89195E-19 1.45749E-20
 -1       849 9.49942E-05-2.80147E-05-2.87055E-05 4.05819E-07-6.74913E-19-3.39887E-18
 -1       850 9.55487E-05-2.72616E-05-2.92658E-05-2.79312E-06 4.01716E-19-3.26192E-19
 -1       851 8.32229E-05-3.23147E-05-2.16764E-05-2.58024E-05 1.69966E-18-2.72842E-18
 -1       852 9.54517E-05-2.73804E-05-2.91733E-05-3.64775E-06 7.84581E-22-5.27781E-19
 -1       853 9.51841E-05-2.81754E-05-2.87186E-05 5.42706E-07 5.64502E-20 2.59808E-19
 -1       854 9.30768E-05-1.95896E-05-3.14958E-05 1.91815E-06 1.01886E-18-1.40458E-18
 -1       855 9.48696E-05-2.78857E-05-2.87074E-05 3.09828E-07 8.39486E-20-2.10888E-18
 -1       856 9.47859E-05-2.78003E-05-2.87081E-05 1.68691E-07-5.31834E-19-1.18117E-18
 -1       857 7.40550E-05-2.76951E-05-1.96051E-05 2.60131E-05 1.23009E-18-2.53219E-18
 -1       858 6.24248E-05-1.76768E-05-1.90395E-05-1.54173E-05-1.10654E-18-2.41555E-18
 -1       859 9.55352E-05-2.54659E-05-3.00311E-05 9.14146E-07 1.21176E-18-2.59913E-19
 -1       860 9.50689E-05-2.80758E-05-2.87108E-05-4.58393E-07-8.55021E-19-3.07816E-18
 -1       861 9.51537E-05-2.81835E-05-2.87015E-05 4.48225E-07 2.77288E-19-7.76188E-19
 -1       862 9.30409E-05-1.95356E-05-3.15041E-05-1.88793E-06-2.54370E-19-1.65166E-18
 -1       863 9.36991E-05-2.06606E-05-3.13051E-05-2.68447E-06-6.58173E-19-1.42443E-18
 -1       864 9.52299E-05-2.61186E-05-2.96193E-05 2.04949E-06-5.24653E-19-6.29277E-19
 -1       865 9.48251E-05-2.62222E-05-2.94012E-05 2.90273E-06-2.25169E-19-3.46992E-19
 -1       866 9.42209E-05-2.60151E-05-2.92311E-05 3.68936E-06-4.07038E-20-6.13763E-19
 -1       867 9.34355E-05-2.55782E-05-2.90817E-05 4.47596E-06 2.23964E-19-8.58818E-19
 -1       868 9.24785E-05-2.49909E-05-2.89233E-05 5.32030E-06 2.94186E-20-4.74834E-19
 -1       869 9.13586E-05-2.43415E-05-2.87216E-05 6.27572E-06-5.04918E-19-7.35323E-19
 -1       870 9.00982E-05-2.37453E-05-2.84369E-05 7.40583E-06-1.24173E-19-8.25060E-19
 -1       871 8.87561E-05-2.33695E-05-2.80226E-05 8.80407E-06 4.82350E-19-1.08851E-18
 -1       872 8.74612E-05-2.34645E-05-2.74265E-05 1.06235E-05 3.06706E-19-8.06804E-19
 -1       873 8.64730E-05-2.44158E-05-2.65947E-05 1.31261E-05 1.73210E-19-6.66531E-19
 -1       874 8.64552E-05-2.69087E-05-2.55239E-05 1.66119E-05 6.31138E-19-4.27613E-19
 -1       875 8.83093E-05-3.17561E-05-2.41671E-05 2.15132E-05 1.42280E-18-2.68950E-19
 -1       876 6.43885E-05-1.80839E-05-1.97447E-05 1.62046E-05-1.97565E-19 3.61624E-19
 -1       877 9.46382E-05-2.27565E-05-3.08040E-05-1.63232E-06-6.42670E-19-1.14929E-18
 -1       878 8.65660E-05-2.72345E-05-2.54150E-05-1.70980E-05 2.97781E-19-1.24629E-18
 -1       879 8.61059E-05-2.43399E-05-2.64704E-05-1.32277E-05-5.15105E-19 4.53146E-20
 -1       880 8.69155E-05-2.31148E-05-2.73429E-05-1.04956E-05-1.32633E-18-9.48142E-19
 -1       881 8.80927E-05-2.28482E-05-2.79620E-05-8.48857E-06 2.13255E-18-1.30372E-18
 -1       882 8.93317E-05-2.31131E-05-2.83794E-05-6.93507E-06 3.82637E-19-1.10567E-18
 -1       883 9.04893E-05-2.36520E-05-2.86444E-05-5.67466E-06-3.72892E-19-5.62467E-19
 -1       884 9.15038E-05-2.43053E-05-2.87993E-05-4.62001E-06-1.26286E-18-8.55257E-19
 -1       885 9.23574E-05-2.49768E-05-2.88773E-05-3.72558E-06-6.91062E-19 1.02929E-19
 -1       886 9.30549E-05-2.56119E-05-2.89041E-05-2.96696E-06 7.50666E-19-3.82617E-20
 -1       887 9.36117E-05-2.61821E-05-2.88984E-05-2.32912E-06 5.77889E-19-3.79581E-19
 -1       888 9.40474E-05-2.66754E-05-2.88737E-05-1.79965E-06-9.21211E-20-2.89385E-19
 -1       889 9.43821E-05-2.70901E-05-2.88394E-05-1.36641E-06 8.52016E-19-1.05395E-18
 -1       890 9.46350E-05-2.74314E-05-2.88015E-05-1.01803E-06 1.38583E-19 5.11461E-19
 -1       891 9.48230E-05-2.77082E-05-2.87637E-05-7.40952E-07 1.54725E-18 1.64401E-18
 -1       892 9.38358E-05-2.72244E-05-2.85476E-05-8.56578E-06-9.19514E-20-3.30563E-19
 -1       893 9.36643E-05-2.66008E-05-2.87413E-05-7.41513E-06 6.04601E-20-4.43123E-19
 -1       894 9.63089E-05-3.08994E-05-2.80336E-05-1.10204E-05-9.72491E-19 4.68946E-19
 -1       895 9.94934E-05-3.45889E-05-2.78138E-05-1.19847E-05-1.07388E-18 5.50080E-19
 -1       896 1.04707E-04-3.97384E-05-2.78500E-05-1.19706E-05-1.33371E-18 3.34957E-19
 -1       897 1.12219E-04-4.58694E-05-2.84069E-05-1.00419E-05-1.80938E-18 1.14311E-18
 -1       898 1.08979E-04-4.30007E-05-2.82650E-05 1.03397E-05-1.65091E-18 1.24602E-19
 -1       899 1.02445E-04-3.72229E-05-2.79557E-05 1.14180E-05-2.34430E-19-7.16944E-19
 -1       900 9.80916E-05-3.26732E-05-2.80353E-05 1.10194E-05 6.11003E-19-1.55830E-18
 -1       901 9.55058E-05-2.95442E-05-2.82685E-05 9.91374E-06-6.09109E-19-1.67567E-18
 -1       902 9.41316E-05-2.76064E-05-2.85106E-05 8.62674E-06-2.39549E-19-1.06225E-18
 -1       903 9.35281E-05-2.65452E-05-2.87069E-05 7.34763E-06-5.18126E-19-4.79100E-19
 -1       904 9.33839E-05-2.60850E-05-2.88423E-05 6.15444E-06 8.16385E-19-3.10728E-19
 -1       905 9.34899E-05-2.60078E-05-2.89208E-05 5.07738E-06-1.50880E-19 8.73662E-19
 -1       906 9.37141E-05-2.61556E-05-2.89536E-05 4.12623E-06-1.40779E-19 4.31905E-19
 -1       907 9.39777E-05-2.64208E-05-2.89529E-05 3.30190E-06-7.87800E-19 2.15821E-18
 -1       908 9.42367E-05-2.67330E-05-2.89302E-05 2.60022E-06 7.55031E-20 1.20848E-18
 -1       909 9.44689E-05-2.70484E-05-2.88945E-05 2.01372E-06-2.04395E-19-4.48750E-19
 -1       910 9.46645E-05-2.73413E-05-2.88528E-05 1.53202E-06-1.51448E-19-8.65521E-19
 -1       911 9.48230E-05-2.76001E-05-2.88098E-05 1.14292E-06-9.90118E-19-5.40087E-19
 -1       912 9.49446E-05-2.78176E-05-2.87687E-05 8.35662E-07-8.36435E-19-2.15766E-19
 -1       913 9.26355E-05-1.88737E-05-3.16133E-05-9.67652E-07 1.07860E-19-1.60951E-18
 -1       914 1.10590E-04-4.82706E-05-2.66960E-05 1.73467E-05-1.35233E-18-9.20578E-19
 -1       915 9.55498E-05-2.58773E-05-2.98598E-05-9.40111E-07 9.17913E-19-4.65474E-19
 -1       916 9.45695E-05-2.75377E-05-2.87280E-05-1.08414E-07 1.34497E-18 1.09897E-18
 -1       917 5.81363E-05-1.40726E-05-1.87520E-05 6.30344E-06 1.06035E-19-1.69902E-18
 -1       918 9.45931E-05-2.85515E-05-2.83033E-05-9.80279E-06-4.09733E-19 7.87315E-20
 -1       919 9.45489E-05-2.66398E-05-2.91039E-05-4.58820E-06 2.71602E-19-7.93046E-19
 -1       920 7.13786E-05-2.13394E-05-2.13743E-05 1.77735E-05 8.37785E-19-1.96287E-18
 -1       921 5.60950E-05-1.28026E-05-1.84151E-05-4.30154E-07 1.78713E-18 6.75906E-19
 -1       922 8.35503E-05-3.13821E-05-2.23019E-05-2.38459E-05-2.57126E-18-1.15142E-18
 -1       923 9.53942E-05-2.56030E-05-2.99106E-05 1.05810E-06-4.37319E-19-7.16288E-19
 -1       924 9.52519E-05-2.45653E-05-3.02962E-05-1.63120E-07-3.44806E-19-8.34028E-19
 -1       925 6.49659E-05-1.86350E-05-1.96941E-05-1.67967E-05 3.26943E-18 1.63776E-18
 -1       926 1.01370E-04-4.18665E-05-2.54521E-05-2.02058E-05-2.53945E-18 3.27147E-19
 -1       927 8.62682E-05-3.27530E-05-2.28518E-05 2.39618E-05-1.60331E-18 5.61060E-20
 -1       928 9.49539E-05-2.35212E-05-3.06157E-05 1.44393E-06 1.06644E-18-7.38924E-19
 -1       929 9.37061E-05-2.10679E-05-3.11305E-05 2.60245E-07 4.91118E-19-1.35910E-18
 -1       930 9.49357E-05-2.67618E-05-2.92173E-05-3.77576E-06 2.57725E-19-1.00480E-18
 -1       931 9.54911E-05-2.64920E-05-2.95711E-05-2.03120E-06 8.08756E-19-7.16997E-19
 -1       932 9.41558E-05-2.64855E-05-2.90015E-05-5.44115E-06 1.12482E-19-4.71054E-20
 -1       933 9.49673E-05-2.79132E-05-2.87374E-05-5.90000E-07 9.74376E-19-5.62984E-19
 -1       934 9.38257E-05-2.64212E-05-2.88875E-05-6.37553E-06 1.93026E-19 9.43044E-20
 -1       935 9.49783E-05-2.79206E-05-2.87388E-05 6.32447E-07-1.03571E-19-7.90234E-19
 -1       936 9.39467E-05-2.14790E-05-3.10559E-05-7.79588E-07 2.57390E-20-1.28146E-18
 -1       937 9.39520E-05-2.15001E-05-3.10517E-05 7.59548E-07 6.33475E-19-1.51175E-18
 -1       938 9.46455E-05-2.76074E-05-2.87306E-05-3.21537E-07 6.80338E-19 1.05744E-18
 -1       939 9.45725E-05-2.75427E-05-2.87271E-05 1.19959E-07-1.53842E-19-1.35597E-18
 -1       940 9.53405E-05-2.47300E-05-3.02603E-05 4.20423E-07 8.16252E-19-6.68511E-19
 -1       941 9.98301E-05-3.93142E-05-2.59130E-05 1.81578E-05-9.87347E-19-5.81829E-19
 -1       942 9.48032E-05-2.77645E-05-2.87308E-05 4.97569E-07 2.12008E-18-2.22833E-18
 -1       943 1.17096E-04-4.83395E-05-2.94873E-05 6.44737E-06-1.24426E-18-2.26161E-19
 -1       944 6.30710E-05-1.48715E-05-2.06008E-05-4.25796E-06-2.76569E-19-1.77922E-18
 -1       945 7.59514E-05-2.40245E-05-2.21941E-05-1.86550E-05-1.64612E-18-6.10317E-19
 -1       946 9.42505E-05-2.19915E-05-3.09645E-05-1.22536E-06-2.30354E-19-1.15437E-18
 -1       947 9.48225E-05-2.77781E-05-2.87333E-05-4.96567E-07-5.58521E-19-4.13445E-19
 -1       948 7.81100E-05-2.37360E-05-2.32469E-05 1.70244E-05-1.29779E-18-9.60450E-19
 -1       949 9.40794E-05-2.55856E-05-2.93546E-05 2.51439E-06-1.38433E-19-6.09129E-19
 -1       950 9.31577E-05-2.51905E-05-2.91289E-05 3.11345E-06 3.00361E-20-4.86354E-19
 -1       951 9.19758E-05-2.45476E-05-2.88979E-05 3.72080E-06 1.68339E-19-8.26101E-19
 -1       952 9.05328E-05-2.37390E-05-2.86261E-05 4.37981E-06 1.19890E-19-6.77693E-19
 -1       953 8.88094E-05-2.28434E-05-2.82715E-05 5.14138E-06-2.48113E-19-2.81951E-20
 -1       954 8.67810E-05-2.19583E-05-2.77817E-05 6.08714E-06-2.03042E-21-2.43563E-19
 -1       955 8.44172E-05-2.12090E-05-2.70900E-05 7.35367E-06 4.85632E-19-4.93266E-19
 -1       956 8.16864E-05-2.07658E-05-2.61091E-05 9.18927E-06 2.62216E-19-7.12355E-19
 -1       957 7.86530E-05-2.08861E-05-2.47499E-05 1.20503E-05 1.19877E-19-1.06187E-18
 -1       958 9.11350E-05-2.52883E-05-2.82201E-05-7.58654E-06-7.56565E-20-3.15337E-19
 -1       959 7.78821E-05-2.06263E-05-2.45337E-05-1.23550E-05 5.45470E-19 1.55047E-18
 -1       960 8.07465E-05-2.02414E-05-2.59367E-05-9.23605E-06-9.41165E-19 2.04682E-18
 -1       961 8.34381E-05-2.05432E-05-2.69571E-05-7.18143E-06-7.16662E-20 3.07225E-18
 -1       962 8.57251E-05-2.11867E-05-2.76599E-05-5.77533E-06 5.17123E-19 4.89796E-19
 -1       963 8.76494E-05-2.20026E-05-2.81344E-05-4.71771E-06-4.62042E-19-7.72555E-19
 -1       964 8.92544E-05-2.28839E-05-2.84444E-05-3.87033E-06-9.09430E-19-7.83728E-19
 -1       965 9.05785E-05-2.37581E-05-2.86373E-05-3.16116E-06-6.67155E-19-1.07966E-18
 -1       966 9.16575E-05-2.45786E-05-2.87482E-05-2.55665E-06 1.47115E-19-1.98716E-18
 -1       967 9.25254E-05-2.53192E-05-2.88027E-05-2.04089E-06 3.59652E-19-2.77135E-18
 -1       968 9.32136E-05-2.59664E-05-2.88202E-05-1.60464E-06 6.82315E-19-2.72132E-18
 -1       969 9.37510E-05-2.65167E-05-2.88147E-05-1.24064E-06-5.19175E-20-1.79465E-18
 -1       970 9.41658E-05-2.69757E-05-2.87958E-05-9.41010E-07 2.05034E-18-3.70397E-19
 -1       971 9.44791E-05-2.73499E-05-2.87696E-05-6.97361E-07 1.49075E-18 3.17631E-19
 -1       972 9.53211E-05-3.42404E-05-2.61843E-05-1.63124E-05-1.28437E-18-1.79589E-19
 -1       973 9.23236E-05-2.98621E-05-2.67741E-05-1.34646E-05-1.28038E-18-5.19226E-19
 -1       974 9.39744E-05-3.20053E-05-2.65595E-05 1.46451E-05 2.52461E-19 5.10014E-19
 -1       975 9.36923E-05-2.10486E-05-3.11330E-05-2.64601E-07 2.49781E-19-1.44425E-18
 -1       976 9.50766E-05-2.52931E-05-2.99074E-05 1.15499E-06-2.85451E-19-6.82011E-19
 -1       977 9.06820E-05-2.62247E-05-2.76253E-05 9.79795E-06-8.53087E-19 8.15759E-19
 -1       978 9.05577E-05-2.51223E-05-2.80440E-05 7.94936E-06-9.71487E-19 1.53020E-18
 -1       979 9.08739E-05-2.47087E-05-2.83565E-05 6.43575E-06-2.36680E-19 1.33247E-18
 -1       980 9.14065E-05-2.47329E-05-2.85745E-05 5.19104E-06 1.14262E-18 4.96288E-19
 -1       981 9.20117E-05-2.50104E-05-2.87150E-05 4.16172E-06-5.81703E-19 1.77772E-19
 -1       982 9.26094E-05-2.54197E-05-2.87957E-05 3.30817E-06-1.51933E-18 2.49105E-18
 -1       983 9.31545E-05-2.58778E-05-2.88329E-05 2.60138E-06-1.48270E-19 3.02085E-18
 -1       984 9.36276E-05-2.63342E-05-2.88400E-05 2.01966E-06 1.01273E-18 2.58529E-18
 -1       985 9.40227E-05-2.67576E-05-2.88280E-05 1.54603E-06 1.19795E-18 8.40003E-19
 -1       986 9.43418E-05-2.71308E-05-2.88048E-05 1.16528E-06-7.83444E-19-6.68638E-19
 -1       987 9.45946E-05-2.74501E-05-2.87762E-05 8.63986E-07-1.50835E-18-1.14009E-19
 -1       988 9.43988E-05-2.23316E-05-3.08869E-05 1.18217E-06 8.66575E-19-1.19744E-18
 -1       989 9.52661E-05-2.67475E-05-2.93651E-05-2.94751E-06 3.03606E-19-6.47815E-19
 -1       990 9.51858E-05-2.45375E-05-3.02786E-05-1.63702E-07 7.18191E-19-9.62927E-19
 -1       991 9.46541E-05-2.76216E-05-2.87284E-05 3.33680E-07 1.37644E-19-3.36042E-18
 -1       992 6.51374E-05-1.50631E-05-2.14270E-05 5.69439E-06 4.89511E-19 4.81350E-19
 -1       993 6.87435E-05-1.67877E-05-2.22038E-05 8.32621E-06 2.95023E-19-6.58515E-19
 -1       994 9.50816E-05-2.44346E-05-3.02782E-05 2.85953E-07-2.20056E-19-7.37208E-19
 -1       995 6.62604E-05-1.58334E-05-2.15537E-05-7.54323E-06 1.25138E-18-7.63365E-19
 -1       996 9.16232E-05-2.83659E-05-2.71116E-05 1.20366E-05 3.15100E-20 1.04809E-18
 -1       997 9.47024E-05-2.76129E-05-2.87527E-05 6.61724E-07-2.49421E-19-2.35446E-19
 -1       998 9.47292E-05-2.56503E-05-2.96052E-05 1.87570E-06-1.46597E-19-5.60146E-19
 -1       999 9.48724E-05-2.35424E-05-3.05673E-05 5.06717E-07 9.47563E-19-1.08716E-18
 -1      1000 9.07789E-05-2.58593E-05-2.78226E-05-9.16867E-06-3.40715E-20-1.27428E-19
 -1      1001 9.40779E-05-2.60312E-05-2.91628E-05-3.58619E-06 2.31112E-19-7.91007E-19
 -1      1002 9.17921E-05-2.52226E-05-2.85298E-05-6.31013E-06 1.69266E-19-7.66050E-19
 -1      1003 9.44863E-05-2.29446E-05-3.06609E-05-1.15167E-07 2.61304E-20-1.22199E-18
 -1      1004 9.53105E-05-2.55499E-05-2.98976E-05-1.19330E-06 7.09346E-19-7.47821E-19
 -1      1005 9.45136E-05-2.29819E-05-3.06552E-05 8.69337E-08 4.11312E-19-1.07284E-18
 -1      1006 9.43095E-05-2.72399E-05-2.87441E-05 1.28832E-08 2.04974E-18 9.95502E-19
 -1      1007 9.33563E-05-2.57486E-05-2.89747E-05-4.37421E-06-6.95914E-21-7.99568E-19
 -1      1008 9.43923E-05-2.27715E-05-3.06944E-05-3.34534E-08 2.35153E-19-1.11207E-18
 -1      1009 9.09789E-05-2.72210E-05-2.73262E-05-1.11530E-05-5.54071E-19-6.38104E-19
 -1      1010 7.14882E-05-1.87072E-05-2.26113E-05-1.09316E-05-7.29211E-19-1.10752E-18
 -1      1011 9.43564E-05-2.72786E-05-2.87476E-05-2.86778E-07 2.05349E-18-1.33186E-19
 -1      1012 8.74625E-05-3.00469E-05-2.45707E-05-1.84476E-05-1.52642E-18-1.06281E-18
 -1      1013 8.71061E-05-2.86940E-05-2.50234E-05 1.67982E-05-6.02561E-19 5.76264E-19
 -1      1014 9.45016E-05-2.74274E-05-2.87458E-05 4.63603E-07 1.02488E-18-5.60857E-18
 -1      1015 9.20249E-05-2.44367E-05-2.89666E-05 2.07341E-06 2.42268E-19-2.58881E-19
 -1      1016 9.04873E-05-2.36126E-05-2.86608E-05 2.40722E-06 1.49122E-19-9.25538E-20
 -1      1017 8.86165E-05-2.26256E-05-2.82826E-05 2.74613E-06 1.76531E-19-4.79814E-19
 -1      1018 8.63376E-05-2.15164E-05-2.77819E-05 3.13384E-06 6.61084E-20 1.54724E-19
 -1      1019 8.35607E-05-2.03563E-05-2.70896E-05 3.62638E-06-3.75687E-19-3.73679E-19
 -1      1020 8.01210E-05-1.91941E-05-2.61124E-05 4.32795E-06 1.43196E-19-1.19633E-18
 -1      1021 7.56745E-05-1.80153E-05-2.47136E-05 5.47560E-06 1.04868E-19-7.51651E-19
 -1      1022 7.08921E-05-1.63765E-05-2.33400E-05-4.66144E-07-2.70113E-19-1.26950E-18
 -1      1023 9.51119E-05-2.60444E-05-2.96003E-05-2.06170E-06 6.64881E-19-6.65739E-19
 -1      1024 7.39650E-05-1.70060E-05-2.43969E-05-5.64101E-06 5.50091E-19 2.23455E-19
 -1      1025 7.88899E-05-1.84306E-05-2.59100E-05-4.21464E-06 6.85088E-19 1.42214E-18
 -1      1026 8.23076E-05-1.95017E-05-2.69181E-05-3.43649E-06-1.17210E-18 1.49250E-18
 -1      1027 8.49965E-05-2.05803E-05-2.76070E-05-2.86569E-06-6.86260E-19 2.02817E-19
 -1      1028 8.71596E-05-2.16583E-05-2.80721E-05-2.42729E-06-6.32415E-19-3.13237E-19
 -1      1029 8.89016E-05-2.26825E-05-2.83800E-05-2.04475E-06-6.43824E-19-3.01058E-19
 -1      1030 9.03234E-05-2.36478E-05-2.85756E-05-1.70600E-06-7.17873E-19 1.42129E-19
 -1      1031 9.14680E-05-2.45206E-05-2.86920E-05-1.40092E-06 1.64439E-19-4.07199E-20
 -1      1032 9.23835E-05-2.52922E-05-2.87534E-05-1.13226E-06-9.53021E-20-5.51462E-20
 -1      1033 9.31091E-05-2.59593E-05-2.87786E-05-8.97319E-07 5.62787E-19-1.17483E-19
 -1      1034 9.36744E-05-2.65199E-05-2.87808E-05-6.97315E-07 2.00575E-18-7.00325E-19
 -1      1035 9.41113E-05-2.69858E-05-2.87684E-05-5.31996E-07 2.70201E-18-6.64847E-19
 -1      1036 9.25688E-05-2.54322E-05-2.87728E-05-5.26177E-06 1.74796E-19-9.43490E-19
 -1      1037 9.47906E-05-2.42701E-05-3.02248E-05 3.09706E-07-2.73732E-20-9.92200E-19
 -1      1038 9.43190E-05-2.72048E-05-2.87627E-05 6.26875E-07-4.58242E-19-4.70356E-18
 -1      1039 8.68649E-05-2.32544E-05-2.72635E-05 8.01715E-06-1.23025E-18 1.56563E-18
 -1      1040 9.01260E-05-2.37734E-05-2.84377E-05 3.78644E-06-4.14873E-20 4.07841E-18
 -1      1041 9.11101E-05-2.43585E-05-2.86084E-05 2.95831E-06-1.17211E-18 3.49412E-18
 -1      1042 9.19686E-05-2.49745E-05-2.87118E-05 2.30456E-06-7.36414E-19 1.29949E-18
 -1      1043 9.27002E-05-2.55780E-05-2.87666E-05 1.78090E-06 5.16341E-19 1.25731E-18
 -1      1044 9.33063E-05-2.61347E-05-2.87881E-05 1.36069E-06 2.24973E-18 1.04439E-18
 -1      1045 9.37973E-05-2.66259E-05-2.87878E-05 1.03047E-06 1.54039E-18-5.09405E-19
 -1      1046 9.40761E-05-2.69284E-05-2.87773E-05 8.07674E-07-2.38995E-20-2.00672E-18
 -1      1047 9.46501E-05-2.31557E-05-3.06388E-05 2.68574E-07 6.97966E-19-1.21281E-18
 -1      1048 8.57123E-05-2.48194E-05-2.61003E-05-1.20784E-05-7.72980E-19 5.27692E-20
 -1      1049 9.46797E-05-2.61655E-05-2.93632E-05-2.83543E-06 5.01361E-19-7.93984E-19
 -1      1050 9.43706E-05-2.73030E-05-2.87433E-05 2.51055E-07 5.36268E-19-5.57823E-19
 -1      1051 9.41409E-05-2.52601E-05-2.95206E-05 1.36350E-06-1.29644E-19-1.27300E-18
 -1      1052 8.63665E-05-2.56492E-05-2.60289E-05 1.28147E-05-4.35883E-19 2.19168E-18
 -1      1053 8.63568E-05-2.40528E-05-2.67045E-05 1.01130E-05-1.72098E-19 2.31307E-18
 -1      1054 8.06332E-05-2.38853E-05-2.42829E-05-1.44350E-05-6.40049E-19-8.86676E-19
 -1      1055 8.79360E-05-2.30788E-05-2.77960E-05 6.20806E-06 1.49035E-19 7.62383E-19
 -1      1056 7.44505E-05-1.85395E-05-2.39450E-05 8.95335E-06-4.49419E-19-1.82807E-18
 -1      1057 8.90560E-05-2.33137E-05-2.81757E-05 4.83840E-06-2.02090E-19 8.65379E-19
 -1      1058 9.46427E-05-2.50104E-05-2.98414E-05 7.83138E-07-2.16154E-19-1.08986E-18
 -1      1059 9.32399E-05-2.50104E-05-2.92418E-05 1.73367E-06 7.08955E-20-8.20249E-19
 -1      1060 8.93325E-05-2.37935E-05-2.80884E-05-5.72048E-06-7.07742E-20-3.27798E-19
 -1      1061 8.79794E-05-2.35974E-05-2.75932E-05-7.19238E-06-9.64321E-20-5.80968E-19
 -1      1062 9.38865E-05-2.55571E-05-2.92841E-05-2.40200E-06 5.98835E-19-3.33239E-19
 -1      1063 8.67326E-05-2.38759E-05-2.69425E-05-9.23153E-06-2.02883E-19-1.92406E-19
 -1      1064 9.47296E-05-2.40314E-05-3.02987E-05-1.56070E-07 2.90008E-19-9.05604E-19
 -1      1065 9.29807E-05-2.52342E-05-2.90344E-05-3.02969E-06 1.34487E-19-4.91126E-19
 -1      1066 9.50090E-05-2.45489E-05-3.01973E-05-5.19583E-07 4.91553E-19-8.32962E-19
 -1      1067 9.39926E-05-2.68877E-05-2.87585E-05-1.49728E-07 2.69354E-18 1.04201E-18
 -1      1068 8.04684E-05-2.22185E-05-2.49682E-05 1.19567E-05-7.68132E-19-1.25650E-18
 -1      1069 9.40122E-05-2.69179E-05-2.87555E-05 1.77476E-07 2.21674E-18 1.30702E-18
 -1      1070 8.92167E-05-2.29257E-05-2.84066E-05 5.76589E-07 5.38807E-20-4.18524E-19
 -1      1071 8.69975E-05-2.18183E-05-2.79333E-05 4.66269E-07 1.02559E-19-7.31013E-19
 -1      1072 8.43357E-05-2.06305E-05-2.73025E-05 2.48645E-07-3.65878E-19-8.76135E-19
 -1      1073 8.10065E-05-1.93418E-05-2.64289E-05-1.17087E-07-2.34253E-19-7.49543E-19
 -1      1074 7.68945E-05-1.80860E-05-2.52083E-05-5.98795E-07 2.97920E-19-1.01983E-18
 -1      1075 9.49433E-05-2.53303E-05-2.98341E-05-1.19612E-06 5.37151E-19-5.36844E-19
 -1      1076 9.06605E-05-2.42316E-05-2.84697E-05-4.61322E-06 1.36494E-20-5.54776E-19
 -1      1077 8.46877E-05-2.12553E-05-2.71850E-05 5.15670E-06 2.84134E-19-1.39406E-18
 -1      1078 7.97485E-05-1.85069E-05-2.62356E-05 2.25217E-07-2.38064E-19-2.08146E-18
 -1      1079 8.30305E-05-1.97358E-05-2.71247E-05-7.64266E-08-1.63152E-18-1.78844E-18
 -1      1080 8.55445E-05-2.08452E-05-2.77264E-05-2.37347E-07 1.79280E-20-1.22392E-18
 -1      1081 8.75490E-05-2.19045E-05-2.81333E-05-3.47227E-07 1.75358E-19-1.32394E-18
 -1      1082 8.92138E-05-2.29356E-05-2.84058E-05-4.07276E-07 5.90780E-20-1.20402E-18
 -1      1083 9.05926E-05-2.38951E-05-2.85817E-05-4.17137E-07 2.81652E-19 8.32742E-19
 -1      1084 9.16813E-05-2.47459E-05-2.86866E-05-3.85774E-07-2.97620E-19 1.89429E-18
 -1      1085 9.25209E-05-2.54632E-05-2.87385E-05-3.25241E-07-9.88273E-19 3.05091E-18
 -1      1086 9.32208E-05-2.61093E-05-2.87617E-05-2.64387E-07 3.18956E-19 1.95312E-18
 -1      1087 9.36509E-05-2.65321E-05-2.87647E-05-2.01405E-07 1.80569E-18 1.18081E-18
 -1      1088 9.45390E-05-2.56125E-05-2.95402E-05-1.80841E-06 4.54049E-19-1.37464E-21
 -1      1089 9.07382E-05-2.40583E-05-2.85750E-05 1.68060E-06 4.43363E-19-1.97491E-18
 -1      1090 8.95494E-05-2.32771E-05-2.84019E-05 2.22541E-06-5.14787E-19-1.07835E-18
 -1      1091 9.25831E-05-2.55184E-05-2.87404E-05 9.52238E-07 1.13776E-18-4.89070E-18
 -1      1092 9.32257E-05-2.61117E-05-2.87632E-05 7.20586E-07 1.87871E-18-1.26410E-18
 -1      1093 7.59721E-05-1.87071E-05-2.45386E-05-6.70755E-06-3.33024E-19-1.07851E-18
 -1      1094 9.35435E-05-2.49687E-05-2.93892E-05 5.07026E-07 4.39811E-19-4.45012E-19
 -1      1095 8.66021E-05-2.18403E-05-2.77521E-05 3.86891E-06-1.95189E-19-2.84383E-19
 -1      1096 9.24276E-05-2.45512E-05-2.90900E-05 5.73633E-07 4.47818E-19-2.45059E-19
 -1      1097 8.15718E-05-2.11321E-05-2.58951E-05-8.01767E-06-4.54768E-19-4.42684E-19
 -1      1098 8.81622E-05-2.25006E-05-2.81409E-05 2.93926E-06-1.16511E-18-9.02692E-19
 -1      1099 9.17799E-05-2.48468E-05-2.86851E-05 1.25723E-06 9.32760E-19-2.82809E-18
 -1      1100 9.10132E-05-2.38665E-05-2.87762E-05 5.90701E-07 4.16166E-20-4.74634E-19
 -1      1101 7.61733E-05-1.75425E-05-2.51538E-05 1.82175E-06 2.76928E-19-1.56241E-18
 -1      1102 8.42275E-05-2.15385E-05-2.68676E-05-5.88553E-06-2.07851E-19-6.11740E-19
 -1      1103 9.36309E-05-2.65081E-05-2.87664E-05 5.49958E-07 1.86991E-18-9.35311E-19
 -1      1104 7.88381E-05-1.91015E-05-2.56048E-05 5.48881E-06-7.06150E-19-1.96162E-18
 -1      1105 8.85218E-05-2.29196E-05-2.81144E-05-3.37309E-06-3.26540E-19-4.61488E-19
 -1      1106 8.30126E-05-2.10749E-05-2.65462E-05 6.87334E-06-4.79892E-19-8.60929E-19
 -1      1107 8.65154E-05-2.21641E-05-2.75800E-05-4.43444E-06 8.81322E-20-5.28835E-19
 -1      1108 9.18923E-05-2.47547E-05-2.87735E-05-3.74010E-06 1.68185E-19-6.89734E-19
 -1      1109 9.43249E-05-2.50219E-05-2.97005E-05 2.13343E-07-1.10404E-19-6.83147E-19
 -1      1110 9.45950E-05-2.49599E-05-2.98442E-05-4.98492E-07 1.01086E-19-8.55381E-19
 -1      1111 9.29635E-05-2.49411E-05-2.91525E-05-1.60079E-06 6.37531E-19-8.48784E-19
 -1      1112 8.17548E-05-2.14415E-05-2.58386E-05 9.02927E-06-5.76876E-19-1.48411E-18
 -1      1113 9.38903E-05-2.52178E-05-2.94306E-05-1.20860E-06 6.05284E-19-6.13099E-19
 -1      1114 9.09241E-05-2.41877E-05-2.86074E-05 4.35455E-07 1.38927E-18-3.25387E-18
 -1      1115 8.48991E-05-2.07936E-05-2.74789E-05 2.38233E-06-4.38869E-19-5.16585E-19
 -1      1116 9.21439E-05-2.51591E-05-2.87118E-05 4.40443E-07 1.63568E-18-1.65115E-18
 -1      1117 9.36738E-05-2.65681E-05-2.87606E-05 1.96096E-07 2.27238E-18 1.31341E-18
 -1      1118 9.03279E-05-2.37439E-05-2.85311E-05-2.61936E-06 5.40490E-21-4.86811E-19
 -1      1119 9.17338E-05-2.43988E-05-2.88573E-05-2.06649E-06 1.94624E-19-8.62492E-19
 -1      1120 9.02945E-05-2.35922E-05-2.85967E-05-1.24976E-06-1.27286E-19-3.91287E-19
 -1      1121 8.22304E-05-1.98935E-05-2.67179E-05 3.64962E-06-5.42709E-20-1.59581E-18
 -1      1122 1.16435E-04 2.56512E-10-4.17213E-05-4.12673E-05-2.48181E-19 7.59619E-18
 -1      1123 8.85281E-05 7.20314E-11-3.71947E-05-2.39990E-05-1.33196E-19 1.01866E-18
 -1      1124 8.40832E-05 4.16152E-11-3.57632E-05-1.76839E-05-8.67679E-20-1.72187E-18
 -1      1125 8.24103E-05 3.20851E-11-3.51008E-05-1.36221E-05-6.27598E-20-3.00182E-18
 -1      1126 8.16398E-05 2.71898E-11-3.47825E-05-1.03165E-05-3.89370E-20-3.56407E-18
 -1      1127 8.12424E-05 2.42501E-11-3.46231E-05-7.44809E-06-2.02626E-20-3.82533E-18
 -1      1128 8.10288E-05 2.24141E-11-3.45402E-05-4.83557E-06-3.54033E-21-3.90824E-18
 -1      1129 8.09198E-05 2.13976E-11-3.44995E-05-2.35517E-06-5.80681E-22-3.88080E-18
 -1      1130 8.08873E-05 2.10847E-11-3.44875E-05 5.21907E-08 1.42391E-20-3.79267E-18
 -1      1131 8.09229E-05 2.14431E-11-3.45004E-05 2.46213E-06 2.40743E-20-3.68453E-18
 -1      1132 8.10353E-05 2.25160E-11-3.45421E-05 4.95096E-06 2.96561E-20-3.50193E-18
 -1      1133 8.12549E-05 2.44110E-11-3.46261E-05 7.57977E-06 5.35881E-20-3.09396E-18
 -1      1134 8.16563E-05 2.74916E-11-3.47874E-05 1.04759E-05 6.91126E-20-2.51139E-18
 -1      1135 8.24307E-05 3.25463E-11-3.51094E-05 1.38255E-05 8.85149E-20-1.48440E-18
 -1      1136 8.40788E-05 4.21004E-11-3.57821E-05 1.79331E-05 1.09161E-19 3.49520E-19
 -1      1137 8.82282E-05 6.68821E-11-3.72642E-05 2.38432E-05 1.03338E-19 3.78764E-18
 -1      1138 1.06248E-04 1.63518E-10-4.05060E-05 3.60191E-05 1.82112E-19 1.04811E-17
 -1      1139 1.29643E-04-2.56511E-05-4.01198E-05-2.59709E-05-9.84888E-19 1.17695E-17
 -1      1140 9.71091E-05-2.87600E-05-3.14702E-05-6.69749E-07-3.59301E-19 9.45913E-18
 -1      1141 8.99562E-05-2.69681E-05-2.78300E-05 3.86170E-07-1.39615E-19 6.22105E-18
 -1      1142 8.81828E-05-2.65555E-05-2.66256E-05 2.48670E-07-5.80615E-20 4.29599E-18
 -1      1143 8.79974E-05-2.64819E-05-2.64241E-05 1.63678E-07-1.00284E-19 3.02867E-18
 -1      1144 8.85960E-05-2.66320E-05-2.65839E-05 1.16636E-07-2.46814E-20 2.14630E-18
 -1      1145 8.96227E-05-2.69205E-05-2.68921E-05 8.77861E-08-9.62640E-20 1.73189E-18
 -1      1146 9.09193E-05-2.72992E-05-2.72834E-05 6.95704E-08-3.52718E-20 8.82158E-19
 -1      1147 9.24247E-05-2.77461E-05-2.77386E-05 5.86256E-08 9.23961E-21-5.45807E-20
 -1      1148 9.41360E-05-2.82580E-05-2.82574E-05 5.37261E-08-1.08315E-20-4.29300E-19
 -1      1149 9.60897E-05-2.88444E-05-2.88508E-05 5.47465E-08-3.14105E-20-1.66324E-18
 -1      1150 9.83491E-05-2.95232E-05-2.95371E-05 6.21564E-08 1.83983E-19-1.36737E-18
 -1      1151 1.00992E-04-3.03167E-05-3.03383E-05 7.66595E-08 6.75807E-21-7.34761E-19
 -1      1152 1.04091E-04-3.12455E-05-3.12736E-05 9.86537E-08-1.73165E-19-2.17457E-18
 -1      1153 1.07684E-04-3.23188E-05-3.23489E-05 1.27126E-07 1.12108E-20-2.00370E-18
 -1      1154 1.11716E-04-3.35189E-05-3.35394E-05 1.57464E-07-8.56328E-20-1.89815E-18
 -1      1155 1.15959E-04-3.47753E-05-3.47639E-05 1.77751E-07-2.87335E-19-2.83939E-18
 -1      1156 1.19895E-04-3.59318E-05-3.58545E-05 1.63927E-07 1.79161E-19-3.29054E-18
 -1      1157 1.22607E-04-3.67152E-05-3.65369E-05 7.79690E-08 6.26341E-20-3.10984E-18
 -1      1158 1.22801E-04-3.67439E-05-3.64572E-05-1.21061E-07-6.21510E-20-1.47625E-18
 -1      1159 1.19144E-04-3.56325E-05-3.53060E-05-4.37026E-07 1.02934E-19-1.85606E-18
 -1      1160 1.11132E-04-3.32566E-05-3.30467E-05-7.77894E-07 9.44078E-20-9.96111E-19
 -1      1161 1.00212E-04-3.00660E-05-3.01552E-05-9.29022E-07 1.29506E-19 6.18758E-19
 -1      1162 9.01980E-05-2.71786E-05-2.76198E-05-6.79645E-07-1.80259E-19-2.11218E-18
 -1      1163 8.56849E-05-2.58889E-05-2.65056E-05-5.76875E-08 9.58735E-20-4.01940E-18
 -1      1164 8.90217E-05-2.68420E-05-2.73319E-05 5.99093E-07 1.63213E-19-2.85270E-18
 -1      1165 9.84743E-05-2.95622E-05-2.97153E-05 9.19258E-07 2.23008E-21-1.59337E-18
 -1      1166 1.09593E-04-3.28045E-05-3.26338E-05 8.21289E-07-1.87244E-19-4.07645E-18
 -1      1167 1.18283E-04-3.53765E-05-3.50549E-05 4.94412E-07-1.12166E-19-4.57345E-18
 -1      1168 1.22705E-04-3.67126E-05-3.64126E-05 1.64796E-07 2.21406E-19-3.22682E-18
 -1      1169 1.23134E-04-3.68700E-05-3.66744E-05-5.35982E-08 4.97830E-20-2.19358E-18
 -1      1170 1.20851E-04-3.62162E-05-3.61266E-05-1.54015E-07-1.84130E-20-3.29170E-18
 -1      1171 1.17202E-04-3.51472E-05-3.51299E-05-1.75122E-07 1.24789E-19-2.95101E-18
 -1      1172 1.13178E-04-3.39581E-05-3.39779E-05-1.56490E-07-1.17500E-19-3.98476E-18
 -1      1173 1.09366E-04-3.28251E-05-3.28582E-05-1.24200E-07 2.82895E-19-5.15216E-18
 -1      1174 1.06042E-04-3.18333E-05-3.18667E-05-9.16573E-08-2.20353E-20-5.21746E-18
 -1      1175 1.03294E-04-3.10099E-05-3.10385E-05-6.41791E-08 9.40298E-20-5.74855E-18
 -1      1176 1.01101E-04-3.03512E-05-3.03736E-05-4.29388E-08 1.42701E-19-3.65914E-18
 -1      1177 9.94002E-05-2.98387E-05-2.98553E-05-2.73665E-08 6.38848E-20-2.90473E-18
 -1      1178 9.81105E-05-2.94491E-05-2.94610E-05-1.63634E-08 4.75133E-21-1.01603E-18
 -1      1179 9.71534E-05-2.91592E-05-2.91676E-05-8.82299E-09-2.34173E-19-2.84021E-18
 -1      1180 9.64585E-05-2.89482E-05-2.89539E-05-3.80895E-09-4.34318E-19-3.08711E-18
 -1      1181 9.59664E-05-2.87984E-05-2.88022E-05-5.83770E-10 1.33353E-19-3.51744E-18
 -1      1182 9.56289E-05-2.86952E-05-2.86977E-05 1.41837E-09-2.22385E-19-2.89644E-18
 -1      1183 9.54077E-05-2.86273E-05-2.86290E-05 2.63722E-09 4.31649E-19-3.60588E-18
 -1      1184 9.52736E-05-2.85858E-05-2.85871E-05 3.43968E-09 9.80521E-20 2.63170E-18
 -1      1185 9.52050E-05-2.85642E-05-2.85654E-05 4.16910E-09 2.28241E-20 6.69920E-19
 -1      1186 9.51858E-05-2.85576E-05-2.85585E-05 5.10020E-09 2.20893E-21 5.50457E-18
 -1      1187 9.52034E-05-2.85632E-05-2.85605E-05 6.65464E-09-1.19471E-19 3.33025E-18
 -1      1188 9.52280E-05-2.85686E-05-2.85635E-05 2.77282E-09 3.56998E-19 9.02505E-19
 -1      1189 1.30475E-04-3.75605E-05-3.85157E-05 1.21247E-05-1.57601E-19 1.58260E-17
 -1      1190 9.62268E-05-2.80926E-05-3.12268E-05 7.97588E-07 7.43801E-20 1.33546E-17
 -1      1191 9.01801E-05-2.68741E-05-2.78142E-05 1.21952E-07 1.06686E-19 1.07053E-17
 -1      1192 8.82816E-05-2.64865E-05-2.66656E-05 1.38500E-08 4.80923E-20 9.11347E-18
 -1      1193 8.80519E-05-2.64481E-05-2.64553E-05-1.80404E-08 5.40844E-20 8.18480E-18
 -1      1194 8.86323E-05-2.66178E-05-2.66036E-05-2.49897E-08 6.27177E-20 6.90006E-18
 -1      1195 8.96461E-05-2.69149E-05-2.69048E-05-2.43762E-08-2.74376E-20 6.31098E-18
 -1      1196 9.09245E-05-2.72942E-05-2.72889E-05-2.12857E-08-1.06072E-19 6.32560E-18
 -1      1197 9.23954E-05-2.77334E-05-2.77321E-05-1.76268E-08-9.71565E-21 4.88857E-18
 -1      1198 9.40403E-05-2.82259E-05-2.82289E-05-1.46952E-08-2.98765E-20 4.28469E-18
 -1      1199 9.58712E-05-2.87743E-05-2.87823E-05-1.37834E-08 1.74093E-20 3.58379E-18
 -1      1200 9.79137E-05-2.93856E-05-2.93992E-05-1.63660E-08 5.12707E-20 3.65452E-18
 -1      1201 1.00190E-04-3.00654E-05-3.00842E-05-2.41286E-08 1.32961E-19 2.60479E-18
 -1      1202 1.02696E-04-3.08116E-05-3.08332E-05-3.87807E-08-1.08615E-19 2.07452E-18
 -1      1203 1.05371E-04-3.16051E-05-3.16240E-05-6.14391E-08 4.43049E-20 2.11692E-18
 -1      1204 1.08060E-04-3.23986E-05-3.24044E-05-9.12686E-08-2.26747E-20 1.37512E-18
 -1      1205 1.10466E-04-3.31049E-05-3.30812E-05-1.23127E-07-1.90140E-19 1.97874E-18
 -1      1206 1.12125E-04-3.35884E-05-3.35143E-05-1.44575E-07 2.31281E-19 1.11818E-18
 -1      1207 1.12418E-04-3.36713E-05-3.35293E-05-1.34352E-07 1.27697E-19-4.54883E-19
 -1      1208 1.10701E-04-3.31693E-05-3.29614E-05-6.69645E-08-8.41110E-20 2.53157E-19
 -1      1209 1.06588E-04-3.19704E-05-3.17384E-05 7.11789E-08-1.20328E-19 3.34387E-18
 -1      1210 1.00358E-04-3.01479E-05-2.99813E-05 2.56400E-07-1.43665E-19 4.92348E-18
 -1      1211 9.32687E-05-2.80538E-05-2.80601E-05 4.14926E-07 1.79662E-19 4.05755E-18
 -1      1212 8.74110E-05-2.62902E-05-2.65249E-05 4.51564E-07 1.48509E-19 2.00789E-18
 -1      1213 8.48957E-05-2.54922E-05-2.58929E-05 3.17385E-07 6.15422E-20 1.75855E-18
 -1      1214 8.67268E-05-2.59934E-05-2.63952E-05 6.15835E-08 1.10190E-19 3.31436E-18
 -1      1215 9.21866E-05-2.76104E-05-2.78503E-05-1.94989E-07-3.53405E-20 3.40592E-18
 -1      1216 9.92747E-05-2.97470E-05-2.97650E-05-3.47602E-07 4.90324E-20-1.83171E-20
 -1      1217 1.05817E-04-3.17322E-05-3.15817E-05-3.66973E-07-2.00032E-19 3.31296E-19
 -1      1218 1.10390E-04-3.31212E-05-3.29035E-05-2.91874E-07-7.24941E-20 8.39568E-19
 -1      1219 1.12574E-04-3.37829E-05-3.35820E-05-1.81481E-07 2.77330E-19-1.39316E-18
 -1      1220 1.12687E-04-3.38160E-05-3.36724E-05-7.99683E-08 1.61231E-19-1.96569E-18
 -1      1221 1.11368E-04-3.34165E-05-3.33350E-05-6.66677E-09-3.96033E-19-4.11195E-19
 -1      1222 1.09260E-04-3.27809E-05-3.27484E-05 3.67745E-08 1.06181E-19-1.97057E-18
 -1      1223 1.06867E-04-3.20614E-05-3.20606E-05 5.68273E-08-3.15311E-22-3.22547E-18
 -1      1224 1.04523E-04-3.13575E-05-3.13738E-05 6.15522E-08-1.12265E-19-2.11239E-18
 -1      1225 1.02412E-04-3.07244E-05-3.07478E-05 5.76423E-08 1.07761E-20-3.45912E-18
 -1      1226 1.00617E-04-3.01861E-05-3.02105E-05 4.97194E-08-2.51611E-19-1.44205E-18
 -1      1227 9.91516E-05-2.97469E-05-2.97694E-05 4.06030E-08 1.06795E-19-1.32436E-18
 -1      1228 9.79958E-05-2.94004E-05-2.94195E-05 3.18301E-08-1.36150E-19-3.76976E-19
 -1      1229 9.71105E-05-2.91349E-05-2.91504E-05 2.41243E-08-2.33230E-19 1.53928E-18
 -1      1230 9.64511E-05-2.89370E-05-2.89493E-05 1.77337E-08 2.55776E-19 1.47438E-18
 -1      1231 9.59745E-05-2.87939E-05-2.88033E-05 1.26495E-08 2.24716E-20 2.44639E-19
 -1      1232 9.56418E-05-2.86940E-05-2.87010E-05 8.73156E-09-4.05033E-20-1.26444E-18
 -1      1233 9.54203E-05-2.86274E-05-2.86326E-05 5.77276E-09 1.87573E-19-2.52837E-18
 -1      1234 9.52839E-05-2.85863E-05-2.85903E-05 3.53784E-09-2.31094E-20-2.89285E-18
 -1      1235 9.52120E-05-2.85645E-05-2.85677E-05 1.71409E-09 3.71935E-19-3.58059E-18
 -1      1236 9.51897E-05-2.85574E-05-2.85600E-05-3.09882E-10-2.60110E-19-3.84131E-18
 -1      1237 9.52038E-05-2.85609E-05-2.85614E-05-3.31794E-09 8.83680E-19-7.02370E-18
 -1      1238 9.52291E-05-2.85694E-05-2.85637E-05-2.63562E-09-3.24761E-19-6.69600E-18
 -1      1239 9.52390E-05-2.85796E-05-2.85640E-05-2.97232E-09-6.58398E-18-4.06770E-19
 -1      1240 9.52457E-05-2.86030E-05-2.85623E-05-5.39583E-09-2.25632E-18 1.81819E-19
 -1      1241 9.52480E-05-2.86104E-05-2.85625E-05-2.41191E-09 5.30332E-18-8.11402E-19
 -1      1242 9.52405E-05-2.85845E-05-2.85700E-05 2.67137E-10 5.43653E-18 2.43943E-20
 -1      1243 9.52250E-05-2.85312E-05-2.85846E-05 1.91274E-09 4.32597E-18-7.39850E-21
 -1      1244 9.52060E-05-2.84659E-05-2.86025E-05 2.49282E-09 3.42529E-18-5.41353E-19
 -1      1245 9.51882E-05-2.84046E-05-2.86195E-05 2.19751E-09-1.88102E-18-9.01984E-20
 -1      1246 9.51756E-05-2.83614E-05-2.86315E-05 1.22899E-09-3.73995E-18-1.53839E-19
 -1      1247 9.51713E-05-2.83466E-05-2.86356E-05-7.73954E-11 3.47093E-19-8.68105E-19
 -1      1248 9.51763E-05-2.83637E-05-2.86308E-05-1.37562E-09 2.81663E-18 4.00987E-19
 -1      1249 9.51895E-05-2.84090E-05-2.86182E-05-2.30932E-09-2.29139E-18-3.97283E-19
 -1      1250 9.52078E-05-2.84717E-05-2.86009E-05-2.57094E-09-9.05706E-18-5.27758E-19
 -1      1251 9.52269E-05-2.85374E-05-2.85828E-05-1.89093E-09-7.70968E-18-3.48441E-20
 -1      1252 9.52421E-05-2.85898E-05-2.85685E-05-1.49699E-10-7.95717E-18 2.25187E-19
 -1      1253 9.52497E-05-2.86144E-05-2.85615E-05 3.00225E-09-8.08512E-18 2.94544E-19
 -1      1254 9.52451E-05-2.86024E-05-2.85615E-05 8.46364E-09-2.83336E-18-6.08742E-19
 -1      1255 9.52394E-05-2.85808E-05-2.85638E-05 3.84084E-09 1.55401E-19 3.90927E-19
 -1      1256 3.44755E-05-1.06968E-04 1.80168E-05-1.25821E-05 3.75236E-19 1.43808E-18
 -1      1257 1.86790E-05-6.75686E-05 1.01378E-05-2.50965E-05 1.37541E-17 4.93566E-18
 -1      1258 7.53949E-06-1.17068E-05-4.89729E-06-2.36721E-06 1.49671E-17 8.69141E-18
 -1      1259 3.13909E-05 2.40988E-05-2.49539E-05 5.02438E-05 1.31731E-17 1.26809E-17
 -1      1260 1.02731E-04 1.48875E-05-4.53543E-05 9.93312E-05 1.04151E-17 1.42522E-17
 -1      1261 2.02086E-04-3.09753E-05-6.31396E-05 1.07642E-04 5.19443E-18 1.28622E-17
 -1      1262 2.85432E-04-7.91130E-05-7.45285E-05 6.35305E-05 1.66098E-18 6.83217E-18
 -1      1263 3.05930E-04-9.15831E-05-7.72947E-05-1.45866E-05 7.13149E-19-2.86159E-18
 -1      1264 2.60309E-04-6.41871E-05-7.12783E-05-8.57429E-05 2.56799E-18-9.16066E-18
 -1      1265 1.69229E-04-1.37382E-05-5.79758E-05-1.11584E-04 7.39460E-18-1.40082E-17
 -1      1266 7.84037E-05 2.22114E-05-3.98046E-05-8.84274E-05 1.31646E-17-1.62054E-17
 -1      1267 2.14833E-05 2.01041E-05-2.02786E-05-3.73972E-05 1.49450E-17-1.27445E-17
 -1      1268 7.63836E-06-2.08761E-05-1.86443E-06 8.69085E-06 1.34356E-17-7.54368E-18
 -1      1269 2.15098E-05-7.59904E-05 1.19093E-05 2.52272E-05 8.71089E-18-2.82613E-18
 -1      1270 3.55458E-05-1.09644E-04 1.85806E-05 8.33319E-06 2.36957E-19-7.03858E-19
 -1      1271 3.21286E-05-1.01919E-04 1.70735E-05-1.88327E-05-9.79128E-18-2.55740E-18
 -1      1272 1.41216E-05-5.52902E-05 7.41409E-06-2.44464E-05-1.86737E-17-7.97312E-18
 -1      1273 9.07532E-06-2.84444E-06-8.59829E-06 6.20723E-06-1.95309E-17-1.29918E-17
 -1      1274 3.93934E-05 2.43076E-05-2.78724E-05 5.77716E-05-1.80774E-17-1.72574E-17
 -1      1275 1.10470E-04 1.16266E-05-4.70752E-05 1.01417E-04-1.21160E-17-1.74099E-17
 -1      1276 2.03762E-04-3.12690E-05-6.35556E-05 1.10120E-04-6.79998E-18-1.54787E-17
 -1      1277 2.83765E-04-7.69115E-05-7.47032E-05 7.08218E-05-2.92015E-18-1.01983E-17
 -1      1278 3.14901E-04-9.57491E-05-7.85774E-05-1.50068E-06-4.32993E-19-4.30081E-18
 -1      1279 2.80402E-04-7.46185E-05-7.43226E-05-7.30911E-05-1.32995E-18 4.05475E-18
 -1      1280 1.95385E-04-2.71015E-05-6.21986E-05-1.10860E-04-3.94040E-18 8.24502E-18
 -1      1281 9.89995E-05 1.52780E-05-4.46468E-05-9.73105E-05-8.67446E-18 1.15993E-17
 -1      1282 3.10371E-05 2.19690E-05-2.43266E-05-4.77098E-05-1.35610E-17 1.25954E-17
 -1      1283 7.36249E-06-1.22438E-05-4.83287E-06 3.61564E-06-1.51161E-17 9.38851E-18
 -1      1284 1.81223E-05-6.72439E-05 1.00246E-05 2.61262E-05-1.52356E-17 5.71070E-18
 -1      1285 3.36628E-05-1.06333E-04 1.81522E-05 1.37671E-05-1.22091E-17 2.09471E-18
 -1      1286 1.04112E-04-2.19386E-05-3.77748E-05-1.71729E-05-3.66554E-19 6.13802E-18
 -1      1287 9.02577E-05-6.69582E-06-3.59808E-05-2.02821E-05-9.94364E-19-2.81586E-19
 -1      1288 9.25215E-05-6.75770E-06-3.71528E-05-2.55693E-05-1.28558E-18 1.15286E-18
 -1      1289 8.59452E-05-4.11164E-06-3.51391E-05-1.62130E-05-9.78958E-19-2.31182E-18
 -1      1290 8.71556E-05-4.10774E-06-3.55881E-05-1.86429E-05-1.10866E-18-1.44758E-18
 -1      1291 9.21109E-05-1.04840E-05-3.50731E-05-1.88109E-05-1.72302E-18-1.94394E-19
 -1      1292 8.41906E-05-3.19745E-06-3.47229E-05-1.25855E-05-7.44383E-19-3.23751E-18
 -1      1293 8.47780E-05-3.16744E-06-3.49357E-05-1.44047E-05-8.47509E-19-2.81453E-18
 -1      1294 8.79292E-05-7.40384E-06-3.45934E-05-1.51720E-05-1.50695E-18-1.83287E-18
 -1      1295 8.32842E-05-2.71278E-06-3.45191E-05-9.46061E-06-5.08107E-19-3.69828E-18
 -1      1296 8.35966E-05-2.69747E-06-3.46236E-05-1.10000E-05-5.89522E-19-3.50220E-18
 -1      1297 8.59553E-05-5.96752E-06-3.43478E-05-1.17071E-05-1.08623E-18-2.67152E-18
 -1      1298 8.27788E-05-2.42112E-06-3.44173E-05-6.72382E-06-2.81969E-19-3.88017E-18
 -1      1299 8.29528E-05-2.41357E-06-3.44705E-05-8.07488E-06-3.50936E-19-3.78579E-18
 -1      1300 8.48954E-05-5.16022E-06-3.42274E-05-8.71372E-06-7.18165E-19-3.04159E-18
 -1      1301 8.24843E-05-2.23749E-06-3.43644E-05-4.16070E-06-9.14829E-20-3.93493E-18
 -1      1302 8.25822E-05-2.23428E-06-3.43923E-05-5.43145E-06-1.37782E-19-3.92690E-18
 -1      1303 8.42826E-05-4.66812E-06-3.41684E-05-6.03070E-06-3.69399E-19-3.22330E-18
 -1      1304 8.23368E-05-2.13589E-06-3.43409E-05-1.72926E-06 1.11684E-19-3.87434E-18
 -1      1305 8.23805E-05-2.13473E-06-3.43527E-05-2.94281E-06 2.70157E-20-3.89066E-18
 -1      1306 8.39323E-05-4.37557E-06-3.41397E-05-3.52378E-06-6.99183E-20-3.23522E-18
 -1      1307 8.23063E-05-2.10427E-06-3.43377E-05 6.49415E-07 2.58910E-19-3.80383E-18
 -1      1308 8.23053E-05-2.10433E-06-3.43375E-05-5.46544E-07 2.20111E-19-3.88163E-18
 -1      1309 8.37737E-05-4.24024E-06-3.41281E-05-1.12900E-06 2.95089E-19-3.22839E-18
 -1      1310 8.23876E-05-2.13916E-06-3.43536E-05 3.04945E-06 4.85148E-19-3.67799E-18
 -1      1311 8.23416E-05-2.14042E-06-3.43412E-05 1.83320E-06 4.25488E-19-3.74366E-18
 -1      1312 8.37780E-05-4.24462E-06-3.41282E-05 1.23101E-06 5.39763E-19-3.14037E-18
 -1      1313 8.25969E-05-2.24483E-06-3.43938E-05 5.54749E-06 6.29157E-19-3.46231E-18
 -1      1314 8.24960E-05-2.24745E-06-3.43654E-05 4.27064E-06 5.82841E-19-3.61691E-18
 -1      1315 8.39461E-05-4.38948E-06-3.41399E-05 3.63028E-06 8.90240E-19-3.00926E-18
 -1      1316 8.29724E-05-2.42870E-06-3.44720E-05 8.18349E-06 8.16977E-19-3.03481E-18
 -1      1317 8.27954E-05-2.43646E-06-3.44183E-05 6.82350E-06 7.37613E-19-3.27908E-18
 -1      1318 8.43054E-05-4.69129E-06-3.41682E-05 6.12434E-06 1.12607E-18-2.74088E-18
 -1      1319 8.36348E-05-2.72721E-06-3.46272E-05 1.11614E-05 1.08719E-18-2.37250E-18
 -1      1320 8.33171E-05-2.74315E-06-3.45213E-05 9.60458E-06 9.66670E-19-2.76178E-18
 -1      1321 8.49345E-05-5.20115E-06-3.42270E-05 8.82378E-06 1.47289E-18-2.27079E-18
 -1      1322 8.48331E-05-3.20945E-06-3.49426E-05 1.46121E-05 1.26803E-18-1.27357E-18
 -1      1323 8.42395E-05-3.24486E-06-3.47270E-05 1.27687E-05 1.13812E-18-1.95718E-18
 -1      1324 8.60287E-05-6.04438E-06-3.43481E-05 1.18725E-05 1.80159E-18-1.58501E-18
 -1      1325 8.72552E-05-4.11001E-06-3.56087E-05 1.88803E-05 1.33582E-18 7.40942E-19
 -1      1326 8.60146E-05-4.17247E-06-3.51458E-05 1.64719E-05 1.22518E-18-4.69892E-19
 -1      1327 8.80498E-05-7.52889E-06-3.45941E-05 1.54040E-05 1.98531E-18-3.39448E-19
 -1      1328 9.33266E-05-6.80669E-06-3.70485E-05 2.49114E-05 1.07023E-18 4.39705E-18
 -1      1329 9.00735E-05-6.45381E-06-3.60030E-05 2.09564E-05 1.08097E-18 2.19927E-18
 -1      1330 9.23390E-05-1.07179E-05-3.50577E-05 1.94519E-05 1.93550E-18 1.90741E-18
 -1      1331 1.23184E-04-2.48374E-05-3.88896E-05 2.82087E-05 4.33257E-19 1.09081E-17
 -1      1332 9.98509E-05-1.43963E-05-3.72624E-05 2.38935E-05 4.72327E-19 6.45863E-18
 -1      1333 1.01509E-04-1.93236E-05-3.53364E-05 2.12083E-05 1.69904E-18 5.20968E-18
 -1      1334 1.02288E-04-2.77196E-05-3.46510E-05 7.25411E-06 8.65191E-19 1.06546E-17
 -1      1335 1.04853E-04-3.01472E-05-3.34314E-05-7.86947E-06-1.05741E-18 6.50140E-18
 -1      1336 9.80423E-05-2.77839E-05-3.06905E-05-4.91426E-06-1.01745E-18 5.21185E-18
 -1      1337 9.53377E-05-2.78001E-05-2.92031E-05-2.41616E-06-7.82103E-19 4.75420E-18
 -1      1338 9.31741E-05-2.75277E-05-2.81854E-05-1.96947E-06-6.94779E-19 3.65357E-18
 -1      1339 9.93627E-05-2.80199E-05-3.09434E-05-7.73905E-06-1.66521E-18 2.68059E-18
 -1      1340 9.15534E-05-2.71884E-05-2.75733E-05-7.53861E-07-5.06962E-19 3.24117E-18
 -1      1341 9.09156E-05-2.71148E-05-2.72953E-05-6.39976E-07-4.98472E-19 2.53742E-18
 -1      1342 9.47173E-05-2.77658E-05-2.88188E-05-2.96132E-06-1.17121E-18 1.95940E-18
 -1      1343 9.02539E-05-2.69564E-05-2.70799E-05-6.24881E-08-3.62676E-19 2.17089E-18
 -1      1344 9.02858E-05-2.70126E-05-2.70768E-05 2.12641E-09-4.23603E-19 1.60780E-18
 -1      1345 9.26711E-05-2.75336E-05-2.79480E-05-8.52645E-07-8.66674E-19 1.30871E-18
 -1      1346 9.01457E-05-2.69785E-05-2.70399E-05 3.09354E-07-2.06762E-19 1.44754E-18
 -1      1347 9.05062E-05-2.71103E-05-2.71456E-05 3.47864E-07-2.11242E-19 1.23087E-18
 -1      1348 9.19155E-05-2.74432E-05-2.76463E-05 2.03643E-07-6.21901E-19 7.63514E-19
 -1      1349 9.06734E-05-2.71594E-05-2.72030E-05 5.31722E-07-1.97240E-19 1.12965E-18
 -1      1350 9.12218E-05-2.73386E-05-2.73639E-05 5.57192E-07-2.49895E-19 8.69651E-19
 -1      1351 9.19387E-05-2.75054E-05-2.76262E-05 7.99099E-07-4.38449E-19 5.45582E-19
 -1      1352 9.15869E-05-2.74432E-05-2.74807E-05 6.83325E-07-2.34908E-19 7.12818E-19
 -1      1353 9.22625E-05-2.76556E-05-2.76789E-05 7.03502E-07-2.07521E-19 3.29456E-19
 -1      1354 9.24493E-05-2.76820E-05-2.77674E-05 1.17697E-06-3.81196E-19 3.57587E-19
 -1      1355 9.27718E-05-2.78009E-05-2.78392E-05 8.08161E-07-2.46659E-19 3.03608E-19
 -1      1356 9.35556E-05-2.80423E-05-2.80698E-05 8.28205E-07-1.52701E-19 3.48210E-20
 -1      1357 9.32939E-05-2.79419E-05-2.80169E-05 1.45861E-06-5.39922E-19 2.05750E-19
 -1      1358 9.41877E-05-2.82224E-05-2.82678E-05 9.34202E-07-1.13023E-19-7.49459E-20
 -1      1359 9.50855E-05-2.84957E-05-2.85326E-05 9.57844E-07-3.27871E-19-3.81883E-19
 -1      1360 9.44008E-05-2.82696E-05-2.83508E-05 1.71488E-06-3.35118E-19 1.73834E-19
 -1      1361 9.58392E-05-2.87103E-05-2.87683E-05 1.08039E-06-4.90052E-19-3.40448E-19
 -1      1362 9.68737E-05-2.90237E-05-2.90739E-05 1.11032E-06-1.85348E-19-8.36263E-19
 -1      1363 9.57479E-05-2.86616E-05-2.87610E-05 1.99161E-06-5.19132E-19 1.77412E-19
 -1      1364 9.77603E-05-2.92764E-05-2.93507E-05 1.25864E-06 1.99561E-19-1.08851E-18
 -1      1365 9.89646E-05-2.96414E-05-2.97067E-05 1.29644E-06 1.36108E-19-8.14991E-19
 -1      1366 9.73446E-05-2.91238E-05-2.92489E-05 2.31842E-06-1.30029E-19-8.32061E-21
 -1      1367 1.00001E-04-2.99378E-05-3.00297E-05 1.47285E-06-1.07098E-19-8.57872E-19
 -1      1368 1.01410E-04-3.03669E-05-3.04457E-05 1.51848E-06-3.94926E-19-1.19823E-18
 -1      1369 9.92187E-05-2.96678E-05-2.98209E-05 2.70961E-06-3.09117E-20-8.40567E-19
 -1      1370 1.02612E-04-3.07130E-05-3.08190E-05 1.71496E-06-3.38654E-19-1.19842E-18
 -1      1371 1.04252E-04-3.12169E-05-3.13015E-05 1.76558E-06-2.40867E-19-1.56055E-18
 -1      1372 1.01403E-04-3.03093E-05-3.04839E-05 3.15910E-06-4.65691E-19-1.11285E-18
 -1      1373 1.05619E-04-3.16160E-05-3.17238E-05 1.95729E-06 7.29557E-20-1.50904E-18
 -1      1374 1.07484E-04-3.21975E-05-3.22694E-05 2.00520E-06-6.21097E-20-1.43205E-18
 -1      1375 1.03916E-04-3.10639E-05-3.12384E-05 3.62897E-06-2.03296E-19-6.44716E-19
 -1      1376 1.08991E-04-3.26472E-05-3.27290E-05 2.14084E-06-9.24699E-20-1.36163E-18
 -1      1377 1.11012E-04-3.32910E-05-3.33148E-05 2.17030E-06-1.48000E-19-1.49369E-18
 -1      1378 1.06741E-04-3.19423E-05-3.20704E-05 4.03049E-06 2.03321E-20-7.49111E-19
 -1      1379 1.12579E-04-3.37768E-05-3.37817E-05 2.16100E-06-4.13742E-19-1.43822E-18
 -1      1380 1.14575E-04-3.44345E-05-3.43514E-05 2.14456E-06-3.62782E-19-1.80938E-18
 -1      1381 1.09786E-04-3.29406E-05-3.29397E-05 4.19936E-06-3.24720E-19-6.64388E-19
 -1      1382 1.16046E-04-3.49215E-05-3.47696E-05 1.85907E-06-8.91138E-20-1.86349E-18
 -1      1383 1.17677E-04-3.54907E-05-3.52206E-05 1.75599E-06-5.03720E-20-1.96217E-18
 -1      1384 1.12836E-04-3.40224E-05-3.37668E-05 3.87562E-06-4.20949E-19-1.96485E-19
 -1      1385 1.18797E-04-3.59108E-05-3.55055E-05 1.04169E-06 3.03575E-19-2.03236E-18
 -1      1386 1.19534E-04-3.62176E-05-3.56881E-05 8.06396E-07 4.93350E-19-1.44462E-18
 -1      1387 1.15506E-04-3.50871E-05-3.44262E-05 2.71861E-06 2.22763E-19-6.00652E-19
 -1      1388 1.19955E-04-3.64569E-05-3.57385E-05-4.30532E-07 3.92534E-19-1.43808E-18
 -1      1389 1.19168E-04-3.62675E-05-3.54870E-05-8.18156E-07-2.44515E-19-1.19728E-18
 -1      1390 1.17207E-04-3.59204E-05-3.47583E-05 4.19039E-07 5.21799E-19-8.88213E-19
 -1      1391 1.18530E-04-3.61676E-05-3.52234E-05-2.45176E-06-7.57367E-20-1.28468E-18
 -1      1392 1.15763E-04-3.52709E-05-3.44415E-05-2.92545E-06 1.71657E-20-1.15165E-18
 -1      1393 1.17206E-04-3.61625E-05-3.46172E-05-3.02078E-06-2.84656E-19-5.99193E-19
 -1      1394 1.13893E-04-3.46932E-05-3.38697E-05-4.43484E-06-2.00773E-20-8.76626E-19
 -1      1395 1.09346E-04-3.30892E-05-3.26465E-05-4.79390E-06 8.62915E-21-5.51948E-19
 -1      1396 1.14886E-04-3.53752E-05-3.39561E-05-6.86805E-06 1.83303E-20-4.77105E-19
 -1      1397 1.06558E-04-3.20589E-05-3.19074E-05-5.29908E-06-5.04423E-20-7.55236E-19
 -1      1398 1.01477E-04-3.01633E-05-3.05958E-05-5.24957E-06-1.98070E-19-8.08069E-19
 -1      1399 1.10291E-04-3.33620E-05-3.29164E-05-9.44021E-06-2.61922E-19-8.76309E-19
 -1      1400 9.87892E-05-2.90683E-05-2.99549E-05-4.03272E-06-4.90538E-19-1.27468E-18
 -1      1401 9.52371E-05-2.76939E-05-2.90647E-05-3.44370E-06-5.82573E-19-1.90058E-18
 -1      1402 1.04713E-04-3.06277E-05-3.18333E-05-8.69738E-06-6.84330E-19-1.05706E-18
 -1      1403 9.39913E-05-2.71575E-05-2.87873E-05-7.45516E-07-1.59282E-19-1.83221E-18
 -1      1404 9.37031E-05-2.70433E-05-2.87170E-05 1.35668E-07 1.24262E-19-1.81869E-18
 -1      1405 1.00637E-04-2.85214E-05-3.11236E-05-3.92914E-06-6.87394E-19-8.08241E-19
 -1      1406 9.46323E-05-2.74422E-05-2.89255E-05 2.96750E-06 1.36372E-19-2.28895E-18
 -1      1407 9.77625E-05-2.86562E-05-2.97093E-05 3.63234E-06 1.85765E-19-2.08725E-18
 -1      1408 1.00307E-04-2.83428E-05-3.10729E-05 2.91257E-06 5.69630E-20-9.18237E-19
 -1      1409 1.00324E-04-2.97112E-05-3.03121E-05 5.13940E-06 3.80569E-20-2.34607E-18
 -1      1410 1.05324E-04-3.15891E-05-3.15957E-05 5.27386E-06-3.14147E-19-2.34109E-18
 -1      1411 1.03928E-04-3.02195E-05-3.17011E-05 8.22298E-06-8.44386E-20-2.12881E-18
 -1      1412 1.08198E-04-3.26695E-05-3.23426E-05 5.01661E-06-7.03362E-19-2.07634E-18
 -1      1413 1.12965E-04-3.43682E-05-3.36148E-05 4.70563E-06-6.73801E-19-3.39311E-18
 -1      1414 1.09481E-04-3.29639E-05-3.27581E-05 9.63176E-06-8.34197E-19-1.74348E-18
 -1      1415 1.15045E-04-3.50355E-05-3.42340E-05 3.29852E-06 2.10302E-19-2.99993E-18
 -1      1416 1.18163E-04-3.60623E-05-3.51079E-05 2.82676E-06 5.56110E-19-2.57712E-18
 -1      1417 1.14400E-04-3.51644E-05-3.38428E-05 7.47630E-06-1.52850E-19-1.61773E-18
 -1      1418 1.19025E-04-3.62391E-05-3.54340E-05 1.17416E-06 3.98264E-19-2.10226E-18
 -1      1419 1.20147E-04-3.65410E-05-3.57790E-05 7.67505E-07 1.98411E-19-1.41947E-18
 -1      1420 1.17165E-04-3.61615E-05-3.45963E-05 3.71275E-06 8.08864E-19-2.44402E-19
 -1      1421 1.19912E-04-3.63555E-05-3.57875E-05-5.37516E-07-5.15909E-19-1.43757E-18
 -1      1422 1.19428E-04-3.61266E-05-3.56793E-05-7.93837E-07-6.05192E-19-2.06820E-18
 -1      1423 1.17573E-04-3.60734E-05-3.48437E-05 1.58465E-07-1.07308E-19-1.13908E-18
 -1      1424 1.18448E-04-3.57415E-05-3.54416E-05-1.57276E-06-2.79468E-19-2.53980E-18
 -1      1425 1.16991E-04-3.52218E-05-3.50433E-05-1.69000E-06 1.52698E-20-2.62096E-18
 -1      1426 1.16184E-04-3.53314E-05-3.46073E-05-2.30296E-06-8.86910E-19-1.67579E-18
 -1      1427 1.15625E-04-3.47595E-05-3.46614E-05-2.01474E-06 1.96921E-19-2.83166E-18
 -1      1428 1.13752E-04-3.41353E-05-3.41301E-05-2.03716E-06 8.64553E-20-2.54923E-18
 -1      1429 1.13743E-04-3.43195E-05-3.40258E-05-3.58337E-06-9.75478E-20-1.70041E-18
 -1      1430 1.12275E-04-3.36711E-05-3.36937E-05-2.05775E-06-4.40106E-19-2.47447E-18
 -1      1431 1.10363E-04-3.30568E-05-3.31413E-05-2.02754E-06-3.73394E-19-3.14043E-18
 -1      1432 1.10875E-04-3.32748E-05-3.32627E-05-3.96566E-06-2.13137E-19-2.25270E-18
 -1      1433 1.08949E-04-3.26311E-05-3.27120E-05-1.88071E-06 1.51582E-19-2.82287E-18
 -1      1434 1.07205E-04-3.20842E-05-3.22028E-05-1.82746E-06 4.31155E-19-2.91138E-18
 -1      1435 1.08003E-04-3.23144E-05-3.24525E-05-3.79519E-06-1.96986E-19-1.74266E-18
 -1      1436 1.05946E-04-3.17149E-05-3.18152E-05-1.60916E-06-1.18704E-19-3.23890E-18
 -1      1437 1.04459E-04-3.12563E-05-3.13780E-05-1.55032E-06-1.51275E-19-3.99828E-18
 -1      1438 1.05371E-04-3.14845E-05-3.16834E-05-3.34745E-06 3.16016E-20-1.72692E-18
 -1      1439 1.03391E-04-3.09480E-05-3.10468E-05-1.31795E-06 1.50932E-19-3.87292E-18
 -1      1440 1.02178E-04-3.05786E-05-3.06885E-05-1.26246E-06 3.90403E-19-3.41691E-18
 -1      1441 1.03092E-04-3.07945E-05-3.10022E-05-2.80242E-06 2.48262E-19-2.60466E-18
 -1      1442 1.01304E-04-3.03284E-05-3.04164E-05-1.04582E-06 7.34222E-20-4.00872E-18
 -1      1443 1.00345E-04-3.00395E-05-3.01325E-05-9.97491E-07-1.23602E-19-3.57546E-18
 -1      1444 1.01195E-04-3.02360E-05-3.04268E-05-2.26197E-06 5.57007E-20-1.95270E-18
 -1      1445 9.96490E-05-2.98413E-05-2.99153E-05-8.09377E-07 3.83663E-19-2.75530E-18
 -1      1446 9.89108E-05-2.96206E-05-2.96961E-05-7.69218E-07 8.29070E-19-1.67273E-18
 -1      1447 9.96622E-05-2.97937E-05-2.99574E-05-1.77568E-06 3.78581E-19-2.78724E-18
 -1      1448 9.83686E-05-2.94668E-05-2.95269E-05-6.12911E-07 3.58970E-19-1.47118E-18
 -1      1449 9.78126E-05-2.93018E-05-2.93614E-05-5.80577E-07-8.70072E-19-1.99935E-18
 -1      1450 9.84540E-05-2.94500E-05-2.95845E-05-1.36208E-06 7.32250E-19-1.56409E-18
 -1      1451 9.73990E-05-2.91847E-05-2.92323E-05-4.54568E-07-8.14922E-19-1.89264E-18
 -1      1452 9.69890E-05-2.90639E-05-2.91100E-05-4.29127E-07-5.52778E-19-2.72246E-18
 -1      1453 9.75215E-05-2.91877E-05-2.92951E-05-1.02303E-06-8.43053E-19-1.61407E-18
 -1      1454 9.66798E-05-2.89766E-05-2.90136E-05-3.29803E-07-6.03691E-19-2.78124E-18
 -1      1455 9.63844E-05-2.88902E-05-2.89252E-05-3.10147E-07-1.52539E-19-3.46727E-18
 -1      1456 9.68160E-05-2.89911E-05-2.90751E-05-7.52302E-07-7.63583E-19-1.61754E-18
 -1      1457 9.61582E-05-2.88264E-05-2.88547E-05-2.33235E-07 8.25981E-19-3.45730E-18
 -1      1458 9.59510E-05-2.87663E-05-2.87925E-05-2.18273E-07 6.81913E-19-2.99896E-18
 -1      1459 9.62930E-05-2.88468E-05-2.89113E-05-5.40439E-07 5.27363E-19-2.34312E-18
 -1      1460 9.57896E-05-2.87209E-05-2.87423E-05-1.59557E-07-3.36379E-19-1.34319E-18
 -1      1461 9.56495E-05-2.86807E-05-2.87001E-05-1.48298E-07-1.35567E-19-2.24401E-18
 -1      1462 9.59141E-05-2.87431E-05-2.87920E-05-3.77295E-07 1.11269E-18-1.70987E-18
 -1      1463 9.55380E-05-2.86493E-05-2.86654E-05-1.03939E-07 1.50132E-18-2.53257E-18
 -1      1464 9.54483E-05-2.86240E-05-2.86383E-05-9.55187E-08 1.77026E-18-7.00447E-19
 -1      1465 9.56471E-05-2.86708E-05-2.87075E-05-2.53243E-07 8.75355E-19-4.46413E-19
 -1      1466 9.53748E-05-2.86033E-05-2.86155E-05-6.21828E-08 1.78674E-18-3.66422E-19
 -1      1467 9.53229E-05-2.85890E-05-2.85997E-05-5.58620E-08 7.75073E-19 1.65180E-18
 -1      1468 9.54657E-05-2.86222E-05-2.86497E-05-1.59715E-07 2.37343E-18 3.51328E-19
 -1      1469 9.52780E-05-2.85763E-05-2.85859E-05-3.08179E-08 2.79775E-19 2.46290E-18
 -1      1470 9.52545E-05-2.85705E-05-2.85785E-05-2.60001E-08 1.03197E-18 3.05573E-18
 -1      1471 9.53491E-05-2.85915E-05-2.86123E-05-8.94559E-08 1.40130E-18 1.37364E-18
 -1      1472 9.52305E-05-2.85638E-05-2.85712E-05-7.52878E-09 4.07879E-19 3.10321E-18
 -1      1473 9.52280E-05-2.85645E-05-2.85698E-05-3.88811E-09-2.16862E-19 3.94710E-18
 -1      1474 9.52809E-05-2.85743E-05-2.85899E-05-3.70616E-08 4.31030E-19 2.68133E-18
 -1      1475 9.52177E-05-2.85616E-05-2.85665E-05 7.96878E-09-1.45134E-18 3.17086E-18
 -1      1476 9.52291E-05-2.85681E-05-2.85679E-05 1.06145E-08-1.46220E-18 1.48700E-18
 -1      1477 9.52471E-05-2.85678E-05-2.85776E-05-5.59039E-10-1.28580E-18 2.16376E-18
 -1      1478 9.52313E-05-2.85747E-05-2.85646E-05 7.73451E-09-1.23498E-18 1.03747E-18
 -1      1479 9.52391E-05-2.85772E-05-2.85688E-05 1.45861E-08-1.95003E-18 5.66131E-19
 -1      1480 9.63748E-05-2.83046E-05-2.97084E-05 2.93314E-06 8.62227E-19 8.81904E-18
 -1      1481 1.02257E-04-2.93166E-05-3.20699E-05 4.39489E-06 7.37501E-19 1.00551E-17
 -1      1482 1.02124E-04-2.66733E-05-3.26387E-05 1.26434E-05 1.39501E-18 6.85017E-18
 -1      1483 9.19587E-05-2.74063E-05-2.77401E-05 1.08726E-06 5.73838E-19 7.27146E-18
 -1      1484 9.38375E-05-2.75419E-05-2.86326E-05 1.41009E-06 5.99011E-19 8.13430E-18
 -1      1485 9.63972E-05-2.80050E-05-2.95063E-05 4.74243E-06 1.28537E-18 5.60690E-18
 -1      1486 9.02803E-05-2.70252E-05-2.70895E-05 2.51098E-07 3.79133E-19 6.22418E-18
 -1      1487 9.08162E-05-2.70188E-05-2.73374E-05 4.17971E-07 3.69789E-19 6.75096E-18
 -1      1488 9.30882E-05-2.75880E-05-2.81154E-05 1.70943E-06 8.89252E-19 4.67943E-18
 -1      1489 8.99661E-05-2.69656E-05-2.69763E-05-1.64785E-07 4.01073E-19 5.35539E-18
 -1      1490 8.98985E-05-2.68703E-05-2.69722E-05-6.84609E-08 3.37591E-19 5.85882E-18
 -1      1491 9.17071E-05-2.73632E-05-2.75862E-05 3.32728E-07 6.92635E-19 3.67823E-18
 -1      1492 9.03766E-05-2.70990E-05-2.71033E-05-3.95146E-07 2.16946E-19 4.49707E-18
 -1      1493 9.00022E-05-2.69451E-05-2.69937E-05-3.33996E-07 2.91426E-19 4.97714E-18
 -1      1494 9.14050E-05-2.73459E-05-2.74620E-05-3.85581E-07 6.30993E-19 3.11084E-18
 -1      1495 9.12130E-05-2.73536E-05-2.73584E-05-5.37179E-07 8.58613E-21 4.38320E-18
 -1      1496 9.06628E-05-2.71612E-05-2.71952E-05-4.94202E-07-3.10267E-20 4.40195E-18
 -1      1497 9.17339E-05-2.74764E-05-2.75480E-05-8.01073E-07 9.98903E-20 2.81341E-18
 -1      1498 9.23296E-05-2.76892E-05-2.76965E-05-6.38375E-07 2.26734E-19 3.91104E-18
 -1      1499 9.16627E-05-2.74691E-05-2.74985E-05-6.04148E-07 1.50405E-19 4.30753E-18
 -1      1500 9.24586E-05-2.77078E-05-2.77597E-05-1.06983E-06 1.97470E-19 2.56075E-18
 -1      1501 9.36608E-05-2.80872E-05-2.80988E-05-7.25462E-07 2.55552E-19 3.07882E-18
 -1      1502 9.28999E-05-2.78425E-05-2.78725E-05-6.93968E-07 3.23482E-19 3.62580E-18
 -1      1503 9.34584E-05-2.80120E-05-2.80580E-05-1.27218E-06 5.55569E-19 2.32598E-18
 -1      1504 9.51863E-05-2.85424E-05-2.85595E-05-8.14089E-07 2.72290E-19 2.75546E-18
 -1      1505 9.43336E-05-2.82713E-05-2.83055E-05-7.81374E-07 1.18567E-19 3.00188E-18
 -1      1506 9.46762E-05-2.83758E-05-2.84245E-05-1.45365E-06 4.24943E-19 1.83196E-18
 -1      1507 9.69105E-05-2.90570E-05-2.90796E-05-9.11826E-07 7.36009E-20 2.53667E-18
 -1      1508 9.59572E-05-2.87552E-05-2.87957E-05-8.75647E-07 1.53325E-19 2.64307E-18
 -1      1509 9.60910E-05-2.87957E-05-2.88518E-05-1.63941E-06 2.80482E-19 1.50626E-18
 -1      1510 9.88449E-05-2.96358E-05-2.96619E-05-1.01826E-06 3.56989E-19 2.21071E-18
 -1      1511 9.77802E-05-2.92989E-05-2.93452E-05-9.78285E-07 1.85199E-19 2.49230E-18
 -1      1512 9.76995E-05-2.92736E-05-2.93373E-05-1.83849E-06 2.52252E-19 1.43451E-18
 -1      1513 1.00990E-04-3.02813E-05-3.03054E-05-1.12319E-06 3.88894E-19 1.40145E-18
 -1      1514 9.98108E-05-2.99078E-05-2.99558E-05-1.08169E-06 4.33075E-19 1.80814E-18
 -1      1515 9.95003E-05-2.98127E-05-2.98787E-05-2.04286E-06 6.40762E-19 1.32020E-18
 -1      1516 1.03314E-04-3.09861E-05-3.09982E-05-1.20344E-06-1.15174E-19 9.23842E-19
 -1      1517 1.02037E-04-3.05818E-05-3.06220E-05-1.16644E-06-3.79242E-20 9.82598E-19
 -1      1518 1.01476E-04-3.04127E-05-3.04680E-05-2.22325E-06 3.46355E-19 5.91186E-19
 -1      1519 1.05719E-04-3.17253E-05-3.17092E-05-1.21911E-06 2.86818E-19 5.98548E-19
 -1      1520 1.04401E-04-3.13088E-05-3.13242E-05-1.19787E-06 1.78832E-19 1.05317E-18
 -1      1521 1.03575E-04-3.10643E-05-3.10851E-05-2.32310E-06 5.61511E-20-2.66762E-19
 -1      1522 1.08016E-04-3.24448E-05-3.23779E-05-1.11142E-06-4.39930E-19 6.76435E-19
 -1      1523 1.06769E-04-3.20546E-05-3.20192E-05-1.12358E-06 3.94317E-20 4.71427E-19
 -1      1524 1.05683E-04-3.17412E-05-3.16914E-05-2.25317E-06 1.42331E-19-2.90003E-19
 -1      1525 1.09887E-04-3.30511E-05-3.29075E-05-8.06991E-07 2.08239E-19 6.25401E-19
 -1      1526 1.08900E-04-3.27516E-05-3.26319E-05-8.76067E-07-1.70151E-19 5.97575E-19
 -1      1527 1.07603E-04-3.23910E-05-3.22232E-05-1.89301E-06-1.62015E-19-3.56134E-19
 -1      1528 1.10884E-04-3.34051E-05-3.31663E-05-2.36920E-07 4.43011E-19 1.55364E-19
 -1      1529 1.10425E-04-3.32881E-05-3.30511E-05-3.87264E-07 5.13722E-19 8.50173E-19
 -1      1530 1.09039E-04-3.29249E-05-3.25908E-05-1.11083E-06 3.55926E-19-3.30885E-19
 -1      1531 1.10485E-04-3.33336E-05-3.30096E-05 6.19862E-07-1.41421E-19-9.24986E-20
 -1      1532 1.10864E-04-3.35057E-05-3.31394E-05 3.76004E-07 5.85909E-20-2.58874E-20
 -1      1533 1.09608E-04-3.32118E-05-3.26888E-05 1.82297E-07 5.07942E-19 8.36235E-19
 -1      1534 1.08254E-04-3.26742E-05-3.23311E-05 1.66897E-06-7.25067E-19 1.09879E-18
 -1      1535 1.09722E-04-3.32211E-05-3.27663E-05 1.35289E-06-5.97946E-19 2.02507E-19
 -1      1536 1.08914E-04-3.30893E-05-3.24244E-05 1.93333E-06-5.78894E-19 5.04769E-19
 -1      1537 1.04122E-04-3.13691E-05-3.11397E-05 2.63868E-06-5.24985E-19 3.12889E-18
 -1      1538 1.06697E-04-3.22913E-05-3.18696E-05 2.32615E-06-6.11439E-19 2.25001E-18
 -1      1539 1.06704E-04-3.24103E-05-3.17649E-05 3.82658E-06-1.20479E-18 1.52744E-18
 -1      1540 9.86921E-05-2.95865E-05-2.96295E-05 3.10159E-06 3.33771E-19 3.58745E-18
 -1      1541 1.01978E-04-3.07315E-05-3.05315E-05 2.91823E-06-1.54247E-19 3.27002E-18
 -1      1542 1.03106E-04-3.11438E-05-3.07895E-05 5.23239E-06-4.42078E-19 2.21649E-18
 -1      1543 9.33466E-05-2.77852E-05-2.81824E-05 2.66271E-06 7.34371E-19 2.30745E-18
 -1      1544 9.64940E-05-2.88347E-05-2.90239E-05 2.72816E-06 3.73178E-19 3.22571E-18
 -1      1545 9.88358E-05-2.95038E-05-2.97125E-05 5.37811E-06 6.09252E-19 1.88356E-18
 -1      1546 8.98647E-05-2.65974E-05-2.72530E-05 1.25972E-06 4.15642E-20 1.47468E-18
 -1      1547 9.18202E-05-2.71717E-05-2.77650E-05 1.60038E-06 3.76586E-19 1.92938E-18
 -1      1548 9.51518E-05-2.79913E-05-2.88385E-05 3.79352E-06 5.76062E-19 1.39404E-18
 -1      1549 8.95926E-05-2.65173E-05-2.71688E-05-6.54455E-07 1.60936E-20 1.72236E-18
 -1      1550 8.96038E-05-2.63752E-05-2.71683E-05-1.56748E-07-1.92250E-19 1.51778E-18
 -1      1551 9.33986E-05-2.72223E-05-2.84498E-05 7.81796E-07-3.56680E-20 1.09307E-18
 -1      1552 9.26519E-05-2.75821E-05-2.79629E-05-2.30757E-06-4.13597E-19 2.56108E-18
 -1      1553 9.07086E-05-2.67787E-05-2.74489E-05-1.85714E-06 5.80747E-20 2.14503E-18
 -1      1554 9.42920E-05-2.75670E-05-2.86801E-05-2.54533E-06-1.84071E-19 1.49094E-18
 -1      1555 9.78620E-05-2.93481E-05-2.93549E-05-3.09125E-06 7.23164E-19 2.42161E-18
 -1      1556 9.47028E-05-2.82003E-05-2.85099E-05-2.84765E-06 7.82778E-20 2.77258E-18
 -1      1557 9.74726E-05-2.88740E-05-2.94504E-05-4.88465E-06 1.75058E-19 2.03553E-18
 -1      1558 1.03445E-04-3.11795E-05-3.08999E-05-2.89699E-06 2.30155E-20 5.78206E-19
 -1      1559 1.00125E-04-3.00723E-05-2.99919E-05-2.89246E-06 7.20135E-19 2.16618E-18
 -1      1560 1.01735E-04-3.05768E-05-3.05101E-05-5.52648E-06 1.07786E-18 2.15149E-18
 -1      1561 1.07915E-04-3.25842E-05-3.21912E-05-2.04756E-06-4.82739E-19 9.87217E-19
 -1      1562 1.05291E-04-3.17850E-05-3.14524E-05-2.20774E-06-6.05787E-19 2.82750E-19
 -1      1563 1.05720E-04-3.20704E-05-3.15521E-05-4.63120E-06-1.08036E-19 1.66185E-18
 -1      1564 1.10545E-04-3.33587E-05-3.29982E-05-9.93336E-07 1.38139E-20 9.35588E-19
 -1      1565 1.09017E-04-3.29554E-05-3.25500E-05-1.21344E-06 9.31604E-20 9.08734E-19
 -1      1566 1.08507E-04-3.30087E-05-3.23333E-05-2.89768E-06-1.47212E-19 6.15383E-19
 -1      1567 1.11325E-04-3.35389E-05-3.32824E-05-6.83643E-08 6.44956E-19-5.03108E-19
 -1      1568 1.10876E-04-3.34846E-05-3.31347E-05-2.70177E-07 6.72405E-19 3.71583E-19
 -1      1569 1.09788E-04-3.33429E-05-3.27387E-05-1.05502E-06 7.60662E-19 7.19971E-19
 -1      1570 1.10662E-04-3.32800E-05-3.31366E-05 5.79497E-07-1.56106E-20-7.59001E-19
 -1      1571 1.11038E-04-3.34686E-05-3.32279E-05 4.31890E-07 3.14517E-19-7.95557E-19
 -1      1572 1.09718E-04-3.32021E-05-3.27740E-05 4.35666E-07 7.11051E-19 5.04861E-19
 -1      1573 1.09083E-04-3.27578E-05-3.27042E-05 9.42045E-07 4.20762E-19-1.31510E-18
 -1      1574 1.09969E-04-3.30809E-05-3.29493E-05 8.53245E-07 1.10927E-19-1.38036E-18
 -1      1575 1.08673E-04-3.27629E-05-3.25204E-05 1.41292E-06 2.44210E-19-6.55173E-19
 -1      1576 1.07061E-04-3.21184E-05-3.21234E-05 1.07879E-06 3.04744E-19-2.78498E-18
 -1      1577 1.08183E-04-3.24916E-05-3.24440E-05 1.03796E-06 2.97186E-19-2.41033E-18
 -1      1578 1.07058E-04-3.21786E-05-3.20840E-05 1.91180E-06 1.09524E-18-3.22417E-18
 -1      1579 1.04940E-04-3.14637E-05-3.15007E-05 1.06482E-06-5.19271E-19-2.19071E-18
 -1      1580 1.06104E-04-3.18317E-05-3.18385E-05 1.05711E-06-1.25206E-19-1.85333E-18
 -1      1581 1.05210E-04-3.15577E-05-3.15617E-05 2.05099E-06-2.73780E-19-2.24576E-18
 -1      1582 1.02938E-04-3.08549E-05-3.09052E-05 9.64985E-07-1.66578E-19-1.53678E-18
 -1      1583 1.04025E-04-3.11871E-05-3.12238E-05 9.77188E-07-5.99410E-19-1.81153E-18
 -1      1584 1.03364E-04-3.09665E-05-3.10265E-05 1.95923E-06-4.63019E-19-1.22811E-18
 -1      1585 1.01171E-04-3.03229E-05-3.03753E-05 8.26129E-07-2.95754E-19-1.98166E-18
 -1      1586 1.02120E-04-3.06058E-05-3.06554E-05 8.48464E-07 1.99156E-19-1.81199E-18
 -1      1587 1.01664E-04-3.04400E-05-3.05254E-05 1.74189E-06 3.62222E-19-4.20309E-19
 -1      1588 9.96839E-05-2.98784E-05-2.99267E-05 6.78232E-07-1.46520E-19-3.74564E-19
 -1      1589 1.00474E-04-3.01093E-05-3.01611E-05 7.04245E-07-1.05182E-18-1.39100E-18
 -1      1590 1.00184E-04-2.99924E-05-3.00837E-05 1.47301E-06-8.58966E-19-2.15568E-19
 -1      1591 9.84771E-05-2.95196E-05-2.95612E-05 5.38429E-07 2.28811E-19-2.64046E-19
 -1      1592 9.91112E-05-2.97019E-05-2.97502E-05 5.64255E-07 2.88818E-19 7.45356E-20
 -1      1593 9.89470E-05-2.96250E-05-2.97113E-05 1.19898E-06 6.71505E-21 1.06923E-19
 -1      1594 9.75273E-05-2.92386E-05-2.92728E-05 4.15152E-07-8.62342E-19 2.90293E-19
 -1      1595 9.80209E-05-2.93782E-05-2.94203E-05 4.38720E-07-1.90146E-19-2.28388E-19
 -1      1596 9.79462E-05-2.93321E-05-2.94080E-05 9.45666E-07-1.53263E-19 9.15983E-19
 -1      1597 9.68002E-05-2.90243E-05-2.90514E-05 3.11391E-07 1.12315E-19 1.20080E-18
 -1      1598 9.71737E-05-2.91283E-05-2.91634E-05 3.31789E-07-4.47169E-19 3.40936E-19
 -1      1599 9.71596E-05-2.91046E-05-2.91683E-05 7.25190E-07-5.62733E-19 1.63420E-19
 -1      1600 9.62585E-05-2.88652E-05-2.88861E-05 2.26981E-07 5.20428E-19-2.56693E-19
 -1      1601 9.65332E-05-2.89404E-05-2.89687E-05 2.43998E-07 4.76846E-19 7.59450E-19
 -1      1602 9.65571E-05-2.89322E-05-2.89839E-05 5.41138E-07 5.64902E-19 1.41727E-19
 -1      1603 9.58666E-05-2.87505E-05-2.87663E-05 1.60089E-07 2.70563E-20-2.81984E-20
 -1      1604 9.60624E-05-2.88031E-05-2.88254E-05 1.73918E-07 5.88870E-20-5.50307E-20
 -1      1605 9.61078E-05-2.88049E-05-2.88457E-05 3.92209E-07-3.62164E-20-8.73331E-20
 -1      1606 9.55928E-05-2.86707E-05-2.86825E-05 1.08119E-07 1.46767E-18-1.65903E-18
 -1      1607 9.57270E-05-2.87058E-05-2.87231E-05 1.19169E-07 1.07285E-18 1.86451E-20
 -1      1608 9.57821E-05-2.87135E-05-2.87451E-05 2.74559E-07 1.03348E-18-5.56520E-19
 -1      1609 9.54108E-05-2.86178E-05-2.86266E-05 6.82697E-08 1.04603E-19-2.61823E-18
 -1      1610 9.54975E-05-2.86397E-05-2.86529E-05 7.70412E-08 6.78042E-19-1.51605E-18
 -1      1611 9.55542E-05-2.86502E-05-2.86744E-05 1.83255E-07 1.25709E-18-7.59325E-19
 -1      1612 9.52991E-05-2.85856E-05-2.85922E-05 3.79492E-08 4.80570E-19-2.01756E-18
 -1      1613 9.53495E-05-2.85974E-05-2.86077E-05 4.49440E-08-1.30579E-19-2.24928E-18
 -1      1614 9.54022E-05-2.86085E-05-2.86270E-05 1.13255E-07 9.46830E-20-1.43978E-18
 -1      1615 9.52408E-05-2.85691E-05-2.85741E-05 1.48465E-08 7.62342E-20-2.26896E-18
 -1      1616 9.52637E-05-2.85732E-05-2.85813E-05 2.05875E-08-9.76843E-20-2.10845E-18
 -1      1617 9.53082E-05-2.85833E-05-2.85974E-05 5.99724E-08 1.39873E-19-9.34375E-19
 -1      1618 9.52220E-05-2.85646E-05-2.85676E-05-2.42479E-09 3.17932E-19-2.82498E-18
 -1      1619 9.52243E-05-2.85627E-05-2.85690E-05 2.46008E-09 1.92412E-19-2.86061E-18
 -1      1620 9.52574E-05-2.85702E-05-2.85811E-05 1.99719E-08 3.14813E-19-6.25735E-19
 -1      1621 9.52286E-05-2.85693E-05-2.85670E-05-1.12191E-08 5.11714E-19-4.09051E-18
 -1      1622 9.52184E-05-2.85637E-05-2.85656E-05-8.34366E-09 9.22834E-19-3.18911E-18
 -1      1623 9.52374E-05-2.85681E-05-2.85729E-05-7.32023E-09 1.58169E-18-1.14482E-18
 -1      1624 9.52324E-05-2.85752E-05-2.85651E-05-7.03188E-09-2.37101E-18-2.83215E-18
 -1      1625 9.52457E-05-2.85876E-05-2.85681E-05-5.16573E-09 9.02157E-19 1.46649E-18
 -1      1626 9.52416E-05-2.85800E-05-2.85685E-05-7.26908E-09-2.95249E-18 3.27956E-18
 -1      1627 9.52423E-05-2.85729E-05-2.85732E-05 1.04664E-08 3.38172E-18 1.44321E-18
 -1      1628 9.52437E-05-2.85785E-05-2.85711E-05 6.87935E-09 2.18018E-18 5.51866E-19
 -1      1629 9.52420E-05-2.85620E-05-2.85777E-05 4.69317E-09 3.10990E-19 3.31911E-18
 -1      1630 9.52295E-05-2.85345E-05-2.85840E-05 2.56652E-08 2.71236E-18-9.08462E-19
 -1      1631 9.52362E-05-2.85546E-05-2.85782E-05 2.27978E-08 4.02159E-18 1.30724E-19
 -1      1632 9.52335E-05-2.85335E-05-2.85867E-05 3.43116E-08 2.01233E-18 9.14701E-19
 -1      1633 9.52108E-05-2.84796E-05-2.85993E-05 3.46000E-08 3.22815E-18-4.18783E-19
 -1      1634 9.52207E-05-2.85090E-05-2.85910E-05 3.33631E-08 2.19792E-18 1.13117E-18
 -1      1635 9.52172E-05-2.84880E-05-2.85988E-05 5.84269E-08 9.58722E-19-4.23341E-19
 -1      1636 9.51910E-05-2.84214E-05-2.86157E-05 3.52792E-08 1.74138E-19-1.50268E-18
 -1      1637 9.52014E-05-2.84522E-05-2.86069E-05 3.57779E-08 2.97493E-18-2.78304E-18
 -1      1638 9.51969E-05-2.84335E-05-2.86129E-05 6.88501E-08 7.05637E-19-2.72794E-18
 -1      1639 9.51739E-05-2.83706E-05-2.86300E-05 2.79318E-08-2.12510E-18-1.17616E-18
 -1      1640 9.51826E-05-2.83963E-05-2.86227E-05 2.99761E-08-2.04036E-19-1.16237E-18
 -1      1641 9.51770E-05-2.83797E-05-2.86269E-05 6.35896E-08-4.18497E-19-3.11549E-18
 -1      1642 9.51634E-05-2.83393E-05-2.86389E-05 1.43869E-08-1.01997E-18 3.28926E-19
 -1      1643 9.51681E-05-2.83534E-05-2.86348E-05 1.74578E-08-2.79511E-18 1.74605E-18
 -1      1644 9.51611E-05-2.83365E-05-2.86381E-05 4.41568E-08-7.67182E-19-5.87962E-19
 -1      1645 9.51616E-05-2.83340E-05-2.86404E-05-2.30527E-09 1.52805E-18 6.89135E-19
 -1      1646 9.51614E-05-2.83334E-05-2.86405E-05 1.11806E-09-2.41863E-19 6.73030E-19
 -1      1647 9.51524E-05-2.83130E-05-2.86443E-05 1.50929E-08-3.99050E-19 1.68339E-18
 -1      1648 9.51689E-05-2.83558E-05-2.86342E-05-1.85554E-08 5.47862E-19-4.89768E-19
 -1      1649 9.51638E-05-2.83405E-05-2.86385E-05-1.55146E-08 1.17296E-18 3.85380E-20
 -1      1650 9.51526E-05-2.83136E-05-2.86441E-05-1.72856E-08 1.12835E-18 3.32056E-19
 -1      1651 9.51838E-05-2.84001E-05-2.86216E-05-3.08201E-08-2.74927E-18-2.02268E-18
 -1      1652 9.51749E-05-2.83735E-05-2.86292E-05-2.88495E-08-1.30114E-19-1.29309E-18
 -1      1653 9.51617E-05-2.83384E-05-2.86376E-05-4.60662E-08 1.09345E-19-2.02190E-18
 -1      1654 9.52028E-05-2.84563E-05-2.86058E-05-3.61928E-08-5.28627E-18-7.94458E-19
 -1      1655 9.51922E-05-2.84251E-05-2.86146E-05-3.57770E-08-2.99892E-18-1.75774E-18
 -1      1656 9.51779E-05-2.83821E-05-2.86263E-05-6.48410E-08-1.46188E-18-2.86820E-18
 -1      1657 9.52223E-05-2.85137E-05-2.85897E-05-3.32274E-08-4.92026E-18-1.06710E-18
 -1      1658 9.52124E-05-2.84844E-05-2.85980E-05-3.46002E-08-5.17106E-18 1.59129E-18
 -1      1659 9.51981E-05-2.84365E-05-2.86121E-05-6.92762E-08-1.41513E-18 3.25841E-19
 -1      1660 9.52374E-05-2.85586E-05-2.85772E-05-2.19466E-08-5.49711E-18 1.35782E-18
 -1      1661 9.52310E-05-2.85390E-05-2.85828E-05-2.49734E-08-5.52548E-18-8.89509E-19
 -1      1662 9.52186E-05-2.84916E-05-2.85979E-05-5.77083E-08-3.03995E-18-1.46926E-18
 -1      1663 9.52453E-05-2.85812E-05-2.85705E-05-6.30200E-09-4.95294E-18 4.32834E-19
 -1      1664 9.52431E-05-2.85760E-05-2.85723E-05-1.01458E-08-5.83258E-18 1.26739E-18
 -1      1665 9.52338E-05-2.85357E-05-2.85859E-05-3.24961E-08-3.30540E-18 6.28090E-19
 -1      1666 9.52429E-05-2.85769E-05-2.85705E-05 6.38420E-09-1.66832E-18 1.67696E-18
 -1      1667 9.52464E-05-2.85836E-05-2.85704E-05 3.78107E-09-3.39711E-18 1.79799E-18
 -1      1668 9.52448E-05-2.85562E-05-2.85805E-05-8.91492E-09-2.50330E-18 2.44480E-18
 -1      1669 9.52438E-05-2.85625E-05-2.85768E-05 6.76803E-09-1.69286E-18 1.37856E-18
 -1      1670 2.06441E-05-6.72543E-05 1.38766E-05-5.97090E-06 3.54144E-18 4.75948E-18
 -1      1671 2.36169E-05-7.60465E-05 1.58767E-05 2.36618E-06-3.65357E-18 4.61294E-18
 -1      1672 1.85544E-05-4.03541E-05 4.77470E-06 9.08391E-07 9.15643E-18 5.36722E-18
 -1      1673 2.36299E-05-6.23131E-05 1.02967E-05-1.66328E-06 5.52689E-18 4.16531E-18
 -1      1674 3.46272E-05-1.32223E-05-1.10731E-05 2.79509E-05 9.28009E-18 6.67970E-18
 -1      1675 2.94927E-05-3.45288E-05-2.36609E-06 1.07310E-05 9.78492E-18 4.89416E-18
 -1      1676 7.27041E-05 3.29841E-08-3.03111E-05 5.95452E-05 8.79813E-18 9.61382E-18
 -1      1677 4.80800E-05-6.88473E-06-2.00877E-05 3.55623E-05 8.98363E-18 8.20944E-18
 -1      1678 1.36367E-04-1.45282E-05-4.89125E-05 7.77442E-05 6.72248E-18 8.81084E-18
 -1      1679 9.60386E-05-2.55583E-06-3.96916E-05 6.49551E-05 8.77865E-18 9.02259E-18
 -1      1680 2.05206E-04-4.27845E-05-6.43020E-05 6.26091E-05 3.90133E-18 7.86555E-18
 -1      1681 1.61478E-04-2.18569E-05-5.68120E-05 7.15862E-05 5.30243E-18 9.03107E-18
 -1      1682 2.48358E-04-6.25339E-05-7.31638E-05 2.52890E-05 2.79479E-18 2.17010E-18
 -1      1683 2.24511E-04-4.90101E-05-6.98176E-05 5.40858E-05 3.89868E-18 6.03680E-18
 -1      1684 2.43462E-04-5.88052E-05-7.32097E-05-2.57211E-05 2.45894E-18-2.33908E-18
 -1      1685 2.49086E-04-6.20040E-05-7.39997E-05 8.59410E-06 2.36915E-18 9.61753E-19
 -1      1686 2.04508E-04-3.92595E-05-6.60533E-05-6.58907E-05 3.55441E-18-6.35529E-18
 -1      1687 2.37419E-04-5.72426E-05-7.09109E-05-4.27460E-05 2.43829E-18-4.03357E-18
 -1      1688 1.41642E-04-1.48576E-05-5.20417E-05-7.31781E-05 7.38189E-18-8.91417E-18
 -1      1689 1.83941E-04-3.31827E-05-5.97615E-05-7.22729E-05 5.07415E-18-6.44761E-18
 -1      1690 8.04854E-05-1.05981E-06-3.43654E-05-5.80984E-05 9.36480E-18-1.00077E-17
 -1      1691 1.17067E-04-8.34262E-06-4.38473E-05-7.50693E-05 8.00192E-18-1.08183E-17
 -1      1692 4.23981E-05-1.08831E-05-1.62850E-05-2.99564E-05 9.98821E-18-8.13829E-18
 -1      1693 6.02988E-05-7.56164E-07-2.53966E-05-5.15796E-05 9.99075E-18-9.32244E-18
 -1      1694 2.78448E-05-3.95870E-05 1.88050E-07-7.72743E-06 7.05409E-18-4.86176E-18
 -1      1695 3.06689E-05-1.74597E-05-8.04142E-06-2.26574E-05 8.84133E-18-7.43229E-18
 -1      1696 2.36612E-05-6.55908E-05 1.16103E-05 1.61360E-06 3.21195E-18-2.89585E-18
 -1      1697 1.85118E-05-4.53706E-05 6.75778E-06 1.23315E-06 6.43660E-18-4.18180E-18
 -1      1698 2.32384E-05-7.56300E-05 1.59248E-05-3.47187E-06-2.81789E-18-2.13706E-18
 -1      1699 2.11308E-05-6.91096E-05 1.45181E-05 5.15199E-06 1.46494E-18-2.80326E-18
 -1      1700 1.96566E-05-6.29155E-05 1.26184E-05-7.41372E-06-9.49609E-18-5.12338E-18
 -1      1701 2.40300E-05-7.58677E-05 1.54634E-05-4.91320E-07-4.79929E-18-2.60547E-18
 -1      1702 2.07485E-05-3.38184E-05 1.59087E-06 5.74586E-06-1.26106E-17-6.91073E-18
 -1      1703 2.41530E-05-5.64575E-05 7.90436E-06-6.50880E-07-1.05540E-17-5.04345E-18
 -1      1704 4.34958E-05-1.26623E-05-1.47030E-05 3.36254E-05-1.23675E-17-1.03872E-17
 -1      1705 3.47560E-05-3.00202E-05-5.96287E-06 1.54370E-05-1.20931E-17-8.28314E-18
 -1      1706 8.12025E-05-2.62930E-06-3.27006E-05 6.15373E-05-1.18822E-17-1.17339E-17
 -1      1707 5.59323E-05-6.15385E-06-2.32704E-05 4.04054E-05-1.36237E-17-1.11461E-17
 -1      1708 1.43821E-04-1.86614E-05-5.01894E-05 7.55380E-05-8.06164E-18-1.11859E-17
 -1      1709 1.05036E-04-6.95084E-06-4.14012E-05 6.45733E-05-1.04922E-17-1.15366E-17
 -1      1710 2.06690E-04-4.25143E-05-6.46271E-05 6.73672E-05-5.28623E-18-9.32160E-18
 -1      1711 1.66087E-04-2.32513E-05-5.78264E-05 7.48229E-05-6.83979E-18-1.11080E-17
 -1      1712 2.50572E-04-6.29124E-05-7.34950E-05 3.08771E-05-2.68764E-18-6.57467E-18
 -1      1713 2.24393E-04-4.85831E-05-6.97375E-05 5.69384E-05-4.24565E-18-8.90570E-18
 -1      1714 2.56007E-04-6.47872E-05-7.51706E-05-1.74034E-05-2.01636E-18-2.15422E-18
 -1      1715 2.56661E-04-6.51362E-05-7.52339E-05 1.55960E-05-2.35221E-18-5.47607E-18
 -1      1716 2.19937E-04-4.64938E-05-6.90300E-05-5.68448E-05-2.99712E-18 2.22854E-18
 -1      1717 2.47187E-04-6.13315E-05-7.30259E-05-3.13773E-05-2.37466E-18-1.01305E-18
 -1      1718 1.58947E-04-2.05253E-05-5.62673E-05-7.50692E-05-4.21653E-18 4.71882E-18
 -1      1719 2.02540E-04-4.09359E-05-6.37363E-05-6.88146E-05-2.34162E-18 3.28564E-18
 -1      1720 9.56126E-05-3.99329E-06-3.90070E-05-6.30354E-05-6.91433E-18 6.74492E-18
 -1      1721 1.34767E-04-1.44792E-05-4.82098E-05-7.67965E-05-5.06907E-18 4.81369E-18
 -1      1722 5.23498E-05-1.21708E-05-1.97195E-05-3.40413E-05-8.12728E-18 6.20198E-18
 -1      1723 7.60882E-05-5.53063E-06-2.97128E-05-5.65805E-05-7.14218E-18 6.91518E-18
 -1      1724 2.87147E-05-3.42172E-05-2.43560E-06-9.06034E-06-9.78408E-18 5.18935E-18
 -1      1725 3.37937E-05-1.38526E-05-1.08043E-05-2.59368E-05-9.02514E-18 6.04104E-18
 -1      1726 2.36418E-05-6.21237E-05 1.02734E-05 2.41434E-06-9.86285E-18 3.11772E-18
 -1      1727 1.86971E-05-4.00285E-05 4.53931E-06-2.21542E-07-1.07692E-17 4.40499E-18
 -1      1728 2.29804E-05-7.36042E-05 1.54858E-05-1.54063E-06-5.49703E-18 2.85111E-18
 -1      1729 2.00463E-05-6.49303E-05 1.35469E-05 5.83118E-06-8.97008E-18 3.57088E-18
 -1      1730 1.10916E-04-2.85304E-05-3.43661E-05 4.70315E-05 5.38078E-18 5.45659E-18
 -1      1731 7.05777E-05-3.46866E-05-1.67647E-05 3.93745E-05 4.81030E-18 5.29480E-18
 -1      1732 9.52389E-05-2.85789E-05-2.85675E-05-1.28394E-08-2.59955E-18-3.40147E-19
 -1      1733 9.52389E-05-2.85690E-05-2.85723E-05-1.30549E-08 1.70927E-19 2.08330E-18
 -1      1734 1.79454E-05-4.84821E-05 8.68367E-06 1.29432E-05 1.48315E-18 6.80930E-18
 -1      1735 3.81111E-05-4.12282E-05-1.59523E-06 2.79985E-05 4.29107E-18 4.32934E-18
 -1      1736 1.16661E-05-4.92821E-05 1.16996E-05-7.07841E-08-2.27010E-18 6.77245E-18
 -1      1737 1.55879E-04-3.00536E-05-5.09472E-05 4.22396E-05 4.83889E-18 5.77084E-18
 -1      1738 1.91284E-04-3.27043E-05-6.35327E-05 2.76183E-05 4.69637E-18 3.63970E-18
 -1      1739 2.08262E-04-3.35503E-05-6.96327E-05 8.04106E-06 4.37620E-18 1.83880E-18
 -1      1740 2.04131E-04-3.28917E-05-6.82580E-05-1.62258E-05 3.72525E-18-8.61856E-19
 -1      1741 1.81952E-04-3.22495E-05-6.00338E-05-3.49584E-05 4.24596E-18-2.58853E-18
 -1      1742 1.43458E-04-2.95281E-05-4.63191E-05-4.52032E-05 5.85999E-18-4.60447E-18
 -1      1743 1.00110E-04-2.94711E-05-2.99619E-05-4.56320E-05 5.75093E-18-5.81403E-18
 -1      1744 6.32490E-05-3.58085E-05-1.34496E-05-3.74972E-05 4.54687E-18-5.91568E-18
 -1      1745 3.41080E-05-4.25774E-05 4.32608E-07-2.63620E-05 2.76641E-18-5.02317E-18
 -1      1746 1.60143E-05-4.87066E-05 9.53276E-06-1.12862E-05 2.71051E-20-4.57017E-18
 -1      1747 1.20239E-05-5.08067E-05 1.18722E-05 1.50105E-06-3.11094E-18-4.93058E-18
 -1      1748 2.17473E-05-4.74625E-05 6.90360E-06 1.59357E-05-5.66411E-18-5.90086E-18
 -1      1749 4.73075E-05-4.13973E-05-4.83621E-06 3.17558E-05-6.41882E-18-5.88794E-18
 -1      1750 8.02667E-05-3.68874E-05-1.98560E-05 4.00078E-05-7.40561E-18-7.37808E-18
 -1      1751 1.19083E-04-3.16680E-05-3.64341E-05 4.50535E-05-7.98667E-18-6.60940E-18
 -1      1752 1.60550E-04-3.25737E-05-5.18602E-05 4.14512E-05-6.14014E-18-6.13167E-18
 -1      1753 1.95045E-04-3.43410E-05-6.40283E-05 3.03926E-05-4.67372E-18-5.22281E-18
 -1      1754 2.14585E-04-3.64550E-05-7.05509E-05 1.10069E-05-3.86840E-18-4.71522E-18
 -1      1755 2.12253E-04-3.57093E-05-7.01532E-05-1.05989E-05-3.45462E-18-2.72618E-18
 -1      1756 1.91783E-04-3.37732E-05-6.31491E-05-3.08339E-05-2.99236E-18-5.48030E-19
 -1      1757 1.55778E-04-3.15031E-05-5.04023E-05-4.38970E-05-3.52175E-18 9.68159E-19
 -1      1758 1.13378E-04-3.32717E-05-3.38005E-05-4.39141E-05-3.49062E-18 1.38744E-18
 -1      1759 7.31900E-05-3.72173E-05-1.66789E-05-3.86477E-05-3.68121E-18 2.58218E-18
 -1      1760 3.82595E-05-4.18641E-05-1.56565E-06-2.62966E-05-5.63955E-18 2.79651E-18
 -1      1761 1.80215E-05-4.70069E-05 8.26198E-06-1.24706E-05-5.20078E-18 3.16007E-18
 -1      1762 1.05787E-04-2.31199E-05-3.55141E-05-1.67108E-05-1.28557E-18 5.02545E-18
 -1      1763 8.92066E-05-1.05572E-05-3.38306E-05-1.30651E-05-1.52475E-18-1.52381E-18
 -1      1764 9.05152E-05-1.16363E-05-3.39553E-05-1.48431E-05-1.83371E-18-1.02290E-18
 -1      1765 9.25186E-05-1.38934E-05-3.38557E-05-1.57561E-05-1.83902E-18-3.90323E-19
 -1      1766 9.41818E-05-1.58418E-05-3.40755E-05-1.74292E-05-1.96048E-18 5.20025E-19
 -1      1767 9.34914E-05-1.63665E-05-3.30633E-05-1.34698E-05-1.89080E-18-5.82573E-19
 -1      1768 8.62560E-05-7.56906E-06-3.37949E-05-7.61492E-06-7.30334E-19-2.44820E-18
 -1      1769 8.66732E-05-7.88686E-06-3.38249E-05-8.98647E-06-9.21615E-19-2.33234E-18
 -1      1770 8.55976E-05-6.88068E-06-3.37955E-05-5.12717E-06-3.27767E-19-2.56136E-18
 -1      1771 8.58505E-05-7.07661E-06-3.38096E-05-6.40229E-06-5.47395E-19-2.50952E-18
 -1      1772 8.75963E-05-9.69437E-06-3.34180E-05-6.66757E-06-6.80894E-19-2.37002E-18
 -1      1773 8.52268E-05-6.48370E-06-3.37992E-05-2.77338E-06 6.37446E-20-2.64576E-18
 -1      1774 8.53621E-05-6.59005E-06-3.38053E-05-3.97450E-06-8.94108E-20-2.63914E-18
 -1      1775 8.69101E-05-8.92160E-06-3.34544E-05-4.34527E-06-1.94245E-19-2.51541E-18
 -1      1776 8.50780E-05-6.31722E-06-3.38023E-05-4.93417E-07 4.34713E-19-2.58336E-18
 -1      1777 8.51191E-05-6.34980E-06-3.38040E-05-1.65962E-06 2.60251E-19-2.62427E-18
 -1      1778 8.65397E-05-8.50182E-06-3.34751E-05-2.11641E-06 1.92846E-19-2.55034E-18
 -1      1779 8.51284E-05-6.35931E-06-3.38037E-05 1.77503E-06 7.80618E-19-2.48842E-18
 -1      1780 8.50816E-05-6.32216E-06-3.38020E-05 6.07729E-07 5.65322E-19-2.54798E-18
 -1      1781 8.64275E-05-8.37451E-06-3.34815E-05 6.32814E-08 5.47755E-19-2.52182E-18
 -1      1782 8.53860E-05-6.61625E-06-3.38043E-05 4.09497E-06 1.10040E-18-2.34377E-18
 -1      1783 8.52439E-05-6.50377E-06-3.37983E-05 2.89050E-06 9.54706E-19-2.46766E-18
 -1      1784 8.65571E-05-8.52296E-06-3.34736E-05 2.24461E-06 9.04483E-19-2.38092E-18
 -1      1785 8.58816E-05-7.11284E-06-3.38076E-05 6.48916E-06 1.42982E-18-2.07966E-18
 -1      1786 8.56256E-05-6.91369E-06-3.37939E-05 5.23092E-06 1.26314E-18-2.23574E-18
 -1      1787 8.69430E-05-8.96137E-06-3.34514E-05 4.45821E-06 1.28424E-18-2.19962E-18
 -1      1788 8.67335E-05-7.95640E-06-3.38217E-05 9.10724E-06 1.83761E-18-1.55134E-18
 -1      1789 8.62972E-05-7.62014E-06-3.37917E-05 7.70437E-06 1.58475E-18-1.83759E-18
 -1      1790 8.76455E-05-9.75440E-06-3.34132E-05 6.76575E-06 1.62899E-18-1.81151E-18
 -1      1791 8.81651E-05-9.35724E-06-3.38624E-05 1.19708E-05 2.17071E-18-8.84752E-19
 -1      1792 8.74219E-05-8.78126E-06-3.37988E-05 1.03834E-05 1.99930E-18-1.28738E-18
 -1      1793 8.88137E-05-1.10585E-05-3.33535E-05 9.20074E-06 2.02921E-18-1.27238E-18
 -1      1794 9.06872E-05-1.18485E-05-3.39461E-05 1.50316E-05 2.27385E-18 3.09008E-19
 -1      1795 8.93268E-05-1.07377E-05-3.38215E-05 1.32360E-05 2.20317E-18-4.30346E-19
 -1      1796 9.07319E-05-1.31837E-05-3.32532E-05 1.16661E-05 2.31520E-18-5.23903E-19
 -1      1797 9.58376E-05-1.70442E-05-3.39706E-05 1.74582E-05 2.10832E-18 2.65878E-18
 -1      1798 9.28768E-05-1.43592E-05-3.38278E-05 1.59454E-05 2.12213E-18 1.26555E-18
 -1      1799 9.40094E-05-1.68853E-05-3.30419E-05 1.36140E-05 2.26149E-18 8.42295E-19
 -1      1800 1.01772E-04-2.50634E-05-3.33048E-05 1.42479E-05 1.68665E-18 5.35431E-18
 -1      1801 9.79942E-05-1.96165E-05-3.35901E-05 1.67576E-05 1.91238E-18 3.59835E-18
 -1      1802 9.73040E-05-2.18525E-05-3.24158E-05 1.30161E-05 2.11475E-18 2.61429E-18
 -1      1803 9.86485E-05-2.61108E-05-3.13063E-05 9.26766E-06 1.77930E-18 4.80366E-18
 -1      1804 1.00022E-04-1.95574E-05-3.41645E-05-1.86772E-05-1.68341E-18 2.14998E-18
 -1      1805 9.53147E-05-2.72773E-05-2.91887E-05 3.88731E-06 1.30063E-18 3.95609E-18
 -1      1806 9.76826E-05-2.73690E-05-3.01773E-05 6.22766E-06 1.46100E-18 4.41989E-18
 -1      1807 9.75549E-05-2.56070E-05-3.08277E-05 8.54698E-06 1.76053E-18 3.18832E-18
 -1      1808 9.97350E-05-2.25309E-05-3.28071E-05-1.42580E-05-1.79510E-18 1.43149E-18
 -1      1809 9.69692E-05-2.69657E-05-2.98858E-05-5.48437E-06-1.37286E-18 1.22056E-18
 -1      1810 9.52305E-05-2.70328E-05-2.91977E-05-3.66010E-06-1.16006E-18 8.69003E-19
 -1      1811 9.44713E-05-2.72423E-05-2.87146E-05-2.14604E-06-1.12414E-18 8.38285E-19
 -1      1812 9.37873E-05-2.73387E-05-2.84377E-05-1.25766E-06-9.58769E-19 5.42005E-19
 -1      1813 9.56383E-05-2.65389E-05-2.96367E-05-4.13484E-06-1.35008E-18 2.25781E-19
 -1      1814 9.33439E-05-2.74024E-05-2.82005E-05-3.70846E-07-7.52893E-19 4.80714E-19
 -1      1815 9.31611E-05-2.74898E-05-2.81156E-05 1.21783E-07-6.77289E-19 2.75263E-19
 -1      1816 9.45660E-05-2.72229E-05-2.88840E-05-1.38081E-06-1.10355E-18 9.67206E-20
 -1      1817 9.29953E-05-2.75371E-05-2.80209E-05 6.63049E-07-6.36158E-19 1.85988E-19
 -1      1818 9.31259E-05-2.76481E-05-2.80412E-05 9.63641E-07-5.30686E-19 6.32793E-20
 -1      1819 9.40507E-05-2.75478E-05-2.85204E-05 2.50273E-07-8.25599E-19-9.61283E-20
 -1      1820 9.31692E-05-2.77077E-05-2.80374E-05 1.32024E-06-3.76940E-19 5.37841E-20
 -1      1821 9.35043E-05-2.78425E-05-2.81242E-05 1.52723E-06-3.52096E-19-1.53032E-19
 -1      1822 9.39795E-05-2.77640E-05-2.83937E-05 1.28091E-06-5.46732E-19-3.35360E-19
 -1      1823 9.37036E-05-2.79196E-05-2.81834E-05 1.79199E-06-3.85043E-19-3.07281E-20
 -1      1824 9.41877E-05-2.80761E-05-2.83183E-05 1.96028E-06-4.30435E-19 4.46305E-20
 -1      1825 9.42486E-05-2.79546E-05-2.84242E-05 1.99607E-06-3.31881E-19-3.25138E-19
 -1      1826 9.45093E-05-2.81709E-05-2.84250E-05 2.19065E-06-3.90502E-19 1.26817E-19
 -1      1827 9.51189E-05-2.83496E-05-2.85998E-05 2.35463E-06-8.88541E-20 2.07784E-20
 -1      1828 9.47812E-05-2.81479E-05-2.85673E-05 2.56464E-06-2.83260E-19-3.29938E-20
 -1      1829 9.55456E-05-2.84630E-05-2.87459E-05 2.58828E-06-2.29124E-19-5.50683E-20
 -1      1830 9.62773E-05-2.86683E-05-2.89586E-05 2.77060E-06-3.33290E-19 1.75096E-19
 -1      1831 9.55319E-05-2.83568E-05-2.87982E-05 3.09389E-06-2.15095E-19-1.60911E-19
 -1      1832 9.68038E-05-2.88034E-05-2.91401E-05 3.03186E-06-3.70724E-19 9.86535E-20
 -1      1833 9.76668E-05-2.90431E-05-2.93920E-05 3.24607E-06-6.33918E-20-7.42548E-20
 -1      1834 9.64816E-05-2.85933E-05-2.91034E-05 3.65385E-06-4.29612E-19-2.69681E-19
 -1      1835 9.82957E-05-2.92061E-05-2.96074E-05 3.54719E-06-2.27625E-19-4.73885E-19
 -1      1836 9.93054E-05-2.94915E-05-2.99010E-05 3.79675E-06-4.20616E-19-7.93280E-19
 -1      1837 9.76306E-05-2.88737E-05-2.94756E-05 4.28597E-06-5.24598E-19-5.76562E-19
 -1      1838 1.00045E-04-2.96927E-05-3.01487E-05 4.13529E-06-1.97294E-19-9.42972E-19
 -1      1839 1.01215E-04-3.00382E-05-3.04856E-05 4.40927E-06-3.16802E-19-6.82674E-19
 -1      1840 9.89926E-05-2.92236E-05-2.99097E-05 5.00192E-06-2.92884E-19-7.18734E-19
 -1      1841 1.02075E-04-3.02937E-05-3.07618E-05 4.76143E-06-3.62937E-19-4.57268E-19
 -1      1842 1.03407E-04-3.07161E-05-3.11387E-05 5.02639E-06-4.83198E-20-2.59055E-19
 -1      1843 1.00590E-04-2.96821E-05-3.03986E-05 5.77386E-06-1.05929E-19-2.13535E-19
 -1      1844 1.04400E-04-3.10501E-05-3.14350E-05 5.33580E-06-7.64274E-20-3.87877E-19
 -1      1845 1.05869E-04-3.15666E-05-3.18391E-05 5.52379E-06-2.03379E-20-2.46290E-19
 -1      1846 1.02452E-04-3.03090E-05-3.09285E-05 6.51560E-06-2.53912E-19 1.04613E-19
 -1      1847 1.07006E-04-3.20121E-05-3.21403E-05 5.68648E-06-1.54706E-19-4.74472E-19
 -1      1848 1.08541E-04-3.26338E-05-3.25443E-05 5.68173E-06-2.31211E-19-3.62613E-19
 -1      1849 1.04606E-04-3.11889E-05-3.14757E-05 7.05493E-06-3.25172E-19-4.95214E-19
 -1      1850 1.09824E-04-3.32280E-05-3.28274E-05 5.53191E-06-4.17422E-19-2.07609E-19
 -1      1851 1.11282E-04-3.39421E-05-3.31844E-05 5.16587E-06-2.54940E-19-5.79953E-20
 -1      1852 1.07074E-04-3.24260E-05-3.20046E-05 7.10264E-06-9.58405E-20-5.12786E-19
 -1      1853 1.12689E-04-3.47042E-05-3.34222E-05 4.47761E-06 1.36670E-19 3.97576E-20
 -1      1854 1.13832E-04-3.54381E-05-3.36675E-05 3.55482E-06 4.93278E-19-1.00357E-19
 -1      1855 1.09843E-04-3.41034E-05-3.24731E-05 6.23838E-06-3.34379E-20 6.12086E-19
 -1      1856 1.15268E-04-3.63099E-05-3.38385E-05 2.09356E-06 4.46816E-19 7.71528E-20
 -1      1857 1.15758E-04-3.68694E-05-3.39048E-05 4.89222E-07 2.23153E-19-5.40256E-20
 -1      1858 1.12799E-04-3.61699E-05-3.28496E-05 3.96043E-06 2.36057E-19 6.81663E-19
 -1      1859 1.16966E-04-3.76158E-05-3.40133E-05-1.82194E-06-1.64755E-19 1.03586E-19
 -1      1860 1.16436E-04-3.76424E-05-3.38624E-05-3.96595E-06-1.46173E-19 1.42652E-19
 -1      1861 1.15569E-04-3.82088E-05-3.31462E-05-1.00969E-07 1.66852E-19 5.70624E-19
 -1      1862 1.16942E-04-3.77883E-05-3.39486E-05-6.74042E-06-2.64777E-19 4.91378E-20
 -1      1863 1.15186E-04-3.68617E-05-3.36138E-05-8.77254E-06-2.84133E-19-2.20520E-19
 -1      1864 1.17369E-04-3.92434E-05-3.34468E-05-5.68670E-06-4.48782E-19 3.91382E-19
 -1      1865 1.14478E-04-3.58902E-05-3.37463E-05-1.08920E-05-3.07245E-19-1.02888E-19
 -1      1866 1.11770E-04-3.38919E-05-3.33423E-05-1.16725E-05-6.61574E-19-2.72639E-19
 -1      1867 1.17111E-04-3.79094E-05-3.38892E-05-1.12633E-05-4.36697E-19 3.45002E-19
 -1      1868 1.09905E-04-3.18446E-05-3.35340E-05-1.14875E-05-6.11148E-19-3.71014E-19
 -1      1869 1.07239E-04-2.95388E-05-3.32128E-05-9.97935E-06-3.81628E-19-3.66699E-19
 -1      1870 1.14229E-04-3.36351E-05-3.45425E-05-1.37079E-05-6.49092E-19 2.98338E-19
 -1      1871 1.05407E-04-2.76144E-05-3.33871E-05-6.71403E-06-6.89180E-19 7.69344E-20
 -1      1872 1.04166E-04-2.64408E-05-3.32613E-05-3.14866E-06-5.38898E-19 4.62301E-19
 -1      1873 1.10064E-04-2.80707E-05-3.52214E-05-1.01201E-05-3.50513E-19 4.04887E-19
 -1      1874 1.04010E-04-2.62715E-05-3.32825E-05 1.79517E-06-3.61524E-19 1.25535E-19
 -1      1875 1.04936E-04-2.71418E-05-3.33808E-05 5.54025E-06-8.30357E-20-2.58815E-19
 -1      1876 1.07829E-04-2.52061E-05-3.55717E-05-8.20494E-07-5.06526E-19 6.15137E-19
 -1      1877 1.06598E-04-2.88710E-05-3.32283E-05 9.24092E-06-3.30462E-19-9.75603E-19
 -1      1878 1.09139E-04-3.11086E-05-3.35258E-05 1.11512E-05-4.79302E-19-1.35171E-18
 -1      1879 1.09520E-04-2.73427E-05-3.53293E-05 8.97721E-06-4.61818E-19-2.25415E-19
 -1      1880 1.11130E-04-3.32513E-05-3.33284E-05 1.18169E-05-4.19030E-19-1.16901E-18
 -1      1881 1.13929E-04-3.53749E-05-3.37329E-05 1.13645E-05-4.21323E-19-8.87545E-19
 -1      1882 1.13625E-04-3.27103E-05-3.46760E-05 1.36862E-05-3.23606E-19-1.00309E-18
 -1      1883 1.14873E-04-3.65568E-05-3.35958E-05 9.51797E-06-2.99909E-19-4.53864E-19
 -1      1884 1.16841E-04-3.76714E-05-3.39587E-05 7.60641E-06 2.56466E-19-1.80428E-19
 -1      1885 1.16893E-04-3.74133E-05-3.40063E-05 1.20444E-05 2.33060E-19 6.71207E-20
 -1      1886 1.16519E-04-3.76766E-05-3.38776E-05 4.85102E-06 5.72416E-19-4.62500E-19
 -1      1887 1.17269E-04-3.77812E-05-3.40720E-05 2.67818E-06 1.01111E-18-3.93215E-19
 -1      1888 1.17609E-04-3.92426E-05-3.35437E-05 6.76140E-06 4.84159E-19-2.55576E-19
 -1      1889 1.16161E-04-3.70971E-05-3.39816E-05 2.69037E-07 5.17008E-19-1.36795E-18
 -1      1890 1.15849E-04-3.66027E-05-3.39612E-05-1.42406E-06-8.81636E-19-1.57227E-18
 -1      1891 1.16106E-04-3.84980E-05-3.32490E-05 1.06488E-06 8.53650E-20-1.04789E-18
 -1      1892 1.14461E-04-3.57363E-05-3.38137E-05-2.99689E-06-1.36499E-18-9.08102E-19
 -1      1893 1.13450E-04-3.50266E-05-3.36084E-05-4.00161E-06-5.20287E-19-8.36018E-19
 -1      1894 1.13484E-04-3.65436E-05-3.29819E-05-3.23121E-06-2.93828E-19-1.30146E-18
 -1      1895 1.12073E-04-3.42505E-05-3.33954E-05-4.76755E-06-3.38615E-19-8.56919E-19
 -1      1896 1.10714E-04-3.35436E-05-3.30716E-05-5.18276E-06-8.21953E-20-8.94659E-19
 -1      1897 1.10601E-04-3.44556E-05-3.26472E-05-5.71283E-06-5.94405E-19 2.99075E-19
 -1      1898 1.09462E-04-3.29353E-05-3.28126E-05-5.36490E-06-1.33148E-19-1.31743E-18
 -1      1899 1.08013E-04-3.23196E-05-3.24378E-05-5.38248E-06-3.59415E-19-1.41416E-18
 -1      1900 1.07885E-04-3.27269E-05-3.22244E-05-6.69292E-06-3.57435E-19-3.64151E-19
 -1      1901 1.06918E-04-3.18688E-05-3.21607E-05-5.21259E-06-3.67552E-19-1.35382E-18
 -1      1902 1.05538E-04-3.13648E-05-3.17855E-05-5.00835E-06 1.84330E-19-1.19585E-18
 -1      1903 1.05484E-04-3.14484E-05-3.17420E-05-6.66844E-06-1.34510E-19-1.49929E-18
 -1      1904 1.04602E-04-3.10357E-05-3.15144E-05-4.66348E-06-3.30783E-19-1.02665E-18
 -1      1905 1.03375E-04-3.06361E-05-3.11698E-05-4.36232E-06-1.93537E-19-1.47972E-18
 -1      1906 1.03424E-04-3.05517E-05-3.12423E-05-6.07956E-06-5.62102E-20-1.94375E-18
 -1      1907 1.02587E-04-3.03947E-05-3.09210E-05-3.95714E-06-3.23593E-21-2.05060E-18
 -1      1908 1.01546E-04-3.00837E-05-3.06220E-05-3.63518E-06 2.47390E-19-1.43554E-18
 -1      1909 1.01688E-04-2.99338E-05-3.07622E-05-5.23918E-06-2.82819E-19-1.49916E-18
 -1      1910 1.00893E-04-2.99047E-05-3.04042E-05-3.23541E-06-7.80528E-21-1.08434E-18
 -1      1911 1.00039E-04-2.96658E-05-3.01550E-05-2.93322E-06-4.74491E-19-1.53248E-18
 -1      1912 1.00247E-04-2.95071E-05-3.03264E-05-4.34138E-06-1.74179E-20-1.04211E-18
 -1      1913 9.95067E-05-2.95320E-05-2.99712E-05-2.57179E-06 8.14611E-19-8.32121E-19
 -1      1914 9.88250E-05-2.93507E-05-2.97697E-05-2.30745E-06 1.44170E-18-1.41646E-19
 -1      1915 9.90680E-05-2.92094E-05-2.99477E-05-3.49286E-06 8.60788E-19 1.06980E-19
 -1      1916 9.83978E-05-2.92503E-05-2.96190E-05-1.99739E-06 1.13780E-18-2.84370E-19
 -1      1917 9.78654E-05-2.91146E-05-2.94600E-05-1.77615E-06 3.67867E-19 4.45186E-19
 -1      1918 9.81179E-05-2.89997E-05-2.96295E-05-2.74372E-06 8.07135E-19 5.10897E-19
 -1      1919 9.75286E-05-2.90396E-05-2.93393E-05-1.51938E-06-8.08627E-20 8.97368E-19
 -1      1920 9.71212E-05-2.89396E-05-2.92166E-05-1.33977E-06-4.51306E-19 1.24427E-18
 -1      1921 9.73645E-05-2.88511E-05-2.93693E-05-2.11048E-06 4.99673E-19 1.58320E-18
 -1      1922 9.68602E-05-2.88840E-05-2.91221E-05-1.13257E-06-8.33049E-19 1.25401E-18
 -1      1923 9.65547E-05-2.88116E-05-2.90293E-05-9.90039E-07-2.62682E-19 1.35115E-18
 -1      1924 9.67768E-05-2.87461E-05-2.91614E-05-1.59132E-06-4.47262E-19 2.47539E-18
 -1      1925 9.63560E-05-2.87709E-05-2.89566E-05-8.26174E-07-2.94778E-19 1.28604E-18
 -1      1926 9.61316E-05-2.87197E-05-2.88879E-05-7.15099E-07 7.59083E-19 1.19008E-18
 -1      1927 9.63262E-05-2.86726E-05-2.89989E-05-1.17543E-06-3.29981E-19 2.36570E-18
 -1      1928 9.59833E-05-2.86906E-05-2.88332E-05-5.87644E-07 1.55813E-18 2.76567E-20
 -1      1929 9.58225E-05-2.86553E-05-2.87835E-05-5.02344E-07 1.08978E-18 5.84591E-19
 -1      1930 9.59869E-05-2.86220E-05-2.88743E-05-8.48411E-07-4.09053E-20 2.09364E-18
 -1      1931 9.57141E-05-2.86349E-05-2.87433E-05-4.04570E-07 1.26365E-18 1.01018E-18
 -1      1932 9.56025E-05-2.86117E-05-2.87084E-05-3.39806E-07 2.16852E-18 2.46319E-18
 -1      1933 9.57366E-05-2.85883E-05-2.87807E-05-5.95216E-07 1.60079E-18 1.18282E-18
 -1      1934 9.55251E-05-2.85978E-05-2.86795E-05-2.65644E-07 1.69112E-18 2.52240E-18
 -1      1935 9.54509E-05-2.85834E-05-2.86559E-05-2.16854E-07 1.85693E-18 1.72871E-18
 -1      1936 9.55560E-05-2.85666E-05-2.87120E-05-4.01705E-07 2.03124E-18 1.98663E-18
 -1      1937 9.53972E-05-2.85743E-05-2.86358E-05-1.61167E-07 1.73518E-18 2.08444E-18
 -1      1938 9.53511E-05-2.85664E-05-2.86208E-05-1.24672E-07 1.87527E-18 2.76576E-18
 -1      1939 9.54292E-05-2.85535E-05-2.86627E-05-2.55464E-07 1.94296E-18 2.80052E-18
 -1      1940 9.53149E-05-2.85611E-05-2.86070E-05-8.31994E-08 1.48170E-19 1.65004E-18
 -1      1941 9.52895E-05-2.85585E-05-2.85981E-05-5.66872E-08-1.21376E-18 1.17166E-18
 -1      1942 9.53427E-05-2.85464E-05-2.86282E-05-1.46394E-07 1.50061E-19 1.18986E-18
 -1      1943 9.52678E-05-2.85573E-05-2.85890E-05-2.87229E-08-9.64865E-19 1.13626E-18
 -1      1944 9.52567E-05-2.85598E-05-2.85837E-05-1.23082E-08-1.45018E-18 1.35888E-18
 -1      1945 9.52583E-05-2.85568E-05-2.85871E-05-1.78882E-08-1.16032E-18 2.68700E-18
 -1      1946 9.52884E-05-2.85477E-05-2.86044E-05-6.86711E-08-1.13071E-18 6.23087E-19
 -1      1947 9.33537E-05-2.73830E-05-2.82435E-05 1.38106E-06 1.14163E-18 3.16749E-18
 -1      1948 9.44718E-05-2.74700E-05-2.86558E-05 2.47302E-06 1.16362E-18 3.74439E-18
 -1      1949 9.53174E-05-2.70515E-05-2.92633E-05 3.80101E-06 1.42284E-18 2.61926E-18
 -1      1950 9.24859E-05-2.74117E-05-2.78622E-05 4.74831E-08 9.25863E-19 2.45988E-18
 -1      1951 9.28800E-05-2.74185E-05-2.80031E-05 6.31248E-07 9.07384E-19 2.84305E-18
 -1      1952 9.38594E-05-2.73977E-05-2.84918E-05 1.25632E-06 1.15074E-18 2.03283E-18
 -1      1953 9.23588E-05-2.75095E-05-2.77741E-05-7.17844E-07 5.15618E-19 2.13500E-18
 -1      1954 9.23386E-05-2.74470E-05-2.77791E-05-3.73275E-07 7.14456E-19 2.35735E-18
 -1      1955 9.32246E-05-2.75517E-05-2.81573E-05-1.72812E-07 8.92832E-19 1.59612E-18
 -1      1956 9.27171E-05-2.76841E-05-2.78575E-05-1.19513E-06 7.54141E-20 1.74370E-18
 -1      1957 9.24462E-05-2.75723E-05-2.77848E-05-9.71449E-07 1.79930E-19 2.00838E-18
 -1      1958 9.31739E-05-2.77012E-05-2.80720E-05-1.02827E-06 3.41652E-19 1.35575E-18
 -1      1959 9.34073E-05-2.79217E-05-2.80537E-05-1.52885E-06 5.30686E-19 1.48816E-18
 -1      1960 9.29711E-05-2.77746E-05-2.79302E-05-1.36528E-06 1.70363E-19 1.51709E-18
 -1      1961 9.35275E-05-2.78864E-05-2.81429E-05-1.58647E-06 3.44278E-19 7.00489E-19
 -1      1962 9.43449E-05-2.82120E-05-2.83321E-05-1.80033E-06 5.41039E-19 1.46007E-18
 -1      1963 9.37864E-05-2.80366E-05-2.81708E-05-1.66201E-06 6.48898E-19 1.58643E-18
 -1      1964 9.41721E-05-2.81123E-05-2.83209E-05-1.99720E-06 5.89237E-19 5.94405E-19
 -1      1965 9.54887E-05-2.85518E-05-2.86771E-05-2.05695E-06 4.82205E-19 1.03327E-18
 -1      1966 9.48267E-05-2.83497E-05-2.84842E-05-1.92314E-06 4.78818E-19 1.24687E-18
 -1      1967 9.50428E-05-2.83793E-05-2.85786E-05-2.34665E-06 6.81359E-19 7.10644E-19
 -1      1968 9.68228E-05-2.89442E-05-2.90812E-05-2.32259E-06-2.95949E-20 9.92732E-19
 -1      1969 9.60630E-05-2.87137E-05-2.88590E-05-2.18259E-06 3.52588E-19 1.07764E-18
 -1      1970 9.61075E-05-2.86910E-05-2.89008E-05-2.68330E-06 4.25666E-19 6.55696E-19
 -1      1971 9.83425E-05-2.93962E-05-2.95397E-05-2.59960E-06 7.44129E-19 8.57597E-19
 -1      1972 9.74859E-05-2.91338E-05-2.92894E-05-2.45235E-06 2.75312E-19 9.35996E-19
 -1      1973 9.73529E-05-2.90556E-05-2.92781E-05-3.02692E-06 2.76559E-19 5.80448E-19
 -1      1974 1.00040E-04-2.99161E-05-3.00464E-05-2.86579E-06 8.23259E-19 9.78277E-19
 -1      1975 9.90914E-05-2.96187E-05-2.97706E-05-2.72170E-06 7.04865E-19 1.06224E-18
 -1      1976 9.87732E-05-2.94852E-05-2.97028E-05-3.36893E-06 6.75981E-19 3.05760E-19
 -1      1977 1.01890E-04-3.05102E-05-3.05881E-05-3.06800E-06 5.13711E-19 2.93484E-20
 -1      1978 1.00867E-04-3.01774E-05-3.02939E-05-2.95249E-06 7.89131E-19 5.19689E-19
 -1      1979 1.00359E-04-2.99948E-05-3.01640E-05-3.66747E-06 9.89878E-19 6.81506E-20
 -1      1980 1.03831E-04-3.11770E-05-3.11397E-05-3.11460E-06 9.07123E-20-6.68934E-19
 -1      1981 1.02775E-04-3.08152E-05-3.08412E-05-3.07221E-06 2.47363E-20-4.58342E-19
 -1      1982 1.02085E-04-3.05991E-05-3.06441E-05-3.83969E-06 4.49175E-19-2.43242E-19
 -1      1983 1.05744E-04-3.18979E-05-3.16584E-05-2.87167E-06-3.20903E-19-2.24265E-19
 -1      1984 1.04734E-04-3.15256E-05-3.13805E-05-2.96856E-06-7.94854E-20-6.30125E-19
 -1      1985 1.03893E-04-3.13057E-05-3.11143E-05-3.75500E-06-6.28765E-20-6.74101E-19
 -1      1986 1.07437E-04-3.26231E-05-3.20818E-05-2.17323E-06 3.87782E-21-1.14900E-19
 -1      1987 1.06596E-04-3.22782E-05-3.18616E-05-2.49264E-06-1.32074E-19-4.53163E-20
 -1      1988 1.05675E-04-3.21018E-05-3.15334E-05-3.23761E-06-2.54155E-19-1.38280E-19
 -1      1989 1.08630E-04-3.32509E-05-3.23317E-05-8.62877E-07 2.64436E-19 2.36847E-20
 -1      1990 1.08130E-04-3.29987E-05-3.22164E-05-1.48476E-06-5.06235E-20-3.47234E-20
 -1      1991 1.07254E-04-3.29295E-05-3.18492E-05-2.09360E-06 1.42689E-19 2.60737E-19
 -1      1992 1.08979E-04-3.36076E-05-3.23302E-05 1.11274E-06 2.49670E-19 1.16611E-18
 -1      1993 1.09015E-04-3.35445E-05-3.23673E-05 1.58678E-07 4.72492E-19 9.10443E-19
 -1      1994 1.08370E-04-3.36507E-05-3.20080E-05-1.84221E-07 1.66892E-20 6.35812E-19
 -1      1995 1.08144E-04-3.34532E-05-3.20304E-05 3.55592E-06-1.16490E-18 6.25739E-19
 -1      1996 1.08881E-04-3.36918E-05-3.22489E-05 2.36463E-06-4.70897E-19 8.19792E-19
 -1      1997 1.08686E-04-3.40180E-05-3.19729E-05 2.43727E-06-1.97451E-19 1.20204E-18
 -1      1998 1.05940E-04-3.25565E-05-3.14537E-05 5.87282E-06-1.14242E-18 9.37613E-19
 -1      1999 1.07416E-04-3.31751E-05-3.18404E-05 4.73586E-06-1.36790E-18 5.32797E-19
 -1      2000 1.07864E-04-3.37020E-05-3.17460E-05 5.34697E-06-1.43326E-18 5.78934E-19
 -1      2001 1.02584E-04-3.08847E-05-3.07155E-05 7.09508E-06 1.05293E-19 1.11358E-18
 -1      2002 1.04597E-04-3.18348E-05-3.11973E-05 6.48428E-06-5.66089E-19 9.76947E-19
 -1      2003 1.05761E-04-3.24483E-05-3.13832E-05 7.64227E-06-7.83820E-19 1.33924E-19
 -1      2004 9.88949E-05-2.88347E-05-3.00111E-05 6.27854E-06 1.17989E-18 9.15636E-19
 -1      2005 1.00950E-04-2.98628E-05-3.04624E-05 6.63830E-06 7.37613E-19 1.00890E-18
 -1      2006 1.02715E-04-3.03749E-05-3.09871E-05 8.13442E-06 4.75323E-19 3.34274E-19
 -1      2007 9.61787E-05-2.72249E-05-2.95527E-05 3.19379E-06 2.89963E-19 2.49120E-19
 -1      2008 9.75981E-05-2.79244E-05-2.98359E-05 4.61135E-06 7.21368E-19 4.69289E-19
 -1      2009 9.97008E-05-2.81707E-05-3.06739E-05 5.99676E-06 1.00434E-18-5.18146E-20
 -1      2010 9.56425E-05-2.68919E-05-2.94837E-05-1.19083E-06-1.36452E-19 4.50562E-19
 -1      2011 9.58666E-05-2.69223E-05-2.95059E-05 8.04624E-07-2.40597E-19 4.18819E-19
 -1      2012 9.80203E-05-2.68818E-05-3.05292E-05 1.54505E-06-1.24858E-19-4.52468E-20
 -1      2013 9.75820E-05-2.80358E-05-2.98262E-05-5.09589E-06-5.07373E-19 1.16026E-18
 -1      2014 9.65026E-05-2.73796E-05-2.95792E-05-3.33932E-06-1.89431E-19 6.73160E-19
 -1      2015 9.85199E-05-2.72292E-05-3.05872E-05-3.55692E-06-4.65048E-19 3.50936E-19
 -1      2016 1.01145E-04-3.00484E-05-3.04737E-05-7.04843E-06 9.76697E-19 1.05000E-18
 -1      2017 9.91834E-05-2.90246E-05-3.00379E-05-6.16548E-06 3.04839E-19 1.11815E-18
 -1      2018 1.00950E-04-2.90168E-05-3.08341E-05-7.23162E-06 4.77952E-19 2.41477E-19
 -1      2019 1.04924E-04-3.20059E-05-3.12343E-05-6.71852E-06 8.38946E-19 2.15772E-18
 -1      2020 1.02772E-04-3.10295E-05-3.07425E-05-6.82554E-06 8.72379E-19 2.02428E-18
 -1      2021 1.04164E-04-3.13070E-05-3.12097E-05-8.29434E-06 6.88383E-19 1.36453E-18
 -1      2022 1.07784E-04-3.32842E-05-3.19024E-05-4.80620E-06-2.78866E-19 1.53151E-18
 -1      2023 1.06043E-04-3.26243E-05-3.14845E-05-5.58943E-06 1.71299E-19 1.99803E-18
 -1      2024 1.06922E-04-3.31170E-05-3.16138E-05-6.96233E-06 2.36147E-19 1.88659E-18
 -1      2025 1.09248E-04-3.37483E-05-3.23328E-05-2.34759E-06 2.71183E-20 1.75490E-18
 -1      2026 1.08223E-04-3.34664E-05-3.20713E-05-3.36707E-06 1.15150E-19 2.09273E-18
 -1      2027 1.08528E-04-3.39904E-05-3.19365E-05-4.31455E-06 5.37535E-20 2.34044E-18
 -1      2028 1.09387E-04-3.35819E-05-3.24721E-05-1.38571E-07 1.27183E-18 1.24240E-18
 -1      2029 1.09101E-04-3.36058E-05-3.23891E-05-1.06181E-06 6.91219E-19 1.24516E-18
 -1      2030 1.08892E-04-3.39988E-05-3.20970E-05-1.47885E-06 1.07176E-18 2.21613E-18
 -1      2031 1.08540E-04-3.30497E-05-3.23465E-05 1.44696E-06 5.63178E-19-1.09886E-19
 -1      2032 1.08844E-04-3.32675E-05-3.24181E-05 7.76926E-07 9.62554E-19 4.38343E-19
 -1      2033 1.08276E-04-3.34622E-05-3.20668E-05 8.33244E-07 1.54147E-18 9.55415E-19
 -1      2034 1.07095E-04-3.23670E-05-3.20265E-05 2.36342E-06 1.57533E-18-1.91694E-18
 -1      2035 1.07785E-04-3.26804E-05-3.22064E-05 1.96830E-06 1.17121E-18-4.25555E-19
 -1      2036 1.07034E-04-3.26914E-05-3.18655E-05 2.36663E-06 1.62951E-18-4.65605E-19
 -1      2037 1.05378E-04-3.16695E-05-3.15931E-05 2.73380E-06 1.03816E-19-1.89342E-18
 -1      2038 1.06264E-04-3.20101E-05-3.18327E-05 2.56521E-06 1.03380E-18-1.82393E-18
 -1      2039 1.05479E-04-3.18921E-05-3.15407E-05 3.16454E-06 1.47351E-18-1.17667E-18
 -1      2040 1.03622E-04-3.10284E-05-3.11162E-05 2.72815E-06-1.20893E-18-8.60256E-19
 -1      2041 1.04559E-04-3.13549E-05-3.13758E-05 2.71732E-06-9.07841E-19-1.40826E-18
 -1      2042 1.03839E-04-3.11681E-05-3.11471E-05 3.40028E-06-1.10794E-18-1.11474E-18
 -1      2043 1.01973E-04-3.04734E-05-3.06471E-05 2.49988E-06-1.09797E-19-4.57288E-19
 -1      2044 1.02868E-04-3.07646E-05-3.08989E-05 2.58400E-06-7.52532E-19-4.37044E-19
 -1      2045 1.02263E-04-3.05564E-05-3.07329E-05 3.26711E-06-9.83692E-19 1.17569E-19
 -1      2046 1.00510E-04-3.00112E-05-3.02173E-05 2.16376E-06-2.98290E-20 6.43238E-19
 -1      2047 1.01310E-04-3.02588E-05-3.04451E-05 2.29536E-06 3.11839E-19-2.04025E-19
 -1      2048 1.00834E-04-3.00599E-05-3.03333E-05 2.92692E-06 1.26839E-19 7.74003E-19
 -1      2049 9.92656E-05-2.96374E-05-2.98432E-05 1.79588E-06-1.65876E-18 9.13311E-20
 -1      2050 9.99477E-05-2.98405E-05-3.00392E-05 1.94313E-06-7.79919E-19 1.65433E-19
 -1      2051 9.95950E-05-2.96669E-05-2.99705E-05 2.49633E-06-3.18383E-19 9.00539E-19
 -1      2052 9.82414E-05-2.93421E-05-2.95300E-05 1.44148E-06 1.04271E-19 6.79960E-19
 -1      2053 9.88021E-05-2.95039E-05-2.96922E-05 1.58516E-06-4.20555E-19 4.38667E-19
 -1      2054 9.85550E-05-2.93617E-05-2.96557E-05 2.05052E-06-8.34857E-19 4.34935E-19
 -1      2055 9.74219E-05-2.91138E-05-2.92758E-05 1.12417E-06-1.26638E-18 1.19374E-18
 -1      2056 9.78690E-05-2.92395E-05-2.94060E-05 1.25402E-06-3.96724E-19 8.63804E-19
 -1      2057 9.77065E-05-2.91284E-05-2.93921E-05 1.63295E-06-8.48439E-19 5.70052E-19
 -1      2058 9.67825E-05-2.89410E-05-2.90753E-05 8.53538E-07 4.44974E-20 1.27847E-18
 -1      2059 9.71296E-05-2.90363E-05-2.91769E-05 9.65160E-07-8.01313E-19 1.17999E-18
 -1      2060 9.70313E-05-2.89530E-05-2.91779E-05 1.26521E-06-1.05759E-18 1.57130E-18
 -1      2061 9.62957E-05-2.88131E-05-2.89211E-05 6.30735E-07 2.02380E-19 8.35627E-19
 -1      2062 9.65582E-05-2.88835E-05-2.89984E-05 7.23296E-07 7.27390E-19 1.51557E-18
 -1      2063 9.65065E-05-2.88235E-05-2.90085E-05 9.54878E-07 3.28768E-19 1.75982E-18
 -1      2064 9.59343E-05-2.87207E-05-2.88056E-05 4.52226E-07-7.15843E-19 7.77333E-19
 -1      2065 9.61275E-05-2.87714E-05-2.88628E-05 5.26931E-07-1.63441E-19 6.75869E-19
 -1      2066 9.61078E-05-2.87297E-05-2.88777E-05 7.01210E-07 4.06361E-20 1.73383E-18
 -1      2067 9.56737E-05-2.86560E-05-2.87215E-05 3.12212E-07 2.15946E-18 3.53230E-19
 -1      2068 9.58115E-05-2.86912E-05-2.87625E-05 3.71293E-07 1.05991E-18 5.56856E-19
 -1      2069 9.58123E-05-2.86634E-05-2.87793E-05 4.98963E-07 1.30449E-18 1.45380E-18
 -1      2070 9.54921E-05-2.86123E-05-2.86623E-05 2.04037E-07 8.26480E-19-2.70616E-19
 -1      2071 9.55865E-05-2.86357E-05-2.86906E-05 2.50174E-07 1.20005E-18 2.05430E-19
 -1      2072 9.55993E-05-2.86179E-05-2.87074E-05 3.40803E-07 1.28532E-18 1.36870E-18
 -1      2073 9.53719E-05-2.85848E-05-2.86226E-05 1.21545E-07-2.69617E-19 7.35825E-20
 -1      2074 9.54329E-05-2.85991E-05-2.86410E-05 1.57215E-07-3.95911E-20 3.64059E-19
 -1      2075 9.54508E-05-2.85882E-05-2.86563E-05 2.18948E-07-2.69395E-19 8.84962E-19
 -1      2076 9.52978E-05-2.85691E-05-2.85976E-05 5.93547E-08 2.56696E-19 8.91377E-19
 -1      2077 9.53335E-05-2.85767E-05-2.86086E-05 8.68291E-08 1.89211E-19 3.52442E-19
 -1      2078 9.53519E-05-2.85700E-05-2.86216E-05 1.26508E-07 2.89112E-19 1.50160E-18
 -1      2079 9.52579E-05-2.85633E-05-2.85829E-05 1.47855E-08 8.93933E-19 2.57236E-19
 -1      2080 9.52748E-05-2.85653E-05-2.85888E-05 3.45338E-08 6.82051E-19 6.77155E-19
 -1      2081 9.52898E-05-2.85608E-05-2.85988E-05 5.76283E-08 4.74349E-19 2.35907E-18
 -1      2082 9.52443E-05-2.85663E-05-2.85757E-05-5.53712E-09 1.09544E-18 1.67139E-18
 -1      2083 9.52491E-05-2.85625E-05-2.85794E-05 5.04235E-09 1.46810E-18 1.47075E-18
 -1      2084 9.52593E-05-2.85588E-05-2.85863E-05 1.77680E-08 1.09276E-18 2.98717E-18
 -1      2085 9.52480E-05-2.85655E-05-2.85781E-05-1.56452E-09 5.60475E-19 3.54563E-18
 -1      2086 9.52096E-05-2.84465E-05-2.86131E-05 9.41251E-08 5.18600E-19-6.31405E-20
 -1      2087 9.52221E-05-2.84720E-05-2.86065E-05 8.43700E-08 3.39937E-19-2.76751E-20
 -1      2088 9.52358E-05-2.85028E-05-2.86000E-05 6.80825E-08 7.07676E-19 1.75757E-19
 -1      2089 9.52439E-05-2.85221E-05-2.85944E-05 5.13321E-08 5.47060E-19 2.16730E-18
 -1      2090 9.52303E-05-2.84642E-05-2.86142E-05 1.05194E-07-3.06392E-19-5.25185E-20
 -1      2091 9.52484E-05-2.85423E-05-2.85881E-05 3.17058E-08 5.32668E-19 4.05865E-18
 -1      2092 9.52497E-05-2.85533E-05-2.85837E-05 1.60984E-08 4.50881E-19 3.64496E-18
 -1      2093 9.52557E-05-2.85491E-05-2.85883E-05 2.46569E-08 1.06101E-18 3.27115E-18
 -1      2094 9.52504E-05-2.85157E-05-2.86011E-05 6.39058E-08-2.58100E-19 3.34470E-18
 -1      2095 9.51807E-05-2.83873E-05-2.86264E-05 1.01038E-07-8.42728E-19-5.30462E-18
 -1      2096 9.51944E-05-2.84146E-05-2.86195E-05 1.00110E-07 1.01973E-19-1.07412E-18
 -1      2097 9.51961E-05-2.83999E-05-2.86269E-05 1.29157E-07-4.87688E-19-1.89153E-18
 -1      2098 9.51534E-05-2.83324E-05-2.86384E-05 8.70407E-08-7.83261E-19-2.63833E-18
 -1      2099 9.51658E-05-2.83571E-05-2.86322E-05 9.51896E-08-4.76522E-19-3.35518E-18
 -1      2100 9.51602E-05-2.83356E-05-2.86386E-05 1.28596E-07-9.84357E-19-3.65865E-18
 -1      2101 9.51336E-05-2.82924E-05-2.86472E-05 5.50709E-08-2.54811E-19 7.50778E-19
 -1      2102 9.51420E-05-2.83093E-05-2.86429E-05 7.04161E-08 9.77405E-20-1.68068E-18
 -1      2103 9.51284E-05-2.82804E-05-2.86483E-05 1.02421E-07-1.47879E-19-2.57791E-18
 -1      2104 9.51245E-05-2.82742E-05-2.86510E-05 1.18914E-08-6.14868E-19 1.52006E-18
 -1      2105 9.51274E-05-2.82800E-05-2.86496E-05 3.11486E-08-1.36511E-18 2.16910E-18
 -1      2106 9.51070E-05-2.82435E-05-2.86548E-05 5.59650E-08-1.87500E-19 6.71816E-19
 -1      2107 9.51277E-05-2.82807E-05-2.86494E-05-3.37496E-08-1.07220E-19-7.32431E-19
 -1      2108 9.51246E-05-2.82743E-05-2.86510E-05-1.45666E-08 9.02700E-20 7.62623E-19
 -1      2109 9.50996E-05-2.82306E-05-2.86570E-05-1.56345E-09-1.45129E-18 1.98218E-18
 -1      2110 9.51428E-05-2.83109E-05-2.86426E-05-7.26186E-08-1.07969E-18-2.03476E-18
 -1      2111 9.51341E-05-2.82934E-05-2.86470E-05-5.75200E-08-3.59945E-19-1.68674E-18
 -1      2112 9.51074E-05-2.82439E-05-2.86548E-05-5.89298E-08-1.49073E-18-1.41811E-18
 -1      2113 9.51666E-05-2.83584E-05-2.86320E-05-9.63837E-08-6.89461E-19-2.09726E-18
 -1      2114 9.51542E-05-2.83337E-05-2.86382E-05-8.86838E-08-1.16078E-18-1.48121E-18
 -1      2115 9.51291E-05-2.82809E-05-2.86484E-05-1.04605E-07-5.59658E-19-2.34533E-18
 -1      2116 9.51956E-05-2.84167E-05-2.86191E-05-1.00513E-07-4.66265E-19 1.66275E-18
 -1      2117 9.51815E-05-2.83887E-05-2.86262E-05-1.01914E-07-7.46236E-20-1.18304E-19
 -1      2118 9.51609E-05-2.83360E-05-2.86388E-05-1.29850E-07 3.52490E-19-1.06650E-18
 -1      2119 9.52238E-05-2.84750E-05-2.86060E-05-8.33245E-08-6.87574E-19-1.10678E-18
 -1      2120 9.52113E-05-2.84494E-05-2.86126E-05-9.38259E-08-7.75935E-19-1.17526E-18
 -1      2121 9.51977E-05-2.84013E-05-2.86270E-05-1.29346E-07-1.16238E-19 3.75679E-19
 -1      2122 9.52445E-05-2.85257E-05-2.85938E-05-4.84973E-08-1.78446E-18-5.04577E-20
 -1      2123 9.52376E-05-2.85057E-05-2.85994E-05-6.61159E-08-1.48496E-18 4.37219E-20
 -1      2124 9.52320E-05-2.84661E-05-2.86140E-05-1.03306E-07-2.68944E-19-1.10126E-18
 -1      2125 5.24083E-05-3.77024E-05-6.98280E-06 3.92423E-05 2.81215E-18 3.38220E-18
 -1      2126 3.77184E-05-4.02792E-05-5.43510E-07 3.01362E-05 1.32561E-18 4.42532E-18
 -1      2127 1.20905E-05-3.53109E-05 8.19976E-06 6.18845E-06-4.42363E-19 7.23324E-18
 -1      2128 1.14386E-05-3.25897E-05 7.69898E-06-3.17050E-06-1.84886E-18 5.80895E-18
 -1      2129 2.43863E-05-3.53079E-05 3.47643E-06 2.45136E-05 9.74088E-19 5.99191E-18
 -1      2130 1.74329E-05-3.69104E-05 6.66017E-06 1.57760E-05-7.79059E-19 7.36792E-18
 -1      2131 9.61643E-05-4.30888E-05-2.26315E-05 4.26784E-05 2.18789E-18 4.29234E-18
 -1      2132 7.79210E-05-4.51980E-05-1.48111E-05 3.88170E-05 1.91768E-18 3.47792E-18
 -1      2133 1.28940E-04-4.14475E-05-3.70090E-05 3.74118E-05 3.29750E-18 2.82994E-18
 -1      2134 1.08564E-04-4.32327E-05-2.87110E-05 3.61492E-05 2.70119E-18 2.59743E-18
 -1      2135 1.15128E-04-5.46058E-05-2.59249E-05 3.43279E-05 8.54656E-19 1.64367E-18
 -1      2136 8.73429E-05-8.68014E-06-3.38039E-05-1.02512E-05-1.11816E-18-2.17898E-18
 -1      2137 8.80607E-05-9.23386E-06-3.38675E-05-1.18248E-05-1.39112E-18-1.87017E-18
 -1      2138 9.05482E-05-1.29911E-05-3.32663E-05-1.15091E-05-1.59109E-18-1.49888E-18
 -1      2139 8.87247E-05-1.09547E-05-3.33619E-05-9.09173E-06-1.03702E-18-2.09005E-18
 -1      2140 1.79164E-04-2.89279E-05-6.29044E-05 1.15247E-05 4.32749E-18 1.66611E-18
 -1      2141 1.65243E-04-2.85332E-05-5.80149E-05 1.54710E-05 3.85633E-18 1.51153E-18
 -1      2142 1.79180E-04-2.27838E-05-6.60327E-05-4.73558E-07 3.93320E-18 1.19044E-18
 -1      2143 1.80616E-04-2.52630E-05-6.52818E-05 7.33995E-06 4.41304E-18 1.98545E-18
 -1      2144 1.74719E-04-2.58107E-05-6.28482E-05-1.03687E-05 3.37881E-18-8.47033E-20
 -1      2145 1.76950E-04-2.32553E-05-6.49121E-05-2.69878E-06 3.77904E-18 9.82982E-19
 -1      2146 1.58900E-04-3.07242E-05-5.45955E-05-1.91643E-05 4.47117E-18-1.01178E-18
 -1      2147 1.73807E-04-3.06962E-05-6.00896E-05-1.52459E-05 3.78370E-18-5.03985E-19
 -1      2148 1.57902E-04-2.13296E-05-5.74495E-05 2.43206E-07 3.80339E-18 1.16192E-18
 -1      2149 1.34202E-04-4.04778E-05-4.04455E-05-2.89711E-05 3.81525E-18-2.00577E-18
 -1      2150 1.51885E-04-3.91256E-05-4.76103E-05-2.57872E-05 4.48536E-18-7.97482E-19
 -1      2151 1.04585E-04-4.31964E-05-2.69632E-05-3.65913E-05 3.29496E-18-2.99680E-18
 -1      2152 1.24355E-04-4.18940E-05-3.48655E-05-3.81225E-05 3.40677E-18-3.16621E-18
 -1      2153 1.38063E-04-5.09333E-05-3.68700E-05-2.11774E-05 2.23447E-18-5.78524E-19
 -1      2154 6.74975E-05-4.30304E-05-1.15277E-05-3.83250E-05 1.71439E-18-4.25793E-18
 -1      2155 8.44508E-05-4.04528E-05-1.89929E-05-4.32271E-05 2.97054E-18-4.17503E-18
 -1      2156 3.54959E-05-3.88083E-05 1.40206E-07-3.02292E-05-7.32683E-20-4.53057E-18
 -1      2157 4.92579E-05-3.73312E-05-5.51719E-06-3.88448E-05 9.79594E-19-4.58764E-18
 -1      2158 1.62523E-05-3.34948E-05 6.20702E-06-1.50411E-05-1.75272E-18-4.82639E-18
 -1      2159 2.34477E-05-3.37369E-05 3.54677E-06-2.38808E-05-2.05405E-19-4.68812E-18
 -1      2160 3.65565E-05-3.15103E-05-2.49387E-06-3.37156E-05-1.14773E-18-4.87425E-18
 -1      2161 1.41683E-05-3.26195E-05 6.79407E-06 9.15458E-06-3.26955E-18-5.29861E-18
 -1      2162 1.18631E-05-3.11673E-05 7.23911E-06-1.08842E-06-1.50825E-18-4.88103E-18
 -1      2163 3.00907E-05-3.58403E-05 1.45017E-06 2.78039E-05-3.75405E-18-4.65699E-18
 -1      2164 2.06880E-05-3.76747E-05 5.63383E-06 1.84568E-05-2.93518E-18-5.32530E-18
 -1      2165 6.36978E-05-4.19026E-05-1.01268E-05 3.99742E-05-3.87983E-18-5.54997E-18
 -1      2166 4.63018E-05-4.19887E-05-3.36393E-06 3.24401E-05-3.87941E-18-4.47784E-18
 -1      2167 1.02953E-04-4.33548E-05-2.53179E-05 4.11540E-05-5.60439E-18-5.01782E-18
 -1      2168 8.67300E-05-4.64090E-05-1.78296E-05 3.87246E-05-4.51469E-18-4.93947E-18
 -1      2169 1.35689E-04-4.28450E-05-3.92048E-05 3.45818E-05-5.58745E-18-3.14503E-18
 -1      2170 1.15976E-04-4.37740E-05-3.14791E-05 3.47887E-05-5.89535E-18-3.99249E-18
 -1      2171 1.21577E-04-5.45017E-05-2.86522E-05 3.13720E-05-3.65219E-18-2.30329E-18
 -1      2172 1.64621E-04-3.71932E-05-5.34315E-05 2.41594E-05-4.78165E-18-3.23948E-18
 -1      2173 1.47112E-04-3.81814E-05-4.66059E-05 2.59513E-05-5.27786E-18-3.56643E-18
 -1      2174 1.79385E-04-3.05805E-05-6.24493E-05 1.04187E-05-3.87369E-18-3.24668E-18
 -1      2175 1.68354E-04-3.15621E-05-5.79828E-05 1.56997E-05-4.31987E-18-3.37966E-18
 -1      2176 1.85894E-04-2.61665E-05-6.69937E-05 9.87840E-07-3.20644E-18-3.12968E-18
 -1      2177 1.81574E-04-2.62346E-05-6.54406E-05 7.55985E-06-3.58676E-18-3.42837E-18
 -1      2178 1.81913E-04-2.63016E-05-6.54653E-05-7.77421E-06-3.68459E-18-2.67832E-18
 -1      2179 1.87890E-04-2.69158E-05-6.73619E-05-1.41569E-06-3.15647E-18-3.02592E-18
 -1      2180 1.68380E-04-3.22809E-05-5.75222E-05-1.86634E-05-2.43755E-18-1.38532E-18
 -1      2181 1.79768E-04-3.12271E-05-6.22706E-05-1.21197E-05-3.07282E-18-1.97570E-18
 -1      2182 1.43669E-04-3.94465E-05-4.47112E-05-2.70906E-05-2.24019E-18-1.19093E-18
 -1      2183 1.61800E-04-3.83077E-05-5.18035E-05-2.45939E-05-1.86641E-18-1.10707E-18
 -1      2184 1.14163E-04-4.48363E-05-3.02355E-05-3.38057E-05-1.06049E-18-7.71223E-19
 -1      2185 1.33968E-04-4.24159E-05-3.85279E-05-3.57085E-05-2.11631E-18-1.05456E-18
 -1      2186 1.45200E-04-4.92020E-05-4.06420E-05-1.78121E-05-1.03698E-18-2.73465E-18
 -1      2187 7.51544E-05-4.54067E-05-1.38579E-05-3.74325E-05-1.42640E-18 1.19326E-19
 -1      2188 9.50871E-05-4.46426E-05-2.17113E-05-4.18524E-05-8.30516E-19-3.67189E-19
 -1      2189 3.96757E-05-4.10947E-05-9.97372E-07-2.97570E-05-3.00019E-18 2.80156E-19
 -1      2190 5.43476E-05-3.91579E-05-7.18712E-06-3.80758E-05-2.35729E-18 1.51698E-19
 -1      2191 1.81830E-05-3.50466E-05 5.87517E-06-1.69984E-05-2.15888E-18 2.85281E-18
 -1      2192 2.63439E-05-3.65103E-05 3.04468E-06-2.46208E-05-3.18273E-18 1.35546E-18
 -1      2193 4.02368E-05-3.57085E-05-2.50878E-06-3.41043E-05-4.77727E-19-4.31140E-19
 -1      2194 1.59274E-04-3.60730E-05-5.19930E-05 2.36372E-05 2.71487E-18 2.26327E-18
 -1      2195 1.42040E-04-3.68088E-05-4.49388E-05 2.85269E-05 3.03344E-18 3.16282E-18
 -1      2196 9.71609E-05-2.43057E-05-3.12946E-05-9.79246E-06-1.71347E-18 1.02732E-18
 -1      2197 1.40349E-04-4.82592E-05-3.89621E-05 2.05383E-05 1.45668E-18 2.74439E-19
 -1      2198 1.56672E-04-3.26704E-05-5.22872E-05 6.51876E-06 2.51781E-18-3.63377E-19
 -1      2199 9.63840E-05-2.31057E-05-3.14728E-05-1.01073E-05-1.77742E-18 1.79955E-19
 -1      2200 3.71763E-05-3.44339E-05-1.80277E-06 3.39923E-05-2.27005E-19 4.94921E-18
 -1      2201 1.68802E-05-2.65920E-05 3.39221E-06 1.44077E-05-9.03467E-19 7.06044E-18
 -1      2202 9.52503E-05-2.85329E-05-2.85929E-05-4.09001E-08-7.92592E-19 1.13623E-18
 -1      2203 7.70930E-05-4.67592E-05-1.30822E-05 4.27691E-05 5.52265E-19 2.86926E-18
 -1      2204 1.62645E-05-1.96070E-05 1.44081E-06-6.60076E-06 6.41627E-20 4.72898E-18
 -1      2205 1.74477E-05-2.89507E-05 4.20741E-06-1.18879E-05-8.09234E-19 4.16401E-18
 -1      2206 2.35622E-05-2.33459E-05-2.72970E-07-2.14375E-05 1.11893E-18 2.08116E-18
 -1      2207 1.16921E-04-5.44598E-05-2.66925E-05-3.30963E-05 3.76930E-19-2.31536E-18
 -1      2208 1.59254E-04-3.64216E-05-5.17245E-05-5.80313E-06-1.88094E-18-2.31833E-18
 -1      2209 1.66235E-04-2.26320E-05-6.02990E-05-5.26405E-07-3.28733E-18-2.61860E-18
 -1      2210 1.65374E-04-1.55916E-05-6.28203E-05-2.29799E-07-3.29411E-18-2.44149E-18
 -1      2211 1.62586E-04-2.06375E-05-5.96686E-05-1.70639E-06-3.58041E-18-1.94076E-18
 -1      2212 1.46089E-04-4.81621E-05-4.14204E-05 1.82869E-05-4.37175E-18-1.45309E-18
 -1      2213 8.28437E-05-4.77849E-05-1.52174E-05 4.01390E-05-3.17722E-18-4.84079E-18
 -1      2214 8.00809E-05-4.75717E-05-1.34724E-05 4.22097E-05-1.13058E-18-4.19170E-18
 -1      2215 1.00977E-04-5.48283E-05-2.03956E-05 3.87463E-05-1.93992E-18-3.42074E-18
 -1      2216 4.52730E-05-3.73953E-05-3.82063E-06 3.61058E-05-1.77538E-18-4.32304E-18
 -1      2217 1.75299E-05-2.32902E-05 2.04649E-06-1.01265E-05-1.90339E-18-5.44896E-18
 -1      2218 1.09256E-04-5.23665E-05-2.43468E-05-3.71900E-05 1.02957E-18-2.01149E-18
 -1      2219 1.52845E-04-3.81227E-05-4.85361E-05-6.99531E-06 3.78285E-18 4.27752E-19
 -1      2220 1.60808E-04-1.80473E-05-5.99831E-05 2.33621E-08 4.22712E-18 6.74662E-19
 -1      2221 1.60090E-04-1.43622E-05-6.14179E-05 5.69042E-07 3.82944E-18 1.17346E-18
 -1      2222 6.88324E-05-4.42784E-05-1.07951E-05-4.20716E-05-4.88738E-19-4.01324E-18
 -1      2223 2.06604E-05-2.61598E-05 1.74536E-06 1.76867E-05-1.74499E-18-5.23255E-18
 -1      2224 1.59527E-04-3.42144E-05-5.27164E-05 4.43113E-06-4.29795E-18-1.69152E-18
 -1      2225 7.61622E-05-4.74027E-05-1.25298E-05-4.14747E-05 3.62530E-19-1.41448E-18
 -1      2226 9.53546E-05-2.63639E-05-2.95517E-05 3.85943E-06 1.45757E-18 1.49205E-18
 -1      2227 9.62665E-05-2.58453E-05-3.01068E-05 5.69853E-06 1.59573E-18 1.74729E-18
 -1      2228 8.80203E-05-1.08630E-05-3.31074E-05-3.46138E-06-4.55365E-20-2.31609E-18
 -1      2229 8.82823E-05-1.11596E-05-3.30889E-05-4.55891E-06-3.41753E-19-2.29288E-18
 -1      2230 8.86700E-05-1.16870E-05-3.30390E-05-5.53460E-06-4.47663E-19-2.27014E-18
 -1      2231 8.91075E-05-1.21915E-05-3.30084E-05-6.67614E-06-6.86064E-19-2.13748E-18
 -1      2232 8.97763E-05-1.34791E-05-3.26967E-05-4.60405E-06-3.50317E-19-2.12426E-18
 -1      2233 8.76240E-05-1.03517E-05-3.31505E-05 5.85040E-07 6.35963E-19-2.37883E-18
 -1      2234 8.76194E-05-1.03464E-05-3.31509E-05-4.70654E-07 4.59694E-19-2.40033E-18
 -1      2235 8.78305E-05-1.06028E-05-3.31313E-05 2.61071E-06 1.01582E-18-2.20915E-18
 -1      2236 8.76997E-05-1.04550E-05-3.31410E-05 1.54324E-06 7.77562E-19-2.30484E-18
 -1      2237 8.88868E-05-1.23156E-05-3.28175E-05 9.78139E-07 6.76726E-19-2.18033E-18
 -1      2238 8.83172E-05-1.12059E-05-3.30843E-05 4.64241E-06 1.37627E-18-2.02191E-18
 -1      2239 8.80506E-05-1.09032E-05-3.31035E-05 3.56139E-06 1.17207E-18-2.16360E-18
 -1      2240 8.91916E-05-1.27132E-05-3.27765E-05 2.82307E-06 1.03228E-18-2.02103E-18
 -1      2241 8.91638E-05-1.22665E-05-3.30006E-05 6.75886E-06 1.77238E-18-1.55041E-18
 -1      2242 8.87142E-05-1.17465E-05-3.30326E-05 5.61650E-06 1.54652E-18-1.81164E-18
 -1      2243 8.98170E-05-1.35361E-05-3.26895E-05 4.67451E-06 1.43057E-18-1.72667E-18
 -1      2244 9.04945E-05-1.39607E-05-3.28631E-05 8.87255E-06 2.11737E-18-1.01171E-18
 -1      2245 8.97885E-05-1.31154E-05-3.29146E-05 7.70678E-06 1.88499E-18-1.33555E-18
 -1      2246 9.08334E-05-1.48919E-05-3.25386E-05 6.50248E-06 1.73556E-18-1.29530E-18
 -1      2247 9.25234E-05-1.66083E-05-3.26343E-05 1.07614E-05 2.28806E-18-3.42565E-19
 -1      2248 9.14372E-05-1.52401E-05-3.27172E-05 9.67797E-06 2.14835E-18-7.42894E-19
 -1      2249 9.23270E-05-1.69452E-05-3.22855E-05 8.12459E-06 1.95193E-18-7.24580E-19
 -1      2250 9.45093E-05-2.71109E-05-2.88648E-05 1.31999E-06 1.21087E-18 1.13690E-18
 -1      2251 9.50254E-05-2.68785E-05-2.91340E-05 2.34732E-06 1.33229E-18 1.40812E-18
 -1      2252 9.55011E-05-2.58054E-05-2.98794E-05 3.92190E-06 1.57501E-18 5.99425E-19
 -1      2253 9.60221E-05-2.50567E-05-3.03665E-05-5.81961E-06-1.37603E-18-1.90837E-19
 -1      2254 9.54183E-05-2.58056E-05-2.98469E-05-3.85783E-06-1.23589E-18-2.29764E-19
 -1      2255 1.44171E-04-4.82050E-05-4.14657E-05 9.99266E-06 1.44716E-18-1.44038E-18
 -1      2256 1.34221E-04-5.37043E-05-3.46393E-05 1.72467E-05 1.07997E-18-8.34963E-19
 -1      2257 9.53445E-05-2.64799E-05-2.94562E-05-2.44779E-06-1.09197E-18-1.10641E-19
 -1      2258 9.49532E-05-2.68478E-05-2.91843E-05-1.31051E-06-9.25082E-19-1.87725E-19
 -1      2259 9.54980E-05-2.52686E-05-3.01077E-05-3.76249E-06-1.20457E-18-5.09657E-19
 -1      2260 9.48130E-05-2.71652E-05-2.89537E-05-3.57040E-07-8.88822E-19-4.07490E-20
 -1      2261 9.46634E-05-2.73806E-05-2.88280E-05 3.50428E-07-7.96867E-19-1.67635E-19
 -1      2262 9.52857E-05-2.65583E-05-2.94698E-05-1.20652E-06-8.72858E-19-3.66317E-19
 -1      2263 9.45880E-05-2.75481E-05-2.87088E-05 9.97436E-07-6.35271E-19-9.56841E-20
 -1      2264 9.46348E-05-2.76984E-05-2.86780E-05 1.46994E-06-4.77273E-19-2.31224E-19
 -1      2265 9.51062E-05-2.72406E-05-2.91003E-05 5.29287E-07-7.24395E-19-1.39643E-19
 -1      2266 9.46459E-05-2.77949E-05-2.86378E-05 1.93615E-06-2.93277E-19-2.89856E-19
 -1      2267 9.48437E-05-2.79160E-05-2.86730E-05 2.28669E-06-2.34805E-19-3.07030E-19
 -1      2268 9.50698E-05-2.76180E-05-2.89208E-05 1.74238E-06-5.13102E-19-3.22149E-19
 -1      2269 9.49352E-05-2.79757E-05-2.86904E-05 2.65944E-06-4.10761E-19-3.49344E-19
 -1      2270 9.52532E-05-2.80844E-05-2.87749E-05 2.95891E-06-2.88380E-19-3.07217E-19
 -1      2271 9.51909E-05-2.78330E-05-2.88782E-05 2.65693E-06-4.18290E-19-5.70358E-19
 -1      2272 9.54144E-05-2.81242E-05-2.88360E-05 3.29911E-06-2.04649E-19-4.57866E-19
 -1      2273 9.58364E-05-2.82316E-05-2.89601E-05 3.59415E-06-2.39917E-19-5.69185E-19
 -1      2274 9.54547E-05-2.79548E-05-2.89369E-05 3.43027E-06-3.56218E-19-7.31717E-19
 -1      2275 9.60599E-05-2.82631E-05-2.90554E-05 3.94392E-06-4.12850E-19-6.41569E-19
 -1      2276 9.65810E-05-2.83805E-05-2.92138E-05 4.26447E-06-5.62765E-19-6.06017E-19
 -1      2277 9.58451E-05-2.80243E-05-2.90730E-05 4.17217E-06-3.16432E-19-7.39109E-19
 -1      2278 9.68647E-05-2.84159E-05-2.93363E-05 4.65060E-06-6.08820E-19-5.75248E-19
 -1      2279 9.74883E-05-2.85579E-05-2.95253E-05 5.01180E-06-5.88124E-19-6.51881E-19
 -1      2280 9.63547E-05-2.80749E-05-2.92687E-05 4.95615E-06-6.95128E-19-4.78916E-19
 -1      2281 9.78376E-05-2.86144E-05-2.96687E-05 5.44568E-06-2.78192E-19-4.04910E-19
 -1      2282 9.85729E-05-2.88027E-05-2.98848E-05 5.84538E-06 9.64054E-20-3.43597E-19
 -1      2283 9.69881E-05-2.81460E-05-2.95092E-05 5.82334E-06-3.38915E-19-1.89974E-19
 -1      2284 9.90035E-05-2.89083E-05-3.00419E-05 6.31929E-06 1.04980E-19-1.72379E-19
 -1      2285 9.98636E-05-2.91755E-05-3.02796E-05 6.73137E-06 5.01114E-20 3.36780E-20
 -1      2286 9.77676E-05-2.82952E-05-2.97796E-05 6.77930E-06 1.55958E-19-1.53696E-19
 -1      2287 1.00408E-04-2.93762E-05-3.04413E-05 7.21072E-06-2.50851E-19 2.31071E-19
 -1      2288 1.01409E-04-2.97709E-05-3.06910E-05 7.57399E-06-2.78279E-19 1.26417E-19
 -1      2289 9.87420E-05-2.86140E-05-3.00622E-05 7.78343E-06 1.33870E-19-2.17943E-20
 -1      2290 1.02127E-04-3.01385E-05-3.08465E-05 7.98462E-06-5.18644E-19 1.05508E-19
 -1      2291 1.03284E-04-3.07277E-05-3.10938E-05 8.18836E-06-3.98676E-19-1.49844E-19
 -1      2292 1.00003E-04-2.92453E-05-3.03361E-05 8.73003E-06-4.38590E-19 1.01775E-19
 -1      2293 1.04272E-04-3.13633E-05-3.12329E-05 8.39841E-06 2.66762E-20-1.34982E-19
 -1      2294 1.05595E-04-3.22233E-05-3.14593E-05 8.26924E-06 1.00117E-19 3.88194E-19
 -1      2295 1.01704E-04-3.03966E-05-3.05803E-05 9.41983E-06-1.95784E-19 4.44880E-19
 -1      2296 1.06987E-04-3.32406E-05-3.15796E-05 8.06863E-06 1.40972E-19 5.99385E-19
 -1      2297 1.08457E-04-3.44179E-05-3.17695E-05 7.37314E-06 3.38026E-19 9.27913E-19
 -1      2298 1.04079E-04-3.23251E-05-3.07850E-05 9.52275E-06 2.04808E-19 8.59305E-19
 -1      2299 1.10387E-04-3.58789E-05-3.18914E-05 6.46329E-06 4.63243E-19 8.17824E-19
 -1      2300 1.11899E-04-3.72879E-05-3.20444E-05 4.95350E-06 4.05699E-19 9.16744E-19
 -1      2301 1.07400E-04-3.52423E-05-3.09761E-05 8.54430E-06 2.55104E-19 8.02179E-19
 -1      2302 1.14371E-04-3.90406E-05-3.22333E-05 2.98382E-06-4.20075E-20 1.19324E-18
 -1      2303 1.15631E-04-4.02720E-05-3.23886E-05 5.47498E-07-1.21887E-19 6.74045E-19
 -1      2304 1.11837E-04-3.90567E-05-3.12552E-05 5.83198E-06 3.48776E-19 1.23369E-18
 -1      2305 1.18219E-04-4.16701E-05-3.27817E-05-2.64656E-06-7.28415E-20 5.90005E-19
 -1      2306 1.18720E-04-4.18506E-05-3.30224E-05-5.68084E-06-3.60032E-19 5.30090E-19
 -1      2307 1.17010E-04-4.27713E-05-3.18592E-05 7.54542E-07-2.31253E-19 9.16212E-19
 -1      2308 1.20390E-04-4.17405E-05-3.37678E-05-9.44022E-06-4.73730E-19 9.08320E-19
 -1      2309 1.19590E-04-3.99062E-05-3.41817E-05-1.19316E-05-5.65445E-19 7.80028E-19
 -1      2310 1.21411E-04-4.41463E-05-3.31451E-05-6.51423E-06-1.40853E-19 1.23274E-18
 -1      2311 1.19120E-04-3.70190E-05-3.53593E-05-1.46488E-05-7.12765E-19 8.06494E-19
 -1      2312 1.16861E-04-3.30167E-05-3.59287E-05-1.46156E-05-5.85988E-19 4.01262E-19
 -1      2313 1.23077E-04-4.08180E-05-3.52680E-05-1.37144E-05-5.09689E-19 1.11165E-18
 -1      2314 1.14692E-04-2.86296E-05-3.71215E-05-1.31264E-05-3.28993E-19 3.37562E-19
 -1      2315 1.12509E-04-2.47534E-05-3.76033E-05-9.65399E-06-2.89712E-19 8.85770E-19
 -1      2316 1.19725E-04-3.05322E-05-3.84219E-05-1.56299E-05-6.58992E-19 6.96221E-19
 -1      2317 1.10888E-04-2.21138E-05-3.82271E-05-3.71604E-06-7.60794E-19 5.81587E-19
 -1      2318 1.10701E-04-2.17819E-05-3.82732E-05 1.81570E-06-7.98964E-19 6.65063E-19
 -1      2319 1.15515E-04-2.16260E-05-4.04410E-05-7.68624E-06-7.85464E-19 4.86210E-19
 -1      2320 1.11932E-04-2.37407E-05-3.78231E-05 8.18287E-06-1.32349E-18 2.73967E-19
 -1      2321 1.13847E-04-2.71872E-05-3.73988E-05 1.21937E-05-1.01988E-18 4.72701E-20
 -1      2322 1.15000E-04-2.08145E-05-4.06248E-05 5.72273E-06-1.38739E-18 7.23022E-19
 -1      2323 1.16321E-04-3.17146E-05-3.62261E-05 1.44969E-05-5.48057E-19-4.00583E-19
 -1      2324 1.18587E-04-3.58987E-05-3.56493E-05 1.49132E-05-1.71987E-19-5.44347E-19
 -1      2325 1.19178E-04-2.92546E-05-3.86491E-05 1.47655E-05-1.30885E-18-1.35790E-20
 -1      2326 1.19439E-04-3.90756E-05-3.44531E-05 1.29113E-05 4.59548E-19-5.94567E-19
 -1      2327 1.20554E-04-4.13608E-05-3.40092E-05 1.06495E-05 8.12406E-19-9.40041E-20
 -1      2328 1.22701E-04-3.91250E-05-3.58070E-05 1.44448E-05 1.33130E-19-7.80223E-19
 -1      2329 1.19125E-04-4.18437E-05-3.31969E-05 6.87780E-06 4.08545E-19-6.86145E-19
 -1      2330 1.18840E-04-4.19235E-05-3.29424E-05 3.84470E-06 2.44402E-19-9.04416E-19
 -1      2331 1.22053E-04-4.39989E-05-3.34535E-05 7.82771E-06 1.33357E-19-1.05192E-18
 -1      2332 1.16320E-04-4.06690E-05-3.25139E-05 5.12606E-07 2.23802E-19-8.51022E-19
 -1      2333 1.15166E-04-3.95341E-05-3.23625E-05-2.03715E-06 2.66915E-19-9.72546E-19
 -1      2334 1.17905E-04-4.32169E-05-3.20510E-05 4.48532E-07 2.95424E-19-9.37474E-19
 -1      2335 1.12647E-04-3.77739E-05-3.21613E-05-4.16925E-06 1.97779E-19-1.07138E-18
 -1      2336 1.11183E-04-3.63585E-05-3.20232E-05-5.79353E-06 1.51986E-19-2.10450E-19
 -1      2337 1.12745E-04-3.96622E-05-3.13850E-05-4.95607E-06 2.53829E-20 3.73631E-19
 -1      2338 1.09184E-04-3.48351E-05-3.19066E-05-6.81181E-06-7.09800E-19-8.66935E-20
 -1      2339 1.07740E-04-3.36171E-05-3.17373E-05-7.58559E-06-4.33122E-19 1.95008E-19
 -1      2340 1.08183E-04-3.57613E-05-3.10918E-05-7.93530E-06-6.30642E-21 4.48779E-19
 -1      2341 1.06294E-04-3.25297E-05-3.16311E-05-7.83394E-06-7.46987E-19-2.92791E-19
 -1      2342 1.04998E-04-3.16286E-05-3.14268E-05-7.99233E-06-9.51881E-19-6.72164E-19
 -1      2343 1.04735E-04-3.26807E-05-3.09169E-05-9.06159E-06-1.18176E-18-2.95339E-19
 -1      2344 1.03985E-04-3.09405E-05-3.13055E-05-7.77851E-06-5.55625E-19-1.08239E-18
 -1      2345 1.02867E-04-3.03254E-05-3.10808E-05-7.56281E-06-1.16669E-19-1.31089E-18
 -1      2346 1.02282E-04-3.06004E-05-3.07426E-05-8.99162E-06-1.22395E-18-8.41438E-19
 -1      2347 1.02150E-04-2.99259E-05-3.09434E-05-7.11327E-06 1.72403E-19-1.81420E-18
 -1      2348 1.01203E-04-2.95225E-05-3.07168E-05-6.70835E-06-1.38578E-19-1.93597E-18
 -1      2349 1.00557E-04-2.93434E-05-3.05328E-05-8.25086E-06-5.01737E-19-7.86589E-19
 -1      2350 1.00677E-04-2.93072E-05-3.05724E-05-6.16829E-06-4.77094E-19-1.47899E-18
 -1      2351 9.98866E-05-2.90471E-05-3.03587E-05-5.69639E-06-2.31261E-19-1.32027E-18
 -1      2352 9.93157E-05-2.86522E-05-3.02923E-05-7.19818E-06 1.64373E-20-1.09994E-18
 -1      2353 9.94852E-05-2.89405E-05-3.02172E-05-5.15147E-06-3.31147E-19-6.83034E-19
 -1      2354 9.88342E-05-2.87735E-05-3.00259E-05-4.68456E-06-1.24891E-19-2.45656E-19
 -1      2355 9.83901E-05-2.83114E-05-3.00394E-05-6.05746E-06 4.67328E-19-4.11167E-19
 -1      2356 9.85190E-05-2.87273E-05-2.98949E-05-4.18069E-06 4.13354E-19 2.04943E-19
 -1      2357 9.79901E-05-2.86200E-05-2.97302E-05-3.75605E-06 1.50444E-18 1.14985E-18
 -1      2358 9.76764E-05-2.81720E-05-2.97922E-05-4.95771E-06 7.32052E-19 4.80172E-19
 -1      2359 9.77387E-05-2.86057E-05-2.96141E-05-3.31421E-06 1.37664E-18 5.09515E-19
 -1      2360 9.73156E-05-2.85370E-05-2.94767E-05-2.94745E-06 5.21837E-19 6.22530E-19
 -1      2361 9.71136E-05-2.81408E-05-2.95639E-05-3.96552E-06 1.18433E-18-7.40044E-20
 -1      2362 9.71144E-05-2.85386E-05-2.93773E-05-2.57382E-06 7.54847E-19 8.55010E-19
 -1      2363 9.67812E-05-2.84950E-05-2.92655E-05-2.26801E-06 8.25312E-19 1.98235E-18
 -1      2364 9.66657E-05-2.81634E-05-2.93620E-05-3.10845E-06 1.03708E-18 4.66841E-19
 -1      2365 9.66211E-05-2.85039E-05-2.91828E-05-1.96047E-06-1.11670E-19 2.34986E-18
 -1      2366 9.63631E-05-2.84770E-05-2.90939E-05-1.71203E-06-4.04468E-19 2.22469E-18
 -1      2367 9.63095E-05-2.82092E-05-2.91893E-05-2.39091E-06 4.26110E-19 1.95815E-18
 -1      2368 9.62370E-05-2.84885E-05-2.90267E-05-1.46426E-06-8.25060E-19 2.20866E-18
 -1      2369 9.60407E-05-2.84728E-05-2.89575E-05-1.26654E-06-3.10902E-19 2.39778E-18
 -1      2370 9.60283E-05-2.82622E-05-2.90457E-05-1.80458E-06-9.26031E-20 2.59718E-18
 -1      2371 9.59428E-05-2.84846E-05-2.89040E-05-1.07048E-06-1.13708E-18 1.89242E-18
 -1      2372 9.57962E-05-2.84763E-05-2.88511E-05-9.15785E-07-1.01444E-18 1.22711E-18
 -1      2373 9.58091E-05-2.83141E-05-2.89291E-05-1.33488E-06-1.32081E-18 1.75687E-18
 -1      2374 9.57213E-05-2.84872E-05-2.88094E-05-7.63070E-07 7.65616E-19 7.91152E-19
 -1      2375 9.56141E-05-2.84837E-05-2.87699E-05-6.43778E-07 1.83428E-18 5.50113E-19
 -1      2376 9.56407E-05-2.83609E-05-2.88364E-05-9.64974E-07-8.89893E-19 1.64014E-18
 -1      2377 9.55577E-05-2.84932E-05-2.87379E-05-5.26490E-07 1.75320E-18 6.53755E-19
 -1      2378 9.54812E-05-2.84927E-05-2.87090E-05-4.35649E-07 2.06841E-18 1.16222E-18
 -1      2379 9.55132E-05-2.84011E-05-2.87641E-05-6.78099E-07 1.92715E-18 1.43924E-18
 -1      2380 9.54392E-05-2.85006E-05-2.86850E-05-3.46775E-07 2.69071E-18 1.62595E-18
 -1      2381 9.53861E-05-2.85021E-05-2.86643E-05-2.78562E-07 2.43825E-18 1.97182E-18
 -1      2382 9.54180E-05-2.84345E-05-2.87087E-05-4.58727E-07 2.63332E-18 2.20071E-18
 -1      2383 9.53551E-05-2.85091E-05-2.86462E-05-2.12070E-07 2.55704E-20 1.52939E-18
 -1      2384 9.53199E-05-2.85116E-05-2.86316E-05-1.62240E-07-1.53939E-18 4.52676E-19
 -1      2385 9.53476E-05-2.84614E-05-2.86666E-05-2.93543E-07 8.70698E-19-2.05308E-19
 -1      2386 9.40421E-05-2.77342E-05-2.84048E-05-1.22922E-06 5.15056E-19 5.01179E-19
 -1      2387 9.39684E-05-2.76044E-05-2.84161E-05-8.38786E-07 7.44001E-19 7.85624E-19
 -1      2388 9.43142E-05-2.79487E-05-2.84307E-05-1.91382E-06 5.51133E-19-2.49032E-20
 -1      2389 9.40685E-05-2.78204E-05-2.83775E-05-1.63984E-06 4.84347E-19 2.86640E-19
 -1      2390 9.46546E-05-2.77457E-05-2.86893E-05-1.51086E-06 7.53328E-19-1.22231E-19
 -1      2391 9.48284E-05-2.81600E-05-2.85609E-05-2.43686E-06 6.27757E-19-7.28558E-20
 -1      2392 9.44544E-05-2.80250E-05-2.84614E-05-2.21890E-06 4.98220E-19-8.35596E-20
 -1      2393 9.48421E-05-2.79698E-05-2.86711E-05-2.30716E-06 6.32387E-19-4.89020E-19
 -1      2394 9.55409E-05-2.83860E-05-2.87694E-05-2.89003E-06 5.04680E-19 9.29794E-20
 -1      2395 9.50624E-05-2.82380E-05-2.86342E-05-2.69239E-06 5.15755E-19 9.53754E-20
 -1      2396 9.52256E-05-2.81542E-05-2.87543E-05-2.93306E-06 4.12705E-19-5.77664E-19
 -1      2397 9.64281E-05-2.86429E-05-2.90396E-05-3.32560E-06 2.10323E-19 3.53111E-19
 -1      2398 9.58563E-05-2.84745E-05-2.88750E-05-3.12952E-06 5.36485E-19 3.15968E-19
 -1      2399 9.57772E-05-2.83328E-05-2.89127E-05-3.48458E-06 2.47029E-19-1.91380E-19
 -1      2400 9.74810E-05-2.89503E-05-2.93597E-05-3.76294E-06 5.41300E-19 6.02165E-20
 -1      2401 9.68202E-05-2.87516E-05-2.91703E-05-3.56463E-06 3.58260E-19 3.60097E-19
 -1      2402 9.64829E-05-2.85343E-05-2.91279E-05-4.01523E-06 4.31632E-19-6.98049E-20
 -1      2403 9.86981E-05-2.93339E-05-2.97188E-05-4.18758E-06 9.31451E-19-2.98831E-19
 -1      2404 9.79512E-05-2.90922E-05-2.95093E-05-3.99957E-06 7.75117E-19-2.23709E-19
 -1      2405 9.73424E-05-2.87919E-05-2.93856E-05-4.54096E-06 9.44980E-19-3.63556E-19
 -1      2406 1.00078E-04-2.98260E-05-3.01034E-05-4.54529E-06 9.92312E-19-2.35051E-19
 -1      2407 9.92528E-05-2.95267E-05-2.98807E-05-4.39987E-06 1.01256E-18-2.65493E-19
 -1      2408 9.83667E-05-2.91479E-05-2.96721E-05-5.03816E-06 9.20833E-19-6.18105E-19
 -1      2409 1.01613E-04-3.04646E-05-3.04944E-05-4.73365E-06 2.59150E-19-3.33566E-19
 -1      2410 1.00728E-04-3.00928E-05-3.02696E-05-4.68705E-06 7.26078E-19-1.71211E-19
 -1      2411 9.95759E-05-2.96571E-05-2.99727E-05-5.43684E-06 7.32423E-19-4.88507E-19
 -1      2412 1.03277E-04-3.12848E-05-3.08662E-05-4.59550E-06-3.44048E-19-1.43719E-19
 -1      2413 1.02368E-04-3.08315E-05-3.06554E-05-4.72984E-06-7.65489E-20-3.47637E-19
 -1      2414 1.00996E-04-3.03847E-05-3.02702E-05-5.61165E-06-6.13768E-22-4.11946E-19
 -1      2415 1.05007E-04-3.22981E-05-3.11874E-05-3.92383E-06-2.08666E-19 3.71320E-19
 -1      2416 1.04144E-04-3.17732E-05-3.10116E-05-4.34107E-06-5.40409E-19 3.65026E-19
 -1      2417 1.02648E-04-3.13933E-05-3.05470E-05-5.37557E-06-4.89798E-19 6.84136E-20
 -1      2418 1.06683E-04-3.34504E-05-3.14272E-05-2.49506E-06 5.98118E-20 5.27049E-19
 -1      2419 1.05971E-04-3.29054E-05-3.13092E-05-3.29346E-06 1.73963E-19 6.47407E-19
 -1      2420 1.04529E-04-3.27080E-05-3.07898E-05-4.48758E-06-3.08184E-19 8.06912E-19
 -1      2421 1.08086E-04-3.45548E-05-3.15668E-05-1.57081E-07-2.47099E-19 1.11591E-18
 -1      2422 1.07679E-04-3.41144E-05-3.15249E-05-1.37785E-06-9.87587E-20 8.15506E-19
 -1      2423 1.06561E-04-3.42459E-05-3.09984E-05-2.69475E-06-2.09972E-19 1.08542E-18
 -1      2424 1.08875E-04-3.52272E-05-3.16157E-05 3.00592E-06-6.66304E-19 1.63533E-18
 -1      2425 1.08957E-04-3.51084E-05-3.16529E-05 1.46607E-06-4.35752E-19 1.64952E-18
 -1      2426 1.08514E-04-3.57132E-05-3.11971E-05 1.57757E-07-9.14938E-19 1.64715E-18
 -1      2427 1.08623E-04-3.49087E-05-3.16217E-05 6.45173E-06-1.34173E-18 1.29660E-18
 -1      2428 1.09347E-04-3.53784E-05-3.17183E-05 4.93445E-06-9.37411E-19 1.67310E-18
 -1      2429 1.09934E-04-3.65185E-05-3.14417E-05 3.91797E-06-9.46232E-19 2.49446E-18
 -1      2430 1.07019E-04-3.31239E-05-3.16548E-05 9.03208E-06-1.63746E-19 6.20002E-19
 -1      2431 1.08373E-04-3.43272E-05-3.17717E-05 8.13321E-06-8.89904E-19 9.50030E-19
 -1      2432 1.10173E-04-3.58684E-05-3.18046E-05 7.84303E-06-6.98926E-19 1.70104E-18
 -1      2433 1.04289E-04-3.00457E-05-3.17595E-05 9.23392E-06 8.63080E-19 4.08664E-19
 -1      2434 1.05938E-04-3.17259E-05-3.18560E-05 9.59515E-06 2.72965E-19 2.65293E-19
 -1      2435 1.08734E-04-3.32325E-05-3.23178E-05 1.04219E-05 3.12357E-19 1.06008E-18
 -1      2436 1.01489E-04-2.68623E-05-3.19140E-05 6.12645E-06 1.01366E-18 4.05917E-19
 -1      2437 1.02811E-04-2.83135E-05-3.19656E-05 7.97453E-06 1.15399E-18 7.25557E-19
 -1      2438 1.05958E-04-2.91658E-05-3.29047E-05 9.89334E-06 8.08589E-19 8.80846E-19
 -1      2439 1.00199E-04-2.53972E-05-3.20269E-05 3.82518E-07-3.92798E-19-1.23750E-19
 -1      2440 1.00545E-04-2.57797E-05-3.20361E-05 3.13691E-06 2.67609E-19-4.37066E-20
 -1      2441 1.03290E-04-2.55381E-05-3.33720E-05 5.39869E-06 1.11743E-18 9.85575E-19
 -1      2442 1.01305E-04-2.66258E-05-3.20262E-05-5.57833E-06-1.16143E-19-3.29208E-19
 -1      2443 1.00494E-04-2.57065E-05-3.19955E-05-3.08664E-06-5.49314E-19-3.23261E-19
 -1      2444 1.02555E-04-2.45527E-05-3.34988E-05-1.58742E-06-9.94073E-20-3.76685E-19
 -1      2445 1.04192E-04-2.97828E-05-3.19357E-05-9.16550E-06 3.81850E-19-4.71817E-19
 -1      2446 1.02633E-04-2.81249E-05-3.18596E-05-7.93558E-06 1.11729E-19-7.40155E-19
 -1      2447 1.04307E-04-2.68599E-05-3.32141E-05-7.84947E-06 1.25354E-19-1.39267E-18
 -1      2448 1.07210E-04-3.30098E-05-3.18418E-05-9.37681E-06 3.35910E-19 9.94668E-20
 -1      2449 1.05604E-04-3.14782E-05-3.17265E-05-9.59823E-06 6.22068E-19-3.57736E-19
 -1      2450 1.07291E-04-3.09921E-05-3.26727E-05-1.06827E-05 2.32587E-19-9.12246E-19
 -1      2451 1.09089E-04-3.49689E-05-3.17875E-05-7.00784E-06-1.29669E-19 1.66104E-19
 -1      2452 1.07958E-04-3.40867E-05-3.16658E-05-8.21218E-06 3.30465E-19 1.20570E-19
 -1      2453 1.09629E-04-3.46003E-05-3.21094E-05-9.71333E-06 3.11611E-19-1.40967E-18
 -1      2454 1.09477E-04-3.53961E-05-3.17538E-05-3.58643E-06 3.28209E-19 3.18140E-19
 -1      2455 1.09002E-04-3.52068E-05-3.16690E-05-5.11553E-06-2.34585E-19 2.27878E-19
 -1      2456 1.10350E-04-3.63712E-05-3.16744E-05-6.36614E-06 1.60357E-19-1.48740E-18
 -1      2457 1.08703E-04-3.47553E-05-3.16875E-05-3.65537E-07 9.27968E-19 1.02168E-19
 -1      2458 1.08807E-04-3.50318E-05-3.16715E-05-1.73509E-06 6.37756E-19 5.68735E-19
 -1      2459 1.09560E-04-3.62985E-05-3.13877E-05-2.42657E-06 4.10444E-19-1.62843E-18
 -1      2460 1.07268E-04-3.36366E-05-3.15494E-05 2.03199E-06 1.65484E-18 6.13244E-19
 -1      2461 1.07773E-04-3.41251E-05-3.16105E-05 1.04507E-06 1.48745E-18 1.13855E-18
 -1      2462 1.07891E-04-3.51213E-05-3.11913E-05 9.29275E-07 9.38676E-19-7.30349E-19
 -1      2463 1.05576E-04-3.24580E-05-3.13296E-05 3.48428E-06 2.05674E-18 4.75642E-19
 -1      2464 1.06304E-04-3.29838E-05-3.14563E-05 2.90795E-06 1.75413E-18 5.79357E-19
 -1      2465 1.05925E-04-3.35740E-05-3.10179E-05 3.24386E-06 1.62949E-18 1.09968E-18
 -1      2466 1.03874E-04-3.14274E-05-3.10433E-05 4.13467E-06 9.06995E-20 9.07008E-19
 -1      2467 1.04690E-04-3.19015E-05-3.12139E-05 3.89696E-06 1.67999E-18 1.22323E-18
 -1      2468 1.04018E-04-3.21180E-05-3.08251E-05 4.52747E-06 1.27272E-18 1.60828E-18
 -1      2469 1.02294E-04-3.06085E-05-3.07183E-05 4.21133E-06-1.31186E-18 1.04394E-18
 -1      2470 1.03106E-04-3.09997E-05-3.09097E-05 4.21082E-06-7.29173E-19 8.51816E-19
 -1      2471 1.02325E-04-3.09450E-05-3.06007E-05 4.99609E-06-2.70184E-19 3.11991E-18
 -1      2472 1.00893E-04-2.99917E-05-3.03829E-05 3.93097E-06-6.12932E-19 8.60976E-19
 -1      2473 1.01646E-04-3.02991E-05-3.05760E-05 4.07443E-06-1.10088E-18 6.67515E-19
 -1      2474 1.00884E-04-3.00825E-05-3.03515E-05 4.90800E-06-7.19388E-19 2.58907E-18
 -1      2475 9.96888E-05-2.95414E-05-3.00602E-05 3.46265E-06 1.16482E-19 6.32390E-19
 -1      2476 1.00355E-04-2.97759E-05-3.02415E-05 3.67867E-06-2.13400E-19 1.07330E-18
 -1      2477 9.96851E-05-2.94851E-05-3.00924E-05 4.48778E-06-9.17409E-20 5.11413E-19
 -1      2478 9.86785E-05-2.92190E-05-2.97657E-05 2.92342E-06-4.74314E-19 9.59098E-19
 -1      2479 9.92458E-05-2.93943E-05-2.99273E-05 3.16342E-06 2.03885E-19 8.63165E-19
 -1      2480 9.86995E-05-2.90885E-05-2.98391E-05 3.90363E-06-2.08909E-19 1.12901E-19
 -1      2481 9.78488E-05-2.89913E-05-2.95079E-05 2.38676E-06-7.44841E-19 6.65177E-19
 -1      2482 9.83179E-05-2.91202E-05-2.96464E-05 2.62092E-06-4.95307E-19 7.74892E-19
 -1      2483 9.78974E-05-2.88343E-05-2.96036E-05 3.26933E-06 3.07528E-19 1.55666E-18
 -1      2484 9.71806E-05-2.88325E-05-2.92899E-05 1.89401E-06-1.45546E-18 1.34133E-18
 -1      2485 9.75586E-05-2.89258E-05-2.94046E-05 2.10608E-06-1.14564E-18 8.12959E-19
 -1      2486 9.72514E-05-2.86770E-05-2.93936E-05 2.65501E-06-1.04339E-18 1.93236E-18
 -1      2487 9.66528E-05-2.87234E-05-2.91107E-05 1.46470E-06-3.96284E-19 1.22667E-18
 -1      2488 9.69503E-05-2.87897E-05-2.92031E-05 1.64752E-06-1.34184E-18 9.52997E-19
 -1      2489 9.67374E-05-2.85837E-05-2.92128E-05 2.09919E-06-1.51176E-18 1.27843E-18
 -1      2490 9.62438E-05-2.86499E-05-2.89672E-05 1.10454E-06 6.19565E-19 1.45265E-18
 -1      2491 9.64727E-05-2.86960E-05-2.90398E-05 1.25659E-06 5.56557E-19 1.59085E-18
 -1      2492 9.63339E-05-2.85318E-05-2.90616E-05 1.61907E-06 1.08199E-20 7.22855E-19
 -1      2493 9.59333E-05-2.86017E-05-2.88550E-05 8.11049E-07 2.73796E-19 1.33921E-18
 -1      2494 9.61052E-05-2.86329E-05-2.89106E-05 9.34046E-07 5.96684E-19 1.56151E-18
 -1      2495 9.60219E-05-2.85059E-05-2.89384E-05 1.21837E-06 7.94347E-19 1.41126E-18
 -1      2496 9.57025E-05-2.85712E-05-2.87693E-05 5.77394E-07 1.72036E-18 1.52848E-18
 -1      2497 9.58285E-05-2.85915E-05-2.88109E-05 6.74732E-07 1.01972E-18 1.93362E-18
 -1      2498 9.57845E-05-2.84960E-05-2.88405E-05 8.92932E-07 7.96523E-19 9.11781E-19
 -1      2499 9.55351E-05-2.85529E-05-2.87056E-05 3.94945E-07 6.86058E-19 1.95964E-18
 -1      2500 9.56247E-05-2.85655E-05-2.87358E-05 4.70653E-07 1.22358E-18 2.55462E-18
 -1      2501 9.56073E-05-2.84953E-05-2.87644E-05 6.34468E-07 6.58055E-19 2.03296E-18
 -1      2502 9.54171E-05-2.85431E-05-2.86594E-05 2.54176E-07-4.86726E-19 1.93488E-18
 -1      2503 9.54781E-05-2.85498E-05-2.86806E-05 3.12412E-07-5.99766E-19 2.11386E-18
 -1      2504 9.54767E-05-2.84990E-05-2.87065E-05 4.33594E-07-3.48231E-20 4.14452E-18
 -1      2505 9.53366E-05-2.85394E-05-2.86267E-05 1.47974E-07-5.29533E-20 2.25901E-18
 -1      2506 9.53765E-05-2.85421E-05-2.86411E-05 1.92074E-07-6.17064E-19 1.83272E-18
 -1      2507 9.53834E-05-2.85069E-05-2.86633E-05 2.78784E-07-6.06377E-19 2.80638E-18
 -1      2508 9.52832E-05-2.85404E-05-2.86036E-05 7.08143E-08 3.86911E-19 3.05631E-18
 -1      2509 9.53084E-05-2.85398E-05-2.86134E-05 1.03073E-07 6.82829E-19 3.51489E-18
 -1      2510 9.53190E-05-2.85170E-05-2.86312E-05 1.61825E-07-1.54076E-19 3.69141E-18
 -1      2511 9.52647E-05-2.85461E-05-2.85928E-05 3.73241E-08 7.86092E-19 3.11315E-18
 -1      2512 9.51296E-05-2.82792E-05-2.86513E-05 1.59347E-07 4.95190E-19-3.62652E-18
 -1      2513 9.51520E-05-2.83098E-05-2.86461E-05 1.67757E-07 1.69624E-19-3.91437E-18
 -1      2514 9.50888E-05-2.82203E-05-2.86591E-05 1.18210E-07 7.86239E-19-1.15530E-18
 -1      2515 9.51063E-05-2.82437E-05-2.86552E-05 1.39399E-07 1.85872E-19-2.60008E-18
 -1      2516 9.50940E-05-2.82122E-05-2.86628E-05 1.80770E-07 1.04704E-18-3.31704E-18
 -1      2517 9.52265E-05-2.84276E-05-2.86288E-05 1.52254E-07-2.33723E-19-7.28475E-19
 -1      2518 9.52466E-05-2.84587E-05-2.86224E-05 1.35412E-07 4.27786E-19-4.88321E-22
 -1      2519 9.51796E-05-2.83526E-05-2.86411E-05 1.70978E-07-1.16298E-18-2.53619E-18
 -1      2520 9.52021E-05-2.83848E-05-2.86351E-05 1.64472E-07-8.51252E-19-7.25310E-19
 -1      2521 9.52114E-05-2.83787E-05-2.86432E-05 1.96483E-07-3.94746E-19-1.66346E-18
 -1      2522 9.51535E-05-2.82921E-05-2.86543E-05 2.07395E-07 6.19297E-19-2.15207E-18
 -1      2523 9.50636E-05-2.81842E-05-2.86637E-05 5.52272E-08-3.90196E-19 1.02612E-18
 -1      2524 9.50731E-05-2.81968E-05-2.86616E-05 8.51267E-08 7.01618E-19-9.71761E-19
 -1      2525 9.50481E-05-2.81517E-05-2.86687E-05 1.22483E-07 1.00596E-18-9.47390E-19
 -1      2526 9.50582E-05-2.81760E-05-2.86646E-05-1.79851E-08-1.23452E-18 6.05393E-19
 -1      2527 9.50581E-05-2.81758E-05-2.86646E-05 1.49538E-08-1.26373E-18 2.33735E-18
 -1      2528 9.50231E-05-2.81191E-05-2.86718E-05 4.24023E-08 8.36396E-20 7.50818E-19
 -1      2529 9.50736E-05-2.81969E-05-2.86617E-05-8.79622E-08-1.52865E-18-1.60161E-18
 -1      2530 9.50638E-05-2.81840E-05-2.86638E-05-5.82284E-08-1.41485E-18-9.10074E-19
 -1      2531 9.50232E-05-2.81189E-05-2.86720E-05-4.53468E-08-1.12899E-18-4.25915E-19
 -1      2532 9.51065E-05-2.82430E-05-2.86556E-05-1.41043E-07 4.82991E-19-1.05345E-18
 -1      2533 9.50891E-05-2.82199E-05-2.86594E-05-1.20411E-07 5.88827E-20-1.79835E-18
 -1      2534 9.50483E-05-2.81507E-05-2.86692E-05-1.24744E-07-4.32756E-20-2.73669E-19
 -1      2535 9.51529E-05-2.83094E-05-2.86467E-05-1.68928E-07 8.00874E-19-1.71158E-19
 -1      2536 9.51302E-05-2.82786E-05-2.86519E-05-1.60860E-07 7.15822E-19-1.10049E-18
 -1      2537 9.50943E-05-2.82104E-05-2.86636E-05-1.82446E-07 1.35664E-18-1.17924E-18
 -1      2538 9.52040E-05-2.83862E-05-2.86355E-05-1.65212E-07-1.19265E-19 9.88682E-20
 -1      2539 9.51806E-05-2.83524E-05-2.86416E-05-1.71919E-07-1.19562E-19 1.52932E-18
 -1      2540 9.51539E-05-2.82905E-05-2.86552E-05-2.08206E-07 3.58584E-19-7.28175E-19
 -1      2541 9.52485E-05-2.84613E-05-2.86224E-05-1.32019E-07-7.70983E-19-9.88200E-19
 -1      2542 9.52297E-05-2.84298E-05-2.86291E-05-1.51160E-07 3.76014E-21-2.10155E-18
 -1      2543 9.52157E-05-2.83799E-05-2.86441E-05-1.97534E-07 2.47807E-19-5.52999E-19
 -1      2544 2.45304E-05-2.10009E-05-1.33295E-06 2.17655E-05-5.68359E-19 6.16704E-18
 -1      2545 1.92262E-05-1.86363E-05 5.85021E-08 8.75635E-06-3.53107E-19 6.72205E-18
 -1      2546 9.16022E-05-4.99085E-05-1.78419E-05 4.11737E-05-3.55330E-19 1.23053E-18
 -1      2547 6.88339E-05-4.26839E-05-1.10734E-05 4.17458E-05-1.96935E-20 2.14331E-18
 -1      2548 9.40803E-05-2.74834E-05-2.85255E-05-2.33759E-07 8.99989E-19 8.49820E-19
 -1      2549 9.42494E-05-2.73320E-05-2.86343E-05 3.77964E-07 9.69628E-19 1.01960E-18
 -1      2550 9.47017E-05-2.74252E-05-2.88488E-05-3.89791E-07 9.91386E-19 1.68304E-19
 -1      2551 9.52616E-05-2.85226E-05-2.86016E-05-6.28278E-08-1.23837E-19 1.67489E-18
 -1      2552 1.25416E-04-5.69377E-05-2.93927E-05 2.77811E-05 3.25261E-19-7.51742E-21
 -1      2553 1.12830E-04-5.61072E-05-2.41979E-05 3.27517E-05-7.66565E-20 1.03317E-18
 -1      2554 1.12532E-04-5.70239E-05-2.36324E-05-3.19821E-05 1.03550E-18-2.29101E-18
 -1      2555 1.29993E-04-5.80898E-05-3.10358E-05-2.51758E-05 3.05144E-19-2.52246E-18
 -1      2556 1.48897E-04-2.85891E-05-5.19967E-05-3.56341E-06 2.49155E-18-1.23095E-18
 -1      2557 1.46137E-04-3.74492E-05-4.67568E-05 3.57230E-07 1.94765E-18-1.34530E-18
 -1      2558 1.49326E-04-4.05864E-05-4.68383E-05 5.44810E-07-9.67312E-19-2.75349E-18
 -1      2559 1.53430E-04-3.32749E-05-5.18055E-05 3.35040E-06-1.46113E-18-2.08285E-18
 -1      2560 1.03445E-04-5.41422E-05-2.11106E-05-3.68570E-05-1.93759E-19-1.78999E-18
 -1      2561 1.21280E-04-5.64734E-05-2.79748E-05-3.07568E-05 6.45439E-19-3.99164E-19
 -1      2562 1.46792E-04-1.39033E-05-5.74305E-05-3.58270E-06 3.67422E-18 9.52912E-20
 -1      2563 1.46957E-04-1.85374E-05-5.53637E-05-4.87013E-06 3.30512E-18-6.59203E-19
 -1      2564 8.76850E-05-1.04356E-05-3.31428E-05-1.42848E-06 3.47055E-19-2.35150E-18
 -1      2565 8.78063E-05-1.05717E-05-3.31342E-05-2.49471E-06 1.15031E-19-2.35811E-18
 -1      2566 8.91637E-05-1.26759E-05-3.27808E-05-2.73640E-06 5.70959E-20-2.16102E-18
 -1      2567 8.88764E-05-1.23017E-05-3.28190E-05-8.76300E-07 3.83781E-19-2.22155E-18
 -1      2568 1.42823E-04-1.12267E-05-5.68849E-05 2.55042E-06 3.37754E-18 6.46816E-19
 -1      2569 1.44715E-04-1.06666E-05-5.78484E-05-4.90128E-07 3.63335E-18 6.20558E-19
 -1      2570 6.74463E-05-4.12132E-05-1.09521E-05-4.17979E-05-1.94691E-18-3.65135E-18
 -1      2571 8.69675E-05-4.90130E-05-1.62496E-05-4.33053E-05-9.78747E-19-3.42388E-18
 -1      2572 1.45044E-04-2.42065E-05-5.21714E-05 6.14038E-06 3.79259E-18 1.46939E-18
 -1      2573 1.43759E-04-1.79336E-05-5.45650E-05 5.97871E-06 3.77014E-18 1.60439E-18
 -1      2574 1.42987E-04-4.37335E-05-4.28250E-05-1.78468E-06 2.58038E-18 1.90307E-18
 -1      2575 1.47359E-04-3.45941E-05-4.87676E-05 2.49367E-06 3.47834E-18 1.81244E-18
 -1      2576 1.38812E-04-3.04151E-05-4.66282E-05 9.52934E-06 3.08161E-18 2.61712E-18
 -1      2577 1.32676E-04-5.57626E-05-3.29620E-05-1.88186E-05 6.79850E-19 2.23193E-19
 -1      2578 1.39617E-04-5.26850E-05-3.77310E-05-1.19738E-05 1.19305E-18 9.22419E-19
 -1      2579 3.02117E-05-2.46004E-05-2.27080E-06 2.62832E-05-8.47245E-19-4.32283E-18
 -1      2580 2.26340E-05-1.87167E-05-1.34725E-06 1.44635E-05-1.33365E-18-4.47445E-18
 -1      2581 3.56502E-05-2.48266E-05-4.25048E-06-2.94328E-05-1.82811E-18-4.52506E-18
 -1      2582 4.73963E-05-3.03418E-05-7.12083E-06-3.80835E-05-1.47574E-18-4.16084E-18
 -1      2583 1.50672E-04-3.20840E-05-5.13583E-05-5.77814E-06-3.74050E-18-1.32582E-18
 -1      2584 1.49958E-04-3.98260E-05-4.74110E-05-1.48840E-06-3.58454E-18-1.11914E-18
 -1      2585 2.02821E-05-1.62717E-05-1.30992E-06-2.85863E-06-1.40653E-18-4.80564E-18
 -1      2586 2.47355E-05-1.91715E-05-2.09337E-06-1.89061E-05-1.72572E-18-4.96764E-18
 -1      2587 5.81221E-05-3.79354E-05-8.62305E-06 4.05640E-05-7.74612E-19-4.00075E-18
 -1      2588 4.19735E-05-3.15684E-05-4.40776E-06 3.37349E-05-6.53274E-19-3.80741E-18
 -1      2589 4.34360E-05-2.63814E-05-6.80557E-06 3.05444E-05-9.31736E-21-3.83346E-18
 -1      2590 1.31460E-04-5.80780E-05-3.16522E-05 2.40418E-05-3.14122E-18-2.43098E-19
 -1      2591 1.19837E-04-5.80789E-05-2.63894E-05 2.86973E-05-2.28360E-18-1.38236E-18
 -1      2592 7.10111E-05-4.41169E-05-1.13393E-05-4.05717E-05 6.65556E-19-2.13759E-18
 -1      2593 9.03298E-05-5.07906E-05-1.71614E-05-4.16052E-05 1.09415E-18-3.07092E-18
 -1      2594 1.48670E-04-4.83361E-05-4.32858E-05 6.63845E-06-3.51269E-18-1.45901E-19
 -1      2595 1.39483E-04-5.39626E-05-3.68583E-05 1.35126E-05-3.33567E-18-1.27478E-19
 -1      2596 1.45719E-04-4.60581E-05-4.27081E-05-3.97815E-06-2.83370E-18 5.50571E-20
 -1      2597 1.48662E-04-1.65071E-05-5.70564E-05-5.15972E-06-2.93073E-18-1.91017E-18
 -1      2598 1.47997E-04-2.17040E-05-5.45206E-05-7.29488E-06-3.44107E-18-1.61783E-18
 -1      2599 1.49890E-04-1.32750E-05-5.87946E-05 1.88103E-06-3.17214E-18-2.63210E-18
 -1      2600 1.47893E-04-1.26009E-05-5.84644E-05-1.17388E-06-3.00400E-18-2.26370E-18
 -1      2601 1.52308E-04-2.34533E-05-5.54326E-05 4.99744E-06-2.92502E-18-2.84857E-18
 -1      2602 1.52642E-04-1.75235E-05-5.82456E-05 4.64245E-06-3.52366E-18-2.84508E-18
 -1      2603 1.39467E-04-5.46396E-05-3.64511E-05-1.33486E-05-5.77253E-19-3.72843E-18
 -1      2604 1.46974E-04-5.03241E-05-4.17837E-05-7.21405E-06-7.33107E-19-3.75130E-18
 -1      2605 3.88936E-05-2.95043E-05-3.75273E-06-3.16359E-05 8.90232E-19-2.79309E-19
 -1      2606 5.24546E-05-3.53508E-05-7.31617E-06-3.92770E-05 7.31413E-19-1.49713E-18
 -1      2607 9.51240E-05-2.00064E-05-3.22404E-05-1.14636E-05-1.79878E-18-5.31010E-19
 -1      2608 9.55502E-05-2.33261E-05-3.09738E-05-7.63322E-06-1.60809E-18-3.29771E-19
 -1      2609 9.51502E-05-2.24990E-05-3.11245E-05-7.21634E-06-1.49211E-18-6.91316E-19
 -1      2610 9.33143E-05-1.76818E-05-3.24430E-05-1.09724E-05-1.68919E-18-9.68529E-19
 -1      2611 9.63813E-05-2.50859E-05-3.05787E-05 7.32691E-06 1.83039E-18 1.95954E-18
 -1      2612 9.74559E-05-2.37694E-05-3.16005E-05 1.04419E-05 1.97523E-18 2.24265E-18
 -1      2613 9.59206E-05-2.13001E-05-3.20361E-05 1.16156E-05 2.16860E-18 1.46428E-18
 -1      2614 9.59661E-05-2.41387E-05-3.08171E-05 7.34261E-06 1.89944E-18 9.75316E-19
 -1      2615 5.00824E-05-3.36325E-05-6.99543E-06 4.00353E-05-4.10599E-19 4.28959E-18
 -1      2616 3.62505E-05-2.75857E-05-3.49244E-06 3.15509E-05-1.48294E-18 5.43774E-18
 -1      2617 1.34935E-04-1.02847E-05-5.36488E-05-3.30063E-06 3.13741E-18-4.54751E-19
 -1      2618 9.07665E-05-1.48031E-05-3.25509E-05-6.43292E-06-6.74181E-19-1.89281E-18
 -1      2619 8.97217E-05-1.30194E-05-3.29256E-05-7.62540E-06-8.19432E-19-2.01941E-18
 -1      2620 9.04040E-05-1.38360E-05-3.28744E-05-8.78617E-06-1.12826E-18-1.85822E-18
 -1      2621 9.50105E-05-2.68826E-05-2.92121E-05 1.29731E-06 1.29499E-18 3.52503E-19
 -1      2622 9.43099E-05-1.90699E-05-3.22905E-05 1.12974E-05 2.20080E-18 5.29422E-19
 -1      2623 6.70488E-05-3.78472E-05-1.20001E-05 4.02520E-05-8.32422E-19 2.93476E-18
 -1      2624 9.12021E-05-1.49212E-05-3.27463E-05-9.46659E-06-1.30000E-18-1.62771E-18
 -1      2625 9.22354E-05-1.62222E-05-3.26538E-05-1.05023E-05-1.57260E-18-1.27193E-18
 -1      2626 9.37177E-05-1.91288E-05-3.19603E-05-8.81044E-06-1.52694E-18-1.05015E-18
 -1      2627 9.21036E-05-1.66668E-05-3.23200E-05-7.90808E-06-1.12399E-18-1.52616E-18
 -1      2628 1.40487E-04-1.37379E-05-5.44718E-05 5.39601E-06-3.28564E-18-3.11814E-18
 -1      2629 1.32715E-04-5.73845E-05-3.22789E-05 1.61607E-05 5.24949E-19-1.15154E-18
 -1      2630 6.87740E-05-3.96761E-05-1.19844E-05-3.94104E-05 1.58607E-18-2.60494E-18
 -1      2631 7.35181E-05-4.36557E-05-1.24531E-05 4.07592E-05-2.65121E-19-4.39578E-18
 -1      2632 6.78518E-05-3.78930E-05-1.24328E-05 3.91755E-05 5.81806E-19-4.02002E-18
 -1      2633 8.76691E-05-4.88760E-05-1.68387E-05 3.94829E-05 1.64536E-19-3.44340E-18
 -1      2634 1.14569E-04-5.66790E-05-2.48060E-05 2.85543E-05-1.11501E-18-5.02211E-19
 -1      2635 1.04942E-04-5.45699E-05-2.14430E-05 3.62532E-05-5.17961E-19 1.38860E-18
 -1      2636 9.56812E-05-4.96698E-05-1.92196E-05 3.75448E-05-5.04408E-19 6.57192E-19
 -1      2637 2.56016E-05-1.56847E-05-3.67625E-06 5.37362E-06-1.05622E-18-4.56487E-18
 -1      2638 2.98387E-05-1.26154E-05-6.98572E-06-2.92785E-06-8.00903E-19-4.19980E-18
 -1      2639 3.19377E-05-1.48748E-05-6.92551E-06 1.36063E-05-1.05244E-19-3.94230E-18
 -1      2640 9.52721E-05-2.85252E-05-2.86059E-05 7.78060E-08 7.88296E-20 4.51803E-18
 -1      2641 9.52695E-05-2.85058E-05-2.86131E-05 1.00987E-07 4.42931E-20 2.81530E-18
 -1      2642 1.42295E-04-2.70416E-05-4.95661E-05-1.11056E-05-3.25790E-18-9.00396E-19
 -1      2643 2.34749E-05-1.60855E-05-2.66868E-06 1.03481E-06 1.04574E-18 5.22746E-18
 -1      2644 3.77015E-05-2.19890E-05-6.18440E-06 2.69606E-05-6.08593E-19 5.45997E-18
 -1      2645 3.66254E-05-1.95995E-05-6.65622E-06-2.32330E-05-1.87692E-18-4.97039E-18
 -1      2646 9.47853E-05-2.05547E-05-3.17691E-05 9.31762E-06 2.04558E-18 2.54130E-19
 -1      2647 1.07237E-04-5.56713E-05-2.18075E-05-3.38573E-05 1.73705E-18-2.59330E-18
 -1      2648 1.14014E-04-5.79097E-05-2.37764E-05 3.21813E-05-1.51682E-18-1.29448E-18
 -1      2649 3.61222E-05-2.39310E-05-4.79028E-06-2.71364E-05 1.93515E-18 8.42374E-19
 -1      2650 1.35953E-04-5.90477E-05-3.28499E-05-1.38552E-05 3.86247E-19-3.79280E-18
 -1      2651 1.45418E-04-2.76586E-05-5.05717E-05 1.00565E-05-1.92128E-18-2.82485E-18
 -1      2652 1.42352E-04-4.41811E-05-4.21516E-05-1.34238E-06 1.13481E-18-1.74955E-18
 -1      2653 1.40048E-04-4.95653E-05-3.88015E-05-1.26825E-06 1.47347E-18 2.21753E-18
 -1      2654 1.27671E-04-5.84714E-05-2.95405E-05-2.17465E-05-1.07573E-19 7.90070E-19
 -1      2655 1.01802E-04-5.36573E-05-2.03303E-05-3.71090E-05-1.13418E-18-1.95366E-18
 -1      2656 1.45727E-04-4.66903E-05-4.25043E-05 3.38271E-06-1.94235E-19-3.72716E-18
 -1      2657 1.40027E-04-2.34409E-05-5.01289E-05-9.01237E-06 2.19403E-18-1.57802E-18
 -1      2658 6.56654E-05-3.64134E-05-1.20371E-05-3.90384E-05-2.28148E-18-3.38803E-18
 -1      2659 1.34077E-04-1.34507E-05-5.19887E-05 6.98547E-06 3.25663E-18 3.60201E-19
 -1      2660 1.38097E-04-5.85207E-05-3.40848E-05 1.18834E-05-2.00784E-18 1.20448E-18
 -1      2661 1.37828E-04-1.31064E-05-5.36939E-05-4.86704E-06-2.84264E-18-1.40983E-18
 -1      2662 9.52833E-05-2.85214E-05-2.86115E-05-9.36842E-08-8.93149E-19 1.47905E-18
 -1      2663 9.52669E-05-2.84933E-05-2.86180E-05-1.14982E-07-7.27512E-19 6.18673E-19
 -1      2664 9.52694E-05-2.84567E-05-2.86333E-05-1.66885E-07-1.51264E-18 5.24398E-19
 -1      2665 9.53044E-05-2.85166E-05-2.86217E-05-1.26949E-07-1.49271E-18 8.29446E-19
 -1      2666 9.52735E-05-2.84729E-05-2.86279E-05 1.50713E-07 3.26210E-20 2.15165E-18
 -1      2667 9.53040E-05-2.84837E-05-2.86386E-05-1.86110E-07-1.06117E-18 1.60735E-19
 -1      2668 9.03222E-05-1.46840E-05-3.24382E-05 2.93492E-06 1.09583E-18-1.79481E-18
 -1      2669 9.00996E-05-1.43826E-05-3.24715E-05 2.06237E-06 9.13101E-19-1.92084E-18
 -1      2670 8.99394E-05-1.41510E-05-3.25007E-05 1.30425E-06 7.66862E-19-1.99836E-18
 -1      2671 8.98622E-05-1.40472E-05-3.25121E-05 4.18276E-07 5.81247E-19-1.99742E-18
 -1      2672 9.10661E-05-1.59579E-05-3.21744E-05 1.46099E-06 8.62300E-19-1.80782E-18
 -1      2673 9.21000E-05-1.72744E-05-3.21047E-05 6.03671E-06 1.71466E-18-1.12282E-18
 -1      2674 9.15265E-05-1.64288E-05-3.22087E-05 5.22268E-06 1.54274E-18-1.27713E-18
 -1      2675 9.36104E-05-1.96189E-05-3.17521E-05 7.14891E-06 1.89830E-18-6.33268E-19
 -1      2676 9.27829E-05-1.83149E-05-3.19334E-05 6.56860E-06 1.77010E-18-8.42718E-19
 -1      2677 9.33952E-05-1.95674E-05-3.16171E-05 5.23379E-06 1.60928E-18-8.50762E-19
 -1      2678 9.53839E-05-2.53075E-05-3.00421E-05 3.45717E-06 1.55580E-18 1.71603E-20
 -1      2679 9.56727E-05-2.44731E-05-3.04817E-05 5.15556E-06 1.66389E-18 1.83413E-19
 -1      2680 9.90297E-05-5.15235E-05-1.98508E-05-3.49498E-05 2.09598E-18-3.02965E-18
 -1      2681 1.17154E-04-5.85574E-05-2.54906E-05-2.76739E-05 2.04008E-18-2.73926E-18
 -1      2682 1.39686E-04-4.25048E-05-4.23459E-05-1.02056E-05-1.42667E-18 1.07976E-18
 -1      2683 1.40506E-04-5.02312E-05-3.88777E-05-4.75699E-06-1.48347E-18 1.48273E-18
 -1      2684 9.48026E-05-2.18414E-05-3.12744E-05 7.44844E-06 1.89277E-18 5.96430E-20
 -1      2685 9.55102E-05-2.56828E-05-2.98969E-05-1.99283E-06-8.84748E-19-5.82660E-19
 -1      2686 9.53962E-05-2.62380E-05-2.96474E-05-8.97789E-07-6.81744E-19-5.36850E-19
 -1      2687 9.54284E-05-2.67005E-05-2.94332E-05-1.83376E-08-6.45622E-19-4.65794E-19
 -1      2688 9.53657E-05-2.70177E-05-2.92936E-05 7.40274E-07-6.03716E-19-4.65020E-19
 -1      2689 9.55041E-05-2.59322E-05-2.98232E-05-6.65923E-07-6.99144E-19-5.96851E-19
 -1      2690 9.53444E-05-2.72614E-05-2.91646E-05 1.38974E-06-5.85653E-19-5.48712E-19
 -1      2691 9.53605E-05-2.74446E-05-2.91040E-05 1.94141E-06-4.80206E-19-6.10360E-19
 -1      2692 9.55242E-05-2.67882E-05-2.94666E-05 9.42984E-07-6.20013E-19-7.22678E-19
 -1      2693 9.53322E-05-2.75565E-05-2.90393E-05 2.44539E-06-3.52481E-19-6.73432E-19
 -1      2694 9.54246E-05-2.76583E-05-2.90367E-05 2.88416E-06-4.11534E-19-7.76103E-19
 -1      2695 9.54874E-05-2.72375E-05-2.92575E-05 2.16107E-06-5.21871E-19-8.81499E-19
 -1      2696 9.54043E-05-2.76850E-05-2.90199E-05 3.31297E-06-3.91253E-19-6.06336E-19
 -1      2697 9.55642E-05-2.77359E-05-2.90610E-05 3.70583E-06-2.87428E-19-6.18925E-19
 -1      2698 9.54502E-05-2.74256E-05-2.91595E-05 3.14438E-06-3.28280E-19-6.64726E-19
 -1      2699 9.55555E-05-2.77061E-05-2.90792E-05 4.11369E-06-2.32515E-19-6.41599E-19
 -1      2700 9.57765E-05-2.77280E-05-2.91535E-05 4.50718E-06-3.03662E-19-5.64827E-19
 -1      2701 9.54302E-05-2.74391E-05-2.91435E-05 4.02054E-06-3.13099E-19-5.68155E-19
 -1      2702 9.57801E-05-2.76639E-05-2.91962E-05 4.93340E-06-4.64254E-19-3.67467E-19
 -1      2703 9.60609E-05-2.76781E-05-2.92952E-05 5.35728E-06-5.49409E-19-2.17104E-19
 -1      2704 9.54316E-05-2.73391E-05-2.91855E-05 4.88561E-06-2.31952E-19-1.08235E-19
 -1      2705 9.60804E-05-2.76040E-05-2.93522E-05 5.82759E-06-5.40272E-19 1.22018E-19
 -1      2706 9.64273E-05-2.76379E-05-2.94683E-05 6.29518E-06-1.81940E-19 1.13842E-19
 -1      2707 9.54591E-05-2.71813E-05-2.92638E-05 5.80684E-06-2.88677E-19-2.52166E-20
 -1      2708 9.64758E-05-2.75878E-05-2.95292E-05 6.82143E-06 6.55817E-20 1.96724E-19
 -1      2709 9.69059E-05-2.76825E-05-2.96535E-05 7.32681E-06 2.15888E-19-5.59996E-21
 -1      2710 9.55288E-05-2.70333E-05-2.93567E-05 6.82407E-06-1.49978E-19 2.89297E-19
 -1      2711 9.70151E-05-2.77100E-05-2.97067E-05 7.90469E-06 2.00735E-19-8.46235E-20
 -1      2712 9.75634E-05-2.79301E-05-2.98291E-05 8.41670E-06 4.39872E-20-1.46694E-19
 -1      2713 9.56837E-05-2.69943E-05-2.94407E-05 7.94839E-06 7.92675E-20-1.67547E-19
 -1      2714 9.77984E-05-2.81210E-05-2.98621E-05 9.02050E-06-2.14407E-19 8.55766E-20
 -1      2715 9.85277E-05-2.85646E-05-2.99712E-05 9.47280E-06-3.84808E-19 4.47841E-20
 -1      2716 9.60162E-05-2.72194E-05-2.94904E-05 9.15721E-06-9.64580E-21 1.95290E-19
 -1      2717 9.90084E-05-2.90496E-05-2.99739E-05 1.00446E-05-1.74351E-20 4.35418E-19
 -1      2718 1.00020E-04-2.98551E-05-3.00607E-05 1.03217E-05 1.97422E-19 8.04786E-19
 -1      2719 9.67038E-05-2.79476E-05-2.94817E-05 1.03825E-05 4.41681E-20 3.94576E-19
 -1      2720 1.00946E-04-3.08131E-05-3.00325E-05 1.07490E-05-1.87666E-20 1.06659E-18
 -1      2721 1.02381E-04-3.21423E-05-3.00994E-05 1.06686E-05 1.46246E-19 1.04065E-18
 -1      2722 9.80554E-05-2.95235E-05-2.94027E-05 1.14843E-05 8.74917E-20 8.74211E-19
 -1      2723 1.04039E-04-3.37689E-05-3.00656E-05 1.07415E-05 1.59948E-19 9.73227E-19
 -1      2724 1.06037E-04-3.57327E-05-3.01432E-05 1.00418E-05 2.73411E-19 1.02297E-18
 -1      2725 1.00552E-04-3.23783E-05-2.92779E-05 1.21905E-05 1.20832E-19 1.06272E-18
 -1      2726 1.08751E-04-3.81227E-05-3.01840E-05 9.38195E-06 5.43671E-19 1.03253E-18
 -1      2727 1.11307E-04-4.05694E-05-3.03549E-05 7.72578E-06 4.46006E-19 1.16963E-18
 -1      2728 1.04819E-04-3.68849E-05-2.92154E-05 1.19760E-05 3.79485E-19 1.00021E-18
 -1      2729 1.15282E-04-4.34984E-05-3.06478E-05 5.73632E-06 1.46960E-19 1.08763E-18
 -1      2730 1.18009E-04-4.55639E-05-3.10963E-05 2.76608E-06-2.94278E-19 1.18863E-18
 -1      2731 1.11416E-04-4.29862E-05-2.94810E-05 9.93926E-06 3.02232E-19 6.34616E-19
 -1      2732 1.22487E-04-4.76865E-05-3.20114E-05-9.82428E-07-2.83617E-19 1.76920E-18
 -1      2733 1.24211E-04-4.77944E-05-3.27870E-05-4.74508E-06-8.14574E-20 1.55519E-18
 -1      2734 1.19980E-04-4.85189E-05-3.06586E-05 4.36480E-06 1.78962E-19 1.71034E-18
 -1      2735 1.29354E-04-4.60519E-05-3.58392E-05-1.06256E-05-8.57522E-20 1.72768E-18
 -1      2736 1.29002E-04-4.10503E-05-3.79717E-05-1.42499E-05-4.54116E-19 2.16033E-18
 -1      2737 1.27368E-04-3.43212E-05-4.01067E-05-1.43759E-05-5.87311E-19 1.84410E-18
 -1      2738 1.19714E-04-2.08735E-05-4.28447E-05-1.11382E-05-1.14387E-18 5.19714E-19
 -1      2739 1.17985E-04-1.67824E-05-4.37700E-05-5.35110E-06-1.27415E-18 2.87277E-19
 -1      2740 1.18262E-04-1.59379E-05-4.42060E-05 3.10689E-06-1.91419E-18-2.88971E-19
 -1      2741 1.19743E-04-1.94318E-05-4.35080E-05 9.48077E-06-2.06973E-18-4.24403E-19
 -1      2742 1.21489E-04-2.58310E-05-4.11329E-05 1.44215E-05-1.46701E-18-7.28342E-19
 -1      2743 1.24417E-04-3.33412E-05-3.95342E-05 1.62324E-05-7.04864E-19-6.05840E-19
 -1      2744 1.26697E-04-4.02820E-05-3.71261E-05 1.42700E-05-6.36228E-19-3.68327E-19
 -1      2745 1.27742E-04-4.54825E-05-3.54388E-05 1.15209E-05 3.22270E-21-1.16607E-18
 -1      2746 1.25005E-04-4.72942E-05-3.34019E-05 6.40078E-06 5.73749E-19-1.13629E-18
 -1      2747 1.23529E-04-4.78808E-05-3.23755E-05 2.54919E-06 5.40040E-19-1.00262E-18
 -1      2748 1.29248E-04-4.93737E-05-3.43223E-05 6.35109E-06 2.26303E-19-1.90359E-18
 -1      2749 1.19083E-04-4.61242E-05-3.13415E-05-1.56766E-06 6.17560E-19-5.99633E-19
 -1      2750 1.16477E-04-4.42407E-05-3.08421E-05-4.63953E-06 5.05019E-19-5.36394E-19
 -1      2751 1.21471E-04-4.92203E-05-3.10549E-05-3.00491E-06 6.50885E-19-1.28397E-18
 -1      2752 1.12367E-04-4.13564E-05-3.04805E-05-6.91113E-06 5.17577E-19-6.76849E-20
 -1      2753 1.09756E-04-3.88640E-05-3.02890E-05-8.71739E-06 6.62355E-19 8.05709E-19
 -1      2754 1.12720E-04-4.39000E-05-2.96423E-05-9.09569E-06 8.60308E-19-6.11664E-19
 -1      2755 1.06849E-04-3.63506E-05-3.02287E-05-9.49600E-06-4.26660E-21 8.88807E-19
 -1      2756 1.04779E-04-3.42925E-05-3.01519E-05-1.02889E-05-6.98700E-19 3.21648E-19
 -1      2757 1.05741E-04-3.76593E-05-2.92875E-05-1.14943E-05 2.22594E-19-6.36929E-20
 -1      2758 1.02971E-04-3.25312E-05-3.01875E-05-1.02627E-05-1.41560E-18-5.20669E-20
 -1      2759 1.01478E-04-3.10979E-05-3.01330E-05-1.03740E-05-1.09860E-18-2.88909E-19
 -1      2760 1.01132E-04-3.28512E-05-2.93294E-05-1.18544E-05-1.09328E-18-1.16980E-19
 -1      2761 1.00460E-04-3.00333E-05-3.01734E-05-9.93096E-06-8.52668E-19 1.72913E-19
 -1      2762 9.94200E-05-2.91518E-05-3.01029E-05-9.64056E-06-9.14303E-19 2.94461E-19
 -1      2763 9.83972E-05-2.97165E-05-2.94692E-05-1.11498E-05-3.56916E-19 2.51018E-19
 -1      2764 9.88870E-05-2.85933E-05-3.01138E-05-9.02099E-06-1.05822E-18 1.23230E-18
 -1      2765 9.81561E-05-2.81025E-05-3.00211E-05-8.52440E-06-5.44076E-19 7.63712E-19
 -1      2766 9.69068E-05-2.79394E-05-2.95737E-05-9.97085E-06-7.70647E-19 1.35042E-18
 -1      2767 9.78941E-05-2.78658E-05-2.99992E-05-7.85423E-06-1.34373E-19 1.19662E-18
 -1      2768 9.73626E-05-2.76230E-05-2.98914E-05-7.27909E-06-1.20773E-19 1.24034E-18
 -1      2769 9.61443E-05-2.70793E-05-2.96058E-05-8.62470E-06-8.50327E-19 1.93998E-18
 -1      2770 9.72395E-05-2.75714E-05-2.98449E-05-6.62667E-06 2.24633E-19 9.21450E-19
 -1      2771 9.68377E-05-2.74743E-05-2.97322E-05-6.05053E-06 8.79050E-19 1.62250E-18
 -1      2772 9.57743E-05-2.67785E-05-2.95716E-05-7.27310E-06-2.42295E-19 2.33809E-18
 -1      2773 9.67799E-05-2.75185E-05-2.96713E-05-5.45187E-06 2.87661E-19 7.97643E-19
 -1      2774 9.64665E-05-2.75010E-05-2.95620E-05-4.91802E-06 7.21058E-19 1.87041E-20
 -1      2775 9.55996E-05-2.67884E-05-2.94908E-05-6.00360E-06-2.13232E-20 1.50516E-18
 -1      2776 9.64366E-05-2.75874E-05-2.94957E-05-4.39007E-06 9.99052E-19 2.70293E-19
 -1      2777 9.61879E-05-2.76101E-05-2.93954E-05-3.91935E-06 1.21817E-18-1.29233E-19
 -1      2778 9.55140E-05-2.69518E-05-2.93838E-05-4.86176E-06 5.24516E-19-1.69532E-19
 -1      2779 9.61683E-05-2.77090E-05-2.93299E-05-3.46748E-06 1.35749E-18-9.04710E-19
 -1      2780 9.59700E-05-2.77492E-05-2.92417E-05-3.06674E-06 8.10380E-19-6.39149E-20
 -1      2781 9.54655E-05-2.71764E-05-2.92669E-05-3.86731E-06 1.11254E-18-6.25874E-19
 -1      2782 9.59537E-05-2.78450E-05-2.91810E-05-2.68921E-06 5.94455E-19 2.64161E-19
 -1      2783 9.57962E-05-2.78904E-05-2.91059E-05-2.35706E-06 8.06918E-19 6.25257E-19
 -1      2784 9.54305E-05-2.74114E-05-2.91514E-05-3.02347E-06 6.08431E-19-2.65694E-19
 -1      2785 9.57809E-05-2.79761E-05-2.90521E-05-2.04805E-06 3.97417E-19-3.44752E-19
 -1      2786 9.56571E-05-2.80203E-05-2.89899E-05-1.77863E-06-2.55851E-19-3.37482E-19
 -1      2787 9.54001E-05-2.76311E-05-2.90445E-05-2.32304E-06 1.26137E-19-1.85512E-18
 -1      2788 9.56424E-05-2.80933E-05-2.89438E-05-1.53021E-06-9.60102E-19-4.60983E-19
 -1      2789 9.55463E-05-2.81332E-05-2.88935E-05-1.31565E-06-1.45890E-18-6.44919E-19
 -1      2790 9.53717E-05-2.78241E-05-2.89498E-05-1.75273E-06-4.80797E-19-2.83820E-18
 -1      2791 9.55326E-05-2.81933E-05-2.88550E-05-1.11920E-06-1.52655E-18 4.42513E-19
 -1      2792 9.54592E-05-2.82277E-05-2.88151E-05-9.51081E-07 3.39524E-19 1.49670E-18
 -1      2793 9.53450E-05-2.79869E-05-2.88686E-05-1.29635E-06-4.30521E-19-1.74375E-18
 -1      2794 9.54465E-05-2.82759E-05-2.87837E-05-7.98147E-07 2.00937E-18 7.33181E-19
 -1      2795 9.53911E-05-2.83045E-05-2.87526E-05-6.68423E-07 2.10126E-18 8.52972E-19
 -1      2796 9.53204E-05-2.81202E-05-2.88009E-05-9.37028E-07 1.03368E-18 3.43298E-19
 -1      2797 9.53794E-05-2.83421E-05-2.87274E-05-5.51142E-07 2.37688E-18 1.50982E-19
 -1      2798 9.53384E-05-2.83656E-05-2.87035E-05-4.52344E-07 1.81216E-18 5.70936E-20
 -1      2799 9.52978E-05-2.82267E-05-2.87455E-05-6.58639E-07 1.42817E-18-1.30090E-18
 -1      2800 9.53277E-05-2.83949E-05-2.86833E-05-3.64359E-07 8.09161E-19 1.23842E-19
 -1      2801 9.52977E-05-2.84130E-05-2.86651E-05-2.90962E-07 5.25601E-19-9.25811E-19
 -1      2802 9.52772E-05-2.83111E-05-2.87007E-05-4.45990E-07 1.08155E-18-1.06156E-18
 -1      2803 9.52440E-05-2.78779E-05-2.88645E-05-2.55444E-06 6.32840E-19-4.19781E-19
 -1      2804 9.51045E-05-2.77518E-05-2.88553E-05-2.17613E-06 7.71424E-19-2.79414E-19
 -1      2805 9.52526E-05-2.83997E-05-2.86515E-05 2.40937E-07-3.96972E-19-4.38923E-19
 -1      2806 9.52863E-05-2.84527E-05-2.86422E-05 2.07308E-07-4.92823E-19 1.80808E-18
 -1      2807 9.53130E-05-2.84426E-05-2.86567E-05 2.61787E-07-8.86280E-19 1.41980E-18
 -1      2808 9.51028E-05-2.76305E-05-2.89121E-05-1.70344E-06 8.27899E-19-2.27064E-19
 -1      2809 9.50713E-05-2.74520E-05-2.89622E-05-1.19741E-06 8.96794E-19-1.53183E-19
 -1      2810 9.53767E-05-2.74991E-05-2.91006E-05-1.94199E-06 8.47255E-19-4.17063E-19
 -1      2811 9.59292E-05-2.81824E-05-2.90253E-05-3.86965E-06 2.07335E-20-1.45170E-19
 -1      2812 9.56182E-05-2.80859E-05-2.89404E-05-3.58084E-06 1.48797E-19-2.30961E-19
 -1      2813 9.64640E-05-2.83314E-05-2.91903E-05-4.47408E-06 5.87933E-19-2.24252E-19
 -1      2814 9.60762E-05-2.82192E-05-2.90813E-05-4.19150E-06 2.61292E-19-1.14173E-19
 -1      2815 9.58428E-05-2.79753E-05-2.90921E-05-4.31101E-06 2.69111E-19-1.63361E-19
 -1      2816 9.71380E-05-2.85418E-05-2.93895E-05-5.07339E-06 1.16547E-18-4.26136E-19
 -1      2817 9.66707E-05-2.83896E-05-2.92636E-05-4.79712E-06 9.67633E-19-1.80109E-19
 -1      2818 9.61998E-05-2.80765E-05-2.92015E-05-4.99202E-06 9.59275E-19-1.31775E-19
 -1      2819 9.79775E-05-2.88760E-05-2.96077E-05-5.64078E-06 6.78382E-19-3.71578E-19
 -1      2820 9.74224E-05-2.86528E-05-2.94721E-05-5.39214E-06 8.65383E-19-3.31608E-19
 -1      2821 9.66921E-05-2.82573E-05-2.93354E-05-5.66862E-06 9.28765E-19-2.29395E-19
 -1      2822 9.90254E-05-2.94146E-05-2.98294E-05-6.10199E-06 4.27147E-19 1.89873E-20
 -1      2823 9.83700E-05-2.90815E-05-2.96920E-05-5.92740E-06 7.29932E-19 2.52828E-20
 -1      2824 9.73681E-05-2.86047E-05-2.94780E-05-6.31063E-06 5.30681E-19 4.90885E-20
 -1      2825 1.00343E-04-3.02548E-05-3.00397E-05-6.32595E-06-3.96081E-19 1.71404E-19
 -1      2826 9.95726E-05-2.97675E-05-2.99090E-05-6.30102E-06 5.72808E-20 1.66405E-19
 -1      2827 9.83049E-05-2.92295E-05-2.96149E-05-6.83873E-06 6.89982E-20 1.02943E-18
 -1      2828 1.02000E-04-3.14940E-05-3.02282E-05-6.11677E-06-7.41523E-19 2.79203E-19
 -1      2829 1.01107E-04-3.08149E-05-3.01112E-05-6.34752E-06-6.35192E-19 1.70282E-19
 -1      2830 9.96118E-05-3.02638E-05-2.97369E-05-7.11307E-06-3.67528E-19 5.01109E-19
 -1      2831 1.04054E-04-3.31830E-05-3.03969E-05-5.21686E-06-3.03388E-19 4.57163E-19
 -1      2832 1.03052E-04-3.23094E-05-3.02954E-05-5.83107E-06-5.74098E-19 4.60758E-19
 -1      2833 1.01423E-04-3.18351E-05-2.98468E-05-6.92005E-06-7.27082E-19 3.18000E-19
 -1      2834 1.06476E-04-3.52278E-05-3.05737E-05-3.33988E-06-9.11627E-19 9.78768E-19
 -1      2835 1.05436E-04-3.42476E-05-3.04781E-05-4.45751E-06-6.39441E-19 6.32285E-19
 -1      2836 1.03859E-04-3.39968E-05-2.99712E-05-5.96634E-06-7.34742E-19 3.53631E-19
 -1      2837 1.09040E-04-3.72353E-05-3.08235E-05-2.77962E-07-1.13000E-18 1.52365E-18
 -1      2838 1.08134E-04-3.64019E-05-3.07080E-05-1.93947E-06-9.27859E-19 1.37843E-18
 -1      2839 1.06921E-04-3.65854E-05-3.01766E-05-3.90315E-06-1.21540E-18 9.85338E-19
 -1      2840 1.11189E-04-3.83745E-05-3.12529E-05 3.86784E-06-1.00799E-18 1.62338E-18
 -1      2841 1.10716E-04-3.81545E-05-3.10733E-05 1.82693E-06-1.03202E-18 1.41392E-18
 -1      2842 1.10318E-04-3.90158E-05-3.05780E-05-4.51729E-07-1.08767E-18 8.61093E-19
 -1      2843 1.12022E-04-3.74491E-05-3.19822E-05 8.29656E-06-4.55370E-19 1.34013E-18
 -1      2844 1.12332E-04-3.84092E-05-3.16949E-05 6.41413E-06-1.02014E-18 1.45063E-18
 -1      2845 1.13238E-04-4.00847E-05-3.13353E-05 4.30450E-06-8.15977E-19 1.41589E-18
 -1      2846 1.10754E-04-3.35837E-05-3.30346E-05 1.12467E-05 5.69868E-19 1.56272E-18
 -1      2847 1.11969E-04-3.59607E-05-3.26475E-05 1.04507E-05 2.83588E-19 1.76762E-18
 -1      2848 1.14454E-04-3.83554E-05-3.25880E-05 9.34705E-06-3.17838E-19 1.66512E-18
 -1      2849 1.07699E-04-2.77331E-05-3.41999E-05 1.02912E-05 1.41696E-18 1.35137E-18
 -1      2850 1.09264E-04-3.07157E-05-3.38060E-05 1.14353E-05 7.54418E-19 1.38850E-18
 -1      2851 1.12712E-04-3.26624E-05-3.42716E-05 1.23336E-05 1.00127E-18 1.94339E-18
 -1      2852 1.04742E-04-2.28900E-05-3.50563E-05 4.57273E-06 1.36383E-18 1.31514E-18
 -1      2853 1.05790E-04-2.47819E-05-3.48254E-05 7.75757E-06 1.72153E-18 1.17289E-18
 -1      2854 1.09333E-04-2.57365E-05-3.58707E-05 1.01359E-05 1.52278E-18 1.46819E-18
 -1      2855 1.04450E-04-2.25912E-05-3.51690E-05-3.65122E-06 5.87603E-19-1.52061E-19
 -1      2856 1.04206E-04-2.20704E-05-3.52290E-05 6.74926E-08 1.22975E-18 7.93069E-19
 -1      2857 1.06628E-04-2.09853E-05-3.68194E-05 2.61611E-06 1.89520E-18 1.69181E-18
 -1      2858 1.07268E-04-2.71799E-05-3.44495E-05-1.00657E-05 4.12477E-19-1.09044E-18
 -1      2859 1.05824E-04-2.45495E-05-3.47735E-05-7.68386E-06 2.78078E-19-7.46338E-19
 -1      2860 1.07352E-04-2.21351E-05-3.65746E-05-6.49649E-06 1.29660E-18-1.95294E-19
 -1      2861 1.10702E-04-3.32114E-05-3.33185E-05-1.16354E-05 2.28854E-19-1.03070E-18
 -1      2862 1.09154E-04-3.03312E-05-3.37227E-05-1.13854E-05 5.46866E-19-9.73979E-19
 -1      2863 1.10917E-04-2.87328E-05-3.52314E-05-1.17949E-05 4.18970E-19-8.72087E-19
 -1      2864 1.12473E-04-3.73839E-05-3.22275E-05-9.03701E-06 5.80813E-19-1.53614E-18
 -1      2865 1.11625E-04-3.55931E-05-3.25718E-05-1.04389E-05 6.58166E-19-1.08428E-18
 -1      2866 1.13869E-04-3.55634E-05-3.35170E-05-1.15181E-05 5.50102E-19-1.24507E-18
 -1      2867 1.11893E-04-3.85317E-05-3.14376E-05-4.58387E-06 8.03180E-20-1.20414E-18
 -1      2868 1.11948E-04-3.81399E-05-3.16664E-05-6.61345E-06 8.00215E-21-1.03494E-18
 -1      2869 1.14249E-04-3.94864E-05-3.20177E-05-7.39120E-06 1.69931E-19-2.24671E-18
 -1      2870 1.09771E-04-3.74737E-05-3.09544E-05-3.04896E-07 8.72592E-19-7.67871E-19
 -1      2871 1.10458E-04-3.80253E-05-3.10922E-05-2.19888E-06 5.64193E-19-7.15436E-19
 -1      2872 1.12164E-04-3.98247E-05-3.10031E-05-2.34779E-06-1.67908E-19-8.63528E-19
 -1      2873 1.07101E-04-3.54361E-05-3.06790E-05 2.86509E-06 5.22182E-19-1.58628E-19
 -1      2874 1.08071E-04-3.63769E-05-3.07708E-05 1.46504E-06 5.71440E-19-9.84247E-19
 -1      2875 1.08925E-04-3.79710E-05-3.04311E-05 1.83515E-06 4.41130E-19-5.53246E-19
 -1      2876 1.04554E-04-3.33212E-05-3.05002E-05 4.77536E-06 1.09362E-18 9.49045E-19
 -1      2877 1.05561E-04-3.42737E-05-3.05834E-05 3.92705E-06 1.08963E-18 5.59935E-19
 -1      2878 1.05630E-04-3.53493E-05-3.01488E-05 4.58860E-06 2.54831E-19-6.77283E-20
 -1      2879 1.02413E-04-3.15596E-05-3.03457E-05 5.64038E-06 5.46020E-19 2.26035E-18
 -1      2880 1.03332E-04-3.23504E-05-3.04387E-05 5.25763E-06 1.02005E-18 2.04271E-18
 -1      2881 1.02849E-04-3.28881E-05-3.00084E-05 6.03494E-06 2.00618E-19 1.20633E-18
 -1      2882 1.00719E-04-3.02653E-05-3.01822E-05 5.76478E-06-3.65653E-19 2.25095E-18
 -1      2883 1.01509E-04-3.08524E-05-3.02888E-05 5.71716E-06-3.05962E-20 2.84660E-18
 -1      2884 1.00722E-04-3.09639E-05-2.99151E-05 6.50858E-06-1.15533E-19 2.15567E-18
 -1      2885 9.94145E-05-2.93932E-05-3.00022E-05 5.42453E-06 4.24612E-19 1.53015E-18
 -1      2886 1.00074E-04-2.97980E-05-3.01183E-05 5.58941E-06 2.25971E-19 2.34965E-18
 -1      2887 9.91790E-05-2.96264E-05-2.98212E-05 6.34378E-06 9.65248E-20 1.05821E-18
 -1      2888 9.84155E-05-2.88470E-05-2.98118E-05 4.83115E-06 3.88025E-19 3.69212E-19
 -1      2889 9.89586E-05-2.91106E-05-2.99302E-05 5.11174E-06 6.90267E-19 1.09709E-18
 -1      2890 9.80844E-05-2.87808E-05-2.97103E-05 5.80455E-06 7.84580E-19 1.22665E-18
 -1      2891 9.76484E-05-2.85301E-05-2.96210E-05 4.13218E-06-2.84941E-19-6.92693E-20
 -1      2892 9.80914E-05-2.86928E-05-2.97351E-05 4.45997E-06 4.46223E-20-1.62305E-20
 -1      2893 9.73104E-05-2.82972E-05-2.95832E-05 5.07959E-06 3.46903E-19 6.33983E-19
 -1      2894 9.70565E-05-2.83645E-05-2.94395E-05 3.42279E-06-3.84223E-19 9.98542E-19
 -1      2895 9.74147E-05-2.84590E-05-2.95443E-05 3.75346E-06-2.04905E-19 6.30851E-19
 -1      2896 9.67581E-05-2.80580E-05-2.94474E-05 4.29525E-06-9.03812E-19-8.01933E-19
 -1      2897 9.65983E-05-2.82936E-05-2.92741E-05 2.75928E-06-1.03743E-18 1.62031E-18
 -1      2898 9.68849E-05-2.83437E-05-2.93666E-05 3.06681E-06-5.21531E-19 1.79173E-18
 -1      2899 9.63579E-05-2.79724E-05-2.93115E-05 3.53069E-06-1.15424E-18 7.72805E-19
 -1      2900 9.62439E-05-2.82787E-05-2.91287E-05 2.17082E-06-9.61108E-19 9.65528E-19
 -1      2901 9.64705E-05-2.83010E-05-2.92078E-05 2.44203E-06-1.03638E-18 1.66606E-18
 -1      2902 9.60634E-05-2.79768E-05-2.91828E-05 2.83125E-06-6.91558E-19-2.73064E-20
 -1      2903 9.59709E-05-2.82947E-05-2.90049E-05 1.66862E-06 4.25169E-19 4.28411E-19
 -1      2904 9.61475E-05-2.83002E-05-2.90706E-05 1.89878E-06-5.31909E-19 7.63720E-19
 -1      2905 9.58440E-05-2.80288E-05-2.90661E-05 2.21906E-06-3.18689E-19-2.78504E-19
 -1      2906 9.57622E-05-2.83254E-05-2.89022E-05 1.25268E-06 7.16813E-19 6.91069E-19
 -1      2907 9.58979E-05-2.83216E-05-2.89554E-05 1.44227E-06 1.15907E-18 8.38471E-19
 -1      2908 9.56791E-05-2.81016E-05-2.89638E-05 1.70093E-06 3.78716E-19-9.44216E-20
 -1      2909 9.56044E-05-2.83613E-05-2.88190E-05 9.16505E-07 1.21399E-18-1.02205E-19
 -1      2910 9.57068E-05-2.83528E-05-2.88612E-05 1.06894E-06 5.38274E-19-3.22372E-19
 -1      2911 9.55548E-05-2.81793E-05-2.88769E-05 1.27410E-06 1.02774E-18 2.38877E-19
 -1      2912 9.54867E-05-2.83966E-05-2.87532E-05 6.50546E-07-2.38760E-19 1.71648E-18
 -1      2913 9.55624E-05-2.83863E-05-2.87858E-05 7.70503E-07 6.30418E-19 1.15463E-18
 -1      2914 9.54610E-05-2.82527E-05-2.88050E-05 9.30448E-07 3.28452E-19 3.52580E-19
 -1      2915 9.54014E-05-2.84281E-05-2.87022E-05 4.44967E-07-4.78697E-19 2.72393E-18
 -1      2916 9.54549E-05-2.84185E-05-2.87268E-05 5.36130E-07-1.30186E-19 2.21775E-18
 -1      2917 9.53895E-05-2.83171E-05-2.87467E-05 6.59593E-07-4.42002E-19 2.06285E-19
 -1      2918 9.53344E-05-2.84384E-05-2.86687E-05 3.12617E-07-3.46860E-19 2.08525E-18
 -1      2919 9.53713E-05-2.84286E-05-2.86873E-05 3.83431E-07-2.23773E-19 2.40309E-18
 -1      2920 9.53279E-05-2.83525E-05-2.87061E-05 4.76367E-07-2.07343E-19 3.90105E-19
 -1      2921 9.52800E-05-2.83695E-05-2.86788E-05 3.55973E-07-6.37297E-20 3.01134E-19
 -1      2922 9.49628E-05-2.80428E-05-2.86810E-05 2.82831E-08-4.14371E-19 8.44838E-19
 -1      2923 9.49706E-05-2.80512E-05-2.86802E-05 7.50433E-08 1.79633E-19-1.56547E-20
 -1      2924 9.52922E-05-2.84299E-05-2.86538E-05-2.44951E-07 2.49227E-19-5.08895E-19
 -1      2925 9.52765E-05-2.84414E-05-2.86434E-05-2.05917E-07-7.99649E-19 2.55316E-19
 -1      2926 9.52624E-05-2.83693E-05-2.86695E-05-3.07576E-07 5.38952E-20-5.16820E-19
 -1      2927 9.50421E-05-2.81375E-05-2.86749E-05 2.08089E-07 6.65252E-19-3.82035E-18
 -1      2928 9.50751E-05-2.81734E-05-2.86715E-05 2.32352E-07 1.67851E-18-4.33764E-18
 -1      2929 9.49707E-05-2.80505E-05-2.86806E-05-7.72800E-08-1.66062E-18-8.03580E-19
 -1      2930 9.49628E-05-2.80423E-05-2.86811E-05-3.05067E-08-1.51054E-18 2.56054E-19
 -1      2931 9.49099E-05-2.79629E-05-2.86899E-05-7.70139E-10-1.34348E-18-9.67647E-19
 -1      2932 9.49879E-05-2.80732E-05-2.86791E-05 1.28997E-07 3.39897E-19-3.27826E-20
 -1      2933 9.50102E-05-2.80969E-05-2.86770E-05 1.67779E-07 5.68030E-19-1.32898E-18
 -1      2934 9.49862E-05-2.80493E-05-2.86859E-05 2.21338E-07 2.57061E-19-2.37535E-18
 -1      2935 9.49298E-05-2.79857E-05-2.86887E-05 1.19998E-07-2.61516E-19-5.45671E-19
 -1      2936 9.50096E-05-2.80943E-05-2.86779E-05-1.68684E-07 3.42129E-19 2.69366E-19
 -1      2937 9.49877E-05-2.80713E-05-2.86798E-05-1.30485E-07-8.00615E-19 5.83604E-19
 -1      2938 9.49294E-05-2.79835E-05-2.86895E-05-1.20763E-07-6.20832E-19 6.83073E-19
 -1      2939 9.50747E-05-2.81703E-05-2.86728E-05-2.33614E-07 1.39442E-18-4.46659E-19
 -1      2940 9.50415E-05-2.81343E-05-2.86761E-05-2.09385E-07 1.09293E-18-2.99800E-19
 -1      2941 9.49851E-05-2.80450E-05-2.86873E-05-2.21939E-07-2.17515E-19 1.48937E-18
 -1      2942 9.51543E-05-2.82688E-05-2.86650E-05-2.58430E-07 9.58176E-19-6.06629E-19
 -1      2943 9.51171E-05-2.82244E-05-2.86697E-05-2.54469E-07 1.56714E-18-1.31501E-18
 -1      2944 9.50688E-05-2.81400E-05-2.86828E-05-2.88609E-07 1.24581E-18-1.44745E-18
 -1      2945 4.83144E-05-2.32330E-05-1.04314E-05 3.11385E-05-3.12979E-19 4.57165E-18
 -1      2946 3.80527E-05-1.65694E-05-8.59104E-06 2.04570E-05 6.57351E-19 4.99580E-18
 -1      2947 6.44240E-05-3.34975E-05-1.25554E-05-3.61308E-05 2.17063E-18-2.34247E-18
 -1      2948 7.98040E-05-4.24084E-05-1.60422E-05-3.91521E-05 2.13039E-18-3.62467E-18
 -1      2949 1.31093E-04-5.97558E-05-3.02395E-05-1.48710E-05 8.19981E-19-3.30279E-18
 -1      2950 1.37818E-04-5.77344E-05-3.48545E-05-6.22414E-06-4.96044E-20-4.49298E-18
 -1      2951 1.39369E-04-3.17419E-05-4.64949E-05 1.31853E-05-9.78747E-19-2.72988E-18
 -1      2952 1.37251E-04-2.32457E-05-4.95665E-05 1.20569E-05-2.34734E-18-3.69920E-18
 -1      2953 1.37831E-04-3.96243E-05-4.27872E-05-8.01681E-06 1.19823E-18-9.70594E-19
 -1      2954 1.37884E-04-4.87026E-05-3.82706E-05-1.31774E-06 6.82179E-19-9.63500E-19
 -1      2955 1.21247E-04-5.81496E-05-2.68000E-05-2.37781E-05-7.21619E-19 9.07861E-19
 -1      2956 1.29554E-04-5.81390E-05-3.10985E-05-1.44360E-05-4.19361E-19 1.57659E-18
 -1      2957 1.32494E-04-1.57719E-05-5.05639E-05 9.26988E-06-3.13847E-18-2.79902E-18
 -1      2958 1.29370E-04-1.20447E-05-5.10336E-05 3.52359E-06-2.88669E-18-2.26202E-18
 -1      2959 3.29946E-05-1.75145E-05-6.05327E-06-1.89199E-05 2.23638E-18 1.45054E-18
 -1      2960 4.55493E-05-2.38417E-05-9.11383E-06-3.02752E-05 2.48774E-18-4.84079E-19
 -1      2961 9.51061E-05-2.72311E-05-2.90875E-05-5.58277E-07 1.01884E-18-1.52569E-19
 -1      2962 9.51957E-05-2.69502E-05-2.92211E-05 1.72820E-07 1.15842E-18-3.56176E-20
 -1      2963 9.53922E-05-2.70519E-05-2.92999E-05-7.50292E-07 1.12944E-18-2.91888E-19
 -1      2964 6.09168E-05-3.00919E-05-1.26651E-05-3.52159E-05-2.39869E-18-3.56146E-18
 -1      2965 7.90679E-05-4.12435E-05-1.61477E-05-3.96873E-05-2.16142E-18-2.66328E-18
 -1      2966 9.55224E-05-2.80457E-05-2.89105E-05-3.24663E-06 2.64435E-19-2.64137E-19
 -1      2967 9.52918E-05-2.79446E-05-2.88578E-05-2.93253E-06 4.59695E-19-2.53924E-19
 -1      2968 9.54406E-05-2.77482E-05-2.90195E-05-2.85371E-06 5.23029E-19-1.26234E-19
 -1      2969 9.55939E-05-2.78857E-05-2.90248E-05-3.61446E-06 1.55109E-19 8.11658E-20
 -1      2970 7.75826E-05-4.03739E-05-1.58414E-05 3.96800E-05-1.19876E-18 1.51333E-18
 -1      2971 6.18993E-05-3.15621E-05-1.24360E-05 3.65468E-05-1.56182E-18 4.04278E-18
 -1      2972 9.52374E-05-2.65484E-05-2.94400E-05 1.08011E-06 1.26145E-18-7.01954E-20
 -1      2973 9.54379E-05-2.60664E-05-2.96941E-05 2.18100E-06 1.35771E-18 1.44124E-20
 -1      2974 9.53984E-05-2.48448E-05-3.02370E-05 3.19945E-06 1.53206E-18-4.08504E-19
 -1      2975 9.54383E-05-2.62546E-05-2.96595E-05 8.98268E-07 1.29297E-18-3.01827E-19
 -1      2976 9.53497E-05-2.38413E-05-3.06258E-05-4.77413E-06-1.08959E-18-7.03041E-19
 -1      2977 9.53079E-05-2.48299E-05-3.02222E-05-3.19529E-06-1.06035E-18-6.43187E-19
 -1      2978 9.52779E-05-2.44108E-05-3.03723E-05-2.83253E-06-9.36628E-19-7.54499E-19
 -1      2979 1.35416E-04-5.26422E-05-3.53313E-05-1.79429E-06 6.09559E-19 2.25628E-18
 -1      2980 1.36389E-04-4.54923E-05-3.96030E-05 5.61018E-06 2.13325E-18 2.97880E-18
 -1      2981 1.40935E-04-5.02824E-05-3.89298E-05 4.41589E-06 3.33202E-19-3.50841E-18
 -1      2982 1.41781E-04-4.23983E-05-4.32386E-05 9.53306E-06 2.96462E-20-3.01904E-18
 -1      2983 1.33620E-04-3.50543E-05-4.24550E-05 1.15468E-05 2.38133E-18 2.59340E-18
 -1      2984 1.30159E-04-2.60412E-05-4.53469E-05 1.24384E-05 2.67737E-18 1.67654E-18
 -1      2985 9.63470E-05-4.94790E-05-1.96462E-05-3.61037E-05-2.08201E-18-1.32719E-18
 -1      2986 1.10378E-04-5.54763E-05-2.36427E-05-3.17334E-05-1.48633E-18 1.44154E-19
 -1      2987 1.15789E-04-5.54617E-05-2.56310E-05-2.43113E-05-1.71053E-18 6.94196E-19
 -1      2988 9.10317E-05-1.56949E-05-3.23141E-05 4.54588E-06 1.50274E-18-1.47089E-18
 -1      2989 9.06425E-05-1.51516E-05-3.23765E-05 3.67027E-06 1.27620E-18-1.72127E-18
 -1      2990 9.15370E-05-1.66456E-05-3.20794E-05 2.86491E-06 1.14400E-18-1.57073E-18
 -1      2991 9.23183E-05-1.78245E-05-3.19050E-05 4.17086E-06 1.38172E-18-1.28062E-18
 -1      2992 1.26424E-04-1.60453E-05-4.77473E-05 1.03420E-05 3.04402E-18 6.37022E-19
 -1      2993 1.24875E-04-1.08187E-05-4.95857E-05 4.58086E-06 2.75540E-18-9.32795E-20
 -1      2994 3.04682E-05-1.26524E-05-7.18512E-06 8.78454E-06 2.16610E-18 5.25287E-18
 -1      2995 2.84701E-05-1.36017E-05-5.89028E-06-6.78414E-06 2.46630E-18 3.66194E-18
 -1      2996 3.89286E-05-1.42382E-05-9.90891E-06-1.07540E-05 3.03243E-18 2.19837E-18
 -1      2997 9.06045E-05-1.50959E-05-3.23840E-05-3.60998E-06-2.31190E-19-2.03983E-18
 -1      2998 9.09864E-05-1.56262E-05-3.23237E-05-4.48668E-06-4.31259E-19-1.97869E-18
 -1      2999 5.48787E-05-2.82829E-05-1.08634E-05 3.46361E-05 6.10181E-19-3.42540E-18
 -1      3000 4.36256E-05-2.09417E-05-9.00087E-06 2.59423E-05 7.30989E-19-3.16282E-18
 -1      3001 1.20064E-04-5.86166E-05-2.64498E-05 2.45837E-05-2.62474E-19 8.91423E-19
 -1      3002 1.05033E-04-5.44572E-05-2.12690E-05 3.37296E-05-3.76930E-20-1.12044E-18
 -1      3003 1.39010E-04-5.58512E-05-3.59945E-05 3.47696E-06-1.68366E-18 1.84050E-18
 -1      3004 1.32803E-04-5.91553E-05-3.16146E-05 1.18602E-05-9.38248E-19 1.91710E-18
 -1      3005 1.36648E-04-5.28310E-05-3.60344E-05-3.53566E-06-5.47938E-19 2.40907E-18
 -1      3006 1.29144E-04-1.25871E-05-5.05564E-05-4.06677E-06-2.29419E-18-9.00581E-19
 -1      3007 1.30045E-04-1.67585E-05-4.91929E-05-1.02476E-05-2.37127E-18-2.92968E-19
 -1      3008 9.52508E-05-2.84061E-05-2.86478E-05-2.20838E-07-2.28914E-20-2.41717E-19
 -1      3009 1.35154E-04-5.58128E-05-3.43849E-05 8.08411E-06 6.85144E-19-1.61021E-18
 -1      3010 1.27702E-04-5.78077E-05-2.99320E-05 1.63237E-05-1.66230E-20-9.49524E-19
 -1      3011 1.30426E-04-1.89046E-05-4.85220E-05-1.06511E-05 2.72713E-18-1.06064E-18
 -1      3012 1.33443E-04-2.75436E-05-4.56883E-05-1.22716E-05 2.22039E-18-1.42852E-18
 -1      3013 3.69778E-05-1.48109E-05-8.72013E-06-1.59720E-05-1.44975E-18-4.40732E-18
 -1      3014 4.52785E-05-2.03821E-05-1.04220E-05-2.75042E-05-1.79587E-18-4.57070E-18
 -1      3015 9.44176E-05-2.08658E-05-3.15454E-05-7.59035E-06-1.39920E-18-9.37445E-19
 -1      3016 9.49005E-05-2.26668E-05-3.09662E-05-5.84151E-06-1.22557E-18-8.15790E-19
 -1      3017 9.46739E-05-2.22330E-05-3.10448E-05-5.17301E-06-1.10646E-18-9.40259E-19
 -1      3018 9.35715E-05-1.94518E-05-3.17691E-05-7.39506E-06-1.22586E-18-1.11202E-18
 -1      3019 1.24709E-04-9.09624E-06-5.02017E-05-2.20387E-06 2.72236E-18-2.75471E-19
 -1      3020 1.27593E-04-1.26199E-05-4.98345E-05-7.77736E-06 2.71262E-18-1.00829E-18
 -1      3021 1.23098E-04-1.75348E-05-4.56203E-05-1.02536E-05 2.53400E-18-5.74500E-19
 -1      3022 9.14709E-05-1.63420E-05-3.22211E-05-5.17187E-06-5.25721E-19-1.69832E-18
 -1      3023 9.20375E-05-1.71679E-05-3.21178E-05-5.96826E-06-7.84231E-19-1.55623E-18
 -1      3024 9.22664E-05-1.77391E-05-3.19174E-05-4.13413E-06-5.40907E-19-1.66433E-18
 -1      3025 9.09046E-05-1.57247E-05-3.22056E-05 2.39388E-08 4.91844E-19-1.87769E-18
 -1      3026 8.98576E-05-1.40410E-05-3.25129E-05-3.43953E-07 4.14760E-19-2.06308E-18
 -1      3027 8.99255E-05-1.41310E-05-3.25032E-05-1.23012E-06 2.62683E-19-2.08735E-18
 -1      3028 1.19338E-04-1.18673E-05-4.64733E-05 9.75152E-07 2.50616E-18-5.85048E-20
 -1      3029 1.23448E-04-5.80135E-05-2.78771E-05-1.87981E-05 1.54975E-18-3.01692E-18
 -1      3030 3.92531E-05-1.35605E-05-1.03845E-05-8.42163E-06-8.30569E-19-3.94760E-18
 -1      3031 9.44349E-05-2.13022E-05-3.13481E-05 6.75703E-06 1.88911E-18-3.63506E-19
 -1      3032 1.30903E-04-4.05003E-05-3.89616E-05 1.00884E-05 2.01319E-18 1.79476E-18
 -1      3033 9.76668E-05-5.00217E-05-2.01123E-05 3.49429E-05 8.49574E-19-1.48276E-18
 -1      3034 1.22152E-04-5.80497E-05-2.74773E-05 2.16484E-05-3.54377E-19-1.08542E-18
 -1      3035 1.13354E-04-5.43208E-05-2.50764E-05 2.54365E-05-4.55863E-19-3.47654E-19
 -1      3036 1.25504E-04-5.61706E-05-2.96954E-05 1.28916E-05-3.38535E-19-1.11374E-18
 -1      3037 4.33121E-05-1.72660E-05-1.05726E-05 1.81939E-05 4.95091E-19-3.15700E-18
 -1      3038 1.23573E-04-1.44305E-05-4.71959E-05-1.09786E-06-1.84992E-18-8.00195E-19
 -1      3039 1.30589E-04-5.04018E-05-3.45027E-05-4.97334E-06-2.35369E-19 2.44333E-18
 -1      3040 1.25606E-04-2.18162E-05-4.48980E-05 1.28061E-05-2.07269E-18-1.86390E-18
 -1      3041 1.30473E-04-3.87086E-05-3.94645E-05 1.48049E-05-7.17278E-19-1.48294E-18
 -1      3042 6.13988E-05-2.68725E-05-1.42041E-05 3.09971E-05-5.85776E-19 3.43281E-18
 -1      3043 9.50697E-05-2.81448E-05-2.86811E-05 2.86765E-07 1.45304E-18-3.11726E-18
 -1      3044 9.51152E-05-2.82266E-05-2.86683E-05 2.52253E-07 1.56079E-18-1.96656E-18
 -1      3045 9.51533E-05-2.82684E-05-2.86638E-05 2.59707E-07 5.51320E-19-9.28284E-19
 -1      3046 9.02472E-05-4.48110E-05-1.90953E-05 3.52212E-05-9.61700E-19 1.15514E-18
 -1      3047 9.09776E-05-4.42920E-05-1.96171E-05-3.42738E-05-2.28715E-18-1.54234E-18
 -1      3048 1.27247E-04-5.95351E-05-2.90024E-05 1.69902E-05-1.61042E-19 1.71461E-18
 -1      3049 1.19005E-04-5.57566E-05-2.65651E-05 2.07855E-05 3.06997E-19 1.81804E-18
 -1      3050 1.29174E-04-5.69908E-05-3.10540E-05 7.64692E-06 3.90562E-20 2.41696E-18
 -1      3051 9.52192E-05-2.83528E-05-2.86578E-05 2.56860E-07-4.06027E-19-1.17932E-18
 -1      3052 5.90990E-05-2.72307E-05-1.31357E-05-3.06370E-05 2.81278E-18-1.67427E-18
 -1      3053 9.46817E-05-2.22787E-05-3.10203E-05 5.16966E-06 1.73789E-18-4.68422E-19
 -1      3054 6.68503E-05-3.37599E-05-1.40650E-05 3.48144E-05 1.03359E-18-3.72896E-18
 -1      3055 4.18478E-05-1.45168E-05-1.10734E-05 1.36580E-05 2.26229E-18 4.03643E-18
 -1      3056 9.52204E-05-2.83595E-05-2.86542E-05-2.36990E-07 1.83476E-19-1.11815E-18
 -1      3057 9.36416E-05-4.64675E-05-1.98302E-05-3.34747E-05 1.96618E-18-2.53745E-18
 -1      3058 1.37409E-04-5.31866E-05-3.61342E-05 2.38258E-06 3.13389E-19-3.17309E-18
 -1      3059 1.31414E-04-3.40667E-05-4.19924E-05-1.16360E-05 1.83118E-18-3.27484E-19
 -1      3060 1.36317E-04-3.67467E-05-4.28769E-05 1.38096E-05-3.66342E-19-2.94916E-18
 -1      3061 1.34215E-04-5.15143E-05-3.55329E-05-1.23168E-07 5.79172E-19-4.52316E-19
 -1      3062 1.30364E-04-5.46228E-05-3.24835E-05-6.15162E-06-1.76024E-19 2.22166E-18
 -1      3063 5.97007E-05-2.55194E-05-1.41449E-05-2.93240E-05-1.89391E-18-3.71731E-18
 -1      3064 9.00754E-05-1.43482E-05-3.24759E-05-1.98514E-06 1.17844E-19-2.01200E-18
 -1      3065 9.02929E-05-1.46414E-05-3.24436E-05-2.87240E-06-1.02867E-19-2.01485E-18
 -1      3066 9.15028E-05-1.65940E-05-3.20869E-05-2.81395E-06-1.67503E-19-1.87595E-18
 -1      3067 9.10494E-05-1.59331E-05-3.21778E-05-1.41089E-06 1.27110E-19-1.88946E-18
 -1      3068 1.23283E-04-2.20036E-05-4.37042E-05 1.21822E-05 2.19519E-18 8.76150E-19
 -1      3069 1.33051E-04-2.32091E-05-4.77142E-05-1.33059E-05-2.49769E-18 4.60892E-19
 -1      3070 1.36830E-04-3.21658E-05-4.50990E-05-1.43089E-05-2.24961E-18 1.17473E-18
 -1      3071 9.52230E-05-2.83281E-05-2.86697E-05-3.02201E-07-7.05300E-19-2.24986E-18
 -1      3072 9.51846E-05-2.82999E-05-2.86654E-05-2.74938E-07 1.92064E-19-1.70900E-18
 -1      3073 9.51537E-05-2.82294E-05-2.86805E-05-3.27100E-07 9.47064E-19-2.20350E-18
 -1      3074 9.52302E-05-2.83029E-05-2.86813E-05-3.52927E-07-3.05213E-20-1.84242E-18
 -1      3075 1.27146E-04-2.29348E-05-4.50392E-05-1.26241E-05-1.82324E-18 1.18283E-18
 -1      3076 1.29013E-04-4.40001E-05-3.62675E-05 9.24377E-06 1.45931E-18 1.78862E-18
 -1      3077 1.25069E-04-3.61619E-05-3.86539E-05 1.27717E-05 1.99757E-18 1.11522E-18
 -1      3078 9.42515E-05-2.15530E-05-3.11839E-05 4.37774E-06 1.56438E-18-6.87538E-19
 -1      3079 9.37062E-05-2.05106E-05-3.13734E-05 4.04868E-06 1.41572E-18-8.57275E-19
 -1      3080 9.24337E-05-1.77373E-05-3.20357E-05-6.47295E-06-9.03551E-19-1.45102E-18
 -1      3081 9.31037E-05-1.87592E-05-3.18908E-05-6.97967E-06-1.12563E-18-1.28237E-18
 -1      3082 9.38486E-05-2.02844E-05-3.15066E-05-5.93252E-06-1.09547E-18-1.15229E-18
 -1      3083 9.31345E-05-1.90651E-05-3.17154E-05-5.17015E-06-8.12566E-19-1.30112E-18
 -1      3084 1.17011E-04-5.50446E-05-2.61339E-05-2.14662E-05 2.11118E-18-2.55580E-18
 -1      3085 1.27350E-04-5.74634E-05-3.01944E-05-1.11196E-05 1.07121E-18-2.61873E-18
 -1      3086 9.55904E-05-2.62131E-05-2.97215E-05 4.53203E-07-6.50556E-19-6.97344E-19
 -1      3087 9.55759E-05-2.65712E-05-2.95778E-05 1.16819E-06-6.22180E-19-7.65844E-19
 -1      3088 9.55506E-05-2.68332E-05-2.94430E-05 1.75805E-06-6.01571E-19-5.22402E-19
 -1      3089 9.55256E-05-2.70142E-05-2.93621E-05 2.31509E-06-5.23942E-19-6.86786E-19
 -1      3090 9.55457E-05-2.63086E-05-2.96749E-05 1.33370E-06-5.75587E-19-4.36982E-19
 -1      3091 9.54255E-05-2.71048E-05-2.92774E-05 2.80017E-06-3.70152E-19-7.72695E-19
 -1      3092 9.54061E-05-2.71639E-05-2.92435E-05 3.26991E-06-2.57581E-19-7.70797E-19
 -1      3093 9.54264E-05-2.67307E-05-2.94430E-05 2.44126E-06-5.27797E-19-3.85836E-19
 -1      3094 9.52537E-05-2.71334E-05-2.91954E-05 3.70444E-06-1.56199E-19-7.23645E-19
 -1      3095 9.52442E-05-2.71088E-05-2.91955E-05 4.14211E-06-1.82825E-19-5.44074E-19
 -1      3096 9.51818E-05-2.68262E-05-2.92962E-05 3.38533E-06-1.74188E-19-8.24297E-19
 -1      3097 9.50491E-05-2.69929E-05-2.91712E-05 4.57015E-06-1.43772E-19-3.97867E-19
 -1      3098 9.50508E-05-2.69151E-05-2.91938E-05 5.01633E-06-8.43366E-20-3.43678E-19
 -1      3099 9.48424E-05-2.66882E-05-2.92085E-05 4.26305E-06 4.89066E-20-6.16868E-19
 -1      3100 9.48181E-05-2.67451E-05-2.91811E-05 5.47222E-06-7.69099E-20-2.14063E-19
 -1      3101 9.48352E-05-2.66463E-05-2.92151E-05 5.95402E-06-1.35770E-19-1.72900E-19
 -1      3102 9.44222E-05-2.63910E-05-2.91542E-05 5.15273E-06 2.25424E-20-4.79344E-19
 -1      3103 9.45724E-05-2.64584E-05-2.92007E-05 6.46323E-06-2.97523E-19 2.28849E-20
 -1      3104 9.46186E-05-2.63808E-05-2.92344E-05 6.99458E-06-8.36730E-20-6.59555E-20
 -1      3105 9.39327E-05-2.60082E-05-2.91071E-05 6.11477E-06-1.30821E-19-4.37837E-20
 -1      3106 9.43443E-05-2.62253E-05-2.92038E-05 7.57549E-06-9.50839E-20-9.71680E-20
 -1      3107 9.44518E-05-2.62323E-05-2.92243E-05 8.15678E-06-1.86260E-20-1.96299E-19
 -1      3108 9.33979E-05-2.56322E-05-2.90383E-05 7.19471E-06-1.53923E-19-5.35149E-20
 -1      3109 9.42082E-05-2.61867E-05-2.91615E-05 8.82290E-06 1.16306E-19-3.46288E-19
 -1      3110 9.44436E-05-2.63768E-05-2.91552E-05 9.43897E-06 1.43605E-19 8.99025E-20
 -1      3111 9.28739E-05-2.53962E-05-2.89159E-05 8.42946E-06 1.60664E-19-4.03849E-19
 -1      3112 9.43172E-05-2.65617E-05-2.90439E-05 1.02003E-05 2.77645E-19 1.54945E-19
 -1      3113 9.48026E-05-2.70851E-05-2.89995E-05 1.08151E-05 1.64893E-19 3.04416E-19
 -1      3114 9.24806E-05-2.55041E-05-2.87057E-05 9.85458E-06 3.52387E-19-7.19785E-19
 -1      3115 9.49555E-05-2.76818E-05-2.88282E-05 1.16739E-05-1.53894E-20 3.66026E-19
 -1      3116 9.58953E-05-2.87532E-05-2.87449E-05 1.22166E-05 5.46560E-20 2.72299E-19
 -1      3117 9.24513E-05-2.62683E-05-2.83769E-05 1.15085E-05 7.36416E-20-3.77394E-19
 -1      3118 9.66111E-05-3.00143E-05-2.85188E-05 1.31396E-05 6.29658E-20 2.67135E-19
 -1      3119 9.83072E-05-3.18959E-05-2.84223E-05 1.34657E-05 1.48615E-19 4.01076E-19
 -1      3120 9.32087E-05-2.81519E-05-2.79180E-05 1.34137E-05 1.41224E-19-5.33830E-19
 -1      3121 1.00042E-04-3.41230E-05-2.81854E-05 1.43207E-05 3.38135E-19 6.59165E-19
 -1      3122 1.02846E-04-3.70618E-05-2.81593E-05 1.41542E-05 4.90654E-19 5.62824E-19
 -1      3123 9.54559E-05-3.17792E-05-2.73703E-05 1.54957E-05 3.75655E-19-1.48393E-19
 -1      3124 1.06175E-04-4.02856E-05-2.80593E-05 1.44002E-05 4.80969E-19 1.15734E-18
 -1      3125 1.10025E-04-4.42394E-05-2.82035E-05 1.35296E-05 5.71469E-19 1.23664E-18
 -1      3126 1.00295E-04-3.78827E-05-2.69029E-05 1.72737E-05 8.88524E-19 1.06720E-18
 -1      3127 1.19550E-04-5.08746E-05-2.92585E-05 1.03114E-05 2.91221E-19 2.24741E-18
 -1      3128 1.23989E-04-5.31767E-05-3.03305E-05 6.92380E-06-1.37272E-19 2.51855E-18
 -1      3129 1.22729E-04-2.61950E-05-4.18623E-05-1.51048E-05-1.05434E-18 1.46492E-18
 -1      3130 1.24361E-04-5.34798E-05-3.04467E-05-6.81048E-06 9.22862E-19-1.99533E-18
 -1      3131 1.19654E-04-5.09526E-05-2.92623E-05-1.02689E-05 8.38104E-19-1.51166E-18
 -1      3132 1.11627E-04-4.54335E-05-2.83889E-05-1.26429E-05 9.20169E-19-1.16058E-18
 -1      3133 1.07541E-04-4.15038E-05-2.81252E-05-1.39546E-05 9.19858E-19-9.59202E-19
 -1      3134 1.03821E-04-3.79066E-05-2.81932E-05-1.39272E-05 3.75625E-19-1.03079E-18
 -1      3135 1.00782E-04-3.47973E-05-2.81971E-05-1.41159E-05 3.85562E-19-4.22554E-19
 -1      3136 1.01528E-04-3.90935E-05-2.69619E-05-1.72187E-05 9.21542E-19-1.27898E-18
 -1      3137 9.88323E-05-3.24092E-05-2.84258E-05-1.32790E-05-8.91282E-19-1.80861E-19
 -1      3138 9.69683E-05-3.03379E-05-2.85247E-05-1.29573E-05-1.06358E-18 1.71379E-19
 -1      3139 9.58734E-05-3.23419E-05-2.73263E-05-1.54794E-05 1.64397E-19-2.78978E-19
 -1      3140 9.61145E-05-2.89235E-05-2.87628E-05-1.19778E-05-6.97568E-19 8.06908E-20
 -1      3141 9.50785E-05-2.77250E-05-2.88585E-05-1.14039E-05-5.40145E-19-3.90173E-20
 -1      3142 9.33078E-05-2.83288E-05-2.78857E-05-1.33074E-05-9.36122E-19-2.88807E-19
 -1      3143 9.48374E-05-2.70173E-05-2.90429E-05-1.04755E-05 3.78755E-19-5.18295E-19
 -1      3144 9.42984E-05-2.64084E-05-2.90999E-05-9.80574E-06-3.63951E-19-3.28397E-20
 -1      3145 9.23360E-05-2.61687E-05-2.83714E-05-1.12638E-05-1.56528E-19-1.17528E-18
 -1      3146 9.43677E-05-2.61501E-05-2.92201E-05-8.96720E-06-4.67724E-19 1.05648E-18
 -1      3147 9.41046E-05-2.59083E-05-2.92357E-05-8.28386E-06-1.89076E-19 1.80105E-18
 -1      3148 9.22272E-05-2.52128E-05-2.87222E-05-9.45508E-06 6.60018E-19 5.07647E-20
 -1      3149 9.43055E-05-2.59092E-05-2.93007E-05-7.54008E-06-9.12885E-19 2.39007E-18
 -1      3150 9.41836E-05-2.58778E-05-2.92839E-05-6.88778E-06-3.49975E-19 1.92479E-18
 -1      3151 9.25260E-05-2.49852E-05-2.89423E-05-7.87527E-06-6.61729E-20 1.57822E-18
 -1      3152 9.44201E-05-2.60128E-05-2.93078E-05-6.23463E-06-3.65829E-19 1.98342E-18
 -1      3153 9.43645E-05-2.60907E-05-2.92699E-05-5.63827E-06-1.89890E-19 2.03743E-18
 -1      3154 9.29734E-05-2.51588E-05-2.90579E-05-6.49541E-06-4.50083E-19 1.01071E-18
 -1      3155 9.45896E-05-2.62831E-05-2.92660E-05-5.07129E-06-4.33344E-19 1.52328E-18
 -1      3156 9.45622E-05-2.64096E-05-2.92170E-05-4.54365E-06 4.42844E-19 8.16169E-19
 -1      3157 9.34362E-05-2.55277E-05-2.90982E-05-5.29381E-06-8.75292E-19 1.94709E-18
 -1      3158 9.47563E-05-2.66153E-05-2.91962E-05-4.05837E-06 5.80954E-19-2.07679E-19
 -1      3159 9.47393E-05-2.67556E-05-2.91434E-05-3.60395E-06-1.06543E-20-7.78964E-19
 -1      3160 9.38532E-05-2.59686E-05-2.90888E-05-4.25652E-06-2.47133E-19 5.91964E-19
 -1      3161 9.48973E-05-2.69510E-05-2.91136E-05-3.19513E-06 6.97236E-19-4.01823E-19
 -1      3162 9.48834E-05-2.70867E-05-2.90620E-05-2.81273E-06 9.45857E-19-5.12393E-19
 -1      3163 9.42025E-05-2.64117E-05-2.90497E-05-3.37269E-06 5.72531E-19-1.23820E-18
 -1      3164 9.50072E-05-2.72607E-05-2.90288E-05-2.47396E-06 2.39160E-20-8.85881E-19
 -1      3165 9.49941E-05-2.73828E-05-2.89813E-05-2.15865E-06-3.75900E-19-1.81798E-18
 -1      3166 9.44818E-05-2.68207E-05-2.89950E-05-2.63115E-06 2.45280E-19-6.72676E-19
 -1      3167 9.50881E-05-2.75313E-05-2.89483E-05-1.88246E-06-2.98066E-19-1.48726E-18
 -1      3168 9.50753E-05-2.76363E-05-2.89065E-05-1.62716E-06-2.65063E-19-1.43011E-18
 -1      3169 9.46978E-05-2.71792E-05-2.89348E-05-2.01900E-06-1.49354E-19-6.61707E-19
 -1      3170 9.51449E-05-2.77592E-05-2.88758E-05-1.40554E-06-1.81995E-19-1.36071E-18
 -1      3171 9.51326E-05-2.78467E-05-2.88400E-05-1.20229E-06 5.87213E-19-5.72127E-19
 -1      3172 9.48604E-05-2.74824E-05-2.88751E-05-1.52175E-06 2.97437E-19 8.44613E-19
 -1      3173 9.51829E-05-2.79461E-05-2.88126E-05-1.02723E-06 8.67946E-19-7.34881E-19
 -1      3174 9.51715E-05-2.80173E-05-2.87828E-05-8.68063E-07 7.59508E-19-1.42855E-18
 -1      3175 9.49798E-05-2.77320E-05-2.88198E-05-1.12421E-06 4.06774E-19-1.21022E-18
 -1      3176 9.52064E-05-2.80959E-05-2.87591E-05-7.32333E-07 7.35651E-19-1.22014E-18
 -1      3177 9.51966E-05-2.81525E-05-2.87348E-05-6.09744E-07 1.55863E-18-1.45722E-18
 -1      3178 9.50651E-05-2.79329E-05-2.87704E-05-8.11967E-07 1.02768E-18-2.45163E-18
 -1      3179 9.52238E-05-2.82129E-05-2.87169E-05-5.17803E-07 1.05767E-18-7.65688E-19
 -1      3180 9.52144E-05-2.82571E-05-2.86969E-05-4.23780E-07 6.43540E-19-9.04722E-19
 -1      3181 9.51712E-05-2.82148E-05-2.86967E-05-4.16113E-07-8.85076E-20-2.76023E-18
 -1      3182 9.51284E-05-2.80926E-05-2.87300E-05-5.83029E-07 1.26332E-18-1.98344E-18
 -1      3183 9.48682E-05-2.79040E-05-2.86991E-05-1.72482E-07-7.67886E-20 3.13584E-18
 -1      3184 9.48457E-05-2.78833E-05-2.86995E-05-1.12131E-07-9.37768E-19 3.05233E-19
 -1      3185 9.55388E-05-2.73173E-05-2.92371E-05-2.12195E-06 7.59274E-19-2.32379E-19
 -1      3186 9.55327E-05-2.71147E-05-2.93116E-05-1.58239E-06 9.04844E-19-1.00625E-19
 -1      3187 9.58843E-05-2.77474E-05-2.91934E-05-5.28367E-06 8.15394E-19-2.12570E-19
 -1      3188 9.56775E-05-2.76860E-05-2.91409E-05-4.93150E-06 7.45683E-19-2.92992E-19
 -1      3189 9.56973E-05-2.77009E-05-2.91340E-05-4.55136E-06 5.11134E-19-3.77267E-19
 -1      3190 9.55506E-05-2.76579E-05-2.90972E-05-4.19582E-06 2.28460E-19-1.47972E-19
 -1      3191 9.53362E-05-2.73692E-05-2.91323E-05-4.83026E-06 5.34271E-19-3.84444E-19
 -1      3192 9.67050E-05-2.82288E-05-2.93386E-05-6.74518E-06-5.91596E-20 7.29219E-19
 -1      3193 9.63085E-05-2.79888E-05-2.92797E-05-6.42710E-06 4.14245E-19 1.42142E-19
 -1      3194 9.75150E-05-2.89119E-05-2.93940E-05-7.37632E-06-2.51293E-19 9.68949E-19
 -1      3195 9.69597E-05-2.84845E-05-2.93423E-05-7.13540E-06-1.78164E-20 8.05849E-19
 -1      3196 9.58327E-05-2.78794E-05-2.91326E-05-7.27992E-06-3.29367E-19 4.50664E-19
 -1      3197 9.87806E-05-3.01042E-05-2.94280E-05-7.78807E-06-2.40306E-19 3.54586E-19
 -1      3198 9.80016E-05-2.94085E-05-2.93855E-05-7.70381E-06-7.29268E-20 9.62928E-19
 -1      3199 9.65528E-05-2.86910E-05-2.91002E-05-8.05471E-06-1.80044E-20 4.25447E-19
 -1      3200 1.00696E-04-3.19748E-05-2.94528E-05-7.77356E-06-4.55248E-19 1.44913E-19
 -1      3201 9.96219E-05-3.09392E-05-2.94126E-05-7.96355E-06-3.96500E-19 3.18852E-19
 -1      3202 9.78472E-05-3.01395E-05-2.90451E-05-8.65333E-06-1.52718E-19-5.43284E-20
 -1      3203 1.03450E-04-3.46131E-05-2.95137E-05-7.02883E-06-1.26554E-18 6.04206E-19
 -1      3204 1.02037E-04-3.32249E-05-2.94520E-05-7.64869E-06-8.67639E-19 2.23942E-19
 -1      3205 9.99854E-05-3.24302E-05-2.89949E-05-8.85973E-06-8.02278E-19 2.92848E-19
 -1      3206 1.07110E-04-3.78543E-05-2.97120E-05-5.13808E-06-1.11463E-18 4.72170E-19
 -1      3207 1.05417E-04-3.62679E-05-2.95792E-05-6.36827E-06-1.21958E-18 5.79248E-19
 -1      3208 1.03251E-04-3.56662E-05-2.90254E-05-8.31380E-06-1.26566E-18 4.13072E-19
 -1      3209 1.11374E-04-4.09827E-05-3.02161E-05-1.67659E-06-1.33405E-18 9.40058E-19
 -1      3210 1.09669E-04-3.96629E-05-2.99354E-05-3.63504E-06-1.19571E-18 7.56895E-19
 -1      3211 1.07778E-04-3.96065E-05-2.92901E-05-6.45553E-06-1.26164E-18 9.14531E-20
 -1      3212 1.15333E-04-4.24798E-05-3.12628E-05 3.47871E-06-9.42880E-19 1.62871E-18
 -1      3213 1.14145E-04-4.23204E-05-3.07308E-05 9.01742E-07-1.20961E-18 1.46228E-18
 -1      3214 1.13182E-04-4.32580E-05-3.00350E-05-2.63565E-06-1.55502E-18 9.06153E-19
 -1      3215 1.17173E-04-4.01934E-05-3.30600E-05 9.06177E-06-1.36955E-19 1.33655E-18
 -1      3216 1.17220E-04-4.20369E-05-3.22399E-05 6.81569E-06-5.71069E-19 1.40910E-18
 -1      3217 1.18108E-04-4.43169E-05-3.15930E-05 3.58434E-06-7.97865E-19 1.00248E-18
 -1      3218 1.17258E-04-3.36216E-05-3.58324E-05 1.26825E-05 1.58091E-18 1.00040E-18
 -1      3219 1.18862E-04-3.82865E-05-3.46415E-05 1.18383E-05 6.49790E-19 1.11278E-18
 -1      3220 1.08063E-04-1.74805E-05-3.90148E-05 6.72214E-07 1.90058E-18 4.23943E-19
 -1      3221 1.08880E-04-1.89258E-05-3.87313E-05 5.34410E-06 2.06557E-18 6.96702E-19
 -1      3222 1.14865E-04-3.15320E-05-3.59349E-05-1.32088E-05 1.43731E-20-1.22585E-18
 -1      3223 1.12730E-04-2.66629E-05-3.68954E-05-1.19763E-05 7.99520E-19-9.05338E-19
 -1      3224 1.17484E-04-3.95742E-05-3.34535E-05-1.04468E-05 1.55669E-18-2.11065E-18
 -1      3225 1.16351E-04-3.60082E-05-3.44266E-05-1.19386E-05 8.10035E-19-1.63868E-18
 -1      3226 1.18917E-04-3.52403E-05-3.59576E-05-1.27811E-05 6.74132E-19-2.02265E-18
 -1      3227 1.16033E-04-4.23575E-05-3.15580E-05-4.58926E-06-4.03075E-19-2.52956E-18
 -1      3228 1.16499E-04-4.13959E-05-3.22485E-05-7.06857E-06 6.46068E-19-2.09212E-18
 -1      3229 1.19514E-04-4.25764E-05-3.30594E-05-7.87069E-06 1.02377E-18-2.32387E-18
 -1      3230 1.12253E-04-4.11532E-05-3.04064E-05 8.25331E-07-6.46562E-19-1.37757E-18
 -1      3231 1.13699E-04-4.19363E-05-3.08134E-05-1.48208E-06-6.80727E-19-1.77555E-18
 -1      3232 1.16007E-04-4.39586E-05-3.09255E-05-1.26962E-06-7.73751E-19-1.70833E-18
 -1      3233 1.07833E-04-3.80419E-05-2.98454E-05 4.54057E-06 1.21126E-19-3.32633E-19
 -1      3234 1.09559E-04-3.95604E-05-3.00429E-05 2.93248E-06 3.62818E-20-5.87543E-19
 -1      3235 1.10857E-04-4.15097E-05-2.97742E-05 3.87175E-06-6.01286E-19-8.88904E-19
 -1      3236 1.03972E-04-3.47374E-05-2.96236E-05 6.54289E-06-1.21003E-19 5.24584E-19
 -1      3237 1.05538E-04-3.62751E-05-2.97094E-05 5.63690E-06-7.00953E-20-6.73147E-20
 -1      3238 1.05844E-04-3.76572E-05-2.92851E-05 6.78350E-06-5.06306E-19 1.94371E-19
 -1      3239 1.01043E-04-3.20051E-05-2.95559E-05 7.29404E-06-2.10313E-19 8.68048E-19
 -1      3240 1.02288E-04-3.32556E-05-2.95960E-05 6.93099E-06-4.89401E-20 6.01224E-19
 -1      3241 1.01901E-04-3.40060E-05-2.91469E-05 8.00770E-06-3.03078E-19 4.42129E-19
 -1      3242 9.90017E-05-3.00451E-05-2.95347E-05 7.23897E-06-5.10508E-20 6.33737E-19
 -1      3243 9.99217E-05-3.09373E-05-2.95663E-05 7.24236E-06-1.76448E-19 8.99329E-19
 -1      3244 9.91397E-05-3.11781E-05-2.91594E-05 8.15609E-06-1.18775E-19-3.24297E-19
 -1      3245 9.76511E-05-2.87798E-05-2.95076E-05 6.71637E-06 5.93632E-19 5.98744E-21
 -1      3246 9.83074E-05-2.93578E-05-2.95466E-05 6.94402E-06 4.28287E-19 5.59017E-19
 -1      3247 9.73594E-05-2.92507E-05-2.92098E-05 7.69062E-06 1.19058E-19 2.99411E-19
 -1      3248 9.67852E-05-2.80464E-05-2.94568E-05 5.95446E-06 1.03210E-18-5.49262E-20
 -1      3249 9.72481E-05-2.83863E-05-2.95066E-05 6.30250E-06 6.00336E-19 5.51270E-19
 -1      3250 9.62838E-05-2.80720E-05-2.92453E-05 6.91073E-06 3.86324E-19 9.55386E-20
 -1      3251 9.62394E-05-2.76821E-05-2.93824E-05 5.10179E-06-5.61495E-21 6.90798E-20
 -1      3252 9.65675E-05-2.78574E-05-2.94405E-05 5.49876E-06 1.30550E-18 5.27851E-19
 -1      3253 9.56739E-05-2.74414E-05-2.92488E-05 5.99938E-06 8.62088E-19 4.15013E-19
 -1      3254 9.58968E-05-2.75549E-05-2.92919E-05 4.25145E-06-1.19837E-18 1.22039E-19
 -1      3255 9.61327E-05-2.76241E-05-2.93538E-05 4.65097E-06-1.01784E-18-4.03211E-19
 -1      3256 9.53531E-05-2.71787E-05-2.92208E-05 5.06767E-06 1.19727E-21-3.36482E-19
 -1      3257 9.56803E-05-2.75686E-05-2.91940E-05 3.45851E-06-8.27966E-19-4.17063E-19
 -1      3258 9.58528E-05-2.75740E-05-2.92554E-05 3.83252E-06-7.38091E-19-4.20666E-19
 -1      3259 9.52019E-05-2.71445E-05-2.91690E-05 4.18149E-06-6.37001E-19-6.43731E-19
 -1      3260 9.55413E-05-2.76581E-05-2.90962E-05 2.75223E-06-6.77612E-19-1.48454E-18
 -1      3261 9.56693E-05-2.76284E-05-2.91540E-05 3.08565E-06-6.80314E-19-6.40047E-19
 -1      3262 9.51445E-05-2.72399E-05-2.91027E-05 3.37767E-06-3.30391E-19-1.46085E-18
 -1      3263 9.54499E-05-2.77814E-05-2.90040E-05 2.14457E-06-6.56535E-19-1.66482E-18
 -1      3264 9.55459E-05-2.77351E-05-2.90560E-05 2.43116E-06-7.14037E-19-1.29253E-18
 -1      3265 9.51354E-05-2.73993E-05-2.90301E-05 2.67396E-06-1.26285E-18-1.33410E-18
 -1      3266 9.53880E-05-2.79127E-05-2.89208E-05 1.63618E-06 3.74346E-19-1.14473E-18
 -1      3267 9.54605E-05-2.78612E-05-2.89661E-05 1.87547E-06-3.74978E-19-1.81316E-18
 -1      3268 9.51480E-05-2.75808E-05-2.89576E-05 2.07535E-06-3.06143E-19-1.74431E-18
 -1      3269 9.53445E-05-2.80374E-05-2.88483E-05 1.22076E-06 9.22959E-19-3.21701E-19
 -1      3270 9.53993E-05-2.79874E-05-2.88866E-05 1.41578E-06 1.01313E-18 9.50104E-20
 -1      3271 9.51678E-05-2.77598E-05-2.88894E-05 1.57836E-06-2.48326E-19-1.33564E-18
 -1      3272 9.53129E-05-2.81478E-05-2.87869E-05 8.88424E-07-1.47705E-19 3.99512E-19
 -1      3273 9.53542E-05-2.81028E-05-2.88185E-05 1.04398E-06 6.49629E-19 2.14365E-19
 -1      3274 9.51874E-05-2.79227E-05-2.88280E-05 1.17454E-06 2.42910E-19 1.22438E-19
 -1      3275 9.52897E-05-2.82401E-05-2.87361E-05 6.28660E-07-7.35033E-19 4.65152E-19
 -1      3276 9.53201E-05-2.82031E-05-2.87616E-05 7.48767E-07-4.11572E-19 3.68534E-19
 -1      3277 9.52024E-05-2.80631E-05-2.87745E-05 8.53205E-07-6.88816E-19 5.17135E-19
 -1      3278 9.19353E-05-1.76024E-05-3.18721E-05 1.55743E-06 9.75788E-19-1.60339E-18
 -1      3279 9.17831E-05-1.73714E-05-3.19040E-05 8.92316E-07 7.18702E-19-1.67383E-18
 -1      3280 5.12791E-05-1.92335E-05-1.36705E-05 2.23756E-05 7.15981E-19-2.86774E-18
 -1      3281 4.19355E-05-1.33191E-05-1.18013E-05 1.03221E-05 3.80457E-19-3.07134E-18
 -1      3282 9.50579E-05-2.81047E-05-2.86942E-05-3.57008E-07 4.12519E-19-1.40960E-18
 -1      3283 9.50039E-05-2.80491E-05-2.86968E-05-3.33761E-07 3.76323E-19-6.59279E-19
 -1      3284 9.48330E-05-2.78699E-05-2.86993E-05-3.23770E-08-1.24261E-18-1.65122E-18
 -1      3285 9.48333E-05-2.78705E-05-2.86991E-05 3.39489E-08-6.06386E-19-8.83378E-19
 -1      3286 9.47698E-05-2.77772E-05-2.87090E-05-8.21134E-08-4.88785E-20-6.17146E-19
 -1      3287 1.01501E-04-4.97529E-05-2.25367E-05 3.01844E-05 1.00368E-18-1.78777E-19
 -1      3288 8.86962E-05-4.34163E-05-1.86619E-05 3.51600E-05 1.45467E-18-2.77168E-18
 -1      3289 7.46212E-05-3.39590E-05-1.70639E-05 3.20009E-05 1.32529E-18-2.96784E-18
 -1      3290 1.16479E-04-1.58018E-05-4.36275E-05-8.39548E-06 2.35729E-18-1.68996E-19
 -1      3291 1.19495E-04-2.10400E-05-4.24537E-05-1.23595E-05 2.02949E-18-3.41275E-19
 -1      3292 9.55366E-05-2.68400E-05-2.94447E-05-9.75393E-07 1.05041E-18-2.26106E-19
 -1      3293 9.55566E-05-2.64863E-05-2.95877E-05-2.49179E-07 1.15951E-18-1.93736E-19
 -1      3294 9.56025E-05-2.66121E-05-2.95728E-05-1.16613E-06 9.21994E-19 6.45009E-20
 -1      3295 1.20561E-04-2.62023E-05-4.04537E-05 1.38809E-05 2.26592E-18 8.18181E-19
 -1      3296 1.16486E-04-1.89126E-05-4.23101E-05 1.01418E-05 2.09921E-18 4.04776E-19
 -1      3297 1.28719E-04-2.02159E-05-4.68003E-05 1.16501E-05-2.39626E-18-2.59250E-18
 -1      3298 4.13853E-05-1.18299E-05-1.21678E-05-6.61991E-07-4.86912E-19-3.10628E-18
 -1      3299 4.67557E-05-1.41226E-05-1.37809E-05-1.27679E-05-9.07755E-19-3.78264E-18
 -1      3300 4.92066E-05-1.34768E-05-1.48289E-05 4.45043E-06 1.21728E-19-2.56265E-18
 -1      3301 9.49473E-05-2.79851E-05-2.86976E-05-2.87159E-07 3.16486E-19 1.41314E-18
 -1      3302 9.49049E-05-2.79450E-05-2.86989E-05-2.40273E-07-3.44624E-20 2.93607E-18
 -1      3303 9.48256E-05-2.78323E-05-2.87095E-05-2.39272E-07-6.21341E-19 2.51226E-18
 -1      3304 9.49277E-05-2.79372E-05-2.87091E-05-3.61264E-07-3.67657E-19 4.29524E-19
 -1      3305 9.61972E-05-2.78872E-05-2.92672E-05-6.02376E-06 8.37312E-19-1.67310E-20
 -1      3306 9.59114E-05-2.77642E-05-2.92076E-05-5.67702E-06 8.39801E-19 5.62640E-20
 -1      3307 9.53439E-05-2.73726E-05-2.91347E-05-5.62737E-06 6.01351E-19-2.15276E-19
 -1      3308 9.54780E-05-2.74975E-05-2.91404E-05-6.45034E-06 3.07550E-19 4.57717E-19
 -1      3309 5.40621E-05-2.07346E-05-1.38080E-05-2.44835E-05 2.96258E-18-4.25105E-19
 -1      3310 6.90649E-05-2.97111E-05-1.67051E-05-3.05956E-05 2.33040E-18-1.22894E-18
 -1      3311 1.14552E-04-1.42851E-05-4.33134E-05 6.13001E-06 2.02504E-18 5.36251E-19
 -1      3312 1.14572E-04-1.27246E-05-4.39638E-05-1.49304E-06 2.36015E-18 1.68179E-19
 -1      3313 9.52748E-05-2.40396E-05-3.05324E-05 3.65283E-06 1.59211E-18-3.49714E-19
 -1      3314 9.46549E-05-2.24416E-05-3.09342E-05 4.18069E-06 1.61647E-18-4.64244E-19
 -1      3315 9.49254E-05-2.32185E-05-3.07120E-05 3.01216E-06 1.41831E-18-4.59215E-19
 -1      3316 9.53341E-05-2.49307E-05-3.01838E-05 2.27539E-06 1.40688E-18-3.52828E-19
 -1      3317 9.49657E-05-2.31584E-05-3.07556E-05-3.47034E-06-8.81988E-19-9.52895E-19
 -1      3318 9.51596E-05-2.41959E-05-3.04275E-05-2.20723E-06-8.11968E-19-9.70981E-19
 -1      3319 8.47172E-05-3.84180E-05-1.93946E-05-3.24320E-05-2.75982E-18-1.54094E-18
 -1      3320 9.86363E-05-4.69687E-05-2.23238E-05-3.04622E-05-2.44475E-18-5.66294E-19
 -1      3321 7.03012E-05-3.03376E-05-1.71361E-05 3.20048E-05-1.31364E-18 2.27471E-18
 -1      3322 5.92353E-05-2.21408E-05-1.54223E-05 2.60590E-05 5.17484E-20 2.26698E-18
 -1      3323 1.33059E-04-3.72254E-05-4.12235E-05 1.40670E-05-2.80368E-19-2.50711E-18
 -1      3324 1.35197E-04-4.71396E-05-3.82411E-05 1.09675E-05-1.75548E-19-2.48858E-18
 -1      3325 1.00429E-04-4.85629E-05-2.22594E-05 3.14684E-05-9.02461E-19-2.51648E-19
 -1      3326 8.52282E-05-3.92148E-05-1.93435E-05 3.28931E-05-1.47074E-18 9.78191E-19
 -1      3327 1.25116E-04-2.97451E-05-4.13554E-05-1.38164E-05 1.97163E-18-1.10061E-18
 -1      3328 1.30121E-04-3.93789E-05-3.89534E-05-1.14273E-05 1.24768E-18-8.84832E-19
 -1      3329 1.31397E-04-4.73074E-05-3.64665E-05-5.94174E-06 7.90414E-19-2.00694E-19
 -1      3330 1.29772E-04-5.23162E-05-3.32448E-05 1.34510E-06 9.88382E-20-4.74233E-19
 -1      3331 9.54557E-05-2.50798E-05-3.01469E-05-1.25037E-06-7.06334E-19-8.29812E-19
 -1      3332 9.54979E-05-2.57051E-05-2.99211E-05-2.98676E-07-6.21641E-19-8.84393E-19
 -1      3333 9.54775E-05-2.54328E-05-3.00195E-05-4.65998E-08-6.42165E-19-8.78252E-19
 -1      3334 1.10585E-04-5.16916E-05-2.48922E-05-2.42798E-05-2.33003E-18 3.60618E-19
 -1      3335 1.18582E-04-5.51815E-05-2.75011E-05-1.85668E-05-1.77840E-18 1.14051E-18
 -1      3336 4.25948E-05-1.20577E-05-1.27830E-05-5.18027E-06 3.90288E-18 2.67662E-18
 -1      3337 4.64762E-05-1.55798E-05-1.29316E-05-1.70384E-05 3.77507E-18 3.39872E-19
 -1      3338 5.77081E-05-1.86855E-05-1.62612E-05-1.84880E-05 3.78229E-18 3.59407E-19
 -1      3339 1.33987E-04-3.72980E-05-4.15167E-05-1.47104E-05-8.97537E-19 2.80103E-18
 -1      3340 9.51890E-05-2.82844E-05-2.86729E-05 3.11306E-07 1.06565E-18 1.71514E-19
 -1      3341 5.69909E-05-2.04633E-05-1.52698E-05-2.34623E-05-1.60706E-18-3.30486E-18
 -1      3342 6.98155E-05-2.96267E-05-1.71722E-05-3.12803E-05-2.30864E-18-2.89426E-18
 -1      3343 8.70632E-05-4.04905E-05-1.96182E-05-3.19688E-05 1.37399E-18-2.69986E-18
 -1      3344 1.02767E-04-4.99066E-05-2.28617E-05-2.95335E-05 1.67088E-18-2.89796E-18
 -1      3345 1.25760E-04-5.48060E-05-3.01354E-05-9.37441E-06-8.97292E-19 2.16120E-18
 -1      3346 1.29079E-04-5.14869E-05-3.37142E-05 7.04151E-07 3.63983E-19 2.57953E-18
 -1      3347 4.83493E-05-1.57624E-05-1.38692E-05 1.77073E-05 1.28887E-18 2.52818E-18
 -1      3348 4.28753E-05-1.20788E-05-1.27273E-05 6.01314E-06 2.07418E-18 3.63663E-18
 -1      3349 1.33688E-04-5.27112E-05-3.47795E-05 2.66462E-06-1.11994E-19-2.34062E-18
 -1      3350 1.30569E-04-5.52500E-05-3.22544E-05-2.45945E-06 4.58834E-19-2.56868E-18
 -1      3351 9.17038E-05-1.72504E-05-3.19224E-05 3.54621E-07 5.83680E-19-1.69343E-18
 -1      3352 9.17002E-05-1.72446E-05-3.19232E-05-3.18260E-07 4.20863E-19-1.78168E-18
 -1      3353 9.25715E-05-1.87180E-05-3.16316E-05 5.02630E-07 6.56860E-19-1.54418E-18
 -1      3354 9.41509E-05-2.14548E-05-3.11322E-05 3.00255E-06 1.31382E-18-8.84966E-19
 -1      3355 9.32474E-05-1.97230E-05-3.15337E-05 3.70715E-06 1.31874E-18-1.17896E-18
 -1      3356 9.28169E-05-1.89958E-05-3.16488E-05 3.16125E-06 1.22785E-18-1.43355E-18
 -1      3357 1.19697E-04-3.15012E-05-3.78905E-05 1.30402E-05 1.96607E-18 2.31187E-19
 -1      3358 1.20736E-04-5.28837E-05-2.90579E-05-1.10272E-05-1.48284E-18 2.01473E-18
 -1      3359 1.29995E-04-5.47392E-05-3.22763E-05 1.79847E-06 1.38569E-20 2.39059E-18
 -1      3360 1.27827E-04-5.48640E-05-3.13820E-05 6.25728E-06-4.61805E-19-6.06873E-19
 -1      3361 1.22158E-04-5.37601E-05-2.92583E-05 1.11768E-05-6.80856E-19-8.72245E-19
 -1      3362 1.26448E-04-5.07279E-05-3.25830E-05-4.05102E-07-6.60222E-20 1.13291E-20
 -1      3363 1.12724E-04-4.89094E-05-2.75072E-05 1.64333E-05 7.50623E-19 2.36894E-18
 -1      3364 5.87010E-05-1.90324E-05-1.66032E-05 1.96313E-05 4.67483E-19 1.72615E-18
 -1      3365 4.95617E-05-1.28299E-05-1.52662E-05-3.28123E-07 3.30750E-18 2.53618E-18
 -1      3366 9.50046E-05-2.80554E-05-2.86945E-05 3.32148E-07-1.17824E-19-3.40236E-18
 -1      3367 9.50602E-05-2.81092E-05-2.86919E-05 3.56637E-07 1.69409E-19-2.40685E-18
 -1      3368 9.50991E-05-2.39160E-05-3.05059E-05-1.79198E-06-7.49275E-19-1.04060E-18
 -1      3369 1.15757E-04-2.47832E-05-3.91034E-05-1.26375E-05 9.99049E-19-9.11804E-19
 -1      3370 1.21234E-04-2.71236E-05-4.06670E-05-1.36611E-05 1.39713E-18-8.43274E-19
 -1      3371 9.54983E-05-2.74480E-05-2.91586E-05-2.60129E-06 5.90902E-19-2.78488E-19
 -1      3372 9.55654E-05-2.70991E-05-2.93478E-05-2.29877E-06 5.21622E-19-2.13144E-19
 -1      3373 9.55478E-05-2.75595E-05-2.91341E-05-3.03166E-06 2.14174E-19-1.46034E-19
 -1      3374 1.27391E-04-4.25363E-05-3.64551E-05-9.74949E-06 9.04049E-19-1.12777E-18
 -1      3375 1.12669E-04-1.93923E-05-4.02019E-05 8.08224E-06 2.06512E-18 8.57091E-20
 -1      3376 7.32335E-05-2.77573E-05-1.93996E-05-2.58140E-05 1.79907E-18-1.12677E-18
 -1      3377 8.02258E-05-3.46697E-05-1.92156E-05-3.03604E-05 1.61929E-18-1.99272E-18
 -1      3378 8.94724E-05-3.80309E-05-2.20180E-05-2.70620E-05 1.18657E-18-3.24797E-18
 -1      3379 9.53954E-05-2.73817E-05-2.91526E-05-4.04429E-06 2.42901E-19-5.08247E-19
 -1      3380 9.55937E-05-2.76626E-05-2.91075E-05-3.81562E-06 1.02814E-20-2.05559E-19
 -1      3381 9.54977E-05-2.76023E-05-2.90959E-05-3.44007E-06 3.60888E-20-2.11422E-19
 -1      3382 1.21914E-04-4.23449E-05-3.42733E-05 9.26812E-06 2.69409E-19 4.75139E-19
 -1      3383 1.10605E-04-2.21144E-05-3.79267E-05 9.68542E-06 2.08870E-18 8.88893E-19
 -1      3384 1.12594E-04-2.66386E-05-3.71430E-05 1.22804E-05 1.77899E-18 7.25527E-19
 -1      3385 1.11365E-04-2.27321E-05-3.82496E-05-1.02637E-05 1.45752E-18-6.88684E-19
 -1      3386 1.09707E-04-1.91312E-05-3.89105E-05-6.38094E-06 2.11308E-18 1.42278E-19
 -1      3387 9.52761E-05-2.82578E-05-2.87202E-05 5.47619E-07-2.84824E-19 7.39522E-19
 -1      3388 9.51932E-05-2.81503E-05-2.87341E-05 6.26718E-07-4.33260E-19 5.53407E-19
 -1      3389 9.52485E-05-2.82676E-05-2.87052E-05 4.79862E-07 1.57128E-19 4.59273E-19
 -1      3390 9.21602E-05-1.79508E-05-3.18169E-05 2.07162E-06 1.01424E-18-1.49749E-18
 -1      3391 9.28622E-05-1.91823E-05-3.15565E-05 1.45804E-06 9.07508E-19-1.44454E-18
 -1      3392 9.24559E-05-1.84170E-05-3.17493E-05 2.70197E-06 1.21766E-18-1.47797E-18
 -1      3393 9.49069E-05-2.79506E-05-2.86974E-05 2.40699E-07 2.23904E-19-1.49839E-18
 -1      3394 9.49494E-05-2.79914E-05-2.86958E-05 2.86967E-07 1.77323E-19-2.69104E-18
 -1      3395 9.49320E-05-2.79465E-05-2.87066E-05 3.60010E-07-1.91591E-19-3.09125E-18
 -1      3396 1.12515E-04-4.89412E-05-2.73938E-05-1.66361E-05 1.21349E-18-1.98547E-18
 -1      3397 9.48466E-05-2.78861E-05-2.86988E-05 1.12842E-07-6.35109E-19-8.61910E-19
 -1      3398 9.48698E-05-2.79081E-05-2.86979E-05 1.73893E-07-1.88671E-19-8.94989E-19
 -1      3399 9.48278E-05-2.78387E-05-2.87078E-05 2.40878E-07-4.66109E-19-1.07534E-18
 -1      3400 9.47708E-05-2.77798E-05-2.87084E-05 8.61901E-08-5.29000E-19-1.57927E-18
 -1      3401 1.08408E-04-5.03299E-05-2.47330E-05 2.43304E-05-6.61850E-19-6.37276E-19
 -1      3402 1.30319E-04-2.94217E-05-4.39585E-05 1.59855E-05-1.08505E-18-2.59150E-18
 -1      3403 8.26331E-05-3.47920E-05-2.01400E-05 2.88926E-05-1.54626E-18 9.28560E-19
 -1      3404 8.00873E-05-3.30569E-05-1.98869E-05-2.84254E-05-2.74206E-18-1.79248E-18
 -1      3405 8.25290E-05-3.51060E-05-2.02632E-05 2.88427E-05 1.52789E-18-2.45370E-18
 -1      3406 6.59259E-05-2.60065E-05-1.64458E-05 2.79585E-05 1.01437E-18-2.81337E-18
 -1      3407 1.12126E-04-1.66695E-05-4.11266E-05-3.90837E-06 2.31944E-18 1.74502E-20
 -1      3408 6.24265E-05-2.15067E-05-1.71373E-05 2.17665E-05 9.18793E-19-2.61818E-18
 -1      3409 1.10433E-04-5.07556E-05-2.54056E-05-2.21912E-05 1.35380E-18-2.31213E-18
 -1      3410 5.55641E-05-1.50962E-05-1.72021E-05-1.11629E-05-7.58214E-19-3.04863E-18
 -1      3411 5.53408E-05-1.72488E-05-1.59306E-05-1.79090E-05-1.16065E-18-3.25869E-18
 -1      3412 6.44820E-05-2.08848E-05-1.85402E-05-2.00484E-05-1.60655E-18-2.32749E-18
 -1      3413 1.04210E-04-4.71789E-05-2.43292E-05-2.45020E-05-2.46762E-18 1.68632E-19
 -1      3414 9.54899E-05-2.61120E-05-2.97379E-05 4.19530E-07 1.30950E-18-2.94599E-19
 -1      3415 9.55086E-05-2.55521E-05-2.99674E-05 1.42419E-06 1.29986E-18-2.76004E-19
 -1      3416 9.53617E-05-2.48378E-05-3.02420E-05 1.78537E-06 1.31454E-18-2.49732E-19
 -1      3417 9.55433E-05-2.58589E-05-2.98720E-05 1.72748E-07 1.11130E-18-1.47782E-19
 -1      3418 1.25875E-04-4.70186E-05-3.38691E-05 4.95887E-06 2.27807E-19 1.31592E-18
 -1      3419 9.51302E-05-2.81744E-05-2.86961E-05-4.01196E-07-5.11155E-19-2.80486E-18
 -1      3420 9.50925E-05-2.81397E-05-2.86951E-05-3.80846E-07 4.17494E-19-2.62374E-18
 -1      3421 9.50303E-05-2.80385E-05-2.87096E-05-4.32968E-07-7.82632E-19-1.87546E-18
 -1      3422 9.51132E-05-2.81152E-05-2.87118E-05-4.76281E-07-4.76102E-19-2.82474E-18
 -1      3423 9.51292E-05-2.81929E-05-2.86894E-05 3.76463E-07 6.40577E-19-1.01560E-18
 -1      3424 9.52140E-05-2.82809E-05-2.86844E-05 3.76364E-07 8.68146E-19-2.02417E-19
 -1      3425 9.52314E-05-2.82676E-05-2.86968E-05 4.34072E-07 5.50411E-19 4.46913E-19
 -1      3426 9.50730E-05-2.80959E-05-2.87036E-05 4.30432E-07-7.01255E-19-1.89385E-18
 -1      3427 9.21325E-05-1.79070E-05-3.18238E-05-2.03211E-06-1.21531E-19-1.75877E-18
 -1      3428 9.24204E-05-1.83590E-05-3.17584E-05-2.66849E-06-3.20243E-19-1.81212E-18
 -1      3429 9.42906E-05-2.15899E-05-3.11752E-05-4.88089E-06-1.02857E-18-1.08172E-18
 -1      3430 9.27808E-05-1.89334E-05-3.16606E-05-3.12360E-06-5.23447E-19-1.62626E-18
 -1      3431 9.32190E-05-1.96591E-05-3.15478E-05-3.69084E-06-6.90285E-19-1.48930E-18
 -1      3432 9.33702E-05-2.00398E-05-3.14094E-05-2.28943E-06-4.85125E-19-1.57740E-18
 -1      3433 9.41497E-05-2.13772E-05-3.11977E-05-4.16275E-06-8.72040E-19-1.02650E-18
 -1      3434 9.53859E-05-2.63529E-05-2.95834E-05 1.98376E-06-6.53863E-19-4.63012E-19
 -1      3435 9.52879E-05-2.64922E-05-2.94855E-05 2.49283E-06-4.65570E-19-5.93000E-19
 -1      3436 9.50842E-05-2.65274E-05-2.93824E-05 2.91567E-06-2.79281E-19-5.76756E-19
 -1      3437 9.49321E-05-2.65177E-05-2.93196E-05 3.36528E-06-8.94425E-20-5.18894E-19
 -1      3438 9.50293E-05-2.61713E-05-2.95078E-05 2.48039E-06-3.46848E-19-5.29086E-19
 -1      3439 9.46287E-05-2.64088E-05-2.92411E-05 3.75944E-06 1.12547E-20-5.88894E-19
 -1      3440 9.44327E-05-2.62916E-05-2.92006E-05 4.19183E-06 1.07587E-19-7.42963E-19
 -1      3441 9.45294E-05-2.61193E-05-2.93148E-05 3.29759E-06-1.11149E-19-3.31872E-19
 -1      3442 9.40389E-05-2.60775E-05-2.91335E-05 4.59161E-06 1.99871E-19-8.28368E-19
 -1      3443 9.38041E-05-2.58893E-05-2.91022E-05 5.04053E-06 3.77134E-20-5.10662E-19
 -1      3444 9.38411E-05-2.57971E-05-2.91562E-05 4.08152E-06 7.26674E-20-7.66632E-19
 -1      3445 9.33249E-05-2.56077E-05-2.90318E-05 5.47553E-06-9.15255E-21-3.34909E-19
 -1      3446 9.30590E-05-2.53893E-05-2.89957E-05 5.96653E-06 4.16963E-20-2.74922E-19
 -1      3447 9.29778E-05-2.52850E-05-2.90037E-05 4.89482E-06 1.52314E-19-7.31255E-19
 -1      3448 9.24992E-05-2.50839E-05-2.89053E-05 6.46375E-06-2.84791E-19-4.64601E-19
 -1      3449 9.22203E-05-2.48884E-05-2.88487E-05 7.01714E-06-2.66514E-19-5.19833E-19
 -1      3450 9.19481E-05-2.46663E-05-2.88253E-05 5.79252E-06-2.82308E-19-4.14720E-19
 -1      3451 9.15922E-05-2.46180E-05-2.87190E-05 7.60733E-06-1.39507E-19-7.16876E-19
 -1      3452 9.13419E-05-2.45234E-05-2.86246E-05 8.24284E-06 9.13662E-20-7.73998E-19
 -1      3453 9.07663E-05-2.40431E-05-2.85839E-05 6.83227E-06-2.76000E-19-8.28380E-19
 -1      3454 9.06770E-05-2.43756E-05-2.84333E-05 8.96929E-06 4.39907E-19-1.03048E-18
 -1      3455 9.05404E-05-2.45015E-05-2.82828E-05 9.71122E-06 3.87899E-19-9.05033E-19
 -1      3456 8.94710E-05-2.35560E-05-2.82365E-05 8.09160E-06 1.50735E-19-9.04816E-19
 -1      3457 8.99076E-05-2.46081E-05-2.80054E-05 1.06422E-05 2.53784E-19-7.08907E-19
 -1      3458 9.00468E-05-2.51378E-05-2.77842E-05 1.15227E-05 1.15383E-19-5.05119E-19
 -1      3459 8.81514E-05-2.34132E-05-2.77335E-05 9.69191E-06 6.08564E-19-1.05728E-18
 -1      3460 8.95878E-05-2.57002E-05-2.73973E-05 1.27664E-05 1.25495E-19-6.16039E-19
 -1      3461 9.02912E-05-2.69167E-05-2.71056E-05 1.38169E-05 1.52756E-19-5.84299E-19
 -1      3462 8.69928E-05-2.39309E-05-2.70216E-05 1.18331E-05-2.68875E-20-7.27197E-19
 -1      3463 9.02932E-05-2.82176E-05-2.65994E-05 1.54812E-05 2.62938E-19-2.41989E-19
 -1      3464 9.20294E-05-3.05106E-05-2.62707E-05 1.67006E-05 6.21852E-19-4.87052E-20
 -1      3465 8.63874E-05-2.56257E-05-2.60543E-05 1.48157E-05 4.80726E-19-7.37769E-19
 -1      3466 9.30263E-05-3.29558E-05-2.56603E-05 1.88102E-05 1.01468E-18 1.76363E-19
 -1      3467 9.66497E-05-3.69663E-05-2.54610E-05 1.98290E-05 1.57215E-18 6.65781E-19
 -1      3468 8.71710E-05-2.94398E-05-2.48462E-05 1.89937E-05 9.48836E-19-1.83032E-19
 -1      3469 6.56064E-05-2.18745E-05-1.89170E-05 2.17685E-05-2.28739E-19 9.98917E-19
 -1      3470 5.74391E-05-1.55874E-05-1.76240E-05 1.34045E-05 3.18840E-19 1.23699E-18
 -1      3471 1.02301E-04-4.35610E-05-2.47627E-05-2.29135E-05 1.02559E-18-2.47380E-18
 -1      3472 9.47121E-05-2.28376E-05-3.08049E-05-2.21531E-06-6.98276E-19-1.19360E-18
 -1      3473 9.50135E-05-2.38328E-05-3.05183E-05-1.23064E-06-6.63650E-19-1.06959E-18
 -1      3474 9.26486E-05-3.11746E-05-2.62407E-05-1.66985E-05 8.04225E-19-7.00030E-19
 -1      3475 9.04176E-05-2.85604E-05-2.64948E-05-1.56057E-05-1.33615E-19-9.47696E-19
 -1      3476 9.02251E-05-2.70439E-05-2.70200E-05-1.38403E-05-5.15873E-19-7.50519E-19
 -1      3477 8.94018E-05-2.56745E-05-2.73262E-05-1.27264E-05-6.88482E-19-4.96184E-20
 -1      3478 8.62489E-05-2.57522E-05-2.59081E-05-1.51036E-05-2.01599E-19-7.30440E-19
 -1      3479 8.97665E-05-2.49717E-05-2.77325E-05-1.13760E-05-1.02320E-18-7.41459E-19
 -1      3480 8.95385E-05-2.43277E-05-2.79672E-05-1.04177E-05-2.48545E-19-1.40179E-18
 -1      3481 8.65314E-05-2.37120E-05-2.69181E-05-1.18193E-05-1.11377E-18-2.72970E-19
 -1      3482 9.01102E-05-2.41322E-05-2.82561E-05-9.39253E-06 1.42733E-18-1.40505E-18
 -1      3483 9.01901E-05-2.39334E-05-2.84146E-05-8.57429E-06 1.63600E-18-7.66633E-20
 -1      3484 8.75490E-05-2.29764E-05-2.76623E-05-9.46829E-06 5.01122E-19-1.36281E-18
 -1      3485 9.08021E-05-2.40230E-05-2.86080E-05-7.76693E-06 5.94198E-19 3.91877E-22
 -1      3486 9.10102E-05-2.40757E-05-2.87028E-05-7.05976E-06-2.18990E-19 2.09347E-19
 -1      3487 8.87614E-05-2.29791E-05-2.81784E-05-7.69734E-06 1.27644E-18-1.27078E-18
 -1      3488 9.15861E-05-2.43139E-05-2.88237E-05-6.39941E-06-5.97462E-19 2.49900E-19
 -1      3489 9.18275E-05-2.44958E-05-2.88706E-05-5.78351E-06-2.92462E-19 7.77293E-19
 -1      3490 8.99553E-05-2.33822E-05-2.85177E-05-6.29531E-06-1.53799E-19-7.98863E-19
 -1      3491 9.23340E-05-2.47975E-05-2.89391E-05-5.23028E-06-9.73139E-19 1.00513E-18
 -1      3492 9.25626E-05-2.50340E-05-2.89528E-05-4.69479E-06-1.35684E-18 3.81760E-19
 -1      3493 9.10343E-05-2.39789E-05-2.87260E-05-5.14025E-06-5.94151E-19-7.75492E-19
 -1      3494 9.29895E-05-2.53482E-05-2.89851E-05-4.22690E-06-1.07044E-18 5.62258E-19
 -1      3495 9.31864E-05-2.55957E-05-2.89774E-05-3.76566E-06-3.60727E-19-2.27353E-19
 -1      3496 9.19608E-05-2.46415E-05-2.88412E-05-4.16694E-06-9.99259E-19-3.52463E-19
 -1      3497 9.35355E-05-2.58937E-05-2.89858E-05-3.37064E-06 6.95238E-19-6.13851E-19
 -1      3498 9.36959E-05-2.61285E-05-2.89658E-05-2.97885E-06 1.04834E-18-5.72513E-19
 -1      3499 9.27295E-05-2.52949E-05-2.88926E-05-3.34107E-06 6.05264E-20 2.12411E-19
 -1      3500 9.39746E-05-2.63957E-05-2.89592E-05-2.64844E-06 8.78787E-19-4.72174E-19
 -1      3501 9.41004E-05-2.66058E-05-2.89330E-05-2.32095E-06 5.94854E-19-4.87867E-19
 -1      3502 9.33509E-05-2.58975E-05-2.89025E-05-2.64331E-06 6.29358E-19-1.83210E-19
 -1      3503 9.43185E-05-2.68363E-05-2.89180E-05-2.04810E-06-1.55096E-19-7.42916E-19
 -1      3504 9.44142E-05-2.70170E-05-2.88900E-05-1.77881E-06-1.43463E-19 3.20442E-19
 -1      3505 9.38425E-05-2.64291E-05-2.88868E-05-2.06013E-06 1.58960E-19-5.61120E-20
 -1      3506 9.45817E-05-2.72102E-05-2.88709E-05-1.55667E-06 5.23152E-19-4.46383E-20
 -1      3507 9.46527E-05-2.73613E-05-2.88436E-05-1.33881E-06 9.32668E-19 3.08366E-19
 -1      3508 9.42240E-05-2.68831E-05-2.88569E-05-1.57928E-06 4.08711E-19-9.44307E-19
 -1      3509 9.47791E-05-2.75195E-05-2.88233E-05-1.16087E-06-9.11474E-20 4.72805E-19
 -1      3510 9.48305E-05-2.76427E-05-2.87981E-05-9.87683E-07 3.65792E-20-2.92428E-19
 -1      3511 9.45150E-05-2.72610E-05-2.88206E-05-1.18875E-06 5.50099E-19-1.64007E-19
 -1      3512 9.49240E-05-2.77708E-05-2.87784E-05-8.46440E-07 1.01676E-18-3.86023E-19
 -1      3513 9.49629E-05-2.78697E-05-2.87561E-05-7.12743E-07 1.90252E-18-3.85845E-19
 -1      3514 9.47321E-05-2.75679E-05-2.87826E-05-8.76692E-07 4.68771E-19 1.39056E-18
 -1      3515 9.54844E-05-2.82383E-05-2.88045E-05-8.50312E-06-1.34811E-19-1.24378E-19
 -1      3516 9.49922E-05-2.76900E-05-2.88414E-05-8.11360E-06-7.86837E-20-1.26234E-19
 -1      3517 9.49009E-05-2.73802E-05-2.89251E-05-7.56028E-06-1.19846E-19 1.49022E-21
 -1      3518 9.46439E-05-2.71070E-05-2.89465E-05-7.13610E-06-1.48557E-19 1.77127E-19
 -1      3519 9.37266E-05-2.69087E-05-2.86464E-05-7.98594E-06 1.52415E-20-3.73845E-19
 -1      3520 9.89582E-05-3.24134E-05-2.85015E-05-9.95650E-06-1.14184E-18 4.86858E-19
 -1      3521 9.75951E-05-3.09518E-05-2.85354E-05-9.88978E-06-7.83093E-19 2.22747E-19
 -1      3522 1.02574E-04-3.61721E-05-2.84487E-05-9.93004E-06-1.21650E-18 5.09270E-19
 -1      3523 1.00559E-04-3.41357E-05-2.84149E-05-1.02852E-05-1.18170E-18 5.87557E-19
 -1      3524 9.77203E-05-3.27308E-05-2.79168E-05-1.15211E-05-1.06174E-18 5.35049E-19
 -1      3525 1.07806E-04-4.08867E-05-2.86916E-05-8.63399E-06-1.44825E-18 3.83547E-19
 -1      3526 1.05167E-04-3.84990E-05-2.84854E-05-9.70791E-06-1.34574E-18 2.41421E-19
 -1      3527 1.01800E-04-3.71542E-05-2.78047E-05-1.20359E-05-1.12765E-18 5.34647E-19
 -1      3528 1.14351E-04-4.56195E-05-2.94936E-05-5.20183E-06-1.80406E-18 5.03624E-19
 -1      3529 1.11571E-04-4.35464E-05-2.90211E-05-7.29774E-06-1.57542E-18 6.00940E-19
 -1      3530 1.08097E-04-4.28146E-05-2.81215E-05-1.10902E-05-1.53784E-18 5.61838E-19
 -1      3531 1.08783E-04-4.11809E-05-2.88683E-05 7.88051E-06-1.35082E-18-2.55516E-21
 -1      3532 1.11563E-04-4.33973E-05-2.92321E-05 6.11858E-06-1.41410E-18-3.92628E-19
 -1      3533 1.03185E-04-3.63409E-05-2.85767E-05 9.43260E-06-9.12514E-19 3.30287E-19
 -1      3534 1.05522E-04-3.85790E-05-2.86912E-05 8.69372E-06-8.54464E-19-5.08514E-19
 -1      3535 1.05384E-04-4.00863E-05-2.80881E-05 1.09800E-05-8.46949E-19-2.01412E-19
 -1      3536 9.92987E-05-3.24726E-05-2.85999E-05 9.55435E-06 2.26970E-19-6.04227E-19
 -1      3537 1.01018E-04-3.42644E-05-2.85986E-05 9.41073E-06-1.37566E-19-3.46173E-19
 -1      3538 1.00041E-04-3.49527E-05-2.79769E-05 1.12700E-05 1.59502E-19-1.04832E-18
 -1      3539 9.68546E-05-2.97575E-05-2.87360E-05 8.92155E-06-4.76295E-19-9.10761E-19
 -1      3540 9.79967E-05-3.10003E-05-2.86965E-05 9.12021E-06-3.78680E-19-6.49342E-19
 -1      3541 9.66635E-05-3.10962E-05-2.81478E-05 1.04744E-05 4.70864E-20-1.41882E-18
 -1      3542 9.54514E-05-2.80491E-05-2.88789E-05 7.96548E-06 1.40537E-19 5.56289E-20
 -1      3543 9.61576E-05-2.88287E-05-2.88405E-05 8.34260E-06 2.54135E-20-3.56296E-19
 -1      3544 9.47455E-05-2.85669E-05-2.83899E-05 9.27053E-06-4.10443E-19-1.40826E-18
 -1      3545 9.47322E-05-2.70972E-05-2.89856E-05 6.90116E-06-1.65157E-20 3.36019E-20
 -1      3546 9.51418E-05-2.75320E-05-2.89636E-05 7.35786E-06-1.12639E-20 3.47235E-19
 -1      3547 9.37951E-05-2.70706E-05-2.86108E-05 7.98441E-06-3.51365E-19-6.22276E-19
 -1      3548 9.44329E-05-2.66671E-05-2.90453E-05 5.84161E-06 9.32958E-19 3.37628E-19
 -1      3549 9.46544E-05-2.68660E-05-2.90424E-05 6.31802E-06 7.32025E-19 4.27293E-20
 -1      3550 9.34435E-05-2.63121E-05-2.87769E-05 6.74668E-06 4.92671E-20-6.44610E-19
 -1      3551 9.43731E-05-2.65706E-05-2.90629E-05 4.84660E-06-7.43512E-19 3.92258E-19
 -1      3552 9.44819E-05-2.66195E-05-2.90760E-05 5.30692E-06 1.44325E-19 5.11871E-19
 -1      3553 9.34360E-05-2.60448E-05-2.88837E-05 5.61094E-06 2.47483E-19-3.72511E-19
 -1      3554 9.44373E-05-2.66706E-05-2.90481E-05 3.94702E-06 1.64724E-19-4.71179E-19
 -1      3555 9.44824E-05-2.66313E-05-2.90725E-05 4.37047E-06-4.87589E-19 5.36563E-20
 -1      3556 9.36063E-05-2.60809E-05-2.89389E-05 4.59667E-06 1.44036E-20 1.02452E-18
 -1      3557 9.45557E-05-2.68735E-05-2.90118E-05 3.15702E-06-9.94836E-19 7.42961E-19
 -1      3558 9.45671E-05-2.67880E-05-2.90426E-05 3.53268E-06-2.50778E-19 4.75361E-19
 -1      3559 9.38520E-05-2.62878E-05-2.89544E-05 3.70898E-06-4.98645E-19 8.14991E-19
 -1      3560 9.46883E-05-2.71186E-05-2.89632E-05 2.48022E-06-6.38859E-19-5.39228E-19
 -1      3561 9.46837E-05-2.70139E-05-2.89966E-05 2.80382E-06-4.96858E-19 1.22364E-19
 -1      3562 9.41132E-05-2.65768E-05-2.89423E-05 2.94618E-06-3.61400E-19 2.66151E-18
 -1      3563 9.48139E-05-2.73681E-05-2.89095E-05 1.91321E-06-7.01287E-20-9.30105E-19
 -1      3564 9.48032E-05-2.72610E-05-2.89425E-05 2.18502E-06-4.63439E-19-1.42177E-18
 -1      3565 9.43580E-05-2.68907E-05-2.89127E-05 2.30241E-06-2.55550E-19-3.43883E-19
 -1      3566 9.49224E-05-2.76004E-05-2.88558E-05 1.44750E-06-4.88764E-19-6.10463E-19
 -1      3567 9.49108E-05-2.75005E-05-2.88866E-05 1.67094E-06-3.45623E-20-1.79360E-18
 -1      3568 9.45707E-05-2.71950E-05-2.88738E-05 1.76881E-06 3.63527E-20-2.72867E-19
 -1      3569 9.50109E-05-2.78050E-05-2.88053E-05 1.07236E-06-6.60552E-19 1.41328E-19
 -1      3570 9.50007E-05-2.77170E-05-2.88329E-05 1.25210E-06-7.50878E-19-1.02531E-18
 -1      3571 9.47465E-05-2.74709E-05-2.88313E-05 1.33364E-06-6.77310E-19-9.38751E-19
 -1      3572 9.50795E-05-2.79766E-05-2.87599E-05 7.76323E-07-1.25353E-18 2.27359E-19
 -1      3573 9.50716E-05-2.79034E-05-2.87838E-05 9.17012E-07-6.53996E-19 2.22442E-19
 -1      3574 9.48851E-05-2.77092E-05-2.87891E-05 9.85777E-07-8.56854E-19-2.33741E-19
 -1      3575 9.19135E-05-1.75699E-05-3.18769E-05-1.51899E-06 1.79664E-21-1.72096E-18
 -1      3576 9.28393E-05-1.91453E-05-3.15628E-05-1.43264E-06-8.70245E-20-1.61950E-18
 -1      3577 9.17714E-05-1.73531E-05-3.19069E-05-8.55611E-07 2.55068E-19-1.73275E-18
 -1      3578 1.20727E-04-3.21209E-05-3.80438E-05-1.35964E-05 6.77573E-19-1.28050E-18
 -1      3579 1.14954E-04-5.20397E-05-2.70020E-05 1.82195E-05-7.52668E-19-9.86965E-19
 -1      3580 1.03714E-04-4.60444E-05-2.46224E-05 2.32989E-05-1.28384E-18-5.95616E-19
 -1      3581 1.09745E-04-5.12395E-05-2.50083E-05 2.34093E-05 6.97532E-19 7.19313E-19
 -1      3582 9.55960E-05-2.64269E-05-2.96483E-05-1.36563E-06 7.36065E-19-1.94323E-19
 -1      3583 9.55972E-05-2.60597E-05-2.97941E-05-7.14744E-07 9.32353E-19-3.15414E-19
 -1      3584 9.46783E-05-2.76692E-05-2.87187E-05-1.39163E-07 1.03547E-18 9.78159E-19
 -1      3585 9.46621E-05-2.76559E-05-2.87183E-05-5.03830E-08 4.53787E-19-4.47532E-19
 -1      3586 9.00972E-05-3.70022E-05-2.27200E-05 2.61859E-05 1.66864E-18-1.01382E-18
 -1      3587 8.11500E-05-2.96555E-05-2.19394E-05 2.33816E-05 1.26035E-18-1.37313E-18
 -1      3588 1.22988E-04-4.78279E-05-3.21927E-05 2.48901E-06-3.49308E-19 1.47386E-18
 -1      3589 1.13595E-04-4.86505E-05-2.75873E-05-1.39672E-05-2.02692E-18 1.61829E-18
 -1      3590 1.18182E-04-4.92824E-05-2.96486E-05-6.87604E-06-1.43064E-18 1.78300E-18
 -1      3591 5.41474E-05-1.46045E-05-1.67847E-05 1.05355E-05 3.24758E-19-2.11896E-18
 -1      3592 5.31656E-05-1.32231E-05-1.70009E-05 5.87750E-07 1.17526E-20-2.34596E-18
 -1      3593 1.21658E-04-4.81058E-05-3.14641E-05-7.52322E-07-1.29490E-19-4.76615E-19
 -1      3594 1.23214E-04-4.64625E-05-3.29276E-05-4.36874E-06 8.76481E-19-6.91179E-19
 -1      3595 9.67246E-05-2.98305E-05-2.86513E-05-9.36553E-06-3.99685E-19 2.26194E-19
 -1      3596 9.58715E-05-2.88832E-05-2.86982E-05-9.07662E-06-2.21581E-19-1.02603E-19
 -1      3597 9.41631E-05-2.78813E-05-2.84267E-05-9.18109E-06-2.58315E-19-2.50879E-19
 -1      3598 9.53527E-05-2.97185E-05-2.81670E-05-1.04161E-05-6.16276E-19 4.14689E-19
 -1      3599 9.49424E-05-2.69961E-05-2.91135E-05-4.90891E-06 4.25305E-19-4.92204E-19
 -1      3600 9.49623E-05-2.70124E-05-2.91242E-05-4.51032E-06 4.84123E-19-6.01309E-19
 -1      3601 7.20677E-05-2.46153E-05-2.04593E-05 2.19435E-05 1.11354E-18-2.24604E-18
 -1      3602 6.15208E-05-1.82235E-05-1.82480E-05 1.67462E-05 7.17708E-19-2.17452E-18
 -1      3603 6.49336E-05-1.77515E-05-2.00126E-05 1.24713E-05 2.53554E-19-1.68259E-18
 -1      3604 5.24815E-05-1.30015E-05-1.68881E-05 4.94611E-06 1.90927E-18 1.93971E-18
 -1      3605 5.31323E-05-1.31947E-05-1.69520E-05-5.73267E-06 3.51615E-18 1.23312E-18
 -1      3606 7.58740E-05-2.81278E-05-2.02637E-05-2.49541E-05-2.32648E-18-1.65044E-18
 -1      3607 8.76485E-05-3.63588E-05-2.20797E-05-2.67872E-05-2.77856E-18-9.15590E-19
 -1      3608 1.22242E-04-3.82807E-05-3.63167E-05-1.20424E-05 1.00260E-18-2.11841E-18
 -1      3609 9.54911E-05-2.57805E-05-2.98704E-05 8.75658E-07-4.99775E-19-7.10378E-19
 -1      3610 9.54684E-05-2.61244E-05-2.97240E-05 1.49406E-06-5.27487E-19-5.34414E-19
 -1      3611 9.53114E-05-2.58616E-05-2.97614E-05 1.56057E-06-5.64894E-19-6.64484E-19
 -1      3612 9.95987E-05-4.23993E-05-2.42262E-05 2.38061E-05 1.71016E-18 3.89516E-19
 -1      3613 9.52662E-05-3.81647E-05-2.42990E-05-2.23534E-05 1.31332E-18-2.51703E-18
 -1      3614 9.53258E-05-2.46814E-05-3.02681E-05-5.10793E-07-4.79581E-19-9.57532E-19
 -1      3615 9.54109E-05-2.52928E-05-3.00601E-05 2.71690E-07-4.46713E-19-8.29397E-19
 -1      3616 9.53113E-05-2.50656E-05-3.01001E-05 4.63570E-07-3.71190E-19-7.03239E-19
 -1      3617 5.77069E-05-1.61177E-05-1.76049E-05-1.39674E-05 3.76822E-18 1.32089E-18
 -1      3618 6.41816E-05-2.09536E-05-1.83769E-05-2.11526E-05 2.75193E-18 9.66518E-19
 -1      3619 9.38322E-05-2.08426E-05-3.12920E-05-3.80623E-06-7.23529E-19-1.18598E-18
 -1      3620 9.79381E-05-4.15841E-05-2.38414E-05-2.42522E-05-2.77016E-18-1.48413E-19
 -1      3621 1.07054E-04-4.67796E-05-2.59696E-05-1.97027E-05-2.31413E-18 7.77351E-19
 -1      3622 1.07304E-04-4.43191E-05-2.69977E-05-1.52292E-05-2.04516E-18 1.01598E-18
 -1      3623 9.26991E-05-3.70098E-05-2.38528E-05-2.26089E-05-2.68372E-18-5.68425E-19
 -1      3624 9.03140E-05-3.78687E-05-2.25479E-05 2.65500E-05-1.90980E-18 1.00704E-19
 -1      3625 7.83083E-05-2.94984E-05-2.06057E-05 2.56525E-05-1.46509E-18 9.75504E-19
 -1      3626 1.20680E-04-4.85134E-05-3.09026E-05-1.37153E-06-1.24174E-18 9.99484E-19
 -1      3627 9.47530E-05-2.29671E-05-3.07815E-05 2.31482E-06 1.27953E-18-6.86913E-19
 -1      3628 9.43794E-05-2.21739E-05-3.09485E-05 2.10609E-06 1.14257E-18-9.34556E-19
 -1      3629 9.31752E-05-2.00124E-05-3.13677E-05 6.00849E-07 6.72433E-19-1.37302E-18
 -1      3630 9.31024E-05-1.98919E-05-3.13869E-05 1.60845E-07 5.47638E-19-1.54434E-18
 -1      3631 7.55082E-05-2.55134E-05-2.12083E-05 2.07339E-05-4.48901E-19 6.64656E-20
 -1      3632 9.25644E-05-1.87052E-05-3.16338E-05-4.77478E-07 3.28769E-19-1.62840E-18
 -1      3633 9.54825E-05-2.73208E-05-2.92166E-05-3.22486E-06 2.33182E-19-5.39765E-19
 -1      3634 9.42594E-05-2.17558E-05-3.10604E-05-2.77574E-06-7.04303E-19-1.23506E-18
 -1      3635 9.41661E-05-2.17004E-05-3.10543E-05-2.18141E-06-6.23089E-19-1.25999E-18
 -1      3636 9.47389E-05-2.67006E-05-2.91596E-05-4.18149E-06 2.71022E-19-1.02780E-18
 -1      3637 9.51560E-05-2.70742E-05-2.91735E-05-4.11025E-06 3.35754E-19-7.17119E-19
 -1      3638 9.51989E-05-2.70677E-05-2.91999E-05-3.70641E-06 1.27899E-19-7.06191E-19
 -1      3639 9.51655E-05-2.81807E-05-2.87100E-05 4.94018E-07 2.82450E-19-5.79090E-19
 -1      3640 9.55275E-05-2.68896E-05-2.94170E-05-2.41538E-06 5.95146E-19-4.62760E-19
 -1      3641 9.55652E-05-2.66978E-05-2.95095E-05-1.89737E-06 6.55346E-19-3.64745E-19
 -1      3642 9.55120E-05-2.61853E-05-2.97114E-05-1.49565E-06 8.48284E-19-5.49078E-19
 -1      3643 9.47462E-05-2.69239E-05-2.90707E-05-5.33072E-06 2.26829E-19-2.49946E-19
 -1      3644 9.43502E-05-2.65620E-05-2.90527E-05-5.01210E-06 1.77121E-19-5.00900E-19
 -1      3645 9.47731E-05-2.69352E-05-2.90653E-05-5.74086E-06 2.83836E-19 8.36217E-20
 -1      3646 9.50335E-05-2.79647E-05-2.87426E-05-6.35777E-07 1.57216E-18-1.30747E-18
 -1      3647 9.50638E-05-2.80403E-05-2.87253E-05-5.42121E-07 9.50142E-19-1.93295E-18
 -1      3648 9.50195E-05-2.79974E-05-2.87241E-05-5.22294E-07 8.51466E-20-2.30574E-18
 -1      3649 9.48980E-05-2.78110E-05-2.87506E-05-6.65508E-07 1.62131E-18 1.00005E-18
 -1      3650 7.35037E-05-2.51317E-05-2.05182E-05-2.15389E-05 2.62153E-18-1.92369E-19
 -1      3651 9.37357E-05-2.65087E-05-2.88161E-05-6.89074E-06 1.49176E-19-4.31198E-19
 -1      3652 9.47216E-05-2.70120E-05-2.90084E-05-6.62660E-06 4.36395E-20 4.59528E-19
 -1      3653 9.46096E-05-2.69101E-05-2.90180E-05-6.20251E-06 4.90736E-19 2.43837E-19
 -1      3654 9.50856E-05-2.80504E-05-2.87290E-05 5.89657E-07-6.23914E-20-7.26694E-19
 -1      3655 9.50941E-05-2.80188E-05-2.87446E-05 6.79402E-07-7.18926E-19-1.77406E-19
 -1      3656 9.49580E-05-2.78691E-05-2.87535E-05 7.31590E-07-6.48603E-19-1.88092E-19
 -1      3657 9.32850E-05-2.01937E-05-3.13342E-05-8.91259E-07 6.14007E-20-1.47747E-18
 -1      3658 9.34775E-05-2.05289E-05-3.12783E-05-1.28840E-06-1.19361E-19-1.39460E-18
 -1      3659 9.34101E-05-2.00976E-05-3.13978E-05 2.32662E-06 1.10935E-18-1.37065E-18
 -1      3660 9.35108E-05-2.05771E-05-3.12710E-05 1.31665E-06 8.43633E-19-1.46599E-18
 -1      3661 9.33111E-05-2.02331E-05-3.13286E-05 9.02965E-07 7.19120E-19-1.48637E-18
 -1      3662 9.38307E-05-2.12302E-05-3.10949E-05 5.12674E-07 5.27529E-19-1.36242E-18
 -1      3663 9.47125E-05-2.77042E-05-2.87199E-05-2.41207E-07 2.61763E-19 1.42779E-18
 -1      3664 9.46089E-05-2.75673E-05-2.87294E-05-2.16360E-07 1.28540E-18 3.85705E-19
 -1      3665 9.47597E-05-2.77439E-05-2.87203E-05-3.18213E-07-4.43007E-19 1.69663E-18
 -1      3666 9.46637E-05-2.76584E-05-2.87179E-05 5.85373E-08-4.91524E-19-1.03809E-18
 -1      3667 9.46808E-05-2.76743E-05-2.87177E-05 1.45614E-07-1.83689E-19-1.58859E-18
 -1      3668 9.45708E-05-2.75343E-05-2.87275E-05 5.94733E-09 6.55064E-19 1.58092E-19
 -1      3669 1.17886E-04-5.09136E-05-2.86525E-05 1.12054E-05-9.29380E-19-5.80535E-19
 -1      3670 9.14545E-05-3.38294E-05-2.46104E-05-2.08726E-05 1.52213E-18-1.88998E-18
 -1      3671 9.54460E-05-2.53206E-05-3.00531E-05-2.77204E-07 8.82434E-19-6.12200E-19
 -1      3672 9.55015E-05-2.55379E-05-2.99895E-05-4.32820E-08 8.74844E-19-3.73464E-19
 -1      3673 7.99675E-05-2.66080E-05-2.27052E-05 2.00158E-05 1.16632E-18-1.32935E-18
 -1      3674 6.01540E-05-1.51301E-05-1.90099E-05 8.11809E-06 4.46294E-19 6.56292E-19
 -1      3675 9.49588E-05-2.36942E-05-3.05443E-05-8.70689E-07-5.20559E-19-9.90304E-19
 -1      3676 9.85052E-05-4.14562E-05-2.43024E-05 2.29687E-05-1.68501E-18-6.30861E-19
 -1      3677 9.33515E-05-3.63528E-05-2.44401E-05 2.11664E-05-1.32907E-18-2.91929E-19
 -1      3678 1.04701E-04-4.35065E-05-2.62847E-05 1.76254E-05-1.54652E-18-1.15316E-18
 -1      3679 9.48322E-05-2.78267E-05-2.87188E-05 4.00150E-07 1.02091E-18-2.33840E-18
 -1      3680 9.49030E-05-2.78928E-05-2.87182E-05 4.50675E-07 1.17447E-18-2.90555E-18
 -1      3681 1.15672E-04-4.57578E-05-2.98530E-05 3.94426E-06-1.30963E-18-5.83369E-19
 -1      3682 1.18338E-04-4.67169E-05-3.07081E-05 8.21400E-07-8.45226E-19-6.44053E-19
 -1      3683 5.69471E-05-1.39332E-05-1.81283E-05-4.95498E-06-3.11261E-19-2.63726E-18
 -1      3684 6.24059E-05-1.61677E-05-1.97729E-05-9.56836E-06-6.69374E-19-2.06493E-18
 -1      3685 6.01793E-05-1.43914E-05-1.96593E-05 5.95810E-07-6.00856E-20-1.84248E-18
 -1      3686 9.54400E-05-2.50737E-05-3.01546E-05 6.87126E-07 9.45482E-19-4.83950E-19
 -1      3687 1.24651E-04-4.40819E-05-3.44392E-05-8.54468E-06 1.06853E-18-1.49925E-18
 -1      3688 7.20955E-05-2.43544E-05-2.02657E-05-2.20734E-05-1.92965E-18-1.36473E-18
 -1      3689 7.95983E-05-2.75399E-05-2.22373E-05-2.09061E-05-2.14166E-18-8.09803E-19
 -1      3690 6.90862E-05-2.09773E-05-2.06142E-05-1.73180E-05-1.31954E-18-1.51357E-18
 -1      3691 9.48894E-05-2.78372E-05-2.87347E-05 5.66745E-07 1.19850E-18-9.38748E-19
 -1      3692 9.49803E-05-2.79677E-05-2.87216E-05 5.13561E-07-2.87221E-19-2.35739E-18
 -1      3693 6.01230E-05-1.53631E-05-1.89138E-05-8.76121E-06 2.49294E-18 1.11806E-18
 -1      3694 8.47668E-05-2.95781E-05-2.36440E-05-2.12081E-05 1.37242E-18-1.94290E-18
 -1      3695 1.12674E-04-4.55434E-05-2.88229E-05 8.46136E-06-1.58226E-18-3.09518E-19
 -1      3696 9.49764E-05-2.79602E-05-2.87225E-05-4.94840E-07-5.76997E-19-1.20932E-18
 -1      3697 9.36507E-05-2.07896E-05-3.12343E-05-1.57691E-06-2.40940E-19-1.40197E-18
 -1      3698 9.39482E-05-2.13243E-05-3.11346E-05-1.91868E-06-4.69733E-19-1.30122E-18
 -1      3699 9.44313E-05-2.23157E-05-3.08881E-05-1.43653E-06-4.37821E-19-1.15455E-18
 -1      3700 9.41178E-05-2.17003E-05-3.10125E-05-1.00091E-06-9.51283E-20-1.17972E-18
 -1      3701 9.48910E-05-2.78405E-05-2.87353E-05-5.45110E-07 1.62758E-19-7.08042E-19
 -1      3702 9.49109E-05-2.78930E-05-2.87210E-05-4.51511E-07-8.12091E-19-4.21512E-19
 -1      3703 9.48399E-05-2.78301E-05-2.87211E-05-4.01631E-07-5.11538E-19 6.75574E-19
 -1      3704 9.48183E-05-2.77428E-05-2.87481E-05-6.15137E-07 4.83214E-19-5.76374E-20
 -1      3705 8.15433E-05-2.80852E-05-2.29919E-05 2.03766E-05-1.13260E-18-6.59640E-19
 -1      3706 7.19378E-05-2.10107E-05-2.15726E-05 1.68197E-05-4.97271E-19-2.91882E-19
 -1      3707 9.44469E-05-2.58998E-05-2.93811E-05 2.71142E-06-1.47941E-19-3.76935E-19
 -1      3708 9.41434E-05-2.58021E-05-2.92905E-05 3.09616E-06-1.31977E-19-5.80392E-19
 -1      3709 9.36808E-05-2.56024E-05-2.91830E-05 3.40810E-06-3.71784E-20-4.80462E-19
 -1      3710 9.32857E-05-2.53820E-05-2.91019E-05 3.78658E-06 1.46005E-19-6.24908E-19
 -1      3711 9.36378E-05-2.53891E-05-2.92415E-05 2.81485E-06-8.05019E-20-5.78365E-19
 -1      3712 9.26932E-05-2.50662E-05-2.89925E-05 4.10973E-06 2.71236E-19-7.60506E-19
 -1      3713 9.22113E-05-2.47633E-05-2.89059E-05 4.50922E-06 8.48414E-20-6.30660E-19
 -1      3714 9.25943E-05-2.48700E-05-2.90146E-05 3.41585E-06 1.13153E-19-6.46338E-19
 -1      3715 9.14882E-05-2.43717E-05-2.87772E-05 4.86704E-06-1.00066E-19-5.15714E-19
 -1      3716 9.09237E-05-2.40296E-05-2.86676E-05 5.31232E-06-3.17636E-19-6.27538E-19
 -1      3717 9.12931E-05-2.41444E-05-2.87649E-05 4.04764E-06 1.04948E-19-8.76910E-19
 -1      3718 9.00611E-05-2.36044E-05-2.84989E-05 5.73219E-06-3.15979E-19-4.91179E-19
 -1      3719 8.94246E-05-2.32769E-05-2.83458E-05 6.25401E-06-8.49972E-20-4.09219E-19
 -1      3720 8.97243E-05-2.32925E-05-2.84537E-05 4.75531E-06-1.05471E-19-2.72707E-19
 -1      3721 8.84113E-05-2.28724E-05-2.81116E-05 6.77801E-06-6.16804E-20-5.66198E-19
 -1      3722 8.77314E-05-2.26351E-05-2.78910E-05 7.42236E-06 1.98188E-19-6.22937E-19
 -1      3723 8.78665E-05-2.24027E-05-2.80341E-05 5.60475E-06-1.31981E-19-1.78392E-19
 -1      3724 8.65544E-05-2.23250E-05-2.75591E-05 8.12014E-06 5.69018E-19-7.13341E-19
 -1      3725 8.58937E-05-2.22881E-05-2.72433E-05 8.96348E-06 5.26810E-19-5.43285E-19
 -1      3726 8.56935E-05-2.15862E-05-2.74466E-05 6.70369E-06 3.15870E-19-3.79906E-19
 -1      3727 8.45406E-05-2.21759E-05-2.67719E-05 9.95834E-06 2.21558E-19-7.27973E-19
 -1      3728 8.40230E-05-2.25079E-05-2.63308E-05 1.11288E-05 1.59710E-19-3.91882E-19
 -1      3729 8.31733E-05-2.09881E-05-2.66146E-05 8.24119E-06 3.95512E-19-6.96212E-19
 -1      3730 8.24937E-05-2.27458E-05-2.56628E-05 1.26312E-05 2.28797E-19-7.32356E-19
 -1      3731 8.25383E-05-2.38025E-05-2.51100E-05 1.42883E-05 5.14932E-19-8.28562E-19
 -1      3732 8.03000E-05-2.08295E-05-2.54339E-05 1.05526E-05 6.96072E-20-8.62774E-19
 -1      3733 7.92698E-05-2.43013E-05-2.35354E-05 1.72888E-05 8.35773E-19-1.18000E-18
 -1      3734 9.24961E-05-2.62435E-05-2.83761E-05-8.08548E-06-1.08531E-19-1.51486E-19
 -1      3735 9.24074E-05-2.59597E-05-2.84854E-05-7.50211E-06 1.94524E-20-2.84434E-19
 -1      3736 8.19871E-05-2.37363E-05-2.49291E-05-1.47227E-05 4.11829E-19 2.49195E-19
 -1      3737 8.18180E-05-2.25491E-05-2.54774E-05-1.27967E-05 1.25638E-19 1.25463E-18
 -1      3738 7.63195E-05-2.33782E-05-2.27132E-05-1.74939E-05 1.88809E-18 5.25094E-20
 -1      3739 8.33604E-05-2.22053E-05-2.61809E-05-1.12074E-05-6.79307E-19 1.12258E-18
 -1      3740 8.37999E-05-2.17472E-05-2.66435E-05-9.91545E-06-1.33925E-18 1.07378E-18
 -1      3741 7.94262E-05-2.04230E-05-2.52253E-05-1.07278E-05-2.76886E-19 1.57468E-18
 -1      3742 8.51277E-05-2.17755E-05-2.71344E-05-8.81114E-06-6.23420E-19 1.18015E-18
 -1      3743 8.57315E-05-2.17357E-05-2.74616E-05-7.88051E-06 1.05173E-18 1.41570E-18
 -1      3744 8.22254E-05-2.03897E-05-2.64633E-05-8.16961E-06-4.66855E-19 2.43156E-18
 -1      3745 8.68676E-05-2.19860E-05-2.77994E-05-7.10603E-06 1.49588E-18-4.75136E-20
 -1      3746 8.74964E-05-2.21724E-05-2.80211E-05-6.39048E-06 8.27303E-19-2.81145E-19
 -1      3747 8.46875E-05-2.08693E-05-2.73203E-05-6.46015E-06 1.34558E-19 1.76640E-18
 -1      3748 8.84572E-05-2.25383E-05-2.82483E-05-5.80378E-06 3.31972E-20-8.56626E-19
 -1      3749 8.90423E-05-2.28414E-05-2.83907E-05-5.22404E-06-3.09931E-19-7.38234E-19
 -1      3750 8.67677E-05-2.15965E-05-2.79058E-05-5.23594E-06 6.40697E-20-3.56345E-19
 -1      3751 8.98452E-05-2.32546E-05-2.85380E-05-4.75393E-06-7.17712E-19-8.05627E-19
 -1      3752 9.03571E-05-2.36045E-05-2.86230E-05-4.26696E-06-9.92242E-19-1.11025E-18
 -1      3753 8.85142E-05-2.24446E-05-2.82957E-05-4.28757E-06-7.59495E-19-6.72715E-19
 -1      3754 9.10203E-05-2.40216E-05-2.87135E-05-3.87607E-06-1.12137E-18-1.05662E-18
 -1      3755 9.14506E-05-2.43754E-05-2.87584E-05-3.46052E-06-4.41093E-19-9.43235E-19
 -1      3756 8.99647E-05-2.33222E-05-2.85454E-05-3.51116E-06-9.43164E-19-8.36452E-19
 -1      3757 9.19914E-05-2.47692E-05-2.88093E-05-3.13014E-06-2.82713E-20-6.18360E-19
 -1      3758 9.23428E-05-2.51023E-05-2.88270E-05-2.77520E-06 3.28016E-19-1.05120E-18
 -1      3759 9.11553E-05-2.41691E-05-2.86959E-05-2.85519E-06-3.79738E-20-1.36398E-18
 -1      3760 9.27779E-05-2.54580E-05-2.88509E-05-2.49586E-06 6.51387E-19-1.33789E-18
 -1      3761 9.30585E-05-2.57570E-05-2.88513E-05-2.19537E-06 4.19176E-19-1.69205E-18
 -1      3762 9.21201E-05-2.49495E-05-2.87776E-05-2.29535E-06 3.54687E-19-2.35405E-18
 -1      3763 9.34034E-05-2.60675E-05-2.88576E-05-1.96122E-06 5.86770E-19-1.51911E-18
 -1      3764 9.36229E-05-2.63266E-05-2.88476E-05-1.71013E-06 7.27163E-19-1.11224E-18
 -1      3765 9.28911E-05-2.56434E-05-2.88129E-05-1.81960E-06 2.20672E-19-2.68207E-18
 -1      3766 9.38924E-05-2.65900E-05-2.88430E-05-1.51626E-06-9.94253E-20-1.39907E-18
 -1      3767 9.40610E-05-2.68085E-05-2.88276E-05-1.30952E-06 2.02312E-19-1.56242E-18
 -1      3768 9.34984E-05-2.62420E-05-2.88184E-05-1.41982E-06 3.25725E-19-2.09395E-18
 -1      3769 9.42689E-05-2.70274E-05-2.88168E-05-1.15112E-06 1.30045E-18-9.80115E-19
 -1      3770 9.43963E-05-2.72080E-05-2.87990E-05-9.83868E-07 1.56715E-18-2.85324E-19
 -1      3771 9.39701E-05-2.67466E-05-2.88058E-05-1.08803E-06 9.20129E-19-8.80821E-19
 -1      3772 9.45545E-05-2.73873E-05-2.87852E-05-8.57352E-07 1.27527E-18 4.37285E-20
 -1      3773 9.46519E-05-2.75326E-05-2.87671E-05-7.24233E-07 1.17067E-18 1.07717E-18
 -1      3774 9.43313E-05-2.71637E-05-2.87831E-05-8.18239E-07 2.15384E-18 3.19916E-19
 -1      3775 1.00308E-04-3.71547E-05-2.70128E-05-1.42052E-05-1.10799E-18 1.46659E-19
 -1      3776 9.76120E-05-3.44153E-05-2.70283E-05-1.40189E-05-1.10150E-18 2.73469E-19
 -1      3777 9.59843E-05-3.22295E-05-2.72757E-05-1.28370E-05-1.07492E-18-2.20516E-19
 -1      3778 9.43915E-05-3.03689E-05-2.74115E-05-1.22044E-05-1.02708E-18-1.10429E-20
 -1      3779 9.35788E-05-3.19518E-05-2.64906E-05-1.48340E-05-1.37711E-18-3.93414E-19
 -1      3780 9.61986E-05-3.23607E-05-2.73251E-05 1.27451E-05 5.22664E-19-6.95392E-19
 -1      3781 9.84539E-05-3.47706E-05-2.72552E-05 1.31001E-05 4.27606E-19-2.83144E-19
 -1      3782 9.31634E-05-1.99927E-05-3.13713E-05-5.88858E-07 1.73290E-19-1.54170E-18
 -1      3783 9.38097E-05-2.11869E-05-3.10997E-05-5.27000E-07 1.11504E-19-1.36404E-18
 -1      3784 9.30964E-05-1.98829E-05-3.13881E-05-1.51452E-07 4.30098E-19-1.55663E-18
 -1      3785 9.52312E-05-2.54365E-05-2.99116E-05 1.10356E-06-4.31512E-19-6.54662E-19
 -1      3786 9.51509E-05-2.57174E-05-2.97619E-05 1.59868E-06-4.46327E-19-7.04604E-19
 -1      3787 1.01285E-04-3.81341E-05-2.69856E-05 1.45210E-05-1.58554E-19-6.40451E-19
 -1      3788 1.04658E-04-4.14268E-05-2.70996E-05 1.44055E-05-1.07690E-18-4.15758E-20
 -1      3789 9.24426E-05-2.69361E-05-2.80762E-05 9.19772E-06-8.43851E-19-1.47250E-19
 -1      3790 9.31406E-05-2.78811E-05-2.79383E-05 9.87855E-06-7.86113E-19-7.76866E-19
 -1      3791 9.20552E-05-2.58492E-05-2.83801E-05 7.64727E-06-8.80178E-19 6.00555E-19
 -1      3792 9.23621E-05-2.63530E-05-2.82690E-05 8.30167E-06-7.81916E-19 2.75440E-19
 -1      3793 9.05987E-05-2.56662E-05-2.78395E-05 8.85923E-06-8.75680E-19 1.52820E-18
 -1      3794 9.21314E-05-2.54108E-05-2.86026E-05 6.29996E-06 2.46341E-19 8.53271E-19
 -1      3795 9.22055E-05-2.56150E-05-2.85249E-05 6.89628E-06-4.67967E-19 6.40252E-19
 -1      3796 9.07163E-05-2.49118E-05-2.82043E-05 7.18055E-06-5.67480E-19 1.60231E-18
 -1      3797 9.24455E-05-2.53822E-05-2.87500E-05 5.14167E-06 2.09225E-19 5.98515E-19
 -1      3798 9.23930E-05-2.53972E-05-2.87029E-05 5.67248E-06 5.81533E-19 4.06595E-19
 -1      3799 9.11522E-05-2.47189E-05-2.84692E-05 5.80330E-06 5.33301E-19 8.59254E-19
 -1      3800 9.28582E-05-2.55935E-05-2.88361E-05 4.15207E-06-3.27510E-19 8.52807E-19
 -1      3801 9.27458E-05-2.54983E-05-2.88136E-05 4.61748E-06-8.97362E-20 8.61799E-19
 -1      3802 9.17251E-05-2.48710E-05-2.86477E-05 4.66853E-06 1.60446E-19-1.41359E-19
 -1      3803 9.32884E-05-2.59295E-05-2.88757E-05 3.31270E-06-1.04654E-18 1.99987E-18
 -1      3804 9.31559E-05-2.57777E-05-2.88714E-05 3.71455E-06-8.01257E-19 1.85938E-18
 -1      3805 9.23269E-05-2.52146E-05-2.87576E-05 3.72835E-06-8.59216E-19 1.67584E-18
 -1      3806 9.36910E-05-2.63138E-05-2.88826E-05 2.60753E-06-4.77378E-20 2.17866E-18
 -1      3807 9.35605E-05-2.61403E-05-2.88905E-05 2.94928E-06-4.99209E-19 2.43891E-18
 -1      3808 9.28970E-05-2.56487E-05-2.88159E-05 2.94932E-06-1.05195E-18 2.87251E-18
 -1      3809 9.40444E-05-2.66988E-05-2.88681E-05 2.02232E-06 3.76661E-19 1.46097E-18
 -1      3810 9.39273E-05-2.65254E-05-2.88834E-05 2.30813E-06 4.30768E-19 1.82778E-18
 -1      3811 9.34039E-05-2.61060E-05-2.88376E-05 2.30572E-06 4.70069E-19 2.69318E-18
 -1      3812 9.43405E-05-2.70560E-05-2.88410E-05 1.54358E-06 5.20083E-19-7.17386E-20
 -1      3813 9.42419E-05-2.68957E-05-2.88601E-05 1.77864E-06 7.46211E-19 3.56082E-19
 -1      3814 9.38356E-05-2.65461E-05-2.88347E-05 1.77867E-06 1.45775E-18 1.80442E-18
 -1      3815 9.45797E-05-2.73707E-05-2.88077E-05 1.15618E-06-1.11428E-18-4.23070E-19
 -1      3816 9.44999E-05-2.72289E-05-2.88280E-05 1.34766E-06-5.60284E-19-7.05698E-19
 -1      3817 9.41904E-05-2.69447E-05-2.88168E-05 1.35216E-06 9.44894E-20-8.74382E-21
 -1      3818 9.47679E-05-2.76371E-05-2.87727E-05 8.50785E-07-5.31378E-19 2.20132E-19
 -1      3819 9.47063E-05-2.75190E-05-2.87924E-05 1.00183E-06-6.86369E-19 3.78624E-19
 -1      3820 9.44727E-05-2.72923E-05-2.87906E-05 1.01071E-06-1.20877E-18-3.72944E-19
 -1      3821 9.40642E-05-2.15711E-05-3.10840E-05 1.92625E-06 1.03570E-18-1.28440E-18
 -1      3822 9.37585E-05-2.10014E-05-3.11887E-05 1.57694E-06 9.04357E-19-1.34769E-18
 -1      3823 9.41742E-05-2.18655E-05-3.09736E-05 9.73809E-07 7.83574E-19-1.36056E-18
 -1      3824 9.46790E-05-2.28851E-05-3.07564E-05 1.32217E-06 9.73365E-19-9.48391E-19
 -1      3825 9.53650E-05-2.70702E-05-2.92670E-05-3.30105E-06 1.32698E-19-5.91355E-19
 -1      3826 9.54138E-05-2.69954E-05-2.93203E-05-2.86190E-06 3.34382E-19-4.97536E-19
 -1      3827 9.50951E-05-2.67548E-05-2.92893E-05-3.36375E-06 3.28945E-19-7.83980E-19
 -1      3828 9.53691E-05-2.52242E-05-3.00688E-05-5.46753E-07 8.15492E-19-7.39015E-19
 -1      3829 9.52592E-05-2.46209E-05-3.02719E-05 1.25374E-07 7.76710E-19-8.99792E-19
 -1      3830 9.50726E-05-2.80573E-05-2.87203E-05 5.38138E-07-2.10812E-20-1.51898E-18
 -1      3831 9.47655E-05-2.77566E-05-2.87180E-05 3.21959E-07 4.04333E-19-2.52674E-18
 -1      3832 9.47286E-05-2.76882E-05-2.87296E-05 4.18081E-07 1.09333E-18-3.31951E-18
 -1      3833 9.47173E-05-2.77127E-05-2.87181E-05 2.47506E-07-2.07237E-19-1.55792E-18
 -1      3834 9.51016E-05-2.39612E-05-3.04834E-05 2.08138E-06 1.27648E-18-4.14276E-19
 -1      3835 9.52670E-05-2.44768E-05-3.03305E-05 1.20926E-06 1.10541E-18-5.37870E-19
 -1      3836 1.20406E-04-5.03701E-05-3.00962E-05 5.57095E-06-5.76552E-19-2.85579E-19
 -1      3837 6.41985E-05-1.66639E-05-2.05779E-05 1.08059E-05 9.53177E-20 5.85670E-19
 -1      3838 6.09439E-05-1.39810E-05-1.99870E-05 2.73835E-06 7.57234E-19 6.10446E-19
 -1      3839 6.95311E-05-1.88965E-05-2.17215E-05 1.26825E-05 5.00209E-19-1.21409E-18
 -1      3840 6.39315E-05-1.53540E-05-2.05202E-05 7.45777E-06 1.82688E-19-1.18160E-18
 -1      3841 9.51672E-05-2.44663E-05-3.02897E-05 6.72220E-08-2.64475E-19-6.93615E-19
 -1      3842 9.52217E-05-2.50208E-05-3.00957E-05 6.74602E-07-3.38173E-19-7.53292E-19
 -1      3843 9.50723E-05-2.48419E-05-3.00916E-05 7.37218E-07-3.13582E-19-6.22320E-19
 -1      3844 9.47592E-05-2.33299E-05-3.06273E-05-7.12491E-07-3.02814E-19-9.85695E-19
 -1      3845 6.11350E-05-1.43966E-05-2.00019E-05-4.09145E-06 1.29187E-18-2.30393E-19
 -1      3846 6.53303E-05-1.70903E-05-2.06059E-05-1.18027E-05 2.35426E-18 6.22066E-19
 -1      3847 9.36459E-05-2.89825E-05-2.77051E-05 1.09382E-05-2.66732E-19-7.56950E-19
 -1      3848 9.49674E-05-3.05496E-05-2.75663E-05 1.15588E-05 4.34059E-19-4.60424E-19
 -1      3849 9.10953E-05-2.72666E-05-2.73733E-05 1.08978E-05-4.63918E-19 2.90849E-19
 -1      3850 9.48401E-05-2.77684E-05-2.87460E-05 6.48392E-07 8.95722E-20 1.14892E-19
 -1      3851 9.48226E-05-2.77096E-05-2.87605E-05 7.52154E-07-4.88977E-19 4.02424E-19
 -1      3852 9.46472E-05-2.75329E-05-2.87643E-05 7.59501E-07-1.21531E-18-5.93407E-20
 -1      3853 9.47522E-05-2.76917E-05-2.87417E-05 5.76822E-07 1.22832E-18-1.22490E-18
 -1      3854 9.51262E-05-2.40992E-05-3.04375E-05 9.37842E-07 9.04099E-19-6.38837E-19
 -1      3855 1.03376E-04-4.06800E-05-2.67507E-05-1.56948E-05-1.81586E-18 5.27840E-19
 -1      3856 9.49751E-05-2.58766E-05-2.96155E-05 1.96275E-06-2.80737E-19-6.02794E-19
 -1      3857 9.47737E-05-2.59425E-05-2.95016E-05 2.38592E-06-2.22235E-19-5.44700E-19
 -1      3858 9.49148E-05-2.54733E-05-2.97534E-05 1.51979E-06-2.54633E-19-5.96539E-19
 -1      3859 7.53440E-05-2.11870E-05-2.31507E-05 1.46685E-05 6.02230E-19-1.50762E-18
 -1      3860 7.23365E-05-2.00220E-05-2.23335E-05-1.43897E-05 2.12167E-18 1.23840E-18
 -1      3861 1.14141E-04-4.84846E-05-2.81262E-05 1.18209E-05-1.20946E-18-2.65287E-19
 -1      3862 9.50955E-05-2.41214E-05-3.04180E-05 4.59811E-07 8.79858E-19-9.28836E-19
 -1      3863 9.49041E-05-2.35293E-05-3.05946E-05 9.59955E-07 9.74490E-19-9.54018E-19
 -1      3864 9.46349E-05-2.29425E-05-3.07255E-05 8.52183E-07 9.01915E-19-1.03010E-18
 -1      3865 9.50221E-05-2.40280E-05-3.04218E-05 1.73809E-07 8.61136E-19-1.02305E-18
 -1      3866 1.09991E-04-4.54649E-05-2.75359E-05 1.35244E-05-1.53686E-18-4.38432E-19
 -1      3867 9.36994E-05-2.10009E-05-3.11354E-05-3.59143E-09 3.81455E-19-1.40263E-18
 -1      3868 9.64878E-05-3.54047E-05-2.61944E-05 1.64095E-05-1.95355E-19 1.65926E-19
 -1      3869 7.20933E-05-1.82796E-05-2.30949E-05-1.03649E-05 9.61329E-19 3.53942E-19
 -1      3870 9.26858E-05-3.01248E-05-2.68380E-05 1.33003E-05 2.57740E-19 9.11947E-19
 -1      3871 9.23271E-05-2.65593E-05-2.81914E-05-8.86070E-06-4.80934E-20-7.10052E-20
 -1      3872 9.09462E-05-2.55690E-05-2.80251E-05-8.36327E-06-2.93952E-20-1.07201E-19
 -1      3873 9.27134E-05-2.71934E-05-2.80537E-05-9.50627E-06-3.13655E-19-1.59992E-19
 -1      3874 9.46631E-05-2.75724E-05-2.87519E-05-5.93695E-07 9.50542E-20 1.58901E-19
 -1      3875 9.43122E-05-2.63330E-05-2.91303E-05-4.08677E-06 1.72180E-19-7.58428E-19
 -1      3876 9.45064E-05-2.63968E-05-2.91936E-05-3.68152E-06 2.64331E-19-9.52701E-19
 -1      3877 9.53708E-05-2.66202E-05-2.94651E-05-2.49499E-06 5.91178E-19-6.95587E-19
 -1      3878 9.39874E-05-2.64521E-05-2.89454E-05-5.90443E-06 1.55857E-19 1.59627E-19
 -1      3879 9.79600E-05-3.77735E-05-2.57853E-05-1.82067E-05-1.80589E-18 2.85410E-20
 -1      3880 7.17448E-05-1.93608E-05-2.22683E-05 1.19036E-05-2.46645E-19-4.14100E-19
 -1      3881 9.27305E-05-2.59001E-05-2.86292E-05-6.86575E-06 8.85381E-20-5.86559E-19
 -1      3882 9.28105E-05-2.58336E-05-2.87125E-05-6.34713E-06 1.40777E-19-4.61674E-19
 -1      3883 9.14678E-05-2.52529E-05-2.83782E-05-6.93711E-06-5.00424E-21-6.20884E-19
 -1      3884 9.44196E-05-2.56205E-05-2.94783E-05 2.19792E-06-1.17494E-19-5.76789E-19
 -1      3885 9.41032E-05-2.20372E-05-3.08946E-05-2.12019E-07 1.59081E-19-1.33874E-18
 -1      3886 9.42232E-05-2.22602E-05-3.08558E-05-4.43107E-07 5.03447E-20-1.33156E-18
 -1      3887 9.47039E-05-2.32939E-05-3.06091E-05-4.46946E-07-1.60114E-19-8.89844E-19
 -1      3888 6.55843E-05-1.52592E-05-2.14340E-05-8.07484E-07 6.82096E-19-3.41209E-19
 -1      3889 9.54020E-05-2.60332E-05-2.97337E-05-1.60926E-06 7.35214E-19-6.94790E-19
 -1      3890 9.54289E-05-2.56974E-05-2.98825E-05-1.06090E-06 8.01524E-19-5.53488E-19
 -1      3891 9.52544E-05-2.50481E-05-3.00836E-05-6.88990E-07 6.97221E-19-8.96289E-19
 -1      3892 7.36206E-05-1.89321E-05-2.35091E-05 1.03251E-05 1.25963E-19-8.14250E-19
 -1      3893 9.47326E-05-2.76882E-05-2.87320E-05-4.14117E-07-4.52530E-20 1.29513E-18
 -1      3894 9.42256E-05-2.22604E-05-3.08513E-05 3.95218E-07 4.98943E-19-1.27103E-18
 -1      3895 9.41112E-05-2.20514E-05-3.08912E-05 1.99120E-07 4.45346E-19-1.22370E-18
 -1      3896 9.44402E-05-2.73920E-05-2.87361E-05-5.06605E-08 1.62929E-18 1.36123E-18
 -1      3897 9.44421E-05-2.73943E-05-2.87357E-05 6.88971E-08 9.27731E-19-1.42996E-19
 -1      3898 9.46116E-05-2.75758E-05-2.87277E-05 2.27958E-07-2.43150E-19-2.00387E-18
 -1      3899 9.37541E-05-2.61108E-05-2.89842E-05-4.90720E-06 1.01420E-19-4.97413E-19
 -1      3900 9.39515E-05-2.61987E-05-2.90427E-05-4.48404E-06 1.10459E-19-7.61548E-19
 -1      3901 9.37250E-05-2.58899E-05-2.90689E-05-3.97758E-06 1.01524E-19-7.67343E-19
 -1      3902 6.56130E-05-1.57380E-05-2.13116E-05 2.43280E-06-2.37235E-20-1.46212E-18
 -1      3903 9.40464E-05-2.19462E-05-3.09105E-05 9.25169E-08 3.13972E-19-1.32679E-18
 -1      3904 9.40377E-05-2.19377E-05-3.09115E-05-1.17902E-07 2.32951E-19-1.31177E-18
 -1      3905 9.44380E-05-2.28136E-05-3.06804E-05-7.50517E-08 1.70684E-19-1.06654E-18
 -1      3906 9.44562E-05-2.28235E-05-3.06786E-05 2.79568E-08 2.85700E-19-1.09877E-18
 -1      3907 9.37083E-05-2.90758E-05-2.76690E-05-1.11363E-05-8.09794E-19-1.26851E-19
 -1      3908 9.28409E-05-2.79103E-05-2.78244E-05-1.04515E-05-5.45770E-19-3.08214E-19
 -1      3909 9.08451E-05-2.65373E-05-2.75780E-05-1.01321E-05-2.79510E-19-5.13032E-19
 -1      3910 6.70006E-05-1.68617E-05-2.15956E-05-7.88641E-06-3.79934E-19-1.39236E-18
 -1      3911 6.74870E-05-1.82792E-05-2.08904E-05-1.30452E-05-9.77822E-19-1.73510E-18
 -1      3912 7.34246E-05-2.12300E-05-2.23629E-05-1.46696E-05-1.23318E-18-8.71015E-19
 -1      3913 9.45045E-05-2.74482E-05-2.87392E-05-3.04657E-07 1.54380E-18 4.15286E-19
 -1      3914 9.44622E-05-2.74126E-05-2.87378E-05-1.95161E-07 1.55394E-18 7.21129E-19
 -1      3915 9.43324E-05-2.72528E-05-2.87457E-05-1.38667E-07 1.91905E-18 4.21569E-19
 -1      3916 8.17502E-05-2.72937E-05-2.33815E-05-1.88418E-05-1.62898E-18-8.48813E-19
 -1      3917 8.58485E-05-3.06073E-05-2.34624E-05-2.11010E-05-2.17669E-18-1.16977E-18
 -1      3918 9.31541E-05-3.38919E-05-2.53753E-05 1.76966E-05-6.80392E-19 4.51194E-20
 -1      3919 8.69963E-05-3.06833E-05-2.39940E-05 1.99794E-05-1.12722E-18-9.04423E-20
 -1      3920 8.25743E-05-2.63924E-05-2.41608E-05 1.69724E-05-8.39591E-19-5.05933E-19
 -1      3921 9.04543E-05-3.04255E-05-2.57890E-05 1.57248E-05-3.61093E-19 9.56658E-19
 -1      3922 9.46541E-05-2.75985E-05-2.87387E-05 4.83768E-07 1.36915E-18-4.00483E-18
 -1      3923 9.46027E-05-2.75160E-05-2.87493E-05 5.63884E-07 4.07146E-19-3.35480E-18
 -1      3924 9.45781E-05-2.75290E-05-2.87371E-05 3.98439E-07 3.85606E-19-4.89505E-18
 -1      3925 9.38756E-05-3.58648E-05-2.48741E-05-1.96074E-05-2.12393E-18-5.27874E-19
 -1      3926 9.45514E-05-2.30322E-05-3.06581E-05-2.92029E-07-4.08952E-20-1.02780E-18
 -1      3927 9.47673E-05-2.36442E-05-3.04758E-05 6.17175E-08-8.98270E-20-1.04328E-18
 -1      3928 9.15593E-05-2.85793E-05-2.70409E-05-1.23373E-05-9.16508E-19-4.51638E-19
 -1      3929 9.25755E-05-2.48124E-05-2.90493E-05 2.60542E-06 1.21670E-19-4.85713E-19
 -1      3930 9.19816E-05-2.44895E-05-2.89291E-05 2.88279E-06 1.63978E-19-5.40683E-19
 -1      3931 9.12121E-05-2.40832E-05-2.87804E-05 3.08084E-06 1.23317E-19-5.45952E-19
 -1      3932 9.04864E-05-2.36733E-05-2.86388E-05 3.37385E-06 2.76959E-19-4.18548E-19
 -1      3933 9.12978E-05-2.40266E-05-2.88162E-05 2.23807E-06 1.21954E-19-1.13686E-20
 -1      3934 8.95460E-05-2.31867E-05-2.84549E-05 3.58753E-06 2.95588E-19-4.44039E-19
 -1      3935 8.86772E-05-2.27251E-05-2.82708E-05 3.91798E-06-1.09178E-19-9.96224E-20
 -1      3936 8.96106E-05-2.31221E-05-2.84761E-05 2.57765E-06 1.96389E-19-2.73314E-19
 -1      3937 8.75358E-05-2.21912E-05-2.80264E-05 4.17159E-06-8.99482E-20 6.51825E-20
 -1      3938 8.65112E-05-2.17218E-05-2.77731E-05 4.57570E-06 7.01519E-20 1.40273E-19
 -1      3939 8.75566E-05-2.20738E-05-2.80393E-05 2.93616E-06 1.02152E-19-2.85276E-19
 -1      3940 8.51196E-05-2.11784E-05-2.74345E-05 4.90514E-06-6.91722E-20-1.56778E-19
 -1      3941 8.39204E-05-2.07536E-05-2.70777E-05 5.44427E-06 8.21680E-21-4.03422E-19
 -1      3942 8.50644E-05-2.09419E-05-2.74465E-05 3.37364E-06-1.02129E-19 6.43199E-20
 -1      3943 8.21911E-05-2.02348E-05-2.65989E-05 5.91348E-06 2.57358E-19-8.05954E-19
 -1      3944 8.07969E-05-1.99140E-05-2.60934E-05 6.69854E-06 2.32608E-19-7.78507E-19
 -1      3945 8.20018E-05-1.97834E-05-2.66164E-05 3.97059E-06-1.01473E-19-9.56946E-19
 -1      3946 7.85659E-05-1.94600E-05-2.54033E-05 7.45420E-06 1.38781E-19-9.70272E-19
 -1      3947 7.70111E-05-1.93451E-05-2.46935E-05 8.68447E-06-2.74169E-21-8.32713E-19
 -1      3948 7.81175E-05-1.86071E-05-2.54323E-05 4.87072E-06 8.83011E-20-1.14456E-18
 -1      3949 6.94830E-05-1.65543E-05-2.27402E-05 3.72090E-06 1.31495E-19-8.32534E-19
 -1      3950 6.72849E-05-1.55044E-05-2.19954E-05-2.22710E-06-3.28997E-19-1.49110E-18
 -1      3951 9.51900E-05-2.64030E-05-2.94812E-05-2.50333E-06 4.53085E-19-6.98064E-19
 -1      3952 9.53010E-05-2.62578E-05-2.95894E-05-2.04131E-06 7.35671E-19-6.86471E-19
 -1      3953 9.52135E-05-2.57979E-05-2.97460E-05-1.63197E-06 7.00558E-19-6.16309E-19
 -1      3954 7.58657E-05-1.88806E-05-2.44370E-05-8.84310E-06 2.94026E-19 7.36078E-19
 -1      3955 7.74099E-05-1.88605E-05-2.51848E-05-7.49311E-06-2.47886E-19 1.07298E-18
 -1      3956 7.06458E-05-1.65445E-05-2.30652E-05-6.67113E-06 7.62293E-19-7.17374E-19
 -1      3957 7.96899E-05-1.92493E-05-2.59087E-05-6.64053E-06 8.06832E-20 1.80067E-18
 -1      3958 8.10870E-05-1.95216E-05-2.64336E-05-5.76710E-06 2.67559E-19 2.21827E-18
 -1      3959 7.68770E-05-1.78582E-05-2.52007E-05-4.80067E-06 8.45114E-19 9.38486E-19
 -1      3960 8.27955E-05-1.99910E-05-2.69251E-05-5.25898E-06-8.53344E-19 1.97502E-18
 -1      3961 8.39584E-05-2.03646E-05-2.72873E-05-4.65900E-06-6.06060E-19 1.15336E-18
 -1      3962 8.07956E-05-1.89906E-05-2.64328E-05-3.82292E-06-5.18473E-19 1.27006E-18
 -1      3963 8.53077E-05-2.08659E-05-2.76244E-05-4.28244E-06-2.41074E-19 5.84996E-19
 -1      3964 8.62802E-05-2.13046E-05-2.78695E-05-3.83178E-06-4.78786E-19-2.59936E-19
 -1      3965 8.37767E-05-2.00462E-05-2.72746E-05-3.14404E-06-8.37744E-19 1.18653E-18
 -1      3966 8.73633E-05-2.18186E-05-2.80967E-05-3.54225E-06-7.58646E-19-5.16622E-19
 -1      3967 8.81724E-05-2.22764E-05-2.82577E-05-3.17796E-06-6.62213E-19-3.10399E-19
 -1      3968 8.61688E-05-2.11221E-05-2.78480E-05-2.64065E-06-6.80689E-19-1.62572E-19
 -1      3969 8.90481E-05-2.27766E-05-2.84073E-05-2.93489E-06-9.76657E-19-7.16972E-19
 -1      3970 8.97152E-05-2.32256E-05-2.85084E-05-2.62543E-06-8.81752E-19-8.19055E-19
 -1      3971 8.80959E-05-2.21714E-05-2.82321E-05-2.23575E-06-6.17689E-19-1.05851E-19
 -1      3972 9.04274E-05-2.36970E-05-2.86028E-05-2.41577E-06-3.97996E-19-9.72236E-19
 -1      3973 9.09705E-05-2.41165E-05-2.86619E-05-2.14869E-06-3.03534E-19-1.66755E-18
 -1      3974 8.96632E-05-2.31666E-05-2.84822E-05-1.87339E-06-6.28297E-19-2.87577E-19
 -1      3975 9.15452E-05-2.45450E-05-2.87174E-05-1.96546E-06 4.17600E-20-2.02281E-18
 -1      3976 9.19822E-05-2.49239E-05-2.87474E-05-1.73480E-06 2.21385E-19-1.99528E-18
 -1      3977 9.09342E-05-2.40852E-05-2.86369E-05-1.55291E-06-3.72722E-19-8.91635E-20
 -1      3978 9.24412E-05-2.53016E-05-2.87762E-05-1.57687E-06-7.17755E-20-1.82517E-18
 -1      3979 9.27873E-05-2.56330E-05-2.87869E-05-1.37892E-06 6.43274E-20-1.85115E-18
 -1      3980 9.19563E-05-2.49081E-05-2.87248E-05-1.26538E-06 1.33620E-19 1.53363E-20
 -1      3981 9.31510E-05-2.59585E-05-2.87981E-05-1.24373E-06 3.26189E-19-1.70512E-18
 -1      3982 9.34213E-05-2.62412E-05-2.87969E-05-1.07682E-06 4.76072E-19-1.41773E-18
 -1      3983 9.27684E-05-2.56260E-05-2.87674E-05-1.01287E-06-2.44209E-20 3.96715E-19
 -1      3984 9.37056E-05-2.65140E-05-2.87969E-05-9.63696E-07 9.94884E-19-1.05235E-18
 -1      3985 9.39137E-05-2.67506E-05-2.87885E-05-8.23887E-07 1.94308E-18-5.57150E-19
 -1      3986 9.34092E-05-2.62411E-05-2.87806E-05-7.96208E-07 1.37936E-18-3.49303E-19
 -1      3987 9.41342E-05-2.69771E-05-2.87816E-05-7.30866E-07 2.21165E-18-7.92869E-20
 -1      3988 9.42897E-05-2.71693E-05-2.87691E-05-6.17969E-07 1.87648E-18-1.34912E-19
 -1      3989 9.39054E-05-2.67550E-05-2.87753E-05-6.13599E-07 2.52434E-18-3.61236E-19
 -1      3990 9.31961E-05-2.59176E-05-2.88251E-05-5.81917E-06 1.16334E-19-4.34539E-19
 -1      3991 9.33616E-05-2.59673E-05-2.88906E-05-5.35569E-06 2.04268E-19-4.32952E-19
 -1      3992 9.29724E-05-2.55899E-05-2.88750E-05-4.81251E-06 1.03506E-20-8.52169E-19
 -1      3993 9.21900E-05-2.53261E-05-2.86537E-05-5.77826E-06 2.89133E-19-9.81831E-19
 -1      3994 9.46414E-05-2.36046E-05-3.04404E-05 8.65573E-08-1.80468E-20-1.08745E-18
 -1      3995 9.49116E-05-2.43086E-05-3.02607E-05 2.97911E-07-1.26518E-19-9.29238E-19
 -1      3996 9.49221E-05-2.47704E-05-3.00691E-05 7.20035E-07-8.51625E-20-8.91244E-19
 -1      3997 9.45152E-05-2.74138E-05-2.87583E-05 6.47912E-07-7.46471E-19-2.05918E-18
 -1      3998 9.44592E-05-2.73245E-05-2.87696E-05 7.47650E-07-1.69941E-18-2.16578E-18
 -1      3999 9.44144E-05-2.73186E-05-2.87543E-05 5.42331E-07 3.80361E-19-4.91424E-18
 -1      4000 8.87174E-05-2.42241E-05-2.76594E-05 7.99826E-06-1.25339E-18 1.58645E-18
 -1      4001 8.87679E-05-2.46999E-05-2.74335E-05 8.92540E-06-1.07849E-18 1.33252E-18
 -1      4002 9.10581E-05-2.44067E-05-2.85772E-05 3.98856E-06-4.01474E-19 1.85370E-18
 -1      4003 9.07541E-05-2.42377E-05-2.85012E-05 4.48235E-06 8.84488E-19 1.68192E-18
 -1      4004 9.18490E-05-2.49000E-05-2.87027E-05 3.14616E-06-1.74185E-18 2.53323E-18
 -1      4005 9.15486E-05-2.46712E-05-2.86581E-05 3.55315E-06-1.06284E-18 1.33297E-18
 -1      4006 9.06479E-05-2.40651E-05-2.85265E-05 3.36302E-06-3.50449E-19 3.93499E-18
 -1      4007 9.25528E-05-2.54357E-05-2.87728E-05 2.46343E-06-4.55755E-19 2.17356E-18
 -1      4008 9.22788E-05-2.51875E-05-2.87510E-05 2.79989E-06-1.26021E-18 2.27115E-18
 -1      4009 9.15655E-05-2.46658E-05-2.86627E-05 2.62615E-06-1.09676E-18 3.06774E-18
 -1      4010 9.31563E-05-2.59636E-05-2.88037E-05 1.90895E-06 9.14974E-19 1.54278E-18
 -1      4011 9.29186E-05-2.57196E-05-2.87978E-05 2.18560E-06 6.15787E-19 1.97369E-18
 -1      4012 9.23570E-05-2.52771E-05-2.87411E-05 2.03755E-06 2.79704E-20 7.19959E-19
 -1      4013 9.36582E-05-2.64523E-05-2.88084E-05 1.46046E-06 1.59094E-18 7.82481E-19
 -1      4014 9.34595E-05-2.62269E-05-2.88127E-05 1.68621E-06 1.73943E-18 1.20460E-18
 -1      4015 9.30204E-05-2.58568E-05-2.87786E-05 1.56643E-06 1.50880E-18 1.43588E-18
 -1      4016 9.40645E-05-2.68827E-05-2.87966E-05 1.10273E-06 5.73590E-19-6.13044E-19
 -1      4017 9.39045E-05-2.66851E-05-2.88070E-05 1.28414E-06 1.20814E-18 2.63740E-19
 -1      4018 9.35654E-05-2.63814E-05-2.87888E-05 1.19147E-06 1.63670E-18-1.40080E-19
 -1      4019 9.43376E-05-2.71963E-05-2.87776E-05 8.44056E-07-1.48871E-18-9.23433E-19
 -1      4020 9.42099E-05-2.70273E-05-2.87908E-05 9.87908E-07-4.74887E-19-1.30987E-18
 -1      4021 9.39464E-05-2.67782E-05-2.87829E-05 9.16126E-07 8.02479E-19-1.23635E-18
 -1      4022 9.41995E-05-2.70650E-05-2.87702E-05 7.13906E-07-3.34946E-19-3.45108E-18
 -1      4023 9.45133E-05-2.27515E-05-3.07629E-05 7.00165E-07 7.89660E-19-1.19626E-18
 -1      4024 9.43078E-05-2.23543E-05-3.08436E-05 5.25378E-07 6.65684E-19-1.39482E-18
 -1      4025 9.45841E-05-2.30375E-05-3.06480E-05 1.73144E-07 5.26935E-19-1.11750E-18
 -1      4026 9.47497E-05-2.33249E-05-3.06045E-05 3.89605E-07 8.31584E-19-1.10948E-18
 -1      4027 8.90155E-05-2.73446E-05-2.64210E-05-1.27938E-05-1.15738E-18-2.58901E-19
 -1      4028 8.84497E-05-2.60723E-05-2.67247E-05-1.15166E-05-6.03159E-19-3.93248E-19
 -1      4029 7.26453E-05-1.75180E-05-2.35206E-05 6.79664E-06 1.77984E-19-5.07707E-19
 -1      4030 9.48078E-05-2.64657E-05-2.92881E-05-3.30531E-06 4.22627E-19-8.87041E-19
 -1      4031 9.49732E-05-2.64523E-05-2.93678E-05-2.88918E-06 4.25212E-19-7.38402E-19
 -1      4032 9.48996E-05-2.61063E-05-2.94797E-05-2.45039E-06 5.40450E-19-7.62976E-19
 -1      4033 9.43845E-05-2.60990E-05-2.92620E-05-3.21087E-06 4.35883E-19-8.48001E-19
 -1      4034 9.44734E-05-2.74282E-05-2.87353E-05 1.84018E-07 9.91134E-20-8.79966E-19
 -1      4035 9.45131E-05-2.74641E-05-2.87360E-05 2.94714E-07 1.35905E-20-2.17991E-18
 -1      4036 9.44293E-05-2.73597E-05-2.87442E-05 3.57326E-07 8.36358E-19-3.36977E-18
 -1      4037 9.43453E-05-2.72692E-05-2.87438E-05 1.34883E-07 1.26730E-18 8.31708E-19
 -1      4038 9.44222E-05-2.54515E-05-2.95650E-05 1.62338E-06-6.82077E-20-9.66633E-19
 -1      4039 9.41004E-05-2.54255E-05-2.94361E-05 1.93242E-06-1.34812E-19-9.95334E-19
 -1      4040 8.89828E-05-2.70821E-05-2.65729E-05 1.24401E-05-1.25971E-19 2.59467E-18
 -1      4041 9.01157E-05-2.87044E-05-2.62708E-05 1.37663E-05-2.61203E-20 1.73073E-18
 -1      4042 8.67935E-05-2.71190E-05-2.55406E-05 1.46989E-05-4.91795E-19 1.48815E-18
 -1      4043 8.85217E-05-2.51887E-05-2.71697E-05 9.96988E-06-2.82441E-19 1.60012E-18
 -1      4044 8.89578E-05-2.61289E-05-2.68927E-05 1.11097E-05-3.62890E-20 2.04327E-18
 -1      4045 8.63868E-05-2.48130E-05-2.63762E-05 1.14151E-05-2.03024E-19 2.30454E-18
 -1      4046 8.66444E-05-2.36585E-05-2.69908E-05 9.03725E-06-7.72094E-19 1.53694E-18
 -1      4047 9.45561E-05-2.74781E-05-2.87494E-05-4.98886E-07 8.83718E-19 7.13645E-19
 -1      4048 7.86065E-05-2.39827E-05-2.32580E-05-1.64308E-05-1.11254E-18-6.65172E-19
 -1      4049 8.40301E-05-2.70427E-05-2.44118E-05-1.65234E-05-1.14362E-18-9.40117E-19
 -1      4050 7.57587E-05-2.13511E-05-2.34267E-05-1.29186E-05-6.04748E-19-9.21588E-19
 -1      4051 9.13520E-05-3.21909E-05-2.53642E-05-1.74171E-05-1.44234E-18-7.32379E-19
 -1      4052 6.91251E-05-1.58441E-05-2.29200E-05-6.00724E-07 3.87643E-19-1.16917E-19
 -1      4053 8.93982E-05-2.39196E-05-2.80785E-05 6.33828E-06-3.29582E-19 1.00071E-18
 -1      4054 8.92390E-05-2.40724E-05-2.79117E-05 7.07815E-06-5.57621E-19 9.32977E-19
 -1      4055 8.74361E-05-2.31648E-05-2.75383E-05 7.08959E-06-5.46008E-19 1.38168E-18
 -1      4056 7.59300E-05-2.11807E-05-2.35706E-05 1.30040E-05-1.10853E-18-1.23116E-18
 -1      4057 7.01048E-05-1.68331E-05-2.27194E-05 7.56401E-06 7.46282E-21-4.62513E-19
 -1      4058 9.02209E-05-2.40419E-05-2.83765E-05 5.03114E-06 6.74253E-19 7.87498E-19
 -1      4059 8.99521E-05-2.39887E-05-2.82598E-05 5.63134E-06-7.90738E-20 3.90337E-19
 -1      4060 8.96258E-05-2.35456E-05-2.83112E-05 4.30299E-06-3.76672E-19 2.41681E-18
 -1      4061 9.48492E-05-2.51512E-05-2.98783E-05 9.65112E-07-1.81768E-19-1.03417E-18
 -1      4062 9.46752E-05-2.53289E-05-2.97237E-05 1.32154E-06-1.96665E-19-9.12201E-19
 -1      4063 9.44026E-05-2.51266E-05-2.96791E-05 1.07383E-06-1.99209E-19-1.14870E-18
 -1      4064 9.47358E-05-2.46806E-05-3.00281E-05 5.47062E-07-9.25892E-20-9.29338E-19
 -1      4065 9.36483E-05-2.52952E-05-2.93002E-05 2.13169E-06-8.70099E-20-7.84431E-19
 -1      4066 9.31861E-05-2.51013E-05-2.91831E-05 2.41320E-06 9.16082E-21-7.27794E-19
 -1      4067 9.26613E-05-2.47245E-05-2.91049E-05 1.90504E-06 1.97915E-19-6.12048E-19
 -1      4068 9.00987E-05-2.99290E-05-2.57456E-05-1.56168E-05-1.43371E-18-6.91882E-19
 -1      4069 8.62725E-05-2.71232E-05-2.53638E-05-1.50010E-05-1.10103E-18-4.38194E-19
 -1      4070 7.09394E-05-1.73867E-05-2.29190E-05-5.47114E-06-5.96915E-19-1.43512E-18
 -1      4071 7.31162E-05-1.72256E-05-2.40237E-05 2.63301E-06 2.57832E-20-6.97985E-19
 -1      4072 9.42347E-05-2.71328E-05-2.87579E-05-4.04102E-07 2.46255E-18-9.71828E-19
 -1      4073 9.44074E-05-2.73015E-05-2.87579E-05-4.93128E-07 2.03948E-18-9.04367E-20
 -1      4074 9.02256E-05-2.45173E-05-2.81470E-05-6.65064E-06-2.66954E-20-3.86335E-19
 -1      4075 9.05555E-05-2.45305E-05-2.83116E-05-6.02895E-06 9.72958E-20-4.96537E-19
 -1      4076 8.93800E-05-2.46975E-05-2.76984E-05-8.18397E-06-8.73844E-20-3.91250E-19
 -1      4077 8.95573E-05-2.44772E-05-2.79100E-05-7.40396E-06-8.04754E-20-3.86664E-19
 -1      4078 8.86921E-05-2.36936E-05-2.78466E-05-6.43621E-06-6.49842E-20-3.70887E-19
 -1      4079 7.33829E-05-1.71932E-05-2.40206E-05 1.68577E-06 1.69413E-19-4.69412E-19
 -1      4080 9.39763E-05-2.57916E-05-2.92214E-05-2.98979E-06 4.54627E-19-5.43230E-19
 -1      4081 9.42778E-05-2.58608E-05-2.93263E-05-2.62263E-06 5.28647E-19-5.14819E-19
 -1      4082 9.37153E-05-2.51397E-05-2.93805E-05 1.55095E-06-5.25131E-20-1.07170E-18
 -1      4083 8.88763E-05-2.55239E-05-2.71227E-05-1.01927E-05-2.69323E-19-3.45338E-19
 -1      4084 8.87757E-05-2.49182E-05-2.73887E-05-9.20159E-06-1.04472E-19-1.93520E-19
 -1      4085 8.73861E-05-2.37243E-05-2.72754E-05-8.17459E-06-2.29728E-19-6.13554E-19
 -1      4086 9.45868E-05-2.35316E-05-3.04579E-05 7.13668E-08 1.61199E-19-1.06865E-18
 -1      4087 8.64007E-05-2.44344E-05-2.65297E-05-1.05904E-05-3.97937E-19 3.21021E-20
 -1      4088 9.46291E-05-2.35325E-05-3.04756E-05-6.27960E-08 3.71019E-19-9.85214E-19
 -1      4089 9.45697E-05-2.34372E-05-3.04947E-05-8.64640E-08 2.54917E-19-9.75951E-19
 -1      4090 9.31609E-05-2.54849E-05-2.90016E-05-3.69762E-06 7.68544E-20-5.89151E-19
 -1      4091 9.35230E-05-2.56366E-05-2.91010E-05-3.31405E-06 1.82187E-19-5.93972E-19
 -1      4092 9.34496E-05-2.53960E-05-2.91593E-05-2.71311E-06 3.25222E-19-4.31526E-19
 -1      4093 9.49089E-05-2.38469E-05-3.04605E-05 6.45407E-08 7.50185E-19-1.01292E-18
 -1      4094 9.51481E-05-2.50517E-05-3.00482E-05-8.62122E-07 6.22603E-19-8.87632E-19
 -1      4095 9.51000E-05-2.45371E-05-3.02400E-05-3.50898E-07 6.12263E-19-8.88171E-19
 -1      4096 9.48479E-05-2.38778E-05-3.04136E-05-1.30477E-07 6.07229E-19-9.98125E-19
 -1      4097 9.47631E-05-2.37933E-05-3.04247E-05-1.86002E-07 4.21652E-19-9.36378E-19
 -1      4098 9.41754E-05-2.70876E-05-2.87534E-05-2.20877E-07 2.24900E-18 3.23834E-19
 -1      4099 9.41513E-05-2.70684E-05-2.87514E-05-6.72716E-08 2.50876E-18 5.57116E-19
 -1      4100 9.40483E-05-2.69307E-05-2.87632E-05-3.42513E-07 2.96148E-18 3.59370E-20
 -1      4101 8.37065E-05-2.53796E-05-2.49695E-05 1.43626E-05-8.17529E-19-7.54906E-21
 -1      4102 7.96444E-05-2.30286E-05-2.41482E-05 1.41723E-05-1.21105E-18-5.96793E-19
 -1      4103 7.74045E-05-2.05198E-05-2.44748E-05 1.06468E-05-3.52223E-19-1.93694E-18
 -1      4104 8.33477E-05-2.40779E-05-2.54983E-05 1.24935E-05-9.78974E-19-2.61736E-20
 -1      4105 8.85312E-05-2.31945E-05-2.79917E-05 5.50726E-06 2.47417E-19 4.52911E-19
 -1      4106 9.41640E-05-2.70850E-05-2.87502E-05 9.32190E-08 2.00967E-18 1.09064E-18
 -1      4107 9.42006E-05-2.71138E-05-2.87499E-05 2.17567E-07 1.00479E-18 5.13848E-19
 -1      4108 9.40010E-05-2.68996E-05-2.87569E-05 1.48918E-08 2.50520E-18 1.33311E-18
 -1      4109 9.48472E-05-2.42339E-05-3.02531E-05-3.26765E-07 3.63785E-19-8.84971E-19
 -1      4110 8.98445E-05-2.32869E-05-2.85353E-05 1.49666E-06 9.66236E-20-2.95893E-19
 -1      4111 8.88880E-05-2.27898E-05-2.83431E-05 1.60712E-06 4.85795E-20-4.71978E-19
 -1      4112 8.78051E-05-2.22476E-05-2.81124E-05 1.63319E-06 1.51462E-19-6.32402E-19
 -1      4113 8.66533E-05-2.16936E-05-2.78585E-05 1.74427E-06 1.61308E-19-4.60335E-19
 -1      4114 8.82038E-05-2.23571E-05-2.81780E-05 5.40072E-07 1.15731E-20-4.64858E-19
 -1      4115 8.53353E-05-2.11131E-05-2.75484E-05 1.74071E-06-2.13014E-19-4.15909E-19
 -1      4116 8.39243E-05-2.05261E-05-2.71979E-05 1.86547E-06-5.86444E-19-7.29496E-19
 -1      4117 8.58567E-05-2.12248E-05-2.76330E-05 3.87526E-07 5.38081E-20-7.60042E-19
 -1      4118 8.22740E-05-1.99011E-05-2.67668E-05 1.84664E-06-5.20736E-19-6.83075E-19
 -1      4119 8.05184E-05-1.92984E-05-2.62720E-05 2.02878E-06-1.64462E-19-1.14880E-18
 -1      4120 8.29422E-05-1.99897E-05-2.68882E-05 1.12951E-07-4.09623E-19-8.40100E-19
 -1      4121 7.83878E-05-1.86431E-05-2.56581E-05 2.04848E-06 3.28012E-19-1.19840E-18
 -1      4122 7.62054E-05-1.80345E-05-2.49483E-05 2.37712E-06 3.08630E-19-8.13953E-19
 -1      4123 7.91661E-05-1.86402E-05-2.58403E-05-3.43258E-07 9.10147E-21-9.88974E-19
 -1      4124 9.50162E-05-2.56829E-05-2.97172E-05-1.63355E-06 6.99529E-19-5.74558E-19
 -1      4125 9.51277E-05-2.54337E-05-2.98688E-05-1.19967E-06 6.90872E-19-6.74709E-19
 -1      4126 9.49898E-05-2.49522E-05-3.00132E-05-8.74317E-07 5.25782E-19-6.93652E-19
 -1      4127 9.00280E-05-2.40114E-05-2.82832E-05-5.15354E-06-8.50587E-20-4.26091E-19
 -1      4128 9.12163E-05-2.47104E-05-2.84942E-05-5.45616E-06 1.13102E-19-5.33210E-19
 -1      4129 9.16063E-05-2.48459E-05-2.86235E-05-4.94919E-06 1.42095E-19-7.73225E-19
 -1      4130 8.62855E-05-2.22016E-05-2.74905E-05 5.72739E-06 1.28637E-19-3.24338E-19
 -1      4131 8.57310E-05-2.22105E-05-2.72124E-05 6.58486E-06-5.87706E-19-7.77794E-20
 -1      4132 7.91732E-05-1.84709E-05-2.60570E-05-1.93334E-06-5.17449E-20-2.68035E-19
 -1      4133 8.09449E-05-1.90159E-05-2.65730E-05-1.67265E-06-5.48007E-19-2.27763E-19
 -1      4134 8.25917E-05-1.96127E-05-2.70126E-05-1.69192E-06-1.42733E-18 5.79823E-20
 -1      4135 8.39515E-05-2.01602E-05-2.73618E-05-1.52163E-06-1.48856E-18-1.18424E-18
 -1      4136 8.15689E-05-1.91406E-05-2.66979E-05 7.09393E-08-5.48653E-19-1.46532E-18
 -1      4137 8.52389E-05-2.07280E-05-2.76620E-05-1.53631E-06-6.58526E-19-7.11934E-19
 -1      4138 8.63128E-05-2.12630E-05-2.78979E-05-1.40722E-06-3.54853E-19-6.74117E-19
 -1      4139 8.44394E-05-2.03104E-05-2.74377E-05-1.62609E-07-9.50327E-19-1.77402E-18
 -1      4140 8.73309E-05-2.17909E-05-2.81021E-05-1.37006E-06-2.56885E-19-3.48194E-19
 -1      4141 8.82151E-05-2.23054E-05-2.82590E-05-1.24144E-06-1.51447E-19 5.99738E-20
 -1      4142 8.66289E-05-2.13601E-05-2.79379E-05-2.94217E-07 2.86633E-19-9.70174E-19
 -1      4143 8.90412E-05-2.28183E-05-2.83928E-05-1.20657E-06-4.40570E-19 2.83566E-20
 -1      4144 8.97619E-05-2.33011E-05-2.84927E-05-1.08454E-06-6.51449E-19 3.98586E-19
 -1      4145 8.84815E-05-2.24279E-05-2.82781E-05-3.80888E-07-2.97793E-20-1.11651E-18
 -1      4146 9.04307E-05-2.37687E-05-2.85778E-05-1.03799E-06-4.45442E-19 1.64831E-18
 -1      4147 9.10158E-05-2.42083E-05-2.86377E-05-9.17395E-07-1.46696E-20 1.46927E-18
 -1      4148 8.99579E-05-2.34171E-05-2.84989E-05-4.15447E-07 4.26556E-19-5.11658E-19
 -1      4149 9.15565E-05-2.46334E-05-2.86872E-05-8.80519E-07 8.89461E-20 1.55022E-18
 -1      4150 9.20151E-05-2.50176E-05-2.87193E-05-7.71952E-07 8.69748E-20 1.17238E-18
 -1      4151 9.11840E-05-2.43337E-05-2.86382E-05-4.07840E-07-1.84147E-19 1.14108E-18
 -1      4152 9.24526E-05-2.53872E-05-2.87457E-05-7.21725E-07-2.63505E-19 1.06296E-18
 -1      4153 9.28142E-05-2.57224E-05-2.87593E-05-6.26455E-07-9.03581E-21 1.49116E-18
 -1      4154 9.21390E-05-2.51115E-05-2.87153E-05-3.56192E-07-4.18451E-19 2.32522E-18
 -1      4155 9.31585E-05-2.60355E-05-2.87700E-05-5.75399E-07 3.75183E-20 1.13942E-18
 -1      4156 9.34451E-05-2.63207E-05-2.87718E-05-4.90014E-07 7.78639E-19 3.21038E-19
 -1      4157 9.29000E-05-2.57904E-05-2.87523E-05-2.95099E-07-3.69809E-19 3.24245E-18
 -1      4158 9.36532E-05-2.65202E-05-2.87721E-05-4.48534E-07 1.87348E-18-1.32684E-19
 -1      4159 9.38775E-05-2.67604E-05-2.87669E-05-3.79452E-07 2.68676E-18 1.11458E-20
 -1      4160 9.38277E-05-2.67134E-05-2.87619E-05-1.74793E-07 2.27255E-18 1.06199E-18
 -1      4161 9.34554E-05-2.63271E-05-2.87644E-05-2.32033E-07 8.83993E-19 1.32354E-18
 -1      4162 9.46056E-05-2.58905E-05-2.94507E-05-2.32119E-06 4.37708E-19-4.09477E-19
 -1      4163 9.48243E-05-2.58281E-05-2.95732E-05-1.94099E-06 6.19842E-19-3.64748E-19
 -1      4164 9.47434E-05-2.54608E-05-2.96858E-05-1.51347E-06 5.50121E-19-1.79938E-19
 -1      4165 9.42254E-05-2.55823E-05-2.94112E-05-2.10620E-06 5.02017E-19-1.31197E-19
 -1      4166 9.47303E-05-2.40881E-05-3.02682E-05 6.45340E-08 1.19677E-19-9.47448E-19
 -1      4167 9.13656E-05-2.45475E-05-2.86463E-05 1.99704E-06-2.73136E-19 3.35579E-19
 -1      4168 9.09300E-05-2.42175E-05-2.85920E-05 2.29073E-06-3.30943E-19 1.72850E-18
 -1      4169 9.43342E-05-2.72505E-05-2.87522E-05 4.36301E-07 3.49846E-19-3.44694E-18
 -1      4170 9.03279E-05-2.38435E-05-2.85086E-05 2.59569E-06-3.50527E-19 1.61524E-18
 -1      4171 8.98421E-05-2.35244E-05-2.84199E-05 2.97333E-06 9.05767E-20 2.13527E-18
 -1      4172 9.02119E-05-2.36706E-05-2.84946E-05 1.95127E-06-3.05315E-19-1.65652E-18
 -1      4173 9.29323E-05-2.58315E-05-2.87648E-05 1.16749E-06 2.11925E-18-1.10546E-18
 -1      4174 9.26337E-05-2.55427E-05-2.87527E-05 1.36283E-06 6.39256E-19-9.24408E-19
 -1      4175 9.35096E-05-2.63786E-05-2.87763E-05 8.76944E-07 1.69366E-18-4.29149E-19
 -1      4176 9.32664E-05-2.61235E-05-2.87756E-05 1.02880E-06 2.32059E-18-1.66185E-19
 -1      4177 9.29259E-05-2.58161E-05-2.87534E-05 8.32142E-07 1.54162E-18-3.53603E-18
 -1      4178 9.48315E-05-2.46995E-05-3.00651E-05-6.34300E-07 3.34645E-19-8.23022E-19
 -1      4179 7.32606E-05-1.76076E-05-2.39329E-05-3.70885E-06-3.69230E-19-1.38620E-18
 -1      4180 7.40094E-05-1.86025E-05-2.35982E-05-8.65361E-06-5.30146E-19-1.04608E-18
 -1      4181 9.38369E-05-2.51243E-05-2.94564E-05 9.34578E-07 1.05170E-19-7.09858E-19
 -1      4182 9.33883E-05-2.49996E-05-2.93148E-05 1.10363E-06 2.26601E-19-5.62023E-19
 -1      4183 8.77881E-05-2.25866E-05-2.79621E-05 4.37269E-06-1.10166E-19 1.50929E-19
 -1      4184 8.72198E-05-2.24128E-05-2.77651E-05 5.01868E-06 4.52683E-19-1.21484E-20
 -1      4185 8.57031E-05-2.15430E-05-2.74772E-05 4.48239E-06 8.62514E-20-6.75321E-19
 -1      4186 8.33217E-05-2.42747E-05-2.52227E-05-1.31807E-05-7.55378E-19-4.49981E-19
 -1      4187 7.44102E-05-1.73820E-05-2.43198E-05-5.59534E-07 7.31195E-20-1.11967E-18
 -1      4188 9.28284E-05-2.47882E-05-2.91677E-05 1.16245E-06 3.27703E-19-4.27488E-19
 -1      4189 9.22214E-05-2.45057E-05-2.90276E-05 1.30692E-06 4.12803E-19-4.01981E-19
 -1      4190 9.30339E-05-2.47645E-05-2.92404E-05 5.44875E-07 4.61704E-19-3.29313E-19
 -1      4191 7.79133E-05-2.11316E-05-2.43663E-05-1.05833E-05-3.92615E-19-9.62885E-19
 -1      4192 8.35249E-05-2.30725E-05-2.59775E-05-1.01314E-05-4.55549E-19-1.04154E-19
 -1      4193 8.41135E-05-2.25930E-05-2.64364E-05-8.66211E-06-2.13542E-19-1.52181E-19
 -1      4194 8.91288E-05-2.31620E-05-2.82904E-05 3.36800E-06-9.46872E-19 1.50323E-18
 -1      4195 8.85936E-05-2.28980E-05-2.81539E-05 3.85968E-06-1.05378E-18 2.82560E-19
 -1      4196 8.74342E-05-2.21919E-05-2.79586E-05 3.38975E-06-8.54566E-19-5.80430E-19
 -1      4197 8.89357E-05-2.28901E-05-2.82758E-05 2.56737E-06-7.53263E-19-7.16962E-19
 -1      4198 9.22275E-05-2.52194E-05-2.87255E-05 1.53157E-06 3.69047E-20-5.73812E-19
 -1      4199 9.18573E-05-2.49002E-05-2.86963E-05 1.77063E-06-3.45613E-20-9.51959E-19
 -1      4200 9.22130E-05-2.51913E-05-2.87152E-05 1.09856E-06 1.03493E-18-3.94153E-18
 -1      4201 9.14970E-05-2.41486E-05-2.88726E-05 1.35457E-06 1.46414E-19-4.02080E-19
 -1      4202 9.07339E-05-2.37428E-05-2.87168E-05 1.48604E-06 4.69127E-20-4.04427E-19
 -1      4203 9.17599E-05-2.42031E-05-2.89347E-05 5.84473E-07 2.47453E-19-3.92604E-19
 -1      4204 8.08898E-05-2.19298E-05-2.52840E-05-9.75154E-06-4.73458E-19-3.36478E-19
 -1      4205 9.41525E-05-2.70535E-05-2.87582E-05 4.09184E-07 8.52848E-19-2.33535E-18
 -1      4206 7.52680E-05-1.79453E-05-2.45338E-05 5.16723E-06-5.92782E-20-1.40233E-18
 -1      4207 7.48093E-05-1.71353E-05-2.47295E-05-1.66104E-06 7.60639E-19 1.60447E-19
 -1      4208 8.31365E-05-2.13208E-05-2.64078E-05-6.84576E-06-3.51414E-19-5.93889E-19
 -1      4209 8.54940E-05-2.26822E-05-2.69044E-05-7.50397E-06-3.60008E-19-4.89887E-19
 -1      4210 8.61229E-05-2.26557E-05-2.72428E-05-6.57739E-06-1.50736E-19-5.31485E-19
 -1      4211 9.37100E-05-2.65638E-05-2.87767E-05 7.82736E-07 1.85796E-18-5.69055E-19
 -1      4212 9.34398E-05-2.63044E-05-2.87654E-05 6.32053E-07 1.76429E-18-1.26778E-19
 -1      4213 9.38521E-05-2.67238E-05-2.87720E-05 6.75593E-07 1.35493E-18-1.86697E-18
 -1      4214 7.95023E-05-2.05157E-05-2.52703E-05 8.60501E-06-3.09779E-19-1.91067E-18
 -1      4215 7.70484E-05-1.89182E-05-2.48348E-05 6.95462E-06-3.80850E-19-2.05730E-18
 -1      4216 7.74875E-05-1.84178E-05-2.53821E-05 3.81391E-06-3.50189E-19-1.49421E-18
 -1      4217 8.89314E-05-2.33525E-05-2.80999E-05-4.52405E-06-2.68219E-19-4.33492E-19
 -1      4218 8.96013E-05-2.36208E-05-2.82963E-05-4.01839E-06-1.93642E-19-4.88006E-19
 -1      4219 7.74094E-05-1.79525E-05-2.55154E-05-1.36833E-06 6.03759E-19-2.55266E-19
 -1      4220 9.38344E-05-2.67293E-05-2.87600E-05-1.15404E-09 2.13338E-18 1.11987E-18
 -1      4221 8.39196E-05-2.11658E-05-2.68720E-05 5.98018E-06 8.94836E-20-1.27197E-18
 -1      4222 8.49008E-05-2.22054E-05-2.69022E-05 7.48884E-06-8.15151E-19 3.16829E-19
 -1      4223 8.46310E-05-2.25221E-05-2.66091E-05 8.51654E-06-7.85935E-19 7.70248E-19
 -1      4224 8.72649E-05-2.28735E-05-2.75865E-05-5.77187E-06 9.61614E-20-4.61470E-19
 -1      4225 8.79382E-05-2.30400E-05-2.78426E-05-5.10498E-06 1.12528E-20-4.11613E-19
 -1      4226 8.55548E-05-2.18404E-05-2.72411E-05-5.11382E-06 1.67239E-20-6.12015E-19
 -1      4227 9.13168E-05-2.44680E-05-2.86355E-05 1.46187E-06 8.58687E-19-1.71398E-18
 -1      4228 9.22211E-05-2.50817E-05-2.87692E-05-4.49595E-06 6.56970E-20-7.62421E-19
 -1      4229 9.26174E-05-2.52610E-05-2.88763E-05-4.06685E-06 1.76068E-20-7.26542E-19
 -1      4230 9.24582E-05-2.49960E-05-2.89051E-05-3.38033E-06 1.79650E-19-6.27080E-19
 -1      4231 9.13020E-05-2.44922E-05-2.86244E-05-4.16897E-06 1.17764E-19-6.43719E-19
 -1      4232 9.44970E-05-2.50154E-05-2.97715E-05 5.16623E-07-2.27990E-19-7.59019E-19
 -1      4233 9.42321E-05-2.51457E-05-2.96117E-05 7.63393E-07-1.94191E-19-8.79426E-19
 -1      4234 9.39531E-05-2.49883E-05-2.95444E-05 3.36268E-07 2.02851E-19-5.75659E-19
 -1      4235 9.47534E-05-2.51211E-05-2.98421E-05-8.52606E-07 2.23067E-19-8.02511E-19
 -1      4236 9.46830E-05-2.45060E-05-3.00690E-05-3.40754E-07 2.46196E-19-8.21894E-19
 -1      4237 9.46819E-05-2.46059E-05-3.00390E-05-3.15946E-08 7.62170E-20-8.78683E-19
 -1      4238 7.61058E-05-1.83893E-05-2.48622E-05-3.60322E-06-1.10099E-19-1.18967E-18
 -1      4239 9.02139E-05-2.34277E-05-2.85977E-05 5.85286E-07 9.89358E-20-4.54259E-19
 -1      4240 9.29689E-05-2.50888E-05-2.90922E-05-2.30791E-06 3.68205E-19-5.71940E-19
 -1      4241 9.34248E-05-2.52614E-05-2.92203E-05-2.01146E-06 5.86629E-19-5.03174E-19
 -1      4242 8.39948E-05-2.27952E-05-2.62720E-05 9.61460E-06-5.20249E-19 5.30033E-19
 -1      4243 8.39662E-05-2.34118E-05-2.59173E-05 1.09170E-05-4.22273E-19 8.00380E-20
 -1      4244 8.11859E-05-2.17564E-05-2.54137E-05 1.04034E-05-5.28295E-19-1.54275E-18
 -1      4245 8.24413E-05-2.12977E-05-2.62005E-05 7.96494E-06-8.18991E-19-1.18208E-18
 -1      4246 8.76398E-05-2.25324E-05-2.78581E-05-3.88754E-06-1.23749E-19-5.21852E-19
 -1      4247 9.38781E-05-2.53859E-05-2.93569E-05-1.80307E-06 6.56511E-19-4.22923E-19
 -1      4248 9.42093E-05-2.54195E-05-2.94869E-05-1.51267E-06 5.00568E-19-2.99761E-19
 -1      4249 9.34553E-05-2.50755E-05-2.92925E-05-1.40983E-06 6.43237E-19-7.50147E-19
 -1      4250 7.81870E-05-1.79949E-05-2.57153E-05 9.62892E-07-2.97945E-19-2.40424E-18
 -1      4251 9.13469E-05-2.45204E-05-2.86460E-05 8.70323E-07 1.55612E-18-3.17846E-18
 -1      4252 9.08138E-05-2.41007E-05-2.85881E-05 1.04310E-06 1.30283E-18-3.18590E-18
 -1      4253 8.65380E-05-2.19129E-05-2.77323E-05-1.97301E-06 2.16887E-21-6.64591E-19
 -1      4254 8.51878E-05-2.13529E-05-2.74122E-05-2.17806E-06-2.42236E-20-5.96788E-19
 -1      4255 8.39686E-05-2.09696E-05-2.70487E-05-2.81150E-06-1.63086E-19-6.90147E-19
 -1      4256 8.23087E-05-2.03937E-05-2.66080E-05-3.13565E-06 3.24321E-20-5.17532E-19
 -1      4257 8.09081E-05-2.00921E-05-2.61135E-05-4.01329E-06-2.36494E-19-6.15354E-19
 -1      4258 7.89595E-05-1.95147E-05-2.55045E-05-4.55065E-06-3.20638E-19-6.92416E-19
 -1      4259 9.45595E-05-2.52903E-05-2.96913E-05-1.14194E-06 2.36767E-19-5.64830E-19
 -1      4260 8.38743E-05-2.02627E-05-2.72943E-05 1.21404E-06-9.64012E-19-1.19556E-18
 -1      4261 8.51184E-05-2.07844E-05-2.75946E-05 1.07940E-06-2.55272E-20-1.20226E-18
 -1      4262 8.67503E-05-2.16518E-05-2.79204E-05 1.44948E-06-1.86963E-19-1.15968E-18
 -1      4263 8.77172E-05-2.21491E-05-2.81153E-05 1.29389E-06-2.35127E-19-1.49572E-18
 -1      4264 8.84499E-05-2.25791E-05-2.82560E-05 1.00144E-06-3.22407E-19-1.75739E-18
 -1      4265 8.92755E-05-2.30609E-05-2.83898E-05 9.07954E-07-3.08123E-19-2.00227E-18
 -1      4266 9.07449E-05-2.40449E-05-2.85913E-05 7.86841E-09 7.79670E-19-1.59653E-18
 -1      4267 9.12980E-05-2.44670E-05-2.86482E-05 3.67146E-09 8.72986E-20-6.69151E-19
 -1      4268 9.19100E-05-2.49537E-05-2.86986E-05 4.80857E-08 3.80687E-19 6.37543E-19
 -1      4269 9.23214E-05-2.53016E-05-2.87237E-05 4.38873E-08 5.21984E-20 1.52247E-18
 -1      4270 9.28455E-05-2.57802E-05-2.87483E-05 2.32017E-07-7.17295E-20 5.55754E-19
 -1      4271 9.31916E-05-2.60938E-05-2.87593E-05 2.23911E-07 1.37448E-18 4.61431E-19
 -1      4272 9.34534E-05-2.63399E-05-2.87612E-05-2.31973E-08 1.46146E-18 1.28242E-18
 -1      4273 9.36583E-05-2.65472E-05-2.87624E-05-2.50551E-09 1.99742E-18 1.72358E-18
 -1      4274 9.38520E-05-2.67494E-05-2.87587E-05 1.82543E-07 2.55721E-18 1.55908E-18
 -1      4275 9.23537E-05-2.53419E-05-2.87247E-05 6.96903E-07 1.35450E-18-3.82005E-18
 -1      4276 9.19553E-05-2.50008E-05-2.86984E-05 8.32999E-07 1.75509E-18-2.85676E-18
 -1      4277 8.94858E-05-2.33586E-05-2.83326E-05-2.96151E-06-1.39747E-19-3.84142E-19
 -1      4278 9.04590E-05-2.39613E-05-2.84958E-05-3.60835E-06 4.40730E-20-6.18844E-19
 -1      4279 9.10848E-05-2.42533E-05-2.86525E-05-3.19853E-06 1.41571E-19-6.75063E-19
 -1      4280 8.98999E-05-2.34808E-05-2.84817E-05 6.98095E-07 3.89488E-19-2.78510E-18
 -1      4281 9.44325E-05-2.49858E-05-2.97729E-05-1.35466E-07 4.04657E-20-7.15411E-19
 -1      4282 9.46062E-05-2.46866E-05-2.99575E-05 3.12830E-07-7.20986E-20-7.49222E-19
 -1      4283 9.40253E-05-2.69092E-05-2.87649E-05 4.89612E-07 1.32760E-18-1.08416E-18
 -1      4284 8.57927E-05-2.13679E-05-2.76166E-05 3.14855E-06-5.15393E-19-2.71961E-19
 -1      4285 8.47791E-05-2.10062E-05-2.73299E-05 3.70763E-06 2.03801E-20-9.45484E-19
 -1      4286 9.23574E-05-2.48374E-05-2.89481E-05-2.56394E-06 1.41901E-19-8.34130E-19
 -1      4287 9.23917E-05-2.46692E-05-2.90069E-05-1.82489E-06 4.47037E-19-9.21659E-19
 -1      4288 9.18125E-05-2.45843E-05-2.88133E-05-2.89714E-06 1.89647E-19-9.19359E-19
 -1      4289 7.91750E-05-1.99576E-05-2.52395E-05-7.42933E-06-4.52244E-19-8.87171E-19
 -1      4290 7.92256E-05-1.87784E-05-2.59049E-05 2.81124E-06-5.99534E-19-1.93852E-18
 -1      4291 9.40722E-05-2.51116E-05-2.95649E-05-4.85044E-07 3.07279E-19-7.16303E-19
 -1      4292 9.36745E-05-2.50616E-05-2.94108E-05-3.55298E-07 5.69875E-19-6.25413E-19
 -1      4293 9.32110E-05-2.49427E-05-2.92691E-05-5.18902E-07 5.98127E-19-7.94577E-19
 -1      4294 9.26398E-05-2.47220E-05-2.91188E-05-5.27505E-07 5.29423E-19-6.83534E-19
 -1      4295 9.42843E-05-2.51080E-05-2.96337E-05-8.46943E-07 3.04176E-19-7.12978E-19
 -1      4296 9.20170E-05-2.44486E-05-2.89687E-05-7.11309E-07 3.34863E-19-5.37511E-19
 -1      4297 8.75948E-05-2.23349E-05-2.80033E-05-1.52650E-06-1.38248E-19-6.91121E-19
 -1      4298 9.06075E-05-2.37184E-05-2.86838E-05-3.27428E-07-2.11767E-20-3.01027E-19
 -1      4299 8.96977E-05-2.32448E-05-2.84972E-05-3.36241E-07 1.05463E-20-4.10208E-19
 -1      4300 8.08892E-05-1.92169E-05-2.64684E-05 2.03047E-06-2.55006E-19-1.76932E-18
 -1      4301 8.25264E-05-1.97680E-05-2.69105E-05 1.74036E-06-6.37743E-19-1.71556E-18
 -1      4302 8.36582E-05-2.03301E-05-2.71097E-05 2.99122E-06-3.17743E-19-9.99151E-19
 -1      4303 8.07170E-05-1.95214E-05-2.61829E-05 4.55658E-06-5.96987E-19-1.96301E-18
 -1      4304 9.13023E-05-2.40948E-05-2.88103E-05-7.57166E-07 1.28653E-19-5.14952E-19
 -1      4305 8.87116E-05-2.28464E-05-2.82437E-05-1.38238E-06-1.24710E-19-4.60805E-19
 -1      4306 9.10483E-05-2.39989E-05-2.87291E-05-1.67896E-06 2.68503E-21-5.22716E-19
 -1      4307 9.15737E-05-2.46764E-05-2.86644E-05 4.37145E-07 1.52543E-18-2.41779E-18
 -1      4308 8.34294E-05-2.06195E-05-2.69508E-05 4.43953E-06 4.40137E-19-1.23319E-18
 -1      4309 8.26300E-05-2.04720E-05-2.66297E-05 5.19550E-06 3.15123E-20-1.38037E-18
 -1      4310 9.05655E-05-2.39298E-05-2.85668E-05 6.28037E-07 7.08366E-19-2.28439E-18
 -1      4311 9.33975E-05-2.62977E-05-2.87615E-05 1.55955E-07 1.23927E-18 1.01043E-18
 -1      4312 9.38305E-05-2.67150E-05-2.87615E-05 3.52566E-07 2.36967E-18-4.97235E-19
 -1      4313 9.25022E-05-2.54627E-05-2.87344E-05 3.11003E-07-4.84463E-19-5.68228E-19
 -1      4314 8.94475E-05-2.32378E-05-2.83606E-05-2.26051E-06-2.06875E-19-3.99590E-19
 -1      4315 8.01733E-05-2.02901E-05-2.57076E-05 7.32799E-06-7.02491E-19-1.98599E-18
 -1      4316 8.09461E-05-2.01237E-05-2.60876E-05 6.24859E-06-6.99322E-19-1.59274E-18
 -1      4317 9.36474E-05-2.65372E-05-2.87631E-05 3.77849E-07 2.02312E-18-2.84395E-19
 -1      4318 8.66547E-05-2.16731E-05-2.78264E-05 2.68806E-06-4.89360E-19-6.48142E-19
 -1      4319 9.03531E-05-2.36930E-05-2.85652E-05-1.92825E-06-9.57019E-20-4.34736E-19
 -1      4320 9.10777E-05-2.40963E-05-2.86978E-05-2.34774E-06 3.14058E-20-5.89865E-19
 -3
    1PSTEP                         4           1           1          
  100CL  101 1.000000000        4320                     0    1           1
 -4  ERROR       1    1
 -5  STR(%)      1    1    0    0
 -1         1 4.42745E+01
 -1         2 2.52999E+01
 -1         3 3.74673E-03
 -1         4 4.43973E-03
 -1         5 1.40219E+01
 -1         6 1.31260E+01
 -1         7 1.31260E+01
 -1         8 3.61909E+00
 -1         9 1.79552E+00
 -1        10 1.27763E+00
 -1        11 1.03103E+00
 -1        12 8.84638E-01
 -1        13 7.89849E-01
 -1        14 7.31364E-01
 -1        15 7.33160E-01
 -1        16 7.94171E-01
 -1        17 8.85518E-01
 -1        18 1.04005E+00
 -1        19 1.29545E+00
 -1        20 1.80503E+00
 -1        21 3.46174E+00
 -1        22 8.59581E+00
 -1        23 1.31260E+01
 -1        24 4.34676E+00
 -1        25 3.36431E+00
 -1        26 2.13551E+00
 -1        27 1.42745E+00
 -1        28 1.10613E+00
 -1        29 8.86360E-01
 -1        30 7.26433E-01
 -1        31 6.04786E-01
 -1        32 5.15676E-01
 -1        33 5.85647E-01
 -1        34 6.65225E-01
 -1        35 7.45486E-01
 -1        36 8.67053E-01
 -1        37 1.09584E+00
 -1        38 1.38659E+00
 -1        39 1.63174E+00
 -1        40 1.71690E+00
 -1        41 1.71690E+00
 -1        42 1.68304E+00
 -1        43 1.95119E+00
 -1        44 3.03526E+00
 -1        45 4.62116E+00
 -1        46 4.71967E+00
 -1        47 4.75927E+00
 -1        48 4.75927E+00
 -1        49 3.35574E+00
 -1        50 2.04819E+00
 -1        51 1.70365E+00
 -1        52 1.70365E+00
 -1        53 1.68819E+00
 -1        54 1.64113E+00
 -1        55 1.41095E+00
 -1        56 1.12256E+00
 -1        57 8.99278E-01
 -1        58 6.88079E-01
 -1        59 5.74181E-01
 -1        60 4.69734E-01
 -1        61 3.72485E-01
 -1        62 2.87623E-01
 -1        63 2.16747E-01
 -1        64 1.59421E-01
 -1        65 1.17093E-01
 -1        66 9.67903E-02
 -1        67 7.77584E-02
 -1        68 6.01829E-02
 -1        69 4.35593E-02
 -1        70 2.68933E-02
 -1        71 1.50492E-02
 -1        72 1.40219E+01
 -1        73 3.42561E+00
 -1        74 2.44329E+00
 -1        75 1.69884E+00
 -1        76 1.21128E+00
 -1        77 1.01661E+00
 -1        78 8.68435E-01
 -1        79 7.54394E-01
 -1        80 6.65178E-01
 -1        81 5.93668E-01
 -1        82 5.32228E-01
 -1        83 5.46285E-01
 -1        84 5.69739E-01
 -1        85 5.75234E-01
 -1        86 5.89006E-01
 -1        87 7.53058E-01
 -1        88 8.70427E-01
 -1        89 9.76843E-01
 -1        90 1.20502E+00
 -1        91 1.20502E+00
 -1        92 1.48555E+00
 -1        93 1.75920E+00
 -1        94 2.59407E+00
 -1        95 2.83192E+00
 -1        96 3.25638E+00
 -1        97 3.25638E+00
 -1        98 2.85573E+00
 -1        99 1.87861E+00
 -1       100 1.21258E+00
 -1       101 8.74576E-01
 -1       102 9.66051E-01
 -1       103 1.02887E+00
 -1       104 1.02887E+00
 -1       105 9.62866E-01
 -1       106 8.30754E-01
 -1       107 6.99140E-01
 -1       108 5.67966E-01
 -1       109 4.41864E-01
 -1       110 3.30230E-01
 -1       111 2.56969E-01
 -1       112 1.99625E-01
 -1       113 1.50544E-01
 -1       114 1.10105E-01
 -1       115 7.77435E-02
 -1       116 5.23773E-02
 -1       117 4.23076E-02
 -1       118 3.29956E-02
 -1       119 2.20615E-02
 -1       120 1.39644E-02
 -1       121 4.74425E-03
 -1       122 4.70707E-03
 -1       123 4.70707E-03
 -1       124 3.87415E-03
 -1       125 1.86747E-03
 -1       126 2.87784E-03
 -1       127 4.10114E-03
 -1       128 4.52051E-03
 -1       129 4.52051E-03
 -1       130 4.06252E-03
 -1       131 2.79907E-03
 -1       132 2.05490E-03
 -1       133 4.10375E-03
 -1       134 4.56068E-03
 -1       135 4.56068E-03
 -1       136 4.63252E-03
 -1       137 2.45047E+01
 -1       138 4.76110E+01
 -1       139 4.76110E+01
 -1       140 2.13201E+01
 -1       141 1.24174E+01
 -1       142 1.24174E+01
 -1       143 1.22581E+01
 -1       144 1.22581E+01
 -1       145 1.20842E+01
 -1       146 1.23260E+01
 -1       147 2.48792E+01
 -1       148 3.04472E+01
 -1       149 3.04472E+01
 -1       150 2.46583E+01
 -1       151 2.43025E+01
 -1       152 2.43025E+01
 -1       153 4.42745E+01
 -1       154 1.77354E+01
 -1       155 1.17235E+01
 -1       156 1.19879E+01
 -1       157 1.19879E+01
 -1       158 1.23899E+01
 -1       159 1.23899E+01
 -1       160 1.18250E+01
 -1       161 2.16910E+01
 -1       162 4.81527E+01
 -1       163 4.81527E+01
 -1       164 2.52999E+01
 -1       165 6.01673E+00
 -1       166 2.26811E+00
 -1       167 1.49563E+00
 -1       168 1.14864E+00
 -1       169 9.60039E-01
 -1       170 8.48487E-01
 -1       171 7.76161E-01
 -1       172 7.33160E-01
 -1       173 7.79497E-01
 -1       174 8.51328E-01
 -1       175 9.69003E-01
 -1       176 1.16297E+00
 -1       177 1.51753E+00
 -1       178 2.24638E+00
 -1       179 3.89556E+00
 -1       180 1.40219E+01
 -1       181 4.34676E+00
 -1       182 3.36431E+00
 -1       183 2.13551E+00
 -1       184 1.45960E+00
 -1       185 1.10613E+00
 -1       186 8.86360E-01
 -1       187 7.26433E-01
 -1       188 6.04786E-01
 -1       189 5.08502E-01
 -1       190 5.15676E-01
 -1       191 5.85647E-01
 -1       192 6.65225E-01
 -1       193 7.87679E-01
 -1       194 9.66880E-01
 -1       195 1.14404E+00
 -1       196 1.38659E+00
 -1       197 1.63174E+00
 -1       198 1.71690E+00
 -1       199 1.68304E+00
 -1       200 1.61629E+00
 -1       201 1.95119E+00
 -1       202 3.03526E+00
 -1       203 4.62116E+00
 -1       204 4.71967E+00
 -1       205 4.75927E+00
 -1       206 3.35574E+00
 -1       207 2.04819E+00
 -1       208 1.55128E+00
 -1       209 1.70365E+00
 -1       210 1.68819E+00
 -1       211 1.64113E+00
 -1       212 1.41095E+00
 -1       213 1.17209E+00
 -1       214 1.01050E+00
 -1       215 8.47796E-01
 -1       216 6.77336E-01
 -1       217 5.19908E-01
 -1       218 3.85170E-01
 -1       219 2.88284E-01
 -1       220 2.24259E-01
 -1       221 1.70576E-01
 -1       222 1.26879E-01
 -1       223 9.67903E-02
 -1       224 7.77584E-02
 -1       225 6.01829E-02
 -1       226 4.35593E-02
 -1       227 2.84256E-02
 -1       228 1.58590E-02
 -1       229 3.42561E+00
 -1       230 2.44329E+00
 -1       231 1.69884E+00
 -1       232 1.21128E+00
 -1       233 1.01661E+00
 -1       234 8.68435E-01
 -1       235 7.54394E-01
 -1       236 6.65178E-01
 -1       237 5.93668E-01
 -1       238 5.32228E-01
 -1       239 5.08947E-01
 -1       240 5.46285E-01
 -1       241 5.69739E-01
 -1       242 5.75234E-01
 -1       243 6.15651E-01
 -1       244 7.53058E-01
 -1       245 8.70427E-01
 -1       246 9.76843E-01
 -1       247 1.20502E+00
 -1       248 1.18659E+00
 -1       249 1.48555E+00
 -1       250 1.86998E+00
 -1       251 2.59407E+00
 -1       252 2.83192E+00
 -1       253 3.25638E+00
 -1       254 2.85573E+00
 -1       255 1.87861E+00
 -1       256 1.21258E+00
 -1       257 7.62330E-01
 -1       258 8.74576E-01
 -1       259 9.66051E-01
 -1       260 1.02887E+00
 -1       261 9.62866E-01
 -1       262 8.30754E-01
 -1       263 6.99140E-01
 -1       264 5.78833E-01
 -1       265 4.64181E-01
 -1       266 3.57886E-01
 -1       267 2.65814E-01
 -1       268 1.99625E-01
 -1       269 1.50544E-01
 -1       270 1.10365E-01
 -1       271 8.03004E-02
 -1       272 5.63759E-02
 -1       273 4.23076E-02
 -1       274 3.29956E-02
 -1       275 2.20615E-02
 -1       276 1.39644E-02
 -1       277 7.38139E-03
 -1       278 8.72753E-03
 -1       279 8.72753E-03
 -1       280 6.00127E-03
 -1       281 5.91940E-03
 -1       282 8.58959E-03
 -1       283 9.70956E-03
 -1       284 9.71416E-03
 -1       285 9.71416E-03
 -1       286 8.52682E-03
 -1       287 5.90042E-03
 -1       288 6.38242E-03
 -1       289 9.07444E-03
 -1       290 9.07444E-03
 -1       291 8.89170E-03
 -1       292 2.88164E+01
 -1       293 2.96492E+01
 -1       294 4.76110E+01
 -1       295 2.19252E+01
 -1       296 1.11653E+01
 -1       297 1.24174E+01
 -1       298 1.20485E+01
 -1       299 1.22581E+01
 -1       300 1.20842E+01
 -1       301 1.16485E+01
 -1       302 1.23260E+01
 -1       303 2.62897E+01
 -1       304 3.19744E+01
 -1       305 3.19744E+01
 -1       306 3.20310E+01
 -1       307 3.20310E+01
 -1       308 3.82391E+01
 -1       309 4.42745E+01
 -1       310 1.79433E+01
 -1       311 1.04724E+01
 -1       312 1.17235E+01
 -1       313 1.19879E+01
 -1       314 1.15121E+01
 -1       315 1.23899E+01
 -1       316 1.18250E+01
 -1       317 1.12560E+01
 -1       318 2.37385E+01
 -1       319 4.81527E+01
 -1       320 3.00743E+01
 -1       321 2.94185E+01
 -1       322 1.04817E+00
 -1       323 2.43659E+00
 -1       324 7.80349E-01
 -1       325 6.84074E-01
 -1       326 6.17742E-01
 -1       327 5.70496E-01
 -1       328 5.73669E-01
 -1       329 6.20365E-01
 -1       330 6.90278E-01
 -1       331 7.88046E-01
 -1       332 9.24896E-01
 -1       333 1.13807E+00
 -1       334 1.30031E+00
 -1       335 2.18318E+00
 -1       336 1.88732E+00
 -1       337 1.73697E+00
 -1       338 1.26814E+00
 -1       339 8.98259E-01
 -1       340 7.03952E-01
 -1       341 6.01264E-01
 -1       342 5.05651E-01
 -1       343 4.15580E-01
 -1       344 3.89728E-01
 -1       345 4.50852E-01
 -1       346 5.16012E-01
 -1       347 6.84667E-01
 -1       348 8.56451E-01
 -1       349 1.00249E+00
 -1       350 1.12981E+00
 -1       351 1.27739E+00
 -1       352 1.30147E+00
 -1       353 1.20341E+00
 -1       354 1.20275E+00
 -1       355 1.22652E+00
 -1       356 1.95266E+00
 -1       357 2.57415E+00
 -1       358 2.94409E+00
 -1       359 2.93928E+00
 -1       360 2.66992E+00
 -1       361 2.00942E+00
 -1       362 1.38804E+00
 -1       363 1.24436E+00
 -1       364 1.18778E+00
 -1       365 1.28255E+00
 -1       366 1.28963E+00
 -1       367 1.16021E+00
 -1       368 1.05185E+00
 -1       369 9.25423E-01
 -1       370 7.73043E-01
 -1       371 6.20321E-01
 -1       372 4.81619E-01
 -1       373 3.63275E-01
 -1       374 2.66648E-01
 -1       375 1.90381E-01
 -1       376 1.31884E-01
 -1       377 9.21237E-02
 -1       378 6.59035E-02
 -1       379 4.77127E-02
 -1       380 3.47151E-02
 -1       381 2.44066E-02
 -1       382 1.61296E-02
 -1       383 1.14563E+00
 -1       384 8.78295E-01
 -1       385 6.76012E-01
 -1       386 5.68220E-01
 -1       387 5.26443E-01
 -1       388 4.83202E-01
 -1       389 4.40569E-01
 -1       390 3.97967E-01
 -1       391 4.27472E-01
 -1       392 4.77192E-01
 -1       393 5.74595E-01
 -1       394 6.67088E-01
 -1       395 7.07453E-01
 -1       396 7.07453E-01
 -1       397 6.60588E-01
 -1       398 4.85740E-01
 -1       399 5.45247E-01
 -1       400 9.46020E-01
 -1       401 1.46550E+00
 -1       402 1.71072E+00
 -1       403 1.71072E+00
 -1       404 1.67849E+00
 -1       405 1.90141E+00
 -1       406 1.87221E+00
 -1       407 1.41015E+00
 -1       408 8.86546E-01
 -1       409 5.76295E-01
 -1       410 5.75678E-01
 -1       411 6.99548E-01
 -1       412 7.41754E-01
 -1       413 7.48978E-01
 -1       414 6.88116E-01
 -1       415 6.16250E-01
 -1       416 5.30750E-01
 -1       417 4.36207E-01
 -1       418 3.44620E-01
 -1       419 2.62719E-01
 -1       420 1.93686E-01
 -1       421 1.47220E-01
 -1       422 1.10365E-01
 -1       423 8.03004E-02
 -1       424 5.63759E-02
 -1       425 3.76614E-02
 -1       426 2.45859E-02
 -1       427 1.61077E-02
 -1       428 8.14987E-03
 -1       429 1.08737E-02
 -1       430 1.33094E-02
 -1       431 1.33094E-02
 -1       432 8.62326E-03
 -1       433 1.28269E-02
 -1       434 1.49714E-02
 -1       435 1.49714E-02
 -1       436 1.49820E-02
 -1       437 1.49820E-02
 -1       438 1.29480E-02
 -1       439 8.62016E-03
 -1       440 1.12080E-02
 -1       441 1.35854E-02
 -1       442 2.96492E+01
 -1       443 3.01519E+01
 -1       444 3.01519E+01
 -1       445 1.70346E+01
 -1       446 9.59206E+00
 -1       447 9.05756E-01
 -1       448 9.75292E+00
 -1       449 1.01118E+01
 -1       450 1.02695E+01
 -1       451 9.14210E+00
 -1       452 6.49070E+00
 -1       453 1.11733E+01
 -1       454 1.85870E+01
 -1       455 3.19744E+01
 -1       456 3.40194E+01
 -1       457 3.40194E+01
 -1       458 2.44925E+01
 -1       459 2.52007E+01
 -1       460 1.45729E+01
 -1       461 8.50558E+00
 -1       462 7.09245E+00
 -1       463 9.96078E+00
 -1       464 1.07254E+01
 -1       465 1.02994E+01
 -1       466 8.99608E+00
 -1       467 6.94877E+00
 -1       468 9.87825E+00
 -1       469 1.70277E+01
 -1       470 3.00743E+01
 -1       471 2.45171E+01
 -1       472 6.99529E+00
 -1       473 2.94185E+01
 -1       474 1.40737E+01
 -1       475 1.04549E+00
 -1       476 4.76256E-01
 -1       477 5.04971E-01
 -1       478 4.13382E-01
 -1       479 4.42931E-01
 -1       480 4.76848E-01
 -1       481 5.05184E-01
 -1       482 5.05315E-01
 -1       483 5.96333E-01
 -1       484 8.78295E-01
 -1       485 7.72210E-01
 -1       486 4.75414E+00
 -1       487 6.79800E-01
 -1       488 5.47704E-01
 -1       489 4.21875E-01
 -1       490 3.71981E-01
 -1       491 3.04319E-01
 -1       492 2.45053E-01
 -1       493 2.94201E-01
 -1       494 4.08647E-01
 -1       495 5.72031E-01
 -1       496 7.46678E-01
 -1       497 9.22732E-01
 -1       498 1.08191E+00
 -1       499 1.19490E+00
 -1       500 1.42959E+00
 -1       501 1.65081E+00
 -1       502 1.82849E+00
 -1       503 2.15318E+00
 -1       504 3.19101E+00
 -1       505 2.52301E+00
 -1       506 3.63459E+00
 -1       507 4.16290E+00
 -1       508 3.05255E+00
 -1       509 2.31133E+00
 -1       510 2.20342E+00
 -1       511 2.27229E+00
 -1       512 1.81931E+00
 -1       513 1.70813E+00
 -1       514 1.49663E+00
 -1       515 1.26670E+00
 -1       516 1.14131E+00
 -1       517 9.98529E-01
 -1       518 8.38672E-01
 -1       519 6.82100E-01
 -1       520 5.40161E-01
 -1       521 4.17899E-01
 -1       522 3.16411E-01
 -1       523 2.34573E-01
 -1       524 1.70174E-01
 -1       525 1.20616E-01
 -1       526 8.33133E-02
 -1       527 5.59054E-02
 -1       528 3.63388E-02
 -1       529 2.30194E-02
 -1       530 5.30258E-01
 -1       531 4.61764E-01
 -1       532 3.84218E-01
 -1       533 3.01660E-01
 -1       534 3.01409E-01
 -1       535 3.37833E-01
 -1       536 4.05379E-01
 -1       537 5.07299E-01
 -1       538 5.95069E-01
 -1       539 6.67088E-01
 -1       540 7.09844E-01
 -1       541 7.24522E-01
 -1       542 6.95280E-01
 -1       543 8.21937E-01
 -1       544 9.05150E-01
 -1       545 1.23094E+00
 -1       546 1.49620E+00
 -1       547 1.83641E+00
 -1       548 1.79541E+00
 -1       549 1.92112E+00
 -1       550 1.64950E+00
 -1       551 1.41773E+00
 -1       552 1.10982E+00
 -1       553 8.11344E-01
 -1       554 7.66013E-01
 -1       555 7.18478E-01
 -1       556 7.57557E-01
 -1       557 7.27710E-01
 -1       558 6.74311E-01
 -1       559 6.11547E-01
 -1       560 5.40803E-01
 -1       561 4.56414E-01
 -1       562 3.70711E-01
 -1       563 2.91261E-01
 -1       564 2.21971E-01
 -1       565 1.64233E-01
 -1       566 1.17876E-01
 -1       567 8.18722E-02
 -1       568 5.48216E-02
 -1       569 3.70339E-02
 -1       570 2.66773E-02
 -1       571 1.82769E-02
 -1       572 1.73089E-02
 -1       573 2.09489E-02
 -1       574 2.26586E-02
 -1       575 2.26586E-02
 -1       576 2.13346E-02
 -1       577 2.14142E-02
 -1       578 2.14142E-02
 -1       579 2.11944E-02
 -1       580 1.76307E-02
 -1       581 1.74373E-02
 -1       582 1.74373E-02
 -1       583 3.01519E+01
 -1       584 1.37969E+01
 -1       585 6.76012E-01
 -1       586 7.29563E+00
 -1       587 1.03902E+01
 -1       588 5.43243E+00
 -1       589 4.89902E+00
 -1       590 8.88817E+00
 -1       591 7.41844E+00
 -1       592 4.42838E-01
 -1       593 8.33408E+00
 -1       594 1.45379E+01
 -1       595 6.82675E+00
 -1       596 4.86973E+00
 -1       597 6.07079E+00
 -1       598 2.44925E+01
 -1       599 1.93357E+01
 -1       600 5.05277E+00
 -1       601 3.40194E+01
 -1       602 1.93858E+01
 -1       603 9.41267E+00
 -1       604 1.36696E+01
 -1       605 4.59066E+00
 -1       606 7.43536E+00
 -1       607 8.38785E+00
 -1       608 7.10157E+00
 -1       609 5.29203E+00
 -1       610 2.19237E+01
 -1       611 8.57621E-01
 -1       612 1.30535E+00
 -1       613 2.16109E+01
 -1       614 5.04971E-01
 -1       615 4.60756E-01
 -1       616 1.22059E+01
 -1       617 8.46089E+00
 -1       618 1.89584E+01
 -1       619 1.61296E-02
 -1       620 3.47990E-01
 -1       621 3.25312E-01
 -1       622 3.59393E-01
 -1       623 3.43428E-01
 -1       624 5.15698E-01
 -1       625 8.84219E+00
 -1       626 3.19101E+00
 -1       627 3.55027E-01
 -1       628 3.16762E-01
 -1       629 2.42307E-01
 -1       630 1.92259E-01
 -1       631 1.29610E-01
 -1       632 1.78193E-01
 -1       633 2.98840E-01
 -1       634 4.41239E-01
 -1       635 6.07741E-01
 -1       636 8.01297E-01
 -1       637 1.02406E+00
 -1       638 1.27343E+00
 -1       639 1.53199E+00
 -1       640 1.87143E+00
 -1       641 2.42312E+00
 -1       642 3.95479E+00
 -1       643 3.28302E+00
 -1       644 5.52203E+00
 -1       645 6.22394E+00
 -1       646 3.05255E+00
 -1       647 2.20342E+00
 -1       648 3.31542E+00
 -1       649 3.44361E+00
 -1       650 2.48694E+00
 -1       651 2.02207E+00
 -1       652 1.60553E+00
 -1       653 1.35426E+00
 -1       654 1.11091E+00
 -1       655 8.97148E-01
 -1       656 7.13630E-01
 -1       657 5.61568E-01
 -1       658 4.36431E-01
 -1       659 3.34657E-01
 -1       660 2.52917E-01
 -1       661 1.88161E-01
 -1       662 1.37605E-01
 -1       663 9.87508E-02
 -1       664 6.93829E-02
 -1       665 4.76485E-02
 -1       666 2.86715E-02
 -1       667 2.69982E-01
 -1       668 3.43462E-02
 -1       669 3.11945E-01
 -1       670 1.80902E-01
 -1       671 2.27446E-01
 -1       672 3.37264E-01
 -1       673 4.49248E-01
 -1       674 5.55545E-01
 -1       675 6.44118E-01
 -1       676 7.53269E-01
 -1       677 8.84761E-01
 -1       678 9.77811E-01
 -1       679 1.08746E+00
 -1       680 1.37564E+00
 -1       681 1.38609E+00
 -1       682 2.12184E+00
 -1       683 2.64460E+00
 -1       684 2.38660E+00
 -1       685 2.93576E+00
 -1       686 2.03200E+00
 -1       687 1.61227E+00
 -1       688 1.59875E+00
 -1       689 1.36533E+00
 -1       690 1.24883E+00
 -1       691 9.60870E-01
 -1       692 9.10497E-01
 -1       693 8.11238E-01
 -1       694 7.27710E-01
 -1       695 6.61015E-01
 -1       696 5.74747E-01
 -1       697 4.78823E-01
 -1       698 3.85248E-01
 -1       699 3.03230E-01
 -1       700 2.34293E-01
 -1       701 1.78342E-01
 -1       702 1.32678E-01
 -1       703 9.63999E-02
 -1       704 6.83298E-02
 -1       705 4.65073E-02
 -1       706 3.47720E-02
 -1       707 2.98317E-02
 -1       708 1.74373E-02
 -1       709 2.79491E-02
 -1       710 3.00285E-02
 -1       711 2.98317E-02
 -1       712 3.00285E-02
 -1       713 2.84233E-02
 -1       714 2.15807E-02
 -1       715 1.49110E+01
 -1       716 1.37030E+01
 -1       717 6.51559E+00
 -1       718 3.91064E+00
 -1       719 2.68297E+00
 -1       720 5.13585E+00
 -1       721 1.75313E+01
 -1       722 4.08381E-01
 -1       723 1.21081E+01
 -1       724 2.10961E-01
 -1       725 1.09234E+01
 -1       726 4.81404E-01
 -1       727 3.78274E-01
 -1       728 4.14416E+00
 -1       729 3.15991E+00
 -1       730 3.48717E+00
 -1       731 8.21923E+00
 -1       732 3.59393E-01
 -1       733 5.23106E+00
 -1       734 1.47722E+01
 -1       735 3.57859E-01
 -1       736 1.42839E+01
 -1       737 9.19531E+00
 -1       738 3.61930E+00
 -1       739 3.97218E+00
 -1       740 4.31278E+00
 -1       741 1.39933E+01
 -1       742 3.63045E-01
 -1       743 5.98681E+00
 -1       744 3.57859E-01
 -1       745 3.24710E-01
 -1       746 5.15039E+00
 -1       747 3.43462E-02
 -1       748 7.77232E+00
 -1       749 3.46957E-01
 -1       750 4.00276E+00
 -1       751 2.00541E-02
 -1       752 2.64460E+00
 -1       753 2.46472E-01
 -1       754 2.69759E-01
 -1       755 6.01580E+00
 -1       756 1.71033E-01
 -1       757 1.27243E-01
 -1       758 1.22010E-01
 -1       759 1.70341E-01
 -1       760 2.59780E-01
 -1       761 3.76416E-01
 -1       762 5.33074E-01
 -1       763 7.12135E-01
 -1       764 9.16836E-01
 -1       765 1.19956E+00
 -1       766 1.60650E+00
 -1       767 2.18199E+00
 -1       768 2.86172E+00
 -1       769 4.66840E+00
 -1       770 6.08680E+00
 -1       771 3.81596E+00
 -1       772 2.33138E+00
 -1       773 1.73020E+00
 -1       774 1.29019E+00
 -1       775 1.00580E+00
 -1       776 8.10679E-01
 -1       777 6.44008E-01
 -1       778 5.01054E-01
 -1       779 3.82667E-01
 -1       780 2.87038E-01
 -1       781 2.11304E-01
 -1       782 1.52425E-01
 -1       783 1.07860E-01
 -1       784 7.57153E-02
 -1       785 5.17501E-02
 -1       786 3.38464E-02
 -1       787 4.22573E-02
 -1       788 1.77130E-01
 -1       789 2.63023E-01
 -1       790 1.69843E-01
 -1       791 5.05054E-01
 -1       792 6.44405E-01
 -1       793 7.87933E-01
 -1       794 9.38620E-01
 -1       795 1.19761E+00
 -1       796 1.45133E+00
 -1       797 1.68119E+00
 -1       798 2.91407E+00
 -1       799 2.12184E+00
 -1       800 3.86308E+00
 -1       801 2.28294E+00
 -1       802 1.69659E+00
 -1       803 1.59875E+00
 -1       804 1.91431E+00
 -1       805 1.56825E+00
 -1       806 1.34486E+00
 -1       807 1.10629E+00
 -1       808 8.93498E-01
 -1       809 7.73118E-01
 -1       810 6.48679E-01
 -1       811 5.34337E-01
 -1       812 4.28821E-01
 -1       813 3.37752E-01
 -1       814 2.62783E-01
 -1       815 2.01127E-01
 -1       816 1.51347E-01
 -1       817 1.11869E-01
 -1       818 8.10709E-02
 -1       819 5.67982E-02
 -1       820 2.71071E-01
 -1       821 1.07214E+01
 -1       822 2.98726E-02
 -1       823 4.05842E-02
 -1       824 1.22059E+01
 -1       825 3.70817E+00
 -1       826 2.29427E-01
 -1       827 3.27350E+00
 -1       828 1.07214E+01
 -1       829 4.22573E-02
 -1       830 3.77012E-01
 -1       831 1.00572E+01
 -1       832 2.61503E-01
 -1       833 2.62957E-01
 -1       834 7.28108E+00
 -1       835 8.66800E+00
 -1       836 7.31979E+00
 -1       837 2.30674E+00
 -1       838 2.21078E+00
 -1       839 1.77156E-01
 -1       840 5.27748E+00
 -1       841 9.38130E+00
 -1       842 9.73413E+00
 -1       843 7.13397E+00
 -1       844 3.55983E+00
 -1       845 9.38130E+00
 -1       846 2.55225E-01
 -1       847 2.73724E-01
 -1       848 3.21477E+00
 -1       849 3.57747E-02
 -1       850 1.20594E-01
 -1       851 6.30392E+00
 -1       852 1.08015E-01
 -1       853 4.53500E-02
 -1       854 2.73724E-01
 -1       855 4.07858E-02
 -1       856 4.07858E-02
 -1       857 1.00330E+01
 -1       858 7.10983E+00
 -1       859 2.29609E-01
 -1       860 3.14692E-02
 -1       861 3.57747E-02
 -1       862 2.75357E-01
 -1       863 2.75357E-01
 -1       864 1.32057E-01
 -1       865 1.73364E-01
 -1       866 2.43860E-01
 -1       867 3.56095E-01
 -1       868 5.04755E-01
 -1       869 6.88751E-01
 -1       870 9.16836E-01
 -1       871 1.19956E+00
 -1       872 1.54581E+00
 -1       873 2.11096E+00
 -1       874 3.99397E+00
 -1       875 5.24313E+00
 -1       876 7.36417E+00
 -1       877 1.37153E-01
 -1       878 5.90170E+00
 -1       879 2.41495E+00
 -1       880 1.64120E+00
 -1       881 1.29019E+00
 -1       882 1.00580E+00
 -1       883 7.80256E-01
 -1       884 6.02102E-01
 -1       885 4.61347E-01
 -1       886 3.50222E-01
 -1       887 2.62762E-01
 -1       888 1.94397E-01
 -1       889 1.41487E-01
 -1       890 1.00941E-01
 -1       891 7.01093E-02
 -1       892 7.80182E-01
 -1       893 6.05053E-01
 -1       894 1.32512E+00
 -1       895 1.68268E+00
 -1       896 2.19915E+00
 -1       897 3.04906E+00
 -1       898 2.52730E+00
 -1       899 1.94380E+00
 -1       900 1.46806E+00
 -1       901 1.21797E+00
 -1       902 9.60854E-01
 -1       903 7.47315E-01
 -1       904 5.90591E-01
 -1       905 4.74294E-01
 -1       906 3.87964E-01
 -1       907 3.08841E-01
 -1       908 2.39889E-01
 -1       909 1.82003E-01
 -1       910 1.34794E-01
 -1       911 9.74531E-02
 -1       912 6.88510E-02
 -1       913 2.70826E-01
 -1       914 4.88056E+00
 -1       915 1.21418E-01
 -1       916 5.81503E-02
 -1       917 8.39269E+00
 -1       918 1.03419E+00
 -1       919 2.53159E-01
 -1       920 8.39269E+00
 -1       921 7.36417E+00
 -1       922 5.76559E+00
 -1       923 1.12404E-01
 -1       924 1.01911E-01
 -1       925 6.58258E+00
 -1       926 4.51615E+00
 -1       927 6.91119E+00
 -1       928 1.67819E-01
 -1       929 1.89205E-01
 -1       930 1.81054E-01
 -1       931 1.04194E-01
 -1       932 3.48650E-01
 -1       933 4.70347E-02
 -1       934 4.68037E-01
 -1       935 5.19133E-02
 -1       936 1.87559E-01
 -1       937 1.90265E-01
 -1       938 6.02673E-02
 -1       939 5.23626E-02
 -1       940 1.21172E-01
 -1       941 3.64094E+00
 -1       942 5.73203E-02
 -1       943 2.95505E+00
 -1       944 6.28107E+00
 -1       945 4.89716E+00
 -1       946 1.75801E-01
 -1       947 6.02673E-02
 -1       948 5.53204E+00
 -1       949 2.21979E-01
 -1       950 3.02314E-01
 -1       951 4.26725E-01
 -1       952 5.87096E-01
 -1       953 7.99608E-01
 -1       954 1.09137E+00
 -1       955 1.50929E+00
 -1       956 2.11096E+00
 -1       957 3.99397E+00
 -1       958 7.76236E-01
 -1       959 5.24804E+00
 -1       960 2.25450E+00
 -1       961 1.62540E+00
 -1       962 1.17687E+00
 -1       963 8.74899E-01
 -1       964 6.60341E-01
 -1       965 5.02134E-01
 -1       966 3.82151E-01
 -1       967 2.89369E-01
 -1       968 2.17353E-01
 -1       969 1.61305E-01
 -1       970 1.18046E-01
 -1       971 8.46973E-02
 -1       972 3.16058E+00
 -1       973 1.71765E+00
 -1       974 2.72213E+00
 -1       975 1.87559E-01
 -1       976 1.41728E-01
 -1       977 1.16357E+00
 -1       978 9.22511E-01
 -1       979 7.22312E-01
 -1       980 5.90591E-01
 -1       981 4.73817E-01
 -1       982 3.74328E-01
 -1       983 2.90798E-01
 -1       984 2.22502E-01
 -1       985 1.67234E-01
 -1       986 1.23435E-01
 -1       987 1.03570E-01
 -1       988 1.90265E-01
 -1       989 1.30645E-01
 -1       990 8.95689E-02
 -1       991 5.73203E-02
 -1       992 5.53204E+00
 -1       993 4.75141E+00
 -1       994 1.23287E-01
 -1       995 4.61501E+00
 -1       996 1.66521E+00
 -1       997 7.19350E-02
 -1       998 1.77251E-01
 -1       999 7.67663E-02
 -1      1000 1.02859E+00
 -1      1001 2.47628E-01
 -1      1002 6.05053E-01
 -1      1003 1.23287E-01
 -1      1004 1.14808E-01
 -1      1005 1.10119E-01
 -1      1006 7.25851E-02
 -1      1007 3.48650E-01
 -1      1008 1.11796E-01
 -1      1009 1.38068E+00
 -1      1010 3.83746E+00
 -1      1011 7.19398E-02
 -1      1012 3.43213E+00
 -1      1013 2.72213E+00
 -1      1014 7.19350E-02
 -1      1015 3.61546E-01
 -1      1016 4.60003E-01
 -1      1017 5.89955E-01
 -1      1018 8.06500E-01
 -1      1019 1.13414E+00
 -1      1020 1.68383E+00
 -1      1021 2.91538E+00
 -1      1022 3.31427E+00
 -1      1023 1.42700E-01
 -1      1024 3.71101E+00
 -1      1025 1.79892E+00
 -1      1026 1.20051E+00
 -1      1027 8.65740E-01
 -1      1028 6.37852E-01
 -1      1029 4.81306E-01
 -1      1030 3.67694E-01
 -1      1031 2.80349E-01
 -1      1032 2.12939E-01
 -1      1033 1.61229E-01
 -1      1034 1.20313E-01
 -1      1035 9.95261E-02
 -1      1036 4.68037E-01
 -1      1037 2.10429E-01
 -1      1038 1.03570E-01
 -1      1039 1.08353E+00
 -1      1040 5.49605E-01
 -1      1041 4.25861E-01
 -1      1042 3.25442E-01
 -1      1043 2.47271E-01
 -1      1044 1.86482E-01
 -1      1045 1.39278E-01
 -1      1046 1.04768E-01
 -1      1047 1.02071E-01
 -1      1048 3.17138E+00
 -1      1049 1.84105E-01
 -1      1050 7.25851E-02
 -1      1051 2.24282E-01
 -1      1052 1.76689E+00
 -1      1053 1.27543E+00
 -1      1054 3.17138E+00
 -1      1055 9.22511E-01
 -1      1056 3.71101E+00
 -1      1057 7.12599E-01
 -1      1058 1.70979E-01
 -1      1059 2.80297E-01
 -1      1060 7.76236E-01
 -1      1061 1.02859E+00
 -1      1062 2.24018E-01
 -1      1063 1.41872E+00
 -1      1064 1.30499E-01
 -1      1065 3.16736E-01
 -1      1066 1.00432E-01
 -1      1067 8.56254E-02
 -1      1068 2.04202E+00
 -1      1069 7.69420E-02
 -1      1070 5.40657E-01
 -1      1071 7.04560E-01
 -1      1072 9.35277E-01
 -1      1073 1.36743E+00
 -1      1074 2.12371E+00
 -1      1075 1.40363E-01
 -1      1076 5.84539E-01
 -1      1077 9.87695E-01
 -1      1078 1.21751E+00
 -1      1079 9.58584E-01
 -1      1080 8.91115E-01
 -1      1081 6.23760E-01
 -1      1082 4.59027E-01
 -1      1083 3.12218E-01
 -1      1084 2.75742E-01
 -1      1085 1.89641E-01
 -1      1086 1.42267E-01
 -1      1087 9.95261E-02
 -1      1088 2.13708E-01
 -1      1089 4.59027E-01
 -1      1090 6.23760E-01
 -1      1091 1.84476E-01
 -1      1092 1.84476E-01
 -1      1093 3.17138E+00
 -1      1094 2.66598E-01
 -1      1095 8.04796E-01
 -1      1096 3.45498E-01
 -1      1097 2.12371E+00
 -1      1098 8.91115E-01
 -1      1099 2.57531E-01
 -1      1100 4.30744E-01
 -1      1101 1.46308E+00
 -1      1102 1.36743E+00
 -1      1103 1.11549E-01
 -1      1104 1.55283E+00
 -1      1105 6.68211E-01
 -1      1106 1.20364E+00
 -1      1107 9.26828E-01
 -1      1108 4.33835E-01
 -1      1109 2.14709E-01
 -1      1110 2.14709E-01
 -1      1111 2.95424E-01
 -1      1112 1.51882E+00
 -1      1113 2.19850E-01
 -1      1114 2.75742E-01
 -1      1115 8.91115E-01
 -1      1116 2.75742E-01
 -1      1117 8.77328E-02
 -1      1118 4.84004E-01
 -1      1119 3.62603E-01
 -1      1120 4.38827E-01
 -1      1121 1.15763E+00
 -1      1122 1.31260E+01
 -1      1123 8.37253E+00
 -1      1124 2.70730E+00
 -1      1125 1.53658E+00
 -1      1126 1.15433E+00
 -1      1127 9.57833E-01
 -1      1128 8.37243E-01
 -1      1129 7.60606E-01
 -1      1130 7.32262E-01
 -1      1131 7.63665E-01
 -1      1132 8.39844E-01
 -1      1133 9.62782E-01
 -1      1134 1.16775E+00
 -1      1135 1.55024E+00
 -1      1136 2.63338E+00
 -1      1137 6.02878E+00
 -1      1138 1.13089E+01
 -1      1139 1.31260E+01
 -1      1140 8.73636E+00
 -1      1141 3.85554E+00
 -1      1142 2.74991E+00
 -1      1143 1.78148E+00
 -1      1144 1.26679E+00
 -1      1145 9.96244E-01
 -1      1146 8.06396E-01
 -1      1147 6.65609E-01
 -1      1148 5.60231E-01
 -1      1149 5.50662E-01
 -1      1150 6.25436E-01
 -1      1151 7.05356E-01
 -1      1152 8.06270E-01
 -1      1153 9.81446E-01
 -1      1154 1.24121E+00
 -1      1155 1.50916E+00
 -1      1156 1.67432E+00
 -1      1157 1.71690E+00
 -1      1158 1.69997E+00
 -1      1159 1.81711E+00
 -1      1160 2.49322E+00
 -1      1161 3.82821E+00
 -1      1162 4.67042E+00
 -1      1163 4.73947E+00
 -1      1164 4.75927E+00
 -1      1165 4.05750E+00
 -1      1166 2.70197E+00
 -1      1167 1.87592E+00
 -1      1168 1.70365E+00
 -1      1169 1.69592E+00
 -1      1170 1.66466E+00
 -1      1171 1.52604E+00
 -1      1172 1.26676E+00
 -1      1173 1.01092E+00
 -1      1174 7.93678E-01
 -1      1175 6.31130E-01
 -1      1176 5.21957E-01
 -1      1177 4.21110E-01
 -1      1178 3.30054E-01
 -1      1179 2.52185E-01
 -1      1180 1.88084E-01
 -1      1181 1.38257E-01
 -1      1182 1.06942E-01
 -1      1183 8.72743E-02
 -1      1184 6.89706E-02
 -1      1185 5.18711E-02
 -1      1186 3.52263E-02
 -1      1187 2.09712E-02
 -1      1188 9.74446E-03
 -1      1189 1.40219E+01
 -1      1190 8.72378E+00
 -1      1191 2.93445E+00
 -1      1192 2.07107E+00
 -1      1193 1.45506E+00
 -1      1194 1.11395E+00
 -1      1195 9.42522E-01
 -1      1196 8.11415E-01
 -1      1197 7.09786E-01
 -1      1198 6.29423E-01
 -1      1199 5.62948E-01
 -1      1200 5.39257E-01
 -1      1201 5.58012E-01
 -1      1202 5.72487E-01
 -1      1203 5.82120E-01
 -1      1204 6.71032E-01
 -1      1205 8.11742E-01
 -1      1206 9.23635E-01
 -1      1207 1.09093E+00
 -1      1208 1.20502E+00
 -1      1209 1.34528E+00
 -1      1210 1.62238E+00
 -1      1211 2.17664E+00
 -1      1212 2.71300E+00
 -1      1213 3.04415E+00
 -1      1214 3.25638E+00
 -1      1215 3.05605E+00
 -1      1216 2.36717E+00
 -1      1217 1.54560E+00
 -1      1218 1.04358E+00
 -1      1219 9.20313E-01
 -1      1220 9.97461E-01
 -1      1221 1.02887E+00
 -1      1222 9.95869E-01
 -1      1223 8.96810E-01
 -1      1224 7.64947E-01
 -1      1225 6.33553E-01
 -1      1226 5.04915E-01
 -1      1227 3.86047E-01
 -1      1228 2.93599E-01
 -1      1229 2.28297E-01
 -1      1230 1.75085E-01
 -1      1231 1.30324E-01
 -1      1232 9.39245E-02
 -1      1233 6.50604E-02
 -1      1234 4.73424E-02
 -1      1235 3.76516E-02
 -1      1236 2.75285E-02
 -1      1237 1.80129E-02
 -1      1238 8.85556E-03
 -1      1239 4.24549E-03
 -1      1240 4.72566E-03
 -1      1241 4.70707E-03
 -1      1242 4.29061E-03
 -1      1243 2.87081E-03
 -1      1244 2.37266E-03
 -1      1245 3.48949E-03
 -1      1246 4.31083E-03
 -1      1247 4.52051E-03
 -1      1248 4.29152E-03
 -1      1249 3.43080E-03
 -1      1250 2.42698E-03
 -1      1251 3.07932E-03
 -1      1252 4.33222E-03
 -1      1253 4.56068E-03
 -1      1254 4.59660E-03
 -1      1255 4.53612E-03
 -1      1256 2.49023E+01
 -1      1257 3.60578E+01
 -1      1258 4.76110E+01
 -1      1259 3.44656E+01
 -1      1260 1.68688E+01
 -1      1261 1.24174E+01
 -1      1262 1.23378E+01
 -1      1263 1.22581E+01
 -1      1264 1.21712E+01
 -1      1265 1.22051E+01
 -1      1266 1.86026E+01
 -1      1267 2.76632E+01
 -1      1268 3.04472E+01
 -1      1269 2.75528E+01
 -1      1270 2.44804E+01
 -1      1271 2.43025E+01
 -1      1272 3.42885E+01
 -1      1273 4.42745E+01
 -1      1274 3.10049E+01
 -1      1275 1.47295E+01
 -1      1276 1.18557E+01
 -1      1277 1.19879E+01
 -1      1278 1.21889E+01
 -1      1279 1.23899E+01
 -1      1280 1.21074E+01
 -1      1281 1.67580E+01
 -1      1282 3.49218E+01
 -1      1283 4.81527E+01
 -1      1284 3.67263E+01
 -1      1285 2.52999E+01
 -1      1286 1.31260E+01
 -1      1287 4.81791E+00
 -1      1288 9.57135E+00
 -1      1289 2.03182E+00
 -1      1290 2.94360E+00
 -1      1291 4.14242E+00
 -1      1292 1.38663E+00
 -1      1293 1.64558E+00
 -1      1294 1.88187E+00
 -1      1295 1.08983E+00
 -1      1296 1.21313E+00
 -1      1297 1.32214E+00
 -1      1298 9.22338E-01
 -1      1299 9.95534E-01
 -1      1300 1.05434E+00
 -1      1301 8.19168E-01
 -1      1302 8.66563E-01
 -1      1303 9.04263E-01
 -1      1304 7.53762E-01
 -1      1305 7.83005E-01
 -1      1306 8.12324E-01
 -1      1307 7.33160E-01
 -1      1308 7.32262E-01
 -1      1309 7.54660E-01
 -1      1310 7.86834E-01
 -1      1311 7.56328E-01
 -1      1312 7.56328E-01
 -1      1313 8.68423E-01
 -1      1314 8.22749E-01
 -1      1315 8.15412E-01
 -1      1316 1.00453E+00
 -1      1317 9.27260E-01
 -1      1318 9.10165E-01
 -1      1319 1.22921E+00
 -1      1320 1.10151E+00
 -1      1321 1.06599E+00
 -1      1322 1.66128E+00
 -1      1323 1.40649E+00
 -1      1324 1.34025E+00
 -1      1325 2.85406E+00
 -1      1326 2.02570E+00
 -1      1327 1.88196E+00
 -1      1328 6.24569E+00
 -1      1329 3.67865E+00
 -1      1330 3.07097E+00
 -1      1331 1.40219E+01
 -1      1332 1.13089E+01
 -1      1333 8.95875E+00
 -1      1334 1.40219E+01
 -1      1335 8.73636E+00
 -1      1336 4.34676E+00
 -1      1337 3.85554E+00
 -1      1338 3.36431E+00
 -1      1339 3.85554E+00
 -1      1340 2.74991E+00
 -1      1341 2.13551E+00
 -1      1342 2.74991E+00
 -1      1343 1.79756E+00
 -1      1344 1.44352E+00
 -1      1345 1.79756E+00
 -1      1346 1.26679E+00
 -1      1347 1.10613E+00
 -1      1348 1.28287E+00
 -1      1349 9.96244E-01
 -1      1350 8.86360E-01
 -1      1351 9.96244E-01
 -1      1352 8.06396E-01
 -1      1353 7.26433E-01
 -1      1354 8.06396E-01
 -1      1355 6.65609E-01
 -1      1356 6.04786E-01
 -1      1357 6.65609E-01
 -1      1358 5.56644E-01
 -1      1359 5.12089E-01
 -1      1360 5.56644E-01
 -1      1361 5.15676E-01
 -1      1362 5.50662E-01
 -1      1363 5.12089E-01
 -1      1364 5.85647E-01
 -1      1365 6.25436E-01
 -1      1366 5.50662E-01
 -1      1367 6.65225E-01
 -1      1368 7.05356E-01
 -1      1369 6.25436E-01
 -1      1370 7.66582E-01
 -1      1371 8.27366E-01
 -1      1372 7.26452E-01
 -1      1373 9.16967E-01
 -1      1374 1.03136E+00
 -1      1375 8.77280E-01
 -1      1376 1.11994E+00
 -1      1377 1.26532E+00
 -1      1378 1.05546E+00
 -1      1379 1.38659E+00
 -1      1380 1.50916E+00
 -1      1381 1.26532E+00
 -1      1382 1.63174E+00
 -1      1383 1.67432E+00
 -1      1384 1.50916E+00
 -1      1385 1.71690E+00
 -1      1386 1.71690E+00
 -1      1387 1.67432E+00
 -1      1388 1.69997E+00
 -1      1389 1.68304E+00
 -1      1390 1.69997E+00
 -1      1391 1.64966E+00
 -1      1392 1.78374E+00
 -1      1393 1.64966E+00
 -1      1394 1.95119E+00
 -1      1395 2.49322E+00
 -1      1396 1.78374E+00
 -1      1397 3.03526E+00
 -1      1398 3.82821E+00
 -1      1399 2.49322E+00
 -1      1400 4.62116E+00
 -1      1401 4.67042E+00
 -1      1402 3.82821E+00
 -1      1403 4.71967E+00
 -1      1404 4.73947E+00
 -1      1405 4.67042E+00
 -1      1406 4.75927E+00
 -1      1407 4.75927E+00
 -1      1408 4.73947E+00
 -1      1409 4.05750E+00
 -1      1410 3.35574E+00
 -1      1411 4.05750E+00
 -1      1412 2.70197E+00
 -1      1413 2.04819E+00
 -1      1414 2.70197E+00
 -1      1415 1.79974E+00
 -1      1416 1.62746E+00
 -1      1417 1.79974E+00
 -1      1418 1.70365E+00
 -1      1419 1.70365E+00
 -1      1420 1.62746E+00
 -1      1421 1.69592E+00
 -1      1422 1.68819E+00
 -1      1423 1.69592E+00
 -1      1424 1.66466E+00
 -1      1425 1.64113E+00
 -1      1426 1.66466E+00
 -1      1427 1.52604E+00
 -1      1428 1.41095E+00
 -1      1429 1.52604E+00
 -1      1430 1.29152E+00
 -1      1431 1.14733E+00
 -1      1432 1.29152E+00
 -1      1433 1.06653E+00
 -1      1434 9.54889E-01
 -1      1435 1.09130E+00
 -1      1436 8.73537E-01
 -1      1437 7.67937E-01
 -1      1438 9.29148E-01
 -1      1439 6.82707E-01
 -1      1440 6.25758E-01
 -1      1441 7.62566E-01
 -1      1442 5.47044E-01
 -1      1443 4.94821E-01
 -1      1444 5.98622E-01
 -1      1445 4.27452E-01
 -1      1446 3.78827E-01
 -1      1447 4.52539E-01
 -1      1448 3.30385E-01
 -1      1449 2.87954E-01
 -1      1450 3.36727E-01
 -1      1451 2.55941E-01
 -1      1452 2.20503E-01
 -1      1453 2.56272E-01
 -1      1454 1.93662E-01
 -1      1455 1.64999E-01
 -1      1456 1.97418E-01
 -1      1457 1.43150E-01
 -1      1458 1.21986E-01
 -1      1459 1.48727E-01
 -1      1460 1.06942E-01
 -1      1461 9.67903E-02
 -1      1462 1.11834E-01
 -1      1463 8.72743E-02
 -1      1464 7.77584E-02
 -1      1465 8.72743E-02
 -1      1466 6.89706E-02
 -1      1467 6.01829E-02
 -1      1468 6.89706E-02
 -1      1469 5.18711E-02
 -1      1470 4.35593E-02
 -1      1471 5.18711E-02
 -1      1472 3.59925E-02
 -1      1473 2.76595E-02
 -1      1474 3.59925E-02
 -1      1475 2.13762E-02
 -1      1476 1.54541E-02
 -1      1477 2.21423E-02
 -1      1478 9.84085E-03
 -1      1479 1.02458E-02
 -1      1480 3.42561E+00
 -1      1481 8.72378E+00
 -1      1482 8.72378E+00
 -1      1483 2.44329E+00
 -1      1484 2.93445E+00
 -1      1485 2.93445E+00
 -1      1486 1.69884E+00
 -1      1487 2.07107E+00
 -1      1488 2.07107E+00
 -1      1489 1.21128E+00
 -1      1490 1.45506E+00
 -1      1491 1.45506E+00
 -1      1492 1.01661E+00
 -1      1493 1.11395E+00
 -1      1494 1.11395E+00
 -1      1495 8.68435E-01
 -1      1496 9.42522E-01
 -1      1497 9.42522E-01
 -1      1498 7.54394E-01
 -1      1499 8.11415E-01
 -1      1500 8.11415E-01
 -1      1501 6.65178E-01
 -1      1502 7.09786E-01
 -1      1503 7.09786E-01
 -1      1504 5.93668E-01
 -1      1505 6.29423E-01
 -1      1506 6.29423E-01
 -1      1507 5.32228E-01
 -1      1508 5.62948E-01
 -1      1509 5.62948E-01
 -1      1510 5.27616E-01
 -1      1511 5.20588E-01
 -1      1512 5.20588E-01
 -1      1513 5.58012E-01
 -1      1514 5.46285E-01
 -1      1515 5.27616E-01
 -1      1516 5.72487E-01
 -1      1517 5.69739E-01
 -1      1518 5.58012E-01
 -1      1519 5.82120E-01
 -1      1520 5.75234E-01
 -1      1521 5.72487E-01
 -1      1522 6.84354E-01
 -1      1523 6.02328E-01
 -1      1524 5.95443E-01
 -1      1525 8.11742E-01
 -1      1526 7.53058E-01
 -1      1527 6.84354E-01
 -1      1528 9.23635E-01
 -1      1529 8.70427E-01
 -1      1530 8.11742E-01
 -1      1531 1.09093E+00
 -1      1532 9.76843E-01
 -1      1533 9.23635E-01
 -1      1534 1.20502E+00
 -1      1535 1.20502E+00
 -1      1536 1.09093E+00
 -1      1537 1.33607E+00
 -1      1538 1.19580E+00
 -1      1539 1.19580E+00
 -1      1540 1.62238E+00
 -1      1541 1.48555E+00
 -1      1542 1.33607E+00
 -1      1543 2.23202E+00
 -1      1544 1.81459E+00
 -1      1545 1.67776E+00
 -1      1546 2.71300E+00
 -1      1547 2.59407E+00
 -1      1548 2.23202E+00
 -1      1549 3.04415E+00
 -1      1550 2.83192E+00
 -1      1551 2.71300E+00
 -1      1552 3.25638E+00
 -1      1553 3.25638E+00
 -1      1554 3.04415E+00
 -1      1555 2.85573E+00
 -1      1556 3.05605E+00
 -1      1557 3.05605E+00
 -1      1558 1.87861E+00
 -1      1559 2.36717E+00
 -1      1560 2.36717E+00
 -1      1561 1.21258E+00
 -1      1562 1.54560E+00
 -1      1563 1.54560E+00
 -1      1564 8.18453E-01
 -1      1565 9.87455E-01
 -1      1566 9.87455E-01
 -1      1567 9.20313E-01
 -1      1568 8.74576E-01
 -1      1569 8.18453E-01
 -1      1570 9.97461E-01
 -1      1571 9.66051E-01
 -1      1572 9.20313E-01
 -1      1573 1.02887E+00
 -1      1574 1.02887E+00
 -1      1575 9.97461E-01
 -1      1576 9.62866E-01
 -1      1577 9.95869E-01
 -1      1578 9.95869E-01
 -1      1579 8.30754E-01
 -1      1580 8.96810E-01
 -1      1581 8.96810E-01
 -1      1582 6.99140E-01
 -1      1583 7.64947E-01
 -1      1584 7.64947E-01
 -1      1585 5.73399E-01
 -1      1586 6.38986E-01
 -1      1587 6.38986E-01
 -1      1588 4.53023E-01
 -1      1589 5.16074E-01
 -1      1590 5.21507E-01
 -1      1591 3.44058E-01
 -1      1592 3.99875E-01
 -1      1593 4.11034E-01
 -1      1594 2.61392E-01
 -1      1595 2.98022E-01
 -1      1596 3.11850E-01
 -1      1597 1.99625E-01
 -1      1598 2.28297E-01
 -1      1599 2.32720E-01
 -1      1600 1.50544E-01
 -1      1601 1.75085E-01
 -1      1602 1.75085E-01
 -1      1603 1.10235E-01
 -1      1604 1.30454E-01
 -1      1605 1.30454E-01
 -1      1606 7.90220E-02
 -1      1607 9.52029E-02
 -1      1608 9.53327E-02
 -1      1609 5.43766E-02
 -1      1610 6.70597E-02
 -1      1611 6.83381E-02
 -1      1612 4.23076E-02
 -1      1613 4.73424E-02
 -1      1614 4.93417E-02
 -1      1615 3.29956E-02
 -1      1616 3.76516E-02
 -1      1617 3.76516E-02
 -1      1618 2.20615E-02
 -1      1619 2.75285E-02
 -1      1620 2.75285E-02
 -1      1621 1.39644E-02
 -1      1622 1.80129E-02
 -1      1623 1.80129E-02
 -1      1624 9.35433E-03
 -1      1625 6.04423E-03
 -1      1626 6.06282E-03
 -1      1627 6.71730E-03
 -1      1628 6.71730E-03
 -1      1629 8.05446E-03
 -1      1630 6.30084E-03
 -1      1631 6.71730E-03
 -1      1632 8.72753E-03
 -1      1633 3.93437E-03
 -1      1634 4.93771E-03
 -1      1635 7.36440E-03
 -1      1636 4.39862E-03
 -1      1637 3.89343E-03
 -1      1638 5.96033E-03
 -1      1639 6.34536E-03
 -1      1640 5.73371E-03
 -1      1641 7.25449E-03
 -1      1642 7.11504E-03
 -1      1643 6.90535E-03
 -1      1644 9.14957E-03
 -1      1645 7.11734E-03
 -1      1646 7.11734E-03
 -1      1647 9.71186E-03
 -1      1648 6.88834E-03
 -1      1649 7.11734E-03
 -1      1650 9.71416E-03
 -1      1651 5.66294E-03
 -1      1652 6.29467E-03
 -1      1653 9.12049E-03
 -1      1654 3.97766E-03
 -1      1655 4.34974E-03
 -1      1656 7.21362E-03
 -1      1657 5.24309E-03
 -1      1658 4.21866E-03
 -1      1659 6.14142E-03
 -1      1660 6.81756E-03
 -1      1661 6.58909E-03
 -1      1662 7.72843E-03
 -1      1663 6.81756E-03
 -1      1664 6.81756E-03
 -1      1665 9.07444E-03
 -1      1666 6.76211E-03
 -1      1667 6.72619E-03
 -1      1668 8.98307E-03
 -1      1669 1.23754E-02
 -1      1670 2.66605E+01
 -1      1671 2.70581E+01
 -1      1672 3.86301E+01
 -1      1673 2.70769E+01
 -1      1674 4.76110E+01
 -1      1675 4.76110E+01
 -1      1676 2.16227E+01
 -1      1677 3.47681E+01
 -1      1678 1.17914E+01
 -1      1679 1.62427E+01
 -1      1680 1.24174E+01
 -1      1681 1.24174E+01
 -1      1682 1.21533E+01
 -1      1683 1.22330E+01
 -1      1684 1.22581E+01
 -1      1685 1.22581E+01
 -1      1686 1.20842E+01
 -1      1687 1.21712E+01
 -1      1688 1.19873E+01
 -1      1689 1.18664E+01
 -1      1690 1.86026E+01
 -1      1691 1.23260E+01
 -1      1692 2.83685E+01
 -1      1693 2.55845E+01
 -1      1694 3.12108E+01
 -1      1695 3.12108E+01
 -1      1696 2.83164E+01
 -1      1697 3.12108E+01
 -1      1698 2.81668E+01
 -1      1699 2.83447E+01
 -1      1700 2.81668E+01
 -1      1701 2.81668E+01
 -1      1702 4.12568E+01
 -1      1703 3.12708E+01
 -1      1704 4.42745E+01
 -1      1705 4.42745E+01
 -1      1706 1.78393E+01
 -1      1707 3.11089E+01
 -1      1708 1.10980E+01
 -1      1709 1.41039E+01
 -1      1710 1.18557E+01
 -1      1711 1.17235E+01
 -1      1712 1.19879E+01
 -1      1713 1.19879E+01
 -1      1714 1.19510E+01
 -1      1715 1.17500E+01
 -1      1716 1.23899E+01
 -1      1717 1.23899E+01
 -1      1718 1.18250E+01
 -1      1719 1.21074E+01
 -1      1720 1.64735E+01
 -1      1721 1.15405E+01
 -1      1722 3.59456E+01
 -1      1723 2.27147E+01
 -1      1724 4.81527E+01
 -1      1725 4.81527E+01
 -1      1726 2.76871E+01
 -1      1727 3.91135E+01
 -1      1728 2.73592E+01
 -1      1729 2.73592E+01
 -1      1730 1.65453E+01
 -1      1731 3.47681E+01
 -1      1732 9.35433E-03
 -1      1733 1.06729E-02
 -1      1734 2.92328E+01
 -1      1735 3.86301E+01
 -1      1736 2.91174E+01
 -1      1737 1.17914E+01
 -1      1738 1.22330E+01
 -1      1739 1.21533E+01
 -1      1740 1.21712E+01
 -1      1741 1.18664E+01
 -1      1742 1.19873E+01
 -1      1743 1.93079E+01
 -1      1744 2.91320E+01
 -1      1745 3.19744E+01
 -1      1746 3.20027E+01
 -1      1747 3.20310E+01
 -1      1748 3.51350E+01
 -1      1749 4.12568E+01
 -1      1750 3.11089E+01
 -1      1751 1.42078E+01
 -1      1752 1.10980E+01
 -1      1753 1.18557E+01
 -1      1754 1.17500E+01
 -1      1755 1.19510E+01
 -1      1756 1.21074E+01
 -1      1757 1.15405E+01
 -1      1758 1.74972E+01
 -1      1759 3.59456E+01
 -1      1760 3.91135E+01
 -1      1761 2.97464E+01
 -1      1762 9.57135E+00
 -1      1763 1.27190E+00
 -1      1764 1.65814E+00
 -1      1765 2.35235E+00
 -1      1766 4.22666E+00
 -1      1767 1.74238E+00
 -1      1768 8.70194E-01
 -1      1769 9.64494E-01
 -1      1770 7.66281E-01
 -1      1771 8.22057E-01
 -1      1772 7.32212E-01
 -1      1773 6.96951E-01
 -1      1774 7.33115E-01
 -1      1775 6.50908E-01
 -1      1776 6.51828E-01
 -1      1777 6.73329E-01
 -1      1778 5.94119E-01
 -1      1779 6.76583E-01
 -1      1780 6.53415E-01
 -1      1781 5.72083E-01
 -1      1782 7.35846E-01
 -1      1783 6.99931E-01
 -1      1784 5.97017E-01
 -1      1785 8.29640E-01
 -1      1786 7.70803E-01
 -1      1787 6.55321E-01
 -1      1788 9.75510E-01
 -1      1789 8.78524E-01
 -1      1790 7.39162E-01
 -1      1791 1.22121E+00
 -1      1792 1.04393E+00
 -1      1793 8.56471E-01
 -1      1794 1.69222E+00
 -1      1795 1.32780E+00
 -1      1796 1.03148E+00
 -1      1797 2.59793E+00
 -1      1798 1.77334E+00
 -1      1799 1.21919E+00
 -1      1800 8.10257E+00
 -1      1801 3.03937E+00
 -1      1802 1.74174E+00
 -1      1803 2.80439E+00
 -1      1804 5.18175E+00
 -1      1805 2.16530E+00
 -1      1806 2.65646E+00
 -1      1807 2.03525E+00
 -1      1808 3.39167E+00
 -1      1809 2.55064E+00
 -1      1810 1.93624E+00
 -1      1811 1.70183E+00
 -1      1812 1.36387E+00
 -1      1813 1.50256E+00
 -1      1814 1.17893E+00
 -1      1815 1.00219E+00
 -1      1816 1.08320E+00
 -1      1817 9.05041E-01
 -1      1818 7.95156E-01
 -1      1819 8.01106E-01
 -1      1820 7.43812E-01
 -1      1821 6.63849E-01
 -1      1822 6.52608E-01
 -1      1823 6.16042E-01
 -1      1824 5.55218E-01
 -1      1825 5.53457E-01
 -1      1826 5.10183E-01
 -1      1827 4.62041E-01
 -1      1828 4.60616E-01
 -1      1829 4.49115E-01
 -1      1830 4.52702E-01
 -1      1831 4.02654E-01
 -1      1832 4.83264E-01
 -1      1833 5.18250E-01
 -1      1834 4.20290E-01
 -1      1835 5.50830E-01
 -1      1836 5.90619E-01
 -1      1837 4.83432E-01
 -1      1838 6.74946E-01
 -1      1839 7.36173E-01
 -1      1840 6.00339E-01
 -1      1841 8.22065E-01
 -1      1842 9.11666E-01
 -1      1843 7.70559E-01
 -1      1844 9.84684E-01
 -1      1845 1.07327E+00
 -1      1846 9.29470E-01
 -1      1847 1.13693E+00
 -1      1848 1.25820E+00
 -1      1849 1.06615E+00
 -1      1850 1.33199E+00
 -1      1851 1.45457E+00
 -1      1852 1.20360E+00
 -1      1853 1.46660E+00
 -1      1854 1.50919E+00
 -1      1855 1.28943E+00
 -1      1856 1.46016E+00
 -1      1857 1.44323E+00
 -1      1858 1.25244E+00
 -1      1859 1.44289E+00
 -1      1860 1.40952E+00
 -1      1861 1.20308E+00
 -1      1862 1.42141E+00
 -1      1863 1.58886E+00
 -1      1864 1.21464E+00
 -1      1865 1.95193E+00
 -1      1866 2.49396E+00
 -1      1867 1.58959E+00
 -1      1868 2.80471E+00
 -1      1869 3.59766E+00
 -1      1870 2.26341E+00
 -1      1871 3.78263E+00
 -1      1872 3.83188E+00
 -1      1873 2.75912E+00
 -1      1874 3.82948E+00
 -1      1875 3.84927E+00
 -1      1876 2.94169E+00
 -1      1877 3.71460E+00
 -1      1878 3.01283E+00
 -1      1879 2.80460E+00
 -1      1880 2.68258E+00
 -1      1881 2.02880E+00
 -1      1882 2.33967E+00
 -1      1883 1.71812E+00
 -1      1884 1.46966E+00
 -1      1885 1.69873E+00
 -1      1886 1.39782E+00
 -1      1887 1.47400E+00
 -1      1888 1.31620E+00
 -1      1889 1.44572E+00
 -1      1890 1.43799E+00
 -1      1891 1.21607E+00
 -1      1892 1.48537E+00
 -1      1893 1.46184E+00
 -1      1894 1.23517E+00
 -1      1895 1.46538E+00
 -1      1896 1.35029E+00
 -1      1897 1.28609E+00
 -1      1898 1.28558E+00
 -1      1899 1.16615E+00
 -1      1900 1.22492E+00
 -1      1901 1.11197E+00
 -1      1902 1.03117E+00
 -1      1903 1.10603E+00
 -1      1904 9.67962E-01
 -1      1905 8.86610E-01
 -1      1906 9.88635E-01
 -1      1907 8.10420E-01
 -1      1908 7.25189E-01
 -1      1909 8.49233E-01
 -1      1910 6.48828E-01
 -1      1911 5.70114E-01
 -1      1912 6.96682E-01
 -1      1913 5.00764E-01
 -1      1914 4.33395E-01
 -1      1915 5.50970E-01
 -1      1916 3.74222E-01
 -1      1917 3.25780E-01
 -1      1918 4.22447E-01
 -1      1919 2.77466E-01
 -1      1920 2.45453E-01
 -1      1921 3.14961E-01
 -1      1922 2.07320E-01
 -1      1923 1.80479E-01
 -1      1924 2.28514E-01
 -1      1925 1.51230E-01
 -1      1926 1.29381E-01
 -1      1927 1.61133E-01
 -1      1928 1.09501E-01
 -1      1929 9.44570E-02
 -1      1930 1.12004E-01
 -1      1931 8.13469E-02
 -1      1932 7.18310E-02
 -1      1933 7.90136E-02
 -1      1934 6.27355E-02
 -1      1935 5.39478E-02
 -1      1936 5.68081E-02
 -1      1937 4.74490E-02
 -1      1938 3.91372E-02
 -1      1939 4.12139E-02
 -1      1940 3.39830E-02
 -1      1941 2.64161E-02
 -1      1942 2.95609E-02
 -1      1943 2.22776E-02
 -1      1944 1.59943E-02
 -1      1945 1.25106E-02
 -1      1946 2.02681E-02
 -1      1947 1.42224E+00
 -1      1948 1.79446E+00
 -1      1949 1.51648E+00
 -1      1950 1.04479E+00
 -1      1951 1.28857E+00
 -1      1952 1.01196E+00
 -1      1953 8.46310E-01
 -1      1954 9.43648E-01
 -1      1955 7.77153E-01
 -1      1956 7.18328E-01
 -1      1957 7.92414E-01
 -1      1958 6.22116E-01
 -1      1959 6.40418E-01
 -1      1960 6.97439E-01
 -1      1961 5.47332E-01
 -1      1962 5.74190E-01
 -1      1963 6.18798E-01
 -1      1964 5.04822E-01
 -1      1965 5.17118E-01
 -1      1966 5.52873E-01
 -1      1967 4.61885E-01
 -1      1968 4.65097E-01
 -1      1969 4.95817E-01
 -1      1970 4.19268E-01
 -1      1971 4.68210E-01
 -1      1972 4.79850E-01
 -1      1973 4.12720E-01
 -1      1974 5.11739E-01
 -1      1975 4.93070E-01
 -1      1976 4.52332E-01
 -1      1977 5.72167E-01
 -1      1978 5.60440E-01
 -1      1979 5.25894E-01
 -1      1980 6.21161E-01
 -1      1981 6.18414E-01
 -1      1982 6.20841E-01
 -1      1983 6.61552E-01
 -1      1984 6.41343E-01
 -1      1985 6.87270E-01
 -1      1986 7.30255E-01
 -1      1987 6.61552E-01
 -1      1988 7.07453E-01
 -1      1989 7.65508E-01
 -1      1990 7.06823E-01
 -1      1991 6.84020E-01
 -1      1992 7.31291E-01
 -1      1993 6.78083E-01
 -1      1994 5.73164E-01
 -1      1995 8.75132E-01
 -1      1996 7.61045E-01
 -1      1997 5.15494E-01
 -1      1998 1.06631E+00
 -1      1999 1.07552E+00
 -1      2000 7.45634E-01
 -1      2001 1.47552E+00
 -1      2002 1.32604E+00
 -1      2003 1.20576E+00
 -1      2004 1.79035E+00
 -1      2005 1.59813E+00
 -1      2006 1.58811E+00
 -1      2007 2.15239E+00
 -1      2008 1.79035E+00
 -1      2009 1.71072E+00
 -1      2010 2.25521E+00
 -1      2011 2.13628E+00
 -1      2012 1.69460E+00
 -1      2013 2.57889E+00
 -1      2014 2.36666E+00
 -1      2015 1.78995E+00
 -1      2016 2.36397E+00
 -1      2017 2.56429E+00
 -1      2018 1.88681E+00
 -1      2019 1.64438E+00
 -1      2020 2.13294E+00
 -1      2021 1.64118E+00
 -1      2022 1.04956E+00
 -1      2023 1.38258E+00
 -1      2024 1.14835E+00
 -1      2025 6.69313E-01
 -1      2026 8.94438E-01
 -1      2027 7.31421E-01
 -1      2028 7.25127E-01
 -1      2029 6.69004E-01
 -1      2030 5.75987E-01
 -1      2031 8.32800E-01
 -1      2032 7.87062E-01
 -1      2033 6.37613E-01
 -1      2034 8.85313E-01
 -1      2035 8.53903E-01
 -1      2036 7.20651E-01
 -1      2037 8.55922E-01
 -1      2038 8.88925E-01
 -1      2039 7.45366E-01
 -1      2040 7.59435E-01
 -1      2041 8.25491E-01
 -1      2042 7.18547E-01
 -1      2043 6.57695E-01
 -1      2044 7.23502E-01
 -1      2045 6.52183E-01
 -1      2046 5.54791E-01
 -1      2047 6.14945E-01
 -1      2048 5.73500E-01
 -1      2049 4.50194E-01
 -1      2050 5.07520E-01
 -1      2051 4.83478E-01
 -1      2052 3.51253E-01
 -1      2053 4.04401E-01
 -1      2054 3.90414E-01
 -1      2055 2.64267E-01
 -1      2056 3.10303E-01
 -1      2057 3.03670E-01
 -1      2058 1.96656E-01
 -1      2059 2.29750E-01
 -1      2060 2.28203E-01
 -1      2061 1.48882E-01
 -1      2062 1.73423E-01
 -1      2063 1.70453E-01
 -1      2064 1.10365E-01
 -1      2065 1.30454E-01
 -1      2066 1.28792E-01
 -1      2067 8.03004E-02
 -1      2068 9.53327E-02
 -1      2069 9.53327E-02
 -1      2070 5.63759E-02
 -1      2071 6.83381E-02
 -1      2072 6.83381E-02
 -1      2073 3.99845E-02
 -1      2074 4.70186E-02
 -1      2075 4.70186E-02
 -1      2076 2.87907E-02
 -1      2077 3.34467E-02
 -1      2078 3.11237E-02
 -1      2079 1.90846E-02
 -1      2080 2.45516E-02
 -1      2081 2.03468E-02
 -1      2082 1.10571E-02
 -1      2083 1.51057E-02
 -1      2084 1.21288E-02
 -1      2085 7.76563E-03
 -1      2086 8.43750E-03
 -1      2087 9.80063E-03
 -1      2088 1.10185E-02
 -1      2089 1.10185E-02
 -1      2090 1.20916E-02
 -1      2091 1.10185E-02
 -1      2092 1.03454E-02
 -1      2093 1.07296E-02
 -1      2094 1.33094E-02
 -1      2095 7.27133E-03
 -1      2096 7.31226E-03
 -1      2097 9.74850E-03
 -1      2098 1.07083E-02
 -1      2099 9.37316E-03
 -1      2100 1.07251E-02
 -1      2101 1.23405E-02
 -1      2102 1.17805E-02
 -1      2103 1.38992E-02
 -1      2104 1.23428E-02
 -1      2105 1.23405E-02
 -1      2106 1.49714E-02
 -1      2107 1.23481E-02
 -1      2108 1.23481E-02
 -1      2109 1.49767E-02
 -1      2110 1.17544E-02
 -1      2111 1.23481E-02
 -1      2112 1.49820E-02
 -1      2113 9.42419E-03
 -1      2114 1.07374E-02
 -1      2115 1.39650E-02
 -1      2116 7.50129E-03
 -1      2117 7.26029E-03
 -1      2118 1.07841E-02
 -1      2119 1.01412E-02
 -1      2120 8.79522E-03
 -1      2121 9.91409E-03
 -1      2122 1.13299E-02
 -1      2123 1.13299E-02
 -1      2124 1.23967E-02
 -1      2125 3.86301E+01
 -1      2126 2.96492E+01
 -1      2127 2.94841E+01
 -1      2128 2.97852E+01
 -1      2129 2.99005E+01
 -1      2130 2.94841E+01
 -1      2131 1.94799E+01
 -1      2132 3.23228E+01
 -1      2133 1.03787E+01
 -1      2134 1.57586E+01
 -1      2135 1.33133E+01
 -1      2136 1.02720E+00
 -1      2137 1.20069E+00
 -1      2138 9.76963E-01
 -1      2139 8.43053E-01
 -1      2140 1.09007E+01
 -1      2141 1.10852E+01
 -1      2142 1.11850E+01
 -1      2143 1.10801E+01
 -1      2144 1.11768E+01
 -1      2145 1.12638E+01
 -1      2146 1.03953E+01
 -1      2147 1.06131E+01
 -1      2148 9.70579E+00
 -1      2149 9.40836E+00
 -1      2150 9.06961E+00
 -1      2151 1.87315E+01
 -1      2152 1.17497E+01
 -1      2153 8.83202E+00
 -1      2154 2.52807E+01
 -1      2155 2.24383E+01
 -1      2156 3.19744E+01
 -1      2157 3.19744E+01
 -1      2158 3.30252E+01
 -1      2159 3.29969E+01
 -1      2160 3.29969E+01
 -1      2161 3.30252E+01
 -1      2162 3.30252E+01
 -1      2163 3.13658E+01
 -1      2164 2.82618E+01
 -1      2165 3.47376E+01
 -1      2166 3.17199E+01
 -1      2167 1.62581E+01
 -1      2168 2.94237E+01
 -1      2169 9.48899E+00
 -1      2170 1.32244E+01
 -1      2171 1.15393E+01
 -1      2172 9.40798E+00
 -1      2173 8.78242E+00
 -1      2174 1.09743E+01
 -1      2175 1.08422E+01
 -1      2176 1.11188E+01
 -1      2177 1.13567E+01
 -1      2178 1.13446E+01
 -1      2179 1.09057E+01
 -1      2180 1.04105E+01
 -1      2181 1.06930E+01
 -1      2182 9.10236E+00
 -1      2183 9.38687E+00
 -1      2184 1.68084E+01
 -1      2185 1.05671E+01
 -1      2186 8.41351E+00
 -1      2187 3.25902E+01
 -1      2188 2.03831E+01
 -1      2189 3.00743E+01
 -1      2190 3.91135E+01
 -1      2191 2.69678E+01
 -1      2192 2.72957E+01
 -1      2193 2.72957E+01
 -1      2194 9.70636E+00
 -1      2195 9.08032E+00
 -1      2196 2.90045E+00
 -1      2197 8.29368E+00
 -1      2198 8.37411E+00
 -1      2199 2.08678E+00
 -1      2200 2.99005E+01
 -1      2201 3.01519E+01
 -1      2202 1.12386E-02
 -1      2203 2.33419E+01
 -1      2204 2.97852E+01
 -1      2205 2.94185E+01
 -1      2206 2.69678E+01
 -1      2207 1.34530E+01
 -1      2208 7.97243E+00
 -1      2209 9.64773E+00
 -1      2210 1.05124E+01
 -1      2211 1.03431E+01
 -1      2212 7.79902E+00
 -1      2213 2.91741E+01
 -1      2214 1.96372E+01
 -1      2215 1.43233E+01
 -1      2216 2.48466E+01
 -1      2217 3.40194E+01
 -1      2218 1.48802E+01
 -1      2219 7.81640E+00
 -1      2220 9.93234E+00
 -1      2221 1.01906E+01
 -1      2222 2.52807E+01
 -1      2223 2.92560E+01
 -1      2224 8.52662E+00
 -1      2225 2.35510E+01
 -1      2226 1.09556E+00
 -1      2227 1.46640E+00
 -1      2228 5.46999E-01
 -1      2229 5.80165E-01
 -1      2230 5.94523E-01
 -1      2231 6.42660E-01
 -1      2232 4.90614E-01
 -1      2233 4.93525E-01
 -1      2234 4.91939E-01
 -1      2235 5.31648E-01
 -1      2236 5.08300E-01
 -1      2237 4.28156E-01
 -1      2238 5.83563E-01
 -1      2239 5.48606E-01
 -1      2240 4.59889E-01
 -1      2241 6.46615E-01
 -1      2242 5.97731E-01
 -1      2243 4.91016E-01
 -1      2244 7.15105E-01
 -1      2245 6.46680E-01
 -1      2246 5.05249E-01
 -1      2247 8.67200E-01
 -1      2248 7.60614E-01
 -1      2249 5.50824E-01
 -1      2250 8.78295E-01
 -1      2251 1.01196E+00
 -1      2252 9.61891E-01
 -1      2253 1.25459E+00
 -1      2254 1.02018E+00
 -1      2255 5.87472E+00
 -1      2256 7.17310E+00
 -1      2257 9.73972E-01
 -1      2258 7.89030E-01
 -1      2259 7.26005E-01
 -1      2260 7.22982E-01
 -1      2261 6.25828E-01
 -1      2262 6.13752E-01
 -1      2263 5.62913E-01
 -1      2264 5.11569E-01
 -1      2265 4.84789E-01
 -1      2266 4.86622E-01
 -1      2267 4.38816E-01
 -1      2268 3.96928E-01
 -1      2269 4.04985E-01
 -1      2270 3.59950E-01
 -1      2271 3.38150E-01
 -1      2272 3.30316E-01
 -1      2273 3.17390E-01
 -1      2274 2.74686E-01
 -1      2275 3.41964E-01
 -1      2276 3.72526E-01
 -1      2277 2.69627E-01
 -1      2278 4.29750E-01
 -1      2279 4.62330E-01
 -1      2280 3.51424E-01
 -1      2281 5.44021E-01
 -1      2282 6.28349E-01
 -1      2283 4.90339E-01
 -1      2284 7.15672E-01
 -1      2285 8.01564E-01
 -1      2286 6.59354E-01
 -1      2287 8.89592E-01
 -1      2288 9.62610E-01
 -1      2289 8.34705E-01
 -1      2290 1.04220E+00
 -1      2291 1.10586E+00
 -1      2292 1.00232E+00
 -1      2293 1.16235E+00
 -1      2294 1.23615E+00
 -1      2295 1.13841E+00
 -1      2296 1.35349E+00
 -1      2297 1.36553E+00
 -1      2298 1.31225E+00
 -1      2299 1.47614E+00
 -1      2300 1.42711E+00
 -1      2301 1.54020E+00
 -1      2302 1.51595E+00
 -1      2303 1.51562E+00
 -1      2304 1.73965E+00
 -1      2305 1.67796E+00
 -1      2306 1.68985E+00
 -1      2307 1.99084E+00
 -1      2308 2.20877E+00
 -1      2309 2.57184E+00
 -1      2310 2.67210E+00
 -1      2311 2.23784E+00
 -1      2312 2.54858E+00
 -1      2313 2.85701E+00
 -1      2314 3.10437E+00
 -1      2315 3.28934E+00
 -1      2316 3.07880E+00
 -1      2317 3.55350E+00
 -1      2318 3.55109E+00
 -1      2319 3.89874E+00
 -1      2320 2.99592E+00
 -1      2321 2.86124E+00
 -1      2322 3.60773E+00
 -1      2323 2.49063E+00
 -1      2324 2.16037E+00
 -1      2325 2.68194E+00
 -1      2326 2.10642E+00
 -1      2327 1.79573E+00
 -1      2328 2.25738E+00
 -1      2329 1.83016E+00
 -1      2330 1.75832E+00
 -1      2331 2.23785E+00
 -1      2332 1.53183E+00
 -1      2333 1.50355E+00
 -1      2334 2.04580E+00
 -1      2335 1.44796E+00
 -1      2336 1.49534E+00
 -1      2337 1.76372E+00
 -1      2338 1.38959E+00
 -1      2339 1.39313E+00
 -1      2340 1.60238E+00
 -1      2341 1.27816E+00
 -1      2342 1.21345E+00
 -1      2343 1.38166E+00
 -1      2344 1.15076E+00
 -1      2345 1.09658E+00
 -1      2346 1.20400E+00
 -1      2347 1.02519E+00
 -1      2348 9.61976E-01
 -1      2349 1.06992E+00
 -1      2350 8.82047E-01
 -1      2351 8.05857E-01
 -1      2352 9.18600E-01
 -1      2353 7.27571E-01
 -1      2354 6.51211E-01
 -1      2355 7.60386E-01
 -1      2356 5.80241E-01
 -1      2357 5.10890E-01
 -1      2358 6.11131E-01
 -1      2359 4.49759E-01
 -1      2360 3.90587E-01
 -1      2361 4.79030E-01
 -1      2362 3.39843E-01
 -1      2363 2.91529E-01
 -1      2364 3.67155E-01
 -1      2365 2.50610E-01
 -1      2366 2.12477E-01
 -1      2367 2.75492E-01
 -1      2368 1.80277E-01
 -1      2369 1.51029E-01
 -1      2370 2.02373E-01
 -1      2371 1.26250E-01
 -1      2372 1.06370E-01
 -1      2373 1.45395E-01
 -1      2374 8.77185E-02
 -1      2375 7.46084E-02
 -1      2376 1.01965E-01
 -1      2377 6.09045E-02
 -1      2378 5.18090E-02
 -1      2379 6.96093E-02
 -1      2380 4.20257E-02
 -1      2381 3.55269E-02
 -1      2382 4.61221E-02
 -1      2383 2.88672E-02
 -1      2384 2.37130E-02
 -1      2385 2.96791E-02
 -1      2386 5.49239E-01
 -1      2387 6.03135E-01
 -1      2388 4.94103E-01
 -1      2389 5.14992E-01
 -1      2390 4.96011E-01
 -1      2391 4.33710E-01
 -1      2392 4.55330E-01
 -1      2393 4.22991E-01
 -1      2394 3.71114E-01
 -1      2395 3.92431E-01
 -1      2396 3.42939E-01
 -1      2397 3.49688E-01
 -1      2398 3.70989E-01
 -1      2399 3.01534E-01
 -1      2400 3.82652E-01
 -1      2401 3.67900E-01
 -1      2402 3.19621E-01
 -1      2403 4.41286E-01
 -1      2404 4.16426E-01
 -1      2405 3.71606E-01
 -1      2406 5.40947E-01
 -1      2407 4.92246E-01
 -1      2408 4.56339E-01
 -1      2409 6.31078E-01
 -1      2410 5.84832E-01
 -1      2411 5.51184E-01
 -1      2412 6.87270E-01
 -1      2413 6.67088E-01
 -1      2414 6.31078E-01
 -1      2415 7.08648E-01
 -1      2416 7.08648E-01
 -1      2417 6.88466E-01
 -1      2418 6.92555E-01
 -1      2419 7.15987E-01
 -1      2420 7.17183E-01
 -1      2421 5.90510E-01
 -1      2422 6.77934E-01
 -1      2423 7.09901E-01
 -1      2424 6.83592E-01
 -1      2425 6.53839E-01
 -1      2426 7.58609E-01
 -1      2427 9.25585E-01
 -1      2428 7.25199E-01
 -1      2429 8.63544E-01
 -1      2430 1.34822E+00
 -1      2431 1.08848E+00
 -1      2432 1.06805E+00
 -1      2433 1.60346E+00
 -1      2434 1.48085E+00
 -1      2435 1.36357E+00
 -1      2436 1.77356E+00
 -1      2437 1.77356E+00
 -1      2438 1.66631E+00
 -1      2439 1.73695E+00
 -1      2440 1.75307E+00
 -1      2441 1.81591E+00
 -1      2442 1.91126E+00
 -1      2443 1.79981E+00
 -1      2444 1.85827E+00
 -1      2445 1.76086E+00
 -1      2446 1.77546E+00
 -1      2447 1.78531E+00
 -1      2448 1.41394E+00
 -1      2449 1.64497E+00
 -1      2450 1.53362E+00
 -1      2451 9.98181E-01
 -1      2452 1.25998E+00
 -1      2453 1.26377E+00
 -1      2454 6.93820E-01
 -1      2455 8.48945E-01
 -1      2456 9.60581E-01
 -1      2457 6.70845E-01
 -1      2458 6.71154E-01
 -1      2459 7.88679E-01
 -1      2460 7.09013E-01
 -1      2461 6.47078E-01
 -1      2462 7.42245E-01
 -1      2463 7.49656E-01
 -1      2464 7.28553E-01
 -1      2465 7.38017E-01
 -1      2466 7.38344E-01
 -1      2467 7.34732E-01
 -1      2468 7.42634E-01
 -1      2469 6.81214E-01
 -1      2470 7.11644E-01
 -1      2471 7.01011E-01
 -1      2472 6.13899E-01
 -1      2473 6.49832E-01
 -1      2474 6.42929E-01
 -1      2475 5.35776E-01
 -1      2476 5.78527E-01
 -1      2477 5.76175E-01
 -1      2478 4.46310E-01
 -1      2479 4.93582E-01
 -1      2480 4.98609E-01
 -1      2481 3.57665E-01
 -1      2482 4.03459E-01
 -1      2483 4.13562E-01
 -1      2484 2.76990E-01
 -1      2485 3.17941E-01
 -1      2486 3.30986E-01
 -1      2487 2.07829E-01
 -1      2488 2.42345E-01
 -1      2489 2.56616E-01
 -1      2490 1.55726E-01
 -1      2491 1.78959E-01
 -1      2492 1.93102E-01
 -1      2493 1.14120E-01
 -1      2494 1.32548E-01
 -1      2495 1.41054E-01
 -1      2496 8.10863E-02
 -1      2497 9.61186E-02
 -1      2498 9.98740E-02
 -1      2499 5.55987E-02
 -1      2500 6.75610E-02
 -1      2501 6.83469E-02
 -1      2502 3.73477E-02
 -1      2503 4.67049E-02
 -1      2504 4.59277E-02
 -1      2505 2.56316E-02
 -1      2506 3.21693E-02
 -1      2507 3.18556E-02
 -1      2508 1.71923E-02
 -1      2509 2.14314E-02
 -1      2510 2.24771E-02
 -1      2511 1.47085E-02
 -1      2512 1.50679E-02
 -1      2513 1.29661E-02
 -1      2514 1.79602E-02
 -1      2515 1.68879E-02
 -1      2516 1.91289E-02
 -1      2517 1.67662E-02
 -1      2518 1.79840E-02
 -1      2519 1.56409E-02
 -1      2520 1.67662E-02
 -1      2521 2.26586E-02
 -1      2522 1.99837E-02
 -1      2523 1.81530E-02
 -1      2524 1.81530E-02
 -1      2525 2.11418E-02
 -1      2526 1.81981E-02
 -1      2527 1.81928E-02
 -1      2528 2.13744E-02
 -1      2529 1.81981E-02
 -1      2530 1.81981E-02
 -1      2531 2.14142E-02
 -1      2532 1.70712E-02
 -1      2533 1.80882E-02
 -1      2534 2.13043E-02
 -1      2535 1.31254E-02
 -1      2536 1.52893E-02
 -1      2537 1.94126E-02
 -1      2538 1.43227E-02
 -1      2539 1.30287E-02
 -1      2540 1.75340E-02
 -1      2541 1.55114E-02
 -1      2542 1.43227E-02
 -1      2543 1.74373E-02
 -1      2544 3.01519E+01
 -1      2545 3.01519E+01
 -1      2546 1.54157E+01
 -1      2547 2.17230E+01
 -1      2548 6.76012E-01
 -1      2549 7.77153E-01
 -1      2550 6.03135E-01
 -1      2551 1.48575E-02
 -1      2552 8.44385E+00
 -1      2553 1.21651E+01
 -1      2554 1.37090E+01
 -1      2555 1.01342E+01
 -1      2556 7.59268E+00
 -1      2557 6.21386E+00
 -1      2558 5.92390E+00
 -1      2559 6.94755E+00
 -1      2560 1.37376E+01
 -1      2561 1.00308E+01
 -1      2562 8.76510E+00
 -1      2563 8.58568E+00
 -1      2564 5.06667E-01
 -1      2565 5.30290E-01
 -1      2566 4.59547E-01
 -1      2567 4.28110E-01
 -1      2568 9.30178E+00
 -1      2569 9.22292E+00
 -1      2570 2.32561E+01
 -1      2571 1.65624E+01
 -1      2572 7.98443E+00
 -1      2573 8.54812E+00
 -1      2574 5.68021E+00
 -1      2575 7.00592E+00
 -1      2576 5.84824E+00
 -1      2577 8.62207E+00
 -1      2578 6.28074E+00
 -1      2579 2.44925E+01
 -1      2580 2.92560E+01
 -1      2581 2.66776E+01
 -1      2582 2.56551E+01
 -1      2583 7.50678E+00
 -1      2584 6.07261E+00
 -1      2585 3.40194E+01
 -1      2586 3.40194E+01
 -1      2587 2.22933E+01
 -1      2588 2.19392E+01
 -1      2589 2.19392E+01
 -1      2590 8.95913E+00
 -1      2591 1.19928E+01
 -1      2592 2.18719E+01
 -1      2593 1.53487E+01
 -1      2594 5.84155E+00
 -1      2595 6.54812E+00
 -1      2596 4.82171E+00
 -1      2597 9.08039E+00
 -1      2598 8.69807E+00
 -1      2599 9.34361E+00
 -1      2600 9.55664E+00
 -1      2601 8.04883E+00
 -1      2602 8.70047E+00
 -1      2603 7.58514E+00
 -1      2604 6.12040E+00
 -1      2605 2.32204E+01
 -1      2606 2.59990E+01
 -1      2607 1.64710E+00
 -1      2608 1.29730E+00
 -1      2609 8.14916E-01
 -1      2610 9.52895E-01
 -1      2611 1.59633E+00
 -1      2612 1.74426E+00
 -1      2613 1.30283E+00
 -1      2614 1.17542E+00
 -1      2615 2.56300E+01
 -1      2616 2.58814E+01
 -1      2617 7.87626E+00
 -1      2618 5.04971E-01
 -1      2619 6.42660E-01
 -1      2620 7.05364E-01
 -1      2621 7.77153E-01
 -1      2622 1.22171E+00
 -1      2623 1.77039E+01
 -1      2624 6.83256E-01
 -1      2625 7.54463E-01
 -1      2626 6.59188E-01
 -1      2627 4.82863E-01
 -1      2628 7.74471E+00
 -1      2629 6.02489E+00
 -1      2630 1.77966E+01
 -1      2631 1.87033E+01
 -1      2632 1.57958E+01
 -1      2633 1.31398E+01
 -1      2634 7.87826E+00
 -1      2635 1.27477E+01
 -1      2636 1.11289E+01
 -1      2637 2.64889E+01
 -1      2638 2.64889E+01
 -1      2639 2.17255E+01
 -1      2640 1.57931E-02
 -1      2641 1.57931E-02
 -1      2642 6.24406E+00
 -1      2643 2.97852E+01
 -1      2644 2.58814E+01
 -1      2645 2.66776E+01
 -1      2646 9.50840E-01
 -1      2647 1.20299E+01
 -1      2648 1.17432E+01
 -1      2649 2.56711E+01
 -1      2650 7.84110E+00
 -1      2651 6.00030E+00
 -1      2652 5.09329E+00
 -1      2653 5.47026E+00
 -1      2654 7.47948E+00
 -1      2655 1.17130E+01
 -1      2656 5.09553E+00
 -1      2657 6.42543E+00
 -1      2658 1.69368E+01
 -1      2659 7.58042E+00
 -1      2660 7.00166E+00
 -1      2661 7.91160E+00
 -1      2662 1.61296E-02
 -1      2663 1.48575E-02
 -1      2664 1.67834E-02
 -1      2665 2.02681E-02
 -1      2666 2.04677E-02
 -1      2667 1.95745E-02
 -1      2668 4.12419E-01
 -1      2669 3.95461E-01
 -1      2670 3.84121E-01
 -1      2671 3.69347E-01
 -1      2672 3.36651E-01
 -1      2673 4.32354E-01
 -1      2674 4.32288E-01
 -1      2675 4.69881E-01
 -1      2676 4.24372E-01
 -1      2677 3.51411E-01
 -1      2678 6.96997E-01
 -1      2679 7.80593E-01
 -1      2680 1.12559E+01
 -1      2681 9.61618E+00
 -1      2682 4.12189E+00
 -1      2683 3.89083E+00
 -1      2684 8.20910E-01
 -1      2685 5.17414E-01
 -1      2686 4.51366E-01
 -1      2687 4.32233E-01
 -1      2688 3.69318E-01
 -1      2689 3.35894E-01
 -1      2690 3.32091E-01
 -1      2691 3.07144E-01
 -1      2692 2.79534E-01
 -1      2693 2.82120E-01
 -1      2694 2.48289E-01
 -1      2695 2.17283E-01
 -1      2696 2.16965E-01
 -1      2697 1.87331E-01
 -1      2698 1.60934E-01
 -1      2699 2.11623E-01
 -1      2700 2.36197E-01
 -1      2701 1.53901E-01
 -1      2702 2.96520E-01
 -1      2703 3.53744E-01
 -1      2704 2.38516E-01
 -1      2705 4.24943E-01
 -1      2706 5.06635E-01
 -1      2707 3.70039E-01
 -1      2708 5.89886E-01
 -1      2709 6.77209E-01
 -1      2710 5.24490E-01
 -1      2711 7.73987E-01
 -1      2712 8.62014E-01
 -1      2713 7.04519E-01
 -1      2714 9.73394E-01
 -1      2715 1.05298E+00
 -1      2716 9.12676E-01
 -1      2717 1.17767E+00
 -1      2718 1.23417E+00
 -1      2719 1.14874E+00
 -1      2720 1.36344E+00
 -1      2721 1.48079E+00
 -1      2722 1.40271E+00
 -1      2723 1.65051E+00
 -1      2724 1.76112E+00
 -1      2725 1.70171E+00
 -1      2726 2.03697E+00
 -1      2727 2.12581E+00
 -1      2728 2.14728E+00
 -1      2729 2.89164E+00
 -1      2730 3.05398E+00
 -1      2731 3.18896E+00
 -1      2732 2.71810E+00
 -1      2733 3.23702E+00
 -1      2734 3.61891E+00
 -1      2735 3.19101E+00
 -1      2736 2.85701E+00
 -1      2737 3.41280E+00
 -1      2738 4.57831E+00
 -1      2739 4.84246E+00
 -1      2740 5.19342E+00
 -1      2741 4.63825E+00
 -1      2742 3.05255E+00
 -1      2743 2.68194E+00
 -1      2744 2.25738E+00
 -1      2745 2.20342E+00
 -1      2746 2.75942E+00
 -1      2747 2.79385E+00
 -1      2748 2.75942E+00
 -1      2749 2.85795E+00
 -1      2750 2.63146E+00
 -1      2751 3.37952E+00
 -1      2752 2.15312E+00
 -1      2753 2.09754E+00
 -1      2754 2.96528E+00
 -1      2755 1.86510E+00
 -1      2756 1.75935E+00
 -1      2757 2.25450E+00
 -1      2758 1.55108E+00
 -1      2759 1.43611E+00
 -1      2760 1.81380E+00
 -1      2761 1.31048E+00
 -1      2762 1.24778E+00
 -1      2763 1.47989E+00
 -1      2764 1.12611E+00
 -1      2765 1.05472E+00
 -1      2766 1.23258E+00
 -1      2767 9.47839E-01
 -1      2768 8.67910E-01
 -1      2769 1.00403E+00
 -1      2770 7.76151E-01
 -1      2771 6.97865E-01
 -1      2772 8.05389E-01
 -1      2773 6.21834E-01
 -1      2774 5.50865E-01
 -1      2775 6.37599E-01
 -1      2776 4.88296E-01
 -1      2777 4.27165E-01
 -1      2778 4.98999E-01
 -1      2779 3.76278E-01
 -1      2780 3.25534E-01
 -1      2781 3.85544E-01
 -1      2782 2.84664E-01
 -1      2783 2.43745E-01
 -1      2784 2.93787E-01
 -1      2785 2.11367E-01
 -1      2786 1.79167E-01
 -1      2787 2.20539E-01
 -1      2788 1.53889E-01
 -1      2789 1.29111E-01
 -1      2790 1.62883E-01
 -1      2791 1.09683E-01
 -1      2792 9.10320E-02
 -1      2793 1.18178E-01
 -1      2794 7.63481E-02
 -1      2795 6.26442E-02
 -1      2796 8.40669E-02
 -1      2797 5.17769E-02
 -1      2798 4.19937E-02
 -1      2799 5.85157E-02
 -1      2800 3.25052E-02
 -1      2801 2.58454E-02
 -1      2802 3.81600E-02
 -1      2803 3.27100E-01
 -1      2804 3.65873E-01
 -1      2805 2.85024E-02
 -1      2806 2.63115E-02
 -1      2807 3.05117E-02
 -1      2808 3.86854E-01
 -1      2809 4.21102E-01
 -1      2810 2.90963E-01
 -1      2811 2.41155E-01
 -1      2812 2.41281E-01
 -1      2813 2.82639E-01
 -1      2814 2.64427E-01
 -1      2815 2.04174E-01
 -1      2816 3.71321E-01
 -1      2817 3.37548E-01
 -1      2818 2.82355E-01
 -1      2819 4.78273E-01
 -1      2820 4.27313E-01
 -1      2821 3.93256E-01
 -1      2822 5.75307E-01
 -1      2823 5.31422E-01
 -1      2824 5.02396E-01
 -1      2825 6.55603E-01
 -1      2826 6.19594E-01
 -1      2827 5.99832E-01
 -1      2828 7.31557E-01
 -1      2829 7.10178E-01
 -1      2830 6.98694E-01
 -1      2831 8.04642E-01
 -1      2832 7.97302E-01
 -1      2833 8.19015E-01
 -1      2834 8.36546E-01
 -1      2835 8.51167E-01
 -1      2836 9.31286E-01
 -1      2837 9.54697E-01
 -1      2838 8.91369E-01
 -1      2839 1.03263E+00
 -1      2840 1.14040E+00
 -1      2841 1.09879E+00
 -1      2842 1.23155E+00
 -1      2843 1.30852E+00
 -1      2844 1.14562E+00
 -1      2845 1.38087E+00
 -1      2846 1.80902E+00
 -1      2847 1.67639E+00
 -1      2848 1.75397E+00
 -1      2849 2.24050E+00
 -1      2850 2.07040E+00
 -1      2851 2.38322E+00
 -1      2852 2.09101E+00
 -1      2853 2.11151E+00
 -1      2854 2.51560E+00
 -1      2855 2.42844E+00
 -1      2856 2.36559E+00
 -1      2857 2.66118E+00
 -1      2858 1.84075E+00
 -1      2859 1.97656E+00
 -1      2860 2.48388E+00
 -1      2861 1.51500E+00
 -1      2862 1.63089E+00
 -1      2863 1.82214E+00
 -1      2864 1.35428E+00
 -1      2865 1.50824E+00
 -1      2866 1.60551E+00
 -1      2867 1.08834E+00
 -1      2868 1.23757E+00
 -1      2869 1.48204E+00
 -1      2870 1.00742E+00
 -1      2871 1.03009E+00
 -1      2872 1.30708E+00
 -1      2873 8.39674E-01
 -1      2874 8.63441E-01
 -1      2875 1.10485E+00
 -1      2876 8.34027E-01
 -1      2877 8.14487E-01
 -1      2878 9.35683E-01
 -1      2879 7.69474E-01
 -1      2880 7.84398E-01
 -1      2881 8.60867E-01
 -1      2882 7.01011E-01
 -1      2883 7.27710E-01
 -1      2884 7.69474E-01
 -1      2885 6.36281E-01
 -1      2886 6.67663E-01
 -1      2887 6.94363E-01
 -1      2888 5.57775E-01
 -1      2889 5.93147E-01
 -1      2890 6.17881E-01
 -1      2891 4.67618E-01
 -1      2892 5.09813E-01
 -1      2893 5.26785E-01
 -1      2894 3.77980E-01
 -1      2895 4.20831E-01
 -1      2896 4.32036E-01
 -1      2897 2.97246E-01
 -1      2898 3.36970E-01
 -1      2899 3.44239E-01
 -1      2900 2.28132E-01
 -1      2901 2.62777E-01
 -1      2902 2.68762E-01
 -1      2903 1.71287E-01
 -1      2904 2.00157E-01
 -1      2905 2.06318E-01
 -1      2906 1.25277E-01
 -1      2907 1.48455E-01
 -1      2908 1.55510E-01
 -1      2909 8.91361E-02
 -1      2910 1.07138E-01
 -1      2911 1.14539E-01
 -1      2912 6.15757E-02
 -1      2913 7.51010E-02
 -1      2914 8.23648E-02
 -1      2915 4.17706E-02
 -1      2916 5.06645E-02
 -1      2917 5.74185E-02
 -1      2918 3.07247E-02
 -1      2919 3.59030E-02
 -1      2920 4.06397E-02
 -1      2921 3.45591E-02
 -1      2922 2.56229E-02
 -1      2923 2.55832E-02
 -1      2924 2.02283E-02
 -1      2925 1.67834E-02
 -1      2926 2.30544E-02
 -1      2927 2.44490E-02
 -1      2928 2.26290E-02
 -1      2929 2.57213E-02
 -1      2930 2.57213E-02
 -1      2931 2.99301E-02
 -1      2932 2.55832E-02
 -1      2933 2.53903E-02
 -1      2934 2.88904E-02
 -1      2935 2.98317E-02
 -1      2936 2.56115E-02
 -1      2937 2.57213E-02
 -1      2938 3.00285E-02
 -1      2939 2.30270E-02
 -1      2940 2.48089E-02
 -1      2941 2.92259E-02
 -1      2942 1.95090E-02
 -1      2943 1.96057E-02
 -1      2944 2.50020E-02
 -1      2945 1.82610E+01
 -1      2946 2.25315E+01
 -1      2947 1.78133E+01
 -1      2948 1.36863E+01
 -1      2949 8.45288E+00
 -1      2950 5.90381E+00
 -1      2951 4.40483E+00
 -1      2952 5.50611E+00
 -1      2953 4.05770E+00
 -1      2954 3.71856E+00
 -1      2955 7.01201E+00
 -1      2956 5.60332E+00
 -1      2957 6.66276E+00
 -1      2958 7.30589E+00
 -1      2959 2.34749E+01
 -1      2960 1.97275E+01
 -1      2961 4.69320E-01
 -1      2962 5.42197E-01
 -1      2963 3.60163E-01
 -1      2964 1.57219E+01
 -1      2965 1.33230E+01
 -1      2966 2.56310E-01
 -1      2967 2.97589E-01
 -1      2968 2.40471E-01
 -1      2969 1.95931E-01
 -1      2970 1.23602E+01
 -1      2971 1.62671E+01
 -1      2972 5.78708E-01
 -1      2973 6.79850E-01
 -1      2974 4.98551E-01
 -1      2975 4.44893E-01
 -1      2976 5.75242E-01
 -1      2977 5.29037E-01
 -1      2978 3.66651E-01
 -1      2979 5.10747E+00
 -1      2980 4.50695E+00
 -1      2981 4.22597E+00
 -1      2982 4.02947E+00
 -1      2983 4.17845E+00
 -1      2984 5.15696E+00
 -1      2985 1.13785E+01
 -1      2986 8.55370E+00
 -1      2987 6.67754E+00
 -1      2988 4.32288E-01
 -1      2989 4.18120E-01
 -1      2990 3.53692E-01
 -1      2991 3.59393E-01
 -1      2992 6.02891E+00
 -1      2993 6.78257E+00
 -1      2994 2.24621E+01
 -1      2995 2.20953E+01
 -1      2996 1.61517E+01
 -1      2997 4.17058E-01
 -1      2998 4.31415E-01
 -1      2999 1.68348E+01
 -1      3000 1.93882E+01
 -1      3001 9.30399E+00
 -1      3002 1.16345E+01
 -1      3003 4.10498E+00
 -1      3004 6.51599E+00
 -1      3005 3.40516E+00
 -1      3006 6.95494E+00
 -1      3007 6.47869E+00
 -1      3008 1.74373E-02
 -1      3009 4.36316E+00
 -1      3010 5.63391E+00
 -1      3011 5.86561E+00
 -1      3012 4.87261E+00
 -1      3013 2.40063E+01
 -1      3014 1.66645E+01
 -1      3015 6.10333E-01
 -1      3016 5.67627E-01
 -1      3017 3.70660E-01
 -1      3018 4.11900E-01
 -1      3019 7.16045E+00
 -1      3020 6.70262E+00
 -1      3021 5.14980E+00
 -1      3022 4.31415E-01
 -1      3023 4.31415E-01
 -1      3024 3.57859E-01
 -1      3025 3.25011E-01
 -1      3026 3.69046E-01
 -1      3027 3.83774E-01
 -1      3028 5.60894E+00
 -1      3029 7.67889E+00
 -1      3030 1.64758E+01
 -1      3031 5.56016E-01
 -1      3032 3.81566E+00
 -1      3033 1.07006E+01
 -1      3034 6.22301E+00
 -1      3035 6.80564E+00
 -1      3036 4.56129E+00
 -1      3037 1.66211E+01
 -1      3038 5.87299E+00
 -1      3039 3.23702E+00
 -1      3040 4.63825E+00
 -1      3041 2.62799E+00
 -1      3042 1.29172E+01
 -1      3043 3.11476E-02
 -1      3044 2.58275E-02
 -1      3045 2.85024E-02
 -1      3046 9.69216E+00
 -1      3047 1.01636E+01
 -1      3048 8.59250E+00
 -1      3049 8.48382E+00
 -1      3050 5.69581E+00
 -1      3051 2.85024E-02
 -1      3052 1.56171E+01
 -1      3053 4.29563E-01
 -1      3054 1.32449E+01
 -1      3055 1.48416E+01
 -1      3056 1.74373E-02
 -1      3057 1.12726E+01
 -1      3058 4.83775E+00
 -1      3059 3.49788E+00
 -1      3060 3.53528E+00
 -1      3061 3.32757E+00
 -1      3062 4.64001E+00
 -1      3063 1.30507E+01
 -1      3064 3.94897E-01
 -1      3065 4.11607E-01
 -1      3066 3.52408E-01
 -1      3067 3.35833E-01
 -1      3068 4.35912E+00
 -1      3069 5.71906E+00
 -1      3070 4.52777E+00
 -1      3071 1.87457E-02
 -1      3072 1.87457E-02
 -1      3073 2.08174E-02
 -1      3074 2.43628E-02
 -1      3075 4.76240E+00
 -1      3076 3.39438E+00
 -1      3077 3.06588E+00
 -1      3078 2.94950E-01
 -1      3079 3.02933E-01
 -1      3080 3.87365E-01
 -1      3081 3.65257E-01
 -1      3082 3.16402E-01
 -1      3083 3.13809E-01
 -1      3084 7.42899E+00
 -1      3085 6.26569E+00
 -1      3086 2.43897E-01
 -1      3087 2.06670E-01
 -1      3088 1.84775E-01
 -1      3089 1.59751E-01
 -1      3090 1.49138E-01
 -1      3091 1.57134E-01
 -1      3092 1.25810E-01
 -1      3093 1.24626E-01
 -1      3094 1.49976E-01
 -1      3095 1.74267E-01
 -1      3096 1.46176E-01
 -1      3097 2.18986E-01
 -1      3098 2.79310E-01
 -1      3099 2.15061E-01
 -1      3100 3.37628E-01
 -1      3101 4.08828E-01
 -1      3102 3.18098E-01
 -1      3103 4.87157E-01
 -1      3104 5.70408E-01
 -1      3105 4.54745E-01
 -1      3106 6.59938E-01
 -1      3107 7.56716E-01
 -1      3108 6.22605E-01
 -1      3109 8.59066E-01
 -1      3110 9.70446E-01
 -1      3111 8.14486E-01
 -1      3112 1.11181E+00
 -1      3113 1.23650E+00
 -1      3114 1.05820E+00
 -1      3115 1.43997E+00
 -1      3116 1.56924E+00
 -1      3117 1.40303E+00
 -1      3118 1.85699E+00
 -1      3119 2.02671E+00
 -1      3120 1.89424E+00
 -1      3121 2.36658E+00
 -1      3122 2.64242E+00
 -1      3123 2.52185E+00
 -1      3124 3.54576E+00
 -1      3125 4.31159E+00
 -1      3126 3.76506E+00
 -1      3127 5.86356E+00
 -1      3128 5.52767E+00
 -1      3129 3.81868E+00
 -1      3130 4.66561E+00
 -1      3131 4.72970E+00
 -1      3132 4.76521E+00
 -1      3133 4.28687E+00
 -1      3134 3.15145E+00
 -1      3135 2.91901E+00
 -1      3136 4.95138E+00
 -1      3137 2.17672E+00
 -1      3138 1.96845E+00
 -1      3139 3.07367E+00
 -1      3140 1.66787E+00
 -1      3141 1.54223E+00
 -1      3142 2.03079E+00
 -1      3143 1.32222E+00
 -1      3144 1.20055E+00
 -1      3145 1.51020E+00
 -1      3146 1.05835E+00
 -1      3147 9.51473E-01
 -1      3148 1.14799E+00
 -1      3149 8.53913E-01
 -1      3150 7.62154E-01
 -1      3151 9.08238E-01
 -1      3152 6.78819E-01
 -1      3153 6.02788E-01
 -1      3154 7.27343E-01
 -1      3155 5.31311E-01
 -1      3156 4.68742E-01
 -1      3157 5.72531E-01
 -1      3158 4.09549E-01
 -1      3159 3.58662E-01
 -1      3160 4.41860E-01
 -1      3161 3.10847E-01
 -1      3162 2.69978E-01
 -1      3163 3.34852E-01
 -1      3164 2.32111E-01
 -1      3165 1.99732E-01
 -1      3166 2.49171E-01
 -1      3167 1.70293E-01
 -1      3168 1.45015E-01
 -1      3169 1.81864E-01
 -1      3170 1.22733E-01
 -1      3171 1.03305E-01
 -1      3172 1.30142E-01
 -1      3173 8.72330E-02
 -1      3174 7.25491E-02
 -1      3175 9.17877E-02
 -1      3176 6.05665E-02
 -1      3177 4.96993E-02
 -1      3178 6.37327E-02
 -1      3179 4.07475E-02
 -1      3180 3.12590E-02
 -1      3181 2.69503E-02
 -1      3182 4.27983E-02
 -1      3183 3.61429E-02
 -1      3184 3.61429E-02
 -1      3185 2.23556E-01
 -1      3186 2.44538E-01
 -1      3187 3.00144E-01
 -1      3188 2.45235E-01
 -1      3189 1.98644E-01
 -1      3190 1.75373E-01
 -1      3191 2.16433E-01
 -1      3192 5.30300E-01
 -1      3193 4.77151E-01
 -1      3194 6.44262E-01
 -1      3195 5.99975E-01
 -1      3196 5.74730E-01
 -1      3197 7.70601E-01
 -1      3198 7.16026E-01
 -1      3199 7.16169E-01
 -1      3200 9.11690E-01
 -1      3201 8.45945E-01
 -1      3202 8.63276E-01
 -1      3203 1.08771E+00
 -1      3204 1.04119E+00
 -1      3205 1.06812E+00
 -1      3206 1.26939E+00
 -1      3207 1.21457E+00
 -1      3208 1.32447E+00
 -1      3209 1.52842E+00
 -1      3210 1.38432E+00
 -1      3211 1.56626E+00
 -1      3212 2.15008E+00
 -1      3213 2.14486E+00
 -1      3214 2.29763E+00
 -1      3215 2.12184E+00
 -1      3216 1.75397E+00
 -1      3217 2.51796E+00
 -1      3218 2.64460E+00
 -1      3219 2.38322E+00
 -1      3220 3.39942E+00
 -1      3221 3.12484E+00
 -1      3222 1.94761E+00
 -1      3223 2.15747E+00
 -1      3224 1.64767E+00
 -1      3225 1.65443E+00
 -1      3226 1.98977E+00
 -1      3227 1.48204E+00
 -1      3228 1.59875E+00
 -1      3229 1.64767E+00
 -1      3230 1.58157E+00
 -1      3231 1.63982E+00
 -1      3232 1.75653E+00
 -1      3233 1.26456E+00
 -1      3234 1.40854E+00
 -1      3235 1.74128E+00
 -1      3236 1.12768E+00
 -1      3237 1.15286E+00
 -1      3238 1.45656E+00
 -1      3239 9.58763E-01
 -1      3240 1.00839E+00
 -1      3241 1.22557E+00
 -1      3242 8.10604E-01
 -1      3243 8.52368E-01
 -1      3244 9.99893E-01
 -1      3245 7.17066E-01
 -1      3246 7.50414E-01
 -1      3247 8.33308E-01
 -1      3248 6.11713E-01
 -1      3249 6.54847E-01
 -1      3250 7.10899E-01
 -1      3251 5.06580E-01
 -1      3252 5.54542E-01
 -1      3253 5.91508E-01
 -1      3254 4.07035E-01
 -1      3255 4.53822E-01
 -1      3256 4.81579E-01
 -1      3257 3.20491E-01
 -1      3258 3.61500E-01
 -1      3259 3.83287E-01
 -1      3260 2.48538E-01
 -1      3261 2.83006E-01
 -1      3262 3.00268E-01
 -1      3263 1.89734E-01
 -1      3264 2.17710E-01
 -1      3265 2.31955E-01
 -1      3266 1.42013E-01
 -1      3267 1.64844E-01
 -1      3268 1.76237E-01
 -1      3269 1.04134E-01
 -1      3270 1.22273E-01
 -1      3271 1.31608E-01
 -1      3272 7.47004E-02
 -1      3273 8.87354E-02
 -1      3274 9.64697E-02
 -1      3275 5.16527E-02
 -1      3276 6.25640E-02
 -1      3277 6.89346E-02
 -1      3278 3.09530E-01
 -1      3279 2.98191E-01
 -1      3280 1.25026E+01
 -1      3281 1.48399E+01
 -1      3282 2.57266E-02
 -1      3283 2.91479E-02
 -1      3284 3.53063E-02
 -1      3285 3.52079E-02
 -1      3286 4.14207E-02
 -1      3287 1.07006E+01
 -1      3288 1.22059E+01
 -1      3289 1.32449E+01
 -1      3290 4.84749E+00
 -1      3291 4.01048E+00
 -1      3292 2.70686E-01
 -1      3293 3.18904E-01
 -1      3294 2.03279E-01
 -1      3295 3.38033E+00
 -1      3296 4.25228E+00
 -1      3297 5.06729E+00
 -1      3298 1.48399E+01
 -1      3299 1.23573E+01
 -1      3300 1.07214E+01
 -1      3301 3.53403E-02
 -1      3302 3.61429E-02
 -1      3303 4.22573E-02
 -1      3304 3.60649E-02
 -1      3305 4.13130E-01
 -1      3306 3.57138E-01
 -1      3307 3.20018E-01
 -1      3308 4.41033E-01
 -1      3309 1.37942E+01
 -1      3310 1.18801E+01
 -1      3311 4.54707E+00
 -1      3312 4.92495E+00
 -1      3313 3.88601E-01
 -1      3314 3.02466E-01
 -1      3315 2.53988E-01
 -1      3316 3.71454E-01
 -1      3317 3.20616E-01
 -1      3318 3.08992E-01
 -1      3319 9.69457E+00
 -1      3320 7.75015E+00
 -1      3321 9.79572E+00
 -1      3322 1.17895E+01
 -1      3323 3.10623E+00
 -1      3324 2.68166E+00
 -1      3325 7.89034E+00
 -1      3326 9.12161E+00
 -1      3327 3.30976E+00
 -1      3328 2.49486E+00
 -1      3329 2.44687E+00
 -1      3330 3.09148E+00
 -1      3331 2.66092E-01
 -1      3332 2.46959E-01
 -1      3333 1.74095E-01
 -1      3334 6.74836E+00
 -1      3335 5.20667E+00
 -1      3336 1.20767E+01
 -1      3337 1.34563E+01
 -1      3338 9.71927E+00
 -1      3339 3.59689E+00
 -1      3340 3.43462E-02
 -1      3341 1.18637E+01
 -1      3342 1.09211E+01
 -1      3343 1.04185E+01
 -1      3344 7.98808E+00
 -1      3345 4.34784E+00
 -1      3346 3.85200E+00
 -1      3347 1.21462E+01
 -1      3348 1.20767E+01
 -1      3349 4.35950E+00
 -1      3350 4.91550E+00
 -1      3351 2.90268E-01
 -1      3352 2.89968E-01
 -1      3353 2.63148E-01
 -1      3354 2.60098E-01
 -1      3355 3.16559E-01
 -1      3356 3.16559E-01
 -1      3357 2.95905E+00
 -1      3358 4.41866E+00
 -1      3359 3.45116E+00
 -1      3360 3.59347E+00
 -1      3361 4.18258E+00
 -1      3362 2.71277E+00
 -1      3363 6.22036E+00
 -1      3364 9.02465E+00
 -1      3365 9.38130E+00
 -1      3366 3.18619E-02
 -1      3367 3.50604E-02
 -1      3368 2.20057E-01
 -1      3369 2.99556E+00
 -1      3370 3.29786E+00
 -1      3371 1.95288E-01
 -1      3372 1.48862E-01
 -1      3373 1.65778E-01
 -1      3374 2.25876E+00
 -1      3375 3.56829E+00
 -1      3376 8.18058E+00
 -1      3377 1.00034E+01
 -1      3378 6.71894E+00
 -1      3379 1.38929E-01
 -1      3380 1.44459E-01
 -1      3381 1.59488E-01
 -1      3382 2.38322E+00
 -1      3383 2.83005E+00
 -1      3384 2.95905E+00
 -1      3385 2.87009E+00
 -1      3386 3.32197E+00
 -1      3387 4.59286E-02
 -1      3388 5.10741E-02
 -1      3389 4.00610E-02
 -1      3390 3.10857E-01
 -1      3391 2.72397E-01
 -1      3392 3.16559E-01
 -1      3393 3.53087E-02
 -1      3394 3.43675E-02
 -1      3395 3.82802E-02
 -1      3396 6.05130E+00
 -1      3397 3.53087E-02
 -1      3398 3.53087E-02
 -1      3399 4.07858E-02
 -1      3400 4.06850E-02
 -1      3401 6.23509E+00
 -1      3402 3.48160E+00
 -1      3403 7.99389E+00
 -1      3404 8.50760E+00
 -1      3405 1.11195E+01
 -1      3406 1.21584E+01
 -1      3407 3.78563E+00
 -1      3408 1.03772E+01
 -1      3409 6.57488E+00
 -1      3410 8.91560E+00
 -1      3411 1.05516E+01
 -1      3412 8.42198E+00
 -1      3413 6.27928E+00
 -1      3414 3.18995E-01
 -1      3415 3.55506E-01
 -1      3416 2.45556E-01
 -1      3417 2.29518E-01
 -1      3418 3.10221E+00
 -1      3419 2.57616E-02
 -1      3420 2.65249E-02
 -1      3421 3.06709E-02
 -1      3422 3.26578E-02
 -1      3423 3.50604E-02
 -1      3424 3.50604E-02
 -1      3425 3.52733E-02
 -1      3426 3.57747E-02
 -1      3427 3.11157E-01
 -1      3428 3.16608E-01
 -1      3429 3.24016E-01
 -1      3430 3.16608E-01
 -1      3431 3.16608E-01
 -1      3432 2.75357E-01
 -1      3433 2.66358E-01
 -1      3434 1.29650E-01
 -1      3435 1.27033E-01
 -1      3436 1.47687E-01
 -1      3437 1.71853E-01
 -1      3438 1.52711E-01
 -1      3439 2.07101E-01
 -1      3440 2.51820E-01
 -1      3441 2.08612E-01
 -1      3442 3.07938E-01
 -1      3443 3.66256E-01
 -1      3444 2.99978E-01
 -1      3445 4.40586E-01
 -1      3446 5.18915E-01
 -1      3447 4.30425E-01
 -1      3448 6.10913E-01
 -1      3449 7.00443E-01
 -1      3450 5.96753E-01
 -1      3451 8.14486E-01
 -1      3452 9.16836E-01
 -1      3453 8.02794E-01
 -1      3454 1.05820E+00
 -1      3455 1.19956E+00
 -1      3456 1.05820E+00
 -1      3457 1.37269E+00
 -1      3458 1.57615E+00
 -1      3459 1.37269E+00
 -1      3460 1.85873E+00
 -1      3461 2.14648E+00
 -1      3462 1.82839E+00
 -1      3463 3.08798E+00
 -1      3464 3.42785E+00
 -1      3465 3.05247E+00
 -1      3466 4.05242E+00
 -1      3467 4.95576E+00
 -1      3468 4.61855E+00
 -1      3469 8.01608E+00
 -1      3470 8.37273E+00
 -1      3471 6.61039E+00
 -1      3472 2.00055E-01
 -1      3473 1.57154E-01
 -1      3474 4.85883E+00
 -1      3475 4.11654E+00
 -1      3476 2.37316E+00
 -1      3477 2.07258E+00
 -1      3478 4.15832E+00
 -1      3479 1.68570E+00
 -1      3480 1.46569E+00
 -1      3481 2.02807E+00
 -1      3482 1.29019E+00
 -1      3483 1.14799E+00
 -1      3484 1.46569E+00
 -1      3485 1.00580E+00
 -1      3486 9.08238E-01
 -1      3487 1.14799E+00
 -1      3488 7.95467E-01
 -1      3489 7.12132E-01
 -1      3490 8.93027E-01
 -1      3491 6.23055E-01
 -1      3492 5.51578E-01
 -1      3493 6.91179E-01
 -1      3494 4.81200E-01
 -1      3495 4.22007E-01
 -1      3496 5.31724E-01
 -1      3497 3.66444E-01
 -1      3498 3.18630E-01
 -1      3499 4.05784E-01
 -1      3500 2.74900E-01
 -1      3501 2.37033E-01
 -1      3502 3.06492E-01
 -1      3503 2.02851E-01
 -1      3504 1.73411E-01
 -1      3505 2.28580E-01
 -1      3506 1.46956E-01
 -1      3507 1.24673E-01
 -1      3508 1.67942E-01
 -1      3509 1.04400E-01
 -1      3510 8.83279E-02
 -1      3511 1.21214E-01
 -1      3512 7.29123E-02
 -1      3513 6.09297E-02
 -1      3514 8.55249E-02
 -1      3515 7.84057E-01
 -1      3516 7.12294E-01
 -1      3517 6.24729E-01
 -1      3518 5.55054E-01
 -1      3519 6.92618E-01
 -1      3520 1.26137E+00
 -1      3521 1.13187E+00
 -1      3522 1.56700E+00
 -1      3523 1.44015E+00
 -1      3524 1.50390E+00
 -1      3525 1.94017E+00
 -1      3526 1.82524E+00
 -1      3527 1.94091E+00
 -1      3528 2.98156E+00
 -1      3529 2.36512E+00
 -1      3530 2.62410E+00
 -1      3531 2.04778E+00
 -1      3532 2.22081E+00
 -1      3533 1.64433E+00
 -1      3534 1.75603E+00
 -1      3535 2.23555E+00
 -1      3536 1.28718E+00
 -1      3537 1.40646E+00
 -1      3538 1.70593E+00
 -1      3539 1.05573E+00
 -1      3540 1.16213E+00
 -1      3541 1.34302E+00
 -1      3542 8.66986E-01
 -1      3543 9.27176E-01
 -1      3544 1.08941E+00
 -1      3545 6.97997E-01
 -1      3546 7.60217E-01
 -1      3547 8.54085E-01
 -1      3548 5.62464E-01
 -1      3549 6.19635E-01
 -1      3550 6.68953E-01
 -1      3551 4.51557E-01
 -1      3552 5.04315E-01
 -1      3553 5.32442E-01
 -1      3554 3.62858E-01
 -1      3555 4.08392E-01
 -1      3556 4.31129E-01
 -1      3557 2.85812E-01
 -1      3558 3.23296E-01
 -1      3559 3.48402E-01
 -1      3560 2.20508E-01
 -1      3561 2.51336E-01
 -1      3562 2.74365E-01
 -1      3563 1.66675E-01
 -1      3564 1.91565E-01
 -1      3565 2.10946E-01
 -1      3566 1.23331E-01
 -1      3567 1.43071E-01
 -1      3568 1.58399E-01
 -1      3569 8.92620E-02
 -1      3570 1.04661E-01
 -1      3571 1.16124E-01
 -1      3572 6.28246E-02
 -1      3573 7.49610E-02
 -1      3574 8.31520E-02
 -1      3575 3.08891E-01
 -1      3576 2.73091E-01
 -1      3577 2.97768E-01
 -1      3578 2.29484E+00
 -1      3579 5.01548E+00
 -1      3580 6.10017E+00
 -1      3581 9.98911E+00
 -1      3582 1.49274E-01
 -1      3583 1.75422E-01
 -1      3584 5.02038E-02
 -1      3585 4.93672E-02
 -1      3586 8.72451E+00
 -1      3587 7.63808E+00
 -1      3588 2.84084E+00
 -1      3589 4.16327E+00
 -1      3590 3.30444E+00
 -1      3591 9.55702E+00
 -1      3592 9.55702E+00
 -1      3593 2.40676E+00
 -1      3594 2.45568E+00
 -1      3595 9.86403E-01
 -1      3596 9.11059E-01
 -1      3597 9.07184E-01
 -1      3598 1.17965E+00
 -1      3599 2.58091E-01
 -1      3600 2.11501E-01
 -1      3601 9.21286E+00
 -1      3602 9.55702E+00
 -1      3603 8.39269E+00
 -1      3604 8.37273E+00
 -1      3605 8.37273E+00
 -1      3606 7.74986E+00
 -1      3607 6.52334E+00
 -1      3608 2.00167E+00
 -1      3609 1.41719E-01
 -1      3610 1.19823E-01
 -1      3611 1.22230E-01
 -1      3612 8.43715E+00
 -1      3613 6.19536E+00
 -1      3614 1.39533E-01
 -1      3615 1.36472E-01
 -1      3616 1.07157E-01
 -1      3617 7.98194E+00
 -1      3618 8.31991E+00
 -1      3619 3.10408E-01
 -1      3620 5.89861E+00
 -1      3621 4.89681E+00
 -1      3622 3.78260E+00
 -1      3623 5.14087E+00
 -1      3624 7.11549E+00
 -1      3625 7.78960E+00
 -1      3626 3.23695E+00
 -1      3627 2.07145E-01
 -1      3628 2.20771E-01
 -1      3629 2.30138E-01
 -1      3630 2.22215E-01
 -1      3631 7.13768E+00
 -1      3632 2.63026E-01
 -1      3633 1.14305E-01
 -1      3634 2.69157E-01
 -1      3635 2.06255E-01
 -1      3636 2.17106E-01
 -1      3637 1.75448E-01
 -1      3638 1.44534E-01
 -1      3639 4.05623E-02
 -1      3640 1.12394E-01
 -1      3641 1.40662E-01
 -1      3642 1.12806E-01
 -1      3643 3.05837E-01
 -1      3644 3.00905E-01
 -1      3645 3.62831E-01
 -1      3646 4.93924E-02
 -1      3647 4.04406E-02
 -1      3648 3.92519E-02
 -1      3649 5.85720E-02
 -1      3650 6.44325E+00
 -1      3651 5.36545E-01
 -1      3652 4.86545E-01
 -1      3653 4.22524E-01
 -1      3654 4.86316E-02
 -1      3655 5.43557E-02
 -1      3656 6.03821E-02
 -1      3657 2.29193E-01
 -1      3658 2.31458E-01
 -1      3659 2.73724E-01
 -1      3660 2.31994E-01
 -1      3661 2.30668E-01
 -1      3662 1.89735E-01
 -1      3663 5.12623E-02
 -1      3664 5.92088E-02
 -1      3665 5.12623E-02
 -1      3666 4.64734E-02
 -1      3667 4.65742E-02
 -1      3668 5.52564E-02
 -1      3669 4.04766E+00
 -1      3670 5.05994E+00
 -1      3671 1.21295E-01
 -1      3672 1.75299E-01
 -1      3673 6.81791E+00
 -1      3674 7.36417E+00
 -1      3675 1.19532E-01
 -1      3676 5.48036E+00
 -1      3677 5.27606E+00
 -1      3678 4.26075E+00
 -1      3679 4.90531E-02
 -1      3680 4.65475E-02
 -1      3681 2.43468E+00
 -1      3682 2.27690E+00
 -1      3683 8.50121E+00
 -1      3684 6.69545E+00
 -1      3685 7.33688E+00
 -1      3686 1.75390E-01
 -1      3687 1.95369E+00
 -1      3688 7.31564E+00
 -1      3689 5.33138E+00
 -1      3690 6.00349E+00
 -1      3691 5.46168E-02
 -1      3692 4.38440E-02
 -1      3693 6.97337E+00
 -1      3694 6.10281E+00
 -1      3695 2.74118E+00
 -1      3696 3.84536E-02
 -1      3697 2.25579E-01
 -1      3698 2.25579E-01
 -1      3699 1.56477E-01
 -1      3700 1.81680E-01
 -1      3701 5.36510E-02
 -1      3702 4.50699E-02
 -1      3703 5.12623E-02
 -1      3704 6.51883E-02
 -1      3705 6.22162E+00
 -1      3706 6.44811E+00
 -1      3707 1.97672E-01
 -1      3708 2.32920E-01
 -1      3709 2.73087E-01
 -1      3710 3.29205E-01
 -1      3711 2.62146E-01
 -1      3712 3.91410E-01
 -1      3713 4.65740E-01
 -1      3714 3.64519E-01
 -1      3715 5.45925E-01
 -1      3716 6.37924E-01
 -1      3717 5.06910E-01
 -1      3718 7.44180E-01
 -1      3719 8.58222E-01
 -1      3720 6.93352E-01
 -1      3721 1.00410E+00
 -1      3722 1.14547E+00
 -1      3723 9.45488E-01
 -1      3724 1.35443E+00
 -1      3725 1.52755E+00
 -1      3726 1.30033E+00
 -1      3727 1.82839E+00
 -1      3728 2.11096E+00
 -1      3729 1.81013E+00
 -1      3730 3.05247E+00
 -1      3731 3.99397E+00
 -1      3732 3.05247E+00
 -1      3733 6.19333E+00
 -1      3734 7.78209E-01
 -1      3735 6.90645E-01
 -1      3736 5.57487E+00
 -1      3737 3.83149E+00
 -1      3738 6.24214E+00
 -1      3739 2.33472E+00
 -1      3740 1.94785E+00
 -1      3741 3.75127E+00
 -1      3742 1.63330E+00
 -1      3743 1.45780E+00
 -1      3744 1.93995E+00
 -1      3745 1.23353E+00
 -1      3746 1.09133E+00
 -1      3747 1.40114E+00
 -1      3748 9.40349E-01
 -1      3749 8.27578E-01
 -1      3750 1.02588E+00
 -1      3751 7.20298E-01
 -1      3752 6.31221E-01
 -1      3753 7.67620E-01
 -1      3754 5.52118E-01
 -1      3755 4.81740E-01
 -1      3756 5.81237E-01
 -1      3757 4.21749E-01
 -1      3758 3.66187E-01
 -1      3759 4.42143E-01
 -1      3760 3.19795E-01
 -1      3761 2.76065E-01
 -1      3762 3.35760E-01
 -1      3763 2.40058E-01
 -1      3764 2.05875E-01
 -1      3765 2.53361E-01
 -1      3766 1.77851E-01
 -1      3767 1.51396E-01
 -1      3768 1.89329E-01
 -1      3769 1.29767E-01
 -1      3770 1.09493E-01
 -1      3771 1.39675E-01
 -1      3772 9.28189E-02
 -1      3773 7.74033E-02
 -1      3774 1.01372E-01
 -1      3775 2.67987E+00
 -1      3776 2.42163E+00
 -1      3777 1.70017E+00
 -1      3778 1.52139E+00
 -1      3779 2.43912E+00
 -1      3780 2.09510E+00
 -1      3781 2.33297E+00
 -1      3782 2.29193E-01
 -1      3783 1.87559E-01
 -1      3784 2.21392E-01
 -1      3785 1.27066E-01
 -1      3786 1.36893E-01
 -1      3787 2.79237E+00
 -1      3788 3.08412E+00
 -1      3789 1.06221E+00
 -1      3790 1.19077E+00
 -1      3791 8.34913E-01
 -1      3792 9.41682E-01
 -1      3793 1.04304E+00
 -1      3794 6.56451E-01
 -1      3795 7.34814E-01
 -1      3796 8.22411E-01
 -1      3797 5.32442E-01
 -1      3798 5.90591E-01
 -1      3799 6.56451E-01
 -1      3800 4.30890E-01
 -1      3801 4.74055E-01
 -1      3802 5.32204E-01
 -1      3803 3.41584E-01
 -1      3804 3.81146E-01
 -1      3805 4.24072E-01
 -1      3806 2.65343E-01
 -1      3807 2.99819E-01
 -1      3808 3.32563E-01
 -1      3809 2.02253E-01
 -1      3810 2.31195E-01
 -1      3811 2.56650E-01
 -1      3812 1.51014E-01
 -1      3813 1.74619E-01
 -1      3814 1.94868E-01
 -1      3815 1.10444E-01
 -1      3816 1.29115E-01
 -1      3817 1.45335E-01
 -1      3818 8.62103E-02
 -1      3819 1.00511E-01
 -1      3820 1.13502E-01
 -1      3821 2.31994E-01
 -1      3822 2.31994E-01
 -1      3823 1.90265E-01
 -1      3824 1.79042E-01
 -1      3825 1.19330E-01
 -1      3826 1.25620E-01
 -1      3827 1.55849E-01
 -1      3828 1.05493E-01
 -1      3829 1.05370E-01
 -1      3830 4.38440E-02
 -1      3831 4.90531E-02
 -1      3832 5.73203E-02
 -1      3833 4.90531E-02
 -1      3834 2.38040E-01
 -1      3835 1.98714E-01
 -1      3836 3.08491E+00
 -1      3837 6.44811E+00
 -1      3838 6.44811E+00
 -1      3839 6.57205E+00
 -1      3840 6.57205E+00
 -1      3841 1.12599E-01
 -1      3842 1.17845E-01
 -1      3843 1.32508E-01
 -1      3844 1.38856E-01
 -1      3845 5.98959E+00
 -1      3846 5.59880E+00
 -1      3847 1.44159E+00
 -1      3848 1.56664E+00
 -1      3849 1.41439E+00
 -1      3850 6.19241E-02
 -1      3851 7.03930E-02
 -1      3852 8.77523E-02
 -1      3853 6.46277E-02
 -1      3854 1.44495E-01
 -1      3855 3.35765E+00
 -1      3856 1.54654E-01
 -1      3857 1.75308E-01
 -1      3858 1.59490E-01
 -1      3859 6.19333E+00
 -1      3860 5.91531E+00
 -1      3861 3.91781E+00
 -1      3862 9.89690E-02
 -1      3863 1.22292E-01
 -1      3864 1.33515E-01
 -1      3865 8.31676E-02
 -1      3866 3.70393E+00
 -1      3867 1.88382E-01
 -1      3868 3.18153E+00
 -1      3869 4.93152E+00
 -1      3870 2.19367E+00
 -1      3871 9.04385E-01
 -1      3872 9.02412E-01
 -1      3873 1.03139E+00
 -1      3874 7.24823E-02
 -1      3875 2.50393E-01
 -1      3876 2.14341E-01
 -1      3877 1.17419E-01
 -1      3878 4.08344E-01
 -1      3879 3.83836E+00
 -1      3880 5.53204E+00
 -1      3881 6.05053E-01
 -1      3882 5.36545E-01
 -1      3883 6.90645E-01
 -1      3884 1.99615E-01
 -1      3885 1.55423E-01
 -1      3886 1.55423E-01
 -1      3887 1.49544E-01
 -1      3888 5.07353E+00
 -1      3889 1.09501E-01
 -1      3890 1.18113E-01
 -1      3891 1.02188E-01
 -1      3892 4.37269E+00
 -1      3893 6.02673E-02
 -1      3894 1.50192E-01
 -1      3895 1.49662E-01
 -1      3896 6.53677E-02
 -1      3897 6.24738E-02
 -1      3898 5.48415E-02
 -1      3899 3.48650E-01
 -1      3900 3.00905E-01
 -1      3901 2.98139E-01
 -1      3902 5.51624E+00
 -1      3903 1.50500E-01
 -1      3904 1.49678E-01
 -1      3905 1.17541E-01
 -1      3906 1.10957E-01
 -1      3907 1.35290E+00
 -1      3908 1.20743E+00
 -1      3909 1.20463E+00
 -1      3910 5.05926E+00
 -1      3911 5.47365E+00
 -1      3912 4.36731E+00
 -1      3913 6.61035E-02
 -1      3914 6.50450E-02
 -1      3915 7.22624E-02
 -1      3916 4.16464E+00
 -1      3917 4.59886E+00
 -1      3918 3.18153E+00
 -1      3919 4.81666E+00
 -1      3920 4.12709E+00
 -1      3921 2.72213E+00
 -1      3922 6.46277E-02
 -1      3923 7.19350E-02
 -1      3924 6.46277E-02
 -1      3925 3.97414E+00
 -1      3926 1.55423E-01
 -1      3927 1.23287E-01
 -1      3928 1.54916E+00
 -1      3929 3.31930E-01
 -1      3930 3.94136E-01
 -1      3931 4.43364E-01
 -1      3932 5.23549E-01
 -1      3933 4.10774E-01
 -1      3934 5.88526E-01
 -1      3935 6.94782E-01
 -1      3936 5.24979E-01
 -1      3937 8.03054E-01
 -1      3938 9.48934E-01
 -1      3939 6.98228E-01
 -1      3940 1.11276E+00
 -1      3941 1.32172E+00
 -1      3942 9.70322E-01
 -1      3943 1.59656E+00
 -1      3944 1.89740E+00
 -1      3945 1.40899E+00
 -1      3946 2.51317E+00
 -1      3947 3.45468E+00
 -1      3948 2.29961E+00
 -1      3949 4.03284E+00
 -1      3950 4.79767E+00
 -1      3951 1.36672E-01
 -1      3952 1.23447E-01
 -1      3953 1.28754E-01
 -1      3954 4.47952E+00
 -1      3955 2.98275E+00
 -1      3956 4.16301E+00
 -1      3957 2.02671E+00
 -1      3958 1.71216E+00
 -1      3959 2.75496E+00
 -1      3960 1.41296E+00
 -1      3961 1.18869E+00
 -1      3962 1.49972E+00
 -1      3963 1.02130E+00
 -1      3964 8.70320E-01
 -1      3965 1.03313E+00
 -1      3966 7.56376E-01
 -1      3967 6.49097E-01
 -1      3968 7.51796E-01
 -1      3969 5.70823E-01
 -1      3970 4.91720E-01
 -1      3971 5.59579E-01
 -1      3972 4.34914E-01
 -1      3973 3.74923E-01
 -1      3974 4.24500E-01
 -1      3975 3.31250E-01
 -1      3976 2.84859E-01
 -1      3977 3.24022E-01
 -1      3978 2.51154E-01
 -1      3979 2.15146E-01
 -1      3980 2.46644E-01
 -1      3981 1.89291E-01
 -1      3982 1.61267E-01
 -1      3983 1.87084E-01
 -1      3984 1.40809E-01
 -1      3985 1.19180E-01
 -1      3986 1.40771E-01
 -1      3987 1.08786E-01
 -1      3988 9.21117E-02
 -1      3989 1.09920E-01
 -1      3990 4.68037E-01
 -1      3991 4.08344E-01
 -1      3992 4.08344E-01
 -1      3993 5.36545E-01
 -1      3994 1.66858E-01
 -1      3995 1.66858E-01
 -1      3996 1.76079E-01
 -1      3997 8.77523E-02
 -1      3998 1.03570E-01
 -1      3999 8.77523E-02
 -1      4000 1.00302E+00
 -1      4001 1.12355E+00
 -1      4002 5.11711E-01
 -1      4003 5.70098E-01
 -1      4004 4.00095E-01
 -1      4005 4.49839E-01
 -1      4006 4.87733E-01
 -1      4007 3.08120E-01
 -1      4008 3.49885E-01
 -1      4009 3.75652E-01
 -1      4010 2.34887E-01
 -1      4011 2.69035E-01
 -1      4012 2.86357E-01
 -1      4013 1.76858E-01
 -1      4014 2.04492E-01
 -1      4015 2.16877E-01
 -1      4016 1.31357E-01
 -1      4017 1.53256E-01
 -1      4018 1.62880E-01
 -1      4019 1.04169E-01
 -1      4020 1.14102E-01
 -1      4021 1.22023E-01
 -1      4022 1.04169E-01
 -1      4023 1.46168E-01
 -1      4024 1.46168E-01
 -1      4025 1.06095E-01
 -1      4026 8.94184E-02
 -1      4027 2.44451E+00
 -1      4028 2.27603E+00
 -1      4029 3.83340E+00
 -1      4030 1.82579E-01
 -1      4031 1.57375E-01
 -1      4032 1.63402E-01
 -1      4033 2.15866E-01
 -1      4034 6.24738E-02
 -1      4035 6.49527E-02
 -1      4036 7.22601E-02
 -1      4037 7.25851E-02
 -1      4038 2.00767E-01
 -1      4039 2.23131E-01
 -1      4040 1.71605E+00
 -1      4041 2.24451E+00
 -1      4042 2.24451E+00
 -1      4043 1.21950E+00
 -1      4044 1.47032E+00
 -1      4045 1.52116E+00
 -1      4046 1.17948E+00
 -1      4047 7.24823E-02
 -1      4048 4.03427E+00
 -1      4049 3.30175E+00
 -1      4050 3.50442E+00
 -1      4051 3.29636E+00
 -1      4052 4.62153E+00
 -1      4053 8.22411E-01
 -1      4054 9.22511E-01
 -1      4055 1.00302E+00
 -1      4056 4.62153E+00
 -1      4057 4.62153E+00
 -1      4058 6.51595E-01
 -1      4059 7.17455E-01
 -1      4060 6.31102E-01
 -1      4061 1.56354E-01
 -1      4062 1.74115E-01
 -1      4063 1.97631E-01
 -1      4064 1.90704E-01
 -1      4065 2.51138E-01
 -1      4066 2.91305E-01
 -1      4067 3.20922E-01
 -1      4068 2.57489E+00
 -1      4069 3.30175E+00
 -1      4070 3.57586E+00
 -1      4071 3.11483E+00
 -1      4072 8.57329E-02
 -1      4073 7.83185E-02
 -1      4074 7.76236E-01
 -1      4075 6.90645E-01
 -1      4076 1.02859E+00
 -1      4077 9.02412E-01
 -1      4078 9.02412E-01
 -1      4079 3.71101E+00
 -1      4080 2.35823E-01
 -1      4081 2.04061E-01
 -1      4082 2.52289E-01
 -1      4083 1.39970E+00
 -1      4084 1.22365E+00
 -1      4085 1.22365E+00
 -1      4086 1.61113E-01
 -1      4087 2.29505E+00
 -1      4088 1.20309E-01
 -1      4089 1.21147E-01
 -1      4090 3.32693E-01
 -1      4091 2.82182E-01
 -1      4092 2.70377E-01
 -1      4093 9.58198E-02
 -1      4094 1.07620E-01
 -1      4095 9.50003E-02
 -1      4096 1.01251E-01
 -1      4097 1.05275E-01
 -1      4098 7.87826E-02
 -1      4099 7.91053E-02
 -1      4100 9.25758E-02
 -1      4101 2.38207E+00
 -1      4102 3.78703E+00
 -1      4103 2.87652E+00
 -1      4104 1.90446E+00
 -1      4105 8.17555E-01
 -1      4106 7.47636E-02
 -1      4107 7.47636E-02
 -1      4108 8.12837E-02
 -1      4109 1.15465E-01
 -1      4110 5.00330E-01
 -1      4111 5.65306E-01
 -1      4112 6.47258E-01
 -1      4113 7.55530E-01
 -1      4114 6.22608E-01
 -1      4115 8.70889E-01
 -1      4116 1.03471E+00
 -1      4117 8.19919E-01
 -1      4118 1.25079E+00
 -1      4119 1.52563E+00
 -1      4120 1.15135E+00
 -1      4121 1.90377E+00
 -1      4122 2.51955E+00
 -1      4123 1.74557E+00
 -1      4124 1.41531E-01
 -1      4125 1.27585E-01
 -1      4126 1.20397E-01
 -1      4127 6.80387E-01
 -1      4128 5.94796E-01
 -1      4129 5.26288E-01
 -1      4130 9.55103E-01
 -1      4131 1.03561E+00
 -1      4132 1.50822E+00
 -1      4133 1.20901E+00
 -1      4134 1.07955E+00
 -1      4135 9.12162E-01
 -1      4136 1.08805E+00
 -1      4137 8.78427E-01
 -1      4138 7.64483E-01
 -1      4139 9.24849E-01
 -1      4140 6.30806E-01
 -1      4141 5.52533E-01
 -1      4142 7.57437E-01
 -1      4143 4.70167E-01
 -1      4144 4.13361E-01
 -1      4145 5.41394E-01
 -1      4146 3.39956E-01
 -1      4147 2.96284E-01
 -1      4148 3.85623E-01
 -1      4149 2.78046E-01
 -1      4150 2.44341E-01
 -1      4151 2.93980E-01
 -1      4152 2.01290E-01
 -1      4153 1.75435E-01
 -1      4154 2.32692E-01
 -1      4155 1.51748E-01
 -1      4156 1.31290E-01
 -1      4157 1.65954E-01
 -1      4158 1.09920E-01
 -1      4159 9.95261E-02
 -1      4160 9.25758E-02
 -1      4161 1.20897E-01
 -1      4162 1.98906E-01
 -1      4163 1.78204E-01
 -1      4164 1.77035E-01
 -1      4165 2.18863E-01
 -1      4166 1.70464E-01
 -1      4167 3.92235E-01
 -1      4168 4.42444E-01
 -1      4169 8.80774E-02
 -1      4170 5.24811E-01
 -1      4171 5.86683E-01
 -1      4172 5.41394E-01
 -1      4173 1.85479E-01
 -1      4174 2.15874E-01
 -1      4175 1.61877E-01
 -1      4176 1.85479E-01
 -1      4177 1.84476E-01
 -1      4178 1.35431E-01
 -1      4179 3.24282E+00
 -1      4180 3.50442E+00
 -1      4181 2.45440E-01
 -1      4182 2.73447E-01
 -1      4183 7.58698E-01
 -1      4184 8.63653E-01
 -1      4185 8.96246E-01
 -1      4186 3.17138E+00
 -1      4187 2.71899E+00
 -1      4188 3.12897E-01
 -1      4189 3.53522E-01
 -1      4190 3.06048E-01
 -1      4191 3.17138E+00
 -1      4192 2.64754E+00
 -1      4193 1.77121E+00
 -1      4194 7.20360E-01
 -1      4195 8.01857E-01
 -1      4196 8.47955E-01
 -1      4197 7.57437E-01
 -1      4198 2.52401E-01
 -1      4199 2.91486E-01
 -1      4200 2.21003E-01
 -1      4201 3.96145E-01
 -1      4202 4.45373E-01
 -1      4203 3.88121E-01
 -1      4204 3.17138E+00
 -1      4205 9.02558E-02
 -1      4206 2.58705E+00
 -1      4207 2.58705E+00
 -1      4208 1.74557E+00
 -1      4209 1.39307E+00
 -1      4210 1.19801E+00
 -1      4211 1.25414E-01
 -1      4212 1.48013E-01
 -1      4213 1.08159E-01
 -1      4214 1.79743E+00
 -1      4215 2.63192E+00
 -1      4216 1.50796E+00
 -1      4217 7.22223E-01
 -1      4218 6.26375E-01
 -1      4219 1.63100E+00
 -1      4220 8.82341E-02
 -1      4221 1.09567E+00
 -1      4222 1.14359E+00
 -1      4223 1.23954E+00
 -1      4224 9.77708E-01
 -1      4225 8.51532E-01
 -1      4226 1.14713E+00
 -1      4227 3.58279E-01
 -1      4228 4.50936E-01
 -1      4229 3.91243E-01
 -1      4230 3.75286E-01
 -1      4231 5.09187E-01
 -1      4232 1.92844E-01
 -1      4233 2.19496E-01
 -1      4234 2.40653E-01
 -1      4235 1.77536E-01
 -1      4236 1.72604E-01
 -1      4237 2.12569E-01
 -1      4238 2.64754E+00
 -1      4239 4.85700E-01
 -1      4240 3.06080E-01
 -1      4241 2.59721E-01
 -1      4242 1.39712E+00
 -1      4243 1.64286E+00
 -1      4244 1.78042E+00
 -1      4245 1.36123E+00
 -1      4246 7.97519E-01
 -1      4247 2.21934E-01
 -1      4248 2.16779E-01
 -1      4249 2.57637E-01
 -1      4250 1.34030E+00
 -1      4251 2.66637E-01
 -1      4252 3.67385E-01
 -1      4253 8.15694E-01
 -1      4254 9.31053E-01
 -1      4255 1.15135E+00
 -1      4256 1.36743E+00
 -1      4257 1.74557E+00
 -1      4258 2.12371E+00
 -1      4259 2.14208E-01
 -1      4260 9.24849E-01
 -1      4261 8.91115E-01
 -1      4262 8.91115E-01
 -1      4263 7.57437E-01
 -1      4264 6.23760E-01
 -1      4265 5.41394E-01
 -1      4266 2.93980E-01
 -1      4267 2.75742E-01
 -1      4268 2.75742E-01
 -1      4269 2.32692E-01
 -1      4270 1.87059E-01
 -1      4271 1.63372E-01
 -1      4272 1.15000E-01
 -1      4273 9.36294E-02
 -1      4274 8.23374E-02
 -1      4275 2.30109E-01
 -1      4276 2.66637E-01
 -1      4277 5.76107E-01
 -1      4278 5.34271E-01
 -1      4279 4.58919E-01
 -1      4280 4.59027E-01
 -1      4281 2.14709E-01
 -1      4282 2.12569E-01
 -1      4283 9.08551E-02
 -1      4284 8.47955E-01
 -1      4285 9.39405E-01
 -1      4286 3.39670E-01
 -1      4287 3.29013E-01
 -1      4288 3.98219E-01
 -1      4289 2.64754E+00
 -1      4290 1.38517E+00
 -1      4291 2.17280E-01
 -1      4292 2.43224E-01
 -1      4293 2.81011E-01
 -1      4294 3.20461E-01
 -1      4295 2.17280E-01
 -1      4296 3.54050E-01
 -1      4297 6.86385E-01
 -1      4298 4.34785E-01
 -1      4299 4.89742E-01
 -1      4300 1.18757E+00
 -1      4301 1.05811E+00
 -1      4302 1.02437E+00
 -1      4303 1.35523E+00
 -1      4304 3.96673E-01
 -1      4305 6.04434E-01
 -1      4306 4.00715E-01
 -1      4307 2.75742E-01
 -1      4308 1.07266E+00
 -1      4309 1.18064E+00
 -1      4310 3.85623E-01
 -1      4311 1.26908E-01
 -1      4312 9.42457E-02
 -1      4313 1.87059E-01
 -1      4314 5.53519E-01
 -1      4315 1.53582E+00
 -1      4316 1.37824E+00
 -1      4317 9.96411E-02
 -1      4318 8.91115E-01
 -1      4319 4.61416E-01
 -1      4320 4.23303E-01
 -3
 9999
