    1C
    1UUSER                                                              
    1UDATE              27.october.2022                                 
    1UTIME              00:50:49                                        
    1UHOST                                                              
    1UPGM               CalculiX                                        
    1UVERSION           Version 2.17                             
    1UCOMPILETIME       Thu Jul 23 21:43:50 CEST 2020                    
    1UDIR                                                               
    1UDBN                                                               
    1UMAT    1SOLIDMATERIAL                                             
    2C                          4308                                     1
 -1         1 2.86562E+01 2.41193E+01 0.00000E+00
 -1         2 3.56559E+01 1.71193E+01 0.00000E+00
 -1         3 1.50000E+02 0.00000E+00 0.00000E+00
 -1         4 1.50000E+02 5.00000E+01 0.00000E+00
 -1         5 0.00000E+00 0.00000E+00 0.00000E+00
 -1         6 0.00000E+00 5.00000E+01 0.00000E+00
 -1         7 0.00000E+00 4.70500E+01 0.00000E+00
 -1         8 0.00000E+00 4.41000E+01 0.00000E+00
 -1         9 0.00000E+00 4.11500E+01 0.00000E+00
 -1        10 0.00000E+00 3.82000E+01 0.00000E+00
 -1        11 0.00000E+00 3.52500E+01 0.00000E+00
 -1        12 0.00000E+00 3.23500E+01 0.00000E+00
 -1        13 0.00000E+00 2.94000E+01 0.00000E+00
 -1        14 0.00000E+00 2.64500E+01 0.00000E+00
 -1        15 0.00000E+00 2.35000E+01 0.00000E+00
 -1        16 0.00000E+00 2.05500E+01 0.00000E+00
 -1        17 0.00000E+00 1.76000E+01 0.00000E+00
 -1        18 0.00000E+00 1.47000E+01 0.00000E+00
 -1        19 0.00000E+00 1.17500E+01 0.00000E+00
 -1        20 0.00000E+00 8.80000E+00 0.00000E+00
 -1        21 0.00000E+00 5.85000E+00 0.00000E+00
 -1        22 0.00000E+00 2.90000E+00 0.00000E+00
 -1        23 3.15000E+00 5.00000E+01 0.00000E+00
 -1        24 6.15000E+00 5.00000E+01 0.00000E+00
 -1        25 9.15000E+00 5.00000E+01 0.00000E+00
 -1        26 1.21500E+01 5.00000E+01 0.00000E+00
 -1        27 1.51500E+01 5.00000E+01 0.00000E+00
 -1        28 1.81500E+01 5.00000E+01 0.00000E+00
 -1        29 2.11500E+01 5.00000E+01 0.00000E+00
 -1        30 2.41500E+01 5.00000E+01 0.00000E+00
 -1        31 2.71500E+01 5.00000E+01 0.00000E+00
 -1        32 3.01500E+01 5.00000E+01 0.00000E+00
 -1        33 3.31500E+01 5.00000E+01 0.00000E+00
 -1        34 3.61500E+01 5.00000E+01 0.00000E+00
 -1        35 3.91500E+01 5.00000E+01 0.00000E+00
 -1        36 4.21500E+01 5.00000E+01 0.00000E+00
 -1        37 4.51500E+01 5.00000E+01 0.00000E+00
 -1        38 4.81500E+01 5.00000E+01 0.00000E+00
 -1        39 5.11500E+01 5.00000E+01 0.00000E+00
 -1        40 5.41500E+01 5.00000E+01 0.00000E+00
 -1        41 5.71500E+01 5.00000E+01 0.00000E+00
 -1        42 6.01500E+01 5.00000E+01 0.00000E+00
 -1        43 6.31500E+01 5.00000E+01 0.00000E+00
 -1        44 6.61500E+01 5.00000E+01 0.00000E+00
 -1        45 6.91500E+01 5.00000E+01 0.00000E+00
 -1        46 7.21500E+01 5.00000E+01 0.00000E+00
 -1        47 7.51500E+01 5.00000E+01 0.00000E+00
 -1        48 7.81500E+01 5.00000E+01 0.00000E+00
 -1        49 8.11500E+01 5.00000E+01 0.00000E+00
 -1        50 8.41500E+01 5.00000E+01 0.00000E+00
 -1        51 8.71500E+01 5.00000E+01 0.00000E+00
 -1        52 9.01500E+01 5.00000E+01 0.00000E+00
 -1        53 9.31500E+01 5.00000E+01 0.00000E+00
 -1        54 9.61500E+01 5.00000E+01 0.00000E+00
 -1        55 9.91500E+01 5.00000E+01 0.00000E+00
 -1        56 1.02150E+02 5.00000E+01 0.00000E+00
 -1        57 1.05150E+02 5.00000E+01 0.00000E+00
 -1        58 1.08150E+02 5.00000E+01 0.00000E+00
 -1        59 1.11150E+02 5.00000E+01 0.00000E+00
 -1        60 1.14150E+02 5.00000E+01 0.00000E+00
 -1        61 1.17150E+02 5.00000E+01 0.00000E+00
 -1        62 1.20150E+02 5.00000E+01 0.00000E+00
 -1        63 1.23150E+02 5.00000E+01 0.00000E+00
 -1        64 1.26150E+02 5.00000E+01 0.00000E+00
 -1        65 1.29150E+02 5.00000E+01 0.00000E+00
 -1        66 1.32150E+02 5.00000E+01 0.00000E+00
 -1        67 1.35150E+02 5.00000E+01 0.00000E+00
 -1        68 1.38150E+02 5.00000E+01 0.00000E+00
 -1        69 1.41150E+02 5.00000E+01 0.00000E+00
 -1        70 1.44150E+02 5.00000E+01 0.00000E+00
 -1        71 1.47150E+02 5.00000E+01 0.00000E+00
 -1        72 3.15000E+00 0.00000E+00 0.00000E+00
 -1        73 6.15000E+00 0.00000E+00 0.00000E+00
 -1        74 9.15000E+00 0.00000E+00 0.00000E+00
 -1        75 1.21500E+01 0.00000E+00 0.00000E+00
 -1        76 1.51500E+01 0.00000E+00 0.00000E+00
 -1        77 1.81500E+01 0.00000E+00 0.00000E+00
 -1        78 2.11500E+01 0.00000E+00 0.00000E+00
 -1        79 2.41500E+01 0.00000E+00 0.00000E+00
 -1        80 2.71500E+01 0.00000E+00 0.00000E+00
 -1        81 3.01500E+01 0.00000E+00 0.00000E+00
 -1        82 3.31500E+01 0.00000E+00 0.00000E+00
 -1        83 3.61500E+01 0.00000E+00 0.00000E+00
 -1        84 3.91500E+01 0.00000E+00 0.00000E+00
 -1        85 4.21500E+01 0.00000E+00 0.00000E+00
 -1        86 4.51500E+01 0.00000E+00 0.00000E+00
 -1        87 4.81500E+01 0.00000E+00 0.00000E+00
 -1        88 5.11500E+01 0.00000E+00 0.00000E+00
 -1        89 5.41500E+01 0.00000E+00 0.00000E+00
 -1        90 5.71500E+01 0.00000E+00 0.00000E+00
 -1        91 6.01500E+01 0.00000E+00 0.00000E+00
 -1        92 6.31500E+01 0.00000E+00 0.00000E+00
 -1        93 6.61500E+01 0.00000E+00 0.00000E+00
 -1        94 6.91500E+01 0.00000E+00 0.00000E+00
 -1        95 7.21500E+01 0.00000E+00 0.00000E+00
 -1        96 7.51500E+01 0.00000E+00 0.00000E+00
 -1        97 7.81500E+01 0.00000E+00 0.00000E+00
 -1        98 8.11500E+01 0.00000E+00 0.00000E+00
 -1        99 8.41500E+01 0.00000E+00 0.00000E+00
 -1       100 8.71500E+01 0.00000E+00 0.00000E+00
 -1       101 9.01500E+01 0.00000E+00 0.00000E+00
 -1       102 9.31500E+01 0.00000E+00 0.00000E+00
 -1       103 9.61500E+01 0.00000E+00 0.00000E+00
 -1       104 9.91500E+01 0.00000E+00 0.00000E+00
 -1       105 1.02150E+02 0.00000E+00 0.00000E+00
 -1       106 1.05150E+02 0.00000E+00 0.00000E+00
 -1       107 1.08150E+02 0.00000E+00 0.00000E+00
 -1       108 1.11150E+02 0.00000E+00 0.00000E+00
 -1       109 1.14150E+02 0.00000E+00 0.00000E+00
 -1       110 1.17150E+02 0.00000E+00 0.00000E+00
 -1       111 1.20150E+02 0.00000E+00 0.00000E+00
 -1       112 1.23150E+02 0.00000E+00 0.00000E+00
 -1       113 1.26150E+02 0.00000E+00 0.00000E+00
 -1       114 1.29150E+02 0.00000E+00 0.00000E+00
 -1       115 1.32150E+02 0.00000E+00 0.00000E+00
 -1       116 1.35150E+02 0.00000E+00 0.00000E+00
 -1       117 1.38150E+02 0.00000E+00 0.00000E+00
 -1       118 1.41150E+02 0.00000E+00 0.00000E+00
 -1       119 1.44150E+02 0.00000E+00 0.00000E+00
 -1       120 1.47150E+02 0.00000E+00 0.00000E+00
 -1       121 1.50000E+02 2.95000E+00 0.00000E+00
 -1       122 1.50000E+02 5.90000E+00 0.00000E+00
 -1       123 1.50000E+02 8.85000E+00 0.00000E+00
 -1       124 1.50000E+02 1.18000E+01 0.00000E+00
 -1       125 1.50000E+02 1.47500E+01 0.00000E+00
 -1       126 1.50000E+02 1.76500E+01 0.00000E+00
 -1       127 1.50000E+02 2.06000E+01 0.00000E+00
 -1       128 1.50000E+02 2.35500E+01 0.00000E+00
 -1       129 1.50000E+02 2.65000E+01 0.00000E+00
 -1       130 1.50000E+02 2.94500E+01 0.00000E+00
 -1       131 1.50000E+02 3.24000E+01 0.00000E+00
 -1       132 1.50000E+02 3.53000E+01 0.00000E+00
 -1       133 1.50000E+02 3.82500E+01 0.00000E+00
 -1       134 1.50000E+02 4.12000E+01 0.00000E+00
 -1       135 1.50000E+02 4.41500E+01 0.00000E+00
 -1       136 1.50000E+02 4.71000E+01 0.00000E+00
 -1       137 3.54872E+01 1.55916E+01 0.00000E+00
 -1       138 3.49858E+01 1.41307E+01 0.00000E+00
 -1       139 3.41882E+01 1.28305E+01 0.00000E+00
 -1       140 3.32286E+01 1.18193E+01 0.00000E+00
 -1       141 3.19991E+01 1.09693E+01 0.00000E+00
 -1       142 3.06568E+01 1.04114E+01 0.00000E+00
 -1       143 2.92707E+01 1.01464E+01 0.00000E+00
 -1       144 2.76782E+01 1.01879E+01 0.00000E+00
 -1       145 2.62852E+01 1.05330E+01 0.00000E+00
 -1       146 2.49063E+01 1.12083E+01 0.00000E+00
 -1       147 2.37137E+01 1.21620E+01 0.00000E+00
 -1       148 2.27781E+01 1.33177E+01 0.00000E+00
 -1       149 2.20943E+01 1.46809E+01 0.00000E+00
 -1       150 2.17383E+01 1.60485E+01 0.00000E+00
 -1       151 2.16693E+01 1.75520E+01 0.00000E+00
 -1       152 2.19181E+01 1.90172E+01 0.00000E+00
 -1       153 2.24490E+01 2.03558E+01 0.00000E+00
 -1       154 2.33288E+01 2.16605E+01 0.00000E+00
 -1       155 2.43520E+01 2.26398E+01 0.00000E+00
 -1       156 2.57482E+01 2.34868E+01 0.00000E+00
 -1       157 2.71575E+01 2.39571E+01 0.00000E+00
 -1       158 3.00002E+01 2.39890E+01 0.00000E+00
 -1       159 3.13577E+01 2.35769E+01 0.00000E+00
 -1       160 3.26039E+01 2.28997E+01 0.00000E+00
 -1       161 3.36465E+01 2.20278E+01 0.00000E+00
 -1       162 3.45186E+01 2.09441E+01 0.00000E+00
 -1       163 3.51367E+01 1.97650E+01 0.00000E+00
 -1       164 3.55282E+01 1.84505E+01 0.00000E+00
 -1       165 2.59800E+00 4.55750E+01 0.00000E+00
 -1       166 2.59800E+00 4.26250E+01 0.00000E+00
 -1       167 2.59800E+00 3.96750E+01 0.00000E+00
 -1       168 2.59800E+00 3.67250E+01 0.00000E+00
 -1       169 2.59800E+00 3.38250E+01 0.00000E+00
 -1       170 2.59800E+00 3.08750E+01 0.00000E+00
 -1       171 2.59800E+00 2.79250E+01 0.00000E+00
 -1       172 2.59800E+00 2.49750E+01 0.00000E+00
 -1       173 2.59800E+00 2.20250E+01 0.00000E+00
 -1       174 2.59800E+00 1.90750E+01 0.00000E+00
 -1       175 2.59800E+00 1.61750E+01 0.00000E+00
 -1       176 2.59800E+00 1.32250E+01 0.00000E+00
 -1       177 2.59800E+00 1.02750E+01 0.00000E+00
 -1       178 2.59800E+00 7.32500E+00 0.00000E+00
 -1       179 2.59800E+00 4.37500E+00 0.00000E+00
 -1       180 2.87400E+00 2.18750E+00 0.00000E+00
 -1       181 4.65000E+00 4.74020E+01 0.00000E+00
 -1       182 7.65000E+00 4.74020E+01 0.00000E+00
 -1       183 1.06500E+01 4.74020E+01 0.00000E+00
 -1       184 1.36500E+01 4.74020E+01 0.00000E+00
 -1       185 1.66500E+01 4.74020E+01 0.00000E+00
 -1       186 1.96500E+01 4.74020E+01 0.00000E+00
 -1       187 2.26500E+01 4.74020E+01 0.00000E+00
 -1       188 2.56500E+01 4.74020E+01 0.00000E+00
 -1       189 2.86500E+01 4.74020E+01 0.00000E+00
 -1       190 3.16500E+01 4.74020E+01 0.00000E+00
 -1       191 3.46500E+01 4.74020E+01 0.00000E+00
 -1       192 3.76500E+01 4.74020E+01 0.00000E+00
 -1       193 4.06500E+01 4.74020E+01 0.00000E+00
 -1       194 4.36500E+01 4.74020E+01 0.00000E+00
 -1       195 4.66500E+01 4.74020E+01 0.00000E+00
 -1       196 4.96500E+01 4.74020E+01 0.00000E+00
 -1       197 5.26500E+01 4.74020E+01 0.00000E+00
 -1       198 5.56500E+01 4.74020E+01 0.00000E+00
 -1       199 5.86500E+01 4.74020E+01 0.00000E+00
 -1       200 6.16500E+01 4.74020E+01 0.00000E+00
 -1       201 6.46500E+01 4.74020E+01 0.00000E+00
 -1       202 6.76500E+01 4.74020E+01 0.00000E+00
 -1       203 7.06500E+01 4.74020E+01 0.00000E+00
 -1       204 7.36500E+01 4.74020E+01 0.00000E+00
 -1       205 7.66500E+01 4.74020E+01 0.00000E+00
 -1       206 7.96500E+01 4.74020E+01 0.00000E+00
 -1       207 8.26500E+01 4.74020E+01 0.00000E+00
 -1       208 8.56500E+01 4.74020E+01 0.00000E+00
 -1       209 8.86500E+01 4.74020E+01 0.00000E+00
 -1       210 9.16500E+01 4.74020E+01 0.00000E+00
 -1       211 9.46500E+01 4.74020E+01 0.00000E+00
 -1       212 9.76500E+01 4.74020E+01 0.00000E+00
 -1       213 1.00650E+02 4.74020E+01 0.00000E+00
 -1       214 1.03650E+02 4.74020E+01 0.00000E+00
 -1       215 1.06650E+02 4.74020E+01 0.00000E+00
 -1       216 1.09650E+02 4.74020E+01 0.00000E+00
 -1       217 1.12650E+02 4.74020E+01 0.00000E+00
 -1       218 1.15650E+02 4.74020E+01 0.00000E+00
 -1       219 1.18650E+02 4.74020E+01 0.00000E+00
 -1       220 1.21650E+02 4.74020E+01 0.00000E+00
 -1       221 1.24650E+02 4.74020E+01 0.00000E+00
 -1       222 1.27650E+02 4.74020E+01 0.00000E+00
 -1       223 1.30650E+02 4.74020E+01 0.00000E+00
 -1       224 1.33650E+02 4.74020E+01 0.00000E+00
 -1       225 1.36650E+02 4.74020E+01 0.00000E+00
 -1       226 1.39650E+02 4.74020E+01 0.00000E+00
 -1       227 1.42650E+02 4.74020E+01 0.00000E+00
 -1       228 1.45650E+02 4.74020E+01 0.00000E+00
 -1       229 5.87400E+00 2.18750E+00 0.00000E+00
 -1       230 8.87400E+00 2.18750E+00 0.00000E+00
 -1       231 1.18740E+01 2.18750E+00 0.00000E+00
 -1       232 1.48740E+01 2.18750E+00 0.00000E+00
 -1       233 1.78740E+01 2.18750E+00 0.00000E+00
 -1       234 2.08740E+01 2.18750E+00 0.00000E+00
 -1       235 2.38740E+01 2.18750E+00 0.00000E+00
 -1       236 2.68740E+01 2.18750E+00 0.00000E+00
 -1       237 2.98740E+01 2.18750E+00 0.00000E+00
 -1       238 3.28740E+01 2.18750E+00 0.00000E+00
 -1       239 3.58740E+01 2.18750E+00 0.00000E+00
 -1       240 3.88740E+01 2.18750E+00 0.00000E+00
 -1       241 4.18740E+01 2.18750E+00 0.00000E+00
 -1       242 4.48740E+01 2.18750E+00 0.00000E+00
 -1       243 4.78740E+01 2.18750E+00 0.00000E+00
 -1       244 5.08740E+01 2.18750E+00 0.00000E+00
 -1       245 5.38740E+01 2.18750E+00 0.00000E+00
 -1       246 5.68740E+01 2.18750E+00 0.00000E+00
 -1       247 5.98740E+01 2.18750E+00 0.00000E+00
 -1       248 6.28740E+01 2.18750E+00 0.00000E+00
 -1       249 6.58740E+01 2.18750E+00 0.00000E+00
 -1       250 6.88740E+01 2.18750E+00 0.00000E+00
 -1       251 7.18740E+01 2.18750E+00 0.00000E+00
 -1       252 7.48740E+01 2.18750E+00 0.00000E+00
 -1       253 7.78740E+01 2.18750E+00 0.00000E+00
 -1       254 8.08740E+01 2.18750E+00 0.00000E+00
 -1       255 8.38740E+01 2.18750E+00 0.00000E+00
 -1       256 8.68740E+01 2.18750E+00 0.00000E+00
 -1       257 8.98740E+01 2.18750E+00 0.00000E+00
 -1       258 9.28740E+01 2.18750E+00 0.00000E+00
 -1       259 9.58740E+01 2.18750E+00 0.00000E+00
 -1       260 9.88740E+01 2.18750E+00 0.00000E+00
 -1       261 1.01874E+02 2.18750E+00 0.00000E+00
 -1       262 1.04874E+02 2.18750E+00 0.00000E+00
 -1       263 1.07874E+02 2.18750E+00 0.00000E+00
 -1       264 1.10874E+02 2.18750E+00 0.00000E+00
 -1       265 1.13874E+02 2.18750E+00 0.00000E+00
 -1       266 1.16874E+02 2.18750E+00 0.00000E+00
 -1       267 1.19874E+02 2.18750E+00 0.00000E+00
 -1       268 1.22874E+02 2.18750E+00 0.00000E+00
 -1       269 1.25874E+02 2.18750E+00 0.00000E+00
 -1       270 1.28874E+02 2.18750E+00 0.00000E+00
 -1       271 1.31874E+02 2.18750E+00 0.00000E+00
 -1       272 1.34874E+02 2.18750E+00 0.00000E+00
 -1       273 1.37874E+02 2.18750E+00 0.00000E+00
 -1       274 1.40874E+02 2.18750E+00 0.00000E+00
 -1       275 1.43874E+02 2.18750E+00 0.00000E+00
 -1       276 1.46874E+02 2.18750E+00 0.00000E+00
 -1       277 1.47402E+02 4.42500E+00 0.00000E+00
 -1       278 1.47402E+02 7.37500E+00 0.00000E+00
 -1       279 1.47402E+02 1.03250E+01 0.00000E+00
 -1       280 1.47402E+02 1.32750E+01 0.00000E+00
 -1       281 1.47402E+02 1.61750E+01 0.00000E+00
 -1       282 1.47402E+02 1.91250E+01 0.00000E+00
 -1       283 1.47402E+02 2.20750E+01 0.00000E+00
 -1       284 1.47402E+02 2.50250E+01 0.00000E+00
 -1       285 1.47402E+02 2.79750E+01 0.00000E+00
 -1       286 1.47402E+02 3.09250E+01 0.00000E+00
 -1       287 1.47402E+02 3.38250E+01 0.00000E+00
 -1       288 1.47402E+02 3.67750E+01 0.00000E+00
 -1       289 1.47402E+02 3.97250E+01 0.00000E+00
 -1       290 1.47402E+02 4.26750E+01 0.00000E+00
 -1       291 1.46526E+02 4.50385E+01 0.00000E+00
 -1       292 3.69432E+01 1.62040E+01 0.00000E+00
 -1       293 3.66210E+01 1.43860E+01 0.00000E+00
 -1       294 3.57633E+01 1.27590E+01 0.00000E+00
 -1       295 3.45879E+01 1.14904E+01 0.00000E+00
 -1       296 3.33986E+01 1.02592E+01 0.00000E+00
 -1       297 3.17933E+01 9.57078E+00 0.00000E+00
 -1       298 3.01914E+01 9.08804E+00 0.00000E+00
 -1       299 2.84341E+01 8.62013E+00 0.00000E+00
 -1       300 2.66700E+01 9.10229E+00 0.00000E+00
 -1       301 2.49519E+01 9.55605E+00 0.00000E+00
 -1       302 2.33435E+01 1.04765E+01 0.00000E+00
 -1       303 2.23036E+01 1.19770E+01 0.00000E+00
 -1       304 2.12777E+01 1.34181E+01 0.00000E+00
 -1       305 2.07430E+01 1.50592E+01 0.00000E+00
 -1       306 2.03253E+01 1.67370E+01 0.00000E+00
 -1       307 2.05984E+01 1.84876E+01 0.00000E+00
 -1       308 2.10566E+01 2.01335E+01 0.00000E+00
 -1       309 2.17448E+01 2.17797E+01 0.00000E+00
 -1       310 2.30021E+01 2.30260E+01 0.00000E+00
 -1       311 2.43343E+01 2.42432E+01 0.00000E+00
 -1       312 2.60691E+01 2.48720E+01 0.00000E+00
 -1       313 2.77583E+01 2.54101E+01 0.00000E+00
 -1       314 2.94452E+01 2.52609E+01 0.00000E+00
 -1       315 3.10555E+01 2.50232E+01 0.00000E+00
 -1       316 3.26397E+01 2.44508E+01 0.00000E+00
 -1       317 3.39567E+01 2.34581E+01 0.00000E+00
 -1       318 3.48288E+01 2.23744E+01 0.00000E+00
 -1       319 3.59014E+01 2.09175E+01 0.00000E+00
 -1       320 3.65747E+01 1.94777E+01 0.00000E+00
 -1       321 3.67989E+01 1.79007E+01 0.00000E+00
 -1       322 5.19600E+00 4.11500E+01 0.00000E+00
 -1       323 5.19600E+00 4.41000E+01 0.00000E+00
 -1       324 5.19600E+00 3.52750E+01 0.00000E+00
 -1       325 5.19600E+00 3.23250E+01 0.00000E+00
 -1       326 5.19600E+00 2.93750E+01 0.00000E+00
 -1       327 5.19600E+00 2.64250E+01 0.00000E+00
 -1       328 5.19600E+00 2.34750E+01 0.00000E+00
 -1       329 5.19600E+00 2.05250E+01 0.00000E+00
 -1       330 5.19600E+00 1.76250E+01 0.00000E+00
 -1       331 5.19600E+00 1.46750E+01 0.00000E+00
 -1       332 5.19600E+00 1.17250E+01 0.00000E+00
 -1       333 5.19600E+00 8.77500E+00 0.00000E+00
 -1       334 5.19600E+00 5.82500E+00 0.00000E+00
 -1       335 5.53500E+00 4.00625E+00 0.00000E+00
 -1       336 8.53500E+00 4.00625E+00 0.00000E+00
 -1       337 3.66113E+01 2.25634E+01 0.00000E+00
 -1       338 9.15000E+00 4.48040E+01 0.00000E+00
 -1       339 1.21500E+01 4.48040E+01 0.00000E+00
 -1       340 1.51500E+01 4.48040E+01 0.00000E+00
 -1       341 1.81500E+01 4.48040E+01 0.00000E+00
 -1       342 2.11500E+01 4.48040E+01 0.00000E+00
 -1       343 2.41500E+01 4.48040E+01 0.00000E+00
 -1       344 2.71500E+01 4.48040E+01 0.00000E+00
 -1       345 3.01500E+01 4.48040E+01 0.00000E+00
 -1       346 3.31500E+01 4.48040E+01 0.00000E+00
 -1       347 3.61500E+01 4.48040E+01 0.00000E+00
 -1       348 3.91500E+01 4.48040E+01 0.00000E+00
 -1       349 4.21500E+01 4.48040E+01 0.00000E+00
 -1       350 4.51500E+01 4.48040E+01 0.00000E+00
 -1       351 4.81500E+01 4.48040E+01 0.00000E+00
 -1       352 5.11500E+01 4.48040E+01 0.00000E+00
 -1       353 5.41500E+01 4.48040E+01 0.00000E+00
 -1       354 5.71500E+01 4.48040E+01 0.00000E+00
 -1       355 6.01500E+01 4.48040E+01 0.00000E+00
 -1       356 6.31500E+01 4.48040E+01 0.00000E+00
 -1       357 6.61500E+01 4.48040E+01 0.00000E+00
 -1       358 6.91500E+01 4.48040E+01 0.00000E+00
 -1       359 7.21500E+01 4.48040E+01 0.00000E+00
 -1       360 7.51500E+01 4.48040E+01 0.00000E+00
 -1       361 7.81500E+01 4.48040E+01 0.00000E+00
 -1       362 8.11500E+01 4.48040E+01 0.00000E+00
 -1       363 8.41500E+01 4.48040E+01 0.00000E+00
 -1       364 8.71500E+01 4.48040E+01 0.00000E+00
 -1       365 9.01500E+01 4.48040E+01 0.00000E+00
 -1       366 9.31500E+01 4.48040E+01 0.00000E+00
 -1       367 9.61500E+01 4.48040E+01 0.00000E+00
 -1       368 9.91500E+01 4.48040E+01 0.00000E+00
 -1       369 1.02150E+02 4.48040E+01 0.00000E+00
 -1       370 1.05150E+02 4.48040E+01 0.00000E+00
 -1       371 1.08150E+02 4.48040E+01 0.00000E+00
 -1       372 1.11150E+02 4.48040E+01 0.00000E+00
 -1       373 1.14150E+02 4.48040E+01 0.00000E+00
 -1       374 1.17150E+02 4.48040E+01 0.00000E+00
 -1       375 1.20150E+02 4.48040E+01 0.00000E+00
 -1       376 1.23150E+02 4.48040E+01 0.00000E+00
 -1       377 1.26150E+02 4.48040E+01 0.00000E+00
 -1       378 1.29150E+02 4.48040E+01 0.00000E+00
 -1       379 1.32150E+02 4.48040E+01 0.00000E+00
 -1       380 1.35150E+02 4.48040E+01 0.00000E+00
 -1       381 1.38150E+02 4.48040E+01 0.00000E+00
 -1       382 1.41150E+02 4.48040E+01 0.00000E+00
 -1       383 1.43838E+02 4.49212E+01 0.00000E+00
 -1       384 1.15350E+01 4.00625E+00 0.00000E+00
 -1       385 1.45350E+01 4.00625E+00 0.00000E+00
 -1       386 1.75350E+01 4.00625E+00 0.00000E+00
 -1       387 2.05350E+01 4.00625E+00 0.00000E+00
 -1       388 2.35350E+01 4.00625E+00 0.00000E+00
 -1       389 2.65350E+01 4.00625E+00 0.00000E+00
 -1       390 2.95350E+01 4.00625E+00 0.00000E+00
 -1       391 3.25350E+01 4.00625E+00 0.00000E+00
 -1       392 3.55350E+01 4.00625E+00 0.00000E+00
 -1       393 3.85350E+01 4.00625E+00 0.00000E+00
 -1       394 4.15350E+01 4.00625E+00 0.00000E+00
 -1       395 4.45350E+01 4.00625E+00 0.00000E+00
 -1       396 4.75350E+01 4.00625E+00 0.00000E+00
 -1       397 5.05350E+01 4.00625E+00 0.00000E+00
 -1       398 5.35350E+01 4.00625E+00 0.00000E+00
 -1       399 5.65350E+01 4.00625E+00 0.00000E+00
 -1       400 5.95350E+01 4.00625E+00 0.00000E+00
 -1       401 6.25350E+01 4.00625E+00 0.00000E+00
 -1       402 6.55350E+01 4.00625E+00 0.00000E+00
 -1       403 6.85350E+01 4.00625E+00 0.00000E+00
 -1       404 7.15350E+01 4.00625E+00 0.00000E+00
 -1       405 7.45350E+01 4.00625E+00 0.00000E+00
 -1       406 7.75350E+01 4.00625E+00 0.00000E+00
 -1       407 8.05350E+01 4.00625E+00 0.00000E+00
 -1       408 8.35350E+01 4.00625E+00 0.00000E+00
 -1       409 8.65350E+01 4.00625E+00 0.00000E+00
 -1       410 8.95350E+01 4.00625E+00 0.00000E+00
 -1       411 9.25350E+01 4.00625E+00 0.00000E+00
 -1       412 9.55350E+01 4.00625E+00 0.00000E+00
 -1       413 9.85350E+01 4.00625E+00 0.00000E+00
 -1       414 1.01535E+02 4.00625E+00 0.00000E+00
 -1       415 1.04535E+02 4.00625E+00 0.00000E+00
 -1       416 1.07535E+02 4.00625E+00 0.00000E+00
 -1       417 1.10535E+02 4.00625E+00 0.00000E+00
 -1       418 1.13535E+02 4.00625E+00 0.00000E+00
 -1       419 1.16535E+02 4.00625E+00 0.00000E+00
 -1       420 1.19535E+02 4.00625E+00 0.00000E+00
 -1       421 1.22535E+02 4.00625E+00 0.00000E+00
 -1       422 1.25535E+02 4.00625E+00 0.00000E+00
 -1       423 1.28535E+02 4.00625E+00 0.00000E+00
 -1       424 1.31535E+02 4.00625E+00 0.00000E+00
 -1       425 1.34535E+02 4.00625E+00 0.00000E+00
 -1       426 1.37535E+02 4.00625E+00 0.00000E+00
 -1       427 1.40535E+02 4.00625E+00 0.00000E+00
 -1       428 1.43535E+02 4.00625E+00 0.00000E+00
 -1       429 1.45469E+02 4.21562E+00 0.00000E+00
 -1       430 1.44804E+02 1.18000E+01 0.00000E+00
 -1       431 1.44804E+02 8.85000E+00 0.00000E+00
 -1       432 1.45136E+02 6.53281E+00 0.00000E+00
 -1       433 1.44804E+02 1.47000E+01 0.00000E+00
 -1       434 1.44804E+02 1.76500E+01 0.00000E+00
 -1       435 1.44804E+02 2.06000E+01 0.00000E+00
 -1       436 1.44804E+02 2.35500E+01 0.00000E+00
 -1       437 1.44804E+02 2.65000E+01 0.00000E+00
 -1       438 1.44804E+02 2.94500E+01 0.00000E+00
 -1       439 1.44804E+02 3.23500E+01 0.00000E+00
 -1       440 1.44804E+02 3.53000E+01 0.00000E+00
 -1       441 1.44804E+02 3.82500E+01 0.00000E+00
 -1       442 1.44804E+02 4.12000E+01 0.00000E+00
 -1       443 3.73387E+01 1.29681E+01 0.00000E+00
 -1       444 3.84130E+01 1.71835E+01 0.00000E+00
 -1       445 3.81409E+01 1.50542E+01 0.00000E+00
 -1       446 3.63107E+01 1.10729E+01 0.00000E+00
 -1       447 3.57393E+01 2.36471E+01 0.00000E+00
 -1       448 3.81888E+01 1.87605E+01 0.00000E+00
 -1       449 3.51215E+01 9.84169E+00 0.00000E+00
 -1       450 5.19600E+00 3.82125E+01 0.00000E+00
 -1       451 3.14872E+01 7.68725E+00 0.00000E+00
 -1       452 2.97299E+01 7.21934E+00 0.00000E+00
 -1       453 2.71661E+01 7.44925E+00 0.00000E+00
 -1       454 2.54480E+01 7.90300E+00 0.00000E+00
 -1       455 2.34623E+01 8.81858E+00 0.00000E+00
 -1       456 2.16893E+01 1.04407E+01 0.00000E+00
 -1       457 2.06634E+01 1.18818E+01 0.00000E+00
 -1       458 1.96186E+01 1.37853E+01 0.00000E+00
 -1       459 1.92008E+01 1.54630E+01 0.00000E+00
 -1       460 1.90984E+01 1.78250E+01 0.00000E+00
 -1       461 1.93366E+01 1.97256E+01 0.00000E+00
 -1       462 2.01275E+01 2.14889E+01 0.00000E+00
 -1       463 2.13429E+01 2.34424E+01 0.00000E+00
 -1       464 2.26752E+01 2.46595E+01 0.00000E+00
 -1       465 2.46743E+01 2.60125E+01 0.00000E+00
 -1       466 2.63636E+01 2.65506E+01 0.00000E+00
 -1       467 2.87455E+01 2.69605E+01 0.00000E+00
 -1       468 3.03559E+01 2.67228E+01 0.00000E+00
 -1       469 3.24020E+01 2.62713E+01 0.00000E+00
 -1       470 3.42297E+01 2.51903E+01 0.00000E+00
 -1       471 3.75640E+01 2.08176E+01 0.00000E+00
 -1       472 3.30926E+01 8.37563E+00 0.00000E+00
 -1       473 1.79739E+01 1.65511E+01 0.00000E+00
 -1       474 2.18081E+01 8.78279E+00 0.00000E+00
 -1       475 1.00350E+01 6.60425E+00 0.00000E+00
 -1       476 7.79400E+00 3.08500E+01 0.00000E+00
 -1       477 7.79400E+00 3.38000E+01 0.00000E+00
 -1       478 7.79400E+00 2.49500E+01 0.00000E+00
 -1       479 7.79400E+00 2.20000E+01 0.00000E+00
 -1       480 7.79400E+00 1.91000E+01 0.00000E+00
 -1       481 7.79400E+00 1.61500E+01 0.00000E+00
 -1       482 7.79400E+00 1.32000E+01 0.00000E+00
 -1       483 7.79400E+00 1.02500E+01 0.00000E+00
 -1       484 1.06500E+01 4.22060E+01 0.00000E+00
 -1       485 1.30350E+01 6.60425E+00 0.00000E+00
 -1       486 7.92300E+00 4.16780E+01 0.00000E+00
 -1       487 1.36500E+01 4.22060E+01 0.00000E+00
 -1       488 1.66500E+01 4.22060E+01 0.00000E+00
 -1       489 1.96500E+01 4.22060E+01 0.00000E+00
 -1       490 2.26500E+01 4.22060E+01 0.00000E+00
 -1       491 2.56500E+01 4.22060E+01 0.00000E+00
 -1       492 2.86500E+01 4.22060E+01 0.00000E+00
 -1       493 3.16500E+01 4.22060E+01 0.00000E+00
 -1       494 3.46500E+01 4.22060E+01 0.00000E+00
 -1       495 3.76500E+01 4.22060E+01 0.00000E+00
 -1       496 4.06500E+01 4.22060E+01 0.00000E+00
 -1       497 4.36500E+01 4.22060E+01 0.00000E+00
 -1       498 4.66500E+01 4.22060E+01 0.00000E+00
 -1       499 4.96500E+01 4.22060E+01 0.00000E+00
 -1       500 5.26500E+01 4.22060E+01 0.00000E+00
 -1       501 5.56500E+01 4.22060E+01 0.00000E+00
 -1       502 5.86500E+01 4.22060E+01 0.00000E+00
 -1       503 6.16500E+01 4.22060E+01 0.00000E+00
 -1       504 6.46500E+01 4.22060E+01 0.00000E+00
 -1       505 6.76500E+01 4.22060E+01 0.00000E+00
 -1       506 7.06500E+01 4.22060E+01 0.00000E+00
 -1       507 7.36500E+01 4.22060E+01 0.00000E+00
 -1       508 7.66500E+01 4.22060E+01 0.00000E+00
 -1       509 7.96500E+01 4.22060E+01 0.00000E+00
 -1       510 8.26500E+01 4.22060E+01 0.00000E+00
 -1       511 8.56500E+01 4.22060E+01 0.00000E+00
 -1       512 8.86500E+01 4.22060E+01 0.00000E+00
 -1       513 9.16500E+01 4.22060E+01 0.00000E+00
 -1       514 9.46500E+01 4.22060E+01 0.00000E+00
 -1       515 9.76500E+01 4.22060E+01 0.00000E+00
 -1       516 1.00650E+02 4.22060E+01 0.00000E+00
 -1       517 1.03650E+02 4.22060E+01 0.00000E+00
 -1       518 1.06650E+02 4.22060E+01 0.00000E+00
 -1       519 1.09650E+02 4.22060E+01 0.00000E+00
 -1       520 1.12650E+02 4.22060E+01 0.00000E+00
 -1       521 1.15650E+02 4.22060E+01 0.00000E+00
 -1       522 1.18650E+02 4.22060E+01 0.00000E+00
 -1       523 1.21650E+02 4.22060E+01 0.00000E+00
 -1       524 1.24650E+02 4.22060E+01 0.00000E+00
 -1       525 1.27650E+02 4.22060E+01 0.00000E+00
 -1       526 1.30650E+02 4.22060E+01 0.00000E+00
 -1       527 1.33650E+02 4.22060E+01 0.00000E+00
 -1       528 1.36650E+02 4.22060E+01 0.00000E+00
 -1       529 1.39650E+02 4.22060E+01 0.00000E+00
 -1       530 1.90350E+01 6.55921E+00 0.00000E+00
 -1       531 3.40350E+01 6.22407E+00 0.00000E+00
 -1       532 3.70350E+01 6.39164E+00 0.00000E+00
 -1       533 4.00350E+01 6.39164E+00 0.00000E+00
 -1       534 4.30350E+01 6.39164E+00 0.00000E+00
 -1       535 4.60350E+01 6.39164E+00 0.00000E+00
 -1       536 4.90350E+01 6.39164E+00 0.00000E+00
 -1       537 5.20350E+01 6.39164E+00 0.00000E+00
 -1       538 5.50350E+01 6.39164E+00 0.00000E+00
 -1       539 5.80350E+01 6.39164E+00 0.00000E+00
 -1       540 6.10350E+01 6.39164E+00 0.00000E+00
 -1       541 6.40350E+01 6.39164E+00 0.00000E+00
 -1       542 6.70350E+01 6.39164E+00 0.00000E+00
 -1       543 7.00350E+01 6.39164E+00 0.00000E+00
 -1       544 7.30350E+01 6.39164E+00 0.00000E+00
 -1       545 7.60350E+01 6.39164E+00 0.00000E+00
 -1       546 7.90350E+01 6.39164E+00 0.00000E+00
 -1       547 8.20350E+01 6.39164E+00 0.00000E+00
 -1       548 8.50350E+01 6.39164E+00 0.00000E+00
 -1       549 8.80350E+01 6.39164E+00 0.00000E+00
 -1       550 9.10350E+01 6.39164E+00 0.00000E+00
 -1       551 9.40350E+01 6.39164E+00 0.00000E+00
 -1       552 9.70350E+01 6.39164E+00 0.00000E+00
 -1       553 1.00035E+02 6.39164E+00 0.00000E+00
 -1       554 1.03035E+02 6.39164E+00 0.00000E+00
 -1       555 1.06035E+02 6.39164E+00 0.00000E+00
 -1       556 1.09035E+02 6.39164E+00 0.00000E+00
 -1       557 1.12035E+02 6.39164E+00 0.00000E+00
 -1       558 1.15035E+02 6.39164E+00 0.00000E+00
 -1       559 1.18035E+02 6.39164E+00 0.00000E+00
 -1       560 1.21035E+02 6.39164E+00 0.00000E+00
 -1       561 1.24035E+02 6.39164E+00 0.00000E+00
 -1       562 1.27035E+02 6.39164E+00 0.00000E+00
 -1       563 1.30035E+02 6.39164E+00 0.00000E+00
 -1       564 1.33035E+02 6.39164E+00 0.00000E+00
 -1       565 1.36035E+02 6.39164E+00 0.00000E+00
 -1       566 1.39035E+02 6.39164E+00 0.00000E+00
 -1       567 1.42035E+02 6.39164E+00 0.00000E+00
 -1       568 1.42206E+02 1.61750E+01 0.00000E+00
 -1       569 1.42206E+02 1.91250E+01 0.00000E+00
 -1       570 1.42206E+02 1.03250E+01 0.00000E+00
 -1       571 1.42206E+02 1.32500E+01 0.00000E+00
 -1       572 1.42206E+02 2.20750E+01 0.00000E+00
 -1       573 1.42206E+02 2.50250E+01 0.00000E+00
 -1       574 1.42206E+02 2.79750E+01 0.00000E+00
 -1       575 1.42206E+02 3.08750E+01 0.00000E+00
 -1       576 1.42206E+02 3.38250E+01 0.00000E+00
 -1       577 1.42206E+02 3.67750E+01 0.00000E+00
 -1       578 1.42206E+02 3.97250E+01 0.00000E+00
 -1       579 4.01444E+01 1.58802E+01 0.00000E+00
 -1       580 3.83323E+01 1.12027E+01 0.00000E+00
 -1       581 1.60350E+01 6.60425E+00 0.00000E+00
 -1       582 3.69497E+01 9.26572E+00 0.00000E+00
 -1       583 3.62105E+01 2.56181E+01 0.00000E+00
 -1       584 3.85932E+01 2.25121E+01 0.00000E+00
 -1       585 3.17305E+01 2.80900E+01 0.00000E+00
 -1       586 1.94212E+01 2.32831E+01 0.00000E+00
 -1       587 3.99989E+01 1.82134E+01 0.00000E+00
 -1       588 3.74019E+01 2.40651E+01 0.00000E+00
 -1       589 7.79400E+00 2.79000E+01 0.00000E+00
 -1       590 3.10930E+01 5.63400E+00 0.00000E+00
 -1       591 3.54924E+01 7.74489E+00 0.00000E+00
 -1       592 2.57836E+01 5.69384E+00 0.00000E+00
 -1       593 1.76820E+01 1.89678E+01 0.00000E+00
 -1       594 1.99157E+01 1.02638E+01 0.00000E+00
 -1       595 1.88578E+01 1.21292E+01 0.00000E+00
 -1       596 1.78267E+01 1.42300E+01 0.00000E+00
 -1       597 3.42743E+01 2.73512E+01 0.00000E+00
 -1       598 1.81672E+01 2.13091E+01 0.00000E+00
 -1       599 2.09653E+01 2.51935E+01 0.00000E+00
 -1       600 2.28074E+01 2.66176E+01 0.00000E+00
 -1       601 2.50492E+01 2.77561E+01 0.00000E+00
 -1       602 2.72921E+01 2.82807E+01 0.00000E+00
 -1       603 3.01202E+01 2.83277E+01 0.00000E+00
 -1       604 3.91345E+01 1.32888E+01 0.00000E+00
 -1       605 2.84383E+01 5.66392E+00 0.00000E+00
 -1       606 3.93741E+01 2.02705E+01 0.00000E+00
 -1       607 7.61550E+00 6.21462E+00 0.00000E+00
 -1       608 7.79400E+00 3.67375E+01 0.00000E+00
 -1       609 7.85850E+00 3.92077E+01 0.00000E+00
 -1       610 1.41678E+02 4.22645E+01 0.00000E+00
 -1       611 2.86668E+01 2.96479E+01 0.00000E+00
 -1       612 2.37370E+01 6.80327E+00 0.00000E+00
 -1       613 1.03920E+01 2.05500E+01 0.00000E+00
 -1       614 1.03920E+01 2.35000E+01 0.00000E+00
 -1       615 1.03920E+01 1.46750E+01 0.00000E+00
 -1       616 1.03920E+01 1.17250E+01 0.00000E+00
 -1       617 1.59589E+01 1.75336E+01 0.00000E+00
 -1       618 1.21500E+01 3.96080E+01 0.00000E+00
 -1       619 1.15350E+01 9.20225E+00 0.00000E+00
 -1       620 1.58116E+01 1.52126E+01 0.00000E+00
 -1       621 1.51500E+01 3.96080E+01 0.00000E+00
 -1       622 1.81500E+01 3.96080E+01 0.00000E+00
 -1       623 2.11500E+01 3.96080E+01 0.00000E+00
 -1       624 2.41500E+01 3.96080E+01 0.00000E+00
 -1       625 2.71500E+01 3.96080E+01 0.00000E+00
 -1       626 3.01500E+01 3.96080E+01 0.00000E+00
 -1       627 3.31500E+01 3.96080E+01 0.00000E+00
 -1       628 3.61500E+01 3.96080E+01 0.00000E+00
 -1       629 3.91500E+01 3.96080E+01 0.00000E+00
 -1       630 4.21500E+01 3.96080E+01 0.00000E+00
 -1       631 4.51500E+01 3.96080E+01 0.00000E+00
 -1       632 4.81500E+01 3.96080E+01 0.00000E+00
 -1       633 5.11500E+01 3.96080E+01 0.00000E+00
 -1       634 5.41500E+01 3.96080E+01 0.00000E+00
 -1       635 5.71500E+01 3.96080E+01 0.00000E+00
 -1       636 6.01500E+01 3.96080E+01 0.00000E+00
 -1       637 6.31500E+01 3.96080E+01 0.00000E+00
 -1       638 6.61500E+01 3.96080E+01 0.00000E+00
 -1       639 6.91500E+01 3.96080E+01 0.00000E+00
 -1       640 7.21500E+01 3.96080E+01 0.00000E+00
 -1       641 7.51500E+01 3.96080E+01 0.00000E+00
 -1       642 7.81500E+01 3.96080E+01 0.00000E+00
 -1       643 8.11500E+01 3.96080E+01 0.00000E+00
 -1       644 8.41500E+01 3.96080E+01 0.00000E+00
 -1       645 8.71500E+01 3.96080E+01 0.00000E+00
 -1       646 9.01500E+01 3.96080E+01 0.00000E+00
 -1       647 9.31500E+01 3.96080E+01 0.00000E+00
 -1       648 9.61500E+01 3.96080E+01 0.00000E+00
 -1       649 9.91500E+01 3.96080E+01 0.00000E+00
 -1       650 1.02150E+02 3.96080E+01 0.00000E+00
 -1       651 1.05150E+02 3.96080E+01 0.00000E+00
 -1       652 1.08150E+02 3.96080E+01 0.00000E+00
 -1       653 1.11150E+02 3.96080E+01 0.00000E+00
 -1       654 1.14150E+02 3.96080E+01 0.00000E+00
 -1       655 1.17150E+02 3.96080E+01 0.00000E+00
 -1       656 1.20150E+02 3.96080E+01 0.00000E+00
 -1       657 1.23150E+02 3.96080E+01 0.00000E+00
 -1       658 1.26150E+02 3.96080E+01 0.00000E+00
 -1       659 1.29150E+02 3.96080E+01 0.00000E+00
 -1       660 1.32150E+02 3.96080E+01 0.00000E+00
 -1       661 1.35150E+02 3.96080E+01 0.00000E+00
 -1       662 1.38150E+02 3.96080E+01 0.00000E+00
 -1       663 4.06033E+01 2.19556E+01 0.00000E+00
 -1       664 3.84924E+01 7.74489E+00 0.00000E+00
 -1       665 4.75350E+01 8.98964E+00 0.00000E+00
 -1       666 5.05350E+01 8.98964E+00 0.00000E+00
 -1       667 5.35350E+01 8.98964E+00 0.00000E+00
 -1       668 5.65350E+01 8.98964E+00 0.00000E+00
 -1       669 5.95350E+01 8.98964E+00 0.00000E+00
 -1       670 6.25350E+01 8.98964E+00 0.00000E+00
 -1       671 6.55350E+01 8.98964E+00 0.00000E+00
 -1       672 6.85350E+01 8.98964E+00 0.00000E+00
 -1       673 7.15350E+01 8.98964E+00 0.00000E+00
 -1       674 7.45350E+01 8.98964E+00 0.00000E+00
 -1       675 7.75350E+01 8.98964E+00 0.00000E+00
 -1       676 8.05350E+01 8.98964E+00 0.00000E+00
 -1       677 8.35350E+01 8.98964E+00 0.00000E+00
 -1       678 8.65350E+01 8.98964E+00 0.00000E+00
 -1       679 8.95350E+01 8.98964E+00 0.00000E+00
 -1       680 9.25350E+01 8.98964E+00 0.00000E+00
 -1       681 9.55350E+01 8.98964E+00 0.00000E+00
 -1       682 9.85350E+01 8.98964E+00 0.00000E+00
 -1       683 1.01535E+02 8.98964E+00 0.00000E+00
 -1       684 1.04535E+02 8.98964E+00 0.00000E+00
 -1       685 1.07535E+02 8.98964E+00 0.00000E+00
 -1       686 1.10535E+02 8.98964E+00 0.00000E+00
 -1       687 1.13535E+02 8.98964E+00 0.00000E+00
 -1       688 1.16535E+02 8.98964E+00 0.00000E+00
 -1       689 1.19535E+02 8.98964E+00 0.00000E+00
 -1       690 1.22535E+02 8.98964E+00 0.00000E+00
 -1       691 1.25535E+02 8.98964E+00 0.00000E+00
 -1       692 1.28535E+02 8.98964E+00 0.00000E+00
 -1       693 1.31535E+02 8.98964E+00 0.00000E+00
 -1       694 1.34535E+02 8.98964E+00 0.00000E+00
 -1       695 1.37535E+02 8.98964E+00 0.00000E+00
 -1       696 1.39870E+02 9.65732E+00 0.00000E+00
 -1       697 1.39608E+02 2.35500E+01 0.00000E+00
 -1       698 1.78948E+01 1.03505E+01 0.00000E+00
 -1       699 1.39608E+02 1.76500E+01 0.00000E+00
 -1       700 1.39608E+02 2.65000E+01 0.00000E+00
 -1       701 1.39608E+02 2.06000E+01 0.00000E+00
 -1       702 1.39608E+02 2.94000E+01 0.00000E+00
 -1       703 1.39608E+02 3.23500E+01 0.00000E+00
 -1       704 1.39608E+02 3.53000E+01 0.00000E+00
 -1       705 4.13936E+01 1.39008E+01 0.00000E+00
 -1       706 1.45350E+01 9.20225E+00 0.00000E+00
 -1       707 2.08373E+01 2.72625E+01 0.00000E+00
 -1       708 3.12247E+01 3.02371E+01 0.00000E+00
 -1       709 1.87290E+01 2.54218E+01 0.00000E+00
 -1       710 1.70636E+01 2.33955E+01 0.00000E+00
 -1       711 4.45350E+01 8.98964E+00 0.00000E+00
 -1       712 4.15350E+01 8.98964E+00 0.00000E+00
 -1       713 4.19507E+01 1.71640E+01 0.00000E+00
 -1       714 1.03920E+01 1.76125E+01 0.00000E+00
 -1       715 1.03920E+01 3.23250E+01 0.00000E+00
 -1       716 1.62451E+01 2.04865E+01 0.00000E+00
 -1       717 1.40178E+02 3.96665E+01 0.00000E+00
 -1       718 4.12474E+01 1.97160E+01 0.00000E+00
 -1       719 1.68637E+01 1.24512E+01 0.00000E+00
 -1       720 3.37685E+01 2.94983E+01 0.00000E+00
 -1       721 2.31517E+01 2.87161E+01 0.00000E+00
 -1       722 2.57991E+01 2.96068E+01 0.00000E+00
 -1       723 4.03343E+01 1.16302E+01 0.00000E+00
 -1       724 1.00042E+01 3.94079E+01 0.00000E+00
 -1       725 3.64980E+01 2.78874E+01 0.00000E+00
 -1       726 1.03920E+01 2.64500E+01 0.00000E+00
 -1       727 1.03920E+01 3.52625E+01 0.00000E+00
 -1       728 3.96243E+01 2.45365E+01 0.00000E+00
 -1       729 1.39870E+02 1.25823E+01 0.00000E+00
 -1       730 3.91734E+01 9.14041E+00 0.00000E+00
 -1       731 4.31999E+01 1.51846E+01 0.00000E+00
 -1       732 3.76894E+01 2.63344E+01 0.00000E+00
 -1       733 2.71738E+01 3.09741E+01 0.00000E+00
 -1       734 1.03920E+01 2.93875E+01 0.00000E+00
 -1       735 1.39739E+02 1.51162E+01 0.00000E+00
 -1       736 1.38879E+02 3.74540E+01 0.00000E+00
 -1       737 1.29900E+01 1.32000E+01 0.00000E+00
 -1       738 1.37625E+01 1.12011E+01 0.00000E+00
 -1       739 1.37010E+02 3.08750E+01 0.00000E+00
 -1       740 1.01981E+01 3.73352E+01 0.00000E+00
 -1       741 1.37010E+02 3.38250E+01 0.00000E+00
 -1       742 1.36500E+01 3.70100E+01 0.00000E+00
 -1       743 1.66500E+01 3.70100E+01 0.00000E+00
 -1       744 1.96500E+01 3.70100E+01 0.00000E+00
 -1       745 2.26500E+01 3.70100E+01 0.00000E+00
 -1       746 2.56500E+01 3.70100E+01 0.00000E+00
 -1       747 2.86500E+01 3.70100E+01 0.00000E+00
 -1       748 3.16500E+01 3.70100E+01 0.00000E+00
 -1       749 3.46500E+01 3.70100E+01 0.00000E+00
 -1       750 3.76500E+01 3.70100E+01 0.00000E+00
 -1       751 4.06500E+01 3.70100E+01 0.00000E+00
 -1       752 4.36500E+01 3.70100E+01 0.00000E+00
 -1       753 4.66500E+01 3.70100E+01 0.00000E+00
 -1       754 4.96500E+01 3.70100E+01 0.00000E+00
 -1       755 5.26500E+01 3.70100E+01 0.00000E+00
 -1       756 5.56500E+01 3.70100E+01 0.00000E+00
 -1       757 5.86500E+01 3.70100E+01 0.00000E+00
 -1       758 6.16500E+01 3.70100E+01 0.00000E+00
 -1       759 6.46500E+01 3.70100E+01 0.00000E+00
 -1       760 6.76500E+01 3.70100E+01 0.00000E+00
 -1       761 7.06500E+01 3.70100E+01 0.00000E+00
 -1       762 7.36500E+01 3.70100E+01 0.00000E+00
 -1       763 7.66500E+01 3.70100E+01 0.00000E+00
 -1       764 7.96500E+01 3.70100E+01 0.00000E+00
 -1       765 8.26500E+01 3.70100E+01 0.00000E+00
 -1       766 8.56500E+01 3.70100E+01 0.00000E+00
 -1       767 8.86500E+01 3.70100E+01 0.00000E+00
 -1       768 9.16500E+01 3.70100E+01 0.00000E+00
 -1       769 9.46500E+01 3.70100E+01 0.00000E+00
 -1       770 9.76500E+01 3.70100E+01 0.00000E+00
 -1       771 1.00650E+02 3.70100E+01 0.00000E+00
 -1       772 1.03650E+02 3.70100E+01 0.00000E+00
 -1       773 1.06650E+02 3.70100E+01 0.00000E+00
 -1       774 1.09650E+02 3.70100E+01 0.00000E+00
 -1       775 1.12650E+02 3.70100E+01 0.00000E+00
 -1       776 1.15650E+02 3.70100E+01 0.00000E+00
 -1       777 1.18650E+02 3.70100E+01 0.00000E+00
 -1       778 1.21650E+02 3.70100E+01 0.00000E+00
 -1       779 1.24650E+02 3.70100E+01 0.00000E+00
 -1       780 1.27650E+02 3.70100E+01 0.00000E+00
 -1       781 1.30650E+02 3.70100E+01 0.00000E+00
 -1       782 1.33650E+02 3.70100E+01 0.00000E+00
 -1       783 1.36264E+02 3.72320E+01 0.00000E+00
 -1       784 5.50350E+01 1.15876E+01 0.00000E+00
 -1       785 1.84347E+01 2.78865E+01 0.00000E+00
 -1       786 4.21874E+01 2.40327E+01 0.00000E+00
 -1       787 1.40063E+01 1.64923E+01 0.00000E+00
 -1       788 1.29450E+01 2.20250E+01 0.00000E+00
 -1       789 5.20350E+01 1.15876E+01 0.00000E+00
 -1       790 4.90350E+01 1.15876E+01 0.00000E+00
 -1       791 5.80350E+01 1.15876E+01 0.00000E+00
 -1       792 6.10350E+01 1.15876E+01 0.00000E+00
 -1       793 6.40350E+01 1.15876E+01 0.00000E+00
 -1       794 6.70350E+01 1.15876E+01 0.00000E+00
 -1       795 7.00350E+01 1.15876E+01 0.00000E+00
 -1       796 7.30350E+01 1.15876E+01 0.00000E+00
 -1       797 7.60350E+01 1.15876E+01 0.00000E+00
 -1       798 7.90350E+01 1.15876E+01 0.00000E+00
 -1       799 8.20350E+01 1.15876E+01 0.00000E+00
 -1       800 8.50350E+01 1.15876E+01 0.00000E+00
 -1       801 8.80350E+01 1.15876E+01 0.00000E+00
 -1       802 9.10350E+01 1.15876E+01 0.00000E+00
 -1       803 9.40350E+01 1.15876E+01 0.00000E+00
 -1       804 9.70350E+01 1.15876E+01 0.00000E+00
 -1       805 1.00035E+02 1.15876E+01 0.00000E+00
 -1       806 1.03035E+02 1.15876E+01 0.00000E+00
 -1       807 1.06035E+02 1.15876E+01 0.00000E+00
 -1       808 1.09035E+02 1.15876E+01 0.00000E+00
 -1       809 1.12035E+02 1.15876E+01 0.00000E+00
 -1       810 1.15035E+02 1.15876E+01 0.00000E+00
 -1       811 1.18035E+02 1.15876E+01 0.00000E+00
 -1       812 1.21035E+02 1.15876E+01 0.00000E+00
 -1       813 1.24035E+02 1.15876E+01 0.00000E+00
 -1       814 1.27035E+02 1.15876E+01 0.00000E+00
 -1       815 1.30035E+02 1.15876E+01 0.00000E+00
 -1       816 1.33035E+02 1.15876E+01 0.00000E+00
 -1       817 1.36035E+02 1.15876E+01 0.00000E+00
 -1       818 1.37953E+02 1.20850E+01 0.00000E+00
 -1       819 3.31152E+01 3.19976E+01 0.00000E+00
 -1       820 4.32526E+01 1.88956E+01 0.00000E+00
 -1       821 1.37010E+02 2.50250E+01 0.00000E+00
 -1       822 1.42281E+01 1.91917E+01 0.00000E+00
 -1       823 4.30350E+01 1.15426E+01 0.00000E+00
 -1       824 1.37010E+02 2.79500E+01 0.00000E+00
 -1       825 2.09932E+01 2.95836E+01 0.00000E+00
 -1       826 4.27347E+01 2.13562E+01 0.00000E+00
 -1       827 3.63457E+01 3.07472E+01 0.00000E+00
 -1       828 1.63124E+01 2.57105E+01 0.00000E+00
 -1       829 4.60350E+01 1.15876E+01 0.00000E+00
 -1       830 1.48421E+01 2.24509E+01 0.00000E+00
 -1       831 2.38216E+01 3.11047E+01 0.00000E+00
 -1       832 2.94855E+01 3.19405E+01 0.00000E+00
 -1       833 1.29900E+01 3.37938E+01 0.00000E+00
 -1       834 4.13659E+01 2.66252E+01 0.00000E+00
 -1       835 1.29450E+01 2.49750E+01 0.00000E+00
 -1       836 2.51962E+01 3.24719E+01 0.00000E+00
 -1       837 4.45017E+01 1.69163E+01 0.00000E+00
 -1       838 1.37010E+02 1.91250E+01 0.00000E+00
 -1       839 1.37010E+02 2.20750E+01 0.00000E+00
 -1       840 1.37141E+02 1.65912E+01 0.00000E+00
 -1       841 1.29900E+01 3.08563E+01 0.00000E+00
 -1       842 3.88039E+01 2.94443E+01 0.00000E+00
 -1       843 1.36637E+02 3.55285E+01 0.00000E+00
 -1       844 1.51500E+01 3.44120E+01 0.00000E+00
 -1       845 1.81500E+01 3.44120E+01 0.00000E+00
 -1       846 2.11500E+01 3.44120E+01 0.00000E+00
 -1       847 3.01500E+01 3.44120E+01 0.00000E+00
 -1       848 3.91500E+01 3.44120E+01 0.00000E+00
 -1       849 4.21500E+01 3.44120E+01 0.00000E+00
 -1       850 4.51500E+01 3.44120E+01 0.00000E+00
 -1       851 4.81500E+01 3.44120E+01 0.00000E+00
 -1       852 5.11500E+01 3.44120E+01 0.00000E+00
 -1       853 5.41500E+01 3.44120E+01 0.00000E+00
 -1       854 5.71500E+01 3.44120E+01 0.00000E+00
 -1       855 6.01500E+01 3.44120E+01 0.00000E+00
 -1       856 6.31500E+01 3.44120E+01 0.00000E+00
 -1       857 6.61500E+01 3.44120E+01 0.00000E+00
 -1       858 6.91500E+01 3.44120E+01 0.00000E+00
 -1       859 7.21500E+01 3.44120E+01 0.00000E+00
 -1       860 7.51500E+01 3.44120E+01 0.00000E+00
 -1       861 7.81500E+01 3.44120E+01 0.00000E+00
 -1       862 8.11500E+01 3.44120E+01 0.00000E+00
 -1       863 8.41500E+01 3.44120E+01 0.00000E+00
 -1       864 8.71500E+01 3.44120E+01 0.00000E+00
 -1       865 9.01500E+01 3.44120E+01 0.00000E+00
 -1       866 9.31500E+01 3.44120E+01 0.00000E+00
 -1       867 9.61500E+01 3.44120E+01 0.00000E+00
 -1       868 9.91500E+01 3.44120E+01 0.00000E+00
 -1       869 1.02150E+02 3.44120E+01 0.00000E+00
 -1       870 1.05150E+02 3.44120E+01 0.00000E+00
 -1       871 1.08150E+02 3.44120E+01 0.00000E+00
 -1       872 1.11150E+02 3.44120E+01 0.00000E+00
 -1       873 1.14150E+02 3.44120E+01 0.00000E+00
 -1       874 1.17150E+02 3.44120E+01 0.00000E+00
 -1       875 1.20150E+02 3.44120E+01 0.00000E+00
 -1       876 1.23150E+02 3.44120E+01 0.00000E+00
 -1       877 1.26150E+02 3.44120E+01 0.00000E+00
 -1       878 1.29150E+02 3.44120E+01 0.00000E+00
 -1       879 1.32150E+02 3.44120E+01 0.00000E+00
 -1       880 4.42533E+01 2.61137E+01 0.00000E+00
 -1       881 3.87704E+01 3.23514E+01 0.00000E+00
 -1       882 5.35350E+01 1.41856E+01 0.00000E+00
 -1       883 5.05350E+01 1.41856E+01 0.00000E+00
 -1       884 6.25350E+01 1.41856E+01 0.00000E+00
 -1       885 6.55350E+01 1.41856E+01 0.00000E+00
 -1       886 6.85350E+01 1.41856E+01 0.00000E+00
 -1       887 7.15350E+01 1.41856E+01 0.00000E+00
 -1       888 7.45350E+01 1.41856E+01 0.00000E+00
 -1       889 7.75350E+01 1.41856E+01 0.00000E+00
 -1       890 8.05350E+01 1.41856E+01 0.00000E+00
 -1       891 8.35350E+01 1.41856E+01 0.00000E+00
 -1       892 8.65350E+01 1.41856E+01 0.00000E+00
 -1       893 8.95350E+01 1.41856E+01 0.00000E+00
 -1       894 9.25350E+01 1.41856E+01 0.00000E+00
 -1       895 9.55350E+01 1.41856E+01 0.00000E+00
 -1       896 9.85350E+01 1.41856E+01 0.00000E+00
 -1       897 1.01535E+02 1.41856E+01 0.00000E+00
 -1       898 1.04535E+02 1.41856E+01 0.00000E+00
 -1       899 1.07535E+02 1.41856E+01 0.00000E+00
 -1       900 1.10535E+02 1.41856E+01 0.00000E+00
 -1       901 1.13535E+02 1.41856E+01 0.00000E+00
 -1       902 1.16535E+02 1.41856E+01 0.00000E+00
 -1       903 1.19535E+02 1.41856E+01 0.00000E+00
 -1       904 1.22535E+02 1.41856E+01 0.00000E+00
 -1       905 1.25535E+02 1.41856E+01 0.00000E+00
 -1       906 1.28535E+02 1.41856E+01 0.00000E+00
 -1       907 1.31535E+02 1.41856E+01 0.00000E+00
 -1       908 1.34535E+02 1.41856E+01 0.00000E+00
 -1       909 1.84880E+01 3.05833E+01 0.00000E+00
 -1       910 4.52684E+01 1.42520E+01 0.00000E+00
 -1       911 5.65350E+01 1.41856E+01 0.00000E+00
 -1       912 1.57859E+01 2.83470E+01 0.00000E+00
 -1       913 4.48006E+01 2.34373E+01 0.00000E+00
 -1       914 1.29675E+01 2.79156E+01 0.00000E+00
 -1       915 2.13165E+01 3.21044E+01 0.00000E+00
 -1       916 4.79017E+01 1.42188E+01 0.00000E+00
 -1       917 2.75080E+01 3.34383E+01 0.00000E+00
 -1       918 4.53185E+01 2.09767E+01 0.00000E+00
 -1       919 1.34412E+02 3.23500E+01 0.00000E+00
 -1       920 1.37547E+02 1.43381E+01 0.00000E+00
 -1       921 5.95350E+01 1.41856E+01 0.00000E+00
 -1       922 3.69978E+01 3.38786E+01 0.00000E+00
 -1       923 4.20075E+01 2.97820E+01 0.00000E+00
 -1       924 1.34394E+02 3.49702E+01 0.00000E+00
 -1       925 1.34412E+02 2.06000E+01 0.00000E+00
 -1       926 1.34412E+02 2.35500E+01 0.00000E+00
 -1       927 1.34412E+02 2.94250E+01 0.00000E+00
 -1       928 4.65676E+01 1.89973E+01 0.00000E+00
 -1       929 1.34543E+02 1.80662E+01 0.00000E+00
 -1       930 1.34412E+02 2.64875E+01 0.00000E+00
 -1       931 1.55700E+01 3.26341E+01 0.00000E+00
 -1       932 5.20350E+01 1.67836E+01 0.00000E+00
 -1       933 1.85700E+01 3.26341E+01 0.00000E+00
 -1       934 4.53461E+01 2.93044E+01 0.00000E+00
 -1       935 4.36500E+01 3.18140E+01 0.00000E+00
 -1       936 4.96500E+01 3.18140E+01 0.00000E+00
 -1       937 5.26500E+01 3.18140E+01 0.00000E+00
 -1       938 5.56500E+01 3.18140E+01 0.00000E+00
 -1       939 5.86500E+01 3.18140E+01 0.00000E+00
 -1       940 6.16500E+01 3.18140E+01 0.00000E+00
 -1       941 6.46500E+01 3.18140E+01 0.00000E+00
 -1       942 6.76500E+01 3.18140E+01 0.00000E+00
 -1       943 7.06500E+01 3.18140E+01 0.00000E+00
 -1       944 7.36500E+01 3.18140E+01 0.00000E+00
 -1       945 7.66500E+01 3.18140E+01 0.00000E+00
 -1       946 7.96500E+01 3.18140E+01 0.00000E+00
 -1       947 8.26500E+01 3.18140E+01 0.00000E+00
 -1       948 8.56500E+01 3.18140E+01 0.00000E+00
 -1       949 8.86500E+01 3.18140E+01 0.00000E+00
 -1       950 9.16500E+01 3.18140E+01 0.00000E+00
 -1       951 9.46500E+01 3.18140E+01 0.00000E+00
 -1       952 9.76500E+01 3.18140E+01 0.00000E+00
 -1       953 1.00650E+02 3.18140E+01 0.00000E+00
 -1       954 1.03650E+02 3.18140E+01 0.00000E+00
 -1       955 1.06650E+02 3.18140E+01 0.00000E+00
 -1       956 1.09650E+02 3.18140E+01 0.00000E+00
 -1       957 1.12650E+02 3.18140E+01 0.00000E+00
 -1       958 1.15650E+02 3.18140E+01 0.00000E+00
 -1       959 1.18650E+02 3.18140E+01 0.00000E+00
 -1       960 1.21650E+02 3.18140E+01 0.00000E+00
 -1       961 1.24650E+02 3.18140E+01 0.00000E+00
 -1       962 1.27650E+02 3.18140E+01 0.00000E+00
 -1       963 1.30650E+02 3.18140E+01 0.00000E+00
 -1       964 5.80350E+01 1.67836E+01 0.00000E+00
 -1       965 4.72298E+01 2.26637E+01 0.00000E+00
 -1       966 6.70350E+01 1.67836E+01 0.00000E+00
 -1       967 6.40350E+01 1.67836E+01 0.00000E+00
 -1       968 7.30350E+01 1.67836E+01 0.00000E+00
 -1       969 7.60350E+01 1.67836E+01 0.00000E+00
 -1       970 7.90350E+01 1.67836E+01 0.00000E+00
 -1       971 8.20350E+01 1.67836E+01 0.00000E+00
 -1       972 8.50350E+01 1.67836E+01 0.00000E+00
 -1       973 8.80350E+01 1.67836E+01 0.00000E+00
 -1       974 9.10350E+01 1.67836E+01 0.00000E+00
 -1       975 9.40350E+01 1.67836E+01 0.00000E+00
 -1       976 9.70350E+01 1.67836E+01 0.00000E+00
 -1       977 1.00035E+02 1.67836E+01 0.00000E+00
 -1       978 1.03035E+02 1.67836E+01 0.00000E+00
 -1       979 1.06035E+02 1.67836E+01 0.00000E+00
 -1       980 1.09035E+02 1.67836E+01 0.00000E+00
 -1       981 1.12035E+02 1.67836E+01 0.00000E+00
 -1       982 1.15035E+02 1.67836E+01 0.00000E+00
 -1       983 1.18035E+02 1.67836E+01 0.00000E+00
 -1       984 1.21035E+02 1.67836E+01 0.00000E+00
 -1       985 1.24035E+02 1.67836E+01 0.00000E+00
 -1       986 1.27035E+02 1.67836E+01 0.00000E+00
 -1       987 1.30035E+02 1.67836E+01 0.00000E+00
 -1       988 4.72347E+01 1.66081E+01 0.00000E+00
 -1       989 4.66825E+01 2.53402E+01 0.00000E+00
 -1       990 4.12102E+01 3.20827E+01 0.00000E+00
 -1       991 1.31814E+02 2.20750E+01 0.00000E+00
 -1       992 6.10350E+01 1.67836E+01 0.00000E+00
 -1       993 7.00350E+01 1.67836E+01 0.00000E+00
 -1       994 5.50350E+01 1.67836E+01 0.00000E+00
 -1       995 1.31945E+02 1.95412E+01 0.00000E+00
 -1       996 1.31814E+02 2.50125E+01 0.00000E+00
 -1       997 4.67481E+01 3.18582E+01 0.00000E+00
 -1       998 4.84790E+01 2.06844E+01 0.00000E+00
 -1       999 1.33035E+02 1.67836E+01 0.00000E+00
 -1      1000 4.96348E+01 1.66959E+01 0.00000E+00
 -1      1001 5.11500E+01 2.92160E+01 0.00000E+00
 -1      1002 7.15350E+01 1.93816E+01 0.00000E+00
 -1      1003 4.82481E+01 2.92602E+01 0.00000E+00
 -1      1004 5.41500E+01 2.92160E+01 0.00000E+00
 -1      1005 5.71500E+01 2.92160E+01 0.00000E+00
 -1      1006 6.01500E+01 2.92160E+01 0.00000E+00
 -1      1007 6.31500E+01 2.92160E+01 0.00000E+00
 -1      1008 6.61500E+01 2.92160E+01 0.00000E+00
 -1      1009 6.91500E+01 2.92160E+01 0.00000E+00
 -1      1010 7.21500E+01 2.92160E+01 0.00000E+00
 -1      1011 7.51500E+01 2.92160E+01 0.00000E+00
 -1      1012 7.81500E+01 2.92160E+01 0.00000E+00
 -1      1013 8.11500E+01 2.92160E+01 0.00000E+00
 -1      1014 8.41500E+01 2.92160E+01 0.00000E+00
 -1      1015 8.71500E+01 2.92160E+01 0.00000E+00
 -1      1016 9.01500E+01 2.92160E+01 0.00000E+00
 -1      1017 9.31500E+01 2.92160E+01 0.00000E+00
 -1      1018 9.61500E+01 2.92160E+01 0.00000E+00
 -1      1019 9.91500E+01 2.92160E+01 0.00000E+00
 -1      1020 1.02150E+02 2.92160E+01 0.00000E+00
 -1      1021 1.05150E+02 2.92160E+01 0.00000E+00
 -1      1022 1.08150E+02 2.92160E+01 0.00000E+00
 -1      1023 1.11150E+02 2.92160E+01 0.00000E+00
 -1      1024 1.14150E+02 2.92160E+01 0.00000E+00
 -1      1025 1.17150E+02 2.92160E+01 0.00000E+00
 -1      1026 1.20150E+02 2.92160E+01 0.00000E+00
 -1      1027 1.23150E+02 2.92160E+01 0.00000E+00
 -1      1028 1.26150E+02 2.92160E+01 0.00000E+00
 -1      1029 1.29150E+02 2.92160E+01 0.00000E+00
 -1      1030 6.55350E+01 1.93816E+01 0.00000E+00
 -1      1031 7.75350E+01 1.93816E+01 0.00000E+00
 -1      1032 7.45350E+01 1.93816E+01 0.00000E+00
 -1      1033 8.35350E+01 1.93816E+01 0.00000E+00
 -1      1034 8.65350E+01 1.93816E+01 0.00000E+00
 -1      1035 8.95350E+01 1.93816E+01 0.00000E+00
 -1      1036 9.25350E+01 1.93816E+01 0.00000E+00
 -1      1037 9.55350E+01 1.93816E+01 0.00000E+00
 -1      1038 9.85350E+01 1.93816E+01 0.00000E+00
 -1      1039 1.01535E+02 1.93816E+01 0.00000E+00
 -1      1040 1.04535E+02 1.93816E+01 0.00000E+00
 -1      1041 1.07535E+02 1.93816E+01 0.00000E+00
 -1      1042 1.10535E+02 1.93816E+01 0.00000E+00
 -1      1043 1.13535E+02 1.93816E+01 0.00000E+00
 -1      1044 1.16535E+02 1.93816E+01 0.00000E+00
 -1      1045 1.19535E+02 1.93816E+01 0.00000E+00
 -1      1046 1.22535E+02 1.93816E+01 0.00000E+00
 -1      1047 1.25535E+02 1.93816E+01 0.00000E+00
 -1      1048 1.28535E+02 1.93816E+01 0.00000E+00
 -1      1049 4.95015E+01 2.45224E+01 0.00000E+00
 -1      1050 1.31781E+02 2.78517E+01 0.00000E+00
 -1      1051 6.85350E+01 1.93816E+01 0.00000E+00
 -1      1052 8.05350E+01 1.93816E+01 0.00000E+00
 -1      1053 1.29216E+02 2.35438E+01 0.00000E+00
 -1      1054 6.25350E+01 1.93816E+01 0.00000E+00
 -1      1055 4.90569E+01 1.86901E+01 0.00000E+00
 -1      1056 5.35350E+01 1.93816E+01 0.00000E+00
 -1      1057 5.07507E+01 2.25431E+01 0.00000E+00
 -1      1058 5.12960E+01 1.90359E+01 0.00000E+00
 -1      1059 5.95350E+01 1.93816E+01 0.00000E+00
 -1      1060 5.65350E+01 1.93816E+01 0.00000E+00
 -1      1061 1.28876E+02 2.14627E+01 0.00000E+00
 -1      1062 1.29183E+02 2.63799E+01 0.00000E+00
 -1      1063 5.56500E+01 2.66180E+01 0.00000E+00
 -1      1064 5.86500E+01 2.66180E+01 0.00000E+00
 -1      1065 6.16500E+01 2.66180E+01 0.00000E+00
 -1      1066 6.46500E+01 2.66180E+01 0.00000E+00
 -1      1067 6.76500E+01 2.66180E+01 0.00000E+00
 -1      1068 7.06500E+01 2.66180E+01 0.00000E+00
 -1      1069 7.36500E+01 2.66180E+01 0.00000E+00
 -1      1070 7.66500E+01 2.66180E+01 0.00000E+00
 -1      1071 7.96500E+01 2.66180E+01 0.00000E+00
 -1      1072 8.26500E+01 2.66180E+01 0.00000E+00
 -1      1073 8.56500E+01 2.66180E+01 0.00000E+00
 -1      1074 8.86500E+01 2.66180E+01 0.00000E+00
 -1      1075 9.16500E+01 2.66180E+01 0.00000E+00
 -1      1076 9.46500E+01 2.66180E+01 0.00000E+00
 -1      1077 9.76500E+01 2.66180E+01 0.00000E+00
 -1      1078 1.00650E+02 2.66180E+01 0.00000E+00
 -1      1079 1.03650E+02 2.66180E+01 0.00000E+00
 -1      1080 1.06650E+02 2.66180E+01 0.00000E+00
 -1      1081 1.09650E+02 2.66180E+01 0.00000E+00
 -1      1082 1.12650E+02 2.66180E+01 0.00000E+00
 -1      1083 1.15650E+02 2.66180E+01 0.00000E+00
 -1      1084 1.18650E+02 2.66180E+01 0.00000E+00
 -1      1085 1.21650E+02 2.66180E+01 0.00000E+00
 -1      1086 1.24650E+02 2.66180E+01 0.00000E+00
 -1      1087 1.26916E+02 2.64989E+01 0.00000E+00
 -1      1088 8.20350E+01 2.19796E+01 0.00000E+00
 -1      1089 9.10350E+01 2.19796E+01 0.00000E+00
 -1      1090 8.50350E+01 2.19796E+01 0.00000E+00
 -1      1091 9.40350E+01 2.19796E+01 0.00000E+00
 -1      1092 9.70350E+01 2.19796E+01 0.00000E+00
 -1      1093 1.00035E+02 2.19796E+01 0.00000E+00
 -1      1094 1.03035E+02 2.19796E+01 0.00000E+00
 -1      1095 1.06035E+02 2.19796E+01 0.00000E+00
 -1      1096 1.09035E+02 2.19796E+01 0.00000E+00
 -1      1097 1.12035E+02 2.19796E+01 0.00000E+00
 -1      1098 1.15035E+02 2.19796E+01 0.00000E+00
 -1      1099 1.18035E+02 2.19796E+01 0.00000E+00
 -1      1100 1.21035E+02 2.19796E+01 0.00000E+00
 -1      1101 1.24035E+02 2.19796E+01 0.00000E+00
 -1      1102 1.26455E+02 2.17212E+01 0.00000E+00
 -1      1103 5.27769E+01 2.60083E+01 0.00000E+00
 -1      1104 7.90350E+01 2.19796E+01 0.00000E+00
 -1      1105 8.80350E+01 2.19796E+01 0.00000E+00
 -1      1106 6.70350E+01 2.19796E+01 0.00000E+00
 -1      1107 7.60350E+01 2.19796E+01 0.00000E+00
 -1      1108 6.10350E+01 2.19796E+01 0.00000E+00
 -1      1109 1.26796E+02 2.38022E+01 0.00000E+00
 -1      1110 7.30350E+01 2.19796E+01 0.00000E+00
 -1      1111 7.00350E+01 2.19796E+01 0.00000E+00
 -1      1112 6.40350E+01 2.19796E+01 0.00000E+00
 -1      1113 5.80350E+01 2.19796E+01 0.00000E+00
 -1      1114 5.10233E+01 2.07895E+01 0.00000E+00
 -1      1115 5.50350E+01 2.19796E+01 0.00000E+00
 -1      1116 8.95350E+01 2.45776E+01 0.00000E+00
 -1      1117 9.31500E+01 2.40200E+01 0.00000E+00
 -1      1118 5.20351E+01 2.19797E+01 0.00000E+00
 -1      1119 0.00000E+00 4.85250E+01 0.00000E+00
 -1      1120 0.00000E+00 4.55750E+01 0.00000E+00
 -1      1121 0.00000E+00 4.26250E+01 0.00000E+00
 -1      1122 0.00000E+00 3.96750E+01 0.00000E+00
 -1      1123 0.00000E+00 3.67250E+01 0.00000E+00
 -1      1124 0.00000E+00 3.38000E+01 0.00000E+00
 -1      1125 0.00000E+00 3.08750E+01 0.00000E+00
 -1      1126 0.00000E+00 2.79250E+01 0.00000E+00
 -1      1127 0.00000E+00 2.49750E+01 0.00000E+00
 -1      1128 0.00000E+00 2.20250E+01 0.00000E+00
 -1      1129 0.00000E+00 1.90750E+01 0.00000E+00
 -1      1130 0.00000E+00 1.61500E+01 0.00000E+00
 -1      1131 0.00000E+00 1.32250E+01 0.00000E+00
 -1      1132 0.00000E+00 1.02750E+01 0.00000E+00
 -1      1133 0.00000E+00 7.32500E+00 0.00000E+00
 -1      1134 0.00000E+00 4.37500E+00 0.00000E+00
 -1      1135 0.00000E+00 1.45000E+00 0.00000E+00
 -1      1136 1.57500E+00 5.00000E+01 0.00000E+00
 -1      1137 4.65000E+00 5.00000E+01 0.00000E+00
 -1      1138 7.65000E+00 5.00000E+01 0.00000E+00
 -1      1139 1.06500E+01 5.00000E+01 0.00000E+00
 -1      1140 1.36500E+01 5.00000E+01 0.00000E+00
 -1      1141 1.66500E+01 5.00000E+01 0.00000E+00
 -1      1142 1.96500E+01 5.00000E+01 0.00000E+00
 -1      1143 2.26500E+01 5.00000E+01 0.00000E+00
 -1      1144 2.56500E+01 5.00000E+01 0.00000E+00
 -1      1145 2.86500E+01 5.00000E+01 0.00000E+00
 -1      1146 3.16500E+01 5.00000E+01 0.00000E+00
 -1      1147 3.46500E+01 5.00000E+01 0.00000E+00
 -1      1148 3.76500E+01 5.00000E+01 0.00000E+00
 -1      1149 4.06500E+01 5.00000E+01 0.00000E+00
 -1      1150 4.36500E+01 5.00000E+01 0.00000E+00
 -1      1151 4.66500E+01 5.00000E+01 0.00000E+00
 -1      1152 4.96500E+01 5.00000E+01 0.00000E+00
 -1      1153 5.26500E+01 5.00000E+01 0.00000E+00
 -1      1154 5.56500E+01 5.00000E+01 0.00000E+00
 -1      1155 5.86500E+01 5.00000E+01 0.00000E+00
 -1      1156 6.16500E+01 5.00000E+01 0.00000E+00
 -1      1157 6.46500E+01 5.00000E+01 0.00000E+00
 -1      1158 6.76500E+01 5.00000E+01 0.00000E+00
 -1      1159 7.06500E+01 5.00000E+01 0.00000E+00
 -1      1160 7.36500E+01 5.00000E+01 0.00000E+00
 -1      1161 7.66500E+01 5.00000E+01 0.00000E+00
 -1      1162 7.96500E+01 5.00000E+01 0.00000E+00
 -1      1163 8.26500E+01 5.00000E+01 0.00000E+00
 -1      1164 8.56500E+01 5.00000E+01 0.00000E+00
 -1      1165 8.86500E+01 5.00000E+01 0.00000E+00
 -1      1166 9.16500E+01 5.00000E+01 0.00000E+00
 -1      1167 9.46500E+01 5.00000E+01 0.00000E+00
 -1      1168 9.76500E+01 5.00000E+01 0.00000E+00
 -1      1169 1.00650E+02 5.00000E+01 0.00000E+00
 -1      1170 1.03650E+02 5.00000E+01 0.00000E+00
 -1      1171 1.06650E+02 5.00000E+01 0.00000E+00
 -1      1172 1.09650E+02 5.00000E+01 0.00000E+00
 -1      1173 1.12650E+02 5.00000E+01 0.00000E+00
 -1      1174 1.15650E+02 5.00000E+01 0.00000E+00
 -1      1175 1.18650E+02 5.00000E+01 0.00000E+00
 -1      1176 1.21650E+02 5.00000E+01 0.00000E+00
 -1      1177 1.24650E+02 5.00000E+01 0.00000E+00
 -1      1178 1.27650E+02 5.00000E+01 0.00000E+00
 -1      1179 1.30650E+02 5.00000E+01 0.00000E+00
 -1      1180 1.33650E+02 5.00000E+01 0.00000E+00
 -1      1181 1.36650E+02 5.00000E+01 0.00000E+00
 -1      1182 1.39650E+02 5.00000E+01 0.00000E+00
 -1      1183 1.42650E+02 5.00000E+01 0.00000E+00
 -1      1184 1.45650E+02 5.00000E+01 0.00000E+00
 -1      1185 1.48575E+02 5.00000E+01 0.00000E+00
 -1      1186 1.57500E+00 0.00000E+00 0.00000E+00
 -1      1187 4.65000E+00 0.00000E+00 0.00000E+00
 -1      1188 7.65000E+00 0.00000E+00 0.00000E+00
 -1      1189 1.06500E+01 0.00000E+00 0.00000E+00
 -1      1190 1.36500E+01 0.00000E+00 0.00000E+00
 -1      1191 1.66500E+01 0.00000E+00 0.00000E+00
 -1      1192 1.96500E+01 0.00000E+00 0.00000E+00
 -1      1193 2.26500E+01 0.00000E+00 0.00000E+00
 -1      1194 2.56500E+01 0.00000E+00 0.00000E+00
 -1      1195 2.86500E+01 0.00000E+00 0.00000E+00
 -1      1196 3.16500E+01 0.00000E+00 0.00000E+00
 -1      1197 3.46500E+01 0.00000E+00 0.00000E+00
 -1      1198 3.76500E+01 0.00000E+00 0.00000E+00
 -1      1199 4.06500E+01 0.00000E+00 0.00000E+00
 -1      1200 4.36500E+01 0.00000E+00 0.00000E+00
 -1      1201 4.66500E+01 0.00000E+00 0.00000E+00
 -1      1202 4.96500E+01 0.00000E+00 0.00000E+00
 -1      1203 5.26500E+01 0.00000E+00 0.00000E+00
 -1      1204 5.56500E+01 0.00000E+00 0.00000E+00
 -1      1205 5.86500E+01 0.00000E+00 0.00000E+00
 -1      1206 6.16500E+01 0.00000E+00 0.00000E+00
 -1      1207 6.46500E+01 0.00000E+00 0.00000E+00
 -1      1208 6.76500E+01 0.00000E+00 0.00000E+00
 -1      1209 7.06500E+01 0.00000E+00 0.00000E+00
 -1      1210 7.36500E+01 0.00000E+00 0.00000E+00
 -1      1211 7.66500E+01 0.00000E+00 0.00000E+00
 -1      1212 7.96500E+01 0.00000E+00 0.00000E+00
 -1      1213 8.26500E+01 0.00000E+00 0.00000E+00
 -1      1214 8.56500E+01 0.00000E+00 0.00000E+00
 -1      1215 8.86500E+01 0.00000E+00 0.00000E+00
 -1      1216 9.16500E+01 0.00000E+00 0.00000E+00
 -1      1217 9.46500E+01 0.00000E+00 0.00000E+00
 -1      1218 9.76500E+01 0.00000E+00 0.00000E+00
 -1      1219 1.00650E+02 0.00000E+00 0.00000E+00
 -1      1220 1.03650E+02 0.00000E+00 0.00000E+00
 -1      1221 1.06650E+02 0.00000E+00 0.00000E+00
 -1      1222 1.09650E+02 0.00000E+00 0.00000E+00
 -1      1223 1.12650E+02 0.00000E+00 0.00000E+00
 -1      1224 1.15650E+02 0.00000E+00 0.00000E+00
 -1      1225 1.18650E+02 0.00000E+00 0.00000E+00
 -1      1226 1.21650E+02 0.00000E+00 0.00000E+00
 -1      1227 1.24650E+02 0.00000E+00 0.00000E+00
 -1      1228 1.27650E+02 0.00000E+00 0.00000E+00
 -1      1229 1.30650E+02 0.00000E+00 0.00000E+00
 -1      1230 1.33650E+02 0.00000E+00 0.00000E+00
 -1      1231 1.36650E+02 0.00000E+00 0.00000E+00
 -1      1232 1.39650E+02 0.00000E+00 0.00000E+00
 -1      1233 1.42650E+02 0.00000E+00 0.00000E+00
 -1      1234 1.45650E+02 0.00000E+00 0.00000E+00
 -1      1235 1.48575E+02 0.00000E+00 0.00000E+00
 -1      1236 1.50000E+02 1.47500E+00 0.00000E+00
 -1      1237 1.50000E+02 4.42500E+00 0.00000E+00
 -1      1238 1.50000E+02 7.37500E+00 0.00000E+00
 -1      1239 1.50000E+02 1.03250E+01 0.00000E+00
 -1      1240 1.50000E+02 1.32750E+01 0.00000E+00
 -1      1241 1.50000E+02 1.62000E+01 0.00000E+00
 -1      1242 1.50000E+02 1.91250E+01 0.00000E+00
 -1      1243 1.50000E+02 2.20750E+01 0.00000E+00
 -1      1244 1.50000E+02 2.50250E+01 0.00000E+00
 -1      1245 1.50000E+02 2.79750E+01 0.00000E+00
 -1      1246 1.50000E+02 3.09250E+01 0.00000E+00
 -1      1247 1.50000E+02 3.38500E+01 0.00000E+00
 -1      1248 1.50000E+02 3.67750E+01 0.00000E+00
 -1      1249 1.50000E+02 3.97250E+01 0.00000E+00
 -1      1250 1.50000E+02 4.26750E+01 0.00000E+00
 -1      1251 1.50000E+02 4.56250E+01 0.00000E+00
 -1      1252 1.50000E+02 4.85500E+01 0.00000E+00
 -1      1253 3.56136E+01 1.63508E+01 0.00000E+00
 -1      1254 3.52769E+01 1.48473E+01 0.00000E+00
 -1      1255 3.46225E+01 1.34588E+01 0.00000E+00
 -1      1256 3.37336E+01 1.23009E+01 0.00000E+00
 -1      1257 3.26366E+01 1.13614E+01 0.00000E+00
 -1      1258 3.13425E+01 1.06554E+01 0.00000E+00
 -1      1259 2.99704E+01 1.02438E+01 0.00000E+00
 -1      1260 2.84733E+01 1.01217E+01 0.00000E+00
 -1      1261 2.69728E+01 1.03247E+01 0.00000E+00
 -1      1262 2.55772E+01 1.08327E+01 0.00000E+00
 -1      1263 2.42839E+01 1.16525E+01 0.00000E+00
 -1      1264 2.32152E+01 1.27149E+01 0.00000E+00
 -1      1265 2.23990E+01 1.39806E+01 0.00000E+00
 -1      1266 2.18817E+01 1.53557E+01 0.00000E+00
 -1      1267 2.16633E+01 1.67984E+01 0.00000E+00
 -1      1268 2.17547E+01 1.82912E+01 0.00000E+00
 -1      1269 2.21491E+01 1.97002E+01 0.00000E+00
 -1      1270 2.28521E+01 2.10329E+01 0.00000E+00
 -1      1271 2.38156E+01 2.21761E+01 0.00000E+00
 -1      1272 2.50253E+01 2.31042E+01 0.00000E+00
 -1      1273 2.64403E+01 2.37594E+01 0.00000E+00
 -1      1274 2.79025E+01 2.40786E+01 0.00000E+00
 -1      1275 2.93314E+01 2.40866E+01 0.00000E+00
 -1      1276 3.06895E+01 2.38174E+01 0.00000E+00
 -1      1277 3.19980E+01 2.32699E+01 0.00000E+00
 -1      1278 3.31464E+01 2.24891E+01 0.00000E+00
 -1      1279 3.41095E+01 2.15077E+01 0.00000E+00
 -1      1280 3.48557E+01 2.03693E+01 0.00000E+00
 -1      1281 3.53647E+01 1.91174E+01 0.00000E+00
 -1      1282 3.56239E+01 1.77880E+01 0.00000E+00
 -1      1283 1.57500E+00 4.85250E+01 0.00000E+00
 -1      1284 1.29900E+00 4.48375E+01 0.00000E+00
 -1      1285 1.29900E+00 4.63125E+01 0.00000E+00
 -1      1286 1.29900E+00 4.18875E+01 0.00000E+00
 -1      1287 1.29900E+00 4.33625E+01 0.00000E+00
 -1      1288 2.59800E+00 4.41000E+01 0.00000E+00
 -1      1289 1.29900E+00 3.89375E+01 0.00000E+00
 -1      1290 1.29900E+00 4.04125E+01 0.00000E+00
 -1      1291 2.59800E+00 4.11500E+01 0.00000E+00
 -1      1292 1.29900E+00 3.59875E+01 0.00000E+00
 -1      1293 1.29900E+00 3.74625E+01 0.00000E+00
 -1      1294 2.59800E+00 3.82000E+01 0.00000E+00
 -1      1295 1.29900E+00 3.30875E+01 0.00000E+00
 -1      1296 1.29900E+00 3.45375E+01 0.00000E+00
 -1      1297 2.59800E+00 3.52750E+01 0.00000E+00
 -1      1298 1.29900E+00 3.01375E+01 0.00000E+00
 -1      1299 1.29900E+00 3.16125E+01 0.00000E+00
 -1      1300 2.59800E+00 3.23500E+01 0.00000E+00
 -1      1301 1.29900E+00 2.71875E+01 0.00000E+00
 -1      1302 1.29900E+00 2.86625E+01 0.00000E+00
 -1      1303 2.59800E+00 2.94000E+01 0.00000E+00
 -1      1304 1.29900E+00 2.42375E+01 0.00000E+00
 -1      1305 1.29900E+00 2.57125E+01 0.00000E+00
 -1      1306 2.59800E+00 2.64500E+01 0.00000E+00
 -1      1307 1.29900E+00 2.12875E+01 0.00000E+00
 -1      1308 1.29900E+00 2.27625E+01 0.00000E+00
 -1      1309 2.59800E+00 2.35000E+01 0.00000E+00
 -1      1310 1.29900E+00 1.83375E+01 0.00000E+00
 -1      1311 1.29900E+00 1.98125E+01 0.00000E+00
 -1      1312 2.59800E+00 2.05500E+01 0.00000E+00
 -1      1313 1.29900E+00 1.54375E+01 0.00000E+00
 -1      1314 1.29900E+00 1.68875E+01 0.00000E+00
 -1      1315 2.59800E+00 1.76250E+01 0.00000E+00
 -1      1316 1.29900E+00 1.24875E+01 0.00000E+00
 -1      1317 1.29900E+00 1.39625E+01 0.00000E+00
 -1      1318 2.59800E+00 1.47000E+01 0.00000E+00
 -1      1319 1.29900E+00 9.53750E+00 0.00000E+00
 -1      1320 1.29900E+00 1.10125E+01 0.00000E+00
 -1      1321 2.59800E+00 1.17500E+01 0.00000E+00
 -1      1322 1.29900E+00 6.58750E+00 0.00000E+00
 -1      1323 1.29900E+00 8.06250E+00 0.00000E+00
 -1      1324 2.59800E+00 8.80000E+00 0.00000E+00
 -1      1325 1.29900E+00 3.63750E+00 0.00000E+00
 -1      1326 1.29900E+00 5.11250E+00 0.00000E+00
 -1      1327 2.59800E+00 5.85000E+00 0.00000E+00
 -1      1328 1.43700E+00 1.09375E+00 0.00000E+00
 -1      1329 1.43700E+00 2.54375E+00 0.00000E+00
 -1      1330 2.73600E+00 3.28125E+00 0.00000E+00
 -1      1331 3.01200E+00 1.09375E+00 0.00000E+00
 -1      1332 3.90000E+00 4.87010E+01 0.00000E+00
 -1      1333 5.40000E+00 4.87010E+01 0.00000E+00
 -1      1334 6.90000E+00 4.87010E+01 0.00000E+00
 -1      1335 8.40000E+00 4.87010E+01 0.00000E+00
 -1      1336 6.15000E+00 4.74020E+01 0.00000E+00
 -1      1337 9.90000E+00 4.87010E+01 0.00000E+00
 -1      1338 1.14000E+01 4.87010E+01 0.00000E+00
 -1      1339 9.15000E+00 4.74020E+01 0.00000E+00
 -1      1340 1.29000E+01 4.87010E+01 0.00000E+00
 -1      1341 1.44000E+01 4.87010E+01 0.00000E+00
 -1      1342 1.21500E+01 4.74020E+01 0.00000E+00
 -1      1343 1.59000E+01 4.87010E+01 0.00000E+00
 -1      1344 1.74000E+01 4.87010E+01 0.00000E+00
 -1      1345 1.51500E+01 4.74020E+01 0.00000E+00
 -1      1346 1.89000E+01 4.87010E+01 0.00000E+00
 -1      1347 2.04000E+01 4.87010E+01 0.00000E+00
 -1      1348 1.81500E+01 4.74020E+01 0.00000E+00
 -1      1349 2.19000E+01 4.87010E+01 0.00000E+00
 -1      1350 2.34000E+01 4.87010E+01 0.00000E+00
 -1      1351 2.11500E+01 4.74020E+01 0.00000E+00
 -1      1352 2.49000E+01 4.87010E+01 0.00000E+00
 -1      1353 2.64000E+01 4.87010E+01 0.00000E+00
 -1      1354 2.41500E+01 4.74020E+01 0.00000E+00
 -1      1355 2.79000E+01 4.87010E+01 0.00000E+00
 -1      1356 2.94000E+01 4.87010E+01 0.00000E+00
 -1      1357 2.71500E+01 4.74020E+01 0.00000E+00
 -1      1358 3.09000E+01 4.87010E+01 0.00000E+00
 -1      1359 3.24000E+01 4.87010E+01 0.00000E+00
 -1      1360 3.01500E+01 4.74020E+01 0.00000E+00
 -1      1361 3.39000E+01 4.87010E+01 0.00000E+00
 -1      1362 3.54000E+01 4.87010E+01 0.00000E+00
 -1      1363 3.31500E+01 4.74020E+01 0.00000E+00
 -1      1364 3.69000E+01 4.87010E+01 0.00000E+00
 -1      1365 3.84000E+01 4.87010E+01 0.00000E+00
 -1      1366 3.61500E+01 4.74020E+01 0.00000E+00
 -1      1367 3.99000E+01 4.87010E+01 0.00000E+00
 -1      1368 4.14000E+01 4.87010E+01 0.00000E+00
 -1      1369 3.91500E+01 4.74020E+01 0.00000E+00
 -1      1370 4.29000E+01 4.87010E+01 0.00000E+00
 -1      1371 4.44000E+01 4.87010E+01 0.00000E+00
 -1      1372 4.21500E+01 4.74020E+01 0.00000E+00
 -1      1373 4.59000E+01 4.87010E+01 0.00000E+00
 -1      1374 4.74000E+01 4.87010E+01 0.00000E+00
 -1      1375 4.51500E+01 4.74020E+01 0.00000E+00
 -1      1376 4.89000E+01 4.87010E+01 0.00000E+00
 -1      1377 5.04000E+01 4.87010E+01 0.00000E+00
 -1      1378 4.81500E+01 4.74020E+01 0.00000E+00
 -1      1379 5.19000E+01 4.87010E+01 0.00000E+00
 -1      1380 5.34000E+01 4.87010E+01 0.00000E+00
 -1      1381 5.11500E+01 4.74020E+01 0.00000E+00
 -1      1382 5.49000E+01 4.87010E+01 0.00000E+00
 -1      1383 5.64000E+01 4.87010E+01 0.00000E+00
 -1      1384 5.41500E+01 4.74020E+01 0.00000E+00
 -1      1385 5.79000E+01 4.87010E+01 0.00000E+00
 -1      1386 5.94000E+01 4.87010E+01 0.00000E+00
 -1      1387 5.71500E+01 4.74020E+01 0.00000E+00
 -1      1388 6.09000E+01 4.87010E+01 0.00000E+00
 -1      1389 6.24000E+01 4.87010E+01 0.00000E+00
 -1      1390 6.01500E+01 4.74020E+01 0.00000E+00
 -1      1391 6.39000E+01 4.87010E+01 0.00000E+00
 -1      1392 6.54000E+01 4.87010E+01 0.00000E+00
 -1      1393 6.31500E+01 4.74020E+01 0.00000E+00
 -1      1394 6.69000E+01 4.87010E+01 0.00000E+00
 -1      1395 6.84000E+01 4.87010E+01 0.00000E+00
 -1      1396 6.61500E+01 4.74020E+01 0.00000E+00
 -1      1397 6.99000E+01 4.87010E+01 0.00000E+00
 -1      1398 7.14000E+01 4.87010E+01 0.00000E+00
 -1      1399 6.91500E+01 4.74020E+01 0.00000E+00
 -1      1400 7.29000E+01 4.87010E+01 0.00000E+00
 -1      1401 7.44000E+01 4.87010E+01 0.00000E+00
 -1      1402 7.21500E+01 4.74020E+01 0.00000E+00
 -1      1403 7.59000E+01 4.87010E+01 0.00000E+00
 -1      1404 7.74000E+01 4.87010E+01 0.00000E+00
 -1      1405 7.51500E+01 4.74020E+01 0.00000E+00
 -1      1406 7.89000E+01 4.87010E+01 0.00000E+00
 -1      1407 8.04000E+01 4.87010E+01 0.00000E+00
 -1      1408 7.81500E+01 4.74020E+01 0.00000E+00
 -1      1409 8.19000E+01 4.87010E+01 0.00000E+00
 -1      1410 8.34000E+01 4.87010E+01 0.00000E+00
 -1      1411 8.11500E+01 4.74020E+01 0.00000E+00
 -1      1412 8.49000E+01 4.87010E+01 0.00000E+00
 -1      1413 8.64000E+01 4.87010E+01 0.00000E+00
 -1      1414 8.41500E+01 4.74020E+01 0.00000E+00
 -1      1415 8.79000E+01 4.87010E+01 0.00000E+00
 -1      1416 8.94000E+01 4.87010E+01 0.00000E+00
 -1      1417 8.71500E+01 4.74020E+01 0.00000E+00
 -1      1418 9.09000E+01 4.87010E+01 0.00000E+00
 -1      1419 9.24000E+01 4.87010E+01 0.00000E+00
 -1      1420 9.01500E+01 4.74020E+01 0.00000E+00
 -1      1421 9.39000E+01 4.87010E+01 0.00000E+00
 -1      1422 9.54000E+01 4.87010E+01 0.00000E+00
 -1      1423 9.31500E+01 4.74020E+01 0.00000E+00
 -1      1424 9.69000E+01 4.87010E+01 0.00000E+00
 -1      1425 9.84000E+01 4.87010E+01 0.00000E+00
 -1      1426 9.61500E+01 4.74020E+01 0.00000E+00
 -1      1427 9.99000E+01 4.87010E+01 0.00000E+00
 -1      1428 1.01400E+02 4.87010E+01 0.00000E+00
 -1      1429 9.91500E+01 4.74020E+01 0.00000E+00
 -1      1430 1.02900E+02 4.87010E+01 0.00000E+00
 -1      1431 1.04400E+02 4.87010E+01 0.00000E+00
 -1      1432 1.02150E+02 4.74020E+01 0.00000E+00
 -1      1433 1.05900E+02 4.87010E+01 0.00000E+00
 -1      1434 1.07400E+02 4.87010E+01 0.00000E+00
 -1      1435 1.05150E+02 4.74020E+01 0.00000E+00
 -1      1436 1.08900E+02 4.87010E+01 0.00000E+00
 -1      1437 1.10400E+02 4.87010E+01 0.00000E+00
 -1      1438 1.08150E+02 4.74020E+01 0.00000E+00
 -1      1439 1.11900E+02 4.87010E+01 0.00000E+00
 -1      1440 1.13400E+02 4.87010E+01 0.00000E+00
 -1      1441 1.11150E+02 4.74020E+01 0.00000E+00
 -1      1442 1.14900E+02 4.87010E+01 0.00000E+00
 -1      1443 1.16400E+02 4.87010E+01 0.00000E+00
 -1      1444 1.14150E+02 4.74020E+01 0.00000E+00
 -1      1445 1.17900E+02 4.87010E+01 0.00000E+00
 -1      1446 1.19400E+02 4.87010E+01 0.00000E+00
 -1      1447 1.17150E+02 4.74020E+01 0.00000E+00
 -1      1448 1.20900E+02 4.87010E+01 0.00000E+00
 -1      1449 1.22400E+02 4.87010E+01 0.00000E+00
 -1      1450 1.20150E+02 4.74020E+01 0.00000E+00
 -1      1451 1.23900E+02 4.87010E+01 0.00000E+00
 -1      1452 1.25400E+02 4.87010E+01 0.00000E+00
 -1      1453 1.23150E+02 4.74020E+01 0.00000E+00
 -1      1454 1.26900E+02 4.87010E+01 0.00000E+00
 -1      1455 1.28400E+02 4.87010E+01 0.00000E+00
 -1      1456 1.26150E+02 4.74020E+01 0.00000E+00
 -1      1457 1.29900E+02 4.87010E+01 0.00000E+00
 -1      1458 1.31400E+02 4.87010E+01 0.00000E+00
 -1      1459 1.29150E+02 4.74020E+01 0.00000E+00
 -1      1460 1.32900E+02 4.87010E+01 0.00000E+00
 -1      1461 1.34400E+02 4.87010E+01 0.00000E+00
 -1      1462 1.32150E+02 4.74020E+01 0.00000E+00
 -1      1463 1.35900E+02 4.87010E+01 0.00000E+00
 -1      1464 1.37400E+02 4.87010E+01 0.00000E+00
 -1      1465 1.35150E+02 4.74020E+01 0.00000E+00
 -1      1466 1.38900E+02 4.87010E+01 0.00000E+00
 -1      1467 1.40400E+02 4.87010E+01 0.00000E+00
 -1      1468 1.38150E+02 4.74020E+01 0.00000E+00
 -1      1469 1.41900E+02 4.87010E+01 0.00000E+00
 -1      1470 1.43400E+02 4.87010E+01 0.00000E+00
 -1      1471 1.41150E+02 4.74020E+01 0.00000E+00
 -1      1472 1.44900E+02 4.87010E+01 0.00000E+00
 -1      1473 1.46400E+02 4.87010E+01 0.00000E+00
 -1      1474 1.44150E+02 4.74020E+01 0.00000E+00
 -1      1475 1.48575E+02 4.85500E+01 0.00000E+00
 -1      1476 1.47825E+02 4.72510E+01 0.00000E+00
 -1      1477 6.01200E+00 1.09375E+00 0.00000E+00
 -1      1478 4.51200E+00 1.09375E+00 0.00000E+00
 -1      1479 4.37400E+00 2.18750E+00 0.00000E+00
 -1      1480 9.01200E+00 1.09375E+00 0.00000E+00
 -1      1481 7.51200E+00 1.09375E+00 0.00000E+00
 -1      1482 7.37400E+00 2.18750E+00 0.00000E+00
 -1      1483 1.20120E+01 1.09375E+00 0.00000E+00
 -1      1484 1.05120E+01 1.09375E+00 0.00000E+00
 -1      1485 1.03740E+01 2.18750E+00 0.00000E+00
 -1      1486 1.50120E+01 1.09375E+00 0.00000E+00
 -1      1487 1.35120E+01 1.09375E+00 0.00000E+00
 -1      1488 1.33740E+01 2.18750E+00 0.00000E+00
 -1      1489 1.80120E+01 1.09375E+00 0.00000E+00
 -1      1490 1.65120E+01 1.09375E+00 0.00000E+00
 -1      1491 1.63740E+01 2.18750E+00 0.00000E+00
 -1      1492 2.10120E+01 1.09375E+00 0.00000E+00
 -1      1493 1.95120E+01 1.09375E+00 0.00000E+00
 -1      1494 1.93740E+01 2.18750E+00 0.00000E+00
 -1      1495 2.40120E+01 1.09375E+00 0.00000E+00
 -1      1496 2.25120E+01 1.09375E+00 0.00000E+00
 -1      1497 2.23740E+01 2.18750E+00 0.00000E+00
 -1      1498 2.70120E+01 1.09375E+00 0.00000E+00
 -1      1499 2.55120E+01 1.09375E+00 0.00000E+00
 -1      1500 2.53740E+01 2.18750E+00 0.00000E+00
 -1      1501 3.00120E+01 1.09375E+00 0.00000E+00
 -1      1502 2.85120E+01 1.09375E+00 0.00000E+00
 -1      1503 2.83740E+01 2.18750E+00 0.00000E+00
 -1      1504 3.30120E+01 1.09375E+00 0.00000E+00
 -1      1505 3.15120E+01 1.09375E+00 0.00000E+00
 -1      1506 3.13740E+01 2.18750E+00 0.00000E+00
 -1      1507 3.60120E+01 1.09375E+00 0.00000E+00
 -1      1508 3.45120E+01 1.09375E+00 0.00000E+00
 -1      1509 3.43740E+01 2.18750E+00 0.00000E+00
 -1      1510 3.90120E+01 1.09375E+00 0.00000E+00
 -1      1511 3.75120E+01 1.09375E+00 0.00000E+00
 -1      1512 3.73740E+01 2.18750E+00 0.00000E+00
 -1      1513 4.20120E+01 1.09375E+00 0.00000E+00
 -1      1514 4.05120E+01 1.09375E+00 0.00000E+00
 -1      1515 4.03740E+01 2.18750E+00 0.00000E+00
 -1      1516 4.50120E+01 1.09375E+00 0.00000E+00
 -1      1517 4.35120E+01 1.09375E+00 0.00000E+00
 -1      1518 4.33740E+01 2.18750E+00 0.00000E+00
 -1      1519 4.80120E+01 1.09375E+00 0.00000E+00
 -1      1520 4.65120E+01 1.09375E+00 0.00000E+00
 -1      1521 4.63740E+01 2.18750E+00 0.00000E+00
 -1      1522 5.10120E+01 1.09375E+00 0.00000E+00
 -1      1523 4.95120E+01 1.09375E+00 0.00000E+00
 -1      1524 4.93740E+01 2.18750E+00 0.00000E+00
 -1      1525 5.40120E+01 1.09375E+00 0.00000E+00
 -1      1526 5.25120E+01 1.09375E+00 0.00000E+00
 -1      1527 5.23740E+01 2.18750E+00 0.00000E+00
 -1      1528 5.70120E+01 1.09375E+00 0.00000E+00
 -1      1529 5.55120E+01 1.09375E+00 0.00000E+00
 -1      1530 5.53740E+01 2.18750E+00 0.00000E+00
 -1      1531 6.00120E+01 1.09375E+00 0.00000E+00
 -1      1532 5.85120E+01 1.09375E+00 0.00000E+00
 -1      1533 5.83740E+01 2.18750E+00 0.00000E+00
 -1      1534 6.30120E+01 1.09375E+00 0.00000E+00
 -1      1535 6.15120E+01 1.09375E+00 0.00000E+00
 -1      1536 6.13740E+01 2.18750E+00 0.00000E+00
 -1      1537 6.60120E+01 1.09375E+00 0.00000E+00
 -1      1538 6.45120E+01 1.09375E+00 0.00000E+00
 -1      1539 6.43740E+01 2.18750E+00 0.00000E+00
 -1      1540 6.90120E+01 1.09375E+00 0.00000E+00
 -1      1541 6.75120E+01 1.09375E+00 0.00000E+00
 -1      1542 6.73740E+01 2.18750E+00 0.00000E+00
 -1      1543 7.20120E+01 1.09375E+00 0.00000E+00
 -1      1544 7.05120E+01 1.09375E+00 0.00000E+00
 -1      1545 7.03740E+01 2.18750E+00 0.00000E+00
 -1      1546 7.50120E+01 1.09375E+00 0.00000E+00
 -1      1547 7.35120E+01 1.09375E+00 0.00000E+00
 -1      1548 7.33740E+01 2.18750E+00 0.00000E+00
 -1      1549 7.80120E+01 1.09375E+00 0.00000E+00
 -1      1550 7.65120E+01 1.09375E+00 0.00000E+00
 -1      1551 7.63740E+01 2.18750E+00 0.00000E+00
 -1      1552 8.10120E+01 1.09375E+00 0.00000E+00
 -1      1553 7.95120E+01 1.09375E+00 0.00000E+00
 -1      1554 7.93740E+01 2.18750E+00 0.00000E+00
 -1      1555 8.40120E+01 1.09375E+00 0.00000E+00
 -1      1556 8.25120E+01 1.09375E+00 0.00000E+00
 -1      1557 8.23740E+01 2.18750E+00 0.00000E+00
 -1      1558 8.70120E+01 1.09375E+00 0.00000E+00
 -1      1559 8.55120E+01 1.09375E+00 0.00000E+00
 -1      1560 8.53740E+01 2.18750E+00 0.00000E+00
 -1      1561 9.00120E+01 1.09375E+00 0.00000E+00
 -1      1562 8.85120E+01 1.09375E+00 0.00000E+00
 -1      1563 8.83740E+01 2.18750E+00 0.00000E+00
 -1      1564 9.30120E+01 1.09375E+00 0.00000E+00
 -1      1565 9.15120E+01 1.09375E+00 0.00000E+00
 -1      1566 9.13740E+01 2.18750E+00 0.00000E+00
 -1      1567 9.60120E+01 1.09375E+00 0.00000E+00
 -1      1568 9.45120E+01 1.09375E+00 0.00000E+00
 -1      1569 9.43740E+01 2.18750E+00 0.00000E+00
 -1      1570 9.90120E+01 1.09375E+00 0.00000E+00
 -1      1571 9.75120E+01 1.09375E+00 0.00000E+00
 -1      1572 9.73740E+01 2.18750E+00 0.00000E+00
 -1      1573 1.02012E+02 1.09375E+00 0.00000E+00
 -1      1574 1.00512E+02 1.09375E+00 0.00000E+00
 -1      1575 1.00374E+02 2.18750E+00 0.00000E+00
 -1      1576 1.05012E+02 1.09375E+00 0.00000E+00
 -1      1577 1.03512E+02 1.09375E+00 0.00000E+00
 -1      1578 1.03374E+02 2.18750E+00 0.00000E+00
 -1      1579 1.08012E+02 1.09375E+00 0.00000E+00
 -1      1580 1.06512E+02 1.09375E+00 0.00000E+00
 -1      1581 1.06374E+02 2.18750E+00 0.00000E+00
 -1      1582 1.11012E+02 1.09375E+00 0.00000E+00
 -1      1583 1.09512E+02 1.09375E+00 0.00000E+00
 -1      1584 1.09374E+02 2.18750E+00 0.00000E+00
 -1      1585 1.14012E+02 1.09375E+00 0.00000E+00
 -1      1586 1.12512E+02 1.09375E+00 0.00000E+00
 -1      1587 1.12374E+02 2.18750E+00 0.00000E+00
 -1      1588 1.17012E+02 1.09375E+00 0.00000E+00
 -1      1589 1.15512E+02 1.09375E+00 0.00000E+00
 -1      1590 1.15374E+02 2.18750E+00 0.00000E+00
 -1      1591 1.20012E+02 1.09375E+00 0.00000E+00
 -1      1592 1.18512E+02 1.09375E+00 0.00000E+00
 -1      1593 1.18374E+02 2.18750E+00 0.00000E+00
 -1      1594 1.23012E+02 1.09375E+00 0.00000E+00
 -1      1595 1.21512E+02 1.09375E+00 0.00000E+00
 -1      1596 1.21374E+02 2.18750E+00 0.00000E+00
 -1      1597 1.26012E+02 1.09375E+00 0.00000E+00
 -1      1598 1.24512E+02 1.09375E+00 0.00000E+00
 -1      1599 1.24374E+02 2.18750E+00 0.00000E+00
 -1      1600 1.29012E+02 1.09375E+00 0.00000E+00
 -1      1601 1.27512E+02 1.09375E+00 0.00000E+00
 -1      1602 1.27374E+02 2.18750E+00 0.00000E+00
 -1      1603 1.32012E+02 1.09375E+00 0.00000E+00
 -1      1604 1.30512E+02 1.09375E+00 0.00000E+00
 -1      1605 1.30374E+02 2.18750E+00 0.00000E+00
 -1      1606 1.35012E+02 1.09375E+00 0.00000E+00
 -1      1607 1.33512E+02 1.09375E+00 0.00000E+00
 -1      1608 1.33374E+02 2.18750E+00 0.00000E+00
 -1      1609 1.38012E+02 1.09375E+00 0.00000E+00
 -1      1610 1.36512E+02 1.09375E+00 0.00000E+00
 -1      1611 1.36374E+02 2.18750E+00 0.00000E+00
 -1      1612 1.41012E+02 1.09375E+00 0.00000E+00
 -1      1613 1.39512E+02 1.09375E+00 0.00000E+00
 -1      1614 1.39374E+02 2.18750E+00 0.00000E+00
 -1      1615 1.44012E+02 1.09375E+00 0.00000E+00
 -1      1616 1.42512E+02 1.09375E+00 0.00000E+00
 -1      1617 1.42374E+02 2.18750E+00 0.00000E+00
 -1      1618 1.47012E+02 1.09375E+00 0.00000E+00
 -1      1619 1.45512E+02 1.09375E+00 0.00000E+00
 -1      1620 1.45374E+02 2.18750E+00 0.00000E+00
 -1      1621 1.48575E+02 1.47500E+00 0.00000E+00
 -1      1622 1.48701E+02 5.16250E+00 0.00000E+00
 -1      1623 1.48701E+02 3.68750E+00 0.00000E+00
 -1      1624 1.48701E+02 8.11250E+00 0.00000E+00
 -1      1625 1.48701E+02 6.63750E+00 0.00000E+00
 -1      1626 1.47402E+02 5.90000E+00 0.00000E+00
 -1      1627 1.48701E+02 1.10625E+01 0.00000E+00
 -1      1628 1.48701E+02 9.58750E+00 0.00000E+00
 -1      1629 1.47402E+02 8.85000E+00 0.00000E+00
 -1      1630 1.48701E+02 1.40125E+01 0.00000E+00
 -1      1631 1.48701E+02 1.25375E+01 0.00000E+00
 -1      1632 1.47402E+02 1.18000E+01 0.00000E+00
 -1      1633 1.48701E+02 1.69125E+01 0.00000E+00
 -1      1634 1.48701E+02 1.54625E+01 0.00000E+00
 -1      1635 1.47402E+02 1.47250E+01 0.00000E+00
 -1      1636 1.48701E+02 1.98625E+01 0.00000E+00
 -1      1637 1.48701E+02 1.83875E+01 0.00000E+00
 -1      1638 1.47402E+02 1.76500E+01 0.00000E+00
 -1      1639 1.48701E+02 2.28125E+01 0.00000E+00
 -1      1640 1.48701E+02 2.13375E+01 0.00000E+00
 -1      1641 1.47402E+02 2.06000E+01 0.00000E+00
 -1      1642 1.48701E+02 2.57625E+01 0.00000E+00
 -1      1643 1.48701E+02 2.42875E+01 0.00000E+00
 -1      1644 1.47402E+02 2.35500E+01 0.00000E+00
 -1      1645 1.48701E+02 2.87125E+01 0.00000E+00
 -1      1646 1.48701E+02 2.72375E+01 0.00000E+00
 -1      1647 1.47402E+02 2.65000E+01 0.00000E+00
 -1      1648 1.48701E+02 3.16625E+01 0.00000E+00
 -1      1649 1.48701E+02 3.01875E+01 0.00000E+00
 -1      1650 1.47402E+02 2.94500E+01 0.00000E+00
 -1      1651 1.48701E+02 3.45625E+01 0.00000E+00
 -1      1652 1.48701E+02 3.31125E+01 0.00000E+00
 -1      1653 1.47402E+02 3.23750E+01 0.00000E+00
 -1      1654 1.48701E+02 3.75125E+01 0.00000E+00
 -1      1655 1.48701E+02 3.60375E+01 0.00000E+00
 -1      1656 1.47402E+02 3.53000E+01 0.00000E+00
 -1      1657 1.48701E+02 4.04625E+01 0.00000E+00
 -1      1658 1.48701E+02 3.89875E+01 0.00000E+00
 -1      1659 1.47402E+02 3.82500E+01 0.00000E+00
 -1      1660 1.48701E+02 4.34125E+01 0.00000E+00
 -1      1661 1.48701E+02 4.19375E+01 0.00000E+00
 -1      1662 1.47402E+02 4.12000E+01 0.00000E+00
 -1      1663 1.48263E+02 4.60692E+01 0.00000E+00
 -1      1664 1.48263E+02 4.45942E+01 0.00000E+00
 -1      1665 1.46964E+02 4.38568E+01 0.00000E+00
 -1      1666 1.46088E+02 4.62202E+01 0.00000E+00
 -1      1667 3.62152E+01 1.58978E+01 0.00000E+00
 -1      1668 3.62995E+01 1.66616E+01 0.00000E+00
 -1      1669 3.58034E+01 1.42584E+01 0.00000E+00
 -1      1670 3.60541E+01 1.49888E+01 0.00000E+00
 -1      1671 3.49757E+01 1.27947E+01 0.00000E+00
 -1      1672 3.53745E+01 1.34448E+01 0.00000E+00
 -1      1673 3.39082E+01 1.16548E+01 0.00000E+00
 -1      1674 3.43880E+01 1.21604E+01 0.00000E+00
 -1      1675 3.26989E+01 1.06142E+01 0.00000E+00
 -1      1676 3.33136E+01 1.10392E+01 0.00000E+00
 -1      1677 3.12250E+01 9.99108E+00 0.00000E+00
 -1      1678 3.18962E+01 1.02700E+01 0.00000E+00
 -1      1679 2.97311E+01 9.61720E+00 0.00000E+00
 -1      1680 3.04241E+01 9.74971E+00 0.00000E+00
 -1      1681 2.80561E+01 9.40403E+00 0.00000E+00
 -1      1682 2.88524E+01 9.38325E+00 0.00000E+00
 -1      1683 2.64776E+01 9.81764E+00 0.00000E+00
 -1      1684 2.71741E+01 9.64511E+00 0.00000E+00
 -1      1685 2.49291E+01 1.03822E+01 0.00000E+00
 -1      1686 2.56186E+01 1.00445E+01 0.00000E+00
 -1      1687 2.35286E+01 1.13193E+01 0.00000E+00
 -1      1688 2.41249E+01 1.08424E+01 0.00000E+00
 -1      1689 2.25409E+01 1.26474E+01 0.00000E+00
 -1      1690 2.30087E+01 1.20695E+01 0.00000E+00
 -1      1691 2.16860E+01 1.40495E+01 0.00000E+00
 -1      1692 2.20279E+01 1.33679E+01 0.00000E+00
 -1      1693 2.12407E+01 1.55539E+01 0.00000E+00
 -1      1694 2.14187E+01 1.48701E+01 0.00000E+00
 -1      1695 2.09973E+01 1.71445E+01 0.00000E+00
 -1      1696 2.10318E+01 1.63927E+01 0.00000E+00
 -1      1697 2.12583E+01 1.87524E+01 0.00000E+00
 -1      1698 2.11338E+01 1.80198E+01 0.00000E+00
 -1      1699 2.17528E+01 2.02446E+01 0.00000E+00
 -1      1700 2.14873E+01 1.95754E+01 0.00000E+00
 -1      1701 2.25368E+01 2.17201E+01 0.00000E+00
 -1      1702 2.20969E+01 2.10677E+01 0.00000E+00
 -1      1703 2.36770E+01 2.28329E+01 0.00000E+00
 -1      1704 2.31655E+01 2.23433E+01 0.00000E+00
 -1      1705 2.50412E+01 2.38650E+01 0.00000E+00
 -1      1706 2.43432E+01 2.34415E+01 0.00000E+00
 -1      1707 2.66133E+01 2.44145E+01 0.00000E+00
 -1      1708 2.59086E+01 2.41794E+01 0.00000E+00
 -1      1709 2.82073E+01 2.47647E+01 0.00000E+00
 -1      1710 2.74579E+01 2.46836E+01 0.00000E+00
 -1      1711 2.97227E+01 2.46250E+01 0.00000E+00
 -1      1712 2.90507E+01 2.46901E+01 0.00000E+00
 -1      1713 3.12066E+01 2.43000E+01 0.00000E+00
 -1      1714 3.05279E+01 2.45061E+01 0.00000E+00
 -1      1715 3.26218E+01 2.36753E+01 0.00000E+00
 -1      1716 3.19987E+01 2.40138E+01 0.00000E+00
 -1      1717 3.38016E+01 2.27430E+01 0.00000E+00
 -1      1718 3.32803E+01 2.31789E+01 0.00000E+00
 -1      1719 3.46737E+01 2.16592E+01 0.00000E+00
 -1      1720 3.42377E+01 2.22011E+01 0.00000E+00
 -1      1721 3.43928E+01 2.29162E+01 0.00000E+00
 -1      1722 3.55190E+01 2.03412E+01 0.00000E+00
 -1      1723 3.52100E+01 2.09308E+01 0.00000E+00
 -1      1724 3.60514E+01 1.89641E+01 0.00000E+00
 -1      1725 3.58557E+01 1.96214E+01 0.00000E+00
 -1      1726 3.62274E+01 1.75100E+01 0.00000E+00
 -1      1727 3.61635E+01 1.81756E+01 0.00000E+00
 -1      1728 3.39932E+01 1.08748E+01 0.00000E+00
 -1      1729 3.51756E+01 1.21247E+01 0.00000E+00
 -1      1730 1.48437E+02 2.56875E+00 0.00000E+00
 -1      1731 1.47138E+02 3.30625E+00 0.00000E+00
 -1      1732 3.67821E+01 1.52950E+01 0.00000E+00
 -1      1733 3.61921E+01 1.35725E+01 0.00000E+00
 -1      1734 3.68710E+01 1.70523E+01 0.00000E+00
 -1      1735 3.25959E+01 9.91498E+00 0.00000E+00
 -1      1736 3.09923E+01 9.32941E+00 0.00000E+00
 -1      1737 2.93127E+01 8.85409E+00 0.00000E+00
 -1      1738 2.75521E+01 8.86121E+00 0.00000E+00
 -1      1739 2.58110E+01 9.32917E+00 0.00000E+00
 -1      1740 2.41477E+01 1.00163E+01 0.00000E+00
 -1      1741 2.28235E+01 1.12268E+01 0.00000E+00
 -1      1742 2.17906E+01 1.26976E+01 0.00000E+00
 -1      1743 2.10103E+01 1.42387E+01 0.00000E+00
 -1      1744 2.05341E+01 1.58981E+01 0.00000E+00
 -1      1745 2.04618E+01 1.76123E+01 0.00000E+00
 -1      1746 2.08275E+01 1.93105E+01 0.00000E+00
 -1      1747 2.14007E+01 2.09566E+01 0.00000E+00
 -1      1748 2.23734E+01 2.24028E+01 0.00000E+00
 -1      1749 2.36682E+01 2.36346E+01 0.00000E+00
 -1      1750 2.52017E+01 2.45576E+01 0.00000E+00
 -1      1751 2.69137E+01 2.51411E+01 0.00000E+00
 -1      1752 2.86018E+01 2.53355E+01 0.00000E+00
 -1      1753 3.02504E+01 2.51421E+01 0.00000E+00
 -1      1754 3.18476E+01 2.47370E+01 0.00000E+00
 -1      1755 3.32982E+01 2.39545E+01 0.00000E+00
 -1      1756 3.62380E+01 2.01976E+01 0.00000E+00
 -1      1757 3.66868E+01 1.86892E+01 0.00000E+00
 -1      1758 2.87400E+00 4.77875E+01 0.00000E+00
 -1      1759 3.53651E+01 2.16459E+01 0.00000E+00
 -1      1760 3.89700E+00 4.04125E+01 0.00000E+00
 -1      1761 3.89700E+00 4.18875E+01 0.00000E+00
 -1      1762 3.89700E+00 4.33625E+01 0.00000E+00
 -1      1763 3.89700E+00 4.48375E+01 0.00000E+00
 -1      1764 5.19600E+00 4.26250E+01 0.00000E+00
 -1      1765 3.89700E+00 3.45500E+01 0.00000E+00
 -1      1766 3.89700E+00 3.60000E+01 0.00000E+00
 -1      1767 3.89700E+00 3.16000E+01 0.00000E+00
 -1      1768 3.89700E+00 3.30750E+01 0.00000E+00
 -1      1769 5.19600E+00 3.38000E+01 0.00000E+00
 -1      1770 3.89700E+00 2.86500E+01 0.00000E+00
 -1      1771 3.89700E+00 3.01250E+01 0.00000E+00
 -1      1772 5.19600E+00 3.08500E+01 0.00000E+00
 -1      1773 3.89700E+00 2.57000E+01 0.00000E+00
 -1      1774 3.89700E+00 2.71750E+01 0.00000E+00
 -1      1775 5.19600E+00 2.79000E+01 0.00000E+00
 -1      1776 3.89700E+00 2.27500E+01 0.00000E+00
 -1      1777 3.89700E+00 2.42250E+01 0.00000E+00
 -1      1778 5.19600E+00 2.49500E+01 0.00000E+00
 -1      1779 3.89700E+00 1.98000E+01 0.00000E+00
 -1      1780 3.89700E+00 2.12750E+01 0.00000E+00
 -1      1781 5.19600E+00 2.20000E+01 0.00000E+00
 -1      1782 3.89700E+00 1.69000E+01 0.00000E+00
 -1      1783 3.89700E+00 1.83500E+01 0.00000E+00
 -1      1784 5.19600E+00 1.90750E+01 0.00000E+00
 -1      1785 3.89700E+00 1.39500E+01 0.00000E+00
 -1      1786 3.89700E+00 1.54250E+01 0.00000E+00
 -1      1787 5.19600E+00 1.61500E+01 0.00000E+00
 -1      1788 3.89700E+00 1.10000E+01 0.00000E+00
 -1      1789 3.89700E+00 1.24750E+01 0.00000E+00
 -1      1790 5.19600E+00 1.32000E+01 0.00000E+00
 -1      1791 3.89700E+00 8.05000E+00 0.00000E+00
 -1      1792 3.89700E+00 9.52500E+00 0.00000E+00
 -1      1793 5.19600E+00 1.02500E+01 0.00000E+00
 -1      1794 3.89700E+00 5.10000E+00 0.00000E+00
 -1      1795 3.89700E+00 6.57500E+00 0.00000E+00
 -1      1796 5.19600E+00 7.30000E+00 0.00000E+00
 -1      1797 4.20450E+00 3.09687E+00 0.00000E+00
 -1      1798 4.06650E+00 4.19063E+00 0.00000E+00
 -1      1799 5.36550E+00 4.91563E+00 0.00000E+00
 -1      1800 5.70450E+00 3.09687E+00 0.00000E+00
 -1      1801 3.62400E+00 4.64885E+01 0.00000E+00
 -1      1802 8.70450E+00 3.09687E+00 0.00000E+00
 -1      1803 7.20450E+00 3.09687E+00 0.00000E+00
 -1      1804 7.03500E+00 4.00625E+00 0.00000E+00
 -1      1805 3.62564E+01 2.17404E+01 0.00000E+00
 -1      1806 3.57201E+01 2.24689E+01 0.00000E+00
 -1      1807 4.92300E+00 4.57510E+01 0.00000E+00
 -1      1808 8.40000E+00 4.61030E+01 0.00000E+00
 -1      1809 9.90000E+00 4.61030E+01 0.00000E+00
 -1      1810 1.14000E+01 4.61030E+01 0.00000E+00
 -1      1811 1.29000E+01 4.61030E+01 0.00000E+00
 -1      1812 1.06500E+01 4.48040E+01 0.00000E+00
 -1      1813 1.44000E+01 4.61030E+01 0.00000E+00
 -1      1814 1.59000E+01 4.61030E+01 0.00000E+00
 -1      1815 1.36500E+01 4.48040E+01 0.00000E+00
 -1      1816 1.74000E+01 4.61030E+01 0.00000E+00
 -1      1817 1.89000E+01 4.61030E+01 0.00000E+00
 -1      1818 1.66500E+01 4.48040E+01 0.00000E+00
 -1      1819 2.04000E+01 4.61030E+01 0.00000E+00
 -1      1820 2.19000E+01 4.61030E+01 0.00000E+00
 -1      1821 1.96500E+01 4.48040E+01 0.00000E+00
 -1      1822 2.34000E+01 4.61030E+01 0.00000E+00
 -1      1823 2.49000E+01 4.61030E+01 0.00000E+00
 -1      1824 2.26500E+01 4.48040E+01 0.00000E+00
 -1      1825 2.64000E+01 4.61030E+01 0.00000E+00
 -1      1826 2.79000E+01 4.61030E+01 0.00000E+00
 -1      1827 2.56500E+01 4.48040E+01 0.00000E+00
 -1      1828 2.94000E+01 4.61030E+01 0.00000E+00
 -1      1829 3.09000E+01 4.61030E+01 0.00000E+00
 -1      1830 2.86500E+01 4.48040E+01 0.00000E+00
 -1      1831 3.24000E+01 4.61030E+01 0.00000E+00
 -1      1832 3.39000E+01 4.61030E+01 0.00000E+00
 -1      1833 3.16500E+01 4.48040E+01 0.00000E+00
 -1      1834 3.54000E+01 4.61030E+01 0.00000E+00
 -1      1835 3.69000E+01 4.61030E+01 0.00000E+00
 -1      1836 3.46500E+01 4.48040E+01 0.00000E+00
 -1      1837 3.84000E+01 4.61030E+01 0.00000E+00
 -1      1838 3.99000E+01 4.61030E+01 0.00000E+00
 -1      1839 3.76500E+01 4.48040E+01 0.00000E+00
 -1      1840 4.14000E+01 4.61030E+01 0.00000E+00
 -1      1841 4.29000E+01 4.61030E+01 0.00000E+00
 -1      1842 4.06500E+01 4.48040E+01 0.00000E+00
 -1      1843 4.44000E+01 4.61030E+01 0.00000E+00
 -1      1844 4.59000E+01 4.61030E+01 0.00000E+00
 -1      1845 4.36500E+01 4.48040E+01 0.00000E+00
 -1      1846 4.74000E+01 4.61030E+01 0.00000E+00
 -1      1847 4.89000E+01 4.61030E+01 0.00000E+00
 -1      1848 4.66500E+01 4.48040E+01 0.00000E+00
 -1      1849 5.04000E+01 4.61030E+01 0.00000E+00
 -1      1850 5.19000E+01 4.61030E+01 0.00000E+00
 -1      1851 4.96500E+01 4.48040E+01 0.00000E+00
 -1      1852 5.34000E+01 4.61030E+01 0.00000E+00
 -1      1853 5.49000E+01 4.61030E+01 0.00000E+00
 -1      1854 5.26500E+01 4.48040E+01 0.00000E+00
 -1      1855 5.64000E+01 4.61030E+01 0.00000E+00
 -1      1856 5.79000E+01 4.61030E+01 0.00000E+00
 -1      1857 5.56500E+01 4.48040E+01 0.00000E+00
 -1      1858 5.94000E+01 4.61030E+01 0.00000E+00
 -1      1859 6.09000E+01 4.61030E+01 0.00000E+00
 -1      1860 5.86500E+01 4.48040E+01 0.00000E+00
 -1      1861 6.24000E+01 4.61030E+01 0.00000E+00
 -1      1862 6.39000E+01 4.61030E+01 0.00000E+00
 -1      1863 6.16500E+01 4.48040E+01 0.00000E+00
 -1      1864 6.54000E+01 4.61030E+01 0.00000E+00
 -1      1865 6.69000E+01 4.61030E+01 0.00000E+00
 -1      1866 6.46500E+01 4.48040E+01 0.00000E+00
 -1      1867 6.84000E+01 4.61030E+01 0.00000E+00
 -1      1868 6.99000E+01 4.61030E+01 0.00000E+00
 -1      1869 6.76500E+01 4.48040E+01 0.00000E+00
 -1      1870 7.14000E+01 4.61030E+01 0.00000E+00
 -1      1871 7.29000E+01 4.61030E+01 0.00000E+00
 -1      1872 7.06500E+01 4.48040E+01 0.00000E+00
 -1      1873 7.44000E+01 4.61030E+01 0.00000E+00
 -1      1874 7.59000E+01 4.61030E+01 0.00000E+00
 -1      1875 7.36500E+01 4.48040E+01 0.00000E+00
 -1      1876 7.74000E+01 4.61030E+01 0.00000E+00
 -1      1877 7.89000E+01 4.61030E+01 0.00000E+00
 -1      1878 7.66500E+01 4.48040E+01 0.00000E+00
 -1      1879 8.04000E+01 4.61030E+01 0.00000E+00
 -1      1880 8.19000E+01 4.61030E+01 0.00000E+00
 -1      1881 7.96500E+01 4.48040E+01 0.00000E+00
 -1      1882 8.34000E+01 4.61030E+01 0.00000E+00
 -1      1883 8.49000E+01 4.61030E+01 0.00000E+00
 -1      1884 8.26500E+01 4.48040E+01 0.00000E+00
 -1      1885 8.64000E+01 4.61030E+01 0.00000E+00
 -1      1886 8.79000E+01 4.61030E+01 0.00000E+00
 -1      1887 8.56500E+01 4.48040E+01 0.00000E+00
 -1      1888 8.94000E+01 4.61030E+01 0.00000E+00
 -1      1889 9.09000E+01 4.61030E+01 0.00000E+00
 -1      1890 8.86500E+01 4.48040E+01 0.00000E+00
 -1      1891 9.24000E+01 4.61030E+01 0.00000E+00
 -1      1892 9.39000E+01 4.61030E+01 0.00000E+00
 -1      1893 9.16500E+01 4.48040E+01 0.00000E+00
 -1      1894 9.54000E+01 4.61030E+01 0.00000E+00
 -1      1895 9.69000E+01 4.61030E+01 0.00000E+00
 -1      1896 9.46500E+01 4.48040E+01 0.00000E+00
 -1      1897 9.84000E+01 4.61030E+01 0.00000E+00
 -1      1898 9.99000E+01 4.61030E+01 0.00000E+00
 -1      1899 9.76500E+01 4.48040E+01 0.00000E+00
 -1      1900 1.01400E+02 4.61030E+01 0.00000E+00
 -1      1901 1.02900E+02 4.61030E+01 0.00000E+00
 -1      1902 1.00650E+02 4.48040E+01 0.00000E+00
 -1      1903 1.04400E+02 4.61030E+01 0.00000E+00
 -1      1904 1.05900E+02 4.61030E+01 0.00000E+00
 -1      1905 1.03650E+02 4.48040E+01 0.00000E+00
 -1      1906 1.07400E+02 4.61030E+01 0.00000E+00
 -1      1907 1.08900E+02 4.61030E+01 0.00000E+00
 -1      1908 1.06650E+02 4.48040E+01 0.00000E+00
 -1      1909 1.10400E+02 4.61030E+01 0.00000E+00
 -1      1910 1.11900E+02 4.61030E+01 0.00000E+00
 -1      1911 1.09650E+02 4.48040E+01 0.00000E+00
 -1      1912 1.13400E+02 4.61030E+01 0.00000E+00
 -1      1913 1.14900E+02 4.61030E+01 0.00000E+00
 -1      1914 1.12650E+02 4.48040E+01 0.00000E+00
 -1      1915 1.16400E+02 4.61030E+01 0.00000E+00
 -1      1916 1.17900E+02 4.61030E+01 0.00000E+00
 -1      1917 1.15650E+02 4.48040E+01 0.00000E+00
 -1      1918 1.19400E+02 4.61030E+01 0.00000E+00
 -1      1919 1.20900E+02 4.61030E+01 0.00000E+00
 -1      1920 1.18650E+02 4.48040E+01 0.00000E+00
 -1      1921 1.22400E+02 4.61030E+01 0.00000E+00
 -1      1922 1.23900E+02 4.61030E+01 0.00000E+00
 -1      1923 1.21650E+02 4.48040E+01 0.00000E+00
 -1      1924 1.25400E+02 4.61030E+01 0.00000E+00
 -1      1925 1.26900E+02 4.61030E+01 0.00000E+00
 -1      1926 1.24650E+02 4.48040E+01 0.00000E+00
 -1      1927 1.28400E+02 4.61030E+01 0.00000E+00
 -1      1928 1.29900E+02 4.61030E+01 0.00000E+00
 -1      1929 1.27650E+02 4.48040E+01 0.00000E+00
 -1      1930 1.31400E+02 4.61030E+01 0.00000E+00
 -1      1931 1.32900E+02 4.61030E+01 0.00000E+00
 -1      1932 1.30650E+02 4.48040E+01 0.00000E+00
 -1      1933 1.34400E+02 4.61030E+01 0.00000E+00
 -1      1934 1.35900E+02 4.61030E+01 0.00000E+00
 -1      1935 1.33650E+02 4.48040E+01 0.00000E+00
 -1      1936 1.37400E+02 4.61030E+01 0.00000E+00
 -1      1937 1.38900E+02 4.61030E+01 0.00000E+00
 -1      1938 1.36650E+02 4.48040E+01 0.00000E+00
 -1      1939 1.40400E+02 4.61030E+01 0.00000E+00
 -1      1940 1.41900E+02 4.61030E+01 0.00000E+00
 -1      1941 1.39650E+02 4.48040E+01 0.00000E+00
 -1      1942 1.43244E+02 4.61616E+01 0.00000E+00
 -1      1943 1.44744E+02 4.61616E+01 0.00000E+00
 -1      1944 1.45182E+02 4.49799E+01 0.00000E+00
 -1      1945 1.42494E+02 4.48626E+01 0.00000E+00
 -1      1946 1.17045E+01 3.09687E+00 0.00000E+00
 -1      1947 1.02045E+01 3.09687E+00 0.00000E+00
 -1      1948 1.00350E+01 4.00625E+00 0.00000E+00
 -1      1949 1.47045E+01 3.09687E+00 0.00000E+00
 -1      1950 1.32045E+01 3.09687E+00 0.00000E+00
 -1      1951 1.30350E+01 4.00625E+00 0.00000E+00
 -1      1952 1.77045E+01 3.09687E+00 0.00000E+00
 -1      1953 1.62045E+01 3.09687E+00 0.00000E+00
 -1      1954 1.60350E+01 4.00625E+00 0.00000E+00
 -1      1955 2.07045E+01 3.09687E+00 0.00000E+00
 -1      1956 1.92045E+01 3.09687E+00 0.00000E+00
 -1      1957 1.90350E+01 4.00625E+00 0.00000E+00
 -1      1958 2.37045E+01 3.09687E+00 0.00000E+00
 -1      1959 2.22045E+01 3.09687E+00 0.00000E+00
 -1      1960 2.20350E+01 4.00625E+00 0.00000E+00
 -1      1961 2.67045E+01 3.09687E+00 0.00000E+00
 -1      1962 2.52045E+01 3.09687E+00 0.00000E+00
 -1      1963 2.50350E+01 4.00625E+00 0.00000E+00
 -1      1964 2.97045E+01 3.09687E+00 0.00000E+00
 -1      1965 2.82045E+01 3.09687E+00 0.00000E+00
 -1      1966 2.80350E+01 4.00625E+00 0.00000E+00
 -1      1967 3.27045E+01 3.09687E+00 0.00000E+00
 -1      1968 3.12045E+01 3.09687E+00 0.00000E+00
 -1      1969 3.10350E+01 4.00625E+00 0.00000E+00
 -1      1970 3.57045E+01 3.09687E+00 0.00000E+00
 -1      1971 3.42045E+01 3.09687E+00 0.00000E+00
 -1      1972 3.40350E+01 4.00625E+00 0.00000E+00
 -1      1973 3.87045E+01 3.09687E+00 0.00000E+00
 -1      1974 3.72045E+01 3.09687E+00 0.00000E+00
 -1      1975 3.70350E+01 4.00625E+00 0.00000E+00
 -1      1976 4.17045E+01 3.09687E+00 0.00000E+00
 -1      1977 4.02045E+01 3.09687E+00 0.00000E+00
 -1      1978 4.00350E+01 4.00625E+00 0.00000E+00
 -1      1979 4.47045E+01 3.09687E+00 0.00000E+00
 -1      1980 4.32045E+01 3.09687E+00 0.00000E+00
 -1      1981 4.30350E+01 4.00625E+00 0.00000E+00
 -1      1982 4.77045E+01 3.09687E+00 0.00000E+00
 -1      1983 4.62045E+01 3.09687E+00 0.00000E+00
 -1      1984 4.60350E+01 4.00625E+00 0.00000E+00
 -1      1985 5.07045E+01 3.09687E+00 0.00000E+00
 -1      1986 4.92045E+01 3.09687E+00 0.00000E+00
 -1      1987 4.90350E+01 4.00625E+00 0.00000E+00
 -1      1988 5.37045E+01 3.09687E+00 0.00000E+00
 -1      1989 5.22045E+01 3.09687E+00 0.00000E+00
 -1      1990 5.20350E+01 4.00625E+00 0.00000E+00
 -1      1991 5.67045E+01 3.09687E+00 0.00000E+00
 -1      1992 5.52045E+01 3.09687E+00 0.00000E+00
 -1      1993 5.50350E+01 4.00625E+00 0.00000E+00
 -1      1994 5.97045E+01 3.09687E+00 0.00000E+00
 -1      1995 5.82045E+01 3.09687E+00 0.00000E+00
 -1      1996 5.80350E+01 4.00625E+00 0.00000E+00
 -1      1997 6.27045E+01 3.09687E+00 0.00000E+00
 -1      1998 6.12045E+01 3.09687E+00 0.00000E+00
 -1      1999 6.10350E+01 4.00625E+00 0.00000E+00
 -1      2000 6.57045E+01 3.09687E+00 0.00000E+00
 -1      2001 6.42045E+01 3.09687E+00 0.00000E+00
 -1      2002 6.40350E+01 4.00625E+00 0.00000E+00
 -1      2003 6.87045E+01 3.09687E+00 0.00000E+00
 -1      2004 6.72045E+01 3.09687E+00 0.00000E+00
 -1      2005 6.70350E+01 4.00625E+00 0.00000E+00
 -1      2006 7.17045E+01 3.09687E+00 0.00000E+00
 -1      2007 7.02045E+01 3.09687E+00 0.00000E+00
 -1      2008 7.00350E+01 4.00625E+00 0.00000E+00
 -1      2009 7.47045E+01 3.09687E+00 0.00000E+00
 -1      2010 7.32045E+01 3.09687E+00 0.00000E+00
 -1      2011 7.30350E+01 4.00625E+00 0.00000E+00
 -1      2012 7.77045E+01 3.09687E+00 0.00000E+00
 -1      2013 7.62045E+01 3.09687E+00 0.00000E+00
 -1      2014 7.60350E+01 4.00625E+00 0.00000E+00
 -1      2015 8.07045E+01 3.09687E+00 0.00000E+00
 -1      2016 7.92045E+01 3.09687E+00 0.00000E+00
 -1      2017 7.90350E+01 4.00625E+00 0.00000E+00
 -1      2018 8.37045E+01 3.09687E+00 0.00000E+00
 -1      2019 8.22045E+01 3.09687E+00 0.00000E+00
 -1      2020 8.20350E+01 4.00625E+00 0.00000E+00
 -1      2021 8.67045E+01 3.09687E+00 0.00000E+00
 -1      2022 8.52045E+01 3.09687E+00 0.00000E+00
 -1      2023 8.50350E+01 4.00625E+00 0.00000E+00
 -1      2024 8.97045E+01 3.09687E+00 0.00000E+00
 -1      2025 8.82045E+01 3.09687E+00 0.00000E+00
 -1      2026 8.80350E+01 4.00625E+00 0.00000E+00
 -1      2027 9.27045E+01 3.09687E+00 0.00000E+00
 -1      2028 9.12045E+01 3.09687E+00 0.00000E+00
 -1      2029 9.10350E+01 4.00625E+00 0.00000E+00
 -1      2030 9.57045E+01 3.09687E+00 0.00000E+00
 -1      2031 9.42045E+01 3.09687E+00 0.00000E+00
 -1      2032 9.40350E+01 4.00625E+00 0.00000E+00
 -1      2033 9.87045E+01 3.09687E+00 0.00000E+00
 -1      2034 9.72045E+01 3.09687E+00 0.00000E+00
 -1      2035 9.70350E+01 4.00625E+00 0.00000E+00
 -1      2036 1.01704E+02 3.09687E+00 0.00000E+00
 -1      2037 1.00204E+02 3.09687E+00 0.00000E+00
 -1      2038 1.00035E+02 4.00625E+00 0.00000E+00
 -1      2039 1.04704E+02 3.09687E+00 0.00000E+00
 -1      2040 1.03204E+02 3.09687E+00 0.00000E+00
 -1      2041 1.03035E+02 4.00625E+00 0.00000E+00
 -1      2042 1.07704E+02 3.09687E+00 0.00000E+00
 -1      2043 1.06204E+02 3.09687E+00 0.00000E+00
 -1      2044 1.06035E+02 4.00625E+00 0.00000E+00
 -1      2045 1.10704E+02 3.09687E+00 0.00000E+00
 -1      2046 1.09204E+02 3.09687E+00 0.00000E+00
 -1      2047 1.09035E+02 4.00625E+00 0.00000E+00
 -1      2048 1.13704E+02 3.09687E+00 0.00000E+00
 -1      2049 1.12204E+02 3.09687E+00 0.00000E+00
 -1      2050 1.12035E+02 4.00625E+00 0.00000E+00
 -1      2051 1.16704E+02 3.09687E+00 0.00000E+00
 -1      2052 1.15204E+02 3.09687E+00 0.00000E+00
 -1      2053 1.15035E+02 4.00625E+00 0.00000E+00
 -1      2054 1.19704E+02 3.09687E+00 0.00000E+00
 -1      2055 1.18204E+02 3.09687E+00 0.00000E+00
 -1      2056 1.18035E+02 4.00625E+00 0.00000E+00
 -1      2057 1.22704E+02 3.09687E+00 0.00000E+00
 -1      2058 1.21204E+02 3.09687E+00 0.00000E+00
 -1      2059 1.21035E+02 4.00625E+00 0.00000E+00
 -1      2060 1.25704E+02 3.09687E+00 0.00000E+00
 -1      2061 1.24204E+02 3.09687E+00 0.00000E+00
 -1      2062 1.24035E+02 4.00625E+00 0.00000E+00
 -1      2063 1.28704E+02 3.09687E+00 0.00000E+00
 -1      2064 1.27204E+02 3.09687E+00 0.00000E+00
 -1      2065 1.27035E+02 4.00625E+00 0.00000E+00
 -1      2066 1.31704E+02 3.09687E+00 0.00000E+00
 -1      2067 1.30204E+02 3.09687E+00 0.00000E+00
 -1      2068 1.30035E+02 4.00625E+00 0.00000E+00
 -1      2069 1.34704E+02 3.09687E+00 0.00000E+00
 -1      2070 1.33204E+02 3.09687E+00 0.00000E+00
 -1      2071 1.33035E+02 4.00625E+00 0.00000E+00
 -1      2072 1.37704E+02 3.09687E+00 0.00000E+00
 -1      2073 1.36204E+02 3.09687E+00 0.00000E+00
 -1      2074 1.36035E+02 4.00625E+00 0.00000E+00
 -1      2075 1.40704E+02 3.09687E+00 0.00000E+00
 -1      2076 1.39204E+02 3.09687E+00 0.00000E+00
 -1      2077 1.39035E+02 4.00625E+00 0.00000E+00
 -1      2078 1.43704E+02 3.09687E+00 0.00000E+00
 -1      2079 1.42204E+02 3.09687E+00 0.00000E+00
 -1      2080 1.42035E+02 4.00625E+00 0.00000E+00
 -1      2081 1.46171E+02 3.20156E+00 0.00000E+00
 -1      2082 1.44671E+02 3.20156E+00 0.00000E+00
 -1      2083 1.44502E+02 4.11094E+00 0.00000E+00
 -1      2084 1.46435E+02 4.32031E+00 0.00000E+00
 -1      2085 1.46103E+02 1.25375E+01 0.00000E+00
 -1      2086 1.46103E+02 1.10625E+01 0.00000E+00
 -1      2087 1.46103E+02 9.58750E+00 0.00000E+00
 -1      2088 1.46103E+02 8.11250E+00 0.00000E+00
 -1      2089 1.44804E+02 1.03250E+01 0.00000E+00
 -1      2090 1.46269E+02 6.95391E+00 0.00000E+00
 -1      2091 1.46269E+02 5.47891E+00 0.00000E+00
 -1      2092 1.45302E+02 5.37422E+00 0.00000E+00
 -1      2093 1.44970E+02 7.69141E+00 0.00000E+00
 -1      2094 1.46103E+02 1.54375E+01 0.00000E+00
 -1      2095 1.46103E+02 1.39875E+01 0.00000E+00
 -1      2096 1.44804E+02 1.32500E+01 0.00000E+00
 -1      2097 1.46103E+02 1.83875E+01 0.00000E+00
 -1      2098 1.46103E+02 1.69125E+01 0.00000E+00
 -1      2099 1.44804E+02 1.61750E+01 0.00000E+00
 -1      2100 1.46103E+02 2.13375E+01 0.00000E+00
 -1      2101 1.46103E+02 1.98625E+01 0.00000E+00
 -1      2102 1.44804E+02 1.91250E+01 0.00000E+00
 -1      2103 1.46103E+02 2.42875E+01 0.00000E+00
 -1      2104 1.46103E+02 2.28125E+01 0.00000E+00
 -1      2105 1.44804E+02 2.20750E+01 0.00000E+00
 -1      2106 1.46103E+02 2.72375E+01 0.00000E+00
 -1      2107 1.46103E+02 2.57625E+01 0.00000E+00
 -1      2108 1.44804E+02 2.50250E+01 0.00000E+00
 -1      2109 1.46103E+02 3.01875E+01 0.00000E+00
 -1      2110 1.46103E+02 2.87125E+01 0.00000E+00
 -1      2111 1.44804E+02 2.79750E+01 0.00000E+00
 -1      2112 1.46103E+02 3.30875E+01 0.00000E+00
 -1      2113 1.46103E+02 3.16375E+01 0.00000E+00
 -1      2114 1.44804E+02 3.09000E+01 0.00000E+00
 -1      2115 1.46103E+02 3.60375E+01 0.00000E+00
 -1      2116 1.46103E+02 3.45625E+01 0.00000E+00
 -1      2117 1.44804E+02 3.38250E+01 0.00000E+00
 -1      2118 1.46103E+02 3.89875E+01 0.00000E+00
 -1      2119 1.46103E+02 3.75125E+01 0.00000E+00
 -1      2120 1.44804E+02 3.67750E+01 0.00000E+00
 -1      2121 1.46103E+02 4.19375E+01 0.00000E+00
 -1      2122 1.46103E+02 4.04625E+01 0.00000E+00
 -1      2123 1.44804E+02 3.97250E+01 0.00000E+00
 -1      2124 3.65510E+01 1.28635E+01 0.00000E+00
 -1      2125 3.69799E+01 1.36770E+01 0.00000E+00
 -1      2126 3.76781E+01 1.66937E+01 0.00000E+00
 -1      2127 3.76059E+01 1.75421E+01 0.00000E+00
 -1      2128 3.73809E+01 1.47201E+01 0.00000E+00
 -1      2129 3.75420E+01 1.56291E+01 0.00000E+00
 -1      2130 3.54493E+01 1.12816E+01 0.00000E+00
 -1      2131 3.60370E+01 1.19159E+01 0.00000E+00
 -1      2132 3.52840E+01 2.30108E+01 0.00000E+00
 -1      2133 3.48480E+01 2.35526E+01 0.00000E+00
 -1      2134 3.61753E+01 2.31053E+01 0.00000E+00
 -1      2135 3.74938E+01 1.83306E+01 0.00000E+00
 -1      2136 3.73817E+01 1.91191E+01 0.00000E+00
 -1      2137 3.83009E+01 1.79720E+01 0.00000E+00
 -1      2138 3.42601E+01 1.00504E+01 0.00000E+00
 -1      2139 3.48547E+01 1.06660E+01 0.00000E+00
 -1      2140 3.57161E+01 1.04573E+01 0.00000E+00
 -1      2141 3.89700E+00 3.74688E+01 0.00000E+00
 -1      2142 3.89700E+00 3.89437E+01 0.00000E+00
 -1      2143 5.19600E+00 3.96813E+01 0.00000E+00
 -1      2144 5.19600E+00 3.67438E+01 0.00000E+00
 -1      2145 3.08393E+01 8.38765E+00 0.00000E+00
 -1      2146 3.16403E+01 8.62902E+00 0.00000E+00
 -1      2147 2.90820E+01 7.91974E+00 0.00000E+00
 -1      2148 2.99607E+01 8.15369E+00 0.00000E+00
 -1      2149 3.06086E+01 7.45330E+00 0.00000E+00
 -1      2150 2.69181E+01 8.27577E+00 0.00000E+00
 -1      2151 2.78001E+01 8.03469E+00 0.00000E+00
 -1      2152 2.52000E+01 8.72952E+00 0.00000E+00
 -1      2153 2.60590E+01 8.50265E+00 0.00000E+00
 -1      2154 2.63071E+01 7.67613E+00 0.00000E+00
 -1      2155 2.34029E+01 9.64756E+00 0.00000E+00
 -1      2156 2.42071E+01 9.18731E+00 0.00000E+00
 -1      2157 2.19965E+01 1.12089E+01 0.00000E+00
 -1      2158 2.25164E+01 1.04586E+01 0.00000E+00
 -1      2159 2.09705E+01 1.26500E+01 0.00000E+00
 -1      2160 2.14835E+01 1.19294E+01 0.00000E+00
 -1      2161 2.11763E+01 1.11613E+01 0.00000E+00
 -1      2162 2.01808E+01 1.44222E+01 0.00000E+00
 -1      2163 2.04481E+01 1.36017E+01 0.00000E+00
 -1      2164 1.97630E+01 1.61000E+01 0.00000E+00
 -1      2165 1.99719E+01 1.52611E+01 0.00000E+00
 -1      2166 1.94097E+01 1.46241E+01 0.00000E+00
 -1      2167 1.98484E+01 1.81563E+01 0.00000E+00
 -1      2168 1.97118E+01 1.72810E+01 0.00000E+00
 -1      2169 2.01966E+01 1.99295E+01 0.00000E+00
 -1      2170 1.99675E+01 1.91066E+01 0.00000E+00
 -1      2171 2.09362E+01 2.16343E+01 0.00000E+00
 -1      2172 2.05920E+01 2.08112E+01 0.00000E+00
 -1      2173 2.21725E+01 2.32342E+01 0.00000E+00
 -1      2174 2.15439E+01 2.26110E+01 0.00000E+00
 -1      2175 2.35048E+01 2.44514E+01 0.00000E+00
 -1      2176 2.28386E+01 2.38428E+01 0.00000E+00
 -1      2177 2.20091E+01 2.40510E+01 0.00000E+00
 -1      2178 2.53717E+01 2.54422E+01 0.00000E+00
 -1      2179 2.45043E+01 2.51278E+01 0.00000E+00
 -1      2180 2.70610E+01 2.59804E+01 0.00000E+00
 -1      2181 2.62163E+01 2.57113E+01 0.00000E+00
 -1      2182 2.55189E+01 2.62816E+01 0.00000E+00
 -1      2183 2.90954E+01 2.61107E+01 0.00000E+00
 -1      2184 2.82519E+01 2.61853E+01 0.00000E+00
 -1      2185 3.07057E+01 2.58730E+01 0.00000E+00
 -1      2186 2.99005E+01 2.59919E+01 0.00000E+00
 -1      2187 2.95507E+01 2.68417E+01 0.00000E+00
 -1      2188 3.25209E+01 2.53610E+01 0.00000E+00
 -1      2189 3.17288E+01 2.56472E+01 0.00000E+00
 -1      2190 3.40932E+01 2.43242E+01 0.00000E+00
 -1      2191 3.34347E+01 2.48205E+01 0.00000E+00
 -1      2192 3.70693E+01 2.01477E+01 0.00000E+00
 -1      2193 3.67327E+01 2.08675E+01 0.00000E+00
 -1      2194 3.24429E+01 8.97321E+00 0.00000E+00
 -1      2195 3.32456E+01 9.31740E+00 0.00000E+00
 -1      2196 3.22899E+01 8.03144E+00 0.00000E+00
 -1      2197 3.78764E+01 1.97891E+01 0.00000E+00
 -1      2198 3.70877E+01 2.16905E+01 0.00000E+00
 -1      2199 6.42300E+00 4.57510E+01 0.00000E+00
 -1      2200 7.17300E+00 4.44520E+01 0.00000E+00
 -1      2201 3.77398E+01 1.40111E+01 0.00000E+00
 -1      2202 3.82769E+01 1.61188E+01 0.00000E+00
 -1      2203 1.45665E+02 4.31193E+01 0.00000E+00
 -1      2204 3.68247E+01 1.20205E+01 0.00000E+00
 -1      2205 3.49845E+01 2.44187E+01 0.00000E+00
 -1      2206 3.13789E+01 2.64970E+01 0.00000E+00
 -1      2207 2.75546E+01 2.67556E+01 0.00000E+00
 -1      2208 2.36748E+01 2.53360E+01 0.00000E+00
 -1      2209 2.07352E+01 2.24656E+01 0.00000E+00
 -1      2210 1.97321E+01 2.06072E+01 0.00000E+00
 -1      2211 1.91496E+01 1.66440E+01 0.00000E+00
 -1      2212 1.85874E+01 1.60070E+01 0.00000E+00
 -1      2213 1.85361E+01 1.71880E+01 0.00000E+00
 -1      2214 2.01410E+01 1.28336E+01 0.00000E+00
 -1      2215 2.44552E+01 8.36079E+00 0.00000E+00
 -1      2216 3.41070E+01 9.10866E+00 0.00000E+00
 -1      2217 2.84480E+01 7.33430E+00 0.00000E+00
 -1      2218 2.25758E+01 9.62966E+00 0.00000E+00
 -1      2219 2.26352E+01 8.80068E+00 0.00000E+00
 -1      2220 2.17487E+01 9.61176E+00 0.00000E+00
 -1      2221 1.92175E+01 1.87753E+01 0.00000E+00
 -1      2222 3.33159E+01 2.57308E+01 0.00000E+00
 -1      2223 1.07850E+01 5.30525E+00 0.00000E+00
 -1      2224 9.28500E+00 5.30525E+00 0.00000E+00
 -1      2225 6.49500E+00 3.01125E+01 0.00000E+00
 -1      2226 6.49500E+00 3.15875E+01 0.00000E+00
 -1      2227 6.49500E+00 3.30625E+01 0.00000E+00
 -1      2228 6.49500E+00 3.45375E+01 0.00000E+00
 -1      2229 7.79400E+00 3.23250E+01 0.00000E+00
 -1      2230 6.49500E+00 2.42125E+01 0.00000E+00
 -1      2231 6.49500E+00 2.56875E+01 0.00000E+00
 -1      2232 6.49500E+00 2.12625E+01 0.00000E+00
 -1      2233 6.49500E+00 2.27375E+01 0.00000E+00
 -1      2234 7.79400E+00 2.34750E+01 0.00000E+00
 -1      2235 6.49500E+00 1.83625E+01 0.00000E+00
 -1      2236 6.49500E+00 1.98125E+01 0.00000E+00
 -1      2237 7.79400E+00 2.05500E+01 0.00000E+00
 -1      2238 6.49500E+00 1.54125E+01 0.00000E+00
 -1      2239 6.49500E+00 1.68875E+01 0.00000E+00
 -1      2240 7.79400E+00 1.76250E+01 0.00000E+00
 -1      2241 6.49500E+00 1.24625E+01 0.00000E+00
 -1      2242 6.49500E+00 1.39375E+01 0.00000E+00
 -1      2243 7.79400E+00 1.46750E+01 0.00000E+00
 -1      2244 6.49500E+00 9.51250E+00 0.00000E+00
 -1      2245 6.49500E+00 1.09875E+01 0.00000E+00
 -1      2246 7.79400E+00 1.17250E+01 0.00000E+00
 -1      2247 9.90000E+00 4.35050E+01 0.00000E+00
 -1      2248 1.14000E+01 4.35050E+01 0.00000E+00
 -1      2249 1.37850E+01 5.30525E+00 0.00000E+00
 -1      2250 1.22850E+01 5.30525E+00 0.00000E+00
 -1      2251 1.15350E+01 6.60425E+00 0.00000E+00
 -1      2252 6.55950E+00 4.28890E+01 0.00000E+00
 -1      2253 8.53650E+00 4.32410E+01 0.00000E+00
 -1      2254 9.28650E+00 4.19420E+01 0.00000E+00
 -1      2255 6.55950E+00 4.14140E+01 0.00000E+00
 -1      2256 1.29000E+01 4.35050E+01 0.00000E+00
 -1      2257 1.44000E+01 4.35050E+01 0.00000E+00
 -1      2258 1.21500E+01 4.22060E+01 0.00000E+00
 -1      2259 1.59000E+01 4.35050E+01 0.00000E+00
 -1      2260 1.74000E+01 4.35050E+01 0.00000E+00
 -1      2261 1.51500E+01 4.22060E+01 0.00000E+00
 -1      2262 1.89000E+01 4.35050E+01 0.00000E+00
 -1      2263 2.04000E+01 4.35050E+01 0.00000E+00
 -1      2264 1.81500E+01 4.22060E+01 0.00000E+00
 -1      2265 2.19000E+01 4.35050E+01 0.00000E+00
 -1      2266 2.34000E+01 4.35050E+01 0.00000E+00
 -1      2267 2.11500E+01 4.22060E+01 0.00000E+00
 -1      2268 2.49000E+01 4.35050E+01 0.00000E+00
 -1      2269 2.64000E+01 4.35050E+01 0.00000E+00
 -1      2270 2.41500E+01 4.22060E+01 0.00000E+00
 -1      2271 2.79000E+01 4.35050E+01 0.00000E+00
 -1      2272 2.94000E+01 4.35050E+01 0.00000E+00
 -1      2273 2.71500E+01 4.22060E+01 0.00000E+00
 -1      2274 3.09000E+01 4.35050E+01 0.00000E+00
 -1      2275 3.24000E+01 4.35050E+01 0.00000E+00
 -1      2276 3.01500E+01 4.22060E+01 0.00000E+00
 -1      2277 3.39000E+01 4.35050E+01 0.00000E+00
 -1      2278 3.54000E+01 4.35050E+01 0.00000E+00
 -1      2279 3.31500E+01 4.22060E+01 0.00000E+00
 -1      2280 3.69000E+01 4.35050E+01 0.00000E+00
 -1      2281 3.84000E+01 4.35050E+01 0.00000E+00
 -1      2282 3.61500E+01 4.22060E+01 0.00000E+00
 -1      2283 3.99000E+01 4.35050E+01 0.00000E+00
 -1      2284 4.14000E+01 4.35050E+01 0.00000E+00
 -1      2285 3.91500E+01 4.22060E+01 0.00000E+00
 -1      2286 4.29000E+01 4.35050E+01 0.00000E+00
 -1      2287 4.44000E+01 4.35050E+01 0.00000E+00
 -1      2288 4.21500E+01 4.22060E+01 0.00000E+00
 -1      2289 4.59000E+01 4.35050E+01 0.00000E+00
 -1      2290 4.74000E+01 4.35050E+01 0.00000E+00
 -1      2291 4.51500E+01 4.22060E+01 0.00000E+00
 -1      2292 4.89000E+01 4.35050E+01 0.00000E+00
 -1      2293 5.04000E+01 4.35050E+01 0.00000E+00
 -1      2294 4.81500E+01 4.22060E+01 0.00000E+00
 -1      2295 5.19000E+01 4.35050E+01 0.00000E+00
 -1      2296 5.34000E+01 4.35050E+01 0.00000E+00
 -1      2297 5.11500E+01 4.22060E+01 0.00000E+00
 -1      2298 5.49000E+01 4.35050E+01 0.00000E+00
 -1      2299 5.64000E+01 4.35050E+01 0.00000E+00
 -1      2300 5.41500E+01 4.22060E+01 0.00000E+00
 -1      2301 5.79000E+01 4.35050E+01 0.00000E+00
 -1      2302 5.94000E+01 4.35050E+01 0.00000E+00
 -1      2303 5.71500E+01 4.22060E+01 0.00000E+00
 -1      2304 6.09000E+01 4.35050E+01 0.00000E+00
 -1      2305 6.24000E+01 4.35050E+01 0.00000E+00
 -1      2306 6.01500E+01 4.22060E+01 0.00000E+00
 -1      2307 6.39000E+01 4.35050E+01 0.00000E+00
 -1      2308 6.54000E+01 4.35050E+01 0.00000E+00
 -1      2309 6.31500E+01 4.22060E+01 0.00000E+00
 -1      2310 6.69000E+01 4.35050E+01 0.00000E+00
 -1      2311 6.84000E+01 4.35050E+01 0.00000E+00
 -1      2312 6.61500E+01 4.22060E+01 0.00000E+00
 -1      2313 6.99000E+01 4.35050E+01 0.00000E+00
 -1      2314 7.14000E+01 4.35050E+01 0.00000E+00
 -1      2315 6.91500E+01 4.22060E+01 0.00000E+00
 -1      2316 7.29000E+01 4.35050E+01 0.00000E+00
 -1      2317 7.44000E+01 4.35050E+01 0.00000E+00
 -1      2318 7.21500E+01 4.22060E+01 0.00000E+00
 -1      2319 7.59000E+01 4.35050E+01 0.00000E+00
 -1      2320 7.74000E+01 4.35050E+01 0.00000E+00
 -1      2321 7.51500E+01 4.22060E+01 0.00000E+00
 -1      2322 7.89000E+01 4.35050E+01 0.00000E+00
 -1      2323 8.04000E+01 4.35050E+01 0.00000E+00
 -1      2324 7.81500E+01 4.22060E+01 0.00000E+00
 -1      2325 8.19000E+01 4.35050E+01 0.00000E+00
 -1      2326 8.34000E+01 4.35050E+01 0.00000E+00
 -1      2327 8.11500E+01 4.22060E+01 0.00000E+00
 -1      2328 8.49000E+01 4.35050E+01 0.00000E+00
 -1      2329 8.64000E+01 4.35050E+01 0.00000E+00
 -1      2330 8.41500E+01 4.22060E+01 0.00000E+00
 -1      2331 8.79000E+01 4.35050E+01 0.00000E+00
 -1      2332 8.94000E+01 4.35050E+01 0.00000E+00
 -1      2333 8.71500E+01 4.22060E+01 0.00000E+00
 -1      2334 9.09000E+01 4.35050E+01 0.00000E+00
 -1      2335 9.24000E+01 4.35050E+01 0.00000E+00
 -1      2336 9.01500E+01 4.22060E+01 0.00000E+00
 -1      2337 9.39000E+01 4.35050E+01 0.00000E+00
 -1      2338 9.54000E+01 4.35050E+01 0.00000E+00
 -1      2339 9.31500E+01 4.22060E+01 0.00000E+00
 -1      2340 9.69000E+01 4.35050E+01 0.00000E+00
 -1      2341 9.84000E+01 4.35050E+01 0.00000E+00
 -1      2342 9.61500E+01 4.22060E+01 0.00000E+00
 -1      2343 9.99000E+01 4.35050E+01 0.00000E+00
 -1      2344 1.01400E+02 4.35050E+01 0.00000E+00
 -1      2345 9.91500E+01 4.22060E+01 0.00000E+00
 -1      2346 1.02900E+02 4.35050E+01 0.00000E+00
 -1      2347 1.04400E+02 4.35050E+01 0.00000E+00
 -1      2348 1.02150E+02 4.22060E+01 0.00000E+00
 -1      2349 1.05900E+02 4.35050E+01 0.00000E+00
 -1      2350 1.07400E+02 4.35050E+01 0.00000E+00
 -1      2351 1.05150E+02 4.22060E+01 0.00000E+00
 -1      2352 1.08900E+02 4.35050E+01 0.00000E+00
 -1      2353 1.10400E+02 4.35050E+01 0.00000E+00
 -1      2354 1.08150E+02 4.22060E+01 0.00000E+00
 -1      2355 1.11900E+02 4.35050E+01 0.00000E+00
 -1      2356 1.13400E+02 4.35050E+01 0.00000E+00
 -1      2357 1.11150E+02 4.22060E+01 0.00000E+00
 -1      2358 1.14900E+02 4.35050E+01 0.00000E+00
 -1      2359 1.16400E+02 4.35050E+01 0.00000E+00
 -1      2360 1.14150E+02 4.22060E+01 0.00000E+00
 -1      2361 1.17900E+02 4.35050E+01 0.00000E+00
 -1      2362 1.19400E+02 4.35050E+01 0.00000E+00
 -1      2363 1.17150E+02 4.22060E+01 0.00000E+00
 -1      2364 1.20900E+02 4.35050E+01 0.00000E+00
 -1      2365 1.22400E+02 4.35050E+01 0.00000E+00
 -1      2366 1.20150E+02 4.22060E+01 0.00000E+00
 -1      2367 1.23900E+02 4.35050E+01 0.00000E+00
 -1      2368 1.25400E+02 4.35050E+01 0.00000E+00
 -1      2369 1.23150E+02 4.22060E+01 0.00000E+00
 -1      2370 1.26900E+02 4.35050E+01 0.00000E+00
 -1      2371 1.28400E+02 4.35050E+01 0.00000E+00
 -1      2372 1.26150E+02 4.22060E+01 0.00000E+00
 -1      2373 1.29900E+02 4.35050E+01 0.00000E+00
 -1      2374 1.31400E+02 4.35050E+01 0.00000E+00
 -1      2375 1.29150E+02 4.22060E+01 0.00000E+00
 -1      2376 1.32900E+02 4.35050E+01 0.00000E+00
 -1      2377 1.34400E+02 4.35050E+01 0.00000E+00
 -1      2378 1.32150E+02 4.22060E+01 0.00000E+00
 -1      2379 1.35900E+02 4.35050E+01 0.00000E+00
 -1      2380 1.37400E+02 4.35050E+01 0.00000E+00
 -1      2381 1.35150E+02 4.22060E+01 0.00000E+00
 -1      2382 1.38900E+02 4.35050E+01 0.00000E+00
 -1      2383 1.40400E+02 4.35050E+01 0.00000E+00
 -1      2384 1.38150E+02 4.22060E+01 0.00000E+00
 -1      2385 1.97850E+01 5.28273E+00 0.00000E+00
 -1      2386 1.82850E+01 5.28273E+00 0.00000E+00
 -1      2387 2.26716E+01 6.39452E+00 0.00000E+00
 -1      2388 2.11716E+01 6.39452E+00 0.00000E+00
 -1      2389 3.47850E+01 5.11516E+00 0.00000E+00
 -1      2390 3.32850E+01 5.11516E+00 0.00000E+00
 -1      2391 3.77850E+01 5.19895E+00 0.00000E+00
 -1      2392 3.62850E+01 5.19895E+00 0.00000E+00
 -1      2393 4.07850E+01 5.19895E+00 0.00000E+00
 -1      2394 3.92850E+01 5.19895E+00 0.00000E+00
 -1      2395 3.85350E+01 6.39164E+00 0.00000E+00
 -1      2396 4.37850E+01 5.19895E+00 0.00000E+00
 -1      2397 4.22850E+01 5.19895E+00 0.00000E+00
 -1      2398 4.15350E+01 6.39164E+00 0.00000E+00
 -1      2399 4.67850E+01 5.19895E+00 0.00000E+00
 -1      2400 4.52850E+01 5.19895E+00 0.00000E+00
 -1      2401 4.45350E+01 6.39164E+00 0.00000E+00
 -1      2402 4.97850E+01 5.19895E+00 0.00000E+00
 -1      2403 4.82850E+01 5.19895E+00 0.00000E+00
 -1      2404 4.75350E+01 6.39164E+00 0.00000E+00
 -1      2405 5.27850E+01 5.19895E+00 0.00000E+00
 -1      2406 5.12850E+01 5.19895E+00 0.00000E+00
 -1      2407 5.05350E+01 6.39164E+00 0.00000E+00
 -1      2408 5.57850E+01 5.19895E+00 0.00000E+00
 -1      2409 5.42850E+01 5.19895E+00 0.00000E+00
 -1      2410 5.35350E+01 6.39164E+00 0.00000E+00
 -1      2411 5.87850E+01 5.19895E+00 0.00000E+00
 -1      2412 5.72850E+01 5.19895E+00 0.00000E+00
 -1      2413 5.65350E+01 6.39164E+00 0.00000E+00
 -1      2414 6.17850E+01 5.19895E+00 0.00000E+00
 -1      2415 6.02850E+01 5.19895E+00 0.00000E+00
 -1      2416 5.95350E+01 6.39164E+00 0.00000E+00
 -1      2417 6.47850E+01 5.19895E+00 0.00000E+00
 -1      2418 6.32850E+01 5.19895E+00 0.00000E+00
 -1      2419 6.25350E+01 6.39164E+00 0.00000E+00
 -1      2420 6.77850E+01 5.19895E+00 0.00000E+00
 -1      2421 6.62850E+01 5.19895E+00 0.00000E+00
 -1      2422 6.55350E+01 6.39164E+00 0.00000E+00
 -1      2423 7.07850E+01 5.19895E+00 0.00000E+00
 -1      2424 6.92850E+01 5.19895E+00 0.00000E+00
 -1      2425 6.85350E+01 6.39164E+00 0.00000E+00
 -1      2426 7.37850E+01 5.19895E+00 0.00000E+00
 -1      2427 7.22850E+01 5.19895E+00 0.00000E+00
 -1      2428 7.15350E+01 6.39164E+00 0.00000E+00
 -1      2429 7.67850E+01 5.19895E+00 0.00000E+00
 -1      2430 7.52850E+01 5.19895E+00 0.00000E+00
 -1      2431 7.45350E+01 6.39164E+00 0.00000E+00
 -1      2432 7.97850E+01 5.19895E+00 0.00000E+00
 -1      2433 7.82850E+01 5.19895E+00 0.00000E+00
 -1      2434 7.75350E+01 6.39164E+00 0.00000E+00
 -1      2435 8.27850E+01 5.19895E+00 0.00000E+00
 -1      2436 8.12850E+01 5.19895E+00 0.00000E+00
 -1      2437 8.05350E+01 6.39164E+00 0.00000E+00
 -1      2438 8.57850E+01 5.19895E+00 0.00000E+00
 -1      2439 8.42850E+01 5.19895E+00 0.00000E+00
 -1      2440 8.35350E+01 6.39164E+00 0.00000E+00
 -1      2441 8.87850E+01 5.19895E+00 0.00000E+00
 -1      2442 8.72850E+01 5.19895E+00 0.00000E+00
 -1      2443 8.65350E+01 6.39164E+00 0.00000E+00
 -1      2444 9.17850E+01 5.19895E+00 0.00000E+00
 -1      2445 9.02850E+01 5.19895E+00 0.00000E+00
 -1      2446 8.95350E+01 6.39164E+00 0.00000E+00
 -1      2447 9.47850E+01 5.19895E+00 0.00000E+00
 -1      2448 9.32850E+01 5.19895E+00 0.00000E+00
 -1      2449 9.25350E+01 6.39164E+00 0.00000E+00
 -1      2450 9.77850E+01 5.19895E+00 0.00000E+00
 -1      2451 9.62850E+01 5.19895E+00 0.00000E+00
 -1      2452 9.55350E+01 6.39164E+00 0.00000E+00
 -1      2453 1.00785E+02 5.19895E+00 0.00000E+00
 -1      2454 9.92850E+01 5.19895E+00 0.00000E+00
 -1      2455 9.85350E+01 6.39164E+00 0.00000E+00
 -1      2456 1.03785E+02 5.19895E+00 0.00000E+00
 -1      2457 1.02285E+02 5.19895E+00 0.00000E+00
 -1      2458 1.01535E+02 6.39164E+00 0.00000E+00
 -1      2459 1.06785E+02 5.19895E+00 0.00000E+00
 -1      2460 1.05285E+02 5.19895E+00 0.00000E+00
 -1      2461 1.04535E+02 6.39164E+00 0.00000E+00
 -1      2462 1.09785E+02 5.19895E+00 0.00000E+00
 -1      2463 1.08285E+02 5.19895E+00 0.00000E+00
 -1      2464 1.07535E+02 6.39164E+00 0.00000E+00
 -1      2465 1.12785E+02 5.19895E+00 0.00000E+00
 -1      2466 1.11285E+02 5.19895E+00 0.00000E+00
 -1      2467 1.10535E+02 6.39164E+00 0.00000E+00
 -1      2468 1.15785E+02 5.19895E+00 0.00000E+00
 -1      2469 1.14285E+02 5.19895E+00 0.00000E+00
 -1      2470 1.13535E+02 6.39164E+00 0.00000E+00
 -1      2471 1.18785E+02 5.19895E+00 0.00000E+00
 -1      2472 1.17285E+02 5.19895E+00 0.00000E+00
 -1      2473 1.16535E+02 6.39164E+00 0.00000E+00
 -1      2474 1.21785E+02 5.19895E+00 0.00000E+00
 -1      2475 1.20285E+02 5.19895E+00 0.00000E+00
 -1      2476 1.19535E+02 6.39164E+00 0.00000E+00
 -1      2477 1.24785E+02 5.19895E+00 0.00000E+00
 -1      2478 1.23285E+02 5.19895E+00 0.00000E+00
 -1      2479 1.22535E+02 6.39164E+00 0.00000E+00
 -1      2480 1.27785E+02 5.19895E+00 0.00000E+00
 -1      2481 1.26285E+02 5.19895E+00 0.00000E+00
 -1      2482 1.25535E+02 6.39164E+00 0.00000E+00
 -1      2483 1.30785E+02 5.19895E+00 0.00000E+00
 -1      2484 1.29285E+02 5.19895E+00 0.00000E+00
 -1      2485 1.28535E+02 6.39164E+00 0.00000E+00
 -1      2486 1.33785E+02 5.19895E+00 0.00000E+00
 -1      2487 1.32285E+02 5.19895E+00 0.00000E+00
 -1      2488 1.31535E+02 6.39164E+00 0.00000E+00
 -1      2489 1.36785E+02 5.19895E+00 0.00000E+00
 -1      2490 1.35285E+02 5.19895E+00 0.00000E+00
 -1      2491 1.34535E+02 6.39164E+00 0.00000E+00
 -1      2492 1.39785E+02 5.19895E+00 0.00000E+00
 -1      2493 1.38285E+02 5.19895E+00 0.00000E+00
 -1      2494 1.37535E+02 6.39164E+00 0.00000E+00
 -1      2495 1.42785E+02 5.19895E+00 0.00000E+00
 -1      2496 1.41285E+02 5.19895E+00 0.00000E+00
 -1      2497 1.40535E+02 6.39164E+00 0.00000E+00
 -1      2498 1.44336E+02 5.26953E+00 0.00000E+00
 -1      2499 1.43505E+02 1.69125E+01 0.00000E+00
 -1      2500 1.43505E+02 1.54375E+01 0.00000E+00
 -1      2501 1.43505E+02 1.98625E+01 0.00000E+00
 -1      2502 1.43505E+02 1.83875E+01 0.00000E+00
 -1      2503 1.42206E+02 1.76500E+01 0.00000E+00
 -1      2504 1.43505E+02 1.10625E+01 0.00000E+00
 -1      2505 1.43505E+02 9.58750E+00 0.00000E+00
 -1      2506 1.43505E+02 1.39750E+01 0.00000E+00
 -1      2507 1.43505E+02 1.25250E+01 0.00000E+00
 -1      2508 1.42206E+02 1.17875E+01 0.00000E+00
 -1      2509 1.42206E+02 1.47125E+01 0.00000E+00
 -1      2510 1.43505E+02 2.28125E+01 0.00000E+00
 -1      2511 1.43505E+02 2.13375E+01 0.00000E+00
 -1      2512 1.42206E+02 2.06000E+01 0.00000E+00
 -1      2513 1.43505E+02 2.57625E+01 0.00000E+00
 -1      2514 1.43505E+02 2.42875E+01 0.00000E+00
 -1      2515 1.42206E+02 2.35500E+01 0.00000E+00
 -1      2516 1.43505E+02 2.87125E+01 0.00000E+00
 -1      2517 1.43505E+02 2.72375E+01 0.00000E+00
 -1      2518 1.42206E+02 2.65000E+01 0.00000E+00
 -1      2519 1.43505E+02 3.16125E+01 0.00000E+00
 -1      2520 1.43505E+02 3.01625E+01 0.00000E+00
 -1      2521 1.42206E+02 2.94250E+01 0.00000E+00
 -1      2522 1.43505E+02 3.45625E+01 0.00000E+00
 -1      2523 1.43505E+02 3.30875E+01 0.00000E+00
 -1      2524 1.42206E+02 3.23500E+01 0.00000E+00
 -1      2525 1.43505E+02 3.75125E+01 0.00000E+00
 -1      2526 1.43505E+02 3.60375E+01 0.00000E+00
 -1      2527 1.42206E+02 3.53000E+01 0.00000E+00
 -1      2528 1.43505E+02 4.04625E+01 0.00000E+00
 -1      2529 1.43505E+02 3.89875E+01 0.00000E+00
 -1      2530 1.42206E+02 3.82500E+01 0.00000E+00
 -1      2531 3.91427E+01 1.54672E+01 0.00000E+00
 -1      2532 3.92787E+01 1.65318E+01 0.00000E+00
 -1      2533 3.73215E+01 1.11378E+01 0.00000E+00
 -1      2534 3.78355E+01 1.20854E+01 0.00000E+00
 -1      2535 1.67850E+01 5.30525E+00 0.00000E+00
 -1      2536 1.52850E+01 5.30525E+00 0.00000E+00
 -1      2537 1.45350E+01 6.60425E+00 0.00000E+00
 -1      2538 3.60356E+01 9.55370E+00 0.00000E+00
 -1      2539 3.66302E+01 1.01693E+01 0.00000E+00
 -1      2540 1.44321E+02 4.30606E+01 0.00000E+00
 -1      2541 3.59749E+01 2.46326E+01 0.00000E+00
 -1      2542 3.52201E+01 2.54042E+01 0.00000E+00
 -1      2543 3.27611E+01 6.95566E+00 0.00000E+00
 -1      2544 3.35638E+01 7.29985E+00 0.00000E+00
 -1      2545 3.80786E+01 2.16649E+01 0.00000E+00
 -1      2546 3.76023E+01 2.25378E+01 0.00000E+00
 -1      2547 3.20662E+01 2.71806E+01 0.00000E+00
 -1      2548 3.10432E+01 2.74064E+01 0.00000E+00
 -1      2549 2.03821E+01 2.33628E+01 0.00000E+00
 -1      2550 1.97744E+01 2.23860E+01 0.00000E+00
 -1      2551 3.92060E+01 1.76984E+01 0.00000E+00
 -1      2552 3.90939E+01 1.84869E+01 0.00000E+00
 -1      2553 3.70066E+01 2.33143E+01 0.00000E+00
 -1      2554 3.65706E+01 2.38561E+01 0.00000E+00
 -1      2555 3.68062E+01 2.48416E+01 0.00000E+00
 -1      2556 3.79975E+01 2.32886E+01 0.00000E+00
 -1      2557 6.49500E+00 2.71625E+01 0.00000E+00
 -1      2558 6.49500E+00 2.86375E+01 0.00000E+00
 -1      2559 7.79400E+00 2.93750E+01 0.00000E+00
 -1      2560 7.79400E+00 2.64250E+01 0.00000E+00
 -1      2561 3.04114E+01 6.42667E+00 0.00000E+00
 -1      2562 3.12901E+01 6.66063E+00 0.00000E+00
 -1      2563 3.42925E+01 8.06026E+00 0.00000E+00
 -1      2564 3.53069E+01 8.79329E+00 0.00000E+00
 -1      2565 3.62210E+01 8.50531E+00 0.00000E+00
 -1      2566 3.47637E+01 6.98448E+00 0.00000E+00
 -1      2567 2.56158E+01 6.79842E+00 0.00000E+00
 -1      2568 2.64748E+01 6.57154E+00 0.00000E+00
 -1      2569 1.85093E+01 1.93467E+01 0.00000E+00
 -1      2570 1.83902E+01 1.83964E+01 0.00000E+00
 -1      2571 2.02895E+01 1.10728E+01 0.00000E+00
 -1      2572 2.08025E+01 1.03523E+01 0.00000E+00
 -1      2573 1.92382E+01 1.29572E+01 0.00000E+00
 -1      2574 1.97606E+01 1.20055E+01 0.00000E+00
 -1      2575 1.85138E+01 1.48465E+01 0.00000E+00
 -1      2576 1.87227E+01 1.40076E+01 0.00000E+00
 -1      2577 3.42520E+01 2.62707E+01 0.00000E+00
 -1      2578 3.33381E+01 2.68112E+01 0.00000E+00
 -1      2579 1.91473E+01 2.13990E+01 0.00000E+00
 -1      2580 1.87519E+01 2.05173E+01 0.00000E+00
 -1      2581 2.18202E+01 2.49265E+01 0.00000E+00
 -1      2582 2.11541E+01 2.43179E+01 0.00000E+00
 -1      2583 2.37409E+01 2.63151E+01 0.00000E+00
 -1      2584 2.27413E+01 2.56386E+01 0.00000E+00
 -1      2585 2.57064E+01 2.71534E+01 0.00000E+00
 -1      2586 2.48618E+01 2.68843E+01 0.00000E+00
 -1      2587 2.80188E+01 2.76206E+01 0.00000E+00
 -1      2588 2.68279E+01 2.74157E+01 0.00000E+00
 -1      2589 3.02380E+01 2.75253E+01 0.00000E+00
 -1      2590 2.94329E+01 2.76441E+01 0.00000E+00
 -1      2591 3.09253E+01 2.82089E+01 0.00000E+00
 -1      2592 3.82366E+01 1.31285E+01 0.00000E+00
 -1      2593 3.86377E+01 1.41715E+01 0.00000E+00
 -1      2594 3.87334E+01 1.22458E+01 0.00000E+00
 -1      2595 2.78022E+01 6.55658E+00 0.00000E+00
 -1      2596 2.90841E+01 6.44163E+00 0.00000E+00
 -1      2597 2.97656E+01 5.64896E+00 0.00000E+00
 -1      2598 2.71109E+01 5.67888E+00 0.00000E+00
 -1      2599 3.87815E+01 1.95155E+01 0.00000E+00
 -1      2600 3.84691E+01 2.05441E+01 0.00000E+00
 -1      2601 3.96865E+01 1.92420E+01 0.00000E+00
 -1      2602 8.07525E+00 5.11044E+00 0.00000E+00
 -1      2603 6.57525E+00 5.11044E+00 0.00000E+00
 -1      2604 6.40575E+00 6.01981E+00 0.00000E+00
 -1      2605 8.82525E+00 6.40944E+00 0.00000E+00
 -1      2606 7.79400E+00 3.52687E+01 0.00000E+00
 -1      2607 6.49500E+00 3.60062E+01 0.00000E+00
 -1      2608 6.49500E+00 3.74750E+01 0.00000E+00
 -1      2609 1.75350E+01 6.58173E+00 0.00000E+00
 -1      2610 6.40575E+00 7.49481E+00 0.00000E+00
 -1      2611 1.87942E+01 2.22961E+01 0.00000E+00
 -1      2612 6.52725E+00 3.87101E+01 0.00000E+00
 -1      2613 6.52725E+00 4.01789E+01 0.00000E+00
 -1      2614 7.89075E+00 4.04429E+01 0.00000E+00
 -1      2615 7.82625E+00 3.79726E+01 0.00000E+00
 -1      2616 3.52424E+01 2.64846E+01 0.00000E+00
 -1      2617 1.79003E+01 1.53905E+01 0.00000E+00
 -1      2618 1.83423E+01 1.31796E+01 0.00000E+00
 -1      2619 2.61593E+01 4.85005E+00 0.00000E+00
 -1      2620 2.46593E+01 4.85005E+00 0.00000E+00
 -1      2621 2.89866E+01 4.83508E+00 0.00000E+00
 -1      2622 2.74866E+01 4.83508E+00 0.00000E+00
 -1      2623 3.18140E+01 4.82012E+00 0.00000E+00
 -1      2624 3.03140E+01 4.82012E+00 0.00000E+00
 -1      2625 3.55350E+01 6.30786E+00 0.00000E+00
 -1      2626 1.43586E+02 6.46223E+00 0.00000E+00
 -1      2627 3.76410E+01 1.02342E+01 0.00000E+00
 -1      2628 1.43419E+02 7.62082E+00 0.00000E+00
 -1      2629 4.00717E+01 1.70468E+01 0.00000E+00
 -1      2630 3.96395E+01 1.45845E+01 0.00000E+00
 -1      2631 2.01932E+01 2.42383E+01 0.00000E+00
 -1      2632 3.30024E+01 2.77206E+01 0.00000E+00
 -1      2633 1.42758E+02 4.35929E+01 0.00000E+00
 -1      2634 1.43241E+02 4.17323E+01 0.00000E+00
 -1      2635 1.41942E+02 4.09948E+01 0.00000E+00
 -1      2636 1.41414E+02 4.35342E+01 0.00000E+00
 -1      2637 3.89837E+01 2.13913E+01 0.00000E+00
 -1      2638 2.87061E+01 2.83042E+01 0.00000E+00
 -1      2639 2.79794E+01 2.89643E+01 0.00000E+00
 -1      2640 2.93935E+01 2.89878E+01 0.00000E+00
 -1      2641 2.61707E+01 2.80184E+01 0.00000E+00
 -1      2642 2.39283E+01 2.71869E+01 0.00000E+00
 -1      2643 7.70475E+00 8.23231E+00 0.00000E+00
 -1      2644 1.78280E+01 1.77594E+01 0.00000E+00
 -1      2645 2.35997E+01 7.81092E+00 0.00000E+00
 -1      2646 2.45925E+01 7.35313E+00 0.00000E+00
 -1      2647 1.42120E+02 8.35832E+00 0.00000E+00
 -1      2648 1.93867E+01 1.11965E+01 0.00000E+00
 -1      2649 1.40664E+02 4.22352E+01 0.00000E+00
 -1      2650 2.08619E+01 9.52328E+00 0.00000E+00
 -1      2651 1.79246E+01 2.01385E+01 0.00000E+00
 -1      2652 2.47603E+01 6.24855E+00 0.00000E+00
 -1      2653 2.18863E+01 2.59056E+01 0.00000E+00
 -1      2654 2.27726E+01 7.79303E+00 0.00000E+00
 -1      2655 3.25640E+01 5.92904E+00 0.00000E+00
 -1      2656 9.09300E+00 1.98250E+01 0.00000E+00
 -1      2657 9.09300E+00 2.12750E+01 0.00000E+00
 -1      2658 9.09300E+00 2.27500E+01 0.00000E+00
 -1      2659 9.09300E+00 2.42250E+01 0.00000E+00
 -1      2660 1.03920E+01 2.20250E+01 0.00000E+00
 -1      2661 9.09300E+00 1.39375E+01 0.00000E+00
 -1      2662 9.09300E+00 1.54125E+01 0.00000E+00
 -1      2663 9.09300E+00 1.09875E+01 0.00000E+00
 -1      2664 9.09300E+00 1.24625E+01 0.00000E+00
 -1      2665 1.03920E+01 1.32000E+01 0.00000E+00
 -1      2666 1.68204E+01 1.82507E+01 0.00000E+00
 -1      2667 1.69664E+01 1.70423E+01 0.00000E+00
 -1      2668 1.14000E+01 4.09070E+01 0.00000E+00
 -1      2669 1.29000E+01 4.09070E+01 0.00000E+00
 -1      2670 1.22850E+01 7.90325E+00 0.00000E+00
 -1      2671 1.07850E+01 7.90325E+00 0.00000E+00
 -1      2672 1.68928E+01 1.58818E+01 0.00000E+00
 -1      2673 1.68192E+01 1.47213E+01 0.00000E+00
 -1      2674 1.58853E+01 1.63731E+01 0.00000E+00
 -1      2675 1.44000E+01 4.09070E+01 0.00000E+00
 -1      2676 1.59000E+01 4.09070E+01 0.00000E+00
 -1      2677 1.36500E+01 3.96080E+01 0.00000E+00
 -1      2678 1.74000E+01 4.09070E+01 0.00000E+00
 -1      2679 1.89000E+01 4.09070E+01 0.00000E+00
 -1      2680 1.66500E+01 3.96080E+01 0.00000E+00
 -1      2681 2.04000E+01 4.09070E+01 0.00000E+00
 -1      2682 2.19000E+01 4.09070E+01 0.00000E+00
 -1      2683 1.96500E+01 3.96080E+01 0.00000E+00
 -1      2684 2.34000E+01 4.09070E+01 0.00000E+00
 -1      2685 2.49000E+01 4.09070E+01 0.00000E+00
 -1      2686 2.26500E+01 3.96080E+01 0.00000E+00
 -1      2687 2.64000E+01 4.09070E+01 0.00000E+00
 -1      2688 2.79000E+01 4.09070E+01 0.00000E+00
 -1      2689 2.56500E+01 3.96080E+01 0.00000E+00
 -1      2690 2.94000E+01 4.09070E+01 0.00000E+00
 -1      2691 3.09000E+01 4.09070E+01 0.00000E+00
 -1      2692 2.86500E+01 3.96080E+01 0.00000E+00
 -1      2693 3.24000E+01 4.09070E+01 0.00000E+00
 -1      2694 3.39000E+01 4.09070E+01 0.00000E+00
 -1      2695 3.16500E+01 3.96080E+01 0.00000E+00
 -1      2696 3.54000E+01 4.09070E+01 0.00000E+00
 -1      2697 3.69000E+01 4.09070E+01 0.00000E+00
 -1      2698 3.46500E+01 3.96080E+01 0.00000E+00
 -1      2699 3.84000E+01 4.09070E+01 0.00000E+00
 -1      2700 3.99000E+01 4.09070E+01 0.00000E+00
 -1      2701 3.76500E+01 3.96080E+01 0.00000E+00
 -1      2702 4.14000E+01 4.09070E+01 0.00000E+00
 -1      2703 4.29000E+01 4.09070E+01 0.00000E+00
 -1      2704 4.06500E+01 3.96080E+01 0.00000E+00
 -1      2705 4.44000E+01 4.09070E+01 0.00000E+00
 -1      2706 4.59000E+01 4.09070E+01 0.00000E+00
 -1      2707 4.36500E+01 3.96080E+01 0.00000E+00
 -1      2708 4.74000E+01 4.09070E+01 0.00000E+00
 -1      2709 4.89000E+01 4.09070E+01 0.00000E+00
 -1      2710 4.66500E+01 3.96080E+01 0.00000E+00
 -1      2711 5.04000E+01 4.09070E+01 0.00000E+00
 -1      2712 5.19000E+01 4.09070E+01 0.00000E+00
 -1      2713 4.96500E+01 3.96080E+01 0.00000E+00
 -1      2714 5.34000E+01 4.09070E+01 0.00000E+00
 -1      2715 5.49000E+01 4.09070E+01 0.00000E+00
 -1      2716 5.26500E+01 3.96080E+01 0.00000E+00
 -1      2717 5.64000E+01 4.09070E+01 0.00000E+00
 -1      2718 5.79000E+01 4.09070E+01 0.00000E+00
 -1      2719 5.56500E+01 3.96080E+01 0.00000E+00
 -1      2720 5.94000E+01 4.09070E+01 0.00000E+00
 -1      2721 6.09000E+01 4.09070E+01 0.00000E+00
 -1      2722 5.86500E+01 3.96080E+01 0.00000E+00
 -1      2723 6.24000E+01 4.09070E+01 0.00000E+00
 -1      2724 6.39000E+01 4.09070E+01 0.00000E+00
 -1      2725 6.16500E+01 3.96080E+01 0.00000E+00
 -1      2726 6.54000E+01 4.09070E+01 0.00000E+00
 -1      2727 6.69000E+01 4.09070E+01 0.00000E+00
 -1      2728 6.46500E+01 3.96080E+01 0.00000E+00
 -1      2729 6.84000E+01 4.09070E+01 0.00000E+00
 -1      2730 6.99000E+01 4.09070E+01 0.00000E+00
 -1      2731 6.76500E+01 3.96080E+01 0.00000E+00
 -1      2732 7.14000E+01 4.09070E+01 0.00000E+00
 -1      2733 7.29000E+01 4.09070E+01 0.00000E+00
 -1      2734 7.06500E+01 3.96080E+01 0.00000E+00
 -1      2735 7.44000E+01 4.09070E+01 0.00000E+00
 -1      2736 7.59000E+01 4.09070E+01 0.00000E+00
 -1      2737 7.36500E+01 3.96080E+01 0.00000E+00
 -1      2738 7.74000E+01 4.09070E+01 0.00000E+00
 -1      2739 7.89000E+01 4.09070E+01 0.00000E+00
 -1      2740 7.66500E+01 3.96080E+01 0.00000E+00
 -1      2741 8.04000E+01 4.09070E+01 0.00000E+00
 -1      2742 8.19000E+01 4.09070E+01 0.00000E+00
 -1      2743 7.96500E+01 3.96080E+01 0.00000E+00
 -1      2744 8.34000E+01 4.09070E+01 0.00000E+00
 -1      2745 8.49000E+01 4.09070E+01 0.00000E+00
 -1      2746 8.26500E+01 3.96080E+01 0.00000E+00
 -1      2747 8.64000E+01 4.09070E+01 0.00000E+00
 -1      2748 8.79000E+01 4.09070E+01 0.00000E+00
 -1      2749 8.56500E+01 3.96080E+01 0.00000E+00
 -1      2750 8.94000E+01 4.09070E+01 0.00000E+00
 -1      2751 9.09000E+01 4.09070E+01 0.00000E+00
 -1      2752 8.86500E+01 3.96080E+01 0.00000E+00
 -1      2753 9.24000E+01 4.09070E+01 0.00000E+00
 -1      2754 9.39000E+01 4.09070E+01 0.00000E+00
 -1      2755 9.16500E+01 3.96080E+01 0.00000E+00
 -1      2756 9.54000E+01 4.09070E+01 0.00000E+00
 -1      2757 9.69000E+01 4.09070E+01 0.00000E+00
 -1      2758 9.46500E+01 3.96080E+01 0.00000E+00
 -1      2759 9.84000E+01 4.09070E+01 0.00000E+00
 -1      2760 9.99000E+01 4.09070E+01 0.00000E+00
 -1      2761 9.76500E+01 3.96080E+01 0.00000E+00
 -1      2762 1.01400E+02 4.09070E+01 0.00000E+00
 -1      2763 1.02900E+02 4.09070E+01 0.00000E+00
 -1      2764 1.00650E+02 3.96080E+01 0.00000E+00
 -1      2765 1.04400E+02 4.09070E+01 0.00000E+00
 -1      2766 1.05900E+02 4.09070E+01 0.00000E+00
 -1      2767 1.03650E+02 3.96080E+01 0.00000E+00
 -1      2768 1.07400E+02 4.09070E+01 0.00000E+00
 -1      2769 1.08900E+02 4.09070E+01 0.00000E+00
 -1      2770 1.06650E+02 3.96080E+01 0.00000E+00
 -1      2771 1.10400E+02 4.09070E+01 0.00000E+00
 -1      2772 1.11900E+02 4.09070E+01 0.00000E+00
 -1      2773 1.09650E+02 3.96080E+01 0.00000E+00
 -1      2774 1.13400E+02 4.09070E+01 0.00000E+00
 -1      2775 1.14900E+02 4.09070E+01 0.00000E+00
 -1      2776 1.12650E+02 3.96080E+01 0.00000E+00
 -1      2777 1.16400E+02 4.09070E+01 0.00000E+00
 -1      2778 1.17900E+02 4.09070E+01 0.00000E+00
 -1      2779 1.15650E+02 3.96080E+01 0.00000E+00
 -1      2780 1.19400E+02 4.09070E+01 0.00000E+00
 -1      2781 1.20900E+02 4.09070E+01 0.00000E+00
 -1      2782 1.18650E+02 3.96080E+01 0.00000E+00
 -1      2783 1.22400E+02 4.09070E+01 0.00000E+00
 -1      2784 1.23900E+02 4.09070E+01 0.00000E+00
 -1      2785 1.21650E+02 3.96080E+01 0.00000E+00
 -1      2786 1.25400E+02 4.09070E+01 0.00000E+00
 -1      2787 1.26900E+02 4.09070E+01 0.00000E+00
 -1      2788 1.24650E+02 3.96080E+01 0.00000E+00
 -1      2789 1.28400E+02 4.09070E+01 0.00000E+00
 -1      2790 1.29900E+02 4.09070E+01 0.00000E+00
 -1      2791 1.27650E+02 3.96080E+01 0.00000E+00
 -1      2792 1.31400E+02 4.09070E+01 0.00000E+00
 -1      2793 1.32900E+02 4.09070E+01 0.00000E+00
 -1      2794 1.30650E+02 3.96080E+01 0.00000E+00
 -1      2795 1.34400E+02 4.09070E+01 0.00000E+00
 -1      2796 1.35900E+02 4.09070E+01 0.00000E+00
 -1      2797 1.33650E+02 3.96080E+01 0.00000E+00
 -1      2798 1.37400E+02 4.09070E+01 0.00000E+00
 -1      2799 1.38900E+02 4.09070E+01 0.00000E+00
 -1      2800 1.36650E+02 3.96080E+01 0.00000E+00
 -1      2801 2.04216E+01 7.67100E+00 0.00000E+00
 -1      2802 3.99887E+01 2.11131E+01 0.00000E+00
 -1      2803 3.95982E+01 2.22338E+01 0.00000E+00
 -1      2804 3.62637E+01 7.06827E+00 0.00000E+00
 -1      2805 3.92637E+01 7.06827E+00 0.00000E+00
 -1      2806 3.77637E+01 7.06827E+00 0.00000E+00
 -1      2807 3.69924E+01 7.74489E+00 0.00000E+00
 -1      2808 4.82850E+01 7.69064E+00 0.00000E+00
 -1      2809 4.67850E+01 7.69064E+00 0.00000E+00
 -1      2810 5.12850E+01 7.69064E+00 0.00000E+00
 -1      2811 4.97850E+01 7.69064E+00 0.00000E+00
 -1      2812 4.90350E+01 8.98964E+00 0.00000E+00
 -1      2813 5.42850E+01 7.69064E+00 0.00000E+00
 -1      2814 5.27850E+01 7.69064E+00 0.00000E+00
 -1      2815 5.20350E+01 8.98964E+00 0.00000E+00
 -1      2816 5.72850E+01 7.69064E+00 0.00000E+00
 -1      2817 5.57850E+01 7.69064E+00 0.00000E+00
 -1      2818 5.50350E+01 8.98964E+00 0.00000E+00
 -1      2819 6.02850E+01 7.69064E+00 0.00000E+00
 -1      2820 5.87850E+01 7.69064E+00 0.00000E+00
 -1      2821 5.80350E+01 8.98964E+00 0.00000E+00
 -1      2822 6.32850E+01 7.69064E+00 0.00000E+00
 -1      2823 6.17850E+01 7.69064E+00 0.00000E+00
 -1      2824 6.10350E+01 8.98964E+00 0.00000E+00
 -1      2825 6.62850E+01 7.69064E+00 0.00000E+00
 -1      2826 6.47850E+01 7.69064E+00 0.00000E+00
 -1      2827 6.40350E+01 8.98964E+00 0.00000E+00
 -1      2828 6.92850E+01 7.69064E+00 0.00000E+00
 -1      2829 6.77850E+01 7.69064E+00 0.00000E+00
 -1      2830 6.70350E+01 8.98964E+00 0.00000E+00
 -1      2831 7.22850E+01 7.69064E+00 0.00000E+00
 -1      2832 7.07850E+01 7.69064E+00 0.00000E+00
 -1      2833 7.00350E+01 8.98964E+00 0.00000E+00
 -1      2834 7.52850E+01 7.69064E+00 0.00000E+00
 -1      2835 7.37850E+01 7.69064E+00 0.00000E+00
 -1      2836 7.30350E+01 8.98964E+00 0.00000E+00
 -1      2837 7.82850E+01 7.69064E+00 0.00000E+00
 -1      2838 7.67850E+01 7.69064E+00 0.00000E+00
 -1      2839 7.60350E+01 8.98964E+00 0.00000E+00
 -1      2840 8.12850E+01 7.69064E+00 0.00000E+00
 -1      2841 7.97850E+01 7.69064E+00 0.00000E+00
 -1      2842 7.90350E+01 8.98964E+00 0.00000E+00
 -1      2843 8.42850E+01 7.69064E+00 0.00000E+00
 -1      2844 8.27850E+01 7.69064E+00 0.00000E+00
 -1      2845 8.20350E+01 8.98964E+00 0.00000E+00
 -1      2846 8.72850E+01 7.69064E+00 0.00000E+00
 -1      2847 8.57850E+01 7.69064E+00 0.00000E+00
 -1      2848 8.50350E+01 8.98964E+00 0.00000E+00
 -1      2849 9.02850E+01 7.69064E+00 0.00000E+00
 -1      2850 8.87850E+01 7.69064E+00 0.00000E+00
 -1      2851 8.80350E+01 8.98964E+00 0.00000E+00
 -1      2852 9.32850E+01 7.69064E+00 0.00000E+00
 -1      2853 9.17850E+01 7.69064E+00 0.00000E+00
 -1      2854 9.10350E+01 8.98964E+00 0.00000E+00
 -1      2855 9.62850E+01 7.69064E+00 0.00000E+00
 -1      2856 9.47850E+01 7.69064E+00 0.00000E+00
 -1      2857 9.40350E+01 8.98964E+00 0.00000E+00
 -1      2858 9.92850E+01 7.69064E+00 0.00000E+00
 -1      2859 9.77850E+01 7.69064E+00 0.00000E+00
 -1      2860 9.70350E+01 8.98964E+00 0.00000E+00
 -1      2861 1.02285E+02 7.69064E+00 0.00000E+00
 -1      2862 1.00785E+02 7.69064E+00 0.00000E+00
 -1      2863 1.00035E+02 8.98964E+00 0.00000E+00
 -1      2864 1.05285E+02 7.69064E+00 0.00000E+00
 -1      2865 1.03785E+02 7.69064E+00 0.00000E+00
 -1      2866 1.03035E+02 8.98964E+00 0.00000E+00
 -1      2867 1.08285E+02 7.69064E+00 0.00000E+00
 -1      2868 1.06785E+02 7.69064E+00 0.00000E+00
 -1      2869 1.06035E+02 8.98964E+00 0.00000E+00
 -1      2870 1.11285E+02 7.69064E+00 0.00000E+00
 -1      2871 1.09785E+02 7.69064E+00 0.00000E+00
 -1      2872 1.09035E+02 8.98964E+00 0.00000E+00
 -1      2873 1.14285E+02 7.69064E+00 0.00000E+00
 -1      2874 1.12785E+02 7.69064E+00 0.00000E+00
 -1      2875 1.12035E+02 8.98964E+00 0.00000E+00
 -1      2876 1.17285E+02 7.69064E+00 0.00000E+00
 -1      2877 1.15785E+02 7.69064E+00 0.00000E+00
 -1      2878 1.15035E+02 8.98964E+00 0.00000E+00
 -1      2879 1.20285E+02 7.69064E+00 0.00000E+00
 -1      2880 1.18785E+02 7.69064E+00 0.00000E+00
 -1      2881 1.18035E+02 8.98964E+00 0.00000E+00
 -1      2882 1.23285E+02 7.69064E+00 0.00000E+00
 -1      2883 1.21785E+02 7.69064E+00 0.00000E+00
 -1      2884 1.21035E+02 8.98964E+00 0.00000E+00
 -1      2885 1.26285E+02 7.69064E+00 0.00000E+00
 -1      2886 1.24785E+02 7.69064E+00 0.00000E+00
 -1      2887 1.24035E+02 8.98964E+00 0.00000E+00
 -1      2888 1.29285E+02 7.69064E+00 0.00000E+00
 -1      2889 1.27785E+02 7.69064E+00 0.00000E+00
 -1      2890 1.27035E+02 8.98964E+00 0.00000E+00
 -1      2891 1.32285E+02 7.69064E+00 0.00000E+00
 -1      2892 1.30785E+02 7.69064E+00 0.00000E+00
 -1      2893 1.30035E+02 8.98964E+00 0.00000E+00
 -1      2894 1.35285E+02 7.69064E+00 0.00000E+00
 -1      2895 1.33785E+02 7.69064E+00 0.00000E+00
 -1      2896 1.33035E+02 8.98964E+00 0.00000E+00
 -1      2897 1.38285E+02 7.69064E+00 0.00000E+00
 -1      2898 1.36785E+02 7.69064E+00 0.00000E+00
 -1      2899 1.36035E+02 8.98964E+00 0.00000E+00
 -1      2900 1.40953E+02 8.02448E+00 0.00000E+00
 -1      2901 1.39453E+02 8.02448E+00 0.00000E+00
 -1      2902 1.38703E+02 9.32348E+00 0.00000E+00
 -1      2903 1.41038E+02 9.99116E+00 0.00000E+00
 -1      2904 1.40907E+02 2.42875E+01 0.00000E+00
 -1      2905 1.40907E+02 2.28125E+01 0.00000E+00
 -1      2906 1.83763E+01 1.12399E+01 0.00000E+00
 -1      2907 1.89052E+01 1.03071E+01 0.00000E+00
 -1      2908 1.40907E+02 1.83875E+01 0.00000E+00
 -1      2909 1.40907E+02 1.69125E+01 0.00000E+00
 -1      2910 1.40907E+02 2.72375E+01 0.00000E+00
 -1      2911 1.40907E+02 2.57625E+01 0.00000E+00
 -1      2912 1.39608E+02 2.50250E+01 0.00000E+00
 -1      2913 1.40907E+02 2.13375E+01 0.00000E+00
 -1      2914 1.40907E+02 1.98625E+01 0.00000E+00
 -1      2915 1.39608E+02 1.91250E+01 0.00000E+00
 -1      2916 1.39608E+02 2.20750E+01 0.00000E+00
 -1      2917 1.40907E+02 3.01375E+01 0.00000E+00
 -1      2918 1.40907E+02 2.86875E+01 0.00000E+00
 -1      2919 1.39608E+02 2.79500E+01 0.00000E+00
 -1      2920 1.40907E+02 3.30875E+01 0.00000E+00
 -1      2921 1.40907E+02 3.16125E+01 0.00000E+00
 -1      2922 1.39608E+02 3.08750E+01 0.00000E+00
 -1      2923 1.40907E+02 3.60375E+01 0.00000E+00
 -1      2924 1.40907E+02 3.45625E+01 0.00000E+00
 -1      2925 1.39608E+02 3.38250E+01 0.00000E+00
 -1      2926 4.02640E+01 1.35948E+01 0.00000E+00
 -1      2927 4.07690E+01 1.48905E+01 0.00000E+00
 -1      2928 1.52850E+01 7.90325E+00 0.00000E+00
 -1      2929 1.37850E+01 7.90325E+00 0.00000E+00
 -1      2930 1.30350E+01 9.20225E+00 0.00000E+00
 -1      2931 2.18223E+01 2.69400E+01 0.00000E+00
 -1      2932 2.09013E+01 2.62280E+01 0.00000E+00
 -1      2933 3.14776E+01 2.91636E+01 0.00000E+00
 -1      2934 3.06724E+01 2.92824E+01 0.00000E+00
 -1      2935 1.98471E+01 2.53076E+01 0.00000E+00
 -1      2936 1.90751E+01 2.43525E+01 0.00000E+00
 -1      2937 1.82424E+01 2.33393E+01 0.00000E+00
 -1      2938 1.76154E+01 2.23523E+01 0.00000E+00
 -1      2939 4.52850E+01 7.69064E+00 0.00000E+00
 -1      2940 4.37850E+01 7.69064E+00 0.00000E+00
 -1      2941 4.60350E+01 8.98964E+00 0.00000E+00
 -1      2942 4.22850E+01 7.69064E+00 0.00000E+00
 -1      2943 4.07850E+01 7.69064E+00 0.00000E+00
 -1      2944 4.30350E+01 8.98964E+00 0.00000E+00
 -1      2945 4.10476E+01 1.65221E+01 0.00000E+00
 -1      2946 4.09748E+01 1.76887E+01 0.00000E+00
 -1      2947 9.09300E+00 1.68813E+01 0.00000E+00
 -1      2948 9.09300E+00 1.83563E+01 0.00000E+00
 -1      2949 1.03920E+01 1.90812E+01 0.00000E+00
 -1      2950 1.03920E+01 1.61437E+01 0.00000E+00
 -1      2951 1.84649E+01 8.45485E+00 0.00000E+00
 -1      2952 1.69649E+01 8.47737E+00 0.00000E+00
 -1      2953 9.09300E+00 3.15875E+01 0.00000E+00
 -1      2954 9.09300E+00 3.30625E+01 0.00000E+00
 -1      2955 1.72062E+01 2.08978E+01 0.00000E+00
 -1      2956 1.69636E+01 1.97271E+01 0.00000E+00
 -1      2957 1.39914E+02 4.09362E+01 0.00000E+00
 -1      2958 1.40928E+02 4.09655E+01 0.00000E+00
 -1      2959 1.39164E+02 3.96372E+01 0.00000E+00
 -1      2960 2.36360E+01 5.40476E+00 0.00000E+00
 -1      2961 1.41192E+02 3.96958E+01 0.00000E+00
 -1      2962 4.06232E+01 1.89647E+01 0.00000E+00
 -1      2963 4.03108E+01 1.99933E+01 0.00000E+00
 -1      2964 1.73452E+01 1.33406E+01 0.00000E+00
 -1      2965 1.78608E+01 1.22902E+01 0.00000E+00
 -1      2966 1.73793E+01 1.14009E+01 0.00000E+00
 -1      2967 3.40214E+01 2.84248E+01 0.00000E+00
 -1      2968 3.27495E+01 2.87942E+01 0.00000E+00
 -1      2969 3.24966E+01 2.98677E+01 0.00000E+00
 -1      2970 8.91450E+00 8.42712E+00 0.00000E+00
 -1      2971 2.41005E+01 2.82361E+01 0.00000E+00
 -1      2972 2.29796E+01 2.76669E+01 0.00000E+00
 -1      2973 2.65456E+01 2.89438E+01 0.00000E+00
 -1      2974 2.54242E+01 2.86815E+01 0.00000E+00
 -1      2975 3.93333E+01 1.14165E+01 0.00000E+00
 -1      2976 3.97344E+01 1.24595E+01 0.00000E+00
 -1      2977 8.96362E+00 4.05429E+01 0.00000E+00
 -1      2978 1.03271E+01 4.08069E+01 0.00000E+00
 -1      2979 1.10771E+01 3.95079E+01 0.00000E+00
 -1      2980 8.93137E+00 3.93078E+01 0.00000E+00
 -1      2981 3.63543E+01 2.67528E+01 0.00000E+00
 -1      2982 3.53862E+01 2.76193E+01 0.00000E+00
 -1      2983 1.03920E+01 2.49750E+01 0.00000E+00
 -1      2984 9.09300E+00 2.57000E+01 0.00000E+00
 -1      2985 9.09300E+00 2.71750E+01 0.00000E+00
 -1      2986 1.61020E+01 1.90101E+01 0.00000E+00
 -1      2987 9.09300E+00 3.45313E+01 0.00000E+00
 -1      2988 9.09300E+00 3.60000E+01 0.00000E+00
 -1      2989 1.03920E+01 3.37938E+01 0.00000E+00
 -1      2990 9.66450E+00 9.72612E+00 0.00000E+00
 -1      2991 1.09635E+01 1.04636E+01 0.00000E+00
 -1      2992 4.09254E+01 2.08358E+01 0.00000E+00
 -1      2993 4.00137E+01 8.36727E+00 0.00000E+00
 -1      2994 3.91087E+01 2.35243E+01 0.00000E+00
 -1      2995 3.85131E+01 2.43008E+01 0.00000E+00
 -1      2996 4.01138E+01 2.32460E+01 0.00000E+00
 -1      2997 1.97832E+01 2.63421E+01 0.00000E+00
 -1      2998 1.41038E+02 1.14537E+01 0.00000E+00
 -1      2999 1.39870E+02 1.11198E+01 0.00000E+00
 -1      3000 1.41038E+02 1.29162E+01 0.00000E+00
 -1      3001 3.80616E+01 9.20306E+00 0.00000E+00
 -1      3002 3.87529E+01 1.01715E+01 0.00000E+00
 -1      3003 3.97538E+01 1.03853E+01 0.00000E+00
 -1      3004 1.62149E+01 9.77637E+00 0.00000E+00
 -1      3005 4.22967E+01 1.45427E+01 0.00000E+00
 -1      3006 4.16722E+01 1.55324E+01 0.00000E+00
 -1      3007 4.25753E+01 1.61743E+01 0.00000E+00
 -1      3008 4.08639E+01 1.27655E+01 0.00000E+00
 -1      3009 1.41192E+02 3.82207E+01 0.00000E+00
 -1      3010 3.69500E+01 2.59763E+01 0.00000E+00
 -1      3011 3.70937E+01 2.71109E+01 0.00000E+00
 -1      3012 3.75456E+01 2.51998E+01 0.00000E+00
 -1      3013 2.19945E+01 2.79893E+01 0.00000E+00
 -1      3014 2.99457E+01 2.99425E+01 0.00000E+00
 -1      3015 2.79203E+01 3.03110E+01 0.00000E+00
 -1      3016 2.72329E+01 2.96274E+01 0.00000E+00
 -1      3017 2.64865E+01 3.02905E+01 0.00000E+00
 -1      3018 1.78963E+01 2.44086E+01 0.00000E+00
 -1      3019 9.09300E+00 2.86437E+01 0.00000E+00
 -1      3020 9.09300E+00 3.01187E+01 0.00000E+00
 -1      3021 1.03920E+01 3.08563E+01 0.00000E+00
 -1      3022 1.03920E+01 2.79188E+01 0.00000E+00
 -1      3023 1.66544E+01 2.19410E+01 0.00000E+00
 -1      3024 3.51333E+01 2.86929E+01 0.00000E+00
 -1      3025 1.40973E+02 1.56456E+01 0.00000E+00
 -1      3026 1.40973E+02 1.41831E+01 0.00000E+00
 -1      3027 1.39805E+02 1.38492E+01 0.00000E+00
 -1      3028 1.39674E+02 1.63831E+01 0.00000E+00
 -1      3029 4.15991E+01 1.84400E+01 0.00000E+00
 -1      3030 3.77210E+01 8.50531E+00 0.00000E+00
 -1      3031 1.63377E+01 1.38319E+01 0.00000E+00
 -1      3032 2.44754E+01 2.91615E+01 0.00000E+00
 -1      3033 1.39529E+02 3.85602E+01 0.00000E+00
 -1      3034 1.40542E+02 3.71145E+01 0.00000E+00
 -1      3035 1.39243E+02 3.63770E+01 0.00000E+00
 -1      3036 1.38514E+02 3.85310E+01 0.00000E+00
 -1      3037 1.94753E+01 8.41149E+00 0.00000E+00
 -1      3038 1.16910E+01 1.24625E+01 0.00000E+00
 -1      3039 1.16910E+01 1.39375E+01 0.00000E+00
 -1      3040 1.26488E+01 1.02017E+01 0.00000E+00
 -1      3041 1.20772E+01 1.14631E+01 0.00000E+00
 -1      3042 1.33763E+01 1.22006E+01 0.00000E+00
 -1      3043 1.41488E+01 1.02017E+01 0.00000E+00
 -1      3044 1.38309E+02 3.16125E+01 0.00000E+00
 -1      3045 1.38309E+02 3.01375E+01 0.00000E+00
 -1      3046 8.99606E+00 3.70363E+01 0.00000E+00
 -1      3047 9.02831E+00 3.82715E+01 0.00000E+00
 -1      3048 1.01012E+01 3.83715E+01 0.00000E+00
 -1      3049 1.02951E+01 3.62988E+01 0.00000E+00
 -1      3050 1.38309E+02 3.45625E+01 0.00000E+00
 -1      3051 1.38309E+02 3.30875E+01 0.00000E+00
 -1      3052 1.37010E+02 3.23500E+01 0.00000E+00
 -1      3053 1.29000E+01 3.83090E+01 0.00000E+00
 -1      3054 1.44000E+01 3.83090E+01 0.00000E+00
 -1      3055 1.59000E+01 3.83090E+01 0.00000E+00
 -1      3056 1.74000E+01 3.83090E+01 0.00000E+00
 -1      3057 1.51500E+01 3.70100E+01 0.00000E+00
 -1      3058 1.89000E+01 3.83090E+01 0.00000E+00
 -1      3059 2.04000E+01 3.83090E+01 0.00000E+00
 -1      3060 1.81500E+01 3.70100E+01 0.00000E+00
 -1      3061 2.19000E+01 3.83090E+01 0.00000E+00
 -1      3062 2.34000E+01 3.83090E+01 0.00000E+00
 -1      3063 2.11500E+01 3.70100E+01 0.00000E+00
 -1      3064 2.49000E+01 3.83090E+01 0.00000E+00
 -1      3065 2.64000E+01 3.83090E+01 0.00000E+00
 -1      3066 2.41500E+01 3.70100E+01 0.00000E+00
 -1      3067 2.79000E+01 3.83090E+01 0.00000E+00
 -1      3068 2.94000E+01 3.83090E+01 0.00000E+00
 -1      3069 2.71500E+01 3.70100E+01 0.00000E+00
 -1      3070 3.09000E+01 3.83090E+01 0.00000E+00
 -1      3071 3.24000E+01 3.83090E+01 0.00000E+00
 -1      3072 3.01500E+01 3.70100E+01 0.00000E+00
 -1      3073 3.39000E+01 3.83090E+01 0.00000E+00
 -1      3074 3.54000E+01 3.83090E+01 0.00000E+00
 -1      3075 3.31500E+01 3.70100E+01 0.00000E+00
 -1      3076 3.69000E+01 3.83090E+01 0.00000E+00
 -1      3077 3.84000E+01 3.83090E+01 0.00000E+00
 -1      3078 3.61500E+01 3.70100E+01 0.00000E+00
 -1      3079 3.99000E+01 3.83090E+01 0.00000E+00
 -1      3080 4.14000E+01 3.83090E+01 0.00000E+00
 -1      3081 3.91500E+01 3.70100E+01 0.00000E+00
 -1      3082 4.29000E+01 3.83090E+01 0.00000E+00
 -1      3083 4.44000E+01 3.83090E+01 0.00000E+00
 -1      3084 4.21500E+01 3.70100E+01 0.00000E+00
 -1      3085 4.59000E+01 3.83090E+01 0.00000E+00
 -1      3086 4.74000E+01 3.83090E+01 0.00000E+00
 -1      3087 4.51500E+01 3.70100E+01 0.00000E+00
 -1      3088 4.89000E+01 3.83090E+01 0.00000E+00
 -1      3089 5.04000E+01 3.83090E+01 0.00000E+00
 -1      3090 4.81500E+01 3.70100E+01 0.00000E+00
 -1      3091 5.19000E+01 3.83090E+01 0.00000E+00
 -1      3092 5.34000E+01 3.83090E+01 0.00000E+00
 -1      3093 5.11500E+01 3.70100E+01 0.00000E+00
 -1      3094 5.49000E+01 3.83090E+01 0.00000E+00
 -1      3095 5.64000E+01 3.83090E+01 0.00000E+00
 -1      3096 5.41500E+01 3.70100E+01 0.00000E+00
 -1      3097 5.79000E+01 3.83090E+01 0.00000E+00
 -1      3098 5.94000E+01 3.83090E+01 0.00000E+00
 -1      3099 5.71500E+01 3.70100E+01 0.00000E+00
 -1      3100 6.09000E+01 3.83090E+01 0.00000E+00
 -1      3101 6.24000E+01 3.83090E+01 0.00000E+00
 -1      3102 6.01500E+01 3.70100E+01 0.00000E+00
 -1      3103 6.39000E+01 3.83090E+01 0.00000E+00
 -1      3104 6.54000E+01 3.83090E+01 0.00000E+00
 -1      3105 6.31500E+01 3.70100E+01 0.00000E+00
 -1      3106 6.69000E+01 3.83090E+01 0.00000E+00
 -1      3107 6.84000E+01 3.83090E+01 0.00000E+00
 -1      3108 6.61500E+01 3.70100E+01 0.00000E+00
 -1      3109 6.99000E+01 3.83090E+01 0.00000E+00
 -1      3110 7.14000E+01 3.83090E+01 0.00000E+00
 -1      3111 6.91500E+01 3.70100E+01 0.00000E+00
 -1      3112 7.29000E+01 3.83090E+01 0.00000E+00
 -1      3113 7.44000E+01 3.83090E+01 0.00000E+00
 -1      3114 7.21500E+01 3.70100E+01 0.00000E+00
 -1      3115 7.59000E+01 3.83090E+01 0.00000E+00
 -1      3116 7.74000E+01 3.83090E+01 0.00000E+00
 -1      3117 7.51500E+01 3.70100E+01 0.00000E+00
 -1      3118 7.89000E+01 3.83090E+01 0.00000E+00
 -1      3119 8.04000E+01 3.83090E+01 0.00000E+00
 -1      3120 7.81500E+01 3.70100E+01 0.00000E+00
 -1      3121 8.19000E+01 3.83090E+01 0.00000E+00
 -1      3122 8.34000E+01 3.83090E+01 0.00000E+00
 -1      3123 8.11500E+01 3.70100E+01 0.00000E+00
 -1      3124 8.49000E+01 3.83090E+01 0.00000E+00
 -1      3125 8.64000E+01 3.83090E+01 0.00000E+00
 -1      3126 8.41500E+01 3.70100E+01 0.00000E+00
 -1      3127 8.79000E+01 3.83090E+01 0.00000E+00
 -1      3128 8.94000E+01 3.83090E+01 0.00000E+00
 -1      3129 8.71500E+01 3.70100E+01 0.00000E+00
 -1      3130 9.09000E+01 3.83090E+01 0.00000E+00
 -1      3131 9.24000E+01 3.83090E+01 0.00000E+00
 -1      3132 9.01500E+01 3.70100E+01 0.00000E+00
 -1      3133 9.39000E+01 3.83090E+01 0.00000E+00
 -1      3134 9.54000E+01 3.83090E+01 0.00000E+00
 -1      3135 9.31500E+01 3.70100E+01 0.00000E+00
 -1      3136 9.69000E+01 3.83090E+01 0.00000E+00
 -1      3137 9.84000E+01 3.83090E+01 0.00000E+00
 -1      3138 9.61500E+01 3.70100E+01 0.00000E+00
 -1      3139 9.99000E+01 3.83090E+01 0.00000E+00
 -1      3140 1.01400E+02 3.83090E+01 0.00000E+00
 -1      3141 9.91500E+01 3.70100E+01 0.00000E+00
 -1      3142 1.02900E+02 3.83090E+01 0.00000E+00
 -1      3143 1.04400E+02 3.83090E+01 0.00000E+00
 -1      3144 1.02150E+02 3.70100E+01 0.00000E+00
 -1      3145 1.05900E+02 3.83090E+01 0.00000E+00
 -1      3146 1.07400E+02 3.83090E+01 0.00000E+00
 -1      3147 1.05150E+02 3.70100E+01 0.00000E+00
 -1      3148 1.08900E+02 3.83090E+01 0.00000E+00
 -1      3149 1.10400E+02 3.83090E+01 0.00000E+00
 -1      3150 1.08150E+02 3.70100E+01 0.00000E+00
 -1      3151 1.11900E+02 3.83090E+01 0.00000E+00
 -1      3152 1.13400E+02 3.83090E+01 0.00000E+00
 -1      3153 1.11150E+02 3.70100E+01 0.00000E+00
 -1      3154 1.14900E+02 3.83090E+01 0.00000E+00
 -1      3155 1.16400E+02 3.83090E+01 0.00000E+00
 -1      3156 1.14150E+02 3.70100E+01 0.00000E+00
 -1      3157 1.17900E+02 3.83090E+01 0.00000E+00
 -1      3158 1.19400E+02 3.83090E+01 0.00000E+00
 -1      3159 1.17150E+02 3.70100E+01 0.00000E+00
 -1      3160 1.20900E+02 3.83090E+01 0.00000E+00
 -1      3161 1.22400E+02 3.83090E+01 0.00000E+00
 -1      3162 1.20150E+02 3.70100E+01 0.00000E+00
 -1      3163 1.23900E+02 3.83090E+01 0.00000E+00
 -1      3164 1.25400E+02 3.83090E+01 0.00000E+00
 -1      3165 1.23150E+02 3.70100E+01 0.00000E+00
 -1      3166 1.26900E+02 3.83090E+01 0.00000E+00
 -1      3167 1.28400E+02 3.83090E+01 0.00000E+00
 -1      3168 1.26150E+02 3.70100E+01 0.00000E+00
 -1      3169 1.29900E+02 3.83090E+01 0.00000E+00
 -1      3170 1.31400E+02 3.83090E+01 0.00000E+00
 -1      3171 1.29150E+02 3.70100E+01 0.00000E+00
 -1      3172 1.32900E+02 3.83090E+01 0.00000E+00
 -1      3173 1.34400E+02 3.83090E+01 0.00000E+00
 -1      3174 1.32150E+02 3.70100E+01 0.00000E+00
 -1      3175 1.35707E+02 3.84200E+01 0.00000E+00
 -1      3176 1.37207E+02 3.84200E+01 0.00000E+00
 -1      3177 1.37572E+02 3.73430E+01 0.00000E+00
 -1      3178 1.34957E+02 3.71210E+01 0.00000E+00
 -1      3179 5.57850E+01 1.02886E+01 0.00000E+00
 -1      3180 5.42850E+01 1.02886E+01 0.00000E+00
 -1      3181 1.96360E+01 2.75745E+01 0.00000E+00
 -1      3182 1.85819E+01 2.66542E+01 0.00000E+00
 -1      3183 4.13954E+01 2.29941E+01 0.00000E+00
 -1      3184 4.09058E+01 2.42846E+01 0.00000E+00
 -1      3185 1.49826E+01 1.70130E+01 0.00000E+00
 -1      3186 1.49090E+01 1.58524E+01 0.00000E+00
 -1      3187 1.16685E+01 2.12875E+01 0.00000E+00
 -1      3188 1.16685E+01 2.27625E+01 0.00000E+00
 -1      3189 3.86568E+01 2.54355E+01 0.00000E+00
 -1      3190 5.27850E+01 1.02886E+01 0.00000E+00
 -1      3191 5.12850E+01 1.02886E+01 0.00000E+00
 -1      3192 5.35350E+01 1.15876E+01 0.00000E+00
 -1      3193 4.97850E+01 1.02886E+01 0.00000E+00
 -1      3194 4.82850E+01 1.02886E+01 0.00000E+00
 -1      3195 5.05350E+01 1.15876E+01 0.00000E+00
 -1      3196 5.87850E+01 1.02886E+01 0.00000E+00
 -1      3197 5.72850E+01 1.02886E+01 0.00000E+00
 -1      3198 5.65350E+01 1.15876E+01 0.00000E+00
 -1      3199 6.17850E+01 1.02886E+01 0.00000E+00
 -1      3200 6.02850E+01 1.02886E+01 0.00000E+00
 -1      3201 5.95350E+01 1.15876E+01 0.00000E+00
 -1      3202 6.47850E+01 1.02886E+01 0.00000E+00
 -1      3203 6.32850E+01 1.02886E+01 0.00000E+00
 -1      3204 6.25350E+01 1.15876E+01 0.00000E+00
 -1      3205 6.77850E+01 1.02886E+01 0.00000E+00
 -1      3206 6.62850E+01 1.02886E+01 0.00000E+00
 -1      3207 6.55350E+01 1.15876E+01 0.00000E+00
 -1      3208 7.07850E+01 1.02886E+01 0.00000E+00
 -1      3209 6.92850E+01 1.02886E+01 0.00000E+00
 -1      3210 6.85350E+01 1.15876E+01 0.00000E+00
 -1      3211 7.37850E+01 1.02886E+01 0.00000E+00
 -1      3212 7.22850E+01 1.02886E+01 0.00000E+00
 -1      3213 7.15350E+01 1.15876E+01 0.00000E+00
 -1      3214 7.67850E+01 1.02886E+01 0.00000E+00
 -1      3215 7.52850E+01 1.02886E+01 0.00000E+00
 -1      3216 7.45350E+01 1.15876E+01 0.00000E+00
 -1      3217 7.97850E+01 1.02886E+01 0.00000E+00
 -1      3218 7.82850E+01 1.02886E+01 0.00000E+00
 -1      3219 7.75350E+01 1.15876E+01 0.00000E+00
 -1      3220 8.27850E+01 1.02886E+01 0.00000E+00
 -1      3221 8.12850E+01 1.02886E+01 0.00000E+00
 -1      3222 8.05350E+01 1.15876E+01 0.00000E+00
 -1      3223 8.57850E+01 1.02886E+01 0.00000E+00
 -1      3224 8.42850E+01 1.02886E+01 0.00000E+00
 -1      3225 8.35350E+01 1.15876E+01 0.00000E+00
 -1      3226 8.87850E+01 1.02886E+01 0.00000E+00
 -1      3227 8.72850E+01 1.02886E+01 0.00000E+00
 -1      3228 8.65350E+01 1.15876E+01 0.00000E+00
 -1      3229 9.17850E+01 1.02886E+01 0.00000E+00
 -1      3230 9.02850E+01 1.02886E+01 0.00000E+00
 -1      3231 8.95350E+01 1.15876E+01 0.00000E+00
 -1      3232 9.47850E+01 1.02886E+01 0.00000E+00
 -1      3233 9.32850E+01 1.02886E+01 0.00000E+00
 -1      3234 9.25350E+01 1.15876E+01 0.00000E+00
 -1      3235 9.77850E+01 1.02886E+01 0.00000E+00
 -1      3236 9.62850E+01 1.02886E+01 0.00000E+00
 -1      3237 9.55350E+01 1.15876E+01 0.00000E+00
 -1      3238 1.00785E+02 1.02886E+01 0.00000E+00
 -1      3239 9.92850E+01 1.02886E+01 0.00000E+00
 -1      3240 9.85350E+01 1.15876E+01 0.00000E+00
 -1      3241 1.03785E+02 1.02886E+01 0.00000E+00
 -1      3242 1.02285E+02 1.02886E+01 0.00000E+00
 -1      3243 1.01535E+02 1.15876E+01 0.00000E+00
 -1      3244 1.06785E+02 1.02886E+01 0.00000E+00
 -1      3245 1.05285E+02 1.02886E+01 0.00000E+00
 -1      3246 1.04535E+02 1.15876E+01 0.00000E+00
 -1      3247 1.09785E+02 1.02886E+01 0.00000E+00
 -1      3248 1.08285E+02 1.02886E+01 0.00000E+00
 -1      3249 1.07535E+02 1.15876E+01 0.00000E+00
 -1      3250 1.12785E+02 1.02886E+01 0.00000E+00
 -1      3251 1.11285E+02 1.02886E+01 0.00000E+00
 -1      3252 1.10535E+02 1.15876E+01 0.00000E+00
 -1      3253 1.15785E+02 1.02886E+01 0.00000E+00
 -1      3254 1.14285E+02 1.02886E+01 0.00000E+00
 -1      3255 1.13535E+02 1.15876E+01 0.00000E+00
 -1      3256 1.18785E+02 1.02886E+01 0.00000E+00
 -1      3257 1.17285E+02 1.02886E+01 0.00000E+00
 -1      3258 1.16535E+02 1.15876E+01 0.00000E+00
 -1      3259 1.21785E+02 1.02886E+01 0.00000E+00
 -1      3260 1.20285E+02 1.02886E+01 0.00000E+00
 -1      3261 1.19535E+02 1.15876E+01 0.00000E+00
 -1      3262 1.24785E+02 1.02886E+01 0.00000E+00
 -1      3263 1.23285E+02 1.02886E+01 0.00000E+00
 -1      3264 1.22535E+02 1.15876E+01 0.00000E+00
 -1      3265 1.27785E+02 1.02886E+01 0.00000E+00
 -1      3266 1.26285E+02 1.02886E+01 0.00000E+00
 -1      3267 1.25535E+02 1.15876E+01 0.00000E+00
 -1      3268 1.30785E+02 1.02886E+01 0.00000E+00
 -1      3269 1.29285E+02 1.02886E+01 0.00000E+00
 -1      3270 1.28535E+02 1.15876E+01 0.00000E+00
 -1      3271 1.33785E+02 1.02886E+01 0.00000E+00
 -1      3272 1.32285E+02 1.02886E+01 0.00000E+00
 -1      3273 1.31535E+02 1.15876E+01 0.00000E+00
 -1      3274 1.36785E+02 1.02886E+01 0.00000E+00
 -1      3275 1.35285E+02 1.02886E+01 0.00000E+00
 -1      3276 1.34535E+02 1.15876E+01 0.00000E+00
 -1      3277 1.38912E+02 1.08712E+01 0.00000E+00
 -1      3278 1.37744E+02 1.05373E+01 0.00000E+00
 -1      3279 1.36994E+02 1.18363E+01 0.00000E+00
 -1      3280 1.38912E+02 1.23337E+01 0.00000E+00
 -1      3281 3.88329E+01 8.44265E+00 0.00000E+00
 -1      3282 3.34418E+01 3.07479E+01 0.00000E+00
 -1      3283 3.21699E+01 3.11174E+01 0.00000E+00
 -1      3284 4.26016E+01 1.80298E+01 0.00000E+00
 -1      3285 4.22500E+01 1.93058E+01 0.00000E+00
 -1      3286 1.38309E+02 2.57625E+01 0.00000E+00
 -1      3287 1.38309E+02 2.42875E+01 0.00000E+00
 -1      3288 1.52366E+01 1.98391E+01 0.00000E+00
 -1      3289 1.50935E+01 1.83627E+01 0.00000E+00
 -1      3290 4.37850E+01 1.02661E+01 0.00000E+00
 -1      3291 4.22850E+01 1.02661E+01 0.00000E+00
 -1      3292 4.16846E+01 1.15864E+01 0.00000E+00
 -1      3293 4.22143E+01 1.27217E+01 0.00000E+00
 -1      3294 1.38309E+02 2.86750E+01 0.00000E+00
 -1      3295 1.38309E+02 2.72250E+01 0.00000E+00
 -1      3296 1.37010E+02 2.64875E+01 0.00000E+00
 -1      3297 1.37010E+02 2.94125E+01 0.00000E+00
 -1      3298 2.20724E+01 2.91498E+01 0.00000E+00
 -1      3299 2.09152E+01 2.84230E+01 0.00000E+00
 -1      3300 1.44008E+01 1.42063E+01 0.00000E+00
 -1      3301 1.49269E+01 1.28256E+01 0.00000E+00
 -1      3302 4.19911E+01 2.05361E+01 0.00000E+00
 -1      3303 4.16690E+01 2.16559E+01 0.00000E+00
 -1      3304 3.64219E+01 2.93173E+01 0.00000E+00
 -1      3305 3.50571E+01 3.01228E+01 0.00000E+00
 -1      3306 1.56994E+01 1.08267E+01 0.00000E+00
 -1      3307 1.75207E+01 2.55661E+01 0.00000E+00
 -1      3308 1.66880E+01 2.45530E+01 0.00000E+00
 -1      3309 4.67850E+01 1.02886E+01 0.00000E+00
 -1      3310 4.52850E+01 1.02886E+01 0.00000E+00
 -1      3311 4.75350E+01 1.15876E+01 0.00000E+00
 -1      3312 1.59529E+01 2.29232E+01 0.00000E+00
 -1      3313 1.55436E+01 2.14687E+01 0.00000E+00
 -1      3314 2.48104E+01 3.03558E+01 0.00000E+00
 -1      3315 2.34867E+01 2.99104E+01 0.00000E+00
 -1      3316 3.03551E+01 3.10888E+01 0.00000E+00
 -1      3317 2.90761E+01 3.07942E+01 0.00000E+00
 -1      3318 4.45350E+01 1.15651E+01 0.00000E+00
 -1      3319 1.16910E+01 3.30594E+01 0.00000E+00
 -1      3320 1.16910E+01 3.45281E+01 0.00000E+00
 -1      3321 1.23101E+01 1.98709E+01 0.00000E+00
 -1      3322 1.35865E+01 2.06084E+01 0.00000E+00
 -1      3323 1.41172E+01 1.78420E+01 0.00000E+00
 -1      3324 1.97140E+01 2.87351E+01 0.00000E+00
 -1      3325 1.73736E+01 2.67985E+01 0.00000E+00
 -1      3326 4.17767E+01 2.53289E+01 0.00000E+00
 -1      3327 4.04951E+01 2.55808E+01 0.00000E+00
 -1      3328 1.34982E+01 1.48461E+01 0.00000E+00
 -1      3329 1.29450E+01 2.35000E+01 0.00000E+00
 -1      3330 1.16685E+01 2.42375E+01 0.00000E+00
 -1      3331 1.16685E+01 2.57125E+01 0.00000E+00
 -1      3332 3.95277E+01 2.64798E+01 0.00000E+00
 -1      3333 2.54977E+01 3.10394E+01 0.00000E+00
 -1      3334 2.45089E+01 3.17883E+01 0.00000E+00
 -1      3335 2.61850E+01 3.17230E+01 0.00000E+00
 -1      3336 4.32262E+01 1.70401E+01 0.00000E+00
 -1      3337 4.38771E+01 1.79060E+01 0.00000E+00
 -1      3338 4.38508E+01 1.60505E+01 0.00000E+00
 -1      3339 2.24074E+01 3.03441E+01 0.00000E+00
 -1      3340 1.38309E+02 1.98625E+01 0.00000E+00
 -1      3341 1.38309E+02 1.83875E+01 0.00000E+00
 -1      3342 3.47304E+01 3.13724E+01 0.00000E+00
 -1      3343 4.29936E+01 2.01259E+01 0.00000E+00
 -1      3344 1.45351E+01 2.08213E+01 0.00000E+00
 -1      3345 1.37010E+02 2.35500E+01 0.00000E+00
 -1      3346 1.38309E+02 2.28125E+01 0.00000E+00
 -1      3347 1.38309E+02 2.13375E+01 0.00000E+00
 -1      3348 4.31174E+01 1.33636E+01 0.00000E+00
 -1      3349 4.09346E+01 1.03099E+01 0.00000E+00
 -1      3350 4.24611E+01 2.26944E+01 0.00000E+00
 -1      3351 2.83296E+01 3.14573E+01 0.00000E+00
 -1      3352 1.23101E+01 1.84021E+01 0.00000E+00
 -1      3353 1.38375E+02 1.71206E+01 0.00000E+00
 -1      3354 1.38440E+02 1.58537E+01 0.00000E+00
 -1      3355 1.37076E+02 1.78581E+01 0.00000E+00
 -1      3356 3.13003E+01 3.19690E+01 0.00000E+00
 -1      3357 1.16910E+01 3.15906E+01 0.00000E+00
 -1      3358 1.29900E+01 3.23250E+01 0.00000E+00
 -1      3359 1.16910E+01 3.01219E+01 0.00000E+00
 -1      3360 1.21992E+01 1.55836E+01 0.00000E+00
 -1      3361 3.76510E+01 2.86658E+01 0.00000E+00
 -1      3362 3.75748E+01 3.00957E+01 0.00000E+00
 -1      3363 1.53131E+01 1.18262E+01 0.00000E+00
 -1      3364 1.21992E+01 1.70524E+01 0.00000E+00
 -1      3365 1.55773E+01 2.40807E+01 0.00000E+00
 -1      3366 3.82466E+01 2.78893E+01 0.00000E+00
 -1      3367 1.37758E+02 3.64912E+01 0.00000E+00
 -1      3368 1.38123E+02 3.54142E+01 0.00000E+00
 -1      3369 1.36824E+02 3.46768E+01 0.00000E+00
 -1      3370 1.36451E+02 3.63802E+01 0.00000E+00
 -1      3371 1.11741E+01 3.84716E+01 0.00000E+00
 -1      3372 1.19241E+01 3.71726E+01 0.00000E+00
 -1      3373 1.38935E+01 2.22380E+01 0.00000E+00
 -1      3374 1.20210E+01 3.61362E+01 0.00000E+00
 -1      3375 1.44000E+01 3.57110E+01 0.00000E+00
 -1      3376 1.59000E+01 3.57110E+01 0.00000E+00
 -1      3377 1.74000E+01 3.57110E+01 0.00000E+00
 -1      3378 1.89000E+01 3.57110E+01 0.00000E+00
 -1      3379 1.66500E+01 3.44120E+01 0.00000E+00
 -1      3380 2.04000E+01 3.57110E+01 0.00000E+00
 -1      3381 2.19000E+01 3.57110E+01 0.00000E+00
 -1      3382 1.96500E+01 3.44120E+01 0.00000E+00
 -1      3383 2.39231E+01 3.47409E+01 0.00000E+00
 -1      3384 2.54231E+01 3.47409E+01 0.00000E+00
 -1      3385 2.94000E+01 3.57110E+01 0.00000E+00
 -1      3386 3.09000E+01 3.57110E+01 0.00000E+00
 -1      3387 3.23826E+01 3.45038E+01 0.00000E+00
 -1      3388 3.38826E+01 3.45038E+01 0.00000E+00
 -1      3389 3.84000E+01 3.57110E+01 0.00000E+00
 -1      3390 3.99000E+01 3.57110E+01 0.00000E+00
 -1      3391 4.14000E+01 3.57110E+01 0.00000E+00
 -1      3392 4.29000E+01 3.57110E+01 0.00000E+00
 -1      3393 4.06500E+01 3.44120E+01 0.00000E+00
 -1      3394 4.44000E+01 3.57110E+01 0.00000E+00
 -1      3395 4.59000E+01 3.57110E+01 0.00000E+00
 -1      3396 4.36500E+01 3.44120E+01 0.00000E+00
 -1      3397 4.74000E+01 3.57110E+01 0.00000E+00
 -1      3398 4.89000E+01 3.57110E+01 0.00000E+00
 -1      3399 4.66500E+01 3.44120E+01 0.00000E+00
 -1      3400 5.04000E+01 3.57110E+01 0.00000E+00
 -1      3401 5.19000E+01 3.57110E+01 0.00000E+00
 -1      3402 4.96500E+01 3.44120E+01 0.00000E+00
 -1      3403 5.34000E+01 3.57110E+01 0.00000E+00
 -1      3404 5.49000E+01 3.57110E+01 0.00000E+00
 -1      3405 5.26500E+01 3.44120E+01 0.00000E+00
 -1      3406 5.64000E+01 3.57110E+01 0.00000E+00
 -1      3407 5.79000E+01 3.57110E+01 0.00000E+00
 -1      3408 5.56500E+01 3.44120E+01 0.00000E+00
 -1      3409 5.94000E+01 3.57110E+01 0.00000E+00
 -1      3410 6.09000E+01 3.57110E+01 0.00000E+00
 -1      3411 5.86500E+01 3.44120E+01 0.00000E+00
 -1      3412 6.24000E+01 3.57110E+01 0.00000E+00
 -1      3413 6.39000E+01 3.57110E+01 0.00000E+00
 -1      3414 6.16500E+01 3.44120E+01 0.00000E+00
 -1      3415 6.54000E+01 3.57110E+01 0.00000E+00
 -1      3416 6.69000E+01 3.57110E+01 0.00000E+00
 -1      3417 6.46500E+01 3.44120E+01 0.00000E+00
 -1      3418 6.84000E+01 3.57110E+01 0.00000E+00
 -1      3419 6.99000E+01 3.57110E+01 0.00000E+00
 -1      3420 6.76500E+01 3.44120E+01 0.00000E+00
 -1      3421 7.14000E+01 3.57110E+01 0.00000E+00
 -1      3422 7.29000E+01 3.57110E+01 0.00000E+00
 -1      3423 7.06500E+01 3.44120E+01 0.00000E+00
 -1      3424 7.44000E+01 3.57110E+01 0.00000E+00
 -1      3425 7.59000E+01 3.57110E+01 0.00000E+00
 -1      3426 7.36500E+01 3.44120E+01 0.00000E+00
 -1      3427 7.74000E+01 3.57110E+01 0.00000E+00
 -1      3428 7.89000E+01 3.57110E+01 0.00000E+00
 -1      3429 7.66500E+01 3.44120E+01 0.00000E+00
 -1      3430 8.04000E+01 3.57110E+01 0.00000E+00
 -1      3431 8.19000E+01 3.57110E+01 0.00000E+00
 -1      3432 7.96500E+01 3.44120E+01 0.00000E+00
 -1      3433 8.34000E+01 3.57110E+01 0.00000E+00
 -1      3434 8.49000E+01 3.57110E+01 0.00000E+00
 -1      3435 8.26500E+01 3.44120E+01 0.00000E+00
 -1      3436 8.64000E+01 3.57110E+01 0.00000E+00
 -1      3437 8.79000E+01 3.57110E+01 0.00000E+00
 -1      3438 8.56500E+01 3.44120E+01 0.00000E+00
 -1      3439 8.94000E+01 3.57110E+01 0.00000E+00
 -1      3440 9.09000E+01 3.57110E+01 0.00000E+00
 -1      3441 8.86500E+01 3.44120E+01 0.00000E+00
 -1      3442 9.24000E+01 3.57110E+01 0.00000E+00
 -1      3443 9.39000E+01 3.57110E+01 0.00000E+00
 -1      3444 9.16500E+01 3.44120E+01 0.00000E+00
 -1      3445 9.54000E+01 3.57110E+01 0.00000E+00
 -1      3446 9.69000E+01 3.57110E+01 0.00000E+00
 -1      3447 9.46500E+01 3.44120E+01 0.00000E+00
 -1      3448 9.84000E+01 3.57110E+01 0.00000E+00
 -1      3449 9.99000E+01 3.57110E+01 0.00000E+00
 -1      3450 9.76500E+01 3.44120E+01 0.00000E+00
 -1      3451 1.01400E+02 3.57110E+01 0.00000E+00
 -1      3452 1.02900E+02 3.57110E+01 0.00000E+00
 -1      3453 1.00650E+02 3.44120E+01 0.00000E+00
 -1      3454 1.04400E+02 3.57110E+01 0.00000E+00
 -1      3455 1.05900E+02 3.57110E+01 0.00000E+00
 -1      3456 1.03650E+02 3.44120E+01 0.00000E+00
 -1      3457 1.07400E+02 3.57110E+01 0.00000E+00
 -1      3458 1.08900E+02 3.57110E+01 0.00000E+00
 -1      3459 1.06650E+02 3.44120E+01 0.00000E+00
 -1      3460 1.10400E+02 3.57110E+01 0.00000E+00
 -1      3461 1.11900E+02 3.57110E+01 0.00000E+00
 -1      3462 1.09650E+02 3.44120E+01 0.00000E+00
 -1      3463 1.13400E+02 3.57110E+01 0.00000E+00
 -1      3464 1.14900E+02 3.57110E+01 0.00000E+00
 -1      3465 1.12650E+02 3.44120E+01 0.00000E+00
 -1      3466 1.16400E+02 3.57110E+01 0.00000E+00
 -1      3467 1.17900E+02 3.57110E+01 0.00000E+00
 -1      3468 1.15650E+02 3.44120E+01 0.00000E+00
 -1      3469 1.19400E+02 3.57110E+01 0.00000E+00
 -1      3470 1.20900E+02 3.57110E+01 0.00000E+00
 -1      3471 1.18650E+02 3.44120E+01 0.00000E+00
 -1      3472 1.22400E+02 3.57110E+01 0.00000E+00
 -1      3473 1.23900E+02 3.57110E+01 0.00000E+00
 -1      3474 1.21650E+02 3.44120E+01 0.00000E+00
 -1      3475 1.25400E+02 3.57110E+01 0.00000E+00
 -1      3476 1.26900E+02 3.57110E+01 0.00000E+00
 -1      3477 1.24650E+02 3.44120E+01 0.00000E+00
 -1      3478 1.28400E+02 3.57110E+01 0.00000E+00
 -1      3479 1.29900E+02 3.57110E+01 0.00000E+00
 -1      3480 1.27650E+02 3.44120E+01 0.00000E+00
 -1      3481 1.31400E+02 3.57110E+01 0.00000E+00
 -1      3482 1.32900E+02 3.57110E+01 0.00000E+00
 -1      3483 1.30650E+02 3.44120E+01 0.00000E+00
 -1      3484 4.32204E+01 2.50732E+01 0.00000E+00
 -1      3485 4.28096E+01 2.63694E+01 0.00000E+00
 -1      3486 3.87871E+01 3.08978E+01 0.00000E+00
 -1      3487 3.75580E+01 3.15493E+01 0.00000E+00
 -1      3488 5.42850E+01 1.28866E+01 0.00000E+00
 -1      3489 5.27850E+01 1.28866E+01 0.00000E+00
 -1      3490 5.12850E+01 1.28866E+01 0.00000E+00
 -1      3491 4.97850E+01 1.28866E+01 0.00000E+00
 -1      3492 5.20350E+01 1.41856E+01 0.00000E+00
 -1      3493 6.32850E+01 1.28866E+01 0.00000E+00
 -1      3494 6.17850E+01 1.28866E+01 0.00000E+00
 -1      3495 6.62850E+01 1.28866E+01 0.00000E+00
 -1      3496 6.47850E+01 1.28866E+01 0.00000E+00
 -1      3497 6.40350E+01 1.41856E+01 0.00000E+00
 -1      3498 6.92850E+01 1.28866E+01 0.00000E+00
 -1      3499 6.77850E+01 1.28866E+01 0.00000E+00
 -1      3500 6.70350E+01 1.41856E+01 0.00000E+00
 -1      3501 7.22850E+01 1.28866E+01 0.00000E+00
 -1      3502 7.07850E+01 1.28866E+01 0.00000E+00
 -1      3503 7.00350E+01 1.41856E+01 0.00000E+00
 -1      3504 7.52850E+01 1.28866E+01 0.00000E+00
 -1      3505 7.37850E+01 1.28866E+01 0.00000E+00
 -1      3506 7.30350E+01 1.41856E+01 0.00000E+00
 -1      3507 7.82850E+01 1.28866E+01 0.00000E+00
 -1      3508 7.67850E+01 1.28866E+01 0.00000E+00
 -1      3509 7.60350E+01 1.41856E+01 0.00000E+00
 -1      3510 8.12850E+01 1.28866E+01 0.00000E+00
 -1      3511 7.97850E+01 1.28866E+01 0.00000E+00
 -1      3512 7.90350E+01 1.41856E+01 0.00000E+00
 -1      3513 8.42850E+01 1.28866E+01 0.00000E+00
 -1      3514 8.27850E+01 1.28866E+01 0.00000E+00
 -1      3515 8.20350E+01 1.41856E+01 0.00000E+00
 -1      3516 8.72850E+01 1.28866E+01 0.00000E+00
 -1      3517 8.57850E+01 1.28866E+01 0.00000E+00
 -1      3518 8.50350E+01 1.41856E+01 0.00000E+00
 -1      3519 9.02850E+01 1.28866E+01 0.00000E+00
 -1      3520 8.87850E+01 1.28866E+01 0.00000E+00
 -1      3521 8.80350E+01 1.41856E+01 0.00000E+00
 -1      3522 9.32850E+01 1.28866E+01 0.00000E+00
 -1      3523 9.17850E+01 1.28866E+01 0.00000E+00
 -1      3524 9.10350E+01 1.41856E+01 0.00000E+00
 -1      3525 9.62850E+01 1.28866E+01 0.00000E+00
 -1      3526 9.47850E+01 1.28866E+01 0.00000E+00
 -1      3527 9.40350E+01 1.41856E+01 0.00000E+00
 -1      3528 9.92850E+01 1.28866E+01 0.00000E+00
 -1      3529 9.77850E+01 1.28866E+01 0.00000E+00
 -1      3530 9.70350E+01 1.41856E+01 0.00000E+00
 -1      3531 1.02285E+02 1.28866E+01 0.00000E+00
 -1      3532 1.00785E+02 1.28866E+01 0.00000E+00
 -1      3533 1.00035E+02 1.41856E+01 0.00000E+00
 -1      3534 1.05285E+02 1.28866E+01 0.00000E+00
 -1      3535 1.03785E+02 1.28866E+01 0.00000E+00
 -1      3536 1.03035E+02 1.41856E+01 0.00000E+00
 -1      3537 1.08285E+02 1.28866E+01 0.00000E+00
 -1      3538 1.06785E+02 1.28866E+01 0.00000E+00
 -1      3539 1.06035E+02 1.41856E+01 0.00000E+00
 -1      3540 1.11285E+02 1.28866E+01 0.00000E+00
 -1      3541 1.09785E+02 1.28866E+01 0.00000E+00
 -1      3542 1.09035E+02 1.41856E+01 0.00000E+00
 -1      3543 1.14285E+02 1.28866E+01 0.00000E+00
 -1      3544 1.12785E+02 1.28866E+01 0.00000E+00
 -1      3545 1.12035E+02 1.41856E+01 0.00000E+00
 -1      3546 1.17285E+02 1.28866E+01 0.00000E+00
 -1      3547 1.15785E+02 1.28866E+01 0.00000E+00
 -1      3548 1.15035E+02 1.41856E+01 0.00000E+00
 -1      3549 1.20285E+02 1.28866E+01 0.00000E+00
 -1      3550 1.18785E+02 1.28866E+01 0.00000E+00
 -1      3551 1.18035E+02 1.41856E+01 0.00000E+00
 -1      3552 1.23285E+02 1.28866E+01 0.00000E+00
 -1      3553 1.21785E+02 1.28866E+01 0.00000E+00
 -1      3554 1.21035E+02 1.41856E+01 0.00000E+00
 -1      3555 1.26285E+02 1.28866E+01 0.00000E+00
 -1      3556 1.24785E+02 1.28866E+01 0.00000E+00
 -1      3557 1.24035E+02 1.41856E+01 0.00000E+00
 -1      3558 1.29285E+02 1.28866E+01 0.00000E+00
 -1      3559 1.27785E+02 1.28866E+01 0.00000E+00
 -1      3560 1.27035E+02 1.41856E+01 0.00000E+00
 -1      3561 1.32285E+02 1.28866E+01 0.00000E+00
 -1      3562 1.30785E+02 1.28866E+01 0.00000E+00
 -1      3563 1.30035E+02 1.41856E+01 0.00000E+00
 -1      3564 1.35285E+02 1.28866E+01 0.00000E+00
 -1      3565 1.33785E+02 1.28866E+01 0.00000E+00
 -1      3566 1.33035E+02 1.41856E+01 0.00000E+00
 -1      3567 1.37010E+02 2.06000E+01 0.00000E+00
 -1      3568 4.03542E+01 9.06502E+00 0.00000E+00
 -1      3569 1.97406E+01 3.00834E+01 0.00000E+00
 -1      3570 1.84614E+01 2.92349E+01 0.00000E+00
 -1      3571 4.41517E+01 1.28973E+01 0.00000E+00
 -1      3572 4.42341E+01 1.47183E+01 0.00000E+00
 -1      3573 4.48851E+01 1.55841E+01 0.00000E+00
 -1      3574 4.56517E+01 1.29198E+01 0.00000E+00
 -1      3575 5.72850E+01 1.28866E+01 0.00000E+00
 -1      3576 5.57850E+01 1.28866E+01 0.00000E+00
 -1      3577 5.50350E+01 1.41856E+01 0.00000E+00
 -1      3578 1.71103E+01 2.81168E+01 0.00000E+00
 -1      3579 1.60491E+01 2.70287E+01 0.00000E+00
 -1      3580 4.37676E+01 2.23967E+01 0.00000E+00
 -1      3581 4.34940E+01 2.37350E+01 0.00000E+00
 -1      3582 4.45270E+01 2.47755E+01 0.00000E+00
 -1      3583 1.16797E+01 2.71828E+01 0.00000E+00
 -1      3584 1.16797E+01 2.86516E+01 0.00000E+00
 -1      3585 1.29787E+01 2.93859E+01 0.00000E+00
 -1      3586 1.29562E+01 2.64453E+01 0.00000E+00
 -1      3587 2.25690E+01 3.16045E+01 0.00000E+00
 -1      3588 2.11548E+01 3.08440E+01 0.00000E+00
 -1      3589 1.99023E+01 3.13438E+01 0.00000E+00
 -1      3590 4.84683E+01 1.29032E+01 0.00000E+00
 -1      3591 4.69683E+01 1.29032E+01 0.00000E+00
 -1      3592 4.65850E+01 1.42354E+01 0.00000E+00
 -1      3593 4.92183E+01 1.42022E+01 0.00000E+00
 -1      3594 2.84967E+01 3.26894E+01 0.00000E+00
 -1      3595 2.73409E+01 3.22062E+01 0.00000E+00
 -1      3596 2.63521E+01 3.29551E+01 0.00000E+00
 -1      3597 4.42855E+01 1.99362E+01 0.00000E+00
 -1      3598 4.40266E+01 2.11664E+01 0.00000E+00
 -1      3599 4.50595E+01 2.22070E+01 0.00000E+00
 -1      3600 1.35711E+02 3.30875E+01 0.00000E+00
 -1      3601 1.35711E+02 3.16125E+01 0.00000E+00
 -1      3602 1.38643E+02 1.47271E+01 0.00000E+00
 -1      3603 1.38709E+02 1.34602E+01 0.00000E+00
 -1      3604 1.37750E+02 1.32115E+01 0.00000E+00
 -1      3605 1.37344E+02 1.54646E+01 0.00000E+00
 -1      3606 4.00849E+01 2.80347E+01 0.00000E+00
 -1      3607 6.02850E+01 1.28866E+01 0.00000E+00
 -1      3608 5.87850E+01 1.28866E+01 0.00000E+00
 -1      3609 6.10350E+01 1.41856E+01 0.00000E+00
 -1      3610 1.38935E+01 2.37130E+01 0.00000E+00
 -1      3611 1.46287E+01 2.53427E+01 0.00000E+00
 -1      3612 3.50565E+01 3.29381E+01 0.00000E+00
 -1      3613 3.58239E+01 3.54443E+01 0.00000E+00
 -1      3614 3.73239E+01 3.54443E+01 0.00000E+00
 -1      3615 3.66717E+01 3.23129E+01 0.00000E+00
 -1      3616 4.16867E+01 2.82036E+01 0.00000E+00
 -1      3617 4.04057E+01 2.96131E+01 0.00000E+00
 -1      3618 3.16326E+01 3.32048E+01 0.00000E+00
 -1      3619 3.80739E+01 3.41453E+01 0.00000E+00
 -1      3620 1.43767E+01 2.81313E+01 0.00000E+00
 -1      3621 1.46400E+01 2.68130E+01 0.00000E+00
 -1      3622 1.33200E+01 3.54019E+01 0.00000E+00
 -1      3623 1.40700E+01 3.41029E+01 0.00000E+00
 -1      3624 2.31731E+01 3.34419E+01 0.00000E+00
 -1      3625 2.65790E+01 3.52241E+01 0.00000E+00
 -1      3626 2.80790E+01 3.52241E+01 0.00000E+00
 -1      3627 4.31304E+01 2.79479E+01 0.00000E+00
 -1      3628 1.34022E+02 3.59901E+01 0.00000E+00
 -1      3629 1.35329E+02 3.61011E+01 0.00000E+00
 -1      3630 1.35515E+02 3.52494E+01 0.00000E+00
 -1      3631 1.33272E+02 3.46911E+01 0.00000E+00
 -1      3632 5.80350E+01 1.41856E+01 0.00000E+00
 -1      3633 1.35711E+02 2.13375E+01 0.00000E+00
 -1      3634 1.35711E+02 1.98625E+01 0.00000E+00
 -1      3635 1.36791E+02 1.29629E+01 0.00000E+00
 -1      3636 4.03889E+01 3.10667E+01 0.00000E+00
 -1      3637 1.35711E+02 2.42875E+01 0.00000E+00
 -1      3638 1.35711E+02 2.28125E+01 0.00000E+00
 -1      3639 1.34412E+02 2.20750E+01 0.00000E+00
 -1      3640 1.34412E+02 3.08875E+01 0.00000E+00
 -1      3641 1.35711E+02 3.01500E+01 0.00000E+00
 -1      3642 1.35711E+02 2.86875E+01 0.00000E+00
 -1      3643 1.71369E+01 2.94651E+01 0.00000E+00
 -1      3644 4.55347E+01 1.79568E+01 0.00000E+00
 -1      3645 4.49101E+01 1.89465E+01 0.00000E+00
 -1      3646 4.59430E+01 1.99870E+01 0.00000E+00
 -1      3647 1.35777E+02 1.85956E+01 0.00000E+00
 -1      3648 1.35842E+02 1.73287E+01 0.00000E+00
 -1      3649 1.34478E+02 1.93331E+01 0.00000E+00
 -1      3650 1.35711E+02 2.72188E+01 0.00000E+00
 -1      3651 1.35711E+02 2.57563E+01 0.00000E+00
 -1      3652 1.34412E+02 2.50187E+01 0.00000E+00
 -1      3653 1.34412E+02 2.79562E+01 0.00000E+00
 -1      3654 2.98177E+01 3.31762E+01 0.00000E+00
 -1      3655 1.35702E+02 3.43976E+01 0.00000E+00
 -1      3656 2.88290E+01 3.39251E+01 0.00000E+00
 -1      3657 1.34403E+02 3.36601E+01 0.00000E+00
 -1      3658 1.42800E+01 3.32139E+01 0.00000E+00
 -1      3659 1.53600E+01 3.35231E+01 0.00000E+00
 -1      3660 1.68600E+01 3.35231E+01 0.00000E+00
 -1      3661 1.42800E+01 3.17452E+01 0.00000E+00
 -1      3662 1.36041E+02 1.42619E+01 0.00000E+00
 -1      3663 1.33281E+02 3.33810E+01 0.00000E+00
 -1      3664 1.43879E+01 2.96016E+01 0.00000E+00
 -1      3665 5.27850E+01 1.54846E+01 0.00000E+00
 -1      3666 5.12850E+01 1.54846E+01 0.00000E+00
 -1      3667 1.83600E+01 3.35231E+01 0.00000E+00
 -1      3668 1.98600E+01 3.35231E+01 0.00000E+00
 -1      3669 1.70700E+01 3.26341E+01 0.00000E+00
 -1      3670 3.78841E+01 3.31150E+01 0.00000E+00
 -1      3671 3.89602E+01 3.33817E+01 0.00000E+00
 -1      3672 4.47997E+01 2.77090E+01 0.00000E+00
 -1      3673 4.36768E+01 2.95432E+01 0.00000E+00
 -1      3674 1.56779E+01 3.04906E+01 0.00000E+00
 -1      3675 4.29000E+01 3.31130E+01 0.00000E+00
 -1      3676 4.44000E+01 3.31130E+01 0.00000E+00
 -1      3677 4.89000E+01 3.31130E+01 0.00000E+00
 -1      3678 5.04000E+01 3.31130E+01 0.00000E+00
 -1      3679 5.19000E+01 3.31130E+01 0.00000E+00
 -1      3680 5.34000E+01 3.31130E+01 0.00000E+00
 -1      3681 5.11500E+01 3.18140E+01 0.00000E+00
 -1      3682 5.49000E+01 3.31130E+01 0.00000E+00
 -1      3683 5.64000E+01 3.31130E+01 0.00000E+00
 -1      3684 5.41500E+01 3.18140E+01 0.00000E+00
 -1      3685 5.79000E+01 3.31130E+01 0.00000E+00
 -1      3686 5.94000E+01 3.31130E+01 0.00000E+00
 -1      3687 5.71500E+01 3.18140E+01 0.00000E+00
 -1      3688 6.09000E+01 3.31130E+01 0.00000E+00
 -1      3689 6.24000E+01 3.31130E+01 0.00000E+00
 -1      3690 6.01500E+01 3.18140E+01 0.00000E+00
 -1      3691 6.39000E+01 3.31130E+01 0.00000E+00
 -1      3692 6.54000E+01 3.31130E+01 0.00000E+00
 -1      3693 6.31500E+01 3.18140E+01 0.00000E+00
 -1      3694 6.69000E+01 3.31130E+01 0.00000E+00
 -1      3695 6.84000E+01 3.31130E+01 0.00000E+00
 -1      3696 6.61500E+01 3.18140E+01 0.00000E+00
 -1      3697 6.99000E+01 3.31130E+01 0.00000E+00
 -1      3698 7.14000E+01 3.31130E+01 0.00000E+00
 -1      3699 6.91500E+01 3.18140E+01 0.00000E+00
 -1      3700 7.29000E+01 3.31130E+01 0.00000E+00
 -1      3701 7.44000E+01 3.31130E+01 0.00000E+00
 -1      3702 7.21500E+01 3.18140E+01 0.00000E+00
 -1      3703 7.59000E+01 3.31130E+01 0.00000E+00
 -1      3704 7.74000E+01 3.31130E+01 0.00000E+00
 -1      3705 7.51500E+01 3.18140E+01 0.00000E+00
 -1      3706 7.89000E+01 3.31130E+01 0.00000E+00
 -1      3707 8.04000E+01 3.31130E+01 0.00000E+00
 -1      3708 7.81500E+01 3.18140E+01 0.00000E+00
 -1      3709 8.19000E+01 3.31130E+01 0.00000E+00
 -1      3710 8.34000E+01 3.31130E+01 0.00000E+00
 -1      3711 8.11500E+01 3.18140E+01 0.00000E+00
 -1      3712 8.49000E+01 3.31130E+01 0.00000E+00
 -1      3713 8.64000E+01 3.31130E+01 0.00000E+00
 -1      3714 8.41500E+01 3.18140E+01 0.00000E+00
 -1      3715 8.79000E+01 3.31130E+01 0.00000E+00
 -1      3716 8.94000E+01 3.31130E+01 0.00000E+00
 -1      3717 8.71500E+01 3.18140E+01 0.00000E+00
 -1      3718 9.09000E+01 3.31130E+01 0.00000E+00
 -1      3719 9.24000E+01 3.31130E+01 0.00000E+00
 -1      3720 9.01500E+01 3.18140E+01 0.00000E+00
 -1      3721 9.39000E+01 3.31130E+01 0.00000E+00
 -1      3722 9.54000E+01 3.31130E+01 0.00000E+00
 -1      3723 9.31500E+01 3.18140E+01 0.00000E+00
 -1      3724 9.69000E+01 3.31130E+01 0.00000E+00
 -1      3725 9.84000E+01 3.31130E+01 0.00000E+00
 -1      3726 9.61500E+01 3.18140E+01 0.00000E+00
 -1      3727 9.99000E+01 3.31130E+01 0.00000E+00
 -1      3728 1.01400E+02 3.31130E+01 0.00000E+00
 -1      3729 9.91500E+01 3.18140E+01 0.00000E+00
 -1      3730 1.02900E+02 3.31130E+01 0.00000E+00
 -1      3731 1.04400E+02 3.31130E+01 0.00000E+00
 -1      3732 1.02150E+02 3.18140E+01 0.00000E+00
 -1      3733 1.05900E+02 3.31130E+01 0.00000E+00
 -1      3734 1.07400E+02 3.31130E+01 0.00000E+00
 -1      3735 1.05150E+02 3.18140E+01 0.00000E+00
 -1      3736 1.08900E+02 3.31130E+01 0.00000E+00
 -1      3737 1.10400E+02 3.31130E+01 0.00000E+00
 -1      3738 1.08150E+02 3.18140E+01 0.00000E+00
 -1      3739 1.11900E+02 3.31130E+01 0.00000E+00
 -1      3740 1.13400E+02 3.31130E+01 0.00000E+00
 -1      3741 1.11150E+02 3.18140E+01 0.00000E+00
 -1      3742 1.14900E+02 3.31130E+01 0.00000E+00
 -1      3743 1.16400E+02 3.31130E+01 0.00000E+00
 -1      3744 1.14150E+02 3.18140E+01 0.00000E+00
 -1      3745 1.17900E+02 3.31130E+01 0.00000E+00
 -1      3746 1.19400E+02 3.31130E+01 0.00000E+00
 -1      3747 1.17150E+02 3.18140E+01 0.00000E+00
 -1      3748 1.20900E+02 3.31130E+01 0.00000E+00
 -1      3749 1.22400E+02 3.31130E+01 0.00000E+00
 -1      3750 1.20150E+02 3.18140E+01 0.00000E+00
 -1      3751 1.23900E+02 3.31130E+01 0.00000E+00
 -1      3752 1.25400E+02 3.31130E+01 0.00000E+00
 -1      3753 1.23150E+02 3.18140E+01 0.00000E+00
 -1      3754 1.26900E+02 3.31130E+01 0.00000E+00
 -1      3755 1.28400E+02 3.31130E+01 0.00000E+00
 -1      3756 1.26150E+02 3.18140E+01 0.00000E+00
 -1      3757 1.29900E+02 3.31130E+01 0.00000E+00
 -1      3758 1.31400E+02 3.31130E+01 0.00000E+00
 -1      3759 1.29150E+02 3.18140E+01 0.00000E+00
 -1      3760 5.87850E+01 1.54846E+01 0.00000E+00
 -1      3761 5.72850E+01 1.54846E+01 0.00000E+00
 -1      3762 4.62741E+01 2.18202E+01 0.00000E+00
 -1      3763 4.60152E+01 2.30505E+01 0.00000E+00
 -1      3764 6.77850E+01 1.54846E+01 0.00000E+00
 -1      3765 6.62850E+01 1.54846E+01 0.00000E+00
 -1      3766 6.47850E+01 1.54846E+01 0.00000E+00
 -1      3767 6.32850E+01 1.54846E+01 0.00000E+00
 -1      3768 6.55350E+01 1.67836E+01 0.00000E+00
 -1      3769 7.37850E+01 1.54846E+01 0.00000E+00
 -1      3770 7.22850E+01 1.54846E+01 0.00000E+00
 -1      3771 7.67850E+01 1.54846E+01 0.00000E+00
 -1      3772 7.52850E+01 1.54846E+01 0.00000E+00
 -1      3773 7.45350E+01 1.67836E+01 0.00000E+00
 -1      3774 7.97850E+01 1.54846E+01 0.00000E+00
 -1      3775 7.82850E+01 1.54846E+01 0.00000E+00
 -1      3776 7.75350E+01 1.67836E+01 0.00000E+00
 -1      3777 8.27850E+01 1.54846E+01 0.00000E+00
 -1      3778 8.12850E+01 1.54846E+01 0.00000E+00
 -1      3779 8.05350E+01 1.67836E+01 0.00000E+00
 -1      3780 8.57850E+01 1.54846E+01 0.00000E+00
 -1      3781 8.42850E+01 1.54846E+01 0.00000E+00
 -1      3782 8.35350E+01 1.67836E+01 0.00000E+00
 -1      3783 8.87850E+01 1.54846E+01 0.00000E+00
 -1      3784 8.72850E+01 1.54846E+01 0.00000E+00
 -1      3785 8.65350E+01 1.67836E+01 0.00000E+00
 -1      3786 9.17850E+01 1.54846E+01 0.00000E+00
 -1      3787 9.02850E+01 1.54846E+01 0.00000E+00
 -1      3788 8.95350E+01 1.67836E+01 0.00000E+00
 -1      3789 9.47850E+01 1.54846E+01 0.00000E+00
 -1      3790 9.32850E+01 1.54846E+01 0.00000E+00
 -1      3791 9.25350E+01 1.67836E+01 0.00000E+00
 -1      3792 9.77850E+01 1.54846E+01 0.00000E+00
 -1      3793 9.62850E+01 1.54846E+01 0.00000E+00
 -1      3794 9.55350E+01 1.67836E+01 0.00000E+00
 -1      3795 1.00785E+02 1.54846E+01 0.00000E+00
 -1      3796 9.92850E+01 1.54846E+01 0.00000E+00
 -1      3797 9.85350E+01 1.67836E+01 0.00000E+00
 -1      3798 1.03785E+02 1.54846E+01 0.00000E+00
 -1      3799 1.02285E+02 1.54846E+01 0.00000E+00
 -1      3800 1.01535E+02 1.67836E+01 0.00000E+00
 -1      3801 1.06785E+02 1.54846E+01 0.00000E+00
 -1      3802 1.05285E+02 1.54846E+01 0.00000E+00
 -1      3803 1.04535E+02 1.67836E+01 0.00000E+00
 -1      3804 1.09785E+02 1.54846E+01 0.00000E+00
 -1      3805 1.08285E+02 1.54846E+01 0.00000E+00
 -1      3806 1.07535E+02 1.67836E+01 0.00000E+00
 -1      3807 1.12785E+02 1.54846E+01 0.00000E+00
 -1      3808 1.11285E+02 1.54846E+01 0.00000E+00
 -1      3809 1.10535E+02 1.67836E+01 0.00000E+00
 -1      3810 1.15785E+02 1.54846E+01 0.00000E+00
 -1      3811 1.14285E+02 1.54846E+01 0.00000E+00
 -1      3812 1.13535E+02 1.67836E+01 0.00000E+00
 -1      3813 1.18785E+02 1.54846E+01 0.00000E+00
 -1      3814 1.17285E+02 1.54846E+01 0.00000E+00
 -1      3815 1.16535E+02 1.67836E+01 0.00000E+00
 -1      3816 1.21785E+02 1.54846E+01 0.00000E+00
 -1      3817 1.20285E+02 1.54846E+01 0.00000E+00
 -1      3818 1.19535E+02 1.67836E+01 0.00000E+00
 -1      3819 1.24785E+02 1.54846E+01 0.00000E+00
 -1      3820 1.23285E+02 1.54846E+01 0.00000E+00
 -1      3821 1.22535E+02 1.67836E+01 0.00000E+00
 -1      3822 1.27785E+02 1.54846E+01 0.00000E+00
 -1      3823 1.26285E+02 1.54846E+01 0.00000E+00
 -1      3824 1.25535E+02 1.67836E+01 0.00000E+00
 -1      3825 1.30785E+02 1.54846E+01 0.00000E+00
 -1      3826 1.29285E+02 1.54846E+01 0.00000E+00
 -1      3827 1.28535E+02 1.67836E+01 0.00000E+00
 -1      3828 1.32531E+02 3.20820E+01 0.00000E+00
 -1      3829 4.62515E+01 1.54300E+01 0.00000E+00
 -1      3830 4.58682E+01 1.67622E+01 0.00000E+00
 -1      3831 4.69011E+01 1.78027E+01 0.00000E+00
 -1      3832 4.75682E+01 1.54134E+01 0.00000E+00
 -1      3833 4.57416E+01 2.43887E+01 0.00000E+00
 -1      3834 4.54679E+01 2.57269E+01 0.00000E+00
 -1      3835 4.69562E+01 2.40019E+01 0.00000E+00
 -1      3836 1.35838E+02 1.53884E+01 0.00000E+00
 -1      3837 1.99432E+01 3.23692E+01 0.00000E+00
 -1      3838 1.85290E+01 3.16087E+01 0.00000E+00
 -1      3839 4.01801E+01 3.32474E+01 0.00000E+00
 -1      3840 4.16801E+01 3.32474E+01 0.00000E+00
 -1      3841 4.24301E+01 3.19484E+01 0.00000E+00
 -1      3842 3.99903E+01 3.22171E+01 0.00000E+00
 -1      3843 1.33113E+02 2.28125E+01 0.00000E+00
 -1      3844 1.33113E+02 2.13375E+01 0.00000E+00
 -1      3845 6.17850E+01 1.54846E+01 0.00000E+00
 -1      3846 6.02850E+01 1.54846E+01 0.00000E+00
 -1      3847 5.95350E+01 1.67836E+01 0.00000E+00
 -1      3848 6.25350E+01 1.67836E+01 0.00000E+00
 -1      3849 7.07850E+01 1.54846E+01 0.00000E+00
 -1      3850 6.92850E+01 1.54846E+01 0.00000E+00
 -1      3851 7.15350E+01 1.67836E+01 0.00000E+00
 -1      3852 5.57850E+01 1.54846E+01 0.00000E+00
 -1      3853 5.42850E+01 1.54846E+01 0.00000E+00
 -1      3854 5.35350E+01 1.67836E+01 0.00000E+00
 -1      3855 5.65350E+01 1.67836E+01 0.00000E+00
 -1      3856 1.34539E+02 1.61259E+01 0.00000E+00
 -1      3857 2.12332E+01 3.32582E+01 0.00000E+00
 -1      3858 2.32564E+01 3.22881E+01 0.00000E+00
 -1      3859 1.31880E+02 2.08081E+01 0.00000E+00
 -1      3860 1.33179E+02 2.00706E+01 0.00000E+00
 -1      3861 1.33244E+02 1.88037E+01 0.00000E+00
 -1      3862 4.44981E+01 3.05592E+01 0.00000E+00
 -1      3863 4.28288E+01 3.07980E+01 0.00000E+00
 -1      3864 1.33113E+02 2.42813E+01 0.00000E+00
 -1      3865 1.31814E+02 2.35438E+01 0.00000E+00
 -1      3866 1.33113E+02 2.57500E+01 0.00000E+00
 -1      3867 4.51990E+01 3.18361E+01 0.00000E+00
 -1      3868 4.59490E+01 3.31351E+01 0.00000E+00
 -1      3869 4.74490E+01 3.31351E+01 0.00000E+00
 -1      3870 4.60471E+01 3.05813E+01 0.00000E+00
 -1      3871 6.85350E+01 1.67836E+01 0.00000E+00
 -1      3872 4.68987E+01 2.08305E+01 0.00000E+00
 -1      3873 4.78544E+01 2.16740E+01 0.00000E+00
 -1      3874 4.75233E+01 1.98409E+01 0.00000E+00
 -1      3875 1.32531E+02 3.06195E+01 0.00000E+00
 -1      3876 1.33785E+02 1.54846E+01 0.00000E+00
 -1      3877 1.32285E+02 1.54846E+01 0.00000E+00
 -1      3878 4.60143E+01 2.73223E+01 0.00000E+00
 -1      3879 1.31535E+02 1.67836E+01 0.00000E+00
 -1      3880 5.00849E+01 1.54407E+01 0.00000E+00
 -1      3881 4.87683E+01 1.54573E+01 0.00000E+00
 -1      3882 4.84347E+01 1.66520E+01 0.00000E+00
 -1      3883 5.08349E+01 1.67397E+01 0.00000E+00
 -1      3884 1.70290E+01 3.16087E+01 0.00000E+00
 -1      3885 4.81990E+01 3.18361E+01 0.00000E+00
 -1      3886 5.04000E+01 3.05150E+01 0.00000E+00
 -1      3887 5.19000E+01 3.05150E+01 0.00000E+00
 -1      3888 7.22850E+01 1.80826E+01 0.00000E+00
 -1      3889 7.07850E+01 1.80826E+01 0.00000E+00
 -1      3890 4.74981E+01 3.05592E+01 0.00000E+00
 -1      3891 4.89490E+01 3.05371E+01 0.00000E+00
 -1      3892 4.96990E+01 2.92381E+01 0.00000E+00
 -1      3893 4.67971E+01 2.92823E+01 0.00000E+00
 -1      3894 5.34000E+01 3.05150E+01 0.00000E+00
 -1      3895 5.49000E+01 3.05150E+01 0.00000E+00
 -1      3896 5.26500E+01 2.92160E+01 0.00000E+00
 -1      3897 5.64000E+01 3.05150E+01 0.00000E+00
 -1      3898 5.79000E+01 3.05150E+01 0.00000E+00
 -1      3899 5.56500E+01 2.92160E+01 0.00000E+00
 -1      3900 5.94000E+01 3.05150E+01 0.00000E+00
 -1      3901 6.09000E+01 3.05150E+01 0.00000E+00
 -1      3902 5.86500E+01 2.92160E+01 0.00000E+00
 -1      3903 6.24000E+01 3.05150E+01 0.00000E+00
 -1      3904 6.39000E+01 3.05150E+01 0.00000E+00
 -1      3905 6.16500E+01 2.92160E+01 0.00000E+00
 -1      3906 6.54000E+01 3.05150E+01 0.00000E+00
 -1      3907 6.69000E+01 3.05150E+01 0.00000E+00
 -1      3908 6.46500E+01 2.92160E+01 0.00000E+00
 -1      3909 6.84000E+01 3.05150E+01 0.00000E+00
 -1      3910 6.99000E+01 3.05150E+01 0.00000E+00
 -1      3911 6.76500E+01 2.92160E+01 0.00000E+00
 -1      3912 7.14000E+01 3.05150E+01 0.00000E+00
 -1      3913 7.29000E+01 3.05150E+01 0.00000E+00
 -1      3914 7.06500E+01 2.92160E+01 0.00000E+00
 -1      3915 7.44000E+01 3.05150E+01 0.00000E+00
 -1      3916 7.59000E+01 3.05150E+01 0.00000E+00
 -1      3917 7.36500E+01 2.92160E+01 0.00000E+00
 -1      3918 7.74000E+01 3.05150E+01 0.00000E+00
 -1      3919 7.89000E+01 3.05150E+01 0.00000E+00
 -1      3920 7.66500E+01 2.92160E+01 0.00000E+00
 -1      3921 8.04000E+01 3.05150E+01 0.00000E+00
 -1      3922 8.19000E+01 3.05150E+01 0.00000E+00
 -1      3923 7.96500E+01 2.92160E+01 0.00000E+00
 -1      3924 8.34000E+01 3.05150E+01 0.00000E+00
 -1      3925 8.49000E+01 3.05150E+01 0.00000E+00
 -1      3926 8.26500E+01 2.92160E+01 0.00000E+00
 -1      3927 8.64000E+01 3.05150E+01 0.00000E+00
 -1      3928 8.79000E+01 3.05150E+01 0.00000E+00
 -1      3929 8.56500E+01 2.92160E+01 0.00000E+00
 -1      3930 8.94000E+01 3.05150E+01 0.00000E+00
 -1      3931 9.09000E+01 3.05150E+01 0.00000E+00
 -1      3932 8.86500E+01 2.92160E+01 0.00000E+00
 -1      3933 9.24000E+01 3.05150E+01 0.00000E+00
 -1      3934 9.39000E+01 3.05150E+01 0.00000E+00
 -1      3935 9.16500E+01 2.92160E+01 0.00000E+00
 -1      3936 9.54000E+01 3.05150E+01 0.00000E+00
 -1      3937 9.69000E+01 3.05150E+01 0.00000E+00
 -1      3938 9.46500E+01 2.92160E+01 0.00000E+00
 -1      3939 9.84000E+01 3.05150E+01 0.00000E+00
 -1      3940 9.99000E+01 3.05150E+01 0.00000E+00
 -1      3941 9.76500E+01 2.92160E+01 0.00000E+00
 -1      3942 1.01400E+02 3.05150E+01 0.00000E+00
 -1      3943 1.02900E+02 3.05150E+01 0.00000E+00
 -1      3944 1.00650E+02 2.92160E+01 0.00000E+00
 -1      3945 1.04400E+02 3.05150E+01 0.00000E+00
 -1      3946 1.05900E+02 3.05150E+01 0.00000E+00
 -1      3947 1.03650E+02 2.92160E+01 0.00000E+00
 -1      3948 1.07400E+02 3.05150E+01 0.00000E+00
 -1      3949 1.08900E+02 3.05150E+01 0.00000E+00
 -1      3950 1.06650E+02 2.92160E+01 0.00000E+00
 -1      3951 1.10400E+02 3.05150E+01 0.00000E+00
 -1      3952 1.11900E+02 3.05150E+01 0.00000E+00
 -1      3953 1.09650E+02 2.92160E+01 0.00000E+00
 -1      3954 1.13400E+02 3.05150E+01 0.00000E+00
 -1      3955 1.14900E+02 3.05150E+01 0.00000E+00
 -1      3956 1.12650E+02 2.92160E+01 0.00000E+00
 -1      3957 1.16400E+02 3.05150E+01 0.00000E+00
 -1      3958 1.17900E+02 3.05150E+01 0.00000E+00
 -1      3959 1.15650E+02 2.92160E+01 0.00000E+00
 -1      3960 1.19400E+02 3.05150E+01 0.00000E+00
 -1      3961 1.20900E+02 3.05150E+01 0.00000E+00
 -1      3962 1.18650E+02 2.92160E+01 0.00000E+00
 -1      3963 1.22400E+02 3.05150E+01 0.00000E+00
 -1      3964 1.23900E+02 3.05150E+01 0.00000E+00
 -1      3965 1.21650E+02 2.92160E+01 0.00000E+00
 -1      3966 1.25400E+02 3.05150E+01 0.00000E+00
 -1      3967 1.26900E+02 3.05150E+01 0.00000E+00
 -1      3968 1.24650E+02 2.92160E+01 0.00000E+00
 -1      3969 1.28400E+02 3.05150E+01 0.00000E+00
 -1      3970 1.29900E+02 3.05150E+01 0.00000E+00
 -1      3971 1.27650E+02 2.92160E+01 0.00000E+00
 -1      3972 6.62850E+01 1.80826E+01 0.00000E+00
 -1      3973 6.47850E+01 1.80826E+01 0.00000E+00
 -1      3974 4.16088E+01 3.09324E+01 0.00000E+00
 -1      3975 7.82850E+01 1.80826E+01 0.00000E+00
 -1      3976 7.67850E+01 1.80826E+01 0.00000E+00
 -1      3977 7.52850E+01 1.80826E+01 0.00000E+00
 -1      3978 7.37850E+01 1.80826E+01 0.00000E+00
 -1      3979 7.30350E+01 1.93816E+01 0.00000E+00
 -1      3980 7.60350E+01 1.93816E+01 0.00000E+00
 -1      3981 8.42850E+01 1.80826E+01 0.00000E+00
 -1      3982 8.27850E+01 1.80826E+01 0.00000E+00
 -1      3983 8.72850E+01 1.80826E+01 0.00000E+00
 -1      3984 8.57850E+01 1.80826E+01 0.00000E+00
 -1      3985 8.50350E+01 1.93816E+01 0.00000E+00
 -1      3986 9.02850E+01 1.80826E+01 0.00000E+00
 -1      3987 8.87850E+01 1.80826E+01 0.00000E+00
 -1      3988 8.80350E+01 1.93816E+01 0.00000E+00
 -1      3989 9.32850E+01 1.80826E+01 0.00000E+00
 -1      3990 9.17850E+01 1.80826E+01 0.00000E+00
 -1      3991 9.10350E+01 1.93816E+01 0.00000E+00
 -1      3992 9.62850E+01 1.80826E+01 0.00000E+00
 -1      3993 9.47850E+01 1.80826E+01 0.00000E+00
 -1      3994 9.40350E+01 1.93816E+01 0.00000E+00
 -1      3995 9.92850E+01 1.80826E+01 0.00000E+00
 -1      3996 9.77850E+01 1.80826E+01 0.00000E+00
 -1      3997 9.70350E+01 1.93816E+01 0.00000E+00
 -1      3998 1.02285E+02 1.80826E+01 0.00000E+00
 -1      3999 1.00785E+02 1.80826E+01 0.00000E+00
 -1      4000 1.00035E+02 1.93816E+01 0.00000E+00
 -1      4001 1.05285E+02 1.80826E+01 0.00000E+00
 -1      4002 1.03785E+02 1.80826E+01 0.00000E+00
 -1      4003 1.03035E+02 1.93816E+01 0.00000E+00
 -1      4004 1.08285E+02 1.80826E+01 0.00000E+00
 -1      4005 1.06785E+02 1.80826E+01 0.00000E+00
 -1      4006 1.06035E+02 1.93816E+01 0.00000E+00
 -1      4007 1.11285E+02 1.80826E+01 0.00000E+00
 -1      4008 1.09785E+02 1.80826E+01 0.00000E+00
 -1      4009 1.09035E+02 1.93816E+01 0.00000E+00
 -1      4010 1.14285E+02 1.80826E+01 0.00000E+00
 -1      4011 1.12785E+02 1.80826E+01 0.00000E+00
 -1      4012 1.12035E+02 1.93816E+01 0.00000E+00
 -1      4013 1.17285E+02 1.80826E+01 0.00000E+00
 -1      4014 1.15785E+02 1.80826E+01 0.00000E+00
 -1      4015 1.15035E+02 1.93816E+01 0.00000E+00
 -1      4016 1.20285E+02 1.80826E+01 0.00000E+00
 -1      4017 1.18785E+02 1.80826E+01 0.00000E+00
 -1      4018 1.18035E+02 1.93816E+01 0.00000E+00
 -1      4019 1.23285E+02 1.80826E+01 0.00000E+00
 -1      4020 1.21785E+02 1.80826E+01 0.00000E+00
 -1      4021 1.21035E+02 1.93816E+01 0.00000E+00
 -1      4022 1.26285E+02 1.80826E+01 0.00000E+00
 -1      4023 1.24785E+02 1.80826E+01 0.00000E+00
 -1      4024 1.24035E+02 1.93816E+01 0.00000E+00
 -1      4025 1.29285E+02 1.80826E+01 0.00000E+00
 -1      4026 1.27785E+02 1.80826E+01 0.00000E+00
 -1      4027 1.27035E+02 1.93816E+01 0.00000E+00
 -1      4028 1.33789E+02 1.74249E+01 0.00000E+00
 -1      4029 4.74653E+01 2.73002E+01 0.00000E+00
 -1      4030 4.83656E+01 2.35931E+01 0.00000E+00
 -1      4031 4.80920E+01 2.49313E+01 0.00000E+00
 -1      4032 1.31215E+02 2.98329E+01 0.00000E+00
 -1      4033 1.33096E+02 2.86384E+01 0.00000E+00
 -1      4034 1.33096E+02 2.71696E+01 0.00000E+00
 -1      4035 1.30465E+02 2.85339E+01 0.00000E+00
 -1      4036 6.92850E+01 1.80826E+01 0.00000E+00
 -1      4037 6.77850E+01 1.80826E+01 0.00000E+00
 -1      4038 6.70350E+01 1.93816E+01 0.00000E+00
 -1      4039 7.00350E+01 1.93816E+01 0.00000E+00
 -1      4040 8.12850E+01 1.80826E+01 0.00000E+00
 -1      4041 7.97850E+01 1.80826E+01 0.00000E+00
 -1      4042 8.20350E+01 1.93816E+01 0.00000E+00
 -1      4043 1.32490E+02 1.81624E+01 0.00000E+00
 -1      4044 1.31798E+02 2.64321E+01 0.00000E+00
 -1      4045 1.30515E+02 2.42781E+01 0.00000E+00
 -1      4046 1.30515E+02 2.28094E+01 0.00000E+00
 -1      4047 6.40350E+01 1.93816E+01 0.00000E+00
 -1      4048 6.32850E+01 1.80826E+01 0.00000E+00
 -1      4049 6.17850E+01 1.80826E+01 0.00000E+00
 -1      4050 4.81458E+01 1.76491E+01 0.00000E+00
 -1      4051 4.78123E+01 1.88437E+01 0.00000E+00
 -1      4052 4.87679E+01 1.96873E+01 0.00000E+00
 -1      4053 4.93459E+01 1.76930E+01 0.00000E+00
 -1      4054 7.90350E+01 1.93816E+01 0.00000E+00
 -1      4055 5.42850E+01 1.80826E+01 0.00000E+00
 -1      4056 5.27850E+01 1.80826E+01 0.00000E+00
 -1      4057 4.96148E+01 2.16137E+01 0.00000E+00
 -1      4058 4.89902E+01 2.26034E+01 0.00000E+00
 -1      4059 5.01261E+01 2.35327E+01 0.00000E+00
 -1      4060 1.30990E+02 1.81624E+01 0.00000E+00
 -1      4061 1.30240E+02 1.94614E+01 0.00000E+00
 -1      4062 5.16655E+01 1.79098E+01 0.00000E+00
 -1      4063 5.04654E+01 1.78659E+01 0.00000E+00
 -1      4064 5.01764E+01 1.88630E+01 0.00000E+00
 -1      4065 5.24155E+01 1.92088E+01 0.00000E+00
 -1      4066 6.02850E+01 1.80826E+01 0.00000E+00
 -1      4067 5.87850E+01 1.80826E+01 0.00000E+00
 -1      4068 6.10350E+01 1.93816E+01 0.00000E+00
 -1      4069 4.88748E+01 2.68913E+01 0.00000E+00
 -1      4070 5.72850E+01 1.80826E+01 0.00000E+00
 -1      4071 5.57850E+01 1.80826E+01 0.00000E+00
 -1      4072 5.50350E+01 1.93816E+01 0.00000E+00
 -1      4073 5.80350E+01 1.93816E+01 0.00000E+00
 -1      4074 1.30345E+02 2.17688E+01 0.00000E+00
 -1      4075 1.30410E+02 2.05019E+01 0.00000E+00
 -1      4076 1.28705E+02 2.04222E+01 0.00000E+00
 -1      4077 1.29046E+02 2.25032E+01 0.00000E+00
 -1      4078 1.30482E+02 2.71158E+01 0.00000E+00
 -1      4079 1.30499E+02 2.56962E+01 0.00000E+00
 -1      4080 1.29199E+02 2.49618E+01 0.00000E+00
 -1      4081 1.29167E+02 2.77979E+01 0.00000E+00
 -1      4082 5.03257E+01 2.68692E+01 0.00000E+00
 -1      4083 5.49000E+01 2.79170E+01 0.00000E+00
 -1      4084 5.64000E+01 2.79170E+01 0.00000E+00
 -1      4085 5.79000E+01 2.79170E+01 0.00000E+00
 -1      4086 5.94000E+01 2.79170E+01 0.00000E+00
 -1      4087 5.71500E+01 2.66180E+01 0.00000E+00
 -1      4088 6.09000E+01 2.79170E+01 0.00000E+00
 -1      4089 6.24000E+01 2.79170E+01 0.00000E+00
 -1      4090 6.01500E+01 2.66180E+01 0.00000E+00
 -1      4091 6.39000E+01 2.79170E+01 0.00000E+00
 -1      4092 6.54000E+01 2.79170E+01 0.00000E+00
 -1      4093 6.31500E+01 2.66180E+01 0.00000E+00
 -1      4094 6.69000E+01 2.79170E+01 0.00000E+00
 -1      4095 6.84000E+01 2.79170E+01 0.00000E+00
 -1      4096 6.61500E+01 2.66180E+01 0.00000E+00
 -1      4097 6.99000E+01 2.79170E+01 0.00000E+00
 -1      4098 7.14000E+01 2.79170E+01 0.00000E+00
 -1      4099 6.91500E+01 2.66180E+01 0.00000E+00
 -1      4100 7.29000E+01 2.79170E+01 0.00000E+00
 -1      4101 7.44000E+01 2.79170E+01 0.00000E+00
 -1      4102 7.21500E+01 2.66180E+01 0.00000E+00
 -1      4103 7.59000E+01 2.79170E+01 0.00000E+00
 -1      4104 7.74000E+01 2.79170E+01 0.00000E+00
 -1      4105 7.51500E+01 2.66180E+01 0.00000E+00
 -1      4106 7.89000E+01 2.79170E+01 0.00000E+00
 -1      4107 8.04000E+01 2.79170E+01 0.00000E+00
 -1      4108 7.81500E+01 2.66180E+01 0.00000E+00
 -1      4109 8.19000E+01 2.79170E+01 0.00000E+00
 -1      4110 8.34000E+01 2.79170E+01 0.00000E+00
 -1      4111 8.11500E+01 2.66180E+01 0.00000E+00
 -1      4112 8.49000E+01 2.79170E+01 0.00000E+00
 -1      4113 8.64000E+01 2.79170E+01 0.00000E+00
 -1      4114 8.41500E+01 2.66180E+01 0.00000E+00
 -1      4115 8.79000E+01 2.79170E+01 0.00000E+00
 -1      4116 8.94000E+01 2.79170E+01 0.00000E+00
 -1      4117 8.71500E+01 2.66180E+01 0.00000E+00
 -1      4118 9.09000E+01 2.79170E+01 0.00000E+00
 -1      4119 9.24000E+01 2.79170E+01 0.00000E+00
 -1      4120 9.01500E+01 2.66180E+01 0.00000E+00
 -1      4121 9.39000E+01 2.79170E+01 0.00000E+00
 -1      4122 9.54000E+01 2.79170E+01 0.00000E+00
 -1      4123 9.31500E+01 2.66180E+01 0.00000E+00
 -1      4124 9.69000E+01 2.79170E+01 0.00000E+00
 -1      4125 9.84000E+01 2.79170E+01 0.00000E+00
 -1      4126 9.61500E+01 2.66180E+01 0.00000E+00
 -1      4127 9.99000E+01 2.79170E+01 0.00000E+00
 -1      4128 1.01400E+02 2.79170E+01 0.00000E+00
 -1      4129 9.91500E+01 2.66180E+01 0.00000E+00
 -1      4130 1.02900E+02 2.79170E+01 0.00000E+00
 -1      4131 1.04400E+02 2.79170E+01 0.00000E+00
 -1      4132 1.02150E+02 2.66180E+01 0.00000E+00
 -1      4133 1.05900E+02 2.79170E+01 0.00000E+00
 -1      4134 1.07400E+02 2.79170E+01 0.00000E+00
 -1      4135 1.05150E+02 2.66180E+01 0.00000E+00
 -1      4136 1.08900E+02 2.79170E+01 0.00000E+00
 -1      4137 1.10400E+02 2.79170E+01 0.00000E+00
 -1      4138 1.08150E+02 2.66180E+01 0.00000E+00
 -1      4139 1.11900E+02 2.79170E+01 0.00000E+00
 -1      4140 1.13400E+02 2.79170E+01 0.00000E+00
 -1      4141 1.11150E+02 2.66180E+01 0.00000E+00
 -1      4142 1.14900E+02 2.79170E+01 0.00000E+00
 -1      4143 1.16400E+02 2.79170E+01 0.00000E+00
 -1      4144 1.14150E+02 2.66180E+01 0.00000E+00
 -1      4145 1.17900E+02 2.79170E+01 0.00000E+00
 -1      4146 1.19400E+02 2.79170E+01 0.00000E+00
 -1      4147 1.17150E+02 2.66180E+01 0.00000E+00
 -1      4148 1.20900E+02 2.79170E+01 0.00000E+00
 -1      4149 1.22400E+02 2.79170E+01 0.00000E+00
 -1      4150 1.20150E+02 2.66180E+01 0.00000E+00
 -1      4151 1.23900E+02 2.79170E+01 0.00000E+00
 -1      4152 1.25400E+02 2.79170E+01 0.00000E+00
 -1      4153 1.23150E+02 2.66180E+01 0.00000E+00
 -1      4154 1.26533E+02 2.78575E+01 0.00000E+00
 -1      4155 1.28033E+02 2.78575E+01 0.00000E+00
 -1      4156 1.28050E+02 2.64394E+01 0.00000E+00
 -1      4157 1.25783E+02 2.65585E+01 0.00000E+00
 -1      4158 8.27850E+01 2.06806E+01 0.00000E+00
 -1      4159 8.12850E+01 2.06806E+01 0.00000E+00
 -1      4160 9.17850E+01 2.06806E+01 0.00000E+00
 -1      4161 9.02850E+01 2.06806E+01 0.00000E+00
 -1      4162 8.57850E+01 2.06806E+01 0.00000E+00
 -1      4163 8.42850E+01 2.06806E+01 0.00000E+00
 -1      4164 8.35350E+01 2.19796E+01 0.00000E+00
 -1      4165 9.47850E+01 2.06806E+01 0.00000E+00
 -1      4166 9.32850E+01 2.06806E+01 0.00000E+00
 -1      4167 9.25350E+01 2.19796E+01 0.00000E+00
 -1      4168 9.77850E+01 2.06806E+01 0.00000E+00
 -1      4169 9.62850E+01 2.06806E+01 0.00000E+00
 -1      4170 9.55350E+01 2.19796E+01 0.00000E+00
 -1      4171 1.00785E+02 2.06806E+01 0.00000E+00
 -1      4172 9.92850E+01 2.06806E+01 0.00000E+00
 -1      4173 9.85350E+01 2.19796E+01 0.00000E+00
 -1      4174 1.03785E+02 2.06806E+01 0.00000E+00
 -1      4175 1.02285E+02 2.06806E+01 0.00000E+00
 -1      4176 1.01535E+02 2.19796E+01 0.00000E+00
 -1      4177 1.06785E+02 2.06806E+01 0.00000E+00
 -1      4178 1.05285E+02 2.06806E+01 0.00000E+00
 -1      4179 1.04535E+02 2.19796E+01 0.00000E+00
 -1      4180 1.09785E+02 2.06806E+01 0.00000E+00
 -1      4181 1.08285E+02 2.06806E+01 0.00000E+00
 -1      4182 1.07535E+02 2.19796E+01 0.00000E+00
 -1      4183 1.12785E+02 2.06806E+01 0.00000E+00
 -1      4184 1.11285E+02 2.06806E+01 0.00000E+00
 -1      4185 1.10535E+02 2.19796E+01 0.00000E+00
 -1      4186 1.15785E+02 2.06806E+01 0.00000E+00
 -1      4187 1.14285E+02 2.06806E+01 0.00000E+00
 -1      4188 1.13535E+02 2.19796E+01 0.00000E+00
 -1      4189 1.18785E+02 2.06806E+01 0.00000E+00
 -1      4190 1.17285E+02 2.06806E+01 0.00000E+00
 -1      4191 1.16535E+02 2.19796E+01 0.00000E+00
 -1      4192 1.21785E+02 2.06806E+01 0.00000E+00
 -1      4193 1.20285E+02 2.06806E+01 0.00000E+00
 -1      4194 1.19535E+02 2.19796E+01 0.00000E+00
 -1      4195 1.24785E+02 2.06806E+01 0.00000E+00
 -1      4196 1.23285E+02 2.06806E+01 0.00000E+00
 -1      4197 1.22535E+02 2.19796E+01 0.00000E+00
 -1      4198 1.27495E+02 2.05514E+01 0.00000E+00
 -1      4199 1.25995E+02 2.05514E+01 0.00000E+00
 -1      4200 1.25245E+02 2.18504E+01 0.00000E+00
 -1      4201 1.27665E+02 2.15919E+01 0.00000E+00
 -1      4202 5.11392E+01 2.52653E+01 0.00000E+00
 -1      4203 5.19635E+01 2.76121E+01 0.00000E+00
 -1      4204 7.97850E+01 2.06806E+01 0.00000E+00
 -1      4205 7.82850E+01 2.06806E+01 0.00000E+00
 -1      4206 8.05350E+01 2.19796E+01 0.00000E+00
 -1      4207 8.87850E+01 2.06806E+01 0.00000E+00
 -1      4208 8.72850E+01 2.06806E+01 0.00000E+00
 -1      4209 8.65350E+01 2.19796E+01 0.00000E+00
 -1      4210 5.34635E+01 2.76121E+01 0.00000E+00
 -1      4211 6.77850E+01 2.06806E+01 0.00000E+00
 -1      4212 6.62850E+01 2.06806E+01 0.00000E+00
 -1      4213 5.42135E+01 2.63131E+01 0.00000E+00
 -1      4214 7.67850E+01 2.06806E+01 0.00000E+00
 -1      4215 7.52850E+01 2.06806E+01 0.00000E+00
 -1      4216 7.75350E+01 2.19796E+01 0.00000E+00
 -1      4217 6.17850E+01 2.06806E+01 0.00000E+00
 -1      4218 6.02850E+01 2.06806E+01 0.00000E+00
 -1      4219 8.95350E+01 2.19796E+01 0.00000E+00
 -1      4220 1.28006E+02 2.36730E+01 0.00000E+00
 -1      4221 1.27836E+02 2.26325E+01 0.00000E+00
 -1      4222 1.26626E+02 2.27617E+01 0.00000E+00
 -1      4223 5.17638E+01 2.42757E+01 0.00000E+00
 -1      4224 7.37850E+01 2.06806E+01 0.00000E+00
 -1      4225 7.22850E+01 2.06806E+01 0.00000E+00
 -1      4226 7.45350E+01 2.19796E+01 0.00000E+00
 -1      4227 7.15350E+01 2.19796E+01 0.00000E+00
 -1      4228 7.07850E+01 2.06806E+01 0.00000E+00
 -1      4229 6.92850E+01 2.06806E+01 0.00000E+00
 -1      4230 6.47850E+01 2.06806E+01 0.00000E+00
 -1      4231 6.32850E+01 2.06806E+01 0.00000E+00
 -1      4232 6.55350E+01 2.19796E+01 0.00000E+00
 -1      4233 5.95350E+01 2.19796E+01 0.00000E+00
 -1      4234 5.87850E+01 2.06806E+01 0.00000E+00
 -1      4235 5.72850E+01 2.06806E+01 0.00000E+00
 -1      4236 1.27989E+02 2.50910E+01 0.00000E+00
 -1      4237 5.00401E+01 1.97398E+01 0.00000E+00
 -1      4238 4.97511E+01 2.07369E+01 0.00000E+00
 -1      4239 5.08870E+01 2.16663E+01 0.00000E+00
 -1      4240 5.11596E+01 1.99127E+01 0.00000E+00
 -1      4241 5.57850E+01 2.06806E+01 0.00000E+00
 -1      4242 5.42850E+01 2.06806E+01 0.00000E+00
 -1      4243 5.65350E+01 2.19796E+01 0.00000E+00
 -1      4244 5.39060E+01 2.39940E+01 0.00000E+00
 -1      4245 5.53425E+01 2.42988E+01 0.00000E+00
 -1      4246 5.68425E+01 2.42988E+01 0.00000E+00
 -1      4247 5.83425E+01 2.42988E+01 0.00000E+00
 -1      4248 6.25350E+01 2.19796E+01 0.00000E+00
 -1      4249 9.02850E+01 2.32786E+01 0.00000E+00
 -1      4250 8.87850E+01 2.32786E+01 0.00000E+00
 -1      4251 8.68425E+01 2.42988E+01 0.00000E+00
 -1      4252 8.53425E+01 2.42988E+01 0.00000E+00
 -1      4253 5.98425E+01 2.42988E+01 0.00000E+00
 -1      4254 6.13425E+01 2.42988E+01 0.00000E+00
 -1      4255 6.28425E+01 2.42988E+01 0.00000E+00
 -1      4256 6.43425E+01 2.42988E+01 0.00000E+00
 -1      4257 6.58425E+01 2.42988E+01 0.00000E+00
 -1      4258 6.73425E+01 2.42988E+01 0.00000E+00
 -1      4259 6.88425E+01 2.42988E+01 0.00000E+00
 -1      4260 7.03425E+01 2.42988E+01 0.00000E+00
 -1      4261 7.18425E+01 2.42988E+01 0.00000E+00
 -1      4262 7.33425E+01 2.42988E+01 0.00000E+00
 -1      4263 7.48425E+01 2.42988E+01 0.00000E+00
 -1      4264 7.63425E+01 2.42988E+01 0.00000E+00
 -1      4265 7.78425E+01 2.42988E+01 0.00000E+00
 -1      4266 7.93425E+01 2.42988E+01 0.00000E+00
 -1      4267 8.08425E+01 2.42988E+01 0.00000E+00
 -1      4268 8.23425E+01 2.42988E+01 0.00000E+00
 -1      4269 8.38425E+01 2.42988E+01 0.00000E+00
 -1      4270 8.90925E+01 2.55978E+01 0.00000E+00
 -1      4271 9.05925E+01 2.55978E+01 0.00000E+00
 -1      4272 9.24000E+01 2.53190E+01 0.00000E+00
 -1      4273 9.39000E+01 2.53190E+01 0.00000E+00
 -1      4274 9.58425E+01 2.42988E+01 0.00000E+00
 -1      4275 9.73425E+01 2.42988E+01 0.00000E+00
 -1      4276 9.88425E+01 2.42988E+01 0.00000E+00
 -1      4277 1.00342E+02 2.42988E+01 0.00000E+00
 -1      4278 1.01842E+02 2.42988E+01 0.00000E+00
 -1      4279 1.03342E+02 2.42988E+01 0.00000E+00
 -1      4280 1.04842E+02 2.42988E+01 0.00000E+00
 -1      4281 1.06342E+02 2.42988E+01 0.00000E+00
 -1      4282 1.07842E+02 2.42988E+01 0.00000E+00
 -1      4283 1.09342E+02 2.42988E+01 0.00000E+00
 -1      4284 1.10842E+02 2.42988E+01 0.00000E+00
 -1      4285 1.12342E+02 2.42988E+01 0.00000E+00
 -1      4286 1.13842E+02 2.42988E+01 0.00000E+00
 -1      4287 1.15342E+02 2.42988E+01 0.00000E+00
 -1      4288 1.16842E+02 2.42988E+01 0.00000E+00
 -1      4289 1.18342E+02 2.42988E+01 0.00000E+00
 -1      4290 1.19842E+02 2.42988E+01 0.00000E+00
 -1      4291 1.21342E+02 2.42988E+01 0.00000E+00
 -1      4292 1.22842E+02 2.42988E+01 0.00000E+00
 -1      4293 1.24342E+02 2.42988E+01 0.00000E+00
 -1      4294 5.35350E+01 2.19797E+01 0.00000E+00
 -1      4295 5.27850E+01 2.06807E+01 0.00000E+00
 -1      4296 5.16655E+01 2.05078E+01 0.00000E+00
 -1      4297 9.35925E+01 2.29998E+01 0.00000E+00
 -1      4298 9.20925E+01 2.29998E+01 0.00000E+00
 -1      4299 1.26856E+02 2.51506E+01 0.00000E+00
 -1      4300 6.85350E+01 2.19796E+01 0.00000E+00
 -1      4301 9.13425E+01 2.42988E+01 0.00000E+00
 -1      4302 8.83425E+01 2.42988E+01 0.00000E+00
 -1      4303 1.25553E+02 2.41696E+01 0.00000E+00
 -1      4304 9.43425E+01 2.42988E+01 0.00000E+00
 -1      4305 5.24060E+01 2.39940E+01 0.00000E+00
 -1      4306 1.25723E+02 2.52101E+01 0.00000E+00
 -1      4307 5.15292E+01 2.13846E+01 0.00000E+00
 -1      4308 5.13929E+01 2.22614E+01 0.00000E+00
 -3
    3C                          2072                                     1
 -1       165    8    0    1
 -2         6         7        23      1119      1283      1136
 -1       166    8    0    1
 -2         7         8       165      1120      1284      1285
 -1       167    8    0    1
 -2         8         9       166      1121      1286      1287
 -1       168    8    0    1
 -2         8       166       165      1287      1288      1284
 -1       169    8    0    1
 -2         9        10       167      1122      1289      1290
 -1       170    8    0    1
 -2         9       167       166      1290      1291      1286
 -1       171    8    0    1
 -2        10        11       168      1123      1292      1293
 -1       172    8    0    1
 -2        10       168       167      1293      1294      1289
 -1       173    8    0    1
 -2        11        12       169      1124      1295      1296
 -1       174    8    0    1
 -2        11       169       168      1296      1297      1292
 -1       175    8    0    1
 -2        12        13       170      1125      1298      1299
 -1       176    8    0    1
 -2        12       170       169      1299      1300      1295
 -1       177    8    0    1
 -2        13        14       171      1126      1301      1302
 -1       178    8    0    1
 -2        13       171       170      1302      1303      1298
 -1       179    8    0    1
 -2        14        15       172      1127      1304      1305
 -1       180    8    0    1
 -2        14       172       171      1305      1306      1301
 -1       181    8    0    1
 -2        15        16       173      1128      1307      1308
 -1       182    8    0    1
 -2        15       173       172      1308      1309      1304
 -1       183    8    0    1
 -2        16        17       174      1129      1310      1311
 -1       184    8    0    1
 -2        16       174       173      1311      1312      1307
 -1       185    8    0    1
 -2        17        18       175      1130      1313      1314
 -1       186    8    0    1
 -2        17       175       174      1314      1315      1310
 -1       187    8    0    1
 -2        18        19       176      1131      1316      1317
 -1       188    8    0    1
 -2        18       176       175      1317      1318      1313
 -1       189    8    0    1
 -2        19        20       177      1132      1319      1320
 -1       190    8    0    1
 -2        19       177       176      1320      1321      1316
 -1       191    8    0    1
 -2        20        21       178      1133      1322      1323
 -1       192    8    0    1
 -2        20       178       177      1323      1324      1319
 -1       193    8    0    1
 -2        21        22       179      1134      1325      1326
 -1       194    8    0    1
 -2        21       179       178      1326      1327      1322
 -1       195    8    0    1
 -2        22         5       180      1135      1328      1329
 -1       196    8    0    1
 -2       179        22       180      1325      1329      1330
 -1       197    8    0    1
 -2         5        72       180      1186      1331      1328
 -1       198    8    0    1
 -2        24        23       181      1137      1332      1333
 -1       199    8    0    1
 -2        25        24       182      1138      1334      1335
 -1       200    8    0    1
 -2        24       181       182      1333      1336      1334
 -1       201    8    0    1
 -2        26        25       183      1139      1337      1338
 -1       202    8    0    1
 -2        25       182       183      1335      1339      1337
 -1       203    8    0    1
 -2        27        26       184      1140      1340      1341
 -1       204    8    0    1
 -2        26       183       184      1338      1342      1340
 -1       205    8    0    1
 -2        28        27       185      1141      1343      1344
 -1       206    8    0    1
 -2        27       184       185      1341      1345      1343
 -1       207    8    0    1
 -2        29        28       186      1142      1346      1347
 -1       208    8    0    1
 -2        28       185       186      1344      1348      1346
 -1       209    8    0    1
 -2        30        29       187      1143      1349      1350
 -1       210    8    0    1
 -2        29       186       187      1347      1351      1349
 -1       211    8    0    1
 -2        31        30       188      1144      1352      1353
 -1       212    8    0    1
 -2        30       187       188      1350      1354      1352
 -1       213    8    0    1
 -2        32        31       189      1145      1355      1356
 -1       214    8    0    1
 -2        31       188       189      1353      1357      1355
 -1       215    8    0    1
 -2        33        32       190      1146      1358      1359
 -1       216    8    0    1
 -2        32       189       190      1356      1360      1358
 -1       217    8    0    1
 -2        34        33       191      1147      1361      1362
 -1       218    8    0    1
 -2        33       190       191      1359      1363      1361
 -1       219    8    0    1
 -2        35        34       192      1148      1364      1365
 -1       220    8    0    1
 -2        34       191       192      1362      1366      1364
 -1       221    8    0    1
 -2        36        35       193      1149      1367      1368
 -1       222    8    0    1
 -2        35       192       193      1365      1369      1367
 -1       223    8    0    1
 -2        37        36       194      1150      1370      1371
 -1       224    8    0    1
 -2        36       193       194      1368      1372      1370
 -1       225    8    0    1
 -2        38        37       195      1151      1373      1374
 -1       226    8    0    1
 -2        37       194       195      1371      1375      1373
 -1       227    8    0    1
 -2        39        38       196      1152      1376      1377
 -1       228    8    0    1
 -2        38       195       196      1374      1378      1376
 -1       229    8    0    1
 -2        40        39       197      1153      1379      1380
 -1       230    8    0    1
 -2        39       196       197      1377      1381      1379
 -1       231    8    0    1
 -2        41        40       198      1154      1382      1383
 -1       232    8    0    1
 -2        40       197       198      1380      1384      1382
 -1       233    8    0    1
 -2        42        41       199      1155      1385      1386
 -1       234    8    0    1
 -2        41       198       199      1383      1387      1385
 -1       235    8    0    1
 -2        43        42       200      1156      1388      1389
 -1       236    8    0    1
 -2        42       199       200      1386      1390      1388
 -1       237    8    0    1
 -2        44        43       201      1157      1391      1392
 -1       238    8    0    1
 -2        43       200       201      1389      1393      1391
 -1       239    8    0    1
 -2        45        44       202      1158      1394      1395
 -1       240    8    0    1
 -2        44       201       202      1392      1396      1394
 -1       241    8    0    1
 -2        46        45       203      1159      1397      1398
 -1       242    8    0    1
 -2        45       202       203      1395      1399      1397
 -1       243    8    0    1
 -2        47        46       204      1160      1400      1401
 -1       244    8    0    1
 -2        46       203       204      1398      1402      1400
 -1       245    8    0    1
 -2        48        47       205      1161      1403      1404
 -1       246    8    0    1
 -2        47       204       205      1401      1405      1403
 -1       247    8    0    1
 -2        49        48       206      1162      1406      1407
 -1       248    8    0    1
 -2        48       205       206      1404      1408      1406
 -1       249    8    0    1
 -2        50        49       207      1163      1409      1410
 -1       250    8    0    1
 -2        49       206       207      1407      1411      1409
 -1       251    8    0    1
 -2        51        50       208      1164      1412      1413
 -1       252    8    0    1
 -2        50       207       208      1410      1414      1412
 -1       253    8    0    1
 -2        52        51       209      1165      1415      1416
 -1       254    8    0    1
 -2        51       208       209      1413      1417      1415
 -1       255    8    0    1
 -2        53        52       210      1166      1418      1419
 -1       256    8    0    1
 -2        52       209       210      1416      1420      1418
 -1       257    8    0    1
 -2        54        53       211      1167      1421      1422
 -1       258    8    0    1
 -2        53       210       211      1419      1423      1421
 -1       259    8    0    1
 -2        55        54       212      1168      1424      1425
 -1       260    8    0    1
 -2        54       211       212      1422      1426      1424
 -1       261    8    0    1
 -2        56        55       213      1169      1427      1428
 -1       262    8    0    1
 -2        55       212       213      1425      1429      1427
 -1       263    8    0    1
 -2        57        56       214      1170      1430      1431
 -1       264    8    0    1
 -2        56       213       214      1428      1432      1430
 -1       265    8    0    1
 -2        58        57       215      1171      1433      1434
 -1       266    8    0    1
 -2        57       214       215      1431      1435      1433
 -1       267    8    0    1
 -2        59        58       216      1172      1436      1437
 -1       268    8    0    1
 -2        58       215       216      1434      1438      1436
 -1       269    8    0    1
 -2        60        59       217      1173      1439      1440
 -1       270    8    0    1
 -2        59       216       217      1437      1441      1439
 -1       271    8    0    1
 -2        61        60       218      1174      1442      1443
 -1       272    8    0    1
 -2        60       217       218      1440      1444      1442
 -1       273    8    0    1
 -2        62        61       219      1175      1445      1446
 -1       274    8    0    1
 -2        61       218       219      1443      1447      1445
 -1       275    8    0    1
 -2        63        62       220      1176      1448      1449
 -1       276    8    0    1
 -2        62       219       220      1446      1450      1448
 -1       277    8    0    1
 -2        64        63       221      1177      1451      1452
 -1       278    8    0    1
 -2        63       220       221      1449      1453      1451
 -1       279    8    0    1
 -2        65        64       222      1178      1454      1455
 -1       280    8    0    1
 -2        64       221       222      1452      1456      1454
 -1       281    8    0    1
 -2        66        65       223      1179      1457      1458
 -1       282    8    0    1
 -2        65       222       223      1455      1459      1457
 -1       283    8    0    1
 -2        67        66       224      1180      1460      1461
 -1       284    8    0    1
 -2        66       223       224      1458      1462      1460
 -1       285    8    0    1
 -2        68        67       225      1181      1463      1464
 -1       286    8    0    1
 -2        67       224       225      1461      1465      1463
 -1       287    8    0    1
 -2        69        68       226      1182      1466      1467
 -1       288    8    0    1
 -2        68       225       226      1464      1468      1466
 -1       289    8    0    1
 -2        70        69       227      1183      1469      1470
 -1       290    8    0    1
 -2        69       226       227      1467      1471      1469
 -1       291    8    0    1
 -2        71        70       228      1184      1472      1473
 -1       292    8    0    1
 -2        70       227       228      1470      1474      1472
 -1       293    8    0    1
 -2         4        71       136      1185      1475      1252
 -1       294    8    0    1
 -2       136        71       228      1475      1473      1476
 -1       295    8    0    1
 -2        72        73       229      1187      1477      1478
 -1       296    8    0    1
 -2        72       229       180      1478      1479      1331
 -1       297    8    0    1
 -2        73        74       230      1188      1480      1481
 -1       298    8    0    1
 -2        73       230       229      1481      1482      1477
 -1       299    8    0    1
 -2        74        75       231      1189      1483      1484
 -1       300    8    0    1
 -2        74       231       230      1484      1485      1480
 -1       301    8    0    1
 -2        75        76       232      1190      1486      1487
 -1       302    8    0    1
 -2        75       232       231      1487      1488      1483
 -1       303    8    0    1
 -2        76        77       233      1191      1489      1490
 -1       304    8    0    1
 -2        76       233       232      1490      1491      1486
 -1       305    8    0    1
 -2        77        78       234      1192      1492      1493
 -1       306    8    0    1
 -2        77       234       233      1493      1494      1489
 -1       307    8    0    1
 -2        78        79       235      1193      1495      1496
 -1       308    8    0    1
 -2        78       235       234      1496      1497      1492
 -1       309    8    0    1
 -2        79        80       236      1194      1498      1499
 -1       310    8    0    1
 -2        79       236       235      1499      1500      1495
 -1       311    8    0    1
 -2        80        81       237      1195      1501      1502
 -1       312    8    0    1
 -2        80       237       236      1502      1503      1498
 -1       313    8    0    1
 -2        81        82       238      1196      1504      1505
 -1       314    8    0    1
 -2        81       238       237      1505      1506      1501
 -1       315    8    0    1
 -2        82        83       239      1197      1507      1508
 -1       316    8    0    1
 -2        82       239       238      1508      1509      1504
 -1       317    8    0    1
 -2        83        84       240      1198      1510      1511
 -1       318    8    0    1
 -2        83       240       239      1511      1512      1507
 -1       319    8    0    1
 -2        84        85       241      1199      1513      1514
 -1       320    8    0    1
 -2        84       241       240      1514      1515      1510
 -1       321    8    0    1
 -2        85        86       242      1200      1516      1517
 -1       322    8    0    1
 -2        85       242       241      1517      1518      1513
 -1       323    8    0    1
 -2        86        87       243      1201      1519      1520
 -1       324    8    0    1
 -2        86       243       242      1520      1521      1516
 -1       325    8    0    1
 -2        87        88       244      1202      1522      1523
 -1       326    8    0    1
 -2        87       244       243      1523      1524      1519
 -1       327    8    0    1
 -2        88        89       245      1203      1525      1526
 -1       328    8    0    1
 -2        88       245       244      1526      1527      1522
 -1       329    8    0    1
 -2        89        90       246      1204      1528      1529
 -1       330    8    0    1
 -2        89       246       245      1529      1530      1525
 -1       331    8    0    1
 -2        90        91       247      1205      1531      1532
 -1       332    8    0    1
 -2        90       247       246      1532      1533      1528
 -1       333    8    0    1
 -2        91        92       248      1206      1534      1535
 -1       334    8    0    1
 -2        91       248       247      1535      1536      1531
 -1       335    8    0    1
 -2        92        93       249      1207      1537      1538
 -1       336    8    0    1
 -2        92       249       248      1538      1539      1534
 -1       337    8    0    1
 -2        93        94       250      1208      1540      1541
 -1       338    8    0    1
 -2        93       250       249      1541      1542      1537
 -1       339    8    0    1
 -2        94        95       251      1209      1543      1544
 -1       340    8    0    1
 -2        94       251       250      1544      1545      1540
 -1       341    8    0    1
 -2        95        96       252      1210      1546      1547
 -1       342    8    0    1
 -2        95       252       251      1547      1548      1543
 -1       343    8    0    1
 -2        96        97       253      1211      1549      1550
 -1       344    8    0    1
 -2        96       253       252      1550      1551      1546
 -1       345    8    0    1
 -2        97        98       254      1212      1552      1553
 -1       346    8    0    1
 -2        97       254       253      1553      1554      1549
 -1       347    8    0    1
 -2        98        99       255      1213      1555      1556
 -1       348    8    0    1
 -2        98       255       254      1556      1557      1552
 -1       349    8    0    1
 -2        99       100       256      1214      1558      1559
 -1       350    8    0    1
 -2        99       256       255      1559      1560      1555
 -1       351    8    0    1
 -2       100       101       257      1215      1561      1562
 -1       352    8    0    1
 -2       100       257       256      1562      1563      1558
 -1       353    8    0    1
 -2       101       102       258      1216      1564      1565
 -1       354    8    0    1
 -2       101       258       257      1565      1566      1561
 -1       355    8    0    1
 -2       102       103       259      1217      1567      1568
 -1       356    8    0    1
 -2       102       259       258      1568      1569      1564
 -1       357    8    0    1
 -2       103       104       260      1218      1570      1571
 -1       358    8    0    1
 -2       103       260       259      1571      1572      1567
 -1       359    8    0    1
 -2       104       105       261      1219      1573      1574
 -1       360    8    0    1
 -2       104       261       260      1574      1575      1570
 -1       361    8    0    1
 -2       105       106       262      1220      1576      1577
 -1       362    8    0    1
 -2       105       262       261      1577      1578      1573
 -1       363    8    0    1
 -2       106       107       263      1221      1579      1580
 -1       364    8    0    1
 -2       106       263       262      1580      1581      1576
 -1       365    8    0    1
 -2       107       108       264      1222      1582      1583
 -1       366    8    0    1
 -2       107       264       263      1583      1584      1579
 -1       367    8    0    1
 -2       108       109       265      1223      1585      1586
 -1       368    8    0    1
 -2       108       265       264      1586      1587      1582
 -1       369    8    0    1
 -2       109       110       266      1224      1588      1589
 -1       370    8    0    1
 -2       109       266       265      1589      1590      1585
 -1       371    8    0    1
 -2       110       111       267      1225      1591      1592
 -1       372    8    0    1
 -2       110       267       266      1592      1593      1588
 -1       373    8    0    1
 -2       111       112       268      1226      1594      1595
 -1       374    8    0    1
 -2       111       268       267      1595      1596      1591
 -1       375    8    0    1
 -2       112       113       269      1227      1597      1598
 -1       376    8    0    1
 -2       112       269       268      1598      1599      1594
 -1       377    8    0    1
 -2       113       114       270      1228      1600      1601
 -1       378    8    0    1
 -2       113       270       269      1601      1602      1597
 -1       379    8    0    1
 -2       114       115       271      1229      1603      1604
 -1       380    8    0    1
 -2       114       271       270      1604      1605      1600
 -1       381    8    0    1
 -2       115       116       272      1230      1606      1607
 -1       382    8    0    1
 -2       115       272       271      1607      1608      1603
 -1       383    8    0    1
 -2       116       117       273      1231      1609      1610
 -1       384    8    0    1
 -2       116       273       272      1610      1611      1606
 -1       385    8    0    1
 -2       117       118       274      1232      1612      1613
 -1       386    8    0    1
 -2       117       274       273      1613      1614      1609
 -1       387    8    0    1
 -2       118       119       275      1233      1615      1616
 -1       388    8    0    1
 -2       118       275       274      1616      1617      1612
 -1       389    8    0    1
 -2       119       120       276      1234      1618      1619
 -1       390    8    0    1
 -2       119       276       275      1619      1620      1615
 -1       391    8    0    1
 -2       120         3       121      1235      1236      1621
 -1       392    8    0    1
 -2       121       122       277      1237      1622      1623
 -1       393    8    0    1
 -2       122       123       278      1238      1624      1625
 -1       394    8    0    1
 -2       122       278       277      1625      1626      1622
 -1       395    8    0    1
 -2       123       124       279      1239      1627      1628
 -1       396    8    0    1
 -2       123       279       278      1628      1629      1624
 -1       397    8    0    1
 -2       124       125       280      1240      1630      1631
 -1       398    8    0    1
 -2       124       280       279      1631      1632      1627
 -1       399    8    0    1
 -2       125       126       281      1241      1633      1634
 -1       400    8    0    1
 -2       125       281       280      1634      1635      1630
 -1       401    8    0    1
 -2       126       127       282      1242      1636      1637
 -1       402    8    0    1
 -2       126       282       281      1637      1638      1633
 -1       403    8    0    1
 -2       127       128       283      1243      1639      1640
 -1       404    8    0    1
 -2       127       283       282      1640      1641      1636
 -1       405    8    0    1
 -2       128       129       284      1244      1642      1643
 -1       406    8    0    1
 -2       128       284       283      1643      1644      1639
 -1       407    8    0    1
 -2       129       130       285      1245      1645      1646
 -1       408    8    0    1
 -2       129       285       284      1646      1647      1642
 -1       409    8    0    1
 -2       130       131       286      1246      1648      1649
 -1       410    8    0    1
 -2       130       286       285      1649      1650      1645
 -1       411    8    0    1
 -2       131       132       287      1247      1651      1652
 -1       412    8    0    1
 -2       131       287       286      1652      1653      1648
 -1       413    8    0    1
 -2       132       133       288      1248      1654      1655
 -1       414    8    0    1
 -2       132       288       287      1655      1656      1651
 -1       415    8    0    1
 -2       133       134       289      1249      1657      1658
 -1       416    8    0    1
 -2       133       289       288      1658      1659      1654
 -1       417    8    0    1
 -2       134       135       290      1250      1660      1661
 -1       418    8    0    1
 -2       134       290       289      1661      1662      1657
 -1       419    8    0    1
 -2       135       136       291      1251      1663      1664
 -1       420    8    0    1
 -2       290       135       291      1660      1664      1665
 -1       421    8    0    1
 -2       136       228       291      1476      1666      1663
 -1       422    8    0    1
 -2         2       137       292      1253      1667      1668
 -1       423    8    0    1
 -2       137       138       293      1254      1669      1670
 -1       424    8    0    1
 -2       138       139       294      1255      1671      1672
 -1       425    8    0    1
 -2       139       140       295      1256      1673      1674
 -1       426    8    0    1
 -2       140       141       296      1257      1675      1676
 -1       427    8    0    1
 -2       141       142       297      1258      1677      1678
 -1       428    8    0    1
 -2       142       143       298      1259      1679      1680
 -1       429    8    0    1
 -2       143       144       299      1260      1681      1682
 -1       430    8    0    1
 -2       144       145       300      1261      1683      1684
 -1       431    8    0    1
 -2       145       146       301      1262      1685      1686
 -1       432    8    0    1
 -2       146       147       302      1263      1687      1688
 -1       433    8    0    1
 -2       147       148       303      1264      1689      1690
 -1       434    8    0    1
 -2       148       149       304      1265      1691      1692
 -1       435    8    0    1
 -2       149       150       305      1266      1693      1694
 -1       436    8    0    1
 -2       150       151       306      1267      1695      1696
 -1       437    8    0    1
 -2       151       152       307      1268      1697      1698
 -1       438    8    0    1
 -2       152       153       308      1269      1699      1700
 -1       439    8    0    1
 -2       153       154       309      1270      1701      1702
 -1       440    8    0    1
 -2       154       155       310      1271      1703      1704
 -1       441    8    0    1
 -2       155       156       311      1272      1705      1706
 -1       442    8    0    1
 -2       156       157       312      1273      1707      1708
 -1       443    8    0    1
 -2       157         1       313      1274      1709      1710
 -1       444    8    0    1
 -2         1       158       314      1275      1711      1712
 -1       445    8    0    1
 -2       158       159       315      1276      1713      1714
 -1       446    8    0    1
 -2       159       160       316      1277      1715      1716
 -1       447    8    0    1
 -2       160       161       317      1278      1717      1718
 -1       448    8    0    1
 -2       161       162       318      1279      1719      1720
 -1       449    8    0    1
 -2       161       318       317      1720      1721      1717
 -1       450    8    0    1
 -2       162       163       319      1280      1722      1723
 -1       451    8    0    1
 -2       163       164       320      1281      1724      1725
 -1       452    8    0    1
 -2       164         2       321      1282      1726      1727
 -1       453    8    0    1
 -2       295       140       296      1673      1676      1728
 -1       454    8    0    1
 -2       294       139       295      1671      1674      1729
 -1       455    8    0    1
 -2       120       121       276      1621      1730      1618
 -1       456    8    0    1
 -2       121       277       276      1623      1731      1730
 -1       457    8    0    1
 -2       292       137       293      1667      1670      1732
 -1       458    8    0    1
 -2       293       138       294      1669      1672      1733
 -1       459    8    0    1
 -2         2       292       321      1668      1734      1726
 -1       460    8    0    1
 -2       141       297       296      1678      1735      1675
 -1       461    8    0    1
 -2       142       298       297      1680      1736      1677
 -1       462    8    0    1
 -2       143       299       298      1682      1737      1679
 -1       463    8    0    1
 -2       144       300       299      1684      1738      1681
 -1       464    8    0    1
 -2       145       301       300      1686      1739      1683
 -1       465    8    0    1
 -2       146       302       301      1688      1740      1685
 -1       466    8    0    1
 -2       147       303       302      1690      1741      1687
 -1       467    8    0    1
 -2       148       304       303      1692      1742      1689
 -1       468    8    0    1
 -2       149       305       304      1694      1743      1691
 -1       469    8    0    1
 -2       150       306       305      1696      1744      1693
 -1       470    8    0    1
 -2       151       307       306      1698      1745      1695
 -1       471    8    0    1
 -2       152       308       307      1700      1746      1697
 -1       472    8    0    1
 -2       153       309       308      1702      1747      1699
 -1       473    8    0    1
 -2       154       310       309      1704      1748      1701
 -1       474    8    0    1
 -2       155       311       310      1706      1749      1703
 -1       475    8    0    1
 -2       156       312       311      1708      1750      1705
 -1       476    8    0    1
 -2       157       313       312      1710      1751      1707
 -1       477    8    0    1
 -2         1       314       313      1712      1752      1709
 -1       478    8    0    1
 -2       158       315       314      1714      1753      1711
 -1       479    8    0    1
 -2       159       316       315      1716      1754      1713
 -1       480    8    0    1
 -2       160       317       316      1718      1755      1715
 -1       481    8    0    1
 -2       319       163       320      1722      1725      1756
 -1       482    8    0    1
 -2       164       321       320      1727      1757      1724
 -1       483    8    0    1
 -2        23         7       165      1283      1285      1758
 -1       484    8    0    1
 -2       162       319       318      1723      1759      1719
 -1       485    8    0    1
 -2       166       167       322      1291      1760      1761
 -1       486    8    0    1
 -2       165       166       323      1288      1762      1763
 -1       487    8    0    1
 -2       166       322       323      1761      1764      1762
 -1       488    8    0    1
 -2       168       169       324      1297      1765      1766
 -1       489    8    0    1
 -2       169       170       325      1300      1767      1768
 -1       490    8    0    1
 -2       169       325       324      1768      1769      1765
 -1       491    8    0    1
 -2       170       171       326      1303      1770      1771
 -1       492    8    0    1
 -2       170       326       325      1771      1772      1767
 -1       493    8    0    1
 -2       171       172       327      1306      1773      1774
 -1       494    8    0    1
 -2       171       327       326      1774      1775      1770
 -1       495    8    0    1
 -2       172       173       328      1309      1776      1777
 -1       496    8    0    1
 -2       172       328       327      1777      1778      1773
 -1       497    8    0    1
 -2       173       174       329      1312      1779      1780
 -1       498    8    0    1
 -2       173       329       328      1780      1781      1776
 -1       499    8    0    1
 -2       174       175       330      1315      1782      1783
 -1       500    8    0    1
 -2       174       330       329      1783      1784      1779
 -1       501    8    0    1
 -2       175       176       331      1318      1785      1786
 -1       502    8    0    1
 -2       175       331       330      1786      1787      1782
 -1       503    8    0    1
 -2       176       177       332      1321      1788      1789
 -1       504    8    0    1
 -2       176       332       331      1789      1790      1785
 -1       505    8    0    1
 -2       177       178       333      1324      1791      1792
 -1       506    8    0    1
 -2       177       333       332      1792      1793      1788
 -1       507    8    0    1
 -2       178       179       334      1327      1794      1795
 -1       508    8    0    1
 -2       178       334       333      1795      1796      1791
 -1       509    8    0    1
 -2       179       180       335      1330      1797      1798
 -1       510    8    0    1
 -2       334       179       335      1794      1798      1799
 -1       511    8    0    1
 -2       180       229       335      1479      1800      1797
 -1       512    8    0    1
 -2       181        23       165      1332      1758      1801
 -1       513    8    0    1
 -2       229       230       336      1482      1802      1803
 -1       514    8    0    1
 -2       229       336       335      1803      1804      1800
 -1       515    8    0    1
 -2       318       319       337      1759      1805      1806
 -1       516    8    0    1
 -2       181       165       323      1801      1763      1807
 -1       517    8    0    1
 -2       183       182       338      1339      1808      1809
 -1       518    8    0    1
 -2       184       183       339      1342      1810      1811
 -1       519    8    0    1
 -2       183       338       339      1809      1812      1810
 -1       520    8    0    1
 -2       185       184       340      1345      1813      1814
 -1       521    8    0    1
 -2       184       339       340      1811      1815      1813
 -1       522    8    0    1
 -2       186       185       341      1348      1816      1817
 -1       523    8    0    1
 -2       185       340       341      1814      1818      1816
 -1       524    8    0    1
 -2       187       186       342      1351      1819      1820
 -1       525    8    0    1
 -2       186       341       342      1817      1821      1819
 -1       526    8    0    1
 -2       188       187       343      1354      1822      1823
 -1       527    8    0    1
 -2       187       342       343      1820      1824      1822
 -1       528    8    0    1
 -2       189       188       344      1357      1825      1826
 -1       529    8    0    1
 -2       188       343       344      1823      1827      1825
 -1       530    8    0    1
 -2       190       189       345      1360      1828      1829
 -1       531    8    0    1
 -2       189       344       345      1826      1830      1828
 -1       532    8    0    1
 -2       191       190       346      1363      1831      1832
 -1       533    8    0    1
 -2       190       345       346      1829      1833      1831
 -1       534    8    0    1
 -2       192       191       347      1366      1834      1835
 -1       535    8    0    1
 -2       191       346       347      1832      1836      1834
 -1       536    8    0    1
 -2       193       192       348      1369      1837      1838
 -1       537    8    0    1
 -2       192       347       348      1835      1839      1837
 -1       538    8    0    1
 -2       194       193       349      1372      1840      1841
 -1       539    8    0    1
 -2       193       348       349      1838      1842      1840
 -1       540    8    0    1
 -2       195       194       350      1375      1843      1844
 -1       541    8    0    1
 -2       194       349       350      1841      1845      1843
 -1       542    8    0    1
 -2       196       195       351      1378      1846      1847
 -1       543    8    0    1
 -2       195       350       351      1844      1848      1846
 -1       544    8    0    1
 -2       197       196       352      1381      1849      1850
 -1       545    8    0    1
 -2       196       351       352      1847      1851      1849
 -1       546    8    0    1
 -2       198       197       353      1384      1852      1853
 -1       547    8    0    1
 -2       197       352       353      1850      1854      1852
 -1       548    8    0    1
 -2       199       198       354      1387      1855      1856
 -1       549    8    0    1
 -2       198       353       354      1853      1857      1855
 -1       550    8    0    1
 -2       200       199       355      1390      1858      1859
 -1       551    8    0    1
 -2       199       354       355      1856      1860      1858
 -1       552    8    0    1
 -2       201       200       356      1393      1861      1862
 -1       553    8    0    1
 -2       200       355       356      1859      1863      1861
 -1       554    8    0    1
 -2       202       201       357      1396      1864      1865
 -1       555    8    0    1
 -2       201       356       357      1862      1866      1864
 -1       556    8    0    1
 -2       203       202       358      1399      1867      1868
 -1       557    8    0    1
 -2       202       357       358      1865      1869      1867
 -1       558    8    0    1
 -2       204       203       359      1402      1870      1871
 -1       559    8    0    1
 -2       203       358       359      1868      1872      1870
 -1       560    8    0    1
 -2       205       204       360      1405      1873      1874
 -1       561    8    0    1
 -2       204       359       360      1871      1875      1873
 -1       562    8    0    1
 -2       206       205       361      1408      1876      1877
 -1       563    8    0    1
 -2       205       360       361      1874      1878      1876
 -1       564    8    0    1
 -2       207       206       362      1411      1879      1880
 -1       565    8    0    1
 -2       206       361       362      1877      1881      1879
 -1       566    8    0    1
 -2       208       207       363      1414      1882      1883
 -1       567    8    0    1
 -2       207       362       363      1880      1884      1882
 -1       568    8    0    1
 -2       209       208       364      1417      1885      1886
 -1       569    8    0    1
 -2       208       363       364      1883      1887      1885
 -1       570    8    0    1
 -2       210       209       365      1420      1888      1889
 -1       571    8    0    1
 -2       209       364       365      1886      1890      1888
 -1       572    8    0    1
 -2       211       210       366      1423      1891      1892
 -1       573    8    0    1
 -2       210       365       366      1889      1893      1891
 -1       574    8    0    1
 -2       212       211       367      1426      1894      1895
 -1       575    8    0    1
 -2       211       366       367      1892      1896      1894
 -1       576    8    0    1
 -2       213       212       368      1429      1897      1898
 -1       577    8    0    1
 -2       212       367       368      1895      1899      1897
 -1       578    8    0    1
 -2       214       213       369      1432      1900      1901
 -1       579    8    0    1
 -2       213       368       369      1898      1902      1900
 -1       580    8    0    1
 -2       215       214       370      1435      1903      1904
 -1       581    8    0    1
 -2       214       369       370      1901      1905      1903
 -1       582    8    0    1
 -2       216       215       371      1438      1906      1907
 -1       583    8    0    1
 -2       215       370       371      1904      1908      1906
 -1       584    8    0    1
 -2       217       216       372      1441      1909      1910
 -1       585    8    0    1
 -2       216       371       372      1907      1911      1909
 -1       586    8    0    1
 -2       218       217       373      1444      1912      1913
 -1       587    8    0    1
 -2       217       372       373      1910      1914      1912
 -1       588    8    0    1
 -2       219       218       374      1447      1915      1916
 -1       589    8    0    1
 -2       218       373       374      1913      1917      1915
 -1       590    8    0    1
 -2       220       219       375      1450      1918      1919
 -1       591    8    0    1
 -2       219       374       375      1916      1920      1918
 -1       592    8    0    1
 -2       221       220       376      1453      1921      1922
 -1       593    8    0    1
 -2       220       375       376      1919      1923      1921
 -1       594    8    0    1
 -2       222       221       377      1456      1924      1925
 -1       595    8    0    1
 -2       221       376       377      1922      1926      1924
 -1       596    8    0    1
 -2       223       222       378      1459      1927      1928
 -1       597    8    0    1
 -2       222       377       378      1925      1929      1927
 -1       598    8    0    1
 -2       224       223       379      1462      1930      1931
 -1       599    8    0    1
 -2       223       378       379      1928      1932      1930
 -1       600    8    0    1
 -2       225       224       380      1465      1933      1934
 -1       601    8    0    1
 -2       224       379       380      1931      1935      1933
 -1       602    8    0    1
 -2       226       225       381      1468      1936      1937
 -1       603    8    0    1
 -2       225       380       381      1934      1938      1936
 -1       604    8    0    1
 -2       227       226       382      1471      1939      1940
 -1       605    8    0    1
 -2       226       381       382      1937      1941      1939
 -1       606    8    0    1
 -2       228       227       383      1474      1942      1943
 -1       607    8    0    1
 -2       291       228       383      1666      1943      1944
 -1       608    8    0    1
 -2       227       382       383      1940      1945      1942
 -1       609    8    0    1
 -2       230       231       384      1485      1946      1947
 -1       610    8    0    1
 -2       230       384       336      1947      1948      1802
 -1       611    8    0    1
 -2       231       232       385      1488      1949      1950
 -1       612    8    0    1
 -2       231       385       384      1950      1951      1946
 -1       613    8    0    1
 -2       232       233       386      1491      1952      1953
 -1       614    8    0    1
 -2       232       386       385      1953      1954      1949
 -1       615    8    0    1
 -2       233       234       387      1494      1955      1956
 -1       616    8    0    1
 -2       233       387       386      1956      1957      1952
 -1       617    8    0    1
 -2       234       235       388      1497      1958      1959
 -1       618    8    0    1
 -2       234       388       387      1959      1960      1955
 -1       619    8    0    1
 -2       235       236       389      1500      1961      1962
 -1       620    8    0    1
 -2       235       389       388      1962      1963      1958
 -1       621    8    0    1
 -2       236       237       390      1503      1964      1965
 -1       622    8    0    1
 -2       236       390       389      1965      1966      1961
 -1       623    8    0    1
 -2       237       238       391      1506      1967      1968
 -1       624    8    0    1
 -2       237       391       390      1968      1969      1964
 -1       625    8    0    1
 -2       238       239       392      1509      1970      1971
 -1       626    8    0    1
 -2       238       392       391      1971      1972      1967
 -1       627    8    0    1
 -2       239       240       393      1512      1973      1974
 -1       628    8    0    1
 -2       239       393       392      1974      1975      1970
 -1       629    8    0    1
 -2       240       241       394      1515      1976      1977
 -1       630    8    0    1
 -2       240       394       393      1977      1978      1973
 -1       631    8    0    1
 -2       241       242       395      1518      1979      1980
 -1       632    8    0    1
 -2       241       395       394      1980      1981      1976
 -1       633    8    0    1
 -2       242       243       396      1521      1982      1983
 -1       634    8    0    1
 -2       242       396       395      1983      1984      1979
 -1       635    8    0    1
 -2       243       244       397      1524      1985      1986
 -1       636    8    0    1
 -2       243       397       396      1986      1987      1982
 -1       637    8    0    1
 -2       244       245       398      1527      1988      1989
 -1       638    8    0    1
 -2       244       398       397      1989      1990      1985
 -1       639    8    0    1
 -2       245       246       399      1530      1991      1992
 -1       640    8    0    1
 -2       245       399       398      1992      1993      1988
 -1       641    8    0    1
 -2       246       247       400      1533      1994      1995
 -1       642    8    0    1
 -2       246       400       399      1995      1996      1991
 -1       643    8    0    1
 -2       247       248       401      1536      1997      1998
 -1       644    8    0    1
 -2       247       401       400      1998      1999      1994
 -1       645    8    0    1
 -2       248       249       402      1539      2000      2001
 -1       646    8    0    1
 -2       248       402       401      2001      2002      1997
 -1       647    8    0    1
 -2       249       250       403      1542      2003      2004
 -1       648    8    0    1
 -2       249       403       402      2004      2005      2000
 -1       649    8    0    1
 -2       250       251       404      1545      2006      2007
 -1       650    8    0    1
 -2       250       404       403      2007      2008      2003
 -1       651    8    0    1
 -2       251       252       405      1548      2009      2010
 -1       652    8    0    1
 -2       251       405       404      2010      2011      2006
 -1       653    8    0    1
 -2       252       253       406      1551      2012      2013
 -1       654    8    0    1
 -2       252       406       405      2013      2014      2009
 -1       655    8    0    1
 -2       253       254       407      1554      2015      2016
 -1       656    8    0    1
 -2       253       407       406      2016      2017      2012
 -1       657    8    0    1
 -2       254       255       408      1557      2018      2019
 -1       658    8    0    1
 -2       254       408       407      2019      2020      2015
 -1       659    8    0    1
 -2       255       256       409      1560      2021      2022
 -1       660    8    0    1
 -2       255       409       408      2022      2023      2018
 -1       661    8    0    1
 -2       256       257       410      1563      2024      2025
 -1       662    8    0    1
 -2       256       410       409      2025      2026      2021
 -1       663    8    0    1
 -2       257       258       411      1566      2027      2028
 -1       664    8    0    1
 -2       257       411       410      2028      2029      2024
 -1       665    8    0    1
 -2       258       259       412      1569      2030      2031
 -1       666    8    0    1
 -2       258       412       411      2031      2032      2027
 -1       667    8    0    1
 -2       259       260       413      1572      2033      2034
 -1       668    8    0    1
 -2       259       413       412      2034      2035      2030
 -1       669    8    0    1
 -2       260       261       414      1575      2036      2037
 -1       670    8    0    1
 -2       260       414       413      2037      2038      2033
 -1       671    8    0    1
 -2       261       262       415      1578      2039      2040
 -1       672    8    0    1
 -2       261       415       414      2040      2041      2036
 -1       673    8    0    1
 -2       262       263       416      1581      2042      2043
 -1       674    8    0    1
 -2       262       416       415      2043      2044      2039
 -1       675    8    0    1
 -2       263       264       417      1584      2045      2046
 -1       676    8    0    1
 -2       263       417       416      2046      2047      2042
 -1       677    8    0    1
 -2       264       265       418      1587      2048      2049
 -1       678    8    0    1
 -2       264       418       417      2049      2050      2045
 -1       679    8    0    1
 -2       265       266       419      1590      2051      2052
 -1       680    8    0    1
 -2       265       419       418      2052      2053      2048
 -1       681    8    0    1
 -2       266       267       420      1593      2054      2055
 -1       682    8    0    1
 -2       266       420       419      2055      2056      2051
 -1       683    8    0    1
 -2       267       268       421      1596      2057      2058
 -1       684    8    0    1
 -2       267       421       420      2058      2059      2054
 -1       685    8    0    1
 -2       268       269       422      1599      2060      2061
 -1       686    8    0    1
 -2       268       422       421      2061      2062      2057
 -1       687    8    0    1
 -2       269       270       423      1602      2063      2064
 -1       688    8    0    1
 -2       269       423       422      2064      2065      2060
 -1       689    8    0    1
 -2       270       271       424      1605      2066      2067
 -1       690    8    0    1
 -2       270       424       423      2067      2068      2063
 -1       691    8    0    1
 -2       271       272       425      1608      2069      2070
 -1       692    8    0    1
 -2       271       425       424      2070      2071      2066
 -1       693    8    0    1
 -2       272       273       426      1611      2072      2073
 -1       694    8    0    1
 -2       272       426       425      2073      2074      2069
 -1       695    8    0    1
 -2       273       274       427      1614      2075      2076
 -1       696    8    0    1
 -2       273       427       426      2076      2077      2072
 -1       697    8    0    1
 -2       274       275       428      1617      2078      2079
 -1       698    8    0    1
 -2       274       428       427      2079      2080      2075
 -1       699    8    0    1
 -2       275       276       429      1620      2081      2082
 -1       700    8    0    1
 -2       428       275       429      2078      2082      2083
 -1       701    8    0    1
 -2       276       277       429      1731      2084      2081
 -1       702    8    0    1
 -2       279       280       430      1632      2085      2086
 -1       703    8    0    1
 -2       278       279       431      1629      2087      2088
 -1       704    8    0    1
 -2       279       430       431      2086      2089      2087
 -1       705    8    0    1
 -2       277       278       432      1626      2090      2091
 -1       706    8    0    1
 -2       429       277       432      2084      2091      2092
 -1       707    8    0    1
 -2       278       431       432      2088      2093      2090
 -1       708    8    0    1
 -2       280       281       433      1635      2094      2095
 -1       709    8    0    1
 -2       280       433       430      2095      2096      2085
 -1       710    8    0    1
 -2       281       282       434      1638      2097      2098
 -1       711    8    0    1
 -2       281       434       433      2098      2099      2094
 -1       712    8    0    1
 -2       282       283       435      1641      2100      2101
 -1       713    8    0    1
 -2       282       435       434      2101      2102      2097
 -1       714    8    0    1
 -2       283       284       436      1644      2103      2104
 -1       715    8    0    1
 -2       283       436       435      2104      2105      2100
 -1       716    8    0    1
 -2       284       285       437      1647      2106      2107
 -1       717    8    0    1
 -2       284       437       436      2107      2108      2103
 -1       718    8    0    1
 -2       285       286       438      1650      2109      2110
 -1       719    8    0    1
 -2       285       438       437      2110      2111      2106
 -1       720    8    0    1
 -2       286       287       439      1653      2112      2113
 -1       721    8    0    1
 -2       286       439       438      2113      2114      2109
 -1       722    8    0    1
 -2       287       288       440      1656      2115      2116
 -1       723    8    0    1
 -2       287       440       439      2116      2117      2112
 -1       724    8    0    1
 -2       288       289       441      1659      2118      2119
 -1       725    8    0    1
 -2       288       441       440      2119      2120      2115
 -1       726    8    0    1
 -2       289       290       442      1662      2121      2122
 -1       727    8    0    1
 -2       289       442       441      2122      2123      2118
 -1       728    8    0    1
 -2       293       294       443      1733      2124      2125
 -1       729    8    0    1
 -2       321       292       444      1734      2126      2127
 -1       730    8    0    1
 -2       292       293       445      1732      2128      2129
 -1       731    8    0    1
 -2       294       295       446      1729      2130      2131
 -1       732    8    0    1
 -2       317       318       447      1721      2132      2133
 -1       733    8    0    1
 -2       318       337       447      1806      2134      2132
 -1       734    8    0    1
 -2       320       321       448      1757      2135      2136
 -1       735    8    0    1
 -2       321       444       448      2127      2137      2135
 -1       736    8    0    1
 -2       295       296       449      1728      2138      2139
 -1       737    8    0    1
 -2       295       449       446      2139      2140      2130
 -1       738    8    0    1
 -2       167       168       450      1294      2141      2142
 -1       739    8    0    1
 -2       322       167       450      1760      2142      2143
 -1       740    8    0    1
 -2       168       324       450      1766      2144      2141
 -1       741    8    0    1
 -2       297       298       451      1736      2145      2146
 -1       742    8    0    1
 -2       298       299       452      1737      2147      2148
 -1       743    8    0    1
 -2       298       452       451      2148      2149      2145
 -1       744    8    0    1
 -2       299       300       453      1738      2150      2151
 -1       745    8    0    1
 -2       300       301       454      1739      2152      2153
 -1       746    8    0    1
 -2       300       454       453      2153      2154      2150
 -1       747    8    0    1
 -2       301       302       455      1740      2155      2156
 -1       748    8    0    1
 -2       302       303       456      1741      2157      2158
 -1       749    8    0    1
 -2       303       304       457      1742      2159      2160
 -1       750    8    0    1
 -2       303       457       456      2160      2161      2157
 -1       751    8    0    1
 -2       304       305       458      1743      2162      2163
 -1       752    8    0    1
 -2       305       306       459      1744      2164      2165
 -1       753    8    0    1
 -2       305       459       458      2165      2166      2162
 -1       754    8    0    1
 -2       306       307       460      1745      2167      2168
 -1       755    8    0    1
 -2       307       308       461      1746      2169      2170
 -1       756    8    0    1
 -2       308       309       462      1747      2171      2172
 -1       757    8    0    1
 -2       309       310       463      1748      2173      2174
 -1       758    8    0    1
 -2       310       311       464      1749      2175      2176
 -1       759    8    0    1
 -2       310       464       463      2176      2177      2173
 -1       760    8    0    1
 -2       311       312       465      1750      2178      2179
 -1       761    8    0    1
 -2       312       313       466      1751      2180      2181
 -1       762    8    0    1
 -2       312       466       465      2181      2182      2178
 -1       763    8    0    1
 -2       313       314       467      1752      2183      2184
 -1       764    8    0    1
 -2       314       315       468      1753      2185      2186
 -1       765    8    0    1
 -2       314       468       467      2186      2187      2183
 -1       766    8    0    1
 -2       315       316       469      1754      2188      2189
 -1       767    8    0    1
 -2       316       317       470      1755      2190      2191
 -1       768    8    0    1
 -2       319       320       471      1756      2192      2193
 -1       769    8    0    1
 -2       296       297       472      1735      2194      2195
 -1       770    8    0    1
 -2       297       451       472      2146      2196      2194
 -1       771    8    0    1
 -2       320       448       471      2136      2197      2192
 -1       772    8    0    1
 -2       337       319       471      1805      2193      2198
 -1       773    8    0    1
 -2       182       181       323      1336      1807      2199
 -1       774    8    0    1
 -2       338       182       323      1808      2199      2200
 -1       775    8    0    1
 -2       445       293       443      2128      2125      2201
 -1       776    8    0    1
 -2       444       292       445      2126      2129      2202
 -1       777    8    0    1
 -2       442       290       291      2121      1665      2203
 -1       778    8    0    1
 -2       443       294       446      2124      2131      2204
 -1       779    8    0    1
 -2       317       447       470      2133      2205      2190
 -1       780    8    0    1
 -2       468       315       469      2185      2189      2206
 -1       781    8    0    1
 -2       466       313       467      2180      2184      2207
 -1       782    8    0    1
 -2       464       311       465      2175      2179      2208
 -1       783    8    0    1
 -2       462       309       463      2171      2174      2209
 -1       784    8    0    1
 -2       461       308       462      2169      2172      2210
 -1       785    8    0    1
 -2       459       306       473      2164      2211      2212
 -1       786    8    0    1
 -2       306       460       473      2168      2213      2211
 -1       787    8    0    1
 -2       457       304       458      2159      2163      2214
 -1       788    8    0    1
 -2       454       301       455      2152      2156      2215
 -1       789    8    0    1
 -2       449       296       472      2138      2195      2216
 -1       790    8    0    1
 -2       452       299       453      2147      2151      2217
 -1       791    8    0    1
 -2       455       302       474      2155      2218      2219
 -1       792    8    0    1
 -2       302       456       474      2158      2220      2218
 -1       793    8    0    1
 -2       460       307       461      2167      2170      2221
 -1       794    8    0    1
 -2       469       316       470      2188      2191      2222
 -1       795    8    0    1
 -2       336       384       475      1948      2223      2224
 -1       796    8    0    1
 -2       325       326       476      1772      2225      2226
 -1       797    8    0    1
 -2       324       325       477      1769      2227      2228
 -1       798    8    0    1
 -2       325       476       477      2226      2229      2227
 -1       799    8    0    1
 -2       327       328       478      1778      2230      2231
 -1       800    8    0    1
 -2       328       329       479      1781      2232      2233
 -1       801    8    0    1
 -2       328       479       478      2233      2234      2230
 -1       802    8    0    1
 -2       329       330       480      1784      2235      2236
 -1       803    8    0    1
 -2       329       480       479      2236      2237      2232
 -1       804    8    0    1
 -2       330       331       481      1787      2238      2239
 -1       805    8    0    1
 -2       330       481       480      2239      2240      2235
 -1       806    8    0    1
 -2       331       332       482      1790      2241      2242
 -1       807    8    0    1
 -2       331       482       481      2242      2243      2238
 -1       808    8    0    1
 -2       332       333       483      1793      2244      2245
 -1       809    8    0    1
 -2       332       483       482      2245      2246      2241
 -1       810    8    0    1
 -2       339       338       484      1812      2247      2248
 -1       811    8    0    1
 -2       384       385       485      1951      2249      2250
 -1       812    8    0    1
 -2       384       485       475      2250      2251      2223
 -1       813    8    0    1
 -2       338       323       486      2200      2252      2253
 -1       814    8    0    1
 -2       484       338       486      2247      2253      2254
 -1       815    8    0    1
 -2       323       322       486      1764      2255      2252
 -1       816    8    0    1
 -2       340       339       487      1815      2256      2257
 -1       817    8    0    1
 -2       339       484       487      2248      2258      2256
 -1       818    8    0    1
 -2       341       340       488      1818      2259      2260
 -1       819    8    0    1
 -2       340       487       488      2257      2261      2259
 -1       820    8    0    1
 -2       342       341       489      1821      2262      2263
 -1       821    8    0    1
 -2       341       488       489      2260      2264      2262
 -1       822    8    0    1
 -2       343       342       490      1824      2265      2266
 -1       823    8    0    1
 -2       342       489       490      2263      2267      2265
 -1       824    8    0    1
 -2       344       343       491      1827      2268      2269
 -1       825    8    0    1
 -2       343       490       491      2266      2270      2268
 -1       826    8    0    1
 -2       345       344       492      1830      2271      2272
 -1       827    8    0    1
 -2       344       491       492      2269      2273      2271
 -1       828    8    0    1
 -2       346       345       493      1833      2274      2275
 -1       829    8    0    1
 -2       345       492       493      2272      2276      2274
 -1       830    8    0    1
 -2       347       346       494      1836      2277      2278
 -1       831    8    0    1
 -2       346       493       494      2275      2279      2277
 -1       832    8    0    1
 -2       348       347       495      1839      2280      2281
 -1       833    8    0    1
 -2       347       494       495      2278      2282      2280
 -1       834    8    0    1
 -2       349       348       496      1842      2283      2284
 -1       835    8    0    1
 -2       348       495       496      2281      2285      2283
 -1       836    8    0    1
 -2       350       349       497      1845      2286      2287
 -1       837    8    0    1
 -2       349       496       497      2284      2288      2286
 -1       838    8    0    1
 -2       351       350       498      1848      2289      2290
 -1       839    8    0    1
 -2       350       497       498      2287      2291      2289
 -1       840    8    0    1
 -2       352       351       499      1851      2292      2293
 -1       841    8    0    1
 -2       351       498       499      2290      2294      2292
 -1       842    8    0    1
 -2       353       352       500      1854      2295      2296
 -1       843    8    0    1
 -2       352       499       500      2293      2297      2295
 -1       844    8    0    1
 -2       354       353       501      1857      2298      2299
 -1       845    8    0    1
 -2       353       500       501      2296      2300      2298
 -1       846    8    0    1
 -2       355       354       502      1860      2301      2302
 -1       847    8    0    1
 -2       354       501       502      2299      2303      2301
 -1       848    8    0    1
 -2       356       355       503      1863      2304      2305
 -1       849    8    0    1
 -2       355       502       503      2302      2306      2304
 -1       850    8    0    1
 -2       357       356       504      1866      2307      2308
 -1       851    8    0    1
 -2       356       503       504      2305      2309      2307
 -1       852    8    0    1
 -2       358       357       505      1869      2310      2311
 -1       853    8    0    1
 -2       357       504       505      2308      2312      2310
 -1       854    8    0    1
 -2       359       358       506      1872      2313      2314
 -1       855    8    0    1
 -2       358       505       506      2311      2315      2313
 -1       856    8    0    1
 -2       360       359       507      1875      2316      2317
 -1       857    8    0    1
 -2       359       506       507      2314      2318      2316
 -1       858    8    0    1
 -2       361       360       508      1878      2319      2320
 -1       859    8    0    1
 -2       360       507       508      2317      2321      2319
 -1       860    8    0    1
 -2       362       361       509      1881      2322      2323
 -1       861    8    0    1
 -2       361       508       509      2320      2324      2322
 -1       862    8    0    1
 -2       363       362       510      1884      2325      2326
 -1       863    8    0    1
 -2       362       509       510      2323      2327      2325
 -1       864    8    0    1
 -2       364       363       511      1887      2328      2329
 -1       865    8    0    1
 -2       363       510       511      2326      2330      2328
 -1       866    8    0    1
 -2       365       364       512      1890      2331      2332
 -1       867    8    0    1
 -2       364       511       512      2329      2333      2331
 -1       868    8    0    1
 -2       366       365       513      1893      2334      2335
 -1       869    8    0    1
 -2       365       512       513      2332      2336      2334
 -1       870    8    0    1
 -2       367       366       514      1896      2337      2338
 -1       871    8    0    1
 -2       366       513       514      2335      2339      2337
 -1       872    8    0    1
 -2       368       367       515      1899      2340      2341
 -1       873    8    0    1
 -2       367       514       515      2338      2342      2340
 -1       874    8    0    1
 -2       369       368       516      1902      2343      2344
 -1       875    8    0    1
 -2       368       515       516      2341      2345      2343
 -1       876    8    0    1
 -2       370       369       517      1905      2346      2347
 -1       877    8    0    1
 -2       369       516       517      2344      2348      2346
 -1       878    8    0    1
 -2       371       370       518      1908      2349      2350
 -1       879    8    0    1
 -2       370       517       518      2347      2351      2349
 -1       880    8    0    1
 -2       372       371       519      1911      2352      2353
 -1       881    8    0    1
 -2       371       518       519      2350      2354      2352
 -1       882    8    0    1
 -2       373       372       520      1914      2355      2356
 -1       883    8    0    1
 -2       372       519       520      2353      2357      2355
 -1       884    8    0    1
 -2       374       373       521      1917      2358      2359
 -1       885    8    0    1
 -2       373       520       521      2356      2360      2358
 -1       886    8    0    1
 -2       375       374       522      1920      2361      2362
 -1       887    8    0    1
 -2       374       521       522      2359      2363      2361
 -1       888    8    0    1
 -2       376       375       523      1923      2364      2365
 -1       889    8    0    1
 -2       375       522       523      2362      2366      2364
 -1       890    8    0    1
 -2       377       376       524      1926      2367      2368
 -1       891    8    0    1
 -2       376       523       524      2365      2369      2367
 -1       892    8    0    1
 -2       378       377       525      1929      2370      2371
 -1       893    8    0    1
 -2       377       524       525      2368      2372      2370
 -1       894    8    0    1
 -2       379       378       526      1932      2373      2374
 -1       895    8    0    1
 -2       378       525       526      2371      2375      2373
 -1       896    8    0    1
 -2       380       379       527      1935      2376      2377
 -1       897    8    0    1
 -2       379       526       527      2374      2378      2376
 -1       898    8    0    1
 -2       381       380       528      1938      2379      2380
 -1       899    8    0    1
 -2       380       527       528      2377      2381      2379
 -1       900    8    0    1
 -2       382       381       529      1941      2382      2383
 -1       901    8    0    1
 -2       381       528       529      2380      2384      2382
 -1       902    8    0    1
 -2       386       387       530      1957      2385      2386
 -1       903    8    0    1
 -2       387       388       474      1960      2387      2388
 -1       904    8    0    1
 -2       391       392       531      1972      2389      2390
 -1       905    8    0    1
 -2       392       393       532      1975      2391      2392
 -1       906    8    0    1
 -2       393       394       533      1978      2393      2394
 -1       907    8    0    1
 -2       393       533       532      2394      2395      2391
 -1       908    8    0    1
 -2       394       395       534      1981      2396      2397
 -1       909    8    0    1
 -2       394       534       533      2397      2398      2393
 -1       910    8    0    1
 -2       395       396       535      1984      2399      2400
 -1       911    8    0    1
 -2       395       535       534      2400      2401      2396
 -1       912    8    0    1
 -2       396       397       536      1987      2402      2403
 -1       913    8    0    1
 -2       396       536       535      2403      2404      2399
 -1       914    8    0    1
 -2       397       398       537      1990      2405      2406
 -1       915    8    0    1
 -2       397       537       536      2406      2407      2402
 -1       916    8    0    1
 -2       398       399       538      1993      2408      2409
 -1       917    8    0    1
 -2       398       538       537      2409      2410      2405
 -1       918    8    0    1
 -2       399       400       539      1996      2411      2412
 -1       919    8    0    1
 -2       399       539       538      2412      2413      2408
 -1       920    8    0    1
 -2       400       401       540      1999      2414      2415
 -1       921    8    0    1
 -2       400       540       539      2415      2416      2411
 -1       922    8    0    1
 -2       401       402       541      2002      2417      2418
 -1       923    8    0    1
 -2       401       541       540      2418      2419      2414
 -1       924    8    0    1
 -2       402       403       542      2005      2420      2421
 -1       925    8    0    1
 -2       402       542       541      2421      2422      2417
 -1       926    8    0    1
 -2       403       404       543      2008      2423      2424
 -1       927    8    0    1
 -2       403       543       542      2424      2425      2420
 -1       928    8    0    1
 -2       404       405       544      2011      2426      2427
 -1       929    8    0    1
 -2       404       544       543      2427      2428      2423
 -1       930    8    0    1
 -2       405       406       545      2014      2429      2430
 -1       931    8    0    1
 -2       405       545       544      2430      2431      2426
 -1       932    8    0    1
 -2       406       407       546      2017      2432      2433
 -1       933    8    0    1
 -2       406       546       545      2433      2434      2429
 -1       934    8    0    1
 -2       407       408       547      2020      2435      2436
 -1       935    8    0    1
 -2       407       547       546      2436      2437      2432
 -1       936    8    0    1
 -2       408       409       548      2023      2438      2439
 -1       937    8    0    1
 -2       408       548       547      2439      2440      2435
 -1       938    8    0    1
 -2       409       410       549      2026      2441      2442
 -1       939    8    0    1
 -2       409       549       548      2442      2443      2438
 -1       940    8    0    1
 -2       410       411       550      2029      2444      2445
 -1       941    8    0    1
 -2       410       550       549      2445      2446      2441
 -1       942    8    0    1
 -2       411       412       551      2032      2447      2448
 -1       943    8    0    1
 -2       411       551       550      2448      2449      2444
 -1       944    8    0    1
 -2       412       413       552      2035      2450      2451
 -1       945    8    0    1
 -2       412       552       551      2451      2452      2447
 -1       946    8    0    1
 -2       413       414       553      2038      2453      2454
 -1       947    8    0    1
 -2       413       553       552      2454      2455      2450
 -1       948    8    0    1
 -2       414       415       554      2041      2456      2457
 -1       949    8    0    1
 -2       414       554       553      2457      2458      2453
 -1       950    8    0    1
 -2       415       416       555      2044      2459      2460
 -1       951    8    0    1
 -2       415       555       554      2460      2461      2456
 -1       952    8    0    1
 -2       416       417       556      2047      2462      2463
 -1       953    8    0    1
 -2       416       556       555      2463      2464      2459
 -1       954    8    0    1
 -2       417       418       557      2050      2465      2466
 -1       955    8    0    1
 -2       417       557       556      2466      2467      2462
 -1       956    8    0    1
 -2       418       419       558      2053      2468      2469
 -1       957    8    0    1
 -2       418       558       557      2469      2470      2465
 -1       958    8    0    1
 -2       419       420       559      2056      2471      2472
 -1       959    8    0    1
 -2       419       559       558      2472      2473      2468
 -1       960    8    0    1
 -2       420       421       560      2059      2474      2475
 -1       961    8    0    1
 -2       420       560       559      2475      2476      2471
 -1       962    8    0    1
 -2       421       422       561      2062      2477      2478
 -1       963    8    0    1
 -2       421       561       560      2478      2479      2474
 -1       964    8    0    1
 -2       422       423       562      2065      2480      2481
 -1       965    8    0    1
 -2       422       562       561      2481      2482      2477
 -1       966    8    0    1
 -2       423       424       563      2068      2483      2484
 -1       967    8    0    1
 -2       423       563       562      2484      2485      2480
 -1       968    8    0    1
 -2       424       425       564      2071      2486      2487
 -1       969    8    0    1
 -2       424       564       563      2487      2488      2483
 -1       970    8    0    1
 -2       425       426       565      2074      2489      2490
 -1       971    8    0    1
 -2       425       565       564      2490      2491      2486
 -1       972    8    0    1
 -2       426       427       566      2077      2492      2493
 -1       973    8    0    1
 -2       426       566       565      2493      2494      2489
 -1       974    8    0    1
 -2       427       428       567      2080      2495      2496
 -1       975    8    0    1
 -2       427       567       566      2496      2497      2492
 -1       976    8    0    1
 -2       428       429       432      2083      2092      2498
 -1       977    8    0    1
 -2       433       434       568      2099      2499      2500
 -1       978    8    0    1
 -2       434       435       569      2102      2501      2502
 -1       979    8    0    1
 -2       434       569       568      2502      2503      2499
 -1       980    8    0    1
 -2       431       430       570      2089      2504      2505
 -1       981    8    0    1
 -2       430       433       571      2096      2506      2507
 -1       982    8    0    1
 -2       570       430       571      2504      2507      2508
 -1       983    8    0    1
 -2       433       568       571      2500      2509      2506
 -1       984    8    0    1
 -2       435       436       572      2105      2510      2511
 -1       985    8    0    1
 -2       435       572       569      2511      2512      2501
 -1       986    8    0    1
 -2       436       437       573      2108      2513      2514
 -1       987    8    0    1
 -2       436       573       572      2514      2515      2510
 -1       988    8    0    1
 -2       437       438       574      2111      2516      2517
 -1       989    8    0    1
 -2       437       574       573      2517      2518      2513
 -1       990    8    0    1
 -2       438       439       575      2114      2519      2520
 -1       991    8    0    1
 -2       438       575       574      2520      2521      2516
 -1       992    8    0    1
 -2       439       440       576      2117      2522      2523
 -1       993    8    0    1
 -2       439       576       575      2523      2524      2519
 -1       994    8    0    1
 -2       440       441       577      2120      2525      2526
 -1       995    8    0    1
 -2       440       577       576      2526      2527      2522
 -1       996    8    0    1
 -2       441       442       578      2123      2528      2529
 -1       997    8    0    1
 -2       441       578       577      2529      2530      2525
 -1       998    8    0    1
 -2       444       445       579      2202      2531      2532
 -1       999    8    0    1
 -2       443       446       580      2204      2533      2534
 -1      1000    8    0    1
 -2       385       386       581      1954      2535      2536
 -1      1001    8    0    1
 -2       385       581       485      2536      2537      2249
 -1      1002    8    0    1
 -2       446       449       582      2140      2538      2539
 -1      1003    8    0    1
 -2       442       291       383      2203      1944      2540
 -1      1004    8    0    1
 -2       470       447       583      2205      2541      2542
 -1      1005    8    0    1
 -2       472       451       531      2196      2543      2544
 -1      1006    8    0    1
 -2       337       471       584      2198      2545      2546
 -1      1007    8    0    1
 -2       468       469       585      2206      2547      2548
 -1      1008    8    0    1
 -2       462       463       586      2209      2549      2550
 -1      1009    8    0    1
 -2       448       444       587      2137      2551      2552
 -1      1010    8    0    1
 -2       447       337       588      2134      2553      2554
 -1      1011    8    0    1
 -2       583       447       588      2541      2554      2555
 -1      1012    8    0    1
 -2       337       584       588      2546      2556      2553
 -1      1013    8    0    1
 -2       326       327       589      1775      2557      2558
 -1      1014    8    0    1
 -2       476       326       589      2225      2558      2559
 -1      1015    8    0    1
 -2       327       478       589      2231      2560      2557
 -1      1016    8    0    1
 -2       451       452       590      2149      2561      2562
 -1      1017    8    0    1
 -2       449       472       591      2216      2563      2564
 -1      1018    8    0    1
 -2       582       449       591      2538      2564      2565
 -1      1019    8    0    1
 -2       472       531       591      2544      2566      2563
 -1      1020    8    0    1
 -2       453       454       592      2154      2567      2568
 -1      1021    8    0    1
 -2       460       461       593      2221      2569      2570
 -1      1022    8    0    1
 -2       456       457       594      2161      2571      2572
 -1      1023    8    0    1
 -2       457       458       595      2214      2573      2574
 -1      1024    8    0    1
 -2       458       459       596      2166      2575      2576
 -1      1025    8    0    1
 -2       469       470       597      2222      2577      2578
 -1      1026    8    0    1
 -2       461       462       598      2210      2579      2580
 -1      1027    8    0    1
 -2       463       464       599      2177      2581      2582
 -1      1028    8    0    1
 -2       464       465       600      2208      2583      2584
 -1      1029    8    0    1
 -2       465       466       601      2182      2585      2586
 -1      1030    8    0    1
 -2       466       467       602      2207      2587      2588
 -1      1031    8    0    1
 -2       467       468       603      2187      2589      2590
 -1      1032    8    0    1
 -2       468       585       603      2548      2591      2589
 -1      1033    8    0    1
 -2       445       443       604      2201      2592      2593
 -1      1034    8    0    1
 -2       443       580       604      2534      2594      2592
 -1      1035    8    0    1
 -2       452       453       605      2217      2595      2596
 -1      1036    8    0    1
 -2       590       452       605      2561      2596      2597
 -1      1037    8    0    1
 -2       453       592       605      2568      2598      2595
 -1      1038    8    0    1
 -2       471       448       606      2197      2599      2600
 -1      1039    8    0    1
 -2       448       587       606      2552      2601      2599
 -1      1040    8    0    1
 -2       335       336       607      1804      2602      2603
 -1      1041    8    0    1
 -2       334       335       607      1799      2603      2604
 -1      1042    8    0    1
 -2       336       475       607      2224      2605      2602
 -1      1043    8    0    1
 -2       324       477       608      2228      2606      2607
 -1      1044    8    0    1
 -2       324       608       450      2607      2608      2144
 -1      1045    8    0    1
 -2       386       530       581      2386      2609      2535
 -1      1046    8    0    1
 -2       333       334       607      1796      2604      2610
 -1      1047    8    0    1
 -2       598       462       586      2579      2550      2611
 -1      1048    8    0    1
 -2       322       450       609      2143      2612      2613
 -1      1049    8    0    1
 -2       486       322       609      2255      2613      2614
 -1      1050    8    0    1
 -2       450       608       609      2608      2615      2612
 -1      1051    8    0    1
 -2       597       470       583      2577      2542      2616
 -1      1052    8    0    1
 -2       596       459       473      2575      2212      2617
 -1      1053    8    0    1
 -2       595       458       596      2573      2576      2618
 -1      1054    8    0    1
 -2       388       389       592      1963      2619      2620
 -1      1055    8    0    1
 -2       389       390       605      1966      2621      2622
 -1      1056    8    0    1
 -2       390       391       590      1969      2623      2624
 -1      1057    8    0    1
 -2       392       532       531      2392      2625      2389
 -1      1058    8    0    1
 -2       428       432       567      2498      2626      2495
 -1      1059    8    0    1
 -2       580       446       582      2533      2539      2627
 -1      1060    8    0    1
 -2       432       431       567      2093      2628      2626
 -1      1061    8    0    1
 -2       587       444       579      2551      2532      2629
 -1      1062    8    0    1
 -2       579       445       604      2531      2593      2630
 -1      1063    8    0    1
 -2       586       463       599      2549      2582      2631
 -1      1064    8    0    1
 -2       585       469       597      2547      2578      2632
 -1      1065    8    0    1
 -2       442       383       610      2540      2633      2634
 -1      1066    8    0    1
 -2       578       442       610      2528      2634      2635
 -1      1067    8    0    1
 -2       383       382       610      1945      2636      2633
 -1      1068    8    0    1
 -2       471       606       584      2600      2637      2545
 -1      1069    8    0    1
 -2       602       467       611      2587      2638      2639
 -1      1070    8    0    1
 -2       467       603       611      2590      2640      2638
 -1      1071    8    0    1
 -2       601       466       602      2585      2588      2641
 -1      1072    8    0    1
 -2       600       465       601      2583      2586      2642
 -1      1073    8    0    1
 -2       333       607       483      2610      2643      2244
 -1      1074    8    0    1
 -2       473       460       593      2213      2570      2644
 -1      1075    8    0    1
 -2       454       455       612      2215      2645      2646
 -1      1076    8    0    1
 -2       567       431       570      2628      2505      2647
 -1      1077    8    0    1
 -2       594       457       595      2571      2574      2648
 -1      1078    8    0    1
 -2       382       529       610      2383      2649      2636
 -1      1079    8    0    1
 -2       474       456       594      2220      2572      2650
 -1      1080    8    0    1
 -2       593       461       598      2569      2580      2651
 -1      1081    8    0    1
 -2       454       612       592      2646      2652      2567
 -1      1082    8    0    1
 -2       464       600       599      2584      2653      2581
 -1      1083    8    0    1
 -2       455       474       612      2219      2654      2645
 -1      1084    8    0    1
 -2       605       390       590      2621      2624      2597
 -1      1085    8    0    1
 -2       592       389       605      2619      2622      2598
 -1      1086    8    0    1
 -2       451       590       531      2562      2655      2543
 -1      1087    8    0    1
 -2       479       480       613      2237      2656      2657
 -1      1088    8    0    1
 -2       478       479       614      2234      2658      2659
 -1      1089    8    0    1
 -2       479       613       614      2657      2660      2658
 -1      1090    8    0    1
 -2       481       482       615      2243      2661      2662
 -1      1091    8    0    1
 -2       482       483       616      2246      2663      2664
 -1      1092    8    0    1
 -2       482       616       615      2664      2665      2661
 -1      1093    8    0    1
 -2       473       593       617      2644      2666      2667
 -1      1094    8    0    1
 -2       487       484       618      2258      2668      2669
 -1      1095    8    0    1
 -2       475       485       619      2251      2670      2671
 -1      1096    8    0    1
 -2       590       391       531      2623      2390      2655
 -1      1097    8    0    1
 -2       596       473       620      2617      2672      2673
 -1      1098    8    0    1
 -2       473       617       620      2667      2674      2672
 -1      1099    8    0    1
 -2       488       487       621      2261      2675      2676
 -1      1100    8    0    1
 -2       487       618       621      2669      2677      2675
 -1      1101    8    0    1
 -2       489       488       622      2264      2678      2679
 -1      1102    8    0    1
 -2       488       621       622      2676      2680      2678
 -1      1103    8    0    1
 -2       490       489       623      2267      2681      2682
 -1      1104    8    0    1
 -2       489       622       623      2679      2683      2681
 -1      1105    8    0    1
 -2       491       490       624      2270      2684      2685
 -1      1106    8    0    1
 -2       490       623       624      2682      2686      2684
 -1      1107    8    0    1
 -2       492       491       625      2273      2687      2688
 -1      1108    8    0    1
 -2       491       624       625      2685      2689      2687
 -1      1109    8    0    1
 -2       493       492       626      2276      2690      2691
 -1      1110    8    0    1
 -2       492       625       626      2688      2692      2690
 -1      1111    8    0    1
 -2       494       493       627      2279      2693      2694
 -1      1112    8    0    1
 -2       493       626       627      2691      2695      2693
 -1      1113    8    0    1
 -2       495       494       628      2282      2696      2697
 -1      1114    8    0    1
 -2       494       627       628      2694      2698      2696
 -1      1115    8    0    1
 -2       496       495       629      2285      2699      2700
 -1      1116    8    0    1
 -2       495       628       629      2697      2701      2699
 -1      1117    8    0    1
 -2       497       496       630      2288      2702      2703
 -1      1118    8    0    1
 -2       496       629       630      2700      2704      2702
 -1      1119    8    0    1
 -2       498       497       631      2291      2705      2706
 -1      1120    8    0    1
 -2       497       630       631      2703      2707      2705
 -1      1121    8    0    1
 -2       499       498       632      2294      2708      2709
 -1      1122    8    0    1
 -2       498       631       632      2706      2710      2708
 -1      1123    8    0    1
 -2       500       499       633      2297      2711      2712
 -1      1124    8    0    1
 -2       499       632       633      2709      2713      2711
 -1      1125    8    0    1
 -2       501       500       634      2300      2714      2715
 -1      1126    8    0    1
 -2       500       633       634      2712      2716      2714
 -1      1127    8    0    1
 -2       502       501       635      2303      2717      2718
 -1      1128    8    0    1
 -2       501       634       635      2715      2719      2717
 -1      1129    8    0    1
 -2       503       502       636      2306      2720      2721
 -1      1130    8    0    1
 -2       502       635       636      2718      2722      2720
 -1      1131    8    0    1
 -2       504       503       637      2309      2723      2724
 -1      1132    8    0    1
 -2       503       636       637      2721      2725      2723
 -1      1133    8    0    1
 -2       505       504       638      2312      2726      2727
 -1      1134    8    0    1
 -2       504       637       638      2724      2728      2726
 -1      1135    8    0    1
 -2       506       505       639      2315      2729      2730
 -1      1136    8    0    1
 -2       505       638       639      2727      2731      2729
 -1      1137    8    0    1
 -2       507       506       640      2318      2732      2733
 -1      1138    8    0    1
 -2       506       639       640      2730      2734      2732
 -1      1139    8    0    1
 -2       508       507       641      2321      2735      2736
 -1      1140    8    0    1
 -2       507       640       641      2733      2737      2735
 -1      1141    8    0    1
 -2       509       508       642      2324      2738      2739
 -1      1142    8    0    1
 -2       508       641       642      2736      2740      2738
 -1      1143    8    0    1
 -2       510       509       643      2327      2741      2742
 -1      1144    8    0    1
 -2       509       642       643      2739      2743      2741
 -1      1145    8    0    1
 -2       511       510       644      2330      2744      2745
 -1      1146    8    0    1
 -2       510       643       644      2742      2746      2744
 -1      1147    8    0    1
 -2       512       511       645      2333      2747      2748
 -1      1148    8    0    1
 -2       511       644       645      2745      2749      2747
 -1      1149    8    0    1
 -2       513       512       646      2336      2750      2751
 -1      1150    8    0    1
 -2       512       645       646      2748      2752      2750
 -1      1151    8    0    1
 -2       514       513       647      2339      2753      2754
 -1      1152    8    0    1
 -2       513       646       647      2751      2755      2753
 -1      1153    8    0    1
 -2       515       514       648      2342      2756      2757
 -1      1154    8    0    1
 -2       514       647       648      2754      2758      2756
 -1      1155    8    0    1
 -2       516       515       649      2345      2759      2760
 -1      1156    8    0    1
 -2       515       648       649      2757      2761      2759
 -1      1157    8    0    1
 -2       517       516       650      2348      2762      2763
 -1      1158    8    0    1
 -2       516       649       650      2760      2764      2762
 -1      1159    8    0    1
 -2       518       517       651      2351      2765      2766
 -1      1160    8    0    1
 -2       517       650       651      2763      2767      2765
 -1      1161    8    0    1
 -2       519       518       652      2354      2768      2769
 -1      1162    8    0    1
 -2       518       651       652      2766      2770      2768
 -1      1163    8    0    1
 -2       520       519       653      2357      2771      2772
 -1      1164    8    0    1
 -2       519       652       653      2769      2773      2771
 -1      1165    8    0    1
 -2       521       520       654      2360      2774      2775
 -1      1166    8    0    1
 -2       520       653       654      2772      2776      2774
 -1      1167    8    0    1
 -2       522       521       655      2363      2777      2778
 -1      1168    8    0    1
 -2       521       654       655      2775      2779      2777
 -1      1169    8    0    1
 -2       523       522       656      2366      2780      2781
 -1      1170    8    0    1
 -2       522       655       656      2778      2782      2780
 -1      1171    8    0    1
 -2       524       523       657      2369      2783      2784
 -1      1172    8    0    1
 -2       523       656       657      2781      2785      2783
 -1      1173    8    0    1
 -2       525       524       658      2372      2786      2787
 -1      1174    8    0    1
 -2       524       657       658      2784      2788      2786
 -1      1175    8    0    1
 -2       526       525       659      2375      2789      2790
 -1      1176    8    0    1
 -2       525       658       659      2787      2791      2789
 -1      1177    8    0    1
 -2       527       526       660      2378      2792      2793
 -1      1178    8    0    1
 -2       526       659       660      2790      2794      2792
 -1      1179    8    0    1
 -2       528       527       661      2381      2795      2796
 -1      1180    8    0    1
 -2       527       660       661      2793      2797      2795
 -1      1181    8    0    1
 -2       529       528       662      2384      2798      2799
 -1      1182    8    0    1
 -2       528       661       662      2796      2800      2798
 -1      1183    8    0    1
 -2       530       387       474      2385      2388      2801
 -1      1184    8    0    1
 -2       584       606       663      2637      2802      2803
 -1      1185    8    0    1
 -2       531       532       591      2625      2804      2566
 -1      1186    8    0    1
 -2       532       533       664      2395      2805      2806
 -1      1187    8    0    1
 -2       532       664       591      2806      2807      2804
 -1      1188    8    0    1
 -2       535       536       665      2404      2808      2809
 -1      1189    8    0    1
 -2       536       537       666      2407      2810      2811
 -1      1190    8    0    1
 -2       536       666       665      2811      2812      2808
 -1      1191    8    0    1
 -2       537       538       667      2410      2813      2814
 -1      1192    8    0    1
 -2       537       667       666      2814      2815      2810
 -1      1193    8    0    1
 -2       538       539       668      2413      2816      2817
 -1      1194    8    0    1
 -2       538       668       667      2817      2818      2813
 -1      1195    8    0    1
 -2       539       540       669      2416      2819      2820
 -1      1196    8    0    1
 -2       539       669       668      2820      2821      2816
 -1      1197    8    0    1
 -2       540       541       670      2419      2822      2823
 -1      1198    8    0    1
 -2       540       670       669      2823      2824      2819
 -1      1199    8    0    1
 -2       541       542       671      2422      2825      2826
 -1      1200    8    0    1
 -2       541       671       670      2826      2827      2822
 -1      1201    8    0    1
 -2       542       543       672      2425      2828      2829
 -1      1202    8    0    1
 -2       542       672       671      2829      2830      2825
 -1      1203    8    0    1
 -2       543       544       673      2428      2831      2832
 -1      1204    8    0    1
 -2       543       673       672      2832      2833      2828
 -1      1205    8    0    1
 -2       544       545       674      2431      2834      2835
 -1      1206    8    0    1
 -2       544       674       673      2835      2836      2831
 -1      1207    8    0    1
 -2       545       546       675      2434      2837      2838
 -1      1208    8    0    1
 -2       545       675       674      2838      2839      2834
 -1      1209    8    0    1
 -2       546       547       676      2437      2840      2841
 -1      1210    8    0    1
 -2       546       676       675      2841      2842      2837
 -1      1211    8    0    1
 -2       547       548       677      2440      2843      2844
 -1      1212    8    0    1
 -2       547       677       676      2844      2845      2840
 -1      1213    8    0    1
 -2       548       549       678      2443      2846      2847
 -1      1214    8    0    1
 -2       548       678       677      2847      2848      2843
 -1      1215    8    0    1
 -2       549       550       679      2446      2849      2850
 -1      1216    8    0    1
 -2       549       679       678      2850      2851      2846
 -1      1217    8    0    1
 -2       550       551       680      2449      2852      2853
 -1      1218    8    0    1
 -2       550       680       679      2853      2854      2849
 -1      1219    8    0    1
 -2       551       552       681      2452      2855      2856
 -1      1220    8    0    1
 -2       551       681       680      2856      2857      2852
 -1      1221    8    0    1
 -2       552       553       682      2455      2858      2859
 -1      1222    8    0    1
 -2       552       682       681      2859      2860      2855
 -1      1223    8    0    1
 -2       553       554       683      2458      2861      2862
 -1      1224    8    0    1
 -2       553       683       682      2862      2863      2858
 -1      1225    8    0    1
 -2       554       555       684      2461      2864      2865
 -1      1226    8    0    1
 -2       554       684       683      2865      2866      2861
 -1      1227    8    0    1
 -2       555       556       685      2464      2867      2868
 -1      1228    8    0    1
 -2       555       685       684      2868      2869      2864
 -1      1229    8    0    1
 -2       556       557       686      2467      2870      2871
 -1      1230    8    0    1
 -2       556       686       685      2871      2872      2867
 -1      1231    8    0    1
 -2       557       558       687      2470      2873      2874
 -1      1232    8    0    1
 -2       557       687       686      2874      2875      2870
 -1      1233    8    0    1
 -2       558       559       688      2473      2876      2877
 -1      1234    8    0    1
 -2       558       688       687      2877      2878      2873
 -1      1235    8    0    1
 -2       559       560       689      2476      2879      2880
 -1      1236    8    0    1
 -2       559       689       688      2880      2881      2876
 -1      1237    8    0    1
 -2       560       561       690      2479      2882      2883
 -1      1238    8    0    1
 -2       560       690       689      2883      2884      2879
 -1      1239    8    0    1
 -2       561       562       691      2482      2885      2886
 -1      1240    8    0    1
 -2       561       691       690      2886      2887      2882
 -1      1241    8    0    1
 -2       562       563       692      2485      2888      2889
 -1      1242    8    0    1
 -2       562       692       691      2889      2890      2885
 -1      1243    8    0    1
 -2       563       564       693      2488      2891      2892
 -1      1244    8    0    1
 -2       563       693       692      2892      2893      2888
 -1      1245    8    0    1
 -2       564       565       694      2491      2894      2895
 -1      1246    8    0    1
 -2       564       694       693      2895      2896      2891
 -1      1247    8    0    1
 -2       565       566       695      2494      2897      2898
 -1      1248    8    0    1
 -2       565       695       694      2898      2899      2894
 -1      1249    8    0    1
 -2       566       567       696      2497      2900      2901
 -1      1250    8    0    1
 -2       695       566       696      2897      2901      2902
 -1      1251    8    0    1
 -2       567       570       696      2647      2903      2900
 -1      1252    8    0    1
 -2       572       573       697      2515      2904      2905
 -1      1253    8    0    1
 -2       594       595       698      2648      2906      2907
 -1      1254    8    0    1
 -2       568       569       699      2503      2908      2909
 -1      1255    8    0    1
 -2       573       574       700      2518      2910      2911
 -1      1256    8    0    1
 -2       573       700       697      2911      2912      2904
 -1      1257    8    0    1
 -2       569       572       701      2512      2913      2914
 -1      1258    8    0    1
 -2       699       569       701      2908      2914      2915
 -1      1259    8    0    1
 -2       572       697       701      2905      2916      2913
 -1      1260    8    0    1
 -2       574       575       702      2521      2917      2918
 -1      1261    8    0    1
 -2       574       702       700      2918      2919      2910
 -1      1262    8    0    1
 -2       575       576       703      2524      2920      2921
 -1      1263    8    0    1
 -2       575       703       702      2921      2922      2917
 -1      1264    8    0    1
 -2       576       577       704      2527      2923      2924
 -1      1265    8    0    1
 -2       576       704       703      2924      2925      2920
 -1      1266    8    0    1
 -2       579       604       705      2630      2926      2927
 -1      1267    8    0    1
 -2       485       581       706      2537      2928      2929
 -1      1268    8    0    1
 -2       485       706       619      2929      2930      2670
 -1      1269    8    0    1
 -2       599       600       707      2653      2931      2932
 -1      1270    8    0    1
 -2       603       585       708      2591      2933      2934
 -1      1271    8    0    1
 -2       586       599       709      2631      2935      2936
 -1      1272    8    0    1
 -2       598       586       710      2611      2937      2938
 -1      1273    8    0    1
 -2       534       535       711      2401      2939      2940
 -1      1274    8    0    1
 -2       535       665       711      2809      2941      2939
 -1      1275    8    0    1
 -2       533       534       712      2398      2942      2943
 -1      1276    8    0    1
 -2       534       711       712      2940      2944      2942
 -1      1277    8    0    1
 -2       587       579       713      2629      2945      2946
 -1      1278    8    0    1
 -2       480       481       714      2240      2947      2948
 -1      1279    8    0    1
 -2       613       480       714      2656      2948      2949
 -1      1280    8    0    1
 -2       481       615       714      2662      2950      2947
 -1      1281    8    0    1
 -2       581       530       698      2609      2951      2952
 -1      1282    8    0    1
 -2       477       476       715      2229      2953      2954
 -1      1283    8    0    1
 -2       593       598       716      2651      2955      2956
 -1      1284    8    0    1
 -2       610       529       717      2649      2957      2958
 -1      1285    8    0    1
 -2       529       662       717      2799      2959      2957
 -1      1286    8    0    1
 -2       388       592       612      2620      2652      2960
 -1      1287    8    0    1
 -2       578       610       717      2635      2958      2961
 -1      1288    8    0    1
 -2       606       587       718      2601      2962      2963
 -1      1289    8    0    1
 -2       595       596       719      2618      2964      2965
 -1      1290    8    0    1
 -2       595       719       698      2965      2966      2906
 -1      1291    8    0    1
 -2       585       597       720      2632      2967      2968
 -1      1292    8    0    1
 -2       585       720       708      2968      2969      2933
 -1      1293    8    0    1
 -2       483       607       475      2643      2605      2970
 -1      1294    8    0    1
 -2       600       601       721      2642      2971      2972
 -1      1295    8    0    1
 -2       601       602       722      2641      2973      2974
 -1      1296    8    0    1
 -2       604       580       723      2594      2975      2976
 -1      1297    8    0    1
 -2       484       486       724      2254      2977      2978
 -1      1298    8    0    1
 -2       618       484       724      2668      2978      2979
 -1      1299    8    0    1
 -2       486       609       724      2614      2980      2977
 -1      1300    8    0    1
 -2       597       583       725      2616      2981      2982
 -1      1301    8    0    1
 -2       478       614       726      2659      2983      2984
 -1      1302    8    0    1
 -2       478       726       589      2984      2985      2560
 -1      1303    8    0    1
 -2       617       593       716      2666      2956      2986
 -1      1304    8    0    1
 -2       608       477       727      2606      2987      2988
 -1      1305    8    0    1
 -2       477       715       727      2954      2989      2987
 -1      1306    8    0    1
 -2       483       475       619      2970      2671      2990
 -1      1307    8    0    1
 -2       616       483       619      2663      2990      2991
 -1      1308    8    0    1
 -2       663       606       718      2802      2963      2992
 -1      1309    8    0    1
 -2       533       712       664      2943      2993      2805
 -1      1310    8    0    1
 -2       588       584       728      2556      2994      2995
 -1      1311    8    0    1
 -2       584       663       728      2803      2996      2994
 -1      1312    8    0    1
 -2       599       707       709      2932      2997      2935
 -1      1313    8    0    1
 -2       696       570       729      2903      2998      2999
 -1      1314    8    0    1
 -2       570       571       729      2508      3000      2998
 -1      1315    8    0    1
 -2       580       582       730      2627      3001      3002
 -1      1316    8    0    1
 -2       580       730       723      3002      3003      2975
 -1      1317    8    0    1
 -2       706       581       698      2928      2952      3004
 -1      1318    8    0    1
 -2       579       705       731      2927      3005      3006
 -1      1319    8    0    1
 -2       579       731       713      3006      3007      2945
 -1      1320    8    0    1
 -2       705       604       723      2926      2976      3008
 -1      1321    8    0    1
 -2       577       578       717      2530      2961      3009
 -1      1322    8    0    1
 -2       725       583       732      2981      3010      3011
 -1      1323    8    0    1
 -2       583       588       732      2555      3012      3010
 -1      1324    8    0    1
 -2       707       600       721      2931      2972      3013
 -1      1325    8    0    1
 -2       603       708       611      2934      3014      2640
 -1      1326    8    0    1
 -2       602       611       733      2639      3015      3016
 -1      1327    8    0    1
 -2       602       733       722      3016      3017      2973
 -1      1328    8    0    1
 -2       586       709       710      2936      3018      2937
 -1      1329    8    0    1
 -2       476       589       734      2559      3019      3020
 -1      1330    8    0    1
 -2       715       476       734      2953      3020      3021
 -1      1331    8    0    1
 -2       589       726       734      2985      3022      3019
 -1      1332    8    0    1
 -2       598       710       716      2938      3023      2955
 -1      1333    8    0    1
 -2       597       725       720      2982      3024      2967
 -1      1334    8    0    1
 -2       571       568       735      2509      3025      3026
 -1      1335    8    0    1
 -2       729       571       735      3000      3026      3027
 -1      1336    8    0    1
 -2       568       699       735      2909      3028      3025
 -1      1337    8    0    1
 -2       587       713       718      2946      3029      2962
 -1      1338    8    0    1
 -2       582       591       664      2565      2807      3030
 -1      1339    8    0    1
 -2       719       596       620      2964      2673      3031
 -1      1340    8    0    1
 -2       721       601       722      2971      2974      3032
 -1      1341    8    0    1
 -2       577       717       736      3009      3033      3034
 -1      1342    8    0    1
 -2       704       577       736      2923      3034      3035
 -1      1343    8    0    1
 -2       717       662       736      2959      3036      3033
 -1      1344    8    0    1
 -2       698       530       594      2951      3037      2907
 -1      1345    8    0    1
 -2       530       474       594      2801      2650      3037
 -1      1346    8    0    1
 -2       615       616       737      2665      3038      3039
 -1      1347    8    0    1
 -2       616       619       738      2991      3040      3041
 -1      1348    8    0    1
 -2       737       616       738      3038      3041      3042
 -1      1349    8    0    1
 -2       619       706       738      2930      3043      3040
 -1      1350    8    0    1
 -2       702       703       739      2922      3044      3045
 -1      1351    8    0    1
 -2       609       608       740      2615      3046      3047
 -1      1352    8    0    1
 -2       724       609       740      2980      3047      3048
 -1      1353    8    0    1
 -2       608       727       740      2988      3049      3046
 -1      1354    8    0    1
 -2       703       704       741      2925      3050      3051
 -1      1355    8    0    1
 -2       703       741       739      3051      3052      3044
 -1      1356    8    0    1
 -2       474       388       612      2387      2960      2654
 -1      1357    8    0    1
 -2       621       618       742      2677      3053      3054
 -1      1358    8    0    1
 -2       622       621       743      2680      3055      3056
 -1      1359    8    0    1
 -2       621       742       743      3054      3057      3055
 -1      1360    8    0    1
 -2       623       622       744      2683      3058      3059
 -1      1361    8    0    1
 -2       622       743       744      3056      3060      3058
 -1      1362    8    0    1
 -2       624       623       745      2686      3061      3062
 -1      1363    8    0    1
 -2       623       744       745      3059      3063      3061
 -1      1364    8    0    1
 -2       625       624       746      2689      3064      3065
 -1      1365    8    0    1
 -2       624       745       746      3062      3066      3064
 -1      1366    8    0    1
 -2       626       625       747      2692      3067      3068
 -1      1367    8    0    1
 -2       625       746       747      3065      3069      3067
 -1      1368    8    0    1
 -2       627       626       748      2695      3070      3071
 -1      1369    8    0    1
 -2       626       747       748      3068      3072      3070
 -1      1370    8    0    1
 -2       628       627       749      2698      3073      3074
 -1      1371    8    0    1
 -2       627       748       749      3071      3075      3073
 -1      1372    8    0    1
 -2       629       628       750      2701      3076      3077
 -1      1373    8    0    1
 -2       628       749       750      3074      3078      3076
 -1      1374    8    0    1
 -2       630       629       751      2704      3079      3080
 -1      1375    8    0    1
 -2       629       750       751      3077      3081      3079
 -1      1376    8    0    1
 -2       631       630       752      2707      3082      3083
 -1      1377    8    0    1
 -2       630       751       752      3080      3084      3082
 -1      1378    8    0    1
 -2       632       631       753      2710      3085      3086
 -1      1379    8    0    1
 -2       631       752       753      3083      3087      3085
 -1      1380    8    0    1
 -2       633       632       754      2713      3088      3089
 -1      1381    8    0    1
 -2       632       753       754      3086      3090      3088
 -1      1382    8    0    1
 -2       634       633       755      2716      3091      3092
 -1      1383    8    0    1
 -2       633       754       755      3089      3093      3091
 -1      1384    8    0    1
 -2       635       634       756      2719      3094      3095
 -1      1385    8    0    1
 -2       634       755       756      3092      3096      3094
 -1      1386    8    0    1
 -2       636       635       757      2722      3097      3098
 -1      1387    8    0    1
 -2       635       756       757      3095      3099      3097
 -1      1388    8    0    1
 -2       637       636       758      2725      3100      3101
 -1      1389    8    0    1
 -2       636       757       758      3098      3102      3100
 -1      1390    8    0    1
 -2       638       637       759      2728      3103      3104
 -1      1391    8    0    1
 -2       637       758       759      3101      3105      3103
 -1      1392    8    0    1
 -2       639       638       760      2731      3106      3107
 -1      1393    8    0    1
 -2       638       759       760      3104      3108      3106
 -1      1394    8    0    1
 -2       640       639       761      2734      3109      3110
 -1      1395    8    0    1
 -2       639       760       761      3107      3111      3109
 -1      1396    8    0    1
 -2       641       640       762      2737      3112      3113
 -1      1397    8    0    1
 -2       640       761       762      3110      3114      3112
 -1      1398    8    0    1
 -2       642       641       763      2740      3115      3116
 -1      1399    8    0    1
 -2       641       762       763      3113      3117      3115
 -1      1400    8    0    1
 -2       643       642       764      2743      3118      3119
 -1      1401    8    0    1
 -2       642       763       764      3116      3120      3118
 -1      1402    8    0    1
 -2       644       643       765      2746      3121      3122
 -1      1403    8    0    1
 -2       643       764       765      3119      3123      3121
 -1      1404    8    0    1
 -2       645       644       766      2749      3124      3125
 -1      1405    8    0    1
 -2       644       765       766      3122      3126      3124
 -1      1406    8    0    1
 -2       646       645       767      2752      3127      3128
 -1      1407    8    0    1
 -2       645       766       767      3125      3129      3127
 -1      1408    8    0    1
 -2       647       646       768      2755      3130      3131
 -1      1409    8    0    1
 -2       646       767       768      3128      3132      3130
 -1      1410    8    0    1
 -2       648       647       769      2758      3133      3134
 -1      1411    8    0    1
 -2       647       768       769      3131      3135      3133
 -1      1412    8    0    1
 -2       649       648       770      2761      3136      3137
 -1      1413    8    0    1
 -2       648       769       770      3134      3138      3136
 -1      1414    8    0    1
 -2       650       649       771      2764      3139      3140
 -1      1415    8    0    1
 -2       649       770       771      3137      3141      3139
 -1      1416    8    0    1
 -2       651       650       772      2767      3142      3143
 -1      1417    8    0    1
 -2       650       771       772      3140      3144      3142
 -1      1418    8    0    1
 -2       652       651       773      2770      3145      3146
 -1      1419    8    0    1
 -2       651       772       773      3143      3147      3145
 -1      1420    8    0    1
 -2       653       652       774      2773      3148      3149
 -1      1421    8    0    1
 -2       652       773       774      3146      3150      3148
 -1      1422    8    0    1
 -2       654       653       775      2776      3151      3152
 -1      1423    8    0    1
 -2       653       774       775      3149      3153      3151
 -1      1424    8    0    1
 -2       655       654       776      2779      3154      3155
 -1      1425    8    0    1
 -2       654       775       776      3152      3156      3154
 -1      1426    8    0    1
 -2       656       655       777      2782      3157      3158
 -1      1427    8    0    1
 -2       655       776       777      3155      3159      3157
 -1      1428    8    0    1
 -2       657       656       778      2785      3160      3161
 -1      1429    8    0    1
 -2       656       777       778      3158      3162      3160
 -1      1430    8    0    1
 -2       658       657       779      2788      3163      3164
 -1      1431    8    0    1
 -2       657       778       779      3161      3165      3163
 -1      1432    8    0    1
 -2       659       658       780      2791      3166      3167
 -1      1433    8    0    1
 -2       658       779       780      3164      3168      3166
 -1      1434    8    0    1
 -2       660       659       781      2794      3169      3170
 -1      1435    8    0    1
 -2       659       780       781      3167      3171      3169
 -1      1436    8    0    1
 -2       661       660       782      2797      3172      3173
 -1      1437    8    0    1
 -2       660       781       782      3170      3174      3172
 -1      1438    8    0    1
 -2       662       661       783      2800      3175      3176
 -1      1439    8    0    1
 -2       736       662       783      3036      3176      3177
 -1      1440    8    0    1
 -2       661       782       783      3173      3178      3175
 -1      1441    8    0    1
 -2       667       668       784      2818      3179      3180
 -1      1442    8    0    1
 -2       709       707       785      2997      3181      3182
 -1      1443    8    0    1
 -2       728       663       786      2996      3183      3184
 -1      1444    8    0    1
 -2       620       617       787      2674      3185      3186
 -1      1445    8    0    1
 -2       614       613       788      2660      3187      3188
 -1      1446    8    0    1
 -2       588       728       732      2995      3189      3012
 -1      1447    8    0    1
 -2       666       667       789      2815      3190      3191
 -1      1448    8    0    1
 -2       667       784       789      3180      3192      3190
 -1      1449    8    0    1
 -2       665       666       790      2812      3193      3194
 -1      1450    8    0    1
 -2       666       789       790      3191      3195      3193
 -1      1451    8    0    1
 -2       668       669       791      2821      3196      3197
 -1      1452    8    0    1
 -2       668       791       784      3197      3198      3179
 -1      1453    8    0    1
 -2       669       670       792      2824      3199      3200
 -1      1454    8    0    1
 -2       669       792       791      3200      3201      3196
 -1      1455    8    0    1
 -2       670       671       793      2827      3202      3203
 -1      1456    8    0    1
 -2       670       793       792      3203      3204      3199
 -1      1457    8    0    1
 -2       671       672       794      2830      3205      3206
 -1      1458    8    0    1
 -2       671       794       793      3206      3207      3202
 -1      1459    8    0    1
 -2       672       673       795      2833      3208      3209
 -1      1460    8    0    1
 -2       672       795       794      3209      3210      3205
 -1      1461    8    0    1
 -2       673       674       796      2836      3211      3212
 -1      1462    8    0    1
 -2       673       796       795      3212      3213      3208
 -1      1463    8    0    1
 -2       674       675       797      2839      3214      3215
 -1      1464    8    0    1
 -2       674       797       796      3215      3216      3211
 -1      1465    8    0    1
 -2       675       676       798      2842      3217      3218
 -1      1466    8    0    1
 -2       675       798       797      3218      3219      3214
 -1      1467    8    0    1
 -2       676       677       799      2845      3220      3221
 -1      1468    8    0    1
 -2       676       799       798      3221      3222      3217
 -1      1469    8    0    1
 -2       677       678       800      2848      3223      3224
 -1      1470    8    0    1
 -2       677       800       799      3224      3225      3220
 -1      1471    8    0    1
 -2       678       679       801      2851      3226      3227
 -1      1472    8    0    1
 -2       678       801       800      3227      3228      3223
 -1      1473    8    0    1
 -2       679       680       802      2854      3229      3230
 -1      1474    8    0    1
 -2       679       802       801      3230      3231      3226
 -1      1475    8    0    1
 -2       680       681       803      2857      3232      3233
 -1      1476    8    0    1
 -2       680       803       802      3233      3234      3229
 -1      1477    8    0    1
 -2       681       682       804      2860      3235      3236
 -1      1478    8    0    1
 -2       681       804       803      3236      3237      3232
 -1      1479    8    0    1
 -2       682       683       805      2863      3238      3239
 -1      1480    8    0    1
 -2       682       805       804      3239      3240      3235
 -1      1481    8    0    1
 -2       683       684       806      2866      3241      3242
 -1      1482    8    0    1
 -2       683       806       805      3242      3243      3238
 -1      1483    8    0    1
 -2       684       685       807      2869      3244      3245
 -1      1484    8    0    1
 -2       684       807       806      3245      3246      3241
 -1      1485    8    0    1
 -2       685       686       808      2872      3247      3248
 -1      1486    8    0    1
 -2       685       808       807      3248      3249      3244
 -1      1487    8    0    1
 -2       686       687       809      2875      3250      3251
 -1      1488    8    0    1
 -2       686       809       808      3251      3252      3247
 -1      1489    8    0    1
 -2       687       688       810      2878      3253      3254
 -1      1490    8    0    1
 -2       687       810       809      3254      3255      3250
 -1      1491    8    0    1
 -2       688       689       811      2881      3256      3257
 -1      1492    8    0    1
 -2       688       811       810      3257      3258      3253
 -1      1493    8    0    1
 -2       689       690       812      2884      3259      3260
 -1      1494    8    0    1
 -2       689       812       811      3260      3261      3256
 -1      1495    8    0    1
 -2       690       691       813      2887      3262      3263
 -1      1496    8    0    1
 -2       690       813       812      3263      3264      3259
 -1      1497    8    0    1
 -2       691       692       814      2890      3265      3266
 -1      1498    8    0    1
 -2       691       814       813      3266      3267      3262
 -1      1499    8    0    1
 -2       692       693       815      2893      3268      3269
 -1      1500    8    0    1
 -2       692       815       814      3269      3270      3265
 -1      1501    8    0    1
 -2       693       694       816      2896      3271      3272
 -1      1502    8    0    1
 -2       693       816       815      3272      3273      3268
 -1      1503    8    0    1
 -2       694       695       817      2899      3274      3275
 -1      1504    8    0    1
 -2       694       817       816      3275      3276      3271
 -1      1505    8    0    1
 -2       695       696       818      2902      3277      3278
 -1      1506    8    0    1
 -2       817       695       818      3274      3278      3279
 -1      1507    8    0    1
 -2       696       729       818      2999      3280      3277
 -1      1508    8    0    1
 -2       730       582       664      3001      3030      3281
 -1      1509    8    0    1
 -2       708       720       819      2969      3282      3283
 -1      1510    8    0    1
 -2       718       713       820      3029      3284      3285
 -1      1511    8    0    1
 -2       697       700       821      2912      3286      3287
 -1      1512    8    0    1
 -2       617       716       822      2986      3288      3289
 -1      1513    8    0    1
 -2       712       711       823      2944      3290      3291
 -1      1514    8    0    1
 -2       705       723       823      3008      3292      3293
 -1      1515    8    0    1
 -2       700       702       824      2919      3294      3295
 -1      1516    8    0    1
 -2       821       700       824      3286      3295      3296
 -1      1517    8    0    1
 -2       702       739       824      3045      3297      3294
 -1      1518    8    0    1
 -2       707       721       825      3013      3298      3299
 -1      1519    8    0    1
 -2       719       620       737      3031      3300      3301
 -1      1520    8    0    1
 -2       663       718       826      2992      3302      3303
 -1      1521    8    0    1
 -2       720       725       827      3024      3304      3305
 -1      1522    8    0    1
 -2       706       698       719      3004      2966      3306
 -1      1523    8    0    1
 -2       710       709       828      3018      3307      3308
 -1      1524    8    0    1
 -2       711       665       829      2941      3309      3310
 -1      1525    8    0    1
 -2       665       790       829      3194      3311      3309
 -1      1526    8    0    1
 -2       716       710       830      3023      3312      3313
 -1      1527    8    0    1
 -2       721       722       831      3032      3314      3315
 -1      1528    8    0    1
 -2       611       708       832      3014      3316      3317
 -1      1529    8    0    1
 -2       823       711       829      3290      3310      3318
 -1      1530    8    0    1
 -2       727       715       833      2989      3319      3320
 -1      1531    8    0    1
 -2       788       613       822      3187      3321      3322
 -1      1532    8    0    1
 -2       787       617       822      3185      3289      3323
 -1      1533    8    0    1
 -2       785       707       825      3181      3299      3324
 -1      1534    8    0    1
 -2       709       785       828      3182      3325      3307
 -1      1535    8    0    1
 -2       728       786       834      3184      3326      3327
 -1      1536    8    0    1
 -2       620       787       737      3186      3328      3300
 -1      1537    8    0    1
 -2       614       788       835      3188      3329      3330
 -1      1538    8    0    1
 -2       614       835       726      3330      3331      2983
 -1      1539    8    0    1
 -2       732       728       834      3189      3327      3332
 -1      1540    8    0    1
 -2       831       722       836      3314      3333      3334
 -1      1541    8    0    1
 -2       722       733       836      3017      3335      3333
 -1      1542    8    0    1
 -2       820       713       837      3284      3336      3337
 -1      1543    8    0    1
 -2       713       731       837      3007      3338      3336
 -1      1544    8    0    1
 -2       825       721       831      3298      3315      3339
 -1      1545    8    0    1
 -2       699       701       838      2915      3340      3341
 -1      1546    8    0    1
 -2       819       720       827      3282      3305      3342
 -1      1547    8    0    1
 -2       718       820       826      3285      3343      3302
 -1      1548    8    0    1
 -2       822       716       830      3288      3313      3344
 -1      1549    8    0    1
 -2       697       821       839      3287      3345      3346
 -1      1550    8    0    1
 -2       697       839       701      3346      3347      2916
 -1      1551    8    0    1
 -2       731       705       823      3005      3293      3348
 -1      1552    8    0    1
 -2       823       723       712      3292      3349      3291
 -1      1553    8    0    1
 -2       786       663       826      3183      3303      3350
 -1      1554    8    0    1
 -2       733       611       832      3015      3317      3351
 -1      1555    8    0    1
 -2       822       613       714      3321      2949      3352
 -1      1556    8    0    1
 -2       735       699       840      3028      3353      3354
 -1      1557    8    0    1
 -2       699       838       840      3341      3355      3353
 -1      1558    8    0    1
 -2       832       708       819      3316      3283      3356
 -1      1559    8    0    1
 -2       833       715       841      3319      3357      3358
 -1      1560    8    0    1
 -2       715       734       841      3021      3359      3357
 -1      1561    8    0    1
 -2       615       737       787      3039      3328      3360
 -1      1562    8    0    1
 -2       827       725       842      3304      3361      3362
 -1      1563    8    0    1
 -2       706       719       738      3306      3363      3043
 -1      1564    8    0    1
 -2       714       615       787      2950      3360      3364
 -1      1565    8    0    1
 -2       710       828       830      3308      3365      3312
 -1      1566    8    0    1
 -2       725       732       842      3011      3366      3361
 -1      1567    8    0    1
 -2       704       736       843      3035      3367      3368
 -1      1568    8    0    1
 -2       741       704       843      3050      3368      3369
 -1      1569    8    0    1
 -2       736       783       843      3177      3370      3367
 -1      1570    8    0    1
 -2       618       724       740      2979      3048      3371
 -1      1571    8    0    1
 -2       618       740       742      3371      3372      3053
 -1      1572    8    0    1
 -2       738       719       737      3363      3301      3042
 -1      1573    8    0    1
 -2       714       787       822      3364      3323      3352
 -1      1574    8    0    1
 -2       788       822       830      3322      3344      3373
 -1      1575    8    0    1
 -2       740       727       742      3049      3374      3372
 -1      1576    8    0    1
 -2       743       742       844      3057      3375      3376
 -1      1577    8    0    1
 -2       744       743       845      3060      3377      3378
 -1      1578    8    0    1
 -2       743       844       845      3376      3379      3377
 -1      1579    8    0    1
 -2       745       744       846      3063      3380      3381
 -1      1580    8    0    1
 -2       744       845       846      3378      3382      3380
 -1      1581    8    0    1
 -2       746       745       836      3066      3383      3384
 -1      1582    8    0    1
 -2       748       747       847      3072      3385      3386
 -1      1583    8    0    1
 -2       749       748       819      3075      3387      3388
 -1      1584    8    0    1
 -2       751       750       848      3081      3389      3390
 -1      1585    8    0    1
 -2       752       751       849      3084      3391      3392
 -1      1586    8    0    1
 -2       751       848       849      3390      3393      3391
 -1      1587    8    0    1
 -2       753       752       850      3087      3394      3395
 -1      1588    8    0    1
 -2       752       849       850      3392      3396      3394
 -1      1589    8    0    1
 -2       754       753       851      3090      3397      3398
 -1      1590    8    0    1
 -2       753       850       851      3395      3399      3397
 -1      1591    8    0    1
 -2       755       754       852      3093      3400      3401
 -1      1592    8    0    1
 -2       754       851       852      3398      3402      3400
 -1      1593    8    0    1
 -2       756       755       853      3096      3403      3404
 -1      1594    8    0    1
 -2       755       852       853      3401      3405      3403
 -1      1595    8    0    1
 -2       757       756       854      3099      3406      3407
 -1      1596    8    0    1
 -2       756       853       854      3404      3408      3406
 -1      1597    8    0    1
 -2       758       757       855      3102      3409      3410
 -1      1598    8    0    1
 -2       757       854       855      3407      3411      3409
 -1      1599    8    0    1
 -2       759       758       856      3105      3412      3413
 -1      1600    8    0    1
 -2       758       855       856      3410      3414      3412
 -1      1601    8    0    1
 -2       760       759       857      3108      3415      3416
 -1      1602    8    0    1
 -2       759       856       857      3413      3417      3415
 -1      1603    8    0    1
 -2       761       760       858      3111      3418      3419
 -1      1604    8    0    1
 -2       760       857       858      3416      3420      3418
 -1      1605    8    0    1
 -2       762       761       859      3114      3421      3422
 -1      1606    8    0    1
 -2       761       858       859      3419      3423      3421
 -1      1607    8    0    1
 -2       763       762       860      3117      3424      3425
 -1      1608    8    0    1
 -2       762       859       860      3422      3426      3424
 -1      1609    8    0    1
 -2       764       763       861      3120      3427      3428
 -1      1610    8    0    1
 -2       763       860       861      3425      3429      3427
 -1      1611    8    0    1
 -2       765       764       862      3123      3430      3431
 -1      1612    8    0    1
 -2       764       861       862      3428      3432      3430
 -1      1613    8    0    1
 -2       766       765       863      3126      3433      3434
 -1      1614    8    0    1
 -2       765       862       863      3431      3435      3433
 -1      1615    8    0    1
 -2       767       766       864      3129      3436      3437
 -1      1616    8    0    1
 -2       766       863       864      3434      3438      3436
 -1      1617    8    0    1
 -2       768       767       865      3132      3439      3440
 -1      1618    8    0    1
 -2       767       864       865      3437      3441      3439
 -1      1619    8    0    1
 -2       769       768       866      3135      3442      3443
 -1      1620    8    0    1
 -2       768       865       866      3440      3444      3442
 -1      1621    8    0    1
 -2       770       769       867      3138      3445      3446
 -1      1622    8    0    1
 -2       769       866       867      3443      3447      3445
 -1      1623    8    0    1
 -2       771       770       868      3141      3448      3449
 -1      1624    8    0    1
 -2       770       867       868      3446      3450      3448
 -1      1625    8    0    1
 -2       772       771       869      3144      3451      3452
 -1      1626    8    0    1
 -2       771       868       869      3449      3453      3451
 -1      1627    8    0    1
 -2       773       772       870      3147      3454      3455
 -1      1628    8    0    1
 -2       772       869       870      3452      3456      3454
 -1      1629    8    0    1
 -2       774       773       871      3150      3457      3458
 -1      1630    8    0    1
 -2       773       870       871      3455      3459      3457
 -1      1631    8    0    1
 -2       775       774       872      3153      3460      3461
 -1      1632    8    0    1
 -2       774       871       872      3458      3462      3460
 -1      1633    8    0    1
 -2       776       775       873      3156      3463      3464
 -1      1634    8    0    1
 -2       775       872       873      3461      3465      3463
 -1      1635    8    0    1
 -2       777       776       874      3159      3466      3467
 -1      1636    8    0    1
 -2       776       873       874      3464      3468      3466
 -1      1637    8    0    1
 -2       778       777       875      3162      3469      3470
 -1      1638    8    0    1
 -2       777       874       875      3467      3471      3469
 -1      1639    8    0    1
 -2       779       778       876      3165      3472      3473
 -1      1640    8    0    1
 -2       778       875       876      3470      3474      3472
 -1      1641    8    0    1
 -2       780       779       877      3168      3475      3476
 -1      1642    8    0    1
 -2       779       876       877      3473      3477      3475
 -1      1643    8    0    1
 -2       781       780       878      3171      3478      3479
 -1      1644    8    0    1
 -2       780       877       878      3476      3480      3478
 -1      1645    8    0    1
 -2       782       781       879      3174      3481      3482
 -1      1646    8    0    1
 -2       781       878       879      3479      3483      3481
 -1      1647    8    0    1
 -2       834       786       880      3326      3484      3485
 -1      1648    8    0    1
 -2       827       842       881      3362      3486      3487
 -1      1649    8    0    1
 -2       789       784       882      3192      3488      3489
 -1      1650    8    0    1
 -2       790       789       883      3195      3490      3491
 -1      1651    8    0    1
 -2       789       882       883      3489      3492      3490
 -1      1652    8    0    1
 -2       792       793       884      3204      3493      3494
 -1      1653    8    0    1
 -2       793       794       885      3207      3495      3496
 -1      1654    8    0    1
 -2       793       885       884      3496      3497      3493
 -1      1655    8    0    1
 -2       794       795       886      3210      3498      3499
 -1      1656    8    0    1
 -2       794       886       885      3499      3500      3495
 -1      1657    8    0    1
 -2       795       796       887      3213      3501      3502
 -1      1658    8    0    1
 -2       795       887       886      3502      3503      3498
 -1      1659    8    0    1
 -2       796       797       888      3216      3504      3505
 -1      1660    8    0    1
 -2       796       888       887      3505      3506      3501
 -1      1661    8    0    1
 -2       797       798       889      3219      3507      3508
 -1      1662    8    0    1
 -2       797       889       888      3508      3509      3504
 -1      1663    8    0    1
 -2       798       799       890      3222      3510      3511
 -1      1664    8    0    1
 -2       798       890       889      3511      3512      3507
 -1      1665    8    0    1
 -2       799       800       891      3225      3513      3514
 -1      1666    8    0    1
 -2       799       891       890      3514      3515      3510
 -1      1667    8    0    1
 -2       800       801       892      3228      3516      3517
 -1      1668    8    0    1
 -2       800       892       891      3517      3518      3513
 -1      1669    8    0    1
 -2       801       802       893      3231      3519      3520
 -1      1670    8    0    1
 -2       801       893       892      3520      3521      3516
 -1      1671    8    0    1
 -2       802       803       894      3234      3522      3523
 -1      1672    8    0    1
 -2       802       894       893      3523      3524      3519
 -1      1673    8    0    1
 -2       803       804       895      3237      3525      3526
 -1      1674    8    0    1
 -2       803       895       894      3526      3527      3522
 -1      1675    8    0    1
 -2       804       805       896      3240      3528      3529
 -1      1676    8    0    1
 -2       804       896       895      3529      3530      3525
 -1      1677    8    0    1
 -2       805       806       897      3243      3531      3532
 -1      1678    8    0    1
 -2       805       897       896      3532      3533      3528
 -1      1679    8    0    1
 -2       806       807       898      3246      3534      3535
 -1      1680    8    0    1
 -2       806       898       897      3535      3536      3531
 -1      1681    8    0    1
 -2       807       808       899      3249      3537      3538
 -1      1682    8    0    1
 -2       807       899       898      3538      3539      3534
 -1      1683    8    0    1
 -2       808       809       900      3252      3540      3541
 -1      1684    8    0    1
 -2       808       900       899      3541      3542      3537
 -1      1685    8    0    1
 -2       809       810       901      3255      3543      3544
 -1      1686    8    0    1
 -2       809       901       900      3544      3545      3540
 -1      1687    8    0    1
 -2       810       811       902      3258      3546      3547
 -1      1688    8    0    1
 -2       810       902       901      3547      3548      3543
 -1      1689    8    0    1
 -2       811       812       903      3261      3549      3550
 -1      1690    8    0    1
 -2       811       903       902      3550      3551      3546
 -1      1691    8    0    1
 -2       812       813       904      3264      3552      3553
 -1      1692    8    0    1
 -2       812       904       903      3553      3554      3549
 -1      1693    8    0    1
 -2       813       814       905      3267      3555      3556
 -1      1694    8    0    1
 -2       813       905       904      3556      3557      3552
 -1      1695    8    0    1
 -2       814       815       906      3270      3558      3559
 -1      1696    8    0    1
 -2       814       906       905      3559      3560      3555
 -1      1697    8    0    1
 -2       815       816       907      3273      3561      3562
 -1      1698    8    0    1
 -2       815       907       906      3562      3563      3558
 -1      1699    8    0    1
 -2       816       817       908      3276      3564      3565
 -1      1700    8    0    1
 -2       816       908       907      3565      3566      3561
 -1      1701    8    0    1
 -2       838       701       839      3340      3347      3567
 -1      1702    8    0    1
 -2       723       730       712      3003      3568      3349
 -1      1703    8    0    1
 -2       785       825       909      3324      3569      3570
 -1      1704    8    0    1
 -2       731       823       910      3348      3571      3572
 -1      1705    8    0    1
 -2       837       731       910      3338      3572      3573
 -1      1706    8    0    1
 -2       823       829       910      3318      3574      3571
 -1      1707    8    0    1
 -2       784       791       911      3198      3575      3576
 -1      1708    8    0    1
 -2       784       911       882      3576      3577      3488
 -1      1709    8    0    1
 -2       828       785       912      3325      3578      3579
 -1      1710    8    0    1
 -2       786       826       913      3350      3580      3581
 -1      1711    8    0    1
 -2       786       913       880      3581      3582      3484
 -1      1712    8    0    1
 -2       734       726       914      3022      3583      3584
 -1      1713    8    0    1
 -2       841       734       914      3359      3584      3585
 -1      1714    8    0    1
 -2       726       835       914      3331      3586      3583
 -1      1715    8    0    1
 -2       825       831       915      3339      3587      3588
 -1      1716    8    0    1
 -2       825       915       909      3588      3589      3569
 -1      1717    8    0    1
 -2       829       790       916      3311      3590      3591
 -1      1718    8    0    1
 -2       910       829       916      3574      3591      3592
 -1      1719    8    0    1
 -2       790       883       916      3491      3593      3590
 -1      1720    8    0    1
 -2       730       664       712      3281      2993      3568
 -1      1721    8    0    1
 -2       733       832       917      3351      3594      3595
 -1      1722    8    0    1
 -2       733       917       836      3595      3596      3335
 -1      1723    8    0    1
 -2       826       820       918      3343      3597      3598
 -1      1724    8    0    1
 -2       826       918       913      3598      3599      3580
 -1      1725    8    0    1
 -2       739       741       919      3052      3600      3601
 -1      1726    8    0    1
 -2       729       735       920      3027      3602      3603
 -1      1727    8    0    1
 -2       818       729       920      3280      3603      3604
 -1      1728    8    0    1
 -2       735       840       920      3354      3605      3602
 -1      1729    8    0    1
 -2       842       732       834      3366      3332      3606
 -1      1730    8    0    1
 -2       791       792       921      3201      3607      3608
 -1      1731    8    0    1
 -2       792       884       921      3494      3609      3607
 -1      1732    8    0    1
 -2       788       830       835      3373      3610      3329
 -1      1733    8    0    1
 -2       830       828       835      3365      3611      3610
 -1      1734    8    0    1
 -2       749       819       922      3388      3612      3613
 -1      1735    8    0    1
 -2       750       749       922      3078      3613      3614
 -1      1736    8    0    1
 -2       819       827       922      3342      3615      3612
 -1      1737    8    0    1
 -2       842       834       923      3606      3616      3617
 -1      1738    8    0    1
 -2       819       748       847      3387      3386      3618
 -1      1739    8    0    1
 -2       848       750       922      3389      3614      3619
 -1      1740    8    0    1
 -2       828       912       914      3579      3620      3621
 -1      1741    8    0    1
 -2       844       742       833      3375      3622      3623
 -1      1742    8    0    1
 -2       745       846       836      3381      3624      3383
 -1      1743    8    0    1
 -2       746       836       917      3384      3596      3625
 -1      1744    8    0    1
 -2       746       917       747      3625      3626      3069
 -1      1745    8    0    1
 -2       834       880       923      3485      3627      3616
 -1      1746    8    0    1
 -2       783       782       924      3178      3628      3629
 -1      1747    8    0    1
 -2       843       783       924      3370      3629      3630
 -1      1748    8    0    1
 -2       782       879       924      3482      3631      3628
 -1      1749    8    0    1
 -2       828       914       835      3621      3586      3611
 -1      1750    8    0    1
 -2       911       791       921      3575      3608      3632
 -1      1751    8    0    1
 -2       838       839       925      3567      3633      3634
 -1      1752    8    0    1
 -2       817       818       920      3279      3604      3635
 -1      1753    8    0    1
 -2       842       923       881      3617      3636      3486
 -1      1754    8    0    1
 -2       839       821       926      3345      3637      3638
 -1      1755    8    0    1
 -2       839       926       925      3638      3639      3633
 -1      1756    8    0    1
 -2       739       919       927      3601      3640      3641
 -1      1757    8    0    1
 -2       739       927       824      3641      3642      3297
 -1      1758    8    0    1
 -2       912       785       909      3578      3570      3643
 -1      1759    8    0    1
 -2       820       837       928      3337      3644      3645
 -1      1760    8    0    1
 -2       820       928       918      3645      3646      3597
 -1      1761    8    0    1
 -2       840       838       929      3355      3647      3648
 -1      1762    8    0    1
 -2       838       925       929      3634      3649      3647
 -1      1763    8    0    1
 -2       821       824       930      3296      3650      3651
 -1      1764    8    0    1
 -2       926       821       930      3637      3651      3652
 -1      1765    8    0    1
 -2       824       927       930      3642      3653      3650
 -1      1766    8    0    1
 -2       819       847       832      3618      3654      3356
 -1      1767    8    0    1
 -2       741       843       924      3369      3630      3655
 -1      1768    8    0    1
 -2       917       832       847      3594      3654      3656
 -1      1769    8    0    1
 -2       742       727       833      3374      3320      3622
 -1      1770    8    0    1
 -2       741       924       919      3655      3657      3600
 -1      1771    8    0    1
 -2       747       917       847      3626      3656      3385
 -1      1772    8    0    1
 -2       844       833       931      3623      3658      3659
 -1      1773    8    0    1
 -2       845       844       931      3379      3659      3660
 -1      1774    8    0    1
 -2       833       841       931      3358      3661      3658
 -1      1775    8    0    1
 -2       817       920       908      3635      3662      3564
 -1      1776    8    0    1
 -2       919       924       879      3657      3631      3663
 -1      1777    8    0    1
 -2       914       912       841      3620      3664      3585
 -1      1778    8    0    1
 -2       883       882       932      3492      3665      3666
 -1      1779    8    0    1
 -2       846       845       933      3382      3667      3668
 -1      1780    8    0    1
 -2       845       931       933      3660      3669      3667
 -1      1781    8    0    1
 -2       848       922       881      3619      3670      3671
 -1      1782    8    0    1
 -2       923       880       934      3627      3672      3673
 -1      1783    8    0    1
 -2       841       912       931      3664      3674      3661
 -1      1784    8    0    1
 -2       850       849       935      3396      3675      3676
 -1      1785    8    0    1
 -2       852       851       936      3402      3677      3678
 -1      1786    8    0    1
 -2       853       852       937      3405      3679      3680
 -1      1787    8    0    1
 -2       852       936       937      3678      3681      3679
 -1      1788    8    0    1
 -2       854       853       938      3408      3682      3683
 -1      1789    8    0    1
 -2       853       937       938      3680      3684      3682
 -1      1790    8    0    1
 -2       855       854       939      3411      3685      3686
 -1      1791    8    0    1
 -2       854       938       939      3683      3687      3685
 -1      1792    8    0    1
 -2       856       855       940      3414      3688      3689
 -1      1793    8    0    1
 -2       855       939       940      3686      3690      3688
 -1      1794    8    0    1
 -2       857       856       941      3417      3691      3692
 -1      1795    8    0    1
 -2       856       940       941      3689      3693      3691
 -1      1796    8    0    1
 -2       858       857       942      3420      3694      3695
 -1      1797    8    0    1
 -2       857       941       942      3692      3696      3694
 -1      1798    8    0    1
 -2       859       858       943      3423      3697      3698
 -1      1799    8    0    1
 -2       858       942       943      3695      3699      3697
 -1      1800    8    0    1
 -2       860       859       944      3426      3700      3701
 -1      1801    8    0    1
 -2       859       943       944      3698      3702      3700
 -1      1802    8    0    1
 -2       861       860       945      3429      3703      3704
 -1      1803    8    0    1
 -2       860       944       945      3701      3705      3703
 -1      1804    8    0    1
 -2       862       861       946      3432      3706      3707
 -1      1805    8    0    1
 -2       861       945       946      3704      3708      3706
 -1      1806    8    0    1
 -2       863       862       947      3435      3709      3710
 -1      1807    8    0    1
 -2       862       946       947      3707      3711      3709
 -1      1808    8    0    1
 -2       864       863       948      3438      3712      3713
 -1      1809    8    0    1
 -2       863       947       948      3710      3714      3712
 -1      1810    8    0    1
 -2       865       864       949      3441      3715      3716
 -1      1811    8    0    1
 -2       864       948       949      3713      3717      3715
 -1      1812    8    0    1
 -2       866       865       950      3444      3718      3719
 -1      1813    8    0    1
 -2       865       949       950      3716      3720      3718
 -1      1814    8    0    1
 -2       867       866       951      3447      3721      3722
 -1      1815    8    0    1
 -2       866       950       951      3719      3723      3721
 -1      1816    8    0    1
 -2       868       867       952      3450      3724      3725
 -1      1817    8    0    1
 -2       867       951       952      3722      3726      3724
 -1      1818    8    0    1
 -2       869       868       953      3453      3727      3728
 -1      1819    8    0    1
 -2       868       952       953      3725      3729      3727
 -1      1820    8    0    1
 -2       870       869       954      3456      3730      3731
 -1      1821    8    0    1
 -2       869       953       954      3728      3732      3730
 -1      1822    8    0    1
 -2       871       870       955      3459      3733      3734
 -1      1823    8    0    1
 -2       870       954       955      3731      3735      3733
 -1      1824    8    0    1
 -2       872       871       956      3462      3736      3737
 -1      1825    8    0    1
 -2       871       955       956      3734      3738      3736
 -1      1826    8    0    1
 -2       873       872       957      3465      3739      3740
 -1      1827    8    0    1
 -2       872       956       957      3737      3741      3739
 -1      1828    8    0    1
 -2       874       873       958      3468      3742      3743
 -1      1829    8    0    1
 -2       873       957       958      3740      3744      3742
 -1      1830    8    0    1
 -2       875       874       959      3471      3745      3746
 -1      1831    8    0    1
 -2       874       958       959      3743      3747      3745
 -1      1832    8    0    1
 -2       876       875       960      3474      3748      3749
 -1      1833    8    0    1
 -2       875       959       960      3746      3750      3748
 -1      1834    8    0    1
 -2       877       876       961      3477      3751      3752
 -1      1835    8    0    1
 -2       876       960       961      3749      3753      3751
 -1      1836    8    0    1
 -2       878       877       962      3480      3754      3755
 -1      1837    8    0    1
 -2       877       961       962      3752      3756      3754
 -1      1838    8    0    1
 -2       879       878       963      3483      3757      3758
 -1      1839    8    0    1
 -2       878       962       963      3755      3759      3757
 -1      1840    8    0    1
 -2       827       881       922      3487      3670      3615
 -1      1841    8    0    1
 -2       911       921       964      3632      3760      3761
 -1      1842    8    0    1
 -2       913       918       965      3599      3762      3763
 -1      1843    8    0    1
 -2       885       886       966      3500      3764      3765
 -1      1844    8    0    1
 -2       884       885       967      3497      3766      3767
 -1      1845    8    0    1
 -2       885       966       967      3765      3768      3766
 -1      1846    8    0    1
 -2       887       888       968      3506      3769      3770
 -1      1847    8    0    1
 -2       888       889       969      3509      3771      3772
 -1      1848    8    0    1
 -2       888       969       968      3772      3773      3769
 -1      1849    8    0    1
 -2       889       890       970      3512      3774      3775
 -1      1850    8    0    1
 -2       889       970       969      3775      3776      3771
 -1      1851    8    0    1
 -2       890       891       971      3515      3777      3778
 -1      1852    8    0    1
 -2       890       971       970      3778      3779      3774
 -1      1853    8    0    1
 -2       891       892       972      3518      3780      3781
 -1      1854    8    0    1
 -2       891       972       971      3781      3782      3777
 -1      1855    8    0    1
 -2       892       893       973      3521      3783      3784
 -1      1856    8    0    1
 -2       892       973       972      3784      3785      3780
 -1      1857    8    0    1
 -2       893       894       974      3524      3786      3787
 -1      1858    8    0    1
 -2       893       974       973      3787      3788      3783
 -1      1859    8    0    1
 -2       894       895       975      3527      3789      3790
 -1      1860    8    0    1
 -2       894       975       974      3790      3791      3786
 -1      1861    8    0    1
 -2       895       896       976      3530      3792      3793
 -1      1862    8    0    1
 -2       895       976       975      3793      3794      3789
 -1      1863    8    0    1
 -2       896       897       977      3533      3795      3796
 -1      1864    8    0    1
 -2       896       977       976      3796      3797      3792
 -1      1865    8    0    1
 -2       897       898       978      3536      3798      3799
 -1      1866    8    0    1
 -2       897       978       977      3799      3800      3795
 -1      1867    8    0    1
 -2       898       899       979      3539      3801      3802
 -1      1868    8    0    1
 -2       898       979       978      3802      3803      3798
 -1      1869    8    0    1
 -2       899       900       980      3542      3804      3805
 -1      1870    8    0    1
 -2       899       980       979      3805      3806      3801
 -1      1871    8    0    1
 -2       900       901       981      3545      3807      3808
 -1      1872    8    0    1
 -2       900       981       980      3808      3809      3804
 -1      1873    8    0    1
 -2       901       902       982      3548      3810      3811
 -1      1874    8    0    1
 -2       901       982       981      3811      3812      3807
 -1      1875    8    0    1
 -2       902       903       983      3551      3813      3814
 -1      1876    8    0    1
 -2       902       983       982      3814      3815      3810
 -1      1877    8    0    1
 -2       903       904       984      3554      3816      3817
 -1      1878    8    0    1
 -2       903       984       983      3817      3818      3813
 -1      1879    8    0    1
 -2       904       905       985      3557      3819      3820
 -1      1880    8    0    1
 -2       904       985       984      3820      3821      3816
 -1      1881    8    0    1
 -2       905       906       986      3560      3822      3823
 -1      1882    8    0    1
 -2       905       986       985      3823      3824      3819
 -1      1883    8    0    1
 -2       906       907       987      3563      3825      3826
 -1      1884    8    0    1
 -2       906       987       986      3826      3827      3822
 -1      1885    8    0    1
 -2       919       879       963      3663      3758      3828
 -1      1886    8    0    1
 -2       837       910       988      3573      3829      3830
 -1      1887    8    0    1
 -2       928       837       988      3644      3830      3831
 -1      1888    8    0    1
 -2       910       916       988      3592      3832      3829
 -1      1889    8    0    1
 -2       880       913       989      3582      3833      3834
 -1      1890    8    0    1
 -2       913       965       989      3763      3835      3833
 -1      1891    8    0    1
 -2       920       840       908      3605      3836      3662
 -1      1892    8    0    1
 -2       909       915       933      3589      3837      3838
 -1      1893    8    0    1
 -2       849       848       990      3393      3839      3840
 -1      1894    8    0    1
 -2       935       849       990      3675      3840      3841
 -1      1895    8    0    1
 -2       848       881       990      3671      3842      3839
 -1      1896    8    0    1
 -2       925       926       991      3639      3843      3844
 -1      1897    8    0    1
 -2       921       884       992      3609      3845      3846
 -1      1898    8    0    1
 -2       964       921       992      3760      3846      3847
 -1      1899    8    0    1
 -2       884       967       992      3767      3848      3845
 -1      1900    8    0    1
 -2       886       887       993      3503      3849      3850
 -1      1901    8    0    1
 -2       887       968       993      3770      3851      3849
 -1      1902    8    0    1
 -2       882       911       994      3577      3852      3853
 -1      1903    8    0    1
 -2       932       882       994      3665      3853      3854
 -1      1904    8    0    1
 -2       911       964       994      3761      3855      3852
 -1      1905    8    0    1
 -2       908       840       929      3836      3648      3856
 -1      1906    8    0    1
 -2       836       846       915      3624      3857      3858
 -1      1907    8    0    1
 -2       925       991       995      3844      3859      3860
 -1      1908    8    0    1
 -2       925       995       929      3860      3861      3649
 -1      1909    8    0    1
 -2       846       933       915      3668      3837      3857
 -1      1910    8    0    1
 -2       923       934       935      3673      3862      3863
 -1      1911    8    0    1
 -2       991       926       996      3843      3864      3865
 -1      1912    8    0    1
 -2       926       930       996      3652      3866      3864
 -1      1913    8    0    1
 -2       850       935       997      3676      3867      3868
 -1      1914    8    0    1
 -2       851       850       997      3399      3868      3869
 -1      1915    8    0    1
 -2       935       934       997      3862      3870      3867
 -1      1916    8    0    1
 -2       966       886       993      3764      3850      3871
 -1      1917    8    0    1
 -2       965       918       998      3762      3872      3873
 -1      1918    8    0    1
 -2       918       928       998      3646      3874      3872
 -1      1919    8    0    1
 -2       919       963       927      3828      3875      3640
 -1      1920    8    0    1
 -2       907       908       999      3566      3876      3877
 -1      1921    8    0    1
 -2       934       880       989      3672      3834      3878
 -1      1922    8    0    1
 -2       907       999       987      3877      3879      3825
 -1      1923    8    0    1
 -2       916       883      1000      3593      3880      3881
 -1      1924    8    0    1
 -2       988       916      1000      3832      3881      3882
 -1      1925    8    0    1
 -2       883       932      1000      3666      3883      3880
 -1      1926    8    0    1
 -2       915       831       836      3587      3334      3858
 -1      1927    8    0    1
 -2       909       933       931      3838      3669      3884
 -1      1928    8    0    1
 -2       912       909       931      3643      3884      3674
 -1      1929    8    0    1
 -2       851       997       936      3869      3885      3677
 -1      1930    8    0    1
 -2       937       936      1001      3681      3886      3887
 -1      1931    8    0    1
 -2       993       968      1002      3851      3888      3889
 -1      1932    8    0    1
 -2       936       997      1003      3885      3890      3891
 -1      1933    8    0    1
 -2      1001       936      1003      3886      3891      3892
 -1      1934    8    0    1
 -2       997       934      1003      3870      3893      3890
 -1      1935    8    0    1
 -2       938       937      1004      3684      3894      3895
 -1      1936    8    0    1
 -2       937      1001      1004      3887      3896      3894
 -1      1937    8    0    1
 -2       939       938      1005      3687      3897      3898
 -1      1938    8    0    1
 -2       938      1004      1005      3895      3899      3897
 -1      1939    8    0    1
 -2       940       939      1006      3690      3900      3901
 -1      1940    8    0    1
 -2       939      1005      1006      3898      3902      3900
 -1      1941    8    0    1
 -2       941       940      1007      3693      3903      3904
 -1      1942    8    0    1
 -2       940      1006      1007      3901      3905      3903
 -1      1943    8    0    1
 -2       942       941      1008      3696      3906      3907
 -1      1944    8    0    1
 -2       941      1007      1008      3904      3908      3906
 -1      1945    8    0    1
 -2       943       942      1009      3699      3909      3910
 -1      1946    8    0    1
 -2       942      1008      1009      3907      3911      3909
 -1      1947    8    0    1
 -2       944       943      1010      3702      3912      3913
 -1      1948    8    0    1
 -2       943      1009      1010      3910      3914      3912
 -1      1949    8    0    1
 -2       945       944      1011      3705      3915      3916
 -1      1950    8    0    1
 -2       944      1010      1011      3913      3917      3915
 -1      1951    8    0    1
 -2       946       945      1012      3708      3918      3919
 -1      1952    8    0    1
 -2       945      1011      1012      3916      3920      3918
 -1      1953    8    0    1
 -2       947       946      1013      3711      3921      3922
 -1      1954    8    0    1
 -2       946      1012      1013      3919      3923      3921
 -1      1955    8    0    1
 -2       948       947      1014      3714      3924      3925
 -1      1956    8    0    1
 -2       947      1013      1014      3922      3926      3924
 -1      1957    8    0    1
 -2       949       948      1015      3717      3927      3928
 -1      1958    8    0    1
 -2       948      1014      1015      3925      3929      3927
 -1      1959    8    0    1
 -2       950       949      1016      3720      3930      3931
 -1      1960    8    0    1
 -2       949      1015      1016      3928      3932      3930
 -1      1961    8    0    1
 -2       951       950      1017      3723      3933      3934
 -1      1962    8    0    1
 -2       950      1016      1017      3931      3935      3933
 -1      1963    8    0    1
 -2       952       951      1018      3726      3936      3937
 -1      1964    8    0    1
 -2       951      1017      1018      3934      3938      3936
 -1      1965    8    0    1
 -2       953       952      1019      3729      3939      3940
 -1      1966    8    0    1
 -2       952      1018      1019      3937      3941      3939
 -1      1967    8    0    1
 -2       954       953      1020      3732      3942      3943
 -1      1968    8    0    1
 -2       953      1019      1020      3940      3944      3942
 -1      1969    8    0    1
 -2       955       954      1021      3735      3945      3946
 -1      1970    8    0    1
 -2       954      1020      1021      3943      3947      3945
 -1      1971    8    0    1
 -2       956       955      1022      3738      3948      3949
 -1      1972    8    0    1
 -2       955      1021      1022      3946      3950      3948
 -1      1973    8    0    1
 -2       957       956      1023      3741      3951      3952
 -1      1974    8    0    1
 -2       956      1022      1023      3949      3953      3951
 -1      1975    8    0    1
 -2       958       957      1024      3744      3954      3955
 -1      1976    8    0    1
 -2       957      1023      1024      3952      3956      3954
 -1      1977    8    0    1
 -2       959       958      1025      3747      3957      3958
 -1      1978    8    0    1
 -2       958      1024      1025      3955      3959      3957
 -1      1979    8    0    1
 -2       960       959      1026      3750      3960      3961
 -1      1980    8    0    1
 -2       959      1025      1026      3958      3962      3960
 -1      1981    8    0    1
 -2       961       960      1027      3753      3963      3964
 -1      1982    8    0    1
 -2       960      1026      1027      3961      3965      3963
 -1      1983    8    0    1
 -2       962       961      1028      3756      3966      3967
 -1      1984    8    0    1
 -2       961      1027      1028      3964      3968      3966
 -1      1985    8    0    1
 -2       963       962      1029      3759      3969      3970
 -1      1986    8    0    1
 -2       962      1028      1029      3967      3971      3969
 -1      1987    8    0    1
 -2       967       966      1030      3768      3972      3973
 -1      1988    8    0    1
 -2       923       935       990      3863      3841      3974
 -1      1989    8    0    1
 -2       969       970      1031      3776      3975      3976
 -1      1990    8    0    1
 -2       968       969      1032      3773      3977      3978
 -1      1991    8    0    1
 -2      1002       968      1032      3888      3978      3979
 -1      1992    8    0    1
 -2       969      1031      1032      3976      3980      3977
 -1      1993    8    0    1
 -2       971       972      1033      3782      3981      3982
 -1      1994    8    0    1
 -2       972       973      1034      3785      3983      3984
 -1      1995    8    0    1
 -2       972      1034      1033      3984      3985      3981
 -1      1996    8    0    1
 -2       973       974      1035      3788      3986      3987
 -1      1997    8    0    1
 -2       973      1035      1034      3987      3988      3983
 -1      1998    8    0    1
 -2       974       975      1036      3791      3989      3990
 -1      1999    8    0    1
 -2       974      1036      1035      3990      3991      3986
 -1      2000    8    0    1
 -2       975       976      1037      3794      3992      3993
 -1      2001    8    0    1
 -2       975      1037      1036      3993      3994      3989
 -1      2002    8    0    1
 -2       976       977      1038      3797      3995      3996
 -1      2003    8    0    1
 -2       976      1038      1037      3996      3997      3992
 -1      2004    8    0    1
 -2       977       978      1039      3800      3998      3999
 -1      2005    8    0    1
 -2       977      1039      1038      3999      4000      3995
 -1      2006    8    0    1
 -2       978       979      1040      3803      4001      4002
 -1      2007    8    0    1
 -2       978      1040      1039      4002      4003      3998
 -1      2008    8    0    1
 -2       979       980      1041      3806      4004      4005
 -1      2009    8    0    1
 -2       979      1041      1040      4005      4006      4001
 -1      2010    8    0    1
 -2       980       981      1042      3809      4007      4008
 -1      2011    8    0    1
 -2       980      1042      1041      4008      4009      4004
 -1      2012    8    0    1
 -2       981       982      1043      3812      4010      4011
 -1      2013    8    0    1
 -2       981      1043      1042      4011      4012      4007
 -1      2014    8    0    1
 -2       982       983      1044      3815      4013      4014
 -1      2015    8    0    1
 -2       982      1044      1043      4014      4015      4010
 -1      2016    8    0    1
 -2       983       984      1045      3818      4016      4017
 -1      2017    8    0    1
 -2       983      1045      1044      4017      4018      4013
 -1      2018    8    0    1
 -2       984       985      1046      3821      4019      4020
 -1      2019    8    0    1
 -2       984      1046      1045      4020      4021      4016
 -1      2020    8    0    1
 -2       985       986      1047      3824      4022      4023
 -1      2021    8    0    1
 -2       985      1047      1046      4023      4024      4019
 -1      2022    8    0    1
 -2       986       987      1048      3827      4025      4026
 -1      2023    8    0    1
 -2       986      1048      1047      4026      4027      4022
 -1      2024    8    0    1
 -2       999       908       929      3876      3856      4028
 -1      2025    8    0    1
 -2       934       989      1003      3878      4029      3893
 -1      2026    8    0    1
 -2       989       965      1049      3835      4030      4031
 -1      2027    8    0    1
 -2       927       963      1050      3875      4032      4033
 -1      2028    8    0    1
 -2       930       927      1050      3653      4033      4034
 -1      2029    8    0    1
 -2       963      1029      1050      3970      4035      4032
 -1      2030    8    0    1
 -2       966       993      1051      3871      4036      4037
 -1      2031    8    0    1
 -2      1030       966      1051      3972      4037      4038
 -1      2032    8    0    1
 -2       993      1002      1051      3889      4039      4036
 -1      2033    8    0    1
 -2       881       923       990      3636      3974      3842
 -1      2034    8    0    1
 -2       970       971      1052      3779      4040      4041
 -1      2035    8    0    1
 -2       971      1033      1052      3982      4042      4040
 -1      2036    8    0    1
 -2       999       929       995      4028      3861      4043
 -1      2037    8    0    1
 -2       996       930      1050      3866      4034      4044
 -1      2038    8    0    1
 -2       991       996      1053      3865      4045      4046
 -1      2039    8    0    1
 -2       967      1030      1054      3973      4047      4048
 -1      2040    8    0    1
 -2       967      1054       992      4048      4049      3848
 -1      2041    8    0    1
 -2       928       988      1055      3831      4050      4051
 -1      2042    8    0    1
 -2       998       928      1055      3874      4051      4052
 -1      2043    8    0    1
 -2       988      1000      1055      3882      4053      4050
 -1      2044    8    0    1
 -2      1031       970      1052      3975      4041      4054
 -1      2045    8    0    1
 -2       932       994      1056      3854      4055      4056
 -1      2046    8    0    1
 -2       965       998      1057      3873      4057      4058
 -1      2047    8    0    1
 -2       965      1057      1049      4058      4059      4030
 -1      2048    8    0    1
 -2      1048       987       995      4025      4060      4061
 -1      2049    8    0    1
 -2       987       999       995      3879      4043      4060
 -1      2050    8    0    1
 -2      1000       932      1058      3883      4062      4063
 -1      2051    8    0    1
 -2      1055      1000      1058      4053      4063      4064
 -1      2052    8    0    1
 -2       932      1056      1058      4056      4065      4062
 -1      2053    8    0    1
 -2       964       992      1059      3847      4066      4067
 -1      2054    8    0    1
 -2       992      1054      1059      4049      4068      4066
 -1      2055    8    0    1
 -2       989      1049      1003      4031      4069      4029
 -1      2056    8    0    1
 -2       994       964      1060      3855      4070      4071
 -1      2057    8    0    1
 -2      1056       994      1060      4055      4071      4072
 -1      2058    8    0    1
 -2       964      1059      1060      4067      4073      4070
 -1      2059    8    0    1
 -2       995       991      1061      3859      4074      4075
 -1      2060    8    0    1
 -2      1048       995      1061      4061      4075      4076
 -1      2061    8    0    1
 -2       991      1053      1061      4046      4077      4074
 -1      2062    8    0    1
 -2       996      1050      1062      4044      4078      4079
 -1      2063    8    0    1
 -2      1053       996      1062      4045      4079      4080
 -1      2064    8    0    1
 -2      1050      1029      1062      4035      4081      4078
 -1      2065    8    0    1
 -2      1001      1003      1049      3892      4069      4082
 -1      2066    8    0    1
 -2      1005      1004      1063      3899      4083      4084
 -1      2067    8    0    1
 -2      1006      1005      1064      3902      4085      4086
 -1      2068    8    0    1
 -2      1005      1063      1064      4084      4087      4085
 -1      2069    8    0    1
 -2      1007      1006      1065      3905      4088      4089
 -1      2070    8    0    1
 -2      1006      1064      1065      4086      4090      4088
 -1      2071    8    0    1
 -2      1008      1007      1066      3908      4091      4092
 -1      2072    8    0    1
 -2      1007      1065      1066      4089      4093      4091
 -1      2073    8    0    1
 -2      1009      1008      1067      3911      4094      4095
 -1      2074    8    0    1
 -2      1008      1066      1067      4092      4096      4094
 -1      2075    8    0    1
 -2      1010      1009      1068      3914      4097      4098
 -1      2076    8    0    1
 -2      1009      1067      1068      4095      4099      4097
 -1      2077    8    0    1
 -2      1011      1010      1069      3917      4100      4101
 -1      2078    8    0    1
 -2      1010      1068      1069      4098      4102      4100
 -1      2079    8    0    1
 -2      1012      1011      1070      3920      4103      4104
 -1      2080    8    0    1
 -2      1011      1069      1070      4101      4105      4103
 -1      2081    8    0    1
 -2      1013      1012      1071      3923      4106      4107
 -1      2082    8    0    1
 -2      1012      1070      1071      4104      4108      4106
 -1      2083    8    0    1
 -2      1014      1013      1072      3926      4109      4110
 -1      2084    8    0    1
 -2      1013      1071      1072      4107      4111      4109
 -1      2085    8    0    1
 -2      1015      1014      1073      3929      4112      4113
 -1      2086    8    0    1
 -2      1014      1072      1073      4110      4114      4112
 -1      2087    8    0    1
 -2      1016      1015      1074      3932      4115      4116
 -1      2088    8    0    1
 -2      1015      1073      1074      4113      4117      4115
 -1      2089    8    0    1
 -2      1017      1016      1075      3935      4118      4119
 -1      2090    8    0    1
 -2      1016      1074      1075      4116      4120      4118
 -1      2091    8    0    1
 -2      1018      1017      1076      3938      4121      4122
 -1      2092    8    0    1
 -2      1017      1075      1076      4119      4123      4121
 -1      2093    8    0    1
 -2      1019      1018      1077      3941      4124      4125
 -1      2094    8    0    1
 -2      1018      1076      1077      4122      4126      4124
 -1      2095    8    0    1
 -2      1020      1019      1078      3944      4127      4128
 -1      2096    8    0    1
 -2      1019      1077      1078      4125      4129      4127
 -1      2097    8    0    1
 -2      1021      1020      1079      3947      4130      4131
 -1      2098    8    0    1
 -2      1020      1078      1079      4128      4132      4130
 -1      2099    8    0    1
 -2      1022      1021      1080      3950      4133      4134
 -1      2100    8    0    1
 -2      1021      1079      1080      4131      4135      4133
 -1      2101    8    0    1
 -2      1023      1022      1081      3953      4136      4137
 -1      2102    8    0    1
 -2      1022      1080      1081      4134      4138      4136
 -1      2103    8    0    1
 -2      1024      1023      1082      3956      4139      4140
 -1      2104    8    0    1
 -2      1023      1081      1082      4137      4141      4139
 -1      2105    8    0    1
 -2      1025      1024      1083      3959      4142      4143
 -1      2106    8    0    1
 -2      1024      1082      1083      4140      4144      4142
 -1      2107    8    0    1
 -2      1026      1025      1084      3962      4145      4146
 -1      2108    8    0    1
 -2      1025      1083      1084      4143      4147      4145
 -1      2109    8    0    1
 -2      1027      1026      1085      3965      4148      4149
 -1      2110    8    0    1
 -2      1026      1084      1085      4146      4150      4148
 -1      2111    8    0    1
 -2      1028      1027      1086      3968      4151      4152
 -1      2112    8    0    1
 -2      1027      1085      1086      4149      4153      4151
 -1      2113    8    0    1
 -2      1029      1028      1087      3971      4154      4155
 -1      2114    8    0    1
 -2      1062      1029      1087      4081      4155      4156
 -1      2115    8    0    1
 -2      1028      1086      1087      4152      4157      4154
 -1      2116    8    0    1
 -2      1052      1033      1088      4042      4158      4159
 -1      2117    8    0    1
 -2      1035      1036      1089      3991      4160      4161
 -1      2118    8    0    1
 -2      1033      1034      1090      3985      4162      4163
 -1      2119    8    0    1
 -2      1033      1090      1088      4163      4164      4158
 -1      2120    8    0    1
 -2      1036      1037      1091      3994      4165      4166
 -1      2121    8    0    1
 -2      1036      1091      1089      4166      4167      4160
 -1      2122    8    0    1
 -2      1037      1038      1092      3997      4168      4169
 -1      2123    8    0    1
 -2      1037      1092      1091      4169      4170      4165
 -1      2124    8    0    1
 -2      1038      1039      1093      4000      4171      4172
 -1      2125    8    0    1
 -2      1038      1093      1092      4172      4173      4168
 -1      2126    8    0    1
 -2      1039      1040      1094      4003      4174      4175
 -1      2127    8    0    1
 -2      1039      1094      1093      4175      4176      4171
 -1      2128    8    0    1
 -2      1040      1041      1095      4006      4177      4178
 -1      2129    8    0    1
 -2      1040      1095      1094      4178      4179      4174
 -1      2130    8    0    1
 -2      1041      1042      1096      4009      4180      4181
 -1      2131    8    0    1
 -2      1041      1096      1095      4181      4182      4177
 -1      2132    8    0    1
 -2      1042      1043      1097      4012      4183      4184
 -1      2133    8    0    1
 -2      1042      1097      1096      4184      4185      4180
 -1      2134    8    0    1
 -2      1043      1044      1098      4015      4186      4187
 -1      2135    8    0    1
 -2      1043      1098      1097      4187      4188      4183
 -1      2136    8    0    1
 -2      1044      1045      1099      4018      4189      4190
 -1      2137    8    0    1
 -2      1044      1099      1098      4190      4191      4186
 -1      2138    8    0    1
 -2      1045      1046      1100      4021      4192      4193
 -1      2139    8    0    1
 -2      1045      1100      1099      4193      4194      4189
 -1      2140    8    0    1
 -2      1046      1047      1101      4024      4195      4196
 -1      2141    8    0    1
 -2      1046      1101      1100      4196      4197      4192
 -1      2142    8    0    1
 -2      1047      1048      1102      4027      4198      4199
 -1      2143    8    0    1
 -2      1101      1047      1102      4195      4199      4200
 -1      2144    8    0    1
 -2      1048      1061      1102      4076      4201      4198
 -1      2145    8    0    1
 -2      1001      1049      1103      4082      4202      4203
 -1      2146    8    0    1
 -2      1031      1052      1104      4054      4204      4205
 -1      2147    8    0    1
 -2      1052      1088      1104      4159      4206      4204
 -1      2148    8    0    1
 -2      1034      1035      1105      3988      4207      4208
 -1      2149    8    0    1
 -2      1034      1105      1090      4208      4209      4162
 -1      2150    8    0    1
 -2      1004      1001      1103      3896      4203      4210
 -1      2151    8    0    1
 -2      1030      1051      1106      4038      4211      4212
 -1      2152    8    0    1
 -2      1004      1103      1063      4210      4213      4083
 -1      2153    8    0    1
 -2      1032      1031      1107      3980      4214      4215
 -1      2154    8    0    1
 -2      1031      1104      1107      4205      4216      4214
 -1      2155    8    0    1
 -2      1059      1054      1108      4068      4217      4218
 -1      2156    8    0    1
 -2      1035      1089      1105      4161      4219      4207
 -1      2157    8    0    1
 -2      1061      1053      1109      4077      4220      4221
 -1      2158    8    0    1
 -2      1061      1109      1102      4221      4222      4201
 -1      2159    8    0    1
 -2      1049      1057      1103      4059      4223      4202
 -1      2160    8    0    1
 -2      1002      1032      1110      3979      4224      4225
 -1      2161    8    0    1
 -2      1032      1107      1110      4215      4226      4224
 -1      2162    8    0    1
 -2      1002      1110      1111      4225      4227      4228
 -1      2163    8    0    1
 -2      1002      1111      1051      4228      4229      4039
 -1      2164    8    0    1
 -2      1054      1030      1112      4047      4230      4231
 -1      2165    8    0    1
 -2      1030      1106      1112      4212      4232      4230
 -1      2166    8    0    1
 -2      1059      1108      1113      4218      4233      4234
 -1      2167    8    0    1
 -2      1059      1113      1060      4234      4235      4073
 -1      2168    8    0    1
 -2      1053      1062      1109      4080      4236      4220
 -1      2169    8    0    1
 -2       998      1055      1114      4052      4237      4238
 -1      2170    8    0    1
 -2      1057       998      1114      4057      4238      4239
 -1      2171    8    0    1
 -2      1055      1058      1114      4064      4240      4237
 -1      2172    8    0    1
 -2      1056      1060      1115      4072      4241      4242
 -1      2173    8    0    1
 -2      1060      1113      1115      4235      4243      4241
 -1      2174    8    0    1
 -2      1063      1103      1115      4213      4244      4245
 -1      2175    8    0    1
 -2      1064      1063      1113      4087      4246      4247
 -1      2176    8    0    1
 -2      1108      1054      1112      4217      4231      4248
 -1      2177    8    0    1
 -2      1105      1089      1116      4219      4249      4250
 -1      2178    8    0    1
 -2      1090      1105      1073      4209      4251      4252
 -1      2179    8    0    1
 -2      1065      1064      1108      4090      4253      4254
 -1      2180    8    0    1
 -2      1066      1065      1112      4093      4255      4256
 -1      2181    8    0    1
 -2      1067      1066      1106      4096      4257      4258
 -1      2182    8    0    1
 -2      1068      1067      1111      4099      4259      4260
 -1      2183    8    0    1
 -2      1069      1068      1110      4102      4261      4262
 -1      2184    8    0    1
 -2      1070      1069      1107      4105      4263      4264
 -1      2185    8    0    1
 -2      1071      1070      1104      4108      4265      4266
 -1      2186    8    0    1
 -2      1072      1071      1088      4111      4267      4268
 -1      2187    8    0    1
 -2      1073      1072      1090      4114      4269      4252
 -1      2188    8    0    1
 -2      1075      1074      1116      4120      4270      4271
 -1      2189    8    0    1
 -2      1076      1075      1117      4123      4272      4273
 -1      2190    8    0    1
 -2      1077      1076      1092      4126      4274      4275
 -1      2191    8    0    1
 -2      1078      1077      1093      4129      4276      4277
 -1      2192    8    0    1
 -2      1079      1078      1094      4132      4278      4279
 -1      2193    8    0    1
 -2      1080      1079      1095      4135      4280      4281
 -1      2194    8    0    1
 -2      1081      1080      1096      4138      4282      4283
 -1      2195    8    0    1
 -2      1082      1081      1097      4141      4284      4285
 -1      2196    8    0    1
 -2      1083      1082      1098      4144      4286      4287
 -1      2197    8    0    1
 -2      1084      1083      1099      4147      4288      4289
 -1      2198    8    0    1
 -2      1085      1084      1100      4150      4290      4291
 -1      2199    8    0    1
 -2      1086      1085      1101      4153      4292      4293
 -1      2200    8    0    1
 -2      1095      1079      1094      4280      4279      4179
 -1      2201    8    0    1
 -2      1108      1064      1113      4253      4247      4233
 -1      2202    8    0    1
 -2      1056      1115      1118      4242      4294      4295
 -1      2203    8    0    1
 -2      1088      1090      1072      4164      4269      4268
 -1      2204    8    0    1
 -2      1092      1093      1077      4173      4276      4275
 -1      2205    8    0    1
 -2      1093      1094      1078      4176      4278      4277
 -1      2206    8    0    1
 -2      1095      1096      1080      4182      4282      4281
 -1      2207    8    0    1
 -2      1096      1097      1081      4185      4284      4283
 -1      2208    8    0    1
 -2      1097      1098      1082      4188      4286      4285
 -1      2209    8    0    1
 -2      1098      1099      1083      4191      4288      4287
 -1      2210    8    0    1
 -2      1099      1100      1084      4194      4290      4289
 -1      2211    8    0    1
 -2      1100      1101      1085      4197      4292      4291
 -1      2212    8    0    1
 -2      1104      1088      1071      4206      4267      4266
 -1      2213    8    0    1
 -2      1106      1066      1112      4257      4256      4232
 -1      2214    8    0    1
 -2      1056      1118      1058      4295      4296      4065
 -1      2215    8    0    1
 -2      1089      1091      1117      4167      4297      4298
 -1      2216    8    0    1
 -2      1104      1070      1107      4265      4264      4216
 -1      2217    8    0    1
 -2      1110      1068      1111      4261      4260      4227
 -1      2218    8    0    1
 -2      1109      1062      1087      4236      4156      4299
 -1      2219    8    0    1
 -2      1106      1051      1111      4211      4229      4300
 -1      2220    8    0    1
 -2      1108      1112      1065      4248      4255      4254
 -1      2221    8    0    1
 -2      1106      1111      1067      4300      4259      4258
 -1      2222    8    0    1
 -2      1116      1089      1117      4249      4298      4301
 -1      2223    8    0    1
 -2      1075      1116      1117      4271      4301      4272
 -1      2224    8    0    1
 -2      1115      1113      1063      4243      4246      4245
 -1      2225    8    0    1
 -2      1069      1110      1107      4262      4226      4263
 -1      2226    8    0    1
 -2      1074      1073      1105      4117      4251      4302
 -1      2227    8    0    1
 -2      1086      1101      1102      4293      4200      4303
 -1      2228    8    0    1
 -2      1091      1092      1076      4170      4274      4304
 -1      2229    8    0    1
 -2      1118      1115      1103      4294      4244      4305
 -1      2230    8    0    1
 -2      1087      1086      1109      4157      4306      4299
 -1      2231    8    0    1
 -2      1057      1114      1118      4239      4307      4308
 -1      2232    8    0    1
 -2      1057      1118      1103      4308      4305      4223
 -1      2233    8    0    1
 -2      1091      1076      1117      4304      4273      4297
 -1      2234    8    0    1
 -2      1058      1118      1114      4296      4307      4240
 -1      2235    8    0    1
 -2      1074      1105      1116      4302      4250      4270
 -1      2236    8    0    1
 -2      1109      1086      1102      4306      4303      4222
 -3
    1PSTEP                         1           1           1          
  100CL  101 1.000000000        4308                     0    1           1
 -4  DISP        4    1
 -5  D1          1    2    1    0
 -5  D2          1    2    2    0
 -5  D3          1    2    3    0
 -5  ALL         1    2    0    0    1ALL
 -1         1 3.18369E-03-2.15227E-04-4.08568E-16
 -1         2 5.63684E-03 7.35659E-04-1.49833E-16
 -1         3 1.62342E-02 5.46396E-03-7.89865E-15
 -1         4 1.42747E-02 4.03510E-03-2.26106E-14
 -1         5 0.00000E+00 0.00000E+00 0.00000E+00
 -1         6 0.00000E+00 0.00000E+00 0.00000E+00
 -1         7 0.00000E+00 0.00000E+00 0.00000E+00
 -1         8 0.00000E+00 0.00000E+00 0.00000E+00
 -1         9 0.00000E+00 0.00000E+00 0.00000E+00
 -1        10 0.00000E+00 0.00000E+00 0.00000E+00
 -1        11 0.00000E+00 0.00000E+00 0.00000E+00
 -1        12 0.00000E+00 0.00000E+00 0.00000E+00
 -1        13 0.00000E+00 0.00000E+00 0.00000E+00
 -1        14 0.00000E+00 0.00000E+00 0.00000E+00
 -1        15 0.00000E+00 0.00000E+00 0.00000E+00
 -1        16 0.00000E+00 0.00000E+00 0.00000E+00
 -1        17 0.00000E+00 0.00000E+00 0.00000E+00
 -1        18 0.00000E+00 0.00000E+00 0.00000E+00
 -1        19 0.00000E+00 0.00000E+00 0.00000E+00
 -1        20 0.00000E+00 0.00000E+00 0.00000E+00
 -1        21 0.00000E+00 0.00000E+00 0.00000E+00
 -1        22 0.00000E+00 0.00000E+00 0.00000E+00
 -1        23 4.41926E-04-2.73804E-04-4.19993E-17
 -1        24 7.60522E-04-4.23314E-04-1.34363E-16
 -1        25 1.05587E-03-5.34444E-04-2.68496E-16
 -1        26 1.34107E-03-6.22179E-04-4.39119E-16
 -1        27 1.61688E-03-6.93465E-04-6.41553E-16
 -1        28 1.88201E-03-7.48775E-04-8.74152E-16
 -1        29 2.13550E-03-7.84770E-04-1.13682E-15
 -1        30 2.37826E-03-7.96153E-04-1.42729E-15
 -1        31 2.61369E-03-7.77807E-04-1.74355E-15
 -1        32 2.84734E-03-7.26934E-04-2.08263E-15
 -1        33 3.08560E-03-6.44466E-04-2.44038E-15
 -1        34 3.33395E-03-5.35164E-04-2.81470E-15
 -1        35 3.59558E-03-4.06410E-04-3.20835E-15
 -1        36 3.87097E-03-2.66348E-04-3.61778E-15
 -1        37 4.15829E-03-1.22176E-04-4.03912E-15
 -1        38 4.45441E-03 2.08514E-05-4.47344E-15
 -1        39 4.75588E-03 1.59642E-04-4.91913E-15
 -1        40 5.05964E-03 2.92942E-04-5.37910E-15
 -1        41 5.36339E-03 4.20774E-04-5.85154E-15
 -1        42 5.66562E-03 5.43886E-04-6.33147E-15
 -1        43 5.96554E-03 6.63328E-04-6.82388E-15
 -1        44 6.26287E-03 7.80169E-04-7.32091E-15
 -1        45 6.55768E-03 8.95348E-04-7.82286E-15
 -1        46 6.85023E-03 1.00962E-03-8.33997E-15
 -1        47 7.14088E-03 1.12352E-03-8.86623E-15
 -1        48 7.43000E-03 1.23744E-03-9.40069E-15
 -1        49 7.71794E-03 1.35161E-03-9.92809E-15
 -1        50 8.00499E-03 1.46615E-03-1.04622E-14
 -1        51 8.29141E-03 1.58113E-03-1.10111E-14
 -1        52 8.57739E-03 1.69654E-03-1.15687E-14
 -1        53 8.86309E-03 1.81235E-03-1.21208E-14
 -1        54 9.14862E-03 1.92853E-03-1.26759E-14
 -1        55 9.43405E-03 2.04502E-03-1.32343E-14
 -1        56 9.71945E-03 2.16176E-03-1.37885E-14
 -1        57 1.00048E-02 2.27872E-03-1.43403E-14
 -1        58 1.02903E-02 2.39584E-03-1.49002E-14
 -1        59 1.05757E-02 2.51310E-03-1.54566E-14
 -1        60 1.08612E-02 2.63045E-03-1.60040E-14
 -1        61 1.11467E-02 2.74788E-03-1.65460E-14
 -1        62 1.14323E-02 2.86536E-03-1.70928E-14
 -1        63 1.17178E-02 2.98288E-03-1.76470E-14
 -1        64 1.20035E-02 3.10043E-03-1.82160E-14
 -1        65 1.22891E-02 3.21799E-03-1.87971E-14
 -1        66 1.25748E-02 3.33556E-03-1.93667E-14
 -1        67 1.28604E-02 3.45314E-03-1.99379E-14
 -1        68 1.31461E-02 3.57072E-03-2.04901E-14
 -1        69 1.34318E-02 3.68829E-03-2.10291E-14
 -1        70 1.37175E-02 3.80586E-03-2.15571E-14
 -1        71 1.40033E-02 3.92342E-03-2.20835E-14
 -1        72 4.80989E-04 2.50272E-04 5.32547E-17
 -1        73 8.66046E-04 3.82321E-04 1.37443E-16
 -1        74 1.25964E-03 4.99782E-04 2.43763E-16
 -1        75 1.67329E-03 6.34868E-04 3.64475E-16
 -1        76 2.10741E-03 8.11416E-04 4.94057E-16
 -1        77 2.54820E-03 1.04686E-03 6.27651E-16
 -1        78 2.96471E-03 1.33774E-03 7.67886E-16
 -1        79 3.31921E-03 1.63901E-03 9.13762E-16
 -1        80 3.59835E-03 1.86375E-03 1.05858E-15
 -1        81 3.84176E-03 1.93436E-03 1.18957E-15
 -1        82 4.12033E-03 1.85075E-03 1.28613E-15
 -1        83 4.47570E-03 1.69096E-03 1.34041E-15
 -1        84 4.89536E-03 1.54397E-03 1.35964E-15
 -1        85 5.34030E-03 1.45828E-03 1.35471E-15
 -1        86 5.77748E-03 1.44088E-03 1.32247E-15
 -1        87 6.19040E-03 1.47836E-03 1.25950E-15
 -1        88 6.57542E-03 1.55342E-03 1.17701E-15
 -1        89 6.93532E-03 1.65188E-03 1.08002E-15
 -1        90 7.27496E-03 1.76394E-03 9.58418E-16
 -1        91 7.59918E-03 1.88339E-03 8.17824E-16
 -1        92 7.91201E-03 2.00648E-03 6.57470E-16
 -1        93 8.21657E-03 2.13106E-03 4.85374E-16
 -1        94 8.51520E-03 2.25590E-03 2.92609E-16
 -1        95 8.80962E-03 2.38034E-03 8.14642E-17
 -1        96 9.10105E-03 2.50409E-03-1.46750E-16
 -1        97 9.39040E-03 2.62701E-03-3.93952E-16
 -1        98 9.67830E-03 2.74910E-03-6.61695E-16
 -1        99 9.96522E-03 2.87042E-03-9.38055E-16
 -1       100 1.02515E-02 2.99103E-03-1.22022E-15
 -1       101 1.05373E-02 3.11103E-03-1.51178E-15
 -1       102 1.08229E-02 3.23052E-03-1.79888E-15
 -1       103 1.11084E-02 3.34958E-03-2.08900E-15
 -1       104 1.13937E-02 3.46828E-03-2.37873E-15
 -1       105 1.16791E-02 3.58671E-03-2.65753E-15
 -1       106 1.19644E-02 3.70491E-03-2.93773E-15
 -1       107 1.22498E-02 3.82293E-03-3.22814E-15
 -1       108 1.25353E-02 3.94082E-03-3.53275E-15
 -1       109 1.28207E-02 4.05861E-03-3.83350E-15
 -1       110 1.31063E-02 4.17633E-03-4.13779E-15
 -1       111 1.33918E-02 4.29399E-03-4.45877E-15
 -1       112 1.36774E-02 4.41162E-03-4.80424E-15
 -1       113 1.39630E-02 4.52922E-03-5.15520E-15
 -1       114 1.42486E-02 4.64680E-03-5.49210E-15
 -1       115 1.45343E-02 4.76438E-03-5.80802E-15
 -1       116 1.48200E-02 4.88195E-03-6.10484E-15
 -1       117 1.51057E-02 4.99952E-03-6.42189E-15
 -1       118 1.53914E-02 5.11709E-03-6.75982E-15
 -1       119 1.56771E-02 5.23467E-03-7.12600E-15
 -1       120 1.59628E-02 5.35225E-03-7.53111E-15
 -1       121 1.61186E-02 5.37968E-03-8.77516E-15
 -1       122 1.60030E-02 5.29539E-03-9.67462E-15
 -1       123 1.58873E-02 5.21110E-03-1.05436E-14
 -1       124 1.57717E-02 5.12681E-03-1.14040E-14
 -1       125 1.56561E-02 5.04250E-03-1.22746E-14
 -1       126 1.55424E-02 4.95962E-03-1.31409E-14
 -1       127 1.54267E-02 4.87530E-03-1.40205E-14
 -1       128 1.53111E-02 4.79098E-03-1.48754E-14
 -1       129 1.51955E-02 4.70665E-03-1.57143E-14
 -1       130 1.50799E-02 4.62233E-03-1.65310E-14
 -1       131 1.49643E-02 4.53801E-03-1.73894E-14
 -1       132 1.48507E-02 4.45513E-03-1.82643E-14
 -1       133 1.47351E-02 4.37082E-03-1.91602E-14
 -1       134 1.46195E-02 4.28653E-03-2.00422E-14
 -1       135 1.45039E-02 4.20224E-03-2.09147E-14
 -1       136 1.43883E-02 4.11795E-03-2.17748E-14
 -1       137 5.63571E-03 9.20344E-04-2.30512E-17
 -1       138 5.52367E-03 1.10054E-03 1.02148E-16
 -1       139 5.30567E-03 1.26868E-03 2.12907E-16
 -1       140 5.01775E-03 1.40639E-03 2.95564E-16
 -1       141 4.62622E-03 1.52621E-03 3.59677E-16
 -1       142 4.17715E-03 1.60160E-03 3.98160E-16
 -1       143 3.69639E-03 1.62286E-03 4.17052E-16
 -1       144 3.13989E-03 1.57661E-03 4.12485E-16
 -1       145 2.64469E-03 1.47451E-03 3.88409E-16
 -1       146 2.16036E-03 1.31568E-03 3.48903E-16
 -1       147 1.74632E-03 1.12746E-03 2.98579E-16
 -1       148 1.42472E-03 9.31521E-04 2.42461E-16
 -1       149 1.19181E-03 7.31620E-04 1.80660E-16
 -1       150 1.06896E-03 5.53653E-04 1.21446E-16
 -1       151 1.03752E-03 3.79511E-04 5.86299E-17
 -1       152 1.10577E-03 2.22070E-04-3.53213E-18
 -1       153 1.26171E-03 8.74488E-05-6.66306E-17
 -1       154 1.52554E-03-3.67758E-05-1.39500E-16
 -1       155 1.83732E-03-1.25462E-04-2.05416E-16
 -1       156 2.26736E-03-1.95299E-04-2.82204E-16
 -1       157 2.70964E-03-2.23456E-04-3.49140E-16
 -1       158 3.61749E-03-1.75497E-04-4.50405E-16
 -1       159 4.06157E-03-1.02088E-04-4.76500E-16
 -1       160 4.47720E-03 5.65710E-07-4.79543E-16
 -1       161 4.83549E-03 1.21964E-04-4.57428E-16
 -1       162 5.14694E-03 2.64336E-04-4.11329E-16
 -1       163 5.38138E-03 4.12993E-04-3.44638E-16
 -1       164 5.55027E-03 5.73836E-04-2.54598E-16
 -1       165 2.58315E-04-1.27448E-04-3.35967E-17
 -1       166 2.40854E-04-9.12327E-05-2.93344E-17
 -1       167 2.32861E-04-6.29321E-05-2.41913E-17
 -1       168 2.26574E-04-3.73473E-05-1.90345E-17
 -1       169 2.19471E-04-1.38060E-05-1.41116E-17
 -1       170 2.10119E-04 7.71312E-06-9.38174E-18
 -1       171 1.98620E-04 2.49263E-05-5.16351E-18
 -1       172 1.86408E-04 3.57574E-05-1.45690E-18
 -1       173 1.76355E-04 3.91128E-05 2.15485E-18
 -1       174 1.72105E-04 3.60690E-05 5.66157E-18
 -1       175 1.76521E-04 3.04009E-05 9.42239E-18
 -1       176 1.90874E-04 2.73088E-05 1.38337E-17
 -1       177 2.14104E-04 3.26559E-05 1.92107E-17
 -1       178 2.44157E-04 5.16858E-05 2.59057E-17
 -1       179 2.81435E-04 9.09240E-05 3.35967E-17
 -1       180 3.58683E-04 1.59156E-04 4.41880E-17
 -1       181 5.05326E-04-2.74204E-04-8.42628E-17
 -1       182 8.27418E-04-4.04213E-04-1.89424E-16
 -1       183 1.13270E-03-5.04562E-04-3.29848E-16
 -1       184 1.42703E-03-5.86144E-04-5.01952E-16
 -1       185 1.71190E-03-6.52297E-04-7.03339E-16
 -1       186 1.98772E-03-7.01322E-04-9.32675E-16
 -1       187 2.25515E-03-7.28272E-04-1.18993E-15
 -1       188 2.51600E-03-7.27098E-04-1.47222E-15
 -1       189 2.77344E-03-6.93099E-04-1.77746E-15
 -1       190 3.03154E-03-6.25044E-04-2.10354E-15
 -1       191 3.29429E-03-5.26088E-04-2.44823E-15
 -1       192 3.56455E-03-4.03065E-04-2.81106E-15
 -1       193 3.84347E-03-2.64624E-04-3.19102E-15
 -1       194 4.13057E-03-1.19126E-04-3.58436E-15
 -1       195 4.42417E-03 2.68526E-05-3.99120E-15
 -1       196 4.72212E-03 1.69108E-04-4.41165E-15
 -1       197 5.02231E-03 3.05635E-04-4.84506E-15
 -1       198 5.32298E-03 4.36063E-04-5.29166E-15
 -1       199 5.62288E-03 5.61021E-04-5.74947E-15
 -1       200 5.92125E-03 6.81604E-04-6.21669E-15
 -1       201 6.21771E-03 7.99007E-04-6.69419E-15
 -1       202 6.51220E-03 9.14323E-04-7.17879E-15
 -1       203 6.80481E-03 1.02844E-03-7.67570E-15
 -1       204 7.09578E-03 1.14202E-03-8.17973E-15
 -1       205 7.38536E-03 1.25554E-03-8.69073E-15
 -1       206 7.67381E-03 1.36928E-03-9.20522E-15
 -1       207 7.96137E-03 1.48341E-03-9.72005E-15
 -1       208 8.24828E-03 1.59801E-03-1.02447E-14
 -1       209 8.53470E-03 1.71310E-03-1.07787E-14
 -1       210 8.82077E-03 1.82865E-03-1.13182E-14
 -1       211 9.10660E-03 1.94460E-03-1.18585E-14
 -1       212 9.39229E-03 2.06092E-03-1.23982E-14
 -1       213 9.67788E-03 2.17753E-03-1.29349E-14
 -1       214 9.96343E-03 2.29438E-03-1.34756E-14
 -1       215 1.02490E-02 2.41143E-03-1.40183E-14
 -1       216 1.05345E-02 2.52863E-03-1.45644E-14
 -1       217 1.08200E-02 2.64594E-03-1.51036E-14
 -1       218 1.11056E-02 2.76334E-03-1.56384E-14
 -1       219 1.13912E-02 2.88081E-03-1.61700E-14
 -1       220 1.16768E-02 2.99832E-03-1.67073E-14
 -1       221 1.19624E-02 3.11586E-03-1.72505E-14
 -1       222 1.22481E-02 3.23342E-03-1.78036E-14
 -1       223 1.25337E-02 3.35099E-03-1.83581E-14
 -1       224 1.28194E-02 3.46857E-03-1.89147E-14
 -1       225 1.31051E-02 3.58615E-03-1.94665E-14
 -1       226 1.33908E-02 3.70373E-03-2.00104E-14
 -1       227 1.36765E-02 3.82130E-03-2.05438E-14
 -1       228 1.39622E-02 3.93887E-03-2.10689E-14
 -1       229 7.43239E-04 2.88214E-04 1.15915E-16
 -1       230 1.12573E-03 4.02784E-04 2.07421E-16
 -1       231 1.51542E-03 5.31197E-04 3.11952E-16
 -1       232 1.91692E-03 6.99243E-04 4.24743E-16
 -1       233 2.32689E-03 9.28338E-04 5.41945E-16
 -1       234 2.73311E-03 1.22143E-03 6.61912E-16
 -1       235 3.11807E-03 1.53855E-03 7.82706E-16
 -1       236 3.47050E-03 1.78776E-03 9.01575E-16
 -1       237 3.80414E-03 1.87488E-03 1.00724E-15
 -1       238 4.15106E-03 1.79014E-03 1.08537E-15
 -1       239 4.53029E-03 1.61868E-03 1.12466E-15
 -1       240 4.93456E-03 1.46050E-03 1.12901E-15
 -1       241 5.34473E-03 1.36872E-03 1.10742E-15
 -1       242 5.74521E-03 1.34984E-03 1.06042E-15
 -1       243 6.12816E-03 1.38855E-03 9.89009E-16
 -1       244 6.49180E-03 1.46601E-03 8.95514E-16
 -1       245 6.83771E-03 1.56711E-03 7.83228E-16
 -1       246 7.16874E-03 1.68161E-03 6.50687E-16
 -1       247 7.48795E-03 1.80312E-03 5.00105E-16
 -1       248 7.79806E-03 1.92790E-03 3.26199E-16
 -1       249 8.10132E-03 2.05379E-03 1.38910E-16
 -1       250 8.39950E-03 2.17965E-03-6.55095E-17
 -1       251 8.69392E-03 2.30488E-03-2.85687E-16
 -1       252 8.98563E-03 2.42921E-03-5.21898E-16
 -1       253 9.27536E-03 2.55258E-03-7.81164E-16
 -1       254 9.56369E-03 2.67501E-03-1.06060E-15
 -1       255 9.85103E-03 2.79656E-03-1.34627E-15
 -1       256 1.01377E-02 2.91735E-03-1.63928E-15
 -1       257 1.04239E-02 3.03749E-03-1.94038E-15
 -1       258 1.07098E-02 3.15707E-03-2.24028E-15
 -1       259 1.09955E-02 3.27619E-03-2.53834E-15
 -1       260 1.12810E-02 3.39493E-03-2.83503E-15
 -1       261 1.15666E-02 3.51338E-03-3.12572E-15
 -1       262 1.18520E-02 3.63160E-03-3.41604E-15
 -1       263 1.21375E-02 3.74963E-03-3.71339E-15
 -1       264 1.24231E-02 3.86753E-03-4.01808E-15
 -1       265 1.27086E-02 3.98532E-03-4.32686E-15
 -1       266 1.29942E-02 4.10304E-03-4.64344E-15
 -1       267 1.32797E-02 4.22070E-03-4.97248E-15
 -1       268 1.35653E-02 4.33832E-03-5.32172E-15
 -1       269 1.38510E-02 4.45592E-03-5.67944E-15
 -1       270 1.41366E-02 4.57350E-03-6.03034E-15
 -1       271 1.44223E-02 4.69107E-03-6.36922E-15
 -1       272 1.47080E-02 4.80863E-03-6.69764E-15
 -1       273 1.49937E-02 4.92620E-03-7.02796E-15
 -1       274 1.52794E-02 5.04377E-03-7.38119E-15
 -1       275 1.55651E-02 5.16135E-03-7.75147E-15
 -1       276 1.58508E-02 5.27893E-03-8.14183E-15
 -1       277 1.58134E-02 5.23570E-03-8.87837E-15
 -1       278 1.56977E-02 5.15141E-03-9.75662E-15
 -1       279 1.55821E-02 5.06712E-03-1.06200E-14
 -1       280 1.54664E-02 4.98282E-03-1.14791E-14
 -1       281 1.53528E-02 4.89994E-03-1.23195E-14
 -1       282 1.52371E-02 4.81563E-03-1.31748E-14
 -1       283 1.51215E-02 4.73131E-03-1.40307E-14
 -1       284 1.50059E-02 4.64700E-03-1.48720E-14
 -1       285 1.48903E-02 4.56268E-03-1.57050E-14
 -1       286 1.47747E-02 4.47837E-03-1.65519E-14
 -1       287 1.46610E-02 4.39548E-03-1.74017E-14
 -1       288 1.45454E-02 4.31118E-03-1.82743E-14
 -1       289 1.44299E-02 4.22688E-03-1.91464E-14
 -1       290 1.43143E-02 4.14258E-03-2.00109E-14
 -1       291 1.41382E-02 4.04072E-03-2.05431E-14
 -1       292 5.67851E-03 8.19170E-04-1.40804E-16
 -1       293 5.58452E-03 9.17114E-04 2.68056E-17
 -1       294 5.35112E-03 1.05310E-03 1.88066E-16
 -1       295 5.04110E-03 1.22640E-03 3.11888E-16
 -1       296 4.65908E-03 1.40410E-03 4.19918E-16
 -1       297 4.26887E-03 1.57967E-03 4.72760E-16
 -1       298 3.87430E-03 1.68634E-03 5.00115E-16
 -1       299 3.47000E-03 1.70497E-03 5.18086E-16
 -1       300 3.03944E-03 1.57497E-03 4.69521E-16
 -1       301 2.62231E-03 1.35872E-03 4.24255E-16
 -1       302 2.17424E-03 1.08578E-03 3.58837E-16
 -1       303 1.71653E-03 8.66891E-04 2.83953E-16
 -1       304 1.36622E-03 6.63960E-04 2.16320E-16
 -1       305 1.12415E-03 5.32207E-04 1.51964E-16
 -1       306 1.01381E-03 4.27416E-04 8.97821E-17
 -1       307 1.04552E-03 3.45266E-04 2.65342E-17
 -1       308 1.20236E-03 2.54390E-04-3.77961E-17
 -1       309 1.47641E-03 1.48085E-04-1.10287E-16
 -1       310 1.80596E-03 4.66368E-06-1.86496E-16
 -1       311 2.19659E-03-1.33491E-04-2.74845E-16
 -1       312 2.58536E-03-2.48220E-04-3.61202E-16
 -1       313 2.96978E-03-3.02796E-04-4.53833E-16
 -1       314 3.33720E-03-2.68259E-04-5.15809E-16
 -1       315 3.69785E-03-1.72667E-04-5.74790E-16
 -1       316 4.07788E-03-1.32443E-05-6.12561E-16
 -1       317 4.47513E-03 1.67527E-04-6.02620E-16
 -1       318 4.81381E-03 3.10288E-04-5.59875E-16
 -1       319 5.19196E-03 4.98100E-04-4.95746E-16
 -1       320 5.45365E-03 6.31317E-04-4.06255E-16
 -1       321 5.62281E-03 7.25955E-04-2.79621E-16
 -1       322 4.87941E-04-1.57945E-04-7.90892E-17
 -1       323 5.09988E-04-2.16268E-04-9.11780E-17
 -1       324 4.60484E-04-5.92422E-05-5.22247E-17
 -1       325 4.42987E-04-1.47110E-05-3.89093E-17
 -1       326 4.19653E-04 2.43934E-05-2.62445E-17
 -1       327 3.91617E-04 5.45037E-05-1.44199E-17
 -1       328 3.63778E-04 7.23766E-05-3.56093E-18
 -1       329 3.44354E-04 7.74793E-05 7.17606E-18
 -1       330 3.42107E-04 7.40246E-05 1.80079E-17
 -1       331 3.62531E-04 7.03122E-05 2.98359E-17
 -1       332 4.05712E-04 7.66674E-05 4.32292E-17
 -1       333 4.66974E-04 1.02200E-04 5.86858E-17
 -1       334 5.41794E-04 1.53982E-04 7.61517E-17
 -1       335 6.35654E-04 2.14443E-04 9.53624E-17
 -1       336 9.97186E-04 3.24429E-04 1.74855E-16
 -1       337 4.93180E-03 5.04730E-04-6.86920E-16
 -1       338 9.30386E-04-3.79771E-04-2.35824E-16
 -1       339 1.23857E-03-4.69735E-04-3.79396E-16
 -1       340 1.54007E-03-5.45052E-04-5.50751E-16
 -1       341 1.83462E-03-6.05699E-04-7.48672E-16
 -1       342 2.12199E-03-6.47606E-04-9.73115E-16
 -1       343 2.40264E-03-6.64172E-04-1.22308E-15
 -1       344 2.67838E-03-6.48742E-04-1.49563E-15
 -1       345 2.95238E-03-5.97458E-04-1.78913E-15
 -1       346 3.22826E-03-5.11275E-04-2.10315E-15
 -1       347 3.50898E-03-3.96076E-04-2.43567E-15
 -1       348 3.79586E-03-2.60872E-04-2.78598E-15
 -1       349 4.08858E-03-1.15215E-04-3.15215E-15
 -1       350 4.38569E-03 3.29168E-05-3.53106E-15
 -1       351 4.68532E-03 1.78137E-04-3.92434E-15
 -1       352 4.98581E-03 3.17636E-04-4.33047E-15
 -1       353 5.28588E-03 4.50594E-04-4.75097E-15
 -1       354 5.58472E-03 5.77458E-04-5.18465E-15
 -1       355 5.88189E-03 6.99314E-04-5.62956E-15
 -1       356 6.17725E-03 8.17441E-04-6.08526E-15
 -1       357 6.47085E-03 9.33048E-04-6.55156E-15
 -1       358 6.76282E-03 1.04715E-03-7.02600E-15
 -1       359 7.05338E-03 1.16051E-03-7.51095E-15
 -1       360 7.34275E-03 1.27370E-03-8.00187E-15
 -1       361 7.63114E-03 1.38705E-03-8.49747E-15
 -1       362 7.91877E-03 1.50080E-03-8.99389E-15
 -1       363 8.20581E-03 1.61504E-03-9.49758E-15
 -1       364 8.49239E-03 1.72980E-03-1.00124E-14
 -1       365 8.77864E-03 1.84507E-03-1.05306E-14
 -1       366 9.06466E-03 1.96079E-03-1.10526E-14
 -1       367 9.35051E-03 2.07691E-03-1.15749E-14
 -1       368 9.63625E-03 2.19337E-03-1.20987E-14
 -1       369 9.92193E-03 2.31011E-03-1.26230E-14
 -1       370 1.02076E-02 2.42707E-03-1.31519E-14
 -1       371 1.04932E-02 2.54420E-03-1.36820E-14
 -1       372 1.07788E-02 2.66146E-03-1.42125E-14
 -1       373 1.10644E-02 2.77883E-03-1.47413E-14
 -1       374 1.13500E-02 2.89627E-03-1.52598E-14
 -1       375 1.16357E-02 3.01377E-03-1.57780E-14
 -1       376 1.19213E-02 3.13130E-03-1.63039E-14
 -1       377 1.22070E-02 3.24885E-03-1.68376E-14
 -1       378 1.24927E-02 3.36642E-03-1.73783E-14
 -1       379 1.27783E-02 3.48400E-03-1.79154E-14
 -1       380 1.30640E-02 3.60159E-03-1.84562E-14
 -1       381 1.33497E-02 3.71917E-03-1.89927E-14
 -1       382 1.36354E-02 3.83674E-03-1.95275E-14
 -1       383 1.38868E-02 3.93874E-03-2.00331E-14
 -1       384 1.36404E-03 4.45578E-04 2.66422E-16
 -1       385 1.74216E-03 6.02019E-04 3.65308E-16
 -1       386 2.13650E-03 8.17544E-04 4.68084E-16
 -1       387 2.54442E-03 1.10420E-03 5.72174E-16
 -1       388 2.95773E-03 1.43214E-03 6.74672E-16
 -1       389 3.35546E-03 1.71317E-03 7.73016E-16
 -1       390 3.73803E-03 1.82639E-03 8.61412E-16
 -1       391 4.12786E-03 1.74290E-03 9.25726E-16
 -1       392 4.53524E-03 1.55932E-03 9.53922E-16
 -1       393 4.94677E-03 1.39181E-03 9.45953E-16
 -1       394 5.34560E-03 1.29630E-03 9.10791E-16
 -1       395 5.72494E-03 1.27665E-03 8.52105E-16
 -1       396 6.08534E-03 1.31564E-03 7.70753E-16
 -1       397 6.42967E-03 1.39374E-03 6.69037E-16
 -1       398 6.76088E-03 1.49565E-03 5.47305E-16
 -1       399 7.08153E-03 1.61102E-03 4.05793E-16
 -1       400 7.39374E-03 1.73342E-03 2.44586E-16
 -1       401 7.69933E-03 1.85901E-03 6.20299E-17
 -1       402 7.99977E-03 1.98562E-03-1.37009E-16
 -1       403 8.29625E-03 2.11210E-03-3.49554E-16
 -1       404 8.58972E-03 2.23784E-03-5.78029E-16
 -1       405 8.88094E-03 2.36259E-03-8.23987E-16
 -1       406 9.17049E-03 2.48629E-03-1.08976E-15
 -1       407 9.45881E-03 2.60898E-03-1.37680E-15
 -1       408 9.74623E-03 2.73075E-03-1.67139E-15
 -1       409 1.00330E-02 2.85170E-03-1.97372E-15
 -1       410 1.03194E-02 2.97195E-03-2.28356E-15
 -1       411 1.06054E-02 3.09162E-03-2.59170E-15
 -1       412 1.08912E-02 3.21080E-03-2.89994E-15
 -1       413 1.11769E-02 3.32960E-03-3.20495E-15
 -1       414 1.14626E-02 3.44808E-03-3.50092E-15
 -1       415 1.17482E-02 3.56632E-03-3.79723E-15
 -1       416 1.20337E-02 3.68437E-03-4.09801E-15
 -1       417 1.23193E-02 3.80228E-03-4.41001E-15
 -1       418 1.26049E-02 3.92008E-03-4.72459E-15
 -1       419 1.28905E-02 4.03780E-03-5.04897E-15
 -1       420 1.31761E-02 4.15546E-03-5.38528E-15
 -1       421 1.34617E-02 4.27308E-03-5.74095E-15
 -1       422 1.37474E-02 4.39068E-03-6.10318E-15
 -1       423 1.40330E-02 4.50826E-03-6.46647E-15
 -1       424 1.43187E-02 4.62582E-03-6.81825E-15
 -1       425 1.46044E-02 4.74339E-03-7.16477E-15
 -1       426 1.48901E-02 4.86096E-03-7.51033E-15
 -1       427 1.51758E-02 4.97852E-03-7.87218E-15
 -1       428 1.54615E-02 5.09610E-03-8.24899E-15
 -1       429 1.56374E-02 5.16590E-03-8.56108E-15
 -1       430 1.52768E-02 4.92314E-03-1.06941E-14
 -1       431 1.53925E-02 5.00744E-03-9.83620E-15
 -1       432 1.55150E-02 5.08667E-03-9.20277E-15
 -1       433 1.51631E-02 4.84027E-03-1.15273E-14
 -1       434 1.50475E-02 4.75596E-03-1.23612E-14
 -1       435 1.49319E-02 4.67165E-03-1.31983E-14
 -1       436 1.48162E-02 4.58734E-03-1.40342E-14
 -1       437 1.47006E-02 4.50302E-03-1.48750E-14
 -1       438 1.45850E-02 4.41871E-03-1.57161E-14
 -1       439 1.44714E-02 4.33583E-03-1.65518E-14
 -1       440 1.43558E-02 4.25152E-03-1.74042E-14
 -1       441 1.42402E-02 4.16722E-03-1.82647E-14
 -1       442 1.41246E-02 4.08292E-03-1.91225E-14
 -1       443 5.47248E-03 9.47486E-04 1.24537E-16
 -1       444 5.68268E-03 8.04466E-04-3.01348E-16
 -1       445 5.66885E-03 8.56611E-04-9.33896E-17
 -1       446 5.14925E-03 1.09572E-03 3.17400E-16
 -1       447 4.64690E-03 3.67393E-04-7.27496E-16
 -1       448 5.57626E-03 7.57816E-04-4.34832E-16
 -1       449 4.83864E-03 1.25824E-03 4.41440E-16
 -1       450 4.73992E-04-1.06843E-04-6.57501E-17
 -1       451 4.04269E-03 1.67395E-03 6.18395E-16
 -1       452 3.73294E-03 1.75425E-03 6.32646E-16
 -1       453 3.28578E-03 1.67094E-03 5.75522E-16
 -1       454 2.95140E-03 1.49078E-03 5.18418E-16
 -1       455 2.50102E-03 1.18806E-03 4.34867E-16
 -1       456 1.96930E-03 8.57898E-04 3.33172E-16
 -1       457 1.60078E-03 6.63473E-04 2.62714E-16
 -1       458 1.24061E-03 4.95306E-04 1.84871E-16
 -1       459 1.06042E-03 4.24634E-04 1.27721E-16
 -1       460 9.98800E-04 3.69826E-04 5.32229E-17
 -1       461 1.10298E-03 3.25868E-04-7.64532E-18
 -1       462 1.32691E-03 2.51868E-04-7.37664E-17
 -1       463 1.69693E-03 1.11598E-04-1.64894E-16
 -1       464 2.02115E-03-2.89763E-05-2.45402E-16
 -1       465 2.45556E-03-2.12437E-04-3.69164E-16
 -1       466 2.75505E-03-3.04638E-04-4.62040E-16
 -1       467 3.14479E-03-3.27662E-04-5.94021E-16
 -1       468 3.41338E-03-2.61525E-04-6.60421E-16
 -1       469 3.77730E-03-9.48888E-05-7.42157E-16
 -1       470 4.19185E-03 1.32125E-04-7.64620E-16
 -1       471 5.29464E-03 6.55991E-04-5.87850E-16
 -1       472 4.36003E-03 1.52277E-03 5.73028E-16
 -1       473 9.85927E-04 3.64333E-04 8.96877E-17
 -1       474 2.25413E-03 9.75031E-04 4.02978E-16
 -1       475 1.03943E-03 2.97730E-04 1.80438E-16
 -1       476 6.67185E-04-3.34563E-06-6.87045E-17
 -1       477 6.99008E-04-6.61308E-05-9.30855E-17
 -1       478 5.74423E-04 9.26159E-05-2.31376E-17
 -1       479 5.29074E-04 1.15816E-04-1.80926E-18
 -1       480 5.05159E-04 1.22187E-04 1.89397E-17
 -1       481 5.16826E-04 1.20874E-04 4.06881E-17
 -1       482 5.69998E-04 1.26003E-04 6.42186E-17
 -1       483 6.58034E-04 1.51111E-04 9.02937E-17
 -1       484 1.05481E-03-3.49838E-04-2.73944E-16
 -1       485 1.37252E-03 4.19682E-04 2.58650E-16
 -1       486 7.67734E-04-2.54867E-04-1.62803E-16
 -1       487 1.36646E-03-4.29712E-04-4.16422E-16
 -1       488 1.67565E-03-4.99087E-04-5.84354E-16
 -1       489 1.98009E-03-5.54705E-04-7.77776E-16
 -1       490 2.27816E-03-5.89686E-04-9.95433E-16
 -1       491 2.56982E-03-5.95142E-04-1.23558E-15
 -1       492 2.85726E-03-5.63587E-04-1.49766E-15
 -1       493 3.14443E-03-4.92561E-04-1.77955E-15
 -1       494 3.43519E-03-3.86402E-04-2.08194E-15
 -1       495 3.73156E-03-2.54690E-04-2.40286E-15
 -1       496 4.03314E-03-1.08775E-04-2.74062E-15
 -1       497 4.33792E-03 4.14555E-05-3.09228E-15
 -1       498 4.64348E-03 1.89275E-04-3.45749E-15
 -1       499 4.94790E-03 3.31162E-04-3.83751E-15
 -1       500 5.25006E-03 4.66021E-04-4.23098E-15
 -1       501 5.54955E-03 5.94253E-04-4.63907E-15
 -1       502 5.84639E-03 7.16997E-04-5.05976E-15
 -1       503 6.14088E-03 8.35617E-04-5.49440E-15
 -1       504 6.43338E-03 9.51414E-04-5.94006E-15
 -1       505 6.72427E-03 1.06548E-03-6.39325E-15
 -1       506 7.01387E-03 1.17867E-03-6.85736E-15
 -1       507 7.30247E-03 1.29159E-03-7.32929E-15
 -1       508 7.59029E-03 1.40464E-03-7.80640E-15
 -1       509 7.87752E-03 1.51806E-03-8.28589E-15
 -1       510 8.16430E-03 1.63199E-03-8.76961E-15
 -1       511 8.45075E-03 1.74647E-03-9.26214E-15
 -1       512 8.73695E-03 1.86149E-03-9.76196E-15
 -1       513 9.02297E-03 1.97699E-03-1.02656E-14
 -1       514 9.30887E-03 2.09294E-03-1.07719E-14
 -1       515 9.59468E-03 2.20925E-03-1.12786E-14
 -1       516 9.88042E-03 2.32587E-03-1.17862E-14
 -1       517 1.01661E-02 2.44274E-03-1.22956E-14
 -1       518 1.04518E-02 2.55980E-03-1.28146E-14
 -1       519 1.07375E-02 2.67701E-03-1.33316E-14
 -1       520 1.10232E-02 2.79434E-03-1.38505E-14
 -1       521 1.13088E-02 2.91175E-03-1.43602E-14
 -1       522 1.15945E-02 3.02923E-03-1.48644E-14
 -1       523 1.18802E-02 3.14675E-03-1.53706E-14
 -1       524 1.21659E-02 3.26430E-03-1.58890E-14
 -1       525 1.24516E-02 3.38186E-03-1.64122E-14
 -1       526 1.27373E-02 3.49944E-03-1.69366E-14
 -1       527 1.30230E-02 3.61702E-03-1.74619E-14
 -1       528 1.33087E-02 3.73461E-03-1.79873E-14
 -1       529 1.35944E-02 3.85219E-03-1.85105E-14
 -1       530 2.11669E-03 8.17996E-04 4.24604E-16
 -1       531 4.38654E-03 1.55433E-03 7.53880E-16
 -1       532 4.83388E-03 1.34184E-03 7.28069E-16
 -1       533 5.23722E-03 1.21785E-03 6.84369E-16
 -1       534 5.60200E-03 1.17944E-03 6.16860E-16
 -1       535 5.93883E-03 1.20529E-03 5.28694E-16
 -1       536 6.25911E-03 1.27412E-03 4.21938E-16
 -1       537 6.56996E-03 1.36986E-03 2.95875E-16
 -1       538 6.87505E-03 1.48153E-03 1.47438E-16
 -1       539 7.17614E-03 1.60198E-03-2.04575E-17
 -1       540 7.47412E-03 1.72682E-03-2.08685E-16
 -1       541 7.76954E-03 1.85341E-03-4.16113E-16
 -1       542 8.06282E-03 1.98026E-03-6.35932E-16
 -1       543 8.35433E-03 2.10656E-03-8.69449E-16
 -1       544 8.64441E-03 2.23195E-03-1.12124E-15
 -1       545 8.93333E-03 2.35627E-03-1.39079E-15
 -1       546 9.22136E-03 2.47953E-03-1.68216E-15
 -1       547 9.50871E-03 2.60179E-03-1.98502E-15
 -1       548 9.79553E-03 2.72317E-03-2.29649E-15
 -1       549 1.00820E-02 2.84378E-03-2.61614E-15
 -1       550 1.03681E-02 2.96374E-03-2.93649E-15
 -1       551 1.06541E-02 3.08316E-03-3.25672E-15
 -1       552 1.09400E-02 3.20214E-03-3.57392E-15
 -1       553 1.12257E-02 3.32077E-03-3.88055E-15
 -1       554 1.15114E-02 3.43912E-03-4.18257E-15
 -1       555 1.17971E-02 3.55725E-03-4.48825E-15
 -1       556 1.20827E-02 3.67522E-03-4.80401E-15
 -1       557 1.23684E-02 3.79306E-03-5.12913E-15
 -1       558 1.26540E-02 3.91081E-03-5.46042E-15
 -1       559 1.29397E-02 4.02850E-03-5.80178E-15
 -1       560 1.32253E-02 4.14613E-03-6.15916E-15
 -1       561 1.35110E-02 4.26374E-03-6.52650E-15
 -1       562 1.37967E-02 4.38132E-03-6.89830E-15
 -1       563 1.40823E-02 4.49889E-03-7.27101E-15
 -1       564 1.43680E-02 4.61646E-03-7.63775E-15
 -1       565 1.46537E-02 4.73402E-03-8.00259E-15
 -1       566 1.49394E-02 4.85159E-03-8.37420E-15
 -1       567 1.52251E-02 4.96916E-03-8.75446E-15
 -1       568 1.48579E-02 4.69629E-03-1.15669E-14
 -1       569 1.47422E-02 4.61198E-03-1.23885E-14
 -1       570 1.50872E-02 4.86347E-03-9.91138E-15
 -1       571 1.49726E-02 4.77988E-03-1.07475E-14
 -1       572 1.46266E-02 4.52767E-03-1.32145E-14
 -1       573 1.45110E-02 4.44336E-03-1.40475E-14
 -1       574 1.43954E-02 4.35905E-03-1.48859E-14
 -1       575 1.42817E-02 4.27616E-03-1.57084E-14
 -1       576 1.41662E-02 4.19186E-03-1.65455E-14
 -1       577 1.40506E-02 4.10755E-03-1.73909E-14
 -1       578 1.39350E-02 4.02325E-03-1.82413E-14
 -1       579 5.73975E-03 8.58319E-04-2.62939E-16
 -1       580 5.36724E-03 1.00319E-03 2.54144E-16
 -1       581 1.72475E-03 5.83885E-04 3.40412E-16
 -1       582 5.02154E-03 1.16980E-03 4.64879E-16
 -1       583 4.40957E-03 3.04001E-04-9.26881E-16
 -1       584 5.11594E-03 6.44221E-04-8.07383E-16
 -1       585 3.53794E-03-1.95994E-04-8.36035E-16
 -1       586 1.47827E-03 1.95407E-04-1.22606E-16
 -1       587 5.66527E-03 8.23210E-04-4.82734E-16
 -1       588 4.77123E-03 4.88832E-04-8.70973E-16
 -1       589 6.24275E-04 5.14560E-05-4.55026E-17
 -1       590 3.93753E-03 1.75667E-03 7.71661E-16
 -1       591 4.68843E-03 1.36039E-03 6.18822E-16
 -1       592 3.17185E-03 1.60174E-03 6.49844E-16
 -1       593 1.00365E-03 3.31453E-04 2.28225E-17
 -1       594 1.78808E-03 6.81361E-04 3.08676E-16
 -1       595 1.41676E-03 5.07510E-04 2.28826E-16
 -1       596 1.11952E-03 3.92559E-04 1.54266E-16
 -1       597 3.95137E-03 4.04219E-05-9.40952E-16
 -1       598 1.18295E-03 2.85866E-04-4.57211E-17
 -1       599 1.85238E-03 4.25178E-05-2.22136E-16
 -1       600 2.22048E-03-1.25789E-04-3.33284E-16
 -1       601 2.59609E-03-2.80591E-04-4.71038E-16
 -1       602 2.91674E-03-3.48525E-04-6.02423E-16
 -1       603 3.30450E-03-2.94768E-04-7.56529E-16
 -1       604 5.60466E-03 9.06481E-04 3.00951E-17
 -1       605 3.55613E-03 1.77262E-03 7.17498E-16
 -1       606 5.46021E-03 7.61736E-04-6.45326E-16
 -1       607 7.93598E-04 2.24739E-04 1.26438E-16
 -1       608 7.21405E-04-1.32574E-04-1.17887E-16
 -1       609 7.43509E-04-1.92077E-04-1.40458E-16
 -1       610 1.37852E-02 3.93000E-03-1.88854E-14
 -1       611 3.07990E-03-3.51547E-04-7.57573E-16
 -1       612 2.77833E-03 1.33049E-03 5.38252E-16
 -1       613 6.78682E-04 1.68711E-04 7.14218E-18
 -1       614 7.41926E-04 1.42120E-04-2.72474E-17
 -1       615 7.06037E-04 1.79573E-04 7.61415E-17
 -1       616 8.13235E-04 2.01207E-04 1.14380E-16
 -1       617 9.21769E-04 3.06359E-04 5.95651E-17
 -1       618 1.19177E-03-3.11741E-04-3.01916E-16
 -1       619 1.04445E-03 2.81131E-04 1.72991E-16
 -1       620 9.73635E-04 3.13930E-04 1.12627E-16
 -1       621 1.50978E-03-3.83720E-04-4.40992E-16
 -1       622 1.82820E-03-4.49210E-04-6.03531E-16
 -1       623 2.14278E-03-5.01861E-04-7.89679E-16
 -1       624 2.45043E-03-5.30812E-04-9.97676E-16
 -1       625 2.75115E-03-5.23663E-04-1.22683E-15
 -1       626 3.04867E-03-4.72030E-04-1.47847E-15
 -1       627 3.34854E-03-3.76776E-04-1.75026E-15
 -1       628 3.65455E-03-2.47998E-04-2.04090E-15
 -1       629 3.96677E-03-1.00161E-04-2.35012E-15
 -1       630 4.28219E-03 5.35742E-05-2.67389E-15
 -1       631 4.59701E-03 2.04470E-04-3.01247E-15
 -1       632 4.90841E-03 3.48365E-04-3.36519E-15
 -1       633 5.21505E-03 4.84249E-04-3.73183E-15
 -1       634 5.51679E-03 6.12846E-04-4.11325E-15
 -1       635 5.81422E-03 7.35586E-04-4.51007E-15
 -1       636 6.10819E-03 8.54029E-04-4.92077E-15
 -1       637 6.39957E-03 9.69578E-04-5.34472E-15
 -1       638 6.68908E-03 1.08338E-03-5.77844E-15
 -1       639 6.97730E-03 1.19629E-03-6.21846E-15
 -1       640 7.26465E-03 1.30894E-03-6.67014E-15
 -1       641 7.55142E-03 1.42174E-03-7.12852E-15
 -1       642 7.83782E-03 1.53492E-03-7.59200E-15
 -1       643 8.12397E-03 1.64863E-03-8.05794E-15
 -1       644 8.40997E-03 1.76290E-03-8.53018E-15
 -1       645 8.69587E-03 1.87773E-03-9.01176E-15
 -1       646 8.98170E-03 1.99308E-03-9.49883E-15
 -1       647 9.26750E-03 2.10889E-03-9.98825E-15
 -1       648 9.55326E-03 2.22509E-03-1.04769E-14
 -1       649 9.83900E-03 2.34162E-03-1.09671E-14
 -1       650 1.01247E-02 2.45841E-03-1.14581E-14
 -1       651 1.04105E-02 2.57541E-03-1.19580E-14
 -1       652 1.06962E-02 2.69257E-03-1.24640E-14
 -1       653 1.09819E-02 2.80987E-03-1.29708E-14
 -1       654 1.12676E-02 2.92725E-03-1.34687E-14
 -1       655 1.15533E-02 3.04471E-03-1.39585E-14
 -1       656 1.18390E-02 3.16221E-03-1.44503E-14
 -1       657 1.21247E-02 3.27975E-03-1.49482E-14
 -1       658 1.24105E-02 3.39731E-03-1.54597E-14
 -1       659 1.26962E-02 3.51488E-03-1.59683E-14
 -1       660 1.29819E-02 3.63247E-03-1.64830E-14
 -1       661 1.32676E-02 3.75005E-03-1.69961E-14
 -1       662 1.35533E-02 3.86763E-03-1.75092E-14
 -1       663 5.34543E-03 7.50314E-04-8.83200E-16
 -1       664 5.10881E-03 1.19320E-03 5.79306E-16
 -1       665 6.12633E-03 1.15919E-03 1.62596E-16
 -1       666 6.40758E-03 1.24935E-03 2.78708E-17
 -1       667 6.68906E-03 1.35587E-03-1.26208E-16
 -1       668 6.97225E-03 1.47233E-03-3.01134E-16
 -1       669 7.25713E-03 1.59443E-03-4.96487E-16
 -1       670 7.54322E-03 1.71934E-03-7.10596E-16
 -1       671 7.82999E-03 1.84529E-03-9.40633E-16
 -1       672 8.11704E-03 1.97124E-03-1.18384E-15
 -1       673 8.40410E-03 2.09659E-03-1.44196E-15
 -1       674 8.69105E-03 2.22107E-03-1.72029E-15
 -1       675 8.97780E-03 2.34458E-03-2.01718E-15
 -1       676 9.26434E-03 2.46713E-03-2.32706E-15
 -1       677 9.55069E-03 2.58879E-03-2.65020E-15
 -1       678 9.83687E-03 2.70966E-03-2.97811E-15
 -1       679 1.01229E-02 2.82985E-03-3.30848E-15
 -1       680 1.04089E-02 2.94947E-03-3.64162E-15
 -1       681 1.06947E-02 3.06861E-03-3.97272E-15
 -1       682 1.09805E-02 3.18737E-03-4.29267E-15
 -1       683 1.12663E-02 3.30582E-03-4.60479E-15
 -1       684 1.15520E-02 3.42403E-03-4.92061E-15
 -1       685 1.18377E-02 3.54206E-03-5.24063E-15
 -1       686 1.21234E-02 3.65995E-03-5.57307E-15
 -1       687 1.24091E-02 3.77774E-03-5.91409E-15
 -1       688 1.26948E-02 3.89545E-03-6.26340E-15
 -1       689 1.29805E-02 4.01310E-03-6.62575E-15
 -1       690 1.32662E-02 4.13071E-03-6.99816E-15
 -1       691 1.35519E-02 4.24830E-03-7.37889E-15
 -1       692 1.38376E-02 4.36588E-03-7.75608E-15
 -1       693 1.41233E-02 4.48344E-03-8.14335E-15
 -1       694 1.44090E-02 4.60101E-03-8.52795E-15
 -1       695 1.46947E-02 4.71857E-03-8.92004E-15
 -1       696 1.48910E-02 4.79102E-03-9.41128E-15
 -1       697 1.43214E-02 4.38370E-03-1.32337E-14
 -1       698 1.55651E-03 5.26050E-04 2.69766E-16
 -1       699 1.45526E-02 4.55232E-03-1.15984E-14
 -1       700 1.42057E-02 4.29938E-03-1.40607E-14
 -1       701 1.44370E-02 4.46801E-03-1.24162E-14
 -1       702 1.40921E-02 4.21650E-03-1.48715E-14
 -1       703 1.39765E-02 4.13219E-03-1.57034E-14
 -1       704 1.38609E-02 4.04788E-03-1.65353E-14
 -1       705 5.75581E-03 9.11227E-04-1.22732E-16
 -1       706 1.33486E-03 3.96879E-04 2.35970E-16
 -1       707 1.98733E-03-5.85010E-05-2.97312E-16
 -1       708 3.37927E-03-2.63729E-04-9.54010E-16
 -1       709 1.59780E-03 1.06400E-04-1.78436E-16
 -1       710 1.27033E-03 2.14963E-04-9.06562E-17
 -1       711 5.84035E-03 1.09504E-03 2.78755E-16
 -1       712 5.53803E-03 1.07243E-03 3.78190E-16
 -1       713 5.78021E-03 8.78641E-04-4.82600E-16
 -1       714 6.60495E-04 1.75377E-04 4.08710E-17
 -1       715 9.40713E-04-5.98127E-05-1.36606E-16
 -1       716 1.01681E-03 2.85617E-04-9.83405E-18
 -1       717 1.37442E-02 3.94544E-03-1.78752E-14
 -1       718 5.60460E-03 8.28034E-04-7.02055E-16
 -1       719 1.23580E-03 3.94689E-04 1.92686E-16
 -1       720 3.73442E-03-8.06689E-05-1.07257E-15
 -1       721 2.36031E-03-2.25446E-04-4.39468E-16
 -1       722 2.71988E-03-3.41483E-04-6.02281E-16
 -1       723 5.57589E-03 9.65076E-04 1.47451E-16
 -1       724 9.65539E-04-2.52081E-04-2.14154E-16
 -1       725 4.21244E-03 2.04909E-04-1.13692E-15
 -1       726 8.20047E-04 9.05733E-05-6.24602E-17
 -1       727 9.74466E-04-1.43290E-04-1.75116E-16
 -1       728 4.95426E-03 5.97476E-04-1.06329E-15
 -1       729 1.47763E-02 4.70743E-03-1.02367E-14
 -1       730 5.28559E-03 1.09385E-03 4.28372E-16
 -1       731 5.86750E-03 9.27326E-04-3.40406E-16
 -1       732 4.51980E-03 3.80602E-04-1.08999E-15
 -1       733 2.87943E-03-3.75253E-04-7.50973E-16
 -1       734 8.89455E-04 2.03869E-05-9.89572E-17
 -1       735 1.46645E-02 4.62988E-03-1.09192E-14
 -1       736 1.37071E-02 3.95776E-03-1.70246E-14
 -1       737 9.27302E-04 2.54304E-04 1.26411E-16
 -1       738 1.10902E-03 3.10437E-04 1.76376E-16
 -1       739 1.37869E-02 4.07252E-03-1.48663E-14
 -1       740 9.71163E-04-1.98421E-04-1.95414E-16
 -1       741 1.36713E-02 3.98821E-03-1.56886E-14
 -1       742 1.33525E-03-2.64428E-04-3.18413E-16
 -1       743 1.66271E-03-3.31939E-04-4.51946E-16
 -1       744 1.99251E-03-3.97665E-04-6.06801E-16
 -1       745 2.31792E-03-4.50991E-04-7.83021E-16
 -1       746 2.63467E-03-4.74233E-04-9.79783E-16
 -1       747 2.94398E-03-4.49947E-04-1.19898E-15
 -1       748 3.25318E-03-3.70383E-04-1.44106E-15
 -1       749 3.56849E-03-2.44411E-04-1.70166E-15
 -1       750 3.89263E-03-9.16515E-05-1.98167E-15
 -1       751 4.22133E-03 6.90665E-05-2.27736E-15
 -1       752 4.54831E-03 2.24899E-04-2.58775E-15
 -1       753 4.86919E-03 3.71033E-04-2.91398E-15
 -1       754 5.18211E-03 5.07076E-04-3.25383E-15
 -1       755 5.48720E-03 6.34721E-04-3.60665E-15
 -1       756 5.78573E-03 7.56145E-04-3.97796E-15
 -1       757 6.07929E-03 8.73326E-04-4.36471E-15
 -1       758 6.36937E-03 9.87848E-04-4.76531E-15
 -1       759 6.65717E-03 1.10088E-03-5.17786E-15
 -1       760 6.94359E-03 1.21327E-03-5.59763E-15
 -1       761 7.22925E-03 1.32555E-03-6.02655E-15
 -1       762 7.51454E-03 1.43810E-03-6.46604E-15
 -1       763 7.79971E-03 1.55111E-03-6.91262E-15
 -1       764 8.08489E-03 1.66470E-03-7.36553E-15
 -1       765 8.37014E-03 1.77887E-03-7.82072E-15
 -1       766 8.65550E-03 1.89363E-03-8.27941E-15
 -1       767 8.94095E-03 2.00891E-03-8.74924E-15
 -1       768 9.22648E-03 2.12465E-03-9.22035E-15
 -1       769 9.51208E-03 2.24080E-03-9.69396E-15
 -1       770 9.79774E-03 2.35728E-03-1.01687E-14
 -1       771 1.00834E-02 2.47402E-03-1.06423E-14
 -1       772 1.03691E-02 2.59099E-03-1.11215E-14
 -1       773 1.06549E-02 2.70813E-03-1.16110E-14
 -1       774 1.09406E-02 2.82539E-03-1.21035E-14
 -1       775 1.12264E-02 2.94276E-03-1.25887E-14
 -1       776 1.15121E-02 3.06020E-03-1.30637E-14
 -1       777 1.17978E-02 3.17769E-03-1.35422E-14
 -1       778 1.20836E-02 3.29521E-03-1.40220E-14
 -1       779 1.23693E-02 3.41277E-03-1.45141E-14
 -1       780 1.26550E-02 3.53034E-03-1.50119E-14
 -1       781 1.29408E-02 3.64792E-03-1.55123E-14
 -1       782 1.32265E-02 3.76550E-03-1.60181E-14
 -1       783 1.34668E-02 3.86163E-03-1.65202E-14
 -1       784 6.78408E-03 1.35352E-03-5.66343E-16
 -1       785 1.71075E-03-8.87667E-06-2.50007E-16
 -1       786 5.26066E-03 7.24300E-04-1.19427E-15
 -1       787 8.56364E-04 2.61670E-04 7.45779E-17
 -1       788 8.80310E-04 2.03472E-04-2.22973E-17
 -1       789 6.52250E-03 1.24313E-03-3.85346E-16
 -1       790 6.26959E-03 1.14286E-03-2.22190E-16
 -1       791 7.05280E-03 1.47063E-03-7.70315E-16
 -1       792 7.32695E-03 1.59183E-03-9.93177E-16
 -1       793 7.60501E-03 1.71521E-03-1.23021E-15
 -1       794 7.88579E-03 1.83947E-03-1.48386E-15
 -1       795 8.16839E-03 1.96379E-03-1.74951E-15
 -1       796 8.45220E-03 2.08769E-03-2.03391E-15
 -1       797 8.73677E-03 2.21091E-03-2.33951E-15
 -1       798 9.02182E-03 2.33336E-03-2.65986E-15
 -1       799 9.30717E-03 2.45502E-03-2.98936E-15
 -1       800 9.59270E-03 2.57596E-03-3.32920E-15
 -1       801 9.87833E-03 2.69623E-03-3.66966E-15
 -1       802 1.01640E-02 2.81594E-03-4.01236E-15
 -1       803 1.04498E-02 2.93518E-03-4.35458E-15
 -1       804 1.07355E-02 3.05402E-03-4.69094E-15
 -1       805 1.10212E-02 3.17255E-03-5.01850E-15
 -1       806 1.13070E-02 3.29082E-03-5.34323E-15
 -1       807 1.15927E-02 3.40890E-03-5.67181E-15
 -1       808 1.18785E-02 3.52683E-03-6.00832E-15
 -1       809 1.21642E-02 3.64465E-03-6.36005E-15
 -1       810 1.24499E-02 3.76238E-03-6.71620E-15
 -1       811 1.27357E-02 3.88005E-03-7.08853E-15
 -1       812 1.30214E-02 3.99768E-03-7.46822E-15
 -1       813 1.33071E-02 4.11527E-03-7.85209E-15
 -1       814 1.35928E-02 4.23285E-03-8.23759E-15
 -1       815 1.38786E-02 4.35042E-03-8.62943E-15
 -1       816 1.41643E-02 4.46799E-03-9.03338E-15
 -1       817 1.44500E-02 4.58555E-03-9.44047E-15
 -1       818 1.46131E-02 4.64649E-03-9.83618E-15
 -1       819 3.54633E-03-1.93215E-04-1.21011E-15
 -1       820 5.76119E-03 8.86506E-04-7.34330E-16
 -1       821 1.40161E-02 4.23972E-03-1.32480E-14
 -1       822 8.69940E-04 2.58053E-04 2.40540E-17
 -1       823 5.78673E-03 9.94158E-04 5.49826E-17
 -1       824 1.39015E-02 4.15612E-03-1.40548E-14
 -1       825 2.09835E-03-1.70880E-04-3.92840E-16
 -1       826 5.55369E-03 8.27654E-04-9.59929E-16
 -1       827 3.99794E-03 6.08988E-05-1.35969E-15
 -1       828 1.35130E-03 1.25346E-04-1.39042E-16
 -1       829 6.02583E-03 1.05705E-03-7.83438E-17
 -1       830 1.03225E-03 2.25393E-04-4.38729E-17
 -1       831 2.47701E-03-3.20768E-04-5.80475E-16
 -1       832 3.12931E-03-3.54142E-04-9.51164E-16
 -1       833 1.23398E-03-1.43616E-04-2.33015E-16
 -1       834 4.92979E-03 5.74765E-04-1.38604E-15
 -1       835 9.95132E-04 1.42676E-04-7.24416E-17
 -1       836 2.63575E-03-3.81150E-04-7.20080E-16
 -1       837 5.90843E-03 9.38130E-04-5.94888E-16
 -1       838 1.42474E-02 4.40835E-03-1.16287E-14
 -1       839 1.41317E-02 4.32404E-03-1.24355E-14
 -1       840 1.43592E-02 4.48591E-03-1.09593E-14
 -1       841 1.18531E-03-4.31033E-05-1.78419E-16
 -1       842 4.39012E-03 2.87547E-04-1.44354E-15
 -1       843 1.35690E-02 3.92492E-03-1.61038E-14
 -1       844 1.47892E-03-2.07419E-04-3.22218E-16
 -1       845 1.81936E-03-2.75800E-04-4.47227E-16
 -1       846 2.16383E-03-3.48387E-04-5.91012E-16
 -1       847 3.14987E-03-3.69612E-04-1.15422E-15
 -1       848 4.15952E-03 8.62862E-05-1.90427E-15
 -1       849 4.50180E-03 2.51084E-04-2.18660E-15
 -1       850 4.83423E-03 4.00607E-04-2.48444E-15
 -1       851 5.15442E-03 5.36055E-04-2.79610E-15
 -1       852 5.46301E-03 6.61173E-04-3.12219E-15
 -1       853 5.76232E-03 7.79598E-04-3.46568E-15
 -1       854 6.05493E-03 8.94081E-04-3.82650E-15
 -1       855 6.34311E-03 1.00650E-03-4.20299E-15
 -1       856 6.62862E-03 1.11807E-03-4.59275E-15
 -1       857 6.91270E-03 1.22950E-03-4.99277E-15
 -1       858 7.19618E-03 1.34123E-03-5.40188E-15
 -1       859 7.47956E-03 1.45350E-03-5.81912E-15
 -1       860 7.76313E-03 1.56640E-03-6.24538E-15
 -1       861 8.04702E-03 1.67996E-03-6.68325E-15
 -1       862 8.33126E-03 1.79417E-03-7.12561E-15
 -1       863 8.61585E-03 1.90897E-03-7.56835E-15
 -1       864 8.90073E-03 2.02431E-03-8.01678E-15
 -1       865 9.18587E-03 2.14009E-03-8.47202E-15
 -1       866 9.47120E-03 2.25627E-03-8.92854E-15
 -1       867 9.75667E-03 2.37277E-03-9.38607E-15
 -1       868 1.00423E-02 2.48953E-03-9.84541E-15
 -1       869 1.03279E-02 2.60650E-03-1.03076E-14
 -1       870 1.06136E-02 2.72363E-03-1.07765E-14
 -1       871 1.08994E-02 2.84089E-03-1.12508E-14
 -1       872 1.11851E-02 2.95825E-03-1.17257E-14
 -1       873 1.14709E-02 3.07568E-03-1.21858E-14
 -1       874 1.17566E-02 3.19317E-03-1.26507E-14
 -1       875 1.20424E-02 3.31069E-03-1.31173E-14
 -1       876 1.23282E-02 3.42823E-03-1.35879E-14
 -1       877 1.26139E-02 3.54580E-03-1.40701E-14
 -1       878 1.28997E-02 3.66337E-03-1.45586E-14
 -1       879 1.31854E-02 3.78095E-03-1.50509E-14
 -1       880 5.27579E-03 7.11492E-04-1.55726E-15
 -1       881 4.21143E-03 1.49165E-04-1.69208E-15
 -1       882 6.60346E-03 1.24683E-03-8.16282E-16
 -1       883 6.36424E-03 1.14463E-03-6.27418E-16
 -1       884 7.38548E-03 1.59127E-03-1.50335E-15
 -1       885 7.65913E-03 1.71239E-03-1.76820E-15
 -1       886 7.93643E-03 1.83452E-03-2.04735E-15
 -1       887 8.21634E-03 1.95693E-03-2.33690E-15
 -1       888 8.49808E-03 2.07917E-03-2.64730E-15
 -1       889 8.78109E-03 2.20099E-03-2.97711E-15
 -1       890 9.06500E-03 2.32226E-03-3.31564E-15
 -1       891 9.34952E-03 2.44297E-03-3.66478E-15
 -1       892 9.63447E-03 2.56312E-03-4.01801E-15
 -1       893 9.91971E-03 2.68278E-03-4.37102E-15
 -1       894 1.02051E-02 2.80199E-03-4.72562E-15
 -1       895 1.04907E-02 2.92084E-03-5.07316E-15
 -1       896 1.07764E-02 3.03938E-03-5.41580E-15
 -1       897 1.10621E-02 3.15767E-03-5.75387E-15
 -1       898 1.13478E-02 3.27577E-03-6.09318E-15
 -1       899 1.16335E-02 3.39372E-03-6.43893E-15
 -1       900 1.19193E-02 3.51155E-03-6.79506E-15
 -1       901 1.22051E-02 3.62930E-03-7.16228E-15
 -1       902 1.24908E-02 3.74699E-03-7.53899E-15
 -1       903 1.27766E-02 3.86463E-03-7.92852E-15
 -1       904 1.30623E-02 3.98223E-03-8.31988E-15
 -1       905 1.33481E-02 4.09982E-03-8.71161E-15
 -1       906 1.36338E-02 4.21740E-03-9.10837E-15
 -1       907 1.39195E-02 4.33496E-03-9.51725E-15
 -1       908 1.42053E-02 4.45253E-03-9.93774E-15
 -1       909 1.80831E-03-1.33905E-04-3.38386E-16
 -1       910 5.98822E-03 9.89921E-04-3.42659E-16
 -1       911 6.85543E-03 1.35678E-03-1.02765E-15
 -1       912 1.41874E-03 1.95438E-05-1.94496E-16
 -1       913 5.54017E-03 8.22803E-04-1.31971E-15
 -1       914 1.10427E-03 5.60724E-05-1.24388E-16
 -1       915 2.17698E-03-2.77117E-04-5.06980E-16
 -1       916 6.16769E-03 1.06259E-03-4.77910E-16
 -1       917 2.88268E-03-4.05317E-04-9.12153E-16
 -1       918 5.75837E-03 8.98063E-04-1.08963E-15
 -1       919 1.34816E-02 3.92854E-03-1.48559E-14
 -1       920 1.44862E-02 4.56620E-03-1.03992E-14
 -1       921 7.11694E-03 1.47223E-03-1.25830E-15
 -1       922 3.93267E-03-1.88394E-05-1.66709E-15
 -1       923 4.75270E-03 4.51095E-04-1.73680E-15
 -1       924 1.33772E-02 3.85294E-03-1.55779E-14
 -1       925 1.39421E-02 4.26438E-03-1.16496E-14
 -1       926 1.38264E-02 4.18006E-03-1.24503E-14
 -1       927 1.35962E-02 4.01214E-03-1.40517E-14
 -1       928 5.95134E-03 9.62036E-04-9.50347E-16
 -1       929 1.40539E-02 4.34195E-03-1.09852E-14
 -1       930 1.37113E-02 4.09610E-03-1.32475E-14
 -1       931 1.50369E-03-1.50042E-04-2.94639E-16
 -1       932 6.41838E-03 1.15146E-03-1.05047E-15
 -1       933 1.85293E-03-2.19755E-04-4.08338E-16
 -1       934 5.15447E-03 6.20911E-04-1.97735E-15
 -1       935 4.81022E-03 4.38355E-04-2.07902E-15
 -1       936 5.44812E-03 6.93081E-04-2.65967E-15
 -1       937 5.74649E-03 8.06471E-04-2.97447E-15
 -1       938 6.03654E-03 9.16541E-04-3.30819E-15
 -1       939 6.32148E-03 1.02560E-03-3.65783E-15
 -1       940 6.60364E-03 1.13485E-03-4.02462E-15
 -1       941 6.88458E-03 1.24484E-03-4.40394E-15
 -1       942 7.16528E-03 1.35578E-03-4.79201E-15
 -1       943 7.44628E-03 1.46770E-03-5.18929E-15
 -1       944 7.72789E-03 1.58054E-03-5.59738E-15
 -1       945 8.01020E-03 1.69420E-03-6.01579E-15
 -1       946 8.29320E-03 1.80859E-03-6.44351E-15
 -1       947 8.57684E-03 1.92359E-03-6.87286E-15
 -1       948 8.86102E-03 2.03912E-03-7.30484E-15
 -1       949 9.14563E-03 2.15508E-03-7.74012E-15
 -1       950 9.43059E-03 2.27140E-03-8.18118E-15
 -1       951 9.71582E-03 2.38801E-03-8.62133E-15
 -1       952 1.00012E-02 2.50485E-03-9.06301E-15
 -1       953 1.02868E-02 2.62188E-03-9.50942E-15
 -1       954 1.05724E-02 2.73906E-03-9.96063E-15
 -1       955 1.08582E-02 2.85634E-03-1.04139E-14
 -1       956 1.11439E-02 2.97372E-03-1.08708E-14
 -1       957 1.14297E-02 3.09116E-03-1.13230E-14
 -1       958 1.17155E-02 3.20864E-03-1.17694E-14
 -1       959 1.20012E-02 3.32616E-03-1.22244E-14
 -1       960 1.22870E-02 3.44371E-03-1.26836E-14
 -1       961 1.25728E-02 3.56127E-03-1.31464E-14
 -1       962 1.28585E-02 3.67884E-03-1.36183E-14
 -1       963 1.31443E-02 3.79642E-03-1.40993E-14
 -1       964 6.90739E-03 1.36060E-03-1.50694E-15
 -1       965 5.79162E-03 9.08181E-04-1.41078E-15
 -1       966 7.70648E-03 1.70930E-03-2.32728E-15
 -1       967 7.43439E-03 1.59048E-03-2.03570E-15
 -1       968 8.26104E-03 1.94983E-03-2.94471E-15
 -1       969 8.54175E-03 2.07044E-03-3.27955E-15
 -1       970 8.82396E-03 2.19087E-03-3.62724E-15
 -1       971 9.10724E-03 2.31100E-03-3.98598E-15
 -1       972 9.39130E-03 2.43076E-03-4.34963E-15
 -1       973 9.67591E-03 2.55015E-03-4.71541E-15
 -1       974 9.96092E-03 2.66919E-03-5.08132E-15
 -1       975 1.02462E-02 2.78792E-03-5.44222E-15
 -1       976 1.05317E-02 2.90639E-03-5.79716E-15
 -1       977 1.08173E-02 3.02464E-03-6.14905E-15
 -1       978 1.11029E-02 3.14272E-03-6.49936E-15
 -1       979 1.13887E-02 3.26066E-03-6.85731E-15
 -1       980 1.16744E-02 3.37849E-03-7.22353E-15
 -1       981 1.19602E-02 3.49624E-03-7.59928E-15
 -1       982 1.22460E-02 3.61393E-03-7.98433E-15
 -1       983 1.25318E-02 3.73157E-03-8.37546E-15
 -1       984 1.28175E-02 3.84919E-03-8.77944E-15
 -1       985 1.31033E-02 3.96678E-03-9.17960E-15
 -1       986 1.33891E-02 4.08436E-03-9.58408E-15
 -1       987 1.36748E-02 4.20193E-03-9.99724E-15
 -1       988 6.08003E-03 1.01118E-03-7.19554E-16
 -1       989 5.56344E-03 8.16938E-04-1.66684E-15
 -1       990 4.51540E-03 3.01916E-04-1.88252E-15
 -1       991 1.36368E-02 4.12041E-03-1.16616E-14
 -1       992 7.16744E-03 1.47381E-03-1.76261E-15
 -1       993 7.98236E-03 1.82931E-03-2.62894E-15
 -1       994 6.65662E-03 1.25250E-03-1.26840E-15
 -1       995 1.37486E-02 4.19797E-03-1.10000E-14
 -1       996 1.35217E-02 4.03644E-03-1.24532E-14
 -1       997 5.14531E-03 5.74796E-04-2.37633E-15
 -1       998 6.00111E-03 9.82961E-04-1.27486E-15
 -1       999 1.39605E-02 4.31949E-03-1.04224E-14
 -1      1000 6.24226E-03 1.07821E-03-8.79102E-16
 -1      1001 5.74193E-03 8.36579E-04-2.50574E-15
 -1      1002 8.02453E-03 1.82310E-03-3.22885E-15
 -1      1003 5.45528E-03 7.32515E-04-2.23424E-15
 -1      1004 6.02604E-03 9.40343E-04-2.80951E-15
 -1      1005 6.30533E-03 1.04473E-03-3.13222E-15
 -1      1006 6.58247E-03 1.15085E-03-3.47323E-15
 -1      1007 6.85912E-03 1.25894E-03-3.82902E-15
 -1      1008 7.13625E-03 1.36888E-03-4.19684E-15
 -1      1009 7.41436E-03 1.48043E-03-4.57255E-15
 -1      1010 7.69366E-03 1.59328E-03-4.96065E-15
 -1      1011 7.97415E-03 1.70719E-03-5.36162E-15
 -1      1012 8.25574E-03 1.82193E-03-5.77154E-15
 -1      1013 8.53830E-03 1.93731E-03-6.18787E-15
 -1      1014 8.82167E-03 2.05320E-03-6.60613E-15
 -1      1015 9.10569E-03 2.16949E-03-7.02665E-15
 -1      1016 9.39023E-03 2.28608E-03-7.45072E-15
 -1      1017 9.67515E-03 2.40291E-03-7.87551E-15
 -1      1018 9.96036E-03 2.51992E-03-8.29712E-15
 -1      1019 1.02458E-02 2.63708E-03-8.72366E-15
 -1      1020 1.05314E-02 2.75435E-03-9.15723E-15
 -1      1021 1.08170E-02 2.87171E-03-9.59503E-15
 -1      1022 1.11027E-02 2.98913E-03-1.00334E-14
 -1      1023 1.13885E-02 3.10660E-03-1.04703E-14
 -1      1024 1.16743E-02 3.22410E-03-1.09054E-14
 -1      1025 1.19601E-02 3.34163E-03-1.13469E-14
 -1      1026 1.22459E-02 3.45918E-03-1.17917E-14
 -1      1027 1.25317E-02 3.57674E-03-1.22433E-14
 -1      1028 1.28174E-02 3.69431E-03-1.26978E-14
 -1      1029 1.31032E-02 3.81188E-03-1.31649E-14
 -1      1030 7.47610E-03 1.58805E-03-2.59006E-15
 -1      1031 8.58356E-03 2.06108E-03-3.92511E-15
 -1      1032 8.30306E-03 1.94195E-03-3.57038E-15
 -1      1033 9.14863E-03 2.29933E-03-4.66484E-15
 -1      1034 9.43253E-03 2.41822E-03-5.04132E-15
 -1      1035 9.71703E-03 2.53690E-03-5.41995E-15
 -1      1036 1.00019E-02 2.65538E-03-5.79477E-15
 -1      1037 1.02872E-02 2.77367E-03-6.16344E-15
 -1      1038 1.05726E-02 2.89180E-03-6.52872E-15
 -1      1039 1.08582E-02 3.00979E-03-6.89308E-15
 -1      1040 1.11439E-02 3.12768E-03-7.26082E-15
 -1      1041 1.14296E-02 3.24547E-03-7.63792E-15
 -1      1042 1.17154E-02 3.36320E-03-8.02516E-15
 -1      1043 1.20012E-02 3.48088E-03-8.42047E-15
 -1      1044 1.22870E-02 3.59852E-03-8.82189E-15
 -1      1045 1.25727E-02 3.71614E-03-9.22936E-15
 -1      1046 1.28585E-02 3.83373E-03-9.63996E-15
 -1      1047 1.31443E-02 3.95131E-03-1.00539E-14
 -1      1048 1.34301E-02 4.06889E-03-1.04718E-14
 -1      1049 5.86556E-03 9.23940E-04-1.80132E-15
 -1      1050 1.34073E-02 3.95399E-03-1.32117E-14
 -1      1051 7.74860E-03 1.70493E-03-2.90496E-15
 -1      1052 8.86555E-03 2.18026E-03-4.29093E-15
 -1      1053 1.33318E-02 3.97661E-03-1.16730E-14
 -1      1054 7.20805E-03 1.47332E-03-2.28882E-15
 -1      1055 6.13381E-03 1.03210E-03-1.08022E-15
 -1      1056 6.44599E-03 1.15491E-03-1.49405E-15
 -1      1057 6.08055E-03 1.00805E-03-1.66675E-15
 -1      1058 6.28502E-03 1.09135E-03-1.28033E-15
 -1      1059 6.94581E-03 1.36187E-03-2.00382E-15
 -1      1060 6.69106E-03 1.25517E-03-1.73977E-15
 -1      1061 1.33809E-02 4.02275E-03-1.10713E-14
 -1      1062 1.32175E-02 3.89425E-03-1.24202E-14
 -1      1063 6.29525E-03 1.06294E-03-2.62773E-15
 -1      1064 6.56508E-03 1.16535E-03-2.94013E-15
 -1      1065 6.83594E-03 1.27124E-03-3.27140E-15
 -1      1066 7.10859E-03 1.38012E-03-3.61849E-15
 -1      1067 7.38325E-03 1.49136E-03-3.97211E-15
 -1      1068 7.65992E-03 1.60439E-03-4.33618E-15
 -1      1069 7.93842E-03 1.71873E-03-4.71736E-15
 -1      1070 8.21851E-03 1.83403E-03-5.11077E-15
 -1      1071 8.49995E-03 1.95000E-03-5.50861E-15
 -1      1072 8.78249E-03 2.06644E-03-5.91420E-15
 -1      1073 9.06590E-03 2.18322E-03-6.32269E-15
 -1      1074 9.34999E-03 2.30022E-03-6.73466E-15
 -1      1075 9.63460E-03 2.41740E-03-7.14563E-15
 -1      1076 9.91960E-03 2.53469E-03-7.54830E-15
 -1      1077 1.02049E-02 2.65206E-03-7.95473E-15
 -1      1078 1.04903E-02 2.76949E-03-8.36791E-15
 -1      1079 1.07759E-02 2.88696E-03-8.78449E-15
 -1      1080 1.10616E-02 3.00446E-03-9.20961E-15
 -1      1081 1.13474E-02 3.12199E-03-9.63127E-15
 -1      1082 1.16332E-02 3.23953E-03-1.00559E-14
 -1      1083 1.19190E-02 3.35709E-03-1.04803E-14
 -1      1084 1.22048E-02 3.47465E-03-1.09155E-14
 -1      1085 1.24906E-02 3.59221E-03-1.13523E-14
 -1      1086 1.27763E-02 3.70979E-03-1.17980E-14
 -1      1087 1.29969E-02 3.80201E-03-1.21060E-14
 -1      1088 8.90616E-03 2.16894E-03-4.96610E-15
 -1      1089 9.75789E-03 2.52330E-03-6.13468E-15
 -1      1090 9.18937E-03 2.28710E-03-5.35326E-15
 -1      1091 1.00429E-02 2.64130E-03-6.51551E-15
 -1      1092 1.03281E-02 2.75921E-03-6.89350E-15
 -1      1093 1.06136E-02 2.87704E-03-7.27243E-15
 -1      1094 1.08992E-02 2.99482E-03-7.65565E-15
 -1      1095 1.11849E-02 3.11254E-03-8.04433E-15
 -1      1096 1.14706E-02 3.23022E-03-8.44191E-15
 -1      1097 1.17564E-02 3.34787E-03-8.84640E-15
 -1      1098 1.20422E-02 3.46549E-03-9.25558E-15
 -1      1099 1.23280E-02 3.58309E-03-9.67130E-15
 -1      1100 1.26138E-02 3.70068E-03-1.00883E-14
 -1      1101 1.28995E-02 3.81826E-03-1.05131E-14
 -1      1102 1.31402E-02 3.92051E-03-1.07929E-14
 -1      1103 6.06919E-03 9.84894E-04-2.26850E-15
 -1      1104 8.62397E-03 2.05084E-03-4.58575E-15
 -1      1105 9.47334E-03 2.40523E-03-5.74388E-15
 -1      1106 7.51302E-03 1.58329E-03-3.16390E-15
 -1      1107 8.34312E-03 1.93294E-03-4.21183E-15
 -1      1108 6.97619E-03 1.35930E-03-2.52594E-15
 -1      1109 1.30911E-02 3.87437E-03-1.13832E-14
 -1      1110 8.06400E-03 1.81545E-03-3.84637E-15
 -1      1111 7.78711E-03 1.69873E-03-3.49735E-15
 -1      1112 7.24244E-03 1.46983E-03-2.83740E-15
 -1      1113 6.71519E-03 1.25288E-03-2.23203E-15
 -1      1114 6.18901E-03 1.05187E-03-1.47532E-15
 -1      1115 6.46054E-03 1.15196E-03-1.95655E-15
 -1      1116 9.51391E-03 2.39174E-03-6.45381E-15
 -1      1117 9.87886E-03 2.54910E-03-6.82029E-15
 -1      1118 6.21323E-03 1.05794E-03-1.70181E-15
 -1      1119 0.00000E+00 0.00000E+00 0.00000E+00
 -1      1120 0.00000E+00 0.00000E+00 0.00000E+00
 -1      1121 0.00000E+00 0.00000E+00 0.00000E+00
 -1      1122 0.00000E+00 0.00000E+00 0.00000E+00
 -1      1123 0.00000E+00 0.00000E+00 0.00000E+00
 -1      1124 0.00000E+00 0.00000E+00 0.00000E+00
 -1      1125 0.00000E+00 0.00000E+00 0.00000E+00
 -1      1126 0.00000E+00 0.00000E+00 0.00000E+00
 -1      1127 0.00000E+00 0.00000E+00 0.00000E+00
 -1      1128 0.00000E+00 0.00000E+00 0.00000E+00
 -1      1129 0.00000E+00 0.00000E+00 0.00000E+00
 -1      1130 0.00000E+00 0.00000E+00 0.00000E+00
 -1      1131 0.00000E+00 0.00000E+00 0.00000E+00
 -1      1132 0.00000E+00 0.00000E+00 0.00000E+00
 -1      1133 0.00000E+00 0.00000E+00 0.00000E+00
 -1      1134 0.00000E+00 0.00000E+00 0.00000E+00
 -1      1135 0.00000E+00 0.00000E+00 0.00000E+00
 -1      1136 2.26639E-04-1.55592E-04-2.14943E-17
 -1      1137 5.94742E-04-3.53801E-04-9.49626E-17
 -1      1138 9.02594E-04-4.86722E-04-2.06378E-16
 -1      1139 1.19520E-03-5.85302E-04-3.58302E-16
 -1      1140 1.47711E-03-6.64413E-04-5.44947E-16
 -1      1141 1.74831E-03-7.28314E-04-7.62153E-16
 -1      1142 2.00806E-03-7.75371E-04-1.00869E-15
 -1      1143 2.25649E-03-8.00689E-04-1.28541E-15
 -1      1144 2.49582E-03-7.98403E-04-1.58886E-15
 -1      1145 2.73055E-03-7.64020E-04-1.91610E-15
 -1      1146 2.96667E-03-6.96380E-04-2.26419E-15
 -1      1147 3.21013E-03-5.98485E-04-2.63037E-15
 -1      1148 3.46525E-03-4.76861E-04-3.01391E-15
 -1      1149 3.73383E-03-3.39818E-04-3.41528E-15
 -1      1150 4.01519E-03-1.95468E-04-3.83126E-15
 -1      1151 4.30683E-03-5.02691E-05-4.25854E-15
 -1      1152 4.60549E-03 9.15789E-05-4.69892E-15
 -1      1153 4.90795E-03 2.28014E-04-5.15045E-15
 -1      1154 5.21156E-03 3.58585E-04-5.61638E-15
 -1      1155 5.51443E-03 4.83839E-04-6.09261E-15
 -1      1156 5.81542E-03 6.04800E-04-6.57846E-15
 -1      1157 6.11400E-03 7.22612E-04-7.07552E-15
 -1      1158 6.41006E-03 8.38327E-04-7.57409E-15
 -1      1159 6.70374E-03 9.52810E-04-8.08258E-15
 -1      1160 6.99537E-03 1.06671E-03-8.60659E-15
 -1      1161 7.28528E-03 1.18050E-03-9.13527E-15
 -1      1162 7.57383E-03 1.29446E-03-9.66440E-15
 -1      1163 7.86136E-03 1.40877E-03-1.01953E-14
 -1      1164 8.14812E-03 1.52351E-03-1.07373E-14
 -1      1165 8.43434E-03 1.63870E-03-1.12925E-14
 -1      1166 8.72020E-03 1.75432E-03-1.18444E-14
 -1      1167 9.00583E-03 1.87032E-03-1.23959E-14
 -1      1168 9.29132E-03 1.98667E-03-1.29517E-14
 -1      1169 9.57674E-03 2.10330E-03-1.35102E-14
 -1      1170 9.86214E-03 2.22017E-03-1.40631E-14
 -1      1171 1.01475E-02 2.33723E-03-1.46203E-14
 -1      1172 1.04330E-02 2.45443E-03-1.51765E-14
 -1      1173 1.07184E-02 2.57174E-03-1.57275E-14
 -1      1174 1.10039E-02 2.68914E-03-1.62732E-14
 -1      1175 1.12895E-02 2.80660E-03-1.68175E-14
 -1      1176 1.15750E-02 2.92411E-03-1.73682E-14
 -1      1177 1.18607E-02 3.04165E-03-1.79321E-14
 -1      1178 1.21463E-02 3.15920E-03-1.85103E-14
 -1      1179 1.24319E-02 3.27677E-03-1.90858E-14
 -1      1180 1.27176E-02 3.39435E-03-1.96551E-14
 -1      1181 1.30033E-02 3.51193E-03-2.02136E-14
 -1      1182 1.32890E-02 3.62950E-03-2.07597E-14
 -1      1183 1.35747E-02 3.74707E-03-2.12967E-14
 -1      1184 1.38604E-02 3.86464E-03-2.18224E-14
 -1      1185 1.41390E-02 3.97926E-03-2.23506E-14
 -1      1186 2.60150E-04 1.56602E-04 2.57091E-17
 -1      1187 6.68776E-04 3.15667E-04 9.88928E-17
 -1      1188 1.05946E-03 4.34863E-04 1.92880E-16
 -1      1189 1.46445E-03 5.54924E-04 3.05393E-16
 -1      1190 1.88895E-03 7.05541E-04 4.29141E-16
 -1      1191 2.32757E-03 9.11433E-04 5.60560E-16
 -1      1192 2.75906E-03 1.18448E-03 6.96207E-16
 -1      1193 3.14787E-03 1.50209E-03 8.40528E-16
 -1      1194 3.46434E-03 1.79066E-03 9.84618E-16
 -1      1195 3.72007E-03 1.95063E-03 1.12223E-15
 -1      1196 3.97566E-03 1.93177E-03 1.23636E-15
 -1      1197 4.29220E-03 1.78297E-03 1.31155E-15
 -1      1198 4.68253E-03 1.60650E-03 1.34647E-15
 -1      1199 5.11711E-03 1.47965E-03 1.35349E-15
 -1      1200 5.55871E-03 1.42773E-03 1.33606E-15
 -1      1201 5.98331E-03 1.44206E-03 1.28832E-15
 -1      1202 6.38174E-03 1.50348E-03 1.21371E-15
 -1      1203 6.75393E-03 1.59455E-03 1.12723E-15
 -1      1204 7.10370E-03 1.70293E-03 1.01756E-15
 -1      1205 7.43579E-03 1.82076E-03 8.84966E-16
 -1      1206 7.75453E-03 1.94335E-03 7.34737E-16
 -1      1207 8.06344E-03 2.06800E-03 5.69802E-16
 -1      1208 8.36523E-03 2.19319E-03 3.90259E-16
 -1      1209 8.66192E-03 2.31810E-03 1.88760E-16
 -1      1210 8.95497E-03 2.44235E-03-3.55483E-17
 -1      1211 9.24545E-03 2.56576E-03-2.71349E-16
 -1      1212 9.53415E-03 2.68829E-03-5.29985E-16
 -1      1213 9.82161E-03 2.80999E-03-8.01049E-16
 -1      1214 1.01082E-02 2.93094E-03-1.07730E-15
 -1      1215 1.03943E-02 3.05122E-03-1.36466E-15
 -1      1216 1.06801E-02 3.17094E-03-1.65536E-15
 -1      1217 1.09656E-02 3.29019E-03-1.94366E-15
 -1      1218 1.12510E-02 3.40905E-03-2.23313E-15
 -1      1219 1.15364E-02 3.52759E-03-2.51595E-15
 -1      1220 1.18218E-02 3.64588E-03-2.79475E-15
 -1      1221 1.21071E-02 3.76398E-03-3.07762E-15
 -1      1222 1.23926E-02 3.88192E-03-3.37607E-15
 -1      1223 1.26780E-02 3.99975E-03-3.68619E-15
 -1      1224 1.29635E-02 4.11750E-03-3.98825E-15
 -1      1225 1.32490E-02 4.23518E-03-4.30033E-15
 -1      1226 1.35346E-02 4.35282E-03-4.63776E-15
 -1      1227 1.38202E-02 4.47043E-03-4.98481E-15
 -1      1228 1.41058E-02 4.58802E-03-5.32509E-15
 -1      1229 1.43915E-02 4.70559E-03-5.65059E-15
 -1      1230 1.46772E-02 4.82316E-03-5.94774E-15
 -1      1231 1.49628E-02 4.94073E-03-6.25906E-15
 -1      1232 1.52485E-02 5.05830E-03-6.59040E-15
 -1      1233 1.55342E-02 5.17588E-03-6.93728E-15
 -1      1234 1.58200E-02 5.29346E-03-7.32632E-15
 -1      1235 1.60985E-02 5.40811E-03-7.71963E-15
 -1      1236 1.61764E-02 5.42182E-03-8.33144E-15
 -1      1237 1.60608E-02 5.33753E-03-9.22892E-15
 -1      1238 1.59452E-02 5.25325E-03-1.01126E-14
 -1      1239 1.58295E-02 5.16895E-03-1.09726E-14
 -1      1240 1.57139E-02 5.08465E-03-1.18381E-14
 -1      1241 1.55992E-02 5.00106E-03-1.27060E-14
 -1      1242 1.54846E-02 4.91746E-03-1.35849E-14
 -1      1243 1.53689E-02 4.83314E-03-1.44508E-14
 -1      1244 1.52533E-02 4.74882E-03-1.53040E-14
 -1      1245 1.51377E-02 4.66449E-03-1.61230E-14
 -1      1246 1.50221E-02 4.58017E-03-1.69528E-14
 -1      1247 1.49075E-02 4.49657E-03-1.78260E-14
 -1      1248 1.47929E-02 4.41298E-03-1.87153E-14
 -1      1249 1.46773E-02 4.32868E-03-1.96046E-14
 -1      1250 1.45617E-02 4.24438E-03-2.04784E-14
 -1      1251 1.44461E-02 4.16010E-03-2.13478E-14
 -1      1252 1.43315E-02 4.07653E-03-2.22023E-14
 -1      1253 5.69163E-03 8.15174E-04-9.03208E-17
 -1      1254 5.61963E-03 9.74539E-04 3.15706E-17
 -1      1255 5.42769E-03 1.14029E-03 1.46545E-16
 -1      1256 5.14579E-03 1.30303E-03 2.40449E-16
 -1      1257 4.78905E-03 1.45743E-03 3.12426E-16
 -1      1258 4.36620E-03 1.58778E-03 3.64021E-16
 -1      1259 3.91596E-03 1.66127E-03 3.98200E-16
 -1      1260 3.42251E-03 1.65672E-03 4.13108E-16
 -1      1261 2.91987E-03 1.56827E-03 4.02673E-16
 -1      1262 2.43990E-03 1.40812E-03 3.74375E-16
 -1      1263 1.98196E-03 1.20140E-03 3.31888E-16
 -1      1264 1.59028E-03 9.88418E-04 2.79250E-16
 -1      1265 1.28334E-03 7.87188E-04 2.18643E-16
 -1      1266 1.08347E-03 6.12653E-04 1.54831E-16
 -1      1267 9.95973E-04 4.60705E-04 8.95890E-17
 -1      1268 1.02213E-03 3.20546E-04 2.37779E-17
 -1      1269 1.15614E-03 1.91656E-04-4.22788E-17
 -1      1270 1.39203E-03 6.35474E-05-1.14180E-16
 -1      1271 1.70529E-03-5.64891E-05-1.86158E-16
 -1      1272 2.08561E-03-1.61588E-04-2.58121E-16
 -1      1273 2.51803E-03-2.37183E-04-3.29381E-16
 -1      1274 2.95754E-03-2.63202E-04-3.90909E-16
 -1      1275 3.38852E-03-2.40149E-04-4.39400E-16
 -1      1276 3.80866E-03-1.69684E-04-4.69676E-16
 -1      1277 4.23082E-03-5.72996E-05-4.81684E-16
 -1      1278 4.62406E-03 7.93217E-05-4.70625E-16
 -1      1279 4.97742E-03 2.28342E-04-4.34257E-16
 -1      1280 5.27537E-03 3.80130E-04-3.76508E-16
 -1      1281 5.50194E-03 5.26491E-04-3.00615E-16
 -1      1282 5.64510E-03 6.68080E-04-2.04785E-16
 -1      1283 1.79296E-04-1.14464E-04-2.43403E-17
 -1      1284 1.20569E-04-5.63202E-05-2.06947E-17
 -1      1285 1.26366E-04-6.83517E-05-2.13588E-17
 -1      1286 1.15274E-04-3.98288E-05-1.86347E-17
 -1      1287 1.17709E-04-4.74501E-05-1.96241E-17
 -1      1288 2.42534E-04-1.05883E-04-4.73796E-17
 -1      1289 1.12366E-04-2.61588E-05-1.57345E-17
 -1      1290 1.13949E-04-3.27996E-05-1.68593E-17
 -1      1291 2.33231E-04-7.46609E-05-4.18502E-17
 -1      1292 1.09539E-04-1.32670E-05-1.28071E-17
 -1      1293 1.11124E-04-1.95481E-05-1.38507E-17
 -1      1294 2.27329E-04-4.77990E-05-3.51553E-17
 -1      1295 1.06052E-04-1.26879E-06-9.74427E-18
 -1      1296 1.07985E-04-7.02581E-06-1.07065E-17
 -1      1297 2.21252E-04-2.28160E-05-2.82028E-17
 -1      1298 1.01482E-04 9.44570E-06-6.78982E-18
 -1      1299 1.03945E-04 4.44757E-06-7.64363E-18
 -1      1300 2.13366E-04 3.84409E-07-2.11690E-17
 -1      1301 9.61066E-05 1.73565E-05-4.09286E-18
 -1      1302 9.88868E-05 1.38290E-05-4.82470E-18
 -1      1303 2.03040E-04 2.03134E-05-1.44199E-17
 -1      1304 9.07792E-05 2.12100E-05-1.65341E-18
 -1      1305 9.33683E-05 1.96613E-05-2.31748E-18
 -1      1306 1.91042E-04 3.43595E-05-8.29415E-18
 -1      1307 8.69166E-05 2.05379E-05 9.75782E-19
 -1      1308 8.85547E-05 2.10236E-05 3.11708E-19
 -1      1309 1.79560E-04 4.05219E-05-2.34459E-18
 -1      1310 8.60998E-05 1.63073E-05 3.36103E-18
 -1      1311 8.60142E-05 1.81752E-05 2.75116E-18
 -1      1312 1.71971E-04 3.86002E-05 3.64563E-18
 -1      1313 8.93621E-05 1.10876E-05 6.07153E-18
 -1      1314 8.71417E-05 1.30082E-05 5.24483E-18
 -1      1315 1.71727E-04 3.12773E-05 9.52743E-18
 -1      1316 9.70259E-05 8.01620E-06 9.08019E-18
 -1      1317 9.25974E-05 8.48036E-06 8.09086E-18
 -1      1318 1.80857E-04 2.36498E-05 1.59107E-17
 -1      1319 1.08356E-04 1.05383E-05 1.24412E-17
 -1      1320 1.02168E-04 8.01694E-06 1.11808E-17
 -1      1321 1.99482E-04 2.19739E-05 2.29444E-17
 -1      1322 1.22345E-04 2.17242E-05 1.64528E-17
 -1      1323 1.14830E-04 1.47770E-05 1.48129E-17
 -1      1324 2.25652E-04 3.23560E-05 3.09133E-17
 -1      1325 1.39311E-04 4.63628E-05 2.05050E-17
 -1      1326 1.30016E-04 3.21244E-05 1.87160E-17
 -1      1327 2.57625E-04 6.06020E-05 3.97360E-17
 -1      1328 1.87378E-04 9.97600E-05 2.47063E-17
 -1      1329 1.64058E-04 6.83008E-05 2.35678E-17
 -1      1330 3.09360E-04 1.13713E-04 4.91550E-17
 -1      1331 4.04048E-04 1.96552E-04 5.82081E-17
 -1      1332 4.54358E-04-2.72436E-04-7.69241E-17
 -1      1333 6.20187E-04-3.52131E-04-1.19127E-16
 -1      1334 7.79702E-04-4.18484E-04-1.73350E-16
 -1      1335 9.34567E-04-4.74891E-04-2.37440E-16
 -1      1336 6.60112E-04-3.45611E-04-1.43386E-16
 -1      1337 1.08538E-03-5.24717E-04-3.09933E-16
 -1      1338 1.23279E-03-5.68931E-04-3.91275E-16
 -1      1339 9.76012E-04-4.60970E-04-2.65264E-16
 -1      1340 1.37729E-03-6.09214E-04-4.80695E-16
 -1      1341 1.51904E-03-6.45522E-04-5.78191E-16
 -1      1342 1.27753E-03-5.51472E-04-4.20996E-16
 -1      1343 1.65819E-03-6.78288E-04-6.82858E-16
 -1      1344 1.79475E-03-7.07045E-04-7.94341E-16
 -1      1345 1.56799E-03-6.25645E-04-6.07465E-16
 -1      1346 1.92879E-03-7.31423E-04-9.13210E-16
 -1      1347 2.06036E-03-7.50723E-04-1.03952E-15
 -1      1348 1.84879E-03-6.84443E-04-8.22313E-16
 -1      1349 2.18965E-03-7.64158E-04-1.17251E-15
 -1      1350 2.31689E-03-7.70979E-04-1.31263E-15
 -1      1351 2.12075E-03-7.24137E-04-1.06505E-15
 -1      1352 2.44246E-03-7.70370E-04-1.45904E-15
 -1      1353 2.56681E-03-7.61777E-04-1.61138E-15
 -1      1354 2.38520E-03-7.38609E-04-1.33459E-15
 -1      1355 2.69051E-03-7.44724E-04-1.76951E-15
 -1      1356 2.81414E-03-7.19073E-04-1.93264E-15
 -1      1357 2.64465E-03-7.21845E-04-1.62834E-15
 -1      1358 2.93834E-03-6.84936E-04-2.10049E-15
 -1      1359 3.06368E-03-6.42684E-04-2.27407E-15
 -1      1360 2.90270E-03-6.70462E-04-1.94341E-15
 -1      1361 3.19071E-03-5.93033E-04-2.45214E-15
 -1      1362 3.31984E-03-5.36786E-04-2.63411E-15
 -1      1363 3.16339E-03-5.85391E-04-2.27860E-15
 -1      1364 3.45140E-03-4.75052E-04-2.82043E-15
 -1      1365 3.58557E-03-4.08857E-04-3.01110E-15
 -1      1366 3.43010E-03-4.71979E-04-2.63212E-15
 -1      1367 3.72240E-03-3.39393E-04-3.20651E-15
 -1      1368 3.86183E-03-2.67670E-04-3.40579E-15
 -1      1369 3.70482E-03-3.38526E-04-3.00363E-15
 -1      1370 4.00369E-03-1.94689E-04-3.60782E-15
 -1      1371 4.14775E-03-1.21273E-04-3.81315E-15
 -1      1372 3.98783E-03-1.94067E-04-3.39002E-15
 -1      1373 4.29371E-03-4.80882E-05-4.02197E-15
 -1      1374 4.44126E-03 2.43034E-05-4.23395E-15
 -1      1375 4.27808E-03-4.64107E-05-3.79015E-15
 -1      1376 4.59005E-03 9.55787E-05-4.44886E-15
 -1      1377 4.73977E-03 1.65427E-04-4.66685E-15
 -1      1378 4.57368E-03 9.89430E-05-4.20384E-15
 -1      1379 4.89012E-03 2.33793E-04-4.88806E-15
 -1      1380 5.04083E-03 3.00562E-04-5.11224E-15
 -1      1381 4.87253E-03 2.38956E-04-4.62991E-15
 -1      1382 5.19167E-03 3.65846E-04-5.34051E-15
 -1      1383 5.34244E-03 4.29658E-04-5.57241E-15
 -1      1384 5.17276E-03 3.72595E-04-5.06968E-15
 -1      1385 5.49299E-03 4.92187E-04-5.80541E-15
 -1      1386 5.64319E-03 5.53515E-04-6.04032E-15
 -1      1387 5.47288E-03 5.00158E-04-5.52204E-15
 -1      1388 5.79295E-03 6.13846E-04-6.27933E-15
 -1      1389 5.94222E-03 6.73291E-04-6.52125E-15
 -1      1390 5.77191E-03 6.22649E-04-5.98504E-15
 -1      1391 6.09096E-03 7.32029E-04-6.76384E-15
 -1      1392 6.23916E-03 7.90174E-04-7.00855E-15
 -1      1393 6.06926E-03 7.41317E-04-6.45777E-15
 -1      1394 6.38681E-03 8.47868E-04-7.25586E-15
 -1      1395 6.53392E-03 9.05211E-04-7.50336E-15
 -1      1396 6.36471E-03 8.57366E-04-6.93940E-15
 -1      1397 6.68054E-03 9.62306E-04-7.75400E-15
 -1      1398 6.82667E-03 1.01923E-03-8.00902E-15
 -1      1399 6.65826E-03 9.71818E-04-7.43005E-15
 -1      1400 6.97236E-03 1.07606E-03-8.26491E-15
 -1      1401 7.11764E-03 1.13285E-03-8.52371E-15
 -1      1402 6.95008E-03 1.08546E-03-7.92988E-15
 -1      1403 7.26256E-03 1.18964E-03-8.78404E-15
 -1      1404 7.40715E-03 1.24648E-03-9.04351E-15
 -1      1405 7.24038E-03 1.19886E-03-8.43614E-15
 -1      1406 7.55144E-03 1.30338E-03-9.30393E-15
 -1      1407 7.69547E-03 1.36038E-03-9.56490E-15
 -1      1408 7.52942E-03 1.31239E-03-8.94903E-15
 -1      1409 7.83928E-03 1.41748E-03-9.82794E-15
 -1      1410 7.98290E-03 1.47469E-03-1.00929E-14
 -1      1411 7.81746E-03 1.42626E-03-9.46363E-15
 -1      1412 8.12635E-03 1.53202E-03-1.03590E-14
 -1      1413 8.26965E-03 1.58947E-03-1.06280E-14
 -1      1414 8.10473E-03 1.54060E-03-9.98450E-15
 -1      1415 8.41284E-03 1.64703E-03-1.09003E-14
 -1      1416 8.55592E-03 1.70471E-03-1.11732E-14
 -1      1417 8.39141E-03 1.65543E-03-1.05135E-14
 -1      1418 8.69892E-03 1.76250E-03-1.14462E-14
 -1      1419 8.84185E-03 1.82040E-03-1.17179E-14
 -1      1420 8.67768E-03 1.77075E-03-1.10500E-14
 -1      1421 8.98474E-03 1.87839E-03-1.19909E-14
 -1      1422 9.12757E-03 1.93648E-03-1.22637E-14
 -1      1423 8.96365E-03 1.88651E-03-1.15884E-14
 -1      1424 9.27038E-03 1.99464E-03-1.25372E-14
 -1      1425 9.41316E-03 2.05289E-03-1.28120E-14
 -1      1426 9.24942E-03 2.00265E-03-1.21271E-14
 -1      1427 9.55592E-03 2.11120E-03-1.30870E-14
 -1      1428 9.69867E-03 2.16958E-03-1.33606E-14
 -1      1429 9.53507E-03 2.11913E-03-1.26666E-14
 -1      1430 9.84141E-03 2.22801E-03-1.36334E-14
 -1      1431 9.98415E-03 2.28650E-03-1.39070E-14
 -1      1432 9.82065E-03 2.23588E-03-1.32069E-14
 -1      1433 1.01269E-02 2.34503E-03-1.41822E-14
 -1      1434 1.02696E-02 2.40359E-03-1.44574E-14
 -1      1435 1.01062E-02 2.35284E-03-1.37478E-14
 -1      1436 1.04124E-02 2.46220E-03-1.47329E-14
 -1      1437 1.05551E-02 2.52083E-03-1.50065E-14
 -1      1438 1.03917E-02 2.46998E-03-1.42912E-14
 -1      1439 1.06979E-02 2.57949E-03-1.52785E-14
 -1      1440 1.08406E-02 2.63817E-03-1.55520E-14
 -1      1441 1.06773E-02 2.58725E-03-1.48336E-14
 -1      1442 1.09834E-02 2.69687E-03-1.58222E-14
 -1      1443 1.11262E-02 2.75559E-03-1.60888E-14
 -1      1444 1.09628E-02 2.70461E-03-1.53697E-14
 -1      1445 1.12689E-02 2.81433E-03-1.63588E-14
 -1      1446 1.14117E-02 2.87307E-03-1.66306E-14
 -1      1447 1.12484E-02 2.82205E-03-1.59036E-14
 -1      1448 1.15545E-02 2.93183E-03-1.69022E-14
 -1      1449 1.16973E-02 2.99059E-03-1.71768E-14
 -1      1450 1.15340E-02 2.93955E-03-1.64381E-14
 -1      1451 1.18401E-02 3.04936E-03-1.74542E-14
 -1      1452 1.19829E-02 3.10814E-03-1.77337E-14
 -1      1453 1.18196E-02 3.05708E-03-1.69802E-14
 -1      1454 1.21258E-02 3.16692E-03-1.80161E-14
 -1      1455 1.22686E-02 3.22570E-03-1.83016E-14
 -1      1456 1.21052E-02 3.17463E-03-1.75297E-14
 -1      1457 1.24114E-02 3.28449E-03-1.85841E-14
 -1      1458 1.25542E-02 3.34328E-03-1.88624E-14
 -1      1459 1.23909E-02 3.29220E-03-1.80857E-14
 -1      1460 1.26971E-02 3.40206E-03-1.91436E-14
 -1      1461 1.28399E-02 3.46085E-03-1.94250E-14
 -1      1462 1.26766E-02 3.40978E-03-1.86395E-14
 -1      1463 1.29828E-02 3.51964E-03-1.97024E-14
 -1      1464 1.31256E-02 3.57843E-03-1.99745E-14
 -1      1465 1.29622E-02 3.52736E-03-1.91923E-14
 -1      1466 1.32685E-02 3.63722E-03-2.02463E-14
 -1      1467 1.34113E-02 3.69601E-03-2.05181E-14
 -1      1468 1.32479E-02 3.64494E-03-1.97373E-14
 -1      1469 1.35542E-02 3.75480E-03-2.07873E-14
 -1      1470 1.36970E-02 3.81358E-03-2.10515E-14
 -1      1471 1.35336E-02 3.76252E-03-2.02765E-14
 -1      1472 1.38399E-02 3.87236E-03-2.13170E-14
 -1      1473 1.39827E-02 3.93114E-03-2.15835E-14
 -1      1474 1.38193E-02 3.88009E-03-2.08095E-14
 -1      1475 1.41958E-02 4.02069E-03-2.19344E-14
 -1      1476 1.41753E-02 4.02841E-03-2.14227E-14
 -1      1477 8.00435E-04 3.30479E-04 1.32571E-16
 -1      1478 6.03680E-04 2.67911E-04 9.17100E-17
 -1      1479 5.45850E-04 2.21531E-04 8.50963E-17
 -1      1480 1.19397E-03 4.43834E-04 2.29187E-16
 -1      1481 9.96489E-04 3.86968E-04 1.78866E-16
 -1      1482 9.31811E-04 3.39603E-04 1.64555E-16
 -1      1483 1.59690E-03 5.71968E-04 3.39897E-16
 -1      1484 1.39368E-03 5.04412E-04 2.83207E-16
 -1      1485 1.31942E-03 4.55132E-04 2.61388E-16
 -1      1486 2.01240E-03 7.42696E-04 4.59363E-16
 -1      1487 1.80318E-03 6.50854E-04 3.98756E-16
 -1      1488 1.71525E-03 5.97818E-04 3.68791E-16
 -1      1489 2.43319E-03 9.78545E-04 5.84819E-16
 -1      1490 2.22312E-03 8.52389E-04 5.21705E-16
 -1      1491 2.12091E-03 7.94778E-04 4.83310E-16
 -1      1492 2.84064E-03 1.28157E-03 7.13920E-16
 -1      1493 2.64041E-03 1.12402E-03 6.48854E-16
 -1      1494 2.53020E-03 1.06349E-03 6.01244E-16
 -1      1495 3.21064E-03 1.60659E-03 8.47927E-16
 -1      1496 3.03176E-03 1.44682E-03 7.80490E-16
 -1      1497 2.92824E-03 1.38909E-03 7.22065E-16
 -1      1498 3.53204E-03 1.85689E-03 9.75714E-16
 -1      1499 3.37640E-03 1.74759E-03 9.12858E-16
 -1      1500 3.29777E-03 1.70047E-03 8.41382E-16
 -1      1501 3.82875E-03 1.93694E-03 1.09091E-15
 -1      1502 3.68023E-03 1.91995E-03 1.03571E-15
 -1      1503 3.63756E-03 1.88530E-03 9.52512E-16
 -1      1504 4.14637E-03 1.83998E-03 1.17571E-15
 -1      1505 3.98234E-03 1.90525E-03 1.13749E-15
 -1      1506 3.97445E-03 1.87585E-03 1.04291E-15
 -1      1507 4.51198E-03 1.65706E-03 1.22321E-15
 -1      1508 4.32314E-03 1.75189E-03 1.20509E-15
 -1      1509 4.33785E-03 1.71928E-03 1.10144E-15
 -1      1510 4.91797E-03 1.49197E-03 1.23720E-15
 -1      1511 4.71155E-03 1.56800E-03 1.23408E-15
 -1      1512 4.73184E-03 1.52956E-03 1.12357E-15
 -1      1513 5.33938E-03 1.39855E-03 1.22309E-15
 -1      1514 5.12841E-03 1.43573E-03 1.23324E-15
 -1      1515 5.14009E-03 1.39312E-03 1.11507E-15
 -1      1516 5.75433E-03 1.38112E-03 1.18480E-15
 -1      1517 5.54870E-03 1.38149E-03 1.20716E-15
 -1      1518 5.54486E-03 1.33707E-03 1.08136E-15
 -1      1519 6.15091E-03 1.42223E-03 1.11727E-15
 -1      1520 5.95534E-03 1.39577E-03 1.15491E-15
 -1      1521 5.93555E-03 1.35117E-03 1.02182E-15
 -1      1522 6.52559E-03 1.50177E-03 1.03079E-15
 -1      1523 6.34102E-03 1.45829E-03 1.07580E-15
 -1      1524 6.30817E-03 1.41439E-03 9.39461E-16
 -1      1525 6.87966E-03 1.60424E-03 9.27738E-16
 -1      1526 6.70503E-03 1.55085E-03 9.81189E-16
 -1      1527 6.66275E-03 1.50802E-03 8.37912E-16
 -1      1528 7.21637E-03 1.71947E-03 7.98244E-16
 -1      1529 7.04995E-03 1.66070E-03 8.65641E-16
 -1      1530 7.00137E-03 1.61901E-03 7.15004E-16
 -1      1531 7.53935E-03 1.84128E-03 6.51700E-16
 -1      1532 7.37934E-03 1.77981E-03 7.27947E-16
 -1      1533 7.32678E-03 1.73918E-03 5.71998E-16
 -1      1534 7.85187E-03 1.96607E-03 4.87783E-16
 -1      1535 7.69672E-03 1.90345E-03 5.72066E-16
 -1      1536 7.64176E-03 1.86371E-03 4.10492E-16
 -1      1537 8.15661E-03 2.09184E-03 3.07439E-16
 -1      1538 8.00506E-03 2.02891E-03 3.99759E-16
 -1      1539 7.94874E-03 1.98991E-03 2.31111E-16
 -1      1540 8.45565E-03 2.21751E-03 1.11686E-16
 -1      1541 8.30672E-03 2.15473E-03 2.11216E-16
 -1      1542 8.24969E-03 2.11631E-03 3.58735E-17
 -1      1543 8.75054E-03 2.34255E-03-1.05452E-16
 -1      1544 8.60352E-03 2.28013E-03 5.47522E-18
 -1      1545 8.54618E-03 2.24217E-03-1.75925E-16
 -1      1546 9.04246E-03 2.46670E-03-3.42716E-16
 -1      1547 8.89681E-03 2.40474E-03-2.22153E-16
 -1      1548 8.83939E-03 2.36712E-03-4.07565E-16
 -1      1549 9.33226E-03 2.58990E-03-5.92760E-16
 -1      1550 9.18758E-03 2.52842E-03-4.64635E-16
 -1      1551 9.13021E-03 2.49106E-03-6.55671E-16
 -1      1552 9.62056E-03 2.71219E-03-8.64448E-16
 -1      1553 9.47656E-03 2.65116E-03-7.26795E-16
 -1      1554 9.41932E-03 2.61400E-03-9.24025E-16
 -1      1555 9.90783E-03 2.83363E-03-1.14393E-15
 -1      1556 9.76430E-03 2.77301E-03-1.00396E-15
 -1      1557 9.70722E-03 2.73600E-03-1.20477E-15
 -1      1558 1.01944E-02 2.95432E-03-1.43031E-15
 -1      1559 1.00512E-02 2.89406E-03-1.28521E-15
 -1      1560 9.99426E-03 2.85716E-03-1.49308E-15
 -1      1561 1.04805E-02 3.07438E-03-1.72300E-15
 -1      1562 1.03375E-02 3.01442E-03-1.57590E-15
 -1      1563 1.02807E-02 2.97761E-03-1.78780E-15
 -1      1564 1.07663E-02 3.19390E-03-2.02041E-15
 -1      1565 1.06234E-02 3.13420E-03-1.87160E-15
 -1      1566 1.05668E-02 3.09744E-03-2.08838E-15
 -1      1567 1.10519E-02 3.31297E-03-2.31281E-15
 -1      1568 1.09091E-02 3.25348E-03-2.16634E-15
 -1      1569 1.08526E-02 3.21676E-03-2.38783E-15
 -1      1570 1.13374E-02 3.43168E-03-2.60515E-15
 -1      1571 1.11946E-02 3.37237E-03-2.45936E-15
 -1      1572 1.11382E-02 3.33567E-03-2.68661E-15
 -1      1573 1.16228E-02 3.55010E-03-2.89018E-15
 -1      1574 1.14801E-02 3.49093E-03-2.74783E-15
 -1      1575 1.14238E-02 3.45425E-03-2.97859E-15
 -1      1576 1.19082E-02 3.66830E-03-3.17442E-15
 -1      1577 1.17655E-02 3.60923E-03-3.03211E-15
 -1      1578 1.17093E-02 3.57257E-03-3.26769E-15
 -1      1579 1.21937E-02 3.78632E-03-3.46823E-15
 -1      1580 1.20510E-02 3.72733E-03-3.32003E-15
 -1      1581 1.19948E-02 3.69068E-03-3.56021E-15
 -1      1582 1.24792E-02 3.90421E-03-3.77477E-15
 -1      1583 1.23364E-02 3.84528E-03-3.62056E-15
 -1      1584 1.22803E-02 3.80863E-03-3.86320E-15
 -1      1585 1.27647E-02 4.02199E-03-4.08441E-15
 -1      1586 1.26219E-02 3.96311E-03-3.92848E-15
 -1      1587 1.25658E-02 3.92646E-03-4.17324E-15
 -1      1588 1.30502E-02 4.13970E-03-4.39476E-15
 -1      1589 1.29074E-02 4.08085E-03-4.24049E-15
 -1      1590 1.28514E-02 4.04421E-03-4.48698E-15
 -1      1591 1.33358E-02 4.25736E-03-4.72297E-15
 -1      1592 1.31930E-02 4.19854E-03-4.55532E-15
 -1      1593 1.31369E-02 4.16189E-03-4.81105E-15
 -1      1594 1.36214E-02 4.37498E-03-5.06896E-15
 -1      1595 1.34786E-02 4.31617E-03-4.89371E-15
 -1      1596 1.34225E-02 4.27952E-03-5.15094E-15
 -1      1597 1.39070E-02 4.49257E-03-5.41712E-15
 -1      1598 1.37642E-02 4.43378E-03-5.24339E-15
 -1      1599 1.37082E-02 4.39713E-03-5.50219E-15
 -1      1600 1.41926E-02 4.61015E-03-5.75820E-15
 -1      1601 1.40498E-02 4.55137E-03-5.58982E-15
 -1      1602 1.39938E-02 4.51471E-03-5.85485E-15
 -1      1603 1.44783E-02 4.72772E-03-6.08405E-15
 -1      1604 1.43355E-02 4.66894E-03-5.92376E-15
 -1      1605 1.42795E-02 4.63229E-03-6.19670E-15
 -1      1606 1.47640E-02 4.84529E-03-6.39717E-15
 -1      1607 1.46211E-02 4.78651E-03-6.24121E-15
 -1      1608 1.45651E-02 4.74985E-03-6.52904E-15
 -1      1609 1.50497E-02 4.96286E-03-6.73054E-15
 -1      1610 1.49068E-02 4.90407E-03-6.56040E-15
 -1      1611 1.48508E-02 4.86742E-03-6.85930E-15
 -1      1612 1.53354E-02 5.08043E-03-7.07209E-15
 -1      1613 1.51925E-02 5.02164E-03-6.89868E-15
 -1      1614 1.51365E-02 4.98499E-03-7.20306E-15
 -1      1615 1.56211E-02 5.19801E-03-7.44020E-15
 -1      1616 1.54782E-02 5.13922E-03-7.25342E-15
 -1      1617 1.54222E-02 5.10256E-03-7.56464E-15
 -1      1618 1.59068E-02 5.31559E-03-7.83405E-15
 -1      1619 1.57639E-02 5.25680E-03-7.63383E-15
 -1      1620 1.57079E-02 5.22014E-03-7.94452E-15
 -1      1621 1.60407E-02 5.36596E-03-8.15240E-15
 -1      1622 1.59082E-02 5.26554E-03-9.27454E-15
 -1      1623 1.59660E-02 5.30769E-03-8.82874E-15
 -1      1624 1.57925E-02 5.18125E-03-1.01452E-14
 -1      1625 1.58504E-02 5.22340E-03-9.71452E-15
 -1      1626 1.57555E-02 5.19355E-03-9.31534E-15
 -1      1627 1.56769E-02 5.09696E-03-1.10101E-14
 -1      1628 1.57347E-02 5.13911E-03-1.05761E-14
 -1      1629 1.56399E-02 5.10926E-03-1.01834E-14
 -1      1630 1.55612E-02 5.01266E-03-1.18708E-14
 -1      1631 1.56191E-02 5.05481E-03-1.14431E-14
 -1      1632 1.55243E-02 5.02497E-03-1.10461E-14
 -1      1633 1.54476E-02 4.92978E-03-1.27283E-14
 -1      1634 1.55044E-02 4.97122E-03-1.22996E-14
 -1      1635 1.54096E-02 4.94138E-03-1.18999E-14
 -1      1636 1.53319E-02 4.84546E-03-1.35973E-14
 -1      1637 1.53897E-02 4.88762E-03-1.31646E-14
 -1      1638 1.52949E-02 4.85778E-03-1.27527E-14
 -1      1639 1.52163E-02 4.76115E-03-1.44492E-14
 -1      1640 1.52741E-02 4.80330E-03-1.40230E-14
 -1      1641 1.51793E-02 4.77347E-03-1.36049E-14
 -1      1642 1.51007E-02 4.67683E-03-1.52963E-14
 -1      1643 1.51585E-02 4.71899E-03-1.48743E-14
 -1      1644 1.50637E-02 4.68916E-03-1.44509E-14
 -1      1645 1.49851E-02 4.59251E-03-1.61212E-14
 -1      1646 1.50429E-02 4.63467E-03-1.57131E-14
 -1      1647 1.49481E-02 4.60484E-03-1.52913E-14
 -1      1648 1.48695E-02 4.50819E-03-1.69707E-14
 -1      1649 1.49273E-02 4.55035E-03-1.65408E-14
 -1      1650 1.48325E-02 4.52052E-03-1.61296E-14
 -1      1651 1.47559E-02 4.42531E-03-1.78314E-14
 -1      1652 1.48127E-02 4.46675E-03-1.73984E-14
 -1      1653 1.47178E-02 4.43692E-03-1.69754E-14
 -1      1654 1.46403E-02 4.34100E-03-1.87135E-14
 -1      1655 1.46981E-02 4.38316E-03-1.82729E-14
 -1      1656 1.46032E-02 4.35333E-03-1.78365E-14
 -1      1657 1.45247E-02 4.25671E-03-1.95934E-14
 -1      1658 1.45825E-02 4.29885E-03-1.91553E-14
 -1      1659 1.44877E-02 4.26903E-03-1.87107E-14
 -1      1660 1.44091E-02 4.17241E-03-2.04601E-14
 -1      1661 1.44669E-02 4.21456E-03-2.00279E-14
 -1      1662 1.43721E-02 4.18473E-03-1.95796E-14
 -1      1663 1.42633E-02 4.07934E-03-2.11597E-14
 -1      1664 1.43211E-02 4.12148E-03-2.07285E-14
 -1      1665 1.42263E-02 4.09165E-03-2.02792E-14
 -1      1666 1.40502E-02 3.98980E-03-2.08117E-14
 -1      1667 5.70097E-03 8.29908E-04-8.49066E-17
 -1      1668 5.70943E-03 7.84477E-04-1.49078E-16
 -1      1669 5.57075E-03 9.41702E-04 5.73678E-17
 -1      1670 5.64928E-03 8.87107E-04-7.35563E-18
 -1      1671 5.30965E-03 1.09344E-03 1.88451E-16
 -1      1672 5.44411E-03 1.02062E-03 1.31133E-16
 -1      1673 4.98533E-03 1.27348E-03 2.88669E-16
 -1      1674 5.14253E-03 1.19258E-03 2.45396E-16
 -1      1675 4.58497E-03 1.45872E-03 3.72234E-16
 -1      1676 4.77191E-03 1.36848E-03 3.39288E-16
 -1      1677 4.18311E-03 1.62559E-03 4.20074E-16
 -1      1678 4.37289E-03 1.55634E-03 3.98336E-16
 -1      1679 3.77988E-03 1.71435E-03 4.47803E-16
 -1      1680 3.96413E-03 1.68472E-03 4.37774E-16
 -1      1681 3.34958E-03 1.70097E-03 4.60406E-16
 -1      1682 3.54977E-03 1.72754E-03 4.63524E-16
 -1      1683 2.91196E-03 1.55649E-03 4.28992E-16
 -1      1684 3.10503E-03 1.63199E-03 4.42029E-16
 -1      1685 2.47235E-03 1.32582E-03 3.88958E-16
 -1      1686 2.68261E-03 1.44122E-03 4.10533E-16
 -1      1687 2.02028E-03 1.05809E-03 3.34124E-16
 -1      1688 2.22681E-03 1.17916E-03 3.60389E-16
 -1      1689 1.58461E-03 8.43056E-04 2.70305E-16
 -1      1690 1.76507E-03 9.45226E-04 2.98840E-16
 -1      1691 1.25612E-03 6.51065E-04 2.04806E-16
 -1      1692 1.39803E-03 7.30712E-04 2.35670E-16
 -1      1693 1.04968E-03 5.24407E-04 1.39855E-16
 -1      1694 1.12728E-03 5.78280E-04 1.69512E-16
 -1      1695 9.74067E-04 4.21735E-04 7.39426E-17
 -1      1696 9.91500E-04 4.63766E-04 1.04659E-16
 -1      1697 1.04135E-03 3.30739E-04 7.66734E-18
 -1      1698 9.93664E-04 3.72785E-04 3.84688E-17
 -1      1699 1.22642E-03 2.30933E-04-5.94422E-17
 -1      1700 1.12779E-03 2.78630E-04-2.79707E-17
 -1      1701 1.52945E-03 1.10962E-04-1.35573E-16
 -1      1702 1.37752E-03 1.73843E-04-9.91367E-17
 -1      1703 1.86762E-03-3.31642E-05-2.08899E-16
 -1      1704 1.70760E-03 2.94869E-05-1.75505E-16
 -1      1705 2.27907E-03-1.73835E-04-2.92057E-16
 -1      1706 2.08518E-03-1.06431E-04-2.52809E-16
 -1      1707 2.67173E-03-2.75866E-04-3.68168E-16
 -1      1708 2.49172E-03-2.36989E-04-3.34287E-16
 -1      1709 3.06551E-03-3.12402E-04-4.42029E-16
 -1      1710 2.88720E-03-3.05941E-04-4.10696E-16
 -1      1711 3.43598E-03-2.67203E-04-4.91631E-16
 -1      1712 3.27006E-03-2.94669E-04-4.69595E-16
 -1      1713 3.81301E-03-1.57502E-04-5.29877E-16
 -1      1714 3.63465E-03-2.17291E-04-5.16758E-16
 -1      1715 4.20471E-03 7.18809E-06-5.48010E-16
 -1      1716 4.02178E-03-7.33721E-05-5.44676E-16
 -1      1717 4.60031E-03 1.85605E-04-5.30920E-16
 -1      1718 4.42384E-03 1.02329E-04-5.40434E-16
 -1      1719 4.95716E-03 3.38507E-04-4.82538E-16
 -1      1720 4.78565E-03 2.59762E-04-5.06160E-16
 -1      1721 4.61250E-03 2.71704E-04-5.80550E-16
 -1      1722 5.29507E-03 5.06587E-04-4.16938E-16
 -1      1723 5.15761E-03 4.41557E-04-4.50069E-16
 -1      1724 5.53792E-03 6.34030E-04-3.30655E-16
 -1      1725 5.43491E-03 5.81044E-04-3.75161E-16
 -1      1726 5.67975E-03 7.30211E-04-2.14923E-16
 -1      1727 5.62881E-03 6.86727E-04-2.68076E-16
 -1      1728 4.81667E-03 1.28525E-03 3.49831E-16
 -1      1729 5.19011E-03 1.09071E-03 2.37257E-16
 -1      1730 1.59847E-02 5.32930E-03-8.45888E-15
 -1      1731 1.58321E-02 5.25732E-03-8.50749E-15
 -1      1732 5.68100E-03 8.40955E-04-6.10948E-17
 -1      1733 5.49343E-03 9.36331E-04 9.90783E-17
 -1      1734 5.70561E-03 7.75373E-04-2.11413E-16
 -1      1735 4.42287E-03 1.49527E-03 4.30591E-16
 -1      1736 4.03548E-03 1.66937E-03 4.73498E-16
 -1      1737 3.65180E-03 1.75223E-03 5.03178E-16
 -1      1738 3.27929E-03 1.69360E-03 4.91821E-16
 -1      1739 2.86698E-03 1.49572E-03 4.48724E-16
 -1      1740 2.43798E-03 1.21438E-03 3.94907E-16
 -1      1741 1.97005E-03 9.38418E-04 3.26629E-16
 -1      1742 1.53326E-03 7.15200E-04 2.56143E-16
 -1      1743 1.20894E-03 5.56936E-04 1.88367E-16
 -1      1744 1.01547E-03 4.58510E-04 1.21329E-16
 -1      1745 9.74797E-04 3.99072E-04 5.60160E-17
 -1      1746 1.08597E-03 3.34291E-04-1.07421E-17
 -1      1747 1.32770E-03 2.45559E-04-8.19860E-17
 -1      1748 1.65742E-03 1.15312E-04-1.58294E-16
 -1      1749 2.03887E-03-4.67696E-05-2.41316E-16
 -1      1750 2.42741E-03-2.04232E-04-3.29110E-16
 -1      1751 2.80626E-03-3.11404E-04-4.17174E-16
 -1      1752 3.15028E-03-3.30978E-04-4.92824E-16
 -1      1753 3.49507E-03-2.58974E-04-5.50964E-16
 -1      1754 3.84920E-03-1.10164E-04-5.96636E-16
 -1      1755 4.23402E-03 8.76760E-05-6.08861E-16
 -1      1756 5.34431E-03 6.08127E-04-4.50185E-16
 -1      1757 5.58186E-03 7.04268E-04-3.43282E-16
 -1      1758 3.07357E-04-1.81809E-04-5.56331E-17
 -1      1759 4.99982E-03 4.48259E-04-5.25181E-16
 -1      1760 3.54204E-04-1.05533E-04-6.06340E-17
 -1      1761 3.59733E-04-1.26502E-04-6.55807E-17
 -1      1762 3.66950E-04-1.49696E-04-7.00124E-17
 -1      1763 3.78028E-04-1.75455E-04-7.37664E-17
 -1      1764 4.91961E-04-1.85419E-04-9.71716E-17
 -1      1765 3.35210E-04-3.02584E-05-3.99122E-17
 -1      1766 3.40492E-04-4.78931E-05-4.53874E-17
 -1      1767 3.21774E-04 3.30405E-06-2.95174E-17
 -1      1768 3.29003E-04-1.29289E-05-3.48571E-17
 -1      1769 4.50118E-04-3.38034E-05-5.43592E-17
 -1      1770 3.04262E-04 3.13774E-05-1.96241E-17
 -1      1771 3.13433E-04 1.82644E-05-2.46114E-17
 -1      1772 4.29955E-04 9.05651E-06-3.97225E-17
 -1      1773 2.84247E-04 5.07286E-05-1.02864E-17
 -1      1774 2.94261E-04 4.23576E-05-1.49078E-17
 -1      1775 4.03793E-04 4.44167E-05-2.57227E-17
 -1      1776 2.65868E-04 5.90154E-05-1.38236E-18
 -1      1777 2.74365E-04 5.63169E-05-6.04443E-18
 -1      1778 3.74635E-04 6.82736E-05-1.25903E-17
 -1      1779 2.55131E-04 5.67479E-05 7.23705E-18
 -1      1780 2.59030E-04 5.89880E-05 2.80537E-18
 -1      1781 3.49340E-04 7.81792E-05-2.71051E-20
 -1      1782 2.57572E-04 4.86662E-05 1.64663E-17
 -1      1783 2.54422E-04 5.29720E-05 1.17500E-17
 -1      1784 3.37130E-04 7.58640E-05 1.26039E-17
 -1      1785 2.76122E-04 4.22727E-05 2.62512E-17
 -1      1786 2.64815E-04 4.46576E-05 2.10877E-17
 -1      1787 3.45449E-04 6.82667E-05 2.58040E-17
 -1      1788 3.09866E-04 4.65187E-05 3.71339E-17
 -1      1789 2.91398E-04 4.25469E-05 3.13605E-17
 -1      1790 3.77456E-04 6.57170E-05 3.99935E-17
 -1      1791 3.55219E-04 6.92535E-05 4.95480E-17
 -1      1792 3.31492E-04 5.51976E-05 4.29615E-17
 -1      1793 4.30250E-04 7.89846E-05 5.57144E-17
 -1      1794 4.10359E-04 1.17902E-04 6.27211E-17
 -1      1795 3.81788E-04 8.99537E-05 5.59448E-17
 -1      1796 4.98244E-04 1.16660E-04 7.33463E-17
 -1      1797 4.95721E-04 1.83585E-04 7.75747E-17
 -1      1798 4.50701E-04 1.46163E-04 6.99717E-17
 -1      1799 5.82324E-04 1.75215E-04 9.19539E-17
 -1      1800 6.83452E-04 2.44024E-04 1.11619E-16
 -1      1801 3.66142E-04-1.95528E-04-7.02021E-17
 -1      1802 1.05984E-03 3.55252E-04 1.95156E-16
 -1      1803 8.71081E-04 2.99952E-04 1.51504E-16
 -1      1804 8.12693E-04 2.62245E-04 1.38778E-16
 -1      1805 5.04694E-03 5.51125E-04-5.89670E-16
 -1      1806 4.84738E-03 4.59469E-04-6.21194E-16
 -1      1807 4.94107E-04-2.42829E-04-1.00831E-16
 -1      1808 8.69785E-04-3.95651E-04-2.23793E-16
 -1      1809 1.02579E-03-4.45905E-04-2.90404E-16
 -1      1810 1.17881E-03-4.91434E-04-3.65119E-16
 -1      1811 1.32951E-03-5.32602E-04-4.47233E-16
 -1      1812 1.08155E-03-4.29758E-04-3.13307E-16
 -1      1813 1.47793E-03-5.70327E-04-5.36585E-16
 -1      1814 1.62408E-03-6.04285E-04-6.32944E-16
 -1      1815 1.38767E-03-5.12767E-04-4.70218E-16
 -1      1816 1.76822E-03-6.34483E-04-7.36295E-16
 -1      1817 1.91024E-03-6.60251E-04-8.46071E-16
 -1      1818 1.68656E-03-5.81817E-04-6.54641E-16
 -1      1819 2.05031E-03-6.80969E-04-9.62568E-16
 -1      1820 2.18856E-03-6.95768E-04-1.08560E-15
 -1      1821 1.97808E-03-6.34781E-04-8.65234E-16
 -1      1822 2.32505E-03-7.03773E-04-1.21535E-15
 -1      1823 2.46031E-03-7.04162E-04-1.35132E-15
 -1      1824 2.26239E-03-6.65876E-04-1.10164E-15
 -1      1825 2.59431E-03-6.96225E-04-1.49257E-15
 -1      1826 2.72795E-03-6.79485E-04-1.63950E-15
 -1      1827 2.54063E-03-6.67828E-04-1.36246E-15
 -1      1828 2.86115E-03-6.53756E-04-1.79198E-15
 -1      1829 2.99495E-03-6.19120E-04-1.94872E-15
 -1      1830 2.81535E-03-6.34797E-04-1.64544E-15
 -1      1831 3.12924E-03-5.76068E-04-2.11139E-15
 -1      1832 3.26493E-03-5.25250E-04-2.27848E-15
 -1      1833 3.09010E-03-5.65078E-04-1.94971E-15
 -1      1834 3.40189E-03-4.67722E-04-2.44994E-15
 -1      1835 3.54063E-03-4.04493E-04-2.62576E-15
 -1      1836 3.36833E-03-4.62291E-04-2.27264E-15
 -1      1837 3.68107E-03-3.36884E-04-2.80562E-15
 -1      1838 3.82326E-03-2.65969E-04-2.99034E-15
 -1      1839 3.65223E-03-3.34419E-04-2.61377E-15
 -1      1840 3.96717E-03-1.92995E-04-3.17776E-15
 -1      1841 4.11250E-03-1.18869E-04-3.36917E-15
 -1      1842 3.94222E-03-1.91345E-04-2.97115E-15
 -1      1843 4.25926E-03-4.45388E-05-3.56423E-15
 -1      1844 4.40696E-03 2.93790E-05-3.76286E-15
 -1      1845 4.23732E-03-4.22763E-05-3.34380E-15
 -1      1846 4.55566E-03 1.02315E-04-3.96390E-15
 -1      1847 4.70484E-03 1.73933E-04-4.16853E-15
 -1      1848 4.53579E-03 1.05912E-04-3.72979E-15
 -1      1849 4.85456E-03 2.44004E-04-4.37827E-15
 -1      1850 5.00437E-03 3.12412E-04-4.58952E-15
 -1      1851 4.83585E-03 2.49137E-04-4.13017E-15
 -1      1852 5.15435E-03 3.79167E-04-4.80415E-15
 -1      1853 5.30413E-03 4.44293E-04-5.02224E-15
 -1      1854 5.13606E-03 3.85717E-04-4.54408E-15
 -1      1855 5.45380E-03 5.07940E-04-5.24370E-15
 -1      1856 5.60311E-03 5.70200E-04-5.46752E-15
 -1      1857 5.43540E-03 5.15631E-04-4.96991E-15
 -1      1858 5.75210E-03 6.31283E-04-5.69456E-15
 -1      1859 5.90067E-03 6.91303E-04-5.92473E-15
 -1      1860 5.73331E-03 6.39795E-04-5.40904E-15
 -1      1861 6.04882E-03 7.50471E-04-6.15648E-15
 -1      1862 6.19652E-03 8.08901E-04-6.39069E-15
 -1      1863 6.02949E-03 7.59502E-04-5.85956E-15
 -1      1864 6.34377E-03 8.66772E-04-6.62743E-15
 -1      1865 6.49060E-03 9.24185E-04-6.86713E-15
 -1      1866 6.32391E-03 8.76072E-04-6.32113E-15
 -1      1867 6.63699E-03 9.81278E-04-7.10838E-15
 -1      1868 6.78299E-03 1.03813E-03-7.35210E-15
 -1      1869 6.61667E-03 9.90656E-04-6.79048E-15
 -1      1870 6.92860E-03 1.09484E-03-7.59755E-15
 -1      1871 7.07387E-03 1.15147E-03-7.84493E-15
 -1      1872 6.90793E-03 1.10417E-03-7.26970E-15
 -1      1873 7.21881E-03 1.20808E-03-8.09341E-15
 -1      1874 7.36348E-03 1.26472E-03-8.34409E-15
 -1      1875 7.19790E-03 1.21727E-03-7.75550E-15
 -1      1876 7.50786E-03 1.32141E-03-8.59755E-15
 -1      1877 7.65202E-03 1.37819E-03-8.84850E-15
 -1      1878 7.48680E-03 1.33042E-03-8.24839E-15
 -1      1879 7.79597E-03 1.43508E-03-9.10261E-15
 -1      1880 7.93973E-03 1.49208E-03-9.35816E-15
 -1      1881 7.77483E-03 1.44390E-03-8.74652E-15
 -1      1882 8.08333E-03 1.54921E-03-9.61424E-15
 -1      1883 8.22679E-03 1.60648E-03-9.87254E-15
 -1      1884 8.06219E-03 1.55784E-03-9.24769E-15
 -1      1885 8.37013E-03 1.66387E-03-1.01327E-14
 -1      1886 8.51337E-03 1.72138E-03-1.03948E-14
 -1      1887 8.34902E-03 1.67232E-03-9.75646E-15
 -1      1888 8.65651E-03 1.77902E-03-1.06592E-14
 -1      1889 8.79958E-03 1.83678E-03-1.09235E-14
 -1      1890 8.63545E-03 1.78732E-03-1.02730E-14
 -1      1891 8.94259E-03 1.89465E-03-1.11881E-14
 -1      1892 9.08555E-03 1.95262E-03-1.14531E-14
 -1      1893 8.92160E-03 1.90282E-03-1.07922E-14
 -1      1894 9.22847E-03 2.01069E-03-1.17200E-14
 -1      1895 9.37135E-03 2.06885E-03-1.19852E-14
 -1      1896 9.20755E-03 2.01875E-03-1.13157E-14
 -1      1897 9.51421E-03 2.12708E-03-1.22496E-14
 -1      1898 9.65705E-03 2.18539E-03-1.25163E-14
 -1      1899 9.49336E-03 2.13505E-03-1.18385E-14
 -1      1900 9.79987E-03 2.24376E-03-1.27834E-14
 -1      1901 9.94267E-03 2.30219E-03-1.30493E-14
 -1      1902 9.77907E-03 2.25166E-03-1.23621E-14
 -1      1903 1.00855E-02 2.36068E-03-1.33154E-14
 -1      1904 1.02283E-02 2.41920E-03-1.35838E-14
 -1      1905 1.00647E-02 2.36852E-03-1.28877E-14
 -1      1906 1.03711E-02 2.47777E-03-1.38526E-14
 -1      1907 1.05138E-02 2.53638E-03-1.41214E-14
 -1      1908 1.03504E-02 2.48558E-03-1.34170E-14
 -1      1909 1.06566E-02 2.59501E-03-1.43894E-14
 -1      1910 1.07994E-02 2.65368E-03-1.46563E-14
 -1      1911 1.06360E-02 2.60279E-03-1.39482E-14
 -1      1912 1.09422E-02 2.71236E-03-1.49208E-14
 -1      1913 1.10850E-02 2.77107E-03-1.51865E-14
 -1      1914 1.09216E-02 2.72011E-03-1.44757E-14
 -1      1915 1.12278E-02 2.82979E-03-1.54513E-14
 -1      1916 1.13706E-02 2.88852E-03-1.57133E-14
 -1      1917 1.12072E-02 2.83753E-03-1.50001E-14
 -1      1918 1.15134E-02 2.94727E-03-1.59765E-14
 -1      1919 1.16562E-02 3.00603E-03-1.62429E-14
 -1      1920 1.14929E-02 2.95500E-03-1.55191E-14
 -1      1921 1.17991E-02 3.06480E-03-1.65099E-14
 -1      1922 1.19419E-02 3.12357E-03-1.67790E-14
 -1      1923 1.17785E-02 3.07252E-03-1.60424E-14
 -1      1924 1.20847E-02 3.18235E-03-1.70488E-14
 -1      1925 1.22275E-02 3.24113E-03-1.73221E-14
 -1      1926 1.20642E-02 3.19007E-03-1.65740E-14
 -1      1927 1.23704E-02 3.29992E-03-1.75963E-14
 -1      1928 1.25132E-02 3.35870E-03-1.78680E-14
 -1      1929 1.23498E-02 3.30763E-03-1.71109E-14
 -1      1930 1.26560E-02 3.41749E-03-1.81430E-14
 -1      1931 1.27989E-02 3.47628E-03-1.84155E-14
 -1      1932 1.26355E-02 3.42521E-03-1.76510E-14
 -1      1933 1.29417E-02 3.53508E-03-1.86873E-14
 -1      1934 1.30846E-02 3.59387E-03-1.89597E-14
 -1      1935 1.29212E-02 3.54279E-03-1.81896E-14
 -1      1936 1.32274E-02 3.65266E-03-1.92318E-14
 -1      1937 1.33703E-02 3.71145E-03-1.95005E-14
 -1      1938 1.32069E-02 3.66038E-03-1.87262E-14
 -1      1939 1.35131E-02 3.77024E-03-1.97679E-14
 -1      1940 1.36560E-02 3.82902E-03-2.00365E-14
 -1      1941 1.34926E-02 3.77796E-03-1.92623E-14
 -1      1942 1.37817E-02 3.88002E-03-2.02895E-14
 -1      1943 1.39245E-02 3.93880E-03-2.05551E-14
 -1      1944 1.40125E-02 3.98973E-03-2.02889E-14
 -1      1945 1.37611E-02 3.88774E-03-1.97811E-14
 -1      1946 1.43998E-03 4.77339E-04 2.91244E-16
 -1      1947 1.24882E-03 4.13343E-04 2.42021E-16
 -1      1948 1.17827E-03 3.72929E-04 2.23156E-16
 -1      1949 1.82977E-03 6.38146E-04 3.95544E-16
 -1      1950 1.63358E-03 5.51384E-04 3.42784E-16
 -1      1951 1.55093E-03 5.06103E-04 3.17292E-16
 -1      1952 2.23160E-03 8.63323E-04 5.05089E-16
 -1      1953 2.03003E-03 7.41815E-04 4.49917E-16
 -1      1954 1.93747E-03 6.89064E-04 4.17486E-16
 -1      1955 2.63976E-03 1.16270E-03 6.16396E-16
 -1      1956 2.43656E-03 1.00468E-03 5.60519E-16
 -1      1957 2.34137E-03 9.44887E-04 5.20444E-16
 -1      1958 3.04238E-03 1.50108E-03 7.28299E-16
 -1      1959 2.84451E-03 1.33201E-03 6.72544E-16
 -1      1960 2.75781E-03 1.27098E-03 6.24406E-16
 -1      1961 3.41634E-03 1.77965E-03 8.34646E-16
 -1      1962 3.23167E-03 1.65551E-03 7.82428E-16
 -1      1963 3.16700E-03 1.60775E-03 7.24518E-16
 -1      1964 3.77138E-03 1.88184E-03 9.27684E-16
 -1      1965 3.59247E-03 1.85580E-03 8.83286E-16
 -1      1966 3.54922E-03 1.82609E-03 8.16567E-16
 -1      1967 4.13784E-03 1.78577E-03 9.94986E-16
 -1      1968 3.95014E-03 1.85276E-03 9.65130E-16
 -1      1969 3.92525E-03 1.83087E-03 8.89805E-16
 -1      1970 4.53163E-03 1.59218E-03 1.02918E-15
 -1      1971 4.33192E-03 1.69331E-03 1.01653E-15
 -1      1972 4.32211E-03 1.66654E-03 9.34365E-16
 -1      1973 4.93953E-03 1.41743E-03 1.03032E-15
 -1      1974 4.73597E-03 1.49837E-03 1.03376E-15
 -1      1975 4.73698E-03 1.46515E-03 9.45262E-16
 -1      1976 5.34244E-03 1.31892E-03 1.00176E-15
 -1      1977 5.14313E-03 1.35848E-03 1.01923E-15
 -1      1978 5.14638E-03 1.32246E-03 9.24852E-16
 -1      1979 5.73051E-03 1.29974E-03 9.49653E-16
 -1      1980 5.53905E-03 1.30074E-03 9.78913E-16
 -1      1981 5.53625E-03 1.26436E-03 8.78515E-16
 -1      1982 6.10116E-03 1.34100E-03 8.73786E-16
 -1      1983 5.91823E-03 1.31422E-03 9.14145E-16
 -1      1984 5.90524E-03 1.27806E-03 8.08246E-16
 -1      1985 6.45510E-03 1.42167E-03 7.76695E-16
 -1      1986 6.28018E-03 1.37743E-03 8.27788E-16
 -1      1987 6.25665E-03 1.34151E-03 7.17295E-16
 -1      1988 6.79425E-03 1.52570E-03 6.60970E-16
 -1      1989 6.62636E-03 1.47140E-03 7.21333E-16
 -1      1990 6.59391E-03 1.43574E-03 6.06354E-16
 -1      1991 7.12094E-03 1.64257E-03 5.21799E-16
 -1      1992 6.95895E-03 1.58291E-03 5.94048E-16
 -1      1993 6.91974E-03 1.54755E-03 4.73783E-16
 -1      1994 7.43752E-03 1.76590E-03 3.64658E-16
 -1      1995 7.28029E-03 1.70364E-03 4.45607E-16
 -1      1996 7.23630E-03 1.66864E-03 3.20910E-16
 -1      1997 7.74613E-03 1.89200E-03 1.89505E-16
 -1      1998 7.59265E-03 1.82871E-03 2.79480E-16
 -1      1999 7.54542E-03 1.79409E-03 1.49105E-16
 -1      2000 8.04861E-03 2.01887E-03-3.06287E-18
 -1      2001 7.89800E-03 1.95540E-03 9.53149E-17
 -1      2002 7.84865E-03 1.92113E-03-3.98715E-17
 -1      2003 8.34643E-03 2.14542E-03-2.10782E-16
 -1      2004 8.19799E-03 2.08221E-03-1.05832E-16
 -1      2005 8.14731E-03 2.04826E-03-2.45396E-16
 -1      2006 8.64076E-03 2.27115E-03-4.36473E-16
 -1      2007 8.49395E-03 2.20840E-03-3.21588E-16
 -1      2008 8.44246E-03 2.17473E-03-4.65963E-16
 -1      2009 8.93251E-03 2.39584E-03-6.80933E-16
 -1      2010 8.78690E-03 2.33362E-03-5.55152E-16
 -1      2011 8.73494E-03 2.30019E-03-7.04596E-16
 -1      2012 9.22237E-03 2.51946E-03-9.42483E-16
 -1      2013 9.07763E-03 2.45778E-03-8.09520E-16
 -1      2014 9.02542E-03 2.42454E-03-9.60983E-16
 -1      2015 9.51085E-03 2.64206E-03-1.22181E-15
 -1      2016 9.36675E-03 2.58088E-03-1.08068E-15
 -1      2017 9.31443E-03 2.54779E-03-1.23731E-15
 -1      2018 9.79835E-03 2.76375E-03-1.51203E-15
 -1      2019 9.65470E-03 2.70301E-03-1.36641E-15
 -1      2020 9.60236E-03 2.67004E-03-1.52595E-15
 -1      2021 1.00852E-02 2.88462E-03-1.80704E-15
 -1      2022 9.94182E-03 2.82428E-03-1.65821E-15
 -1      2023 9.88951E-03 2.79140E-03-1.82361E-15
 -1      2024 1.03715E-02 3.00481E-03-2.10936E-15
 -1      2025 1.02284E-02 2.94480E-03-1.95825E-15
 -1      2026 1.01761E-02 2.91199E-03-2.12725E-15
 -1      2027 1.06575E-02 3.12443E-03-2.41597E-15
 -1      2028 1.05145E-02 3.06469E-03-2.26223E-15
 -1      2029 1.04623E-02 3.03193E-03-2.43650E-15
 -1      2030 1.09433E-02 3.24357E-03-2.71744E-15
 -1      2031 1.08004E-02 3.18405E-03-2.56628E-15
 -1      2032 1.07483E-02 3.15134E-03-2.74425E-15
 -1      2033 1.12290E-02 3.36233E-03-3.01618E-15
 -1      2034 1.10861E-02 3.30299E-03-2.86792E-15
 -1      2035 1.10341E-02 3.27031E-03-3.04945E-15
 -1      2036 1.15145E-02 3.48079E-03-3.31129E-15
 -1      2037 1.13718E-02 3.42159E-03-3.16530E-15
 -1      2038 1.13197E-02 3.38893E-03-3.34925E-15
 -1      2039 1.18001E-02 3.59901E-03-3.60481E-15
 -1      2040 1.16573E-02 3.53992E-03-3.45798E-15
 -1      2041 1.16054E-02 3.50728E-03-3.64625E-15
 -1      2042 1.20856E-02 3.71704E-03-3.90526E-15
 -1      2043 1.19429E-02 3.65804E-03-3.75484E-15
 -1      2044 1.18909E-02 3.62541E-03-3.94632E-15
 -1      2045 1.23712E-02 3.83493E-03-4.21398E-15
 -1      2046 1.22284E-02 3.77600E-03-4.05725E-15
 -1      2047 1.21765E-02 3.74337E-03-4.25270E-15
 -1      2048 1.26567E-02 3.95272E-03-4.52802E-15
 -1      2049 1.25140E-02 3.89384E-03-4.37043E-15
 -1      2050 1.24621E-02 3.86122E-03-4.56735E-15
 -1      2051 1.29423E-02 4.07044E-03-4.85222E-15
 -1      2052 1.27995E-02 4.01159E-03-4.68901E-15
 -1      2053 1.27477E-02 3.97897E-03-4.89021E-15
 -1      2054 1.32279E-02 4.18809E-03-5.18499E-15
 -1      2055 1.30851E-02 4.12927E-03-5.01648E-15
 -1      2056 1.30333E-02 4.09665E-03-5.22221E-15
 -1      2057 1.35135E-02 4.30571E-03-5.53549E-15
 -1      2058 1.33707E-02 4.24691E-03-5.35862E-15
 -1      2059 1.33189E-02 4.21429E-03-5.56667E-15
 -1      2060 1.37992E-02 4.42330E-03-5.88989E-15
 -1      2061 1.36564E-02 4.36451E-03-5.71132E-15
 -1      2062 1.36046E-02 4.33189E-03-5.92220E-15
 -1      2063 1.40848E-02 4.54088E-03-6.24538E-15
 -1      2064 1.39420E-02 4.48209E-03-6.06997E-15
 -1      2065 1.38902E-02 4.44947E-03-6.28249E-15
 -1      2066 1.43705E-02 4.65845E-03-6.58928E-15
 -1      2067 1.42277E-02 4.59967E-03-6.41856E-15
 -1      2068 1.41759E-02 4.56704E-03-6.63948E-15
 -1      2069 1.46562E-02 4.77601E-03-6.92670E-15
 -1      2070 1.45133E-02 4.71723E-03-6.75866E-15
 -1      2071 1.44616E-02 4.68461E-03-6.98675E-15
 -1      2072 1.49419E-02 4.89358E-03-7.27029E-15
 -1      2073 1.47990E-02 4.83480E-03-7.09549E-15
 -1      2074 1.47472E-02 4.80217E-03-7.33204E-15
 -1      2075 1.52276E-02 5.01115E-03-7.62864E-15
 -1      2076 1.50847E-02 4.95236E-03-7.44843E-15
 -1      2077 1.50329E-02 4.91974E-03-7.68839E-15
 -1      2078 1.55133E-02 5.12872E-03-8.00294E-15
 -1      2079 1.53704E-02 5.06994E-03-7.81462E-15
 -1      2080 1.53186E-02 5.03731E-03-8.06142E-15
 -1      2081 1.57441E-02 5.22242E-03-8.35185E-15
 -1      2082 1.56013E-02 5.16362E-03-8.15767E-15
 -1      2083 1.55495E-02 5.13100E-03-8.40560E-15
 -1      2084 1.57254E-02 5.20080E-03-8.71928E-15
 -1      2085 1.53716E-02 4.95298E-03-1.10831E-14
 -1      2086 1.54295E-02 4.99513E-03-1.06537E-14
 -1      2087 1.54873E-02 5.03727E-03-1.02257E-14
 -1      2088 1.55451E-02 5.07942E-03-9.79544E-15
 -1      2089 1.53347E-02 4.96529E-03-1.02622E-14
 -1      2090 1.56063E-02 5.11904E-03-9.47666E-15
 -1      2091 1.56642E-02 5.16118E-03-9.04012E-15
 -1      2092 1.55762E-02 5.12628E-03-8.88281E-15
 -1      2093 1.54537E-02 5.04705E-03-9.51948E-15
 -1      2094 1.52579E-02 4.87010E-03-1.19191E-14
 -1      2095 1.53148E-02 4.91154E-03-1.14987E-14
 -1      2096 1.52200E-02 4.88170E-03-1.11056E-14
 -1      2097 1.51423E-02 4.78579E-03-1.27694E-14
 -1      2098 1.52001E-02 4.82795E-03-1.23452E-14
 -1      2099 1.51053E-02 4.79811E-03-1.19405E-14
 -1      2100 1.50267E-02 4.70148E-03-1.36123E-14
 -1      2101 1.50845E-02 4.74364E-03-1.31940E-14
 -1      2102 1.49897E-02 4.71380E-03-1.27814E-14
 -1      2103 1.49110E-02 4.61717E-03-1.44553E-14
 -1      2104 1.49689E-02 4.65932E-03-1.40334E-14
 -1      2105 1.48740E-02 4.62949E-03-1.36203E-14
 -1      2106 1.47954E-02 4.53285E-03-1.52952E-14
 -1      2107 1.48532E-02 4.57501E-03-1.48746E-14
 -1      2108 1.47584E-02 4.54518E-03-1.44596E-14
 -1      2109 1.46798E-02 4.44854E-03-1.61361E-14
 -1      2110 1.47376E-02 4.49069E-03-1.57137E-14
 -1      2111 1.46428E-02 4.46086E-03-1.52986E-14
 -1      2112 1.45662E-02 4.36566E-03-1.69776E-14
 -1      2113 1.46230E-02 4.40710E-03-1.65553E-14
 -1      2114 1.45282E-02 4.37727E-03-1.61365E-14
 -1      2115 1.44506E-02 4.28135E-03-1.78385E-14
 -1      2116 1.45084E-02 4.32350E-03-1.74077E-14
 -1      2117 1.44136E-02 4.29367E-03-1.69798E-14
 -1      2118 1.43350E-02 4.19705E-03-1.87063E-14
 -1      2119 1.43928E-02 4.23920E-03-1.82710E-14
 -1      2120 1.42980E-02 4.20937E-03-1.78352E-14
 -1      2121 1.42195E-02 4.11275E-03-1.95656E-14
 -1      2122 1.42773E-02 4.15490E-03-1.91368E-14
 -1      2123 1.41824E-02 4.12507E-03-1.86953E-14
 -1      2124 5.41403E-03 9.42964E-04 1.47357E-16
 -1      2125 5.54474E-03 8.90705E-04 6.65251E-17
 -1      2126 5.72120E-03 7.98597E-04-2.21384E-16
 -1      2127 5.69174E-03 7.82128E-04-2.92311E-16
 -1      2128 5.65581E-03 8.45010E-04-3.75862E-17
 -1      2129 5.70998E-03 8.22637E-04-1.22115E-16
 -1      2130 5.06534E-03 1.10744E-03 3.01530E-16
 -1      2131 5.23221E-03 1.02295E-03 2.38497E-16
 -1      2132 4.68905E-03 3.83497E-04-6.42756E-16
 -1      2133 4.52428E-03 3.02647E-04-6.65158E-16
 -1      2134 4.77033E-03 4.73319E-04-7.07557E-16
 -1      2135 5.63339E-03 7.59134E-04-3.56618E-16
 -1      2136 5.54385E-03 7.35490E-04-4.21978E-16
 -1      2137 5.67123E-03 7.93722E-04-3.68610E-16
 -1      2138 4.70670E-03 1.30210E-03 4.16076E-16
 -1      2139 4.89115E-03 1.19994E-03 3.60592E-16
 -1      2140 4.97332E-03 1.13887E-03 3.67423E-16
 -1      2141 3.45150E-04-6.64809E-05-5.03341E-17
 -1      2142 3.49647E-04-8.55521E-05-5.57551E-17
 -1      2143 4.76845E-04-1.30650E-04-8.35378E-17
 -1      2144 4.64738E-04-8.07696E-05-6.89824E-17
 -1      2145 3.93278E-03 1.71836E-03 5.47631E-16
 -1      2146 4.09103E-03 1.64767E-03 5.32370E-16
 -1      2147 3.61024E-03 1.78026E-03 5.68312E-16
 -1      2148 3.76369E-03 1.76547E-03 5.58960E-16
 -1      2149 3.86270E-03 1.75658E-03 6.17806E-16
 -1      2150 3.20702E-03 1.66319E-03 5.21393E-16
 -1      2151 3.37815E-03 1.73653E-03 5.46221E-16
 -1      2152 2.84663E-03 1.43749E-03 4.70761E-16
 -1      2153 3.02721E-03 1.56397E-03 4.95562E-16
 -1      2154 3.14657E-03 1.61881E-03 5.45842E-16
 -1      2155 2.39296E-03 1.11688E-03 3.98851E-16
 -1      2156 2.60581E-03 1.26976E-03 4.32380E-16
 -1      2157 1.87904E-03 8.15031E-04 3.14080E-16
 -1      2158 2.10485E-03 9.35526E-04 3.51227E-16
 -1      2159 1.48546E-03 6.14116E-04 2.45291E-16
 -1      2160 1.67444E-03 7.08616E-04 2.79236E-16
 -1      2161 1.79523E-03 7.17409E-04 3.01815E-16
 -1      2162 1.15653E-03 4.79778E-04 1.71964E-16
 -1      2163 1.28885E-03 5.25345E-04 2.04325E-16
 -1      2164 9.94773E-04 4.19721E-04 1.09723E-16
 -1      2165 1.05947E-03 4.43963E-04 1.40860E-16
 -1      2166 1.11292E-03 4.29856E-04 1.57553E-16
 -1      2167 9.85856E-04 3.85183E-04 3.75371E-17
 -1      2168 9.64239E-04 3.96711E-04 6.85656E-17
 -1      2169 1.13447E-03 3.39932E-04-2.75811E-17
 -1      2170 1.04587E-03 3.63423E-04 3.73118E-18
 -1      2171 1.40778E-03 2.52627E-04-1.00356E-16
 -1      2172 1.26138E-03 2.98845E-04-6.43305E-17
 -1      2173 1.78641E-03 9.93896E-05-1.86442E-16
 -1      2174 1.61434E-03 1.75277E-04-1.48183E-16
 -1      2175 2.15026E-03-6.63173E-05-2.71254E-16
 -1      2176 1.96619E-03 1.87351E-05-2.27167E-16
 -1      2177 1.88695E-03 6.93245E-05-2.14049E-16
 -1      2178 2.55737E-03-2.47865E-04-3.78088E-16
 -1      2179 2.38660E-03-1.71819E-04-3.33094E-16
 -1      2180 2.87283E-03-3.40456E-04-4.69216E-16
 -1      2181 2.71969E-03-3.02028E-04-4.22758E-16
 -1      2182 2.63758E-03-2.80166E-04-4.25360E-16
 -1      2183 3.21998E-03-3.40978E-04-5.64381E-16
 -1      2184 3.07831E-03-3.56224E-04-5.31151E-16
 -1      2185 3.50776E-03-2.47582E-04-6.24717E-16
 -1      2186 3.36437E-03-3.04782E-04-5.94224E-16
 -1      2187 3.26699E-03-3.32717E-04-6.33879E-16
 -1      2188 3.86554E-03-5.87202E-05-6.81286E-16
 -1      2189 3.70193E-03-1.54143E-04-6.61174E-16
 -1      2190 4.27443E-03 1.73495E-04-6.86259E-16
 -1      2191 4.09005E-03 6.72716E-05-6.89038E-16
 -1      2192 5.38823E-03 6.83718E-04-4.96571E-16
 -1      2193 5.24546E-03 6.31927E-04-5.39936E-16
 -1      2194 4.26600E-03 1.55975E-03 5.07705E-16
 -1      2195 4.44402E-03 1.45330E-03 4.80085E-16
 -1      2196 4.16340E-03 1.61713E-03 5.84141E-16
 -1      2197 5.47107E-03 7.40830E-04-5.11275E-16
 -1      2198 5.12037E-03 6.23574E-04-6.37294E-16
 -1      2199 6.54664E-04-3.09337E-04-1.47411E-16
 -1      2200 7.14488E-04-3.02647E-04-1.66696E-16
 -1      2201 5.60909E-03 8.62688E-04 1.06133E-17
 -1      2202 5.72746E-03 8.17382E-04-1.99388E-16
 -1      2203 1.41314E-02 4.06182E-03-1.98342E-14
 -1      2204 5.31874E-03 9.73658E-04 2.12266E-16
 -1      2205 4.38499E-03 2.71566E-04-7.48330E-16
 -1      2206 3.56659E-03-2.07250E-04-7.05626E-16
 -1      2207 2.96546E-03-3.60531E-04-5.35000E-16
 -1      2208 2.27814E-03-1.19247E-04-3.15232E-16
 -1      2209 1.51401E-03 2.24287E-04-1.26689E-16
 -1      2210 1.19210E-03 3.28680E-04-4.64343E-17
 -1      2211 9.66855E-04 3.91869E-04 8.91036E-17
 -1      2212 9.86893E-04 3.78796E-04 1.07538E-16
 -1      2213 9.54744E-04 3.73871E-04 7.04911E-17
 -1      2214 1.39757E-03 5.31840E-04 2.26310E-16
 -1      2215 2.76351E-03 1.35055E-03 4.75938E-16
 -1      2216 4.56257E-03 1.37866E-03 4.96687E-16
 -1      2217 3.51517E-03 1.77694E-03 6.00811E-16
 -1      2218 2.26903E-03 9.98416E-04 3.86179E-16
 -1      2219 2.40805E-03 1.06473E-03 4.21253E-16
 -1      2220 2.14719E-03 8.88702E-04 3.71231E-16
 -1      2221 1.00913E-03 3.70236E-04 1.90952E-17
 -1      2222 3.94403E-03 1.41648E-05-7.56583E-16
 -1      2223 1.19499E-03 3.57126E-04 2.24294E-16
 -1      2224 1.02024E-03 3.00759E-04 1.83542E-16
 -1      2225 5.38145E-04 1.75574E-05-5.13505E-17
 -1      2226 5.53283E-04-7.38123E-06-6.11626E-17
 -1      2227 5.66296E-04-3.42204E-05-7.09475E-17
 -1      2228 5.77160E-04-6.21310E-05-8.10035E-17
 -1      2229 6.82749E-04-3.11487E-05-8.85522E-17
 -1      2230 4.62376E-04 8.80826E-05-1.44605E-17
 -1      2231 4.81770E-04 7.61218E-05-2.34188E-17
 -1      2232 4.30164E-04 9.94110E-05 2.84603E-18
 -1      2233 4.44327E-04 9.58292E-05-5.80048E-18
 -1      2234 5.46067E-04 1.10113E-04-1.53415E-17
 -1      2235 4.18317E-04 9.71366E-05 1.99629E-17
 -1      2236 4.20898E-04 9.94007E-05 1.11537E-17
 -1      2237 5.08037E-04 1.22294E-04 7.11508E-18
 -1      2238 4.36223E-04 9.09106E-05 3.82317E-17
 -1      2239 4.23169E-04 9.35999E-05 2.89618E-17
 -1      2240 4.99548E-04 1.20208E-04 2.97749E-17
 -1      2241 4.86118E-04 9.40614E-05 5.80590E-17
 -1      2242 4.57552E-04 9.04055E-05 4.79217E-17
 -1      2243 5.31926E-04 1.16842E-04 5.39933E-17
 -1      2244 5.61962E-04 1.18423E-04 7.98650E-17
 -1      2245 5.21636E-04 1.03002E-04 6.86300E-17
 -1      2246 6.04520E-04 1.28046E-04 8.02174E-17
 -1      2247 9.87041E-04-3.67879E-04-2.65508E-16
 -1      2248 1.14295E-03-4.12256E-04-3.33406E-16
 -1      2249 1.55281E-03 4.93503E-04 3.11505E-16
 -1      2250 1.37230E-03 4.20294E-04 2.67242E-16
 -1      2251 1.20179E-03 3.43564E-04 2.22139E-16
 -1      2252 6.33122E-04-2.40013E-04-1.37233E-16
 -1      2253 8.42012E-04-3.16944E-04-2.07706E-16
 -1      2254 9.07398E-04-3.03946E-04-2.24552E-16
 -1      2255 6.22228E-04-2.05924E-04-1.28153E-16
 -1      2256 1.29785E-03-4.53473E-04-4.08243E-16
 -1      2257 1.45158E-03-4.91496E-04-4.89707E-16
 -1      2258 1.20847E-03-3.93316E-04-3.50888E-16
 -1      2259 1.60401E-03-5.26542E-04-5.77839E-16
 -1      2260 1.75487E-03-5.58024E-04-6.72612E-16
 -1      2261 1.52028E-03-4.69130E-04-5.05902E-16
 -1      2262 1.90414E-03-5.85584E-04-7.73280E-16
 -1      2263 2.05167E-03-6.08189E-04-8.80155E-16
 -1      2264 1.82816E-03-5.33408E-04-6.86110E-16
 -1      2265 2.19740E-03-6.25060E-04-9.93522E-16
 -1      2266 2.34154E-03-6.34965E-04-1.11293E-15
 -1      2267 2.13002E-03-5.80968E-04-8.90930E-16
 -1      2268 2.48401E-03-6.37048E-04-1.23797E-15
 -1      2269 2.62551E-03-6.30297E-04-1.36859E-15
 -1      2270 2.42488E-03-6.03328E-04-1.11896E-15
 -1      2271 2.76594E-03-6.14217E-04-1.50470E-15
 -1      2272 2.90638E-03-5.88429E-04-1.64628E-15
 -1      2273 2.71384E-03-5.91520E-04-1.36946E-15
 -1      2274 3.04671E-03-5.53102E-04-1.79282E-15
 -1      2275 3.18803E-03-5.08742E-04-1.94441E-15
 -1      2276 3.00024E-03-5.39957E-04-1.64175E-15
 -1      2277 3.33019E-03-4.56185E-04-2.10082E-15
 -1      2278 3.47388E-03-3.96621E-04-2.26182E-15
 -1      2279 3.28851E-03-4.49540E-04-1.93428E-15
 -1      2280 3.61892E-03-3.31308E-04-2.42723E-15
 -1      2281 3.76549E-03-2.61648E-04-2.59657E-15
 -1      2282 3.58188E-03-3.27819E-04-2.24580E-15
 -1      2283 3.91343E-03-1.88947E-04-2.77023E-15
 -1      2284 4.06246E-03-1.14449E-04-2.94754E-15
 -1      2285 3.88113E-03-1.86047E-04-2.57456E-15
 -1      2286 4.21249E-03-3.92186E-05-3.12830E-15
 -1      2287 4.36303E-03 3.59110E-05-3.31323E-15
 -1      2288 4.18482E-03-3.54626E-05-2.91892E-15
 -1      2289 4.51410E-03 1.10239E-04-3.50174E-15
 -1      2290 4.66516E-03 1.83332E-04-3.69251E-15
 -1      2291 4.49047E-03 1.15336E-04-3.27727E-15
 -1      2292 4.81633E-03 2.54841E-04-3.88707E-15
 -1      2293 4.96714E-03 3.24638E-04-4.08676E-15
 -1      2294 4.79578E-03 2.61240E-04-3.65032E-15
 -1      2295 5.11775E-03 3.92641E-04-4.28832E-15
 -1      2296 5.26784E-03 4.58904E-04-4.49281E-15
 -1      2297 5.09921E-03 4.00089E-04-4.03666E-15
 -1      2298 5.41755E-03 5.23514E-04-4.70148E-15
 -1      2299 5.56668E-03 5.86608E-04-4.91310E-15
 -1      2300 5.40005E-03 5.31722E-04-4.43748E-15
 -1      2301 5.71537E-03 6.48357E-04-5.12796E-15
 -1      2302 5.86349E-03 7.08921E-04-5.34619E-15
 -1      2303 5.69815E-03 6.57070E-04-4.85186E-15
 -1      2304 6.01116E-03 7.68492E-04-5.56707E-15
 -1      2305 6.15832E-03 8.27220E-04-5.79141E-15
 -1      2306 5.99373E-03 7.77502E-04-5.27922E-15
 -1      2307 6.30505E-03 8.85282E-04-6.01782E-15
 -1      2308 6.45135E-03 9.42803E-04-6.24616E-15
 -1      2309 6.28715E-03 8.94431E-04-5.71857E-15
 -1      2310 6.59727E-03 9.99930E-04-6.47777E-15
 -1      2311 6.74283E-03 1.05676E-03-6.71037E-15
 -1      2312 6.57878E-03 1.00910E-03-6.16804E-15
 -1      2313 6.88805E-03 1.11339E-03-6.94705E-15
 -1      2314 7.03298E-03 1.16991E-03-7.18411E-15
 -1      2315 6.86898E-03 1.12250E-03-6.62648E-15
 -1      2316 7.17764E-03 1.22638E-03-7.42276E-15
 -1      2317 7.32206E-03 1.28285E-03-7.66349E-15
 -1      2318 7.15806E-03 1.23538E-03-7.09354E-15
 -1      2319 7.46625E-03 1.33937E-03-7.90618E-15
 -1      2320 7.61027E-03 1.39597E-03-8.15042E-15
 -1      2321 7.44626E-03 1.34823E-03-7.56743E-15
 -1      2322 7.75410E-03 1.45267E-03-8.39460E-15
 -1      2323 7.89779E-03 1.50949E-03-8.63979E-15
 -1      2324 7.73379E-03 1.46137E-03-8.04715E-15
 -1      2325 8.04134E-03 1.56644E-03-8.88623E-15
 -1      2326 8.18477E-03 1.62353E-03-9.13505E-15
 -1      2327 8.02081E-03 1.57499E-03-8.52905E-15
 -1      2328 8.32811E-03 1.68076E-03-9.38519E-15
 -1      2329 8.47136E-03 1.73812E-03-9.63765E-15
 -1      2330 8.30744E-03 1.68916E-03-9.01753E-15
 -1      2331 8.61453E-03 1.79562E-03-9.89169E-15
 -1      2332 8.75764E-03 1.85324E-03-1.01475E-14
 -1      2333 8.59378E-03 1.80389E-03-9.51496E-15
 -1      2334 8.90070E-03 1.91099E-03-1.04025E-14
 -1      2335 9.04371E-03 1.96885E-03-1.06577E-14
 -1      2336 8.87990E-03 1.91914E-03-1.00162E-14
 -1      2337 9.18668E-03 2.02681E-03-1.09148E-14
 -1      2338 9.32961E-03 2.08488E-03-1.11733E-14
 -1      2339 9.16587E-03 2.03487E-03-1.05209E-14
 -1      2340 9.47253E-03 2.14303E-03-1.14309E-14
 -1      2341 9.61542E-03 2.20126E-03-1.16877E-14
 -1      2342 9.45173E-03 2.15101E-03-1.10263E-14
 -1      2343 9.75829E-03 2.25957E-03-1.19460E-14
 -1      2344 9.90115E-03 2.31795E-03-1.22053E-14
 -1      2345 9.73752E-03 2.26748E-03-1.15347E-14
 -1      2346 1.00440E-02 2.37638E-03-1.24652E-14
 -1      2347 1.01868E-02 2.43486E-03-1.27239E-14
 -1      2348 1.00233E-02 2.38424E-03-1.20437E-14
 -1      2349 1.03297E-02 2.49339E-03-1.29845E-14
 -1      2350 1.04725E-02 2.55197E-03-1.32467E-14
 -1      2351 1.03090E-02 2.50121E-03-1.25573E-14
 -1      2352 1.06153E-02 2.61057E-03-1.35088E-14
 -1      2353 1.07582E-02 2.66921E-03-1.37714E-14
 -1      2354 1.05947E-02 2.61836E-03-1.30725E-14
 -1      2355 1.09010E-02 2.72788E-03-1.40305E-14
 -1      2356 1.10438E-02 2.78656E-03-1.42902E-14
 -1      2357 1.08803E-02 2.73564E-03-1.35898E-14
 -1      2358 1.11866E-02 2.84527E-03-1.45489E-14
 -1      2359 1.13295E-02 2.90400E-03-1.48061E-14
 -1      2360 1.11660E-02 2.85302E-03-1.41009E-14
 -1      2361 1.14723E-02 2.96273E-03-1.50645E-14
 -1      2362 1.16151E-02 3.02148E-03-1.53208E-14
 -1      2363 1.14517E-02 2.97047E-03-1.46092E-14
 -1      2364 1.17579E-02 3.08024E-03-1.55785E-14
 -1      2365 1.19008E-02 3.13901E-03-1.58384E-14
 -1      2366 1.17374E-02 3.08797E-03-1.51174E-14
 -1      2367 1.20436E-02 3.19779E-03-1.61013E-14
 -1      2368 1.21864E-02 3.25657E-03-1.63648E-14
 -1      2369 1.20230E-02 3.20551E-03-1.56311E-14
 -1      2370 1.23293E-02 3.31535E-03-1.66287E-14
 -1      2371 1.24721E-02 3.37414E-03-1.68948E-14
 -1      2372 1.23087E-02 3.32307E-03-1.61512E-14
 -1      2373 1.26150E-02 3.43293E-03-1.71609E-14
 -1      2374 1.27578E-02 3.49172E-03-1.74270E-14
 -1      2375 1.25944E-02 3.44065E-03-1.66748E-14
 -1      2376 1.29007E-02 3.55051E-03-1.76932E-14
 -1      2377 1.30435E-02 3.60930E-03-1.79573E-14
 -1      2378 1.28801E-02 3.55823E-03-1.71996E-14
 -1      2379 1.31864E-02 3.66809E-03-1.82249E-14
 -1      2380 1.33292E-02 3.72689E-03-1.84900E-14
 -1      2381 1.31658E-02 3.67581E-03-1.77260E-14
 -1      2382 1.34721E-02 3.78568E-03-1.87555E-14
 -1      2383 1.36149E-02 3.84447E-03-1.90219E-14
 -1      2384 1.34515E-02 3.79340E-03-1.82517E-14
 -1      2385 2.34384E-03 9.52380E-04 4.95914E-16
 -1      2386 2.13610E-03 8.07039E-04 4.49849E-16
 -1      2387 2.67185E-03 1.21942E-03 5.32682E-16
 -1      2388 2.44836E-03 1.03554E-03 4.91510E-16
 -1      2389 4.44659E-03 1.55940E-03 8.40501E-16
 -1      2390 4.23113E-03 1.66899E-03 8.31339E-16
 -1      2391 4.87940E-03 1.35704E-03 8.26203E-16
 -1      2392 4.66758E-03 1.44836E-03 8.33697E-16
 -1      2393 5.28369E-03 1.24273E-03 7.87863E-16
 -1      2394 5.08678E-03 1.28921E-03 8.11295E-16
 -1      2395 5.03229E-03 1.25467E-03 7.01099E-16
 -1      2396 5.65667E-03 1.21353E-03 7.27174E-16
 -1      2397 5.47448E-03 1.21915E-03 7.61232E-16
 -1      2398 5.42149E-03 1.17340E-03 6.46876E-16
 -1      2399 6.00531E-03 1.24803E-03 6.41550E-16
 -1      2400 5.83366E-03 1.22445E-03 6.86192E-16
 -1      2401 5.77268E-03 1.17218E-03 5.69572E-16
 -1      2402 6.33788E-03 1.32421E-03 5.38727E-16
 -1      2403 6.17322E-03 1.28207E-03 5.92733E-16
 -1      2404 6.10005E-03 1.22497E-03 4.71411E-16
 -1      2405 6.65958E-03 1.42565E-03 4.14572E-16
 -1      2406 6.49979E-03 1.37254E-03 4.79014E-16
 -1      2407 6.41454E-03 1.31174E-03 3.55740E-16
 -1      2408 6.97334E-03 1.54132E-03 2.68950E-16
 -1      2409 6.81723E-03 1.48218E-03 3.44465E-16
 -1      2410 6.72189E-03 1.41884E-03 2.17884E-16
 -1      2411 7.28094E-03 1.66437E-03 1.03501E-16
 -1      2412 7.12775E-03 1.60221E-03 1.89126E-16
 -1      2413 7.02474E-03 1.53732E-03 6.00648E-17
 -1      2414 7.58359E-03 1.79075E-03-8.03936E-17
 -1      2415 7.43276E-03 1.72732E-03 1.33357E-17
 -1      2416 7.32426E-03 1.66163E-03-1.17297E-16
 -1      2417 7.88225E-03 1.91816E-03-2.81296E-16
 -1      2418 7.73332E-03 1.85443E-03-1.78649E-16
 -1      2419 7.62104E-03 1.78845E-03-3.14337E-16
 -1      2420 8.17773E-03 2.04536E-03-4.97730E-16
 -1      2421 8.03031E-03 1.98184E-03-3.87995E-16
 -1      2422 7.91552E-03 1.91589E-03-5.26638E-16
 -1      2423 8.47068E-03 2.17174E-03-7.31267E-16
 -1      2424 8.32446E-03 2.10868E-03-6.12534E-16
 -1      2425 8.20804E-03 2.04293E-03-7.55418E-16
 -1      2426 8.76169E-03 2.29703E-03-9.80417E-16
 -1      2427 8.61639E-03 2.23454E-03-8.53267E-16
 -1      2428 8.49895E-03 2.16906E-03-9.98835E-16
 -1      2429 9.05120E-03 2.42119E-03-1.24869E-15
 -1      2430 8.90660E-03 2.35926E-03-1.11108E-15
 -1      2431 8.78854E-03 2.29409E-03-1.25976E-15
 -1      2432 9.33957E-03 2.54425E-03-1.53408E-15
 -1      2433 9.19550E-03 2.48286E-03-1.39015E-15
 -1      2434 9.07710E-03 2.41798E-03-1.53953E-15
 -1      2435 9.62711E-03 2.66631E-03-1.83282E-15
 -1      2436 9.48342E-03 2.60540E-03-1.68206E-15
 -1      2437 9.36485E-03 2.54079E-03-1.83638E-15
 -1      2438 9.91402E-03 2.78750E-03-2.13897E-15
 -1      2439 9.77063E-03 2.72701E-03-1.98580E-15
 -1      2440 9.65198E-03 2.66263E-03-2.14301E-15
 -1      2441 1.02005E-02 2.90794E-03-2.45016E-15
 -1      2442 1.00573E-02 2.84781E-03-2.29406E-15
 -1      2443 9.93865E-03 2.78362E-03-2.45828E-15
 -1      2444 1.04867E-02 3.02776E-03-2.76500E-15
 -1      2445 1.03436E-02 2.96792E-03-2.60675E-15
 -1      2446 1.02250E-02 2.90390E-03-2.77549E-15
 -1      2447 1.07726E-02 3.14706E-03-3.07569E-15
 -1      2448 1.06297E-02 3.08747E-03-2.91947E-15
 -1      2449 1.05111E-02 3.02358E-03-3.09231E-15
 -1      2450 1.10584E-02 3.26594E-03-3.38381E-15
 -1      2451 1.09155E-02 3.20654E-03-3.23087E-15
 -1      2452 1.07970E-02 3.14276E-03-3.40953E-15
 -1      2453 1.13441E-02 3.38448E-03-3.68818E-15
 -1      2454 1.12013E-02 3.32525E-03-3.53701E-15
 -1      2455 1.10828E-02 3.26155E-03-3.72135E-15
 -1      2456 1.16298E-02 3.50277E-03-3.99056E-15
 -1      2457 1.14869E-02 3.44366E-03-3.83993E-15
 -1      2458 1.13685E-02 3.38002E-03-4.02918E-15
 -1      2459 1.19154E-02 3.62085E-03-4.29542E-15
 -1      2460 1.17726E-02 3.56183E-03-4.14153E-15
 -1      2461 1.16542E-02 3.49825E-03-4.33600E-15
 -1      2462 1.22010E-02 3.73878E-03-4.61134E-15
 -1      2463 1.20582E-02 3.67984E-03-4.45398E-15
 -1      2464 1.19399E-02 3.61629E-03-4.64879E-15
 -1      2465 1.24866E-02 3.85660E-03-4.92981E-15
 -1      2466 1.23438E-02 3.79770E-03-4.76827E-15
 -1      2467 1.22255E-02 3.73418E-03-4.96991E-15
 -1      2468 1.27723E-02 3.97433E-03-5.26131E-15
 -1      2469 1.26294E-02 3.91547E-03-5.09425E-15
 -1      2470 1.25112E-02 3.85197E-03-5.29669E-15
 -1      2471 1.30579E-02 4.09199E-03-5.60218E-15
 -1      2472 1.29151E-02 4.03317E-03-5.43123E-15
 -1      2473 1.27968E-02 3.96968E-03-5.63597E-15
 -1      2474 1.33435E-02 4.20962E-03-5.95456E-15
 -1      2475 1.32007E-02 4.15081E-03-5.77515E-15
 -1      2476 1.30825E-02 4.08733E-03-5.98504E-15
 -1      2477 1.36292E-02 4.32722E-03-6.31385E-15
 -1      2478 1.34864E-02 4.26842E-03-6.13616E-15
 -1      2479 1.33681E-02 4.20495E-03-6.34460E-15
 -1      2480 1.39149E-02 4.44479E-03-6.68331E-15
 -1      2481 1.37720E-02 4.38601E-03-6.49871E-15
 -1      2482 1.36538E-02 4.32254E-03-6.71223E-15
 -1      2483 1.42005E-02 4.56236E-03-7.04440E-15
 -1      2484 1.40577E-02 4.50358E-03-6.86422E-15
 -1      2485 1.39395E-02 4.44011E-03-7.08431E-15
 -1      2486 1.44862E-02 4.67993E-03-7.39933E-15
 -1      2487 1.43434E-02 4.62114E-03-7.22251E-15
 -1      2488 1.42252E-02 4.55768E-03-7.45199E-15
 -1      2489 1.47719E-02 4.79749E-03-7.75698E-15
 -1      2490 1.46291E-02 4.73871E-03-7.57645E-15
 -1      2491 1.45109E-02 4.67524E-03-7.81596E-15
 -1      2492 1.50576E-02 4.91505E-03-8.12558E-15
 -1      2493 1.49148E-02 4.85627E-03-7.93922E-15
 -1      2494 1.47966E-02 4.79280E-03-8.18592E-15
 -1      2495 1.53433E-02 5.03263E-03-8.50607E-15
 -1      2496 1.52005E-02 4.97384E-03-8.31434E-15
 -1      2497 1.50823E-02 4.91037E-03-8.56357E-15
 -1      2498 1.54882E-02 5.09138E-03-8.72500E-15
 -1      2499 1.49527E-02 4.72612E-03-1.19631E-14
 -1      2500 1.50105E-02 4.76828E-03-1.15445E-14
 -1      2501 1.48370E-02 4.64182E-03-1.27950E-14
 -1      2502 1.48949E-02 4.68397E-03-1.23788E-14
 -1      2503 1.48001E-02 4.65414E-03-1.19803E-14
 -1      2504 1.51820E-02 4.89330E-03-1.02993E-14
 -1      2505 1.52398E-02 4.93545E-03-9.87525E-15
 -1      2506 1.50678E-02 4.81007E-03-1.11313E-14
 -1      2507 1.51247E-02 4.85151E-03-1.07172E-14
 -1      2508 1.50299E-02 4.82167E-03-1.03304E-14
 -1      2509 1.49152E-02 4.73809E-03-1.11558E-14
 -1      2510 1.47214E-02 4.55750E-03-1.36281E-14
 -1      2511 1.47792E-02 4.59966E-03-1.32124E-14
 -1      2512 1.46844E-02 4.56983E-03-1.28083E-14
 -1      2513 1.46058E-02 4.47319E-03-1.44667E-14
 -1      2514 1.46636E-02 4.51535E-03-1.40459E-14
 -1      2515 1.45688E-02 4.48552E-03-1.36382E-14
 -1      2516 1.44902E-02 4.38888E-03-1.53006E-14
 -1      2517 1.45480E-02 4.43103E-03-1.48816E-14
 -1      2518 1.44532E-02 4.40120E-03-1.44680E-14
 -1      2519 1.43766E-02 4.30600E-03-1.61297E-14
 -1      2520 1.44334E-02 4.34744E-03-1.57151E-14
 -1      2521 1.43386E-02 4.31761E-03-1.52946E-14
 -1      2522 1.42610E-02 4.22169E-03-1.69753E-14
 -1      2523 1.43188E-02 4.26384E-03-1.65536E-14
 -1      2524 1.42239E-02 4.23401E-03-1.61276E-14
 -1      2525 1.41454E-02 4.13739E-03-1.78289E-14
 -1      2526 1.42032E-02 4.17954E-03-1.74016E-14
 -1      2527 1.41084E-02 4.14970E-03-1.69717E-14
 -1      2528 1.40298E-02 4.05309E-03-1.86823E-14
 -1      2529 1.40876E-02 4.09524E-03-1.82542E-14
 -1      2530 1.39928E-02 4.06540E-03-1.78191E-14
 -1      2531 5.73421E-03 8.34964E-04-1.79587E-16
 -1      2532 5.74331E-03 8.29901E-04-2.85173E-16
 -1      2533 5.25296E-03 1.00219E-03 2.76837E-16
 -1      2534 5.41593E-03 9.35084E-04 1.78853E-16
 -1      2535 1.93134E-03 6.83362E-04 4.02497E-16
 -1      2536 1.73952E-03 5.79414E-04 3.56513E-16
 -1      2537 1.54486E-03 4.80776E-04 3.01530E-16
 -1      2538 4.90433E-03 1.17935E-03 4.41948E-16
 -1      2539 5.05785E-03 1.09679E-03 3.78454E-16
 -1      2540 1.40057E-02 4.01083E-03-1.95796E-14
 -1      2541 4.48699E-03 3.62323E-04-8.29401E-16
 -1      2542 4.26951E-03 2.37728E-04-8.46762E-16
 -1      2543 4.19265E-03 1.62905E-03 6.74401E-16
 -1      2544 4.33215E-03 1.54075E-03 6.48285E-16
 -1      2545 5.20254E-03 6.87086E-04-6.97047E-16
 -1      2546 5.01765E-03 6.18081E-04-7.46697E-16
 -1      2547 3.61689E-03-1.63135E-04-7.94476E-16
 -1      2548 3.45786E-03-2.53230E-04-7.52057E-16
 -1      2549 1.60043E-03 1.93616E-04-1.51944E-16
 -1      2550 1.41375E-03 2.61511E-04-1.07316E-16
 -1      2551 5.70338E-03 8.17773E-04-3.91759E-16
 -1      2552 5.64779E-03 8.09568E-04-4.59980E-16
 -1      2553 4.82811E-03 5.33121E-04-7.78931E-16
 -1      2554 4.68568E-03 4.63968E-04-7.99802E-16
 -1      2555 4.56868E-03 4.20942E-04-9.02097E-16
 -1      2556 4.94006E-03 6.00397E-04-8.41090E-16
 -1      2557 5.01829E-04 5.99547E-05-3.24176E-17
 -1      2558 5.20693E-04 4.03381E-05-4.17824E-17
 -1      2559 6.45039E-04 2.91956E-05-6.32496E-17
 -1      2560 5.96846E-04 7.82535E-05-3.88144E-17
 -1      2561 3.82641E-03 1.79203E-03 6.93401E-16
 -1      2562 3.95621E-03 1.74348E-03 6.85758E-16
 -1      2563 4.49596E-03 1.43049E-03 5.84819E-16
 -1      2564 4.71846E-03 1.28798E-03 5.16243E-16
 -1      2565 4.83285E-03 1.24192E-03 5.33536E-16
 -1      2566 4.50790E-03 1.45512E-03 6.76800E-16
 -1      2567 3.09993E-03 1.57180E-03 5.82298E-16
 -1      2568 3.24246E-03 1.66989E-03 6.14417E-16
 -1      2569 1.02737E-03 3.57263E-04 4.54518E-18
 -1      2570 9.73077E-04 3.62912E-04 3.40304E-17
 -1      2571 1.71070E-03 6.31803E-04 2.90268E-16
 -1      2572 1.89605E-03 7.28571E-04 3.25152E-16
 -1      2573 1.31840E-03 4.65337E-04 2.10122E-16
 -1      2574 1.50542E-03 5.38418E-04 2.49353E-16
 -1      2575 1.06490E-03 3.88578E-04 1.42852E-16
 -1      2576 1.15788E-03 4.09017E-04 1.70924E-16
 -1      2577 4.02211E-03 9.09945E-05-8.57170E-16
 -1      2578 3.83311E-03-3.09286E-05-8.43564E-16
 -1      2579 1.24840E-03 3.10827E-04-6.59398E-17
 -1      2580 1.13106E-03 3.36421E-04-3.32342E-17
 -1      2581 1.96758E-03 3.12772E-05-2.43932E-16
 -1      2582 1.80832E-03 1.06198E-04-2.03884E-16
 -1      2583 2.36925E-03-1.69063E-04-3.62381E-16
 -1      2584 2.16853E-03-6.62074E-05-2.99470E-16
 -1      2585 2.69853E-03-3.12682E-04-4.78160E-16
 -1      2586 2.56712E-03-2.59276E-04-4.30510E-16
 -1      2587 3.02862E-03-3.72110E-04-6.07858E-16
 -1      2588 2.86480E-03-3.55824E-04-5.40827E-16
 -1      2589 3.33767E-03-3.05873E-04-7.16143E-16
 -1      2590 3.22425E-03-3.44382E-04-6.81177E-16
 -1      2591 3.40340E-03-2.71570E-04-8.01713E-16
 -1      2592 5.55248E-03 8.84430E-04 7.21198E-17
 -1      2593 5.65966E-03 8.54826E-04-3.77218E-17
 -1      2594 5.50355E-03 9.17081E-04 1.36250E-16
 -1      2595 3.44285E-03 1.76567E-03 6.41278E-16
 -1      2596 3.62991E-03 1.80719E-03 6.71148E-16
 -1      2597 3.74052E-03 1.81932E-03 7.40212E-16
 -1      2598 3.37396E-03 1.73976E-03 6.82126E-16
 -1      2599 5.53944E-03 7.82757E-04-5.39074E-16
 -1      2600 5.39322E-03 7.46946E-04-6.16599E-16
 -1      2601 5.59790E-03 8.12863E-04-5.65123E-16
 -1      2602 8.89499E-04 2.63969E-04 1.54458E-16
 -1      2603 7.15371E-04 2.11955E-04 1.17839E-16
 -1      2604 6.64268E-04 1.81601E-04 1.06496E-16
 -1      2605 9.13871E-04 2.51365E-04 1.57846E-16
 -1      2606 7.09062E-04-9.71772E-05-1.14288E-16
 -1      2607 5.86297E-04-9.09771E-05-9.08155E-17
 -1      2608 5.94265E-04-1.20391E-04-1.00736E-16
 -1      2609 1.92010E-03 6.75867E-04 3.83984E-16
 -1      2610 6.15682E-04 1.48714E-04 9.43527E-17
 -1      2611 1.31944E-03 2.77402E-04-8.93789E-17
 -1      2612 6.03732E-04-1.46624E-04-1.09653E-16
 -1      2613 6.11452E-04-1.77695E-04-1.19452E-16
 -1      2614 7.51403E-04-2.22998E-04-1.61573E-16
 -1      2615 7.29824E-04-1.61131E-04-1.38575E-16
 -1      2616 4.14657E-03 1.77710E-04-9.38526E-16
 -1      2617 1.00909E-03 3.63379E-04 1.21900E-16
 -1      2618 1.23704E-03 4.14078E-04 1.91968E-16
 -1      2619 3.27932E-03 1.68754E-03 7.09502E-16
 -1      2620 3.07388E-03 1.53887E-03 6.65903E-16
 -1      2621 3.65075E-03 1.83606E-03 7.82767E-16
 -1      2622 3.45308E-03 1.78302E-03 7.45945E-16
 -1      2623 4.02451E-03 1.77444E-03 8.38508E-16
 -1      2624 3.82240E-03 1.83028E-03 8.12582E-16
 -1      2625 4.59614E-03 1.43858E-03 7.34533E-16
 -1      2626 1.53700E-02 5.02791E-03-8.97729E-15
 -1      2627 5.19144E-03 1.04817E-03 3.52535E-16
 -1      2628 1.53088E-02 4.98829E-03-9.29335E-15
 -1      2629 5.74657E-03 8.41016E-04-3.74434E-16
 -1      2630 5.71801E-03 8.55401E-04-1.17575E-16
 -1      2631 1.67828E-03 1.50131E-04-1.78948E-16
 -1      2632 3.71595E-03-9.49854E-05-8.92353E-16
 -1      2633 1.38360E-02 3.93437E-03-1.94591E-14
 -1      2634 1.39549E-02 4.00646E-03-1.90050E-14
 -1      2635 1.38601E-02 3.97662E-03-1.85628E-14
 -1      2636 1.37103E-02 3.88337E-03-1.92065E-14
 -1      2637 5.30686E-03 7.36496E-04-7.27886E-16
 -1      2638 3.11029E-03-3.68515E-04-6.85080E-16
 -1      2639 3.00810E-03-3.78506E-04-6.87167E-16
 -1      2640 3.18070E-03-3.52103E-04-7.65962E-16
 -1      2641 2.77706E-03-3.44551E-04-5.44351E-16
 -1      2642 2.44104E-03-2.14913E-04-4.09327E-16
 -1      2643 7.18762E-04 1.73107E-04 1.12784E-16
 -1      2644 9.47757E-04 3.53556E-04 5.34105E-17
 -1      2645 2.68529E-03 1.25906E-03 4.85465E-16
 -1      2646 2.89191E-03 1.42263E-03 5.29389E-16
 -1      2647 1.51562E-02 4.91631E-03-9.33792E-15
 -1      2648 1.59599E-03 5.54105E-04 2.70488E-16
 -1      2649 1.36898E-02 3.89109E-03-1.87008E-14
 -1      2650 2.03343E-03 7.93857E-04 3.57339E-16
 -1      2651 1.06167E-03 3.35409E-04-1.53415E-17
 -1      2652 3.00322E-03 1.49258E-03 5.92001E-16
 -1      2653 2.06537E-03-2.87779E-05-2.85240E-16
 -1      2654 2.55132E-03 1.15000E-03 4.68850E-16
 -1      2655 4.14011E-03 1.68668E-03 7.57749E-16
 -1      2656 5.82371E-04 1.48141E-04 1.35932E-17
 -1      2657 5.99709E-04 1.44420E-04-4.60786E-19
 -1      2658 6.25954E-04 1.35549E-04-1.49620E-17
 -1      2659 6.56385E-04 1.20773E-04-2.96258E-17
 -1      2660 6.99914E-04 1.63291E-04-1.26716E-17
 -1      2661 6.33521E-04 1.45951E-04 7.35902E-17
 -1      2662 6.00589E-04 1.43943E-04 5.78015E-17
 -1      2663 7.33770E-04 1.67121E-04 1.06740E-16
 -1      2664 6.79012E-04 1.52951E-04 8.96771E-17
 -1      2665 7.44328E-04 1.79446E-04 9.66160E-17
 -1      2666 9.32537E-04 3.31218E-04 4.04746E-17
 -1      2667 9.27716E-04 3.33070E-04 7.22180E-17
 -1      2668 1.11995E-03-3.33345E-04-2.97803E-16
 -1      2669 1.27766E-03-3.72585E-04-3.65146E-16
 -1      2670 1.19800E-03 3.32200E-04 2.16312E-16
 -1      2671 1.04254E-03 2.77403E-04 1.81902E-16
 -1      2672 9.56047E-04 3.32168E-04 1.02559E-16
 -1      2673 1.02022E-03 3.33021E-04 1.33008E-16
 -1      2674 9.11938E-04 3.05306E-04 8.54893E-17
 -1      2675 1.43560E-03-4.10036E-04-4.38817E-16
 -1      2676 1.59320E-03-4.45355E-04-5.18438E-16
 -1      2677 1.34962E-03-3.50103E-04-3.76733E-16
 -1      2678 1.75017E-03-4.78338E-04-6.04104E-16
 -1      2679 1.90594E-03-5.07960E-04-6.95502E-16
 -1      2680 1.66952E-03-4.20652E-04-5.27315E-16
 -1      2681 2.06023E-03-5.33560E-04-7.93284E-16
 -1      2682 2.21278E-03-5.53489E-04-8.96608E-16
 -1      2683 1.98731E-03-4.82392E-04-7.01140E-16
 -1      2684 2.36330E-03-5.66750E-04-1.00572E-15
 -1      2685 2.51218E-03-5.71581E-04-1.11985E-15
 -1      2686 2.29886E-03-5.26341E-04-8.97868E-16
 -1      2687 2.65920E-03-5.67132E-04-1.23979E-15
 -1      2688 2.80549E-03-5.52128E-04-1.36525E-15
 -1      2689 2.60227E-03-5.39877E-04-1.11605E-15
 -1      2690 2.95094E-03-5.26340E-04-1.49656E-15
 -1      2691 3.09702E-03-4.89770E-04-1.63277E-15
 -1      2692 2.89965E-03-5.11500E-04-1.35661E-15
 -1      2693 3.24362E-03-4.43015E-04-1.77325E-15
 -1      2694 3.39184E-03-3.87480E-04-1.91917E-15
 -1      2695 3.19657E-03-4.36654E-04-1.61835E-15
 -1      2696 3.54145E-03-3.24378E-04-2.06963E-15
 -1      2697 3.69285E-03-2.55656E-04-2.22470E-15
 -1      2698 3.49855E-03-3.21484E-04-1.89899E-15
 -1      2699 3.84575E-03-1.82682E-04-2.38416E-15
 -1      2700 3.99979E-03-1.07326E-04-2.54747E-15
 -1      2701 3.80781E-03-1.79501E-04-2.19876E-15
 -1      2702 4.15474E-03-3.07681E-05-2.71446E-15
 -1      2703 4.30993E-03 4.58060E-05-2.88461E-15
 -1      2704 4.12247E-03-2.55434E-05-2.51506E-15
 -1      2705 4.46528E-03 1.21614E-04-3.05851E-15
 -1      2706 4.62011E-03 1.96074E-04-3.23689E-15
 -1      2707 4.43856E-03 1.28905E-04-2.84585E-15
 -1      2708 4.77450E-03 2.68783E-04-3.41827E-15
 -1      2709 4.92794E-03 3.39623E-04-3.60305E-15
 -1      2710 4.75243E-03 2.77498E-04-3.19163E-15
 -1      2711 5.08062E-03 4.08464E-04-3.79154E-15
 -1      2712 5.23222E-03 4.75433E-04-3.98317E-15
 -1      2713 5.06190E-03 4.17890E-04-3.55171E-15
 -1      2714 5.38297E-03 5.40570E-04-4.17879E-15
 -1      2715 5.53272E-03 6.04099E-04-4.37804E-15
 -1      2716 5.36628E-03 5.50206E-04-3.92470E-15
 -1      2717 5.68167E-03 6.66147E-04-4.58027E-15
 -1      2718 5.82977E-03 7.26947E-04-4.78618E-15
 -1      2719 5.66587E-03 6.75720E-04-4.31370E-15
 -1      2720 5.97719E-03 7.86659E-04-4.99608E-15
 -1      2721 6.12394E-03 8.45482E-04-5.20898E-15
 -1      2722 5.96150E-03 7.96056E-04-4.71730E-15
 -1      2723 6.27016E-03 9.03576E-04-5.42391E-15
 -1      2724 6.41587E-03 9.61095E-04-5.64155E-15
 -1      2725 6.25407E-03 9.12773E-04-5.13421E-15
 -1      2726 6.56116E-03 1.01818E-03-5.86288E-15
 -1      2727 6.70608E-03 1.07494E-03-6.08572E-15
 -1      2728 6.54441E-03 1.02719E-03-5.56158E-15
 -1      2729 6.85069E-03 1.13148E-03-6.31106E-15
 -1      2730 6.99504E-03 1.18788E-03-6.53850E-15
 -1      2731 6.83319E-03 1.14032E-03-5.99947E-15
 -1      2732 7.13915E-03 1.24423E-03-6.76808E-15
 -1      2733 7.28307E-03 1.30057E-03-6.99886E-15
 -1      2734 7.12092E-03 1.25292E-03-6.44566E-15
 -1      2735 7.42682E-03 1.35695E-03-7.23190E-15
 -1      2736 7.57044E-03 1.41340E-03-7.46685E-15
 -1      2737 7.40795E-03 1.36550E-03-6.90042E-15
 -1      2738 7.71393E-03 1.46996E-03-7.70166E-15
 -1      2739 7.85732E-03 1.52663E-03-7.93788E-15
 -1      2740 7.69452E-03 1.47839E-03-7.36123E-15
 -1      2741 8.00062E-03 1.58344E-03-8.17726E-15
 -1      2742 8.14386E-03 1.64039E-03-8.41593E-15
 -1      2743 7.98079E-03 1.59177E-03-7.82744E-15
 -1      2744 8.28702E-03 1.69749E-03-8.65525E-15
 -1      2745 8.43014E-03 1.75473E-03-8.89748E-15
 -1      2746 8.26688E-03 1.70572E-03-8.29828E-15
 -1      2747 8.57320E-03 1.81210E-03-9.14255E-15
 -1      2748 8.71624E-03 1.86962E-03-9.38927E-15
 -1      2749 8.55284E-03 1.82025E-03-8.77503E-15
 -1      2750 8.85923E-03 1.92726E-03-9.63548E-15
 -1      2751 9.00221E-03 1.98503E-03-9.88246E-15
 -1      2752 8.83871E-03 1.93533E-03-9.25943E-15
 -1      2753 9.14516E-03 2.04291E-03-1.01308E-14
 -1      2754 9.28809E-03 2.10089E-03-1.03786E-14
 -1      2755 9.12454E-03 2.05091E-03-9.74535E-15
 -1      2756 9.43100E-03 2.15897E-03-1.06274E-14
 -1      2757 9.57390E-03 2.21714E-03-1.08759E-14
 -1      2758 9.41033E-03 2.16691E-03-1.02334E-14
 -1      2759 9.71679E-03 2.27539E-03-1.11268E-14
 -1      2760 9.85967E-03 2.33371E-03-1.13770E-14
 -1      2761 9.69609E-03 2.28328E-03-1.07235E-14
 -1      2762 1.00025E-02 2.39210E-03-1.16286E-14
 -1      2763 1.01454E-02 2.45054E-03-1.18798E-14
 -1      2764 9.98184E-03 2.39995E-03-1.12167E-14
 -1      2765 1.02883E-02 2.50904E-03-1.21333E-14
 -1      2766 1.04311E-02 2.56758E-03-1.23874E-14
 -1      2767 1.02676E-02 2.51686E-03-1.17129E-14
 -1      2768 1.05740E-02 2.62616E-03-1.26394E-14
 -1      2769 1.07168E-02 2.68477E-03-1.28961E-14
 -1      2770 1.05533E-02 2.63395E-03-1.22139E-14
 -1      2771 1.08597E-02 2.74341E-03-1.31522E-14
 -1      2772 1.10025E-02 2.80208E-03-1.34052E-14
 -1      2773 1.08390E-02 2.75119E-03-1.27161E-14
 -1      2774 1.11454E-02 2.86077E-03-1.36580E-14
 -1      2775 1.12882E-02 2.91949E-03-1.39080E-14
 -1      2776 1.11247E-02 2.86853E-03-1.32166E-14
 -1      2777 1.14311E-02 2.97821E-03-1.41580E-14
 -1      2778 1.15739E-02 3.03695E-03-1.44100E-14
 -1      2779 1.14105E-02 2.98596E-03-1.37107E-14
 -1      2780 1.17168E-02 3.09571E-03-1.46603E-14
 -1      2781 1.18596E-02 3.15447E-03-1.49111E-14
 -1      2782 1.16962E-02 3.10344E-03-1.42051E-14
 -1      2783 1.20025E-02 3.21324E-03-1.51636E-14
 -1      2784 1.21453E-02 3.27201E-03-1.54186E-14
 -1      2785 1.19819E-02 3.22097E-03-1.46999E-14
 -1      2786 1.22882E-02 3.33079E-03-1.56761E-14
 -1      2787 1.24310E-02 3.38958E-03-1.59337E-14
 -1      2788 1.22676E-02 3.33852E-03-1.52027E-14
 -1      2789 1.25739E-02 3.44837E-03-1.61920E-14
 -1      2790 1.27167E-02 3.50716E-03-1.64514E-14
 -1      2791 1.25533E-02 3.45609E-03-1.57128E-14
 -1      2792 1.28596E-02 3.56595E-03-1.67120E-14
 -1      2793 1.30024E-02 3.62474E-03-1.69723E-14
 -1      2794 1.28390E-02 3.57367E-03-1.62260E-14
 -1      2795 1.31453E-02 3.68353E-03-1.72300E-14
 -1      2796 1.32881E-02 3.74233E-03-1.74910E-14
 -1      2797 1.31247E-02 3.69126E-03-1.67402E-14
 -1      2798 1.34310E-02 3.80112E-03-1.77509E-14
 -1      2799 1.35738E-02 3.85991E-03-1.80119E-14
 -1      2800 1.34104E-02 3.80884E-03-1.72532E-14
 -1      2801 2.20900E-03 8.73971E-04 4.19993E-16
 -1      2802 5.40988E-03 7.79680E-04-7.63868E-16
 -1      2803 5.23845E-03 7.28018E-04-8.46620E-16
 -1      2804 4.74057E-03 1.33648E-03 6.61865E-16
 -1      2805 5.16435E-03 1.18664E-03 6.22522E-16
 -1      2806 4.96067E-03 1.24856E-03 6.46266E-16
 -1      2807 4.88923E-03 1.24689E-03 5.92638E-16
 -1      2808 6.18892E-03 1.20579E-03 2.84861E-16
 -1      2809 6.03830E-03 1.16719E-03 3.42228E-16
 -1      2810 6.48518E-03 1.30129E-03 1.53984E-16
 -1      2811 6.33746E-03 1.25101E-03 2.21530E-16
 -1      2812 6.26887E-03 1.19339E-03 9.22927E-17
 -1      2813 6.77868E-03 1.41256E-03 2.90024E-18
 -1      2814 6.63199E-03 1.35540E-03 8.09357E-17
 -1      2815 6.54897E-03 1.29511E-03-5.30988E-17
 -1      2816 7.07117E-03 1.53277E-03-1.68756E-16
 -1      2817 6.92490E-03 1.47182E-03-7.99735E-17
 -1      2818 6.83057E-03 1.40902E-03-2.16895E-16
 -1      2819 7.36304E-03 1.65757E-03-3.59386E-16
 -1      2820 7.21709E-03 1.59476E-03-2.61333E-16
 -1      2821 7.11426E-03 1.53002E-03-4.02131E-16
 -1      2822 7.65424E-03 1.78430E-03-5.68461E-16
 -1      2823 7.50866E-03 1.72079E-03-4.62317E-16
 -1      2824 7.39963E-03 1.65473E-03-6.05622E-16
 -1      2825 7.94469E-03 1.91140E-03-7.93378E-16
 -1      2826 7.79951E-03 1.84786E-03-6.79727E-16
 -1      2827 7.68606E-03 1.78099E-03-8.28317E-16
 -1      2828 8.23433E-03 2.03801E-03-1.03437E-15
 -1      2829 8.08958E-03 1.97480E-03-9.12248E-16
 -1      2830 7.97302E-03 1.90749E-03-1.06568E-15
 -1      2831 8.52321E-03 2.16372E-03-1.28996E-15
 -1      2832 8.37884E-03 2.10099E-03-1.15981E-15
 -1      2833 8.26015E-03 2.03350E-03-1.31682E-15
 -1      2834 8.81140E-03 2.28834E-03-1.56307E-15
 -1      2835 8.66737E-03 2.22617E-03-1.42410E-15
 -1      2836 8.54723E-03 2.15865E-03-1.58456E-15
 -1      2837 9.09899E-03 2.41188E-03-1.85407E-15
 -1      2838 8.95525E-03 2.35025E-03-1.70603E-15
 -1      2839 8.83415E-03 2.28279E-03-1.87067E-15
 -1      2840 9.38608E-03 2.53438E-03-2.16111E-15
 -1      2841 9.24258E-03 2.47325E-03-2.00615E-15
 -1      2842 9.12085E-03 2.40590E-03-2.17309E-15
 -1      2843 9.67279E-03 2.65596E-03-2.47781E-15
 -1      2844 9.52948E-03 2.59528E-03-2.31900E-15
 -1      2845 9.40735E-03 2.52805E-03-2.49070E-15
 -1      2846 9.95920E-03 2.77674E-03-2.79913E-15
 -1      2847 9.81602E-03 2.71644E-03-2.63755E-15
 -1      2848 9.69365E-03 2.64934E-03-2.81483E-15
 -1      2849 1.02454E-02 2.89683E-03-3.12345E-15
 -1      2850 1.01023E-02 2.83686E-03-2.96158E-15
 -1      2851 9.97980E-03 2.76987E-03-3.14408E-15
 -1      2852 1.05314E-02 3.01636E-03-3.44788E-15
 -1      2853 1.03884E-02 2.95666E-03-3.28603E-15
 -1      2854 1.02658E-02 2.88977E-03-3.47403E-15
 -1      2855 1.08173E-02 3.13542E-03-3.76805E-15
 -1      2856 1.06743E-02 3.07594E-03-3.60873E-15
 -1      2857 1.05517E-02 3.00914E-03-3.80459E-15
 -1      2858 1.11031E-02 3.25411E-03-4.08407E-15
 -1      2859 1.09602E-02 3.19481E-03-3.92740E-15
 -1      2860 1.08376E-02 3.12807E-03-4.12882E-15
 -1      2861 1.13888E-02 3.37251E-03-4.39588E-15
 -1      2862 1.12459E-02 3.31334E-03-4.23912E-15
 -1      2863 1.11234E-02 3.24667E-03-4.44714E-15
 -1      2864 1.16745E-02 3.49068E-03-4.70720E-15
 -1      2865 1.15317E-02 3.43162E-03-4.55194E-15
 -1      2866 1.14091E-02 3.36499E-03-4.76343E-15
 -1      2867 1.19602E-02 3.60867E-03-5.02867E-15
 -1      2868 1.18174E-02 3.54970E-03-4.86548E-15
 -1      2869 1.16948E-02 3.48310E-03-5.08298E-15
 -1      2870 1.22459E-02 3.72653E-03-5.35485E-15
 -1      2871 1.21031E-02 3.66762E-03-5.19196E-15
 -1      2872 1.19806E-02 3.60105E-03-5.40948E-15
 -1      2873 1.25316E-02 3.84430E-03-5.69197E-15
 -1      2874 1.23887E-02 3.78543E-03-5.52068E-15
 -1      2875 1.22663E-02 3.71888E-03-5.74627E-15
 -1      2876 1.28172E-02 3.96199E-03-6.04104E-15
 -1      2877 1.26744E-02 3.90315E-03-5.86425E-15
 -1      2878 1.25520E-02 3.83662E-03-6.09087E-15
 -1      2879 1.31029E-02 4.07963E-03-6.39654E-15
 -1      2880 1.29601E-02 4.02081E-03-6.21763E-15
 -1      2881 1.28377E-02 3.95429E-03-6.44798E-15
 -1      2882 1.33886E-02 4.19724E-03-6.76648E-15
 -1      2883 1.32458E-02 4.13844E-03-6.58130E-15
 -1      2884 1.31234E-02 4.07192E-03-6.81573E-15
 -1      2885 1.36743E-02 4.31482E-03-7.13963E-15
 -1      2886 1.35314E-02 4.25603E-03-6.95116E-15
 -1      2887 1.34091E-02 4.18952E-03-7.19027E-15
 -1      2888 1.39600E-02 4.43239E-03-7.51604E-15
 -1      2889 1.38171E-02 4.37361E-03-7.32843E-15
 -1      2890 1.36948E-02 4.30710E-03-7.56975E-15
 -1      2891 1.42457E-02 4.54995E-03-7.89147E-15
 -1      2892 1.41028E-02 4.49117E-03-7.70426E-15
 -1      2893 1.39805E-02 4.42467E-03-7.95090E-15
 -1      2894 1.45314E-02 4.66751E-03-8.26851E-15
 -1      2895 1.43885E-02 4.60873E-03-8.07988E-15
 -1      2896 1.42662E-02 4.54223E-03-8.33730E-15
 -1      2897 1.48171E-02 4.78508E-03-8.64817E-15
 -1      2898 1.46742E-02 4.72630E-03-8.45548E-15
 -1      2899 1.45519E-02 4.65979E-03-8.72341E-15
 -1      2900 1.50581E-02 4.88009E-03-9.08492E-15
 -1      2901 1.49152E-02 4.82130E-03-8.89130E-15
 -1      2902 1.47928E-02 4.75479E-03-9.16075E-15
 -1      2903 1.49891E-02 4.82724E-03-9.65951E-15
 -1      2904 1.44162E-02 4.41353E-03-1.36425E-14
 -1      2905 1.44740E-02 4.45569E-03-1.32314E-14
 -1      2906 1.49002E-03 4.86025E-04 2.52626E-16
 -1      2907 1.67338E-03 5.68398E-04 2.92199E-16
 -1      2908 1.46474E-02 4.58215E-03-1.19962E-14
 -1      2909 1.47053E-02 4.62431E-03-1.15841E-14
 -1      2910 1.43006E-02 4.32922E-03-1.44712E-14
 -1      2911 1.43584E-02 4.37137E-03-1.40590E-14
 -1      2912 1.42635E-02 4.34154E-03-1.36499E-14
 -1      2913 1.45318E-02 4.49784E-03-1.28188E-14
 -1      2914 1.45896E-02 4.54000E-03-1.24061E-14
 -1      2915 1.44948E-02 4.51017E-03-1.20090E-14
 -1      2916 1.43792E-02 4.42586E-03-1.28282E-14
 -1      2917 1.41869E-02 4.24633E-03-1.52890E-14
 -1      2918 1.42437E-02 4.28777E-03-1.48786E-14
 -1      2919 1.41489E-02 4.25794E-03-1.44672E-14
 -1      2920 1.40713E-02 4.16202E-03-1.61268E-14
 -1      2921 1.41291E-02 4.20418E-03-1.57083E-14
 -1      2922 1.40343E-02 4.17434E-03-1.52881E-14
 -1      2923 1.39558E-02 4.07772E-03-1.69649E-14
 -1      2924 1.40135E-02 4.11987E-03-1.65440E-14
 -1      2925 1.39187E-02 4.09004E-03-1.61212E-14
 -1      2926 5.69908E-03 8.81004E-04-4.88907E-17
 -1      2927 5.77198E-03 8.70963E-04-1.97538E-16
 -1      2928 1.52320E-03 4.67277E-04 2.87327E-16
 -1      2929 1.35722E-03 3.93850E-04 2.51698E-16
 -1      2930 1.18288E-03 3.21556E-04 2.06961E-16
 -1      2931 2.12769E-03-8.19431E-05-3.25274E-16
 -1      2932 1.95189E-03 5.71945E-06-2.69465E-16
 -1      2933 3.43533E-03-2.49476E-04-9.01243E-16
 -1      2934 3.33147E-03-2.99840E-04-8.60260E-16
 -1      2935 1.73954E-03 1.00641E-04-2.08302E-16
 -1      2936 1.55764E-03 1.76475E-04-1.59215E-16
 -1      2937 1.37536E-03 2.37262E-04-1.13143E-16
 -1      2938 1.22728E-03 2.76152E-04-7.53385E-17
 -1      2939 5.88499E-03 1.13645E-03 3.96289E-16
 -1      2940 5.72703E-03 1.11689E-03 4.46366E-16
 -1      2941 5.98701E-03 1.11138E-03 2.18616E-16
 -1      2942 5.56229E-03 1.10904E-03 4.89734E-16
 -1      2943 5.38852E-03 1.12029E-03 5.27613E-16
 -1      2944 5.69422E-03 1.06062E-03 3.26264E-16
 -1      2945 5.78602E-03 8.62122E-04-3.74050E-16
 -1      2946 5.74689E-03 8.56453E-04-4.86360E-16
 -1      2947 5.81052E-04 1.45790E-04 4.27040E-17
 -1      2948 5.75211E-04 1.47495E-04 2.79724E-17
 -1      2949 6.53010E-04 1.75295E-04 2.28089E-17
 -1      2950 6.64925E-04 1.73043E-04 5.87231E-17
 -1      2951 1.84700E-03 6.44401E-04 3.45115E-16
 -1      2952 1.66228E-03 5.35620E-04 3.10502E-16
 -1      2953 7.99814E-04-2.48243E-05-1.06577E-16
 -1      2954 8.18336E-04-6.18922E-05-1.22745E-16
 -1      2955 1.08208E-03 3.12398E-04-3.12657E-17
 -1      2956 9.92743E-04 3.24766E-04 1.69407E-18
 -1      2957 1.36693E-02 3.89881E-03-1.81979E-14
 -1      2958 1.37647E-02 3.93772E-03-1.83803E-14
 -1      2959 1.36487E-02 3.90654E-03-1.76962E-14
 -1      2960 2.89585E-03 1.39409E-03 6.06028E-16
 -1      2961 1.38396E-02 3.98435E-03-1.80603E-14
 -1      2962 5.65663E-03 8.37167E-04-5.92222E-16
 -1      2963 5.55069E-03 8.16208E-04-6.74838E-16
 -1      2964 1.16161E-03 3.70164E-04 1.75817E-16
 -1      2965 1.31381E-03 4.17582E-04 2.12978E-16
 -1      2966 1.38087E-03 4.28825E-04 2.31891E-16
 -1      2967 3.80971E-03-2.81585E-05-1.01260E-15
 -1      2968 3.61761E-03-1.49775E-04-9.56375E-16
 -1      2969 3.53746E-03-1.93800E-04-1.01819E-15
 -1      2970 8.29210E-04 2.04842E-04 1.34360E-16
 -1      2971 2.49932E-03-2.61782E-04-4.65733E-16
 -1      2972 2.32630E-03-1.78766E-04-3.95815E-16
 -1      2973 2.82763E-03-3.67241E-04-6.12439E-16
 -1      2974 2.68425E-03-3.30192E-04-5.45435E-16
 -1      2975 5.47967E-03 9.48261E-04 1.95129E-16
 -1      2976 5.59652E-03 9.07662E-04 8.22503E-17
 -1      2977 8.62761E-04-2.55928E-04-1.98517E-16
 -1      2978 1.00675E-03-3.01281E-04-2.52443E-16
 -1      2979 1.07635E-03-2.82677E-04-2.64952E-16
 -1      2980 8.51174E-04-2.21983E-04-1.84816E-16
 -1      2981 4.27604E-03 2.64612E-04-1.03564E-15
 -1      2982 4.05933E-03 1.28807E-04-1.04106E-15
 -1      2983 7.77062E-04 1.24969E-04-4.89788E-17
 -1      2984 6.89313E-04 1.00001E-04-4.44252E-17
 -1      2985 7.21231E-04 7.43017E-05-5.97666E-17
 -1      2986 9.30009E-04 3.10166E-04 2.25988E-17
 -1      2987 8.33342E-04-9.99346E-05-1.38737E-16
 -1      2988 8.45616E-04-1.38268E-04-1.54729E-16
 -1      2989 9.58711E-04-9.93192E-05-1.63538E-16
 -1      2990 8.38729E-04 2.01232E-04 1.32422E-16
 -1      2991 9.14832E-04 2.26023E-04 1.44605E-16
 -1      2992 5.49719E-03 8.10707E-04-7.95344E-16
 -1      2993 5.33093E-03 1.09717E-03 4.77157E-16
 -1      2994 5.02326E-03 6.47467E-04-9.35348E-16
 -1      2995 4.85243E-03 5.72813E-04-9.67108E-16
 -1      2996 5.15638E-03 7.01169E-04-9.76663E-16
 -1      2997 1.80824E-03 4.26610E-05-2.42590E-16
 -1      2998 1.49318E-02 4.78545E-03-1.00767E-14
 -1      2999 1.48336E-02 4.74923E-03-9.82036E-15
 -1      3000 1.48744E-02 4.74366E-03-1.04866E-14
 -1      3001 5.14635E-03 1.09813E-03 4.39793E-16
 -1      3002 5.31492E-03 1.01912E-03 3.31088E-16
 -1      3003 5.43928E-03 9.96084E-04 2.83573E-16
 -1      3004 1.44778E-03 4.35516E-04 2.57620E-16
 -1      3005 5.83274E-03 9.05130E-04-2.35238E-16
 -1      3006 5.81579E-03 8.82328E-04-3.05806E-16
 -1      3007 5.84730E-03 8.98194E-04-4.18516E-16
 -1      3008 5.69099E-03 9.10645E-04 9.15473E-18
 -1      3009 1.38974E-02 4.02650E-03-1.76402E-14
 -1      3010 4.44259E-03 3.61046E-04-1.01014E-15
 -1      3011 4.34393E-03 3.02828E-04-1.11753E-15
 -1      3012 4.61787E-03 4.56206E-04-9.82612E-16
 -1      3013 2.19938E-03-1.42555E-04-3.73941E-16
 -1      3014 3.22537E-03-3.37907E-04-8.59718E-16
 -1      3015 2.97963E-03-3.86616E-04-7.63427E-16
 -1      3016 2.90859E-03-3.82368E-04-6.85921E-16
 -1      3017 2.81286E-03-3.80299E-04-6.83359E-16
 -1      3018 1.43273E-03 1.88454E-04-1.38534E-16
 -1      3019 7.51095E-04 4.40964E-05-7.48371E-17
 -1      3020 7.77376E-04 1.08682E-05-9.06122E-17
 -1      3021 9.16720E-04-1.53190E-05-1.24290E-16
 -1      3022 8.54910E-04 6.23258E-05-8.59772E-17
 -1      3023 1.12329E-03 2.77599E-04-5.35054E-17
 -1      3024 3.94614E-03 5.56718E-05-1.10999E-15
 -1      3025 1.47612E-02 4.66309E-03-1.12413E-14
 -1      3026 1.48185E-02 4.70488E-03-1.08339E-14
 -1      3027 1.47204E-02 4.66866E-03-1.05778E-14
 -1      3028 1.46085E-02 4.59110E-03-1.12603E-14
 -1      3029 5.72763E-03 8.62704E-04-5.96620E-16
 -1      3030 5.04655E-03 1.15617E-03 5.11608E-16
 -1      3031 1.06662E-03 3.29299E-04 1.51754E-16
 -1      3032 2.56247E-03-3.03484E-04-5.26258E-16
 -1      3033 1.37256E-02 3.95160E-03-1.74509E-14
 -1      3034 1.38788E-02 4.03265E-03-1.72115E-14
 -1      3035 1.37840E-02 4.00282E-03-1.67808E-14
 -1      3036 1.36302E-02 3.91269E-03-1.72690E-14
 -1      3037 1.98538E-03 7.28718E-04 3.69889E-16
 -1      3038 8.65789E-04 2.17620E-04 1.24100E-16
 -1      3039 8.00211E-04 2.05978E-04 1.00817E-16
 -1      3040 1.07600E-03 2.82588E-04 1.79463E-16
 -1      3041 9.49219E-04 2.40577E-04 1.46367E-16
 -1      3042 1.00079E-03 2.66637E-04 1.52161E-16
 -1      3043 1.21041E-03 3.34850E-04 2.07191E-16
 -1      3044 1.38817E-02 4.10236E-03-1.52862E-14
 -1      3045 1.39395E-02 4.14451E-03-1.48713E-14
 -1      3046 8.43100E-04-1.63594E-04-1.63078E-16
 -1      3047 8.54541E-04-1.96859E-04-1.77213E-16
 -1      3048 9.66508E-04-2.25304E-04-2.13845E-16
 -1      3049 9.72151E-04-1.70150E-04-1.93828E-16
 -1      3050 1.37661E-02 4.01805E-03-1.61135E-14
 -1      3051 1.38239E-02 4.06020E-03-1.56998E-14
 -1      3052 1.37291E-02 4.03037E-03-1.52824E-14
 -1      3053 1.26241E-03-2.90103E-04-3.19541E-16
 -1      3054 1.42369E-03-3.25561E-04-3.85109E-16
 -1      3055 1.58613E-03-3.60660E-04-4.56205E-16
 -1      3056 1.74872E-03-3.94773E-04-5.32736E-16
 -1      3057 1.49923E-03-2.99254E-04-3.90001E-16
 -1      3058 1.91104E-03-4.27389E-04-6.14607E-16
 -1      3059 2.07209E-03-4.56767E-04-7.02265E-16
 -1      3060 1.83003E-03-3.68557E-04-5.33970E-16
 -1      3061 2.23138E-03-4.81865E-04-7.95777E-16
 -1      3062 2.38847E-03-5.00006E-04-8.94236E-16
 -1      3063 2.15924E-03-4.32174E-04-6.99039E-16
 -1      3064 2.54274E-03-5.09914E-04-9.98198E-16
 -1      3065 2.69543E-03-5.08901E-04-1.10724E-15
 -1      3066 2.48005E-03-4.75246E-04-8.85807E-16
 -1      3067 2.84603E-03-4.96013E-04-1.22211E-15
 -1      3068 2.99664E-03-4.70057E-04-1.34307E-15
 -1      3069 2.79048E-03-4.78204E-04-1.09392E-15
 -1      3070 3.14730E-03-4.31187E-04-1.46847E-15
 -1      3071 3.29951E-03-3.80596E-04-1.59882E-15
 -1      3072 3.09653E-03-4.26021E-04-1.32416E-15
 -1      3073 3.45307E-03-3.19752E-04-1.73467E-15
 -1      3074 3.60929E-03-2.51200E-04-1.87471E-15
 -1      3075 3.40633E-03-3.19845E-04-1.57531E-15
 -1      3076 3.76753E-03-1.76563E-04-2.01897E-15
 -1      3077 3.92741E-03-9.89256E-05-2.16801E-15
 -1      3078 3.72569E-03-1.75121E-04-1.84531E-15
 -1      3079 4.08847E-03-1.96092E-05-2.32114E-15
 -1      3080 4.24974E-03 5.95132E-05-2.47758E-15
 -1      3081 4.05320E-03-1.37601E-05-2.13276E-15
 -1      3082 4.41095E-03 1.37592E-04-2.63811E-15
 -1      3083 4.57109E-03 2.13818E-04-2.80255E-15
 -1      3084 4.38262E-03 1.47253E-04-2.43622E-15
 -1      3085 4.73021E-03 2.87795E-04-2.97048E-15
 -1      3086 4.88763E-03 3.59472E-04-3.14226E-15
 -1      3087 4.70793E-03 2.99597E-04-2.75439E-15
 -1      3088 5.04357E-03 4.28732E-04-3.31647E-15
 -1      3089 5.19769E-03 4.95866E-04-3.49430E-15
 -1      3090 5.02570E-03 4.41091E-04-3.08690E-15
 -1      3091 5.35029E-03 5.60911E-04-3.67702E-15
 -1      3092 5.50129E-03 6.24250E-04-3.86263E-15
 -1      3093 5.33511E-03 5.72846E-04-3.43300E-15
 -1      3094 5.65097E-03 6.85985E-04-4.05219E-15
 -1      3095 5.79938E-03 7.46466E-04-4.24588E-15
 -1      3096 5.63703E-03 6.97093E-04-3.79582E-15
 -1      3097 5.94676E-03 8.05818E-04-4.44366E-15
 -1      3098 6.09321E-03 8.64317E-04-4.64521E-15
 -1      3099 5.93302E-03 8.16058E-04-4.17450E-15
 -1      3100 6.23891E-03 9.22086E-04-4.84904E-15
 -1      3101 6.38397E-03 9.79325E-04-5.05561E-15
 -1      3102 6.22471E-03 9.31590E-04-4.56769E-15
 -1      3103 6.52852E-03 1.03614E-03-5.26461E-15
 -1      3104 6.67266E-03 1.09268E-03-5.47751E-15
 -1      3105 6.51351E-03 1.04509E-03-4.97237E-15
 -1      3106 6.81646E-03 1.14901E-03-5.69262E-15
 -1      3107 6.96001E-03 1.20524E-03-5.90860E-15
 -1      3108 6.80050E-03 1.15758E-03-5.38892E-15
 -1      3109 7.10335E-03 1.26142E-03-6.12764E-15
 -1      3110 7.24655E-03 1.31762E-03-6.34872E-15
 -1      3111 7.08645E-03 1.26973E-03-5.81361E-15
 -1      3112 7.38963E-03 1.37387E-03-6.57196E-15
 -1      3113 7.53263E-03 1.43020E-03-6.79732E-15
 -1      3114 7.37186E-03 1.38201E-03-6.24769E-15
 -1      3115 7.67556E-03 1.48665E-03-7.02391E-15
 -1      3116 7.81846E-03 1.54322E-03-7.25142E-15
 -1      3117 7.65705E-03 1.49470E-03-6.69025E-15
 -1      3118 7.96132E-03 1.59994E-03-7.48021E-15
 -1      3119 8.10417E-03 1.65681E-03-7.71269E-15
 -1      3120 7.94221E-03 1.60793E-03-7.13912E-15
 -1      3121 8.24701E-03 1.71382E-03-7.94559E-15
 -1      3122 8.38984E-03 1.77098E-03-8.17722E-15
 -1      3123 8.22742E-03 1.72176E-03-7.59396E-15
 -1      3124 8.53267E-03 1.82829E-03-8.41105E-15
 -1      3125 8.67551E-03 1.88573E-03-8.64803E-15
 -1      3126 8.51273E-03 1.83620E-03-8.05288E-15
 -1      3127 8.81835E-03 1.94332E-03-8.88574E-15
 -1      3128 8.96119E-03 2.00102E-03-9.12469E-15
 -1      3129 8.79814E-03 1.95120E-03-8.51726E-15
 -1      3130 9.10403E-03 2.05885E-03-9.36356E-15
 -1      3131 9.24688E-03 2.11678E-03-9.60328E-15
 -1      3132 9.08364E-03 2.06671E-03-8.98630E-15
 -1      3133 9.38973E-03 2.17481E-03-9.84423E-15
 -1      3134 9.53259E-03 2.23294E-03-1.00849E-14
 -1      3135 9.36922E-03 2.18266E-03-9.45809E-15
 -1      3136 9.67545E-03 2.29115E-03-1.03255E-14
 -1      3137 9.81831E-03 2.34943E-03-1.05679E-14
 -1      3138 9.65486E-03 2.29898E-03-9.93343E-15
 -1      3139 9.96117E-03 2.40779E-03-1.08098E-14
 -1      3140 1.01040E-02 2.46620E-03-1.10531E-14
 -1      3141 9.94055E-03 2.41560E-03-1.04089E-14
 -1      3142 1.02469E-02 2.52467E-03-1.12970E-14
 -1      3143 1.03898E-02 2.58318E-03-1.15430E-14
 -1      3144 1.02263E-02 2.53246E-03-1.08856E-14
 -1      3145 1.05326E-02 2.64174E-03-1.17895E-14
 -1      3146 1.06755E-02 2.70033E-03-1.20364E-14
 -1      3147 1.05120E-02 2.64952E-03-1.13697E-14
 -1      3148 1.08184E-02 2.75896E-03-1.22843E-14
 -1      3149 1.09612E-02 2.81761E-03-1.25318E-14
 -1      3150 1.07977E-02 2.76673E-03-1.18571E-14
 -1      3151 1.11041E-02 2.87629E-03-1.27789E-14
 -1      3152 1.12470E-02 2.93499E-03-1.30227E-14
 -1      3153 1.10835E-02 2.88405E-03-1.23440E-14
 -1      3154 1.13898E-02 2.99371E-03-1.32663E-14
 -1      3155 1.15327E-02 3.05244E-03-1.35091E-14
 -1      3156 1.13692E-02 3.00146E-03-1.28247E-14
 -1      3157 1.16756E-02 3.11118E-03-1.37511E-14
 -1      3158 1.18184E-02 3.16994E-03-1.39953E-14
 -1      3159 1.16550E-02 3.11893E-03-1.33020E-14
 -1      3160 1.19613E-02 3.22870E-03-1.42416E-14
 -1      3161 1.21042E-02 3.28747E-03-1.44865E-14
 -1      3162 1.19407E-02 3.23644E-03-1.37846E-14
 -1      3163 1.22470E-02 3.34625E-03-1.47353E-14
 -1      3164 1.23899E-02 3.40503E-03-1.49858E-14
 -1      3165 1.22264E-02 3.35398E-03-1.42710E-14
 -1      3166 1.25327E-02 3.46382E-03-1.52363E-14
 -1      3167 1.26756E-02 3.52261E-03-1.54886E-14
 -1      3168 1.25122E-02 3.47155E-03-1.47650E-14
 -1      3169 1.28185E-02 3.58140E-03-1.57433E-14
 -1      3170 1.29613E-02 3.64019E-03-1.59989E-14
 -1      3171 1.27979E-02 3.58912E-03-1.52643E-14
 -1      3172 1.31042E-02 3.69898E-03-1.62524E-14
 -1      3173 1.32470E-02 3.75777E-03-1.65057E-14
 -1      3174 1.30836E-02 3.70670E-03-1.57661E-14
 -1      3175 1.33672E-02 3.80584E-03-1.67584E-14
 -1      3176 1.35101E-02 3.86463E-03-1.70143E-14
 -1      3177 1.35870E-02 3.90969E-03-1.67714E-14
 -1      3178 1.33467E-02 3.81356E-03-1.62693E-14
 -1      3179 6.87722E-03 1.40802E-03-4.42598E-16
 -1      3180 6.74052E-03 1.34944E-03-3.51010E-16
 -1      3181 1.86221E-03-2.00453E-05-2.81662E-16
 -1      3182 1.67449E-03 6.19777E-05-2.21801E-16
 -1      3183 5.29998E-03 7.55464E-04-1.03765E-15
 -1      3184 5.11144E-03 6.83587E-04-1.12975E-15
 -1      3185 8.69376E-04 2.84129E-04 6.74916E-17
 -1      3186 8.92013E-04 2.79547E-04 9.23672E-17
 -1      3187 7.66013E-04 1.94594E-04-7.85369E-18
 -1      3188 8.08617E-04 1.78603E-04-2.94496E-17
 -1      3189 4.72888E-03 5.12418E-04-1.07993E-15
 -1      3190 6.60535E-03 1.29290E-03-2.63570E-16
 -1      3191 6.47127E-03 1.23855E-03-1.82105E-16
 -1      3192 6.65416E-03 1.29315E-03-4.80044E-16
 -1      3193 6.33891E-03 1.18734E-03-1.04626E-16
 -1      3194 6.20725E-03 1.13968E-03-3.21330E-17
 -1      3195 6.39820E-03 1.18568E-03-3.06382E-16
 -1      3196 7.15378E-03 1.52895E-03-6.40669E-16
 -1      3197 7.01490E-03 1.46789E-03-5.38510E-16
 -1      3198 6.91860E-03 1.40847E-03-6.72354E-16
 -1      3199 7.43386E-03 1.65302E-03-8.56859E-16
 -1      3200 7.29339E-03 1.59068E-03-7.46609E-16
 -1      3201 7.18967E-03 1.52877E-03-8.84140E-16
 -1      3202 7.71636E-03 1.77845E-03-1.09218E-15
 -1      3203 7.57482E-03 1.71562E-03-9.72977E-16
 -1      3204 7.46563E-03 1.65189E-03-1.11380E-15
 -1      3205 8.00041E-03 1.90411E-03-1.34120E-15
 -1      3206 7.85820E-03 1.84128E-03-1.21386E-15
 -1      3207 7.74501E-03 1.77630E-03-1.35973E-15
 -1      3208 8.28541E-03 2.02935E-03-1.60446E-15
 -1      3209 8.14279E-03 1.96680E-03-1.47163E-15
 -1      3210 8.02672E-03 1.90101E-03-1.62141E-15
 -1      3211 8.57093E-03 2.15383E-03-1.88629E-15
 -1      3212 8.42810E-03 2.09169E-03-1.74304E-15
 -1      3213 8.30996E-03 2.02539E-03-1.89779E-15
 -1      3214 8.85673E-03 2.27739E-03-2.18320E-15
 -1      3215 8.71380E-03 2.21573E-03-2.03200E-15
 -1      3216 8.59420E-03 2.14914E-03-2.19079E-15
 -1      3217 9.14265E-03 2.40003E-03-2.49675E-15
 -1      3218 8.99967E-03 2.33883E-03-2.33815E-15
 -1      3219 8.87906E-03 2.27209E-03-2.50063E-15
 -1      3220 9.42860E-03 2.52179E-03-2.82471E-15
 -1      3221 9.28562E-03 2.46101E-03-2.65968E-15
 -1      3222 9.16430E-03 2.39421E-03-2.82562E-15
 -1      3223 9.71454E-03 2.64275E-03-3.15481E-15
 -1      3224 9.57157E-03 2.58236E-03-2.98909E-15
 -1      3225 9.44978E-03 2.51555E-03-3.15981E-15
 -1      3226 1.00004E-02 2.76302E-03-3.48967E-15
 -1      3227 9.85749E-03 2.70297E-03-3.32210E-15
 -1      3228 9.73540E-03 2.63617E-03-3.49765E-15
 -1      3229 1.02863E-02 2.88271E-03-3.82689E-15
 -1      3230 1.01434E-02 2.82293E-03-3.65920E-15
 -1      3231 1.00211E-02 2.75617E-03-3.83995E-15
 -1      3232 1.05721E-02 3.00191E-03-4.15927E-15
 -1      3233 1.04292E-02 2.94237E-03-3.99335E-15
 -1      3234 1.03068E-02 2.87564E-03-4.18097E-15
 -1      3235 1.08579E-02 3.12072E-03-4.49029E-15
 -1      3236 1.07150E-02 3.06136E-03-4.32578E-15
 -1      3237 1.05926E-02 2.99468E-03-4.51951E-15
 -1      3238 1.11437E-02 3.23921E-03-4.81300E-15
 -1      3239 1.10008E-02 3.18000E-03-4.65189E-15
 -1      3240 1.08783E-02 3.11335E-03-4.85267E-15
 -1      3241 1.14295E-02 3.35746E-03-5.13429E-15
 -1      3242 1.12866E-02 3.29836E-03-4.97294E-15
 -1      3243 1.11641E-02 3.23174E-03-5.18024E-15
 -1      3244 1.17152E-02 3.47551E-03-5.46106E-15
 -1      3245 1.15723E-02 3.41650E-03-5.29762E-15
 -1      3246 1.14498E-02 3.34991E-03-5.50925E-15
 -1      3247 1.20009E-02 3.59341E-03-5.79751E-15
 -1      3248 1.18581E-02 3.53448E-03-5.62767E-15
 -1      3249 1.17356E-02 3.46790E-03-5.84373E-15
 -1      3250 1.22867E-02 3.71121E-03-6.14112E-15
 -1      3251 1.21438E-02 3.65232E-03-5.96821E-15
 -1      3252 1.20213E-02 3.58577E-03-6.18802E-15
 -1      3253 1.25724E-02 3.82893E-03-6.49693E-15
 -1      3254 1.24295E-02 3.77008E-03-6.31712E-15
 -1      3255 1.23071E-02 3.70354E-03-6.54220E-15
 -1      3256 1.28581E-02 3.94659E-03-6.86174E-15
 -1      3257 1.27152E-02 3.88776E-03-6.67753E-15
 -1      3258 1.25928E-02 3.82123E-03-6.90394E-15
 -1      3259 1.31438E-02 4.06420E-03-7.23729E-15
 -1      3260 1.30009E-02 4.00540E-03-7.04887E-15
 -1      3261 1.28785E-02 3.93888E-03-7.28053E-15
 -1      3262 1.34295E-02 4.18180E-03-7.61512E-15
 -1      3263 1.32867E-02 4.12300E-03-7.42590E-15
 -1      3264 1.31643E-02 4.05648E-03-7.66067E-15
 -1      3265 1.37152E-02 4.29937E-03-8.00213E-15
 -1      3266 1.35724E-02 4.24059E-03-7.80930E-15
 -1      3267 1.34500E-02 4.17407E-03-8.04624E-15
 -1      3268 1.40009E-02 4.41694E-03-8.38980E-15
 -1      3269 1.38581E-02 4.35816E-03-8.19557E-15
 -1      3270 1.37357E-02 4.29164E-03-8.43656E-15
 -1      3271 1.42866E-02 4.53450E-03-8.78654E-15
 -1      3272 1.41438E-02 4.47572E-03-8.58707E-15
 -1      3273 1.40214E-02 4.40921E-03-8.83473E-15
 -1      3274 1.45724E-02 4.65206E-03-9.17701E-15
 -1      3275 1.44295E-02 4.59328E-03-8.98039E-15
 -1      3276 1.43071E-02 4.52677E-03-9.23480E-15
 -1      3277 1.47521E-02 4.71875E-03-9.62204E-15
 -1      3278 1.46539E-02 4.68253E-03-9.37394E-15
 -1      3279 1.45316E-02 4.61602E-03-9.63268E-15
 -1      3280 1.46947E-02 4.67696E-03-1.00303E-14
 -1      3281 5.19013E-03 1.11985E-03 4.96266E-16
 -1      3282 3.61899E-03-1.49822E-04-1.14801E-15
 -1      3283 3.45342E-03-2.41856E-04-1.08481E-15
 -1      3284 5.79123E-03 8.85396E-04-6.11673E-16
 -1      3285 5.70024E-03 8.66992E-04-7.22289E-16
 -1      3286 1.41109E-02 4.26955E-03-1.36549E-14
 -1      3287 1.41687E-02 4.31171E-03-1.32459E-14
 -1      3288 9.22016E-04 2.85949E-04 5.70561E-18
 -1      3289 8.76121E-04 2.86720E-04 3.82994E-17
 -1      3290 5.81349E-03 1.02863E-03 1.60042E-16
 -1      3291 5.67682E-03 1.00737E-03 2.14225E-16
 -1      3292 5.68962E-03 9.54695E-04 9.77205E-17
 -1      3293 5.77995E-03 9.34694E-04-4.11929E-17
 -1      3294 1.39968E-02 4.18631E-03-1.44624E-14
 -1      3295 1.40536E-02 4.22775E-03-1.40613E-14
 -1      3296 1.39588E-02 4.19792E-03-1.36542E-14
 -1      3297 1.38442E-02 4.11432E-03-1.44639E-14
 -1      3298 2.24603E-03-1.98078E-04-4.25048E-16
 -1      3299 2.06909E-03-1.12612E-04-3.53572E-16
 -1      3300 9.41014E-04 2.72708E-04 1.23538E-16
 -1      3301 1.06373E-03 3.00386E-04 1.60049E-16
 -1      3302 5.58958E-03 8.41276E-04-8.30628E-16
 -1      3303 5.46135E-03 8.07620E-04-9.23137E-16
 -1      3304 4.07690E-03 1.30966E-04-1.25346E-15
 -1      3305 3.85143E-03-1.14295E-05-1.21740E-15
 -1      3306 1.29314E-03 3.75298E-04 2.19964E-16
 -1      3307 1.47849E-03 1.36480E-04-1.65043E-16
 -1      3308 1.31758E-03 1.87925E-04-1.21824E-16
 -1      3309 6.07696E-03 1.09652E-03 3.56160E-17
 -1      3310 5.94574E-03 1.05907E-03 9.95569E-17
 -1      3311 6.15188E-03 1.08962E-03-1.51599E-16
 -1      3312 1.13989E-03 2.42577E-04-7.05341E-17
 -1      3313 1.01694E-03 2.71354E-04-3.22957E-17
 -1      3314 2.60980E-03-3.43629E-04-6.01082E-16
 -1      3315 2.44316E-03-2.84177E-04-5.17801E-16
 -1      3316 3.24268E-03-3.31796E-04-9.60278E-16
 -1      3317 3.10452E-03-3.72271E-04-8.61033E-16
 -1      3318 5.91341E-03 1.00978E-03-1.34373E-17
 -1      3319 1.08572E-03-9.63759E-05-1.88109E-16
 -1      3320 1.10339E-03-1.43076E-04-2.11501E-16
 -1      3321 7.70053E-04 2.16824E-04 1.17094E-17
 -1      3322 8.61870E-04 2.39976E-04-3.81504E-18
 -1      3323 8.33926E-04 2.62551E-04 4.80031E-17
 -1      3324 1.92004E-03-8.28133E-05-3.24339E-16
 -1      3325 1.53603E-03 7.66247E-05-1.96837E-16
 -1      3326 5.09349E-03 6.66299E-04-1.29242E-15
 -1      3327 4.92900E-03 6.02015E-04-1.22348E-15
 -1      3328 8.65907E-04 2.48161E-04 1.02362E-16
 -1      3329 9.31433E-04 1.85971E-04-5.12421E-17
 -1      3330 8.58118E-04 1.54142E-04-5.11608E-17
 -1      3331 9.07547E-04 1.22601E-04-7.32921E-17
 -1      3332 4.72100E-03 5.01726E-04-1.23649E-15
 -1      3333 2.69022E-03-3.73942E-04-6.70945E-16
 -1      3334 2.56906E-03-3.64714E-04-6.56512E-16
 -1      3335 2.76230E-03-3.94796E-04-7.44318E-16
 -1      3336 5.85693E-03 9.06622E-04-5.42609E-16
 -1      3337 5.85561E-03 9.14333E-04-6.70945E-16
 -1      3338 5.90784E-03 9.27702E-04-4.71770E-16
 -1      3339 2.30827E-03-2.56696E-04-4.89450E-16
 -1      3340 1.43422E-02 4.43818E-03-1.20213E-14
 -1      3341 1.44000E-02 4.48034E-03-1.16162E-14
 -1      3342 3.75392E-03-7.94985E-05-1.28986E-15
 -1      3343 5.67945E-03 8.69028E-04-8.51343E-16
 -1      3344 9.25024E-04 2.59358E-04-1.20075E-17
 -1      3345 1.40739E-02 4.28188E-03-1.28447E-14
 -1      3346 1.42265E-02 4.35387E-03-1.28374E-14
 -1      3347 1.42843E-02 4.39603E-03-1.24288E-14
 -1      3348 5.85596E-03 9.42304E-04-1.48854E-16
 -1      3349 5.55234E-03 9.95295E-04 2.55323E-16
 -1      3350 5.41836E-03 7.94201E-04-1.07959E-15
 -1      3351 3.00787E-03-3.89957E-04-8.55286E-16
 -1      3352 7.51804E-04 2.19986E-04 3.47622E-17
 -1      3353 1.44559E-02 4.51912E-03-1.12780E-14
 -1      3354 1.45118E-02 4.55790E-03-1.09384E-14
 -1      3355 1.43033E-02 4.44713E-03-1.12928E-14
 -1      3356 3.32933E-03-3.00942E-04-1.08333E-15
 -1      3357 1.06287E-03-4.92559E-05-1.64948E-16
 -1      3358 1.21390E-03-9.09400E-05-2.12300E-16
 -1      3359 1.03393E-03-2.99582E-06-1.41421E-16
 -1      3360 7.74195E-04 2.14850E-04 7.92416E-17
 -1      3361 4.28538E-03 2.55588E-04-1.29168E-15
 -1      3362 4.17920E-03 1.76052E-04-1.40697E-15
 -1      3363 1.17048E-03 3.32777E-04 1.88800E-16
 -1      3364 7.48205E-04 2.15115E-04 5.59448E-17
 -1      3365 1.18125E-03 2.00304E-04-9.30584E-17
 -1      3366 4.42767E-03 3.42315E-04-1.26894E-15
 -1      3367 1.36381E-02 3.94134E-03-1.65640E-14
 -1      3368 1.37150E-02 3.98640E-03-1.63216E-14
 -1      3369 1.36202E-02 3.95656E-03-1.59007E-14
 -1      3370 1.35179E-02 3.89327E-03-1.63135E-14
 -1      3371 1.07981E-03-2.53970E-04-2.53893E-16
 -1      3372 1.15075E-03-2.31338E-04-2.62092E-16
 -1      3373 9.46679E-04 2.26562E-04-3.60633E-17
 -1      3374 1.15333E-03-2.00767E-04-2.48702E-16
 -1      3375 1.40878E-03-2.37073E-04-3.29516E-16
 -1      3376 1.57530E-03-2.70826E-04-3.91763E-16
 -1      3377 1.74400E-03-3.06002E-04-4.58699E-16
 -1      3378 1.91301E-03-3.41557E-04-5.30731E-16
 -1      3379 1.65132E-03-2.40816E-04-3.89188E-16
 -1      3380 2.08209E-03-3.76763E-04-6.08386E-16
 -1      3381 2.24919E-03-4.08559E-04-6.91125E-16
 -1      3382 1.99687E-03-3.15145E-04-5.23507E-16
 -1      3383 2.47950E-03-4.20604E-04-7.65623E-16
 -1      3384 2.64292E-03-4.37543E-04-8.57008E-16
 -1      3385 3.04313E-03-4.22101E-04-1.18488E-15
 -1      3386 3.19951E-03-3.79676E-04-1.30054E-15
 -1      3387 3.38321E-03-2.97064E-04-1.33671E-15
 -1      3388 3.54843E-03-2.23180E-04-1.45755E-15
 -1      3389 4.01690E-03-7.69936E-06-1.95011E-15
 -1      3390 4.18558E-03 7.61858E-05-2.09275E-15
 -1      3391 4.35442E-03 1.58417E-04-2.23956E-15
 -1      3392 4.52133E-03 2.37544E-04-2.38966E-15
 -1      3393 4.32661E-03 1.70300E-04-2.04837E-15
 -1      3394 4.68658E-03 3.13333E-04-2.54334E-15
 -1      3395 4.84906E-03 3.85932E-04-2.70096E-15
 -1      3396 4.66636E-03 3.28827E-04-2.33872E-15
 -1      3397 5.00917E-03 4.55288E-04-2.86228E-15
 -1      3398 5.16646E-03 5.22015E-04-3.02669E-15
 -1      3399 4.99421E-03 4.71421E-04-2.64316E-15
 -1      3400 5.32137E-03 5.86214E-04-3.19531E-15
 -1      3401 5.47390E-03 6.48564E-04-3.36795E-15
 -1      3402 5.30930E-03 6.01206E-04-2.96306E-15
 -1      3403 5.62446E-03 7.09165E-04-3.54376E-15
 -1      3404 5.77322E-03 7.68558E-04-3.72425E-15
 -1      3405 5.61346E-03 7.22373E-04-3.29740E-15
 -1      3406 5.92051E-03 8.26842E-04-3.90935E-15
 -1      3407 6.06655E-03 8.84396E-04-4.09827E-15
 -1      3408 5.90938E-03 8.38293E-04-3.64888E-15
 -1      3409 6.21158E-03 9.41310E-04-4.29023E-15
 -1      3410 6.35581E-03 9.97830E-04-4.48572E-15
 -1      3411 6.19962E-03 9.51323E-04-4.01709E-15
 -1      3412 6.49941E-03 1.05403E-03-4.68432E-15
 -1      3413 6.64254E-03 1.11006E-03-4.88508E-15
 -1      3414 6.48628E-03 1.06300E-03-4.40007E-15
 -1      3415 6.78531E-03 1.16599E-03-5.08933E-15
 -1      3416 6.92784E-03 1.22189E-03-5.29615E-15
 -1      3417 6.77091E-03 1.17426E-03-4.79423E-15
 -1      3418 7.07018E-03 1.27782E-03-5.50430E-15
 -1      3419 7.21243E-03 1.33381E-03-5.71478E-15
 -1      3420 7.05456E-03 1.28567E-03-5.19903E-15
 -1      3421 7.35462E-03 1.38991E-03-5.92782E-15
 -1      3422 7.49679E-03 1.44613E-03-6.14255E-15
 -1      3423 7.33790E-03 1.39754E-03-5.61220E-15
 -1      3424 7.63897E-03 1.50250E-03-6.36110E-15
 -1      3425 7.78119E-03 1.55901E-03-6.58021E-15
 -1      3426 7.62131E-03 1.51004E-03-6.03449E-15
 -1      3427 7.92344E-03 1.61569E-03-6.80119E-15
 -1      3428 8.06575E-03 1.67252E-03-7.02414E-15
 -1      3429 7.90500E-03 1.62321E-03-6.46682E-15
 -1      3430 8.20810E-03 1.72952E-03-7.24666E-15
 -1      3431 8.35052E-03 1.78666E-03-7.47313E-15
 -1      3432 8.18905E-03 1.73706E-03-6.90522E-15
 -1      3433 8.49299E-03 1.84396E-03-7.69861E-15
 -1      3434 8.63552E-03 1.90140E-03-7.92483E-15
 -1      3435 8.47346E-03 1.85154E-03-7.34704E-15
 -1      3436 8.77809E-03 1.95897E-03-8.15336E-15
 -1      3437 8.92071E-03 2.01667E-03-8.38308E-15
 -1      3438 8.75820E-03 1.96659E-03-7.79310E-15
 -1      3439 9.06337E-03 2.07448E-03-8.61445E-15
 -1      3440 9.20607E-03 2.13241E-03-8.84510E-15
 -1      3441 9.04322E-03 2.08214E-03-8.24594E-15
 -1      3442 9.34880E-03 2.19044E-03-9.07789E-15
 -1      3443 9.49156E-03 2.24855E-03-9.31106E-15
 -1      3444 9.32846E-03 2.19813E-03-8.70221E-15
 -1      3445 9.63434E-03 2.30675E-03-9.54381E-15
 -1      3446 9.77714E-03 2.36503E-03-9.77682E-15
 -1      3447 9.61387E-03 2.31447E-03-9.15891E-15
 -1      3448 9.91996E-03 2.42337E-03-1.00102E-14
 -1      3449 1.00628E-02 2.48177E-03-1.02447E-14
 -1      3450 9.89942E-03 2.43110E-03-9.61714E-15
 -1      3451 1.02056E-02 2.54023E-03-1.04800E-14
 -1      3452 1.03485E-02 2.59874E-03-1.07169E-14
 -1      3453 1.01850E-02 2.54797E-03-1.00776E-14
 -1      3454 1.04914E-02 2.65728E-03-1.09550E-14
 -1      3455 1.06342E-02 2.71587E-03-1.11933E-14
 -1      3456 1.04707E-02 2.66503E-03-1.05437E-14
 -1      3457 1.07771E-02 2.77449E-03-1.14333E-14
 -1      3458 1.09200E-02 2.83313E-03-1.16733E-14
 -1      3459 1.07565E-02 2.78223E-03-1.10133E-14
 -1      3460 1.10628E-02 2.89180E-03-1.19125E-14
 -1      3461 1.12057E-02 2.95049E-03-1.21507E-14
 -1      3462 1.10422E-02 2.89955E-03-1.14859E-14
 -1      3463 1.13486E-02 3.00920E-03-1.23882E-14
 -1      3464 1.14915E-02 3.06793E-03-1.26243E-14
 -1      3465 1.13280E-02 3.01695E-03-1.19541E-14
 -1      3466 1.16344E-02 3.12667E-03-1.28575E-14
 -1      3467 1.17772E-02 3.18542E-03-1.30936E-14
 -1      3468 1.16138E-02 3.13441E-03-1.24167E-14
 -1      3469 1.19201E-02 3.24418E-03-1.33318E-14
 -1      3470 1.20630E-02 3.30294E-03-1.35710E-14
 -1      3471 1.18995E-02 3.25192E-03-1.28829E-14
 -1      3472 1.22059E-02 3.36172E-03-1.38112E-14
 -1      3473 1.23487E-02 3.42050E-03-1.40529E-14
 -1      3474 1.21853E-02 3.36945E-03-1.33550E-14
 -1      3475 1.24916E-02 3.47928E-03-1.42973E-14
 -1      3476 1.26345E-02 3.53806E-03-1.45426E-14
 -1      3477 1.24710E-02 3.48701E-03-1.38334E-14
 -1      3478 1.27773E-02 3.59685E-03-1.47880E-14
 -1      3479 1.29202E-02 3.65564E-03-1.50370E-14
 -1      3480 1.27568E-02 3.60458E-03-1.43174E-14
 -1      3481 1.30631E-02 3.71443E-03-1.52861E-14
 -1      3482 1.32059E-02 3.77322E-03-1.55348E-14
 -1      3483 1.30425E-02 3.72216E-03-1.48083E-14
 -1      3484 5.26285E-03 7.28559E-04-1.37407E-15
 -1      3485 5.10535E-03 6.57050E-04-1.47269E-15
 -1      3486 4.28389E-03 2.18276E-04-1.57322E-15
 -1      3487 4.09490E-03 1.07285E-04-1.52732E-15
 -1      3488 6.69557E-03 1.29545E-03-7.01086E-16
 -1      3489 6.56960E-03 1.24038E-03-6.04348E-16
 -1      3490 6.44687E-03 1.18768E-03-5.13925E-16
 -1      3491 6.32720E-03 1.13695E-03-4.27176E-16
 -1      3492 6.48582E-03 1.19114E-03-7.25507E-16
 -1      3493 7.49498E-03 1.65124E-03-1.37467E-15
 -1      3494 7.35786E-03 1.59000E-03-1.25030E-15
 -1      3495 7.77203E-03 1.77448E-03-1.63190E-15
 -1      3496 7.63305E-03 1.71273E-03-1.50143E-15
 -1      3497 7.52207E-03 1.65063E-03-1.63854E-15
 -1      3498 8.05194E-03 1.89812E-03-1.90569E-15
 -1      3499 7.91167E-03 1.83627E-03-1.76644E-15
 -1      3500 7.79749E-03 1.77267E-03-1.90969E-15
 -1      3501 8.33381E-03 2.02158E-03-2.19464E-15
 -1      3502 8.19266E-03 1.95989E-03-2.04845E-15
 -1      3503 8.07609E-03 1.89524E-03-2.19556E-15
 -1      3504 8.61701E-03 2.14454E-03-2.50012E-15
 -1      3505 8.47526E-03 2.08313E-03-2.34651E-15
 -1      3506 8.35693E-03 2.01777E-03-2.49652E-15
 -1      3507 8.90110E-03 2.26684E-03-2.82229E-15
 -1      3508 8.75896E-03 2.20577E-03-2.65838E-15
 -1      3509 8.63934E-03 2.13994E-03-2.81447E-15
 -1      3510 9.18579E-03 2.38843E-03-3.15630E-15
 -1      3511 9.04338E-03 2.32772E-03-2.98779E-15
 -1      3512 8.92284E-03 2.26158E-03-3.14724E-15
 -1      3513 9.47088E-03 2.50933E-03-3.49886E-15
 -1      3514 9.32829E-03 2.44896E-03-3.32721E-15
 -1      3515 9.20709E-03 2.38262E-03-3.48961E-15
 -1      3516 9.75622E-03 2.62960E-03-3.84419E-15
 -1      3517 9.61352E-03 2.56954E-03-3.67143E-15
 -1      3518 9.49186E-03 2.50309E-03-3.84075E-15
 -1      3519 1.00417E-02 2.74932E-03-4.19285E-15
 -1      3520 9.89895E-03 2.68952E-03-4.01869E-15
 -1      3521 9.77698E-03 2.62300E-03-4.19463E-15
 -1      3522 1.03273E-02 2.86857E-03-4.53716E-15
 -1      3523 1.01845E-02 2.80900E-03-4.36635E-15
 -1      3524 1.00623E-02 2.74244E-03-4.54643E-15
 -1      3525 1.06130E-02 2.98743E-03-4.87997E-15
 -1      3526 1.04702E-02 2.92804E-03-4.70934E-15
 -1      3527 1.03479E-02 2.86147E-03-4.89702E-15
 -1      3528 1.08987E-02 3.10597E-03-5.21572E-15
 -1      3529 1.07559E-02 3.04674E-03-5.04857E-15
 -1      3530 1.06335E-02 2.98016E-03-5.24152E-15
 -1      3531 1.11845E-02 3.22426E-03-5.55097E-15
 -1      3532 1.10416E-02 3.16514E-03-5.38460E-15
 -1      3533 1.09192E-02 3.09857E-03-5.58303E-15
 -1      3534 1.14702E-02 3.34235E-03-5.88756E-15
 -1      3535 1.13274E-02 3.28333E-03-5.71856E-15
 -1      3536 1.12049E-02 3.21676E-03-5.92518E-15
 -1      3537 1.17560E-02 3.46029E-03-6.22976E-15
 -1      3538 1.16131E-02 3.40134E-03-6.05699E-15
 -1      3539 1.14906E-02 3.33478E-03-6.26830E-15
 -1      3540 1.20417E-02 3.57811E-03-6.58263E-15
 -1      3541 1.18989E-02 3.51922E-03-6.40553E-15
 -1      3542 1.17764E-02 3.45267E-03-6.61975E-15
 -1      3543 1.23275E-02 3.69585E-03-6.94696E-15
 -1      3544 1.21846E-02 3.63699E-03-6.76412E-15
 -1      3545 1.20622E-02 3.57045E-03-6.98362E-15
 -1      3546 1.26132E-02 3.81353E-03-7.32023E-15
 -1      3547 1.24704E-02 3.75470E-03-7.13288E-15
 -1      3548 1.23479E-02 3.68816E-03-7.35649E-15
 -1      3549 1.28990E-02 3.93116E-03-7.70103E-15
 -1      3550 1.27561E-02 3.87235E-03-7.50864E-15
 -1      3551 1.26337E-02 3.80582E-03-7.73714E-15
 -1      3552 1.31847E-02 4.04876E-03-8.08681E-15
 -1      3553 1.30419E-02 3.98996E-03-7.89418E-15
 -1      3554 1.29195E-02 3.92344E-03-8.12471E-15
 -1      3555 1.34705E-02 4.16634E-03-8.47895E-15
 -1      3556 1.33276E-02 4.10755E-03-8.28293E-15
 -1      3557 1.32052E-02 4.04103E-03-8.51845E-15
 -1      3558 1.37562E-02 4.28391E-03-8.87506E-15
 -1      3559 1.36133E-02 4.22513E-03-8.67668E-15
 -1      3560 1.34909E-02 4.15861E-03-8.91554E-15
 -1      3561 1.40419E-02 4.40148E-03-9.28272E-15
 -1      3562 1.38991E-02 4.34270E-03-9.07819E-15
 -1      3563 1.37767E-02 4.27618E-03-9.31892E-15
 -1      3564 1.43276E-02 4.51904E-03-9.68797E-15
 -1      3565 1.41848E-02 4.46026E-03-9.48498E-15
 -1      3566 1.40624E-02 4.39375E-03-9.73047E-15
 -1      3567 1.41895E-02 4.36620E-03-1.20325E-14
 -1      3568 5.41259E-03 1.05515E-03 3.98390E-16
 -1      3569 1.96346E-03-1.47726E-04-3.73426E-16
 -1      3570 1.77700E-03-6.73345E-05-3.01002E-16
 -1      3571 5.91381E-03 9.73498E-04-1.43982E-16
 -1      3572 5.93804E-03 9.49724E-04-3.47202E-16
 -1      3573 5.96860E-03 9.58030E-04-4.74935E-16
 -1      3574 6.01875E-03 1.01242E-03-2.15736E-16
 -1      3575 6.95483E-03 1.41011E-03-9.06637E-16
 -1      3576 6.82398E-03 1.35197E-03-8.01659E-16
 -1      3577 6.73031E-03 1.29840E-03-9.25326E-16
 -1      3578 1.56942E-03 1.74982E-05-2.28238E-16
 -1      3579 1.39581E-03 8.26075E-05-1.73608E-16
 -1      3580 5.54797E-03 8.35990E-04-1.13830E-15
 -1      3581 5.40764E-03 7.87393E-04-1.25767E-15
 -1      3582 5.41164E-03 7.79137E-04-1.44159E-15
 -1      3583 9.55737E-04 8.42691E-05-9.56808E-17
 -1      3584 9.97339E-04 4.24077E-05-1.18246E-16
 -1      3585 1.14927E-03 1.24758E-05-1.57521E-16
 -1      3586 1.05134E-03 1.09860E-04-1.03419E-16
 -1      3587 2.33690E-03-3.05163E-04-5.51683E-16
 -1      3588 2.15620E-03-2.28572E-04-4.57222E-16
 -1      3589 2.00553E-03-2.07044E-04-4.25048E-16
 -1      3590 6.22552E-03 1.09477E-03-3.56689E-16
 -1      3591 6.11307E-03 1.04928E-03-2.78647E-16
 -1      3592 6.08470E-03 1.01849E-03-4.13732E-16
 -1      3593 6.27012E-03 1.09787E-03-5.56196E-16
 -1      3594 3.00344E-03-3.99262E-04-9.40207E-16
 -1      3595 2.88602E-03-4.05311E-04-8.39322E-16
 -1      3596 2.76611E-03-4.12604E-04-8.20768E-16
 -1      3597 5.76899E-03 8.98649E-04-9.13054E-16
 -1      3598 5.66546E-03 8.71945E-04-1.02692E-15
 -1      3599 5.66045E-03 8.70754E-04-1.20860E-15
 -1      3600 1.35765E-02 3.95838E-03-1.52751E-14
 -1      3601 1.36342E-02 4.00053E-03-1.48655E-14
 -1      3602 1.45753E-02 4.59804E-03-1.06569E-14
 -1      3603 1.46312E-02 4.63682E-03-1.03161E-14
 -1      3604 1.45497E-02 4.60635E-03-1.01143E-14
 -1      3605 1.44227E-02 4.52606E-03-1.06769E-14
 -1      3606 4.64971E-03 4.45475E-04-1.42128E-15
 -1      3607 7.22202E-03 1.52933E-03-1.13157E-15
 -1      3608 7.08754E-03 1.46921E-03-1.01752E-15
 -1      3609 7.25114E-03 1.53000E-03-1.38340E-15
 -1      3610 1.01615E-03 1.95135E-04-6.47472E-17
 -1      3611 1.16413E-03 1.52752E-04-1.07837E-16
 -1      3612 3.73275E-03-1.10203E-04-1.43531E-15
 -1      3613 3.73697E-03-1.43481E-04-1.69384E-15
 -1      3614 3.90504E-03-5.91062E-05-1.82841E-15
 -1      3615 3.94983E-03 1.73860E-05-1.51749E-15
 -1      3616 4.82746E-03 5.20270E-04-1.56259E-15
 -1      3617 4.56687E-03 3.79755E-04-1.59151E-15
 -1      3618 3.33407E-03-3.05830E-04-1.18968E-15
 -1      3619 4.03977E-03 3.23647E-05-1.78864E-15
 -1      3620 1.25948E-03 4.90817E-05-1.63267E-16
 -1      3621 1.23451E-03 9.95070E-05-1.40092E-16
 -1      3622 1.28750E-03-2.03282E-04-2.81649E-16
 -1      3623 1.35732E-03-1.73222E-04-2.82611E-16
 -1      3624 2.40426E-03-3.74012E-04-6.63545E-16
 -1      3625 2.75830E-03-4.49638E-04-9.57527E-16
 -1      3626 2.91572E-03-4.38474E-04-1.06104E-15
 -1      3627 5.01121E-03 5.95936E-04-1.65509E-15
 -1      3628 1.33019E-02 3.80921E-03-1.57974E-14
 -1      3629 1.34220E-02 3.85728E-03-1.60469E-14
 -1      3630 1.34731E-02 3.88893E-03-1.58423E-14
 -1      3631 1.32813E-02 3.81694E-03-1.53153E-14
 -1      3632 6.98644E-03 1.41203E-03-1.14637E-15
 -1      3633 1.40369E-02 4.29421E-03-1.20440E-14
 -1      3634 1.40947E-02 4.33637E-03-1.16413E-14
 -1      3635 1.44681E-02 4.57588E-03-9.91478E-15
 -1      3636 4.47068E-03 3.06175E-04-1.72166E-15
 -1      3637 1.39213E-02 4.20989E-03-1.28496E-14
 -1      3638 1.39791E-02 4.25205E-03-1.24462E-14
 -1      3639 1.38843E-02 4.22222E-03-1.20507E-14
 -1      3640 1.35389E-02 3.97034E-03-1.44548E-14
 -1      3641 1.36915E-02 4.04233E-03-1.44622E-14
 -1      3642 1.37488E-02 4.08413E-03-1.40577E-14
 -1      3643 1.62105E-03-4.68088E-05-2.67473E-16
 -1      3644 5.94326E-03 9.50748E-04-7.75096E-16
 -1      3645 5.86284E-03 9.26191E-04-8.45420E-16
 -1      3646 5.86909E-03 9.34848E-04-1.02583E-15
 -1      3647 1.41506E-02 4.37515E-03-1.13052E-14
 -1      3648 1.42066E-02 4.41393E-03-1.09716E-14
 -1      3649 1.39980E-02 4.30316E-03-1.13168E-14
 -1      3650 1.38064E-02 4.12611E-03-1.36538E-14
 -1      3651 1.38637E-02 4.16791E-03-1.32533E-14
 -1      3652 1.37689E-02 4.13808E-03-1.28511E-14
 -1      3653 1.36538E-02 4.05412E-03-1.36526E-14
 -1      3654 3.13689E-03-3.74989E-04-1.05803E-15
 -1      3655 1.35243E-02 3.92057E-03-1.56367E-14
 -1      3656 3.01703E-03-4.07532E-04-1.03568E-15
 -1      3657 1.34294E-02 3.89074E-03-1.52162E-14
 -1      3658 1.36990E-03-1.44932E-04-2.70779E-16
 -1      3659 1.49542E-03-1.78137E-04-3.16289E-16
 -1      3660 1.66740E-03-2.11945E-04-3.73142E-16
 -1      3661 1.34594E-03-9.01867E-05-2.39121E-16
 -1      3662 1.43457E-02 4.50937E-03-1.01675E-14
 -1      3663 1.33335E-02 3.85475E-03-1.49571E-14
 -1      3664 1.30770E-03-7.93671E-06-1.95536E-16
 -1      3665 6.51591E-03 1.19553E-03-9.41101E-16
 -1      3666 6.40006E-03 1.14511E-03-8.41273E-16
 -1      3667 1.84272E-03-2.49009E-04-4.35050E-16
 -1      3668 2.01884E-03-2.88768E-04-5.01715E-16
 -1      3669 1.68195E-03-1.81928E-04-3.56309E-16
 -1      3670 4.06087E-03 6.21465E-05-1.68589E-15
 -1      3671 4.17639E-03 1.16352E-04-1.80255E-15
 -1      3672 5.20824E-03 6.72417E-04-1.76791E-15
 -1      3673 4.95461E-03 5.45825E-04-1.85964E-15
 -1      3674 1.47766E-03-6.28584E-05-2.51711E-16
 -1      3675 4.64897E-03 3.46565E-04-2.13947E-15
 -1      3676 4.81745E-03 4.20559E-04-2.28280E-15
 -1      3677 5.29993E-03 6.17887E-04-2.73574E-15
 -1      3678 5.45369E-03 6.78263E-04-2.89466E-15
 -1      3679 5.60469E-03 7.36692E-04-3.05748E-15
 -1      3680 5.75331E-03 7.94037E-04-3.22396E-15
 -1      3681 5.59844E-03 7.52340E-04-2.82177E-15
 -1      3682 5.89999E-03 8.50360E-04-3.39422E-15
 -1      3683 6.04512E-03 9.06190E-04-3.56949E-15
 -1      3684 5.89258E-03 8.63173E-04-3.14484E-15
 -1      3685 6.18899E-03 9.61574E-04-3.74969E-15
 -1      3686 6.33194E-03 1.01681E-03-3.93321E-15
 -1      3687 6.17985E-03 9.72127E-04-3.48647E-15
 -1      3688 6.47417E-03 1.07194E-03-4.11929E-15
 -1      3689 6.61591E-03 1.12711E-03-4.30926E-15
 -1      3690 6.46316E-03 1.08088E-03-3.84407E-15
 -1      3691 6.75729E-03 1.18235E-03-4.50303E-15
 -1      3692 6.89848E-03 1.23772E-03-4.69903E-15
 -1      3693 6.74450E-03 1.19025E-03-4.21557E-15
 -1      3694 7.03954E-03 1.29325E-03-4.89658E-15
 -1      3695 7.18059E-03 1.34896E-03-5.09683E-15
 -1      3696 7.02514E-03 1.30055E-03-4.59875E-15
 -1      3697 7.32165E-03 1.40487E-03-5.30020E-15
 -1      3698 7.46279E-03 1.46097E-03-5.50516E-15
 -1      3699 7.30586E-03 1.41187E-03-4.99091E-15
 -1      3700 7.60402E-03 1.51727E-03-5.71265E-15
 -1      3701 7.74538E-03 1.57376E-03-5.92332E-15
 -1      3702 7.58708E-03 1.52417E-03-5.39477E-15
 -1      3703 7.88686E-03 1.63045E-03-6.13607E-15
 -1      3704 8.02848E-03 1.68731E-03-6.35019E-15
 -1      3705 7.86899E-03 1.63738E-03-5.80895E-15
 -1      3706 8.17022E-03 1.74435E-03-6.56562E-15
 -1      3707 8.31211E-03 1.80155E-03-6.78259E-15
 -1      3708 8.15161E-03 1.75138E-03-6.22960E-15
 -1      3709 8.45411E-03 1.85891E-03-6.99979E-15
 -1      3710 8.59623E-03 1.91641E-03-7.21923E-15
 -1      3711 8.43492E-03 1.86606E-03-6.65731E-15
 -1      3712 8.73845E-03 1.97404E-03-7.43894E-15
 -1      3713 8.88077E-03 2.03180E-03-7.65998E-15
 -1      3714 8.71883E-03 1.98131E-03-7.08785E-15
 -1      3715 9.02317E-03 2.08967E-03-7.88229E-15
 -1      3716 9.16566E-03 2.14765E-03-8.10547E-15
 -1      3717 9.00323E-03 2.09705E-03-7.52325E-15
 -1      3718 9.30820E-03 2.20572E-03-8.32979E-15
 -1      3719 9.45081E-03 2.26387E-03-8.55454E-15
 -1      3720 9.28803E-03 2.21319E-03-7.96147E-15
 -1      3721 9.59347E-03 2.32211E-03-8.77870E-15
 -1      3722 9.73618E-03 2.38041E-03-9.00254E-15
 -1      3723 9.57313E-03 2.32966E-03-8.40314E-15
 -1      3724 9.87892E-03 2.43878E-03-9.22801E-15
 -1      3725 1.00217E-02 2.49720E-03-9.45405E-15
 -1      3726 9.85847E-03 2.44639E-03-8.84354E-15
 -1      3727 1.01645E-02 2.55567E-03-9.67962E-15
 -1      3728 1.03073E-02 2.61419E-03-9.90837E-15
 -1      3729 1.01440E-02 2.56333E-03-9.28627E-15
 -1      3730 1.04501E-02 2.67275E-03-1.01371E-14
 -1      3731 1.05930E-02 2.73134E-03-1.03662E-14
 -1      3732 1.04296E-02 2.68044E-03-9.73443E-15
 -1      3733 1.07359E-02 2.78997E-03-1.05980E-14
 -1      3734 1.08787E-02 2.84861E-03-1.08295E-14
 -1      3735 1.07153E-02 2.79768E-03-1.01864E-14
 -1      3736 1.10216E-02 2.90729E-03-1.10625E-14
 -1      3737 1.11645E-02 2.96598E-03-1.12930E-14
 -1      3738 1.10010E-02 2.91501E-03-1.06414E-14
 -1      3739 1.13074E-02 3.02469E-03-1.15216E-14
 -1      3740 1.14503E-02 3.08341E-03-1.17515E-14
 -1      3741 1.12868E-02 3.03242E-03-1.10953E-14
 -1      3742 1.15932E-02 3.14215E-03-1.19816E-14
 -1      3743 1.17360E-02 3.20090E-03-1.22091E-14
 -1      3744 1.15726E-02 3.14989E-03-1.15462E-14
 -1      3745 1.18789E-02 3.25966E-03-1.24388E-14
 -1      3746 1.20218E-02 3.31842E-03-1.26720E-14
 -1      3747 1.18583E-02 3.26739E-03-1.20000E-14
 -1      3748 1.21647E-02 3.37719E-03-1.29029E-14
 -1      3749 1.23076E-02 3.43597E-03-1.31366E-14
 -1      3750 1.21441E-02 3.38493E-03-1.24560E-14
 -1      3751 1.24505E-02 3.49475E-03-1.33741E-14
 -1      3752 1.25933E-02 3.55353E-03-1.36109E-14
 -1      3753 1.24299E-02 3.50248E-03-1.29182E-14
 -1      3754 1.27362E-02 3.61231E-03-1.38517E-14
 -1      3755 1.28791E-02 3.67110E-03-1.40929E-14
 -1      3756 1.27157E-02 3.62005E-03-1.33887E-14
 -1      3757 1.30220E-02 3.72989E-03-1.43321E-14
 -1      3758 1.31648E-02 3.78868E-03-1.45773E-14
 -1      3759 1.30014E-02 3.73762E-03-1.38649E-14
 -1      3760 7.01380E-03 1.41405E-03-1.38996E-15
 -1      3761 6.88511E-03 1.35713E-03-1.27079E-15
 -1      3762 5.77879E-03 9.08534E-04-1.25202E-15
 -1      3763 5.67313E-03 8.72856E-04-1.36828E-15
 -1      3764 7.82149E-03 1.77083E-03-2.19251E-15
 -1      3765 7.68379E-03 1.71026E-03-2.04871E-15
 -1      3766 7.54708E-03 1.65000E-03-1.90958E-15
 -1      3767 7.41149E-03 1.59004E-03-1.77270E-15
 -1      3768 7.57029E-03 1.64905E-03-2.18480E-15
 -1      3769 8.37937E-03 2.01392E-03-2.80437E-15
 -1      3770 8.23904E-03 1.95312E-03-2.64553E-15
 -1      3771 8.66122E-03 2.13530E-03-3.13227E-15
 -1      3772 8.52011E-03 2.07464E-03-2.96703E-15
 -1      3773 8.40117E-03 2.00992E-03-3.11524E-15
 -1      3774 8.94428E-03 2.25628E-03-3.47578E-15
 -1      3775 8.80261E-03 2.19584E-03-3.30305E-15
 -1      3776 8.68265E-03 2.13054E-03-3.45587E-15
 -1      3777 9.22820E-03 2.37679E-03-3.82733E-15
 -1      3778 9.08614E-03 2.31659E-03-3.64955E-15
 -1      3779 8.96542E-03 2.25089E-03-3.80659E-15
 -1      3780 9.51273E-03 2.49681E-03-4.18314E-15
 -1      3781 9.37039E-03 2.43686E-03-4.00487E-15
 -1      3782 9.24911E-03 2.37088E-03-4.16546E-15
 -1      3783 9.79768E-03 2.61638E-03-4.54496E-15
 -1      3784 9.65516E-03 2.55665E-03-4.36455E-15
 -1      3785 9.53348E-03 2.49047E-03-4.52989E-15
 -1      3786 1.00829E-02 2.73554E-03-4.90085E-15
 -1      3787 9.94027E-03 2.67601E-03-4.72236E-15
 -1      3788 9.81831E-03 2.60970E-03-4.89517E-15
 -1      3789 1.03684E-02 2.85435E-03-5.25441E-15
 -1      3790 1.02256E-02 2.79499E-03-5.07865E-15
 -1      3791 1.01035E-02 2.72859E-03-5.25665E-15
 -1      3792 1.06539E-02 2.97287E-03-5.60382E-15
 -1      3793 1.05111E-02 2.91365E-03-5.43044E-15
 -1      3794 1.03889E-02 2.84720E-03-5.61447E-15
 -1      3795 1.09396E-02 3.09116E-03-5.95354E-15
 -1      3796 1.07968E-02 3.03204E-03-5.77845E-15
 -1      3797 1.06744E-02 2.96555E-03-5.97043E-15
 -1      3798 1.12253E-02 3.20925E-03-6.30027E-15
 -1      3799 1.10825E-02 3.15022E-03-6.12637E-15
 -1      3800 1.09601E-02 3.08371E-03-6.32423E-15
 -1      3801 1.15111E-02 3.32720E-03-6.65397E-15
 -1      3802 1.13682E-02 3.26824E-03-6.47636E-15
 -1      3803 1.12458E-02 3.20172E-03-6.67963E-15
 -1      3804 1.17968E-02 3.44503E-03-7.01632E-15
 -1      3805 1.16540E-02 3.38613E-03-6.83370E-15
 -1      3806 1.15315E-02 3.31960E-03-7.04405E-15
 -1      3807 1.20826E-02 3.56278E-03-7.38668E-15
 -1      3808 1.19397E-02 3.50391E-03-7.19956E-15
 -1      3809 1.18173E-02 3.43738E-03-7.41521E-15
 -1      3810 1.23684E-02 3.68047E-03-7.76866E-15
 -1      3811 1.22255E-02 3.62163E-03-7.57676E-15
 -1      3812 1.21031E-02 3.55510E-03-7.79606E-15
 -1      3813 1.26542E-02 3.79811E-03-8.15603E-15
 -1      3814 1.25113E-02 3.73929E-03-7.96245E-15
 -1      3815 1.23889E-02 3.67276E-03-8.18342E-15
 -1      3816 1.29399E-02 3.91572E-03-8.55102E-15
 -1      3817 1.27970E-02 3.85691E-03-8.35214E-15
 -1      3818 1.26746E-02 3.79039E-03-8.57970E-15
 -1      3819 1.32257E-02 4.03331E-03-8.95028E-15
 -1      3820 1.30828E-02 3.97451E-03-8.75016E-15
 -1      3821 1.29604E-02 3.90799E-03-8.97986E-15
 -1      3822 1.35114E-02 4.15088E-03-9.35142E-15
 -1      3823 1.33686E-02 4.09209E-03-9.14992E-15
 -1      3824 1.32462E-02 4.02557E-03-9.38343E-15
 -1      3825 1.37972E-02 4.26845E-03-9.76526E-15
 -1      3826 1.36543E-02 4.20967E-03-9.55834E-15
 -1      3827 1.35319E-02 4.14315E-03-9.79350E-15
 -1      3828 1.33130E-02 3.86248E-03-1.44782E-14
 -1      3829 6.05148E-03 9.94573E-04-5.32343E-16
 -1      3830 6.00200E-03 9.71276E-04-6.61560E-16
 -1      3831 6.03081E-03 9.86512E-04-8.41686E-16
 -1      3832 6.13627E-03 1.03209E-03-6.04924E-16
 -1      3833 5.55133E-03 8.26720E-04-1.49371E-15
 -1      3834 5.42399E-03 7.73012E-04-1.61571E-15
 -1      3835 5.68390E-03 8.70730E-04-1.54472E-15
 -1      3836 1.42822E-02 4.46922E-03-1.04452E-14
 -1      3837 2.02196E-03-2.48875E-04-4.63917E-16
 -1      3838 1.84157E-03-1.76815E-04-3.80365E-16
 -1      3839 4.32717E-03 1.93848E-04-1.89978E-15
 -1      3840 4.50178E-03 2.77077E-04-2.03777E-15
 -1      3841 4.65936E-03 3.74532E-04-1.98366E-15
 -1      3842 4.35709E-03 2.29039E-04-1.79089E-15
 -1      3843 1.37316E-02 4.15024E-03-1.20576E-14
 -1      3844 1.37894E-02 4.19240E-03-1.16599E-14
 -1      3845 7.27727E-03 1.53068E-03-1.64037E-15
 -1      3846 7.14460E-03 1.47187E-03-1.51321E-15
 -1      3847 7.03769E-03 1.41556E-03-1.63857E-15
 -1      3848 7.30092E-03 1.53094E-03-1.90287E-15
 -1      3849 8.09924E-03 1.89232E-03-2.49105E-15
 -1      3850 7.96000E-03 1.83151E-03-2.33923E-15
 -1      3851 8.12147E-03 1.88921E-03-2.78979E-15
 -1      3852 6.75896E-03 1.30170E-03-1.15679E-15
 -1      3853 6.63571E-03 1.24756E-03-1.04697E-15
 -1      3854 6.53911E-03 1.19930E-03-1.16266E-15
 -1      3855 6.78278E-03 1.30441E-03-1.39179E-15
 -1      3856 1.41296E-02 4.39724E-03-1.04585E-14
 -1      3857 2.18020E-03-3.17773E-04-5.56819E-16
 -1      3858 2.41833E-03-3.44960E-04-6.15434E-16
 -1      3859 1.36927E-02 4.15919E-03-1.13372E-14
 -1      3860 1.38454E-02 4.23118E-03-1.13289E-14
 -1      3861 1.39013E-02 4.26996E-03-1.09961E-14
 -1      3862 4.97892E-03 5.36039E-04-2.03411E-15
 -1      3863 4.77513E-03 4.48272E-04-1.90833E-15
 -1      3864 1.36741E-02 4.10825E-03-1.24520E-14
 -1      3865 1.35792E-02 4.07843E-03-1.20605E-14
 -1      3866 1.36165E-02 4.06627E-03-1.28504E-14
 -1      3867 4.97772E-03 5.11714E-04-2.22999E-15
 -1      3868 4.98636E-03 4.91059E-04-2.43749E-15
 -1      3869 5.14684E-03 5.56683E-04-2.58803E-15
 -1      3870 5.14546E-03 6.00699E-04-2.17803E-15
 -1      3871 7.84421E-03 1.76874E-03-2.48026E-15
 -1      3872 5.88552E-03 9.43346E-04-1.18431E-15
 -1      3873 5.90566E-03 9.50288E-04-1.34821E-15
 -1      3874 5.98279E-03 9.74716E-04-1.11477E-15
 -1      3875 1.33703E-02 3.90428E-03-1.40808E-14
 -1      3876 1.40829E-02 4.38601E-03-1.01817E-14
 -1      3877 1.39400E-02 4.32723E-03-9.97320E-15
 -1      3878 5.36010E-03 7.30333E-04-1.82986E-15
 -1      3879 1.38177E-02 4.26071E-03-1.02135E-14
 -1      3880 6.31167E-03 1.10747E-03-7.59877E-16
 -1      3881 6.21718E-03 1.06641E-03-6.80920E-16
 -1      3882 6.16675E-03 1.04156E-03-8.03441E-16
 -1      3883 6.33399E-03 1.11213E-03-9.68504E-16
 -1      3884 1.66150E-03-1.38553E-04-3.25654E-16
 -1      3885 5.29748E-03 6.37633E-04-2.52149E-15
 -1      3886 5.59561E-03 7.69013E-04-2.59107E-15
 -1      3887 5.74279E-03 8.23188E-04-2.74380E-15
 -1      3888 8.14288E-03 1.88589E-03-3.09483E-15
 -1      3889 8.00398E-03 1.82604E-03-2.93144E-15
 -1      3890 5.29943E-03 6.58983E-04-2.31268E-15
 -1      3891 5.44925E-03 7.15032E-04-2.45032E-15
 -1      3892 5.60016E-03 7.88000E-04-2.37360E-15
 -1      3893 5.30625E-03 6.82312E-04-2.10857E-15
 -1      3894 5.88760E-03 8.76479E-04-2.90025E-15
 -1      3895 6.03069E-03 9.29694E-04-3.06081E-15
 -1      3896 5.88535E-03 8.90406E-04-2.66082E-15
 -1      3897 6.17241E-03 9.82794E-04-3.22757E-15
 -1      3898 6.31321E-03 1.03614E-03-3.39861E-15
 -1      3899 6.16680E-03 9.93611E-04-2.97374E-15
 -1      3900 6.45332E-03 1.08969E-03-3.57304E-15
 -1      3901 6.59304E-03 1.14361E-03-3.75046E-15
 -1      3902 6.44470E-03 1.09836E-03-3.30573E-15
 -1      3903 6.73250E-03 1.19786E-03-3.93220E-15
 -1      3904 6.87190E-03 1.25249E-03-4.11762E-15
 -1      3905 6.72132E-03 1.20517E-03-3.65319E-15
 -1      3906 7.01129E-03 1.30748E-03-4.30390E-15
 -1      3907 7.15081E-03 1.36282E-03-4.49274E-15
 -1      3908 6.99798E-03 1.31403E-03-4.01382E-15
 -1      3909 7.29047E-03 1.41848E-03-4.68701E-15
 -1      3910 7.43035E-03 1.47445E-03-4.88207E-15
 -1      3911 7.27544E-03 1.42469E-03-4.38575E-15
 -1      3912 7.57043E-03 1.53071E-03-5.07998E-15
 -1      3913 7.71077E-03 1.58722E-03-5.28105E-15
 -1      3914 7.55403E-03 1.53684E-03-4.76831E-15
 -1      3915 7.85133E-03 1.64398E-03-5.48395E-15
 -1      3916 7.99214E-03 1.70094E-03-5.68942E-15
 -1      3917 7.83385E-03 1.65021E-03-5.16213E-15
 -1      3918 8.13317E-03 1.75811E-03-5.89760E-15
 -1      3919 8.27442E-03 1.81545E-03-6.10632E-15
 -1      3920 8.11485E-03 1.76452E-03-5.56648E-15
 -1      3921 8.41587E-03 1.87295E-03-6.31682E-15
 -1      3922 8.55750E-03 1.93060E-03-6.52738E-15
 -1      3923 8.39691E-03 1.87958E-03-5.97883E-15
 -1      3924 8.69931E-03 1.98838E-03-6.73966E-15
 -1      3925 8.84127E-03 2.04627E-03-6.95357E-15
 -1      3926 8.67987E-03 1.99522E-03-6.39509E-15
 -1      3927 8.98337E-03 2.10427E-03-7.16793E-15
 -1      3928 9.12559E-03 2.16236E-03-7.38228E-15
 -1      3929 8.96357E-03 2.11131E-03-6.81497E-15
 -1      3930 9.26792E-03 2.22054E-03-7.59829E-15
 -1      3931 9.41034E-03 2.27879E-03-7.81517E-15
 -1      3932 9.24786E-03 2.22775E-03-7.23865E-15
 -1      3933 9.55285E-03 2.33711E-03-8.02966E-15
 -1      3934 9.69542E-03 2.39549E-03-8.24525E-15
 -1      3935 9.53260E-03 2.34446E-03-7.66275E-15
 -1      3936 9.83806E-03 2.45393E-03-8.46240E-15
 -1      3937 9.98075E-03 2.51241E-03-8.67852E-15
 -1      3938 9.81769E-03 2.46139E-03-8.08445E-15
 -1      3939 1.01235E-02 2.57093E-03-8.89810E-15
 -1      3940 1.02662E-02 2.62950E-03-9.11596E-15
 -1      3941 1.01030E-02 2.57848E-03-8.51135E-15
 -1      3942 1.04090E-02 2.68809E-03-9.33433E-15
 -1      3943 1.05519E-02 2.74671E-03-9.55651E-15
 -1      3944 1.03885E-02 2.69570E-03-8.93957E-15
 -1      3945 1.06947E-02 2.80536E-03-9.77851E-15
 -1      3946 1.08376E-02 2.86403E-03-1.00019E-14
 -1      3947 1.06741E-02 2.81301E-03-9.37323E-15
 -1      3948 1.09804E-02 2.92272E-03-1.02249E-14
 -1      3949 1.11233E-02 2.98142E-03-1.04472E-14
 -1      3950 1.09599E-02 2.93041E-03-9.81139E-15
 -1      3951 1.12662E-02 3.04014E-03-1.06721E-14
 -1      3952 1.14091E-02 3.09888E-03-1.08927E-14
 -1      3953 1.12456E-02 3.04785E-03-1.02505E-14
 -1      3954 1.15520E-02 3.15762E-03-1.11159E-14
 -1      3955 1.16949E-02 3.21637E-03-1.13392E-14
 -1      3956 1.15314E-02 3.16534E-03-1.06904E-14
 -1      3957 1.18378E-02 3.27513E-03-1.15623E-14
 -1      3958 1.19807E-02 3.33390E-03-1.17872E-14
 -1      3959 1.18172E-02 3.28286E-03-1.11275E-14
 -1      3960 1.21235E-02 3.39267E-03-1.20127E-14
 -1      3961 1.22664E-02 3.45144E-03-1.22392E-14
 -1      3962 1.21030E-02 3.40040E-03-1.15721E-14
 -1      3963 1.24093E-02 3.51022E-03-1.24665E-14
 -1      3964 1.25522E-02 3.56900E-03-1.26978E-14
 -1      3965 1.23888E-02 3.51796E-03-1.20205E-14
 -1      3966 1.26951E-02 3.62779E-03-1.29296E-14
 -1      3967 1.28380E-02 3.68657E-03-1.31636E-14
 -1      3968 1.26745E-02 3.63552E-03-1.24756E-14
 -1      3969 1.29809E-02 3.74536E-03-1.33997E-14
 -1      3970 1.31237E-02 3.80415E-03-1.36346E-14
 -1      3971 1.29603E-02 3.75310E-03-1.29354E-14
 -1      3972 7.59191E-03 1.64774E-03-2.46389E-15
 -1      3973 7.45652E-03 1.58895E-03-2.31553E-15
 -1      3974 4.62442E-03 3.79628E-04-1.81425E-15
 -1      3975 8.70369E-03 2.12566E-03-3.78125E-15
 -1      3976 8.56285E-03 2.06571E-03-3.60467E-15
 -1      3977 8.42240E-03 2.00576E-03-3.43020E-15
 -1      3978 8.28238E-03 1.94579E-03-3.26058E-15
 -1      3979 8.16361E-03 1.88226E-03-3.40196E-15
 -1      3980 8.44312E-03 2.00136E-03-3.75039E-15
 -1      3981 9.26986E-03 2.36488E-03-4.50742E-15
 -1      3982 9.12797E-03 2.30517E-03-4.32426E-15
 -1      3983 9.55412E-03 2.48407E-03-4.87938E-15
 -1      3984 9.41191E-03 2.42451E-03-4.69239E-15
 -1      3985 9.29044E-03 2.35876E-03-4.85263E-15
 -1      3986 9.83888E-03 2.60297E-03-5.24853E-15
 -1      3987 9.69644E-03 2.54355E-03-5.06467E-15
 -1      3988 9.57466E-03 2.47757E-03-5.22926E-15
 -1      3989 1.01240E-02 2.72160E-03-5.61560E-15
 -1      3990 9.98140E-03 2.66231E-03-5.43322E-15
 -1      3991 9.85939E-03 2.59616E-03-5.60505E-15
 -1      3992 1.04094E-02 2.84000E-03-5.97797E-15
 -1      3993 1.02666E-02 2.78083E-03-5.79690E-15
 -1      3994 1.01445E-02 2.71455E-03-5.97578E-15
 -1      3995 1.06949E-02 2.95820E-03-6.33929E-15
 -1      3996 1.05521E-02 2.89912E-03-6.15896E-15
 -1      3997 1.04298E-02 2.83276E-03-6.34406E-15
 -1      3998 1.09805E-02 3.07625E-03-6.69863E-15
 -1      3999 1.08377E-02 3.01724E-03-6.51825E-15
 -1      4000 1.07154E-02 2.95082E-03-6.70892E-15
 -1      4001 1.12662E-02 3.19417E-03-7.06360E-15
 -1      4002 1.11234E-02 3.13522E-03-6.88078E-15
 -1      4003 1.10010E-02 3.06876E-03-7.07889E-15
 -1      4004 1.15520E-02 3.31198E-03-7.43890E-15
 -1      4005 1.14091E-02 3.25309E-03-7.25078E-15
 -1      4006 1.12867E-02 3.18659E-03-7.45302E-15
 -1      4007 1.18378E-02 3.42972E-03-7.81723E-15
 -1      4008 1.16949E-02 3.37086E-03-7.62667E-15
 -1      4009 1.15725E-02 3.30435E-03-7.83539E-15
 -1      4010 1.21236E-02 3.54741E-03-8.20776E-15
 -1      4011 1.19807E-02 3.48857E-03-8.01217E-15
 -1      4012 1.18583E-02 3.42205E-03-8.22558E-15
 -1      4013 1.24093E-02 3.66505E-03-8.60336E-15
 -1      4014 1.22664E-02 3.60623E-03-8.40361E-15
 -1      4015 1.21440E-02 3.53971E-03-8.62258E-15
 -1      4016 1.26951E-02 3.78267E-03-9.00549E-15
 -1      4017 1.25522E-02 3.72386E-03-8.80561E-15
 -1      4018 1.24298E-02 3.65734E-03-9.02611E-15
 -1      4019 1.29809E-02 3.90026E-03-9.41319E-15
 -1      4020 1.28380E-02 3.84146E-03-9.20946E-15
 -1      4021 1.27156E-02 3.77494E-03-9.43653E-15
 -1      4022 1.32667E-02 4.01784E-03-9.82180E-15
 -1      4023 1.31238E-02 3.95905E-03-9.61671E-15
 -1      4024 1.30014E-02 3.89253E-03-9.84861E-15
 -1      4025 1.35524E-02 4.13541E-03-1.02397E-14
 -1      4026 1.34095E-02 4.07663E-03-1.00277E-14
 -1      4027 1.32872E-02 4.01010E-03-1.02641E-14
 -1      4028 1.40072E-02 4.33072E-03-1.07024E-14
 -1      4029 5.50433E-03 7.79880E-04-1.95198E-15
 -1      4030 5.82928E-03 9.19855E-04-1.60749E-15
 -1      4031 5.71962E-03 8.75707E-04-1.73887E-15
 -1      4032 1.32758E-02 3.87520E-03-1.36593E-14
 -1      4033 1.35017E-02 3.98307E-03-1.36304E-14
 -1      4034 1.35593E-02 4.02505E-03-1.32332E-14
 -1      4035 1.32552E-02 3.88294E-03-1.31938E-14
 -1      4036 7.86578E-03 1.76638E-03-2.77167E-15
 -1      4037 7.72838E-03 1.70688E-03-2.61630E-15
 -1      4038 7.61226E-03 1.64591E-03-2.74860E-15
 -1      4039 7.88641E-03 1.76361E-03-3.06901E-15
 -1      4040 8.98629E-03 2.24540E-03-4.14209E-15
 -1      4041 8.84485E-03 2.18555E-03-3.96109E-15
 -1      4042 9.00693E-03 2.23976E-03-4.47922E-15
 -1      4043 1.38546E-02 4.25874E-03-1.07171E-14
 -1      4044 1.34645E-02 3.99522E-03-1.28331E-14
 -1      4045 1.34267E-02 4.00653E-03-1.20603E-14
 -1      4046 1.34843E-02 4.04851E-03-1.16693E-14
 -1      4047 7.34212E-03 1.52989E-03-2.44180E-15
 -1      4048 7.32236E-03 1.53075E-03-2.17033E-15
 -1      4049 7.18965E-03 1.47315E-03-2.02862E-15
 -1      4050 6.11683E-03 1.02086E-03-9.02632E-16
 -1      4051 6.04868E-03 9.96801E-04-1.01975E-15
 -1      4052 6.07668E-03 1.00928E-03-1.18299E-15
 -1      4053 6.19713E-03 1.05417E-03-9.86082E-16
 -1      4054 8.72438E-03 2.12058E-03-4.11060E-15
 -1      4055 6.55642E-03 1.20225E-03-1.38987E-15
 -1      4056 6.43833E-03 1.15280E-03-1.27495E-15
 -1      4057 6.04360E-03 9.97566E-04-1.47277E-15
 -1      4058 5.93958E-03 9.60285E-04-1.54144E-15
 -1      4059 5.97867E-03 9.69862E-04-1.74100E-15
 -1      4060 1.37117E-02 4.19995E-03-1.05043E-14
 -1      4061 1.35893E-02 4.13343E-03-1.07390E-14
 -1      4062 6.35865E-03 1.12031E-03-1.17086E-15
 -1      4063 6.27132E-03 1.08423E-03-1.08198E-15
 -1      4064 6.21347E-03 1.06092E-03-1.18345E-15
 -1      4065 6.36834E-03 1.12231E-03-1.39015E-15
 -1      4066 7.05857E-03 1.41650E-03-1.89119E-15
 -1      4067 6.92941E-03 1.36075E-03-1.75848E-15
 -1      4068 7.07722E-03 1.41655E-03-2.15011E-15
 -1      4069 5.66460E-03 8.38444E-04-2.02831E-15
 -1      4070 6.80242E-03 1.30640E-03-1.63048E-15
 -1      4071 6.67800E-03 1.25334E-03-1.50807E-15
 -1      4072 6.56985E-03 1.20365E-03-1.61980E-15
 -1      4073 6.81912E-03 1.30725E-03-1.87507E-15
 -1      4074 1.35089E-02 4.07158E-03-1.13693E-14
 -1      4075 1.35648E-02 4.11036E-03-1.10412E-14
 -1      4076 1.34055E-02 4.04582E-03-1.07738E-14
 -1      4077 1.33563E-02 3.99968E-03-1.13717E-14
 -1      4078 1.33124E-02 3.92412E-03-1.28152E-14
 -1      4079 1.33696E-02 3.96534E-03-1.24387E-14
 -1      4080 1.32746E-02 3.93543E-03-1.20449E-14
 -1      4081 1.31603E-02 3.85306E-03-1.27945E-14
 -1      4082 5.80064E-03 8.85015E-04-2.15413E-15
 -1      4083 6.16321E-03 1.00419E-03-2.72629E-15
 -1      4084 6.30053E-03 1.05509E-03-2.88307E-15
 -1      4085 6.43731E-03 1.10662E-03-3.04444E-15
 -1      4086 6.57412E-03 1.15898E-03-3.20996E-15
 -1      4087 6.43117E-03 1.11443E-03-2.78777E-15
 -1      4088 6.71087E-03 1.21200E-03-3.37843E-15
 -1      4089 6.84789E-03 1.26574E-03-3.55171E-15
 -1      4090 6.70113E-03 1.21828E-03-3.10914E-15
 -1      4091 6.98511E-03 1.32008E-03-3.72793E-15
 -1      4092 7.12272E-03 1.37499E-03-3.90519E-15
 -1      4093 6.97261E-03 1.32556E-03-3.44540E-15
 -1      4094 7.26067E-03 1.43041E-03-4.08840E-15
 -1      4095 7.39904E-03 1.48627E-03-4.27372E-15
 -1      4096 7.24608E-03 1.43558E-03-3.79586E-15
 -1      4097 7.53778E-03 1.54253E-03-4.46174E-15
 -1      4098 7.67694E-03 1.59913E-03-4.65193E-15
 -1      4099 7.52162E-03 1.54773E-03-4.15751E-15
 -1      4100 7.81647E-03 1.65604E-03-4.84384E-15
 -1      4101 7.95637E-03 1.71320E-03-5.04036E-15
 -1      4102 7.79912E-03 1.66144E-03-4.52988E-15
 -1      4103 8.09660E-03 1.77059E-03-5.23838E-15
 -1      4104 8.23716E-03 1.82816E-03-5.43996E-15
 -1      4105 8.07837E-03 1.77628E-03-4.91443E-15
 -1      4106 8.37801E-03 1.88591E-03-5.64403E-15
 -1      4107 8.51913E-03 1.94380E-03-5.84661E-15
 -1      4108 8.35911E-03 1.89194E-03-5.31004E-15
 -1      4109 8.66048E-03 2.00182E-03-6.05059E-15
 -1      4110 8.80205E-03 2.05993E-03-6.25705E-15
 -1      4111 8.64109E-03 2.00816E-03-5.71037E-15
 -1      4112 8.94382E-03 2.11815E-03-6.46514E-15
 -1      4113 9.08575E-03 2.17644E-03-6.67379E-15
 -1      4114 8.92407E-03 2.12479E-03-6.11665E-15
 -1      4115 9.22784E-03 2.23480E-03-6.88104E-15
 -1      4116 9.37006E-03 2.29322E-03-7.09075E-15
 -1      4117 9.20783E-03 2.24169E-03-6.52778E-15
 -1      4118 9.51239E-03 2.35169E-03-7.29905E-15
 -1      4119 9.65482E-03 2.41020E-03-7.50474E-15
 -1      4120 9.49220E-03 2.35879E-03-6.93721E-15
 -1      4121 9.79734E-03 2.46875E-03-7.71379E-15
 -1      4122 9.93993E-03 2.52734E-03-7.92132E-15
 -1      4123 9.77702E-03 2.47602E-03-7.34666E-15
 -1      4124 1.00826E-02 2.58595E-03-8.13036E-15
 -1      4125 1.02253E-02 2.64459E-03-8.34063E-15
 -1      4126 1.00622E-02 2.59336E-03-7.75369E-15
 -1      4127 1.03680E-02 2.70326E-03-8.55080E-15
 -1      4128 1.05108E-02 2.76194E-03-8.76111E-15
 -1      4129 1.03475E-02 2.71076E-03-8.16453E-15
 -1      4130 1.06536E-02 2.82063E-03-8.97405E-15
 -1      4131 1.07964E-02 2.87935E-03-9.18852E-15
 -1      4132 1.06331E-02 2.82822E-03-8.57977E-15
 -1      4133 1.09393E-02 2.93807E-03-9.40238E-15
 -1      4134 1.10822E-02 2.99680E-03-9.61835E-15
 -1      4135 1.09188E-02 2.94571E-03-8.99781E-15
 -1      4136 1.12250E-02 3.05555E-03-9.83474E-15
 -1      4137 1.13679E-02 3.11430E-03-1.00501E-14
 -1      4138 1.12045E-02 3.06322E-03-9.42177E-15
 -1      4139 1.15108E-02 3.17306E-03-1.02645E-14
 -1      4140 1.16537E-02 3.23182E-03-1.04818E-14
 -1      4141 1.14903E-02 3.18076E-03-9.84460E-15
 -1      4142 1.17966E-02 3.29059E-03-1.06968E-14
 -1      4143 1.19395E-02 3.34936E-03-1.09145E-14
 -1      4144 1.17761E-02 3.29831E-03-1.02700E-14
 -1      4145 1.20824E-02 3.40813E-03-1.11355E-14
 -1      4146 1.22253E-02 3.46691E-03-1.13558E-14
 -1      4147 1.20619E-02 3.41586E-03-1.07005E-14
 -1      4148 1.23682E-02 3.52569E-03-1.15783E-14
 -1      4149 1.25111E-02 3.58448E-03-1.18014E-14
 -1      4150 1.23476E-02 3.53343E-03-1.11392E-14
 -1      4151 1.26540E-02 3.64326E-03-1.20236E-14
 -1      4152 1.27969E-02 3.70205E-03-1.22501E-14
 -1      4153 1.26334E-02 3.65100E-03-1.15784E-14
 -1      4154 1.29072E-02 3.74816E-03-1.24081E-14
 -1      4155 1.30500E-02 3.80695E-03-1.26365E-14
 -1      4156 1.31072E-02 3.84813E-03-1.22647E-14
 -1      4157 1.28866E-02 3.75590E-03-1.19544E-14
 -1      4158 9.02736E-03 2.23396E-03-4.81798E-15
 -1      4159 8.88593E-03 2.17464E-03-4.62980E-15
 -1      4160 9.87985E-03 2.58927E-03-5.96108E-15
 -1      4161 9.73743E-03 2.53014E-03-5.77156E-15
 -1      4162 9.31089E-03 2.35253E-03-5.19940E-15
 -1      4163 9.16902E-03 2.29325E-03-5.00828E-15
 -1      4164 9.04762E-03 2.22799E-03-5.16045E-15
 -1      4165 1.01650E-02 2.70744E-03-6.33709E-15
 -1      4166 1.00224E-02 2.64837E-03-6.15043E-15
 -1      4167 9.90028E-03 2.58230E-03-6.32040E-15
 -1      4168 1.04503E-02 2.82547E-03-6.71266E-15
 -1      4169 1.03076E-02 2.76647E-03-6.52612E-15
 -1      4170 1.01854E-02 2.70026E-03-6.70275E-15
 -1      4171 1.07358E-02 2.94340E-03-7.08588E-15
 -1      4172 1.05931E-02 2.88445E-03-6.89848E-15
 -1      4173 1.04708E-02 2.81814E-03-7.08439E-15
 -1      4174 1.10215E-02 3.06124E-03-7.46453E-15
 -1      4175 1.08786E-02 3.00233E-03-7.27451E-15
 -1      4176 1.07563E-02 2.93594E-03-7.46789E-15
 -1      4177 1.13072E-02 3.17900E-03-7.84869E-15
 -1      4178 1.11643E-02 3.12013E-03-7.65459E-15
 -1      4179 1.10420E-02 3.05369E-03-7.85560E-15
 -1      4180 1.15930E-02 3.29671E-03-8.23788E-15
 -1      4181 1.14501E-02 3.23786E-03-8.04221E-15
 -1      4182 1.13277E-02 3.17139E-03-8.24812E-15
 -1      4183 1.18788E-02 3.41437E-03-8.63929E-15
 -1      4184 1.17359E-02 3.35555E-03-8.43847E-15
 -1      4185 1.16135E-02 3.28905E-03-8.64829E-15
 -1      4186 1.21645E-02 3.53201E-03-9.04065E-15
 -1      4187 1.20216E-02 3.47319E-03-8.83749E-15
 -1      4188 1.18993E-02 3.40668E-03-9.05330E-15
 -1      4189 1.24503E-02 3.64961E-03-9.45240E-15
 -1      4190 1.23074E-02 3.59081E-03-9.24749E-15
 -1      4191 1.21851E-02 3.52429E-03-9.46334E-15
 -1      4192 1.27361E-02 3.76721E-03-9.86804E-15
 -1      4193 1.25932E-02 3.70841E-03-9.65913E-15
 -1      4194 1.24709E-02 3.64189E-03-9.88054E-15
 -1      4195 1.30219E-02 3.88479E-03-1.02883E-14
 -1      4196 1.28790E-02 3.82600E-03-1.00788E-14
 -1      4197 1.27566E-02 3.75948E-03-1.03030E-14
 -1      4198 1.32851E-02 3.99470E-03-1.06358E-14
 -1      4199 1.31423E-02 3.93591E-03-1.04245E-14
 -1      4200 1.30199E-02 3.86939E-03-1.06565E-14
 -1      4201 1.32606E-02 3.97163E-03-1.09336E-14
 -1      4202 5.96730E-03 9.55887E-04-2.03532E-15
 -1      4203 5.90916E-03 9.15480E-04-2.39748E-15
 -1      4204 8.74477E-03 2.11532E-03-4.44311E-15
 -1      4205 8.60391E-03 2.05600E-03-4.25705E-15
 -1      4206 8.76491E-03 2.10983E-03-4.77725E-15
 -1      4207 9.59512E-03 2.47097E-03-5.58115E-15
 -1      4208 9.45293E-03 2.41176E-03-5.38918E-15
 -1      4209 9.33123E-03 2.34615E-03-5.54751E-15
 -1      4210 6.04744E-03 9.64803E-04-2.54278E-15
 -1      4211 7.63154E-03 1.64358E-03-3.03933E-15
 -1      4212 7.49550E-03 1.58568E-03-2.87822E-15
 -1      4213 6.18318E-03 1.02462E-03-2.45181E-15
 -1      4214 8.46343E-03 1.99671E-03-4.07268E-15
 -1      4215 8.32335E-03 1.93747E-03-3.89093E-15
 -1      4216 8.48339E-03 1.99178E-03-4.39965E-15
 -1      4217 7.09403E-03 1.41575E-03-2.41491E-15
 -1      4218 6.96293E-03 1.36073E-03-2.26799E-15
 -1      4219 9.61551E-03 2.46427E-03-5.93472E-15
 -1      4220 1.32114E-02 3.92549E-03-1.15265E-14
 -1      4221 1.32360E-02 3.94856E-03-1.12300E-14
 -1      4222 1.31157E-02 3.89744E-03-1.10884E-14
 -1      4223 6.07601E-03 9.99556E-04-1.96936E-15
 -1      4224 8.18375E-03 1.87832E-03-3.71399E-15
 -1      4225 8.04468E-03 1.81929E-03-3.54057E-15
 -1      4226 8.20342E-03 1.87403E-03-4.02957E-15
 -1      4227 7.92545E-03 1.75685E-03-3.67282E-15
 -1      4228 7.90624E-03 1.76046E-03-3.36967E-15
 -1      4229 7.76849E-03 1.70184E-03-3.20155E-15
 -1      4230 7.36048E-03 1.52836E-03-2.71838E-15
 -1      4231 7.22661E-03 1.47162E-03-2.56502E-15
 -1      4232 7.37784E-03 1.52611E-03-3.00286E-15
 -1      4233 6.84637E-03 1.30550E-03-2.38256E-15
 -1      4234 6.83345E-03 1.30697E-03-2.12657E-15
 -1      4235 6.70585E-03 1.25439E-03-1.98885E-15
 -1      4236 1.31543E-02 3.88431E-03-1.18987E-14
 -1      4237 6.16668E-03 1.04296E-03-1.28040E-15
 -1      4238 6.09871E-03 1.01800E-03-1.37817E-15
 -1      4239 6.14011E-03 1.03197E-03-1.57711E-15
 -1      4240 6.24290E-03 1.07228E-03-1.38286E-15
 -1      4241 6.58023E-03 1.20355E-03-1.85584E-15
 -1      4242 6.45703E-03 1.15428E-03-1.72867E-15
 -1      4243 6.58904E-03 1.20193E-03-2.09858E-15
 -1      4244 6.27315E-03 1.07212E-03-2.12467E-15
 -1      4245 6.38221E-03 1.11091E-03-2.29736E-15
 -1      4246 6.51243E-03 1.16052E-03-2.44240E-15
 -1      4247 6.64373E-03 1.21137E-03-2.59196E-15
 -1      4248 7.10965E-03 1.41402E-03-2.68358E-15
 -1      4249 9.63585E-03 2.45745E-03-6.29043E-15
 -1      4250 9.49360E-03 2.39854E-03-6.09365E-15
 -1      4251 9.26968E-03 2.29399E-03-6.03777E-15
 -1      4252 9.12778E-03 2.23522E-03-5.83946E-15
 -1      4253 6.77582E-03 1.26356E-03-2.74543E-15
 -1      4254 6.90894E-03 1.31675E-03-2.90283E-15
 -1      4255 7.04287E-03 1.37097E-03-3.06489E-15
 -1      4256 7.17773E-03 1.42594E-03-3.22950E-15
 -1      4257 7.31337E-03 1.48168E-03-3.39915E-15
 -1      4258 7.44981E-03 1.53796E-03-3.57147E-15
 -1      4259 7.58693E-03 1.59478E-03-3.74311E-15
 -1      4260 7.72473E-03 1.65198E-03-3.92146E-15
 -1      4261 7.86313E-03 1.70955E-03-4.10183E-15
 -1      4262 8.00208E-03 1.76737E-03-4.28486E-15
 -1      4263 8.14152E-03 1.82544E-03-4.47243E-15
 -1      4264 8.28141E-03 1.88366E-03-4.66154E-15
 -1      4265 8.42171E-03 1.94206E-03-4.85561E-15
 -1      4266 8.56236E-03 2.00054E-03-5.05077E-15
 -1      4267 8.70333E-03 2.05913E-03-5.24504E-15
 -1      4268 8.84457E-03 2.11778E-03-5.44036E-15
 -1      4269 8.98607E-03 2.17648E-03-5.63871E-15
 -1      4270 9.43192E-03 2.34595E-03-6.59177E-15
 -1      4271 9.57419E-03 2.40463E-03-6.79400E-15
 -1      4272 9.75670E-03 2.48319E-03-6.98005E-15
 -1      4273 9.89919E-03 2.54193E-03-7.17934E-15
 -1      4274 1.01238E-02 2.64683E-03-7.22600E-15
 -1      4275 1.02665E-02 2.70565E-03-7.42445E-15
 -1      4276 1.04092E-02 2.76447E-03-7.62200E-15
 -1      4277 1.05519E-02 2.82328E-03-7.82061E-15
 -1      4278 1.06947E-02 2.88209E-03-8.02083E-15
 -1      4279 1.08375E-02 2.94090E-03-8.22134E-15
 -1      4280 1.09804E-02 2.99971E-03-8.42519E-15
 -1      4281 1.11232E-02 3.05851E-03-8.62754E-15
 -1      4282 1.12661E-02 3.11731E-03-8.83197E-15
 -1      4283 1.14090E-02 3.17611E-03-9.03889E-15
 -1      4284 1.15518E-02 3.23491E-03-9.24648E-15
 -1      4285 1.16947E-02 3.29370E-03-9.45336E-15
 -1      4286 1.18376E-02 3.35250E-03-9.65848E-15
 -1      4287 1.19805E-02 3.41129E-03-9.86867E-15
 -1      4288 1.21234E-02 3.47008E-03-1.00802E-14
 -1      4289 1.22663E-02 3.52887E-03-1.02932E-14
 -1      4290 1.24092E-02 3.58766E-03-1.05064E-14
 -1      4291 1.25521E-02 3.64645E-03-1.07226E-14
 -1      4292 1.26950E-02 3.70524E-03-1.09407E-14
 -1      4293 1.28379E-02 3.76403E-03-1.11571E-14
 -1      4294 6.33875E-03 1.10485E-03-1.83295E-15
 -1      4295 6.33624E-03 1.10728E-03-1.60633E-15
 -1      4296 6.25577E-03 1.07648E-03-1.49529E-15
 -1      4297 9.96081E-03 2.59517E-03-6.66330E-15
 -1      4298 9.81833E-03 2.53625E-03-6.47018E-15
 -1      4299 1.30440E-02 3.83819E-03-1.17477E-14
 -1      4300 7.65004E-03 1.64067E-03-3.33311E-15
 -1      4301 9.69626E-03 2.47038E-03-6.63459E-15
 -1      4302 9.41174E-03 2.35278E-03-6.23771E-15
 -1      4303 1.29583E-02 3.81515E-03-1.12991E-14
 -1      4304 9.98121E-03 2.58801E-03-7.02868E-15
 -1      4305 6.14542E-03 1.02559E-03-1.99060E-15
 -1      4306 1.29337E-02 3.79208E-03-1.15933E-14
 -1      4307 6.20475E-03 1.05603E-03-1.59337E-15
 -1      4308 6.15053E-03 1.03438E-03-1.69047E-15
 -3
    1PSTEP                         2           1           1          
  100CL  101 1.000000000        4308                     0    1           1
 -4  STRESS      6    1
 -5  SXX         1    4    1    1
 -5  SYY         1    4    2    2
 -5  SZZ         1    4    3    3
 -5  SXY         1    4    1    2
 -5  SYZ         1    4    2    3
 -5  SZX         1    4    3    1
 -1         1 6.71076E+01 8.51610E-01 3.45205E+00 2.15794E-01 2.17257E-14 1.14980E-12
 -1         2-7.34329E-01-2.53469E+01-3.43268E+00-2.63098E-01 8.65835E-13 7.91173E-14
 -1         3 1.99998E+01 1.55757E-05-4.61334E-05 1.56085E-05-3.98735E-13-3.13962E-13
 -1         4 1.99998E+01 1.42511E-05-4.72701E-05-1.45718E-05 5.83496E-14 4.99488E-14
 -1         5 3.68304E+01 6.99757E+00 2.70804E+00 6.30557E+00-2.12608E-14 9.43440E-13
 -1         6 3.81210E+01 1.30546E+01 5.39435E+00-9.10856E+00-8.40994E-14-3.99014E-13
 -1         7 2.23928E+01 6.55006E+00-1.13027E-01-4.84329E+00-1.01030E-14-6.90292E-13
 -1         8 2.10113E+01 6.33661E+00 7.20661E-02-3.18650E+00 5.93275E-15-6.07500E-13
 -1         9 2.02617E+01 6.11001E+00 8.07868E-02-2.23971E+00 1.08281E-14-4.94592E-13
 -1        10 1.97433E+01 5.94658E+00 9.59186E-02-1.41186E+00 1.78434E-14-3.72005E-13
 -1        11 1.92056E+01 5.78094E+00 1.02340E-01-6.19890E-01 1.56333E-14-2.64335E-13
 -1        12 1.85504E+01 5.58293E+00 9.59467E-02 1.08522E-01 1.50054E-14-1.64906E-13
 -1        13 1.77269E+01 5.33736E+00 7.19483E-02 7.35789E-01 1.65284E-14-7.19021E-14
 -1        14 1.68122E+01 5.06653E+00 2.94784E-02 1.16420E+00 1.79440E-14-3.70060E-15
 -1        15 1.59760E+01 4.82037E+00-2.42989E-02 1.32447E+00 1.52343E-14 5.82494E-14
 -1        16 1.54642E+01 4.67134E+00-7.33592E-02 1.20918E+00 1.65111E-14 1.21734E-13
 -1        17 1.55245E+01 4.69246E+00-9.83812E-02 9.06054E-01 1.66256E-14 1.77473E-13
 -1        18 1.62808E+01 4.92030E+00-8.80202E-02 5.93578E-01 1.68199E-14 2.60380E-13
 -1        19 1.77533E+01 5.36055E+00-4.16393E-02 4.71786E-01 1.93179E-14 3.58842E-13
 -1        20 1.97874E+01 5.96666E+00 3.10553E-02 7.47622E-01 1.80272E-14 4.90883E-13
 -1        21 2.22129E+01 6.68343E+00 1.29763E-01 1.62127E+00 1.44745E-14 6.70448E-13
 -1        22 2.51957E+01 7.46167E+00 3.04879E-01 3.51584E+00-5.31519E-15 8.73327E-13
 -1        23 2.49508E+01-1.48215E+00-9.97820E-01-7.09840E-01-5.52752E-14-6.29080E-13
 -1        24 2.12051E+01-9.34455E-02-3.04154E-01 7.46645E-02-1.47512E-14-8.27288E-13
 -1        25 2.03227E+01-4.41081E-02-4.53833E-02 5.64036E-02 3.20208E-15-9.36031E-13
 -1        26 1.96652E+01-9.13693E-03 1.88392E-02 1.38528E-02-2.53243E-16-1.00475E-12
 -1        27 1.89594E+01-2.41874E-03 2.07351E-02-9.46361E-03-1.13457E-14-1.03226E-12
 -1        28 1.81620E+01-4.23075E-03 7.98163E-03-2.44019E-02-6.35651E-15-1.06302E-12
 -1        29 1.73548E+01-1.08666E-02-9.96511E-03-2.91954E-02-2.65272E-15-1.20154E-12
 -1        30 1.66972E+01-1.85296E-02-2.77831E-02-2.23539E-02 3.12792E-15-1.27710E-12
 -1        31 1.63619E+01-2.34053E-02-3.91523E-02-5.56338E-03 6.45621E-15-1.29122E-12
 -1        32 1.64608E+01-2.29066E-02-3.93083E-02 1.54859E-02-2.84536E-14-1.26173E-12
 -1        33 1.69912E+01-1.68601E-02-2.82469E-02 3.32975E-02 5.11347E-14-1.31824E-12
 -1        34 1.78344E+01-7.46653E-03-1.08907E-02 4.23436E-02-1.80303E-14-1.26490E-12
 -1        35 1.88049E+01 2.05403E-03 6.02775E-03 4.14169E-02 1.81939E-14-1.36647E-12
 -1        36 1.97199E+01 9.09060E-03 1.75400E-02 3.31691E-02-1.39065E-15-1.36970E-12
 -1        37 2.04515E+01 1.25480E-02 2.20592E-02 2.18473E-02-4.78239E-14-1.25558E-12
 -1        38 2.09445E+01 1.27639E-02 2.08865E-02 1.10850E-02 5.27334E-15-1.26438E-12
 -1        39 2.12054E+01 1.08342E-02 1.64827E-02 2.87110E-03 1.01129E-14-1.22281E-12
 -1        40 2.12775E+01 7.95030E-03 1.11189E-02-2.31555E-03-3.21808E-14-1.23399E-12
 -1        41 2.12173E+01 5.00955E-03 6.25214E-03-4.90353E-03 3.60235E-14-1.32592E-12
 -1        42 2.10783E+01 2.52188E-03 2.52874E-03-5.65452E-03-3.95374E-14-1.26380E-12
 -1        43 2.09034E+01 6.77757E-04 4.10675E-05-5.30804E-03-2.91713E-14-1.27752E-12
 -1        44 2.07226E+01-5.34045E-04-1.39959E-03-4.43148E-03 5.98007E-14-1.01856E-12
 -1        45 2.05546E+01-1.22278E-03-2.07149E-03-3.39710E-03-1.46736E-14-8.89605E-13
 -1        46 2.04088E+01-1.52609E-03-2.23886E-03-2.41621E-03 4.44084E-14-1.07079E-12
 -1        47 2.02888E+01-1.57218E-03-2.11088E-03-1.58766E-03 8.21248E-15-6.65238E-13
 -1        48 2.01942E+01-1.46419E-03-1.83546E-03-9.40872E-04 1.00428E-14-4.92072E-13
 -1        49 2.01223E+01-1.27732E-03-1.50820E-03-4.67385E-04 3.31451E-14-5.28386E-13
 -1        50 2.00697E+01-1.06208E-03-1.18547E-03-1.41444E-04-1.69436E-14-6.47857E-13
 -1        51 2.00327E+01-8.49660E-04-8.96635E-04 6.78450E-05-1.73111E-14-8.27689E-13
 -1        52 2.00078E+01-6.57268E-04-6.53826E-04 1.90046E-04 2.80685E-15-5.77824E-13
 -1        53 1.99921E+01-4.92703E-04-4.58910E-04 2.50480E-04-1.62010E-14-5.31379E-13
 -1        54 1.99830E+01-3.57837E-04-3.08243E-04 2.69371E-04 2.49327E-14-8.73417E-13
 -1        55 1.99786E+01-2.51112E-04-1.95669E-04 2.62062E-04-5.16877E-14-1.11433E-12
 -1        56 1.99773E+01-1.69227E-04-1.14307E-04 2.39681E-04 8.57853E-14-1.06383E-12
 -1        57 1.99779E+01-1.08214E-04-5.75536E-05 2.09950E-04-1.93119E-16-1.07407E-12
 -1        58 1.99798E+01-6.40898E-05-1.95814E-05 1.77970E-04 1.10383E-13-9.70883E-13
 -1        59 1.99822E+01-3.32104E-05 4.47560E-06 1.46922E-04-8.65356E-14-8.90783E-13
 -1        60 1.99848E+01-1.24263E-05 1.85251E-05 1.18623E-04 5.63999E-14-8.39379E-13
 -1        61 1.99874E+01 8.75064E-07 2.56110E-05 9.39651E-05-1.57600E-14-8.64043E-13
 -1        62 1.99898E+01 8.79643E-06 2.80459E-05 7.32341E-05-1.65346E-14-1.25283E-12
 -1        63 1.99919E+01 1.29919E-05 2.75533E-05 5.63403E-05 6.01903E-14-1.28825E-12
 -1        64 1.99938E+01 1.47426E-05 2.54066E-05 4.29751E-05-4.07420E-14-1.55374E-12
 -1        65 1.99954E+01 1.50341E-05 2.25673E-05 3.27037E-05 2.35025E-14-1.11335E-12
 -1        66 1.99967E+01 1.46274E-05 1.98333E-05 2.49998E-05-2.67024E-15-6.84607E-13
 -1        67 1.99978E+01 1.41112E-05 1.80040E-05 1.92081E-05 1.83677E-13-5.42555E-13
 -1        68 1.99987E+01 1.39019E-05 1.79774E-05 1.43775E-05-8.95681E-14-1.90810E-14
 -1        69 1.99993E+01 1.40139E-05 2.02247E-05 8.83104E-06 5.09270E-14-1.23858E-13
 -1        70 1.99997E+01 1.21166E-05 2.10434E-05-1.70668E-06 1.52025E-14 4.77020E-13
 -1        71 1.99998E+01-2.24680E-06 1.30679E-06-1.61770E-05-2.51938E-14 5.39171E-13
 -1        72 2.67107E+01-4.65484E-01-1.07730E+00-5.03214E-01-9.20791E-15 1.10126E-12
 -1        73 2.70531E+01-6.45654E-02-2.83376E-01-1.08924E-01-1.27407E-14 1.20408E-12
 -1        74 2.82474E+01-4.96632E-03-4.97535E-02-8.78593E-02 1.86714E-14 1.28745E-12
 -1        75 2.97873E+01 3.23334E-02 6.19618E-02-1.13642E-01-1.46170E-14 1.37783E-12
 -1        76 3.08955E+01 6.46611E-02 1.87769E-01-1.09986E-01 1.59343E-14 1.48575E-12
 -1        77 3.03896E+01 6.09635E-02 2.89406E-01-4.51628E-03-1.03303E-14 1.64248E-12
 -1        78 2.71867E+01-4.64301E-03 1.97407E-01 2.39172E-01-3.06127E-14 1.98998E-12
 -1        79 2.17690E+01-9.53702E-02-2.06312E-01 4.72215E-01 5.68122E-15 2.10316E-12
 -1        80 1.73236E+01-1.06913E-01-6.14391E-01 3.59079E-01-7.17412E-14 2.16132E-12
 -1        81 1.75415E+01-3.92971E-02-5.80991E-01-9.49781E-02 4.21147E-14 2.05677E-12
 -1        82 2.22750E+01 2.67380E-02-1.61202E-01-4.22512E-01 4.19491E-14 1.49329E-12
 -1        83 2.77364E+01 5.70894E-02 2.02017E-01-3.84741E-01-1.43206E-14 9.81298E-13
 -1        84 3.08328E+01 5.31535E-02 2.76810E-01-1.75746E-01 2.59944E-14 9.80188E-13
 -1        85 3.11672E+01 3.11060E-02 1.76935E-01-1.23457E-02-2.92192E-15 8.96051E-13
 -1        86 2.98130E+01 9.20113E-03 6.06676E-02 5.87788E-02 9.88982E-14 7.34902E-13
 -1        87 2.78702E+01-4.38592E-03-7.86880E-03 7.10730E-02-4.99701E-14 5.84987E-13
 -1        88 2.59801E+01-1.01903E-02-3.32047E-02 6.00027E-02-4.16394E-14 1.01393E-12
 -1        89 2.43970E+01-1.12330E-02-3.55731E-02 4.42748E-02 9.05935E-14 7.10007E-13
 -1        90 2.31654E+01-1.00925E-02-2.95969E-02 3.06620E-02-5.68569E-14 5.49756E-13
 -1        91 2.22447E+01-8.26473E-03-2.22734E-02 2.05690E-02-1.19584E-14 8.26632E-13
 -1        92 2.15715E+01-6.44685E-03-1.60344E-02 1.35726E-02-3.28949E-14 9.75223E-13
 -1        93 2.10858E+01-4.89515E-03-1.13293E-02 8.86995E-03 1.03309E-14 1.07331E-12
 -1        94 2.07384E+01-3.66026E-03-7.95354E-03 5.74979E-03 1.74142E-14 7.59432E-13
 -1        95 2.04919E+01-2.71186E-03-5.57739E-03 3.68785E-03-3.36803E-14 5.30184E-13
 -1        96 2.03184E+01-1.99669E-03-3.91235E-03 2.32541E-03 9.79106E-14 8.34214E-13
 -1        97 2.01975E+01-1.46226E-03-2.74273E-03 1.42491E-03-5.69117E-14 5.47962E-13
 -1        98 2.01144E+01-1.06457E-03-1.91683E-03 8.30937E-04-7.67168E-14 7.54261E-13
 -1        99 2.00584E+01-7.69289E-04-1.33053E-03 4.41846E-04-6.50149E-14 8.54398E-13
 -1       100 2.00217E+01-5.50458E-04-9.12772E-04 1.90657E-04 6.68175E-14 7.26239E-13
 -1       101 1.99987E+01-3.88739E-04-6.14813E-04 3.27164E-05-7.89760E-14 5.68406E-13
 -1       102 1.99850E+01-2.69776E-04-4.02862E-04-6.21375E-05 2.11866E-14 6.85921E-13
 -1       103 1.99779E+01-1.82876E-04-2.53158E-04-1.14533E-04-8.26330E-15 6.70909E-13
 -1       104 1.99750E+01-1.20029E-04-1.48737E-04-1.38746E-04-5.27090E-14 7.81812E-13
 -1       105 1.99749E+01-7.51871E-05-7.72860E-05-1.44733E-04 4.77800E-14 8.09932E-13
 -1       106 1.99764E+01-4.37599E-05-2.97423E-05-1.39446E-04-3.87825E-14 7.80628E-13
 -1       107 1.99788E+01-2.22522E-05 6.18274E-07-1.27695E-04 9.69972E-15 3.65631E-13
 -1       108 1.99816E+01-8.00125E-06 1.87952E-05-1.12760E-04 7.89392E-14-2.43715E-13
 -1       109 1.99845E+01 1.01812E-06 2.84989E-05-9.68241E-05-4.70565E-14 5.47433E-13
 -1       110 1.99872E+01 6.34099E-06 3.24712E-05-8.12934E-05 2.06294E-14 6.31011E-13
 -1       111 1.99897E+01 9.12647E-06 3.27259E-05-6.70234E-05 3.01215E-14-7.28564E-14
 -1       112 1.99919E+01 1.02477E-05 3.07337E-05-5.44911E-05-7.64348E-14 8.16468E-14
 -1       113 1.99938E+01 1.03641E-05 2.75715E-05-4.39174E-05-3.43967E-14 5.56901E-13
 -1       114 1.99954E+01 9.98074E-06 2.40577E-05-3.53548E-05-1.74049E-13 8.71807E-13
 -1       115 1.99967E+01 9.49283E-06 2.08940E-05-2.87336E-05 1.97818E-14 1.42424E-12
 -1       116 1.99978E+01 9.18524E-06 1.88275E-05-2.38293E-05 2.05299E-13 8.63135E-13
 -1       117 1.99987E+01 9.25021E-06 1.87585E-05-2.01417E-05 9.08870E-14-2.98169E-13
 -1       118 1.99993E+01 9.54461E-06 2.11486E-05-1.65352E-05-1.11936E-14-1.18492E-13
 -1       119 1.99997E+01 8.12855E-06 2.18800E-05-8.71681E-06 2.17352E-13-1.40831E-12
 -1       120 1.99998E+01-8.42753E-06-9.95097E-07 1.09696E-05 1.61823E-13-1.52692E-12
 -1       121 1.99998E+01 3.34832E-05 8.55024E-07 1.75425E-05-1.34774E-12-1.89796E-13
 -1       122 1.99998E+01-1.00914E-04 2.10585E-05-3.26022E-06-3.15669E-13 1.09500E-13
 -1       123 1.99998E+01-4.91390E-04 1.48488E-05-1.53186E-05 5.74891E-13 3.05968E-14
 -1       124 1.99998E+01-1.02738E-03 4.49361E-06-1.99268E-05 1.99554E-13-5.47127E-14
 -1       125 1.99998E+01-1.60136E-03-4.68288E-06-1.94519E-05-5.75850E-13-5.60097E-14
 -1       126 1.99998E+01-2.11176E-03-1.15690E-05-1.60544E-05-1.37400E-12 2.63850E-13
 -1       127 1.99998E+01-2.50066E-03-1.61112E-05-1.04004E-05-6.67240E-13 2.37300E-13
 -1       128 1.99998E+01-2.70719E-03-1.83887E-05-3.54933E-06-4.82701E-13-1.12754E-13
 -1       129 1.99998E+01-2.70507E-03-1.83535E-05 3.67702E-06 7.69806E-13 2.58284E-13
 -1       130 1.99998E+01-2.49471E-03-1.60189E-05 1.04829E-05 7.86698E-13-3.26981E-13
 -1       131 1.99998E+01-2.10319E-03-1.13442E-05 1.62364E-05-8.82495E-13 2.72009E-15
 -1       132 1.99998E+01-1.59183E-03-4.57372E-06 1.94638E-05-1.52831E-12 2.36570E-13
 -1       133 1.99998E+01-1.01833E-03 4.52360E-06 1.97816E-05-1.09845E-12 5.66987E-14
 -1       134 1.99998E+01-4.82625E-04 1.58206E-05 1.66919E-05-4.85160E-13 1.80973E-13
 -1       135 1.99998E+01-1.03070E-04 1.85019E-05 4.64484E-06-8.47506E-13-6.54579E-14
 -1       136 1.99998E+01 2.82795E-05 1.25844E-07-3.04095E-05-5.88701E-13 1.32010E-13
 -1       137-1.74449E+00-2.16941E+01-3.33265E+00-4.38398E+00 1.49966E-12 3.09898E-13
 -1       138-2.10296E+00-1.04661E+01-2.67082E+00-3.83974E+00 1.57258E-12 7.40880E-13
 -1       139 2.68485E+00 2.18224E+00-1.50742E+00 2.88094E+00 1.42719E-12 1.06837E-12
 -1       140 1.53707E+01 9.54735E+00 1.11643E-02 1.20985E+01 8.63976E-13 1.05871E-12
 -1       141 3.65584E+01 1.01036E+01 1.82500E+00 1.87315E+01 3.61600E-13 4.99933E-13
 -1       142 5.89348E+01 5.52142E+00 3.49062E+00 1.66936E+01-1.04375E-13-6.64968E-13
 -1       143 7.24567E+01 1.62213E+00 4.46652E+00 5.52688E+00-1.44884E-13-1.25328E-12
 -1       144 7.01278E+01 2.35214E+00 4.30138E+00-8.88078E+00 1.80704E-13-1.21150E-12
 -1       145 5.30845E+01 6.98872E+00 3.05243E+00-1.79829E+01 4.29684E-13-1.12654E-12
 -1       146 2.93875E+01 1.02908E+01 1.17855E+00-1.70039E+01 5.40179E-13-8.71081E-13
 -1       147 9.82892E+00 7.38302E+00-6.65956E-01-8.61420E+00 3.37119E-13-3.65263E-13
 -1       148-3.18694E-01-2.48225E+00-2.15191E+00 5.81458E-01-1.69698E-13 5.30131E-14
 -1       149-2.33922E+00-1.49529E+01-3.04124E+00 4.97306E+00-6.87950E-13 2.29095E-13
 -1       150-1.15577E+00-2.29604E+01-3.35074E+00 3.17590E+00-9.69738E-13 1.57165E-13
 -1       151-7.48221E-01-2.30500E+01-3.21653E+00-1.07554E+00-9.00946E-13-3.32477E-14
 -1       152-1.38432E+00-1.48431E+01-2.66524E+00-3.60725E+00-7.90645E-13-2.21406E-13
 -1       153-3.42801E-01-2.75486E+00-1.75065E+00-6.09950E-01-6.34715E-13-3.34649E-13
 -1       154 7.22007E+00 8.00013E+00-4.89152E-01 7.70813E+00-1.80855E-13-1.17406E-13
 -1       155 2.16556E+01 1.17934E+01 8.44512E-01 1.57896E+01 1.97897E-13 1.77636E-13
 -1       156 4.28947E+01 8.92656E+00 2.19723E+00 1.88506E+01 2.46497E-13 5.81479E-13
 -1       157 6.02410E+01 3.39253E+00 3.11478E+00 1.24809E+01 1.70072E-13 1.05871E-12
 -1       158 6.16995E+01 3.00804E+00 3.21652E+00-1.17079E+01-2.92134E-13 1.33166E-12
 -1       159 4.64176E+01 8.13743E+00 2.47724E+00-1.84994E+01-4.59743E-13 1.11489E-12
 -1       160 2.74863E+01 1.17263E+01 1.35772E+00-1.75159E+01-5.39402E-13 7.49290E-13
 -1       161 1.16148E+01 1.01554E+01 6.36674E-02-1.08677E+01-3.73201E-13 4.21829E-13
 -1       162 1.63753E+00 2.19643E+00-1.25574E+00-2.33818E+00 3.94684E-14 5.82867E-15
 -1       163-1.37365E+00-9.44875E+00-2.28391E+00 2.98070E+00 4.24383E-13-1.79273E-13
 -1       164-1.20947E+00-2.02194E+01-3.05097E+00 3.46338E+00 6.22058E-13-1.13177E-13
 -1       165 2.25874E+01 3.80698E+00-6.37774E-02-3.65634E+00-3.32824E-14-5.74939E-13
 -1       166 2.13862E+01 4.20999E+00-5.24743E-02-2.72310E+00 6.54303E-14-4.82149E-13
 -1       167 2.07228E+01 4.31033E+00-3.70553E-02-1.91291E+00 1.22110E-13-3.79903E-13
 -1       168 2.01849E+01 4.26968E+00-2.81359E-02-1.12571E+00 1.65962E-13-2.73120E-13
 -1       169 1.95613E+01 4.20792E+00-2.29572E-02-3.68866E-01 1.83326E-13-1.78864E-13
 -1       170 1.87228E+01 4.19376E+00-1.93064E-02 3.46170E-01 1.96076E-13-9.48391E-14
 -1       171 1.76737E+01 4.27891E+00-1.65845E-02 9.29867E-01 2.16713E-13-1.52534E-14
 -1       172 1.65426E+01 4.47675E+00-1.47701E-02 1.29053E+00 2.25082E-13 3.55896E-14
 -1       173 1.55954E+01 4.74550E+00-1.38840E-02 1.36640E+00 2.19135E-13 9.03724E-14
 -1       174 1.51760E+01 4.99443E+00-1.43304E-02 1.18068E+00 2.20457E-13 1.37542E-13
 -1       175 1.55566E+01 5.12790E+00-1.67377E-02 8.74323E-01 2.12412E-13 2.03777E-13
 -1       176 1.68542E+01 5.10318E+00-2.20378E-02 6.42346E-01 2.01302E-13 2.84296E-13
 -1       177 1.89670E+01 4.91289E+00-3.07404E-02 6.95590E-01 1.73226E-13 3.85105E-13
 -1       178 2.16874E+01 4.52115E+00-4.02300E-02 1.17298E+00 1.12233E-13 5.27696E-13
 -1       179 2.49644E+01 3.60130E+00-4.14733E-02 2.07323E+00 3.78343E-14 6.99586E-13
 -1       180 2.75611E+01 9.80232E-01-3.37484E-01 1.92746E+00-4.38521E-14 8.39953E-13
 -1       181 2.36946E+01 8.39488E-01-2.78120E-03-2.02646E+00-5.39187E-14-5.26461E-13
 -1       182 2.20273E+01 1.19370E-01-1.24561E-02-9.34397E-01-3.06751E-14-4.86656E-13
 -1       183 2.10033E+01 2.17543E-02 1.20999E-02-6.32432E-01-3.15919E-14-4.66711E-13
 -1       184 2.02753E+01-2.40203E-02 9.09839E-03-6.00237E-01-5.66984E-15-4.87294E-13
 -1       185 1.96257E+01-1.83168E-02 5.10324E-03-6.31376E-01-1.02139E-14-4.59542E-13
 -1       186 1.90190E+01 1.92331E-02 3.51338E-03-6.17102E-01-7.01931E-14-4.61955E-13
 -1       187 1.84997E+01 7.20933E-02 3.29273E-03-4.95147E-01-4.98722E-14-4.99743E-13
 -1       188 1.81536E+01 1.18125E-01 3.41747E-03-2.52755E-01 1.12961E-14-4.85062E-13
 -1       189 1.80589E+01 1.35932E-01 3.37754E-03 6.75822E-02-1.92073E-14-4.58456E-13
 -1       190 1.82434E+01 1.16081E-01 2.99636E-03 3.84142E-01-1.27042E-14-4.45500E-13
 -1       191 1.86647E+01 6.68739E-02 2.20114E-03 6.13525E-01-1.30364E-15-5.42614E-13
 -1       192 1.92249E+01 8.38159E-03 1.07200E-03 7.07880E-01-2.75926E-14-5.49273E-13
 -1       193 1.98079E+01-3.96536E-02-1.56843E-04 6.69019E-01 5.18325E-15-5.20337E-13
 -1       194 2.03170E+01-6.66158E-02-1.23307E-03 5.36395E-01 1.22493E-15-5.13070E-13
 -1       195 2.06949E+01-7.24616E-02-1.91569E-03 3.62539E-01-1.90700E-14-4.92729E-13
 -1       196 2.09254E+01-6.35881E-02-2.14617E-03 1.91996E-01 3.41960E-14-4.69091E-13
 -1       197 2.10220E+01-4.76992E-02-1.98633E-03 5.19212E-02-2.54944E-14-4.72162E-13
 -1       198 2.10142E+01-3.07866E-02-1.58296E-03-4.74284E-02-7.56404E-14-5.33457E-13
 -1       199 2.09358E+01-1.62851E-02-1.08854E-03-1.07492E-01-3.67924E-14-6.32811E-13
 -1       200 2.08173E+01-5.50124E-03-6.17697E-04-1.35685E-01-1.69977E-14-6.67336E-13
 -1       201 2.06827E+01 1.58677E-03-2.34332E-04-1.41143E-01 1.24808E-13-5.66655E-13
 -1       202 2.05489E+01 5.63004E-03 4.02471E-05-1.32273E-01 5.66019E-14-6.19521E-13
 -1       203 2.04261E+01 7.45215E-03 2.12187E-04-1.15715E-01 6.31633E-14-3.77868E-13
 -1       204 2.03198E+01 7.81032E-03 3.01021E-04-9.61739E-02 2.41393E-13-2.06533E-13
 -1       205 2.02317E+01 7.30320E-03 3.29815E-04-7.66611E-02 6.71959E-14-1.69199E-13
 -1       206 2.01614E+01 6.35919E-03 3.19626E-04-5.88937E-02-5.24628E-14-2.41146E-13
 -1       207 2.01072E+01 5.26046E-03 2.87199E-04-4.36790E-02-1.27360E-13-3.40947E-13
 -1       208 2.00666E+01 4.17746E-03 2.44595E-04-3.12365E-02-4.83692E-14-3.39028E-13
 -1       209 2.00373E+01 3.20187E-03 1.99777E-04-2.14390E-02 6.04773E-14-3.05859E-13
 -1       210 2.00169E+01 2.37353E-03 1.57514E-04-1.39799E-02 2.41363E-14-3.95738E-13
 -1       211 2.00033E+01 1.70051E-03 1.20288E-04-8.48241E-03-1.19662E-13-2.44997E-13
 -1       212 1.99948E+01 1.17306E-03 8.90577E-05-4.56521E-03-1.70879E-13-2.17801E-13
 -1       213 1.99899E+01 7.72738E-04 6.38413E-05-1.87853E-03 1.20261E-14-2.55556E-13
 -1       214 1.99876E+01 4.78105E-04 4.41345E-05-1.20900E-04 2.84707E-14-3.72285E-13
 -1       215 1.99870E+01 2.68068E-04 2.91861E-05 9.56113E-04 5.71331E-14-5.02634E-13
 -1       216 1.99875E+01 1.23636E-04 1.81735E-05 1.55015E-03 2.40867E-16-4.51014E-13
 -1       217 1.99886E+01 2.86478E-05 1.03045E-05 1.81376E-03-9.43200E-14-5.37140E-13
 -1       218 1.99900E+01-3.01220E-05 4.87095E-06 1.86143E-03 2.93811E-14-4.72794E-13
 -1       219 1.99915E+01-6.31699E-05 1.26925E-06 1.77665E-03-2.34350E-13-4.48872E-13
 -1       220 1.99930E+01-7.86319E-05-9.97951E-07 1.61838E-03-1.44160E-13-5.98232E-13
 -1       221 1.99943E+01-8.27069E-05-2.33064E-06 1.42656E-03-1.38696E-13-8.50683E-13
 -1       222 1.99956E+01-8.00886E-05-3.04428E-06 1.22662E-03 3.07181E-13-7.45626E-13
 -1       223 1.99966E+01-7.43809E-05-3.37752E-06 1.03287E-03 2.65521E-13-4.25377E-13
 -1       224 1.99975E+01-6.84776E-05-3.48288E-06 8.50995E-04 2.61848E-13-1.27298E-13
 -1       225 1.99983E+01-6.49016E-05-3.39713E-06 6.79724E-04 2.28806E-13-6.20274E-14
 -1       226 1.99989E+01-6.59792E-05-3.01206E-06 5.11984E-04 2.23040E-14-1.83102E-13
 -1       227 1.99993E+01-7.32260E-05-2.58521E-06 3.37438E-04 1.92193E-13-1.13329E-13
 -1       228 1.99996E+01-8.24062E-05-1.84112E-06 1.51793E-04 1.21917E-13-6.35300E-14
 -1       229 2.69658E+01 2.73284E-01-4.34321E-02 3.53568E-02-2.04732E-14 7.70932E-13
 -1       230 2.70281E+01 1.31623E-01 6.78889E-03-7.11161E-01-2.99379E-14 7.53767E-13
 -1       231 2.76946E+01-3.09226E-02 1.26028E-02-8.89003E-01-4.11312E-14 7.78658E-13
 -1       232 2.83895E+01-2.74020E-01 2.22775E-02-4.87325E-01-4.31937E-14 7.84950E-13
 -1       233 2.85368E+01-5.66213E-01 2.87277E-02 6.36405E-01-1.34802E-13 8.86040E-13
 -1       234 2.76114E+01-5.84278E-01 1.50004E-02 2.18371E+00-1.29421E-13 9.40987E-13
 -1       235 2.56667E+01-1.41664E-02-7.11324E-02 3.07687E+00-5.62814E-14 1.00281E-12
 -1       236 2.37933E+01 9.06238E-01-1.70035E-01 1.78080E+00-1.27537E-14 9.85305E-13
 -1       237 2.37461E+01 1.07130E+00-1.61435E-01-1.12045E+00 1.34004E-13 8.15351E-13
 -1       238 2.55953E+01 2.69309E-01-6.88106E-02-3.01096E+00 2.82187E-13 8.00405E-13
 -1       239 2.76701E+01-4.72359E-01 1.30431E-02-2.61976E+00 2.26414E-13 5.78284E-13
 -1       240 2.86427E+01-6.04215E-01 2.83675E-02-1.04226E+00 7.86367E-14 3.45964E-13
 -1       241 2.83972E+01-3.86657E-01 1.06492E-02 3.42180E-01 1.04168E-13 2.19141E-13
 -1       242 2.73879E+01-1.46913E-01-4.56686E-03 1.06331E+00 6.18468E-14 1.66207E-13
 -1       243 2.60848E+01-1.08875E-03-8.15593E-03 1.24783E+00-6.09685E-14 4.34783E-13
 -1       244 2.47925E+01 6.03599E-02-5.65649E-03 1.14787E+00-1.53454E-13 3.20910E-13
 -1       245 2.36598E+01 7.41777E-02-2.25606E-03 9.45346E-01 2.02881E-13 2.87094E-13
 -1       246 2.27339E+01 6.75118E-02 6.22715E-05 7.34197E-01-2.86002E-14 3.10658E-13
 -1       247 2.20086E+01 5.47010E-02 1.17127E-03 5.51621E-01-1.38777E-13 3.30098E-13
 -1       248 2.14555E+01 4.19116E-02 1.49476E-03 4.06428E-01-1.18112E-13 4.27240E-13
 -1       249 2.10411E+01 3.12066E-02 1.42948E-03 2.95781E-01-6.45094E-14 5.15789E-13
 -1       250 2.07346E+01 2.28964E-02 1.21805E-03 2.13342E-01 3.17013E-13 4.91953E-13
 -1       251 2.05101E+01 1.66731E-02 9.80013E-04 1.52657E-01 2.26107E-14 1.33940E-13
 -1       252 2.03471E+01 1.20905E-02 7.64230E-04 1.08282E-01-9.66678E-14 1.03945E-13
 -1       253 2.02300E+01 8.73898E-03 5.85267E-04 7.59741E-02-5.60598E-14 4.89571E-13
 -1       254 2.01469E+01 6.29166E-03 4.43161E-04 5.25455E-02-6.05125E-14 4.91451E-13
 -1       255 2.00887E+01 4.50365E-03 3.32854E-04 3.56415E-02-3.20078E-15 4.58592E-13
 -1       256 2.00487E+01 3.19639E-03 2.48272E-04 2.35309E-02 1.51250E-14 4.15727E-13
 -1       257 2.00220E+01 2.24103E-03 1.83869E-04 1.49407E-02 2.52845E-15 3.19847E-13
 -1       258 2.00047E+01 1.54457E-03 1.35060E-04 8.93137E-03-9.42100E-14 4.49727E-14
 -1       259 1.99941E+01 1.03952E-03 9.82213E-05 4.80665E-03-1.77179E-13 4.35824E-13
 -1       260 1.99882E+01 6.76450E-04 7.05420E-05 2.04876E-03 1.42563E-13 5.96231E-13
 -1       261 1.99854E+01 4.18781E-04 4.98641E-05 2.71968E-04 6.44207E-14 3.40149E-13
 -1       262 1.99847E+01 2.39125E-04 3.45353E-05-8.10670E-04-3.67374E-14 1.65950E-13
 -1       263 1.99852E+01 1.16853E-04 2.32858E-05-1.41167E-03 2.73293E-13-1.94228E-13
 -1       264 1.99865E+01 3.63866E-05 1.51339E-05-1.68719E-03 1.68350E-13-3.00659E-13
 -1       265 1.99881E+01-1.40281E-05 9.31855E-06-1.75075E-03-3.11729E-13-2.74457E-13
 -1       266 1.99899E+01-4.32376E-05 5.24876E-06-1.68362E-03 7.39031E-15-2.45089E-13
 -1       267 1.99916E+01-5.78711E-05 2.46603E-06-1.54275E-03 1.53940E-13-2.30474E-14
 -1       268 1.99932E+01-6.28733E-05 6.14782E-07-1.36689E-03-2.15139E-13 2.08811E-13
 -1       269 1.99946E+01-6.19272E-05-5.79666E-07-1.18116E-03-1.06033E-13 2.32448E-13
 -1       270 1.99959E+01-5.78037E-05-1.32371E-06-1.00049E-03-3.34037E-13 2.89184E-13
 -1       271 1.99970E+01-5.26712E-05-1.75382E-06-8.32029E-04 1.55184E-13 2.32147E-13
 -1       272 1.99978E+01-4.83888E-05-1.90962E-06-6.76728E-04 4.18610E-13-1.75614E-13
 -1       273 1.99986E+01-4.65793E-05-1.64039E-06-5.30270E-04 3.98770E-13-3.23390E-14
 -1       274 1.99991E+01-4.87897E-05-7.25057E-07-3.84392E-04 6.04740E-14-7.55584E-14
 -1       275 1.99995E+01-5.71905E-05-6.72057E-07-2.28215E-04 6.76621E-13-3.20372E-13
 -1       276 1.99997E+01-5.34687E-05-2.90847E-06-6.68844E-05-2.64301E-13-4.35257E-13
 -1       277 1.99997E+01-1.85670E-04-1.79092E-06-1.59725E-04-2.21556E-13 8.69461E-13
 -1       278 1.99997E+01-4.57975E-04-6.17189E-07-3.18684E-04-1.74856E-14 4.10297E-13
 -1       279 1.99998E+01-8.20451E-04-2.31570E-07-4.20335E-04 3.98684E-14 6.10227E-14
 -1       280 1.99998E+01-1.22439E-03 2.38438E-07-4.45646E-04 3.36756E-13-3.21796E-13
 -1       281 1.99998E+01-1.60675E-03 1.06041E-06-4.01984E-04-1.53489E-13-5.16312E-13
 -1       282 1.99998E+01-1.92799E-03 1.79392E-06-3.00866E-04-4.27685E-13 8.22724E-14
 -1       283 1.99999E+01-2.13792E-03 2.30721E-06-1.59737E-04-3.10418E-13 4.10156E-13
 -1       284 1.99999E+01-2.20984E-03 2.48468E-06 1.69173E-06 2.35604E-13 5.61613E-13
 -1       285 1.99999E+01-2.13472E-03 2.30380E-06 1.62797E-04 6.33386E-14-8.93966E-14
 -1       286 1.99998E+01-1.92210E-03 1.78797E-06 3.03091E-04-1.59390E-13-8.44277E-13
 -1       287 1.99998E+01-1.60569E-03 1.00951E-06 4.01845E-04-3.19262E-13-2.99879E-13
 -1       288 1.99998E+01-1.21643E-03 2.37042E-07 4.45340E-04-2.77778E-13 3.44726E-13
 -1       289 1.99998E+01-8.13067E-04-3.04819E-07 4.18507E-04-2.48900E-13 3.88013E-13
 -1       290 1.99997E+01-4.56019E-04-1.68638E-06 3.15050E-04-2.14801E-13-5.51227E-14
 -1       291 1.99997E+01-2.53790E-04-1.94621E-06 2.62971E-04 7.70538E-14-6.66812E-14
 -1       292-1.00392E+00-1.02622E+01-8.52555E-01 5.37002E-01 4.77014E-13 3.67151E-13
 -1       293 2.94626E+00-8.57247E+00-6.84115E-01 3.41216E+00 4.90108E-13 3.87204E-13
 -1       294 1.02590E+01-6.15773E+00-5.52696E-01 5.35762E+00 6.97192E-13 4.82218E-13
 -1       295 1.94829E+01-2.28585E+00-2.53369E-01 6.65402E+00 7.07878E-13 3.41893E-13
 -1       296 3.13598E+01 4.66939E-01 2.13064E-01 6.13694E+00 5.21055E-13 5.27911E-14
 -1       297 4.18565E+01 4.17109E+00 8.14446E-01 5.42618E+00 4.87623E-13-1.56208E-13
 -1       298 4.88248E+01 6.35271E+00 1.19908E+00 2.84759E+00 2.06196E-13-1.51462E-13
 -1       299 4.74355E+01 7.64326E+00 9.35259E-01-1.41935E-01 3.88023E-14-1.25032E-13
 -1       300 4.66777E+01 5.79899E+00 9.96537E-01-3.08178E+00 4.58661E-14-3.47722E-13
 -1       301 3.83140E+01 2.59543E+00 4.65829E-01-4.36354E+00 2.58127E-14-1.78468E-13
 -1       302 2.83908E+01-1.61820E+00 2.23966E-02-5.77609E+00-1.15213E-13-2.43056E-13
 -1       303 1.52376E+01-3.47713E+00-4.66027E-01-6.15772E+00-1.82743E-13-2.46858E-13
 -1       304 6.33462E+00-6.97419E+00-7.67830E-01-4.21623E+00-2.82691E-13-1.39254E-13
 -1       305 5.44369E-01-9.60656E+00-9.80695E-01-1.58855E+00-3.10169E-13-3.27238E-14
 -1       306-1.17156E+00-9.21208E+00-8.01003E-01 4.98357E-01-2.63179E-13 5.17641E-14
 -1       307 1.06865E-01-9.25759E+00-9.03413E-01 2.55991E+00-2.95486E-13-1.16435E-14
 -1       308 4.67491E+00-6.15772E+00-6.71720E-01 4.71364E+00-2.27124E-13-1.74010E-14
 -1       309 1.31230E+01-2.57719E+00-2.88500E-01 7.05350E+00-1.42941E-13 1.70919E-13
 -1       310 2.21903E+01 1.43499E+00 4.27525E-02 8.23634E+00-8.16014E-14 1.93817E-13
 -1       311 3.28831E+01 3.73609E+00 3.83356E-01 7.27748E+00-1.59178E-14 3.61211E-13
 -1       312 4.21367E+01 5.95827E+00 7.87181E-01 5.86380E+00-2.06293E-14 5.42622E-13
 -1       313 4.55962E+01 7.15106E+00 8.22891E-01 1.69501E+00-2.33147E-14 5.66713E-13
 -1       314 4.72184E+01 6.81155E+00 9.65595E-01-2.01459E+00-1.23415E-13 5.98022E-13
 -1       315 4.25021E+01 6.21313E+00 7.73604E-01-5.00833E+00-9.13852E-14 5.55556E-13
 -1       316 3.50348E+01 4.11876E+00 4.68526E-01-6.76156E+00-1.00472E-13 4.51195E-13
 -1       317 2.60185E+01 1.69212E+00 1.89146E-01-8.01846E+00-2.26763E-14 3.67734E-13
 -1       318 1.70838E+01-3.94593E-01-1.07608E-01-7.69760E+00 1.62176E-13 2.73198E-13
 -1       319 8.13805E+00-5.19328E+00-5.40176E-01-5.70030E+00 2.70783E-13 8.31071E-14
 -1       320 2.57767E+00-8.38438E+00-7.36994E-01-4.01763E+00 2.92377E-13-2.00534E-14
 -1       321-7.90715E-01-1.09008E+01-9.51807E-01-1.76653E+00 4.46435E-13 6.79318E-14
 -1       322 2.16094E+01 2.61614E+00-2.75890E-02-2.10375E+00 9.95203E-14-3.44802E-13
 -1       323 2.23123E+01 2.03764E+00-2.35127E-02-2.47871E+00 2.05439E-14-4.24069E-13
 -1       324 2.05903E+01 2.84917E+00-2.10010E-02-7.58415E-01 1.97087E-13-1.76901E-13
 -1       325 1.98445E+01 2.91343E+00-1.78668E-02 5.05990E-02 2.18051E-13-1.02305E-13
 -1       326 1.87919E+01 3.11315E+00-1.43603E-02 8.34201E-01 2.48489E-13-1.80225E-14
 -1       327 1.74668E+01 3.50965E+00-1.01979E-02 1.45229E+00 2.75595E-13 2.58348E-14
 -1       328 1.60909E+01 4.06390E+00-5.83404E-03 1.74431E+00 2.76880E-13 7.02911E-14
 -1       329 1.50748E+01 4.61304E+00-2.01922E-03 1.61524E+00 2.79583E-13 1.13893E-13
 -1       330 1.48810E+01 4.92315E+00-8.45319E-04 1.15272E+00 2.67581E-13 1.51065E-13
 -1       331 1.57925E+01 4.84185E+00-4.55062E-03 5.93364E-01 2.50253E-13 2.12719E-13
 -1       332 1.77955E+01 4.34493E+00-1.18311E-02 2.39003E-01 2.20405E-13 2.90521E-13
 -1       333 2.05939E+01 3.50306E+00-1.79283E-02 2.48426E-01 1.50052E-13 3.82291E-13
 -1       334 2.37505E+01 2.30572E+00-2.70990E-02 4.77373E-01 6.57572E-14 5.25432E-13
 -1       335 2.56404E+01 1.22574E+00-1.83476E-02 3.04128E-01 1.14179E-14 6.20276E-13
 -1       336 2.56209E+01 5.13728E-01 5.18027E-03-8.31762E-01-1.24865E-14 5.36884E-13
 -1       337 1.81407E+01-5.06594E+00 8.57888E-03-7.49304E+00 3.12750E-13 2.39742E-13
 -1       338 2.19702E+01 3.98379E-01 9.59715E-03-1.43840E+00 2.08071E-14-3.55310E-13
 -1       339 2.13862E+01 5.08666E-02 4.82981E-03-1.15869E+00-9.52385E-15-2.79304E-13
 -1       340 2.08749E+01-4.07497E-02 2.82024E-03-1.11635E+00 5.82957E-15-2.32382E-13
 -1       341 2.03905E+01 2.51627E-02 1.98867E-03-1.10280E+00-2.49389E-14-2.32764E-13
 -1       342 1.99377E+01 1.90536E-01 2.49706E-03-9.77231E-01-4.58054E-14-1.69601E-13
 -1       343 1.95685E+01 3.79367E-01 3.41350E-03-6.65524E-01 3.55217E-15-1.56493E-13
 -1       344 1.93583E+01 5.02829E-01 4.10692E-03-1.84799E-01 4.95220E-15-2.01215E-13
 -1       345 1.93611E+01 4.95943E-01 4.13413E-03 3.58666E-01-3.74395E-14-2.21572E-13
 -1       346 1.95685E+01 3.55819E-01 3.25910E-03 8.17414E-01-5.31391E-14-2.87077E-13
 -1       347 1.99081E+01 1.41442E-01 1.73759E-03 1.07776E+00-1.83287E-14-2.60320E-13
 -1       348 2.02801E+01-6.69116E-02 9.80041E-05 1.10692E+00-1.02116E-14-2.07113E-13
 -1       349 2.05998E+01-2.10426E-01-1.33860E-03 9.49059E-01 5.89682E-14-1.57461E-13
 -1       350 2.08214E+01-2.70733E-01-2.17660E-03 6.87818E-01 1.57680E-14-1.33029E-13
 -1       351 2.09367E+01-2.62540E-01-2.43963E-03 4.04460E-01 2.09203E-14-1.95037E-13
 -1       352 2.09608E+01-2.13777E-01-2.22643E-03 1.54911E-01 2.04319E-14-2.38504E-13
 -1       353 2.09177E+01-1.50484E-01-1.74443E-03-3.39630E-02-9.16692E-14-2.09372E-13
 -1       354 2.08320E+01-9.01906E-02-1.18226E-03-1.57595E-01-1.26112E-13-2.27276E-13
 -1       355 2.07239E+01-4.16143E-02-6.67706E-04-2.24373E-01-3.31287E-14-2.91216E-13
 -1       356 2.06086E+01-7.10252E-03-2.62334E-04-2.47933E-01 1.34903E-13-1.86739E-13
 -1       357 2.04967E+01 1.45884E-02 1.98979E-05-2.42259E-01 1.04819E-13-2.33307E-13
 -1       358 2.03943E+01 2.61898E-02 1.92054E-04-2.19225E-01 1.50525E-13-2.33113E-13
 -1       359 2.03050E+01 3.06534E-02 2.78452E-04-1.87781E-01 1.19091E-13-1.56556E-13
 -1       360 2.02297E+01 3.05383E-02 3.04876E-04-1.54054E-01 2.06162E-13-3.28362E-13
 -1       361 2.01683E+01 2.78088E-02 2.93559E-04-1.21845E-01 6.08735E-14-3.21986E-13
 -1       362 2.01195E+01 2.38451E-02 2.61482E-04-9.32164E-02-1.02783E-13-2.95807E-13
 -1       363 2.00818E+01 1.95424E-02 2.20476E-04-6.90390E-02-5.16672E-14-1.45035E-13
 -1       364 2.00533E+01 1.54316E-02 1.78103E-04-4.94225E-02 5.56375E-14-1.64426E-13
 -1       365 2.00325E+01 1.17893E-02 1.38733E-04-3.40385E-02 7.03314E-14-2.24062E-13
 -1       366 2.00176E+01 8.72577E-03 1.04520E-04-2.23422E-02-1.09003E-14-1.30451E-13
 -1       367 2.00074E+01 6.25020E-03 7.61855E-05-1.37153E-02-8.21976E-14 5.46406E-15
 -1       368 2.00007E+01 4.31589E-03 5.35992E-05-7.55150E-03-7.14320E-14 3.56635E-14
 -1       369 1.99966E+01 2.84973E-03 3.61813E-05-3.30349E-03-7.05856E-14 2.64359E-14
 -1       370 1.99943E+01 1.77073E-03 2.31575E-05-5.03036E-04-1.16649E-13-3.68803E-14
 -1       371 1.99933E+01 1.00084E-03 1.37166E-05 1.23439E-03 6.03478E-14-2.81182E-13
 -1       372 1.99931E+01 4.70464E-04 7.09934E-06 2.21449E-03 7.79217E-14-1.37864E-13
 -1       373 1.99934E+01 1.20590E-04 2.64111E-06 2.67346E-03 1.11821E-13 3.34172E-13
 -1       374 1.99940E+01-9.70254E-05-2.13796E-07 2.78888E-03-2.08738E-13 1.32789E-13
 -1       375 1.99948E+01-2.20723E-04-1.91528E-06 2.69062E-03-2.72861E-13 1.46510E-13
 -1       376 1.99956E+01-2.80322E-04-2.81924E-06 2.47059E-03-3.28707E-13 6.13324E-14
 -1       377 1.99964E+01-2.98672E-04-3.20264E-06 2.19115E-03 9.38558E-14 1.28380E-13
 -1       378 1.99971E+01-2.93227E-04-3.28043E-06 1.89197E-03 5.21777E-13 1.51189E-13
 -1       379 1.99978E+01-2.77481E-04-3.21232E-06 1.59534E-03 4.75122E-13 2.02341E-13
 -1       380 1.99983E+01-2.62099E-04-3.09750E-06 1.31026E-03 2.45368E-13 2.76044E-14
 -1       381 1.99988E+01-2.55462E-04-2.98403E-06 1.03600E-03-1.45579E-13-4.00327E-14
 -1       382 1.99992E+01-2.63444E-04-3.40247E-06 7.65697E-04 1.76576E-14-7.54545E-14
 -1       383 1.99994E+01-2.62422E-04-2.63648E-06 5.11600E-04 3.70480E-14-3.41445E-14
 -1       384 2.60154E+01-1.06008E-02 3.24582E-03-1.30027E+00-2.02734E-14 5.03068E-13
 -1       385 2.67940E+01-7.18959E-01-2.22115E-03-9.90815E-01-3.20616E-14 5.12315E-13
 -1       386 2.77876E+01-1.52169E+00-2.09262E-03 3.14155E-01-1.42039E-13 4.92133E-13
 -1       387 2.86438E+01-1.71809E+00-3.65806E-02 2.56493E+00-1.91196E-13 5.00922E-13
 -1       388 2.84102E+01-2.56611E-01-1.73145E-01 4.13121E+00-7.28861E-14 5.79401E-13
 -1       389 2.76109E+01 2.39475E+00-1.58287E-01 2.65396E+00 3.40214E-14 4.99829E-13
 -1       390 2.74471E+01 3.19097E+00-1.49139E-01-1.14043E+00 1.67755E-13 4.59988E-13
 -1       391 2.81853E+01 9.86206E-01-1.18497E-01-3.82237E+00 2.72324E-13 3.67178E-13
 -1       392 2.86856E+01-1.34720E+00-4.88138E-02-3.28270E+00 3.46678E-13 2.90238E-13
 -1       393 2.81126E+01-1.84286E+00-2.00593E-02-1.09795E+00 2.31008E-13 1.39067E-13
 -1       394 2.69447E+01-1.21584E+00-1.41256E-02 7.71646E-01 1.80922E-13 5.23978E-14
 -1       395 2.57068E+01-4.80696E-01-1.19155E-02 1.72857E+00-7.40154E-14 1.69961E-13
 -1       396 2.45974E+01-1.69668E-02-6.31194E-03 1.96458E+00-9.61807E-14 2.87686E-13
 -1       397 2.36464E+01 1.87982E-01-1.07759E-03 1.81272E+00-3.92222E-14 2.12427E-13
 -1       398 2.28471E+01 2.40647E-01 2.10325E-03 1.51309E+00 9.49160E-14 9.72666E-14
 -1       399 2.21889E+01 2.24329E-01 3.36629E-03 1.19469E+00 1.63446E-14 1.64995E-13
 -1       400 2.16585E+01 1.85149E-01 3.44077E-03 9.12805E-01-1.71099E-13 1.44295E-13
 -1       401 2.12394E+01 1.44040E-01 2.98204E-03 6.83405E-01-5.47776E-14 1.36686E-13
 -1       402 2.09140E+01 1.08641E-01 2.38411E-03 5.04851E-01-8.39782E-14 1.02277E-13
 -1       403 2.06648E+01 8.05944E-02 1.82645E-03 3.69282E-01 3.30328E-13 5.51845E-15
 -1       404 2.04764E+01 5.92531E-02 1.36721E-03 2.67802E-01 1.45024E-13 7.13762E-14
 -1       405 2.03355E+01 4.33328E-02 1.01040E-03 1.92484E-01-1.67511E-13-4.50397E-14
 -1       406 2.02314E+01 3.15625E-02 7.41019E-04 1.36907E-01-1.84800E-13 8.55208E-14
 -1       407 2.01553E+01 2.28888E-02 5.40434E-04 9.61032E-02 2.15212E-14 1.93624E-13
 -1       408 2.01005E+01 1.65017E-02 3.92001E-04 6.63141E-02 7.38468E-15 1.45462E-13
 -1       409 2.00617E+01 1.17991E-02 2.82450E-04 4.47209E-02 3.58173E-15 2.26318E-13
 -1       410 2.00347E+01 8.34044E-03 2.01722E-04 2.92161E-02 4.67750E-14 1.55482E-13
 -1       411 2.00165E+01 5.80356E-03 1.42356E-04 1.82222E-02-5.44317E-14 1.75295E-13
 -1       412 2.00046E+01 3.95248E-03 9.88564E-05 1.05563E-02-3.87833E-13 2.55422E-13
 -1       413 1.99972E+01 2.61298E-03 6.71657E-05 5.32894E-03 6.41533E-14 2.65317E-13
 -1       414 1.99929E+01 1.65522E-03 4.42764E-05 1.87152E-03 2.30206E-13 1.98964E-13
 -1       415 1.99908E+01 9.81488E-04 2.79447E-05-3.18001E-04 1.39291E-13-1.78306E-13
 -1       416 1.99901E+01 5.17806E-04 1.64844E-05-1.61472E-03 3.67049E-13-4.21934E-13
 -1       417 1.99904E+01 2.08061E-04 8.61910E-06-2.29684E-03 1.62610E-13-4.92855E-13
 -1       418 1.99911E+01 9.71177E-06 3.38115E-06-2.56858E-03-3.04620E-13-4.64791E-13
 -1       419 1.99922E+01-1.09403E-04 3.70678E-08-2.57782E-03-1.17954E-13-5.30479E-13
 -1       420 1.99933E+01-1.73501E-04-1.96850E-06-2.42964E-03-2.15086E-13-2.95569E-13
 -1       421 1.99944E+01-2.00729E-04-3.05537E-06-2.19678E-03-3.27992E-13 1.70996E-13
 -1       422 1.99955E+01-2.04654E-04-3.54130E-06-1.92766E-03-4.68691E-14 6.13855E-14
 -1       423 1.99965E+01-1.95474E-04-3.66631E-06-1.65239E-03-2.22976E-13-9.15094E-14
 -1       424 1.99973E+01-1.81039E-04-3.60442E-06-1.38728E-03 6.65570E-14-2.88885E-13
 -1       425 1.99980E+01-1.67727E-04-3.46870E-06-1.13794E-03 5.21496E-13-2.27373E-13
 -1       426 1.99986E+01-1.60843E-04-3.26875E-06-9.01579E-04 2.79489E-13-3.03393E-13
 -1       427 1.99991E+01-1.63443E-04-2.82492E-06-6.70000E-04 2.05846E-13-6.80241E-14
 -1       428 1.99994E+01-1.74937E-04-2.39357E-06-4.35155E-04 5.78886E-13 2.26394E-13
 -1       429 1.99996E+01-1.90774E-04-1.69918E-06-2.97982E-04 1.80176E-13 5.78718E-13
 -1       430 1.99998E+01-9.87438E-04-5.32213E-07-7.65947E-04-2.05270E-13 2.98506E-13
 -1       431 1.99996E+01-6.51970E-04-1.97910E-06-6.80683E-04-2.39627E-13 5.11828E-13
 -1       432 1.99996E+01-4.04983E-04-2.36413E-06-5.07032E-04-1.28302E-13 5.55990E-13
 -1       433 1.99999E+01-1.30885E-03 6.07525E-07-7.37962E-04 1.43607E-13-7.83614E-13
 -1       434 2.00000E+01-1.59262E-03 1.48238E-06-6.07207E-04 1.83635E-13-2.58396E-13
 -1       435 2.00000E+01-1.80070E-03 2.11224E-06-3.96409E-04 1.50575E-13 4.21708E-13
 -1       436 2.00001E+01-1.90999E-03 2.45068E-06-1.35656E-04-1.19273E-13 7.79307E-13
 -1       437 2.00001E+01-1.90838E-03 2.45069E-06 1.41705E-04-1.76619E-13 1.82281E-13
 -1       438 2.00000E+01-1.79610E-03 2.10603E-06 4.01388E-04-2.87003E-13-7.07013E-13
 -1       439 2.00000E+01-1.59018E-03 1.45348E-06 6.07370E-04-7.75396E-14-4.60357E-13
 -1       440 1.99999E+01-1.30644E-03 6.14470E-07 7.37618E-04 2.95274E-13 8.45071E-14
 -1       441 1.99998E+01-9.79544E-04-4.09788E-07 7.64977E-04 7.43709E-14 2.94383E-13
 -1       442 1.99996E+01-6.43935E-04-1.78992E-06 6.80435E-04-1.78015E-15 4.56076E-14
 -1       443 1.08394E+01-5.95841E+00-6.36515E-02 6.41598E+00 1.45162E-13 3.55896E-13
 -1       444 1.43155E+00-3.78813E+00 5.21260E-03-1.16125E+00 1.46719E-13 3.16441E-13
 -1       445 3.44623E+00-4.61265E+00-4.56122E-02 3.58913E+00 1.59969E-13 2.59764E-13
 -1       446 2.09875E+01-6.21073E+00-1.92102E-02 5.95622E+00 3.61433E-13 5.20486E-14
 -1       447 2.36988E+01-4.07611E+00-3.41270E-02-6.12237E+00 2.95569E-13 2.23349E-13
 -1       448 3.31451E+00-4.39880E+00-2.20188E-02-4.62102E+00 1.62897E-13 6.98330E-14
 -1       449 2.81712E+01-4.99116E+00-6.61418E-02 3.52319E+00 4.20858E-13-5.88973E-14
 -1       450 2.11215E+01 2.80114E+00-2.45211E-02-1.50041E+00 1.51370E-13-2.50478E-13
 -1       451 3.66399E+01 4.01393E+00 1.09035E-02-1.93047E+00 4.15709E-13 2.85966E-13
 -1       452 3.68024E+01 6.90133E+00-9.67487E-03-1.09534E+00 1.99452E-13 3.03868E-13
 -1       453 3.76805E+01 6.48898E+00 6.09998E-02 1.30339E+00 8.72358E-14 2.58363E-13
 -1       454 3.70372E+01 2.99466E+00 7.12060E-02 1.58717E+00-8.15320E-14 1.56042E-13
 -1       455 3.29864E+01-1.85171E+00-4.03126E-02-6.53095E-01-1.76470E-13 4.20497E-14
 -1       456 2.45750E+01-5.29749E+00-9.40883E-02-4.83250E+00-2.52340E-13-1.62384E-13
 -1       457 1.64038E+01-5.83466E+00-7.17986E-02-6.41511E+00-2.03809E-13-2.32447E-13
 -1       458 7.27679E+00-4.74068E+00-7.50459E-02-5.36838E+00-5.88002E-14-1.63244E-13
 -1       459 2.49261E+00-3.64451E+00-4.27852E-02-2.41452E+00 4.30211E-16-3.63320E-14
 -1       460 1.61364E+00-3.24993E+00-3.00715E-02 2.85958E+00 1.31839E-14 7.15539E-14
 -1       461 5.84860E+00-3.59771E+00-1.32025E-02 6.33629E+00 7.39547E-14 1.11494E-13
 -1       462 1.26831E+01-4.29609E+00-4.13155E-02 7.72409E+00 5.74818E-14 2.26218E-13
 -1       463 2.23689E+01-3.53237E+00 1.21817E-02 6.59701E+00-3.32512E-14 2.99996E-13
 -1       464 2.86357E+01-1.28537E+00-1.03148E-02 4.29248E+00-7.50441E-14 3.34371E-13
 -1       465 3.38478E+01 3.28788E+00 2.73502E-02 1.03377E+00-9.97188E-14 2.57613E-13
 -1       466 3.55837E+01 6.64441E+00 8.35160E-03-6.17481E-03-1.26066E-13 2.81233E-13
 -1       467 3.54174E+01 8.57805E+00-2.42442E-02-1.06613E-01-3.80529E-14 2.80519E-13
 -1       468 3.56239E+01 7.40650E+00-5.46942E-03 7.21572E-02-5.61773E-14 2.14641E-13
 -1       469 3.38157E+01 3.68429E+00-2.20567E-02-4.88928E-01 5.89251E-14 2.30219E-13
 -1       470 3.05075E+01-8.41975E-01-8.91362E-03-3.00612E+00 1.56698E-13 1.97162E-13
 -1       471 9.91885E+00-5.16065E+00-9.45104E-03-7.45260E+00 1.76428E-13 1.26704E-13
 -1       472 3.51700E+01-3.07582E-01 1.11357E-02-5.26940E-01 6.18686E-13-2.06779E-14
 -1       473 3.54590E+00-6.67403E-01 1.51480E-01 1.05598E-01 1.46834E-13 1.17545E-14
 -1       474 3.02893E+01-4.97885E+00-2.89787E-02-1.00278E+00-2.13093E-13-9.58955E-15
 -1       475 2.31843E+01 8.14436E-01 5.56304E-03-1.46374E+00 1.96934E-14 3.05744E-13
 -1       476 2.01365E+01 1.76403E+00-6.65150E-03 6.53742E-01 2.25548E-13-2.68683E-14
 -1       477 2.10069E+01 1.62673E+00-8.06869E-03-2.94386E-01 1.96663E-13-1.12235E-13
 -1       478 1.70744E+01 2.81617E+00-1.58427E-03 2.24961E+00 2.59998E-13 5.26988E-14
 -1       479 1.53399E+01 3.66219E+00 1.32070E-03 2.34000E+00 2.81555E-13 8.92402E-14
 -1       480 1.42681E+01 4.33991E+00 3.72694E-03 1.76064E+00 2.79369E-13 1.26720E-13
 -1       481 1.44779E+01 4.49754E+00 4.20523E-03 7.49463E-01 2.70615E-13 1.55758E-13
 -1       482 1.61955E+01 3.98621E+00-1.43178E-04-1.96735E-01 2.29430E-13 2.09449E-13
 -1       483 1.90097E+01 3.01164E+00-2.00742E-03-6.97644E-01 1.65733E-13 2.65548E-13
 -1       484 2.19835E+01 3.98622E-01 9.13701E-04-1.55894E+00 5.83240E-14-2.90735E-13
 -1       485 2.37593E+01-4.02942E-01 7.64830E-03-2.01558E+00 5.60467E-15 2.15588E-13
 -1       486 2.19937E+01 1.21169E+00-8.68823E-03-1.81274E+00 7.37951E-14-3.16787E-13
 -1       487 2.17899E+01 9.94482E-03 1.05383E-03-1.45219E+00 4.08706E-14-2.09103E-13
 -1       488 2.15176E+01-2.10907E-02 7.72571E-04-1.46249E+00 1.15067E-14-1.35862E-13
 -1       489 2.11784E+01 2.13910E-01 8.60449E-04-1.41562E+00-2.84645E-14-8.53463E-14
 -1       490 2.08106E+01 5.95893E-01 9.45879E-04-1.15866E+00-2.04878E-14-1.27188E-13
 -1       491 2.05067E+01 9.44124E-01 1.21051E-03-6.33315E-01-7.49486E-14-1.42811E-13
 -1       492 2.03719E+01 1.07670E+00 2.08987E-03 7.72404E-02-4.83900E-14-2.79206E-13
 -1       493 2.04526E+01 9.05275E-01 1.95052E-03 7.70709E-01-4.82296E-14-2.51737E-13
 -1       494 2.06894E+01 5.03924E-01 1.11099E-03 1.24004E+00 9.51835E-15-1.39819E-13
 -1       495 2.09614E+01 4.18621E-02 4.70199E-04 1.38694E+00 3.50351E-14-1.25668E-13
 -1       496 2.11604E+01-3.25176E-01-4.26538E-04 1.24514E+00 5.74405E-14-1.19672E-13
 -1       497 2.12378E+01-5.20614E-01-8.51137E-04 9.29171E-01 7.73931E-15-1.64329E-13
 -1       498 2.12035E+01-5.55119E-01-1.13534E-03 5.61202E-01-2.34432E-14-1.15517E-13
 -1       499 2.10948E+01-4.82249E-01-1.13273E-03 2.26803E-01-4.08617E-15-4.15763E-14
 -1       500 2.09502E+01-3.60248E-01-9.39276E-04-3.17756E-02-2.63984E-14-3.78386E-14
 -1       501 2.07979E+01-2.32304E-01-6.66449E-04-2.05126E-01-1.12347E-13 3.81979E-14
 -1       502 2.06542E+01-1.22609E-01-4.03133E-04-3.02615E-01-9.54888E-14 8.50445E-14
 -1       503 2.05269E+01-4.03399E-02-1.90140E-04-3.41315E-01 7.47195E-16 6.14724E-14
 -1       504 2.04181E+01 1.45738E-02-3.76093E-05-3.39258E-01 5.28989E-14-1.23440E-13
 -1       505 2.03273E+01 4.66518E-02 5.93990E-05-3.12064E-01 6.67933E-14-1.04650E-13
 -1       506 2.02527E+01 6.17373E-02 1.11982E-04-2.71773E-01 1.33566E-13-1.68387E-13
 -1       507 2.01923E+01 6.53272E-02 1.32766E-04-2.26866E-01 1.19505E-14-2.10828E-13
 -1       508 2.01440E+01 6.18814E-02 1.32952E-04-1.82809E-01 1.30656E-13-3.52305E-13
 -1       509 2.01059E+01 5.46861E-02 1.21277E-04-1.42758E-01 5.61520E-14-1.97668E-13
 -1       510 2.00762E+01 4.59790E-02 1.03944E-04-1.08225E-01-3.64400E-14-1.05139E-13
 -1       511 2.00534E+01 3.71676E-02 8.50038E-05-7.96350E-02-3.57079E-14-8.95843E-14
 -1       512 2.00362E+01 2.90528E-02 6.68755E-05-5.67472E-02-1.06779E-14 2.83738E-14
 -1       513 2.00235E+01 2.20206E-02 5.08325E-05-3.89622E-02 8.54776E-14-4.50810E-14
 -1       514 2.00143E+01 1.61920E-02 3.73769E-05-2.55259E-02 3.93676E-14-2.84584E-14
 -1       515 2.00078E+01 1.15307E-02 2.65396E-05-1.56576E-02-3.70684E-14 5.67392E-14
 -1       516 2.00033E+01 7.91663E-03 1.81075E-05-8.62566E-03-4.60240E-14 2.29668E-13
 -1       517 2.00004E+01 5.19371E-03 1.17501E-05-3.78611E-03-1.22613E-13 2.74686E-13
 -1       518 1.99986E+01 3.19993E-03 7.10489E-06-5.96597E-04-4.77326E-14 3.00580E-13
 -1       519 1.99976E+01 1.78396E-03 3.82152E-06 1.38405E-03 1.77917E-13 6.05531E-13
 -1       520 1.99971E+01 8.13187E-04 1.58752E-06 2.50449E-03 1.90091E-13 3.04590E-13
 -1       521 1.99970E+01 1.76296E-04 1.39003E-07 3.03311E-03-2.21529E-13 1.00633E-13
 -1       522 1.99971E+01-2.17133E-04-7.39183E-07 3.17116E-03-2.32510E-13 2.66651E-13
 -1       523 1.99974E+01-4.38712E-04-1.21763E-06 3.06548E-03-2.91933E-13 2.42358E-13
 -1       524 1.99977E+01-5.44058E-04-1.42990E-06 2.81975E-03-2.30877E-13 3.80995E-13
 -1       525 1.99981E+01-5.75827E-04-1.47808E-06 2.50410E-03 1.11902E-13 1.84313E-13
 -1       526 1.99984E+01-5.66651E-04-1.44761E-06 2.16295E-03 2.78752E-13-1.14224E-13
 -1       527 1.99987E+01-5.41680E-04-1.40241E-06 1.82123E-03 2.05461E-13-1.37749E-13
 -1       528 1.99990E+01-5.19663E-04-1.32510E-06 1.48935E-03 1.25206E-13-1.63493E-14
 -1       529 1.99993E+01-5.14362E-04-1.42736E-06 1.16782E-03 6.05380E-14 1.50508E-13
 -1       530 2.79313E+01-3.64053E+00 1.99503E-02-3.71113E-01-1.67883E-13 2.24187E-13
 -1       531 3.12093E+01-1.28660E+00-1.27604E-01-3.43912E+00 4.54022E-13 9.36543E-14
 -1       532 2.87611E+01-3.79343E+00-3.80225E-02-7.98316E-01 2.73621E-13 5.32074E-14
 -1       533 2.60094E+01-3.00326E+00 4.19863E-03 1.43751E+00 2.10072E-13 1.80966E-13
 -1       534 2.39983E+01-1.44226E+00-1.91396E-03 2.48970E+00 5.23863E-14 1.52593E-13
 -1       535 2.27910E+01-2.90027E-01-2.06512E-03 2.71754E+00-7.16562E-14 1.07516E-13
 -1       536 2.21043E+01 2.99453E-01-1.70220E-04 2.51251E+00-9.59038E-14 1.54596E-13
 -1       537 2.16726E+01 5.09691E-01 1.61744E-03 2.13672E+00 5.15396E-14 1.69209E-13
 -1       538 2.13566E+01 5.23621E-01 2.54389E-03 1.72952E+00 6.97886E-14 9.61818E-14
 -1       539 2.10981E+01 4.56930E-01 2.66415E-03 1.35646E+00-6.13561E-15 4.67652E-14
 -1       540 2.08777E+01 3.69245E-01 2.34221E-03 1.04161E+00-1.05684E-13-1.14506E-14
 -1       541 2.06899E+01 2.86435E-01 1.88238E-03 7.87994E-01-1.55890E-14-8.23239E-14
 -1       542 2.05328E+01 2.17184E-01 1.44197E-03 5.89382E-01 8.25708E-14-1.44029E-13
 -1       543 2.04042E+01 1.62535E-01 1.07605E-03 4.36583E-01 2.29808E-13 8.15131E-14
 -1       544 2.03011E+01 1.20677E-01 7.91446E-04 3.20393E-01-5.43866E-15 1.47757E-13
 -1       545 2.02200E+01 8.91035E-02 5.77226E-04 2.32772E-01-1.50393E-13 3.16691E-14
 -1       546 2.01574E+01 6.54641E-02 4.18542E-04 1.67145E-01-1.39269E-13-1.12217E-13
 -1       547 2.01099E+01 4.78244E-02 3.01855E-04 1.18316E-01 1.92030E-14-1.20747E-13
 -1       548 2.00745E+01 3.46846E-02 2.16308E-04 8.22520E-02-1.01050E-13-7.73874E-14
 -1       549 2.00485E+01 2.49136E-02 1.53681E-04 5.58514E-02-1.12575E-13 1.26306E-13
 -1       550 2.00299E+01 1.76675E-02 1.07916E-04 3.67361E-02-2.77451E-14 3.50493E-13
 -1       551 2.00168E+01 1.23179E-02 7.45860E-05 2.30863E-02-2.02215E-13 3.40565E-13
 -1       552 2.00079E+01 8.39571E-03 5.04396E-05 1.35099E-02-1.06551E-13-4.72277E-14
 -1       553 2.00021E+01 5.54833E-03 3.30823E-05 6.94332E-03 2.69467E-13-5.61448E-14
 -1       554 1.99984E+01 3.50854E-03 2.07478E-05 2.57547E-03 2.92042E-13-2.18331E-13
 -1       555 1.99964E+01 2.07251E-03 1.21265E-05-2.08731E-04 2.69565E-13 3.16831E-15
 -1       556 1.99953E+01 1.08445E-03 6.23296E-06-1.87258E-03 2.37384E-13 1.09738E-13
 -1       557 1.99950E+01 4.25318E-04 2.32522E-06-2.76190E-03-5.92627E-14 4.44877E-15
 -1       558 1.99952E+01 4.33003E-06-1.55145E-07-3.13179E-03-2.74975E-13-2.21192E-13
 -1       559 1.99956E+01-2.47475E-04-1.62818E-06-3.16760E-03-1.44954E-13-4.86718E-14
 -1       560 1.99961E+01-3.82223E-04-2.40901E-06-3.00128E-03-4.20078E-13-1.09357E-13
 -1       561 1.99967E+01-4.39128E-04-2.73333E-06-2.72420E-03-2.32215E-13-2.50586E-13
 -1       562 1.99972E+01-4.47640E-04-2.77901E-06-2.39703E-03-1.27855E-13-7.28436E-14
 -1       563 1.99978E+01-4.30020E-04-2.67808E-06-2.05732E-03 1.18430E-13-1.81522E-13
 -1       564 1.99983E+01-4.03400E-04-2.51191E-06-1.72519E-03 2.62781E-13-2.96518E-13
 -1       565 1.99987E+01-3.81135E-04-2.48662E-06-1.40817E-03 3.12308E-13-9.09091E-14
 -1       566 1.99990E+01-3.74355E-04-2.96755E-06-1.10597E-03-1.70262E-13-8.06438E-14
 -1       567 1.99993E+01-3.82171E-04-2.69219E-06-8.09452E-04 6.36914E-14 9.43152E-14
 -1       568 2.00001E+01-1.38661E-03 6.94742E-07-9.19064E-04 2.23766E-13-3.01131E-13
 -1       569 2.00002E+01-1.60552E-03 8.32087E-07-6.80269E-04 3.64010E-13 6.27199E-14
 -1       570 1.99996E+01-7.99476E-04-2.62371E-07-1.02869E-03-1.40079E-13 1.82019E-13
 -1       571 1.99999E+01-1.11050E-03 2.09887E-07-1.04175E-03-2.32084E-13 7.24997E-14
 -1       572 2.00003E+01-1.74419E-03 1.03571E-06-3.59024E-04 2.58870E-13 3.67503E-13
 -1       573 2.00003E+01-1.79041E-03 1.11367E-06 4.63525E-06-3.42767E-13 4.74409E-13
 -1       574 2.00003E+01-1.74033E-03 1.03524E-06 3.67465E-04-1.08350E-13 4.68422E-14
 -1       575 2.00002E+01-1.60186E-03 7.95342E-07 6.81678E-04 2.65693E-13-8.11074E-13
 -1       576 2.00001E+01-1.38229E-03 5.49029E-07 9.18812E-04 2.74095E-13-8.83469E-14
 -1       577 1.99999E+01-1.10268E-03 3.24403E-07 1.04063E-03 1.37482E-13 3.44264E-14
 -1       578 1.99996E+01-7.91334E-04-7.36294E-07 1.02215E-03-7.07226E-14 1.22499E-13
 -1       579 5.77332E+00-7.65485E-01 2.06693E-01 1.58524E+00-1.85997E-14 2.52673E-13
 -1       580 1.84829E+01-5.29897E+00 8.51062E-02 6.08639E+00 7.87009E-14 1.63002E-13
 -1       581 2.52240E+01-2.10327E+00-3.51110E-03-1.74865E+00-8.50622E-14 2.02099E-13
 -1       582 2.61692E+01-5.88858E+00 1.78362E-02 3.32124E+00 2.47614E-13-1.58866E-13
 -1       583 2.73971E+01-4.00481E+00-3.51194E-02-3.00282E+00 2.69479E-13 2.29934E-13
 -1       584 1.67363E+01-4.73986E+00 9.62845E-02-7.44456E+00 1.80189E-13 1.33615E-13
 -1       585 3.05793E+01 5.01674E+00-1.44332E-01 1.52172E+00 5.98410E-14 6.56766E-14
 -1       586 1.95942E+01-4.18135E+00 5.87466E-02 6.91935E+00 8.82697E-14 2.44778E-13
 -1       587 5.63409E+00-1.07852E+00 1.90350E-01-3.18585E+00 9.60516E-14 1.36530E-13
 -1       588 2.27160E+01-5.24012E+00 3.81595E-02-5.95610E+00 2.55747E-13 3.28251E-13
 -1       589 1.87997E+01 2.14039E+00-4.99839E-03 1.58983E+00 2.54125E-13 2.27421E-14
 -1       590 3.11357E+01 3.53468E+00-1.89702E-01-3.12113E+00 2.77153E-13 3.28564E-13
 -1       591 3.03977E+01-4.21352E+00-6.83206E-02-3.92603E-01 3.58719E-13-7.80626E-15
 -1       592 3.11730E+01 2.90524E+00-1.99095E-01 3.34272E+00 4.33056E-14 3.62654E-13
 -1       593 6.10870E+00-6.02584E-01 1.73542E-01 4.89847E+00 1.84804E-13 1.32616E-13
 -1       594 2.29265E+01-5.72871E+00 4.42013E-02-4.86174E+00-1.78600E-13-1.56077E-13
 -1       595 1.48189E+01-4.15512E+00 1.02244E-01-6.16005E+00-4.39093E-14-1.82507E-13
 -1       596 7.91299E+00-1.36089E+00 1.61394E-01-4.20334E+00 1.07782E-13-8.32806E-14
 -1       597 2.99400E+01-6.42888E-02-1.07824E-01 5.62752E-01 1.71026E-13 1.29959E-13
 -1       598 1.23363E+01-2.44446E+00 1.31185E-01 7.40672E+00 1.75339E-13 2.14738E-13
 -1       599 2.64208E+01-3.55811E+00-7.67428E-03 3.82192E+00-1.31978E-14 3.22388E-13
 -1       600 3.00939E+01-4.17009E-01-8.19356E-02 4.54139E-01-6.03580E-14 2.42591E-13
 -1       601 3.10352E+01 4.22140E+00-1.32779E-01-1.47612E+00-1.46994E-13 1.98605E-13
 -1       602 3.06362E+01 7.33066E+00-1.86826E-01-1.05088E+00-8.50431E-14 2.02185E-13
 -1       603 3.04587E+01 7.15025E+00-1.82896E-01 8.63572E-01 2.33563E-14 1.30711E-13
 -1       604 1.06010E+01-3.34637E+00 1.42336E-01 5.79319E+00 4.78784E-14 2.94348E-13
 -1       605 3.13181E+01 5.56388E+00-1.80253E-01 3.33101E-01 1.40568E-13 3.84194E-13
 -1       606 9.33806E+00-2.88770E+00 1.46133E-01-6.57848E+00 8.37455E-14 8.58619E-14
 -1       607 2.34526E+01 1.48799E+00-2.20065E-03-6.06751E-01 5.61422E-14 4.11038E-13
 -1       608 2.15074E+01 1.58596E+00-8.68199E-03-1.08495E+00 1.61493E-13-1.81405E-13
 -1       609 2.17828E+01 1.47230E+00-8.49863E-03-1.56543E+00 1.20355E-13-2.29628E-13
 -1       610 1.99994E+01-5.17065E-04-1.65678E-06 9.48332E-04-1.73231E-13 4.11623E-13
 -1       611 2.78504E+01 7.01695E+00-1.64720E-01-2.61308E-02 3.38271E-14 1.12146E-14
 -1       612 3.30517E+01-7.04874E-01 1.67652E-02 3.00613E+00-1.13687E-13 1.44898E-13
 -1       613 1.40369E+01 3.24365E+00 1.17258E-02 2.87261E+00 2.72666E-13 1.07236E-13
 -1       614 1.63160E+01 2.11323E+00 1.09412E-02 3.26209E+00 2.55132E-13 8.61715E-14
 -1       615 1.40672E+01 3.65186E+00 1.24252E-02-3.16423E-01 2.44968E-13 1.28169E-13
 -1       616 1.69845E+01 2.60993E+00 1.09538E-02-1.47387E+00 1.84137E-13 1.75960E-13
 -1       617 7.20426E+00 1.65636E+00 1.61575E-01 2.01108E+00 2.42616E-13 8.68888E-14
 -1       618 2.22405E+01 1.85308E-01-1.61007E-03-1.49446E+00 9.91953E-14-1.96735E-13
 -1       619 2.01466E+01 1.00689E+00 8.53497E-03-2.18446E+00 9.62555E-14 1.68670E-13
 -1       620 8.68404E+00 1.39809E+00 1.59034E-01-1.68877E+00 2.02143E-13 1.19349E-14
 -1       621 2.23277E+01-1.01195E-01-1.23464E-04-1.57166E+00 8.15993E-14-1.68810E-13
 -1       622 2.22456E+01 6.63192E-02-2.00327E-04-1.68344E+00 2.67581E-14-1.46393E-13
 -1       623 2.19896E+01 6.06001E-01-6.07154E-04-1.62303E+00-3.11553E-14-1.11003E-13
 -1       624 2.16384E+01 1.28559E+00-1.74538E-03-1.20657E+00-6.66866E-14-1.49964E-13
 -1       625 2.13664E+01 1.75544E+00 1.71482E-04-4.24115E-01-9.84849E-14-1.55163E-13
 -1       626 2.13250E+01 1.72049E+00 1.51011E-03 5.12889E-01-4.48037E-14-1.14310E-13
 -1       627 2.15129E+01 1.16952E+00-3.86422E-04 1.25367E+00 1.50715E-14-7.94218E-14
 -1       628 2.17715E+01 3.73692E-01-4.64016E-04 1.56976E+00 1.05592E-14-1.11278E-13
 -1       629 2.19216E+01-3.40854E-01-1.15115E-03 1.46035E+00-2.63832E-14-1.53196E-13
 -1       630 2.18832E+01-7.75699E-01-3.56122E-04 1.07987E+00-4.74067E-16-1.54998E-13
 -1       631 2.16824E+01-9.11412E-01-4.61323E-04 6.21285E-01 9.71587E-14-2.75548E-14
 -1       632 2.13980E+01-8.34365E-01-5.07549E-04 2.09355E-01 7.13707E-14 6.30771E-14
 -1       633 2.11001E+01-6.49163E-01-4.46638E-04-1.00518E-01-2.28206E-14 3.91063E-14
 -1       634 2.08329E+01-4.37738E-01-3.08072E-04-3.00970E-01-8.96414E-14-1.05564E-15
 -1       635 2.06147E+01-2.48058E-01-1.79632E-04-4.08338E-01-5.42506E-14-1.42034E-14
 -1       636 2.04470E+01-1.00566E-01-8.73352E-05-4.46187E-01-1.45443E-14 3.14343E-14
 -1       637 2.03230E+01 1.70744E-03-2.57274E-05-4.37229E-01-4.04508E-14 2.68546E-14
 -1       638 2.02334E+01 6.46278E-02 1.31632E-05-4.00079E-01 4.28711E-14-7.11142E-15
 -1       639 2.01694E+01 9.72401E-02 3.44825E-05-3.48592E-01 5.36511E-14-1.41597E-13
 -1       640 2.01238E+01 1.08605E-01 4.35392E-05-2.92340E-01 3.69816E-14-4.97465E-14
 -1       641 2.00910E+01 1.06377E-01 4.47236E-05-2.37452E-01 9.95353E-15-8.19627E-14
 -1       642 2.00671E+01 9.63940E-02 4.13543E-05-1.87479E-01 8.18988E-14-1.56537E-13
 -1       643 2.00496E+01 8.27719E-02 3.57465E-05-1.44143E-01 9.09297E-14-1.31991E-13
 -1       644 2.00366E+01 6.82059E-02 2.93915E-05-1.07952E-01 5.56784E-14 1.14152E-13
 -1       645 2.00269E+01 5.43158E-02 2.31989E-05-7.86544E-02 2.54109E-14 1.13052E-13
 -1       646 2.00195E+01 4.19602E-02 1.76832E-05-5.55821E-02 7.46631E-14 2.98534E-13
 -1       647 2.00139E+01 3.14930E-02 1.30691E-05-3.78734E-02 2.79489E-14 2.19622E-13
 -1       648 2.00097E+01 2.29554E-02 9.35142E-06-2.46213E-02 3.34212E-14 9.90419E-14
 -1       649 2.00066E+01 1.62096E-02 6.44438E-06-1.49613E-02 4.60692E-14-6.41338E-15
 -1       650 2.00043E+01 1.10290E-02 4.22631E-06-8.12079E-03-9.33670E-14 5.73114E-14
 -1       651 2.00026E+01 7.15690E-03 2.59053E-06-3.43942E-03 3.39667E-14 3.68355E-13
 -1       652 2.00014E+01 4.34226E-03 1.42716E-06-3.71851E-04 1.87289E-13 3.51527E-13
 -1       653 2.00006E+01 2.35789E-03 6.30313E-07 1.51994E-03-7.60663E-14 9.81873E-14
 -1       654 2.00000E+01 1.00832E-03 1.09290E-07 2.57903E-03-2.57153E-13-9.53541E-14
 -1       655 1.99997E+01 1.31480E-04-2.10169E-07 3.06761E-03-6.00281E-14-7.61373E-14
 -1       656 1.99995E+01-4.03212E-04-3.86928E-07 3.18121E-03-2.90281E-13 8.13241E-14
 -1       657 1.99994E+01-6.98588E-04-4.66260E-07 3.06171E-03-3.30682E-13-1.14997E-13
 -1       658 1.99994E+01-8.34229E-04-4.86338E-07 2.80878E-03-1.86167E-13-1.66963E-13
 -1       659 1.99994E+01-8.71034E-04-4.71922E-07 2.48947E-03 1.19055E-13-2.18207E-13
 -1       660 1.99994E+01-8.55488E-04-4.43800E-07 2.14599E-03 1.38725E-13-2.58615E-13
 -1       661 1.99995E+01-8.22697E-04-4.32735E-07 1.80183E-03 2.82616E-13-4.23052E-13
 -1       662 1.99995E+01-7.98186E-04-5.27315E-07 1.46640E-03 2.80726E-13-2.75414E-13
 -1       663 1.46613E+01-2.87446E+00 1.04095E-01-6.59504E+00 2.04697E-15 1.27065E-13
 -1       664 2.62404E+01-4.55207E+00 2.66000E-02 1.93487E+00 2.37406E-13 7.87122E-14
 -1       665 1.98574E+01 3.95959E-01 4.89655E-03 3.01174E+00-9.62781E-14 9.34842E-15
 -1       666 1.98848E+01 8.23238E-01 1.28716E-03 2.48434E+00-5.07471E-14-2.11860E-14
 -1       667 2.00110E+01 9.02683E-01 8.51660E-04 2.01447E+00 1.78342E-14 1.35607E-13
 -1       668 2.01237E+01 8.22457E-01 9.27683E-04 1.60871E+00 8.69386E-14 5.77449E-14
 -1       669 2.01922E+01 6.87456E-01 8.77812E-04 1.26662E+00-1.56223E-13 1.50548E-14
 -1       670 2.02188E+01 5.48324E-01 7.29909E-04 9.84573E-01-3.26809E-14-3.96334E-14
 -1       671 2.02157E+01 4.25617E-01 5.67857E-04 7.56519E-01 9.78862E-14-1.68854E-13
 -1       672 2.01953E+01 3.24990E-01 4.27060E-04 5.75083E-01 3.84068E-14-1.39625E-13
 -1       673 2.01669E+01 2.45583E-01 3.15755E-04 4.32613E-01 2.40070E-14 1.00157E-13
 -1       674 2.01366E+01 1.84232E-01 2.31389E-04 3.21943E-01-8.05356E-14 7.27043E-14
 -1       675 2.01079E+01 1.37374E-01 1.68631E-04 2.36780E-01-5.50924E-14 3.67855E-14
 -1       676 2.00828E+01 1.01810E-01 1.22310E-04 1.71824E-01 5.86622E-14-1.00431E-13
 -1       677 2.00618E+01 7.49201E-02 8.82270E-05 1.22725E-01-8.53714E-14-3.96564E-14
 -1       678 2.00448E+01 5.46504E-02 6.31609E-05 8.59748E-02-1.53040E-13-5.89396E-14
 -1       679 2.00316E+01 3.94234E-02 4.47439E-05 5.87707E-02-1.15320E-13-1.30934E-13
 -1       680 2.00215E+01 2.80366E-02 3.12782E-05 3.88922E-02-9.21547E-14 5.77973E-14
 -1       681 2.00140E+01 1.95755E-02 2.14941E-05 2.45906E-02-1.02322E-13 6.60273E-14
 -1       682 2.00085E+01 1.33433E-02 1.44172E-05 1.44946E-02 2.11730E-13-1.18612E-14
 -1       683 2.00047E+01 8.80561E-03 9.32927E-06 7.53449E-03 2.41597E-13-1.03049E-13
 -1       684 2.00021E+01 5.54967E-03 5.72672E-06 2.88174E-03 5.29427E-14 2.88869E-14
 -1       685 2.00004E+01 3.25665E-03 3.22438E-06-9.94337E-05 2.81094E-13 3.96107E-14
 -1       686 1.99993E+01 1.68040E-03 1.52982E-06-1.89247E-03 9.54034E-14 1.56332E-13
 -1       687 1.99987E+01 6.31328E-04 4.22290E-07-2.86089E-03 4.53735E-14 1.46036E-13
 -1       688 1.99984E+01-3.60586E-05-2.65285E-07-3.27426E-03-3.01449E-13-9.52804E-14
 -1       689 1.99984E+01-4.32821E-04-6.59147E-07-3.32907E-03-3.19012E-13-8.91888E-14
 -1       690 1.99984E+01-6.43221E-04-8.53568E-07-3.16551E-03-3.81785E-13-2.18897E-13
 -1       691 1.99986E+01-7.30859E-04-9.18017E-07-2.88064E-03-2.30889E-13-1.30205E-13
 -1       692 1.99987E+01-7.43630E-04-9.10006E-07-2.53883E-03 2.00587E-13-3.34457E-13
 -1       693 1.99989E+01-7.17759E-04-8.67071E-07-2.17992E-03 5.43497E-14-3.08966E-13
 -1       694 1.99991E+01-6.80901E-04-8.72564E-07-1.82581E-03 1.77761E-13-7.51828E-14
 -1       695 1.99993E+01-6.55393E-04-1.07477E-06-1.48555E-03 1.48092E-14 3.85823E-13
 -1       696 1.99995E+01-7.20161E-04-7.04611E-07-1.26129E-03-1.53512E-13 3.72339E-13
 -1       697 2.00007E+01-1.74632E-03 3.64315E-07-2.18905E-04 4.66843E-15 1.21181E-13
 -1       698 2.05508E+01-3.87775E+00 8.11881E-02-4.73538E+00-8.10532E-14-9.26551E-14
 -1       699 2.00004E+01-1.48664E-03 1.94092E-07-9.99824E-04 8.34686E-14 6.74091E-14
 -1       700 2.00007E+01-1.74361E-03 3.56651E-07 2.31859E-04-2.02840E-13 2.92102E-13
 -1       701 2.00006E+01-1.65870E-03 3.41002E-07-6.45856E-04 1.10584E-13 2.41279E-13
 -1       702 2.00006E+01-1.65369E-03 2.68762E-07 6.49771E-04-4.05790E-14-8.30955E-14
 -1       703 2.00004E+01-1.47971E-03 2.23115E-07 1.00170E-03 2.91403E-13-3.64325E-13
 -1       704 2.00001E+01-1.23459E-03 3.14037E-07 1.23568E-03 3.92451E-13 1.00875E-13
 -1       705 1.08483E+01-6.02265E-01 1.25302E-01 3.92971E+00 1.04639E-14 3.15317E-13
 -1       706 2.08372E+01-9.00029E-01 3.33533E-02-3.20998E+00 6.66654E-15 8.33821E-14
 -1       707 2.76081E+01-2.43611E+00-4.29203E-02 9.16645E-01-4.02447E-14 1.53072E-13
 -1       708 2.70832E+01 5.08488E+00-1.34872E-01 1.65651E+00 7.11375E-14 2.82760E-16
 -1       709 2.35640E+01-3.79871E+00 1.94049E-02 4.37590E+00 2.93515E-14 2.88472E-13
 -1       710 1.79096E+01-2.46802E+00 8.29849E-02 6.36011E+00 1.62398E-13 1.93092E-13
 -1       711 2.01987E+01-6.58920E-01 1.59215E-02 3.55541E+00-2.22608E-14 1.52797E-13
 -1       712 2.14742E+01-2.67263E+00 3.67411E-02 3.96572E+00 1.20648E-13 1.09493E-13
 -1       713 8.33298E+00 6.42213E-01 1.46697E-01-8.86831E-01-5.06951E-14 1.57173E-13
 -1       714 1.30104E+01 3.95518E+00 2.25294E-02 1.42591E+00 2.76717E-13 1.46759E-13
 -1       715 2.15364E+01 5.06737E-01-1.89199E-03 2.36108E-01 1.70778E-13-3.40160E-14
 -1       716 1.09424E+01 2.63658E-02 1.33338E-01 5.85972E+00 2.39475E-13 1.83638E-13
 -1       717 1.99996E+01-7.89055E-04-6.41735E-07 1.24389E-03 1.63983E-13-3.74850E-14
 -1       718 9.87338E+00-8.10892E-01 1.40072E-01-4.81907E+00 5.81965E-14 1.10779E-13
 -1       719 1.39424E+01-1.42852E+00 1.30857E-01-4.89389E+00 6.14682E-14-8.44949E-14
 -1       720 2.79422E+01 1.64717E+00-9.44131E-02 1.97873E+00 9.34530E-14 2.63296E-14
 -1       721 2.86756E+01 1.18353E+00-1.00030E-01-1.66631E+00-1.00364E-13 1.50904E-13
 -1       722 2.80414E+01 5.05821E+00-1.38207E-01-1.91313E+00-8.81170E-14 8.59902E-14
 -1       723 1.62428E+01-2.98134E+00 1.11416E-01 5.54171E+00 1.81279E-14 2.43569E-13
 -1       724 2.20656E+01 7.18382E-01-9.74637E-05-1.49859E+00 9.32047E-14-2.00691E-13
 -1       725 2.76409E+01-2.74127E+00-5.20237E-02-3.39489E-01 2.12792E-13 1.39447E-13
 -1       726 1.87228E+01 1.13846E+00 2.56960E-03 2.60871E+00 2.17718E-13 4.11688E-14
 -1       727 2.20078E+01 5.54907E-01-1.04385E-03-7.15755E-01 1.43002E-13-1.18769E-13
 -1       728 2.11825E+01-4.62446E+00 5.22109E-02-5.60930E+00 2.09204E-13 3.07942E-13
 -1       729 1.99998E+01-1.03445E-03 2.22082E-07-1.29303E-03-9.76934E-14-1.10126E-13
 -1       730 2.32517E+01-4.60922E+00 4.94437E-02 3.99531E+00 1.53325E-13-6.75970E-14
 -1       731 1.10333E+01 9.09675E-01 9.47552E-02 1.77225E+00-6.87558E-15 3.36207E-13
 -1       732 2.58793E+01-4.46286E+00-1.21377E-02-2.93534E+00 2.55173E-13 1.91997E-13
 -1       733 2.61569E+01 5.62814E+00-1.10802E-01-1.10519E+00-2.40398E-14-5.36884E-14
 -1       734 2.04969E+01 6.30329E-01-1.61096E-03 1.44029E+00 1.96728E-13 2.06583E-14
 -1       735 2.00001E+01-1.28048E-03 3.03366E-07-1.20130E-03-5.16563E-14-9.25652E-14
 -1       736 1.99998E+01-1.02580E-03 3.10951E-08 1.39100E-03 2.37586E-13-1.97360E-13
 -1       737 1.41511E+01 2.15228E+00 6.79205E-02-2.13864E+00 1.88214E-13 8.66651E-14
 -1       738 1.72106E+01 5.33955E-01 5.08239E-02-3.12979E+00 9.82322E-14 9.93624E-14
 -1       739 2.00008E+01-1.59907E-03 2.33311E-08 9.91144E-04 2.42716E-13-1.30137E-13
 -1       740 2.20753E+01 6.66881E-01 7.23427E-05-1.19084E+00 1.15056E-13-1.35828E-13
 -1       741 2.00005E+01-1.38522E-03 3.73562E-07 1.34993E-03 4.01823E-13-1.83270E-13
 -1       742 2.26973E+01-1.66964E-01-2.31438E-03-1.28679E+00 8.53337E-14-1.20996E-13
 -1       743 2.30404E+01-2.60067E-01-1.86330E-03-1.58222E+00 5.42625E-14-1.33979E-13
 -1       744 2.31158E+01 2.59839E-01-2.98498E-03-1.84841E+00-1.57548E-14-1.70160E-13
 -1       745 2.28699E+01 1.25811E+00 2.36916E-03-1.77125E+00-1.05483E-13-2.23724E-13
 -1       746 2.24535E+01 2.30688E+00-5.85459E-03-1.13211E+00-9.45645E-14-2.25051E-13
 -1       747 2.22818E+01 2.73226E+00-2.93875E-03 1.11955E-02-9.79425E-15-1.90073E-13
 -1       748 2.23701E+01 2.24080E+00-6.12249E-03 1.13004E+00 3.20421E-14-1.45418E-13
 -1       749 2.27140E+01 1.01438E+00 2.85364E-03 1.72055E+00 5.36463E-15-1.05604E-13
 -1       750 2.28817E+01-1.92852E-01-2.54625E-03 1.65009E+00 4.56987E-14-8.81571E-14
 -1       751 2.27374E+01-1.01965E+00-1.76809E-03 1.15556E+00 5.38864E-14 2.66919E-14
 -1       752 2.23422E+01-1.32457E+00-3.23371E-04 5.61979E-01 1.05622E-13 9.41680E-14
 -1       753 2.18334E+01-1.26227E+00-3.06599E-04 5.65140E-02 4.48813E-14 1.09139E-13
 -1       754 2.13316E+01-1.00442E+00-3.34349E-04-2.92955E-01-7.89520E-14 7.22672E-14
 -1       755 2.09086E+01-6.92068E-01-1.92632E-04-4.92880E-01-9.98919E-14 2.71282E-14
 -1       756 2.05863E+01-4.05351E-01-6.95698E-05-5.79176E-01-7.19878E-14 3.18414E-14
 -1       757 2.03585E+01-1.78648E-01-1.73194E-05-5.89039E-01-5.98097E-14-3.22487E-14
 -1       758 2.02074E+01-1.85353E-02 5.83475E-07-5.52713E-01-1.97892E-14-1.38306E-14
 -1       759 2.01129E+01 8.26248E-02 1.05571E-05-4.91969E-01-3.97151E-15 1.64465E-14
 -1       760 2.00572E+01 1.37667E-01 1.47868E-05-4.21310E-01 4.42887E-14 1.07798E-13
 -1       761 2.00267E+01 1.59753E-01 1.55753E-05-3.49867E-01 1.52695E-13 1.44843E-13
 -1       762 2.00115E+01 1.60206E-01 1.44742E-05-2.83020E-01-3.47447E-14 1.60727E-13
 -1       763 2.00051E+01 1.47824E-01 1.25024E-05-2.23593E-01-6.01090E-14 1.61366E-13
 -1       764 2.00033E+01 1.28945E-01 1.02638E-05-1.72725E-01 6.37689E-14-3.70538E-14
 -1       765 2.00035E+01 1.07829E-01 8.05427E-06-1.30485E-01 1.68271E-13-2.03006E-14
 -1       766 2.00044E+01 8.71287E-02 5.98370E-06-9.63067E-02 1.02322E-13 1.35935E-13
 -1       767 2.00052E+01 6.83303E-02 4.24828E-06-6.92881E-02 4.01887E-14 2.42966E-13
 -1       768 2.00057E+01 5.21224E-02 2.98019E-06-4.83967E-02-4.34219E-14 2.15289E-13
 -1       769 2.00058E+01 3.86880E-02 2.12289E-06-3.25950E-02-1.67905E-13 1.04652E-13
 -1       770 2.00057E+01 2.79083E-02 1.51485E-06-2.09106E-02-2.37641E-14 7.44042E-14
 -1       771 2.00052E+01 1.94995E-02 9.90531E-07-1.24796E-02 3.67830E-14 1.17515E-13
 -1       772 2.00046E+01 1.31094E-02 5.72645E-07-6.56460E-03 2.12874E-13 2.81623E-13
 -1       773 2.00040E+01 8.37780E-03 2.80064E-07-2.55489E-03-1.40921E-14 1.82720E-13
 -1       774 2.00033E+01 4.96946E-03 8.80733E-08 4.41226E-05-1.54306E-13 1.39248E-13
 -1       775 2.00027E+01 2.58933E-03-3.12225E-08 1.62390E-03-2.63913E-13-3.84393E-14
 -1       776 2.00021E+01 9.88155E-04-9.99175E-08 2.48741E-03-2.10009E-13-6.96400E-14
 -1       777 2.00016E+01-3.80160E-05-1.33433E-07 2.86401E-03 3.86591E-14-1.32629E-13
 -1       778 2.00012E+01-6.51980E-04-1.42471E-07 2.92333E-03-2.02738E-13 2.55879E-13
 -1       779 2.00008E+01-9.81069E-04-1.34100E-07 2.78757E-03-4.26848E-13 4.35966E-13
 -1       780 2.00005E+01-1.12331E-03-1.27257E-07 2.54186E-03 3.51643E-15 3.17850E-14
 -1       781 2.00003E+01-1.15334E-03-8.46932E-08 2.24294E-03 7.57923E-14-2.34125E-13
 -1       782 2.00001E+01-1.12752E-03 1.12436E-08 1.92683E-03 2.88021E-13-4.38972E-14
 -1       783 1.99999E+01-1.07098E-03-3.14451E-07 1.65806E-03 3.31750E-13 1.87597E-13
 -1       784 1.89153E+01 1.19712E+00 6.78373E-05 1.54695E+00 5.89541E-14 1.42166E-13
 -1       785 2.52398E+01-2.83527E+00-7.59349E-03 1.64980E+00 1.88686E-14 1.00513E-13
 -1       786 1.85258E+01-2.86612E+00 4.56109E-02-5.27662E+00 7.15695E-14 1.73028E-13
 -1       787 1.00575E+01 2.75671E+00 8.82360E-02 4.41551E-01 2.54437E-13 7.75491E-14
 -1       788 1.47005E+01 1.38845E+00 1.56693E-02 4.37916E+00 2.39570E-13 1.02324E-13
 -1       789 1.83696E+01 1.28658E+00 1.62307E-04 1.91294E+00-9.84323E-14 1.04693E-13
 -1       790 1.76715E+01 1.16522E+00 2.45855E-03 2.40554E+00-5.31337E-14 1.31699E-13
 -1       791 1.93126E+01 1.02614E+00 1.97677E-04 1.25274E+00 4.44704E-14 1.70290E-13
 -1       792 1.95866E+01 8.39277E-01 2.06776E-04 1.00741E+00 1.30991E-14-5.59353E-14
 -1       793 1.97672E+01 6.66962E-01 1.70632E-04 8.01386E-01 5.80741E-14-1.46923E-13
 -1       794 1.98811E+01 5.20310E-01 1.29161E-04 6.29715E-01 4.65006E-14-4.14499E-14
 -1       795 1.99498E+01 4.00879E-01 9.49818E-05 4.88555E-01-1.73266E-13 5.62928E-14
 -1       796 1.99890E+01 3.06077E-01 6.93250E-05 3.74137E-01-2.05528E-14 1.91409E-13
 -1       797 2.00095E+01 2.31965E-01 5.05255E-05 2.82675E-01 6.38304E-14 1.04415E-13
 -1       798 2.00187E+01 1.74566E-01 3.67715E-05 2.10524E-01-4.76322E-14-1.38733E-13
 -1       799 2.00215E+01 1.30383E-01 2.66482E-05 1.54330E-01-6.27206E-14-1.74822E-13
 -1       800 2.00209E+01 9.65375E-02 1.91738E-05 1.11117E-01-1.21157E-13-1.51255E-14
 -1       801 2.00185E+01 7.07356E-02 1.36088E-05 7.83208E-02-1.07243E-13-1.09079E-13
 -1       802 2.00156E+01 5.11713E-02 9.50186E-06 5.37740E-02-2.11608E-13-2.10573E-13
 -1       803 2.00126E+01 3.64328E-02 6.57748E-06 3.56842E-02-2.60854E-13-1.46724E-13
 -1       804 2.00099E+01 2.54236E-02 4.50003E-06 2.25875E-02 4.47066E-14-6.03733E-14
 -1       805 2.00076E+01 1.72886E-02 2.96318E-06 1.32998E-02 4.11276E-13-2.63576E-14
 -1       806 2.00056E+01 1.13561E-02 1.85341E-06 6.87650E-03 8.47893E-14-1.49781E-13
 -1       807 2.00041E+01 7.09901E-03 1.07168E-06 2.57469E-03 1.01942E-14-1.22574E-13
 -1       808 2.00029E+01 4.10541E-03 5.36723E-07-1.82955E-04 2.17455E-14 1.77389E-13
 -1       809 2.00020E+01 2.05433E-03 1.84477E-07-1.83982E-03-1.61844E-13 2.45132E-13
 -1       810 2.00013E+01 6.96620E-04-3.65812E-08-2.73149E-03-2.09010E-13 5.58514E-13
 -1       811 2.00008E+01-1.59992E-04-1.65399E-07-3.10780E-03-1.65473E-13 4.71535E-13
 -1       812 2.00004E+01-6.62761E-04-2.32226E-07-3.15124E-03-1.95845E-13 9.71902E-14
 -1       813 2.00002E+01-9.23715E-04-2.57041E-07-2.99202E-03-2.06330E-13-2.72450E-13
 -1       814 2.00000E+01-1.02754E-03-2.50854E-07-2.72014E-03 6.82557E-14-4.55716E-13
 -1       815 1.99998E+01-1.03801E-03-2.35613E-07-2.39519E-03 9.20563E-14-3.37462E-13
 -1       816 1.99998E+01-1.00318E-03-3.11831E-07-2.05384E-03-9.54723E-15-4.60022E-13
 -1       817 1.99997E+01-9.60153E-04-1.42729E-07-1.71671E-03-2.73909E-13 4.11387E-14
 -1       818 1.99998E+01-9.91833E-04 3.63109E-07-1.50148E-03-7.73294E-14 6.36407E-14
 -1       819 2.54433E+01 2.60898E+00-5.38577E-02 2.10973E+00 8.78412E-14-7.44760E-14
 -1       820 1.10365E+01 5.86280E-01 8.38359E-02-2.84860E+00-2.70521E-14 7.74658E-14
 -1       821 2.00011E+01-1.77938E-03 1.54415E-07 9.44938E-06-1.55045E-13 9.65886E-14
 -1       822 1.06841E+01 2.18916E+00 8.88296E-02 3.61950E+00 2.77745E-13 1.47653E-13
 -1       823 1.63106E+01-7.12931E-01 6.70497E-02 4.30763E+00-1.46445E-14 2.91663E-13
 -1       824 2.00011E+01-1.73170E-03 5.03483E-08 5.27599E-04-1.43822E-13 4.72396E-13
 -1       825 2.69860E+01-8.86707E-01-4.47298E-02-1.08895E+00-6.87297E-14 6.96075E-14
 -1       826 1.39213E+01-1.03260E+00 7.44486E-02-5.04879E+00-2.03986E-14 1.78552E-13
 -1       827 2.62318E+01-1.00527E+00-5.17318E-02 1.39383E+00 1.51710E-13 6.59108E-15
 -1       828 2.13828E+01-2.46140E+00 3.53661E-02 4.30762E+00 1.07647E-13 1.90223E-13
 -1       829 1.68769E+01 6.12420E-01 1.42654E-02 3.14222E+00 6.47746E-15 3.32831E-13
 -1       830 1.52840E+01-1.46462E-01 6.14519E-02 5.53426E+00 2.23070E-13 1.27089E-13
 -1       831 2.63934E+01 2.52907E+00-6.14199E-02-2.21882E+00-1.22971E-13-2.10361E-14
 -1       832 2.52072E+01 5.28704E+00-8.13078E-02 5.33219E-01-1.40686E-14-1.98344E-14
 -1       833 2.26824E+01-3.25610E-01-4.27908E-04-4.25770E-01 1.13293E-13-6.63697E-14
 -1       834 2.23889E+01-3.83364E+00 2.00869E-02-3.71993E+00 2.30961E-13 1.32658E-13
 -1       835 1.83547E+01 8.67681E-02 2.42440E-02 3.91570E+00 1.97788E-13 1.17126E-13
 -1       836 2.50666E+01 3.48409E+00-4.76451E-02-1.93273E+00-9.65009E-14-1.54850E-14
 -1       837 1.16628E+01 1.35487E+00 5.75572E-02-3.38409E-01 6.44675E-14 2.82064E-13
 -1       838 2.00008E+01-1.60850E-03 1.14593E-07-9.85941E-04 1.88063E-14 3.18686E-13
 -1       839 2.00011E+01-1.73798E-03 1.40833E-07-5.14784E-04-1.31497E-13-1.03396E-13
 -1       840 2.00005E+01-1.43026E-03-5.20463E-07-1.29495E-03-1.40478E-13 2.93363E-14
 -1       841 2.23166E+01-6.05259E-01 4.44442E-03 7.95593E-01 1.18411E-13 4.02803E-15
 -1       842 2.55770E+01-3.15181E+00-1.90810E-02-5.58529E-01 2.37858E-13 1.35036E-13
 -1       843 2.00002E+01-1.23612E-03-8.14595E-07 1.52778E-03 2.35315E-13-3.22434E-13
 -1       844 2.33357E+01-6.14015E-01 5.69742E-03-9.32131E-01 7.77666E-14-8.28062E-14
 -1       845 2.40078E+01-4.63396E-01-3.07693E-03-1.50467E+00-1.00248E-14-8.89730E-14
 -1       846 2.42277E+01 6.34704E-01-7.96614E-03-2.02529E+00-1.08564E-13-1.04553E-13
 -1       847 2.34777E+01 3.66661E+00-5.78155E-02 7.13589E-01 3.45227E-14-1.14919E-13
 -1       848 2.38392E+01-1.23103E+00-1.29744E-04 1.18025E+00 6.80159E-14-4.21430E-14
 -1       849 2.31730E+01-1.81058E+00 1.50498E-03 3.49119E-01 1.49247E-13 2.68232E-15
 -1       850 2.23560E+01-1.77646E+00 3.72957E-04-2.83087E-01 1.24746E-13 1.75091E-14
 -1       851 2.15841E+01-1.41610E+00-8.76612E-05-6.63511E-01-3.69434E-14 5.75780E-14
 -1       852 2.09670E+01-9.74238E-01-1.89053E-04-8.25610E-01-6.69963E-14 7.79792E-14
 -1       853 2.05232E+01-5.71339E-01 1.21598E-05-8.48195E-01 6.05263E-15 8.26294E-14
 -1       854 2.02298E+01-2.54484E-01 4.70048E-05-7.92276E-01-1.70882E-13 1.16286E-13
 -1       855 2.00521E+01-3.12461E-02 2.15148E-05-6.99440E-01-5.81305E-14 1.60742E-13
 -1       856 1.99556E+01 1.10348E-01 1.45964E-05-5.94995E-01-4.23611E-14 1.23495E-13
 -1       857 1.99121E+01 1.88523E-01 1.12362E-05-4.92612E-01 1.06996E-13 3.52090E-14
 -1       858 1.99007E+01 2.21305E-01 8.58902E-06-3.99074E-01 1.21406E-13 9.30057E-14
 -1       859 1.99070E+01 2.24016E-01 6.30003E-06-3.17261E-01 1.09308E-13 7.64558E-14
 -1       860 1.99217E+01 2.08572E-01 4.44025E-06-2.47856E-01-4.93219E-14-7.87014E-15
 -1       861 1.99390E+01 1.83617E-01 3.03404E-06-1.90358E-01-1.77613E-13 4.76376E-14
 -1       862 1.99555E+01 1.55036E-01 1.98634E-06-1.43664E-01 1.51828E-13 8.87714E-15
 -1       863 1.99698E+01 1.26568E-01 1.01950E-06-1.06421E-01 2.41908E-13-4.33844E-14
 -1       864 1.99813E+01 1.00379E-01-2.97770E-08-7.72166E-02 1.23907E-13-5.16884E-15
 -1       865 1.99900E+01 7.75262E-02-5.42228E-07-5.46941E-02 3.34815E-14 1.45110E-13
 -1       866 1.99962E+01 5.83575E-02-3.82135E-07-3.76300E-02-9.17669E-14 1.18040E-13
 -1       867 2.00004E+01 4.27940E-02 2.40472E-08-2.49388E-02-6.31676E-14 3.39564E-13
 -1       868 2.00030E+01 3.05060E-02 9.07316E-08-1.56863E-02-6.85684E-14 2.91354E-13
 -1       869 2.00044E+01 2.10441E-02-3.44688E-08-9.09433E-03 2.03846E-13 2.09232E-13
 -1       870 2.00049E+01 1.39339E-02-1.13303E-07-4.52801E-03-3.51725E-14 9.92440E-14
 -1       871 2.00050E+01 8.72472E-03-1.34085E-07-1.47494E-03-6.08207E-14 3.65272E-14
 -1       872 2.00047E+01 5.01259E-03-1.27705E-07 4.71370E-04-3.30866E-13 2.19816E-14
 -1       873 2.00041E+01 2.45057E-03-1.12779E-07 1.62684E-03-2.50026E-13 2.00905E-13
 -1       874 2.00035E+01 7.50929E-04-9.65232E-08 2.23248E-03 4.37615E-14 1.77275E-13
 -1       875 2.00029E+01-3.18680E-04-7.84051E-08 2.46865E-03 2.12226E-13-6.46063E-14
 -1       876 2.00023E+01-9.41908E-04-5.57964E-08 2.46741E-03-2.16168E-13 5.14647E-14
 -1       877 2.00018E+01-1.26131E-03-2.32217E-08 2.32288E-03-3.91716E-13 1.64986E-13
 -1       878 2.00013E+01-1.38578E-03-9.37340E-08 2.10022E-03-2.27194E-13-2.47132E-14
 -1       879 2.00009E+01-1.40004E-03-4.46711E-07 1.84111E-03 3.31724E-13-4.82254E-14
 -1       880 2.01501E+01-2.46374E+00 2.44464E-03-3.74544E+00 1.33682E-13-2.83196E-14
 -1       881 2.47667E+01-1.79099E+00-1.50782E-03 8.37676E-01 1.20017E-13 5.73479E-14
 -1       882 1.76426E+01 1.49629E+00-6.21319E-04 1.09953E+00 1.77015E-14 2.42030E-13
 -1       883 1.66216E+01 1.59401E+00 2.74154E-04 1.29959E+00-3.93877E-14 2.65994E-13
 -1       884 1.92543E+01 8.94254E-01 8.90271E-06 6.87411E-01 1.35517E-13 1.21857E-13
 -1       885 1.95063E+01 7.14661E-01 1.31641E-05 5.69846E-01-2.74443E-14 7.86205E-14
 -1       886 1.96786E+01 5.63032E-01 9.44685E-06 4.63164E-01-1.99037E-13 1.37804E-13
 -1       887 1.97950E+01 4.38726E-01 5.94569E-06 3.69324E-01-1.74256E-13 5.89404E-14
 -1       888 1.98726E+01 3.38740E-01 3.73872E-06 2.89119E-01 6.27318E-14 8.05205E-14
 -1       889 1.99237E+01 2.59333E-01 2.47466E-06 2.22278E-01 1.43757E-13 1.52454E-13
 -1       890 1.99568E+01 1.96844E-01 1.75110E-06 1.67797E-01 6.19547E-14 2.17410E-13
 -1       891 1.99779E+01 1.48024E-01 1.22227E-06 1.24271E-01-1.86500E-13 5.17533E-14
 -1       892 1.99910E+01 1.10144E-01 8.77056E-07 9.01388E-02 5.19480E-14-5.03906E-14
 -1       893 1.99988E+01 8.09631E-02 7.02884E-07 6.38422E-02-7.64481E-14 6.79310E-14
 -1       894 2.00033E+01 5.86478E-02 5.50234E-07 4.39358E-02-3.08662E-13 6.20412E-14
 -1       895 2.00055E+01 4.17314E-02 5.10360E-07 2.91501E-02-8.57461E-16-1.93982E-13
 -1       896 2.00064E+01 2.90488E-02 3.64679E-07 1.83898E-02 2.00206E-13-3.31408E-13
 -1       897 2.00064E+01 1.96607E-02 2.32669E-07 1.07339E-02 1.85845E-13-1.67340E-13
 -1       898 2.00060E+01 1.28120E-02 1.27997E-07 5.43298E-03 1.21040E-13-5.95487E-14
 -1       899 2.00053E+01 7.90474E-03 5.79236E-08 1.88715E-03-9.99502E-14-3.85656E-14
 -1       900 2.00046E+01 4.46582E-03 1.86647E-08-3.77165E-04-8.45390E-14-8.32846E-14
 -1       901 2.00038E+01 2.12289E-03-2.11488E-09-1.72698E-03-2.64345E-13-1.59738E-14
 -1       902 2.00031E+01 5.85028E-04-1.28150E-08-2.44150E-03-2.29202E-13-1.14397E-14
 -1       903 2.00024E+01-3.73071E-04-1.72798E-08-2.72912E-03 4.02085E-14-4.56653E-14
 -1       904 2.00018E+01-9.24319E-04-2.45400E-08-2.74221E-03-2.72029E-14 2.95808E-14
 -1       905 2.00014E+01-1.20058E-03-3.18293E-08-2.58936E-03 3.71675E-14-1.72302E-13
 -1       906 2.00010E+01-1.30137E-03-6.84652E-09-2.34509E-03 5.16457E-14-1.32365E-13
 -1       907 2.00006E+01-1.30146E-03-2.70607E-07-2.06004E-03 8.77104E-14-7.08860E-14
 -1       908 2.00004E+01-1.26025E-03-9.48843E-07-1.76477E-03-2.52270E-13 1.81118E-13
 -1       909 2.53153E+01-1.61293E+00-6.36764E-03-3.60495E-01-1.06407E-14 5.58941E-14
 -1       910 1.36977E+01 1.23498E+00 5.17571E-02 2.04914E+00 5.14985E-14 3.24954E-13
 -1       911 1.83724E+01 1.30871E+00-1.91775E-04 9.47657E-01 4.78126E-14 1.92866E-13
 -1       912 2.31087E+01-1.99730E+00-8.11811E-03 2.00027E+00 7.35433E-14 5.66782E-14
 -1       913 1.71505E+01-1.21396E+00 2.11436E-02-4.21318E+00 5.03604E-14-3.19900E-14
 -1       914 2.09574E+01-5.95475E-01 3.21564E-03 2.39732E+00 1.41939E-13 5.22222E-14
 -1       915 2.55292E+01 3.05246E-01-4.67453E-02-1.98292E+00-7.13600E-14 2.20553E-14
 -1       916 1.53755E+01 1.53523E+00 8.49373E-03 1.56281E+00 7.47631E-15 2.95619E-13
 -1       917 2.40951E+01 4.31249E+00-4.95600E-02-6.89957E-01-1.95920E-14-1.82355E-14
 -1       918 1.45647E+01 1.97227E-01 2.99606E-02-3.40970E+00-3.54643E-14 1.95411E-13
 -1       919 2.00010E+01-1.53730E-03 7.28833E-07 1.37513E-03 2.33316E-13-1.77184E-13
 -1       920 2.00002E+01-1.22393E-03-9.87953E-08-1.45438E-03-5.09818E-14 1.67652E-14
 -1       921 1.88906E+01 1.09716E+00-3.41918E-05 8.13400E-01 1.33464E-13 1.49803E-13
 -1       922 2.42930E+01-3.94181E-01-9.82291E-03 1.68751E+00 1.07752E-13-5.43487E-14
 -1       923 2.35801E+01-3.14371E+00 9.66717E-03-1.59416E+00 2.52992E-13 2.59079E-13
 -1       924 2.00005E+01-1.31994E-03-4.22980E-07 1.69384E-03 3.94794E-13-1.97011E-13
 -1       925 2.00014E+01-1.72888E-03-8.91578E-08-8.74801E-04-3.49955E-14 1.99447E-13
 -1       926 2.00016E+01-1.81297E-03 1.73326E-07-2.91696E-04 6.57936E-14-4.94705E-14
 -1       927 2.00014E+01-1.71803E-03-1.19523E-07 8.89792E-04-1.28788E-13 6.62474E-13
 -1       928 1.39324E+01 1.20001E+00 2.41672E-02-1.75045E+00 8.00468E-14 2.11355E-13
 -1       929 2.00011E+01-1.58366E-03 3.19315E-07-1.30282E-03-8.67159E-15 3.33195E-13
 -1       930 2.00016E+01-1.80788E-03 1.35029E-07 3.15670E-04-9.83494E-14 1.26796E-13
 -1       931 2.36665E+01-1.04369E+00-5.67996E-03-4.15024E-01 6.06402E-14-3.46515E-14
 -1       932 1.65709E+01 1.59129E+00 2.99385E-04 2.17858E-01 3.68103E-14 7.05097E-14
 -1       933 2.46795E+01-7.83681E-01-4.86099E-03-1.23023E+00-2.14646E-14-3.71967E-14
 -1       934 2.16240E+01-2.30201E+00 9.55918E-03-2.20882E+00 1.19154E-13 1.86595E-13
 -1       935 2.29057E+01-2.41682E+00 2.28922E-03-8.89296E-01 1.86050E-13 1.33648E-13
 -1       936 2.09095E+01-1.25261E+00-1.33958E-05-1.34176E+00-3.36153E-14 1.28667E-13
 -1       937 2.03489E+01-7.11961E-01 3.29666E-04-1.23974E+00-1.04858E-13 1.66129E-13
 -1       938 2.00058E+01-2.97139E-01 1.37913E-04-1.06806E+00-4.68826E-14 1.13357E-13
 -1       939 1.98220E+01-1.26464E-02 2.29505E-06-8.82154E-01 4.17836E-14 2.26504E-13
 -1       940 1.97415E+01 1.64114E-01-1.29340E-05-7.09913E-01-5.45291E-14 3.51312E-13
 -1       941 1.97241E+01 2.59984E-01-1.37350E-05-5.61049E-01-4.57987E-14 2.63592E-13
 -1       942 1.97422E+01 2.98868E-01-1.20235E-05-4.37255E-01 1.65710E-14 2.36696E-13
 -1       943 1.97776E+01 3.00290E-01-1.01934E-05-3.36806E-01 5.29053E-14 1.94406E-14
 -1       944 1.98188E+01 2.79157E-01-8.45009E-06-2.56638E-01-1.93587E-14-4.42617E-14
 -1       945 1.98593E+01 2.46201E-01-6.79681E-06-1.93429E-01-4.16588E-14 7.20705E-14
 -1       946 1.98953E+01 2.08723E-01-5.24249E-06-1.44085E-01 6.71831E-14 2.89759E-13
 -1       947 1.99255E+01 1.71382E-01-3.93878E-06-1.05916E-01 5.56363E-14 1.51613E-13
 -1       948 1.99496E+01 1.36903E-01-3.51649E-06-7.66742E-02 2.64149E-13-9.88820E-14
 -1       949 1.99680E+01 1.06683E-01-3.10298E-06-5.44846E-02 1.63421E-13-1.46744E-13
 -1       950 1.99816E+01 8.11429E-02-2.71791E-06-3.78407E-02 1.66949E-13 1.08502E-13
 -1       951 1.99913E+01 6.02477E-02-7.71904E-07-2.55235E-02 1.09888E-13 4.42493E-13
 -1       952 1.99978E+01 4.36105E-02-9.77188E-08-1.65421E-02-6.21576E-14 4.91460E-13
 -1       953 2.00019E+01 3.06723E-02-3.70389E-07-1.01024E-02-1.04896E-13 4.73635E-13
 -1       954 2.00043E+01 2.08357E-02-3.98234E-07-5.59150E-03 9.32767E-14 1.54731E-13
 -1       955 2.00054E+01 1.35331E-02-3.12883E-07-2.52155E-03-6.21673E-14 6.60196E-14
 -1       956 2.00058E+01 8.24681E-03-2.09134E-07-5.08148E-04-3.11416E-13 9.36764E-14
 -1       957 2.00056E+01 4.52651E-03-1.24991E-07 7.44377E-04-3.03207E-13 6.83064E-14
 -1       958 2.00051E+01 1.99501E-03-6.80420E-08 1.46081E-03-2.40890E-13-2.40992E-13
 -1       959 2.00044E+01 3.44866E-04-3.39615E-08 1.80980E-03 7.13743E-14-1.23968E-13
 -1       960 2.00037E+01-6.68922E-04-8.33471E-09 1.91589E-03 1.11437E-13-2.72823E-13
 -1       961 2.00030E+01-1.23834E-03 1.99956E-08 1.86920E-03-1.91801E-13-1.31043E-13
 -1       962 2.00023E+01-1.51092E-03-1.08180E-08 1.73310E-03-2.06468E-13 1.59566E-13
 -1       963 2.00018E+01-1.60221E-03-5.38883E-08 1.55038E-03 4.15836E-14 3.93811E-13
 -1       964 1.82627E+01 1.24839E+00-1.28343E-04 3.89719E-01 1.49491E-13 2.92041E-14
 -1       965 1.66097E+01-6.32897E-02 9.29227E-03-3.07111E+00 3.01950E-14-6.34970E-14
 -1       966 1.93971E+01 7.01441E-01-5.37426E-05 3.42662E-01-1.65350E-13 1.75993E-13
 -1       967 1.91351E+01 8.66115E-01-6.62894E-05 3.81571E-01 2.13668E-14 1.23865E-13
 -1       968 1.97167E+01 4.42350E-01-3.41296E-05 2.44879E-01-2.31794E-14 4.22003E-14
 -1       969 1.98102E+01 3.45512E-01-2.61868E-05 1.97579E-01-6.30845E-14-2.03464E-15
 -1       970 1.98755E+01 2.67091E-01-1.95866E-05 1.55320E-01 7.06239E-14 1.09672E-13
 -1       971 1.99208E+01 2.04284E-01-1.42771E-05 1.19165E-01 1.62255E-14 2.29115E-13
 -1       972 1.99519E+01 1.54468E-01-1.01100E-05 8.92690E-02-8.52415E-14 3.52889E-13
 -1       973 1.99728E+01 1.15346E-01-6.61748E-06 6.52509E-02-6.13439E-14 4.47925E-13
 -1       974 1.99867E+01 8.49324E-02-2.68411E-06 4.64040E-02-3.09839E-14 3.84750E-13
 -1       975 1.99956E+01 6.14935E-02-1.11266E-06 3.19608E-02 7.45591E-14 8.95523E-14
 -1       976 2.00010E+01 4.36479E-02-1.22037E-06 2.11502E-02 1.10049E-13-5.62249E-14
 -1       977 2.00041E+01 3.02458E-02-9.02476E-07 1.32404E-02 1.23488E-13-3.38497E-14
 -1       978 2.00057E+01 2.03169E-02-5.51170E-07 7.59926E-03 1.45357E-13 2.59512E-14
 -1       979 2.00062E+01 1.30833E-02-2.78114E-07 3.69796E-03 1.89000E-14 1.65008E-13
 -1       980 2.00061E+01 7.91815E-03-7.31269E-08 1.09894E-03-7.29486E-16-1.26796E-14
 -1       981 2.00056E+01 4.31888E-03 6.61478E-08-5.47716E-04-2.18492E-13-1.87792E-14
 -1       982 2.00049E+01 1.88689E-03 1.49248E-07-1.51508E-03-2.02561E-13-4.08420E-14
 -1       983 2.00042E+01 3.09497E-04 1.92066E-07-2.01174E-03-1.30734E-13 9.04941E-14
 -1       984 2.00034E+01-6.55852E-04 2.13748E-07-2.19358E-03-2.21998E-13 2.92567E-13
 -1       985 2.00027E+01-1.19520E-03 1.67276E-07-2.17480E-03 3.39156E-13 1.47636E-13
 -1       986 2.00021E+01-1.45155E-03 6.51876E-08-2.03665E-03 7.37232E-14-1.51819E-14
 -1       987 2.00016E+01-1.53230E-03-8.86706E-08-1.83328E-03-1.70545E-13 1.93914E-13
 -1       988 1.40437E+01 1.64302E+00 1.73900E-02 6.18052E-02 1.13872E-14 2.78676E-13
 -1       989 1.87707E+01-1.24484E+00-2.82205E-04-3.31327E+00 1.00985E-13-1.72798E-14
 -1       990 2.38592E+01-2.39226E+00-9.77408E-03-1.64907E-01 1.69529E-13 8.95976E-14
 -1       991 2.00021E+01-1.80711E-03 2.48226E-08-6.63465E-04-9.44851E-14 1.81699E-13
 -1       992 1.87699E+01 1.05135E+00-8.71651E-05 4.01468E-01 1.06731E-13 7.06855E-15
 -1       993 1.95841E+01 5.60310E-01-4.33469E-05 2.94737E-01-9.89461E-14 2.05628E-13
 -1       994 1.75575E+01 1.44028E+00-1.58812E-04 3.33412E-01 7.78171E-14 6.23470E-16
 -1       995 2.00018E+01-1.71008E-03-4.68664E-07-1.19832E-03-1.94869E-13 2.04774E-13
 -1       996 2.00022E+01-1.84312E-03 9.75758E-08 1.67985E-05-1.45096E-14-8.73049E-15
 -1       997 2.17265E+01-1.85404E+00 1.84958E-04-1.27248E+00 5.24295E-14 9.05618E-14
 -1       998 1.57245E+01 8.66608E-01 9.30968E-03-2.03656E+00 1.00795E-13 1.18931E-13
 -1       999 2.00011E+01-1.51263E-03 2.05407E-06-1.60208E-03-1.95255E-13 3.17316E-13
 -1      1000 1.54971E+01 1.65895E+00 3.68441E-03 1.31089E-01 1.78082E-14 3.03625E-13
 -1      1001 1.99404E+01-7.84935E-01-4.50724E-03-1.76911E+00-9.82969E-14 2.51770E-13
 -1      1002 1.95683E+01 5.24759E-01-1.17620E-04 1.46651E-01 1.26176E-13 1.36703E-13
 -1      1003 2.05988E+01-1.48151E+00 1.76308E-03-2.08043E+00 4.12895E-14 2.34447E-13
 -1      1004 1.96054E+01-2.61498E-01-2.26764E-06-1.40750E+00-4.67995E-14 2.40387E-13
 -1      1005 1.94680E+01 7.04682E-02 5.89762E-05-1.08835E+00-4.26715E-14 1.76931E-13
 -1      1006 1.94435E+01 2.65959E-01 4.25399E-05-8.25338E-01 3.88207E-15 3.63495E-15
 -1      1007 1.94796E+01 3.66007E-01-1.63587E-06-6.17131E-01-4.36912E-14 8.14332E-14
 -1      1008 1.95460E+01 4.00483E-01-2.22171E-05-4.56713E-01 2.06279E-14 1.34027E-13
 -1      1009 1.96229E+01 3.92966E-01-3.33342E-05-3.35454E-01-8.40683E-14 1.02653E-13
 -1      1010 1.96988E+01 3.60851E-01-3.70930E-05-2.44894E-01-6.36722E-14 2.10880E-13
 -1      1011 1.97675E+01 3.16364E-01-3.61220E-05-1.77779E-01 1.08304E-14 1.56824E-13
 -1      1012 1.98263E+01 2.67703E-01-3.25183E-05-1.28283E-01 7.54949E-14 2.29871E-13
 -1      1013 1.98746E+01 2.20035E-01-2.76588E-05-9.18996E-02-1.29239E-15 1.62871E-13
 -1      1014 1.99127E+01 1.76340E-01-2.33744E-05-6.52190E-02 9.94857E-14 1.84403E-13
 -1      1015 1.99421E+01 1.38073E-01-1.68633E-05-4.57497E-02 1.00553E-13 1.95896E-13
 -1      1016 1.99638E+01 1.05799E-01-1.02386E-05-3.15233E-02 3.96155E-13 2.28304E-13
 -1      1017 1.99795E+01 7.92896E-02 1.17997E-06-2.13143E-02 3.00853E-13 2.93690E-13
 -1      1018 1.99904E+01 5.80155E-02-5.55796E-06-1.39661E-02-4.37686E-14 2.15283E-13
 -1      1019 1.99976E+01 4.14181E-02-6.69527E-06-8.72217E-03-9.14927E-15 1.38243E-13
 -1      1020 2.00022E+01 2.86700E-02-4.59808E-06-5.06983E-03-1.12248E-13 3.26066E-13
 -1      1021 2.00048E+01 1.91135E-02-3.34577E-06-2.58071E-03-1.55463E-13 1.68356E-13
 -1      1022 2.00061E+01 1.21127E-02-2.30651E-06-9.28675E-04-1.18996E-13-3.18983E-14
 -1      1023 2.00064E+01 7.11179E-03-1.51586E-06 1.23762E-04-3.94223E-13-1.77654E-13
 -1      1024 2.00062E+01 3.64307E-03-9.43811E-07 7.53077E-04-2.37301E-13 3.74473E-15
 -1      1025 2.00056E+01 1.32318E-03-5.48019E-07 1.09009E-03 2.38503E-14 3.43980E-13
 -1      1026 2.00049E+01-1.55485E-04-2.74723E-07 1.23079E-03-4.13284E-14 2.30090E-13
 -1      1027 2.00041E+01-1.03468E-03-4.99136E-08 1.24479E-03 8.95309E-14 1.52863E-13
 -1      1028 2.00033E+01-1.49999E-03 7.47062E-07 1.18295E-03 1.13202E-14 2.16571E-13
 -1      1029 2.00026E+01-1.70440E-03 1.44334E-06 1.07932E-03 4.86296E-14 6.14419E-13
 -1      1030 1.91597E+01 7.83309E-01-1.64625E-04 1.30536E-01-1.56163E-13 4.57722E-13
 -1      1031 1.97901E+01 3.31691E-01-7.44006E-05 1.12437E-01-2.09142E-14 1.40326E-13
 -1      1032 1.96964E+01 4.19984E-01-9.44747E-05 1.32131E-01 1.80106E-14 9.25965E-14
 -1      1033 1.99066E+01 1.99016E-01-4.60830E-05 7.20590E-02-1.08478E-13 4.57067E-13
 -1      1034 1.99411E+01 1.51006E-01-3.07432E-05 5.48595E-02-1.10930E-13 2.96945E-13
 -1      1035 1.99650E+01 1.13057E-01-3.65942E-06 4.05616E-02 7.19807E-14 2.13210E-13
 -1      1036 1.99814E+01 8.31812E-02-3.97040E-07 2.90181E-02 4.77052E-14 3.61550E-13
 -1      1037 1.99922E+01 6.00528E-02-9.47692E-06 2.00012E-02 2.19794E-13 1.81692E-13
 -1      1038 1.99991E+01 4.24499E-02-8.81143E-06 1.31808E-02 1.22776E-13 1.36063E-13
 -1      1039 2.00033E+01 2.91996E-02-5.89971E-06 8.15400E-03 7.96766E-14-1.26626E-14
 -1      1040 2.00055E+01 1.93958E-02-3.95114E-06 4.56818E-03-5.68806E-14-1.52605E-13
 -1      1041 2.00065E+01 1.22801E-02-2.52934E-06 2.09318E-03-5.15605E-14 2.75244E-13
 -1      1042 2.00066E+01 7.22820E-03-1.50153E-06 4.53495E-04-6.34932E-14 4.77179E-13
 -1      1043 2.00062E+01 3.73649E-03-7.84544E-07-5.73898E-04 5.26177E-14 1.78970E-13
 -1      1044 2.00056E+01 1.40408E-03-2.99471E-07-1.16491E-03-2.31134E-13 3.11202E-15
 -1      1045 2.00048E+01-8.41357E-05 2.56713E-08-1.45475E-03-2.21502E-13-5.52362E-14
 -1      1046 2.00040E+01-9.72780E-04 3.41536E-07-1.54416E-03 2.83259E-14 7.64326E-14
 -1      1047 2.00032E+01-1.44372E-03 9.86473E-07-1.50834E-03 1.17260E-13 3.42880E-13
 -1      1048 2.00025E+01-1.65512E-03 7.43164E-07-1.40028E-03-1.96097E-13 3.14120E-13
 -1      1049 1.80918E+01-2.16814E-01 2.88305E-03-2.51318E+00 6.17424E-14 1.18472E-14
 -1      1050 2.00021E+01-1.79810E-03-7.29082E-07 6.69082E-04 1.06149E-13 3.38816E-13
 -1      1051 1.93943E+01 6.46344E-01-1.42503E-04 1.49432E-01-7.07043E-14 3.23931E-13
 -1      1052 1.98579E+01 2.58606E-01-5.76694E-05 9.16413E-02-2.51262E-14 3.93557E-13
 -1      1053 2.00028E+01-1.78697E-03-5.60689E-07-3.52401E-04-1.27754E-13 3.56710E-13
 -1      1054 1.88447E+01 9.31244E-01-1.70664E-04 7.56899E-02-7.76295E-14 2.75275E-13
 -1      1055 1.52864E+01 1.40733E+00 6.38837E-03-9.92999E-01 1.03919E-13 1.85406E-13
 -1      1056 1.71047E+01 1.31229E+00 2.73194E-03-5.38968E-01 5.23037E-14 1.04561E-13
 -1      1057 1.72061E+01 5.68627E-01 2.79803E-04-1.92227E+00 2.17492E-13 1.22453E-13
 -1      1058 1.63214E+01 1.36538E+00-1.24252E-03-7.53124E-01 1.85996E-13 1.57213E-13
 -1      1059 1.84232E+01 1.08094E+00-1.30635E-04-3.46018E-02 8.34452E-14 1.41186E-13
 -1      1060 1.78608E+01 1.21550E+00 1.20364E-04-2.26800E-01 8.10684E-14 7.98941E-14
 -1      1061 2.00027E+01-1.73916E-03-7.77549E-07-8.92449E-04-1.90843E-13 2.45833E-13
 -1      1062 2.00028E+01-1.78026E-03-1.11086E-06 3.78195E-04-3.26279E-14 2.35353E-13
 -1      1063 1.89282E+01 2.48216E-01 3.73785E-04-1.29658E+00-3.54058E-14 2.55969E-13
 -1      1064 1.90202E+01 4.37748E-01-1.78625E-04-9.23272E-01-7.19509E-14 2.58744E-13
 -1      1065 1.91558E+01 5.21369E-01-1.49186E-05-6.46046E-01 3.23022E-15 2.52410E-13
 -1      1066 1.93009E+01 5.35223E-01-1.25360E-05-4.46201E-01-1.13914E-13 7.89289E-14
 -1      1067 1.94387E+01 5.07114E-01-2.77953E-05-3.04856E-01-3.87562E-15-1.50311E-13
 -1      1068 1.95613E+01 4.56031E-01-3.39280E-05-2.06417E-01 7.73739E-14 1.92762E-14
 -1      1069 1.96656E+01 3.94764E-01-3.19723E-05-1.38725E-01-3.62923E-14 2.40157E-13
 -1      1070 1.97514E+01 3.31602E-01-2.61296E-05-9.26512E-02 5.88059E-14 2.29542E-13
 -1      1071 1.98200E+01 2.71600E-01-1.94382E-05-6.15416E-02-6.40429E-15 2.04304E-13
 -1      1072 1.98735E+01 2.17544E-01-1.39486E-05-4.06711E-02-4.48009E-16 1.84701E-13
 -1      1073 1.99142E+01 1.70631E-01-2.15542E-05-2.67424E-02 1.95565E-13 5.01344E-15
 -1      1074 1.99454E+01 1.30957E-01 1.48758E-04-1.76331E-02 2.96421E-13 3.61542E-13
 -1      1075 1.99669E+01 9.83720E-02-1.50248E-05-1.13892E-02 2.64492E-13 1.43890E-13
 -1      1076 1.99818E+01 7.32016E-02 2.38552E-05-6.98932E-03-9.97452E-14-1.61035E-14
 -1      1077 1.99924E+01 5.27356E-02 9.33698E-06-4.09948E-03-1.55936E-15-9.92435E-14
 -1      1078 1.99993E+01 3.70081E-02 3.22435E-06-2.33936E-03 6.09727E-15 1.17040E-13
 -1      1079 2.00034E+01 2.51620E-02 3.19592E-06-1.17168E-03-2.96380E-13 4.08699E-14
 -1      1080 2.00057E+01 1.64038E-02 3.16106E-06-4.20201E-04-3.22947E-13-7.03371E-15
 -1      1081 2.00067E+01 1.00734E-02 2.91890E-06 4.60818E-05-4.49290E-13-3.66250E-14
 -1      1082 2.00068E+01 5.61636E-03 2.57206E-06 3.19306E-04-1.07796E-13 1.32719E-13
 -1      1083 2.00064E+01 2.57617E-03 2.19086E-06 4.63648E-04 1.67774E-13 1.90924E-13
 -1      1084 2.00058E+01 5.84863E-04 1.81314E-06 5.23815E-04-6.85102E-16 2.82436E-13
 -1      1085 2.00049E+01-6.48879E-04 1.54965E-06 5.31088E-04-6.38372E-14 6.05140E-13
 -1      1086 2.00041E+01-1.35362E-03-4.90864E-07 5.03757E-04 5.00903E-14 4.23090E-13
 -1      1087 2.00034E+01-1.62793E-03-2.42746E-06 4.39776E-04 2.16345E-13 4.57533E-13
 -1      1088 1.98613E+01 2.39274E-01 2.23918E-05 3.77320E-02-3.87330E-14 1.69461E-13
 -1      1089 1.99656E+01 1.04432E-01 1.25776E-05 1.87649E-02-1.80149E-14-1.10566E-13
 -1      1090 1.99077E+01 1.84990E-01 3.17093E-05 3.18676E-02 1.91785E-15 2.87724E-13
 -1      1091 1.99816E+01 7.70742E-02 6.49022E-05 1.37492E-02 1.06286E-13-2.08319E-13
 -1      1092 1.99922E+01 5.54956E-02-6.32254E-06 9.71144E-03 1.87099E-13-7.81944E-14
 -1      1093 1.99992E+01 3.89594E-02 2.77426E-06 6.45343E-03 1.71493E-13 3.85777E-14
 -1      1094 2.00035E+01 2.65239E-02 2.98807E-06 3.99782E-03 1.59280E-13 2.25562E-13
 -1      1095 2.00058E+01 1.73579E-02 2.21501E-06 2.21672E-03-4.19633E-13 2.68290E-13
 -1      1096 2.00068E+01 1.07412E-02 1.39286E-06 9.77842E-04-2.69341E-13 3.01055E-13
 -1      1097 2.00069E+01 6.07983E-03 7.48054E-07 1.55965E-04 5.63342E-14 5.71453E-13
 -1      1098 2.00065E+01 2.89257E-03 2.99769E-07-3.56776E-04-7.10223E-14 8.51462E-13
 -1      1099 2.00058E+01 7.95273E-04 2.39622E-08-6.48243E-04 7.03671E-14 5.18217E-13
 -1      1100 2.00050E+01-5.14165E-04-1.21902E-07-7.87429E-04 1.89332E-14 1.36855E-13
 -1      1101 2.00041E+01-1.27263E-03-1.61103E-06-8.27582E-04 5.99659E-14 1.04765E-13
 -1      1102 2.00034E+01-1.59260E-03-3.42252E-06-8.80941E-04 9.47967E-14 3.09550E-13
 -1      1103 1.87502E+01 2.65084E-02 3.49446E-03-1.77325E+00-4.69911E-14 1.98822E-13
 -1      1104 1.97979E+01 3.04818E-01 2.08921E-05 4.14438E-02-9.43313E-14 1.87549E-13
 -1      1105 1.99411E+01 1.40931E-01 9.98927E-05 2.51065E-02 1.55387E-13 7.66790E-14
 -1      1106 1.92595E+01 6.76783E-01-1.24400E-04-5.45693E-02-1.19010E-13 3.49359E-13
 -1      1107 1.97128E+01 3.82226E-01 1.27123E-05 4.00628E-02-6.17575E-15 1.40198E-13
 -1      1108 1.87002E+01 8.75724E-01-3.94916E-04-3.14515E-01-8.81450E-14 2.93056E-13
 -1      1109 2.00035E+01-1.63758E-03 6.79445E-06-2.88784E-04-5.35482E-14 5.14136E-13
 -1      1110 1.95998E+01 4.71372E-01-8.06107E-06 2.89294E-02 1.93629E-13 2.68470E-13
 -1      1111 1.94516E+01 5.70775E-01-4.98609E-05 9.04836E-04 1.78659E-13 3.83615E-13
 -1      1112 1.90130E+01 7.82400E-01-2.42844E-04-1.52638E-01-3.12075E-13 2.62527E-13
 -1      1113 1.83061E+01 9.38024E-01-6.05095E-04-5.69325E-01-2.77223E-14 2.42080E-13
 -1      1114 1.66425E+01 1.02312E+00 4.33062E-03-1.39679E+00 1.73182E-13 1.16734E-13
 -1      1115 1.78190E+01 9.35847E-01-1.13838E-03-9.52228E-01 6.05638E-14 1.30046E-13
 -1      1116 1.99497E+01 1.23050E-01-2.70142E-04 9.08935E-04 2.20398E-13-7.45222E-14
 -1      1117 1.99744E+01 8.61478E-02-1.38561E-04 4.65783E-03 2.87871E-14-2.93066E-13
 -1      1118 1.72580E+01 8.09843E-01 3.29040E-03-1.49810E+00 1.13770E-13 7.00611E-14
 -1      1119 2.99300E+01 9.71938E+00 2.46771E+00-6.99937E+00-3.21965E-14-5.46008E-13
 -1      1120 2.20284E+01 6.68300E+00 2.48180E-01-3.90965E+00-5.05151E-15-6.42951E-13
 -1      1121 2.06751E+01 6.23529E+00 1.09159E-01-2.70288E+00 6.10623E-16-5.47956E-13
 -1      1122 2.00176E+01 6.03684E+00 1.05173E-01-1.82559E+00 5.07927E-15-4.28421E-13
 -1      1123 1.94830E+01 5.87857E+00 1.12177E-01-1.01534E+00 5.96745E-15-3.17449E-13
 -1      1124 1.88808E+01 5.69693E+00 1.08937E-01-2.52089E-01 6.50868E-15-2.15434E-13
 -1      1125 1.81358E+01 5.46744E+00 8.90052E-02 4.31037E-01 6.70297E-15-1.15337E-13
 -1      1126 1.72608E+01 5.19308E+00 4.94194E-02 9.64170E-01 6.60583E-15-3.56616E-14
 -1      1127 1.63820E+01 4.91303E+00-5.20223E-03 1.26142E+00 6.81399E-15 2.70790E-14
 -1      1128 1.57082E+01 4.69400E+00-6.15360E-02 1.28185E+00 6.34215E-15 9.08476E-14
 -1      1129 1.54840E+01 4.61484E+00-1.01131E-01 1.06465E+00 6.87644E-15 1.50560E-13
 -1      1130 1.58966E+01 4.73672E+00-1.07537E-01 7.45861E-01 7.32747E-15 2.19906E-13
 -1      1131 1.70138E+01 5.08197E+00-7.38742E-02 5.15740E-01 7.71605E-15 3.10706E-13
 -1      1132 1.87775E+01 5.63273E+00-1.76699E-03 5.82012E-01 6.88338E-15 4.25969E-13
 -1      1133 2.10406E+01 6.34628E+00 1.13673E-01 1.14307E+00 6.21725E-15 5.81259E-13
 -1      1134 2.37932E+01 7.23704E+00 3.30175E-01 2.48574E+00-1.55431E-15 7.73239E-13
 -1      1135 2.94440E+01 9.32813E+00 1.64965E+00 5.31671E+00-2.59237E-14 9.36057E-13
 -1      1136 3.09163E+01 3.81448E+00 1.31738E+00-4.41914E+00-8.48766E-14-5.24247E-13
 -1      1137 2.20850E+01-1.76037E-01-6.30984E-01-9.36335E-02-3.79835E-14-7.25559E-13
 -1      1138 2.06142E+01-7.57939E-02-2.09213E-01 6.51376E-02-6.45664E-15-9.00613E-13
 -1      1139 1.99642E+01-2.27337E-02-2.04938E-02 2.82044E-02-7.41464E-15-9.97594E-13
 -1      1140 1.93174E+01-1.87173E-03 2.01467E-02 8.22596E-04-6.52522E-15-1.03030E-12
 -1      1141 1.85658E+01-2.93230E-04 1.50875E-02-1.75391E-02-6.14379E-15-1.05916E-12
 -1      1142 1.77427E+01-1.04481E-02-6.34646E-03-2.69990E-02 1.31210E-15-1.15465E-12
 -1      1143 1.69799E+01-2.62747E-02-3.35073E-02-2.57728E-02-5.46351E-15-1.25489E-12
 -1      1144 1.64571E+01-4.02847E-02-5.62950E-02-1.38863E-02-2.60555E-15-1.32186E-12
 -1      1145 1.63290E+01-4.54813E-02-6.51416E-02 5.03075E-03 5.91627E-15-1.29248E-12
 -1      1146 1.66554E+01-3.87382E-02-5.58730E-02 2.44432E-02-5.86944E-15-1.33118E-12
 -1      1147 1.73712E+01-2.26116E-02-3.24321E-02 3.78908E-02 1.88825E-14-1.26789E-12
 -1      1148 1.83130E+01-3.41642E-03-4.30228E-03 4.20335E-02-8.47521E-16-1.33783E-12
 -1      1149 1.92851E+01 1.25691E-02 1.90404E-02 3.75752E-02 3.62796E-15-1.40890E-12
 -1      1150 2.01256E+01 2.18386E-02 3.23081E-02 2.79163E-02-1.78267E-14-1.32675E-12
 -1      1151 2.07424E+01 2.42450E-02 3.52899E-02 1.69481E-02-1.71742E-14-1.29287E-12
 -1      1152 2.11148E+01 2.16981E-02 3.09892E-02 7.45936E-03-7.38840E-15-1.25128E-12
 -1      1153 2.12719E+01 1.66354E-02 2.31831E-02 6.92524E-04 1.02225E-14-1.21421E-12
 -1      1154 2.12675E+01 1.10266E-02 1.48649E-02-3.29856E-03-1.47363E-14-1.35914E-12
 -1      1155 2.11588E+01 6.06654E-03 7.76048E-03-5.07906E-03 5.01899E-15-1.27675E-12
 -1      1156 2.09949E+01 2.26568E-03 2.51898E-03-5.37844E-03-3.17425E-14-1.31204E-12
 -1      1157 2.08124E+01-3.17247E-04-8.84437E-04-4.84029E-03 1.06663E-14-1.20216E-12
 -1      1158 2.06353E+01-1.85654E-03-2.78926E-03-3.93321E-03 4.25226E-14-8.32304E-13
 -1      1159 2.04771E+01-2.60698E-03-3.61509E-03-2.95266E-03-2.91386E-14-1.06466E-12
 -1      1160 2.03439E+01-2.81798E-03-3.74138E-03-2.05919E-03 2.85828E-14-9.13850E-13
 -1      1161 2.02368E+01-2.69564E-03-3.46322E-03-1.32229E-03-3.39992E-15-6.27610E-13
 -1      1162 2.01541E+01-2.39325E-03-2.98814E-03-7.56848E-04 1.55388E-14-4.83209E-13
 -1      1163 2.00925E+01-2.01572E-03-2.45026E-03-3.48951E-04 4.79803E-15-6.12436E-13
 -1      1164 2.00484E+01-1.62925E-03-1.92872E-03-7.23740E-05-3.40764E-14-7.71419E-13
 -1      1165 2.00181E+01-1.27163E-03-1.46468E-03 1.01871E-04 4.61377E-14-7.16394E-13
 -1      1166 1.99984E+01-9.61265E-04-1.07479E-03 2.00593E-04-3.40375E-14-4.92803E-13
 -1      1167 1.99864E+01-7.04108E-04-7.61046E-04 2.46331E-04-1.75856E-15-7.07780E-13
 -1      1168 1.99800E+01-4.98777E-04-5.17452E-04 2.56876E-04-4.35157E-15-1.07446E-12
 -1      1169 1.99774E+01-3.39978E-04-3.34331E-04 2.45597E-04 2.84105E-14-1.06413E-12
 -1      1170 1.99773E+01-2.20751E-04-2.00939E-04 2.22108E-04 1.69637E-15-1.04428E-12
 -1      1171 1.99786E+01-1.33841E-04-1.06965E-04 1.93018E-04 7.48985E-14-1.07844E-12
 -1      1172 1.99809E+01-7.24728E-05-4.32714E-05 1.62656E-04 1.18848E-14-9.57673E-13
 -1      1173 1.99835E+01-3.07163E-05-2.18238E-06 1.33678E-04 4.10045E-14-8.93330E-13
 -1      1174 1.99861E+01-3.60854E-06 2.25141E-05 1.07571E-04-7.92187E-15-7.88309E-13
 -1      1175 1.99886E+01 1.28702E-05 3.56998E-05 8.50250E-05-4.30710E-15-1.04718E-12
 -1      1176 1.99909E+01 2.18936E-05 4.11236E-05 6.62146E-05 1.93233E-14-1.26756E-12
 -1      1177 1.99929E+01 2.59206E-05 4.16187E-05 5.09958E-05 1.60544E-14-1.41562E-12
 -1      1178 1.99946E+01 2.68362E-05 3.93221E-05 3.90341E-05 7.74385E-15-1.47595E-12
 -1      1179 1.99961E+01 2.60872E-05 3.58953E-05 2.98717E-05-1.35867E-14-7.11609E-13
 -1      1180 1.99973E+01 2.47980E-05 3.27472E-05 2.29304E-05 6.51025E-14-6.66979E-13
 -1      1181 1.99983E+01 2.38439E-05 3.12163E-05 1.74182E-05 3.82755E-14-2.35264E-13
 -1      1182 1.99990E+01 2.38144E-05 3.23524E-05 1.20713E-05-2.81320E-15-4.75430E-14
 -1      1183 1.99996E+01 2.42807E-05 3.48886E-05 4.48025E-06-7.06717E-16 1.38534E-13
 -1      1184 1.99998E+01 2.63225E-05 2.74421E-05-1.00755E-05 6.73029E-15 5.54441E-13
 -1      1185 1.99998E+01-1.18862E-05-2.52546E-05-1.19707E-05 3.02272E-14 3.21229E-13
 -1      1186 3.22044E+01 5.38823E-01 9.40706E-02 1.95016E+00-1.71391E-14 9.88432E-13
 -1      1187 2.67716E+01-9.48378E-02-6.15901E-01 6.50233E-02-1.18378E-14 1.16025E-12
 -1      1188 2.75021E+01-4.54243E-02-1.95025E-01-2.99358E-02-1.54217E-15 1.24714E-12
 -1      1189 2.89686E+01 2.28805E-02 4.88860E-04-7.32529E-02 2.02936E-15 1.33291E-12
 -1      1190 3.04666E+01 1.14475E-01 1.71307E-01-1.10971E-01-5.44356E-15 1.46171E-12
 -1      1191 3.10054E+01 1.94476E-01 3.51930E-01-9.70292E-02 5.19723E-15 1.53175E-12
 -1      1192 2.93162E+01 1.68395E-01 3.93523E-01 3.34926E-02-3.36536E-14 1.81896E-12
 -1      1193 2.48310E+01-3.91136E-02 7.47074E-02 2.58413E-01-2.09034E-15 2.11059E-12
 -1      1194 1.93213E+01-2.65728E-01-5.06326E-01 3.88782E-01-4.03080E-14 2.11686E-12
 -1      1195 1.67378E+01-2.49025E-01-7.99383E-01 2.16061E-01-2.06293E-14 2.17353E-12
 -1      1196 1.93426E+01-4.79913E-02-5.04906E-01-1.32768E-01 1.31804E-14 1.79295E-12
 -1      1197 2.49060E+01 9.13671E-02 1.57489E-02-3.28418E-01 3.10649E-14 1.21003E-12
 -1      1198 2.94848E+01 1.05365E-01 2.97607E-01-2.80704E-01-1.19002E-15 9.71279E-13
 -1      1199 3.12338E+01 6.75397E-02 2.81943E-01-1.32978E-01 9.22699E-15 9.86627E-13
 -1      1200 3.06427E+01 2.85753E-02 1.51111E-01-1.60297E-02 1.76317E-14 8.51354E-13
 -1      1201 2.89113E+01 3.84330E-03 3.98891E-02 4.02565E-02 5.03944E-14 6.07764E-13
 -1      1202 2.69430E+01-8.21331E-03-1.78810E-02 5.44749E-02-4.88303E-14 7.89258E-13
 -1      1203 2.51813E+01-1.23681E-02-3.68292E-02 4.94653E-02 7.12538E-15 9.99270E-13
 -1      1204 2.37648E+01-1.25117E-02-3.68782E-02 3.88229E-02 4.18996E-14 5.60184E-13
 -1      1205 2.26872E+01-1.10010E-02-3.04851E-02 2.84243E-02-4.12522E-14 7.32941E-13
 -1      1206 2.18920E+01-9.04256E-03-2.32796E-02 2.00795E-02 4.20280E-15 9.24054E-13
 -1      1207 2.13153E+01-7.16847E-03-1.71633E-02 1.39202E-02-1.89649E-14 1.07780E-12
 -1      1208 2.09015E+01-5.56721E-03-1.24690E-02 9.55169E-03-2.52176E-14 9.15332E-13
 -1      1209 2.06069E+01-4.27106E-03-9.01246E-03 6.51081E-03 2.86696E-15 6.43744E-13
 -1      1210 2.03987E+01-3.25077E-03-6.50704E-03 4.41030E-03-4.76146E-14 6.69468E-13
 -1      1211 2.02530E+01-2.45927E-03-4.69733E-03 2.96246E-03 6.56497E-14 6.89191E-13
 -1      1212 2.01522E+01-1.84990E-03-3.38723E-03 1.96455E-03-7.80805E-14 6.42885E-13
 -1      1213 2.00835E+01-1.38271E-03-2.43475E-03 1.27698E-03-7.35749E-14 8.12997E-13
 -1      1214 2.00379E+01-1.02556E-03-1.73943E-03 8.04434E-04 8.56441E-15 8.22913E-13
 -1      1215 2.00086E+01-7.53388E-04-1.23057E-03 4.81686E-04 2.44695E-14 6.50161E-13
 -1      1216 1.99906E+01-5.46806E-04-8.58154E-04 2.63793E-04-4.38966E-14 6.05555E-13
 -1      1217 1.99806E+01-3.90906E-04-5.86426E-04 1.19482E-04 5.33054E-14 6.30998E-13
 -1      1218 1.99758E+01-2.74171E-04-3.89487E-04 2.67547E-05-1.63986E-14 7.56187E-13
 -1      1219 1.99745E+01-1.87646E-04-2.48290E-04-3.00243E-05-4.43439E-14 7.80552E-13
 -1      1220 1.99753E+01-1.24329E-04-1.48616E-04-6.20566E-05-3.39722E-14 7.94057E-13
 -1      1221 1.99774E+01-7.87295E-05-7.97355E-05-7.73887E-05 3.56280E-15 5.85551E-13
 -1      1222 1.99800E+01-4.65432E-05-3.35061E-05-8.17860E-05 1.20204E-13 2.19342E-15
 -1      1223 1.99829E+01-2.44033E-05-3.74562E-06-7.93502E-05-3.20589E-15 7.54616E-14
 -1      1224 1.99858E+01-9.68225E-06 1.42330E-05-7.29677E-05-9.10825E-14 7.46541E-13
 -1      1225 1.99884E+01-3.36298E-07 2.39723E-05-6.46378E-05 4.20278E-14 1.87258E-13
 -1      1226 1.99908E+01 5.22226E-06 2.81413E-05-5.57173E-05-3.15808E-15-1.87605E-14
 -1      1227 1.99929E+01 8.23292E-06 2.87548E-05-4.71031E-05 1.57612E-15 2.87896E-13
 -1      1228 1.99946E+01 9.68276E-06 2.73638E-05-3.93705E-05-1.29065E-14 8.25230E-13
 -1      1229 1.99961E+01 1.03943E-05 2.52419E-05-3.28720E-05-1.22451E-13 1.02581E-12
 -1      1230 1.99973E+01 1.10930E-05 2.35838E-05-2.77809E-05 4.62315E-14 1.37680E-12
 -1      1231 1.99983E+01 1.23887E-05 2.36474E-05-2.40503E-05 1.22162E-13 1.81934E-13
 -1      1232 1.99990E+01 1.47982E-05 2.65803E-05-2.12245E-05 2.07054E-14-1.75837E-13
 -1      1233 1.99995E+01 1.75084E-05 3.09493E-05-1.72594E-05 1.02411E-13-5.89935E-13
 -1      1234 1.99998E+01 1.33094E-05 2.35066E-05-6.14478E-06 2.27315E-13-1.78325E-12
 -1      1235 1.99998E+01-1.04470E-05-2.59500E-05 1.07666E-05-1.26201E-14-8.80211E-13
 -1      1236 1.99998E+01 3.12060E-05-2.40223E-05 1.04103E-05-1.01037E-12-5.22298E-14
 -1      1237 1.99998E+01 1.48017E-05 2.57828E-05 8.40177E-06-1.09330E-12-6.82064E-14
 -1      1238 1.99998E+01-2.61588E-04 2.83449E-05-9.47793E-06 2.73377E-13-2.74463E-14
 -1      1239 1.99998E+01-7.42804E-04 1.45575E-05-1.75837E-05 4.90876E-13-6.03112E-14
 -1      1240 1.99998E+01-1.31701E-03-1.13590E-06-1.95878E-05-2.04453E-13-5.54197E-15
 -1      1241 1.99998E+01-1.87538E-03-1.42810E-05-1.75172E-05-1.17780E-12 4.79835E-14
 -1      1242 1.99998E+01-2.33735E-03-2.37670E-05-1.31872E-05-1.13574E-12 1.68663E-13
 -1      1243 1.99998E+01-2.64284E-03-2.96481E-05-6.95032E-06-3.57442E-13-5.44375E-14
 -1      1244 1.99998E+01-2.74760E-03-3.15750E-05 6.20007E-08-1.12237E-13 2.29167E-14
 -1      1245 1.99998E+01-2.63865E-03-2.95283E-05 7.06399E-06 1.19833E-12 2.54444E-14
 -1      1246 1.99998E+01-2.32981E-03-2.35258E-05 1.32467E-05-1.39645E-13-2.11578E-13
 -1      1247 1.99998E+01-1.86570E-03-1.39567E-05 1.77799E-05-1.28632E-12 8.69559E-14
 -1      1248 1.99998E+01-1.30733E-03-9.47875E-07 1.95541E-05-1.41105E-12 2.33016E-14
 -1      1249 1.99998E+01-7.34136E-04 1.48673E-05 1.77571E-05-7.70103E-13 1.74097E-13
 -1      1250 1.99998E+01-2.48457E-04 3.04315E-05 1.14215E-05-7.31461E-13-6.69650E-15
 -1      1251 1.99998E+01 5.06297E-06 2.31456E-05-1.64376E-05-6.33357E-13-1.85981E-16
 -1      1252 1.99998E+01 3.50234E-05-2.41651E-05-1.19003E-05-3.43661E-13 3.51178E-14
 -1      1253-1.30647E+00-2.54875E+01-3.92499E+00-2.60522E+00 1.30501E-12 2.03945E-13
 -1      1254-2.34874E+00-1.75053E+01-3.49915E+00-4.88708E+00 1.56930E-12 5.67490E-13
 -1      1255-4.73455E-01-4.58508E+00-2.41887E+00-1.20279E+00 1.55942E-12 9.52349E-13
 -1      1256 8.39316E+00 6.30094E+00-7.96127E-01 7.33837E+00 1.17750E-12 1.10911E-12
 -1      1257 2.59770E+01 1.06621E+01 1.16029E+00 1.58887E+01 6.32383E-13 8.07576E-13
 -1      1258 4.90183E+01 8.42896E+00 3.17559E+00 1.87000E+01 9.71445E-14-4.84057E-14
 -1      1259 6.85969E+01 3.83987E+00 4.87689E+00 1.18963E+01-1.52336E-13-1.08502E-12
 -1      1260 7.43300E+01 2.39326E+00 5.31828E+00-1.80156E+00 1.94705E-14-1.27953E-12
 -1      1261 6.44351E+01 5.11337E+00 4.60298E+00-1.44529E+01 3.02453E-13-1.20393E-12
 -1      1262 4.21824E+01 9.53636E+00 2.61895E+00-1.84702E+01 5.22471E-13-1.07825E-12
 -1      1263 1.94165E+01 9.71538E+00 4.66420E-01-1.31212E+01 4.54747E-13-6.57030E-13
 -1      1264 4.05820E+00 2.71843E+00-1.50703E+00-3.62439E+00 1.04805E-13-1.24345E-13
 -1      1265-1.87300E+00-9.46467E+00-2.93390E+00 3.52115E+00-4.34319E-13 1.64202E-13
 -1      1266-1.92213E+00-2.05707E+01-3.68808E+00 4.67070E+00-8.90954E-13 2.10804E-13
 -1      1267-1.03518E+00-2.46924E+01-3.75413E+00 1.13188E+00-9.76969E-13 4.58800E-14
 -1      1268-1.12568E+00-2.04707E+01-3.36903E+00-2.80472E+00-8.52096E-13-1.33074E-13
 -1      1269-1.20522E+00-9.51109E+00-2.48875E+00-2.74989E+00-7.49623E-13-2.96430E-13
 -1      1270 2.88951E+00 2.77535E+00-1.21673E+00 3.16864E+00-4.50751E-13-2.54907E-13
 -1      1271 1.41661E+01 1.05944E+01 3.05518E-01 1.19303E+01 2.30926E-14 5.35127E-14
 -1      1272 3.27584E+01 1.11827E+01 1.87995E+00 1.80384E+01 2.26930E-13 3.62821E-13
 -1      1273 5.33594E+01 6.51714E+00 3.25441E+00 1.65723E+01 2.38976E-13 8.66862E-13
 -1      1274 6.58944E+01 2.41358E+00 3.97475E+00 6.63846E+00 1.06810E-13 1.14614E-12
 -1      1275 6.68354E+01 2.09918E+00 4.07232E+00-6.06169E+00-1.31124E-13 1.22419E-12
 -1      1276 5.58251E+01 6.03622E+00 3.46721E+00-1.58708E+01-3.98986E-13 1.30895E-12
 -1      1277 3.77769E+01 1.07635E+01 2.38630E+00-1.87618E+01-5.17697E-13 9.56790E-13
 -1      1278 1.96287E+01 1.17520E+01 9.80537E-01-1.45457E+01-4.88498E-13 5.81757E-13
 -1      1279 5.99487E+00 6.48605E+00-6.83015E-01-6.40173E+00-1.64535E-13 2.00284E-13
 -1      1280-3.64884E-01-4.03970E+00-2.01963E+00 9.04007E-01 2.71339E-13-5.89528E-14
 -1      1281-1.63736E+00-1.58965E+01-3.05166E+00 3.77431E+00 5.50004E-13-1.71863E-13
 -1      1282-1.05425E+00-2.45663E+01-3.76415E+00 1.90523E+00 6.86284E-13-3.59851E-14
 -1      1283 2.40216E+01 1.96083E+00-7.65147E-01-2.85814E+00-3.30569E-14-6.52978E-13
 -1      1284 2.18197E+01 4.93425E+00-4.53072E-02-3.28249E+00-2.51188E-15-6.10345E-13
 -1      1285 2.24324E+01 5.07556E+00-1.16212E-01-4.23312E+00-3.29459E-14-6.58681E-13
 -1      1286 2.07956E+01 5.16072E+00-8.22431E-03-2.46803E+00 4.89608E-14-5.07445E-13
 -1      1287 2.11876E+01 5.28448E+00 9.78845E-04-2.95347E+00 3.82749E-14-5.65353E-13
 -1      1288 2.20184E+01 4.02048E+00-2.65471E-02-3.05278E+00 1.74409E-14-5.27245E-13
 -1      1289 2.02180E+01 5.12235E+00 1.37593E-02-1.65988E+00 7.94850E-14-3.88193E-13
 -1      1290 2.04903E+01 5.21539E+00 1.57555E-02-2.07332E+00 7.08808E-14-4.53072E-13
 -1      1291 2.10633E+01 4.29629E+00-2.55167E-02-2.30965E+00 8.56051E-14-4.33389E-13
 -1      1292 1.96817E+01 5.01332E+00 2.20779E-02-8.72669E-01 9.96703E-14-2.78385E-13
 -1      1293 1.99601E+01 5.10324E+00 2.50453E-02-1.26425E+00 9.93511E-14-3.36401E-13
 -1      1294 2.04627E+01 4.30875E+00-2.12655E-02-1.51832E+00 1.36438E-13-3.25413E-13
 -1      1295 1.90375E+01 4.88022E+00 2.01342E-02-1.30718E-01 1.09718E-13-1.81456E-13
 -1      1296 1.93833E+01 4.98706E+00 3.20386E-02-4.90479E-01 1.08316E-13-2.32449E-13
 -1      1297 1.98793E+01 4.24987E+00-1.86654E-02-7.46275E-01 1.62400E-13-2.24154E-13
 -1      1298 1.81991E+01 4.75075E+00 8.71278E-03 5.40824E-01 1.15859E-13-8.78048E-14
 -1      1299 1.86470E+01 4.88519E+00 3.58144E-02 2.27945E-01 1.14520E-13-1.40984E-13
 -1      1300 1.91449E+01 4.20272E+00-1.85909E-02-7.67596E-03 1.79141E-13-1.40572E-13
 -1      1301 1.72113E+01 4.66375E+00-1.03043E-02 1.04816E+00 1.27696E-13-1.69274E-14
 -1      1302 1.77250E+01 4.81564E+00 3.33881E-02 8.27617E-01 1.26253E-13-5.25760E-14
 -1      1303 1.81957E+01 4.22657E+00-1.99223E-02 6.45812E-01 1.95273E-13-4.97588E-14
 -1      1304 1.62287E+01 4.65145E+00-3.15246E-02 1.31071E+00 1.28390E-13 4.47541E-14
 -1      1305 1.67147E+01 4.79360E+00 2.18665E-02 1.21549E+00 1.29806E-13 1.06165E-14
 -1      1306 1.71002E+01 4.35651E+00-2.11825E-02 1.12216E+00 2.09981E-13 1.13173E-14
 -1      1307 1.55114E+01 4.72762E+00-4.63084E-02 1.29410E+00 1.28026E-13 1.07197E-13
 -1      1308 1.58269E+01 4.81818E+00 1.02162E-03 1.32862E+00 1.23623E-13 7.15261E-14
 -1      1309 1.60574E+01 4.58191E+00-2.10540E-02 1.34201E+00 2.06800E-13 6.33694E-14
 -1      1310 1.53539E+01 4.87856E+00-4.71731E-02 1.05349E+00 1.29601E-13 1.61494E-13
 -1      1311 1.53510E+01 4.87452E+00-2.47598E-02 1.17694E+00 1.29952E-13 1.28279E-13
 -1      1312 1.53726E+01 4.83798E+00-1.97669E-02 1.28353E+00 2.11472E-13 1.11955E-13
 -1      1313 1.59488E+01 5.07045E+00-3.20666E-02 7.47365E-01 1.23179E-13 2.35303E-13
 -1      1314 1.55499E+01 4.94775E+00-4.70455E-02 8.74327E-01 1.22381E-13 1.91345E-13
 -1      1315 1.53552E+01 5.02961E+00-1.95730E-02 1.02929E+00 2.05353E-13 1.74879E-13
 -1      1316 1.73550E+01 5.27970E+00-5.51220E-03 5.71432E-01 1.19210E-13 3.25836E-13
 -1      1317 1.65462E+01 5.03542E+00-5.89608E-02 6.06628E-01 1.18558E-13 2.73405E-13
 -1      1318 1.61935E+01 5.08940E+00-2.13106E-02 7.49203E-01 1.97602E-13 2.46090E-13
 -1      1319 1.94389E+01 5.48025E+00 2.60344E-02 7.31702E-01 1.03806E-13 4.43798E-13
 -1      1320 1.83086E+01 5.14051E+00-5.77171E-02 5.77765E-01 1.07442E-13 3.74555E-13
 -1      1321 1.79027E+01 4.99556E+00-2.40508E-02 6.51348E-01 1.78170E-13 3.35326E-13
 -1      1322 2.20094E+01 5.62456E+00 6.20132E-02 1.39668E+00 6.74460E-14 6.10963E-13
 -1      1323 2.06524E+01 5.22296E+00-4.83899E-02 9.59594E-01 7.52454E-14 5.16788E-13
 -1      1324 2.03270E+01 4.74147E+00-2.13795E-02 9.10552E-01 1.33990E-13 4.59389E-13
 -1      1325 2.50556E+01 5.42723E+00 8.54871E-02 2.79720E+00 1.40998E-14 8.03135E-13
 -1      1326 2.34641E+01 5.08817E+00-3.75476E-02 1.86479E+00 3.06422E-14 7.00065E-13
 -1      1327 2.33299E+01 4.20053E+00 1.82209E-03 1.59383E+00 6.73211E-14 6.16049E-13
 -1      1328 3.19149E+01 3.45365E+00 9.16354E-01 4.07923E+00-3.78031E-14 9.16933E-13
 -1      1329 2.64965E+01 3.79810E+00-1.71609E-01 2.90472E+00-2.07334E-14 8.67861E-13
 -1      1330 2.66469E+01 2.66920E+00 2.23456E-02 2.15142E+00-1.49880E-15 7.68385E-13
 -1      1331 2.68861E+01 2.83996E-01-7.80544E-01 4.69160E-01-3.46528E-14 9.73110E-13
 -1      1332 2.38003E+01 1.05651E-01-4.25820E-01-1.31632E+00-4.71706E-14-5.87780E-13
 -1      1333 2.24418E+01 2.91601E-01-1.70139E-01-8.30812E-01-3.34940E-14-6.63365E-13
 -1      1334 2.17790E+01 1.25062E-01-7.37891E-02-4.76659E-01-2.30094E-14-6.56281E-13
 -1      1335 2.12010E+01 5.78218E-02-1.27343E-02-4.23083E-01-1.01030E-14-6.93452E-13
 -1      1336 2.26321E+01 3.22363E-01-1.04980E-01-1.38317E+00-4.99878E-14-5.15546E-13
 -1      1337 2.07181E+01 2.74511E-02 7.39412E-03-3.03268E-01-1.70263E-14-6.91072E-13
 -1      1338 2.03401E+01 5.35340E-03 1.64567E-02-3.07115E-01-1.90507E-14-7.20028E-13
 -1      1339 2.14031E+01 7.42971E-02-2.56462E-02-7.60914E-01-3.13603E-14-4.80331E-13
 -1      1340 1.99779E+01-4.73721E-03 1.81391E-02-2.95269E-01 5.90077E-16-7.30537E-13
 -1      1341 1.96157E+01-9.24870E-03 1.38631E-02-3.05122E-01-1.30636E-14-7.54147E-13
 -1      1342 2.06105E+01-6.13842E-03 1.94536E-03-6.11005E-01-1.79275E-14-4.80473E-13
 -1      1343 1.92876E+01-9.16632E-03 1.28064E-02-3.19151E-01-8.66801E-15-7.38120E-13
 -1      1344 1.89001E+01-2.45824E-03 8.04374E-03-3.25967E-01-6.91710E-15-7.49633E-13
 -1      1345 1.99399E+01-2.06896E-02 4.85526E-03-6.16899E-01-1.07974E-14-4.99664E-13
 -1      1346 1.85885E+01 4.02859E-03 6.72619E-03-3.20488E-01-4.15831E-14-7.50906E-13
 -1      1347 1.82071E+01 1.72349E-02 3.25248E-03-3.16689E-01-4.08575E-14-8.17938E-13
 -1      1348 1.93100E+01-1.64040E-03 8.21222E-04-6.29156E-01-3.82322E-14-4.61631E-13
 -1      1349 1.79377E+01 2.72045E-02 1.65809E-03-2.66023E-01-2.72022E-14-8.26658E-13
 -1      1350 1.76319E+01 4.12906E-02-6.45950E-04-2.47602E-01-2.03908E-14-8.67461E-13
 -1      1351 1.87329E+01 3.57445E-02-6.10722E-03-5.62913E-01-5.60637E-14-4.90389E-13
 -1      1352 1.74515E+01 5.04522E-02-2.24569E-03-1.46708E-01 2.03049E-15-8.64763E-13
 -1      1353 1.72976E+01 5.91927E-02-3.38256E-03-1.15505E-01 5.18943E-15-8.67736E-13
 -1      1354 1.82828E+01 7.58491E-02-1.34758E-02-3.79811E-01-2.35948E-14-5.17463E-13
 -1      1355 1.72487E+01 6.31546E-02-4.37135E-03 1.78175E-02 2.91694E-15-8.45608E-13
 -1      1356 1.72956E+01 6.21898E-02-4.23968E-03 5.40218E-02-2.15166E-14-8.43004E-13
 -1      1357 1.80512E+01 1.01563E-01-1.82231E-02-9.47851E-02 8.34749E-15-4.83132E-13
 -1      1358 1.73937E+01 5.89918E-02-4.31097E-03 1.85853E-01-3.67970E-14-8.41499E-13
 -1      1359 1.76395E+01 4.81186E-02-2.99873E-03 2.16635E-01 5.29611E-15-8.76729E-13
 -1      1360 1.80976E+01 1.01054E-01-1.79264E-02 2.28542E-01-2.78657E-14-4.82941E-13
 -1      1361 1.78623E+01 3.95627E-02-2.57076E-03 3.12378E-01 3.78963E-14-9.17932E-13
 -1      1362 1.82539E+01 2.26974E-02-4.48552E-04 3.29709E-01-1.15394E-14-8.98028E-13
 -1      1363 1.84151E+01 7.39150E-02-1.25520E-02 5.05319E-01 4.41921E-15-5.02002E-13
 -1      1364 1.85494E+01 1.29835E-02-3.35173E-04 3.69380E-01-3.40799E-14-8.96148E-13
 -1      1365 1.90030E+01-4.26985E-03 2.09679E-03 3.70915E-01-1.29197E-14-9.40314E-13
 -1      1366 1.89282E+01 3.10818E-02-4.50550E-03 6.68424E-01-2.04311E-14-5.65343E-13
 -1      1367 1.93099E+01-1.12363E-02 1.30327E-03 3.55072E-01 1.00931E-14-9.38184E-13
 -1      1368 1.97417E+01-2.44240E-02 3.61788E-03 3.43924E-01-5.91085E-15-9.24552E-13
 -1      1369 1.95220E+01-1.17351E-02 3.10057E-03 6.94896E-01-3.40635E-15-5.64907E-13
 -1      1370 2.00090E+01-2.68779E-02 1.87224E-03 2.88828E-01 9.72573E-15-9.23914E-13
 -1      1371 2.03586E+01-3.41672E-02 3.80160E-03 2.70871E-01-1.88105E-14-8.78474E-13
 -1      1372 2.00840E+01-4.23192E-02 8.06615E-03 6.06522E-01-7.95804E-16-5.19147E-13
 -1      1373 2.05563E+01-3.25833E-02 1.54445E-03 1.98360E-01-3.80451E-14-8.53572E-13
 -1      1374 2.07960E+01-3.45106E-02 3.01834E-03 1.79277E-01-7.71128E-15-8.78908E-13
 -1      1375 2.05350E+01-5.60220E-02 9.88103E-03 4.50624E-01-1.52751E-14-5.24955E-13
 -1      1376 2.09162E+01-3.05569E-02 8.03466E-04 1.07990E-01 1.17072E-14-8.52057E-13
 -1      1377 2.10468E+01-2.88585E-02 1.84954E-03 9.15779E-02 1.04274E-14-8.39601E-13
 -1      1378 2.08394E+01-5.51382E-02 9.24214E-03 2.76536E-01 7.48967E-16-4.96599E-13
 -1      1379 2.10970E+01-2.42312E-02 7.86620E-05 3.29377E-02 1.34354E-14-8.33319E-13
 -1      1380 2.11372E+01-2.07553E-02 7.71448E-04 2.08768E-02-2.49254E-14-8.40404E-13
 -1      1381 2.09983E+01-4.52719E-02 7.26574E-03 1.20273E-01 1.90603E-14-4.73872E-13
 -1      1382 2.11331E+01-1.66089E-02-4.00403E-04-2.07638E-02-6.79355E-14-8.79883E-13
 -1      1383 2.11087E+01-1.27460E-02 1.35983E-05-2.83588E-02-1.80910E-14-9.13817E-13
 -1      1384 2.10361E+01-3.20147E-02 4.91189E-03 3.39887E-04-8.28799E-14-5.33650E-13
 -1      1385 2.10681E+01-9.61146E-03-5.96239E-04-5.35665E-02 1.48426E-14-9.40105E-13
 -1      1386 2.10043E+01-6.17086E-03-3.95237E-04-5.74283E-02-3.32312E-14-9.45651E-13
 -1      1387 2.09863E+01-1.92604E-02 2.77685E-03-7.91555E-02-3.96694E-14-6.01077E-13
 -1      1388 2.09431E+01-4.12610E-03-5.77016E-04-6.92933E-02-1.89873E-14-9.46922E-13
 -1      1389 2.08605E+01-1.44759E-03-5.31900E-04-7.04396E-02-2.30442E-14-9.64658E-13
 -1      1390 2.08822E+01-8.98458E-03 1.12228E-03-1.22893E-01-3.13716E-14-6.61787E-13
 -1      1391 2.07913E+01-3.28001E-04-4.39143E-04-7.27842E-02 3.14068E-14-8.84008E-13
 -1      1392 2.07045E+01 1.54626E-03-5.00036E-04-7.21862E-02 9.58742E-14-7.97522E-13
 -1      1393 2.07515E+01-1.72959E-03-1.09125E-05-1.39308E-01 2.72939E-14-6.32242E-13
 -1      1394 2.06359E+01 1.98817E-03-2.63343E-04-6.85318E-02 7.82449E-14-7.93337E-13
 -1      1395 2.05544E+01 3.16634E-03-3.87988E-04-6.69684E-02 9.85280E-15-7.60729E-13
 -1      1396 2.06145E+01 2.77706E-03-6.94088E-04-1.37252E-01 1.28160E-13-5.74438E-13
 -1      1397 2.04917E+01 3.16951E-03-1.00595E-04-6.00966E-02 9.69624E-15-7.04955E-13
 -1      1398 2.04204E+01 3.81200E-03-2.55365E-04-5.81237E-02 5.28142E-14-7.23682E-13
 -1      1399 2.04846E+01 5.14139E-03-1.03684E-03-1.24274E-01 2.54273E-14-5.39933E-13
 -1      1400 2.03662E+01 3.56768E-03 2.52118E-05-5.00031E-02 1.44476E-13-5.92593E-13
 -1      1401 2.03071E+01 3.83312E-03-1.35120E-04-4.79796E-02 1.29281E-13-4.11019E-13
 -1      1402 2.03693E+01 6.01267E-03-1.14656E-03-1.06044E-01 1.51581E-13-2.95514E-13
 -1      1403 2.02623E+01 3.47699E-03 1.08711E-04-3.98704E-02 3.49937E-14-3.76290E-13
 -1      1404 2.02154E+01 3.49842E-03-4.11007E-05-3.80032E-02 4.07017E-14-3.21327E-13
 -1      1405 2.02720E+01 5.94589E-03-1.11147E-03-8.64037E-02 1.52448E-13-1.93460E-13
 -1      1406 2.01798E+01 3.11745E-03 1.54617E-04-3.06223E-02-1.02530E-14-3.44041E-13
 -1      1407 2.01439E+01 2.99591E-03 2.43158E-05-2.90117E-02-2.42749E-14-3.67103E-13
 -1      1408 2.01930E+01 5.35930E-03-9.96876E-04-6.77008E-02 2.79854E-14-1.93505E-13
 -1      1409 2.01165E+01 2.64000E-03 1.71636E-04-2.26954E-02-2.30919E-14-4.56208E-13
 -1      1410 2.00900E+01 2.44672E-03 6.45090E-05-2.13728E-02-7.64402E-14-4.76494E-13
 -1      1411 2.01312E+01 4.54039E-03-8.47381E-04-5.11813E-02-8.91311E-14-3.01703E-13
 -1      1412 2.00697E+01 2.14015E-03 1.68888E-04-1.62117E-02-3.75374E-14-4.89387E-13
 -1      1413 2.00509E+01 1.92206E-03 8.49968E-05-1.51680E-02-2.40545E-14-6.11608E-13
 -1      1414 2.00843E+01 3.67083E-03-6.91269E-04-3.73462E-02-1.33919E-13-3.51325E-13
 -1      1415 2.00362E+01 1.67278E-03 1.54185E-04-1.11080E-02-5.29237E-15-5.54677E-13
 -1      1416 2.00235E+01 1.45855E-03 9.14464E-05-1.03125E-02 1.34037E-14-4.77596E-13
 -1      1417 2.00499E+01 2.85465E-03-5.44907E-04-2.62322E-02 3.73078E-14-3.30325E-13
 -1      1418 2.00133E+01 1.26501E-03 1.33472E-04-7.22512E-03 1.15750E-14-4.84097E-13
 -1      1419 2.00052E+01 1.07044E-03 8.87469E-05-6.63865E-03 6.54178E-15-4.48250E-13
 -1      1420 2.00255E+01 2.14314E-03-4.16511E-04-1.76164E-02 3.16135E-14-3.78475E-13
 -1      1421 1.99984E+01 9.26259E-04 1.10866E-04-4.36637E-03-4.41382E-14-3.79488E-13
 -1      1422 1.99936E+01 7.58591E-04 8.07041E-05-3.94857E-03-5.14994E-14-4.67394E-13
 -1      1423 2.00089E+01 1.55412E-03-3.09063E-04-1.11531E-02-2.62142E-14-3.52509E-13
 -1      1424 1.99894E+01 6.55488E-04 8.89669E-05-2.33222E-03-6.12165E-14-5.58742E-13
 -1      1425 1.99870E+01 5.16533E-04 7.00629E-05-2.04586E-03-7.88934E-14-6.68034E-13
 -1      1426 1.99982E+01 1.08579E-03-2.22407E-04-6.46067E-03-1.93481E-13-2.38653E-13
 -1      1427 1.99846E+01 4.46059E-04 6.92328E-05-9.39684E-04-3.04449E-14-7.00920E-13
 -1      1428 1.99838E+01 3.34474E-04 5.86738E-05-7.52554E-04 2.68343E-14-7.13788E-13
 -1      1429 1.99917E+01 7.26046E-04-1.54680E-04-3.17240E-03-4.70584E-14-2.36355E-13
 -1      1430 1.99827E+01 2.88912E-04 5.23297E-05-3.10780E-05 5.59073E-14-7.43191E-13
 -1      1431 1.99829E+01 2.01712E-04 4.76939E-05 8.33862E-05 1.38736E-14-7.31474E-13
 -1      1432 1.99883E+01 4.58413E-04-1.03238E-04-9.62039E-04-1.42667E-14-3.27003E-13
 -1      1433 1.99826E+01 1.74492E-04 3.84074E-05 5.23454E-04 1.87418E-14-7.47122E-13
 -1      1434 1.99834E+01 1.08031E-04 3.77717E-05 5.86392E-04 6.89380E-14-7.37876E-13
 -1      1435 1.99870E+01 2.65603E-04-6.52362E-05 4.45527E-04 3.12676E-14-4.06846E-13
 -1      1436 1.99837E+01 9.38319E-05 2.73060E-05 8.27119E-04 9.67429E-14-6.94010E-13
 -1      1437 1.99848E+01 4.43987E-05 2.92031E-05 8.54842E-04-4.78058E-14-7.02614E-13
 -1      1438 1.99871E+01 1.31491E-04-3.79683E-05 1.27325E-03 1.01857E-13-4.96793E-13
 -1      1439 1.99854E+01 3.90774E-05 1.87016E-05 9.59495E-04-7.26326E-14-7.05031E-13
 -1      1440 1.99867E+01 3.22248E-06 2.20543E-05 9.64236E-04-2.46884E-15-7.68266E-13
 -1      1441 1.99879E+01 4.20478E-05-1.90342E-05 1.69601E-03-8.56767E-14-4.85216E-13
 -1      1442 1.99874E+01 3.65790E-06 1.22045E-05 9.80229E-04 2.02551E-14-6.21867E-13
 -1      1443 1.99886E+01-2.16512E-05 1.62529E-05 9.70912E-04 3.21094E-15-7.08972E-13
 -1      1444 1.99892E+01-1.43691E-05-6.40213E-06 1.84705E-03-5.35620E-14-5.36338E-13
 -1      1445 1.99894E+01-1.77399E-05 7.42002E-06 9.32774E-04-1.38665E-13-6.31531E-13
 -1      1446 1.99906E+01-3.50701E-05 1.16513E-05 9.15703E-04-1.69165E-13-8.23552E-13
 -1      1447 1.99907E+01-4.70948E-05 1.58936E-06 1.82511E-03-8.52905E-14-4.54528E-13
 -1      1448 1.99914E+01-2.93020E-05 3.98217E-06 8.47775E-04-3.27842E-14-9.00566E-13
 -1      1449 1.99924E+01-4.07685E-05 8.06936E-06 8.27239E-04-1.39701E-14-9.58611E-13
 -1      1450 1.99922E+01-6.34147E-05 6.26296E-06 1.70116E-03-1.72014E-13-4.99805E-13
 -1      1451 1.99931E+01-3.42628E-05 1.57187E-06 7.45975E-04-8.84710E-14-1.08663E-12
 -1      1452 1.99940E+01-4.15778E-05 5.32219E-06 7.24734E-04-7.81187E-14-1.18609E-12
 -1      1453 1.99937E+01-6.88995E-05 8.64898E-06 1.52445E-03-2.10202E-13-7.71567E-13
 -1      1454 1.99947E+01-3.50969E-05-7.36443E-08 6.40564E-04 1.25915E-13-1.12940E-12
 -1      1455 1.99954E+01-3.96353E-05 3.24321E-06 6.20225E-04 1.98884E-13-9.78351E-13
 -1      1456 1.99950E+01-6.77606E-05 9.53804E-06 1.32750E-03 9.35639E-14-8.30050E-13
 -1      1457 1.99960E+01-3.37109E-05-1.14764E-06 5.38982E-04 7.00112E-14-6.97010E-13
 -1      1458 1.99966E+01-3.65786E-05 1.71547E-06 5.20265E-04 1.00340E-13-5.29262E-13
 -1      1459 1.99961E+01-6.32001E-05 9.53591E-06 1.13004E-03 2.84654E-13-5.44136E-13
 -1      1460 1.99971E+01-3.16226E-05-1.74253E-06 4.44201E-04 9.97098E-14-4.52615E-13
 -1      1461 1.99976E+01-3.37136E-05 7.24784E-07 4.27117E-04 1.73799E-13-3.78652E-13
 -1      1462 1.99971E+01-5.77396E-05 9.12266E-06 9.41994E-04 2.62995E-13-3.09772E-13
 -1      1463 1.99980E+01-3.01200E-05-1.78820E-06 3.55578E-04 2.39771E-13-2.73239E-13
 -1      1464 1.99985E+01-3.21513E-05 4.10417E-07 3.39493E-04 7.23014E-14-5.33419E-14
 -1      1465 1.99980E+01-5.35262E-05 8.70842E-06 7.65502E-04 2.42459E-13-8.82410E-14
 -1      1466 1.99988E+01-3.03495E-05-1.00515E-06 2.69378E-04-2.87094E-14-1.53477E-13
 -1      1467 1.99991E+01-3.27099E-05 9.65919E-07 2.52998E-04 2.99338E-15-1.38601E-13
 -1      1468 1.99986E+01-5.26102E-05 8.63426E-06 5.96378E-04 1.24202E-13-1.65581E-13
 -1      1469 1.99993E+01-3.28965E-05 7.88070E-07 1.79999E-04 1.47538E-13-1.53543E-13
 -1      1470 1.99995E+01-3.50635E-05 1.57227E-06 1.61392E-04 1.33079E-13 1.92650E-13
 -1      1471 1.99991E+01-5.66104E-05 8.81270E-06 4.25644E-04 5.63932E-14-1.70495E-13
 -1      1472 1.99996E+01-3.99660E-05 1.31005E-06 8.24142E-05 5.38410E-14 2.06483E-13
 -1      1473 1.99997E+01-3.35585E-05-2.22032E-06 6.12465E-05-1.02399E-14 2.61876E-13
 -1      1474 1.99995E+01-6.51873E-05 8.32827E-06 2.46372E-04 1.99193E-13-8.60178E-14
 -1      1475 1.99998E+01-4.09633E-06-6.83942E-06-1.19119E-05-3.01092E-13 3.26487E-13
 -1      1476 1.99997E+01-4.38558E-05 1.92368E-06 5.38587E-05-2.28414E-13 1.20300E-13
 -1      1477 2.71478E+01 7.24492E-02-1.32972E-01-1.25009E-01-2.01644E-14 9.85656E-13
 -1      1478 2.75285E+01 2.49999E-01-2.18741E-01 9.58365E-02-5.19029E-15 9.32421E-13
 -1      1479 2.71411E+01 7.96032E-01-1.22826E-01 9.74068E-01-2.73254E-14 7.80515E-13
 -1      1480 2.76912E+01 2.85709E-02-1.24445E-02-4.28364E-01-5.51989E-15 1.01129E-12
 -1      1481 2.72428E+01 1.31024E-01-5.10922E-02-3.61687E-01-2.63990E-14 9.64048E-13
 -1      1482 2.68315E+01 1.71114E-01-6.92954E-02-3.47774E-01-3.40838E-14 7.63251E-13
 -1      1483 2.87281E+01-2.96618E-02 3.05108E-02-4.91012E-01-3.43445E-14 1.06991E-12
 -1      1484 2.80622E+01 2.40844E-02 8.52653E-03-4.73996E-01-1.30007E-14 1.02809E-12
 -1      1485 2.72942E+01 3.49469E-02-1.29163E-02-8.04338E-01-2.59532E-14 7.74027E-13
 -1      1486 2.95560E+01-1.18089E-01 7.75247E-02-2.36933E-01-1.68997E-14 1.13387E-12
 -1      1487 2.90930E+01-1.10940E-01 3.22715E-02-3.15403E-01-3.46598E-14 1.07091E-12
 -1      1488 2.80710E+01-1.26627E-01 3.05792E-02-7.13156E-01-4.55885E-14 7.82038E-13
 -1      1489 2.93201E+01-2.02008E-01 1.20212E-01 4.18855E-01-8.22016E-14 1.25953E-12
 -1      1490 2.95874E+01-2.74799E-01 5.58276E-02 2.04070E-01-5.34399E-14 1.17192E-12
 -1      1491 2.86083E+01-3.44153E-01 8.03521E-02 2.87784E-02-7.85934E-14 8.38949E-13
 -1      1492 2.72874E+01-1.71691E-01 8.01377E-02 1.30812E+00-7.73930E-14 1.44440E-12
 -1      1493 2.87263E+01-3.53156E-01 5.73927E-02 1.00703E+00-8.70484E-14 1.30686E-12
 -1      1494 2.83080E+01-5.07460E-01 9.47086E-02 1.38672E+00-1.59192E-13 9.35620E-13
 -1      1495 2.37460E+01 6.13127E-02-1.26312E-01 1.77007E+00-2.21108E-14 1.56219E-12
 -1      1496 2.61227E+01-1.57724E-01-1.86817E-02 1.59604E+00-4.44957E-14 1.49394E-12
 -1      1497 2.68711E+01-3.05090E-01 3.21279E-02 2.65339E+00-8.85680E-14 9.74207E-13
 -1      1498 2.07459E+01 3.51201E-01-3.54508E-01 9.70031E-01-2.16216E-14 1.55045E-12
 -1      1499 2.26590E+01 3.01855E-01-1.83816E-01 1.19306E+00-1.01585E-14 1.52584E-12
 -1      1500 2.47495E+01 3.86941E-01-1.33049E-01 2.51262E+00-3.48610E-14 1.02776E-12
 -1      1501 2.08414E+01 3.36858E-01-3.38640E-01-7.15022E-01 9.89903E-14 1.43088E-12
 -1      1502 2.07174E+01 5.60945E-01-2.72416E-01-2.26893E-01 6.27276E-15 1.47559E-12
 -1      1503 2.35815E+01 9.74826E-01-2.25111E-01 3.62467E-01 4.61298E-14 8.96479E-13
 -1      1504 2.40043E+01 3.37247E-02-9.41029E-02-1.76520E+00 1.75061E-13 1.14489E-12
 -1      1505 2.19249E+01 3.25562E-01-1.82115E-01-1.45932E+00 1.51851E-13 1.37698E-12
 -1      1506 2.44418E+01 6.80018E-01-1.78346E-01-2.12309E+00 2.09194E-13 8.18477E-13
 -1      1507 2.76486E+01-1.88530E-01 1.19696E-01-1.49353E+00 1.05383E-13 7.64250E-13
 -1      1508 2.52432E+01-7.48298E-02-1.03711E-02-1.53510E+00 1.43565E-13 9.91485E-13
 -1      1509 2.64918E+01-1.29988E-01-7.06837E-02-2.86176E+00 2.71505E-13 6.99094E-13
 -1      1510 2.96428E+01-1.99486E-01 1.56667E-01-5.74452E-01 4.06515E-14 6.47774E-13
 -1      1511 2.82582E+01-2.61126E-01 8.67543E-02-7.79951E-01 1.40131E-14 6.56419E-13
 -1      1512 2.81204E+01-5.81868E-01 4.57731E-03-1.82706E+00 1.41991E-13 4.79061E-13
 -1      1513 2.97072E+01-1.13927E-01 9.16501E-02 1.98272E-01 5.10963E-14 5.47995E-13
 -1      1514 2.95467E+01-2.25169E-01 8.03173E-02 2.18542E-02 6.07986E-14 5.98355E-13
 -1      1515 2.85526E+01-5.10725E-01 2.76265E-02-3.28709E-01 9.52571E-14 3.12175E-13
 -1      1516 2.85617E+01-3.56659E-02 2.33067E-02 5.81932E-01 8.31071E-14 4.47198E-13
 -1      1517 2.91778E+01-1.19190E-01 3.53370E-02 4.90563E-01 3.11470E-14 4.88512E-13
 -1      1518 2.79473E+01-2.59502E-01 2.12518E-02 7.17670E-01 7.86073E-14 1.85739E-13
 -1      1519 2.69672E+01 7.45766E-03-1.26362E-02 6.68151E-01-4.15713E-14 4.81643E-13
 -1      1520 2.78729E+01-3.43690E-02 6.83019E-04 6.41687E-01 4.79504E-14 5.62148E-13
 -1      1521 2.67827E+01-6.07546E-02 9.75371E-03 1.16106E+00 3.46511E-15 3.38028E-13
 -1      1522 2.53919E+01 2.35054E-02-2.27867E-02 6.04705E-01-9.95812E-14 6.41417E-13
 -1      1523 2.62886E+01 1.13036E-02-1.31793E-02 6.11223E-01-1.14366E-13 4.94021E-13
 -1      1524 2.54665E+01 3.97316E-02 2.58560E-03 1.19806E+00-1.21051E-13 3.86434E-13
 -1      1525 2.40403E+01 2.55827E-02-2.09295E-02 4.91648E-01 1.52773E-13 4.89858E-13
 -1      1526 2.48017E+01 2.87031E-02-1.41958E-02 5.09980E-01 9.17313E-14 6.65870E-13
 -1      1527 2.42377E+01 7.25392E-02-3.94878E-04 1.04517E+00 2.01002E-14 3.04900E-13
 -1      1528 2.29627E+01 2.22094E-02-1.57729E-02 3.77898E-01-5.31025E-14 3.98521E-13
 -1      1529 2.35613E+01 3.12450E-02-1.06093E-02 3.97706E-01 3.64136E-14 4.37633E-13
 -1      1530 2.31980E+01 7.25145E-02-1.21587E-03 8.38355E-01 1.05683E-13 2.73491E-13
 -1      1531 2.21384E+01 1.75490E-02-1.09139E-02 2.81522E-01-4.66727E-14 5.32192E-13
 -1      1532 2.25895E+01 2.76538E-02-6.69397E-03 2.98845E-01-6.88121E-14 4.65447E-13
 -1      1533 2.23670E+01 6.07176E-02-1.26988E-03 6.41986E-01-7.55784E-14 3.51340E-13
 -1      1534 2.15232E+01 1.32481E-02-7.26936E-03 2.05948E-01-5.10677E-14 6.95620E-13
 -1      1535 2.18552E+01 2.23824E-02-3.79217E-03 2.19827E-01-6.81920E-14 6.11917E-13
 -1      1536 2.17257E+01 4.69682E-02-1.14058E-03 4.78581E-01-1.60526E-13 3.71206E-13
 -1      1537 2.10711E+01 9.77511E-03-4.76819E-03 1.48955E-01 2.20672E-14 7.99764E-13
 -1      1538 2.13119E+01 1.73221E-02-1.95730E-03 1.59616E-01-6.31912E-14 7.23564E-13
 -1      1539 2.12417E+01 3.49191E-02-9.95036E-04 3.50995E-01-1.08086E-13 4.54674E-13
 -1      1540 2.07424E+01 7.13168E-03-3.11227E-03 1.06839E-01 1.61149E-13 6.07986E-13
 -1      1541 2.09154E+01 1.30942E-02-8.93987E-04 1.14857E-01 1.28855E-13 7.83052E-13
 -1      1542 2.08818E+01 2.54379E-02-8.61312E-04 2.54647E-01 1.34451E-13 5.88200E-13
 -1      1543 2.05055E+01 5.17452E-03-2.02833E-03 7.60412E-02 2.99110E-15 3.31235E-13
 -1      1544 2.06287E+01 9.77536E-03-3.13426E-04 8.20089E-02 4.21952E-14 4.50094E-13
 -1      1545 2.06171E+01 1.83407E-02-7.38720E-04 1.83181E-01 2.01156E-13 2.95571E-13
 -1      1546 2.03361E+01 3.74276E-03-1.31852E-03 5.36465E-02-3.62503E-15 4.50990E-13
 -1      1547 2.04232E+01 7.24790E-03-1.37318E-05 5.80658E-02-9.08085E-14 3.41243E-13
 -1      1548 2.04242E+01 1.31529E-02-6.25745E-04 1.30685E-01-5.96662E-14 1.57239E-13
 -1      1549 2.02163E+01 2.69937E-03-8.51152E-04 3.74219E-02-4.38435E-14 4.73067E-13
 -1      1550 2.02772E+01 5.35059E-03 1.29325E-04 4.06849E-02 8.44124E-14 6.12466E-13
 -1      1551 2.02851E+01 9.39999E-03-5.22821E-04 9.23430E-02-2.78034E-14 2.90255E-13
 -1      1552 2.01325E+01 1.93891E-03-5.41421E-04 2.57103E-02-8.35541E-14 6.06914E-13
 -1      1553 2.01746E+01 3.93479E-03 1.87660E-04 2.81131E-02-1.03262E-13 5.31158E-13
 -1      1554 2.01856E+01 6.69388E-03-4.30888E-04 6.44562E-02-1.12713E-13 5.18021E-13
 -1      1555 2.00749E+01 1.38387E-03-3.35185E-04 1.72982E-02-1.96509E-14 6.29645E-13
 -1      1556 2.01034E+01 2.88022E-03 2.01584E-04 1.90609E-02-1.99097E-14 5.89481E-13
 -1      1557 2.01156E+01 4.74231E-03-3.50460E-04 4.42642E-02-5.07602E-15 4.73147E-13
 -1      1558 2.00363E+01 9.78399E-04-1.97757E-04 1.12998E-02 4.99021E-14 5.19255E-13
 -1      1559 2.00551E+01 2.09493E-03 1.93269E-04 1.25857E-02-4.32380E-16 6.25790E-13
 -1      1560 2.00670E+01 3.33332E-03-2.81420E-04 2.97296E-02 8.81023E-16 4.75088E-13
 -1      1561 2.00111E+01 6.82379E-04-1.06657E-04 7.06706E-03-2.45280E-14 4.81308E-13
 -1      1562 2.00230E+01 1.51042E-03 1.74746E-04 7.99756E-03 3.59137E-14 5.46071E-13
 -1      1563 2.00340E+01 2.31567E-03-2.23141E-04 1.93533E-02-3.11241E-14 3.92657E-13
 -1      1564 1.99954E+01 4.66930E-04-4.70783E-05 4.12399E-03-5.47095E-14 3.95432E-13
 -1      1565 2.00026E+01 1.07606E-03 1.52457E-04 4.78972E-03-9.28482E-14 3.16386E-13
 -1      1566 2.00123E+01 1.58171E-03-1.74674E-04 1.20305E-02-3.64152E-14 1.35399E-13
 -1      1567 1.99864E+01 3.11086E-04-9.10024E-06 2.11903E-03-8.35561E-14 5.19887E-13
 -1      1568 1.99903E+01 7.54461E-04 1.29782E-04 2.58811E-03-1.74820E-14 5.23760E-13
 -1      1569 1.99987E+01 1.05456E-03-1.34925E-04 6.94365E-03-1.33482E-13 2.14637E-13
 -1      1570 1.99819E+01 1.99473E-04 1.40423E-05 7.91617E-04 9.13885E-14 7.19738E-13
 -1      1571 1.99836E+01 5.17823E-04 1.08418E-04 1.11546E-03 1.39209E-14 7.13498E-13
 -1      1572 1.99906E+01 6.78838E-04-1.02767E-04 3.48579E-03-9.53141E-14 5.69295E-13
 -1      1573 1.99803E+01 1.20676E-04 2.70471E-05-5.17674E-05 8.50868E-14 5.65278E-13
 -1      1574 1.99806E+01 3.45305E-04 8.91495E-05 1.65771E-04 1.43129E-14 5.71731E-13
 -1      1575 1.99864E+01 4.14254E-04-7.71035E-05 1.20491E-03 1.13928E-13 4.54374E-13
 -1      1576 1.99806E+01 6.61306E-05 3.32259E-05-5.54632E-04-5.00226E-14 4.96183E-13
 -1      1577 1.99800E+01 2.21119E-04 7.22658E-05-4.13958E-04-8.47312E-15 5.00648E-13
 -1      1578 1.99847E+01 2.31155E-04-5.69053E-05-2.35680E-04-1.47849E-14 2.66032E-13
 -1      1579 1.99821E+01 2.93781E-05 3.49293E-05-8.22902E-04 9.79954E-14 6.83573E-14
 -1      1580 1.99810E+01 1.33208E-04 5.77909E-05-7.36905E-04 1.24162E-13 3.13776E-13
 -1      1581 1.99847E+01 1.07502E-04-4.12354E-05-1.08611E-03 1.41406E-13 2.51423E-14
 -1      1582 1.99841E+01 5.53909E-06 3.38196E-05-9.34123E-04 1.56012E-13-2.52574E-13
 -1      1583 1.99828E+01 7.23347E-05 4.56025E-05-8.86200E-04 1.57050E-13 2.86197E-14
 -1      1584 1.99857E+01 2.68401E-05-2.92645E-05-1.53107E-03 2.63280E-13-2.97874E-13
 -1      1585 1.99863E+01-9.06688E-06 3.10618E-05-9.44413E-04-1.41345E-13 9.66185E-14
 -1      1586 1.99850E+01 3.14130E-05 3.55000E-05-9.22252E-04-1.52569E-13-2.08989E-13
 -1      1587 1.99872E+01-2.31258E-05-2.02736E-05-1.70576E-03-1.01836E-13-2.54293E-13
 -1      1588 1.99885E+01-1.72071E-05 2.74596E-05-8.93732E-04 4.00370E-14 2.68320E-13
 -1      1589 1.99872E+01 5.01793E-06 2.72461E-05-8.88324E-04-3.56087E-14 1.88302E-13
 -1      1590 1.99889E+01-5.15631E-05-1.36499E-05-1.70787E-03-1.80402E-13-3.16946E-13
 -1      1591 1.99906E+01-2.09525E-05 2.35554E-05-8.09907E-04 1.08496E-13-4.14358E-14
 -1      1592 1.99894E+01-1.09938E-05 2.05930E-05-8.14774E-04 1.21122E-13 2.15542E-13
 -1      1593 1.99907E+01-6.52797E-05-8.87756E-06-1.60675E-03 1.05430E-13-1.52919E-13
 -1      1594 1.99925E+01-2.18467E-05 1.97043E-05-7.11691E-04-1.61036E-13 1.31560E-13
 -1      1595 1.99915E+01-1.97764E-05 1.52979E-05-7.22290E-04-7.10257E-14 4.97500E-14
 -1      1596 1.99924E+01-6.93026E-05-5.52632E-06-1.45050E-03-1.60414E-14 9.27065E-14
 -1      1597 1.99942E+01-2.10406E-05 1.61315E-05-6.11077E-04-1.13910E-13 3.28814E-13
 -1      1598 1.99933E+01-2.37308E-05 1.11336E-05-6.24348E-04-8.62808E-14 1.56441E-13
 -1      1599 1.99939E+01-6.73237E-05-3.23701E-06-1.27124E-03-1.51453E-13 2.27867E-13
 -1      1600 1.99956E+01-1.94057E-05 1.29851E-05-5.14999E-04-2.13497E-13 5.73100E-13
 -1      1601 1.99949E+01-2.47015E-05 7.89668E-06-5.29033E-04-1.35610E-13 3.98491E-13
 -1      1602 1.99953E+01-6.20559E-05-1.70292E-06-1.08915E-03-2.00563E-13 2.84277E-13
 -1      1603 1.99968E+01-1.76342E-05 1.03963E-05-4.26529E-04 9.33212E-14 7.29717E-13
 -1      1604 1.99962E+01-2.41532E-05 5.42300E-06-4.40344E-04-1.19383E-13 5.78245E-13
 -1      1605 1.99964E+01-5.55304E-05-6.41325E-07-9.15441E-04-1.61391E-13 3.16985E-13
 -1      1606 1.99978E+01-1.63310E-05 8.56625E-06-3.45603E-04 3.60596E-13 3.25990E-13
 -1      1607 1.99973E+01-2.33396E-05 3.62285E-06-3.59049E-04 2.04559E-13 6.16511E-13
 -1      1608 1.99974E+01-4.93645E-05 2.50820E-07-7.54314E-04 2.83690E-13-1.05139E-14
 -1      1609 1.99986E+01-1.59949E-05 7.84009E-06-2.69457E-04 2.55857E-13-1.61652E-13
 -1      1610 1.99982E+01-2.33916E-05 2.55491E-06-2.83185E-04 3.28323E-13 2.68236E-13
 -1      1611 1.99982E+01-4.49747E-05 1.35289E-06-6.04244E-04 4.73354E-13-1.55438E-13
 -1      1612 1.99992E+01-1.70899E-05 8.36194E-06-1.93136E-04-2.94083E-14-1.79960E-13
 -1      1613 1.99989E+01-2.53360E-05 2.40187E-06-2.08625E-04 1.55408E-14-1.80835E-13
 -1      1614 1.99988E+01-4.36371E-05 3.07930E-06-4.59048E-04 1.61085E-13 3.64278E-14
 -1      1615 1.99996E+01-1.97545E-05 8.10196E-06-1.09859E-04 4.15974E-13-8.51584E-13
 -1      1616 1.99994E+01-2.98982E-05 2.79412E-06-1.30037E-04 3.69962E-13-2.52344E-13
 -1      1617 1.99993E+01-4.70247E-05 5.05610E-06-3.09656E-04 3.77101E-13-1.90015E-13
 -1      1618 1.99998E+01-2.06254E-05-2.63089E-06-2.48075E-05-1.28458E-13-9.96083E-13
 -1      1619 1.99997E+01-3.16577E-05 1.13169E-06-4.67571E-05 4.99648E-14-9.48127E-13
 -1      1620 1.99996E+01-4.99804E-05 5.35608E-06-1.49242E-04 2.58609E-13-4.22277E-13
 -1      1621 1.99998E+01-4.83796E-06-7.50454E-06 7.89594E-06-5.93666E-13-6.46885E-13
 -1      1622 1.99998E+01-1.60753E-04 4.66513E-06-8.73476E-05-2.91923E-13 4.72436E-13
 -1      1623 1.99998E+01-8.07631E-05-2.43646E-06-6.51696E-05-6.83051E-13 2.02833E-13
 -1      1624 1.99998E+01-4.85618E-04 3.32311E-06-1.70567E-04 2.80943E-13 1.89550E-13
 -1      1625 1.99998E+01-2.99218E-04 3.15877E-06-1.55683E-04-4.20705E-14 3.03975E-13
 -1      1626 1.99997E+01-3.02166E-04 5.94108E-06-2.40239E-04-1.94614E-13 6.85721E-13
 -1      1627 1.99998E+01-9.24139E-04 1.26773E-06-2.20043E-04 1.30257E-13-1.42071E-13
 -1      1628 1.99998E+01-6.71353E-04 2.31553E-06-2.13280E-04 2.99270E-13 5.39039E-14
 -1      1629 1.99998E+01-6.25222E-04 5.30832E-06-3.73287E-04 8.46283E-14 2.51033E-13
 -1      1630 1.99998E+01-1.40413E-03-8.45917E-08-2.29764E-04-1.18350E-13-1.45687E-13
 -1      1631 1.99998E+01-1.13293E-03 9.23808E-07-2.31069E-04 2.39662E-13-1.70392E-13
 -1      1632 1.99998E+01-1.01928E-03 1.18251E-06-4.36862E-04 2.24606E-13-1.66248E-13
 -1      1633 1.99998E+01-1.84367E-03-5.96637E-07-2.04056E-04-6.85260E-13-4.55566E-14
 -1      1634 1.99998E+01-1.60192E-03 1.50138E-07-2.11715E-04-3.16198E-13-3.12385E-13
 -1      1635 1.99998E+01-1.42455E-03-2.85046E-06-4.26964E-04-2.43972E-14-4.40279E-13
 -1      1636 1.99998E+01-2.19480E-03-7.31544E-07-1.49262E-04-6.18193E-13 1.73681E-13
 -1      1637 1.99998E+01-2.01023E-03-2.68312E-07-1.62011E-04-8.67788E-13 2.17578E-13
 -1      1638 1.99998E+01-1.78674E-03-6.01818E-06-3.53996E-04-3.19854E-13-1.28392E-13
 -1      1639 1.99998E+01-2.40168E-03-6.69686E-07-7.47441E-05-2.91844E-13-2.62517E-14
 -1      1640 1.99998E+01-2.30356E-03-4.32885E-07-9.04977E-05-4.84591E-13 3.64018E-13
 -1      1641 1.99998E+01-2.05974E-03-8.24920E-06-2.31872E-04-4.62299E-13 3.30635E-13
 -1      1642 1.99998E+01-2.43796E-03-5.56247E-07 9.24091E-06 3.53027E-13 3.78295E-13
 -1      1643 1.99998E+01-2.43895E-03-5.54944E-07-7.50545E-06-1.82520E-13 2.75785E-13
 -1      1644 1.99999E+01-2.20453E-03-9.37002E-06-7.95432E-05 3.74724E-14 3.45881E-13
 -1      1645 1.99998E+01-2.29910E-03-4.15916E-07 9.20291E-05 3.56554E-13-2.44956E-13
 -1      1646 1.99998E+01-2.39905E-03-6.66739E-07 7.63489E-05 4.47974E-13 2.00474E-13
 -1      1647 1.99999E+01-2.20288E-03-9.34795E-06 8.28025E-05 2.36704E-13 3.91320E-13
 -1      1648 1.99998E+01-2.00313E-03-2.08182E-07 1.63041E-04-4.24373E-13-4.32903E-13
 -1      1649 1.99998E+01-2.18902E-03-7.64703E-07 1.50456E-04 2.79487E-13-5.57009E-13
 -1      1650 1.99998E+01-2.05508E-03-8.17271E-06 2.34547E-04-7.21203E-14-5.22516E-13
 -1      1651 1.99998E+01-1.59712E-03 1.10642E-07 2.11689E-04-8.71709E-13-3.28474E-14
 -1      1652 1.99998E+01-1.83923E-03-6.25726E-07 2.04181E-04-5.77879E-13-2.03582E-13
 -1      1653 1.99998E+01-1.78276E-03-6.00110E-06 3.54936E-04-2.74936E-13-6.67898E-13
 -1      1654 1.99998E+01-1.12450E-03 8.89066E-07 2.30782E-04-6.73223E-13 1.59038E-13
 -1      1655 1.99998E+01-1.39554E-03-8.93532E-08 2.29632E-04-8.86853E-13 2.62801E-13
 -1      1656 1.99998E+01-1.41985E-03-2.76360E-06 4.26918E-04-3.32109E-13 1.47575E-13
 -1      1657 1.99998E+01-6.64045E-04 2.45161E-06 2.12774E-04-4.08522E-13 2.93183E-13
 -1      1658 1.99998E+01-9.16222E-04 1.20364E-06 2.19230E-04-6.72067E-13 2.94060E-13
 -1      1659 1.99998E+01-1.01146E-03 1.22823E-06 4.35847E-04-3.09136E-13 3.46234E-13
 -1      1660 1.99998E+01-2.99489E-04 9.45930E-07 1.55401E-04-5.31513E-13-1.15472E-13
 -1      1661 1.99998E+01-4.81123E-04 3.33286E-06 1.70641E-04-3.86693E-13-1.20422E-14
 -1      1662 1.99998E+01-6.19783E-04 5.15022E-06 3.71178E-04-2.87501E-13 1.46599E-13
 -1      1663 1.99997E+01-1.19270E-04-4.29010E-06 1.03183E-04-2.44410E-13 4.26155E-14
 -1      1664 1.99997E+01-2.02876E-04 2.88631E-06 1.34984E-04-3.45046E-13 6.67537E-15
 -1      1665 1.99997E+01-3.43033E-04 4.07030E-06 2.89431E-04-3.81429E-14 3.26639E-14
 -1      1666 1.99996E+01-1.66518E-04-2.04048E-06 2.09090E-04 1.58156E-13-1.18002E-13
 -1      1667-8.26638E-01-1.53024E+01-1.70589E+00-1.53945E+00 9.56013E-13 2.61069E-13
 -1      1668-6.87519E-01-1.69174E+01-1.81737E+00-1.39962E-01 7.12409E-13 2.41585E-13
 -1      1669 1.23529E+00-9.21034E+00-1.29840E+00 3.46331E-02 1.00098E-12 5.22263E-13
 -1      1670 5.58447E-01-1.40273E+01-1.71780E+00-4.04390E-01 9.56124E-13 3.71730E-13
 -1      1671 7.15195E+00-1.91801E+00-7.46595E-01 3.98045E+00 1.06204E-12 7.41518E-13
 -1      1672 3.99965E+00-7.55269E+00-1.45434E+00 1.16099E+00 1.09479E-12 6.18949E-13
 -1      1673 1.73730E+01 3.82342E+00-2.68446E-02 8.98702E+00 7.95142E-13 7.02771E-13
 -1      1674 1.08348E+01 1.35568E-01-9.47959E-01 5.19618E+00 1.03806E-12 7.01439E-13
 -1      1675 3.33465E+01 5.34783E+00 9.24923E-01 1.19257E+01 4.66294E-13 2.66676E-13
 -1      1676 2.34978E+01 4.37263E+00-1.03047E-01 9.44605E+00 6.56142E-13 5.07372E-13
 -1      1677 4.92295E+01 5.07382E+00 1.90614E+00 1.10792E+01 2.03726E-13-3.39506E-13
 -1      1678 3.89487E+01 6.34119E+00 9.50984E-01 1.21060E+01 3.92353E-13 1.51879E-13
 -1      1679 5.91101E+01 3.69732E+00 2.29924E+00 4.56826E+00 1.41553E-15-6.91280E-13
 -1      1680 5.32564E+01 5.11385E+00 1.87516E+00 9.35478E+00 8.07548E-14-4.38760E-13
 -1      1681 5.74864E+01 4.35341E+00 2.01272E+00-3.83303E+00 9.29257E-14-6.59583E-13
 -1      1682 5.85170E+01 4.17791E+00 2.12219E+00 2.04788E+00-2.61458E-14-6.41348E-13
 -1      1683 4.92176E+01 5.51504E+00 1.52008E+00-1.01709E+01 2.08986E-13-7.16982E-13
 -1      1684 5.67240E+01 3.96627E+00 2.13450E+00-6.22164E+00 1.27731E-13-7.46958E-13
 -1      1685 3.38063E+01 5.56828E+00 4.76326E-01-1.06999E+01 2.62679E-13-5.24691E-13
 -1      1686 4.44530E+01 4.90214E+00 1.47298E+00-1.08025E+01 2.36089E-13-6.22169E-13
 -1      1687 1.92878E+01 2.50593E+00-4.62015E-01-7.70666E+00 1.00697E-13-3.17968E-13
 -1      1688 2.83097E+01 4.26063E+00 4.83140E-01-1.07716E+01 1.95621E-13-5.11813E-13
 -1      1689 7.13015E+00-2.59951E+00-1.33481E+00-3.14847E+00-1.67644E-13-1.06803E-13
 -1      1690 1.25730E+01 2.05051E+00-4.70014E-01-7.01234E+00 7.43849E-14-2.90101E-13
 -1      1691 1.84612E+00-1.01839E+01-1.75091E+00 1.64091E-01-4.50084E-13 5.03764E-14
 -1      1692 3.73984E+00-4.64145E+00-1.16313E+00-1.79764E+00-2.38032E-13-5.00155E-14
 -1      1693-3.06177E-01-1.54001E+01-1.91226E+00 9.21409E-01-6.16562E-13 7.24421E-14
 -1      1694-2.64176E-01-1.18682E+01-1.67053E+00 1.43122E+00-5.04929E-13 7.67858E-14
 -1      1695-6.73251E-01-1.54522E+01-1.69583E+00 4.62302E-02-5.72625E-13 2.83384E-14
 -1      1696-7.88898E-01-1.54135E+01-1.73995E+00 1.47146E+00-5.97827E-13 8.43492E-14
 -1      1697-1.00769E-01-1.16942E+01-1.48799E+00-2.81478E-01-5.32352E-13-1.04472E-13
 -1      1698-2.64899E-01-1.53291E+01-1.80806E+00 5.32637E-01-5.82479E-13-2.53131E-14
 -1      1699 2.71744E+00-4.34008E+00-9.71651E-01 2.00789E+00-4.23661E-13-1.66867E-13
 -1      1700 1.41300E+00-9.82600E+00-1.56579E+00 5.98011E-01-5.03708E-13-1.31908E-13
 -1      1701 1.05760E+01 2.59708E+00-2.41086E-01 7.07254E+00-1.75193E-13 3.45279E-14
 -1      1702 6.29330E+00-2.35326E+00-1.00727E+00 3.66540E+00-3.69038E-13-6.95000E-14
 -1      1703 2.16062E+01 6.77174E+00 4.42987E-01 1.15987E+01 5.55112E-14 1.79634E-13
 -1      1704 1.44772E+01 4.58554E+00-3.77179E-01 8.30922E+00-1.12244E-13 5.28466E-14
 -1      1705 3.70451E+01 6.47010E+00 1.13033E+00 1.27205E+01 1.09135E-13 4.46088E-13
 -1      1706 2.73132E+01 6.99141E+00 3.36452E-01 1.16778E+01 9.03722E-14 2.56906E-13
 -1      1707 5.00368E+01 4.71847E+00 1.63756E+00 9.30075E+00 8.04010E-14 7.95031E-13
 -1      1708 4.21494E+01 6.62873E+00 1.09998E+00 1.21608E+01 1.04305E-13 5.62328E-13
 -1      1709 5.52024E+01 3.71725E+00 1.71205E+00 1.35045E+00 2.64511E-14 8.52207E-13
 -1      1710 5.22104E+01 4.59165E+00 1.52951E+00 6.56113E+00 6.97775E-14 8.12850E-13
 -1      1711 5.36720E+01 4.31073E+00 1.65904E+00-6.45906E+00-1.95122E-13 9.50739E-13
 -1      1712 5.60743E+01 3.52679E+00 1.79121E+00-1.29102E+00-7.95752E-14 8.64725E-13
 -1      1713 4.40082E+01 6.28218E+00 1.18554E+00-1.14618E+01-2.54213E-13 8.48210E-13
 -1      1714 5.09747E+01 4.62595E+00 1.68136E+00-8.45649E+00-2.14120E-13 9.45022E-13
 -1      1715 3.11356E+01 7.05127E+00 5.62990E-01-1.21244E+01-3.16192E-13 5.96412E-13
 -1      1716 3.97494E+01 6.20999E+00 1.24692E+00-1.23363E+01-2.78111E-13 7.44182E-13
 -1      1717 1.88171E+01 5.43606E+00-7.04195E-02-9.75442E+00-1.98841E-13 4.12448E-13
 -1      1718 2.62414E+01 6.70982E+00 6.68740E-01-1.23430E+01-2.70561E-13 5.37126E-13
 -1      1719 9.15433E+00 1.19502E+00-7.12051E-01-5.42281E+00 8.52651E-14 1.17351E-13
 -1      1720 1.44464E+01 5.11478E+00 9.76328E-02-9.02122E+00-9.50351E-14 3.24185E-13
 -1      1721 2.18080E+01 9.29855E-01 1.85078E-01-8.05121E+00 5.04041E-14 3.49165E-13
 -1      1722 3.23350E+00-6.73716E+00-1.31770E+00-1.58385E+00 3.27072E-13-3.71370E-14
 -1      1723 5.44530E+00-1.38677E+00-6.50424E-01-3.90356E+00 1.72751E-13 3.95239E-14
 -1      1724 6.27181E-01-1.34442E+01-1.68101E+00-3.08096E-01 4.38649E-13-5.35960E-14
 -1      1725 1.25150E+00-8.69564E+00-1.21356E+00-6.85121E-01 3.52163E-13-1.09857E-13
 -1      1726-6.07914E-01-1.72673E+01-1.89527E+00-7.28780E-01 6.22252E-13 2.49523E-14
 -1      1727-5.45430E-01-1.50129E+01-1.68208E+00 5.84166E-01 5.23359E-13-3.29736E-14
 -1      1728 2.58115E+01-6.89706E-01 1.38743E-01 6.66331E+00 6.04738E-13 2.04836E-13
 -1      1729 1.45749E+01-4.56347E+00-5.56357E-01 5.84180E+00 7.34190E-13 4.18277E-13
 -1      1730 1.99998E+01-2.25778E-05 4.42890E-07-2.15375E-05-7.56886E-13-4.09697E-13
 -1      1731 1.99997E+01-1.16280E-04 5.53752E-07-1.10954E-04-2.65384E-13 2.68586E-13
 -1      1732 4.28016E-01-1.02674E+01-1.14227E+00 1.90511E+00 5.13922E-13 3.46057E-13
 -1      1733 6.15441E+00-8.05804E+00-9.17641E-01 4.25501E+00 6.03295E-13 4.76369E-13
 -1      1734-1.44992E+00-1.15875E+01-1.32305E+00-6.37221E-01 5.25448E-13 2.51021E-13
 -1      1735 3.71769E+01 2.77200E+00 8.15267E-01 5.81714E+00 5.06817E-13-5.92859E-14
 -1      1736 4.68210E+01 6.02083E+00 1.63180E+00 4.34772E+00 3.89522E-13-1.74083E-13
 -1      1737 4.98679E+01 7.89862E+00 1.79193E+00 1.30273E+00 9.29812E-14-1.37973E-13
 -1      1738 4.88068E+01 7.54146E+00 1.66762E+00-1.62015E+00 4.87388E-14-2.96541E-13
 -1      1739 4.35430E+01 4.92140E+00 1.23790E+00-3.82745E+00 4.50195E-14-2.81331E-13
 -1      1740 3.37485E+01 7.23866E-01 4.25537E-01-5.14444E+00-4.81837E-14-2.31593E-13
 -1      1741 2.21632E+01-2.18084E+00-5.21471E-02-6.41069E+00-1.17240E-13-2.73337E-13
 -1      1742 1.04339E+01-5.64459E+00-8.02346E-01-5.03500E+00-2.58460E-13-1.94067E-13
 -1      1743 2.94157E+00-8.94518E+00-1.18608E+00-2.81168E+00-3.05866E-13-8.39884E-14
 -1      1744-8.27120E-01-1.03900E+01-1.27671E+00-4.49864E-01-3.10696E-13 1.12133E-14
 -1      1745-1.00063E+00-1.02402E+01-1.22823E+00 1.50808E+00-3.03896E-13 3.24185E-14
 -1      1746 1.98118E+00-8.38977E+00-1.07712E+00 3.54690E+00-2.83107E-13-2.83662E-14
 -1      1747 8.67150E+00-4.56771E+00-6.02303E-01 5.92614E+00-1.93734E-13 7.34968E-14
 -1      1748 1.76037E+01-6.55253E-01-1.33475E-01 7.52569E+00-1.27232E-13 1.85241E-13
 -1      1749 2.81130E+01 2.92072E+00 4.51990E-01 8.03357E+00-3.82472E-14 2.61569E-13
 -1      1750 3.82593E+01 5.43415E+00 9.67876E-01 6.67783E+00-1.82562E-14 4.61076E-13
 -1      1751 4.52815E+01 7.18482E+00 1.36182E+00 3.91947E+00-5.66214E-15 5.98965E-13
 -1      1752 4.78064E+01 7.70951E+00 1.48983E+00-1.19213E-01-7.31082E-14 5.81722E-13
 -1      1753 4.62081E+01 7.20467E+00 1.44252E+00-3.65910E+00-1.27010E-13 5.91083E-13
 -1      1754 3.96892E+01 5.79603E+00 1.06295E+00-6.05006E+00-6.98261E-14 5.43232E-13
 -1      1755 3.12270E+01 3.37999E+00 6.58230E-01-7.59191E+00-8.77631E-14 4.16223E-13
 -1      1756 5.01833E+00-7.41444E+00-8.97810E-01-4.71530E+00 2.82552E-13 5.19376E-14
 -1      1757 4.19551E-01-1.04395E+01-1.19628E+00-2.84312E+00 3.58602E-13 4.42979E-14
 -1      1758 2.46507E+01 2.05782E+00-2.43350E-02-2.77384E+00-4.92488E-14-5.88002E-13
 -1      1759 1.23074E+01-3.06126E+00-4.67481E-01-6.59499E+00 2.41029E-13 1.60483E-13
 -1      1760 2.11771E+01 3.44173E+00-3.63093E-02-2.01875E+00 1.14258E-13-3.48374E-13
 -1      1761 2.14730E+01 3.35640E+00-5.53061E-02-2.39907E+00 7.92578E-14-4.01124E-13
 -1      1762 2.18501E+01 3.09514E+00-4.85529E-02-2.59938E+00 4.35468E-14-4.28810E-13
 -1      1763 2.21276E+01 2.77002E+00-1.56578E-01-2.92229E+00-5.54418E-15-4.89039E-13
 -1      1764 2.19399E+01 2.42286E+00-7.70085E-03-2.28396E+00 5.77270E-14-3.88266E-13
 -1      1765 2.00737E+01 3.52701E+00-2.09962E-02-5.66891E-01 1.87182E-13-1.65631E-13
 -1      1766 2.03830E+01 3.55204E+00-2.31390E-02-9.39986E-01 1.82469E-13-2.12570E-13
 -1      1767 1.92732E+01 3.55415E+00-1.97306E-02 1.96696E-01 2.07481E-13-8.96644E-14
 -1      1768 1.97088E+01 3.56435E+00-1.32634E-02-1.62213E-01 2.02344E-13-1.34646E-13
 -1      1769 2.02190E+01 2.88434E+00-1.98839E-02-3.55523E-01 2.00601E-13-1.40827E-13
 -1      1770 1.82097E+01 3.69554E+00-2.16364E-02 8.81510E-01 2.30923E-13-5.31172E-15
 -1      1771 1.87786E+01 3.66971E+00-2.49670E-03 5.80289E-01 2.26218E-13-5.17000E-14
 -1      1772 1.93118E+01 2.99902E+00-2.33365E-02 4.45668E-01 2.29464E-13-6.24032E-14
 -1      1773 1.69693E+01 3.98916E+00-2.48174E-02 1.37099E+00 2.54045E-13 3.73625E-14
 -1      1774 1.76083E+01 3.92199E+00 7.49748E-03 1.17484E+00 2.44272E-13 1.34563E-14
 -1      1775 1.81164E+01 3.28453E+00-2.35183E-02 1.15399E+00 2.49859E-13 8.33882E-15
 -1      1776 1.58049E+01 4.39798E+00-2.54967E-02 1.55425E+00 2.49844E-13 8.43796E-14
 -1      1777 1.63648E+01 4.30329E+00 1.26686E-02 1.49881E+00 2.53976E-13 5.21848E-14
 -1      1778 1.67649E+01 3.75823E+00-1.74853E-02 1.61649E+00 2.72250E-13 4.39527E-14
 -1      1779 1.51016E+01 4.79986E+00-1.99650E-02 1.39789E+00 2.50324E-13 1.24792E-13
 -1      1780 1.53767E+01 4.70731E+00 9.25531E-03 1.47675E+00 2.54473E-13 9.87654E-14
 -1      1781 1.55747E+01 4.32120E+00-5.43191E-03 1.69994E+00 2.71199E-13 9.51975E-14
 -1      1782 1.52236E+01 5.03148E+00-9.47109E-03 1.01848E+00 2.42343E-13 1.78164E-13
 -1      1783 1.50466E+01 4.97265E+00-3.43601E-03 1.16079E+00 2.42343E-13 1.43275E-13
 -1      1784 1.49811E+01 4.76571E+00 6.53315E-03 1.39567E+00 2.67264E-13 1.34118E-13
 -1      1785 1.63581E+01 4.98840E+00-6.80964E-04 6.30264E-01 2.28128E-13 2.47384E-13
 -1      1786 1.56577E+01 4.98134E+00-2.19445E-02 7.37771E-01 2.34618E-13 2.03219E-13
 -1      1787 1.53428E+01 4.89060E+00 1.01507E-02 8.69629E-01 2.54955E-13 1.83388E-13
 -1      1788 1.84300E+01 4.64174E+00-1.67663E-03 4.81904E-01 1.96787E-13 3.31988E-13
 -1      1789 1.72811E+01 4.70354E+00-4.04053E-02 4.50490E-01 2.09941E-13 2.80824E-13
 -1      1790 1.67968E+01 4.60393E+00 2.81000E-03 3.99897E-01 2.29618E-13 2.54702E-13
 -1      1791 2.11692E+01 3.98732E+00-1.95318E-02 7.14292E-01 1.34150E-13 4.41768E-13
 -1      1792 1.97241E+01 4.16517E+00-5.64313E-02 4.87347E-01 1.59525E-13 3.74211E-13
 -1      1793 1.91978E+01 3.94849E+00-3.44823E-03 2.23198E-01 1.80189E-13 3.39220E-13
 -1      1794 2.43594E+01 2.85318E+00-3.69050E-02 1.21330E+00 5.39950E-14 5.94788E-13
 -1      1795 2.27046E+01 3.32996E+00-6.32167E-02 8.65822E-01 9.09117E-14 5.12160E-13
 -1      1796 2.21963E+01 2.96805E+00-2.99731E-04 3.66068E-01 1.06331E-13 4.52912E-13
 -1      1797 2.65634E+01 1.20965E+00-1.13458E-01 9.94502E-01-6.06459E-15 7.11112E-13
 -1      1798 2.53973E+01 2.32444E+00-5.46070E-03 1.22438E+00 2.43590E-14 6.43055E-13
 -1      1799 2.47382E+01 1.80171E+00-7.15791E-03 4.04111E-01 3.18860E-14 5.78291E-13
 -1      1800 2.62512E+01 7.99124E-01-4.38874E-02 1.19813E-01 2.11636E-15 6.98541E-13
 -1      1801 2.34604E+01 2.51312E+00 9.26454E-02-3.12084E+00-4.34219E-14-5.21624E-13
 -1      1802 2.63043E+01 2.97900E-01-8.71037E-03-8.14198E-01-1.89848E-14 6.52652E-13
 -1      1803 2.62923E+01 4.69202E-01-7.36549E-03-3.88792E-01-1.63550E-14 6.58180E-13
 -1      1804 2.55835E+01 8.70815E-01-1.04291E-02-2.69164E-01-3.62904E-15 5.78607E-13
 -1      1805 1.31149E+01-5.05064E+00-3.17600E-01-6.68270E+00 2.97540E-13 1.37307E-13
 -1      1806 1.77932E+01-2.91686E+00 1.06775E-02-7.53129E+00 2.46803E-13 2.63678E-13
 -1      1807 2.31514E+01 1.66892E+00 8.13489E-02-2.43720E+00-2.28498E-14-4.79519E-13
 -1      1808 2.20618E+01 3.30675E-01 3.02333E-02-1.20768E+00-3.75047E-15-4.18745E-13
 -1      1809 2.14982E+01 1.65264E-01-1.73181E-03-1.01378E+00-2.25514E-16-4.22766E-13
 -1      1810 2.12263E+01 6.97474E-02 2.40975E-02-9.08993E-01-2.28316E-14-3.77733E-13
 -1      1811 2.08418E+01-5.94035E-04 3.86424E-03-8.75936E-01-4.69980E-15-3.78061E-13
 -1      1812 2.16466E+01 2.10523E-01-1.15455E-03-1.27843E+00 1.94549E-15-3.26766E-13
 -1      1813 2.05900E+01-2.35899E-02 1.29596E-02-8.63183E-01 2.49486E-15-3.55614E-13
 -1      1814 2.02589E+01-2.61551E-02 4.51157E-03-8.71416E-01 4.98278E-15-3.46569E-13
 -1      1815 2.11110E+01 5.16061E-04-4.90484E-04-1.13286E+00-5.23236E-15-2.63720E-13
 -1      1816 2.00148E+01-3.24860E-03 5.45239E-03-8.68466E-01-1.98904E-14-3.31916E-13
 -1      1817 1.97174E+01 3.86146E-02 7.40984E-03-8.54807E-01-3.76459E-14-3.41482E-13
 -1      1818 2.06202E+01-9.86181E-03-5.72486E-05-1.11267E+00-1.20709E-14-2.38139E-13
 -1      1819 1.94848E+01 9.09829E-02 3.10535E-03-7.99611E-01-7.13149E-14-3.15740E-13
 -1      1820 1.92380E+01 1.54873E-01 1.13221E-02-7.26561E-01-5.30678E-14-3.31030E-13
 -1      1821 2.01492E+01 1.03767E-01-1.99997E-03-1.04842E+00-3.99687E-14-2.10185E-13
 -1      1822 1.90456E+01 2.13838E-01 4.63935E-03-5.86850E-01-2.90584E-14-3.36280E-13
 -1      1823 1.88847E+01 2.70558E-01 1.34790E-02-4.45804E-01 1.53089E-14-3.16483E-13
 -1      1824 1.97287E+01 2.75148E-01-6.00156E-03-8.31304E-01-2.34634E-14-1.67908E-13
 -1      1825 1.87743E+01 3.08932E-01 8.26332E-03-2.30010E-01 1.18750E-14-3.32608E-13
 -1      1826 1.87314E+01 3.30518E-01 1.22622E-02-4.47105E-02 1.63931E-15-3.07055E-13
 -1      1827 1.94291E+01 4.25227E-01-1.00734E-02-4.31788E-01 3.35712E-15-1.92718E-13
 -1      1828 1.87328E+01 3.28353E-01 1.14893E-02 1.99303E-01-3.87962E-14-3.21992E-13
 -1      1829 1.88186E+01 3.02369E-01 8.16672E-03 3.81839E-01-9.18970E-15-3.15790E-13
 -1      1830 1.93222E+01 4.81213E-01-1.14641E-02 8.73621E-02-1.78967E-14-2.03628E-13
 -1      1831 1.89278E+01 2.58850E-01 1.18807E-02 5.88352E-01-1.53402E-14-3.61692E-13
 -1      1832 1.91234E+01 1.95797E-01 3.15429E-03 7.20005E-01-2.27067E-14-3.78345E-13
 -1      1833 1.94344E+01 4.11393E-01-8.84305E-03 5.95673E-01-4.92757E-14-2.76246E-13
 -1      1834 1.93016E+01 1.29176E-01 8.58139E-03 8.38002E-01-1.57639E-14-3.84973E-13
 -1      1835 1.95643E+01 5.46643E-02-8.44006E-04 8.91555E-01-2.55590E-15-3.89595E-13
 -1      1836 1.97227E+01 2.41831E-01-3.63434E-03 9.58977E-01-3.07248E-14-2.83362E-13
 -1      1837 1.97578E+01-1.02168E-02 2.84664E-03 9.05760E-01-2.23240E-14-3.88508E-13
 -1      1838 2.00358E+01-7.10549E-02-2.95718E-03 8.82803E-01-1.20845E-15-3.65124E-13
 -1      1839 2.00944E+01 3.84928E-02 1.62381E-03 1.10308E+00-4.42447E-15-2.40015E-13
 -1      1840 2.01999E+01-1.16076E-01-3.09465E-03 8.12472E-01 2.95315E-14-3.70011E-13
 -1      1841 2.04476E+01-1.49834E-01-3.51138E-03 7.36036E-01 3.33804E-14-3.22884E-13
 -1      1842 2.04521E+01-1.32077E-01 4.87310E-03 1.03509E+00 1.37284E-14-1.93867E-13
 -1      1843 2.05589E+01-1.69310E-01-7.32948E-03 6.18476E-01 4.44783E-15-3.16137E-13
 -1      1844 2.07475E+01-1.76059E-01-3.14226E-03 5.18745E-01 8.18356E-15-3.18543E-13
 -1      1845 2.07284E+01-2.31890E-01 5.76621E-03 8.21199E-01 5.28570E-14-1.34164E-13
 -1      1846 2.08030E+01-1.74500E-01-9.13135E-03 3.90715E-01-6.14309E-15-3.15779E-13
 -1      1847 2.09221E+01-1.62428E-01-2.45367E-03 2.93003E-01 3.21175E-14-3.25007E-13
 -1      1848 2.08973E+01-2.58275E-01 5.06831E-03 5.45550E-01 2.38329E-15-1.70315E-13
 -1      1849 2.09307E+01-1.48353E-01-8.82981E-03 1.80015E-01 3.30421E-14-3.42040E-13
 -1      1850 2.09848E+01-1.27285E-01-1.72768E-03 9.97044E-02-8.64196E-15-3.36970E-13
 -1      1851 2.09643E+01-2.31367E-01 3.71121E-03 2.77227E-01 4.00042E-14-2.35606E-13
 -1      1852 2.09597E+01-1.08624E-01-7.22237E-03 1.41047E-02-7.39218E-14-3.46492E-13
 -1      1853 2.09618E+01-8.62306E-02-1.08225E-03-4.29753E-02-7.61058E-14-3.58066E-13
 -1      1854 2.09508E+01-1.77317E-01 2.32052E-03 5.74110E-02-5.38861E-14-2.45348E-13
 -1      1855 2.09159E+01-6.83151E-02-5.11209E-03-9.90322E-02-8.83247E-14-3.76864E-13
 -1      1856 2.08817E+01-4.90407E-02-5.50807E-04-1.33651E-01-7.89724E-14-4.28762E-13
 -1      1857 2.08823E+01-1.17404E-01 1.17513E-03-9.86433E-02-9.41352E-14-2.18177E-13
 -1      1858 2.08255E+01-3.45308E-02-3.06874E-03-1.63953E-01-4.64158E-14-4.72530E-13
 -1      1859 2.07700E+01-2.01117E-02-1.38508E-04-1.80273E-01-1.85008E-14-4.65755E-13
 -1      1860 2.07819E+01-6.45187E-02 3.37344E-04-1.93271E-01-8.74754E-14-2.95386E-13
 -1      1861 2.07109E+01-9.74321E-03-1.39451E-03-1.91016E-01 3.80049E-14-4.25744E-13
 -1      1862 2.06461E+01-1.99301E-04 1.60417E-04-1.94208E-01 1.33789E-13-3.88220E-13
 -1      1863 2.06674E+01-2.41240E-02-2.23352E-04-2.37773E-01 3.50848E-14-2.12638E-13
 -1      1864 2.05894E+01 6.37505E-03-1.85726E-04-1.91745E-01 1.35327E-13-4.06419E-13
 -1      1865 2.05239E+01 1.18600E-02 3.57670E-04-1.86600E-01 1.01922E-13-3.83225E-13
 -1      1866 2.05519E+01 3.20746E-03-5.64345E-04-2.46117E-01 1.28013E-13-2.27625E-13
 -1      1867 2.04724E+01 1.54374E-02 5.85185E-04-1.76316E-01 8.78448E-14-4.25076E-13
 -1      1868 2.04116E+01 1.79279E-02 4.69307E-04-1.66648E-01 1.21387E-13-2.93338E-13
 -1      1869 2.04435E+01 1.94001E-02-7.42863E-04-2.31293E-01 1.15297E-13-2.25961E-13
 -1      1870 2.03670E+01 1.93760E-02 1.00268E-03-1.52590E-01 8.80937E-14-2.20822E-13
 -1      1871 2.03139E+01 1.98691E-02 5.13832E-04-1.41122E-01 1.77164E-13-2.42202E-13
 -1      1872 2.03470E+01 2.72199E-02-8.07138E-04-2.03721E-01 1.42526E-13-1.47171E-13
 -1      1873 2.02765E+01 1.99423E-02 1.16468E-03-1.26053E-01 2.20834E-13-2.51401E-13
 -1      1874 2.02322E+01 1.92387E-02 5.09898E-04-1.14548E-01 1.26248E-13-2.78566E-13
 -1      1875 2.02645E+01 2.93502E-02-7.95198E-04-1.70920E-01 1.74458E-13-2.76454E-13
 -1      1876 2.02017E+01 1.85178E-02 1.15960E-03-1.00174E-01 5.12745E-14-2.73722E-13
 -1      1877 2.01662E+01 1.71991E-02 4.74270E-04-8.96480E-02 1.86044E-15-2.75190E-13
 -1      1878 2.01962E+01 2.79923E-02-7.36062E-04-1.37827E-01 1.35206E-13-3.45756E-13
 -1      1879 2.01421E+01 1.60935E-02 1.05734E-03-7.68918E-02-8.81379E-14-2.98097E-13
 -1      1880 2.01145E+01 1.45485E-02 4.20661E-04-6.78341E-02-1.19027E-13-3.15509E-13
 -1      1881 2.01414E+01 2.47711E-02-6.51235E-04-1.07348E-01-3.83832E-14-3.00480E-13
 -1      1882 2.00959E+01 1.33252E-02 9.08199E-04-5.70791E-02-1.18204E-13-2.62712E-13
 -1      1883 2.00751E+01 1.17927E-02 3.59381E-04-4.96344E-02-8.41307E-14-2.24373E-13
 -1      1884 2.00984E+01 2.07907E-02-5.56035E-04-8.09269E-02-6.50587E-14-2.65906E-13
 -1      1885 2.00612E+01 1.06115E-02 7.45483E-04-4.09241E-02 2.31175E-14-2.18007E-13
 -1      1886 2.00461E+01 9.22257E-03 2.97570E-04-3.50304E-02 1.09110E-13-2.26261E-13
 -1      1887 2.00657E+01 1.67414E-02-4.60796E-04-5.90369E-02 3.03807E-15-1.43031E-13
 -1      1888 2.00359E+01 8.16814E-03 5.89333E-04-2.82130E-02 6.31123E-14-2.29832E-13
 -1      1889 2.00253E+01 6.98187E-03 2.39741E-04-2.36997E-02 3.33764E-14-2.83388E-13
 -1      1890 2.00414E+01 1.30132E-02-3.71955E-04-4.15571E-02 4.61144E-14-2.12921E-13
 -1      1891 2.00180E+01 6.08949E-03 4.50467E-04-1.85280E-02-1.07173E-14-2.82254E-13
 -1      1892 2.00109E+01 5.12006E-03 1.88388E-04-1.51795E-02-7.14629E-14-2.36494E-13
 -1      1893 2.00239E+01 9.79196E-03-2.93040E-04-2.80432E-02 6.18094E-14-1.81841E-13
 -1      1894 2.00060E+01 4.39484E-03 3.33321E-04-1.13746E-02-1.22527E-13-1.15313E-13
 -1      1895 2.00014E+01 3.63065E-03 1.44556E-04-8.96988E-03-1.65642E-13-3.22789E-14
 -1      1896 2.00116E+01 7.13438E-03-2.25541E-04-1.79088E-02-4.96995E-14-5.79110E-14
 -1      1897 1.99982E+01 3.06078E-03 2.38445E-04-6.25962E-03-1.34962E-13-3.05984E-14
 -1      1898 1.99956E+01 2.47726E-03 1.08326E-04-4.59408E-03-1.34675E-14-2.20859E-14
 -1      1899 2.00034E+01 5.02143E-03-1.69581E-04-1.05387E-02-9.32739E-14 2.42697E-14
 -1      1900 1.99936E+01 2.04270E-03 1.64196E-04-2.73326E-03-3.18529E-15-3.48011E-14
 -1      1901 1.99923E+01 1.61047E-03 7.91917E-05-1.62931E-03-2.23873E-14-5.06202E-14
 -1      1902 1.99982E+01 3.39458E-03-1.24418E-04-5.35501E-03-6.83640E-14-3.19834E-14
 -1      1903 1.99912E+01 1.28847E-03 1.07864E-04-4.08837E-04-3.87411E-14-2.23214E-13
 -1      1904 1.99908E+01 9.78128E-04 5.63441E-05 2.80884E-04-1.19527E-14-2.55085E-13
 -1      1905 1.99951E+01 2.17902E-03-8.88431E-05-1.84928E-03-1.07293E-13-3.29156E-14
 -1      1906 1.99903E+01 7.46512E-04 6.63966E-05 1.03235E-03 1.19296E-13-3.91534E-13
 -1      1907 1.99904E+01 5.31296E-04 3.88508E-05 1.42578E-03 4.87586E-14-3.19542E-13
 -1      1908 1.99936E+01 1.29779E-03-6.14603E-05 4.04745E-04 1.94087E-14-9.44179E-14
 -1      1909 1.99904E+01 3.70099E-04 3.68193E-05 1.84414E-03-7.25504E-14-3.15907E-13
 -1      1910 1.99909E+01 2.27028E-04 2.57734E-05 2.03286E-03-4.86104E-14-2.78501E-13
 -1      1911 1.99930E+01 6.79595E-04-4.08644E-05 1.75183E-03 1.51284E-14-2.80557E-13
 -1      1912 1.99910E+01 1.19215E-04 1.64638E-05 2.22288E-03 6.34054E-14-8.37826E-14
 -1      1913 1.99917E+01 2.93356E-05 1.62362E-05 2.27604E-03 9.18794E-14-3.09106E-14
 -1      1914 1.99931E+01 2.62433E-04-2.57425E-05 2.46247E-03 1.37708E-13 6.83170E-14
 -1      1915 1.99920E+01-3.91016E-05 3.05790E-06 2.31632E-03-8.74505E-14-1.46506E-13
 -1      1916 1.99928E+01-9.09360E-05 9.46038E-06 2.28471E-03-1.66319E-13-1.72902E-13
 -1      1917 1.99937E+01-5.29484E-06-1.49275E-05 2.74307E-03-1.16643E-13 2.73799E-13
 -1      1918 1.99931E+01-1.31195E-04-5.25984E-06 2.23253E-03-2.24659E-13-1.74222E-13
 -1      1919 1.99939E+01-1.56797E-04 4.77527E-06 2.15230E-03-2.50524E-13-2.05345E-13
 -1      1920 1.99944E+01-1.65179E-04-7.42083E-06 2.74690E-03-1.67879E-13 1.50409E-13
 -1      1921 1.99943E+01-1.77636E-04-9.96818E-06 2.04812E-03-3.13588E-13-2.48166E-13
 -1      1922 1.99950E+01-1.86048E-04 1.61411E-06 1.94399E-03-1.94564E-13-3.55090E-13
 -1      1923 1.99952E+01-2.49906E-04-2.39359E-06 2.58445E-03-3.52844E-13 9.72006E-14
 -1      1924 1.99954E+01-1.94220E-04-1.22100E-05 1.81513E-03-8.71922E-15-3.25659E-13
 -1      1925 1.99960E+01-1.92303E-04-4.98414E-07 1.70307E-03 1.79760E-13-3.35079E-13
 -1      1926 1.99960E+01-2.84702E-04 8.23510E-07 2.33253E-03-8.14276E-14 8.60442E-14
 -1      1927 1.99963E+01-1.92998E-04-1.28442E-05 1.56682E-03 4.12010E-13-3.33483E-13
 -1      1928 1.99969E+01-1.85981E-04-1.95843E-06 1.45608E-03 5.03489E-13-1.22220E-13
 -1      1929 1.99968E+01-2.88847E-04 2.75636E-06 2.04191E-03 2.81935E-13 4.59825E-14
 -1      1930 1.99972E+01-1.83245E-04-1.24881E-05 1.32199E-03 4.15753E-13-1.22889E-13
 -1      1931 1.99976E+01-1.75209E-04-3.07615E-06 1.21664E-03 4.41936E-13 1.37469E-13
 -1      1932 1.99975E+01-2.77151E-04 3.80550E-06 1.74335E-03 5.19149E-13 2.12411E-13
 -1      1933 1.99979E+01-1.72279E-04-1.15371E-05 1.08839E-03 3.43218E-13 4.56335E-14
 -1      1934 1.99983E+01-1.66500E-04-4.03969E-06 9.88400E-04 2.47191E-13 3.61209E-14
 -1      1935 1.99981E+01-2.61197E-04 4.27172E-06 1.45235E-03 3.39123E-13 1.79192E-13
 -1      1936 1.99985E+01-1.65994E-04-1.01662E-05 8.65231E-04 4.57937E-14-9.60995E-14
 -1      1937 1.99988E+01-1.65036E-04-4.84982E-06 7.67432E-04 1.00789E-14-9.12092E-14
 -1      1938 1.99986E+01-2.50221E-04 4.33906E-06 1.17290E-03 4.79429E-14-5.53120E-14
 -1      1939 1.99990E+01-1.68552E-04-8.31708E-06 6.45841E-04 6.18509E-14-2.23190E-13
 -1      1940 1.99992E+01-1.72665E-04-5.30358E-06 5.45295E-04 1.02423E-13-1.00753E-13
 -1      1941 1.99990E+01-2.51059E-04 3.88300E-06 9.01056E-04-7.64525E-14-9.54496E-14
 -1      1942 1.99994E+01-1.73881E-04-6.55403E-06 4.28641E-04 5.60623E-14-7.18979E-14
 -1      1943 1.99995E+01-1.77598E-04-5.95995E-06 3.26931E-04 1.17846E-13-9.44981E-14
 -1      1944 1.99996E+01-2.44867E-04 3.41121E-06 3.86965E-04 6.80301E-14-8.49283E-14
 -1      1945 1.99993E+01-2.54688E-04 5.22219E-06 6.37125E-04 3.82266E-14-5.90127E-14
 -1      1946 2.68165E+01-5.43875E-02-9.42714E-03-1.10865E+00-1.64502E-14 6.35283E-13
 -1      1947 2.65429E+01 1.21934E-01 1.51387E-02-9.79488E-01-9.72052E-15 6.33448E-13
 -1      1948 2.57541E+01 2.32375E-01-1.72417E-02-1.08609E+00-1.28439E-14 5.12857E-13
 -1      1949 2.75047E+01-5.37080E-01-2.12913E-02-7.23424E-01-2.55646E-14 6.49222E-13
 -1      1950 2.72295E+01-3.10662E-01 1.10502E-02-9.35333E-01-3.19415E-14 6.44294E-13
 -1      1951 2.63538E+01-3.76513E-01-1.70753E-02-1.18600E+00-3.55176E-14 5.15005E-13
 -1      1952 2.80483E+01-1.03963E+00-1.54807E-02 5.24688E-01-1.32144E-13 6.87131E-13
 -1      1953 2.80178E+01-8.57601E-01 8.07404E-03-1.25021E-01-8.76070E-14 6.56001E-13
 -1      1954 2.72655E+01-1.13863E+00-1.40824E-02-4.03198E-01-8.04287E-14 5.12651E-13
 -1      1955 2.79886E+01-9.97996E-01 8.06785E-03 2.29647E+00-1.32155E-13 7.24157E-13
 -1      1956 2.83622E+01-1.18619E+00-2.67960E-02 1.41942E+00-1.52350E-13 7.03368E-13
 -1      1957 2.80536E+01-1.66284E+00-6.15597E-02 1.38191E+00-1.89923E-13 5.02813E-13
 -1      1958 2.71097E+01 1.85966E-02-3.19720E-02 3.55419E+00-6.07292E-14 7.84664E-13
 -1      1959 2.80068E+01-6.86930E-01-3.97358E-02 2.96203E+00-8.81608E-14 7.48485E-13
 -1      1960 2.86141E+01-1.07760E+00-1.19116E-01 3.40426E+00-1.23568E-13 5.55847E-13
 -1      1961 2.57314E+01 1.70535E+00-1.56750E-01 2.19780E+00 8.46545E-15 7.49678E-13
 -1      1962 2.66370E+01 1.00971E+00-1.06187E-01 2.90198E+00-1.39611E-14 7.30646E-13
 -1      1963 2.80761E+01 9.94976E-01-1.23088E-01 3.43874E+00-2.98928E-14 5.29188E-13
 -1      1964 2.55339E+01 1.99456E+00-2.07378E-01-1.19549E+00 1.73916E-13 6.25298E-13
 -1      1965 2.56831E+01 2.14404E+00-1.15144E-01 3.96959E-01 8.46545E-14 6.94612E-13
 -1      1966 2.75258E+01 2.84443E+00-1.69419E-01 7.77271E-01 1.11300E-13 4.98917E-13
 -1      1967 2.68433E+01 4.81366E-01-1.29818E-01-3.45525E+00 2.96499E-13 5.94441E-13
 -1      1968 2.60796E+01 1.28241E+00-9.44146E-02-2.46381E+00 2.19963E-13 6.01717E-13
 -1      1969 2.78487E+01 2.12239E+00-1.20522E-01-2.62354E+00 2.06613E-13 4.31433E-13
 -1      1970 2.82084E+01-9.09774E-01 7.96999E-03-2.97211E+00 2.90917E-13 4.50612E-13
 -1      1971 2.72114E+01-3.99633E-01-6.48588E-02-3.17382E+00 3.21243E-13 5.52388E-13
 -1      1972 2.84596E+01-1.68954E-01-5.80120E-02-3.67780E+00 3.34427E-13 3.24026E-13
 -1      1973 2.84609E+01-1.15284E+00 6.29208E-02-1.07656E+00 1.53055E-13 2.32770E-13
 -1      1974 2.79072E+01-1.18400E+00-3.97028E-02-1.84965E+00 1.94681E-13 3.82267E-13
 -1      1975 2.83398E+01-1.59833E+00-4.11745E-02-2.17987E+00 2.56319E-13 2.29203E-13
 -1      1976 2.77414E+01-7.41248E-01 4.42223E-02 5.63733E-01 1.69038E-13 1.25093E-13
 -1      1977 2.77833E+01-9.83177E-01-2.25187E-02-1.11530E-01 1.59935E-13 1.90140E-13
 -1      1978 2.74489E+01-1.55172E+00-4.24246E-02-1.09005E-01 2.23477E-13 5.72693E-14
 -1      1979 2.65782E+01-2.83077E-01 1.16919E-02 1.40770E+00-1.23547E-14 1.42216E-13
 -1      1980 2.70351E+01-4.88689E-01-1.30043E-02 1.04940E+00 2.65517E-14 1.55282E-13
 -1      1981 2.62795E+01-8.72421E-01-3.31985E-02 1.28857E+00 7.35557E-14 1.19441E-13
 -1      1982 2.53419E+01 8.79681E-04-6.00095E-03 1.61537E+00-1.04788E-13 3.73881E-13
 -1      1983 2.59773E+01-1.09715E-01-6.17004E-03 1.51581E+00-2.19625E-14 2.64929E-13
 -1      1984 2.51389E+01-2.62049E-01-1.76611E-02 1.86349E+00-8.04200E-14 2.41796E-13
 -1      1985 2.42064E+01 1.24193E-01-1.05424E-02 1.48484E+00-1.07308E-13 2.60521E-13
 -1      1986 2.48545E+01 8.47207E-02-5.60106E-05 1.52675E+00-8.45444E-14 3.34562E-13
 -1      1987 2.41229E+01 7.99976E-02-5.75386E-03 1.89271E+00-6.79454E-14 2.45775E-13
 -1      1988 2.32374E+01 1.54122E-01-9.14407E-03 1.23006E+00 1.46305E-13 1.96156E-13
 -1      1989 2.38131E+01 1.51835E-01 4.25424E-03 1.32661E+00-2.72265E-15 2.04603E-13
 -1      1990 2.32490E+01 2.12269E-01 2.25423E-04 1.66152E+00 6.40850E-15 1.54326E-13
 -1      1991 2.24472E+01 1.42256E-01-6.37276E-03 9.63122E-01 7.79585E-15 2.62459E-13
 -1      1992 2.29210E+01 1.54833E-01 6.40071E-03 1.06758E+00 1.07426E-13 2.14816E-13
 -1      1993 2.25171E+01 2.31459E-01 2.20726E-03 1.35085E+00 7.14645E-14 1.34655E-13
 -1      1994 2.18226E+01 1.16898E-01-3.98474E-03 7.29943E-01-1.75519E-13 2.58270E-13
 -1      1995 2.21950E+01 1.33008E-01 6.81296E-03 8.22564E-01-9.74377E-14 2.46039E-13
 -1      1996 2.19198E+01 2.03738E-01 2.24268E-03 1.05068E+00-6.71563E-14 1.52368E-13
 -1      1997 2.13396E+01 9.07612E-02-2.32700E-03 5.42430E-01-5.07459E-14 2.57975E-13
 -1      1998 2.16242E+01 1.05680E-01 6.21880E-03 6.17626E-01-1.40894E-13 2.69919E-13
 -1      1999 2.14433E+01 1.63399E-01 1.61316E-03 7.95568E-01-1.48419E-13 2.04435E-13
 -1      2000 2.09721E+01 6.84046E-02-1.27932E-03 3.97984E-01-1.01691E-13 2.62977E-13
 -1      2001 2.11856E+01 8.06697E-02 5.21863E-03 4.56338E-01-1.10791E-13 2.50044E-13
 -1      2002 2.10706E+01 1.25017E-01 9.30590E-04 5.92200E-01-4.33542E-14 9.11386E-14
 -1      2003 2.06961E+01 5.07439E-02-6.48832E-04 2.89286E-01 3.45992E-13 2.49130E-13
 -1      2004 2.08541E+01 6.02787E-02 4.16922E-03 3.33481E-01 1.07390E-13 2.86569E-13
 -1      2005 2.07836E+01 9.32855E-02 4.06567E-04 4.35665E-01 9.68490E-14 5.72520E-14
 -1      2006 2.04909E+01 3.73207E-02-2.81859E-04 2.08542E-01 6.93022E-14 7.52319E-14
 -1      2007 2.06067E+01 4.45266E-02 3.23385E-03 2.41570E-01 2.76738E-13 2.32321E-13
 -1      2008 2.05655E+01 6.86771E-02 6.71356E-05 3.17547E-01 2.72981E-13 1.02837E-14
 -1      2009 2.03398E+01 2.73086E-02-7.53673E-05 1.49014E-01-1.33841E-13 2.88507E-14
 -1      2010 2.04239E+01 3.26782E-02 2.46299E-03 1.73508E-01-1.00614E-13 3.38073E-14
 -1      2011 2.04016E+01 5.01855E-02-1.25131E-04 2.29445E-01-4.76375E-14-3.83499E-15
 -1      2012 2.02297E+01 1.99031E-02 3.53000E-05 1.05350E-01-1.07030E-13 3.08163E-13
 -1      2013 2.02902E+01 2.38780E-02 1.85374E-03 1.23423E-01-1.09647E-13 1.00552E-13
 -1      2014 2.02799E+01 3.65003E-02-2.17157E-04 1.64209E-01-1.69004E-13 6.09433E-14
 -1      2015 2.01505E+01 1.44418E-02 8.96141E-05 7.34660E-02 6.80933E-15 3.31380E-13
 -1      2016 2.01935E+01 1.73756E-02 1.38323E-03 8.67435E-02-6.86147E-14 3.78450E-13
 -1      2017 2.01905E+01 2.64379E-02-2.47335E-04 1.16167E-01-8.85910E-14 1.39060E-13
 -1      2018 2.00943E+01 1.04166E-02 1.11375E-04 5.03092E-02-2.90115E-14 3.01571E-13
 -1      2019 2.01244E+01 1.25785E-02 1.02453E-03 6.00136E-02 7.11887E-15 3.17983E-13
 -1      2020 2.01257E+01 1.90548E-02-2.42525E-04 8.09748E-02 4.30907E-14 1.73513E-13
 -1      2021 2.00550E+01 7.45053E-03 1.14836E-04 3.36102E-02 4.10744E-14 2.90033E-13
 -1      2022 2.00757E+01 9.04053E-03 7.53144E-04 4.06552E-02-1.58711E-15 3.74364E-13
 -1      2023 2.00793E+01 1.36392E-02-2.19987E-04 5.53560E-02-1.78484E-14 2.13797E-13
 -1      2024 2.00283E+01 5.26722E-03 1.08494E-04 2.16844E-02 2.20967E-14 1.82825E-13
 -1      2025 2.00422E+01 6.43290E-03 5.48847E-04 2.67522E-02-2.53114E-14 2.98016E-13
 -1      2026 2.00469E+01 9.66842E-03-1.90150E-04 3.68575E-02-1.37465E-14 1.72804E-13
 -1      2027 2.00106E+01 3.66478E-03 9.73906E-05 1.32789E-02-2.13000E-14 6.55436E-14
 -1      2028 2.00196E+01 4.51487E-03 3.95724E-04 1.68797E-02 2.80014E-15 1.85255E-13
 -1      2029 2.00246E+01 6.76164E-03-1.58954E-04 2.36435E-02 1.43928E-14 1.03024E-13
 -1      2030 1.99994E+01 2.49500E-03 8.44794E-05 7.45879E-03-2.85213E-13 3.15570E-13
 -1      2031 2.00049E+01 3.10997E-03 2.81507E-04 9.97563E-03-2.40144E-13 1.44396E-13
 -1      2032 2.00097E+01 4.64162E-03-1.29545E-04 1.43384E-02-2.46536E-13 1.70591E-13
 -1      2033 1.99927E+01 1.64830E-03 7.14447E-05 3.52463E-03 8.50069E-14 3.36556E-13
 -1      2034 1.99959E+01 2.08812E-03 1.96832E-04 5.24559E-03-1.31313E-13 3.48172E-13
 -1      2035 2.00003E+01 3.10543E-03-1.03414E-04 7.90918E-03-1.49779E-13 3.00060E-13
 -1      2036 1.99892E+01 1.04288E-03 5.92019E-05 9.52482E-04 1.07151E-13 2.85106E-13
 -1      2037 1.99907E+01 1.35257E-03 1.34564E-04 2.09464E-03 2.03467E-13 3.16528E-13
 -1      2038 1.99946E+01 2.00330E-03-8.10867E-05 3.57899E-03 1.81558E-13 1.97562E-13
 -1      2039 1.99878E+01 6.17096E-04 4.82095E-05-6.49375E-04 3.51024E-14-1.71933E-14
 -1      2040 1.99882E+01 8.30648E-04 8.92552E-05 7.72510E-05 6.57509E-14 5.35697E-14
 -1      2041 1.99915E+01 1.22361E-03-6.25376E-05 7.63973E-04 1.53673E-13 4.89436E-14
 -1      2042 1.99877E+01 3.24199E-04 3.86523E-05-1.57250E-03 3.21607E-13-2.71707E-13
 -1      2043 1.99875E+01 4.67356E-04 5.67336E-05-1.13914E-03 1.84141E-13-1.86024E-13
 -1      2044 1.99903E+01 6.82452E-04-4.74598E-05-9.73368E-04 2.81861E-13-2.99009E-13
 -1      2045 1.99885E+01 1.28708E-04 3.05483E-05-2.03223E-03 1.25505E-13-4.15432E-13
 -1      2046 1.99878E+01 2.20939E-04 3.37937E-05-1.80127E-03 2.73596E-13-3.90268E-13
 -1      2047 1.99901E+01 3.16466E-04-3.54303E-05-1.95891E-03 2.71064E-13-4.39777E-13
 -1      2048 1.99897E+01 3.70142E-06 2.38165E-05-2.18597E-03-2.85774E-13-3.80509E-13
 -1      2049 1.99888E+01 5.96797E-05 1.79730E-05-2.09051E-03-1.20417E-13-3.69823E-13
 -1      2050 1.99907E+01 7.77530E-05-2.59956E-05-2.43331E-03-1.23578E-13-4.25107E-13
 -1      2051 1.99910E+01-7.11917E-05 1.83217E-05-2.14707E-03-6.99120E-14-3.54626E-13
 -1      2052 1.99902E+01-4.04625E-05 7.38165E-06-2.13857E-03-2.35917E-13-4.10513E-13
 -1      2053 1.99916E+01-6.98483E-05-1.87162E-05-2.57223E-03-2.17583E-13-6.09597E-13
 -1      2054 1.99925E+01-1.11319E-04 1.39015E-05-1.99559E-03-6.02215E-14-1.36868E-13
 -1      2055 1.99916E+01-9.76479E-05 5.73049E-07-2.03947E-03-9.60797E-14-2.81276E-13
 -1      2056 1.99927E+01-1.53548E-04-1.31906E-05-2.50187E-03-1.35063E-13-4.15856E-13
 -1      2057 1.99938E+01-1.28193E-04 1.03819E-05-1.78652E-03-2.89135E-13 1.83172E-13
 -1      2058 1.99930E+01-1.25531E-04-3.55586E-06-1.85877E-03-1.11684E-13 1.14317E-13
 -1      2059 1.99939E+01-1.93734E-04-9.06545E-06-2.31092E-03-2.62831E-13-9.10837E-14
 -1      2060 1.99951E+01-1.30436E-04 7.58545E-06-1.55598E-03-6.05184E-14 1.39868E-13
 -1      2061 1.99944E+01-1.34346E-04-5.84281E-06-1.64063E-03-1.68616E-13 2.02577E-13
 -1      2062 1.99950E+01-2.05621E-04-6.03861E-06-2.05983E-03-2.37474E-13 1.78099E-13
 -1      2063 1.99962E+01-1.24556E-04 5.33641E-06-1.32602E-03-3.31322E-13 1.35353E-13
 -1      2064 1.99956E+01-1.31778E-04-6.92058E-06-1.41315E-03-1.50061E-13 9.39551E-14
 -1      2065 1.99960E+01-2.00576E-04-3.85623E-06-1.78778E-03-1.20570E-13-8.64692E-14
 -1      2066 1.99971E+01-1.15608E-04 3.47074E-06-1.10792E-03 1.71131E-13-2.06626E-14
 -1      2067 1.99966E+01-1.23700E-04-7.25833E-06-1.19234E-03-1.97057E-13 7.03600E-14
 -1      2068 1.99969E+01-1.87205E-04-2.30413E-06-1.51792E-03-1.62241E-13-1.69775E-13
 -1      2069 1.99979E+01-1.07754E-04 1.86145E-06-9.04653E-04 4.79909E-13-1.74295E-13
 -1      2070 1.99975E+01-1.14797E-04-7.18505E-06-9.84932E-04 4.74976E-13-1.89264E-15
 -1      2071 1.99977E+01-1.72267E-04-1.19316E-06-1.26121E-03 3.93809E-13-2.39492E-13
 -1      2072 1.99986E+01-1.04431E-04 5.59051E-07-7.12282E-04 4.00861E-13-8.33542E-14
 -1      2073 1.99982E+01-1.09032E-04-6.87601E-06-7.90308E-04 3.62293E-13-1.49270E-13
 -1      2074 1.99983E+01-1.61370E-04-3.40160E-07-1.01908E-03 3.57125E-13-2.42444E-13
 -1      2075 1.99991E+01-1.07855E-04-2.65167E-07-5.22617E-04 1.84757E-13-3.32523E-14
 -1      2076 1.99988E+01-1.09073E-04-6.23216E-06-6.02421E-04 1.84045E-13 5.82472E-14
 -1      2077 1.99988E+01-1.58152E-04 6.25756E-07-7.85850E-04 1.86391E-13-1.08836E-13
 -1      2078 1.99994E+01-1.18690E-04-2.13025E-06-3.26983E-04 6.03211E-13-3.17451E-14
 -1      2079 1.99993E+01-1.15426E-04-4.84164E-06-4.13041E-04 4.09707E-13-4.23195E-15
 -1      2080 1.99992E+01-1.65291E-04 1.35164E-06-5.53539E-04 4.61100E-13-6.27609E-15
 -1      2081 1.99996E+01-1.24550E-04-4.10700E-06-1.77252E-04-4.37046E-14 1.46826E-13
 -1      2082 1.99995E+01-1.27810E-04-3.51360E-06-2.64562E-04 4.68370E-13 1.15515E-13
 -1      2083 1.99995E+01-1.79210E-04 1.78772E-06-3.66247E-04 3.70930E-13 3.82568E-13
 -1      2084 1.99997E+01-1.85164E-04 1.13392E-07-2.27403E-04-7.57045E-14 8.01986E-13
 -1      2085 1.99998E+01-1.10183E-03 2.34232E-06-6.04033E-04 1.91459E-13-6.25696E-14
 -1      2086 1.99998E+01-9.08751E-04-3.15196E-06-5.90715E-04-3.10598E-14 2.58000E-13
 -1      2087 1.99997E+01-7.35421E-04 5.38750E-07-5.51932E-04-1.39111E-13 2.72683E-13
 -1      2088 1.99997E+01-5.60572E-04-4.29159E-06-4.93928E-04-1.85303E-13 4.16610E-13
 -1      2089 1.99997E+01-8.17354E-04-5.95367E-08-7.30239E-04-1.98655E-13 4.18580E-13
 -1      2090 1.99997E+01-4.34389E-04-7.86932E-07-4.13059E-04-1.70315E-13 4.18782E-13
 -1      2091 1.99996E+01-2.95435E-04-3.86413E-06-3.26057E-04-1.74150E-13 7.45056E-13
 -1      2092 1.99996E+01-2.96512E-04-2.70027E-06-4.00889E-04 1.47769E-14 6.42866E-13
 -1      2093 1.99996E+01-5.25170E-04 1.37275E-06-5.93101E-04-2.17451E-13 4.80503E-13
 -1      2094 1.99999E+01-1.44985E-03 4.21150E-06-5.65807E-04-7.35331E-14-6.72419E-13
 -1      2095 1.99998E+01-1.26649E-03-3.65018E-07-5.91951E-04 2.55265E-13-5.30740E-13
 -1      2096 1.99998E+01-1.15289E-03-1.74625E-06-7.57068E-04-6.87854E-14-2.28106E-13
 -1      2097 1.99999E+01-1.74910E-03 5.80317E-06-4.48019E-04-1.02512E-13-2.32434E-13
 -1      2098 1.99999E+01-1.59502E-03 2.35645E-06-5.07572E-04-2.57710E-14-3.71144E-13
 -1      2099 1.99999E+01-1.46258E-03-3.51859E-06-6.77002E-04 1.65040E-13-4.49101E-13
 -1      2100 2.00000E+01-1.95628E-03 6.74812E-06-2.70996E-04-1.30359E-13 4.61487E-13
 -1      2101 1.99999E+01-1.85535E-03 4.68061E-06-3.53784E-04-1.29800E-13 1.96929E-13
 -1      2102 2.00000E+01-1.71439E-03-5.08568E-06-5.04879E-04 1.76419E-13 1.58577E-15
 -1      2103 2.00000E+01-2.04666E-03 6.90964E-06-5.96990E-05 8.38469E-14 5.04073E-13
 -1      2104 2.00000E+01-2.01204E-03 6.24668E-06-1.54342E-04-9.04882E-14 5.91987E-13
 -1      2105 2.00000E+01-1.87693E-03-6.08051E-06-2.67600E-04 7.50951E-14 6.20242E-13
 -1      2106 2.00000E+01-2.00970E-03 6.21052E-06 1.58861E-04 1.73308E-14 3.66940E-14
 -1      2107 2.00000E+01-2.04584E-03 6.93327E-06 6.44099E-05 6.91209E-14 4.81165E-13
 -1      2108 2.00000E+01-1.93207E-03-6.40313E-06 3.05803E-06-1.79075E-13 5.64829E-13
 -1      2109 1.99999E+01-1.85018E-03 4.69023E-06 3.57282E-04-3.01948E-13-7.72976E-13
 -1      2110 2.00000E+01-1.95248E-03 6.70064E-06 2.75061E-04-1.16631E-13-3.73289E-13
 -1      2111 2.00000E+01-1.87378E-03-6.02385E-06 2.73179E-04-2.04397E-13-2.77793E-13
 -1      2112 1.99999E+01-1.59312E-03 2.35846E-06 5.07412E-04-2.09659E-13-3.60087E-13
 -1      2113 1.99999E+01-1.74506E-03 5.74404E-06 4.49355E-04-2.24263E-13-6.36168E-13
 -1      2114 2.00000E+01-1.71053E-03-5.09488E-06 5.07387E-04-2.15109E-13-7.69011E-13
 -1      2115 1.99998E+01-1.26154E-03-4.45048E-07 5.91633E-04 4.70004E-15 2.44265E-13
 -1      2116 1.99999E+01-1.44804E-03 4.19680E-06 5.65505E-04 1.18608E-14-5.88175E-14
 -1      2117 1.99999E+01-1.45999E-03-3.46389E-06 6.76833E-04 1.63250E-13-1.42987E-13
 -1      2118 1.99998E+01-9.00782E-04-3.16744E-06 5.89250E-04-5.49069E-14 3.60074E-13
 -1      2119 1.99998E+01-1.09395E-03 2.36234E-06 6.03263E-04-8.03070E-14 3.56829E-13
 -1      2120 1.99998E+01-1.14739E-03-1.48796E-06 7.56455E-04 1.41674E-13 2.62672E-13
 -1      2121 1.99997E+01-5.46543E-04-1.74496E-06 4.93651E-04-1.05791E-13 4.11399E-14
 -1      2122 1.99997E+01-7.28253E-04 7.95752E-07 5.49392E-04-4.51641E-14 1.93588E-13
 -1      2123 1.99997E+01-8.10610E-04 3.54658E-08 7.26784E-04 5.86638E-14 1.60985E-13
 -1      2124 1.07288E+01-5.98077E+00-2.11478E-01 6.00194E+00 4.30322E-13 4.36221E-13
 -1      2125 6.79811E+00-7.08753E+00-3.93414E-01 4.77427E+00 2.72282E-13 4.06258E-13
 -1      2126 3.55401E-01-6.69067E+00-2.98108E-01-1.19005E-01 3.13055E-13 3.61544E-13
 -1      2127 4.62789E-01-7.04431E+00-3.62163E-01-1.70770E+00 3.02369E-13 1.98896E-13
 -1      2128 3.38650E+00-6.44335E+00-2.61943E-01 3.65506E+00 3.49332E-13 2.92932E-13
 -1      2129 1.24510E+00-7.19037E+00-4.09650E-01 1.87530E+00 2.94209E-13 3.07643E-13
 -1      2130 2.04683E+01-4.38420E+00-5.44060E-02 6.29274E+00 5.56666E-13 1.86240E-13
 -1      2131 1.56194E+01-6.10235E+00-3.38605E-01 5.69965E+00 5.14921E-13 2.69729E-13
 -1      2132 2.03690E+01-2.63520E+00-2.10200E-01-6.77464E+00 2.32703E-13 2.86271E-13
 -1      2133 2.45433E+01-1.33357E+00 1.71530E-02-6.97231E+00 1.39333E-13 2.91156E-13
 -1      2134 2.10872E+01-4.47395E+00 7.38005E-02-6.78773E+00 2.94098E-13 2.70034E-13
 -1      2135 1.35371E+00-7.29695E+00-4.03538E-01-3.06749E+00 2.95708E-13 9.64229E-14
 -1      2136 3.06334E+00-6.17348E+00-2.53286E-01-4.50380E+00 2.29705E-13 2.28151E-14
 -1      2137 2.21006E+00-4.45812E+00-1.61654E-01-2.88626E+00 1.68698E-13 1.82188E-13
 -1      2138 2.94597E+01-2.26317E+00 5.19622E-02 4.85440E+00 4.87721E-13 4.24105E-14
 -1      2139 2.39086E+01-3.89713E+00-2.67577E-01 5.03260E+00 5.76927E-13 1.20182E-13
 -1      2140 2.47484E+01-5.56555E+00 2.69541E-02 4.72522E+00 4.31433E-13-3.16969E-14
 -1      2141 2.06567E+01 3.52871E+00-2.61675E-02-1.31821E+00 1.59053E-13-2.51764E-13
 -1      2142 2.09113E+01 3.53490E+00-3.43995E-02-1.70169E+00 1.35921E-13-3.00031E-13
 -1      2143 2.13768E+01 2.75091E+00-1.28185E-02-1.80720E+00 1.21363E-13-2.99039E-13
 -1      2144 2.08657E+01 2.84665E+00-1.56697E-02-1.13301E+00 1.73463E-13-2.18232E-13
 -1      2145 4.18972E+01 5.00548E+00 3.62160E-01 5.74669E-01 3.14637E-13 9.65339E-14
 -1      2146 3.89249E+01 3.63090E+00 1.29018E-01 1.28758E+00 4.46115E-13 6.15064E-14
 -1      2147 4.14342E+01 7.06463E+00 2.21730E-01-3.33988E-01 9.39249E-14 1.20827E-13
 -1      2148 4.23462E+01 6.42037E+00 4.22661E-01 3.42066E-01 2.05724E-13 1.16962E-13
 -1      2149 3.75102E+01 5.88593E+00 3.37972E-01-1.54321E+00 3.28404E-13 2.80109E-13
 -1      2150 4.19788E+01 5.86361E+00 3.95578E-01-4.43433E-01 6.11178E-14-4.04121E-14
 -1      2151 4.19705E+01 6.87950E+00 2.97001E-01 3.08427E-01 7.61613E-14 5.29299E-14
 -1      2152 3.75347E+01 2.58779E+00 1.11049E-01-1.17401E+00-2.70201E-14-1.31006E-14
 -1      2153 4.13615E+01 4.29230E+00 4.26679E-01-9.44015E-01-1.28508E-14-8.33222E-14
 -1      2154 3.79148E+01 5.11203E+00 3.37546E-01 1.49547E+00-9.54792E-15 2.10942E-13
 -1      2155 3.07568E+01-1.76831E+00-4.60283E-02-3.24543E+00-1.40304E-13-9.55902E-14
 -1      2156 3.55129E+01 4.10329E-01 2.56914E-01-2.75155E+00-7.41907E-14-6.41709E-14
 -1      2157 2.01333E+01-4.67371E+00-3.64662E-01-5.42937E+00-2.14717E-13-2.00950E-13
 -1      2158 2.60723E+01-3.52514E+00-1.06651E-01-5.17070E+00-1.81855E-13-1.92790E-13
 -1      2159 1.12759E+01-6.23313E+00-4.53021E-01-5.32414E+00-2.39808E-13-1.77712E-13
 -1      2160 1.60168E+01-4.75745E+00-1.95913E-01-6.32297E+00-2.04614E-13-2.24099E-13
 -1      2161 2.07480E+01-5.62621E+00-3.06169E-02-5.64264E+00-2.34590E-13-2.12913E-13
 -1      2162 3.89146E+00-6.86242E+00-4.96774E-01-3.43171E+00-1.76525E-13-8.68194E-14
 -1      2163 7.05844E+00-5.71746E+00-2.80919E-01-4.97102E+00-1.61537E-13-1.48243E-13
 -1      2164 6.23688E-01-6.13486E+00-3.67195E-01-8.85980E-01-1.21445E-13-2.77556E-16
 -1      2165 1.73139E+00-6.51482E+00-4.22063E-01-2.24801E+00-1.50879E-13-4.08007E-14
 -1      2166 4.70662E+00-4.49642E+00-1.80462E-01-3.85250E+00-4.56024E-14-9.84768E-14
 -1      2167 9.55346E-01-6.09959E+00-3.92917E-01 2.96767E+00-1.41331E-13 4.22995E-14
 -1      2168 2.47154E-01-5.94798E+00-3.52319E-01 1.55848E+00-1.25802E-13 6.41154E-14
 -1      2169 5.51098E+00-4.76814E+00-2.11697E-01 5.74453E+00-6.82232E-14 5.49005E-14
 -1      2170 3.00563E+00-6.06832E+00-3.97784E-01 4.39994E+00-9.85323E-14 3.80806E-14
 -1      2171 1.29276E+01-3.33620E+00-8.90294E-02 7.43705E+00-4.40759E-14 1.88655E-13
 -1      2172 8.66551E+00-5.10241E+00-3.77667E-01 6.20540E+00-7.69385E-14 1.12878E-13
 -1      2173 2.23525E+01-1.14992E+00 7.23282E-02 7.36981E+00-6.35048E-14 2.56128E-13
 -1      2174 1.77276E+01-3.07406E+00-2.11128E-01 6.81189E+00-7.60503E-14 2.25098E-13
 -1      2175 3.03640E+01 1.22923E+00 1.30654E-01 5.78891E+00-4.72677E-14 3.37508E-13
 -1      2176 2.54643E+01-2.36549E-01-1.02731E-01 6.16696E+00-5.87308E-14 2.51743E-13
 -1      2177 2.57149E+01-2.35486E+00 8.77788E-02 5.42296E+00-4.55191E-14 3.15248E-13
 -1      2178 3.74614E+01 4.59244E+00 3.09047E-01 3.45444E+00-6.62803E-14 3.72480E-13
 -1      2179 3.32473E+01 3.19144E+00 2.98765E-02 3.88934E+00-6.19851E-14 3.21965E-13
 -1      2180 3.99206E+01 6.81926E+00 2.23600E-01 1.04735E+00-7.82152E-14 4.10560E-13
 -1      2181 3.85491E+01 5.95167E+00 2.11444E-01 2.52103E+00-7.47458E-14 4.03511E-13
 -1      2182 3.51763E+01 5.33219E+00 2.66197E-01 4.90084E-01-1.26926E-13 2.57128E-13
 -1      2183 4.07704E+01 7.49539E+00 2.70657E-01-7.11117E-01-6.02851E-14 4.18859E-13
 -1      2184 3.99658E+01 7.69620E+00 1.85635E-01 4.46525E-01-6.22280E-14 3.94879E-13
 -1      2185 3.86428E+01 6.51047E+00 1.45787E-01-2.11772E+00-5.97300E-14 3.48166E-13
 -1      2186 4.07753E+01 7.05419E+00 3.12563E-01-1.11820E+00-6.73905E-14 3.72841E-13
 -1      2187 3.61490E+01 8.42688E+00 2.84563E-01-4.15914E-02-4.35763E-14 2.65954E-13
 -1      2188 3.42216E+01 3.53185E+00 2.17637E-02-3.34491E+00-1.04083E-15 3.56881E-13
 -1      2189 3.76501E+01 4.94721E+00 2.82445E-01-2.78993E+00-1.37113E-14 3.70926E-13
 -1      2190 2.82694E+01 8.39793E-02-4.70996E-02-5.32898E+00 8.58758E-14 2.70117E-13
 -1      2191 3.23387E+01 1.60121E+00 1.51986E-01-4.87396E+00 8.32667E-16 3.00759E-13
 -1      2192 6.23827E+00-6.50311E+00-3.44835E-01-5.69529E+00 2.35423E-13 7.51621E-14
 -1      2193 9.31301E+00-5.07272E+00-1.42246E-01-6.75025E+00 1.99174E-13 1.21181E-13
 -1      2194 3.81095E+01 1.91571E+00 3.42617E-01 2.42579E+00 5.42168E-13-9.02611E-14
 -1      2195 3.32155E+01-9.41151E-02-5.35905E-02 2.60205E+00 5.48728E-13 1.68754E-14
 -1      2196 3.64525E+01 2.20744E+00 2.63618E-01-1.15125E+00 5.42011E-13 1.36058E-13
 -1      2197 6.36831E+00-5.09897E+00-1.21300E-01-6.09029E+00 1.62648E-13 1.22929E-13
 -1      2198 1.39775E+01-5.34642E+00-7.20747E-02-7.51719E+00 2.52465E-13 1.36547E-13
 -1      2199 2.23087E+01 9.71902E-01-2.89268E-02-1.77451E+00-3.72966E-15-4.60907E-13
 -1      2200 2.21855E+01 1.10053E+00-1.69898E-02-1.93740E+00 1.98279E-14-3.82208E-13
 -1      2201 6.91486E+00-5.55255E+00-1.38378E-01 5.02257E+00 1.58484E-13 3.37896E-13
 -1      2202 2.19903E+00-4.55690E+00-1.41434E-01 1.19714E+00 1.59789E-13 3.00426E-13
 -1      2203 1.99996E+01-4.44658E-04-2.71409E-06 4.72905E-04-1.32155E-14 5.69775E-14
 -1      2204 1.59025E+01-6.25845E+00-8.24773E-02 6.31816E+00 2.66398E-13 1.93328E-13
 -1      2205 2.75299E+01-2.32503E+00 1.24632E-01-4.74732E+00 2.47885E-13 2.27707E-13
 -1      2206 3.53223E+01 5.90073E+00 2.24964E-01-2.09898E-01-2.77556E-16 2.20435E-13
 -1      2207 3.63271E+01 7.95180E+00 2.32798E-01-3.24793E-02-6.37268E-14 2.81511E-13
 -1      2208 3.18091E+01 1.12023E+00 1.60030E-01 2.76207E+00-9.90978E-14 3.06533E-13
 -1      2209 1.75804E+01-4.03895E+00-1.91445E-02 7.29494E+00 8.21565E-15 2.60791E-13
 -1      2210 9.18247E+00-4.20401E+00-9.53376E-02 7.02735E+00 5.94524E-14 1.66395E-13
 -1      2211 1.45120E+00-4.36924E+00-1.77320E-01 2.86244E-01-3.85716E-14 2.53131E-14
 -1      2212 2.90623E+00-2.17013E+00 1.31390E-02-1.15437E+00 7.18869E-14-6.71685E-15
 -1      2213 2.42603E+00-1.99784E+00 1.67961E-03 1.47317E+00 9.06636E-14 4.24105E-14
 -1      2214 1.16653E+01-5.55984E+00-1.49544E-01-5.94050E+00-1.31783E-13-1.97994E-13
 -1      2215 3.56890E+01 6.63830E-01 2.05028E-01 5.06005E-01-1.21514E-13 8.45435E-14
 -1      2216 3.22563E+01-2.56491E+00 1.14947E-01 1.60221E+00 5.06706E-13-3.52496E-14
 -1      2217 3.80515E+01 7.12378E+00 2.75208E-01 1.30213E-01 1.32450E-13 2.62443E-13
 -1      2218 2.92062E+01-3.62724E+00-4.99575E-02-3.27293E+00-1.70974E-13-8.45990E-14
 -1      2219 3.08732E+01-3.88398E+00-3.17142E-01-9.43686E-01-1.98397E-13 3.86913E-14
 -1      2220 2.76115E+01-4.88458E+00 8.97335E-02-3.12266E+00-2.19824E-13-6.05627E-14
 -1      2221 3.52964E+00-3.74961E+00-1.40865E-01 4.62715E+00 2.80886E-14 8.18234E-14
 -1      2222 3.27037E+01 1.62542E+00 1.74361E-01-1.77666E+00 7.55368E-14 2.36366E-13
 -1      2223 2.46247E+01 3.32068E-01-9.31037E-04-1.39467E+00-5.39933E-15 4.06904E-13
 -1      2224 2.44506E+01 7.35320E-01 2.55339E-02-1.11734E+00 1.05315E-14 4.19135E-13
 -1      2225 1.94551E+01 2.44510E+00-9.64156E-03 7.48755E-01 2.39037E-13-1.93534E-14
 -1      2226 1.99946E+01 2.34668E+00-6.47515E-03 3.48137E-01 2.23425E-13-6.40139E-14
 -1      2227 2.04329E+01 2.27504E+00-8.22178E-03-1.19856E-01 2.09874E-13-1.02321E-13
 -1      2228 2.07845E+01 2.22962E+00-1.76226E-02-5.21543E-01 1.95775E-13-1.44003E-13
 -1      2229 2.05691E+01 1.68998E+00-1.28588E-02 1.74743E-01 2.06621E-13-7.06423E-14
 -1      2230 1.65238E+01 3.42709E+00-2.39247E-02 1.99559E+00 2.70458E-13 6.18056E-14
 -1      2231 1.73297E+01 3.20006E+00 1.98520E-02 1.82968E+00 2.69165E-13 3.63889E-14
 -1      2232 1.51456E+01 4.11492E+00-2.58704E-02 1.96784E+00 2.80882E-13 1.04166E-13
 -1      2233 1.57860E+01 3.89903E+00 2.40146E-02 2.02346E+00 2.79377E-13 8.05983E-14
 -1      2234 1.61910E+01 3.21224E+00-8.36120E-03 2.32809E+00 2.70399E-13 7.04664E-14
 -1      2235 1.45465E+01 4.61107E+00-1.57752E-02 1.44407E+00 2.77405E-13 1.36477E-13
 -1      2236 1.47243E+01 4.49319E+00 1.47126E-02 1.68109E+00 2.81533E-13 1.17973E-13
 -1      2237 1.48067E+01 4.00323E+00 1.15418E-02 2.08359E+00 2.74817E-13 1.10491E-13
 -1      2238 1.51559E+01 4.66512E+00 5.08544E-06 6.66201E-01 2.63313E-13 1.84332E-13
 -1      2239 1.46843E+01 4.69909E+00-5.91317E-03 9.59031E-01 2.68352E-13 1.50875E-13
 -1      2240 1.43929E+01 4.44419E+00 2.72210E-02 1.26541E+00 2.70092E-13 1.38889E-13
 -1      2241 1.70448E+01 4.17546E+00 7.84140E-03 2.80860E-02 2.28653E-13 2.53785E-13
 -1      2242 1.59504E+01 4.38482E+00-2.70150E-02 2.12492E-01 2.37740E-13 2.12148E-13
 -1      2243 1.53534E+01 4.27075E+00 2.47149E-02 2.56662E-01 2.45793E-13 1.82631E-13
 -1      2244 1.98479E+01 3.25910E+00 7.19875E-04-2.18501E-01 1.58162E-13 3.29222E-13
 -1      2245 1.83481E+01 3.64138E+00-3.65648E-02-2.06798E-01 1.95483E-13 2.77637E-13
 -1      2246 1.76075E+01 3.51088E+00 7.84118E-03-4.61846E-01 1.97184E-13 2.41721E-13
 -1      2247 2.19702E+01 4.28849E-01 1.00663E-02-1.51467E+00 4.43963E-14-3.16005E-13
 -1      2248 2.16774E+01 1.92973E-01-1.18549E-02-1.35149E+00 3.26002E-14-2.80721E-13
 -1      2249 2.53156E+01-6.65042E-01-9.80519E-03-1.51233E+00-1.60011E-14 3.61373E-13
 -1      2250 2.49528E+01-1.09644E-01 4.30020E-02-1.62425E+00-1.58619E-14 3.71004E-13
 -1      2251 2.33654E+01 1.68486E-01-3.21259E-02-1.77240E+00 9.35775E-15 2.64700E-13
 -1      2252 2.21155E+01 1.59413E+00-2.10373E-02-2.09463E+00 5.65017E-14-3.66091E-13
 -1      2253 2.19641E+01 8.01116E-01-1.37121E-02-1.64680E+00 5.25873E-14-3.39279E-13
 -1      2254 2.20112E+01 8.23927E-01 8.31960E-03-1.68362E+00 6.27120E-14-3.10756E-13
 -1      2255 2.18382E+01 1.90638E+00-5.51697E-03-1.97338E+00 8.71707E-14-3.18526E-13
 -1      2256 2.16020E+01 5.25554E-02 1.33289E-02-1.31401E+00 1.21704E-14-2.31545E-13
 -1      2257 2.13351E+01-2.37391E-02-3.36248E-03-1.28168E+00 1.64218E-14-2.16570E-13
 -1      2258 2.18826E+01 1.93917E-01 1.15029E-03-1.49342E+00 4.49267E-14-2.50832E-13
 -1      2259 2.12028E+01-3.02615E-02 5.26107E-03-1.29149E+00 3.92194E-15-1.76829E-13
 -1      2260 2.09620E+01 1.38393E-02 3.17871E-03-1.27923E+00-9.11619E-15-1.77375E-13
 -1      2261 2.16479E+01-6.86559E-03 1.69309E-03-1.45569E+00 2.70853E-14-1.78991E-13
 -1      2262 2.07842E+01 1.02518E-01-1.26082E-03-1.25773E+00-2.25572E-14-1.50781E-13
 -1      2263 2.05725E+01 2.29073E-01 9.74700E-03-1.19001E+00-1.33376E-14-1.28389E-13
 -1      2264 2.13450E+01 9.72800E-02 2.08567E-03-1.44620E+00-1.04890E-14-9.70627E-14
 -1      2265 2.03731E+01 3.68784E-01-3.20822E-03-1.06698E+00-1.63360E-14-1.53958E-13
 -1      2266 2.02088E+01 5.18269E-01 1.36714E-02-9.02254E-01-2.35315E-15-1.50206E-13
 -1      2267 2.09878E+01 4.03950E-01-4.75054E-04-1.30022E+00-2.81096E-14-1.20266E-13
 -1      2268 2.00420E+01 6.44318E-01 1.48993E-04-6.52592E-01-3.45913E-14-1.61954E-13
 -1      2269 1.99511E+01 7.43306E-01 1.25830E-02-3.98197E-01-3.39247E-14-1.95556E-13
 -1      2270 2.06426E+01 7.62944E-01-5.88612E-03-9.08665E-01-4.24764E-14-1.25900E-13
 -1      2271 1.98778E+01 7.91211E-01 7.07301E-03-6.23239E-02-1.41796E-14-2.63583E-13
 -1      2272 1.98776E+01 7.84396E-01 6.68328E-03 2.25635E-01-2.15526E-14-2.73759E-13
 -1      2273 2.04153E+01 9.98044E-01-9.84023E-03-2.83206E-01-6.69681E-14-2.22338E-13
 -1      2274 1.99250E+01 7.23328E-01 1.27575E-02 5.53894E-01-5.74493E-14-2.55744E-13
 -1      2275 2.00109E+01 6.08166E-01-1.03617E-03 7.95357E-01-6.77841E-14-2.69930E-13
 -1      2276 2.03900E+01 9.79490E-01-8.81699E-03 4.30578E-01-4.61673E-14-2.63510E-13
 -1      2277 2.01461E+01 4.64070E-01 1.33086E-02 1.01987E+00-1.94541E-14-2.28546E-13
 -1      2278 2.02904E+01 2.90624E-01-6.41628E-03 1.15433E+00 4.40316E-15-2.06820E-13
 -1      2279 2.05603E+01 6.99446E-01-3.75344E-03 1.02001E+00-2.45585E-14-2.14251E-13
 -1      2280 2.04450E+01 1.23580E-01 8.83787E-03 1.22796E+00 6.65852E-15-1.86454E-13
 -1      2281 2.06089E+01-4.16575E-02-7.47594E-03 1.23971E+00 2.48718E-14-1.63846E-13
 -1      2282 2.08288E+01 2.75762E-01 2.58912E-03 1.32913E+00 3.06431E-14-1.25039E-13
 -1      2283 2.07221E+01-1.75784E-01 1.95259E-03 1.17610E+00 3.13212E-14-1.52121E-13
 -1      2284 2.08695E+01-2.86099E-01-5.54772E-03 1.09032E+00 6.27465E-14-9.03584E-14
 -1      2285 2.10733E+01-1.34927E-01 6.00790E-03 1.32729E+00 4.01136E-14-1.49284E-13
 -1      2286 2.09140E+01-3.59170E-01-4.07711E-03 9.41867E-01 4.67840E-14-1.33415E-13
 -1      2287 2.10227E+01-4.02102E-01-2.47792E-03 8.03848E-01 2.46563E-14-1.20674E-13
 -1      2288 2.12130E+01-4.16033E-01 6.04569E-03 1.09198E+00 4.12337E-14-1.21788E-13
 -1      2289 2.10044E+01-4.17062E-01-7.49455E-03 6.28316E-01-2.26152E-14-1.26251E-13
 -1      2290 2.10669E+01-4.06493E-01-6.40361E-06 4.80382E-01 2.24777E-15-1.45161E-13
 -1      2291 2.12314E+01-5.33092E-01 4.06250E-03 7.45030E-01-2.47733E-14-1.55427E-13
 -1      2292 2.10072E+01-3.82070E-01-8.32288E-03 3.19390E-01 3.55662E-15-1.35559E-13
 -1      2293 2.10273E+01-3.41000E-01 1.43935E-03 1.90034E-01 7.92443E-15-1.33182E-13
 -1      2294 2.11555E+01-5.16069E-01 1.79684E-03 3.91062E-01-1.08237E-14-7.55626E-14
 -1      2295 2.09481E+01-2.98099E-01-7.37664E-03 6.47027E-02-5.40063E-15-1.42115E-13
 -1      2296 2.09350E+01-2.46983E-01 1.97580E-03-3.27212E-02-6.05695E-14-8.81702E-14
 -1      2297 2.10252E+01-4.20285E-01 1.26374E-04 9.36240E-02-1.79514E-14-6.45280E-14
 -1      2298 2.08523E+01-2.01344E-01-5.59702E-03-1.17243E-01-9.46095E-14-9.70116E-14
 -1      2299 2.08166E+01-1.53506E-01 1.93739E-03-1.80723E-01-1.11323E-13-7.12552E-14
 -1      2300 2.08743E+01-2.96318E-01-7.92215E-04-1.22160E-01-6.45936E-14-1.35578E-14
 -1      2301 2.07396E+01-1.14080E-01-3.67730E-03-2.28636E-01-1.25170E-13-8.57000E-14
 -1      2302 2.06909E+01-7.59182E-02 1.62693E-03-2.62659E-01-5.51829E-14-1.20052E-13
 -1      2303 2.07249E+01-1.78054E-01-1.16268E-03-2.56880E-01-1.21476E-13 8.37474E-14
 -1      2304 2.06236E+01-4.61912E-02-2.00160E-03-2.82100E-01-1.39424E-14-1.40247E-13
 -1      2305 2.05695E+01-1.92604E-02 1.24649E-03-2.93747E-01 6.64925E-14-9.64046E-14
 -1      2306 2.05887E+01-8.23531E-02-1.22393E-03-3.24141E-01-3.41111E-14 7.19994E-14
 -1      2307 2.05129E+01 6.84494E-04-7.20500E-04-2.93418E-01 9.43999E-14-1.53386E-13
 -1      2308 2.04590E+01 1.75002E-02 9.00499E-04-2.89916E-01 8.10960E-14-2.17270E-13
 -1      2309 2.04703E+01-1.38850E-02-1.14383E-03-3.41699E-01-2.89177E-15-2.23134E-14
 -1      2310 2.04124E+01 2.92374E-02 1.55678E-04-2.77386E-01 6.78356E-14-1.49078E-13
 -1      2311 2.03622E+01 3.81311E-02 6.26632E-04-2.64872E-01 1.11824E-13-1.90828E-13
 -1      2312 2.03704E+01 2.95779E-02-1.01655E-03-3.26462E-01 7.19908E-14-1.12803E-13
 -1      2313 2.03245E+01 4.37429E-02 6.85524E-04-2.45978E-01 1.55180E-13-1.72775E-13
 -1      2314 2.02800E+01 4.70402E-02 4.26836E-04-2.29090E-01 1.23948E-13-1.15807E-13
 -1      2315 2.02877E+01 5.31829E-02-8.84918E-04-2.92276E-01 1.34118E-13-1.19643E-13
 -1      2316 2.02499E+01 4.84983E-02 9.50903E-04-2.07936E-01 7.90586E-14-1.61264E-13
 -1      2317 2.02120E+01 4.82058E-02 2.88657E-04-1.89863E-01 1.22892E-13-2.37885E-13
 -1      2318 2.02203E+01 6.25814E-02-7.63501E-04-2.49380E-01 5.86648E-14-1.82692E-13
 -1      2319 2.01882E+01 4.71137E-02 1.03198E-03-1.69088E-01 1.79864E-13-3.40963E-13
 -1      2320 2.01570E+01 4.47720E-02 1.96413E-04-1.51819E-01 1.22485E-13-3.00867E-13
 -1      2321 2.01661E+01 6.27390E-02-6.54736E-04-2.04718E-01 5.80973E-14-2.94181E-13
 -1      2322 2.01384E+01 4.23125E-02 9.96027E-04-1.32940E-01 7.42701E-14-2.49310E-13
 -1      2323 2.01134E+01 3.90068E-02 1.36113E-04-1.17564E-01-1.35334E-14-1.69100E-13
 -1      2324 2.01231E+01 5.75183E-02-5.57390E-04-1.62568E-01 9.21548E-14-2.88536E-13
 -1      2325 2.00991E+01 3.59855E-02 8.94239E-04-1.01305E-01-3.08231E-14-2.18511E-13
 -1      2326 2.00795E+01 3.24231E-02 9.69588E-05-8.82866E-02 9.17137E-15-9.98055E-14
 -1      2327 2.00894E+01 4.96725E-02-4.69946E-04-1.25239E-01 7.55400E-15-1.84464E-13
 -1      2328 2.00687E+01 2.93471E-02 7.62684E-04-7.48465E-02-2.46183E-14-1.10580E-13
 -1      2329 2.00538E+01 2.59493E-02 7.13001E-05-6.42518E-02-5.56545E-15-1.21209E-13
 -1      2330 2.00634E+01 4.10176E-02-3.91511E-04-9.36770E-02-3.68054E-14-5.53078E-14
 -1      2331 2.00457E+01 2.31078E-02 6.24929E-04-5.35133E-02-7.54701E-15-8.53910E-14
 -1      2332 2.00347E+01 2.00953E-02 5.40455E-05-4.51751E-02 2.51357E-14-1.18012E-13
 -1      2333 2.00437E+01 3.26526E-02-3.21721E-04-6.79582E-02-3.55727E-14-7.23403E-15
 -1      2334 2.00287E+01 1.76284E-02 4.95043E-04-3.68498E-02 7.31455E-14-1.25149E-13
 -1      2335 2.00209E+01 1.50899E-02 4.19879E-05-3.04844E-02 8.03227E-14-9.70472E-14
 -1      2336 2.00289E+01 2.51678E-02-2.60404E-04-4.76522E-02 2.94447E-14 1.83155E-14
 -1      2337 2.00166E+01 1.30429E-02 3.80357E-04-2.42114E-02 1.38998E-14-8.81271E-14
 -1      2338 2.00111E+01 1.09864E-02 3.31782E-05-1.94938E-02-1.79060E-14-3.97470E-14
 -1      2339 2.00182E+01 1.88149E-02-2.07383E-04-3.20753E-02 7.58087E-14-8.63926E-14
 -1      2340 2.00081E+01 9.34801E-03 2.83745E-04-1.49010E-02-5.31729E-14-7.09724E-14
 -1      2341 2.00044E+01 7.73603E-03 2.64471E-05-1.15109E-02-5.77595E-14 6.06949E-14
 -1      2342 2.00105E+01 1.36358E-02-1.62385E-04-2.04557E-02-2.41128E-15-2.21711E-14
 -1      2343 2.00024E+01 6.46489E-03 2.05329E-04-8.25051E-03-1.68190E-14 9.84279E-14
 -1      2344 2.00001E+01 5.23851E-03 2.11117E-05-5.89708E-03-5.12912E-14 9.87116E-14
 -1      2345 2.00051E+01 9.55266E-03-1.24916E-04-1.20352E-02-5.46287E-14 1.28848E-13
 -1      2346 1.99988E+01 4.28021E-03 1.43659E-04-3.66393E-03-1.14476E-13 1.08194E-13
 -1      2347 1.99975E+01 3.37375E-03 1.67845E-05-2.09730E-03-1.31721E-13 1.24077E-13
 -1      2348 2.00015E+01 6.42833E-03-9.42841E-05-6.12484E-03-8.50875E-14 2.45508E-13
 -1      2349 1.99966E+01 2.67159E-03 9.65216E-05-6.35059E-04-7.38267E-14 9.74228E-14
 -1      2350 1.99960E+01 2.02145E-03 1.32463E-05 3.50862E-04 3.50942E-14 2.04353E-14
 -1      2351 1.99993E+01 4.10499E-03-6.96934E-05-2.13123E-03-1.09956E-13 2.45337E-13
 -1      2352 1.99956E+01 1.52236E-03 6.14724E-05 1.25015E-03 2.18410E-14 9.99386E-14
 -1      2353 1.99954E+01 1.07159E-03 1.03579E-05 1.81990E-03 1.28322E-13 2.13161E-13
 -1      2354 1.99979E+01 2.42729E-03-5.03175E-05 4.37105E-04 9.09213E-14 4.73937E-13
 -1      2355 1.99952E+01 7.29040E-04 3.61467E-05 2.32016E-03 2.31032E-13 1.21755E-13
 -1      2356 1.99953E+01 4.29143E-04 8.01533E-06 2.60140E-03 1.28852E-13 2.53513E-13
 -1      2357 1.99972E+01 1.25457E-03-3.53402E-05 1.97461E-03 1.70467E-13 5.06443E-13
 -1      2358 1.99953E+01 2.04040E-04 1.84208E-05 2.82847E-03-9.68325E-14 2.12760E-13
 -1      2359 1.99955E+01 1.52013E-05 6.12912E-06 2.91766E-03-2.31355E-13 1.47495E-13
 -1      2360 1.99970E+01 4.66081E-04-2.39878E-05 2.78925E-03-3.66507E-14 1.37980E-13
 -1      2361 1.99956E+01-1.24217E-04 6.48000E-06 2.96560E-03-1.91367E-13 1.55656E-13
 -1      2362 1.99960E+01-2.33764E-04 4.61474E-06 2.93362E-03-1.93601E-13 1.95153E-13
 -1      2363 1.99970E+01-3.79306E-05-1.55575E-05 3.11527E-03-2.28481E-13 1.93753E-13
 -1      2364 1.99961E+01-3.12666E-04-1.16911E-06 2.87086E-03-3.29052E-13 1.32778E-13
 -1      2365 1.99965E+01-3.67712E-04 3.38774E-06 2.76816E-03-3.04864E-13 9.50466E-14
 -1      2366 1.99972E+01-3.37540E-04-9.43338E-06 3.12621E-03-2.72983E-13 3.05310E-13
 -1      2367 1.99967E+01-4.05661E-04-5.71685E-06 2.64281E-03-2.53486E-13 1.83454E-13
 -1      2368 1.99971E+01-4.25246E-04 2.36186E-06 2.50392E-03 1.15813E-14 2.26665E-13
 -1      2369 1.99975E+01-4.95570E-04-5.09360E-06 2.94688E-03-2.88635E-13 3.41060E-13
 -1      2370 1.99972E+01-4.37276E-04-8.08294E-06 2.34835E-03 1.23663E-13 2.25742E-13
 -1      2371 1.99976E+01-4.35919E-04 1.44867E-06 2.19549E-03 3.14614E-13 2.02152E-13
 -1      2372 1.99979E+01-5.60516E-04-2.11103E-06 2.66381E-03-4.94399E-14 2.55058E-13
 -1      2373 1.99978E+01-4.33575E-04-8.95840E-06 2.03000E-03 3.52495E-13 9.12118E-14
 -1      2374 1.99981E+01-4.22408E-04 5.62268E-07 1.87601E-03 3.86078E-13-3.08744E-14
 -1      2375 1.99982E+01-5.69515E-04-1.52464E-07 2.33397E-03 2.23000E-13 3.67127E-14
 -1      2376 1.99982E+01-4.14665E-04-8.84203E-06 1.71175E-03 2.94050E-13-1.01952E-13
 -1      2377 1.99985E+01-4.02273E-04-3.44560E-07 1.56228E-03 1.47581E-13-1.28388E-13
 -1      2378 1.99986E+01-5.51075E-04 1.02287E-06 1.99184E-03 2.47366E-13-1.68869E-13
 -1      2379 1.99987E+01-3.95973E-04-8.05469E-06 1.40352E-03 1.89214E-13-7.20824E-14
 -1      2380 1.99989E+01-3.88780E-04-1.26765E-06 1.25916E-03-7.40651E-15 8.16284E-15
 -1      2381 1.99989E+01-5.26957E-04 1.61088E-06 1.65480E-03 1.49615E-13-6.64707E-14
 -1      2382 1.99990E+01-3.88710E-04-6.79076E-06 1.10551E-03-8.18312E-14 1.18302E-13
 -1      2383 1.99992E+01-3.90748E-04-2.91660E-06 9.63636E-04-1.08431E-14 1.27780E-13
 -1      2384 1.99991E+01-5.13105E-04 1.67874E-06 1.32830E-03 7.83072E-14 9.50523E-14
 -1      2385 2.85913E+01-2.68762E+00 4.24952E-02 1.20997E+00-1.97484E-13 3.40998E-13
 -1      2386 2.79672E+01-2.48131E+00 8.54337E-02 5.67024E-02-1.51906E-13 3.56968E-13
 -1      2387 3.03173E+01-2.12139E+00-3.16629E-02 2.03938E+00-1.53121E-13 2.47288E-13
 -1      2388 2.96477E+01-3.25292E+00-5.01496E-02 1.20974E+00-2.02805E-13 2.16827E-13
 -1      2389 2.98906E+01-1.56040E+00-1.25600E-01-3.27462E+00 3.97113E-13 1.60580E-13
 -1      2390 2.97868E+01 2.23833E-01-7.02679E-02-3.65526E+00 3.70606E-13 2.15300E-13
 -1      2391 2.84538E+01-2.77035E+00 1.60727E-04-9.87437E-01 2.54224E-13 1.10151E-13
 -1      2392 2.87686E+01-2.47261E+00-4.84306E-02-2.05062E+00 3.06062E-13 1.54994E-13
 -1      2393 2.65356E+01-1.97466E+00 4.62070E-02 1.02923E+00 1.65860E-13 1.32362E-13
 -1      2394 2.70561E+01-2.47372E+00-3.72044E-02 1.73890E-01 2.60392E-13 1.52917E-13
 -1      2395 2.72580E+01-3.41509E+00-2.80426E-02 3.73541E-01 2.32529E-13 1.00081E-13
 -1      2396 2.48939E+01-8.54188E-01 2.96494E-02 2.07009E+00-1.63428E-14 1.55672E-13
 -1      2397 2.54633E+01-1.39726E+00-2.42096E-02 1.64787E+00 1.09607E-13 1.75694E-13
 -1      2398 2.48637E+01-2.27409E+00-4.80457E-02 2.01301E+00 1.45535E-13 2.27174E-13
 -1      2399 2.37229E+01-9.95003E-02 1.07637E-02 2.32405E+00-6.91981E-14 1.77735E-13
 -1      2400 2.42573E+01-4.32866E-01-1.00981E-02 2.22738E+00-7.72073E-14 1.82051E-13
 -1      2401 2.33019E+01-8.93149E-01-3.49457E-02 2.62973E+00-3.69245E-14 8.49832E-14
 -1      2402 2.28940E+01 2.62961E-01 1.43317E-03 2.15671E+00-3.62447E-14 1.76369E-13
 -1      2403 2.33665E+01 1.16440E-01 8.96748E-04 2.23758E+00-7.85830E-14 2.14635E-13
 -1      2404 2.24097E+01-4.63965E-03-1.60102E-02 2.62571E+00-7.20569E-14 1.34664E-13
 -1      2405 2.22730E+01 3.76923E-01-1.42389E-03 1.82292E+00 5.32187E-14 8.16164E-14
 -1      2406 2.26776E+01 3.39563E-01 7.31668E-03 1.97379E+00 5.10382E-14 2.07459E-13
 -1      2407 2.18754E+01 4.01632E-01-5.20904E-03 2.32796E+00-6.48925E-15 2.00601E-13
 -1      2408 2.17829E+01 3.68638E-01-1.59468E-03 1.46094E+00 2.72920E-14 1.10819E-13
 -1      2409 2.21199E+01 3.81870E-01 1.01121E-02 1.62165E+00 8.73689E-14 1.20907E-13
 -1      2410 2.15093E+01 5.15143E-01-5.43457E-04 1.93282E+00 4.96365E-14 1.21202E-13
 -1      2411 2.13865E+01 3.13877E-01-1.05018E-03 1.13335E+00-6.90095E-14 7.57057E-14
 -1      2412 2.16600E+01 3.44727E-01 1.04179E-02 1.27695E+00 1.60922E-14 1.06457E-13
 -1      2413 2.12230E+01 4.88551E-01 7.60342E-04 1.54113E+00 3.27728E-14 2.63644E-14
 -1      2414 2.10652E+01 2.49916E-01-5.01498E-04 8.61018E-01-1.00043E-13 7.53158E-14
 -1      2415 2.12824E+01 2.82835E-01 9.37012E-03 9.79102E-01-1.36587E-13 6.32155E-14
 -1      2416 2.09827E+01 4.10928E-01 6.36033E-04 1.19673E+00-8.53881E-14 3.08729E-14
 -1      2417 2.08074E+01 1.91990E-01-1.14191E-04 6.44862E-01-5.06518E-14 3.25319E-14
 -1      2418 2.09766E+01 2.20930E-01 7.81107E-03 7.37703E-01-2.76678E-14-5.27925E-15
 -1      2419 2.07779E+01 3.25456E-01 1.34265E-04 9.12594E-01-3.39026E-14-9.38965E-14
 -1      2420 2.06032E+01 1.44592E-01 1.17627E-04 4.77839E-01 1.85390E-13-5.08092E-14
 -1      2421 2.07330E+01 1.67996E-01 6.22320E-03 5.48993E-01 8.02071E-15-3.13372E-14
 -1      2422 2.06054E+01 2.49443E-01-3.09929E-04 6.86784E-01-1.53650E-14-9.68378E-14
 -1      2423 2.04437E+01 1.07673E-01 2.35762E-04 3.50854E-01 1.62109E-13 9.67173E-14
 -1      2424 2.05420E+01 1.25829E-01 4.82231E-03 4.04574E-01 2.82104E-13 3.48044E-14
 -1      2425 2.04629E+01 1.87678E-01-5.83525E-04 5.11430E-01 2.06557E-13-2.64633E-14
 -1      2426 2.03210E+01 7.96312E-02 2.80122E-04 2.55290E-01-7.89251E-14 4.25784E-14
 -1      2427 2.03946E+01 9.34164E-02 3.67199E-03 2.95473E-01 7.30494E-14 1.33664E-13
 -1      2428 2.03476E+01 1.39694E-01-7.01487E-04 3.77261E-01 9.07471E-14 1.18491E-13
 -1      2429 2.02277E+01 5.85975E-02 2.80598E-04 1.83886E-01-1.90147E-13-1.07522E-14
 -1      2430 2.02822E+01 6.89528E-02 2.76406E-03 2.13749E-01-1.39008E-13 1.44429E-14
 -1      2431 2.02563E+01 1.03275E-01-7.11772E-04 2.75628E-01-1.00715E-13 1.35993E-13
 -1      2432 2.01579E+01 4.29106E-02 2.57489E-04 1.30852E-01-5.34288E-14 1.33579E-14
 -1      2433 2.01978E+01 5.06512E-02 2.06335E-03 1.52921E-01-1.56673E-13-3.16873E-14
 -1      2434 2.01852E+01 7.59553E-02-6.59357E-04 1.99224E-01-1.38401E-13-8.30376E-14
 -1      2435 2.01064E+01 3.12396E-02 2.23743E-04 9.17024E-02 2.06546E-14 3.42868E-14
 -1      2436 2.01352E+01 3.70127E-02 1.52951E-03 1.07914E-01 2.05824E-14 5.53162E-14
 -1      2437 2.01308E+01 5.55751E-02-5.76891E-04 1.42167E-01-3.94054E-14-9.16355E-14
 -1      2438 2.00690E+01 2.25677E-02 1.87137E-04 6.30084E-02-9.36044E-14 1.07379E-13
 -1      2439 2.00894E+01 2.68669E-02 1.12585E-03 7.48302E-02-3.40255E-14 7.21263E-14
 -1      2440 2.00899E+01 4.04094E-02-4.85163E-04 9.98543E-02-3.55412E-14-9.15207E-14
 -1      2441 2.00423E+01 1.61347E-02 1.52009E-04 4.21665E-02-3.30788E-14 2.23478E-13
 -1      2442 2.00565E+01 1.93298E-02 8.22121E-04 5.07064E-02-7.62369E-14 2.17311E-13
 -1      2443 2.00597E+01 2.91417E-02-3.96141E-04 6.87251E-02-1.16249E-13-1.88109E-14
 -1      2444 2.00237E+01 1.13765E-02 1.20533E-04 2.72013E-02-7.38727E-14 3.60656E-13
 -1      2445 2.00333E+01 1.37427E-02 5.94504E-04 3.32952E-02 3.22239E-14 2.99711E-13
 -1      2446 2.00379E+01 2.07869E-02-3.15895E-04 4.60465E-02-6.31330E-14 2.09870E-13
 -1      2447 2.00110E+01 7.87441E-03 9.35841E-05 1.66143E-02-3.00398E-13 2.57731E-13
 -1      2448 2.00174E+01 9.61701E-03 4.24657E-04 2.08937E-02-1.07444E-13 3.25330E-13
 -1      2449 2.00223E+01 1.46126E-02-2.46827E-04 2.97250E-02-1.10194E-13 3.73120E-13
 -1      2450 2.00028E+01 5.31627E-03 7.12665E-05 9.26784E-03 3.75145E-14 1.15481E-13
 -1      2451 2.00068E+01 6.58903E-03 2.98586E-04 1.22105E-02-2.44279E-13 1.89955E-13
 -1      2452 2.00116E+01 1.00745E-02-1.89287E-04 1.81589E-02-1.96797E-13 1.45719E-13
 -1      2453 1.99976E+01 3.46762E-03 5.32539E-05 4.29845E-03 2.85721E-13 9.45812E-14
 -1      2454 2.00000E+01 4.38662E-03 2.05668E-04 6.26555E-03 2.03300E-13 1.78925E-13
 -1      2455 2.00045E+01 6.76591E-03-1.42574E-04 1.01236E-02 7.34599E-14-8.39602E-14
 -1      2456 1.99947E+01 2.15079E-03 3.90245E-05 1.05210E-03 2.45904E-13-1.64967E-13
 -1      2457 1.99959E+01 2.80438E-03 1.37834E-04 2.31631E-03 2.66490E-13 4.13499E-14
 -1      2458 1.99999E+01 4.38088E-03-1.05449E-04 4.68408E-03 2.80371E-13-1.79816E-13
 -1      2459 1.99933E+01 1.23036E-03 2.80050E-05-9.64196E-04 3.55393E-13-2.58181E-13
 -1      2460 1.99937E+01 1.68609E-03 8.89219E-05-1.98185E-04 2.38268E-13-1.43449E-13
 -1      2461 1.99971E+01 2.68732E-03-7.64721E-05 1.12913E-03 2.73001E-13-1.01842E-13
 -1      2462 1.99929E+01 6.02985E-04 1.96344E-05-2.11941E-03 1.82729E-13-1.95916E-13
 -1      2463 1.99928E+01 9.12501E-04 5.42066E-05-1.69907E-03 2.88067E-13-1.69764E-13
 -1      2464 1.99957E+01 1.50836E-03-5.42338E-05-1.07897E-03 2.74839E-13 2.89122E-14
 -1      2465 1.99931E+01 1.89804E-04 1.33973E-05-2.68713E-03-2.02668E-13-1.99052E-13
 -1      2466 1.99928E+01 3.92577E-04 3.00635E-05-2.49990E-03 6.41244E-14-2.50648E-13
 -1      2467 1.99951E+01 7.09020E-04-3.74543E-05-2.34366E-03 1.18030E-13 6.30200E-14
 -1      2468 1.99937E+01-6.91932E-05 8.83834E-06-2.86766E-03-1.82548E-13-3.13300E-13
 -1      2469 1.99932E+01 5.69046E-05 1.37170E-05-2.83163E-03-2.60734E-13-2.58772E-13
 -1      2470 1.99950E+01 1.86400E-04-2.50141E-05-2.96448E-03-1.97281E-13-1.69931E-13
 -1      2471 1.99944E+01-2.19494E-04 5.56566E-06-2.80525E-03-2.39563E-13-1.53694E-13
 -1      2472 1.99939E+01-1.47268E-04 3.04725E-06-2.86186E-03-9.78640E-14-2.41550E-13
 -1      2473 1.99953E+01-1.37736E-04-1.59622E-05-3.16096E-03-1.36228E-13-1.24771E-13
 -1      2474 1.99953E+01-2.95402E-04 3.24657E-06-2.60150E-03-3.59176E-13-5.95154E-15
 -1      2475 1.99947E+01-2.59840E-04-3.55653E-06-2.70991E-03-3.60510E-13-1.61841E-13
 -1      2476 1.99958E+01-3.22623E-04-9.51103E-06-3.09119E-03-3.62915E-13-5.79826E-14
 -1      2477 1.99961E+01-3.22686E-04 1.59899E-06-2.32571E-03-1.23844E-13-6.11861E-14
 -1      2478 1.99955E+01-3.10845E-04-7.30896E-06-2.45849E-03-2.74893E-13 1.81510E-14
 -1      2479 1.99964E+01-4.12898E-04-5.02150E-06-2.86639E-03-3.15015E-13-1.84809E-13
 -1      2480 1.99968E+01-3.20719E-04 3.82414E-07-2.02279E-03-7.32393E-14-7.38487E-14
 -1      2481 1.99964E+01-3.22839E-04-9.11631E-06-2.16261E-03-2.14379E-14-1.28330E-14
 -1      2482 1.99969E+01-4.42083E-04-1.98638E-06-2.56223E-03-1.86160E-13-1.48317E-13
 -1      2483 1.99975E+01-3.04231E-04-6.02823E-07-1.71931E-03 4.14947E-14-3.10423E-13
 -1      2484 1.99971E+01-3.12845E-04-9.64154E-06-1.85649E-03-2.73519E-14-1.26776E-13
 -1      2485 1.99975E+01-4.35417E-04-1.52980E-08-2.22758E-03 2.76209E-14-1.58605E-13
 -1      2486 1.99981E+01-2.84702E-04-1.48961E-06-1.42786E-03 3.67368E-13-3.46173E-13
 -1      2487 1.99978E+01-2.93958E-04-9.34875E-06-1.55861E-03 1.69317E-13-3.90101E-13
 -1      2488 1.99980E+01-4.12135E-04 1.18719E-06-1.89108E-03 1.29529E-13-2.12767E-13
 -1      2489 1.99986E+01-2.71457E-04-2.45761E-06-1.15059E-03 2.71184E-13-4.27470E-13
 -1      2490 1.99983E+01-2.76665E-04-8.58644E-06-1.27564E-03 4.22031E-13-2.83987E-13
 -1      2491 1.99985E+01-3.87116E-04 1.82797E-06-1.56627E-03 3.77959E-13-1.22623E-13
 -1      2492 1.99990E+01-2.70220E-04-2.98322E-06-8.81249E-04 2.30828E-14-1.95087E-13
 -1      2493 1.99988E+01-2.69508E-04-7.56087E-06-1.00484E-03-1.52124E-16-2.77336E-13
 -1      2494 1.99989E+01-3.71453E-04 2.49315E-06-1.25676E-03-1.79510E-15-1.24087E-13
 -1      2495 1.99994E+01-2.81527E-04-3.94034E-06-6.15431E-04 3.24874E-13 1.77782E-13
 -1      2496 1.99992E+01-2.73737E-04-6.31363E-06-7.39241E-04 2.66959E-13-6.53726E-14
 -1      2497 1.99992E+01-3.69708E-04 4.08223E-06-9.55621E-04 4.38566E-14-1.40535E-14
 -1      2498 1.99995E+01-2.89694E-04-4.28655E-06-4.73955E-04 2.06946E-13 5.20735E-13
 -1      2499 2.00000E+01-1.48020E-03 6.24578E-06-7.58069E-04 1.98547E-13-2.12959E-13
 -1      2500 2.00000E+01-1.34731E-03-1.03321E-06-8.28769E-04 2.21620E-13-5.95809E-13
 -1      2501 2.00001E+01-1.69269E-03 6.44546E-06-5.32792E-04 2.49759E-13 2.20989E-13
 -1      2502 2.00001E+01-1.59554E-03 1.18857E-06-6.45709E-04 3.04264E-13-1.19924E-13
 -1      2503 2.00001E+01-1.50821E-03-3.98956E-06-8.04116E-04 3.26977E-13-1.13375E-13
 -1      2504 1.99997E+01-8.88267E-04 4.42857E-06-8.92148E-04-2.21588E-13 2.40899E-13
 -1      2505 1.99996E+01-7.31018E-04-5.62100E-06-8.55041E-04-1.09988E-13 4.84597E-13
 -1      2506 1.99999E+01-1.20207E-03 5.37494E-06-8.85139E-04-7.88937E-14-3.98024E-13
 -1      2507 1.99998E+01-1.05107E-03-3.37802E-06-9.02589E-04-3.52704E-13 1.79728E-13
 -1      2508 1.99997E+01-9.60730E-04-3.21501E-06-1.03939E-03-2.61291E-13 5.54426E-14
 -1      2509 2.00000E+01-1.25766E-03-3.39124E-06-9.85547E-04 7.80447E-14-8.80073E-14
 -1      2510 2.00002E+01-1.81697E-03 5.98840E-06-2.41903E-04 2.00778E-14 7.07099E-13
 -1      2511 2.00002E+01-1.76592E-03 3.29805E-06-3.81345E-04 2.10905E-13 5.00348E-13
 -1      2512 2.00003E+01-1.68972E-03-5.09570E-06-5.22556E-04 2.58424E-13 2.56431E-13
 -1      2513 2.00002E+01-1.84064E-03 4.91163E-06 7.79324E-05-2.59846E-13 3.24265E-13
 -1      2514 2.00002E+01-1.84138E-03 4.96996E-06-7.03049E-05-2.86863E-13 7.26737E-13
 -1      2515 2.00003E+01-1.78372E-03-5.58043E-06-1.78135E-04-1.86472E-14 4.36040E-13
 -1      2516 2.00002E+01-1.76173E-03 3.30556E-06 3.87960E-04-1.60580E-13-3.24737E-13
 -1      2517 2.00002E+01-1.81428E-03 5.98761E-06 2.49165E-04-1.97326E-13-4.01906E-14
 -1      2518 2.00003E+01-1.78179E-03-5.53731E-06 1.87097E-04-2.52482E-13 2.04895E-13
 -1      2519 2.00001E+01-1.59256E-03 1.13238E-06 6.46455E-04 1.42723E-13-7.14221E-13
 -1      2520 2.00001E+01-1.68856E-03 6.40749E-06 5.36094E-04 2.84862E-14-8.14715E-13
 -1      2521 2.00003E+01-1.68563E-03-5.10308E-06 5.27391E-04 9.34536E-14-3.58011E-13
 -1      2522 2.00000E+01-1.34434E-03-1.22073E-06 8.28227E-04 2.52405E-13 4.52403E-14
 -1      2523 2.00000E+01-1.47663E-03 6.22723E-06 7.58024E-04 1.41763E-13-2.97416E-13
 -1      2524 2.00001E+01-1.50382E-03-4.04368E-06 8.04924E-04 3.50716E-13-5.19794E-13
 -1      2525 1.99998E+01-1.04356E-03-3.28130E-06 9.00246E-04 9.53591E-14 1.78243E-13
 -1      2526 1.99999E+01-1.19728E-03 5.19493E-06 8.84855E-04 2.18067E-13 1.27322E-13
 -1      2527 2.00000E+01-1.25043E-03-2.22772E-06 9.85458E-04 1.22178E-13 5.65358E-14
 -1      2528 1.99996E+01-7.20976E-04-4.63385E-06 8.46341E-04-5.74996E-14 2.46572E-14
 -1      2529 1.99997E+01-8.81015E-04 3.24408E-06 8.91845E-04 2.57032E-14 1.56587E-13
 -1      2530 1.99997E+01-9.49356E-04 3.38607E-07 1.03640E-03 8.40376E-14 9.96346E-14
 -1      2531 4.62333E+00-2.56689E+00 1.13399E-01 2.67618E+00 4.19387E-14 2.62457E-13
 -1      2532 3.58793E+00-2.15259E+00 1.24336E-01 1.65487E-01 5.41112E-14 3.13083E-13
 -1      2533 1.94551E+01-5.87268E+00-3.89515E-02 6.07109E+00 2.03559E-13 1.17600E-13
 -1      2534 1.48568E+01-5.50849E+00 3.93855E-02 6.20233E+00 1.12910E-13 2.46525E-13
 -1      2535 2.65664E+01-1.91729E+00-1.38249E-02-7.52240E-01-1.10016E-13 3.56392E-13
 -1      2536 2.60656E+01-1.26345E+00 5.84030E-02-1.33657E+00-5.64913E-14 3.52328E-13
 -1      2537 2.42647E+01-1.30598E+00-6.15326E-02-1.93359E+00-3.30092E-14 1.95937E-13
 -1      2538 2.69175E+01-5.51823E+00-8.37571E-02 3.50085E+00 3.19578E-13-9.58400E-14
 -1      2539 2.37134E+01-5.98245E+00 4.09143E-03 4.47238E+00 3.01259E-13-7.36772E-14
 -1      2540 1.99995E+01-4.52037E-04-3.85506E-06 6.03921E-04 2.31356E-14 1.15146E-13
 -1      2541 2.57316E+01-3.97928E+00-1.04715E-02-4.50198E+00 3.08198E-13 2.09138E-13
 -1      2542 2.86066E+01-2.60018E+00-1.15925E-01-3.08535E+00 2.28623E-13 2.16438E-13
 -1      2543 3.34425E+01 1.00521E+00-1.84792E-01-2.63307E+00 4.13114E-13 1.98647E-13
 -1      2544 3.29140E+01-9.99882E-01-1.39720E-01-2.24605E+00 5.20556E-13 7.66609E-14
 -1      2545 1.34914E+01-4.83850E+00 6.78012E-02-7.39213E+00 2.17160E-13 5.92998E-14
 -1      2546 1.72832E+01-4.97927E+00 1.89098E-02-7.51839E+00 2.48912E-13 1.61753E-13
 -1      2547 3.21327E+01 4.41309E+00-1.07278E-01 6.45505E-01 5.98965E-14 1.44912E-13
 -1      2548 3.29051E+01 6.10119E+00-1.29261E-01 6.56237E-01-2.28706E-14 1.67755E-13
 -1      2549 2.06996E+01-3.98996E+00-4.11987E-02 6.82792E+00 2.03726E-14 2.77542E-13
 -1      2550 1.63036E+01-4.10763E+00 4.41307E-02 7.26594E+00 8.33222E-14 2.30947E-13
 -1      2551 3.61552E+00-2.30971E+00 1.16660E-01-2.10964E+00 1.18537E-13 2.11609E-13
 -1      2552 4.53158E+00-2.64032E+00 1.00828E-01-3.97678E+00 1.17850E-13 9.98646E-14
 -1      2553 2.04540E+01-5.11915E+00 7.74411E-03-6.61586E+00 2.98206E-13 3.08642E-13
 -1      2554 2.30106E+01-4.67146E+00-3.59838E-02-6.10433E+00 2.71672E-13 2.37088E-13
 -1      2555 2.52845E+01-4.54237E+00 8.38252E-02-4.49558E+00 2.65413E-13 2.63331E-13
 -1      2556 1.98316E+01-5.09288E+00 8.99980E-02-6.70844E+00 2.31704E-13 3.10532E-13
 -1      2557 1.80985E+01 2.82534E+00-1.60442E-02 1.52534E+00 2.67497E-13 2.41421E-14
 -1      2558 1.88266E+01 2.65212E+00 7.06312E-03 1.19811E+00 2.52296E-13 1.67401E-15
 -1      2559 1.94546E+01 1.92410E+00-2.00352E-02 1.12635E+00 2.35436E-13 4.82253E-16
 -1      2560 1.79155E+01 2.43884E+00-2.06288E-02 1.93920E+00 2.47244E-13 3.27210E-14
 -1      2561 3.35862E+01 4.98460E+00-2.15655E-01-1.94397E+00 2.66676E-13 3.13249E-13
 -1      2562 3.38467E+01 3.78632E+00-8.96569E-02-2.70749E+00 3.59546E-13 3.20494E-13
 -1      2563 3.23753E+01-2.42112E+00-1.14295E-01-4.92097E-01 4.89969E-13-3.32234E-14
 -1      2564 2.94645E+01-4.55193E+00-6.80098E-02 1.35920E+00 3.53426E-13-2.81719E-14
 -1      2565 2.85442E+01-5.04247E+00 2.49282E-02 1.48255E+00 3.22284E-13-3.74284E-14
 -1      2566 3.10469E+01-2.54593E+00-3.34894E-03-1.79711E+00 4.11039E-13 3.57492E-14
 -1      2567 3.39458E+01 2.98634E+00-1.05444E-01 2.67476E+00-2.03171E-14 2.88936E-13
 -1      2568 3.40513E+01 4.45096E+00-1.75335E-01 2.21333E+00 5.96745E-14 3.29320E-13
 -1      2569 5.86524E+00-2.11818E+00 3.93796E-02 5.65672E+00 1.24012E-13 1.28231E-13
 -1      2570 4.01997E+00-1.86831E+00 1.10099E-01 3.76926E+00 1.01683E-13 9.35363E-14
 -1      2571 1.97842E+01-5.64624E+00 1.41894E-02-5.59487E+00-1.81244E-13-1.96843E-13
 -1      2572 2.34627E+01-5.55798E+00-7.86470E-02-5.01684E+00-2.10054E-13-1.62578E-13
 -1      2573 1.11094E+01-4.34623E+00 2.78432E-02-5.71784E+00-4.31599E-14-1.69476E-13
 -1      2574 1.54736E+01-5.07433E+00-1.90808E-02-6.34411E+00-1.19349E-13-2.02158E-13
 -1      2575 5.31370E+00-2.44957E+00 7.69183E-02-3.20627E+00 5.70377E-14-4.91829E-14
 -1      2576 7.59410E+00-3.02377E+00 3.95320E-02-4.84240E+00 2.58404E-14-1.32394E-13
 -1      2577 3.03323E+01-3.84216E-01-3.52570E-02-1.03516E+00 1.67442E-13 1.57846E-13
 -1      2578 3.15519E+01 1.62574E+00-1.55610E-01-6.47376E-02 1.20876E-13 1.79134E-13
 -1      2579 1.24127E+01-3.41490E+00 1.76495E-02 7.66120E+00 1.22236E-13 2.22600E-13
 -1      2580 9.24596E+00-2.87721E+00 9.79307E-02 6.81892E+00 1.27814E-13 1.78857E-13
 -1      2581 2.72471E+01-2.57692E+00-9.31647E-02 4.14934E+00-4.08285E-14 3.37064E-13
 -1      2582 2.45190E+01-3.45725E+00 2.46687E-02 5.06263E+00-2.53964E-14 3.10224E-13
 -1      2583 3.16342E+01 1.24947E+00-1.36471E-01 8.56019E-01-6.86395E-14 2.66676E-13
 -1      2584 2.95447E+01-7.73474E-01-1.45516E-02 2.24438E+00-8.43249E-14 3.00870E-13
 -1      2585 3.30222E+01 5.26960E+00-1.42535E-01-6.06453E-01-1.45717E-13 2.55879E-13
 -1      2586 3.23894E+01 3.78333E+00-6.00434E-02-3.98712E-01-1.17656E-13 2.46553E-13
 -1      2587 3.29178E+01 7.90786E+00-1.51386E-01-4.88142E-01-5.88973E-14 2.36540E-13
 -1      2588 3.31706E+01 7.02176E+00-8.90257E-02-6.84298E-01-9.64229E-14 2.50078E-13
 -1      2589 3.29370E+01 7.17111E+00-1.33306E-01 5.80086E-01-2.85882E-14 1.97509E-13
 -1      2590 3.27241E+01 7.85748E+00-1.43402E-01 3.26545E-01-8.99281E-15 2.21975E-13
 -1      2591 3.07504E+01 6.21118E+00-6.60078E-02 1.15702E+00 3.93019E-14 1.03001E-13
 -1      2592 1.06902E+01-4.69181E+00 2.11182E-02 6.18114E+00 9.49796E-14 2.97651E-13
 -1      2593 6.99605E+00-3.85904E+00 4.57553E-02 4.68614E+00 9.16767E-14 2.49023E-13
 -1      2594 1.46546E+01-4.37777E+00 1.37836E-01 6.02911E+00 6.06182E-14 2.34646E-13
 -1      2595 3.43533E+01 6.07458E+00-9.80162E-02 9.50860E-01 1.19127E-13 3.22992E-13
 -1      2596 3.39518E+01 6.24116E+00-1.26064E-01-4.73180E-01 1.59983E-13 3.64528E-13
 -1      2597 3.14166E+01 4.76052E+00-1.09769E-01-1.46929E+00 2.07445E-13 3.68358E-13
 -1      2598 3.14682E+01 4.39150E+00-1.15083E-01 1.96380E+00 7.81597E-14 3.37869E-13
 -1      2599 6.37604E+00-3.51318E+00 8.20123E-02-5.54705E+00 1.27426E-13 9.19265E-14
 -1      2600 9.49448E+00-4.05135E+00 4.12882E-02-7.08759E+00 1.23568E-13 7.07767E-14
 -1      2601 7.40591E+00-2.05507E+00 1.57662E-01-4.87831E+00 8.44186E-14 1.70974E-13
 -1      2602 2.45665E+01 9.64643E-01-2.33878E-03-7.18880E-01 2.55334E-14 4.77614E-13
 -1      2603 2.45711E+01 1.39112E+00-8.32525E-04-1.37969E-01 3.20369E-14 5.12059E-13
 -1      2604 2.35873E+01 1.92354E+00-7.77420E-03-6.80730E-02 5.82616E-14 4.68816E-13
 -1      2605 2.32893E+01 1.14585E+00-8.48531E-03-1.04592E+00 3.89905E-14 3.63450E-13
 -1      2606 2.12694E+01 1.62173E+00-4.36853E-03-7.00669E-01 1.75236E-13-1.50476E-13
 -1      2607 2.10672E+01 2.21313E+00-1.09416E-02-9.26305E-01 1.82602E-13-1.83280E-13
 -1      2608 2.12948E+01 2.17096E+00-2.47264E-02-1.28248E+00 1.59585E-13-2.15508E-13
 -1      2609 2.62608E+01-3.03946E+00-9.96293E-02-1.12933E+00-1.39572E-13 2.40256E-13
 -1      2610 2.19990E+01 2.47584E+00-2.15917E-02-1.63248E-01 1.03613E-13 3.98979E-13
 -1      2611 1.60593E+01-3.40696E+00 1.22513E-01 7.18492E+00 1.32810E-13 2.17146E-13
 -1      2612 2.14747E+01 2.12136E+00-1.34792E-02-1.54089E+00 1.40475E-13-2.40441E-13
 -1      2613 2.16654E+01 2.01154E+00-2.96428E-02-1.81663E+00 1.09515E-13-2.92514E-13
 -1      2614 2.18837E+01 1.37216E+00-5.01045E-03-1.69737E+00 8.77714E-14-2.77786E-13
 -1      2615 2.16551E+01 1.55471E+00-1.65466E-03-1.33094E+00 1.37458E-13-2.04774E-13
 -1      2616 2.89859E+01-2.05687E+00-9.97037E-03-1.27592E+00 1.95935E-13 1.66034E-13
 -1      2617 5.65800E+00-1.09511E+00 1.50952E-01-2.18005E+00 1.23013E-13-2.98650E-14
 -1      2618 1.13191E+01-2.83834E+00 1.38516E-01-5.20349E+00 2.52298E-14-1.43024E-13
 -1      2619 2.94093E+01 2.82155E+00-1.38263E-01 3.02147E+00 3.78031E-14 4.12684E-13
 -1      2620 2.95053E+01 1.13854E+00-2.19194E-01 3.64732E+00-7.66054E-15 4.65201E-13
 -1      2621 2.93304E+01 4.20047E+00-2.07620E-01-3.85337E-01 1.53877E-13 4.21285E-13
 -1      2622 2.94245E+01 3.93213E+00-1.74406E-01 1.43424E+00 9.70335E-14 4.37372E-13
 -1      2623 2.95664E+01 1.88878E+00-2.40338E-01-3.38785E+00 2.32259E-13 3.38535E-13
 -1      2624 2.93408E+01 3.65722E+00-9.26998E-02-2.14593E+00 1.80023E-13 3.95656E-13
 -1      2625 3.00699E+01-2.65473E+00-6.08888E-02-2.12473E+00 3.64663E-13 4.26326E-14
 -1      2626 1.99995E+01-3.93505E-04-1.43031E-06-6.57021E-04-4.69056E-14 2.30615E-13
 -1      2627 2.25230E+01-5.65915E+00 9.72817E-02 4.77443E+00 1.68615E-13-4.89712E-14
 -1      2628 1.99995E+01-5.13180E-04 4.72005E-07-7.47305E-04-8.73531E-14 3.10466E-13
 -1      2629 5.55782E+00-1.01416E+00 1.75417E-01-8.22292E-01 5.33167E-14 2.21129E-13
 -1      2630 7.90421E+00-2.12207E+00 1.59804E-01 3.75294E+00 1.33782E-14 2.64566E-13
 -1      2631 2.31813E+01-3.95371E+00 5.95244E-02 5.46425E+00 2.12053E-14 3.02883E-13
 -1      2632 3.05136E+01 2.54503E+00-6.12192E-02 1.12024E+00 1.13243E-13 1.12799E-13
 -1      2633 1.99994E+01-3.93559E-04-5.24473E-06 7.27467E-04 1.42934E-14 2.11918E-13
 -1      2634 1.99995E+01-5.75971E-04 2.82697E-06 8.13917E-04-8.40758E-14 1.53586E-13
 -1      2635 1.99995E+01-6.54890E-04-2.20611E-06 9.88886E-04-1.92141E-13 1.80128E-13
 -1      2636 1.99993E+01-3.94387E-04-7.19221E-06 8.58634E-04-7.17818E-14 2.69563E-13
 -1      2637 1.30513E+01-3.90441E+00 1.23307E-01-7.15152E+00 1.34642E-13 2.17604E-14
 -1      2638 3.13180E+01 7.68392E+00-1.28973E-01-6.78453E-02-3.49720E-15 1.56678E-13
 -1      2639 2.92115E+01 7.20338E+00-1.63833E-01-4.93215E-01-2.93654E-14 1.24347E-13
 -1      2640 2.91831E+01 7.21181E+00-1.37922E-01 4.10396E-01 3.33900E-14 6.96873E-14
 -1      2641 3.11231E+01 5.96687E+00-6.96296E-02-1.30751E+00-1.18100E-13 1.93776E-13
 -1      2642 3.08430E+01 1.95262E+00-4.16914E-02-5.37592E-01-9.02334E-14 2.11497E-13
 -1      2643 2.12504E+01 2.27028E+00 8.08504E-03-6.68515E-01 1.06723E-13 3.37770E-13
 -1      2644 4.65088E+00-6.85562E-01 1.53148E-01 2.62270E+00 1.64244E-13 7.44960E-14
 -1      2645 3.32430E+01-1.20596E+00 4.48832E-02 1.46428E+00-1.34198E-13 8.45990E-14
 -1      2646 3.45759E+01 8.58775E-01-8.97555E-02 2.20111E+00-7.53009E-14 1.61371E-13
 -1      2647 1.99995E+01-5.92324E-04-3.42439E-06-9.30939E-04-6.73646E-14 2.87775E-13
 -1      2648 1.89854E+01-4.96846E+00 1.18300E-01-5.66916E+00-1.11772E-13-1.72383E-13
 -1      2649 1.99993E+01-5.08831E-04 3.43699E-06 1.05558E-03-7.46209E-14 3.06349E-13
 -1      2650 2.68357E+01-5.42848E+00 1.36058E-01-3.01126E+00-2.00007E-13-8.74856E-14
 -1      2651 9.22094E+00-1.59237E+00 1.58300E-01 6.25416E+00 1.72168E-13 1.82521E-13
 -1      2652 3.22827E+01 1.09439E+00-5.97263E-02 3.08671E+00-2.06224E-14 2.82468E-13
 -1      2653 2.85217E+01-1.99420E+00 1.97986E-02 2.11627E+00-4.32709E-14 2.81331E-13
 -1      2654 3.21854E+01-2.64316E+00 9.48866E-02 1.09147E+00-1.85827E-13 2.96430E-14
 -1      2655 3.15317E+01 1.23605E+00-6.42237E-02-3.42266E+00 3.75810E-13 2.12802E-13
 -1      2656 1.40388E+01 3.73975E+00-3.46090E-02 2.30191E+00 2.76487E-13 1.22785E-13
 -1      2657 1.47845E+01 3.49893E+00 4.40597E-02 2.58368E+00 2.78390E-13 9.65741E-14
 -1      2658 1.57183E+01 2.85741E+00-3.08807E-02 2.79173E+00 2.70455E-13 7.95084E-14
 -1      2659 1.67932E+01 2.51727E+00 4.16199E-02 2.72252E+00 2.64030E-13 7.00070E-14
 -1      2660 1.51509E+01 2.67155E+00 1.49457E-02 3.12486E+00 2.57024E-13 8.51905E-14
 -1      2661 1.51899E+01 3.83168E+00 2.28136E-02-2.49720E-01 2.37835E-13 1.64342E-13
 -1      2662 1.42213E+01 4.03991E+00-1.65954E-02 2.40616E-01 2.60141E-13 1.41335E-13
 -1      2663 1.80725E+01 2.85203E+00 3.29180E-02-1.05381E+00 1.73233E-13 2.18406E-13
 -1      2664 1.65045E+01 3.25648E+00-2.93527E-02-8.25241E-01 2.08274E-13 1.88427E-13
 -1      2665 1.55194E+01 3.14807E+00 3.13187E-02-9.44791E-01 2.14962E-13 1.57800E-13
 -1      2666 6.38594E+00 4.99355E-01 8.95121E-02 3.43777E+00 2.17180E-13 1.09579E-13
 -1      2667 5.49103E+00 5.37937E-01 1.68833E-01 1.03263E+00 1.97007E-13 4.43534E-14
 -1      2668 2.21114E+01 3.09975E-01 5.33680E-03-1.53198E+00 8.24617E-14-2.42200E-13
 -1      2669 2.20058E+01 8.53336E-02-1.07204E-02-1.47324E+00 7.45761E-14-2.13613E-13
 -1      2670 2.20171E+01 2.56169E-01 2.25319E-02-2.11807E+00 4.92176E-14 1.97258E-13
 -1      2671 2.17321E+01 9.59178E-01 3.48252E-02-1.80118E+00 5.73395E-14 2.37256E-13
 -1      2672 6.20907E+00 4.55830E-01 1.67028E-01-8.02845E-01 1.73256E-13 1.02418E-14
 -1      2673 8.13215E+00-1.97384E-02 9.91973E-02-2.95243E+00 1.59650E-13-2.54241E-14
 -1      2674 8.01539E+00 1.55483E+00 2.05586E-01 1.19579E-01 2.18050E-13 4.35763E-14
 -1      2675 2.20633E+01-3.55259E-02 5.93755E-03-1.51424E+00 6.91698E-14-1.95533E-13
 -1      2676 2.19211E+01-6.02430E-02-4.58227E-03-1.51708E+00 4.98233E-14-1.67011E-13
 -1      2677 2.22836E+01 4.33958E-02 3.37285E-03-1.52591E+00 8.88149E-14-1.83377E-13
 -1      2678 2.18770E+01 9.62692E-03-2.43382E-03-1.56938E+00 1.62824E-14-1.42214E-13
 -1      2679 2.17183E+01 1.63703E-01 4.17334E-03-1.54763E+00-8.90824E-15-1.34031E-13
 -1      2680 2.22942E+01-1.37451E-02 6.10571E-03-1.63028E+00 4.86057E-14-1.46741E-13
 -1      2681 2.15720E+01 3.76841E-01-9.57276E-03-1.51162E+00-4.05145E-14-1.13253E-13
 -1      2682 2.14147E+01 6.40534E-01 1.17982E-02-1.38480E+00-3.81999E-14-1.21024E-13
 -1      2683 2.21294E+01 3.44219E-01 6.82002E-03-1.66662E+00-5.03016E-15-1.33462E-13
 -1      2684 2.12144E+01 9.02457E-01-1.08733E-02-1.17745E+00-3.60019E-14-1.12812E-13
 -1      2685 2.10913E+01 1.14934E+00 1.32290E-02-9.10592E-01-6.19027E-14-1.33143E-13
 -1      2686 2.18196E+01 9.50498E-01 1.13834E-03-1.43575E+00-5.02176E-14-1.15983E-13
 -1      2687 2.09369E+01 1.32863E+00-2.96282E-03-5.31148E-01-1.00168E-13-1.48434E-13
 -1      2688 2.08808E+01 1.42425E+00 7.62437E-03-1.64925E-01-9.34092E-14-1.95843E-13
 -1      2689 2.14965E+01 1.51518E+00-6.46694E-03-8.31408E-01-8.68936E-14-1.66557E-13
 -1      2690 2.08620E+01 1.41122E+00 9.25516E-03 2.85996E-01-5.12904E-14-1.81738E-13
 -1      2691 2.08862E+01 1.28621E+00-3.68321E-03 6.42639E-01-2.77590E-14-1.81658E-13
 -1      2692 2.13332E+01 1.72879E+00-8.91454E-03 4.53542E-02-6.69672E-14-1.46244E-13
 -1      2693 2.10013E+01 1.07731E+00 1.51658E-02 1.00240E+00-4.21559E-15-1.69443E-13
 -1      2694 2.10846E+01 7.90658E-01-1.32513E-02 1.23904E+00 8.86311E-15-1.06517E-13
 -1      2695 2.14147E+01 1.43998E+00-4.96335E-03 9.02032E-01-1.46402E-14-1.04125E-13
 -1      2696 2.12440E+01 4.84381E-01 1.31043E-02 1.40028E+00-3.28969E-15-1.10347E-13
 -1      2697 2.13465E+01 1.63696E-01-1.40123E-02 1.46704E+00 1.88212E-14-1.26583E-13
 -1      2698 2.16535E+01 7.81443E-01 4.50007E-03 1.43514E+00 1.89543E-14-8.04870E-14
 -1      2699 2.14461E+01-1.16724E-01 5.63156E-03 1.42332E+00 9.75045E-15-1.34689E-13
 -1      2700 2.15257E+01-3.61050E-01-9.48991E-03 1.34293E+00 2.32005E-14-1.67036E-13
 -1      2701 2.18666E+01 2.66881E-02 8.19766E-03 1.53211E+00-7.10348E-15-1.40755E-13
 -1      2702 2.15187E+01-5.37277E-01-1.83188E-03 1.16456E+00 1.04798E-14-1.61832E-13
 -1      2703 2.15532E+01-6.56978E-01-2.57369E-03 9.99959E-01-3.48202E-15-1.56933E-13
 -1      2704 2.19202E+01-5.49982E-01 8.30163E-03 1.27731E+00-1.76283E-14-1.74269E-13
 -1      2705 2.14542E+01-7.17960E-01-6.19125E-03 7.77488E-01 4.34407E-14-1.42235E-13
 -1      2706 2.14432E+01-7.28641E-01 2.35481E-03 5.90935E-01 5.91658E-14-8.62966E-14
 -1      2707 2.17904E+01-8.40678E-01 4.30137E-03 8.50151E-01 5.00178E-14-9.29000E-14
 -1      2708 2.12950E+01-7.04551E-01-7.42438E-03 3.86973E-01 2.46609E-14-2.72143E-14
 -1      2709 2.12512E+01-6.47014E-01 4.83501E-03 2.20271E-01 3.61487E-14 3.68034E-14
 -1      2710 2.15388E+01-8.74053E-01 1.12272E-04 4.11174E-01 1.00441E-13 2.90890E-14
 -1      2711 2.10932E+01-5.77713E-01-6.60506E-03 6.41304E-02 1.33898E-14 2.38557E-15
 -1      2712 2.10316E+01-4.91936E-01 5.33997E-03-6.30799E-02-1.08284E-14 8.77613E-15
 -1      2713 2.12421E+01-7.45234E-01-2.62026E-03 4.92835E-02 2.06757E-15 3.05675E-14
 -1      2714 2.08889E+01-4.09899E-01-4.92147E-03-1.65892E-01-5.04413E-14-2.34442E-14
 -1      2715 2.08216E+01-3.23656E-01 4.71665E-03-2.50082E-01-9.18372E-14 1.05326E-14
 -1      2716 2.09577E+01-5.47414E-01-3.63209E-03-2.05348E-01-4.12381E-14 2.92984E-14
 -1      2717 2.07050E+01-2.48659E-01-3.17461E-03-3.06584E-01-8.54342E-14 2.47383E-14
 -1      2718 2.06397E+01-1.76498E-01 3.63773E-03-3.53025E-01-7.40722E-14 4.76241E-14
 -1      2719 2.07154E+01-3.46475E-01-3.55426E-03-3.58220E-01-7.45285E-14-2.44474E-16
 -1      2720 2.05503E+01-1.17432E-01-1.71382E-03-3.74476E-01-5.79791E-14 4.15716E-14
 -1      2721 2.04909E+01-6.42507E-02 2.52569E-03-3.91896E-01 2.85216E-15 7.08493E-14
 -1      2722 2.05239E+01-1.77187E-01-2.98876E-03-4.29752E-01-3.61338E-14 2.06656E-15
 -1      2723 2.04253E+01-2.28579E-02-6.28794E-04-3.89507E-01-1.65067E-14 5.52239E-14
 -1      2724 2.03733E+01 1.20867E-02 1.58778E-03-3.86911E-01-1.43829E-14-1.71330E-14
 -1      2725 2.03797E+01-5.15937E-02-2.30629E-03-4.43282E-01-2.55710E-14 7.08215E-15
 -1      2726 2.03266E+01 3.78471E-02 1.05812E-04-3.70020E-01 6.06571E-14-4.52201E-14
 -1      2727 2.02822E+01 5.78573E-02 8.85963E-04-3.55141E-01 6.86858E-14-6.64325E-14
 -1      2728 2.02743E+01 3.15855E-02-1.69130E-03-4.19528E-01-7.06141E-16 1.62387E-14
 -1      2729 2.02494E+01 7.14626E-02 5.55515E-04-3.30760E-01 4.92668E-14-1.06740E-13
 -1      2730 2.02123E+01 8.04875E-02 4.05613E-04-3.09539E-01 1.07571E-13-1.99252E-13
 -1      2731 2.01986E+01 7.97813E-02-1.20802E-03-3.74714E-01 2.50214E-14-5.33206E-14
 -1      2732 2.01894E+01 8.55151E-02 7.91650E-04-2.82535E-01 8.01803E-14-1.48035E-13
 -1      2733 2.01588E+01 8.71698E-02 1.03507E-04-2.59155E-01 2.79797E-14-1.56482E-13
 -1      2734 2.01445E+01 1.02070E-01-8.56869E-04-3.20516E-01 9.83599E-14-1.23354E-13
 -1      2735 2.01428E+01 8.66776E-02 8.77919E-04-2.32652E-01 1.64121E-16-2.19088E-13
 -1      2736 2.01180E+01 8.38595E-02-6.82684E-05-2.09814E-01 7.61435E-14-2.18633E-13
 -1      2737 2.01058E+01 1.06845E-01-6.13320E-04-2.64746E-01-2.17831E-14-8.43973E-14
 -1      2738 2.01067E+01 8.01933E-02 8.66118E-04-1.85624E-01 9.44264E-14-2.47351E-13
 -1      2739 2.00868E+01 7.50247E-02-1.51673E-04-1.64890E-01 6.41960E-14-1.97012E-13
 -1      2740 2.00778E+01 1.00881E-01-4.48398E-04-2.12209E-01 4.89285E-14-6.29954E-14
 -1      2741 2.00788E+01 6.98440E-02 7.95823E-04-1.43899E-01 4.02360E-14-2.13587E-13
 -1      2742 2.00631E+01 6.37658E-02-1.79370E-04-1.26014E-01 6.54090E-15-1.41724E-13
 -1      2743 2.00574E+01 8.91782E-02-3.37091E-04-1.65512E-01 8.11146E-14-1.87083E-13
 -1      2744 2.00573E+01 5.81597E-02 6.95652E-04-1.08491E-01-1.19619E-14-9.06960E-15
 -1      2745 2.00452E+01 5.20764E-02-1.74863E-04-9.36640E-02 1.56518E-15 1.46183E-14
 -1      2746 2.00423E+01 7.51585E-02-2.60691E-04-1.25746E-01 1.15396E-13-1.53076E-14
 -1      2747 2.00409E+01 4.67012E-02 5.85173E-04-7.94958E-02 1.69004E-14-2.63633E-14
 -1      2748 2.00317E+01 4.11254E-02-1.54016E-04-6.76006E-02 6.61480E-15 5.44254E-14
 -1      2749 2.00311E+01 6.09886E-02-2.06449E-04-9.30231E-02 3.11192E-14 1.45618E-13
 -1      2750 2.00285E+01 3.63311E-02 4.76879E-04-5.64621E-02 5.99733E-14 1.38865E-13
 -1      2751 2.00216E+01 3.15076E-02-1.26822E-04-4.71937E-02 8.52385E-14 1.18189E-13
 -1      2752 2.00226E+01 4.79133E-02-1.66134E-04-6.68723E-02 2.64936E-14 2.16319E-13
 -1      2753 2.00193E+01 2.74408E-02 3.77959E-04-3.86636E-02 6.26511E-14 7.52830E-14
 -1      2754 2.00142E+01 2.34431E-02-9.90913E-05-3.16380E-02 5.69661E-14 1.46995E-13
 -1      2755 2.00162E+01 3.65421E-02-1.34635E-04-4.65202E-02 2.04750E-14 1.96781E-13
 -1      2756 2.00124E+01 2.01244E-02 2.91896E-04-2.52720E-02 3.77310E-14 7.69668E-14
 -1      2757 2.00088E+01 1.69240E-02-7.39314E-05-2.00911E-02-4.61040E-15 1.07989E-13
 -1      2758 2.00114E+01 2.70741E-02-1.09112E-04-3.10778E-02 5.85703E-14 1.85438E-13
 -1      2759 2.00075E+01 1.43019E-02 2.19794E-04-1.54662E-02 2.27496E-14 5.64911E-14
 -1      2760 2.00050E+01 1.18158E-02-5.27260E-05-1.17558E-02-1.91499E-14 9.05189E-14
 -1      2761 2.00079E+01 1.94618E-02-8.80054E-05-1.96567E-02 3.20176E-14 7.29744E-15
 -1      2762 2.00041E+01 9.80301E-03 1.61245E-04-8.49451E-03-6.64697E-14 2.01030E-13
 -1      2763 2.00024E+01 7.92498E-03-3.57891E-05-5.92445E-03-6.60825E-14 1.51696E-13
 -1      2764 2.00052E+01 1.35235E-02-7.03603E-05-1.14368E-02-2.37040E-14 2.81845E-14
 -1      2765 2.00017E+01 6.42169E-03 1.14961E-04-3.70458E-03-4.89604E-14 3.29248E-13
 -1      2766 2.00006E+01 5.04184E-03-2.28216E-05-1.99601E-03-7.13111E-14 3.73650E-13
 -1      2767 2.00032E+01 9.01819E-03-5.55672E-05-5.70134E-03 4.66713E-15 2.01572E-13
 -1      2768 2.00002E+01 3.95024E-03 7.92658E-05-5.52171E-04 7.44808E-14 4.26906E-13
 -1      2769 1.99995E+01 2.96601E-03-1.32636E-05 5.22491E-04 2.50669E-13 4.88375E-13
 -1      2770 2.00019E+01 5.69223E-03-4.32440E-05-1.84755E-03 7.26929E-14 4.45909E-13
 -1      2771 1.99992E+01 2.19746E-03 5.23944E-05 1.40295E-03 1.00111E-13 4.13100E-13
 -1      2772 1.99989E+01 1.51886E-03-6.48978E-06 2.02418E-03 3.10883E-14 2.76800E-13
 -1      2773 2.00009E+01 3.30690E-03-3.31029E-05 6.15738E-04 6.95877E-14 1.13061E-13
 -1      2774 1.99987E+01 9.97111E-04 3.26681E-05 2.50736E-03-4.83921E-14 5.61225E-14
 -1      2775 1.99985E+01 5.48453E-04-1.90214E-06 2.81456E-03-2.37009E-13 2.74817E-14
 -1      2776 2.00002E+01 1.65127E-03-2.48739E-05 2.07851E-03-1.96758E-13 7.09629E-16
 -1      2777 1.99984E+01 2.10302E-04 1.85809E-05 3.02707E-03-1.52609E-13-2.47283E-15
 -1      2778 1.99984E+01-7.00470E-05 1.02399E-06 3.12521E-03-1.67079E-13 1.03290E-13
 -1      2779 1.99998E+01 5.46997E-04-1.82960E-05 2.84280E-03-1.48227E-13-3.14550E-14
 -1      2780 1.99983E+01-2.75486E-04 8.84220E-06 3.16114E-03-2.65092E-13 2.69884E-13
 -1      2781 1.99985E+01-4.36456E-04 2.72223E-06 3.12714E-03-2.53137E-13 2.11727E-13
 -1      2782 1.99995E+01-1.51863E-04-1.31213E-05 3.13686E-03-1.52571E-13 6.98649E-14
 -1      2783 1.99984E+01-5.49241E-04 2.38574E-06 3.05452E-03-2.97147E-13 1.20784E-13
 -1      2784 1.99986E+01-6.28906E-04 3.53397E-06 2.94298E-03-3.14931E-13 1.39736E-13
 -1      2785 1.99994E+01-5.61646E-04-9.11974E-06 3.12890E-03-3.50069E-13-1.45035E-14
 -1      2786 1.99985E+01-6.80040E-04-1.64398E-06 2.80938E-03-1.90001E-13 4.41390E-14
 -1      2787 1.99987E+01-7.07618E-04 3.71844E-06 2.65753E-03-1.68769E-14-7.97250E-15
 -1      2788 1.99993E+01-7.73236E-04-6.08617E-06 2.93925E-03-2.42410E-13-2.77161E-13
 -1      2789 1.99987E+01-7.20857E-04-3.90787E-06 2.49473E-03 6.09291E-14-8.70598E-14
 -1      2790 1.99989E+01-7.18640E-04 3.46021E-06 2.32643E-03 1.75667E-13-1.76631E-13
 -1      2791 1.99993E+01-8.56607E-04-3.84955E-06 2.65087E-03-6.53405E-14-1.00902E-13
 -1      2792 1.99989E+01-7.12183E-04-4.91680E-06 2.15421E-03 2.38218E-13-1.54427E-13
 -1      2793 1.99991E+01-6.97191E-04 2.90386E-06 1.98322E-03 2.45187E-13-1.25553E-13
 -1      2794 1.99994E+01-8.65224E-04-2.27534E-06 2.31815E-03 1.44846E-13-2.26032E-13
 -1      2795 1.99991E+01-6.85240E-04-5.16135E-06 1.81230E-03 2.43670E-13-2.03297E-13
 -1      2796 1.99992E+01-6.69904E-04 2.02984E-06 1.64456E-03 1.61476E-13-2.16908E-13
 -1      2797 1.99994E+01-8.39820E-04-1.29340E-06 1.97363E-03 1.95428E-13-3.43551E-13
 -1      2798 1.99993E+01-6.62030E-04-4.49108E-06 1.47980E-03 1.61455E-13-1.18208E-13
 -1      2799 1.99994E+01-6.56610E-04 3.48901E-07 1.31675E-03 1.41316E-13-7.61778E-14
 -1      2800 1.99995E+01-8.09331E-04 2.77050E-08 1.63340E-03 2.93507E-13-3.64367E-13
 -1      2801 2.84677E+01-4.48695E+00-1.22554E-01-6.90506E-01-1.76387E-13 1.10564E-13
 -1      2802 1.21801E+01-2.78733E+00 1.69685E-01-6.53025E+00 5.52058E-14 8.45157E-14
 -1      2803 1.54198E+01-3.91924E+00 7.93060E-03-7.06546E+00 8.40716E-14 1.08677E-13
 -1      2804 2.95853E+01-4.11319E+00-5.60649E-02-5.74526E-01 2.96478E-13 3.82194E-14
 -1      2805 2.62240E+01-3.67839E+00 6.78856E-02 1.69244E+00 2.33355E-13 1.03313E-13
 -1      2806 2.74773E+01-4.19832E+00-2.44406E-02 6.85437E-01 2.77611E-13 6.53193E-14
 -1      2807 2.81635E+01-4.54941E+00-4.59016E-02 8.05025E-01 2.74288E-13 5.68573E-14
 -1      2808 2.10042E+01 3.60397E-01 5.55802E-03 2.75561E+00-1.02571E-13 9.34283E-14
 -1      2809 2.13597E+01 3.92242E-02 1.76405E-02 2.87301E+00-7.88718E-14 7.84470E-14
 -1      2810 2.07824E+01 6.64335E-01-3.52748E-03 2.31230E+00-2.07427E-14 1.07698E-13
 -1      2811 2.10075E+01 5.59511E-01 1.20632E-02 2.49976E+00-8.70416E-14 7.00261E-14
 -1      2812 1.98639E+01 6.14492E-01-9.34413E-04 2.74516E+00-8.01898E-14-6.32914E-15
 -1      2813 2.06808E+01 7.05232E-01-5.68583E-03 1.87550E+00 5.00338E-14 1.27311E-13
 -1      2814 2.08460E+01 7.09877E-01 9.67775E-03 2.07560E+00 6.09972E-15 1.41303E-13
 -1      2815 1.99595E+01 8.70252E-01 3.94496E-03 2.24674E+00-1.22448E-14 5.32763E-14
 -1      2816 2.06070E+01 6.30353E-01-5.31121E-03 1.48556E+00 2.63597E-14 3.76583E-14
 -1      2817 2.07424E+01 6.79447E-01 8.52806E-03 1.66964E+00 7.97049E-14 5.38264E-14
 -1      2818 2.00814E+01 8.68826E-01 5.18951E-03 1.80894E+00 6.27613E-14 1.16175E-13
 -1      2819 2.05320E+01 5.19585E-01-4.25467E-03 1.15609E+00-1.13391E-13-1.31283E-14
 -1      2820 2.06478E+01 5.79610E-01 7.53968E-03 1.31284E+00-8.86244E-14 7.08912E-14
 -1      2821 2.01688E+01 7.59165E-01 4.45485E-03 1.43509E+00-3.00005E-14 4.37253E-14
 -1      2822 2.04527E+01 4.09943E-01-3.16996E-03 8.87375E-01-1.09732E-14-5.63481E-14
 -1      2823 2.05516E+01 4.66132E-01 6.47794E-03 1.01490E+00-3.28808E-14 3.73811E-15
 -1      2824 2.02122E+01 6.20251E-01 3.11663E-03 1.12321E+00-7.48610E-14-9.91205E-15
 -1      2825 2.03736E+01 3.15431E-01-2.25897E-03 6.73421E-01 8.47262E-14-1.34419E-13
 -1      2826 2.04566E+01 3.62698E-01 5.39675E-03 7.74246E-01 3.87446E-14-5.76179E-14
 -1      2827 2.02205E+01 4.87991E-01 1.86841E-03 8.68440E-01 2.94822E-15-1.13848E-13
 -1      2828 2.02998E+01 2.39123E-01-1.56099E-03 5.05920E-01 1.50888E-13-1.10924E-14
 -1      2829 2.03678E+01 2.76825E-01 4.38299E-03 5.84166E-01 9.56209E-14-1.56296E-13
 -1      2830 2.02065E+01 3.75469E-01 9.35338E-04 6.64014E-01 7.35732E-14-1.85692E-13
 -1      2831 2.02344E+01 1.79593E-01-1.05431E-03 3.76378E-01-4.51462E-16 1.07062E-13
 -1      2832 2.02890E+01 2.08822E-01 3.49004E-03 4.36345E-01 1.04729E-13 9.12198E-14
 -1      2833 2.01806E+01 2.84968E-01 3.21188E-04 5.02376E-01 1.32609E-14 4.92572E-14
 -1      2834 2.01788E+01 1.34000E-01-6.99463E-04 2.77133E-01-1.26522E-13 1.02273E-13
 -1      2835 2.02219E+01 1.56314E-01 2.73714E-03 3.22673E-01-3.11115E-14 1.43102E-13
 -1      2836 2.01505E+01 2.14355E-01-4.28341E-05 3.76090E-01-5.56173E-15 1.13502E-13
 -1      2837 2.01332E+01 9.94189E-02-4.57166E-04 2.01708E-01-1.10243E-13-2.69372E-14
 -1      2838 2.01665E+01 1.16316E-01 2.12100E-03 2.36030E-01-8.19450E-14 1.04323E-13
 -1      2839 2.01208E+01 1.60173E-01-2.33448E-04 2.78416E-01-9.58809E-14 2.16220E-14
 -1      2840 2.00969E+01 7.33218E-02-2.94726E-04 1.44823E-01 7.64814E-14-1.43359E-13
 -1      2841 2.01222E+01 8.60601E-02 1.62697E-03 1.70503E-01-1.83987E-14-1.01212E-13
 -1      2842 2.00939E+01 1.18975E-01-3.13414E-04 2.03557E-01-9.84546E-15-3.77067E-14
 -1      2843 2.00686E+01 5.36863E-02-1.87281E-04 1.02268E-01-1.17785E-13-1.08870E-13
 -1      2844 2.00876E+01 6.32621E-02 1.23646E-03 1.21333E-01-5.75891E-14-1.67191E-13
 -1      2845 2.00709E+01 8.78071E-02-3.27804E-04 1.46692E-01 4.28032E-15-8.94593E-14
 -1      2846 2.00471E+01 3.89505E-02-1.16958E-04 7.07261E-02-1.56994E-13-5.25886E-14
 -1      2847 2.00610E+01 4.61288E-02 9.30956E-04 8.47516E-02-1.14713E-13-1.14013E-13
 -1      2848 2.00521E+01 6.43056E-02-3.06664E-04 1.03898E-01-1.10308E-13-2.73520E-14
 -1      2849 2.00311E+01 2.79277E-02-7.13700E-05 4.76005E-02-5.44129E-14 6.97857E-14
 -1      2850 2.00411E+01 3.32890E-02 6.93981E-04 5.78051E-02-1.02989E-13-2.28833E-15
 -1      2851 2.00372E+01 4.66389E-02-2.68977E-04 7.20243E-02-1.30283E-13-1.20674E-13
 -1      2852 2.00194E+01 1.97203E-02-4.20726E-05 3.08678E-02-1.87193E-13 1.59842E-13
 -1      2853 2.00265E+01 2.37037E-02 5.11579E-04 3.81915E-02-6.42282E-14 2.00529E-13
 -1      2854 2.00257E+01 3.34086E-02-2.25956E-04 4.85649E-02-1.24466E-13-6.62424E-15
 -1      2855 2.00111E+01 1.36499E-02-2.33893E-05 1.89561E-02-8.63260E-14 3.45283E-14
 -1      2856 2.00160E+01 1.65877E-02 3.72212E-04 2.41225E-02-1.60346E-13 2.05280E-13
 -1      2857 2.00170E+01 2.35524E-02-1.83741E-04 3.15391E-02-8.64427E-14 1.93941E-14
 -1      2858 2.00054E+01 9.20162E-03-1.16144E-05 1.06475E-02 2.49996E-13-8.44317E-14
 -1      2859 2.00087E+01 1.13463E-02 2.66555E-04 1.42131E-02 7.97847E-14-1.24173E-14
 -1      2860 2.00107E+01 1.62633E-02-1.45564E-04 1.93908E-02 3.74067E-14 7.60979E-14
 -1      2861 2.00017E+01 5.98170E-03-4.35247E-06 5.00182E-03 3.38097E-13-1.73452E-13
 -1      2862 2.00037E+01 7.52685E-03 1.87203E-04 7.39276E-03 3.32785E-13-8.17962E-14
 -1      2863 2.00062E+01 1.09257E-02-1.12811E-04 1.09019E-02 2.26736E-13-9.95596E-14
 -1      2864 1.99993E+01 3.68725E-03-1.51028E-08 1.29779E-03 1.32766E-13 1.24322E-13
 -1      2865 2.00005E+01 4.78177E-03 1.28274E-04 2.83880E-03 1.82210E-13-8.31731E-14
 -1      2866 2.00031E+01 7.06684E-03-8.56630E-05 5.12576E-03 1.56439E-13-1.64706E-14
 -1      2867 1.99979E+01 2.08501E-03 2.44506E-06-1.01356E-03 2.45070E-13 1.53049E-13
 -1      2868 1.99985E+01 2.84351E-03 8.50766E-05-7.69155E-05 2.26731E-13 9.57362E-14
 -1      2869 2.00010E+01 4.32231E-03-6.37419E-05 1.33196E-03 1.48822E-13 4.42998E-14
 -1      2870 1.99972E+01 9.95512E-04 3.71137E-06-2.34629E-03 1.88246E-14 1.80852E-13
 -1      2871 1.99974E+01 1.50608E-03 5.38981E-05-1.83000E-03 1.91209E-13 1.45899E-13
 -1      2872 1.99997E+01 2.41083E-03-4.64393E-05-1.03761E-03 1.89969E-13 5.52417E-14
 -1      2873 1.99970E+01 2.80937E-04 4.22537E-06-3.00916E-03-1.29574E-13-1.47245E-13
 -1      2874 1.99969E+01 6.11112E-04 3.18214E-05-2.77695E-03-3.16312E-14 4.34141E-14
 -1      2875 1.99989E+01 1.11575E-03-3.30550E-05-2.40522E-03 5.16077E-14 1.81682E-13
 -1      2876 1.99970E+01-1.64104E-04 4.26977E-06-3.22915E-03-1.79830E-13-1.60213E-13
 -1      2877 1.99968E+01 3.72086E-05 1.65635E-05-3.18160E-03-2.96591E-13-2.68272E-13
 -1      2878 1.99985E+01 2.70643E-04-2.28923E-05-3.08645E-03-1.51678E-13 3.10820E-14
 -1      2879 1.99972E+01-4.19784E-04 4.02160E-06-3.17010E-03-3.43141E-13-1.58507E-13
 -1      2880 1.99970E+01-3.08230E-04 6.34823E-06-3.23609E-03-1.97999E-13-7.43419E-14
 -1      2881 1.99983E+01-2.51820E-04-1.53147E-05-3.31356E-03-2.99202E-13-1.30545E-14
 -1      2882 1.99975E+01-5.46750E-04 3.58666E-06-2.94745E-03-2.89471E-13-2.30600E-13
 -1      2883 1.99973E+01-4.95448E-04-1.91832E-07-3.07745E-03-3.53869E-13-1.96134E-13
 -1      2884 1.99984E+01-5.48498E-04-9.77081E-06-3.25427E-03-3.78954E-13-2.01505E-13
 -1      2885 1.99979E+01-5.90696E-04 3.02239E-06-2.63979E-03-3.19402E-13-1.54727E-13
 -1      2886 1.99976E+01-5.77459E-04-4.09652E-06-2.80064E-03-2.63657E-13-2.79471E-13
 -1      2887 1.99985E+01-6.92666E-04-5.79857E-06-3.02671E-03-2.29769E-13-1.32860E-13
 -1      2888 1.99982E+01-5.86066E-04 2.35360E-06-2.29789E-03 3.03404E-13-3.05077E-13
 -1      2889 1.99980E+01-5.94179E-04-6.14717E-06-2.46877E-03 5.49815E-14-2.04931E-13
 -1      2890 1.99986E+01-7.39546E-04-3.02643E-06-2.71122E-03-1.03665E-13-1.29540E-13
 -1      2891 1.99986E+01-5.59029E-04 1.61528E-06-1.95158E-03 1.25198E-13-2.44036E-13
 -1      2892 1.99983E+01-5.75801E-04-6.91476E-06-2.12096E-03 9.59391E-14-1.96345E-13
 -1      2893 1.99988E+01-7.30806E-04-1.17398E-06-2.35961E-03 1.82112E-13-3.98095E-13
 -1      2894 1.99989E+01-5.30058E-04 4.68179E-07-1.61535E-03 2.49388E-13 9.76677E-14
 -1      2895 1.99987E+01-5.45520E-04-6.82833E-06-1.77838E-03 2.63477E-13-1.10018E-13
 -1      2896 1.99990E+01-6.97977E-04 3.44730E-11-2.00237E-03 7.75315E-14-2.08674E-13
 -1      2897 1.99991E+01-5.14594E-04-2.61416E-06-1.29211E-03-1.03461E-13 2.50202E-13
 -1      2898 1.99990E+01-5.20933E-04-6.56167E-06-1.44756E-03 1.09645E-13 3.13416E-13
 -1      2899 1.99992E+01-6.64755E-04 1.46638E-06-1.65480E-03 1.53168E-13 1.39535E-13
 -1      2900 1.99994E+01-5.53776E-04-4.03869E-06-1.03486E-03-9.21128E-14 2.71920E-13
 -1      2901 1.99992E+01-5.51424E-04-6.72604E-06-1.19043E-03-1.01171E-13 2.62093E-13
 -1      2902 1.99994E+01-6.78643E-04 6.70119E-06-1.37064E-03-6.22791E-14 4.13697E-13
 -1      2903 1.99996E+01-7.48757E-04 7.03419E-06-1.14366E-03-1.98201E-13 2.10825E-13
 -1      2904 2.00005E+01-1.76098E-03 3.98562E-06-1.03283E-04-1.83742E-13 2.83632E-13
 -1      2905 2.00005E+01-1.74000E-03 2.28790E-06-2.91794E-04 1.79374E-13 9.45485E-14
 -1      2906 1.77889E+01-3.89579E+00 1.43075E-01-5.34022E+00-6.03406E-14-1.36308E-13
 -1      2907 2.14356E+01-5.04960E+00-6.83627E-02-4.85364E+00-1.23318E-13-1.18752E-13
 -1      2908 2.00003E+01-1.53652E-03 6.07906E-06-8.35509E-04 2.21635E-13 1.27192E-14
 -1      2909 2.00002E+01-1.43575E-03-1.00739E-06-9.59018E-04 1.45458E-13-1.62863E-13
 -1      2910 2.00005E+01-1.73679E-03 2.25121E-06 3.02409E-04-1.78468E-13 2.21225E-13
 -1      2911 2.00005E+01-1.75960E-03 4.03842E-06 1.14379E-04-3.47488E-13 3.47974E-13
 -1      2912 2.00007E+01-1.75728E-03-5.09511E-06 6.56577E-06-1.85646E-13 1.57946E-13
 -1      2913 2.00005E+01-1.69249E-03 5.42481E-06-4.97860E-04 1.98575E-13 3.11275E-13
 -1      2914 2.00004E+01-1.62952E-03 2.86072E-07-6.64592E-04 2.28076E-13 2.33419E-13
 -1      2915 2.00005E+01-1.58347E-03-4.26831E-06-8.27602E-04 3.51615E-14 1.65495E-13
 -1      2916 2.00006E+01-1.71441E-03-4.93882E-06-4.34602E-04 7.44128E-14 2.20638E-13
 -1      2917 2.00004E+01-1.62530E-03 1.50323E-07 6.67177E-04 1.80392E-14-5.00278E-13
 -1      2918 2.00005E+01-1.68798E-03 5.40639E-06 5.04142E-04-4.86531E-14 9.83250E-14
 -1      2919 2.00006E+01-1.71020E-03-4.92620E-06 4.42988E-04-3.89349E-14 2.11172E-13
 -1      2920 2.00002E+01-1.43141E-03-1.82117E-06 9.60240E-04 3.55723E-13-2.25286E-13
 -1      2921 2.00003E+01-1.53112E-03 6.32980E-06 8.36829E-04 2.52743E-13-5.05518E-13
 -1      2922 2.00005E+01-1.57711E-03-4.35250E-06 8.30208E-04 4.24511E-14-3.36897E-13
 -1      2923 2.00000E+01-1.16970E-03-1.45919E-06 1.13480E-03 2.70401E-13 7.70446E-14
 -1      2924 2.00001E+01-1.30012E-03 5.93381E-06 1.07393E-03 3.66542E-13 4.55882E-14
 -1      2925 2.00002E+01-1.36629E-03-2.90605E-06 1.12633E-03 3.95883E-13-1.27388E-13
 -1      2926 1.06132E+01-1.95488E+00 1.13821E-01 4.85944E+00 4.33542E-14 3.45945E-13
 -1      2927 8.31558E+00-6.74359E-01 1.56077E-01 2.85955E+00 6.08541E-15 2.43000E-13
 -1      2928 2.32316E+01-1.55283E+00 6.59488E-02-2.49678E+00-3.24116E-14 1.22740E-13
 -1      2929 2.24159E+01-5.72622E-01 7.61642E-02-2.55774E+00 1.18846E-14 1.47431E-13
 -1      2930 2.03313E+01 1.25509E-02-2.48253E-02-2.70599E+00 5.36376E-14 1.28442E-13
 -1      2931 2.85369E+01-1.65670E+00-1.82105E-01 8.00089E-01-4.66901E-14 1.91860E-13
 -1      2932 2.71814E+01-2.79819E+00 5.24050E-02 2.22776E+00-2.31100E-14 2.43361E-13
 -1      2933 2.87822E+01 5.09863E+00-1.22087E-01 1.64521E+00 8.30169E-14 2.05669E-14
 -1      2934 2.86879E+01 5.99194E+00-1.92727E-01 1.19078E+00 4.31599E-14 5.91194E-14
 -1      2935 2.46769E+01-3.87735E+00-1.06031E-01 4.20050E+00 2.58127E-15 3.06588E-13
 -1      2936 2.17749E+01-3.82916E+00 9.75978E-02 5.54638E+00 6.12010E-14 2.75176E-13
 -1      2937 1.85034E+01-3.42859E+00-1.56764E-02 6.69516E+00 1.27870E-13 2.14481E-13
 -1      2938 1.53696E+01-2.34076E+00 1.68390E-01 6.81995E+00 1.67658E-13 1.86171E-13
 -1      2939 2.15642E+01-4.29787E-01 2.91542E-02 3.10747E+00-7.38316E-14 1.20673E-13
 -1      2940 2.21738E+01-1.09433E+00 2.51592E-02 3.05327E+00 1.37494E-14 1.42696E-13
 -1      2941 1.99687E+01-1.39764E-01-1.16099E-02 3.28115E+00-7.89395E-14 6.55604E-14
 -1      2942 2.28679E+01-1.94100E+00 6.44998E-02 3.12976E+00 9.29491E-14 1.38264E-13
 -1      2943 2.38174E+01-2.95106E+00 9.56069E-03 2.76299E+00 1.94636E-13 1.37395E-13
 -1      2944 2.06613E+01-1.68169E+00-2.95855E-02 3.76493E+00 5.85660E-14 1.68868E-13
 -1      2945 6.99894E+00-6.54091E-02 1.35629E-01 2.86905E-01-3.34793E-14 1.93401E-13
 -1      2946 6.97857E+00-2.00683E-01 1.68947E-01-2.03934E+00 2.48274E-14 1.13382E-13
 -1      2947 1.37270E+01 4.18134E+00-2.00752E-03 1.08150E+00 2.74238E-13 1.49452E-13
 -1      2948 1.36855E+01 4.14692E+00 2.59020E-02 1.59671E+00 2.80040E-13 1.34646E-13
 -1      2949 1.35260E+01 3.62536E+00 4.01364E-02 2.20436E+00 2.73127E-13 1.29001E-13
 -1      2950 1.35922E+01 3.83047E+00 5.45109E-02 5.57875E-01 2.54835E-13 1.39551E-13
 -1      2951 2.47134E+01-3.85449E+00 1.00008E-01-2.65074E+00-1.30493E-13 5.16618E-14
 -1      2952 2.32538E+01-2.89748E+00 9.31325E-02-3.11630E+00-8.96956E-14 4.80857E-14
 -1      2953 2.08528E+01 1.14663E+00 5.89667E-03 4.50426E-01 2.02046E-13-2.99899E-14
 -1      2954 2.12471E+01 1.05600E+00-1.24919E-02-2.28037E-02 1.86558E-13-7.43581E-14
 -1      2955 1.13496E+01-1.32509E+00 2.03336E-02 6.65352E+00 2.02213E-13 1.93345E-13
 -1      2956 8.75303E+00-2.05053E-01 2.09695E-01 5.32459E+00 2.16535E-13 1.62481E-13
 -1      2957 1.99994E+01-6.56713E-04-4.51575E-06 1.20812E-03 1.53885E-13-1.13059E-14
 -1      2958 1.99995E+01-6.54638E-04-9.09826E-07 1.09721E-03-2.84276E-14 1.99734E-13
 -1      2959 1.99996E+01-7.91656E-04 1.16869E-06 1.35366E-03 1.80757E-13-1.66043E-13
 -1      2960 3.05614E+01-3.77499E-01-1.62834E-01 3.64810E+00-1.09038E-13 3.49332E-13
 -1      2961 1.99996E+01-7.90093E-04-8.92092E-07 1.13302E-03 5.34765E-14 1.08953E-13
 -1      2962 7.72996E+00-9.49338E-01 1.40110E-01-3.98176E+00 5.36585E-14 1.22041E-13
 -1      2963 9.52085E+00-1.88539E+00 1.00804E-01-5.71416E+00 6.99718E-14 1.13659E-13
 -1      2964 1.09344E+01-1.34931E+00 1.60539E-01-4.51588E+00 7.84650E-14-8.76244E-14
 -1      2965 1.42226E+01-2.87795E+00 6.71698E-02-5.57243E+00 5.55112E-15-1.44385E-13
 -1      2966 1.73124E+01-2.65761E+00 1.65646E-01-4.88872E+00-1.46827E-14-9.21208E-14
 -1      2967 2.90382E+01 1.01139E+00-2.36942E-02 1.37237E+00 1.28092E-13 7.26641E-14
 -1      2968 2.90596E+01 3.14343E+00-1.95320E-01 1.67402E+00 8.28088E-14 3.28626E-14
 -1      2969 2.76249E+01 3.36218E+00-1.04038E-01 1.84163E+00 8.51680E-14 7.71605E-15
 -1      2970 2.10780E+01 1.88145E+00 4.36256E-04-1.10584E+00 9.31681E-14 2.85075E-13
 -1      2971 2.96261E+01 2.51465E+00-2.04829E-01-1.48601E+00-1.10995E-13 1.64063E-13
 -1      2972 2.95014E+01 5.77180E-01-1.80570E-02-7.21848E-01-6.60305E-14 1.98203E-13
 -1      2973 2.91932E+01 6.10188E+00-2.17173E-01-1.39939E+00-8.79574E-14 1.34961E-13
 -1      2974 2.95749E+01 4.80997E+00-9.28507E-02-1.79365E+00-1.12854E-13 1.35877E-13
 -1      2975 1.70443E+01-4.24422E+00-4.85631E-03 5.85476E+00 6.72240E-14 2.20629E-13
 -1      2976 1.35681E+01-3.11816E+00 1.42468E-01 5.58396E+00 4.38954E-14 3.10932E-13
 -1      2977 2.20062E+01 9.58384E-01-1.09145E-02-1.64159E+00 8.24874E-14-2.63681E-13
 -1      2978 2.20095E+01 5.56170E-01-9.41572E-03-1.53653E+00 7.43366E-14-2.53794E-13
 -1      2979 2.21532E+01 4.49986E-01-1.19864E-03-1.48981E+00 9.42883E-14-1.94375E-13
 -1      2980 2.19390E+01 1.09887E+00 3.18476E-03-1.53634E+00 1.09581E-13-2.08940E-13
 -1      2981 2.76681E+01-3.21512E+00 2.02505E-02-1.57031E+00 2.27320E-13 1.83450E-13
 -1      2982 2.85296E+01-1.64446E+00-1.88766E-01 3.73157E-03 1.71741E-13 1.44842E-13
 -1      2983 1.74962E+01 1.57540E+00-1.38356E-02 2.97376E+00 2.35217E-13 7.37331E-14
 -1      2984 1.78308E+01 1.97281E+00-1.56723E-02 2.43366E+00 2.39138E-13 4.50044E-14
 -1      2985 1.88099E+01 1.67897E+00 2.20564E-02 2.07561E+00 2.33643E-13 2.80583E-14
 -1      2986 8.93757E+00 9.20644E-01 1.81517E-01 4.02783E+00 2.44429E-13 1.39583E-13
 -1      2987 2.15290E+01 1.10041E+00 4.54050E-03-5.07450E-01 1.73554E-13-1.13075E-13
 -1      2988 2.17232E+01 1.05275E+00-1.63626E-02-8.84063E-01 1.58341E-13-1.51633E-13
 -1      2989 2.17782E+01 5.55387E-01 2.13330E-03-2.60085E-01 1.49939E-13-7.77434E-14
 -1      2990 1.94881E+01 1.99371E+00-2.26999E-02-1.45237E+00 1.30828E-13 2.17781E-13
 -1      2991 1.85608E+01 1.78264E+00 1.05910E-02-1.85552E+00 1.43090E-13 1.73566E-13
 -1      2992 1.23208E+01-1.82879E+00 1.61223E-01-5.76248E+00 6.02296E-14 1.43871E-13
 -1      2993 2.37422E+01-3.69330E+00 1.05725E-02 3.04970E+00 2.04364E-13 7.15730E-14
 -1      2994 1.91918E+01-4.53341E+00 1.38685E-01-6.42396E+00 1.89723E-13 2.72060E-13
 -1      2995 2.17663E+01-5.09003E+00-3.45152E-02-5.84600E+00 2.22350E-13 3.19306E-13
 -1      2996 1.80051E+01-3.79966E+00 9.54392E-02-6.23773E+00 1.05971E-13 2.21684E-13
 -1      2997 2.57690E+01-3.19372E+00 2.58464E-02 2.67708E+00-9.52016E-15 2.29532E-13
 -1      2998 1.99997E+01-9.19299E-04-2.87011E-06-1.15828E-03-1.75422E-13-1.08395E-13
 -1      2999 1.99996E+01-8.86375E-04-6.01509E-06-1.28276E-03-1.58104E-13 3.68563E-14
 -1      3000 1.99999E+01-1.06336E-03 6.49289E-06-1.16413E-03-1.81654E-13-3.25887E-14
 -1      3001 2.44386E+01-5.28608E+00-2.16487E-02 3.66903E+00 1.86878E-13-1.54522E-13
 -1      3002 2.11350E+01-4.88129E+00 1.22479E-01 4.93323E+00 9.33004E-14 1.84089E-14
 -1      3003 1.99496E+01-3.83328E+00 1.33729E-01 4.84593E+00 5.99798E-14 8.74092E-14
 -1      3004 2.04253E+01-2.39821E+00-2.69086E-02-3.98784E+00-4.69694E-14 3.10169E-15
 -1      3005 1.07900E+01 8.59161E-02 3.89016E-02 2.83163E+00-6.23113E-15 3.09461E-13
 -1      3006 8.81800E+00 1.15959E-01 1.88051E-01 1.62539E+00-8.73607E-15 2.60875E-13
 -1      3007 9.71946E+00 7.83830E-01 1.20338E-01 5.26209E-01-2.74086E-15 2.53825E-13
 -1      3008 1.36474E+01-1.76984E+00 1.87561E-01 4.73594E+00 2.64511E-14 2.88991E-13
 -1      3009 1.99997E+01-9.43563E-04-4.79441E-08 1.14370E-03 1.83193E-13-5.48901E-14
 -1      3010 2.63543E+01-4.30758E+00-1.21385E-01-3.01374E+00 2.46192E-13 2.22961E-13
 -1      3011 2.70020E+01-3.54137E+00 3.89921E-02-1.59331E+00 2.56592E-13 1.75887E-13
 -1      3012 2.44484E+01-4.70455E+00 4.90159E-02-4.38346E+00 2.31315E-13 2.46081E-13
 -1      3013 2.83323E+01-6.63349E-01-4.44346E-02-4.14647E-01-6.46774E-14 1.48631E-13
 -1      3014 2.75533E+01 6.17039E+00-1.27192E-01 8.82466E-01 5.06817E-14 9.08995E-15
 -1      3015 2.69794E+01 6.34194E+00-1.39567E-01-6.27115E-01 5.19029E-15-4.03289E-14
 -1      3016 2.83182E+01 6.37596E+00-1.43716E-01-1.06520E+00-5.92304E-14 6.90559E-14
 -1      3017 2.71266E+01 5.40172E+00-9.96255E-02-1.45226E+00-5.81896E-14 2.65135E-14
 -1      3018 2.08855E+01-3.17744E+00 9.70935E-02 5.36585E+00 1.02071E-13 2.51895E-13
 -1      3019 1.96325E+01 1.39553E+00-1.22070E-03 1.52284E+00 2.26035E-13 3.02826E-14
 -1      3020 2.03215E+01 1.21052E+00 1.90134E-03 1.03978E+00 2.12270E-13-3.99789E-15
 -1      3021 2.10096E+01 5.54596E-01-1.27631E-02 8.29430E-01 1.82476E-13-1.04771E-14
 -1      3022 1.95879E+01 8.43656E-01-2.09823E-02 2.03240E+00 2.00824E-13 2.90127E-14
 -1      3023 1.44865E+01-1.25520E+00 1.32003E-01 6.25663E+00 1.94109E-13 1.76859E-13
 -1      3024 2.79945E+01-6.17833E-01-6.02864E-02 8.63628E-01 1.43035E-13 8.25590E-14
 -1      3025 2.00001E+01-1.32431E-03 6.38423E-06-1.05615E-03 4.80953E-14-2.71070E-13
 -1      3026 2.00000E+01-1.19672E-03-1.44567E-06-1.12053E-03-9.75774E-14 1.44480E-14
 -1      3027 2.00000E+01-1.16605E-03-4.57264E-06-1.25148E-03-7.67259E-14-1.06545E-14
 -1      3028 2.00002E+01-1.39241E-03-4.17817E-06-1.10552E-03 5.99320E-14-6.52755E-14
 -1      3029 8.97285E+00-5.79662E-02 1.62311E-01-2.86624E+00-3.16969E-14 1.13298E-13
 -1      3030 2.62690E+01-5.15241E+00 5.65132E-02 2.47619E+00 2.09902E-13-4.34375E-15
 -1      3031 1.11683E+01-7.67075E-03 1.71931E-01-3.39766E+00 1.37994E-13-2.53131E-14
 -1      3032 2.85093E+01 3.21246E+00-8.91408E-02-1.87212E+00-9.47298E-14 1.28161E-13
 -1      3033 1.99997E+01-9.07282E-04 1.24202E-06 1.31535E-03 2.29967E-13-1.42587E-13
 -1      3034 1.99999E+01-1.06158E-03 1.30006E-06 1.21406E-03 2.28630E-13-1.21793E-13
 -1      3035 2.00000E+01-1.13167E-03-2.44558E-06 1.31484E-03 2.59156E-13-3.17437E-15
 -1      3036 1.99997E+01-9.15565E-04-3.22628E-06 1.42798E-03 2.91086E-13-3.00838E-13
 -1      3037 2.58141E+01-4.60017E+00 7.96010E-02-2.33745E+00-1.78010E-13 3.61516E-14
 -1      3038 1.56722E+01 2.41000E+00 6.60268E-02-1.73874E+00 1.88246E-13 1.30765E-13
 -1      3039 1.39520E+01 2.81543E+00-2.70045E-02-1.20606E+00 2.18769E-13 1.06186E-13
 -1      3040 1.87229E+01 8.32156E-01 4.89091E-02-2.60876E+00 9.64203E-14 1.21922E-13
 -1      3041 1.69765E+01 1.54396E+00-1.11812E-02-2.31500E+00 1.46931E-13 1.37649E-13
 -1      3042 1.56486E+01 1.28464E+00 5.04659E-02-2.66722E+00 1.51691E-13 1.02199E-13
 -1      3043 1.90670E+01-1.75388E-01 5.98241E-02-3.17197E+00 4.26950E-14 8.48367E-14
 -1      3044 2.00006E+01-1.54037E-03-2.22594E-06 9.96400E-04 2.44680E-13-3.43782E-13
 -1      3045 2.00007E+01-1.61762E-03 5.71122E-06 8.16201E-04 8.50780E-14-9.05567E-14
 -1      3046 2.18008E+01 1.12272E+00-8.55985E-04-1.14283E+00 1.44199E-13-1.55433E-13
 -1      3047 2.19049E+01 1.05911E+00-1.13714E-02-1.36499E+00 1.21068E-13-1.76882E-13
 -1      3048 2.20821E+01 7.16602E-01 7.51869E-03-1.34906E+00 9.75977E-14-1.68677E-13
 -1      3049 2.20624E+01 6.33684E-01 1.12790E-02-9.63120E-01 1.34943E-13-1.30393E-13
 -1      3050 2.00003E+01-1.31137E-03-1.29473E-06 1.29190E-03 3.59593E-13-1.24878E-13
 -1      3051 2.00004E+01-1.42340E-03 6.16716E-06 1.17272E-03 3.81557E-13-2.43472E-13
 -1      3052 2.00007E+01-1.49957E-03-3.10530E-06 1.17872E-03 3.57918E-13-1.58730E-13
 -1      3053 2.24734E+01 3.78645E-02 9.83984E-03-1.39523E+00 9.03733E-14-1.56654E-13
 -1      3054 2.25013E+01-1.36854E-01-1.07854E-02-1.42941E+00 8.22766E-14-1.58594E-13
 -1      3055 2.26812E+01-1.80634E-01 3.02029E-04-1.57463E+00 6.57241E-14-1.48533E-13
 -1      3056 2.26380E+01-8.59866E-02-5.53320E-03-1.63521E+00 5.04873E-14-1.38244E-13
 -1      3057 2.28708E+01-2.10396E-01 3.88395E-03-1.42859E+00 6.83312E-14-1.38018E-13
 -1      3058 2.26621E+01 1.34100E-01-1.14813E-02-1.75351E+00 1.54396E-14-1.45078E-13
 -1      3059 2.25568E+01 4.76842E-01 5.92226E-03-1.73675E+00-1.77540E-14-1.32885E-13
 -1      3060 2.30992E+01 8.37680E-03 9.27232E-03-1.72059E+00 2.08121E-14-1.45037E-13
 -1      3061 2.24030E+01 8.86651E-01-2.26216E-02-1.68168E+00-5.69735E-14-1.67844E-13
 -1      3062 2.22753E+01 1.34462E+00 1.48464E-02-1.48478E+00-8.90078E-14-1.74992E-13
 -1      3063 2.30202E+01 7.88550E-01 8.48279E-03-1.83882E+00-6.52369E-14-1.97385E-13
 -1      3064 2.20413E+01 1.74141E+00-2.31464E-02-1.15252E+00-8.55094E-14-1.92453E-13
 -1      3065 2.19427E+01 2.07033E+00 9.40997E-03-7.66686E-01-8.98231E-14-1.74944E-13
 -1      3066 2.26921E+01 1.76738E+00 1.82707E-03-1.48231E+00-1.02265E-13-2.19410E-13
 -1      3067 2.18292E+01 2.23657E+00-1.63724E-03-2.05577E-01-5.54786E-14-1.75954E-13
 -1      3068 2.18034E+01 2.20890E+00-4.39753E-03 2.63858E-01-4.52512E-14-1.52619E-13
 -1      3069 2.23935E+01 2.53061E+00-3.63977E-03-5.70328E-01-5.55427E-14-2.05270E-13
 -1      3070 2.18905E+01 2.00620E+00 1.57435E-02 8.00982E-01-1.68619E-14-1.11132E-13
 -1      3071 2.19170E+01 1.62357E+00-2.95153E-02 1.16437E+00 1.89718E-14-1.13780E-13
 -1      3072 2.23766E+01 2.48574E+00 2.27854E-04 5.87554E-01 1.38917E-14-1.77487E-13
 -1      3073 2.21303E+01 1.16433E+00 1.74831E-02 1.48231E+00-4.41270E-15-9.24360E-14
 -1      3074 2.22090E+01 6.27946E-01-2.59547E-02 1.61907E+00 5.13608E-15-1.02225E-13
 -1      3075 2.25611E+01 1.65621E+00 1.25624E-02 1.47588E+00 2.75262E-14-1.28267E-13
 -1      3076 2.23223E+01 1.40850E-01 6.83090E-03 1.60827E+00 2.58574E-14-9.41440E-14
 -1      3077 2.23756E+01-3.08558E-01-1.53134E-02 1.53925E+00 1.60635E-15-1.13450E-13
 -1      3078 2.28279E+01 4.49813E-01 1.15585E-02 1.70883E+00 1.47892E-14-9.65703E-14
 -1      3079 2.23239E+01-6.60464E-01-3.35766E-03 1.31060E+00-1.19199E-14-5.44454E-14
 -1      3080 2.23011E+01-9.07906E-01-3.87450E-03 1.11137E+00 3.43340E-14-4.54438E-14
 -1      3081 2.28339E+01-6.06779E-01 8.34493E-03 1.41139E+00 4.14650E-14-4.79807E-14
 -1      3082 2.21061E+01-1.05255E+00-7.31499E-03 8.22603E-01 5.84313E-14-9.48620E-15
 -1      3083 2.20157E+01-1.10869E+00 4.69737E-03 5.93289E-01 7.62990E-14 4.74528E-14
 -1      3084 2.25459E+01-1.17167E+00 4.01382E-03 8.56500E-01 1.04470E-13 8.32409E-14
 -1      3085 2.17536E+01-1.09942E+00-8.13915E-03 3.38992E-01 7.66156E-14 7.46513E-14
 -1      3086 2.16265E+01-1.03024E+00 8.50325E-03 1.38731E-01 8.48584E-14 8.21263E-14
 -1      3087 2.20777E+01-1.29885E+00-2.07715E-03 3.02393E-01 7.52870E-14 8.48161E-14
 -1      3088 2.13637E+01-9.33881E-01-6.51458E-03-4.32366E-02 1.28722E-15 4.95707E-14
 -1      3089 2.12288E+01-8.08177E-01 8.82563E-03-1.90015E-01-5.29944E-14 5.46885E-14
 -1      3090 2.15634E+01-1.14257E+00-6.57644E-03-1.25811E-01-2.55771E-14 9.17886E-14
 -1      3091 2.10056E+01-6.82593E-01-4.10097E-03-2.98621E-01-7.21986E-14 1.84840E-14
 -1      3092 2.08825E+01-5.49503E-01 7.44997E-03-3.91038E-01-8.49535E-14 1.29917E-14
 -1      3093 2.10995E+01-8.57207E-01-7.66283E-03-3.98798E-01-9.58195E-14 3.43505E-14
 -1      3094 2.07119E+01-4.30054E-01-2.07625E-03-4.41906E-01-8.94215E-14-4.35004E-15
 -1      3095 2.06097E+01-3.15448E-01 5.52932E-03-4.89259E-01-6.92802E-14-7.57556E-15
 -1      3096 2.07296E+01-5.56107E-01-6.87814E-03-5.40084E-01-7.09882E-14 4.05493E-14
 -1      3097 2.04891E+01-2.18728E-01-6.91555E-04-5.00201E-01-5.88222E-14 1.10819E-16
 -1      3098 2.04093E+01-1.32145E-01 3.68510E-03-5.14483E-01-2.95319E-14-1.24136E-14
 -1      3099 2.04587E+01-2.97505E-01-5.41859E-03-5.86646E-01-5.85880E-14 2.01092E-14
 -1      3100 2.03295E+01-6.25029E-02 1.49781E-04-5.00601E-01-3.04643E-14 1.70067E-14
 -1      3101 2.02695E+01-3.94207E-03 2.19664E-03-4.92949E-01-4.92295E-14 9.50513E-15
 -1      3102 2.02734E+01-1.02372E-01-3.91419E-03-5.72296E-01-5.50337E-14-4.21879E-14
 -1      3103 2.02199E+01 4.09217E-02 6.12837E-04-4.65453E-01-1.53950E-14 4.48597E-14
 -1      3104 2.01757E+01 7.59444E-02 1.12024E-03-4.44806E-01 1.09391E-14 1.78014E-14
 -1      3105 2.01538E+01 2.96001E-02-2.64573E-03-5.23009E-01-1.69130E-14 1.03732E-14
 -1      3106 2.01469E+01 1.01033E-01 8.35448E-04-4.11338E-01 1.18387E-14 3.74254E-14
 -1      3107 2.01147E+01 1.18322E-01 4.02533E-04-3.84271E-01 4.54256E-14-1.66806E-14
 -1      3108 2.00811E+01 1.08641E-01-1.69041E-03-4.56827E-01 1.10055E-15 5.67866E-14
 -1      3109 2.00994E+01 1.29081E-01 9.10542E-04-3.49733E-01 9.56477E-14 3.01091E-14
 -1      3110 2.00759E+01 1.34139E-01-3.74701E-05-3.20763E-01 8.70271E-14 5.14686E-14
 -1      3111 2.00396E+01 1.47828E-01-1.02401E-03-3.85484E-01 1.09500E-13 1.40352E-13
 -1      3112 2.00688E+01 1.35379E-01 8.97266E-04-2.88094E-01-1.28654E-14 6.97278E-14
 -1      3113 2.00514E+01 1.32732E-01-2.78379E-04-2.60095E-01-1.72893E-14 5.90685E-14
 -1      3114 2.00178E+01 1.59486E-01-5.87078E-04-3.16175E-01 5.28797E-14 1.02608E-13
 -1      3115 2.00490E+01 1.28248E-01 8.33123E-04-2.30877E-01-1.06008E-14 4.05960E-14
 -1      3116 2.00361E+01 1.21297E-01-3.85540E-04-2.05503E-01 1.31361E-14 1.34339E-14
 -1      3117 2.00076E+01 1.53749E-01-3.16809E-04-2.52961E-01-2.83852E-14 1.50662E-13
 -1      3118 2.00360E+01 1.13846E-01 7.42353E-04-1.80414E-01 6.49053E-14-1.41161E-13
 -1      3119 2.00263E+01 1.04968E-01-4.08814E-04-1.58453E-01 9.40475E-14-8.69330E-14
 -1      3120 2.00038E+01 1.38243E-01-1.59684E-04-1.97792E-01-2.07375E-14 4.19994E-14
 -1      3121 2.00273E+01 9.64170E-02 6.40750E-04-1.37590E-01 1.61654E-13-6.94211E-14
 -1      3122 2.00199E+01 8.71543E-02-3.83886E-04-1.19256E-01 1.48643E-13 9.44372E-14
 -1      3123 2.00032E+01 1.18308E-01-7.49201E-05-1.51251E-01 1.46484E-13-9.18087E-14
 -1      3124 2.00211E+01 7.86724E-02 5.38536E-04-1.02372E-01 3.91091E-14 1.17232E-13
 -1      3125 2.00154E+01 6.99439E-02-3.34967E-04-8.75193E-02 3.78332E-14 1.57765E-13
 -1      3126 2.00038E+01 9.74271E-02-3.37200E-05-1.13075E-01 1.30625E-13 8.66428E-14
 -1      3127 2.00165E+01 6.21933E-02 4.42248E-04-7.41834E-02 4.58155E-14 1.91198E-13
 -1      3128 2.00122E+01 5.44772E-02-2.77544E-04-6.24674E-02 8.24985E-14 3.23163E-13
 -1      3129 2.00047E+01 7.76874E-02-1.71431E-05-8.25180E-02 7.10374E-14 1.91809E-13
 -1      3130 2.00130E+01 4.77718E-02 3.55618E-04-5.21717E-02-1.33113E-14 2.33877E-13
 -1      3131 2.00097E+01 4.12555E-02-2.20636E-04-4.31584E-02-3.53719E-14 2.21397E-13
 -1      3132 2.00053E+01 6.01862E-02-1.28405E-05-5.86071E-02-2.61939E-14 1.74514E-13
 -1      3133 2.00102E+01 3.56875E-02 2.80227E-04-3.53880E-02-9.69976E-14 2.18863E-13
 -1      3134 2.00077E+01 3.03796E-02-1.69106E-04-2.86226E-02-6.73043E-14 1.20100E-13
 -1      3135 2.00057E+01 4.53647E-02-1.36668E-05-4.03032E-02-5.73397E-14 2.36171E-13
 -1      3136 2.00080E+01 2.59080E-02 2.16434E-04-2.28935E-02 2.09977E-14 9.98482E-14
 -1      3137 2.00061E+01 2.17146E-02-1.25246E-04-1.79430E-02 2.29720E-14 2.84168E-14
 -1      3138 2.00056E+01 3.32574E-02-1.60686E-05-2.65990E-02-9.49923E-14 2.98351E-14
 -1      3139 2.00061E+01 1.82261E-02 1.63802E-04-1.38243E-02 6.04954E-14 9.55827E-14
 -1      3140 2.00047E+01 1.50028E-02-8.96449E-05-1.03016E-02-5.55346E-14 7.35966E-14
 -1      3141 2.00053E+01 2.36639E-02-1.82700E-05-1.65750E-02 3.15967E-14 8.28637E-14
 -1      3142 2.00046E+01 1.23530E-02 1.21324E-04-7.42571E-03 8.23885E-15 1.51254E-13
 -1      3143 2.00036E+01 9.93968E-03-6.17492E-05-4.99974E-03 1.51797E-13 2.81053E-13
 -1      3144 2.00048E+01 1.62668E-02-1.94214E-05-9.43021E-03 7.91777E-14 2.00571E-13
 -1      3145 2.00034E+01 7.97941E-03 8.77238E-05-3.06227E-03 2.89640E-14 2.74662E-13
 -1      3146 2.00027E+01 6.22071E-03-4.05400E-05-1.45883E-03 7.86869E-14 3.00775E-13
 -1      3147 2.00042E+01 1.07094E-02-1.93972E-05-4.49099E-03 1.25685E-13 2.56853E-13
 -1      3148 2.00025E+01 4.81059E-03 6.16782E-05-2.13978E-04 1.21060E-14 2.00931E-13
 -1      3149 2.00020E+01 3.56640E-03-2.48964E-05 7.87733E-04-8.26351E-14 3.31195E-14
 -1      3150 2.00036E+01 6.64348E-03-1.84295E-05-1.20513E-03-1.03070E-13 1.58258E-13
 -1      3151 2.00017E+01 2.58354E-03 4.19040E-05 1.53412E-03-1.58591E-13-2.32542E-14
 -1      3152 2.00014E+01 1.73339E-03-1.37278E-05 2.10751E-03-2.80092E-13-1.10974E-13
 -1      3153 2.00029E+01 3.75351E-03-1.68013E-05 8.69804E-04-1.70065E-13-6.27978E-15
 -1      3154 2.00011E+01 1.07394E-03 2.72127E-05 2.50532E-03-2.85374E-13-8.58888E-14
 -1      3155 2.00009E+01 5.17878E-04-6.04649E-06 2.78335E-03-1.69049E-13-1.31786E-13
 -1      3156 2.00023E+01 1.76709E-03-1.47868E-05 2.08038E-03-2.61266E-13 1.43330E-14
 -1      3157 2.00007E+01 9.68536E-05 1.65548E-05 2.94571E-03-5.29065E-14-1.06997E-13
 -1      3158 2.00006E+01-2.45700E-04-1.00724E-06 3.02790E-03-1.58330E-13-1.22275E-13
 -1      3159 2.00018E+01 4.57396E-04-1.26185E-05 2.69216E-03-5.67561E-14-8.51925E-14
 -1      3160 2.00004E+01-4.96109E-04 9.03899E-06 3.03822E-03-2.88353E-13 1.04113E-13
 -1      3161 2.00003E+01-6.88695E-04 2.08266E-06 2.99709E-03-3.14125E-13 7.17263E-14
 -1      3162 2.00014E+01-3.59083E-04-1.04736E-05 2.90409E-03-6.67039E-14 1.57814E-15
 -1      3163 2.00001E+01-8.21512E-04 3.93067E-06 2.91515E-03-3.83299E-13 8.73444E-14
 -1      3164 2.00001E+01-9.13336E-04 3.77141E-06 2.80193E-03-3.07193E-13 6.91133E-14
 -1      3165 2.00010E+01-8.27485E-04-8.47445E-06 2.86160E-03-3.31851E-13 3.37773E-13
 -1      3166 2.00000E+01-9.69394E-04 6.32006E-07 2.66921E-03-1.62042E-13-2.00679E-14
 -1      3167 2.00000E+01-9.98093E-04 4.47844E-06 2.51862E-03 6.27221E-14-1.55893E-13
 -1      3168 2.00007E+01-1.06050E-03-6.70212E-06 2.66794E-03-2.09201E-13 2.58842E-13
 -1      3169 1.99998E+01-1.00852E-03-1.29213E-06 2.36253E-03 1.03935E-13-2.12956E-13
 -1      3170 1.99999E+01-1.00267E-03 4.56677E-06 2.19675E-03 3.02920E-14-3.21546E-13
 -1      3171 2.00004E+01-1.14457E-03-5.23163E-06 2.39377E-03 2.70456E-14-1.44224E-13
 -1      3172 1.99998E+01-9.91645E-04-2.28904E-06 2.03444E-03 1.50019E-13-1.65685E-13
 -1      3173 1.99998E+01-9.72744E-04 3.63447E-06 1.86570E-03 2.99033E-13-2.12444E-13
 -1      3174 2.00002E+01-1.14547E-03-4.19748E-06 2.08515E-03 1.65237E-13-1.85773E-13
 -1      3175 1.99997E+01-9.48702E-04-2.83139E-06 1.72916E-03 3.52102E-13-1.21708E-13
 -1      3176 1.99997E+01-9.32729E-04 2.12924E-06 1.56154E-03 3.29435E-13-4.06235E-14
 -1      3177 1.99999E+01-1.04682E-03 4.09457E-07 1.52323E-03 2.32659E-13 2.54551E-14
 -1      3178 2.00000E+01-1.10113E-03-2.42651E-06 1.79241E-03 3.35056E-13-6.30023E-15
 -1      3179 1.95034E+01 9.96067E-01-1.05567E-02 1.58562E+00 6.50911E-14 9.72761E-14
 -1      3180 1.94547E+01 1.05601E+00 4.85658E-03 1.77405E+00 3.50134E-14 1.18624E-13
 -1      3181 2.61495E+01-2.84705E+00-1.35582E-01 1.39265E+00-1.54703E-14 1.24289E-13
 -1      3182 2.45596E+01-3.11931E+00 7.92363E-02 2.91246E+00 1.48128E-14 1.90778E-13
 -1      3183 1.68322E+01-2.76521E+00 1.41258E-01-5.88179E+00 2.57572E-14 1.49956E-13
 -1      3184 1.95480E+01-3.80929E+00-3.46171E-02-5.48321E+00 1.32699E-13 2.48350E-13
 -1      3185 8.64358E+00 2.15209E+00 1.03981E-01 1.25439E+00 2.45063E-13 8.01442E-14
 -1      3186 9.20459E+00 2.00917E+00 5.65258E-02-6.28316E-01 2.28384E-13 3.62627E-14
 -1      3187 1.42206E+01 2.31894E+00-2.76061E-02 3.57947E+00 2.58325E-13 1.02415E-13
 -1      3188 1.56818E+01 1.82025E+00 7.09216E-02 3.80423E+00 2.47160E-13 9.08908E-14
 -1      3189 2.35952E+01-4.71117E+00 1.35697E-02-4.36145E+00 2.33605E-13 2.39697E-13
 -1      3190 1.91724E+01 1.07682E+00-1.29040E-02 1.97370E+00-3.48760E-14 7.94705E-14
 -1      3191 1.91216E+01 1.06567E+00 9.44537E-03 2.19135E+00-6.22141E-14 9.06176E-15
 -1      3192 1.86838E+01 1.25813E+00 1.35135E-02 1.72637E+00-2.02779E-14 1.01268E-13
 -1      3193 1.87668E+01 9.71046E-01-1.30493E-02 2.45537E+00-5.51551E-14 1.92409E-14
 -1      3194 1.87773E+01 8.04408E-01 2.37267E-02 2.70228E+00-5.58543E-14 6.28219E-14
 -1      3195 1.80708E+01 1.24734E+00 1.64048E-02 2.15295E+00-9.40267E-14 1.03958E-13
 -1      3196 1.97399E+01 8.45941E-01-8.16520E-03 1.26529E+00-6.60138E-14 1.04638E-13
 -1      3197 1.97111E+01 9.28998E-01 3.41844E-03 1.42593E+00 7.43196E-14 9.14587E-14
 -1      3198 1.91454E+01 1.12366E+00 1.07170E-02 1.39761E+00 5.74040E-14 1.41214E-13
 -1      3199 1.98936E+01 6.85117E-01-6.18632E-03 9.99791E-01-4.53043E-14-9.48563E-14
 -1      3200 1.98849E+01 7.67837E-01 2.94062E-03 1.13406E+00-1.26700E-13-6.23213E-14
 -1      3201 1.94719E+01 9.41052E-01 7.92393E-03 1.12836E+00 7.43665E-15 7.10201E-14
 -1      3202 1.99852E+01 5.39357E-01-4.61475E-03 7.81417E-01 7.48456E-14-2.14601E-13
 -1      3203 1.99907E+01 6.12061E-01 2.69404E-03 8.91439E-01 1.30666E-14-1.86995E-13
 -1      3204 1.96919E+01 7.58632E-01 5.51692E-03 9.02899E-01 3.43590E-14-1.24589E-13
 -1      3205 2.00341E+01 4.17160E-01-3.39765E-03 6.03936E-01 3.33244E-14-1.55291E-13
 -1      3206 2.00478E+01 4.77189E-01 2.45654E-03 6.92531E-01 8.65819E-14-1.33994E-13
 -1      3207 1.98338E+01 5.97115E-01 3.65829E-03 7.14200E-01 4.94352E-14-6.09451E-14
 -1      3208 2.00557E+01 3.18924E-01-2.47521E-03 4.61504E-01-5.22282E-14 4.77443E-14
 -1      3209 2.00729E+01 3.66800E-01 2.18086E-03 5.31813E-01-5.84121E-14-4.43991E-14
 -1      3210 1.99213E+01 4.62683E-01 2.32045E-03 5.57933E-01-8.51813E-14 8.43753E-15
 -1      3211 2.00611E+01 2.41802E-01-1.78891E-03 3.48565E-01-5.47963E-14 1.10961E-13
 -1      3212 2.00788E+01 2.79232E-01 1.88023E-03 4.03684E-01 1.37271E-14 1.26934E-13
 -1      3213 1.99727E+01 3.54653E-01 1.40482E-03 4.30301E-01-7.03029E-14 1.56478E-13
 -1      3214 2.00577E+01 1.82077E-01-1.28547E-03 2.60007E-01-3.99256E-14-1.81614E-14
 -1      3215 2.00741E+01 2.11002E-01 1.57910E-03 3.02761E-01-3.07029E-14 4.27829E-14
 -1      3216 2.00010E+01 2.69620E-01 8.02971E-04 3.27519E-01 1.41984E-14 1.68976E-13
 -1      3217 2.00502E+01 1.36193E-01-9.19729E-04 1.91306E-01-4.48782E-14-9.71125E-14
 -1      3218 2.00645E+01 1.58389E-01 1.29691E-03 2.24142E-01-5.12373E-14-5.17488E-15
 -1      3219 2.00149E+01 2.03514E-01 4.21667E-04 2.45861E-01-8.68056E-16-1.79158E-14
 -1      3220 2.00413E+01 1.01124E-01-6.55518E-04 1.38574E-01-6.29340E-14-2.73595E-14
 -1      3221 2.00532E+01 1.18074E-01 1.04503E-03 1.63546E-01-2.72890E-14-1.26757E-13
 -1      3222 2.00203E+01 1.52521E-01 1.89221E-04 1.81822E-01-6.13123E-14-2.01678E-13
 -1      3223 2.00327E+01 7.44296E-02-4.65117E-04 9.85472E-02-1.41598E-13-2.05133E-14
 -1      3224 2.00423E+01 8.73203E-02 8.28032E-04 1.17342E-01-1.02629E-13 1.78577E-14
 -1      3225 2.00211E+01 1.13400E-01 5.40947E-05 1.32235E-01-1.06611E-13-8.75350E-14
 -1      3226 2.00250E+01 5.41968E-02-3.28080E-04 6.85240E-02-1.14529E-13-1.16038E-13
 -1      3227 2.00325E+01 6.39556E-02 6.46033E-04 8.25082E-02-5.85978E-14-4.65712E-14
 -1      3228 2.00194E+01 8.35267E-02-1.93958E-05 9.43304E-02-6.03662E-14-3.86079E-14
 -1      3229 2.00185E+01 3.89389E-02-2.29577E-04 4.63021E-02-1.85534E-13-4.38813E-14
 -1      3230 2.00242E+01 4.62862E-02 4.96732E-04 5.65717E-02-1.61546E-13-1.02763E-13
 -1      3231 2.00167E+01 6.08272E-02-5.53539E-05 6.57417E-02-1.69457E-13-1.68767E-13
 -1      3232 2.00133E+01 2.75071E-02-1.58751E-04 3.01047E-02-1.49318E-13-2.30328E-14
 -1      3233 2.00176E+01 3.29996E-02 3.76459E-04 3.75307E-02-1.25704E-13 1.11464E-14
 -1      3234 2.00138E+01 4.36780E-02-6.88857E-05 4.44912E-02-2.90082E-13-1.36465E-13
 -1      3235 2.00092E+01 1.90160E-02-1.07867E-04 1.85103E-02 1.27958E-13 3.63009E-14
 -1      3236 2.00123E+01 2.30833E-02 2.80926E-04 2.37814E-02-3.18604E-14 8.18894E-15
 -1      3237 2.00110E+01 3.08160E-02-6.96805E-05 2.89531E-02-1.11908E-13-1.51241E-13
 -1      3238 2.00062E+01 1.27789E-02-7.15403E-05 1.03901E-02 2.45067E-13-1.02668E-13
 -1      3239 2.00084E+01 1.57553E-02 2.06090E-04 1.40470E-02 2.77773E-13-3.64358E-15
 -1      3240 2.00085E+01 2.12595E-02-6.41420E-05 1.78054E-02 2.09040E-13-1.19545E-14
 -1      3241 2.00039E+01 8.26017E-03-4.58261E-05 4.85636E-03 7.15259E-14-1.87473E-13
 -1      3242 2.00054E+01 1.04064E-02 1.48335E-04 7.32018E-03 8.08204E-14-2.26513E-13
 -1      3243 2.00064E+01 1.42420E-02-5.58210E-05 9.98497E-03 2.37460E-13-6.35237E-14
 -1      3244 2.00023E+01 5.04200E-03-2.78194E-05 1.21906E-03 1.69729E-13-6.85264E-14
 -1      3245 2.00033E+01 6.56149E-03 1.04387E-04 2.81448E-03 2.44041E-14-1.51987E-13
 -1      3246 2.00047E+01 9.16259E-03-4.66976E-05 4.64981E-03 5.39550E-14-1.67755E-13
 -1      3247 2.00011E+01 2.79955E-03-1.54040E-05-1.05252E-03 3.04850E-14 1.36951E-13
 -1      3248 2.00018E+01 3.85031E-03 7.14257E-05-7.74951E-05 1.53872E-13 4.32973E-14
 -1      3249 2.00034E+01 5.55084E-03-3.79368E-05 1.14128E-03 9.09325E-15 2.21871E-14
 -1      3250 2.00004E+01 1.28077E-03-7.03880E-06-2.36192E-03-7.80029E-14 2.05249E-13
 -1      3251 2.00007E+01 1.98526E-03 4.71091E-05-1.82005E-03-2.87051E-14 1.63717E-13
 -1      3252 2.00023E+01 3.04006E-03-3.00985E-05-1.04982E-03-3.49971E-14 2.05829E-13
 -1      3253 1.99999E+01 2.90869E-04-1.59321E-06-3.01173E-03-2.08770E-13 2.59448E-13
 -1      3254 2.00001E+01 7.43573E-04 2.95060E-05-2.76359E-03-9.75789E-15 3.86922E-13
 -1      3255 2.00016E+01 1.34521E-03-2.33858E-05-2.31195E-03-1.90588E-13 3.83599E-13
 -1      3256 1.99996E+01-3.19784E-04 1.76708E-06-3.22508E-03-2.95380E-13 1.50998E-13
 -1      3257 1.99997E+01-4.64513E-05 1.70441E-05-3.16862E-03-2.13574E-13 1.51609E-13
 -1      3258 2.00010E+01 2.45753E-04-1.78112E-05-2.93700E-03-2.19669E-13 5.57653E-13
 -1      3259 1.99994E+01-6.65363E-04 3.65405E-06-3.16323E-03-3.44990E-13-8.70750E-14
 -1      3260 1.99994E+01-5.16278E-04 8.46530E-06-3.22530E-03-2.58621E-13-1.28040E-14
 -1      3261 2.00006E+01-4.27826E-04-1.32918E-05-3.14041E-03-1.77828E-13 2.66720E-13
 -1      3262 1.99994E+01-8.32440E-04 4.51607E-06-2.93974E-03-1.95178E-13-1.44069E-13
 -1      3263 1.99993E+01-7.65904E-04 2.78263E-06-3.06940E-03-3.53579E-13-2.42862E-13
 -1      3264 2.00003E+01-8.04933E-04-9.70890E-06-3.07799E-03-2.34080E-13-1.00119E-13
 -1      3265 1.99994E+01-8.86334E-04 4.67987E-06-2.63174E-03 3.50335E-14-3.41351E-13
 -1      3266 1.99993E+01-8.70950E-04-7.66238E-07-2.79491E-03-5.33525E-14-2.49197E-13
 -1      3267 2.00000E+01-9.83688E-04-6.92322E-06-2.85937E-03-7.65704E-14-3.12732E-13
 -1      3268 1.99994E+01-8.76309E-04 4.36986E-06-2.28891E-03 8.68640E-14-2.80295E-13
 -1      3269 1.99993E+01-8.88400E-04-2.77173E-06-2.46417E-03 1.18794E-13-3.51408E-13
 -1      3270 1.99999E+01-1.03808E-03-4.80980E-06-2.55897E-03 1.51124E-13-3.79609E-13
 -1      3271 1.99994E+01-8.39780E-04 3.56332E-06-1.94042E-03 1.81912E-14-3.02045E-13
 -1      3272 1.99993E+01-8.61396E-04-3.69265E-06-2.11570E-03 1.37249E-14-4.68520E-13
 -1      3273 1.99998E+01-1.02396E-03-3.29200E-06-2.22461E-03 3.04433E-15-4.35881E-13
 -1      3274 1.99995E+01-8.07687E-04 4.24423E-07-1.60213E-03-1.33205E-13 2.07666E-13
 -1      3275 1.99994E+01-8.22167E-04-4.03877E-06-1.76991E-03-7.58744E-14-3.55717E-14
 -1      3276 1.99997E+01-9.82922E-04-1.73689E-06-1.88492E-03-1.70790E-13-1.94576E-13
 -1      3277 1.99996E+01-8.57687E-04-2.26970E-06-1.38099E-03-8.45459E-14 1.94267E-13
 -1      3278 1.99995E+01-8.29968E-04-5.10160E-06-1.50076E-03-7.36828E-14 2.18892E-13
 -1      3279 1.99998E+01-9.75033E-04 1.35541E-06-1.60725E-03-1.93084E-13 1.67526E-13
 -1      3280 1.99998E+01-1.00505E-03 6.33530E-06-1.39393E-03-4.86151E-14-4.93083E-14
 -1      3281 2.46819E+01-4.55303E+00 1.93931E-02 2.96323E+00 2.10207E-13 1.39628E-14
 -1      3282 2.67495E+01 2.29816E+00-1.60423E-02 2.09439E+00 8.37663E-14 8.70137E-15
 -1      3283 2.61770E+01 3.65871E+00-1.63974E-01 1.81606E+00 7.88536E-14-1.63064E-14
 -1      3284 9.57369E+00 5.64713E-01 7.53693E-02-1.91385E+00-3.33622E-14 1.60774E-13
 -1      3285 1.03940E+01-1.01969E-01 1.01439E-01-3.81400E+00-9.75608E-15 1.12008E-13
 -1      3286 2.00009E+01-1.75706E-03 2.12907E-06 1.22954E-04-1.51202E-13 2.09017E-13
 -1      3287 2.00009E+01-1.75827E-03 2.23973E-06-1.07077E-04-1.09334E-13 6.53737E-14
 -1      3288 1.05000E+01 1.03992E+00 2.00872E-02 4.73129E+00 2.62040E-13 1.57513E-13
 -1      3289 8.98079E+00 1.95639E+00 1.37804E-01 2.81509E+00 2.62262E-13 1.17822E-13
 -1      3290 1.83512E+01-7.09614E-01 3.74684E-02 3.88080E+00 1.05888E-14 2.27686E-13
 -1      3291 1.90048E+01-1.68710E+00 9.13514E-02 4.14759E+00 4.78818E-14 2.02643E-13
 -1      3292 1.61864E+01-1.89892E+00 3.14006E-02 4.91362E+00 1.10328E-15 2.59279E-13
 -1      3293 1.37724E+01-6.19495E-01 1.37200E-01 4.12659E+00-1.58693E-14 3.20036E-13
 -1      3294 2.00008E+01-1.69073E-03-6.64190E-08 5.89595E-04-1.29889E-14 2.85011E-13
 -1      3295 2.00009E+01-1.73070E-03 4.11549E-06 3.76386E-04-7.55315E-14 4.60601E-13
 -1      3296 2.00011E+01-1.76395E-03-4.36027E-06 2.69784E-04-1.31394E-13 3.36629E-13
 -1      3297 2.00009E+01-1.67309E-03-4.10971E-06 7.63000E-04 3.52580E-15 2.11186E-13
 -1      3298 2.76178E+01-7.43984E-02-1.71854E-01-1.28868E+00-8.58896E-14 9.84907E-14
 -1      3299 2.74360E+01-1.41609E+00 4.88263E-02-1.96937E-01-4.83398E-14 9.77274E-14
 -1      3300 1.16040E+01 1.84554E+00 1.48900E-01-1.94637E+00 1.92531E-13 4.70873E-14
 -1      3301 1.38239E+01 4.43278E-01 6.15769E-02-3.44572E+00 1.37279E-13 1.77774E-14
 -1      3302 1.19868E+01-9.03555E-01 1.16679E-01-4.90795E+00 4.97380E-14 1.91888E-13
 -1      3303 1.40615E+01-2.01624E+00 1.16088E-02-5.82327E+00-6.24500E-15 1.78718E-13
 -1      3304 2.70077E+01-1.68567E+00 4.33930E-04 6.13623E-01 1.77486E-13 6.30329E-14
 -1      3305 2.69346E+01 1.24302E-01-1.47136E-01 1.62667E+00 1.21493E-13 4.02768E-14
 -1      3306 1.76374E+01-1.18109E+00 7.28049E-02-4.05080E+00 2.25375E-14-8.46545E-16
 -1      3307 2.21953E+01-3.26487E+00-7.64585E-02 4.42234E+00 7.42670E-14 2.34150E-13
 -1      3308 1.98913E+01-2.32966E+00 1.45019E-01 5.22860E+00 1.34677E-13 2.02829E-13
 -1      3309 1.83870E+01 4.72056E-01-4.26218E-03 3.08174E+00-5.32708E-14 1.65657E-13
 -1      3310 1.85994E+01 4.28748E-03 5.20463E-02 3.34958E+00-1.83568E-14 2.44547E-13
 -1      3311 1.73327E+01 9.26006E-01 2.64649E-02 2.75327E+00 1.72995E-15 2.41017E-13
 -1      3312 1.62274E+01-1.46906E+00-6.37019E-02 5.99689E+00 1.94816E-13 1.51913E-13
 -1      3313 1.33842E+01 3.52811E-02 1.76425E-01 5.63148E+00 2.30156E-13 1.53925E-13
 -1      3314 2.70787E+01 3.70103E+00-1.38897E-01-2.04832E+00-1.02029E-13 2.39531E-14
 -1      3315 2.75952E+01 2.07242E+00-1.24820E-02-2.03074E+00-1.19432E-13 6.59472E-14
 -1      3316 2.61789E+01 5.38108E+00-5.37983E-02 1.11284E+00 2.28012E-14-1.72050E-14
 -1      3317 2.64942E+01 5.98140E+00-1.64454E-01 2.00956E-01 1.01585E-14-1.57010E-14
 -1      3318 1.66622E+01-1.19015E-02 5.83610E-02 3.66562E+00-7.35870E-15 3.45019E-13
 -1      3319 2.21610E+01 9.66589E-02 1.71395E-02-1.01812E-01 1.39651E-13-4.40461E-14
 -1      3320 2.23055E+01 8.29555E-02-1.84612E-02-5.64820E-01 1.24808E-13-9.74238E-14
 -1      3321 1.26096E+01 2.72955E+00 6.22782E-02 3.19852E+00 2.75089E-13 1.28945E-13
 -1      3322 1.27838E+01 1.80216E+00 7.81646E-02 4.11967E+00 2.59088E-13 1.33234E-13
 -1      3323 1.03734E+01 2.52515E+00 1.35993E-01 2.05209E+00 2.63914E-13 1.17614E-13
 -1      3324 2.62601E+01-1.91851E+00 7.84453E-05 2.63965E-01-8.48280E-15 8.33916E-14
 -1      3325 2.34231E+01-2.71962E+00 3.14816E-02 3.00507E+00 5.93414E-14 1.52571E-13
 -1      3326 2.04835E+01-3.39868E+00 2.01834E-02-4.57424E+00 1.47809E-13 1.34040E-13
 -1      3327 2.19326E+01-4.04036E+00 1.21661E-01-4.53206E+00 2.18658E-13 2.22202E-13
 -1      3328 1.20993E+01 2.49730E+00 1.11699E-01-1.00016E+00 2.16740E-13 7.34621E-14
 -1      3329 1.66527E+01 6.82724E-01 3.44876E-02 4.20431E+00 2.11805E-13 1.13040E-13
 -1      3330 1.71998E+01 1.06602E+00-2.07280E-02 3.57245E+00 2.26169E-13 1.08222E-13
 -1      3331 1.86207E+01 6.70656E-01 4.82263E-02 3.23079E+00 2.10345E-13 7.89475E-14
 -1      3332 2.38186E+01-4.33539E+00-7.45719E-02-3.43330E+00 2.45637E-13 1.71389E-13
 -1      3333 2.64966E+01 4.19328E+00-9.80327E-02-1.90747E+00-8.85958E-14 1.46584E-14
 -1      3334 2.58197E+01 3.16701E+00 8.82363E-03-2.08118E+00-1.14665E-13-1.35950E-14
 -1      3335 2.55437E+01 4.58085E+00-9.57216E-02-1.51531E+00-4.86278E-14-3.45765E-14
 -1      3336 1.02542E+01 1.03826E+00 1.54845E-01-5.98525E-01 2.92977E-14 2.67925E-13
 -1      3337 1.13095E+01 9.98004E-01 7.45450E-02-1.51494E+00 4.72630E-14 1.99715E-13
 -1      3338 1.11190E+01 1.06328E+00-8.99517E-05 6.47179E-01 4.36929E-14 2.87270E-13
 -1      3339 2.67943E+01 7.73792E-01-6.61467E-02-1.72788E+00-1.04784E-13 3.02952E-14
 -1      3340 2.00007E+01-1.62532E-03 5.43480E-06-8.12033E-04 1.08050E-13 1.82735E-13
 -1      3341 2.00006E+01-1.54772E-03-1.35076E-06-9.93203E-04 7.25839E-14 2.84329E-13
 -1      3342 2.59774E+01 7.20786E-01-5.59128E-02 1.78700E+00 1.12183E-13-1.09635E-14
 -1      3343 1.24851E+01-1.81493E-01 1.20197E-01-3.98516E+00-5.91888E-14 1.36738E-13
 -1      3344 1.29128E+01 1.08160E+00 1.17104E-01 4.70925E+00 2.49134E-13 1.35225E-13
 -1      3345 2.00011E+01-1.76742E-03-4.38924E-06-2.53879E-04-1.65660E-13-1.29901E-13
 -1      3346 2.00009E+01-1.73541E-03 4.07051E-06-3.63505E-04-8.42782E-14 7.86537E-14
 -1      3347 2.00008E+01-1.69624E-03 2.32739E-07-5.81455E-04 8.90882E-15-1.22914E-14
 -1      3348 1.35074E+01 7.50084E-02 7.72095E-02 3.20817E+00-2.60902E-14 3.22409E-13
 -1      3349 1.90311E+01-2.75572E+00 9.79605E-02 4.71775E+00 3.86358E-14 1.54765E-13
 -1      3350 1.63067E+01-1.95647E+00 9.02089E-02-5.24990E+00 3.65610E-14 1.48104E-13
 -1      3351 2.57257E+01 5.49955E+00-9.10870E-02-2.66478E-01-1.61399E-14-3.39173E-14
 -1      3352 1.17634E+01 3.08960E+00 6.82957E-03 2.38679E+00 2.77499E-13 1.44836E-13
 -1      3353 2.00005E+01-1.44795E-03 5.94772E-06-1.14332E-03 7.69711E-14 1.12054E-13
 -1      3354 2.00003E+01-1.35618E-03-1.65537E-06-1.24644E-03-1.88244E-14 6.86633E-14
 -1      3355 2.00007E+01-1.52525E-03-4.68852E-06-1.14696E-03-7.51275E-15 1.48751E-13
 -1      3356 2.53857E+01 4.09184E+00-5.21269E-02 1.42732E+00 4.83849E-14-4.72643E-14
 -1      3357 2.18816E+01-6.36647E-02-1.16129E-02 5.24646E-01 1.43607E-13-1.47252E-14
 -1      3358 2.25230E+01-4.42054E-01 9.00675E-03 1.54403E-01 1.05192E-13-2.00369E-14
 -1      3359 2.14210E+01 2.34642E-02 1.48136E-02 1.13224E+00 1.63722E-13 8.11547E-15
 -1      3360 1.21813E+01 3.24637E+00 5.57768E-02 1.01870E-02 2.49602E-13 1.02727E-13
 -1      3361 2.62976E+01-3.05761E+00-1.35059E-01-5.37962E-01 2.30107E-13 1.22846E-13
 -1      3362 2.60191E+01-2.04019E+00 4.94438E-03 4.61004E-01 1.98946E-13 4.79200E-14
 -1      3363 1.56592E+01-4.08173E-01 6.83555E-02-3.89935E+00 8.11434E-14 1.36766E-14
 -1      3364 1.15939E+01 3.36372E+00 3.48671E-02 9.63296E-01 2.68046E-13 1.19682E-13
 -1      3365 1.83560E+01-1.36934E+00 5.38170E-02 5.05887E+00 1.65985E-13 1.58054E-13
 -1      3366 2.59068E+01-3.64463E+00 5.92159E-02-1.61731E+00 2.39534E-13 1.74864E-13
 -1      3367 2.00000E+01-1.12920E-03 1.96753E-06 1.45911E-03 1.51683E-13-1.78886E-13
 -1      3368 2.00002E+01-1.23106E-03 2.61500E-06 1.38059E-03 2.42588E-13-8.30958E-14
 -1      3369 2.00004E+01-1.31205E-03-2.10497E-06 1.44051E-03 3.22623E-13-2.72750E-13
 -1      3370 2.00001E+01-1.15542E-03-1.75762E-06 1.59210E-03 2.69671E-13-3.44674E-14
 -1      3371 2.21629E+01 4.02075E-01-1.04586E-02-1.34145E+00 1.00231E-13-1.72077E-13
 -1      3372 2.23615E+01 2.16352E-01-9.45743E-03-1.21459E+00 1.03856E-13-1.19115E-13
 -1      3373 1.48597E+01 5.88010E-01-8.86354E-03 4.94527E+00 2.28411E-13 1.16393E-13
 -1      3374 2.23939E+01 1.63006E-01 2.33175E-03-9.96899E-01 1.12180E-13-1.05264E-13
 -1      3375 2.30050E+01-3.84302E-01-1.85750E-03-1.11668E+00 8.31031E-14-1.13035E-13
 -1      3376 2.31754E+01-4.56572E-01-1.44463E-02-1.25068E+00 6.69039E-14-1.08953E-13
 -1      3377 2.35130E+01-3.56946E-01-1.28671E-03-1.54384E+00 2.62702E-14-1.11940E-13
 -1      3378 2.35428E+01-7.47940E-02-9.78459E-03-1.67833E+00-7.29495E-15-1.37586E-13
 -1      3379 2.36704E+01-5.80634E-01-3.25579E-03-1.20237E+00 4.07129E-14-8.57482E-14
 -1      3380 2.36488E+01 3.99684E-01-2.15053E-02-1.91484E+00-6.41761E-14-1.61324E-13
 -1      3381 2.35151E+01 1.01022E+00 5.31881E-03-1.88018E+00-1.12691E-13-1.74912E-13
 -1      3382 2.41394E+01 5.58135E-02-7.82346E-03-1.76551E+00-6.07587E-14-9.82036E-14
 -1      3383 2.38776E+01 2.22792E+00-3.22919E-02-1.83148E+00-1.07345E-13-1.32666E-13
 -1      3384 2.36726E+01 2.95762E+00-1.47012E-02-1.49239E+00-8.55392E-14-1.40052E-13
 -1      3385 2.28810E+01 3.24871E+00-6.80761E-03 3.76848E-01 1.27016E-14-1.50988E-13
 -1      3386 2.28829E+01 2.94704E+00-3.70196E-02 9.06047E-01 1.57305E-14-1.49232E-13
 -1      3387 2.37955E+01 2.52803E+00-2.51577E-02 1.57971E+00 4.92488E-14-1.37001E-13
 -1      3388 2.39677E+01 1.66189E+00-3.62707E-02 1.85955E+00 5.42318E-14-1.12831E-13
 -1      3389 2.33352E+01-6.96384E-01-1.19569E-02 1.40600E+00 7.22165E-14-6.51812E-14
 -1      3390 2.32777E+01-1.12959E+00-2.29085E-04 1.16203E+00 7.39938E-14-5.89876E-15
 -1      3391 2.29437E+01-1.42767E+00-1.26283E-02 7.52191E-01 9.00596E-14-3.92264E-15
 -1      3392 2.27650E+01-1.54846E+00 9.52752E-03 4.63056E-01 1.32006E-13 3.46538E-14
 -1      3393 2.35021E+01-1.56479E+00-5.70192E-03 7.57260E-01 1.06379E-13 8.93730E-15
 -1      3394 2.23467E+01-1.56948E+00-1.00776E-02 1.38477E-01 1.05553E-13 2.02218E-14
 -1      3395 2.21147E+01-1.48900E+00 1.42129E-02-1.01340E-01 6.76265E-14 3.85914E-14
 -1      3396 2.27403E+01-1.80369E+00-3.99762E-03 2.40652E-02 1.47786E-13-1.52549E-14
 -1      3397 2.17115E+01-1.35959E+00-7.20408E-03-3.08121E-01 7.18230E-16 9.55132E-14
 -1      3398 2.14796E+01-1.18271E+00 1.33655E-02-4.66094E-01-7.73693E-14 8.13632E-14
 -1      3399 2.19322E+01-1.61600E+00-1.30229E-02-4.85856E-01 7.40518E-14 5.47977E-14
 -1      3400 2.11559E+01-1.00315E+00-3.08408E-03-5.64351E-01-9.40574E-14 5.32470E-14
 -1      3401 2.09565E+01-8.12745E-01 1.04097E-02-6.49601E-01-7.82063E-14 5.86866E-14
 -1      3402 2.12388E+01-1.21069E+00-1.32742E-02-7.52126E-01-9.47600E-14 4.00310E-14
 -1      3403 2.07232E+01-6.39651E-01-3.25398E-04-6.74983E-01-5.34480E-14 6.83857E-14
 -1      3404 2.05686E+01-4.74896E-01 7.24039E-03-7.06780E-01-4.80685E-14 1.13653E-13
 -1      3405 2.07153E+01-7.84781E-01-1.11731E-02-8.41317E-01-2.26886E-15 6.82588E-14
 -1      3406 2.04145E+01-3.33708E-01 1.09713E-03-6.89172E-01-1.30377E-13 8.60902E-14
 -1      3407 2.03035E+01-2.08624E-01 4.49711E-03-6.86136E-01-1.09090E-13 2.28014E-14
 -1      3408 2.03548E+01-4.21421E-01-8.32909E-03-8.22486E-01-8.66137E-14 1.24729E-13
 -1      3409 2.02105E+01-1.06100E-01 1.62884E-03-6.46673E-01-7.60814E-14 2.97573E-16
 -1      3410 2.01355E+01-2.07792E-02 2.44961E-03-6.23367E-01-7.89890E-15 2.25732E-14
 -1      3411 2.01265E+01-1.48375E-01-5.71724E-03-7.46704E-01-1.15918E-13 1.03561E-13
 -1      3412 2.00853E+01 4.62157E-02 1.68136E-03-5.75473E-01 2.40513E-15 4.65338E-14
 -1      3413 2.00374E+01 9.81402E-02 1.07612E-03-5.42011E-01-1.84705E-14 2.97118E-14
 -1      3414 1.99950E+01 3.62301E-02-3.65667E-03-6.47309E-01-3.92748E-14 1.71528E-13
 -1      3415 2.00151E+01 1.36621E-01 1.53205E-03-4.93327E-01 3.31930E-14-1.61709E-15
 -1      3416 1.99861E+01 1.63257E-01 2.14752E-04-4.56284E-01 6.92157E-14 8.87409E-14
 -1      3417 1.99288E+01 1.47590E-01-2.16978E-03-5.43516E-01 2.19061E-14 6.59524E-14
 -1      3418 1.99808E+01 1.80859E-01 1.31915E-03-4.10840E-01 8.25653E-14 1.02746E-13
 -1      3419 1.99641E+01 1.89848E-01-2.83553E-04-3.74270E-01 1.76280E-13 1.01157E-13
 -1      3420 1.99038E+01 2.04020E-01-1.16322E-03-4.45382E-01 9.89496E-14 4.74938E-14
 -1      3421 1.99681E+01 1.93352E-01 1.10410E-03-3.33968E-01 1.60336E-13 7.52922E-14
 -1      3422 1.99591E+01 1.91011E-01-5.36379E-04-3.00202E-01 2.93120E-14 9.77833E-14
 -1      3423 1.99029E+01 2.22340E-01-5.22667E-04-3.57648E-01 1.56249E-13 9.33813E-14
 -1      3424 1.99675E+01 1.85820E-01 9.10562E-04-2.65698E-01-7.40200E-14 9.66840E-14
 -1      3425 1.99630E+01 1.76947E-01-6.31030E-04-2.35912E-01-7.53777E-14 1.00963E-13
 -1      3426 1.99142E+01 2.16291E-01-1.42974E-04-2.82044E-01 1.16953E-14 3.98128E-14
 -1      3427 1.99727E+01 1.67045E-01 7.44712E-04-2.07155E-01-1.25142E-13 1.18450E-13
 -1      3428 1.99706E+01 1.55040E-01-6.29831E-04-1.81770E-01-5.22520E-14 9.92684E-15
 -1      3429 1.99306E+01 1.96244E-01 6.11966E-05-2.18630E-01-1.01544E-13-1.87422E-15
 -1      3430 1.99799E+01 1.43173E-01 6.05446E-04-1.58331E-01 1.01616E-13-4.30290E-14
 -1      3431 1.99790E+01 1.30291E-01-5.75672E-04-1.37298E-01 1.49030E-13-6.83711E-14
 -1      3432 1.99477E+01 1.69529E-01 1.53759E-04-1.66587E-01-2.26962E-14 1.19796E-14
 -1      3433 1.99870E+01 1.18226E-01 4.89200E-04-1.18567E-01 1.59677E-13-1.03963E-14
 -1      3434 1.99866E+01 1.05851E-01-4.96715E-04-1.01559E-01 1.93778E-13 4.18835E-14
 -1      3435 1.99631E+01 1.41002E-01 1.79865E-04-1.24677E-01 1.96640E-13-7.63764E-15
 -1      3436 1.99931E+01 9.46257E-02 3.92283E-04-8.68630E-02 1.14373E-13 9.82030E-14
 -1      3437 1.99928E+01 8.35146E-02-4.10876E-04-7.34114E-02 2.79755E-14 1.27705E-13
 -1      3438 1.99760E+01 1.13645E-01 1.70008E-04-9.15126E-02 1.94236E-13-2.84284E-14
 -1      3439 1.99979E+01 7.36544E-02 3.12225E-04-6.20840E-02 1.61527E-14 1.91477E-13
 -1      3440 1.99975E+01 6.41372E-02-3.28343E-04-5.16683E-02 1.71465E-14 1.90239E-13
 -1      3441 1.99860E+01 8.90857E-02 1.42752E-04-6.57032E-02 7.23225E-14 8.19341E-14
 -1      3442 2.00012E+01 5.58335E-02 2.46288E-04-4.30980E-02-6.07348E-14 1.64676E-13
 -1      3443 2.00008E+01 4.79754E-02-2.54153E-04-3.52025E-02-1.24729E-13 7.54903E-14
 -1      3444 1.99933E+01 6.80381E-02 1.11619E-04-4.59578E-02-3.50499E-14 1.26916E-13
 -1      3445 2.00033E+01 4.12171E-02 1.92116E-04-2.88435E-02-1.42170E-13 1.55252E-13
 -1      3446 2.00028E+01 3.49257E-02-1.90906E-04-2.29874E-02-7.09891E-14 2.14989E-13
 -1      3447 1.99984E+01 5.06386E-02 8.14433E-05-3.11224E-02-8.60378E-14 2.30701E-13
 -1      3448 2.00045E+01 2.95824E-02 1.47984E-04-1.83666E-02-5.29892E-14 1.99104E-13
 -1      3449 2.00040E+01 2.46792E-02-1.39475E-04-1.41241E-02-2.22313E-14 1.84265E-13
 -1      3450 2.00017E+01 3.66861E-02 5.51926E-05-2.01864E-02-5.71268E-14 3.05875E-13
 -1      3451 2.00049E+01 2.05627E-02 1.12345E-04-1.08462E-02 1.05935E-13 1.62202E-13
 -1      3452 2.00044E+01 1.68359E-02-9.89127E-05-7.85453E-03 2.25276E-13 2.45813E-13
 -1      3453 2.00037E+01 2.57914E-02 3.41336E-05-1.22934E-02 7.33757E-14 2.32872E-13
 -1      3454 2.00049E+01 1.37432E-02 8.38408E-05-5.59672E-03 1.48433E-13 1.96767E-13
 -1      3455 2.00044E+01 1.09810E-02-6.76413E-05-3.55492E-03-8.18421E-15 1.04162E-13
 -1      3456 2.00047E+01 1.74918E-02 1.83726E-05-6.73805E-03 9.28087E-14 1.63161E-13
 -1      3457 2.00046E+01 8.71672E-03 6.13486E-05-2.05694E-03-6.94920E-14 4.28281E-14
 -1      3458 2.00041E+01 6.72357E-03-4.41467E-05-7.20843E-04-8.70587E-14 1.14104E-13
 -1      3459 2.00049E+01 1.13231E-02 7.11424E-06-2.94746E-03-8.18234E-14 3.98248E-14
 -1      3460 2.00041E+01 5.11197E-03 4.38889E-05 2.23408E-04-2.18299E-13 1.14599E-13
 -1      3461 2.00037E+01 3.71650E-03-2.69867E-05 1.04745E-03-2.40038E-13 4.37531E-14
 -1      3462 2.00048E+01 6.85725E-03-4.25951E-07-4.62750E-04-1.69142E-13 2.66046E-15
 -1      3463 2.00035E+01 2.60625E-03 3.05475E-05 1.59786E-03-2.89210E-13 1.22066E-13
 -1      3464 2.00031E+01 1.66396E-03-1.48315E-05 2.06011E-03-2.60016E-13 9.91763E-14
 -1      3465 2.00044E+01 3.71767E-03-5.07325E-06 1.07661E-03-2.27891E-13 1.52219E-13
 -1      3466 2.00029E+01 9.29392E-04 2.05242E-05 2.33835E-03-2.47082E-14-1.44277E-15
 -1      3467 2.00026E+01 3.22120E-04-6.52164E-06 2.55291E-03 1.28889E-13 1.81455E-14
 -1      3468 2.00038E+01 1.58622E-03-7.58781E-06 1.94846E-03-1.71017E-13 2.00118E-13
 -1      3469 2.00023E+01-1.38291E-04 1.31427E-05 2.64972E-03 1.56575E-13 2.06589E-14
 -1      3470 2.00021E+01-5.04823E-04-1.09198E-06 2.70132E-03 6.24982E-14 2.03230E-13
 -1      3471 2.00032E+01 2.02200E-04-8.60651E-06 2.36292E-03 1.52901E-13 3.66036E-14
 -1      3472 2.00018E+01-7.71346E-04 7.84185E-06 2.68287E-03-2.03641E-13 2.16737E-13
 -1      3473 2.00016E+01-9.70907E-04 2.23356E-06 2.63281E-03-3.27714E-13 3.11332E-13
 -1      3474 2.00026E+01-6.42900E-04-8.63782E-06 2.47573E-03-1.46329E-14 3.97891E-14
 -1      3475 2.00013E+01-1.10586E-03 4.16016E-06 2.54602E-03-4.14925E-13 3.97568E-13
 -1      3476 2.00012E+01-1.19520E-03 4.07410E-06 2.43726E-03-1.68535E-13 2.87594E-13
 -1      3477 2.00020E+01-1.11257E-03-8.06777E-06 2.39959E-03-3.12155E-13 8.78310E-14
 -1      3478 2.00009E+01-1.24620E-03 1.71263E-06 2.31442E-03-1.34566E-13 6.26748E-14
 -1      3479 2.00008E+01-1.26878E-03 4.78334E-06 2.17600E-03-3.47303E-14-5.75846E-14
 -1      3480 2.00015E+01-1.33270E-03-7.20193E-06 2.21369E-03-3.07697E-13 5.23778E-14
 -1      3481 2.00006E+01-1.27124E-03 7.09853E-07 2.03770E-03 2.64376E-13-9.39771E-14
 -1      3482 2.00005E+01-1.26029E-03 3.81559E-06 1.88841E-03 3.35765E-13-4.15586E-14
 -1      3483 2.00011E+01-1.40107E-03-6.73529E-06 1.97184E-03 8.56242E-14 4.58986E-14
 -1      3484 1.94953E+01-2.53104E+00 9.14466E-02-4.40761E+00 1.23103E-13 8.51697E-14
 -1      3485 2.09925E+01-3.26183E+00-9.54623E-02-3.78220E+00 1.63175E-13 4.97224E-14
 -1      3486 2.52622E+01-2.28041E+00 6.15300E-02 2.25899E-01 2.02907E-13 7.03118E-14
 -1      3487 2.53427E+01-1.45988E+00-6.71862E-02 1.02255E+00 1.43345E-13 1.80030E-14
 -1      3488 1.82493E+01 1.32868E+00-1.51401E-02 1.33740E+00 7.28584E-14 2.05747E-13
 -1      3489 1.79793E+01 1.39321E+00-2.00816E-03 1.49230E+00-2.60781E-14 2.08242E-13
 -1      3490 1.74552E+01 1.41482E+00-2.09315E-02 1.62746E+00-8.62949E-14 2.43939E-13
 -1      3491 1.71051E+01 1.39314E+00 1.69804E-03 1.84060E+00-9.23536E-14 2.22862E-13
 -1      3492 1.72106E+01 1.57267E+00 2.42018E-02 1.19671E+00-1.89684E-14 2.78477E-13
 -1      3493 1.95002E+01 7.74121E-01-5.66957E-03 7.49049E-01 8.90520E-14-2.43009E-14
 -1      3494 1.94111E+01 8.66276E-01-9.22725E-04 8.42515E-01 1.25903E-13 8.07090E-14
 -1      3495 1.96863E+01 6.12298E-01-4.25018E-03 6.02939E-01 8.67844E-15 1.67663E-14
 -1      3496 1.96308E+01 6.91300E-01-2.19329E-04 6.82522E-01 3.03455E-14-9.43398E-16
 -1      3497 1.93982E+01 8.11097E-01 6.40634E-03 6.28256E-01 4.59141E-14 3.50879E-14
 -1      3498 1.98091E+01 4.77748E-01-3.19433E-03 4.77985E-01-2.21718E-13 9.68791E-14
 -1      3499 1.97763E+01 5.42859E-01 2.63339E-04 5.44595E-01-6.75948E-14 6.70139E-14
 -1      3500 1.96045E+01 6.43319E-01 4.40468E-03 5.16007E-01-9.71398E-14 8.10606E-14
 -1      3501 1.98884E+01 3.68987E-01-2.39691E-03 3.73149E-01-7.74549E-14 1.28192E-13
 -1      3502 1.98705E+01 4.21372E-01 5.42449E-04 4.27924E-01-1.61737E-13 8.34355E-14
 -1      3503 1.97447E+01 5.03841E-01 2.97919E-03 4.15678E-01-1.96386E-13 1.35439E-13
 -1      3504 1.99386E+01 2.82597E-01-1.79272E-03 2.86836E-01 8.69938E-14 1.33471E-13
 -1      3505 1.99299E+01 3.24105E-01 6.66853E-04 3.31139E-01 2.40810E-14 1.45060E-13
 -1      3506 1.98389E+01 3.90659E-01 1.98353E-03 3.28644E-01-5.94649E-14 3.60869E-14
 -1      3507 1.99696E+01 2.14743E-01-1.33558E-03 2.17018E-01 4.68687E-14-7.19332E-15
 -1      3508 1.99663E+01 2.47303E-01 6.87482E-04 2.52307E-01 1.09999E-13 1.54587E-13
 -1      3509 1.99014E+01 3.00263E-01 1.29981E-03 2.55151E-01 1.10188E-13 9.42220E-14
 -1      3510 1.99881E+01 1.61861E-01-9.90689E-04 1.61465E-01 1.41690E-15-1.00699E-14
 -1      3511 1.99879E+01 1.87217E-01 6.46078E-04 1.89173E-01 3.75122E-14 1.48000E-14
 -1      3512 1.99423E+01 2.28850E-01 8.37224E-04 1.94543E-01 1.18362E-13 1.68408E-13
 -1      3513 1.99986E+01 1.20903E-01-7.31076E-04 1.17953E-01-1.77315E-13 3.22541E-14
 -1      3514 2.00000E+01 1.40527E-01 5.72654E-04 1.39408E-01-1.45441E-13-9.11704E-14
 -1      3515 1.99686E+01 1.72892E-01 5.28346E-04 1.45605E-01-8.68861E-14 1.28999E-13
 -1      3516 2.00043E+01 8.93672E-02-5.35772E-04 8.43936E-02-6.27198E-14-2.98152E-14
 -1      3517 2.00063E+01 1.04462E-01 4.86917E-04 1.00776E-01-2.77752E-14 3.72679E-14
 -1      3518 1.99851E+01 1.29347E-01 3.25218E-04 1.06843E-01-8.34960E-14 1.63110E-14
 -1      3519 2.00069E+01 6.52399E-02-3.89399E-04 5.89089E-02-1.21124E-13-1.41177E-13
 -1      3520 2.00090E+01 7.67737E-02 4.01086E-04 7.12390E-02-1.24528E-13-3.06693E-14
 -1      3521 1.99953E+01 9.56935E-02 1.93392E-04 7.66929E-02-1.66802E-14 1.34815E-14
 -1      3522 2.00077E+01 4.69090E-02-2.80157E-04 3.98699E-02-3.26231E-13-2.99462E-14
 -1      3523 2.00098E+01 5.56567E-02 3.22277E-04 4.90049E-02-2.65186E-13-8.11864E-14
 -1      3524 2.00012E+01 6.98682E-02 1.08322E-04 5.36486E-02-1.90950E-13 3.52982E-14
 -1      3525 2.00076E+01 3.31022E-02-1.98663E-04 2.59021E-02 1.01674E-15-1.43960E-13
 -1      3526 2.00093E+01 3.96747E-02 2.53303E-04 3.25508E-02-1.34503E-13-1.94109E-13
 -1      3527 2.00044E+01 5.02070E-02 5.51456E-05 3.63520E-02-1.20903E-13-7.78973E-15
 -1      3528 2.00069E+01 2.28161E-02-1.38350E-04 1.58609E-02 3.13800E-13-1.78394E-13
 -1      3529 2.00084E+01 2.76974E-02 1.94876E-04 2.06029E-02 9.64381E-14-1.53907E-13
 -1      3530 2.00059E+01 3.53813E-02 2.23242E-05 2.36217E-02 5.54150E-14-2.55207E-13
 -1      3531 2.00060E+01 1.52507E-02-9.41556E-05 8.81055E-03 1.30456E-13-4.67782E-14
 -1      3532 2.00072E+01 1.88274E-02 1.46987E-04 1.21116E-02 3.10620E-13-7.62583E-14
 -1      3533 2.00063E+01 2.43323E-02 2.72338E-06 1.44487E-02 2.28423E-13-3.22427E-13
 -1      3534 2.00050E+01 9.77066E-03-6.20785E-05 4.00276E-03 4.08017E-14-2.67470E-14
 -1      3535 2.00060E+01 1.23494E-02 1.08649E-04 6.23122E-03 9.52471E-14-2.08353E-14
 -1      3536 2.00061E+01 1.62083E-02-8.08678E-06 7.99832E-03 1.47476E-13-1.25916E-13
 -1      3537 2.00041E+01 5.87553E-03-3.90788E-05 8.47388E-04-5.02980E-14 1.44439E-13
 -1      3538 2.00048E+01 7.69763E-03 7.85145E-05 2.29139E-03-8.33817E-14 6.95683E-15
 -1      3539 2.00056E+01 1.03292E-02-1.34840E-05 3.59731E-03-3.04057E-14-8.23064E-14
 -1      3540 2.00033E+01 3.17191E-03-2.28762E-05-1.11501E-03-1.40308E-13 1.17428E-13
 -1      3541 2.00038E+01 4.42704E-03 5.52997E-05-2.33161E-04-7.90605E-15 8.08811E-14
 -1      3542 2.00049E+01 6.15749E-03-1.55535E-05 7.09730E-04-2.48213E-14-3.82584E-14
 -1      3543 2.00026E+01 1.35199E-03-1.17327E-05-2.23638E-03-2.76432E-13 2.78978E-13
 -1      3544 2.00030E+01 2.18835E-03 3.77622E-05-1.74770E-03-1.98864E-13 1.91458E-13
 -1      3545 2.00041E+01 3.26934E-03-1.56247E-05-1.08392E-03-1.71692E-13-9.55111E-14
 -1      3546 2.00019E+01 1.76647E-04-4.31335E-06-2.78167E-03-2.17258E-13 3.72609E-13
 -1      3547 2.00022E+01 7.09124E-04 2.47724E-05-2.55983E-03-3.26097E-13 3.36291E-13
 -1      3548 2.00034E+01 1.33230E-03-1.45647E-05-2.10599E-03-2.65841E-13-9.20242E-15
 -1      3549 2.00014E+01-5.38410E-04 4.05304E-07-2.94664E-03-8.29227E-14 8.57066E-14
 -1      3550 2.00016E+01-2.21476E-04 1.53567E-05-2.89896E-03-3.77547E-14 2.72829E-13
 -1      3551 2.00027E+01 8.77792E-05-1.29309E-05-2.59961E-03-7.12627E-14 1.27980E-14
 -1      3552 2.00010E+01-9.34089E-04 3.18873E-06-2.87279E-03-1.00396E-13-1.28213E-13
 -1      3553 2.00012E+01-7.65287E-04 8.70421E-06-2.93279E-03-1.42888E-13 1.30294E-13
 -1      3554 2.00021E+01-6.63575E-04-1.10769E-05-2.74458E-03-1.32370E-15-1.42945E-14
 -1      3555 2.00007E+01-1.11741E-03 4.61867E-06-2.65952E-03 2.37451E-14-3.21678E-13
 -1      3556 2.00008E+01-1.04567E-03 4.16862E-06-2.78098E-03-4.89285E-15-2.64811E-13
 -1      3557 2.00016E+01-1.07437E-03-9.25464E-06-2.67094E-03 1.49148E-14-1.12310E-13
 -1      3558 2.00004E+01-1.16889E-03 5.19102E-06-2.37401E-03 5.49242E-14-2.05831E-13
 -1      3559 2.00005E+01-1.15593E-03 1.23693E-06-2.52611E-03 4.70216E-14-2.96111E-13
 -1      3560 2.00011E+01-1.26034E-03-7.55714E-06-2.46989E-03 6.30492E-14-1.14133E-13
 -1      3561 2.00002E+01-1.15021E-03 4.72406E-06-2.05977E-03 1.10427E-13-2.78277E-13
 -1      3562 2.00002E+01-1.16647E-03-5.84064E-07-2.22311E-03 8.40552E-14-3.19691E-13
 -1      3563 2.00008E+01-1.30838E-03-6.05570E-06-2.20323E-03 7.41146E-14-1.02478E-13
 -1      3564 2.00000E+01-1.10665E-03 3.31192E-06-1.74192E-03-2.90558E-13-6.27577E-14
 -1      3565 2.00001E+01-1.12899E-03-1.19365E-06-1.90381E-03-1.48181E-13-1.25529E-13
 -1      3566 2.00005E+01-1.28420E-03-3.82463E-06-1.91224E-03-1.19988E-13 1.70500E-13
 -1      3567 2.00010E+01-1.68191E-03-3.97578E-06-7.54192E-04-4.66610E-14 1.04026E-13
 -1      3568 2.22260E+01-3.67797E+00 6.26268E-03 4.00153E+00 1.56576E-13 4.43465E-14
 -1      3569 2.59563E+01-1.43289E+00-1.11359E-01-6.30944E-01-3.73221E-14 7.32799E-14
 -1      3570 2.54165E+01-2.03076E+00 6.80752E-02 5.38775E-01 1.02054E-14 7.65256E-14
 -1      3571 1.47158E+01 2.71403E-01 1.87393E-02 3.18864E+00-3.57700E-15 3.00773E-13
 -1      3572 1.25340E+01 1.18629E+00 1.55553E-01 1.92937E+00-2.94556E-15 3.78156E-13
 -1      3573 1.26033E+01 1.25190E+00 3.22932E-02 9.43314E-01 4.45078E-14 2.80918E-13
 -1      3574 1.51310E+01 8.44254E-01-3.06091E-02 2.64079E+00 3.66070E-14 3.13000E-13
 -1      3575 1.88214E+01 1.15561E+00-1.05818E-02 1.11003E+00 3.58996E-14 2.18214E-13
 -1      3576 1.86240E+01 1.25162E+00-2.41487E-03 1.23679E+00 5.18478E-14 2.37297E-13
 -1      3577 1.80619E+01 1.42227E+00 1.78193E-02 1.02259E+00 4.50856E-14 2.10615E-13
 -1      3578 2.39601E+01-2.55972E+00-8.98121E-02 1.92833E+00 4.64576E-14 7.89247E-14
 -1      3579 2.23236E+01-2.14823E+00 3.78832E-02 3.09485E+00 8.22363E-14 1.27583E-13
 -1      3580 1.56769E+01-1.07756E+00 7.52967E-02-4.60042E+00 3.74006E-15 4.84890E-14
 -1      3581 1.76265E+01-2.09490E+00-3.48333E-02-4.73804E+00 7.41750E-14 1.02932E-13
 -1      3582 1.86722E+01-1.82033E+00 2.75283E-02-4.02768E+00 1.40159E-13 2.01497E-14
 -1      3583 1.97959E+01 2.67839E-01-2.48713E-03 2.51446E+00 1.85735E-13 5.28982E-14
 -1      3584 2.07284E+01 4.66506E-02 1.06334E-02 1.91253E+00 1.69440E-13 3.50974E-14
 -1      3585 2.16033E+01-6.14733E-01-1.52899E-02 1.60326E+00 1.24708E-13 2.10205E-14
 -1      3586 1.96436E+01-3.18369E-01-1.25084E-02 3.20552E+00 1.72157E-13 8.36692E-14
 -1      3587 2.58728E+01 1.23043E+00-1.26024E-01-2.06725E+00-1.04694E-13-4.47906E-15
 -1      3588 2.63369E+01-3.71498E-02 3.92336E-02-1.60494E+00-8.25243E-14 5.70897E-14
 -1      3589 2.54770E+01-6.78375E-01-2.32005E-02-1.17954E+00-3.25757E-14 4.09880E-14
 -1      3590 1.64480E+01 1.30103E+00-3.01657E-02 2.01603E+00 1.84748E-16 2.46694E-13
 -1      3591 1.60380E+01 1.10955E+00 1.08155E-02 2.34104E+00 3.91707E-14 2.89022E-13
 -1      3592 1.47283E+01 1.44811E+00 8.70728E-02 1.75830E+00 5.12706E-14 3.25980E-13
 -1      3593 1.61127E+01 1.60597E+00 4.16302E-02 1.41765E+00-2.24937E-14 2.60600E-13
 -1      3594 2.46511E+01 4.88911E+00-4.39126E-02-1.42396E-01-2.36200E-14 1.06599E-15
 -1      3595 2.51337E+01 4.90763E+00-9.18213E-02-9.14113E-01-3.40561E-14-2.28723E-14
 -1      3596 2.46186E+01 3.96546E+00-4.37350E-02-1.27456E+00-4.30142E-14-3.03555E-14
 -1      3597 1.28304E+01 3.72323E-01 4.08805E-02-3.17925E+00-4.53873E-14 1.04770E-13
 -1      3598 1.41538E+01-4.40518E-01 1.57349E-02-4.21542E+00-5.22082E-14 1.43593E-13
 -1      3599 1.59082E+01-5.02614E-01 5.27198E-02-3.84889E+00-8.15840E-15 2.40450E-14
 -1      3600 2.00007E+01-1.46688E-03-3.30448E-06 1.36233E-03 3.33372E-13-1.89407E-13
 -1      3601 2.00009E+01-1.55954E-03 6.62478E-06 1.18136E-03 2.69617E-13-1.25042E-13
 -1      3602 2.00002E+01-1.24403E-03 5.81877E-06-1.32399E-03 5.56794E-14-1.32173E-14
 -1      3603 2.00000E+01-1.12817E-03-7.33676E-07-1.37110E-03-8.20400E-15-1.91930E-14
 -1      3604 2.00000E+01-1.11128E-03-1.40204E-06-1.47816E-03-9.24708E-14-5.22732E-14
 -1      3605 2.00004E+01-1.33334E-03-4.22284E-07-1.37884E-03-1.29114E-13 1.19685E-13
 -1      3606 2.41846E+01-3.64229E+00 1.72769E-02-2.18513E+00 2.47195E-13 1.75712E-13
 -1      3607 1.92236E+01 9.59781E-01-7.65063E-03 9.17194E-01 9.68807E-14 1.07074E-13
 -1      3608 1.90876E+01 1.06025E+00-1.75899E-03 1.02570E+00 6.43022E-14 1.97648E-13
 -1      3609 1.90986E+01 1.00540E+00 9.15915E-03 7.50171E-01 1.57601E-13 1.80418E-13
 -1      3610 1.70334E+01 4.33695E-02 9.39257E-02 4.67409E+00 2.10631E-13 1.32575E-13
 -1      3611 1.96211E+01-1.22405E+00-2.25117E-02 4.15565E+00 1.57534E-13 1.46827E-13
 -1      3612 2.48654E+01 9.45131E-01-3.44677E-02 1.93106E+00 9.97293E-14-8.13707E-14
 -1      3613 2.34893E+01 3.56561E-01-5.65201E-03 1.69989E+00 5.62553E-14-6.60184E-14
 -1      3614 2.35661E+01-2.99176E-01-1.85305E-02 1.65771E+00 7.05174E-14-4.60382E-14
 -1      3615 2.52748E+01-6.24612E-01-2.14982E-04 1.55960E+00 1.34384E-13-5.58355E-14
 -1      3616 2.32360E+01-3.30820E+00 1.11049E-01-2.55152E+00 2.63939E-13 1.67641E-13
 -1      3617 2.43439E+01-3.33490E+00-1.05056E-01-1.17443E+00 2.60027E-13 2.03421E-13
 -1      3618 2.45007E+01 3.35698E+00-2.59646E-02 1.42421E+00 6.22211E-14-1.02526E-13
 -1      3619 2.40399E+01-8.05601E-01-9.69546E-03 1.40569E+00 7.69567E-14-4.59043E-14
 -1      3620 2.19991E+01-1.23157E+00 2.07387E-02 2.18548E+00 1.04924E-13 5.32239E-14
 -1      3621 2.12118E+01-1.47185E+00 3.31244E-02 3.27021E+00 1.31688E-13 1.14842E-13
 -1      3622 2.27096E+01-2.22705E-01 1.08198E-03-8.78895E-01 9.55263E-14-9.89220E-14
 -1      3623 2.30226E+01-4.63690E-01 1.13014E-02-6.80750E-01 9.47205E-14-8.13787E-14
 -1      3624 2.46270E+01 1.94452E+00-4.17473E-02-2.02420E+00-1.26277E-13-4.31859E-14
 -1      3625 2.32141E+01 3.27443E+00-3.06257E-02-9.05679E-01-5.58616E-14-1.52459E-13
 -1      3626 2.31407E+01 3.49973E+00-2.83434E-02-3.35202E-01-5.93275E-15-1.04551E-13
 -1      3627 2.20047E+01-2.85239E+00 3.31627E-02-2.71895E+00 1.74874E-13 1.12448E-13
 -1      3628 2.00003E+01-1.22270E-03 4.67225E-07 1.80705E-03 3.78903E-13-1.20169E-13
 -1      3629 2.00002E+01-1.19375E-03 2.56935E-06 1.67797E-03 4.22560E-13-7.76143E-14
 -1      3630 2.00004E+01-1.27762E-03-1.43239E-06 1.60758E-03 3.74004E-13-3.43779E-13
 -1      3631 2.00007E+01-1.36583E-03-5.97835E-06 1.76725E-03 3.31589E-13-1.16823E-13
 -1      3632 1.86694E+01 1.21685E+00 1.28799E-02 8.80248E-01 8.23561E-14 1.38999E-13
 -1      3633 2.00013E+01-1.72716E-03 4.22751E-06-6.91729E-04-9.01474E-14 1.41121E-13
 -1      3634 2.00011E+01-1.66833E-03-8.79688E-07-9.30121E-04-3.49122E-14 2.68434E-13
 -1      3635 2.00000E+01-1.09288E-03-1.21787E-06-1.58587E-03-1.77017E-13-1.75316E-14
 -1      3636 2.42222E+01-2.57956E+00-1.78942E-02-3.67324E-01 1.95737E-13 1.64922E-13
 -1      3637 2.00014E+01-1.79215E-03 2.65744E-06-1.39250E-04-4.91059E-14 3.54603E-14
 -1      3638 2.00013E+01-1.77380E-03 6.95355E-07-4.04009E-04-8.56061E-14-8.98977E-14
 -1      3639 2.00015E+01-1.77612E-03-3.14896E-06-5.85716E-04-6.17975E-14 5.68544E-14
 -1      3640 2.00012E+01-1.63115E-03-8.54152E-07 1.14158E-03 5.67598E-14 2.81991E-13
 -1      3641 2.00011E+01-1.66117E-03-3.02204E-06 9.38916E-04 7.76377E-14 2.70337E-13
 -1      3642 2.00012E+01-1.71634E-03 4.69563E-06 7.05444E-04-2.09020E-13 4.81167E-13
 -1      3643 2.43838E+01-1.85834E+00 2.60351E-02 8.16746E-01 3.12103E-14 5.98289E-14
 -1      3644 1.27132E+01 1.24995E+00 1.95159E-03-1.12252E+00 9.46378E-14 2.56746E-13
 -1      3645 1.26427E+01 9.27191E-01 7.56260E-02-2.29075E+00 6.65388E-14 1.27072E-13
 -1      3646 1.42455E+01 7.25260E-01 4.20657E-02-2.53619E+00 5.07428E-15 2.40365E-13
 -1      3647 2.00010E+01-1.58806E-03 6.96260E-06-1.13872E-03 1.65547E-14 3.19292E-13
 -1      3648 2.00008E+01-1.51200E-03-3.95043E-06-1.30154E-03-7.28964E-14 7.87881E-14
 -1      3649 2.00012E+01-1.66068E-03-3.70405E-06-1.08944E-03 4.27728E-14 2.78888E-13
 -1      3650 2.00013E+01-1.76854E-03 2.57848E-07 4.22241E-04-1.83796E-13 2.63031E-13
 -1      3651 2.00014E+01-1.78948E-03 2.77595E-06 1.60603E-04-1.11299E-13 1.57899E-13
 -1      3652 2.00016E+01-1.81546E-03-3.39722E-06 1.19363E-05 8.29308E-14 2.62581E-14
 -1      3653 2.00015E+01-1.76500E-03-3.41665E-06 6.05905E-04-1.62891E-13 3.84443E-13
 -1      3654 2.43113E+01 4.36213E+00-1.00964E-01 6.16283E-01 2.47302E-14-6.77685E-14
 -1      3655 2.00005E+01-1.34714E-03 4.24950E-06 1.51802E-03 3.58523E-13-1.87001E-13
 -1      3656 2.38025E+01 4.03838E+00-4.66827E-02 6.44973E-02 2.24820E-14-6.14508E-14
 -1      3657 2.00008E+01-1.43100E-03-2.37697E-07 1.54081E-03 2.81229E-13-1.60636E-13
 -1      3658 2.30873E+01-7.02645E-01-2.53813E-02-3.78587E-01 9.08744E-14-5.59414E-14
 -1      3659 2.35020E+01-7.76140E-01 1.63340E-02-6.67992E-01 6.22111E-14-6.13263E-14
 -1      3660 2.38754E+01-8.00211E-01-8.42060E-03-9.53416E-01 2.20735E-14-7.00529E-14
 -1      3661 2.30683E+01-7.92277E-01 2.50229E-02 1.63267E-01 9.06204E-14-9.03444E-15
 -1      3662 2.00003E+01-1.24293E-03-3.36251E-06-1.60529E-03-2.39997E-13 1.01865E-13
 -1      3663 2.00010E+01-1.46413E-03 4.43705E-06 1.59962E-03 2.75069E-13-1.83969E-13
 -1      3664 2.26727E+01-1.30618E+00-1.69293E-02 1.38565E+00 1.03287E-13 2.44191E-14
 -1      3665 1.70629E+01 1.53397E+00-1.53193E-02 6.82219E-01-5.76340E-15 1.62150E-13
 -1      3666 1.65448E+01 1.58369E+00-1.18953E-02 7.40979E-01 1.52356E-14 1.89337E-13
 -1      3667 2.43818E+01-5.86077E-01 1.53485E-02-1.37317E+00-3.19085E-14-6.11048E-14
 -1      3668 2.44942E+01-1.32214E-01-2.74194E-02-1.63651E+00-5.66006E-14-6.44138E-14
 -1      3669 2.41808E+01-9.60202E-01 9.71165E-05-8.13667E-01 1.96427E-14-4.17943E-14
 -1      3670 2.45427E+01-1.09604E+00-9.32613E-03 1.23320E+00 1.02019E-13-1.29848E-14
 -1      3671 2.43590E+01-1.40775E+00 4.39698E-02 1.03481E+00 6.33330E-14-9.23176E-15
 -1      3672 2.11018E+01-2.30187E+00 7.73422E-02-2.94411E+00 1.07337E-13 6.70332E-14
 -1      3673 2.23717E+01-2.80677E+00-6.49192E-02-1.95897E+00 1.77051E-13 2.41129E-13
 -1      3674 2.35238E+01-1.45247E+00 1.63927E-02 7.08786E-01 6.68771E-14 1.27572E-14
 -1      3675 2.30516E+01-2.12998E+00-6.89672E-03-2.57101E-01 1.73829E-13 6.26513E-14
 -1      3676 2.26630E+01-2.04427E+00 2.35915E-02-5.61858E-01 1.63285E-13 6.90038E-14
 -1      3677 2.12627E+01-1.35102E+00-7.60809E-04-1.01184E+00-5.07782E-14 8.82833E-14
 -1      3678 2.09664E+01-1.08806E+00 1.37012E-02-1.06922E+00-5.97721E-14 1.29482E-13
 -1      3679 2.06723E+01-8.48956E-01 2.78789E-03-1.04050E+00-7.88562E-14 1.71584E-13
 -1      3680 2.04546E+01-6.26423E-01 8.61907E-03-1.03445E+00-5.45343E-14 1.38084E-13
 -1      3681 2.05850E+01-9.99425E-01-1.61433E-02-1.29409E+00-6.99013E-14 1.35748E-13
 -1      3682 2.02764E+01-4.34946E-01 3.94495E-03-9.63906E-01-8.32049E-15 9.13821E-14
 -1      3683 2.01297E+01-2.68719E-01 4.65585E-03-9.24413E-01-8.79516E-14 1.15248E-13
 -1      3684 2.01465E+01-5.15456E-01-1.13304E-02-1.15536E+00-7.40558E-14 1.61817E-13
 -1      3685 2.00347E+01-1.31447E-01 3.88875E-03-8.41093E-01-7.30743E-14 1.71791E-13
 -1      3686 1.99437E+01-1.95795E-02 2.01397E-03-7.87708E-01-1.90101E-14 2.27452E-13
 -1      3687 1.98952E+01-1.61646E-01-7.33675E-03-9.74744E-01-4.03418E-15 1.43004E-13
 -1      3688 1.99028E+01 6.94873E-02 3.27788E-03-7.07127E-01-5.39721E-14 3.25371E-13
 -1      3689 1.98517E+01 1.37094E-01 4.73068E-04-6.51009E-01-3.67896E-14 2.59137E-13
 -1      3690 1.97712E+01 7.19780E-02-4.38747E-03-7.95057E-01-1.68997E-14 2.92737E-13
 -1      3691 1.98438E+01 1.88244E-01 2.57992E-03-5.79488E-01-5.44151E-14 2.10700E-13
 -1      3692 1.98191E+01 2.22873E-01-3.76685E-04-5.26369E-01 5.22442E-14 1.88225E-13
 -1      3693 1.97275E+01 2.10191E-01-2.39616E-03-6.34381E-01-6.08041E-14 2.59703E-13
 -1      3694 1.98295E+01 2.46462E-01 1.95646E-03-4.65744E-01 6.26865E-14 1.51253E-13
 -1      3695 1.98213E+01 2.58184E-01-7.98390E-04-4.18256E-01 4.54451E-14 1.45624E-13
 -1      3696 1.97310E+01 2.78762E-01-1.10336E-03-4.98100E-01-1.62440E-15 2.74255E-13
 -1      3697 1.98406E+01 2.63151E-01 1.45074E-03-3.68341E-01 1.19674E-13 1.18150E-13
 -1      3698 1.98415E+01 2.60136E-01-9.59628E-04-3.27402E-01 1.02338E-13 5.98819E-14
 -1      3699 1.97596E+01 2.99601E-01-3.13432E-04-3.86106E-01 4.66121E-14 1.84689E-13
 -1      3700 1.98637E+01 2.53535E-01 1.06417E-03-2.87112E-01 2.80501E-14 4.10829E-14
 -1      3701 1.98693E+01 2.41948E-01-9.68652E-04-2.52721E-01 3.15541E-15 1.86104E-14
 -1      3702 1.97989E+01 2.90098E-01 1.31969E-04-2.95944E-01 1.49485E-14-8.39016E-14
 -1      3703 1.98909E+01 2.28977E-01 7.79243E-04-2.20680E-01 4.44649E-15 1.47903E-14
 -1      3704 1.98981E+01 2.13196E-01-8.94819E-04-1.92375E-01-8.60981E-14 9.88181E-14
 -1      3705 1.98402E+01 2.63196E-01 3.51987E-04-2.24395E-01-3.25737E-14 1.83485E-15
 -1      3706 1.99173E+01 1.97461E-01 5.73462E-04-1.67203E-01-6.26118E-14 1.80867E-13
 -1      3707 1.99244E+01 1.80408E-01-7.81823E-04-1.44312E-01 1.28362E-13 2.35523E-13
 -1      3708 1.98785E+01 2.27999E-01 4.31739E-04-1.68241E-01 3.54584E-14 1.53130E-13
 -1      3709 1.99406E+01 1.64253E-01 4.26000E-04-1.24756E-01 1.01002E-13 1.04232E-13
 -1      3710 1.99468E+01 1.47747E-01-6.56766E-04-1.06539E-01 1.49662E-13 1.26241E-14
 -1      3711 1.99115E+01 1.90543E-01 4.29640E-04-1.24587E-01 3.85398E-14 2.95147E-13
 -1      3712 1.99598E+01 1.32578E-01 3.19524E-04-9.15169E-02 2.86511E-13-6.93229E-14
 -1      3713 1.99647E+01 1.17642E-01-5.34401E-04-7.72454E-02 2.35939E-13-7.19915E-14
 -1      3714 1.99385E+01 1.54556E-01 3.84160E-04-9.09662E-02 1.63885E-13-4.96098E-14
 -1      3715 1.99747E+01 1.04205E-01 2.41709E-04-6.58331E-02 1.50169E-13-6.57292E-14
 -1      3716 1.99785E+01 9.13041E-02-4.23896E-04-5.48210E-02 8.10667E-14-3.59686E-14
 -1      3717 1.99596E+01 1.22125E-01 3.22290E-04-6.53237E-02 2.17490E-13-6.85041E-14
 -1      3718 1.99859E+01 7.98758E-02 1.85212E-04-4.62617E-02 4.04780E-14 4.68893E-14
 -1      3719 1.99885E+01 6.91235E-02-3.27465E-04-3.79083E-02 3.17030E-14 1.41790E-13
 -1      3720 1.99754E+01 9.41673E-02 2.56760E-04-4.59583E-02 1.48304E-13-9.65755E-14
 -1      3721 1.99938E+01 5.97322E-02 1.42717E-04-3.15845E-02 5.43446E-14 3.21608E-13
 -1      3722 1.99955E+01 5.10399E-02-2.46192E-04-2.53560E-02 4.82110E-14 4.47925E-13
 -1      3723 1.99869E+01 7.08765E-02 1.94065E-04-3.15244E-02 1.46823E-13 3.11138E-13
 -1      3724 1.99991E+01 4.35392E-02 1.10332E-04-2.07570E-02-4.41646E-14 4.23890E-13
 -1      3725 2.00001E+01 3.66947E-02-1.81042E-04-1.61998E-02-1.09491E-13 4.45938E-13
 -1      3726 1.99948E+01 5.20561E-02 1.42595E-04-2.09127E-02 3.40662E-14 4.78858E-13
 -1      3727 2.00025E+01 3.08519E-02 8.50661E-05-1.29167E-02-4.18612E-14 4.12862E-13
 -1      3728 2.00030E+01 2.55880E-02-1.30227E-04-9.65503E-03 8.38513E-14 3.30220E-13
 -1      3729 2.00000E+01 3.72232E-02 9.89641E-05-1.32307E-02-1.06443E-13 5.61924E-13
 -1      3730 2.00044E+01 2.11426E-02 6.51126E-05-7.36764E-03 1.47232E-13 2.21831E-13
 -1      3731 2.00045E+01 1.71883E-02-9.08515E-05-5.09487E-03 1.69119E-17 1.64906E-13
 -1      3732 2.00032E+01 2.58041E-02 6.57468E-05-7.77765E-03-1.26958E-14 2.43677E-13
 -1      3733 2.00053E+01 1.38873E-02 4.92623E-05-3.54993E-03-8.42534E-14 7.48407E-14
 -1      3734 2.00052E+01 1.09896E-02-6.10057E-05-2.01781E-03-9.89403E-14 5.39240E-14
 -1      3735 2.00049E+01 1.72106E-02 4.05409E-05-4.00535E-03 4.19649E-14 1.07709E-13
 -1      3736 2.00054E+01 8.60070E-03 3.68655E-05-1.01558E-03-1.76092E-13 8.62337E-14
 -1      3737 2.00052E+01 6.53373E-03-3.89796E-05-2.72532E-05-3.53599E-13 3.75780E-14
 -1      3738 2.00056E+01 1.08998E-02 2.23373E-05-1.47766E-03-2.19291E-13 6.77643E-14
 -1      3739 2.00052E+01 4.85390E-03 2.71846E-05 5.85965E-04-3.25645E-13 4.66392E-14
 -1      3740 2.00049E+01 3.42477E-03-2.31561E-05 1.18377E-03-1.76298E-13 6.66039E-14
 -1      3741 2.00057E+01 6.38583E-03 9.75191E-06 1.44611E-04-3.08660E-13 1.21498E-13
 -1      3742 2.00047E+01 2.28342E-03 1.96606E-05 1.52459E-03-2.21665E-13-9.45984E-15
 -1      3743 2.00043E+01 1.33264E-03-1.21223E-05 1.84913E-03-1.08956E-13-3.68222E-14
 -1      3744 2.00053E+01 3.25355E-03 1.46598E-06 1.12101E-03-3.02008E-13-6.97629E-14
 -1      3745 2.00040E+01 5.90387E-04 1.38697E-05 2.00477E-03 5.23977E-14 7.09470E-14
 -1      3746 2.00037E+01-1.05815E-05-4.69712E-06 2.14409E-03 1.33864E-13-2.10932E-13
 -1      3747 2.00047E+01 1.15937E-03-3.63556E-06 1.64771E-03-2.33467E-14-2.36707E-13
 -1      3748 2.00034E+01-4.64950E-04 9.48131E-06 2.17871E-03 1.47174E-13-2.63483E-13
 -1      3749 2.00030E+01-8.17632E-04 7.00464E-08 2.19758E-03 5.79925E-16-1.21430E-13
 -1      3750 2.00041E+01-1.73871E-04-6.44598E-06 1.87084E-03 7.96840E-14-2.38194E-13
 -1      3751 2.00027E+01-1.07127E-03 6.22842E-06 2.15735E-03-2.02220E-13-1.02674E-13
 -1      3752 2.00024E+01-1.25450E-03 2.91494E-06 2.10217E-03-3.34515E-13-3.24499E-14
 -1      3753 2.00033E+01-9.65382E-04-7.68518E-06 1.89741E-03-2.28889E-14-1.10303E-13
 -1      3754 2.00021E+01-1.37457E-03 3.87762E-06 2.01922E-03-2.99626E-13 6.37284E-14
 -1      3755 2.00018E+01-1.44851E-03 4.34006E-06 1.92221E-03-2.04803E-13 4.06147E-14
 -1      3756 2.00027E+01-1.38577E-03-7.94193E-06 1.80372E-03-2.24427E-13 7.05469E-14
 -1      3757 2.00015E+01-1.48365E-03 2.73125E-06 1.81872E-03-1.06299E-13 1.82433E-13
 -1      3758 2.00013E+01-1.49917E-03 3.53208E-06 1.70373E-03 1.25866E-13 1.23594E-13
 -1      3759 2.00020E+01-1.56372E-03-7.25459E-06 1.64305E-03-4.71653E-14 3.12710E-13
 -1      3760 1.85574E+01 1.16741E+00-7.33457E-03 6.10516E-01 1.40933E-13 6.46797E-14
 -1      3761 1.82932E+01 1.26859E+00-7.64140E-03 6.56965E-01 9.33989E-14 6.20539E-14
 -1      3762 1.56356E+01 6.49379E-02 2.71821E-02-3.22926E+00 1.91383E-15 8.24618E-14
 -1      3763 1.67546E+01-6.82935E-01-2.66674E-02-3.63788E+00 2.19054E-14-1.22402E-13
 -1      3764 1.95311E+01 6.29349E-01-3.15661E-03 4.05960E-01-1.76689E-13 1.54542E-13
 -1      3765 1.94442E+01 7.05448E-01-2.04870E-03 4.52561E-01-1.00244E-13 1.57370E-13
 -1      3766 1.93112E+01 7.87114E-01-4.06657E-03 4.80049E-01-3.99797E-15 1.45882E-13
 -1      3767 1.91834E+01 8.75571E-01-3.37585E-03 5.28961E-01 9.30287E-14 1.44577E-13
 -1      3768 1.92830E+01 7.90085E-01 5.95916E-03 3.62701E-01-7.29258E-14 1.30214E-13
 -1      3769 1.97912E+01 3.88285E-01-1.92663E-03 2.68503E-01-2.42584E-14 4.69499E-14
 -1      3770 1.97528E+01 4.40298E-01-5.27114E-04 3.05580E-01-1.03518E-13 4.18051E-14
 -1      3771 1.98644E+01 3.00475E-01-1.49732E-03 2.10984E-01 4.20117E-14 1.34625E-13
 -1      3772 1.98395E+01 3.42442E-01-1.53018E-04 2.42421E-01-8.19643E-16 6.92876E-14
 -1      3773 1.97690E+01 3.96061E-01 2.08798E-03 2.21050E-01-5.22489E-14-1.33782E-14
 -1      3774 1.99144E+01 2.30324E-01-1.15547E-03 1.62297E-01 7.01726E-14 1.63032E-13
 -1      3775 1.98985E+01 2.63818E-01 6.18551E-05 1.88259E-01 1.14418E-13 1.49231E-13
 -1      3776 1.98467E+01 3.07761E-01 1.45358E-03 1.76201E-01 1.06836E-14 4.40064E-14
 -1      3777 1.99481E+01 1.74794E-01-8.84777E-04 1.22232E-01-8.81250E-14 1.15698E-13
 -1      3778 1.99383E+01 2.01285E-01 1.71683E-04 1.43191E-01 1.25380E-15 2.08477E-13
 -1      3779 1.99008E+01 2.36678E-01 1.00463E-03 1.36973E-01 4.26617E-14 1.55205E-13
 -1      3780 1.99705E+01 1.31203E-01-6.71047E-04 9.00603E-02-1.05891E-14 5.50980E-14
 -1      3781 1.99647E+01 1.51976E-01 2.15444E-04 1.06636E-01-8.13826E-14 1.41607E-13
 -1      3782 1.99381E+01 1.80037E-01 6.87671E-04 1.03955E-01-3.81142E-14 3.37945E-13
 -1      3783 1.99852E+01 9.72769E-02-5.02246E-04 6.47903E-02-6.76288E-14 2.14189E-13
 -1      3784 1.99819E+01 1.13420E-01 2.19634E-04 7.76517E-02 1.63251E-14 1.10663E-13
 -1      3785 1.99635E+01 1.35347E-01 4.68557E-04 7.70237E-02-9.57230E-14 3.90426E-13
 -1      3786 1.99945E+01 7.10990E-02-3.71509E-04 4.53345E-02-2.11607E-13 1.79455E-13
 -1      3787 1.99928E+01 8.35379E-02 2.03343E-04 5.51345E-02-7.55321E-14 2.49293E-13
 -1      3788 1.99805E+01 1.00421E-01 3.14131E-04 5.56269E-02-2.89916E-14 4.22992E-13
 -1      3789 2.00002E+01 5.10791E-02-2.71287E-04 3.06639E-02 6.55568E-14-1.46359E-13
 -1      3790 1.99995E+01 6.05707E-02 1.77301E-04 3.79866E-02-6.57174E-14-3.32036E-15
 -1      3791 1.99916E+01 7.33906E-02 2.08848E-04 3.90125E-02 2.62376E-14 2.38422E-13
 -1      3792 2.00035E+01 3.59453E-02-1.94964E-04 1.98391E-02 1.50837E-13-2.35611E-13
 -1      3793 2.00034E+01 4.30991E-02 1.47268E-04 2.52003E-02 6.33881E-14-1.81271E-13
 -1      3794 1.99985E+01 5.26744E-02 1.32909E-04 2.64180E-02 9.38784E-14 3.32305E-14
 -1      3795 2.00051E+01 2.46528E-02-1.37298E-04 1.20289E-02 1.53935E-13-1.71470E-13
 -1      3796 2.00054E+01 2.99735E-02 1.18521E-04 1.58681E-02 1.66404E-13-2.60803E-13
 -1      3797 2.00027E+01 3.70031E-02 8.09466E-05 1.70876E-02 1.10129E-13-8.41840E-14
 -1      3798 2.00057E+01 1.63449E-02-9.42250E-05 6.53949E-03 1.70388E-13-5.67818E-14
 -1      3799 2.00061E+01 2.02438E-02 9.30176E-05 9.21676E-03 1.41609E-13-9.72111E-14
 -1      3800 2.00049E+01 2.53077E-02 4.67782E-05 1.03361E-02 1.42464E-13-3.75980E-14
 -1      3801 2.00057E+01 1.03373E-02-6.24520E-05 2.80351E-03-1.14500E-13 1.59671E-14
 -1      3802 2.00062E+01 1.31426E-02 7.11046E-05 4.61033E-03 4.14339E-14 2.21123E-14
 -1      3803 2.00059E+01 1.67069E-02 2.39884E-05 5.58532E-03 1.20204E-13 1.06705E-13
 -1      3804 2.00053E+01 6.08314E-03-3.94308E-05 3.63771E-04-8.38545E-14-2.68217E-14
 -1      3805 2.00058E+01 8.05729E-03 5.30737E-05 1.53163E-03-5.17935E-14-4.41810E-14
 -1      3806 2.00061E+01 1.04957E-02 9.18135E-06 2.35171E-03-3.02794E-14 1.00914E-13
 -1      3807 2.00047E+01 3.14779E-03-2.31123E-05-1.13943E-03-2.55909E-13-9.35822E-14
 -1      3808 2.00051E+01 4.49909E-03 3.86740E-05-4.30234E-04-1.43263E-13-6.69909E-14
 -1      3809 2.00058E+01 6.10695E-03-2.73799E-08 2.41901E-04-7.73623E-14-9.41324E-15
 -1      3810 2.00040E+01 1.18902E-03-1.18500E-05-1.98318E-03-2.27519E-13-1.00701E-13
 -1      3811 2.00044E+01 2.08115E-03 2.74404E-05-1.59480E-03-2.99750E-13-6.64752E-14
 -1      3812 2.00052E+01 3.08828E-03-5.39428E-06-1.05507E-03-2.26122E-13-7.24682E-14
 -1      3813 2.00033E+01-6.00285E-05-4.34173E-06-2.37665E-03 5.14250E-15-6.91714E-14
 -1      3814 2.00037E+01 5.00245E-04 1.88666E-05-2.20572E-03-8.25613E-14-6.77863E-14
 -1      3815 2.00045E+01 1.08278E-03-8.17606E-06-1.77952E-03-1.43351E-13 8.98628E-14
 -1      3816 2.00027E+01-8.05294E-04 4.48087E-07-2.47445E-03-1.03695E-13 1.40394E-13
 -1      3817 2.00030E+01-4.78897E-04 1.24643E-05-2.44504E-03-1.10163E-13 6.18657E-14
 -1      3818 2.00038E+01-1.88036E-04-9.25465E-06-2.11319E-03-1.93558E-13 2.75291E-13
 -1      3819 2.00021E+01-1.20450E-03 3.23986E-06-2.38842E-03 1.74260E-13-1.17267E-14
 -1      3820 2.00023E+01-1.03697E-03 7.78212E-06-2.44603E-03 1.85525E-13 1.00516E-13
 -1      3821 2.00031E+01-9.38942E-04-9.23659E-06-2.19061E-03 5.19563E-14 2.45534E-13
 -1      3822 2.00015E+01-1.37763E-03 4.64805E-06-2.19658E-03 7.78586E-14-1.55096E-13
 -1      3823 2.00018E+01-1.31217E-03 4.48228E-06-2.30358E-03 3.80783E-14-1.28063E-13
 -1      3824 2.00024E+01-1.33530E-03-8.79244E-06-2.10947E-03 2.36580E-13 3.17751E-14
 -1      3825 2.00011E+01-1.41445E-03 4.90416E-06-1.95184E-03-6.30029E-14-7.48199E-15
 -1      3826 2.00013E+01-1.40845E-03 2.31096E-06-2.08235E-03-4.14940E-14-1.40348E-13
 -1      3827 2.00018E+01-1.50147E-03-7.95873E-06-1.93687E-03-5.91505E-14-1.27947E-14
 -1      3828 2.00014E+01-1.57760E-03-5.10784E-06 1.45822E-03 1.10686E-13 6.86114E-14
 -1      3829 1.37607E+01 1.41370E+00-1.69929E-03 1.00476E+00 4.55929E-14 2.73660E-13
 -1      3830 1.30006E+01 1.57365E+00 8.72042E-02-1.47598E-01 2.76554E-14 2.56593E-13
 -1      3831 1.39352E+01 1.41369E+00 1.55549E-02-8.14677E-01 6.36548E-14 2.15791E-13
 -1      3832 1.45976E+01 1.54373E+00-2.63758E-02 8.54844E-01-1.35040E-14 2.94537E-13
 -1      3833 1.80618E+01-1.15725E+00 5.42921E-02-3.71804E+00 6.78617E-14-2.79950E-14
 -1      3834 1.92234E+01-1.93617E+00-8.54458E-02-3.54727E+00 1.47717E-13-5.56517E-14
 -1      3835 1.77004E+01-6.36738E-01 2.11110E-02-3.23534E+00 2.73293E-14-7.36451E-14
 -1      3836 2.00005E+01-1.33940E-03 3.90733E-06-1.52398E-03-2.38786E-13 9.62050E-14
 -1      3837 2.50527E+01-3.14802E-01-4.93119E-02-1.55320E+00-3.58116E-14-1.42074E-15
 -1      3838 2.49874E+01-1.08951E+00 2.01661E-02-8.12789E-01-2.09780E-14 1.23304E-14
 -1      3839 2.38761E+01-1.89304E+00-2.81532E-02 5.10503E-01 1.19384E-13 1.87469E-14
 -1      3840 2.35610E+01-2.05570E+00 2.10029E-02 1.05547E-01 1.61486E-13 6.78119E-14
 -1      3841 2.33571E+01-2.37359E+00 1.29682E-03-5.12054E-01 1.54439E-13 1.01706E-13
 -1      3842 2.42671E+01-2.20102E+00-4.46580E-02 3.13805E-01 1.44810E-13 8.29887E-14
 -1      3843 2.00019E+01-1.80716E-03 2.57960E-06-4.75951E-04-5.45744E-15 7.44095E-14
 -1      3844 2.00018E+01-1.76785E-03 4.33498E-08-7.67025E-04-6.92961E-14 1.42678E-13
 -1      3845 1.89987E+01 9.68871E-01-5.34768E-03 5.50643E-01 8.01421E-14 1.07136E-13
 -1      3846 1.88136E+01 1.06707E+00-5.21587E-03 5.99333E-01 1.17246E-13 4.33745E-14
 -1      3847 1.85508E+01 1.16246E+00 1.17504E-02 3.97335E-01 1.58432E-13-3.24502E-14
 -1      3848 1.89766E+01 9.67668E-01 8.36970E-03 3.92617E-01 4.96549E-14 8.58824E-14
 -1      3849 1.96847E+01 4.96948E-01-2.46707E-03 3.34172E-01-1.29547E-13 1.50392E-13
 -1      3850 1.96265E+01 5.60498E-01-1.13073E-03 3.76545E-01-1.56346E-13 2.09316E-13
 -1      3851 1.96585E+01 5.04412E-01 2.97959E-03 2.69773E-01-1.08138E-14 1.36252E-13
 -1      3852 1.79365E+01 1.36577E+00-1.06661E-02 6.53605E-01 7.69907E-14 7.31823E-14
 -1      3853 1.75649E+01 1.45575E+00-1.07206E-02 6.99625E-01 3.39769E-14 8.35154E-14
 -1      3854 1.71353E+01 1.54234E+00 2.31717E-02 2.79330E-01 5.20208E-14-1.63593E-14
 -1      3855 1.79601E+01 1.36199E+00 1.66649E-02 3.63712E-01 9.71539E-14 1.29540E-14
 -1      3856 2.00007E+01-1.42790E-03-6.00013E-07-1.54637E-03-8.74182E-14 3.00131E-13
 -1      3857 2.49126E+01 5.67598E-01 1.33593E-02-2.02533E+00-8.95135E-14-2.06397E-14
 -1      3858 2.53685E+01 1.85973E+00-6.54201E-02-2.02040E+00-1.08847E-13 2.40849E-14
 -1      3859 2.00019E+01-1.75401E-03-5.37038E-07-9.32382E-04-1.79867E-13 1.24045E-13
 -1      3860 2.00016E+01-1.71321E-03 3.35890E-06-1.03383E-03-1.07947E-13 1.29365E-13
 -1      3861 2.00014E+01-1.64863E-03-4.41518E-06-1.24708E-03-6.00844E-14 3.21863E-13
 -1      3862 2.22344E+01-2.40852E+00-1.29829E-02-1.57969E+00 1.60312E-13 1.90861E-13
 -1      3863 2.32552E+01-2.70926E+00 3.00488E-02-1.21144E+00 1.99900E-13 2.10481E-13
 -1      3864 2.00019E+01-1.82707E-03 1.24346E-06-1.37694E-04 7.55096E-14 4.22805E-14
 -1      3865 2.00022E+01-1.82547E-03-1.55301E-06-3.24996E-04-5.64917E-14 1.21189E-13
 -1      3866 2.00019E+01-1.82434E-03 1.18701E-06 1.66098E-04-1.96885E-14 2.43861E-14
 -1      3867 2.22436E+01-2.17170E+00-2.31552E-02-1.11024E+00 1.39843E-13 1.28835E-13
 -1      3868 2.20504E+01-1.84777E+00-8.11169E-03-7.89502E-01 1.14516E-13 8.43295E-14
 -1      3869 2.16938E+01-1.59336E+00 2.09051E-02-9.48541E-01 1.91088E-14 6.17611E-14
 -1      3870 2.17154E+01-2.00377E+00 3.44555E-02-1.69168E+00 6.67738E-14 1.48443E-13
 -1      3871 1.95023E+01 6.35300E-01 4.22555E-03 3.18910E-01-1.65481E-13 1.95436E-13
 -1      3872 1.51472E+01 5.46645E-01 1.87389E-02-2.70136E+00 4.51908E-14 1.82868E-13
 -1      3873 1.61853E+01 4.26083E-01 2.80842E-02-2.54198E+00 8.70723E-14 6.57538E-14
 -1      3874 1.47885E+01 9.96525E-01-6.44398E-03-1.89420E+00 3.87047E-14 1.72606E-13
 -1      3875 2.00016E+01-1.66084E-03 3.29538E-06 1.21221E-03-1.86850E-14 5.82994E-13
 -1      3876 2.00007E+01-1.39010E-03-5.16413E-07-1.68812E-03-1.78738E-13 2.64177E-13
 -1      3877 2.00009E+01-1.40463E-03-4.82754E-08-1.82327E-03-1.36011E-13 1.13755E-13
 -1      3878 2.03448E+01-1.79025E+00 4.00597E-02-2.80038E+00 1.54464E-13 8.58567E-14
 -1      3879 2.00013E+01-1.53097E-03-5.69726E-06-1.71801E-03-1.89070E-13 3.39445E-13
 -1      3880 1.59824E+01 1.60151E+00-2.34739E-02 7.43727E-01 1.88918E-14 2.97281E-13
 -1      3881 1.53636E+01 1.58494E+00-1.26167E-02 8.23666E-01-1.50635E-14 2.92395E-13
 -1      3882 1.49036E+01 1.69185E+00 5.42343E-02 8.23733E-02 9.72399E-15 3.08402E-13
 -1      3883 1.61233E+01 1.66061E+00 3.40284E-02 1.69264E-01 3.96840E-14 2.31807E-13
 -1      3884 2.43667E+01-1.40507E+00-4.93539E-02-3.46875E-01 1.81131E-14 1.08229E-14
 -1      3885 2.12598E+01-1.57955E+00-2.17171E-02-1.31676E+00-9.43668E-15 8.18135E-14
 -1      3886 2.04568E+01-1.01492E+00 1.06456E-02-1.56624E+00-6.59594E-14 1.50046E-13
 -1      3887 2.01631E+01-7.31561E-01 7.07737E-03-1.49144E+00-1.00190E-13 1.66371E-13
 -1      3888 1.96386E+01 4.82370E-01-1.66668E-03 1.97563E-01 6.24641E-14 1.16799E-13
 -1      3889 1.95711E+01 5.39771E-01-1.90369E-03 2.18240E-01 3.94839E-15 1.61995E-13
 -1      3890 2.11714E+01-1.67497E+00 3.47717E-03-1.67958E+00 4.56015E-14 1.38429E-13
 -1      3891 2.07789E+01-1.32394E+00 1.88852E-02-1.67688E+00 1.79676E-14 1.82256E-13
 -1      3892 2.01961E+01-1.17513E+00-3.17839E-02-1.92626E+00-2.90887E-14 2.48540E-13
 -1      3893 2.09693E+01-1.95875E+00-5.22455E-02-2.15407E+00 7.29475E-14 1.72013E-13
 -1      3894 1.99992E+01-4.80801E-01 9.78099E-03-1.33145E+00-5.72318E-14 1.83666E-13
 -1      3895 1.98180E+01-2.77220E-01 2.91794E-03-1.23154E+00-6.17312E-14 1.52022E-13
 -1      3896 1.97270E+01-5.27453E-01-1.47463E-02-1.58495E+00-6.42672E-14 2.94669E-13
 -1      3897 1.97503E+01-1.06563E-01 7.16843E-03-1.08327E+00-5.85717E-14 1.53595E-13
 -1      3898 1.96510E+01 2.64371E-02 2.34985E-04-9.82356E-01 1.02560E-14 1.75537E-13
 -1      3899 1.95178E+01-1.00565E-01-7.09811E-03-1.24507E+00-4.96493E-14 2.07676E-13
 -1      3900 1.96411E+01 1.33339E-01 5.35659E-03-8.56745E-01 3.80247E-14 1.23978E-13
 -1      3901 1.95943E+01 2.11055E-01-1.09602E-03-7.66623E-01-3.57049E-14 1.70204E-13
 -1      3902 1.94476E+01 1.65806E-01-3.46681E-03-9.53725E-01-1.57002E-14 4.56412E-14
 -1      3903 1.96158E+01 2.70696E-01 3.87525E-03-6.65216E-01-8.10154E-14 1.93720E-13
 -1      3904 1.96016E+01 3.08645E-01-1.64198E-03-5.89148E-01-5.52407E-14 1.26563E-13
 -1      3905 1.94586E+01 3.15464E-01-1.43949E-03-7.18682E-01-5.05349E-14 1.80698E-14
 -1      3906 1.96380E+01 3.34730E-01 2.72036E-03-5.09705E-01-4.39582E-14 2.51020E-13
 -1      3907 1.96427E+01 3.45593E-01-1.76611E-03-4.47577E-01 1.90347E-14 1.56055E-13
 -1      3908 1.95130E+01 3.83758E-01-2.22413E-04-5.34848E-01-2.68697E-14 1.55814E-13
 -1      3909 1.96841E+01 3.49358E-01 1.84976E-03-3.86646E-01-2.79718E-15 1.71507E-13
 -1      3910 1.96984E+01 3.43079E-01-1.67357E-03-3.36939E-01-4.84814E-14 7.65012E-14
 -1      3911 1.95862E+01 3.97719E-01 4.40829E-04-3.94479E-01 1.09603E-14 8.56136E-14
 -1      3912 1.97389E+01 3.33142E-01 1.22609E-03-2.90842E-01-2.13689E-14 5.07927E-14
 -1      3913 1.97570E+01 3.17049E-01-1.48254E-03-2.51609E-01-2.43997E-14 5.15893E-14
 -1      3914 1.96633E+01 3.78068E-01 7.53129E-04-2.88965E-01-8.52464E-14 1.52936E-13
 -1      3915 1.97934E+01 2.99659E-01 7.96338E-04-2.17052E-01-9.95582E-15 4.84064E-14
 -1      3916 1.98117E+01 2.78889E-01-1.25871E-03-1.86386E-01-2.78563E-14 1.11207E-13
 -1      3917 1.97357E+01 3.39749E-01 8.52955E-04-2.10441E-01-2.58194E-14 1.85608E-13
 -1      3918 1.98427E+01 2.58348E-01 5.09592E-04-1.60644E-01 1.27942E-14 1.67182E-13
 -1      3919 1.98593E+01 2.36312E-01-1.03668E-03-1.36861E-01 8.94944E-14 2.38535E-13
 -1      3920 1.97993E+01 2.93062E-01 8.30605E-04-1.52374E-01 4.92337E-14 1.76320E-13
 -1      3921 1.98847E+01 2.15410E-01 3.23804E-04-1.17778E-01 1.67098E-14 1.94673E-13
 -1      3922 1.98988E+01 1.94220E-01-8.33462E-04-9.94670E-02 7.31671E-14 1.84470E-13
 -1      3923 1.98525E+01 2.44743E-01 7.44413E-04-1.09612E-01 1.66606E-14 2.39813E-13
 -1      3924 1.99189E+01 1.74630E-01 2.06794E-04-8.53809E-02 1.05175E-13 1.75409E-13
 -1      3925 1.99302E+01 1.55466E-01-6.58953E-04-7.13886E-02 1.71481E-13 4.78911E-14
 -1      3926 1.98954E+01 1.98899E-01 6.30133E-04-7.82102E-02 7.28541E-14 1.46271E-13
 -1      3927 1.99456E+01 1.38078E-01 1.34789E-04-6.10560E-02 1.64659E-13 5.98271E-14
 -1      3928 1.99543E+01 1.21519E-01-5.07336E-04-5.04598E-02 1.52856E-13 2.72821E-14
 -1      3929 1.99287E+01 1.57755E-01 5.04962E-04-5.52158E-02 8.70098E-14 1.71082E-13
 -1      3930 1.99658E+01 1.06680E-01 9.08885E-05-4.28934E-02 2.64701E-13-1.43332E-14
 -1      3931 1.99722E+01 9.27946E-02-3.84617E-04-3.49496E-02 3.15589E-13 1.54306E-13
 -1      3932 1.99540E+01 1.22362E-01 3.99288E-04-3.84696E-02 2.34327E-13 1.64539E-13
 -1      3933 1.99804E+01 8.05430E-02 6.49885E-05-2.95054E-02 2.76167E-13 2.49978E-13
 -1      3934 1.99849E+01 6.92612E-02-2.86942E-04-2.36035E-02 1.75911E-13 3.47795E-13
 -1      3935 1.99724E+01 9.28301E-02 3.14476E-04-2.62862E-02 3.59116E-13 2.86480E-13
 -1      3936 1.99907E+01 5.93956E-02 4.85517E-05-1.96929E-02-3.25774E-15 2.84200E-13
 -1      3937 1.99938E+01 5.04513E-02-2.10688E-04-1.53826E-02-3.31268E-14 2.59300E-13
 -1      3938 1.99855E+01 6.88844E-02 2.35684E-04-1.75253E-02 1.04006E-13 2.89098E-13
 -1      3939 1.99977E+01 4.27142E-02 3.60647E-05-1.26069E-02-1.83642E-14 2.59443E-13
 -1      3940 1.99995E+01 3.57758E-02-1.51917E-04-9.50225E-03-9.65293E-14 3.47675E-13
 -1      3941 1.99944E+01 4.98692E-02 1.57369E-04-1.12762E-02-1.53169E-15 1.37289E-13
 -1      3942 2.00020E+01 2.98279E-02 2.89430E-05-7.57537E-03-1.47877E-13 3.55517E-13
 -1      3943 2.00031E+01 2.45605E-02-1.06382E-04-5.38899E-03-4.07296E-14 2.39603E-13
 -1      3944 2.00002E+01 3.51412E-02 1.08840E-04-6.84201E-03-6.51478E-14 2.27278E-13
 -1      3945 2.00046E+01 2.00947E-02 2.31738E-05-4.08652E-03-8.00775E-15 1.30307E-13
 -1      3946 2.00051E+01 1.61890E-02-7.20014E-05-2.58624E-03-8.24029E-14 1.23818E-13
 -1      3947 2.00037E+01 2.39493E-02 7.05611E-05-3.78725E-03-1.30638E-13 2.86239E-13
 -1      3948 2.00058E+01 1.29147E-02 1.91043E-05-1.73256E-03-8.61586E-14-2.35837E-14
 -1      3949 2.00059E+01 1.00884E-02-4.67205E-05-7.37369E-04-1.95193E-13 1.99731E-14
 -1      3950 2.00055E+01 1.56434E-02 4.25894E-05-1.72749E-03-1.74509E-13 1.85135E-14
 -1      3951 2.00061E+01 7.74885E-03 1.57890E-05-2.03552E-04-3.60385E-13-4.61543E-14
 -1      3952 2.00060E+01 5.75911E-03-2.85495E-05 4.26030E-04-3.44475E-13 2.17462E-14
 -1      3953 2.00063E+01 9.62409E-03 2.28877E-05-3.83248E-04-2.74308E-13-8.40289E-14
 -1      3954 2.00059E+01 4.13683E-03 1.29332E-05 7.35672E-04-3.20634E-13-4.58385E-15
 -1      3955 2.00056E+01 2.78151E-03-1.58151E-05 1.10596E-03-3.16391E-13-4.82914E-14
 -1      3956 2.00063E+01 5.37731E-03 9.48487E-06 4.51712E-04-2.96496E-13-1.65803E-13
 -1      3957 2.00054E+01 1.69741E-03 1.04402E-05 1.26220E-03-4.75166E-14-2.54055E-14
 -1      3958 2.00050E+01 8.12315E-04-7.17367E-06 1.45322E-03 9.28164E-14 1.15293E-13
 -1      3959 2.00059E+01 2.47583E-03 7.81542E-07 9.30539E-04-9.30927E-14 1.71334E-13
 -1      3960 2.00047E+01 1.22355E-04 8.27429E-06 1.50780E-03-3.74163E-14 3.64446E-14
 -1      3961 2.00043E+01-4.23063E-04-1.53384E-06 1.57887E-03 1.86298E-15-5.28752E-14
 -1      3962 2.00052E+01 5.72743E-04-4.49425E-06 1.16626E-03-6.33325E-14 3.27993E-13
 -1      3963 2.00039E+01-8.32454E-04 6.42823E-06 1.56915E-03 9.16337E-14-5.88967E-14
 -1      3964 2.00036E+01-1.14030E-03 2.00697E-06 1.56344E-03 1.05027E-15-6.39493E-14
 -1      3965 2.00045E+01-6.07704E-04-7.26611E-06 1.24129E-03 4.22197E-14 2.25665E-13
 -1      3966 2.00032E+01-1.35757E-03 4.78806E-06 1.51615E-03-6.05647E-14 6.81855E-14
 -1      3967 2.00028E+01-1.50718E-03 3.36313E-06 1.46439E-03-1.25545E-13 1.76118E-13
 -1      3968 2.00037E+01-1.28101E-03-8.36341E-06 1.21538E-03 4.26562E-14 2.32259E-13
 -1      3969 2.00025E+01-1.59991E-03 3.49413E-06 1.39498E-03-9.93371E-14 3.32978E-13
 -1      3970 2.00022E+01-1.65271E-03 3.26545E-06 1.31785E-03 1.06868E-13 4.65178E-13
 -1      3971 2.00029E+01-1.61574E-03-7.43031E-06 1.13425E-03-1.10453E-14 4.07960E-13
 -1      3972 1.92714E+01 7.41797E-01-2.32355E-03 2.39937E-01-1.55180E-13 3.03543E-13
 -1      3973 1.91366E+01 8.17428E-01-4.54604E-03 2.50892E-01-6.61225E-14 2.64218E-13
 -1      3974 2.38033E+01-2.68326E+00 3.94126E-02-8.26044E-01 1.96495E-13 1.83729E-13
 -1      3975 1.98306E+01 2.98191E-01-1.13255E-03 1.34849E-01 5.37519E-14 9.32389E-14
 -1      3976 1.97979E+01 3.37919E-01-6.71958E-04 1.53909E-01-1.03885E-14 5.98040E-14
 -1      3977 1.97504E+01 3.81502E-01-1.38538E-03 1.66178E-01-4.66592E-14 1.32006E-14
 -1      3978 1.97032E+01 4.29667E-01-1.16280E-03 1.86849E-01 1.54541E-14 8.55583E-14
 -1      3979 1.96398E+01 4.75178E-01 2.62372E-03 1.39695E-01 1.02774E-13 1.61461E-13
 -1      3980 1.97486E+01 3.77866E-01 1.90970E-03 1.22369E-01-2.18925E-14 9.11915E-14
 -1      3981 1.99280E+01 1.75793E-01-7.20646E-04 8.11758E-02-1.17907E-13 4.31210E-13
 -1      3982 1.99128E+01 2.01753E-01-1.62139E-04 9.51589E-02-5.56715E-14 3.73874E-13
 -1      3983 1.99561E+01 1.32397E-01-5.55668E-04 6.04349E-02-1.07451E-13 4.21538E-13
 -1      3984 1.99459E+01 1.53001E-01-4.69825E-05 7.17936E-02-8.21060E-14 3.91013E-13
 -1      3985 1.99257E+01 1.75744E-01 7.00146E-04 6.33136E-02-7.86855E-14 3.76899E-13
 -1      3986 1.99752E+01 9.83333E-02-4.15778E-04 4.37395E-02 7.07987E-14 3.44580E-13
 -1      3987 1.99686E+01 1.14476E-01 1.72903E-05 5.27455E-02 1.51688E-14 4.36130E-13
 -1      3988 1.99544E+01 1.32567E-01 5.24236E-04 4.76134E-02-4.05002E-14 1.91467E-13
 -1      3989 1.99880E+01 7.18195E-02-3.11535E-04 3.06674E-02 5.72124E-14 2.85567E-13
 -1      3990 1.99839E+01 8.43565E-02 5.32405E-05 3.76184E-02 7.57489E-14 3.31520E-13
 -1      3991 1.99741E+01 9.84589E-02 3.74453E-04 3.46627E-02 8.30889E-14 2.94915E-13
 -1      3992 1.99963E+01 5.14597E-02-2.33886E-04 2.07018E-02 1.60729E-13 8.19949E-14
 -1      3993 1.99938E+01 6.10636E-02 6.09979E-05 2.59447E-02 1.14294E-13 1.81815E-13
 -1      3994 1.99874E+01 7.18191E-02 2.36796E-04 2.43946E-02 1.46373E-13 2.77178E-13
 -1      3995 2.00014E+01 3.60464E-02-1.70233E-04 1.32927E-02 1.06935E-13 6.98544E-14
 -1      3996 2.00001E+01 4.32942E-02 5.97773E-05 1.71582E-02 9.78694E-14 3.99640E-14
 -1      3997 1.99960E+01 5.13944E-02 1.54261E-04 1.65069E-02 1.87360E-13 1.46370E-13
 -1      3998 2.00043E+01 2.45340E-02-1.20179E-04 7.92869E-03 1.14483E-13 4.63224E-15
 -1      3999 2.00037E+01 2.99286E-02 5.47851E-05 1.07052E-02 1.11897E-13 6.17422E-14
 -1      4000 2.00014E+01 3.59144E-02 1.01050E-04 1.05949E-02 7.52071E-14 7.13294E-14
 -1      4001 2.00058E+01 1.60776E-02-8.21402E-05 4.16361E-03 5.65427E-14 3.39298E-14
 -1      4002 2.00056E+01 2.00223E-02 4.67553E-05 6.10048E-03 6.49473E-14 3.05840E-14
 -1      4003 2.00045E+01 2.43476E-02 6.20619E-05 6.30483E-03 5.33496E-14-1.03583E-13
 -1      4004 2.00062E+01 9.98535E-03-5.39368E-05 1.61183E-03 3.98473E-14 1.08912E-13
 -1      4005 2.00064E+01 1.28118E-02 3.84307E-05 2.91626E-03 6.42228E-14 2.01725E-13
 -1      4006 2.00060E+01 1.58615E-02 3.48906E-05 3.28819E-03-6.85310E-14 1.00460E-14
 -1      4007 2.00061E+01 5.69625E-03-3.35018E-05-4.11546E-05-1.53776E-13 2.23470E-13
 -1      4008 2.00064E+01 7.67280E-03 3.06583E-05 7.97694E-04 4.76690E-15 2.58610E-13
 -1      4009 2.00065E+01 9.76065E-03 1.66545E-05 1.24202E-03-4.55086E-14 4.56477E-13
 -1      4010 2.00056E+01 2.76141E-03-1.90573E-05-1.04476E-03-4.70026E-14 1.00913E-13
 -1      4011 2.00060E+01 4.10222E-03 2.38137E-05-5.40388E-04-8.74445E-14 1.26504E-13
 -1      4012 2.00064E+01 5.47836E-03 4.83630E-06-8.26608E-05 2.08325E-15 2.91781E-13
 -1      4013 2.00049E+01 8.26020E-04-9.14728E-06-1.59230E-03-2.31680E-13 8.33378E-14
 -1      4014 2.00053E+01 1.69994E-03 1.80454E-05-1.32161E-03-1.97873E-13 2.22395E-14
 -1      4015 2.00059E+01 2.56036E-03-2.45022E-06-8.85012E-04-1.21538E-13 8.56074E-14
 -1      4016 2.00041E+01-3.87123E-04-2.62438E-06-1.83007E-03-2.02879E-13 2.17796E-13
 -1      4017 2.00045E+01 1.51461E-04 1.33554E-05-1.71732E-03-2.65667E-13 1.31105E-13
 -1      4018 2.00052E+01 6.47202E-04-6.58709E-06-1.32028E-03-2.28058E-13 1.26949E-14
 -1      4019 2.00034E+01-1.09170E-03 1.47653E-06-1.86596E-03 1.49070E-13 1.06439E-13
 -1      4020 2.00037E+01-7.87456E-04 9.66373E-06-1.85548E-03-7.28091E-14 4.30599E-14
 -1      4021 2.00044E+01-5.42103E-04-8.55902E-06-1.50620E-03-6.13573E-14-5.37500E-14
 -1      4022 2.00027E+01-1.45172E-03 3.27656E-06-1.77866E-03 1.10366E-13 2.43995E-13
 -1      4023 2.00030E+01-1.30334E-03 6.85863E-06-1.82996E-03 2.26246E-13 2.29371E-13
 -1      4024 2.00036E+01-1.22313E-03-8.78937E-06-1.52913E-03 7.44548E-14 2.69261E-13
 -1      4025 2.00020E+01-1.59327E-03 4.13135E-06-1.62173E-03-1.92613E-13 3.19771E-13
 -1      4026 2.00023E+01-1.54195E-03 4.68071E-06-1.70859E-03-3.06487E-14 2.93954E-13
 -1      4027 2.00028E+01-1.56244E-03-7.96490E-06-1.45867E-03 7.24135E-15 3.27531E-13
 -1      4028 2.00011E+01-1.53996E-03 6.77287E-06-1.45362E-03-1.21395E-13 3.40383E-13
 -1      4029 1.98396E+01-1.32690E+00 4.17148E-02-2.68499E+00 7.19368E-14 1.25644E-13
 -1      4030 1.73845E+01-1.08330E-01 1.95922E-02-2.74785E+00 5.21206E-14-4.16199E-14
 -1      4031 1.82762E+01-7.77506E-01-5.11465E-02-2.92381E+00 5.40488E-14-9.75001E-15
 -1      4032 2.00020E+01-1.69968E-03-3.56061E-07 1.11352E-03 1.11979E-13 4.46079E-13
 -1      4033 2.00018E+01-1.76000E-03-1.29734E-06 7.78863E-04-2.33737E-14 5.43799E-13
 -1      4034 2.00019E+01-1.79910E-03 3.52899E-06 4.92658E-04-4.51971E-14 1.85807E-13
 -1      4035 2.00023E+01-1.75316E-03-1.36545E-06 8.75407E-04 1.11350E-13 5.32469E-13
 -1      4036 1.94840E+01 6.02356E-01-1.97630E-03 2.24529E-01-1.35124E-13 2.46704E-13
 -1      4037 1.93883E+01 6.69259E-01-2.99087E-03 2.42465E-01-1.35293E-13 2.07248E-13
 -1      4038 1.92912E+01 7.20100E-01 4.88458E-03 1.41165E-01-1.10569E-13 3.78533E-13
 -1      4039 1.94916E+01 5.89410E-01 3.58631E-03 1.48695E-01 4.16167E-15 2.44660E-13
 -1      4040 1.98878E+01 2.30358E-01-9.09469E-04 1.06113E-01 2.31139E-14 2.69440E-13
 -1      4041 1.98653E+01 2.62666E-01-3.56986E-04 1.22766E-01 2.89258E-16 1.91066E-13
 -1      4042 1.98849E+01 2.29847E-01 9.91905E-04 8.17450E-02-8.22866E-14 4.66397E-13
 -1      4043 2.00014E+01-1.61110E-03 2.25839E-06-1.40811E-03-9.88651E-14 3.93139E-13
 -1      4044 2.00022E+01-1.81972E-03-1.96122E-06 3.44042E-04 7.77009E-14 2.68302E-14
 -1      4045 2.00025E+01-1.81782E-03 1.26389E-06-1.69931E-04-1.25644E-13 1.61677E-13
 -1      4046 2.00025E+01-1.80241E-03 8.70888E-07-5.06881E-04-1.50264E-13 2.81639E-13
 -1      4047 1.90217E+01 8.64455E-01 6.64854E-03 1.05048E-01-1.03879E-13 3.51062E-13
 -1      4048 1.89804E+01 8.98653E-01-2.74393E-03 2.33227E-01-5.63243E-14 1.85412E-13
 -1      4049 1.87918E+01 9.80396E-01-6.72296E-03 2.31224E-01 3.12380E-14 1.58595E-13
 -1      4050 1.46137E+01 1.48886E+00-1.30577E-02-4.85604E-01 5.93046E-14 2.27140E-13
 -1      4051 1.46577E+01 1.32382E+00 3.40881E-02-1.36505E+00 8.20255E-14 1.84765E-13
 -1      4052 1.55045E+01 1.14784E+00 1.67437E-02-1.50533E+00 1.07204E-13 1.85539E-13
 -1      4053 1.53434E+01 1.51867E+00-9.63626E-03-4.06808E-01 4.83281E-14 2.11888E-13
 -1      4054 1.98278E+01 2.96603E-01 1.38159E-03 1.01997E-01-3.24673E-14 1.82176E-13
 -1      4055 1.73042E+01 1.37585E+00-5.33280E-03-8.68973E-02 3.88801E-14 6.89401E-14
 -1      4056 1.68023E+01 1.42548E+00-1.48434E-02-1.83113E-01 2.52838E-14 2.57502E-14
 -1      4057 1.64756E+01 7.07317E-01-2.03557E-04-1.97959E+00 1.83094E-13 1.21656E-13
 -1      4058 1.68868E+01 2.71300E-01-1.91852E-03-2.47131E+00 1.40297E-13 6.95997E-14
 -1      4059 1.76383E+01 2.12583E-01 1.32761E-02-2.17926E+00 1.20169E-13 8.53535E-14
 -1      4060 2.00017E+01-1.61411E-03 2.75878E-06-1.50794E-03-1.63963E-13 4.20243E-13
 -1      4061 2.00021E+01-1.69248E-03-6.17543E-06-1.30156E-03-2.85530E-13 2.36995E-13
 -1      4062 1.64024E+01 1.47451E+00-1.15298E-02-2.48647E-01 1.34232E-13 1.05058E-13
 -1      4063 1.58803E+01 1.49366E+00-1.22834E-02-3.26685E-01 1.03495E-13 1.92308E-13
 -1      4064 1.58855E+01 1.40412E+00 2.71843E-02-8.79886E-01 1.22437E-13 1.71031E-13
 -1      4065 1.67722E+01 1.37478E+00 2.67650E-02-6.44580E-01 1.23733E-13 1.24193E-13
 -1      4066 1.85834E+01 1.06672E+00-3.32712E-03 1.89843E-01 1.42008E-13 7.40887E-14
 -1      4067 1.83208E+01 1.14891E+00-9.76822E-03 1.67176E-01 1.70573E-13 9.62702E-14
 -1      4068 1.86609E+01 1.01588E+00 9.08592E-03 2.34975E-02-1.50723E-14 2.02820E-13
 -1      4069 1.94103E+01-8.51823E-01 2.52723E-02-2.37938E+00 3.50830E-14 1.33619E-13
 -1      4070 1.80426E+01 1.23308E+00-4.25280E-03 9.06969E-02 1.11671E-13 1.07346E-13
 -1      4071 1.76770E+01 1.30609E+00-1.39155E-02 3.82074E-02 6.85963E-14 9.33094E-14
 -1      4072 1.75367E+01 1.28108E+00 1.81431E-02-3.74150E-01 5.64790E-14 9.22773E-14
 -1      4073 1.81792E+01 1.16162E+00 1.25399E-02-1.26117E-01 1.09254E-13 8.37106E-14
 -1      4074 2.00024E+01-1.77889E-03-1.27278E-06-7.80106E-04-2.16917E-13 2.69122E-13
 -1      4075 2.00022E+01-1.73063E-03 1.01683E-06-1.04624E-03-3.15737E-13 1.67181E-13
 -1      4076 2.00026E+01-1.68297E-03 4.70976E-06-1.13739E-03-2.53587E-13 1.92337E-13
 -1      4077 2.00028E+01-1.75646E-03 2.04310E-06-6.19242E-04-1.26767E-13 3.56031E-13
 -1      4078 2.00025E+01-1.78939E-03 3.24159E-07 5.19050E-04 8.76420E-14 2.95588E-13
 -1      4079 2.00025E+01-1.81533E-03-3.02468E-07 1.98864E-04-5.88868E-14 1.40114E-13
 -1      4080 2.00028E+01-1.78119E-03-5.05944E-07 9.40815E-06-1.15019E-13 2.45130E-13
 -1      4081 2.00027E+01-1.73035E-03 2.45274E-06 7.26398E-04 6.09667E-14 4.27624E-13
 -1      4082 1.91069E+01-5.17326E-01 1.01579E-02-2.17146E+00-5.68393E-15 1.47142E-13
 -1      4083 1.92929E+01 6.08842E-03 1.07557E-02-1.34226E+00-2.59328E-14 2.42274E-13
 -1      4084 1.92002E+01 1.43207E-01-7.14494E-03-1.18426E+00-2.35483E-14 2.56942E-13
 -1      4085 1.92650E+01 2.63680E-01 8.37466E-03-9.99313E-01-7.20767E-14 2.22655E-13
 -1      4086 1.92330E+01 3.36217E-01-6.62310E-03-8.71609E-01-3.12284E-14 1.55871E-13
 -1      4087 1.89973E+01 3.62443E-01 1.08731E-02-1.09806E+00-7.83351E-14 2.63649E-13
 -1      4088 1.93137E+01 4.00919E-01 5.93275E-03-7.31174E-01-4.46374E-15 1.67647E-13
 -1      4089 1.93172E+01 4.30485E-01-5.53170E-03-6.31259E-01-1.19850E-14 1.77263E-13
 -1      4090 1.91102E+01 4.95789E-01 9.54257E-03-7.75933E-01-1.28941E-14 2.64243E-13
 -1      4091 1.93992E+01 4.55662E-01 3.86134E-03-5.28342E-01-4.13965E-14 1.32035E-13
 -1      4092 1.94222E+01 4.57274E-01-4.46232E-03-4.52206E-01 3.12889E-15 9.43995E-14
 -1      4093 1.92483E+01 5.41004E-01 8.25268E-03-5.39862E-01-7.12411E-14 1.74655E-13
 -1      4094 1.94979E+01 4.57118E-01 2.39402E-03-3.78363E-01 2.92830E-14-1.57397E-14
 -1      4095 1.95294E+01 4.41824E-01-3.50030E-03-3.21357E-01-6.65729E-14 2.02667E-14
 -1      4096 1.93867E+01 5.31040E-01 6.84141E-03-3.71134E-01-4.80316E-14-4.47047E-14
 -1      4097 1.95953E+01 4.26571E-01 1.40360E-03-2.69188E-01-1.78010E-14 1.24663E-13
 -1      4098 1.96287E+01 4.02195E-01-2.68914E-03-2.26967E-01-1.22361E-14 2.04542E-13
 -1      4099 1.95139E+01 4.89118E-01 5.51782E-03-2.52627E-01 2.86681E-14-8.48193E-14
 -1      4100 1.96840E+01 3.79026E-01 7.60665E-04-1.90562E-01-8.42521E-14 2.42486E-13
 -1      4101 1.97154E+01 3.50890E-01-2.03340E-03-1.59493E-01-3.81442E-14 2.33452E-13
 -1      4102 1.96245E+01 4.31074E-01 4.36246E-03-1.70562E-01 1.50945E-14 1.34399E-13
 -1      4103 1.97603E+01 3.24645E-01 3.61182E-04-1.34337E-01 3.66257E-14 1.85032E-13
 -1      4104 1.97879E+01 2.96197E-01-1.51813E-03-1.11551E-01 7.22592E-14 1.96318E-13
 -1      4105 1.97172E+01 3.67389E-01 3.39204E-03-1.14384E-01 1.22675E-15 2.54579E-13
 -1      4106 1.98235E+01 2.69971E-01 1.26723E-04-9.43027E-02-1.95177E-14 2.23512E-13
 -1      4107 1.98465E+01 2.43288E-01-1.12131E-03-7.76162E-02-6.08268E-14 2.13598E-13
 -1      4108 1.97924E+01 3.04668E-01 2.59651E-03-7.62757E-02 2.18331E-14 2.43753E-13
 -1      4109 1.98741E+01 2.18920E-01 8.31081E-07-6.58628E-02-1.51573E-14 2.03488E-13
 -1      4110 1.98924E+01 1.95114E-01-8.18768E-04-5.36450E-02 5.40115E-14 1.66960E-13
 -1      4111 1.98518E+01 2.46766E-01 1.95238E-03-5.06096E-02-7.27039E-16 2.09851E-13
 -1      4112 1.99133E+01 1.73564E-01-5.48148E-05-4.56591E-02 1.15126E-13 8.32658E-14
 -1      4113 1.99276E+01 1.53070E-01-5.87121E-04-3.67012E-02 1.47448E-13 1.31911E-13
 -1      4114 1.98975E+01 1.95614E-01 1.41245E-03-3.34349E-02 8.23140E-14 2.46891E-14
 -1      4115 1.99431E+01 1.34727E-01-5.98611E-05-3.13017E-02 1.81846E-13 3.18671E-13
 -1      4116 1.99540E+01 1.17693E-01-3.30057E-04-2.46529E-02 3.54676E-13 3.41378E-13
 -1      4117 1.99316E+01 1.51549E-01 7.80160E-04-2.20876E-02 2.52356E-13 1.77722E-13
 -1      4118 1.99650E+01 1.02224E-01-6.90028E-05-2.13244E-02 3.38140E-13 2.87082E-13
 -1      4119 1.99726E+01 8.84104E-02-3.09845E-04-1.66042E-02 2.81009E-13 2.83315E-13
 -1      4120 1.99574E+01 1.14567E-01 4.08536E-04-1.44839E-02 3.21110E-13 2.43063E-13
 -1      4121 1.99806E+01 7.61594E-02-1.45692E-05-1.40744E-02 1.02230E-13 1.62588E-13
 -1      4122 1.99859E+01 6.49949E-02-2.43283E-04-1.07121E-02-7.73831E-14 1.79960E-13
 -1      4123 1.99753E+01 8.60609E-02 3.73407E-04-9.09924E-03 8.96891E-14 1.32966E-13
 -1      4124 1.99913E+01 5.53757E-02-4.15488E-05-9.04236E-03-3.36720E-14 1.02011E-13
 -1      4125 1.99949E+01 4.67579E-02-1.38577E-04-6.56770E-03-4.95115E-15 1.78926E-14
 -1      4126 1.99879E+01 6.31658E-02 3.02139E-04-5.50148E-03-9.21740E-14-3.70217E-14
 -1      4127 1.99983E+01 3.91987E-02-3.99573E-05-5.53505E-03 5.46028E-14 1.82390E-13
 -1      4128 2.00006E+01 3.26217E-02-9.19777E-05-3.79279E-03 1.42968E-14 2.26122E-13
 -1      4129 1.99964E+01 4.50133E-02 2.32719E-04-3.24399E-03 6.01696E-14 4.25309E-15
 -1      4130 2.00027E+01 2.69109E-02-2.58016E-05-3.13570E-03-2.01694E-13 1.56326E-13
 -1      4131 2.00041E+01 2.19933E-02-5.79716E-05-1.92631E-03-2.55185E-13 9.37962E-14
 -1      4132 2.00017E+01 3.11637E-02 1.49003E-04-1.77816E-03-1.78731E-13 9.01189E-14
 -1      4133 2.00052E+01 1.77623E-02-1.50124E-05-1.52113E-03-2.34111E-13 3.62658E-14
 -1      4134 2.00059E+01 1.41660E-02-3.42708E-05-6.98964E-04-1.91583E-13-1.47373E-14
 -1      4135 2.00047E+01 2.08090E-02 8.70622E-05-8.18265E-04-3.03550E-13-5.71133E-14
 -1      4136 2.00063E+01 1.11028E-02-7.16680E-06-4.64233E-04-3.10668E-13-6.09118E-14
 -1      4137 2.00065E+01 8.53696E-03-1.80946E-05 7.73102E-05-4.16034E-13-1.60505E-13
 -1      4138 2.00063E+01 1.32311E-02 4.39610E-05-2.07392E-04-4.00946E-13-5.99818E-14
 -1      4139 2.00066E+01 6.37725E-03-1.74475E-06 1.98691E-04-2.87849E-13-1.17447E-13
 -1      4140 2.00065E+01 4.59917E-03-7.36540E-06 5.39207E-04-1.55156E-13-1.44280E-14
 -1      4141 2.00068E+01 7.81779E-03 1.52582E-05 1.65194E-04-2.78109E-13-1.33378E-14
 -1      4142 2.00063E+01 3.12430E-03 1.75162E-06 5.87053E-04 2.38359E-15 1.47947E-13
 -1      4143 2.00060E+01 1.93587E-03-5.39770E-07 7.86010E-04 3.24108E-14 2.55469E-13
 -1      4144 2.00066E+01 4.05940E-03-2.86197E-06 3.77032E-04 6.60864E-14 1.48078E-13
 -1      4145 2.00057E+01 9.68724E-04 3.77867E-06 7.87912E-04-6.17013E-14 3.23348E-13
 -1      4146 2.00053E+01 2.11571E-04 3.52973E-06 8.89377E-04 1.50858E-14 3.01510E-13
 -1      4147 2.00060E+01 1.54045E-03-1.34010E-05 4.82201E-04 2.98178E-14 1.48351E-13
 -1      4148 2.00049E+01-3.88641E-04 4.73339E-06 8.64158E-04-1.62910E-14 3.79272E-13
 -1      4149 2.00045E+01-8.38730E-04 5.63440E-06 9.00279E-04-2.23847E-14 4.27783E-13
 -1      4150 2.00053E+01-7.09282E-05-1.85117E-05 5.18541E-04 3.52837E-14 5.10474E-13
 -1      4151 2.00041E+01-1.18193E-03 5.05887E-06 8.59876E-04 4.38632E-14 2.46373E-13
 -1      4152 2.00037E+01-1.41747E-03 7.18321E-06 8.51308E-04 6.63046E-14 2.97085E-13
 -1      4153 2.00044E+01-1.03386E-03-1.84574E-05 5.12857E-04-7.96224E-14 5.04485E-13
 -1      4154 2.00034E+01-1.55784E-03 3.25135E-06 8.02429E-04 1.40531E-13 3.39369E-13
 -1      4155 2.00030E+01-1.67313E-03 2.18765E-06 7.67828E-04 1.65846E-13 5.83627E-13
 -1      4156 2.00031E+01-1.71144E-03-5.89209E-06 4.16009E-04 1.05352E-13 3.27505E-13
 -1      4157 2.00037E+01-1.50225E-03-1.00040E-05 4.69450E-04 1.84458E-13 4.25876E-13
 -1      4158 1.98832E+01 2.17760E-01-7.68240E-04 5.52214E-02-5.04853E-14 3.28378E-13
 -1      4159 1.98589E+01 2.47615E-01-6.10891E-04 6.34804E-02-3.54948E-14 4.19954E-13
 -1      4160 1.99729E+01 9.34112E-02-2.95763E-04 2.41451E-02-2.57901E-14 1.07810E-13
 -1      4161 1.99648E+01 1.08804E-01-1.24969E-04 2.94139E-02 3.62278E-14 1.20219E-14
 -1      4162 1.99237E+01 1.66891E-01-6.01463E-04 4.34836E-02-5.68188E-14 2.67506E-13
 -1      4163 1.99067E+01 1.91230E-01-3.50103E-04 5.10577E-02-1.14229E-14 3.90550E-13
 -1      4164 1.98891E+01 2.14010E-01 1.86352E-03 3.49676E-02-2.42839E-14 1.93690E-13
 -1      4165 1.99864E+01 6.81291E-02-2.72452E-04 1.70381E-02 1.62552E-13 6.12279E-14
 -1      4166 1.99813E+01 8.01535E-02-1.84342E-05 2.13351E-02 2.65712E-14 1.11155E-13
 -1      4167 1.99745E+01 9.07597E-02 3.27268E-04 1.61979E-02-7.63832E-15-1.50661E-13
 -1      4168 1.99954E+01 4.85876E-02-2.08880E-04 1.14520E-02 1.92296E-13 1.60818E-13
 -1      4169 1.99922E+01 5.78063E-02 7.41502E-06 1.47244E-02 2.03253E-13 1.42359E-13
 -1      4170 1.99875E+01 6.64837E-02 2.75532E-04 1.16244E-02 1.58184E-13-1.86733E-13
 -1      4171 2.00011E+01 3.37775E-02-1.50668E-04 7.27604E-03 7.75905E-14 6.31281E-14
 -1      4172 1.99992E+01 4.07521E-02 2.05620E-05 9.71106E-03 1.37533E-13 1.99997E-13
 -1      4173 1.99963E+01 4.74502E-02 2.64541E-04 7.97436E-03 1.92844E-13 2.78385E-14
 -1      4174 2.00044E+01 2.27423E-02-1.04643E-04 4.24795E-03 6.64422E-14-1.37979E-14
 -1      4175 2.00034E+01 2.79208E-02 2.76882E-05 6.01219E-03 1.74983E-13 7.47084E-14
 -1      4176 2.00017E+01 3.28726E-02 1.78273E-04 5.13401E-03 1.68434E-13 9.89298E-14
 -1      4177 2.00060E+01 1.46690E-02-6.98236E-05 2.12059E-03-2.86937E-13 1.94898E-13
 -1      4178 2.00057E+01 1.84393E-02 2.92029E-05 3.36105E-03-2.89695E-13-1.03830E-14
 -1      4179 2.00048E+01 2.20061E-02 1.06102E-04 3.02880E-03-1.64242E-13 2.51638E-13
 -1      4180 2.00066E+01 8.88585E-03-4.42234E-05 6.84621E-04-1.06972E-13 2.98729E-13
 -1      4181 2.00067E+01 1.15700E-02 2.73526E-05 1.52585E-03-1.58228E-13 3.05317E-13
 -1      4182 2.00064E+01 1.40699E-02 5.47427E-05 1.53258E-03-3.61115E-13 2.03343E-13
 -1      4183 2.00065E+01 4.84679E-03-2.58842E-05-2.35796E-04 1.09956E-13 2.43548E-13
 -1      4184 2.00068E+01 6.70680E-03 2.39906E-05 3.08690E-04 2.54491E-14 3.32929E-13
 -1      4185 2.00068E+01 8.40278E-03 2.03745E-05 5.15185E-04-1.13568E-13 3.34116E-13
 -1      4186 2.00060E+01 2.11358E-03-1.31298E-05-7.83299E-04-1.14477E-13 3.43980E-13
 -1      4187 2.00064E+01 3.35943E-03 2.01535E-05-4.53542E-04 3.84411E-15 4.58373E-13
 -1      4188 2.00067E+01 4.46235E-03-1.39679E-06-1.40674E-04 4.90230E-15 7.66040E-13
 -1      4189 2.00053E+01 3.39120E-04-4.55307E-06-1.06978E-03-1.07395E-13 1.98139E-13
 -1      4190 2.00057E+01 1.13659E-03 1.63983E-05-8.90923E-04-8.42661E-14 2.87745E-13
 -1      4191 2.00061E+01 1.81218E-03-1.41738E-05-5.33105E-04-1.00566E-14 6.09783E-13
 -1      4192 2.00045E+01-7.47971E-04 1.06356E-06-1.18029E-03-1.09364E-14 8.93390E-14
 -1      4193 2.00049E+01-2.69700E-04 1.30185E-05-1.10416E-03-1.02323E-13 1.90432E-14
 -1      4194 2.00053E+01 1.06462E-04-2.06700E-05-7.40485E-04 6.77038E-14 4.33433E-13
 -1      4195 2.00037E+01-1.35661E-03 2.61787E-06-1.17644E-03 8.54908E-14 2.36511E-13
 -1      4196 2.00041E+01-1.09954E-03 1.01204E-05-1.16866E-03 4.52911E-14 9.80662E-14
 -1      4197 2.00045E+01-9.25098E-04-2.28242E-05-8.23545E-04-4.04367E-15-4.21223E-14
 -1      4198 2.00029E+01-1.62540E-03 1.06619E-06-1.13760E-03-5.99828E-14 2.51155E-13
 -1      4199 2.00033E+01-1.49792E-03 1.03981E-05-1.17325E-03 3.96432E-14 1.70303E-13
 -1      4200 2.00037E+01-1.45487E-03-1.89514E-05-8.64818E-04 8.18600E-14 1.86844E-13
 -1      4201 2.00030E+01-1.67965E-03-1.57043E-05-8.97822E-04 1.90164E-14 3.53447E-13
 -1      4202 1.84420E+01-1.09322E-01-3.62771E-03-2.11811E+00 1.34450E-14 9.91473E-14
 -1      4203 1.93768E+01-3.64528E-01 1.36355E-02-1.77018E+00-8.67915E-14 2.52165E-13
 -1      4204 1.98272E+01 2.80110E-01-9.11688E-04 6.71179E-02-9.72577E-14 3.32405E-13
 -1      4205 1.97929E+01 3.16096E-01-1.01213E-03 7.53052E-02-8.68765E-14 1.76380E-13
 -1      4206 1.98361E+01 2.74749E-01 2.56997E-03 4.00240E-02-1.21380E-13 2.22120E-13
 -1      4207 1.99529E+01 1.25902E-01-3.88798E-04 3.29863E-02 9.13273E-14 6.64414E-14
 -1      4208 1.99408E+01 1.45206E-01-2.73824E-04 3.93176E-02 3.61310E-14 1.83553E-13
 -1      4209 1.99274E+01 1.64117E-01 1.23063E-03 2.85956E-02 8.59874E-14 2.25867E-13
 -1      4210 1.91823E+01-1.39271E-01-6.08199E-03-1.58247E+00-5.70360E-14 2.58845E-13
 -1      4211 1.93268E+01 6.60430E-01-1.06554E-03 5.12571E-02-7.18905E-14 3.85245E-13
 -1      4212 1.92027E+01 7.18983E-01-5.67024E-03 3.33320E-02-1.55184E-13 4.18724E-13
 -1      4213 1.88639E+01 1.54267E-01 1.28253E-02-1.51530E+00-3.63624E-14 2.02117E-13
 -1      4214 1.97507E+01 3.55200E-01-1.04508E-03 7.72120E-02-5.48363E-14 1.59824E-13
 -1      4215 1.97028E+01 3.97721E-01-1.61838E-03 8.39138E-02-1.47073E-14 1.30397E-13
 -1      4216 1.97643E+01 3.47288E-01 3.48000E-03 4.16019E-02-2.34209E-14 1.16495E-13
 -1      4217 1.87738E+01 9.05017E-01-1.78049E-04-1.10361E-01-7.86187E-14 2.93049E-13
 -1      4218 1.85463E+01 9.56594E-01-1.18905E-02-1.81351E-01-2.62551E-14 2.47906E-13
 -1      4219 1.99553E+01 1.22904E-01 6.56426E-04 2.18910E-02 1.00313E-13-6.25745E-14
 -1      4220 2.00031E+01-1.72720E-03-4.39485E-06-3.24634E-04-7.85333E-14 4.35274E-13
 -1      4221 2.00031E+01-1.69110E-03 5.74544E-06-6.02455E-04-5.05920E-14 4.06042E-13
 -1      4222 2.00035E+01-1.59883E-03 9.79843E-06-5.88399E-04 7.04813E-14 5.70223E-13
 -1      4223 1.80022E+01 2.82675E-01 1.14936E-03-1.85496E+00 7.98086E-14 1.54905E-13
 -1      4224 1.96474E+01 4.43882E-01-1.14230E-03 8.20869E-02 7.47601E-14 2.06837E-13
 -1      4225 1.95811E+01 4.92915E-01-2.51478E-03 8.49246E-02 1.55350E-13 2.13141E-13
 -1      4226 1.96684E+01 4.31972E-01 4.65050E-03 3.59785E-02 8.16644E-14 2.05083E-13
 -1      4227 1.95418E+01 5.28095E-01 6.13757E-03 1.73438E-02 2.13177E-13 3.22862E-13
 -1      4228 1.95095E+01 5.46139E-01-1.16620E-03 7.62379E-02 1.55313E-13 2.49448E-13
 -1      4229 1.94184E+01 6.00922E-01-3.81515E-03 7.14776E-02 6.01739E-14 3.91442E-13
 -1      4230 1.90869E+01 7.82703E-01-7.70433E-04-5.16057E-03-2.45138E-13 4.35487E-13
 -1      4231 1.89185E+01 8.41144E-01-8.27977E-03-4.41870E-02-1.68310E-13 3.17709E-13
 -1      4232 1.91641E+01 7.42058E-01 1.02796E-02-9.78697E-02-2.13263E-13 2.64722E-13
 -1      4233 1.85492E+01 9.27643E-01 1.62734E-02-4.29706E-01-5.47705E-14 2.92213E-13
 -1      4234 1.83673E+01 1.01366E+00 9.03705E-04-2.87776E-01 8.24937E-15 2.01502E-13
 -1      4235 1.80611E+01 1.04721E+00-1.66456E-02-4.05208E-01 3.89288E-14 1.44663E-13
 -1      4236 2.00032E+01-1.71613E-03 1.45381E-06 5.23143E-05-7.91967E-14 2.48091E-13
 -1      4237 1.59459E+01 1.18978E+00-1.02755E-02-1.21190E+00 1.54601E-13 1.78704E-13
 -1      4238 1.62018E+01 9.35687E-01 5.79718E-03-1.71236E+00 1.34579E-13 1.26447E-13
 -1      4239 1.69559E+01 8.01404E-01 1.61631E-02-1.65967E+00 1.84011E-13 1.03966E-13
 -1      4240 1.64414E+01 1.17907E+00-1.25073E-02-1.07693E+00 1.78982E-13 1.47202E-13
 -1      4241 1.78416E+01 1.08529E+00 2.77035E-03-5.67565E-01 6.92106E-14 7.93259E-14
 -1      4242 1.74346E+01 1.08854E+00-1.96513E-02-7.50754E-01 8.23498E-14 1.11849E-13
 -1      4243 1.81157E+01 9.64270E-01 1.91911E-02-7.45277E-01 1.52721E-14 1.52508E-13
 -1      4244 1.82193E+01 5.02012E-01-6.52720E-04-1.38712E+00 1.68426E-14 1.86035E-13
 -1      4245 1.83233E+01 5.52049E-01-2.21411E-02-1.16211E+00 4.96131E-15 1.98835E-13
 -1      4246 1.85637E+01 6.06850E-01-3.57388E-03-9.60108E-01-4.80871E-14 2.43758E-13
 -1      4247 1.86191E+01 6.60892E-01-1.68007E-02-7.70965E-01-5.03022E-14 2.53511E-13
 -1      4248 1.88925E+01 8.45319E-01 1.30297E-02-2.25134E-01-1.92056E-13 2.36212E-13
 -1      4249 1.99576E+01 1.13880E-01-1.20868E-04 1.03783E-02 1.38924E-13-8.91915E-14
 -1      4250 1.99453E+01 1.32667E-01 1.27811E-04 1.24322E-02 1.87497E-13 2.12603E-14
 -1      4251 1.99250E+01 1.55786E-01-6.75400E-04 4.28803E-04 1.86103E-13 8.32473E-14
 -1      4252 1.99073E+01 1.77832E-01-8.56290E-04 2.16915E-03 1.11494E-13 1.62448E-13
 -1      4253 1.88168E+01 6.67006E-01-4.60821E-03-6.33917E-01-7.18114E-14 2.73349E-13
 -1      4254 1.88914E+01 6.79919E-01-1.28345E-02-4.96832E-01-5.21012E-14 2.42188E-13
 -1      4255 1.90502E+01 6.58521E-01-4.58218E-03-4.07751E-01-1.68997E-13 1.98815E-13
 -1      4256 1.91276E+01 6.46191E-01-9.68489E-03-3.10654E-01-2.41411E-13 1.14962E-13
 -1      4257 1.92536E+01 6.10129E-01-4.19203E-03-2.54713E-01-1.37456E-13 1.22833E-13
 -1      4258 1.93260E+01 5.83626E-01-7.19796E-03-1.87250E-01-3.92660E-14 6.05495E-14
 -1      4259 1.94249E+01 5.41339E-01-3.64782E-03-1.53785E-01 9.99688E-14 6.85194E-14
 -1      4260 1.94887E+01 5.08115E-01-5.27489E-03-1.07729E-01 1.35987E-13 1.12553E-13
 -1      4261 1.95652E+01 4.64938E-01-3.06614E-03-8.90621E-02 1.64351E-13 1.01045E-13
 -1      4262 1.96192E+01 4.29871E-01-3.81603E-03-5.81121E-02 1.08625E-13 2.15658E-13
 -1      4263 1.96777E+01 3.88993E-01-2.50902E-03-4.88312E-02 2.41668E-14 1.70855E-13
 -1      4264 1.97220E+01 3.55118E-01-2.72676E-03-2.83214E-02 5.22190E-14 1.89062E-13
 -1      4265 1.97662E+01 3.18267E-01-2.00650E-03-2.47150E-02 2.03667E-14 1.75961E-13
 -1      4266 1.98015E+01 2.87319E-01-1.92313E-03-1.12887E-02 2.67080E-16 1.91434E-13
 -1      4267 1.98345E+01 2.55257E-01-1.56780E-03-1.08898E-02 2.32041E-14 1.56185E-13
 -1      4268 1.98620E+01 2.28083E-01-1.32972E-03-2.19872E-03-6.51355E-15 1.82568E-13
 -1      4269 1.98863E+01 2.00973E-01-1.17633E-03-3.40633E-03 4.66263E-15 2.21005E-13
 -1      4270 1.99470E+01 1.26915E-01-2.08947E-04-8.58398E-03 2.29103E-13 1.49398E-13
 -1      4271 1.99579E+01 1.10154E-01-4.11806E-04-5.66004E-03 2.48463E-13-5.63989E-14
 -1      4272 1.99708E+01 9.25774E-02 3.41882E-05-2.96782E-03 1.20977E-13-1.16675E-13
 -1      4273 1.99778E+01 7.98371E-02-8.54416E-05-1.57626E-03-2.11835E-14-2.02731E-13
 -1      4274 1.99864E+01 6.43163E-02-2.14317E-04 2.03289E-03 2.31551E-14-1.77133E-13
 -1      4275 1.99917E+01 5.43861E-02-1.26057E-04 2.83608E-03 8.29553E-14-1.46572E-13
 -1      4276 1.99953E+01 4.56854E-02-2.17476E-04 1.53978E-03 1.35026E-13-7.41635E-14
 -1      4277 1.99988E+01 3.82154E-02-8.68271E-05 2.09949E-03 8.28924E-14-3.21560E-14
 -1      4278 2.00011E+01 3.16488E-02-1.52953E-04 1.09401E-03-1.82635E-14 1.73156E-13
 -1      4279 2.00032E+01 2.60383E-02-4.66513E-05 1.46188E-03-9.23832E-14 2.05929E-13
 -1      4280 2.00045E+01 2.11766E-02-9.75200E-05 7.11212E-04-2.86365E-13 2.84632E-13
 -1      4281 2.00056E+01 1.70404E-02-1.81158E-05 9.46020E-04-3.61941E-13 2.39797E-13
 -1      4282 2.00062E+01 1.35163E-02-5.66976E-05 4.08860E-04-3.68482E-13 2.59829E-13
 -1      4283 2.00067E+01 1.05339E-02 2.84872E-08 5.55167E-04-3.92382E-13 3.24151E-13
 -1      4284 2.00068E+01 8.04122E-03-2.82871E-05 1.86857E-04-2.15879E-13 4.50378E-13
 -1      4285 2.00069E+01 5.94604E-03 1.06427E-05 2.74869E-04-4.45725E-14 6.09252E-13
 -1      4286 2.00067E+01 4.23425E-03-9.38729E-06 3.46822E-05-5.23683E-14 6.57263E-13
 -1      4287 2.00065E+01 2.80831E-03 1.60949E-05 8.44265E-05 5.56609E-14 5.39730E-13
 -1      4288 2.00062E+01 1.67615E-03 2.48730E-06-6.19636E-05 1.38816E-13 3.25726E-13
 -1      4289 2.00059E+01 7.44512E-04 1.80962E-05-3.71162E-05 4.16081E-14 3.45330E-13
 -1      4290 2.00055E+01 3.28359E-05 9.20402E-06-1.17363E-04 4.71668E-14 2.63192E-13
 -1      4291 2.00050E+01-5.42601E-04 1.76940E-05-1.08165E-04-5.44452E-16 3.46877E-13
 -1      4292 2.00046E+01-9.58929E-04 1.13343E-05-1.44465E-04-5.05769E-14 3.51142E-13
 -1      4293 2.00042E+01-1.28419E-03 1.45704E-05-1.43190E-04 1.12281E-14 4.07835E-13
 -1      4294 1.75827E+01 9.05757E-01 1.98360E-02-1.21240E+00 7.94896E-14 1.04029E-13
 -1      4295 1.71497E+01 1.07503E+00 1.43430E-03-9.97162E-01 1.05567E-13 9.75457E-14
 -1      4296 1.67559E+01 1.06970E+00-1.03974E-02-1.13988E+00 1.51198E-13 1.19277E-13
 -1      4297 1.99777E+01 8.15549E-02-1.51028E-04 9.18060E-03 7.95985E-14-2.83751E-13
 -1      4298 1.99697E+01 9.48983E-02-2.55343E-04 1.14109E-02-2.39136E-14-1.62835E-13
 -1      4299 2.00035E+01-1.61592E-03 5.56885E-06 7.70108E-05 5.23684E-14 4.17608E-13
 -1      4300 1.93768E+01 6.33195E-01 7.99698E-03-2.30370E-02 1.56213E-14 4.43122E-13
 -1      4301 1.99633E+01 1.04811E-01 2.14881E-04 3.00785E-03 1.42506E-13-1.63835E-13
 -1      4302 1.99403E+01 1.36450E-01-4.68010E-04 3.36171E-03 2.07359E-13 1.81161E-13
 -1      4303 2.00038E+01-1.46455E-03 8.75561E-06-1.90989E-04 8.27921E-14 4.54339E-13
 -1      4304 1.99807E+01 7.56743E-02-9.05206E-05 3.26443E-03 4.02952E-14-2.10530E-13
 -1      4305 1.79630E+01 3.92009E-01-1.38998E-02-1.67155E+00 3.60770E-14 1.53370E-13
 -1      4306 2.00038E+01-1.51139E-03-8.55345E-06 1.00430E-04 4.34952E-14 5.33395E-13
 -1      4307 1.69957E+01 9.36720E-01 2.47675E-02-1.45269E+00 1.33641E-13 6.33937E-14
 -1      4308 1.72173E+01 6.60534E-01-9.90374E-03-1.71956E+00 1.64585E-13 8.33179E-14
 -3
    1PSTEP                         3           1           1          
  100CL  101 1.000000000        4308                     0    1           1
 -4  TOSTRAIN    6    1
 -5  EXX         1    4    1    1
 -5  EYY         1    4    2    2
 -5  EZZ         1    4    3    3
 -5  EXY         1    4    1    2
 -5  EYZ         1    4    2    3
 -5  EZX         1    4    3    1
 -1         1 3.13412E-04-9.67442E-05-8.06463E-05 1.33587E-06 1.34652E-19 7.11767E-18
 -1         2 3.76168E-05-1.14746E-04 2.09127E-05-1.62870E-06 5.35976E-18 4.89744E-19
 -1         3 9.52373E-05-2.85710E-05-2.85714E-05 9.66242E-11-2.46836E-18-1.94358E-18
 -1         4 9.52373E-05-2.85710E-05-2.85714E-05-9.02062E-11 3.61212E-19 3.09207E-19
 -1         5 1.61518E-04-2.31618E-05-4.97160E-05 3.90345E-05-1.31767E-19 5.83987E-18
 -1         6 1.55173E-04 2.78840E-10-4.74206E-05-5.63863E-05-5.20925E-19-2.47037E-18
 -1         7 9.74366E-05-6.37495E-07-4.18852E-05-2.99823E-05-6.23628E-20-4.27323E-18
 -1         8 9.08983E-05 5.52963E-08-3.87252E-05-1.97260E-05 3.67401E-20-3.76072E-18
 -1         9 8.76404E-05 3.45621E-08-3.72892E-05-1.38649E-05 6.71009E-20-3.06175E-18
 -1        10 8.53835E-05-2.46820E-08-3.62431E-05-8.74011E-06 1.10432E-19-2.30290E-18
 -1        11 8.30505E-05-5.44671E-08-3.52077E-05-3.83741E-06 9.68794E-20-1.63636E-18
 -1        12 8.02226E-05-5.22847E-08-3.40193E-05 6.71802E-07 9.28030E-20-1.02086E-18
 -1        13 7.66864E-05-1.09801E-08-3.26064E-05 4.55488E-06 1.02200E-19-4.45119E-19
 -1        14 7.27781E-05 6.68072E-08-3.11150E-05 7.20698E-06 1.11067E-19-2.29013E-20
 -1        15 6.92246E-05 1.66003E-07-2.98248E-05 8.19910E-06 9.42589E-20 3.60595E-19
 -1        16 6.70706E-05 2.57545E-07-2.91144E-05 7.48538E-06 1.02213E-19 7.53587E-19
 -1        17 6.73634E-05 3.07705E-07-2.93499E-05 5.60891E-06 1.02888E-19 1.09864E-18
 -1        18 7.06244E-05 2.97454E-07-3.07065E-05 3.67453E-06 1.04026E-19 1.61188E-18
 -1        19 7.69411E-05 2.24043E-07-3.32181E-05 2.92058E-06 1.19485E-19 2.22140E-18
 -1        20 8.56575E-05 1.00603E-07-3.66436E-05 4.62814E-06 1.11491E-19 3.03879E-18
 -1        21 9.60426E-05-9.22354E-08-4.06626E-05 1.00365E-05 8.95737E-20 4.15038E-18
 -1        22 1.08884E-04-8.97639E-07-4.52016E-05 2.17647E-05-3.34578E-20 5.40628E-18
 -1        23 1.22356E-04-4.12764E-05-3.82782E-05-4.39425E-06-3.42095E-19-3.89455E-18
 -1        24 1.01545E-04-3.03035E-05-3.16079E-05 4.62209E-07-9.13075E-20-5.12129E-18
 -1        25 9.69024E-05-2.91776E-05-2.91855E-05 3.49165E-07 1.98275E-20-5.79447E-18
 -1        26 9.36300E-05-2.81636E-05-2.79904E-05 8.57557E-08-1.56523E-21-6.21989E-18
 -1        27 9.02565E-05-2.71259E-05-2.69826E-05-5.85842E-08-7.02355E-20-6.39016E-18
 -1        28 8.64802E-05-2.59772E-05-2.59016E-05-1.51059E-07-3.93499E-20-6.58061E-18
 -1        29 8.26715E-05-2.48300E-05-2.48245E-05-1.80733E-07-1.64241E-20-7.43805E-18
 -1        30 7.95764E-05-2.39016E-05-2.39589E-05-1.38381E-07 1.93593E-20-7.90585E-18
 -1        31 7.80033E-05-2.34297E-05-2.35272E-05-3.44400E-08 3.99578E-20-7.99325E-18
 -1        32 7.84738E-05-2.35684E-05-2.36699E-05 9.58652E-08-1.76142E-19-7.81073E-18
 -1        33 8.09751E-05-2.43131E-05-2.43836E-05 2.06127E-07 3.16543E-19-8.16049E-18
 -1        34 8.49518E-05-2.54977E-05-2.55189E-05 2.62127E-07-1.11615E-19-7.83033E-18
 -1        35 8.95356E-05-2.68630E-05-2.68384E-05 2.56390E-07 1.12629E-19-8.45911E-18
 -1        36 9.38663E-05-2.81531E-05-2.81008E-05 2.05333E-07-8.60599E-21-8.47912E-18
 -1        37 9.73385E-05-2.91881E-05-2.91293E-05 1.35245E-07-2.96049E-19-7.77263E-18
 -1        38 9.96877E-05-2.98898E-05-2.98395E-05 6.86215E-08 3.26410E-20-7.82712E-18
 -1        39 1.00939E-04-3.02654E-05-3.02305E-05 1.77735E-08 6.26023E-20-7.56975E-18
 -1        40 1.01294E-04-3.03745E-05-3.03549E-05-1.43344E-08-1.99215E-19-7.63898E-18
 -1        41 1.01019E-04-3.02955E-05-3.02878E-05-3.03552E-08 2.23003E-19-8.20808E-18
 -1        42 1.00366E-04-3.01034E-05-3.01034E-05-3.50042E-08-2.44755E-19-7.82354E-18
 -1        43 9.95389E-05-2.98588E-05-2.98628E-05-3.28593E-08-1.80584E-19-7.90849E-18
 -1        44 9.86820E-05-2.96043E-05-2.96097E-05-2.74329E-08 3.70195E-19-6.30536E-18
 -1        45 9.78837E-05-2.93666E-05-2.93718E-05-2.10297E-08-9.08365E-20-5.50708E-18
 -1        46 9.71903E-05-2.91595E-05-2.91640E-05-1.49575E-08 2.74910E-19-6.62872E-18
 -1        47 9.66187E-05-2.89885E-05-2.89918E-05-9.82840E-09 5.08390E-20-4.11814E-18
 -1        48 9.61674E-05-2.88532E-05-2.88555E-05-5.82445E-09 6.21701E-20-3.04616E-18
 -1        49 9.58244E-05-2.87501E-05-2.87515E-05-2.89333E-09 2.05184E-19-3.27096E-18
 -1        50 9.55732E-05-2.86744E-05-2.86751E-05-8.75608E-10-1.04889E-19-4.01054E-18
 -1        51 9.53963E-05-2.86209E-05-2.86212E-05 4.19993E-10-1.07164E-19-5.12379E-18
 -1        52 9.52773E-05-2.85848E-05-2.85848E-05 1.17648E-09 1.73758E-20-3.57701E-18
 -1        53 9.52019E-05-2.85619E-05-2.85616E-05 1.55059E-09-1.00292E-19-3.28949E-18
 -1        54 9.51582E-05-2.85484E-05-2.85481E-05 1.66753E-09 1.54345E-19-5.40686E-18
 -1        55 9.51367E-05-2.85417E-05-2.85414E-05 1.62229E-09-3.19971E-19-6.89826E-18
 -1        56 9.51302E-05-2.85396E-05-2.85392E-05 1.48374E-09 5.31052E-19-6.58560E-18
 -1        57 9.51332E-05-2.85403E-05-2.85400E-05 1.29969E-09-1.19548E-21-6.64898E-18
 -1        58 9.51418E-05-2.85428E-05-2.85425E-05 1.10172E-09 6.83326E-19-6.01023E-18
 -1        59 9.51532E-05-2.85461E-05-2.85459E-05 9.09516E-10-5.35696E-19-5.51437E-18
 -1        60 9.51657E-05-2.85498E-05-2.85496E-05 7.34333E-10 3.49142E-19-5.19616E-18
 -1        61 9.51780E-05-2.85534E-05-2.85533E-05 5.81689E-10-9.75620E-20-5.34884E-18
 -1        62 9.51894E-05-2.85568E-05-2.85567E-05 4.53354E-10-1.02357E-19-7.75560E-18
 -1        63 9.51996E-05-2.85599E-05-2.85598E-05 3.48774E-10 3.72607E-19-7.97485E-18
 -1        64 9.52085E-05-2.85625E-05-2.85625E-05 2.66036E-10-2.52213E-19-9.61838E-18
 -1        65 9.52161E-05-2.85648E-05-2.85648E-05 2.02451E-10 1.45491E-19-6.89215E-18
 -1        66 9.52224E-05-2.85667E-05-2.85667E-05 1.54760E-10-1.65301E-20-4.23804E-18
 -1        67 9.52276E-05-2.85682E-05-2.85682E-05 1.18907E-10 1.13705E-18-3.35867E-18
 -1        68 9.52317E-05-2.85695E-05-2.85694E-05 8.90035E-11-5.54469E-19-1.18120E-19
 -1        69 9.52347E-05-2.85704E-05-2.85704E-05 5.46683E-11 3.15262E-19-7.66738E-19
 -1        70 9.52367E-05-2.85710E-05-2.85709E-05-1.05652E-11 9.41109E-20 2.95298E-18
 -1        71 9.52374E-05-2.85712E-05-2.85712E-05-1.00144E-10-1.55962E-19 3.33772E-18
 -1        72 1.29398E-04-3.88358E-05-4.26232E-05-3.11513E-06-5.70688E-20 6.81745E-18
 -1        73 1.29321E-04-3.85500E-05-3.99045E-05-6.74294E-07-7.88866E-20 7.45382E-18
 -1        74 1.34589E-04-4.03059E-05-4.05832E-05-5.43891E-07 1.15583E-19 7.96973E-18
 -1        75 1.41709E-04-4.24878E-05-4.23044E-05-7.03500E-07-9.04754E-20 8.52944E-18
 -1        76 1.46761E-04-4.40968E-05-4.33347E-05-6.80864E-07 9.86396E-20 9.19750E-18
 -1        77 1.44212E-04-4.35368E-05-4.21226E-05-2.79579E-08-6.39444E-20 1.01678E-17
 -1        78 1.29185E-04-3.91422E-05-3.78914E-05 1.48059E-06-1.89500E-19 1.23184E-17
 -1        79 1.04093E-04-3.12580E-05-3.19448E-05 2.92323E-06 3.51585E-20 1.30197E-17
 -1        80 8.35236E-05-2.43794E-05-2.75209E-05 2.22287E-06-4.44110E-19 1.33795E-17
 -1        81 8.44172E-05-2.44165E-05-2.77698E-05-5.87960E-07 2.60741E-19 1.27323E-17
 -1        82 1.06263E-04-3.14637E-05-3.26272E-05-2.61555E-06 2.59678E-19 9.24431E-18
 -1        83 1.31708E-04-3.96402E-05-3.87430E-05-2.38173E-06-8.86407E-20 6.07450E-18
 -1        84 1.46351E-04-4.41892E-05-4.28046E-05-1.08795E-06 1.60940E-19 6.06783E-18
 -1        85 1.48118E-04-4.46292E-05-4.37264E-05-7.64259E-08-1.80954E-20 5.54701E-18
 -1        86 1.41867E-04-4.26328E-05-4.23142E-05 3.63869E-07 6.12227E-19 4.54952E-18
 -1        87 1.32733E-04-3.98242E-05-3.98457E-05 4.39976E-07-3.09338E-19 3.62133E-18
 -1        88 1.23777E-04-3.71155E-05-3.72580E-05 3.71445E-07-2.57768E-19 6.27651E-18
 -1        89 1.16243E-04-3.48555E-05-3.50062E-05 2.74082E-07 5.60820E-19 4.39523E-18
 -1        90 1.10368E-04-3.30992E-05-3.32200E-05 1.89812E-07-3.51969E-19 3.40327E-18
 -1        91 1.05971E-04-3.17856E-05-3.18723E-05 1.27332E-07-7.40306E-20 5.11722E-18
 -1        92 1.02753E-04-3.08242E-05-3.08835E-05 8.40209E-08-2.03634E-19 6.03709E-18
 -1        93 1.00432E-04-3.01297E-05-3.01695E-05 5.49092E-08 6.39531E-20 6.64429E-18
 -1        94 9.87711E-05-2.96324E-05-2.96590E-05 3.55939E-08 1.07803E-19 4.70124E-18
 -1        95 9.75924E-05-2.92791E-05-2.92969E-05 2.28295E-08-2.08497E-19 3.28209E-18
 -1        96 9.67626E-05-2.90302E-05-2.90420E-05 1.43954E-08 6.06113E-19 5.16418E-18
 -1        97 9.61844E-05-2.88566E-05-2.88645E-05 8.82086E-09-3.52311E-19 3.39215E-18
 -1        98 9.57871E-05-2.87372E-05-2.87424E-05 5.14389E-09-4.74913E-19 4.66923E-18
 -1        99 9.55193E-05-2.86566E-05-2.86601E-05 2.73523E-09-4.02473E-19 5.28913E-18
 -1       100 9.53437E-05-2.86038E-05-2.86060E-05 1.18026E-09 4.13632E-19 4.49577E-18
 -1       101 9.52331E-05-2.85705E-05-2.85719E-05 2.02530E-10-4.88899E-19 3.51870E-18
 -1       102 9.51678E-05-2.85508E-05-2.85516E-05-3.84660E-10 1.31155E-19 4.24618E-18
 -1       103 9.51333E-05-2.85403E-05-2.85408E-05-7.09016E-10-5.11537E-20 4.15324E-18
 -1       104 9.51194E-05-2.85361E-05-2.85362E-05-8.58904E-10-3.26294E-19 4.83979E-18
 -1       105 9.51186E-05-2.85358E-05-2.85358E-05-8.95969E-10 2.95781E-19 5.01387E-18
 -1       106 9.51257E-05-2.85378E-05-2.85378E-05-8.63236E-10-2.40082E-19 4.83246E-18
 -1       107 9.51371E-05-2.85412E-05-2.85411E-05-7.90492E-10 6.00459E-20 2.26343E-18
 -1       108 9.51504E-05-2.85452E-05-2.85450E-05-6.98035E-10 4.88671E-19-1.50871E-18
 -1       109 9.51641E-05-2.85493E-05-2.85491E-05-5.99388E-10-2.91302E-19 3.38887E-18
 -1       110 9.51772E-05-2.85532E-05-2.85530E-05-5.03245E-10 1.27706E-19 3.90626E-18
 -1       111 9.51890E-05-2.85567E-05-2.85566E-05-4.14907E-10 1.86467E-19-4.51016E-19
 -1       112 9.51995E-05-2.85599E-05-2.85597E-05-3.37326E-10-4.73168E-19 5.05432E-19
 -1       113 9.52085E-05-2.85626E-05-2.85625E-05-2.71869E-10-2.12932E-19 3.44748E-18
 -1       114 9.52162E-05-2.85649E-05-2.85648E-05-2.18863E-10-1.07745E-18 5.39690E-18
 -1       115 9.52225E-05-2.85668E-05-2.85667E-05-1.77875E-10 1.22459E-19 8.81670E-18
 -1       116 9.52277E-05-2.85683E-05-2.85682E-05-1.47514E-10 1.27090E-18 5.34322E-18
 -1       117 9.52318E-05-2.85695E-05-2.85695E-05-1.24687E-10 5.62634E-19-1.84581E-18
 -1       118 9.52348E-05-2.85704E-05-2.85704E-05-1.02361E-10-6.92937E-20-7.33521E-19
 -1       119 9.52367E-05-2.85710E-05-2.85709E-05-5.39612E-11 1.34551E-18-8.71812E-18
 -1       120 9.52374E-05-2.85712E-05-2.85712E-05 6.79067E-11 1.00176E-18-9.45234E-18
 -1       121 9.52371E-05-2.85710E-05-2.85712E-05 1.08596E-10-8.34317E-18-1.17493E-18
 -1       122 9.52373E-05-2.85717E-05-2.85709E-05-2.01823E-11-1.95414E-18 6.77858E-19
 -1       123 9.52379E-05-2.85735E-05-2.85704E-05-9.48295E-11 3.55885E-18 1.89409E-19
 -1       124 9.52386E-05-2.85760E-05-2.85697E-05-1.23356E-10 1.23534E-18-3.38698E-19
 -1       125 9.52394E-05-2.85788E-05-2.85689E-05-1.20417E-10-3.56479E-18-3.46727E-19
 -1       126 9.52401E-05-2.85812E-05-2.85682E-05-9.93842E-11-8.50570E-18 1.63336E-18
 -1       127 9.52407E-05-2.85830E-05-2.85676E-05-6.43831E-11-4.13053E-18 1.46900E-18
 -1       128 9.52410E-05-2.85840E-05-2.85673E-05-2.19721E-11-2.98815E-18-6.98003E-19
 -1       129 9.52410E-05-2.85840E-05-2.85673E-05 2.27625E-11 4.76547E-18 1.59890E-18
 -1       130 9.52407E-05-2.85830E-05-2.85676E-05 6.48945E-11 4.87003E-18-2.02417E-18
 -1       131 9.52401E-05-2.85811E-05-2.85682E-05 1.00511E-10-5.46306E-18 1.68387E-20
 -1       132 9.52394E-05-2.85787E-05-2.85689E-05 1.20490E-10-9.46095E-18 1.46448E-18
 -1       133 9.52386E-05-2.85760E-05-2.85697E-05 1.22457E-10-6.79990E-18 3.50992E-19
 -1       134 9.52378E-05-2.85735E-05-2.85704E-05 1.03331E-10-3.00337E-18 1.12031E-18
 -1       135 9.52373E-05-2.85717E-05-2.85709E-05 2.87537E-11-5.24646E-18-4.05215E-19
 -1       136 9.52371E-05-2.85710E-05-2.85712E-05-1.88250E-10-3.64434E-18 8.17203E-19
 -1       137 2.74454E-05-9.60523E-05 1.76140E-05-2.71389E-05 9.28200E-18 1.91845E-18
 -1       138 8.75291E-06-4.30188E-05 5.23757E-06-2.37698E-05 9.73453E-18 4.58541E-18
 -1       139 1.18210E-05 8.70958E-06-1.41312E-05 1.78344E-05 8.83498E-18 6.61321E-18
 -1       140 5.95386E-05 2.34895E-05-3.55440E-05 7.48958E-05 5.34944E-18 6.55095E-18
 -1       141 1.57047E-04-6.72102E-06-5.79695E-05 1.15957E-04 2.23977E-18 3.09506E-18
 -1       142 2.67768E-04-6.28867E-05-7.54584E-05 1.03341E-04-6.45863E-19-4.11573E-18
 -1       143 3.36334E-04-1.02166E-04-8.45578E-05 3.42140E-05-8.97008E-19-7.75872E-18
 -1       144 3.24437E-04-9.51267E-05-8.30600E-05-5.49762E-05 1.11864E-18-7.49984E-18
 -1       145 2.38439E-04-4.69160E-05-7.12835E-05-1.11322E-04 2.65958E-18-6.97108E-18
 -1       146 1.23556E-04 5.33788E-06-5.10710E-05-1.05263E-04 3.34366E-18-5.39348E-18
 -1       147 3.72086E-05 2.20673E-05-2.77597E-05-5.33260E-05 2.08582E-18-2.26115E-18
 -1       148 5.10264E-06-8.29081E-06-6.24585E-06 3.59950E-06-1.05117E-18 3.27802E-19
 -1       149 1.45667E-05-6.35178E-05 1.02209E-05 3.07856E-05-4.25888E-18 1.41825E-18
 -1       150 3.20836E-05-1.02897E-04 1.84957E-05 1.96603E-05-6.00335E-18 9.72844E-19
 -1       151 3.39607E-05-1.04098E-04 1.86806E-05-6.65810E-06-5.57676E-18-2.05657E-19
 -1       152 1.84199E-05-6.48964E-05 1.04904E-05-2.23306E-05-4.89373E-18-1.37061E-18
 -1       153 4.80406E-06-1.01277E-05-3.91121E-06-3.77588E-06-3.92981E-18-2.07036E-18
 -1       154 2.36513E-05 2.84803E-05-2.40724E-05 4.77170E-05-1.11724E-18-7.26754E-19
 -1       155 8.50676E-05 2.40163E-05-4.37628E-05 9.77452E-05 1.22523E-18 1.09775E-18
 -1       156 1.88369E-04-2.19097E-05-6.35674E-05 1.16694E-04 1.52572E-18 3.59820E-18
 -1       157 2.77566E-04-7.43533E-05-7.60727E-05 7.72627E-05 1.05302E-18 6.55244E-18
 -1       158 2.84915E-04-7.84131E-05-7.71225E-05-7.24777E-05-1.80855E-18 8.24396E-18
 -1       159 2.05872E-04-3.11001E-05-6.61393E-05-1.14520E-04-2.84667E-18 6.90162E-18
 -1       160 1.12196E-04 1.46336E-05-4.95525E-05-1.08432E-04-3.33752E-18 4.63751E-18
 -1       161 4.07098E-05 3.16756E-05-3.07971E-05-6.72761E-05-2.31071E-18 2.61183E-18
 -1       162 6.45391E-06 9.91377E-06-1.14568E-05-1.44744E-05 2.42251E-19 3.64224E-20
 -1       163 1.02198E-05-3.97689E-05 4.58479E-06 1.84519E-05 2.62665E-18-1.11057E-18
 -1       164 2.74840E-05-9.01966E-05 1.60843E-05 2.14400E-05 3.85082E-18-7.00576E-19
 -1       165 1.02212E-04-1.40481E-05-3.80100E-05-2.26345E-05-2.06028E-19-3.55921E-18
 -1       166 9.58998E-05-1.04292E-05-3.68159E-05-1.68573E-05 4.05074E-19-2.98479E-18
 -1       167 9.25755E-05-9.02575E-06-3.59381E-05-1.18419E-05 7.55884E-19-2.35179E-18
 -1       168 9.00593E-05-8.46358E-06-3.50691E-05-6.96867E-06 1.02737E-18-1.69070E-18
 -1       169 8.71703E-05-7.87414E-06-3.40653E-05-2.28345E-06 1.13487E-18-1.10723E-18
 -1       170 8.31926E-05-6.74900E-06-3.28299E-05 2.14296E-06 1.21380E-18-5.87080E-19
 -1       171 7.80717E-05-4.84876E-06-3.14399E-05 5.75632E-06 1.34157E-18-9.44243E-20
 -1       172 7.23999E-05-2.29326E-06-3.00979E-05 7.98897E-06 1.39338E-18 2.20315E-19
 -1       173 6.75042E-05 3.38375E-07-2.91245E-05 8.45869E-06 1.35655E-18 5.59450E-19
 -1       174 6.51521E-05 2.12351E-06-2.88831E-05 7.30900E-06 1.36474E-18 8.51451E-19
 -1       175 6.67773E-05 2.21880E-06-2.96289E-05 5.41248E-06 1.31494E-18 1.26147E-18
 -1       176 7.29992E-05 2.54915E-07-3.14726E-05 3.97643E-06 1.24620E-18 1.75992E-18
 -1       177 8.33447E-05-3.65712E-06-3.42606E-05 4.30603E-06 1.07236E-18 2.38398E-18
 -1       178 9.68721E-05-9.39523E-06-3.76324E-05 7.26132E-06 6.94818E-19 3.26669E-18
 -1       179 1.13792E-04-1.84551E-05-4.10056E-05 1.28343E-05 2.34244E-19 4.33072E-18
 -1       180 1.30325E-04-3.42231E-05-4.23804E-05 1.19319E-05-2.71461E-19 5.19988E-18
 -1       181 1.11636E-04-2.98478E-05-3.50619E-05-1.25448E-05-3.33757E-19-3.25907E-18
 -1       182 1.04739E-04-3.08814E-05-3.16974E-05-5.78436E-06-1.89934E-19-3.01264E-18
 -1       183 9.99673E-05-2.99184E-05-2.99782E-05-3.91505E-06-1.95565E-19-2.88917E-18
 -1       184 9.65705E-05-2.90921E-05-2.88871E-05-3.71575E-06-3.50989E-20-3.01658E-18
 -1       185 9.34745E-05-2.81312E-05-2.79862E-05-3.90852E-06-6.32289E-20-2.84478E-18
 -1       186 9.05340E-05-2.70834E-05-2.71807E-05-3.82015E-06-4.34531E-19-2.85973E-18
 -1       187 8.79863E-05-2.60896E-05-2.65155E-05-3.06520E-06-3.08732E-19-3.09365E-18
 -1       188 8.62720E-05-2.53761E-05-2.60862E-05-1.56468E-06 6.99315E-20-3.00276E-18
 -1       189 8.57957E-05-2.51559E-05-2.59765E-05 4.18366E-07-1.18907E-19-2.83807E-18
 -1       190 8.67033E-05-2.55135E-05-2.62136E-05 2.37802E-06-7.86450E-20-2.75786E-18
 -1       191 8.87809E-05-2.63486E-05-2.67489E-05 3.79801E-06-8.06832E-21-3.35904E-18
 -1       192 9.15335E-05-2.74257E-05-2.74710E-05 4.38211E-06-1.70811E-19-3.40026E-18
 -1       193 9.43804E-05-2.84857E-05-2.82412E-05 4.14155E-06 3.20855E-20-3.22114E-18
 -1       194 9.68446E-05-2.93398E-05-2.89350E-05 3.32054E-06 7.58111E-21-3.17614E-18
 -1       195 9.86535E-05-2.99065E-05-2.94698E-05 2.24429E-06-1.18052E-19-3.05023E-18
 -1       196 9.97386E-05-3.01931E-05-2.98128E-05 1.18855E-06 2.11691E-19-2.90390E-18
 -1       197 1.00176E-04-3.02557E-05-2.99727E-05 3.21417E-07-1.57823E-19-2.92291E-18
 -1       198 1.00114E-04-3.01647E-05-2.99839E-05-2.93604E-07-4.68251E-19-3.30235E-18
 -1       199 9.97192E-05-2.99843E-05-2.98902E-05-6.65426E-07-2.27763E-19-3.91740E-18
 -1       200 9.91388E-05-2.97643E-05-2.97341E-05-8.39954E-07-1.05224E-19-4.13113E-18
 -1       201 9.84873E-05-2.95389E-05-2.95501E-05-8.73741E-07 7.72618E-19-3.50786E-18
 -1       202 9.78437E-05-2.93288E-05-2.93634E-05-8.18830E-07 3.50393E-19-3.83513E-18
 -1       203 9.72563E-05-2.91450E-05-2.91898E-05-7.16334E-07 3.91011E-19-2.33918E-18
 -1       204 9.67493E-05-2.89915E-05-2.90380E-05-5.95362E-07 1.49434E-18-1.27854E-18
 -1       205 9.63305E-05-2.88681E-05-2.89113E-05-4.74568E-07 4.15975E-19-1.04742E-18
 -1       206 9.59972E-05-2.87722E-05-2.88096E-05-3.64580E-07-3.24770E-19-1.49281E-18
 -1       207 9.57405E-05-2.86999E-05-2.87307E-05-2.70394E-07-7.88418E-19-2.11063E-18
 -1       208 9.55490E-05-2.86471E-05-2.86714E-05-1.93369E-07-2.99428E-19-2.09874E-18
 -1       209 9.54110E-05-2.86098E-05-2.86284E-05-1.32718E-07 3.74383E-19-1.89341E-18
 -1       210 9.53150E-05-2.85845E-05-2.85982E-05-8.65422E-08 1.49415E-19-2.44981E-18
 -1       211 9.52513E-05-2.85683E-05-2.85780E-05-5.25102E-08-7.40765E-19-1.51665E-18
 -1       212 9.52115E-05-2.85585E-05-2.85653E-05-2.82608E-08-1.05782E-18-1.34829E-18
 -1       213 9.51890E-05-2.85535E-05-2.85579E-05-1.16290E-08 7.44474E-20-1.58201E-18
 -1       214 9.51784E-05-2.85515E-05-2.85542E-05-7.48427E-10 1.76247E-19-2.30462E-18
 -1       215 9.51758E-05-2.85516E-05-2.85531E-05 5.91880E-09 3.53681E-19-3.11154E-18
 -1       216 9.51782E-05-2.85530E-05-2.85536E-05 9.59617E-09 1.49106E-21-2.79199E-18
 -1       217 9.51836E-05-2.85550E-05-2.85551E-05 1.12281E-08-5.83886E-19-3.32515E-18
 -1       218 9.51903E-05-2.85572E-05-2.85570E-05 1.15232E-08 1.81883E-19-2.92682E-18
 -1       219 9.51976E-05-2.85596E-05-2.85592E-05 1.09983E-08-1.45074E-18-2.77873E-18
 -1       220 9.52047E-05-2.85617E-05-2.85613E-05 1.00185E-08-8.92422E-19-3.70334E-18
 -1       221 9.52113E-05-2.85637E-05-2.85632E-05 8.83111E-09-8.58596E-19-5.26613E-18
 -1       222 9.52171E-05-2.85655E-05-2.85650E-05 7.59337E-09 1.90160E-18-4.61578E-18
 -1       223 9.52222E-05-2.85670E-05-2.85665E-05 6.39396E-09 1.64370E-18-2.63328E-18
 -1       224 9.52265E-05-2.85682E-05-2.85678E-05 5.26806E-09 1.62096E-18-7.88037E-19
 -1       225 9.52301E-05-2.85693E-05-2.85689E-05 4.20782E-09 1.41642E-18-3.83979E-19
 -1       226 9.52329E-05-2.85701E-05-2.85698E-05 3.16942E-09 1.38072E-19-1.13349E-18
 -1       227 9.52350E-05-2.85708E-05-2.85704E-05 2.08890E-09 1.18977E-18-7.01560E-19
 -1       228 9.52364E-05-2.85713E-05-2.85708E-05 9.39669E-10 7.54723E-19-3.93281E-19
 -1       229 1.28080E-04-3.71591E-05-3.91197E-05 2.18875E-07-1.26658E-19 4.77245E-18
 -1       230 1.28507E-04-3.79944E-05-3.87672E-05-4.40242E-06-1.85322E-19 4.66621E-18
 -1       231 1.31905E-04-3.97289E-05-3.94595E-05-5.50335E-06-2.54618E-19 4.82025E-18
 -1       232 1.35548E-04-4.18931E-05-4.00589E-05-3.01677E-06-2.67391E-19 4.85922E-18
 -1       233 1.36658E-04-4.35042E-05-3.98212E-05 3.93965E-06-8.34500E-19 5.48501E-18
 -1       234 1.32296E-04-4.22486E-05-3.85388E-05 1.35182E-05-8.01174E-19 5.82520E-18
 -1       235 1.22344E-04-3.66325E-05-3.69851E-05 1.90473E-05-3.48422E-19 6.20783E-18
 -1       236 1.12250E-04-2.94322E-05-3.60948E-05 1.10240E-05-7.89329E-20 6.09948E-18
 -1       237 1.11777E-04-2.85909E-05-3.62221E-05-6.93612E-06 8.29483E-19 5.04744E-18
 -1       238 1.21596E-04-3.51840E-05-3.72771E-05-1.86393E-05 1.74694E-18 4.95496E-18
 -1       239 1.32418E-04-4.17966E-05-3.87918E-05-1.62176E-05 1.40161E-18 3.57988E-18
 -1       240 1.37216E-04-4.38358E-05-3.99198E-05-6.45208E-06 4.86826E-19 2.14162E-18
 -1       241 1.35762E-04-4.24238E-05-3.99643E-05 2.11825E-06 6.44844E-19 1.35657E-18
 -1       242 1.30635E-04-3.98186E-05-3.89374E-05 6.58237E-06 3.82866E-19 1.02890E-18
 -1       243 1.24227E-04-3.72576E-05-3.73013E-05 7.72469E-06-3.77424E-19 2.69153E-18
 -1       244 1.17981E-04-3.51224E-05-3.55310E-05 7.10585E-06-9.49954E-19 1.98657E-18
 -1       245 1.12563E-04-3.34432E-05-3.39164E-05 5.85214E-06 1.25593E-18 1.77726E-18
 -1       246 1.08160E-04-3.21556E-05-3.25731E-05 4.54503E-06-1.77051E-19 1.92312E-18
 -1       247 1.04723E-04-3.11820E-05-3.15134E-05 3.41480E-06-8.59095E-19 2.04346E-18
 -1       248 1.02107E-04-3.04532E-05-3.07034E-05 2.51598E-06-7.31167E-19 2.64482E-18
 -1       249 1.00149E-04-2.99122E-05-3.00965E-05 1.83102E-06-3.99342E-19 3.19298E-18
 -1       250 9.87017E-05-2.95136E-05-2.96478E-05 1.32069E-06 1.96246E-18 3.04542E-18
 -1       251 9.76418E-05-2.92221E-05-2.93192E-05 9.45022E-07 1.39970E-19 8.29152E-19
 -1       252 9.68727E-05-2.90108E-05-2.90809E-05 6.70319E-07-5.98419E-19 6.43470E-19
 -1       253 9.63202E-05-2.88593E-05-2.89097E-05 4.70316E-07-3.47037E-19 3.03068E-18
 -1       254 9.59279E-05-2.87519E-05-2.87881E-05 3.25282E-07-3.74601E-19 3.04232E-18
 -1       255 9.56535E-05-2.86771E-05-2.87030E-05 2.20638E-07-1.98139E-20 2.83890E-18
 -1       256 9.54652E-05-2.86262E-05-2.86444E-05 1.45667E-07 9.36306E-20 2.57355E-18
 -1       257 9.53393E-05-2.85924E-05-2.86052E-05 9.24900E-08 1.56524E-20 1.98001E-18
 -1       258 9.52582E-05-2.85710E-05-2.85797E-05 5.52894E-08-5.83205E-19 2.78402E-19
 -1       259 9.52086E-05-2.85582E-05-2.85641E-05 2.97555E-08-1.09682E-18 2.69796E-18
 -1       260 9.51808E-05-2.85514E-05-2.85552E-05 1.26828E-08 8.82535E-19 3.69095E-18
 -1       261 9.51679E-05-2.85486E-05-2.85509E-05 1.68361E-09 3.98795E-19 2.10569E-18
 -1       262 9.51646E-05-2.85484E-05-2.85497E-05-5.01843E-09-2.27422E-19 1.02731E-18
 -1       263 9.51674E-05-2.85497E-05-2.85503E-05-8.73888E-09 1.69181E-18-1.20236E-18
 -1       264 9.51735E-05-2.85519E-05-2.85521E-05-1.04445E-08 1.04217E-18-1.86122E-18
 -1       265 9.51814E-05-2.85545E-05-2.85544E-05-1.08380E-08-1.92975E-18-1.69902E-18
 -1       266 9.51899E-05-2.85572E-05-2.85569E-05-1.04224E-08 4.57496E-20-1.51722E-18
 -1       267 9.51981E-05-2.85597E-05-2.85593E-05-9.55036E-09 9.52965E-19-1.42675E-19
 -1       268 9.52058E-05-2.85620E-05-2.85616E-05-8.46170E-09-1.33181E-18 1.29264E-18
 -1       269 9.52126E-05-2.85641E-05-2.85637E-05-7.31195E-09-6.56394E-19 1.43896E-18
 -1       270 9.52186E-05-2.85658E-05-2.85655E-05-6.19352E-09-2.06785E-18 1.79018E-18
 -1       271 9.52237E-05-2.85673E-05-2.85670E-05-5.15066E-09 9.60661E-19 1.43710E-18
 -1       272 9.52279E-05-2.85686E-05-2.85683E-05-4.18927E-09 2.59139E-18-1.08713E-18
 -1       273 9.52313E-05-2.85696E-05-2.85693E-05-3.28262E-09 2.46858E-18-2.00194E-19
 -1       274 9.52339E-05-2.85704E-05-2.85701E-05-2.37957E-09 3.74363E-19-4.67742E-19
 -1       275 9.52357E-05-2.85710E-05-2.85706E-05-1.41276E-09 4.18861E-18-1.98325E-18
 -1       276 9.52368E-05-2.85713E-05-2.85710E-05-4.14046E-10-1.63615E-18-2.69445E-18
 -1       277 9.52370E-05-2.85719E-05-2.85708E-05-9.88773E-10-1.37154E-18 5.38237E-18
 -1       278 9.52375E-05-2.85732E-05-2.85704E-05-1.97280E-09-1.08244E-19 2.53993E-18
 -1       279 9.52382E-05-2.85750E-05-2.85699E-05-2.60207E-09 2.46805E-19 3.77760E-19
 -1       280 9.52389E-05-2.85770E-05-2.85694E-05-2.75876E-09 2.08468E-18-1.99207E-18
 -1       281 9.52396E-05-2.85788E-05-2.85689E-05-2.48847E-09-9.50170E-19-3.19622E-18
 -1       282 9.52401E-05-2.85804E-05-2.85685E-05-1.86250E-09-2.64757E-18 5.09305E-19
 -1       283 9.52405E-05-2.85814E-05-2.85682E-05-9.88851E-10-1.92164E-18 2.53906E-18
 -1       284 9.52406E-05-2.85818E-05-2.85681E-05 1.04726E-11 1.45850E-18 3.47665E-18
 -1       285 9.52405E-05-2.85814E-05-2.85682E-05 1.00779E-09 3.92096E-19-5.53408E-19
 -1       286 9.52401E-05-2.85804E-05-2.85685E-05 1.87628E-09-9.86701E-19-5.22648E-18
 -1       287 9.52396E-05-2.85788E-05-2.85689E-05 2.48761E-09-1.97638E-18-1.85640E-18
 -1       288 9.52389E-05-2.85769E-05-2.85694E-05 2.75687E-09-1.71958E-18 2.13402E-18
 -1       289 9.52382E-05-2.85750E-05-2.85699E-05 2.59076E-09-1.54081E-18 2.40198E-18
 -1       290 9.52375E-05-2.85732E-05-2.85704E-05 1.95031E-09-1.32972E-18-3.41236E-19
 -1       291 9.52369E-05-2.85722E-05-2.85706E-05 1.62792E-09 4.77000E-19-4.12788E-19
 -1       292 1.10976E-05-4.62154E-05 1.20346E-05 3.32430E-06 2.95302E-18 2.27312E-18
 -1       293 2.72535E-05-4.40529E-05 4.77975E-06 2.11229E-05 3.03365E-18 2.39689E-18
 -1       294 5.84385E-05-4.31886E-05-8.49078E-06 3.31662E-05 4.31521E-18 2.98531E-18
 -1       295 9.64034E-05-3.83558E-05-2.57738E-05 4.11916E-05 4.38128E-18 2.11652E-18
 -1       296 1.48361E-04-4.28806E-05-4.44522E-05 3.79906E-05 3.22571E-18 3.26955E-19
 -1       297 1.92194E-04-4.10961E-05-6.18754E-05 3.35907E-05 3.01863E-18-9.66676E-19
 -1       298 2.21711E-04-4.12117E-05-7.31151E-05 1.76279E-05 1.27627E-18-9.36607E-19
 -1       299 2.13628E-04-3.27046E-05-7.42303E-05-8.78642E-07 2.40134E-19-7.74003E-19
 -1       300 2.12567E-04-4.04919E-05-7.02213E-05-1.90777E-05 2.83544E-19-2.15252E-18
 -1       301 1.78074E-04-4.30406E-05-5.62238E-05-2.70124E-05 1.59825E-19-1.10580E-18
 -1       302 1.37474E-04-4.82960E-05-3.81399E-05-3.57568E-05-7.12990E-19-1.50433E-18
 -1       303 7.81932E-05-3.76600E-05-1.90199E-05-3.81192E-05-1.13037E-18-1.52805E-18
 -1       304 4.12249E-05-4.11630E-05-2.74266E-06-2.61005E-05-1.75082E-18-8.62136E-19
 -1       305 1.77169E-05-4.51222E-05 8.27602E-06-9.83385E-06-1.91969E-18-2.02653E-19
 -1       306 8.72556E-06-4.10491E-05 1.10195E-05 3.08507E-06-1.62921E-18 3.20496E-19
 -1       307 1.50246E-05-4.29458E-05 8.77050E-06 1.58471E-05-1.82959E-18-7.18919E-20
 -1       308 3.20178E-05-3.50413E-05-1.08037E-06 2.91797E-05-1.40607E-18-1.07686E-19
 -1       309 6.65841E-05-3.06073E-05-1.64392E-05 4.36645E-05-8.85996E-19 1.05784E-18
 -1       310 1.03557E-04-2.49282E-05-3.35468E-05 5.09869E-05-5.05890E-19 1.20003E-18
 -1       311 1.50701E-04-2.97325E-05-5.04876E-05 4.50510E-05-9.86264E-20 2.23490E-18
 -1       312 1.91015E-04-3.29471E-05-6.49586E-05 3.62997E-05-1.27717E-19 3.35870E-18
 -1       313 2.05734E-04-3.22604E-05-7.14347E-05 1.04929E-05-1.44631E-19 3.50825E-18
 -1       314 2.13739E-04-3.63983E-05-7.25875E-05-1.24712E-05-7.64130E-19 3.70212E-18
 -1       315 1.92410E-04-3.22361E-05-6.59094E-05-3.10040E-05-5.65818E-19 3.43874E-18
 -1       316 1.60279E-04-3.11058E-05-5.37025E-05-4.18573E-05-6.21828E-19 2.79351E-18
 -1       317 1.21210E-04-2.93818E-05-3.86859E-05-4.96381E-05-1.40396E-19 2.27767E-18
 -1       318 8.20689E-05-2.61307E-05-2.43542E-05-4.76518E-05 1.00352E-18 1.69110E-18
 -1       319 4.69432E-05-3.55840E-05-6.77908E-06-3.52875E-05 1.67585E-18 5.14520E-19
 -1       320 2.53051E-05-4.25551E-05 4.78580E-06-2.48711E-05 1.80969E-18-1.24037E-19
 -1       321 1.31669E-05-4.94190E-05 1.21697E-05-1.09357E-05 2.76334E-18 4.20340E-19
 -1       322 9.92039E-05-1.83733E-05-3.47393E-05-1.30232E-05 6.16078E-19-2.13451E-18
 -1       323 1.03372E-04-2.21382E-05-3.48977E-05-1.53444E-05 1.27184E-19-2.62518E-18
 -1       324 9.40090E-05-1.58173E-05-3.35850E-05-4.69495E-06 1.22006E-18-1.09511E-18
 -1       325 9.03610E-05-1.44503E-05-3.25964E-05 3.13232E-07 1.34984E-18-6.33319E-19
 -1       326 8.50582E-05-1.20005E-05-3.13613E-05 5.16410E-06 1.53827E-18-1.11567E-19
 -1       327 7.81760E-05-8.22537E-06-3.00149E-05 8.99034E-06 1.70606E-18 1.59927E-19
 -1       328 7.08262E-05-3.62679E-06-2.88204E-05 1.07981E-05 1.71402E-18 4.35140E-19
 -1       329 6.51975E-05 4.34356E-07-2.81351E-05 9.99912E-06 1.73075E-18 7.05051E-19
 -1       330 6.38298E-05 2.18629E-06-2.82956E-05 7.13591E-06 1.65645E-18 9.35163E-19
 -1       331 6.82922E-05 5.02172E-07-2.94994E-05 3.67320E-06 1.54919E-18 1.31683E-18
 -1       332 7.85505E-05-4.71512E-06-3.16856E-05 1.47954E-06 1.36441E-18 1.79846E-18
 -1       333 9.30874E-05-1.27130E-05-3.45096E-05 1.53788E-06 9.28891E-19 2.36657E-18
 -1       334 1.09842E-04-2.29110E-05-3.73522E-05 2.95517E-06 4.07066E-19 3.25266E-18
 -1       335 1.20372E-04-3.07660E-05-3.84675E-05 1.88270E-06 7.06875E-20 3.83980E-18
 -1       336 1.21263E-04-3.41624E-05-3.73106E-05-5.14900E-06-7.73050E-20 3.32357E-18
 -1       337 9.36091E-05-5.00510E-05-1.86374E-05-4.63855E-05 1.93600E-18 1.48405E-18
 -1       338 1.04037E-04-2.95026E-05-3.19094E-05-8.90436E-06 1.28812E-19-2.19953E-18
 -1       339 1.01760E-04-3.03164E-05-3.06014E-05-7.17287E-06-5.89581E-20-1.72902E-18
 -1       340 9.94585E-05-3.00194E-05-2.97497E-05-6.91077E-06 3.60884E-20-1.43856E-18
 -1       341 9.70587E-05-2.90123E-05-2.91557E-05-6.82684E-06-1.54384E-19-1.44092E-18
 -1       342 9.46657E-05-2.75787E-05-2.87428E-05-6.04952E-06-2.83554E-19-1.04991E-18
 -1       343 9.26364E-05-2.61533E-05-2.84807E-05-4.11991E-06 2.19939E-20-9.68768E-19
 -1       344 9.14583E-05-2.52662E-05-2.83535E-05-1.14399E-06 3.06586E-20-1.24562E-18
 -1       345 9.14813E-05-2.53030E-05-2.83475E-05 2.22032E-06-2.31769E-19-1.37164E-18
 -1       346 9.26706E-05-2.62653E-05-2.84479E-05 5.06018E-06-3.28960E-19-1.77715E-18
 -1       347 9.45961E-05-2.77691E-05-2.86340E-05 6.67187E-06-1.13464E-19-1.61151E-18
 -1       348 9.66675E-05-2.92904E-05-2.88756E-05 6.85236E-06-6.32152E-20-1.28213E-18
 -1       349 9.83968E-05-3.04284E-05-2.91341E-05 5.87513E-06 3.65043E-19-9.74761E-19
 -1       350 9.95394E-05-3.10310E-05-2.93685E-05 4.25792E-06 9.76114E-20-8.23512E-19
 -1       351 1.00077E-04-3.11563E-05-2.95462E-05 2.50380E-06 1.29505E-19-1.20737E-18
 -1       352 1.00122E-04-3.09588E-05-2.96492E-05 9.58974E-07 1.26485E-19-1.47645E-18
 -1       353 9.98258E-05-3.05966E-05-2.96758E-05-2.10247E-07-5.67477E-19-1.29611E-18
 -1       354 9.93305E-05-3.01878E-05-2.96368E-05-9.75588E-07-7.80696E-19-1.40695E-18
 -1       355 9.87455E-05-2.98027E-05-2.95493E-05-1.38897E-06-2.05083E-19-1.80276E-18
 -1       356 9.81469E-05-2.94744E-05-2.94320E-05-1.53482E-06 8.35114E-19-1.15601E-18
 -1       357 9.75823E-05-2.92115E-05-2.93017E-05-1.49970E-06 6.48878E-19-1.44428E-18
 -1       358 9.70782E-05-2.90103E-05-2.91713E-05-1.35711E-06 9.31822E-19-1.44308E-18
 -1       359 9.66462E-05-2.88615E-05-2.90496E-05-1.16245E-06 7.37228E-19-9.69158E-19
 -1       360 9.62879E-05-2.87546E-05-2.89418E-05-9.53667E-07 1.27624E-18-2.03272E-18
 -1       361 9.59992E-05-2.86798E-05-2.88501E-05-7.54276E-07 3.76836E-19-1.99325E-18
 -1       362 9.57726E-05-2.86289E-05-2.87749E-05-5.77054E-07-6.36275E-19-1.83119E-18
 -1       363 9.55992E-05-2.85955E-05-2.87151E-05-4.27384E-07-3.19844E-19-8.97834E-19
 -1       364 9.54697E-05-2.85744E-05-2.86688E-05-3.05949E-07 3.44423E-19-1.01787E-18
 -1       365 9.53757E-05-2.85619E-05-2.86340E-05-2.10714E-07 4.35385E-19-1.38705E-18
 -1       366 9.53095E-05-2.85552E-05-2.86086E-05-1.38309E-07-6.74781E-20-8.07552E-19
 -1       367 9.52645E-05-2.85524E-05-2.85906E-05-8.49040E-08-5.08842E-19 3.38251E-20
 -1       368 9.52354E-05-2.85520E-05-2.85784E-05-4.67474E-08-4.42198E-19 2.20774E-19
 -1       369 9.52179E-05-2.85531E-05-2.85705E-05-2.04502E-08-4.36959E-19 1.63651E-19
 -1       370 9.52085E-05-2.85549E-05-2.85657E-05-3.11404E-09-7.22116E-19-2.28306E-19
 -1       371 9.52046E-05-2.85571E-05-2.85632E-05 7.64148E-09 3.73582E-19-1.74065E-18
 -1       372 9.52045E-05-2.85593E-05-2.85622E-05 1.37088E-08 4.82373E-19-8.53445E-19
 -1       373 9.52065E-05-2.85614E-05-2.85622E-05 1.65500E-08 6.92226E-19 2.06869E-18
 -1       374 9.52098E-05-2.85634E-05-2.85628E-05 1.72645E-08-1.29219E-18 8.22026E-19
 -1       375 9.52136E-05-2.85650E-05-2.85637E-05 1.66562E-08-1.68914E-18 9.06966E-19
 -1       376 9.52176E-05-2.85665E-05-2.85648E-05 1.52941E-08-2.03485E-18 3.79677E-19
 -1       377 9.52214E-05-2.85677E-05-2.85659E-05 1.35643E-08 5.81012E-19 7.94736E-19
 -1       378 9.52248E-05-2.85687E-05-2.85669E-05 1.17122E-08 3.23005E-18 9.35932E-19
 -1       379 9.52279E-05-2.85696E-05-2.85679E-05 9.87593E-09 2.94123E-18 1.25259E-18
 -1       380 9.52305E-05-2.85703E-05-2.85687E-05 8.11113E-09 1.51894E-18 1.70884E-19
 -1       381 9.52327E-05-2.85709E-05-2.85694E-05 6.41335E-09-9.01201E-19-2.47822E-19
 -1       382 9.52346E-05-2.85715E-05-2.85699E-05 4.74003E-09 1.09309E-19-4.67099E-19
 -1       383 9.52358E-05-2.85719E-05-2.85703E-05 3.16705E-09 2.29345E-19-2.11371E-19
 -1       384 1.23893E-04-3.72200E-05-3.71342E-05-8.04931E-06-1.25501E-19 3.11424E-18
 -1       385 1.28621E-04-4.16976E-05-3.72607E-05-6.13362E-06-1.98474E-19 3.17147E-18
 -1       386 1.34499E-04-4.69397E-05-3.75327E-05 1.94477E-06-8.79273E-19 3.04653E-18
 -1       387 1.38906E-04-4.90488E-05-3.86395E-05 1.58781E-05-1.18358E-18 3.10093E-18
 -1       388 1.35900E-04-4.15606E-05-4.10439E-05 2.55742E-05-4.51230E-19 3.58679E-18
 -1       389 1.28286E-04-2.78145E-05-4.36190E-05 1.64293E-05 2.10541E-19 3.09417E-18
 -1       390 1.26355E-04-2.38020E-05-4.44789E-05-7.05982E-06 1.03830E-18 2.84753E-18
 -1       391 1.32976E-04-3.53993E-05-4.22379E-05-2.36623E-05 1.68586E-18 2.27298E-18
 -1       392 1.38592E-04-4.73250E-05-3.92873E-05-2.03215E-05 2.14613E-18 1.79671E-18
 -1       393 1.36531E-04-4.89077E-05-3.76237E-05-6.79683E-06 1.43004E-18 8.60883E-19
 -1       394 1.30065E-04-4.42620E-05-3.68228E-05 4.77686E-06 1.11997E-18 3.24381E-19
 -1       395 1.23117E-04-3.89960E-05-3.60941E-05 1.07007E-05-4.58189E-19 1.05214E-18
 -1       396 1.17164E-04-3.52109E-05-3.51449E-05 1.21617E-05-5.95409E-19 1.78091E-18
 -1       397 1.12335E-04-3.28839E-05-3.40543E-05 1.12216E-05-2.42803E-19 1.31502E-18
 -1       398 1.08449E-04-3.14958E-05-3.29725E-05 9.36673E-06 5.87571E-19 6.02128E-19
 -1       399 1.05336E-04-3.06350E-05-3.20029E-05 7.39570E-06 1.01176E-19 1.02140E-18
 -1       400 1.02866E-04-3.00639E-05-3.11888E-05 5.65070E-06-1.05919E-18 8.93255E-19
 -1       401 1.00930E-04-2.96604E-05-3.05336E-05 4.23060E-06-3.39103E-19 8.46155E-19
 -1       402 9.94317E-05-2.93632E-05-3.00209E-05 3.12527E-06-5.19862E-19 6.33145E-19
 -1       403 9.82861E-05-2.91400E-05-2.96276E-05 2.28603E-06 2.04489E-18 3.41620E-20
 -1       404 9.74200E-05-2.89718E-05-2.93301E-05 1.65782E-06 8.97771E-19 4.41852E-19
 -1       405 9.67725E-05-2.88458E-05-2.91078E-05 1.19157E-06-1.03697E-18-2.78817E-19
 -1       406 9.62938E-05-2.87527E-05-2.89435E-05 8.47517E-07-1.14400E-18 5.29414E-19
 -1       407 9.59443E-05-2.86851E-05-2.88235E-05 5.94925E-07 1.33227E-19 1.19863E-18
 -1       408 9.56927E-05-2.86370E-05-2.87368E-05 4.10516E-07 4.57150E-20 9.00480E-19
 -1       409 9.55147E-05-2.86038E-05-2.86751E-05 2.76844E-07 2.21729E-20 1.40102E-18
 -1       410 9.53913E-05-2.85816E-05-2.86320E-05 1.80861E-07 2.89559E-19 9.62507E-19
 -1       411 9.53081E-05-2.85676E-05-2.86026E-05 1.12804E-07-3.36959E-19 1.08516E-18
 -1       412 9.52540E-05-2.85593E-05-2.85831E-05 6.53483E-08-2.40087E-18 1.58118E-18
 -1       413 9.52207E-05-2.85550E-05-2.85708E-05 3.29887E-08 3.97139E-19 1.64244E-18
 -1       414 9.52018E-05-2.85535E-05-2.85634E-05 1.15856E-08 1.42509E-18 1.23168E-18
 -1       415 9.51929E-05-2.85537E-05-2.85596E-05-1.96858E-09 8.62275E-19-1.10380E-18
 -1       416 9.51904E-05-2.85549E-05-2.85580E-05-9.99590E-09 2.27221E-18-2.61197E-18
 -1       417 9.51919E-05-2.85567E-05-2.85579E-05-1.42185E-08 1.00663E-18-3.05101E-18
 -1       418 9.51959E-05-2.85587E-05-2.85588E-05-1.59007E-08-1.88574E-18-2.87727E-18
 -1       419 9.52010E-05-2.85608E-05-2.85601E-05-1.59579E-08-7.30194E-19-3.28392E-18
 -1       420 9.52065E-05-2.85627E-05-2.85616E-05-1.50406E-08-1.33149E-18-1.82971E-18
 -1       421 9.52119E-05-2.85644E-05-2.85632E-05-1.35991E-08-2.03042E-18 1.05854E-18
 -1       422 9.52170E-05-2.85660E-05-2.85647E-05-1.19331E-08-2.90142E-19 3.80006E-19
 -1       423 9.52215E-05-2.85673E-05-2.85661E-05-1.02291E-08-1.38032E-18-5.66487E-19
 -1       424 9.52255E-05-2.85684E-05-2.85673E-05-8.58790E-09 4.12019E-19-1.78834E-18
 -1       425 9.52288E-05-2.85694E-05-2.85684E-05-7.04441E-09 3.22831E-18-1.40755E-18
 -1       426 9.52316E-05-2.85702E-05-2.85692E-05-5.58121E-09 1.73017E-18-1.87815E-18
 -1       427 9.52338E-05-2.85709E-05-2.85699E-05-4.14762E-09 1.27429E-18-4.21102E-19
 -1       428 9.52355E-05-2.85714E-05-2.85703E-05-2.69382E-09 3.58358E-18 1.40149E-18
 -1       429 9.52364E-05-2.85717E-05-2.85706E-05-1.84465E-09 1.11538E-18 3.58254E-18
 -1       430 9.52384E-05-2.85758E-05-2.85697E-05-4.74158E-09-1.27072E-18 1.84789E-18
 -1       431 9.52374E-05-2.85740E-05-2.85700E-05-4.21375E-09-1.48341E-18 3.16846E-18
 -1       432 9.52367E-05-2.85728E-05-2.85703E-05-3.13877E-09-7.94253E-19 3.44184E-18
 -1       433 9.52394E-05-2.85775E-05-2.85694E-05-4.56834E-09 8.88997E-19-4.85094E-18
 -1       434 9.52402E-05-2.85790E-05-2.85691E-05-3.75890E-09 1.13679E-18-1.59960E-18
 -1       435 9.52408E-05-2.85800E-05-2.85689E-05-2.45396E-09 9.32128E-19 2.61057E-18
 -1       436 9.52411E-05-2.85806E-05-2.85688E-05-8.39773E-10-7.38356E-19 4.82428E-18
 -1       437 9.52411E-05-2.85806E-05-2.85688E-05 8.77221E-10-1.09336E-18 1.12841E-18
 -1       438 9.52408E-05-2.85800E-05-2.85689E-05 2.48478E-09-1.77669E-18-4.37675E-18
 -1       439 9.52402E-05-2.85789E-05-2.85691E-05 3.75991E-09-4.80007E-19-2.84983E-18
 -1       440 9.52394E-05-2.85775E-05-2.85694E-05 4.56621E-09 1.82789E-18 5.23139E-19
 -1       441 9.52384E-05-2.85758E-05-2.85697E-05 4.73557E-09 4.60391E-19 1.82237E-18
 -1       442 9.52373E-05-2.85740E-05-2.85700E-05 4.21222E-09-1.10200E-20 2.82333E-19
 -1       443 6.02191E-05-4.37673E-05-7.27593E-06 3.97180E-05 8.98596E-19 2.20324E-18
 -1       444 1.22210E-05-2.00912E-05 3.39137E-06-7.18871E-06 9.08152E-19 1.95866E-18
 -1       445 2.30653E-05-2.68230E-05 1.44912E-06 2.22184E-05 9.90340E-19 1.60830E-18
 -1       446 1.08841E-04-5.95296E-05-2.12012E-05 3.68718E-05 2.23776E-18 3.22243E-19
 -1       447 1.18723E-04-5.32167E-05-2.81949E-05-3.79004E-05 1.82970E-18 1.38257E-18
 -1       448 2.20988E-05-2.56502E-05 1.44414E-06-2.86063E-05 1.00813E-18 4.32093E-19
 -1       449 1.41373E-04-6.39175E-05-3.34293E-05 2.18102E-05 2.60558E-18-3.64648E-19
 -1       450 9.66119E-05-1.67998E-05-3.42919E-05-9.28824E-06 9.37055E-19-1.55061E-18
 -1       451 1.68726E-04-3.32444E-05-5.80250E-05-1.19505E-05 2.57371E-18 1.77019E-18
 -1       452 1.65404E-04-1.96975E-05-6.24800E-05-6.78065E-06 1.23434E-18 1.88105E-18
 -1       453 1.70074E-04-2.30166E-05-6.28089E-05 8.06859E-06 5.39878E-19 1.59930E-18
 -1       454 1.71988E-04-3.87518E-05-5.68494E-05 9.82532E-06-5.04726E-19 9.66570E-19
 -1       455 1.59781E-04-5.58836E-05-4.46701E-05-4.04297E-06-1.09243E-18 2.60251E-19
 -1       456 1.24726E-04-6.01989E-05-2.79873E-05-2.99155E-05-1.56182E-18-1.00564E-18
 -1       457 8.65512E-05-5.11156E-05-1.54407E-05-3.97126E-05-1.26155E-18-1.43891E-18
 -1       458 4.15310E-05-3.28629E-05-3.98038E-06-3.32328E-05-3.63801E-19-1.01072E-18
 -1       459 1.71372E-05-2.08546E-05 1.44183E-06-1.49470E-05 2.64698E-21-2.25311E-19
 -1       460 1.23697E-05-1.77381E-05 2.19435E-06 1.77022E-05 8.16593E-20 4.42786E-19
 -1       461 3.30089E-05-2.54682E-05-3.27842E-06 3.92247E-05 4.57927E-19 6.90226E-19
 -1       462 6.65918E-05-3.85172E-05-1.21781E-05 4.78158E-05 3.56177E-19 1.40041E-18
 -1       463 1.11547E-04-4.87937E-05-2.68513E-05 4.08386E-05-2.05617E-19 1.85712E-18
 -1       464 1.38211E-04-4.70142E-05-3.91210E-05 2.65725E-05-4.64439E-19 2.06941E-18
 -1       465 1.56444E-04-3.27366E-05-5.29208E-05 6.39950E-06-6.17540E-19 1.59443E-18
 -1       466 1.59942E-04-1.92058E-05-6.02862E-05-3.82250E-08-7.80329E-19 1.74097E-18
 -1       467 1.56435E-04-9.71380E-06-6.29661E-05-6.59983E-07-2.35687E-19 1.73652E-18
 -1       468 1.59065E-04-1.56145E-05-6.14981E-05 4.46688E-07-3.48025E-19 1.32910E-18
 -1       469 1.55796E-04-3.07324E-05-5.36765E-05-3.02670E-06 3.64754E-19 1.42513E-18
 -1       470 1.46489E-04-4.75788E-05-4.24217E-05-1.86093E-05 9.69906E-19 1.22026E-18
 -1       471 5.46185E-05-3.87308E-05-6.84243E-06-4.61352E-05 1.09204E-18 7.84247E-19
 -1       472 1.67900E-04-5.17234E-05-4.97504E-05-3.26201E-06 3.82991E-18-1.27902E-19
 -1       473 1.76223E-05-8.46008E-06-3.39081E-06 6.53701E-07 9.08956E-19 7.28448E-20
 -1       474 1.51389E-04-6.69379E-05-3.62958E-05-6.20771E-06-1.31899E-18-5.93452E-20
 -1       475 1.09230E-04-2.92501E-05-3.42574E-05-9.06127E-06 1.21908E-19 1.89270E-18
 -1       476 9.33775E-05-2.03568E-05-3.13181E-05 4.04697E-06 1.39625E-18-1.66329E-19
 -1       477 9.77206E-05-2.22520E-05-3.23722E-05-1.82239E-06 1.21744E-18-6.94789E-19
 -1       478 7.72860E-05-1.09795E-05-2.84227E-05 1.39261E-05 1.60951E-18 3.26235E-19
 -1       479 6.78135E-05-4.47704E-06-2.71395E-05 1.44857E-05 1.74296E-18 5.52442E-19
 -1       480 6.17381E-05 2.77941E-07-2.65651E-05 1.08992E-05 1.72943E-18 7.84462E-19
 -1       481 6.25114E-05 7.28115E-07-2.70878E-05 4.63953E-06 1.67524E-18 9.64210E-19
 -1       482 7.14271E-05-4.15428E-06-2.88317E-05-1.21788E-06 1.42028E-18 1.29659E-18
 -1       483 8.62228E-05-1.28127E-05-3.14686E-05-4.31875E-06 1.02597E-18 1.64387E-18
 -1       484 1.04112E-04-2.95080E-05-3.19701E-05-9.65055E-06 3.61053E-19-1.79979E-18
 -1       485 1.13704E-04-3.58716E-05-3.33298E-05-1.24774E-05 3.47035E-20 1.33460E-18
 -1       486 1.03014E-04-2.56373E-05-3.31920E-05-1.12217E-05 4.56830E-19-1.96105E-18
 -1       487 1.03746E-04-3.10826E-05-3.11376E-05-8.98976E-06 2.53008E-19-1.29444E-18
 -1       488 1.02494E-04-3.08410E-05-3.07056E-05-9.05349E-06 7.12320E-20-8.41051E-19
 -1       489 1.00543E-04-2.92374E-05-3.05563E-05-8.76336E-06-1.76210E-19-5.28335E-19
 -1       490 9.82454E-05-2.68932E-05-3.05762E-05-7.17267E-06-1.26829E-19-7.87355E-19
 -1       491 9.63004E-05-2.48012E-05-3.06382E-05-3.92052E-06-4.63972E-19-8.84069E-19
 -1       492 9.54679E-05-2.39786E-05-3.06309E-05 4.78155E-07-2.99555E-19-1.72842E-18
 -1       493 9.60972E-05-2.49099E-05-3.05019E-05 4.77105E-06-2.98563E-19-1.55838E-18
 -1       494 9.77993E-05-2.71582E-05-3.02708E-05 7.67644E-06 5.89234E-20-8.65550E-19
 -1       495 9.97556E-05-2.97461E-05-3.00024E-05 8.58583E-06 2.16884E-19-7.77946E-19
 -1       496 1.01229E-04-3.17770E-05-2.97667E-05 7.70800E-06 3.55584E-19-7.40829E-19
 -1       497 1.01877E-04-3.28176E-05-2.96001E-05 5.75201E-06 4.79111E-20-1.01727E-18
 -1       498 1.01764E-04-3.29326E-05-2.95031E-05 3.47411E-06-1.45123E-19-7.15106E-19
 -1       499 1.01142E-04-3.24302E-05-2.94519E-05 1.40402E-06-2.52960E-20-2.57377E-19
 -1       500 1.00279E-04-3.16429E-05-2.94187E-05-1.96706E-07-1.63418E-19-2.34239E-19
 -1       501 9.93702E-05-3.08165E-05-2.93825E-05-1.26983E-06-6.95484E-19 2.36464E-19
 -1       502 9.85293E-05-3.00893E-05-2.93328E-05-1.87333E-06-5.91121E-19 5.26466E-19
 -1       503 9.78052E-05-2.95160E-05-2.92675E-05-2.11291E-06 4.62561E-21 3.80543E-19
 -1       504 9.72084E-05-2.90993E-05-2.91898E-05-2.10017E-06 3.27470E-19-7.64152E-19
 -1       505 9.67299E-05-2.88169E-05-2.91054E-05-1.93182E-06 4.13482E-19-6.47836E-19
 -1       506 9.63531E-05-2.86386E-05-2.90201E-05-1.68241E-06 8.26838E-19-1.04239E-18
 -1       507 9.60603E-05-2.85352E-05-2.89388E-05-1.40441E-06 7.39794E-20-1.30513E-18
 -1       508 9.58351E-05-2.84826E-05-2.88649E-05-1.13167E-06 8.08822E-19-2.18094E-18
 -1       509 9.56638E-05-2.84624E-05-2.88002E-05-8.83738E-07 3.47608E-19-1.22366E-18
 -1       510 9.55349E-05-2.84614E-05-2.87454E-05-6.69966E-07-2.25581E-19-6.50860E-19
 -1       511 9.54392E-05-2.84708E-05-2.87004E-05-4.92979E-07-2.21049E-19-5.54570E-19
 -1       512 9.53690E-05-2.84849E-05-2.86644E-05-3.51292E-07-6.61011E-20 1.75647E-19
 -1       513 9.53185E-05-2.85002E-05-2.86362E-05-2.41195E-07 5.29147E-19-2.79073E-19
 -1       514 9.52830E-05-2.85148E-05-2.86148E-05-1.58017E-07 2.43704E-19-1.76171E-19
 -1       515 9.52587E-05-2.85277E-05-2.85989E-05-9.69278E-08-2.29471E-19 3.51243E-19
 -1       516 9.52427E-05-2.85385E-05-2.85874E-05-5.33970E-08-2.84910E-19 1.42175E-18
 -1       517 9.52327E-05-2.85473E-05-2.85794E-05-2.34378E-08-7.59034E-19 1.70043E-18
 -1       518 9.52269E-05-2.85542E-05-2.85740E-05-3.69322E-09-2.95487E-19 1.86074E-18
 -1       519 9.52241E-05-2.85595E-05-2.85705E-05 8.56790E-09 1.10139E-18 3.74852E-18
 -1       520 9.52232E-05-2.85635E-05-2.85685E-05 1.55040E-08 1.17676E-18 1.88556E-18
 -1       521 9.52237E-05-2.85663E-05-2.85674E-05 1.87764E-08-1.37137E-18 6.22968E-19
 -1       522 9.52248E-05-2.85684E-05-2.85670E-05 1.96310E-08-1.43935E-18 1.65070E-18
 -1       523 9.52264E-05-2.85698E-05-2.85671E-05 1.89768E-08-1.80721E-18 1.50031E-18
 -1       524 9.52280E-05-2.85708E-05-2.85674E-05 1.74556E-08-1.42924E-18 2.35854E-18
 -1       525 9.52297E-05-2.85714E-05-2.85679E-05 1.55016E-08 6.92726E-19 1.14099E-18
 -1       526 9.52313E-05-2.85718E-05-2.85684E-05 1.33897E-08 1.72561E-18-7.07099E-19
 -1       527 9.52328E-05-2.85722E-05-2.85688E-05 1.12743E-08 1.27190E-18-8.52731E-19
 -1       528 9.52341E-05-2.85725E-05-2.85693E-05 9.21981E-09 7.75084E-19-1.01210E-19
 -1       529 9.52353E-05-2.85728E-05-2.85696E-05 7.22939E-09 3.74759E-19 9.31718E-19
 -1       530 1.38178E-04-5.72662E-05-3.46061E-05-2.29737E-06-1.03924E-18 1.38785E-18
 -1       531 1.50636E-04-5.05291E-05-4.33544E-05-2.12898E-05 2.81075E-18 5.79794E-19
 -1       532 1.42431E-04-5.90969E-05-3.58492E-05-4.94195E-06 1.69385E-18 3.29337E-19
 -1       533 1.28139E-04-5.14635E-05-3.28459E-05 8.89889E-06 1.30043E-18 1.12027E-18
 -1       534 1.16341E-04-4.11485E-05-3.22321E-05 1.54125E-05 3.24299E-19 9.44622E-19
 -1       535 1.08946E-04-3.39367E-05-3.21540E-05 1.68229E-05-4.43590E-19 6.65572E-19
 -1       536 1.04831E-04-3.01513E-05-3.20061E-05 1.55536E-05-5.93690E-19 9.57020E-19
 -1       537 1.02473E-04-2.85361E-05-3.16813E-05 1.32273E-05 3.19054E-19 1.04749E-18
 -1       538 1.00946E-04-2.80196E-05-3.12453E-05 1.07065E-05 4.32024E-19 5.95411E-19
 -1       539 9.98106E-05-2.79681E-05-3.07802E-05 8.39713E-06-3.79845E-20 2.89499E-19
 -1       540 9.88868E-05-2.80703E-05-3.03416E-05 6.44808E-06-6.54236E-19-7.08847E-20
 -1       541 9.81116E-05-2.81958E-05-2.99573E-05 4.87806E-06-9.65030E-20-5.09624E-19
 -1       542 9.74631E-05-2.83005E-05-2.96360E-05 3.64855E-06 5.11152E-19-8.91610E-19
 -1       543 9.69291E-05-2.83764E-05-2.93759E-05 2.70266E-06 1.42262E-18 5.04605E-19
 -1       544 9.64983E-05-2.84280E-05-2.91702E-05 1.98339E-06-3.36680E-20 9.14687E-19
 -1       545 9.61576E-05-2.84623E-05-2.90103E-05 1.44097E-06-9.31005E-19 1.96047E-19
 -1       546 9.58936E-05-2.84852E-05-2.88878E-05 1.03471E-06-8.62144E-19-6.94678E-19
 -1       547 9.56927E-05-2.85011E-05-2.87953E-05 7.32431E-07 1.18875E-19-7.47483E-19
 -1       548 9.55429E-05-2.85130E-05-2.87264E-05 5.09179E-07-6.25550E-19-4.79065E-19
 -1       549 9.54334E-05-2.85223E-05-2.86756E-05 3.45747E-07-6.96890E-19 7.81893E-19
 -1       550 9.53551E-05-2.85302E-05-2.86389E-05 2.27414E-07-1.71755E-19 2.16972E-18
 -1       551 9.53006E-05-2.85369E-05-2.86127E-05 1.42915E-07-1.25181E-18 2.10826E-18
 -1       552 9.52638E-05-2.85429E-05-2.85945E-05 8.36329E-08-6.59600E-19-2.92362E-19
 -1       553 9.52401E-05-2.85480E-05-2.85822E-05 4.29824E-08 1.66813E-18-3.47563E-19
 -1       554 9.52257E-05-2.85525E-05-2.85741E-05 1.59434E-08 1.80788E-18-1.35157E-18
 -1       555 9.52178E-05-2.85564E-05-2.85691E-05-1.29214E-09 1.66873E-18 1.96133E-20
 -1       556 9.52143E-05-2.85596E-05-2.85663E-05-1.15922E-08 1.46952E-18 6.79333E-19
 -1       557 9.52138E-05-2.85623E-05-2.85649E-05-1.70975E-08-3.66864E-19 2.75400E-20
 -1       558 9.52150E-05-2.85645E-05-2.85645E-05-1.93873E-08-1.70223E-18-1.36928E-18
 -1       559 9.52173E-05-2.85662E-05-2.85647E-05-1.96090E-08-8.97337E-19-3.01301E-19
 -1       560 9.52200E-05-2.85676E-05-2.85653E-05-1.85794E-08-2.60048E-18-6.76969E-19
 -1       561 9.52228E-05-2.85687E-05-2.85660E-05-1.68641E-08-1.43752E-18-1.55125E-18
 -1       562 9.52256E-05-2.85696E-05-2.85669E-05-1.48388E-08-7.91482E-19-4.50936E-19
 -1       563 9.52281E-05-2.85703E-05-2.85676E-05-1.27358E-08 7.33140E-19-1.12371E-18
 -1       564 9.52304E-05-2.85709E-05-2.85684E-05-1.06798E-08 1.62674E-18-1.83559E-18
 -1       565 9.52323E-05-2.85714E-05-2.85690E-05-8.71723E-09 1.93334E-18-5.62770E-19
 -1       566 9.52340E-05-2.85718E-05-2.85695E-05-6.84647E-09-1.05400E-18-4.99224E-19
 -1       567 9.52355E-05-2.85723E-05-2.85699E-05-5.01089E-09 3.94280E-19 5.83856E-19
 -1       568 9.52404E-05-2.85781E-05-2.85695E-05-5.68944E-09 1.38522E-18-1.86414E-18
 -1       569 9.52414E-05-2.85794E-05-2.85694E-05-4.21119E-09 2.25340E-18 3.88266E-19
 -1       570 9.52375E-05-2.85747E-05-2.85698E-05-6.36806E-09-8.67158E-19 1.12678E-18
 -1       571 9.52390E-05-2.85765E-05-2.85696E-05-6.44896E-09-1.43671E-18 4.48808E-19
 -1       572 9.52421E-05-2.85802E-05-2.85694E-05-2.22253E-09 1.60253E-18 2.27502E-18
 -1       573 9.52423E-05-2.85805E-05-2.85694E-05 2.86944E-11-2.12189E-18 2.93682E-18
 -1       574 9.52421E-05-2.85802E-05-2.85694E-05 2.27478E-09-6.70738E-19 2.89975E-19
 -1       575 9.52414E-05-2.85794E-05-2.85694E-05 4.21991E-09 1.64476E-18-5.02094E-18
 -1       576 9.52403E-05-2.85781E-05-2.85695E-05 5.68789E-09 1.69678E-18-5.46910E-19
 -1       577 9.52390E-05-2.85765E-05-2.85696E-05 6.44199E-09 8.51081E-19 2.13116E-19
 -1       578 9.52375E-05-2.85747E-05-2.85698E-05 6.32760E-09-4.37807E-19 7.58328E-19
 -1       579 2.82903E-05-1.21880E-05-6.16979E-06 9.81341E-06-1.15157E-19 1.56399E-18
 -1       580 9.54622E-05-5.17589E-05-1.84289E-05 3.76776E-05 4.87097E-19 1.00908E-18
 -1       581 1.23124E-04-4.60448E-05-3.30463E-05-1.08250E-05-5.26593E-19 1.25110E-18
 -1       582 1.33002E-04-6.54510E-05-2.88874E-05 2.05601E-05 1.53297E-18-9.83564E-19
 -1       583 1.36234E-04-5.81591E-05-3.35848E-05-1.85889E-05 1.66813E-18 1.42349E-18
 -1       584 8.63304E-05-4.66173E-05-1.66793E-05-4.60854E-05 1.11554E-18 8.27075E-19
 -1       585 1.38655E-04-1.95894E-05-5.15388E-05 9.42020E-06 3.70365E-19 4.06417E-19
 -1       586 9.91950E-05-4.79868E-05-2.17386E-05 4.28341E-05 5.46336E-19 1.51530E-18
 -1       587 2.80978E-05-1.34565E-05-5.60152E-06-1.97219E-05 5.94564E-19 8.45551E-19
 -1       588 1.15603E-04-5.74588E-05-2.47838E-05-3.68711E-05 1.58305E-18 2.03207E-18
 -1       589 8.64717E-05-1.66572E-05-2.99382E-05 9.84178E-06 1.57316E-18 1.40784E-19
 -1       590 1.43487E-04-2.73768E-05-5.04325E-05-1.93213E-05 1.71577E-18 2.03399E-18
 -1       591 1.50868E-04-6.33921E-05-3.77313E-05-2.43040E-06 2.22066E-18-4.82809E-20
 -1       592 1.44577E-04-3.04140E-05-4.96313E-05 2.06930E-05 2.68086E-19 2.24501E-18
 -1       593 2.97020E-05-1.18441E-05-7.03949E-06 3.03239E-05 1.14408E-18 8.21198E-19
 -1       594 1.17294E-04-6.00948E-05-2.43578E-05-3.00965E-05-1.10548E-18-9.66120E-19
 -1       595 7.63560E-05-4.11022E-05-1.47471E-05-3.81336E-05-2.71686E-19-1.12973E-18
 -1       596 3.93945E-05-1.80153E-05-8.59160E-06-2.60207E-05 6.67303E-19-5.15525E-19
 -1       597 1.42817E-04-4.29236E-05-4.31931E-05 3.48370E-06 1.05871E-18 8.04840E-19
 -1       598 6.20491E-05-2.94510E-05-1.35066E-05 4.58511E-05 1.08558E-18 1.32926E-18
 -1       599 1.30907E-04-5.46764E-05-3.26975E-05 2.36595E-05-8.17651E-20 1.99577E-18
 -1       600 1.44017E-04-4.48600E-05-4.27857E-05 2.81134E-06-3.73555E-19 1.50158E-18
 -1       601 1.41946E-04-2.40444E-05-5.09989E-05-9.13790E-06-9.09925E-19 1.22931E-18
 -1       602 1.35681E-04-8.59117E-06-5.51280E-05-6.50547E-06-5.26749E-19 1.25154E-18
 -1       603 1.35088E-04-9.20233E-06-5.45980E-05 5.34592E-06 1.44737E-19 8.09155E-19
 -1       604 5.50579E-05-3.12827E-05-9.68590E-06 3.58626E-05 2.96250E-19 1.82207E-18
 -1       605 1.41443E-04-1.79879E-05-5.35468E-05 2.06206E-06 8.69903E-19 2.37832E-18
 -1       606 4.83835E-05-2.72998E-05-8.51894E-06-4.07239E-05 5.18384E-19 5.31513E-19
 -1       607 1.09557E-04-2.64149E-05-3.56399E-05-3.75607E-06 3.47538E-19 2.54453E-18
 -1       608 1.00163E-04-2.31602E-05-3.30318E-05-6.71635E-06 9.99716E-19-1.12299E-18
 -1       609 1.01637E-04-2.40952E-05-3.32621E-05-9.69074E-06 7.45053E-19-1.42150E-18
 -1       610 9.52360E-05-2.85730E-05-2.85698E-05 5.87063E-09-1.07238E-18 2.54814E-18
 -1       611 1.22832E-04-6.13698E-06-5.05950E-05-1.61762E-07 2.09270E-19 6.94302E-20
 -1       612 1.58372E-04-5.05972E-05-4.61299E-05 1.86094E-05-7.03884E-19 8.96902E-19
 -1       613 6.21919E-05-4.62354E-06-2.46307E-05 1.77828E-05 1.68794E-18 6.63842E-19
 -1       614 7.46605E-05-1.32612E-05-2.62753E-05 2.01939E-05 1.57939E-18 5.33447E-19
 -1       615 6.17518E-05-2.72390E-06-2.52537E-05-1.95881E-06 1.51646E-18 7.93405E-19
 -1       616 7.71343E-05-1.18510E-05-2.79398E-05-9.12397E-06 1.13989E-18 1.08927E-18
 -1       617 3.17090E-05-2.63518E-06-1.18886E-05 1.24496E-05 1.50192E-18 5.37654E-19
 -1       618 1.05645E-04-3.08875E-05-3.20446E-05-9.25144E-06 6.14066E-19-1.21789E-18
 -1       619 9.44856E-05-2.39983E-05-3.01786E-05-1.35229E-05 5.95872E-19 1.04415E-18
 -1       620 3.91281E-05-5.97538E-06-1.36457E-05-1.04543E-05 1.25133E-18 7.39566E-20
 -1       621 1.06467E-04-3.23784E-05-3.17527E-05-9.72933E-06 5.05138E-19-1.04501E-18
 -1       622 1.05837E-04-3.14634E-05-3.18752E-05-1.04213E-05 1.65646E-19-9.06245E-19
 -1       623 1.03848E-04-2.85272E-05-3.22824E-05-1.00473E-05-1.92864E-19-6.87158E-19
 -1       624 1.01206E-04-2.47877E-05-3.27569E-05-7.46926E-06-4.12824E-19-9.28349E-19
 -1       625 9.92366E-05-2.21644E-05-3.30303E-05-2.62548E-06-6.09666E-19-9.60532E-19
 -1       626 9.90875E-05-2.22736E-05-3.29149E-05 3.17503E-06-2.77357E-19-7.07630E-19
 -1       627 1.00772E-04-2.51630E-05-3.24052E-05 7.76083E-06 9.33025E-20-4.91658E-19
 -1       628 1.03140E-04-2.93220E-05-3.16382E-05 9.71755E-06 6.53651E-20-6.88864E-19
 -1       629 1.04877E-04-3.29380E-05-3.08351E-05 9.04027E-06-1.63325E-19-9.48358E-19
 -1       630 1.05314E-04-3.49550E-05-3.01552E-05 6.68494E-06-2.93546E-21-9.59514E-19
 -1       631 1.04552E-04-3.53143E-05-2.96751E-05 3.84605E-06 6.01459E-19-1.70578E-19
 -1       632 1.03088E-04-3.45411E-05-2.93791E-05 1.29601E-06 4.41819E-19 3.90476E-19
 -1       633 1.01405E-04-3.32336E-05-2.92178E-05-6.22255E-07-1.41271E-19 2.42086E-19
 -1       634 9.98301E-05-3.18453E-05-2.91374E-05-1.86315E-06-5.54923E-19-6.53477E-21
 -1       635 9.85199E-05-3.06306E-05-2.90961E-05-2.52781E-06-3.35838E-19-8.79256E-20
 -1       636 9.75104E-05-2.96887E-05-2.90667E-05-2.76211E-06-9.00362E-20 1.94593E-19
 -1       637 9.67738E-05-2.90247E-05-2.90354E-05-2.70665E-06-2.50410E-19 1.66243E-19
 -1       638 9.62574E-05-2.85972E-05-2.89972E-05-2.47668E-06 2.65392E-19-4.40231E-20
 -1       639 9.59060E-05-2.83505E-05-2.89522E-05-2.15795E-06 3.32126E-19-8.76553E-19
 -1       640 9.56722E-05-2.82311E-05-2.89032E-05-1.80972E-06 2.28933E-19-3.07955E-19
 -1       641 9.55192E-05-2.81949E-05-2.88531E-05-1.46994E-06 6.16171E-20-5.07388E-19
 -1       642 9.54201E-05-2.82084E-05-2.88049E-05-1.16058E-06 5.06993E-19-9.69037E-19
 -1       643 9.53562E-05-2.82483E-05-2.87604E-05-8.92316E-07 5.62898E-19-8.17089E-19
 -1       644 9.53151E-05-2.82990E-05-2.87211E-05-6.68271E-07 3.44676E-19 7.06654E-19
 -1       645 9.52884E-05-2.83512E-05-2.86873E-05-4.86908E-07 1.57306E-19 6.99849E-19
 -1       646 9.52710E-05-2.83995E-05-2.86591E-05-3.44080E-07 4.62200E-19 1.84807E-18
 -1       647 9.52594E-05-2.84414E-05-2.86362E-05-2.34454E-07 1.73017E-19 1.35957E-18
 -1       648 9.52516E-05-2.84760E-05-2.86181E-05-1.52417E-07 2.06893E-19 6.13117E-19
 -1       649 9.52464E-05-2.85037E-05-2.86040E-05-9.26177E-08 2.85190E-19-3.97018E-20
 -1       650 9.52427E-05-2.85250E-05-2.85933E-05-5.02716E-08-5.77986E-19 3.54785E-19
 -1       651 9.52403E-05-2.85411E-05-2.85854E-05-2.12916E-08 2.10270E-19 2.28030E-18
 -1       652 9.52386E-05-2.85528E-05-2.85796E-05-2.30193E-09 1.15941E-18 2.17612E-18
 -1       653 9.52375E-05-2.85610E-05-2.85756E-05 9.40918E-09-4.70887E-19 6.07826E-19
 -1       654 9.52368E-05-2.85667E-05-2.85729E-05 1.59654E-08-1.59190E-18-5.90287E-19
 -1       655 9.52364E-05-2.85704E-05-2.85712E-05 1.89900E-08-3.71603E-19-4.71326E-19
 -1       656 9.52362E-05-2.85726E-05-2.85701E-05 1.96932E-08-1.79698E-18 5.03435E-19
 -1       657 9.52362E-05-2.85739E-05-2.85696E-05 1.89535E-08-2.04708E-18-7.11884E-19
 -1       658 9.52362E-05-2.85745E-05-2.85693E-05 1.73877E-08-1.15246E-18-1.03358E-18
 -1       659 9.52363E-05-2.85747E-05-2.85693E-05 1.54110E-08 7.37008E-19-1.35080E-18
 -1       660 9.52365E-05-2.85747E-05-2.85694E-05 1.32847E-08 8.58773E-19-1.60095E-18
 -1       661 9.52367E-05-2.85746E-05-2.85695E-05 1.11542E-08 1.74953E-18-2.61890E-18
 -1       662 9.52370E-05-2.85746E-05-2.85696E-05 9.07771E-09 1.73783E-18-1.70495E-18
 -1       663 7.37734E-05-3.47813E-05-1.63427E-05-4.08264E-05 1.26790E-20 7.86682E-19
 -1       664 1.31419E-04-5.92008E-05-3.08566E-05 1.19777E-05 1.46964E-18 4.87269E-19
 -1       665 9.39862E-05-2.64891E-05-2.89100E-05 1.86441E-05-5.96006E-19 5.78745E-20
 -1       666 9.35115E-05-2.44885E-05-2.95767E-05 1.53792E-05-3.14150E-19-1.31152E-19
 -1       667 9.39997E-05-2.42899E-05-2.98726E-05 1.24705E-05 1.10402E-19 8.39474E-19
 -1       668 9.46510E-05-2.48330E-05-2.99187E-05 9.95865E-06 5.38192E-19 3.57468E-19
 -1       669 9.51698E-05-2.55736E-05-2.98239E-05 7.84100E-06-9.67095E-19 9.31968E-20
 -1       670 9.54956E-05-2.62740E-05-2.96638E-05 6.09498E-06-2.02311E-19-2.45350E-19
 -1       671 9.56566E-05-2.68537E-05-2.94850E-05 4.68321E-06 6.05962E-19-1.04529E-18
 -1       672 9.57033E-05-2.73035E-05-2.93127E-05 3.56004E-06 2.37757E-19-8.64343E-19
 -1       673 9.56815E-05-2.76408E-05-2.91592E-05 2.67808E-06 1.48615E-19 6.20021E-19
 -1       674 9.56248E-05-2.78895E-05-2.90286E-05 1.99298E-06-4.98554E-19 4.50074E-19
 -1       675 9.55556E-05-2.80717E-05-2.89211E-05 1.46578E-06-3.41049E-19 2.27720E-19
 -1       676 9.54868E-05-2.82051E-05-2.88346E-05 1.06367E-06 3.63147E-19-6.21717E-19
 -1       677 9.54251E-05-2.83030E-05-2.87663E-05 7.59726E-07-5.28490E-19-2.45492E-19
 -1       678 9.53734E-05-2.83753E-05-2.87132E-05 5.32225E-07-9.47393E-19-3.64864E-19
 -1       679 9.53320E-05-2.84289E-05-2.86726E-05 3.63819E-07-7.13886E-19-8.10543E-19
 -1       680 9.53002E-05-2.84686E-05-2.86420E-05 2.40761E-07-5.70481E-19 3.57793E-19
 -1       681 9.52766E-05-2.84982E-05-2.86192E-05 1.52228E-07-6.33422E-19 4.08740E-19
 -1       682 9.52596E-05-2.85201E-05-2.86026E-05 8.97288E-08 1.31071E-18-7.34263E-20
 -1       683 9.52478E-05-2.85362E-05-2.85907E-05 4.66421E-08 1.49560E-18-6.37920E-19
 -1       684 9.52400E-05-2.85480E-05-2.85823E-05 1.78393E-08 3.27741E-19 1.78823E-19
 -1       685 9.52351E-05-2.85564E-05-2.85766E-05-6.15542E-10 1.74010E-18 2.45209E-19
 -1       686 9.52324E-05-2.85624E-05-2.85728E-05-1.17153E-08 5.90592E-19 9.67767E-19
 -1       687 9.52310E-05-2.85666E-05-2.85705E-05-1.77103E-08 2.80884E-19 9.04030E-19
 -1       688 9.52307E-05-2.85694E-05-2.85691E-05-2.02692E-08-1.86611E-18-5.89831E-19
 -1       689 9.52309E-05-2.85711E-05-2.85685E-05-2.06086E-08-1.97483E-18-5.52121E-19
 -1       690 9.52315E-05-2.85722E-05-2.85683E-05-1.95960E-08-2.36343E-18-1.35508E-18
 -1       691 9.52323E-05-2.85728E-05-2.85683E-05-1.78325E-08-1.42931E-18-8.06031E-19
 -1       692 9.52331E-05-2.85732E-05-2.85686E-05-1.57166E-08 1.24173E-18-2.07045E-18
 -1       693 9.52340E-05-2.85733E-05-2.85689E-05-1.34947E-08 3.36450E-19-1.91264E-18
 -1       694 9.52348E-05-2.85734E-05-2.85692E-05-1.13026E-08 1.10043E-18-4.65417E-19
 -1       695 9.52356E-05-2.85735E-05-2.85695E-05-9.19627E-09 9.16759E-20 2.38843E-18
 -1       696 9.52366E-05-2.85741E-05-2.85697E-05-7.80799E-09-9.50311E-19 2.30495E-18
 -1       697 9.52439E-05-2.85807E-05-2.85699E-05-1.35513E-09 2.88998E-20 7.50171E-19
 -1       698 1.03284E-04-4.79397E-05-2.34320E-05-2.93143E-05-5.01761E-19-5.73534E-19
 -1       699 9.52420E-05-2.85791E-05-2.85699E-05-6.18938E-09 5.16710E-19 4.17294E-19
 -1       700 9.52439E-05-2.85807E-05-2.85699E-05 1.43532E-09-1.25568E-18 1.80825E-18
 -1       701 9.52433E-05-2.85802E-05-2.85699E-05-3.99815E-09 6.84568E-19 1.49363E-18
 -1       702 9.52433E-05-2.85801E-05-2.85699E-05 4.02239E-09-2.51203E-19-5.14401E-19
 -1       703 9.52420E-05-2.85790E-05-2.85699E-05 6.20102E-09 1.80392E-18-2.25534E-18
 -1       704 9.52403E-05-2.85774E-05-2.85698E-05 7.64942E-09 2.42946E-18 6.24465E-19
 -1       705 5.23401E-05-1.85446E-05-1.40406E-05 2.43268E-05 6.47451E-20 1.95183E-18
 -1       706 1.00463E-04-3.41009E-05-2.83228E-05-1.98713E-05 4.12465E-20 5.16187E-19
 -1       707 1.35009E-04-5.09794E-05-3.61644E-05 5.67447E-06-2.49130E-19 9.47592E-19
 -1       708 1.21896E-04-1.42838E-05-4.65966E-05 1.02546E-05 4.40298E-19 1.74701E-21
 -1       709 1.17608E-04-5.17797E-05-2.81437E-05 2.70889E-05 1.81715E-19 1.78578E-18
 -1       710 8.86910E-05-3.74562E-05-2.16642E-05 3.93721E-05 1.00530E-18 1.19531E-18
 -1       711 9.71030E-05-3.20158E-05-2.78382E-05 2.20097E-05-1.37812E-19 9.45891E-19
 -1       712 1.06023E-04-4.34566E-05-2.66844E-05 2.45497E-05 7.46858E-19 6.77812E-19
 -1       713 3.85538E-05-9.05567E-06-1.21231E-05-5.48991E-06-3.13820E-19 9.72870E-19
 -1       714 5.62718E-05 2.15729E-07-2.41292E-05 8.82705E-06 1.71302E-18 9.08519E-19
 -1       715 1.01833E-04-2.83506E-05-3.14992E-05 1.46162E-06 1.05720E-18-2.10575E-19
 -1       716 5.18787E-05-1.56970E-05-1.50348E-05 3.62745E-05 1.48249E-18 1.13672E-18
 -1       717 9.52372E-05-2.85746E-05-2.85697E-05 7.70027E-09 1.01513E-18-2.32050E-19
 -1       718 4.79744E-05-1.81663E-05-1.22794E-05-2.98323E-05 3.60227E-19 6.85832E-19
 -1       719 6.82461E-05-2.69071E-05-1.72538E-05-3.02955E-05 3.80424E-19-5.23043E-19
 -1       720 1.30840E-04-3.19388E-05-4.27201E-05 1.22493E-05 5.78524E-19 1.63027E-19
 -1       721 1.35003E-04-3.51863E-05-4.31322E-05-1.03153E-05-6.21299E-19 9.34145E-19
 -1       722 1.26502E-04-1.57750E-05-4.79433E-05-1.18432E-05-5.45489E-19 5.32321E-19
 -1       723 8.14467E-05-3.75601E-05-1.84144E-05 3.43058E-05 1.12258E-19 1.50780E-18
 -1       724 1.04048E-04-2.81012E-05-3.25489E-05-9.27699E-06 5.76978E-19-1.24237E-18
 -1       725 1.35614E-04-5.24664E-05-3.58187E-05-2.10160E-06 1.31731E-18 8.63206E-19
 -1       726 8.75260E-05-2.13293E-05-2.83609E-05 1.61492E-05 1.34778E-18 2.54855E-19
 -1       727 1.04008E-04-2.87958E-05-3.22374E-05-4.43087E-06 8.85249E-19-7.35238E-19
 -1       728 1.07401E-04-5.23565E-05-2.34056E-05-3.47242E-05 1.29509E-18 1.90631E-18
 -1       729 9.52388E-05-2.85761E-05-2.85697E-05-8.00448E-09-6.04769E-19-6.81735E-19
 -1       730 1.17236E-04-5.52360E-05-2.63966E-05 2.47329E-05 9.49259E-19-4.18434E-19
 -1       731 5.11046E-05-1.15654E-05-1.66102E-05 1.09711E-05-4.25436E-20 2.08129E-18
 -1       732 1.29628E-04-5.82048E-05-3.06527E-05-1.81711E-05 1.57963E-18 1.18855E-18
 -1       733 1.16675E-04-1.04080E-05-4.59348E-05-6.84167E-06-1.48787E-19-3.32345E-19
 -1       734 9.67063E-05-2.62775E-05-3.01895E-05 8.91609E-06 1.21784E-18 1.27886E-19
 -1       735 9.52405E-05-2.85777E-05-2.85698E-05-7.43660E-09-3.19777E-19-5.73022E-19
 -1       736 9.52388E-05-2.85761E-05-2.85697E-05 8.61098E-09 1.47077E-18-1.22175E-18
 -1       737 6.42145E-05-1.00639E-05-2.29671E-05-1.32392E-05 1.16513E-18 5.36516E-19
 -1       738 8.11201E-05-2.21166E-05-2.51074E-05-1.93749E-05 6.08117E-19 6.15092E-19
 -1       739 9.52444E-05-2.85802E-05-2.85703E-05 6.13565E-09 1.50253E-18-8.05607E-19
 -1       740 1.04168E-04-2.83606E-05-3.24885E-05-7.37186E-06 7.12250E-19-8.40838E-19
 -1       741 9.52423E-05-2.85787E-05-2.85701E-05 8.35670E-09 2.48748E-18-1.13453E-18
 -1       742 1.08324E-04-3.32165E-05-3.21972E-05-7.96584E-06 5.28257E-19-7.49023E-19
 -1       743 1.10090E-04-3.41506E-05-3.25522E-05-9.79472E-06 3.35912E-19-8.29393E-19
 -1       744 1.09708E-04-3.17810E-05-3.34080E-05-1.14425E-05-9.75278E-20-1.05337E-18
 -1       745 1.07104E-04-2.66837E-05-3.44573E-05-1.09649E-05-6.52999E-19-1.38496E-18
 -1       746 1.03634E-04-2.10828E-05-3.53998E-05-7.00832E-06-5.85399E-19-1.39318E-18
 -1       747 1.02205E-04-1.88162E-05-3.57484E-05 6.93055E-08-6.06340E-20-1.17665E-18
 -1       748 1.03332E-04-2.12781E-05-3.51876E-05 6.99549E-06 1.98355E-19-9.00204E-19
 -1       749 1.06709E-04-2.76223E-05-3.38841E-05 1.06510E-05 3.32130E-20-6.53734E-19
 -1       750 1.09239E-04-3.36028E-05-3.24247E-05 1.02149E-05 2.82901E-19-5.45732E-19
 -1       751 1.09733E-04-3.73350E-05-3.10338E-05 7.15346E-06 3.33581E-19 1.65235E-19
 -1       752 1.08284E-04-3.82245E-05-3.00268E-05 3.47892E-06 6.53850E-19 5.82945E-19
 -1       753 1.05772E-04-3.72010E-05-2.93888E-05 3.49849E-07 2.77837E-19 6.75620E-19
 -1       754 1.03014E-04-3.52561E-05-2.90404E-05-1.81353E-06-4.88750E-19 4.47368E-19
 -1       755 1.00554E-04-3.31647E-05-2.88816E-05-3.05116E-06-6.18378E-19 1.67936E-19
 -1       756 9.86090E-05-3.13391E-05-2.88302E-05-3.58537E-06-4.45639E-19 1.97113E-19
 -1       757 9.72004E-05-2.99342E-05-2.88284E-05-3.64643E-06-3.70250E-19-1.99636E-19
 -1       758 9.62523E-05-2.89560E-05-2.88413E-05-3.42156E-06-1.22505E-19-8.56184E-20
 -1       759 9.56576E-05-2.83393E-05-2.88507E-05-3.04553E-06-2.45855E-20 1.01812E-19
 -1       760 9.53138E-05-2.79976E-05-2.88497E-05-2.60811E-06 2.74168E-19 6.67321E-19
 -1       761 9.51369E-05-2.78488E-05-2.88377E-05-2.16584E-06 9.45255E-19 8.96647E-19
 -1       762 9.50641E-05-2.78250E-05-2.88167E-05-1.75203E-06-2.15086E-19 9.94977E-19
 -1       763 9.50513E-05-2.78748E-05-2.87899E-05-1.38415E-06-3.72103E-19 9.98933E-19
 -1       764 9.50695E-05-2.79621E-05-2.87603E-05-1.06925E-06 3.94760E-19-2.29381E-19
 -1       765 9.51006E-05-2.80629E-05-2.87304E-05-8.07766E-07 1.04168E-18-1.25670E-19
 -1       766 9.51344E-05-2.81628E-05-2.87021E-05-5.96184E-07 6.33424E-19 8.41504E-19
 -1       767 9.51652E-05-2.82535E-05-2.86764E-05-4.28926E-07 2.48787E-19 1.50407E-18
 -1       768 9.51908E-05-2.83314E-05-2.86540E-05-2.99599E-07-2.68802E-19 1.33274E-18
 -1       769 9.52107E-05-2.83956E-05-2.86350E-05-2.01778E-07-1.03941E-18 6.47847E-19
 -1       770 9.52251E-05-2.84466E-05-2.86194E-05-1.29447E-07-1.47111E-19 4.60598E-19
 -1       771 9.52351E-05-2.84860E-05-2.86067E-05-7.72545E-08 2.27705E-19 7.27472E-19
 -1       772 9.52414E-05-2.85156E-05-2.85968E-05-4.06380E-08 1.31779E-18 1.74338E-18
 -1       773 9.52451E-05-2.85372E-05-2.85891E-05-1.58160E-08-8.72369E-20 1.13112E-18
 -1       774 9.52468E-05-2.85525E-05-2.85833E-05 2.73140E-10-9.55228E-19 8.62014E-19
 -1       775 9.52472E-05-2.85629E-05-2.85790E-05 1.00527E-08-1.63375E-18-2.37957E-19
 -1       776 9.52467E-05-2.85697E-05-2.85759E-05 1.53983E-08-1.30006E-18-4.31105E-19
 -1       777 9.52458E-05-2.85739E-05-2.85737E-05 1.77296E-08 2.39318E-19-8.21038E-19
 -1       778 9.52447E-05-2.85762E-05-2.85722E-05 1.80968E-08-1.25504E-18 1.58401E-18
 -1       779 9.52434E-05-2.85773E-05-2.85712E-05 1.72564E-08-2.64239E-18 2.69884E-18
 -1       780 9.52422E-05-2.85775E-05-2.85706E-05 1.57353E-08 2.17684E-20 1.96764E-19
 -1       781 9.52412E-05-2.85774E-05-2.85702E-05 1.38849E-08 4.69191E-19-1.44934E-18
 -1       782 9.52403E-05-2.85770E-05-2.85700E-05 1.19280E-08 1.78299E-18-2.71745E-19
 -1       783 9.52394E-05-2.85765E-05-2.85698E-05 1.02642E-08 2.05369E-18 1.16131E-18
 -1       784 8.83627E-05-2.13214E-05-2.87317E-05 9.57638E-06 3.64954E-19 8.80075E-19
 -1       785 1.24251E-04-4.95473E-05-3.20426E-05 1.02131E-05 1.16801E-19 6.22242E-19
 -1       786 9.22475E-05-4.01788E-05-2.21538E-05-3.26648E-05 4.43064E-19 1.07115E-18
 -1       787 4.38286E-05-1.36670E-06-1.78858E-05 2.73341E-06 1.57508E-18 4.80109E-19
 -1       788 6.79965E-05-1.44114E-05-2.29096E-05 2.71091E-05 1.48306E-18 6.33409E-19
 -1       789 8.56361E-05-2.01159E-05-2.80795E-05 1.18420E-05-6.09344E-19 6.48098E-19
 -1       790 8.24818E-05-1.96998E-05-2.68979E-05 1.48914E-05-3.28923E-19 8.15278E-19
 -1       791 9.04987E-05-2.27034E-05-2.90544E-05 7.75506E-06 2.75292E-19 1.05418E-18
 -1       792 9.20704E-05-2.39846E-05-2.91789E-05 6.23635E-06 8.10898E-20-3.46267E-19
 -1       793 9.31764E-05-2.50631E-05-2.91908E-05 4.96096E-06 3.59506E-19-9.09524E-19
 -1       794 9.39286E-05-2.59241E-05-2.91443E-05 3.89824E-06 2.87861E-19-2.56595E-19
 -1       795 9.44264E-05-2.65909E-05-2.90720E-05 3.02439E-06-1.07260E-18 3.48479E-19
 -1       796 9.47481E-05-2.70982E-05-2.89926E-05 2.31608E-06-1.27232E-19 1.18491E-18
 -1       797 9.49517E-05-2.74804E-05-2.89161E-05 1.74989E-06 3.95141E-19 6.46379E-19
 -1       798 9.50779E-05-2.77670E-05-2.88474E-05 1.30325E-06-2.94866E-19-8.58823E-19
 -1       799 9.51543E-05-2.79814E-05-2.87883E-05 9.55375E-07-3.88271E-19-1.08223E-18
 -1       800 9.51995E-05-2.81415E-05-2.87390E-05 6.87869E-07-7.50019E-19-9.36340E-20
 -1       801 9.52252E-05-2.82611E-05-2.86989E-05 4.84843E-07-6.63884E-19-6.75250E-19
 -1       802 9.52391E-05-2.83500E-05-2.86667E-05 3.32887E-07-1.30995E-18-1.30355E-18
 -1       803 9.52461E-05-2.84160E-05-2.86415E-05 2.20902E-07-1.61481E-18-9.08294E-19
 -1       804 9.52489E-05-2.84645E-05-2.86219E-05 1.39827E-07 2.76755E-19-3.73740E-19
 -1       805 9.52494E-05-2.84999E-05-2.86069E-05 8.23323E-08 2.54599E-18-1.63166E-19
 -1       806 9.52488E-05-2.85254E-05-2.85957E-05 4.25688E-08 5.24886E-19-9.27217E-19
 -1       807 9.52475E-05-2.85435E-05-2.85874E-05 1.59386E-08 6.31069E-20-7.58789E-19
 -1       808 9.52461E-05-2.85560E-05-2.85814E-05-1.13258E-09 1.34615E-19 1.09812E-18
 -1       809 9.52446E-05-2.85645E-05-2.85772E-05-1.13894E-08-1.00189E-18 1.51748E-18
 -1       810 9.52433E-05-2.85700E-05-2.85743E-05-1.69092E-08-1.29387E-18 3.45747E-18
 -1       811 9.52421E-05-2.85733E-05-2.85723E-05-1.92387E-08-1.02436E-18 2.91903E-18
 -1       812 9.52410E-05-2.85752E-05-2.85711E-05-1.95077E-08-1.21238E-18 6.01653E-19
 -1       813 9.52401E-05-2.85760E-05-2.85703E-05-1.85221E-08-1.27728E-18-1.68660E-18
 -1       814 9.52394E-05-2.85763E-05-2.85699E-05-1.68390E-08 4.22535E-19-2.82110E-18
 -1       815 9.52389E-05-2.85762E-05-2.85697E-05-1.48273E-08 5.69873E-19-2.08905E-18
 -1       816 9.52384E-05-2.85759E-05-2.85697E-05-1.27143E-08-5.91019E-20-2.84775E-18
 -1       817 9.52382E-05-2.85756E-05-2.85697E-05-1.06272E-08-1.69563E-18 2.54668E-19
 -1       818 9.52385E-05-2.85759E-05-2.85697E-05-9.29485E-09-4.78706E-19 3.93966E-19
 -1       819 1.17508E-04-2.38469E-05-4.03311E-05 1.30602E-05 5.43769E-19-4.61057E-19
 -1       820 5.15974E-05-1.30944E-05-1.62047E-05-1.76342E-05-1.67481E-19 4.79553E-19
 -1       821 9.52461E-05-2.85815E-05-2.85705E-05 5.84962E-11-9.59804E-19 5.97929E-19
 -1       822 4.76222E-05-4.96525E-06-1.79673E-05 2.24064E-05 1.71934E-18 9.14107E-19
 -1       823 7.85923E-05-2.67916E-05-2.19631E-05 2.66663E-05-9.06524E-20 1.80549E-18
 -1       824 9.52456E-05-2.85812E-05-2.85705E-05 3.26609E-09-8.90328E-19 2.92436E-18
 -1       825 1.29835E-04-4.27100E-05-3.74977E-05-6.74114E-06-4.25455E-19 4.30928E-19
 -1       826 6.76608E-05-2.49111E-05-1.80579E-05-3.12544E-05-1.26274E-19 1.10527E-18
 -1       827 1.26423E-04-4.21871E-05-3.62842E-05 8.62845E-06 9.39161E-19 4.08032E-20
 -1       828 1.05288E-04-4.23183E-05-2.68621E-05 2.66662E-05 6.66416E-19 1.17755E-18
 -1       829 7.94707E-05-2.12139E-05-2.49167E-05 1.94518E-05 4.01017E-20 2.06039E-18
 -1       830 7.29025E-05-2.26196E-05-2.13325E-05 3.42597E-05 1.38088E-18 7.86761E-19
 -1       831 1.22158E-04-2.55740E-05-4.16103E-05-1.37355E-05-7.61271E-19-1.30238E-19
 -1       832 1.12597E-04-1.07177E-05-4.39503E-05 3.30088E-06-8.70062E-20-1.22797E-19
 -1       833 1.08477E-04-3.39534E-05-3.19403E-05-2.63572E-06 7.01334E-19-4.10862E-19
 -1       834 1.12062E-04-5.02683E-05-2.64119E-05-2.30282E-05 1.42977E-18 8.21218E-19
 -1       835 8.72449E-05-2.58425E-05-2.62296E-05 2.42401E-05 1.22440E-18 7.25064E-19
 -1       836 1.14455E-04-1.91504E-05-4.10136E-05-1.19645E-05-5.97403E-19-9.58603E-20
 -1       837 5.35196E-05-1.02917E-05-1.83227E-05-2.09491E-06 3.99081E-19 1.74611E-18
 -1       838 9.52444E-05-2.85803E-05-2.85703E-05-6.10345E-09 1.16420E-19 1.97282E-18
 -1       839 9.52457E-05-2.85812E-05-2.85705E-05-3.18676E-09-8.14026E-19-6.40068E-19
 -1       840 9.52426E-05-2.85790E-05-2.85701E-05-8.01633E-09-8.69628E-19 1.81605E-19
 -1       841 1.07128E-04-3.47694E-05-3.09950E-05 4.92510E-06 7.33028E-19 2.49461E-20
 -1       842 1.26325E-04-5.15199E-05-3.21268E-05-3.45756E-06 1.47247E-18 8.35929E-19
 -1       843 9.52410E-05-2.85776E-05-2.85700E-05 9.45771E-09 1.45671E-18-1.99602E-18
 -1       844 1.11991E-04-3.62687E-05-3.24324E-05-5.77034E-06 4.81412E-19-5.12609E-19
 -1       845 1.14989E-04-3.64991E-05-3.36495E-05-9.31461E-06-6.20650E-20-5.50783E-19
 -1       846 1.14474E-04-3.15772E-05-3.55556E-05-1.25375E-05-6.72054E-19-6.47235E-19
 -1       847 1.06643E-04-1.59969E-05-3.90528E-05 4.41746E-06 2.13707E-19-7.11408E-19
 -1       848 1.15279E-04-3.99179E-05-3.22980E-05 7.30632E-06 4.21049E-19-2.60887E-19
 -1       849 1.12932E-04-4.17282E-05-3.05106E-05 2.16122E-06 9.23910E-19 1.66044E-20
 -1       850 1.08995E-04-4.03971E-05-2.93976E-05-1.75244E-06 7.72238E-19 1.08390E-19
 -1       851 1.04805E-04-3.75776E-05-2.88118E-05-4.10745E-06-2.28697E-19 3.56436E-19
 -1       852 1.01235E-04-3.45918E-05-2.85620E-05-5.11092E-06-4.14740E-19 4.82729E-19
 -1       853 9.85456E-05-3.20395E-05-2.85026E-05-5.25073E-06 3.74691E-20 5.11516E-19
 -1       854 9.66957E-05-3.01116E-05-2.85359E-05-4.90456E-06-1.05784E-18 7.19867E-19
 -1       855 9.55307E-05-2.87947E-05-2.86011E-05-4.32987E-06-3.59856E-19 9.95067E-19
 -1       856 9.48689E-05-2.79825E-05-2.86655E-05-3.68330E-06-2.62236E-19 7.64491E-19
 -1       857 9.45499E-05-2.75481E-05-2.87151E-05-3.04950E-06 6.62355E-19 2.17961E-19
 -1       858 9.44490E-05-2.73757E-05-2.87456E-05-2.47046E-06 7.51563E-19 5.75750E-19
 -1       859 9.44754E-05-2.73719E-05-2.87586E-05-1.96399E-06 6.76671E-19 4.73298E-19
 -1       860 9.45674E-05-2.74664E-05-2.87575E-05-1.53435E-06-3.05326E-19-4.87200E-20
 -1       861 9.46851E-05-2.76099E-05-2.87465E-05-1.17840E-06-1.09951E-18 2.94900E-19
 -1       862 9.48048E-05-2.77696E-05-2.87294E-05-8.89346E-07 9.39888E-19 5.49537E-20
 -1       863 9.49136E-05-2.79256E-05-2.87091E-05-6.58795E-07 1.49752E-18-2.68570E-19
 -1       864 9.50057E-05-2.80667E-05-2.86881E-05-4.78007E-07 7.67043E-19-3.19975E-20
 -1       865 9.50797E-05-2.81880E-05-2.86679E-05-3.38583E-07 2.07266E-19 8.98302E-19
 -1       866 9.51366E-05-2.82881E-05-2.86494E-05-2.32947E-07-5.68081E-19 7.30725E-19
 -1       867 9.51787E-05-2.83682E-05-2.86331E-05-1.54383E-07-3.91038E-19 2.10207E-18
 -1       868 9.52086E-05-2.84304E-05-2.86192E-05-9.71058E-08-4.24471E-19 1.80362E-18
 -1       869 9.52288E-05-2.84775E-05-2.86077E-05-5.62983E-08 1.26190E-18 1.29525E-18
 -1       870 9.52418E-05-2.85121E-05-2.85984E-05-2.80306E-08-2.17735E-19 6.14368E-19
 -1       871 9.52493E-05-2.85370E-05-2.85910E-05-9.13056E-09-3.76509E-19 2.26120E-19
 -1       872 9.52531E-05-2.85542E-05-2.85852E-05 2.91801E-09-2.04822E-18 1.36076E-19
 -1       873 9.52543E-05-2.85657E-05-2.85809E-05 1.00709E-08-1.54778E-18 1.24370E-18
 -1       874 9.52539E-05-2.85729E-05-2.85776E-05 1.38201E-08 2.70905E-19 1.09741E-18
 -1       875 9.52525E-05-2.85771E-05-2.85752E-05 1.52821E-08 1.31378E-18-3.99944E-19
 -1       876 9.52506E-05-2.85792E-05-2.85734E-05 1.52745E-08-1.33818E-18 3.18591E-19
 -1       877 9.52484E-05-2.85800E-05-2.85722E-05 1.43798E-08-2.42491E-18 1.02134E-18
 -1       878 9.52463E-05-2.85799E-05-2.85713E-05 1.30014E-08-1.40644E-18-1.52986E-19
 -1       879 9.52444E-05-2.85794E-05-2.85707E-05 1.13974E-08 2.05353E-18-2.98538E-19
 -1       880 9.94688E-05-4.05214E-05-2.52545E-05-2.31861E-05 8.27550E-19-1.75318E-19
 -1       881 1.20498E-04-4.39074E-05-3.28297E-05 5.18562E-06 7.42965E-19 3.55007E-19
 -1       882 8.18755E-05-1.80776E-05-2.73442E-05 6.80661E-06 1.09581E-19 1.49828E-18
 -1       883 7.68731E-05-1.61551E-05-2.60211E-05 8.04508E-06-2.43832E-19 1.64663E-18
 -1       884 9.04095E-05-2.32478E-05-2.87836E-05 4.25540E-06 8.38917E-19 7.54353E-19
 -1       885 9.18660E-05-2.44629E-05-2.88870E-05 3.52762E-06-1.69894E-19 4.86698E-19
 -1       886 9.29032E-05-2.54312E-05-2.89165E-05 2.86720E-06-1.23213E-18 8.53070E-19
 -1       887 9.36349E-05-2.61893E-05-2.89052E-05 2.28629E-06-1.07872E-18 3.64869E-19
 -1       888 9.41473E-05-2.67763E-05-2.88733E-05 1.78978E-06 3.88340E-19 4.98460E-19
 -1       889 9.45041E-05-2.72275E-05-2.88328E-05 1.37600E-06 8.89927E-19 9.43762E-19
 -1       890 9.47511E-05-2.75724E-05-2.87909E-05 1.03874E-06 3.83529E-19 1.34587E-18
 -1       891 9.49214E-05-2.78350E-05-2.87513E-05 7.69297E-07-1.15453E-18 3.20378E-19
 -1       892 9.50379E-05-2.80341E-05-2.87159E-05 5.58002E-07 3.21583E-19-3.11942E-19
 -1       893 9.51169E-05-2.81842E-05-2.86854E-05 3.95214E-07-4.73250E-19 4.20525E-19
 -1       894 9.51699E-05-2.82968E-05-2.86599E-05 2.71983E-07-1.91076E-18 3.84065E-19
 -1       895 9.52047E-05-2.83806E-05-2.86389E-05 1.80453E-07-5.30809E-21-1.20084E-18
 -1       896 9.52269E-05-2.84422E-05-2.86220E-05 1.13842E-07 1.23937E-18-2.05158E-18
 -1       897 9.52405E-05-2.84870E-05-2.86087E-05 6.64479E-08 1.15047E-18-1.03591E-18
 -1       898 9.52483E-05-2.85190E-05-2.85983E-05 3.36327E-08 7.49295E-19-3.68635E-19
 -1       899 9.52521E-05-2.85414E-05-2.85903E-05 1.16823E-08-6.18739E-19-2.38740E-19
 -1       900 9.52534E-05-2.85567E-05-2.85843E-05-2.33483E-09-5.23337E-19-5.15571E-19
 -1       901 9.52531E-05-2.85667E-05-2.85799E-05-1.06908E-08-1.63642E-18-9.88855E-20
 -1       902 9.52519E-05-2.85730E-05-2.85766E-05-1.51141E-08-1.41887E-18-7.08171E-20
 -1       903 9.52501E-05-2.85767E-05-2.85743E-05-1.68946E-08 2.48910E-19-2.82690E-19
 -1       904 9.52482E-05-2.85785E-05-2.85727E-05-1.69756E-08-1.68399E-19 1.83119E-19
 -1       905 9.52463E-05-2.85791E-05-2.85717E-05-1.60294E-08 2.30085E-19-1.06663E-18
 -1       906 9.52445E-05-2.85790E-05-2.85709E-05-1.45172E-08 3.19712E-19-8.19402E-19
 -1       907 9.52429E-05-2.85785E-05-2.85705E-05-1.27527E-08 5.42969E-19-4.38818E-19
 -1       908 9.52416E-05-2.85779E-05-2.85701E-05-1.09248E-08-1.56167E-18 1.12121E-18
 -1       909 1.22862E-04-4.38363E-05-3.38909E-05-2.23163E-06-6.58774E-20 3.46005E-19
 -1       910 6.33888E-05-1.37612E-05-2.10859E-05 1.26851E-05 3.18801E-19 2.01162E-18
 -1       911 8.56183E-05-2.00140E-05-2.81168E-05 5.86645E-06 2.95983E-19 1.19393E-18
 -1       912 1.12906E-04-4.25118E-05-3.01978E-05 1.23827E-05 4.55274E-19 3.50873E-19
 -1       913 8.33729E-05-3.03116E-05-2.26657E-05-2.60816E-05 3.11752E-19-1.98020E-19
 -1       914 1.00643E-04-3.27793E-05-2.90731E-05 1.48405E-05 8.78675E-19 3.23286E-19
 -1       915 1.21198E-04-3.49500E-05-3.71290E-05-1.22752E-05-4.41757E-19 1.36511E-19
 -1       916 7.10111E-05-1.46664E-05-2.41177E-05 9.67453E-06 4.62831E-20 1.83003E-18
 -1       917 1.08649E-04-1.38152E-05-4.08183E-05-4.27116E-06-1.21285E-19-1.12887E-19
 -1       918 6.90313E-05-1.99104E-05-2.09458E-05-2.11077E-05-2.19544E-19 1.20970E-18
 -1       919 9.52452E-05-2.85802E-05-2.85707E-05 8.51272E-09 1.44434E-18-1.09685E-18
 -1       920 9.52406E-05-2.85775E-05-2.85699E-05-9.00329E-09-3.15602E-19 1.03785E-19
 -1       921 8.83880E-05-2.17620E-05-2.85541E-05 5.03533E-06 8.26206E-19 9.27353E-19
 -1       922 1.16258E-04-3.65673E-05-3.41880E-05 1.04465E-05 6.67038E-19-3.36447E-19
 -1       923 1.16763E-04-4.86697E-05-2.91488E-05-9.86864E-06 1.56614E-18 1.60381E-18
 -1       924 9.52425E-05-2.85785E-05-2.85703E-05 1.04857E-08 2.44396E-18-1.21959E-18
 -1       925 9.52473E-05-2.85817E-05-2.85710E-05-5.41543E-09-2.16639E-19 1.23467E-18
 -1       926 9.52484E-05-2.85824E-05-2.85712E-05-1.80574E-09 4.07294E-19-3.06246E-19
 -1       927 9.52473E-05-2.85816E-05-2.85710E-05 5.50824E-09-7.97261E-19 4.10103E-18
 -1       928 6.45958E-05-1.42236E-05-2.15026E-05-1.08361E-05 4.95529E-19 1.30840E-18
 -1       929 9.52455E-05-2.85805E-05-2.85707E-05-8.06508E-09-5.36813E-20 2.06263E-18
 -1       930 9.52484E-05-2.85824E-05-2.85712E-05 1.95415E-09-6.08829E-19 7.84927E-19
 -1       931 1.14197E-04-3.87712E-05-3.23454E-05-2.56920E-06 3.75391E-19-2.14508E-19
 -1       932 7.66354E-05-1.60956E-05-2.59446E-05 1.34865E-06 2.27873E-19 4.36490E-19
 -1       933 1.18648E-04-3.89813E-05-3.41601E-05-7.61574E-06-1.32872E-19-2.30262E-19
 -1       934 1.06246E-04-4.18670E-05-2.75573E-05-1.36737E-05 7.37618E-19 1.15511E-18
 -1       935 1.12524E-04-4.42344E-05-2.92589E-05-5.50517E-06 1.15174E-18 8.27344E-19
 -1       936 1.01359E-04-3.58355E-05-2.80814E-05-8.30616E-06-2.08094E-19 7.96510E-19
 -1       937 9.79162E-05-3.24606E-05-2.80512E-05-7.67457E-06-6.49118E-19 1.02842E-18
 -1       938 9.56900E-05-2.99949E-05-2.81546E-05-6.61178E-06-2.90226E-19 7.01736E-19
 -1       939 9.44085E-05-2.83774E-05-2.82991E-05-5.46095E-06 2.58660E-19 1.40217E-18
 -1       940 9.37729E-05-2.74207E-05-2.84367E-05-4.39470E-06-3.37561E-19 2.17479E-18
 -1       941 9.35529E-05-2.69392E-05-2.85487E-05-3.47316E-06-2.83516E-19 1.63176E-18
 -1       942 9.35834E-05-2.67799E-05-2.86301E-05-2.70681E-06 1.02582E-19 1.46526E-18
 -1       943 9.37500E-05-2.68237E-05-2.86827E-05-2.08499E-06 3.27509E-19 1.20347E-19
 -1       944 9.39767E-05-2.69833E-05-2.87115E-05-1.58871E-06-1.19840E-19-2.74001E-19
 -1       945 9.42162E-05-2.71980E-05-2.87221E-05-1.19742E-06-2.57888E-19 4.46150E-19
 -1       946 9.44413E-05-2.74279E-05-2.87200E-05-8.91952E-07 4.15895E-19 1.79375E-18
 -1       947 9.46383E-05-2.76488E-05-2.87098E-05-6.55673E-07 3.44415E-19 9.38555E-19
 -1       948 9.48024E-05-2.78475E-05-2.86950E-05-4.74650E-07 1.63521E-18-6.12127E-19
 -1       949 9.49334E-05-2.80177E-05-2.86782E-05-3.37286E-07 1.01165E-18-9.08416E-19
 -1       950 9.50347E-05-2.81588E-05-2.86611E-05-2.34252E-07 1.03349E-18 6.71679E-19
 -1       951 9.51104E-05-2.82721E-05-2.86450E-05-1.58003E-07 6.80258E-19 2.73924E-18
 -1       952 9.51651E-05-2.83605E-05-2.86305E-05-1.02404E-07-3.84785E-19 3.04237E-18
 -1       953 9.52032E-05-2.84281E-05-2.86179E-05-6.25388E-08-6.49359E-19 2.93202E-18
 -1       954 9.52287E-05-2.84783E-05-2.86073E-05-3.46140E-08 5.77427E-19 9.57859E-19
 -1       955 9.52447E-05-2.85148E-05-2.85985E-05-1.56096E-08-3.84845E-19 4.08693E-19
 -1       956 9.52539E-05-2.85404E-05-2.85915E-05-3.14568E-09-1.92781E-18 5.79901E-19
 -1       957 9.52583E-05-2.85579E-05-2.85859E-05 4.60805E-09-1.87699E-18 4.22849E-19
 -1       958 9.52596E-05-2.85692E-05-2.85816E-05 9.04314E-09-1.49122E-18-1.49185E-18
 -1       959 9.52588E-05-2.85761E-05-2.85783E-05 1.12035E-08 4.41841E-19-7.67424E-19
 -1       960 9.52568E-05-2.85799E-05-2.85758E-05 1.18603E-08 6.89848E-19-1.68890E-18
 -1       961 9.52542E-05-2.85816E-05-2.85740E-05 1.15713E-08-1.18734E-18-8.11219E-19
 -1       962 9.52514E-05-2.85820E-05-2.85726E-05 1.07287E-08-1.27814E-18 9.87790E-19
 -1       963 9.52487E-05-2.85816E-05-2.85716E-05 9.59758E-09 2.57422E-19 2.43788E-18
 -1       964 8.51822E-05-2.01447E-05-2.78736E-05 2.41255E-06 9.25421E-19 1.80787E-19
 -1       965 7.91710E-05-2.40428E-05-2.35935E-05-1.90116E-05 1.86923E-19-3.93068E-19
 -1       966 9.13652E-05-2.43699E-05-2.87125E-05 2.12124E-06-1.02360E-18 1.08948E-18
 -1       967 8.98824E-05-2.32114E-05-2.85735E-05 2.36210E-06 1.32271E-19 7.66783E-19
 -1       968 9.32572E-05-2.60602E-05-2.87988E-05 1.51592E-06-1.43492E-19 2.61240E-19
 -1       969 9.38405E-05-2.66549E-05-2.87939E-05 1.22311E-06-3.90523E-19-1.25954E-20
 -1       970 9.42638E-05-2.71217E-05-2.87753E-05 9.61506E-07 4.37195E-19 6.78922E-19
 -1       971 9.45692E-05-2.74855E-05-2.87502E-05 7.37687E-07 1.00443E-19 1.41833E-18
 -1       972 9.47883E-05-2.77671E-05-2.87234E-05 5.52618E-07-5.27685E-19 2.18455E-18
 -1       973 9.49439E-05-2.79833E-05-2.86974E-05 4.03934E-07-3.79748E-19 2.77287E-18
 -1       974 9.50533E-05-2.81479E-05-2.86737E-05 2.87263E-07-1.91805E-19 2.38178E-18
 -1       975 9.51291E-05-2.82723E-05-2.86529E-05 1.97853E-07 4.61556E-19 5.54371E-19
 -1       976 9.51805E-05-2.83650E-05-2.86352E-05 1.30930E-07 6.81257E-19-3.48059E-19
 -1       977 9.52145E-05-2.84333E-05-2.86205E-05 8.19641E-08 7.64451E-19-2.09546E-19
 -1       978 9.52360E-05-2.84828E-05-2.86085E-05 4.70430E-08 8.99829E-19 1.60650E-19
 -1       979 9.52489E-05-2.85180E-05-2.85990E-05 2.28921E-08 1.17000E-19 1.02148E-18
 -1       980 9.52558E-05-2.85424E-05-2.85914E-05 6.80295E-09-4.51587E-21-7.84930E-20
 -1       981 9.52586E-05-2.85589E-05-2.85856E-05-3.39062E-09-1.35257E-18-1.16252E-19
 -1       982 9.52589E-05-2.85695E-05-2.85812E-05-9.37906E-09-1.25395E-18-2.52832E-19
 -1       983 9.52576E-05-2.85759E-05-2.85779E-05-1.24537E-08-8.09305E-19 5.60201E-19
 -1       984 9.52554E-05-2.85795E-05-2.85754E-05-1.35793E-08-1.37427E-18 1.81113E-18
 -1       985 9.52529E-05-2.85810E-05-2.85736E-05-1.34631E-08 2.09954E-18 9.13940E-19
 -1       986 9.52502E-05-2.85814E-05-2.85724E-05-1.26079E-08 4.56382E-19-9.39834E-20
 -1       987 9.52477E-05-2.85809E-05-2.85715E-05-1.13489E-08-1.05576E-18 1.20042E-18
 -1       988 6.45028E-05-1.22634E-05-2.23268E-05 3.82604E-07 7.04841E-20 1.72515E-18
 -1       989 9.11632E-05-3.27427E-05-2.50383E-05-2.05107E-05 6.25148E-19-1.06973E-19
 -1       990 1.17047E-04-4.54624E-05-3.07137E-05-1.02085E-06 1.04947E-18 5.54649E-19
 -1       991 9.52507E-05-2.85830E-05-2.85718E-05-4.10716E-09-5.84908E-19 1.12480E-18
 -1       992 8.78788E-05-2.18076E-05-2.83165E-05 2.48528E-06 6.60714E-19 4.37570E-20
 -1       993 9.24571E-05-2.53090E-05-2.87779E-05 1.82457E-06-6.12524E-19 1.27294E-18
 -1       994 8.15498E-05-1.82234E-05-2.71404E-05 2.06398E-06 4.81724E-19 3.85983E-21
 -1       995 9.52489E-05-2.85821E-05-2.85715E-05-7.41819E-09-1.20633E-18 1.26765E-18
 -1       996 9.52513E-05-2.85834E-05-2.85720E-05 1.03991E-10-8.98212E-20-5.40459E-20
 -1       997 1.06108E-04-3.98669E-05-2.83883E-05-7.87728E-06 3.24564E-19 5.60621E-19
 -1       998 7.36271E-05-1.83501E-05-2.36572E-05-1.26073E-05 6.23968E-19 7.36242E-19
 -1       999 9.52454E-05-2.85802E-05-2.85708E-05-9.91762E-09-1.20872E-18 1.96434E-18
 -1      1000 7.14205E-05-1.42442E-05-2.44911E-05 8.11503E-07 1.10244E-19 1.87958E-18
 -1      1001 9.60822E-05-3.22177E-05-2.73865E-05-1.09516E-05-6.08502E-19 1.55858E-18
 -1      1002 9.24328E-05-2.54557E-05-2.87049E-05 9.07839E-07 7.81092E-19 8.46256E-19
 -1      1003 1.00203E-04-3.64841E-05-2.73020E-05-1.28789E-05 2.55597E-19 1.45134E-18
 -1      1004 9.37324E-05-2.92529E-05-2.76341E-05-8.71312E-06-2.89711E-19 1.48811E-18
 -1      1005 9.26039E-05-2.74759E-05-2.79118E-05-6.73743E-06-2.64157E-19 1.09529E-18
 -1      1006 9.22079E-05-2.65100E-05-2.81561E-05-5.10924E-06 2.40316E-20 2.25022E-20
 -1      1007 9.22371E-05-2.60851E-05-2.83509E-05-3.82033E-06-2.70469E-19 5.04110E-19
 -1      1008 9.25039E-05-2.60157E-05-2.84950E-05-2.82727E-06 1.27696E-19 8.29691E-19
 -1      1009 9.28809E-05-2.61614E-05-2.85942E-05-2.07662E-06-5.20423E-19 6.35474E-19
 -1      1010 9.32883E-05-2.64227E-05-2.86568E-05-1.51601E-06-3.94161E-19 1.30545E-18
 -1      1011 9.36792E-05-2.67328E-05-2.86915E-05-1.10054E-06 6.70454E-20 9.70818E-19
 -1      1012 9.40288E-05-2.70485E-05-2.87059E-05-7.94136E-07 4.67349E-19 1.42301E-18
 -1      1013 9.43265E-05-2.73444E-05-2.87067E-05-5.68902E-07-8.00046E-21 1.00825E-18
 -1      1014 9.45706E-05-2.76070E-05-2.86988E-05-4.03737E-07 6.15864E-19 1.14154E-18
 -1      1015 9.47649E-05-2.78311E-05-2.86860E-05-2.83212E-07 6.22473E-19 1.21269E-18
 -1      1016 9.49147E-05-2.80159E-05-2.86709E-05-1.95145E-07 2.45239E-18 1.41331E-18
 -1      1017 9.50272E-05-2.81646E-05-2.86554E-05-1.31946E-07 1.86242E-18 1.81808E-18
 -1      1018 9.51095E-05-2.82814E-05-2.86406E-05-8.64565E-08-2.70949E-19 1.33270E-18
 -1      1019 9.51677E-05-2.83708E-05-2.86273E-05-5.39944E-08-5.66383E-20 8.55789E-19
 -1      1020 9.52077E-05-2.84381E-05-2.86156E-05-3.13847E-08-6.94868E-19 2.01850E-18
 -1      1021 9.52338E-05-2.84873E-05-2.86057E-05-1.59758E-08-9.62390E-19 1.04220E-18
 -1      1022 9.52498E-05-2.85224E-05-2.85974E-05-5.74894E-09-7.36645E-19-1.97465E-19
 -1      1023 9.52586E-05-2.85467E-05-2.85908E-05 7.66146E-10-2.44043E-18-1.09976E-18
 -1      1024 9.52624E-05-2.85629E-05-2.85855E-05 4.66190E-09-1.46901E-18 2.31816E-20
 -1      1025 9.52630E-05-2.85732E-05-2.85814E-05 6.74821E-09 1.47644E-19 2.12940E-18
 -1      1026 9.52616E-05-2.85792E-05-2.85782E-05 7.61918E-09-2.55843E-19 1.42437E-18
 -1      1027 9.52590E-05-2.85822E-05-2.85758E-05 7.70586E-09 5.54239E-19 9.46292E-19
 -1      1028 9.52559E-05-2.85833E-05-2.85740E-05 7.32301E-09 7.00773E-20 1.34067E-18
 -1      1029 9.52527E-05-2.85832E-05-2.85726E-05 6.68152E-09 3.01040E-19 3.80354E-18
 -1      1030 9.01177E-05-2.36407E-05-2.84907E-05 8.08079E-07-9.66725E-19 2.83352E-18
 -1      1031 9.37647E-05-2.66920E-05-2.87457E-05 6.96036E-07-1.29469E-19 8.68688E-19
 -1      1032 9.31926E-05-2.61377E-05-2.87382E-05 8.17957E-07 1.11494E-19 5.73216E-19
 -1      1033 9.45089E-05-2.74902E-05-2.87225E-05 4.46080E-07-6.71529E-19 2.82947E-18
 -1      1034 9.47419E-05-2.77681E-05-2.87031E-05 3.39606E-07-6.86713E-19 1.83823E-18
 -1      1035 9.49101E-05-2.79831E-05-2.86830E-05 2.51096E-07 4.45595E-19 1.31987E-18
 -1      1036 9.50308E-05-2.81488E-05-2.86637E-05 1.79636E-07 2.95318E-19 2.23816E-18
 -1      1037 9.51153E-05-2.82744E-05-2.86462E-05 1.23817E-07 1.36063E-18 1.12476E-18
 -1      1038 9.51733E-05-2.83680E-05-2.86309E-05 8.15956E-08 7.60043E-19 8.42297E-19
 -1      1039 9.52119E-05-2.84370E-05-2.86178E-05 5.04771E-08 4.93236E-19-7.83874E-20
 -1      1040 9.52366E-05-2.84869E-05-2.86070E-05 2.82792E-08-3.52118E-19-9.44696E-19
 -1      1041 9.52514E-05-2.85222E-05-2.85982E-05 1.29578E-08-3.19184E-19 1.70389E-18
 -1      1042 9.52592E-05-2.85464E-05-2.85912E-05 2.80735E-09-3.93053E-19 2.95396E-18
 -1      1043 9.52624E-05-2.85625E-05-2.85857E-05-3.55270E-09 3.25729E-19 1.10791E-18
 -1      1044 9.52627E-05-2.85727E-05-2.85814E-05-7.21137E-09-1.43083E-18 1.92649E-20
 -1      1045 9.52611E-05-2.85787E-05-2.85782E-05-9.00563E-09-1.37120E-18-3.41938E-19
 -1      1046 9.52585E-05-2.85818E-05-2.85757E-05-9.55906E-09 1.75351E-19 4.73154E-19
 -1      1047 9.52554E-05-2.85829E-05-2.85739E-05-9.33733E-09 7.25894E-19 2.12259E-18
 -1      1048 9.52522E-05-2.85828E-05-2.85726E-05-8.66838E-09-1.21393E-18 1.94455E-18
 -1      1049 8.64569E-05-2.68820E-05-2.55219E-05-1.55578E-05 3.82212E-19 7.33401E-20
 -1      1050 9.52507E-05-2.85830E-05-2.85719E-05 4.14194E-09 6.57116E-19 2.09743E-18
 -1      1051 9.14308E-05-2.46282E-05-2.86302E-05 9.25052E-07-4.37693E-19 2.00529E-18
 -1      1052 9.41922E-05-2.71369E-05-2.87382E-05 5.67303E-07-1.55543E-19 2.43631E-18
 -1      1053 9.52541E-05-2.85840E-05-2.85729E-05-2.18153E-09-7.90861E-19 2.20821E-18
 -1      1054 8.84064E-05-2.24862E-05-2.82521E-05 4.68556E-07-4.80564E-19 1.70408E-18
 -1      1055 7.07728E-05-1.51453E-05-2.38178E-05-6.14714E-06 6.43307E-19 1.14775E-18
 -1      1056 7.95724E-05-1.81902E-05-2.62970E-05-3.33647E-06 3.23785E-19 6.47286E-19
 -1      1057 8.11209E-05-2.18727E-05-2.53911E-05-1.18997E-05 1.34638E-18 7.58046E-19
 -1      1058 7.57722E-05-1.68127E-05-2.52728E-05-4.66219E-06 1.15140E-18 9.73222E-19
 -1      1059 8.61857E-05-2.11714E-05-2.78637E-05-2.14202E-07 5.16566E-19 8.74007E-19
 -1      1060 8.33149E-05-1.97275E-05-2.72513E-05-1.40400E-06 5.01853E-19 4.94582E-19
 -1      1061 9.52535E-05-2.85836E-05-2.85728E-05-5.52469E-09-1.18141E-18 1.52182E-18
 -1      1062 9.52541E-05-2.85839E-05-2.85729E-05 2.34121E-09-2.01982E-19 1.45695E-18
 -1      1063 8.97792E-05-2.58589E-05-2.73931E-05-8.02643E-06-2.19178E-19 1.58457E-18
 -1      1064 8.99472E-05-2.50869E-05-2.77979E-05-5.71549E-06-4.45409E-19 1.60175E-18
 -1      1065 9.04734E-05-2.48827E-05-2.81103E-05-3.99933E-06 1.99961E-20 1.56254E-18
 -1      1066 9.11446E-05-2.50241E-05-2.83374E-05-2.76220E-06-7.05185E-19 4.88608E-19
 -1      1067 9.18410E-05-2.53548E-05-2.84942E-05-1.88721E-06-2.39922E-20-9.30496E-19
 -1      1068 9.24976E-05-2.57731E-05-2.85964E-05-1.27782E-06 4.78981E-19 1.19329E-19
 -1      1069 9.30817E-05-2.62138E-05-2.86578E-05-8.58775E-07-2.24667E-19 1.48669E-18
 -1      1070 9.35804E-05-2.66371E-05-2.86901E-05-5.73555E-07 3.64037E-19 1.42098E-18
 -1      1071 9.39928E-05-2.70209E-05-2.87023E-05-3.80972E-07-3.96455E-20 1.26474E-18
 -1      1072 9.43248E-05-2.73547E-05-2.87015E-05-2.51774E-07-2.77338E-21 1.14339E-18
 -1      1073 9.45858E-05-2.76363E-05-2.86927E-05-1.65548E-07 1.21064E-18 3.10355E-20
 -1      1074 9.47906E-05-2.78700E-05-2.86798E-05-1.09158E-07 1.83499E-18 2.23812E-18
 -1      1075 9.49401E-05-2.80557E-05-2.86648E-05-7.05047E-08 1.63733E-18 8.90746E-19
 -1      1076 9.50469E-05-2.81969E-05-2.86499E-05-4.32672E-08-6.17470E-19-9.96883E-20
 -1      1077 9.51267E-05-2.83095E-05-2.86359E-05-2.53778E-08-9.65315E-21-6.14365E-19
 -1      1078 9.51817E-05-2.83942E-05-2.86232E-05-1.44818E-08 3.77450E-20 7.24532E-19
 -1      1079 9.52185E-05-2.84565E-05-2.86123E-05-7.25325E-09-1.83473E-18 2.53004E-19
 -1      1080 9.52418E-05-2.85015E-05-2.86030E-05-2.60125E-09-1.99919E-18-4.35420E-20
 -1      1081 9.52555E-05-2.85330E-05-2.85954E-05 2.85268E-10-2.78132E-18-2.26726E-19
 -1      1082 9.52626E-05-2.85544E-05-2.85892E-05 1.97666E-09-6.67311E-19 8.21594E-19
 -1      1083 9.52651E-05-2.85684E-05-2.85843E-05 2.87020E-09 1.03860E-18 1.18191E-18
 -1      1084 9.52647E-05-2.85769E-05-2.85805E-05 3.24266E-09-4.24111E-21 1.74842E-18
 -1      1085 9.52625E-05-2.85816E-05-2.85775E-05 3.28769E-09-3.95182E-19 3.74610E-18
 -1      1086 9.52594E-05-2.85837E-05-2.85753E-05 3.11849E-09 3.10083E-19 2.61913E-18
 -1      1087 9.52566E-05-2.85840E-05-2.85740E-05 2.72242E-09 1.33928E-18 2.83235E-18
 -1      1088 9.42356E-05-2.72339E-05-2.87150E-05 2.33579E-07-2.39776E-19 1.04904E-18
 -1      1089 9.49251E-05-2.80250E-05-2.86714E-05 1.16164E-07-1.11521E-19-6.84456E-19
 -1      1090 9.45341E-05-2.75587E-05-2.87036E-05 1.97275E-07 1.18723E-20 1.78115E-18
 -1      1091 9.50401E-05-2.81782E-05-2.86549E-05 8.51139E-08 6.57962E-19-1.28959E-18
 -1      1092 9.51216E-05-2.82960E-05-2.86396E-05 6.01184E-08 1.15823E-18-4.84061E-19
 -1      1093 9.51788E-05-2.83848E-05-2.86260E-05 3.99498E-08 1.06162E-18 2.38814E-19
 -1      1094 9.52168E-05-2.84501E-05-2.86143E-05 2.47484E-08 9.86018E-19 1.39633E-18
 -1      1095 9.52408E-05-2.84970E-05-2.86045E-05 1.37225E-08-2.59773E-18 1.66084E-18
 -1      1096 9.52550E-05-2.85300E-05-2.85964E-05 6.05331E-09-1.66735E-18 1.86368E-18
 -1      1097 9.52623E-05-2.85523E-05-2.85900E-05 9.65497E-10 3.48735E-19 3.53756E-18
 -1      1098 9.52649E-05-2.85670E-05-2.85849E-05-2.20861E-09-4.39662E-19 5.27095E-18
 -1      1099 9.52647E-05-2.85760E-05-2.85809E-05-4.01293E-09 4.35606E-19 3.20801E-18
 -1      1100 9.52626E-05-2.85810E-05-2.85778E-05-4.87456E-09 1.17205E-19 8.47200E-19
 -1      1101 9.52596E-05-2.85834E-05-2.85755E-05-5.12312E-09 3.71218E-19 6.48547E-19
 -1      1102 9.52565E-05-2.85839E-05-2.85740E-05-5.45344E-09 5.86837E-19 1.91626E-18
 -1      1103 8.92440E-05-2.66648E-05-2.68073E-05-1.09773E-05-2.90896E-19 1.23080E-18
 -1      1104 9.38405E-05-2.68313E-05-2.87181E-05 2.56557E-07-5.83956E-19 1.16102E-18
 -1      1105 9.47562E-05-2.78163E-05-2.86881E-05 1.55421E-07 9.61917E-19 4.74680E-19
 -1      1106 9.07452E-05-2.42906E-05-2.84810E-05-3.37810E-07-7.36728E-19 2.16270E-18
 -1      1107 9.33245E-05-2.63411E-05-2.87071E-05 2.48008E-07-3.82309E-20 8.67891E-19
 -1      1108 8.77982E-05-2.25439E-05-2.79675E-05-1.94700E-06-5.45659E-19 1.81415E-18
 -1      1109 9.52572E-05-2.85843E-05-2.85741E-05-1.78771E-09-3.31489E-19 3.18275E-18
 -1      1110 9.26591E-05-2.57551E-05-2.86732E-05 1.79087E-07 1.19866E-18 1.66196E-18
 -1      1111 9.18115E-05-2.50700E-05-2.86037E-05 5.60136E-09 1.10599E-18 2.37476E-18
 -1      1112 8.94209E-05-2.34354E-05-2.82803E-05-9.44901E-07-1.93189E-18 1.62516E-18
 -1      1113 8.58325E-05-2.16839E-05-2.74944E-05-3.52439E-06-1.71614E-19 1.49859E-18
 -1      1114 7.77824E-05-1.89093E-05-2.52160E-05-8.64679E-06 1.07208E-18 7.22642E-19
 -1      1115 8.35173E-05-2.09977E-05-2.67981E-05-5.89475E-06 3.74919E-19 8.05044E-19
 -1      1116 9.48230E-05-2.79132E-05-2.86766E-05 5.62674E-09 1.36437E-18-4.61328E-19
 -1      1117 9.49934E-05-2.81245E-05-2.86586E-05 2.88342E-08 1.78206E-19-1.81422E-18
 -1      1118 8.10192E-05-2.08026E-05-2.57955E-05-9.27393E-06 7.04293E-19 4.33714E-19
 -1      1119 1.25114E-04 2.78840E-10-4.48910E-05-4.33294E-05-1.99053E-19-3.38008E-18
 -1      1120 9.49955E-05 8.15699E-11-3.98345E-05-2.42026E-05-3.09167E-20-3.98015E-18
 -1      1121 8.93894E-05 5.16699E-11-3.79236E-05-1.67321E-05 3.81165E-21-3.39210E-18
 -1      1122 8.65476E-05 4.50221E-11-3.67198E-05-1.13013E-05 3.15520E-20-2.65213E-18
 -1      1123 8.42181E-05 4.25839E-11-3.56967E-05-6.28541E-06 3.68989E-20-1.96519E-18
 -1      1124 8.16146E-05 3.97036E-11-3.45923E-05-1.56055E-06 4.02341E-20-1.33362E-18
 -1      1125 7.84230E-05 3.38856E-11-3.32950E-05 2.66832E-06 4.12929E-20-7.13989E-19
 -1      1126 7.47051E-05 2.39152E-11-3.18417E-05 5.96867E-06 4.09752E-20-2.20778E-19
 -1      1127 7.09981E-05 1.04999E-11-3.04462E-05 7.80880E-06 4.21399E-20 1.67636E-19
 -1      1128 6.81832E-05-3.29293E-12-2.94390E-05 7.93524E-06 3.92812E-20 5.62385E-19
 -1      1129 6.72849E-05-1.26633E-11-2.91941E-05 6.59067E-06 4.25369E-20 9.32037E-19
 -1      1130 6.90851E-05-1.32455E-11-2.99883E-05 4.61723E-06 4.52104E-20 1.36133E-18
 -1      1131 7.38636E-05-3.14680E-12-3.19172E-05 3.19268E-06 4.76456E-20 1.92342E-18
 -1      1132 8.13726E-05 1.70939E-11-3.48802E-05 3.60293E-06 4.27752E-20 2.63695E-18
 -1      1133 9.09647E-05 4.70996E-11-3.85828E-05 7.07617E-06 3.83282E-20 3.59828E-18
 -1      1134 1.02491E-04 9.65315E-11-4.27567E-05 1.53879E-05-9.74088E-21 4.78669E-18
 -1      1135 1.24527E-04 2.16960E-10-4.75332E-05 3.29130E-05-1.60513E-19 5.79445E-18
 -1      1136 1.39889E-04-2.78839E-05-4.33421E-05-2.73566E-05-5.25584E-19-3.24625E-18
 -1      1137 1.06320E-04-3.14869E-05-3.43032E-05-5.79636E-07-2.35105E-19-4.49160E-18
 -1      1138 9.85701E-05-2.95109E-05-3.03369E-05 4.03233E-07-3.99561E-20-5.57522E-18
 -1      1139 9.51293E-05-2.85992E-05-2.85854E-05 1.74598E-07-4.58953E-20-6.17561E-18
 -1      1140 9.19617E-05-2.76340E-05-2.74977E-05 5.09226E-09-4.03950E-20-6.37807E-18
 -1      1141 8.83876E-05-2.65456E-05-2.64504E-05-1.08576E-07-3.80327E-20-6.55666E-18
 -1      1142 8.45128E-05-2.53873E-05-2.53619E-05-1.67136E-07 8.12043E-21-7.14782E-18
 -1      1143 8.09420E-05-2.43342E-05-2.43790E-05-1.59546E-07-3.38267E-20-7.76835E-18
 -1      1144 7.85052E-05-2.36216E-05-2.37207E-05-8.59625E-08-1.61366E-20-8.18293E-18
 -1      1145 7.79152E-05-2.34507E-05-2.35724E-05 3.11427E-08 3.66342E-20-8.00103E-18
 -1      1146 7.94468E-05-2.38981E-05-2.40042E-05 1.51315E-07-3.63397E-20-8.24062E-18
 -1      1147 8.27987E-05-2.48774E-05-2.49382E-05 2.34562E-07 1.16891E-19-7.84882E-18
 -1      1148 8.72157E-05-2.61715E-05-2.61770E-05 2.60207E-07-5.24639E-21-8.28179E-18
 -1      1149 9.17886E-05-2.75175E-05-2.74774E-05 2.32608E-07 2.24596E-20-8.72185E-18
 -1      1150 9.57588E-05-2.86930E-05-2.86282E-05 1.72815E-07-1.10349E-19-8.21331E-18
 -1      1151 9.86885E-05-2.95670E-05-2.94987E-05 1.04917E-07-1.06318E-19-8.00347E-18
 -1      1152 1.00471E-04-3.01049E-05-3.00474E-05 4.61770E-08-4.57398E-20-7.74598E-18
 -1      1153 1.01238E-04-3.03424E-05-3.03018E-05 4.28705E-09 6.32810E-20-7.51655E-18
 -1      1154 1.01237E-04-3.03509E-05-3.03271E-05-2.04197E-08-9.12240E-20-8.41371E-18
 -1      1155 1.00736E-04-3.02090E-05-3.01985E-05-3.14418E-08 3.10710E-20-7.90370E-18
 -1      1156 9.99689E-05-2.99855E-05-2.99840E-05-3.32951E-08-1.96501E-19-8.12212E-18
 -1      1157 9.91085E-05-2.97323E-05-2.97358E-05-2.99637E-08 6.60297E-20-7.44192E-18
 -1      1158 9.82699E-05-2.94838E-05-2.94896E-05-2.43484E-08 2.63235E-19-5.15236E-18
 -1      1159 9.75188E-05-2.92602E-05-2.92665E-05-1.82784E-08-1.80382E-19-6.59074E-18
 -1      1160 9.68850E-05-2.90708E-05-2.90765E-05-1.27474E-08 1.76942E-19-5.65717E-18
 -1      1161 9.63745E-05-2.89176E-05-2.89223E-05-8.18561E-09-2.10470E-20-3.88521E-18
 -1      1162 9.59795E-05-2.87987E-05-2.88024E-05-4.68525E-09 9.61928E-20-2.99129E-18
 -1      1163 9.56851E-05-2.87097E-05-2.87124E-05-2.16017E-09 2.97020E-20-3.79127E-18
 -1      1164 9.54738E-05-2.86456E-05-2.86475E-05-4.48030E-10-2.10949E-19-4.77545E-18
 -1      1165 9.53284E-05-2.86013E-05-2.86025E-05 6.30629E-10 2.85614E-19-4.43482E-18
 -1      1166 9.52333E-05-2.85722E-05-2.85729E-05 1.24176E-09-2.10709E-19-3.05069E-18
 -1      1167 9.51755E-05-2.85543E-05-2.85546E-05 1.52490E-09-1.08863E-20-4.38150E-18
 -1      1168 9.51443E-05-2.85445E-05-2.85446E-05 1.59018E-09-2.69384E-20-6.65144E-18
 -1      1169 9.51313E-05-2.85403E-05-2.85402E-05 1.52036E-09 1.75874E-19-6.58744E-18
 -1      1170 9.51304E-05-2.85397E-05-2.85396E-05 1.37495E-09 1.05013E-20-6.46461E-18
 -1      1171 9.51367E-05-2.85414E-05-2.85412E-05 1.19488E-09 4.63658E-19-6.67605E-18
 -1      1172 9.51471E-05-2.85444E-05-2.85442E-05 1.00692E-09 7.35726E-20-5.92845E-18
 -1      1173 9.51594E-05-2.85479E-05-2.85478E-05 8.27533E-10 2.53837E-19-5.53014E-18
 -1      1174 9.51719E-05-2.85516E-05-2.85515E-05 6.65917E-10-4.90401E-20-4.88001E-18
 -1      1175 9.51838E-05-2.85552E-05-2.85550E-05 5.26345E-10-2.66630E-20-6.48251E-18
 -1      1176 9.51947E-05-2.85584E-05-2.85583E-05 4.09900E-10 1.19621E-19-7.84682E-18
 -1      1177 9.52043E-05-2.85612E-05-2.85612E-05 3.15689E-10 9.93847E-20-8.76337E-18
 -1      1178 9.52125E-05-2.85637E-05-2.85636E-05 2.41640E-10 4.79381E-20-9.13685E-18
 -1      1179 9.52194E-05-2.85658E-05-2.85657E-05 1.84920E-10-8.41079E-20-4.40520E-18
 -1      1180 9.52252E-05-2.85675E-05-2.85675E-05 1.41950E-10 4.03015E-19-4.12892E-18
 -1      1181 9.52298E-05-2.85689E-05-2.85688E-05 1.07827E-10 2.36943E-19-1.45640E-18
 -1      1182 9.52334E-05-2.85700E-05-2.85699E-05 7.47268E-11-1.74151E-20-2.94314E-19
 -1      1183 9.52359E-05-2.85707E-05-2.85707E-05 2.77349E-11-4.37492E-21 8.57593E-19
 -1      1184 9.52372E-05-2.85711E-05-2.85711E-05-6.23719E-11 4.16637E-20 3.43225E-18
 -1      1185 9.52374E-05-2.85712E-05-2.85713E-05-7.41043E-11 1.87121E-19 1.98856E-18
 -1      1186 1.52450E-04-4.35748E-05-4.63281E-05 1.20724E-05-1.06091E-19 6.11854E-18
 -1      1187 1.28499E-04-3.78169E-05-4.10425E-05 4.02525E-07-7.33213E-20 7.18247E-18
 -1      1188 1.31306E-04-3.92265E-05-4.01526E-05-1.85317E-07-9.55559E-21 7.72033E-18
 -1      1189 1.37912E-04-4.12754E-05-4.14140E-05-4.53470E-07 1.25612E-20 8.25148E-18
 -1      1190 1.44671E-04-4.32233E-05-4.28715E-05-6.86962E-07-3.36894E-20 9.04859E-18
 -1      1191 1.46864E-04-4.38701E-05-4.28953E-05-6.00657E-07 3.21608E-20 9.48232E-18
 -1      1192 1.38798E-04-4.16406E-05-4.02470E-05 2.07335E-07-2.08344E-19 1.12602E-17
 -1      1193 1.18192E-04-3.57658E-05-3.50612E-05 1.59970E-06-1.29503E-20 1.30659E-17
 -1      1194 9.31091E-05-2.81439E-05-2.96333E-05 2.40674E-06-2.49557E-19 1.31044E-17
 -1      1195 8.12016E-05-2.39550E-05-2.73620E-05 1.33752E-06-1.27717E-19 1.34551E-17
 -1      1196 9.28976E-05-2.71396E-05-2.99681E-05-8.21896E-07 8.15799E-20 1.10997E-17
 -1      1197 1.18447E-04-3.51673E-05-3.56355E-05-2.03306E-06 1.92308E-19 7.49074E-18
 -1      1198 1.39828E-04-4.20445E-05-4.08544E-05-1.73769E-06-7.35860E-21 6.01224E-18
 -1      1199 1.48233E-04-4.47008E-05-4.33736E-05-8.23196E-07 5.71615E-20 6.10785E-18
 -1      1200 1.45661E-04-4.38551E-05-4.30966E-05-9.92313E-08 1.09135E-19 5.27027E-18
 -1      1201 1.37611E-04-4.13406E-05-4.11174E-05 2.49207E-07 3.11965E-19 3.76252E-18
 -1      1202 1.28337E-04-3.85035E-05-3.85634E-05 3.37225E-07-3.02284E-19 4.88574E-18
 -1      1203 1.19981E-04-3.59796E-05-3.61310E-05 3.06214E-07 4.41119E-20 6.18583E-18
 -1      1204 1.13236E-04-3.39566E-05-3.41074E-05 2.40332E-07 2.59377E-19 3.46775E-18
 -1      1205 1.08094E-04-3.24192E-05-3.25398E-05 1.75960E-07-2.55369E-19 4.53724E-18
 -1      1206 1.04294E-04-3.12842E-05-3.13723E-05 1.24301E-07 2.60132E-20 5.72033E-18
 -1      1207 1.01536E-04-3.04601E-05-3.05219E-05 8.61724E-08-1.17400E-19 6.67209E-18
 -1      1208 9.95566E-05-2.98679E-05-2.99107E-05 5.91295E-08-1.56107E-19 5.66633E-18
 -1      1209 9.81469E-05-2.94458E-05-2.94752E-05 4.03050E-08 1.77480E-20 3.98508E-18
 -1      1210 9.71507E-05-2.91472E-05-2.91674E-05 2.73018E-08-2.94758E-19 4.14433E-18
 -1      1211 9.64530E-05-2.89378E-05-2.89517E-05 1.83390E-08 4.06403E-19 4.26642E-18
 -1      1212 9.59701E-05-2.87928E-05-2.88023E-05 1.21615E-08-4.83355E-19 3.97976E-18
 -1      1213 9.56413E-05-2.86939E-05-2.87004E-05 7.90512E-09-4.55464E-19 5.03284E-18
 -1      1214 9.54226E-05-2.86280E-05-2.86324E-05 4.97983E-09 5.30178E-20 5.09423E-18
 -1      1215 9.52817E-05-2.85855E-05-2.85885E-05 2.98187E-09 1.51477E-19 4.02481E-18
 -1      1216 9.51955E-05-2.85594E-05-2.85613E-05 1.63301E-09-2.71741E-19 3.74867E-18
 -1      1217 9.51469E-05-2.85447E-05-2.85459E-05 7.39650E-10 3.29986E-19 3.90618E-18
 -1      1218 9.51237E-05-2.85376E-05-2.85383E-05 1.65624E-10-1.01515E-19 4.68116E-18
 -1      1219 9.51171E-05-2.85355E-05-2.85359E-05-1.85865E-10-2.74510E-19 4.83199E-18
 -1      1220 9.51208E-05-2.85365E-05-2.85367E-05-3.84160E-10-2.10304E-19 4.91559E-18
 -1      1221 9.51305E-05-2.85393E-05-2.85393E-05-4.79073E-10 2.20554E-20 3.62484E-18
 -1      1222 9.51432E-05-2.85431E-05-2.85430E-05-5.06294E-10 7.44118E-19 1.35786E-20
 -1      1223 9.51569E-05-2.85472E-05-2.85470E-05-4.91216E-10-1.98460E-20 4.67143E-19
 -1      1224 9.51704E-05-2.85512E-05-2.85510E-05-4.51705E-10-5.63844E-19 4.62144E-18
 -1      1225 9.51830E-05-2.85549E-05-2.85548E-05-4.00139E-10 2.60172E-19 1.15922E-18
 -1      1226 9.51942E-05-2.85583E-05-2.85582E-05-3.44917E-10-1.95500E-20-1.16136E-19
 -1      1227 9.52040E-05-2.85612E-05-2.85611E-05-2.91591E-10 9.75695E-21 1.78221E-18
 -1      1228 9.52124E-05-2.85637E-05-2.85636E-05-2.43722E-10-7.98975E-20 5.10856E-18
 -1      1229 9.52194E-05-2.85658E-05-2.85657E-05-2.03493E-10-7.58033E-19 6.35028E-18
 -1      1230 9.52251E-05-2.85675E-05-2.85675E-05-1.71977E-10 2.86195E-19 8.52303E-18
 -1      1231 9.52298E-05-2.85689E-05-2.85689E-05-1.48883E-10 7.56244E-19 1.12626E-18
 -1      1232 9.52334E-05-2.85700E-05-2.85699E-05-1.31390E-10 1.28177E-19-1.08852E-18
 -1      1233 9.52359E-05-2.85707E-05-2.85707E-05-1.06844E-10 6.33972E-19-3.65198E-18
 -1      1234 9.52372E-05-2.85711E-05-2.85711E-05-3.80391E-11 1.40719E-18-1.10392E-17
 -1      1235 9.52373E-05-2.85712E-05-2.85713E-05 6.66502E-11-7.81246E-20-5.44893E-18
 -1      1236 9.52371E-05-2.85709E-05-2.85713E-05 6.44449E-11-6.25467E-18-3.23327E-19
 -1      1237 9.52372E-05-2.85711E-05-2.85711E-05 5.20110E-11-6.76806E-18-4.22230E-19
 -1      1238 9.52376E-05-2.85725E-05-2.85707E-05-5.86729E-11 1.69234E-18-1.69906E-19
 -1      1239 9.52382E-05-2.85747E-05-2.85700E-05-1.08851E-10 3.03876E-18-3.73355E-19
 -1      1240 9.52390E-05-2.85774E-05-2.85693E-05-1.21258E-10-1.26566E-18-3.43074E-20
 -1      1241 9.52398E-05-2.85800E-05-2.85685E-05-1.08440E-10-7.29113E-18 2.97041E-19
 -1      1242 9.52404E-05-2.85822E-05-2.85679E-05-8.16348E-11-7.03074E-18 1.04410E-18
 -1      1243 9.52409E-05-2.85837E-05-2.85675E-05-4.30258E-11-2.21273E-18-3.36994E-19
 -1      1244 9.52410E-05-2.85841E-05-2.85673E-05 3.83814E-13-6.94798E-19 1.41865E-19
 -1      1245 9.52409E-05-2.85836E-05-2.85675E-05 4.37295E-11 7.41826E-18 1.57513E-19
 -1      1246 9.52404E-05-2.85822E-05-2.85679E-05 8.20036E-11-8.64467E-19-1.30977E-18
 -1      1247 9.52398E-05-2.85800E-05-2.85685E-05 1.10066E-10-7.96293E-18 5.38299E-19
 -1      1248 9.52390E-05-2.85774E-05-2.85693E-05 1.21049E-10-8.73509E-18 1.44248E-19
 -1      1249 9.52382E-05-2.85747E-05-2.85700E-05 1.09925E-10-4.76730E-18 1.07775E-18
 -1      1250 9.52375E-05-2.85724E-05-2.85707E-05 7.07048E-11-4.52809E-18-4.14545E-20
 -1      1251 9.52372E-05-2.85712E-05-2.85711E-05-1.01757E-10-3.92078E-18-1.15131E-21
 -1      1252 9.52371E-05-2.85709E-05-2.85713E-05-7.36684E-11-2.12742E-18 2.17396E-19
 -1      1253 3.57965E-05-1.13896E-04 1.95867E-05-1.61276E-05 8.07879E-18 1.26256E-18
 -1      1254 1.88219E-05-7.50046E-05 1.17004E-05-3.02534E-05 9.71462E-18 3.51286E-18
 -1      1255 7.75110E-06-1.77018E-05-4.29194E-06-7.44586E-06 9.65279E-18 5.89535E-18
 -1      1256 3.21034E-05 1.91516E-05-2.47827E-05 4.54280E-05 7.28618E-18 6.86605E-18
 -1      1257 1.06811E-04 1.20043E-05-4.68163E-05 9.83584E-05 3.91329E-18 4.99749E-18
 -1      1258 2.16843E-04-3.44249E-05-6.69457E-05 1.15762E-04 6.02664E-19-2.96462E-19
 -1      1259 3.14199E-04-8.66775E-05-8.02578E-05 7.36436E-05-9.43065E-19-6.71528E-18
 -1      1260 3.42936E-04-1.02387E-04-8.42794E-05-1.11525E-05 1.20596E-19-7.92103E-18
 -1      1261 2.92953E-04-7.42764E-05-7.74360E-05-8.94702E-05 1.87194E-18-7.45220E-18
 -1      1262 1.83504E-04-1.85907E-05-6.14128E-05-1.14339E-04 3.23397E-18-6.67293E-18
 -1      1263 7.79142E-05 1.78595E-05-3.93959E-05-8.12264E-05 2.81215E-18-4.06915E-18
 -1      1264 1.75942E-05 9.30037E-06-1.68572E-05-2.24367E-05 6.47133E-19-7.70800E-19
 -1      1265 8.79322E-06-3.82029E-05 2.22572E-06 2.17976E-05-2.69018E-18 1.01517E-18
 -1      1266 2.55025E-05-8.99413E-05 1.45704E-05 2.89138E-05-5.51418E-18 1.30517E-18
 -1      1267 3.57084E-05-1.10741E-04 1.88769E-05 7.00687E-06-6.04824E-18 2.83968E-19
 -1      1268 2.86964E-05-9.10586E-05 1.48090E-05-1.73626E-05-5.27363E-18-8.23951E-19
 -1      1269 1.14035E-05-4.00138E-05 3.45783E-06-1.70231E-05-4.64005E-18-1.83552E-18
 -1      1270 1.15330E-05 1.08263E-05-1.38866E-05 1.96154E-05-2.79182E-18-1.57463E-18
 -1      1271 5.18864E-05 2.97757E-05-3.39173E-05 7.38544E-05 1.45690E-19 3.32037E-19
 -1      1272 1.37332E-04 3.76772E-06-5.38209E-05 1.11666E-04 1.40438E-18 2.24294E-18
 -1      1273 2.40133E-04-4.98430E-05-7.00408E-05 1.02590E-04 1.47892E-18 5.36341E-18
 -1      1274 3.04657E-04-8.83198E-05-7.86554E-05 4.10952E-05 6.61480E-19 7.09432E-18
 -1      1275 3.09447E-04-9.13006E-05-7.90860E-05-3.75248E-05-8.11775E-19 7.57840E-18
 -1      1276 2.52257E-04-5.59593E-05-7.18627E-05-9.82479E-05-2.46995E-18 8.10441E-18
 -1      1277 1.61105E-04-6.12117E-06-5.79801E-05-1.16145E-04-3.20433E-18 5.92245E-18
 -1      1278 7.52806E-05 2.65199E-05-4.01603E-05-9.00446E-05-3.02221E-18 3.59989E-18
 -1      1279 2.02570E-05 2.32976E-05-2.10823E-05-3.96297E-05-1.01983E-18 1.24260E-18
 -1      1280 6.91864E-06-1.58302E-05-3.32501E-06 5.59624E-06 1.67543E-18-3.65918E-19
 -1      1281 1.92718E-05-6.89989E-05 1.05167E-05 2.33648E-05 3.40338E-18-1.06409E-18
 -1      1282 3.54518E-05-1.10099E-04 1.86762E-05 1.17943E-05 4.24745E-18-2.22823E-19
 -1      1283 1.12680E-04-2.38862E-05-4.07612E-05-1.76933E-05-2.04770E-19-4.04289E-18
 -1      1284 9.69191E-05-7.60985E-06-3.84357E-05-2.03202E-05-1.55642E-20-3.77840E-18
 -1      1285 9.97362E-05-7.71092E-06-3.98505E-05-2.62051E-05-2.03923E-19-4.07735E-18
 -1      1286 9.16659E-05-5.12138E-06-3.71196E-05-1.52783E-05 3.03132E-19-3.14133E-18
 -1      1287 9.33426E-05-5.10517E-06-3.78126E-05-1.82834E-05 2.37010E-19-3.49983E-18
 -1      1288 9.91441E-05-1.22718E-05-3.73249E-05-1.88982E-05 1.07997E-19-3.26404E-18
 -1      1289 8.89388E-05-4.51034E-06-3.61350E-05-1.02755E-05 4.92020E-19-2.40309E-18
 -1      1290 9.00998E-05-4.45918E-06-3.66474E-05-1.28349E-05 4.38816E-19-2.80471E-18
 -1      1291 9.42004E-05-9.59551E-06-3.63495E-05-1.42978E-05 5.29925E-19-2.68292E-18
 -1      1292 8.65290E-05-4.27531E-06-3.51735E-05-5.40224E-06 6.17064E-19-1.72334E-18
 -1      1293 8.77220E-05-4.24908E-06-3.56855E-05-7.82629E-06 6.15052E-19-2.08248E-18
 -1      1294 9.13162E-05-8.68411E-06-3.54890E-05-9.39912E-06 8.44598E-19-2.01443E-18
 -1      1295 8.36544E-05-3.98607E-06-3.40723E-05-8.09208E-07 6.79162E-19-1.12330E-18
 -1      1296 8.51311E-05-3.98822E-06-3.46622E-05-3.03630E-06 6.70585E-19-1.43900E-18
 -1      1297 8.86187E-05-8.13484E-06-3.45591E-05-4.61980E-06 1.00533E-18-1.38760E-18
 -1      1298 7.98631E-05-3.38851E-06-3.27440E-05 3.34796E-06 7.17172E-19-5.43530E-19
 -1      1299 8.17654E-05-3.42701E-06-3.34469E-05 1.41109E-06 7.08861E-19-8.72762E-19
 -1      1300 8.51888E-05-7.31030E-06-3.34422E-05-4.75179E-08 1.10898E-18-8.70194E-19
 -1      1301 7.53109E-05-2.36457E-06-3.12992E-05 6.48864E-06 7.90493E-19-1.04781E-19
 -1      1302 7.74775E-05-2.43748E-06-3.20419E-05 5.12334E-06 7.81494E-19-3.25459E-19
 -1      1303 8.06369E-05-5.83890E-06-3.21267E-05 3.99789E-06 1.20882E-18-3.08002E-19
 -1      1304 7.06795E-05-9.89022E-07-2.99788E-05 8.11394E-06 7.94782E-19 2.77039E-19
 -1      1305 7.27144E-05-1.08264E-06-3.06220E-05 7.52449E-06 8.03517E-19 6.57245E-20
 -1      1306 7.52362E-05-3.65331E-06-3.07533E-05 6.94670E-06 1.29988E-18 7.00390E-20
 -1      1307 6.71762E-05 4.19489E-07-2.91334E-05 8.01107E-06 7.92545E-19 6.63594E-19
 -1      1308 6.84814E-05 3.32458E-07-2.94881E-05 8.22480E-06 7.65241E-19 4.42790E-19
 -1      1309 6.99483E-05-1.09043E-06-2.95850E-05 8.30766E-06 1.28020E-18 3.92289E-19
 -1      1310 6.62117E-05 1.36453E-06-2.91281E-05 6.52161E-06 8.02299E-19 9.99725E-19
 -1      1311 6.61718E-05 1.31735E-06-2.90115E-05 7.28581E-06 8.04463E-19 7.94107E-19
 -1      1312 6.63196E-05 1.10542E-06-2.89664E-05 7.94564E-06 1.30912E-18 6.93052E-19
 -1      1313 6.87488E-05 1.40689E-06-3.01801E-05 4.62654E-06 7.62436E-19 1.45663E-18
 -1      1314 6.70462E-05 1.41374E-06-2.95064E-05 5.41250E-06 7.57565E-19 1.18452E-18
 -1      1315 6.59628E-05 2.04251E-06-2.92144E-05 6.37182E-06 1.27122E-18 1.08258E-18
 -1      1316 7.51082E-05 3.56502E-07-3.23615E-05 3.53744E-06 7.37872E-19 2.01709E-18
 -1      1317 7.16822E-05 4.24964E-07-3.11117E-05 3.75532E-06 7.33954E-19 1.69252E-18
 -1      1318 6.98718E-05 1.13210E-06-3.05056E-05 4.63793E-06 1.22330E-18 1.52342E-18
 -1      1319 8.47001E-05-1.71062E-06-3.54748E-05 4.52958E-06 6.42474E-19 2.74731E-18
 -1      1320 7.99227E-05-1.59409E-06-3.37736E-05 3.57664E-06 6.65133E-19 2.31867E-18
 -1      1321 7.81490E-05-1.75259E-06-3.28264E-05 4.03215E-06 1.10297E-18 2.07581E-18
 -1      1322 9.66832E-05-4.74706E-06-3.91819E-05 8.64613E-06 4.18011E-19 3.78221E-18
 -1      1323 9.09524E-05-4.56300E-06-3.71952E-05 5.94035E-06 4.65656E-19 3.19919E-18
 -1      1324 9.00524E-05-6.42964E-06-3.59139E-05 5.63675E-06 8.29404E-19 2.84386E-18
 -1      1325 1.11437E-04-1.00719E-05-4.31398E-05 1.73160E-05 8.72444E-20 4.97187E-18
 -1      1326 1.04519E-04-9.23718E-06-4.09678E-05 1.15439E-05 1.89735E-19 4.33363E-18
 -1      1327 1.05091E-04-1.33285E-05-3.93205E-05 9.86657E-06 4.16793E-19 3.81366E-18
 -1      1328 1.45733E-04-3.04559E-05-4.61630E-05 2.52524E-05-2.34099E-19 5.67576E-18
 -1      1329 1.20993E-04-1.95207E-05-4.40951E-05 1.79816E-05-1.28749E-19 5.37284E-18
 -1      1330 1.23045E-04-2.53885E-05-4.17738E-05 1.33183E-05-9.29089E-21 4.75651E-18
 -1      1331 1.28738E-04-3.59413E-05-4.25313E-05 2.90432E-06-2.14511E-19 6.02431E-18
 -1      1332 1.13792E-04-3.28890E-05-3.61790E-05-8.14863E-06-2.92120E-19-3.63843E-18
 -1      1333 1.06692E-04-3.04280E-05-3.32864E-05-5.14312E-06-2.07258E-19-4.10652E-18
 -1      1334 1.03636E-04-3.04120E-05-3.16429E-05-2.95074E-06-1.42460E-19-4.06271E-18
 -1      1335 1.00893E-04-2.99936E-05-3.04304E-05-2.61909E-06-6.25613E-20-4.29279E-18
 -1      1336 1.07462E-04-3.06466E-05-3.32921E-05-8.56246E-06-3.09379E-19-3.19151E-18
 -1      1337 9.86080E-05-2.94772E-05-2.96014E-05-1.87737E-06-1.05396E-19-4.27805E-18
 -1      1338 9.68264E-05-2.90553E-05-2.89865E-05-1.90119E-06-1.17929E-19-4.45734E-18
 -1      1339 1.01850E-04-3.01854E-05-3.08041E-05-4.71042E-06-1.94156E-19-2.97346E-18
 -1      1340 9.51138E-05-2.85884E-05-2.84467E-05-1.82786E-06 3.65304E-21-4.52236E-18
 -1      1341 9.34013E-05-2.80862E-05-2.79431E-05-1.88885E-06-8.08701E-20-4.66853E-18
 -1      1342 9.81510E-05-2.94755E-05-2.94255E-05-3.78241E-06-1.10975E-19-2.97436E-18
 -1      1343 9.18404E-05-2.76156E-05-2.74796E-05-1.97570E-06-5.36587E-20-4.56931E-18
 -1      1344 8.99924E-05-2.70233E-05-2.69583E-05-2.01789E-06-4.28207E-20-4.64059E-18
 -1      1345 9.49744E-05-2.85910E-05-2.84329E-05-3.81890E-06-6.68395E-20-3.09316E-18
 -1      1346 8.85014E-05-2.65455E-05-2.65288E-05-1.98398E-06-2.57419E-19-4.64846E-18
 -1      1347 8.66710E-05-2.59326E-05-2.60192E-05-1.96045E-06-2.52925E-19-5.06340E-18
 -1      1348 9.19534E-05-2.75946E-05-2.75794E-05-3.89478E-06-2.36676E-19-2.85771E-18
 -1      1349 8.53762E-05-2.54980E-05-2.56562E-05-1.64681E-06-1.68401E-19-5.11740E-18
 -1      1350 8.39033E-05-2.49909E-05-2.52505E-05-1.53277E-06-1.26231E-19-5.37000E-18
 -1      1351 8.91619E-05-2.65823E-05-2.68414E-05-3.48470E-06-3.47062E-19-3.03574E-18
 -1      1352 8.30333E-05-2.46872E-05-2.50134E-05-9.08192E-07 1.25698E-20-5.35329E-18
 -1      1353 8.22896E-05-2.44241E-05-2.48115E-05-7.15030E-07 3.21244E-20-5.37169E-18
 -1      1354 8.69720E-05-2.57379E-05-2.62909E-05-2.35121E-06-1.46067E-19-3.20334E-18
 -1      1355 8.20527E-05-2.43340E-05-2.47520E-05 1.10299E-07 1.80524E-20-5.23472E-18
 -1      1356 8.22770E-05-2.44057E-05-2.48170E-05 3.34421E-07-1.33196E-19-5.21860E-18
 -1      1357 8.58389E-05-2.52777E-05-2.60193E-05-5.86765E-07 5.16756E-20-2.99082E-18
 -1      1358 8.27488E-05-2.45610E-05-2.49529E-05 1.15052E-06-2.27792E-19-5.20928E-18
 -1      1359 8.39334E-05-2.49659E-05-2.52824E-05 1.34107E-06 3.27861E-20-5.42735E-18
 -1      1360 8.60602E-05-2.53469E-05-2.60834E-05 1.41478E-06-1.72504E-19-2.98964E-18
 -1      1361 8.50057E-05-2.53255E-05-2.55863E-05 1.93377E-06 2.34595E-19-5.68245E-18
 -1      1362 8.68916E-05-2.59683E-05-2.61116E-05 2.04106E-06-7.14287E-20-5.55921E-18
 -1      1363 8.76035E-05-2.59374E-05-2.64727E-05 3.12817E-06 2.73565E-20-3.10764E-18
 -1      1364 8.83125E-05-2.64369E-05-2.65193E-05 2.28664E-06-2.10971E-19-5.54759E-18
 -1      1365 9.04938E-05-2.71705E-05-2.71311E-05 2.29614E-06-7.99789E-20-5.82100E-18
 -1      1366 9.00963E-05-2.68858E-05-2.71061E-05 4.13787E-06-1.26476E-19-3.49975E-18
 -1      1367 9.19663E-05-2.76410E-05-2.75634E-05 2.19807E-06 6.24819E-20-5.80781E-18
 -1      1368 9.40379E-05-2.83239E-05-2.81503E-05 2.12905E-06-3.65895E-20-5.72340E-18
 -1      1369 9.29740E-05-2.79488E-05-2.78570E-05 4.30174E-06-2.10881E-20-3.49705E-18
 -1      1370 9.53165E-05-2.87149E-05-2.85369E-05 1.78798E-06 6.02055E-20-5.71946E-18
 -1      1371 9.69889E-05-2.92518E-05-2.90167E-05 1.67682E-06-1.16447E-19-5.43818E-18
 -1      1372 9.56870E-05-2.89045E-05-2.85926E-05 3.75466E-06-4.93000E-21-3.21377E-18
 -1      1373 9.79316E-05-2.95235E-05-2.93123E-05 1.22794E-06-2.35515E-19-5.28402E-18
 -1      1374 9.90738E-05-2.98773E-05-2.96450E-05 1.10981E-06-4.77349E-20-5.44086E-18
 -1      1375 9.78517E-05-2.96166E-05-2.92087E-05 2.78957E-06-9.45600E-20-3.24972E-18
 -1      1376 9.96435E-05-3.00270E-05-2.98328E-05 6.68510E-07 7.24743E-20-5.27464E-18
 -1      1377 1.00262E-04-3.02070E-05-3.00169E-05 5.66911E-07 6.45499E-20-5.19753E-18
 -1      1378 9.93006E-05-3.00463E-05-2.96477E-05 1.71189E-06 4.63883E-21-3.07419E-18
 -1      1379 1.00496E-04-3.02541E-05-3.01036E-05 2.03900E-07 8.31730E-20-5.15864E-18
 -1      1380 1.00682E-04-3.02960E-05-3.01627E-05 1.29238E-07-1.54297E-19-5.20250E-18
 -1      1381 1.00046E-04-3.02236E-05-2.98983E-05 7.44546E-07 1.17992E-19-2.93349E-18
 -1      1382 1.00658E-04-3.02686E-05-3.01683E-05-1.28538E-07-4.20552E-19-5.44690E-18
 -1      1383 1.00536E-04-3.02160E-05-3.01370E-05-1.75555E-07-1.11990E-19-5.65696E-18
 -1      1384 1.00211E-04-3.02111E-05-2.99825E-05 2.10406E-09-5.13064E-19-3.30355E-18
 -1      1385 1.00339E-04-3.01421E-05-3.00863E-05-3.31602E-07 9.18832E-20-5.81970E-18
 -1      1386 1.00030E-04-3.00349E-05-2.99992E-05-3.55509E-07-2.05717E-19-5.85403E-18
 -1      1387 9.99585E-05-3.00762E-05-2.99398E-05-4.90010E-07-2.45575E-19-3.72095E-18
 -1      1388 9.97357E-05-2.99375E-05-2.99156E-05-4.28958E-07-1.17540E-19-5.86190E-18
 -1      1389 9.93384E-05-2.98068E-05-2.98011E-05-4.36055E-07-1.42655E-19-5.97169E-18
 -1      1390 9.94504E-05-2.98761E-05-2.98136E-05-7.60765E-07-1.94205E-19-4.09677E-18
 -1      1391 9.90071E-05-2.97027E-05-2.97034E-05-4.50569E-07 1.94423E-19-5.47243E-18
 -1      1392 9.85916E-05-2.95698E-05-2.95825E-05-4.46867E-07 5.93507E-19-4.93704E-18
 -1      1393 9.88191E-05-2.96532E-05-2.96426E-05-8.62383E-07 1.68962E-19-3.91388E-18
 -1      1394 9.82638E-05-2.94700E-05-2.94840E-05-4.24244E-07 4.84373E-19-4.91113E-18
 -1      1395 9.78742E-05-2.93478E-05-2.93698E-05-4.14566E-07 6.09934E-20-4.70927E-18
 -1      1396 9.81612E-05-2.94350E-05-2.94565E-05-8.49654E-07 7.93371E-19-3.55605E-18
 -1      1397 9.75750E-05-2.92586E-05-2.92788E-05-3.72026E-07 6.00244E-20-4.36400E-18
 -1      1398 9.72348E-05-2.91535E-05-2.91786E-05-3.59813E-07 3.26945E-19-4.47993E-18
 -1      1399 9.75397E-05-2.92377E-05-2.92760E-05-7.69317E-07 1.57408E-19-3.34245E-18
 -1      1400 9.69768E-05-2.90776E-05-2.90996E-05-3.09543E-07 8.94375E-19-3.66843E-18
 -1      1401 9.66950E-05-2.89916E-05-2.90162E-05-2.97016E-07 8.00313E-19-2.54441E-18
 -1      1402 9.69898E-05-2.90687E-05-2.91131E-05-6.56462E-07 9.38357E-19-1.82937E-18
 -1      1403 9.64822E-05-2.89298E-05-2.89506E-05-2.46817E-07 2.16627E-19-2.32942E-18
 -1      1404 9.62587E-05-2.88624E-05-2.88843E-05-2.35258E-07 2.51963E-19-1.98917E-18
 -1      1405 9.65263E-05-2.89301E-05-2.89738E-05-5.34880E-07 9.43727E-19-1.19761E-18
 -1      1406 9.60895E-05-2.88136E-05-2.88320E-05-1.89567E-07-6.34706E-20-2.12978E-18
 -1      1407 9.59188E-05-2.87627E-05-2.87811E-05-1.79596E-07-1.50273E-19-2.27254E-18
 -1      1408 9.61511E-05-2.88202E-05-2.88596E-05-4.19100E-07 1.73243E-19-1.19789E-18
 -1      1409 9.57888E-05-2.87255E-05-2.87408E-05-1.40495E-07-1.42950E-19-2.82414E-18
 -1      1410 9.56632E-05-2.86885E-05-2.87032E-05-1.32308E-07-4.73201E-19-2.94972E-18
 -1      1411 9.58576E-05-2.87360E-05-2.87694E-05-3.16837E-07-5.51764E-19-1.86768E-18
 -1      1412 9.55665E-05-2.86610E-05-2.86732E-05-1.00358E-07-2.32375E-19-3.02954E-18
 -1      1413 9.54775E-05-2.86351E-05-2.86465E-05-9.38970E-08-1.48909E-19-3.78614E-18
 -1      1414 9.56353E-05-2.86734E-05-2.87004E-05-2.31191E-07-8.29026E-19-2.17487E-18
 -1      1415 9.54080E-05-2.86154E-05-2.86248E-05-6.87636E-08-3.27626E-20-3.43372E-18
 -1      1416 9.53477E-05-2.85982E-05-2.86066E-05-6.38393E-08 8.29751E-20-2.95654E-18
 -1      1417 9.54724E-05-2.86283E-05-2.86494E-05-1.62390E-07 2.30953E-19-2.04487E-18
 -1      1418 9.52996E-05-2.85846E-05-2.85916E-05-4.47270E-08 7.16547E-20-2.99679E-18
 -1      1419 9.52610E-05-2.85738E-05-2.85799E-05-4.10964E-08 4.04968E-20-2.77488E-18
 -1      1420 9.53571E-05-2.85971E-05-2.86129E-05-1.09054E-07 1.95703E-19-2.34294E-18
 -1      1421 9.52292E-05-2.85650E-05-2.85700E-05-2.70299E-08-2.73236E-19-2.34921E-18
 -1      1422 9.52065E-05-2.85588E-05-2.85630E-05-2.44435E-08-3.18806E-19-2.89339E-18
 -1      1423 9.52787E-05-2.85763E-05-2.85878E-05-6.90427E-08-1.62279E-19-2.18220E-18
 -1      1424 9.51868E-05-2.85534E-05-2.85569E-05-1.44376E-08-3.78959E-19-3.45888E-18
 -1      1425 9.51752E-05-2.85505E-05-2.85532E-05-1.26648E-08-4.88388E-19-4.13545E-18
 -1      1426 9.52281E-05-2.85633E-05-2.85714E-05-3.99946E-08-1.19774E-18-1.47737E-18
 -1      1427 9.51642E-05-2.85475E-05-2.85498E-05-5.81709E-09-1.88468E-19-4.33903E-18
 -1      1428 9.51602E-05-2.85467E-05-2.85484E-05-4.65867E-09 1.66117E-19-4.41869E-18
 -1      1429 9.51979E-05-2.85559E-05-2.85614E-05-1.96387E-08-2.91314E-19-1.46315E-18
 -1      1430 9.51552E-05-2.85454E-05-2.85469E-05-1.92388E-10 3.46093E-19-4.60070E-18
 -1      1431 9.51561E-05-2.85461E-05-2.85470E-05 5.16201E-10 8.58845E-20-4.52817E-18
 -1      1432 9.51821E-05-2.85524E-05-2.85559E-05-5.95548E-09-8.83174E-20-2.02430E-18
 -1      1433 9.51551E-05-2.85459E-05-2.85467E-05 3.24043E-09 1.16021E-19-4.62504E-18
 -1      1434 9.51589E-05-2.85473E-05-2.85477E-05 3.63005E-09 4.26759E-19-4.56780E-18
 -1      1435 9.51760E-05-2.85515E-05-2.85536E-05 2.75802E-09 1.93561E-19-2.51857E-18
 -1      1436 9.51604E-05-2.85478E-05-2.85482E-05 5.12026E-09 5.98885E-19-4.29625E-18
 -1      1437 9.51657E-05-2.85496E-05-2.85497E-05 5.29188E-09-2.95941E-19-4.34952E-18
 -1      1438 9.51764E-05-2.85523E-05-2.85533E-05 7.88202E-09 6.30544E-19-3.07538E-18
 -1      1439 9.51686E-05-2.85505E-05-2.85506E-05 5.93973E-09-4.49630E-19-4.36448E-18
 -1      1440 9.51745E-05-2.85524E-05-2.85523E-05 5.96908E-09-1.52833E-20-4.75593E-18
 -1      1441 9.51805E-05-2.85539E-05-2.85543E-05 1.04991E-08-5.30380E-19-3.00372E-18
 -1      1442 9.51781E-05-2.85534E-05-2.85534E-05 6.06809E-09 1.25389E-19-3.84966E-18
 -1      1443 9.51840E-05-2.85553E-05-2.85551E-05 6.01041E-09 1.98773E-20-4.38887E-18
 -1      1444 9.51868E-05-2.85561E-05-2.85560E-05 1.14341E-08-3.31574E-19-3.32019E-18
 -1      1445 9.51878E-05-2.85564E-05-2.85563E-05 5.77431E-09-8.58405E-19-3.90948E-18
 -1      1446 9.51933E-05-2.85582E-05-2.85579E-05 5.66864E-09-1.04721E-18-5.09818E-18
 -1      1447 9.51939E-05-2.85584E-05-2.85581E-05 1.12983E-08-5.27989E-19-2.81374E-18
 -1      1448 9.51970E-05-2.85592E-05-2.85590E-05 5.24813E-09-2.02950E-19-5.57493E-18
 -1      1449 9.52020E-05-2.85608E-05-2.85605E-05 5.12101E-09-8.64815E-20-5.93426E-18
 -1      1450 9.52012E-05-2.85606E-05-2.85602E-05 1.05310E-08-1.06485E-18-3.09403E-18
 -1      1451 9.52054E-05-2.85618E-05-2.85615E-05 4.61794E-09-5.47678E-19-6.72675E-18
 -1      1452 9.52097E-05-2.85631E-05-2.85628E-05 4.48645E-09-4.83592E-19-7.34249E-18
 -1      1453 9.52081E-05-2.85627E-05-2.85623E-05 9.43707E-09-1.30125E-18-4.77636E-18
 -1      1454 9.52128E-05-2.85640E-05-2.85638E-05 3.96540E-09 7.79474E-19-6.99154E-18
 -1      1455 9.52165E-05-2.85651E-05-2.85649E-05 3.83949E-09 1.23118E-18-6.05646E-18
 -1      1456 9.52143E-05-2.85646E-05-2.85641E-05 8.21784E-09 5.79205E-19-5.13840E-18
 -1      1457 9.52191E-05-2.85659E-05-2.85657E-05 3.33655E-09 4.33403E-19-4.31482E-18
 -1      1458 9.52222E-05-2.85668E-05-2.85666E-05 3.22069E-09 6.21151E-19-3.27638E-18
 -1      1459 9.52198E-05-2.85662E-05-2.85658E-05 6.99550E-09 1.76214E-18-3.36846E-18
 -1      1460 9.52244E-05-2.85675E-05-2.85673E-05 2.74982E-09 6.17251E-19-2.80190E-18
 -1      1461 9.52269E-05-2.85682E-05-2.85680E-05 2.64406E-09 1.07590E-18-2.34404E-18
 -1      1462 9.52245E-05-2.85676E-05-2.85672E-05 5.83139E-09 1.62806E-18-1.91763E-18
 -1      1463 9.52288E-05-2.85688E-05-2.85686E-05 2.20120E-09 1.48430E-18-1.69148E-18
 -1      1464 9.52308E-05-2.85694E-05-2.85692E-05 2.10163E-09 4.47580E-19-3.30212E-19
 -1      1465 9.52284E-05-2.85688E-05-2.85684E-05 4.73882E-09 1.50094E-18-5.46254E-19
 -1      1466 9.52322E-05-2.85698E-05-2.85696E-05 1.66758E-09-1.77725E-19-9.50093E-19
 -1      1467 9.52337E-05-2.85703E-05-2.85700E-05 1.56618E-09 1.85305E-20-8.58004E-19
 -1      1468 9.52316E-05-2.85697E-05-2.85693E-05 3.69186E-09 7.68867E-19-1.02502E-18
 -1      1469 9.52348E-05-2.85706E-05-2.85704E-05 1.11428E-09 9.13333E-19-9.50507E-19
 -1      1470 9.52357E-05-2.85709E-05-2.85706E-05 9.99094E-10 8.23821E-19 1.19259E-18
 -1      1471 9.52340E-05-2.85705E-05-2.85701E-05 2.63494E-09 3.49101E-19-1.05545E-18
 -1      1472 9.52364E-05-2.85711E-05-2.85709E-05 5.10183E-10 3.33301E-19 1.27823E-18
 -1      1473 9.52368E-05-2.85712E-05-2.85710E-05 3.79145E-10-6.33900E-20 1.62114E-18
 -1      1474 9.52358E-05-2.85710E-05-2.85706E-05 1.52516E-09 1.23310E-18-5.32491E-19
 -1      1475 9.52372E-05-2.85712E-05-2.85712E-05-7.37402E-11-1.86391E-18 2.02111E-18
 -1      1476 9.52369E-05-2.85713E-05-2.85710E-05 3.33411E-10-1.41399E-18 7.44714E-19
 -1      1477 1.29362E-04-3.82476E-05-3.95193E-05-7.73867E-07-1.24884E-19 6.10165E-18
 -1      1478 1.31043E-04-3.78235E-05-4.07252E-05 5.93274E-07-3.21873E-20 5.77226E-18
 -1      1479 1.28282E-04-3.48069E-05-4.04951E-05 6.02994E-06-1.69036E-19 4.83169E-18
 -1      1480 1.31840E-04-3.94050E-05-3.96589E-05-2.65178E-06-3.41725E-20 6.26031E-18
 -1      1481 1.29613E-04-3.82214E-05-3.93488E-05-2.23901E-06-1.63451E-19 5.96798E-18
 -1      1482 1.27624E-04-3.74169E-05-3.89052E-05-2.15289E-06-2.10991E-19 4.72491E-18
 -1      1483 1.36799E-04-4.12250E-05-4.08525E-05-3.03960E-06-2.12608E-19 6.62316E-18
 -1      1484 1.33583E-04-3.99864E-05-4.00827E-05-2.93426E-06-8.04814E-20 6.36434E-18
 -1      1485 1.29941E-04-3.88069E-05-3.91032E-05-4.97924E-06-1.60652E-19 4.79164E-18
 -1      1486 1.40801E-04-4.28959E-05-4.16850E-05-1.46673E-06-1.04635E-19 7.01918E-18
 -1      1487 1.38651E-04-4.21359E-05-4.12493E-05-1.95249E-06-2.14564E-19 6.62952E-18
 -1      1488 1.33808E-04-4.07481E-05-3.97749E-05-4.41477E-06-2.82221E-19 4.84119E-18
 -1      1489 1.39736E-04-4.30195E-05-4.10248E-05 2.59291E-06-5.08882E-19 7.79715E-18
 -1      1490 1.41205E-04-4.36560E-05-4.16093E-05 1.26329E-06-3.30846E-19 7.25478E-18
 -1      1491 1.36607E-04-4.26226E-05-3.99947E-05 1.78152E-07-4.86515E-19 5.19352E-18
 -1      1492 1.30071E-04-3.99141E-05-3.83552E-05 8.09791E-06-4.79103E-19 8.94149E-18
 -1      1493 1.37214E-04-4.28012E-05-4.02598E-05 6.23401E-06-5.38845E-19 8.09022E-18
 -1      1494 1.35390E-04-4.29917E-05-3.92640E-05 8.58445E-06-9.85470E-19 5.79201E-18
 -1      1495 1.13169E-04-3.34505E-05-3.46119E-05 1.09576E-05-1.36902E-19 9.67079E-18
 -1      1496 1.24646E-04-3.80425E-05-3.71818E-05 9.88025E-06-2.75431E-19 9.24791E-18
 -1      1497 1.28347E-04-3.98859E-05-3.77984E-05 1.64257E-05-5.48295E-19 6.03087E-18
 -1      1498 9.87947E-05-2.74582E-05-3.18268E-05 6.00496E-06-1.33778E-19 9.59805E-18
 -1      1499 1.07732E-04-3.06700E-05-3.36766E-05 7.38563E-06-6.27863E-20 9.44569E-18
 -1      1500 1.17492E-04-3.33237E-05-3.65427E-05 1.55543E-05-2.15782E-19 6.36233E-18
 -1      1501 9.92471E-05-2.76855E-05-3.18672E-05-4.42633E-06 6.12828E-19 8.85785E-18
 -1      1502 9.82420E-05-2.65359E-05-3.16948E-05-1.40458E-06 3.87518E-20 9.13467E-18
 -1      1503 1.11222E-04-2.87242E-05-3.61524E-05 2.24384E-06 2.85662E-19 5.54961E-18
 -1      1504 1.14393E-04-3.39969E-05-3.47882E-05-1.09274E-05 1.08373E-18 7.08755E-18
 -1      1505 1.04199E-04-2.95108E-05-3.26535E-05-9.03389E-06 9.40101E-19 8.52412E-18
 -1      1506 1.15673E-04-3.14239E-05-3.67376E-05-1.31430E-05 1.29522E-18 5.06679E-18
 -1      1507 1.31759E-04-4.05668E-05-3.86587E-05-9.24565E-06 6.52383E-19 4.73089E-18
 -1      1508 1.20327E-04-3.64032E-05-3.60042E-05-9.50297E-06 8.88735E-19 6.13781E-18
 -1      1509 1.26438E-04-3.83635E-05-3.79964E-05-1.77157E-05 1.68078E-18 4.32791E-18
 -1      1510 1.41218E-04-4.35206E-05-4.13159E-05-3.55613E-06 2.51648E-19 4.00996E-18
 -1      1511 1.34812E-04-4.17363E-05-3.95827E-05-4.82827E-06 8.67944E-20 4.06322E-18
 -1      1512 1.34732E-04-4.29494E-05-3.93190E-05-1.13104E-05 8.79008E-19 2.96557E-18
 -1      1513 1.41495E-04-4.31124E-05-4.18397E-05 1.22740E-06 3.16314E-19 3.39236E-18
 -1      1514 1.40906E-04-4.33966E-05-4.15055E-05 1.35288E-07 3.76400E-19 3.70408E-18
 -1      1515 1.36655E-04-4.32609E-05-3.99282E-05-2.03487E-06 5.89667E-19 1.93248E-18
 -1      1516 1.36026E-04-4.10056E-05-4.06405E-05 3.60244E-06 5.14480E-19 2.76842E-18
 -1      1517 1.39062E-04-4.23007E-05-4.13441E-05 3.03682E-06 1.92793E-19 3.02412E-18
 -1      1518 1.33423E-04-4.11908E-05-3.94528E-05 4.44272E-06 4.86620E-19 1.14982E-18
 -1      1519 1.28423E-04-3.84710E-05-3.85954E-05 4.13617E-06-2.57347E-19 2.98166E-18
 -1      1520 1.32776E-04-3.99831E-05-3.97661E-05 3.97235E-06 2.96837E-19 3.48003E-18
 -1      1521 1.27609E-04-3.85642E-05-3.81277E-05 7.18754E-06 2.14405E-20 2.09259E-18
 -1      1522 1.20913E-04-3.61296E-05-3.64162E-05 3.74341E-06-6.16458E-19 3.97068E-18
 -1      1523 1.25186E-04-3.74825E-05-3.76340E-05 3.78376E-06-7.07977E-19 3.05821E-18
 -1      1524 1.21209E-04-3.61952E-05-3.64252E-05 7.41659E-06-7.49359E-19 2.39219E-18
 -1      1525 1.14471E-04-3.41916E-05-3.44796E-05 3.04354E-06 9.45739E-19 3.03248E-18
 -1      1526 1.18083E-04-3.52740E-05-3.55396E-05 3.15702E-06 5.67856E-19 4.12198E-18
 -1      1527 1.15315E-04-3.42794E-05-3.47309E-05 6.47012E-06 1.24428E-19 1.88745E-18
 -1      1528 1.09337E-04-3.26756E-05-3.29107E-05 2.33937E-06-3.28732E-19 2.46704E-18
 -1      1529 1.12167E-04-3.34950E-05-3.37541E-05 2.46199E-06 2.25417E-19 2.70913E-18
 -1      1530 1.10365E-04-3.27929E-05-3.32493E-05 5.18982E-06 6.54220E-19 1.69305E-18
 -1      1531 1.05411E-04-3.15271E-05-3.17033E-05 1.74276E-06-2.88931E-19 3.29452E-18
 -1      1532 1.07539E-04-3.21295E-05-3.23422E-05 1.84999E-06-4.25975E-19 2.88134E-18
 -1      1533 1.06424E-04-3.16619E-05-3.20456E-05 3.97420E-06-4.67867E-19 2.17497E-18
 -1      1534 1.02483E-04-3.06740E-05-3.08010E-05 1.27492E-06-3.16130E-19 4.30621E-18
 -1      1535 1.04046E-04-3.11097E-05-3.12717E-05 1.36083E-06-4.22140E-19 3.78805E-18
 -1      1536 1.03390E-04-3.08114E-05-3.11092E-05 2.96264E-06-9.93732E-19 2.29794E-18
 -1      1537 1.00332E-04-3.00483E-05-3.01383E-05 9.22104E-07 1.36609E-19 4.95092E-18
 -1      1538 1.01463E-04-3.03603E-05-3.04797E-05 9.88097E-07-3.91185E-19 4.47920E-18
 -1      1539 1.01102E-04-3.01775E-05-3.03998E-05 2.17282E-06-6.69103E-19 2.81465E-18
 -1      1540 9.87678E-05-2.95936E-05-2.96571E-05 6.61383E-07 9.97585E-19 3.76372E-18
 -1      1541 9.95796E-05-2.98155E-05-2.99021E-05 7.11017E-07 7.97673E-19 4.84746E-18
 -1      1542 9.94019E-05-2.97087E-05-2.98715E-05 1.57639E-06 8.32316E-19 3.64124E-18
 -1      1543 9.76407E-05-2.92660E-05-2.93106E-05 4.70731E-07 1.85164E-20 2.05050E-18
 -1      1544 9.82185E-05-2.94226E-05-2.94851E-05 5.07674E-07 2.61209E-19 2.78630E-18
 -1      1545 9.81515E-05-2.93646E-05-2.94827E-05 1.13398E-06 1.24525E-18 1.82972E-18
 -1      1546 9.68352E-05-2.90319E-05-2.90632E-05 3.32098E-07-2.24414E-20 2.79184E-18
 -1      1547 9.72431E-05-2.91415E-05-2.91864E-05 3.59455E-07-5.62149E-19 2.11246E-18
 -1      1548 9.72404E-05-2.91140E-05-2.91993E-05 8.09005E-07-3.69363E-19 9.73382E-19
 -1      1549 9.62653E-05-2.88663E-05-2.88883E-05 2.31660E-07-2.71413E-19 2.92851E-18
 -1      1550 9.65503E-05-2.89421E-05-2.89745E-05 2.51859E-07 5.22553E-19 3.79146E-18
 -1      1551 9.65828E-05-2.89331E-05-2.89946E-05 5.71647E-07-1.72117E-19 1.79682E-18
 -1      1552 9.58671E-05-2.87507E-05-2.87661E-05 1.59159E-07-5.17240E-19 3.75709E-18
 -1      1553 9.60634E-05-2.88023E-05-2.88255E-05 1.74033E-07-6.39242E-19 3.28812E-18
 -1      1554 9.61132E-05-2.88041E-05-2.88482E-05 3.99014E-07-6.97749E-19 3.20680E-18
 -1      1555 9.55935E-05-2.86714E-05-2.86821E-05 1.07084E-07-1.21648E-19 3.89780E-18
 -1      1556 9.57262E-05-2.87058E-05-2.87223E-05 1.17996E-07-1.23251E-19 3.64917E-18
 -1      1557 9.57821E-05-2.87134E-05-2.87450E-05 2.74016E-07-3.14229E-20 2.92900E-18
 -1      1558 9.54096E-05-2.86183E-05-2.86256E-05 6.99509E-08 3.08917E-19 3.21443E-18
 -1      1559 9.54970E-05-2.86404E-05-2.86522E-05 7.79114E-08-2.67676E-21 3.87394E-18
 -1      1560 9.55527E-05-2.86508E-05-2.86732E-05 1.84040E-07 5.45360E-21 2.94102E-18
 -1      1561 9.52900E-05-2.85838E-05-2.85887E-05 4.37485E-08-1.51840E-19 2.97953E-18
 -1      1562 9.53453E-05-2.85974E-05-2.86056E-05 4.95087E-08 2.22323E-19 3.38044E-18
 -1      1563 9.53971E-05-2.86087E-05-2.86244E-05 1.19806E-07-1.92673E-19 2.43074E-18
 -1      1564 9.52156E-05-2.85626E-05-2.85658E-05 2.55295E-08-3.38678E-19 2.44791E-18
 -1      1565 9.52486E-05-2.85702E-05-2.85759E-05 2.96507E-08-5.74775E-19 1.95858E-18
 -1      1566 9.52948E-05-2.85813E-05-2.85921E-05 7.44744E-08-2.25427E-19 8.38184E-19
 -1      1567 9.51728E-05-2.85505E-05-2.85525E-05 1.31178E-08-5.17252E-19 3.21835E-18
 -1      1568 9.51905E-05-2.85541E-05-2.85580E-05 1.60216E-08-1.08222E-19 3.24232E-18
 -1      1569 9.52304E-05-2.85643E-05-2.85717E-05 4.29845E-08-8.26319E-19 1.32870E-18
 -1      1570 9.51514E-05-2.85446E-05-2.85457E-05 4.90049E-09 5.65739E-19 4.45552E-18
 -1      1571 9.51589E-05-2.85456E-05-2.85482E-05 6.90524E-09 8.61772E-20 4.41690E-18
 -1      1572 9.51924E-05-2.85546E-05-2.85594E-05 2.15787E-08-5.90040E-19 3.52421E-18
 -1      1573 9.51441E-05-2.85428E-05-2.85433E-05-3.20465E-10 5.26728E-19 3.49934E-18
 -1      1574 9.51450E-05-2.85422E-05-2.85438E-05 1.02620E-09 8.86037E-20 3.53929E-18
 -1      1575 9.51727E-05-2.85499E-05-2.85529E-05 7.45900E-09 7.05268E-19 2.81279E-18
 -1      1576 9.51457E-05-2.85435E-05-2.85437E-05-3.43344E-09-3.09664E-19 3.07161E-18
 -1      1577 9.51426E-05-2.85420E-05-2.85429E-05-2.56260E-09-5.24526E-20 3.09925E-18
 -1      1578 9.51651E-05-2.85484E-05-2.85502E-05-1.45897E-09-9.15255E-20 1.64687E-18
 -1      1579 9.51526E-05-2.85457E-05-2.85457E-05-5.09415E-09 6.06638E-19 4.23164E-19
 -1      1580 9.51473E-05-2.85437E-05-2.85442E-05-4.56180E-09 7.68619E-19 1.94242E-18
 -1      1581 9.51651E-05-2.85490E-05-2.85499E-05-6.72351E-09 8.75368E-19 1.55643E-19
 -1      1582 9.51622E-05-2.85487E-05-2.85485E-05-5.78267E-09 9.65791E-19-1.56355E-18
 -1      1583 9.51559E-05-2.85465E-05-2.85467E-05-5.48600E-09 9.72215E-19 1.77169E-19
 -1      1584 9.51699E-05-2.85508E-05-2.85511E-05-9.47807E-09 1.62983E-18-1.84398E-18
 -1      1585 9.51729E-05-2.85520E-05-2.85517E-05-5.84636E-09-8.74991E-19 5.98115E-19
 -1      1586 9.51663E-05-2.85498E-05-2.85498E-05-5.70918E-09-9.44472E-19-1.29374E-18
 -1      1587 9.51771E-05-2.85532E-05-2.85532E-05-1.05595E-08-6.30414E-19-1.57419E-18
 -1      1588 9.51835E-05-2.85552E-05-2.85549E-05-5.53263E-09 2.47848E-19 1.66103E-18
 -1      1589 9.51773E-05-2.85532E-05-2.85531E-05-5.49915E-09-2.20435E-19 1.16568E-18
 -1      1590 9.51854E-05-2.85558E-05-2.85556E-05-1.05725E-08-1.11678E-18-1.96205E-18
 -1      1591 9.51936E-05-2.85582E-05-2.85579E-05-5.01371E-09 6.71644E-19-2.56507E-19
 -1      1592 9.51878E-05-2.85564E-05-2.85562E-05-5.04384E-09 7.49801E-19 1.33431E-18
 -1      1593 9.51938E-05-2.85584E-05-2.85581E-05-9.94656E-09 6.52659E-19-9.46644E-19
 -1      1594 9.52026E-05-2.85609E-05-2.85607E-05-4.40571E-09-9.96890E-19 8.14420E-19
 -1      1595 9.51975E-05-2.85594E-05-2.85592E-05-4.47132E-09-4.39683E-19 3.07976E-19
 -1      1596 9.52019E-05-2.85608E-05-2.85605E-05-8.97929E-09-9.93037E-20 5.73897E-19
 -1      1597 9.52105E-05-2.85633E-05-2.85631E-05-3.78285E-09-7.05156E-19 2.03551E-18
 -1      1598 9.52062E-05-2.85620E-05-2.85618E-05-3.86501E-09-5.34120E-19 9.68441E-19
 -1      1599 9.52092E-05-2.85630E-05-2.85626E-05-7.86955E-09-9.37568E-19 1.41060E-18
 -1      1600 9.52173E-05-2.85653E-05-2.85651E-05-3.18809E-09-1.32165E-18 3.54776E-18
 -1      1601 9.52136E-05-2.85642E-05-2.85640E-05-3.27496E-09-8.39492E-19 2.46685E-18
 -1      1602 9.52156E-05-2.85649E-05-2.85646E-05-6.74236E-09-1.24158E-18 1.75981E-18
 -1      1603 9.52230E-05-2.85670E-05-2.85668E-05-2.64042E-09 5.77703E-19 4.51730E-18
 -1      1604 9.52200E-05-2.85661E-05-2.85659E-05-2.72594E-09-7.39035E-19 3.57961E-18
 -1      1605 9.52211E-05-2.85666E-05-2.85662E-05-5.66702E-09-9.99084E-19 1.96229E-18
 -1      1606 9.52277E-05-2.85684E-05-2.85683E-05-2.13945E-09 2.23226E-18 2.01803E-18
 -1      1607 9.52252E-05-2.85677E-05-2.85675E-05-2.22268E-09 1.26632E-18 3.81650E-18
 -1      1608 9.52258E-05-2.85680E-05-2.85676E-05-4.66956E-09 1.75618E-18-6.50863E-20
 -1      1609 9.52315E-05-2.85695E-05-2.85694E-05-1.66807E-09 1.58388E-18-1.00070E-18
 -1      1610 9.52295E-05-2.85690E-05-2.85688E-05-1.75305E-09 2.03248E-18 1.66051E-18
 -1      1611 9.52296E-05-2.85691E-05-2.85688E-05-3.74055E-09 2.93029E-18-9.62233E-19
 -1      1612 9.52343E-05-2.85704E-05-2.85702E-05-1.19560E-09-1.82052E-19-1.11404E-18
 -1      1613 9.52328E-05-2.85700E-05-2.85698E-05-1.29149E-09 9.62049E-20-1.11946E-18
 -1      1614 9.52326E-05-2.85700E-05-2.85697E-05-2.84173E-09 9.97196E-19 2.25505E-19
 -1      1615 9.52361E-05-2.85709E-05-2.85708E-05-6.80081E-10 2.57508E-18-5.27171E-18
 -1      1616 9.52352E-05-2.85707E-05-2.85705E-05-8.04994E-10 2.29024E-18-1.56213E-18
 -1      1617 9.52349E-05-2.85707E-05-2.85703E-05-1.91692E-09 2.33443E-18-1.17628E-18
 -1      1618 9.52370E-05-2.85712E-05-2.85711E-05-1.53570E-10-7.95219E-19-6.16623E-18
 -1      1619 9.52367E-05-2.85711E-05-2.85709E-05-2.89449E-10 3.09306E-19-5.86936E-18
 -1      1620 9.52363E-05-2.85711E-05-2.85708E-05-9.23876E-10 1.60091E-18-2.61410E-18
 -1      1621 9.52372E-05-2.85712E-05-2.85712E-05 4.88796E-11-3.67508E-18-4.00453E-18
 -1      1622 9.52372E-05-2.85719E-05-2.85708E-05-5.40724E-10-1.80714E-18 2.92460E-18
 -1      1623 9.52371E-05-2.85715E-05-2.85710E-05-4.03431E-10-4.22841E-18 1.25563E-18
 -1      1624 9.52377E-05-2.85734E-05-2.85704E-05-1.05589E-09 1.73917E-18 1.17341E-18
 -1      1625 9.52374E-05-2.85725E-05-2.85707E-05-9.63753E-10-2.60437E-19 1.88175E-18
 -1      1626 9.52373E-05-2.85725E-05-2.85706E-05-1.48719E-09-1.20475E-18 4.24494E-18
 -1      1627 9.52384E-05-2.85755E-05-2.85698E-05-1.36217E-09 8.06356E-19-8.79487E-19
 -1      1628 9.52380E-05-2.85743E-05-2.85701E-05-1.32031E-09 1.85263E-18 3.33691E-19
 -1      1629 9.52379E-05-2.85741E-05-2.85702E-05-2.31083E-09 5.23889E-19 1.55401E-18
 -1      1630 9.52392E-05-2.85778E-05-2.85691E-05-1.42235E-09-7.32640E-19-9.01869E-19
 -1      1631 9.52387E-05-2.85765E-05-2.85695E-05-1.43043E-09 1.48362E-18-1.05481E-18
 -1      1632 9.52386E-05-2.85760E-05-2.85697E-05-2.70438E-09 1.39042E-18-1.02915E-18
 -1      1633 9.52399E-05-2.85799E-05-2.85685E-05-1.26320E-09-4.24209E-18-2.82017E-19
 -1      1634 9.52395E-05-2.85788E-05-2.85689E-05-1.31062E-09-1.95741E-18-1.93381E-18
 -1      1635 9.52392E-05-2.85779E-05-2.85691E-05-2.64311E-09-1.51030E-19-2.72554E-18
 -1      1636 9.52404E-05-2.85816E-05-2.85680E-05-9.24005E-10-3.82691E-18 1.07517E-18
 -1      1637 9.52401E-05-2.85807E-05-2.85683E-05-1.00293E-09-5.37202E-18 1.34691E-18
 -1      1638 9.52399E-05-2.85797E-05-2.85687E-05-2.19140E-09-1.98005E-18-7.94805E-19
 -1      1639 9.52407E-05-2.85826E-05-2.85678E-05-4.62702E-10-1.80665E-18-1.62510E-19
 -1      1640 9.52406E-05-2.85822E-05-2.85679E-05-5.60224E-10-2.99985E-18 2.25345E-18
 -1      1641 9.52403E-05-2.85810E-05-2.85683E-05-1.43540E-09-2.86185E-18 2.04679E-18
 -1      1642 9.52408E-05-2.85828E-05-2.85677E-05 5.72056E-11 2.18540E-18 2.34182E-18
 -1      1643 9.52408E-05-2.85828E-05-2.85677E-05-4.64623E-11-1.12988E-18 1.70724E-18
 -1      1644 9.52405E-05-2.85817E-05-2.85681E-05-4.92411E-10 2.31972E-19 2.14117E-18
 -1      1645 9.52406E-05-2.85821E-05-2.85679E-05 5.69704E-10 2.20724E-18-1.51639E-18
 -1      1646 9.52407E-05-2.85826E-05-2.85678E-05 4.72636E-10 2.77317E-18 1.24103E-18
 -1      1647 9.52405E-05-2.85817E-05-2.85681E-05 5.12587E-10 1.46531E-18 2.42246E-18
 -1      1648 9.52401E-05-2.85807E-05-2.85683E-05 1.00930E-09-2.62707E-18-2.67988E-18
 -1      1649 9.52404E-05-2.85816E-05-2.85681E-05 9.31394E-10 1.73016E-18-3.44815E-18
 -1      1650 9.52403E-05-2.85810E-05-2.85683E-05 1.45196E-09-4.46459E-19-3.23462E-18
 -1      1651 9.52395E-05-2.85788E-05-2.85689E-05 1.31046E-09-5.39629E-18-2.03341E-19
 -1      1652 9.52399E-05-2.85799E-05-2.85685E-05 1.26398E-09-3.57735E-18-1.26027E-18
 -1      1653 9.52398E-05-2.85797E-05-2.85687E-05 2.19722E-09-1.70199E-18-4.13461E-18
 -1      1654 9.52387E-05-2.85765E-05-2.85695E-05 1.42865E-09-4.16757E-18 9.84521E-19
 -1      1655 9.52392E-05-2.85778E-05-2.85692E-05 1.42153E-09-5.49004E-18 1.62686E-18
 -1      1656 9.52392E-05-2.85779E-05-2.85691E-05 2.64283E-09-2.05591E-18 9.13557E-19
 -1      1657 9.52380E-05-2.85743E-05-2.85702E-05 1.31717E-09-2.52895E-18 1.81494E-18
 -1      1658 9.52384E-05-2.85755E-05-2.85698E-05 1.35714E-09-4.16042E-18 1.82037E-18
 -1      1659 9.52385E-05-2.85759E-05-2.85697E-05 2.69810E-09-1.91370E-18 2.14335E-18
 -1      1660 9.52374E-05-2.85725E-05-2.85707E-05 9.62008E-10-3.29032E-18-7.14828E-19
 -1      1661 9.52377E-05-2.85734E-05-2.85704E-05 1.05635E-09-2.39382E-18-7.45471E-20
 -1      1662 9.52379E-05-2.85741E-05-2.85702E-05 2.29777E-09-1.77977E-18 9.07520E-19
 -1      1663 9.52371E-05-2.85716E-05-2.85709E-05 6.38754E-10-1.51302E-18 2.63810E-19
 -1      1664 9.52372E-05-2.85720E-05-2.85708E-05 8.35614E-10-2.13600E-18 4.13237E-20
 -1      1665 9.52372E-05-2.85727E-05-2.85705E-05 1.79172E-09-2.36123E-19 2.02205E-19
 -1      1666 9.52366E-05-2.85717E-05-2.85707E-05 1.29437E-09 9.79064E-19-7.30486E-19
 -1      1667 2.03612E-05-6.92506E-05 1.49182E-05-9.52993E-06 5.91780E-18 1.61614E-18
 -1      1668 2.34901E-05-7.69808E-05 1.64958E-05-8.66431E-07 4.41018E-18 1.49586E-18
 -1      1669 2.08948E-05-4.37686E-05 5.21010E-06 2.14395E-07 6.19605E-18 3.23249E-18
 -1      1670 2.51523E-05-6.51405E-05 1.10612E-05-2.50337E-06 5.91737E-18 2.30128E-18
 -1      1671 3.78635E-05-1.82839E-05-1.10323E-05 2.46409E-05 6.57298E-18 4.59007E-18
 -1      1672 3.19131E-05-3.96013E-05-1.84965E-06 7.18709E-06 6.77542E-18 3.83113E-18
 -1      1673 7.73050E-05-6.57347E-06-3.04085E-05 5.56340E-05 4.92380E-18 4.34867E-18
 -1      1674 5.27547E-05-1.34784E-05-2.01860E-05 3.21669E-05 6.42474E-18 4.34189E-18
 -1      1675 1.49832E-04-2.34933E-05-5.08731E-05 7.38257E-05 2.88838E-18 1.65002E-18
 -1      1676 1.05795E-04-1.25990E-05-4.03055E-05 5.84756E-05 4.06237E-18 3.13995E-18
 -1      1677 2.24455E-04-4.88899E-05-6.84993E-05 6.85855E-05 1.26144E-18-2.10234E-18
 -1      1678 1.75052E-04-2.68033E-05-6.01713E-05 7.49421E-05 2.42971E-18 9.41901E-19
 -1      1679 2.72910E-04-7.01213E-05-7.87761E-05 2.82797E-05 8.47033E-21-4.27963E-18
 -1      1680 2.43618E-04-5.44078E-05-7.44568E-05 5.79105E-05 5.00067E-19-2.71559E-18
 -1      1681 2.64650E-04-6.42682E-05-7.87582E-05-2.37283E-05 5.75135E-19-4.08355E-18
 -1      1682 2.69652E-04-6.67326E-05-7.94585E-05 1.26773E-05-1.62207E-19-3.97004E-18
 -1      1683 2.24319E-04-4.62202E-05-7.09510E-05-6.29628E-05 1.29347E-18-4.43761E-18
 -1      1684 2.61399E-04-6.51966E-05-7.65361E-05-3.85149E-05 7.90599E-19-4.62480E-18
 -1      1685 1.52347E-04-2.24596E-05-5.39812E-05-6.62373E-05 1.62503E-18-3.24752E-18
 -1      1686 2.02573E-04-4.22650E-05-6.34931E-05-6.68729E-05 1.46134E-18-3.84976E-18
 -1      1687 8.89269E-05-1.49610E-05-3.33340E-05-4.77079E-05 6.23416E-19-1.96850E-18
 -1      1688 1.28031E-04-2.08438E-05-4.42283E-05-6.66814E-05 1.21126E-18-3.16621E-18
 -1      1689 3.95736E-05-2.06577E-05-1.28286E-05-1.94905E-05-1.03846E-18-6.60686E-19
 -1      1690 5.76134E-05-7.52561E-06-2.31288E-05-4.34097E-05 4.61633E-19-1.79571E-18
 -1      1691 2.58408E-05-4.86307E-05 3.57342E-06 1.01580E-06-2.78674E-18 3.11708E-19
 -1      1692 2.61010E-05-2.57831E-05-4.25070E-06-1.11282E-05-1.47299E-18-3.10014E-19
 -1      1693 2.32739E-05-7.01646E-05 1.33316E-05 5.70396E-06-3.81673E-18 4.48292E-19
 -1      1694 1.80830E-05-5.37512E-05 9.37699E-06 8.85992E-06-3.12555E-18 4.75450E-19
 -1      1695 2.12913E-05-7.01976E-05 1.49610E-05 2.86187E-07-3.54483E-18 1.75336E-19
 -1      1696 2.07483E-05-6.97849E-05 1.48608E-05 9.10904E-06-3.70090E-18 5.21984E-19
 -1      1697 1.83518E-05-5.34170E-05 9.76428E-06-1.74248E-06-3.29496E-18-6.46710E-19
 -1      1698 2.32202E-05-7.00342E-05 1.36673E-05 3.29728E-06-3.60497E-18-1.56278E-19
 -1      1699 2.05284E-05-2.31610E-05-2.30885E-06 1.24298E-05-2.62411E-18-1.03253E-18
 -1      1700 2.30025E-05-4.65722E-05 4.56242E-06 3.70198E-06-3.11793E-18-8.16646E-19
 -1      1701 4.69960E-05-2.39705E-06-1.99667E-05 4.37824E-05-1.08420E-18 2.15146E-19
 -1      1702 3.47689E-05-1.87575E-05-1.04251E-05 2.26906E-05-2.28614E-18-4.28599E-19
 -1      1703 9.25799E-05 7.47556E-07-3.84304E-05 7.18016E-05 3.42201E-19 1.11215E-18
 -1      1704 6.29273E-05 1.69296E-06-2.90286E-05 5.14380E-05-6.94567E-19 3.27802E-19
 -1      1705 1.65548E-04-2.37263E-05-5.67821E-05 7.87462E-05 6.75085E-19 2.76048E-18
 -1      1706 1.19594E-04-6.20708E-06-4.74044E-05 7.22911E-05 5.59889E-19 1.58903E-18
 -1      1707 2.29190E-04-5.13516E-05-7.04239E-05 5.75761E-05 4.97936E-19 4.92126E-18
 -1      1708 1.89671E-04-3.02195E-05-6.44451E-05 7.52812E-05 6.45227E-19 3.47961E-18
 -1      1709 2.55112E-04-6.36051E-05-7.60183E-05 8.35992E-06 1.63477E-19 5.27543E-18
 -1      1710 2.39876E-04-5.49063E-05-7.38623E-05 4.06165E-05 4.31563E-19 5.03222E-18
 -1      1711 2.47053E-04-5.85171E-05-7.49323E-05-3.99847E-05-1.20787E-18 5.88603E-18
 -1      1712 2.59423E-04-6.58707E-05-7.66148E-05-7.99205E-06-4.92338E-19 5.35304E-18
 -1      1713 1.98895E-04-3.46474E-05-6.61980E-05-7.09539E-05-1.57400E-18 5.25076E-18
 -1      1714 2.33726E-04-5.31946E-05-7.14230E-05-5.23497E-05-1.32550E-18 5.85046E-18
 -1      1715 1.37387E-04-1.17062E-05-5.18718E-05-7.50557E-05-1.95665E-18 3.69222E-18
 -1      1716 1.78630E-04-2.89949E-05-5.97186E-05-7.63675E-05-1.72202E-18 4.60617E-18
 -1      1717 8.19400E-05-8.94981E-07-3.49827E-05-6.03845E-05-1.22989E-18 2.55211E-18
 -1      1718 1.14418E-04-6.49152E-06-4.38887E-05-7.64088E-05-1.67374E-18 3.32630E-18
 -1      1719 4.29021E-05-6.36981E-06-1.81755E-05-3.35698E-05 5.26854E-19 7.28448E-19
 -1      1720 6.13459E-05 3.57896E-06-2.74796E-05-5.58456E-05-5.89535E-19 2.00747E-18
 -1      1721 1.02255E-04-2.69909E-05-3.16014E-05-4.98408E-05 3.12979E-19 2.16163E-18
 -1      1722 2.69046E-05-3.48186E-05-1.26952E-06-9.80480E-06 2.02441E-18-2.29969E-19
 -1      1723 2.88403E-05-1.34535E-05-8.89516E-06-2.41649E-05 1.06980E-18 2.44793E-19
 -1      1724 2.45941E-05-6.25147E-05 1.03053E-05-1.90726E-06 2.71559E-18-3.31825E-19
 -1      1725 2.01155E-05-4.14620E-05 4.85562E-06-4.24122E-06 2.18111E-18-6.80062E-19
 -1      1726 2.44803E-05-7.86492E-05 1.65109E-05-4.51149E-06 3.85209E-18 1.54584E-19
 -1      1727 2.12526E-05-6.83076E-05 1.42162E-05 3.61626E-06 3.23948E-18-2.04135E-19
 -1      1728 1.23699E-04-4.03561E-05-3.52276E-05 4.12491E-05 3.74304E-18 1.26801E-18
 -1      1729 7.67182E-05-4.17573E-05-1.69513E-05 3.61635E-05 4.54433E-18 2.58896E-18
 -1      1730 9.52370E-05-2.85712E-05-2.85711E-05-1.33327E-10-4.68549E-18-2.53622E-18
 -1      1731 9.52369E-05-2.85716E-05-2.85709E-05-6.86858E-10-1.64285E-18 1.66268E-18
 -1      1732 1.83378E-05-4.78722E-05 8.61695E-06 1.17935E-05 3.18103E-18 2.14257E-18
 -1      1733 4.21291E-05-4.58527E-05-1.65025E-06 2.63405E-05 3.73372E-18 2.94884E-18
 -1      1734 1.15393E-05-5.12172E-05 1.23247E-05-3.94470E-06 3.25277E-18 1.55388E-18
 -1      1735 1.71908E-04-4.10745E-05-5.31876E-05 3.60108E-05 3.13720E-18-3.65918E-19
 -1      1736 2.12025E-04-4.05476E-05-6.77178E-05 2.69144E-05 2.41150E-18-1.07743E-18
 -1      1737 2.23623E-04-3.61873E-05-7.39906E-05 8.06450E-06 5.75135E-19-8.54021E-19
 -1      1738 2.19258E-04-3.61946E-05-7.25565E-05-1.00295E-05 3.01544E-19-1.83594E-18
 -1      1739 1.98549E-04-4.05375E-05-6.33401E-05-2.36937E-05 2.78462E-19-1.74235E-18
 -1      1740 1.59065E-04-4.53731E-05-4.72199E-05-3.18465E-05-2.97732E-19-1.43403E-18
 -1      1741 1.08729E-04-4.19722E-05-2.87946E-05-3.96852E-05-7.25907E-19-1.69195E-18
 -1      1742 5.88952E-05-4.06384E-05-1.06626E-05-3.11690E-05-1.60005E-18-1.20173E-18
 -1      1743 2.84807E-05-4.51039E-05 2.92859E-06-1.74056E-05-1.89481E-18-5.20078E-19
 -1      1744 1.27281E-05-4.64707E-05 9.94488E-06-2.78487E-06-1.92319E-18 6.90332E-20
 -1      1745 1.16185E-05-4.55786E-05 1.02096E-05 9.33574E-06-1.88126E-18 2.00747E-19
 -1      1746 2.29583E-05-4.12428E-05 4.02597E-06 2.19570E-05-1.75251E-18-1.75336E-19
 -1      1747 4.86786E-05-3.32784E-05-8.73067E-06 3.66856E-05-1.19940E-18 4.54963E-19
 -1      1748 8.49537E-05-2.80777E-05-2.48476E-05 4.65876E-05-7.89435E-19 1.14604E-18
 -1      1749 1.29053E-04-2.68990E-05-4.21816E-05 4.97317E-05-2.37169E-19 1.61868E-18
 -1      1750 1.73041E-04-3.01619E-05-5.78103E-05 4.13389E-05-1.12973E-19 2.85450E-18
 -1      1751 2.03417E-04-3.24199E-05-6.84671E-05 2.42634E-05-3.51519E-20 3.70789E-18
 -1      1752 2.14508E-04-3.37113E-05-7.22141E-05-7.37986E-07-4.52739E-19 3.60090E-18
 -1      1753 2.07685E-04-3.37643E-05-6.94347E-05-2.26516E-05-7.86047E-19 3.65834E-18
 -1      1754 1.79198E-04-3.06172E-05-5.99172E-05-3.74527E-05-4.32199E-19 3.36441E-18
 -1      1755 1.42931E-04-2.94551E-05-4.63041E-05-4.69976E-05-5.43372E-19 2.57837E-18
 -1      1756 3.57714E-05-4.11933E-05-8.52262E-07-2.91899E-05 1.74912E-18 3.21793E-19
 -1      1757 1.86204E-05-4.86022E-05 8.61762E-06-1.76003E-05 2.21923E-18 2.74227E-19
 -1      1758 1.14480E-04-2.53814E-05-3.82710E-05-1.71714E-05-3.04747E-19-3.63970E-18
 -1      1759 6.36477E-05-3.14916E-05-1.54349E-05-4.08261E-05 1.49163E-18 9.92723E-19
 -1      1760 9.59783E-05-1.38119E-05-3.53426E-05-1.24970E-05 7.07299E-19-2.15668E-18
 -1      1761 9.75367E-05-1.46139E-05-3.57340E-05-1.48514E-05 4.90637E-19-2.48318E-18
 -1      1762 9.96958E-05-1.64063E-05-3.58673E-05-1.60914E-05 2.69581E-19-2.65450E-18
 -1      1763 1.01636E-04-1.81966E-05-3.63136E-05-1.80904E-05-3.43710E-20-3.02745E-18
 -1      1764 1.01026E-04-1.97943E-05-3.48407E-05-1.41388E-05 3.57360E-19-2.40356E-18
 -1      1765 9.05806E-05-1.18515E-05-3.38153E-05-3.50932E-06 1.15875E-18-1.02531E-18
 -1      1766 9.20205E-05-1.21710E-05-3.43031E-05-5.81896E-06 1.12957E-18-1.31587E-18
 -1      1767 8.67280E-05-1.05805E-05-3.27045E-05 1.21764E-06 1.28441E-18-5.55058E-19
 -1      1768 8.87786E-05-1.11634E-05-3.33106E-05-1.00418E-06 1.25261E-18-8.33480E-19
 -1      1769 9.21888E-05-1.51209E-05-3.30994E-05-2.20085E-06 1.24182E-18-8.71782E-19
 -1      1770 8.14645E-05-8.38514E-06-3.13963E-05 5.45697E-06 1.42954E-18-3.28887E-20
 -1      1771 8.41829E-05-9.34816E-06-3.20809E-05 3.59227E-06 1.40038E-18-3.20046E-19
 -1      1772 8.77100E-05-1.32739E-05-3.19837E-05 2.75890E-06 1.42048E-18-3.86313E-19
 -1      1773 7.51428E-05-5.21038E-06-3.00588E-05 8.48706E-06 1.57266E-18 2.31293E-19
 -1      1774 7.82357E-05-6.48935E-06-3.07219E-05 7.27280E-06 1.51217E-18 8.33136E-20
 -1      1775 8.16098E-05-1.02063E-05-3.06847E-05 7.14376E-06 1.54675E-18 5.16293E-20
 -1      1776 6.90150E-05-1.59922E-06-2.89827E-05 9.62153E-06 1.54665E-18 5.22355E-19
 -1      1777 7.17621E-05-2.90456E-06-2.94656E-05 9.27836E-06 1.57223E-18 3.23047E-19
 -1      1778 7.44888E-05-6.02852E-06-2.94020E-05 1.00068E-05 1.68536E-18 2.72089E-19
 -1      1779 6.50840E-05 1.31130E-06-2.85257E-05 8.65359E-06 1.54962E-18 7.72521E-19
 -1      1780 6.64844E-05 4.35837E-07-2.86474E-05 9.14178E-06 1.57530E-18 6.11406E-19
 -1      1781 6.80000E-05-1.66471E-06-2.84486E-05 1.05235E-05 1.67886E-18 5.89320E-19
 -1      1782 6.53190E-05 2.22497E-06-2.89809E-05 6.30486E-06 1.50021E-18 1.10292E-18
 -1      1783 6.45516E-05 2.18907E-06-2.86153E-05 7.18586E-06 1.50022E-18 8.86939E-19
 -1      1784 6.45213E-05 1.28290E-06-2.81787E-05 8.63988E-06 1.65449E-18 8.30251E-19
 -1      1785 7.07705E-05 3.86493E-07-3.04983E-05 3.90163E-06 1.41223E-18 1.53142E-18
 -1      1786 6.74758E-05 1.38384E-06-2.95889E-05 4.56715E-06 1.45240E-18 1.25802E-18
 -1      1787 6.60598E-05 1.35582E-06-2.88565E-05 5.38342E-06 1.57829E-18 1.13526E-18
 -1      1788 8.11332E-05-4.22262E-06-3.29676E-05 2.98322E-06 1.21821E-18 2.05517E-18
 -1      1789 7.56294E-05-2.23177E-06-3.15991E-05 2.78875E-06 1.29965E-18 1.73844E-18
 -1      1790 7.34037E-05-2.07597E-06-3.05591E-05 2.47555E-06 1.42145E-18 1.57673E-18
 -1      1791 9.51372E-05-1.12265E-05-3.60308E-05 4.42181E-06 8.30463E-19 2.73475E-18
 -1      1792 8.80548E-05-8.26255E-06-3.43963E-05 3.01691E-06 9.87548E-19 2.31653E-18
 -1      1793 8.57822E-05-8.61813E-06-3.30825E-05 1.38170E-06 1.11546E-18 2.09991E-18
 -1      1794 1.11974E-04-2.11598E-05-3.90508E-05 7.51091E-06 3.34247E-19 3.68200E-18
 -1      1795 1.03451E-04-1.64879E-05-3.74933E-05 5.35985E-06 5.62800E-19 3.17044E-18
 -1      1796 1.01457E-04-1.75750E-05-3.59505E-05 2.26613E-06 6.58237E-19 2.80373E-18
 -1      1797 1.24926E-04-3.20253E-05-4.02160E-05 6.15644E-06-3.75871E-20 4.40203E-18
 -1      1798 1.17627E-04-2.52053E-05-3.96285E-05 7.57949E-06 1.50772E-19 3.98079E-18
 -1      1799 1.15237E-04-2.67505E-05-3.79482E-05 2.50164E-06 1.97385E-19 3.57985E-18
 -1      1800 1.23927E-04-3.36336E-05-3.88523E-05 7.41702E-07 1.31290E-20 4.32431E-18
 -1      1801 1.07994E-04-2.16800E-05-3.66639E-05-1.93195E-05-2.68787E-19-3.22942E-18
 -1      1802 1.24845E-04-3.61465E-05-3.80446E-05-5.04027E-06-1.17513E-19 4.04021E-18
 -1      1803 1.24542E-04-3.53156E-05-3.82657E-05-2.40681E-06-1.01273E-19 4.07444E-18
 -1      1804 1.20597E-04-3.23863E-05-3.78416E-05-1.66625E-06-2.24728E-20 3.58185E-18
 -1      1805 7.01208E-05-4.23325E-05-1.30327E-05-4.13691E-05 1.84230E-18 8.49892E-19
 -1      1806 8.88811E-05-3.93239E-05-2.12010E-05-4.66223E-05 1.52720E-18 1.63160E-18
 -1      1807 1.07744E-04-2.52424E-05-3.50702E-05-1.50875E-05-1.41455E-19-2.96848E-18
 -1      1808 1.04541E-04-2.99854E-05-3.18453E-05-7.47610E-06-2.32405E-20-2.59223E-18
 -1      1809 1.02139E-04-2.99223E-05-3.09560E-05-6.27581E-06-1.40290E-21-2.61711E-18
 -1      1810 1.00944E-04-3.00256E-05-3.03082E-05-5.62710E-06-1.41339E-19-2.33835E-18
 -1      1811 9.92420E-05-2.97824E-05-2.97548E-05-5.42246E-06-2.90936E-20-2.34038E-18
 -1      1812 1.02780E-04-2.99196E-05-3.12300E-05-7.91410E-06 1.20437E-20-2.02284E-18
 -1      1813 9.80627E-05-2.95451E-05-2.93188E-05-5.34352E-06 1.54468E-20-2.20142E-18
 -1      1814 9.65020E-05-2.90723E-05-2.88825E-05-5.39448E-06 3.08464E-20-2.14543E-18
 -1      1815 1.00529E-04-3.01554E-05-3.01616E-05-7.01293E-06-3.23874E-20-1.63256E-18
 -1      1816 9.53055E-05-2.86159E-05-2.85620E-05-5.37622E-06-1.23131E-19-2.05472E-18
 -1      1817 9.38268E-05-2.79945E-05-2.81876E-05-5.29166E-06-2.33047E-19-2.11394E-18
 -1      1818 9.82056E-05-2.95043E-05-2.94436E-05-6.88796E-06-7.47246E-20-1.47420E-18
 -1      1819 9.26503E-05-2.74066E-05-2.79506E-05-4.94997E-06-4.41473E-19-1.95458E-18
 -1      1820 9.13719E-05-2.67615E-05-2.76501E-05-4.49776E-06-3.28510E-19-2.04924E-18
 -1      1821 9.58030E-05-2.82875E-05-2.89423E-05-6.49020E-06-2.47424E-19-1.30115E-18
 -1      1822 9.03811E-05-2.61963E-05-2.74914E-05-3.63288E-06-1.79885E-19-2.08173E-18
 -1      1823 8.95215E-05-2.57091E-05-2.73005E-05-2.75974E-06 9.47750E-20-1.95918E-18
 -1      1824 9.35618E-05-2.68651E-05-2.86055E-05-5.14617E-06-1.45251E-19-1.03943E-18
 -1      1825 8.89483E-05-2.53611E-05-2.72224E-05-1.42387E-06 7.35198E-20-2.05900E-18
 -1      1826 8.87075E-05-2.52028E-05-2.71729E-05-2.76780E-07 1.01445E-20-1.90082E-18
 -1      1827 9.19265E-05-2.57166E-05-2.84113E-05-2.67297E-06 2.07887E-20-1.19302E-18
 -1      1828 8.87185E-05-2.52140E-05-2.71755E-05 1.23378E-06-2.40154E-19-1.99329E-18
 -1      1829 8.91685E-05-2.54555E-05-2.72767E-05 2.36376E-06-5.68902E-20-1.95489E-18
 -1      1830 9.13393E-05-2.52952E-05-2.83451E-05 5.40813E-07-1.10793E-19-1.26055E-18
 -1      1831 8.97457E-05-2.58241E-05-2.73530E-05 3.64218E-06-9.49670E-20-2.23905E-18
 -1      1832 9.07797E-05-2.63913E-05-2.75839E-05 4.45718E-06-1.40564E-19-2.34214E-18
 -1      1833 9.19698E-05-2.57918E-05-2.83933E-05 3.68750E-06-3.05038E-19-1.71009E-18
 -1      1834 9.17155E-05-2.69708E-05-2.77174E-05 5.18763E-06-9.75875E-20-2.38317E-18
 -1      1835 9.30866E-05-2.76875E-05-2.80312E-05 5.51915E-06-1.58223E-20-2.41178E-18
 -1      1836 9.35772E-05-2.70185E-05-2.85380E-05 5.93653E-06-1.90199E-19-1.75414E-18
 -1      1837 9.40954E-05-2.82782E-05-2.81973E-05 5.60708E-06-1.38197E-19-2.40504E-18
 -1      1838 9.55144E-05-2.89567E-05-2.85352E-05 5.46497E-06-7.48185E-21-2.26029E-18
 -1      1839 9.56304E-05-2.85253E-05-2.87536E-05 6.82860E-06-2.73892E-20-1.48581E-18
 -1      1840 9.63603E-05-2.94053E-05-2.87059E-05 5.02959E-06 1.82815E-19-2.29055E-18
 -1      1841 9.75887E-05-2.99194E-05-2.90136E-05 4.55641E-06 2.06641E-19-1.99881E-18
 -1      1842 9.75726E-05-2.98532E-05-2.90054E-05 6.40768E-06 8.49854E-20-1.20013E-18
 -1      1843 9.81520E-05-3.01657E-05-2.91629E-05 3.82866E-06 2.75319E-20-1.95704E-18
 -1      1844 9.90537E-05-3.04732E-05-2.94028E-05 3.21128E-06 5.06632E-20-1.97193E-18
 -1      1845 9.90296E-05-3.07244E-05-2.92532E-05 5.08361E-06 3.27209E-19-8.30535E-19
 -1      1846 9.93241E-05-3.05364E-05-2.95127E-05 2.41871E-06-3.80305E-20-1.95482E-18
 -1      1847 9.98648E-05-3.06587E-05-2.96684E-05 1.81383E-06 1.98824E-19-2.01195E-18
 -1      1848 9.98726E-05-3.10904E-05-2.94602E-05 3.37722E-06 1.47536E-20-1.05433E-18
 -1      1849 9.98943E-05-3.05948E-05-2.97311E-05 1.11438E-06 2.04552E-19-2.11739E-18
 -1      1850 1.00112E-04-3.05820E-05-2.98047E-05 6.17218E-07-5.34971E-20-2.08601E-18
 -1      1851 1.00155E-04-3.10560E-05-2.96008E-05 1.71617E-06 2.47648E-19-1.45851E-18
 -1      1852 9.99735E-05-3.04494E-05-2.98216E-05 8.73151E-08-4.57610E-19-2.14495E-18
 -1      1853 9.99429E-05-3.03545E-05-2.98274E-05-2.66038E-07-4.71132E-19-2.21660E-18
 -1      1854 1.00016E-04-3.07774E-05-2.96654E-05 3.55401E-07-3.33582E-19-1.51882E-18
 -1      1855 9.97043E-05-3.01978E-05-2.98066E-05-6.13056E-07-5.46776E-19-2.33297E-18
 -1      1856 9.95077E-05-3.00638E-05-2.97636E-05-8.27361E-07-4.88877E-19-2.65424E-18
 -1      1857 9.96058E-05-3.03927E-05-2.96586E-05-6.10649E-07-5.82743E-19-1.35062E-18
 -1      1858 9.92225E-05-2.99107E-05-2.97159E-05-1.01495E-06-2.87337E-19-2.92519E-18
 -1      1859 9.89336E-05-2.97670E-05-2.96433E-05-1.11597E-06-1.14529E-19-2.88325E-18
 -1      1860 9.90529E-05-2.99961E-05-2.95946E-05-1.19644E-06-5.41514E-19-1.82858E-18
 -1      1861 9.86394E-05-2.96315E-05-2.95798E-05-1.18248E-06 2.35269E-19-2.63556E-18
 -1      1862 9.83150E-05-2.94957E-05-2.94934E-05-1.20224E-06 8.28218E-19-2.40327E-18
 -1      1863 9.84511E-05-2.96394E-05-2.94915E-05-1.47193E-06 2.17192E-19-1.31633E-18
 -1      1864 9.80359E-05-2.93828E-05-2.94234E-05-1.18699E-06 8.37738E-19-2.51593E-18
 -1      1865 9.77153E-05-2.92638E-05-2.93351E-05-1.15515E-06 6.30945E-19-2.37235E-18
 -1      1866 9.78623E-05-2.93438E-05-2.93671E-05-1.52358E-06 7.92462E-19-1.40911E-18
 -1      1867 9.74649E-05-2.91737E-05-2.92656E-05-1.09148E-06 5.43801E-19-2.63142E-18
 -1      1868 9.71720E-05-2.90748E-05-2.91829E-05-1.03163E-06 7.51442E-19-1.81590E-18
 -1      1869 9.73234E-05-2.91116E-05-2.92363E-05-1.43181E-06 7.13741E-19-1.39881E-18
 -1      1870 9.69566E-05-2.90049E-05-2.91186E-05-9.44604E-07 5.45342E-19-1.36700E-18
 -1      1871 9.67037E-05-2.89260E-05-2.90458E-05-8.73613E-07 1.09673E-18-1.49934E-18
 -1      1872 9.68529E-05-2.89364E-05-2.91099E-05-1.26113E-06 8.82305E-19-9.11059E-19
 -1      1873 9.65245E-05-2.88731E-05-2.89893E-05-7.80330E-07 1.36707E-18-1.55629E-18
 -1      1874 9.63154E-05-2.88122E-05-2.89282E-05-7.09105E-07 7.81533E-19-1.72446E-18
 -1      1875 9.64569E-05-2.88084E-05-2.89950E-05-1.05808E-06 1.07998E-18-1.71138E-18
 -1      1876 9.61706E-05-2.87731E-05-2.88806E-05-6.20127E-07 3.17414E-19-1.69447E-18
 -1      1877 9.60041E-05-2.87276E-05-2.88311E-05-5.54964E-07 1.15164E-20-1.70356E-18
 -1      1878 9.61336E-05-2.87174E-05-2.88952E-05-8.53216E-07 8.36991E-19-2.14040E-18
 -1      1879 9.58901E-05-2.86993E-05-2.87923E-05-4.75997E-07-5.45616E-19-1.84536E-18
 -1      1880 9.57617E-05-2.86663E-05-2.87537E-05-4.19925E-07-7.36831E-19-1.95315E-18
 -1      1881 9.58768E-05-2.86545E-05-2.88119E-05-6.64535E-07-2.37611E-19-1.86012E-18
 -1      1882 9.56743E-05-2.86462E-05-2.87231E-05-3.53347E-07-7.31742E-19-1.62631E-18
 -1      1883 9.55785E-05-2.86231E-05-2.86939E-05-3.07260E-07-5.20809E-19-1.38897E-18
 -1      1884 9.56779E-05-2.86122E-05-2.87444E-05-5.00976E-07-4.02745E-19-1.64609E-18
 -1      1885 9.55131E-05-2.86093E-05-2.86704E-05-2.53339E-07 1.43109E-19-1.34957E-18
 -1      1886 9.54439E-05-2.85938E-05-2.86490E-05-2.16855E-07 6.75442E-19-1.40066E-18
 -1      1887 9.55277E-05-2.85849E-05-2.86914E-05-3.65467E-07 1.88071E-20-8.85429E-19
 -1      1888 9.53964E-05-2.85846E-05-2.86315E-05-1.74652E-07 3.90695E-19-1.42277E-18
 -1      1889 9.53482E-05-2.85746E-05-2.86164E-05-1.46712E-07 2.06615E-19-1.75431E-18
 -1      1890 9.54173E-05-2.85681E-05-2.86510E-05-2.57258E-07 2.85470E-19-1.31808E-18
 -1      1891 9.53146E-05-2.85688E-05-2.86037E-05-1.14697E-07-6.63450E-20-1.74729E-18
 -1      1892 9.52825E-05-2.85629E-05-2.85935E-05-9.39682E-08-4.42389E-19-1.46401E-18
 -1      1893 9.53383E-05-2.85585E-05-2.86209E-05-1.73601E-07 3.82629E-19-1.12568E-18
 -1      1894 9.52597E-05-2.85595E-05-2.85846E-05-7.04144E-08-7.58499E-19-7.13845E-19
 -1      1895 9.52396E-05-2.85564E-05-2.85780E-05-5.55278E-08-1.02540E-18-1.99822E-19
 -1      1896 9.52837E-05-2.85538E-05-2.85993E-05-1.10864E-07-3.07663E-19-3.58497E-19
 -1      1897 9.52248E-05-2.85546E-05-2.85721E-05-3.87500E-08-8.35480E-19-1.89419E-19
 -1      1898 9.52133E-05-2.85535E-05-2.85681E-05-2.84395E-08-8.33701E-20-1.36722E-19
 -1      1899 9.52475E-05-2.85522E-05-2.85843E-05-6.52399E-08-5.77410E-19 1.50241E-19
 -1      1900 9.52043E-05-2.85528E-05-2.85644E-05-1.69202E-08-1.97184E-20-2.15435E-19
 -1      1901 9.51989E-05-2.85528E-05-2.85623E-05-1.00862E-08-1.38588E-19-3.13363E-19
 -1      1902 9.52248E-05-2.85525E-05-2.85743E-05-3.31501E-08-4.23206E-19-1.97992E-19
 -1      1903 9.51941E-05-2.85528E-05-2.85601E-05-2.53090E-09-2.39826E-19-1.38180E-18
 -1      1904 9.51927E-05-2.85537E-05-2.85594E-05 1.73881E-09-7.39930E-20-1.57910E-18
 -1      1905 9.52119E-05-2.85540E-05-2.85680E-05-1.14479E-08-6.64193E-19-2.03764E-19
 -1      1906 9.51906E-05-2.85541E-05-2.85583E-05 6.39076E-09 7.38500E-19-2.42378E-18
 -1      1907 9.51918E-05-2.85553E-05-2.85583E-05 8.82624E-09 3.01839E-19-1.97811E-18
 -1      1908 9.52057E-05-2.85560E-05-2.85644E-05 2.50557E-09 1.20149E-19-5.84492E-19
 -1      1909 9.51916E-05-2.85559E-05-2.85580E-05 1.14161E-08-4.49122E-19-1.95561E-18
 -1      1910 9.51942E-05-2.85573E-05-2.85586E-05 1.25843E-08-3.00921E-19-1.72406E-18
 -1      1911 9.52040E-05-2.85582E-05-2.85626E-05 1.08447E-08 9.36520E-20-1.73678E-18
 -1      1912 9.51952E-05-2.85581E-05-2.85587E-05 1.37607E-08 3.92509E-19-5.18654E-19
 -1      1913 9.51985E-05-2.85595E-05-2.85595E-05 1.40898E-08 5.68777E-19-1.91351E-19
 -1      1914 9.52051E-05-2.85603E-05-2.85621E-05 1.52439E-08 8.52479E-19 4.22915E-19
 -1      1915 9.52001E-05-2.85602E-05-2.85600E-05 1.43391E-08-5.41360E-19-9.06943E-19
 -1      1916 9.52037E-05-2.85615E-05-2.85609E-05 1.41434E-08-1.02959E-18-1.07034E-18
 -1      1917 9.52079E-05-2.85624E-05-2.85624E-05 1.69809E-08-7.22076E-19 1.69495E-18
 -1      1918 9.52056E-05-2.85622E-05-2.85615E-05 1.38205E-08-1.39075E-18-1.07852E-18
 -1      1919 9.52091E-05-2.85634E-05-2.85624E-05 1.33238E-08-1.55086E-18-1.27118E-18
 -1      1920 9.52116E-05-2.85642E-05-2.85632E-05 1.70046E-08-1.03925E-18 9.31105E-19
 -1      1921 9.52111E-05-2.85641E-05-2.85630E-05 1.26788E-08-1.94126E-18-1.53627E-18
 -1      1922 9.52144E-05-2.85651E-05-2.85640E-05 1.20342E-08-1.20445E-18-2.19818E-18
 -1      1923 9.52156E-05-2.85658E-05-2.85642E-05 1.59990E-08-2.18427E-18 6.01718E-19
 -1      1924 9.52163E-05-2.85657E-05-2.85646E-05 1.12365E-08-5.39761E-20-2.01599E-18
 -1      1925 9.52192E-05-2.85666E-05-2.85654E-05 1.05428E-08 1.11280E-18-2.07430E-18
 -1      1926 9.52195E-05-2.85671E-05-2.85653E-05 1.44395E-08-5.04076E-19 5.32654E-19
 -1      1927 9.52209E-05-2.85671E-05-2.85660E-05 9.69934E-09 2.55054E-18-2.06442E-18
 -1      1928 9.52235E-05-2.85678E-05-2.85667E-05 9.01381E-09 3.11683E-18-7.56600E-19
 -1      1929 9.52231E-05-2.85682E-05-2.85664E-05 1.26404E-08 1.74531E-18 2.84654E-19
 -1      1930 9.52250E-05-2.85683E-05-2.85672E-05 8.18376E-09 2.57371E-18-7.60740E-19
 -1      1931 9.52272E-05-2.85689E-05-2.85678E-05 7.53160E-09 2.73579E-18 8.50998E-19
 -1      1932 9.52264E-05-2.85691E-05-2.85674E-05 1.07922E-08 3.21378E-18 1.31492E-18
 -1      1933 9.52285E-05-2.85693E-05-2.85683E-05 6.73763E-09 2.12468E-18 2.82493E-19
 -1      1934 9.52302E-05-2.85698E-05-2.85688E-05 6.11867E-09 1.53023E-18 2.23606E-19
 -1      1935 9.52293E-05-2.85699E-05-2.85683E-05 8.99076E-09 2.09933E-18 1.10928E-18
 -1      1936 9.52314E-05-2.85701E-05-2.85691E-05 5.35619E-09 2.83485E-19-5.94902E-19
 -1      1937 9.52328E-05-2.85705E-05-2.85695E-05 4.75077E-09 6.23933E-20-5.64628E-19
 -1      1938 9.52317E-05-2.85706E-05-2.85690E-05 7.26079E-09 2.96789E-19-3.42408E-19
 -1      1939 9.52337E-05-2.85708E-05-2.85698E-05 3.99806E-09 3.82886E-19-1.38165E-18
 -1      1940 9.52347E-05-2.85712E-05-2.85701E-05 3.37563E-09 6.34049E-19-6.23710E-19
 -1      1941 9.52337E-05-2.85712E-05-2.85696E-05 5.57797E-09-4.73278E-19-5.90879E-19
 -1      1942 9.52354E-05-2.85714E-05-2.85703E-05 2.65349E-09 3.47053E-19-4.45082E-19
 -1      1943 9.52361E-05-2.85716E-05-2.85705E-05 2.02386E-09 7.29520E-19-5.84988E-19
 -1      1944 9.52364E-05-2.85720E-05-2.85704E-05 2.39550E-09 4.21139E-19-5.25746E-19
 -1      1945 9.52353E-05-2.85717E-05-2.85701E-05 3.94411E-09 2.36641E-19-3.65317E-19
 -1      1946 1.27789E-04-3.85548E-05-3.82765E-05-6.86307E-06-1.01834E-19 3.93272E-18
 -1      1947 1.26199E-04-3.73595E-05-3.80206E-05-6.06350E-06-6.01724E-20 3.92137E-18
 -1      1948 1.22331E-04-3.56604E-05-3.72057E-05-6.72344E-06-7.95152E-20 3.17484E-18
 -1      1949 1.31772E-04-4.18195E-05-3.86265E-05-4.47834E-06-1.58250E-19 4.01899E-18
 -1      1950 1.30092E-04-4.03944E-05-3.84028E-05-5.79016E-06-1.97716E-19 3.98852E-18
 -1      1951 1.26057E-04-3.94168E-05-3.71918E-05-7.34190E-06-2.19865E-19 3.18813E-18
 -1      1952 1.35071E-04-4.49975E-05-3.86575E-05 3.24807E-06-8.18049E-19 4.25368E-18
 -1      1953 1.34632E-04-4.41208E-05-3.87619E-05-7.73943E-07-5.42366E-19 4.06096E-18
 -1      1954 1.31482E-04-4.43526E-05-3.73911E-05-2.49599E-06-4.97897E-19 3.17356E-18
 -1      1955 1.34693E-04-4.47476E-05-3.85196E-05 1.42163E-05-8.18088E-19 4.48282E-18
 -1      1956 1.36791E-04-4.61277E-05-3.89505E-05 8.78690E-06-9.43105E-19 4.35417E-18
 -1      1957 1.36052E-04-4.79069E-05-3.79942E-05 8.55471E-06-1.17570E-18 3.11263E-18
 -1      1958 1.29113E-04-3.85939E-05-3.89070E-05 2.20021E-05-3.76030E-19 4.85742E-18
 -1      1959 1.34404E-04-4.32240E-05-3.92176E-05 1.83364E-05-5.45746E-19 4.63343E-18
 -1      1960 1.37967E-04-4.58385E-05-3.99050E-05 2.10740E-05-7.65030E-19 3.44094E-18
 -1      1961 1.20318E-04-2.84145E-05-3.99418E-05 1.36054E-05 5.24102E-20 4.64087E-18
 -1      1962 1.25552E-04-3.30930E-05-4.00009E-05 1.79646E-05-8.66091E-20 4.52301E-18
 -1      1963 1.32450E-04-3.51949E-05-4.21162E-05 2.12875E-05-1.84865E-19 3.27594E-18
 -1      1964 1.19037E-04-2.66828E-05-4.03139E-05-7.40065E-06 1.07637E-18 3.87094E-18
 -1      1965 1.19402E-04-2.63160E-05-4.03014E-05 2.45737E-06 5.23890E-19 4.29998E-18
 -1      1966 1.27254E-04-2.55357E-05-4.41928E-05 4.81168E-06 6.88638E-19 3.08853E-18
 -1      1967 1.27323E-04-3.58699E-05-3.96534E-05-2.13896E-05 1.83552E-18 3.67986E-18
 -1      1968 1.22491E-04-3.10150E-05-3.95382E-05-1.52522E-05 1.36182E-18 3.72499E-18
 -1      1969 1.29753E-04-2.95050E-05-4.33897E-05-1.62410E-05 1.27881E-18 2.67075E-18
 -1      1970 1.35614E-04-4.46414E-05-3.89601E-05-1.83988E-05 1.80094E-18 2.78952E-18
 -1      1971 1.30242E-04-4.06837E-05-3.86113E-05-1.96474E-05 1.98862E-18 3.41955E-18
 -1      1972 1.35846E-04-4.13783E-05-4.06915E-05-2.27673E-05 2.07020E-18 2.00583E-18
 -1      1973 1.37085E-04-4.62380E-05-3.87119E-05-6.66441E-06 9.47479E-19 1.44094E-18
 -1      1974 1.34639E-04-4.54487E-05-3.83650E-05-1.14502E-05 1.20512E-18 2.36642E-18
 -1      1975 1.37293E-04-4.80377E-05-3.83981E-05-1.34945E-05 1.58671E-18 1.41889E-18
 -1      1976 1.33098E-04-4.32235E-05-3.83610E-05 3.48978E-06 1.04643E-18 7.74387E-19
 -1      1977 1.33738E-04-4.43400E-05-3.83931E-05-6.90423E-07 9.90076E-19 1.17705E-18
 -1      1978 1.32986E-04-4.65412E-05-3.71980E-05-6.74790E-07 1.38339E-18 3.54516E-19
 -1      1979 1.26950E-04-3.93335E-05-3.75088E-05 8.71436E-06-7.64844E-20 8.80358E-19
 -1      1980 1.29455E-04-4.09300E-05-3.79853E-05 6.49626E-06 1.64377E-19 9.61250E-19
 -1      1981 1.26434E-04-4.16492E-05-3.64540E-05 7.97687E-06 4.55360E-19 7.39407E-19
 -1      1982 1.20683E-04-3.61899E-05-3.62325E-05 9.99989E-06-6.48695E-19 2.31452E-18
 -1      1983 1.23867E-04-3.76240E-05-3.69830E-05 9.38356E-06-1.35955E-19 1.64003E-18
 -1      1984 1.20109E-04-3.71353E-05-3.56224E-05 1.15359E-05-4.97844E-19 1.49683E-18
 -1      1985 1.15106E-04-3.39742E-05-3.48082E-05 9.19187E-06-6.64291E-19 1.61274E-18
 -1      1986 1.18234E-04-3.51030E-05-3.56278E-05 9.45128E-06-5.23369E-19 2.07109E-18
 -1      1987 1.14765E-04-3.40721E-05-3.46030E-05 1.17168E-05-4.20611E-19 1.52146E-18
 -1      1988 1.10447E-04-3.24494E-05-3.34600E-05 7.61465E-06 9.05700E-19 1.21429E-18
 -1      1989 1.13173E-04-3.33017E-05-3.42153E-05 8.21234E-06-1.68546E-20 1.26659E-18
 -1      1990 1.10406E-04-3.22024E-05-3.35150E-05 1.02856E-05 3.96650E-20 9.55354E-19
 -1      1991 1.06697E-04-3.13810E-05-3.23010E-05 5.96218E-06 4.82577E-20 1.62475E-18
 -1      1992 1.08917E-04-3.20161E-05-3.29349E-05 6.60882E-06 6.65014E-19 1.32982E-18
 -1      1993 1.06891E-04-3.10683E-05-3.24875E-05 8.36240E-06 4.42403E-19 8.33578E-19
 -1      1994 1.03756E-04-3.06128E-05-3.13611E-05 4.51869E-06-1.08655E-18 1.59882E-18
 -1      1995 1.05491E-04-3.10836E-05-3.18648E-05 5.09206E-06-6.03190E-19 1.52310E-18
 -1      1996 1.04086E-04-3.03470E-05-3.15943E-05 6.50424E-06-4.15731E-19 9.43230E-19
 -1      1997 1.01491E-04-3.00496E-05-3.06259E-05 3.35790E-06-3.14143E-19 1.59699E-18
 -1      1998 1.02812E-04-3.03973E-05-3.10130E-05 3.82340E-06-8.72206E-19 1.67093E-18
 -1      1999 1.01875E-04-2.98576E-05-3.08591E-05 4.92495E-06-9.18783E-19 1.26555E-18
 -1      2000 9.97714E-05-2.96326E-05-3.00640E-05 2.46371E-06-6.29516E-19 1.62795E-18
 -1      2001 1.00761E-04-2.98884E-05-3.03555E-05 2.82495E-06-6.85845E-19 1.54789E-18
 -1      2002 1.00156E-04-2.95069E-05-3.02750E-05 3.66600E-06-2.68384E-19 5.64192E-19
 -1      2003 9.84812E-05-2.93233E-05-2.96414E-05 1.79082E-06 2.14186E-18 1.54223E-18
 -1      2004 9.92131E-05-2.95105E-05-2.98578E-05 2.06441E-06 6.64792E-19 1.77400E-18
 -1      2005 9.88356E-05-2.92472E-05-2.98222E-05 2.69697E-06 5.99542E-19 3.54417E-19
 -1      2006 9.75226E-05-2.90945E-05-2.93273E-05 1.29098E-06 4.29014E-19 4.65722E-19
 -1      2007 9.80587E-05-2.92307E-05-2.94863E-05 1.49543E-06 1.71314E-18 1.43818E-18
 -1      2008 9.78325E-05-2.90523E-05-2.94770E-05 1.96577E-06 1.68988E-18 6.36611E-20
 -1      2009 9.68172E-05-2.89267E-05-2.90962E-05 9.22470E-07-8.28537E-19 1.78599E-19
 -1      2010 9.72063E-05-2.90249E-05-2.92119E-05 1.07410E-06-6.22850E-19 2.09283E-19
 -1      2011 9.70790E-05-2.89060E-05-2.92174E-05 1.42037E-06-2.94899E-19-2.37405E-20
 -1      2012 9.63036E-05-2.88049E-05-2.89279E-05 6.52164E-07-6.62564E-19 1.90768E-18
 -1      2013 9.65833E-05-2.88749E-05-2.90113E-05 7.64048E-07-6.78767E-19 6.22463E-19
 -1      2014 9.65190E-05-2.87971E-05-2.90244E-05 1.01653E-06-1.04622E-18 3.77268E-19
 -1      2015 9.59341E-05-2.87178E-05-2.88067E-05 4.54789E-07 4.21531E-20 2.05140E-18
 -1      2016 9.61327E-05-2.87671E-05-2.88661E-05 5.36984E-07-4.24757E-19 2.34278E-18
 -1      2017 9.61077E-05-2.87173E-05-2.88825E-05 7.19131E-07-5.48421E-19 8.60849E-19
 -1      2018 9.56720E-05-2.86567E-05-2.87205E-05 3.11438E-07-1.79595E-19 1.86687E-18
 -1      2019 9.58110E-05-2.86907E-05-2.87622E-05 3.71513E-07 4.40689E-20 1.96846E-18
 -1      2020 9.58096E-05-2.86599E-05-2.87793E-05 5.01273E-07 2.66753E-19 1.07413E-18
 -1      2021 9.54894E-05-2.86147E-05-2.86602E-05 2.08063E-07 2.54271E-19 1.79544E-18
 -1      2022 9.55848E-05-2.86377E-05-2.86890E-05 2.51675E-07-9.82442E-21 2.31749E-18
 -1      2023 9.55968E-05-2.86195E-05-2.87053E-05 3.42680E-07-1.10489E-19 1.32351E-18
 -1      2024 9.53651E-05-2.85869E-05-2.86188E-05 1.34237E-07 1.36789E-19 1.13177E-18
 -1      2025 9.54290E-05-2.86018E-05-2.86383E-05 1.65609E-07-1.56690E-19 1.84486E-18
 -1      2026 9.54477E-05-2.85921E-05-2.86531E-05 2.28165E-07-8.50970E-20 1.06974E-18
 -1      2027 9.52831E-05-2.85692E-05-2.85913E-05 8.22026E-08-1.31857E-19 4.05746E-19
 -1      2028 9.53244E-05-2.85785E-05-2.86040E-05 1.04494E-07 1.73344E-20 1.14682E-18
 -1      2029 9.53457E-05-2.85741E-05-2.86169E-05 1.46365E-07 8.90981E-20 6.37768E-19
 -1      2030 9.52314E-05-2.85588E-05-2.85737E-05 4.61735E-08-1.76560E-18 1.95353E-18
 -1      2031 9.52567E-05-2.85640E-05-2.85816E-05 6.17539E-08-1.48660E-18 8.93881E-19
 -1      2032 9.52780E-05-2.85631E-05-2.85926E-05 8.87616E-08-1.52618E-18 1.05604E-18
 -1      2033 9.52009E-05-2.85533E-05-2.85630E-05 2.18191E-08 5.26233E-19 2.08344E-18
 -1      2034 9.52151E-05-2.85559E-05-2.85676E-05 3.24727E-08-8.12892E-19 2.15535E-18
 -1      2035 9.52351E-05-2.85569E-05-2.85767E-05 4.89616E-08-9.27204E-19 1.85752E-18
 -1      2036 9.51851E-05-2.85511E-05-2.85572E-05 5.89632E-09 6.63313E-19 1.76494E-18
 -1      2037 9.51917E-05-2.85519E-05-2.85595E-05 1.29668E-08 1.25956E-18 1.95946E-18
 -1      2038 9.52096E-05-2.85541E-05-2.85670E-05 2.21557E-08 1.12393E-18 1.22300E-18
 -1      2039 9.51789E-05-2.85511E-05-2.85546E-05-4.01994E-09 2.17301E-19-1.06435E-19
 -1      2040 9.51807E-05-2.85508E-05-2.85554E-05 4.78220E-10 4.07029E-19 3.31622E-19
 -1      2041 9.51962E-05-2.85534E-05-2.85614E-05 4.72935E-09 9.51307E-19 3.02984E-19
 -1      2042 9.51790E-05-2.85524E-05-2.85542E-05-9.73449E-09 1.99090E-18-1.68200E-18
 -1      2043 9.51778E-05-2.85514E-05-2.85540E-05-7.05183E-09 1.13992E-18-1.15158E-18
 -1      2044 9.51908E-05-2.85542E-05-2.85587E-05-6.02561E-09 1.74485E-18-1.85101E-18
 -1      2045 9.51829E-05-2.85544E-05-2.85550E-05-1.25805E-08 7.76938E-19-2.57172E-18
 -1      2046 9.51799E-05-2.85531E-05-2.85542E-05-1.11507E-08 1.69369E-18-2.41594E-18
 -1      2047 9.51906E-05-2.85557E-05-2.85579E-05-1.21266E-08 1.67801E-18-2.72243E-18
 -1      2048 9.51888E-05-2.85567E-05-2.85565E-05-1.35322E-08-1.76908E-18-2.35553E-18
 -1      2049 9.51849E-05-2.85552E-05-2.85555E-05-1.29412E-08-7.45441E-19-2.28938E-18
 -1      2050 9.51935E-05-2.85577E-05-2.85583E-05-1.50634E-08-7.65006E-19-2.63162E-18
 -1      2051 9.51955E-05-2.85590E-05-2.85584E-05-1.32914E-08-4.32789E-19-2.19531E-18
 -1      2052 9.51913E-05-2.85576E-05-2.85573E-05-1.32388E-08-1.46044E-18-2.54127E-18
 -1      2053 9.51982E-05-2.85597E-05-2.85594E-05-1.59233E-08-1.34694E-18-3.77369E-18
 -1      2054 9.52024E-05-2.85612E-05-2.85605E-05-1.23537E-08-3.72800E-19-8.47276E-19
 -1      2055 9.51983E-05-2.85599E-05-2.85593E-05-1.26253E-08-5.94779E-19-1.74123E-18
 -1      2056 9.52036E-05-2.85617E-05-2.85608E-05-1.54877E-08-8.36105E-19-2.57435E-18
 -1      2057 9.52089E-05-2.85633E-05-2.85624E-05-1.10594E-08-1.78989E-18 1.13392E-18
 -1      2058 9.52051E-05-2.85621E-05-2.85613E-05-1.15067E-08-6.91376E-19 7.07677E-19
 -1      2059 9.52091E-05-2.85636E-05-2.85624E-05-1.43057E-08-1.62705E-18-5.63852E-19
 -1      2060 9.52149E-05-2.85650E-05-2.85642E-05-9.63227E-09-3.74638E-19 8.65846E-19
 -1      2061 9.52114E-05-2.85640E-05-2.85632E-05-1.01563E-08-1.04381E-18 1.25405E-18
 -1      2062 9.52144E-05-2.85652E-05-2.85640E-05-1.27513E-08-1.47008E-18 1.10252E-18
 -1      2063 9.52201E-05-2.85666E-05-2.85658E-05-8.20867E-09-2.05104E-18 8.37902E-19
 -1      2064 9.52171E-05-2.85657E-05-2.85649E-05-8.74806E-09-9.28946E-19 5.81627E-19
 -1      2065 9.52192E-05-2.85666E-05-2.85654E-05-1.10672E-08-7.46384E-19-5.35286E-19
 -1      2066 9.52246E-05-2.85679E-05-2.85672E-05-6.85858E-09 1.05938E-18-1.27911E-19
 -1      2067 9.52221E-05-2.85671E-05-2.85664E-05-7.38115E-09-1.21988E-18 4.35562E-19
 -1      2068 9.52235E-05-2.85679E-05-2.85667E-05-9.39665E-09-1.00435E-18-1.05099E-18
 -1      2069 9.52284E-05-2.85690E-05-2.85683E-05-5.60023E-09 2.97087E-18-1.07897E-18
 -1      2070 9.52263E-05-2.85684E-05-2.85677E-05-6.09720E-09 2.94033E-18-1.17163E-20
 -1      2071 9.52272E-05-2.85689E-05-2.85678E-05-7.80749E-09 2.43787E-18-1.48257E-18
 -1      2072 9.52315E-05-2.85699E-05-2.85692E-05-4.40937E-09 2.48152E-18-5.16002E-19
 -1      2073 9.52298E-05-2.85694E-05-2.85688E-05-4.89238E-09 2.24277E-18-9.24049E-19
 -1      2074 9.52303E-05-2.85698E-05-2.85688E-05-6.30862E-09 2.21078E-18-1.50084E-18
 -1      2075 9.52339E-05-2.85706E-05-2.85700E-05-3.23525E-09 1.14373E-18-2.05847E-19
 -1      2076 9.52326E-05-2.85702E-05-2.85696E-05-3.72927E-09 1.13933E-18 3.60578E-19
 -1      2077 9.52328E-05-2.85705E-05-2.85695E-05-4.86478E-09 1.15385E-18-6.73748E-19
 -1      2078 9.52356E-05-2.85712E-05-2.85705E-05-2.02418E-09 3.73416E-18-1.96517E-19
 -1      2079 9.52347E-05-2.85709E-05-2.85702E-05-2.55692E-09 2.53628E-18-2.61978E-20
 -1      2080 9.52347E-05-2.85711E-05-2.85701E-05-3.42667E-09 2.85443E-18-3.88520E-20
 -1      2081 9.52366E-05-2.85715E-05-2.85708E-05-1.09728E-09-2.70553E-19 9.08925E-19
 -1      2082 9.52360E-05-2.85714E-05-2.85706E-05-1.63776E-09 2.89943E-18 7.15095E-19
 -1      2083 9.52360E-05-2.85716E-05-2.85705E-05-2.26724E-09 2.29623E-18 2.36828E-18
 -1      2084 9.52367E-05-2.85718E-05-2.85707E-05-1.40773E-09-4.68647E-19 4.96467E-18
 -1      2085 9.52387E-05-2.85764E-05-2.85696E-05-3.73925E-09 1.18522E-18-3.87336E-19
 -1      2086 9.52382E-05-2.85754E-05-2.85698E-05-3.65680E-09-1.92275E-19 1.59714E-18
 -1      2087 9.52378E-05-2.85745E-05-2.85700E-05-3.41672E-09-8.61162E-19 1.68804E-18
 -1      2088 9.52374E-05-2.85736E-05-2.85702E-05-3.05765E-09-1.14711E-18 2.57901E-18
 -1      2089 9.52379E-05-2.85749E-05-2.85698E-05-4.52053E-09-1.22977E-18 2.59121E-18
 -1      2090 9.52371E-05-2.85730E-05-2.85703E-05-2.55703E-09-1.05433E-18 2.59246E-18
 -1      2091 9.52369E-05-2.85723E-05-2.85705E-05-2.01845E-09-1.07807E-18 4.61225E-18
 -1      2092 9.52365E-05-2.85722E-05-2.85704E-05-2.48170E-09 9.14758E-20 3.97964E-18
 -1      2093 9.52371E-05-2.85734E-05-2.85701E-05-3.67158E-09-1.34612E-18 2.97454E-18
 -1      2094 9.52395E-05-2.85781E-05-2.85691E-05-3.50262E-09-4.55205E-19-4.16260E-18
 -1      2095 9.52391E-05-2.85772E-05-2.85694E-05-3.66446E-09 1.58021E-18-3.28553E-18
 -1      2096 9.52389E-05-2.85767E-05-2.85695E-05-4.68661E-09-4.25814E-19-1.41209E-18
 -1      2097 9.52402E-05-2.85796E-05-2.85688E-05-2.77345E-09-6.34596E-19-1.43887E-18
 -1      2098 9.52398E-05-2.85789E-05-2.85690E-05-3.14212E-09-1.59535E-19-2.29756E-18
 -1      2099 9.52398E-05-2.85783E-05-2.85692E-05-4.19096E-09 1.02168E-18-2.78015E-18
 -1      2100 9.52407E-05-2.85807E-05-2.85685E-05-1.67760E-09-8.06981E-19 2.85682E-18
 -1      2101 9.52404E-05-2.85802E-05-2.85687E-05-2.19009E-09-8.03525E-19 1.21909E-18
 -1      2102 9.52405E-05-2.85796E-05-2.85690E-05-3.12544E-09 1.09212E-18 9.81666E-21
 -1      2103 9.52409E-05-2.85811E-05-2.85684E-05-3.69565E-10 5.19052E-19 3.12045E-18
 -1      2104 9.52408E-05-2.85810E-05-2.85685E-05-9.55453E-10-5.60165E-19 3.66468E-18
 -1      2105 9.52409E-05-2.85804E-05-2.85688E-05-1.65657E-09 4.64874E-19 3.83959E-18
 -1      2106 9.52408E-05-2.85810E-05-2.85685E-05 9.83424E-10 1.07286E-19 2.27153E-19
 -1      2107 9.52409E-05-2.85811E-05-2.85684E-05 3.98728E-10 4.27892E-19 2.97864E-18
 -1      2108 9.52411E-05-2.85807E-05-2.85688E-05 1.89307E-11-1.10856E-18 3.49656E-18
 -1      2109 9.52404E-05-2.85802E-05-2.85687E-05 2.21174E-09-1.86920E-18-4.78509E-18
 -1      2110 9.52406E-05-2.85807E-05-2.85685E-05 1.70276E-09-7.22000E-19-2.31084E-18
 -1      2111 9.52409E-05-2.85804E-05-2.85688E-05 1.69111E-09-1.26531E-18-1.71967E-18
 -1      2112 9.52398E-05-2.85789E-05-2.85690E-05 3.14112E-09-1.29789E-18-2.22911E-18
 -1      2113 9.52402E-05-2.85796E-05-2.85688E-05 2.78172E-09-1.38830E-18-3.93818E-18
 -1      2114 9.52405E-05-2.85795E-05-2.85690E-05 3.14097E-09-1.33163E-18-4.76054E-18
 -1      2115 9.52391E-05-2.85772E-05-2.85694E-05 3.66249E-09 2.90955E-20 1.51212E-18
 -1      2116 9.52395E-05-2.85781E-05-2.85691E-05 3.50074E-09 7.34241E-20-3.64108E-19
 -1      2117 9.52398E-05-2.85782E-05-2.85692E-05 4.18992E-09 1.01059E-18-8.85155E-19
 -1      2118 9.52382E-05-2.85754E-05-2.85698E-05 3.64774E-09-3.39900E-19 2.22903E-18
 -1      2119 9.52387E-05-2.85763E-05-2.85696E-05 3.73449E-09-4.97139E-19 2.20894E-18
 -1      2120 9.52389E-05-2.85766E-05-2.85695E-05 4.68282E-09 8.77027E-19 1.62606E-18
 -1      2121 9.52374E-05-2.85736E-05-2.85702E-05 3.05594E-09-6.54898E-19 2.54675E-19
 -1      2122 9.52378E-05-2.85745E-05-2.85700E-05 3.40100E-09-2.79587E-19 1.19840E-18
 -1      2123 9.52379E-05-2.85749E-05-2.85699E-05 4.49914E-09 3.63157E-19 9.96571E-19
 -1      2124 5.99354E-05-4.35046E-05-7.78988E-06 3.71549E-05 2.66350E-18 2.70058E-18
 -1      2125 4.30590E-05-4.28997E-05-1.45994E-06 2.95550E-05 1.68517E-18 2.51526E-18
 -1      2126 1.16764E-05-3.19422E-05 7.63083E-06-7.36695E-07 1.93785E-18 2.23786E-18
 -1      2127 1.27844E-05-3.36881E-05 7.67759E-06-1.05715E-05 1.87141E-18 1.23074E-18
 -1      2128 2.57052E-05-3.51463E-05 3.11959E-06 2.26265E-05 2.16248E-18 1.81350E-18
 -1      2129 1.67862E-05-3.54334E-05 6.54253E-06 1.16090E-05 1.82154E-18 1.90413E-18
 -1      2130 1.03809E-04-5.00399E-05-2.32364E-05 3.89551E-05 3.44573E-18 1.15324E-18
 -1      2131 8.35793E-05-5.08885E-05-1.52081E-05 3.52836E-05 3.18738E-18 1.66971E-18
 -1      2132 1.01060E-04-4.13468E-05-2.63349E-05-4.19382E-05 1.44038E-18 1.77115E-18
 -1      2133 1.18753E-04-4.14366E-05-3.30750E-05-4.31619E-05 8.62280E-19 1.80333E-18
 -1      2134 1.06701E-04-5.15345E-05-2.33818E-05-4.20193E-05 1.82027E-18 1.67120E-18
 -1      2135 1.74469E-05-3.61048E-05 6.56874E-06-1.89892E-05 1.83023E-18 5.96735E-19
 -1      2136 2.37684E-05-3.34119E-05 3.23693E-06-2.78807E-05 1.42217E-18 1.41666E-19
 -1      2137 1.71238E-05-2.41554E-05 2.44173E-06-1.78673E-05 1.04386E-18 1.12782E-18
 -1      2138 1.43443E-04-5.29365E-05-3.86047E-05 3.00510E-05 3.01925E-18 2.62157E-19
 -1      2139 1.19800E-04-5.23307E-05-2.98620E-05 3.11542E-05 3.57067E-18 7.44118E-19
 -1      2140 1.25762E-04-6.18960E-05-2.72757E-05 2.92513E-05 2.67069E-18-1.96088E-19
 -1      2141 9.33615E-05-1.26688E-05-3.46752E-05-8.16037E-06 9.84629E-19-1.55851E-18
 -1      2142 9.45769E-05-1.29913E-05-3.50870E-05-1.05343E-05 8.41395E-19-1.85733E-18
 -1      2143 9.78829E-05-1.74204E-05-3.45292E-05-1.11874E-05 7.51292E-19-1.85122E-18
 -1      2144 9.53162E-05-1.62302E-05-3.39494E-05-7.01385E-06 1.07382E-18-1.35096E-18
 -1      2145 1.91842E-04-3.65349E-05-6.52792E-05 3.55748E-06 1.94733E-18 5.98429E-19
 -1      2146 1.79985E-04-3.85013E-05-6.01796E-05 7.97075E-06 2.76175E-18 3.80741E-19
 -1      2147 1.86897E-04-2.58674E-05-6.82282E-05-2.06754E-06 5.81488E-19 7.47904E-19
 -1      2148 1.91873E-04-3.05252E-05-6.76539E-05 2.11755E-06 1.27309E-18 7.24213E-19
 -1      2149 1.69729E-04-2.60405E-05-6.03850E-05-9.55323E-06 2.03373E-18 1.73388E-18
 -1      2150 1.90957E-04-3.26128E-05-6.64626E-05-2.74506E-06 3.78200E-19-2.49875E-19
 -1      2151 1.89607E-04-2.76226E-05-6.83714E-05 1.90931E-06 4.70527E-19 3.27590E-19
 -1      2152 1.74881E-04-4.14568E-05-5.67890E-05-7.26766E-06-1.67077E-19-7.96211E-20
 -1      2153 1.90218E-04-3.92579E-05-6.31880E-05-5.84390E-06-7.96211E-20-5.14573E-19
 -1      2154 1.72762E-04-3.03032E-05-5.98596E-05 9.25765E-06-5.97158E-20 1.30570E-18
 -1      2155 1.49053E-04-5.22930E-05-4.16313E-05-2.00908E-05-8.68421E-19-5.91229E-19
 -1      2156 1.68156E-04-4.91458E-05-5.00955E-05-1.70334E-05-4.59304E-19-3.98105E-19
 -1      2157 1.03071E-04-5.04967E-05-2.38216E-05-3.36104E-05-1.32899E-18-1.24514E-18
 -1      2158 1.29342E-04-5.38802E-05-3.27181E-05-3.20091E-05-1.12486E-18-1.19347E-18
 -1      2159 6.32463E-05-4.51428E-05-9.36117E-06-3.29590E-05-1.48443E-18-1.10019E-18
 -1      2160 8.33468E-05-4.52559E-05-1.70177E-05-3.91422E-05-1.26716E-18-1.38680E-18
 -1      2161 1.06881E-04-5.63878E-05-2.17484E-05-3.49306E-05-1.45181E-18-1.31798E-18
 -1      2162 2.90439E-05-3.75278E-05 1.87864E-06-2.12439E-05-1.09267E-18-5.37442E-19
 -1      2163 4.21807E-05-3.69082E-05-3.25341E-06-3.07730E-05-1.00119E-18-9.17972E-19
 -1      2164 1.22586E-05-2.95800E-05 6.12455E-06-5.48464E-06-7.51848E-19-1.69407E-21
 -1      2165 1.81545E-05-3.28934E-05 4.82364E-06-1.39163E-05-9.33642E-19-2.52839E-19
 -1      2166 2.90937E-05-2.78775E-05-1.15962E-06-2.38488E-05-2.82062E-19-6.10287E-19
 -1      2167 1.38243E-05-2.98491E-05 5.47789E-06 1.83713E-05-8.75409E-19 2.61310E-19
 -1      2168 1.01773E-05-2.81735E-05 6.46632E-06 9.64771E-06-7.78741E-19 3.97258E-19
 -1      2169 3.33568E-05-3.02758E-05-2.06928E-06 3.55614E-05-4.21399E-19 3.39872E-19
 -1      2170 2.35498E-05-3.26223E-05 2.48105E-06 2.72377E-05-6.10287E-19 2.36322E-19
 -1      2171 6.64533E-05-3.42275E-05-1.41260E-05 4.60389E-05-2.72321E-19 1.16763E-18
 -1      2172 4.90930E-05-3.61370E-05-6.88856E-06 3.84144E-05-4.76880E-19 6.98723E-19
 -1      2173 1.07980E-04-3.75113E-05-2.99450E-05 4.56226E-05-3.93447E-19 1.58565E-18
 -1      2174 8.91102E-05-3.96619E-05-2.19390E-05 4.21688E-05-4.70950E-19 1.39316E-18
 -1      2175 1.42648E-04-3.77103E-05-4.45111E-05 3.58361E-05-2.92226E-19 2.08963E-18
 -1      2176 1.21743E-04-3.73572E-05-3.65288E-05 3.81764E-05-3.63801E-19 1.55854E-18
 -1      2177 1.25691E-04-4.80746E-05-3.29535E-05 3.35707E-05-2.81638E-19 1.95114E-18
 -1      2178 1.71386E-04-3.20890E-05-5.86053E-05 2.13846E-05-4.10387E-19 2.30520E-18
 -1      2179 1.53718E-04-3.23414E-05-5.19130E-05 2.40769E-05-3.83785E-19 1.99265E-18
 -1      2180 1.80037E-04-2.48762E-05-6.57065E-05 6.48362E-06-4.84079E-19 2.54173E-18
 -1      2181 1.74763E-04-2.70309E-05-6.25656E-05 1.56064E-05-4.62692E-19 2.49832E-18
 -1      2182 1.59509E-04-2.52408E-05-5.66017E-05 3.03385E-06-7.86047E-19 1.59221E-18
 -1      2183 1.83050E-04-2.29377E-05-6.76623E-05-4.40215E-06-3.73542E-19 2.59256E-18
 -1      2184 1.79053E-04-2.07106E-05-6.72045E-05 2.76420E-06-3.85400E-19 2.44422E-18
 -1      2185 1.74504E-04-2.44100E-05-6.38104E-05-1.31097E-05-3.70153E-19 2.15528E-18
 -1      2186 1.83644E-04-2.51056E-05-6.68395E-05-6.92220E-06-4.17587E-19 2.30816E-18
 -1      2187 1.59693E-04-1.19200E-05-6.23248E-05-2.57470E-07-2.69780E-19 1.64642E-18
 -1      2188 1.57883E-04-3.21008E-05-5.38299E-05-2.07066E-05-6.45863E-21 2.20991E-18
 -1      2189 1.71815E-04-3.06312E-05-5.95083E-05-1.72710E-05-8.51268E-20 2.29673E-18
 -1      2190 1.34564E-04-3.99177E-05-4.07292E-05-3.29889E-05 5.31301E-19 1.67289E-18
 -1      2191 1.51489E-04-3.87905E-05-4.77619E-05-3.01721E-05 5.29396E-21 1.86178E-18
 -1      2192 3.94888E-05-3.93864E-05-1.26374E-06-3.52565E-05 1.45732E-18 4.65445E-19
 -1      2193 5.17976E-05-3.72569E-05-6.73491E-06-4.17873E-05 1.23328E-18 7.50180E-19
 -1      2194 1.78247E-04-4.58091E-05-5.55473E-05 1.50168E-05 3.35637E-18-5.58195E-19
 -1      2195 1.58380E-04-4.78223E-05-4.75714E-05 1.61080E-05 3.39681E-18 1.03338E-19
 -1      2196 1.70053E-04-4.19400E-05-5.39732E-05-7.12676E-06 3.35552E-18 8.41951E-19
 -1      2197 3.77828E-05-3.32051E-05-2.39096E-06-3.77018E-05 1.00649E-18 7.60847E-19
 -1      2198 7.43001E-05-4.53240E-05-1.26733E-05-4.65350E-05 1.56278E-18 8.45326E-19
 -1      2199 1.04885E-04-2.72001E-05-3.33957E-05-1.09851E-05-2.30816E-20-2.85322E-18
 -1      2200 1.04097E-04-2.64287E-05-3.33466E-05-1.19934E-05 1.22754E-19-2.36603E-18
 -1      2201 4.10578E-05-3.61214E-05-2.60510E-06 3.10921E-05 9.80864E-19 2.09196E-18
 -1      2202 1.71835E-05-2.46389E-05 2.69489E-06 7.41088E-06 9.89123E-19 1.86008E-18
 -1      2203 9.52370E-05-2.85730E-05-2.85703E-05 2.92751E-09-8.18101E-20 3.52718E-19
 -1      2204 8.47846E-05-5.24022E-05-1.41700E-05 3.91124E-05 1.64960E-18 1.19678E-18
 -1      2205 1.34238E-04-5.05780E-05-3.54134E-05-2.93882E-05 1.53419E-18 1.40946E-18
 -1      2206 1.59450E-04-2.26830E-05-5.78187E-05-1.29937E-06-2.32934E-21 1.36457E-18
 -1      2207 1.61294E-04-1.43627E-05-6.21470E-05-2.01062E-07-3.95141E-19 1.74277E-18
 -1      2208 1.49643E-04-4.03358E-05-4.62799E-05 1.70985E-05-6.13358E-19 1.89735E-18
 -1      2209 8.95134E-05-4.43206E-05-1.94361E-05 4.51591E-05 5.16690E-20 1.61444E-18
 -1      2210 4.98680E-05-3.30007E-05-7.56608E-06 4.35026E-05 3.68883E-19 1.02999E-18
 -1      2211 1.34056E-05-2.26258E-05 3.32425E-06 1.77198E-06-2.38771E-19 1.57125E-19
 -1      2212 1.69206E-05-1.45045E-05-9.88999E-07-7.14611E-06 4.44957E-19-4.15046E-20
 -1      2213 1.44042E-05-1.29817E-05-6.03694E-07 9.11962E-06 5.61159E-19 2.62580E-19
 -1      2214 6.37052E-05-4.29265E-05-9.43416E-06-3.67746E-05-8.16116E-19-1.22544E-18
 -1      2215 1.68707E-04-4.81162E-05-5.09564E-05 3.13241E-06-7.52165E-19 5.23466E-19
 -1      2216 1.57101E-04-5.84584E-05-4.18688E-05 9.91844E-06 3.13677E-18-2.18111E-19
 -1      2217 1.70628E-04-2.08297E-05-6.32256E-05 8.06079E-07 8.19928E-19 1.62450E-18
 -1      2218 1.44330E-04-5.89244E-05-3.67792E-05-2.02610E-05-1.05752E-18-5.23890E-19
 -1      2219 1.53017E-04-6.21466E-05-4.00662E-05-5.84186E-06-1.22809E-18 2.39499E-19
 -1      2220 1.38333E-04-6.28331E-05-3.20398E-05-1.93307E-05-1.36076E-18-3.75236E-19
 -1      2221 2.23656E-05-2.26964E-05-3.56536E-07 2.86442E-05 1.73854E-19 5.06526E-19
 -1      2222 1.53161E-04-3.92285E-05-4.82113E-05-1.09984E-05 4.67562E-19 1.46325E-18
 -1      2223 1.16787E-04-3.35955E-05-3.56569E-05-8.63369E-06-3.34247E-20 2.51892E-18
 -1      2224 1.15345E-04-3.14644E-05-3.58583E-05-6.91688E-06 6.51752E-20 2.59466E-18
 -1      2225 8.91642E-05-1.61359E-05-3.13319E-05 4.63515E-06 1.47975E-18-1.19815E-19
 -1      2226 9.18692E-05-1.73798E-05-3.19469E-05 2.15513E-06 1.38310E-18-3.96272E-19
 -1      2227 9.40614E-05-1.83446E-05-3.24791E-05-7.41964E-07 1.29922E-18-6.33409E-19
 -1      2228 9.58139E-05-1.90497E-05-3.29613E-05-3.22860E-06 1.21194E-18-8.91469E-19
 -1      2229 9.55523E-05-2.13186E-05-3.18599E-05 1.08174E-06 1.27908E-18-4.37307E-19
 -1      2230 7.38230E-05-7.25176E-06-2.86152E-05 1.23536E-05 1.67426E-18 3.82614E-19
 -1      2231 7.79224E-05-9.54666E-06-2.92337E-05 1.13266E-05 1.66626E-18 2.25261E-19
 -1      2232 6.62804E-05-2.00473E-06-2.76382E-05 1.21819E-05 1.73879E-18 6.44837E-19
 -1      2233 6.95673E-05-4.01897E-06-2.80072E-05 1.25262E-05 1.72947E-18 4.98944E-19
 -1      2234 7.25229E-05-7.82165E-06-2.77587E-05 1.44120E-05 1.67390E-18 4.36225E-19
 -1      2235 6.27044E-05 1.19929E-06-2.74431E-05 8.93948E-06 1.71727E-18 8.44854E-19
 -1      2236 6.36759E-05 3.40401E-07-2.73835E-05 1.04068E-05 1.74282E-18 7.30312E-19
 -1      2237 6.47729E-05-2.10600E-06-2.68164E-05 1.28984E-05 1.70125E-18 6.83998E-19
 -1      2238 6.55066E-05 5.63553E-07-2.83158E-05 4.12410E-06 1.63003E-18 1.14110E-18
 -1      2239 6.32209E-05 1.40744E-06-2.77188E-05 5.93686E-06 1.66123E-18 9.33985E-19
 -1      2240 6.21498E-05 5.62645E-07-2.67805E-05 7.83346E-06 1.67200E-18 8.59785E-19
 -1      2241 7.51895E-05-4.47778E-06-3.02773E-05 1.73866E-07 1.41547E-18 1.57105E-18
 -1      2242 6.97288E-05-1.86760E-06-2.91790E-05 1.31543E-06 1.47172E-18 1.31330E-18
 -1      2243 6.69750E-05-1.63180E-06-2.79168E-05 1.58886E-06 1.52158E-18 1.13057E-18
 -1      2244 8.98568E-05-1.28356E-05-3.30065E-05-1.35262E-06 9.79104E-19 2.03803E-18
 -1      2245 8.22220E-05-8.81937E-06-3.15876E-05-1.28018E-06 1.21013E-18 1.71870E-18
 -1      2246 7.88187E-05-8.44634E-06-3.01318E-05-2.85905E-06 1.22067E-18 1.49637E-18
 -1      2247 1.03993E-04-2.93582E-05-3.19507E-05-9.37652E-06 2.74829E-19-1.95622E-18
 -1      2248 1.02967E-04-3.00319E-05-3.12999E-05-8.36638E-06 2.01809E-19-1.73780E-18
 -1      2249 1.21515E-04-3.93180E-05-3.52618E-05-9.36202E-06-9.90499E-20 2.23707E-18
 -1      2250 1.18918E-04-3.62303E-05-3.52854E-05-1.00549E-05-9.81963E-20 2.29670E-18
 -1      2251 1.11069E-04-3.25309E-05-3.37728E-05-1.09720E-05 5.79258E-20 1.63862E-18
 -1      2252 1.03065E-04-2.39724E-05-3.39711E-05-1.29668E-05 3.49758E-19-2.26629E-18
 -1      2253 1.03466E-04-2.75429E-05-3.25870E-05-1.01945E-05 3.25539E-19-2.10030E-18
 -1      2254 1.03627E-04-2.75331E-05-3.25821E-05-1.04224E-05 3.88221E-19-1.92373E-18
 -1      2255 1.01276E-04-2.21115E-05-3.39470E-05-1.22162E-05 5.39633E-19-1.97181E-18
 -1      2256 1.02773E-04-3.06288E-05-3.08716E-05-8.13433E-06 7.53413E-20-1.43337E-18
 -1      2257 1.01634E-04-3.05869E-05-3.04608E-05-7.93423E-06 1.01659E-19-1.34067E-18
 -1      2258 1.03924E-04-3.03391E-05-3.15324E-05-9.24499E-06 2.78115E-19-1.55277E-18
 -1      2259 1.01001E-04-3.04413E-05-3.02214E-05-7.99494E-06 2.42798E-20-1.09466E-18
 -1      2260 9.97950E-05-2.98844E-05-2.99504E-05-7.91907E-06-5.64336E-20-1.09804E-18
 -1      2261 1.03092E-04-3.09606E-05-3.09077E-05-9.01141E-06 1.67671E-19-1.10804E-18
 -1      2262 9.88277E-05-2.92017E-05-2.98442E-05-7.78593E-06-1.39640E-19-9.33404E-19
 -1      2263 9.76230E-05-2.83123E-05-2.96701E-05-7.36670E-06-8.25642E-20-7.94793E-19
 -1      2264 1.01501E-04-3.00326E-05-3.06219E-05-8.95264E-06-6.49326E-20-6.00865E-19
 -1      2265 9.64924E-05-2.73437E-05-2.96465E-05-6.60509E-06-1.01127E-19-9.53077E-19
 -1      2266 9.54726E-05-2.64213E-05-2.95450E-05-5.58538E-06-1.45650E-20-9.29847E-19
 -1      2267 9.93654E-05-2.80583E-05-3.05619E-05-8.04898E-06-1.74010E-19-7.44501E-19
 -1      2268 9.45175E-05-2.55635E-05-2.95512E-05-4.03986E-06-2.14134E-19-1.00257E-18
 -1      2269 9.39253E-05-2.49800E-05-2.95035E-05-2.46503E-06-2.10011E-19-1.21058E-18
 -1      2270 9.72164E-05-2.58479E-05-3.06073E-05-5.62507E-06-2.62953E-19-7.79378E-19
 -1      2271 9.35158E-05-2.46393E-05-2.94935E-05-3.85815E-07-8.77804E-20-1.63171E-18
 -1      2272 9.35250E-05-2.46709E-05-2.94853E-05 1.39679E-06-1.33423E-19-1.69470E-18
 -1      2273 9.58041E-05-2.43981E-05-3.06374E-05-1.75318E-06-4.14567E-19-1.37638E-18
 -1      2274 9.38295E-05-2.50381E-05-2.94369E-05 3.42887E-06-3.55638E-19-1.58318E-18
 -1      2275 9.44226E-05-2.56895E-05-2.94607E-05 4.92364E-06-4.19617E-19-1.67100E-18
 -1      2276 9.57088E-05-2.44518E-05-3.05699E-05 2.66548E-06-2.85798E-19-1.63125E-18
 -1      2277 9.52518E-05-2.65893E-05-2.93797E-05 6.31350E-06-1.20433E-19-1.41481E-18
 -1      2278 9.62149E-05-2.75932E-05-2.94320E-05 7.14586E-06 2.72573E-20-1.28032E-18
 -1      2279 9.69126E-05-2.60359E-05-3.03890E-05 6.31434E-06-1.52028E-19-1.32632E-18
 -1      2280 9.71682E-05-2.86314E-05-2.93417E-05 7.60165E-06 4.12184E-20-1.15424E-18
 -1      2281 9.82079E-05-2.96290E-05-2.94174E-05 7.67437E-06 1.53969E-19-1.01428E-18
 -1      2282 9.87873E-05-2.84460E-05-3.01371E-05 8.22793E-06 1.89696E-19-7.74054E-19
 -1      2283 9.89252E-05-3.04429E-05-2.93426E-05 7.28060E-06 1.93894E-19-9.41703E-19
 -1      2284 9.97954E-05-3.11681E-05-2.94313E-05 6.74963E-06 3.88431E-19-5.59361E-19
 -1      2285 1.00533E-04-3.07558E-05-2.98833E-05 8.21657E-06 2.48323E-19-9.24140E-19
 -1      2286 1.00110E-04-3.15817E-05-2.93835E-05 5.83061E-06 2.89616E-19-8.25903E-19
 -1      2287 1.00686E-04-3.19436E-05-2.94697E-05 4.97620E-06 1.52636E-19-7.47030E-19
 -1      2288 1.01600E-04-3.22940E-05-2.96811E-05 6.75990E-06 2.55256E-19-7.53926E-19
 -1      2289 1.00628E-04-3.19816E-05-2.94462E-05 3.88958E-06-1.39999E-19-7.81551E-19
 -1      2290 1.00899E-04-3.20312E-05-2.95149E-05 2.97379E-06 1.39148E-20-8.98618E-19
 -1      2291 1.01857E-04-3.28748E-05-2.95496E-05 4.61209E-06-1.53358E-19-9.62166E-19
 -1      2292 1.00592E-04-3.18178E-05-2.95042E-05 1.97718E-06 2.20162E-20-8.39177E-19
 -1      2293 1.00615E-04-3.16648E-05-2.95449E-05 1.17640E-06 4.90584E-20-8.24461E-19
 -1      2294 1.01475E-04-3.26822E-05-2.94764E-05 2.42086E-06-6.70033E-20-4.67769E-19
 -1      2295 1.00189E-04-3.13349E-05-2.95352E-05 4.00541E-07-3.34297E-20-8.79760E-19
 -1      2296 1.00040E-04-3.10860E-05-2.95448E-05-2.02560E-07-3.74954E-19-5.45815E-19
 -1      2297 1.00720E-04-3.20375E-05-2.94350E-05 5.79577E-07-1.11128E-19-3.99459E-19
 -1      2298 9.95925E-05-3.07399E-05-2.95281E-05-7.25788E-07-5.85680E-19-6.00548E-19
 -1      2299 9.93431E-05-3.04717E-05-2.95095E-05-1.11876E-06-6.89146E-19-4.41104E-19
 -1      2300 9.98259E-05-3.12303E-05-2.94009E-05-7.56231E-07-3.99864E-19-8.39293E-20
 -1      2301 9.89283E-05-3.01660E-05-2.94826E-05-1.41537E-06-7.74864E-19-5.30523E-19
 -1      2302 9.86342E-05-2.99222E-05-2.94422E-05-1.62598E-06-3.41608E-19-7.43179E-19
 -1      2303 9.89462E-05-3.04533E-05-2.93582E-05-1.59021E-06-7.51996E-19 5.18437E-19
 -1      2304 9.82764E-05-2.96794E-05-2.94058E-05-1.74633E-06-8.63101E-20-8.68195E-19
 -1      2305 9.79758E-05-2.94785E-05-2.93516E-05-1.81843E-06 4.11620E-19-5.96790E-19
 -1      2306 9.81610E-05-2.98029E-05-2.93007E-05-2.00659E-06-2.11164E-19 4.45711E-19
 -1      2307 9.76804E-05-2.92998E-05-2.93085E-05-1.81639E-06 5.84380E-19-9.49530E-19
 -1      2308 9.73973E-05-2.91450E-05-2.92478E-05-1.79472E-06 5.02023E-19-1.34501E-18
 -1      2309 9.74993E-05-2.93078E-05-2.92289E-05-2.11528E-06-1.79014E-20-1.38131E-19
 -1      2310 9.71598E-05-2.90215E-05-2.92016E-05-1.71715E-06 4.19934E-19-9.22863E-19
 -1      2311 9.69073E-05-2.89081E-05-2.91403E-05-1.63968E-06 6.92246E-19-1.18131E-18
 -1      2312 9.69610E-05-2.89583E-05-2.91476E-05-2.02096E-06 4.45658E-19-6.98306E-19
 -1      2313 9.67199E-05-2.88277E-05-2.90942E-05-1.52272E-06 9.60641E-19-1.06956E-18
 -1      2314 9.65036E-05-2.87480E-05-2.90366E-05-1.41818E-06 7.67296E-19-7.16901E-19
 -1      2315 9.65333E-05-2.87279E-05-2.90626E-05-1.80933E-06 8.30257E-19-7.40650E-19
 -1      2316 9.63575E-05-2.86989E-05-2.89932E-05-1.28722E-06 4.89410E-19-9.98299E-19
 -1      2317 9.61783E-05-2.86451E-05-2.89418E-05-1.17534E-06 7.60759E-19-1.47262E-18
 -1      2318 9.61988E-05-2.85870E-05-2.89792E-05-1.54378E-06 3.63163E-19-1.13095E-18
 -1      2319 9.60656E-05-2.86174E-05-2.89027E-05-1.04673E-06 1.11344E-18-2.11072E-18
 -1      2320 9.59213E-05-2.85827E-05-2.88587E-05-9.39834E-07 7.58241E-19-1.86251E-18
 -1      2321 9.59404E-05-2.85090E-05-2.89015E-05-1.26730E-06 3.59650E-19-1.82112E-18
 -1      2322 9.58353E-05-2.85691E-05-2.88249E-05-8.22962E-07 4.59767E-19-1.54334E-18
 -1      2323 9.57220E-05-2.85478E-05-2.87884E-05-7.27779E-07-8.37787E-20-1.04681E-18
 -1      2324 9.57428E-05-2.84726E-05-2.88321E-05-1.00637E-06 5.70482E-19-1.78617E-18
 -1      2325 9.56571E-05-2.85429E-05-2.87601E-05-6.27124E-07-1.90810E-19-1.35269E-18
 -1      2326 9.55703E-05-2.85308E-05-2.87309E-05-5.46536E-07 5.67752E-20-6.17843E-19
 -1      2327 9.55936E-05-2.84619E-05-2.87724E-05-7.75290E-07 4.67628E-20-1.14192E-18
 -1      2328 9.55220E-05-2.85308E-05-2.87078E-05-4.63335E-07-1.52399E-19-6.84542E-19
 -1      2329 9.54572E-05-2.85249E-05-2.86850E-05-3.97749E-07-3.44528E-20-7.50340E-19
 -1      2330 9.54820E-05-2.84661E-05-2.87225E-05-5.79905E-07-2.27843E-19-3.42382E-19
 -1      2331 9.54217E-05-2.85275E-05-2.86667E-05-3.31273E-07-4.67194E-20-5.28611E-19
 -1      2332 9.53746E-05-2.85254E-05-2.86495E-05-2.79655E-07 1.55602E-19-7.30550E-19
 -1      2333 9.53999E-05-2.84779E-05-2.86820E-05-4.20694E-07-2.20212E-19-4.47821E-20
 -1      2334 9.53490E-05-2.85292E-05-2.86353E-05-2.28118E-07 4.52806E-19-7.74729E-19
 -1      2335 9.53158E-05-2.85294E-05-2.86226E-05-1.88713E-07 4.97236E-19-6.00768E-19
 -1      2336 9.53403E-05-2.84926E-05-2.86500E-05-2.94990E-07 1.82277E-19 1.13382E-19
 -1      2337 9.52977E-05-2.85335E-05-2.86119E-05-1.49880E-07 8.60463E-20-5.45549E-19
 -1      2338 9.52752E-05-2.85350E-05-2.86028E-05-1.20676E-07-1.10846E-19-2.46053E-19
 -1      2339 9.52980E-05-2.85075E-05-2.86253E-05-1.98561E-07 4.69292E-19-5.34811E-19
 -1      2340 9.52628E-05-2.85388E-05-2.85950E-05-9.22441E-08-3.29165E-19-4.39353E-19
 -1      2341 9.52481E-05-2.85410E-05-2.85887E-05-7.12579E-08-3.57559E-19 3.75730E-19
 -1      2342 9.52687E-05-2.85212E-05-2.86066E-05-1.26631E-07-1.49270E-20-1.37250E-19
 -1      2343 9.52399E-05-2.85443E-05-2.85831E-05-5.10746E-08-1.04118E-19 6.09315E-19
 -1      2344 9.52311E-05-2.85467E-05-2.85790E-05-3.65057E-08-3.17517E-19 6.11072E-19
 -1      2345 9.52490E-05-2.85331E-05-2.85930E-05-7.45037E-08-3.38178E-19 7.97629E-19
 -1      2346 9.52259E-05-2.85495E-05-2.85751E-05-2.26815E-08-7.08662E-19 6.69772E-19
 -1      2347 9.52211E-05-2.85518E-05-2.85725E-05-1.29833E-08-8.15417E-19 7.68098E-19
 -1      2348 9.52364E-05-2.85429E-05-2.85833E-05-3.79157E-08-5.26732E-19 1.51981E-18
 -1      2349 9.52181E-05-2.85540E-05-2.85700E-05-3.93132E-09-4.57023E-19 6.03094E-19
 -1      2350 9.52162E-05-2.85561E-05-2.85685E-05 2.17200E-09 2.17250E-19 1.26504E-19
 -1      2351 9.52289E-05-2.85507E-05-2.85766E-05-1.31933E-08-6.80683E-19 1.51875E-18
 -1      2352 9.52147E-05-2.85579E-05-2.85670E-05 7.73905E-09 1.35206E-19 6.18667E-19
 -1      2353 9.52145E-05-2.85597E-05-2.85663E-05 1.12660E-08 7.94377E-19 1.31957E-18
 -1      2354 9.52248E-05-2.85568E-05-2.85722E-05 2.70589E-09 5.62846E-19 2.93390E-18
 -1      2355 9.52141E-05-2.85611E-05-2.85654E-05 1.43629E-08 1.43020E-18 7.53719E-19
 -1      2356 9.52151E-05-2.85627E-05-2.85653E-05 1.61039E-08 7.97655E-19 1.56937E-18
 -1      2357 9.52232E-05-2.85615E-05-2.85694E-05 1.22238E-08 1.05527E-18 3.13512E-18
 -1      2358 9.52152E-05-2.85637E-05-2.85649E-05 1.75096E-08-5.99439E-19 1.31708E-18
 -1      2359 9.52168E-05-2.85650E-05-2.85650E-05 1.80617E-08-1.43220E-18 9.13065E-19
 -1      2360 9.52231E-05-2.85649E-05-2.85679E-05 1.72668E-08-2.26885E-19 8.54160E-19
 -1      2361 9.52174E-05-2.85658E-05-2.85650E-05 1.83585E-08-1.18465E-18 9.63582E-19
 -1      2362 9.52193E-05-2.85668E-05-2.85653E-05 1.81605E-08-1.19848E-18 1.20809E-18
 -1      2363 9.52240E-05-2.85673E-05-2.85672E-05 1.92850E-08-1.41440E-18 1.19942E-18
 -1      2364 9.52200E-05-2.85674E-05-2.85654E-05 1.77720E-08-2.03699E-18 8.21962E-19
 -1      2365 9.52220E-05-2.85682E-05-2.85659E-05 1.71362E-08-1.88726E-18 5.88383E-19
 -1      2366 9.52255E-05-2.85691E-05-2.85671E-05 1.93528E-08-1.68990E-18 1.89001E-18
 -1      2367 9.52228E-05-2.85686E-05-2.85661E-05 1.63602E-08-1.56920E-18 1.13567E-18
 -1      2368 9.52247E-05-2.85693E-05-2.85666E-05 1.55004E-08 7.16935E-20 1.40316E-18
 -1      2369 9.52271E-05-2.85703E-05-2.85672E-05 1.82426E-08-1.78679E-18 2.11132E-18
 -1      2370 9.52255E-05-2.85695E-05-2.85669E-05 1.45374E-08 7.65536E-19 1.39745E-18
 -1      2371 9.52273E-05-2.85701E-05-2.85674E-05 1.35911E-08 1.94761E-18 1.25141E-18
 -1      2372 9.52289E-05-2.85711E-05-2.85676E-05 1.64902E-08-3.06057E-19 1.57893E-18
 -1      2373 9.52281E-05-2.85703E-05-2.85677E-05 1.25667E-08 2.18211E-18 5.64644E-19
 -1      2374 9.52296E-05-2.85707E-05-2.85681E-05 1.16134E-08 2.39001E-18-1.91127E-19
 -1      2375 9.52305E-05-2.85716E-05-2.85681E-05 1.44484E-08 1.38048E-18 2.27269E-19
 -1      2376 9.52303E-05-2.85709E-05-2.85684E-05 1.05965E-08 1.82031E-18-6.31132E-19
 -1      2377 9.52316E-05-2.85712E-05-2.85687E-05 9.67125E-09 9.13595E-19-7.94781E-19
 -1      2378 9.52321E-05-2.85720E-05-2.85686E-05 1.23304E-08 1.53131E-18-1.04538E-18
 -1      2379 9.52323E-05-2.85714E-05-2.85690E-05 8.68847E-09 1.17132E-18-4.46224E-19
 -1      2380 9.52334E-05-2.85717E-05-2.85693E-05 7.79483E-09-4.58498E-20 5.05319E-20
 -1      2381 9.52335E-05-2.85723E-05-2.85691E-05 1.02440E-08 9.26190E-19-4.11485E-19
 -1      2382 9.52340E-05-2.85719E-05-2.85695E-05 6.84361E-09-5.06574E-19 7.32349E-19
 -1      2383 9.52349E-05-2.85722E-05-2.85698E-05 5.96536E-09-6.71240E-20 7.91019E-19
 -1      2384 9.52347E-05-2.85726E-05-2.85695E-05 8.22278E-09 4.84759E-19 5.88419E-19
 -1      2385 1.39928E-04-5.37035E-05-3.68028E-05 7.49027E-06-1.22248E-18 2.11096E-18
 -1      2386 1.36600E-04-5.18910E-05-3.60017E-05 3.51015E-07-9.40339E-19 2.20980E-18
 -1      2387 1.47444E-04-5.33671E-05-4.04306E-05 1.26248E-05-9.47936E-19 1.53101E-18
 -1      2388 1.45898E-04-5.77723E-05-3.79456E-05 7.48888E-06-1.25546E-18 1.34234E-18
 -1      2389 1.44745E-04-4.99519E-05-4.10698E-05-2.02715E-05 2.45830E-18 9.93993E-19
 -1      2390 1.41623E-04-4.13864E-05-4.32070E-05-2.26278E-05 2.29419E-18 1.33286E-18
 -1      2391 1.39452E-04-5.38406E-05-3.66899E-05-6.11271E-06 1.57376E-18 6.81888E-19
 -1      2392 1.40595E-04-5.28031E-05-3.77963E-05-1.26943E-05 1.89465E-18 9.59503E-19
 -1      2393 1.29115E-04-4.73771E-05-3.48670E-05 6.37140E-06 1.02676E-18 8.19379E-19
 -1      2394 1.32426E-04-5.03781E-05-3.52949E-05 1.07646E-06 1.61193E-18 9.46627E-19
 -1      2395 1.34719E-04-5.51623E-05-3.41948E-05 2.31240E-06 1.43951E-18 6.19532E-19
 -1      2396 1.19720E-04-3.96726E-05-3.42012E-05 1.28148E-05-1.01167E-19 9.63692E-19
 -1      2397 1.23284E-04-4.29951E-05-3.44953E-05 1.02011E-05 6.78540E-19 1.08764E-18
 -1      2398 1.21716E-04-4.62799E-05-3.24996E-05 1.24615E-05 9.00925E-19 1.40633E-18
 -1      2399 1.13093E-04-3.43790E-05-3.36964E-05 1.43870E-05-4.28367E-19 1.10027E-18
 -1      2400 1.16144E-04-3.67001E-05-3.40829E-05 1.37886E-05-4.77965E-19 1.12700E-18
 -1      2401 1.12287E-04-3.74916E-05-3.21789E-05 1.62793E-05-2.28573E-19 5.26084E-19
 -1      2402 1.08641E-04-3.14556E-05-3.30745E-05 1.33511E-05-2.24372E-19 1.09181E-18
 -1      2403 1.11102E-04-3.28276E-05-3.35428E-05 1.38517E-05-4.86467E-19 1.32869E-18
 -1      2404 1.06742E-04-3.20131E-05-3.20835E-05 1.62544E-05-4.46065E-19 8.33635E-19
 -1      2405 1.05526E-04-3.00217E-05-3.23638E-05 1.12847E-05 3.29449E-19 5.05244E-19
 -1      2406 1.07493E-04-3.07901E-05-3.28468E-05 1.22187E-05 3.15950E-19 1.28427E-18
 -1      2407 1.03602E-04-2.93305E-05-3.18491E-05 1.44112E-05-4.01704E-20 1.24182E-18
 -1      2408 1.03204E-04-2.93607E-05-3.16526E-05 9.04389E-06 1.68950E-19 6.86022E-19
 -1      2409 1.04773E-04-2.97958E-05-3.20972E-05 1.00388E-05 5.40854E-19 7.48473E-19
 -1      2410 1.01690E-04-2.82737E-05-3.14661E-05 1.19651E-05 3.07272E-19 7.50301E-19
 -1      2411 1.01393E-04-2.90559E-05-3.10055E-05 7.01596E-06-4.27201E-19 4.68654E-19
 -1      2412 1.02636E-04-2.93162E-05-3.13858E-05 7.90493E-06 9.96157E-20 6.59019E-19
 -1      2413 1.00363E-04-2.79932E-05-3.10128E-05 9.54031E-06 2.02878E-19 1.63209E-19
 -1      2414 9.99543E-05-2.89024E-05-3.04526E-05 5.33011E-06-6.19315E-19 4.66241E-19
 -1      2415 1.00927E-04-2.90700E-05-3.07629E-05 6.06111E-06-8.45542E-19 3.91334E-19
 -1      2416 9.93296E-05-2.80194E-05-3.05593E-05 7.40834E-06-5.28595E-19 1.91118E-19
 -1      2417 9.88086E-05-2.88104E-05-2.99996E-05 3.99200E-06-3.13558E-19 2.01388E-19
 -1      2418 9.95616E-05-2.89256E-05-3.02449E-05 4.56673E-06-1.71278E-19-3.26807E-20
 -1      2419 9.84773E-05-2.81331E-05-3.01470E-05 5.64939E-06-2.09875E-19-5.81264E-19
 -1      2420 9.79035E-05-2.87447E-05-2.96391E-05 2.95805E-06 1.14765E-18-3.14534E-19
 -1      2421 9.84795E-05-2.88274E-05-2.98289E-05 3.39853E-06 4.96540E-20-1.93992E-19
 -1      2422 9.77649E-05-2.82480E-05-2.97941E-05 4.25152E-06-9.51167E-20-5.99472E-19
 -1      2423 9.71969E-05-2.86929E-05-2.93580E-05 2.17195E-06 1.00353E-18 5.98726E-19
 -1      2424 9.76326E-05-2.87535E-05-2.95026E-05 2.50451E-06 1.74636E-18 2.15455E-19
 -1      2425 9.71749E-05-2.83381E-05-2.95035E-05 3.16600E-06 1.27869E-18-1.63820E-19
 -1      2426 9.66523E-05-2.86511E-05-2.91424E-05 1.58037E-06-4.88584E-19 2.63581E-19
 -1      2427 9.69783E-05-2.86955E-05-2.92511E-05 1.82912E-06 4.52210E-19 8.27445E-19
 -1      2428 9.66949E-05-2.84018E-05-2.92709E-05 2.33542E-06 5.61768E-19 7.33513E-19
 -1      2429 9.62385E-05-2.86181E-05-2.89791E-05 1.13834E-06-1.17710E-18-6.65611E-20
 -1      2430 9.64796E-05-2.86502E-05-2.90600E-05 1.32321E-06-8.60526E-19 8.94086E-20
 -1      2431 9.63119E-05-2.84447E-05-2.90885E-05 1.70627E-06-6.23473E-19 8.41864E-19
 -1      2432 9.59285E-05-2.85931E-05-2.88571E-05 8.10039E-07-3.30750E-19 8.26916E-20
 -1      2433 9.61046E-05-2.86157E-05-2.89165E-05 9.46654E-07-9.69883E-19-1.96159E-19
 -1      2434 9.60124E-05-2.84733E-05-2.89476E-05 1.23329E-06-8.56768E-19-5.14042E-19
 -1      2435 9.56998E-05-2.85750E-05-2.87670E-05 5.67681E-07 1.27862E-19 2.12251E-19
 -1      2436 9.58267E-05-2.85904E-05-2.88101E-05 6.68038E-07 1.27415E-19 3.42433E-19
 -1      2437 9.57825E-05-2.84928E-05-2.88405E-05 8.80084E-07-2.43939E-19-5.67268E-19
 -1      2438 9.55340E-05-2.85627E-05-2.87013E-05 3.90052E-07-5.79456E-19 6.64726E-19
 -1      2439 9.56238E-05-2.85728E-05-2.87322E-05 4.63235E-07-2.10634E-19 4.46496E-19
 -1      2440 9.56094E-05-2.85068E-05-2.87600E-05 6.18146E-07-2.20017E-19-5.66557E-19
 -1      2441 9.54161E-05-2.85552E-05-2.86541E-05 2.61031E-07-2.04774E-19 1.38344E-18
 -1      2442 9.54784E-05-2.85613E-05-2.86759E-05 3.13897E-07-4.71943E-19 1.34526E-18
 -1      2443 9.54815E-05-2.85174E-05-2.87003E-05 4.25441E-07-7.19636E-19-1.16448E-19
 -1      2444 9.53343E-05-2.85512E-05-2.86209E-05 1.68389E-07-4.57307E-19 2.23263E-18
 -1      2445 9.53764E-05-2.85545E-05-2.86359E-05 2.06113E-07 1.99481E-19 1.85535E-18
 -1      2446 9.53892E-05-2.85261E-05-2.86567E-05 2.85050E-07-3.90823E-19 1.29920E-18
 -1      2447 9.52792E-05-2.85498E-05-2.85980E-05 1.02850E-07-1.85961E-18 1.59548E-18
 -1      2448 9.53066E-05-2.85511E-05-2.86080E-05 1.29342E-07-6.65130E-19 2.01395E-18
 -1      2449 9.53240E-05-2.85334E-05-2.86254E-05 1.84012E-07-6.82152E-19 2.30979E-18
 -1      2450 9.52436E-05-2.85502E-05-2.85826E-05 5.73724E-08 2.32233E-19 7.14884E-19
 -1      2451 9.52605E-05-2.85501E-05-2.85891E-05 7.55886E-08-1.51220E-18 1.17591E-18
 -1      2452 9.52793E-05-2.85398E-05-2.86033E-05 1.12412E-07-1.21826E-18 9.02068E-19
 -1      2453 9.52218E-05-2.85516E-05-2.85728E-05 2.66094E-08 1.76875E-18 5.85503E-19
 -1      2454 9.52314E-05-2.85508E-05-2.85767E-05 3.87868E-08 1.25852E-18 1.10763E-18
 -1      2455 9.52498E-05-2.85454E-05-2.85881E-05 6.26700E-08 4.54752E-19-5.19754E-19
 -1      2456 9.52098E-05-2.85537E-05-2.85668E-05 6.51298E-09 1.52226E-18-1.02122E-18
 -1      2457 9.52144E-05-2.85524E-05-2.85689E-05 1.43391E-08 1.64970E-18 2.55975E-19
 -1      2458 9.52313E-05-2.85502E-05-2.85780E-05 2.89967E-08 1.73563E-18-1.11315E-18
 -1      2459 9.52044E-05-2.85560E-05-2.85635E-05-5.96883E-09 2.20005E-18-1.59826E-18
 -1      2460 9.52058E-05-2.85546E-05-2.85645E-05-1.22686E-09 1.47499E-18-8.88019E-19
 -1      2461 9.52206E-05-2.85544E-05-2.85715E-05 6.98986E-09 1.69000E-18-6.30450E-19
 -1      2462 9.52033E-05-2.85584E-05-2.85620E-05-1.31202E-08 1.13118E-18-1.21281E-18
 -1      2463 9.52026E-05-2.85569E-05-2.85622E-05-1.05180E-08 1.78327E-18-1.05092E-18
 -1      2464 9.52153E-05-2.85580E-05-2.85676E-05-6.67937E-09 1.70138E-18 1.78980E-19
 -1      2465 9.52049E-05-2.85607E-05-2.85618E-05-1.66346E-08-1.25461E-18-1.23222E-18
 -1      2466 9.52030E-05-2.85592E-05-2.85615E-05-1.54756E-08 3.96960E-19-1.55163E-18
 -1      2467 9.52136E-05-2.85609E-05-2.85655E-05-1.45084E-08 7.30662E-19 3.90124E-19
 -1      2468 9.52080E-05-2.85627E-05-2.85622E-05-1.77522E-08-1.13006E-18-1.93948E-18
 -1      2469 9.52055E-05-2.85614E-05-2.85617E-05-1.75291E-08-1.61407E-18-1.60192E-18
 -1      2470 9.52141E-05-2.85634E-05-2.85647E-05-1.83516E-08-1.22126E-18-1.05195E-18
 -1      2471 9.52118E-05-2.85645E-05-2.85631E-05-1.73658E-08-1.48301E-18-9.51439E-19
 -1      2472 9.52091E-05-2.85634E-05-2.85624E-05-1.77162E-08-6.05825E-19-1.49531E-18
 -1      2473 9.52160E-05-2.85654E-05-2.85646E-05-1.95679E-08-8.43315E-19-7.72390E-19
 -1      2474 9.52159E-05-2.85661E-05-2.85642E-05-1.61045E-08-2.22347E-18-3.68429E-20
 -1      2475 9.52132E-05-2.85651E-05-2.85635E-05-1.67757E-08-2.23173E-18-1.00187E-18
 -1      2476 9.52185E-05-2.85669E-05-2.85650E-05-1.91359E-08-2.24662E-18-3.58940E-19
 -1      2477 9.52198E-05-2.85674E-05-2.85653E-05-1.43972E-08-7.66653E-19-3.78771E-19
 -1      2478 9.52173E-05-2.85665E-05-2.85646E-05-1.52192E-08-1.70172E-18 1.12363E-19
 -1      2479 9.52214E-05-2.85682E-05-2.85657E-05-1.77443E-08-1.95009E-18-1.14406E-18
 -1      2480 9.52235E-05-2.85684E-05-2.85664E-05-1.25220E-08-4.53386E-19-4.57158E-19
 -1      2481 9.52212E-05-2.85677E-05-2.85658E-05-1.33876E-08-1.32711E-19-7.94423E-20
 -1      2482 9.52242E-05-2.85692E-05-2.85664E-05-1.58614E-08-1.15242E-18-9.18154E-19
 -1      2483 9.52267E-05-2.85693E-05-2.85675E-05-1.06433E-08 2.56872E-19-1.92167E-18
 -1      2484 9.52248E-05-2.85688E-05-2.85669E-05-1.14925E-08-1.69321E-19-7.84807E-19
 -1      2485 9.52269E-05-2.85699E-05-2.85673E-05-1.37898E-08 1.70987E-19-9.81842E-19
 -1      2486 9.52296E-05-2.85701E-05-2.85683E-05-8.83916E-09 2.27418E-18-2.14298E-18
 -1      2487 9.52279E-05-2.85696E-05-2.85679E-05-9.64851E-09 1.04815E-18-2.41491E-18
 -1      2488 9.52293E-05-2.85706E-05-2.85680E-05-1.17067E-08 8.01847E-19-1.31713E-18
 -1      2489 9.52319E-05-2.85708E-05-2.85691E-05-7.12273E-09 1.67876E-18-2.64624E-18
 -1      2490 9.52305E-05-2.85703E-05-2.85687E-05-7.89682E-09 2.61257E-18-1.75801E-18
 -1      2491 9.52314E-05-2.85711E-05-2.85687E-05-9.69595E-09 2.33974E-18-7.59092E-19
 -1      2492 9.52339E-05-2.85713E-05-2.85697E-05-5.45535E-09 1.42893E-19-1.20768E-18
 -1      2493 9.52328E-05-2.85710E-05-2.85694E-05-6.22044E-09-9.41716E-22-1.71684E-18
 -1      2494 9.52332E-05-2.85716E-05-2.85693E-05-7.77996E-09-1.11126E-20-7.68156E-19
 -1      2495 9.52355E-05-2.85719E-05-2.85701E-05-3.80981E-09 2.01112E-18 1.10056E-18
 -1      2496 9.52346E-05-2.85716E-05-2.85699E-05-4.57625E-09 1.65260E-18-4.04688E-19
 -1      2497 9.52348E-05-2.85721E-05-2.85697E-05-5.91575E-09 2.71494E-19-8.69977E-20
 -1      2498 9.52361E-05-2.85721E-05-2.85703E-05-2.93400E-09 1.28110E-18 3.22360E-18
 -1      2499 9.52403E-05-2.85785E-05-2.85693E-05-4.69281E-09 1.22910E-18-1.31832E-18
 -1      2500 9.52398E-05-2.85778E-05-2.85694E-05-5.13048E-09 1.37193E-18-3.68834E-18
 -1      2501 9.52411E-05-2.85797E-05-2.85692E-05-3.29823E-09 1.54613E-18 1.36803E-18
 -1      2502 9.52408E-05-2.85791E-05-2.85693E-05-3.99725E-09 1.88354E-18-7.42385E-19
 -1      2503 9.52409E-05-2.85788E-05-2.85695E-05-4.97786E-09 2.02414E-18-7.01847E-19
 -1      2504 9.52380E-05-2.85753E-05-2.85697E-05-5.52282E-09-1.37173E-18 1.49128E-18
 -1      2505 9.52374E-05-2.85744E-05-2.85699E-05-5.29311E-09-6.80881E-19 2.99989E-18
 -1      2506 9.52392E-05-2.85770E-05-2.85695E-05-5.47943E-09-4.88390E-19-2.46396E-18
 -1      2507 9.52386E-05-2.85761E-05-2.85697E-05-5.58746E-09-2.18341E-18 1.11260E-18
 -1      2508 9.52382E-05-2.85756E-05-2.85697E-05-6.43430E-09-1.61752E-18 3.43216E-19
 -1      2509 9.52397E-05-2.85773E-05-2.85696E-05-6.10100E-09 4.83134E-19-5.44807E-19
 -1      2510 9.52416E-05-2.85804E-05-2.85691E-05-1.49750E-09 1.24291E-19 4.37728E-18
 -1      2511 9.52414E-05-2.85801E-05-2.85691E-05-2.36071E-09 1.30560E-18 3.09739E-18
 -1      2512 9.52418E-05-2.85798E-05-2.85694E-05-3.23487E-09 1.59977E-18 1.58743E-18
 -1      2513 9.52417E-05-2.85805E-05-2.85691E-05 4.82439E-10-1.60857E-18 2.00735E-18
 -1      2514 9.52417E-05-2.85805E-05-2.85691E-05-4.35221E-10-1.77582E-18 4.49885E-18
 -1      2515 9.52422E-05-2.85804E-05-2.85694E-05-1.10274E-09-1.15435E-19 2.69929E-18
 -1      2516 9.52414E-05-2.85801E-05-2.85691E-05 2.40165E-09-9.94066E-19-2.01028E-18
 -1      2517 9.52416E-05-2.85804E-05-2.85691E-05 1.54245E-09-1.22154E-18-2.48799E-19
 -1      2518 9.52422E-05-2.85804E-05-2.85694E-05 1.15822E-09-1.56298E-18 1.26840E-18
 -1      2519 9.52408E-05-2.85791E-05-2.85693E-05 4.00186E-09 8.83526E-19-4.42137E-18
 -1      2520 9.52411E-05-2.85797E-05-2.85692E-05 3.31868E-09 1.76343E-19-5.04347E-18
 -1      2521 9.52417E-05-2.85798E-05-2.85694E-05 3.26480E-09 5.78522E-19-2.21626E-18
 -1      2522 9.52398E-05-2.85778E-05-2.85694E-05 5.12712E-09 1.56251E-18 2.80059E-19
 -1      2523 9.52403E-05-2.85785E-05-2.85693E-05 4.69253E-09 8.77581E-19-1.84114E-18
 -1      2524 9.52409E-05-2.85788E-05-2.85695E-05 4.98286E-09 2.17110E-18-3.21777E-18
 -1      2525 9.52386E-05-2.85761E-05-2.85697E-05 5.57295E-09 5.90318E-19 1.10341E-18
 -1      2526 9.52392E-05-2.85770E-05-2.85695E-05 5.47768E-09 1.34994E-18 7.88183E-19
 -1      2527 9.52397E-05-2.85773E-05-2.85696E-05 6.10046E-09 7.56341E-19 3.49984E-19
 -1      2528 9.52373E-05-2.85743E-05-2.85699E-05 5.23925E-09-3.55950E-19 1.52640E-19
 -1      2529 9.52380E-05-2.85752E-05-2.85697E-05 5.52095E-09 1.59115E-19 9.69351E-19
 -1      2530 9.52382E-05-2.85756E-05-2.85697E-05 6.41578E-09 5.20233E-19 6.16786E-19
 -1      2531 2.55209E-05-1.89900E-05-2.39778E-06 1.65668E-05 2.59510E-19 1.62503E-18
 -1      2532 1.99829E-05-1.55537E-05-1.45842E-06 1.02444E-06 3.34982E-19 1.93801E-18
 -1      2533 1.01089E-04-5.57025E-05-1.95889E-05 3.75829E-05 1.25996E-18 7.28025E-19
 -1      2534 7.85598E-05-4.75112E-05-1.31672E-05 3.83954E-05 6.99014E-19 1.52614E-18
 -1      2535 1.29265E-04-4.70621E-05-3.52788E-05-4.65673E-06-6.81067E-19 2.20623E-18
 -1      2536 1.25843E-04-4.33364E-05-3.51535E-05-8.27402E-06-3.49719E-19 2.18107E-18
 -1      2537 1.17500E-04-4.07950E-05-3.30912E-05-1.19699E-05-2.04333E-19 1.21295E-18
 -1      2538 1.36181E-04-6.46111E-05-3.09692E-05 2.16719E-05 1.97825E-18-5.93029E-19
 -1      2539 1.21461E-04-6.23700E-05-2.53104E-05 2.76862E-05 1.86517E-18-4.56021E-19
 -1      2540 9.52366E-05-2.85729E-05-2.85701E-05 3.73856E-09 1.43221E-19 7.12807E-19
 -1      2541 1.28231E-04-5.56935E-05-3.11246E-05-2.78694E-05 1.90784E-18 1.29469E-18
 -1      2542 1.40102E-04-5.30828E-05-3.77041E-05-1.90998E-05 1.41529E-18 1.33979E-18
 -1      2543 1.58078E-04-4.27243E-05-5.00910E-05-1.62999E-05 2.55719E-18 1.22947E-18
 -1      2544 1.58361E-04-5.15818E-05-4.62570E-05-1.39041E-05 3.22264E-18 4.74550E-19
 -1      2545 7.10599E-05-4.24107E-05-1.20384E-05-4.57608E-05 1.34424E-18 3.67083E-19
 -1      2546 8.93870E-05-4.84281E-05-1.74869E-05-4.65424E-05 1.54033E-18 1.00138E-18
 -1      2547 1.46862E-04-2.47359E-05-5.27191E-05 3.99598E-06 3.70789E-19 8.97008E-19
 -1      2548 1.48160E-04-1.77694E-05-5.63389E-05 4.06242E-06-1.41666E-19 1.03846E-18
 -1      2549 1.04328E-04-4.85118E-05-2.40672E-05 4.22681E-05 1.26631E-19 1.71810E-18
 -1      2550 8.34413E-05-4.29141E-05-1.72127E-05 4.49796E-05 5.15420E-19 1.42969E-18
 -1      2551 2.03497E-05-1.63303E-05-1.30992E-06-1.30597E-05 7.33848E-19 1.30951E-18
 -1      2552 2.52068E-05-1.91907E-05-2.22167E-06-2.46181E-05 7.29401E-19 6.18334E-19
 -1      2553 1.04702E-04-5.36079E-05-2.18700E-05-4.09553E-05 1.84568E-18 1.91064E-18
 -1      2554 1.16299E-04-5.50659E-05-2.63701E-05-3.77887E-05 1.68178E-18 1.46780E-18
 -1      2555 1.26772E-04-5.78708E-05-2.92324E-05-2.78298E-05 1.64303E-18 1.63022E-18
 -1      2556 1.01583E-04-5.27112E-05-2.06268E-05-4.15284E-05 1.43445E-18 1.92237E-18
 -1      2557 8.21702E-05-1.23781E-05-2.99676E-05 9.44258E-06 1.65593E-18 1.49442E-19
 -1      2558 8.58516E-05-1.42761E-05-3.06502E-05 7.41685E-06 1.56183E-18 1.03563E-20
 -1      2559 8.99207E-05-1.86012E-05-3.06364E-05 6.97267E-06 1.45746E-18 2.97785E-21
 -1      2560 8.18575E-05-1.39506E-05-2.91759E-05 1.20046E-05 1.53056E-18 2.02560E-19
 -1      2561 1.53121E-04-2.39360E-05-5.61280E-05-1.20341E-05 1.65044E-18 1.93928E-18
 -1      2562 1.55894E-04-3.01942E-05-5.41884E-05-1.67607E-05 2.22558E-18 1.98375E-18
 -1      2563 1.57790E-04-5.76162E-05-4.33359E-05-3.04632E-06 3.03317E-18-2.05405E-19
 -1      2564 1.46907E-04-6.36709E-05-3.59133E-05 8.41409E-06 2.18789E-18-1.74277E-19
 -1      2565 1.43093E-04-6.48248E-05-3.34552E-05 9.17768E-06 1.99508E-18-2.31875E-19
 -1      2566 1.51484E-04-5.64714E-05-4.07316E-05-1.11250E-05 2.54457E-18 2.21287E-19
 -1      2567 1.57531E-04-3.41227E-05-5.32623E-05 1.65580E-05-1.25996E-19 1.78893E-18
 -1      2568 1.56041E-04-2.71991E-05-5.58381E-05 1.37016E-05 3.69306E-19 2.03860E-18
 -1      2569 3.08994E-05-1.85217E-05-5.16542E-06 3.50178E-05 7.67835E-19 7.94305E-19
 -1      2570 2.16545E-05-1.47968E-05-2.54952E-06 2.33335E-05 6.29557E-19 5.79582E-19
 -1      2571 1.02256E-04-5.51703E-05-2.01296E-05-3.46349E-05-1.12147E-18-1.21851E-18
 -1      2572 1.19780E-04-5.98724E-05-2.59527E-05-3.10567E-05-1.30041E-18-1.00649E-18
 -1      2573 5.90710E-05-3.66067E-05-9.52907E-06-3.53962E-05-2.67027E-19-1.04905E-18
 -1      2574 8.09601E-05-4.62414E-05-1.49470E-05-3.92731E-05-7.38613E-19-1.25149E-18
 -1      2575 2.86928E-05-1.93655E-05-3.72534E-06-1.98484E-05 3.53213E-19-3.04932E-19
 -1      2576 4.04256E-05-2.53041E-05-6.34080E-06-2.99767E-05 1.59877E-19-8.19504E-19
 -1      2577 1.45039E-04-4.51111E-05-4.29509E-05-6.40812E-06 1.03666E-18 9.77264E-19
 -1      2578 1.48147E-04-3.71102E-05-4.81376E-05-4.00756E-07 7.48142E-19 1.10919E-18
 -1      2579 6.39613E-05-3.40191E-05-1.27700E-05 4.74265E-05 7.57036E-19 1.37780E-18
 -1      2580 4.79988E-05-2.70494E-05-8.63188E-06 4.22124E-05 7.91341E-19 1.10750E-18
 -1      2581 1.33563E-04-5.10624E-05-3.56868E-05 2.56864E-05-2.52945E-19 2.08667E-18
 -1      2582 1.21661E-04-5.15254E-05-2.99707E-05 3.13401E-05-1.57125E-19 1.92022E-18
 -1      2583 1.49049E-04-3.90469E-05-4.76265E-05 5.29917E-06-4.24946E-19 1.65108E-18
 -1      2584 1.41815E-04-4.58691E-05-4.11710E-05 1.38938E-05-5.22011E-19 1.86263E-18
 -1      2585 1.49924E-04-2.18776E-05-5.53813E-05-3.75424E-06-9.02090E-19 1.58395E-18
 -1      2586 1.48916E-04-2.81690E-05-5.19613E-05-2.46821E-06-7.28448E-19 1.52593E-18
 -1      2587 1.45671E-04-9.15265E-06-5.90432E-05-3.02183E-06-3.64224E-19 1.46431E-18
 -1      2588 1.48051E-04-1.38224E-05-5.78416E-05-4.23613E-06-5.97158E-19 1.54774E-18
 -1      2589 1.46789E-04-1.27142E-05-5.79320E-05 3.59101E-06-1.77242E-19 1.22269E-18
 -1      2590 1.44809E-04-9.12730E-06-5.86565E-05 2.02147E-06-5.50571E-20 1.37415E-18
 -1      2591 1.37652E-04-1.42578E-05-5.31167E-05 7.16250E-06 2.43098E-19 6.37498E-19
 -1      2592 5.75780E-05-3.76438E-05-8.46854E-06 3.82642E-05 5.88264E-19 1.84272E-18
 -1      2593 3.87621E-05-2.84361E-05-4.26355E-06 2.90095E-05 5.67724E-19 1.54202E-18
 -1      2594 7.58408E-05-4.19786E-05-1.40248E-05 3.73231E-05 3.75447E-19 1.45256E-18
 -1      2595 1.55049E-04-2.00096E-05-5.82209E-05 5.88627E-06 7.37342E-19 1.99942E-18
 -1      2596 1.52939E-04-1.86027E-05-5.80188E-05-2.92921E-06 9.89758E-19 2.25671E-18
 -1      2597 1.42959E-04-2.20549E-05-5.22043E-05-9.09559E-06 1.28474E-18 2.28042E-18
 -1      2598 1.43739E-04-2.38782E-05-5.17761E-05 1.21568E-05 4.84291E-19 2.09164E-18
 -1      2599 3.52638E-05-2.59552E-05-3.69926E-06-3.43389E-05 7.88799E-19 5.68571E-19
 -1      2600 5.09405E-05-3.29147E-05-7.57930E-06-4.38756E-05 7.65083E-19 4.38128E-19
 -1      2601 3.79768E-05-2.05911E-05-6.89328E-06-3.01991E-05 5.22513E-19 1.05858E-18
 -1      2602 1.15609E-04-3.04981E-05-3.64842E-05-4.45021E-06 1.58051E-19 2.95667E-18
 -1      2603 1.15019E-04-2.84759E-05-3.70928E-05-8.54096E-07 1.98312E-19 3.16990E-18
 -1      2604 1.09583E-04-2.45252E-05-3.64810E-05-4.21404E-07 3.60664E-19 2.90220E-18
 -1      2605 1.09276E-04-2.78018E-05-3.49477E-05-6.47475E-06 2.41365E-19 2.24993E-18
 -1      2606 9.89724E-05-2.26561E-05-3.27224E-05-4.33747E-06 1.08479E-18-9.31524E-19
 -1      2607 9.71738E-05-1.95416E-05-3.33097E-05-5.73427E-06 1.13040E-18-1.13460E-18
 -1      2608 9.83378E-05-2.00480E-05-3.36403E-05-7.93913E-06 9.87907E-19-1.33413E-18
 -1      2609 1.29536E-04-5.18468E-05-3.36478E-05-6.99110E-06-8.64040E-19 1.48728E-18
 -1      2610 1.01251E-04-1.96066E-05-3.50668E-05-1.01058E-06 6.41412E-19 2.46990E-18
 -1      2611 8.11652E-05-3.93406E-05-1.74914E-05 4.44781E-05 8.22045E-19 1.34419E-18
 -1      2612 9.92492E-05-2.05572E-05-3.37728E-05-9.53884E-06 8.69609E-19-1.48844E-18
 -1      2613 1.00338E-04-2.13295E-05-3.39654E-05-1.12458E-05 6.77948E-19-1.81080E-18
 -1      2614 1.02255E-04-2.47212E-05-3.32466E-05-1.05075E-05 5.43350E-19-1.71962E-18
 -1      2615 1.00901E-04-2.35300E-05-3.31647E-05-8.23916E-06 8.50930E-19-1.26764E-18
 -1      2616 1.40981E-04-5.11889E-05-3.85176E-05-7.89857E-06 1.21285E-18 1.02787E-18
 -1      2617 2.82917E-05-1.35133E-05-5.79961E-06-1.34956E-05 7.61483E-19-1.84653E-19
 -1      2618 5.77572E-05-2.98839E-05-1.14557E-05-3.22121E-05 1.56278E-19-8.85149E-19
 -1      2619 1.36211E-04-2.83799E-05-4.67025E-05 1.87043E-05 2.33993E-19 2.55470E-18
 -1      2620 1.39188E-04-3.64157E-05-4.48207E-05 2.25786E-05-4.75397E-20 2.87978E-18
 -1      2621 1.33964E-04-2.16017E-05-4.88899E-05-2.38542E-06 9.52489E-19 2.60795E-18
 -1      2622 1.34748E-04-2.30614E-05-4.84828E-05 8.87862E-06 6.00546E-19 2.70749E-18
 -1      2623 1.38437E-04-3.29002E-05-4.60804E-05-2.09724E-05 1.43784E-18 2.09572E-18
 -1      2624 1.34626E-04-2.43676E-05-4.75814E-05-1.32844E-05 1.11448E-18 2.44930E-18
 -1      2625 1.47069E-04-5.55116E-05-3.94545E-05-1.31531E-05 2.25748E-18 2.63851E-19
 -1      2626 9.52361E-05-2.85725E-05-2.85701E-05-4.06727E-09-2.90368E-19 1.42762E-18
 -1      2627 1.15198E-04-5.92630E-05-2.36279E-05 2.95560E-05 1.04397E-18-3.03185E-19
 -1      2628 9.52365E-05-2.85732E-05-2.85700E-05-4.62618E-09-5.40757E-19 1.92193E-18
 -1      2629 2.76640E-05-1.30197E-05-5.65563E-06-5.09038E-06 3.30025E-19 1.36881E-18
 -1      2630 4.04423E-05-2.16251E-05-7.49924E-06 2.32325E-05 8.25857E-20 1.63774E-18
 -1      2631 1.15950E-04-5.20284E-05-2.71845E-05 3.38263E-05 1.30867E-19 1.87491E-18
 -1      2632 1.41755E-04-3.13842E-05-4.75181E-05 6.93479E-06 7.01237E-19 6.98590E-19
 -1      2633 9.52359E-05-2.85725E-05-2.85700E-05 4.50337E-09 8.84828E-20 1.31187E-18
 -1      2634 9.52367E-05-2.85735E-05-2.85699E-05 5.03853E-09-5.20469E-19 9.50769E-19
 -1      2635 9.52367E-05-2.85738E-05-2.85698E-05 6.12168E-09-1.18945E-18 1.11508E-18
 -1      2636 9.52352E-05-2.85723E-05-2.85699E-05 5.31535E-09-4.44363E-19 1.66872E-18
 -1      2637 6.75508E-05-3.74134E-05-1.24799E-05-4.42713E-05 8.33480E-19 1.34572E-19
 -1      2638 1.38341E-04-7.96566E-06-5.63312E-05-4.19995E-07-2.13876E-20 9.69939E-19
 -1      2639 1.29046E-04-7.19495E-06-5.28015E-05-3.05324E-06-1.81689E-19 7.69754E-19
 -1      2640 1.28862E-04-7.15113E-06-5.26495E-05 2.54054E-06 2.06676E-19 4.31404E-19
 -1      2641 1.39781E-04-1.59485E-05-5.33172E-05-8.09409E-06-7.31413E-19 1.19940E-18
 -1      2642 1.44142E-04-3.47037E-05-4.70494E-05-3.32795E-06-5.58301E-19 1.30951E-18
 -1      2643 9.79377E-05-1.95585E-05-3.35625E-05-4.13842E-06 6.60668E-19 2.09096E-18
 -1      2644 2.29076E-05-1.01275E-05-4.93547E-06 1.62358E-05 1.01681E-18 4.61209E-19
 -1      2645 1.59959E-04-5.32969E-05-4.55535E-05 9.06461E-06-8.30833E-19 5.23466E-19
 -1      2646 1.63548E-04-4.51765E-05-5.10484E-05 1.36259E-05-4.66080E-19 9.98864E-19
 -1      2647 9.52364E-05-2.85735E-05-2.85698E-05-5.76296E-09-4.17019E-19 1.78146E-18
 -1      2648 9.73355E-05-5.09503E-05-1.94609E-05-3.50948E-05-6.92238E-19-1.06716E-18
 -1      2649 9.52356E-05-2.85729E-05-2.85697E-05 6.53455E-09-4.61939E-19 1.89645E-18
 -1      2650 1.35350E-04-6.43810E-05-2.99339E-05-1.86412E-05-1.23794E-18-5.41783E-19
 -1      2651 4.59579E-05-2.09817E-05-1.01441E-05 3.87163E-05 1.06599E-18 1.13015E-18
 -1      2652 1.52249E-04-4.08214E-05-4.79659E-05 1.91082E-05-1.27796E-19 1.74870E-18
 -1      2653 1.38638E-04-5.02697E-05-3.78021E-05 1.31007E-05-2.67874E-19 1.74129E-18
 -1      2654 1.56904E-04-5.87012E-05-4.17514E-05 6.75673E-06-1.15039E-18 1.83383E-19
 -1      2655 1.48477E-04-3.90675E-05-4.71168E-05-2.11879E-05 2.32669E-18 1.31735E-18
 -1      2656 6.15582E-05-2.19762E-06-2.55627E-05 1.42499E-05 1.71158E-18 7.60100E-19
 -1      2657 6.53408E-05-4.52203E-06-2.59093E-05 1.59942E-05 1.72337E-18 5.97841E-19
 -1      2658 7.08111E-05-8.80385E-06-2.66838E-05 1.72821E-05 1.67425E-18 4.92192E-19
 -1      2659 7.63120E-05-1.20627E-05-2.73882E-05 1.68537E-05 1.63448E-18 4.33382E-19
 -1      2660 6.83091E-05-8.94375E-06-2.53894E-05 1.93443E-05 1.59110E-18 5.27364E-19
 -1      2661 6.68265E-05-3.48637E-06-2.70651E-05-1.54588E-06 1.47231E-18 1.01736E-18
 -1      2662 6.19730E-05-1.05483E-06-2.61665E-05 1.48953E-06 1.61039E-18 8.74912E-19
 -1      2663 8.19383E-05-1.22838E-05-2.97355E-05-6.52358E-06 1.07239E-18 1.35204E-18
 -1      2664 7.39825E-05-8.02880E-06-2.83697E-05-5.10864E-06 1.28931E-18 1.16645E-18
 -1      2665 6.93601E-05-7.22455E-06-2.65187E-05-5.84870E-06 1.33072E-18 9.76834E-19
 -1      2666 2.95680E-05-6.87277E-06-9.40989E-06 2.12814E-05 1.34451E-18 6.78050E-19
 -1      2667 2.51381E-05-5.52391E-06-7.80884E-06 6.39245E-06 1.21959E-18 2.74439E-19
 -1      2668 1.04842E-04-3.01192E-05-3.20051E-05-9.48368E-06 5.10477E-19-1.49933E-18
 -1      2669 1.04683E-04-3.10153E-05-3.16099E-05-9.12005E-06 4.61662E-19-1.32237E-18
 -1      2670 1.04445E-04-3.02654E-05-3.17117E-05-1.31119E-05 3.04677E-19 1.22114E-18
 -1      2671 1.02066E-04-2.65280E-05-3.22502E-05-1.11501E-05 3.54960E-19 1.46872E-18
 -1      2672 2.86772E-05-6.93809E-06-8.72591E-06-4.96999E-06 1.07252E-18 6.35275E-20
 -1      2673 3.86110E-05-1.18531E-05-1.11168E-05-1.82769E-05 9.88170E-19-1.57125E-19
 -1      2674 3.56537E-05-4.34031E-06-1.26928E-05 7.40249E-07 1.34983E-18 2.69780E-19
 -1      2675 1.05105E-04-3.16966E-05-3.14399E-05-9.37387E-06 4.28194E-19-1.21045E-18
 -1      2676 1.04479E-04-3.15961E-05-3.12516E-05-9.39147E-06 3.08429E-19-1.03388E-18
 -1      2677 1.06046E-04-3.16319E-05-3.18796E-05-9.44610E-06 5.49806E-19-1.13519E-18
 -1      2678 1.04166E-04-3.12035E-05-3.12782E-05-9.71521E-06 1.00794E-19-8.80372E-19
 -1      2679 1.03180E-04-3.02525E-05-3.12401E-05-9.58060E-06-5.51465E-20-8.29713E-19
 -1      2680 1.06174E-04-3.19230E-05-3.18001E-05-1.00922E-05 3.00890E-19-9.08400E-19
 -1      2681 1.02199E-04-2.90090E-05-3.14011E-05-9.35766E-06-2.50804E-19-7.01089E-19
 -1      2682 1.01043E-04-2.75591E-05-3.14513E-05-8.57259E-06-2.36473E-19-7.49196E-19
 -1      2683 1.04877E-04-2.99840E-05-3.20727E-05-1.03172E-05-3.11396E-20-8.26193E-19
 -1      2684 9.97473E-05-2.59934E-05-3.16473E-05-7.28898E-06-2.22871E-19-6.98362E-19
 -1      2685 9.87740E-05-2.46763E-05-3.17094E-05-5.63700E-06-3.83213E-19-8.24218E-19
 -1      2686 1.02544E-04-2.66464E-05-3.25233E-05-8.88799E-06-3.10873E-19-7.17992E-19
 -1      2687 9.78057E-05-2.35788E-05-3.18220E-05-3.28806E-06-6.20089E-19-9.18880E-19
 -1      2688 9.73867E-05-2.30584E-05-3.18280E-05-1.02096E-06-5.78249E-19-1.21236E-18
 -1      2689 1.00209E-04-2.34849E-05-3.29046E-05-5.14681E-06-5.37911E-19-1.03107E-18
 -1      2690 9.73137E-05-2.30960E-05-3.17748E-05 1.77045E-06-3.17513E-19-1.12505E-18
 -1      2691 9.76258E-05-2.37073E-05-3.16924E-05 3.97824E-06-1.71841E-19-1.12455E-18
 -1      2692 9.91299E-05-2.22310E-05-3.29882E-05 2.80764E-07-4.14559E-19-9.05319E-19
 -1      2693 9.84453E-05-2.48934E-05-3.14686E-05 6.20536E-06-2.60959E-20-1.04893E-18
 -1      2694 9.92924E-05-2.63369E-05-3.13135E-05 7.67026E-06 5.48667E-20-6.59390E-19
 -1      2695 9.99246E-05-2.37283E-05-3.26731E-05 5.58401E-06-9.06300E-20-6.44582E-19
 -1      2696 1.00451E-04-2.80608E-05-3.09782E-05 8.66839E-06-2.03635E-20-6.83105E-19
 -1      2697 1.01436E-04-2.96955E-05-3.07956E-05 9.08165E-06 1.16513E-19-7.83611E-19
 -1      2698 1.01989E-04-2.72188E-05-3.20285E-05 8.88418E-06 1.17338E-19-4.98253E-19
 -1      2699 1.02283E-04-3.12011E-05-3.04437E-05 8.81102E-06 6.03610E-20-8.33786E-19
 -1      2700 1.03032E-04-3.24567E-05-3.02803E-05 8.31337E-06 1.43623E-19-1.03403E-18
 -1      2701 1.04077E-04-3.11226E-05-3.12370E-05 9.48447E-06-4.39742E-20-8.71340E-19
 -1      2702 1.03240E-04-3.32969E-05-2.99822E-05 7.20918E-06 6.48754E-20-1.00182E-18
 -1      2703 1.03576E-04-3.39150E-05-2.98640E-05 6.19022E-06-2.15547E-20-9.71493E-19
 -1      2704 1.05156E-04-3.39453E-05-3.04893E-05 7.90717E-06-1.09128E-19-1.07881E-18
 -1      2705 1.03197E-04-3.40589E-05-2.96527E-05 4.81302E-06 2.68920E-19-8.80504E-19
 -1      2706 1.03148E-04-3.41062E-05-2.95810E-05 3.65817E-06 3.66265E-19-5.34217E-19
 -1      2707 1.04959E-04-3.51385E-05-2.99077E-05 5.26284E-06 3.09634E-19-5.75095E-19
 -1      2708 1.02422E-04-3.37658E-05-2.94503E-05 2.39555E-06 1.52664E-19-1.68470E-19
 -1      2709 1.02113E-04-3.34468E-05-2.94115E-05 1.36358E-06 2.23777E-19 2.27830E-19
 -1      2710 1.03814E-04-3.49320E-05-2.95205E-05 2.54536E-06 6.21780E-19 1.80075E-19
 -1      2711 1.01278E-04-3.28747E-05-2.93393E-05 3.96998E-07 8.28889E-20 1.47669E-20
 -1      2712 1.00846E-04-3.23953E-05-2.93169E-05-3.90495E-07-6.70324E-20 5.43288E-20
 -1      2713 1.02221E-04-3.38908E-05-2.92937E-05 3.05088E-07 1.27997E-20 1.89227E-19
 -1      2714 1.00064E-04-3.17862E-05-2.92792E-05-1.02695E-06-3.12255E-19-1.45130E-19
 -1      2715 9.96063E-05-3.12932E-05-2.92604E-05-1.54813E-06-5.68516E-19 6.52027E-20
 -1      2716 1.00586E-04-3.25411E-05-2.91748E-05-1.27120E-06-2.55283E-19 1.81371E-19
 -1      2717 9.89551E-05-3.07582E-05-2.92385E-05-1.89790E-06-5.28878E-19 1.53142E-19
 -1      2718 9.85311E-05-3.03309E-05-2.92158E-05-2.18539E-06-4.58542E-19 2.94816E-19
 -1      2719 9.91449E-05-3.12383E-05-2.91154E-05-2.21755E-06-4.61367E-19-1.51312E-21
 -1      2720 9.80289E-05-2.99144E-05-2.91980E-05-2.31819E-06-3.58918E-19 2.57348E-19
 -1      2721 9.76638E-05-2.95822E-05-2.91689E-05-2.42602E-06 1.76564E-20 4.38591E-19
 -1      2722 9.79903E-05-3.01594E-05-2.90810E-05-2.66037E-06-2.23685E-19 1.27932E-20
 -1      2723 9.72970E-05-2.92870E-05-2.91494E-05-2.41123E-06-1.02184E-19 3.41862E-19
 -1      2724 9.69963E-05-2.90495E-05-2.91144E-05-2.39516E-06-8.90372E-20-1.06062E-19
 -1      2725 9.71231E-05-2.93562E-05-2.90511E-05-2.74413E-06-1.58297E-19 4.38420E-20
 -1      2726 9.67389E-05-2.88579E-05-2.90915E-05-2.29060E-06 3.75496E-19-2.79934E-19
 -1      2727 9.64981E-05-2.87003E-05-2.90530E-05-2.19849E-06 4.25198E-19-4.11249E-19
 -1      2728 9.65016E-05-2.88105E-05-2.90165E-05-2.59708E-06-4.37134E-21 1.00525E-19
 -1      2729 9.63228E-05-2.85882E-05-2.90271E-05-2.04756E-06 3.04985E-19-6.60772E-19
 -1      2730 9.61334E-05-2.84920E-05-2.89877E-05-1.91619E-06 6.65919E-19-1.23347E-18
 -1      2731 9.60715E-05-2.84735E-05-2.89749E-05-2.31966E-06 1.54895E-19-3.30080E-19
 -1      2732 9.60165E-05-2.84359E-05-2.89603E-05-1.74903E-06 4.96354E-19-9.16410E-19
 -1      2733 9.58696E-05-2.83833E-05-2.89223E-05-1.60429E-06 1.73207E-19-9.68697E-19
 -1      2734 9.57816E-05-2.82906E-05-2.89277E-05-1.98415E-06 6.08894E-19-7.63618E-19
 -1      2735 9.57929E-05-2.83639E-05-2.88950E-05-1.44023E-06 1.01598E-21-1.35626E-18
 -1      2736 9.56801E-05-2.83405E-05-2.88601E-05-1.29885E-06 4.71365E-19-1.35344E-18
 -1      2737 9.55900E-05-2.82129E-05-2.88781E-05-1.63891E-06-1.34848E-19-5.22459E-19
 -1      2738 9.56303E-05-2.83432E-05-2.88343E-05-1.14910E-06 5.84544E-19-1.53122E-18
 -1      2739 9.55445E-05-2.83380E-05-2.88033E-05-1.02075E-06 3.97404E-19-1.21960E-18
 -1      2740 9.54651E-05-2.82016E-05-2.88288E-05-1.31368E-06 3.02891E-19-3.89972E-19
 -1      2741 9.55123E-05-2.83525E-05-2.87800E-05-8.90803E-07 2.49080E-19-1.32221E-18
 -1      2742 9.54478E-05-2.83577E-05-2.87535E-05-7.80089E-07 4.04912E-20-8.77336E-19
 -1      2743 9.53845E-05-2.82283E-05-2.87824E-05-1.02460E-06 5.02138E-19-1.15814E-18
 -1      2744 9.54269E-05-2.83773E-05-2.87331E-05-6.71613E-07-7.40501E-20-5.61452E-20
 -1      2745 9.53790E-05-2.83877E-05-2.87112E-05-5.79825E-07 9.68918E-21 9.04944E-20
 -1      2746 9.53326E-05-2.82736E-05-2.87405E-05-7.78426E-07 7.14357E-19-9.47615E-20
 -1      2747 9.53654E-05-2.84083E-05-2.86938E-05-4.92117E-07 1.04621E-19-1.63201E-19
 -1      2748 9.53303E-05-2.84206E-05-2.86761E-05-4.18480E-07 4.09487E-20 3.36919E-19
 -1      2749 9.52992E-05-2.83251E-05-2.87039E-05-5.75857E-07 1.92642E-19 9.01447E-19
 -1      2750 9.53213E-05-2.84398E-05-2.86618E-05-3.49527E-07 3.71263E-19 8.59638E-19
 -1      2751 9.52961E-05-2.84521E-05-2.86479E-05-2.92152E-07 5.27667E-19 7.31647E-19
 -1      2752 9.52776E-05-2.83753E-05-2.86730E-05-4.13971E-07 1.64008E-19 1.33912E-18
 -1      2753 9.52901E-05-2.84688E-05-2.86363E-05-2.39346E-07 3.87840E-19 4.66037E-19
 -1      2754 9.52723E-05-2.84799E-05-2.86257E-05-1.95854E-07 3.52647E-19 9.09967E-19
 -1      2755 9.52634E-05-2.84204E-05-2.86475E-05-2.87982E-07 1.26750E-19 1.21817E-18
 -1      2756 9.52682E-05-2.84938E-05-2.86166E-05-1.56446E-07 2.33573E-19 4.76461E-19
 -1      2757 9.52560E-05-2.85033E-05-2.86086E-05-1.24373E-07-2.85405E-20 6.68505E-19
 -1      2758 9.52541E-05-2.84587E-05-2.86270E-05-1.92386E-07 3.62578E-19 1.14795E-18
 -1      2759 9.52532E-05-2.85144E-05-2.86016E-05-9.57433E-08 1.40831E-19 3.49707E-19
 -1      2760 9.52452E-05-2.85223E-05-2.85957E-05-7.27742E-08-1.18547E-19 5.60355E-19
 -1      2761 9.52478E-05-2.84898E-05-2.86109E-05-1.21684E-07 1.98204E-19 4.51746E-20
 -1      2762 9.52433E-05-2.85308E-05-2.85905E-05-5.25851E-08-4.11479E-19 1.24447E-18
 -1      2763 9.52382E-05-2.85371E-05-2.85863E-05-3.66751E-08-4.09082E-19 9.39069E-19
 -1      2764 9.52436E-05-2.85143E-05-2.85985E-05-7.07995E-08-1.46739E-19 1.74476E-19
 -1      2765 9.52369E-05-2.85435E-05-2.85825E-05-2.29331E-08-3.03088E-19 2.03820E-18
 -1      2766 9.52340E-05-2.85483E-05-2.85797E-05-1.23562E-08-4.41449E-19 2.31307E-18
 -1      2767 9.52408E-05-2.85330E-05-2.85892E-05-3.52940E-08 2.88918E-20 1.24783E-18
 -1      2768 9.52331E-05-2.85530E-05-2.85769E-05-3.41820E-09 4.61071E-19 2.64275E-18
 -1      2769 9.52316E-05-2.85566E-05-2.85751E-05 3.23447E-09 1.55176E-18 3.02327E-18
 -1      2770 9.52389E-05-2.85469E-05-2.85824E-05-1.14372E-08 4.50004E-19 2.76039E-18
 -1      2771 9.52310E-05-2.85599E-05-2.85732E-05 8.68493E-09 6.19732E-19 2.55729E-18
 -1      2772 9.52306E-05-2.85626E-05-2.85720E-05 1.25306E-08 1.92452E-19 1.71352E-18
 -1      2773 9.52376E-05-2.85569E-05-2.85776E-05 3.81171E-09 4.30781E-19 6.99903E-19
 -1      2774 9.52302E-05-2.85648E-05-2.85708E-05 1.55218E-08-2.99570E-19 3.47425E-19
 -1      2775 9.52304E-05-2.85667E-05-2.85701E-05 1.74235E-08-1.46720E-18 1.70125E-19
 -1      2776 9.52369E-05-2.85639E-05-2.85742E-05 1.28670E-08-1.21802E-18 4.39294E-21
 -1      2777 9.52302E-05-2.85682E-05-2.85694E-05 1.87390E-08-9.44722E-19-1.53080E-20
 -1      2778 9.52307E-05-2.85695E-05-2.85691E-05 1.93466E-08-1.03430E-18 6.39415E-19
 -1      2779 9.52364E-05-2.85685E-05-2.85720E-05 1.75983E-08-9.17598E-19-1.94722E-19
 -1      2780 9.52306E-05-2.85704E-05-2.85686E-05 1.95689E-08-1.64105E-18 1.67071E-18
 -1      2781 9.52314E-05-2.85713E-05-2.85686E-05 1.93585E-08-1.56704E-18 1.31069E-18
 -1      2782 9.52362E-05-2.85715E-05-2.85706E-05 1.94187E-08-9.44485E-19 4.32497E-19
 -1      2783 9.52313E-05-2.85718E-05-2.85684E-05 1.89089E-08-1.83948E-18 7.47708E-19
 -1      2784 9.52321E-05-2.85724E-05-2.85685E-05 1.82185E-08-1.94957E-18 8.65034E-19
 -1      2785 9.52361E-05-2.85732E-05-2.85698E-05 1.93694E-08-2.16709E-18-8.97837E-20
 -1      2786 9.52322E-05-2.85726E-05-2.85684E-05 1.73914E-08-1.17620E-18 2.73242E-19
 -1      2787 9.52330E-05-2.85730E-05-2.85686E-05 1.64514E-08-1.04476E-19-4.93536E-20
 -1      2788 9.52361E-05-2.85742E-05-2.85694E-05 1.81953E-08-1.50063E-18-1.71576E-18
 -1      2789 9.52330E-05-2.85730E-05-2.85686E-05 1.54436E-08 3.77180E-19-5.38942E-19
 -1      2790 9.52338E-05-2.85733E-05-2.85688E-05 1.44017E-08 1.08746E-18-1.09343E-18
 -1      2791 9.52362E-05-2.85746E-05-2.85693E-05 1.64102E-08-4.04489E-19-6.24632E-19
 -1      2792 9.52339E-05-2.85732E-05-2.85689E-05 1.33356E-08 1.47469E-18-9.55975E-19
 -1      2793 9.52346E-05-2.85734E-05-2.85691E-05 1.22771E-08 1.51782E-18-7.77232E-19
 -1      2794 9.52364E-05-2.85747E-05-2.85693E-05 1.43504E-08 8.96664E-19-1.39925E-18
 -1      2795 9.52347E-05-2.85734E-05-2.85692E-05 1.12190E-08 1.50843E-18-1.25850E-18
 -1      2796 9.52354E-05-2.85735E-05-2.85694E-05 1.01806E-08 9.99614E-19-1.34276E-18
 -1      2797 9.52366E-05-2.85746E-05-2.85694E-05 1.22177E-08 1.20979E-18-2.12675E-18
 -1      2798 9.52355E-05-2.85735E-05-2.85695E-05 9.16069E-09 9.99486E-19-7.31765E-19
 -1      2799 9.52361E-05-2.85737E-05-2.85696E-05 8.15131E-09 8.74812E-19-4.71577E-19
 -1      2800 9.52368E-05-2.85746E-05-2.85695E-05 1.01115E-08 1.81695E-18-2.25561E-18
 -1      2801 1.42145E-04-6.18595E-05-3.48418E-05-4.27456E-06-1.09177E-18 6.84429E-19
 -1      2802 6.17401E-05-3.09156E-05-1.26103E-05-4.04253E-05 3.41778E-19 5.23255E-19
 -1      2803 7.90151E-05-4.07026E-05-1.63916E-05-4.37386E-05 5.20502E-19 6.72756E-19
 -1      2804 1.46839E-04-6.17713E-05-3.66557E-05-3.55659E-06 1.83531E-18 2.36534E-19
 -1      2805 1.30034E-04-5.50759E-05-3.18847E-05 1.04770E-05 1.44456E-18 6.39563E-19
 -1      2806 1.36877E-04-5.92103E-05-3.33720E-05 4.24318E-06 1.71863E-18 4.04326E-19
 -1      2807 1.40676E-04-6.18318E-05-3.39530E-05 4.98349E-06 1.69804E-18 3.52101E-19
 -1      2808 9.94971E-05-2.82977E-05-3.04943E-05 1.70585E-05-6.34960E-19 5.78366E-19
 -1      2809 1.01632E-04-3.03522E-05-3.04859E-05 1.77853E-05-4.88255E-19 4.85627E-19
 -1      2810 9.80199E-05-2.65206E-05-3.06550E-05 1.43142E-05-1.28409E-19 6.66702E-19
 -1      2811 9.92190E-05-2.73635E-05-3.07525E-05 1.54747E-05-5.38830E-19 4.33496E-19
 -1      2812 9.37137E-05-2.54496E-05-2.92594E-05 1.69939E-05-4.96414E-19-3.91769E-20
 -1      2813 9.74807E-05-2.61776E-05-3.05786E-05 1.16102E-05 3.09732E-19 7.88115E-19
 -1      2814 9.82389E-05-2.64135E-05-3.07481E-05 1.28490E-05 3.77591E-20 8.74734E-19
 -1      2815 9.37965E-05-2.43752E-05-2.97380E-05 1.39084E-05-7.58020E-20 3.29805E-19
 -1      2816 9.72357E-05-2.64293E-05-3.03644E-05 9.19630E-06 1.63180E-19 2.33123E-19
 -1      2817 9.77907E-05-2.64088E-05-3.05621E-05 1.03358E-05 4.93410E-19 3.33212E-19
 -1      2818 9.43773E-05-2.45579E-05-2.99042E-05 1.11982E-05 3.88521E-19 7.19176E-19
 -1      2819 9.70352E-05-2.68511E-05-3.00940E-05 7.15675E-06-7.01945E-19-8.12707E-20
 -1      2820 9.74841E-05-2.67476E-05-3.02890E-05 8.12712E-06-5.48628E-19 4.38851E-19
 -1      2821 9.49510E-05-2.52039E-05-2.98759E-05 8.88390E-06-1.85716E-19 2.70680E-19
 -1      2822 9.68127E-05-2.72615E-05-2.98189E-05 5.49327E-06-6.79289E-20-3.48821E-19
 -1      2823 9.71896E-05-2.71490E-05-2.99945E-05 6.28272E-06-2.03549E-19 2.31402E-20
 -1      2824 9.53579E-05-2.59254E-05-2.97458E-05 6.95322E-06-4.63425E-19-6.13605E-20
 -1      2825 9.65700E-05-2.75999E-05-2.95666E-05 4.16880E-06 5.24495E-19-8.32117E-19
 -1      2826 9.68865E-05-2.75043E-05-2.97161E-05 4.79295E-06 2.39848E-19-3.56682E-19
 -1      2827 9.55884E-05-2.65654E-05-2.95747E-05 5.37605E-06 1.82507E-20-7.04776E-19
 -1      2828 9.63262E-05-2.78588E-05-2.93487E-05 3.13188E-06 9.34066E-19-6.86674E-20
 -1      2829 9.65879E-05-2.77849E-05-2.94715E-05 3.61627E-06 5.91939E-19-9.67548E-19
 -1      2830 9.56835E-05-2.70798E-05-2.93983E-05 4.11056E-06 4.55453E-19-1.14952E-18
 -1      2831 9.60990E-05-2.80495E-05-2.91678E-05 2.32996E-06-2.79504E-21 6.62765E-19
 -1      2832 9.63110E-05-2.79949E-05-2.92660E-05 2.70119E-06 6.48325E-19 5.64694E-19
 -1      2833 9.56906E-05-2.74729E-05-2.92350E-05 3.10995E-06 8.20911E-20 3.04925E-19
 -1      2834 9.58992E-05-2.81878E-05-2.90216E-05 1.71559E-06-7.83234E-19 6.33119E-19
 -1      2835 9.60673E-05-2.81479E-05-2.90986E-05 1.99750E-06-1.92595E-19 8.85869E-19
 -1      2836 9.56486E-05-2.77656E-05-2.90929E-05 2.32818E-06-3.44297E-20 7.02633E-19
 -1      2837 9.57312E-05-2.82877E-05-2.89060E-05 1.24867E-06-6.82459E-19-1.66754E-19
 -1      2838 9.58620E-05-2.82585E-05-2.89654E-05 1.46113E-06-5.07279E-19 6.45807E-19
 -1      2839 9.55846E-05-2.79809E-05-2.89739E-05 1.72353E-06-5.93549E-19 1.33850E-19
 -1      2840 9.55952E-05-2.83603E-05-2.88160E-05 8.96521E-07 4.73456E-19-8.87461E-19
 -1      2841 9.56949E-05-2.83386E-05-2.88612E-05 1.05550E-06-1.13897E-19-6.26552E-19
 -1      2842 9.55155E-05-2.81385E-05-2.88770E-05 1.26011E-06-6.09482E-20-2.33422E-19
 -1      2843 9.54884E-05-2.84135E-05-2.87470E-05 6.33087E-07-7.29147E-19-6.73955E-19
 -1      2844 9.55629E-05-2.83970E-05-2.87810E-05 7.51110E-07-3.56504E-19-1.03499E-18
 -1      2845 9.54507E-05-2.82541E-05-2.87997E-05 9.08092E-07 2.64972E-20-5.53796E-19
 -1      2846 9.54068E-05-2.84530E-05-2.86949E-05 4.37828E-07-9.71866E-19-3.25548E-19
 -1      2847 9.54614E-05-2.84403E-05-2.87201E-05 5.24653E-07-7.10127E-19-7.05798E-19
 -1      2848 9.53947E-05-2.83392E-05-2.87392E-05 6.43177E-07-6.82859E-19-1.69322E-19
 -1      2849 9.53462E-05-2.84827E-05-2.86560E-05 2.94670E-07-3.36841E-19 4.32007E-19
 -1      2850 9.53853E-05-2.84726E-05-2.86744E-05 3.57841E-07-6.37550E-19-1.41659E-20
 -1      2851 9.53489E-05-2.84021E-05-2.86924E-05 4.45865E-07-8.06513E-19-7.47031E-19
 -1      2852 9.53024E-05-2.85052E-05-2.86275E-05 1.91086E-07-1.15881E-18 9.89496E-19
 -1      2853 9.53297E-05-2.84971E-05-2.86407E-05 2.36423E-07-3.97603E-19 1.24137E-18
 -1      2854 9.53130E-05-2.84487E-05-2.86569E-05 3.00640E-07-7.70502E-19-4.10072E-20
 -1      2855 9.52717E-05-2.85223E-05-2.86070E-05 1.17347E-07-5.34399E-19 2.13747E-19
 -1      2856 9.52901E-05-2.85158E-05-2.86162E-05 1.49330E-07-9.92620E-19 1.27078E-18
 -1      2857 9.52859E-05-2.84834E-05-2.86303E-05 1.95242E-07-5.35122E-19 1.20058E-19
 -1      2858 9.52509E-05-2.85354E-05-2.85924E-05 6.59132E-08 1.54759E-18-5.22672E-19
 -1      2859 9.52629E-05-2.85302E-05-2.85988E-05 8.79857E-08 4.93905E-19-7.68688E-20
 -1      2860 9.52661E-05-2.85091E-05-2.86107E-05 1.20038E-07 2.31565E-19 4.71083E-19
 -1      2861 9.52375E-05-2.85453E-05-2.85824E-05 3.09636E-08 2.09298E-18-1.07375E-18
 -1      2862 9.52448E-05-2.85412E-05-2.85866E-05 4.57647E-08 2.06010E-18-5.06357E-19
 -1      2863 9.52522E-05-2.85281E-05-2.85964E-05 6.74882E-08 1.40360E-18-6.16321E-19
 -1      2864 9.52295E-05-2.85529E-05-2.85757E-05 8.03391E-09 8.21885E-19 7.69612E-19
 -1      2865 9.52335E-05-2.85496E-05-2.85784E-05 1.75735E-08 1.12797E-18-5.14881E-19
 -1      2866 9.52428E-05-2.85421E-05-2.85863E-05 3.17309E-08 9.68431E-19-1.01961E-19
 -1      2867 9.52251E-05-2.85585E-05-2.85714E-05-6.27444E-09 1.51710E-18 9.47446E-19
 -1      2868 9.52269E-05-2.85559E-05-2.85730E-05-4.76144E-10 1.40357E-18 5.92653E-19
 -1      2869 9.52367E-05-2.85522E-05-2.85793E-05 8.24546E-09 9.21281E-19 2.74237E-19
 -1      2870 9.52233E-05-2.85627E-05-2.85688E-05-1.45246E-08 1.16533E-19 1.11956E-18
 -1      2871 9.52237E-05-2.85607E-05-2.85697E-05-1.13286E-08 1.18367E-18 9.03183E-19
 -1      2872 9.52332E-05-2.85594E-05-2.85746E-05-6.42327E-09 1.17600E-18 3.41972E-19
 -1      2873 9.52232E-05-2.85657E-05-2.85675E-05-1.86281E-08-8.02126E-19-9.11516E-19
 -1      2874 9.52226E-05-2.85642E-05-2.85678E-05-1.71906E-08-1.95812E-19 2.68754E-19
 -1      2875 9.52313E-05-2.85645E-05-2.85716E-05-1.48894E-08 3.19476E-19 1.12470E-18
 -1      2876 9.52241E-05-2.85679E-05-2.85669E-05-1.99900E-08-1.11323E-18-9.91792E-19
 -1      2877 9.52230E-05-2.85668E-05-2.85669E-05-1.96956E-08-1.83604E-18-1.66073E-18
 -1      2878 9.52306E-05-2.85680E-05-2.85698E-05-1.91066E-08-9.38961E-19 1.92412E-19
 -1      2879 9.52255E-05-2.85695E-05-2.85668E-05-1.96244E-08-2.12420E-18-9.81236E-19
 -1      2880 9.52242E-05-2.85686E-05-2.85666E-05-2.00330E-08-1.22571E-18-4.60212E-19
 -1      2881 9.52306E-05-2.85702E-05-2.85688E-05-2.05125E-08-1.85220E-18-8.08134E-20
 -1      2882 9.52272E-05-2.85705E-05-2.85671E-05-1.82461E-08-1.79196E-18-1.42752E-18
 -1      2883 9.52258E-05-2.85699E-05-2.85668E-05-1.90509E-08-2.19062E-18-1.21416E-18
 -1      2884 9.52311E-05-2.85717E-05-2.85683E-05-2.01455E-08-2.34591E-18-1.24741E-18
 -1      2885 9.52289E-05-2.85712E-05-2.85676E-05-1.63415E-08-1.97725E-18-9.57834E-19
 -1      2886 9.52276E-05-2.85708E-05-2.85672E-05-1.73373E-08-1.63216E-18-1.73006E-18
 -1      2887 9.52318E-05-2.85725E-05-2.85683E-05-1.87368E-08-1.42238E-18-8.22466E-19
 -1      2888 9.52306E-05-2.85717E-05-2.85681E-05-1.42250E-08 1.87821E-18-1.88857E-18
 -1      2889 9.52293E-05-2.85714E-05-2.85677E-05-1.52829E-08 3.40362E-19-1.26862E-18
 -1      2890 9.52326E-05-2.85730E-05-2.85684E-05-1.67838E-08-6.41739E-19-8.01913E-19
 -1      2891 9.52321E-05-2.85721E-05-2.85686E-05-1.20812E-08 7.75035E-19-1.51070E-18
 -1      2892 9.52310E-05-2.85718E-05-2.85683E-05-1.31298E-08 5.93909E-19-1.21547E-18
 -1      2893 9.52335E-05-2.85732E-05-2.85687E-05-1.46071E-08 1.12736E-18-2.46440E-18
 -1      2894 9.52335E-05-2.85724E-05-2.85691E-05-9.99978E-09 1.54383E-18 6.04609E-19
 -1      2895 9.52326E-05-2.85721E-05-2.85688E-05-1.10090E-08 1.63105E-18-6.81065E-19
 -1      2896 9.52344E-05-2.85733E-05-2.85690E-05-1.23956E-08 4.79957E-19-1.29179E-18
 -1      2897 9.52348E-05-2.85727E-05-2.85695E-05-7.99878E-09-6.40476E-19 1.54887E-18
 -1      2898 9.52339E-05-2.85724E-05-2.85692E-05-8.96109E-09 6.78753E-19 1.94019E-18
 -1      2899 9.52352E-05-2.85734E-05-2.85693E-05-1.02440E-08 9.48185E-19 8.63786E-19
 -1      2900 9.52360E-05-2.85732E-05-2.85698E-05-6.40626E-09-5.70222E-19 1.68332E-18
 -1      2901 9.52353E-05-2.85730E-05-2.85696E-05-7.36933E-09-6.26299E-19 1.62248E-18
 -1      2902 9.52362E-05-2.85738E-05-2.85696E-05-8.48488E-09-3.85537E-19 2.56098E-18
 -1      2903 9.52371E-05-2.85744E-05-2.85697E-05-7.07977E-09-1.22696E-18 1.30511E-18
 -1      2904 9.52431E-05-2.85806E-05-2.85696E-05-6.39369E-10-1.13745E-18 1.75582E-18
 -1      2905 9.52430E-05-2.85804E-05-2.85697E-05-1.80634E-09 1.11041E-18 5.85300E-19
 -1      2906 9.00699E-05-4.41684E-05-1.91659E-05-3.30585E-05-3.73647E-19-8.43751E-19
 -1      2907 1.09385E-04-5.45703E-05-2.37341E-05-3.00463E-05-7.63600E-19-7.35013E-19
 -1      2908 9.52418E-05-2.85792E-05-2.85697E-05-5.17220E-09 1.37203E-18 7.87382E-20
 -1      2909 9.52412E-05-2.85786E-05-2.85697E-05-5.93678E-09 9.00453E-19-1.00820E-18
 -1      2910 9.52430E-05-2.85804E-05-2.85697E-05 1.87206E-09-1.10480E-18 1.36949E-18
 -1      2911 9.52431E-05-2.85806E-05-2.85696E-05 7.08058E-10-2.15112E-18 2.15413E-18
 -1      2912 9.52439E-05-2.85808E-05-2.85699E-05 4.06452E-11-1.14924E-18 9.77761E-19
 -1      2913 9.52427E-05-2.85802E-05-2.85696E-05-3.08199E-09 1.22927E-18 1.92694E-18
 -1      2914 9.52423E-05-2.85798E-05-2.85697E-05-4.11414E-09 1.41190E-18 1.44498E-18
 -1      2915 9.52427E-05-2.85797E-05-2.85699E-05-5.12325E-09 2.17666E-19 1.02449E-18
 -1      2916 9.52436E-05-2.85805E-05-2.85699E-05-2.69039E-09 4.60651E-19 1.36586E-18
 -1      2917 9.52423E-05-2.85797E-05-2.85697E-05 4.13014E-09 1.11671E-19-3.09696E-18
 -1      2918 9.52427E-05-2.85801E-05-2.85696E-05 3.12088E-09-3.01186E-19 6.08678E-19
 -1      2919 9.52436E-05-2.85805E-05-2.85699E-05 2.74230E-09-2.41026E-19 1.30725E-18
 -1      2920 9.52411E-05-2.85785E-05-2.85697E-05 5.94434E-09 2.20210E-18-1.39463E-18
 -1      2921 9.52418E-05-2.85792E-05-2.85697E-05 5.18037E-09 1.56460E-18-3.12940E-18
 -1      2922 9.52426E-05-2.85796E-05-2.85699E-05 5.13938E-09 2.62792E-19-2.08555E-18
 -1      2923 9.52396E-05-2.85769E-05-2.85697E-05 7.02498E-09 1.67391E-18 4.76943E-19
 -1      2924 9.52404E-05-2.85778E-05-2.85697E-05 6.64813E-09 2.26907E-18 2.82212E-19
 -1      2925 9.52412E-05-2.85783E-05-2.85698E-05 6.97255E-09 2.45070E-18-7.88591E-19
 -1      2926 5.31689E-05-2.46332E-05-1.18270E-05 3.00823E-05 2.68298E-19 2.14151E-18
 -1      2927 4.03384E-05-1.53136E-05-1.01728E-05 1.77020E-05 3.76400E-20 1.50412E-18
 -1      2928 1.12751E-04-4.06767E-05-3.06557E-05-1.54563E-05-2.00667E-19 7.59838E-19
 -1      2929 1.07452E-04-3.48583E-05-3.08420E-05-1.58336E-05 7.35926E-20 9.12678E-19
 -1      2930 9.68334E-05-2.89495E-05-2.91809E-05-1.67514E-05 3.32044E-19 7.95152E-19
 -1      2931 1.38517E-04-4.83959E-05-3.92675E-05 4.95293E-06-2.88990E-19 1.18775E-18
 -1      2932 1.33358E-04-5.22301E-05-3.45836E-05 1.37909E-05-1.42990E-19 1.50645E-18
 -1      2933 1.29949E-04-1.66639E-05-4.89826E-05 1.01846E-05 5.13725E-19 1.27373E-19
 -1      2934 1.28324E-04-1.21743E-05-5.04603E-05 7.37148E-06 2.67027E-19 3.65918E-19
 -1      2935 1.23200E-04-5.35648E-05-3.02186E-05 2.60031E-05 1.58819E-20 1.89799E-18
 -1      2936 1.09021E-04-4.94805E-05-2.51720E-05 3.43348E-05 3.78412E-19 1.70352E-18
 -1      2937 9.30317E-05-4.27376E-05-2.16100E-05 4.14462E-05 7.91552E-19 1.32772E-18
 -1      2938 7.62919E-05-3.33436E-05-1.78108E-05 4.22188E-05 1.03772E-18 1.15249E-18
 -1      2939 1.03259E-04-3.28943E-05-3.00532E-05 1.92367E-05-4.57050E-19 7.47020E-19
 -1      2940 1.07117E-04-3.69238E-05-2.99937E-05 1.89012E-05 8.51003E-20 8.83349E-19
 -1      2941 9.53055E-05-2.91757E-05-2.83824E-05 2.03119E-05-4.88678E-19 4.05855E-19
 -1      2942 1.11575E-04-4.20034E-05-2.95884E-05 1.93747E-05 5.75387E-19 8.55907E-19
 -1      2943 1.17618E-04-4.80912E-05-2.97636E-05 1.71042E-05 1.20490E-18 8.50560E-19
 -1      2944 1.00832E-04-3.74820E-05-2.72547E-05 2.33067E-05 3.62504E-19 1.04534E-18
 -1      2945 3.32280E-05-1.05037E-05-9.25919E-06 1.77608E-06-2.07265E-19 1.19728E-18
 -1      2946 3.32766E-05-1.11664E-05-8.87819E-06-1.26245E-05 1.53631E-19 7.02190E-19
 -1      2947 5.93960E-05 3.04051E-07-2.55928E-05 6.69499E-06 1.69766E-18 9.25172E-19
 -1      2948 5.92080E-05 1.59458E-07-2.53516E-05 9.88440E-06 1.73358E-18 8.33523E-19
 -1      2949 5.91730E-05-2.11655E-06-2.43108E-05 1.36461E-05 1.69078E-18 7.98577E-19
 -1      2950 5.91749E-05-1.25499E-06-2.46300E-05 3.45351E-06 1.57755E-18 8.63888E-19
 -1      2951 1.23046E-04-5.38024E-05-2.93222E-05-1.64093E-05-8.07858E-19 3.19867E-19
 -1      2952 1.14739E-04-4.71502E-05-2.86370E-05-1.92914E-05-5.55204E-19 2.97706E-19
 -1      2953 9.76526E-05-2.43380E-05-3.13997E-05 2.78835E-06 1.25076E-18-1.85656E-19
 -1      2954 9.96857E-05-2.53065E-05-3.19210E-05-1.41166E-07 1.15488E-18-4.60309E-19
 -1      2955 5.59098E-05-2.25528E-05-1.42239E-05 4.11885E-05 1.25191E-18 1.19707E-18
 -1      2956 4.16745E-05-1.37803E-05-1.12128E-05 3.29618E-05 1.34043E-18 1.00543E-18
 -1      2957 9.52362E-05-2.85737E-05-2.85697E-05 7.47884E-09 9.52619E-19-6.99887E-20
 -1      2958 9.52366E-05-2.85738E-05-2.85698E-05 6.79227E-09-1.75980E-19 1.23645E-18
 -1      2959 9.52371E-05-2.85746E-05-2.85697E-05 8.37982E-09 1.11897E-18-1.02789E-18
 -1      2960 1.46302E-04-4.52241E-05-4.38952E-05 2.25835E-05-6.74979E-19 2.16258E-18
 -1      2961 9.52373E-05-2.85746E-05-2.85697E-05 7.01396E-09 3.31045E-19 6.74472E-19
 -1      2962 3.79654E-05-1.57636E-05-9.01942E-06-2.46490E-05 3.32143E-19 7.55977E-19
 -1      2963 4.78868E-05-2.27233E-05-1.04278E-05-3.53734E-05 4.33046E-19 7.03461E-19
 -1      2964 5.37670E-05-2.22753E-05-1.29286E-05-2.79555E-05 4.85773E-19-5.42101E-19
 -1      2965 7.17419E-05-3.41184E-05-1.58868E-05-3.44960E-05 3.40931E-20-8.93620E-19
 -1      2966 8.60001E-05-3.76240E-05-2.01467E-05-3.02635E-05-9.09502E-20-5.70106E-19
 -1      2967 1.36866E-04-3.66332E-05-4.30408E-05 8.49563E-06 7.92823E-19 4.49986E-19
 -1      2968 1.34167E-04-2.62660E-05-4.69344E-05 1.03630E-05 5.12773E-19 2.03288E-19
 -1      2969 1.26893E-04-2.33051E-05-4.47626E-05 1.14006E-05 5.27278E-19 4.77515E-20
 -1      2970 9.76828E-05-2.11527E-05-3.27971E-05-6.84568E-06 5.76758E-19 1.76476E-18
 -1      2971 1.37777E-04-3.00559E-05-4.68908E-05-9.19908E-06-6.86944E-19 1.01538E-18
 -1      2972 1.39684E-04-3.93706E-05-4.30554E-05-4.46859E-06-4.08693E-19 1.22724E-18
 -1      2973 1.30608E-04-1.23377E-05-5.14556E-05-8.66288E-06-5.44854E-19 8.35492E-19
 -1      2974 1.34094E-04-1.92126E-05-4.95634E-05-1.11036E-05-6.98590E-19 8.41210E-19
 -1      2975 8.72334E-05-4.45526E-05-1.83090E-05 3.62438E-05 4.16105E-19 1.36584E-18
 -1      2976 6.88612E-05-3.44350E-05-1.42501E-05 3.45674E-05 2.71686E-19 1.92478E-18
 -1      2977 1.03438E-04-2.68581E-05-3.28585E-05-1.01622E-05 5.10638E-19-1.63232E-18
 -1      2978 1.04026E-04-2.87803E-05-3.22816E-05-9.51188E-06 4.60177E-19-1.57110E-18
 -1      2979 1.04850E-04-2.95029E-05-3.22960E-05-9.22266E-06 5.83688E-19-1.20327E-18
 -1      2980 1.02897E-04-2.61132E-05-3.28961E-05-9.51069E-06 6.78354E-19-1.29343E-18
 -1      2981 1.36317E-04-5.48648E-05-3.48363E-05-9.72096E-06 1.40720E-18 1.13555E-18
 -1      2982 1.38474E-04-4.83176E-05-3.93062E-05 2.31002E-08 1.06313E-18 8.96796E-19
 -1      2983 8.10844E-05-1.74729E-05-2.73110E-05 1.84090E-05 1.45610E-18 4.56445E-19
 -1      2984 8.21125E-05-1.60558E-05-2.83654E-05 1.50655E-05 1.48038E-18 2.78601E-19
 -1      2985 8.71409E-05-1.89077E-05-2.91648E-05 1.28490E-05 1.44636E-18 1.73692E-19
 -1      2986 4.09853E-05-8.64325E-06-1.32188E-05 2.49342E-05 1.51322E-18 8.63974E-19
 -1      2987 1.00940E-04-2.55221E-05-3.23061E-05-3.14136E-06 1.07438E-18-6.99987E-19
 -1      2988 1.01963E-04-2.59966E-05-3.26149E-05-5.47277E-06 9.80206E-19-9.38685E-19
 -1      2989 1.02909E-04-2.84701E-05-3.18950E-05-1.61005E-06 9.28195E-19-4.81269E-19
 -1      2990 8.99846E-05-1.83138E-05-3.07964E-05-8.99085E-06 8.09888E-19 1.34817E-18
 -1      2991 8.58231E-05-1.80418E-05-2.90116E-05-1.14865E-05 8.85798E-19 1.07445E-18
 -1      2992 6.10527E-05-2.65400E-05-1.42209E-05-3.56725E-05 3.72906E-19 8.90655E-19
 -1      2993 1.18319E-04-5.15197E-05-2.85910E-05 1.88791E-05 1.26515E-18 4.43084E-19
 -1      2994 9.76679E-05-4.92027E-05-2.02802E-05-3.97674E-05 1.17462E-18 1.68417E-18
 -1      2995 1.10970E-04-5.52837E-05-2.39877E-05-3.61895E-05 1.37632E-18 1.97666E-18
 -1      2996 9.10305E-05-4.39516E-05-1.98391E-05-3.86145E-05 6.55921E-19 1.37233E-18
 -1      2997 1.27235E-04-5.20580E-05-3.21274E-05 1.65724E-05-5.88688E-20 1.42090E-18
 -1      2998 9.52381E-05-2.85754E-05-2.85697E-05-7.17030E-09-1.08594E-18-6.71019E-19
 -1      2999 9.52377E-05-2.85751E-05-2.85697E-05-7.94091E-09-9.78739E-19 2.28158E-19
 -1      3000 9.52389E-05-2.85763E-05-2.85697E-05-7.20651E-09-1.12452E-18-2.01739E-19
 -1      3001 1.23957E-04-6.00532E-05-2.74638E-05 2.27130E-05 1.15705E-18-9.56552E-19
 -1      3002 1.07441E-04-5.36121E-05-2.26364E-05 3.05391E-05 5.77888E-19 1.14032E-19
 -1      3003 1.00283E-04-4.69443E-05-2.23866E-05 2.99986E-05 3.71318E-19 5.41148E-19
 -1      3004 1.00728E-04-4.05606E-05-2.58811E-05-2.46866E-05-2.90744E-19 1.92700E-20
 -1      3005 5.12026E-05-1.50607E-05-1.53518E-05 1.75292E-05-3.85797E-20 1.91557E-18
 -1      3006 4.15562E-05-1.23136E-05-1.18673E-05 1.00620E-05-5.40645E-20 1.61497E-18
 -1      3007 4.49915E-05-1.03243E-05-1.44317E-05 3.25749E-06-1.69936E-20 1.57125E-18
 -1      3008 6.72479E-05-2.81920E-05-1.60748E-05 2.93177E-05 1.63848E-19 1.78872E-18
 -1      3009 9.52381E-05-2.85755E-05-2.85697E-05 7.08005E-09 1.13405E-18-3.39796E-19
 -1      3010 1.31824E-04-5.79878E-05-3.20733E-05-1.86565E-05 1.52408E-18 1.38035E-18
 -1      3011 1.33585E-04-5.54937E-05-3.33296E-05-9.86332E-06 1.58846E-18 1.08881E-18
 -1      3012 1.23072E-04-5.73988E-05-2.79720E-05-2.71357E-05 1.43191E-18 1.52334E-18
 -1      3013 1.35927E-04-4.35700E-05-3.97387E-05-2.56686E-06-4.00408E-19 9.19984E-19
 -1      3014 1.22573E-04-9.79726E-06-4.87823E-05 5.46288E-06 3.13720E-19 5.62483E-20
 -1      3015 1.19613E-04-8.14289E-06-4.82665E-05-3.88214E-06 3.23990E-20-2.49636E-19
 -1      3016 1.25945E-04-9.88750E-06-5.02474E-05-6.59412E-06-3.66554E-19 4.27487E-19
 -1      3017 1.21600E-04-1.28875E-05-4.69435E-05-8.99021E-06-3.60201E-19 1.64099E-19
 -1      3018 1.03855E-04-4.51057E-05-2.48348E-05 3.32172E-05 6.31834E-19 1.55934E-18
 -1      3019 9.14962E-05-2.13993E-05-3.00458E-05 9.42712E-06 1.39926E-18 1.87464E-19
 -1      3020 9.50371E-05-2.32691E-05-3.07510E-05 6.43671E-06 1.31405E-18-2.47484E-20
 -1      3021 9.92719E-05-2.73546E-05-3.08668E-05 5.13456E-06 1.12962E-18-6.48576E-20
 -1      3022 9.21007E-05-2.39354E-05-2.92879E-05 1.25816E-05 1.24319E-18 1.79602E-19
 -1      3023 7.05878E-05-2.68607E-05-1.82733E-05 3.87315E-05 1.20162E-18 1.09479E-18
 -1      3024 1.34276E-04-4.28481E-05-3.93967E-05 5.34627E-06 8.85441E-19 5.11079E-19
 -1      3025 9.52405E-05-2.85779E-05-2.85697E-05-6.53809E-09 2.97733E-19-1.67805E-18
 -1      3026 9.52397E-05-2.85771E-05-2.85697E-05-6.93661E-09-6.04050E-19 8.94399E-20
 -1      3027 9.52396E-05-2.85769E-05-2.85697E-05-7.74728E-09-4.74970E-19-6.59565E-20
 -1      3028 9.52413E-05-2.85784E-05-2.85698E-05-6.84366E-09 3.71007E-19-4.04086E-19
 -1      3029 4.25788E-05-1.33263E-05-1.19626E-05-1.77434E-05-1.96194E-19 7.01343E-19
 -1      3030 1.32370E-04-6.21432E-05-2.98975E-05 1.53288E-05 1.29945E-18-2.68933E-20
 -1      3031 5.29478E-05-1.62369E-05-1.51251E-05-2.10331E-05 8.54286E-19-1.56489E-19
 -1      3032 1.31296E-04-2.53028E-05-4.57412E-05-1.15893E-05-5.86464E-19 7.93458E-19
 -1      3033 9.52380E-05-2.85753E-05-2.85697E-05 8.14266E-09 1.42361E-18-8.82681E-19
 -1      3034 9.52389E-05-2.85763E-05-2.85697E-05 7.51561E-09 1.41533E-18-7.53955E-19
 -1      3035 9.52395E-05-2.85768E-05-2.85698E-05 8.13947E-09 1.60430E-18-1.96509E-20
 -1      3036 9.52379E-05-2.85753E-05-2.85697E-05 8.83987E-09 1.80196E-18-1.86233E-18
 -1      3037 1.29382E-04-5.88966E-05-2.99266E-05-1.44699E-05-1.10194E-18 2.23908E-19
 -1      3038 7.10925E-05-1.10071E-05-2.55173E-05-1.07637E-05 1.16534E-18 8.09499E-19
 -1      3039 6.24546E-05-6.48605E-06-2.40821E-05-7.46611E-06 1.35427E-18 6.57351E-19
 -1      3040 8.78980E-05-2.28542E-05-2.77029E-05-1.61495E-05 5.96900E-19 7.54753E-19
 -1      3041 7.86509E-05-1.68840E-05-2.65111E-05-1.43310E-05 9.09574E-19 8.52102E-19
 -1      3042 7.26099E-05-1.63099E-05-2.39500E-05-1.65114E-05 9.39068E-19 6.32628E-19
 -1      3043 9.09604E-05-2.81592E-05-2.67032E-05-1.96360E-05 2.64274E-19 5.25180E-19
 -1      3044 9.52432E-05-2.85796E-05-2.85701E-05 6.16819E-09 1.51468E-18-2.12818E-18
 -1      3045 9.52439E-05-2.85802E-05-2.85701E-05 5.05267E-09 5.26674E-19-5.60589E-19
 -1      3046 1.02211E-04-2.57965E-05-3.27520E-05-7.07466E-06 8.92661E-19-9.62203E-19
 -1      3047 1.02812E-04-2.62331E-05-3.28599E-05-8.44993E-06 7.49468E-19-1.09498E-18
 -1      3048 1.04119E-04-2.81443E-05-3.25338E-05-8.35131E-06 6.04177E-19-1.04419E-18
 -1      3049 1.04137E-04-2.85162E-05-3.23692E-05-5.96217E-06 8.35366E-19-8.07199E-19
 -1      3050 9.52413E-05-2.85781E-05-2.85699E-05 7.99745E-09 2.22605E-18-7.73057E-19
 -1      3051 9.52422E-05-2.85789E-05-2.85700E-05 7.25968E-09 2.36202E-18-1.50721E-18
 -1      3052 9.52434E-05-2.85795E-05-2.85702E-05 7.29686E-09 2.21568E-18-9.82612E-19
 -1      3053 1.06948E-04-3.19386E-05-3.21121E-05-8.63711E-06 5.59453E-19-9.69763E-19
 -1      3054 1.07360E-04-3.27810E-05-3.20006E-05-8.84872E-06 5.09331E-19-9.81772E-19
 -1      3055 1.08263E-04-3.32623E-05-3.21422E-05-9.74773E-06 4.06863E-19-9.19492E-19
 -1      3056 1.07931E-04-3.27415E-05-3.22434E-05-1.01227E-05 3.12542E-19-8.55799E-19
 -1      3057 1.09203E-04-3.36799E-05-3.23534E-05-8.84368E-06 4.23004E-19-8.54397E-19
 -1      3058 1.07740E-04-3.17195E-05-3.26207E-05-1.08551E-05 9.55774E-20-8.98101E-19
 -1      3059 1.06724E-04-2.99618E-05-3.28771E-05-1.07513E-05-1.09904E-19-8.22617E-19
 -1      3060 1.09971E-04-3.29722E-05-3.29666E-05-1.06513E-05 1.28839E-19-8.97850E-19
 -1      3061 1.05447E-04-2.77498E-05-3.33787E-05-1.04104E-05-3.52693E-19-1.03903E-18
 -1      3062 1.04131E-04-2.54401E-05-3.36720E-05-9.19152E-06-5.50995E-19-1.08329E-18
 -1      3063 1.08481E-04-2.91430E-05-3.39720E-05-1.13832E-05-4.03843E-19-1.22191E-18
 -1      3064 1.02504E-04-2.31621E-05-3.40856E-05-7.13464E-06-5.29342E-19-1.19138E-18
 -1      3065 1.01518E-04-2.15014E-05-3.42595E-05-4.74615E-06-5.56047E-19-1.08299E-18
 -1      3066 1.05530E-04-2.40038E-05-3.49334E-05-9.17623E-06-6.33074E-19-1.35826E-18
 -1      3067 1.00756E-04-2.05318E-05-3.43874E-05-1.27262E-06-3.43439E-19-1.08924E-18
 -1      3068 1.00676E-04-2.06229E-05-3.43242E-05 1.63341E-06-2.80127E-19-9.44783E-19
 -1      3069 1.03026E-04-1.99351E-05-3.56232E-05-3.53060E-06-3.43841E-19-1.27071E-18
 -1      3070 1.01352E-04-2.17413E-05-3.40632E-05 4.95846E-06-1.04384E-19-6.87959E-19
 -1      3071 1.02089E-04-2.35365E-05-3.37699E-05 7.20798E-06 1.17445E-19-7.04356E-19
 -1      3072 1.03004E-04-2.01301E-05-3.55166E-05 3.63724E-06 8.59937E-20-1.09873E-18
 -1      3073 1.03694E-04-2.60953E-05-3.31948E-05 9.17623E-06-2.73135E-20-5.72224E-19
 -1      3074 1.04897E-04-2.86998E-05-3.27478E-05 1.00228E-05 3.17935E-20-6.32826E-19
 -1      3075 1.05050E-04-2.43615E-05-3.45364E-05 9.13641E-06 1.70399E-19-7.94040E-19
 -1      3076 1.06086E-04-3.12280E-05-3.20577E-05 9.95598E-06 1.60069E-19-5.82800E-19
 -1      3077 1.07013E-04-3.34125E-05-3.15972E-05 9.52870E-06 9.94685E-21-7.02311E-19
 -1      3078 1.08045E-04-3.04858E-05-3.31988E-05 1.05785E-05 9.15524E-20-5.97820E-19
 -1      3079 1.07253E-04-3.50316E-05-3.09638E-05 8.11326E-06-7.37915E-20-3.37044E-19
 -1      3080 1.07498E-04-3.61765E-05-3.05802E-05 6.87992E-06 2.12543E-19-2.81319E-19
 -1      3081 1.09588E-04-3.55212E-05-3.17133E-05 8.73716E-06 2.56691E-19-2.97024E-19
 -1      3082 1.06781E-04-3.65818E-05-3.01114E-05 5.09230E-06 3.61718E-19-5.87242E-20
 -1      3083 1.06414E-04-3.67371E-05-2.98447E-05 3.67274E-06 4.72327E-19 2.93756E-19
 -1      3084 1.09030E-04-3.77936E-05-3.05155E-05 5.30214E-06 6.46716E-19 5.15300E-19
 -1      3085 1.05171E-04-3.63003E-05-2.95448E-05 2.09852E-06 4.74288E-19 4.62127E-19
 -1      3086 1.04443E-04-3.58131E-05-2.93828E-05 8.58814E-07 5.25314E-19 5.08399E-19
 -1      3087 1.06990E-04-3.77215E-05-2.96939E-05 1.87196E-06 4.66063E-19 5.25052E-19
 -1      3088 1.03075E-04-3.49573E-05-2.92164E-05-2.67655E-07 7.96864E-21 3.06865E-19
 -1      3089 1.02231E-04-3.41879E-05-2.91302E-05-1.17628E-06-3.28061E-19 3.38547E-19
 -1      3090 1.04325E-04-3.62363E-05-2.92039E-05-7.78828E-07-1.58336E-19 5.68215E-19
 -1      3091 1.01007E-04-3.32525E-05-2.90523E-05-1.84860E-06-4.46944E-19 1.14424E-19
 -1      3092 1.00215E-04-3.24595E-05-2.90116E-05-2.42071E-06-5.25902E-19 8.04251E-20
 -1      3093 1.01710E-04-3.42132E-05-2.89541E-05-2.46875E-06-5.93167E-19 2.12645E-19
 -1      3094 9.92453E-05-3.16333E-05-2.89839E-05-2.73561E-06-5.53562E-19-2.69288E-20
 -1      3095 9.85842E-05-3.09525E-05-2.89655E-05-3.02875E-06-4.28878E-19-4.68963E-20
 -1      3096 9.95168E-05-3.22521E-05-2.88521E-05-3.34338E-06-4.39450E-19 2.51019E-19
 -1      3097 9.78807E-05-3.03107E-05-2.89610E-05-3.09648E-06-3.64137E-19 6.86043E-22
 -1      3098 9.73706E-05-2.97907E-05-2.89498E-05-3.18489E-06-1.82817E-19-7.68461E-20
 -1      3099 9.78553E-05-3.06357E-05-2.88276E-05-3.63162E-06-3.62687E-19 1.24485E-19
 -1      3100 9.68962E-05-2.93400E-05-2.89521E-05-3.09896E-06-1.88588E-19 1.05279E-19
 -1      3101 9.65239E-05-2.89783E-05-2.89403E-05-3.05159E-06-3.04754E-19 5.88412E-20
 -1      3102 9.66916E-05-2.94438E-05-2.88343E-05-3.54278E-06-3.40685E-19-2.61163E-19
 -1      3103 9.62259E-05-2.86916E-05-2.89411E-05-2.88138E-06-9.53022E-20 2.77703E-19
 -1      3104 9.59648E-05-2.84624E-05-2.89256E-05-2.75356E-06 6.77180E-20 1.10199E-19
 -1      3105 9.59321E-05-2.86465E-05-2.88461E-05-3.23768E-06-1.04700E-19 6.42150E-20
 -1      3106 9.57923E-05-2.83014E-05-2.89217E-05-2.54638E-06 7.32869E-20 2.31681E-19
 -1      3107 9.56148E-05-2.81724E-05-2.89024E-05-2.37882E-06 2.81206E-19-1.03261E-19
 -1      3108 9.54715E-05-2.81675E-05-2.88505E-05-2.82798E-06 6.81297E-21 3.51536E-19
 -1      3109 9.55257E-05-2.81001E-05-2.88935E-05-2.16501E-06 5.92105E-19 1.86390E-19
 -1      3110 9.54078E-05-2.80410E-05-2.88716E-05-1.98567E-06 5.38739E-19 3.18615E-19
 -1      3111 9.52170E-05-2.79226E-05-2.88441E-05-2.38633E-06 6.77854E-19 8.68846E-19
 -1      3112 9.53709E-05-2.80263E-05-2.88588E-05-1.78344E-06-7.96432E-20 4.31648E-19
 -1      3113 9.52938E-05-2.80124E-05-2.88358E-05-1.61011E-06-1.07029E-19 3.65662E-19
 -1      3114 9.50958E-05-2.78365E-05-2.88275E-05-1.95727E-06 3.27350E-19 6.35193E-19
 -1      3115 9.52870E-05-2.80319E-05-2.88207E-05-1.42924E-06-6.56238E-20 2.51308E-19
 -1      3116 9.52372E-05-2.80448E-05-2.87981E-05-1.27216E-06 8.13186E-20 8.31623E-20
 -1      3117 9.50551E-05-2.78497E-05-2.88034E-05-1.56595E-06-1.75718E-19 9.32668E-19
 -1      3118 9.52460E-05-2.80818E-05-2.87820E-05-1.11685E-06 4.01795E-19-8.73855E-19
 -1      3119 9.52140E-05-2.81086E-05-2.87609E-05-9.80899E-07 5.82199E-19-5.38156E-19
 -1      3120 9.50590E-05-2.79183E-05-2.87751E-05-1.22443E-06-1.28375E-19 2.59996E-19
 -1      3121 9.52293E-05-2.81522E-05-2.87451E-05-8.51748E-07 1.00072E-18-4.29749E-19
 -1      3122 9.52088E-05-2.81843E-05-2.87262E-05-7.38250E-07 9.20172E-19 5.84611E-19
 -1      3123 9.50842E-05-2.80125E-05-2.87453E-05-9.36318E-07 9.06806E-19-5.68339E-19
 -1      3124 9.52254E-05-2.82277E-05-2.87114E-05-6.33733E-07 2.42104E-19 7.25720E-19
 -1      3125 9.52122E-05-2.82599E-05-2.86950E-05-5.41786E-07 2.34205E-19 9.76642E-19
 -1      3126 9.51169E-05-2.81128E-05-2.87162E-05-6.99986E-07 8.08630E-19 5.36360E-19
 -1      3127 9.52274E-05-2.82995E-05-2.86818E-05-4.59230E-07 2.83620E-19 1.18361E-18
 -1      3128 9.52187E-05-2.83290E-05-2.86680E-05-3.86703E-07 5.10705E-19 2.00053E-18
 -1      3129 9.51493E-05-2.82081E-05-2.86891E-05-5.10826E-07 4.39755E-19 1.18739E-18
 -1      3130 9.52314E-05-2.83631E-05-2.86566E-05-3.22968E-07-8.24030E-20 1.44781E-18
 -1      3131 9.52257E-05-2.83885E-05-2.86453E-05-2.67171E-07-2.18969E-19 1.37055E-18
 -1      3132 9.51775E-05-2.82924E-05-2.86651E-05-3.62806E-07-1.62153E-19 1.08032E-18
 -1      3133 9.52355E-05-2.84165E-05-2.86357E-05-2.19068E-07-6.00461E-19 1.35486E-18
 -1      3134 9.52316E-05-2.84375E-05-2.86266E-05-1.77188E-07-4.16646E-19 7.43479E-19
 -1      3135 9.52003E-05-2.83635E-05-2.86444E-05-2.49496E-07-3.54960E-19 1.46201E-18
 -1      3136 9.52388E-05-2.84598E-05-2.86188E-05-1.41721E-07 1.29986E-19 6.18108E-19
 -1      3137 9.52362E-05-2.84765E-05-2.86117E-05-1.11076E-07 1.42207E-19 1.75914E-19
 -1      3138 9.52174E-05-2.84211E-05-2.86271E-05-1.64660E-07-5.88048E-19 1.84693E-19
 -1      3139 9.52410E-05-2.84936E-05-2.86055E-05-8.55789E-08 3.74495E-19 5.91702E-19
 -1      3140 9.52393E-05-2.85066E-05-2.86000E-05-6.37721E-08-3.43786E-19 4.55598E-19
 -1      3141 9.52297E-05-2.84663E-05-2.86129E-05-1.02607E-07 1.95598E-19 5.12966E-19
 -1      3142 9.52424E-05-2.85194E-05-2.85951E-05-4.59687E-08 5.10024E-20 9.36335E-19
 -1      3143 9.52411E-05-2.85292E-05-2.85911E-05-3.09507E-08 9.39694E-19 1.73985E-18
 -1      3144 9.52378E-05-2.85008E-05-2.86016E-05-5.83775E-08 4.90147E-19 1.24163E-18
 -1      3145 9.52429E-05-2.85385E-05-2.85873E-05-1.89569E-08 1.79301E-19 1.70029E-18
 -1      3146 9.52421E-05-2.85456E-05-2.85844E-05-9.03083E-09 4.87109E-19 1.86194E-18
 -1      3147 9.52429E-05-2.85264E-05-2.85928E-05-2.78014E-08 7.78052E-19 1.59004E-18
 -1      3148 9.52429E-05-2.85521E-05-2.85815E-05-1.32462E-09 7.49420E-20 1.24386E-18
 -1      3149 9.52423E-05-2.85572E-05-2.85794E-05 4.87645E-09-5.11551E-19 2.05026E-19
 -1      3150 9.52456E-05-2.85449E-05-2.85861E-05-7.46032E-09-6.38050E-19 9.79692E-19
 -1      3151 9.52425E-05-2.85616E-05-2.85774E-05 9.49693E-09-9.81754E-19-1.43955E-19
 -1      3152 9.52422E-05-2.85651E-05-2.85759E-05 1.30465E-08-1.73390E-18-6.86981E-19
 -1      3153 9.52467E-05-2.85577E-05-2.85811E-05 5.38450E-09-1.05279E-18-3.88749E-20
 -1      3154 9.52419E-05-2.85680E-05-2.85744E-05 1.55091E-08-1.76660E-18-5.31693E-19
 -1      3155 9.52417E-05-2.85703E-05-2.85735E-05 1.72303E-08-1.04649E-18-8.15821E-19
 -1      3156 9.52467E-05-2.85663E-05-2.85774E-05 1.28786E-08-1.61736E-18 8.87281E-20
 -1      3157 9.52412E-05-2.85720E-05-2.85725E-05 1.82354E-08-3.27516E-19-6.62363E-19
 -1      3158 9.52411E-05-2.85734E-05-2.85719E-05 1.87442E-08-9.80137E-19-7.56939E-19
 -1      3159 9.52461E-05-2.85718E-05-2.85747E-05 1.66658E-08-3.51347E-19-5.27382E-19
 -1      3160 9.52405E-05-2.85743E-05-2.85712E-05 1.88080E-08-1.78504E-18 6.44509E-19
 -1      3161 9.52405E-05-2.85751E-05-2.85709E-05 1.85534E-08-1.94458E-18 4.44020E-19
 -1      3162 9.52451E-05-2.85751E-05-2.85729E-05 1.79777E-08-4.12929E-19 9.76946E-21
 -1      3163 9.52399E-05-2.85755E-05-2.85704E-05 1.80462E-08-2.37281E-18 5.40704E-19
 -1      3164 9.52399E-05-2.85759E-05-2.85702E-05 1.73453E-08-1.90167E-18 4.27844E-19
 -1      3165 9.52439E-05-2.85768E-05-2.85717E-05 1.77146E-08-2.05432E-18 2.09097E-18
 -1      3166 9.52393E-05-2.85760E-05-2.85700E-05 1.65237E-08-1.00312E-18-1.24230E-19
 -1      3167 9.52393E-05-2.85761E-05-2.85699E-05 1.55915E-08 3.88280E-19-9.65053E-19
 -1      3168 9.52428E-05-2.85774E-05-2.85709E-05 1.65158E-08-1.29506E-18 1.60236E-18
 -1      3169 9.52388E-05-2.85760E-05-2.85698E-05 1.46252E-08 6.43410E-19-1.31830E-18
 -1      3170 9.52389E-05-2.85760E-05-2.85698E-05 1.35989E-08 1.87522E-19-1.99052E-18
 -1      3171 9.52417E-05-2.85774E-05-2.85704E-05 1.48186E-08 1.67425E-19-8.92812E-19
 -1      3172 9.52384E-05-2.85758E-05-2.85697E-05 1.25941E-08 9.28690E-19-1.02567E-18
 -1      3173 9.52385E-05-2.85758E-05-2.85697E-05 1.15496E-08 1.85115E-18-1.31513E-18
 -1      3174 9.52407E-05-2.85772E-05-2.85701E-05 1.29081E-08 1.02289E-18-1.15002E-18
 -1      3175 9.52380E-05-2.85755E-05-2.85697E-05 1.07043E-08 2.17968E-18-7.53433E-19
 -1      3176 9.52382E-05-2.85755E-05-2.85697E-05 9.66669E-09 2.03936E-18-2.51479E-19
 -1      3177 9.52391E-05-2.85763E-05-2.85698E-05 9.42952E-09 1.44027E-18 1.57579E-19
 -1      3178 9.52398E-05-2.85767E-05-2.85699E-05 1.10959E-08 2.07415E-18-3.90014E-20
 -1      3179 9.14656E-05-2.31038E-05-2.93353E-05 9.81577E-06 4.02945E-19 6.02185E-19
 -1      3180 9.11259E-05-2.27708E-05-2.92779E-05 1.09822E-05 2.16749E-19 7.34337E-19
 -1      3181 1.28782E-04-5.07200E-05-3.39348E-05 8.62114E-06-9.58074E-20 7.69503E-19
 -1      3182 1.21294E-04-5.00522E-05-3.02517E-05 1.80295E-05 9.17310E-20 1.18103E-18
 -1      3183 8.39019E-05-3.74155E-05-1.94231E-05-3.64111E-05 1.59454E-19 9.28348E-19
 -1      3184 9.85772E-05-4.60158E-05-2.26488E-05-3.39437E-05 8.21437E-19 1.53739E-18
 -1      3185 3.79369E-05-2.24845E-06-1.49272E-05 7.76529E-06 1.51705E-18 4.96150E-19
 -1      3186 4.08804E-05-3.66270E-06-1.57505E-05-3.88958E-06 1.41380E-18 2.24570E-19
 -1      3187 6.44440E-05-9.23321E-06-2.37594E-05 2.21586E-05 1.59916E-18 6.34004E-19
 -1      3188 7.19737E-05-1.38361E-05-2.46652E-05 2.35500E-05 1.53004E-18 5.62655E-19
 -1      3189 1.19069E-04-5.61610E-05-2.69126E-05-2.69995E-05 1.44599E-18 1.48384E-18
 -1      3190 8.97772E-05-2.22430E-05-2.89889E-05 1.22181E-05-2.15900E-19 4.91960E-19
 -1      3191 8.95194E-05-2.22554E-05-2.87940E-05 1.35655E-05-3.85137E-19 5.60961E-20
 -1      3192 8.71538E-05-2.07193E-05-2.84241E-05 1.06870E-05-1.25531E-19 6.26895E-19
 -1      3193 8.79969E-05-2.21670E-05-2.82590E-05 1.51999E-05-3.41434E-19 1.19111E-19
 -1      3194 8.82327E-05-2.30281E-05-2.78609E-05 1.67284E-05-3.45766E-19 3.88899E-19
 -1      3195 8.42463E-05-1.98992E-05-2.75193E-05 1.33278E-05-5.82070E-19 6.43554E-19
 -1      3196 9.28025E-05-2.41598E-05-2.94472E-05 7.83272E-06-4.08656E-19 6.47758E-19
 -1      3197 9.25305E-05-2.37399E-05-2.94696E-05 8.82718E-06 4.60073E-19 5.66172E-19
 -1      3198 8.95481E-05-2.20151E-05-2.89048E-05 8.65189E-06 3.55358E-19 8.74179E-19
 -1      3199 9.37617E-05-2.51482E-05-2.94277E-05 6.18918E-06-2.80455E-19-5.87205E-19
 -1      3200 9.35887E-05-2.47548E-05-2.94898E-05 7.02037E-06-7.84333E-19-3.85799E-19
 -1      3201 9.13679E-05-2.33472E-05-2.91237E-05 6.98507E-06 4.60365E-20 4.39648E-19
 -1      3202 9.44037E-05-2.59753E-05-2.93428E-05 4.83734E-06 4.63330E-19-1.32848E-18
 -1      3203 9.43155E-05-2.56474E-05-2.94197E-05 5.51843E-06 8.08883E-20-1.15759E-18
 -1      3204 9.26793E-05-2.45266E-05-2.91888E-05 5.58938E-06 2.12699E-19-7.71262E-19
 -1      3205 9.48092E-05-2.66288E-05-2.92322E-05 3.73865E-06 2.06294E-19-9.61325E-19
 -1      3206 9.47803E-05-2.63708E-05-2.93097E-05 4.28710E-06 5.35984E-19-8.29487E-19
 -1      3207 9.35882E-05-2.54958E-05-2.91695E-05 4.42124E-06 3.06027E-19-3.77279E-19
 -1      3208 9.50511E-05-2.71287E-05-2.91183E-05 2.85693E-06-3.23317E-19 2.95560E-19
 -1      3209 9.50581E-05-2.69320E-05-2.91892E-05 3.29217E-06-3.61599E-19-2.74851E-19
 -1      3210 9.41992E-05-2.62591E-05-2.91090E-05 3.45387E-06-5.27312E-19 5.22323E-20
 -1      3211 9.51860E-05-2.75047E-05-2.90126E-05 2.15778E-06-3.39215E-19 6.86903E-19
 -1      3212 9.52117E-05-2.73570E-05-2.90739E-05 2.49899E-06 8.49776E-20 7.85781E-19
 -1      3213 9.45996E-05-2.68457E-05-2.90324E-05 2.66377E-06-4.35209E-19 9.68672E-19
 -1      3214 9.52544E-05-2.77849E-05-2.89200E-05 1.60957E-06-2.47158E-19-1.12428E-19
 -1      3215 9.52873E-05-2.76748E-05-2.89712E-05 1.87423E-06-1.90066E-19 2.64847E-19
 -1      3216 9.48563E-05-2.72900E-05-2.89541E-05 2.02750E-06 8.78952E-20 1.04604E-18
 -1      3217 9.52837E-05-2.79932E-05-2.88420E-05 1.18427E-06-2.77818E-19-6.01173E-19
 -1      3218 9.53170E-05-2.79111E-05-2.88836E-05 1.38754E-06-3.17183E-19-3.20348E-20
 -1      3219 9.50175E-05-2.76241E-05-2.88814E-05 1.52200E-06-5.37361E-21-1.10908E-19
 -1      3220 9.52913E-05-2.81480E-05-2.87780E-05 8.57842E-07-3.89591E-19-1.69368E-19
 -1      3221 9.53214E-05-2.80867E-05-2.88112E-05 1.01243E-06-1.68932E-19-7.84688E-19
 -1      3222 9.51167E-05-2.78744E-05-2.88175E-05 1.12557E-06-3.79552E-19-1.24848E-18
 -1      3223 9.52880E-05-2.82630E-05-2.87266E-05 6.10054E-07-8.76557E-19-1.26987E-19
 -1      3224 9.53134E-05-2.82172E-05-2.87526E-05 7.26401E-07-6.35324E-19 1.10548E-19
 -1      3225 9.51764E-05-2.80616E-05-2.87633E-05 8.18600E-07-6.59970E-19-5.41883E-19
 -1      3226 9.52800E-05-2.83485E-05-2.86861E-05 4.24196E-07-7.08987E-19-7.18330E-19
 -1      3227 9.53004E-05-2.83142E-05-2.87061E-05 5.10765E-07-3.62748E-19-2.88298E-19
 -1      3228 9.52113E-05-2.82014E-05-2.87186E-05 5.83950E-07-3.73696E-19-2.39001E-19
 -1      3229 9.52709E-05-2.84121E-05-2.86546E-05 2.86632E-07-1.14854E-18-2.71646E-19
 -1      3230 9.52866E-05-2.83863E-05-2.86698E-05 3.50206E-07-1.00005E-18-6.36151E-19
 -1      3231 9.52309E-05-2.83056E-05-2.86825E-05 4.06972E-07-1.04902E-18-1.04475E-18
 -1      3232 9.52623E-05-2.84592E-05-2.86305E-05 1.86362E-07-9.24351E-19-1.42584E-19
 -1      3233 9.52740E-05-2.84399E-05-2.86419E-05 2.32333E-07-7.78167E-19 6.90014E-20
 -1      3234 9.52414E-05-2.83830E-05-2.86538E-05 2.75422E-07-1.79575E-18-8.44781E-19
 -1      3235 9.52550E-05-2.84939E-05-2.86123E-05 1.14588E-07 7.92122E-19 2.24720E-19
 -1      3236 9.52635E-05-2.84795E-05-2.86207E-05 1.47218E-07-1.97231E-19 5.06935E-20
 -1      3237 9.52463E-05-2.84402E-05-2.86314E-05 1.79234E-07-6.92763E-19-9.36253E-19
 -1      3238 9.52492E-05-2.85193E-05-2.85988E-05 6.43199E-08 1.51708E-18-6.35566E-19
 -1      3239 9.52551E-05-2.85086E-05-2.86049E-05 8.69579E-08 1.71955E-18-2.25555E-20
 -1      3240 9.52482E-05-2.84822E-05-2.86142E-05 1.10224E-07 1.29406E-18-7.40043E-20
 -1      3241 9.52449E-05-2.85376E-05-2.85890E-05 3.00632E-08 4.42779E-19-1.16054E-18
 -1      3242 9.52488E-05-2.85298E-05-2.85933E-05 4.53154E-08 5.00317E-19-1.40222E-18
 -1      3243 9.52483E-05-2.85127E-05-2.86012E-05 6.18117E-08 1.46999E-18-3.93242E-19
 -1      3244 9.52417E-05-2.85506E-05-2.85820E-05 7.54655E-09 1.05070E-18-4.24211E-19
 -1      3245 9.52441E-05-2.85450E-05-2.85850E-05 1.74230E-08 1.51073E-19-9.40869E-19
 -1      3246 9.52475E-05-2.85345E-05-2.85915E-05 2.87845E-08 3.34007E-19-1.03848E-18
 -1      3247 9.52395E-05-2.85597E-05-2.85771E-05-6.51559E-09 1.88717E-19 8.47790E-19
 -1      3248 9.52409E-05-2.85557E-05-2.85791E-05-4.79731E-10 9.52544E-19 2.68031E-19
 -1      3249 9.52463E-05-2.85498E-05-2.85844E-05 7.06504E-09 5.62916E-20 1.37349E-19
 -1      3250 9.52380E-05-2.85658E-05-2.85738E-05-1.46214E-08-4.82875E-19 1.27059E-18
 -1      3251 9.52387E-05-2.85631E-05-2.85751E-05-1.12670E-08-1.77698E-19 1.01348E-18
 -1      3252 9.52449E-05-2.85603E-05-2.85793E-05-6.49888E-09-2.16649E-19 1.27418E-18
 -1      3253 9.52371E-05-2.85699E-05-2.85717E-05-1.86441E-08-1.29239E-18 1.60611E-18
 -1      3254 9.52373E-05-2.85680E-05-2.85724E-05-1.71080E-08-6.04060E-20 2.39523E-18
 -1      3255 9.52436E-05-2.85672E-05-2.85757E-05-1.43121E-08-1.17983E-18 2.37466E-18
 -1      3256 9.52366E-05-2.85724E-05-2.85704E-05-1.99648E-08-1.82855E-18 9.34747E-19
 -1      3257 9.52365E-05-2.85712E-05-2.85708E-05-1.96153E-08-1.32212E-18 9.38532E-19
 -1      3258 9.52424E-05-2.85716E-05-2.85733E-05-1.81814E-08-1.35985E-18 3.45214E-18
 -1      3259 9.52363E-05-2.85738E-05-2.85696E-05-1.95819E-08-2.13565E-18-5.39036E-19
 -1      3260 9.52360E-05-2.85731E-05-2.85698E-05-1.99662E-08-1.60099E-18-7.92630E-20
 -1      3261 9.52414E-05-2.85742E-05-2.85717E-05-1.94406E-08-1.10084E-18 1.65113E-18
 -1      3262 9.52362E-05-2.85745E-05-2.85693E-05-1.81984E-08-1.20824E-18-8.91858E-19
 -1      3263 9.52359E-05-2.85741E-05-2.85693E-05-1.90010E-08-2.18882E-18-1.50343E-18
 -1      3264 9.52405E-05-2.85756E-05-2.85707E-05-1.90542E-08-1.44907E-18-6.19782E-19
 -1      3265 9.52363E-05-2.85747E-05-2.85692E-05-1.62917E-08 2.16874E-19-2.11312E-18
 -1      3266 9.52359E-05-2.85745E-05-2.85691E-05-1.73018E-08-3.30277E-19-1.54265E-18
 -1      3267 9.52397E-05-2.85762E-05-2.85701E-05-1.77008E-08-4.74007E-19-1.93596E-18
 -1      3268 9.52364E-05-2.85747E-05-2.85693E-05-1.41694E-08 5.37729E-19-1.73516E-18
 -1      3269 9.52360E-05-2.85746E-05-2.85692E-05-1.52544E-08 7.35392E-19-2.17538E-18
 -1      3270 9.52391E-05-2.85762E-05-2.85698E-05-1.58413E-08 9.35529E-19-2.34996E-18
 -1      3271 9.52366E-05-2.85746E-05-2.85694E-05-1.20121E-08 1.12612E-19-1.86980E-18
 -1      3272 9.52362E-05-2.85746E-05-2.85693E-05-1.30972E-08 8.49636E-20-2.90036E-18
 -1      3273 9.52386E-05-2.85760E-05-2.85697E-05-1.37714E-08 1.88458E-20-2.69831E-18
 -1      3274 9.52369E-05-2.85746E-05-2.85696E-05-9.91797E-09-8.24601E-19 1.28555E-18
 -1      3275 9.52365E-05-2.85745E-05-2.85694E-05-1.09566E-08-4.69699E-19-2.20206E-19
 -1      3276 9.52383E-05-2.85757E-05-2.85697E-05-1.16685E-08-1.05727E-18-1.20452E-18
 -1      3277 9.52375E-05-2.85750E-05-2.85697E-05-8.54900E-09-5.23380E-19 1.20261E-18
 -1      3278 9.52370E-05-2.85747E-05-2.85696E-05-9.29042E-09-4.56132E-19 1.35504E-18
 -1      3279 9.52384E-05-2.85757E-05-2.85697E-05-9.94964E-09-1.19528E-18 1.03707E-18
 -1      3280 9.52387E-05-2.85760E-05-2.85697E-05-8.62912E-09-3.00950E-19-3.05242E-19
 -1      3281 1.24010E-04-5.69687E-05-2.86632E-05 1.83438E-05 1.30141E-18 8.64900E-20
 -1      3282 1.24118E-04-2.72470E-05-4.15730E-05 1.29653E-05 5.18596E-19 5.38925E-20
 -1      3283 1.19660E-04-1.97391E-05-4.34033E-05 1.12423E-05 4.88209E-19-1.00903E-19
 -1      3284 4.46746E-05-1.10953E-05-1.41245E-05-1.18477E-05-2.06517E-19 9.95264E-19
 -1      3285 4.94960E-05-1.54790E-05-1.42199E-05-2.36105E-05-6.04040E-20 6.93296E-19
 -1      3286 9.52450E-05-2.85811E-05-2.85702E-05 7.61142E-10-9.36012E-19 1.29391E-18
 -1      3287 9.52450E-05-2.85811E-05-2.85702E-05-6.62857E-10-6.76832E-19 4.04694E-19
 -1      3288 4.84857E-05-1.00767E-05-1.63899E-05 2.92889E-05 1.62217E-18 9.75147E-19
 -1      3289 3.97739E-05-3.71041E-06-1.49683E-05 1.74268E-05 1.62351E-18 7.29295E-19
 -1      3290 8.83467E-05-2.96486E-05-2.50238E-05 2.40240E-05 6.55590E-20 1.40952E-18
 -1      3291 9.27789E-05-3.53141E-05-2.43046E-05 2.56755E-05 2.96356E-19 1.25442E-18
 -1      3292 7.97458E-05-3.22107E-05-2.02611E-05 3.04176E-05 6.77626E-21 1.60497E-18
 -1      3293 6.62717E-05-2.28208E-05-1.81365E-05 2.55455E-05-9.82558E-20 1.98121E-18
 -1      3294 9.52444E-05-2.85807E-05-2.85702E-05 3.64987E-09-8.04075E-20 1.76435E-18
 -1      3295 9.52448E-05-2.85809E-05-2.85702E-05 2.33001E-09-4.67576E-19 2.85134E-18
 -1      3296 9.52459E-05-2.85814E-05-2.85705E-05 1.67009E-09-8.13389E-19 2.08390E-18
 -1      3297 9.52450E-05-2.85807E-05-2.85704E-05 4.72334E-09 2.18264E-20 1.30734E-18
 -1      3298 1.31865E-04-3.95627E-05-4.01660E-05-7.97756E-06-5.31646E-19 6.09758E-19
 -1      3299 1.32601E-04-4.60073E-05-3.69388E-05-1.21913E-06-2.99267E-19 6.04993E-19
 -1      3300 5.24078E-05-8.00154E-06-1.85045E-05-1.20489E-05 1.19186E-18 2.91538E-19
 -1      3301 6.51070E-05-1.77256E-05-2.00885E-05-2.13306E-05 8.49812E-19 1.10114E-19
 -1      3302 5.82043E-05-2.15934E-05-1.52777E-05-3.03826E-05 3.07870E-19 1.18796E-18
 -1      3303 6.98232E-05-2.97056E-05-1.71522E-05-3.60488E-05-3.86459E-20 1.10644E-18
 -1      3304 1.31016E-04-4.66101E-05-3.61723E-05 3.79862E-06 1.09871E-18 3.90191E-19
 -1      3305 1.28293E-04-3.76759E-05-3.93562E-05 1.00698E-05 7.52112E-19 2.49319E-19
 -1      3306 8.55708E-05-3.09245E-05-2.31623E-05-2.50764E-05 1.39443E-19-5.24102E-21
 -1      3307 1.10465E-04-4.71453E-05-2.74075E-05 2.73764E-05 4.59833E-19 1.44950E-18
 -1      3308 9.78413E-05-3.97169E-05-2.43975E-05 3.23675E-05 8.33772E-19 1.25562E-18
 -1      3309 8.68888E-05-2.40132E-05-2.69618E-05 1.90774E-05-3.29767E-19 1.02550E-18
 -1      3310 8.84880E-05-2.66245E-05-2.63288E-05 2.07355E-05-1.13635E-19 1.51386E-18
 -1      3311 8.11761E-05-2.03893E-05-2.59579E-05 1.70441E-05 1.07070E-20 1.49201E-18
 -1      3312 7.94632E-05-3.00866E-05-2.13867E-05 3.71236E-05 1.20596E-18 9.40418E-19
 -1      3313 6.34317E-05-1.92043E-05-1.83305E-05 3.48615E-05 1.42479E-18 9.52806E-19
 -1      3314 1.23857E-04-2.08615E-05-4.46324E-05-1.26801E-05-6.31781E-19 1.48257E-19
 -1      3315 1.28463E-04-2.95353E-05-4.24418E-05-1.25712E-05-7.39460E-19 4.08217E-19
 -1      3316 1.17051E-04-1.16974E-05-4.53419E-05 6.88903E-06 1.41137E-19-1.06514E-19
 -1      3317 1.17853E-04-9.13102E-06-4.71768E-05 1.24401E-06 6.29981E-20-9.71937E-20
 -1      3318 7.92775E-05-2.39432E-05-2.35082E-05 2.26919E-05-4.55413E-20 2.13582E-18
 -1      3319 1.05366E-04-3.12228E-05-3.17150E-05-6.30266E-07 8.64508E-19-2.72667E-19
 -1      3320 1.06124E-04-3.14436E-05-3.20714E-05-3.49650E-06 7.72621E-19-6.03101E-19
 -1      3321 5.60575E-05-5.10484E-06-2.16165E-05 1.98003E-05 1.70292E-18 7.98249E-19
 -1      3322 5.81890E-05-9.79250E-06-2.04649E-05 2.55027E-05 1.60388E-18 8.24745E-19
 -1      3323 4.55954E-05-2.98886E-06-1.77789E-05 1.27034E-05 1.63373E-18 7.28131E-19
 -1      3324 1.27789E-04-4.66503E-05-3.47734E-05 1.63407E-06-5.25293E-20 5.16214E-19
 -1      3325 1.15379E-04-4.64570E-05-2.94264E-05 1.86028E-05 3.67348E-19 9.44481E-19
 -1      3326 1.02367E-04-4.54751E-05-2.43108E-05-2.83167E-05 9.15007E-19 8.29775E-19
 -1      3327 1.10039E-04-5.07460E-05-2.49810E-05-2.80556E-05 1.35362E-18 1.37552E-18
 -1      3328 5.38884E-05-5.55230E-06-2.03203E-05-6.19144E-06 1.34167E-18 4.54857E-19
 -1      3329 7.82740E-05-2.05878E-05-2.46007E-05 2.60267E-05 1.31119E-18 6.99768E-19
 -1      3330 8.04103E-05-1.94652E-05-2.61927E-05 2.21152E-05 1.40010E-18 6.69963E-19
 -1      3331 8.76431E-05-2.34763E-05-2.73295E-05 2.00002E-05 1.30213E-18 4.88725E-19
 -1      3332 1.19722E-04-5.45648E-05-2.81883E-05-2.12538E-05 1.52058E-18 1.06097E-18
 -1      3333 1.20324E-04-1.77443E-05-4.43095E-05-1.18081E-05-5.48507E-19 9.06855E-20
 -1      3334 1.18414E-04-2.18169E-05-4.13675E-05-1.28835E-05-7.09867E-19-8.41607E-20
 -1      3335 1.15229E-04-1.45407E-05-4.34909E-05-9.38048E-06-3.01014E-19-2.14008E-19
 -1      3336 4.71253E-05-9.92603E-06-1.53948E-05-3.70515E-06 1.81364E-19 1.65849E-18
 -1      3337 5.23227E-05-1.15106E-05-1.72272E-05-9.37817E-06 2.92580E-19 1.23635E-18
 -1      3338 5.14286E-05-1.08209E-05-1.74036E-05 4.00635E-06 2.70490E-19 1.77824E-18
 -1      3339 1.26581E-04-3.44983E-05-3.96979E-05-1.06964E-05-6.48615E-19 1.87591E-19
 -1      3340 9.52439E-05-2.85802E-05-2.85701E-05-5.02687E-09 6.68882E-19 1.13122E-18
 -1      3341 9.52432E-05-2.85797E-05-2.85701E-05-6.14840E-09 4.49329E-19 1.76014E-18
 -1      3342 1.22752E-04-3.35984E-05-3.84065E-05 1.10624E-05 6.94474E-19-6.79215E-20
 -1      3343 5.95406E-05-1.88719E-05-1.70043E-05-2.46700E-05-3.66421E-19 8.46398E-19
 -1      3344 5.97770E-05-1.34637E-05-1.94343E-05 2.91525E-05 1.54218E-18 8.37133E-19
 -1      3345 9.52459E-05-2.85814E-05-2.85705E-05-1.57163E-09-1.02551E-18-8.04149E-19
 -1      3346 9.52448E-05-2.85810E-05-2.85702E-05-2.25027E-09-5.21722E-19 4.86904E-19
 -1      3347 9.52444E-05-2.85807E-05-2.85702E-05-3.59948E-09 5.51499E-20-7.60895E-20
 -1      3348 6.41033E-05-1.90493E-05-1.90357E-05 1.98601E-05-1.61492E-19 1.99582E-18
 -1      3349 9.44212E-05-4.04497E-05-2.27841E-05 2.92051E-05 2.39181E-19 9.58074E-19
 -1      3350 8.03170E-05-3.27407E-05-2.00708E-05-3.24994E-05 2.26343E-19 9.16781E-19
 -1      3351 1.14777E-04-1.04326E-05-4.50413E-05-1.64962E-06-9.97381E-20-2.09958E-19
 -1      3352 5.15927E-05-2.10224E-06-2.11860E-05 1.47754E-05 1.71785E-18 8.96664E-19
 -1      3353 9.52424E-05-2.85790E-05-2.85700E-05-7.07769E-09 4.76488E-19 6.93668E-19
 -1      3354 9.52415E-05-2.85783E-05-2.85699E-05-7.71606E-09-1.16532E-19 4.25059E-19
 -1      3355 9.52435E-05-2.85796E-05-2.85702E-05-7.10023E-09-4.65075E-20 9.20837E-19
 -1      3356 1.15113E-04-1.67059E-05-4.23590E-05 8.83581E-06 2.99585E-19-2.92597E-19
 -1      3357 1.04305E-04-3.15460E-05-3.12237E-05 3.24781E-06 8.88996E-19-9.11520E-20
 -1      3358 1.07871E-04-3.42936E-05-3.15014E-05 9.55831E-07 6.51193E-19-1.24027E-19
 -1      3359 1.01950E-04-3.05108E-05-3.05644E-05 7.00912E-06 1.01352E-18 5.02396E-20
 -1      3360 5.32886E-05-2.02257E-06-2.17739E-05 6.30622E-08 1.54515E-18 6.35963E-19
 -1      3361 1.29788E-04-5.19351E-05-3.38431E-05-3.33024E-06 1.42449E-18 7.60450E-19
 -1      3362 1.26808E-04-4.68924E-05-3.42320E-05 2.85383E-06 1.23158E-18 2.96620E-19
 -1      3363 7.50533E-05-2.44117E-05-2.14617E-05-2.41388E-05 5.02291E-19 8.47033E-20
 -1      3364 5.03540E-05-5.94834E-07-2.12020E-05 5.96326E-06 1.65934E-18 7.40916E-19
 -1      3365 8.92890E-05-3.28205E-05-2.40104E-05 3.13168E-05 1.02750E-18 9.78416E-19
 -1      3366 1.28488E-04-5.44496E-05-3.15210E-05-1.00119E-05 1.48286E-18 1.08246E-18
 -1      3367 9.52399E-05-2.85769E-05-2.85699E-05 9.03256E-09 9.38992E-19-1.10739E-18
 -1      3368 9.52406E-05-2.85775E-05-2.85699E-05 8.54651E-09 1.50174E-18-5.14402E-19
 -1      3369 9.52417E-05-2.85782E-05-2.85701E-05 8.91743E-09 1.99719E-18-1.68845E-18
 -1      3370 9.52402E-05-2.85771E-05-2.85699E-05 9.85583E-09 1.66939E-18-2.13369E-19
 -1      3371 1.04978E-04-2.97317E-05-3.22855E-05-8.30421E-06 6.20476E-19-1.06524E-18
 -1      3372 1.06188E-04-3.09013E-05-3.22991E-05-7.51892E-06 6.42919E-19-7.37379E-19
 -1      3373 6.99332E-05-1.84154E-05-2.21104E-05 3.06136E-05 1.41396E-18 7.20534E-19
 -1      3374 1.06401E-04-3.12183E-05-3.22130E-05-6.17128E-06 6.94451E-19-6.51631E-19
 -1      3375 1.10099E-04-3.46917E-05-3.23242E-05-6.91276E-06 5.14448E-19-6.99741E-19
 -1      3376 1.11032E-04-3.52612E-05-3.25242E-05-7.74232E-06 4.14168E-19-6.74473E-19
 -1      3377 1.12478E-04-3.52879E-05-3.30862E-05-9.55712E-06 1.62627E-19-6.92961E-19
 -1      3378 1.12229E-04-3.39748E-05-3.35723E-05-1.03897E-05-4.51674E-20-8.51726E-19
 -1      3379 1.13550E-04-3.65752E-05-3.30009E-05-7.44326E-06 2.52034E-19-5.30821E-19
 -1      3380 1.12073E-04-3.18501E-05-3.44574E-05-1.18538E-05-3.97288E-19-9.98673E-19
 -1      3381 1.10526E-04-2.87900E-05-3.50108E-05-1.16392E-05-6.97618E-19-1.08279E-18
 -1      3382 1.14881E-04-3.42078E-05-3.46018E-05-1.09293E-05-3.76136E-19-6.07925E-19
 -1      3383 1.10566E-04-2.34555E-05-3.74474E-05-1.13377E-05-6.64534E-19-8.21258E-19
 -1      3384 1.08522E-04-1.97131E-05-3.81132E-05-9.23859E-06-5.29541E-19-8.66991E-19
 -1      3385 1.04326E-04-1.72073E-05-3.73605E-05 2.33287E-06 7.86152E-20-9.34694E-19
 -1      3386 1.04809E-04-1.86035E-05-3.70762E-05 5.60886E-06 9.74088E-20-9.23828E-19
 -1      3387 1.09736E-04-2.19193E-05-3.77248E-05 9.77917E-06 3.04852E-19-8.48108E-19
 -1      3388 1.11810E-04-2.62740E-05-3.67865E-05 1.15115E-05 3.35723E-19-6.98478E-19
 -1      3389 1.12132E-04-3.66351E-05-3.23981E-05 8.70382E-06 4.47055E-19-4.03506E-19
 -1      3390 1.12460E-04-3.86326E-05-3.16413E-05 7.19351E-06 4.58058E-19-3.65192E-20
 -1      3391 1.11313E-04-3.95572E-05-3.07973E-05 4.65642E-06 5.57512E-19-2.42844E-20
 -1      3392 1.10603E-04-3.99087E-05-3.02640E-05 2.86654E-06 8.17177E-19 2.14524E-19
 -1      3393 1.14158E-04-4.10176E-05-3.13661E-05 4.68780E-06 6.58535E-19 5.53251E-20
 -1      3394 1.08669E-04-3.93832E-05-2.97297E-05 8.57239E-07 6.53422E-19 1.25183E-19
 -1      3395 1.07415E-04-3.87032E-05-2.93976E-05-6.27341E-07 4.18640E-19 2.38899E-19
 -1      3396 1.10869E-04-4.10694E-05-2.99284E-05 1.48975E-07 9.14868E-19-9.44342E-20
 -1      3397 1.05341E-04-3.74804E-05-2.91085E-05-1.90742E-06 4.44651E-21 5.91271E-19
 -1      3398 1.03954E-04-3.63362E-05-2.89320E-05-2.88534E-06-4.78952E-19 5.03676E-19
 -1      3399 1.06766E-04-3.90083E-05-2.90851E-05-3.00768E-06 4.58416E-19 3.39226E-19
 -1      3400 1.02180E-04-3.49952E-05-2.88043E-05-3.49360E-06-5.82260E-19 3.29625E-19
 -1      3401 1.00939E-04-3.38229E-05-2.87272E-05-4.02134E-06-4.84134E-19 3.63297E-19
 -1      3402 1.02886E-04-3.60874E-05-2.86748E-05-4.65602E-06-5.86611E-19 2.47812E-19
 -1      3403 9.95961E-05-3.26500E-05-2.86923E-05-4.17846E-06-3.30869E-19 4.23340E-19
 -1      3404 9.86138E-05-3.16555E-05-2.86708E-05-4.37530E-06-2.97566E-19 7.03563E-19
 -1      3405 9.97815E-05-3.33144E-05-2.85254E-05-5.20815E-06-1.40447E-20 4.22554E-19
 -1      3406 9.76873E-05-3.07543E-05-2.86817E-05-4.26631E-06-8.07095E-19 5.32939E-19
 -1      3407 9.69749E-05-3.00049E-05-2.86855E-05-4.24751E-06-6.75322E-19 1.41151E-19
 -1      3408 9.75417E-05-3.10732E-05-2.85160E-05-5.09158E-06-5.36180E-19 7.72131E-19
 -1      3409 9.63896E-05-2.93797E-05-2.87128E-05-4.00321E-06-4.70980E-19 1.84192E-21
 -1      3410 9.59095E-05-2.88674E-05-2.87237E-05-3.85894E-06-4.88982E-20 1.39739E-19
 -1      3411 9.60607E-05-2.94506E-05-2.85674E-05-4.62245E-06-7.17588E-19 6.41091E-19
 -1      3412 9.55759E-05-2.84756E-05-2.87513E-05-3.56245E-06 1.48887E-20 2.88066E-19
 -1      3413 9.52745E-05-2.81591E-05-2.87599E-05-3.35531E-06-1.14341E-19 1.83930E-19
 -1      3414 9.51676E-05-2.83865E-05-2.86334E-05-4.00715E-06-2.43130E-19 1.06184E-18
 -1      3415 9.51128E-05-2.79447E-05-2.87809E-05-3.05393E-06 2.05481E-19-1.00105E-20
 -1      3416 9.49384E-05-2.77745E-05-2.87838E-05-2.82462E-06 4.28478E-19 5.49348E-19
 -1      3417 9.46912E-05-2.77638E-05-2.86909E-05-3.36463E-06 1.35609E-19 4.08277E-19
 -1      3418 9.48863E-05-2.76846E-05-2.87960E-05-2.54330E-06 5.11118E-19 6.36046E-19
 -1      3419 9.47963E-05-2.76157E-05-2.87927E-05-2.31691E-06 1.09125E-18 6.26211E-19
 -1      3420 9.44904E-05-2.74609E-05-2.87310E-05-2.75713E-06 6.12545E-19 2.94009E-19
 -1      3421 9.48085E-05-2.76067E-05-2.87968E-05-2.06742E-06 9.92553E-19 4.66094E-19
 -1      3422 9.47713E-05-2.76027E-05-2.87884E-05-1.85840E-06 1.81455E-19 6.05325E-19
 -1      3423 9.44586E-05-2.73731E-05-2.87528E-05-2.21401E-06 9.67253E-19 5.78075E-19
 -1      3424 9.48166E-05-2.76414E-05-2.87861E-05-1.64480E-06-4.58219E-19 5.98520E-19
 -1      3425 9.48099E-05-2.76750E-05-2.87743E-05-1.46040E-06-4.66624E-19 6.25009E-19
 -1      3426 9.45209E-05-2.74187E-05-2.87586E-05-1.74599E-06 7.23992E-20 2.46460E-19
 -1      3427 9.48683E-05-2.77380E-05-2.87675E-05-1.28239E-06-7.74686E-19 7.33259E-19
 -1      3428 9.48773E-05-2.77902E-05-2.87539E-05-1.12524E-06-3.23465E-19 6.14519E-20
 -1      3429 9.46273E-05-2.75379E-05-2.87524E-05-1.35343E-06-6.28603E-19-1.16023E-20
 -1      3430 9.49369E-05-2.78618E-05-2.87443E-05-9.80146E-07 6.29052E-19-2.66370E-19
 -1      3431 9.49526E-05-2.79201E-05-2.87302E-05-8.49938E-07 9.22570E-19-4.23250E-19
 -1      3432 9.47466E-05-2.76896E-05-2.87382E-05-1.03125E-06-1.40500E-19 7.41595E-20
 -1      3433 9.50068E-05-2.79906E-05-2.87195E-05-7.33987E-07 9.88476E-19-6.43580E-20
 -1      3434 9.50238E-05-2.80475E-05-2.87059E-05-6.28701E-07 1.19958E-18 2.59279E-19
 -1      3435 9.48609E-05-2.78476E-05-2.87193E-05-7.71813E-07 1.21729E-18-4.72806E-20
 -1      3436 9.50697E-05-2.81116E-05-2.86949E-05-5.37723E-07 7.08023E-19 6.07923E-19
 -1      3437 9.50853E-05-2.81629E-05-2.86825E-05-4.54452E-07 1.73182E-19 7.90556E-19
 -1      3438 9.49611E-05-2.79962E-05-2.86986E-05-5.66507E-07 1.20241E-18-1.75985E-19
 -1      3439 9.51222E-05-2.82181E-05-2.86721E-05-3.84329E-07 9.99929E-20 1.18533E-18
 -1      3440 9.51352E-05-2.82620E-05-2.86611E-05-3.19851E-07 1.06145E-19 1.17767E-18
 -1      3441 9.50438E-05-2.81274E-05-2.86780E-05-4.06734E-07 4.47711E-19 5.07211E-19
 -1      3442 9.51636E-05-2.83076E-05-2.86517E-05-2.66797E-07-3.75977E-19 1.01943E-18
 -1      3443 9.51736E-05-2.83437E-05-2.86423E-05-2.17920E-07-7.72135E-19 4.67321E-19
 -1      3444 9.51089E-05-2.82380E-05-2.86585E-05-2.84500E-07-2.16975E-19 7.85673E-19
 -1      3445 9.51946E-05-2.83801E-05-2.86341E-05-1.78555E-07-8.80100E-19 9.61083E-19
 -1      3446 9.52020E-05-2.84089E-05-2.86263E-05-1.42303E-07-4.39456E-19 1.33088E-18
 -1      3447 9.51582E-05-2.83282E-05-2.86411E-05-1.92662E-07-5.32615E-19 1.42815E-18
 -1      3448 9.52169E-05-2.84371E-05-2.86194E-05-1.13698E-07-3.28028E-19 1.23255E-18
 -1      3449 9.52219E-05-2.84594E-05-2.86130E-05-8.74347E-08-1.37622E-19 1.14069E-18
 -1      3450 9.51939E-05-2.83993E-05-2.86261E-05-1.24963E-07-3.53642E-19 1.89351E-18
 -1      3451 9.52320E-05-2.84807E-05-2.86073E-05-6.71434E-08 6.55789E-19 1.00411E-18
 -1      3452 9.52352E-05-2.84974E-05-2.86023E-05-4.86233E-08 1.39456E-18 1.52170E-18
 -1      3453 9.52188E-05-2.84539E-05-2.86134E-05-7.61022E-08 4.54231E-19 1.44159E-18
 -1      3454 9.52417E-05-2.85131E-05-2.85977E-05-3.46464E-08 9.18872E-19 1.21808E-18
 -1      3455 9.52435E-05-2.85254E-05-2.85937E-05-2.20066E-08-5.06641E-20 6.44814E-19
 -1      3456 9.52353E-05-2.84948E-05-2.86030E-05-4.17118E-08 5.74530E-19 1.01005E-18
 -1      3457 9.52473E-05-2.85365E-05-2.85901E-05-1.27334E-08-4.30189E-19 2.65127E-19
 -1      3458 9.52482E-05-2.85452E-05-2.85871E-05-4.46236E-09-5.38935E-19 7.06357E-19
 -1      3459 9.52454E-05-2.85246E-05-2.85946E-05-1.82462E-08-5.06526E-19 2.46535E-19
 -1      3460 9.52501E-05-2.85529E-05-2.85843E-05 1.38300E-09-1.35138E-18 7.09424E-19
 -1      3461 9.52503E-05-2.85589E-05-2.85821E-05 6.48420E-09-1.48595E-18 2.70852E-19
 -1      3462 9.52511E-05-2.85456E-05-2.85881E-05-2.86464E-09-1.04707E-18 1.64695E-20
 -1      3463 9.52509E-05-2.85640E-05-2.85800E-05 9.89154E-09-1.79035E-18 7.55645E-19
 -1      3464 9.52506E-05-2.85680E-05-2.85783E-05 1.27531E-08-1.60962E-18 6.13949E-19
 -1      3465 9.52536E-05-2.85600E-05-2.85830E-05 6.66474E-09-1.41075E-18 9.42305E-19
 -1      3466 9.52504E-05-2.85711E-05-2.85768E-05 1.44755E-08-1.52956E-19-8.93143E-21
 -1      3467 9.52500E-05-2.85736E-05-2.85756E-05 1.58037E-08 7.97885E-19 1.12329E-19
 -1      3468 9.52540E-05-2.85693E-05-2.85792E-05 1.20619E-08-1.05868E-18 1.23882E-18
 -1      3469 9.52492E-05-2.85754E-05-2.85745E-05 1.64030E-08 9.69273E-19 1.27889E-19
 -1      3470 9.52487E-05-2.85768E-05-2.85737E-05 1.67225E-08 3.86894E-19 1.25809E-18
 -1      3471 9.52530E-05-2.85750E-05-2.85763E-05 1.46276E-08 9.46528E-19 2.26594E-19
 -1      3472 9.52477E-05-2.85777E-05-2.85728E-05 1.66082E-08-1.26063E-18 1.34171E-18
 -1      3473 9.52471E-05-2.85783E-05-2.85723E-05 1.62983E-08-2.02870E-18 1.92730E-18
 -1      3474 9.52514E-05-2.85782E-05-2.85743E-05 1.53259E-08-9.05844E-20 2.46314E-19
 -1      3475 9.52460E-05-2.85786E-05-2.85717E-05 1.57611E-08-2.56859E-18 2.46113E-18
 -1      3476 9.52454E-05-2.85788E-05-2.85714E-05 1.50878E-08-1.04331E-18 1.78034E-18
 -1      3477 9.52494E-05-2.85796E-05-2.85728E-05 1.48546E-08-1.93239E-18 5.43716E-19
 -1      3478 9.52443E-05-2.85787E-05-2.85710E-05 1.43274E-08-8.33028E-19 3.87987E-19
 -1      3479 9.52438E-05-2.85786E-05-2.85708E-05 1.34705E-08-2.14997E-19-3.56476E-19
 -1      3480 9.52473E-05-2.85800E-05-2.85717E-05 1.37038E-08-1.90479E-18 3.24243E-19
 -1      3481 9.52428E-05-2.85784E-05-2.85705E-05 1.26143E-08 1.63662E-18-5.81763E-19
 -1      3482 9.52424E-05-2.85782E-05-2.85703E-05 1.16902E-08 2.07855E-18-2.57268E-19
 -1      3483 9.52453E-05-2.85797E-05-2.85710E-05 1.22066E-08 5.30055E-19 2.84134E-19
 -1      3484 9.63199E-05-4.00336E-05-2.37992E-05-2.72852E-05 7.62075E-19 5.27225E-19
 -1      3485 1.04760E-04-4.53854E-05-2.57841E-05-2.34136E-05 1.01012E-18 3.07830E-19
 -1      3486 1.23466E-04-4.70359E-05-3.25382E-05 1.39842E-06 1.25610E-18 4.35256E-19
 -1      3487 1.22861E-04-4.30597E-05-3.44383E-05 6.33010E-06 8.87380E-19 1.11454E-19
 -1      3488 8.50249E-05-1.97217E-05-2.80406E-05 8.27912E-06 4.51026E-19 1.27367E-18
 -1      3489 8.36283E-05-1.90475E-05-2.76846E-05 9.23807E-06-1.61433E-19 1.28911E-18
 -1      3490 8.11290E-05-1.81689E-05-2.70569E-05 1.00748E-05-5.34208E-19 1.51010E-18
 -1      3491 7.94603E-05-1.78043E-05-2.64180E-05 1.13942E-05-5.71716E-19 1.37963E-18
 -1      3492 7.96738E-05-1.71322E-05-2.67179E-05 7.40823E-06-1.17422E-19 1.72390E-18
 -1      3493 9.17602E-05-2.41630E-05-2.89903E-05 4.63697E-06 5.51274E-19-1.50434E-19
 -1      3494 9.11974E-05-2.36036E-05-2.89720E-05 5.21557E-06 7.79400E-19 4.99627E-19
 -1      3495 9.28758E-05-2.52015E-05-2.90183E-05 3.73248E-06 5.37238E-20 1.03791E-19
 -1      3496 9.24926E-05-2.47517E-05-2.90326E-05 4.22514E-06 1.87853E-19-5.83990E-21
 -1      3497 9.12044E-05-2.38585E-05-2.88399E-05 3.88920E-06 2.84230E-19 2.17211E-19
 -1      3498 9.36511E-05-2.60191E-05-2.89964E-05 2.95895E-06-1.37254E-18 5.99727E-19
 -1      3499 9.33972E-05-2.56673E-05-2.90262E-05 3.37130E-06-4.18444E-19 4.14848E-19
 -1      3500 9.24293E-05-2.49492E-05-2.89044E-05 3.19433E-06-6.01341E-19 5.01805E-19
 -1      3501 9.41831E-05-2.66515E-05-2.89506E-05 2.30997E-06-4.79483E-19 7.93571E-19
 -1      3502 9.40187E-05-2.63807E-05-2.89858E-05 2.64906E-06-1.00123E-18 5.16505E-19
 -1      3503 9.32986E-05-2.58118E-05-2.89124E-05 2.57325E-06-1.21572E-18 8.38434E-19
 -1      3504 9.45446E-05-2.71355E-05-2.88960E-05 1.77565E-06 5.38533E-19 8.26247E-19
 -1      3505 9.44403E-05-2.69289E-05-2.89311E-05 2.04991E-06 1.49073E-19 8.97989E-19
 -1      3506 9.39102E-05-2.64839E-05-2.88900E-05 2.03447E-06-3.68116E-19 2.23395E-19
 -1      3507 9.47883E-05-2.75034E-05-2.88411E-05 1.34344E-06 2.90139E-19-4.45301E-20
 -1      3508 9.47235E-05-2.73467E-05-2.88733E-05 1.56190E-06 6.80947E-19 9.56965E-19
 -1      3509 9.43378E-05-2.70026E-05-2.88533E-05 1.57950E-06 6.82119E-19 5.83279E-19
 -1      3510 9.49514E-05-2.77822E-05-2.87903E-05 9.99545E-07 8.77132E-21-6.23378E-20
 -1      3511 9.49120E-05-2.76635E-05-2.88185E-05 1.17107E-06 2.32218E-19 9.16193E-20
 -1      3512 9.46351E-05-2.74004E-05-2.88119E-05 1.20432E-06 7.32714E-19 1.04253E-18
 -1      3513 9.50599E-05-2.79927E-05-2.87457E-05 7.30183E-07-1.09766E-18 1.99668E-19
 -1      3514 9.50366E-05-2.79031E-05-2.87695E-05 8.63001E-07-9.00347E-19-5.64388E-19
 -1      3515 9.48407E-05-2.77040E-05-2.87710E-05 9.01362E-07-5.37867E-19 7.98564E-19
 -1      3516 9.51315E-05-2.81512E-05-2.87077E-05 5.22436E-07-3.88266E-19-1.84571E-19
 -1      3517 9.51181E-05-2.80837E-05-2.87273E-05 6.23852E-07-1.71942E-19 2.30706E-19
 -1      3518 9.49821E-05-2.79347E-05-2.87334E-05 6.61406E-07-5.16880E-19 1.00973E-19
 -1      3519 9.51782E-05-2.82700E-05-2.86763E-05 3.64674E-07-7.49814E-19-8.73954E-19
 -1      3520 9.51709E-05-2.82193E-05-2.86921E-05 4.41004E-07-7.70886E-19-1.89857E-19
 -1      3521 9.50787E-05-2.81093E-05-2.87005E-05 4.74765E-07-1.03258E-19 8.34570E-20
 -1      3522 9.52083E-05-2.83587E-05-2.86508E-05 2.46814E-07-2.01953E-18-1.85381E-19
 -1      3523 9.52046E-05-2.83208E-05-2.86633E-05 3.03364E-07-1.64163E-18-5.02582E-19
 -1      3524 9.51439E-05-2.82406E-05-2.86725E-05 3.32110E-07-1.18207E-18 2.18513E-19
 -1      3525 9.52271E-05-2.84243E-05-2.86305E-05 1.60347E-07 6.29407E-21-8.91183E-19
 -1      3526 9.52256E-05-2.83962E-05-2.86403E-05 2.01505E-07-8.32636E-19-1.20163E-18
 -1      3527 9.51874E-05-2.83387E-05-2.86492E-05 2.25036E-07-7.48446E-19-4.82221E-20
 -1      3528 9.52385E-05-2.84724E-05-2.86145E-05 9.81866E-08 1.94257E-18-1.10434E-18
 -1      3529 9.52382E-05-2.84518E-05-2.86220E-05 1.27542E-07 5.96997E-19-9.52756E-19
 -1      3530 9.52156E-05-2.84114E-05-2.86303E-05 1.46230E-07 3.43045E-19-1.57985E-18
 -1      3531 9.52450E-05-2.85072E-05-2.86022E-05 5.45415E-08 8.07582E-19-2.89580E-19
 -1      3532 9.52452E-05-2.84923E-05-2.86079E-05 7.49763E-08 1.92289E-18-4.72075E-19
 -1      3533 9.52334E-05-2.84646E-05-2.86152E-05 8.94443E-08 1.41404E-18-1.99597E-18
 -1      3534 9.52482E-05-2.85320E-05-2.85929E-05 2.47790E-08 2.52582E-19-1.65577E-19
 -1      3535 9.52488E-05-2.85213E-05-2.85971E-05 3.85742E-08 5.89625E-19-1.28980E-19
 -1      3536 9.52441E-05-2.85030E-05-2.86034E-05 4.95134E-08 9.12946E-19-7.79480E-19
 -1      3537 9.52493E-05-2.85493E-05-2.85859E-05 5.24573E-09-3.11369E-19 8.94146E-19
 -1      3538 9.52500E-05-2.85418E-05-2.85890E-05 1.41848E-08-5.16172E-19 4.30661E-20
 -1      3539 9.52499E-05-2.85302E-05-2.85942E-05 2.22691E-08-1.88226E-19-5.09516E-19
 -1      3540 9.52492E-05-2.85610E-05-2.85807E-05-6.90245E-09-8.68573E-19 7.26933E-19
 -1      3541 9.52499E-05-2.85559E-05-2.85830E-05-1.44338E-09-4.89422E-20 5.00692E-19
 -1      3542 9.52525E-05-2.85490E-05-2.85872E-05 4.39357E-09-1.53656E-19-2.36837E-19
 -1      3543 9.52483E-05-2.85686E-05-2.85771E-05-1.38442E-08-1.71125E-18 1.72700E-18
 -1      3544 9.52490E-05-2.85653E-05-2.85786E-05-1.08191E-08-1.23106E-18 1.18522E-18
 -1      3545 9.52530E-05-2.85617E-05-2.85820E-05-6.70999E-09-1.06285E-18-5.91259E-19
 -1      3546 9.52471E-05-2.85733E-05-2.85745E-05-1.72199E-08-1.34493E-18 2.30662E-18
 -1      3547 9.52477E-05-2.85713E-05-2.85755E-05-1.58466E-08-2.01870E-18 2.08180E-18
 -1      3548 9.52522E-05-2.85699E-05-2.85782E-05-1.30371E-08-1.64568E-18-5.69673E-20
 -1      3549 9.52457E-05-2.85760E-05-2.85727E-05-1.82411E-08-5.13331E-19 5.30565E-19
 -1      3550 9.52462E-05-2.85748E-05-2.85734E-05-1.79459E-08-2.33720E-19 1.68894E-18
 -1      3551 9.52508E-05-2.85748E-05-2.85755E-05-1.60928E-08-4.41150E-19 7.92259E-20
 -1      3552 9.52442E-05-2.85773E-05-2.85715E-05-1.77839E-08-6.21499E-19-7.93703E-19
 -1      3553 9.52447E-05-2.85767E-05-2.85719E-05-1.81554E-08-8.84547E-19 8.06580E-19
 -1      3554 9.52490E-05-2.85776E-05-2.85735E-05-1.69903E-08-8.19433E-21-8.84898E-20
 -1      3555 9.52429E-05-2.85777E-05-2.85708E-05-1.64637E-08 1.46993E-19-1.99134E-18
 -1      3556 9.52433E-05-2.85775E-05-2.85710E-05-1.72156E-08-3.02891E-20-1.63931E-18
 -1      3557 9.52471E-05-2.85788E-05-2.85722E-05-1.65344E-08 9.23299E-20-6.95252E-19
 -1      3558 9.52417E-05-2.85776E-05-2.85703E-05-1.46963E-08 3.40007E-19-1.27419E-18
 -1      3559 9.52420E-05-2.85776E-05-2.85704E-05-1.56378E-08 2.91086E-19-1.83307E-18
 -1      3560 9.52453E-05-2.85790E-05-2.85713E-05-1.52898E-08 3.90305E-19-7.06537E-19
 -1      3561 9.52407E-05-2.85772E-05-2.85701E-05-1.27510E-08 6.83598E-19-1.72267E-18
 -1      3562 9.52409E-05-2.85773E-05-2.85701E-05-1.37621E-08 5.20342E-19-1.97904E-18
 -1      3563 9.52436E-05-2.85787E-05-2.85707E-05-1.36391E-08 4.58805E-19-6.34390E-19
 -1      3564 9.52399E-05-2.85768E-05-2.85699E-05-1.07833E-08-1.79869E-18-3.88500E-19
 -1      3565 9.52400E-05-2.85769E-05-2.85699E-05-1.17855E-08-9.17311E-19-7.77083E-19
 -1      3566 9.52422E-05-2.85782E-05-2.85703E-05-1.18377E-08-7.42782E-19 1.05548E-18
 -1      3567 9.52451E-05-2.85808E-05-2.85704E-05-4.66881E-09-2.88854E-19 6.43973E-19
 -1      3568 1.11083E-04-4.92744E-05-2.64673E-05 2.47714E-05 9.69323E-19 2.74518E-19
 -1      3569 1.25808E-04-4.37447E-05-3.55638E-05-3.90585E-06-2.31051E-19 4.53659E-19
 -1      3570 1.23835E-04-4.60768E-05-3.30840E-05 3.33527E-06 6.31767E-20 4.73716E-19
 -1      3571 6.96608E-05-1.97570E-05-2.13211E-05 1.97392E-05-2.21420E-20 1.86188E-18
 -1      3572 5.77686E-05-1.24789E-05-1.88596E-05 1.19437E-05-1.82311E-20 2.34088E-18
 -1      3573 5.81810E-05-1.20894E-05-1.96393E-05 5.83956E-06 2.75511E-19 1.73899E-18
 -1      3574 7.08901E-05-1.75517E-05-2.29676E-05 1.63478E-05 2.26614E-19 1.93764E-18
 -1      3575 8.79899E-05-2.13697E-05-2.85889E-05 6.87160E-06 2.22234E-19 1.35085E-18
 -1      3576 8.69013E-05-2.06422E-05-2.84053E-05 7.65632E-06 3.20962E-19 1.46898E-18
 -1      3577 8.39516E-05-1.90554E-05-2.77496E-05 6.33032E-06 2.79101E-19 1.30381E-18
 -1      3578 1.17881E-04-4.62895E-05-3.09996E-05 1.19373E-05 2.87621E-19 4.88579E-19
 -1      3579 1.09318E-04-4.21747E-05-2.86416E-05 1.91586E-05 5.09107E-19 7.89795E-19
 -1      3580 7.60839E-05-2.76345E-05-2.04977E-05-2.84788E-05 2.31611E-20 3.00167E-19
 -1      3581 8.69782E-05-3.51067E-05-2.23539E-05-2.93307E-05 4.59178E-19 6.37207E-19
 -1      3582 9.14764E-05-3.53821E-05-2.39430E-05-2.49333E-05 8.67660E-19 1.24739E-19
 -1      3583 9.38871E-05-2.70009E-05-2.86743E-05 1.55657E-05 1.14979E-18 3.27471E-19
 -1      3584 9.86247E-05-2.94050E-05-2.96280E-05 1.18395E-05 1.04891E-18 2.17272E-19
 -1      3585 1.03773E-04-3.37674E-05-3.00565E-05 9.92494E-06 7.72004E-19 1.30132E-19
 -1      3586 9.40134E-05-2.95604E-05-2.76670E-05 1.98437E-05 1.06573E-18 5.17947E-19
 -1      3587 1.21626E-04-3.09219E-05-3.93190E-05-1.27972E-05-6.48086E-19-2.77403E-20
 -1      3588 1.25411E-04-3.78571E-05-3.73842E-05-9.93534E-06-5.10840E-19 3.53451E-19
 -1      3589 1.22321E-04-3.95929E-05-3.55371E-05-7.30193E-06-2.01658E-19 2.53739E-19
 -1      3590 7.65085E-05-1.72587E-05-2.54995E-05 1.24802E-05 1.14482E-21 1.52715E-18
 -1      3591 7.47710E-05-1.76433E-05-2.44450E-05 1.44922E-05 2.42484E-19 1.78918E-18
 -1      3592 6.79416E-05-1.42691E-05-2.26945E-05 1.08847E-05 3.17393E-19 2.01794E-18
 -1      3593 7.43736E-05-1.54302E-05-2.51142E-05 8.77593E-06-1.39249E-19 1.61324E-18
 -1      3594 1.10464E-04-1.18716E-05-4.24094E-05-8.81499E-07-1.46113E-19 6.60421E-21
 -1      3595 1.12805E-04-1.24045E-05-4.33535E-05-5.65879E-06-2.10911E-19-1.41587E-19
 -1      3596 1.11629E-04-1.62238E-05-4.10426E-05-7.89013E-06-2.66312E-19-1.87922E-19
 -1      3597 6.05067E-05-1.66145E-05-1.86663E-05-1.96811E-05-2.80963E-19 6.48615E-19
 -1      3598 6.80058E-05-2.23399E-05-1.95155E-05-2.60955E-05-3.23183E-19 8.88908E-19
 -1      3599 7.63960E-05-2.51947E-05-2.17569E-05-2.38264E-05-5.04977E-20 1.48853E-19
 -1      3600 9.52437E-05-2.85795E-05-2.85704E-05 8.43345E-09 2.06373E-18-1.17252E-18
 -1      3601 9.52448E-05-2.85802E-05-2.85705E-05 7.31315E-09 1.66906E-18-7.74071E-19
 -1      3602 9.52406E-05-2.85776E-05-2.85698E-05-8.19614E-09 3.44682E-19-8.18213E-20
 -1      3603 9.52397E-05-2.85768E-05-2.85698E-05-8.48779E-09-5.07866E-20-1.18814E-19
 -1      3604 9.52396E-05-2.85767E-05-2.85698E-05-9.15049E-09-5.72438E-19-3.23596E-19
 -1      3605 9.52417E-05-2.85783E-05-2.85700E-05-8.53566E-09-7.99276E-19 7.40909E-19
 -1      3606 1.20343E-04-5.19183E-05-2.92638E-05-1.35270E-05 1.53027E-18 1.08772E-18
 -1      3607 9.01809E-05-2.28810E-05-2.88699E-05 5.67786E-06 5.99738E-19 6.62836E-19
 -1      3608 8.93812E-05-2.22167E-05-2.87910E-05 6.34959E-06 3.98060E-19 1.22353E-18
 -1      3609 8.94966E-05-2.25093E-05-2.86764E-05 4.64391E-06 9.75629E-19 1.11687E-18
 -1      3610 8.09151E-05-2.42610E-05-2.39481E-05 2.89349E-05 1.30390E-18 8.20722E-19
 -1      3611 9.52147E-05-3.38268E-05-2.63887E-05 2.57255E-05 9.75226E-19 9.08893E-19
 -1      3612 1.17106E-04-3.09722E-05-3.70363E-05 1.19542E-05 6.17381E-19-5.03720E-19
 -1      3613 1.11353E-04-3.18502E-05-3.40925E-05 1.05231E-05 3.48243E-19-4.08674E-19
 -1      3614 1.12673E-04-3.50640E-05-3.33267E-05 1.02620E-05 4.36533E-19-2.84995E-19
 -1      3615 1.21249E-04-3.90809E-05-3.52156E-05 9.65465E-06 8.31892E-19-3.45669E-19
 -1      3616 1.15215E-04-4.91063E-05-2.79395E-05-1.57951E-05 1.63390E-18 1.03777E-18
 -1      3617 1.20838E-04-5.05075E-05-3.05132E-05-7.27025E-06 1.60969E-18 1.25926E-18
 -1      3618 1.11912E-04-1.89783E-05-3.99204E-05 8.81653E-06 3.85215E-19-6.34696E-19
 -1      3619 1.15641E-04-3.81651E-05-3.32381E-05 8.70187E-06 4.76390E-19-2.84171E-19
 -1      3620 1.06488E-04-3.73216E-05-2.95692E-05 1.35292E-05 6.49529E-19 3.29483E-19
 -1      3621 1.03064E-04-3.73586E-05-2.80421E-05 2.02442E-05 8.15230E-19 7.10920E-19
 -1      3622 1.08458E-04-3.35043E-05-3.21190E-05-5.44078E-06 5.91353E-19-6.12374E-19
 -1      3623 1.10278E-04-3.51136E-05-3.21731E-05-4.21417E-06 5.86362E-19-5.03769E-19
 -1      3624 1.14553E-04-2.58621E-05-3.81581E-05-1.25308E-05-7.81706E-19-2.67345E-19
 -1      3625 1.05909E-04-1.75267E-05-3.79865E-05-5.60658E-06-3.45801E-19-9.43790E-19
 -1      3626 1.05235E-04-1.63523E-05-3.81927E-05-2.07506E-06-3.67401E-20-6.47224E-19
 -1      3627 1.08812E-04-4.50655E-05-2.72025E-05-1.68316E-05 1.08253E-18 6.96102E-19
 -1      3628 9.52414E-05-2.85777E-05-2.85701E-05 1.11865E-08 2.34559E-18-7.43900E-19
 -1      3629 9.52409E-05-2.85775E-05-2.85701E-05 1.03874E-08 2.61584E-18-4.80469E-19
 -1      3630 9.52417E-05-2.85780E-05-2.85701E-05 9.95166E-09 2.31526E-18-2.12815E-18
 -1      3631 9.52434E-05-2.85789E-05-2.85705E-05 1.09401E-08 2.05269E-18-7.23190E-19
 -1      3632 8.71453E-05-2.08945E-05-2.83476E-05 5.44915E-06 5.09821E-19 8.60468E-19
 -1      3633 9.52465E-05-2.85815E-05-2.85707E-05-4.28213E-09-5.58055E-19 8.73605E-19
 -1      3634 9.52458E-05-2.85810E-05-2.85707E-05-5.75789E-09-2.16123E-19 1.66173E-18
 -1      3635 9.52394E-05-2.85766E-05-2.85698E-05-9.81728E-09-1.09582E-18-1.08529E-19
 -1      3636 1.19055E-04-4.68612E-05-3.10033E-05-2.27391E-06 1.21170E-18 1.02093E-18
 -1      3637 9.52473E-05-2.85819E-05-2.85708E-05-8.62023E-10-3.03989E-19 2.19516E-19
 -1      3638 9.52470E-05-2.85818E-05-2.85708E-05-2.50101E-09-5.29943E-19-5.56510E-19
 -1      3639 9.52479E-05-2.85821E-05-2.85711E-05-3.62586E-09-3.82556E-19 3.51956E-19
 -1      3640 9.52463E-05-2.85809E-05-2.85709E-05 7.06692E-09 3.51370E-19 1.74566E-18
 -1      3641 9.52458E-05-2.85809E-05-2.85707E-05 5.81234E-09 4.80614E-19 1.67352E-18
 -1      3642 9.52465E-05-2.85814E-05-2.85707E-05 4.36704E-09-1.29393E-18 2.97865E-18
 -1      3643 1.18731E-04-4.37205E-05-3.20553E-05 5.05605E-06 1.93213E-19 3.70365E-19
 -1      3644 5.87508E-05-1.22124E-05-1.99381E-05-6.94890E-06 5.85856E-19 1.58938E-18
 -1      3645 5.87708E-05-1.37538E-05-1.90254E-05-1.41809E-05 4.11923E-19 7.86576E-19
 -1      3646 6.67394E-05-1.69572E-05-2.11864E-05-1.57002E-05 3.14089E-20 1.48797E-18
 -1      3647 9.52450E-05-2.85804E-05-2.85705E-05-7.04922E-09 1.02481E-19 1.97657E-18
 -1      3648 9.52440E-05-2.85798E-05-2.85704E-05-8.05718E-09-4.51264E-19 4.87736E-19
 -1      3649 9.52464E-05-2.85811E-05-2.85709E-05-6.74417E-09 2.64784E-19 1.72645E-18
 -1      3650 9.52470E-05-2.85818E-05-2.85708E-05 2.61387E-09-1.13779E-18 1.62829E-18
 -1      3651 9.52472E-05-2.85819E-05-2.85708E-05 9.94208E-10-6.88992E-19 9.77471E-19
 -1      3652 9.52484E-05-2.85824E-05-2.85712E-05 7.38916E-11 5.13381E-19 1.62550E-19
 -1      3653 9.52478E-05-2.85820E-05-2.85711E-05 3.75084E-09-1.00837E-18 2.37989E-18
 -1      3654 1.09681E-04-1.38141E-05-4.14428E-05 3.81508E-06 1.53128E-19-4.19521E-19
 -1      3655 9.52425E-05-2.85786E-05-2.85702E-05 9.39729E-09 2.21943E-18-1.15763E-18
 -1      3656 1.07643E-04-1.47065E-05-3.99950E-05 3.99269E-07 1.39178E-19-3.80417E-19
 -1      3657 9.52439E-05-2.85794E-05-2.85705E-05 9.53834E-09 1.74094E-18-9.94410E-19
 -1      3658 1.10979E-04-3.62915E-05-3.20989E-05-2.34364E-06 5.62556E-19-3.46301E-19
 -1      3659 1.13000E-04-3.72935E-05-3.23877E-05-4.13519E-06 3.85114E-19-3.79639E-19
 -1      3660 1.14848E-04-3.79062E-05-3.30047E-05-5.90210E-06 1.36640E-19-4.33659E-19
 -1      3661 1.10945E-04-3.67632E-05-3.17037E-05 1.01070E-06 5.60991E-19-5.59141E-20
 -1      3662 9.52411E-05-2.85777E-05-2.85700E-05-9.93751E-09-1.48570E-18 6.30594E-19
 -1      3663 9.52449E-05-2.85798E-05-2.85707E-05 9.90243E-09 1.70281E-18-1.13885E-18
 -1      3664 1.09855E-04-3.85853E-05-3.06042E-05 8.57786E-06 6.39406E-19 1.51164E-19
 -1      3665 7.90824E-05-1.70491E-05-2.66399E-05 4.22326E-06-3.56796E-20 1.00379E-18
 -1      3666 7.65394E-05-1.60771E-05-2.59545E-05 4.58701E-06 9.43135E-20 1.17209E-18
 -1      3667 1.16919E-04-3.76439E-05-3.39208E-05-8.50060E-06-1.97524E-19-3.78266E-19
 -1      3668 1.16867E-04-3.55822E-05-3.49334E-05-1.01307E-05-3.50387E-19-3.98746E-19
 -1      3669 1.16518E-04-3.91165E-05-3.31718E-05-5.03699E-06 1.21604E-19-2.58726E-19
 -1      3670 1.18449E-04-4.02669E-05-3.35396E-05 7.63411E-06 6.31556E-19-8.03804E-20
 -1      3671 1.17944E-04-4.15650E-05-3.25782E-05 6.40595E-06 3.92060E-19-5.71549E-20
 -1      3672 1.03663E-04-4.12173E-05-2.64888E-05-1.82254E-05 6.64458E-19 4.14963E-19
 -1      3673 1.10634E-04-4.52324E-05-2.82590E-05-1.21270E-05 1.09602E-18 1.49270E-18
 -1      3674 1.14070E-04-4.05454E-05-3.14525E-05 4.38773E-06 4.14001E-19 7.89742E-20
 -1      3675 1.12822E-04-4.30638E-05-2.99209E-05-1.59158E-06 1.07608E-18 3.87841E-19
 -1      3676 1.10806E-04-4.21441E-05-2.93430E-05-3.47817E-06 1.01081E-18 4.27167E-19
 -1      3677 1.03182E-04-3.68076E-05-2.84489E-05-6.26375E-06-3.14341E-19 5.46517E-19
 -1      3678 1.01375E-04-3.51528E-05-2.83324E-05-6.61900E-06-3.70019E-19 8.01556E-19
 -1      3679 9.96482E-05-3.35785E-05-2.83058E-05-6.44116E-06-4.88157E-19 1.06219E-18
 -1      3680 9.82853E-05-3.22161E-05-2.82849E-05-6.40376E-06-3.37593E-19 8.54807E-19
 -1      3681 9.94744E-05-3.41432E-05-2.80562E-05-8.01103E-06-4.32721E-19 8.40344E-19
 -1      3682 9.71702E-05-3.10432E-05-2.83262E-05-5.96703E-06-5.15077E-20 5.65699E-19
 -1      3683 9.62327E-05-3.00429E-05-2.83506E-05-5.72256E-06-5.44462E-19 7.13439E-19
 -1      3684 9.66881E-05-3.12190E-05-2.80983E-05-7.15224E-06-4.58441E-19 1.00173E-18
 -1      3685 9.55856E-05-2.92525E-05-2.84147E-05-5.20677E-06-4.52365E-19 1.06347E-18
 -1      3686 9.49950E-05-2.85871E-05-2.84534E-05-4.87629E-06-1.17681E-19 1.40803E-18
 -1      3687 9.49805E-05-2.91810E-05-2.82257E-05-6.03413E-06-2.49738E-20 8.85265E-19
 -1      3688 9.46715E-05-2.81064E-05-2.85163E-05-4.37745E-06-3.34113E-19 2.01420E-18
 -1      3689 9.43356E-05-2.77075E-05-2.85532E-05-4.03006E-06-2.27745E-19 1.60418E-18
 -1      3690 9.40521E-05-2.78956E-05-2.83683E-05-4.92178E-06-1.04617E-19 1.81218E-18
 -1      3691 9.42214E-05-2.74555E-05-2.86048E-05-3.58730E-06-3.36856E-19 1.30433E-18
 -1      3692 9.40590E-05-2.72512E-05-2.86332E-05-3.25847E-06 3.23416E-19 1.16520E-18
 -1      3693 9.36434E-05-2.71778E-05-2.84938E-05-3.92712E-06-3.76406E-19 1.60769E-18
 -1      3694 9.40715E-05-2.71571E-05-2.86707E-05-2.88318E-06 3.88059E-19 9.36326E-19
 -1      3695 9.40193E-05-2.70855E-05-2.86887E-05-2.58921E-06 2.81327E-19 9.01482E-19
 -1      3696 9.35605E-05-2.68581E-05-2.85906E-05-3.08348E-06-1.00558E-20 1.69777E-18
 -1      3697 9.41009E-05-2.70926E-05-2.87127E-05-2.28021E-06 7.40839E-19 7.31403E-19
 -1      3698 9.41133E-05-2.71049E-05-2.87213E-05-2.02677E-06 6.33523E-19 3.70698E-19
 -1      3699 9.36659E-05-2.68009E-05-2.86575E-05-2.39018E-06 2.88551E-19 1.14331E-18
 -1      3700 9.42256E-05-2.71710E-05-2.87339E-05-1.77736E-06 1.73643E-19 2.54323E-19
 -1      3701 9.42713E-05-2.72311E-05-2.87349E-05-1.56446E-06 1.95335E-20 1.15207E-19
 -1      3702 9.38661E-05-2.69030E-05-2.86980E-05-1.83203E-06 9.25382E-20-5.19391E-19
 -1      3703 9.43904E-05-2.73263E-05-2.87390E-05-1.36611E-06 2.75259E-20 9.15590E-20
 -1      3704 9.44493E-05-2.74093E-05-2.87346E-05-1.19089E-06-5.32988E-19 6.11731E-19
 -1      3705 9.41007E-05-2.70903E-05-2.87175E-05-1.38911E-06-2.01647E-19 1.13586E-20
 -1      3706 9.45616E-05-2.75139E-05-2.87327E-05-1.03507E-06-3.87597E-19 1.11966E-18
 -1      3707 9.46216E-05-2.76033E-05-2.87249E-05-8.93358E-07 7.94625E-19 1.45800E-18
 -1      3708 9.43333E-05-2.73128E-05-2.87215E-05-1.04149E-06 2.19504E-19 9.47945E-19
 -1      3709 9.47200E-05-2.77050E-05-2.87192E-05-7.72299E-07 6.25249E-19 6.45248E-19
 -1      3710 9.47747E-05-2.77909E-05-2.87096E-05-6.59529E-07 9.26476E-19 7.81495E-20
 -1      3711 9.45440E-05-2.75383E-05-2.87152E-05-7.71256E-07 2.38580E-19 1.82710E-18
 -1      3712 9.48566E-05-2.78831E-05-2.87018E-05-5.66533E-07 1.77364E-18-4.29142E-19
 -1      3713 9.49029E-05-2.79601E-05-2.86917E-05-4.78186E-07 1.46058E-18-4.45661E-19
 -1      3714 9.47240E-05-2.77482E-05-2.87026E-05-5.63124E-07 1.01452E-18-3.07108E-19
 -1      3715 9.49685E-05-2.80394E-05-2.86830E-05-4.07538E-07 9.29619E-19-4.06895E-19
 -1      3716 9.50057E-05-2.81053E-05-2.86731E-05-3.39368E-07 5.01841E-19-2.22663E-19
 -1      3717 9.48708E-05-2.79326E-05-2.86866E-05-4.04384E-07 1.34636E-18-4.24073E-19
 -1      3718 9.50564E-05-2.81711E-05-2.86645E-05-2.86382E-07 2.50578E-19 2.90267E-19
 -1      3719 9.50851E-05-2.82254E-05-2.86553E-05-2.34671E-07 1.96257E-19 8.77749E-19
 -1      3720 9.49863E-05-2.80883E-05-2.86697E-05-2.84504E-07 9.18075E-19-5.97848E-19
 -1      3721 9.51229E-05-2.82783E-05-2.86472E-05-1.95523E-07 3.36419E-19 1.99091E-18
 -1      3722 9.51442E-05-2.83216E-05-2.86391E-05-1.56966E-07 2.98449E-19 2.77287E-18
 -1      3723 9.50742E-05-2.82155E-05-2.86530E-05-1.95151E-07 9.08902E-19 1.92609E-18
 -1      3724 9.51715E-05-2.83630E-05-2.86318E-05-1.28496E-07-2.73400E-19 2.62408E-18
 -1      3725 9.51866E-05-2.83966E-05-2.86249E-05-1.00284E-07-6.77799E-19 2.76057E-18
 -1      3726 9.51388E-05-2.83163E-05-2.86377E-05-1.29460E-07 2.10886E-19 2.96436E-18
 -1      3727 9.52057E-05-2.84282E-05-2.86186E-05-7.99606E-08-2.59141E-19 2.55581E-18
 -1      3728 9.52159E-05-2.84536E-05-2.86129E-05-5.97692E-08 5.19079E-19 2.04422E-18
 -1      3729 9.51848E-05-2.83943E-05-2.86242E-05-8.19044E-08-6.58934E-19 3.47858E-18
 -1      3730 9.52287E-05-2.84771E-05-2.86076E-05-4.56092E-08 9.11436E-19 1.37324E-18
 -1      3731 9.52352E-05-2.84959E-05-2.86029E-05-3.15397E-08 1.04689E-22 1.02084E-18
 -1      3732 9.52164E-05-2.84532E-05-2.86125E-05-4.81474E-08-7.85931E-20 1.50848E-18
 -1      3733 9.52432E-05-2.85129E-05-2.85985E-05-2.19758E-08-5.21569E-19 4.63300E-19
 -1      3734 9.52470E-05-2.85264E-05-2.85948E-05-1.24912E-08-6.12487E-19 3.33815E-19
 -1      3735 9.52369E-05-2.84966E-05-2.86029E-05-2.47950E-08 2.59783E-19 6.66770E-19
 -1      3736 9.52516E-05-2.85383E-05-2.85913E-05-6.28691E-09-1.09009E-18 5.33828E-19
 -1      3737 9.52536E-05-2.85477E-05-2.85884E-05-1.68710E-10-2.18895E-18 2.32626E-19
 -1      3738 9.52494E-05-2.85276E-05-2.85950E-05-9.14744E-09-1.35752E-18 4.19493E-19
 -1      3739 9.52558E-05-2.85557E-05-2.85856E-05 3.62740E-09-2.01590E-18 2.88719E-19
 -1      3740 9.52564E-05-2.85620E-05-2.85834E-05 7.32809E-09-1.09137E-18 4.12310E-19
 -1      3741 9.52561E-05-2.85492E-05-2.85886E-05 8.95213E-10-1.91075E-18 7.52128E-19
 -1      3742 9.52570E-05-2.85672E-05-2.85813E-05 9.43793E-09-1.37221E-18-5.85609E-20
 -1      3743 9.52568E-05-2.85712E-05-2.85796E-05 1.14470E-08-6.74488E-19-2.27947E-19
 -1      3744 9.52589E-05-2.85636E-05-2.85837E-05 6.93961E-09-1.86957E-18-4.31866E-19
 -1      3745 9.52564E-05-2.85744E-05-2.85780E-05 1.24105E-08 3.24367E-19 4.39196E-19
 -1      3746 9.52557E-05-2.85767E-05-2.85767E-05 1.32729E-08 8.28679E-19-1.30577E-18
 -1      3747 9.52591E-05-2.85727E-05-2.85799E-05 1.02001E-08-1.44527E-19-1.46533E-18
 -1      3748 9.52547E-05-2.85784E-05-2.85755E-05 1.34873E-08 9.11077E-19-1.63109E-18
 -1      3749 9.52537E-05-2.85797E-05-2.85746E-05 1.36040E-08 3.59001E-21-7.51712E-19
 -1      3750 9.52577E-05-2.85780E-05-2.85770E-05 1.15814E-08 4.93282E-19-1.47453E-18
 -1      3751 9.52524E-05-2.85804E-05-2.85737E-05 1.33550E-08-1.25184E-18-6.35604E-19
 -1      3752 9.52514E-05-2.85809E-05-2.85731E-05 1.30134E-08-2.07081E-18-2.00880E-19
 -1      3753 9.52554E-05-2.85808E-05-2.85749E-05 1.17458E-08-1.41693E-19-6.82829E-19
 -1      3754 9.52500E-05-2.85810E-05-2.85724E-05 1.24999E-08-1.85483E-18 3.94509E-19
 -1      3755 9.52489E-05-2.85810E-05-2.85720E-05 1.18994E-08-1.26783E-18 2.51425E-19
 -1      3756 9.52527E-05-2.85818E-05-2.85733E-05 1.11659E-08-1.38931E-18 4.36719E-19
 -1      3757 9.52476E-05-2.85807E-05-2.85715E-05 1.12587E-08-6.58044E-19 1.12935E-18
 -1      3758 9.52466E-05-2.85805E-05-2.85712E-05 1.05469E-08 7.79168E-19 7.65108E-19
 -1      3759 9.52500E-05-2.85818E-05-2.85721E-05 1.01713E-08-2.91976E-19 1.93583E-18
 -1      3760 8.67111E-05-2.09409E-05-2.82132E-05 3.77938E-06 8.72444E-19 4.00397E-19
 -1      3761 8.53093E-05-2.00814E-05-2.79819E-05 4.06692E-06 5.78184E-19 3.84143E-19
 -1      3762 7.43239E-05-2.20662E-05-2.23000E-05-1.99906E-05 1.18469E-20 5.10456E-19
 -1      3763 8.07974E-05-2.71491E-05-2.30865E-05-2.25202E-05 1.35608E-19-7.57724E-19
 -1      3764 9.21105E-05-2.49001E-05-2.88156E-05 2.51308E-06-1.09379E-18 9.56686E-19
 -1      3765 9.15864E-05-2.44152E-05-2.87949E-05 2.80157E-06-6.20558E-19 9.74197E-19
 -1      3766 9.08394E-05-2.38334E-05-2.87312E-05 2.97173E-06-2.47495E-20 9.03081E-19
 -1      3767 9.01035E-05-2.32306E-05-2.86717E-05 3.27452E-06 5.75892E-19 8.94999E-19
 -1      3768 9.06864E-05-2.37933E-05-2.86474E-05 2.24529E-06-4.51446E-19 8.06083E-19
 -1      3769 9.36917E-05-2.64214E-05-2.88369E-05 1.66216E-06-1.50171E-19 2.90642E-19
 -1      3770 9.34326E-05-2.61208E-05-2.88497E-05 1.89168E-06-6.40825E-19 2.58794E-19
 -1      3771 9.41654E-05-2.69448E-05-2.88141E-05 1.30609E-06 2.60073E-19 8.33393E-19
 -1      3772 9.39849E-05-2.67113E-05-2.88321E-05 1.50070E-06-5.07387E-21 4.28923E-19
 -1      3773 9.35695E-05-2.63585E-05-2.87973E-05 1.36841E-06-3.23446E-19-8.28177E-20
 -1      3774 9.45030E-05-2.73507E-05-2.87837E-05 1.00470E-06 4.34402E-19 1.00924E-18
 -1      3775 9.43780E-05-2.71703E-05-2.88031E-05 1.16542E-06 7.08305E-19 9.23811E-19
 -1      3776 9.40662E-05-2.68889E-05-2.87851E-05 1.09077E-06 6.61369E-20 2.72420E-19
 -1      3777 9.47425E-05-2.76637E-05-2.87512E-05 7.56672E-07-5.45536E-19 7.16229E-19
 -1      3778 9.46563E-05-2.75250E-05-2.87700E-05 8.86422E-07 7.76158E-21 1.29057E-18
 -1      3779 9.44260E-05-2.73040E-05-2.87630E-05 8.47928E-07 2.64096E-19 9.60794E-19
 -1      3780 9.49114E-05-2.79036E-05-2.87200E-05 5.57516E-07-6.55518E-20 3.41083E-19
 -1      3781 9.48524E-05-2.77975E-05-2.87370E-05 6.60128E-07-5.03797E-19 8.76613E-19
 -1      3782 9.46850E-05-2.76266E-05-2.87369E-05 6.43530E-07-2.35945E-19 2.09204E-18
 -1      3783 9.50294E-05-2.80864E-05-2.86917E-05 4.01083E-07-4.18655E-19 1.32593E-18
 -1      3784 9.49894E-05-2.80057E-05-2.87065E-05 4.80701E-07 1.01060E-19 6.85056E-19
 -1      3785 9.48702E-05-2.78754E-05-2.87104E-05 4.76813E-07-5.92571E-19 2.41692E-18
 -1      3786 9.51110E-05-2.82245E-05-2.86670E-05 2.80642E-07-1.30995E-18 1.11091E-18
 -1      3787 9.50842E-05-2.81636E-05-2.86795E-05 3.41309E-07-4.67580E-19 1.54324E-18
 -1      3788 9.50012E-05-2.80658E-05-2.86855E-05 3.44357E-07-1.79472E-19 2.61852E-18
 -1      3789 9.51666E-05-2.83281E-05-2.86460E-05 1.89824E-07 4.05828E-19-9.06033E-19
 -1      3790 9.51490E-05-2.82825E-05-2.86564E-05 2.35155E-07-4.06822E-19-2.05546E-20
 -1      3791 9.50928E-05-2.82102E-05-2.86632E-05 2.41506E-07 1.62423E-19 1.47594E-18
 -1      3792 9.52037E-05-2.84050E-05-2.86287E-05 1.22813E-07 9.33752E-19-1.45854E-18
 -1      3793 9.51924E-05-2.83712E-05-2.86371E-05 1.56002E-07 3.92402E-19-1.12215E-18
 -1      3794 9.51557E-05-2.83187E-05-2.86440E-05 1.63540E-07 5.81152E-19 2.05712E-19
 -1      3795 9.52275E-05-2.84612E-05-2.86146E-05 7.44648E-08 9.52931E-19-1.06148E-18
 -1      3796 9.52206E-05-2.84365E-05-2.86213E-05 9.82314E-08 1.03012E-18-1.61449E-18
 -1      3797 9.51980E-05-2.83992E-05-2.86278E-05 1.05781E-07 6.81749E-19-5.21139E-19
 -1      3798 9.52422E-05-2.85017E-05-2.86034E-05 4.04826E-08 1.05478E-18-3.51506E-19
 -1      3799 9.52383E-05-2.84839E-05-2.86087E-05 5.70561E-08 8.76629E-19-6.01783E-19
 -1      3800 9.52254E-05-2.84581E-05-2.86144E-05 6.39853E-08 8.81919E-19-2.32750E-19
 -1      3801 9.52506E-05-2.85303E-05-2.85947E-05 1.73550E-08-7.08808E-19 9.88441E-20
 -1      3802 9.52487E-05-2.85178E-05-2.85987E-05 2.85401E-08 2.56496E-19 1.36886E-19
 -1      3803 9.52425E-05-2.85004E-05-2.86037E-05 3.45758E-08 7.44118E-19 6.60557E-19
 -1      3804 9.52547E-05-2.85500E-05-2.85879E-05 2.25191E-09-5.19099E-19-1.66039E-19
 -1      3805 9.52540E-05-2.85414E-05-2.85909E-05 9.48149E-09-3.20626E-19-2.73501E-19
 -1      3806 9.52522E-05-2.85302E-05-2.85951E-05 1.45582E-08-1.87444E-19 6.24703E-19
 -1      3807 9.52560E-05-2.85631E-05-2.85827E-05-7.05363E-09-1.58420E-18-5.79318E-19
 -1      3808 9.52561E-05-2.85574E-05-2.85850E-05-2.66335E-09-8.86867E-19-4.14706E-19
 -1      3809 9.52571E-05-2.85507E-05-2.85885E-05 1.49748E-09-4.78909E-19-5.82724E-20
 -1      3810 9.52555E-05-2.85715E-05-2.85789E-05-1.22768E-08-1.40845E-18-6.23387E-19
 -1      3811 9.52561E-05-2.85679E-05-2.85806E-05-9.87257E-09-1.85559E-18-4.11513E-19
 -1      3812 9.52586E-05-2.85642E-05-2.85833E-05-6.53140E-09-1.39980E-18-4.48613E-19
 -1      3813 9.52540E-05-2.85764E-05-2.85761E-05-1.47126E-08 3.18345E-20-4.28204E-19
 -1      3814 9.52548E-05-2.85743E-05-2.85773E-05-1.36544E-08-5.11094E-19-4.19629E-19
 -1      3815 9.52581E-05-2.85727E-05-2.85795E-05-1.10161E-08-8.87410E-19 5.56293E-19
 -1      3816 9.52519E-05-2.85791E-05-2.85741E-05-1.53180E-08-6.41924E-19 8.69106E-19
 -1      3817 9.52529E-05-2.85780E-05-2.85749E-05-1.51359E-08-6.81961E-19 3.82978E-19
 -1      3818 9.52564E-05-2.85777E-05-2.85766E-05-1.30817E-08-1.19821E-18 1.70418E-18
 -1      3819 9.52496E-05-2.85801E-05-2.85726E-05-1.47855E-08 1.07875E-18-7.25937E-20
 -1      3820 9.52506E-05-2.85797E-05-2.85732E-05-1.51421E-08 1.14849E-18 6.22241E-19
 -1      3821 9.52540E-05-2.85803E-05-2.85745E-05-1.35609E-08 3.21634E-19 1.51997E-18
 -1      3822 9.52474E-05-2.85802E-05-2.85716E-05-1.35979E-08 4.81982E-19-9.60119E-19
 -1      3823 9.52483E-05-2.85802E-05-2.85720E-05-1.42602E-08 2.35723E-19-7.92770E-19
 -1      3824 9.52514E-05-2.85812E-05-2.85730E-05-1.30586E-08 1.46454E-18 1.96703E-19
 -1      3825 9.52453E-05-2.85797E-05-2.85710E-05-1.20828E-08-3.90018E-19-4.63171E-20
 -1      3826 9.52461E-05-2.85799E-05-2.85712E-05-1.28907E-08-2.56868E-19-8.68824E-19
 -1      3827 9.52488E-05-2.85811E-05-2.85719E-05-1.19902E-08-3.66170E-19-7.92055E-20
 -1      3828 9.52468E-05-2.85809E-05-2.85711E-05 9.02707E-09 6.85196E-19 4.24737E-19
 -1      3829 6.35101E-05-1.29238E-05-2.16858E-05 6.21992E-06 2.82221E-19 1.69407E-18
 -1      3830 5.95350E-05-1.12033E-05-2.04051E-05-9.13700E-07 1.71180E-19 1.58841E-18
 -1      3831 6.43165E-05-1.31978E-05-2.18530E-05-5.04324E-06 3.94052E-19 1.33586E-18
 -1      3832 6.73449E-05-1.34650E-05-2.31847E-05 5.29189E-06-8.36015E-20 1.82334E-18
 -1      3833 8.75841E-05-3.13908E-05-2.38908E-05-2.30164E-05 4.20096E-19-1.73311E-19
 -1      3834 9.44281E-05-3.65598E-05-2.51030E-05-2.19593E-05 9.14432E-19-3.44517E-19
 -1      3835 8.51672E-05-2.83486E-05-2.42762E-05-2.00283E-05 1.69182E-19-4.55899E-19
 -1      3836 9.52422E-05-2.85785E-05-2.85702E-05-9.43416E-09-1.47820E-18 5.95555E-19
 -1      3837 1.19819E-04-3.72182E-05-3.55747E-05-9.61505E-06-2.21684E-19-8.80120E-21
 -1      3838 1.20515E-04-4.09132E-05-3.40438E-05-5.03155E-06-1.29861E-19 7.63289E-20
 -1      3839 1.16440E-04-4.30830E-05-3.15384E-05 3.16026E-06 7.39046E-19 1.16055E-19
 -1      3840 1.15102E-04-4.34776E-05-3.06218E-05 6.53388E-07 9.99678E-19 4.19784E-19
 -1      3841 1.14613E-04-4.46720E-05-2.99703E-05-3.16986E-06 9.56049E-19 6.29609E-19
 -1      3842 1.18766E-04-4.50845E-05-3.17356E-05 1.94260E-06 8.96444E-19 5.13742E-19
 -1      3843 9.52496E-05-2.85827E-05-2.85715E-05-2.94636E-09-3.37841E-20 4.60630E-19
 -1      3844 9.52490E-05-2.85824E-05-2.85714E-05-4.74825E-09-4.28976E-19 8.83243E-19
 -1      3845 8.90935E-05-2.25197E-05-2.85505E-05 3.40875E-06 4.96118E-19 6.63223E-19
 -1      3846 8.80716E-05-2.17878E-05-2.84258E-05 3.71016E-06 7.25808E-19 2.68508E-19
 -1      3847 8.66596E-05-2.09824E-05-2.81058E-05 2.45969E-06 9.80770E-19-2.00882E-19
 -1      3848 8.89704E-05-2.25134E-05-2.84519E-05 2.43049E-06 3.07387E-19 5.31653E-19
 -1      3849 9.30301E-05-2.57510E-05-2.88426E-05 2.06868E-06-8.01956E-19 9.31000E-19
 -1      3850 9.26602E-05-2.53671E-05-2.88439E-05 2.33099E-06-9.67854E-19 1.29577E-18
 -1      3851 9.28873E-05-2.56859E-05-2.87900E-05 1.67002E-06-6.69423E-20 8.43462E-19
 -1      3852 8.34761E-05-1.91047E-05-2.76255E-05 4.04613E-06 4.76612E-19 4.53033E-19
 -1      3853 8.15781E-05-1.81452E-05-2.72234E-05 4.33101E-06 2.10335E-19 5.17000E-19
 -1      3854 7.93604E-05-1.71677E-05-2.65721E-05 1.72918E-06 3.22034E-19-1.01275E-19
 -1      3855 8.35549E-05-1.91955E-05-2.75237E-05 2.25155E-06 6.01430E-19 8.01919E-20
 -1      3856 9.52436E-05-2.85793E-05-2.85704E-05-9.57279E-09-5.41160E-19 1.85795E-18
 -1      3857 1.17802E-04-3.29057E-05-3.63367E-05-1.25378E-05-5.54118E-19-1.27783E-19
 -1      3858 1.18239E-04-2.72914E-05-3.92090E-05-1.25073E-05-6.73801E-19 1.49104E-19
 -1      3859 9.52498E-05-2.85825E-05-2.85717E-05-5.77189E-09-1.11346E-18 7.67899E-19
 -1      3860 9.52482E-05-2.85819E-05-2.85713E-05-6.39990E-09-6.68246E-19 8.00828E-19
 -1      3861 9.52471E-05-2.85813E-05-2.85711E-05-7.72001E-09-3.71951E-19 1.99248E-18
 -1      3862 1.09337E-04-4.32140E-05-2.83845E-05-9.77902E-06 9.92405E-19 1.18152E-18
 -1      3863 1.14566E-04-4.61658E-05-2.92082E-05-7.49941E-06 1.23747E-18 1.30298E-18
 -1      3864 9.52499E-05-2.85829E-05-2.85716E-05-8.52390E-10 4.67440E-19 2.61736E-19
 -1      3865 9.52510E-05-2.85832E-05-2.85719E-05-2.01188E-09-3.49711E-19 7.50218E-19
 -1      3866 9.52498E-05-2.85829E-05-2.85716E-05 1.02822E-09-1.21881E-19 1.50962E-19
 -1      3867 1.09057E-04-4.20849E-05-2.87844E-05-6.87291E-06 8.65692E-19 7.97548E-19
 -1      3868 1.07653E-04-4.02879E-05-2.88995E-05-4.88739E-06 7.08910E-19 5.22040E-19
 -1      3869 1.05550E-04-3.86084E-05-2.86153E-05-5.87192E-06 1.18292E-19 3.82332E-19
 -1      3870 1.06220E-04-4.06129E-05-2.79953E-05-1.04723E-05 4.13359E-19 9.18931E-19
 -1      3871 9.19547E-05-2.48413E-05-2.87479E-05 1.97421E-06-1.02441E-18 1.20984E-18
 -1      3872 7.13218E-05-1.90625E-05-2.23305E-05-1.67227E-05 2.79752E-19 1.13203E-18
 -1      3873 7.64240E-05-2.11330E-05-2.35968E-05-1.57360E-05 5.39019E-19 4.07056E-19
 -1      3874 6.90069E-05-1.63718E-05-2.25807E-05-1.17260E-05 2.39601E-19 1.06852E-18
 -1      3875 9.52481E-05-2.85816E-05-2.85713E-05 7.50417E-09-1.15669E-19 3.60901E-18
 -1      3876 9.52435E-05-2.85791E-05-2.85705E-05-1.04503E-08-1.10647E-18 1.63538E-18
 -1      3877 9.52442E-05-2.85793E-05-2.85706E-05-1.12869E-08-8.41970E-19 7.04197E-19
 -1      3878 9.93805E-05-3.76463E-05-2.63158E-05-1.73357E-05 9.56208E-19 5.31483E-19
 -1      3879 9.52465E-05-2.85806E-05-2.85711E-05-1.06353E-08-1.17043E-18 2.10132E-18
 -1      3880 7.38524E-05-1.51722E-05-2.52317E-05 4.60402E-06 1.16948E-19 1.84031E-18
 -1      3881 7.09140E-05-1.43827E-05-2.42723E-05 5.09888E-06-9.32431E-20 1.81007E-18
 -1      3882 6.84752E-05-1.33119E-05-2.34496E-05 5.09930E-07 6.02055E-20 1.90915E-18
 -1      3883 7.43566E-05-1.51742E-05-2.52435E-05 1.04783E-06 2.45662E-19 1.43500E-18
 -1      3884 1.18110E-04-4.14299E-05-3.30374E-05-2.14732E-06 1.12129E-19 6.69983E-20
 -1      3885 1.03525E-04-3.78618E-05-2.82181E-05-8.15135E-06-5.84147E-20 5.06463E-19
 -1      3886 9.88479E-05-3.40722E-05-2.77234E-05-9.69577E-06-4.08320E-19 9.28861E-19
 -1      3887 9.70497E-05-3.22981E-05-2.77256E-05-9.23270E-06-6.20220E-19 1.02991E-18
 -1      3888 9.28304E-05-2.57557E-05-2.87522E-05 1.22301E-06 3.86682E-19 7.23041E-19
 -1      3889 9.24275E-05-2.53857E-05-2.87389E-05 1.35101E-06 2.44423E-20 1.00282E-18
 -1      3890 1.03204E-04-3.82259E-05-2.78355E-05-1.03974E-05 2.82292E-19 8.56938E-19
 -1      3891 1.00812E-04-3.60156E-05-2.77029E-05-1.03807E-05 1.11231E-19 1.12825E-18
 -1      3892 9.78959E-05-3.44020E-05-2.73241E-05-1.19245E-05-1.80069E-19 1.53858E-18
 -1      3893 1.02727E-04-3.92089E-05-2.74067E-05-1.33347E-05 4.51573E-19 1.06485E-18
 -1      3894 9.59071E-05-3.08738E-05-2.78368E-05-8.24231E-06-3.54292E-19 1.13698E-18
 -1      3895 9.47632E-05-2.96357E-05-2.79015E-05-7.62384E-06-3.82145E-19 9.41086E-19
 -1      3896 9.47126E-05-3.06720E-05-2.74981E-05-9.81162E-06-3.97846E-19 1.82415E-18
 -1      3897 9.41909E-05-2.87324E-05-2.80283E-05-6.70593E-06-3.62587E-19 9.50828E-19
 -1      3898 9.35382E-05-2.79473E-05-2.81095E-05-6.08125E-06 6.34898E-20 1.08666E-18
 -1      3899 9.30957E-05-2.83513E-05-2.77727E-05-7.70755E-06-3.07352E-19 1.28561E-18
 -1      3900 9.33311E-05-2.74315E-05-2.82238E-05-5.30366E-06 2.35391E-19 7.67481E-19
 -1      3901 9.30065E-05-2.69853E-05-2.82987E-05-4.74576E-06-2.21030E-19 1.05365E-18
 -1      3902 9.23755E-05-2.69877E-05-2.80356E-05-5.90401E-06-9.71914E-20 2.82540E-19
 -1      3903 9.30161E-05-2.67390E-05-2.83908E-05-4.11800E-06-5.01523E-19 1.19922E-18
 -1      3904 9.29022E-05-2.65301E-05-2.84510E-05-3.64711E-06-3.41966E-19 7.83486E-19
 -1      3905 9.22113E-05-2.62937E-05-2.82555E-05-4.44899E-06-3.12835E-19 1.11861E-19
 -1      3906 9.30323E-05-2.64642E-05-2.85195E-05-3.15531E-06-2.72122E-19 1.55393E-18
 -1      3907 9.30455E-05-2.64128E-05-2.85631E-05-2.77072E-06 1.17834E-19 9.66054E-19
 -1      3908 9.23710E-05-2.60479E-05-2.84250E-05-3.31096E-06-1.66336E-19 9.64560E-19
 -1      3909 9.32320E-05-2.64592E-05-2.86104E-05-2.39352E-06-1.73159E-20 1.06171E-18
 -1      3910 9.33144E-05-2.65045E-05-2.86387E-05-2.08581E-06-3.00123E-19 4.73579E-19
 -1      3911 9.26989E-05-2.60870E-05-2.85464E-05-2.44201E-06 6.78492E-20 5.29989E-19
 -1      3912 9.35169E-05-2.66137E-05-2.86685E-05-1.80045E-06-1.32284E-19 3.14431E-19
 -1      3913 9.36300E-05-2.67124E-05-2.86842E-05-1.55758E-06-1.51046E-19 3.19362E-19
 -1      3914 9.30935E-05-2.62912E-05-2.86269E-05-1.78883E-06-5.27716E-19 9.46744E-19
 -1      3915 9.38249E-05-2.68504E-05-2.87005E-05-1.34366E-06-6.16312E-20 2.99659E-19
 -1      3916 9.39448E-05-2.69726E-05-2.87068E-05-1.15382E-06-1.72444E-19 6.88422E-19
 -1      3917 9.34931E-05-2.65773E-05-2.86752E-05-1.30273E-06-1.59834E-19 1.14900E-18
 -1      3918 9.41193E-05-2.71172E-05-2.87134E-05-9.94463E-07 7.92023E-20 1.03494E-18
 -1      3919 9.42321E-05-2.72437E-05-2.87130E-05-8.47236E-07 5.54013E-19 1.47665E-18
 -1      3920 9.38627E-05-2.68904E-05-2.86995E-05-9.43267E-07 3.04780E-19 1.09151E-18
 -1      3921 9.43809E-05-2.73814E-05-2.87129E-05-7.29105E-07 1.03442E-19 1.20512E-18
 -1      3922 9.44799E-05-2.75008E-05-2.87083E-05-6.15748E-07 4.52939E-19 1.14196E-18
 -1      3923 9.41852E-05-2.71964E-05-2.87069E-05-6.78550E-07 1.03137E-19 1.48456E-18
 -1      3924 9.46020E-05-2.76242E-05-2.87040E-05-5.28548E-07 6.51081E-19 1.08586E-18
 -1      3925 9.46844E-05-2.77304E-05-2.86969E-05-4.41929E-07 1.06155E-18 2.96469E-19
 -1      3926 9.44547E-05-2.74757E-05-2.87031E-05-4.84158E-07 4.51002E-19 9.05487E-19
 -1      3927 9.47815E-05-2.78364E-05-2.86903E-05-3.77965E-07 1.01932E-18 3.70358E-19
 -1      3928 9.48474E-05-2.79267E-05-2.86821E-05-3.12370E-07 9.46254E-19 1.68889E-19
 -1      3929 9.46726E-05-2.77191E-05-2.86926E-05-3.41812E-07 5.38632E-19 1.05908E-18
 -1      3930 9.49225E-05-2.80146E-05-2.86745E-05-2.65531E-07 1.63863E-18-8.87294E-20
 -1      3931 9.49735E-05-2.80892E-05-2.86661E-05-2.16355E-07 1.95365E-18 9.55225E-19
 -1      3932 9.48434E-05-2.79235E-05-2.86785E-05-2.38145E-07 1.45060E-18 1.01858E-18
 -1      3933 9.50298E-05-2.81600E-05-2.86582E-05-1.82652E-07 1.70961E-18 1.54748E-18
 -1      3934 9.50679E-05-2.82197E-05-2.86502E-05-1.46117E-07 1.08897E-18 2.15301E-18
 -1      3935 9.49738E-05-2.80905E-05-2.86632E-05-1.62724E-07 2.22310E-18 1.77344E-18
 -1      3936 9.51091E-05-2.82754E-05-2.86428E-05-1.21909E-07-2.01669E-20 1.75933E-18
 -1      3937 9.51366E-05-2.83220E-05-2.86356E-05-9.52258E-08-2.05071E-19 1.60519E-18
 -1      3938 9.50702E-05-2.82230E-05-2.86480E-05-1.08490E-07 6.43844E-19 1.78966E-18
 -1      3939 9.51658E-05-2.83647E-05-2.86289E-05-7.80428E-08-1.13683E-19 1.60608E-18
 -1      3940 9.51851E-05-2.84002E-05-2.86226E-05-5.88235E-08-5.97562E-19 2.15227E-18
 -1      3941 9.51398E-05-2.83261E-05-2.86339E-05-6.98052E-08-9.48189E-21 8.49885E-19
 -1      3942 9.52051E-05-2.84323E-05-2.86168E-05-4.68951E-08-9.15426E-19 2.20082E-18
 -1      3943 9.52180E-05-2.84588E-05-2.86115E-05-3.33604E-08-2.52136E-19 1.48326E-18
 -1      3944 9.51885E-05-2.84045E-05-2.86214E-05-4.23553E-08-4.03296E-19 1.40696E-18
 -1      3945 9.52310E-05-2.84823E-05-2.86065E-05-2.52975E-08-4.95718E-20 8.06663E-19
 -1      3946 9.52391E-05-2.85015E-05-2.86021E-05-1.60101E-08-5.10113E-19 7.66489E-19
 -1      3947 9.52213E-05-2.84627E-05-2.86105E-05-2.34449E-08-8.08712E-19 1.77196E-18
 -1      3948 9.52471E-05-2.85182E-05-2.85980E-05-1.07254E-08-5.33362E-19-1.45994E-19
 -1      3949 9.52518E-05-2.85317E-05-2.85945E-05-4.56466E-09-1.20834E-18 1.23643E-19
 -1      3950 9.52420E-05-2.85049E-05-2.86015E-05-1.06940E-08-1.08029E-18 1.14608E-19
 -1      3951 9.52562E-05-2.85433E-05-2.85912E-05-1.26009E-09-2.23095E-18-2.85717E-19
 -1      3952 9.52585E-05-2.85525E-05-2.85884E-05 2.63733E-09-2.13246E-18 1.34620E-19
 -1      3953 9.52543E-05-2.85346E-05-2.85941E-05-2.37249E-09-1.69810E-18-5.20179E-19
 -1      3954 9.52604E-05-2.85602E-05-2.85857E-05 4.55416E-09-1.98488E-18-2.83762E-20
 -1      3955 9.52610E-05-2.85662E-05-2.85835E-05 6.84642E-09-1.95861E-18-2.98947E-19
 -1      3956 9.52605E-05-2.85549E-05-2.85881E-05 2.79631E-09-1.83545E-18-1.02640E-18
 -1      3957 9.52613E-05-2.85711E-05-2.85815E-05 7.81363E-09-2.94150E-19-1.57272E-19
 -1      3958 9.52609E-05-2.85748E-05-2.85798E-05 8.99614E-09 5.74578E-19 7.13718E-19
 -1      3959 9.52626E-05-2.85681E-05-2.85834E-05 5.76048E-09-5.76288E-19 1.06064E-18
 -1      3960 9.52602E-05-2.85776E-05-2.85783E-05 9.33401E-09-2.31624E-19 2.25609E-19
 -1      3961 9.52593E-05-2.85796E-05-2.85770E-05 9.77396E-09 1.15327E-20-3.27323E-19
 -1      3962 9.52622E-05-2.85762E-05-2.85797E-05 7.21973E-09-3.92058E-19 2.03043E-18
 -1      3963 9.52580E-05-2.85810E-05-2.85758E-05 9.71377E-09 5.67256E-19-3.64599E-19
 -1      3964 9.52567E-05-2.85819E-05-2.85749E-05 9.67844E-09 6.50170E-21-3.95876E-19
 -1      3965 9.52602E-05-2.85807E-05-2.85770E-05 7.68418E-09 2.61360E-19 1.39697E-18
 -1      3966 9.52551E-05-2.85824E-05-2.85740E-05 9.38567E-09-3.74924E-19 4.22101E-19
 -1      3967 9.52537E-05-2.85827E-05-2.85733E-05 9.06528E-09-7.77185E-19 1.09025E-18
 -1      3968 9.52573E-05-2.85827E-05-2.85749E-05 7.52375E-09 2.64062E-19 1.43779E-18
 -1      3969 9.52521E-05-2.85826E-05-2.85726E-05 8.63557E-09-6.14944E-19 2.06129E-18
 -1      3970 9.52508E-05-2.85824E-05-2.85721E-05 8.15814E-09 6.61562E-19 2.87967E-18
 -1      3971 9.52542E-05-2.85832E-05-2.85733E-05 7.02154E-09-6.83754E-20 2.52547E-18
 -1      3972 9.07121E-05-2.39949E-05-2.86013E-05 1.48532E-06-9.60635E-19 1.87907E-18
 -1      3973 8.99654E-05-2.34390E-05-2.85274E-05 1.55314E-06-4.09330E-19 1.63564E-18
 -1      3974 1.17126E-04-4.68384E-05-2.99838E-05-5.11361E-06 1.21640E-18 1.13737E-18
 -1      3975 9.40071E-05-2.69079E-05-2.87608E-05 8.34782E-07 3.32750E-19 5.77193E-19
 -1      3976 9.37939E-05-2.66726E-05-2.87687E-05 9.52769E-07-6.43099E-20 3.70215E-19
 -1      3977 9.35063E-05-2.63961E-05-2.87664E-05 1.02872E-06-2.88843E-19 8.17179E-20
 -1      3978 9.32125E-05-2.60997E-05-2.87668E-05 1.15668E-06 9.56683E-20 5.29647E-19
 -1      3979 9.28401E-05-2.57978E-05-2.87231E-05 8.64781E-07 6.36221E-19 9.99518E-19
 -1      3980 9.34982E-05-2.64156E-05-2.87429E-05 7.57522E-07-1.35525E-19 5.64519E-19
 -1      3981 9.46452E-05-2.76305E-05-2.87232E-05 5.02517E-07-7.29903E-19 2.66939E-18
 -1      3982 9.45349E-05-2.74859E-05-2.87359E-05 5.89079E-07-3.44633E-19 2.31446E-18
 -1      3983 9.48406E-05-2.78774E-05-2.87005E-05 3.74121E-07-6.65174E-19 2.60952E-18
 -1      3984 9.47621E-05-2.77655E-05-2.87130E-05 4.44436E-07-5.08275E-19 2.42056E-18
 -1      3985 9.46320E-05-2.76294E-05-2.87130E-05 3.91941E-07-4.87101E-19 2.33319E-18
 -1      3986 9.49803E-05-2.80672E-05-2.86785E-05 2.70768E-07 4.38278E-19 2.13311E-18
 -1      3987 9.49252E-05-2.79815E-05-2.86901E-05 3.26520E-07 9.39022E-20 2.69985E-18
 -1      3988 9.48306E-05-2.78757E-05-2.86931E-05 2.94749E-07-2.50715E-19 1.18527E-18
 -1      3989 9.50790E-05-2.82119E-05-2.86584E-05 1.89846E-07 3.54172E-19 1.76780E-18
 -1      3990 9.50408E-05-2.81468E-05-2.86687E-05 2.32876E-07 4.68922E-19 2.05227E-18
 -1      3991 9.49737E-05-2.80661E-05-2.86733E-05 2.14579E-07 5.14360E-19 1.82566E-18
 -1      3992 9.51473E-05-2.83208E-05-2.86408E-05 1.28154E-07 9.94991E-19 5.07587E-19
 -1      3993 9.51214E-05-2.82719E-05-2.86496E-05 1.60610E-07 7.07536E-19 1.12552E-18
 -1      3994 9.50751E-05-2.82117E-05-2.86549E-05 1.51014E-07 9.06120E-19 1.71587E-18
 -1      3995 9.51935E-05-2.84015E-05-2.86257E-05 8.22883E-08 6.61980E-19 4.32432E-19
 -1      3996 9.51764E-05-2.83654E-05-2.86331E-05 1.06217E-07 6.05858E-19 2.47396E-19
 -1      3997 9.51455E-05-2.83212E-05-2.86384E-05 1.02185E-07 1.15985E-18 9.06099E-19
 -1      3998 9.52238E-05-2.84606E-05-2.86132E-05 4.90824E-08 7.08703E-19 2.86758E-20
 -1      3999 9.52129E-05-2.84343E-05-2.86192E-05 6.62700E-08 6.92697E-19 3.82214E-19
 -1      4000 9.51933E-05-2.84026E-05-2.86243E-05 6.55874E-08 4.65567E-19 4.41563E-19
 -1      4001 9.52427E-05-2.85030E-05-2.86030E-05 2.57747E-08 3.50026E-19 2.10042E-19
 -1      4002 9.52362E-05-2.84842E-05-2.86078E-05 3.77649E-08 4.02055E-19 1.89330E-19
 -1      4003 9.52247E-05-2.84620E-05-2.86123E-05 3.90299E-08 3.30259E-19-6.41229E-19
 -1      4004 9.52536E-05-2.85327E-05-2.85948E-05 9.97798E-09 2.46674E-19 6.74216E-19
 -1      4005 9.52501E-05-2.85196E-05-2.85987E-05 1.80531E-08 3.97570E-19 1.24878E-18
 -1      4006 9.52441E-05-2.85046E-05-2.86025E-05 2.03554E-08-4.24239E-19 6.21892E-20
 -1      4007 9.52590E-05-2.85529E-05-2.85884E-05-2.54766E-10-9.51947E-19 1.38338E-18
 -1      4008 9.52575E-05-2.85441E-05-2.85914E-05 4.93811E-09 2.95094E-20 1.60092E-18
 -1      4009 9.52553E-05-2.85343E-05-2.85946E-05 7.68867E-09-2.81720E-19 2.82581E-18
 -1      4010 9.52607E-05-2.85662E-05-2.85834E-05-6.46759E-09-2.90968E-19 6.24701E-19
 -1      4011 9.52606E-05-2.85604E-05-2.85857E-05-3.34526E-09-5.41323E-19 7.83120E-19
 -1      4012 9.52608E-05-2.85545E-05-2.85884E-05-5.11710E-10 1.28963E-20 1.80626E-18
 -1      4013 9.52602E-05-2.85745E-05-2.85796E-05-9.85708E-09-1.43421E-18 5.15901E-19
 -1      4014 9.52609E-05-2.85709E-05-2.85813E-05-8.18142E-09-1.22493E-18 1.37673E-19
 -1      4015 9.52624E-05-2.85676E-05-2.85835E-05-5.47865E-09-7.52379E-19 5.29951E-19
 -1      4016 9.52583E-05-2.85792E-05-2.85768E-05-1.13290E-08-1.25592E-18 1.34826E-18
 -1      4017 9.52594E-05-2.85772E-05-2.85780E-05-1.06310E-08-1.64460E-18 8.11600E-19
 -1      4018 9.52617E-05-2.85757E-05-2.85798E-05-8.17314E-09-1.41179E-18 7.85875E-20
 -1      4019 9.52557E-05-2.85815E-05-2.85747E-05-1.15512E-08 9.22813E-19 6.58908E-19
 -1      4020 9.52570E-05-2.85805E-05-2.85756E-05-1.14863E-08-4.50723E-19 2.66561E-19
 -1      4021 9.52596E-05-2.85802E-05-2.85769E-05-9.32409E-09-3.79831E-19-3.32738E-19
 -1      4022 9.52528E-05-2.85822E-05-2.85731E-05-1.10108E-08 6.83216E-19 1.51045E-18
 -1      4023 9.52542E-05-2.85819E-05-2.85738E-05-1.13283E-08 1.40057E-18 1.41992E-18
 -1      4024 9.52568E-05-2.85823E-05-2.85748E-05-9.46603E-09 4.60911E-19 1.66686E-18
 -1      4025 9.52500E-05-2.85819E-05-2.85720E-05-1.00393E-08-1.19237E-18 1.97954E-18
 -1      4026 9.52513E-05-2.85821E-05-2.85725E-05-1.05770E-08-1.89730E-19 1.81971E-18
 -1      4027 9.52537E-05-2.85829E-05-2.85732E-05-9.02984E-09 4.48274E-20 2.02758E-18
 -1      4028 9.52455E-05-2.85803E-05-2.85708E-05-8.99862E-09-7.51490E-19 2.10714E-18
 -1      4029 9.63103E-05-3.47205E-05-2.62481E-05-1.66213E-05 4.45324E-19 7.77801E-19
 -1      4030 8.29101E-05-2.53788E-05-2.45869E-05-1.70105E-05 3.22647E-19-2.57642E-19
 -1      4031 8.82131E-05-2.97381E-05-2.52416E-05-1.80998E-05 3.34581E-19-6.03643E-20
 -1      4032 9.52498E-05-2.85823E-05-2.85718E-05 6.89320E-09 6.93203E-19 2.76144E-18
 -1      4033 9.52490E-05-2.85823E-05-2.85714E-05 4.82153E-09-1.44694E-19 3.36637E-18
 -1      4034 9.52496E-05-2.85827E-05-2.85715E-05 3.04979E-09-2.79791E-19 1.15023E-18
 -1      4035 9.52517E-05-2.85831E-05-2.85723E-05 5.41919E-09 6.89309E-19 3.29624E-18
 -1      4036 9.19232E-05-2.49631E-05-2.87042E-05 1.38994E-06-8.36481E-19 1.52722E-18
 -1      4037 9.13734E-05-2.45063E-05-2.86679E-05 1.50097E-06-8.37530E-19 1.28297E-18
 -1      4038 9.08270E-05-2.41367E-05-2.85643E-05 8.73876E-07-6.84474E-19 2.34330E-18
 -1      4039 9.19699E-05-2.50435E-05-2.86700E-05 9.20494E-07 2.57629E-20 1.51456E-18
 -1      4040 9.43758E-05-2.73128E-05-2.87445E-05 6.56889E-07 1.43086E-19 1.66796E-18
 -1      4041 9.42220E-05-2.71277E-05-2.87559E-05 7.59977E-07 1.79069E-21 1.18279E-18
 -1      4042 9.43603E-05-2.73139E-05-2.87307E-05 5.06041E-07-5.09393E-19 2.88722E-18
 -1      4043 9.52472E-05-2.85811E-05-2.85712E-05-8.71688E-09-6.12022E-19 2.43372E-18
 -1      4044 9.52510E-05-2.85832E-05-2.85719E-05 2.12978E-09 4.81005E-19 1.66091E-19
 -1      4045 9.52527E-05-2.85837E-05-2.85724E-05-1.05195E-09-7.77797E-19 1.00086E-18
 -1      4046 9.52524E-05-2.85835E-05-2.85724E-05-3.13783E-09-9.30205E-19 1.74348E-18
 -1      4047 8.93350E-05-2.30669E-05-2.83771E-05 6.50295E-07-6.43058E-19 2.17324E-18
 -1      4048 8.91029E-05-2.28316E-05-2.84117E-05 1.44379E-06-3.48675E-19 1.14779E-18
 -1      4049 8.80937E-05-2.21673E-05-2.82780E-05 1.43139E-06 1.93378E-19 9.81777E-19
 -1      4050 6.74808E-05-1.37683E-05-2.30659E-05-3.00612E-06 3.67126E-19 1.40610E-18
 -1      4051 6.78585E-05-1.46843E-05-2.26684E-05-8.45032E-06 5.07778E-19 1.14378E-18
 -1      4052 7.21675E-05-1.67074E-05-2.37094E-05-9.31872E-06 6.63648E-19 1.14858E-18
 -1      4053 7.09083E-05-1.46737E-05-2.41346E-05-2.51834E-06 2.99175E-19 1.31169E-18
 -1      4054 9.39923E-05-2.69150E-05-2.87425E-05 6.31407E-07-2.00988E-19 1.12776E-18
 -1      4055 8.04432E-05-1.81610E-05-2.67112E-05-5.37936E-07 2.40683E-19 4.26772E-19
 -1      4056 7.79958E-05-1.71941E-05-2.61104E-05-1.13355E-06 1.56519E-19 1.59408E-19
 -1      4057 7.74451E-05-2.01681E-05-2.45480E-05-1.22546E-05 1.13344E-18 7.53108E-19
 -1      4058 8.00285E-05-2.28293E-05-2.45207E-05-1.52986E-05 8.68507E-19 4.30862E-19
 -1      4059 8.36691E-05-2.42042E-05-2.54380E-05-1.34907E-05 7.43897E-19 5.28379E-19
 -1      4060 9.52484E-05-2.85815E-05-2.85715E-05-9.33485E-09-1.01501E-18 2.60150E-18
 -1      4061 9.52505E-05-2.85825E-05-2.85720E-05-8.05726E-09-1.76757E-18 1.46711E-18
 -1      4062 7.60166E-05-1.63940E-05-2.55933E-05-1.53925E-06 8.30959E-19 6.50361E-19
 -1      4063 7.35041E-05-1.55559E-05-2.48784E-05-2.02233E-06 6.40680E-19 1.19048E-18
 -1      4064 7.36004E-05-1.60461E-05-2.45700E-05-5.44691E-06 7.57937E-19 1.05876E-18
 -1      4065 7.78654E-05-1.74519E-05-2.57968E-05-3.99026E-06 7.65968E-19 7.68816E-19
 -1      4066 8.69733E-05-2.14633E-05-2.80875E-05 1.17522E-06 8.79094E-19 4.58644E-19
 -1      4067 8.56144E-05-2.06876E-05-2.78603E-05 1.03490E-06 1.05593E-18 5.95959E-19
 -1      4068 8.73971E-05-2.18339E-05-2.80664E-05 1.45461E-07-9.33039E-20 1.25555E-18
 -1      4069 9.36107E-05-3.18214E-05-2.63917E-05-1.47295E-05 2.17181E-19 8.27167E-19
 -1      4070 8.41617E-05-1.98973E-05-2.75569E-05 5.61457E-07 6.91296E-19 6.64522E-19
 -1      4071 8.23301E-05-1.90134E-05-2.71849E-05 2.36522E-07 4.24643E-19 5.77630E-19
 -1      4072 8.16519E-05-1.89779E-05-2.67961E-05-2.31617E-06 3.49632E-19 5.71239E-19
 -1      4073 8.48901E-05-2.04566E-05-2.75700E-05-7.80723E-07 6.76332E-19 5.18209E-19
 -1      4074 9.52521E-05-2.85833E-05-2.85723E-05-4.82923E-09-1.34282E-18 1.66599E-18
 -1      4075 9.52512E-05-2.85829E-05-2.85721E-05-6.47671E-09-1.95456E-18 1.03493E-18
 -1      4076 9.52529E-05-2.85832E-05-2.85727E-05-7.04101E-09-1.56983E-18 1.19066E-18
 -1      4077 9.52538E-05-2.85838E-05-2.85729E-05-3.83340E-09-7.84748E-19 2.20400E-18
 -1      4078 9.52524E-05-2.85835E-05-2.85724E-05 3.21317E-09 5.42545E-19 1.82983E-18
 -1      4079 9.52527E-05-2.85837E-05-2.85724E-05 1.23106E-09-3.64537E-19 8.67374E-19
 -1      4080 9.52541E-05-2.85840E-05-2.85729E-05 5.82409E-11-7.12020E-19 1.51747E-18
 -1      4081 9.52534E-05-2.85835E-05-2.85728E-05 4.49675E-09 3.77413E-19 2.64720E-18
 -1      4082 9.17100E-05-2.97736E-05-2.65082E-05-1.34424E-05-3.51850E-20 9.10883E-19
 -1      4083 9.18468E-05-2.75476E-05-2.75187E-05-8.30921E-06-1.60535E-19 1.49980E-18
 -1      4084 9.12353E-05-2.67368E-05-2.76675E-05-7.33111E-06-1.45776E-19 1.59060E-18
 -1      4085 9.13495E-05-2.62778E-05-2.78583E-05-6.18622E-06-4.46189E-19 1.37834E-18
 -1      4086 9.11147E-05-2.58652E-05-2.79875E-05-5.39567E-06-1.93319E-19 9.64917E-19
 -1      4087 8.99302E-05-2.54287E-05-2.76050E-05-6.79749E-06-4.84930E-19 1.63211E-18
 -1      4088 9.13887E-05-2.56903E-05-2.81355E-05-4.52632E-06-2.76326E-20 1.03782E-18
 -1      4089 9.13797E-05-2.55382E-05-2.82374E-05-3.90779E-06-7.41929E-20 1.09734E-18
 -1      4090 9.02789E-05-2.49530E-05-2.79631E-05-4.80340E-06-7.98213E-20 1.63579E-18
 -1      4091 9.17208E-05-2.55489E-05-2.83457E-05-3.27069E-06-2.56264E-19 8.17358E-19
 -1      4092 9.18400E-05-2.55622E-05-2.84206E-05-2.79937E-06 1.93692E-20 5.84378E-19
 -1      4093 9.08739E-05-2.49331E-05-2.82311E-05-3.34200E-06-4.41018E-19 1.08120E-18
 -1      4094 9.21906E-05-2.56808E-05-2.84957E-05-2.34225E-06 1.81276E-19-9.74363E-20
 -1      4095 9.23710E-05-2.57902E-05-2.85470E-05-1.98935E-06-4.12118E-19 1.25460E-19
 -1      4096 9.15494E-05-2.51764E-05-2.84214E-05-2.29750E-06-2.97339E-19-2.76743E-19
 -1      4097 9.26998E-05-2.59641E-05-2.85961E-05-1.66640E-06-1.10196E-19 7.71725E-19
 -1      4098 9.28992E-05-2.61219E-05-2.86284E-05-1.40504E-06-7.57474E-20 1.26621E-18
 -1      4099 9.22167E-05-2.55557E-05-2.85495E-05-1.56388E-06 1.77468E-19-5.25071E-19
 -1      4100 9.31907E-05-2.63162E-05-2.86578E-05-1.17967E-06-5.21561E-19 1.50110E-18
 -1      4101 9.33843E-05-2.64910E-05-2.86758E-05-9.87335E-07-2.36130E-19 1.44518E-18
 -1      4102 9.28282E-05-2.59886E-05-2.86301E-05-1.05586E-06 9.34425E-20 8.31994E-19
 -1      4103 9.36326E-05-2.66836E-05-2.86911E-05-8.31608E-07 2.26731E-19 1.14543E-18
 -1      4104 9.38069E-05-2.68557E-05-2.86987E-05-6.90552E-07 4.47319E-19 1.21530E-18
 -1      4105 9.33616E-05-2.64228E-05-2.86761E-05-7.08090E-07 7.59404E-21 1.57597E-18
 -1      4106 9.40118E-05-2.70339E-05-2.87044E-05-5.83779E-07-1.20824E-19 1.38364E-18
 -1      4107 9.41610E-05-2.71920E-05-2.87050E-05-4.80481E-07-3.76547E-19 1.32227E-18
 -1      4108 9.38104E-05-2.68277E-05-2.86977E-05-4.72183E-07 1.35157E-19 1.50895E-18
 -1      4109 9.43256E-05-2.73490E-05-2.87042E-05-4.07722E-07-9.38309E-20 1.25969E-18
 -1      4110 9.44484E-05-2.74875E-05-2.87004E-05-3.32088E-07 3.34357E-19 1.03356E-18
 -1      4111 9.41769E-05-2.71874E-05-2.87029E-05-3.13297E-07-4.50084E-21 1.29908E-18
 -1      4112 9.45775E-05-2.76210E-05-2.86958E-05-2.82651E-07 7.12686E-19 5.15455E-19
 -1      4113 9.46755E-05-2.77383E-05-2.86895E-05-2.27198E-07 9.12772E-19 8.16593E-19
 -1      4114 9.44685E-05-2.74955E-05-2.86977E-05-2.06978E-07 5.09563E-19 1.52837E-19
 -1      4115 9.47748E-05-2.78485E-05-2.86829E-05-1.93772E-07 1.12571E-18 1.97272E-18
 -1      4116 9.48513E-05-2.79448E-05-2.86754E-05-1.52613E-07 2.19561E-18 2.11329E-18
 -1      4117 9.46949E-05-2.77532E-05-2.86865E-05-1.36733E-07 1.56220E-18 1.10018E-18
 -1      4118 9.49256E-05-2.80346E-05-2.86678E-05-1.32008E-07 2.09325E-18 1.77718E-18
 -1      4119 9.49819E-05-2.81109E-05-2.86601E-05-1.02788E-07 1.73958E-18 1.75385E-18
 -1      4120 9.48712E-05-2.79657E-05-2.86724E-05-8.96624E-08 1.98782E-18 1.50468E-18
 -1      4121 9.50371E-05-2.81811E-05-2.86526E-05-8.71270E-08 6.32849E-19 1.00650E-18
 -1      4122 9.50783E-05-2.82414E-05-2.86452E-05-6.63133E-08-4.79038E-19 1.11404E-18
 -1      4123 9.49971E-05-2.81269E-05-2.86574E-05-5.63286E-08 5.55218E-19 8.23126E-19
 -1      4124 9.51174E-05-2.82952E-05-2.86382E-05-5.59765E-08-2.08446E-19 6.31497E-19
 -1      4125 9.51471E-05-2.83412E-05-2.86316E-05-4.06572E-08-3.06500E-20 1.10763E-19
 -1      4126 9.50896E-05-2.82537E-05-2.86429E-05-3.40568E-08-5.70601E-19-2.29182E-19
 -1      4127 9.51742E-05-2.83823E-05-2.86252E-05-3.42646E-08 3.38018E-19 1.12908E-18
 -1      4128 9.51947E-05-2.84169E-05-2.86194E-05-2.34792E-08 8.85040E-20 1.39980E-18
 -1      4129 9.51564E-05-2.83523E-05-2.86295E-05-2.00818E-08 3.72478E-19 2.63287E-20
 -1      4130 9.52127E-05-2.84472E-05-2.86139E-05-1.94115E-08-1.24858E-18 9.67731E-19
 -1      4131 9.52261E-05-2.84724E-05-2.86089E-05-1.19248E-08-1.57972E-18 5.80643E-19
 -1      4132 9.52014E-05-2.84257E-05-2.86177E-05-1.10076E-08-1.10643E-18 5.57879E-19
 -1      4133 9.52375E-05-2.84943E-05-2.86043E-05-9.41654E-09-1.44926E-18 2.24503E-19
 -1      4134 9.52458E-05-2.85123E-05-2.86002E-05-4.32692E-09-1.18599E-18-9.12308E-20
 -1      4135 9.52309E-05-2.84792E-05-2.86075E-05-5.06545E-09-1.87912E-18-3.53559E-19
 -1      4136 9.52525E-05-2.85276E-05-2.85964E-05-2.87382E-09-1.92318E-18-3.77073E-19
 -1      4137 9.52570E-05-2.85401E-05-2.85930E-05 4.78587E-10-2.57545E-18-9.93600E-19
 -1      4138 9.52490E-05-2.85174E-05-2.85991E-05-1.28386E-09-2.48205E-18-3.71316E-19
 -1      4139 9.52604E-05-2.85505E-05-2.85900E-05 1.22999E-09-1.78192E-18-7.27056E-19
 -1      4140 9.52625E-05-2.85588E-05-2.85873E-05 3.33795E-09-9.60491E-19-8.93162E-20
 -1      4141 9.52591E-05-2.85439E-05-2.85922E-05 1.02263E-09-1.72163E-18-8.25671E-20
 -1      4142 9.52637E-05-2.85656E-05-2.85849E-05 3.63414E-09 1.47556E-20 9.15862E-19
 -1      4143 9.52640E-05-2.85708E-05-2.85828E-05 4.86578E-09 2.00638E-19 1.58148E-18
 -1      4144 9.52637E-05-2.85615E-05-2.85867E-05 2.33401E-09 4.09106E-19 9.16676E-19
 -1      4145 9.52638E-05-2.85749E-05-2.85809E-05 4.87755E-09-3.81960E-19 2.00168E-18
 -1      4146 9.52631E-05-2.85780E-05-2.85793E-05 5.50567E-09 9.33882E-20 1.86649E-18
 -1      4147 9.52647E-05-2.85727E-05-2.85823E-05 2.98505E-09 1.84586E-19 9.18363E-19
 -1      4148 9.52620E-05-2.85803E-05-2.85779E-05 5.34955E-09-1.00849E-19 2.34787E-18
 -1      4149 9.52608E-05-2.85819E-05-2.85766E-05 5.57316E-09-1.38572E-19 2.64818E-18
 -1      4150 9.52633E-05-2.85793E-05-2.85790E-05 3.21002E-09 2.18423E-19 3.16008E-18
 -1      4151 9.52592E-05-2.85829E-05-2.85755E-05 5.32304E-09 2.71534E-19 1.52517E-18
 -1      4152 9.52577E-05-2.85835E-05-2.85746E-05 5.27000E-09 4.10457E-19 1.83910E-18
 -1      4153 9.52607E-05-2.85827E-05-2.85764E-05 3.17483E-09-4.92900E-19 3.12300E-18
 -1      4154 9.52563E-05-2.85837E-05-2.85740E-05 4.96742E-09 8.69953E-19 2.10085E-18
 -1      4155 9.52547E-05-2.85837E-05-2.85733E-05 4.75322E-09 1.02667E-18 3.61293E-18
 -1      4156 9.52553E-05-2.85840E-05-2.85734E-05 2.57529E-09 6.52181E-19 2.02741E-18
 -1      4157 9.52579E-05-2.85839E-05-2.85746E-05 2.90612E-09 1.14188E-18 2.63638E-18
 -1      4158 9.43719E-05-2.73665E-05-2.87193E-05 3.41847E-07-3.12528E-19 2.03282E-18
 -1      4159 9.42135E-05-2.71899E-05-2.87265E-05 3.92974E-07-2.19730E-19 2.59971E-18
 -1      4160 9.49763E-05-2.80876E-05-2.86676E-05 1.49469E-07-1.59653E-19 6.67393E-19
 -1      4161 9.49151E-05-2.80028E-05-2.86771E-05 1.82086E-07 2.24267E-19 7.44213E-20
 -1      4162 9.46374E-05-2.76669E-05-2.87038E-05 2.69184E-07-3.51735E-19 1.65599E-18
 -1      4163 9.45212E-05-2.75271E-05-2.87130E-05 3.16072E-07-7.07129E-20 2.41769E-18
 -1      4164 9.44018E-05-2.73966E-05-2.87099E-05 2.16466E-07-1.50329E-19 1.19904E-18
 -1      4165 9.50763E-05-2.82272E-05-2.86506E-05 1.05474E-07 1.00628E-18 3.79030E-19
 -1      4166 9.50344E-05-2.81629E-05-2.86592E-05 1.32074E-07 1.64488E-19 6.88104E-19
 -1      4167 9.49865E-05-2.81033E-05-2.86631E-05 1.00273E-07-4.72848E-20-9.32662E-19
 -1      4168 9.51470E-05-2.83332E-05-2.86352E-05 7.08933E-08 1.19040E-18 9.95540E-19
 -1      4169 9.51184E-05-2.82850E-05-2.86428E-05 9.11513E-08 1.25823E-18 8.81271E-19
 -1      4170 9.50830E-05-2.82373E-05-2.86472E-05 7.19606E-08 9.79233E-19-1.15597E-18
 -1      4171 9.51951E-05-2.84119E-05-2.86219E-05 4.50421E-08 4.80322E-19 3.90793E-19
 -1      4172 9.51760E-05-2.83763E-05-2.86284E-05 6.01161E-08 8.51394E-19 1.23808E-18
 -1      4173 9.51524E-05-2.83406E-05-2.86327E-05 4.93651E-08 1.19379E-18 1.72334E-19
 -1      4174 9.52265E-05-2.84692E-05-2.86106E-05 2.62969E-08 4.11309E-19-8.54158E-20
 -1      4175 9.52144E-05-2.84434E-05-2.86161E-05 3.72183E-08 1.08323E-18 4.62481E-19
 -1      4176 9.51992E-05-2.84176E-05-2.86200E-05 3.17819E-08 1.04269E-18 6.12423E-19
 -1      4177 9.52459E-05-2.85101E-05-2.86013E-05 1.31275E-08-1.77628E-18 1.20651E-18
 -1      4178 9.52388E-05-2.84918E-05-2.86057E-05 2.08065E-08-1.79335E-18-6.42756E-20
 -1      4179 9.52296E-05-2.84737E-05-2.86093E-05 1.87497E-08-1.01674E-18 1.55776E-18
 -1      4180 9.52570E-05-2.85385E-05-2.85938E-05 4.23813E-09-6.62205E-19 1.84928E-18
 -1      4181 9.52532E-05-2.85259E-05-2.85973E-05 9.44572E-09-9.79509E-19 1.89006E-18
 -1      4182 9.52482E-05-2.85136E-05-2.86004E-05 9.48742E-09-2.23547E-18 1.25879E-18
 -1      4183 9.52623E-05-2.85576E-05-2.85878E-05-1.45969E-09 6.80683E-19 1.50768E-18
 -1      4184 9.52608E-05-2.85492E-05-2.85906E-05 1.91094E-09 1.57542E-19 2.06099E-18
 -1      4185 9.52587E-05-2.85412E-05-2.85931E-05 3.18924E-09-7.03041E-19 2.06834E-18
 -1      4186 9.52637E-05-2.85699E-05-2.85831E-05-4.84899E-09-7.08667E-19 2.12940E-18
 -1      4187 9.52637E-05-2.85646E-05-2.85853E-05-2.80764E-09 2.37969E-20 2.83755E-18
 -1      4188 9.52635E-05-2.85597E-05-2.85873E-05-8.70840E-10 3.03476E-20 4.74215E-18
 -1      4189 9.52628E-05-2.85774E-05-2.85795E-05-6.62242E-09-6.64829E-19 1.22657E-18
 -1      4190 9.52637E-05-2.85742E-05-2.85811E-05-5.51524E-09-5.21647E-19 1.78128E-18
 -1      4191 9.52646E-05-2.85715E-05-2.85828E-05-3.30017E-09-6.22553E-20 3.77485E-18
 -1      4192 9.52605E-05-2.85814E-05-2.85768E-05-7.30656E-09-6.77015E-20 5.53051E-19
 -1      4193 9.52618E-05-2.85797E-05-2.85780E-05-6.83526E-09-6.33428E-19 1.17886E-19
 -1      4194 9.52634E-05-2.85785E-05-2.85793E-05-4.58396E-09 4.19119E-19 2.68316E-18
 -1      4195 9.52574E-05-2.85831E-05-2.85747E-05-7.28271E-09 5.29229E-19 1.46411E-18
 -1      4196 9.52590E-05-2.85825E-05-2.85756E-05-7.23453E-09 2.80373E-19 6.07076E-19
 -1      4197 9.52608E-05-2.85822E-05-2.85766E-05-5.09813E-09-2.50323E-20-2.60757E-19
 -1      4198 9.52543E-05-2.85834E-05-2.85733E-05-7.04228E-09-3.71322E-19 1.55477E-18
 -1      4199 9.52560E-05-2.85833E-05-2.85740E-05-7.26296E-09 2.45410E-19 1.05426E-18
 -1      4200 9.52579E-05-2.85836E-05-2.85748E-05-5.35363E-09 5.06752E-19 1.15665E-18
 -1      4201 9.52549E-05-2.85837E-05-2.85734E-05-5.55794E-09 1.17721E-19 2.18801E-18
 -1      4202 8.79806E-05-2.68612E-05-2.62069E-05-1.31121E-05 8.32293E-20 6.13768E-19
 -1      4203 9.27718E-05-2.94365E-05-2.70955E-05-1.09583E-05-5.37280E-19 1.56102E-18
 -1      4204 9.40162E-05-2.69894E-05-2.87290E-05 4.15492E-07-6.02071E-19 2.05774E-18
 -1      4205 9.38017E-05-2.67689E-05-2.87319E-05 4.66175E-07-5.37807E-19 1.09188E-18
 -1      4206 9.40616E-05-2.70327E-05-2.87176E-05 2.47768E-07-7.51400E-19 1.37503E-18
 -1      4207 9.48345E-05-2.79040E-05-2.86858E-05 2.04201E-07 5.65360E-19 4.11304E-19
 -1      4208 9.47492E-05-2.77950E-05-2.86956E-05 2.43395E-07 2.23668E-19 1.13628E-18
 -1      4209 9.46560E-05-2.76879E-05-2.86963E-05 1.77021E-07 5.32303E-19 1.39822E-18
 -1      4210 9.15520E-05-2.80578E-05-2.72333E-05-9.79623E-06-3.53078E-19 1.60237E-18
 -1      4211 9.10905E-05-2.44633E-05-2.85583E-05 3.17306E-07-4.45036E-19 2.38485E-18
 -1      4212 9.04222E-05-2.40005E-05-2.84865E-05 2.06341E-07-9.60663E-19 2.59210E-18
 -1      4213 8.95895E-05-2.62322E-05-2.71078E-05-9.38045E-06-2.25101E-19 1.25120E-18
 -1      4214 9.35448E-05-2.65223E-05-2.87276E-05 4.77979E-07-3.39463E-19 9.89386E-19
 -1      4215 9.32568E-05-2.62506E-05-2.87227E-05 5.19466E-07-9.10451E-20 8.07219E-19
 -1      4216 9.36146E-05-2.65859E-05-2.87143E-05 2.57536E-07-1.44986E-19 7.21159E-19
 -1      4217 8.81064E-05-2.25099E-05-2.81134E-05-6.83186E-07-4.86686E-19 1.81411E-18
 -1      4218 8.69663E-05-2.19226E-05-2.79180E-05-1.12265E-06-1.62532E-19 1.53465E-18
 -1      4219 9.48487E-05-2.79232E-05-2.86800E-05 1.35516E-07 6.20983E-19-3.87366E-19
 -1      4220 9.52556E-05-2.85841E-05-2.85735E-05-2.00964E-09-4.86158E-19 2.69455E-18
 -1      4221 9.52554E-05-2.85840E-05-2.85735E-05-3.72948E-09-3.13189E-19 2.51359E-18
 -1      4222 9.52569E-05-2.85840E-05-2.85741E-05-3.64247E-09 4.36313E-19 3.52995E-18
 -1      4223 8.53193E-05-2.43730E-05-2.61158E-05-1.14831E-05 4.94055E-19 9.58931E-19
 -1      4224 9.29266E-05-2.59524E-05-2.87073E-05 5.08157E-07 4.62801E-19 1.28042E-18
 -1      4225 9.25428E-05-2.56222E-05-2.86892E-05 5.25724E-07 9.61691E-19 1.31944E-18
 -1      4226 9.30352E-05-2.60473E-05-2.86926E-05 2.22724E-07 5.05542E-19 1.26956E-18
 -1      4227 9.22932E-05-2.54110E-05-2.86421E-05 1.07366E-07 1.31967E-18 1.99867E-18
 -1      4228 9.21237E-05-2.52683E-05-2.86564E-05 4.71949E-07 9.61462E-19 1.54420E-18
 -1      4229 9.16157E-05-2.48736E-05-2.86172E-05 4.42480E-07 3.72505E-19 2.42321E-18
 -1      4230 8.97728E-05-2.35387E-05-2.83888E-05-3.19464E-08-1.51752E-18 2.69587E-18
 -1      4231 8.88983E-05-2.30091E-05-2.82675E-05-2.73539E-07-1.04192E-18 1.96677E-18
 -1      4232 9.01826E-05-2.38583E-05-2.83883E-05-6.05860E-07-1.32020E-18 1.63876E-18
 -1      4233 8.69812E-05-2.21048E-05-2.77466E-05-2.66008E-06-3.39055E-19 1.80893E-18
 -1      4234 8.60137E-05-2.14133E-05-2.76827E-05-1.78147E-06 5.10671E-20 1.24739E-18
 -1      4235 8.45331E-05-2.07911E-05-2.73769E-05-2.50843E-06 2.40988E-19 8.95530E-19
 -1      4236 9.52557E-05-2.85841E-05-2.85735E-05 3.23851E-10-4.90265E-19 1.53580E-18
 -1      4237 7.42479E-05-1.70996E-05-2.45285E-05-7.50225E-06 9.57055E-19 1.10626E-18
 -1      4238 7.58064E-05-1.86980E-05-2.44545E-05-1.06003E-05 8.33108E-19 7.82766E-19
 -1      4239 7.95744E-05-2.04296E-05-2.52906E-05-1.02741E-05 1.13912E-18 6.43601E-19
 -1      4240 7.66258E-05-1.78552E-05-2.52317E-05-6.66669E-06 1.10798E-18 9.11245E-19
 -1      4241 8.34054E-05-2.03239E-05-2.70252E-05-3.51350E-06 4.28446E-19 4.91065E-19
 -1      4242 8.14949E-05-1.96950E-05-2.65552E-05-4.64753E-06 5.09787E-19 6.92395E-19
 -1      4243 8.48605E-05-2.13153E-05-2.71658E-05-4.61362E-06 9.45426E-20 9.44093E-19
 -1      4244 8.60424E-05-2.36361E-05-2.67478E-05-8.58691E-06 1.04264E-19 1.15164E-18
 -1      4245 8.64969E-05-2.35157E-05-2.70702E-05-7.19400E-06 3.07116E-20 1.23088E-18
 -1      4246 8.75367E-05-2.36247E-05-2.74035E-05-5.94352E-06-2.97682E-19 1.50898E-18
 -1      4247 8.77424E-05-2.34277E-05-2.76229E-05-4.77264E-06-3.11394E-19 1.56936E-18
 -1      4248 8.87382E-05-2.29826E-05-2.81349E-05-1.39369E-06-1.18892E-18 1.46227E-18
 -1      4249 9.48737E-05-2.79684E-05-2.86741E-05 6.42466E-08 8.60006E-19-5.52138E-19
 -1      4250 9.47878E-05-2.78617E-05-2.86822E-05 7.69615E-08 1.16069E-18 1.31611E-19
 -1      4251 9.46593E-05-2.77215E-05-2.86900E-05 2.65449E-09 1.15207E-18 5.15341E-19
 -1      4252 9.45440E-05-2.75910E-05-2.86972E-05 1.34281E-08 6.90202E-19 1.00563E-18
 -1      4253 8.86574E-05-2.36983E-05-2.78559E-05-3.92425E-06-4.44546E-19 1.69217E-18
 -1      4254 8.90061E-05-2.37317E-05-2.80201E-05-3.07563E-06-3.22533E-19 1.49926E-18
 -1      4255 8.97810E-05-2.40722E-05-2.81771E-05-2.52417E-06-1.04617E-18 1.23076E-18
 -1      4256 9.01743E-05-2.42341E-05-2.82943E-05-1.92309E-06-1.49445E-18 7.11667E-19
 -1      4257 9.08184E-05-2.45938E-05-2.83968E-05-1.57679E-06-8.50916E-19 7.60395E-19
 -1      4258 9.12052E-05-2.48191E-05-2.84766E-05-1.15917E-06-2.43075E-19 3.74830E-19
 -1      4259 9.17313E-05-2.51668E-05-2.85405E-05-9.52002E-07 6.18854E-19 4.24167E-19
 -1      4260 9.20849E-05-2.54138E-05-2.85920E-05-6.66891E-07 8.41825E-19 6.96755E-19
 -1      4261 9.25079E-05-2.57319E-05-2.86291E-05-5.51337E-07 1.01741E-18 6.25518E-19
 -1      4262 9.28162E-05-2.59750E-05-2.86597E-05-3.59742E-07 6.72438E-19 1.33503E-18
 -1      4263 9.31514E-05-2.62551E-05-2.86787E-05-3.02288E-07 1.49604E-19 1.05768E-18
 -1      4264 9.34109E-05-2.64794E-05-2.86946E-05-1.75323E-07 3.23261E-19 1.17038E-18
 -1      4265 9.36730E-05-2.67190E-05-2.87017E-05-1.52998E-07 1.26080E-19 1.08928E-18
 -1      4266 9.38853E-05-2.69170E-05-2.87075E-05-6.98826E-08 1.65353E-21 1.18507E-18
 -1      4267 9.40875E-05-2.71172E-05-2.87071E-05-6.74133E-08 1.43644E-19 9.66858E-19
 -1      4268 9.42572E-05-2.72863E-05-2.87065E-05-1.36112E-08-4.03221E-20 1.13018E-18
 -1      4269 9.44112E-05-2.74503E-05-2.87017E-05-2.10868E-08 2.88638E-20 1.36813E-18
 -1      4270 9.48046E-05-2.78910E-05-2.86780E-05-5.31389E-08 1.41826E-18 9.24844E-19
 -1      4271 9.48811E-05-2.79862E-05-2.86707E-05-3.50384E-08 1.53810E-18-3.49136E-19
 -1      4272 9.49666E-05-2.80889E-05-2.86618E-05-1.83722E-08 7.48903E-19-7.22273E-19
 -1      4273 9.50187E-05-2.81595E-05-2.86542E-05-9.75781E-09-1.31136E-19-1.25500E-18
 -1      4274 9.50817E-05-2.82454E-05-2.86449E-05 1.25846E-08 1.43341E-19-1.09653E-18
 -1      4275 9.51210E-05-2.83004E-05-2.86378E-05 1.75567E-08 5.13533E-19-9.07351E-19
 -1      4276 9.51509E-05-2.83469E-05-2.86311E-05 9.53200E-09 8.35874E-19-4.59108E-19
 -1      4277 9.51780E-05-2.83876E-05-2.86248E-05 1.29969E-08 5.13144E-19-1.99061E-19
 -1      4278 9.51982E-05-2.84220E-05-2.86189E-05 6.77242E-09-1.13060E-19 1.07192E-18
 -1      4279 9.52163E-05-2.84520E-05-2.86134E-05 9.04971E-09-5.71896E-19 1.27480E-18
 -1      4280 9.52292E-05-2.84768E-05-2.86085E-05 4.40274E-09-1.77274E-18 1.76200E-18
 -1      4281 9.52406E-05-2.84983E-05-2.86039E-05 5.85632E-09-2.24059E-18 1.48446E-18
 -1      4282 9.52483E-05-2.85158E-05-2.85998E-05 2.53104E-09-2.28108E-18 1.60847E-18
 -1      4283 9.52550E-05-2.85309E-05-2.85961E-05 3.43675E-09-2.42903E-18 2.00665E-18
 -1      4284 9.52591E-05-2.85428E-05-2.85928E-05 1.15673E-09-1.33640E-18 2.78806E-18
 -1      4285 9.52625E-05-2.85530E-05-2.85897E-05 1.70157E-09-2.75925E-19 3.77156E-18
 -1      4286 9.52641E-05-2.85609E-05-2.85871E-05 2.14699E-10-3.24185E-19 4.06877E-18
 -1      4287 9.52652E-05-2.85674E-05-2.85847E-05 5.22640E-10 3.44568E-19 3.34119E-18
 -1      4288 9.52653E-05-2.85723E-05-2.85827E-05-3.83584E-10 8.59335E-19 2.01640E-18
 -1      4289 9.52649E-05-2.85763E-05-2.85808E-05-2.29767E-10 2.57574E-19 2.13776E-18
 -1      4290 9.52640E-05-2.85791E-05-2.85792E-05-7.26530E-10 2.91985E-19 1.62929E-18
 -1      4291 9.52629E-05-2.85812E-05-2.85778E-05-6.69590E-10-3.37042E-21 2.14733E-18
 -1      4292 9.52614E-05-2.85826E-05-2.85766E-05-8.94307E-10-3.13095E-19 2.17373E-18
 -1      4293 9.52598E-05-2.85835E-05-2.85755E-05-8.86417E-10 6.95073E-20 2.52469E-18
 -1      4294 8.24047E-05-2.08333E-05-2.63176E-05-7.50532E-06 4.92078E-19 6.43990E-19
 -1      4295 8.01277E-05-1.93825E-05-2.60286E-05-6.17291E-06 6.53511E-19 6.03855E-19
 -1      4296 7.82765E-05-1.88283E-05-2.55146E-05-7.05638E-06 9.35985E-19 7.38381E-19
 -1      4297 9.50154E-05-2.81509E-05-2.86567E-05 5.68323E-08 4.92753E-19-1.75655E-18
 -1      4298 9.49585E-05-2.80759E-05-2.86649E-05 7.06387E-08-1.48037E-19-1.00802E-18
 -1      4299 9.52569E-05-2.85841E-05-2.85740E-05 4.76734E-10 3.24185E-19 2.58519E-18
 -1      4300 9.13547E-05-2.46774E-05-2.85477E-05-1.42610E-07 9.67032E-20 2.74314E-18
 -1      4301 9.49134E-05-2.80202E-05-2.86677E-05 1.86200E-08 8.82181E-19-1.01421E-18
 -1      4302 9.47598E-05-2.78358E-05-2.86834E-05 2.08106E-08 1.28365E-18 1.12147E-18
 -1      4303 9.52583E-05-2.85839E-05-2.85747E-05-1.18231E-09 5.12522E-19 2.81258E-18
 -1      4304 9.50383E-05-2.81834E-05-2.86524E-05 2.02084E-08 2.49446E-19-1.30328E-18
 -1      4305 8.49978E-05-2.37748E-05-2.62876E-05-1.03477E-05 2.23335E-19 9.49430E-19
 -1      4306 9.52583E-05-2.85840E-05-2.85747E-05 6.21712E-10 2.69256E-19 3.30197E-18
 -1      4307 7.95582E-05-1.98543E-05-2.54998E-05-8.99285E-06 8.27305E-19 3.92438E-19
 -1      4308 8.10578E-05-2.14366E-05-2.55870E-05-1.06449E-05 1.01886E-18 5.15780E-19
 -3
    1PSTEP                         4           1           1          
  100CL  101 1.000000000        4308                     0    1           1
 -4  ERROR       1    1
 -5  STR(%)      1    1    0    0
 -1         1 1.23280E+01
 -1         2 2.53421E+01
 -1         3 9.62563E-05
 -1         4 1.10336E-04
 -1         5 1.12498E+01
 -1         6 1.29120E+01
 -1         7 1.29120E+01
 -1         8 3.82658E+00
 -1         9 2.07500E+00
 -1        10 1.74867E+00
 -1        11 1.69215E+00
 -1        12 1.64647E+00
 -1        13 1.61023E+00
 -1        14 1.58234E+00
 -1        15 1.58234E+00
 -1        16 1.26373E+00
 -1        17 1.57013E+00
 -1        18 2.64899E+00
 -1        19 3.31635E+00
 -1        20 3.76833E+00
 -1        21 4.50842E+00
 -1        22 7.85865E+00
 -1        23 1.29120E+01
 -1        24 3.84024E+00
 -1        25 2.87043E+00
 -1        26 1.91207E+00
 -1        27 1.80180E+00
 -1        28 2.19785E+00
 -1        29 2.59486E+00
 -1        30 2.77282E+00
 -1        31 2.77282E+00
 -1        32 2.71967E+00
 -1        33 2.71967E+00
 -1        34 2.35581E+00
 -1        35 1.74496E+00
 -1        36 1.13217E+00
 -1        37 8.56494E-01
 -1        38 5.98683E-01
 -1        39 4.98381E-01
 -1        40 4.33297E-01
 -1        41 3.97738E-01
 -1        42 3.69076E-01
 -1        43 3.10073E-01
 -1        44 2.41119E-01
 -1        45 1.87330E-01
 -1        46 1.68546E-01
 -1        47 1.43130E-01
 -1        48 1.16067E-01
 -1        49 9.04427E-02
 -1        50 6.79076E-02
 -1        51 5.52051E-02
 -1        52 4.67617E-02
 -1        53 3.83974E-02
 -1        54 3.06965E-02
 -1        55 2.39515E-02
 -1        56 1.82603E-02
 -1        57 1.40872E-02
 -1        58 1.17213E-02
 -1        59 9.52470E-03
 -1        60 7.57652E-03
 -1        61 5.90628E-03
 -1        62 4.58119E-03
 -1        63 3.53733E-03
 -1        64 2.66787E-03
 -1        65 1.95478E-03
 -1        66 1.58127E-03
 -1        67 1.31540E-03
 -1        68 1.06778E-03
 -1        69 8.24587E-04
 -1        70 6.88379E-04
 -1        71 4.63678E-04
 -1        72 1.12498E+01
 -1        73 1.56748E+00
 -1        74 1.56558E+00
 -1        75 2.26749E+00
 -1        76 2.67467E+00
 -1        77 3.10479E+00
 -1        78 4.36920E+00
 -1        79 7.47028E+00
 -1        80 8.79694E+00
 -1        81 9.25926E+00
 -1        82 9.25926E+00
 -1        83 4.81588E+00
 -1        84 2.72815E+00
 -1        85 3.32342E+00
 -1        86 3.32342E+00
 -1        87 3.15287E+00
 -1        88 2.60502E+00
 -1        89 2.11049E+00
 -1        90 1.61795E+00
 -1        91 1.19127E+00
 -1        92 8.50586E-01
 -1        93 5.92349E-01
 -1        94 4.29502E-01
 -1        95 3.13509E-01
 -1        96 2.25962E-01
 -1        97 1.60822E-01
 -1        98 1.12844E-01
 -1        99 7.78087E-02
 -1       100 5.24450E-02
 -1       101 4.02284E-02
 -1       102 3.25399E-02
 -1       103 2.59470E-02
 -1       104 2.04004E-02
 -1       105 1.58116E-02
 -1       106 1.34139E-02
 -1       107 1.15066E-02
 -1       108 9.64001E-03
 -1       109 7.91299E-03
 -1       110 6.37661E-03
 -1       111 5.12522E-03
 -1       112 4.09664E-03
 -1       113 3.21267E-03
 -1       114 2.46679E-03
 -1       115 1.84418E-03
 -1       116 1.32525E-03
 -1       117 1.06602E-03
 -1       118 8.21988E-04
 -1       119 5.53155E-04
 -1       120 3.47698E-04
 -1       121 1.53944E-04
 -1       122 1.53944E-04
 -1       123 1.27469E-04
 -1       124 6.40566E-05
 -1       125 6.84548E-05
 -1       126 1.09952E-04
 -1       127 1.34524E-04
 -1       128 1.41520E-04
 -1       129 1.41520E-04
 -1       130 1.34006E-04
 -1       131 1.08145E-04
 -1       132 6.79036E-05
 -1       133 6.51919E-05
 -1       134 1.27107E-04
 -1       135 2.04183E-04
 -1       136 2.29579E-04
 -1       137 2.63223E+01
 -1       138 4.89480E+01
 -1       139 4.89480E+01
 -1       140 2.30612E+01
 -1       141 1.23941E+01
 -1       142 1.28709E+01
 -1       143 1.36943E+01
 -1       144 1.36943E+01
 -1       145 1.33428E+01
 -1       146 1.41196E+01
 -1       147 3.64514E+01
 -1       148 3.64514E+01
 -1       149 2.57130E+01
 -1       150 2.55412E+01
 -1       151 2.54672E+01
 -1       152 2.56733E+01
 -1       153 3.74647E+01
 -1       154 3.74647E+01
 -1       155 1.37510E+01
 -1       156 1.18788E+01
 -1       157 1.23280E+01
 -1       158 1.21802E+01
 -1       159 1.21802E+01
 -1       160 1.16914E+01
 -1       161 2.40528E+01
 -1       162 4.89802E+01
 -1       163 4.89802E+01
 -1       164 2.44089E+01
 -1       165 6.23956E+00
 -1       166 2.56948E+00
 -1       167 1.93773E+00
 -1       168 1.74339E+00
 -1       169 1.69215E+00
 -1       170 1.64518E+00
 -1       171 1.72675E+00
 -1       172 1.72675E+00
 -1       173 1.70508E+00
 -1       174 1.32252E+00
 -1       175 2.28394E+00
 -1       176 3.18328E+00
 -1       177 3.47620E+00
 -1       178 3.85983E+00
 -1       179 4.50842E+00
 -1       180 1.12498E+01
 -1       181 3.84024E+00
 -1       182 2.87043E+00
 -1       183 1.91207E+00
 -1       184 1.63471E+00
 -1       185 1.83192E+00
 -1       186 2.19785E+00
 -1       187 2.59486E+00
 -1       188 2.77282E+00
 -1       189 2.71167E+00
 -1       190 2.71967E+00
 -1       191 2.35581E+00
 -1       192 1.74496E+00
 -1       193 1.26526E+00
 -1       194 8.87571E-01
 -1       195 5.98683E-01
 -1       196 4.98381E-01
 -1       197 4.33297E-01
 -1       198 3.97738E-01
 -1       199 3.69076E-01
 -1       200 3.10073E-01
 -1       201 2.48485E-01
 -1       202 2.04280E-01
 -1       203 1.70678E-01
 -1       204 1.43130E-01
 -1       205 1.16067E-01
 -1       206 9.06194E-02
 -1       207 7.11530E-02
 -1       208 5.52051E-02
 -1       209 4.67617E-02
 -1       210 3.83974E-02
 -1       211 3.06965E-02
 -1       212 2.39515E-02
 -1       213 1.82603E-02
 -1       214 1.43186E-02
 -1       215 1.17213E-02
 -1       216 9.52470E-03
 -1       217 7.57652E-03
 -1       218 6.08347E-03
 -1       219 4.83101E-03
 -1       220 3.88464E-03
 -1       221 3.08884E-03
 -1       222 2.39444E-03
 -1       223 1.80265E-03
 -1       224 1.31540E-03
 -1       225 1.06778E-03
 -1       226 8.24587E-04
 -1       227 6.88379E-04
 -1       228 4.63678E-04
 -1       229 1.95058E+00
 -1       230 1.49649E+00
 -1       231 1.73780E+00
 -1       232 2.26749E+00
 -1       233 2.67467E+00
 -1       234 3.10479E+00
 -1       235 4.49249E+00
 -1       236 7.47028E+00
 -1       237 8.79694E+00
 -1       238 9.25926E+00
 -1       239 4.81588E+00
 -1       240 2.29833E+00
 -1       241 2.83180E+00
 -1       242 3.32342E+00
 -1       243 3.15287E+00
 -1       244 2.60502E+00
 -1       245 2.11049E+00
 -1       246 1.67427E+00
 -1       247 1.27043E+00
 -1       248 9.31502E-01
 -1       249 6.65204E-01
 -1       250 4.69110E-01
 -1       251 3.27578E-01
 -1       252 2.25962E-01
 -1       253 1.61791E-01
 -1       254 1.15872E-01
 -1       255 8.18148E-02
 -1       256 5.67622E-02
 -1       257 4.02284E-02
 -1       258 3.25399E-02
 -1       259 2.59470E-02
 -1       260 2.04004E-02
 -1       261 1.58116E-02
 -1       262 1.34139E-02
 -1       263 1.15066E-02
 -1       264 9.64001E-03
 -1       265 7.91299E-03
 -1       266 6.37661E-03
 -1       267 5.12522E-03
 -1       268 4.09664E-03
 -1       269 3.21267E-03
 -1       270 2.50885E-03
 -1       271 1.91129E-03
 -1       272 1.40885E-03
 -1       273 1.06602E-03
 -1       274 8.21988E-04
 -1       275 5.53155E-04
 -1       276 3.47698E-04
 -1       277 2.03064E-04
 -1       278 2.03064E-04
 -1       279 1.95168E-04
 -1       280 1.14111E-04
 -1       281 1.93632E-04
 -1       282 2.45162E-04
 -1       283 2.65893E-04
 -1       284 2.65893E-04
 -1       285 2.65684E-04
 -1       286 2.43089E-04
 -1       287 1.93276E-04
 -1       288 1.15232E-04
 -1       289 1.94318E-04
 -1       290 1.94318E-04
 -1       291 2.61602E-04
 -1       292 3.12532E+01
 -1       293 2.98462E+01
 -1       294 4.89480E+01
 -1       295 2.41148E+01
 -1       296 1.23941E+01
 -1       297 1.20971E+01
 -1       298 1.28709E+01
 -1       299 1.36943E+01
 -1       300 1.33428E+01
 -1       301 1.24188E+01
 -1       302 1.46669E+01
 -1       303 3.64514E+01
 -1       304 3.39833E+01
 -1       305 2.76939E+01
 -1       306 3.83404E+01
 -1       307 2.74378E+01
 -1       308 3.54487E+01
 -1       309 3.74647E+01
 -1       310 1.37510E+01
 -1       311 1.13018E+01
 -1       312 1.18788E+01
 -1       313 1.23280E+01
 -1       314 1.17189E+01
 -1       315 1.21802E+01
 -1       316 1.16914E+01
 -1       317 1.13909E+01
 -1       318 2.54579E+01
 -1       319 4.89802E+01
 -1       320 2.98707E+01
 -1       321 3.12532E+01
 -1       322 1.27023E+00
 -1       323 2.56271E+00
 -1       324 1.35682E+00
 -1       325 1.63615E+00
 -1       326 1.77686E+00
 -1       327 2.01638E+00
 -1       328 2.01638E+00
 -1       329 1.98533E+00
 -1       330 2.48959E+00
 -1       331 3.21811E+00
 -1       332 3.60081E+00
 -1       333 4.48714E+00
 -1       334 3.40137E+00
 -1       335 2.17460E+00
 -1       336 2.49661E+00
 -1       337 1.85936E+01
 -1       338 1.68572E+00
 -1       339 1.51723E+00
 -1       340 1.53976E+00
 -1       341 1.71082E+00
 -1       342 1.90334E+00
 -1       343 1.99760E+00
 -1       344 1.92522E+00
 -1       345 1.92648E+00
 -1       346 1.86818E+00
 -1       347 1.61983E+00
 -1       348 1.30270E+00
 -1       349 9.93118E-01
 -1       350 6.54560E-01
 -1       351 3.95815E-01
 -1       352 2.09784E-01
 -1       353 2.19567E-01
 -1       354 2.66761E-01
 -1       355 2.67154E-01
 -1       356 2.39947E-01
 -1       357 2.11992E-01
 -1       358 1.84047E-01
 -1       359 1.55997E-01
 -1       360 1.25395E-01
 -1       361 9.61350E-02
 -1       362 7.11530E-02
 -1       363 5.40136E-02
 -1       364 3.96505E-02
 -1       365 2.86526E-02
 -1       366 2.40873E-02
 -1       367 2.01353E-02
 -1       368 1.64094E-02
 -1       369 1.30703E-02
 -1       370 1.01883E-02
 -1       371 8.34375E-03
 -1       372 7.09067E-03
 -1       373 5.87052E-03
 -1       374 4.76847E-03
 -1       375 3.89935E-03
 -1       376 3.11937E-03
 -1       377 2.48229E-03
 -1       378 1.95862E-03
 -1       379 1.49913E-03
 -1       380 1.10809E-03
 -1       381 7.86035E-04
 -1       382 5.93770E-04
 -1       383 4.05303E-04
 -1       384 2.96249E+00
 -1       385 3.26198E+00
 -1       386 3.41006E+00
 -1       387 2.89507E+00
 -1       388 4.18210E+00
 -1       389 4.98479E+00
 -1       390 5.28647E+00
 -1       391 4.84371E+00
 -1       392 2.97061E+00
 -1       393 3.06104E+00
 -1       394 3.05031E+00
 -1       395 2.74035E+00
 -1       396 2.48068E+00
 -1       397 2.23447E+00
 -1       398 1.94292E+00
 -1       399 1.58055E+00
 -1       400 1.22094E+00
 -1       401 9.09534E-01
 -1       402 6.59928E-01
 -1       403 4.69110E-01
 -1       404 3.27578E-01
 -1       405 2.24700E-01
 -1       406 1.61791E-01
 -1       407 1.15872E-01
 -1       408 8.18148E-02
 -1       409 5.67622E-02
 -1       410 3.84962E-02
 -1       411 2.55587E-02
 -1       412 2.03037E-02
 -1       413 1.68086E-02
 -1       414 1.36474E-02
 -1       415 1.08854E-02
 -1       416 8.53532E-03
 -1       417 6.85368E-03
 -1       418 5.90516E-03
 -1       419 4.98978E-03
 -1       420 4.21454E-03
 -1       421 3.51008E-03
 -1       422 2.85813E-03
 -1       423 2.27602E-03
 -1       424 1.76911E-03
 -1       425 1.33553E-03
 -1       426 9.69825E-04
 -1       427 7.50649E-04
 -1       428 5.44383E-04
 -1       429 3.28654E-04
 -1       430 2.15457E-04
 -1       431 4.08656E-04
 -1       432 4.08656E-04
 -1       433 2.59579E-04
 -1       434 3.35974E-04
 -1       435 3.71236E-04
 -1       436 3.71236E-04
 -1       437 3.69628E-04
 -1       438 3.69628E-04
 -1       439 3.35047E-04
 -1       440 2.57709E-04
 -1       441 2.08704E-04
 -1       442 3.29098E-04
 -1       443 2.98462E+01
 -1       444 3.81630E+01
 -1       445 3.81630E+01
 -1       446 1.79078E+01
 -1       447 9.17691E+00
 -1       448 3.03554E+01
 -1       449 1.02466E+01
 -1       450 1.29833E+00
 -1       451 1.06365E+01
 -1       452 1.16534E+01
 -1       453 1.00775E+01
 -1       454 8.79136E+00
 -1       455 6.97143E+00
 -1       456 1.29664E+01
 -1       457 2.31661E+01
 -1       458 2.47834E+01
 -1       459 3.83404E+01
 -1       460 3.81760E+01
 -1       461 2.51795E+01
 -1       462 2.30159E+01
 -1       463 1.31019E+01
 -1       464 6.97157E+00
 -1       465 8.52063E+00
 -1       466 9.95211E+00
 -1       467 1.12650E+01
 -1       468 1.08409E+01
 -1       469 9.00115E+00
 -1       470 6.67486E+00
 -1       471 2.98707E+01
 -1       472 7.46020E+00
 -1       473 3.83404E+01
 -1       474 7.51198E+00
 -1       475 4.75264E+00
 -1       476 2.13089E+00
 -1       477 1.64320E+00
 -1       478 2.62208E+00
 -1       479 2.63063E+00
 -1       480 3.02434E+00
 -1       481 3.96831E+00
 -1       482 4.19126E+00
 -1       483 4.75264E+00
 -1       484 9.30200E-01
 -1       485 4.09637E+00
 -1       486 7.97653E-01
 -1       487 1.17387E+00
 -1       488 1.35368E+00
 -1       489 1.50416E+00
 -1       490 1.56766E+00
 -1       491 1.50815E+00
 -1       492 1.36685E+00
 -1       493 1.43284E+00
 -1       494 1.39030E+00
 -1       495 1.25637E+00
 -1       496 1.07793E+00
 -1       497 8.09731E-01
 -1       498 5.96052E-01
 -1       499 3.94964E-01
 -1       500 3.36429E-01
 -1       501 2.66312E-01
 -1       502 2.51370E-01
 -1       503 2.42488E-01
 -1       504 2.20647E-01
 -1       505 1.97862E-01
 -1       506 1.71202E-01
 -1       507 1.42625E-01
 -1       508 1.13840E-01
 -1       509 8.73996E-02
 -1       510 6.45920E-02
 -1       511 4.58398E-02
 -1       512 3.10275E-02
 -1       513 2.07360E-02
 -1       514 1.45188E-02
 -1       515 1.21776E-02
 -1       516 1.07059E-02
 -1       517 9.12241E-03
 -1       518 7.56975E-03
 -1       519 6.13419E-03
 -1       520 5.21787E-03
 -1       521 4.48480E-03
 -1       522 3.74417E-03
 -1       523 3.07352E-03
 -1       524 2.50109E-03
 -1       525 1.97854E-03
 -1       526 1.51992E-03
 -1       527 1.17368E-03
 -1       528 8.74670E-04
 -1       529 6.25600E-04
 -1       530 8.89806E+00
 -1       531 5.27153E+00
 -1       532 4.61813E+00
 -1       533 5.02315E+00
 -1       534 4.09317E+00
 -1       535 3.12810E+00
 -1       536 2.75842E+00
 -1       537 2.29707E+00
 -1       538 1.82620E+00
 -1       539 1.40262E+00
 -1       540 1.05037E+00
 -1       541 7.71661E-01
 -1       542 5.58199E-01
 -1       543 3.98258E-01
 -1       544 2.80275E-01
 -1       545 1.94282E-01
 -1       546 1.32248E-01
 -1       547 8.79446E-02
 -1       548 5.66500E-02
 -1       549 3.73852E-02
 -1       550 2.67621E-02
 -1       551 2.03037E-02
 -1       552 1.68086E-02
 -1       553 1.36474E-02
 -1       554 1.08854E-02
 -1       555 8.54895E-03
 -1       556 7.06717E-03
 -1       557 5.86952E-03
 -1       558 4.90060E-03
 -1       559 4.06149E-03
 -1       560 3.38607E-03
 -1       561 2.75127E-03
 -1       562 2.21842E-03
 -1       563 1.74789E-03
 -1       564 1.33641E-03
 -1       565 9.87594E-04
 -1       566 6.93529E-04
 -1       567 4.77818E-04
 -1       568 4.23013E-04
 -1       569 4.83059E-04
 -1       570 4.48890E-04
 -1       571 3.64718E-04
 -1       572 4.83059E-04
 -1       573 4.82550E-04
 -1       574 4.82224E-04
 -1       575 4.81429E-04
 -1       576 4.26771E-04
 -1       577 3.72531E-04
 -1       578 3.72531E-04
 -1       579 3.81630E+01
 -1       580 1.39132E+01
 -1       581 5.46958E+00
 -1       582 9.27676E+00
 -1       583 5.74380E+00
 -1       584 1.32435E+01
 -1       585 6.33856E+00
 -1       586 1.14610E+01
 -1       587 3.03554E+01
 -1       588 7.98712E+00
 -1       589 2.38005E+00
 -1       590 7.27287E+00
 -1       591 5.54773E+00
 -1       592 6.92690E+00
 -1       593 2.51795E+01
 -1       594 1.09735E+01
 -1       595 1.76236E+01
 -1       596 2.47834E+01
 -1       597 4.03571E+00
 -1       598 1.64234E+01
 -1       599 7.88872E+00
 -1       600 4.43123E+00
 -1       601 5.65863E+00
 -1       602 7.14673E+00
 -1       603 7.26425E+00
 -1       604 2.31600E+01
 -1       605 8.33510E+00
 -1       606 2.14785E+01
 -1       607 4.66304E+00
 -1       608 1.10898E+00
 -1       609 7.96905E-01
 -1       610 3.71008E-04
 -1       611 7.14673E+00
 -1       612 5.04192E+00
 -1       613 5.88869E+00
 -1       614 4.04072E+00
 -1       615 8.28319E+00
 -1       616 5.40991E+00
 -1       617 1.79214E+01
 -1       618 8.35373E-01
 -1       619 4.75264E+00
 -1       620 1.82497E+01
 -1       621 9.83527E-01
 -1       622 1.26148E+00
 -1       623 1.35665E+00
 -1       624 1.62698E+00
 -1       625 1.53355E+00
 -1       626 1.47167E+00
 -1       627 1.58638E+00
 -1       628 1.30214E+00
 -1       629 1.16381E+00
 -1       630 1.05518E+00
 -1       631 8.09731E-01
 -1       632 6.50019E-01
 -1       633 5.27929E-01
 -1       634 3.93808E-01
 -1       635 3.30506E-01
 -1       636 2.96636E-01
 -1       637 2.57372E-01
 -1       638 2.20647E-01
 -1       639 1.89029E-01
 -1       640 1.56907E-01
 -1       641 1.26179E-01
 -1       642 9.83454E-02
 -1       643 7.43991E-02
 -1       644 5.45985E-02
 -1       645 3.87592E-02
 -1       646 2.64582E-02
 -1       647 1.71717E-02
 -1       648 1.03613E-02
 -1       649 6.91582E-03
 -1       650 6.62336E-03
 -1       651 6.19907E-03
 -1       652 5.54243E-03
 -1       653 4.78298E-03
 -1       654 4.00729E-03
 -1       655 3.46051E-03
 -1       656 2.93993E-03
 -1       657 2.42317E-03
 -1       658 1.93985E-03
 -1       659 1.52987E-03
 -1       660 1.17485E-03
 -1       661 8.74670E-04
 -1       662 6.25600E-04
 -1       663 1.11380E+01
 -1       664 5.02315E+00
 -1       665 3.79753E+00
 -1       666 2.70383E+00
 -1       667 1.96908E+00
 -1       668 1.45635E+00
 -1       669 1.05534E+00
 -1       670 7.82112E-01
 -1       671 5.77871E-01
 -1       672 4.24276E-01
 -1       673 3.08823E-01
 -1       674 2.22393E-01
 -1       675 1.58087E-01
 -1       676 1.10601E-01
 -1       677 7.58475E-02
 -1       678 5.06778E-02
 -1       679 3.26779E-02
 -1       680 2.00027E-02
 -1       681 1.30721E-02
 -1       682 1.11411E-02
 -1       683 9.86178E-03
 -1       684 8.45642E-03
 -1       685 7.06717E-03
 -1       686 5.77575E-03
 -1       687 4.83350E-03
 -1       688 4.06149E-03
 -1       689 3.38607E-03
 -1       690 2.76033E-03
 -1       691 2.23761E-03
 -1       692 1.76377E-03
 -1       693 1.34850E-03
 -1       694 1.01610E-03
 -1       695 7.43385E-04
 -1       696 6.07111E-04
 -1       697 6.13665E-04
 -1       698 9.48002E+00
 -1       699 5.95404E-04
 -1       700 6.10848E-04
 -1       701 6.13665E-04
 -1       702 6.10848E-04
 -1       703 5.98125E-04
 -1       704 4.99810E-04
 -1       705 1.65044E+01
 -1       706 7.76418E+00
 -1       707 4.98132E+00
 -1       708 4.95214E+00
 -1       709 6.72799E+00
 -1       710 1.08075E+01
 -1       711 5.29920E+00
 -1       712 6.90581E+00
 -1       713 1.34247E+01
 -1       714 8.28319E+00
 -1       715 2.07233E+00
 -1       716 1.34593E+01
 -1       717 4.01053E-04
 -1       718 1.44005E+01
 -1       719 1.40450E+01
 -1       720 3.15464E+00
 -1       721 2.94365E+00
 -1       722 4.55598E+00
 -1       723 1.09825E+01
 -1       724 4.51439E-01
 -1       725 3.09437E+00
 -1       726 3.33090E+00
 -1       727 1.32242E+00
 -1       728 8.77954E+00
 -1       729 4.80108E-04
 -1       730 8.95787E+00
 -1       731 1.34247E+01
 -1       732 5.35935E+00
 -1       733 5.45099E+00
 -1       734 2.84182E+00
 -1       735 5.15024E-04
 -1       736 5.08462E-04
 -1       737 1.15090E+01
 -1       738 7.25366E+00
 -1       739 7.45561E-04
 -1       740 8.35373E-01
 -1       741 7.05904E-04
 -1       742 1.04330E+00
 -1       743 1.23423E+00
 -1       744 1.41680E+00
 -1       745 2.29377E+00
 -1       746 3.37614E+00
 -1       747 2.52141E+00
 -1       748 3.75165E+00
 -1       749 2.84364E+00
 -1       750 1.61107E+00
 -1       751 1.38970E+00
 -1       752 1.08712E+00
 -1       753 9.79737E-01
 -1       754 7.61012E-01
 -1       755 5.41082E-01
 -1       756 4.67990E-01
 -1       757 3.87773E-01
 -1       758 3.15022E-01
 -1       759 2.59679E-01
 -1       760 2.17254E-01
 -1       761 1.75175E-01
 -1       762 1.37018E-01
 -1       763 1.04322E-01
 -1       764 7.82970E-02
 -1       765 5.77498E-02
 -1       766 4.16192E-02
 -1       767 2.91965E-02
 -1       768 1.98107E-02
 -1       769 1.28622E-02
 -1       770 7.83390E-03
 -1       771 4.28720E-03
 -1       772 3.87110E-03
 -1       773 4.14027E-03
 -1       774 4.03756E-03
 -1       775 3.71158E-03
 -1       776 3.26833E-03
 -1       777 2.82376E-03
 -1       778 2.47821E-03
 -1       779 2.09842E-03
 -1       780 1.72020E-03
 -1       781 1.36525E-03
 -1       782 1.04409E-03
 -1       783 7.60285E-04
 -1       784 1.92734E+00
 -1       785 4.60109E+00
 -1       786 7.04934E+00
 -1       787 1.15090E+01
 -1       788 7.62653E+00
 -1       789 2.69009E+00
 -1       790 3.70971E+00
 -1       791 1.38844E+00
 -1       792 9.95116E-01
 -1       793 7.09324E-01
 -1       794 5.02060E-01
 -1       795 3.52270E-01
 -1       796 2.44515E-01
 -1       797 1.68240E-01
 -1       798 1.16517E-01
 -1       799 8.13676E-02
 -1       800 5.72472E-02
 -1       801 3.92786E-02
 -1       802 2.60955E-02
 -1       803 1.65880E-02
 -1       804 9.86903E-03
 -1       805 6.26188E-03
 -1       806 6.17591E-03
 -1       807 5.82746E-03
 -1       808 5.23666E-03
 -1       809 4.53909E-03
 -1       810 3.82114E-03
 -1       811 3.30412E-03
 -1       812 2.80921E-03
 -1       813 2.31950E-03
 -1       814 1.86203E-03
 -1       815 1.45090E-03
 -1       816 1.09199E-03
 -1       817 7.88788E-04
 -1       818 6.61618E-04
 -1       819 3.75165E+00
 -1       820 8.39607E+00
 -1       821 7.16639E-04
 -1       822 1.09486E+01
 -1       823 1.04671E+01
 -1       824 7.45561E-04
 -1       825 2.92630E+00
 -1       826 8.41716E+00
 -1       827 2.10913E+00
 -1       828 7.69511E+00
 -1       829 5.68672E+00
 -1       830 9.07685E+00
 -1       831 2.94365E+00
 -1       832 3.91544E+00
 -1       833 1.44170E+00
 -1       834 5.09862E+00
 -1       835 5.33749E+00
 -1       836 3.70779E+00
 -1       837 7.71100E+00
 -1       838 7.49295E-04
 -1       839 7.46983E-04
 -1       840 7.49295E-04
 -1       841 2.67422E+00
 -1       842 4.29899E+00
 -1       843 6.66661E-04
 -1       844 1.23423E+00
 -1       845 1.41680E+00
 -1       846 2.20021E+00
 -1       847 3.75165E+00
 -1       848 1.61107E+00
 -1       849 1.38970E+00
 -1       850 1.45754E+00
 -1       851 1.00527E+00
 -1       852 8.25226E-01
 -1       853 6.72381E-01
 -1       854 5.16525E-01
 -1       855 4.09110E-01
 -1       856 3.24730E-01
 -1       857 2.55894E-01
 -1       858 1.97965E-01
 -1       859 1.58798E-01
 -1       860 1.27380E-01
 -1       861 1.00425E-01
 -1       862 7.65684E-02
 -1       863 5.64942E-02
 -1       864 4.02531E-02
 -1       865 2.78229E-02
 -1       866 1.87722E-02
 -1       867 1.19962E-02
 -1       868 7.07178E-03
 -1       869 3.68797E-03
 -1       870 2.17181E-03
 -1       871 2.77982E-03
 -1       872 2.96902E-03
 -1       873 2.88886E-03
 -1       874 2.64831E-03
 -1       875 2.32418E-03
 -1       876 2.05629E-03
 -1       877 1.76819E-03
 -1       878 1.46784E-03
 -1       879 1.17680E-03
 -1       880 4.35667E+00
 -1       881 2.42702E+00
 -1       882 2.30120E+00
 -1       883 3.17373E+00
 -1       884 8.07184E-01
 -1       885 5.83405E-01
 -1       886 4.21502E-01
 -1       887 3.03148E-01
 -1       888 2.16324E-01
 -1       889 1.52677E-01
 -1       890 1.06195E-01
 -1       891 7.28636E-02
 -1       892 4.98061E-02
 -1       893 3.30910E-02
 -1       894 2.12766E-02
 -1       895 1.29895E-02
 -1       896 7.26145E-03
 -1       897 4.02031E-03
 -1       898 3.64012E-03
 -1       899 3.91972E-03
 -1       900 3.82770E-03
 -1       901 3.51940E-03
 -1       902 3.10040E-03
 -1       903 2.66341E-03
 -1       904 2.33145E-03
 -1       905 1.97106E-03
 -1       906 1.61464E-03
 -1       907 1.28027E-03
 -1       908 9.78490E-04
 -1       909 3.03261E+00
 -1       910 7.27094E+00
 -1       911 1.58808E+00
 -1       912 3.28757E+00
 -1       913 5.07439E+00
 -1       914 3.98468E+00
 -1       915 1.91263E+00
 -1       916 4.42172E+00
 -1       917 3.37614E+00
 -1       918 5.99156E+00
 -1       919 9.32646E-04
 -1       920 7.15907E-04
 -1       921 1.12327E+00
 -1       922 2.84364E+00
 -1       923 4.35667E+00
 -1       924 8.91653E-04
 -1       925 8.89435E-04
 -1       926 8.67468E-04
 -1       927 9.26877E-04
 -1       928 5.71844E+00
 -1       929 9.61788E-04
 -1       930 9.12253E-04
 -1       931 2.05664E+00
 -1       932 2.07259E+00
 -1       933 1.52017E+00
 -1       934 3.87490E+00
 -1       935 2.38268E+00
 -1       936 1.18396E+00
 -1       937 9.51575E-01
 -1       938 7.41134E-01
 -1       939 5.64822E-01
 -1       940 4.13448E-01
 -1       941 3.13430E-01
 -1       942 2.47111E-01
 -1       943 1.97965E-01
 -1       944 1.58798E-01
 -1       945 1.23944E-01
 -1       946 9.43666E-02
 -1       947 7.01177E-02
 -1       948 5.07782E-02
 -1       949 3.57151E-02
 -1       950 2.42527E-02
 -1       951 1.62825E-02
 -1       952 1.04815E-02
 -1       953 6.29150E-03
 -1       954 3.70857E-03
 -1       955 2.15918E-03
 -1       956 1.93544E-03
 -1       957 2.22824E-03
 -1       958 2.25880E-03
 -1       959 2.12704E-03
 -1       960 1.90392E-03
 -1       961 1.66295E-03
 -1       962 1.43738E-03
 -1       963 1.19636E-03
 -1       964 1.02826E+00
 -1       965 3.33279E+00
 -1       966 4.17861E-01
 -1       967 5.55818E-01
 -1       968 2.32542E-01
 -1       969 1.71014E-01
 -1       970 1.24131E-01
 -1       971 8.86755E-02
 -1       972 6.21209E-02
 -1       973 4.25593E-02
 -1       974 2.90344E-02
 -1       975 1.91438E-02
 -1       976 1.20390E-02
 -1       977 7.10279E-03
 -1       978 3.73679E-03
 -1       979 2.04780E-03
 -1       980 2.62192E-03
 -1       981 2.79146E-03
 -1       982 2.70758E-03
 -1       983 2.47629E-03
 -1       984 2.17004E-03
 -1       985 1.88839E-03
 -1       986 1.61904E-03
 -1       987 1.34176E-03
 -1       988 4.93515E+00
 -1       989 3.87490E+00
 -1       990 1.47615E+00
 -1       991 1.19443E-03
 -1       992 7.44105E-01
 -1       993 3.12912E-01
 -1       994 1.50981E+00
 -1       995 1.20859E-03
 -1       996 9.39755E-04
 -1       997 1.54043E+00
 -1       998 3.15090E+00
 -1       999 1.08384E-03
 -1      1000 2.64153E+00
 -1      1001 2.35278E+00
 -1      1002 2.22283E-01
 -1      1003 3.42335E+00
 -1      1004 1.30233E+00
 -1      1005 7.69503E-01
 -1      1006 5.45639E-01
 -1      1007 4.10096E-01
 -1      1008 3.13430E-01
 -1      1009 2.47111E-01
 -1      1010 1.90764E-01
 -1      1011 1.44724E-01
 -1      1012 1.08048E-01
 -1      1013 7.93661E-02
 -1      1014 5.72822E-02
 -1      1015 4.05262E-02
 -1      1016 2.78688E-02
 -1      1017 1.86645E-02
 -1      1018 1.33023E-02
 -1      1019 9.12625E-03
 -1      1020 6.01836E-03
 -1      1021 3.70857E-03
 -1      1022 2.06937E-03
 -1      1023 1.42416E-03
 -1      1024 1.70047E-03
 -1      1025 1.75599E-03
 -1      1026 1.67345E-03
 -1      1027 1.51130E-03
 -1      1028 1.30964E-03
 -1      1029 1.20835E-03
 -1      1030 4.26648E-01
 -1      1031 1.21618E-01
 -1      1032 1.59439E-01
 -1      1033 6.66545E-02
 -1      1034 4.77608E-02
 -1      1035 3.31573E-02
 -1      1036 2.26602E-02
 -1      1037 1.52796E-02
 -1      1038 9.89427E-03
 -1      1039 5.97887E-03
 -1      1040 3.62743E-03
 -1      1041 1.97754E-03
 -1      1042 1.77962E-03
 -1      1043 2.04231E-03
 -1      1044 2.06411E-03
 -1      1045 1.93916E-03
 -1      1046 1.73334E-03
 -1      1047 1.48909E-03
 -1      1048 1.26819E-03
 -1      1049 3.42335E+00
 -1      1050 9.64956E-04
 -1      1051 3.08458E-01
 -1      1052 9.09805E-02
 -1      1053 9.38719E-04
 -1      1054 5.89073E-01
 -1      1055 3.15090E+00
 -1      1056 1.50981E+00
 -1      1057 2.28111E+00
 -1      1058 2.03173E+00
 -1      1059 8.12878E-01
 -1      1060 1.11995E+00
 -1      1061 1.20859E-03
 -1      1062 1.05737E-03
 -1      1063 1.68482E+00
 -1      1064 1.13630E+00
 -1      1065 7.70581E-01
 -1      1066 5.20385E-01
 -1      1067 3.49304E-01
 -1      1068 2.33296E-01
 -1      1069 1.60523E-01
 -1      1070 1.15327E-01
 -1      1071 8.77141E-02
 -1      1072 6.65422E-02
 -1      1073 4.92940E-02
 -1      1074 3.56995E-02
 -1      1075 3.01275E-02
 -1      1076 1.83779E-02
 -1      1077 1.23827E-02
 -1      1078 7.97694E-03
 -1      1079 5.04343E-03
 -1      1080 2.95398E-03
 -1      1081 1.49729E-03
 -1      1082 1.09629E-03
 -1      1083 1.34829E-03
 -1      1084 1.50266E-03
 -1      1085 1.49231E-03
 -1      1086 1.23108E-03
 -1      1087 1.20835E-03
 -1      1088 8.30948E-02
 -1      1089 2.64727E-02
 -1      1090 6.41374E-02
 -1      1091 1.88566E-02
 -1      1092 1.61216E-02
 -1      1093 1.14400E-02
 -1      1094 7.39044E-03
 -1      1095 4.33761E-03
 -1      1096 2.18288E-03
 -1      1097 1.24832E-03
 -1      1098 1.49720E-03
 -1      1099 1.54753E-03
 -1      1100 1.50266E-03
 -1      1101 1.49231E-03
 -1      1102 1.26620E-03
 -1      1103 2.13755E+00
 -1      1104 1.03353E-01
 -1      1105 4.65390E-02
 -1      1106 3.49304E-01
 -1      1107 1.37446E-01
 -1      1108 7.70581E-01
 -1      1109 1.15409E-03
 -1      1110 1.83616E-01
 -1      1111 2.42706E-01
 -1      1112 5.20385E-01
 -1      1113 1.24648E+00
 -1      1114 2.28111E+00
 -1      1115 1.76152E+00
 -1      1116 3.01275E-02
 -1      1117 3.01275E-02
 -1      1118 2.13755E+00
 -1      1119 1.29120E+01
 -1      1120 8.36930E+00
 -1      1121 2.95079E+00
 -1      1122 1.91183E+00
 -1      1123 1.72041E+00
 -1      1124 1.66931E+00
 -1      1125 1.62835E+00
 -1      1126 1.59629E+00
 -1      1127 1.58234E+00
 -1      1128 1.42304E+00
 -1      1129 1.41693E+00
 -1      1130 2.10956E+00
 -1      1131 2.98267E+00
 -1      1132 3.54234E+00
 -1      1133 4.13838E+00
 -1      1134 6.18354E+00
 -1      1135 9.55423E+00
 -1      1136 1.29120E+01
 -1      1137 8.37613E+00
 -1      1138 3.35534E+00
 -1      1139 2.39125E+00
 -1      1140 1.85694E+00
 -1      1141 1.99982E+00
 -1      1142 2.39635E+00
 -1      1143 2.68384E+00
 -1      1144 2.77282E+00
 -1      1145 2.74624E+00
 -1      1146 2.71967E+00
 -1      1147 2.53774E+00
 -1      1148 2.05038E+00
 -1      1149 1.43856E+00
 -1      1150 9.94331E-01
 -1      1151 7.27589E-01
 -1      1152 5.48532E-01
 -1      1153 4.65839E-01
 -1      1154 4.15517E-01
 -1      1155 3.83407E-01
 -1      1156 3.39574E-01
 -1      1157 2.75596E-01
 -1      1158 2.14225E-01
 -1      1159 1.77938E-01
 -1      1160 1.55838E-01
 -1      1161 1.29598E-01
 -1      1162 1.03255E-01
 -1      1163 7.91752E-02
 -1      1164 6.15564E-02
 -1      1165 5.09834E-02
 -1      1166 4.25795E-02
 -1      1167 3.45470E-02
 -1      1168 2.73240E-02
 -1      1169 2.11059E-02
 -1      1170 1.61738E-02
 -1      1171 1.29043E-02
 -1      1172 1.06230E-02
 -1      1173 8.55061E-03
 -1      1174 6.74140E-03
 -1      1175 5.24374E-03
 -1      1176 4.05926E-03
 -1      1177 3.10260E-03
 -1      1178 2.31133E-03
 -1      1179 1.76803E-03
 -1      1180 1.44834E-03
 -1      1181 1.19159E-03
 -1      1182 9.46184E-04
 -1      1183 7.56483E-04
 -1      1184 5.76028E-04
 -1      1185 2.87007E-04
 -1      1186 1.12498E+01
 -1      1187 6.40864E+00
 -1      1188 1.56653E+00
 -1      1189 1.91653E+00
 -1      1190 2.47108E+00
 -1      1191 2.88973E+00
 -1      1192 3.73699E+00
 -1      1193 5.91974E+00
 -1      1194 8.13361E+00
 -1      1195 9.02810E+00
 -1      1196 9.25926E+00
 -1      1197 7.03757E+00
 -1      1198 3.77201E+00
 -1      1199 3.02579E+00
 -1      1200 3.32342E+00
 -1      1201 3.23815E+00
 -1      1202 2.87894E+00
 -1      1203 2.35775E+00
 -1      1204 1.86422E+00
 -1      1205 1.40461E+00
 -1      1206 1.02093E+00
 -1      1207 7.21467E-01
 -1      1208 5.10925E-01
 -1      1209 3.71505E-01
 -1      1210 2.69736E-01
 -1      1211 1.93392E-01
 -1      1212 1.36833E-01
 -1      1213 9.53264E-02
 -1      1214 6.51268E-02
 -1      1215 4.63367E-02
 -1      1216 3.63842E-02
 -1      1217 2.92434E-02
 -1      1218 2.31737E-02
 -1      1219 1.81060E-02
 -1      1220 1.46127E-02
 -1      1221 1.24603E-02
 -1      1222 1.05733E-02
 -1      1223 8.77650E-03
 -1      1224 7.14480E-03
 -1      1225 5.75092E-03
 -1      1226 4.61093E-03
 -1      1227 3.65465E-03
 -1      1228 2.83973E-03
 -1      1229 2.15548E-03
 -1      1230 1.58471E-03
 -1      1231 1.19563E-03
 -1      1232 9.44002E-04
 -1      1233 6.87572E-04
 -1      1234 4.50427E-04
 -1      1235 2.21977E-04
 -1      1236 1.25100E-04
 -1      1237 1.53944E-04
 -1      1238 1.40707E-04
 -1      1239 9.57629E-05
 -1      1240 6.62557E-05
 -1      1241 8.92035E-05
 -1      1242 1.22238E-04
 -1      1243 1.38022E-04
 -1      1244 1.41520E-04
 -1      1245 1.37763E-04
 -1      1246 1.21076E-04
 -1      1247 8.80245E-05
 -1      1248 6.65478E-05
 -1      1249 9.61494E-05
 -1      1250 1.65645E-04
 -1      1251 2.16881E-04
 -1      1252 1.69957E-04
 -1      1253 2.58322E+01
 -1      1254 3.76351E+01
 -1      1255 4.89480E+01
 -1      1256 3.60046E+01
 -1      1257 1.77277E+01
 -1      1258 1.26325E+01
 -1      1259 1.32826E+01
 -1      1260 1.36943E+01
 -1      1261 1.35186E+01
 -1      1262 1.37312E+01
 -1      1263 2.52855E+01
 -1      1264 3.64514E+01
 -1      1265 3.10822E+01
 -1      1266 2.56271E+01
 -1      1267 2.55042E+01
 -1      1268 2.55703E+01
 -1      1269 3.15690E+01
 -1      1270 3.74647E+01
 -1      1271 2.56079E+01
 -1      1272 1.28149E+01
 -1      1273 1.21034E+01
 -1      1274 1.23280E+01
 -1      1275 1.22541E+01
 -1      1276 1.21802E+01
 -1      1277 1.19358E+01
 -1      1278 1.78721E+01
 -1      1279 3.65165E+01
 -1      1280 4.89802E+01
 -1      1281 3.66945E+01
 -1      1282 2.48755E+01
 -1      1283 1.29120E+01
 -1      1284 5.03307E+00
 -1      1285 9.57578E+00
 -1      1286 2.32224E+00
 -1      1287 3.19803E+00
 -1      1288 4.40452E+00
 -1      1289 1.84320E+00
 -1      1290 2.00636E+00
 -1      1291 2.25360E+00
 -1      1292 1.71777E+00
 -1      1293 1.74603E+00
 -1      1294 1.84056E+00
 -1      1295 1.66931E+00
 -1      1296 1.69215E+00
 -1      1297 1.71777E+00
 -1      1298 1.62771E+00
 -1      1299 1.64582E+00
 -1      1300 1.66866E+00
 -1      1301 1.65455E+00
 -1      1302 1.66849E+00
 -1      1303 1.68597E+00
 -1      1304 1.65455E+00
 -1      1305 1.65455E+00
 -1      1306 1.72675E+00
 -1      1307 1.48441E+00
 -1      1308 1.64371E+00
 -1      1309 1.71591E+00
 -1      1310 1.44633E+00
 -1      1311 1.29313E+00
 -1      1312 1.51380E+00
 -1      1313 2.46647E+00
 -1      1314 1.92703E+00
 -1      1315 1.80323E+00
 -1      1316 3.24982E+00
 -1      1317 2.91613E+00
 -1      1318 2.73361E+00
 -1      1319 3.62227E+00
 -1      1320 3.39628E+00
 -1      1321 3.32974E+00
 -1      1322 4.18413E+00
 -1      1323 3.81408E+00
 -1      1324 3.66802E+00
 -1      1325 6.18354E+00
 -1      1326 4.50842E+00
 -1      1327 4.18413E+00
 -1      1328 1.12498E+01
 -1      1329 9.55423E+00
 -1      1330 7.87912E+00
 -1      1331 1.12498E+01
 -1      1332 8.37613E+00
 -1      1333 3.84024E+00
 -1      1334 3.35534E+00
 -1      1335 2.87043E+00
 -1      1336 3.35534E+00
 -1      1337 2.39125E+00
 -1      1338 1.91207E+00
 -1      1339 2.39125E+00
 -1      1340 1.77339E+00
 -1      1341 1.71826E+00
 -1      1342 1.77339E+00
 -1      1343 1.81686E+00
 -1      1344 2.01488E+00
 -1      1345 1.73332E+00
 -1      1346 2.19785E+00
 -1      1347 2.39635E+00
 -1      1348 2.01488E+00
 -1      1349 2.59486E+00
 -1      1350 2.68384E+00
 -1      1351 2.39635E+00
 -1      1352 2.77282E+00
 -1      1353 2.77282E+00
 -1      1354 2.68384E+00
 -1      1355 2.74225E+00
 -1      1356 2.71567E+00
 -1      1357 2.74225E+00
 -1      1358 2.71967E+00
 -1      1359 2.71967E+00
 -1      1360 2.71567E+00
 -1      1361 2.53774E+00
 -1      1362 2.35581E+00
 -1      1363 2.53774E+00
 -1      1364 2.05038E+00
 -1      1365 1.74496E+00
 -1      1366 2.05038E+00
 -1      1367 1.50511E+00
 -1      1368 1.19871E+00
 -1      1369 1.50511E+00
 -1      1370 1.00987E+00
 -1      1371 8.72032E-01
 -1      1372 1.07641E+00
 -1      1373 7.27589E-01
 -1      1374 5.98683E-01
 -1      1375 7.43127E-01
 -1      1376 5.48532E-01
 -1      1377 4.98381E-01
 -1      1378 5.48532E-01
 -1      1379 4.65839E-01
 -1      1380 4.33297E-01
 -1      1381 4.65839E-01
 -1      1382 4.15517E-01
 -1      1383 3.97738E-01
 -1      1384 4.15517E-01
 -1      1385 3.83407E-01
 -1      1386 3.69076E-01
 -1      1387 3.83407E-01
 -1      1388 3.39574E-01
 -1      1389 3.10073E-01
 -1      1390 3.39574E-01
 -1      1391 2.79279E-01
 -1      1392 2.44802E-01
 -1      1393 2.79279E-01
 -1      1394 2.22699E-01
 -1      1395 1.95805E-01
 -1      1396 2.26383E-01
 -1      1397 1.79004E-01
 -1      1398 1.69612E-01
 -1      1399 1.87479E-01
 -1      1400 1.55838E-01
 -1      1401 1.43130E-01
 -1      1402 1.56904E-01
 -1      1403 1.29598E-01
 -1      1404 1.16067E-01
 -1      1405 1.29598E-01
 -1      1406 1.03343E-01
 -1      1407 9.05310E-02
 -1      1408 1.03343E-01
 -1      1409 8.07979E-02
 -1      1410 6.95303E-02
 -1      1411 8.08862E-02
 -1      1412 6.15564E-02
 -1      1413 5.52051E-02
 -1      1414 6.31791E-02
 -1      1415 5.09834E-02
 -1      1416 4.67617E-02
 -1      1417 5.09834E-02
 -1      1418 4.25795E-02
 -1      1419 3.83974E-02
 -1      1420 4.25795E-02
 -1      1421 3.45470E-02
 -1      1422 3.06965E-02
 -1      1423 3.45470E-02
 -1      1424 2.73240E-02
 -1      1425 2.39515E-02
 -1      1426 2.73240E-02
 -1      1427 2.11059E-02
 -1      1428 1.82603E-02
 -1      1429 2.11059E-02
 -1      1430 1.62894E-02
 -1      1431 1.42029E-02
 -1      1432 1.62894E-02
 -1      1433 1.29043E-02
 -1      1434 1.17213E-02
 -1      1435 1.30199E-02
 -1      1436 1.06230E-02
 -1      1437 9.52470E-03
 -1      1438 1.06230E-02
 -1      1439 8.55061E-03
 -1      1440 7.57652E-03
 -1      1441 8.55061E-03
 -1      1442 6.82999E-03
 -1      1443 5.99487E-03
 -1      1444 6.82999E-03
 -1      1445 5.36865E-03
 -1      1446 4.70610E-03
 -1      1447 5.45724E-03
 -1      1448 4.23292E-03
 -1      1449 3.71099E-03
 -1      1450 4.35783E-03
 -1      1451 3.31308E-03
 -1      1452 2.87836E-03
 -1      1453 3.48674E-03
 -1      1454 2.53116E-03
 -1      1455 2.17461E-03
 -1      1456 2.74164E-03
 -1      1457 1.87872E-03
 -1      1458 1.69196E-03
 -1      1459 2.09854E-03
 -1      1460 1.44834E-03
 -1      1461 1.31540E-03
 -1      1462 1.55903E-03
 -1      1463 1.19159E-03
 -1      1464 1.06778E-03
 -1      1465 1.19159E-03
 -1      1466 9.46184E-04
 -1      1467 8.24587E-04
 -1      1468 9.46184E-04
 -1      1469 7.56483E-04
 -1      1470 6.88379E-04
 -1      1471 7.56483E-04
 -1      1472 5.76028E-04
 -1      1473 4.63678E-04
 -1      1474 5.76028E-04
 -1      1475 3.46629E-04
 -1      1476 3.46629E-04
 -1      1477 1.75903E+00
 -1      1478 6.60020E+00
 -1      1479 6.60020E+00
 -1      1480 1.53104E+00
 -1      1481 1.53198E+00
 -1      1482 1.72354E+00
 -1      1483 2.00264E+00
 -1      1484 1.65169E+00
 -1      1485 1.61714E+00
 -1      1486 2.47108E+00
 -1      1487 2.26749E+00
 -1      1488 2.00264E+00
 -1      1489 2.88973E+00
 -1      1490 2.67467E+00
 -1      1491 2.47108E+00
 -1      1492 3.73699E+00
 -1      1493 3.10479E+00
 -1      1494 2.88973E+00
 -1      1495 5.98139E+00
 -1      1496 4.43084E+00
 -1      1497 3.79864E+00
 -1      1498 8.13361E+00
 -1      1499 7.47028E+00
 -1      1500 5.98139E+00
 -1      1501 9.02810E+00
 -1      1502 8.79694E+00
 -1      1503 8.13361E+00
 -1      1504 9.25926E+00
 -1      1505 9.25926E+00
 -1      1506 9.02810E+00
 -1      1507 4.81588E+00
 -1      1508 7.03757E+00
 -1      1509 7.03757E+00
 -1      1510 2.51324E+00
 -1      1511 3.55710E+00
 -1      1512 3.55710E+00
 -1      1513 3.07761E+00
 -1      1514 2.77997E+00
 -1      1515 2.56506E+00
 -1      1516 3.32342E+00
 -1      1517 3.32342E+00
 -1      1518 3.07761E+00
 -1      1519 3.15287E+00
 -1      1520 3.23815E+00
 -1      1521 3.23815E+00
 -1      1522 2.60502E+00
 -1      1523 2.87894E+00
 -1      1524 2.87894E+00
 -1      1525 2.11049E+00
 -1      1526 2.35775E+00
 -1      1527 2.35775E+00
 -1      1528 1.64611E+00
 -1      1529 1.89238E+00
 -1      1530 1.89238E+00
 -1      1531 1.23085E+00
 -1      1532 1.44419E+00
 -1      1533 1.47235E+00
 -1      1534 8.91044E-01
 -1      1535 1.06139E+00
 -1      1536 1.10096E+00
 -1      1537 6.28776E-01
 -1      1538 7.57895E-01
 -1      1539 7.98353E-01
 -1      1540 4.49306E-01
 -1      1541 5.30729E-01
 -1      1542 5.67157E-01
 -1      1543 3.20543E-01
 -1      1544 3.78540E-01
 -1      1545 3.98344E-01
 -1      1546 2.25962E-01
 -1      1547 2.69736E-01
 -1      1548 2.76770E-01
 -1      1549 1.61306E-01
 -1      1550 1.93877E-01
 -1      1551 1.93877E-01
 -1      1552 1.14358E-01
 -1      1553 1.38347E-01
 -1      1554 1.38831E-01
 -1      1555 7.98118E-02
 -1      1556 9.73295E-02
 -1      1557 9.88433E-02
 -1      1558 5.46036E-02
 -1      1559 6.72854E-02
 -1      1560 6.92885E-02
 -1      1561 4.02284E-02
 -1      1562 4.63367E-02
 -1      1563 4.84953E-02
 -1      1564 3.25399E-02
 -1      1565 3.63842E-02
 -1      1566 3.63842E-02
 -1      1567 2.59470E-02
 -1      1568 2.92434E-02
 -1      1569 2.92434E-02
 -1      1570 2.04004E-02
 -1      1571 2.31737E-02
 -1      1572 2.31737E-02
 -1      1573 1.58116E-02
 -1      1574 1.81060E-02
 -1      1575 1.81060E-02
 -1      1576 1.34139E-02
 -1      1577 1.46127E-02
 -1      1578 1.46127E-02
 -1      1579 1.15066E-02
 -1      1580 1.24603E-02
 -1      1581 1.24603E-02
 -1      1582 9.64001E-03
 -1      1583 1.05733E-02
 -1      1584 1.05733E-02
 -1      1585 7.91299E-03
 -1      1586 8.77650E-03
 -1      1587 8.77650E-03
 -1      1588 6.37661E-03
 -1      1589 7.14480E-03
 -1      1590 7.14480E-03
 -1      1591 5.12522E-03
 -1      1592 5.75092E-03
 -1      1593 5.75092E-03
 -1      1594 4.09664E-03
 -1      1595 4.61093E-03
 -1      1596 4.61093E-03
 -1      1597 3.21267E-03
 -1      1598 3.65465E-03
 -1      1599 3.65465E-03
 -1      1600 2.48782E-03
 -1      1601 2.86076E-03
 -1      1602 2.86076E-03
 -1      1603 1.87773E-03
 -1      1604 2.18904E-03
 -1      1605 2.21007E-03
 -1      1606 1.36705E-03
 -1      1607 1.62651E-03
 -1      1608 1.66007E-03
 -1      1609 1.06602E-03
 -1      1610 1.19563E-03
 -1      1611 1.23743E-03
 -1      1612 8.21988E-04
 -1      1613 9.44002E-04
 -1      1614 9.44002E-04
 -1      1615 5.53155E-04
 -1      1616 6.87572E-04
 -1      1617 6.87572E-04
 -1      1618 3.47698E-04
 -1      1619 4.50427E-04
 -1      1620 4.50427E-04
 -1      1621 2.50821E-04
 -1      1622 1.78504E-04
 -1      1623 1.78504E-04
 -1      1624 1.65267E-04
 -1      1625 1.78504E-04
 -1      1626 2.03064E-04
 -1      1627 1.29612E-04
 -1      1628 1.61319E-04
 -1      1629 1.99116E-04
 -1      1630 9.12831E-05
 -1      1631 8.90840E-05
 -1      1632 1.54640E-04
 -1      1633 1.51792E-04
 -1      1634 1.31043E-04
 -1      1635 1.53872E-04
 -1      1636 1.89843E-04
 -1      1637 1.77557E-04
 -1      1638 2.19397E-04
 -1      1639 2.03707E-04
 -1      1640 2.00209E-04
 -1      1641 2.55528E-04
 -1      1642 2.03707E-04
 -1      1643 2.03707E-04
 -1      1644 2.65893E-04
 -1      1645 1.99845E-04
 -1      1646 2.03602E-04
 -1      1647 2.65788E-04
 -1      1648 1.75617E-04
 -1      1649 1.88548E-04
 -1      1650 2.54386E-04
 -1      1651 1.30590E-04
 -1      1652 1.50711E-04
 -1      1653 2.18182E-04
 -1      1654 9.02121E-05
 -1      1655 9.15680E-05
 -1      1656 1.54254E-04
 -1      1657 1.60713E-04
 -1      1658 1.29755E-04
 -1      1659 1.54775E-04
 -1      1660 1.99251E-04
 -1      1661 1.60713E-04
 -1      1662 1.94318E-04
 -1      1663 2.45591E-04
 -1      1664 2.32893E-04
 -1      1665 2.27960E-04
 -1      1666 3.62640E-04
 -1      1667 2.87877E+01
 -1      1668 2.82977E+01
 -1      1669 3.93971E+01
 -1      1670 2.80842E+01
 -1      1671 4.89480E+01
 -1      1672 4.89480E+01
 -1      1673 2.35880E+01
 -1      1674 3.65314E+01
 -1      1675 1.23941E+01
 -1      1676 1.77277E+01
 -1      1677 1.24840E+01
 -1      1678 1.22456E+01
 -1      1679 1.32826E+01
 -1      1680 1.28709E+01
 -1      1681 1.36943E+01
 -1      1682 1.36943E+01
 -1      1683 1.33428E+01
 -1      1684 1.35186E+01
 -1      1685 1.32692E+01
 -1      1686 1.28808E+01
 -1      1687 2.55592E+01
 -1      1688 1.43932E+01
 -1      1689 3.64514E+01
 -1      1690 3.64514E+01
 -1      1691 2.98481E+01
 -1      1692 3.52174E+01
 -1      1693 2.66175E+01
 -1      1694 2.67034E+01
 -1      1695 3.19038E+01
 -1      1696 3.19408E+01
 -1      1697 2.65556E+01
 -1      1698 2.64525E+01
 -1      1699 3.64567E+01
 -1      1700 3.05610E+01
 -1      1701 3.74647E+01
 -1      1702 3.74647E+01
 -1      1703 1.37510E+01
 -1      1704 2.56079E+01
 -1      1705 1.15903E+01
 -1      1706 1.25264E+01
 -1      1707 1.21034E+01
 -1      1708 1.18788E+01
 -1      1709 1.23280E+01
 -1      1710 1.23280E+01
 -1      1711 1.19496E+01
 -1      1712 1.20234E+01
 -1      1713 1.21802E+01
 -1      1714 1.21802E+01
 -1      1715 1.16914E+01
 -1      1716 1.19358E+01
 -1      1717 1.77219E+01
 -1      1718 1.15411E+01
 -1      1719 3.72190E+01
 -1      1720 2.47553E+01
 -1      1721 1.84244E+01
 -1      1722 4.89802E+01
 -1      1723 4.89802E+01
 -1      1724 2.71398E+01
 -1      1725 3.94254E+01
 -1      1726 2.82977E+01
 -1      1727 2.78310E+01
 -1      1728 1.82545E+01
 -1      1729 3.65314E+01
 -1      1730 2.50821E-04
 -1      1731 2.75381E-04
 -1      1732 3.05497E+01
 -1      1733 3.93971E+01
 -1      1734 3.12532E+01
 -1      1735 1.22456E+01
 -1      1736 1.24840E+01
 -1      1737 1.32826E+01
 -1      1738 1.35186E+01
 -1      1739 1.28808E+01
 -1      1740 1.35428E+01
 -1      1741 2.55592E+01
 -1      1742 3.52174E+01
 -1      1743 3.08386E+01
 -1      1744 3.30172E+01
 -1      1745 3.28891E+01
 -1      1746 3.14433E+01
 -1      1747 3.64567E+01
 -1      1748 2.56079E+01
 -1      1749 1.25264E+01
 -1      1750 1.15903E+01
 -1      1751 1.21034E+01
 -1      1752 1.20234E+01
 -1      1753 1.19496E+01
 -1      1754 1.19358E+01
 -1      1755 1.15411E+01
 -1      1756 3.94254E+01
 -1      1757 3.05619E+01
 -1      1758 9.57578E+00
 -1      1759 3.72190E+01
 -1      1760 1.60398E+00
 -1      1761 1.91986E+00
 -1      1762 2.56609E+00
 -1      1763 4.40113E+00
 -1      1764 1.91647E+00
 -1      1765 1.52449E+00
 -1      1766 1.55011E+00
 -1      1767 1.64067E+00
 -1      1768 1.66415E+00
 -1      1769 1.49649E+00
 -1      1770 1.75181E+00
 -1      1771 1.71102E+00
 -1      1772 1.70651E+00
 -1      1773 1.87157E+00
 -1      1774 1.87157E+00
 -1      1775 1.89662E+00
 -1      1776 1.86073E+00
 -1      1777 1.87157E+00
 -1      1778 2.01638E+00
 -1      1779 1.65393E+00
 -1      1780 1.84520E+00
 -1      1781 2.00086E+00
 -1      1782 2.38676E+00
 -1      1783 1.90606E+00
 -1      1784 2.23746E+00
 -1      1785 3.20069E+00
 -1      1786 2.75103E+00
 -1      1787 2.85385E+00
 -1      1788 3.53851E+00
 -1      1789 3.39205E+00
 -1      1790 3.40946E+00
 -1      1791 4.17349E+00
 -1      1792 3.98167E+00
 -1      1793 4.04398E+00
 -1      1794 3.95490E+00
 -1      1795 3.63060E+00
 -1      1796 3.94426E+00
 -1      1797 6.71221E+00
 -1      1798 3.34151E+00
 -1      1799 2.78799E+00
 -1      1800 2.06259E+00
 -1      1801 5.03990E+00
 -1      1802 1.99655E+00
 -1      1803 2.22360E+00
 -1      1804 2.33561E+00
 -1      1805 3.37869E+01
 -1      1806 2.20258E+01
 -1      1807 3.20148E+00
 -1      1808 2.27807E+00
 -1      1809 1.79889E+00
 -1      1810 1.71465E+00
 -1      1811 1.57597E+00
 -1      1812 1.60147E+00
 -1      1813 1.58724E+00
 -1      1814 1.68584E+00
 -1      1815 1.52849E+00
 -1      1816 1.77137E+00
 -1      1817 1.95433E+00
 -1      1818 1.62529E+00
 -1      1819 2.05059E+00
 -1      1820 2.24910E+00
 -1      1821 1.80708E+00
 -1      1822 2.29623E+00
 -1      1823 2.38521E+00
 -1      1824 1.95047E+00
 -1      1825 2.34902E+00
 -1      1826 2.31844E+00
 -1      1827 1.96141E+00
 -1      1828 2.31908E+00
 -1      1829 2.32307E+00
 -1      1830 1.92585E+00
 -1      1831 2.29392E+00
 -1      1832 2.11200E+00
 -1      1833 1.89733E+00
 -1      1834 1.98782E+00
 -1      1835 1.68239E+00
 -1      1836 1.74400E+00
 -1      1837 1.52383E+00
 -1      1838 1.28398E+00
 -1      1839 1.46126E+00
 -1      1840 1.12919E+00
 -1      1841 9.40345E-01
 -1      1842 1.14791E+00
 -1      1843 7.71065E-01
 -1      1844 6.26621E-01
 -1      1845 8.23839E-01
 -1      1846 4.97249E-01
 -1      1847 4.47098E-01
 -1      1848 5.25187E-01
 -1      1849 3.54082E-01
 -1      1850 3.21541E-01
 -1      1851 3.02800E-01
 -1      1852 3.26432E-01
 -1      1853 3.08652E-01
 -1      1854 2.14676E-01
 -1      1855 3.32249E-01
 -1      1856 3.17918E-01
 -1      1857 2.43164E-01
 -1      1858 3.18115E-01
 -1      1859 2.88613E-01
 -1      1860 2.66957E-01
 -1      1861 2.75010E-01
 -1      1862 2.44216E-01
 -1      1863 2.53551E-01
 -1      1864 2.30239E-01
 -1      1865 2.08136E-01
 -1      1866 2.25970E-01
 -1      1867 1.94164E-01
 -1      1868 1.77363E-01
 -1      1869 1.98020E-01
 -1      1870 1.63338E-01
 -1      1871 1.49563E-01
 -1      1872 1.70022E-01
 -1      1873 1.34262E-01
 -1      1874 1.20731E-01
 -1      1875 1.40696E-01
 -1      1876 1.06101E-01
 -1      1877 9.33772E-02
 -1      1878 1.10765E-01
 -1      1879 8.08862E-02
 -1      1880 7.11530E-02
 -1      1881 8.36440E-02
 -1      1882 6.25833E-02
 -1      1883 5.46093E-02
 -1      1884 6.25833E-02
 -1      1885 4.74278E-02
 -1      1886 4.32061E-02
 -1      1887 4.68321E-02
 -1      1888 3.77071E-02
 -1      1889 3.35250E-02
 -1      1890 3.41516E-02
 -1      1891 3.12423E-02
 -1      1892 2.73919E-02
 -1      1893 2.63700E-02
 -1      1894 2.54159E-02
 -1      1895 2.20434E-02
 -1      1896 2.21113E-02
 -1      1897 2.01804E-02
 -1      1898 1.73349E-02
 -1      1899 1.82724E-02
 -1      1900 1.56653E-02
 -1      1901 1.36944E-02
 -1      1902 1.47398E-02
 -1      1903 1.22534E-02
 -1      1904 1.09548E-02
 -1      1905 1.16293E-02
 -1      1906 1.00325E-02
 -1      1907 8.93423E-03
 -1      1908 9.26600E-03
 -1      1909 8.30768E-03
 -1      1910 7.33359E-03
 -1      1911 7.71721E-03
 -1      1912 6.72352E-03
 -1      1913 5.97699E-03
 -1      1914 6.48059E-03
 -1      1915 5.42597E-03
 -1      1916 4.79974E-03
 -1      1917 5.31949E-03
 -1      1918 4.36518E-03
 -1      1919 3.89200E-03
 -1      1920 4.33391E-03
 -1      1921 3.50201E-03
 -1      1922 3.10410E-03
 -1      1923 3.50936E-03
 -1      1924 2.78557E-03
 -1      1925 2.43836E-03
 -1      1926 2.80083E-03
 -1      1927 2.17653E-03
 -1      1928 1.88064E-03
 -1      1929 2.22046E-03
 -1      1930 1.65089E-03
 -1      1931 1.40727E-03
 -1      1932 1.72888E-03
 -1      1933 1.21175E-03
 -1      1934 1.08794E-03
 -1      1935 1.30361E-03
 -1      1936 9.26908E-04
 -1      1937 8.05311E-04
 -1      1938 9.47062E-04
 -1      1939 7.09178E-04
 -1      1940 6.41074E-04
 -1      1941 6.89902E-04
 -1      1942 5.46841E-04
 -1      1943 4.34491E-04
 -1      1944 3.33452E-04
 -1      1945 4.99536E-04
 -1      1946 2.35014E+00
 -1      1947 2.22949E+00
 -1      1948 2.72955E+00
 -1      1949 2.76474E+00
 -1      1950 2.49989E+00
 -1      1951 3.11224E+00
 -1      1952 3.04237E+00
 -1      1953 2.83878E+00
 -1      1954 3.33602E+00
 -1      1955 2.99993E+00
 -1      1956 2.78487E+00
 -1      1957 3.15257E+00
 -1      1958 4.33730E+00
 -1      1959 3.64344E+00
 -1      1960 3.53858E+00
 -1      1961 6.22753E+00
 -1      1962 4.73864E+00
 -1      1963 4.58344E+00
 -1      1964 7.04171E+00
 -1      1965 6.37838E+00
 -1      1966 5.13563E+00
 -1      1967 7.05149E+00
 -1      1968 6.82032E+00
 -1      1969 5.06509E+00
 -1      1970 3.89325E+00
 -1      1971 6.11494E+00
 -1      1972 3.90716E+00
 -1      1973 2.67968E+00
 -1      1974 3.93846E+00
 -1      1975 3.01583E+00
 -1      1976 2.94105E+00
 -1      1977 2.67432E+00
 -1      1978 3.05568E+00
 -1      1979 3.03188E+00
 -1      1980 2.78607E+00
 -1      1981 2.89533E+00
 -1      1982 2.81678E+00
 -1      1983 2.90205E+00
 -1      1984 2.61051E+00
 -1      1985 2.41974E+00
 -1      1986 2.69367E+00
 -1      1987 2.35758E+00
 -1      1988 2.02670E+00
 -1      1989 2.27397E+00
 -1      1990 2.08869E+00
 -1      1991 1.62741E+00
 -1      1992 1.84552E+00
 -1      1993 1.76173E+00
 -1      1994 1.24568E+00
 -1      1995 1.44760E+00
 -1      1996 1.40074E+00
 -1      1997 9.20518E-01
 -1      1998 1.08998E+00
 -1      1999 1.06523E+00
 -1      2000 6.62566E-01
 -1      2001 7.95715E-01
 -1      2002 7.84731E-01
 -1      2003 4.69110E-01
 -1      2004 5.67157E-01
 -1      2005 5.64519E-01
 -1      2006 3.27578E-01
 -1      2007 3.98344E-01
 -1      2008 3.98344E-01
 -1      2009 2.25331E-01
 -1      2010 2.76139E-01
 -1      2011 2.76139E-01
 -1      2012 1.61791E-01
 -1      2013 1.93877E-01
 -1      2014 1.93246E-01
 -1      2015 1.15872E-01
 -1      2016 1.38831E-01
 -1      2017 1.38831E-01
 -1      2018 8.18148E-02
 -1      2019 9.88433E-02
 -1      2020 9.88433E-02
 -1      2021 5.67622E-02
 -1      2022 6.92885E-02
 -1      2023 6.92885E-02
 -1      2024 3.93623E-02
 -1      2025 4.76292E-02
 -1      2026 4.76292E-02
 -1      2027 2.90493E-02
 -1      2028 3.28935E-02
 -1      2029 3.20274E-02
 -1      2030 2.31253E-02
 -1      2031 2.64218E-02
 -1      2032 2.29312E-02
 -1      2033 1.86045E-02
 -1      2034 2.13778E-02
 -1      2035 1.85562E-02
 -1      2036 1.47295E-02
 -1      2037 1.70239E-02
 -1      2038 1.52280E-02
 -1      2039 1.21496E-02
 -1      2040 1.33485E-02
 -1      2041 1.22664E-02
 -1      2042 1.00210E-02
 -1      2043 1.09746E-02
 -1      2044 9.71036E-03
 -1      2045 8.24685E-03
 -1      2046 9.18014E-03
 -1      2047 7.69450E-03
 -1      2048 6.90908E-03
 -1      2049 7.77259E-03
 -1      2050 6.37942E-03
 -1      2051 5.68320E-03
 -1      2052 6.45139E-03
 -1      2053 5.44747E-03
 -1      2054 4.66988E-03
 -1      2055 5.29557E-03
 -1      2056 4.60216E-03
 -1      2057 3.80336E-03
 -1      2058 4.31765E-03
 -1      2059 3.86231E-03
 -1      2060 3.03540E-03
 -1      2061 3.47739E-03
 -1      2062 3.18411E-03
 -1      2063 2.39243E-03
 -1      2064 2.74434E-03
 -1      2065 2.56708E-03
 -1      2066 1.84020E-03
 -1      2067 2.13898E-03
 -1      2068 2.02257E-03
 -1      2069 1.37219E-03
 -1      2070 1.62341E-03
 -1      2071 1.55232E-03
 -1      2072 1.01792E-03
 -1      2073 1.18934E-03
 -1      2074 1.15268E-03
 -1      2075 7.86318E-04
 -1      2076 9.08332E-04
 -1      2077 8.60237E-04
 -1      2078 5.48769E-04
 -1      2079 6.83185E-04
 -1      2080 6.47516E-04
 -1      2081 3.38176E-04
 -1      2082 4.40905E-04
 -1      2083 4.36518E-04
 -1      2084 2.65859E-04
 -1      2085 1.64784E-04
 -1      2086 2.05312E-04
 -1      2087 3.01912E-04
 -1      2088 3.05860E-04
 -1      2089 3.12056E-04
 -1      2090 3.05860E-04
 -1      2091 3.05860E-04
 -1      2092 3.68655E-04
 -1      2093 4.08656E-04
 -1      2094 2.26605E-04
 -1      2095 1.86845E-04
 -1      2096 2.37518E-04
 -1      2097 2.90568E-04
 -1      2098 2.64803E-04
 -1      2099 2.97776E-04
 -1      2100 3.18564E-04
 -1      2101 3.08199E-04
 -1      2102 3.53605E-04
 -1      2103 3.18564E-04
 -1      2104 3.18564E-04
 -1      2105 3.71236E-04
 -1      2106 3.17656E-04
 -1      2107 3.17760E-04
 -1      2108 3.70432E-04
 -1      2109 3.06358E-04
 -1      2110 3.17656E-04
 -1      2111 3.69628E-04
 -1      2112 2.64161E-04
 -1      2113 2.89068E-04
 -1      2114 3.52337E-04
 -1      2115 1.86471E-04
 -1      2116 2.25493E-04
 -1      2117 2.96378E-04
 -1      2118 2.01511E-04
 -1      2119 1.61968E-04
 -1      2120 2.33207E-04
 -1      2121 2.61708E-04
 -1      2122 2.61708E-04
 -1      2123 2.68901E-04
 -1      2124 3.93971E+01
 -1      2125 2.98462E+01
 -1      2126 3.47081E+01
 -1      2127 3.47081E+01
 -1      2128 3.40046E+01
 -1      2129 3.47081E+01
 -1      2130 2.10113E+01
 -1      2131 3.34279E+01
 -1      2132 1.73174E+01
 -1      2133 1.02839E+01
 -1      2134 1.38853E+01
 -1      2135 3.08043E+01
 -1      2136 3.01130E+01
 -1      2137 3.42592E+01
 -1      2138 1.13203E+01
 -1      2139 1.71807E+01
 -1      2140 1.40772E+01
 -1      2141 1.52086E+00
 -1      2142 1.61803E+00
 -1      2143 1.28428E+00
 -1      2144 1.32757E+00
 -1      2145 1.17537E+01
 -1      2146 1.13668E+01
 -1      2147 1.26739E+01
 -1      2148 1.22621E+01
 -1      2149 1.11449E+01
 -1      2150 1.17102E+01
 -1      2151 1.18859E+01
 -1      2152 1.06051E+01
 -1      2153 1.10671E+01
 -1      2154 9.43445E+00
 -1      2155 1.08192E+01
 -1      2156 9.69511E+00
 -1      2157 2.47089E+01
 -1      2158 1.38166E+01
 -1      2159 2.85747E+01
 -1      2160 2.98088E+01
 -1      2161 1.80663E+01
 -1      2162 2.62386E+01
 -1      2163 2.93833E+01
 -1      2164 3.83404E+01
 -1      2165 3.30172E+01
 -1      2166 3.15619E+01
 -1      2167 3.28069E+01
 -1      2168 3.82582E+01
 -1      2169 3.03141E+01
 -1      2170 2.63087E+01
 -1      2171 3.02403E+01
 -1      2172 2.92323E+01
 -1      2173 1.34265E+01
 -1      2174 2.52833E+01
 -1      2175 9.13671E+00
 -1      2176 1.03613E+01
 -1      2177 1.00367E+01
 -1      2178 1.01997E+01
 -1      2179 9.91124E+00
 -1      2180 1.11400E+01
 -1      2181 1.09155E+01
 -1      2182 9.23637E+00
 -1      2183 1.14920E+01
 -1      2184 1.17965E+01
 -1      2185 1.15105E+01
 -1      2186 1.12799E+01
 -1      2187 1.10529E+01
 -1      2188 1.03463E+01
 -1      2189 1.05907E+01
 -1      2190 9.03290E+00
 -1      2191 9.18311E+00
 -1      2192 2.98707E+01
 -1      2193 3.94254E+01
 -1      2194 9.77867E+00
 -1      2195 9.92717E+00
 -1      2196 9.04834E+00
 -1      2197 3.01130E+01
 -1      2198 2.42321E+01
 -1      2199 2.71657E+00
 -1      2200 2.12421E+00
 -1      2201 3.40046E+01
 -1      2202 3.81630E+01
 -1      2203 2.95350E-04
 -1      2204 2.38770E+01
 -1      2205 7.92589E+00
 -1      2206 9.92101E+00
 -1      2207 1.06086E+01
 -1      2208 7.74610E+00
 -1      2209 1.80589E+01
 -1      2210 2.40977E+01
 -1      2211 3.83404E+01
 -1      2212 3.83404E+01
 -1      2213 3.82582E+01
 -1      2214 2.39747E+01
 -1      2215 7.88140E+00
 -1      2216 8.85338E+00
 -1      2217 1.08655E+01
 -1      2218 1.10894E+01
 -1      2219 7.24171E+00
 -1      2220 1.02392E+01
 -1      2221 3.16778E+01
 -1      2222 7.83801E+00
 -1      2223 3.85756E+00
 -1      2224 3.62462E+00
 -1      2225 1.95387E+00
 -1      2226 1.88352E+00
 -1      2227 1.63968E+00
 -1      2228 1.50001E+00
 -1      2229 1.88705E+00
 -1      2230 2.31923E+00
 -1      2231 2.31923E+00
 -1      2232 2.30798E+00
 -1      2233 2.32351E+00
 -1      2234 2.62635E+00
 -1      2235 2.75696E+00
 -1      2236 2.50484E+00
 -1      2237 2.82748E+00
 -1      2238 3.59321E+00
 -1      2239 3.22895E+00
 -1      2240 3.49633E+00
 -1      2241 3.89604E+00
 -1      2242 3.70469E+00
 -1      2243 4.07979E+00
 -1      2244 4.61989E+00
 -1      2245 4.17673E+00
 -1      2246 4.47195E+00
 -1      2247 1.30796E+00
 -1      2248 1.22371E+00
 -1      2249 3.67918E+00
 -1      2250 3.52943E+00
 -1      2251 4.42450E+00
 -1      2252 1.68018E+00
 -1      2253 1.24168E+00
 -1      2254 8.63927E-01
 -1      2255 1.03394E+00
 -1      2256 1.34555E+00
 -1      2257 1.35682E+00
 -1      2258 1.05203E+00
 -1      2259 1.44672E+00
 -1      2260 1.53225E+00
 -1      2261 1.26378E+00
 -1      2262 1.60749E+00
 -1      2263 1.70375E+00
 -1      2264 1.42892E+00
 -1      2265 1.73550E+00
 -1      2266 1.78263E+00
 -1      2267 1.53591E+00
 -1      2268 1.75287E+00
 -1      2269 1.71668E+00
 -1      2270 1.53791E+00
 -1      2271 1.64603E+00
 -1      2272 1.64666E+00
 -1      2273 1.43750E+00
 -1      2274 1.67966E+00
 -1      2275 1.65051E+00
 -1      2276 1.39985E+00
 -1      2277 1.62924E+00
 -1      2278 1.50506E+00
 -1      2279 1.41157E+00
 -1      2280 1.43810E+00
 -1      2281 1.27954E+00
 -1      2282 1.32334E+00
 -1      2283 1.19031E+00
 -1      2284 1.03552E+00
 -1      2285 1.16715E+00
 -1      2286 9.01425E-01
 -1      2287 7.32145E-01
 -1      2288 9.43830E-01
 -1      2289 6.25306E-01
 -1      2290 4.95934E-01
 -1      2291 7.02892E-01
 -1      2292 3.95389E-01
 -1      2293 3.02374E-01
 -1      2294 4.95508E-01
 -1      2295 2.73107E-01
 -1      2296 2.77998E-01
 -1      2297 3.65697E-01
 -1      2298 2.42939E-01
 -1      2299 2.66536E-01
 -1      2300 3.01371E-01
 -1      2301 2.59065E-01
 -1      2302 2.59262E-01
 -1      2303 2.58841E-01
 -1      2304 2.54821E-01
 -1      2305 2.41217E-01
 -1      2306 2.46929E-01
 -1      2307 2.30297E-01
 -1      2308 2.16319E-01
 -1      2309 2.31567E-01
 -1      2310 2.04927E-01
 -1      2311 1.90954E-01
 -1      2312 2.09254E-01
 -1      2313 1.77625E-01
 -1      2314 1.63600E-01
 -1      2315 1.84532E-01
 -1      2316 1.49311E-01
 -1      2317 1.34010E-01
 -1      2318 1.56914E-01
 -1      2319 1.19617E-01
 -1      2320 1.04987E-01
 -1      2321 1.28232E-01
 -1      2322 9.17673E-02
 -1      2323 7.92763E-02
 -1      2324 1.00620E-01
 -1      2325 6.78725E-02
 -1      2326 5.93028E-02
 -1      2327 7.59958E-02
 -1      2328 4.99267E-02
 -1      2329 4.27451E-02
 -1      2330 5.52159E-02
 -1      2331 3.53390E-02
 -1      2332 2.98401E-02
 -1      2333 3.84336E-02
 -1      2334 2.46943E-02
 -1      2335 2.24117E-02
 -1      2336 2.58818E-02
 -1      2337 1.93030E-02
 -1      2338 1.73270E-02
 -1      2339 1.76274E-02
 -1      2340 1.61564E-02
 -1      2341 1.42935E-02
 -1      2342 1.33482E-02
 -1      2343 1.35577E-02
 -1      2344 1.18881E-02
 -1      2345 1.14417E-02
 -1      2346 1.10963E-02
 -1      2347 9.65533E-03
 -1      2348 9.91417E-03
 -1      2349 8.87900E-03
 -1      2350 7.95675E-03
 -1      2351 8.34608E-03
 -1      2352 7.23897E-03
 -1      2353 6.61243E-03
 -1      2354 6.85197E-03
 -1      2355 6.15427E-03
 -1      2356 5.54419E-03
 -1      2357 5.67603E-03
 -1      2358 5.17766E-03
 -1      2359 4.62663E-03
 -1      2360 4.85133E-03
 -1      2361 4.25632E-03
 -1      2362 3.82176E-03
 -1      2363 4.11448E-03
 -1      2364 3.48643E-03
 -1      2365 3.09644E-03
 -1      2366 3.40884E-03
 -1      2367 2.81023E-03
 -1      2368 2.49169E-03
 -1      2369 2.78730E-03
 -1      2370 2.23042E-03
 -1      2371 1.96858E-03
 -1      2372 2.23981E-03
 -1      2373 1.73927E-03
 -1      2374 1.50953E-03
 -1      2375 1.74923E-03
 -1      2376 1.33641E-03
 -1      2377 1.14088E-03
 -1      2378 1.34680E-03
 -1      2379 9.91379E-04
 -1      2380 8.30352E-04
 -1      2381 1.02417E-03
 -1      2382 7.05818E-04
 -1      2383 6.09685E-04
 -1      2384 7.50135E-04
 -1      2385 5.89656E+00
 -1      2386 6.15406E+00
 -1      2387 5.84704E+00
 -1      2388 5.20352E+00
 -1      2389 4.12107E+00
 -1      2390 5.05762E+00
 -1      2391 3.83958E+00
 -1      2392 3.79437E+00
 -1      2393 4.03673E+00
 -1      2394 4.04210E+00
 -1      2395 4.82064E+00
 -1      2396 3.41676E+00
 -1      2397 3.57174E+00
 -1      2398 4.55816E+00
 -1      2399 2.80439E+00
 -1      2400 2.93422E+00
 -1      2401 3.61064E+00
 -1      2402 2.49644E+00
 -1      2403 2.61955E+00
 -1      2404 2.94326E+00
 -1      2405 2.11999E+00
 -1      2406 2.26577E+00
 -1      2407 2.52774E+00
 -1      2408 1.70338E+00
 -1      2409 1.88456E+00
 -1      2410 2.06164E+00
 -1      2411 1.31178E+00
 -1      2412 1.49158E+00
 -1      2413 1.61441E+00
 -1      2414 9.79950E-01
 -1      2415 1.13565E+00
 -1      2416 1.22649E+00
 -1      2417 7.15795E-01
 -1      2418 8.40597E-01
 -1      2419 9.11013E-01
 -1      2420 5.13655E-01
 -1      2421 6.09064E-01
 -1      2422 6.64930E-01
 -1      2423 3.62918E-01
 -1      2424 4.33684E-01
 -1      2425 4.78229E-01
 -1      2426 2.52488E-01
 -1      2427 3.03926E-01
 -1      2428 3.39266E-01
 -1      2429 1.78037E-01
 -1      2430 2.09491E-01
 -1      2431 2.37279E-01
 -1      2432 1.24060E-01
 -1      2433 1.47020E-01
 -1      2434 1.63265E-01
 -1      2435 8.48797E-02
 -1      2436 1.01908E-01
 -1      2437 1.10096E-01
 -1      2438 5.67061E-02
 -1      2439 6.92324E-02
 -1      2440 7.22973E-02
 -1      2441 3.79407E-02
 -1      2442 4.70737E-02
 -1      2443 4.70176E-02
 -1      2444 2.61604E-02
 -1      2445 3.26292E-02
 -1      2446 3.20737E-02
 -1      2447 2.03037E-02
 -1      2448 2.29312E-02
 -1      2449 2.35329E-02
 -1      2450 1.68086E-02
 -1      2451 1.85562E-02
 -1      2452 1.85562E-02
 -1      2453 1.36474E-02
 -1      2454 1.52280E-02
 -1      2455 1.52280E-02
 -1      2456 1.08854E-02
 -1      2457 1.22664E-02
 -1      2458 1.22664E-02
 -1      2459 8.54214E-03
 -1      2460 9.71718E-03
 -1      2461 9.71718E-03
 -1      2462 6.96043E-03
 -1      2463 7.80124E-03
 -1      2464 7.80806E-03
 -1      2465 5.88734E-03
 -1      2466 6.36160E-03
 -1      2467 6.46834E-03
 -1      2468 4.94519E-03
 -1      2469 5.40288E-03
 -1      2470 5.38506E-03
 -1      2471 4.13801E-03
 -1      2472 4.52564E-03
 -1      2473 4.48104E-03
 -1      2474 3.44808E-03
 -1      2475 3.80030E-03
 -1      2476 3.72378E-03
 -1      2477 2.80470E-03
 -1      2478 3.13068E-03
 -1      2479 3.06867E-03
 -1      2480 2.24722E-03
 -1      2481 2.53828E-03
 -1      2482 2.48484E-03
 -1      2483 1.75850E-03
 -1      2484 2.01196E-03
 -1      2485 1.98316E-03
 -1      2486 1.33597E-03
 -1      2487 1.55276E-03
 -1      2488 1.54215E-03
 -1      2489 9.78710E-04
 -1      2490 1.16156E-03
 -1      2491 1.16200E-03
 -1      2492 7.22089E-04
 -1      2493 8.31677E-04
 -1      2494 8.40561E-04
 -1      2495 5.11101E-04
 -1      2496 6.14233E-04
 -1      2497 5.85673E-04
 -1      2498 4.76520E-04
 -1      2499 3.79493E-04
 -1      2500 3.41296E-04
 -1      2501 4.27147E-04
 -1      2502 4.09516E-04
 -1      2503 4.53036E-04
 -1      2504 3.32173E-04
 -1      2505 4.28773E-04
 -1      2506 3.12149E-04
 -1      2507 2.90087E-04
 -1      2508 4.06804E-04
 -1      2509 3.93866E-04
 -1      2510 4.27147E-04
 -1      2511 4.27147E-04
 -1      2512 4.83059E-04
 -1      2513 4.26089E-04
 -1      2514 4.26893E-04
 -1      2515 4.82804E-04
 -1      2516 4.25926E-04
 -1      2517 4.25926E-04
 -1      2518 4.82387E-04
 -1      2519 4.08238E-04
 -1      2520 4.25528E-04
 -1      2521 4.81826E-04
 -1      2522 3.42240E-04
 -1      2523 3.80909E-04
 -1      2524 4.54100E-04
 -1      2525 2.90618E-04
 -1      2526 3.15120E-04
 -1      2527 3.99651E-04
 -1      2528 3.50814E-04
 -1      2529 2.90618E-04
 -1      2530 3.72531E-04
 -1      2531 3.81630E+01
 -1      2532 3.81630E+01
 -1      2533 1.59105E+01
 -1      2534 2.18797E+01
 -1      2535 4.43983E+00
 -1      2536 4.36578E+00
 -1      2537 4.78298E+00
 -1      2538 9.76166E+00
 -1      2539 1.35923E+01
 -1      2540 3.67201E-04
 -1      2541 7.46036E+00
 -1      2542 6.20933E+00
 -1      2543 7.95400E+00
 -1      2544 6.36587E+00
 -1      2545 2.15571E+01
 -1      2546 1.59186E+01
 -1      2547 7.66986E+00
 -1      2548 8.58972E+00
 -1      2549 1.22814E+01
 -1      2550 1.72384E+01
 -1      2551 3.42592E+01
 -1      2552 3.03554E+01
 -1      2553 1.32904E+01
 -1      2554 8.58202E+00
 -1      2555 6.86546E+00
 -1      2556 1.06153E+01
 -1      2557 2.19822E+00
 -1      2558 2.07846E+00
 -1      2559 2.25547E+00
 -1      2560 2.50107E+00
 -1      2561 9.46312E+00
 -1      2562 8.95467E+00
 -1      2563 6.50396E+00
 -1      2564 7.89714E+00
 -1      2565 7.41225E+00
 -1      2566 5.40963E+00
 -1      2567 7.85913E+00
 -1      2568 8.50222E+00
 -1      2569 2.51795E+01
 -1      2570 3.16778E+01
 -1      2571 1.70698E+01
 -1      2572 1.19699E+01
 -1      2573 2.12035E+01
 -1      2574 2.03949E+01
 -1      2575 3.15619E+01
 -1      2576 2.47834E+01
 -1      2577 5.35529E+00
 -1      2578 6.51843E+00
 -1      2579 1.97196E+01
 -1      2580 2.08015E+01
 -1      2581 7.43014E+00
 -1      2582 1.04953E+01
 -1      2583 6.47593E+00
 -1      2584 5.70140E+00
 -1      2585 7.80537E+00
 -1      2586 7.08963E+00
 -1      2587 9.20588E+00
 -1      2588 8.54942E+00
 -1      2589 9.05256E+00
 -1      2590 9.26464E+00
 -1      2591 6.80141E+00
 -1      2592 2.65031E+01
 -1      2593 3.06615E+01
 -1      2594 1.85366E+01
 -1      2595 9.20632E+00
 -1      2596 9.99424E+00
 -1      2597 7.80398E+00
 -1      2598 7.63100E+00
 -1      2599 2.59169E+01
 -1      2600 2.56746E+01
 -1      2601 2.59169E+01
 -1      2602 3.57982E+00
 -1      2603 3.41882E+00
 -1      2604 4.03221E+00
 -1      2605 4.70784E+00
 -1      2606 1.37609E+00
 -1      2607 1.23290E+00
 -1      2608 1.20366E+00
 -1      2609 7.18382E+00
 -1      2610 4.57509E+00
 -1      2611 1.39422E+01
 -1      2612 1.04762E+00
 -1      2613 1.03357E+00
 -1      2614 7.97279E-01
 -1      2615 9.52945E-01
 -1      2616 4.88976E+00
 -1      2617 3.15619E+01
 -1      2618 2.12035E+01
 -1      2619 5.95584E+00
 -1      2620 5.55450E+00
 -1      2621 6.81079E+00
 -1      2622 6.65994E+00
 -1      2623 6.05829E+00
 -1      2624 6.27967E+00
 -1      2625 4.94483E+00
 -1      2626 4.43237E-04
 -1      2627 1.15950E+01
 -1      2628 4.43237E-04
 -1      2629 3.42592E+01
 -1      2630 3.06615E+01
 -1      2631 9.67485E+00
 -1      2632 5.18714E+00
 -1      2633 3.88156E-04
 -1      2634 3.50053E-04
 -1      2635 3.71770E-04
 -1      2636 4.82389E-04
 -1      2637 1.73610E+01
 -1      2638 9.20588E+00
 -1      2639 7.14673E+00
 -1      2640 7.20549E+00
 -1      2641 6.40268E+00
 -1      2642 5.04493E+00
 -1      2643 4.70784E+00
 -1      2644 3.17600E+01
 -1      2645 6.00668E+00
 -1      2646 6.91664E+00
 -1      2647 4.63354E-04
 -1      2648 1.42986E+01
 -1      2649 4.98304E-04
 -1      2650 9.24274E+00
 -1      2651 2.08015E+01
 -1      2652 5.98441E+00
 -1      2653 6.15998E+00
 -1      2654 6.27695E+00
 -1      2655 6.27220E+00
 -1      2656 4.45651E+00
 -1      2657 4.25966E+00
 -1      2658 3.33568E+00
 -1      2659 3.33140E+00
 -1      2660 4.96471E+00
 -1      2661 6.23723E+00
 -1      2662 6.12575E+00
 -1      2663 5.08127E+00
 -1      2664 4.80059E+00
 -1      2665 6.84655E+00
 -1      2666 2.15505E+01
 -1      2667 2.81309E+01
 -1      2668 8.82787E-01
 -1      2669 1.00462E+00
 -1      2670 4.42450E+00
 -1      2671 4.75264E+00
 -1      2672 2.82951E+01
 -1      2673 2.15165E+01
 -1      2674 1.80856E+01
 -1      2675 1.07870E+00
 -1      2676 1.16861E+00
 -1      2677 9.09450E-01
 -1      2678 1.30758E+00
 -1      2679 1.38282E+00
 -1      2680 1.12250E+00
 -1      2681 1.43041E+00
 -1      2682 1.46216E+00
 -1      2683 1.30906E+00
 -1      2684 1.59732E+00
 -1      2685 1.56756E+00
 -1      2686 1.49182E+00
 -1      2687 1.52085E+00
 -1      2688 1.45020E+00
 -1      2689 1.58026E+00
 -1      2690 1.41926E+00
 -1      2691 1.45226E+00
 -1      2692 1.50261E+00
 -1      2693 1.50961E+00
 -1      2694 1.48834E+00
 -1      2695 1.52902E+00
 -1      2696 1.34622E+00
 -1      2697 1.27925E+00
 -1      2698 1.44426E+00
 -1      2699 1.21009E+00
 -1      2700 1.12087E+00
 -1      2701 1.23297E+00
 -1      2702 1.06655E+00
 -1      2703 9.32453E-01
 -1      2704 1.10949E+00
 -1      2705 8.09731E-01
 -1      2706 7.02892E-01
 -1      2707 9.32453E-01
 -1      2708 6.23036E-01
 -1      2709 5.22492E-01
 -1      2710 7.29875E-01
 -1      2711 4.61446E-01
 -1      2712 4.32179E-01
 -1      2713 5.88974E-01
 -1      2714 3.65119E-01
 -1      2715 3.30060E-01
 -1      2716 4.60868E-01
 -1      2717 2.98409E-01
 -1      2718 2.90938E-01
 -1      2719 3.62157E-01
 -1      2720 2.74003E-01
 -1      2721 2.69562E-01
 -1      2722 3.13571E-01
 -1      2723 2.49930E-01
 -1      2724 2.39009E-01
 -1      2725 2.77004E-01
 -1      2726 2.20647E-01
 -1      2727 2.09254E-01
 -1      2728 2.39009E-01
 -1      2729 1.93445E-01
 -1      2730 1.80116E-01
 -1      2731 2.04838E-01
 -1      2732 1.64054E-01
 -1      2733 1.49766E-01
 -1      2734 1.72968E-01
 -1      2735 1.34402E-01
 -1      2736 1.20009E-01
 -1      2737 1.41543E-01
 -1      2738 1.06093E-01
 -1      2739 9.28725E-02
 -1      2740 1.12262E-01
 -1      2741 8.08993E-02
 -1      2742 6.94955E-02
 -1      2743 8.63722E-02
 -1      2744 5.95952E-02
 -1      2745 5.02191E-02
 -1      2746 6.44988E-02
 -1      2747 4.22995E-02
 -1      2748 3.48933E-02
 -1      2749 4.66788E-02
 -1      2750 2.87429E-02
 -1      2751 2.35971E-02
 -1      2752 3.26087E-02
 -1      2753 1.89539E-02
 -1      2754 1.58452E-02
 -1      2755 2.18149E-02
 -1      2756 1.24400E-02
 -1      2757 1.12694E-02
 -1      2758 1.37665E-02
 -1      2759 9.54669E-03
 -1      2760 8.81088E-03
 -1      2761 8.63854E-03
 -1      2762 8.66465E-03
 -1      2763 7.87288E-03
 -1      2764 6.76959E-03
 -1      2765 7.66074E-03
 -1      2766 6.88441E-03
 -1      2767 6.41121E-03
 -1      2768 6.55609E-03
 -1      2769 5.83831E-03
 -1      2770 5.87075E-03
 -1      2771 5.45858E-03
 -1      2772 5.00042E-03
 -1      2773 5.16270E-03
 -1      2774 4.61258E-03
 -1      2775 4.24604E-03
 -1      2776 4.39513E-03
 -1      2777 3.97265E-03
 -1      2778 3.60234E-03
 -1      2779 3.73390E-03
 -1      2780 3.34205E-03
 -1      2781 3.00672E-03
 -1      2782 3.20022E-03
 -1      2783 2.74834E-03
 -1      2784 2.46213E-03
 -1      2785 2.68155E-03
 -1      2786 2.22047E-03
 -1      2787 1.95919E-03
 -1      2788 2.18151E-03
 -1      2789 1.75421E-03
 -1      2790 1.52490E-03
 -1      2791 1.73486E-03
 -1      2792 1.34738E-03
 -1      2793 1.17426E-03
 -1      2794 1.35236E-03
 -1      2795 1.02417E-03
 -1      2796 8.74670E-04
 -1      2797 1.02476E-03
 -1      2798 7.50135E-04
 -1      2799 6.25600E-04
 -1      2800 7.50135E-04
 -1      2801 8.20502E+00
 -1      2802 1.63083E+01
 -1      2803 1.21908E+01
 -1      2804 5.08293E+00
 -1      2805 5.02315E+00
 -1      2806 4.82064E+00
 -1      2807 5.28544E+00
 -1      2808 3.27797E+00
 -1      2809 3.46282E+00
 -1      2810 2.50045E+00
 -1      2811 2.73113E+00
 -1      2812 3.25068E+00
 -1      2813 1.89764E+00
 -1      2814 2.13308E+00
 -1      2815 2.33646E+00
 -1      2816 1.42948E+00
 -1      2817 1.64128E+00
 -1      2818 1.71272E+00
 -1      2819 1.05285E+00
 -1      2820 1.22898E+00
 -1      2821 1.25584E+00
 -1      2822 7.76886E-01
 -1      2823 9.16239E-01
 -1      2824 9.18726E-01
 -1      2825 5.68035E-01
 -1      2826 6.74766E-01
 -1      2827 6.79991E-01
 -1      2828 4.11267E-01
 -1      2829 4.91238E-01
 -1      2830 5.01073E-01
 -1      2831 2.94549E-01
 -1      2832 3.53540E-01
 -1      2833 3.66550E-01
 -1      2834 2.08338E-01
 -1      2835 2.51334E-01
 -1      2836 2.65608E-01
 -1      2837 1.45168E-01
 -1      2838 1.76185E-01
 -1      2839 1.90240E-01
 -1      2840 9.92729E-02
 -1      2841 1.21425E-01
 -1      2842 1.34344E-01
 -1      2843 6.62487E-02
 -1      2844 8.18960E-02
 -1      2845 9.32244E-02
 -1      2846 4.40315E-02
 -1      2847 5.36639E-02
 -1      2848 6.32626E-02
 -1      2849 2.97200E-02
 -1      2850 3.50316E-02
 -1      2851 4.16779E-02
 -1      2852 2.01532E-02
 -1      2853 2.33824E-02
 -1      2854 2.63403E-02
 -1      2855 1.49403E-02
 -1      2856 1.66879E-02
 -1      2857 1.65374E-02
 -1      2858 1.23943E-02
 -1      2859 1.39749E-02
 -1      2860 1.21066E-02
 -1      2861 1.03736E-02
 -1      2862 1.17546E-02
 -1      2863 1.05014E-02
 -1      2864 8.50269E-03
 -1      2865 9.67091E-03
 -1      2866 9.15910E-03
 -1      2867 7.06717E-03
 -1      2868 7.80806E-03
 -1      2869 7.76180E-03
 -1      2870 5.82263E-03
 -1      2871 6.42146E-03
 -1      2872 6.42146E-03
 -1      2873 4.86705E-03
 -1      2874 5.35151E-03
 -1      2875 5.30463E-03
 -1      2876 4.06149E-03
 -1      2877 4.48104E-03
 -1      2878 4.44749E-03
 -1      2879 3.38607E-03
 -1      2880 3.72378E-03
 -1      2881 3.72378E-03
 -1      2882 2.75580E-03
 -1      2883 3.07320E-03
 -1      2884 3.07320E-03
 -1      2885 2.22802E-03
 -1      2886 2.49444E-03
 -1      2887 2.49897E-03
 -1      2888 1.75583E-03
 -1      2889 1.99110E-03
 -1      2890 2.00069E-03
 -1      2891 1.34245E-03
 -1      2892 1.54820E-03
 -1      2893 1.55614E-03
 -1      2894 1.00185E-03
 -1      2895 1.17625E-03
 -1      2896 1.18230E-03
 -1      2897 7.18457E-04
 -1      2898 8.65490E-04
 -1      2899 8.79741E-04
 -1      2900 5.42464E-04
 -1      2901 6.50320E-04
 -1      2902 6.75248E-04
 -1      2903 5.28001E-04
 -1      2904 5.48107E-04
 -1      2905 5.48362E-04
 -1      2906 1.35518E+01
 -1      2907 1.02268E+01
 -1      2908 5.39231E-04
 -1      2909 5.09209E-04
 -1      2910 5.46536E-04
 -1      2911 5.46699E-04
 -1      2912 6.12256E-04
 -1      2913 5.48362E-04
 -1      2914 5.48362E-04
 -1      2915 6.04534E-04
 -1      2916 6.13665E-04
 -1      2917 5.46138E-04
 -1      2918 5.46536E-04
 -1      2919 6.10848E-04
 -1      2920 5.12448E-04
 -1      2921 5.39777E-04
 -1      2922 6.04487E-04
 -1      2923 4.36170E-04
 -1      2924 4.63290E-04
 -1      2925 5.48968E-04
 -1      2926 1.98322E+01
 -1      2927 2.73337E+01
 -1      2928 6.61688E+00
 -1      2929 5.93028E+00
 -1      2930 6.25841E+00
 -1      2931 4.70627E+00
 -1      2932 6.43502E+00
 -1      2933 5.64535E+00
 -1      2934 6.10819E+00
 -1      2935 7.30836E+00
 -1      2936 9.09449E+00
 -1      2937 1.11342E+01
 -1      2938 1.36154E+01
 -1      2939 4.21365E+00
 -1      2940 4.69619E+00
 -1      2941 4.54837E+00
 -1      2942 5.49949E+00
 -1      2943 5.96448E+00
 -1      2944 6.10251E+00
 -1      2945 2.57939E+01
 -1      2946 2.18901E+01
 -1      2947 6.12575E+00
 -1      2948 5.65377E+00
 -1      2949 7.08594E+00
 -1      2950 8.28319E+00
 -1      2951 9.18904E+00
 -1      2952 7.47480E+00
 -1      2953 2.10161E+00
 -1      2954 1.85777E+00
 -1      2955 1.49413E+01
 -1      2956 1.93194E+01
 -1      2957 5.13326E-04
 -1      2958 3.86031E-04
 -1      2959 5.13326E-04
 -1      2960 4.61201E+00
 -1      2961 3.86792E-04
 -1      2962 2.23780E+01
 -1      2963 1.79395E+01
 -1      2964 1.94142E+01
 -1      2965 1.58343E+01
 -1      2966 1.17625E+01
 -1      2967 3.59518E+00
 -1      2968 4.74660E+00
 -1      2969 4.05339E+00
 -1      2970 4.75264E+00
 -1      2971 4.30114E+00
 -1      2972 3.68744E+00
 -1      2973 5.85135E+00
 -1      2974 5.10731E+00
 -1      2975 1.24479E+01
 -1      2976 1.70713E+01
 -1      2977 6.24546E-01
 -1      2978 6.90820E-01
 -1      2979 6.43406E-01
 -1      2980 6.24172E-01
 -1      2981 4.41909E+00
 -1      2982 3.56504E+00
 -1      2983 3.68581E+00
 -1      2984 2.97649E+00
 -1      2985 2.85548E+00
 -1      2986 1.56903E+01
 -1      2987 1.48281E+00
 -1      2988 1.21570E+00
 -1      2989 1.69738E+00
 -1      2990 4.75264E+00
 -1      2991 5.08127E+00
 -1      2992 1.27693E+01
 -1      2993 5.96448E+00
 -1      2994 1.10115E+01
 -1      2995 8.38333E+00
 -1      2996 9.95880E+00
 -1      2997 5.85465E+00
 -1      2998 4.64499E-04
 -1      2999 5.43610E-04
 -1      3000 4.22413E-04
 -1      3001 9.11732E+00
 -1      3002 1.14355E+01
 -1      3003 9.97020E+00
 -1      3004 8.62210E+00
 -1      3005 1.49646E+01
 -1      3006 2.57939E+01
 -1      3007 1.34247E+01
 -1      3008 1.37435E+01
 -1      3009 3.86792E-04
 -1      3010 5.55158E+00
 -1      3011 4.22686E+00
 -1      3012 6.67323E+00
 -1      3013 3.96248E+00
 -1      3014 6.04943E+00
 -1      3015 6.29886E+00
 -1      3016 6.29886E+00
 -1      3017 5.00349E+00
 -1      3018 8.76772E+00
 -1      3019 2.61093E+00
 -1      3020 2.48635E+00
 -1      3021 2.45708E+00
 -1      3022 3.08636E+00
 -1      3023 1.21334E+01
 -1      3024 3.12451E+00
 -1      3025 4.69019E-04
 -1      3026 4.39871E-04
 -1      3027 4.97566E-04
 -1      3028 5.55214E-04
 -1      3029 1.39126E+01
 -1      3030 7.14996E+00
 -1      3031 1.61474E+01
 -1      3032 3.74981E+00
 -1      3033 4.54757E-04
 -1      3034 4.40496E-04
 -1      3035 5.04136E-04
 -1      3036 5.67031E-04
 -1      3037 9.93578E+00
 -1      3038 8.45946E+00
 -1      3039 9.89610E+00
 -1      3040 6.00315E+00
 -1      3041 6.33178E+00
 -1      3042 9.38133E+00
 -1      3043 7.50892E+00
 -1      3044 6.71843E-04
 -1      3045 6.78205E-04
 -1      3046 9.72179E-01
 -1      3047 8.16139E-01
 -1      3048 6.43406E-01
 -1      3049 1.07890E+00
 -1      3050 6.02857E-04
 -1      3051 6.52015E-04
 -1      3052 7.25733E-04
 -1      3053 9.39335E-01
 -1      3054 1.01341E+00
 -1      3055 1.10888E+00
 -1      3056 1.24785E+00
 -1      3057 1.13876E+00
 -1      3058 1.33914E+00
 -1      3059 1.38673E+00
 -1      3060 1.32551E+00
 -1      3061 1.82521E+00
 -1      3062 1.96038E+00
 -1      3063 1.85529E+00
 -1      3064 2.50156E+00
 -1      3065 2.45485E+00
 -1      3066 2.83496E+00
 -1      3067 2.02748E+00
 -1      3068 1.99654E+00
 -1      3069 2.94878E+00
 -1      3070 2.61166E+00
 -1      3071 2.66902E+00
 -1      3072 3.13653E+00
 -1      3073 2.21501E+00
 -1      3074 2.07289E+00
 -1      3075 3.29765E+00
 -1      3076 1.45660E+00
 -1      3077 1.38744E+00
 -1      3078 2.22736E+00
 -1      3079 1.27676E+00
 -1      3080 1.22244E+00
 -1      3081 1.50038E+00
 -1      3082 1.07115E+00
 -1      3083 9.48424E-01
 -1      3084 1.23841E+00
 -1      3085 8.94734E-01
 -1      3086 8.14878E-01
 -1      3087 1.03343E+00
 -1      3088 7.05515E-01
 -1      3089 6.44470E-01
 -1      3090 8.70374E-01
 -1      3091 5.34505E-01
 -1      3092 4.67445E-01
 -1      3093 6.51047E-01
 -1      3094 4.30899E-01
 -1      3095 3.99248E-01
 -1      3096 5.04536E-01
 -1      3097 3.59140E-01
 -1      3098 3.42204E-01
 -1      3099 4.27881E-01
 -1      3100 3.05829E-01
 -1      3101 2.86197E-01
 -1      3102 3.51397E-01
 -1      3103 2.58525E-01
 -1      3104 2.40163E-01
 -1      3105 2.87350E-01
 -1      3106 2.18950E-01
 -1      3107 2.03141E-01
 -1      3108 2.38467E-01
 -1      3109 1.82102E-01
 -1      3110 1.66041E-01
 -1      3111 1.96215E-01
 -1      3112 1.46962E-01
 -1      3113 1.31598E-01
 -1      3114 1.56097E-01
 -1      3115 1.15250E-01
 -1      3116 1.01334E-01
 -1      3117 1.20670E-01
 -1      3118 8.83212E-02
 -1      3119 7.63480E-02
 -1      3120 9.13095E-02
 -1      3121 6.60744E-02
 -1      3122 5.61741E-02
 -1      3123 6.80234E-02
 -1      3124 4.81088E-02
 -1      3125 4.01892E-02
 -1      3126 4.96845E-02
 -1      3127 3.39778E-02
 -1      3128 2.78274E-02
 -1      3129 3.54078E-02
 -1      3130 2.31345E-02
 -1      3131 1.84912E-02
 -1      3132 2.45036E-02
 -1      3133 1.50169E-02
 -1      3134 1.16117E-02
 -1      3135 1.63364E-02
 -1      3136 9.09759E-03
 -1      3137 7.37486E-03
 -1      3138 1.03480E-02
 -1      3139 5.60151E-03
 -1      3140 5.45528E-03
 -1      3141 6.06055E-03
 -1      3142 5.24723E-03
 -1      3143 5.03508E-03
 -1      3144 4.07915E-03
 -1      3145 5.16967E-03
 -1      3146 4.84135E-03
 -1      3147 4.00568E-03
 -1      3148 4.79000E-03
 -1      3149 4.41027E-03
 -1      3150 4.08892E-03
 -1      3151 4.24728E-03
 -1      3152 3.85944E-03
 -1      3153 3.87457E-03
 -1      3154 3.63781E-03
 -1      3155 3.36442E-03
 -1      3156 3.48996E-03
 -1      3157 3.14213E-03
 -1      3158 2.88185E-03
 -1      3159 3.04605E-03
 -1      3160 2.70907E-03
 -1      3161 2.45069E-03
 -1      3162 2.65099E-03
 -1      3163 2.26080E-03
 -1      3164 2.01913E-03
 -1      3165 2.28832E-03
 -1      3166 1.83002E-03
 -1      3167 1.62504E-03
 -1      3168 1.90931E-03
 -1      3169 1.44756E-03
 -1      3170 1.27005E-03
 -1      3171 1.54273E-03
 -1      3172 1.10947E-03
 -1      3173 9.59382E-04
 -1      3174 1.20467E-03
 -1      3175 8.17477E-04
 -1      3176 6.92942E-04
 -1      3177 6.34373E-04
 -1      3178 9.02190E-04
 -1      3179 1.69184E+00
 -1      3180 1.94821E+00
 -1      3181 4.79120E+00
 -1      3182 5.66454E+00
 -1      3183 9.09369E+00
 -1      3184 7.91444E+00
 -1      3185 1.47152E+01
 -1      3186 1.48794E+01
 -1      3187 6.75761E+00
 -1      3188 5.83363E+00
 -1      3189 7.06945E+00
 -1      3190 2.32958E+00
 -1      3191 2.69696E+00
 -1      3192 2.30871E+00
 -1      3193 3.20677E+00
 -1      3194 3.75362E+00
 -1      3195 3.19990E+00
 -1      3196 1.22189E+00
 -1      3197 1.42240E+00
 -1      3198 1.65789E+00
 -1      3199 8.88614E-01
 -1      3200 1.02523E+00
 -1      3201 1.19178E+00
 -1      3202 6.43597E-01
 -1      3203 7.45718E-01
 -1      3204 8.52220E-01
 -1      3205 4.63168E-01
 -1      3206 5.39966E-01
 -1      3207 6.05692E-01
 -1      3208 3.30547E-01
 -1      3209 3.88273E-01
 -1      3210 4.27165E-01
 -1      3211 2.33454E-01
 -1      3212 2.76669E-01
 -1      3213 2.98393E-01
 -1      3214 1.63163E-01
 -1      3215 1.95317E-01
 -1      3216 2.06378E-01
 -1      3217 1.13559E-01
 -1      3218 1.37302E-01
 -1      3219 1.42379E-01
 -1      3220 7.86075E-02
 -1      3221 9.59844E-02
 -1      3222 9.89425E-02
 -1      3223 5.39625E-02
 -1      3224 6.65473E-02
 -1      3225 6.93074E-02
 -1      3226 3.59783E-02
 -1      3227 4.49782E-02
 -1      3228 4.82629E-02
 -1      3229 2.30491E-02
 -1      3230 2.93867E-02
 -1      3231 3.26871E-02
 -1      3232 1.48301E-02
 -1      3233 1.82954E-02
 -1      3234 2.13418E-02
 -1      3235 1.05051E-02
 -1      3236 1.14706E-02
 -1      3237 1.32285E-02
 -1      3238 8.06183E-03
 -1      3239 8.70149E-03
 -1      3240 8.06545E-03
 -1      3241 7.31617E-03
 -1      3242 8.01885E-03
 -1      3243 6.21890E-03
 -1      3244 6.44731E-03
 -1      3245 7.14194E-03
 -1      3246 6.00168E-03
 -1      3247 5.50621E-03
 -1      3248 6.15192E-03
 -1      3249 5.53206E-03
 -1      3250 4.68630E-03
 -1      3251 5.15742E-03
 -1      3252 4.88788E-03
 -1      3253 3.94132E-03
 -1      3254 4.32732E-03
 -1      3255 4.18012E-03
 -1      3256 3.34509E-03
 -1      3257 3.68280E-03
 -1      3258 3.56263E-03
 -1      3259 2.78477E-03
 -1      3260 3.09764E-03
 -1      3261 3.05666E-03
 -1      3262 2.27855E-03
 -1      3263 2.53991E-03
 -1      3264 2.56435E-03
 -1      3265 1.81290E-03
 -1      3266 2.04982E-03
 -1      3267 2.09077E-03
 -1      3268 1.39970E-03
 -1      3269 1.60734E-03
 -1      3270 1.65647E-03
 -1      3271 1.05405E-03
 -1      3272 1.22025E-03
 -1      3273 1.27145E-03
 -1      3274 7.66087E-04
 -1      3275 9.02443E-04
 -1      3276 9.40392E-04
 -1      3277 6.34364E-04
 -1      3278 7.02502E-04
 -1      3279 7.25203E-04
 -1      3280 5.70863E-04
 -1      3281 6.99051E+00
 -1      3282 3.45315E+00
 -1      3283 4.35190E+00
 -1      3284 1.09104E+01
 -1      3285 1.13983E+01
 -1      3286 6.63743E-04
 -1      3287 6.65152E-04
 -1      3288 1.22039E+01
 -1      3289 1.44350E+01
 -1      3290 7.88314E+00
 -1      3291 8.68645E+00
 -1      3292 1.07248E+01
 -1      3293 1.34857E+01
 -1      3294 6.78205E-04
 -1      3295 6.78205E-04
 -1      3296 7.31100E-04
 -1      3297 7.45561E-04
 -1      3298 2.93497E+00
 -1      3299 3.95381E+00
 -1      3300 1.48794E+01
 -1      3301 1.27770E+01
 -1      3302 1.14088E+01
 -1      3303 9.77760E+00
 -1      3304 2.60175E+00
 -1      3305 2.63189E+00
 -1      3306 1.09046E+01
 -1      3307 7.21155E+00
 -1      3308 9.25128E+00
 -1      3309 4.74213E+00
 -1      3310 5.49296E+00
 -1      3311 4.69822E+00
 -1      3312 9.94215E+00
 -1      3313 1.12681E+01
 -1      3314 3.74981E+00
 -1      3315 2.94365E+00
 -1      3316 4.43379E+00
 -1      3317 5.53108E+00
 -1      3318 8.07690E+00
 -1      3319 1.75702E+00
 -1      3320 1.38206E+00
 -1      3321 8.41863E+00
 -1      3322 9.28755E+00
 -1      3323 1.12288E+01
 -1      3324 3.76369E+00
 -1      3325 6.14810E+00
 -1      3326 6.07398E+00
 -1      3327 6.93908E+00
 -1      3328 1.15090E+01
 -1      3329 6.48201E+00
 -1      3330 4.68911E+00
 -1      3331 4.33420E+00
 -1      3332 5.22898E+00
 -1      3333 4.13189E+00
 -1      3334 3.32572E+00
 -1      3335 4.57939E+00
 -1      3336 1.05678E+01
 -1      3337 8.05353E+00
 -1      3338 1.05678E+01
 -1      3339 2.93497E+00
 -1      3340 6.81480E-04
 -1      3341 6.72349E-04
 -1      3342 2.93039E+00
 -1      3343 8.40661E+00
 -1      3344 1.00127E+01
 -1      3345 7.31811E-04
 -1      3346 6.80324E-04
 -1      3347 6.80324E-04
 -1      3348 1.19459E+01
 -1      3349 8.94417E+00
 -1      3350 7.73325E+00
 -1      3351 4.68321E+00
 -1      3352 9.61588E+00
 -1      3353 6.72349E-04
 -1      3354 6.32160E-04
 -1      3355 7.49295E-04
 -1      3356 3.83355E+00
 -1      3357 2.37328E+00
 -1      3358 2.05796E+00
 -1      3359 2.75802E+00
 -1      3360 9.89610E+00
 -1      3361 3.69668E+00
 -1      3362 3.20406E+00
 -1      3363 1.06493E+01
 -1      3364 9.89610E+00
 -1      3365 8.38598E+00
 -1      3366 4.82917E+00
 -1      3367 5.87562E-04
 -1      3368 5.83236E-04
 -1      3369 6.86283E-04
 -1      3370 7.13473E-04
 -1      3371 8.35373E-01
 -1      3372 9.39335E-01
 -1      3373 8.35169E+00
 -1      3374 1.18286E+00
 -1      3375 1.13876E+00
 -1      3376 1.23423E+00
 -1      3377 1.32551E+00
 -1      3378 1.41680E+00
 -1      3379 1.32551E+00
 -1      3380 1.80850E+00
 -1      3381 2.24699E+00
 -1      3382 1.80850E+00
 -1      3383 3.00078E+00
 -1      3384 3.54197E+00
 -1      3385 3.13653E+00
 -1      3386 3.75165E+00
 -1      3387 3.75165E+00
 -1      3388 3.29765E+00
 -1      3389 1.61107E+00
 -1      3390 1.50038E+00
 -1      3391 1.38970E+00
 -1      3392 1.23841E+00
 -1      3393 1.50038E+00
 -1      3394 1.27233E+00
 -1      3395 1.21864E+00
 -1      3396 1.42362E+00
 -1      3397 9.92506E-01
 -1      3398 8.83143E-01
 -1      3399 1.23141E+00
 -1      3400 7.93119E-01
 -1      3401 6.83154E-01
 -1      3402 9.15250E-01
 -1      3403 6.06731E-01
 -1      3404 5.70186E-01
 -1      3405 7.48803E-01
 -1      3406 4.92258E-01
 -1      3407 4.52149E-01
 -1      3408 5.94453E-01
 -1      3409 3.98441E-01
 -1      3410 3.62066E-01
 -1      3411 4.62817E-01
 -1      3412 3.19876E-01
 -1      3413 2.92204E-01
 -1      3414 3.66920E-01
 -1      3415 2.57787E-01
 -1      3416 2.36574E-01
 -1      3417 2.90312E-01
 -1      3418 2.07609E-01
 -1      3419 1.86570E-01
 -1      3420 2.26929E-01
 -1      3421 1.66987E-01
 -1      3422 1.47908E-01
 -1      3423 1.78381E-01
 -1      3424 1.32199E-01
 -1      3425 1.15851E-01
 -1      3426 1.43089E-01
 -1      3427 1.02373E-01
 -1      3428 8.93610E-02
 -1      3429 1.13902E-01
 -1      3430 7.74327E-02
 -1      3431 6.71591E-02
 -1      3432 8.84967E-02
 -1      3433 5.71220E-02
 -1      3434 4.90567E-02
 -1      3435 6.65313E-02
 -1      3436 4.09361E-02
 -1      3437 3.47248E-02
 -1      3438 4.83736E-02
 -1      3439 2.85097E-02
 -1      3440 2.38168E-02
 -1      3441 3.40380E-02
 -1      3442 1.92914E-02
 -1      3443 1.58172E-02
 -1      3444 2.32975E-02
 -1      3445 1.24292E-02
 -1      3446 9.91503E-03
 -1      3447 1.53842E-02
 -1      3448 7.45284E-03
 -1      3449 5.67949E-03
 -1      3450 9.53397E-03
 -1      3451 3.98759E-03
 -1      3452 3.77954E-03
 -1      3453 5.37987E-03
 -1      3454 3.02146E-03
 -1      3455 3.15604E-03
 -1      3456 2.92989E-03
 -1      3457 3.46005E-03
 -1      3458 3.40869E-03
 -1      3459 2.47582E-03
 -1      3460 3.50329E-03
 -1      3461 3.34030E-03
 -1      3462 2.87442E-03
 -1      3463 3.30022E-03
 -1      3464 3.07860E-03
 -1      3465 2.92894E-03
 -1      3466 2.95832E-03
 -1      3467 2.73604E-03
 -1      3468 2.76859E-03
 -1      3469 2.57397E-03
 -1      3470 2.40120E-03
 -1      3471 2.48625E-03
 -1      3472 2.26725E-03
 -1      3473 2.07735E-03
 -1      3474 2.19024E-03
 -1      3475 1.93331E-03
 -1      3476 1.74420E-03
 -1      3477 1.91224E-03
 -1      3478 1.59402E-03
 -1      3479 1.41655E-03
 -1      3480 1.61802E-03
 -1      3481 1.27103E-03
 -1      3482 1.11045E-03
 -1      3483 1.32232E-03
 -1      3484 5.70301E+00
 -1      3485 4.72765E+00
 -1      3486 3.36301E+00
 -1      3487 2.26808E+00
 -1      3488 2.11427E+00
 -1      3489 2.49564E+00
 -1      3490 2.93191E+00
 -1      3491 3.44172E+00
 -1      3492 2.73747E+00
 -1      3493 7.58254E-01
 -1      3494 9.01150E-01
 -1      3495 5.42733E-01
 -1      3496 6.46364E-01
 -1      3497 6.95295E-01
 -1      3498 3.86886E-01
 -1      3499 4.61781E-01
 -1      3500 5.02453E-01
 -1      3501 2.73832E-01
 -1      3502 3.27709E-01
 -1      3503 3.62325E-01
 -1      3504 1.92282E-01
 -1      3505 2.30420E-01
 -1      3506 2.59736E-01
 -1      3507 1.34597E-01
 -1      3508 1.60458E-01
 -1      3509 1.84500E-01
 -1      3510 9.37815E-02
 -1      3511 1.11356E-01
 -1      3512 1.29436E-01
 -1      3513 6.50554E-02
 -1      3514 7.71156E-02
 -1      3515 8.95295E-02
 -1      3516 4.45423E-02
 -1      3517 5.35266E-02
 -1      3518 6.13348E-02
 -1      3519 2.95933E-02
 -1      3520 3.61848E-02
 -1      3521 4.14485E-02
 -1      3522 1.89323E-02
 -1      3523 2.36861E-02
 -1      3524 2.71838E-02
 -1      3525 1.14292E-02
 -1      3526 1.47888E-02
 -1      3527 1.71331E-02
 -1      3528 6.76166E-03
 -1      3529 8.56524E-03
 -1      3530 1.01255E-02
 -1      3531 5.09811E-03
 -1      3532 5.14110E-03
 -1      3533 5.64088E-03
 -1      3534 4.73379E-03
 -1      3535 4.90802E-03
 -1      3536 3.83022E-03
 -1      3537 4.57819E-03
 -1      3538 4.87359E-03
 -1      3539 3.77992E-03
 -1      3540 4.18340E-03
 -1      3541 4.53218E-03
 -1      3542 3.87371E-03
 -1      3543 3.67027E-03
 -1      3544 4.02924E-03
 -1      3545 3.67355E-03
 -1      3546 3.20226E-03
 -1      3547 3.46077E-03
 -1      3548 3.30990E-03
 -1      3549 2.73631E-03
 -1      3550 2.98376E-03
 -1      3551 2.88190E-03
 -1      3552 2.32548E-03
 -1      3553 2.57033E-03
 -1      3554 2.49743E-03
 -1      3555 1.91655E-03
 -1      3556 2.14528E-03
 -1      3557 2.15126E-03
 -1      3558 1.53277E-03
 -1      3559 1.73834E-03
 -1      3560 1.79285E-03
 -1      3561 1.18613E-03
 -1      3562 1.36558E-03
 -1      3563 1.44745E-03
 -1      3564 8.83639E-04
 -1      3565 1.03524E-03
 -1      3566 1.12938E-03
 -1      3567 7.48139E-04
 -1      3568 7.93184E+00
 -1      3569 2.97946E+00
 -1      3570 3.81685E+00
 -1      3571 8.86901E+00
 -1      3572 1.03478E+01
 -1      3573 7.49097E+00
 -1      3574 6.47883E+00
 -1      3575 1.48826E+00
 -1      3576 1.75771E+00
 -1      3577 1.94464E+00
 -1      3578 3.94433E+00
 -1      3579 5.49134E+00
 -1      3580 6.74578E+00
 -1      3581 6.06187E+00
 -1      3582 4.71553E+00
 -1      3583 3.65779E+00
 -1      3584 3.41325E+00
 -1      3585 3.32945E+00
 -1      3586 4.66109E+00
 -1      3587 2.42814E+00
 -1      3588 2.41947E+00
 -1      3589 2.47262E+00
 -1      3590 4.06571E+00
 -1      3591 5.05422E+00
 -1      3592 5.84633E+00
 -1      3593 3.79773E+00
 -1      3594 3.64579E+00
 -1      3595 4.41357E+00
 -1      3596 3.54197E+00
 -1      3597 7.19382E+00
 -1      3598 7.20436E+00
 -1      3599 5.53298E+00
 -1      3600 8.19275E-04
 -1      3601 8.39104E-04
 -1      3602 6.15466E-04
 -1      3603 5.98008E-04
 -1      3604 6.88763E-04
 -1      3605 7.32601E-04
 -1      3606 4.69880E+00
 -1      3607 1.05919E+00
 -1      3608 1.25585E+00
 -1      3609 9.65225E-01
 -1      3610 7.20717E+00
 -1      3611 6.51630E+00
 -1      3612 3.29765E+00
 -1      3613 2.84364E+00
 -1      3614 2.22736E+00
 -1      3615 2.47639E+00
 -1      3616 4.72765E+00
 -1      3617 4.32783E+00
 -1      3618 3.75165E+00
 -1      3619 2.22736E+00
 -1      3620 3.63612E+00
 -1      3621 5.83989E+00
 -1      3622 1.24250E+00
 -1      3623 1.33797E+00
 -1      3624 2.95400E+00
 -1      3625 3.37614E+00
 -1      3626 2.94878E+00
 -1      3627 4.35667E+00
 -1      3628 9.67874E-04
 -1      3629 8.25969E-04
 -1      3630 7.79157E-04
 -1      3631 1.03423E-03
 -1      3632 1.35567E+00
 -1      3633 8.18209E-04
 -1      3634 8.19365E-04
 -1      3635 7.52348E-04
 -1      3636 3.39185E+00
 -1      3637 7.92053E-04
 -1      3638 8.07225E-04
 -1      3639 8.78452E-04
 -1      3640 9.29761E-04
 -1      3641 8.36219E-04
 -1      3642 8.36219E-04
 -1      3643 3.16009E+00
 -1      3644 6.71472E+00
 -1      3645 7.05726E+00
 -1      3646 5.85500E+00
 -1      3647 8.55542E-04
 -1      3648 8.55542E-04
 -1      3649 9.25612E-04
 -1      3650 8.28907E-04
 -1      3651 8.14446E-04
 -1      3652 8.89860E-04
 -1      3653 9.19565E-04
 -1      3654 3.83355E+00
 -1      3655 7.98779E-04
 -1      3656 3.56390E+00
 -1      3657 9.12149E-04
 -1      3658 1.74917E+00
 -1      3659 1.64544E+00
 -1      3660 1.73672E+00
 -1      3661 2.36543E+00
 -1      3662 8.47199E-04
 -1      3663 1.05472E-03
 -1      3664 2.98089E+00
 -1      3665 2.18690E+00
 -1      3666 2.62316E+00
 -1      3667 1.46848E+00
 -1      3668 1.86019E+00
 -1      3669 1.78840E+00
 -1      3670 2.63533E+00
 -1      3671 2.01905E+00
 -1      3672 4.11578E+00
 -1      3673 4.11578E+00
 -1      3674 2.67210E+00
 -1      3675 1.88619E+00
 -1      3676 1.92011E+00
 -1      3677 1.09462E+00
 -1      3678 1.00459E+00
 -1      3679 8.88401E-01
 -1      3680 8.11978E-01
 -1      3681 1.06777E+00
 -1      3682 7.06758E-01
 -1      3683 6.28830E-01
 -1      3684 8.46355E-01
 -1      3685 5.40674E-01
 -1      3686 4.86966E-01
 -1      3687 6.52978E-01
 -1      3688 4.11279E-01
 -1      3689 3.69089E-01
 -1      3690 4.89135E-01
 -1      3691 3.19080E-01
 -1      3692 2.84662E-01
 -1      3693 3.63439E-01
 -1      3694 2.51502E-01
 -1      3695 2.22538E-01
 -1      3696 2.80270E-01
 -1      3697 1.97965E-01
 -1      3698 1.78381E-01
 -1      3699 2.22538E-01
 -1      3700 1.58798E-01
 -1      3701 1.43089E-01
 -1      3702 1.78381E-01
 -1      3703 1.25662E-01
 -1      3704 1.12185E-01
 -1      3705 1.41371E-01
 -1      3706 9.73958E-02
 -1      3707 8.54675E-02
 -1      3708 1.09155E-01
 -1      3709 7.33431E-02
 -1      3710 6.33059E-02
 -1      3711 8.22421E-02
 -1      3712 5.36362E-02
 -1      3713 4.55157E-02
 -1      3714 6.04480E-02
 -1      3715 3.79841E-02
 -1      3716 3.17690E-02
 -1      3717 4.32467E-02
 -1      3718 2.60378E-02
 -1      3719 2.15124E-02
 -1      3720 2.99839E-02
 -1      3721 1.75274E-02
 -1      3722 1.41393E-02
 -1      3723 2.02676E-02
 -1      3724 1.12388E-02
 -1      3725 8.77664E-03
 -1      3726 1.33820E-02
 -1      3727 6.68164E-03
 -1      3728 4.98973E-03
 -1      3729 8.38650E-03
 -1      3730 3.69827E-03
 -1      3731 2.94019E-03
 -1      3732 5.00003E-03
 -1      3733 2.16550E-03
 -1      3734 2.46950E-03
 -1      3735 2.93388E-03
 -1      3736 2.35763E-03
 -1      3737 2.45223E-03
 -1      3738 2.04731E-03
 -1      3739 2.59863E-03
 -1      3740 2.55855E-03
 -1      3741 2.08184E-03
 -1      3742 2.57383E-03
 -1      3743 2.45356E-03
 -1      3744 2.24352E-03
 -1      3745 2.38768E-03
 -1      3746 2.22561E-03
 -1      3747 2.19292E-03
 -1      3748 2.11405E-03
 -1      3749 1.98010E-03
 -1      3750 2.01548E-03
 -1      3751 1.85962E-03
 -1      3752 1.71557E-03
 -1      3753 1.78343E-03
 -1      3754 1.60278E-03
 -1      3755 1.45261E-03
 -1      3756 1.55016E-03
 -1      3757 1.33210E-03
 -1      3758 1.18658E-03
 -1      3759 1.31687E-03
 -1      3760 1.07576E+00
 -1      3761 1.30817E+00
 -1      3762 4.66217E+00
 -1      3763 4.20359E+00
 -1      3764 4.19681E-01
 -1      3765 5.00633E-01
 -1      3766 5.69611E-01
 -1      3767 6.81501E-01
 -1      3768 4.86839E-01
 -1      3769 2.24433E-01
 -1      3770 2.67845E-01
 -1      3771 1.61845E-01
 -1      3772 1.93669E-01
 -1      3773 2.01778E-01
 -1      3774 1.15163E-01
 -1      3775 1.38404E-01
 -1      3776 1.47572E-01
 -1      3777 8.07696E-02
 -1      3778 9.74355E-02
 -1      3779 1.06403E-01
 -1      3780 5.59635E-02
 -1      3781 6.74923E-02
 -1      3782 7.53982E-02
 -1      3783 3.78252E-02
 -1      3784 4.61827E-02
 -1      3785 5.23401E-02
 -1      3786 2.51555E-02
 -1      3787 3.10627E-02
 -1      3788 3.57969E-02
 -1      3789 1.60666E-02
 -1      3790 2.02102E-02
 -1      3791 2.40891E-02
 -1      3792 9.65023E-03
 -1      3793 1.25142E-02
 -1      3794 1.55914E-02
 -1      3795 5.56155E-03
 -1      3796 7.18212E-03
 -1      3797 9.57090E-03
 -1      3798 3.68846E-03
 -1      3799 3.87855E-03
 -1      3800 5.41979E-03
 -1      3801 2.98376E-03
 -1      3802 2.84396E-03
 -1      3803 2.89229E-03
 -1      3804 3.22481E-03
 -1      3805 3.27082E-03
 -1      3806 2.33486E-03
 -1      3807 3.15543E-03
 -1      3808 3.30958E-03
 -1      3809 2.70669E-03
 -1      3810 2.90399E-03
 -1      3811 3.11349E-03
 -1      3812 2.74952E-03
 -1      3813 2.56985E-03
 -1      3814 2.78834E-03
 -1      3815 2.59193E-03
 -1      3816 2.25075E-03
 -1      3817 2.41673E-03
 -1      3818 2.32316E-03
 -1      3819 1.92972E-03
 -1      3820 2.10992E-03
 -1      3821 2.02921E-03
 -1      3822 1.61684E-03
 -1      3823 1.79505E-03
 -1      3824 1.75371E-03
 -1      3825 1.31101E-03
 -1      3826 1.47820E-03
 -1      3827 1.48040E-03
 -1      3828 1.06450E-03
 -1      3829 6.10304E+00
 -1      3830 6.32307E+00
 -1      3831 5.32680E+00
 -1      3832 4.67843E+00
 -1      3833 4.47465E+00
 -1      3834 4.11578E+00
 -1      3835 3.60384E+00
 -1      3836 8.63893E-04
 -1      3837 1.71640E+00
 -1      3838 2.27639E+00
 -1      3839 1.54361E+00
 -1      3840 1.43292E+00
 -1      3841 1.92941E+00
 -1      3842 1.95159E+00
 -1      3843 1.03095E-03
 -1      3844 1.04193E-03
 -1      3845 7.75644E-01
 -1      3846 9.33685E-01
 -1      3847 8.86181E-01
 -1      3848 6.49961E-01
 -1      3849 3.08030E-01
 -1      3850 3.67207E-01
 -1      3851 2.72727E-01
 -1      3852 1.54894E+00
 -1      3853 1.90551E+00
 -1      3854 1.79120E+00
 -1      3855 1.26903E+00
 -1      3856 9.70139E-04
 -1      3857 2.05642E+00
 -1      3858 2.81021E+00
 -1      3859 1.20151E-03
 -1      3860 1.04901E-03
 -1      3861 1.08519E-03
 -1      3862 3.12879E+00
 -1      3863 3.36968E+00
 -1      3864 9.03611E-04
 -1      3865 1.06709E-03
 -1      3866 9.26004E-04
 -1      3867 1.96155E+00
 -1      3868 1.49899E+00
 -1      3869 1.27285E+00
 -1      3870 2.70766E+00
 -1      3871 3.65387E-01
 -1      3872 4.57123E+00
 -1      3873 3.24184E+00
 -1      3874 4.43467E+00
 -1      3875 1.06162E-03
 -1      3876 1.03116E-03
 -1      3877 1.18205E-03
 -1      3878 3.87490E+00
 -1      3879 1.21280E-03
 -1      3880 2.90763E+00
 -1      3881 3.53162E+00
 -1      3882 3.78834E+00
 -1      3883 2.35706E+00
 -1      3884 2.54463E+00
 -1      3885 1.36219E+00
 -1      3886 1.76837E+00
 -1      3887 1.65218E+00
 -1      3888 2.27412E-01
 -1      3889 2.67597E-01
 -1      3890 2.48189E+00
 -1      3891 2.30366E+00
 -1      3892 2.88806E+00
 -1      3893 3.64912E+00
 -1      3894 1.12695E+00
 -1      3895 1.02173E+00
 -1      3896 1.82755E+00
 -1      3897 7.55319E-01
 -1      3898 6.67162E-01
 -1      3899 1.03592E+00
 -1      3900 5.55230E-01
 -1      3901 4.79543E-01
 -1      3902 6.57571E-01
 -1      3903 4.11772E-01
 -1      3904 3.61763E-01
 -1      3905 4.77867E-01
 -1      3906 3.13430E-01
 -1      3907 2.80270E-01
 -1      3908 3.61763E-01
 -1      3909 2.47111E-01
 -1      3910 2.22538E-01
 -1      3911 2.80270E-01
 -1      3912 1.94364E-01
 -1      3913 1.74781E-01
 -1      3914 2.18937E-01
 -1      3915 1.51761E-01
 -1      3916 1.34334E-01
 -1      3917 1.67744E-01
 -1      3918 1.15996E-01
 -1      3919 1.01207E-01
 -1      3920 1.26386E-01
 -1      3921 8.68663E-02
 -1      3922 7.47419E-02
 -1      3923 9.37072E-02
 -1      3924 6.36999E-02
 -1      3925 5.40302E-02
 -1      3926 6.83241E-02
 -1      3927 4.56522E-02
 -1      3928 3.81206E-02
 -1      3929 4.89042E-02
 -1      3930 3.17919E-02
 -1      3931 2.60607E-02
 -1      3932 3.41975E-02
 -1      3933 2.14586E-02
 -1      3934 1.74735E-02
 -1      3935 2.32666E-02
 -1      3936 1.47924E-02
 -1      3937 1.18919E-02
 -1      3938 1.59834E-02
 -1      3939 9.80388E-03
 -1      3940 7.70887E-03
 -1      3941 1.12143E-02
 -1      3942 6.15493E-03
 -1      3943 4.86347E-03
 -1      3944 7.57231E-03
 -1      3945 3.70857E-03
 -1      3946 2.93388E-03
 -1      3947 4.86347E-03
 -1      3948 2.11428E-03
 -1      3949 2.00241E-03
 -1      3950 2.88897E-03
 -1      3951 1.67980E-03
 -1      3952 1.82620E-03
 -1      3953 1.74676E-03
 -1      3954 1.96435E-03
 -1      3955 1.97963E-03
 -1      3956 1.56231E-03
 -1      3957 2.00740E-03
 -1      3958 1.94152E-03
 -1      3959 1.72823E-03
 -1      3960 1.90024E-03
 -1      3961 1.78868E-03
 -1      3962 1.71472E-03
 -1      3963 1.70761E-03
 -1      3964 1.58713E-03
 -1      3965 1.59238E-03
 -1      3966 1.48630E-03
 -1      3967 1.37351E-03
 -1      3968 1.41047E-03
 -1      3969 1.32286E-03
 -1      3970 1.20235E-03
 -1      3971 1.25899E-03
 -1      3972 4.22255E-01
 -1      3973 4.91233E-01
 -1      3974 2.91641E+00
 -1      3975 1.22874E-01
 -1      3976 1.46316E-01
 -1      3977 1.65227E-01
 -1      3978 1.95991E-01
 -1      3979 1.90861E-01
 -1      3980 1.40529E-01
 -1      3981 6.43877E-02
 -1      3982 7.76650E-02
 -1      3983 4.51601E-02
 -1      3984 5.49409E-02
 -1      3985 5.72077E-02
 -1      3986 3.10958E-02
 -1      3987 3.78583E-02
 -1      3988 4.04590E-02
 -1      3989 2.09020E-02
 -1      3990 2.58473E-02
 -1      3991 2.79087E-02
 -1      3992 1.36593E-02
 -1      3993 1.72117E-02
 -1      3994 1.89699E-02
 -1      3995 8.49853E-03
 -1      3996 1.09666E-02
 -1      3997 1.25869E-02
 -1      3998 4.85783E-03
 -1      3999 6.54083E-03
 -1      4000 7.93657E-03
 -1      4001 2.83762E-03
 -1      4002 3.68211E-03
 -1      4003 4.80315E-03
 -1      4004 2.29973E-03
 -1      4005 2.01267E-03
 -1      4006 2.80249E-03
 -1      4007 2.28554E-03
 -1      4008 2.20077E-03
 -1      4009 1.87858E-03
 -1      4010 2.37494E-03
 -1      4011 2.41688E-03
 -1      4012 1.91097E-03
 -1      4013 2.27020E-03
 -1      4014 2.38585E-03
 -1      4015 2.05321E-03
 -1      4016 2.05460E-03
 -1      4017 2.20772E-03
 -1      4018 2.00164E-03
 -1      4019 1.81086E-03
 -1      4020 1.95169E-03
 -1      4021 1.83625E-03
 -1      4022 1.55406E-03
 -1      4023 1.68874E-03
 -1      4024 1.61121E-03
 -1      4025 1.30497E-03
 -1      4026 1.44361E-03
 -1      4027 1.37864E-03
 -1      4028 1.02281E-03
 -1      4029 3.64912E+00
 -1      4030 3.37807E+00
 -1      4031 3.64912E+00
 -1      4032 1.08066E-03
 -1      4033 9.45916E-04
 -1      4034 9.38605E-04
 -1      4035 1.08665E-03
 -1      4036 3.10685E-01
 -1      4037 3.63159E-01
 -1      4038 3.67553E-01
 -1      4039 2.65370E-01
 -1      4040 8.98280E-02
 -1      4041 1.07556E-01
 -1      4042 7.88175E-02
 -1      4043 1.14621E-03
 -1      4044 9.52356E-04
 -1      4045 9.39237E-04
 -1      4046 1.06657E-03
 -1      4047 5.07861E-01
 -1      4048 5.72445E-01
 -1      4049 6.66589E-01
 -1      4050 4.04302E+00
 -1      4051 4.43467E+00
 -1      4052 3.15090E+00
 -1      4053 2.89621E+00
 -1      4054 1.06299E-01
 -1      4055 1.50981E+00
 -1      4056 1.79120E+00
 -1      4057 2.71600E+00
 -1      4058 2.80695E+00
 -1      4059 2.85223E+00
 -1      4060 1.27517E-03
 -1      4061 1.23839E-03
 -1      4062 2.05216E+00
 -1      4063 2.33663E+00
 -1      4064 2.59131E+00
 -1      4065 1.77077E+00
 -1      4066 7.78491E-01
 -1      4067 9.20567E-01
 -1      4068 7.00975E-01
 -1      4069 3.42335E+00
 -1      4070 1.07411E+00
 -1      4071 1.31488E+00
 -1      4072 1.31488E+00
 -1      4073 9.66416E-01
 -1      4074 1.20151E-03
 -1      4075 1.20859E-03
 -1      4076 1.23839E-03
 -1      4077 1.07365E-03
 -1      4078 1.01116E-03
 -1      4079 9.98560E-04
 -1      4080 9.98042E-04
 -1      4081 1.13286E-03
 -1      4082 2.88806E+00
 -1      4083 1.49358E+00
 -1      4084 1.22716E+00
 -1      4085 9.52900E-01
 -1      4086 8.40968E-01
 -1      4087 1.41056E+00
 -1      4088 6.58110E-01
 -1      4089 5.90338E-01
 -1      4090 9.53439E-01
 -1      4091 4.65241E-01
 -1      4092 4.16908E-01
 -1      4093 6.45483E-01
 -1      4094 3.31367E-01
 -1      4095 2.98207E-01
 -1      4096 4.34845E-01
 -1      4097 2.40203E-01
 -1      4098 2.12030E-01
 -1      4099 2.91300E-01
 -1      4100 1.75643E-01
 -1      4101 1.52623E-01
 -1      4102 1.96909E-01
 -1      4103 1.30026E-01
 -1      4104 1.11688E-01
 -1      4105 1.37925E-01
 -1      4106 9.78811E-02
 -1      4107 8.35401E-02
 -1      4108 1.01521E-01
 -1      4109 7.29542E-02
 -1      4110 6.19122E-02
 -1      4111 7.71281E-02
 -1      4112 5.32881E-02
 -1      4113 4.49101E-02
 -1      4114 5.79181E-02
 -1      4115 3.81129E-02
 -1      4116 3.17841E-02
 -1      4117 4.24968E-02
 -1      4118 2.89981E-02
 -1      4119 2.43960E-02
 -1      4120 3.29135E-02
 -1      4121 1.85212E-02
 -1      4122 1.58401E-02
 -1      4123 2.42527E-02
 -1      4124 1.28425E-02
 -1      4125 1.07545E-02
 -1      4126 1.53803E-02
 -1      4127 8.55160E-03
 -1      4128 6.99765E-03
 -1      4129 1.01798E-02
 -1      4130 5.53090E-03
 -1      4131 4.37600E-03
 -1      4132 6.51019E-03
 -1      4133 3.33128E-03
 -1      4134 2.51168E-03
 -1      4135 3.99871E-03
 -1      4136 1.78333E-03
 -1      4137 1.46072E-03
 -1      4138 2.22563E-03
 -1      4139 1.26022E-03
 -1      4140 1.39838E-03
 -1      4141 1.29679E-03
 -1      4142 1.52438E-03
 -1      4143 1.55214E-03
 -1      4144 1.22229E-03
 -1      4145 1.62933E-03
 -1      4146 1.58805E-03
 -1      4147 1.42547E-03
 -1      4148 1.58288E-03
 -1      4149 1.50181E-03
 -1      4150 1.49749E-03
 -1      4151 1.37119E-03
 -1      4152 1.27036E-03
 -1      4153 1.36170E-03
 -1      4154 1.25899E-03
 -1      4155 1.20835E-03
 -1      4156 1.13286E-03
 -1      4157 1.21971E-03
 -1      4158 7.48747E-02
 -1      4159 8.70377E-02
 -1      4160 2.45664E-02
 -1      4161 2.98150E-02
 -1      4162 5.59491E-02
 -1      4163 6.53960E-02
 -1      4164 7.36161E-02
 -1      4165 1.70681E-02
 -1      4166 2.07584E-02
 -1      4167 2.26646E-02
 -1      4168 1.30079E-02
 -1      4169 1.57006E-02
 -1      4170 1.74891E-02
 -1      4171 8.70945E-03
 -1      4172 1.06672E-02
 -1      4173 1.37808E-02
 -1      4174 5.50894E-03
 -1      4175 6.68466E-03
 -1      4176 9.41524E-03
 -1      4177 3.15757E-03
 -1      4178 3.98252E-03
 -1      4179 5.86403E-03
 -1      4180 1.98125E-03
 -1      4181 2.08021E-03
 -1      4182 3.26024E-03
 -1      4183 1.64531E-03
 -1      4184 1.51397E-03
 -1      4185 1.71560E-03
 -1      4186 1.78066E-03
 -1      4187 1.76976E-03
 -1      4188 1.37276E-03
 -1      4189 1.74334E-03
 -1      4190 1.80582E-03
 -1      4191 1.52236E-03
 -1      4192 1.61800E-03
 -1      4193 1.72091E-03
 -1      4194 1.52509E-03
 -1      4195 1.49070E-03
 -1      4196 1.61282E-03
 -1      4197 1.49749E-03
 -1      4198 1.26719E-03
 -1      4199 1.37764E-03
 -1      4200 1.37926E-03
 -1      4201 1.23739E-03
 -1      4202 2.78045E+00
 -1      4203 2.24516E+00
 -1      4204 9.71669E-02
 -1      4205 1.12486E-01
 -1      4206 9.32241E-02
 -1      4207 3.98481E-02
 -1      4208 4.71499E-02
 -1      4209 5.53382E-02
 -1      4210 1.71994E+00
 -1      4211 3.28881E-01
 -1      4212 3.87976E-01
 -1      4213 1.91118E+00
 -1      4214 1.29532E-01
 -1      4215 1.48443E-01
 -1      4216 1.20400E-01
 -1      4217 6.79827E-01
 -1      4218 7.91729E-01
 -1      4219 3.65058E-02
 -1      4220 1.04641E-03
 -1      4221 1.18134E-03
 -1      4222 1.21015E-03
 -1      4223 2.20933E+00
 -1      4224 1.71528E-01
 -1      4225 2.02949E-01
 -1      4226 1.60531E-01
 -1      4227 2.13161E-01
 -1      4228 2.32494E-01
 -1      4229 2.75582E-01
 -1      4230 4.73517E-01
 -1      4231 5.54729E-01
 -1      4232 4.34845E-01
 -1      4233 1.00853E+00
 -1      4234 1.02968E+00
 -1      4235 1.18321E+00
 -1      4236 1.10573E-03
 -1      4237 2.71600E+00
 -1      4238 2.71600E+00
 -1      4239 2.28111E+00
 -1      4240 2.15642E+00
 -1      4241 1.44074E+00
 -1      4242 1.63566E+00
 -1      4243 1.50400E+00
 -1      4244 1.94953E+00
 -1      4245 1.72317E+00
 -1      4246 1.46565E+00
 -1      4247 1.19139E+00
 -1      4248 6.45483E-01
 -1      4249 2.83001E-02
 -1      4250 3.83332E-02
 -1      4251 4.79165E-02
 -1      4252 5.67157E-02
 -1      4253 9.53439E-01
 -1      4254 7.70581E-01
 -1      4255 6.45483E-01
 -1      4256 5.20385E-01
 -1      4257 4.34845E-01
 -1      4258 3.49304E-01
 -1      4259 2.96005E-01
 -1      4260 2.38001E-01
 -1      4261 2.08456E-01
 -1      4262 1.72069E-01
 -1      4263 1.48984E-01
 -1      4264 1.26387E-01
 -1      4265 1.09340E-01
 -1      4266 9.55337E-02
 -1      4267 8.54044E-02
 -1      4268 7.48185E-02
 -1      4269 6.53398E-02
 -1      4270 3.29135E-02
 -1      4271 3.01275E-02
 -1      4272 3.01275E-02
 -1      4273 2.42527E-02
 -1      4274 1.72497E-02
 -1      4275 1.42522E-02
 -1      4276 1.19114E-02
 -1      4277 9.70849E-03
 -1      4278 7.68369E-03
 -1      4279 6.21694E-03
 -1      4280 4.69052E-03
 -1      4281 3.64579E-03
 -1      4282 2.56843E-03
 -1      4283 1.84008E-03
 -1      4284 1.37280E-03
 -1      4285 1.17230E-03
 -1      4286 1.29675E-03
 -1      4287 1.42275E-03
 -1      4288 1.44791E-03
 -1      4289 1.52509E-03
 -1      4290 1.50266E-03
 -1      4291 1.49749E-03
 -1      4292 1.49231E-03
 -1      4293 1.36170E-03
 -1      4294 1.94953E+00
 -1      4295 1.82368E+00
 -1      4296 2.08464E+00
 -1      4297 2.44920E-02
 -1      4298 2.83001E-02
 -1      4299 1.18122E-03
 -1      4300 2.96005E-01
 -1      4301 3.01275E-02
 -1      4302 4.11192E-02
 -1      4303 1.24864E-03
 -1      4304 1.86172E-02
 -1      4305 2.13755E+00
 -1      4306 1.19259E-03
 -1      4307 2.20933E+00
 -1      4308 2.20933E+00
 -3
 9999
