    1C
    1UUSER                                                              
    1UDATE              26.october.2022                                 
    1UTIME              23:45:13                                        
    1UHOST                                                              
    1UPGM               CalculiX                                        
    1UVERSION           Version 2.17                             
    1UCOMPILETIME       Thu Jul 23 21:43:50 CEST 2020                    
    1UDIR                                                               
    1UDBN                                                               
    1UMAT    1SOLIDMATERIAL                                             
    2C                          4328                                     1
 -1         1 7.00128E+01 2.83030E+01 0.00000E+00
 -1         2 8.21612E+01 2.35602E+01 0.00000E+00
 -1         3 1.50000E+02 0.00000E+00 0.00000E+00
 -1         4 1.50000E+02 5.00000E+01 0.00000E+00
 -1         5 0.00000E+00 0.00000E+00 0.00000E+00
 -1         6 0.00000E+00 5.00000E+01 0.00000E+00
 -1         7 0.00000E+00 4.70500E+01 0.00000E+00
 -1         8 0.00000E+00 4.41000E+01 0.00000E+00
 -1         9 0.00000E+00 4.11500E+01 0.00000E+00
 -1        10 0.00000E+00 3.82000E+01 0.00000E+00
 -1        11 0.00000E+00 3.52500E+01 0.00000E+00
 -1        12 0.00000E+00 3.23500E+01 0.00000E+00
 -1        13 0.00000E+00 2.94000E+01 0.00000E+00
 -1        14 0.00000E+00 2.64500E+01 0.00000E+00
 -1        15 0.00000E+00 2.35000E+01 0.00000E+00
 -1        16 0.00000E+00 2.05500E+01 0.00000E+00
 -1        17 0.00000E+00 1.76000E+01 0.00000E+00
 -1        18 0.00000E+00 1.47000E+01 0.00000E+00
 -1        19 0.00000E+00 1.17500E+01 0.00000E+00
 -1        20 0.00000E+00 8.80000E+00 0.00000E+00
 -1        21 0.00000E+00 5.85000E+00 0.00000E+00
 -1        22 0.00000E+00 2.90000E+00 0.00000E+00
 -1        23 3.15000E+00 5.00000E+01 0.00000E+00
 -1        24 6.15000E+00 5.00000E+01 0.00000E+00
 -1        25 9.15000E+00 5.00000E+01 0.00000E+00
 -1        26 1.21500E+01 5.00000E+01 0.00000E+00
 -1        27 1.51500E+01 5.00000E+01 0.00000E+00
 -1        28 1.81500E+01 5.00000E+01 0.00000E+00
 -1        29 2.11500E+01 5.00000E+01 0.00000E+00
 -1        30 2.41500E+01 5.00000E+01 0.00000E+00
 -1        31 2.71500E+01 5.00000E+01 0.00000E+00
 -1        32 3.01500E+01 5.00000E+01 0.00000E+00
 -1        33 3.31500E+01 5.00000E+01 0.00000E+00
 -1        34 3.61500E+01 5.00000E+01 0.00000E+00
 -1        35 3.91500E+01 5.00000E+01 0.00000E+00
 -1        36 4.21500E+01 5.00000E+01 0.00000E+00
 -1        37 4.51500E+01 5.00000E+01 0.00000E+00
 -1        38 4.81500E+01 5.00000E+01 0.00000E+00
 -1        39 5.11500E+01 5.00000E+01 0.00000E+00
 -1        40 5.41500E+01 5.00000E+01 0.00000E+00
 -1        41 5.71500E+01 5.00000E+01 0.00000E+00
 -1        42 6.01500E+01 5.00000E+01 0.00000E+00
 -1        43 6.31500E+01 5.00000E+01 0.00000E+00
 -1        44 6.61500E+01 5.00000E+01 0.00000E+00
 -1        45 6.91500E+01 5.00000E+01 0.00000E+00
 -1        46 7.21500E+01 5.00000E+01 0.00000E+00
 -1        47 7.51500E+01 5.00000E+01 0.00000E+00
 -1        48 7.81500E+01 5.00000E+01 0.00000E+00
 -1        49 8.11500E+01 5.00000E+01 0.00000E+00
 -1        50 8.41500E+01 5.00000E+01 0.00000E+00
 -1        51 8.71500E+01 5.00000E+01 0.00000E+00
 -1        52 9.01500E+01 5.00000E+01 0.00000E+00
 -1        53 9.31500E+01 5.00000E+01 0.00000E+00
 -1        54 9.61500E+01 5.00000E+01 0.00000E+00
 -1        55 9.91500E+01 5.00000E+01 0.00000E+00
 -1        56 1.02150E+02 5.00000E+01 0.00000E+00
 -1        57 1.05150E+02 5.00000E+01 0.00000E+00
 -1        58 1.08150E+02 5.00000E+01 0.00000E+00
 -1        59 1.11150E+02 5.00000E+01 0.00000E+00
 -1        60 1.14150E+02 5.00000E+01 0.00000E+00
 -1        61 1.17150E+02 5.00000E+01 0.00000E+00
 -1        62 1.20150E+02 5.00000E+01 0.00000E+00
 -1        63 1.23150E+02 5.00000E+01 0.00000E+00
 -1        64 1.26150E+02 5.00000E+01 0.00000E+00
 -1        65 1.29150E+02 5.00000E+01 0.00000E+00
 -1        66 1.32150E+02 5.00000E+01 0.00000E+00
 -1        67 1.35150E+02 5.00000E+01 0.00000E+00
 -1        68 1.38150E+02 5.00000E+01 0.00000E+00
 -1        69 1.41150E+02 5.00000E+01 0.00000E+00
 -1        70 1.44150E+02 5.00000E+01 0.00000E+00
 -1        71 1.47150E+02 5.00000E+01 0.00000E+00
 -1        72 3.15000E+00 0.00000E+00 0.00000E+00
 -1        73 6.15000E+00 0.00000E+00 0.00000E+00
 -1        74 9.15000E+00 0.00000E+00 0.00000E+00
 -1        75 1.21500E+01 0.00000E+00 0.00000E+00
 -1        76 1.51500E+01 0.00000E+00 0.00000E+00
 -1        77 1.81500E+01 0.00000E+00 0.00000E+00
 -1        78 2.11500E+01 0.00000E+00 0.00000E+00
 -1        79 2.41500E+01 0.00000E+00 0.00000E+00
 -1        80 2.71500E+01 0.00000E+00 0.00000E+00
 -1        81 3.01500E+01 0.00000E+00 0.00000E+00
 -1        82 3.31500E+01 0.00000E+00 0.00000E+00
 -1        83 3.61500E+01 0.00000E+00 0.00000E+00
 -1        84 3.91500E+01 0.00000E+00 0.00000E+00
 -1        85 4.21500E+01 0.00000E+00 0.00000E+00
 -1        86 4.51500E+01 0.00000E+00 0.00000E+00
 -1        87 4.81500E+01 0.00000E+00 0.00000E+00
 -1        88 5.11500E+01 0.00000E+00 0.00000E+00
 -1        89 5.41500E+01 0.00000E+00 0.00000E+00
 -1        90 5.71500E+01 0.00000E+00 0.00000E+00
 -1        91 6.01500E+01 0.00000E+00 0.00000E+00
 -1        92 6.31500E+01 0.00000E+00 0.00000E+00
 -1        93 6.61500E+01 0.00000E+00 0.00000E+00
 -1        94 6.91500E+01 0.00000E+00 0.00000E+00
 -1        95 7.21500E+01 0.00000E+00 0.00000E+00
 -1        96 7.51500E+01 0.00000E+00 0.00000E+00
 -1        97 7.81500E+01 0.00000E+00 0.00000E+00
 -1        98 8.11500E+01 0.00000E+00 0.00000E+00
 -1        99 8.41500E+01 0.00000E+00 0.00000E+00
 -1       100 8.71500E+01 0.00000E+00 0.00000E+00
 -1       101 9.01500E+01 0.00000E+00 0.00000E+00
 -1       102 9.31500E+01 0.00000E+00 0.00000E+00
 -1       103 9.61500E+01 0.00000E+00 0.00000E+00
 -1       104 9.91500E+01 0.00000E+00 0.00000E+00
 -1       105 1.02150E+02 0.00000E+00 0.00000E+00
 -1       106 1.05150E+02 0.00000E+00 0.00000E+00
 -1       107 1.08150E+02 0.00000E+00 0.00000E+00
 -1       108 1.11150E+02 0.00000E+00 0.00000E+00
 -1       109 1.14150E+02 0.00000E+00 0.00000E+00
 -1       110 1.17150E+02 0.00000E+00 0.00000E+00
 -1       111 1.20150E+02 0.00000E+00 0.00000E+00
 -1       112 1.23150E+02 0.00000E+00 0.00000E+00
 -1       113 1.26150E+02 0.00000E+00 0.00000E+00
 -1       114 1.29150E+02 0.00000E+00 0.00000E+00
 -1       115 1.32150E+02 0.00000E+00 0.00000E+00
 -1       116 1.35150E+02 0.00000E+00 0.00000E+00
 -1       117 1.38150E+02 0.00000E+00 0.00000E+00
 -1       118 1.41150E+02 0.00000E+00 0.00000E+00
 -1       119 1.44150E+02 0.00000E+00 0.00000E+00
 -1       120 1.47150E+02 0.00000E+00 0.00000E+00
 -1       121 1.50000E+02 2.95000E+00 0.00000E+00
 -1       122 1.50000E+02 5.90000E+00 0.00000E+00
 -1       123 1.50000E+02 8.85000E+00 0.00000E+00
 -1       124 1.50000E+02 1.18000E+01 0.00000E+00
 -1       125 1.50000E+02 1.47500E+01 0.00000E+00
 -1       126 1.50000E+02 1.76500E+01 0.00000E+00
 -1       127 1.50000E+02 2.06000E+01 0.00000E+00
 -1       128 1.50000E+02 2.35500E+01 0.00000E+00
 -1       129 1.50000E+02 2.65000E+01 0.00000E+00
 -1       130 1.50000E+02 2.94500E+01 0.00000E+00
 -1       131 1.50000E+02 3.24000E+01 0.00000E+00
 -1       132 1.50000E+02 3.53000E+01 0.00000E+00
 -1       133 1.50000E+02 3.82500E+01 0.00000E+00
 -1       134 1.50000E+02 4.12000E+01 0.00000E+00
 -1       135 1.50000E+02 4.41500E+01 0.00000E+00
 -1       136 1.50000E+02 4.71000E+01 0.00000E+00
 -1       137 8.20135E+01 2.21296E+01 0.00000E+00
 -1       138 8.15641E+01 2.07313E+01 0.00000E+00
 -1       139 8.08569E+01 1.94909E+01 0.00000E+00
 -1       140 7.98065E+01 1.83237E+01 0.00000E+00
 -1       141 7.85966E+01 1.74612E+01 0.00000E+00
 -1       142 7.71858E+01 1.68594E+01 0.00000E+00
 -1       143 7.55916E+01 1.65734E+01 0.00000E+00
 -1       144 7.41499E+01 1.66336E+01 0.00000E+00
 -1       145 7.26385E+01 1.70306E+01 0.00000E+00
 -1       146 7.13556E+01 1.76850E+01 0.00000E+00
 -1       147 7.01452E+01 1.86776E+01 0.00000E+00
 -1       148 6.91870E+01 1.99121E+01 0.00000E+00
 -1       149 6.85143E+01 2.13651E+01 0.00000E+00
 -1       150 6.82045E+01 2.27827E+01 0.00000E+00
 -1       151 6.81944E+01 2.42412E+01 0.00000E+00
 -1       152 6.85140E+01 2.57543E+01 0.00000E+00
 -1       153 6.91731E+01 2.71854E+01 0.00000E+00
 -1       154 7.10254E+01 2.92078E+01 0.00000E+00
 -1       155 7.21995E+01 2.99028E+01 0.00000E+00
 -1       156 7.35179E+01 3.03646E+01 0.00000E+00
 -1       157 7.48826E+01 3.05547E+01 0.00000E+00
 -1       158 7.63640E+01 3.04561E+01 0.00000E+00
 -1       159 7.76958E+01 3.00852E+01 0.00000E+00
 -1       160 7.89385E+01 2.94536E+01 0.00000E+00
 -1       161 8.00141E+01 2.86049E+01 0.00000E+00
 -1       162 8.08997E+01 2.75689E+01 0.00000E+00
 -1       163 8.15748E+01 2.63649E+01 0.00000E+00
 -1       164 8.20103E+01 2.50059E+01 0.00000E+00
 -1       165 2.59800E+00 4.55750E+01 0.00000E+00
 -1       166 2.59800E+00 4.26250E+01 0.00000E+00
 -1       167 2.59800E+00 3.96750E+01 0.00000E+00
 -1       168 2.59800E+00 3.67250E+01 0.00000E+00
 -1       169 2.59800E+00 3.38250E+01 0.00000E+00
 -1       170 2.59800E+00 3.08750E+01 0.00000E+00
 -1       171 2.59800E+00 2.79250E+01 0.00000E+00
 -1       172 2.59800E+00 2.49750E+01 0.00000E+00
 -1       173 2.59800E+00 2.20250E+01 0.00000E+00
 -1       174 2.59800E+00 1.90750E+01 0.00000E+00
 -1       175 2.59800E+00 1.61750E+01 0.00000E+00
 -1       176 2.59800E+00 1.32250E+01 0.00000E+00
 -1       177 2.59800E+00 1.02750E+01 0.00000E+00
 -1       178 2.59800E+00 7.32500E+00 0.00000E+00
 -1       179 2.59800E+00 4.37500E+00 0.00000E+00
 -1       180 2.87400E+00 2.18750E+00 0.00000E+00
 -1       181 4.65000E+00 4.74020E+01 0.00000E+00
 -1       182 7.65000E+00 4.74020E+01 0.00000E+00
 -1       183 1.06500E+01 4.74020E+01 0.00000E+00
 -1       184 1.36500E+01 4.74020E+01 0.00000E+00
 -1       185 1.66500E+01 4.74020E+01 0.00000E+00
 -1       186 1.96500E+01 4.74020E+01 0.00000E+00
 -1       187 2.26500E+01 4.74020E+01 0.00000E+00
 -1       188 2.56500E+01 4.74020E+01 0.00000E+00
 -1       189 2.86500E+01 4.74020E+01 0.00000E+00
 -1       190 3.16500E+01 4.74020E+01 0.00000E+00
 -1       191 3.46500E+01 4.74020E+01 0.00000E+00
 -1       192 3.76500E+01 4.74020E+01 0.00000E+00
 -1       193 4.06500E+01 4.74020E+01 0.00000E+00
 -1       194 4.36500E+01 4.74020E+01 0.00000E+00
 -1       195 4.66500E+01 4.74020E+01 0.00000E+00
 -1       196 4.96500E+01 4.74020E+01 0.00000E+00
 -1       197 5.26500E+01 4.74020E+01 0.00000E+00
 -1       198 5.56500E+01 4.74020E+01 0.00000E+00
 -1       199 5.86500E+01 4.74020E+01 0.00000E+00
 -1       200 6.16500E+01 4.74020E+01 0.00000E+00
 -1       201 6.46500E+01 4.74020E+01 0.00000E+00
 -1       202 6.76500E+01 4.74020E+01 0.00000E+00
 -1       203 7.06500E+01 4.74020E+01 0.00000E+00
 -1       204 7.36500E+01 4.74020E+01 0.00000E+00
 -1       205 7.66500E+01 4.74020E+01 0.00000E+00
 -1       206 7.96500E+01 4.74020E+01 0.00000E+00
 -1       207 8.26500E+01 4.74020E+01 0.00000E+00
 -1       208 8.56500E+01 4.74020E+01 0.00000E+00
 -1       209 8.86500E+01 4.74020E+01 0.00000E+00
 -1       210 9.16500E+01 4.74020E+01 0.00000E+00
 -1       211 9.46500E+01 4.74020E+01 0.00000E+00
 -1       212 9.76500E+01 4.74020E+01 0.00000E+00
 -1       213 1.00650E+02 4.74020E+01 0.00000E+00
 -1       214 1.03650E+02 4.74020E+01 0.00000E+00
 -1       215 1.06650E+02 4.74020E+01 0.00000E+00
 -1       216 1.09650E+02 4.74020E+01 0.00000E+00
 -1       217 1.12650E+02 4.74020E+01 0.00000E+00
 -1       218 1.15650E+02 4.74020E+01 0.00000E+00
 -1       219 1.18650E+02 4.74020E+01 0.00000E+00
 -1       220 1.21650E+02 4.74020E+01 0.00000E+00
 -1       221 1.24650E+02 4.74020E+01 0.00000E+00
 -1       222 1.27650E+02 4.74020E+01 0.00000E+00
 -1       223 1.30650E+02 4.74020E+01 0.00000E+00
 -1       224 1.33650E+02 4.74020E+01 0.00000E+00
 -1       225 1.36650E+02 4.74020E+01 0.00000E+00
 -1       226 1.39650E+02 4.74020E+01 0.00000E+00
 -1       227 1.42650E+02 4.74020E+01 0.00000E+00
 -1       228 1.45650E+02 4.74020E+01 0.00000E+00
 -1       229 5.87400E+00 2.18750E+00 0.00000E+00
 -1       230 8.87400E+00 2.18750E+00 0.00000E+00
 -1       231 1.18740E+01 2.18750E+00 0.00000E+00
 -1       232 1.48740E+01 2.18750E+00 0.00000E+00
 -1       233 1.78740E+01 2.18750E+00 0.00000E+00
 -1       234 2.08740E+01 2.18750E+00 0.00000E+00
 -1       235 2.38740E+01 2.18750E+00 0.00000E+00
 -1       236 2.68740E+01 2.18750E+00 0.00000E+00
 -1       237 2.98740E+01 2.18750E+00 0.00000E+00
 -1       238 3.28740E+01 2.18750E+00 0.00000E+00
 -1       239 3.58740E+01 2.18750E+00 0.00000E+00
 -1       240 3.88740E+01 2.18750E+00 0.00000E+00
 -1       241 4.18740E+01 2.18750E+00 0.00000E+00
 -1       242 4.48740E+01 2.18750E+00 0.00000E+00
 -1       243 4.78740E+01 2.18750E+00 0.00000E+00
 -1       244 5.08740E+01 2.18750E+00 0.00000E+00
 -1       245 5.38740E+01 2.18750E+00 0.00000E+00
 -1       246 5.68740E+01 2.18750E+00 0.00000E+00
 -1       247 5.98740E+01 2.18750E+00 0.00000E+00
 -1       248 6.28740E+01 2.18750E+00 0.00000E+00
 -1       249 6.58740E+01 2.18750E+00 0.00000E+00
 -1       250 6.88740E+01 2.18750E+00 0.00000E+00
 -1       251 7.18740E+01 2.18750E+00 0.00000E+00
 -1       252 7.48740E+01 2.18750E+00 0.00000E+00
 -1       253 7.78740E+01 2.18750E+00 0.00000E+00
 -1       254 8.08740E+01 2.18750E+00 0.00000E+00
 -1       255 8.38740E+01 2.18750E+00 0.00000E+00
 -1       256 8.68740E+01 2.18750E+00 0.00000E+00
 -1       257 8.98740E+01 2.18750E+00 0.00000E+00
 -1       258 9.28740E+01 2.18750E+00 0.00000E+00
 -1       259 9.58740E+01 2.18750E+00 0.00000E+00
 -1       260 9.88740E+01 2.18750E+00 0.00000E+00
 -1       261 1.01874E+02 2.18750E+00 0.00000E+00
 -1       262 1.04874E+02 2.18750E+00 0.00000E+00
 -1       263 1.07874E+02 2.18750E+00 0.00000E+00
 -1       264 1.10874E+02 2.18750E+00 0.00000E+00
 -1       265 1.13874E+02 2.18750E+00 0.00000E+00
 -1       266 1.16874E+02 2.18750E+00 0.00000E+00
 -1       267 1.19874E+02 2.18750E+00 0.00000E+00
 -1       268 1.22874E+02 2.18750E+00 0.00000E+00
 -1       269 1.25874E+02 2.18750E+00 0.00000E+00
 -1       270 1.28874E+02 2.18750E+00 0.00000E+00
 -1       271 1.31874E+02 2.18750E+00 0.00000E+00
 -1       272 1.34874E+02 2.18750E+00 0.00000E+00
 -1       273 1.37874E+02 2.18750E+00 0.00000E+00
 -1       274 1.40874E+02 2.18750E+00 0.00000E+00
 -1       275 1.43874E+02 2.18750E+00 0.00000E+00
 -1       276 1.46874E+02 2.18750E+00 0.00000E+00
 -1       277 1.47402E+02 4.42500E+00 0.00000E+00
 -1       278 1.47402E+02 7.37500E+00 0.00000E+00
 -1       279 1.47402E+02 1.03250E+01 0.00000E+00
 -1       280 1.47402E+02 1.32750E+01 0.00000E+00
 -1       281 1.47402E+02 1.61750E+01 0.00000E+00
 -1       282 1.47402E+02 1.91250E+01 0.00000E+00
 -1       283 1.47402E+02 2.20750E+01 0.00000E+00
 -1       284 1.47402E+02 2.50250E+01 0.00000E+00
 -1       285 1.47402E+02 2.79750E+01 0.00000E+00
 -1       286 1.47402E+02 3.09250E+01 0.00000E+00
 -1       287 1.47402E+02 3.38250E+01 0.00000E+00
 -1       288 1.47402E+02 3.67750E+01 0.00000E+00
 -1       289 1.47402E+02 3.97250E+01 0.00000E+00
 -1       290 1.47402E+02 4.26750E+01 0.00000E+00
 -1       291 1.46526E+02 4.50385E+01 0.00000E+00
 -1       292 8.32933E+01 2.27203E+01 0.00000E+00
 -1       293 8.30228E+01 2.10339E+01 0.00000E+00
 -1       294 8.22637E+01 1.95106E+01 0.00000E+00
 -1       295 8.13575E+01 1.79842E+01 0.00000E+00
 -1       296 7.99053E+01 1.69052E+01 0.00000E+00
 -1       297 7.84327E+01 1.58910E+01 0.00000E+00
 -1       298 7.66620E+01 1.51932E+01 0.00000E+00
 -1       299 7.48202E+01 1.53922E+01 0.00000E+00
 -1       300 7.30436E+01 1.54974E+01 0.00000E+00
 -1       301 7.14461E+01 1.62778E+01 0.00000E+00
 -1       302 6.99816E+01 1.72438E+01 0.00000E+00
 -1       303 6.87084E+01 1.85515E+01 0.00000E+00
 -1       304 6.75984E+01 2.00588E+01 0.00000E+00
 -1       305 6.71749E+01 2.18151E+01 0.00000E+00
 -1       306 6.69871E+01 2.35036E+01 0.00000E+00
 -1       307 6.70860E+01 2.52656E+01 0.00000E+00
 -1       308 6.77423E+01 2.69770E+01 0.00000E+00
 -1       309 6.86237E+01 2.84725E+01 0.00000E+00
 -1       310 6.97113E+01 2.96594E+01 0.00000E+00
 -1       311 7.09949E+01 3.05986E+01 0.00000E+00
 -1       312 7.24579E+01 3.12779E+01 0.00000E+00
 -1       313 7.40330E+01 3.16604E+01 0.00000E+00
 -1       314 7.57149E+01 3.18823E+01 0.00000E+00
 -1       315 7.73551E+01 3.14386E+01 0.00000E+00
 -1       316 7.89044E+01 3.09249E+01 0.00000E+00
 -1       317 8.02273E+01 2.99811E+01 0.00000E+00
 -1       318 8.14422E+01 2.89291E+01 0.00000E+00
 -1       319 8.23678E+01 2.76008E+01 0.00000E+00
 -1       320 8.30269E+01 2.60810E+01 0.00000E+00
 -1       321 8.34583E+01 2.44263E+01 0.00000E+00
 -1       322 5.19600E+00 4.11500E+01 0.00000E+00
 -1       323 5.19600E+00 4.41000E+01 0.00000E+00
 -1       324 5.19600E+00 3.52750E+01 0.00000E+00
 -1       325 5.19600E+00 3.23250E+01 0.00000E+00
 -1       326 5.19600E+00 2.93750E+01 0.00000E+00
 -1       327 5.19600E+00 2.64250E+01 0.00000E+00
 -1       328 5.19600E+00 2.34750E+01 0.00000E+00
 -1       329 5.19600E+00 2.05250E+01 0.00000E+00
 -1       330 5.19600E+00 1.76250E+01 0.00000E+00
 -1       331 5.19600E+00 1.46750E+01 0.00000E+00
 -1       332 5.19600E+00 1.17250E+01 0.00000E+00
 -1       333 5.19600E+00 8.77500E+00 0.00000E+00
 -1       334 5.19600E+00 5.82500E+00 0.00000E+00
 -1       335 5.53500E+00 4.00625E+00 0.00000E+00
 -1       336 8.53500E+00 4.00625E+00 0.00000E+00
 -1       337 9.15000E+00 4.48040E+01 0.00000E+00
 -1       338 1.21500E+01 4.48040E+01 0.00000E+00
 -1       339 1.51500E+01 4.48040E+01 0.00000E+00
 -1       340 1.81500E+01 4.48040E+01 0.00000E+00
 -1       341 2.11500E+01 4.48040E+01 0.00000E+00
 -1       342 2.41500E+01 4.48040E+01 0.00000E+00
 -1       343 2.71500E+01 4.48040E+01 0.00000E+00
 -1       344 3.01500E+01 4.48040E+01 0.00000E+00
 -1       345 3.31500E+01 4.48040E+01 0.00000E+00
 -1       346 3.61500E+01 4.48040E+01 0.00000E+00
 -1       347 3.91500E+01 4.48040E+01 0.00000E+00
 -1       348 4.21500E+01 4.48040E+01 0.00000E+00
 -1       349 4.51500E+01 4.48040E+01 0.00000E+00
 -1       350 4.81500E+01 4.48040E+01 0.00000E+00
 -1       351 5.11500E+01 4.48040E+01 0.00000E+00
 -1       352 5.41500E+01 4.48040E+01 0.00000E+00
 -1       353 5.71500E+01 4.48040E+01 0.00000E+00
 -1       354 6.01500E+01 4.48040E+01 0.00000E+00
 -1       355 6.31500E+01 4.48040E+01 0.00000E+00
 -1       356 6.61500E+01 4.48040E+01 0.00000E+00
 -1       357 6.91500E+01 4.48040E+01 0.00000E+00
 -1       358 7.21500E+01 4.48040E+01 0.00000E+00
 -1       359 7.51500E+01 4.48040E+01 0.00000E+00
 -1       360 7.81500E+01 4.48040E+01 0.00000E+00
 -1       361 8.11500E+01 4.48040E+01 0.00000E+00
 -1       362 8.41500E+01 4.48040E+01 0.00000E+00
 -1       363 8.71500E+01 4.48040E+01 0.00000E+00
 -1       364 9.01500E+01 4.48040E+01 0.00000E+00
 -1       365 9.31500E+01 4.48040E+01 0.00000E+00
 -1       366 9.61500E+01 4.48040E+01 0.00000E+00
 -1       367 9.91500E+01 4.48040E+01 0.00000E+00
 -1       368 1.02150E+02 4.48040E+01 0.00000E+00
 -1       369 1.05150E+02 4.48040E+01 0.00000E+00
 -1       370 1.08150E+02 4.48040E+01 0.00000E+00
 -1       371 1.11150E+02 4.48040E+01 0.00000E+00
 -1       372 1.14150E+02 4.48040E+01 0.00000E+00
 -1       373 1.17150E+02 4.48040E+01 0.00000E+00
 -1       374 1.20150E+02 4.48040E+01 0.00000E+00
 -1       375 1.23150E+02 4.48040E+01 0.00000E+00
 -1       376 1.26150E+02 4.48040E+01 0.00000E+00
 -1       377 1.29150E+02 4.48040E+01 0.00000E+00
 -1       378 1.32150E+02 4.48040E+01 0.00000E+00
 -1       379 1.35150E+02 4.48040E+01 0.00000E+00
 -1       380 1.38150E+02 4.48040E+01 0.00000E+00
 -1       381 1.41150E+02 4.48040E+01 0.00000E+00
 -1       382 1.43838E+02 4.49212E+01 0.00000E+00
 -1       383 1.15350E+01 4.00625E+00 0.00000E+00
 -1       384 1.45350E+01 4.00625E+00 0.00000E+00
 -1       385 1.75350E+01 4.00625E+00 0.00000E+00
 -1       386 2.05350E+01 4.00625E+00 0.00000E+00
 -1       387 2.35350E+01 4.00625E+00 0.00000E+00
 -1       388 2.65350E+01 4.00625E+00 0.00000E+00
 -1       389 2.95350E+01 4.00625E+00 0.00000E+00
 -1       390 3.25350E+01 4.00625E+00 0.00000E+00
 -1       391 3.55350E+01 4.00625E+00 0.00000E+00
 -1       392 3.85350E+01 4.00625E+00 0.00000E+00
 -1       393 4.15350E+01 4.00625E+00 0.00000E+00
 -1       394 4.45350E+01 4.00625E+00 0.00000E+00
 -1       395 4.75350E+01 4.00625E+00 0.00000E+00
 -1       396 5.05350E+01 4.00625E+00 0.00000E+00
 -1       397 5.35350E+01 4.00625E+00 0.00000E+00
 -1       398 5.65350E+01 4.00625E+00 0.00000E+00
 -1       399 5.95350E+01 4.00625E+00 0.00000E+00
 -1       400 6.25350E+01 4.00625E+00 0.00000E+00
 -1       401 6.55350E+01 4.00625E+00 0.00000E+00
 -1       402 6.85350E+01 4.00625E+00 0.00000E+00
 -1       403 7.15350E+01 4.00625E+00 0.00000E+00
 -1       404 7.45350E+01 4.00625E+00 0.00000E+00
 -1       405 7.75350E+01 4.00625E+00 0.00000E+00
 -1       406 8.05350E+01 4.00625E+00 0.00000E+00
 -1       407 8.35350E+01 4.00625E+00 0.00000E+00
 -1       408 8.65350E+01 4.00625E+00 0.00000E+00
 -1       409 8.95350E+01 4.00625E+00 0.00000E+00
 -1       410 9.25350E+01 4.00625E+00 0.00000E+00
 -1       411 9.55350E+01 4.00625E+00 0.00000E+00
 -1       412 9.85350E+01 4.00625E+00 0.00000E+00
 -1       413 1.01535E+02 4.00625E+00 0.00000E+00
 -1       414 1.04535E+02 4.00625E+00 0.00000E+00
 -1       415 1.07535E+02 4.00625E+00 0.00000E+00
 -1       416 1.10535E+02 4.00625E+00 0.00000E+00
 -1       417 1.13535E+02 4.00625E+00 0.00000E+00
 -1       418 1.16535E+02 4.00625E+00 0.00000E+00
 -1       419 1.19535E+02 4.00625E+00 0.00000E+00
 -1       420 1.22535E+02 4.00625E+00 0.00000E+00
 -1       421 1.25535E+02 4.00625E+00 0.00000E+00
 -1       422 1.28535E+02 4.00625E+00 0.00000E+00
 -1       423 1.31535E+02 4.00625E+00 0.00000E+00
 -1       424 1.34535E+02 4.00625E+00 0.00000E+00
 -1       425 1.37535E+02 4.00625E+00 0.00000E+00
 -1       426 1.40535E+02 4.00625E+00 0.00000E+00
 -1       427 1.43535E+02 4.00625E+00 0.00000E+00
 -1       428 1.45469E+02 4.21562E+00 0.00000E+00
 -1       429 1.44804E+02 1.18000E+01 0.00000E+00
 -1       430 1.44804E+02 8.85000E+00 0.00000E+00
 -1       431 1.45136E+02 6.53281E+00 0.00000E+00
 -1       432 1.44804E+02 1.47000E+01 0.00000E+00
 -1       433 1.44804E+02 1.76500E+01 0.00000E+00
 -1       434 1.44804E+02 2.06000E+01 0.00000E+00
 -1       435 1.44804E+02 2.35500E+01 0.00000E+00
 -1       436 1.44804E+02 2.65000E+01 0.00000E+00
 -1       437 1.44804E+02 2.94500E+01 0.00000E+00
 -1       438 1.44804E+02 3.23500E+01 0.00000E+00
 -1       439 1.44804E+02 3.53000E+01 0.00000E+00
 -1       440 1.44804E+02 3.82500E+01 0.00000E+00
 -1       441 1.44804E+02 4.12000E+01 0.00000E+00
 -1       442 8.41034E+01 1.95447E+01 0.00000E+00
 -1       443 8.47494E+01 2.34405E+01 0.00000E+00
 -1       444 8.46033E+01 2.16453E+01 0.00000E+00
 -1       445 8.31971E+01 1.80183E+01 0.00000E+00
 -1       446 8.15544E+01 1.62025E+01 0.00000E+00
 -1       447 5.19600E+00 3.82125E+01 0.00000E+00
 -1       448 7.80225E+01 1.43362E+01 0.00000E+00
 -1       449 7.55838E+01 1.38374E+01 0.00000E+00
 -1       450 7.38073E+01 1.39426E+01 0.00000E+00
 -1       451 7.15656E+01 1.44971E+01 0.00000E+00
 -1       452 7.00002E+01 1.56788E+01 0.00000E+00
 -1       453 6.84164E+01 1.69934E+01 0.00000E+00
 -1       454 6.71096E+01 1.85366E+01 0.00000E+00
 -1       455 6.58822E+01 2.05743E+01 0.00000E+00
 -1       456 6.57095E+01 2.25067E+01 0.00000E+00
 -1       457 6.56587E+01 2.44619E+01 0.00000E+00
 -1       458 6.62039E+01 2.65854E+01 0.00000E+00
 -1       459 6.70663E+01 2.83829E+01 0.00000E+00
 -1       460 6.81500E+01 2.99983E+01 0.00000E+00
 -1       461 6.95382E+01 3.12427E+01 0.00000E+00
 -1       462 7.11452E+01 3.21899E+01 0.00000E+00
 -1       463 7.28802E+01 3.29730E+01 0.00000E+00
 -1       464 7.45621E+01 3.31949E+01 0.00000E+00
 -1       465 7.69172E+01 3.30734E+01 0.00000E+00
 -1       466 7.85377E+01 3.24121E+01 0.00000E+00
 -1       467 8.03673E+01 3.15764E+01 0.00000E+00
 -1       468 8.17380E+01 3.04984E+01 0.00000E+00
 -1       469 8.30372E+01 2.90540E+01 0.00000E+00
 -1       470 8.38865E+01 2.73566E+01 0.00000E+00
 -1       471 8.45779E+01 2.56018E+01 0.00000E+00
 -1       472 8.00817E+01 1.51883E+01 0.00000E+00
 -1       473 7.69444E+01 1.29804E+01 0.00000E+00
 -1       474 1.00350E+01 6.60425E+00 0.00000E+00
 -1       475 7.79400E+00 3.08500E+01 0.00000E+00
 -1       476 7.79400E+00 3.38000E+01 0.00000E+00
 -1       477 7.79400E+00 2.49500E+01 0.00000E+00
 -1       478 7.79400E+00 2.20000E+01 0.00000E+00
 -1       479 7.79400E+00 1.91000E+01 0.00000E+00
 -1       480 7.79400E+00 1.61500E+01 0.00000E+00
 -1       481 7.79400E+00 1.32000E+01 0.00000E+00
 -1       482 7.79400E+00 1.02500E+01 0.00000E+00
 -1       483 1.30350E+01 6.60425E+00 0.00000E+00
 -1       484 1.06500E+01 4.22060E+01 0.00000E+00
 -1       485 7.96759E+01 1.32549E+01 0.00000E+00
 -1       486 1.36500E+01 4.22060E+01 0.00000E+00
 -1       487 1.66500E+01 4.22060E+01 0.00000E+00
 -1       488 1.96500E+01 4.22060E+01 0.00000E+00
 -1       489 2.26500E+01 4.22060E+01 0.00000E+00
 -1       490 2.56500E+01 4.22060E+01 0.00000E+00
 -1       491 2.86500E+01 4.22060E+01 0.00000E+00
 -1       492 3.16500E+01 4.22060E+01 0.00000E+00
 -1       493 3.46500E+01 4.22060E+01 0.00000E+00
 -1       494 3.76500E+01 4.22060E+01 0.00000E+00
 -1       495 4.06500E+01 4.22060E+01 0.00000E+00
 -1       496 4.36500E+01 4.22060E+01 0.00000E+00
 -1       497 4.66500E+01 4.22060E+01 0.00000E+00
 -1       498 4.96500E+01 4.22060E+01 0.00000E+00
 -1       499 5.26500E+01 4.22060E+01 0.00000E+00
 -1       500 5.56500E+01 4.22060E+01 0.00000E+00
 -1       501 5.86500E+01 4.22060E+01 0.00000E+00
 -1       502 6.16500E+01 4.22060E+01 0.00000E+00
 -1       503 6.46500E+01 4.22060E+01 0.00000E+00
 -1       504 6.76500E+01 4.22060E+01 0.00000E+00
 -1       505 7.06500E+01 4.22060E+01 0.00000E+00
 -1       506 7.36500E+01 4.22060E+01 0.00000E+00
 -1       507 7.66500E+01 4.22060E+01 0.00000E+00
 -1       508 7.96500E+01 4.22060E+01 0.00000E+00
 -1       509 8.26500E+01 4.22060E+01 0.00000E+00
 -1       510 8.56500E+01 4.22060E+01 0.00000E+00
 -1       511 8.86500E+01 4.22060E+01 0.00000E+00
 -1       512 9.16500E+01 4.22060E+01 0.00000E+00
 -1       513 9.46500E+01 4.22060E+01 0.00000E+00
 -1       514 9.76500E+01 4.22060E+01 0.00000E+00
 -1       515 1.00650E+02 4.22060E+01 0.00000E+00
 -1       516 1.03650E+02 4.22060E+01 0.00000E+00
 -1       517 1.06650E+02 4.22060E+01 0.00000E+00
 -1       518 1.09650E+02 4.22060E+01 0.00000E+00
 -1       519 1.12650E+02 4.22060E+01 0.00000E+00
 -1       520 1.15650E+02 4.22060E+01 0.00000E+00
 -1       521 1.18650E+02 4.22060E+01 0.00000E+00
 -1       522 1.21650E+02 4.22060E+01 0.00000E+00
 -1       523 1.24650E+02 4.22060E+01 0.00000E+00
 -1       524 1.27650E+02 4.22060E+01 0.00000E+00
 -1       525 1.30650E+02 4.22060E+01 0.00000E+00
 -1       526 1.33650E+02 4.22060E+01 0.00000E+00
 -1       527 1.36650E+02 4.22060E+01 0.00000E+00
 -1       528 1.39650E+02 4.22060E+01 0.00000E+00
 -1       529 1.90350E+01 6.60425E+00 0.00000E+00
 -1       530 2.20350E+01 6.60425E+00 0.00000E+00
 -1       531 2.50350E+01 6.60425E+00 0.00000E+00
 -1       532 2.80350E+01 6.60425E+00 0.00000E+00
 -1       533 3.10350E+01 6.60425E+00 0.00000E+00
 -1       534 3.40350E+01 6.60425E+00 0.00000E+00
 -1       535 3.70350E+01 6.60425E+00 0.00000E+00
 -1       536 4.00350E+01 6.60425E+00 0.00000E+00
 -1       537 4.30350E+01 6.60425E+00 0.00000E+00
 -1       538 4.60350E+01 6.60425E+00 0.00000E+00
 -1       539 4.90350E+01 6.60425E+00 0.00000E+00
 -1       540 5.20350E+01 6.60425E+00 0.00000E+00
 -1       541 5.50350E+01 6.60425E+00 0.00000E+00
 -1       542 5.80350E+01 6.60425E+00 0.00000E+00
 -1       543 6.10350E+01 6.60425E+00 0.00000E+00
 -1       544 6.40350E+01 6.60425E+00 0.00000E+00
 -1       545 6.70350E+01 6.60425E+00 0.00000E+00
 -1       546 7.00350E+01 6.60425E+00 0.00000E+00
 -1       547 7.30350E+01 6.60425E+00 0.00000E+00
 -1       548 7.60350E+01 6.60425E+00 0.00000E+00
 -1       549 7.90350E+01 6.60425E+00 0.00000E+00
 -1       550 8.20350E+01 6.60425E+00 0.00000E+00
 -1       551 8.50350E+01 6.60425E+00 0.00000E+00
 -1       552 8.80350E+01 6.60425E+00 0.00000E+00
 -1       553 9.10350E+01 6.60425E+00 0.00000E+00
 -1       554 9.40350E+01 6.60425E+00 0.00000E+00
 -1       555 9.70350E+01 6.60425E+00 0.00000E+00
 -1       556 1.00035E+02 6.60425E+00 0.00000E+00
 -1       557 1.03035E+02 6.60425E+00 0.00000E+00
 -1       558 1.06035E+02 6.60425E+00 0.00000E+00
 -1       559 1.09035E+02 6.60425E+00 0.00000E+00
 -1       560 1.12035E+02 6.60425E+00 0.00000E+00
 -1       561 1.15035E+02 6.60425E+00 0.00000E+00
 -1       562 1.18035E+02 6.60425E+00 0.00000E+00
 -1       563 1.21035E+02 6.60425E+00 0.00000E+00
 -1       564 1.24035E+02 6.60425E+00 0.00000E+00
 -1       565 1.27035E+02 6.60425E+00 0.00000E+00
 -1       566 1.30035E+02 6.60425E+00 0.00000E+00
 -1       567 1.33035E+02 6.60425E+00 0.00000E+00
 -1       568 1.36035E+02 6.60425E+00 0.00000E+00
 -1       569 1.39035E+02 6.60425E+00 0.00000E+00
 -1       570 1.42035E+02 6.60425E+00 0.00000E+00
 -1       571 1.42206E+02 1.61750E+01 0.00000E+00
 -1       572 1.42206E+02 1.91250E+01 0.00000E+00
 -1       573 1.42206E+02 1.03250E+01 0.00000E+00
 -1       574 1.42206E+02 1.32500E+01 0.00000E+00
 -1       575 1.42206E+02 2.20750E+01 0.00000E+00
 -1       576 1.42206E+02 2.50250E+01 0.00000E+00
 -1       577 1.42206E+02 2.79750E+01 0.00000E+00
 -1       578 1.42206E+02 3.08750E+01 0.00000E+00
 -1       579 1.42206E+02 3.38250E+01 0.00000E+00
 -1       580 1.42206E+02 3.67750E+01 0.00000E+00
 -1       581 1.42206E+02 3.97250E+01 0.00000E+00
 -1       582 8.63858E+01 2.24039E+01 0.00000E+00
 -1       583 8.61849E+01 2.01590E+01 0.00000E+00
 -1       584 8.62898E+01 2.46502E+01 0.00000E+00
 -1       585 1.60350E+01 6.60425E+00 0.00000E+00
 -1       586 8.49809E+01 1.79914E+01 0.00000E+00
 -1       587 8.35233E+01 1.60722E+01 0.00000E+00
 -1       588 7.92300E+00 4.16780E+01 0.00000E+00
 -1       589 8.55161E+01 2.69850E+01 0.00000E+00
 -1       590 7.13761E+01 3.39919E+01 0.00000E+00
 -1       591 7.79400E+00 2.79000E+01 0.00000E+00
 -1       592 6.96486E+01 1.35854E+01 0.00000E+00
 -1       593 7.45991E+01 1.22615E+01 0.00000E+00
 -1       594 7.83122E+01 3.41756E+01 0.00000E+00
 -1       595 7.22344E+01 1.23923E+01 0.00000E+00
 -1       596 6.80648E+01 1.48999E+01 0.00000E+00
 -1       597 6.66459E+01 1.68191E+01 0.00000E+00
 -1       598 6.51703E+01 1.87569E+01 0.00000E+00
 -1       599 6.43379E+01 2.14102E+01 0.00000E+00
 -1       600 6.39696E+01 2.34398E+01 0.00000E+00
 -1       601 6.43512E+01 2.59293E+01 0.00000E+00
 -1       602 6.50888E+01 2.82261E+01 0.00000E+00
 -1       603 6.61839E+01 3.01461E+01 0.00000E+00
 -1       604 6.76993E+01 3.18976E+01 0.00000E+00
 -1       605 6.94709E+01 3.31939E+01 0.00000E+00
 -1       606 7.35297E+01 3.45351E+01 0.00000E+00
 -1       607 7.58237E+01 3.47633E+01 0.00000E+00
 -1       608 8.01418E+01 3.33398E+01 0.00000E+00
 -1       609 8.20094E+01 3.22538E+01 0.00000E+00
 -1       610 8.36005E+01 3.08671E+01 0.00000E+00
 -1       611 8.49957E+01 2.89728E+01 0.00000E+00
 -1       612 8.17909E+01 1.42829E+01 0.00000E+00
 -1       613 7.61550E+00 6.21462E+00 0.00000E+00
 -1       614 7.79400E+00 3.67375E+01 0.00000E+00
 -1       615 6.36260E+01 1.95929E+01 0.00000E+00
 -1       616 7.85978E+01 1.18991E+01 0.00000E+00
 -1       617 1.41678E+02 4.22645E+01 0.00000E+00
 -1       618 1.03920E+01 2.05500E+01 0.00000E+00
 -1       619 1.03920E+01 2.35000E+01 0.00000E+00
 -1       620 1.03920E+01 1.46750E+01 0.00000E+00
 -1       621 1.03920E+01 1.17250E+01 0.00000E+00
 -1       622 1.15350E+01 9.20225E+00 0.00000E+00
 -1       623 8.40097E+01 1.38679E+01 0.00000E+00
 -1       624 1.45350E+01 9.20225E+00 0.00000E+00
 -1       625 1.51500E+01 3.96080E+01 0.00000E+00
 -1       626 1.81500E+01 3.96080E+01 0.00000E+00
 -1       627 2.11500E+01 3.96080E+01 0.00000E+00
 -1       628 2.41500E+01 3.96080E+01 0.00000E+00
 -1       629 2.71500E+01 3.96080E+01 0.00000E+00
 -1       630 3.01500E+01 3.96080E+01 0.00000E+00
 -1       631 3.31500E+01 3.96080E+01 0.00000E+00
 -1       632 3.61500E+01 3.96080E+01 0.00000E+00
 -1       633 3.91500E+01 3.96080E+01 0.00000E+00
 -1       634 4.21500E+01 3.96080E+01 0.00000E+00
 -1       635 4.51500E+01 3.96080E+01 0.00000E+00
 -1       636 4.81500E+01 3.96080E+01 0.00000E+00
 -1       637 5.11500E+01 3.96080E+01 0.00000E+00
 -1       638 5.41500E+01 3.96080E+01 0.00000E+00
 -1       639 5.71500E+01 3.96080E+01 0.00000E+00
 -1       640 6.01500E+01 3.96080E+01 0.00000E+00
 -1       641 6.31500E+01 3.96080E+01 0.00000E+00
 -1       642 6.61500E+01 3.96080E+01 0.00000E+00
 -1       643 6.91500E+01 3.96080E+01 0.00000E+00
 -1       644 7.21500E+01 3.96080E+01 0.00000E+00
 -1       645 7.51500E+01 3.96080E+01 0.00000E+00
 -1       646 7.81500E+01 3.96080E+01 0.00000E+00
 -1       647 8.11500E+01 3.96080E+01 0.00000E+00
 -1       648 8.41500E+01 3.96080E+01 0.00000E+00
 -1       649 8.71500E+01 3.96080E+01 0.00000E+00
 -1       650 9.01500E+01 3.96080E+01 0.00000E+00
 -1       651 9.31500E+01 3.96080E+01 0.00000E+00
 -1       652 9.61500E+01 3.96080E+01 0.00000E+00
 -1       653 9.91500E+01 3.96080E+01 0.00000E+00
 -1       654 1.02150E+02 3.96080E+01 0.00000E+00
 -1       655 1.05150E+02 3.96080E+01 0.00000E+00
 -1       656 1.08150E+02 3.96080E+01 0.00000E+00
 -1       657 1.11150E+02 3.96080E+01 0.00000E+00
 -1       658 1.14150E+02 3.96080E+01 0.00000E+00
 -1       659 1.17150E+02 3.96080E+01 0.00000E+00
 -1       660 1.20150E+02 3.96080E+01 0.00000E+00
 -1       661 1.23150E+02 3.96080E+01 0.00000E+00
 -1       662 1.26150E+02 3.96080E+01 0.00000E+00
 -1       663 1.29150E+02 3.96080E+01 0.00000E+00
 -1       664 1.32150E+02 3.96080E+01 0.00000E+00
 -1       665 1.35150E+02 3.96080E+01 0.00000E+00
 -1       666 1.38150E+02 3.96080E+01 0.00000E+00
 -1       667 2.35350E+01 9.20225E+00 0.00000E+00
 -1       668 8.41520E+01 3.31061E+01 0.00000E+00
 -1       669 2.05350E+01 9.20225E+00 0.00000E+00
 -1       670 2.95350E+01 9.20225E+00 0.00000E+00
 -1       671 3.25350E+01 9.20225E+00 0.00000E+00
 -1       672 3.55350E+01 9.20225E+00 0.00000E+00
 -1       673 3.85350E+01 9.20225E+00 0.00000E+00
 -1       674 4.15350E+01 9.20225E+00 0.00000E+00
 -1       675 4.45350E+01 9.20225E+00 0.00000E+00
 -1       676 4.75350E+01 9.20225E+00 0.00000E+00
 -1       677 5.05350E+01 9.20225E+00 0.00000E+00
 -1       678 5.35350E+01 9.20225E+00 0.00000E+00
 -1       679 5.65350E+01 9.20225E+00 0.00000E+00
 -1       680 5.95350E+01 9.20225E+00 0.00000E+00
 -1       681 6.25350E+01 9.20225E+00 0.00000E+00
 -1       682 6.55350E+01 9.20225E+00 0.00000E+00
 -1       683 6.85350E+01 9.20225E+00 0.00000E+00
 -1       684 7.15350E+01 9.20225E+00 0.00000E+00
 -1       685 7.45350E+01 9.20225E+00 0.00000E+00
 -1       686 7.75350E+01 9.20225E+00 0.00000E+00
 -1       687 8.05350E+01 9.20225E+00 0.00000E+00
 -1       688 8.35350E+01 9.20225E+00 0.00000E+00
 -1       689 8.65350E+01 9.20225E+00 0.00000E+00
 -1       690 8.95350E+01 9.20225E+00 0.00000E+00
 -1       691 9.25350E+01 9.20225E+00 0.00000E+00
 -1       692 9.55350E+01 9.20225E+00 0.00000E+00
 -1       693 9.85350E+01 9.20225E+00 0.00000E+00
 -1       694 1.01535E+02 9.20225E+00 0.00000E+00
 -1       695 1.04535E+02 9.20225E+00 0.00000E+00
 -1       696 1.07535E+02 9.20225E+00 0.00000E+00
 -1       697 1.10535E+02 9.20225E+00 0.00000E+00
 -1       698 1.13535E+02 9.20225E+00 0.00000E+00
 -1       699 1.16535E+02 9.20225E+00 0.00000E+00
 -1       700 1.19535E+02 9.20225E+00 0.00000E+00
 -1       701 1.22535E+02 9.20225E+00 0.00000E+00
 -1       702 1.25535E+02 9.20225E+00 0.00000E+00
 -1       703 1.28535E+02 9.20225E+00 0.00000E+00
 -1       704 1.31535E+02 9.20225E+00 0.00000E+00
 -1       705 1.34535E+02 9.20225E+00 0.00000E+00
 -1       706 1.37535E+02 9.20225E+00 0.00000E+00
 -1       707 1.39870E+02 9.76363E+00 0.00000E+00
 -1       708 1.39608E+02 2.35500E+01 0.00000E+00
 -1       709 1.40178E+02 3.96665E+01 0.00000E+00
 -1       710 1.39608E+02 1.76500E+01 0.00000E+00
 -1       711 1.39608E+02 2.65000E+01 0.00000E+00
 -1       712 1.39608E+02 2.06000E+01 0.00000E+00
 -1       713 7.45069E+01 3.63559E+01 0.00000E+00
 -1       714 1.39608E+02 2.94000E+01 0.00000E+00
 -1       715 1.39608E+02 3.23500E+01 0.00000E+00
 -1       716 1.39608E+02 3.53000E+01 0.00000E+00
 -1       717 6.73744E+01 3.42003E+01 0.00000E+00
 -1       718 8.17029E+01 1.17742E+01 0.00000E+00
 -1       719 7.19515E+01 3.62515E+01 0.00000E+00
 -1       720 9.78035E+00 3.93914E+01 0.00000E+00
 -1       721 8.82188E+01 2.36074E+01 0.00000E+00
 -1       722 7.74622E+01 3.61386E+01 0.00000E+00
 -1       723 1.75350E+01 9.20225E+00 0.00000E+00
 -1       724 8.83274E+01 2.10987E+01 0.00000E+00
 -1       725 2.65350E+01 9.20225E+00 0.00000E+00
 -1       726 1.24652E+01 3.94997E+01 0.00000E+00
 -1       727 1.03920E+01 1.76125E+01 0.00000E+00
 -1       728 8.56791E+01 3.09370E+01 0.00000E+00
 -1       729 1.03920E+01 3.23250E+01 0.00000E+00
 -1       730 7.62744E+01 1.09811E+01 0.00000E+00
 -1       731 7.39096E+01 1.11119E+01 0.00000E+00
 -1       732 8.73752E+01 1.80797E+01 0.00000E+00
 -1       733 6.46102E+01 1.67997E+01 0.00000E+00
 -1       734 6.78148E+01 1.29873E+01 0.00000E+00
 -1       735 6.60291E+01 1.48805E+01 0.00000E+00
 -1       736 6.23013E+01 2.20888E+01 0.00000E+00
 -1       737 6.25479E+01 2.49317E+01 0.00000E+00
 -1       738 6.29274E+01 2.76533E+01 0.00000E+00
 -1       739 8.56180E+01 1.59945E+01 0.00000E+00
 -1       740 6.40009E+01 3.01189E+01 0.00000E+00
 -1       741 6.96961E+01 3.53294E+01 0.00000E+00
 -1       742 7.01527E+01 1.12793E+01 0.00000E+00
 -1       743 7.98700E+01 3.51654E+01 0.00000E+00
 -1       744 8.74515E+01 2.63307E+01 0.00000E+00
 -1       745 6.55178E+01 3.22537E+01 0.00000E+00
 -1       746 8.69310E+01 2.83185E+01 0.00000E+00
 -1       747 8.18957E+01 3.42070E+01 0.00000E+00
 -1       748 1.03920E+01 3.52625E+01 0.00000E+00
 -1       749 1.03920E+01 2.64500E+01 0.00000E+00
 -1       750 1.39608E+02 1.47250E+01 0.00000E+00
 -1       751 1.39739E+02 1.22443E+01 0.00000E+00
 -1       752 1.03920E+01 2.93875E+01 0.00000E+00
 -1       753 6.30659E+01 1.76356E+01 0.00000E+00
 -1       754 1.38879E+02 3.74540E+01 0.00000E+00
 -1       755 7.94344E+01 3.75528E+01 0.00000E+00
 -1       756 1.29900E+01 1.32000E+01 0.00000E+00
 -1       757 8.88504E+01 2.77591E+01 0.00000E+00
 -1       758 1.96500E+01 3.70100E+01 0.00000E+00
 -1       759 2.26500E+01 3.70100E+01 0.00000E+00
 -1       760 2.56500E+01 3.70100E+01 0.00000E+00
 -1       761 2.86500E+01 3.70100E+01 0.00000E+00
 -1       762 3.16500E+01 3.70100E+01 0.00000E+00
 -1       763 3.46500E+01 3.70100E+01 0.00000E+00
 -1       764 3.76500E+01 3.70100E+01 0.00000E+00
 -1       765 4.06500E+01 3.70100E+01 0.00000E+00
 -1       766 4.36500E+01 3.70100E+01 0.00000E+00
 -1       767 4.66500E+01 3.70100E+01 0.00000E+00
 -1       768 4.96500E+01 3.70100E+01 0.00000E+00
 -1       769 5.26500E+01 3.70100E+01 0.00000E+00
 -1       770 5.56500E+01 3.70100E+01 0.00000E+00
 -1       771 5.86500E+01 3.70100E+01 0.00000E+00
 -1       772 6.16500E+01 3.70100E+01 0.00000E+00
 -1       773 6.46500E+01 3.70100E+01 0.00000E+00
 -1       774 8.26500E+01 3.70550E+01 0.00000E+00
 -1       775 8.56500E+01 3.70550E+01 0.00000E+00
 -1       776 8.86500E+01 3.70550E+01 0.00000E+00
 -1       777 9.16500E+01 3.70550E+01 0.00000E+00
 -1       778 9.46500E+01 3.70550E+01 0.00000E+00
 -1       779 9.76500E+01 3.70550E+01 0.00000E+00
 -1       780 1.00650E+02 3.70550E+01 0.00000E+00
 -1       781 1.03650E+02 3.70550E+01 0.00000E+00
 -1       782 1.06650E+02 3.70550E+01 0.00000E+00
 -1       783 1.09650E+02 3.70550E+01 0.00000E+00
 -1       784 1.12650E+02 3.70550E+01 0.00000E+00
 -1       785 1.15650E+02 3.70550E+01 0.00000E+00
 -1       786 1.18650E+02 3.70550E+01 0.00000E+00
 -1       787 1.21650E+02 3.70550E+01 0.00000E+00
 -1       788 1.24650E+02 3.70550E+01 0.00000E+00
 -1       789 1.27650E+02 3.70550E+01 0.00000E+00
 -1       790 1.30650E+02 3.70550E+01 0.00000E+00
 -1       791 1.33650E+02 3.70550E+01 0.00000E+00
 -1       792 1.36264E+02 3.72545E+01 0.00000E+00
 -1       793 3.40350E+01 1.18003E+01 0.00000E+00
 -1       794 3.10350E+01 1.18003E+01 0.00000E+00
 -1       795 4.00350E+01 1.18003E+01 0.00000E+00
 -1       796 4.30350E+01 1.18003E+01 0.00000E+00
 -1       797 4.60350E+01 1.18003E+01 0.00000E+00
 -1       798 4.90350E+01 1.18003E+01 0.00000E+00
 -1       799 5.20350E+01 1.18003E+01 0.00000E+00
 -1       800 5.50350E+01 1.18003E+01 0.00000E+00
 -1       801 5.80350E+01 1.18003E+01 0.00000E+00
 -1       802 6.10350E+01 1.18003E+01 0.00000E+00
 -1       803 6.40350E+01 1.18003E+01 0.00000E+00
 -1       804 8.80350E+01 1.17552E+01 0.00000E+00
 -1       805 9.10350E+01 1.17552E+01 0.00000E+00
 -1       806 9.40350E+01 1.17552E+01 0.00000E+00
 -1       807 9.70350E+01 1.17552E+01 0.00000E+00
 -1       808 1.00035E+02 1.17552E+01 0.00000E+00
 -1       809 1.03035E+02 1.17552E+01 0.00000E+00
 -1       810 1.06035E+02 1.17552E+01 0.00000E+00
 -1       811 1.09035E+02 1.17552E+01 0.00000E+00
 -1       812 1.12035E+02 1.17552E+01 0.00000E+00
 -1       813 1.15035E+02 1.17552E+01 0.00000E+00
 -1       814 1.18035E+02 1.17552E+01 0.00000E+00
 -1       815 1.21035E+02 1.17552E+01 0.00000E+00
 -1       816 1.24035E+02 1.17552E+01 0.00000E+00
 -1       817 1.27035E+02 1.17552E+01 0.00000E+00
 -1       818 1.30035E+02 1.17552E+01 0.00000E+00
 -1       819 1.33035E+02 1.17552E+01 0.00000E+00
 -1       820 1.36035E+02 1.17552E+01 0.00000E+00
 -1       821 1.37887E+02 1.19998E+01 0.00000E+00
 -1       822 1.29900E+01 2.20250E+01 0.00000E+00
 -1       823 1.37010E+02 2.50250E+01 0.00000E+00
 -1       824 1.37010E+02 3.38250E+01 0.00000E+00
 -1       825 1.37010E+02 2.79250E+01 0.00000E+00
 -1       826 8.96473E+01 2.54796E+01 0.00000E+00
 -1       827 6.29515E+01 3.24709E+01 0.00000E+00
 -1       828 8.67290E+01 3.32983E+01 0.00000E+00
 -1       829 6.48412E+01 3.47577E+01 0.00000E+00
 -1       830 8.52723E+01 1.15351E+01 0.00000E+00
 -1       831 1.37010E+02 3.08750E+01 0.00000E+00
 -1       832 3.70350E+01 1.18003E+01 0.00000E+00
 -1       833 2.20350E+01 1.18003E+01 0.00000E+00
 -1       834 1.66500E+01 3.70100E+01 0.00000E+00
 -1       835 8.99664E+01 1.89221E+01 0.00000E+00
 -1       836 6.75653E+01 3.67594E+01 0.00000E+00
 -1       837 6.39405E+01 1.48205E+01 0.00000E+00
 -1       838 8.81547E+01 3.05121E+01 0.00000E+00
 -1       839 1.37625E+01 1.12011E+01 0.00000E+00
 -1       840 6.07071E+01 2.65757E+01 0.00000E+00
 -1       841 6.56743E+01 1.27571E+01 0.00000E+00
 -1       842 8.79363E+01 1.58239E+01 0.00000E+00
 -1       843 6.14487E+01 2.00368E+01 0.00000E+00
 -1       844 6.71047E+01 1.09797E+01 0.00000E+00
 -1       845 6.15844E+01 2.97046E+01 0.00000E+00
 -1       846 6.03820E+01 2.36874E+01 0.00000E+00
 -1       847 9.03214E+01 2.24417E+01 0.00000E+00
 -1       848 1.29900E+01 2.49750E+01 0.00000E+00
 -1       849 1.29900E+01 1.61375E+01 0.00000E+00
 -1       850 1.39652E+01 3.69017E+01 0.00000E+00
 -1       851 1.37010E+02 1.61875E+01 0.00000E+00
 -1       852 1.29900E+01 3.37938E+01 0.00000E+00
 -1       853 9.05275E+01 1.66662E+01 0.00000E+00
 -1       854 2.80350E+01 1.18003E+01 0.00000E+00
 -1       855 1.90350E+01 1.18003E+01 0.00000E+00
 -1       856 1.29900E+01 1.90875E+01 0.00000E+00
 -1       857 1.37010E+02 1.91375E+01 0.00000E+00
 -1       858 1.37010E+02 2.20812E+01 0.00000E+00
 -1       859 8.52755E+01 3.54139E+01 0.00000E+00
 -1       860 8.68265E+01 1.38748E+01 0.00000E+00
 -1       861 1.63988E+01 1.15007E+01 0.00000E+00
 -1       862 2.50350E+01 1.18003E+01 0.00000E+00
 -1       863 1.29900E+01 3.08563E+01 0.00000E+00
 -1       864 6.23962E+01 1.56564E+01 0.00000E+00
 -1       865 5.95294E+01 2.16354E+01 0.00000E+00
 -1       866 1.36637E+02 3.55398E+01 0.00000E+00
 -1       867 8.92812E+01 1.42107E+01 0.00000E+00
 -1       868 9.06528E+01 2.96789E+01 0.00000E+00
 -1       869 6.27603E+01 3.47232E+01 0.00000E+00
 -1       870 2.41500E+01 3.44120E+01 0.00000E+00
 -1       871 2.71500E+01 3.44120E+01 0.00000E+00
 -1       872 3.01500E+01 3.44120E+01 0.00000E+00
 -1       873 3.31500E+01 3.44120E+01 0.00000E+00
 -1       874 3.61500E+01 3.44120E+01 0.00000E+00
 -1       875 3.91500E+01 3.44120E+01 0.00000E+00
 -1       876 4.21500E+01 3.44120E+01 0.00000E+00
 -1       877 4.51500E+01 3.44120E+01 0.00000E+00
 -1       878 4.81500E+01 3.44120E+01 0.00000E+00
 -1       879 5.11500E+01 3.44120E+01 0.00000E+00
 -1       880 5.41500E+01 3.44120E+01 0.00000E+00
 -1       881 5.71500E+01 3.44120E+01 0.00000E+00
 -1       882 9.01500E+01 3.44570E+01 0.00000E+00
 -1       883 9.31500E+01 3.44570E+01 0.00000E+00
 -1       884 9.61500E+01 3.44570E+01 0.00000E+00
 -1       885 9.91500E+01 3.44570E+01 0.00000E+00
 -1       886 1.02150E+02 3.44570E+01 0.00000E+00
 -1       887 1.05150E+02 3.44570E+01 0.00000E+00
 -1       888 1.08150E+02 3.44570E+01 0.00000E+00
 -1       889 1.11150E+02 3.44570E+01 0.00000E+00
 -1       890 1.14150E+02 3.44570E+01 0.00000E+00
 -1       891 1.17150E+02 3.44570E+01 0.00000E+00
 -1       892 1.20150E+02 3.44570E+01 0.00000E+00
 -1       893 1.23150E+02 3.44570E+01 0.00000E+00
 -1       894 1.26150E+02 3.44570E+01 0.00000E+00
 -1       895 1.29150E+02 3.44570E+01 0.00000E+00
 -1       896 1.32150E+02 3.44570E+01 0.00000E+00
 -1       897 3.25350E+01 1.43982E+01 0.00000E+00
 -1       898 4.45350E+01 1.43982E+01 0.00000E+00
 -1       899 4.15350E+01 1.43982E+01 0.00000E+00
 -1       900 5.05350E+01 1.43982E+01 0.00000E+00
 -1       901 5.35350E+01 1.43982E+01 0.00000E+00
 -1       902 5.65350E+01 1.43982E+01 0.00000E+00
 -1       903 5.95350E+01 1.43982E+01 0.00000E+00
 -1       904 6.05568E+01 1.76909E+01 0.00000E+00
 -1       905 9.85350E+01 1.43532E+01 0.00000E+00
 -1       906 1.01535E+02 1.43532E+01 0.00000E+00
 -1       907 1.04535E+02 1.43532E+01 0.00000E+00
 -1       908 1.07535E+02 1.43532E+01 0.00000E+00
 -1       909 1.10535E+02 1.43532E+01 0.00000E+00
 -1       910 1.13535E+02 1.43532E+01 0.00000E+00
 -1       911 1.16535E+02 1.43532E+01 0.00000E+00
 -1       912 1.19535E+02 1.43532E+01 0.00000E+00
 -1       913 1.22535E+02 1.43532E+01 0.00000E+00
 -1       914 1.25535E+02 1.43532E+01 0.00000E+00
 -1       915 1.28535E+02 1.43532E+01 0.00000E+00
 -1       916 1.31535E+02 1.43532E+01 0.00000E+00
 -1       917 1.34535E+02 1.43532E+01 0.00000E+00
 -1       918 9.19859E+01 2.44049E+01 0.00000E+00
 -1       919 1.37449E+02 1.40936E+01 0.00000E+00
 -1       920 1.34412E+02 2.64750E+01 0.00000E+00
 -1       921 9.55350E+01 1.43532E+01 0.00000E+00
 -1       922 5.90103E+01 2.87389E+01 0.00000E+00
 -1       923 9.14497E+01 2.73995E+01 0.00000E+00
 -1       924 9.25350E+01 1.43532E+01 0.00000E+00
 -1       925 1.29900E+01 2.79188E+01 0.00000E+00
 -1       926 5.81741E+01 2.53983E+01 0.00000E+00
 -1       927 4.75350E+01 1.43982E+01 0.00000E+00
 -1       928 1.81500E+01 3.44120E+01 0.00000E+00
 -1       929 2.11500E+01 3.44120E+01 0.00000E+00
 -1       930 2.35350E+01 1.43982E+01 0.00000E+00
 -1       931 1.56263E+01 1.34996E+01 0.00000E+00
 -1       932 9.26840E+01 2.04257E+01 0.00000E+00
 -1       933 6.01294E+01 3.21446E+01 0.00000E+00
 -1       934 1.56748E+01 3.39021E+01 0.00000E+00
 -1       935 6.08897E+01 3.45773E+01 0.00000E+00
 -1       936 1.34412E+02 2.94250E+01 0.00000E+00
 -1       937 2.95350E+01 1.43982E+01 0.00000E+00
 -1       938 3.55350E+01 1.43982E+01 0.00000E+00
 -1       939 1.34394E+02 3.49984E+01 0.00000E+00
 -1       940 2.65350E+01 1.43982E+01 0.00000E+00
 -1       941 3.85350E+01 1.43982E+01 0.00000E+00
 -1       942 6.08895E+01 1.48480E+01 0.00000E+00
 -1       943 5.86375E+01 1.92895E+01 0.00000E+00
 -1       944 1.34412E+02 2.35313E+01 0.00000E+00
 -1       945 2.05350E+01 1.43982E+01 0.00000E+00
 -1       946 1.55880E+01 2.35000E+01 0.00000E+00
 -1       947 9.43485E+01 2.23888E+01 0.00000E+00
 -1       948 1.55880E+01 2.05625E+01 0.00000E+00
 -1       949 9.32450E+01 1.81699E+01 0.00000E+00
 -1       950 5.73215E+01 2.33463E+01 0.00000E+00
 -1       951 1.34412E+02 1.76625E+01 0.00000E+00
 -1       952 1.56748E+01 3.09646E+01 0.00000E+00
 -1       953 1.34580E+02 3.26660E+01 0.00000E+00
 -1       954 2.26500E+01 3.18140E+01 0.00000E+00
 -1       955 2.56500E+01 3.18140E+01 0.00000E+00
 -1       956 2.86500E+01 3.18140E+01 0.00000E+00
 -1       957 3.16500E+01 3.18140E+01 0.00000E+00
 -1       958 3.46500E+01 3.18140E+01 0.00000E+00
 -1       959 3.76500E+01 3.18140E+01 0.00000E+00
 -1       960 4.06500E+01 3.18140E+01 0.00000E+00
 -1       961 4.36500E+01 3.18140E+01 0.00000E+00
 -1       962 4.66500E+01 3.18140E+01 0.00000E+00
 -1       963 4.96500E+01 3.18140E+01 0.00000E+00
 -1       964 5.26500E+01 3.18140E+01 0.00000E+00
 -1       965 5.56500E+01 3.18140E+01 0.00000E+00
 -1       966 4.30350E+01 1.69963E+01 0.00000E+00
 -1       967 9.76500E+01 3.18590E+01 0.00000E+00
 -1       968 1.00650E+02 3.18590E+01 0.00000E+00
 -1       969 1.03650E+02 3.18590E+01 0.00000E+00
 -1       970 1.06650E+02 3.18590E+01 0.00000E+00
 -1       971 1.09650E+02 3.18590E+01 0.00000E+00
 -1       972 1.12650E+02 3.18590E+01 0.00000E+00
 -1       973 1.15650E+02 3.18590E+01 0.00000E+00
 -1       974 1.18650E+02 3.18590E+01 0.00000E+00
 -1       975 1.21650E+02 3.18590E+01 0.00000E+00
 -1       976 1.24650E+02 3.18590E+01 0.00000E+00
 -1       977 1.27650E+02 3.18590E+01 0.00000E+00
 -1       978 1.30650E+02 3.18590E+01 0.00000E+00
 -1       979 5.50350E+01 1.69963E+01 0.00000E+00
 -1       980 5.20350E+01 1.69963E+01 0.00000E+00
 -1       981 1.06035E+02 1.69512E+01 0.00000E+00
 -1       982 1.31013E+02 1.77124E+01 0.00000E+00
 -1       983 1.55880E+01 1.76125E+01 0.00000E+00
 -1       984 1.03035E+02 1.69512E+01 0.00000E+00
 -1       985 1.00035E+02 1.69512E+01 0.00000E+00
 -1       986 1.09035E+02 1.69512E+01 0.00000E+00
 -1       987 1.12035E+02 1.69512E+01 0.00000E+00
 -1       988 1.15035E+02 1.69512E+01 0.00000E+00
 -1       989 1.18035E+02 1.69512E+01 0.00000E+00
 -1       990 1.21035E+02 1.69512E+01 0.00000E+00
 -1       991 1.24035E+02 1.69512E+01 0.00000E+00
 -1       992 1.27035E+02 1.69512E+01 0.00000E+00
 -1       993 1.56748E+01 2.80271E+01 0.00000E+00
 -1       994 9.33030E+01 2.93264E+01 0.00000E+00
 -1       995 9.39009E+01 2.62931E+01 0.00000E+00
 -1       996 1.96500E+01 3.18140E+01 0.00000E+00
 -1       997 1.34412E+02 2.05969E+01 0.00000E+00
 -1       998 1.80806E+01 1.39489E+01 0.00000E+00
 -1       999 5.61156E+01 2.76885E+01 0.00000E+00
 -1      1000 1.76624E+01 3.13893E+01 0.00000E+00
 -1      1001 9.70350E+01 1.69512E+01 0.00000E+00
 -1      1002 1.56314E+01 2.57635E+01 0.00000E+00
 -1      1003 5.52630E+01 2.56365E+01 0.00000E+00
 -1      1004 9.49095E+01 2.01330E+01 0.00000E+00
 -1      1005 4.60350E+01 1.69963E+01 0.00000E+00
 -1      1006 3.10350E+01 1.69963E+01 0.00000E+00
 -1      1007 9.46500E+01 3.18590E+01 0.00000E+00
 -1      1008 5.64296E+01 2.10004E+01 0.00000E+00
 -1      1009 3.40350E+01 1.69963E+01 0.00000E+00
 -1      1010 4.00350E+01 1.69963E+01 0.00000E+00
 -1      1011 1.31814E+02 2.50031E+01 0.00000E+00
 -1      1012 2.20350E+01 1.69963E+01 0.00000E+00
 -1      1013 2.50350E+01 1.69963E+01 0.00000E+00
 -1      1014 5.95134E+01 1.67279E+01 0.00000E+00
 -1      1015 1.81860E+01 2.20313E+01 0.00000E+00
 -1      1016 1.31814E+02 2.79531E+01 0.00000E+00
 -1      1017 4.90350E+01 1.69963E+01 0.00000E+00
 -1      1018 1.82294E+01 2.42948E+01 0.00000E+00
 -1      1019 2.71500E+01 2.92160E+01 0.00000E+00
 -1      1020 3.01500E+01 2.92160E+01 0.00000E+00
 -1      1021 3.31500E+01 2.92160E+01 0.00000E+00
 -1      1022 3.61500E+01 2.92160E+01 0.00000E+00
 -1      1023 3.91500E+01 2.92160E+01 0.00000E+00
 -1      1024 4.21500E+01 2.92160E+01 0.00000E+00
 -1      1025 4.51500E+01 2.92160E+01 0.00000E+00
 -1      1026 4.81500E+01 2.92160E+01 0.00000E+00
 -1      1027 5.11500E+01 2.92160E+01 0.00000E+00
 -1      1028 5.36328E+01 2.84522E+01 0.00000E+00
 -1      1029 1.89823E+01 1.72421E+01 0.00000E+00
 -1      1030 9.91500E+01 2.92610E+01 0.00000E+00
 -1      1031 1.02150E+02 2.92610E+01 0.00000E+00
 -1      1032 1.05150E+02 2.92610E+01 0.00000E+00
 -1      1033 1.08150E+02 2.92610E+01 0.00000E+00
 -1      1034 1.11150E+02 2.92610E+01 0.00000E+00
 -1      1035 1.14150E+02 2.92610E+01 0.00000E+00
 -1      1036 1.17150E+02 2.92610E+01 0.00000E+00
 -1      1037 1.20150E+02 2.92610E+01 0.00000E+00
 -1      1038 1.23150E+02 2.92610E+01 0.00000E+00
 -1      1039 1.26150E+02 2.92610E+01 0.00000E+00
 -1      1040 1.29150E+02 2.92610E+01 0.00000E+00
 -1      1041 5.35350E+01 1.95492E+01 0.00000E+00
 -1      1042 2.80350E+01 1.69963E+01 0.00000E+00
 -1      1043 5.05350E+01 1.95492E+01 0.00000E+00
 -1      1044 1.10535E+02 1.95492E+01 0.00000E+00
 -1      1045 1.85841E+01 1.96367E+01 0.00000E+00
 -1      1046 1.04535E+02 1.95492E+01 0.00000E+00
 -1      1047 1.01535E+02 1.95492E+01 0.00000E+00
 -1      1048 1.13535E+02 1.95492E+01 0.00000E+00
 -1      1049 1.16535E+02 1.95492E+01 0.00000E+00
 -1      1050 1.19535E+02 1.95492E+01 0.00000E+00
 -1      1051 1.22535E+02 1.95492E+01 0.00000E+00
 -1      1052 1.25535E+02 1.95492E+01 0.00000E+00
 -1      1053 9.67058E+01 2.46369E+01 0.00000E+00
 -1      1054 9.85350E+01 1.95492E+01 0.00000E+00
 -1      1055 9.57779E+01 2.82387E+01 0.00000E+00
 -1      1056 1.31814E+02 2.20688E+01 0.00000E+00
 -1      1057 1.07535E+02 1.95492E+01 0.00000E+00
 -1      1058 1.82728E+01 2.65583E+01 0.00000E+00
 -1      1059 1.79676E+01 2.89738E+01 0.00000E+00
 -1      1060 3.70350E+01 1.69963E+01 0.00000E+00
 -1      1061 2.11500E+01 2.92160E+01 0.00000E+00
 -1      1062 2.41500E+01 2.92160E+01 0.00000E+00
 -1      1063 1.28674E+02 2.08090E+01 0.00000E+00
 -1      1064 5.43711E+01 2.32906E+01 0.00000E+00
 -1      1065 4.75350E+01 1.95492E+01 0.00000E+00
 -1      1066 2.16369E+01 1.93908E+01 0.00000E+00
 -1      1067 4.15350E+01 1.95942E+01 0.00000E+00
 -1      1068 2.12387E+01 2.17854E+01 0.00000E+00
 -1      1069 2.46369E+01 1.93908E+01 0.00000E+00
 -1      1070 9.72668E+01 2.23811E+01 0.00000E+00
 -1      1071 1.28674E+02 2.37434E+01 0.00000E+00
 -1      1072 4.45350E+01 1.95942E+01 0.00000E+00
 -1      1073 2.95350E+01 1.95942E+01 0.00000E+00
 -1      1074 3.25350E+01 1.95942E+01 0.00000E+00
 -1      1075 1.28912E+02 2.65022E+01 0.00000E+00
 -1      1076 2.12821E+01 2.40489E+01 0.00000E+00
 -1      1077 3.16500E+01 2.66180E+01 0.00000E+00
 -1      1078 3.46500E+01 2.66180E+01 0.00000E+00
 -1      1079 3.76500E+01 2.66180E+01 0.00000E+00
 -1      1080 4.06500E+01 2.66180E+01 0.00000E+00
 -1      1081 4.36500E+01 2.66180E+01 0.00000E+00
 -1      1082 4.66500E+01 2.66180E+01 0.00000E+00
 -1      1083 4.96500E+01 2.66180E+01 0.00000E+00
 -1      1084 5.21328E+01 2.58542E+01 0.00000E+00
 -1      1085 1.00650E+02 2.66630E+01 0.00000E+00
 -1      1086 1.03650E+02 2.66630E+01 0.00000E+00
 -1      1087 1.06650E+02 2.66630E+01 0.00000E+00
 -1      1088 1.09650E+02 2.66630E+01 0.00000E+00
 -1      1089 1.12650E+02 2.66630E+01 0.00000E+00
 -1      1090 1.15650E+02 2.66630E+01 0.00000E+00
 -1      1091 1.18650E+02 2.66630E+01 0.00000E+00
 -1      1092 1.21650E+02 2.66630E+01 0.00000E+00
 -1      1093 1.24650E+02 2.66630E+01 0.00000E+00
 -1      1094 2.70859E+01 1.94925E+01 0.00000E+00
 -1      1095 2.42387E+01 2.17854E+01 0.00000E+00
 -1      1096 1.00035E+02 2.21472E+01 0.00000E+00
 -1      1097 1.12035E+02 2.21472E+01 0.00000E+00
 -1      1098 5.20350E+01 2.21472E+01 0.00000E+00
 -1      1099 1.15035E+02 2.21472E+01 0.00000E+00
 -1      1100 1.03035E+02 2.21472E+01 0.00000E+00
 -1      1101 1.18035E+02 2.21472E+01 0.00000E+00
 -1      1102 1.21035E+02 2.21472E+01 0.00000E+00
 -1      1103 1.24035E+02 2.21472E+01 0.00000E+00
 -1      1104 3.85350E+01 1.95942E+01 0.00000E+00
 -1      1105 1.09035E+02 2.21472E+01 0.00000E+00
 -1      1106 2.13255E+01 2.63124E+01 0.00000E+00
 -1      1107 2.86500E+01 2.66180E+01 0.00000E+00
 -1      1108 1.06035E+02 2.21472E+01 0.00000E+00
 -1      1109 2.82026E+01 2.21392E+01 0.00000E+00
 -1      1110 4.90350E+01 2.21472E+01 0.00000E+00
 -1      1111 4.00350E+01 2.21922E+01 0.00000E+00
 -1      1112 3.55350E+01 1.95942E+01 0.00000E+00
 -1      1113 2.56500E+01 2.66180E+01 0.00000E+00
 -1      1114 4.30350E+01 2.21922E+01 0.00000E+00
 -1      1115 3.12026E+01 2.21392E+01 0.00000E+00
 -1      1116 3.61500E+01 2.40200E+01 0.00000E+00
 -1      1117 4.81500E+01 2.40200E+01 0.00000E+00
 -1      1118 1.05150E+02 2.40650E+01 0.00000E+00
 -1      1119 2.42821E+01 2.40489E+01 0.00000E+00
 -1      1120 9.95075E+01 2.41360E+01 0.00000E+00
 -1      1121 4.60350E+01 2.21697E+01 0.00000E+00
 -1      1122 1.02329E+02 2.41005E+01 0.00000E+00
 -1      1123 3.36763E+01 2.30796E+01 0.00000E+00
 -1      1124 0.00000E+00 4.85250E+01 0.00000E+00
 -1      1125 0.00000E+00 4.55750E+01 0.00000E+00
 -1      1126 0.00000E+00 4.26250E+01 0.00000E+00
 -1      1127 0.00000E+00 3.96750E+01 0.00000E+00
 -1      1128 0.00000E+00 3.67250E+01 0.00000E+00
 -1      1129 0.00000E+00 3.38000E+01 0.00000E+00
 -1      1130 0.00000E+00 3.08750E+01 0.00000E+00
 -1      1131 0.00000E+00 2.79250E+01 0.00000E+00
 -1      1132 0.00000E+00 2.49750E+01 0.00000E+00
 -1      1133 0.00000E+00 2.20250E+01 0.00000E+00
 -1      1134 0.00000E+00 1.90750E+01 0.00000E+00
 -1      1135 0.00000E+00 1.61500E+01 0.00000E+00
 -1      1136 0.00000E+00 1.32250E+01 0.00000E+00
 -1      1137 0.00000E+00 1.02750E+01 0.00000E+00
 -1      1138 0.00000E+00 7.32500E+00 0.00000E+00
 -1      1139 0.00000E+00 4.37500E+00 0.00000E+00
 -1      1140 0.00000E+00 1.45000E+00 0.00000E+00
 -1      1141 1.57500E+00 5.00000E+01 0.00000E+00
 -1      1142 4.65000E+00 5.00000E+01 0.00000E+00
 -1      1143 7.65000E+00 5.00000E+01 0.00000E+00
 -1      1144 1.06500E+01 5.00000E+01 0.00000E+00
 -1      1145 1.36500E+01 5.00000E+01 0.00000E+00
 -1      1146 1.66500E+01 5.00000E+01 0.00000E+00
 -1      1147 1.96500E+01 5.00000E+01 0.00000E+00
 -1      1148 2.26500E+01 5.00000E+01 0.00000E+00
 -1      1149 2.56500E+01 5.00000E+01 0.00000E+00
 -1      1150 2.86500E+01 5.00000E+01 0.00000E+00
 -1      1151 3.16500E+01 5.00000E+01 0.00000E+00
 -1      1152 3.46500E+01 5.00000E+01 0.00000E+00
 -1      1153 3.76500E+01 5.00000E+01 0.00000E+00
 -1      1154 4.06500E+01 5.00000E+01 0.00000E+00
 -1      1155 4.36500E+01 5.00000E+01 0.00000E+00
 -1      1156 4.66500E+01 5.00000E+01 0.00000E+00
 -1      1157 4.96500E+01 5.00000E+01 0.00000E+00
 -1      1158 5.26500E+01 5.00000E+01 0.00000E+00
 -1      1159 5.56500E+01 5.00000E+01 0.00000E+00
 -1      1160 5.86500E+01 5.00000E+01 0.00000E+00
 -1      1161 6.16500E+01 5.00000E+01 0.00000E+00
 -1      1162 6.46500E+01 5.00000E+01 0.00000E+00
 -1      1163 6.76500E+01 5.00000E+01 0.00000E+00
 -1      1164 7.06500E+01 5.00000E+01 0.00000E+00
 -1      1165 7.36500E+01 5.00000E+01 0.00000E+00
 -1      1166 7.66500E+01 5.00000E+01 0.00000E+00
 -1      1167 7.96500E+01 5.00000E+01 0.00000E+00
 -1      1168 8.26500E+01 5.00000E+01 0.00000E+00
 -1      1169 8.56500E+01 5.00000E+01 0.00000E+00
 -1      1170 8.86500E+01 5.00000E+01 0.00000E+00
 -1      1171 9.16500E+01 5.00000E+01 0.00000E+00
 -1      1172 9.46500E+01 5.00000E+01 0.00000E+00
 -1      1173 9.76500E+01 5.00000E+01 0.00000E+00
 -1      1174 1.00650E+02 5.00000E+01 0.00000E+00
 -1      1175 1.03650E+02 5.00000E+01 0.00000E+00
 -1      1176 1.06650E+02 5.00000E+01 0.00000E+00
 -1      1177 1.09650E+02 5.00000E+01 0.00000E+00
 -1      1178 1.12650E+02 5.00000E+01 0.00000E+00
 -1      1179 1.15650E+02 5.00000E+01 0.00000E+00
 -1      1180 1.18650E+02 5.00000E+01 0.00000E+00
 -1      1181 1.21650E+02 5.00000E+01 0.00000E+00
 -1      1182 1.24650E+02 5.00000E+01 0.00000E+00
 -1      1183 1.27650E+02 5.00000E+01 0.00000E+00
 -1      1184 1.30650E+02 5.00000E+01 0.00000E+00
 -1      1185 1.33650E+02 5.00000E+01 0.00000E+00
 -1      1186 1.36650E+02 5.00000E+01 0.00000E+00
 -1      1187 1.39650E+02 5.00000E+01 0.00000E+00
 -1      1188 1.42650E+02 5.00000E+01 0.00000E+00
 -1      1189 1.45650E+02 5.00000E+01 0.00000E+00
 -1      1190 1.48575E+02 5.00000E+01 0.00000E+00
 -1      1191 1.57500E+00 0.00000E+00 0.00000E+00
 -1      1192 4.65000E+00 0.00000E+00 0.00000E+00
 -1      1193 7.65000E+00 0.00000E+00 0.00000E+00
 -1      1194 1.06500E+01 0.00000E+00 0.00000E+00
 -1      1195 1.36500E+01 0.00000E+00 0.00000E+00
 -1      1196 1.66500E+01 0.00000E+00 0.00000E+00
 -1      1197 1.96500E+01 0.00000E+00 0.00000E+00
 -1      1198 2.26500E+01 0.00000E+00 0.00000E+00
 -1      1199 2.56500E+01 0.00000E+00 0.00000E+00
 -1      1200 2.86500E+01 0.00000E+00 0.00000E+00
 -1      1201 3.16500E+01 0.00000E+00 0.00000E+00
 -1      1202 3.46500E+01 0.00000E+00 0.00000E+00
 -1      1203 3.76500E+01 0.00000E+00 0.00000E+00
 -1      1204 4.06500E+01 0.00000E+00 0.00000E+00
 -1      1205 4.36500E+01 0.00000E+00 0.00000E+00
 -1      1206 4.66500E+01 0.00000E+00 0.00000E+00
 -1      1207 4.96500E+01 0.00000E+00 0.00000E+00
 -1      1208 5.26500E+01 0.00000E+00 0.00000E+00
 -1      1209 5.56500E+01 0.00000E+00 0.00000E+00
 -1      1210 5.86500E+01 0.00000E+00 0.00000E+00
 -1      1211 6.16500E+01 0.00000E+00 0.00000E+00
 -1      1212 6.46500E+01 0.00000E+00 0.00000E+00
 -1      1213 6.76500E+01 0.00000E+00 0.00000E+00
 -1      1214 7.06500E+01 0.00000E+00 0.00000E+00
 -1      1215 7.36500E+01 0.00000E+00 0.00000E+00
 -1      1216 7.66500E+01 0.00000E+00 0.00000E+00
 -1      1217 7.96500E+01 0.00000E+00 0.00000E+00
 -1      1218 8.26500E+01 0.00000E+00 0.00000E+00
 -1      1219 8.56500E+01 0.00000E+00 0.00000E+00
 -1      1220 8.86500E+01 0.00000E+00 0.00000E+00
 -1      1221 9.16500E+01 0.00000E+00 0.00000E+00
 -1      1222 9.46500E+01 0.00000E+00 0.00000E+00
 -1      1223 9.76500E+01 0.00000E+00 0.00000E+00
 -1      1224 1.00650E+02 0.00000E+00 0.00000E+00
 -1      1225 1.03650E+02 0.00000E+00 0.00000E+00
 -1      1226 1.06650E+02 0.00000E+00 0.00000E+00
 -1      1227 1.09650E+02 0.00000E+00 0.00000E+00
 -1      1228 1.12650E+02 0.00000E+00 0.00000E+00
 -1      1229 1.15650E+02 0.00000E+00 0.00000E+00
 -1      1230 1.18650E+02 0.00000E+00 0.00000E+00
 -1      1231 1.21650E+02 0.00000E+00 0.00000E+00
 -1      1232 1.24650E+02 0.00000E+00 0.00000E+00
 -1      1233 1.27650E+02 0.00000E+00 0.00000E+00
 -1      1234 1.30650E+02 0.00000E+00 0.00000E+00
 -1      1235 1.33650E+02 0.00000E+00 0.00000E+00
 -1      1236 1.36650E+02 0.00000E+00 0.00000E+00
 -1      1237 1.39650E+02 0.00000E+00 0.00000E+00
 -1      1238 1.42650E+02 0.00000E+00 0.00000E+00
 -1      1239 1.45650E+02 0.00000E+00 0.00000E+00
 -1      1240 1.48575E+02 0.00000E+00 0.00000E+00
 -1      1241 1.50000E+02 1.47500E+00 0.00000E+00
 -1      1242 1.50000E+02 4.42500E+00 0.00000E+00
 -1      1243 1.50000E+02 7.37500E+00 0.00000E+00
 -1      1244 1.50000E+02 1.03250E+01 0.00000E+00
 -1      1245 1.50000E+02 1.32750E+01 0.00000E+00
 -1      1246 1.50000E+02 1.62000E+01 0.00000E+00
 -1      1247 1.50000E+02 1.91250E+01 0.00000E+00
 -1      1248 1.50000E+02 2.20750E+01 0.00000E+00
 -1      1249 1.50000E+02 2.50250E+01 0.00000E+00
 -1      1250 1.50000E+02 2.79750E+01 0.00000E+00
 -1      1251 1.50000E+02 3.09250E+01 0.00000E+00
 -1      1252 1.50000E+02 3.38500E+01 0.00000E+00
 -1      1253 1.50000E+02 3.67750E+01 0.00000E+00
 -1      1254 1.50000E+02 3.97250E+01 0.00000E+00
 -1      1255 1.50000E+02 4.26750E+01 0.00000E+00
 -1      1256 1.50000E+02 4.56250E+01 0.00000E+00
 -1      1257 1.50000E+02 4.85500E+01 0.00000E+00
 -1      1258 8.21242E+01 2.28411E+01 0.00000E+00
 -1      1259 8.18256E+01 2.14186E+01 0.00000E+00
 -1      1260 8.12422E+01 2.00930E+01 0.00000E+00
 -1      1261 8.03645E+01 1.88777E+01 0.00000E+00
 -1      1262 7.92245E+01 1.78603E+01 0.00000E+00
 -1      1263 7.79078E+01 1.71215E+01 0.00000E+00
 -1      1264 7.63970E+01 1.66702E+01 0.00000E+00
 -1      1265 7.48692E+01 1.65663E+01 0.00000E+00
 -1      1266 7.33831E+01 1.67898E+01 0.00000E+00
 -1      1267 7.19802E+01 1.73247E+01 0.00000E+00
 -1      1268 7.07226E+01 1.81474E+01 0.00000E+00
 -1      1269 6.96315E+01 1.92680E+01 0.00000E+00
 -1      1270 6.88090E+01 2.06193E+01 0.00000E+00
 -1      1271 6.83226E+01 2.20659E+01 0.00000E+00
 -1      1272 6.81614E+01 2.35117E+01 0.00000E+00
 -1      1273 6.83123E+01 2.50066E+01 0.00000E+00
 -1      1274 6.88031E+01 2.64885E+01 0.00000E+00
 -1      1275 6.95650E+01 2.77652E+01 0.00000E+00
 -1      1276 7.04971E+01 2.87800E+01 0.00000E+00
 -1      1277 7.15955E+01 2.95840E+01 0.00000E+00
 -1      1278 7.28472E+01 3.01667E+01 0.00000E+00
 -1      1279 7.41955E+01 3.04933E+01 0.00000E+00
 -1      1280 7.56259E+01 3.05448E+01 0.00000E+00
 -1      1281 7.70391E+01 3.03036E+01 0.00000E+00
 -1      1282 7.83329E+01 2.98004E+01 0.00000E+00
 -1      1283 7.94971E+01 2.90557E+01 0.00000E+00
 -1      1284 8.04822E+01 2.81085E+01 0.00000E+00
 -1      1285 8.12670E+01 2.69836E+01 0.00000E+00
 -1      1286 8.18272E+01 2.56965E+01 0.00000E+00
 -1      1287 8.21234E+01 2.42870E+01 0.00000E+00
 -1      1288 1.57500E+00 4.85250E+01 0.00000E+00
 -1      1289 1.29900E+00 4.48375E+01 0.00000E+00
 -1      1290 1.29900E+00 4.63125E+01 0.00000E+00
 -1      1291 1.29900E+00 4.18875E+01 0.00000E+00
 -1      1292 1.29900E+00 4.33625E+01 0.00000E+00
 -1      1293 2.59800E+00 4.41000E+01 0.00000E+00
 -1      1294 1.29900E+00 3.89375E+01 0.00000E+00
 -1      1295 1.29900E+00 4.04125E+01 0.00000E+00
 -1      1296 2.59800E+00 4.11500E+01 0.00000E+00
 -1      1297 1.29900E+00 3.59875E+01 0.00000E+00
 -1      1298 1.29900E+00 3.74625E+01 0.00000E+00
 -1      1299 2.59800E+00 3.82000E+01 0.00000E+00
 -1      1300 1.29900E+00 3.30875E+01 0.00000E+00
 -1      1301 1.29900E+00 3.45375E+01 0.00000E+00
 -1      1302 2.59800E+00 3.52750E+01 0.00000E+00
 -1      1303 1.29900E+00 3.01375E+01 0.00000E+00
 -1      1304 1.29900E+00 3.16125E+01 0.00000E+00
 -1      1305 2.59800E+00 3.23500E+01 0.00000E+00
 -1      1306 1.29900E+00 2.71875E+01 0.00000E+00
 -1      1307 1.29900E+00 2.86625E+01 0.00000E+00
 -1      1308 2.59800E+00 2.94000E+01 0.00000E+00
 -1      1309 1.29900E+00 2.42375E+01 0.00000E+00
 -1      1310 1.29900E+00 2.57125E+01 0.00000E+00
 -1      1311 2.59800E+00 2.64500E+01 0.00000E+00
 -1      1312 1.29900E+00 2.12875E+01 0.00000E+00
 -1      1313 1.29900E+00 2.27625E+01 0.00000E+00
 -1      1314 2.59800E+00 2.35000E+01 0.00000E+00
 -1      1315 1.29900E+00 1.83375E+01 0.00000E+00
 -1      1316 1.29900E+00 1.98125E+01 0.00000E+00
 -1      1317 2.59800E+00 2.05500E+01 0.00000E+00
 -1      1318 1.29900E+00 1.54375E+01 0.00000E+00
 -1      1319 1.29900E+00 1.68875E+01 0.00000E+00
 -1      1320 2.59800E+00 1.76250E+01 0.00000E+00
 -1      1321 1.29900E+00 1.24875E+01 0.00000E+00
 -1      1322 1.29900E+00 1.39625E+01 0.00000E+00
 -1      1323 2.59800E+00 1.47000E+01 0.00000E+00
 -1      1324 1.29900E+00 9.53750E+00 0.00000E+00
 -1      1325 1.29900E+00 1.10125E+01 0.00000E+00
 -1      1326 2.59800E+00 1.17500E+01 0.00000E+00
 -1      1327 1.29900E+00 6.58750E+00 0.00000E+00
 -1      1328 1.29900E+00 8.06250E+00 0.00000E+00
 -1      1329 2.59800E+00 8.80000E+00 0.00000E+00
 -1      1330 1.29900E+00 3.63750E+00 0.00000E+00
 -1      1331 1.29900E+00 5.11250E+00 0.00000E+00
 -1      1332 2.59800E+00 5.85000E+00 0.00000E+00
 -1      1333 1.43700E+00 1.09375E+00 0.00000E+00
 -1      1334 1.43700E+00 2.54375E+00 0.00000E+00
 -1      1335 2.73600E+00 3.28125E+00 0.00000E+00
 -1      1336 3.01200E+00 1.09375E+00 0.00000E+00
 -1      1337 3.90000E+00 4.87010E+01 0.00000E+00
 -1      1338 5.40000E+00 4.87010E+01 0.00000E+00
 -1      1339 6.90000E+00 4.87010E+01 0.00000E+00
 -1      1340 8.40000E+00 4.87010E+01 0.00000E+00
 -1      1341 6.15000E+00 4.74020E+01 0.00000E+00
 -1      1342 9.90000E+00 4.87010E+01 0.00000E+00
 -1      1343 1.14000E+01 4.87010E+01 0.00000E+00
 -1      1344 9.15000E+00 4.74020E+01 0.00000E+00
 -1      1345 1.29000E+01 4.87010E+01 0.00000E+00
 -1      1346 1.44000E+01 4.87010E+01 0.00000E+00
 -1      1347 1.21500E+01 4.74020E+01 0.00000E+00
 -1      1348 1.59000E+01 4.87010E+01 0.00000E+00
 -1      1349 1.74000E+01 4.87010E+01 0.00000E+00
 -1      1350 1.51500E+01 4.74020E+01 0.00000E+00
 -1      1351 1.89000E+01 4.87010E+01 0.00000E+00
 -1      1352 2.04000E+01 4.87010E+01 0.00000E+00
 -1      1353 1.81500E+01 4.74020E+01 0.00000E+00
 -1      1354 2.19000E+01 4.87010E+01 0.00000E+00
 -1      1355 2.34000E+01 4.87010E+01 0.00000E+00
 -1      1356 2.11500E+01 4.74020E+01 0.00000E+00
 -1      1357 2.49000E+01 4.87010E+01 0.00000E+00
 -1      1358 2.64000E+01 4.87010E+01 0.00000E+00
 -1      1359 2.41500E+01 4.74020E+01 0.00000E+00
 -1      1360 2.79000E+01 4.87010E+01 0.00000E+00
 -1      1361 2.94000E+01 4.87010E+01 0.00000E+00
 -1      1362 2.71500E+01 4.74020E+01 0.00000E+00
 -1      1363 3.09000E+01 4.87010E+01 0.00000E+00
 -1      1364 3.24000E+01 4.87010E+01 0.00000E+00
 -1      1365 3.01500E+01 4.74020E+01 0.00000E+00
 -1      1366 3.39000E+01 4.87010E+01 0.00000E+00
 -1      1367 3.54000E+01 4.87010E+01 0.00000E+00
 -1      1368 3.31500E+01 4.74020E+01 0.00000E+00
 -1      1369 3.69000E+01 4.87010E+01 0.00000E+00
 -1      1370 3.84000E+01 4.87010E+01 0.00000E+00
 -1      1371 3.61500E+01 4.74020E+01 0.00000E+00
 -1      1372 3.99000E+01 4.87010E+01 0.00000E+00
 -1      1373 4.14000E+01 4.87010E+01 0.00000E+00
 -1      1374 3.91500E+01 4.74020E+01 0.00000E+00
 -1      1375 4.29000E+01 4.87010E+01 0.00000E+00
 -1      1376 4.44000E+01 4.87010E+01 0.00000E+00
 -1      1377 4.21500E+01 4.74020E+01 0.00000E+00
 -1      1378 4.59000E+01 4.87010E+01 0.00000E+00
 -1      1379 4.74000E+01 4.87010E+01 0.00000E+00
 -1      1380 4.51500E+01 4.74020E+01 0.00000E+00
 -1      1381 4.89000E+01 4.87010E+01 0.00000E+00
 -1      1382 5.04000E+01 4.87010E+01 0.00000E+00
 -1      1383 4.81500E+01 4.74020E+01 0.00000E+00
 -1      1384 5.19000E+01 4.87010E+01 0.00000E+00
 -1      1385 5.34000E+01 4.87010E+01 0.00000E+00
 -1      1386 5.11500E+01 4.74020E+01 0.00000E+00
 -1      1387 5.49000E+01 4.87010E+01 0.00000E+00
 -1      1388 5.64000E+01 4.87010E+01 0.00000E+00
 -1      1389 5.41500E+01 4.74020E+01 0.00000E+00
 -1      1390 5.79000E+01 4.87010E+01 0.00000E+00
 -1      1391 5.94000E+01 4.87010E+01 0.00000E+00
 -1      1392 5.71500E+01 4.74020E+01 0.00000E+00
 -1      1393 6.09000E+01 4.87010E+01 0.00000E+00
 -1      1394 6.24000E+01 4.87010E+01 0.00000E+00
 -1      1395 6.01500E+01 4.74020E+01 0.00000E+00
 -1      1396 6.39000E+01 4.87010E+01 0.00000E+00
 -1      1397 6.54000E+01 4.87010E+01 0.00000E+00
 -1      1398 6.31500E+01 4.74020E+01 0.00000E+00
 -1      1399 6.69000E+01 4.87010E+01 0.00000E+00
 -1      1400 6.84000E+01 4.87010E+01 0.00000E+00
 -1      1401 6.61500E+01 4.74020E+01 0.00000E+00
 -1      1402 6.99000E+01 4.87010E+01 0.00000E+00
 -1      1403 7.14000E+01 4.87010E+01 0.00000E+00
 -1      1404 6.91500E+01 4.74020E+01 0.00000E+00
 -1      1405 7.29000E+01 4.87010E+01 0.00000E+00
 -1      1406 7.44000E+01 4.87010E+01 0.00000E+00
 -1      1407 7.21500E+01 4.74020E+01 0.00000E+00
 -1      1408 7.59000E+01 4.87010E+01 0.00000E+00
 -1      1409 7.74000E+01 4.87010E+01 0.00000E+00
 -1      1410 7.51500E+01 4.74020E+01 0.00000E+00
 -1      1411 7.89000E+01 4.87010E+01 0.00000E+00
 -1      1412 8.04000E+01 4.87010E+01 0.00000E+00
 -1      1413 7.81500E+01 4.74020E+01 0.00000E+00
 -1      1414 8.19000E+01 4.87010E+01 0.00000E+00
 -1      1415 8.34000E+01 4.87010E+01 0.00000E+00
 -1      1416 8.11500E+01 4.74020E+01 0.00000E+00
 -1      1417 8.49000E+01 4.87010E+01 0.00000E+00
 -1      1418 8.64000E+01 4.87010E+01 0.00000E+00
 -1      1419 8.41500E+01 4.74020E+01 0.00000E+00
 -1      1420 8.79000E+01 4.87010E+01 0.00000E+00
 -1      1421 8.94000E+01 4.87010E+01 0.00000E+00
 -1      1422 8.71500E+01 4.74020E+01 0.00000E+00
 -1      1423 9.09000E+01 4.87010E+01 0.00000E+00
 -1      1424 9.24000E+01 4.87010E+01 0.00000E+00
 -1      1425 9.01500E+01 4.74020E+01 0.00000E+00
 -1      1426 9.39000E+01 4.87010E+01 0.00000E+00
 -1      1427 9.54000E+01 4.87010E+01 0.00000E+00
 -1      1428 9.31500E+01 4.74020E+01 0.00000E+00
 -1      1429 9.69000E+01 4.87010E+01 0.00000E+00
 -1      1430 9.84000E+01 4.87010E+01 0.00000E+00
 -1      1431 9.61500E+01 4.74020E+01 0.00000E+00
 -1      1432 9.99000E+01 4.87010E+01 0.00000E+00
 -1      1433 1.01400E+02 4.87010E+01 0.00000E+00
 -1      1434 9.91500E+01 4.74020E+01 0.00000E+00
 -1      1435 1.02900E+02 4.87010E+01 0.00000E+00
 -1      1436 1.04400E+02 4.87010E+01 0.00000E+00
 -1      1437 1.02150E+02 4.74020E+01 0.00000E+00
 -1      1438 1.05900E+02 4.87010E+01 0.00000E+00
 -1      1439 1.07400E+02 4.87010E+01 0.00000E+00
 -1      1440 1.05150E+02 4.74020E+01 0.00000E+00
 -1      1441 1.08900E+02 4.87010E+01 0.00000E+00
 -1      1442 1.10400E+02 4.87010E+01 0.00000E+00
 -1      1443 1.08150E+02 4.74020E+01 0.00000E+00
 -1      1444 1.11900E+02 4.87010E+01 0.00000E+00
 -1      1445 1.13400E+02 4.87010E+01 0.00000E+00
 -1      1446 1.11150E+02 4.74020E+01 0.00000E+00
 -1      1447 1.14900E+02 4.87010E+01 0.00000E+00
 -1      1448 1.16400E+02 4.87010E+01 0.00000E+00
 -1      1449 1.14150E+02 4.74020E+01 0.00000E+00
 -1      1450 1.17900E+02 4.87010E+01 0.00000E+00
 -1      1451 1.19400E+02 4.87010E+01 0.00000E+00
 -1      1452 1.17150E+02 4.74020E+01 0.00000E+00
 -1      1453 1.20900E+02 4.87010E+01 0.00000E+00
 -1      1454 1.22400E+02 4.87010E+01 0.00000E+00
 -1      1455 1.20150E+02 4.74020E+01 0.00000E+00
 -1      1456 1.23900E+02 4.87010E+01 0.00000E+00
 -1      1457 1.25400E+02 4.87010E+01 0.00000E+00
 -1      1458 1.23150E+02 4.74020E+01 0.00000E+00
 -1      1459 1.26900E+02 4.87010E+01 0.00000E+00
 -1      1460 1.28400E+02 4.87010E+01 0.00000E+00
 -1      1461 1.26150E+02 4.74020E+01 0.00000E+00
 -1      1462 1.29900E+02 4.87010E+01 0.00000E+00
 -1      1463 1.31400E+02 4.87010E+01 0.00000E+00
 -1      1464 1.29150E+02 4.74020E+01 0.00000E+00
 -1      1465 1.32900E+02 4.87010E+01 0.00000E+00
 -1      1466 1.34400E+02 4.87010E+01 0.00000E+00
 -1      1467 1.32150E+02 4.74020E+01 0.00000E+00
 -1      1468 1.35900E+02 4.87010E+01 0.00000E+00
 -1      1469 1.37400E+02 4.87010E+01 0.00000E+00
 -1      1470 1.35150E+02 4.74020E+01 0.00000E+00
 -1      1471 1.38900E+02 4.87010E+01 0.00000E+00
 -1      1472 1.40400E+02 4.87010E+01 0.00000E+00
 -1      1473 1.38150E+02 4.74020E+01 0.00000E+00
 -1      1474 1.41900E+02 4.87010E+01 0.00000E+00
 -1      1475 1.43400E+02 4.87010E+01 0.00000E+00
 -1      1476 1.41150E+02 4.74020E+01 0.00000E+00
 -1      1477 1.44900E+02 4.87010E+01 0.00000E+00
 -1      1478 1.46400E+02 4.87010E+01 0.00000E+00
 -1      1479 1.44150E+02 4.74020E+01 0.00000E+00
 -1      1480 1.48575E+02 4.85500E+01 0.00000E+00
 -1      1481 1.47825E+02 4.72510E+01 0.00000E+00
 -1      1482 6.01200E+00 1.09375E+00 0.00000E+00
 -1      1483 4.51200E+00 1.09375E+00 0.00000E+00
 -1      1484 4.37400E+00 2.18750E+00 0.00000E+00
 -1      1485 9.01200E+00 1.09375E+00 0.00000E+00
 -1      1486 7.51200E+00 1.09375E+00 0.00000E+00
 -1      1487 7.37400E+00 2.18750E+00 0.00000E+00
 -1      1488 1.20120E+01 1.09375E+00 0.00000E+00
 -1      1489 1.05120E+01 1.09375E+00 0.00000E+00
 -1      1490 1.03740E+01 2.18750E+00 0.00000E+00
 -1      1491 1.50120E+01 1.09375E+00 0.00000E+00
 -1      1492 1.35120E+01 1.09375E+00 0.00000E+00
 -1      1493 1.33740E+01 2.18750E+00 0.00000E+00
 -1      1494 1.80120E+01 1.09375E+00 0.00000E+00
 -1      1495 1.65120E+01 1.09375E+00 0.00000E+00
 -1      1496 1.63740E+01 2.18750E+00 0.00000E+00
 -1      1497 2.10120E+01 1.09375E+00 0.00000E+00
 -1      1498 1.95120E+01 1.09375E+00 0.00000E+00
 -1      1499 1.93740E+01 2.18750E+00 0.00000E+00
 -1      1500 2.40120E+01 1.09375E+00 0.00000E+00
 -1      1501 2.25120E+01 1.09375E+00 0.00000E+00
 -1      1502 2.23740E+01 2.18750E+00 0.00000E+00
 -1      1503 2.70120E+01 1.09375E+00 0.00000E+00
 -1      1504 2.55120E+01 1.09375E+00 0.00000E+00
 -1      1505 2.53740E+01 2.18750E+00 0.00000E+00
 -1      1506 3.00120E+01 1.09375E+00 0.00000E+00
 -1      1507 2.85120E+01 1.09375E+00 0.00000E+00
 -1      1508 2.83740E+01 2.18750E+00 0.00000E+00
 -1      1509 3.30120E+01 1.09375E+00 0.00000E+00
 -1      1510 3.15120E+01 1.09375E+00 0.00000E+00
 -1      1511 3.13740E+01 2.18750E+00 0.00000E+00
 -1      1512 3.60120E+01 1.09375E+00 0.00000E+00
 -1      1513 3.45120E+01 1.09375E+00 0.00000E+00
 -1      1514 3.43740E+01 2.18750E+00 0.00000E+00
 -1      1515 3.90120E+01 1.09375E+00 0.00000E+00
 -1      1516 3.75120E+01 1.09375E+00 0.00000E+00
 -1      1517 3.73740E+01 2.18750E+00 0.00000E+00
 -1      1518 4.20120E+01 1.09375E+00 0.00000E+00
 -1      1519 4.05120E+01 1.09375E+00 0.00000E+00
 -1      1520 4.03740E+01 2.18750E+00 0.00000E+00
 -1      1521 4.50120E+01 1.09375E+00 0.00000E+00
 -1      1522 4.35120E+01 1.09375E+00 0.00000E+00
 -1      1523 4.33740E+01 2.18750E+00 0.00000E+00
 -1      1524 4.80120E+01 1.09375E+00 0.00000E+00
 -1      1525 4.65120E+01 1.09375E+00 0.00000E+00
 -1      1526 4.63740E+01 2.18750E+00 0.00000E+00
 -1      1527 5.10120E+01 1.09375E+00 0.00000E+00
 -1      1528 4.95120E+01 1.09375E+00 0.00000E+00
 -1      1529 4.93740E+01 2.18750E+00 0.00000E+00
 -1      1530 5.40120E+01 1.09375E+00 0.00000E+00
 -1      1531 5.25120E+01 1.09375E+00 0.00000E+00
 -1      1532 5.23740E+01 2.18750E+00 0.00000E+00
 -1      1533 5.70120E+01 1.09375E+00 0.00000E+00
 -1      1534 5.55120E+01 1.09375E+00 0.00000E+00
 -1      1535 5.53740E+01 2.18750E+00 0.00000E+00
 -1      1536 6.00120E+01 1.09375E+00 0.00000E+00
 -1      1537 5.85120E+01 1.09375E+00 0.00000E+00
 -1      1538 5.83740E+01 2.18750E+00 0.00000E+00
 -1      1539 6.30120E+01 1.09375E+00 0.00000E+00
 -1      1540 6.15120E+01 1.09375E+00 0.00000E+00
 -1      1541 6.13740E+01 2.18750E+00 0.00000E+00
 -1      1542 6.60120E+01 1.09375E+00 0.00000E+00
 -1      1543 6.45120E+01 1.09375E+00 0.00000E+00
 -1      1544 6.43740E+01 2.18750E+00 0.00000E+00
 -1      1545 6.90120E+01 1.09375E+00 0.00000E+00
 -1      1546 6.75120E+01 1.09375E+00 0.00000E+00
 -1      1547 6.73740E+01 2.18750E+00 0.00000E+00
 -1      1548 7.20120E+01 1.09375E+00 0.00000E+00
 -1      1549 7.05120E+01 1.09375E+00 0.00000E+00
 -1      1550 7.03740E+01 2.18750E+00 0.00000E+00
 -1      1551 7.50120E+01 1.09375E+00 0.00000E+00
 -1      1552 7.35120E+01 1.09375E+00 0.00000E+00
 -1      1553 7.33740E+01 2.18750E+00 0.00000E+00
 -1      1554 7.80120E+01 1.09375E+00 0.00000E+00
 -1      1555 7.65120E+01 1.09375E+00 0.00000E+00
 -1      1556 7.63740E+01 2.18750E+00 0.00000E+00
 -1      1557 8.10120E+01 1.09375E+00 0.00000E+00
 -1      1558 7.95120E+01 1.09375E+00 0.00000E+00
 -1      1559 7.93740E+01 2.18750E+00 0.00000E+00
 -1      1560 8.40120E+01 1.09375E+00 0.00000E+00
 -1      1561 8.25120E+01 1.09375E+00 0.00000E+00
 -1      1562 8.23740E+01 2.18750E+00 0.00000E+00
 -1      1563 8.70120E+01 1.09375E+00 0.00000E+00
 -1      1564 8.55120E+01 1.09375E+00 0.00000E+00
 -1      1565 8.53740E+01 2.18750E+00 0.00000E+00
 -1      1566 9.00120E+01 1.09375E+00 0.00000E+00
 -1      1567 8.85120E+01 1.09375E+00 0.00000E+00
 -1      1568 8.83740E+01 2.18750E+00 0.00000E+00
 -1      1569 9.30120E+01 1.09375E+00 0.00000E+00
 -1      1570 9.15120E+01 1.09375E+00 0.00000E+00
 -1      1571 9.13740E+01 2.18750E+00 0.00000E+00
 -1      1572 9.60120E+01 1.09375E+00 0.00000E+00
 -1      1573 9.45120E+01 1.09375E+00 0.00000E+00
 -1      1574 9.43740E+01 2.18750E+00 0.00000E+00
 -1      1575 9.90120E+01 1.09375E+00 0.00000E+00
 -1      1576 9.75120E+01 1.09375E+00 0.00000E+00
 -1      1577 9.73740E+01 2.18750E+00 0.00000E+00
 -1      1578 1.02012E+02 1.09375E+00 0.00000E+00
 -1      1579 1.00512E+02 1.09375E+00 0.00000E+00
 -1      1580 1.00374E+02 2.18750E+00 0.00000E+00
 -1      1581 1.05012E+02 1.09375E+00 0.00000E+00
 -1      1582 1.03512E+02 1.09375E+00 0.00000E+00
 -1      1583 1.03374E+02 2.18750E+00 0.00000E+00
 -1      1584 1.08012E+02 1.09375E+00 0.00000E+00
 -1      1585 1.06512E+02 1.09375E+00 0.00000E+00
 -1      1586 1.06374E+02 2.18750E+00 0.00000E+00
 -1      1587 1.11012E+02 1.09375E+00 0.00000E+00
 -1      1588 1.09512E+02 1.09375E+00 0.00000E+00
 -1      1589 1.09374E+02 2.18750E+00 0.00000E+00
 -1      1590 1.14012E+02 1.09375E+00 0.00000E+00
 -1      1591 1.12512E+02 1.09375E+00 0.00000E+00
 -1      1592 1.12374E+02 2.18750E+00 0.00000E+00
 -1      1593 1.17012E+02 1.09375E+00 0.00000E+00
 -1      1594 1.15512E+02 1.09375E+00 0.00000E+00
 -1      1595 1.15374E+02 2.18750E+00 0.00000E+00
 -1      1596 1.20012E+02 1.09375E+00 0.00000E+00
 -1      1597 1.18512E+02 1.09375E+00 0.00000E+00
 -1      1598 1.18374E+02 2.18750E+00 0.00000E+00
 -1      1599 1.23012E+02 1.09375E+00 0.00000E+00
 -1      1600 1.21512E+02 1.09375E+00 0.00000E+00
 -1      1601 1.21374E+02 2.18750E+00 0.00000E+00
 -1      1602 1.26012E+02 1.09375E+00 0.00000E+00
 -1      1603 1.24512E+02 1.09375E+00 0.00000E+00
 -1      1604 1.24374E+02 2.18750E+00 0.00000E+00
 -1      1605 1.29012E+02 1.09375E+00 0.00000E+00
 -1      1606 1.27512E+02 1.09375E+00 0.00000E+00
 -1      1607 1.27374E+02 2.18750E+00 0.00000E+00
 -1      1608 1.32012E+02 1.09375E+00 0.00000E+00
 -1      1609 1.30512E+02 1.09375E+00 0.00000E+00
 -1      1610 1.30374E+02 2.18750E+00 0.00000E+00
 -1      1611 1.35012E+02 1.09375E+00 0.00000E+00
 -1      1612 1.33512E+02 1.09375E+00 0.00000E+00
 -1      1613 1.33374E+02 2.18750E+00 0.00000E+00
 -1      1614 1.38012E+02 1.09375E+00 0.00000E+00
 -1      1615 1.36512E+02 1.09375E+00 0.00000E+00
 -1      1616 1.36374E+02 2.18750E+00 0.00000E+00
 -1      1617 1.41012E+02 1.09375E+00 0.00000E+00
 -1      1618 1.39512E+02 1.09375E+00 0.00000E+00
 -1      1619 1.39374E+02 2.18750E+00 0.00000E+00
 -1      1620 1.44012E+02 1.09375E+00 0.00000E+00
 -1      1621 1.42512E+02 1.09375E+00 0.00000E+00
 -1      1622 1.42374E+02 2.18750E+00 0.00000E+00
 -1      1623 1.47012E+02 1.09375E+00 0.00000E+00
 -1      1624 1.45512E+02 1.09375E+00 0.00000E+00
 -1      1625 1.45374E+02 2.18750E+00 0.00000E+00
 -1      1626 1.48575E+02 1.47500E+00 0.00000E+00
 -1      1627 1.48701E+02 5.16250E+00 0.00000E+00
 -1      1628 1.48701E+02 3.68750E+00 0.00000E+00
 -1      1629 1.48701E+02 8.11250E+00 0.00000E+00
 -1      1630 1.48701E+02 6.63750E+00 0.00000E+00
 -1      1631 1.47402E+02 5.90000E+00 0.00000E+00
 -1      1632 1.48701E+02 1.10625E+01 0.00000E+00
 -1      1633 1.48701E+02 9.58750E+00 0.00000E+00
 -1      1634 1.47402E+02 8.85000E+00 0.00000E+00
 -1      1635 1.48701E+02 1.40125E+01 0.00000E+00
 -1      1636 1.48701E+02 1.25375E+01 0.00000E+00
 -1      1637 1.47402E+02 1.18000E+01 0.00000E+00
 -1      1638 1.48701E+02 1.69125E+01 0.00000E+00
 -1      1639 1.48701E+02 1.54625E+01 0.00000E+00
 -1      1640 1.47402E+02 1.47250E+01 0.00000E+00
 -1      1641 1.48701E+02 1.98625E+01 0.00000E+00
 -1      1642 1.48701E+02 1.83875E+01 0.00000E+00
 -1      1643 1.47402E+02 1.76500E+01 0.00000E+00
 -1      1644 1.48701E+02 2.28125E+01 0.00000E+00
 -1      1645 1.48701E+02 2.13375E+01 0.00000E+00
 -1      1646 1.47402E+02 2.06000E+01 0.00000E+00
 -1      1647 1.48701E+02 2.57625E+01 0.00000E+00
 -1      1648 1.48701E+02 2.42875E+01 0.00000E+00
 -1      1649 1.47402E+02 2.35500E+01 0.00000E+00
 -1      1650 1.48701E+02 2.87125E+01 0.00000E+00
 -1      1651 1.48701E+02 2.72375E+01 0.00000E+00
 -1      1652 1.47402E+02 2.65000E+01 0.00000E+00
 -1      1653 1.48701E+02 3.16625E+01 0.00000E+00
 -1      1654 1.48701E+02 3.01875E+01 0.00000E+00
 -1      1655 1.47402E+02 2.94500E+01 0.00000E+00
 -1      1656 1.48701E+02 3.45625E+01 0.00000E+00
 -1      1657 1.48701E+02 3.31125E+01 0.00000E+00
 -1      1658 1.47402E+02 3.23750E+01 0.00000E+00
 -1      1659 1.48701E+02 3.75125E+01 0.00000E+00
 -1      1660 1.48701E+02 3.60375E+01 0.00000E+00
 -1      1661 1.47402E+02 3.53000E+01 0.00000E+00
 -1      1662 1.48701E+02 4.04625E+01 0.00000E+00
 -1      1663 1.48701E+02 3.89875E+01 0.00000E+00
 -1      1664 1.47402E+02 3.82500E+01 0.00000E+00
 -1      1665 1.48701E+02 4.34125E+01 0.00000E+00
 -1      1666 1.48701E+02 4.19375E+01 0.00000E+00
 -1      1667 1.47402E+02 4.12000E+01 0.00000E+00
 -1      1668 1.48263E+02 4.60692E+01 0.00000E+00
 -1      1669 1.48263E+02 4.45942E+01 0.00000E+00
 -1      1670 1.46964E+02 4.38568E+01 0.00000E+00
 -1      1671 1.46088E+02 4.62202E+01 0.00000E+00
 -1      1672 8.26534E+01 2.24250E+01 0.00000E+00
 -1      1673 8.27273E+01 2.31403E+01 0.00000E+00
 -1      1674 8.22935E+01 2.08826E+01 0.00000E+00
 -1      1675 8.25181E+01 2.15817E+01 0.00000E+00
 -1      1676 8.15603E+01 1.95007E+01 0.00000E+00
 -1      1677 8.19139E+01 2.01210E+01 0.00000E+00
 -1      1678 8.05820E+01 1.81539E+01 0.00000E+00
 -1      1679 8.11072E+01 1.87375E+01 0.00000E+00
 -1      1680 7.92510E+01 1.71832E+01 0.00000E+00
 -1      1681 7.98559E+01 1.76145E+01 0.00000E+00
 -1      1682 7.78093E+01 1.63752E+01 0.00000E+00
 -1      1683 7.85146E+01 1.66761E+01 0.00000E+00
 -1      1684 7.61268E+01 1.58833E+01 0.00000E+00
 -1      1685 7.69239E+01 1.60263E+01 0.00000E+00
 -1      1686 7.44850E+01 1.60129E+01 0.00000E+00
 -1      1687 7.52059E+01 1.59828E+01 0.00000E+00
 -1      1688 7.28411E+01 1.62640E+01 0.00000E+00
 -1      1689 7.35968E+01 1.60655E+01 0.00000E+00
 -1      1690 7.14009E+01 1.69814E+01 0.00000E+00
 -1      1691 7.20423E+01 1.66542E+01 0.00000E+00
 -1      1692 7.00634E+01 1.79607E+01 0.00000E+00
 -1      1693 7.06686E+01 1.74644E+01 0.00000E+00
 -1      1694 6.89477E+01 1.92318E+01 0.00000E+00
 -1      1695 6.94268E+01 1.86145E+01 0.00000E+00
 -1      1696 6.80563E+01 2.07120E+01 0.00000E+00
 -1      1697 6.83927E+01 1.99855E+01 0.00000E+00
 -1      1698 6.76897E+01 2.22989E+01 0.00000E+00
 -1      1699 6.78446E+01 2.15901E+01 0.00000E+00
 -1      1700 6.75908E+01 2.38724E+01 0.00000E+00
 -1      1701 6.75958E+01 2.31431E+01 0.00000E+00
 -1      1702 6.78000E+01 2.55099E+01 0.00000E+00
 -1      1703 6.76402E+01 2.47534E+01 0.00000E+00
 -1      1704 6.84577E+01 2.70812E+01 0.00000E+00
 -1      1705 6.81281E+01 2.63657E+01 0.00000E+00
 -1      1706 6.93182E+01 2.83877E+01 0.00000E+00
 -1      1707 6.88984E+01 2.78290E+01 0.00000E+00
 -1      1708 7.03683E+01 2.94336E+01 0.00000E+00
 -1      1709 6.98620E+01 2.89812E+01 0.00000E+00
 -1      1710 7.15972E+01 3.02507E+01 0.00000E+00
 -1      1711 7.10101E+01 2.99032E+01 0.00000E+00
 -1      1712 7.29879E+01 3.08212E+01 0.00000E+00
 -1      1713 7.23287E+01 3.05904E+01 0.00000E+00
 -1      1714 7.44578E+01 3.11075E+01 0.00000E+00
 -1      1715 7.37754E+01 3.10125E+01 0.00000E+00
 -1      1716 7.60394E+01 3.11692E+01 0.00000E+00
 -1      1717 7.52987E+01 3.12185E+01 0.00000E+00
 -1      1718 7.75255E+01 3.07619E+01 0.00000E+00
 -1      1719 7.68596E+01 3.09474E+01 0.00000E+00
 -1      1720 7.89214E+01 3.01893E+01 0.00000E+00
 -1      1721 7.83001E+01 3.05051E+01 0.00000E+00
 -1      1722 8.01207E+01 2.92930E+01 0.00000E+00
 -1      1723 7.95829E+01 2.97174E+01 0.00000E+00
 -1      1724 8.11709E+01 2.82490E+01 0.00000E+00
 -1      1725 8.07281E+01 2.87670E+01 0.00000E+00
 -1      1726 8.19713E+01 2.69829E+01 0.00000E+00
 -1      1727 8.16338E+01 2.75849E+01 0.00000E+00
 -1      1728 8.25186E+01 2.55434E+01 0.00000E+00
 -1      1729 8.23008E+01 2.62229E+01 0.00000E+00
 -1      1730 8.28097E+01 2.39933E+01 0.00000E+00
 -1      1731 8.27343E+01 2.47161E+01 0.00000E+00
 -1      1732 8.06314E+01 1.74447E+01 0.00000E+00
 -1      1733 8.18106E+01 1.87474E+01 0.00000E+00
 -1      1734 1.48437E+02 2.56875E+00 0.00000E+00
 -1      1735 1.47138E+02 3.30625E+00 0.00000E+00
 -1      1736 8.31581E+01 2.18771E+01 0.00000E+00
 -1      1737 8.26433E+01 2.02722E+01 0.00000E+00
 -1      1738 8.33758E+01 2.35733E+01 0.00000E+00
 -1      1739 7.91690E+01 1.63981E+01 0.00000E+00
 -1      1740 7.75473E+01 1.55421E+01 0.00000E+00
 -1      1741 7.57411E+01 1.52927E+01 0.00000E+00
 -1      1742 7.39319E+01 1.54448E+01 0.00000E+00
 -1      1743 7.22449E+01 1.58876E+01 0.00000E+00
 -1      1744 7.07139E+01 1.67608E+01 0.00000E+00
 -1      1745 6.93450E+01 1.78976E+01 0.00000E+00
 -1      1746 6.81534E+01 1.93051E+01 0.00000E+00
 -1      1747 6.73867E+01 2.09370E+01 0.00000E+00
 -1      1748 6.70810E+01 2.26593E+01 0.00000E+00
 -1      1749 6.70365E+01 2.43846E+01 0.00000E+00
 -1      1750 6.74141E+01 2.61213E+01 0.00000E+00
 -1      1751 6.81830E+01 2.77248E+01 0.00000E+00
 -1      1752 6.91675E+01 2.90660E+01 0.00000E+00
 -1      1753 7.03531E+01 3.01290E+01 0.00000E+00
 -1      1754 7.17264E+01 3.09383E+01 0.00000E+00
 -1      1755 7.32455E+01 3.14692E+01 0.00000E+00
 -1      1756 7.48739E+01 3.17714E+01 0.00000E+00
 -1      1757 7.65350E+01 3.16605E+01 0.00000E+00
 -1      1758 7.81298E+01 3.11818E+01 0.00000E+00
 -1      1759 7.95658E+01 3.04530E+01 0.00000E+00
 -1      1760 8.08347E+01 2.94551E+01 0.00000E+00
 -1      1761 8.19050E+01 2.82650E+01 0.00000E+00
 -1      1762 8.26973E+01 2.68409E+01 0.00000E+00
 -1      1763 8.32426E+01 2.52537E+01 0.00000E+00
 -1      1764 2.87400E+00 4.77875E+01 0.00000E+00
 -1      1765 3.89700E+00 4.04125E+01 0.00000E+00
 -1      1766 3.89700E+00 4.18875E+01 0.00000E+00
 -1      1767 3.89700E+00 4.33625E+01 0.00000E+00
 -1      1768 3.89700E+00 4.48375E+01 0.00000E+00
 -1      1769 5.19600E+00 4.26250E+01 0.00000E+00
 -1      1770 3.89700E+00 3.45500E+01 0.00000E+00
 -1      1771 3.89700E+00 3.60000E+01 0.00000E+00
 -1      1772 3.89700E+00 3.16000E+01 0.00000E+00
 -1      1773 3.89700E+00 3.30750E+01 0.00000E+00
 -1      1774 5.19600E+00 3.38000E+01 0.00000E+00
 -1      1775 3.89700E+00 2.86500E+01 0.00000E+00
 -1      1776 3.89700E+00 3.01250E+01 0.00000E+00
 -1      1777 5.19600E+00 3.08500E+01 0.00000E+00
 -1      1778 3.89700E+00 2.57000E+01 0.00000E+00
 -1      1779 3.89700E+00 2.71750E+01 0.00000E+00
 -1      1780 5.19600E+00 2.79000E+01 0.00000E+00
 -1      1781 3.89700E+00 2.27500E+01 0.00000E+00
 -1      1782 3.89700E+00 2.42250E+01 0.00000E+00
 -1      1783 5.19600E+00 2.49500E+01 0.00000E+00
 -1      1784 3.89700E+00 1.98000E+01 0.00000E+00
 -1      1785 3.89700E+00 2.12750E+01 0.00000E+00
 -1      1786 5.19600E+00 2.20000E+01 0.00000E+00
 -1      1787 3.89700E+00 1.69000E+01 0.00000E+00
 -1      1788 3.89700E+00 1.83500E+01 0.00000E+00
 -1      1789 5.19600E+00 1.90750E+01 0.00000E+00
 -1      1790 3.89700E+00 1.39500E+01 0.00000E+00
 -1      1791 3.89700E+00 1.54250E+01 0.00000E+00
 -1      1792 5.19600E+00 1.61500E+01 0.00000E+00
 -1      1793 3.89700E+00 1.10000E+01 0.00000E+00
 -1      1794 3.89700E+00 1.24750E+01 0.00000E+00
 -1      1795 5.19600E+00 1.32000E+01 0.00000E+00
 -1      1796 3.89700E+00 8.05000E+00 0.00000E+00
 -1      1797 3.89700E+00 9.52500E+00 0.00000E+00
 -1      1798 5.19600E+00 1.02500E+01 0.00000E+00
 -1      1799 3.89700E+00 5.10000E+00 0.00000E+00
 -1      1800 3.89700E+00 6.57500E+00 0.00000E+00
 -1      1801 5.19600E+00 7.30000E+00 0.00000E+00
 -1      1802 4.20450E+00 3.09687E+00 0.00000E+00
 -1      1803 4.06650E+00 4.19063E+00 0.00000E+00
 -1      1804 5.36550E+00 4.91563E+00 0.00000E+00
 -1      1805 5.70450E+00 3.09687E+00 0.00000E+00
 -1      1806 3.62400E+00 4.64885E+01 0.00000E+00
 -1      1807 8.70450E+00 3.09687E+00 0.00000E+00
 -1      1808 7.20450E+00 3.09687E+00 0.00000E+00
 -1      1809 7.03500E+00 4.00625E+00 0.00000E+00
 -1      1810 4.92300E+00 4.57510E+01 0.00000E+00
 -1      1811 8.40000E+00 4.61030E+01 0.00000E+00
 -1      1812 9.90000E+00 4.61030E+01 0.00000E+00
 -1      1813 1.14000E+01 4.61030E+01 0.00000E+00
 -1      1814 1.29000E+01 4.61030E+01 0.00000E+00
 -1      1815 1.06500E+01 4.48040E+01 0.00000E+00
 -1      1816 1.44000E+01 4.61030E+01 0.00000E+00
 -1      1817 1.59000E+01 4.61030E+01 0.00000E+00
 -1      1818 1.36500E+01 4.48040E+01 0.00000E+00
 -1      1819 1.74000E+01 4.61030E+01 0.00000E+00
 -1      1820 1.89000E+01 4.61030E+01 0.00000E+00
 -1      1821 1.66500E+01 4.48040E+01 0.00000E+00
 -1      1822 2.04000E+01 4.61030E+01 0.00000E+00
 -1      1823 2.19000E+01 4.61030E+01 0.00000E+00
 -1      1824 1.96500E+01 4.48040E+01 0.00000E+00
 -1      1825 2.34000E+01 4.61030E+01 0.00000E+00
 -1      1826 2.49000E+01 4.61030E+01 0.00000E+00
 -1      1827 2.26500E+01 4.48040E+01 0.00000E+00
 -1      1828 2.64000E+01 4.61030E+01 0.00000E+00
 -1      1829 2.79000E+01 4.61030E+01 0.00000E+00
 -1      1830 2.56500E+01 4.48040E+01 0.00000E+00
 -1      1831 2.94000E+01 4.61030E+01 0.00000E+00
 -1      1832 3.09000E+01 4.61030E+01 0.00000E+00
 -1      1833 2.86500E+01 4.48040E+01 0.00000E+00
 -1      1834 3.24000E+01 4.61030E+01 0.00000E+00
 -1      1835 3.39000E+01 4.61030E+01 0.00000E+00
 -1      1836 3.16500E+01 4.48040E+01 0.00000E+00
 -1      1837 3.54000E+01 4.61030E+01 0.00000E+00
 -1      1838 3.69000E+01 4.61030E+01 0.00000E+00
 -1      1839 3.46500E+01 4.48040E+01 0.00000E+00
 -1      1840 3.84000E+01 4.61030E+01 0.00000E+00
 -1      1841 3.99000E+01 4.61030E+01 0.00000E+00
 -1      1842 3.76500E+01 4.48040E+01 0.00000E+00
 -1      1843 4.14000E+01 4.61030E+01 0.00000E+00
 -1      1844 4.29000E+01 4.61030E+01 0.00000E+00
 -1      1845 4.06500E+01 4.48040E+01 0.00000E+00
 -1      1846 4.44000E+01 4.61030E+01 0.00000E+00
 -1      1847 4.59000E+01 4.61030E+01 0.00000E+00
 -1      1848 4.36500E+01 4.48040E+01 0.00000E+00
 -1      1849 4.74000E+01 4.61030E+01 0.00000E+00
 -1      1850 4.89000E+01 4.61030E+01 0.00000E+00
 -1      1851 4.66500E+01 4.48040E+01 0.00000E+00
 -1      1852 5.04000E+01 4.61030E+01 0.00000E+00
 -1      1853 5.19000E+01 4.61030E+01 0.00000E+00
 -1      1854 4.96500E+01 4.48040E+01 0.00000E+00
 -1      1855 5.34000E+01 4.61030E+01 0.00000E+00
 -1      1856 5.49000E+01 4.61030E+01 0.00000E+00
 -1      1857 5.26500E+01 4.48040E+01 0.00000E+00
 -1      1858 5.64000E+01 4.61030E+01 0.00000E+00
 -1      1859 5.79000E+01 4.61030E+01 0.00000E+00
 -1      1860 5.56500E+01 4.48040E+01 0.00000E+00
 -1      1861 5.94000E+01 4.61030E+01 0.00000E+00
 -1      1862 6.09000E+01 4.61030E+01 0.00000E+00
 -1      1863 5.86500E+01 4.48040E+01 0.00000E+00
 -1      1864 6.24000E+01 4.61030E+01 0.00000E+00
 -1      1865 6.39000E+01 4.61030E+01 0.00000E+00
 -1      1866 6.16500E+01 4.48040E+01 0.00000E+00
 -1      1867 6.54000E+01 4.61030E+01 0.00000E+00
 -1      1868 6.69000E+01 4.61030E+01 0.00000E+00
 -1      1869 6.46500E+01 4.48040E+01 0.00000E+00
 -1      1870 6.84000E+01 4.61030E+01 0.00000E+00
 -1      1871 6.99000E+01 4.61030E+01 0.00000E+00
 -1      1872 6.76500E+01 4.48040E+01 0.00000E+00
 -1      1873 7.14000E+01 4.61030E+01 0.00000E+00
 -1      1874 7.29000E+01 4.61030E+01 0.00000E+00
 -1      1875 7.06500E+01 4.48040E+01 0.00000E+00
 -1      1876 7.44000E+01 4.61030E+01 0.00000E+00
 -1      1877 7.59000E+01 4.61030E+01 0.00000E+00
 -1      1878 7.36500E+01 4.48040E+01 0.00000E+00
 -1      1879 7.74000E+01 4.61030E+01 0.00000E+00
 -1      1880 7.89000E+01 4.61030E+01 0.00000E+00
 -1      1881 7.66500E+01 4.48040E+01 0.00000E+00
 -1      1882 8.04000E+01 4.61030E+01 0.00000E+00
 -1      1883 8.19000E+01 4.61030E+01 0.00000E+00
 -1      1884 7.96500E+01 4.48040E+01 0.00000E+00
 -1      1885 8.34000E+01 4.61030E+01 0.00000E+00
 -1      1886 8.49000E+01 4.61030E+01 0.00000E+00
 -1      1887 8.26500E+01 4.48040E+01 0.00000E+00
 -1      1888 8.64000E+01 4.61030E+01 0.00000E+00
 -1      1889 8.79000E+01 4.61030E+01 0.00000E+00
 -1      1890 8.56500E+01 4.48040E+01 0.00000E+00
 -1      1891 8.94000E+01 4.61030E+01 0.00000E+00
 -1      1892 9.09000E+01 4.61030E+01 0.00000E+00
 -1      1893 8.86500E+01 4.48040E+01 0.00000E+00
 -1      1894 9.24000E+01 4.61030E+01 0.00000E+00
 -1      1895 9.39000E+01 4.61030E+01 0.00000E+00
 -1      1896 9.16500E+01 4.48040E+01 0.00000E+00
 -1      1897 9.54000E+01 4.61030E+01 0.00000E+00
 -1      1898 9.69000E+01 4.61030E+01 0.00000E+00
 -1      1899 9.46500E+01 4.48040E+01 0.00000E+00
 -1      1900 9.84000E+01 4.61030E+01 0.00000E+00
 -1      1901 9.99000E+01 4.61030E+01 0.00000E+00
 -1      1902 9.76500E+01 4.48040E+01 0.00000E+00
 -1      1903 1.01400E+02 4.61030E+01 0.00000E+00
 -1      1904 1.02900E+02 4.61030E+01 0.00000E+00
 -1      1905 1.00650E+02 4.48040E+01 0.00000E+00
 -1      1906 1.04400E+02 4.61030E+01 0.00000E+00
 -1      1907 1.05900E+02 4.61030E+01 0.00000E+00
 -1      1908 1.03650E+02 4.48040E+01 0.00000E+00
 -1      1909 1.07400E+02 4.61030E+01 0.00000E+00
 -1      1910 1.08900E+02 4.61030E+01 0.00000E+00
 -1      1911 1.06650E+02 4.48040E+01 0.00000E+00
 -1      1912 1.10400E+02 4.61030E+01 0.00000E+00
 -1      1913 1.11900E+02 4.61030E+01 0.00000E+00
 -1      1914 1.09650E+02 4.48040E+01 0.00000E+00
 -1      1915 1.13400E+02 4.61030E+01 0.00000E+00
 -1      1916 1.14900E+02 4.61030E+01 0.00000E+00
 -1      1917 1.12650E+02 4.48040E+01 0.00000E+00
 -1      1918 1.16400E+02 4.61030E+01 0.00000E+00
 -1      1919 1.17900E+02 4.61030E+01 0.00000E+00
 -1      1920 1.15650E+02 4.48040E+01 0.00000E+00
 -1      1921 1.19400E+02 4.61030E+01 0.00000E+00
 -1      1922 1.20900E+02 4.61030E+01 0.00000E+00
 -1      1923 1.18650E+02 4.48040E+01 0.00000E+00
 -1      1924 1.22400E+02 4.61030E+01 0.00000E+00
 -1      1925 1.23900E+02 4.61030E+01 0.00000E+00
 -1      1926 1.21650E+02 4.48040E+01 0.00000E+00
 -1      1927 1.25400E+02 4.61030E+01 0.00000E+00
 -1      1928 1.26900E+02 4.61030E+01 0.00000E+00
 -1      1929 1.24650E+02 4.48040E+01 0.00000E+00
 -1      1930 1.28400E+02 4.61030E+01 0.00000E+00
 -1      1931 1.29900E+02 4.61030E+01 0.00000E+00
 -1      1932 1.27650E+02 4.48040E+01 0.00000E+00
 -1      1933 1.31400E+02 4.61030E+01 0.00000E+00
 -1      1934 1.32900E+02 4.61030E+01 0.00000E+00
 -1      1935 1.30650E+02 4.48040E+01 0.00000E+00
 -1      1936 1.34400E+02 4.61030E+01 0.00000E+00
 -1      1937 1.35900E+02 4.61030E+01 0.00000E+00
 -1      1938 1.33650E+02 4.48040E+01 0.00000E+00
 -1      1939 1.37400E+02 4.61030E+01 0.00000E+00
 -1      1940 1.38900E+02 4.61030E+01 0.00000E+00
 -1      1941 1.36650E+02 4.48040E+01 0.00000E+00
 -1      1942 1.40400E+02 4.61030E+01 0.00000E+00
 -1      1943 1.41900E+02 4.61030E+01 0.00000E+00
 -1      1944 1.39650E+02 4.48040E+01 0.00000E+00
 -1      1945 1.43244E+02 4.61616E+01 0.00000E+00
 -1      1946 1.44744E+02 4.61616E+01 0.00000E+00
 -1      1947 1.45182E+02 4.49799E+01 0.00000E+00
 -1      1948 1.42494E+02 4.48626E+01 0.00000E+00
 -1      1949 1.17045E+01 3.09687E+00 0.00000E+00
 -1      1950 1.02045E+01 3.09687E+00 0.00000E+00
 -1      1951 1.00350E+01 4.00625E+00 0.00000E+00
 -1      1952 1.47045E+01 3.09687E+00 0.00000E+00
 -1      1953 1.32045E+01 3.09687E+00 0.00000E+00
 -1      1954 1.30350E+01 4.00625E+00 0.00000E+00
 -1      1955 1.77045E+01 3.09687E+00 0.00000E+00
 -1      1956 1.62045E+01 3.09687E+00 0.00000E+00
 -1      1957 1.60350E+01 4.00625E+00 0.00000E+00
 -1      1958 2.07045E+01 3.09687E+00 0.00000E+00
 -1      1959 1.92045E+01 3.09687E+00 0.00000E+00
 -1      1960 1.90350E+01 4.00625E+00 0.00000E+00
 -1      1961 2.37045E+01 3.09687E+00 0.00000E+00
 -1      1962 2.22045E+01 3.09687E+00 0.00000E+00
 -1      1963 2.20350E+01 4.00625E+00 0.00000E+00
 -1      1964 2.67045E+01 3.09687E+00 0.00000E+00
 -1      1965 2.52045E+01 3.09687E+00 0.00000E+00
 -1      1966 2.50350E+01 4.00625E+00 0.00000E+00
 -1      1967 2.97045E+01 3.09687E+00 0.00000E+00
 -1      1968 2.82045E+01 3.09687E+00 0.00000E+00
 -1      1969 2.80350E+01 4.00625E+00 0.00000E+00
 -1      1970 3.27045E+01 3.09687E+00 0.00000E+00
 -1      1971 3.12045E+01 3.09687E+00 0.00000E+00
 -1      1972 3.10350E+01 4.00625E+00 0.00000E+00
 -1      1973 3.57045E+01 3.09687E+00 0.00000E+00
 -1      1974 3.42045E+01 3.09687E+00 0.00000E+00
 -1      1975 3.40350E+01 4.00625E+00 0.00000E+00
 -1      1976 3.87045E+01 3.09687E+00 0.00000E+00
 -1      1977 3.72045E+01 3.09687E+00 0.00000E+00
 -1      1978 3.70350E+01 4.00625E+00 0.00000E+00
 -1      1979 4.17045E+01 3.09687E+00 0.00000E+00
 -1      1980 4.02045E+01 3.09687E+00 0.00000E+00
 -1      1981 4.00350E+01 4.00625E+00 0.00000E+00
 -1      1982 4.47045E+01 3.09687E+00 0.00000E+00
 -1      1983 4.32045E+01 3.09687E+00 0.00000E+00
 -1      1984 4.30350E+01 4.00625E+00 0.00000E+00
 -1      1985 4.77045E+01 3.09687E+00 0.00000E+00
 -1      1986 4.62045E+01 3.09687E+00 0.00000E+00
 -1      1987 4.60350E+01 4.00625E+00 0.00000E+00
 -1      1988 5.07045E+01 3.09687E+00 0.00000E+00
 -1      1989 4.92045E+01 3.09687E+00 0.00000E+00
 -1      1990 4.90350E+01 4.00625E+00 0.00000E+00
 -1      1991 5.37045E+01 3.09687E+00 0.00000E+00
 -1      1992 5.22045E+01 3.09687E+00 0.00000E+00
 -1      1993 5.20350E+01 4.00625E+00 0.00000E+00
 -1      1994 5.67045E+01 3.09687E+00 0.00000E+00
 -1      1995 5.52045E+01 3.09687E+00 0.00000E+00
 -1      1996 5.50350E+01 4.00625E+00 0.00000E+00
 -1      1997 5.97045E+01 3.09687E+00 0.00000E+00
 -1      1998 5.82045E+01 3.09687E+00 0.00000E+00
 -1      1999 5.80350E+01 4.00625E+00 0.00000E+00
 -1      2000 6.27045E+01 3.09687E+00 0.00000E+00
 -1      2001 6.12045E+01 3.09687E+00 0.00000E+00
 -1      2002 6.10350E+01 4.00625E+00 0.00000E+00
 -1      2003 6.57045E+01 3.09687E+00 0.00000E+00
 -1      2004 6.42045E+01 3.09687E+00 0.00000E+00
 -1      2005 6.40350E+01 4.00625E+00 0.00000E+00
 -1      2006 6.87045E+01 3.09687E+00 0.00000E+00
 -1      2007 6.72045E+01 3.09687E+00 0.00000E+00
 -1      2008 6.70350E+01 4.00625E+00 0.00000E+00
 -1      2009 7.17045E+01 3.09687E+00 0.00000E+00
 -1      2010 7.02045E+01 3.09687E+00 0.00000E+00
 -1      2011 7.00350E+01 4.00625E+00 0.00000E+00
 -1      2012 7.47045E+01 3.09687E+00 0.00000E+00
 -1      2013 7.32045E+01 3.09687E+00 0.00000E+00
 -1      2014 7.30350E+01 4.00625E+00 0.00000E+00
 -1      2015 7.77045E+01 3.09687E+00 0.00000E+00
 -1      2016 7.62045E+01 3.09687E+00 0.00000E+00
 -1      2017 7.60350E+01 4.00625E+00 0.00000E+00
 -1      2018 8.07045E+01 3.09687E+00 0.00000E+00
 -1      2019 7.92045E+01 3.09687E+00 0.00000E+00
 -1      2020 7.90350E+01 4.00625E+00 0.00000E+00
 -1      2021 8.37045E+01 3.09687E+00 0.00000E+00
 -1      2022 8.22045E+01 3.09687E+00 0.00000E+00
 -1      2023 8.20350E+01 4.00625E+00 0.00000E+00
 -1      2024 8.67045E+01 3.09687E+00 0.00000E+00
 -1      2025 8.52045E+01 3.09687E+00 0.00000E+00
 -1      2026 8.50350E+01 4.00625E+00 0.00000E+00
 -1      2027 8.97045E+01 3.09687E+00 0.00000E+00
 -1      2028 8.82045E+01 3.09687E+00 0.00000E+00
 -1      2029 8.80350E+01 4.00625E+00 0.00000E+00
 -1      2030 9.27045E+01 3.09687E+00 0.00000E+00
 -1      2031 9.12045E+01 3.09687E+00 0.00000E+00
 -1      2032 9.10350E+01 4.00625E+00 0.00000E+00
 -1      2033 9.57045E+01 3.09687E+00 0.00000E+00
 -1      2034 9.42045E+01 3.09687E+00 0.00000E+00
 -1      2035 9.40350E+01 4.00625E+00 0.00000E+00
 -1      2036 9.87045E+01 3.09687E+00 0.00000E+00
 -1      2037 9.72045E+01 3.09687E+00 0.00000E+00
 -1      2038 9.70350E+01 4.00625E+00 0.00000E+00
 -1      2039 1.01704E+02 3.09687E+00 0.00000E+00
 -1      2040 1.00204E+02 3.09687E+00 0.00000E+00
 -1      2041 1.00035E+02 4.00625E+00 0.00000E+00
 -1      2042 1.04704E+02 3.09687E+00 0.00000E+00
 -1      2043 1.03204E+02 3.09687E+00 0.00000E+00
 -1      2044 1.03035E+02 4.00625E+00 0.00000E+00
 -1      2045 1.07704E+02 3.09687E+00 0.00000E+00
 -1      2046 1.06204E+02 3.09687E+00 0.00000E+00
 -1      2047 1.06035E+02 4.00625E+00 0.00000E+00
 -1      2048 1.10704E+02 3.09687E+00 0.00000E+00
 -1      2049 1.09204E+02 3.09687E+00 0.00000E+00
 -1      2050 1.09035E+02 4.00625E+00 0.00000E+00
 -1      2051 1.13704E+02 3.09687E+00 0.00000E+00
 -1      2052 1.12204E+02 3.09687E+00 0.00000E+00
 -1      2053 1.12035E+02 4.00625E+00 0.00000E+00
 -1      2054 1.16704E+02 3.09687E+00 0.00000E+00
 -1      2055 1.15204E+02 3.09687E+00 0.00000E+00
 -1      2056 1.15035E+02 4.00625E+00 0.00000E+00
 -1      2057 1.19704E+02 3.09687E+00 0.00000E+00
 -1      2058 1.18204E+02 3.09687E+00 0.00000E+00
 -1      2059 1.18035E+02 4.00625E+00 0.00000E+00
 -1      2060 1.22704E+02 3.09687E+00 0.00000E+00
 -1      2061 1.21204E+02 3.09687E+00 0.00000E+00
 -1      2062 1.21035E+02 4.00625E+00 0.00000E+00
 -1      2063 1.25704E+02 3.09687E+00 0.00000E+00
 -1      2064 1.24204E+02 3.09687E+00 0.00000E+00
 -1      2065 1.24035E+02 4.00625E+00 0.00000E+00
 -1      2066 1.28704E+02 3.09687E+00 0.00000E+00
 -1      2067 1.27204E+02 3.09687E+00 0.00000E+00
 -1      2068 1.27035E+02 4.00625E+00 0.00000E+00
 -1      2069 1.31704E+02 3.09687E+00 0.00000E+00
 -1      2070 1.30204E+02 3.09687E+00 0.00000E+00
 -1      2071 1.30035E+02 4.00625E+00 0.00000E+00
 -1      2072 1.34704E+02 3.09687E+00 0.00000E+00
 -1      2073 1.33204E+02 3.09687E+00 0.00000E+00
 -1      2074 1.33035E+02 4.00625E+00 0.00000E+00
 -1      2075 1.37704E+02 3.09687E+00 0.00000E+00
 -1      2076 1.36204E+02 3.09687E+00 0.00000E+00
 -1      2077 1.36035E+02 4.00625E+00 0.00000E+00
 -1      2078 1.40704E+02 3.09687E+00 0.00000E+00
 -1      2079 1.39204E+02 3.09687E+00 0.00000E+00
 -1      2080 1.39035E+02 4.00625E+00 0.00000E+00
 -1      2081 1.43704E+02 3.09687E+00 0.00000E+00
 -1      2082 1.42204E+02 3.09687E+00 0.00000E+00
 -1      2083 1.42035E+02 4.00625E+00 0.00000E+00
 -1      2084 1.46171E+02 3.20156E+00 0.00000E+00
 -1      2085 1.44671E+02 3.20156E+00 0.00000E+00
 -1      2086 1.44502E+02 4.11094E+00 0.00000E+00
 -1      2087 1.46435E+02 4.32031E+00 0.00000E+00
 -1      2088 1.46103E+02 1.25375E+01 0.00000E+00
 -1      2089 1.46103E+02 1.10625E+01 0.00000E+00
 -1      2090 1.46103E+02 9.58750E+00 0.00000E+00
 -1      2091 1.46103E+02 8.11250E+00 0.00000E+00
 -1      2092 1.44804E+02 1.03250E+01 0.00000E+00
 -1      2093 1.46269E+02 6.95391E+00 0.00000E+00
 -1      2094 1.46269E+02 5.47891E+00 0.00000E+00
 -1      2095 1.45302E+02 5.37422E+00 0.00000E+00
 -1      2096 1.44970E+02 7.69141E+00 0.00000E+00
 -1      2097 1.46103E+02 1.54375E+01 0.00000E+00
 -1      2098 1.46103E+02 1.39875E+01 0.00000E+00
 -1      2099 1.44804E+02 1.32500E+01 0.00000E+00
 -1      2100 1.46103E+02 1.83875E+01 0.00000E+00
 -1      2101 1.46103E+02 1.69125E+01 0.00000E+00
 -1      2102 1.44804E+02 1.61750E+01 0.00000E+00
 -1      2103 1.46103E+02 2.13375E+01 0.00000E+00
 -1      2104 1.46103E+02 1.98625E+01 0.00000E+00
 -1      2105 1.44804E+02 1.91250E+01 0.00000E+00
 -1      2106 1.46103E+02 2.42875E+01 0.00000E+00
 -1      2107 1.46103E+02 2.28125E+01 0.00000E+00
 -1      2108 1.44804E+02 2.20750E+01 0.00000E+00
 -1      2109 1.46103E+02 2.72375E+01 0.00000E+00
 -1      2110 1.46103E+02 2.57625E+01 0.00000E+00
 -1      2111 1.44804E+02 2.50250E+01 0.00000E+00
 -1      2112 1.46103E+02 3.01875E+01 0.00000E+00
 -1      2113 1.46103E+02 2.87125E+01 0.00000E+00
 -1      2114 1.44804E+02 2.79750E+01 0.00000E+00
 -1      2115 1.46103E+02 3.30875E+01 0.00000E+00
 -1      2116 1.46103E+02 3.16375E+01 0.00000E+00
 -1      2117 1.44804E+02 3.09000E+01 0.00000E+00
 -1      2118 1.46103E+02 3.60375E+01 0.00000E+00
 -1      2119 1.46103E+02 3.45625E+01 0.00000E+00
 -1      2120 1.44804E+02 3.38250E+01 0.00000E+00
 -1      2121 1.46103E+02 3.89875E+01 0.00000E+00
 -1      2122 1.46103E+02 3.75125E+01 0.00000E+00
 -1      2123 1.44804E+02 3.67750E+01 0.00000E+00
 -1      2124 1.46103E+02 4.19375E+01 0.00000E+00
 -1      2125 1.46103E+02 4.04625E+01 0.00000E+00
 -1      2126 1.44804E+02 3.97250E+01 0.00000E+00
 -1      2127 8.31835E+01 1.95276E+01 0.00000E+00
 -1      2128 8.35631E+01 2.02893E+01 0.00000E+00
 -1      2129 8.40213E+01 2.30804E+01 0.00000E+00
 -1      2130 8.41038E+01 2.39334E+01 0.00000E+00
 -1      2131 8.38131E+01 2.13396E+01 0.00000E+00
 -1      2132 8.39483E+01 2.21828E+01 0.00000E+00
 -1      2133 8.22773E+01 1.80012E+01 0.00000E+00
 -1      2134 8.27304E+01 1.87644E+01 0.00000E+00
 -1      2135 8.36502E+01 1.87815E+01 0.00000E+00
 -1      2136 8.07299E+01 1.65539E+01 0.00000E+00
 -1      2137 8.14559E+01 1.70934E+01 0.00000E+00
 -1      2138 3.89700E+00 3.74688E+01 0.00000E+00
 -1      2139 3.89700E+00 3.89437E+01 0.00000E+00
 -1      2140 5.19600E+00 3.96813E+01 0.00000E+00
 -1      2141 5.19600E+00 3.67438E+01 0.00000E+00
 -1      2142 7.73422E+01 1.47647E+01 0.00000E+00
 -1      2143 7.82276E+01 1.51136E+01 0.00000E+00
 -1      2144 7.52020E+01 1.46148E+01 0.00000E+00
 -1      2145 7.61229E+01 1.45153E+01 0.00000E+00
 -1      2146 7.34255E+01 1.47200E+01 0.00000E+00
 -1      2147 7.43137E+01 1.46674E+01 0.00000E+00
 -1      2148 7.46955E+01 1.38900E+01 0.00000E+00
 -1      2149 7.15059E+01 1.53875E+01 0.00000E+00
 -1      2150 7.23046E+01 1.49973E+01 0.00000E+00
 -1      2151 6.99909E+01 1.64613E+01 0.00000E+00
 -1      2152 7.07231E+01 1.59783E+01 0.00000E+00
 -1      2153 6.85624E+01 1.77724E+01 0.00000E+00
 -1      2154 6.91990E+01 1.71186E+01 0.00000E+00
 -1      2155 6.73540E+01 1.92977E+01 0.00000E+00
 -1      2156 6.79090E+01 1.85440E+01 0.00000E+00
 -1      2157 6.65286E+01 2.11947E+01 0.00000E+00
 -1      2158 6.67403E+01 2.03165E+01 0.00000E+00
 -1      2159 6.63483E+01 2.30051E+01 0.00000E+00
 -1      2160 6.64422E+01 2.21609E+01 0.00000E+00
 -1      2161 6.63724E+01 2.48637E+01 0.00000E+00
 -1      2162 6.63229E+01 2.39827E+01 0.00000E+00
 -1      2163 6.69731E+01 2.67812E+01 0.00000E+00
 -1      2164 6.66449E+01 2.59255E+01 0.00000E+00
 -1      2165 6.78450E+01 2.84277E+01 0.00000E+00
 -1      2166 6.74043E+01 2.76800E+01 0.00000E+00
 -1      2167 6.89306E+01 2.98288E+01 0.00000E+00
 -1      2168 6.83868E+01 2.92354E+01 0.00000E+00
 -1      2169 7.02666E+01 3.09207E+01 0.00000E+00
 -1      2170 6.96248E+01 3.04511E+01 0.00000E+00
 -1      2171 7.18016E+01 3.17339E+01 0.00000E+00
 -1      2172 7.10701E+01 3.13942E+01 0.00000E+00
 -1      2173 7.34566E+01 3.23167E+01 0.00000E+00
 -1      2174 7.26691E+01 3.21255E+01 0.00000E+00
 -1      2175 7.51385E+01 3.25386E+01 0.00000E+00
 -1      2176 7.42976E+01 3.24276E+01 0.00000E+00
 -1      2177 7.37212E+01 3.30839E+01 0.00000E+00
 -1      2178 7.71362E+01 3.22560E+01 0.00000E+00
 -1      2179 7.63160E+01 3.24779E+01 0.00000E+00
 -1      2180 7.87211E+01 3.16685E+01 0.00000E+00
 -1      2181 7.79464E+01 3.19253E+01 0.00000E+00
 -1      2182 8.02973E+01 3.07787E+01 0.00000E+00
 -1      2183 7.96359E+01 3.12506E+01 0.00000E+00
 -1      2184 8.15901E+01 2.97138E+01 0.00000E+00
 -1      2185 8.09826E+01 3.02397E+01 0.00000E+00
 -1      2186 8.27025E+01 2.83274E+01 0.00000E+00
 -1      2187 8.22397E+01 2.89916E+01 0.00000E+00
 -1      2188 8.34567E+01 2.67188E+01 0.00000E+00
 -1      2189 8.31272E+01 2.74787E+01 0.00000E+00
 -1      2190 8.40181E+01 2.50141E+01 0.00000E+00
 -1      2191 8.38024E+01 2.58414E+01 0.00000E+00
 -1      2192 7.92572E+01 1.55396E+01 0.00000E+00
 -1      2193 7.99935E+01 1.60468E+01 0.00000E+00
 -1      2194 8.08180E+01 1.56954E+01 0.00000E+00
 -1      2195 8.23757E+01 1.71104E+01 0.00000E+00
 -1      2196 6.42300E+00 4.57510E+01 0.00000E+00
 -1      2197 7.90521E+01 1.47622E+01 0.00000E+00
 -1      2198 7.17300E+00 4.44520E+01 0.00000E+00
 -1      2199 8.43534E+01 2.05950E+01 0.00000E+00
 -1      2200 8.46764E+01 2.25429E+01 0.00000E+00
 -1      2201 1.45665E+02 4.31193E+01 0.00000E+00
 -1      2202 8.46636E+01 2.45212E+01 0.00000E+00
 -1      2203 8.42322E+01 2.64792E+01 0.00000E+00
 -1      2204 8.34619E+01 2.82053E+01 0.00000E+00
 -1      2205 8.23876E+01 2.97762E+01 0.00000E+00
 -1      2206 8.10527E+01 3.10374E+01 0.00000E+00
 -1      2207 7.94525E+01 3.19942E+01 0.00000E+00
 -1      2208 7.57397E+01 3.31342E+01 0.00000E+00
 -1      2209 7.20127E+01 3.25814E+01 0.00000E+00
 -1      2210 7.03417E+01 3.17163E+01 0.00000E+00
 -1      2211 6.88441E+01 3.06205E+01 0.00000E+00
 -1      2212 6.76082E+01 2.91906E+01 0.00000E+00
 -1      2213 6.66351E+01 2.74842E+01 0.00000E+00
 -1      2214 6.59313E+01 2.55237E+01 0.00000E+00
 -1      2215 6.56841E+01 2.34843E+01 0.00000E+00
 -1      2216 6.57959E+01 2.15405E+01 0.00000E+00
 -1      2217 6.64959E+01 1.95554E+01 0.00000E+00
 -1      2218 6.77630E+01 1.77650E+01 0.00000E+00
 -1      2219 6.92083E+01 1.63361E+01 0.00000E+00
 -1      2220 7.26864E+01 1.42199E+01 0.00000E+00
 -1      2221 7.68032E+01 1.40868E+01 0.00000E+00
 -1      2222 7.74835E+01 1.36583E+01 0.00000E+00
 -1      2223 7.62641E+01 1.34089E+01 0.00000E+00
 -1      2224 7.07829E+01 1.50880E+01 0.00000E+00
 -1      2225 7.77275E+01 3.27428E+01 0.00000E+00
 -1      2226 1.07850E+01 5.30525E+00 0.00000E+00
 -1      2227 9.28500E+00 5.30525E+00 0.00000E+00
 -1      2228 6.49500E+00 3.01125E+01 0.00000E+00
 -1      2229 6.49500E+00 3.15875E+01 0.00000E+00
 -1      2230 6.49500E+00 3.30625E+01 0.00000E+00
 -1      2231 6.49500E+00 3.45375E+01 0.00000E+00
 -1      2232 7.79400E+00 3.23250E+01 0.00000E+00
 -1      2233 6.49500E+00 2.42125E+01 0.00000E+00
 -1      2234 6.49500E+00 2.56875E+01 0.00000E+00
 -1      2235 6.49500E+00 2.12625E+01 0.00000E+00
 -1      2236 6.49500E+00 2.27375E+01 0.00000E+00
 -1      2237 7.79400E+00 2.34750E+01 0.00000E+00
 -1      2238 6.49500E+00 1.83625E+01 0.00000E+00
 -1      2239 6.49500E+00 1.98125E+01 0.00000E+00
 -1      2240 7.79400E+00 2.05500E+01 0.00000E+00
 -1      2241 6.49500E+00 1.54125E+01 0.00000E+00
 -1      2242 6.49500E+00 1.68875E+01 0.00000E+00
 -1      2243 7.79400E+00 1.76250E+01 0.00000E+00
 -1      2244 6.49500E+00 1.24625E+01 0.00000E+00
 -1      2245 6.49500E+00 1.39375E+01 0.00000E+00
 -1      2246 7.79400E+00 1.46750E+01 0.00000E+00
 -1      2247 6.49500E+00 9.51250E+00 0.00000E+00
 -1      2248 6.49500E+00 1.09875E+01 0.00000E+00
 -1      2249 7.79400E+00 1.17250E+01 0.00000E+00
 -1      2250 1.37850E+01 5.30525E+00 0.00000E+00
 -1      2251 1.22850E+01 5.30525E+00 0.00000E+00
 -1      2252 1.15350E+01 6.60425E+00 0.00000E+00
 -1      2253 9.90000E+00 4.35050E+01 0.00000E+00
 -1      2254 1.14000E+01 4.35050E+01 0.00000E+00
 -1      2255 7.88492E+01 1.37955E+01 0.00000E+00
 -1      2256 7.98788E+01 1.42216E+01 0.00000E+00
 -1      2257 1.29000E+01 4.35050E+01 0.00000E+00
 -1      2258 1.44000E+01 4.35050E+01 0.00000E+00
 -1      2259 1.21500E+01 4.22060E+01 0.00000E+00
 -1      2260 1.59000E+01 4.35050E+01 0.00000E+00
 -1      2261 1.74000E+01 4.35050E+01 0.00000E+00
 -1      2262 1.51500E+01 4.22060E+01 0.00000E+00
 -1      2263 1.89000E+01 4.35050E+01 0.00000E+00
 -1      2264 2.04000E+01 4.35050E+01 0.00000E+00
 -1      2265 1.81500E+01 4.22060E+01 0.00000E+00
 -1      2266 2.19000E+01 4.35050E+01 0.00000E+00
 -1      2267 2.34000E+01 4.35050E+01 0.00000E+00
 -1      2268 2.11500E+01 4.22060E+01 0.00000E+00
 -1      2269 2.49000E+01 4.35050E+01 0.00000E+00
 -1      2270 2.64000E+01 4.35050E+01 0.00000E+00
 -1      2271 2.41500E+01 4.22060E+01 0.00000E+00
 -1      2272 2.79000E+01 4.35050E+01 0.00000E+00
 -1      2273 2.94000E+01 4.35050E+01 0.00000E+00
 -1      2274 2.71500E+01 4.22060E+01 0.00000E+00
 -1      2275 3.09000E+01 4.35050E+01 0.00000E+00
 -1      2276 3.24000E+01 4.35050E+01 0.00000E+00
 -1      2277 3.01500E+01 4.22060E+01 0.00000E+00
 -1      2278 3.39000E+01 4.35050E+01 0.00000E+00
 -1      2279 3.54000E+01 4.35050E+01 0.00000E+00
 -1      2280 3.31500E+01 4.22060E+01 0.00000E+00
 -1      2281 3.69000E+01 4.35050E+01 0.00000E+00
 -1      2282 3.84000E+01 4.35050E+01 0.00000E+00
 -1      2283 3.61500E+01 4.22060E+01 0.00000E+00
 -1      2284 3.99000E+01 4.35050E+01 0.00000E+00
 -1      2285 4.14000E+01 4.35050E+01 0.00000E+00
 -1      2286 3.91500E+01 4.22060E+01 0.00000E+00
 -1      2287 4.29000E+01 4.35050E+01 0.00000E+00
 -1      2288 4.44000E+01 4.35050E+01 0.00000E+00
 -1      2289 4.21500E+01 4.22060E+01 0.00000E+00
 -1      2290 4.59000E+01 4.35050E+01 0.00000E+00
 -1      2291 4.74000E+01 4.35050E+01 0.00000E+00
 -1      2292 4.51500E+01 4.22060E+01 0.00000E+00
 -1      2293 4.89000E+01 4.35050E+01 0.00000E+00
 -1      2294 5.04000E+01 4.35050E+01 0.00000E+00
 -1      2295 4.81500E+01 4.22060E+01 0.00000E+00
 -1      2296 5.19000E+01 4.35050E+01 0.00000E+00
 -1      2297 5.34000E+01 4.35050E+01 0.00000E+00
 -1      2298 5.11500E+01 4.22060E+01 0.00000E+00
 -1      2299 5.49000E+01 4.35050E+01 0.00000E+00
 -1      2300 5.64000E+01 4.35050E+01 0.00000E+00
 -1      2301 5.41500E+01 4.22060E+01 0.00000E+00
 -1      2302 5.79000E+01 4.35050E+01 0.00000E+00
 -1      2303 5.94000E+01 4.35050E+01 0.00000E+00
 -1      2304 5.71500E+01 4.22060E+01 0.00000E+00
 -1      2305 6.09000E+01 4.35050E+01 0.00000E+00
 -1      2306 6.24000E+01 4.35050E+01 0.00000E+00
 -1      2307 6.01500E+01 4.22060E+01 0.00000E+00
 -1      2308 6.39000E+01 4.35050E+01 0.00000E+00
 -1      2309 6.54000E+01 4.35050E+01 0.00000E+00
 -1      2310 6.31500E+01 4.22060E+01 0.00000E+00
 -1      2311 6.69000E+01 4.35050E+01 0.00000E+00
 -1      2312 6.84000E+01 4.35050E+01 0.00000E+00
 -1      2313 6.61500E+01 4.22060E+01 0.00000E+00
 -1      2314 6.99000E+01 4.35050E+01 0.00000E+00
 -1      2315 7.14000E+01 4.35050E+01 0.00000E+00
 -1      2316 6.91500E+01 4.22060E+01 0.00000E+00
 -1      2317 7.29000E+01 4.35050E+01 0.00000E+00
 -1      2318 7.44000E+01 4.35050E+01 0.00000E+00
 -1      2319 7.21500E+01 4.22060E+01 0.00000E+00
 -1      2320 7.59000E+01 4.35050E+01 0.00000E+00
 -1      2321 7.74000E+01 4.35050E+01 0.00000E+00
 -1      2322 7.51500E+01 4.22060E+01 0.00000E+00
 -1      2323 7.89000E+01 4.35050E+01 0.00000E+00
 -1      2324 8.04000E+01 4.35050E+01 0.00000E+00
 -1      2325 7.81500E+01 4.22060E+01 0.00000E+00
 -1      2326 8.19000E+01 4.35050E+01 0.00000E+00
 -1      2327 8.34000E+01 4.35050E+01 0.00000E+00
 -1      2328 8.11500E+01 4.22060E+01 0.00000E+00
 -1      2329 8.49000E+01 4.35050E+01 0.00000E+00
 -1      2330 8.64000E+01 4.35050E+01 0.00000E+00
 -1      2331 8.41500E+01 4.22060E+01 0.00000E+00
 -1      2332 8.79000E+01 4.35050E+01 0.00000E+00
 -1      2333 8.94000E+01 4.35050E+01 0.00000E+00
 -1      2334 8.71500E+01 4.22060E+01 0.00000E+00
 -1      2335 9.09000E+01 4.35050E+01 0.00000E+00
 -1      2336 9.24000E+01 4.35050E+01 0.00000E+00
 -1      2337 9.01500E+01 4.22060E+01 0.00000E+00
 -1      2338 9.39000E+01 4.35050E+01 0.00000E+00
 -1      2339 9.54000E+01 4.35050E+01 0.00000E+00
 -1      2340 9.31500E+01 4.22060E+01 0.00000E+00
 -1      2341 9.69000E+01 4.35050E+01 0.00000E+00
 -1      2342 9.84000E+01 4.35050E+01 0.00000E+00
 -1      2343 9.61500E+01 4.22060E+01 0.00000E+00
 -1      2344 9.99000E+01 4.35050E+01 0.00000E+00
 -1      2345 1.01400E+02 4.35050E+01 0.00000E+00
 -1      2346 9.91500E+01 4.22060E+01 0.00000E+00
 -1      2347 1.02900E+02 4.35050E+01 0.00000E+00
 -1      2348 1.04400E+02 4.35050E+01 0.00000E+00
 -1      2349 1.02150E+02 4.22060E+01 0.00000E+00
 -1      2350 1.05900E+02 4.35050E+01 0.00000E+00
 -1      2351 1.07400E+02 4.35050E+01 0.00000E+00
 -1      2352 1.05150E+02 4.22060E+01 0.00000E+00
 -1      2353 1.08900E+02 4.35050E+01 0.00000E+00
 -1      2354 1.10400E+02 4.35050E+01 0.00000E+00
 -1      2355 1.08150E+02 4.22060E+01 0.00000E+00
 -1      2356 1.11900E+02 4.35050E+01 0.00000E+00
 -1      2357 1.13400E+02 4.35050E+01 0.00000E+00
 -1      2358 1.11150E+02 4.22060E+01 0.00000E+00
 -1      2359 1.14900E+02 4.35050E+01 0.00000E+00
 -1      2360 1.16400E+02 4.35050E+01 0.00000E+00
 -1      2361 1.14150E+02 4.22060E+01 0.00000E+00
 -1      2362 1.17900E+02 4.35050E+01 0.00000E+00
 -1      2363 1.19400E+02 4.35050E+01 0.00000E+00
 -1      2364 1.17150E+02 4.22060E+01 0.00000E+00
 -1      2365 1.20900E+02 4.35050E+01 0.00000E+00
 -1      2366 1.22400E+02 4.35050E+01 0.00000E+00
 -1      2367 1.20150E+02 4.22060E+01 0.00000E+00
 -1      2368 1.23900E+02 4.35050E+01 0.00000E+00
 -1      2369 1.25400E+02 4.35050E+01 0.00000E+00
 -1      2370 1.23150E+02 4.22060E+01 0.00000E+00
 -1      2371 1.26900E+02 4.35050E+01 0.00000E+00
 -1      2372 1.28400E+02 4.35050E+01 0.00000E+00
 -1      2373 1.26150E+02 4.22060E+01 0.00000E+00
 -1      2374 1.29900E+02 4.35050E+01 0.00000E+00
 -1      2375 1.31400E+02 4.35050E+01 0.00000E+00
 -1      2376 1.29150E+02 4.22060E+01 0.00000E+00
 -1      2377 1.32900E+02 4.35050E+01 0.00000E+00
 -1      2378 1.34400E+02 4.35050E+01 0.00000E+00
 -1      2379 1.32150E+02 4.22060E+01 0.00000E+00
 -1      2380 1.35900E+02 4.35050E+01 0.00000E+00
 -1      2381 1.37400E+02 4.35050E+01 0.00000E+00
 -1      2382 1.35150E+02 4.22060E+01 0.00000E+00
 -1      2383 1.38900E+02 4.35050E+01 0.00000E+00
 -1      2384 1.40400E+02 4.35050E+01 0.00000E+00
 -1      2385 1.38150E+02 4.22060E+01 0.00000E+00
 -1      2386 1.97850E+01 5.30525E+00 0.00000E+00
 -1      2387 1.82850E+01 5.30525E+00 0.00000E+00
 -1      2388 2.27850E+01 5.30525E+00 0.00000E+00
 -1      2389 2.12850E+01 5.30525E+00 0.00000E+00
 -1      2390 2.05350E+01 6.60425E+00 0.00000E+00
 -1      2391 2.57850E+01 5.30525E+00 0.00000E+00
 -1      2392 2.42850E+01 5.30525E+00 0.00000E+00
 -1      2393 2.35350E+01 6.60425E+00 0.00000E+00
 -1      2394 2.87850E+01 5.30525E+00 0.00000E+00
 -1      2395 2.72850E+01 5.30525E+00 0.00000E+00
 -1      2396 2.65350E+01 6.60425E+00 0.00000E+00
 -1      2397 3.17850E+01 5.30525E+00 0.00000E+00
 -1      2398 3.02850E+01 5.30525E+00 0.00000E+00
 -1      2399 2.95350E+01 6.60425E+00 0.00000E+00
 -1      2400 3.47850E+01 5.30525E+00 0.00000E+00
 -1      2401 3.32850E+01 5.30525E+00 0.00000E+00
 -1      2402 3.25350E+01 6.60425E+00 0.00000E+00
 -1      2403 3.77850E+01 5.30525E+00 0.00000E+00
 -1      2404 3.62850E+01 5.30525E+00 0.00000E+00
 -1      2405 3.55350E+01 6.60425E+00 0.00000E+00
 -1      2406 4.07850E+01 5.30525E+00 0.00000E+00
 -1      2407 3.92850E+01 5.30525E+00 0.00000E+00
 -1      2408 3.85350E+01 6.60425E+00 0.00000E+00
 -1      2409 4.37850E+01 5.30525E+00 0.00000E+00
 -1      2410 4.22850E+01 5.30525E+00 0.00000E+00
 -1      2411 4.15350E+01 6.60425E+00 0.00000E+00
 -1      2412 4.67850E+01 5.30525E+00 0.00000E+00
 -1      2413 4.52850E+01 5.30525E+00 0.00000E+00
 -1      2414 4.45350E+01 6.60425E+00 0.00000E+00
 -1      2415 4.97850E+01 5.30525E+00 0.00000E+00
 -1      2416 4.82850E+01 5.30525E+00 0.00000E+00
 -1      2417 4.75350E+01 6.60425E+00 0.00000E+00
 -1      2418 5.27850E+01 5.30525E+00 0.00000E+00
 -1      2419 5.12850E+01 5.30525E+00 0.00000E+00
 -1      2420 5.05350E+01 6.60425E+00 0.00000E+00
 -1      2421 5.57850E+01 5.30525E+00 0.00000E+00
 -1      2422 5.42850E+01 5.30525E+00 0.00000E+00
 -1      2423 5.35350E+01 6.60425E+00 0.00000E+00
 -1      2424 5.87850E+01 5.30525E+00 0.00000E+00
 -1      2425 5.72850E+01 5.30525E+00 0.00000E+00
 -1      2426 5.65350E+01 6.60425E+00 0.00000E+00
 -1      2427 6.17850E+01 5.30525E+00 0.00000E+00
 -1      2428 6.02850E+01 5.30525E+00 0.00000E+00
 -1      2429 5.95350E+01 6.60425E+00 0.00000E+00
 -1      2430 6.47850E+01 5.30525E+00 0.00000E+00
 -1      2431 6.32850E+01 5.30525E+00 0.00000E+00
 -1      2432 6.25350E+01 6.60425E+00 0.00000E+00
 -1      2433 6.77850E+01 5.30525E+00 0.00000E+00
 -1      2434 6.62850E+01 5.30525E+00 0.00000E+00
 -1      2435 6.55350E+01 6.60425E+00 0.00000E+00
 -1      2436 7.07850E+01 5.30525E+00 0.00000E+00
 -1      2437 6.92850E+01 5.30525E+00 0.00000E+00
 -1      2438 6.85350E+01 6.60425E+00 0.00000E+00
 -1      2439 7.37850E+01 5.30525E+00 0.00000E+00
 -1      2440 7.22850E+01 5.30525E+00 0.00000E+00
 -1      2441 7.15350E+01 6.60425E+00 0.00000E+00
 -1      2442 7.67850E+01 5.30525E+00 0.00000E+00
 -1      2443 7.52850E+01 5.30525E+00 0.00000E+00
 -1      2444 7.45350E+01 6.60425E+00 0.00000E+00
 -1      2445 7.97850E+01 5.30525E+00 0.00000E+00
 -1      2446 7.82850E+01 5.30525E+00 0.00000E+00
 -1      2447 7.75350E+01 6.60425E+00 0.00000E+00
 -1      2448 8.27850E+01 5.30525E+00 0.00000E+00
 -1      2449 8.12850E+01 5.30525E+00 0.00000E+00
 -1      2450 8.05350E+01 6.60425E+00 0.00000E+00
 -1      2451 8.57850E+01 5.30525E+00 0.00000E+00
 -1      2452 8.42850E+01 5.30525E+00 0.00000E+00
 -1      2453 8.35350E+01 6.60425E+00 0.00000E+00
 -1      2454 8.87850E+01 5.30525E+00 0.00000E+00
 -1      2455 8.72850E+01 5.30525E+00 0.00000E+00
 -1      2456 8.65350E+01 6.60425E+00 0.00000E+00
 -1      2457 9.17850E+01 5.30525E+00 0.00000E+00
 -1      2458 9.02850E+01 5.30525E+00 0.00000E+00
 -1      2459 8.95350E+01 6.60425E+00 0.00000E+00
 -1      2460 9.47850E+01 5.30525E+00 0.00000E+00
 -1      2461 9.32850E+01 5.30525E+00 0.00000E+00
 -1      2462 9.25350E+01 6.60425E+00 0.00000E+00
 -1      2463 9.77850E+01 5.30525E+00 0.00000E+00
 -1      2464 9.62850E+01 5.30525E+00 0.00000E+00
 -1      2465 9.55350E+01 6.60425E+00 0.00000E+00
 -1      2466 1.00785E+02 5.30525E+00 0.00000E+00
 -1      2467 9.92850E+01 5.30525E+00 0.00000E+00
 -1      2468 9.85350E+01 6.60425E+00 0.00000E+00
 -1      2469 1.03785E+02 5.30525E+00 0.00000E+00
 -1      2470 1.02285E+02 5.30525E+00 0.00000E+00
 -1      2471 1.01535E+02 6.60425E+00 0.00000E+00
 -1      2472 1.06785E+02 5.30525E+00 0.00000E+00
 -1      2473 1.05285E+02 5.30525E+00 0.00000E+00
 -1      2474 1.04535E+02 6.60425E+00 0.00000E+00
 -1      2475 1.09785E+02 5.30525E+00 0.00000E+00
 -1      2476 1.08285E+02 5.30525E+00 0.00000E+00
 -1      2477 1.07535E+02 6.60425E+00 0.00000E+00
 -1      2478 1.12785E+02 5.30525E+00 0.00000E+00
 -1      2479 1.11285E+02 5.30525E+00 0.00000E+00
 -1      2480 1.10535E+02 6.60425E+00 0.00000E+00
 -1      2481 1.15785E+02 5.30525E+00 0.00000E+00
 -1      2482 1.14285E+02 5.30525E+00 0.00000E+00
 -1      2483 1.13535E+02 6.60425E+00 0.00000E+00
 -1      2484 1.18785E+02 5.30525E+00 0.00000E+00
 -1      2485 1.17285E+02 5.30525E+00 0.00000E+00
 -1      2486 1.16535E+02 6.60425E+00 0.00000E+00
 -1      2487 1.21785E+02 5.30525E+00 0.00000E+00
 -1      2488 1.20285E+02 5.30525E+00 0.00000E+00
 -1      2489 1.19535E+02 6.60425E+00 0.00000E+00
 -1      2490 1.24785E+02 5.30525E+00 0.00000E+00
 -1      2491 1.23285E+02 5.30525E+00 0.00000E+00
 -1      2492 1.22535E+02 6.60425E+00 0.00000E+00
 -1      2493 1.27785E+02 5.30525E+00 0.00000E+00
 -1      2494 1.26285E+02 5.30525E+00 0.00000E+00
 -1      2495 1.25535E+02 6.60425E+00 0.00000E+00
 -1      2496 1.30785E+02 5.30525E+00 0.00000E+00
 -1      2497 1.29285E+02 5.30525E+00 0.00000E+00
 -1      2498 1.28535E+02 6.60425E+00 0.00000E+00
 -1      2499 1.33785E+02 5.30525E+00 0.00000E+00
 -1      2500 1.32285E+02 5.30525E+00 0.00000E+00
 -1      2501 1.31535E+02 6.60425E+00 0.00000E+00
 -1      2502 1.36785E+02 5.30525E+00 0.00000E+00
 -1      2503 1.35285E+02 5.30525E+00 0.00000E+00
 -1      2504 1.34535E+02 6.60425E+00 0.00000E+00
 -1      2505 1.39785E+02 5.30525E+00 0.00000E+00
 -1      2506 1.38285E+02 5.30525E+00 0.00000E+00
 -1      2507 1.37535E+02 6.60425E+00 0.00000E+00
 -1      2508 1.42785E+02 5.30525E+00 0.00000E+00
 -1      2509 1.41285E+02 5.30525E+00 0.00000E+00
 -1      2510 1.40535E+02 6.60425E+00 0.00000E+00
 -1      2511 1.44336E+02 5.26953E+00 0.00000E+00
 -1      2512 1.43505E+02 1.69125E+01 0.00000E+00
 -1      2513 1.43505E+02 1.54375E+01 0.00000E+00
 -1      2514 1.43505E+02 1.98625E+01 0.00000E+00
 -1      2515 1.43505E+02 1.83875E+01 0.00000E+00
 -1      2516 1.42206E+02 1.76500E+01 0.00000E+00
 -1      2517 1.43505E+02 1.10625E+01 0.00000E+00
 -1      2518 1.43505E+02 9.58750E+00 0.00000E+00
 -1      2519 1.43505E+02 1.39750E+01 0.00000E+00
 -1      2520 1.43505E+02 1.25250E+01 0.00000E+00
 -1      2521 1.42206E+02 1.17875E+01 0.00000E+00
 -1      2522 1.42206E+02 1.47125E+01 0.00000E+00
 -1      2523 1.43505E+02 2.28125E+01 0.00000E+00
 -1      2524 1.43505E+02 2.13375E+01 0.00000E+00
 -1      2525 1.42206E+02 2.06000E+01 0.00000E+00
 -1      2526 1.43505E+02 2.57625E+01 0.00000E+00
 -1      2527 1.43505E+02 2.42875E+01 0.00000E+00
 -1      2528 1.42206E+02 2.35500E+01 0.00000E+00
 -1      2529 1.43505E+02 2.87125E+01 0.00000E+00
 -1      2530 1.43505E+02 2.72375E+01 0.00000E+00
 -1      2531 1.42206E+02 2.65000E+01 0.00000E+00
 -1      2532 1.43505E+02 3.16125E+01 0.00000E+00
 -1      2533 1.43505E+02 3.01625E+01 0.00000E+00
 -1      2534 1.42206E+02 2.94250E+01 0.00000E+00
 -1      2535 1.43505E+02 3.45625E+01 0.00000E+00
 -1      2536 1.43505E+02 3.30875E+01 0.00000E+00
 -1      2537 1.42206E+02 3.23500E+01 0.00000E+00
 -1      2538 1.43505E+02 3.75125E+01 0.00000E+00
 -1      2539 1.43505E+02 3.60375E+01 0.00000E+00
 -1      2540 1.42206E+02 3.53000E+01 0.00000E+00
 -1      2541 1.43505E+02 4.04625E+01 0.00000E+00
 -1      2542 1.43505E+02 3.89875E+01 0.00000E+00
 -1      2543 1.42206E+02 3.82500E+01 0.00000E+00
 -1      2544 8.54946E+01 2.20246E+01 0.00000E+00
 -1      2545 8.55676E+01 2.29222E+01 0.00000E+00
 -1      2546 8.51441E+01 1.98518E+01 0.00000E+00
 -1      2547 8.53941E+01 2.09022E+01 0.00000E+00
 -1      2548 8.55196E+01 2.40453E+01 0.00000E+00
 -1      2549 8.54339E+01 2.51260E+01 0.00000E+00
 -1      2550 1.67850E+01 5.30525E+00 0.00000E+00
 -1      2551 1.52850E+01 5.30525E+00 0.00000E+00
 -1      2552 1.75350E+01 6.60425E+00 0.00000E+00
 -1      2553 1.44321E+02 4.30606E+01 0.00000E+00
 -1      2554 8.40890E+01 1.80048E+01 0.00000E+00
 -1      2555 8.45421E+01 1.87680E+01 0.00000E+00
 -1      2556 8.25389E+01 1.61373E+01 0.00000E+00
 -1      2557 8.33602E+01 1.70452E+01 0.00000E+00
 -1      2558 6.55950E+00 4.28890E+01 0.00000E+00
 -1      2559 8.53650E+00 4.32410E+01 0.00000E+00
 -1      2560 9.28650E+00 4.19420E+01 0.00000E+00
 -1      2561 6.55950E+00 4.14140E+01 0.00000E+00
 -1      2562 8.50470E+01 2.62934E+01 0.00000E+00
 -1      2563 8.47013E+01 2.71708E+01 0.00000E+00
 -1      2564 7.21282E+01 3.34825E+01 0.00000E+00
 -1      2565 7.12607E+01 3.30909E+01 0.00000E+00
 -1      2566 6.49500E+00 2.71625E+01 0.00000E+00
 -1      2567 6.49500E+00 2.86375E+01 0.00000E+00
 -1      2568 7.79400E+00 2.93750E+01 0.00000E+00
 -1      2569 7.79400E+00 2.64250E+01 0.00000E+00
 -1      2570 6.98244E+01 1.46321E+01 0.00000E+00
 -1      2571 7.06071E+01 1.40412E+01 0.00000E+00
 -1      2572 7.42032E+01 1.31021E+01 0.00000E+00
 -1      2573 7.50915E+01 1.30495E+01 0.00000E+00
 -1      2574 7.84250E+01 3.32938E+01 0.00000E+00
 -1      2575 7.76147E+01 3.36245E+01 0.00000E+00
 -1      2576 7.19000E+01 1.34447E+01 0.00000E+00
 -1      2577 7.30208E+01 1.31674E+01 0.00000E+00
 -1      2578 6.82406E+01 1.59466E+01 0.00000E+00
 -1      2579 6.90325E+01 1.52894E+01 0.00000E+00
 -1      2580 6.88567E+01 1.42426E+01 0.00000E+00
 -1      2581 6.68778E+01 1.76778E+01 0.00000E+00
 -1      2582 6.75311E+01 1.69062E+01 0.00000E+00
 -1      2583 6.55263E+01 1.96656E+01 0.00000E+00
 -1      2584 6.61400E+01 1.86468E+01 0.00000E+00
 -1      2585 6.50237E+01 2.19585E+01 0.00000E+00
 -1      2586 6.51101E+01 2.09922E+01 0.00000E+00
 -1      2587 6.48142E+01 2.39508E+01 0.00000E+00
 -1      2588 6.48396E+01 2.29733E+01 0.00000E+00
 -1      2589 6.52775E+01 2.62574E+01 0.00000E+00
 -1      2590 6.50050E+01 2.51956E+01 0.00000E+00
 -1      2591 6.60775E+01 2.83045E+01 0.00000E+00
 -1      2592 6.56463E+01 2.74058E+01 0.00000E+00
 -1      2593 6.71670E+01 3.00722E+01 0.00000E+00
 -1      2594 6.66251E+01 2.92645E+01 0.00000E+00
 -1      2595 6.86188E+01 3.15702E+01 0.00000E+00
 -1      2596 6.79247E+01 3.09479E+01 0.00000E+00
 -1      2597 7.03081E+01 3.26919E+01 0.00000E+00
 -1      2598 6.95046E+01 3.22183E+01 0.00000E+00
 -1      2599 7.40459E+01 3.38650E+01 0.00000E+00
 -1      2600 7.32050E+01 3.37541E+01 0.00000E+00
 -1      2601 7.63704E+01 3.39184E+01 0.00000E+00
 -1      2602 7.51929E+01 3.39791E+01 0.00000E+00
 -1      2603 8.02546E+01 3.24581E+01 0.00000E+00
 -1      2604 7.93398E+01 3.28760E+01 0.00000E+00
 -1      2605 7.92270E+01 3.37577E+01 0.00000E+00
 -1      2606 8.18737E+01 3.13761E+01 0.00000E+00
 -1      2607 8.11883E+01 3.19151E+01 0.00000E+00
 -1      2608 8.33188E+01 2.99605E+01 0.00000E+00
 -1      2609 8.26693E+01 3.06827E+01 0.00000E+00
 -1      2610 8.44411E+01 2.81647E+01 0.00000E+00
 -1      2611 8.40164E+01 2.90134E+01 0.00000E+00
 -1      2612 8.09363E+01 1.47356E+01 0.00000E+00
 -1      2613 8.16726E+01 1.52427E+01 0.00000E+00
 -1      2614 8.07525E+00 5.11044E+00 0.00000E+00
 -1      2615 6.57525E+00 5.11044E+00 0.00000E+00
 -1      2616 6.40575E+00 6.01981E+00 0.00000E+00
 -1      2617 8.82525E+00 6.40944E+00 0.00000E+00
 -1      2618 7.09415E+01 1.29888E+01 0.00000E+00
 -1      2619 7.79400E+00 3.52687E+01 0.00000E+00
 -1      2620 6.49500E+00 3.60062E+01 0.00000E+00
 -1      2621 6.49500E+00 3.74750E+01 0.00000E+00
 -1      2622 1.45350E+01 6.60425E+00 0.00000E+00
 -1      2623 6.40575E+00 7.49481E+00 0.00000E+00
 -1      2624 8.52559E+01 2.79789E+01 0.00000E+00
 -1      2625 8.42981E+01 2.99199E+01 0.00000E+00
 -1      2626 8.59030E+01 2.58176E+01 0.00000E+00
 -1      2627 8.07334E+01 1.37689E+01 0.00000E+00
 -1      2628 8.10756E+01 3.27968E+01 0.00000E+00
 -1      2629 7.70679E+01 3.44694E+01 0.00000E+00
 -1      2630 8.55829E+01 1.90752E+01 0.00000E+00
 -1      2631 7.46767E+01 3.46492E+01 0.00000E+00
 -1      2632 1.43586E+02 6.56853E+00 0.00000E+00
 -1      2633 1.43419E+02 7.72713E+00 0.00000E+00
 -1      2634 7.04235E+01 3.35929E+01 0.00000E+00
 -1      2635 8.63378E+01 2.35270E+01 0.00000E+00
 -1      2636 8.62853E+01 2.12815E+01 0.00000E+00
 -1      2637 6.85851E+01 3.25457E+01 0.00000E+00
 -1      2638 7.70475E+00 8.23231E+00 0.00000E+00
 -1      2639 8.26571E+01 1.51775E+01 0.00000E+00
 -1      2640 6.69416E+01 3.10219E+01 0.00000E+00
 -1      2641 8.42521E+01 1.70318E+01 0.00000E+00
 -1      2642 7.24529E+01 3.42635E+01 0.00000E+00
 -1      2643 6.56363E+01 2.91861E+01 0.00000E+00
 -1      2644 6.47200E+01 2.70777E+01 0.00000E+00
 -1      2645 6.41604E+01 2.46845E+01 0.00000E+00
 -1      2646 6.41538E+01 2.24250E+01 0.00000E+00
 -1      2647 6.47541E+01 2.00836E+01 0.00000E+00
 -1      2648 6.43982E+01 1.91749E+01 0.00000E+00
 -1      2649 6.39820E+01 2.05015E+01 0.00000E+00
 -1      2650 6.73553E+01 1.58595E+01 0.00000E+00
 -1      2651 6.55950E+00 3.99453E+01 0.00000E+00
 -1      2652 7.83102E+01 1.31176E+01 0.00000E+00
 -1      2653 7.91368E+01 1.25770E+01 0.00000E+00
 -1      2654 7.77711E+01 1.24397E+01 0.00000E+00
 -1      2655 7.57718E+01 1.26209E+01 0.00000E+00
 -1      2656 7.34167E+01 1.23269E+01 0.00000E+00
 -1      2657 6.59081E+01 1.77880E+01 0.00000E+00
 -1      2658 1.42758E+02 4.35929E+01 0.00000E+00
 -1      2659 1.43241E+02 4.17323E+01 0.00000E+00
 -1      2660 1.41942E+02 4.09948E+01 0.00000E+00
 -1      2661 1.41414E+02 4.35342E+01 0.00000E+00
 -1      2662 8.28049E+01 3.15604E+01 0.00000E+00
 -1      2663 1.42120E+02 8.46463E+00 0.00000E+00
 -1      2664 1.40664E+02 4.22352E+01 0.00000E+00
 -1      2665 9.09300E+00 1.98250E+01 0.00000E+00
 -1      2666 9.09300E+00 2.12750E+01 0.00000E+00
 -1      2667 9.09300E+00 2.27500E+01 0.00000E+00
 -1      2668 9.09300E+00 2.42250E+01 0.00000E+00
 -1      2669 1.03920E+01 2.20250E+01 0.00000E+00
 -1      2670 9.09300E+00 1.39375E+01 0.00000E+00
 -1      2671 9.09300E+00 1.54125E+01 0.00000E+00
 -1      2672 9.09300E+00 1.09875E+01 0.00000E+00
 -1      2673 9.09300E+00 1.24625E+01 0.00000E+00
 -1      2674 1.03920E+01 1.32000E+01 0.00000E+00
 -1      2675 1.22850E+01 7.90325E+00 0.00000E+00
 -1      2676 1.07850E+01 7.90325E+00 0.00000E+00
 -1      2677 8.29003E+01 1.40754E+01 0.00000E+00
 -1      2678 8.37665E+01 1.49700E+01 0.00000E+00
 -1      2679 1.52850E+01 7.90325E+00 0.00000E+00
 -1      2680 1.37850E+01 7.90325E+00 0.00000E+00
 -1      2681 1.30350E+01 9.20225E+00 0.00000E+00
 -1      2682 1.44000E+01 4.09070E+01 0.00000E+00
 -1      2683 1.59000E+01 4.09070E+01 0.00000E+00
 -1      2684 1.74000E+01 4.09070E+01 0.00000E+00
 -1      2685 1.89000E+01 4.09070E+01 0.00000E+00
 -1      2686 1.66500E+01 3.96080E+01 0.00000E+00
 -1      2687 2.04000E+01 4.09070E+01 0.00000E+00
 -1      2688 2.19000E+01 4.09070E+01 0.00000E+00
 -1      2689 1.96500E+01 3.96080E+01 0.00000E+00
 -1      2690 2.34000E+01 4.09070E+01 0.00000E+00
 -1      2691 2.49000E+01 4.09070E+01 0.00000E+00
 -1      2692 2.26500E+01 3.96080E+01 0.00000E+00
 -1      2693 2.64000E+01 4.09070E+01 0.00000E+00
 -1      2694 2.79000E+01 4.09070E+01 0.00000E+00
 -1      2695 2.56500E+01 3.96080E+01 0.00000E+00
 -1      2696 2.94000E+01 4.09070E+01 0.00000E+00
 -1      2697 3.09000E+01 4.09070E+01 0.00000E+00
 -1      2698 2.86500E+01 3.96080E+01 0.00000E+00
 -1      2699 3.24000E+01 4.09070E+01 0.00000E+00
 -1      2700 3.39000E+01 4.09070E+01 0.00000E+00
 -1      2701 3.16500E+01 3.96080E+01 0.00000E+00
 -1      2702 3.54000E+01 4.09070E+01 0.00000E+00
 -1      2703 3.69000E+01 4.09070E+01 0.00000E+00
 -1      2704 3.46500E+01 3.96080E+01 0.00000E+00
 -1      2705 3.84000E+01 4.09070E+01 0.00000E+00
 -1      2706 3.99000E+01 4.09070E+01 0.00000E+00
 -1      2707 3.76500E+01 3.96080E+01 0.00000E+00
 -1      2708 4.14000E+01 4.09070E+01 0.00000E+00
 -1      2709 4.29000E+01 4.09070E+01 0.00000E+00
 -1      2710 4.06500E+01 3.96080E+01 0.00000E+00
 -1      2711 4.44000E+01 4.09070E+01 0.00000E+00
 -1      2712 4.59000E+01 4.09070E+01 0.00000E+00
 -1      2713 4.36500E+01 3.96080E+01 0.00000E+00
 -1      2714 4.74000E+01 4.09070E+01 0.00000E+00
 -1      2715 4.89000E+01 4.09070E+01 0.00000E+00
 -1      2716 4.66500E+01 3.96080E+01 0.00000E+00
 -1      2717 5.04000E+01 4.09070E+01 0.00000E+00
 -1      2718 5.19000E+01 4.09070E+01 0.00000E+00
 -1      2719 4.96500E+01 3.96080E+01 0.00000E+00
 -1      2720 5.34000E+01 4.09070E+01 0.00000E+00
 -1      2721 5.49000E+01 4.09070E+01 0.00000E+00
 -1      2722 5.26500E+01 3.96080E+01 0.00000E+00
 -1      2723 5.64000E+01 4.09070E+01 0.00000E+00
 -1      2724 5.79000E+01 4.09070E+01 0.00000E+00
 -1      2725 5.56500E+01 3.96080E+01 0.00000E+00
 -1      2726 5.94000E+01 4.09070E+01 0.00000E+00
 -1      2727 6.09000E+01 4.09070E+01 0.00000E+00
 -1      2728 5.86500E+01 3.96080E+01 0.00000E+00
 -1      2729 6.24000E+01 4.09070E+01 0.00000E+00
 -1      2730 6.39000E+01 4.09070E+01 0.00000E+00
 -1      2731 6.16500E+01 3.96080E+01 0.00000E+00
 -1      2732 6.54000E+01 4.09070E+01 0.00000E+00
 -1      2733 6.69000E+01 4.09070E+01 0.00000E+00
 -1      2734 6.46500E+01 3.96080E+01 0.00000E+00
 -1      2735 6.84000E+01 4.09070E+01 0.00000E+00
 -1      2736 6.99000E+01 4.09070E+01 0.00000E+00
 -1      2737 6.76500E+01 3.96080E+01 0.00000E+00
 -1      2738 7.14000E+01 4.09070E+01 0.00000E+00
 -1      2739 7.29000E+01 4.09070E+01 0.00000E+00
 -1      2740 7.06500E+01 3.96080E+01 0.00000E+00
 -1      2741 7.44000E+01 4.09070E+01 0.00000E+00
 -1      2742 7.59000E+01 4.09070E+01 0.00000E+00
 -1      2743 7.36500E+01 3.96080E+01 0.00000E+00
 -1      2744 7.74000E+01 4.09070E+01 0.00000E+00
 -1      2745 7.89000E+01 4.09070E+01 0.00000E+00
 -1      2746 7.66500E+01 3.96080E+01 0.00000E+00
 -1      2747 8.04000E+01 4.09070E+01 0.00000E+00
 -1      2748 8.19000E+01 4.09070E+01 0.00000E+00
 -1      2749 7.96500E+01 3.96080E+01 0.00000E+00
 -1      2750 8.34000E+01 4.09070E+01 0.00000E+00
 -1      2751 8.49000E+01 4.09070E+01 0.00000E+00
 -1      2752 8.26500E+01 3.96080E+01 0.00000E+00
 -1      2753 8.64000E+01 4.09070E+01 0.00000E+00
 -1      2754 8.79000E+01 4.09070E+01 0.00000E+00
 -1      2755 8.56500E+01 3.96080E+01 0.00000E+00
 -1      2756 8.94000E+01 4.09070E+01 0.00000E+00
 -1      2757 9.09000E+01 4.09070E+01 0.00000E+00
 -1      2758 8.86500E+01 3.96080E+01 0.00000E+00
 -1      2759 9.24000E+01 4.09070E+01 0.00000E+00
 -1      2760 9.39000E+01 4.09070E+01 0.00000E+00
 -1      2761 9.16500E+01 3.96080E+01 0.00000E+00
 -1      2762 9.54000E+01 4.09070E+01 0.00000E+00
 -1      2763 9.69000E+01 4.09070E+01 0.00000E+00
 -1      2764 9.46500E+01 3.96080E+01 0.00000E+00
 -1      2765 9.84000E+01 4.09070E+01 0.00000E+00
 -1      2766 9.99000E+01 4.09070E+01 0.00000E+00
 -1      2767 9.76500E+01 3.96080E+01 0.00000E+00
 -1      2768 1.01400E+02 4.09070E+01 0.00000E+00
 -1      2769 1.02900E+02 4.09070E+01 0.00000E+00
 -1      2770 1.00650E+02 3.96080E+01 0.00000E+00
 -1      2771 1.04400E+02 4.09070E+01 0.00000E+00
 -1      2772 1.05900E+02 4.09070E+01 0.00000E+00
 -1      2773 1.03650E+02 3.96080E+01 0.00000E+00
 -1      2774 1.07400E+02 4.09070E+01 0.00000E+00
 -1      2775 1.08900E+02 4.09070E+01 0.00000E+00
 -1      2776 1.06650E+02 3.96080E+01 0.00000E+00
 -1      2777 1.10400E+02 4.09070E+01 0.00000E+00
 -1      2778 1.11900E+02 4.09070E+01 0.00000E+00
 -1      2779 1.09650E+02 3.96080E+01 0.00000E+00
 -1      2780 1.13400E+02 4.09070E+01 0.00000E+00
 -1      2781 1.14900E+02 4.09070E+01 0.00000E+00
 -1      2782 1.12650E+02 3.96080E+01 0.00000E+00
 -1      2783 1.16400E+02 4.09070E+01 0.00000E+00
 -1      2784 1.17900E+02 4.09070E+01 0.00000E+00
 -1      2785 1.15650E+02 3.96080E+01 0.00000E+00
 -1      2786 1.19400E+02 4.09070E+01 0.00000E+00
 -1      2787 1.20900E+02 4.09070E+01 0.00000E+00
 -1      2788 1.18650E+02 3.96080E+01 0.00000E+00
 -1      2789 1.22400E+02 4.09070E+01 0.00000E+00
 -1      2790 1.23900E+02 4.09070E+01 0.00000E+00
 -1      2791 1.21650E+02 3.96080E+01 0.00000E+00
 -1      2792 1.25400E+02 4.09070E+01 0.00000E+00
 -1      2793 1.26900E+02 4.09070E+01 0.00000E+00
 -1      2794 1.24650E+02 3.96080E+01 0.00000E+00
 -1      2795 1.28400E+02 4.09070E+01 0.00000E+00
 -1      2796 1.29900E+02 4.09070E+01 0.00000E+00
 -1      2797 1.27650E+02 3.96080E+01 0.00000E+00
 -1      2798 1.31400E+02 4.09070E+01 0.00000E+00
 -1      2799 1.32900E+02 4.09070E+01 0.00000E+00
 -1      2800 1.30650E+02 3.96080E+01 0.00000E+00
 -1      2801 1.34400E+02 4.09070E+01 0.00000E+00
 -1      2802 1.35900E+02 4.09070E+01 0.00000E+00
 -1      2803 1.33650E+02 3.96080E+01 0.00000E+00
 -1      2804 1.37400E+02 4.09070E+01 0.00000E+00
 -1      2805 1.38900E+02 4.09070E+01 0.00000E+00
 -1      2806 1.36650E+02 3.96080E+01 0.00000E+00
 -1      2807 2.42850E+01 7.90325E+00 0.00000E+00
 -1      2808 2.27850E+01 7.90325E+00 0.00000E+00
 -1      2809 8.38762E+01 3.19866E+01 0.00000E+00
 -1      2810 8.30807E+01 3.26799E+01 0.00000E+00
 -1      2811 2.12850E+01 7.90325E+00 0.00000E+00
 -1      2812 1.97850E+01 7.90325E+00 0.00000E+00
 -1      2813 2.20350E+01 9.20225E+00 0.00000E+00
 -1      2814 3.02850E+01 7.90325E+00 0.00000E+00
 -1      2815 2.87850E+01 7.90325E+00 0.00000E+00
 -1      2816 3.32850E+01 7.90325E+00 0.00000E+00
 -1      2817 3.17850E+01 7.90325E+00 0.00000E+00
 -1      2818 3.10350E+01 9.20225E+00 0.00000E+00
 -1      2819 3.62850E+01 7.90325E+00 0.00000E+00
 -1      2820 3.47850E+01 7.90325E+00 0.00000E+00
 -1      2821 3.40350E+01 9.20225E+00 0.00000E+00
 -1      2822 3.92850E+01 7.90325E+00 0.00000E+00
 -1      2823 3.77850E+01 7.90325E+00 0.00000E+00
 -1      2824 3.70350E+01 9.20225E+00 0.00000E+00
 -1      2825 4.22850E+01 7.90325E+00 0.00000E+00
 -1      2826 4.07850E+01 7.90325E+00 0.00000E+00
 -1      2827 4.00350E+01 9.20225E+00 0.00000E+00
 -1      2828 4.52850E+01 7.90325E+00 0.00000E+00
 -1      2829 4.37850E+01 7.90325E+00 0.00000E+00
 -1      2830 4.30350E+01 9.20225E+00 0.00000E+00
 -1      2831 4.82850E+01 7.90325E+00 0.00000E+00
 -1      2832 4.67850E+01 7.90325E+00 0.00000E+00
 -1      2833 4.60350E+01 9.20225E+00 0.00000E+00
 -1      2834 5.12850E+01 7.90325E+00 0.00000E+00
 -1      2835 4.97850E+01 7.90325E+00 0.00000E+00
 -1      2836 4.90350E+01 9.20225E+00 0.00000E+00
 -1      2837 5.42850E+01 7.90325E+00 0.00000E+00
 -1      2838 5.27850E+01 7.90325E+00 0.00000E+00
 -1      2839 5.20350E+01 9.20225E+00 0.00000E+00
 -1      2840 5.72850E+01 7.90325E+00 0.00000E+00
 -1      2841 5.57850E+01 7.90325E+00 0.00000E+00
 -1      2842 5.50350E+01 9.20225E+00 0.00000E+00
 -1      2843 6.02850E+01 7.90325E+00 0.00000E+00
 -1      2844 5.87850E+01 7.90325E+00 0.00000E+00
 -1      2845 5.80350E+01 9.20225E+00 0.00000E+00
 -1      2846 6.32850E+01 7.90325E+00 0.00000E+00
 -1      2847 6.17850E+01 7.90325E+00 0.00000E+00
 -1      2848 6.10350E+01 9.20225E+00 0.00000E+00
 -1      2849 6.62850E+01 7.90325E+00 0.00000E+00
 -1      2850 6.47850E+01 7.90325E+00 0.00000E+00
 -1      2851 6.40350E+01 9.20225E+00 0.00000E+00
 -1      2852 6.92850E+01 7.90325E+00 0.00000E+00
 -1      2853 6.77850E+01 7.90325E+00 0.00000E+00
 -1      2854 6.70350E+01 9.20225E+00 0.00000E+00
 -1      2855 7.22850E+01 7.90325E+00 0.00000E+00
 -1      2856 7.07850E+01 7.90325E+00 0.00000E+00
 -1      2857 7.00350E+01 9.20225E+00 0.00000E+00
 -1      2858 7.52850E+01 7.90325E+00 0.00000E+00
 -1      2859 7.37850E+01 7.90325E+00 0.00000E+00
 -1      2860 7.30350E+01 9.20225E+00 0.00000E+00
 -1      2861 7.82850E+01 7.90325E+00 0.00000E+00
 -1      2862 7.67850E+01 7.90325E+00 0.00000E+00
 -1      2863 7.60350E+01 9.20225E+00 0.00000E+00
 -1      2864 8.12850E+01 7.90325E+00 0.00000E+00
 -1      2865 7.97850E+01 7.90325E+00 0.00000E+00
 -1      2866 7.90350E+01 9.20225E+00 0.00000E+00
 -1      2867 8.42850E+01 7.90325E+00 0.00000E+00
 -1      2868 8.27850E+01 7.90325E+00 0.00000E+00
 -1      2869 8.20350E+01 9.20225E+00 0.00000E+00
 -1      2870 8.72850E+01 7.90325E+00 0.00000E+00
 -1      2871 8.57850E+01 7.90325E+00 0.00000E+00
 -1      2872 8.50350E+01 9.20225E+00 0.00000E+00
 -1      2873 9.02850E+01 7.90325E+00 0.00000E+00
 -1      2874 8.87850E+01 7.90325E+00 0.00000E+00
 -1      2875 8.80350E+01 9.20225E+00 0.00000E+00
 -1      2876 9.32850E+01 7.90325E+00 0.00000E+00
 -1      2877 9.17850E+01 7.90325E+00 0.00000E+00
 -1      2878 9.10350E+01 9.20225E+00 0.00000E+00
 -1      2879 9.62850E+01 7.90325E+00 0.00000E+00
 -1      2880 9.47850E+01 7.90325E+00 0.00000E+00
 -1      2881 9.40350E+01 9.20225E+00 0.00000E+00
 -1      2882 9.92850E+01 7.90325E+00 0.00000E+00
 -1      2883 9.77850E+01 7.90325E+00 0.00000E+00
 -1      2884 9.70350E+01 9.20225E+00 0.00000E+00
 -1      2885 1.02285E+02 7.90325E+00 0.00000E+00
 -1      2886 1.00785E+02 7.90325E+00 0.00000E+00
 -1      2887 1.00035E+02 9.20225E+00 0.00000E+00
 -1      2888 1.05285E+02 7.90325E+00 0.00000E+00
 -1      2889 1.03785E+02 7.90325E+00 0.00000E+00
 -1      2890 1.03035E+02 9.20225E+00 0.00000E+00
 -1      2891 1.08285E+02 7.90325E+00 0.00000E+00
 -1      2892 1.06785E+02 7.90325E+00 0.00000E+00
 -1      2893 1.06035E+02 9.20225E+00 0.00000E+00
 -1      2894 1.11285E+02 7.90325E+00 0.00000E+00
 -1      2895 1.09785E+02 7.90325E+00 0.00000E+00
 -1      2896 1.09035E+02 9.20225E+00 0.00000E+00
 -1      2897 1.14285E+02 7.90325E+00 0.00000E+00
 -1      2898 1.12785E+02 7.90325E+00 0.00000E+00
 -1      2899 1.12035E+02 9.20225E+00 0.00000E+00
 -1      2900 1.17285E+02 7.90325E+00 0.00000E+00
 -1      2901 1.15785E+02 7.90325E+00 0.00000E+00
 -1      2902 1.15035E+02 9.20225E+00 0.00000E+00
 -1      2903 1.20285E+02 7.90325E+00 0.00000E+00
 -1      2904 1.18785E+02 7.90325E+00 0.00000E+00
 -1      2905 1.18035E+02 9.20225E+00 0.00000E+00
 -1      2906 1.23285E+02 7.90325E+00 0.00000E+00
 -1      2907 1.21785E+02 7.90325E+00 0.00000E+00
 -1      2908 1.21035E+02 9.20225E+00 0.00000E+00
 -1      2909 1.26285E+02 7.90325E+00 0.00000E+00
 -1      2910 1.24785E+02 7.90325E+00 0.00000E+00
 -1      2911 1.24035E+02 9.20225E+00 0.00000E+00
 -1      2912 1.29285E+02 7.90325E+00 0.00000E+00
 -1      2913 1.27785E+02 7.90325E+00 0.00000E+00
 -1      2914 1.27035E+02 9.20225E+00 0.00000E+00
 -1      2915 1.32285E+02 7.90325E+00 0.00000E+00
 -1      2916 1.30785E+02 7.90325E+00 0.00000E+00
 -1      2917 1.30035E+02 9.20225E+00 0.00000E+00
 -1      2918 1.35285E+02 7.90325E+00 0.00000E+00
 -1      2919 1.33785E+02 7.90325E+00 0.00000E+00
 -1      2920 1.33035E+02 9.20225E+00 0.00000E+00
 -1      2921 1.38285E+02 7.90325E+00 0.00000E+00
 -1      2922 1.36785E+02 7.90325E+00 0.00000E+00
 -1      2923 1.36035E+02 9.20225E+00 0.00000E+00
 -1      2924 1.40953E+02 8.18394E+00 0.00000E+00
 -1      2925 1.39453E+02 8.18394E+00 0.00000E+00
 -1      2926 1.38703E+02 9.48294E+00 0.00000E+00
 -1      2927 1.41038E+02 1.00443E+01 0.00000E+00
 -1      2928 1.40907E+02 2.42875E+01 0.00000E+00
 -1      2929 1.40907E+02 2.28125E+01 0.00000E+00
 -1      2930 1.39914E+02 4.09362E+01 0.00000E+00
 -1      2931 1.40928E+02 4.09655E+01 0.00000E+00
 -1      2932 1.39164E+02 3.96372E+01 0.00000E+00
 -1      2933 1.40907E+02 1.83875E+01 0.00000E+00
 -1      2934 1.40907E+02 1.69125E+01 0.00000E+00
 -1      2935 1.40907E+02 2.72375E+01 0.00000E+00
 -1      2936 1.40907E+02 2.57625E+01 0.00000E+00
 -1      2937 1.39608E+02 2.50250E+01 0.00000E+00
 -1      2938 1.40907E+02 2.13375E+01 0.00000E+00
 -1      2939 1.40907E+02 1.98625E+01 0.00000E+00
 -1      2940 1.39608E+02 1.91250E+01 0.00000E+00
 -1      2941 1.39608E+02 2.20750E+01 0.00000E+00
 -1      2942 7.51653E+01 3.55596E+01 0.00000E+00
 -1      2943 7.40183E+01 3.54455E+01 0.00000E+00
 -1      2944 1.40907E+02 3.01375E+01 0.00000E+00
 -1      2945 1.40907E+02 2.86875E+01 0.00000E+00
 -1      2946 1.39608E+02 2.79500E+01 0.00000E+00
 -1      2947 1.40907E+02 3.30875E+01 0.00000E+00
 -1      2948 1.40907E+02 3.16125E+01 0.00000E+00
 -1      2949 1.39608E+02 3.08750E+01 0.00000E+00
 -1      2950 1.40907E+02 3.60375E+01 0.00000E+00
 -1      2951 1.40907E+02 3.45625E+01 0.00000E+00
 -1      2952 1.39608E+02 3.38250E+01 0.00000E+00
 -1      2953 6.84226E+01 3.36971E+01 0.00000E+00
 -1      2954 6.75368E+01 3.30490E+01 0.00000E+00
 -1      2955 8.06894E+01 1.25145E+01 0.00000E+00
 -1      2956 8.17469E+01 1.30285E+01 0.00000E+00
 -1      2957 7.27406E+01 3.53933E+01 0.00000E+00
 -1      2958 7.16638E+01 3.51217E+01 0.00000E+00
 -1      2959 8.85168E+00 4.05347E+01 0.00000E+00
 -1      2960 1.02152E+01 4.07987E+01 0.00000E+00
 -1      2961 8.91450E+00 8.42712E+00 0.00000E+00
 -1      2962 8.73023E+01 2.30056E+01 0.00000E+00
 -1      2963 8.72543E+01 2.41288E+01 0.00000E+00
 -1      2964 7.78872E+01 3.51571E+01 0.00000E+00
 -1      2965 7.66429E+01 3.54510E+01 0.00000E+00
 -1      2966 1.82850E+01 7.90325E+00 0.00000E+00
 -1      2967 1.67850E+01 7.90325E+00 0.00000E+00
 -1      2968 1.60350E+01 9.20225E+00 0.00000E+00
 -1      2969 1.90350E+01 9.20225E+00 0.00000E+00
 -1      2970 8.72561E+01 2.06289E+01 0.00000E+00
 -1      2971 8.73566E+01 2.17513E+01 0.00000E+00
 -1      2972 2.72850E+01 7.90325E+00 0.00000E+00
 -1      2973 2.57850E+01 7.90325E+00 0.00000E+00
 -1      2974 2.50350E+01 9.20225E+00 0.00000E+00
 -1      2975 2.80350E+01 9.20225E+00 0.00000E+00
 -1      2976 1.15576E+01 4.08528E+01 0.00000E+00
 -1      2977 1.30576E+01 4.08528E+01 0.00000E+00
 -1      2978 1.38076E+01 3.95538E+01 0.00000E+00
 -1      2979 1.11228E+01 3.94455E+01 0.00000E+00
 -1      2980 9.09300E+00 1.68813E+01 0.00000E+00
 -1      2981 9.09300E+00 1.83563E+01 0.00000E+00
 -1      2982 1.03920E+01 1.90812E+01 0.00000E+00
 -1      2983 1.03920E+01 1.61437E+01 0.00000E+00
 -1      2984 8.53374E+01 2.99549E+01 0.00000E+00
 -1      2985 8.46398E+01 3.09021E+01 0.00000E+00
 -1      2986 9.09300E+00 3.15875E+01 0.00000E+00
 -1      2987 9.09300E+00 3.30625E+01 0.00000E+00
 -1      2988 7.54367E+01 1.16213E+01 0.00000E+00
 -1      2989 7.66094E+01 1.19807E+01 0.00000E+00
 -1      2990 7.30720E+01 1.17521E+01 0.00000E+00
 -1      2991 7.42544E+01 1.16867E+01 0.00000E+00
 -1      2992 7.50920E+01 1.10465E+01 0.00000E+00
 -1      2993 8.61781E+01 1.80356E+01 0.00000E+00
 -1      2994 8.67800E+01 1.91194E+01 0.00000E+00
 -1      2995 7.48818E+00 3.88019E+01 0.00000E+00
 -1      2996 6.48903E+01 1.77783E+01 0.00000E+00
 -1      2997 6.56281E+01 1.68094E+01 0.00000E+00
 -1      2998 6.79398E+01 1.39436E+01 0.00000E+00
 -1      2999 6.87317E+01 1.32863E+01 0.00000E+00
 -1      3000 1.41192E+02 3.96958E+01 0.00000E+00
 -1      3001 6.63375E+01 1.58498E+01 0.00000E+00
 -1      3002 6.70469E+01 1.48902E+01 0.00000E+00
 -1      3003 6.53197E+01 1.58401E+01 0.00000E+00
 -1      3004 6.31355E+01 2.27643E+01 0.00000E+00
 -1      3005 6.33196E+01 2.17495E+01 0.00000E+00
 -1      3006 6.34496E+01 2.54305E+01 0.00000E+00
 -1      3007 6.32588E+01 2.41857E+01 0.00000E+00
 -1      3008 6.40081E+01 2.79397E+01 0.00000E+00
 -1      3009 6.36393E+01 2.67913E+01 0.00000E+00
 -1      3010 8.45707E+01 1.60333E+01 0.00000E+00
 -1      3011 8.52994E+01 1.69929E+01 0.00000E+00
 -1      3012 6.50924E+01 3.01325E+01 0.00000E+00
 -1      3013 6.45448E+01 2.91725E+01 0.00000E+00
 -1      3014 7.05361E+01 3.46607E+01 0.00000E+00
 -1      3015 6.95835E+01 3.42617E+01 0.00000E+00
 -1      3016 6.99007E+01 1.24323E+01 0.00000E+00
 -1      3017 7.11935E+01 1.18358E+01 0.00000E+00
 -1      3018 8.00059E+01 3.42526E+01 0.00000E+00
 -1      3019 7.90911E+01 3.46705E+01 0.00000E+00
 -1      3020 8.68707E+01 2.54904E+01 0.00000E+00
 -1      3021 8.64838E+01 2.66579E+01 0.00000E+00
 -1      3022 6.66086E+01 3.20756E+01 0.00000E+00
 -1      3023 6.58509E+01 3.11999E+01 0.00000E+00
 -1      3024 8.62236E+01 2.76518E+01 0.00000E+00
 -1      3025 8.59633E+01 2.86456E+01 0.00000E+00
 -1      3026 8.71913E+01 2.73246E+01 0.00000E+00
 -1      3027 8.19525E+01 3.32304E+01 0.00000E+00
 -1      3028 8.10188E+01 3.37734E+01 0.00000E+00
 -1      3029 9.09300E+00 3.45313E+01 0.00000E+00
 -1      3030 9.09300E+00 3.60000E+01 0.00000E+00
 -1      3031 1.03920E+01 3.37938E+01 0.00000E+00
 -1      3032 1.03920E+01 2.49750E+01 0.00000E+00
 -1      3033 9.09300E+00 2.57000E+01 0.00000E+00
 -1      3034 9.09300E+00 2.71750E+01 0.00000E+00
 -1      3035 8.48138E+01 1.49312E+01 0.00000E+00
 -1      3036 8.49155E+01 3.20215E+01 0.00000E+00
 -1      3037 1.39608E+02 1.61875E+01 0.00000E+00
 -1      3038 1.40907E+02 1.54500E+01 0.00000E+00
 -1      3039 1.40907E+02 1.39875E+01 0.00000E+00
 -1      3040 8.30238E+01 3.36565E+01 0.00000E+00
 -1      3041 8.82731E+01 2.23530E+01 0.00000E+00
 -1      3042 6.64461E+01 3.32270E+01 0.00000E+00
 -1      3043 8.78352E+01 2.49691E+01 0.00000E+00
 -1      3044 6.69220E+01 1.39339E+01 0.00000E+00
 -1      3045 7.59846E+01 3.62473E+01 0.00000E+00
 -1      3046 1.40973E+02 1.27472E+01 0.00000E+00
 -1      3047 1.40973E+02 1.12847E+01 0.00000E+00
 -1      3048 1.39805E+02 1.10040E+01 0.00000E+00
 -1      3049 1.39674E+02 1.34847E+01 0.00000E+00
 -1      3050 8.08829E+01 3.46862E+01 0.00000E+00
 -1      3051 6.89838E+01 1.21333E+01 0.00000E+00
 -1      3052 6.85352E+01 3.47649E+01 0.00000E+00
 -1      3053 1.41192E+02 3.82207E+01 0.00000E+00
 -1      3054 7.08238E+01 3.57905E+01 0.00000E+00
 -1      3055 8.28563E+01 1.28211E+01 0.00000E+00
 -1      3056 6.47594E+01 3.11863E+01 0.00000E+00
 -1      3057 6.34642E+01 2.88861E+01 0.00000E+00
 -1      3058 6.27377E+01 2.62925E+01 0.00000E+00
 -1      3059 9.66450E+00 9.72612E+00 0.00000E+00
 -1      3060 7.86661E+01 3.56520E+01 0.00000E+00
 -1      3061 6.29637E+01 2.08408E+01 0.00000E+00
 -1      3062 7.32292E+01 3.63037E+01 0.00000E+00
 -1      3063 8.01504E+01 1.18366E+01 0.00000E+00
 -1      3064 9.09300E+00 2.86437E+01 0.00000E+00
 -1      3065 9.09300E+00 3.01187E+01 0.00000E+00
 -1      3066 1.03920E+01 3.08563E+01 0.00000E+00
 -1      3067 1.03920E+01 2.79188E+01 0.00000E+00
 -1      3068 8.78718E+00 3.80644E+01 0.00000E+00
 -1      3069 7.74361E+01 1.14401E+01 0.00000E+00
 -1      3070 8.78513E+01 1.95892E+01 0.00000E+00
 -1      3071 8.64966E+01 1.70371E+01 0.00000E+00
 -1      3072 6.41181E+01 1.81963E+01 0.00000E+00
 -1      3073 6.38381E+01 1.72177E+01 0.00000E+00
 -1      3074 6.33460E+01 1.86143E+01 0.00000E+00
 -1      3075 8.63050E+01 2.96278E+01 0.00000E+00
 -1      3076 6.24246E+01 2.35103E+01 0.00000E+00
 -1      3077 1.09635E+01 1.04636E+01 0.00000E+00
 -1      3078 1.39529E+02 3.85602E+01 0.00000E+00
 -1      3079 1.40542E+02 3.71145E+01 0.00000E+00
 -1      3080 1.39243E+02 3.63770E+01 0.00000E+00
 -1      3081 1.38514E+02 3.85310E+01 0.00000E+00
 -1      3082 7.96522E+01 3.63591E+01 0.00000E+00
 -1      3083 7.84483E+01 3.68457E+01 0.00000E+00
 -1      3084 1.16910E+01 1.24625E+01 0.00000E+00
 -1      3085 1.16910E+01 1.39375E+01 0.00000E+00
 -1      3086 8.81510E+01 2.70449E+01 0.00000E+00
 -1      3087 8.78907E+01 2.80388E+01 0.00000E+00
 -1      3088 1.89000E+01 3.83090E+01 0.00000E+00
 -1      3089 2.04000E+01 3.83090E+01 0.00000E+00
 -1      3090 2.19000E+01 3.83090E+01 0.00000E+00
 -1      3091 2.34000E+01 3.83090E+01 0.00000E+00
 -1      3092 2.11500E+01 3.70100E+01 0.00000E+00
 -1      3093 2.49000E+01 3.83090E+01 0.00000E+00
 -1      3094 2.64000E+01 3.83090E+01 0.00000E+00
 -1      3095 2.41500E+01 3.70100E+01 0.00000E+00
 -1      3096 2.79000E+01 3.83090E+01 0.00000E+00
 -1      3097 2.94000E+01 3.83090E+01 0.00000E+00
 -1      3098 2.71500E+01 3.70100E+01 0.00000E+00
 -1      3099 3.09000E+01 3.83090E+01 0.00000E+00
 -1      3100 3.24000E+01 3.83090E+01 0.00000E+00
 -1      3101 3.01500E+01 3.70100E+01 0.00000E+00
 -1      3102 3.39000E+01 3.83090E+01 0.00000E+00
 -1      3103 3.54000E+01 3.83090E+01 0.00000E+00
 -1      3104 3.31500E+01 3.70100E+01 0.00000E+00
 -1      3105 3.69000E+01 3.83090E+01 0.00000E+00
 -1      3106 3.84000E+01 3.83090E+01 0.00000E+00
 -1      3107 3.61500E+01 3.70100E+01 0.00000E+00
 -1      3108 3.99000E+01 3.83090E+01 0.00000E+00
 -1      3109 4.14000E+01 3.83090E+01 0.00000E+00
 -1      3110 3.91500E+01 3.70100E+01 0.00000E+00
 -1      3111 4.29000E+01 3.83090E+01 0.00000E+00
 -1      3112 4.44000E+01 3.83090E+01 0.00000E+00
 -1      3113 4.21500E+01 3.70100E+01 0.00000E+00
 -1      3114 4.59000E+01 3.83090E+01 0.00000E+00
 -1      3115 4.74000E+01 3.83090E+01 0.00000E+00
 -1      3116 4.51500E+01 3.70100E+01 0.00000E+00
 -1      3117 4.89000E+01 3.83090E+01 0.00000E+00
 -1      3118 5.04000E+01 3.83090E+01 0.00000E+00
 -1      3119 4.81500E+01 3.70100E+01 0.00000E+00
 -1      3120 5.19000E+01 3.83090E+01 0.00000E+00
 -1      3121 5.34000E+01 3.83090E+01 0.00000E+00
 -1      3122 5.11500E+01 3.70100E+01 0.00000E+00
 -1      3123 5.49000E+01 3.83090E+01 0.00000E+00
 -1      3124 5.64000E+01 3.83090E+01 0.00000E+00
 -1      3125 5.41500E+01 3.70100E+01 0.00000E+00
 -1      3126 5.79000E+01 3.83090E+01 0.00000E+00
 -1      3127 5.94000E+01 3.83090E+01 0.00000E+00
 -1      3128 5.71500E+01 3.70100E+01 0.00000E+00
 -1      3129 6.09000E+01 3.83090E+01 0.00000E+00
 -1      3130 6.24000E+01 3.83090E+01 0.00000E+00
 -1      3131 6.01500E+01 3.70100E+01 0.00000E+00
 -1      3132 6.39000E+01 3.83090E+01 0.00000E+00
 -1      3133 6.54000E+01 3.83090E+01 0.00000E+00
 -1      3134 6.31500E+01 3.70100E+01 0.00000E+00
 -1      3135 7.05508E+01 3.79298E+01 0.00000E+00
 -1      3136 7.20508E+01 3.79298E+01 0.00000E+00
 -1      3137 7.33285E+01 3.79820E+01 0.00000E+00
 -1      3138 7.48285E+01 3.79820E+01 0.00000E+00
 -1      3139 7.87922E+01 3.85804E+01 0.00000E+00
 -1      3140 8.02922E+01 3.85804E+01 0.00000E+00
 -1      3141 8.19000E+01 3.83315E+01 0.00000E+00
 -1      3142 8.34000E+01 3.83315E+01 0.00000E+00
 -1      3143 8.49000E+01 3.83315E+01 0.00000E+00
 -1      3144 8.64000E+01 3.83315E+01 0.00000E+00
 -1      3145 8.41500E+01 3.70550E+01 0.00000E+00
 -1      3146 8.79000E+01 3.83315E+01 0.00000E+00
 -1      3147 8.94000E+01 3.83315E+01 0.00000E+00
 -1      3148 8.71500E+01 3.70550E+01 0.00000E+00
 -1      3149 9.09000E+01 3.83315E+01 0.00000E+00
 -1      3150 9.24000E+01 3.83315E+01 0.00000E+00
 -1      3151 9.01500E+01 3.70550E+01 0.00000E+00
 -1      3152 9.39000E+01 3.83315E+01 0.00000E+00
 -1      3153 9.54000E+01 3.83315E+01 0.00000E+00
 -1      3154 9.31500E+01 3.70550E+01 0.00000E+00
 -1      3155 9.69000E+01 3.83315E+01 0.00000E+00
 -1      3156 9.84000E+01 3.83315E+01 0.00000E+00
 -1      3157 9.61500E+01 3.70550E+01 0.00000E+00
 -1      3158 9.99000E+01 3.83315E+01 0.00000E+00
 -1      3159 1.01400E+02 3.83315E+01 0.00000E+00
 -1      3160 9.91500E+01 3.70550E+01 0.00000E+00
 -1      3161 1.02900E+02 3.83315E+01 0.00000E+00
 -1      3162 1.04400E+02 3.83315E+01 0.00000E+00
 -1      3163 1.02150E+02 3.70550E+01 0.00000E+00
 -1      3164 1.05900E+02 3.83315E+01 0.00000E+00
 -1      3165 1.07400E+02 3.83315E+01 0.00000E+00
 -1      3166 1.05150E+02 3.70550E+01 0.00000E+00
 -1      3167 1.08900E+02 3.83315E+01 0.00000E+00
 -1      3168 1.10400E+02 3.83315E+01 0.00000E+00
 -1      3169 1.08150E+02 3.70550E+01 0.00000E+00
 -1      3170 1.11900E+02 3.83315E+01 0.00000E+00
 -1      3171 1.13400E+02 3.83315E+01 0.00000E+00
 -1      3172 1.11150E+02 3.70550E+01 0.00000E+00
 -1      3173 1.14900E+02 3.83315E+01 0.00000E+00
 -1      3174 1.16400E+02 3.83315E+01 0.00000E+00
 -1      3175 1.14150E+02 3.70550E+01 0.00000E+00
 -1      3176 1.17900E+02 3.83315E+01 0.00000E+00
 -1      3177 1.19400E+02 3.83315E+01 0.00000E+00
 -1      3178 1.17150E+02 3.70550E+01 0.00000E+00
 -1      3179 1.20900E+02 3.83315E+01 0.00000E+00
 -1      3180 1.22400E+02 3.83315E+01 0.00000E+00
 -1      3181 1.20150E+02 3.70550E+01 0.00000E+00
 -1      3182 1.23900E+02 3.83315E+01 0.00000E+00
 -1      3183 1.25400E+02 3.83315E+01 0.00000E+00
 -1      3184 1.23150E+02 3.70550E+01 0.00000E+00
 -1      3185 1.26900E+02 3.83315E+01 0.00000E+00
 -1      3186 1.28400E+02 3.83315E+01 0.00000E+00
 -1      3187 1.26150E+02 3.70550E+01 0.00000E+00
 -1      3188 1.29900E+02 3.83315E+01 0.00000E+00
 -1      3189 1.31400E+02 3.83315E+01 0.00000E+00
 -1      3190 1.29150E+02 3.70550E+01 0.00000E+00
 -1      3191 1.32900E+02 3.83315E+01 0.00000E+00
 -1      3192 1.34400E+02 3.83315E+01 0.00000E+00
 -1      3193 1.32150E+02 3.70550E+01 0.00000E+00
 -1      3194 1.35707E+02 3.84313E+01 0.00000E+00
 -1      3195 1.37207E+02 3.84313E+01 0.00000E+00
 -1      3196 1.37572E+02 3.73543E+01 0.00000E+00
 -1      3197 1.34957E+02 3.71548E+01 0.00000E+00
 -1      3198 3.47850E+01 1.05013E+01 0.00000E+00
 -1      3199 3.32850E+01 1.05013E+01 0.00000E+00
 -1      3200 3.17850E+01 1.05013E+01 0.00000E+00
 -1      3201 3.02850E+01 1.05013E+01 0.00000E+00
 -1      3202 3.25350E+01 1.18003E+01 0.00000E+00
 -1      3203 4.07850E+01 1.05013E+01 0.00000E+00
 -1      3204 3.92850E+01 1.05013E+01 0.00000E+00
 -1      3205 4.37850E+01 1.05013E+01 0.00000E+00
 -1      3206 4.22850E+01 1.05013E+01 0.00000E+00
 -1      3207 4.15350E+01 1.18003E+01 0.00000E+00
 -1      3208 4.67850E+01 1.05013E+01 0.00000E+00
 -1      3209 4.52850E+01 1.05013E+01 0.00000E+00
 -1      3210 4.45350E+01 1.18003E+01 0.00000E+00
 -1      3211 4.97850E+01 1.05013E+01 0.00000E+00
 -1      3212 4.82850E+01 1.05013E+01 0.00000E+00
 -1      3213 4.75350E+01 1.18003E+01 0.00000E+00
 -1      3214 5.27850E+01 1.05013E+01 0.00000E+00
 -1      3215 5.12850E+01 1.05013E+01 0.00000E+00
 -1      3216 5.05350E+01 1.18003E+01 0.00000E+00
 -1      3217 5.57850E+01 1.05013E+01 0.00000E+00
 -1      3218 5.42850E+01 1.05013E+01 0.00000E+00
 -1      3219 5.35350E+01 1.18003E+01 0.00000E+00
 -1      3220 5.87850E+01 1.05013E+01 0.00000E+00
 -1      3221 5.72850E+01 1.05013E+01 0.00000E+00
 -1      3222 5.65350E+01 1.18003E+01 0.00000E+00
 -1      3223 6.17850E+01 1.05013E+01 0.00000E+00
 -1      3224 6.02850E+01 1.05013E+01 0.00000E+00
 -1      3225 5.95350E+01 1.18003E+01 0.00000E+00
 -1      3226 6.47850E+01 1.05013E+01 0.00000E+00
 -1      3227 6.32850E+01 1.05013E+01 0.00000E+00
 -1      3228 6.25350E+01 1.18003E+01 0.00000E+00
 -1      3229 7.08439E+01 1.02408E+01 0.00000E+00
 -1      3230 6.93439E+01 1.02408E+01 0.00000E+00
 -1      3231 7.42223E+01 1.01571E+01 0.00000E+00
 -1      3232 7.27223E+01 1.01571E+01 0.00000E+00
 -1      3233 7.69047E+01 1.00917E+01 0.00000E+00
 -1      3234 7.54047E+01 1.00917E+01 0.00000E+00
 -1      3235 8.26190E+01 1.04882E+01 0.00000E+00
 -1      3236 8.11190E+01 1.04882E+01 0.00000E+00
 -1      3237 8.87850E+01 1.04787E+01 0.00000E+00
 -1      3238 8.72850E+01 1.04787E+01 0.00000E+00
 -1      3239 9.17850E+01 1.04787E+01 0.00000E+00
 -1      3240 9.02850E+01 1.04787E+01 0.00000E+00
 -1      3241 8.95350E+01 1.17552E+01 0.00000E+00
 -1      3242 9.47850E+01 1.04787E+01 0.00000E+00
 -1      3243 9.32850E+01 1.04787E+01 0.00000E+00
 -1      3244 9.25350E+01 1.17552E+01 0.00000E+00
 -1      3245 9.77850E+01 1.04787E+01 0.00000E+00
 -1      3246 9.62850E+01 1.04787E+01 0.00000E+00
 -1      3247 9.55350E+01 1.17552E+01 0.00000E+00
 -1      3248 1.00785E+02 1.04787E+01 0.00000E+00
 -1      3249 9.92850E+01 1.04787E+01 0.00000E+00
 -1      3250 9.85350E+01 1.17552E+01 0.00000E+00
 -1      3251 1.03785E+02 1.04787E+01 0.00000E+00
 -1      3252 1.02285E+02 1.04787E+01 0.00000E+00
 -1      3253 1.01535E+02 1.17552E+01 0.00000E+00
 -1      3254 1.06785E+02 1.04787E+01 0.00000E+00
 -1      3255 1.05285E+02 1.04787E+01 0.00000E+00
 -1      3256 1.04535E+02 1.17552E+01 0.00000E+00
 -1      3257 1.09785E+02 1.04787E+01 0.00000E+00
 -1      3258 1.08285E+02 1.04787E+01 0.00000E+00
 -1      3259 1.07535E+02 1.17552E+01 0.00000E+00
 -1      3260 1.12785E+02 1.04787E+01 0.00000E+00
 -1      3261 1.11285E+02 1.04787E+01 0.00000E+00
 -1      3262 1.10535E+02 1.17552E+01 0.00000E+00
 -1      3263 1.15785E+02 1.04787E+01 0.00000E+00
 -1      3264 1.14285E+02 1.04787E+01 0.00000E+00
 -1      3265 1.13535E+02 1.17552E+01 0.00000E+00
 -1      3266 1.18785E+02 1.04787E+01 0.00000E+00
 -1      3267 1.17285E+02 1.04787E+01 0.00000E+00
 -1      3268 1.16535E+02 1.17552E+01 0.00000E+00
 -1      3269 1.21785E+02 1.04787E+01 0.00000E+00
 -1      3270 1.20285E+02 1.04787E+01 0.00000E+00
 -1      3271 1.19535E+02 1.17552E+01 0.00000E+00
 -1      3272 1.24785E+02 1.04787E+01 0.00000E+00
 -1      3273 1.23285E+02 1.04787E+01 0.00000E+00
 -1      3274 1.22535E+02 1.17552E+01 0.00000E+00
 -1      3275 1.27785E+02 1.04787E+01 0.00000E+00
 -1      3276 1.26285E+02 1.04787E+01 0.00000E+00
 -1      3277 1.25535E+02 1.17552E+01 0.00000E+00
 -1      3278 1.30785E+02 1.04787E+01 0.00000E+00
 -1      3279 1.29285E+02 1.04787E+01 0.00000E+00
 -1      3280 1.28535E+02 1.17552E+01 0.00000E+00
 -1      3281 1.33785E+02 1.04787E+01 0.00000E+00
 -1      3282 1.32285E+02 1.04787E+01 0.00000E+00
 -1      3283 1.31535E+02 1.17552E+01 0.00000E+00
 -1      3284 1.36785E+02 1.04787E+01 0.00000E+00
 -1      3285 1.35285E+02 1.04787E+01 0.00000E+00
 -1      3286 1.34535E+02 1.17552E+01 0.00000E+00
 -1      3287 1.38879E+02 1.08817E+01 0.00000E+00
 -1      3288 1.37711E+02 1.06010E+01 0.00000E+00
 -1      3289 1.36961E+02 1.18775E+01 0.00000E+00
 -1      3290 1.38813E+02 1.21220E+01 0.00000E+00
 -1      3291 1.16910E+01 2.12875E+01 0.00000E+00
 -1      3292 1.16910E+01 2.27625E+01 0.00000E+00
 -1      3293 1.38309E+02 2.57625E+01 0.00000E+00
 -1      3294 1.38309E+02 2.42875E+01 0.00000E+00
 -1      3295 1.38309E+02 3.45625E+01 0.00000E+00
 -1      3296 1.38309E+02 3.30875E+01 0.00000E+00
 -1      3297 1.38309E+02 2.86625E+01 0.00000E+00
 -1      3298 1.38309E+02 2.72125E+01 0.00000E+00
 -1      3299 1.37010E+02 2.64750E+01 0.00000E+00
 -1      3300 8.89330E+01 2.45435E+01 0.00000E+00
 -1      3301 8.85494E+01 2.59052E+01 0.00000E+00
 -1      3302 6.42347E+01 3.23623E+01 0.00000E+00
 -1      3303 6.34762E+01 3.12949E+01 0.00000E+00
 -1      3304 8.62040E+01 3.21177E+01 0.00000E+00
 -1      3305 8.54405E+01 3.32022E+01 0.00000E+00
 -1      3306 7.63061E+01 3.78733E+01 0.00000E+00
 -1      3307 6.61078E+01 3.44790E+01 0.00000E+00
 -1      3308 6.51795E+01 3.35057E+01 0.00000E+00
 -1      3309 8.44037E+01 1.03687E+01 0.00000E+00
 -1      3310 8.34876E+01 1.16546E+01 0.00000E+00
 -1      3311 8.46410E+01 1.27015E+01 0.00000E+00
 -1      3312 8.59037E+01 1.03687E+01 0.00000E+00
 -1      3313 7.80664E+01 1.05507E+01 0.00000E+00
 -1      3314 1.38309E+02 3.16125E+01 0.00000E+00
 -1      3315 1.38309E+02 3.01375E+01 0.00000E+00
 -1      3316 1.37010E+02 2.94000E+01 0.00000E+00
 -1      3317 1.37010E+02 3.23500E+01 0.00000E+00
 -1      3318 3.77850E+01 1.05013E+01 0.00000E+00
 -1      3319 3.62850E+01 1.05013E+01 0.00000E+00
 -1      3320 3.55350E+01 1.18003E+01 0.00000E+00
 -1      3321 3.85350E+01 1.18003E+01 0.00000E+00
 -1      3322 7.18847E+01 1.07973E+01 0.00000E+00
 -1      3323 2.27850E+01 1.05013E+01 0.00000E+00
 -1      3324 2.12850E+01 1.05013E+01 0.00000E+00
 -1      3325 8.22729E+01 3.56310E+01 0.00000E+00
 -1      3326 8.12600E+01 3.61102E+01 0.00000E+00
 -1      3327 1.59000E+01 3.83090E+01 0.00000E+00
 -1      3328 1.74000E+01 3.83090E+01 0.00000E+00
 -1      3329 1.81500E+01 3.70100E+01 0.00000E+00
 -1      3330 1.00862E+01 3.73269E+01 0.00000E+00
 -1      3331 8.86708E+01 1.85009E+01 0.00000E+00
 -1      3332 8.91469E+01 2.00104E+01 0.00000E+00
 -1      3333 6.86307E+01 3.60444E+01 0.00000E+00
 -1      3334 6.74698E+01 3.54799E+01 0.00000E+00
 -1      3335 6.94230E+01 3.74687E+01 0.00000E+00
 -1      3336 6.42754E+01 1.58101E+01 0.00000E+00
 -1      3337 6.49848E+01 1.48505E+01 0.00000E+00
 -1      3338 8.75429E+01 2.94153E+01 0.00000E+00
 -1      3339 8.69169E+01 3.07246E+01 0.00000E+00
 -1      3340 1.26488E+01 1.02017E+01 0.00000E+00
 -1      3341 1.20772E+01 1.14631E+01 0.00000E+00
 -1      3342 1.33763E+01 1.22006E+01 0.00000E+00
 -1      3343 1.41488E+01 1.02017E+01 0.00000E+00
 -1      3344 6.18173E+01 2.71145E+01 0.00000E+00
 -1      3345 6.16275E+01 2.57537E+01 0.00000E+00
 -1      3346 6.58517E+01 1.38188E+01 0.00000E+00
 -1      3347 6.67446E+01 1.28722E+01 0.00000E+00
 -1      3348 8.67771E+01 1.59092E+01 0.00000E+00
 -1      3349 8.76557E+01 1.69518E+01 0.00000E+00
 -1      3350 6.18750E+01 2.10628E+01 0.00000E+00
 -1      3351 6.25374E+01 1.98148E+01 0.00000E+00
 -1      3352 6.74597E+01 1.19835E+01 0.00000E+00
 -1      3353 6.86287E+01 1.11295E+01 0.00000E+00
 -1      3354 6.78198E+01 1.00910E+01 0.00000E+00
 -1      3355 6.63895E+01 1.18684E+01 0.00000E+00
 -1      3356 7.95664E+01 1.05507E+01 0.00000E+00
 -1      3357 6.27927E+01 2.99117E+01 0.00000E+00
 -1      3358 6.22559E+01 2.86789E+01 0.00000E+00
 -1      3359 6.14650E+01 2.43096E+01 0.00000E+00
 -1      3360 6.13417E+01 2.28881E+01 0.00000E+00
 -1      3361 8.93244E+01 2.17702E+01 0.00000E+00
 -1      3362 8.92701E+01 2.30246E+01 0.00000E+00
 -1      3363 1.16910E+01 2.42375E+01 0.00000E+00
 -1      3364 1.16910E+01 2.57125E+01 0.00000E+00
 -1      3365 1.29900E+01 2.35000E+01 0.00000E+00
 -1      3366 1.29900E+01 1.46687E+01 0.00000E+00
 -1      3367 1.16910E+01 1.54063E+01 0.00000E+00
 -1      3368 1.16910E+01 1.68750E+01 0.00000E+00
 -1      3369 8.85026E+01 2.91356E+01 0.00000E+00
 -1      3370 1.32152E+01 3.82007E+01 0.00000E+00
 -1      3371 1.45576E+01 3.82548E+01 0.00000E+00
 -1      3372 1.53076E+01 3.69558E+01 0.00000E+00
 -1      3373 6.05446E+01 2.51315E+01 0.00000E+00
 -1      3374 1.38309E+02 1.69188E+01 0.00000E+00
 -1      3375 1.38309E+02 1.54563E+01 0.00000E+00
 -1      3376 1.16910E+01 3.30594E+01 0.00000E+00
 -1      3377 1.16910E+01 3.45281E+01 0.00000E+00
 -1      3378 6.61077E+01 3.68847E+01 0.00000E+00
 -1      3379 6.68577E+01 3.81837E+01 0.00000E+00
 -1      3380 6.48074E+01 1.37888E+01 0.00000E+00
 -1      3381 6.83577E+01 3.81837E+01 0.00000E+00
 -1      3382 6.38963E+01 3.36143E+01 0.00000E+00
 -1      3383 8.10422E+01 3.73039E+01 0.00000E+00
 -1      3384 7.78061E+01 3.78733E+01 0.00000E+00
 -1      3385 8.92319E+01 1.62451E+01 0.00000E+00
 -1      3386 8.89513E+01 1.73730E+01 0.00000E+00
 -1      3387 9.02469E+01 1.77942E+01 0.00000E+00
 -1      3388 1.14286E+01 3.73811E+01 0.00000E+00
 -1      3389 2.95350E+01 1.18003E+01 0.00000E+00
 -1      3390 2.87850E+01 1.05013E+01 0.00000E+00
 -1      3391 2.72850E+01 1.05013E+01 0.00000E+00
 -1      3392 6.56047E+01 1.09797E+01 0.00000E+00
 -1      3393 6.48547E+01 1.22787E+01 0.00000E+00
 -1      3394 6.63198E+01 1.00910E+01 0.00000E+00
 -1      3395 2.05350E+01 1.18003E+01 0.00000E+00
 -1      3396 1.97850E+01 1.05013E+01 0.00000E+00
 -1      3397 1.82850E+01 1.05013E+01 0.00000E+00
 -1      3398 6.11457E+01 2.81401E+01 0.00000E+00
 -1      3399 8.66537E+01 1.16451E+01 0.00000E+00
 -1      3400 1.16910E+01 1.98188E+01 0.00000E+00
 -1      3401 1.29900E+01 2.05562E+01 0.00000E+00
 -1      3402 1.16910E+01 1.83500E+01 0.00000E+00
 -1      3403 8.92489E+01 2.66193E+01 0.00000E+00
 -1      3404 1.38309E+02 1.98687E+01 0.00000E+00
 -1      3405 1.38309E+02 1.83937E+01 0.00000E+00
 -1      3406 1.37010E+02 1.76625E+01 0.00000E+00
 -1      3407 1.38309E+02 2.28156E+01 0.00000E+00
 -1      3408 1.38309E+02 2.13406E+01 0.00000E+00
 -1      3409 1.37010E+02 2.06094E+01 0.00000E+00
 -1      3410 1.37010E+02 2.35531E+01 0.00000E+00
 -1      3411 8.99844E+01 2.39607E+01 0.00000E+00
 -1      3412 6.22679E+01 3.10877E+01 0.00000E+00
 -1      3413 8.74419E+01 3.19052E+01 0.00000E+00
 -1      3414 8.60022E+01 3.43561E+01 0.00000E+00
 -1      3415 8.47137E+01 3.42600E+01 0.00000E+00
 -1      3416 6.62032E+01 3.57585E+01 0.00000E+00
 -1      3417 8.60494E+01 1.27050E+01 0.00000E+00
 -1      3418 8.54181E+01 1.38714E+01 0.00000E+00
 -1      3419 8.62222E+01 1.49347E+01 0.00000E+00
 -1      3420 8.74307E+01 1.28150E+01 0.00000E+00
 -1      3421 1.69669E+01 1.03515E+01 0.00000E+00
 -1      3422 1.54669E+01 1.03515E+01 0.00000E+00
 -1      3423 1.50806E+01 1.13509E+01 0.00000E+00
 -1      3424 1.77169E+01 1.16505E+01 0.00000E+00
 -1      3425 2.57850E+01 1.05013E+01 0.00000E+00
 -1      3426 2.42850E+01 1.05013E+01 0.00000E+00
 -1      3427 2.65350E+01 1.18003E+01 0.00000E+00
 -1      3428 8.35856E+01 3.48104E+01 0.00000E+00
 -1      3429 2.35350E+01 1.18003E+01 0.00000E+00
 -1      3430 1.16910E+01 3.01219E+01 0.00000E+00
 -1      3431 1.16910E+01 3.15906E+01 0.00000E+00
 -1      3432 1.29900E+01 3.23250E+01 0.00000E+00
 -1      3433 8.73814E+01 1.48494E+01 0.00000E+00
 -1      3434 6.22573E+01 1.88362E+01 0.00000E+00
 -1      3435 6.35032E+01 1.62281E+01 0.00000E+00
 -1      3436 6.31684E+01 1.52385E+01 0.00000E+00
 -1      3437 6.27311E+01 1.66460E+01 0.00000E+00
 -1      3438 6.09154E+01 2.18621E+01 0.00000E+00
 -1      3439 6.04891E+01 2.08361E+01 0.00000E+00
 -1      3440 5.99557E+01 2.26614E+01 0.00000E+00
 -1      3441 9.01439E+01 2.06819E+01 0.00000E+00
 -1      3442 1.37758E+02 3.64969E+01 0.00000E+00
 -1      3443 1.38123E+02 3.54199E+01 0.00000E+00
 -1      3444 1.36824E+02 3.46824E+01 0.00000E+00
 -1      3445 1.36451E+02 3.63971E+01 0.00000E+00
 -1      3446 6.47456E+01 3.58838E+01 0.00000E+00
 -1      3447 8.80539E+01 1.40428E+01 0.00000E+00
 -1      3448 8.86087E+01 1.50173E+01 0.00000E+00
 -1      3449 8.99044E+01 1.54385E+01 0.00000E+00
 -1      3450 8.86581E+01 1.29830E+01 0.00000E+00
 -1      3451 8.97516E+01 2.87190E+01 0.00000E+00
 -1      3452 8.94038E+01 3.00955E+01 0.00000E+00
 -1      3453 1.34776E+01 3.53477E+01 0.00000E+00
 -1      3454 1.21786E+01 3.60821E+01 0.00000E+00
 -1      3455 6.38007E+01 3.47405E+01 0.00000E+00
 -1      3456 6.28559E+01 3.35971E+01 0.00000E+00
 -1      3457 6.37052E+01 3.58666E+01 0.00000E+00
 -1      3458 6.39878E+01 1.33104E+01 0.00000E+00
 -1      3459 2.34000E+01 3.57110E+01 0.00000E+00
 -1      3460 2.49000E+01 3.57110E+01 0.00000E+00
 -1      3461 2.64000E+01 3.57110E+01 0.00000E+00
 -1      3462 2.79000E+01 3.57110E+01 0.00000E+00
 -1      3463 2.56500E+01 3.44120E+01 0.00000E+00
 -1      3464 2.94000E+01 3.57110E+01 0.00000E+00
 -1      3465 3.09000E+01 3.57110E+01 0.00000E+00
 -1      3466 2.86500E+01 3.44120E+01 0.00000E+00
 -1      3467 3.24000E+01 3.57110E+01 0.00000E+00
 -1      3468 3.39000E+01 3.57110E+01 0.00000E+00
 -1      3469 3.16500E+01 3.44120E+01 0.00000E+00
 -1      3470 3.54000E+01 3.57110E+01 0.00000E+00
 -1      3471 3.69000E+01 3.57110E+01 0.00000E+00
 -1      3472 3.46500E+01 3.44120E+01 0.00000E+00
 -1      3473 3.84000E+01 3.57110E+01 0.00000E+00
 -1      3474 3.99000E+01 3.57110E+01 0.00000E+00
 -1      3475 3.76500E+01 3.44120E+01 0.00000E+00
 -1      3476 4.14000E+01 3.57110E+01 0.00000E+00
 -1      3477 4.29000E+01 3.57110E+01 0.00000E+00
 -1      3478 4.06500E+01 3.44120E+01 0.00000E+00
 -1      3479 4.44000E+01 3.57110E+01 0.00000E+00
 -1      3480 4.59000E+01 3.57110E+01 0.00000E+00
 -1      3481 4.36500E+01 3.44120E+01 0.00000E+00
 -1      3482 4.74000E+01 3.57110E+01 0.00000E+00
 -1      3483 4.89000E+01 3.57110E+01 0.00000E+00
 -1      3484 4.66500E+01 3.44120E+01 0.00000E+00
 -1      3485 5.04000E+01 3.57110E+01 0.00000E+00
 -1      3486 5.19000E+01 3.57110E+01 0.00000E+00
 -1      3487 4.96500E+01 3.44120E+01 0.00000E+00
 -1      3488 5.34000E+01 3.57110E+01 0.00000E+00
 -1      3489 5.49000E+01 3.57110E+01 0.00000E+00
 -1      3490 5.26500E+01 3.44120E+01 0.00000E+00
 -1      3491 5.64000E+01 3.57110E+01 0.00000E+00
 -1      3492 5.79000E+01 3.57110E+01 0.00000E+00
 -1      3493 5.56500E+01 3.44120E+01 0.00000E+00
 -1      3494 6.22052E+01 3.58666E+01 0.00000E+00
 -1      3495 8.94000E+01 3.57560E+01 0.00000E+00
 -1      3496 9.09000E+01 3.57560E+01 0.00000E+00
 -1      3497 9.24000E+01 3.57560E+01 0.00000E+00
 -1      3498 9.39000E+01 3.57560E+01 0.00000E+00
 -1      3499 9.16500E+01 3.44570E+01 0.00000E+00
 -1      3500 9.54000E+01 3.57560E+01 0.00000E+00
 -1      3501 9.69000E+01 3.57560E+01 0.00000E+00
 -1      3502 9.46500E+01 3.44570E+01 0.00000E+00
 -1      3503 9.84000E+01 3.57560E+01 0.00000E+00
 -1      3504 9.99000E+01 3.57560E+01 0.00000E+00
 -1      3505 9.76500E+01 3.44570E+01 0.00000E+00
 -1      3506 1.01400E+02 3.57560E+01 0.00000E+00
 -1      3507 1.02900E+02 3.57560E+01 0.00000E+00
 -1      3508 1.00650E+02 3.44570E+01 0.00000E+00
 -1      3509 1.04400E+02 3.57560E+01 0.00000E+00
 -1      3510 1.05900E+02 3.57560E+01 0.00000E+00
 -1      3511 1.03650E+02 3.44570E+01 0.00000E+00
 -1      3512 1.07400E+02 3.57560E+01 0.00000E+00
 -1      3513 1.08900E+02 3.57560E+01 0.00000E+00
 -1      3514 1.06650E+02 3.44570E+01 0.00000E+00
 -1      3515 1.10400E+02 3.57560E+01 0.00000E+00
 -1      3516 1.11900E+02 3.57560E+01 0.00000E+00
 -1      3517 1.09650E+02 3.44570E+01 0.00000E+00
 -1      3518 1.13400E+02 3.57560E+01 0.00000E+00
 -1      3519 1.14900E+02 3.57560E+01 0.00000E+00
 -1      3520 1.12650E+02 3.44570E+01 0.00000E+00
 -1      3521 1.16400E+02 3.57560E+01 0.00000E+00
 -1      3522 1.17900E+02 3.57560E+01 0.00000E+00
 -1      3523 1.15650E+02 3.44570E+01 0.00000E+00
 -1      3524 1.19400E+02 3.57560E+01 0.00000E+00
 -1      3525 1.20900E+02 3.57560E+01 0.00000E+00
 -1      3526 1.18650E+02 3.44570E+01 0.00000E+00
 -1      3527 1.22400E+02 3.57560E+01 0.00000E+00
 -1      3528 1.23900E+02 3.57560E+01 0.00000E+00
 -1      3529 1.21650E+02 3.44570E+01 0.00000E+00
 -1      3530 1.25400E+02 3.57560E+01 0.00000E+00
 -1      3531 1.26900E+02 3.57560E+01 0.00000E+00
 -1      3532 1.24650E+02 3.44570E+01 0.00000E+00
 -1      3533 1.28400E+02 3.57560E+01 0.00000E+00
 -1      3534 1.29900E+02 3.57560E+01 0.00000E+00
 -1      3535 1.27650E+02 3.44570E+01 0.00000E+00
 -1      3536 1.31400E+02 3.57560E+01 0.00000E+00
 -1      3537 1.32900E+02 3.57560E+01 0.00000E+00
 -1      3538 1.30650E+02 3.44570E+01 0.00000E+00
 -1      3539 3.32850E+01 1.30992E+01 0.00000E+00
 -1      3540 3.17850E+01 1.30992E+01 0.00000E+00
 -1      3541 4.52850E+01 1.30992E+01 0.00000E+00
 -1      3542 4.37850E+01 1.30992E+01 0.00000E+00
 -1      3543 4.22850E+01 1.30992E+01 0.00000E+00
 -1      3544 4.07850E+01 1.30992E+01 0.00000E+00
 -1      3545 4.30350E+01 1.43982E+01 0.00000E+00
 -1      3546 5.12850E+01 1.30992E+01 0.00000E+00
 -1      3547 4.97850E+01 1.30992E+01 0.00000E+00
 -1      3548 5.42850E+01 1.30992E+01 0.00000E+00
 -1      3549 5.27850E+01 1.30992E+01 0.00000E+00
 -1      3550 5.20350E+01 1.43982E+01 0.00000E+00
 -1      3551 5.72850E+01 1.30992E+01 0.00000E+00
 -1      3552 5.57850E+01 1.30992E+01 0.00000E+00
 -1      3553 5.50350E+01 1.43982E+01 0.00000E+00
 -1      3554 6.02850E+01 1.30992E+01 0.00000E+00
 -1      3555 5.87850E+01 1.30992E+01 0.00000E+00
 -1      3556 5.80350E+01 1.43982E+01 0.00000E+00
 -1      3557 6.24878E+01 1.33104E+01 0.00000E+00
 -1      3558 6.10028E+01 1.88638E+01 0.00000E+00
 -1      3559 6.18114E+01 1.76633E+01 0.00000E+00
 -1      3560 9.01581E+01 1.29830E+01 0.00000E+00
 -1      3561 9.92850E+01 1.30542E+01 0.00000E+00
 -1      3562 9.77850E+01 1.30542E+01 0.00000E+00
 -1      3563 1.02285E+02 1.30542E+01 0.00000E+00
 -1      3564 1.00785E+02 1.30542E+01 0.00000E+00
 -1      3565 1.00035E+02 1.43532E+01 0.00000E+00
 -1      3566 1.05285E+02 1.30542E+01 0.00000E+00
 -1      3567 1.03785E+02 1.30542E+01 0.00000E+00
 -1      3568 1.03035E+02 1.43532E+01 0.00000E+00
 -1      3569 1.08285E+02 1.30542E+01 0.00000E+00
 -1      3570 1.06785E+02 1.30542E+01 0.00000E+00
 -1      3571 1.06035E+02 1.43532E+01 0.00000E+00
 -1      3572 1.11285E+02 1.30542E+01 0.00000E+00
 -1      3573 1.09785E+02 1.30542E+01 0.00000E+00
 -1      3574 1.09035E+02 1.43532E+01 0.00000E+00
 -1      3575 1.14285E+02 1.30542E+01 0.00000E+00
 -1      3576 1.12785E+02 1.30542E+01 0.00000E+00
 -1      3577 1.12035E+02 1.43532E+01 0.00000E+00
 -1      3578 1.17285E+02 1.30542E+01 0.00000E+00
 -1      3579 1.15785E+02 1.30542E+01 0.00000E+00
 -1      3580 1.15035E+02 1.43532E+01 0.00000E+00
 -1      3581 1.20285E+02 1.30542E+01 0.00000E+00
 -1      3582 1.18785E+02 1.30542E+01 0.00000E+00
 -1      3583 1.18035E+02 1.43532E+01 0.00000E+00
 -1      3584 1.23285E+02 1.30542E+01 0.00000E+00
 -1      3585 1.21785E+02 1.30542E+01 0.00000E+00
 -1      3586 1.21035E+02 1.43532E+01 0.00000E+00
 -1      3587 1.26285E+02 1.30542E+01 0.00000E+00
 -1      3588 1.24785E+02 1.30542E+01 0.00000E+00
 -1      3589 1.24035E+02 1.43532E+01 0.00000E+00
 -1      3590 1.29285E+02 1.30542E+01 0.00000E+00
 -1      3591 1.27785E+02 1.30542E+01 0.00000E+00
 -1      3592 1.27035E+02 1.43532E+01 0.00000E+00
 -1      3593 1.32285E+02 1.30542E+01 0.00000E+00
 -1      3594 1.30785E+02 1.30542E+01 0.00000E+00
 -1      3595 1.30035E+02 1.43532E+01 0.00000E+00
 -1      3596 1.35285E+02 1.30542E+01 0.00000E+00
 -1      3597 1.33785E+02 1.30542E+01 0.00000E+00
 -1      3598 1.33035E+02 1.43532E+01 0.00000E+00
 -1      3599 9.11537E+01 2.34233E+01 0.00000E+00
 -1      3600 9.08166E+01 2.49422E+01 0.00000E+00
 -1      3601 1.38528E+02 1.44093E+01 0.00000E+00
 -1      3602 1.38594E+02 1.31690E+01 0.00000E+00
 -1      3603 1.37668E+02 1.30467E+01 0.00000E+00
 -1      3604 1.37229E+02 1.51406E+01 0.00000E+00
 -1      3605 1.35711E+02 2.72000E+01 0.00000E+00
 -1      3606 1.35711E+02 2.57500E+01 0.00000E+00
 -1      3607 8.91524E+01 3.24846E+01 0.00000E+00
 -1      3608 8.84395E+01 3.38777E+01 0.00000E+00
 -1      3609 9.62850E+01 1.30542E+01 0.00000E+00
 -1      3610 9.47850E+01 1.30542E+01 0.00000E+00
 -1      3611 9.70350E+01 1.43532E+01 0.00000E+00
 -1      3612 6.02973E+01 2.92217E+01 0.00000E+00
 -1      3613 5.98587E+01 2.76573E+01 0.00000E+00
 -1      3614 9.05485E+01 2.64396E+01 0.00000E+00
 -1      3615 9.01501E+01 2.75793E+01 0.00000E+00
 -1      3616 9.10512E+01 2.85392E+01 0.00000E+00
 -1      3617 9.32850E+01 1.30542E+01 0.00000E+00
 -1      3618 9.17850E+01 1.30542E+01 0.00000E+00
 -1      3619 9.40350E+01 1.43532E+01 0.00000E+00
 -1      3620 1.16910E+01 2.71844E+01 0.00000E+00
 -1      3621 1.16910E+01 2.86531E+01 0.00000E+00
 -1      3622 1.29900E+01 2.93875E+01 0.00000E+00
 -1      3623 5.94406E+01 2.59870E+01 0.00000E+00
 -1      3624 5.92781E+01 2.45428E+01 0.00000E+00
 -1      3625 4.82850E+01 1.30992E+01 0.00000E+00
 -1      3626 4.67850E+01 1.30992E+01 0.00000E+00
 -1      3627 4.60350E+01 1.43982E+01 0.00000E+00
 -1      3628 4.90350E+01 1.43982E+01 0.00000E+00
 -1      3629 8.39627E+01 3.62345E+01 0.00000E+00
 -1      3630 8.54627E+01 3.62345E+01 0.00000E+00
 -1      3631 1.74000E+01 3.57110E+01 0.00000E+00
 -1      3632 1.89000E+01 3.57110E+01 0.00000E+00
 -1      3633 2.04000E+01 3.57110E+01 0.00000E+00
 -1      3634 2.19000E+01 3.57110E+01 0.00000E+00
 -1      3635 2.26500E+01 3.44120E+01 0.00000E+00
 -1      3636 2.42850E+01 1.30992E+01 0.00000E+00
 -1      3637 2.27850E+01 1.30992E+01 0.00000E+00
 -1      3638 1.46944E+01 1.23503E+01 0.00000E+00
 -1      3639 1.43081E+01 1.33498E+01 0.00000E+00
 -1      3640 1.60125E+01 1.25001E+01 0.00000E+00
 -1      3641 9.13252E+01 1.96739E+01 0.00000E+00
 -1      3642 9.15027E+01 2.14337E+01 0.00000E+00
 -1      3643 6.15404E+01 3.23077E+01 0.00000E+00
 -1      3644 6.08569E+01 3.09246E+01 0.00000E+00
 -1      3645 1.43081E+01 1.48185E+01 0.00000E+00
 -1      3646 5.85922E+01 2.70686E+01 0.00000E+00
 -1      3647 1.43324E+01 3.38479E+01 0.00000E+00
 -1      3648 1.48200E+01 3.54019E+01 0.00000E+00
 -1      3649 1.61624E+01 3.54560E+01 0.00000E+00
 -1      3650 1.96500E+01 3.44120E+01 0.00000E+00
 -1      3651 6.18250E+01 3.46502E+01 0.00000E+00
 -1      3652 6.19206E+01 3.35241E+01 0.00000E+00
 -1      3653 6.05096E+01 3.33609E+01 0.00000E+00
 -1      3654 6.12699E+01 3.57936E+01 0.00000E+00
 -1      3655 1.35711E+02 3.01500E+01 0.00000E+00
 -1      3656 1.35711E+02 2.86750E+01 0.00000E+00
 -1      3657 1.34412E+02 2.79500E+01 0.00000E+00
 -1      3658 5.90199E+01 3.44946E+01 0.00000E+00
 -1      3659 5.97699E+01 3.57936E+01 0.00000E+00
 -1      3660 8.76895E+01 3.51767E+01 0.00000E+00
 -1      3661 9.09081E+01 1.42820E+01 0.00000E+00
 -1      3662 3.10350E+01 1.43982E+01 0.00000E+00
 -1      3663 3.02850E+01 1.30992E+01 0.00000E+00
 -1      3664 2.87850E+01 1.30992E+01 0.00000E+00
 -1      3665 3.47850E+01 1.30992E+01 0.00000E+00
 -1      3666 3.40350E+01 1.43982E+01 0.00000E+00
 -1      3667 3.62850E+01 1.30992E+01 0.00000E+00
 -1      3668 1.34022E+02 3.60267E+01 0.00000E+00
 -1      3669 1.35329E+02 3.61265E+01 0.00000E+00
 -1      3670 1.35515E+02 3.52691E+01 0.00000E+00
 -1      3671 1.33272E+02 3.47277E+01 0.00000E+00
 -1      3672 2.57850E+01 1.30992E+01 0.00000E+00
 -1      3673 2.50350E+01 1.43982E+01 0.00000E+00
 -1      3674 2.72850E+01 1.30992E+01 0.00000E+00
 -1      3675 4.00350E+01 1.43982E+01 0.00000E+00
 -1      3676 3.92850E+01 1.30992E+01 0.00000E+00
 -1      3677 3.77850E+01 1.30992E+01 0.00000E+00
 -1      3678 6.24150E+01 1.48342E+01 0.00000E+00
 -1      3679 6.09622E+01 1.33241E+01 0.00000E+00
 -1      3680 6.00431E+01 1.96631E+01 0.00000E+00
 -1      3681 5.95972E+01 1.84902E+01 0.00000E+00
 -1      3682 5.90835E+01 2.04624E+01 0.00000E+00
 -1      3683 1.34412E+02 2.50031E+01 0.00000E+00
 -1      3684 1.35711E+02 2.42781E+01 0.00000E+00
 -1      3685 1.35711E+02 2.28062E+01 0.00000E+00
 -1      3686 2.12850E+01 1.30992E+01 0.00000E+00
 -1      3687 1.97850E+01 1.30992E+01 0.00000E+00
 -1      3688 2.20350E+01 1.43982E+01 0.00000E+00
 -1      3689 1.42890E+01 2.27625E+01 0.00000E+00
 -1      3690 1.42890E+01 2.42375E+01 0.00000E+00
 -1      3691 1.29900E+01 1.76125E+01 0.00000E+00
 -1      3692 9.17178E+01 2.59022E+01 0.00000E+00
 -1      3693 9.23350E+01 2.24153E+01 0.00000E+00
 -1      3694 9.31672E+01 2.33968E+01 0.00000E+00
 -1      3695 9.35163E+01 2.14073E+01 0.00000E+00
 -1      3696 1.36742E+02 1.29244E+01 0.00000E+00
 -1      3697 9.04014E+01 3.20680E+01 0.00000E+00
 -1      3698 1.42890E+01 1.98250E+01 0.00000E+00
 -1      3699 1.42890E+01 2.12938E+01 0.00000E+00
 -1      3700 1.55880E+01 2.20313E+01 0.00000E+00
 -1      3701 8.69627E+01 3.62345E+01 0.00000E+00
 -1      3702 9.18863E+01 1.74181E+01 0.00000E+00
 -1      3703 9.16057E+01 1.85460E+01 0.00000E+00
 -1      3704 9.29645E+01 1.92978E+01 0.00000E+00
 -1      3705 5.95698E+01 3.04417E+01 0.00000E+00
 -1      3706 1.29900E+01 2.64469E+01 0.00000E+00
 -1      3707 1.69124E+01 3.41570E+01 0.00000E+00
 -1      3708 6.14765E+01 1.66737E+01 0.00000E+00
 -1      3709 5.77478E+01 2.43723E+01 0.00000E+00
 -1      3710 5.88518E+01 2.35168E+01 0.00000E+00
 -1      3711 5.84255E+01 2.24908E+01 0.00000E+00
 -1      3712 1.35711E+02 1.84000E+01 0.00000E+00
 -1      3713 1.35711E+02 1.69250E+01 0.00000E+00
 -1      3714 1.43324E+01 3.09104E+01 0.00000E+00
 -1      3715 1.43324E+01 3.23792E+01 0.00000E+00
 -1      3716 1.56748E+01 3.24333E+01 0.00000E+00
 -1      3717 1.35992E+02 1.42234E+01 0.00000E+00
 -1      3718 1.35773E+02 1.52704E+01 0.00000E+00
 -1      3719 1.35702E+02 3.44117E+01 0.00000E+00
 -1      3720 1.34487E+02 3.38322E+01 0.00000E+00
 -1      3721 1.35795E+02 3.32455E+01 0.00000E+00
 -1      3722 1.35795E+02 3.17705E+01 0.00000E+00
 -1      3723 1.33365E+02 3.35615E+01 0.00000E+00
 -1      3724 1.34473E+02 1.60079E+01 0.00000E+00
 -1      3725 2.19000E+01 3.31130E+01 0.00000E+00
 -1      3726 2.34000E+01 3.31130E+01 0.00000E+00
 -1      3727 2.49000E+01 3.31130E+01 0.00000E+00
 -1      3728 2.64000E+01 3.31130E+01 0.00000E+00
 -1      3729 2.41500E+01 3.18140E+01 0.00000E+00
 -1      3730 5.86397E+01 3.32783E+01 0.00000E+00
 -1      3731 2.79000E+01 3.31130E+01 0.00000E+00
 -1      3732 2.94000E+01 3.31130E+01 0.00000E+00
 -1      3733 2.71500E+01 3.18140E+01 0.00000E+00
 -1      3734 3.09000E+01 3.31130E+01 0.00000E+00
 -1      3735 3.24000E+01 3.31130E+01 0.00000E+00
 -1      3736 3.01500E+01 3.18140E+01 0.00000E+00
 -1      3737 3.39000E+01 3.31130E+01 0.00000E+00
 -1      3738 3.54000E+01 3.31130E+01 0.00000E+00
 -1      3739 3.31500E+01 3.18140E+01 0.00000E+00
 -1      3740 3.69000E+01 3.31130E+01 0.00000E+00
 -1      3741 3.84000E+01 3.31130E+01 0.00000E+00
 -1      3742 3.61500E+01 3.18140E+01 0.00000E+00
 -1      3743 3.99000E+01 3.31130E+01 0.00000E+00
 -1      3744 4.14000E+01 3.31130E+01 0.00000E+00
 -1      3745 3.91500E+01 3.18140E+01 0.00000E+00
 -1      3746 4.29000E+01 3.31130E+01 0.00000E+00
 -1      3747 4.44000E+01 3.31130E+01 0.00000E+00
 -1      3748 4.21500E+01 3.18140E+01 0.00000E+00
 -1      3749 4.59000E+01 3.31130E+01 0.00000E+00
 -1      3750 4.74000E+01 3.31130E+01 0.00000E+00
 -1      3751 4.51500E+01 3.18140E+01 0.00000E+00
 -1      3752 4.89000E+01 3.31130E+01 0.00000E+00
 -1      3753 5.04000E+01 3.31130E+01 0.00000E+00
 -1      3754 4.81500E+01 3.18140E+01 0.00000E+00
 -1      3755 5.19000E+01 3.31130E+01 0.00000E+00
 -1      3756 5.34000E+01 3.31130E+01 0.00000E+00
 -1      3757 5.11500E+01 3.18140E+01 0.00000E+00
 -1      3758 5.49000E+01 3.31130E+01 0.00000E+00
 -1      3759 5.64000E+01 3.31130E+01 0.00000E+00
 -1      3760 5.41500E+01 3.18140E+01 0.00000E+00
 -1      3761 9.19014E+01 3.20680E+01 0.00000E+00
 -1      3762 4.37850E+01 1.56973E+01 0.00000E+00
 -1      3763 4.22850E+01 1.56973E+01 0.00000E+00
 -1      3764 9.69000E+01 3.31580E+01 0.00000E+00
 -1      3765 9.84000E+01 3.31580E+01 0.00000E+00
 -1      3766 9.99000E+01 3.31580E+01 0.00000E+00
 -1      3767 1.01400E+02 3.31580E+01 0.00000E+00
 -1      3768 9.91500E+01 3.18590E+01 0.00000E+00
 -1      3769 1.02900E+02 3.31580E+01 0.00000E+00
 -1      3770 1.04400E+02 3.31580E+01 0.00000E+00
 -1      3771 1.02150E+02 3.18590E+01 0.00000E+00
 -1      3772 1.05900E+02 3.31580E+01 0.00000E+00
 -1      3773 1.07400E+02 3.31580E+01 0.00000E+00
 -1      3774 1.05150E+02 3.18590E+01 0.00000E+00
 -1      3775 1.08900E+02 3.31580E+01 0.00000E+00
 -1      3776 1.10400E+02 3.31580E+01 0.00000E+00
 -1      3777 1.08150E+02 3.18590E+01 0.00000E+00
 -1      3778 1.11900E+02 3.31580E+01 0.00000E+00
 -1      3779 1.13400E+02 3.31580E+01 0.00000E+00
 -1      3780 1.11150E+02 3.18590E+01 0.00000E+00
 -1      3781 1.14900E+02 3.31580E+01 0.00000E+00
 -1      3782 1.16400E+02 3.31580E+01 0.00000E+00
 -1      3783 1.14150E+02 3.18590E+01 0.00000E+00
 -1      3784 1.17900E+02 3.31580E+01 0.00000E+00
 -1      3785 1.19400E+02 3.31580E+01 0.00000E+00
 -1      3786 1.17150E+02 3.18590E+01 0.00000E+00
 -1      3787 1.20900E+02 3.31580E+01 0.00000E+00
 -1      3788 1.22400E+02 3.31580E+01 0.00000E+00
 -1      3789 1.20150E+02 3.18590E+01 0.00000E+00
 -1      3790 1.23900E+02 3.31580E+01 0.00000E+00
 -1      3791 1.25400E+02 3.31580E+01 0.00000E+00
 -1      3792 1.23150E+02 3.18590E+01 0.00000E+00
 -1      3793 1.26900E+02 3.31580E+01 0.00000E+00
 -1      3794 1.28400E+02 3.31580E+01 0.00000E+00
 -1      3795 1.26150E+02 3.18590E+01 0.00000E+00
 -1      3796 1.29900E+02 3.31580E+01 0.00000E+00
 -1      3797 1.31400E+02 3.31580E+01 0.00000E+00
 -1      3798 1.29150E+02 3.18590E+01 0.00000E+00
 -1      3799 1.32973E+02 1.60079E+01 0.00000E+00
 -1      3800 5.57850E+01 1.56973E+01 0.00000E+00
 -1      3801 5.42850E+01 1.56973E+01 0.00000E+00
 -1      3802 5.27850E+01 1.56973E+01 0.00000E+00
 -1      3803 5.12850E+01 1.56973E+01 0.00000E+00
 -1      3804 5.35350E+01 1.69963E+01 0.00000E+00
 -1      3805 6.02122E+01 1.46231E+01 0.00000E+00
 -1      3806 1.06785E+02 1.56522E+01 0.00000E+00
 -1      3807 1.05285E+02 1.56522E+01 0.00000E+00
 -1      3808 1.32712E+02 1.76874E+01 0.00000E+00
 -1      3809 1.31274E+02 1.60328E+01 0.00000E+00
 -1      3810 1.42890E+01 1.68750E+01 0.00000E+00
 -1      3811 1.42890E+01 1.83500E+01 0.00000E+00
 -1      3812 1.55880E+01 1.90875E+01 0.00000E+00
 -1      3813 1.03785E+02 1.56522E+01 0.00000E+00
 -1      3814 1.02285E+02 1.56522E+01 0.00000E+00
 -1      3815 1.04535E+02 1.69512E+01 0.00000E+00
 -1      3816 1.00785E+02 1.56522E+01 0.00000E+00
 -1      3817 9.92850E+01 1.56522E+01 0.00000E+00
 -1      3818 1.01535E+02 1.69512E+01 0.00000E+00
 -1      3819 1.09785E+02 1.56522E+01 0.00000E+00
 -1      3820 1.08285E+02 1.56522E+01 0.00000E+00
 -1      3821 1.07535E+02 1.69512E+01 0.00000E+00
 -1      3822 1.12785E+02 1.56522E+01 0.00000E+00
 -1      3823 1.11285E+02 1.56522E+01 0.00000E+00
 -1      3824 1.10535E+02 1.69512E+01 0.00000E+00
 -1      3825 1.15785E+02 1.56522E+01 0.00000E+00
 -1      3826 1.14285E+02 1.56522E+01 0.00000E+00
 -1      3827 1.13535E+02 1.69512E+01 0.00000E+00
 -1      3828 1.18785E+02 1.56522E+01 0.00000E+00
 -1      3829 1.17285E+02 1.56522E+01 0.00000E+00
 -1      3830 1.16535E+02 1.69512E+01 0.00000E+00
 -1      3831 1.21785E+02 1.56522E+01 0.00000E+00
 -1      3832 1.20285E+02 1.56522E+01 0.00000E+00
 -1      3833 1.19535E+02 1.69512E+01 0.00000E+00
 -1      3834 1.24785E+02 1.56522E+01 0.00000E+00
 -1      3835 1.23285E+02 1.56522E+01 0.00000E+00
 -1      3836 1.22535E+02 1.69512E+01 0.00000E+00
 -1      3837 1.27785E+02 1.56522E+01 0.00000E+00
 -1      3838 1.26285E+02 1.56522E+01 0.00000E+00
 -1      3839 1.25535E+02 1.69512E+01 0.00000E+00
 -1      3840 1.29774E+02 1.60328E+01 0.00000E+00
 -1      3841 9.15312E+01 1.55097E+01 0.00000E+00
 -1      3842 1.43324E+01 2.79729E+01 0.00000E+00
 -1      3843 1.43324E+01 2.94417E+01 0.00000E+00
 -1      3844 1.56748E+01 2.94958E+01 0.00000E+00
 -1      3845 9.23763E+01 2.83630E+01 0.00000E+00
 -1      3846 9.19779E+01 2.95027E+01 0.00000E+00
 -1      3847 9.29434E+01 2.53490E+01 0.00000E+00
 -1      3848 9.26753E+01 2.68463E+01 0.00000E+00
 -1      3849 1.89000E+01 3.31130E+01 0.00000E+00
 -1      3850 2.04000E+01 3.31130E+01 0.00000E+00
 -1      3851 2.11500E+01 3.18140E+01 0.00000E+00
 -1      3852 1.35711E+02 2.13391E+01 0.00000E+00
 -1      3853 1.35711E+02 1.98672E+01 0.00000E+00
 -1      3854 1.34412E+02 1.91297E+01 0.00000E+00
 -1      3855 1.34412E+02 2.20641E+01 0.00000E+00
 -1      3856 1.85578E+01 1.28746E+01 0.00000E+00
 -1      3857 1.72397E+01 1.27248E+01 0.00000E+00
 -1      3858 1.68534E+01 1.37242E+01 0.00000E+00
 -1      3859 1.93078E+01 1.41736E+01 0.00000E+00
 -1      3860 5.78897E+01 3.19793E+01 0.00000E+00
 -1      3861 5.75629E+01 2.82137E+01 0.00000E+00
 -1      3862 5.71449E+01 2.65434E+01 0.00000E+00
 -1      3863 5.73301E+01 3.02764E+01 0.00000E+00
 -1      3864 1.66686E+01 3.26457E+01 0.00000E+00
 -1      3865 1.79062E+01 3.29006E+01 0.00000E+00
 -1      3866 1.86562E+01 3.16016E+01 0.00000E+00
 -1      3867 1.66686E+01 3.11769E+01 0.00000E+00
 -1      3868 9.77850E+01 1.56522E+01 0.00000E+00
 -1      3869 9.62850E+01 1.56522E+01 0.00000E+00
 -1      3870 9.85350E+01 1.69512E+01 0.00000E+00
 -1      3871 1.43107E+01 2.53693E+01 0.00000E+00
 -1      3872 1.43107E+01 2.68411E+01 0.00000E+00
 -1      3873 1.56531E+01 2.68953E+01 0.00000E+00
 -1      3874 1.56097E+01 2.46318E+01 0.00000E+00
 -1      3875 1.56071E+01 1.55560E+01 0.00000E+00
 -1      3876 9.28900E+01 1.62615E+01 0.00000E+00
 -1      3877 5.56893E+01 2.66625E+01 0.00000E+00
 -1      3878 5.67186E+01 2.55174E+01 0.00000E+00
 -1      3879 5.62922E+01 2.44914E+01 0.00000E+00
 -1      3880 9.40773E+01 1.91514E+01 0.00000E+00
 -1      3881 9.37968E+01 2.02794E+01 0.00000E+00
 -1      3882 9.46290E+01 2.12609E+01 0.00000E+00
 -1      3883 1.34496E+02 3.10455E+01 0.00000E+00
 -1      3884 4.52850E+01 1.56973E+01 0.00000E+00
 -1      3885 4.45350E+01 1.69963E+01 0.00000E+00
 -1      3886 4.67850E+01 1.56973E+01 0.00000E+00
 -1      3887 3.17850E+01 1.56973E+01 0.00000E+00
 -1      3888 3.02850E+01 1.56973E+01 0.00000E+00
 -1      3889 9.43900E+01 1.62615E+01 0.00000E+00
 -1      3890 3.70350E+01 1.43982E+01 0.00000E+00
 -1      3891 9.39000E+01 3.31580E+01 0.00000E+00
 -1      3892 9.54000E+01 3.31580E+01 0.00000E+00
 -1      3893 1.32615E+02 3.22625E+01 0.00000E+00
 -1      3894 5.75863E+01 1.68439E+01 0.00000E+00
 -1      3895 5.68363E+01 1.81429E+01 0.00000E+00
 -1      3896 5.79795E+01 2.13179E+01 0.00000E+00
 -1      3897 5.75336E+01 2.01449E+01 0.00000E+00
 -1      3898 5.68755E+01 2.21733E+01 0.00000E+00
 -1      3899 9.61500E+01 3.18590E+01 0.00000E+00
 -1      3900 3.47850E+01 1.56973E+01 0.00000E+00
 -1      3901 3.32850E+01 1.56973E+01 0.00000E+00
 -1      3902 3.25350E+01 1.69963E+01 0.00000E+00
 -1      3903 4.07850E+01 1.56973E+01 0.00000E+00
 -1      3904 3.92850E+01 1.56973E+01 0.00000E+00
 -1      3905 4.15350E+01 1.69963E+01 0.00000E+00
 -1      3906 1.32712E+02 1.91546E+01 0.00000E+00
 -1      3907 1.33113E+02 2.57391E+01 0.00000E+00
 -1      3908 1.33113E+02 2.42672E+01 0.00000E+00
 -1      3909 2.27850E+01 1.56973E+01 0.00000E+00
 -1      3910 2.12850E+01 1.56973E+01 0.00000E+00
 -1      3911 2.57850E+01 1.56973E+01 0.00000E+00
 -1      3912 2.42850E+01 1.56973E+01 0.00000E+00
 -1      3913 2.35350E+01 1.69963E+01 0.00000E+00
 -1      3914 2.80350E+01 1.43982E+01 0.00000E+00
 -1      3915 1.29024E+02 1.73318E+01 0.00000E+00
 -1      3916 9.41247E+01 2.43410E+01 0.00000E+00
 -1      3917 6.02014E+01 1.57880E+01 0.00000E+00
 -1      3918 5.95242E+01 1.55631E+01 0.00000E+00
 -1      3919 9.36020E+01 2.78098E+01 0.00000E+00
 -1      3920 5.80242E+01 1.55631E+01 0.00000E+00
 -1      3921 1.68870E+01 2.12969E+01 0.00000E+00
 -1      3922 1.68870E+01 2.27656E+01 0.00000E+00
 -1      3923 6.00351E+01 1.72094E+01 0.00000E+00
 -1      3924 6.09548E+01 1.61922E+01 0.00000E+00
 -1      3925 1.33113E+02 2.86891E+01 0.00000E+00
 -1      3926 1.33113E+02 2.72141E+01 0.00000E+00
 -1      3927 1.31814E+02 2.64781E+01 0.00000E+00
 -1      3928 9.26514E+01 3.07690E+01 0.00000E+00
 -1      3929 4.97850E+01 1.56973E+01 0.00000E+00
 -1      3930 4.82850E+01 1.56973E+01 0.00000E+00
 -1      3931 4.75350E+01 1.69963E+01 0.00000E+00
 -1      3932 1.82077E+01 2.31630E+01 0.00000E+00
 -1      3933 1.69087E+01 2.38974E+01 0.00000E+00
 -1      3934 1.69304E+01 2.50292E+01 0.00000E+00
 -1      3935 5.58828E+01 2.97512E+01 0.00000E+00
 -1      3936 9.51400E+01 1.75605E+01 0.00000E+00
 -1      3937 1.68343E+01 1.57807E+01 0.00000E+00
 -1      3938 5.90754E+01 1.80087E+01 0.00000E+00
 -1      3939 5.05350E+01 1.69963E+01 0.00000E+00
 -1      3940 2.64000E+01 3.05150E+01 0.00000E+00
 -1      3941 2.79000E+01 3.05150E+01 0.00000E+00
 -1      3942 2.94000E+01 3.05150E+01 0.00000E+00
 -1      3943 3.09000E+01 3.05150E+01 0.00000E+00
 -1      3944 2.86500E+01 2.92160E+01 0.00000E+00
 -1      3945 3.24000E+01 3.05150E+01 0.00000E+00
 -1      3946 3.39000E+01 3.05150E+01 0.00000E+00
 -1      3947 3.16500E+01 2.92160E+01 0.00000E+00
 -1      3948 3.54000E+01 3.05150E+01 0.00000E+00
 -1      3949 3.69000E+01 3.05150E+01 0.00000E+00
 -1      3950 3.46500E+01 2.92160E+01 0.00000E+00
 -1      3951 3.84000E+01 3.05150E+01 0.00000E+00
 -1      3952 3.99000E+01 3.05150E+01 0.00000E+00
 -1      3953 3.76500E+01 2.92160E+01 0.00000E+00
 -1      3954 4.14000E+01 3.05150E+01 0.00000E+00
 -1      3955 4.29000E+01 3.05150E+01 0.00000E+00
 -1      3956 4.06500E+01 2.92160E+01 0.00000E+00
 -1      3957 4.44000E+01 3.05150E+01 0.00000E+00
 -1      3958 4.59000E+01 3.05150E+01 0.00000E+00
 -1      3959 4.36500E+01 2.92160E+01 0.00000E+00
 -1      3960 4.74000E+01 3.05150E+01 0.00000E+00
 -1      3961 4.89000E+01 3.05150E+01 0.00000E+00
 -1      3962 4.66500E+01 2.92160E+01 0.00000E+00
 -1      3963 5.04000E+01 3.05150E+01 0.00000E+00
 -1      3964 5.19000E+01 3.05150E+01 0.00000E+00
 -1      3965 4.96500E+01 2.92160E+01 0.00000E+00
 -1      3966 5.31414E+01 3.01331E+01 0.00000E+00
 -1      3967 5.46414E+01 3.01331E+01 0.00000E+00
 -1      3968 5.48742E+01 2.80703E+01 0.00000E+00
 -1      3969 5.23914E+01 2.88341E+01 0.00000E+00
 -1      3970 1.85315E+01 1.55955E+01 0.00000E+00
 -1      3971 1.72851E+01 1.74273E+01 0.00000E+00
 -1      3972 9.84000E+01 3.05600E+01 0.00000E+00
 -1      3973 9.99000E+01 3.05600E+01 0.00000E+00
 -1      3974 1.32531E+02 3.06420E+01 0.00000E+00
 -1      3975 1.01400E+02 3.05600E+01 0.00000E+00
 -1      3976 1.02900E+02 3.05600E+01 0.00000E+00
 -1      3977 1.00650E+02 2.92610E+01 0.00000E+00
 -1      3978 1.04400E+02 3.05600E+01 0.00000E+00
 -1      3979 1.05900E+02 3.05600E+01 0.00000E+00
 -1      3980 1.03650E+02 2.92610E+01 0.00000E+00
 -1      3981 1.07400E+02 3.05600E+01 0.00000E+00
 -1      3982 1.08900E+02 3.05600E+01 0.00000E+00
 -1      3983 1.06650E+02 2.92610E+01 0.00000E+00
 -1      3984 1.10400E+02 3.05600E+01 0.00000E+00
 -1      3985 1.11900E+02 3.05600E+01 0.00000E+00
 -1      3986 1.09650E+02 2.92610E+01 0.00000E+00
 -1      3987 1.13400E+02 3.05600E+01 0.00000E+00
 -1      3988 1.14900E+02 3.05600E+01 0.00000E+00
 -1      3989 1.12650E+02 2.92610E+01 0.00000E+00
 -1      3990 1.16400E+02 3.05600E+01 0.00000E+00
 -1      3991 1.17900E+02 3.05600E+01 0.00000E+00
 -1      3992 1.15650E+02 2.92610E+01 0.00000E+00
 -1      3993 1.19400E+02 3.05600E+01 0.00000E+00
 -1      3994 1.20900E+02 3.05600E+01 0.00000E+00
 -1      3995 1.18650E+02 2.92610E+01 0.00000E+00
 -1      3996 1.22400E+02 3.05600E+01 0.00000E+00
 -1      3997 1.23900E+02 3.05600E+01 0.00000E+00
 -1      3998 1.21650E+02 2.92610E+01 0.00000E+00
 -1      3999 1.25400E+02 3.05600E+01 0.00000E+00
 -1      4000 1.26900E+02 3.05600E+01 0.00000E+00
 -1      4001 1.24650E+02 2.92610E+01 0.00000E+00
 -1      4002 1.28400E+02 3.05600E+01 0.00000E+00
 -1      4003 1.29900E+02 3.05600E+01 0.00000E+00
 -1      4004 1.27650E+02 2.92610E+01 0.00000E+00
 -1      4005 5.42850E+01 1.82727E+01 0.00000E+00
 -1      4006 5.27850E+01 1.82727E+01 0.00000E+00
 -1      4007 2.87850E+01 1.56973E+01 0.00000E+00
 -1      4008 2.72850E+01 1.56973E+01 0.00000E+00
 -1      4009 2.65350E+01 1.69963E+01 0.00000E+00
 -1      4010 6.16428E+01 1.52522E+01 0.00000E+00
 -1      4011 9.39765E+01 3.05927E+01 0.00000E+00
 -1      4012 5.12850E+01 1.82727E+01 0.00000E+00
 -1      4013 4.97850E+01 1.82727E+01 0.00000E+00
 -1      4014 5.20350E+01 1.95492E+01 0.00000E+00
 -1      4015 1.11285E+02 1.82502E+01 0.00000E+00
 -1      4016 1.09785E+02 1.82502E+01 0.00000E+00
 -1      4017 1.70861E+01 1.86246E+01 0.00000E+00
 -1      4018 1.70861E+01 2.00996E+01 0.00000E+00
 -1      4019 1.83851E+01 2.08340E+01 0.00000E+00
 -1      4020 1.87832E+01 1.84394E+01 0.00000E+00
 -1      4021 1.05285E+02 1.82502E+01 0.00000E+00
 -1      4022 1.03785E+02 1.82502E+01 0.00000E+00
 -1      4023 1.02285E+02 1.82502E+01 0.00000E+00
 -1      4024 1.00785E+02 1.82502E+01 0.00000E+00
 -1      4025 1.03035E+02 1.95492E+01 0.00000E+00
 -1      4026 1.14285E+02 1.82502E+01 0.00000E+00
 -1      4027 1.12785E+02 1.82502E+01 0.00000E+00
 -1      4028 1.12035E+02 1.95492E+01 0.00000E+00
 -1      4029 1.17285E+02 1.82502E+01 0.00000E+00
 -1      4030 1.15785E+02 1.82502E+01 0.00000E+00
 -1      4031 1.15035E+02 1.95492E+01 0.00000E+00
 -1      4032 1.20285E+02 1.82502E+01 0.00000E+00
 -1      4033 1.18785E+02 1.82502E+01 0.00000E+00
 -1      4034 1.18035E+02 1.95492E+01 0.00000E+00
 -1      4035 1.23285E+02 1.82502E+01 0.00000E+00
 -1      4036 1.21785E+02 1.82502E+01 0.00000E+00
 -1      4037 1.21035E+02 1.95492E+01 0.00000E+00
 -1      4038 1.26285E+02 1.82502E+01 0.00000E+00
 -1      4039 1.24785E+02 1.82502E+01 0.00000E+00
 -1      4040 1.24035E+02 1.95492E+01 0.00000E+00
 -1      4041 9.55271E+01 2.35129E+01 0.00000E+00
 -1      4042 9.53033E+01 2.54650E+01 0.00000E+00
 -1      4043 9.92850E+01 1.82502E+01 0.00000E+00
 -1      4044 9.77850E+01 1.82502E+01 0.00000E+00
 -1      4045 1.00035E+02 1.95492E+01 0.00000E+00
 -1      4046 9.48394E+01 2.72659E+01 0.00000E+00
 -1      4047 9.45405E+01 2.87825E+01 0.00000E+00
 -1      4048 1.31814E+02 2.35359E+01 0.00000E+00
 -1      4049 1.33113E+02 2.28000E+01 0.00000E+00
 -1      4050 1.33113E+02 2.13328E+01 0.00000E+00
 -1      4051 1.31413E+02 1.98906E+01 0.00000E+00
 -1      4052 1.08285E+02 1.82502E+01 0.00000E+00
 -1      4053 1.06785E+02 1.82502E+01 0.00000E+00
 -1      4054 1.09035E+02 1.95492E+01 0.00000E+00
 -1      4055 1.69521E+01 2.61609E+01 0.00000E+00
 -1      4056 1.69738E+01 2.72927E+01 0.00000E+00
 -1      4057 1.82511E+01 2.54265E+01 0.00000E+00
 -1      4058 1.68212E+01 2.85004E+01 0.00000E+00
 -1      4059 1.68212E+01 2.99692E+01 0.00000E+00
 -1      4060 1.78150E+01 3.01815E+01 0.00000E+00
 -1      4061 1.81202E+01 2.77661E+01 0.00000E+00
 -1      4062 3.77850E+01 1.56973E+01 0.00000E+00
 -1      4063 3.62850E+01 1.56973E+01 0.00000E+00
 -1      4064 3.55350E+01 1.69963E+01 0.00000E+00
 -1      4065 3.85350E+01 1.69963E+01 0.00000E+00
 -1      4066 2.04000E+01 3.05150E+01 0.00000E+00
 -1      4067 2.19000E+01 3.05150E+01 0.00000E+00
 -1      4068 2.95350E+01 1.69963E+01 0.00000E+00
 -1      4069 2.34000E+01 3.05150E+01 0.00000E+00
 -1      4070 2.49000E+01 3.05150E+01 0.00000E+00
 -1      4071 2.56500E+01 2.92160E+01 0.00000E+00
 -1      4072 2.26500E+01 2.92160E+01 0.00000E+00
 -1      4073 1.97586E+01 1.58202E+01 0.00000E+00
 -1      4074 9.59723E+01 1.85421E+01 0.00000E+00
 -1      4075 9.52140E+01 3.00488E+01 0.00000E+00
 -1      4076 1.29844E+02 1.92607E+01 0.00000E+00
 -1      4077 1.27855E+02 1.88801E+01 0.00000E+00
 -1      4078 1.27105E+02 2.01791E+01 0.00000E+00
 -1      4079 1.30244E+02 2.14389E+01 0.00000E+00
 -1      4080 5.57323E+01 1.89983E+01 0.00000E+00
 -1      4081 9.67140E+01 3.00488E+01 0.00000E+00
 -1      4082 5.44479E+01 2.70443E+01 0.00000E+00
 -1      4083 9.74640E+01 2.87498E+01 0.00000E+00
 -1      4084 2.05086E+01 1.71192E+01 0.00000E+00
 -1      4085 1.30482E+02 2.86071E+01 0.00000E+00
 -1      4086 1.31232E+02 2.99061E+01 0.00000E+00
 -1      4087 5.58463E+01 2.33184E+01 0.00000E+00
 -1      4088 5.54003E+01 2.21455E+01 0.00000E+00
 -1      4089 5.48170E+01 2.44635E+01 0.00000E+00
 -1      4090 4.82850E+01 1.82727E+01 0.00000E+00
 -1      4091 4.67850E+01 1.82727E+01 0.00000E+00
 -1      4092 4.90350E+01 1.95492E+01 0.00000E+00
 -1      4093 5.49823E+01 2.02748E+01 0.00000E+00
 -1      4094 2.18359E+01 1.81935E+01 0.00000E+00
 -1      4095 2.03096E+01 1.83165E+01 0.00000E+00
 -1      4096 2.01105E+01 1.95138E+01 0.00000E+00
 -1      4097 9.62418E+01 2.64378E+01 0.00000E+00
 -1      4098 4.22850E+01 1.82952E+01 0.00000E+00
 -1      4099 4.07850E+01 1.82952E+01 0.00000E+00
 -1      4100 1.99114E+01 2.07110E+01 0.00000E+00
 -1      4101 1.97124E+01 2.19083E+01 0.00000E+00
 -1      4102 2.14378E+01 2.05881E+01 0.00000E+00
 -1      4103 2.48359E+01 1.81935E+01 0.00000E+00
 -1      4104 2.33359E+01 1.81935E+01 0.00000E+00
 -1      4105 2.31369E+01 1.93908E+01 0.00000E+00
 -1      4106 9.58076E+01 2.23849E+01 0.00000E+00
 -1      4107 9.69863E+01 2.35090E+01 0.00000E+00
 -1      4108 9.60882E+01 2.12570E+01 0.00000E+00
 -1      4109 9.67223E+01 1.98411E+01 0.00000E+00
 -1      4110 1.30244E+02 2.43732E+01 0.00000E+00
 -1      4111 1.30244E+02 2.29061E+01 0.00000E+00
 -1      4112 1.28674E+02 2.22762E+01 0.00000E+00
 -1      4113 1.06035E+02 1.95492E+01 0.00000E+00
 -1      4114 4.52850E+01 1.82952E+01 0.00000E+00
 -1      4115 4.37850E+01 1.82952E+01 0.00000E+00
 -1      4116 4.30350E+01 1.95942E+01 0.00000E+00
 -1      4117 3.02850E+01 1.82952E+01 0.00000E+00
 -1      4118 2.87850E+01 1.82952E+01 0.00000E+00
 -1      4119 3.32850E+01 1.82952E+01 0.00000E+00
 -1      4120 3.17850E+01 1.82952E+01 0.00000E+00
 -1      4121 3.10350E+01 1.95942E+01 0.00000E+00
 -1      4122 1.30363E+02 2.72277E+01 0.00000E+00
 -1      4123 1.30363E+02 2.57527E+01 0.00000E+00
 -1      4124 1.28793E+02 2.51228E+01 0.00000E+00
 -1      4125 1.29031E+02 2.78816E+01 0.00000E+00
 -1      4126 1.88088E+01 3.03939E+01 0.00000E+00
 -1      4127 1.97341E+01 2.30401E+01 0.00000E+00
 -1      4128 1.97558E+01 2.41718E+01 0.00000E+00
 -1      4129 2.12604E+01 2.29171E+01 0.00000E+00
 -1      4130 1.95588E+01 2.90949E+01 0.00000E+00
 -1      4131 3.09000E+01 2.79170E+01 0.00000E+00
 -1      4132 3.24000E+01 2.79170E+01 0.00000E+00
 -1      4133 3.39000E+01 2.79170E+01 0.00000E+00
 -1      4134 3.54000E+01 2.79170E+01 0.00000E+00
 -1      4135 3.31500E+01 2.66180E+01 0.00000E+00
 -1      4136 3.69000E+01 2.79170E+01 0.00000E+00
 -1      4137 3.84000E+01 2.79170E+01 0.00000E+00
 -1      4138 3.61500E+01 2.66180E+01 0.00000E+00
 -1      4139 3.99000E+01 2.79170E+01 0.00000E+00
 -1      4140 4.14000E+01 2.79170E+01 0.00000E+00
 -1      4141 3.91500E+01 2.66180E+01 0.00000E+00
 -1      4142 4.29000E+01 2.79170E+01 0.00000E+00
 -1      4143 4.44000E+01 2.79170E+01 0.00000E+00
 -1      4144 4.21500E+01 2.66180E+01 0.00000E+00
 -1      4145 4.59000E+01 2.79170E+01 0.00000E+00
 -1      4146 4.74000E+01 2.79170E+01 0.00000E+00
 -1      4147 4.51500E+01 2.66180E+01 0.00000E+00
 -1      4148 4.89000E+01 2.79170E+01 0.00000E+00
 -1      4149 5.04000E+01 2.79170E+01 0.00000E+00
 -1      4150 4.81500E+01 2.66180E+01 0.00000E+00
 -1      4151 5.16414E+01 2.75351E+01 0.00000E+00
 -1      4152 5.28828E+01 2.71532E+01 0.00000E+00
 -1      4153 5.08914E+01 2.62361E+01 0.00000E+00
 -1      4154 9.99000E+01 2.79620E+01 0.00000E+00
 -1      4155 1.01400E+02 2.79620E+01 0.00000E+00
 -1      4156 1.02900E+02 2.79620E+01 0.00000E+00
 -1      4157 1.04400E+02 2.79620E+01 0.00000E+00
 -1      4158 1.02150E+02 2.66630E+01 0.00000E+00
 -1      4159 1.05900E+02 2.79620E+01 0.00000E+00
 -1      4160 1.07400E+02 2.79620E+01 0.00000E+00
 -1      4161 1.05150E+02 2.66630E+01 0.00000E+00
 -1      4162 1.08900E+02 2.79620E+01 0.00000E+00
 -1      4163 1.10400E+02 2.79620E+01 0.00000E+00
 -1      4164 1.08150E+02 2.66630E+01 0.00000E+00
 -1      4165 1.11900E+02 2.79620E+01 0.00000E+00
 -1      4166 1.13400E+02 2.79620E+01 0.00000E+00
 -1      4167 1.11150E+02 2.66630E+01 0.00000E+00
 -1      4168 1.14900E+02 2.79620E+01 0.00000E+00
 -1      4169 1.16400E+02 2.79620E+01 0.00000E+00
 -1      4170 1.14150E+02 2.66630E+01 0.00000E+00
 -1      4171 1.17900E+02 2.79620E+01 0.00000E+00
 -1      4172 1.19400E+02 2.79620E+01 0.00000E+00
 -1      4173 1.17150E+02 2.66630E+01 0.00000E+00
 -1      4174 1.20900E+02 2.79620E+01 0.00000E+00
 -1      4175 1.22400E+02 2.79620E+01 0.00000E+00
 -1      4176 1.20150E+02 2.66630E+01 0.00000E+00
 -1      4177 1.23900E+02 2.79620E+01 0.00000E+00
 -1      4178 1.25400E+02 2.79620E+01 0.00000E+00
 -1      4179 1.23150E+02 2.66630E+01 0.00000E+00
 -1      4180 1.27531E+02 2.78816E+01 0.00000E+00
 -1      4181 2.75605E+01 1.82444E+01 0.00000E+00
 -1      4182 2.60605E+01 1.82444E+01 0.00000E+00
 -1      4183 2.58614E+01 1.94417E+01 0.00000E+00
 -1      4184 2.83105E+01 1.95434E+01 0.00000E+00
 -1      4185 2.29378E+01 2.05881E+01 0.00000E+00
 -1      4186 2.27387E+01 2.17854E+01 0.00000E+00
 -1      4187 2.44378E+01 2.05881E+01 0.00000E+00
 -1      4188 1.97114E+01 2.78872E+01 0.00000E+00
 -1      4189 1.00785E+02 2.08482E+01 0.00000E+00
 -1      4190 9.92850E+01 2.08482E+01 0.00000E+00
 -1      4191 9.86779E+01 2.56500E+01 0.00000E+00
 -1      4192 9.82140E+01 2.74508E+01 0.00000E+00
 -1      4193 1.12785E+02 2.08482E+01 0.00000E+00
 -1      4194 1.11285E+02 2.08482E+01 0.00000E+00
 -1      4195 5.27850E+01 2.08482E+01 0.00000E+00
 -1      4196 5.12850E+01 2.08482E+01 0.00000E+00
 -1      4197 1.15785E+02 2.08482E+01 0.00000E+00
 -1      4198 1.14285E+02 2.08482E+01 0.00000E+00
 -1      4199 1.13535E+02 2.21472E+01 0.00000E+00
 -1      4200 1.03785E+02 2.08482E+01 0.00000E+00
 -1      4201 1.02285E+02 2.08482E+01 0.00000E+00
 -1      4202 1.01535E+02 2.21472E+01 0.00000E+00
 -1      4203 1.18785E+02 2.08482E+01 0.00000E+00
 -1      4204 1.17285E+02 2.08482E+01 0.00000E+00
 -1      4205 1.16535E+02 2.21472E+01 0.00000E+00
 -1      4206 1.21785E+02 2.08482E+01 0.00000E+00
 -1      4207 1.20285E+02 2.08482E+01 0.00000E+00
 -1      4208 1.19535E+02 2.21472E+01 0.00000E+00
 -1      4209 1.24785E+02 2.08482E+01 0.00000E+00
 -1      4210 1.23285E+02 2.08482E+01 0.00000E+00
 -1      4211 1.22535E+02 2.21472E+01 0.00000E+00
 -1      4212 4.00350E+01 1.95942E+01 0.00000E+00
 -1      4213 3.92850E+01 1.82952E+01 0.00000E+00
 -1      4214 3.77850E+01 1.82952E+01 0.00000E+00
 -1      4215 1.09785E+02 2.08482E+01 0.00000E+00
 -1      4216 1.08285E+02 2.08482E+01 0.00000E+00
 -1      4217 1.10535E+02 2.21472E+01 0.00000E+00
 -1      4218 1.97775E+01 2.53036E+01 0.00000E+00
 -1      4219 1.97992E+01 2.64354E+01 0.00000E+00
 -1      4220 2.13038E+01 2.51807E+01 0.00000E+00
 -1      4221 2.79000E+01 2.79170E+01 0.00000E+00
 -1      4222 2.94000E+01 2.79170E+01 0.00000E+00
 -1      4223 3.01500E+01 2.66180E+01 0.00000E+00
 -1      4224 2.12378E+01 2.77642E+01 0.00000E+00
 -1      4225 9.79009E+01 2.09651E+01 0.00000E+00
 -1      4226 5.39530E+01 2.14199E+01 0.00000E+00
 -1      4227 5.36979E+01 2.57453E+01 0.00000E+00
 -1      4228 1.06785E+02 2.08482E+01 0.00000E+00
 -1      4229 1.05285E+02 2.08482E+01 0.00000E+00
 -1      4230 1.07535E+02 2.21472E+01 0.00000E+00
 -1      4231 1.04535E+02 2.21472E+01 0.00000E+00
 -1      4232 5.32519E+01 2.45724E+01 0.00000E+00
 -1      4233 2.27378E+01 2.77642E+01 0.00000E+00
 -1      4234 1.26781E+02 2.65826E+01 0.00000E+00
 -1      4235 5.32030E+01 2.27189E+01 0.00000E+00
 -1      4236 2.88688E+01 2.08667E+01 0.00000E+00
 -1      4237 2.76443E+01 2.08158E+01 0.00000E+00
 -1      4238 2.27604E+01 2.29171E+01 0.00000E+00
 -1      4239 9.86509E+01 2.22641E+01 0.00000E+00
 -1      4240 5.05350E+01 2.21472E+01 0.00000E+00
 -1      4241 4.97850E+01 2.08482E+01 0.00000E+00
 -1      4242 4.82850E+01 2.08482E+01 0.00000E+00
 -1      4243 1.26355E+02 2.14781E+01 0.00000E+00
 -1      4244 4.07850E+01 2.08932E+01 0.00000E+00
 -1      4245 3.92850E+01 2.08932E+01 0.00000E+00
 -1      4246 4.60350E+01 1.95717E+01 0.00000E+00
 -1      4247 3.47850E+01 1.82952E+01 0.00000E+00
 -1      4248 3.40350E+01 1.95942E+01 0.00000E+00
 -1      4249 3.62850E+01 1.82952E+01 0.00000E+00
 -1      4250 2.64000E+01 2.79170E+01 0.00000E+00
 -1      4251 2.71500E+01 2.66180E+01 0.00000E+00
 -1      4252 2.49000E+01 2.79170E+01 0.00000E+00
 -1      4253 1.26662E+02 2.52032E+01 0.00000E+00
 -1      4254 4.37850E+01 2.08932E+01 0.00000E+00
 -1      4255 4.22850E+01 2.08932E+01 0.00000E+00
 -1      4256 4.15350E+01 2.21922E+01 0.00000E+00
 -1      4257 3.18688E+01 2.08667E+01 0.00000E+00
 -1      4258 3.03688E+01 2.08667E+01 0.00000E+00
 -1      4259 2.97026E+01 2.21392E+01 0.00000E+00
 -1      4260 1.26355E+02 2.29453E+01 0.00000E+00
 -1      4261 1.24342E+02 2.44051E+01 0.00000E+00
 -1      4262 2.99263E+01 2.43786E+01 0.00000E+00
 -1      4263 3.14263E+01 2.43786E+01 0.00000E+00
 -1      4264 3.54000E+01 2.53190E+01 0.00000E+00
 -1      4265 3.69000E+01 2.53190E+01 0.00000E+00
 -1      4266 3.88425E+01 2.44051E+01 0.00000E+00
 -1      4267 4.03425E+01 2.44051E+01 0.00000E+00
 -1      4268 4.18425E+01 2.44051E+01 0.00000E+00
 -1      4269 4.33425E+01 2.44051E+01 0.00000E+00
 -1      4270 4.74000E+01 2.53190E+01 0.00000E+00
 -1      4271 4.89000E+01 2.53190E+01 0.00000E+00
 -1      4272 1.22842E+02 2.44051E+01 0.00000E+00
 -1      4273 2.34878E+01 2.64652E+01 0.00000E+00
 -1      4274 1.04400E+02 2.53640E+01 0.00000E+00
 -1      4275 1.05900E+02 2.53640E+01 0.00000E+00
 -1      4276 1.07842E+02 2.44051E+01 0.00000E+00
 -1      4277 1.09342E+02 2.44051E+01 0.00000E+00
 -1      4278 1.10842E+02 2.44051E+01 0.00000E+00
 -1      4279 1.12342E+02 2.44051E+01 0.00000E+00
 -1      4280 1.13842E+02 2.44051E+01 0.00000E+00
 -1      4281 1.15342E+02 2.44051E+01 0.00000E+00
 -1      4282 1.16842E+02 2.44051E+01 0.00000E+00
 -1      4283 1.18342E+02 2.44051E+01 0.00000E+00
 -1      4284 1.19842E+02 2.44051E+01 0.00000E+00
 -1      4285 1.21342E+02 2.44051E+01 0.00000E+00
 -1      4286 2.42604E+01 2.29171E+01 0.00000E+00
 -1      4287 2.27821E+01 2.40489E+01 0.00000E+00
 -1      4288 2.28038E+01 2.51807E+01 0.00000E+00
 -1      4289 9.83872E+01 2.32585E+01 0.00000E+00
 -1      4290 9.81066E+01 2.43864E+01 0.00000E+00
 -1      4291 1.00079E+02 2.53995E+01 0.00000E+00
 -1      4292 5.20839E+01 2.40007E+01 0.00000E+00
 -1      4293 2.56623E+01 2.06389E+01 0.00000E+00
 -1      4294 2.62207E+01 2.19623E+01 0.00000E+00
 -1      4295 3.70350E+01 1.95942E+01 0.00000E+00
 -1      4296 4.67850E+01 2.08595E+01 0.00000E+00
 -1      4297 4.52850E+01 2.08820E+01 0.00000E+00
 -1      4298 4.45350E+01 2.21810E+01 0.00000E+00
 -1      4299 4.75350E+01 2.21585E+01 0.00000E+00
 -1      4300 2.62424E+01 2.30940E+01 0.00000E+00
 -1      4301 1.01489E+02 2.53818E+01 0.00000E+00
 -1      4302 1.02989E+02 2.53818E+01 0.00000E+00
 -1      4303 1.03739E+02 2.40828E+01 0.00000E+00
 -1      4304 1.00918E+02 2.41183E+01 0.00000E+00
 -1      4305 3.80925E+01 2.31061E+01 0.00000E+00
 -1      4306 3.73425E+01 2.18071E+01 0.00000E+00
 -1      4307 5.05839E+01 2.40007E+01 0.00000E+00
 -1      4308 9.97712E+01 2.31416E+01 0.00000E+00
 -1      4309 3.26632E+01 2.48488E+01 0.00000E+00
 -1      4310 3.41632E+01 2.48488E+01 0.00000E+00
 -1      4311 3.49132E+01 2.35498E+01 0.00000E+00
 -1      4312 3.24395E+01 2.26094E+01 0.00000E+00
 -1      4313 1.05592E+02 2.31061E+01 0.00000E+00
 -1      4314 1.04092E+02 2.31061E+01 0.00000E+00
 -1      4315 1.01182E+02 2.31239E+01 0.00000E+00
 -1      4316 4.48425E+01 2.43939E+01 0.00000E+00
 -1      4317 4.63425E+01 2.43939E+01 0.00000E+00
 -1      4318 4.93425E+01 2.43826E+01 0.00000E+00
 -1      4319 1.07092E+02 2.31061E+01 0.00000E+00
 -1      4320 3.58425E+01 2.18071E+01 0.00000E+00
 -1      4321 2.49661E+01 2.53334E+01 0.00000E+00
 -1      4322 2.84263E+01 2.43786E+01 0.00000E+00
 -1      4323 1.02682E+02 2.31239E+01 0.00000E+00
 -1      4324 2.69263E+01 2.43786E+01 0.00000E+00
 -1      4325 3.31057E+01 2.13369E+01 0.00000E+00
 -1      4326 3.46057E+01 2.13369E+01 0.00000E+00
 -1      4327 4.70925E+01 2.30949E+01 0.00000E+00
 -1      4328 4.85925E+01 2.30836E+01 0.00000E+00
 -3
    3C                          2082                                     1
 -1       165    8    0    1
 -2         6         7        23      1124      1288      1141
 -1       166    8    0    1
 -2         7         8       165      1125      1289      1290
 -1       167    8    0    1
 -2         8         9       166      1126      1291      1292
 -1       168    8    0    1
 -2         8       166       165      1292      1293      1289
 -1       169    8    0    1
 -2         9        10       167      1127      1294      1295
 -1       170    8    0    1
 -2         9       167       166      1295      1296      1291
 -1       171    8    0    1
 -2        10        11       168      1128      1297      1298
 -1       172    8    0    1
 -2        10       168       167      1298      1299      1294
 -1       173    8    0    1
 -2        11        12       169      1129      1300      1301
 -1       174    8    0    1
 -2        11       169       168      1301      1302      1297
 -1       175    8    0    1
 -2        12        13       170      1130      1303      1304
 -1       176    8    0    1
 -2        12       170       169      1304      1305      1300
 -1       177    8    0    1
 -2        13        14       171      1131      1306      1307
 -1       178    8    0    1
 -2        13       171       170      1307      1308      1303
 -1       179    8    0    1
 -2        14        15       172      1132      1309      1310
 -1       180    8    0    1
 -2        14       172       171      1310      1311      1306
 -1       181    8    0    1
 -2        15        16       173      1133      1312      1313
 -1       182    8    0    1
 -2        15       173       172      1313      1314      1309
 -1       183    8    0    1
 -2        16        17       174      1134      1315      1316
 -1       184    8    0    1
 -2        16       174       173      1316      1317      1312
 -1       185    8    0    1
 -2        17        18       175      1135      1318      1319
 -1       186    8    0    1
 -2        17       175       174      1319      1320      1315
 -1       187    8    0    1
 -2        18        19       176      1136      1321      1322
 -1       188    8    0    1
 -2        18       176       175      1322      1323      1318
 -1       189    8    0    1
 -2        19        20       177      1137      1324      1325
 -1       190    8    0    1
 -2        19       177       176      1325      1326      1321
 -1       191    8    0    1
 -2        20        21       178      1138      1327      1328
 -1       192    8    0    1
 -2        20       178       177      1328      1329      1324
 -1       193    8    0    1
 -2        21        22       179      1139      1330      1331
 -1       194    8    0    1
 -2        21       179       178      1331      1332      1327
 -1       195    8    0    1
 -2        22         5       180      1140      1333      1334
 -1       196    8    0    1
 -2       179        22       180      1330      1334      1335
 -1       197    8    0    1
 -2         5        72       180      1191      1336      1333
 -1       198    8    0    1
 -2        24        23       181      1142      1337      1338
 -1       199    8    0    1
 -2        25        24       182      1143      1339      1340
 -1       200    8    0    1
 -2        24       181       182      1338      1341      1339
 -1       201    8    0    1
 -2        26        25       183      1144      1342      1343
 -1       202    8    0    1
 -2        25       182       183      1340      1344      1342
 -1       203    8    0    1
 -2        27        26       184      1145      1345      1346
 -1       204    8    0    1
 -2        26       183       184      1343      1347      1345
 -1       205    8    0    1
 -2        28        27       185      1146      1348      1349
 -1       206    8    0    1
 -2        27       184       185      1346      1350      1348
 -1       207    8    0    1
 -2        29        28       186      1147      1351      1352
 -1       208    8    0    1
 -2        28       185       186      1349      1353      1351
 -1       209    8    0    1
 -2        30        29       187      1148      1354      1355
 -1       210    8    0    1
 -2        29       186       187      1352      1356      1354
 -1       211    8    0    1
 -2        31        30       188      1149      1357      1358
 -1       212    8    0    1
 -2        30       187       188      1355      1359      1357
 -1       213    8    0    1
 -2        32        31       189      1150      1360      1361
 -1       214    8    0    1
 -2        31       188       189      1358      1362      1360
 -1       215    8    0    1
 -2        33        32       190      1151      1363      1364
 -1       216    8    0    1
 -2        32       189       190      1361      1365      1363
 -1       217    8    0    1
 -2        34        33       191      1152      1366      1367
 -1       218    8    0    1
 -2        33       190       191      1364      1368      1366
 -1       219    8    0    1
 -2        35        34       192      1153      1369      1370
 -1       220    8    0    1
 -2        34       191       192      1367      1371      1369
 -1       221    8    0    1
 -2        36        35       193      1154      1372      1373
 -1       222    8    0    1
 -2        35       192       193      1370      1374      1372
 -1       223    8    0    1
 -2        37        36       194      1155      1375      1376
 -1       224    8    0    1
 -2        36       193       194      1373      1377      1375
 -1       225    8    0    1
 -2        38        37       195      1156      1378      1379
 -1       226    8    0    1
 -2        37       194       195      1376      1380      1378
 -1       227    8    0    1
 -2        39        38       196      1157      1381      1382
 -1       228    8    0    1
 -2        38       195       196      1379      1383      1381
 -1       229    8    0    1
 -2        40        39       197      1158      1384      1385
 -1       230    8    0    1
 -2        39       196       197      1382      1386      1384
 -1       231    8    0    1
 -2        41        40       198      1159      1387      1388
 -1       232    8    0    1
 -2        40       197       198      1385      1389      1387
 -1       233    8    0    1
 -2        42        41       199      1160      1390      1391
 -1       234    8    0    1
 -2        41       198       199      1388      1392      1390
 -1       235    8    0    1
 -2        43        42       200      1161      1393      1394
 -1       236    8    0    1
 -2        42       199       200      1391      1395      1393
 -1       237    8    0    1
 -2        44        43       201      1162      1396      1397
 -1       238    8    0    1
 -2        43       200       201      1394      1398      1396
 -1       239    8    0    1
 -2        45        44       202      1163      1399      1400
 -1       240    8    0    1
 -2        44       201       202      1397      1401      1399
 -1       241    8    0    1
 -2        46        45       203      1164      1402      1403
 -1       242    8    0    1
 -2        45       202       203      1400      1404      1402
 -1       243    8    0    1
 -2        47        46       204      1165      1405      1406
 -1       244    8    0    1
 -2        46       203       204      1403      1407      1405
 -1       245    8    0    1
 -2        48        47       205      1166      1408      1409
 -1       246    8    0    1
 -2        47       204       205      1406      1410      1408
 -1       247    8    0    1
 -2        49        48       206      1167      1411      1412
 -1       248    8    0    1
 -2        48       205       206      1409      1413      1411
 -1       249    8    0    1
 -2        50        49       207      1168      1414      1415
 -1       250    8    0    1
 -2        49       206       207      1412      1416      1414
 -1       251    8    0    1
 -2        51        50       208      1169      1417      1418
 -1       252    8    0    1
 -2        50       207       208      1415      1419      1417
 -1       253    8    0    1
 -2        52        51       209      1170      1420      1421
 -1       254    8    0    1
 -2        51       208       209      1418      1422      1420
 -1       255    8    0    1
 -2        53        52       210      1171      1423      1424
 -1       256    8    0    1
 -2        52       209       210      1421      1425      1423
 -1       257    8    0    1
 -2        54        53       211      1172      1426      1427
 -1       258    8    0    1
 -2        53       210       211      1424      1428      1426
 -1       259    8    0    1
 -2        55        54       212      1173      1429      1430
 -1       260    8    0    1
 -2        54       211       212      1427      1431      1429
 -1       261    8    0    1
 -2        56        55       213      1174      1432      1433
 -1       262    8    0    1
 -2        55       212       213      1430      1434      1432
 -1       263    8    0    1
 -2        57        56       214      1175      1435      1436
 -1       264    8    0    1
 -2        56       213       214      1433      1437      1435
 -1       265    8    0    1
 -2        58        57       215      1176      1438      1439
 -1       266    8    0    1
 -2        57       214       215      1436      1440      1438
 -1       267    8    0    1
 -2        59        58       216      1177      1441      1442
 -1       268    8    0    1
 -2        58       215       216      1439      1443      1441
 -1       269    8    0    1
 -2        60        59       217      1178      1444      1445
 -1       270    8    0    1
 -2        59       216       217      1442      1446      1444
 -1       271    8    0    1
 -2        61        60       218      1179      1447      1448
 -1       272    8    0    1
 -2        60       217       218      1445      1449      1447
 -1       273    8    0    1
 -2        62        61       219      1180      1450      1451
 -1       274    8    0    1
 -2        61       218       219      1448      1452      1450
 -1       275    8    0    1
 -2        63        62       220      1181      1453      1454
 -1       276    8    0    1
 -2        62       219       220      1451      1455      1453
 -1       277    8    0    1
 -2        64        63       221      1182      1456      1457
 -1       278    8    0    1
 -2        63       220       221      1454      1458      1456
 -1       279    8    0    1
 -2        65        64       222      1183      1459      1460
 -1       280    8    0    1
 -2        64       221       222      1457      1461      1459
 -1       281    8    0    1
 -2        66        65       223      1184      1462      1463
 -1       282    8    0    1
 -2        65       222       223      1460      1464      1462
 -1       283    8    0    1
 -2        67        66       224      1185      1465      1466
 -1       284    8    0    1
 -2        66       223       224      1463      1467      1465
 -1       285    8    0    1
 -2        68        67       225      1186      1468      1469
 -1       286    8    0    1
 -2        67       224       225      1466      1470      1468
 -1       287    8    0    1
 -2        69        68       226      1187      1471      1472
 -1       288    8    0    1
 -2        68       225       226      1469      1473      1471
 -1       289    8    0    1
 -2        70        69       227      1188      1474      1475
 -1       290    8    0    1
 -2        69       226       227      1472      1476      1474
 -1       291    8    0    1
 -2        71        70       228      1189      1477      1478
 -1       292    8    0    1
 -2        70       227       228      1475      1479      1477
 -1       293    8    0    1
 -2         4        71       136      1190      1480      1257
 -1       294    8    0    1
 -2       136        71       228      1480      1478      1481
 -1       295    8    0    1
 -2        72        73       229      1192      1482      1483
 -1       296    8    0    1
 -2        72       229       180      1483      1484      1336
 -1       297    8    0    1
 -2        73        74       230      1193      1485      1486
 -1       298    8    0    1
 -2        73       230       229      1486      1487      1482
 -1       299    8    0    1
 -2        74        75       231      1194      1488      1489
 -1       300    8    0    1
 -2        74       231       230      1489      1490      1485
 -1       301    8    0    1
 -2        75        76       232      1195      1491      1492
 -1       302    8    0    1
 -2        75       232       231      1492      1493      1488
 -1       303    8    0    1
 -2        76        77       233      1196      1494      1495
 -1       304    8    0    1
 -2        76       233       232      1495      1496      1491
 -1       305    8    0    1
 -2        77        78       234      1197      1497      1498
 -1       306    8    0    1
 -2        77       234       233      1498      1499      1494
 -1       307    8    0    1
 -2        78        79       235      1198      1500      1501
 -1       308    8    0    1
 -2        78       235       234      1501      1502      1497
 -1       309    8    0    1
 -2        79        80       236      1199      1503      1504
 -1       310    8    0    1
 -2        79       236       235      1504      1505      1500
 -1       311    8    0    1
 -2        80        81       237      1200      1506      1507
 -1       312    8    0    1
 -2        80       237       236      1507      1508      1503
 -1       313    8    0    1
 -2        81        82       238      1201      1509      1510
 -1       314    8    0    1
 -2        81       238       237      1510      1511      1506
 -1       315    8    0    1
 -2        82        83       239      1202      1512      1513
 -1       316    8    0    1
 -2        82       239       238      1513      1514      1509
 -1       317    8    0    1
 -2        83        84       240      1203      1515      1516
 -1       318    8    0    1
 -2        83       240       239      1516      1517      1512
 -1       319    8    0    1
 -2        84        85       241      1204      1518      1519
 -1       320    8    0    1
 -2        84       241       240      1519      1520      1515
 -1       321    8    0    1
 -2        85        86       242      1205      1521      1522
 -1       322    8    0    1
 -2        85       242       241      1522      1523      1518
 -1       323    8    0    1
 -2        86        87       243      1206      1524      1525
 -1       324    8    0    1
 -2        86       243       242      1525      1526      1521
 -1       325    8    0    1
 -2        87        88       244      1207      1527      1528
 -1       326    8    0    1
 -2        87       244       243      1528      1529      1524
 -1       327    8    0    1
 -2        88        89       245      1208      1530      1531
 -1       328    8    0    1
 -2        88       245       244      1531      1532      1527
 -1       329    8    0    1
 -2        89        90       246      1209      1533      1534
 -1       330    8    0    1
 -2        89       246       245      1534      1535      1530
 -1       331    8    0    1
 -2        90        91       247      1210      1536      1537
 -1       332    8    0    1
 -2        90       247       246      1537      1538      1533
 -1       333    8    0    1
 -2        91        92       248      1211      1539      1540
 -1       334    8    0    1
 -2        91       248       247      1540      1541      1536
 -1       335    8    0    1
 -2        92        93       249      1212      1542      1543
 -1       336    8    0    1
 -2        92       249       248      1543      1544      1539
 -1       337    8    0    1
 -2        93        94       250      1213      1545      1546
 -1       338    8    0    1
 -2        93       250       249      1546      1547      1542
 -1       339    8    0    1
 -2        94        95       251      1214      1548      1549
 -1       340    8    0    1
 -2        94       251       250      1549      1550      1545
 -1       341    8    0    1
 -2        95        96       252      1215      1551      1552
 -1       342    8    0    1
 -2        95       252       251      1552      1553      1548
 -1       343    8    0    1
 -2        96        97       253      1216      1554      1555
 -1       344    8    0    1
 -2        96       253       252      1555      1556      1551
 -1       345    8    0    1
 -2        97        98       254      1217      1557      1558
 -1       346    8    0    1
 -2        97       254       253      1558      1559      1554
 -1       347    8    0    1
 -2        98        99       255      1218      1560      1561
 -1       348    8    0    1
 -2        98       255       254      1561      1562      1557
 -1       349    8    0    1
 -2        99       100       256      1219      1563      1564
 -1       350    8    0    1
 -2        99       256       255      1564      1565      1560
 -1       351    8    0    1
 -2       100       101       257      1220      1566      1567
 -1       352    8    0    1
 -2       100       257       256      1567      1568      1563
 -1       353    8    0    1
 -2       101       102       258      1221      1569      1570
 -1       354    8    0    1
 -2       101       258       257      1570      1571      1566
 -1       355    8    0    1
 -2       102       103       259      1222      1572      1573
 -1       356    8    0    1
 -2       102       259       258      1573      1574      1569
 -1       357    8    0    1
 -2       103       104       260      1223      1575      1576
 -1       358    8    0    1
 -2       103       260       259      1576      1577      1572
 -1       359    8    0    1
 -2       104       105       261      1224      1578      1579
 -1       360    8    0    1
 -2       104       261       260      1579      1580      1575
 -1       361    8    0    1
 -2       105       106       262      1225      1581      1582
 -1       362    8    0    1
 -2       105       262       261      1582      1583      1578
 -1       363    8    0    1
 -2       106       107       263      1226      1584      1585
 -1       364    8    0    1
 -2       106       263       262      1585      1586      1581
 -1       365    8    0    1
 -2       107       108       264      1227      1587      1588
 -1       366    8    0    1
 -2       107       264       263      1588      1589      1584
 -1       367    8    0    1
 -2       108       109       265      1228      1590      1591
 -1       368    8    0    1
 -2       108       265       264      1591      1592      1587
 -1       369    8    0    1
 -2       109       110       266      1229      1593      1594
 -1       370    8    0    1
 -2       109       266       265      1594      1595      1590
 -1       371    8    0    1
 -2       110       111       267      1230      1596      1597
 -1       372    8    0    1
 -2       110       267       266      1597      1598      1593
 -1       373    8    0    1
 -2       111       112       268      1231      1599      1600
 -1       374    8    0    1
 -2       111       268       267      1600      1601      1596
 -1       375    8    0    1
 -2       112       113       269      1232      1602      1603
 -1       376    8    0    1
 -2       112       269       268      1603      1604      1599
 -1       377    8    0    1
 -2       113       114       270      1233      1605      1606
 -1       378    8    0    1
 -2       113       270       269      1606      1607      1602
 -1       379    8    0    1
 -2       114       115       271      1234      1608      1609
 -1       380    8    0    1
 -2       114       271       270      1609      1610      1605
 -1       381    8    0    1
 -2       115       116       272      1235      1611      1612
 -1       382    8    0    1
 -2       115       272       271      1612      1613      1608
 -1       383    8    0    1
 -2       116       117       273      1236      1614      1615
 -1       384    8    0    1
 -2       116       273       272      1615      1616      1611
 -1       385    8    0    1
 -2       117       118       274      1237      1617      1618
 -1       386    8    0    1
 -2       117       274       273      1618      1619      1614
 -1       387    8    0    1
 -2       118       119       275      1238      1620      1621
 -1       388    8    0    1
 -2       118       275       274      1621      1622      1617
 -1       389    8    0    1
 -2       119       120       276      1239      1623      1624
 -1       390    8    0    1
 -2       119       276       275      1624      1625      1620
 -1       391    8    0    1
 -2       120         3       121      1240      1241      1626
 -1       392    8    0    1
 -2       121       122       277      1242      1627      1628
 -1       393    8    0    1
 -2       122       123       278      1243      1629      1630
 -1       394    8    0    1
 -2       122       278       277      1630      1631      1627
 -1       395    8    0    1
 -2       123       124       279      1244      1632      1633
 -1       396    8    0    1
 -2       123       279       278      1633      1634      1629
 -1       397    8    0    1
 -2       124       125       280      1245      1635      1636
 -1       398    8    0    1
 -2       124       280       279      1636      1637      1632
 -1       399    8    0    1
 -2       125       126       281      1246      1638      1639
 -1       400    8    0    1
 -2       125       281       280      1639      1640      1635
 -1       401    8    0    1
 -2       126       127       282      1247      1641      1642
 -1       402    8    0    1
 -2       126       282       281      1642      1643      1638
 -1       403    8    0    1
 -2       127       128       283      1248      1644      1645
 -1       404    8    0    1
 -2       127       283       282      1645      1646      1641
 -1       405    8    0    1
 -2       128       129       284      1249      1647      1648
 -1       406    8    0    1
 -2       128       284       283      1648      1649      1644
 -1       407    8    0    1
 -2       129       130       285      1250      1650      1651
 -1       408    8    0    1
 -2       129       285       284      1651      1652      1647
 -1       409    8    0    1
 -2       130       131       286      1251      1653      1654
 -1       410    8    0    1
 -2       130       286       285      1654      1655      1650
 -1       411    8    0    1
 -2       131       132       287      1252      1656      1657
 -1       412    8    0    1
 -2       131       287       286      1657      1658      1653
 -1       413    8    0    1
 -2       132       133       288      1253      1659      1660
 -1       414    8    0    1
 -2       132       288       287      1660      1661      1656
 -1       415    8    0    1
 -2       133       134       289      1254      1662      1663
 -1       416    8    0    1
 -2       133       289       288      1663      1664      1659
 -1       417    8    0    1
 -2       134       135       290      1255      1665      1666
 -1       418    8    0    1
 -2       134       290       289      1666      1667      1662
 -1       419    8    0    1
 -2       135       136       291      1256      1668      1669
 -1       420    8    0    1
 -2       290       135       291      1665      1669      1670
 -1       421    8    0    1
 -2       136       228       291      1481      1671      1668
 -1       422    8    0    1
 -2         2       137       292      1258      1672      1673
 -1       423    8    0    1
 -2       137       138       293      1259      1674      1675
 -1       424    8    0    1
 -2       138       139       294      1260      1676      1677
 -1       425    8    0    1
 -2       139       140       295      1261      1678      1679
 -1       426    8    0    1
 -2       140       141       296      1262      1680      1681
 -1       427    8    0    1
 -2       141       142       297      1263      1682      1683
 -1       428    8    0    1
 -2       142       143       298      1264      1684      1685
 -1       429    8    0    1
 -2       143       144       299      1265      1686      1687
 -1       430    8    0    1
 -2       144       145       300      1266      1688      1689
 -1       431    8    0    1
 -2       145       146       301      1267      1690      1691
 -1       432    8    0    1
 -2       146       147       302      1268      1692      1693
 -1       433    8    0    1
 -2       147       148       303      1269      1694      1695
 -1       434    8    0    1
 -2       148       149       304      1270      1696      1697
 -1       435    8    0    1
 -2       149       150       305      1271      1698      1699
 -1       436    8    0    1
 -2       150       151       306      1272      1700      1701
 -1       437    8    0    1
 -2       151       152       307      1273      1702      1703
 -1       438    8    0    1
 -2       152       153       308      1274      1704      1705
 -1       439    8    0    1
 -2       153         1       309      1275      1706      1707
 -1       440    8    0    1
 -2         1       154       310      1276      1708      1709
 -1       441    8    0    1
 -2       154       155       311      1277      1710      1711
 -1       442    8    0    1
 -2       155       156       312      1278      1712      1713
 -1       443    8    0    1
 -2       156       157       313      1279      1714      1715
 -1       444    8    0    1
 -2       157       158       314      1280      1716      1717
 -1       445    8    0    1
 -2       158       159       315      1281      1718      1719
 -1       446    8    0    1
 -2       159       160       316      1282      1720      1721
 -1       447    8    0    1
 -2       160       161       317      1283      1722      1723
 -1       448    8    0    1
 -2       161       162       318      1284      1724      1725
 -1       449    8    0    1
 -2       162       163       319      1285      1726      1727
 -1       450    8    0    1
 -2       163       164       320      1286      1728      1729
 -1       451    8    0    1
 -2       164         2       321      1287      1730      1731
 -1       452    8    0    1
 -2       295       140       296      1678      1681      1732
 -1       453    8    0    1
 -2       294       139       295      1676      1679      1733
 -1       454    8    0    1
 -2       120       121       276      1626      1734      1623
 -1       455    8    0    1
 -2       121       277       276      1628      1735      1734
 -1       456    8    0    1
 -2       292       137       293      1672      1675      1736
 -1       457    8    0    1
 -2       293       138       294      1674      1677      1737
 -1       458    8    0    1
 -2         2       292       321      1673      1738      1730
 -1       459    8    0    1
 -2       141       297       296      1683      1739      1680
 -1       460    8    0    1
 -2       142       298       297      1685      1740      1682
 -1       461    8    0    1
 -2       143       299       298      1687      1741      1684
 -1       462    8    0    1
 -2       144       300       299      1689      1742      1686
 -1       463    8    0    1
 -2       145       301       300      1691      1743      1688
 -1       464    8    0    1
 -2       146       302       301      1693      1744      1690
 -1       465    8    0    1
 -2       147       303       302      1695      1745      1692
 -1       466    8    0    1
 -2       148       304       303      1697      1746      1694
 -1       467    8    0    1
 -2       149       305       304      1699      1747      1696
 -1       468    8    0    1
 -2       150       306       305      1701      1748      1698
 -1       469    8    0    1
 -2       151       307       306      1703      1749      1700
 -1       470    8    0    1
 -2       152       308       307      1705      1750      1702
 -1       471    8    0    1
 -2       153       309       308      1707      1751      1704
 -1       472    8    0    1
 -2         1       310       309      1709      1752      1706
 -1       473    8    0    1
 -2       154       311       310      1711      1753      1708
 -1       474    8    0    1
 -2       155       312       311      1713      1754      1710
 -1       475    8    0    1
 -2       156       313       312      1715      1755      1712
 -1       476    8    0    1
 -2       157       314       313      1717      1756      1714
 -1       477    8    0    1
 -2       158       315       314      1719      1757      1716
 -1       478    8    0    1
 -2       159       316       315      1721      1758      1718
 -1       479    8    0    1
 -2       160       317       316      1723      1759      1720
 -1       480    8    0    1
 -2       161       318       317      1725      1760      1722
 -1       481    8    0    1
 -2       162       319       318      1727      1761      1724
 -1       482    8    0    1
 -2       163       320       319      1729      1762      1726
 -1       483    8    0    1
 -2       164       321       320      1731      1763      1728
 -1       484    8    0    1
 -2        23         7       165      1288      1290      1764
 -1       485    8    0    1
 -2       166       167       322      1296      1765      1766
 -1       486    8    0    1
 -2       165       166       323      1293      1767      1768
 -1       487    8    0    1
 -2       166       322       323      1766      1769      1767
 -1       488    8    0    1
 -2       168       169       324      1302      1770      1771
 -1       489    8    0    1
 -2       169       170       325      1305      1772      1773
 -1       490    8    0    1
 -2       169       325       324      1773      1774      1770
 -1       491    8    0    1
 -2       170       171       326      1308      1775      1776
 -1       492    8    0    1
 -2       170       326       325      1776      1777      1772
 -1       493    8    0    1
 -2       171       172       327      1311      1778      1779
 -1       494    8    0    1
 -2       171       327       326      1779      1780      1775
 -1       495    8    0    1
 -2       172       173       328      1314      1781      1782
 -1       496    8    0    1
 -2       172       328       327      1782      1783      1778
 -1       497    8    0    1
 -2       173       174       329      1317      1784      1785
 -1       498    8    0    1
 -2       173       329       328      1785      1786      1781
 -1       499    8    0    1
 -2       174       175       330      1320      1787      1788
 -1       500    8    0    1
 -2       174       330       329      1788      1789      1784
 -1       501    8    0    1
 -2       175       176       331      1323      1790      1791
 -1       502    8    0    1
 -2       175       331       330      1791      1792      1787
 -1       503    8    0    1
 -2       176       177       332      1326      1793      1794
 -1       504    8    0    1
 -2       176       332       331      1794      1795      1790
 -1       505    8    0    1
 -2       177       178       333      1329      1796      1797
 -1       506    8    0    1
 -2       177       333       332      1797      1798      1793
 -1       507    8    0    1
 -2       178       179       334      1332      1799      1800
 -1       508    8    0    1
 -2       178       334       333      1800      1801      1796
 -1       509    8    0    1
 -2       179       180       335      1335      1802      1803
 -1       510    8    0    1
 -2       334       179       335      1799      1803      1804
 -1       511    8    0    1
 -2       180       229       335      1484      1805      1802
 -1       512    8    0    1
 -2       181        23       165      1337      1764      1806
 -1       513    8    0    1
 -2       229       230       336      1487      1807      1808
 -1       514    8    0    1
 -2       229       336       335      1808      1809      1805
 -1       515    8    0    1
 -2       181       165       323      1806      1768      1810
 -1       516    8    0    1
 -2       183       182       337      1344      1811      1812
 -1       517    8    0    1
 -2       184       183       338      1347      1813      1814
 -1       518    8    0    1
 -2       183       337       338      1812      1815      1813
 -1       519    8    0    1
 -2       185       184       339      1350      1816      1817
 -1       520    8    0    1
 -2       184       338       339      1814      1818      1816
 -1       521    8    0    1
 -2       186       185       340      1353      1819      1820
 -1       522    8    0    1
 -2       185       339       340      1817      1821      1819
 -1       523    8    0    1
 -2       187       186       341      1356      1822      1823
 -1       524    8    0    1
 -2       186       340       341      1820      1824      1822
 -1       525    8    0    1
 -2       188       187       342      1359      1825      1826
 -1       526    8    0    1
 -2       187       341       342      1823      1827      1825
 -1       527    8    0    1
 -2       189       188       343      1362      1828      1829
 -1       528    8    0    1
 -2       188       342       343      1826      1830      1828
 -1       529    8    0    1
 -2       190       189       344      1365      1831      1832
 -1       530    8    0    1
 -2       189       343       344      1829      1833      1831
 -1       531    8    0    1
 -2       191       190       345      1368      1834      1835
 -1       532    8    0    1
 -2       190       344       345      1832      1836      1834
 -1       533    8    0    1
 -2       192       191       346      1371      1837      1838
 -1       534    8    0    1
 -2       191       345       346      1835      1839      1837
 -1       535    8    0    1
 -2       193       192       347      1374      1840      1841
 -1       536    8    0    1
 -2       192       346       347      1838      1842      1840
 -1       537    8    0    1
 -2       194       193       348      1377      1843      1844
 -1       538    8    0    1
 -2       193       347       348      1841      1845      1843
 -1       539    8    0    1
 -2       195       194       349      1380      1846      1847
 -1       540    8    0    1
 -2       194       348       349      1844      1848      1846
 -1       541    8    0    1
 -2       196       195       350      1383      1849      1850
 -1       542    8    0    1
 -2       195       349       350      1847      1851      1849
 -1       543    8    0    1
 -2       197       196       351      1386      1852      1853
 -1       544    8    0    1
 -2       196       350       351      1850      1854      1852
 -1       545    8    0    1
 -2       198       197       352      1389      1855      1856
 -1       546    8    0    1
 -2       197       351       352      1853      1857      1855
 -1       547    8    0    1
 -2       199       198       353      1392      1858      1859
 -1       548    8    0    1
 -2       198       352       353      1856      1860      1858
 -1       549    8    0    1
 -2       200       199       354      1395      1861      1862
 -1       550    8    0    1
 -2       199       353       354      1859      1863      1861
 -1       551    8    0    1
 -2       201       200       355      1398      1864      1865
 -1       552    8    0    1
 -2       200       354       355      1862      1866      1864
 -1       553    8    0    1
 -2       202       201       356      1401      1867      1868
 -1       554    8    0    1
 -2       201       355       356      1865      1869      1867
 -1       555    8    0    1
 -2       203       202       357      1404      1870      1871
 -1       556    8    0    1
 -2       202       356       357      1868      1872      1870
 -1       557    8    0    1
 -2       204       203       358      1407      1873      1874
 -1       558    8    0    1
 -2       203       357       358      1871      1875      1873
 -1       559    8    0    1
 -2       205       204       359      1410      1876      1877
 -1       560    8    0    1
 -2       204       358       359      1874      1878      1876
 -1       561    8    0    1
 -2       206       205       360      1413      1879      1880
 -1       562    8    0    1
 -2       205       359       360      1877      1881      1879
 -1       563    8    0    1
 -2       207       206       361      1416      1882      1883
 -1       564    8    0    1
 -2       206       360       361      1880      1884      1882
 -1       565    8    0    1
 -2       208       207       362      1419      1885      1886
 -1       566    8    0    1
 -2       207       361       362      1883      1887      1885
 -1       567    8    0    1
 -2       209       208       363      1422      1888      1889
 -1       568    8    0    1
 -2       208       362       363      1886      1890      1888
 -1       569    8    0    1
 -2       210       209       364      1425      1891      1892
 -1       570    8    0    1
 -2       209       363       364      1889      1893      1891
 -1       571    8    0    1
 -2       211       210       365      1428      1894      1895
 -1       572    8    0    1
 -2       210       364       365      1892      1896      1894
 -1       573    8    0    1
 -2       212       211       366      1431      1897      1898
 -1       574    8    0    1
 -2       211       365       366      1895      1899      1897
 -1       575    8    0    1
 -2       213       212       367      1434      1900      1901
 -1       576    8    0    1
 -2       212       366       367      1898      1902      1900
 -1       577    8    0    1
 -2       214       213       368      1437      1903      1904
 -1       578    8    0    1
 -2       213       367       368      1901      1905      1903
 -1       579    8    0    1
 -2       215       214       369      1440      1906      1907
 -1       580    8    0    1
 -2       214       368       369      1904      1908      1906
 -1       581    8    0    1
 -2       216       215       370      1443      1909      1910
 -1       582    8    0    1
 -2       215       369       370      1907      1911      1909
 -1       583    8    0    1
 -2       217       216       371      1446      1912      1913
 -1       584    8    0    1
 -2       216       370       371      1910      1914      1912
 -1       585    8    0    1
 -2       218       217       372      1449      1915      1916
 -1       586    8    0    1
 -2       217       371       372      1913      1917      1915
 -1       587    8    0    1
 -2       219       218       373      1452      1918      1919
 -1       588    8    0    1
 -2       218       372       373      1916      1920      1918
 -1       589    8    0    1
 -2       220       219       374      1455      1921      1922
 -1       590    8    0    1
 -2       219       373       374      1919      1923      1921
 -1       591    8    0    1
 -2       221       220       375      1458      1924      1925
 -1       592    8    0    1
 -2       220       374       375      1922      1926      1924
 -1       593    8    0    1
 -2       222       221       376      1461      1927      1928
 -1       594    8    0    1
 -2       221       375       376      1925      1929      1927
 -1       595    8    0    1
 -2       223       222       377      1464      1930      1931
 -1       596    8    0    1
 -2       222       376       377      1928      1932      1930
 -1       597    8    0    1
 -2       224       223       378      1467      1933      1934
 -1       598    8    0    1
 -2       223       377       378      1931      1935      1933
 -1       599    8    0    1
 -2       225       224       379      1470      1936      1937
 -1       600    8    0    1
 -2       224       378       379      1934      1938      1936
 -1       601    8    0    1
 -2       226       225       380      1473      1939      1940
 -1       602    8    0    1
 -2       225       379       380      1937      1941      1939
 -1       603    8    0    1
 -2       227       226       381      1476      1942      1943
 -1       604    8    0    1
 -2       226       380       381      1940      1944      1942
 -1       605    8    0    1
 -2       228       227       382      1479      1945      1946
 -1       606    8    0    1
 -2       291       228       382      1671      1946      1947
 -1       607    8    0    1
 -2       227       381       382      1943      1948      1945
 -1       608    8    0    1
 -2       230       231       383      1490      1949      1950
 -1       609    8    0    1
 -2       230       383       336      1950      1951      1807
 -1       610    8    0    1
 -2       231       232       384      1493      1952      1953
 -1       611    8    0    1
 -2       231       384       383      1953      1954      1949
 -1       612    8    0    1
 -2       232       233       385      1496      1955      1956
 -1       613    8    0    1
 -2       232       385       384      1956      1957      1952
 -1       614    8    0    1
 -2       233       234       386      1499      1958      1959
 -1       615    8    0    1
 -2       233       386       385      1959      1960      1955
 -1       616    8    0    1
 -2       234       235       387      1502      1961      1962
 -1       617    8    0    1
 -2       234       387       386      1962      1963      1958
 -1       618    8    0    1
 -2       235       236       388      1505      1964      1965
 -1       619    8    0    1
 -2       235       388       387      1965      1966      1961
 -1       620    8    0    1
 -2       236       237       389      1508      1967      1968
 -1       621    8    0    1
 -2       236       389       388      1968      1969      1964
 -1       622    8    0    1
 -2       237       238       390      1511      1970      1971
 -1       623    8    0    1
 -2       237       390       389      1971      1972      1967
 -1       624    8    0    1
 -2       238       239       391      1514      1973      1974
 -1       625    8    0    1
 -2       238       391       390      1974      1975      1970
 -1       626    8    0    1
 -2       239       240       392      1517      1976      1977
 -1       627    8    0    1
 -2       239       392       391      1977      1978      1973
 -1       628    8    0    1
 -2       240       241       393      1520      1979      1980
 -1       629    8    0    1
 -2       240       393       392      1980      1981      1976
 -1       630    8    0    1
 -2       241       242       394      1523      1982      1983
 -1       631    8    0    1
 -2       241       394       393      1983      1984      1979
 -1       632    8    0    1
 -2       242       243       395      1526      1985      1986
 -1       633    8    0    1
 -2       242       395       394      1986      1987      1982
 -1       634    8    0    1
 -2       243       244       396      1529      1988      1989
 -1       635    8    0    1
 -2       243       396       395      1989      1990      1985
 -1       636    8    0    1
 -2       244       245       397      1532      1991      1992
 -1       637    8    0    1
 -2       244       397       396      1992      1993      1988
 -1       638    8    0    1
 -2       245       246       398      1535      1994      1995
 -1       639    8    0    1
 -2       245       398       397      1995      1996      1991
 -1       640    8    0    1
 -2       246       247       399      1538      1997      1998
 -1       641    8    0    1
 -2       246       399       398      1998      1999      1994
 -1       642    8    0    1
 -2       247       248       400      1541      2000      2001
 -1       643    8    0    1
 -2       247       400       399      2001      2002      1997
 -1       644    8    0    1
 -2       248       249       401      1544      2003      2004
 -1       645    8    0    1
 -2       248       401       400      2004      2005      2000
 -1       646    8    0    1
 -2       249       250       402      1547      2006      2007
 -1       647    8    0    1
 -2       249       402       401      2007      2008      2003
 -1       648    8    0    1
 -2       250       251       403      1550      2009      2010
 -1       649    8    0    1
 -2       250       403       402      2010      2011      2006
 -1       650    8    0    1
 -2       251       252       404      1553      2012      2013
 -1       651    8    0    1
 -2       251       404       403      2013      2014      2009
 -1       652    8    0    1
 -2       252       253       405      1556      2015      2016
 -1       653    8    0    1
 -2       252       405       404      2016      2017      2012
 -1       654    8    0    1
 -2       253       254       406      1559      2018      2019
 -1       655    8    0    1
 -2       253       406       405      2019      2020      2015
 -1       656    8    0    1
 -2       254       255       407      1562      2021      2022
 -1       657    8    0    1
 -2       254       407       406      2022      2023      2018
 -1       658    8    0    1
 -2       255       256       408      1565      2024      2025
 -1       659    8    0    1
 -2       255       408       407      2025      2026      2021
 -1       660    8    0    1
 -2       256       257       409      1568      2027      2028
 -1       661    8    0    1
 -2       256       409       408      2028      2029      2024
 -1       662    8    0    1
 -2       257       258       410      1571      2030      2031
 -1       663    8    0    1
 -2       257       410       409      2031      2032      2027
 -1       664    8    0    1
 -2       258       259       411      1574      2033      2034
 -1       665    8    0    1
 -2       258       411       410      2034      2035      2030
 -1       666    8    0    1
 -2       259       260       412      1577      2036      2037
 -1       667    8    0    1
 -2       259       412       411      2037      2038      2033
 -1       668    8    0    1
 -2       260       261       413      1580      2039      2040
 -1       669    8    0    1
 -2       260       413       412      2040      2041      2036
 -1       670    8    0    1
 -2       261       262       414      1583      2042      2043
 -1       671    8    0    1
 -2       261       414       413      2043      2044      2039
 -1       672    8    0    1
 -2       262       263       415      1586      2045      2046
 -1       673    8    0    1
 -2       262       415       414      2046      2047      2042
 -1       674    8    0    1
 -2       263       264       416      1589      2048      2049
 -1       675    8    0    1
 -2       263       416       415      2049      2050      2045
 -1       676    8    0    1
 -2       264       265       417      1592      2051      2052
 -1       677    8    0    1
 -2       264       417       416      2052      2053      2048
 -1       678    8    0    1
 -2       265       266       418      1595      2054      2055
 -1       679    8    0    1
 -2       265       418       417      2055      2056      2051
 -1       680    8    0    1
 -2       266       267       419      1598      2057      2058
 -1       681    8    0    1
 -2       266       419       418      2058      2059      2054
 -1       682    8    0    1
 -2       267       268       420      1601      2060      2061
 -1       683    8    0    1
 -2       267       420       419      2061      2062      2057
 -1       684    8    0    1
 -2       268       269       421      1604      2063      2064
 -1       685    8    0    1
 -2       268       421       420      2064      2065      2060
 -1       686    8    0    1
 -2       269       270       422      1607      2066      2067
 -1       687    8    0    1
 -2       269       422       421      2067      2068      2063
 -1       688    8    0    1
 -2       270       271       423      1610      2069      2070
 -1       689    8    0    1
 -2       270       423       422      2070      2071      2066
 -1       690    8    0    1
 -2       271       272       424      1613      2072      2073
 -1       691    8    0    1
 -2       271       424       423      2073      2074      2069
 -1       692    8    0    1
 -2       272       273       425      1616      2075      2076
 -1       693    8    0    1
 -2       272       425       424      2076      2077      2072
 -1       694    8    0    1
 -2       273       274       426      1619      2078      2079
 -1       695    8    0    1
 -2       273       426       425      2079      2080      2075
 -1       696    8    0    1
 -2       274       275       427      1622      2081      2082
 -1       697    8    0    1
 -2       274       427       426      2082      2083      2078
 -1       698    8    0    1
 -2       275       276       428      1625      2084      2085
 -1       699    8    0    1
 -2       427       275       428      2081      2085      2086
 -1       700    8    0    1
 -2       276       277       428      1735      2087      2084
 -1       701    8    0    1
 -2       279       280       429      1637      2088      2089
 -1       702    8    0    1
 -2       278       279       430      1634      2090      2091
 -1       703    8    0    1
 -2       279       429       430      2089      2092      2090
 -1       704    8    0    1
 -2       277       278       431      1631      2093      2094
 -1       705    8    0    1
 -2       428       277       431      2087      2094      2095
 -1       706    8    0    1
 -2       278       430       431      2091      2096      2093
 -1       707    8    0    1
 -2       280       281       432      1640      2097      2098
 -1       708    8    0    1
 -2       280       432       429      2098      2099      2088
 -1       709    8    0    1
 -2       281       282       433      1643      2100      2101
 -1       710    8    0    1
 -2       281       433       432      2101      2102      2097
 -1       711    8    0    1
 -2       282       283       434      1646      2103      2104
 -1       712    8    0    1
 -2       282       434       433      2104      2105      2100
 -1       713    8    0    1
 -2       283       284       435      1649      2106      2107
 -1       714    8    0    1
 -2       283       435       434      2107      2108      2103
 -1       715    8    0    1
 -2       284       285       436      1652      2109      2110
 -1       716    8    0    1
 -2       284       436       435      2110      2111      2106
 -1       717    8    0    1
 -2       285       286       437      1655      2112      2113
 -1       718    8    0    1
 -2       285       437       436      2113      2114      2109
 -1       719    8    0    1
 -2       286       287       438      1658      2115      2116
 -1       720    8    0    1
 -2       286       438       437      2116      2117      2112
 -1       721    8    0    1
 -2       287       288       439      1661      2118      2119
 -1       722    8    0    1
 -2       287       439       438      2119      2120      2115
 -1       723    8    0    1
 -2       288       289       440      1664      2121      2122
 -1       724    8    0    1
 -2       288       440       439      2122      2123      2118
 -1       725    8    0    1
 -2       289       290       441      1667      2124      2125
 -1       726    8    0    1
 -2       289       441       440      2125      2126      2121
 -1       727    8    0    1
 -2       293       294       442      1737      2127      2128
 -1       728    8    0    1
 -2       321       292       443      1738      2129      2130
 -1       729    8    0    1
 -2       292       293       444      1736      2131      2132
 -1       730    8    0    1
 -2       294       295       445      1733      2133      2134
 -1       731    8    0    1
 -2       294       445       442      2134      2135      2127
 -1       732    8    0    1
 -2       295       296       446      1732      2136      2137
 -1       733    8    0    1
 -2       167       168       447      1299      2138      2139
 -1       734    8    0    1
 -2       322       167       447      1765      2139      2140
 -1       735    8    0    1
 -2       168       324       447      1771      2141      2138
 -1       736    8    0    1
 -2       297       298       448      1740      2142      2143
 -1       737    8    0    1
 -2       298       299       449      1741      2144      2145
 -1       738    8    0    1
 -2       299       300       450      1742      2146      2147
 -1       739    8    0    1
 -2       299       450       449      2147      2148      2144
 -1       740    8    0    1
 -2       300       301       451      1743      2149      2150
 -1       741    8    0    1
 -2       301       302       452      1744      2151      2152
 -1       742    8    0    1
 -2       302       303       453      1745      2153      2154
 -1       743    8    0    1
 -2       303       304       454      1746      2155      2156
 -1       744    8    0    1
 -2       304       305       455      1747      2157      2158
 -1       745    8    0    1
 -2       305       306       456      1748      2159      2160
 -1       746    8    0    1
 -2       306       307       457      1749      2161      2162
 -1       747    8    0    1
 -2       307       308       458      1750      2163      2164
 -1       748    8    0    1
 -2       308       309       459      1751      2165      2166
 -1       749    8    0    1
 -2       309       310       460      1752      2167      2168
 -1       750    8    0    1
 -2       310       311       461      1753      2169      2170
 -1       751    8    0    1
 -2       311       312       462      1754      2171      2172
 -1       752    8    0    1
 -2       312       313       463      1755      2173      2174
 -1       753    8    0    1
 -2       313       314       464      1756      2175      2176
 -1       754    8    0    1
 -2       313       464       463      2176      2177      2173
 -1       755    8    0    1
 -2       314       315       465      1757      2178      2179
 -1       756    8    0    1
 -2       315       316       466      1758      2180      2181
 -1       757    8    0    1
 -2       316       317       467      1759      2182      2183
 -1       758    8    0    1
 -2       317       318       468      1760      2184      2185
 -1       759    8    0    1
 -2       318       319       469      1761      2186      2187
 -1       760    8    0    1
 -2       319       320       470      1762      2188      2189
 -1       761    8    0    1
 -2       320       321       471      1763      2190      2191
 -1       762    8    0    1
 -2       296       297       472      1739      2192      2193
 -1       763    8    0    1
 -2       296       472       446      2193      2194      2136
 -1       764    8    0    1
 -2       445       295       446      2133      2137      2195
 -1       765    8    0    1
 -2       181       323       182      1810      2196      1341
 -1       766    8    0    1
 -2       297       448       472      2143      2197      2192
 -1       767    8    0    1
 -2       337       182       323      1811      2196      2198
 -1       768    8    0    1
 -2       444       293       442      2131      2128      2199
 -1       769    8    0    1
 -2       443       292       444      2129      2132      2200
 -1       770    8    0    1
 -2       441       290       291      2124      1670      2201
 -1       771    8    0    1
 -2       321       443       471      2130      2202      2190
 -1       772    8    0    1
 -2       470       320       471      2188      2191      2203
 -1       773    8    0    1
 -2       469       319       470      2186      2189      2204
 -1       774    8    0    1
 -2       468       318       469      2184      2187      2205
 -1       775    8    0    1
 -2       467       317       468      2182      2185      2206
 -1       776    8    0    1
 -2       466       316       467      2180      2183      2207
 -1       777    8    0    1
 -2       464       314       465      2175      2179      2208
 -1       778    8    0    1
 -2       462       312       463      2171      2174      2209
 -1       779    8    0    1
 -2       461       311       462      2169      2172      2210
 -1       780    8    0    1
 -2       460       310       461      2167      2170      2211
 -1       781    8    0    1
 -2       459       309       460      2165      2168      2212
 -1       782    8    0    1
 -2       458       308       459      2163      2166      2213
 -1       783    8    0    1
 -2       457       307       458      2161      2164      2214
 -1       784    8    0    1
 -2       456       306       457      2159      2162      2215
 -1       785    8    0    1
 -2       455       305       456      2157      2160      2216
 -1       786    8    0    1
 -2       454       304       455      2155      2158      2217
 -1       787    8    0    1
 -2       453       303       454      2153      2156      2218
 -1       788    8    0    1
 -2       452       302       453      2151      2154      2219
 -1       789    8    0    1
 -2       450       300       451      2146      2150      2220
 -1       790    8    0    1
 -2       448       298       473      2142      2221      2222
 -1       791    8    0    1
 -2       298       449       473      2145      2223      2221
 -1       792    8    0    1
 -2       451       301       452      2149      2152      2224
 -1       793    8    0    1
 -2       465       315       466      2178      2181      2225
 -1       794    8    0    1
 -2       336       383       474      1951      2226      2227
 -1       795    8    0    1
 -2       325       326       475      1777      2228      2229
 -1       796    8    0    1
 -2       324       325       476      1774      2230      2231
 -1       797    8    0    1
 -2       325       475       476      2229      2232      2230
 -1       798    8    0    1
 -2       327       328       477      1783      2233      2234
 -1       799    8    0    1
 -2       328       329       478      1786      2235      2236
 -1       800    8    0    1
 -2       328       478       477      2236      2237      2233
 -1       801    8    0    1
 -2       329       330       479      1789      2238      2239
 -1       802    8    0    1
 -2       329       479       478      2239      2240      2235
 -1       803    8    0    1
 -2       330       331       480      1792      2241      2242
 -1       804    8    0    1
 -2       330       480       479      2242      2243      2238
 -1       805    8    0    1
 -2       331       332       481      1795      2244      2245
 -1       806    8    0    1
 -2       331       481       480      2245      2246      2241
 -1       807    8    0    1
 -2       332       333       482      1798      2247      2248
 -1       808    8    0    1
 -2       332       482       481      2248      2249      2244
 -1       809    8    0    1
 -2       383       384       483      1954      2250      2251
 -1       810    8    0    1
 -2       383       483       474      2251      2252      2226
 -1       811    8    0    1
 -2       338       337       484      1815      2253      2254
 -1       812    8    0    1
 -2       472       448       485      2197      2255      2256
 -1       813    8    0    1
 -2       339       338       486      1818      2257      2258
 -1       814    8    0    1
 -2       338       484       486      2254      2259      2257
 -1       815    8    0    1
 -2       340       339       487      1821      2260      2261
 -1       816    8    0    1
 -2       339       486       487      2258      2262      2260
 -1       817    8    0    1
 -2       341       340       488      1824      2263      2264
 -1       818    8    0    1
 -2       340       487       488      2261      2265      2263
 -1       819    8    0    1
 -2       342       341       489      1827      2266      2267
 -1       820    8    0    1
 -2       341       488       489      2264      2268      2266
 -1       821    8    0    1
 -2       343       342       490      1830      2269      2270
 -1       822    8    0    1
 -2       342       489       490      2267      2271      2269
 -1       823    8    0    1
 -2       344       343       491      1833      2272      2273
 -1       824    8    0    1
 -2       343       490       491      2270      2274      2272
 -1       825    8    0    1
 -2       345       344       492      1836      2275      2276
 -1       826    8    0    1
 -2       344       491       492      2273      2277      2275
 -1       827    8    0    1
 -2       346       345       493      1839      2278      2279
 -1       828    8    0    1
 -2       345       492       493      2276      2280      2278
 -1       829    8    0    1
 -2       347       346       494      1842      2281      2282
 -1       830    8    0    1
 -2       346       493       494      2279      2283      2281
 -1       831    8    0    1
 -2       348       347       495      1845      2284      2285
 -1       832    8    0    1
 -2       347       494       495      2282      2286      2284
 -1       833    8    0    1
 -2       349       348       496      1848      2287      2288
 -1       834    8    0    1
 -2       348       495       496      2285      2289      2287
 -1       835    8    0    1
 -2       350       349       497      1851      2290      2291
 -1       836    8    0    1
 -2       349       496       497      2288      2292      2290
 -1       837    8    0    1
 -2       351       350       498      1854      2293      2294
 -1       838    8    0    1
 -2       350       497       498      2291      2295      2293
 -1       839    8    0    1
 -2       352       351       499      1857      2296      2297
 -1       840    8    0    1
 -2       351       498       499      2294      2298      2296
 -1       841    8    0    1
 -2       353       352       500      1860      2299      2300
 -1       842    8    0    1
 -2       352       499       500      2297      2301      2299
 -1       843    8    0    1
 -2       354       353       501      1863      2302      2303
 -1       844    8    0    1
 -2       353       500       501      2300      2304      2302
 -1       845    8    0    1
 -2       355       354       502      1866      2305      2306
 -1       846    8    0    1
 -2       354       501       502      2303      2307      2305
 -1       847    8    0    1
 -2       356       355       503      1869      2308      2309
 -1       848    8    0    1
 -2       355       502       503      2306      2310      2308
 -1       849    8    0    1
 -2       357       356       504      1872      2311      2312
 -1       850    8    0    1
 -2       356       503       504      2309      2313      2311
 -1       851    8    0    1
 -2       358       357       505      1875      2314      2315
 -1       852    8    0    1
 -2       357       504       505      2312      2316      2314
 -1       853    8    0    1
 -2       359       358       506      1878      2317      2318
 -1       854    8    0    1
 -2       358       505       506      2315      2319      2317
 -1       855    8    0    1
 -2       360       359       507      1881      2320      2321
 -1       856    8    0    1
 -2       359       506       507      2318      2322      2320
 -1       857    8    0    1
 -2       361       360       508      1884      2323      2324
 -1       858    8    0    1
 -2       360       507       508      2321      2325      2323
 -1       859    8    0    1
 -2       362       361       509      1887      2326      2327
 -1       860    8    0    1
 -2       361       508       509      2324      2328      2326
 -1       861    8    0    1
 -2       363       362       510      1890      2329      2330
 -1       862    8    0    1
 -2       362       509       510      2327      2331      2329
 -1       863    8    0    1
 -2       364       363       511      1893      2332      2333
 -1       864    8    0    1
 -2       363       510       511      2330      2334      2332
 -1       865    8    0    1
 -2       365       364       512      1896      2335      2336
 -1       866    8    0    1
 -2       364       511       512      2333      2337      2335
 -1       867    8    0    1
 -2       366       365       513      1899      2338      2339
 -1       868    8    0    1
 -2       365       512       513      2336      2340      2338
 -1       869    8    0    1
 -2       367       366       514      1902      2341      2342
 -1       870    8    0    1
 -2       366       513       514      2339      2343      2341
 -1       871    8    0    1
 -2       368       367       515      1905      2344      2345
 -1       872    8    0    1
 -2       367       514       515      2342      2346      2344
 -1       873    8    0    1
 -2       369       368       516      1908      2347      2348
 -1       874    8    0    1
 -2       368       515       516      2345      2349      2347
 -1       875    8    0    1
 -2       370       369       517      1911      2350      2351
 -1       876    8    0    1
 -2       369       516       517      2348      2352      2350
 -1       877    8    0    1
 -2       371       370       518      1914      2353      2354
 -1       878    8    0    1
 -2       370       517       518      2351      2355      2353
 -1       879    8    0    1
 -2       372       371       519      1917      2356      2357
 -1       880    8    0    1
 -2       371       518       519      2354      2358      2356
 -1       881    8    0    1
 -2       373       372       520      1920      2359      2360
 -1       882    8    0    1
 -2       372       519       520      2357      2361      2359
 -1       883    8    0    1
 -2       374       373       521      1923      2362      2363
 -1       884    8    0    1
 -2       373       520       521      2360      2364      2362
 -1       885    8    0    1
 -2       375       374       522      1926      2365      2366
 -1       886    8    0    1
 -2       374       521       522      2363      2367      2365
 -1       887    8    0    1
 -2       376       375       523      1929      2368      2369
 -1       888    8    0    1
 -2       375       522       523      2366      2370      2368
 -1       889    8    0    1
 -2       377       376       524      1932      2371      2372
 -1       890    8    0    1
 -2       376       523       524      2369      2373      2371
 -1       891    8    0    1
 -2       378       377       525      1935      2374      2375
 -1       892    8    0    1
 -2       377       524       525      2372      2376      2374
 -1       893    8    0    1
 -2       379       378       526      1938      2377      2378
 -1       894    8    0    1
 -2       378       525       526      2375      2379      2377
 -1       895    8    0    1
 -2       380       379       527      1941      2380      2381
 -1       896    8    0    1
 -2       379       526       527      2378      2382      2380
 -1       897    8    0    1
 -2       381       380       528      1944      2383      2384
 -1       898    8    0    1
 -2       380       527       528      2381      2385      2383
 -1       899    8    0    1
 -2       385       386       529      1960      2386      2387
 -1       900    8    0    1
 -2       386       387       530      1963      2388      2389
 -1       901    8    0    1
 -2       386       530       529      2389      2390      2386
 -1       902    8    0    1
 -2       387       388       531      1966      2391      2392
 -1       903    8    0    1
 -2       387       531       530      2392      2393      2388
 -1       904    8    0    1
 -2       388       389       532      1969      2394      2395
 -1       905    8    0    1
 -2       388       532       531      2395      2396      2391
 -1       906    8    0    1
 -2       389       390       533      1972      2397      2398
 -1       907    8    0    1
 -2       389       533       532      2398      2399      2394
 -1       908    8    0    1
 -2       390       391       534      1975      2400      2401
 -1       909    8    0    1
 -2       390       534       533      2401      2402      2397
 -1       910    8    0    1
 -2       391       392       535      1978      2403      2404
 -1       911    8    0    1
 -2       391       535       534      2404      2405      2400
 -1       912    8    0    1
 -2       392       393       536      1981      2406      2407
 -1       913    8    0    1
 -2       392       536       535      2407      2408      2403
 -1       914    8    0    1
 -2       393       394       537      1984      2409      2410
 -1       915    8    0    1
 -2       393       537       536      2410      2411      2406
 -1       916    8    0    1
 -2       394       395       538      1987      2412      2413
 -1       917    8    0    1
 -2       394       538       537      2413      2414      2409
 -1       918    8    0    1
 -2       395       396       539      1990      2415      2416
 -1       919    8    0    1
 -2       395       539       538      2416      2417      2412
 -1       920    8    0    1
 -2       396       397       540      1993      2418      2419
 -1       921    8    0    1
 -2       396       540       539      2419      2420      2415
 -1       922    8    0    1
 -2       397       398       541      1996      2421      2422
 -1       923    8    0    1
 -2       397       541       540      2422      2423      2418
 -1       924    8    0    1
 -2       398       399       542      1999      2424      2425
 -1       925    8    0    1
 -2       398       542       541      2425      2426      2421
 -1       926    8    0    1
 -2       399       400       543      2002      2427      2428
 -1       927    8    0    1
 -2       399       543       542      2428      2429      2424
 -1       928    8    0    1
 -2       400       401       544      2005      2430      2431
 -1       929    8    0    1
 -2       400       544       543      2431      2432      2427
 -1       930    8    0    1
 -2       401       402       545      2008      2433      2434
 -1       931    8    0    1
 -2       401       545       544      2434      2435      2430
 -1       932    8    0    1
 -2       402       403       546      2011      2436      2437
 -1       933    8    0    1
 -2       402       546       545      2437      2438      2433
 -1       934    8    0    1
 -2       403       404       547      2014      2439      2440
 -1       935    8    0    1
 -2       403       547       546      2440      2441      2436
 -1       936    8    0    1
 -2       404       405       548      2017      2442      2443
 -1       937    8    0    1
 -2       404       548       547      2443      2444      2439
 -1       938    8    0    1
 -2       405       406       549      2020      2445      2446
 -1       939    8    0    1
 -2       405       549       548      2446      2447      2442
 -1       940    8    0    1
 -2       406       407       550      2023      2448      2449
 -1       941    8    0    1
 -2       406       550       549      2449      2450      2445
 -1       942    8    0    1
 -2       407       408       551      2026      2451      2452
 -1       943    8    0    1
 -2       407       551       550      2452      2453      2448
 -1       944    8    0    1
 -2       408       409       552      2029      2454      2455
 -1       945    8    0    1
 -2       408       552       551      2455      2456      2451
 -1       946    8    0    1
 -2       409       410       553      2032      2457      2458
 -1       947    8    0    1
 -2       409       553       552      2458      2459      2454
 -1       948    8    0    1
 -2       410       411       554      2035      2460      2461
 -1       949    8    0    1
 -2       410       554       553      2461      2462      2457
 -1       950    8    0    1
 -2       411       412       555      2038      2463      2464
 -1       951    8    0    1
 -2       411       555       554      2464      2465      2460
 -1       952    8    0    1
 -2       412       413       556      2041      2466      2467
 -1       953    8    0    1
 -2       412       556       555      2467      2468      2463
 -1       954    8    0    1
 -2       413       414       557      2044      2469      2470
 -1       955    8    0    1
 -2       413       557       556      2470      2471      2466
 -1       956    8    0    1
 -2       414       415       558      2047      2472      2473
 -1       957    8    0    1
 -2       414       558       557      2473      2474      2469
 -1       958    8    0    1
 -2       415       416       559      2050      2475      2476
 -1       959    8    0    1
 -2       415       559       558      2476      2477      2472
 -1       960    8    0    1
 -2       416       417       560      2053      2478      2479
 -1       961    8    0    1
 -2       416       560       559      2479      2480      2475
 -1       962    8    0    1
 -2       417       418       561      2056      2481      2482
 -1       963    8    0    1
 -2       417       561       560      2482      2483      2478
 -1       964    8    0    1
 -2       418       419       562      2059      2484      2485
 -1       965    8    0    1
 -2       418       562       561      2485      2486      2481
 -1       966    8    0    1
 -2       419       420       563      2062      2487      2488
 -1       967    8    0    1
 -2       419       563       562      2488      2489      2484
 -1       968    8    0    1
 -2       420       421       564      2065      2490      2491
 -1       969    8    0    1
 -2       420       564       563      2491      2492      2487
 -1       970    8    0    1
 -2       421       422       565      2068      2493      2494
 -1       971    8    0    1
 -2       421       565       564      2494      2495      2490
 -1       972    8    0    1
 -2       422       423       566      2071      2496      2497
 -1       973    8    0    1
 -2       422       566       565      2497      2498      2493
 -1       974    8    0    1
 -2       423       424       567      2074      2499      2500
 -1       975    8    0    1
 -2       423       567       566      2500      2501      2496
 -1       976    8    0    1
 -2       424       425       568      2077      2502      2503
 -1       977    8    0    1
 -2       424       568       567      2503      2504      2499
 -1       978    8    0    1
 -2       425       426       569      2080      2505      2506
 -1       979    8    0    1
 -2       425       569       568      2506      2507      2502
 -1       980    8    0    1
 -2       426       427       570      2083      2508      2509
 -1       981    8    0    1
 -2       426       570       569      2509      2510      2505
 -1       982    8    0    1
 -2       427       428       431      2086      2095      2511
 -1       983    8    0    1
 -2       432       433       571      2102      2512      2513
 -1       984    8    0    1
 -2       433       434       572      2105      2514      2515
 -1       985    8    0    1
 -2       433       572       571      2515      2516      2512
 -1       986    8    0    1
 -2       430       429       573      2092      2517      2518
 -1       987    8    0    1
 -2       429       432       574      2099      2519      2520
 -1       988    8    0    1
 -2       573       429       574      2517      2520      2521
 -1       989    8    0    1
 -2       432       571       574      2513      2522      2519
 -1       990    8    0    1
 -2       434       435       575      2108      2523      2524
 -1       991    8    0    1
 -2       434       575       572      2524      2525      2514
 -1       992    8    0    1
 -2       435       436       576      2111      2526      2527
 -1       993    8    0    1
 -2       435       576       575      2527      2528      2523
 -1       994    8    0    1
 -2       436       437       577      2114      2529      2530
 -1       995    8    0    1
 -2       436       577       576      2530      2531      2526
 -1       996    8    0    1
 -2       437       438       578      2117      2532      2533
 -1       997    8    0    1
 -2       437       578       577      2533      2534      2529
 -1       998    8    0    1
 -2       438       439       579      2120      2535      2536
 -1       999    8    0    1
 -2       438       579       578      2536      2537      2532
 -1      1000    8    0    1
 -2       439       440       580      2123      2538      2539
 -1      1001    8    0    1
 -2       439       580       579      2539      2540      2535
 -1      1002    8    0    1
 -2       440       441       581      2126      2541      2542
 -1      1003    8    0    1
 -2       440       581       580      2542      2543      2538
 -1      1004    8    0    1
 -2       443       444       582      2200      2544      2545
 -1      1005    8    0    1
 -2       444       442       583      2199      2546      2547
 -1      1006    8    0    1
 -2       471       443       584      2202      2548      2549
 -1      1007    8    0    1
 -2       384       385       585      1957      2550      2551
 -1      1008    8    0    1
 -2       385       529       585      2387      2552      2550
 -1      1009    8    0    1
 -2       441       291       382      2201      1947      2553
 -1      1010    8    0    1
 -2       442       445       586      2135      2554      2555
 -1      1011    8    0    1
 -2       445       446       587      2195      2556      2557
 -1      1012    8    0    1
 -2       337       323       588      2198      2558      2559
 -1      1013    8    0    1
 -2       484       337       588      2253      2559      2560
 -1      1014    8    0    1
 -2       323       322       588      1769      2561      2558
 -1      1015    8    0    1
 -2       470       471       589      2203      2562      2563
 -1      1016    8    0    1
 -2       462       463       590      2209      2564      2565
 -1      1017    8    0    1
 -2       326       327       591      1780      2566      2567
 -1      1018    8    0    1
 -2       475       326       591      2228      2567      2568
 -1      1019    8    0    1
 -2       327       477       591      2234      2569      2566
 -1      1020    8    0    1
 -2       451       452       592      2224      2570      2571
 -1      1021    8    0    1
 -2       449       450       593      2148      2572      2573
 -1      1022    8    0    1
 -2       465       466       594      2225      2574      2575
 -1      1023    8    0    1
 -2       450       451       595      2220      2576      2577
 -1      1024    8    0    1
 -2       452       453       596      2219      2578      2579
 -1      1025    8    0    1
 -2       452       596       592      2579      2580      2570
 -1      1026    8    0    1
 -2       453       454       597      2218      2581      2582
 -1      1027    8    0    1
 -2       454       455       598      2217      2583      2584
 -1      1028    8    0    1
 -2       455       456       599      2216      2585      2586
 -1      1029    8    0    1
 -2       456       457       600      2215      2587      2588
 -1      1030    8    0    1
 -2       457       458       601      2214      2589      2590
 -1      1031    8    0    1
 -2       458       459       602      2213      2591      2592
 -1      1032    8    0    1
 -2       459       460       603      2212      2593      2594
 -1      1033    8    0    1
 -2       460       461       604      2211      2595      2596
 -1      1034    8    0    1
 -2       461       462       605      2210      2597      2598
 -1      1035    8    0    1
 -2       463       464       606      2177      2599      2600
 -1      1036    8    0    1
 -2       464       465       607      2208      2601      2602
 -1      1037    8    0    1
 -2       466       467       608      2207      2603      2604
 -1      1038    8    0    1
 -2       466       608       594      2604      2605      2574
 -1      1039    8    0    1
 -2       467       468       609      2206      2606      2607
 -1      1040    8    0    1
 -2       468       469       610      2205      2608      2609
 -1      1041    8    0    1
 -2       469       470       611      2204      2610      2611
 -1      1042    8    0    1
 -2       446       472       612      2194      2612      2613
 -1      1043    8    0    1
 -2       335       336       613      1809      2614      2615
 -1      1044    8    0    1
 -2       334       335       613      1804      2615      2616
 -1      1045    8    0    1
 -2       336       474       613      2227      2617      2614
 -1      1046    8    0    1
 -2       451       592       595      2571      2618      2576
 -1      1047    8    0    1
 -2       324       476       614      2231      2619      2620
 -1      1048    8    0    1
 -2       324       614       447      2620      2621      2141
 -1      1049    8    0    1
 -2       483       384       585      2250      2551      2622
 -1      1050    8    0    1
 -2       333       334       613      1801      2616      2623
 -1      1051    8    0    1
 -2       611       470       589      2610      2563      2624
 -1      1052    8    0    1
 -2       610       469       611      2608      2611      2625
 -1      1053    8    0    1
 -2       589       471       584      2562      2549      2626
 -1      1054    8    0    1
 -2       472       485       612      2256      2627      2612
 -1      1055    8    0    1
 -2       608       467       609      2603      2607      2628
 -1      1056    8    0    1
 -2       607       465       594      2601      2575      2629
 -1      1057    8    0    1
 -2       442       586       583      2555      2630      2546
 -1      1058    8    0    1
 -2       606       464       607      2599      2602      2631
 -1      1059    8    0    1
 -2       427       431       570      2511      2632      2508
 -1      1060    8    0    1
 -2       431       430       570      2096      2633      2632
 -1      1061    8    0    1
 -2       605       462       590      2597      2565      2634
 -1      1062    8    0    1
 -2       443       582       584      2545      2635      2548
 -1      1063    8    0    1
 -2       582       444       583      2544      2547      2636
 -1      1064    8    0    1
 -2       604       461       605      2595      2598      2637
 -1      1065    8    0    1
 -2       333       613       482      2623      2638      2247
 -1      1066    8    0    1
 -2       587       446       612      2556      2613      2639
 -1      1067    8    0    1
 -2       603       460       604      2593      2596      2640
 -1      1068    8    0    1
 -2       586       445       587      2554      2557      2641
 -1      1069    8    0    1
 -2       590       463       606      2564      2600      2642
 -1      1070    8    0    1
 -2       602       459       603      2591      2594      2643
 -1      1071    8    0    1
 -2       601       458       602      2589      2592      2644
 -1      1072    8    0    1
 -2       600       457       601      2587      2590      2645
 -1      1073    8    0    1
 -2       599       456       600      2585      2588      2646
 -1      1074    8    0    1
 -2       598       455       615      2583      2647      2648
 -1      1075    8    0    1
 -2       455       599       615      2586      2649      2647
 -1      1076    8    0    1
 -2       596       453       597      2578      2582      2650
 -1      1077    8    0    1
 -2       588       322       447      2561      2140      2651
 -1      1078    8    0    1
 -2       485       448       616      2255      2652      2653
 -1      1079    8    0    1
 -2       448       473       616      2222      2654      2652
 -1      1080    8    0    1
 -2       473       449       593      2223      2573      2655
 -1      1081    8    0    1
 -2       593       450       595      2572      2577      2656
 -1      1082    8    0    1
 -2       597       454       598      2581      2584      2657
 -1      1083    8    0    1
 -2       441       382       617      2553      2658      2659
 -1      1084    8    0    1
 -2       581       441       617      2541      2659      2660
 -1      1085    8    0    1
 -2       382       381       617      1948      2661      2658
 -1      1086    8    0    1
 -2       609       468       610      2606      2609      2662
 -1      1087    8    0    1
 -2       570       430       573      2633      2518      2663
 -1      1088    8    0    1
 -2       617       381       528      2661      2384      2664
 -1      1089    8    0    1
 -2       478       479       618      2240      2665      2666
 -1      1090    8    0    1
 -2       477       478       619      2237      2667      2668
 -1      1091    8    0    1
 -2       478       618       619      2666      2669      2667
 -1      1092    8    0    1
 -2       480       481       620      2246      2670      2671
 -1      1093    8    0    1
 -2       481       482       621      2249      2672      2673
 -1      1094    8    0    1
 -2       481       621       620      2673      2674      2670
 -1      1095    8    0    1
 -2       474       483       622      2252      2675      2676
 -1      1096    8    0    1
 -2       587       612       623      2639      2677      2678
 -1      1097    8    0    1
 -2       483       585       624      2622      2679      2680
 -1      1098    8    0    1
 -2       483       624       622      2680      2681      2675
 -1      1099    8    0    1
 -2       487       486       625      2262      2682      2683
 -1      1100    8    0    1
 -2       488       487       626      2265      2684      2685
 -1      1101    8    0    1
 -2       487       625       626      2683      2686      2684
 -1      1102    8    0    1
 -2       489       488       627      2268      2687      2688
 -1      1103    8    0    1
 -2       488       626       627      2685      2689      2687
 -1      1104    8    0    1
 -2       490       489       628      2271      2690      2691
 -1      1105    8    0    1
 -2       489       627       628      2688      2692      2690
 -1      1106    8    0    1
 -2       491       490       629      2274      2693      2694
 -1      1107    8    0    1
 -2       490       628       629      2691      2695      2693
 -1      1108    8    0    1
 -2       492       491       630      2277      2696      2697
 -1      1109    8    0    1
 -2       491       629       630      2694      2698      2696
 -1      1110    8    0    1
 -2       493       492       631      2280      2699      2700
 -1      1111    8    0    1
 -2       492       630       631      2697      2701      2699
 -1      1112    8    0    1
 -2       494       493       632      2283      2702      2703
 -1      1113    8    0    1
 -2       493       631       632      2700      2704      2702
 -1      1114    8    0    1
 -2       495       494       633      2286      2705      2706
 -1      1115    8    0    1
 -2       494       632       633      2703      2707      2705
 -1      1116    8    0    1
 -2       496       495       634      2289      2708      2709
 -1      1117    8    0    1
 -2       495       633       634      2706      2710      2708
 -1      1118    8    0    1
 -2       497       496       635      2292      2711      2712
 -1      1119    8    0    1
 -2       496       634       635      2709      2713      2711
 -1      1120    8    0    1
 -2       498       497       636      2295      2714      2715
 -1      1121    8    0    1
 -2       497       635       636      2712      2716      2714
 -1      1122    8    0    1
 -2       499       498       637      2298      2717      2718
 -1      1123    8    0    1
 -2       498       636       637      2715      2719      2717
 -1      1124    8    0    1
 -2       500       499       638      2301      2720      2721
 -1      1125    8    0    1
 -2       499       637       638      2718      2722      2720
 -1      1126    8    0    1
 -2       501       500       639      2304      2723      2724
 -1      1127    8    0    1
 -2       500       638       639      2721      2725      2723
 -1      1128    8    0    1
 -2       502       501       640      2307      2726      2727
 -1      1129    8    0    1
 -2       501       639       640      2724      2728      2726
 -1      1130    8    0    1
 -2       503       502       641      2310      2729      2730
 -1      1131    8    0    1
 -2       502       640       641      2727      2731      2729
 -1      1132    8    0    1
 -2       504       503       642      2313      2732      2733
 -1      1133    8    0    1
 -2       503       641       642      2730      2734      2732
 -1      1134    8    0    1
 -2       505       504       643      2316      2735      2736
 -1      1135    8    0    1
 -2       504       642       643      2733      2737      2735
 -1      1136    8    0    1
 -2       506       505       644      2319      2738      2739
 -1      1137    8    0    1
 -2       505       643       644      2736      2740      2738
 -1      1138    8    0    1
 -2       507       506       645      2322      2741      2742
 -1      1139    8    0    1
 -2       506       644       645      2739      2743      2741
 -1      1140    8    0    1
 -2       508       507       646      2325      2744      2745
 -1      1141    8    0    1
 -2       507       645       646      2742      2746      2744
 -1      1142    8    0    1
 -2       509       508       647      2328      2747      2748
 -1      1143    8    0    1
 -2       508       646       647      2745      2749      2747
 -1      1144    8    0    1
 -2       510       509       648      2331      2750      2751
 -1      1145    8    0    1
 -2       509       647       648      2748      2752      2750
 -1      1146    8    0    1
 -2       511       510       649      2334      2753      2754
 -1      1147    8    0    1
 -2       510       648       649      2751      2755      2753
 -1      1148    8    0    1
 -2       512       511       650      2337      2756      2757
 -1      1149    8    0    1
 -2       511       649       650      2754      2758      2756
 -1      1150    8    0    1
 -2       513       512       651      2340      2759      2760
 -1      1151    8    0    1
 -2       512       650       651      2757      2761      2759
 -1      1152    8    0    1
 -2       514       513       652      2343      2762      2763
 -1      1153    8    0    1
 -2       513       651       652      2760      2764      2762
 -1      1154    8    0    1
 -2       515       514       653      2346      2765      2766
 -1      1155    8    0    1
 -2       514       652       653      2763      2767      2765
 -1      1156    8    0    1
 -2       516       515       654      2349      2768      2769
 -1      1157    8    0    1
 -2       515       653       654      2766      2770      2768
 -1      1158    8    0    1
 -2       517       516       655      2352      2771      2772
 -1      1159    8    0    1
 -2       516       654       655      2769      2773      2771
 -1      1160    8    0    1
 -2       518       517       656      2355      2774      2775
 -1      1161    8    0    1
 -2       517       655       656      2772      2776      2774
 -1      1162    8    0    1
 -2       519       518       657      2358      2777      2778
 -1      1163    8    0    1
 -2       518       656       657      2775      2779      2777
 -1      1164    8    0    1
 -2       520       519       658      2361      2780      2781
 -1      1165    8    0    1
 -2       519       657       658      2778      2782      2780
 -1      1166    8    0    1
 -2       521       520       659      2364      2783      2784
 -1      1167    8    0    1
 -2       520       658       659      2781      2785      2783
 -1      1168    8    0    1
 -2       522       521       660      2367      2786      2787
 -1      1169    8    0    1
 -2       521       659       660      2784      2788      2786
 -1      1170    8    0    1
 -2       523       522       661      2370      2789      2790
 -1      1171    8    0    1
 -2       522       660       661      2787      2791      2789
 -1      1172    8    0    1
 -2       524       523       662      2373      2792      2793
 -1      1173    8    0    1
 -2       523       661       662      2790      2794      2792
 -1      1174    8    0    1
 -2       525       524       663      2376      2795      2796
 -1      1175    8    0    1
 -2       524       662       663      2793      2797      2795
 -1      1176    8    0    1
 -2       526       525       664      2379      2798      2799
 -1      1177    8    0    1
 -2       525       663       664      2796      2800      2798
 -1      1178    8    0    1
 -2       527       526       665      2382      2801      2802
 -1      1179    8    0    1
 -2       526       664       665      2799      2803      2801
 -1      1180    8    0    1
 -2       528       527       666      2385      2804      2805
 -1      1181    8    0    1
 -2       527       665       666      2802      2806      2804
 -1      1182    8    0    1
 -2       530       531       667      2393      2807      2808
 -1      1183    8    0    1
 -2       609       610       668      2662      2809      2810
 -1      1184    8    0    1
 -2       529       530       669      2390      2811      2812
 -1      1185    8    0    1
 -2       530       667       669      2808      2813      2811
 -1      1186    8    0    1
 -2       532       533       670      2399      2814      2815
 -1      1187    8    0    1
 -2       533       534       671      2402      2816      2817
 -1      1188    8    0    1
 -2       533       671       670      2817      2818      2814
 -1      1189    8    0    1
 -2       534       535       672      2405      2819      2820
 -1      1190    8    0    1
 -2       534       672       671      2820      2821      2816
 -1      1191    8    0    1
 -2       535       536       673      2408      2822      2823
 -1      1192    8    0    1
 -2       535       673       672      2823      2824      2819
 -1      1193    8    0    1
 -2       536       537       674      2411      2825      2826
 -1      1194    8    0    1
 -2       536       674       673      2826      2827      2822
 -1      1195    8    0    1
 -2       537       538       675      2414      2828      2829
 -1      1196    8    0    1
 -2       537       675       674      2829      2830      2825
 -1      1197    8    0    1
 -2       538       539       676      2417      2831      2832
 -1      1198    8    0    1
 -2       538       676       675      2832      2833      2828
 -1      1199    8    0    1
 -2       539       540       677      2420      2834      2835
 -1      1200    8    0    1
 -2       539       677       676      2835      2836      2831
 -1      1201    8    0    1
 -2       540       541       678      2423      2837      2838
 -1      1202    8    0    1
 -2       540       678       677      2838      2839      2834
 -1      1203    8    0    1
 -2       541       542       679      2426      2840      2841
 -1      1204    8    0    1
 -2       541       679       678      2841      2842      2837
 -1      1205    8    0    1
 -2       542       543       680      2429      2843      2844
 -1      1206    8    0    1
 -2       542       680       679      2844      2845      2840
 -1      1207    8    0    1
 -2       543       544       681      2432      2846      2847
 -1      1208    8    0    1
 -2       543       681       680      2847      2848      2843
 -1      1209    8    0    1
 -2       544       545       682      2435      2849      2850
 -1      1210    8    0    1
 -2       544       682       681      2850      2851      2846
 -1      1211    8    0    1
 -2       545       546       683      2438      2852      2853
 -1      1212    8    0    1
 -2       545       683       682      2853      2854      2849
 -1      1213    8    0    1
 -2       546       547       684      2441      2855      2856
 -1      1214    8    0    1
 -2       546       684       683      2856      2857      2852
 -1      1215    8    0    1
 -2       547       548       685      2444      2858      2859
 -1      1216    8    0    1
 -2       547       685       684      2859      2860      2855
 -1      1217    8    0    1
 -2       548       549       686      2447      2861      2862
 -1      1218    8    0    1
 -2       548       686       685      2862      2863      2858
 -1      1219    8    0    1
 -2       549       550       687      2450      2864      2865
 -1      1220    8    0    1
 -2       549       687       686      2865      2866      2861
 -1      1221    8    0    1
 -2       550       551       688      2453      2867      2868
 -1      1222    8    0    1
 -2       550       688       687      2868      2869      2864
 -1      1223    8    0    1
 -2       551       552       689      2456      2870      2871
 -1      1224    8    0    1
 -2       551       689       688      2871      2872      2867
 -1      1225    8    0    1
 -2       552       553       690      2459      2873      2874
 -1      1226    8    0    1
 -2       552       690       689      2874      2875      2870
 -1      1227    8    0    1
 -2       553       554       691      2462      2876      2877
 -1      1228    8    0    1
 -2       553       691       690      2877      2878      2873
 -1      1229    8    0    1
 -2       554       555       692      2465      2879      2880
 -1      1230    8    0    1
 -2       554       692       691      2880      2881      2876
 -1      1231    8    0    1
 -2       555       556       693      2468      2882      2883
 -1      1232    8    0    1
 -2       555       693       692      2883      2884      2879
 -1      1233    8    0    1
 -2       556       557       694      2471      2885      2886
 -1      1234    8    0    1
 -2       556       694       693      2886      2887      2882
 -1      1235    8    0    1
 -2       557       558       695      2474      2888      2889
 -1      1236    8    0    1
 -2       557       695       694      2889      2890      2885
 -1      1237    8    0    1
 -2       558       559       696      2477      2891      2892
 -1      1238    8    0    1
 -2       558       696       695      2892      2893      2888
 -1      1239    8    0    1
 -2       559       560       697      2480      2894      2895
 -1      1240    8    0    1
 -2       559       697       696      2895      2896      2891
 -1      1241    8    0    1
 -2       560       561       698      2483      2897      2898
 -1      1242    8    0    1
 -2       560       698       697      2898      2899      2894
 -1      1243    8    0    1
 -2       561       562       699      2486      2900      2901
 -1      1244    8    0    1
 -2       561       699       698      2901      2902      2897
 -1      1245    8    0    1
 -2       562       563       700      2489      2903      2904
 -1      1246    8    0    1
 -2       562       700       699      2904      2905      2900
 -1      1247    8    0    1
 -2       563       564       701      2492      2906      2907
 -1      1248    8    0    1
 -2       563       701       700      2907      2908      2903
 -1      1249    8    0    1
 -2       564       565       702      2495      2909      2910
 -1      1250    8    0    1
 -2       564       702       701      2910      2911      2906
 -1      1251    8    0    1
 -2       565       566       703      2498      2912      2913
 -1      1252    8    0    1
 -2       565       703       702      2913      2914      2909
 -1      1253    8    0    1
 -2       566       567       704      2501      2915      2916
 -1      1254    8    0    1
 -2       566       704       703      2916      2917      2912
 -1      1255    8    0    1
 -2       567       568       705      2504      2918      2919
 -1      1256    8    0    1
 -2       567       705       704      2919      2920      2915
 -1      1257    8    0    1
 -2       568       569       706      2507      2921      2922
 -1      1258    8    0    1
 -2       568       706       705      2922      2923      2918
 -1      1259    8    0    1
 -2       569       570       707      2510      2924      2925
 -1      1260    8    0    1
 -2       706       569       707      2921      2925      2926
 -1      1261    8    0    1
 -2       570       573       707      2663      2927      2924
 -1      1262    8    0    1
 -2       575       576       708      2528      2928      2929
 -1      1263    8    0    1
 -2       617       528       709      2664      2930      2931
 -1      1264    8    0    1
 -2       528       666       709      2805      2932      2930
 -1      1265    8    0    1
 -2       571       572       710      2516      2933      2934
 -1      1266    8    0    1
 -2       576       577       711      2531      2935      2936
 -1      1267    8    0    1
 -2       576       711       708      2936      2937      2928
 -1      1268    8    0    1
 -2       572       575       712      2525      2938      2939
 -1      1269    8    0    1
 -2       710       572       712      2933      2939      2940
 -1      1270    8    0    1
 -2       575       708       712      2929      2941      2938
 -1      1271    8    0    1
 -2       606       607       713      2631      2942      2943
 -1      1272    8    0    1
 -2       577       578       714      2534      2944      2945
 -1      1273    8    0    1
 -2       577       714       711      2945      2946      2935
 -1      1274    8    0    1
 -2       578       579       715      2537      2947      2948
 -1      1275    8    0    1
 -2       578       715       714      2948      2949      2944
 -1      1276    8    0    1
 -2       579       580       716      2540      2950      2951
 -1      1277    8    0    1
 -2       579       716       715      2951      2952      2947
 -1      1278    8    0    1
 -2       604       605       717      2637      2953      2954
 -1      1279    8    0    1
 -2       612       485       718      2627      2955      2956
 -1      1280    8    0    1
 -2       590       606       719      2642      2957      2958
 -1      1281    8    0    1
 -2       484       588       720      2560      2959      2960
 -1      1282    8    0    1
 -2       613       474       482      2617      2961      2638
 -1      1283    8    0    1
 -2       584       582       721      2635      2962      2963
 -1      1284    8    0    1
 -2       607       594       722      2629      2964      2965
 -1      1285    8    0    1
 -2       585       529       723      2552      2966      2967
 -1      1286    8    0    1
 -2       624       585       723      2679      2967      2968
 -1      1287    8    0    1
 -2       529       669       723      2812      2969      2966
 -1      1288    8    0    1
 -2       582       583       724      2636      2970      2971
 -1      1289    8    0    1
 -2       531       532       725      2396      2972      2973
 -1      1290    8    0    1
 -2       667       531       725      2807      2973      2974
 -1      1291    8    0    1
 -2       532       670       725      2815      2975      2972
 -1      1292    8    0    1
 -2       486       484       726      2259      2976      2977
 -1      1293    8    0    1
 -2       625       486       726      2682      2977      2978
 -1      1294    8    0    1
 -2       484       720       726      2960      2979      2976
 -1      1295    8    0    1
 -2       479       480       727      2243      2980      2981
 -1      1296    8    0    1
 -2       618       479       727      2665      2981      2982
 -1      1297    8    0    1
 -2       480       620       727      2671      2983      2980
 -1      1298    8    0    1
 -2       610       611       728      2625      2984      2985
 -1      1299    8    0    1
 -2       476       475       729      2232      2986      2987
 -1      1300    8    0    1
 -2       473       593       730      2655      2988      2989
 -1      1301    8    0    1
 -2       593       595       731      2656      2990      2991
 -1      1302    8    0    1
 -2       593       731       730      2991      2992      2988
 -1      1303    8    0    1
 -2       583       586       732      2630      2993      2994
 -1      1304    8    0    1
 -2       588       447       720      2651      2995      2959
 -1      1305    8    0    1
 -2       597       598       733      2657      2996      2997
 -1      1306    8    0    1
 -2       592       596       734      2580      2998      2999
 -1      1307    8    0    1
 -2       581       617       709      2660      2931      3000
 -1      1308    8    0    1
 -2       596       597       735      2650      3001      3002
 -1      1309    8    0    1
 -2       597       733       735      2997      3003      3001
 -1      1310    8    0    1
 -2       599       600       736      2646      3004      3005
 -1      1311    8    0    1
 -2       600       601       737      2645      3006      3007
 -1      1312    8    0    1
 -2       601       602       738      2644      3008      3009
 -1      1313    8    0    1
 -2       586       587       739      2641      3010      3011
 -1      1314    8    0    1
 -2       602       603       740      2643      3012      3013
 -1      1315    8    0    1
 -2       605       590       741      2634      3014      3015
 -1      1316    8    0    1
 -2       595       592       742      2618      3016      3017
 -1      1317    8    0    1
 -2       594       608       743      2605      3018      3019
 -1      1318    8    0    1
 -2       589       584       744      2626      3020      3021
 -1      1319    8    0    1
 -2       603       604       745      2640      3022      3023
 -1      1320    8    0    1
 -2       611       589       746      2624      3024      3025
 -1      1321    8    0    1
 -2       589       744       746      3021      3026      3024
 -1      1322    8    0    1
 -2       608       609       747      2628      3027      3028
 -1      1323    8    0    1
 -2       614       476       748      2619      3029      3030
 -1      1324    8    0    1
 -2       476       729       748      2987      3031      3029
 -1      1325    8    0    1
 -2       477       619       749      2668      3032      3033
 -1      1326    8    0    1
 -2       477       749       591      3033      3034      2569
 -1      1327    8    0    1
 -2       587       623       739      2678      3035      3010
 -1      1328    8    0    1
 -2       610       728       668      2985      3036      2809
 -1      1329    8    0    1
 -2       571       710       750      2934      3037      3038
 -1      1330    8    0    1
 -2       571       750       574      3038      3039      2522
 -1      1331    8    0    1
 -2       609       668       747      2810      3040      3027
 -1      1332    8    0    1
 -2       582       724       721      2971      3041      2962
 -1      1333    8    0    1
 -2       745       604       717      3022      2954      3042
 -1      1334    8    0    1
 -2       744       584       721      3020      2963      3043
 -1      1335    8    0    1
 -2       596       735       734      3002      3044      2998
 -1      1336    8    0    1
 -2       713       607       722      2942      2965      3045
 -1      1337    8    0    1
 -2       573       574       751      2521      3046      3047
 -1      1338    8    0    1
 -2       707       573       751      2927      3047      3048
 -1      1339    8    0    1
 -2       574       750       751      3039      3049      3046
 -1      1340    8    0    1
 -2       743       608       747      3018      3028      3050
 -1      1341    8    0    1
 -2       742       592       734      3016      2999      3051
 -1      1342    8    0    1
 -2       717       605       741      2953      3015      3052
 -1      1343    8    0    1
 -2       580       581       709      2543      3000      3053
 -1      1344    8    0    1
 -2       741       590       719      3014      2958      3054
 -1      1345    8    0    1
 -2       623       612       718      2677      2956      3055
 -1      1346    8    0    1
 -2       740       603       745      3012      3023      3056
 -1      1347    8    0    1
 -2       738       602       740      3008      3013      3057
 -1      1348    8    0    1
 -2       737       601       738      3006      3009      3058
 -1      1349    8    0    1
 -2       482       474       622      2961      2676      3059
 -1      1350    8    0    1
 -2       722       594       743      2964      3019      3060
 -1      1351    8    0    1
 -2       599       736       615      3005      3061      2649
 -1      1352    8    0    1
 -2       719       606       713      2957      2943      3062
 -1      1353    8    0    1
 -2       718       485       616      2955      2653      3063
 -1      1354    8    0    1
 -2       475       591       752      2568      3064      3065
 -1      1355    8    0    1
 -2       729       475       752      2986      3065      3066
 -1      1356    8    0    1
 -2       591       749       752      3034      3067      3064
 -1      1357    8    0    1
 -2       447       614       720      2621      3068      2995
 -1      1358    8    0    1
 -2       616       473       730      2654      2989      3069
 -1      1359    8    0    1
 -2       583       732       724      2994      3070      2970
 -1      1360    8    0    1
 -2       732       586       739      2993      3011      3071
 -1      1361    8    0    1
 -2       733       598       753      2996      3072      3073
 -1      1362    8    0    1
 -2       598       615       753      2648      3074      3072
 -1      1363    8    0    1
 -2       728       611       746      2984      3025      3075
 -1      1364    8    0    1
 -2       736       600       737      3004      3007      3076
 -1      1365    8    0    1
 -2       482       622       621      3059      3077      2672
 -1      1366    8    0    1
 -2       580       709       754      3053      3078      3079
 -1      1367    8    0    1
 -2       716       580       754      2950      3079      3080
 -1      1368    8    0    1
 -2       709       666       754      2932      3081      3078
 -1      1369    8    0    1
 -2       722       743       755      3060      3082      3083
 -1      1370    8    0    1
 -2       620       621       756      2674      3084      3085
 -1      1371    8    0    1
 -2       746       744       757      3026      3086      3087
 -1      1372    8    0    1
 -2       627       626       758      2689      3088      3089
 -1      1373    8    0    1
 -2       628       627       759      2692      3090      3091
 -1      1374    8    0    1
 -2       627       758       759      3089      3092      3090
 -1      1375    8    0    1
 -2       629       628       760      2695      3093      3094
 -1      1376    8    0    1
 -2       628       759       760      3091      3095      3093
 -1      1377    8    0    1
 -2       630       629       761      2698      3096      3097
 -1      1378    8    0    1
 -2       629       760       761      3094      3098      3096
 -1      1379    8    0    1
 -2       631       630       762      2701      3099      3100
 -1      1380    8    0    1
 -2       630       761       762      3097      3101      3099
 -1      1381    8    0    1
 -2       632       631       763      2704      3102      3103
 -1      1382    8    0    1
 -2       631       762       763      3100      3104      3102
 -1      1383    8    0    1
 -2       633       632       764      2707      3105      3106
 -1      1384    8    0    1
 -2       632       763       764      3103      3107      3105
 -1      1385    8    0    1
 -2       634       633       765      2710      3108      3109
 -1      1386    8    0    1
 -2       633       764       765      3106      3110      3108
 -1      1387    8    0    1
 -2       635       634       766      2713      3111      3112
 -1      1388    8    0    1
 -2       634       765       766      3109      3113      3111
 -1      1389    8    0    1
 -2       636       635       767      2716      3114      3115
 -1      1390    8    0    1
 -2       635       766       767      3112      3116      3114
 -1      1391    8    0    1
 -2       637       636       768      2719      3117      3118
 -1      1392    8    0    1
 -2       636       767       768      3115      3119      3117
 -1      1393    8    0    1
 -2       638       637       769      2722      3120      3121
 -1      1394    8    0    1
 -2       637       768       769      3118      3122      3120
 -1      1395    8    0    1
 -2       639       638       770      2725      3123      3124
 -1      1396    8    0    1
 -2       638       769       770      3121      3125      3123
 -1      1397    8    0    1
 -2       640       639       771      2728      3126      3127
 -1      1398    8    0    1
 -2       639       770       771      3124      3128      3126
 -1      1399    8    0    1
 -2       641       640       772      2731      3129      3130
 -1      1400    8    0    1
 -2       640       771       772      3127      3131      3129
 -1      1401    8    0    1
 -2       642       641       773      2734      3132      3133
 -1      1402    8    0    1
 -2       641       772       773      3130      3134      3132
 -1      1403    8    0    1
 -2       644       643       719      2740      3135      3136
 -1      1404    8    0    1
 -2       645       644       713      2743      3137      3138
 -1      1405    8    0    1
 -2       647       646       755      2749      3139      3140
 -1      1406    8    0    1
 -2       648       647       774      2752      3141      3142
 -1      1407    8    0    1
 -2       649       648       775      2755      3143      3144
 -1      1408    8    0    1
 -2       648       774       775      3142      3145      3143
 -1      1409    8    0    1
 -2       650       649       776      2758      3146      3147
 -1      1410    8    0    1
 -2       649       775       776      3144      3148      3146
 -1      1411    8    0    1
 -2       651       650       777      2761      3149      3150
 -1      1412    8    0    1
 -2       650       776       777      3147      3151      3149
 -1      1413    8    0    1
 -2       652       651       778      2764      3152      3153
 -1      1414    8    0    1
 -2       651       777       778      3150      3154      3152
 -1      1415    8    0    1
 -2       653       652       779      2767      3155      3156
 -1      1416    8    0    1
 -2       652       778       779      3153      3157      3155
 -1      1417    8    0    1
 -2       654       653       780      2770      3158      3159
 -1      1418    8    0    1
 -2       653       779       780      3156      3160      3158
 -1      1419    8    0    1
 -2       655       654       781      2773      3161      3162
 -1      1420    8    0    1
 -2       654       780       781      3159      3163      3161
 -1      1421    8    0    1
 -2       656       655       782      2776      3164      3165
 -1      1422    8    0    1
 -2       655       781       782      3162      3166      3164
 -1      1423    8    0    1
 -2       657       656       783      2779      3167      3168
 -1      1424    8    0    1
 -2       656       782       783      3165      3169      3167
 -1      1425    8    0    1
 -2       658       657       784      2782      3170      3171
 -1      1426    8    0    1
 -2       657       783       784      3168      3172      3170
 -1      1427    8    0    1
 -2       659       658       785      2785      3173      3174
 -1      1428    8    0    1
 -2       658       784       785      3171      3175      3173
 -1      1429    8    0    1
 -2       660       659       786      2788      3176      3177
 -1      1430    8    0    1
 -2       659       785       786      3174      3178      3176
 -1      1431    8    0    1
 -2       661       660       787      2791      3179      3180
 -1      1432    8    0    1
 -2       660       786       787      3177      3181      3179
 -1      1433    8    0    1
 -2       662       661       788      2794      3182      3183
 -1      1434    8    0    1
 -2       661       787       788      3180      3184      3182
 -1      1435    8    0    1
 -2       663       662       789      2797      3185      3186
 -1      1436    8    0    1
 -2       662       788       789      3183      3187      3185
 -1      1437    8    0    1
 -2       664       663       790      2800      3188      3189
 -1      1438    8    0    1
 -2       663       789       790      3186      3190      3188
 -1      1439    8    0    1
 -2       665       664       791      2803      3191      3192
 -1      1440    8    0    1
 -2       664       790       791      3189      3193      3191
 -1      1441    8    0    1
 -2       666       665       792      2806      3194      3195
 -1      1442    8    0    1
 -2       754       666       792      3081      3195      3196
 -1      1443    8    0    1
 -2       665       791       792      3192      3197      3194
 -1      1444    8    0    1
 -2       671       672       793      2821      3198      3199
 -1      1445    8    0    1
 -2       670       671       794      2818      3200      3201
 -1      1446    8    0    1
 -2       671       793       794      3199      3202      3200
 -1      1447    8    0    1
 -2       673       674       795      2827      3203      3204
 -1      1448    8    0    1
 -2       674       675       796      2830      3205      3206
 -1      1449    8    0    1
 -2       674       796       795      3206      3207      3203
 -1      1450    8    0    1
 -2       675       676       797      2833      3208      3209
 -1      1451    8    0    1
 -2       675       797       796      3209      3210      3205
 -1      1452    8    0    1
 -2       676       677       798      2836      3211      3212
 -1      1453    8    0    1
 -2       676       798       797      3212      3213      3208
 -1      1454    8    0    1
 -2       677       678       799      2839      3214      3215
 -1      1455    8    0    1
 -2       677       799       798      3215      3216      3211
 -1      1456    8    0    1
 -2       678       679       800      2842      3217      3218
 -1      1457    8    0    1
 -2       678       800       799      3218      3219      3214
 -1      1458    8    0    1
 -2       679       680       801      2845      3220      3221
 -1      1459    8    0    1
 -2       679       801       800      3221      3222      3217
 -1      1460    8    0    1
 -2       680       681       802      2848      3223      3224
 -1      1461    8    0    1
 -2       680       802       801      3224      3225      3220
 -1      1462    8    0    1
 -2       681       682       803      2851      3226      3227
 -1      1463    8    0    1
 -2       681       803       802      3227      3228      3223
 -1      1464    8    0    1
 -2       683       684       742      2857      3229      3230
 -1      1465    8    0    1
 -2       684       685       731      2860      3231      3232
 -1      1466    8    0    1
 -2       685       686       730      2863      3233      3234
 -1      1467    8    0    1
 -2       687       688       718      2869      3235      3236
 -1      1468    8    0    1
 -2       689       690       804      2875      3237      3238
 -1      1469    8    0    1
 -2       690       691       805      2878      3239      3240
 -1      1470    8    0    1
 -2       690       805       804      3240      3241      3237
 -1      1471    8    0    1
 -2       691       692       806      2881      3242      3243
 -1      1472    8    0    1
 -2       691       806       805      3243      3244      3239
 -1      1473    8    0    1
 -2       692       693       807      2884      3245      3246
 -1      1474    8    0    1
 -2       692       807       806      3246      3247      3242
 -1      1475    8    0    1
 -2       693       694       808      2887      3248      3249
 -1      1476    8    0    1
 -2       693       808       807      3249      3250      3245
 -1      1477    8    0    1
 -2       694       695       809      2890      3251      3252
 -1      1478    8    0    1
 -2       694       809       808      3252      3253      3248
 -1      1479    8    0    1
 -2       695       696       810      2893      3254      3255
 -1      1480    8    0    1
 -2       695       810       809      3255      3256      3251
 -1      1481    8    0    1
 -2       696       697       811      2896      3257      3258
 -1      1482    8    0    1
 -2       696       811       810      3258      3259      3254
 -1      1483    8    0    1
 -2       697       698       812      2899      3260      3261
 -1      1484    8    0    1
 -2       697       812       811      3261      3262      3257
 -1      1485    8    0    1
 -2       698       699       813      2902      3263      3264
 -1      1486    8    0    1
 -2       698       813       812      3264      3265      3260
 -1      1487    8    0    1
 -2       699       700       814      2905      3266      3267
 -1      1488    8    0    1
 -2       699       814       813      3267      3268      3263
 -1      1489    8    0    1
 -2       700       701       815      2908      3269      3270
 -1      1490    8    0    1
 -2       700       815       814      3270      3271      3266
 -1      1491    8    0    1
 -2       701       702       816      2911      3272      3273
 -1      1492    8    0    1
 -2       701       816       815      3273      3274      3269
 -1      1493    8    0    1
 -2       702       703       817      2914      3275      3276
 -1      1494    8    0    1
 -2       702       817       816      3276      3277      3272
 -1      1495    8    0    1
 -2       703       704       818      2917      3278      3279
 -1      1496    8    0    1
 -2       703       818       817      3279      3280      3275
 -1      1497    8    0    1
 -2       704       705       819      2920      3281      3282
 -1      1498    8    0    1
 -2       704       819       818      3282      3283      3278
 -1      1499    8    0    1
 -2       705       706       820      2923      3284      3285
 -1      1500    8    0    1
 -2       705       820       819      3285      3286      3281
 -1      1501    8    0    1
 -2       706       707       821      2926      3287      3288
 -1      1502    8    0    1
 -2       820       706       821      3284      3288      3289
 -1      1503    8    0    1
 -2       707       751       821      3048      3290      3287
 -1      1504    8    0    1
 -2       619       618       822      2669      3291      3292
 -1      1505    8    0    1
 -2       708       711       823      2937      3293      3294
 -1      1506    8    0    1
 -2       715       716       824      2952      3295      3296
 -1      1507    8    0    1
 -2       711       714       825      2946      3297      3298
 -1      1508    8    0    1
 -2       711       825       823      3298      3299      3293
 -1      1509    8    0    1
 -2       744       721       826      3043      3300      3301
 -1      1510    8    0    1
 -2       740       745       827      3056      3302      3303
 -1      1511    8    0    1
 -2       668       728       828      3036      3304      3305
 -1      1512    8    0    1
 -2       713       722       645      3045      3306      3138
 -1      1513    8    0    1
 -2       745       717       829      3042      3307      3308
 -1      1514    8    0    1
 -2       718       688       830      3235      3309      3310
 -1      1515    8    0    1
 -2       623       718       830      3055      3310      3311
 -1      1516    8    0    1
 -2       688       689       830      2872      3312      3309
 -1      1517    8    0    1
 -2       730       686       616      3233      3313      3069
 -1      1518    8    0    1
 -2       731       685       730      3231      3234      2992
 -1      1519    8    0    1
 -2       719       713       644      3062      3137      3136
 -1      1520    8    0    1
 -2       714       715       831      2949      3314      3315
 -1      1521    8    0    1
 -2       825       714       831      3297      3315      3316
 -1      1522    8    0    1
 -2       715       824       831      3296      3317      3314
 -1      1523    8    0    1
 -2       672       673       832      2824      3318      3319
 -1      1524    8    0    1
 -2       793       672       832      3198      3319      3320
 -1      1525    8    0    1
 -2       673       795       832      3204      3321      3318
 -1      1526    8    0    1
 -2       731       595       684      2990      3322      3232
 -1      1527    8    0    1
 -2       669       667       833      2813      3323      3324
 -1      1528    8    0    1
 -2       743       747       774      3050      3325      3326
 -1      1529    8    0    1
 -2       626       625       834      2686      3327      3328
 -1      1530    8    0    1
 -2       626       834       758      3328      3329      3088
 -1      1531    8    0    1
 -2       720       614       748      3068      3030      3330
 -1      1532    8    0    1
 -2       724       732       835      3070      3331      3332
 -1      1533    8    0    1
 -2       717       741       836      3052      3333      3334
 -1      1534    8    0    1
 -2       741       719       643      3054      3135      3335
 -1      1535    8    0    1
 -2       735       733       837      3003      3336      3337
 -1      1536    8    0    1
 -2       728       746       838      3075      3338      3339
 -1      1537    8    0    1
 -2       621       622       839      3077      3340      3341
 -1      1538    8    0    1
 -2       756       621       839      3084      3341      3342
 -1      1539    8    0    1
 -2       622       624       839      2681      3343      3340
 -1      1540    8    0    1
 -2       737       738       840      3058      3344      3345
 -1      1541    8    0    1
 -2       734       735       841      3044      3346      3347
 -1      1542    8    0    1
 -2       595       742       684      3017      3229      3322
 -1      1543    8    0    1
 -2       732       739       842      3071      3348      3349
 -1      1544    8    0    1
 -2       615       736       843      3061      3350      3351
 -1      1545    8    0    1
 -2       742       734       844      3051      3352      3353
 -1      1546    8    0    1
 -2       683       742       844      3230      3353      3354
 -1      1547    8    0    1
 -2       734       841       844      3347      3355      3352
 -1      1548    8    0    1
 -2       718       616       687      3063      3356      3236
 -1      1549    8    0    1
 -2       738       740       845      3057      3357      3358
 -1      1550    8    0    1
 -2       736       737       846      3076      3359      3360
 -1      1551    8    0    1
 -2       721       724       847      3041      3361      3362
 -1      1552    8    0    1
 -2       616       686       687      3313      2866      3356
 -1      1553    8    0    1
 -2       749       619       848      3032      3363      3364
 -1      1554    8    0    1
 -2       619       822       848      3292      3365      3363
 -1      1555    8    0    1
 -2       620       756       849      3085      3366      3367
 -1      1556    8    0    1
 -2       620       849       727      3367      3368      2983
 -1      1557    8    0    1
 -2       746       757       838      3087      3369      3338
 -1      1558    8    0    1
 -2       625       726       850      2978      3370      3371
 -1      1559    8    0    1
 -2       625       850       834      3371      3372      3327
 -1      1560    8    0    1
 -2       737       840       846      3345      3373      3359
 -1      1561    8    0    1
 -2       750       710       851      3037      3374      3375
 -1      1562    8    0    1
 -2       748       729       852      3031      3376      3377
 -1      1563    8    0    1
 -2       642       773       836      3133      3378      3379
 -1      1564    8    0    1
 -2       735       837       841      3337      3380      3346
 -1      1565    8    0    1
 -2       643       642       836      2737      3379      3381
 -1      1566    8    0    1
 -2       745       829       827      3308      3382      3302
 -1      1567    8    0    1
 -2       647       755       774      3140      3383      3141
 -1      1568    8    0    1
 -2       646       645       722      2746      3306      3384
 -1      1569    8    0    1
 -2       732       842       853      3349      3385      3386
 -1      1570    8    0    1
 -2       732       853       835      3386      3387      3331
 -1      1571    8    0    1
 -2       726       720       748      2979      3330      3388
 -1      1572    8    0    1
 -2       670       794       854      3201      3389      3390
 -1      1573    8    0    1
 -2       670       854       725      3390      3391      2975
 -1      1574    8    0    1
 -2       803       682       841      3226      3392      3393
 -1      1575    8    0    1
 -2       682       683       844      2854      3354      3394
 -1      1576    8    0    1
 -2       669       833       855      3324      3395      3396
 -1      1577    8    0    1
 -2       669       855       723      3396      3397      2969
 -1      1578    8    0    1
 -2       738       845       840      3358      3398      3344
 -1      1579    8    0    1
 -2       689       804       830      3238      3399      3312
 -1      1580    8    0    1
 -2       822       618       856      3291      3400      3401
 -1      1581    8    0    1
 -2       618       727       856      2982      3402      3400
 -1      1582    8    0    1
 -2       744       826       757      3301      3403      3086
 -1      1583    8    0    1
 -2       710       712       857      2940      3404      3405
 -1      1584    8    0    1
 -2       710       857       851      3405      3406      3374
 -1      1585    8    0    1
 -2       722       755       646      3083      3139      3384
 -1      1586    8    0    1
 -2       712       708       858      2941      3407      3408
 -1      1587    8    0    1
 -2       857       712       858      3404      3408      3409
 -1      1588    8    0    1
 -2       708       823       858      3294      3410      3407
 -1      1589    8    0    1
 -2       826       721       847      3300      3362      3411
 -1      1590    8    0    1
 -2       740       827       845      3303      3412      3357
 -1      1591    8    0    1
 -2       755       743       774      3082      3326      3383
 -1      1592    8    0    1
 -2       828       728       838      3304      3339      3413
 -1      1593    8    0    1
 -2       668       828       859      3305      3414      3415
 -1      1594    8    0    1
 -2       829       717       836      3307      3334      3416
 -1      1595    8    0    1
 -2       623       830       860      3311      3417      3418
 -1      1596    8    0    1
 -2       739       623       860      3035      3418      3419
 -1      1597    8    0    1
 -2       830       804       860      3399      3420      3417
 -1      1598    8    0    1
 -2       624       723       861      2968      3421      3422
 -1      1599    8    0    1
 -2       839       624       861      3343      3422      3423
 -1      1600    8    0    1
 -2       723       855       861      3397      3424      3421
 -1      1601    8    0    1
 -2       667       725       862      2974      3425      3426
 -1      1602    8    0    1
 -2       725       854       862      3391      3427      3425
 -1      1603    8    0    1
 -2       747       668       859      3040      3415      3428
 -1      1604    8    0    1
 -2       833       667       862      3323      3426      3429
 -1      1605    8    0    1
 -2       836       741       643      3333      3335      3381
 -1      1606    8    0    1
 -2       729       752       863      3066      3430      3431
 -1      1607    8    0    1
 -2       729       863       852      3431      3432      3376
 -1      1608    8    0    1
 -2       739       860       842      3419      3433      3348
 -1      1609    8    0    1
 -2       753       615       843      3074      3351      3434
 -1      1610    8    0    1
 -2       837       733       864      3336      3435      3436
 -1      1611    8    0    1
 -2       733       753       864      3073      3437      3435
 -1      1612    8    0    1
 -2       843       736       865      3350      3438      3439
 -1      1613    8    0    1
 -2       736       846       865      3360      3440      3438
 -1      1614    8    0    1
 -2       847       724       835      3361      3332      3441
 -1      1615    8    0    1
 -2       716       754       866      3080      3442      3443
 -1      1616    8    0    1
 -2       824       716       866      3295      3443      3444
 -1      1617    8    0    1
 -2       754       792       866      3196      3445      3442
 -1      1618    8    0    1
 -2       841       682       844      3392      3394      3355
 -1      1619    8    0    1
 -2       836       773       829      3378      3446      3416
 -1      1620    8    0    1
 -2       842       860       867      3433      3447      3448
 -1      1621    8    0    1
 -2       853       842       867      3385      3448      3449
 -1      1622    8    0    1
 -2       860       804       867      3420      3450      3447
 -1      1623    8    0    1
 -2       838       757       868      3369      3451      3452
 -1      1624    8    0    1
 -2       748       852       850      3377      3453      3454
 -1      1625    8    0    1
 -2       827       829       869      3382      3455      3456
 -1      1626    8    0    1
 -2       829       773       869      3446      3457      3455
 -1      1627    8    0    1
 -2       841       837       803      3380      3458      3393
 -1      1628    8    0    1
 -2       760       759       870      3095      3459      3460
 -1      1629    8    0    1
 -2       761       760       871      3098      3461      3462
 -1      1630    8    0    1
 -2       760       870       871      3460      3463      3461
 -1      1631    8    0    1
 -2       762       761       872      3101      3464      3465
 -1      1632    8    0    1
 -2       761       871       872      3462      3466      3464
 -1      1633    8    0    1
 -2       763       762       873      3104      3467      3468
 -1      1634    8    0    1
 -2       762       872       873      3465      3469      3467
 -1      1635    8    0    1
 -2       764       763       874      3107      3470      3471
 -1      1636    8    0    1
 -2       763       873       874      3468      3472      3470
 -1      1637    8    0    1
 -2       765       764       875      3110      3473      3474
 -1      1638    8    0    1
 -2       764       874       875      3471      3475      3473
 -1      1639    8    0    1
 -2       766       765       876      3113      3476      3477
 -1      1640    8    0    1
 -2       765       875       876      3474      3478      3476
 -1      1641    8    0    1
 -2       767       766       877      3116      3479      3480
 -1      1642    8    0    1
 -2       766       876       877      3477      3481      3479
 -1      1643    8    0    1
 -2       768       767       878      3119      3482      3483
 -1      1644    8    0    1
 -2       767       877       878      3480      3484      3482
 -1      1645    8    0    1
 -2       769       768       879      3122      3485      3486
 -1      1646    8    0    1
 -2       768       878       879      3483      3487      3485
 -1      1647    8    0    1
 -2       770       769       880      3125      3488      3489
 -1      1648    8    0    1
 -2       769       879       880      3486      3490      3488
 -1      1649    8    0    1
 -2       771       770       881      3128      3491      3492
 -1      1650    8    0    1
 -2       770       880       881      3489      3493      3491
 -1      1651    8    0    1
 -2       773       772       869      3134      3494      3457
 -1      1652    8    0    1
 -2       777       776       882      3151      3495      3496
 -1      1653    8    0    1
 -2       778       777       883      3154      3497      3498
 -1      1654    8    0    1
 -2       777       882       883      3496      3499      3497
 -1      1655    8    0    1
 -2       779       778       884      3157      3500      3501
 -1      1656    8    0    1
 -2       778       883       884      3498      3502      3500
 -1      1657    8    0    1
 -2       780       779       885      3160      3503      3504
 -1      1658    8    0    1
 -2       779       884       885      3501      3505      3503
 -1      1659    8    0    1
 -2       781       780       886      3163      3506      3507
 -1      1660    8    0    1
 -2       780       885       886      3504      3508      3506
 -1      1661    8    0    1
 -2       782       781       887      3166      3509      3510
 -1      1662    8    0    1
 -2       781       886       887      3507      3511      3509
 -1      1663    8    0    1
 -2       783       782       888      3169      3512      3513
 -1      1664    8    0    1
 -2       782       887       888      3510      3514      3512
 -1      1665    8    0    1
 -2       784       783       889      3172      3515      3516
 -1      1666    8    0    1
 -2       783       888       889      3513      3517      3515
 -1      1667    8    0    1
 -2       785       784       890      3175      3518      3519
 -1      1668    8    0    1
 -2       784       889       890      3516      3520      3518
 -1      1669    8    0    1
 -2       786       785       891      3178      3521      3522
 -1      1670    8    0    1
 -2       785       890       891      3519      3523      3521
 -1      1671    8    0    1
 -2       787       786       892      3181      3524      3525
 -1      1672    8    0    1
 -2       786       891       892      3522      3526      3524
 -1      1673    8    0    1
 -2       788       787       893      3184      3527      3528
 -1      1674    8    0    1
 -2       787       892       893      3525      3529      3527
 -1      1675    8    0    1
 -2       789       788       894      3187      3530      3531
 -1      1676    8    0    1
 -2       788       893       894      3528      3532      3530
 -1      1677    8    0    1
 -2       790       789       895      3190      3533      3534
 -1      1678    8    0    1
 -2       789       894       895      3531      3535      3533
 -1      1679    8    0    1
 -2       791       790       896      3193      3536      3537
 -1      1680    8    0    1
 -2       790       895       896      3534      3538      3536
 -1      1681    8    0    1
 -2       794       793       897      3202      3539      3540
 -1      1682    8    0    1
 -2       796       797       898      3210      3541      3542
 -1      1683    8    0    1
 -2       795       796       899      3207      3543      3544
 -1      1684    8    0    1
 -2       796       898       899      3542      3545      3543
 -1      1685    8    0    1
 -2       798       799       900      3216      3546      3547
 -1      1686    8    0    1
 -2       799       800       901      3219      3548      3549
 -1      1687    8    0    1
 -2       799       901       900      3549      3550      3546
 -1      1688    8    0    1
 -2       800       801       902      3222      3551      3552
 -1      1689    8    0    1
 -2       800       902       901      3552      3553      3548
 -1      1690    8    0    1
 -2       801       802       903      3225      3554      3555
 -1      1691    8    0    1
 -2       801       903       902      3555      3556      3551
 -1      1692    8    0    1
 -2       802       803       837      3228      3458      3557
 -1      1693    8    0    1
 -2       753       843       904      3434      3558      3559
 -1      1694    8    0    1
 -2       804       805       867      3241      3560      3450
 -1      1695    8    0    1
 -2       807       808       905      3250      3561      3562
 -1      1696    8    0    1
 -2       808       809       906      3253      3563      3564
 -1      1697    8    0    1
 -2       808       906       905      3564      3565      3561
 -1      1698    8    0    1
 -2       809       810       907      3256      3566      3567
 -1      1699    8    0    1
 -2       809       907       906      3567      3568      3563
 -1      1700    8    0    1
 -2       810       811       908      3259      3569      3570
 -1      1701    8    0    1
 -2       810       908       907      3570      3571      3566
 -1      1702    8    0    1
 -2       811       812       909      3262      3572      3573
 -1      1703    8    0    1
 -2       811       909       908      3573      3574      3569
 -1      1704    8    0    1
 -2       812       813       910      3265      3575      3576
 -1      1705    8    0    1
 -2       812       910       909      3576      3577      3572
 -1      1706    8    0    1
 -2       813       814       911      3268      3578      3579
 -1      1707    8    0    1
 -2       813       911       910      3579      3580      3575
 -1      1708    8    0    1
 -2       814       815       912      3271      3581      3582
 -1      1709    8    0    1
 -2       814       912       911      3582      3583      3578
 -1      1710    8    0    1
 -2       815       816       913      3274      3584      3585
 -1      1711    8    0    1
 -2       815       913       912      3585      3586      3581
 -1      1712    8    0    1
 -2       816       817       914      3277      3587      3588
 -1      1713    8    0    1
 -2       816       914       913      3588      3589      3584
 -1      1714    8    0    1
 -2       817       818       915      3280      3590      3591
 -1      1715    8    0    1
 -2       817       915       914      3591      3592      3587
 -1      1716    8    0    1
 -2       818       819       916      3283      3593      3594
 -1      1717    8    0    1
 -2       818       916       915      3594      3595      3590
 -1      1718    8    0    1
 -2       819       820       917      3286      3596      3597
 -1      1719    8    0    1
 -2       819       917       916      3597      3598      3593
 -1      1720    8    0    1
 -2       826       847       918      3411      3599      3600
 -1      1721    8    0    1
 -2       751       750       919      3049      3601      3602
 -1      1722    8    0    1
 -2       821       751       919      3290      3602      3603
 -1      1723    8    0    1
 -2       750       851       919      3375      3604      3601
 -1      1724    8    0    1
 -2       823       825       920      3299      3605      3606
 -1      1725    8    0    1
 -2       828       838       882      3413      3607      3608
 -1      1726    8    0    1
 -2       806       807       921      3247      3609      3610
 -1      1727    8    0    1
 -2       807       905       921      3562      3611      3609
 -1      1728    8    0    1
 -2       840       845       922      3398      3612      3613
 -1      1729    8    0    1
 -2       757       826       923      3403      3614      3615
 -1      1730    8    0    1
 -2       757       923       868      3615      3616      3451
 -1      1731    8    0    1
 -2       805       806       924      3244      3617      3618
 -1      1732    8    0    1
 -2       806       921       924      3610      3619      3617
 -1      1733    8    0    1
 -2       752       749       925      3067      3620      3621
 -1      1734    8    0    1
 -2       752       925       863      3621      3622      3430
 -1      1735    8    0    1
 -2       846       840       926      3373      3623      3624
 -1      1736    8    0    1
 -2       797       798       927      3213      3625      3626
 -1      1737    8    0    1
 -2       898       797       927      3541      3626      3627
 -1      1738    8    0    1
 -2       798       900       927      3547      3628      3625
 -1      1739    8    0    1
 -2       775       774       859      3145      3629      3630
 -1      1740    8    0    1
 -2       758       834       928      3329      3631      3632
 -1      1741    8    0    1
 -2       726       748       850      3388      3454      3370
 -1      1742    8    0    1
 -2       759       758       929      3092      3633      3634
 -1      1743    8    0    1
 -2       759       929       870      3634      3635      3459
 -1      1744    8    0    1
 -2       747       859       774      3428      3629      3325
 -1      1745    8    0    1
 -2       833       862       930      3429      3636      3637
 -1      1746    8    0    1
 -2       756       839       931      3342      3638      3639
 -1      1747    8    0    1
 -2       839       861       931      3423      3640      3638
 -1      1748    8    0    1
 -2       847       835       932      3441      3641      3642
 -1      1749    8    0    1
 -2       845       827       933      3412      3643      3644
 -1      1750    8    0    1
 -2       849       756       931      3366      3639      3645
 -1      1751    8    0    1
 -2       840       922       926      3613      3646      3623
 -1      1752    8    0    1
 -2       850       852       934      3453      3647      3648
 -1      1753    8    0    1
 -2       850       934       834      3648      3649      3372
 -1      1754    8    0    1
 -2       929       758       928      3633      3632      3650
 -1      1755    8    0    1
 -2       827       869       935      3456      3651      3652
 -1      1756    8    0    1
 -2       933       827       935      3643      3652      3653
 -1      1757    8    0    1
 -2       869       772       935      3494      3654      3651
 -1      1758    8    0    1
 -2       825       831       936      3316      3655      3656
 -1      1759    8    0    1
 -2       825       936       920      3656      3657      3605
 -1      1760    8    0    1
 -2       771       881       935      3492      3658      3659
 -1      1761    8    0    1
 -2       772       771       935      3131      3659      3654
 -1      1762    8    0    1
 -2       882       776       828      3495      3660      3608
 -1      1763    8    0    1
 -2       805       924       867      3618      3661      3560
 -1      1764    8    0    1
 -2       794       897       937      3540      3662      3663
 -1      1765    8    0    1
 -2       794       937       854      3663      3664      3389
 -1      1766    8    0    1
 -2       897       793       938      3539      3665      3666
 -1      1767    8    0    1
 -2       793       832       938      3320      3667      3665
 -1      1768    8    0    1
 -2       792       791       939      3197      3668      3669
 -1      1769    8    0    1
 -2       866       792       939      3445      3669      3670
 -1      1770    8    0    1
 -2       791       896       939      3537      3671      3668
 -1      1771    8    0    1
 -2       930       862       940      3636      3672      3673
 -1      1772    8    0    1
 -2       862       854       940      3427      3674      3672
 -1      1773    8    0    1
 -2       795       899       941      3544      3675      3676
 -1      1774    8    0    1
 -2       795       941       832      3676      3677      3321
 -1      1775    8    0    1
 -2       802       837       942      3557      3678      3679
 -1      1776    8    0    1
 -2       904       843       943      3558      3680      3681
 -1      1777    8    0    1
 -2       843       865       943      3439      3682      3680
 -1      1778    8    0    1
 -2       823       920       944      3606      3683      3684
 -1      1779    8    0    1
 -2       823       944       858      3684      3685      3410
 -1      1780    8    0    1
 -2       855       833       945      3395      3686      3687
 -1      1781    8    0    1
 -2       833       930       945      3637      3688      3686
 -1      1782    8    0    1
 -2       848       822       946      3365      3689      3690
 -1      1783    8    0    1
 -2       856       727       849      3402      3368      3691
 -1      1784    8    0    1
 -2       826       918       923      3600      3692      3614
 -1      1785    8    0    1
 -2       918       847       947      3599      3693      3694
 -1      1786    8    0    1
 -2       847       932       947      3642      3695      3693
 -1      1787    8    0    1
 -2       820       821       919      3289      3603      3696
 -1      1788    8    0    1
 -2       882       838       868      3607      3452      3697
 -1      1789    8    0    1
 -2       822       856       948      3401      3698      3699
 -1      1790    8    0    1
 -2       822       948       946      3699      3700      3689
 -1      1791    8    0    1
 -2       859       828       776      3414      3660      3701
 -1      1792    8    0    1
 -2       835       853       949      3387      3702      3703
 -1      1793    8    0    1
 -2       835       949       932      3703      3704      3641
 -1      1794    8    0    1
 -2       922       845       933      3612      3644      3705
 -1      1795    8    0    1
 -2       925       749       848      3620      3364      3706
 -1      1796    8    0    1
 -2       834       934       928      3649      3707      3631
 -1      1797    8    0    1
 -2       864       753       904      3437      3559      3708
 -1      1798    8    0    1
 -2       846       926       950      3624      3709      3710
 -1      1799    8    0    1
 -2       846       950       865      3710      3711      3440
 -1      1800    8    0    1
 -2       851       857       951      3406      3712      3713
 -1      1801    8    0    1
 -2       852       863       952      3432      3714      3715
 -1      1802    8    0    1
 -2       852       952       934      3715      3716      3647
 -1      1803    8    0    1
 -2       820       919       917      3696      3717      3596
 -1      1804    8    0    1
 -2       919       851       917      3604      3718      3717
 -1      1805    8    0    1
 -2       824       866       939      3444      3670      3719
 -1      1806    8    0    1
 -2       824       939       953      3719      3720      3721
 -1      1807    8    0    1
 -2       831       824       953      3317      3721      3722
 -1      1808    8    0    1
 -2       939       896       953      3671      3723      3720
 -1      1809    8    0    1
 -2       917       851       951      3718      3713      3724
 -1      1810    8    0    1
 -2       870       929       954      3635      3725      3726
 -1      1811    8    0    1
 -2       871       870       955      3463      3727      3728
 -1      1812    8    0    1
 -2       870       954       955      3726      3729      3727
 -1      1813    8    0    1
 -2       935       881       933      3658      3730      3653
 -1      1814    8    0    1
 -2       872       871       956      3466      3731      3732
 -1      1815    8    0    1
 -2       871       955       956      3728      3733      3731
 -1      1816    8    0    1
 -2       873       872       957      3469      3734      3735
 -1      1817    8    0    1
 -2       872       956       957      3732      3736      3734
 -1      1818    8    0    1
 -2       874       873       958      3472      3737      3738
 -1      1819    8    0    1
 -2       873       957       958      3735      3739      3737
 -1      1820    8    0    1
 -2       875       874       959      3475      3740      3741
 -1      1821    8    0    1
 -2       874       958       959      3738      3742      3740
 -1      1822    8    0    1
 -2       876       875       960      3478      3743      3744
 -1      1823    8    0    1
 -2       875       959       960      3741      3745      3743
 -1      1824    8    0    1
 -2       877       876       961      3481      3746      3747
 -1      1825    8    0    1
 -2       876       960       961      3744      3748      3746
 -1      1826    8    0    1
 -2       878       877       962      3484      3749      3750
 -1      1827    8    0    1
 -2       877       961       962      3747      3751      3749
 -1      1828    8    0    1
 -2       879       878       963      3487      3752      3753
 -1      1829    8    0    1
 -2       878       962       963      3750      3754      3752
 -1      1830    8    0    1
 -2       880       879       964      3490      3755      3756
 -1      1831    8    0    1
 -2       879       963       964      3753      3757      3755
 -1      1832    8    0    1
 -2       881       880       965      3493      3758      3759
 -1      1833    8    0    1
 -2       880       964       965      3756      3760      3758
 -1      1834    8    0    1
 -2       883       882       868      3499      3697      3761
 -1      1835    8    0    1
 -2       899       898       966      3545      3762      3763
 -1      1836    8    0    1
 -2       776       775       859      3148      3630      3701
 -1      1837    8    0    1
 -2       885       884       967      3505      3764      3765
 -1      1838    8    0    1
 -2       886       885       968      3508      3766      3767
 -1      1839    8    0    1
 -2       885       967       968      3765      3768      3766
 -1      1840    8    0    1
 -2       887       886       969      3511      3769      3770
 -1      1841    8    0    1
 -2       886       968       969      3767      3771      3769
 -1      1842    8    0    1
 -2       888       887       970      3514      3772      3773
 -1      1843    8    0    1
 -2       887       969       970      3770      3774      3772
 -1      1844    8    0    1
 -2       889       888       971      3517      3775      3776
 -1      1845    8    0    1
 -2       888       970       971      3773      3777      3775
 -1      1846    8    0    1
 -2       890       889       972      3520      3778      3779
 -1      1847    8    0    1
 -2       889       971       972      3776      3780      3778
 -1      1848    8    0    1
 -2       891       890       973      3523      3781      3782
 -1      1849    8    0    1
 -2       890       972       973      3779      3783      3781
 -1      1850    8    0    1
 -2       892       891       974      3526      3784      3785
 -1      1851    8    0    1
 -2       891       973       974      3782      3786      3784
 -1      1852    8    0    1
 -2       893       892       975      3529      3787      3788
 -1      1853    8    0    1
 -2       892       974       975      3785      3789      3787
 -1      1854    8    0    1
 -2       894       893       976      3532      3790      3791
 -1      1855    8    0    1
 -2       893       975       976      3788      3792      3790
 -1      1856    8    0    1
 -2       895       894       977      3535      3793      3794
 -1      1857    8    0    1
 -2       894       976       977      3791      3795      3793
 -1      1858    8    0    1
 -2       896       895       978      3538      3796      3797
 -1      1859    8    0    1
 -2       895       977       978      3794      3798      3796
 -1      1860    8    0    1
 -2       917       951       916      3724      3799      3598
 -1      1861    8    0    1
 -2       901       902       979      3553      3800      3801
 -1      1862    8    0    1
 -2       900       901       980      3550      3802      3803
 -1      1863    8    0    1
 -2       901       979       980      3801      3804      3802
 -1      1864    8    0    1
 -2       903       802       942      3554      3679      3805
 -1      1865    8    0    1
 -2       907       908       981      3571      3806      3807
 -1      1866    8    0    1
 -2       916       951       982      3799      3808      3809
 -1      1867    8    0    1
 -2       856       849       983      3691      3810      3811
 -1      1868    8    0    1
 -2       856       983       948      3811      3812      3698
 -1      1869    8    0    1
 -2       906       907       984      3568      3813      3814
 -1      1870    8    0    1
 -2       907       981       984      3807      3815      3813
 -1      1871    8    0    1
 -2       905       906       985      3565      3816      3817
 -1      1872    8    0    1
 -2       906       984       985      3814      3818      3816
 -1      1873    8    0    1
 -2       908       909       986      3574      3819      3820
 -1      1874    8    0    1
 -2       908       986       981      3820      3821      3806
 -1      1875    8    0    1
 -2       909       910       987      3577      3822      3823
 -1      1876    8    0    1
 -2       909       987       986      3823      3824      3819
 -1      1877    8    0    1
 -2       910       911       988      3580      3825      3826
 -1      1878    8    0    1
 -2       910       988       987      3826      3827      3822
 -1      1879    8    0    1
 -2       911       912       989      3583      3828      3829
 -1      1880    8    0    1
 -2       911       989       988      3829      3830      3825
 -1      1881    8    0    1
 -2       912       913       990      3586      3831      3832
 -1      1882    8    0    1
 -2       912       990       989      3832      3833      3828
 -1      1883    8    0    1
 -2       913       914       991      3589      3834      3835
 -1      1884    8    0    1
 -2       913       991       990      3835      3836      3831
 -1      1885    8    0    1
 -2       914       915       992      3592      3837      3838
 -1      1886    8    0    1
 -2       914       992       991      3838      3839      3834
 -1      1887    8    0    1
 -2       915       916       982      3595      3809      3840
 -1      1888    8    0    1
 -2       867       924       853      3661      3841      3449
 -1      1889    8    0    1
 -2       863       925       993      3622      3842      3843
 -1      1890    8    0    1
 -2       863       993       952      3843      3844      3714
 -1      1891    8    0    1
 -2       868       923       994      3616      3845      3846
 -1      1892    8    0    1
 -2       923       918       995      3692      3847      3848
 -1      1893    8    0    1
 -2       929       928       996      3650      3849      3850
 -1      1894    8    0    1
 -2       929       996       954      3850      3851      3725
 -1      1895    8    0    1
 -2       857       858       997      3409      3852      3853
 -1      1896    8    0    1
 -2       951       857       997      3712      3853      3854
 -1      1897    8    0    1
 -2       858       944       997      3685      3855      3852
 -1      1898    8    0    1
 -2       861       855       998      3424      3856      3857
 -1      1899    8    0    1
 -2       931       861       998      3640      3857      3858
 -1      1900    8    0    1
 -2       855       945       998      3687      3859      3856
 -1      1901    8    0    1
 -2       933       881       965      3730      3759      3860
 -1      1902    8    0    1
 -2       926       922       999      3646      3861      3862
 -1      1903    8    0    1
 -2       922       933       965      3705      3860      3863
 -1      1904    8    0    1
 -2       928       934      1000      3707      3864      3865
 -1      1905    8    0    1
 -2       996       928      1000      3849      3865      3866
 -1      1906    8    0    1
 -2       934       952      1000      3716      3867      3864
 -1      1907    8    0    1
 -2       921       905      1001      3611      3868      3869
 -1      1908    8    0    1
 -2       905       985      1001      3817      3870      3868
 -1      1909    8    0    1
 -2       925       848      1002      3706      3871      3872
 -1      1910    8    0    1
 -2       993       925      1002      3842      3872      3873
 -1      1911    8    0    1
 -2       848       946      1002      3690      3874      3871
 -1      1912    8    0    1
 -2       849       931       983      3645      3875      3810
 -1      1913    8    0    1
 -2       853       924       949      3841      3876      3702
 -1      1914    8    0    1
 -2       926       999      1003      3862      3877      3878
 -1      1915    8    0    1
 -2       926      1003       950      3878      3879      3709
 -1      1916    8    0    1
 -2       932       949      1004      3704      3880      3881
 -1      1917    8    0    1
 -2       932      1004       947      3881      3882      3695
 -1      1918    8    0    1
 -2       936       831       953      3655      3722      3883
 -1      1919    8    0    1
 -2       966       898      1005      3762      3884      3885
 -1      1920    8    0    1
 -2       898       927      1005      3627      3886      3884
 -1      1921    8    0    1
 -2       937       897      1006      3662      3887      3888
 -1      1922    8    0    1
 -2       949       924       921      3876      3619      3889
 -1      1923    8    0    1
 -2       938       832       941      3667      3677      3890
 -1      1924    8    0    1
 -2       884       883      1007      3502      3891      3892
 -1      1925    8    0    1
 -2       896       978       953      3797      3893      3723
 -1      1926    8    0    1
 -2       979       902       943      3800      3894      3895
 -1      1927    8    0    1
 -2       943       865      1008      3682      3896      3897
 -1      1928    8    0    1
 -2       865       950      1008      3711      3898      3896
 -1      1929    8    0    1
 -2       967       884      1007      3764      3892      3899
 -1      1930    8    0    1
 -2       897       938      1009      3666      3900      3901
 -1      1931    8    0    1
 -2       897      1009      1006      3901      3902      3887
 -1      1932    8    0    1
 -2       941       899      1010      3675      3903      3904
 -1      1933    8    0    1
 -2       899       966      1010      3763      3905      3903
 -1      1934    8    0    1
 -2       982       951       997      3808      3854      3906
 -1      1935    8    0    1
 -2       944       920      1011      3683      3907      3908
 -1      1936    8    0    1
 -2       945       930      1012      3688      3909      3910
 -1      1937    8    0    1
 -2       930       940      1013      3673      3911      3912
 -1      1938    8    0    1
 -2       930      1013      1012      3912      3913      3909
 -1      1939    8    0    1
 -2       854       937       940      3664      3914      3674
 -1      1940    8    0    1
 -2       915       982       992      3840      3915      3837
 -1      1941    8    0    1
 -2       995       918       947      3847      3694      3916
 -1      1942    8    0    1
 -2       903       942      1014      3805      3917      3918
 -1      1943    8    0    1
 -2       994       923       995      3845      3848      3919
 -1      1944    8    0    1
 -2       902       903      1014      3556      3918      3920
 -1      1945    8    0    1
 -2       946       948      1015      3700      3921      3922
 -1      1946    8    0    1
 -2       864       904      1014      3708      3923      3924
 -1      1947    8    0    1
 -2       920       936      1016      3657      3925      3926
 -1      1948    8    0    1
 -2       920      1016      1011      3926      3927      3907
 -1      1949    8    0    1
 -2       883       868      1007      3761      3928      3891
 -1      1950    8    0    1
 -2       927       900      1017      3628      3929      3930
 -1      1951    8    0    1
 -2       927      1017      1005      3930      3931      3886
 -1      1952    8    0    1
 -2       946      1015      1018      3922      3932      3933
 -1      1953    8    0    1
 -2       946      1018      1002      3933      3934      3874
 -1      1954    8    0    1
 -2       999       922       965      3861      3863      3935
 -1      1955    8    0    1
 -2       921      1001       949      3869      3936      3889
 -1      1956    8    0    1
 -2       983       931       998      3875      3858      3937
 -1      1957    8    0    1
 -2      1014       904       943      3923      3681      3938
 -1      1958    8    0    1
 -2      1017       900       980      3929      3803      3939
 -1      1959    8    0    1
 -2       956       955      1019      3733      3940      3941
 -1      1960    8    0    1
 -2       957       956      1020      3736      3942      3943
 -1      1961    8    0    1
 -2       956      1019      1020      3941      3944      3942
 -1      1962    8    0    1
 -2       958       957      1021      3739      3945      3946
 -1      1963    8    0    1
 -2       957      1020      1021      3943      3947      3945
 -1      1964    8    0    1
 -2       959       958      1022      3742      3948      3949
 -1      1965    8    0    1
 -2       958      1021      1022      3946      3950      3948
 -1      1966    8    0    1
 -2       960       959      1023      3745      3951      3952
 -1      1967    8    0    1
 -2       959      1022      1023      3949      3953      3951
 -1      1968    8    0    1
 -2       961       960      1024      3748      3954      3955
 -1      1969    8    0    1
 -2       960      1023      1024      3952      3956      3954
 -1      1970    8    0    1
 -2       962       961      1025      3751      3957      3958
 -1      1971    8    0    1
 -2       961      1024      1025      3955      3959      3957
 -1      1972    8    0    1
 -2       963       962      1026      3754      3960      3961
 -1      1973    8    0    1
 -2       962      1025      1026      3958      3962      3960
 -1      1974    8    0    1
 -2       964       963      1027      3757      3963      3964
 -1      1975    8    0    1
 -2       963      1026      1027      3961      3965      3963
 -1      1976    8    0    1
 -2       965       964      1028      3760      3966      3967
 -1      1977    8    0    1
 -2       999       965      1028      3935      3967      3968
 -1      1978    8    0    1
 -2       964      1027      1028      3964      3969      3966
 -1      1979    8    0    1
 -2       983       998      1029      3937      3970      3971
 -1      1980    8    0    1
 -2       968       967      1030      3768      3972      3973
 -1      1981    8    0    1
 -2       953       978       936      3893      3974      3883
 -1      1982    8    0    1
 -2       969       968      1031      3771      3975      3976
 -1      1983    8    0    1
 -2       968      1030      1031      3973      3977      3975
 -1      1984    8    0    1
 -2       970       969      1032      3774      3978      3979
 -1      1985    8    0    1
 -2       969      1031      1032      3976      3980      3978
 -1      1986    8    0    1
 -2       971       970      1033      3777      3981      3982
 -1      1987    8    0    1
 -2       970      1032      1033      3979      3983      3981
 -1      1988    8    0    1
 -2       972       971      1034      3780      3984      3985
 -1      1989    8    0    1
 -2       971      1033      1034      3982      3986      3984
 -1      1990    8    0    1
 -2       973       972      1035      3783      3987      3988
 -1      1991    8    0    1
 -2       972      1034      1035      3985      3989      3987
 -1      1992    8    0    1
 -2       974       973      1036      3786      3990      3991
 -1      1993    8    0    1
 -2       973      1035      1036      3988      3992      3990
 -1      1994    8    0    1
 -2       975       974      1037      3789      3993      3994
 -1      1995    8    0    1
 -2       974      1036      1037      3991      3995      3993
 -1      1996    8    0    1
 -2       976       975      1038      3792      3996      3997
 -1      1997    8    0    1
 -2       975      1037      1038      3994      3998      3996
 -1      1998    8    0    1
 -2       977       976      1039      3795      3999      4000
 -1      1999    8    0    1
 -2       976      1038      1039      3997      4001      3999
 -1      2000    8    0    1
 -2       978       977      1040      3798      4002      4003
 -1      2001    8    0    1
 -2       977      1039      1040      4000      4004      4002
 -1      2002    8    0    1
 -2       980       979      1041      3804      4005      4006
 -1      2003    8    0    1
 -2       940       937      1042      3914      4007      4008
 -1      2004    8    0    1
 -2       940      1042      1013      4008      4009      3911
 -1      2005    8    0    1
 -2       942       837       864      3678      3436      4010
 -1      2006    8    0    1
 -2      1007       868       994      3928      3846      4011
 -1      2007    8    0    1
 -2      1017       980      1043      3939      4012      4013
 -1      2008    8    0    1
 -2       980      1041      1043      4006      4014      4012
 -1      2009    8    0    1
 -2       986       987      1044      3824      4015      4016
 -1      2010    8    0    1
 -2       948       983      1045      3812      4017      4018
 -1      2011    8    0    1
 -2      1015       948      1045      3921      4018      4019
 -1      2012    8    0    1
 -2       983      1029      1045      3971      4020      4017
 -1      2013    8    0    1
 -2       984       981      1046      3815      4021      4022
 -1      2014    8    0    1
 -2       985       984      1047      3818      4023      4024
 -1      2015    8    0    1
 -2       984      1046      1047      4022      4025      4023
 -1      2016    8    0    1
 -2       987       988      1048      3827      4026      4027
 -1      2017    8    0    1
 -2       987      1048      1044      4027      4028      4015
 -1      2018    8    0    1
 -2       988       989      1049      3830      4029      4030
 -1      2019    8    0    1
 -2       988      1049      1048      4030      4031      4026
 -1      2020    8    0    1
 -2       989       990      1050      3833      4032      4033
 -1      2021    8    0    1
 -2       989      1050      1049      4033      4034      4029
 -1      2022    8    0    1
 -2       990       991      1051      3836      4035      4036
 -1      2023    8    0    1
 -2       990      1051      1050      4036      4037      4032
 -1      2024    8    0    1
 -2       991       992      1052      3839      4038      4039
 -1      2025    8    0    1
 -2       991      1052      1051      4039      4040      4035
 -1      2026    8    0    1
 -2       995       947      1053      3916      4041      4042
 -1      2027    8    0    1
 -2      1001       985      1054      3870      4043      4044
 -1      2028    8    0    1
 -2       985      1047      1054      4024      4045      4043
 -1      2029    8    0    1
 -2      1014       942       864      3917      4010      3924
 -1      2030    8    0    1
 -2       994       995      1055      3919      4046      4047
 -1      2031    8    0    1
 -2       944      1011      1056      3908      4048      4049
 -1      2032    8    0    1
 -2       944      1056       997      4049      4050      3855
 -1      2033    8    0    1
 -2       982       997      1056      3906      4050      4051
 -1      2034    8    0    1
 -2       981       986      1057      3821      4052      4053
 -1      2035    8    0    1
 -2       986      1044      1057      4016      4054      4052
 -1      2036    8    0    1
 -2       993      1002      1058      3873      4055      4056
 -1      2037    8    0    1
 -2      1002      1018      1058      3934      4057      4055
 -1      2038    8    0    1
 -2       952       993      1059      3844      4058      4059
 -1      2039    8    0    1
 -2      1000       952      1059      3867      4059      4060
 -1      2040    8    0    1
 -2       993      1058      1059      4056      4061      4058
 -1      2041    8    0    1
 -2       938       941      1060      3890      4062      4063
 -1      2042    8    0    1
 -2      1009       938      1060      3900      4063      4064
 -1      2043    8    0    1
 -2       941      1010      1060      3904      4065      4062
 -1      2044    8    0    1
 -2       954       996      1061      3851      4066      4067
 -1      2045    8    0    1
 -2       937      1006      1042      3888      4068      4007
 -1      2046    8    0    1
 -2       955       954      1062      3729      4069      4070
 -1      2047    8    0    1
 -2      1019       955      1062      3940      4070      4071
 -1      2048    8    0    1
 -2       954      1061      1062      4067      4072      4069
 -1      2049    8    0    1
 -2       998       945      1029      3859      4073      3970
 -1      2050    8    0    1
 -2       949      1001      1004      3936      4074      3880
 -1      2051    8    0    1
 -2      1007       994      1055      4011      4047      4075
 -1      2052    8    0    1
 -2       992       982      1063      3915      4076      4077
 -1      2053    8    0    1
 -2      1052       992      1063      4038      4077      4078
 -1      2054    8    0    1
 -2       982      1056      1063      4051      4079      4076
 -1      2055    8    0    1
 -2       979       943      1008      3895      3897      4080
 -1      2056    8    0    1
 -2      1007      1055       967      4075      4081      3899
 -1      2057    8    0    1
 -2       999      1028      1003      3968      4082      3877
 -1      2058    8    0    1
 -2      1030       967      1055      3972      4081      4083
 -1      2059    8    0    1
 -2      1029       945      1012      4073      3910      4084
 -1      2060    8    0    1
 -2       978      1040      1016      4003      4085      4086
 -1      2061    8    0    1
 -2      1008       950      1064      3898      4087      4088
 -1      2062    8    0    1
 -2       950      1003      1064      3879      4089      4087
 -1      2063    8    0    1
 -2       936       978      1016      3974      4086      3925
 -1      2064    8    0    1
 -2      1005      1017      1065      3931      4090      4091
 -1      2065    8    0    1
 -2      1017      1043      1065      4013      4092      4090
 -1      2066    8    0    1
 -2       943       902      1014      3894      3920      3938
 -1      2067    8    0    1
 -2      1041       979      1008      4005      4080      4093
 -1      2068    8    0    1
 -2      1029      1012      1066      4084      4094      4095
 -1      2069    8    0    1
 -2      1029      1066      1045      4095      4096      4020
 -1      2070    8    0    1
 -2      1055       995      1053      4046      4042      4097
 -1      2071    8    0    1
 -2      1010       966      1067      3905      4098      4099
 -1      2072    8    0    1
 -2      1015      1045      1068      4019      4100      4101
 -1      2073    8    0    1
 -2      1045      1066      1068      4096      4102      4100
 -1      2074    8    0    1
 -2      1012      1013      1069      3913      4103      4104
 -1      2075    8    0    1
 -2      1012      1069      1066      4104      4105      4094
 -1      2076    8    0    1
 -2      1053       947      1070      4041      4106      4107
 -1      2077    8    0    1
 -2       947      1004      1070      3882      4108      4106
 -1      2078    8    0    1
 -2      1001      1054      1004      4044      4109      4074
 -1      2079    8    0    1
 -2      1056      1011      1071      4048      4110      4111
 -1      2080    8    0    1
 -2      1056      1071      1063      4111      4112      4079
 -1      2081    8    0    1
 -2       981      1057      1046      4053      4113      4021
 -1      2082    8    0    1
 -2       966      1005      1072      3885      4114      4115
 -1      2083    8    0    1
 -2       966      1072      1067      4115      4116      4098
 -1      2084    8    0    1
 -2      1042      1006      1073      4068      4117      4118
 -1      2085    8    0    1
 -2      1006      1009      1074      3902      4119      4120
 -1      2086    8    0    1
 -2      1006      1074      1073      4120      4121      4117
 -1      2087    8    0    1
 -2      1011      1016      1075      3927      4122      4123
 -1      2088    8    0    1
 -2      1071      1011      1075      4110      4123      4124
 -1      2089    8    0    1
 -2      1016      1040      1075      4085      4125      4122
 -1      2090    8    0    1
 -2       996      1000      1059      3866      4060      4126
 -1      2091    8    0    1
 -2      1018      1015      1076      3932      4127      4128
 -1      2092    8    0    1
 -2      1015      1068      1076      4101      4129      4127
 -1      2093    8    0    1
 -2       996      1059      1061      4126      4130      4066
 -1      2094    8    0    1
 -2      1021      1020      1077      3947      4131      4132
 -1      2095    8    0    1
 -2      1022      1021      1078      3950      4133      4134
 -1      2096    8    0    1
 -2      1021      1077      1078      4132      4135      4133
 -1      2097    8    0    1
 -2      1023      1022      1079      3953      4136      4137
 -1      2098    8    0    1
 -2      1022      1078      1079      4134      4138      4136
 -1      2099    8    0    1
 -2      1024      1023      1080      3956      4139      4140
 -1      2100    8    0    1
 -2      1023      1079      1080      4137      4141      4139
 -1      2101    8    0    1
 -2      1025      1024      1081      3959      4142      4143
 -1      2102    8    0    1
 -2      1024      1080      1081      4140      4144      4142
 -1      2103    8    0    1
 -2      1026      1025      1082      3962      4145      4146
 -1      2104    8    0    1
 -2      1025      1081      1082      4143      4147      4145
 -1      2105    8    0    1
 -2      1027      1026      1083      3965      4148      4149
 -1      2106    8    0    1
 -2      1026      1082      1083      4146      4150      4148
 -1      2107    8    0    1
 -2      1028      1027      1084      3969      4151      4152
 -1      2108    8    0    1
 -2      1027      1083      1084      4149      4153      4151
 -1      2109    8    0    1
 -2      1031      1030      1085      3977      4154      4155
 -1      2110    8    0    1
 -2      1032      1031      1086      3980      4156      4157
 -1      2111    8    0    1
 -2      1031      1085      1086      4155      4158      4156
 -1      2112    8    0    1
 -2      1033      1032      1087      3983      4159      4160
 -1      2113    8    0    1
 -2      1032      1086      1087      4157      4161      4159
 -1      2114    8    0    1
 -2      1034      1033      1088      3986      4162      4163
 -1      2115    8    0    1
 -2      1033      1087      1088      4160      4164      4162
 -1      2116    8    0    1
 -2      1035      1034      1089      3989      4165      4166
 -1      2117    8    0    1
 -2      1034      1088      1089      4163      4167      4165
 -1      2118    8    0    1
 -2      1036      1035      1090      3992      4168      4169
 -1      2119    8    0    1
 -2      1035      1089      1090      4166      4170      4168
 -1      2120    8    0    1
 -2      1037      1036      1091      3995      4171      4172
 -1      2121    8    0    1
 -2      1036      1090      1091      4169      4173      4171
 -1      2122    8    0    1
 -2      1038      1037      1092      3998      4174      4175
 -1      2123    8    0    1
 -2      1037      1091      1092      4172      4176      4174
 -1      2124    8    0    1
 -2      1039      1038      1093      4001      4177      4178
 -1      2125    8    0    1
 -2      1038      1092      1093      4175      4179      4177
 -1      2126    8    0    1
 -2      1040      1039      1075      4004      4180      4125
 -1      2127    8    0    1
 -2      1013      1042      1094      4009      4181      4182
 -1      2128    8    0    1
 -2      1069      1013      1094      4103      4182      4183
 -1      2129    8    0    1
 -2      1042      1073      1094      4118      4184      4181
 -1      2130    8    0    1
 -2      1068      1066      1095      4102      4185      4186
 -1      2131    8    0    1
 -2      1066      1069      1095      4105      4187      4185
 -1      2132    8    0    1
 -2      1061      1059      1058      4130      4061      4188
 -1      2133    8    0    1
 -2      1054      1047      1096      4045      4189      4190
 -1      2134    8    0    1
 -2      1055      1053      1085      4097      4191      4192
 -1      2135    8    0    1
 -2      1044      1048      1097      4028      4193      4194
 -1      2136    8    0    1
 -2      1043      1041      1098      4014      4195      4196
 -1      2137    8    0    1
 -2      1048      1049      1099      4031      4197      4198
 -1      2138    8    0    1
 -2      1048      1099      1097      4198      4199      4193
 -1      2139    8    0    1
 -2      1047      1046      1100      4025      4200      4201
 -1      2140    8    0    1
 -2      1047      1100      1096      4201      4202      4189
 -1      2141    8    0    1
 -2      1049      1050      1101      4034      4203      4204
 -1      2142    8    0    1
 -2      1049      1101      1099      4204      4205      4197
 -1      2143    8    0    1
 -2      1050      1051      1102      4037      4206      4207
 -1      2144    8    0    1
 -2      1050      1102      1101      4207      4208      4203
 -1      2145    8    0    1
 -2      1051      1052      1103      4040      4209      4210
 -1      2146    8    0    1
 -2      1051      1103      1102      4210      4211      4206
 -1      2147    8    0    1
 -2      1010      1067      1104      4099      4212      4213
 -1      2148    8    0    1
 -2      1010      1104      1060      4213      4214      4065
 -1      2149    8    0    1
 -2      1057      1044      1105      4054      4215      4216
 -1      2150    8    0    1
 -2      1044      1097      1105      4194      4217      4215
 -1      2151    8    0    1
 -2      1058      1018      1106      4057      4218      4219
 -1      2152    8    0    1
 -2      1018      1076      1106      4128      4220      4218
 -1      2153    8    0    1
 -2      1020      1019      1107      3944      4221      4222
 -1      2154    8    0    1
 -2      1020      1107      1077      4222      4223      4131
 -1      2155    8    0    1
 -2      1061      1058      1106      4188      4219      4224
 -1      2156    8    0    1
 -2      1004      1054      1070      4109      4225      4108
 -1      2157    8    0    1
 -2      1041      1008      1064      4093      4088      4226
 -1      2158    8    0    1
 -2      1003      1028      1084      4082      4152      4227
 -1      2159    8    0    1
 -2      1046      1057      1108      4113      4228      4229
 -1      2160    8    0    1
 -2      1057      1105      1108      4216      4230      4228
 -1      2161    8    0    1
 -2      1046      1108      1100      4229      4231      4200
 -1      2162    8    0    1
 -2      1064      1003      1084      4089      4227      4232
 -1      2163    8    0    1
 -2      1061      1106      1062      4224      4233      4072
 -1      2164    8    0    1
 -2      1075      1039      1093      4180      4178      4234
 -1      2165    8    0    1
 -2      1098      1041      1064      4195      4226      4235
 -1      2166    8    0    1
 -2      1094      1073      1109      4184      4236      4237
 -1      2167    8    0    1
 -2      1068      1095      1076      4186      4238      4129
 -1      2168    8    0    1
 -2      1070      1054      1096      4225      4190      4239
 -1      2169    8    0    1
 -2      1043      1098      1110      4196      4240      4241
 -1      2170    8    0    1
 -2      1043      1110      1065      4241      4242      4092
 -1      2171    8    0    1
 -2      1030      1055      1085      4083      4192      4154
 -1      2172    8    0    1
 -2      1103      1052      1063      4209      4078      4243
 -1      2173    8    0    1
 -2      1104      1067      1111      4212      4244      4245
 -1      2174    8    0    1
 -2      1005      1065      1072      4091      4246      4114
 -1      2175    8    0    1
 -2      1074      1009      1112      4119      4247      4248
 -1      2176    8    0    1
 -2      1009      1060      1112      4064      4249      4247
 -1      2177    8    0    1
 -2      1107      1019      1113      4221      4250      4251
 -1      2178    8    0    1
 -2      1019      1062      1113      4071      4252      4250
 -1      2179    8    0    1
 -2      1071      1075      1093      4124      4234      4253
 -1      2180    8    0    1
 -2      1067      1072      1114      4116      4254      4255
 -1      2181    8    0    1
 -2      1067      1114      1111      4255      4256      4244
 -1      2182    8    0    1
 -2      1073      1074      1115      4121      4257      4258
 -1      2183    8    0    1
 -2      1073      1115      1109      4258      4259      4236
 -1      2184    8    0    1
 -2      1063      1071      1103      4112      4260      4243
 -1      2185    8    0    1
 -2      1103      1071      1093      4260      4253      4261
 -1      2186    8    0    1
 -2      1077      1107      1115      4223      4262      4263
 -1      2187    8    0    1
 -2      1079      1078      1116      4138      4264      4265
 -1      2188    8    0    1
 -2      1080      1079      1111      4141      4266      4267
 -1      2189    8    0    1
 -2      1081      1080      1114      4144      4268      4269
 -1      2190    8    0    1
 -2      1083      1082      1117      4150      4270      4271
 -1      2191    8    0    1
 -2      1103      1093      1092      4261      4179      4272
 -1      2192    8    0    1
 -2      1062      1106      1113      4233      4273      4252
 -1      2193    8    0    1
 -2      1087      1086      1118      4161      4274      4275
 -1      2194    8    0    1
 -2      1088      1087      1105      4164      4276      4277
 -1      2195    8    0    1
 -2      1089      1088      1097      4167      4278      4279
 -1      2196    8    0    1
 -2      1090      1089      1099      4170      4280      4281
 -1      2197    8    0    1
 -2      1091      1090      1101      4173      4282      4283
 -1      2198    8    0    1
 -2      1092      1091      1102      4176      4284      4285
 -1      2199    8    0    1
 -2      1076      1095      1119      4238      4286      4287
 -1      2200    8    0    1
 -2      1076      1119      1106      4287      4288      4220
 -1      2201    8    0    1
 -2      1053      1070      1120      4107      4289      4290
 -1      2202    8    0    1
 -2      1085      1053      1120      4191      4290      4291
 -1      2203    8    0    1
 -2      1102      1091      1101      4284      4283      4208
 -1      2204    8    0    1
 -2      1098      1064      1084      4235      4232      4292
 -1      2205    8    0    1
 -2      1099      1101      1090      4205      4282      4281
 -1      2206    8    0    1
 -2      1097      1099      1089      4199      4280      4279
 -1      2207    8    0    1
 -2      1095      1069      1094      4187      4183      4293
 -1      2208    8    0    1
 -2      1097      1088      1105      4278      4277      4217
 -1      2209    8    0    1
 -2      1094      1109      1095      4237      4294      4293
 -1      2210    8    0    1
 -2      1102      1103      1092      4211      4272      4285
 -1      2211    8    0    1
 -2      1060      1104      1112      4214      4295      4249
 -1      2212    8    0    1
 -2      1072      1065      1121      4246      4296      4297
 -1      2213    8    0    1
 -2      1114      1072      1121      4254      4297      4298
 -1      2214    8    0    1
 -2      1065      1110      1121      4242      4299      4296
 -1      2215    8    0    1
 -2      1095      1109      1119      4294      4300      4286
 -1      2216    8    0    1
 -2      1086      1085      1122      4158      4301      4302
 -1      2217    8    0    1
 -2      1118      1086      1122      4274      4302      4303
 -1      2218    8    0    1
 -2      1085      1120      1122      4291      4304      4301
 -1      2219    8    0    1
 -2      1104      1111      1116      4245      4305      4306
 -1      2220    8    0    1
 -2      1111      1079      1116      4266      4265      4305
 -1      2221    8    0    1
 -2      1098      1084      1110      4292      4307      4240
 -1      2222    8    0    1
 -2      1070      1096      1120      4239      4308      4289
 -1      2223    8    0    1
 -2      1078      1077      1123      4135      4309      4310
 -1      2224    8    0    1
 -2      1116      1078      1123      4264      4310      4311
 -1      2225    8    0    1
 -2      1077      1115      1123      4263      4312      4309
 -1      2226    8    0    1
 -2      1100      1108      1118      4231      4313      4314
 -1      2227    8    0    1
 -2      1080      1111      1114      4267      4256      4268
 -1      2228    8    0    1
 -2      1120      1096      1122      4308      4315      4304
 -1      2229    8    0    1
 -2      1081      1114      1121      4269      4298      4316
 -1      2230    8    0    1
 -2      1082      1081      1121      4147      4316      4317
 -1      2231    8    0    1
 -2      1084      1083      1110      4153      4318      4307
 -1      2232    8    0    1
 -2      1105      1087      1118      4276      4275      4319
 -1      2233    8    0    1
 -2      1112      1104      1116      4295      4306      4320
 -1      2234    8    0    1
 -2      1106      1119      1113      4288      4321      4273
 -1      2235    8    0    1
 -2      1115      1107      1109      4262      4322      4259
 -1      2236    8    0    1
 -2      1096      1100      1122      4202      4323      4315
 -1      2237    8    0    1
 -2      1122      1100      1118      4323      4314      4303
 -1      2238    8    0    1
 -2      1107      1113      1109      4251      4324      4322
 -1      2239    8    0    1
 -2      1119      1109      1113      4300      4324      4321
 -1      2240    8    0    1
 -2      1115      1074      1123      4257      4325      4312
 -1      2241    8    0    1
 -2      1123      1074      1112      4325      4248      4326
 -1      2242    8    0    1
 -2      1116      1123      1112      4311      4326      4320
 -1      2243    8    0    1
 -2      1117      1082      1121      4270      4317      4327
 -1      2244    8    0    1
 -2      1108      1105      1118      4230      4319      4313
 -1      2245    8    0    1
 -2      1083      1117      1110      4271      4328      4318
 -1      2246    8    0    1
 -2      1121      1110      1117      4299      4328      4327
 -3
    1PSTEP                         1           1           1          
  100CL  101 1.000000000        4328                     0    1           1
 -4  DISP        4    1
 -5  D1          1    2    1    0
 -5  D2          1    2    2    0
 -5  D3          1    2    3    0
 -5  ALL         1    2    0    0    1ALL
 -1         1 5.96217E-03-4.58147E-04-4.78629E-14
 -1         2 9.77371E-03 1.36462E-04-6.47607E-14
 -1         3 1.53631E-02 1.21785E-03-1.92075E-13
 -1         4 1.50263E-02-2.05873E-04-2.02203E-13
 -1         5 0.00000E+00 0.00000E+00 0.00000E+00
 -1         6 0.00000E+00 0.00000E+00 0.00000E+00
 -1         7 0.00000E+00 0.00000E+00 0.00000E+00
 -1         8 0.00000E+00 0.00000E+00 0.00000E+00
 -1         9 0.00000E+00 0.00000E+00 0.00000E+00
 -1        10 0.00000E+00 0.00000E+00 0.00000E+00
 -1        11 0.00000E+00 0.00000E+00 0.00000E+00
 -1        12 0.00000E+00 0.00000E+00 0.00000E+00
 -1        13 0.00000E+00 0.00000E+00 0.00000E+00
 -1        14 0.00000E+00 0.00000E+00 0.00000E+00
 -1        15 0.00000E+00 0.00000E+00 0.00000E+00
 -1        16 0.00000E+00 0.00000E+00 0.00000E+00
 -1        17 0.00000E+00 0.00000E+00 0.00000E+00
 -1        18 0.00000E+00 0.00000E+00 0.00000E+00
 -1        19 0.00000E+00 0.00000E+00 0.00000E+00
 -1        20 0.00000E+00 0.00000E+00 0.00000E+00
 -1        21 0.00000E+00 0.00000E+00 0.00000E+00
 -1        22 0.00000E+00 0.00000E+00 0.00000E+00
 -1        23 4.09705E-04-2.59208E-04 3.13877E-17
 -1        24 7.00698E-04-3.97674E-04-1.73218E-16
 -1        25 9.70145E-04-4.92839E-04-6.03697E-16
 -1        26 1.23436E-03-5.58887E-04-1.25358E-15
 -1        27 1.49807E-03-6.04884E-04-2.11481E-15
 -1        28 1.76352E-03-6.36138E-04-3.18024E-15
 -1        29 2.03194E-03-6.56307E-04-4.44554E-15
 -1        30 2.30405E-03-6.68078E-04-5.90495E-15
 -1        31 2.58039E-03-6.73541E-04-7.55715E-15
 -1        32 2.86142E-03-6.74415E-04-9.39715E-15
 -1        33 3.14767E-03-6.72228E-04-1.14186E-14
 -1        34 3.43976E-03-6.68476E-04-1.36134E-14
 -1        35 3.73844E-03-6.64780E-04-1.59781E-14
 -1        36 4.04450E-03-6.63040E-04-1.85077E-14
 -1        37 4.35867E-03-6.65574E-04-2.11970E-14
 -1        38 4.68141E-03-6.75200E-04-2.40466E-14
 -1        39 5.01246E-03-6.95180E-04-2.70546E-14
 -1        40 5.35038E-03-7.28899E-04-3.02218E-14
 -1        41 5.69194E-03-7.79113E-04-3.35463E-14
 -1        42 6.03172E-03-8.46608E-04-3.70307E-14
 -1        43 6.36241E-03-9.28374E-04-4.06795E-14
 -1        44 6.67628E-03-1.01592E-03-4.44930E-14
 -1        45 6.96811E-03-1.09501E-03-4.84738E-14
 -1        46 7.23852E-03-1.14834E-03-5.26335E-14
 -1        47 7.49553E-03-1.16125E-03-5.69646E-14
 -1        48 7.75252E-03-1.12787E-03-6.14608E-14
 -1        49 8.02288E-03-1.05397E-03-6.61190E-14
 -1        50 8.31471E-03-9.54151E-04-7.09451E-14
 -1        51 8.62869E-03-8.45714E-04-7.59314E-14
 -1        52 8.95968E-03-7.42904E-04-8.10766E-14
 -1        53 9.30002E-03-6.54250E-04-8.63619E-14
 -1        54 9.64246E-03-5.82805E-04-9.17753E-14
 -1        55 9.98168E-03-5.27839E-04-9.73082E-14
 -1        56 1.03146E-02-4.86671E-04-1.02950E-13
 -1        57 1.06398E-02-4.56021E-04-1.08692E-13
 -1        58 1.09573E-02-4.32791E-04-1.14521E-13
 -1        59 1.12678E-02-4.14402E-04-1.20428E-13
 -1        60 1.15723E-02-3.98875E-04-1.26390E-13
 -1        61 1.18717E-02-3.84787E-04-1.32411E-13
 -1        62 1.21672E-02-3.71166E-04-1.38505E-13
 -1        63 1.24597E-02-3.57391E-04-1.44682E-13
 -1        64 1.27498E-02-3.43095E-04-1.50930E-13
 -1        65 1.30383E-02-3.28093E-04-1.57249E-13
 -1        66 1.33256E-02-3.12316E-04-1.63621E-13
 -1        67 1.36120E-02-2.95777E-04-1.70043E-13
 -1        68 1.38980E-02-2.78535E-04-1.76502E-13
 -1        69 1.41837E-02-2.60684E-04-1.82991E-13
 -1        70 1.44693E-02-2.42346E-04-1.89488E-13
 -1        71 1.47549E-02-2.23687E-04-1.95996E-13
 -1        72 4.12120E-04 2.59901E-04 1.14377E-16
 -1        73 7.00496E-04 4.00359E-04 5.43660E-17
 -1        74 9.70634E-04 4.94580E-04-1.80330E-16
 -1        75 1.23512E-03 5.60538E-04-5.96172E-16
 -1        76 1.49892E-03 6.06532E-04-1.19727E-15
 -1        77 1.76441E-03 6.37792E-04-1.98384E-15
 -1        78 2.03284E-03 6.57935E-04-2.95305E-15
 -1        79 2.30497E-03 6.69615E-04-4.10236E-15
 -1        80 2.58136E-03 6.74882E-04-5.42850E-15
 -1        81 2.86255E-03 6.75410E-04-6.93173E-15
 -1        82 3.14915E-03 6.72676E-04-8.61423E-15
 -1        83 3.44196E-03 6.68132E-04-1.04702E-14
 -1        84 3.74199E-03 6.63381E-04-1.24982E-14
 -1        85 4.05045E-03 6.60381E-04-1.46935E-14
 -1        86 4.36868E-03 6.61662E-04-1.70574E-14
 -1        87 4.69796E-03 6.70539E-04-1.95912E-14
 -1        88 5.03905E-03 6.91241E-04-2.22887E-14
 -1        89 5.39155E-03 7.28791E-04-2.51502E-14
 -1        90 5.75288E-03 7.88333E-04-2.81773E-14
 -1        91 6.11723E-03 8.73502E-04-3.13683E-14
 -1        92 6.47503E-03 9.83554E-04-3.47302E-14
 -1        93 6.81433E-03 1.10978E-03-3.82728E-14
 -1        94 7.12497E-03 1.23333E-03-4.20045E-14
 -1        95 7.40488E-03 1.32797E-03-4.59149E-14
 -1        96 7.66446E-03 1.36957E-03-5.00116E-14
 -1        97 7.92391E-03 1.34814E-03-5.42959E-14
 -1        98 8.20359E-03 1.27350E-03-5.87531E-14
 -1        99 8.51409E-03 1.16970E-03-6.33685E-14
 -1       100 8.85349E-03 1.06296E-03-6.81436E-14
 -1       101 9.21166E-03 9.72212E-04-7.30788E-14
 -1       102 9.57667E-03 9.06250E-04-7.81501E-14
 -1       103 9.93898E-03 8.65899E-04-8.33704E-14
 -1       104 1.02929E-02 8.47577E-04-8.87193E-14
 -1       105 1.06358E-02 8.46201E-04-9.42020E-14
 -1       106 1.09676E-02 8.56841E-04-9.98173E-14
 -1       107 1.12892E-02 8.75417E-04-1.05557E-13
 -1       108 1.16021E-02 8.98843E-04-1.11397E-13
 -1       109 1.19079E-02 9.24927E-04-1.17319E-13
 -1       110 1.22081E-02 9.52185E-04-1.23333E-13
 -1       111 1.25040E-02 9.79662E-04-1.29415E-13
 -1       112 1.27965E-02 1.00678E-03-1.35547E-13
 -1       113 1.30867E-02 1.03322E-03-1.41722E-13
 -1       114 1.33752E-02 1.05885E-03-1.47937E-13
 -1       115 1.36624E-02 1.08362E-03-1.54184E-13
 -1       116 1.39489E-02 1.10758E-03-1.60450E-13
 -1       117 1.42348E-02 1.13080E-03-1.66754E-13
 -1       118 1.45205E-02 1.15339E-03-1.73117E-13
 -1       119 1.48061E-02 1.17549E-03-1.79524E-13
 -1       120 1.50917E-02 1.19726E-03-1.85960E-13
 -1       121 1.53417E-02 1.13354E-03-1.92718E-13
 -1       122 1.53205E-02 1.04915E-03-1.93358E-13
 -1       123 1.52995E-02 9.64744E-04-1.93977E-13
 -1       124 1.52789E-02 8.80454E-04-1.94599E-13
 -1       125 1.52587E-02 7.96375E-04-1.95222E-13
 -1       126 1.52390E-02 7.13968E-04-1.95849E-13
 -1       127 1.52191E-02 6.30372E-04-1.96471E-13
 -1       128 1.51992E-02 5.46942E-04-1.97077E-13
 -1       129 1.51794E-02 4.63571E-04-1.97686E-13
 -1       130 1.51595E-02 3.80143E-04-1.98278E-13
 -1       131 1.51397E-02 2.96551E-04-1.98889E-13
 -1       132 1.51203E-02 2.14150E-04-1.99497E-13
 -1       133 1.51008E-02 1.30078E-04-2.00089E-13
 -1       134 1.50817E-02 4.57973E-05-2.00638E-13
 -1       135 1.50629E-02-3.86007E-05-2.01179E-13
 -1       136 1.50444E-02-1.22983E-04-2.01701E-13
 -1       137 9.73589E-03 3.02830E-04-6.43173E-14
 -1       138 9.60443E-03 4.65611E-04-6.34030E-14
 -1       139 9.39154E-03 6.13262E-04-6.21175E-14
 -1       140 9.06996E-03 7.55143E-04-6.03347E-14
 -1       141 8.69345E-03 8.62682E-04-5.83844E-14
 -1       142 8.25011E-03 9.38308E-04-5.62118E-14
 -1       143 7.74863E-03 9.72496E-04-5.38635E-14
 -1       144 7.28841E-03 9.59466E-04-5.18288E-14
 -1       145 6.81012E-03 9.00510E-04-4.97917E-14
 -1       146 6.40331E-03 8.10085E-04-4.81451E-14
 -1       147 6.02159E-03 6.79255E-04-4.66723E-14
 -1       148 5.72088E-03 5.23424E-04-4.55865E-14
 -1       149 5.51004E-03 3.48168E-04-4.49127E-14
 -1       150 5.41238E-03 1.80656E-04-4.47069E-14
 -1       151 5.40715E-03 1.12137E-05-4.48984E-14
 -1       152 5.50330E-03-1.62581E-04-4.55308E-14
 -1       153 5.70435E-03-3.28114E-04-4.65950E-14
 -1       154 6.27464E-03-5.64415E-04-4.93478E-14
 -1       155 6.63870E-03-6.46366E-04-5.10494E-14
 -1       156 7.04925E-03-6.99923E-04-5.29497E-14
 -1       157 7.47637E-03-7.19352E-04-5.49119E-14
 -1       158 7.93865E-03-7.01629E-04-5.70372E-14
 -1       159 8.35736E-03-6.50270E-04-5.89427E-14
 -1       160 8.74685E-03-5.67187E-04-6.07051E-14
 -1       161 9.08503E-03-4.59997E-04-6.22097E-14
 -1       162 9.36397E-03-3.33098E-04-6.34112E-14
 -1       163 9.57839E-03-1.89450E-04-6.42723E-14
 -1       164 9.71952E-03-3.00555E-05-6.47436E-14
 -1       165 2.40126E-04-1.24513E-04-5.72730E-17
 -1       166 2.25300E-04-9.35688E-05-8.37716E-17
 -1       167 2.19687E-04-7.17021E-05-9.66837E-17
 -1       168 2.16939E-04-5.40755E-05-1.02586E-16
 -1       169 2.15439E-04-3.90783E-05-1.04382E-16
 -1       170 2.14574E-04-2.52641E-05-1.03917E-16
 -1       171 2.14127E-04-1.23014E-05-1.01956E-16
 -1       172 2.13995E-04 2.67409E-07-9.92384E-17
 -1       173 2.14149E-04 1.28489E-05-9.54301E-17
 -1       174 2.14620E-04 2.58523E-05-9.03445E-17
 -1       175 2.15494E-04 3.95021E-05-8.35615E-17
 -1       176 2.17048E-04 5.48815E-05-7.35936E-17
 -1       177 2.19850E-04 7.27386E-05-5.89230E-17
 -1       178 2.25468E-04 9.49667E-05-3.60734E-17
 -1       179 2.39051E-04 1.26584E-04 5.52265E-19
 -1       180 2.96943E-04 1.84291E-04 4.12065E-17
 -1       181 4.67629E-04-2.61367E-04-1.51348E-16
 -1       182 7.65371E-04-3.77897E-04-5.05140E-16
 -1       183 1.04913E-03-4.58247E-04-1.06750E-15
 -1       184 1.32682E-03-5.13940E-04-1.83633E-15
 -1       185 1.60225E-03-5.51901E-04-2.80653E-15
 -1       186 1.87766E-03-5.76731E-04-3.97429E-15
 -1       187 2.15447E-03-5.91679E-04-5.33585E-15
 -1       188 2.43359E-03-5.99166E-04-6.88722E-15
 -1       189 2.71572E-03-6.01101E-04-8.62492E-15
 -1       190 3.00145E-03-5.99084E-04-1.05446E-14
 -1       191 3.29134E-03-5.94594E-04-1.26401E-14
 -1       192 3.58597E-03-5.89148E-04-1.49061E-14
 -1       193 3.88596E-03-5.84478E-04-1.73392E-14
 -1       194 4.19185E-03-5.82690E-04-1.99347E-14
 -1       195 4.50407E-03-5.86408E-04-2.26904E-14
 -1       196 4.82270E-03-5.98826E-04-2.56027E-14
 -1       197 5.14725E-03-6.23576E-04-2.86724E-14
 -1       198 5.47636E-03-6.64230E-04-3.18987E-14
 -1       199 5.80746E-03-7.23240E-04-3.52825E-14
 -1       200 6.13678E-03-8.00204E-04-3.88271E-14
 -1       201 6.45973E-03-8.89727E-04-4.25375E-14
 -1       202 6.77211E-03-9.79891E-04-4.64136E-14
 -1       203 7.07202E-03-1.05310E-03-5.04652E-14
 -1       204 7.36162E-03-1.09073E-03-5.46914E-14
 -1       205 7.64719E-03-1.08051E-03-5.90882E-14
 -1       206 7.93679E-03-1.02237E-03-6.36528E-14
 -1       207 8.23675E-03-9.28500E-04-6.83818E-14
 -1       208 8.54927E-03-8.17497E-04-7.32740E-14
 -1       209 8.87249E-03-7.06956E-04-7.83232E-14
 -1       210 9.20227E-03-6.08825E-04-8.35227E-14
 -1       211 9.53408E-03-5.28537E-04-8.88549E-14
 -1       212 9.86419E-03-4.66540E-04-9.43065E-14
 -1       213 1.01901E-02-4.20438E-04-9.98740E-14
 -1       214 1.05107E-02-3.86741E-04-1.05547E-13
 -1       215 1.08253E-02-3.61944E-04-1.11317E-13
 -1       216 1.11344E-02-3.43041E-04-1.17168E-13
 -1       217 1.14385E-02-3.27690E-04-1.23085E-13
 -1       218 1.17383E-02-3.14182E-04-1.29066E-13
 -1       219 1.20345E-02-3.01347E-04-1.35117E-13
 -1       220 1.23279E-02-2.88426E-04-1.41244E-13
 -1       221 1.26190E-02-2.74968E-04-1.47445E-13
 -1       222 1.29084E-02-2.60736E-04-1.53710E-13
 -1       223 1.31965E-02-2.45638E-04-1.60039E-13
 -1       224 1.34838E-02-2.29675E-04-1.66426E-13
 -1       225 1.37704E-02-2.12906E-04-1.72855E-13
 -1       226 1.40565E-02-1.95424E-04-1.79316E-13
 -1       227 1.43424E-02-1.77349E-04-1.85799E-13
 -1       228 1.46282E-02-1.58832E-04-1.92297E-13
 -1       229 6.03166E-04 3.28033E-04-5.44202E-17
 -1       230 8.91912E-04 4.27400E-04-3.14927E-16
 -1       231 1.17080E-03 4.96388E-04-7.50397E-16
 -1       232 1.44559E-03 5.44109E-04-1.36647E-15
 -1       233 1.71945E-03 5.76283E-04-2.16465E-15
 -1       234 1.99423E-03 5.96795E-04-3.14367E-15
 -1       235 2.27109E-03 6.08457E-04-4.30132E-15
 -1       236 2.55085E-03 6.13401E-04-5.63586E-15
 -1       237 2.83418E-03 6.13332E-04-7.14562E-15
 -1       238 3.12175E-03 6.09722E-04-8.83211E-15
 -1       239 3.41426E-03 6.03985E-04-1.06909E-14
 -1       240 3.71253E-03 5.97665E-04-1.27198E-14
 -1       241 4.01748E-03 5.92645E-04-1.49166E-14
 -1       242 4.33006E-03 5.91379E-04-1.72805E-14
 -1       243 4.65115E-03 5.97140E-04-1.98112E-14
 -1       244 4.98127E-03 6.14197E-04-2.25076E-14
 -1       245 5.32019E-03 6.47788E-04-2.53675E-14
 -1       246 5.66639E-03 7.03566E-04-2.83885E-14
 -1       247 6.01647E-03 7.86076E-04-3.15723E-14
 -1       248 6.36486E-03 8.95846E-04-3.49267E-14
 -1       249 6.70445E-03 1.02537E-03-3.84585E-14
 -1       250 7.02881E-03 1.15603E-03-4.21731E-14
 -1       251 7.33571E-03 1.25991E-03-4.60693E-14
 -1       252 7.63018E-03 1.30952E-03-5.01512E-14
 -1       253 7.92347E-03 1.29181E-03-5.44227E-14
 -1       254 8.22750E-03 1.21595E-03-5.88713E-14
 -1       255 8.54870E-03 1.10773E-03-6.34832E-14
 -1       256 8.88612E-03 9.95868E-04-6.82512E-14
 -1       257 9.23383E-03 9.01026E-04-7.31762E-14
 -1       258 9.58467E-03 8.32639E-04-7.82437E-14
 -1       259 9.93278E-03 7.91401E-04-8.34516E-14
 -1       260 1.02744E-02 7.73305E-04-8.87883E-14
 -1       261 1.06078E-02 7.72822E-04-9.42583E-14
 -1       262 1.09328E-02 7.84671E-04-9.98562E-14
 -1       263 1.12497E-02 8.04535E-04-1.05577E-13
 -1       264 1.15597E-02 8.29192E-04-1.11396E-13
 -1       265 1.18638E-02 8.56375E-04-1.17300E-13
 -1       266 1.21632E-02 8.84572E-04-1.23291E-13
 -1       267 1.24589E-02 9.12828E-04-1.29355E-13
 -1       268 1.27516E-02 9.40577E-04-1.35477E-13
 -1       269 1.30421E-02 9.67517E-04-1.41648E-13
 -1       270 1.33310E-02 9.93527E-04-1.47858E-13
 -1       271 1.36188E-02 1.01859E-03-1.54096E-13
 -1       272 1.39057E-02 1.04277E-03-1.60360E-13
 -1       273 1.41920E-02 1.06614E-03-1.66661E-13
 -1       274 1.44780E-02 1.08884E-03-1.73016E-13
 -1       275 1.47638E-02 1.11099E-03-1.79414E-13
 -1       276 1.50495E-02 1.13277E-03-1.85843E-13
 -1       277 1.50836E-02 1.07266E-03-1.87461E-13
 -1       278 1.50625E-02 9.88418E-04-1.88095E-13
 -1       279 1.50418E-02 9.04289E-04-1.88719E-13
 -1       280 1.50214E-02 8.20334E-04-1.89346E-13
 -1       281 1.50017E-02 7.38004E-04-1.89960E-13
 -1       282 1.49818E-02 6.54454E-04-1.90585E-13
 -1       283 1.49620E-02 5.71065E-04-1.91207E-13
 -1       284 1.49421E-02 4.87765E-04-1.91819E-13
 -1       285 1.49222E-02 4.04464E-04-1.92417E-13
 -1       286 1.49024E-02 3.21076E-04-1.93012E-13
 -1       287 1.48829E-02 2.38945E-04-1.93591E-13
 -1       288 1.48632E-02 1.55198E-04-1.94169E-13
 -1       289 1.48438E-02 7.12451E-05-1.94729E-13
 -1       290 1.48248E-02-1.28783E-05-1.95267E-13
 -1       291 1.47264E-02-8.58579E-05-1.93786E-13
 -1       292 9.78862E-03 1.87345E-04-6.65014E-14
 -1       293 9.66851E-03 2.82887E-04-6.58058E-14
 -1       294 9.43771E-03 4.10978E-04-6.43577E-14
 -1       295 9.10212E-03 5.59706E-04-6.26955E-14
 -1       296 8.73112E-03 7.47271E-04-6.02836E-14
 -1       297 8.32616E-03 9.09091E-04-5.79018E-14
 -1       298 7.91939E-03 1.03061E-03-5.51857E-14
 -1       299 7.53976E-03 1.04474E-03-5.25832E-14
 -1       300 7.16294E-03 9.81177E-04-5.01328E-14
 -1       301 6.75998E-03 8.37602E-04-4.80934E-14
 -1       302 6.36311E-03 6.58996E-04-4.63112E-14
 -1       303 5.97578E-03 4.70919E-04-4.48635E-14
 -1       304 5.65561E-03 2.96849E-04-4.36871E-14
 -1       305 5.44405E-03 1.85635E-04-4.33919E-14
 -1       306 5.37130E-03 9.07608E-05-4.33879E-14
 -1       307 5.43426E-03-2.31031E-06-4.37520E-14
 -1       308 5.63728E-03-1.25327E-04-4.47971E-14
 -1       309 5.93164E-03-2.67823E-04-4.61180E-14
 -1       310 6.25943E-03-4.20283E-04-4.76864E-14
 -1       311 6.60671E-03-5.72069E-04-4.95139E-14
 -1       312 6.96285E-03-7.01279E-04-5.15942E-14
 -1       313 7.31527E-03-7.79483E-04-5.38449E-14
 -1       314 7.67263E-03-7.93578E-04-5.62847E-14
 -1       315 8.03975E-03-7.18347E-04-5.86321E-14
 -1       316 8.39375E-03-5.91453E-04-6.08855E-14
 -1       317 8.76180E-03-4.33890E-04-6.27749E-14
 -1       318 9.09851E-03-2.66495E-04-6.45165E-14
 -1       319 9.40369E-03-1.19845E-04-6.57807E-14
 -1       320 9.64259E-03 1.41518E-06-6.66022E-14
 -1       321 9.78089E-03 1.01061E-04-6.70409E-14
 -1       322 4.55635E-04-1.62348E-04-3.25908E-16
 -1       323 4.74106E-04-2.10511E-04-2.85182E-16
 -1       324 4.40803E-04-9.19279E-05-3.56889E-16
 -1       325 4.37744E-04-6.32634E-05-3.58932E-16
 -1       326 4.36017E-04-3.68517E-05-3.56201E-16
 -1       327 4.35242E-04-1.16638E-05-3.49720E-16
 -1       328 4.35276E-04 1.31522E-05-3.40209E-16
 -1       329 4.36125E-04 3.83986E-05-3.27158E-16
 -1       330 4.37900E-04 6.44715E-05-3.09906E-16
 -1       331 4.41057E-04 9.33081E-05-2.86595E-16
 -1       332 4.46463E-04 1.25959E-04-2.54418E-16
 -1       333 4.56148E-04 1.64833E-04-2.09034E-16
 -1       334 4.75717E-04 2.14559E-04-1.43582E-16
 -1       335 5.31362E-04 2.67250E-04-1.09637E-16
 -1       336 8.23706E-04 3.68564E-04-3.85356E-16
 -1       337 8.62981E-04-3.51981E-04-8.68192E-16
 -1       338 1.14962E-03-4.17897E-04-1.55211E-15
 -1       339 1.43304E-03-4.63597E-04-2.43308E-15
 -1       340 1.71489E-03-4.94131E-04-3.50791E-15
 -1       341 1.99644E-03-5.13210E-04-4.77436E-15
 -1       342 2.27868E-03-5.23606E-04-6.22886E-15
 -1       343 2.56235E-03-5.27456E-04-7.86673E-15
 -1       344 2.84804E-03-5.26483E-04-9.68621E-15
 -1       345 3.13627E-03-5.22188E-04-1.16832E-14
 -1       346 3.42754E-03-5.16016E-04-1.38516E-14
 -1       347 3.72234E-03-5.09529E-04-1.61879E-14
 -1       348 4.02120E-03-5.04578E-04-1.86895E-14
 -1       349 4.32466E-03-5.03468E-04-2.13513E-14
 -1       350 4.63320E-03-5.09084E-04-2.41717E-14
 -1       351 4.94724E-03-5.24914E-04-2.71460E-14
 -1       352 5.26692E-03-5.54834E-04-3.02757E-14
 -1       353 5.59183E-03-6.02471E-04-3.35589E-14
 -1       354 5.92066E-03-6.69889E-04-3.70017E-14
 -1       355 6.25073E-03-7.55485E-04-4.06079E-14
 -1       356 6.57798E-03-8.51417E-04-4.43792E-14
 -1       357 6.89810E-03-9.42015E-04-4.83198E-14
 -1       358 7.20900E-03-1.00582E-03-5.24397E-14
 -1       359 7.51326E-03-1.02302E-03-5.67345E-14
 -1       360 7.81752E-03-9.85383E-04-6.12009E-14
 -1       361 8.12845E-03-9.00997E-04-6.58361E-14
 -1       362 8.44866E-03-7.89633E-04-7.06367E-14
 -1       363 8.77611E-03-6.72736E-04-7.55974E-14
 -1       364 9.10652E-03-5.66001E-04-8.07080E-14
 -1       365 9.43585E-03-4.77306E-04-8.59571E-14
 -1       366 9.76145E-03-4.08297E-04-9.13317E-14
 -1       367 1.00821E-02-3.56952E-04-9.68238E-14
 -1       368 1.03973E-02-3.19708E-04-1.02426E-13
 -1       369 1.07075E-02-2.92781E-04-1.08131E-13
 -1       370 1.10130E-02-2.72836E-04-1.13926E-13
 -1       371 1.13144E-02-2.57213E-04-1.19797E-13
 -1       372 1.16123E-02-2.43941E-04-1.25737E-13
 -1       373 1.19074E-02-2.31641E-04-1.31740E-13
 -1       374 1.22002E-02-2.19407E-04-1.37820E-13
 -1       375 1.24911E-02-2.06684E-04-1.43973E-13
 -1       376 1.27805E-02-1.93170E-04-1.50194E-13
 -1       377 1.30688E-02-1.78732E-04-1.56478E-13
 -1       378 1.33563E-02-1.63353E-04-1.62822E-13
 -1       379 1.36431E-02-1.47082E-04-1.69220E-13
 -1       380 1.39295E-02-1.30011E-04-1.75653E-13
 -1       381 1.42156E-02-1.12255E-04-1.82117E-13
 -1       382 1.44711E-02-9.92200E-05-1.87946E-13
 -1       383 1.10933E-03 4.40142E-04-8.31271E-16
 -1       384 1.39062E-03 4.89847E-04-1.45374E-15
 -1       385 1.66999E-03 5.23374E-04-2.25622E-15
 -1       386 1.94916E-03 5.44739E-04-3.23780E-15
 -1       387 2.22932E-03 5.56871E-04-4.39660E-15
 -1       388 2.51135E-03 5.61979E-04-5.73146E-15
 -1       389 2.79592E-03 5.61810E-04-7.24057E-15
 -1       390 3.08366E-03 5.57844E-04-8.92508E-15
 -1       391 3.37518E-03 5.51472E-04-1.07803E-14
 -1       392 3.67117E-03 5.44184E-04-1.28047E-14
 -1       393 3.97234E-03 5.37777E-04-1.49966E-14
 -1       394 4.27948E-03 5.34592E-04-1.73556E-14
 -1       395 4.59338E-03 5.37765E-04-1.98796E-14
 -1       396 4.91471E-03 5.51441E-04-2.25677E-14
 -1       397 5.24384E-03 5.80824E-04-2.54190E-14
 -1       398 5.58055E-03 6.31786E-04-2.84310E-14
 -1       399 5.92349E-03 7.09608E-04-3.16043E-14
 -1       400 6.26967E-03 8.16315E-04-3.49444E-14
 -1       401 6.61402E-03 9.46522E-04-3.84595E-14
 -1       402 6.95032E-03 1.08319E-03-4.21532E-14
 -1       403 7.27420E-03 1.19752E-03-4.60290E-14
 -1       404 7.58737E-03 1.25782E-03-5.00913E-14
 -1       405 7.89835E-03 1.24628E-03-5.43461E-14
 -1       406 8.21724E-03 1.17058E-03-5.87840E-14
 -1       407 8.54882E-03 1.05874E-03-6.33855E-14
 -1       408 8.89083E-03 9.42509E-04-6.81451E-14
 -1       409 9.23733E-03 8.44255E-04-7.30587E-14
 -1       410 9.58262E-03 7.73776E-04-7.81153E-14
 -1       411 9.92287E-03 7.31531E-04-8.33119E-14
 -1       412 1.02562E-02 7.13178E-04-8.86349E-14
 -1       413 1.05821E-02 7.12908E-04-9.40861E-14
 -1       414 1.09008E-02 7.25245E-04-9.96683E-14
 -1       415 1.12129E-02 7.45735E-04-1.05370E-13
 -1       416 1.15193E-02 7.71061E-04-1.11171E-13
 -1       417 1.18210E-02 7.98897E-04-1.17061E-13
 -1       418 1.21188E-02 8.27697E-04-1.23031E-13
 -1       419 1.24135E-02 8.56485E-04-1.29080E-13
 -1       420 1.27057E-02 8.84689E-04-1.35192E-13
 -1       421 1.29960E-02 9.12010E-04-1.41355E-13
 -1       422 1.32849E-02 9.38330E-04-1.47561E-13
 -1       423 1.35727E-02 9.63643E-04-1.53794E-13
 -1       424 1.38597E-02 9.88011E-04-1.60052E-13
 -1       425 1.41462E-02 1.01154E-03-1.66349E-13
 -1       426 1.44324E-02 1.03434E-03-1.72694E-13
 -1       427 1.47183E-02 1.05656E-03-1.79086E-13
 -1       428 1.49010E-02 1.06467E-03-1.83269E-13
 -1       429 1.47842E-02 8.43786E-04-1.83472E-13
 -1       430 1.48047E-02 9.27676E-04-1.82846E-13
 -1       431 1.48527E-02 9.96123E-04-1.83060E-13
 -1       432 1.47644E-02 7.61547E-04-1.84086E-13
 -1       433 1.47446E-02 6.78123E-04-1.84707E-13
 -1       434 1.47248E-02 5.94895E-04-1.85327E-13
 -1       435 1.47050E-02 5.11799E-04-1.85941E-13
 -1       436 1.46851E-02 4.28748E-04-1.86543E-13
 -1       437 1.46652E-02 3.45649E-04-1.87138E-13
 -1       438 1.46456E-02 2.63830E-04-1.87712E-13
 -1       439 1.46257E-02 1.80405E-04-1.88280E-13
 -1       440 1.46061E-02 9.67472E-05-1.88834E-13
 -1       441 1.45868E-02 1.28562E-05-1.89376E-13
 -1       442 9.54274E-03 2.86381E-04-6.73277E-14
 -1       443 9.81885E-03 1.50934E-04-6.90104E-14
 -1       444 9.75918E-03 1.99614E-04-6.84821E-14
 -1       445 9.27463E-03 4.02242E-04-6.56185E-14
 -1       446 8.83180E-03 6.20964E-04-6.27232E-14
 -1       447 4.46065E-04-1.24063E-04-3.47162E-16
 -1       448 8.10078E-03 9.86283E-04-5.70427E-14
 -1       449 7.68659E-03 1.08565E-03-5.34212E-14
 -1       450 7.39907E-03 1.05766E-03-5.09471E-14
 -1       451 7.00555E-03 9.08489E-04-4.80008E-14
 -1       452 6.63369E-03 7.21388E-04-4.61319E-14
 -1       453 6.22759E-03 5.06111E-04-4.43118E-14
 -1       454 5.85670E-03 3.23193E-04-4.29157E-14
 -1       455 5.52270E-03 1.74948E-04-4.17167E-14
 -1       456 5.37732E-03 1.12316E-04-4.17636E-14
 -1       457 5.36792E-03 6.01466E-05-4.19581E-14
 -1       458 5.52916E-03-1.74352E-05-4.28859E-14
 -1       459 5.80423E-03-1.32692E-04-4.41716E-14
 -1       460 6.14742E-03-2.87658E-04-4.57359E-14
 -1       461 6.50048E-03-4.65314E-04-4.76789E-14
 -1       462 6.84833E-03-6.38434E-04-4.99271E-14
 -1       463 7.18111E-03-7.72138E-04-5.23976E-14
 -1       464 7.45728E-03-8.27283E-04-5.47945E-14
 -1       465 7.83946E-03-7.84694E-04-5.82028E-14
 -1       466 8.14380E-03-6.69159E-04-6.05402E-14
 -1       467 8.51658E-03-4.80302E-04-6.32317E-14
 -1       468 8.85342E-03-3.02747E-04-6.52312E-14
 -1       469 9.21518E-03-1.24319E-04-6.70967E-14
 -1       470 9.51895E-03 3.44282E-06-6.82164E-14
 -1       471 9.72910E-03 9.06244E-05-6.90749E-14
 -1       472 8.49862E-03 7.97870E-04-6.02807E-14
 -1       473 7.88014E-03 1.06874E-03-5.52381E-14
 -1       474 9.31443E-04 3.39840E-04-7.32307E-16
 -1       475 6.65860E-04-7.29116E-05-7.58701E-16
 -1       476 6.70071E-04-1.12796E-04-7.59467E-16
 -1       477 6.62932E-04 1.08456E-06-7.34937E-16
 -1       478 6.63729E-04 3.75729E-05-7.13456E-16
 -1       479 6.66063E-04 7.45758E-05-6.85124E-16
 -1       480 6.70405E-04 1.14610E-04-6.47079E-16
 -1       481 6.77612E-04 1.58600E-04-5.97165E-16
 -1       482 6.89533E-04 2.08591E-04-5.30670E-16
 -1       483 1.21772E-03 3.97286E-04-1.30603E-15
 -1       484 9.76786E-04-3.21963E-04-1.26589E-15
 -1       485 8.28565E-03 9.09110E-04-5.93373E-14
 -1       486 1.26309E-03-3.73740E-04-2.06160E-15
 -1       487 1.54875E-03-4.09689E-04-3.04760E-15
 -1       488 1.83385E-03-4.33155E-04-4.22162E-15
 -1       489 2.11880E-03-4.46957E-04-5.58193E-15
 -1       490 2.40408E-03-4.53351E-04-7.12354E-15
 -1       491 2.69011E-03-4.54155E-04-8.84482E-15
 -1       492 2.97725E-03-4.50893E-04-1.07432E-14
 -1       493 3.26590E-03-4.44945E-04-1.28155E-14
 -1       494 3.55643E-03-4.37705E-04-1.50554E-14
 -1       495 3.84930E-03-4.30741E-04-1.74620E-14
 -1       496 4.14508E-03-4.25953E-04-2.00306E-14
 -1       497 4.44454E-03-4.25739E-04-2.27567E-14
 -1       498 4.74864E-03-4.33112E-04-2.56396E-14
 -1       499 5.05863E-03-4.51732E-04-2.86752E-14
 -1       500 5.37585E-03-4.85730E-04-3.18620E-14
 -1       501 5.70132E-03-5.39083E-04-3.52045E-14
 -1       502 6.03482E-03-6.14153E-04-3.87068E-14
 -1       503 6.37362E-03-7.08958E-04-4.23719E-14
 -1       504 6.71190E-03-8.13195E-04-4.62034E-14
 -1       505 7.04289E-03-9.05499E-04-5.02102E-14
 -1       506 7.36394E-03-9.57400E-04-5.43975E-14
 -1       507 7.68024E-03-9.47252E-04-5.87651E-14
 -1       508 8.00123E-03-8.74860E-04-6.33062E-14
 -1       509 8.33226E-03-7.61907E-04-6.80157E-14
 -1       510 8.67064E-03-6.36765E-04-7.28878E-14
 -1       511 9.00963E-03-5.20881E-04-7.79146E-14
 -1       512 9.34343E-03-4.24570E-04-8.30810E-14
 -1       513 9.66930E-03-3.49875E-04-8.83799E-14
 -1       514 9.98702E-03-2.94459E-04-9.37964E-14
 -1       515 1.02977E-02-2.54393E-04-9.93264E-14
 -1       516 1.06026E-02-2.25614E-04-1.04961E-13
 -1       517 1.09030E-02-2.04574E-04-1.10697E-13
 -1       518 1.12000E-02-1.88440E-04-1.16519E-13
 -1       519 1.14944E-02-1.75087E-04-1.22413E-13
 -1       520 1.17867E-02-1.63001E-04-1.28376E-13
 -1       521 1.20774E-02-1.51165E-04-1.34409E-13
 -1       522 1.23669E-02-1.38938E-04-1.40516E-13
 -1       523 1.26553E-02-1.25953E-04-1.46694E-13
 -1       524 1.29430E-02-1.12036E-04-1.52935E-13
 -1       525 1.32301E-02-9.71426E-05-1.59236E-13
 -1       526 1.35168E-02-8.13067E-05-1.65598E-13
 -1       527 1.38031E-02-6.46114E-05-1.72001E-13
 -1       528 1.40892E-02-4.71655E-05-1.78437E-13
 -1       529 1.78640E-03 4.63571E-04-2.98052E-15
 -1       530 2.07009E-03 4.79468E-04-4.08277E-15
 -1       531 2.35428E-03 4.87346E-04-5.35933E-15
 -1       532 2.63956E-03 4.89111E-04-6.80916E-15
 -1       533 2.92639E-03 4.86322E-04-8.43197E-15
 -1       534 3.21524E-03 4.80352E-04-1.02260E-14
 -1       535 3.50655E-03 4.72560E-04-1.21888E-14
 -1       536 3.80081E-03 4.64478E-04-1.43180E-14
 -1       537 4.09860E-03 4.58020E-04-1.66148E-14
 -1       538 4.40063E-03 4.55714E-04-1.90761E-14
 -1       539 4.70783E-03 4.60945E-04-2.16993E-14
 -1       540 5.02143E-03 4.78159E-04-2.44838E-14
 -1       541 5.34296E-03 5.12894E-04-2.74273E-14
 -1       542 5.67408E-03 5.71400E-04-3.05321E-14
 -1       543 6.01579E-03 6.59301E-04-3.37983E-14
 -1       544 6.36683E-03 7.78462E-04-3.72289E-14
 -1       545 6.72176E-03 9.21369E-04-4.08328E-14
 -1       546 7.07157E-03 1.06445E-03-4.46150E-14
 -1       547 7.40958E-03 1.16862E-03-4.85852E-14
 -1       548 7.73935E-03 1.19660E-03-5.27496E-14
 -1       549 8.07288E-03 1.14035E-03-5.71073E-14
 -1       550 8.41821E-03 1.02781E-03-6.16434E-14
 -1       551 8.77232E-03 9.00488E-04-6.63403E-14
 -1       552 9.12613E-03 7.89267E-04-7.11896E-14
 -1       553 9.47240E-03 7.07634E-04-7.61871E-14
 -1       554 9.80832E-03 6.56796E-04-8.13202E-14
 -1       555 1.01342E-02 6.32181E-04-8.65844E-14
 -1       556 1.04517E-02 6.27592E-04-9.19736E-14
 -1       557 1.07624E-02 6.37170E-04-9.74891E-14
 -1       558 1.10677E-02 6.56111E-04-1.03125E-13
 -1       559 1.13688E-02 6.80777E-04-1.08871E-13
 -1       560 1.16665E-02 7.08567E-04-1.14711E-13
 -1       561 1.19614E-02 7.37712E-04-1.20631E-13
 -1       562 1.22541E-02 7.67067E-04-1.26635E-13
 -1       563 1.25451E-02 7.95940E-04-1.32710E-13
 -1       564 1.28347E-02 8.23951E-04-1.38845E-13
 -1       565 1.31232E-02 8.50931E-04-1.45026E-13
 -1       566 1.34108E-02 8.76844E-04-1.51246E-13
 -1       567 1.36979E-02 9.01739E-04-1.57489E-13
 -1       568 1.39845E-02 9.25712E-04-1.63761E-13
 -1       569 1.42707E-02 9.48880E-04-1.70077E-13
 -1       570 1.45567E-02 9.71379E-04-1.76450E-13
 -1       571 1.45074E-02 7.01302E-04-1.78852E-13
 -1       572 1.44877E-02 6.18288E-04-1.79468E-13
 -1       573 1.45470E-02 8.66782E-04-1.77613E-13
 -1       574 1.45270E-02 7.83889E-04-1.78233E-13
 -1       575 1.44680E-02 5.35481E-04-1.80079E-13
 -1       576 1.44482E-02 4.52784E-04-1.80682E-13
 -1       577 1.44283E-02 3.70084E-04-1.81271E-13
 -1       578 1.44086E-02 2.88674E-04-1.81845E-13
 -1       579 1.43885E-02 2.05653E-04-1.82410E-13
 -1       580 1.43686E-02 1.22355E-04-1.82962E-13
 -1       581 1.43490E-02 3.87463E-05-1.83501E-13
 -1       582 9.83830E-03 1.71288E-04-7.15473E-14
 -1       583 9.71354E-03 2.20620E-04-7.08372E-14
 -1       584 9.82613E-03 1.36033E-04-7.17559E-14
 -1       585 1.50253E-03 4.37224E-04-2.05490E-15
 -1       586 9.42881E-03 3.24740E-04-6.84934E-14
 -1       587 9.06324E-03 4.90846E-04-6.58107E-14
 -1       588 7.12993E-04-2.47403E-04-7.19649E-16
 -1       589 9.64419E-03 7.20564E-05-7.08398E-14
 -1       590 7.00636E-03-7.13066E-04-5.04571E-14
 -1       591 6.63607E-04-3.53679E-05-7.50170E-16
 -1       592 6.79141E-03 7.87835E-04-4.53720E-14
 -1       593 7.54828E-03 1.10123E-03-5.17753E-14
 -1       594 7.99735E-03-7.32392E-04-6.04304E-14
 -1       595 7.22192E-03 1.01221E-03-4.85618E-14
 -1       596 6.45272E-03 5.93196E-04-4.35799E-14
 -1       597 6.05157E-03 3.83584E-04-4.21238E-14
 -1       598 5.68042E-03 2.19759E-04-4.06372E-14
 -1       599 5.39965E-03 1.19072E-04-4.00216E-14
 -1       600 5.32220E-03 8.00910E-05-3.98557E-14
 -1       601 5.40561E-03 3.51309E-05-4.06097E-14
 -1       602 5.64140E-03-4.77887E-05-4.17599E-14
 -1       603 5.95367E-03-1.76793E-04-4.33095E-14
 -1       604 6.32815E-03-3.60390E-04-4.53971E-14
 -1       605 6.68671E-03-5.52525E-04-4.78262E-14
 -1       606 7.32485E-03-8.24242E-04-5.34954E-14
 -1       607 7.63775E-03-8.40615E-04-5.68088E-14
 -1       608 8.30824E-03-5.75535E-04-6.31224E-14
 -1       609 8.66861E-03-3.74503E-04-6.59096E-14
 -1       610 9.02696E-03-1.85465E-04-6.82732E-14
 -1       611 9.39528E-03-1.92458E-05-7.02792E-14
 -1       612 8.65893E-03 7.07200E-04-6.27654E-14
 -1       613 7.03753E-04 2.86717E-04-3.79389E-16
 -1       614 6.77066E-04-1.56399E-04-7.49956E-16
 -1       615 5.49853E-03 1.56800E-04-3.89517E-14
 -1       616 8.08319E-03 1.01767E-03-5.74823E-14
 -1       617 1.42822E-02-3.66752E-05-1.82816E-13
 -1       618 8.99183E-04 7.15786E-05-1.20776E-15
 -1       619 8.96847E-04 2.43055E-05-1.24743E-15
 -1       620 9.12133E-04 1.73101E-04-1.08990E-15
 -1       621 9.24821E-04 2.30873E-04-1.00404E-15
 -1       622 1.04961E-03 3.06526E-04-1.13150E-15
 -1       623 8.92680E-03 5.94281E-04-6.61887E-14
 -1       624 1.33568E-03 3.50896E-04-1.82880E-15
 -1       625 1.38422E-03-3.26026E-04-2.59691E-15
 -1       626 1.67066E-03-3.52941E-04-3.68151E-15
 -1       627 1.95719E-03-3.69901E-04-4.94860E-15
 -1       628 2.24366E-03-3.78990E-04-6.39654E-15
 -1       629 2.53011E-03-3.81983E-04-8.02222E-15
 -1       630 2.81663E-03-3.80372E-04-9.82319E-15
 -1       631 3.10338E-03-3.75456E-04-1.17974E-14
 -1       632 3.39057E-03-3.68465E-04-1.39419E-14
 -1       633 3.67849E-03-3.60680E-04-1.62532E-14
 -1       634 3.96762E-03-3.53579E-04-1.87284E-14
 -1       635 4.25867E-03-3.48984E-04-2.13630E-14
 -1       636 4.55280E-03-3.49210E-04-2.41538E-14
 -1       637 4.85173E-03-3.57234E-04-2.70970E-14
 -1       638 5.15787E-03-3.76844E-04-3.01898E-14
 -1       639 5.47422E-03-4.12721E-04-3.34356E-14
 -1       640 5.80355E-03-4.70116E-04-3.68364E-14
 -1       641 6.14680E-03-5.53273E-04-4.03963E-14
 -1       642 6.50030E-03-6.61354E-04-4.41181E-14
 -1       643 6.85413E-03-7.80285E-04-4.80075E-14
 -1       644 7.19849E-03-8.76632E-04-5.20813E-14
 -1       645 7.53112E-03-9.08705E-04-5.63429E-14
 -1       646 7.86318E-03-8.56519E-04-6.07866E-14
 -1       647 8.20740E-03-7.39467E-04-6.54067E-14
 -1       648 8.56134E-03-5.99745E-04-7.01937E-14
 -1       649 8.91489E-03-4.70686E-04-7.51406E-14
 -1       650 9.25825E-03-3.66339E-04-8.02273E-14
 -1       651 9.58775E-03-2.87691E-04-8.54463E-14
 -1       652 9.90424E-03-2.30465E-04-9.07934E-14
 -1       653 1.02105E-02-1.89467E-04-9.62467E-14
 -1       654 1.05096E-02-1.60054E-04-1.01811E-13
 -1       655 1.08039E-02-1.38516E-04-1.07481E-13
 -1       656 1.10951E-02-1.22013E-04-1.13250E-13
 -1       657 1.13844E-02-1.08441E-04-1.19100E-13
 -1       658 1.16725E-02-9.62882E-05-1.25020E-13
 -1       659 1.19598E-02-8.45181E-05-1.31006E-13
 -1       660 1.22467E-02-7.24581E-05-1.37074E-13
 -1       661 1.25332E-02-5.97080E-05-1.43207E-13
 -1       662 1.28195E-02-4.60630E-05-1.49406E-13
 -1       663 1.31056E-02-3.14528E-05-1.55667E-13
 -1       664 1.33917E-02-1.58947E-05-1.61988E-13
 -1       665 1.36776E-02 5.40607E-07-1.68360E-13
 -1       666 1.39634E-02 1.77548E-05-1.74766E-13
 -1       667 2.19383E-03 4.12118E-04-4.96541E-15
 -1       668 8.87356E-03-2.83190E-04-6.94661E-14
 -1       669 1.90789E-03 4.01169E-04-3.74519E-15
 -1       670 2.76627E-03 4.15439E-04-7.92006E-15
 -1       671 3.05321E-03 4.10762E-04-9.65340E-15
 -1       672 3.34089E-03 4.03569E-04-1.15543E-14
 -1       673 3.62956E-03 3.95161E-04-1.36230E-14
 -1       674 3.91955E-03 3.87055E-04-1.58586E-14
 -1       675 4.21134E-03 3.81161E-04-1.82584E-14
 -1       676 4.50578E-03 3.79998E-04-2.08202E-14
 -1       677 4.80426E-03 3.86913E-04-2.35404E-14
 -1       678 5.10905E-03 4.06327E-04-2.64190E-14
 -1       679 5.42354E-03 4.43971E-04-2.94556E-14
 -1       680 5.75207E-03 5.06969E-04-3.26508E-14
 -1       681 6.09854E-03 6.03009E-04-3.60038E-14
 -1       682 6.46275E-03 7.36552E-04-3.95197E-14
 -1       683 6.83722E-03 8.99164E-04-4.32065E-14
 -1       684 7.20630E-03 1.05494E-03-4.70774E-14
 -1       685 7.56182E-03 1.14239E-03-5.11475E-14
 -1       686 7.91354E-03 1.11866E-03-5.54211E-14
 -1       687 8.27705E-03 1.00326E-03-5.98870E-14
 -1       688 8.65106E-03 8.56685E-04-6.45240E-14
 -1       689 9.02113E-03 7.28397E-04-6.93140E-14
 -1       690 9.37559E-03 6.36348E-04-7.42513E-14
 -1       691 9.71137E-03 5.79907E-04-7.93293E-14
 -1       692 1.00314E-02 5.51955E-04-8.45320E-14
 -1       693 1.03400E-02 5.44954E-04-8.98631E-14
 -1       694 1.06411E-02 5.52634E-04-9.53192E-14
 -1       695 1.09375E-02 5.70127E-04-1.00894E-13
 -1       696 1.12308E-02 5.93800E-04-1.06579E-13
 -1       697 1.15221E-02 6.21020E-04-1.12364E-13
 -1       698 1.18121E-02 6.49949E-04-1.18244E-13
 -1       699 1.21011E-02 6.79354E-04-1.24201E-13
 -1       700 1.23893E-02 7.08456E-04-1.30240E-13
 -1       701 1.26769E-02 7.36802E-04-1.36340E-13
 -1       702 1.29641E-02 7.64165E-04-1.42492E-13
 -1       703 1.32508E-02 7.90471E-04-1.48693E-13
 -1       704 1.35373E-02 8.15743E-04-1.54926E-13
 -1       705 1.38236E-02 8.40060E-04-1.61180E-13
 -1       706 1.41096E-02 8.63528E-04-1.67472E-13
 -1       707 1.43284E-02 8.65358E-04-1.72527E-13
 -1       708 1.42115E-02 4.76394E-04-1.74850E-13
 -1       709 1.41562E-02 2.81176E-05-1.79128E-13
 -1       710 1.42506E-02 6.41129E-04-1.73642E-13
 -1       711 1.41917E-02 3.94202E-04-1.75436E-13
 -1       712 1.42312E-02 5.58656E-04-1.74252E-13
 -1       713 7.46337E-03-8.62729E-04-5.50883E-14
 -1       714 1.41719E-02 3.13325E-04-1.76002E-13
 -1       715 1.41517E-02 2.30838E-04-1.76566E-13
 -1       716 1.41314E-02 1.48026E-04-1.77114E-13
 -1       717 6.46532E-03-4.68480E-04-4.52293E-14
 -1       718 8.49786E-03 8.38660E-04-6.21726E-14
 -1       719 7.14690E-03-7.98357E-04-5.14907E-14
 -1       720 8.72960E-04-2.41568E-04-1.12220E-15
 -1       721 9.90902E-03 1.59120E-04-7.48082E-14
 -1       722 7.82797E-03-8.12611E-04-5.93891E-14
 -1       723 1.62186E-03 3.81548E-04-2.69961E-15
 -1       724 9.87077E-03 1.95483E-04-7.45624E-14
 -1       725 2.47988E-03 4.16344E-04-6.35717E-15
 -1       726 1.12768E-03-2.89067E-04-1.78484E-15
 -1       727 9.04050E-04 1.20634E-04-1.15646E-15
 -1       728 9.25004E-03-9.26973E-05-7.16823E-14
 -1       729 9.03650E-04-1.18254E-04-1.30306E-15
 -1       730 7.76816E-03 1.11452E-03-5.39260E-14
 -1       731 7.47032E-03 1.10225E-03-5.06240E-14
 -1       732 9.63294E-03 2.78793E-04-7.24374E-14
 -1       733 5.84071E-03 2.92952E-04-3.96983E-14
 -1       734 6.57636E-03 6.81310E-04-4.29694E-14
 -1       735 6.18894E-03 4.61652E-04-4.10926E-14
 -1       736 5.29325E-03 9.26853E-05-3.77652E-14
 -1       737 5.29486E-03 5.51115E-05-3.83973E-14
 -1       738 5.44965E-03-2.67639E-06-3.91467E-14
 -1       739 9.29445E-03 4.07071E-04-6.91725E-14
 -1       740 5.73445E-03-1.08811E-04-4.06715E-14
 -1       741 6.83127E-03-6.57136E-04-4.83513E-14
 -1       742 6.97993E-03 9.17788E-04-4.56397E-14
 -1       743 8.16838E-03-6.62136E-04-6.29327E-14
 -1       744 9.78791E-03 1.13723E-04-7.39588E-14
 -1       745 6.08613E-03-2.67566E-04-4.27200E-14
 -1       746 9.60918E-03 5.33822E-05-7.33897E-14
 -1       747 8.49343E-03-4.84476E-04-6.59827E-14
 -1       748 9.11496E-04-1.70499E-04-1.29774E-15
 -1       749 8.96779E-04-2.22997E-05-1.27647E-15
 -1       750 1.42700E-02 7.23225E-04-1.73029E-13
 -1       751 1.42990E-02 7.94136E-04-1.72780E-13
 -1       752 8.98959E-04-6.93191E-05-1.29517E-15
 -1       753 5.62248E-03 2.17216E-04-3.80265E-14
 -1       754 1.40474E-02 8.29392E-05-1.75945E-13
 -1       755 8.04322E-03-7.57542E-04-6.25344E-14
 -1       756 1.16191E-03 2.35865E-04-1.62997E-15
 -1       757 9.78028E-03 8.93619E-05-7.65263E-14
 -1       758 1.79677E-03-2.93723E-04-4.33311E-15
 -1       759 2.08362E-03-3.04995E-04-5.68773E-15
 -1       760 2.37027E-03-3.10108E-04-7.21926E-15
 -1       761 2.65643E-03-3.10411E-04-8.92414E-15
 -1       762 2.94193E-03-3.07078E-04-1.08018E-14
 -1       763 3.22672E-03-3.01164E-04-1.28497E-14
 -1       764 3.51084E-03-2.93691E-04-1.50649E-14
 -1       765 3.79451E-03-2.85749E-04-1.74454E-14
 -1       766 4.07821E-03-2.78600E-04-1.99878E-14
 -1       767 4.36283E-03-2.73813E-04-2.26880E-14
 -1       768 4.64992E-03-2.73426E-04-2.55402E-14
 -1       769 4.94199E-03-2.80215E-04-2.85415E-14
 -1       770 5.24280E-03-2.98123E-04-3.16948E-14
 -1       771 5.55744E-03-3.32951E-04-3.49974E-14
 -1       772 5.89122E-03-3.92770E-04-3.84537E-14
 -1       773 6.24729E-03-4.87006E-04-4.20663E-14
 -1       774 8.45635E-03-5.68460E-04-6.75158E-14
 -1       775 8.82954E-03-4.17289E-04-7.23829E-14
 -1       776 9.18592E-03-3.01965E-04-7.73961E-14
 -1       777 9.51966E-03-2.20703E-04-8.25393E-14
 -1       778 9.83440E-03-1.64392E-04-8.78120E-14
 -1       779 1.01352E-02-1.25040E-04-9.31970E-14
 -1       780 1.04271E-02-9.68521E-05-9.86898E-14
 -1       781 1.07139E-02-7.59072E-05-1.04293E-13
 -1       782 1.09980E-02-5.95212E-05-1.09998E-13
 -1       783 1.12810E-02-4.57995E-05-1.15797E-13
 -1       784 1.15638E-02-3.33990E-05-1.21674E-13
 -1       785 1.18467E-02-2.13852E-05-1.27619E-13
 -1       786 1.21300E-02-9.13629E-06-1.33643E-13
 -1       787 1.24138E-02 3.73200E-06-1.39739E-13
 -1       788 1.26981E-02 1.74276E-05-1.45898E-13
 -1       789 1.29827E-02 3.20329E-05-1.52120E-13
 -1       790 1.32676E-02 4.75454E-05-1.58400E-13
 -1       791 1.35527E-02 6.39076E-05-1.64732E-13
 -1       792 1.38000E-02 7.31880E-05-1.70326E-13
 -1       793 3.17655E-03 3.36408E-04-1.09050E-14
 -1       794 2.89139E-03 3.42149E-04-9.06497E-15
 -1       795 3.74508E-03 3.20604E-04-1.50861E-14
 -1       796 4.02860E-03 3.13116E-04-1.74264E-14
 -1       797 4.31211E-03 3.08092E-04-1.99275E-14
 -1       798 4.59657E-03 3.07761E-04-2.25874E-14
 -1       799 4.88388E-03 3.15074E-04-2.54034E-14
 -1       800 5.17739E-03 3.34099E-04-2.83743E-14
 -1       801 5.48257E-03 3.70775E-04-3.14995E-14
 -1       802 5.80699E-03 4.34223E-04-3.47807E-14
 -1       803 6.15903E-03 5.37205E-04-3.82139E-14
 -1       804 9.29969E-03 5.57959E-04-7.23022E-14
 -1       805 9.63506E-03 4.98943E-04-7.73228E-14
 -1       806 9.94754E-03 4.71583E-04-8.24730E-14
 -1       807 1.02453E-02 4.65211E-04-8.77456E-14
 -1       808 1.05348E-02 4.72757E-04-9.31432E-14
 -1       809 1.08202E-02 4.89523E-04-9.86620E-14
 -1       810 1.11038E-02 5.12225E-04-1.04289E-13
 -1       811 1.13870E-02 5.38510E-04-1.10020E-13
 -1       812 1.16704E-02 5.66684E-04-1.15852E-13
 -1       813 1.19542E-02 5.95562E-04-1.21768E-13
 -1       814 1.22385E-02 6.24350E-04-1.27765E-13
 -1       815 1.25231E-02 6.52556E-04-1.33833E-13
 -1       816 1.28080E-02 6.79907E-04-1.39957E-13
 -1       817 1.30932E-02 7.06286E-04-1.46132E-13
 -1       818 1.33786E-02 7.31684E-04-1.52351E-13
 -1       819 1.36641E-02 7.56152E-04-1.58594E-13
 -1       820 1.39496E-02 7.79779E-04-1.64869E-13
 -1       821 1.41243E-02 7.87096E-04-1.68816E-13
 -1       822 1.13655E-03 5.66827E-05-1.87711E-15
 -1       823 1.39554E-02 4.17821E-04-1.69633E-13
 -1       824 1.38947E-02 1.73655E-04-1.71296E-13
 -1       825 1.39357E-02 3.37608E-04-1.70191E-13
 -1       826 9.93474E-03 1.38969E-04-7.75200E-14
 -1       827 5.80907E-03-2.02620E-04-3.96517E-14
 -1       828 9.17102E-03-1.81129E-04-7.37278E-14
 -1       829 6.17116E-03-3.79540E-04-4.21230E-14
 -1       830 8.95430E-03 6.63949E-04-6.77589E-14
 -1       831 1.39153E-02 2.55813E-04-1.70749E-13
 -1       832 3.46111E-03 3.28831E-04-1.29119E-14
 -1       833 2.03286E-03 3.36928E-04-4.55179E-15
 -1       834 1.51022E-03-2.74771E-04-3.15679E-15
 -1       835 9.87490E-03 2.46861E-04-7.69302E-14
 -1       836 6.60241E-03-6.02425E-04-4.57089E-14
 -1       837 5.94636E-03 3.73400E-04-3.86099E-14
 -1       838 9.52894E-03-1.11315E-05-7.57493E-14
 -1       839 1.24697E-03 2.91576E-04-1.73718E-15
 -1       840 5.25996E-03 2.17532E-05-3.64864E-14
 -1       841 6.30828E-03 5.64325E-04-4.03211E-14
 -1       842 9.52073E-03 3.65416E-04-7.29475E-14
 -1       843 5.33949E-03 1.26623E-04-3.65268E-14
 -1       844 6.59086E-03 7.38372E-04-4.17510E-14
 -1       845 5.48972E-03-6.45311E-05-3.78024E-14
 -1       846 5.18560E-03 6.53101E-05-3.57966E-14
 -1       847 1.00012E-02 1.82163E-04-7.81620E-14
 -1       848 1.13498E-03 1.19768E-06-1.92580E-15
 -1       849 1.14939E-03 1.72709E-04-1.73191E-15
 -1       850 1.25417E-03-2.47486E-04-2.25774E-15
 -1       851 1.40135E-02 6.62966E-04-1.67851E-13
 -1       852 1.14881E-03-1.69775E-04-1.98387E-15
 -1       853 9.80886E-03 3.13489E-04-7.74512E-14
 -1       854 2.60566E-03 3.44942E-04-7.39121E-15
 -1       855 1.74610E-03 3.23313E-04-3.38907E-15
 -1       856 1.14121E-03 1.13256E-04-1.81349E-15
 -1       857 1.39944E-02 5.80835E-04-1.68459E-13
 -1       858 1.39751E-02 4.99237E-04-1.69053E-13
 -1       859 8.86237E-03-3.52342E-04-7.15825E-14
 -1       860 9.27240E-03 4.84410E-04-7.07424E-14
 -1       861 1.49627E-03 3.11849E-04-2.49306E-15
 -1       862 2.31944E-03 3.43634E-04-5.88677E-15
 -1       863 1.14086E-03-1.10663E-04-1.97966E-15
 -1       864 5.71713E-03 2.89336E-04-3.69589E-14
 -1       865 5.16827E-03 9.16248E-05-3.45996E-14
 -1       866 1.38474E-02 1.23476E-04-1.70814E-13
 -1       867 9.56077E-03 4.18477E-04-7.48706E-14
 -1       868 9.79926E-03 4.66805E-05-7.98706E-14
 -1       869 5.91992E-03-3.11112E-04-3.96096E-14
 -1       870 2.21242E-03-2.38967E-04-6.43816E-15
 -1       871 2.49829E-03-2.40994E-04-8.04873E-15
 -1       872 2.78306E-03-2.39423E-04-9.83002E-15
 -1       873 3.06635E-03-2.35119E-04-1.17815E-14
 -1       874 3.34790E-03-2.28867E-04-1.39013E-14
 -1       875 3.62761E-03-2.21430E-04-1.61844E-14
 -1       876 3.90554E-03-2.13614E-04-1.86323E-14
 -1       877 4.18210E-03-2.06342E-04-2.12406E-14
 -1       878 4.45819E-03-2.00756E-04-2.40033E-14
 -1       879 4.73551E-03-1.98414E-04-2.69161E-14
 -1       880 5.01706E-03-2.01712E-04-2.99773E-14
 -1       881 5.30794E-03-2.14821E-04-3.31876E-14
 -1       882 9.47797E-03-1.43644E-04-7.96464E-14
 -1       883 9.78650E-03-9.21357E-05-8.48444E-14
 -1       884 1.00767E-02-5.77777E-05-9.01597E-14
 -1       885 1.03578E-02-3.32362E-05-9.55848E-14
 -1       886 1.06344E-02-1.43697E-05-1.01118E-13
 -1       887 1.09095E-02 1.14548E-06-1.06759E-13
 -1       888 1.11846E-02 1.47793E-05-1.12498E-13
 -1       889 1.14608E-02 2.75230E-05-1.18329E-13
 -1       890 1.17383E-02 4.00690E-05-1.24238E-13
 -1       891 1.20173E-02 5.28898E-05-1.30216E-13
 -1       892 1.22976E-02 6.62872E-05-1.36272E-13
 -1       893 1.25792E-02 8.04311E-05-1.42393E-13
 -1       894 1.28618E-02 9.53929E-05-1.48578E-13
 -1       895 1.31451E-02 1.11173E-04-1.54823E-13
 -1       896 1.34292E-02 1.27731E-04-1.61113E-13
 -1       897 3.01520E-03 2.70278E-04-1.02415E-14
 -1       898 4.12982E-03 2.43613E-04-1.90222E-14
 -1       899 3.85460E-03 2.49960E-04-1.65794E-14
 -1       900 4.67458E-03 2.39479E-04-2.43784E-14
 -1       901 4.94676E-03 2.45520E-04-2.72873E-14
 -1       902 5.22362E-03 2.61113E-04-3.03470E-14
 -1       903 5.51117E-03 2.92263E-04-3.35577E-14
 -1       904 5.41312E-03 1.84788E-04-3.51952E-14
 -1       905 1.04439E-02 3.95161E-04-9.09838E-14
 -1       906 1.07150E-02 4.12320E-04-9.64450E-14
 -1       907 1.09867E-02 4.34335E-04-1.02017E-13
 -1       908 1.12600E-02 4.59456E-04-1.07693E-13
 -1       909 1.15353E-02 4.86376E-04-1.13472E-13
 -1       910 1.18127E-02 5.14115E-04-1.19345E-13
 -1       911 1.20918E-02 5.41966E-04-1.25300E-13
 -1       912 1.23725E-02 5.69450E-04-1.31335E-13
 -1       913 1.26545E-02 5.96276E-04-1.37431E-13
 -1       914 1.29374E-02 6.22294E-04-1.43578E-13
 -1       915 1.32212E-02 6.47453E-04-1.49778E-13
 -1       916 1.35055E-02 6.71787E-04-1.56012E-13
 -1       917 1.37903E-02 6.95350E-04-1.62273E-13
 -1       918 1.00865E-02 1.62214E-04-8.13428E-14
 -1       919 1.40688E-02 7.24860E-04-1.68335E-13
 -1       920 1.36999E-02 3.60642E-04-1.64430E-13
 -1       921 1.01707E-02 3.85402E-04-8.56415E-14
 -1       922 5.23562E-03-3.24843E-05-3.48056E-14
 -1       923 9.97034E-03 1.09475E-04-8.09006E-14
 -1       924 9.89019E-03 3.87378E-04-8.04217E-14
 -1       925 1.13638E-03-5.41493E-05-1.96010E-15
 -1       926 5.07882E-03 3.30719E-05-3.35544E-14
 -1       927 4.40288E-03 2.39566E-04-2.16221E-14
 -1       928 1.63969E-03-2.20114E-04-3.73897E-15
 -1       929 1.92597E-03-2.32366E-04-5.00133E-15
 -1       930 2.16037E-03 2.71457E-04-5.39986E-15
 -1       931 1.41038E-03 2.55619E-04-2.36458E-15
 -1       932 1.01091E-02 2.25770E-04-8.18499E-14
 -1       933 5.50070E-03-1.49272E-04-3.63523E-14
 -1       934 1.40224E-03-1.93158E-04-2.83115E-15
 -1       935 5.70269E-03-2.63927E-04-3.74053E-14
 -1       936 1.36795E-02 2.79705E-04-1.64977E-13
 -1       937 2.73152E-03 2.74075E-04-8.46065E-15
 -1       938 3.29713E-03 2.64361E-04-1.21873E-14
 -1       939 1.36381E-02 1.25509E-04-1.65949E-13
 -1       940 2.44644E-03 2.74809E-04-6.84582E-15
 -1       941 3.57701E-03 2.57254E-04-1.42995E-14
 -1       942 5.62011E-03 2.95849E-04-3.51294E-14
 -1       943 5.18965E-03 1.33671E-04-3.33142E-14
 -1       944 1.37198E-02 4.41266E-04-1.63866E-13
 -1       945 1.87379E-03 2.62873E-04-4.12366E-15
 -1       946 1.37761E-03 3.25346E-05-2.69084E-15
 -1       947 1.02422E-02 2.01734E-04-8.51008E-14
 -1       948 1.38134E-03 9.51830E-05-2.61750E-15
 -1       949 1.00901E-02 2.75710E-04-8.23996E-14
 -1       950 5.01533E-03 6.14484E-05-3.24080E-14
 -1       951 1.37577E-02 6.02577E-04-1.62699E-13
 -1       952 1.39269E-03-1.27127E-04-2.82417E-15
 -1       953 1.36724E-02 1.91343E-04-1.65926E-13
 -1       954 2.05786E-03-1.69240E-04-5.68318E-15
 -1       955 2.34341E-03-1.72318E-04-7.19834E-15
 -1       956 2.62782E-03-1.72259E-04-8.88339E-15
 -1       957 2.91041E-03-1.69704E-04-1.07376E-14
 -1       958 3.19060E-03-1.65214E-04-1.27608E-14
 -1       959 3.46797E-03-1.59287E-04-1.49485E-14
 -1       960 3.74217E-03-1.52393E-04-1.72996E-14
 -1       961 4.01305E-03-1.44991E-04-1.98130E-14
 -1       962 4.28070E-03-1.37574E-04-2.24856E-14
 -1       963 4.54562E-03-1.30719E-04-2.53100E-14
 -1       964 4.80909E-03-1.25279E-04-2.82838E-14
 -1       965 5.07377E-03-1.23382E-04-3.14029E-14
 -1       966 3.96042E-03 1.84063E-04-1.81004E-14
 -1       967 1.03011E-02 2.84742E-05-9.24977E-14
 -1       968 1.05636E-02 4.40584E-05-9.79669E-14
 -1       969 1.08272E-02 5.81372E-05-1.03537E-13
 -1       970 1.10931E-02 7.15337E-05-1.09213E-13
 -1       971 1.13617E-02 8.47434E-05-1.14989E-13
 -1       972 1.16331E-02 9.81155E-05-1.20857E-13
 -1       973 1.19071E-02 1.11897E-04-1.26796E-13
 -1       974 1.21836E-02 1.26251E-04-1.32808E-13
 -1       975 1.24621E-02 1.41268E-04-1.38893E-13
 -1       976 1.27423E-02 1.56985E-04-1.45044E-13
 -1       977 1.30239E-02 1.73390E-04-1.51253E-13
 -1       978 1.33066E-02 1.90446E-04-1.57512E-13
 -1       979 4.99392E-03 1.80453E-04-2.91892E-14
 -1       980 4.74213E-03 1.76468E-04-2.61900E-14
 -1       981 1.11384E-02 3.85750E-04-1.05375E-13
 -1       982 1.34359E-02 5.75423E-04-1.55609E-13
 -1       983 1.38894E-03 1.59936E-04-2.52334E-15
 -1       984 1.08764E-02 3.62092E-04-9.97514E-14
 -1       985 1.06190E-02 3.40715E-04-9.42304E-14
 -1       986 1.14047E-02 4.10906E-04-1.11101E-13
 -1       987 1.16749E-02 4.36897E-04-1.16924E-13
 -1       988 1.19484E-02 4.63174E-04-1.22838E-13
 -1       989 1.22246E-02 4.89325E-04-1.28835E-13
 -1       990 1.25031E-02 5.15066E-04-1.34904E-13
 -1       991 1.27835E-02 5.40231E-04-1.41025E-13
 -1       992 1.30652E-02 5.64744E-04-1.47201E-13
 -1       993 1.38710E-03-6.34736E-05-2.79726E-15
 -1       994 1.00270E-02 7.15492E-05-8.44055E-14
 -1       995 1.01716E-02 1.38150E-04-8.49793E-14
 -1       996 1.77208E-03-1.62307E-04-4.34022E-15
 -1       997 1.37389E-02 5.21747E-04-1.63288E-13
 -1       998 1.64187E-03 2.62340E-04-3.18270E-15
 -1       999 4.98664E-03-1.70779E-05-3.15698E-14
 -1      1000 1.58183E-03-1.45244E-04-3.54359E-15
 -1      1001 1.03657E-02 3.22567E-04-8.88248E-14
 -1      1002 1.38128E-03-1.52960E-05-2.74918E-15
 -1      1003 4.89002E-03 1.89455E-05-3.04768E-14
 -1      1004 1.02591E-02 2.43196E-04-8.56749E-14
 -1      1005 4.22591E-03 1.79395E-04-2.06418E-14
 -1      1006 2.85787E-03 2.04528E-04-9.56427E-15
 -1      1007 1.00365E-02 9.55730E-06-8.71380E-14
 -1      1008 4.98680E-03 9.72338E-05-3.11771E-14
 -1      1009 3.13852E-03 2.00674E-04-1.14493E-14
 -1      1010 3.69035E-03 1.89695E-04-1.57174E-14
 -1      1011 1.34649E-02 3.83502E-04-1.58701E-13
 -1      1012 2.00424E-03 2.00611E-04-4.90271E-15
 -1      1013 2.29005E-03 2.05306E-04-6.28760E-15
 -1      1014 5.38128E-03 2.08164E-04-3.38992E-14
 -1      1015 1.62395E-03 6.91300E-05-3.56546E-15
 -1      1016 1.34446E-02 3.03596E-04-1.59249E-13
 -1      1017 4.48650E-03 1.76553E-04-2.33396E-14
 -1      1018 1.62600E-03 1.71353E-05-3.64579E-15
 -1      1019 2.47678E-03-1.05537E-04-7.96407E-15
 -1      1020 2.75932E-03-1.04443E-04-9.72171E-15
 -1      1021 3.03924E-03-1.01817E-04-1.16468E-14
 -1      1022 3.31582E-03-9.79333E-05-1.37379E-14
 -1      1023 3.58843E-03-9.30111E-05-1.59914E-14
 -1      1024 3.85643E-03-8.72166E-05-1.84086E-14
 -1      1025 4.11928E-03-8.06573E-05-2.09872E-14
 -1      1026 4.37644E-03-7.33915E-05-2.37225E-14
 -1      1027 4.62759E-03-6.54816E-05-2.66079E-14
 -1      1028 4.81438E-03-4.13765E-05-2.90461E-14
 -1      1029 1.71227E-03 1.85074E-04-3.67814E-15
 -1      1030 1.04991E-02 9.76886E-05-9.48275E-14
 -1      1031 1.07488E-02 1.10519E-04-1.00336E-13
 -1      1032 1.10040E-02 1.23869E-04-1.05946E-13
 -1      1033 1.12643E-02 1.37839E-04-1.11662E-13
 -1      1034 1.15292E-02 1.52399E-04-1.17476E-13
 -1      1035 1.17981E-02 1.67558E-04-1.23376E-13
 -1      1036 1.20705E-02 1.83307E-04-1.29350E-13
 -1      1037 1.23458E-02 1.99636E-04-1.35399E-13
 -1      1038 1.26236E-02 2.16522E-04-1.41518E-13
 -1      1039 1.29032E-02 2.33940E-04-1.47695E-13
 -1      1040 1.31845E-02 2.51822E-04-1.53921E-13
 -1      1041 4.80570E-03 1.22021E-04-2.80136E-14
 -1      1042 2.57483E-03 2.06331E-04-7.84286E-15
 -1      1043 4.56840E-03 1.21177E-04-2.50718E-14
 -1      1044 1.15387E-02 3.64239E-04-1.14510E-13
 -1      1045 1.66659E-03 1.26043E-04-3.63134E-15
 -1      1046 1.10187E-02 3.17819E-04-1.03064E-13
 -1      1047 1.07685E-02 2.96232E-04-9.74897E-14
 -1      1048 1.18065E-02 3.88327E-04-1.20379E-13
 -1      1049 1.20782E-02 4.12544E-04-1.26336E-13
 -1      1050 1.23531E-02 4.36640E-04-1.32373E-13
 -1      1051 1.26306E-02 4.60442E-04-1.38469E-13
 -1      1052 1.29102E-02 4.83847E-04-1.44622E-13
 -1      1053 1.03956E-02 1.76847E-04-8.96679E-14
 -1      1054 1.05269E-02 2.76181E-04-9.20207E-14
 -1      1055 1.02567E-02 1.06544E-04-8.86011E-14
 -1      1056 1.34842E-02 4.62963E-04-1.58139E-13
 -1      1057 1.12758E-02 3.40611E-04-1.08736E-13
 -1      1058 1.63052E-03-3.48234E-05-3.71371E-15
 -1      1059 1.60483E-03-8.99913E-05-3.63631E-15
 -1      1060 3.41620E-03 1.95486E-04-1.35001E-14
 -1      1061 1.90733E-03-1.01760E-04-4.95722E-15
 -1      1062 2.19246E-03-1.04760E-04-6.37601E-15
 -1      1063 1.31969E-02 4.74172E-04-1.51361E-13
 -1      1064 4.81932E-03 5.58450E-05-2.93083E-14
 -1      1065 4.32141E-03 1.22129E-04-2.22805E-14
 -1      1066 1.95746E-03 1.39273E-04-4.85537E-15
 -1      1067 3.80365E-03 1.26689E-04-1.71642E-14
 -1      1068 1.91384E-03 7.94928E-05-4.78763E-15
 -1      1069 2.24272E-03 1.43166E-04-6.23966E-15
 -1      1070 1.04467E-02 2.17243E-04-9.02721E-14
 -1      1071 1.31783E-02 3.95947E-04-1.51919E-13
 -1      1072 4.06577E-03 1.23468E-04-1.96458E-14
 -1      1073 2.70504E-03 1.38757E-04-8.87567E-15
 -1      1074 2.98553E-03 1.36901E-04-1.07008E-14
 -1      1075 1.31819E-02 3.24104E-04-1.52927E-13
 -1      1076 1.91536E-03 2.42920E-05-4.88772E-15
 -1      1077 2.89351E-03-3.79903E-05-1.05611E-14
 -1      1078 3.17064E-03-3.61647E-05-1.25534E-14
 -1      1079 3.44362E-03-3.36236E-05-1.47094E-14
 -1      1080 3.71138E-03-3.04063E-05-1.70288E-14
 -1      1081 3.97316E-03-2.63156E-05-1.95100E-14
 -1      1082 4.22772E-03-2.12715E-05-2.21522E-14
 -1      1083 4.47404E-03-1.50621E-05-2.49487E-14
 -1      1084 4.66254E-03 6.00194E-06-2.73053E-14
 -1      1085 1.06695E-02 1.57174E-04-9.71462E-14
 -1      1086 1.09135E-02 1.71289E-04-1.02698E-13
 -1      1087 1.11657E-02 1.86607E-04-1.08351E-13
 -1      1088 1.14243E-02 2.02794E-04-1.14110E-13
 -1      1089 1.16884E-02 2.19777E-04-1.19962E-13
 -1      1090 1.19570E-02 2.37350E-04-1.25898E-13
 -1      1091 1.22294E-02 2.55407E-04-1.31910E-13
 -1      1092 1.25048E-02 2.73863E-04-1.37994E-13
 -1      1093 1.27827E-02 2.92652E-04-1.44137E-13
 -1      1094 2.47453E-03 1.41679E-04-7.50133E-15
 -1      1095 2.19868E-03 8.21154E-05-6.16778E-15
 -1      1096 1.06562E-02 2.37078E-04-9.52292E-14
 -1      1097 1.16637E-02 3.17384E-04-1.17926E-13
 -1      1098 4.65512E-03 7.24536E-05-2.68312E-14
 -1      1099 1.19313E-02 3.39154E-04-1.23844E-13
 -1      1100 1.08955E-02 2.55605E-04-1.00753E-13
 -1      1101 1.22029E-02 3.61110E-04-1.29846E-13
 -1      1102 1.24779E-02 3.83083E-04-1.35913E-13
 -1      1103 1.27554E-02 4.04957E-04-1.42037E-13
 -1      1104 3.53559E-03 1.30330E-04-1.48440E-14
 -1      1105 1.14010E-02 2.96026E-04-1.12105E-13
 -1      1106 1.91966E-03-3.08250E-05-4.97310E-15
 -1      1107 2.61302E-03-3.90887E-05-8.73424E-15
 -1      1108 1.11445E-02 2.75375E-04-1.06378E-13
 -1      1109 2.57269E-03 7.41974E-05-8.26995E-15
 -1      1110 4.42121E-03 7.00274E-05-2.39468E-14
 -1      1111 3.65797E-03 6.91191E-05-1.62167E-14
 -1      1112 3.26268E-03 1.33940E-04-1.26887E-14
 -1      1113 2.33007E-03-3.93883E-05-7.07531E-15
 -1      1114 3.92031E-03 6.82896E-05-1.86361E-14
 -1      1115 2.85360E-03 7.38123E-05-1.00421E-14
 -1      1116 3.30608E-03 2.70525E-05-1.34540E-14
 -1      1117 4.34409E-03 3.31974E-05-2.33076E-14
 -1      1118 1.10614E-02 2.31109E-04-1.05057E-13
 -1      1119 2.19996E-03 2.51767E-05-6.28550E-15
 -1      1120 1.06082E-02 1.98562E-04-9.46275E-14
 -1      1121 4.17522E-03 6.86378E-05-2.12138E-14
 -1      1122 1.08302E-02 2.14199E-04-9.97972E-14
 -1      1123 3.08100E-03 4.99278E-05-1.16882E-14
 -1      1124 0.00000E+00 0.00000E+00 0.00000E+00
 -1      1125 0.00000E+00 0.00000E+00 0.00000E+00
 -1      1126 0.00000E+00 0.00000E+00 0.00000E+00
 -1      1127 0.00000E+00 0.00000E+00 0.00000E+00
 -1      1128 0.00000E+00 0.00000E+00 0.00000E+00
 -1      1129 0.00000E+00 0.00000E+00 0.00000E+00
 -1      1130 0.00000E+00 0.00000E+00 0.00000E+00
 -1      1131 0.00000E+00 0.00000E+00 0.00000E+00
 -1      1132 0.00000E+00 0.00000E+00 0.00000E+00
 -1      1133 0.00000E+00 0.00000E+00 0.00000E+00
 -1      1134 0.00000E+00 0.00000E+00 0.00000E+00
 -1      1135 0.00000E+00 0.00000E+00 0.00000E+00
 -1      1136 0.00000E+00 0.00000E+00 0.00000E+00
 -1      1137 0.00000E+00 0.00000E+00 0.00000E+00
 -1      1138 0.00000E+00 0.00000E+00 0.00000E+00
 -1      1139 0.00000E+00 0.00000E+00 0.00000E+00
 -1      1140 0.00000E+00 0.00000E+00 0.00000E+00
 -1      1141 2.10801E-04-1.47678E-04 1.17229E-17
 -1      1142 5.49494E-04-3.35290E-04-1.02362E-16
 -1      1143 8.30525E-04-4.54761E-04-4.14314E-16
 -1      1144 1.09967E-03-5.33987E-04-9.55833E-16
 -1      1145 1.36505E-03-5.88262E-04-1.71236E-15
 -1      1146 1.63037E-03-6.25391E-04-2.67623E-15
 -1      1147 1.89770E-03-6.49948E-04-3.84217E-15
 -1      1148 2.16819E-03-6.65011E-04-5.20360E-15
 -1      1149 2.44257E-03-6.72881E-04-6.75775E-15
 -1      1150 2.72137E-03-6.75392E-04-8.50306E-15
 -1      1151 3.00510E-03-6.74111E-04-1.04337E-14
 -1      1152 3.29436E-03-6.70497E-04-1.25416E-14
 -1      1153 3.58980E-03-6.66056E-04-1.48204E-14
 -1      1154 3.89220E-03-6.62509E-04-1.72671E-14
 -1      1155 4.20230E-03-6.61945E-04-1.98764E-14
 -1      1156 4.52068E-03-6.66953E-04-2.26451E-14
 -1      1157 4.84742E-03-6.80672E-04-2.55740E-14
 -1      1158 5.18167E-03-7.06646E-04-2.86613E-14
 -1      1159 5.52114E-03-7.48318E-04-3.19060E-14
 -1      1160 5.86160E-03-8.07956E-04-3.53123E-14
 -1      1161 6.19676E-03-8.84924E-04-3.88826E-14
 -1      1162 6.51916E-03-9.73628E-04-4.26142E-14
 -1      1163 6.82222E-03-1.06218E-03-4.65091E-14
 -1      1164 7.10347E-03-1.13347E-03-5.05787E-14
 -1      1165 7.36712E-03-1.16977E-03-5.48259E-14
 -1      1166 7.62395E-03-1.15955E-03-5.92395E-14
 -1      1167 7.88756E-03-1.10275E-03-6.38136E-14
 -1      1168 8.16878E-03-1.01083E-03-6.85528E-14
 -1      1169 8.47191E-03-9.01463E-04-7.34614E-14
 -1      1170 8.79452E-03-7.91780E-04-7.85289E-14
 -1      1171 9.13012E-03-6.93693E-04-8.37408E-14
 -1      1172 9.47130E-03-6.12837E-04-8.90873E-14
 -1      1173 9.81188E-03-5.49895E-04-9.45601E-14
 -1      1174 1.01477E-02-5.02659E-04-1.00147E-13
 -1      1175 1.04766E-02-4.67773E-04-1.05836E-13
 -1      1176 1.07979E-02-4.41819E-04-1.11619E-13
 -1      1177 1.11120E-02-4.21848E-04-1.17484E-13
 -1      1178 1.14195E-02-4.05550E-04-1.23421E-13
 -1      1179 1.17215E-02-3.91231E-04-1.29414E-13
 -1      1180 1.20190E-02-3.77719E-04-1.35467E-13
 -1      1181 1.23131E-02-3.64249E-04-1.41600E-13
 -1      1182 1.26045E-02-3.50355E-04-1.47814E-13
 -1      1183 1.28938E-02-3.35784E-04-1.54100E-13
 -1      1184 1.31818E-02-3.20429E-04-1.60444E-13
 -1      1185 1.34687E-02-3.04276E-04-1.66842E-13
 -1      1186 1.37549E-02-2.87369E-04-1.73279E-13
 -1      1187 1.40408E-02-2.69791E-04-1.79751E-13
 -1      1188 1.43264E-02-2.51650E-04-1.86248E-13
 -1      1189 1.46120E-02-2.33093E-04-1.92747E-13
 -1      1190 1.48905E-02-2.14807E-04-1.99103E-13
 -1      1191 2.27481E-04 1.60004E-04 5.78693E-17
 -1      1192 5.51638E-04 3.39896E-04 6.46862E-17
 -1      1193 8.31415E-04 4.56909E-04-8.38901E-17
 -1      1194 1.10050E-03 5.35637E-04-4.11577E-16
 -1      1195 1.36586E-03 5.89871E-04-9.21545E-16
 -1      1196 1.63120E-03 6.27026E-04-1.61608E-15
 -1      1197 1.89856E-03 6.51587E-04-2.49461E-15
 -1      1198 2.16908E-03 6.66603E-04-3.55378E-15
 -1      1199 2.44351E-03 6.74342E-04-4.79143E-15
 -1      1200 2.72243E-03 6.76595E-04-6.20547E-15
 -1      1201 3.00644E-03 6.74874E-04-7.79831E-15
 -1      1202 3.29626E-03 6.70581E-04-9.56685E-15
 -1      1203 3.59278E-03 6.65178E-04-1.15094E-14
 -1      1204 3.89710E-03 6.60376E-04-1.36221E-14
 -1      1205 4.21049E-03 6.58360E-04-1.59017E-14
 -1      1206 4.53421E-03 6.62024E-04-1.83503E-14
 -1      1207 4.86927E-03 6.75194E-04-2.09642E-14
 -1      1208 5.21582E-03 7.02705E-04-2.37430E-14
 -1      1209 5.57242E-03 7.50102E-04-2.66876E-14
 -1      1210 5.93499E-03 8.22542E-04-2.97987E-14
 -1      1211 6.29601E-03 9.22423E-04-3.30763E-14
 -1      1212 6.64484E-03 1.04571E-03-3.65285E-14
 -1      1213 6.97023E-03 1.17827E-03-4.01637E-14
 -1      1214 7.26567E-03 1.29553E-03-4.39848E-14
 -1      1215 7.53503E-03 1.36905E-03-4.79890E-14
 -1      1216 7.79389E-03 1.37910E-03-5.21782E-14
 -1      1217 8.06308E-03 1.32558E-03-5.65482E-14
 -1      1218 8.35830E-03 1.22805E-03-6.10828E-14
 -1      1219 8.68364E-03 1.11504E-03-6.57784E-14
 -1      1220 9.03268E-03 1.01119E-03-7.06331E-14
 -1      1221 9.39423E-03 9.30679E-04-7.56342E-14
 -1      1222 9.75764E-03 8.77556E-04-8.07807E-14
 -1      1223 1.01154E-02 8.49434E-04-8.60656E-14
 -1      1224 1.04636E-02 8.41205E-04-9.14798E-14
 -1      1225 1.08009E-02 8.47408E-04-9.70276E-14
 -1      1226 1.11276E-02 8.63338E-04-1.02701E-13
 -1      1227 1.14449E-02 8.85359E-04-1.08490E-13
 -1      1228 1.17544E-02 9.10859E-04-1.14372E-13
 -1      1229 1.20575E-02 9.38046E-04-1.20338E-13
 -1      1230 1.23556E-02 9.65756E-04-1.26384E-13
 -1      1231 1.26499E-02 9.93269E-04-1.32489E-13
 -1      1232 1.29413E-02 1.02017E-03-1.38642E-13
 -1      1233 1.32307E-02 1.04627E-03-1.44836E-13
 -1      1234 1.35187E-02 1.07149E-03-1.51065E-13
 -1      1235 1.38056E-02 1.09585E-03-1.57321E-13
 -1      1236 1.40918E-02 1.11942E-03-1.63609E-13
 -1      1237 1.43776E-02 1.14229E-03-1.69942E-13
 -1      1238 1.46632E-02 1.16458E-03-1.76328E-13
 -1      1239 1.49488E-02 1.18645E-03-1.82745E-13
 -1      1240 1.52273E-02 1.20758E-03-1.89021E-13
 -1      1241 1.53524E-02 1.17572E-03-1.92395E-13
 -1      1242 1.53311E-02 1.09137E-03-1.93041E-13
 -1      1243 1.53099E-02 1.00697E-03-1.93668E-13
 -1      1244 1.52891E-02 9.22620E-04-1.94289E-13
 -1      1245 1.52687E-02 8.38435E-04-1.94911E-13
 -1      1246 1.52487E-02 7.55190E-04-1.95533E-13
 -1      1247 1.52290E-02 6.72184E-04-1.96165E-13
 -1      1248 1.52091E-02 5.88664E-04-1.96772E-13
 -1      1249 1.51893E-02 5.05256E-04-1.97379E-13
 -1      1250 1.51694E-02 4.21849E-04-1.97980E-13
 -1      1251 1.51495E-02 3.38333E-04-1.98576E-13
 -1      1252 1.51299E-02 2.55332E-04-1.99192E-13
 -1      1253 1.51105E-02 1.72094E-04-1.99798E-13
 -1      1254 1.50912E-02 8.79171E-05-2.00364E-13
 -1      1255 1.50722E-02 3.57582E-06-2.00907E-13
 -1      1256 1.50536E-02-8.08177E-05-2.01444E-13
 -1      1257 1.50353E-02-1.64454E-04-2.01961E-13
 -1      1258 9.80554E-03 2.07519E-04-6.46040E-14
 -1      1259 9.70623E-03 3.51561E-04-6.39287E-14
 -1      1260 9.50896E-03 4.98594E-04-6.28275E-14
 -1      1261 9.21678E-03 6.51962E-04-6.13043E-14
 -1      1262 8.84919E-03 7.99361E-04-5.94360E-14
 -1      1263 8.43821E-03 9.18962E-04-5.73802E-14
 -1      1264 7.98040E-03 9.96285E-04-5.51179E-14
 -1      1265 7.52285E-03 1.01261E-03-5.29180E-14
 -1      1266 7.07514E-03 9.63902E-04-5.08598E-14
 -1      1267 6.64273E-03 8.64464E-04-4.90018E-14
 -1      1268 6.24016E-03 7.27188E-04-4.74144E-14
 -1      1269 5.87658E-03 5.64600E-04-4.61131E-14
 -1      1270 5.59181E-03 3.96728E-04-4.52109E-14
 -1      1271 5.41655E-03 2.39586E-04-4.47663E-14
 -1      1272 5.35688E-03 9.49428E-05-4.47554E-14
 -1      1273 5.40993E-03-5.22892E-05-4.51723E-14
 -1      1274 5.58062E-03-2.07155E-04-4.60373E-14
 -1      1275 5.83930E-03-3.55732E-04-4.72320E-14
 -1      1276 6.14559E-03-4.89151E-04-4.86297E-14
 -1      1277 6.49321E-03-6.06739E-04-5.02428E-14
 -1      1278 6.87581E-03-6.98910E-04-5.20612E-14
 -1      1279 7.27805E-03-7.51614E-04-5.40065E-14
 -1      1280 7.69993E-03-7.54820E-04-5.60571E-14
 -1      1281 8.12024E-03-7.07938E-04-5.80735E-14
 -1      1282 8.51541E-03-6.18152E-04-5.99049E-14
 -1      1283 8.88426E-03-4.98225E-04-6.15342E-14
 -1      1284 9.21019E-03-3.62437E-04-6.28815E-14
 -1      1285 9.48165E-03-2.20650E-04-6.39043E-14
 -1      1286 9.68390E-03-7.70522E-05-6.45691E-14
 -1      1287 9.79675E-03 6.59374E-05-6.48156E-14
 -1      1288 1.66192E-04-1.09834E-04-1.91362E-17
 -1      1289 1.12460E-04-5.65901E-05-5.17435E-17
 -1      1290 1.17440E-04-6.72083E-05-4.25278E-17
 -1      1291 1.08466E-04-4.30497E-05-6.65700E-17
 -1      1292 1.10275E-04-4.91859E-05-6.23958E-17
 -1      1293 2.26259E-04-1.06707E-04-1.46828E-16
 -1      1294 1.06950E-04-3.31354E-05-7.36444E-17
 -1      1295 1.07769E-04-3.78631E-05-7.17471E-17
 -1      1296 2.19242E-04-8.14670E-05-1.72266E-16
 -1      1297 1.06197E-04-2.48857E-05-7.71952E-17
 -1      1298 1.06619E-04-2.89004E-05-7.64769E-17
 -1      1299 2.16101E-04-6.22666E-05-1.85222E-16
 -1      1300 1.05796E-04-1.76916E-05-7.82658E-17
 -1      1301 1.06027E-04-2.12156E-05-7.82252E-17
 -1      1302 2.14463E-04-4.62480E-05-1.91213E-16
 -1      1303 1.05568E-04-1.09578E-05-7.82794E-17
 -1      1304 1.05696E-04-1.42757E-05-7.85776E-17
 -1      1305 2.13529E-04-3.19891E-05-1.92961E-16
 -1      1306 1.05461E-04-4.56338E-06-7.70868E-17
 -1      1307 1.05517E-04-7.73411E-06-7.75611E-17
 -1      1308 2.13005E-04-1.86930E-05-1.91795E-16
 -1      1309 1.05449E-04 1.69579E-06-7.52707E-17
 -1      1310 1.05446E-04-1.42968E-06-7.58942E-17
 -1      1311 2.12772E-04-5.99142E-06-1.88502E-16
 -1      1312 1.05527E-04 8.01037E-06-7.24247E-17
 -1      1313 1.05467E-04 4.83290E-06-7.32921E-17
 -1      1314 2.12781E-04 6.52783E-06-1.83339E-16
 -1      1315 1.05715E-04 1.45785E-05-6.89010E-17
 -1      1316 1.05582E-04 1.12452E-05-7.00259E-17
 -1      1317 2.13035E-04 1.92563E-05-1.76169E-16
 -1      1318 1.06052E-04 2.15052E-05-6.37917E-17
 -1      1319 1.05816E-04 1.79570E-05-6.53232E-17
 -1      1320 2.13576E-04 3.24958E-05-1.66561E-16
 -1      1321 1.06664E-04 2.93332E-05-5.67986E-17
 -1      1322 1.06233E-04 2.52736E-05-5.92245E-17
 -1      1323 2.14535E-04 4.68515E-05-1.53591E-16
 -1      1324 1.07809E-04 3.84471E-05-4.66071E-17
 -1      1325 1.06985E-04 3.36467E-05-5.04696E-17
 -1      1326 2.16217E-04 6.31949E-05-1.35688E-16
 -1      1327 1.10253E-04 4.99267E-05-3.13063E-17
 -1      1328 1.08471E-04 4.37216E-05-3.78387E-17
 -1      1329 2.19345E-04 8.27168E-05-1.10290E-16
 -1      1330 1.16755E-04 6.72484E-05-7.94178E-18
 -1      1331 1.12105E-04 5.73908E-05-1.91633E-17
 -1      1332 2.26242E-04 1.08525E-04-7.39155E-17
 -1      1333 1.57052E-04 1.09374E-04 2.78504E-17
 -1      1334 1.35355E-04 8.56671E-05 6.31548E-18
 -1      1335 2.55602E-04 1.51129E-04-3.06829E-17
 -1      1336 3.33994E-04 2.19525E-04 2.95039E-17
 -1      1337 4.20275E-04-2.60068E-04-1.16145E-16
 -1      1338 5.72998E-04-3.34197E-04-2.23291E-16
 -1      1339 7.19896E-04-3.93769E-04-3.90936E-16
 -1      1340 8.62854E-04-4.41931E-04-6.13686E-16
 -1      1341 6.10924E-04-3.27847E-04-3.60348E-16
 -1      1342 1.00276E-03-4.81753E-04-8.88815E-16
 -1      1343 1.14058E-03-5.14368E-04-1.21764E-15
 -1      1344 9.03924E-04-4.26238E-04-8.17204E-16
 -1      1345 1.27716E-03-5.41624E-04-1.59817E-15
 -1      1346 1.41302E-03-5.63997E-04-2.03098E-15
 -1      1347 1.18647E-03-4.92856E-04-1.48227E-15
 -1      1348 1.54863E-03-5.82529E-04-2.51426E-15
 -1      1349 1.68426E-03-5.97554E-04-3.04799E-15
 -1      1350 1.46399E-03-5.38226E-04-2.35169E-15
 -1      1351 1.82019E-03-6.09680E-04-3.63114E-15
 -1      1352 1.95656E-03-6.19205E-04-4.26312E-15
 -1      1353 1.73989E-03-5.68427E-04-3.42059E-15
 -1      1354 2.09355E-03-6.26512E-04-4.94349E-15
 -1      1355 2.23122E-03-6.31867E-04-5.67185E-15
 -1      1356 2.01626E-03-5.87357E-04-4.68478E-15
 -1      1357 2.36971E-03-6.35532E-04-6.44799E-15
 -1      1358 2.50908E-03-6.37743E-04-7.27158E-15
 -1      1359 2.29439E-03-5.97788E-04-6.14020E-15
 -1      1360 2.64941E-03-6.38692E-04-8.14243E-15
 -1      1361 2.79077E-03-6.38597E-04-9.05879E-15
 -1      1362 2.57514E-03-6.01823E-04-7.78407E-15
 -1      1363 2.93323E-03-6.37614E-04-1.00204E-14
 -1      1364 3.07686E-03-6.35954E-04-1.10275E-14
 -1      1365 2.85917E-03-6.01161E-04-9.61157E-15
 -1      1366 3.22174E-03-6.33761E-04-1.20776E-14
 -1      1367 3.36795E-03-6.31258E-04-1.31710E-14
 -1      1368 3.14707E-03-5.97290E-04-1.16181E-14
 -1      1369 3.51557E-03-6.28605E-04-1.43075E-14
 -1      1370 3.66468E-03-6.26048E-04-1.54854E-14
 -1      1371 3.43941E-03-5.91658E-04-1.37982E-14
 -1      1372 3.81537E-03-6.23790E-04-1.67054E-14
 -1      1373 3.96771E-03-6.22116E-04-1.79660E-14
 -1      1374 3.73678E-03-5.85845E-04-1.61481E-14
 -1      1375 4.12177E-03-6.21301E-04-1.92671E-14
 -1      1376 4.27760E-03-6.21678E-04-2.06083E-14
 -1      1377 4.03974E-03-5.81736E-04-1.86619E-14
 -1      1378 4.43524E-03-6.23620E-04-2.19887E-14
 -1      1379 4.59469E-03-6.27504E-04-2.34096E-14
 -1      1380 4.34877E-03-5.81693E-04-2.13369E-14
 -1      1381 4.75591E-03-6.33814E-04-2.48693E-14
 -1      1382 4.91880E-03-6.42947E-04-2.63695E-14
 -1      1383 4.66407E-03-5.88674E-04-2.41702E-14
 -1      1384 5.08322E-03-6.55470E-04-2.79084E-14
 -1      1385 5.24892E-03-6.71741E-04-2.94863E-14
 -1      1386 4.98544E-03-6.06235E-04-2.71606E-14
 -1      1387 5.41558E-03-6.92314E-04-3.11052E-14
 -1      1388 5.58277E-03-7.17381E-04-3.27630E-14
 -1      1389 5.31193E-03-6.38260E-04-3.03091E-14
 -1      1390 5.74999E-03-7.47287E-04-3.44604E-14
 -1      1391 5.91662E-03-7.81866E-04-3.61992E-14
 -1      1392 5.64165E-03-6.88195E-04-3.36151E-14
 -1      1393 6.08200E-03-8.20937E-04-3.79773E-14
 -1      1394 6.24540E-03-8.63745E-04-3.97980E-14
 -1      1395 5.97154E-03-7.57600E-04-3.70801E-14
 -1      1396 6.40613E-03-9.09252E-04-4.16586E-14
 -1      1397 6.56357E-03-9.55948E-04-4.35594E-14
 -1      1398 6.29754E-03-8.44001E-04-4.07081E-14
 -1      1399 6.71725E-03-1.00181E-03-4.55043E-14
 -1      1400 6.86692E-03-1.04468E-03-4.74897E-14
 -1      1401 6.61531E-03-9.38678E-04-4.45032E-14
 -1      1402 7.01263E-03-1.08193E-03-4.95189E-14
 -1      1403 7.15480E-03-1.11130E-03-5.15940E-14
 -1      1404 6.92171E-03-1.02595E-03-4.84663E-14
 -1      1405 7.29409E-03-1.13048E-03-5.37121E-14
 -1      1406 7.43157E-03-1.13798E-03-5.58737E-14
 -1      1407 7.21669E-03-1.08598E-03-5.26045E-14
 -1      1408 7.56837E-03-1.13287E-03-5.80753E-14
 -1      1409 7.70585E-03-1.11515E-03-6.03179E-14
 -1      1410 7.50441E-03-1.10149E-03-5.69152E-14
 -1      1411 7.84514E-03-1.08573E-03-6.26030E-14
 -1      1412 7.98730E-03-1.04607E-03-6.49283E-14
 -1      1413 7.79213E-03-1.06553E-03-6.13950E-14
 -1      1414 8.13303E-03-9.98506E-04-6.72959E-14
 -1      1415 8.28274E-03-9.45266E-04-6.97042E-14
 -1      1416 8.08714E-03-9.84940E-04-6.60415E-14
 -1      1417 8.43647E-03-8.88988E-04-7.21536E-14
 -1      1418 8.59400E-03-8.31834E-04-7.46455E-14
 -1      1419 8.39364E-03-8.76919E-04-7.08528E-14
 -1      1420 8.75487E-03-7.75825E-04-7.71740E-14
 -1      1421 8.91844E-03-7.22476E-04-7.97391E-14
 -1      1422 8.71162E-03-7.61305E-04-7.58232E-14
 -1      1423 9.08406E-03-6.72828E-04-8.23415E-14
 -1      1424 9.25098E-03-6.27643E-04-8.49770E-14
 -1      1425 9.03799E-03-6.53797E-04-8.09469E-14
 -1      1426 9.41857E-03-5.87107E-04-8.76460E-14
 -1      1427 9.58622E-03-5.51391E-04-9.03456E-14
 -1      1428 9.36848E-03-5.63147E-04-8.62101E-14
 -1      1429 9.75342E-03-5.20155E-04-9.30766E-14
 -1      1430 9.91976E-03-4.93219E-04-9.58382E-14
 -1      1431 9.69907E-03-4.91875E-04-9.16010E-14
 -1      1432 1.00849E-02-4.70030E-04-9.86260E-14
 -1      1433 1.02487E-02-4.50246E-04-1.01440E-13
 -1      1434 1.00268E-02-4.38466E-04-9.71099E-14
 -1      1435 1.04110E-02-4.33308E-04-1.04279E-13
 -1      1436 1.05716E-02-4.18839E-04-1.07143E-13
 -1      1437 1.03498E-02-3.99539E-04-1.02729E-13
 -1      1438 1.07306E-02-4.06366E-04-1.10030E-13
 -1      1439 1.08881E-02-3.95545E-04-1.12937E-13
 -1      1440 1.06673E-02-3.71306E-04-1.08446E-13
 -1      1441 1.10439E-02-3.86021E-04-1.15865E-13
 -1      1442 1.11983E-02-3.77505E-04-1.18813E-13
 -1      1443 1.09792E-02-3.50362E-04-1.14253E-13
 -1      1444 1.13513E-02-3.69753E-04-1.21776E-13
 -1      1445 1.15031E-02-3.62539E-04-1.24757E-13
 -1      1446 1.12858E-02-3.33972E-04-1.20138E-13
 -1      1447 1.16537E-02-3.55707E-04-1.27751E-13
 -1      1448 1.18032E-02-3.49089E-04-1.30758E-13
 -1      1449 1.15878E-02-3.20105E-04-1.26089E-13
 -1      1450 1.19517E-02-3.42595E-04-1.33786E-13
 -1      1451 1.20994E-02-3.36104E-04-1.36832E-13
 -1      1452 1.18859E-02-3.07340E-04-1.32105E-13
 -1      1453 1.22464E-02-3.29571E-04-1.39894E-13
 -1      1454 1.23927E-02-3.22916E-04-1.42977E-13
 -1      1455 1.21808E-02-2.94741E-04-1.38191E-13
 -1      1456 1.25384E-02-3.16121E-04-1.46081E-13
 -1      1457 1.26836E-02-3.09136E-04-1.49203E-13
 -1      1458 1.24731E-02-2.81732E-04-1.44352E-13
 -1      1459 1.28284E-02-3.01963E-04-1.52343E-13
 -1      1460 1.29728E-02-2.94571E-04-1.55496E-13
 -1      1461 1.27634E-02-2.67994E-04-1.50589E-13
 -1      1462 1.31169E-02-2.86973E-04-1.58664E-13
 -1      1463 1.32607E-02-2.79154E-04-1.61843E-13
 -1      1464 1.30523E-02-2.53385E-04-1.56886E-13
 -1      1465 1.34043E-02-2.71132E-04-1.65038E-13
 -1      1466 1.35477E-02-2.62902E-04-1.68247E-13
 -1      1467 1.33400E-02-2.37874E-04-1.63242E-13
 -1      1468 1.36909E-02-2.54484E-04-1.71462E-13
 -1      1469 1.38340E-02-2.45880E-04-1.74684E-13
 -1      1470 1.36270E-02-2.21504E-04-1.69646E-13
 -1      1471 1.39771E-02-2.37111E-04-1.77916E-13
 -1      1472 1.41200E-02-2.28184E-04-1.81158E-13
 -1      1473 1.39134E-02-2.04357E-04-1.76089E-13
 -1      1474 1.42629E-02-2.19123E-04-1.84403E-13
 -1      1475 1.44058E-02-2.09938E-04-1.87648E-13
 -1      1476 1.41994E-02-1.86543E-04-1.82561E-13
 -1      1477 1.45487E-02-2.00657E-04-1.90900E-13
 -1      1478 1.46915E-02-1.91302E-04-1.94153E-13
 -1      1479 1.44853E-02-1.68197E-04-1.89051E-13
 -1      1480 1.48996E-02-1.73375E-04-1.98854E-13
 -1      1481 1.48363E-02-1.40956E-04-1.96999E-13
 -1      1482 6.41172E-04 3.68975E-04-4.73932E-17
 -1      1483 4.91414E-04 3.01616E-04 1.27123E-17
 -1      1484 4.43836E-04 2.63972E-04-3.17536E-17
 -1      1485 9.26277E-04 4.66687E-04-2.98223E-16
 -1      1486 7.85612E-04 4.22378E-04-1.50894E-16
 -1      1487 7.43220E-04 3.86756E-04-2.08018E-16
 -1      1488 1.20106E-03 5.33359E-04-7.26199E-16
 -1      1489 1.06440E-03 5.03120E-04-4.89612E-16
 -1      1490 1.02910E-03 4.69693E-04-5.57903E-16
 -1      1491 1.47197E-03 5.79213E-04-1.33522E-15
 -1      1492 1.33667E-03 5.58504E-04-1.00749E-15
 -1      1493 1.30726E-03 5.26463E-04-1.08454E-15
 -1      1494 1.74250E-03 6.10065E-04-2.12754E-15
 -1      1495 1.60710E-03 5.96275E-04-1.70849E-15
 -1      1496 1.58226E-03 5.65035E-04-1.79194E-15
 -1      1497 2.01461E-03 6.29693E-04-3.10135E-15
 -1      1498 1.87826E-03 6.21108E-04-2.59180E-15
 -1      1499 1.85693E-03 5.90277E-04-2.68072E-15
 -1      1500 2.28944E-03 6.40785E-04-4.25426E-15
 -1      1501 2.15162E-03 6.36167E-04-3.65555E-15
 -1      1502 2.13296E-03 6.05484E-04-3.74898E-15
 -1      1503 2.56779E-03 6.45386E-04-5.58375E-15
 -1      1504 2.42813E-03 6.43779E-04-4.89689E-15
 -1      1505 2.41141E-03 6.13056E-04-4.99470E-15
 -1      1506 2.85032E-03 6.45144E-04-7.09083E-15
 -1      1507 2.70850E-03 6.45764E-04-6.31525E-15
 -1      1508 2.69308E-03 6.14851E-04-6.41631E-15
 -1      1509 3.13770E-03 6.41494E-04-8.77408E-15
 -1      1510 2.99336E-03 6.43639E-04-7.91054E-15
 -1      1511 2.97865E-03 6.12399E-04-8.01456E-15
 -1      1512 3.43069E-03 6.35824E-04-1.06304E-14
 -1      1513 3.28345E-03 6.38795E-04-9.68050E-15
 -1      1514 3.26880E-03 6.07083E-04-9.78662E-15
 -1      1515 3.73021E-03 6.29666E-04-1.26592E-14
 -1      1516 3.57958E-03 6.32667E-04-1.16236E-14
 -1      1517 3.56431E-03 6.00322E-04-1.17304E-14
 -1      1518 4.03727E-03 6.24899E-04-1.48560E-14
 -1      1519 3.88273E-03 6.26936E-04-1.37366E-14
 -1      1520 3.86602E-03 5.93762E-04-1.38439E-14
 -1      1521 4.35295E-03 6.23994E-04-1.72194E-14
 -1      1522 4.19396E-03 6.23747E-04-1.60162E-14
 -1      1523 4.17486E-03 5.89516E-04-1.61242E-14
 -1      1524 4.67819E-03 6.30263E-04-1.97499E-14
 -1      1525 4.51432E-03 6.25966E-04-1.84641E-14
 -1      1526 4.49171E-03 5.90414E-04-1.85710E-14
 -1      1527 5.01346E-03 6.48056E-04-2.24468E-14
 -1      1528 4.84455E-03 6.37414E-04-2.10783E-14
 -1      1529 4.81721E-03 6.00261E-04-2.11844E-14
 -1      1530 5.35823E-03 6.82744E-04-2.53062E-14
 -1      1531 5.18472E-03 6.62985E-04-2.38562E-14
 -1      1532 5.15147E-03 6.23983E-04-2.39623E-14
 -1      1533 5.71030E-03 7.40145E-04-2.83310E-14
 -1      1534 5.53355E-03 7.08394E-04-2.67982E-14
 -1      1535 5.49360E-03 6.67422E-04-2.69024E-14
 -1      1536 6.06513E-03 8.24913E-04-3.15223E-14
 -1      1537 5.88775E-03 7.79150E-04-2.99054E-14
 -1      1538 5.84123E-03 7.36373E-04-3.00067E-14
 -1      1539 6.41567E-03 9.37457E-04-3.48819E-14
 -1      1540 6.24149E-03 8.78223E-04-3.31801E-14
 -1      1541 6.19005E-03 8.34320E-04-3.32767E-14
 -1      1542 6.75336E-03 1.06974E-03-3.84196E-14
 -1      1543 6.58672E-03 1.00228E-03-3.66280E-14
 -1      1544 6.53393E-03 9.58619E-04-3.67205E-14
 -1      1545 7.07096E-03 1.20218E-03-4.21398E-14
 -1      1546 6.91502E-03 1.13764E-03-4.02572E-14
 -1      1547 6.86614E-03 1.09616E-03-4.03426E-14
 -1      1548 7.36684E-03 1.30603E-03-4.60461E-14
 -1      1549 7.22141E-03 1.25942E-03-4.40701E-14
 -1      1550 7.18211E-03 1.22193E-03-4.41479E-14
 -1      1551 7.64798E-03 1.35356E-03-5.01364E-14
 -1      1552 7.50844E-03 1.33776E-03-4.80680E-14
 -1      1553 7.48294E-03 1.30487E-03-4.81376E-14
 -1      1554 7.92835E-03 1.33239E-03-5.44102E-14
 -1      1555 7.78720E-03 1.35112E-03-5.22495E-14
 -1      1556 7.77681E-03 1.32160E-03-5.23136E-14
 -1      1557 8.22234E-03 1.25271E-03-5.88583E-14
 -1      1558 8.07287E-03 1.29824E-03-5.66138E-14
 -1      1559 8.07560E-03 1.26971E-03-5.66722E-14
 -1      1560 8.53784E-03 1.14128E-03-6.34716E-14
 -1      1561 8.37722E-03 1.19901E-03-6.11445E-14
 -1      1562 8.38856E-03 1.16930E-03-6.11999E-14
 -1      1563 8.87406E-03 1.02741E-03-6.82441E-14
 -1      1564 8.70369E-03 1.08318E-03-6.58382E-14
 -1      1565 8.71816E-03 1.05122E-03-6.58900E-14
 -1      1566 9.22416E-03 9.31829E-04-7.31672E-14
 -1      1567 9.04793E-03 9.76635E-04-7.06870E-14
 -1      1568 9.06067E-03 9.42448E-04-7.07362E-14
 -1      1569 9.57959E-03 8.63640E-04-7.82396E-14
 -1      1570 9.40175E-03 8.94237E-04-7.56858E-14
 -1      1571 9.40957E-03 8.58438E-04-7.57307E-14
 -1      1572 9.93312E-03 8.23061E-04-8.34489E-14
 -1      1573 9.75699E-03 8.40162E-04-8.08259E-14
 -1      1574 9.75853E-03 8.03493E-04-8.08678E-14
 -1      1575 1.02800E-02 8.05708E-04-8.87931E-14
 -1      1576 1.01076E-02 8.11854E-04-8.61058E-14
 -1      1577 1.01030E-02 7.74941E-04-8.61398E-14
 -1      1578 1.06180E-02 8.05835E-04-9.42687E-14
 -1      1579 1.04502E-02 8.03942E-04-9.15134E-14
 -1      1580 1.04402E-02 7.67222E-04-9.15423E-14
 -1      1581 1.09466E-02 8.18083E-04-9.98720E-14
 -1      1582 1.07835E-02 8.10734E-04-9.70545E-14
 -1      1583 1.07693E-02 7.74463E-04-9.70750E-14
 -1      1584 1.12663E-02 8.38145E-04-1.05592E-13
 -1      1585 1.11075E-02 8.27354E-04-1.02718E-13
 -1      1586 1.10903E-02 7.91649E-04-1.02730E-13
 -1      1587 1.15783E-02 8.62839E-04-1.11423E-13
 -1      1588 1.14232E-02 8.50066E-04-1.08496E-13
 -1      1589 1.14038E-02 8.14950E-04-1.08499E-13
 -1      1590 1.18838E-02 8.89951E-04-1.17333E-13
 -1      1591 1.17318E-02 8.76196E-04-1.14368E-13
 -1      1592 1.17110E-02 8.41638E-04-1.14361E-13
 -1      1593 1.21840E-02 9.18016E-04-1.23334E-13
 -1      1594 1.20344E-02 9.03931E-04-1.20323E-13
 -1      1595 1.20129E-02 8.69869E-04-1.20306E-13
 -1      1596 1.24801E-02 9.46108E-04-1.29402E-13
 -1      1597 1.23325E-02 9.32099E-04-1.26361E-13
 -1      1598 1.23105E-02 8.98460E-04-1.26334E-13
 -1      1599 1.27731E-02 9.73685E-04-1.35528E-13
 -1      1600 1.26269E-02 9.59984E-04-1.32459E-13
 -1      1601 1.26048E-02 9.26695E-04-1.32427E-13
 -1      1602 1.30637E-02 1.00046E-03-1.41697E-13
 -1      1603 1.29186E-02 9.87185E-04-1.38606E-13
 -1      1604 1.28965E-02 9.54179E-04-1.38572E-13
 -1      1605 1.33526E-02 1.02632E-03-1.47906E-13
 -1      1606 1.32083E-02 1.01351E-03-1.44796E-13
 -1      1607 1.31863E-02 9.80728E-04-1.44758E-13
 -1      1608 1.36402E-02 1.05126E-03-1.54145E-13
 -1      1609 1.34965E-02 1.03891E-03-1.51023E-13
 -1      1610 1.34747E-02 1.00630E-03-1.50979E-13
 -1      1611 1.39270E-02 1.07532E-03-1.60417E-13
 -1      1612 1.37837E-02 1.06340E-03-1.57278E-13
 -1      1613 1.37621E-02 1.03092E-03-1.57233E-13
 -1      1614 1.42133E-02 1.09861E-03-1.66725E-13
 -1      1615 1.40702E-02 1.08706E-03-1.63566E-13
 -1      1616 1.40488E-02 1.05467E-03-1.63520E-13
 -1      1617 1.44992E-02 1.12122E-03-1.73080E-13
 -1      1618 1.43563E-02 1.10999E-03-1.69895E-13
 -1      1619 1.43350E-02 1.07768E-03-1.69847E-13
 -1      1620 1.47849E-02 1.14331E-03-1.79478E-13
 -1      1621 1.46421E-02 1.13232E-03-1.76275E-13
 -1      1622 1.46209E-02 1.10005E-03-1.76222E-13
 -1      1623 1.50706E-02 1.16505E-03-1.85903E-13
 -1      1624 1.49277E-02 1.15421E-03-1.82689E-13
 -1      1625 1.49067E-02 1.12197E-03-1.82631E-13
 -1      1626 1.52167E-02 1.16544E-03-1.89339E-13
 -1      1627 1.52020E-02 1.06095E-03-1.90410E-13
 -1      1628 1.52127E-02 1.10311E-03-1.90090E-13
 -1      1629 1.51810E-02 9.76664E-04-1.91034E-13
 -1      1630 1.51914E-02 1.01880E-03-1.90724E-13
 -1      1631 1.50730E-02 1.03056E-03-1.87779E-13
 -1      1632 1.51603E-02 8.92481E-04-1.91661E-13
 -1      1633 1.51706E-02 9.34554E-04-1.91347E-13
 -1      1634 1.50520E-02 9.46374E-04-1.88407E-13
 -1      1635 1.51400E-02 8.08473E-04-1.92283E-13
 -1      1636 1.51501E-02 8.50452E-04-1.91975E-13
 -1      1637 1.50315E-02 8.62333E-04-1.89032E-13
 -1      1638 1.51203E-02 7.26094E-04-1.92905E-13
 -1      1639 1.51301E-02 7.67257E-04-1.92591E-13
 -1      1640 1.50115E-02 7.79191E-04-1.89655E-13
 -1      1641 1.51004E-02 6.42493E-04-1.93528E-13
 -1      1642 1.51103E-02 6.84270E-04-1.93220E-13
 -1      1643 1.49917E-02 6.96248E-04-1.90276E-13
 -1      1644 1.50806E-02 5.59045E-04-1.94138E-13
 -1      1645 1.50905E-02 6.00755E-04-1.93834E-13
 -1      1646 1.49718E-02 6.12773E-04-1.90894E-13
 -1      1647 1.50607E-02 4.75668E-04-1.94747E-13
 -1      1648 1.50706E-02 5.17353E-04-1.94442E-13
 -1      1649 1.49520E-02 5.29420E-04-1.91507E-13
 -1      1650 1.50408E-02 3.92268E-04-1.95344E-13
 -1      1651 1.50508E-02 4.33977E-04-1.95047E-13
 -1      1652 1.49322E-02 4.46110E-04-1.92111E-13
 -1      1653 1.50209E-02 3.08754E-04-1.95941E-13
 -1      1654 1.50309E-02 3.50530E-04-1.95641E-13
 -1      1655 1.49123E-02 3.62757E-04-1.92706E-13
 -1      1656 1.50015E-02 2.26481E-04-1.96537E-13
 -1      1657 1.50112E-02 2.67642E-04-1.96241E-13
 -1      1658 1.48925E-02 2.79991E-04-1.93295E-13
 -1      1659 1.49819E-02 1.42580E-04-1.97125E-13
 -1      1660 1.49917E-02 1.84557E-04-1.96835E-13
 -1      1661 1.48729E-02 1.97050E-04-1.93880E-13
 -1      1662 1.49627E-02 5.84829E-05-1.97679E-13
 -1      1663 1.49723E-02 1.00553E-04-1.97408E-13
 -1      1664 1.48534E-02 1.13200E-04-1.94451E-13
 -1      1665 1.49438E-02-2.57582E-05-1.98221E-13
 -1      1666 1.49532E-02 1.63752E-05-1.97950E-13
 -1      1667 1.48342E-02 2.91616E-05-1.95000E-13
 -1      1668 1.48853E-02-1.04438E-04-1.97743E-13
 -1      1669 1.48946E-02-6.22899E-05-1.97482E-13
 -1      1670 1.47755E-02-4.94068E-05-1.94530E-13
 -1      1671 1.46772E-02-1.22387E-04-1.93048E-13
 -1      1672 9.80301E-03 2.09514E-04-6.54176E-14
 -1      1673 9.82912E-03 1.65529E-04-6.56413E-14
 -1      1674 9.65242E-03 3.15493E-04-6.46173E-14
 -1      1675 9.73755E-03 2.63142E-04-6.50781E-14
 -1      1676 9.40069E-03 4.52853E-04-6.32596E-14
 -1      1677 9.52824E-03 3.88108E-04-6.39037E-14
 -1      1678 9.04226E-03 6.15362E-04-6.15492E-14
 -1      1679 9.21618E-03 5.31570E-04-6.24435E-14
 -1      1680 8.66279E-03 7.99611E-04-5.93845E-14
 -1      1681 8.84258E-03 7.19359E-04-6.03603E-14
 -1      1682 8.25168E-03 9.54200E-04-5.71227E-14
 -1      1683 8.43650E-03 8.85604E-04-5.82078E-14
 -1      1684 7.83373E-03 1.05619E-03-5.46025E-14
 -1      1685 8.02119E-03 1.02027E-03-5.57744E-14
 -1      1686 7.44942E-03 1.05030E-03-5.22875E-14
 -1      1687 7.62267E-03 1.06122E-03-5.33036E-14
 -1      1688 7.05342E-03 9.63761E-04-5.00382E-14
 -1      1689 7.24094E-03 1.01675E-03-5.10533E-14
 -1      1690 6.64900E-03 8.14026E-04-4.81839E-14
 -1      1691 6.82806E-03 8.87536E-04-4.90043E-14
 -1      1692 6.24195E-03 6.28573E-04-4.65432E-14
 -1      1693 6.43198E-03 7.18341E-04-4.72754E-14
 -1      1694 5.86323E-03 4.43938E-04-4.52613E-14
 -1      1695 6.03160E-03 5.27003E-04-4.58007E-14
 -1      1696 5.56195E-03 2.78361E-04-4.43201E-14
 -1      1697 5.69203E-03 3.45929E-04-4.46548E-14
 -1      1698 5.38407E-03 1.68057E-04-4.40571E-14
 -1      1699 5.44746E-03 2.17384E-04-4.41603E-14
 -1      1700 5.34276E-03 7.06587E-05-4.41475E-14
 -1      1701 5.34535E-03 1.14500E-04-4.40527E-14
 -1      1702 5.44019E-03-3.18581E-05-4.46531E-14
 -1      1703 5.37678E-03 1.77576E-05-4.43390E-14
 -1      1704 5.67282E-03-1.66391E-04-4.57197E-14
 -1      1705 5.54921E-03-1.01751E-04-4.51918E-14
 -1      1706 5.97843E-03-3.13206E-04-4.70269E-14
 -1      1707 5.83318E-03-2.44080E-04-4.63975E-14
 -1      1708 6.31561E-03-4.68003E-04-4.85677E-14
 -1      1709 6.15694E-03-3.95839E-04-4.78272E-14
 -1      1710 6.67079E-03-6.16950E-04-5.03454E-14
 -1      1711 6.50532E-03-5.49819E-04-4.94971E-14
 -1      1712 7.03487E-03-7.36989E-04-5.23452E-14
 -1      1713 6.86608E-03-6.86397E-04-5.13973E-14
 -1      1714 7.39332E-03-8.00129E-04-5.44553E-14
 -1      1715 7.22932E-03-7.79238E-04-5.34753E-14
 -1      1716 7.76479E-03-7.93062E-04-5.67346E-14
 -1      1717 7.59237E-03-8.08278E-04-5.56728E-14
 -1      1718 8.13728E-03-7.07068E-04-5.88537E-14
 -1      1719 7.97005E-03-7.53009E-04-5.79012E-14
 -1      1720 8.50097E-03-5.69981E-04-6.08520E-14
 -1      1721 8.33074E-03-6.39041E-04-5.99686E-14
 -1      1722 8.86988E-03-4.10389E-04-6.25387E-14
 -1      1723 8.70417E-03-4.86407E-04-6.17828E-14
 -1      1724 9.20358E-03-2.46030E-04-6.39959E-14
 -1      1725 9.05153E-03-3.18861E-04-6.33934E-14
 -1      1726 9.49714E-03-1.03130E-04-6.50437E-14
 -1      1727 9.36936E-03-1.66018E-04-6.46124E-14
 -1      1728 9.71577E-03 1.58343E-05-6.56817E-14
 -1      1729 9.62644E-03-3.58342E-05-6.54432E-14
 -1      1730 9.82480E-03 1.15793E-04-6.59064E-14
 -1      1731 9.78978E-03 7.36042E-05-6.58982E-14
 -1      1732 8.88749E-03 6.26405E-04-6.15271E-14
 -1      1733 9.26387E-03 4.41651E-04-6.35537E-14
 -1      1734 1.51956E-02 1.13318E-03-1.89281E-13
 -1      1735 1.50665E-02 1.10275E-03-1.86653E-13
 -1      1736 9.77273E-03 2.09851E-04-6.61660E-14
 -1      1737 9.57494E-03 3.03191E-04-6.50989E-14
 -1      1738 9.83662E-03 1.41985E-04-6.67784E-14
 -1      1739 8.48510E-03 8.28614E-04-5.91449E-14
 -1      1740 8.08682E-03 1.00026E-03-5.66044E-14
 -1      1741 7.72860E-03 1.08556E-03-5.39530E-14
 -1      1742 7.36673E-03 1.05544E-03-5.14249E-14
 -1      1743 7.00180E-03 9.29204E-04-4.91741E-14
 -1      1744 6.60058E-03 7.40190E-04-4.72521E-14
 -1      1745 6.19156E-03 5.31159E-04-4.56241E-14
 -1      1746 5.80905E-03 3.37565E-04-4.42974E-14
 -1      1747 5.51520E-03 2.05535E-04-4.35515E-14
 -1      1748 5.35736E-03 1.23605E-04-4.33947E-14
 -1      1749 5.35200E-03 5.65304E-05-4.35775E-14
 -1      1750 5.50127E-03-2.63244E-05-4.42911E-14
 -1      1751 5.77884E-03-1.51764E-04-4.54868E-14
 -1      1752 6.11769E-03-3.07755E-04-4.69430E-14
 -1      1753 6.47151E-03-4.80791E-04-4.86525E-14
 -1      1754 6.82505E-03-6.47469E-04-5.06166E-14
 -1      1755 7.16693E-03-7.73952E-04-5.27871E-14
 -1      1756 7.50235E-03-8.30708E-04-5.51311E-14
 -1      1757 7.83216E-03-7.94274E-04-5.75203E-14
 -1      1758 8.18043E-03-6.74528E-04-5.98129E-14
 -1      1759 8.53609E-03-5.05211E-04-6.18764E-14
 -1      1760 8.90169E-03-3.19598E-04-6.36804E-14
 -1      1761 9.24499E-03-1.49123E-04-6.51710E-14
 -1      1762 9.54428E-03-1.67281E-05-6.62028E-14
 -1      1763 9.75464E-03 7.83586E-05-6.68271E-14
 -1      1764 2.84557E-04-1.75187E-04-9.91503E-17
 -1      1765 3.32433E-04-1.15118E-04-2.70888E-16
 -1      1766 3.36482E-04-1.31378E-04-2.58013E-16
 -1      1767 3.42222E-04-1.50393E-04-2.41411E-16
 -1      1768 3.51556E-04-1.72422E-04-2.16840E-16
 -1      1769 4.58474E-04-1.85697E-04-3.74822E-16
 -1      1770 3.24893E-04-6.39595E-05-2.93209E-16
 -1      1771 3.26053E-04-7.51394E-05-2.90824E-16
 -1      1772 3.23353E-04-4.27953E-05-2.94374E-16
 -1      1773 3.24034E-04-5.31027E-05-2.94239E-16
 -1      1774 4.36870E-04-7.74171E-05-4.32786E-16
 -1      1775 3.22513E-04-2.31254E-05-2.91637E-16
 -1      1776 3.22870E-04-3.28018E-05-2.93561E-16
 -1      1777 4.34773E-04-4.99539E-05-4.32814E-16
 -1      1778 3.22191E-04-4.21255E-06-2.85985E-16
 -1      1779 3.22297E-04-1.35979E-05-2.89224E-16
 -1      1780 4.33666E-04-2.42118E-05-4.27867E-16
 -1      1781 3.22326E-04 1.45689E-05-2.77515E-16
 -1      1782 3.22201E-04 5.17319E-06-2.82272E-16
 -1      1783 4.33338E-04 7.41492E-07-4.18895E-16
 -1      1784 3.22941E-04 3.38275E-05-2.65995E-16
 -1      1785 3.22562E-04 2.41178E-05-2.72175E-16
 -1      1786 4.33732E-04 2.57242E-05-4.05830E-16
 -1      1787 3.24131E-04 5.38796E-05-2.50640E-16
 -1      1788 3.23438E-04 4.36953E-05-2.59151E-16
 -1      1789 4.34900E-04 5.13341E-05-3.88307E-16
 -1      1790 3.26227E-04 7.62730E-05-2.29932E-16
 -1      1791 3.25016E-04 6.48029E-05-2.41411E-16
 -1      1792 4.37062E-04 7.87055E-05-3.65241E-16
 -1      1793 3.29878E-04 1.01998E-04-2.01120E-16
 -1      1794 3.27762E-04 8.86867E-05-2.17152E-16
 -1      1795 4.40775E-04 1.09340E-04-3.33867E-16
 -1      1796 3.36739E-04 1.33462E-04-1.60448E-16
 -1      1797 3.32666E-04 1.16948E-04-1.83081E-16
 -1      1798 4.47188E-04 1.44953E-04-2.90946E-16
 -1      1799 3.52080E-04 1.76005E-04-1.02294E-16
 -1      1800 3.42811E-04 1.53135E-04-1.34617E-16
 -1      1801 4.59451E-04 1.89053E-04-2.31206E-16
 -1      1802 4.06985E-04 2.31895E-04-5.86011E-17
 -1      1803 3.77674E-04 2.00968E-04-8.61941E-17
 -1      1804 4.95538E-04 2.41495E-04-1.76332E-16
 -1      1805 5.57633E-04 2.99757E-04-1.29386E-16
 -1      1806 3.39522E-04-1.89484E-04-1.63931E-16
 -1      1807 8.52438E-04 4.02110E-04-4.00558E-16
 -1      1808 7.06108E-04 3.55558E-04-2.43878E-16
 -1      1809 6.72732E-04 3.25133E-04-2.73856E-16
 -1      1810 4.58506E-04-2.34519E-04-2.83627E-16
 -1      1811 8.06509E-04-3.69384E-04-7.41188E-16
 -1      1812 9.51811E-04-4.09282E-04-1.02751E-15
 -1      1813 1.09477E-03-4.42549E-04-1.36420E-15
 -1      1814 1.23666E-03-4.69878E-04-1.75153E-15
 -1      1815 1.00386E-03-3.91208E-04-1.24468E-15
 -1      1816 1.37739E-03-4.92630E-04-2.18846E-15
 -1      1817 1.51755E-03-5.11100E-04-2.67551E-15
 -1      1818 1.29002E-03-4.46009E-04-2.02563E-15
 -1      1819 1.65732E-03-5.26183E-04-3.21110E-15
 -1      1820 1.79697E-03-5.38118E-04-3.79544E-15
 -1      1821 1.57334E-03-4.83101E-04-3.00249E-15
 -1      1822 1.93668E-03-5.47493E-04-4.42753E-15
 -1      1823 2.07659E-03-5.54515E-04-5.10743E-15
 -1      1824 1.85545E-03-5.07001E-04-4.17213E-15
 -1      1825 2.21685E-03-5.59587E-04-5.83501E-15
 -1      1826 2.35753E-03-5.62894E-04-6.60875E-15
 -1      1827 2.13761E-03-5.20963E-04-5.53174E-15
 -1      1828 2.49876E-03-5.64729E-04-7.42870E-15
 -1      1829 2.64059E-03-5.65258E-04-8.29496E-15
 -1      1830 2.42074E-03-5.27413E-04-7.07717E-15
 -1      1831 2.78312E-03-5.64709E-04-9.20704E-15
 -1      1832 2.92641E-03-5.63242E-04-1.01631E-14
 -1      1833 2.70555E-03-5.28240E-04-8.80519E-15
 -1      1834 3.07053E-03-5.61053E-04-1.11634E-14
 -1      1835 3.21555E-03-5.58306E-04-1.22069E-14
 -1      1836 2.99261E-03-5.25014E-04-1.07128E-14
 -1      1837 3.36152E-03-5.55197E-04-1.32936E-14
 -1      1838 3.50854E-03-5.51906E-04-1.44233E-14
 -1      1839 3.28243E-03-5.19164E-04-1.27942E-14
 -1      1840 3.65664E-03-5.48660E-04-1.55945E-14
 -1      1841 3.80593E-03-5.45669E-04-1.68076E-14
 -1      1842 3.57550E-03-5.12154E-04-1.50457E-14
 -1      1843 3.95642E-03-5.43221E-04-1.80608E-14
 -1      1844 4.10822E-03-5.41571E-04-1.93552E-14
 -1      1845 3.87234E-03-5.05654E-04-1.74643E-14
 -1      1846 4.26135E-03-5.41097E-04-2.06891E-14
 -1      1847 4.41586E-03-5.42110E-04-2.20625E-14
 -1      1848 4.17345E-03-5.01724E-04-2.00452E-14
 -1      1849 4.57180E-03-5.45089E-04-2.34756E-14
 -1      1850 4.72911E-03-5.50410E-04-2.49277E-14
 -1      1851 4.47934E-03-5.02976E-04-2.27855E-14
 -1      1852 4.88789E-03-5.58640E-04-2.64191E-14
 -1      1853 5.04792E-03-5.70199E-04-2.79492E-14
 -1      1854 4.79046E-03-5.12675E-04-2.56824E-14
 -1      1855 5.20936E-03-5.85672E-04-2.95179E-14
 -1      1856 5.37171E-03-6.05460E-04-3.11262E-14
 -1      1857 5.10710E-03-5.34682E-04-2.87339E-14
 -1      1858 5.53525E-03-6.30011E-04-3.27756E-14
 -1      1859 5.69914E-03-6.59562E-04-3.44629E-14
 -1      1860 5.42922E-03-5.73067E-04-3.19409E-14
 -1      1861 5.86372E-03-6.94165E-04-3.61899E-14
 -1      1862 6.02784E-03-7.33638E-04-3.79573E-14
 -1      1863 5.75611E-03-6.31145E-04-3.53065E-14
 -1      1864 6.19182E-03-7.77307E-04-3.97660E-14
 -1      1865 6.35436E-03-8.24240E-04-4.16161E-14
 -1      1866 6.08591E-03-7.09702E-04-3.88304E-14
 -1      1867 6.51563E-03-8.72784E-04-4.35079E-14
 -1      1868 6.67465E-03-9.21036E-04-4.54420E-14
 -1      1869 6.41525E-03-8.04388E-04-4.25202E-14
 -1      1870 6.83130E-03-9.66451E-04-4.74192E-14
 -1      1871 6.98555E-03-1.00639E-03-4.94381E-14
 -1      1872 6.73960E-03-9.03174E-04-4.63760E-14
 -1      1873 7.13696E-03-1.03807E-03-5.15024E-14
 -1      1874 7.28691E-03-1.05907E-03-5.36107E-14
 -1      1875 7.05516E-03-9.86121E-04-5.04069E-14
 -1      1876 7.43475E-03-1.06753E-03-5.57609E-14
 -1      1877 7.58294E-03-1.06243E-03-5.79546E-14
 -1      1878 7.36184E-03-1.03040E-03-5.46109E-14
 -1      1879 7.73078E-03-1.04376E-03-6.01920E-14
 -1      1880 7.88073E-03-1.01251E-03-6.24703E-14
 -1      1881 7.66471E-03-1.02021E-03-5.89925E-14
 -1      1882 8.03215E-03-9.70540E-04-6.47918E-14
 -1      1883 8.18644E-03-9.20275E-04-6.71529E-14
 -1      1884 7.97138E-03-9.55448E-04-6.35445E-14
 -1      1885 8.34314E-03-8.64478E-04-6.95538E-14
 -1      1886 8.50225E-03-8.05797E-04-7.19971E-14
 -1      1887 8.28701E-03-8.51824E-04-6.82612E-14
 -1      1888 8.66363E-03-7.46776E-04-7.44802E-14
 -1      1889 8.82631E-03-6.89320E-04-7.70006E-14
 -1      1890 8.61151E-03-7.32165E-04-7.31409E-14
 -1      1891 8.99048E-03-6.35083E-04-7.95585E-14
 -1      1892 9.15482E-03-5.85006E-04-8.21516E-14
 -1      1893 8.94113E-03-6.16413E-04-7.81757E-14
 -1      1894 9.31968E-03-5.39767E-04-8.47794E-14
 -1      1895 9.48391E-03-4.99552E-04-8.74387E-14
 -1      1896 9.27135E-03-5.16628E-04-8.33541E-14
 -1      1897 9.64785E-03-4.64314E-04-9.01297E-14
 -1      1898 9.81067E-03-4.33824E-04-9.28509E-14
 -1      1899 9.59884E-03-4.37201E-04-8.86653E-14
 -1      1900 9.97266E-03-4.07637E-04-9.55998E-14
 -1      1901 1.01333E-02-3.85363E-04-9.83780E-14
 -1      1902 9.92179E-03-3.77385E-04-9.40966E-14
 -1      1903 1.02928E-02-3.66422E-04-1.01183E-13
 -1      1904 1.04510E-02-3.50409E-04-1.04012E-13
 -1      1905 1.02395E-02-3.33915E-04-9.96422E-14
 -1      1906 1.06079E-02-3.36769E-04-1.06868E-13
 -1      1907 1.07635E-02-3.25145E-04-1.09745E-13
 -1      1908 1.05521E-02-3.02792E-04-1.05292E-13
 -1      1909 1.09179E-02-3.15083E-04-1.12645E-13
 -1      1910 1.10711E-02-3.06295E-04-1.15565E-13
 -1      1911 1.08598E-02-2.80271E-04-1.11042E-13
 -1      1912 1.12231E-02-2.98440E-04-1.18502E-13
 -1      1913 1.13742E-02-2.91302E-04-1.21459E-13
 -1      1914 1.11632E-02-2.63267E-04-1.16872E-13
 -1      1915 1.15242E-02-2.84644E-04-1.24431E-13
 -1      1916 1.16734E-02-2.78309E-04-1.27419E-13
 -1      1917 1.14629E-02-2.49440E-04-1.22775E-13
 -1      1918 1.18218E-02-2.72146E-04-1.30425E-13
 -1      1919 1.19695E-02-2.66044E-04-1.33449E-13
 -1      1920 1.17595E-02-2.37120E-04-1.28749E-13
 -1      1921 1.21164E-02-2.59915E-04-1.36492E-13
 -1      1922 1.22628E-02-2.53685E-04-1.39550E-13
 -1      1923 1.20534E-02-2.25188E-04-1.34792E-13
 -1      1924 1.24087E-02-2.47311E-04-1.42628E-13
 -1      1925 1.25541E-02-2.40745E-04-1.45725E-13
 -1      1926 1.23453E-02-2.12938E-04-1.40908E-13
 -1      1927 1.26991E-02-2.33974E-04-1.48838E-13
 -1      1928 1.28438E-02-2.26969E-04-1.51969E-13
 -1      1929 1.26355E-02-1.99966E-04-1.47094E-13
 -1      1930 1.29881E-02-2.19736E-04-1.55116E-13
 -1      1931 1.31322E-02-2.12259E-04-1.58274E-13
 -1      1932 1.29244E-02-1.86076E-04-1.53347E-13
 -1      1933 1.32760E-02-2.04555E-04-1.61450E-13
 -1      1934 1.34197E-02-1.96617E-04-1.64639E-13
 -1      1935 1.32124E-02-1.71212E-04-1.59661E-13
 -1      1936 1.35632E-02-1.88467E-04-1.67836E-13
 -1      1937 1.37065E-02-1.80106E-04-1.71045E-13
 -1      1938 1.34996E-02-1.55402E-04-1.66031E-13
 -1      1939 1.38497E-02-1.71556E-04-1.74264E-13
 -1      1940 1.39929E-02-1.62822E-04-1.77491E-13
 -1      1941 1.37862E-02-1.38725E-04-1.72441E-13
 -1      1942 1.41359E-02-1.53929E-04-1.80723E-13
 -1      1943 1.42789E-02-1.44885E-04-1.83963E-13
 -1      1944 1.40725E-02-1.21291E-04-1.78888E-13
 -1      1945 1.44067E-02-1.38352E-04-1.86878E-13
 -1      1946 1.45496E-02-1.29085E-04-1.90125E-13
 -1      1947 1.45987E-02-9.26186E-05-1.90867E-13
 -1      1948 1.43433E-02-1.05852E-04-1.85033E-13
 -1      1949 1.13760E-03 4.72306E-04-8.43035E-16
 -1      1950 9.95730E-04 4.40507E-04-5.99455E-16
 -1      1951 9.63822E-04 4.11210E-04-6.35519E-16
 -1      1952 1.41726E-03 5.20408E-04-1.46276E-15
 -1      1953 1.27777E-03 4.98730E-04-1.13043E-15
 -1      1954 1.24866E-03 4.70760E-04-1.17008E-15
 -1      1955 1.69477E-03 5.52594E-04-2.26303E-15
 -1      1956 1.55609E-03 5.38248E-04-1.84014E-15
 -1      1957 1.52975E-03 5.11247E-04-1.88270E-15
 -1      1958 1.97228E-03 5.72935E-04-3.24270E-15
 -1      1959 1.83342E-03 5.64076E-04-2.73047E-15
 -1      1960 1.80945E-03 5.37707E-04-2.77451E-15
 -1      1961 2.25115E-03 5.84305E-04-4.40068E-15
 -1      1962 2.11148E-03 5.79613E-04-3.79946E-15
 -1      1963 2.08938E-03 5.53627E-04-3.84442E-15
 -1      1964 2.53231E-03 5.88854E-04-5.73422E-15
 -1      1965 2.39139E-03 5.87329E-04-5.04578E-15
 -1      1966 2.37065E-03 5.61542E-04-5.09105E-15
 -1      1967 2.81650E-03 5.88279E-04-7.24415E-15
 -1      1968 2.67398E-03 5.89118E-04-6.46687E-15
 -1      1969 2.65409E-03 5.63382E-04-6.51240E-15
 -1      1970 3.10439E-03 5.84021E-04-8.92828E-15
 -1      1971 2.95994E-03 5.86525E-04-8.06421E-15
 -1      1972 2.94036E-03 5.60713E-04-8.10860E-15
 -1      1973 3.39666E-03 5.77450E-04-1.07841E-14
 -1      1974 3.24993E-03 5.80933E-04-9.83495E-15
 -1      1975 3.23010E-03 5.54916E-04-9.87773E-15
 -1      1976 3.69404E-03 5.70045E-04-1.28113E-14
 -1      1977 3.54465E-03 5.73743E-04-1.17767E-14
 -1      1978 3.52396E-03 5.47374E-04-1.18177E-14
 -1      1979 3.99733E-03 5.63616E-04-1.50059E-14
 -1      1980 3.84488E-03 5.66571E-04-1.38873E-14
 -1      1981 3.82261E-03 5.39671E-04-1.39262E-14
 -1      1982 4.30736E-03 5.60545E-04-1.73663E-14
 -1      1983 4.15143E-03 5.61483E-04-1.61653E-14
 -1      1984 4.12680E-03 5.33819E-04-1.62013E-14
 -1      1985 4.62488E-03 5.64061E-04-1.98930E-14
 -1      1986 4.46512E-03 5.61252E-04-1.86096E-14
 -1      1987 4.43729E-03 5.32521E-04-1.86428E-14
 -1      1988 4.95037E-03 5.78467E-04-2.25859E-14
 -1      1989 4.78659E-03 5.69621E-04-2.12188E-14
 -1      1990 4.75476E-03 5.39438E-04-2.12492E-14
 -1      1991 5.28381E-03 6.09195E-04-2.54404E-14
 -1      1992 5.11614E-03 5.91474E-04-2.39931E-14
 -1      1993 5.07972E-03 5.59380E-04-2.40190E-14
 -1      1994 5.62430E-03 6.62372E-04-2.84571E-14
 -1      1995 5.45335E-03 6.32689E-04-2.69281E-14
 -1      1996 5.41226E-03 5.98225E-04-2.69499E-14
 -1      1997 5.96958E-03 7.43401E-04-3.16384E-14
 -1      1998 5.79670E-03 6.99285E-04-3.00272E-14
 -1      1999 5.75176E-03 6.62187E-04-3.00436E-14
 -1      2000 6.31568E-03 8.54018E-04-3.49880E-14
 -1      2001 6.14308E-03 7.95291E-04-3.32914E-14
 -1      2002 6.09631E-03 7.55860E-04-3.33017E-14
 -1      2003 6.65697E-03 9.87879E-04-3.85112E-14
 -1      2004 6.48757E-03 9.18988E-04-3.67274E-14
 -1      2005 6.44212E-03 8.78557E-04-3.67301E-14
 -1      2006 6.98745E-03 1.12642E-03-4.22140E-14
 -1      2007 6.82402E-03 1.05822E-03-4.03403E-14
 -1      2008 6.78340E-03 1.01931E-03-4.03329E-14
 -1      2009 7.30380E-03 1.23978E-03-4.61029E-14
 -1      2010 7.14727E-03 1.18816E-03-4.41365E-14
 -1      2011 7.11407E-03 1.15366E-03-4.41195E-14
 -1      2012 7.60908E-03 1.29664E-03-5.01766E-14
 -1      2013 7.45699E-03 1.27646E-03-4.81152E-14
 -1      2014 7.43195E-03 1.24785E-03-4.80890E-14
 -1      2015 7.91270E-03 1.28079E-03-5.44361E-14
 -1      2016 7.75993E-03 1.29749E-03-5.22834E-14
 -1      2017 7.74239E-03 1.27353E-03-5.22471E-14
 -1      2018 8.22519E-03 1.20123E-03-5.88743E-14
 -1      2019 8.06703E-03 1.24733E-03-5.66339E-14
 -1      2020 8.05613E-03 1.22496E-03-5.65913E-14
 -1      2021 8.55167E-03 1.08638E-03-6.34798E-14
 -1      2022 8.38654E-03 1.14622E-03-6.11574E-14
 -1      2023 8.38147E-03 1.12275E-03-6.11096E-14
 -1      2024 8.89052E-03 9.68087E-04-6.82448E-14
 -1      2025 8.71994E-03 1.02621E-03-6.58416E-14
 -1      2026 8.71916E-03 1.00058E-03-6.57906E-14
 -1      2027 9.23620E-03 8.68757E-04-7.31582E-14
 -1      2028 9.06307E-03 9.15411E-04-7.06834E-14
 -1      2029 9.06420E-03 8.87842E-04-7.06256E-14
 -1      2030 9.58280E-03 7.98105E-04-7.82216E-14
 -1      2031 9.40988E-03 8.29830E-04-7.56713E-14
 -1      2032 9.41031E-03 8.00977E-04-7.56093E-14
 -1      2033 9.92585E-03 7.56303E-04-8.34178E-14
 -1      2034 9.75511E-03 7.73890E-04-8.08030E-14
 -1      2035 9.75286E-03 7.44342E-04-8.07349E-14
 -1      2036 1.02627E-02 7.38684E-04-8.87505E-14
 -1      2037 1.00952E-02 7.44847E-04-8.60690E-14
 -1      2038 1.00893E-02 7.15006E-04-8.59940E-14
 -1      2039 1.05921E-02 7.39184E-04-9.42100E-14
 -1      2040 1.04284E-02 7.37013E-04-9.14639E-14
 -1      2041 1.04186E-02 7.07143E-04-9.13818E-14
 -1      2042 1.09140E-02 7.52174E-04-9.97987E-14
 -1      2043 1.07540E-02 7.44389E-04-9.69891E-14
 -1      2044 1.07407E-02 7.14658E-04-9.68997E-14
 -1      2045 1.12288E-02 7.73141E-04-1.05499E-13
 -1      2046 1.10723E-02 7.61856E-04-1.02634E-13
 -1      2047 1.10560E-02 7.32366E-04-1.02537E-13
 -1      2048 1.15374E-02 7.98771E-04-1.11308E-13
 -1      2049 1.13838E-02 7.85507E-04-1.08391E-13
 -1      2050 1.13653E-02 7.56309E-04-1.08284E-13
 -1      2051 1.18407E-02 8.26768E-04-1.17203E-13
 -1      2052 1.16896E-02 8.12561E-04-1.14246E-13
 -1      2053 1.16695E-02 7.83671E-04-1.14128E-13
 -1      2054 1.21396E-02 8.55622E-04-1.23183E-13
 -1      2055 1.19906E-02 8.41141E-04-1.20183E-13
 -1      2056 1.19693E-02 8.12552E-04-1.20057E-13
 -1      2057 1.24351E-02 8.84392E-04-1.29237E-13
 -1      2058 1.22877E-02 8.70048E-04-1.26202E-13
 -1      2059 1.22657E-02 8.41734E-04-1.26069E-13
 -1      2060 1.27278E-02 9.12535E-04-1.35351E-13
 -1      2061 1.25817E-02 8.98557E-04-1.32286E-13
 -1      2062 1.25592E-02 8.70486E-04-1.32147E-13
 -1      2063 1.30184E-02 9.39772E-04-1.41514E-13
 -1      2064 1.28733E-02 9.26272E-04-1.38427E-13
 -1      2065 1.28505E-02 8.98408E-04-1.38282E-13
 -1      2066 1.33075E-02 9.65999E-04-1.47715E-13
 -1      2067 1.31631E-02 9.53011E-04-1.44610E-13
 -1      2068 1.31402E-02 9.25320E-04-1.44462E-13
 -1      2069 1.35954E-02 9.91220E-04-1.53951E-13
 -1      2070 1.34516E-02 9.78731E-04-1.50832E-13
 -1      2071 1.34286E-02 9.51181E-04-1.50681E-13
 -1      2072 1.38825E-02 1.01550E-03-1.60217E-13
 -1      2073 1.37390E-02 1.00347E-03-1.57079E-13
 -1      2074 1.37161E-02 9.76035E-04-1.56928E-13
 -1      2075 1.41690E-02 1.03895E-03-1.66522E-13
 -1      2076 1.40258E-02 1.02732E-03-1.63363E-13
 -1      2077 1.40029E-02 9.99973E-04-1.63207E-13
 -1      2078 1.44551E-02 1.06168E-03-1.72871E-13
 -1      2079 1.43121E-02 1.05039E-03-1.69691E-13
 -1      2080 1.42892E-02 1.02311E-03-1.69530E-13
 -1      2081 1.47410E-02 1.08384E-03-1.79259E-13
 -1      2082 1.45981E-02 1.07282E-03-1.76060E-13
 -1      2083 1.45753E-02 1.04559E-03-1.75898E-13
 -1      2084 1.49752E-02 1.09876E-03-1.84559E-13
 -1      2085 1.48323E-02 1.08790E-03-1.81348E-13
 -1      2086 1.48096E-02 1.06069E-03-1.81184E-13
 -1      2087 1.49923E-02 1.06872E-03-1.85368E-13
 -1      2088 1.49027E-02 8.32164E-04-1.86413E-13
 -1      2089 1.49129E-02 8.74092E-04-1.86099E-13
 -1      2090 1.49232E-02 9.16076E-04-1.85784E-13
 -1      2091 1.49335E-02 9.58100E-04-1.85470E-13
 -1      2092 1.47943E-02 8.85747E-04-1.83165E-13
 -1      2093 1.49576E-02 9.92339E-04-1.85576E-13
 -1      2094 1.49681E-02 1.03443E-03-1.85260E-13
 -1      2095 1.48768E-02 1.03043E-03-1.83168E-13
 -1      2096 1.48286E-02 9.61930E-04-1.82955E-13
 -1      2097 1.48830E-02 7.49880E-04-1.87027E-13
 -1      2098 1.48928E-02 7.90995E-04-1.86718E-13
 -1      2099 1.47742E-02 8.02679E-04-1.83787E-13
 -1      2100 1.48631E-02 6.66380E-04-1.87650E-13
 -1      2101 1.48730E-02 7.08106E-04-1.87339E-13
 -1      2102 1.47544E-02 7.19843E-04-1.84404E-13
 -1      2103 1.48433E-02 5.83048E-04-1.88266E-13
 -1      2104 1.48532E-02 6.24697E-04-1.87960E-13
 -1      2105 1.47346E-02 6.36514E-04-1.85024E-13
 -1      2106 1.48235E-02 4.99819E-04-1.88877E-13
 -1      2107 1.48334E-02 5.41427E-04-1.88572E-13
 -1      2108 1.47148E-02 5.53350E-04-1.85639E-13
 -1      2109 1.48036E-02 4.16611E-04-1.89479E-13
 -1      2110 1.48136E-02 4.58219E-04-1.89180E-13
 -1      2111 1.46950E-02 4.70273E-04-1.86246E-13
 -1      2112 1.47837E-02 3.33339E-04-1.90069E-13
 -1      2113 1.47937E-02 3.74989E-04-1.89775E-13
 -1      2114 1.46751E-02 3.87195E-04-1.86842E-13
 -1      2115 1.47641E-02 2.51345E-04-1.90649E-13
 -1      2116 1.47739E-02 2.92363E-04-1.90358E-13
 -1      2117 1.46553E-02 3.04733E-04-1.87426E-13
 -1      2118 1.47444E-02 1.67748E-04-1.91224E-13
 -1      2119 1.47542E-02 2.09571E-04-1.90938E-13
 -1      2120 1.46356E-02 2.22109E-04-1.87999E-13
 -1      2121 1.47249E-02 8.39409E-05-1.91780E-13
 -1      2122 1.47346E-02 1.25869E-04-1.91503E-13
 -1      2123 1.46158E-02 1.38565E-04-1.88562E-13
 -1      2124 1.47057E-02-6.73811E-08-1.92320E-13
 -1      2125 1.47153E-02 4.19577E-05-1.92052E-13
 -1      2126 1.45964E-02 5.47857E-05-1.89109E-13
 -1      2127 9.48996E-03 2.92704E-04-6.58620E-14
 -1      2128 9.61761E-03 2.44526E-04-6.65908E-14
 -1      2129 9.84093E-03 1.54620E-04-6.77673E-14
 -1      2130 9.83822E-03 1.39061E-04-6.80362E-14
 -1      2131 9.74011E-03 2.01002E-04-6.71580E-14
 -1      2132 9.80746E-03 1.77704E-04-6.75085E-14
 -1      2133 9.16678E-03 4.30990E-04-6.41833E-14
 -1      2134 9.33941E-03 3.56588E-04-6.50180E-14
 -1      2135 9.41398E-03 3.02480E-04-6.64991E-14
 -1      2136 8.73643E-03 6.57151E-04-6.15453E-14
 -1      2137 8.92220E-03 5.52521E-04-6.27527E-14
 -1      2138 3.27521E-04-8.73583E-05-2.86473E-16
 -1      2139 3.29574E-04-1.00488E-04-2.79846E-16
 -1      2140 4.46684E-04-1.42734E-04-4.08351E-16
 -1      2141 4.40436E-04-1.07723E-04-4.25820E-16
 -1      2142 7.98858E-03 1.03924E-03-5.61798E-14
 -1      2143 8.15961E-03 9.63279E-04-5.75372E-14
 -1      2144 7.62552E-03 1.10732E-03-5.30772E-14
 -1      2145 7.77554E-03 1.09669E-03-5.43733E-14
 -1      2146 7.32214E-03 1.05136E-03-5.06126E-14
 -1      2147 7.47182E-03 1.09292E-03-5.18371E-14
 -1      2148 7.54952E-03 1.11190E-03-5.22453E-14
 -1      2149 6.94433E-03 8.78985E-04-4.81150E-14
 -1      2150 7.11437E-03 9.67038E-04-4.91288E-14
 -1      2151 6.55418E-03 6.68014E-04-4.62768E-14
 -1      2152 6.74074E-03 7.74795E-04-4.71647E-14
 -1      2153 6.13584E-03 4.44738E-04-4.46311E-14
 -1      2154 6.33301E-03 5.47847E-04-4.53506E-14
 -1      2155 5.75821E-03 2.64539E-04-4.33290E-14
 -1      2156 5.93262E-03 3.44274E-04-4.39167E-14
 -1      2157 5.45916E-03 1.49507E-04-4.25714E-14
 -1      2158 5.57425E-03 1.85817E-04-4.27178E-14
 -1      2159 5.33608E-03 9.99400E-05-4.25854E-14
 -1      2160 5.37675E-03 1.19723E-04-4.25882E-14
 -1      2161 5.36697E-03 5.70035E-05-4.28667E-14
 -1      2162 5.33165E-03 7.58383E-05-4.26852E-14
 -1      2163 5.57048E-03-2.13982E-05-4.38627E-14
 -1      2164 5.45642E-03 1.96526E-05-4.33421E-14
 -1      2165 5.88181E-03-1.48160E-04-4.51761E-14
 -1      2166 5.72326E-03-8.24526E-05-4.45198E-14
 -1      2167 6.23990E-03-3.15663E-04-4.67530E-14
 -1      2168 6.07246E-03-2.32748E-04-4.59734E-14
 -1      2169 6.59900E-03-5.05315E-04-4.86499E-14
 -1      2170 6.43339E-03-4.15208E-04-4.77385E-14
 -1      2171 6.94369E-03-6.84116E-04-5.08238E-14
 -1      2172 6.78724E-03-6.03352E-04-4.97862E-14
 -1      2173 7.26454E-03-8.11075E-04-5.31887E-14
 -1      2174 7.12292E-03-7.60042E-04-5.20664E-14
 -1      2175 7.55102E-03-8.50983E-04-5.56065E-14
 -1      2176 7.41140E-03-8.42024E-04-5.43905E-14
 -1      2177 7.33593E-03-8.34952E-04-5.36532E-14
 -1      2178 7.89622E-03-7.81223E-04-5.84818E-14
 -1      2179 7.75009E-03-8.26328E-04-5.73061E-14
 -1      2180 8.21296E-03-6.37708E-04-6.07718E-14
 -1      2181 8.05946E-03-7.16451E-04-5.96438E-14
 -1      2182 8.58182E-03-4.36713E-04-6.30556E-14
 -1      2183 8.41141E-03-5.31131E-04-6.21069E-14
 -1      2184 8.93572E-03-2.44955E-04-6.49146E-14
 -1      2185 8.76580E-03-3.37381E-04-6.40412E-14
 -1      2186 9.29495E-03-7.42381E-05-6.64662E-14
 -1      2187 9.13395E-03-1.46466E-04-6.58332E-14
 -1      2188 9.59464E-03 4.15662E-05-6.74245E-14
 -1      2189 9.46393E-03-6.19463E-06-6.70135E-14
 -1      2190 9.78771E-03 1.12189E-04-6.80682E-14
 -1      2191 9.71033E-03 8.60038E-05-6.78476E-14
 -1      2192 8.37185E-03 8.56703E-04-5.91443E-14
 -1      2193 8.55299E-03 7.57476E-04-6.03385E-14
 -1      2194 8.62906E-03 6.95041E-04-6.15447E-14
 -1      2195 9.03739E-03 4.74807E-04-6.41998E-14
 -1      2196 6.07336E-04-2.94910E-04-4.54050E-16
 -1      2197 8.26246E-03 9.06330E-04-5.87092E-14
 -1      2198 6.63437E-04-2.88657E-04-5.98385E-16
 -1      2199 9.68364E-03 2.09546E-04-6.79268E-14
 -1      2200 9.83213E-03 1.62602E-04-6.87633E-14
 -1      2201 1.46565E-02-3.65091E-05-1.91584E-13
 -1      2202 9.82276E-03 1.33260E-04-6.90570E-14
 -1      2203 9.65374E-03 8.16772E-05-6.86609E-14
 -1      2204 9.37301E-03-1.80952E-05-6.76799E-14
 -1      2205 9.01674E-03-1.76789E-04-6.61966E-14
 -1      2206 8.64996E-03-3.72611E-04-6.42735E-14
 -1      2207 8.29198E-03-5.80919E-04-6.19325E-14
 -1      2208 7.64131E-03-8.51091E-04-5.65473E-14
 -1      2209 7.05056E-03-7.26712E-04-5.12161E-14
 -1      2210 6.71387E-03-5.49330E-04-4.88524E-14
 -1      2211 6.35458E-03-3.50768E-04-4.67500E-14
 -1      2212 5.98595E-03-1.69642E-04-4.49898E-14
 -1      2213 5.64901E-03-3.31973E-05-4.35560E-14
 -1      2214 5.40499E-03 4.79264E-05-4.24405E-14
 -1      2215 5.32469E-03 8.55410E-05-4.18753E-14
 -1      2216 5.41099E-03 1.20232E-04-4.17577E-14
 -1      2217 5.66618E-03 2.04445E-04-4.23370E-14
 -1      2218 6.05280E-03 3.73518E-04-4.36445E-14
 -1      2219 6.46354E-03 5.91465E-04-4.52628E-14
 -1      2220 7.23047E-03 1.01593E-03-4.95262E-14
 -1      2221 7.87096E-03 1.08197E-03-5.52835E-14
 -1      2222 7.95776E-03 1.05440E-03-5.62011E-14
 -1      2223 7.77787E-03 1.10948E-03-5.43917E-14
 -1      2224 6.86277E-03 8.19681E-04-4.71192E-14
 -1      2225 7.96017E-03-7.53701E-04-5.94244E-14
 -1      2226 1.01656E-03 3.92947E-04-8.36326E-16
 -1      2227 8.71964E-04 3.57945E-04-6.02356E-16
 -1      2228 5.47946E-04-5.37308E-05-6.12547E-16
 -1      2229 5.49064E-04-7.00615E-05-6.14350E-16
 -1      2230 5.50572E-04-8.70445E-05-6.14404E-16
 -1      2231 5.52514E-04-1.04743E-04-6.12479E-16
 -1      2232 6.65496E-04-9.28112E-05-8.31434E-16
 -1      2233 5.46425E-04 8.59938E-06-5.90646E-16
 -1      2234 5.46402E-04-6.76131E-06-5.98181E-16
 -1      2235 5.47261E-04 3.96872E-05-5.71375E-16
 -1      2236 5.46709E-04 2.40655E-05-5.81891E-16
 -1      2237 6.61185E-04 1.93164E-05-7.94612E-16
 -1      2238 5.49242E-04 7.15117E-05-5.46275E-16
 -1      2239 5.48096E-04 5.53995E-05-5.59868E-16
 -1      2240 6.62655E-04 5.60503E-05-7.68130E-16
 -1      2241 5.52807E-04 1.06355E-04-5.12435E-16
 -1      2242 5.50801E-04 8.85685E-05-5.30568E-16
 -1      2243 6.65754E-04 9.45513E-05-7.32866E-16
 -1      2244 5.58787E-04 1.45281E-04-4.67318E-16
 -1      2245 5.55435E-04 1.25232E-04-4.91659E-16
 -1      2246 6.71092E-04 1.36576E-04-6.86205E-16
 -1      2247 5.69031E-04 1.90682E-04-4.06535E-16
 -1      2248 5.63266E-04 1.67038E-04-4.39454E-16
 -1      2249 6.79873E-04 1.83640E-04-6.24853E-16
 -1      2250 1.30252E-03 4.46656E-04-1.43474E-15
 -1      2251 1.15990E-03 4.22411E-04-1.11341E-15
 -1      2252 1.07224E-03 3.73750E-04-1.04926E-15
 -1      2253 9.15427E-04-3.40387E-04-1.12369E-15
 -1      2254 1.05969E-03-3.72283E-04-1.46885E-15
 -1      2255 8.16551E-03 9.60194E-04-5.82441E-14
 -1      2256 8.34442E-03 8.56516E-04-5.98649E-14
 -1      2257 1.20318E-03-3.99093E-04-1.86239E-15
 -1      2258 1.34631E-03-4.21220E-04-2.30474E-15
 -1      2259 1.11773E-03-3.52413E-04-1.70003E-15
 -1      2260 1.48889E-03-4.39502E-04-2.79486E-15
 -1      2261 1.63119E-03-4.54216E-04-3.33338E-15
 -1      2262 1.40460E-03-3.95702E-04-2.58924E-15
 -1      2263 1.77325E-03-4.66011E-04-3.91892E-15
 -1      2264 1.91521E-03-4.75099E-04-4.55159E-15
 -1      2265 1.69056E-03-4.24705E-04-3.66783E-15
 -1      2266 2.05718E-03-4.81957E-04-5.23099E-15
 -1      2267 2.19925E-03-4.86764E-04-5.95718E-15
 -1      2268 1.97597E-03-4.42660E-04-4.93363E-15
 -1      2269 2.34149E-03-4.89873E-04-6.72855E-15
 -1      2270 2.48399E-03-4.91438E-04-7.54534E-15
 -1      2271 2.26135E-03-4.52137E-04-6.38328E-15
 -1      2272 2.62680E-03-4.91730E-04-8.40731E-15
 -1      2273 2.77000E-03-4.90891E-04-9.31462E-15
 -1      2274 2.54718E-03-4.55163E-04-8.01400E-15
 -1      2275 2.91363E-03-4.89141E-04-1.02660E-14
 -1      2276 3.05777E-03-4.86621E-04-1.12608E-14
 -1      2277 2.83390E-03-4.53383E-04-9.82324E-15
 -1      2278 3.20244E-03-4.83532E-04-1.22984E-14
 -1      2279 3.34774E-03-4.80024E-04-1.33790E-14
 -1      2280 3.12187E-03-4.48219E-04-1.18073E-14
 -1      2281 3.49368E-03-4.76309E-04-1.45019E-14
 -1      2282 3.64037E-03-4.72561E-04-1.56663E-14
 -1      2283 3.41150E-03-4.41022E-04-1.39625E-14
 -1      2284 3.78783E-03-4.69031E-04-1.68717E-14
 -1      2285 3.93615E-03-4.65933E-04-1.81190E-14
 -1      2286 3.70318E-03-4.33240E-04-1.62846E-14
 -1      2287 4.08539E-03-4.63583E-04-1.94058E-14
 -1      2288 4.23564E-03-4.62257E-04-2.07327E-14
 -1      2289 3.99744E-03-4.26581E-04-1.87712E-14
 -1      2290 4.38698E-03-4.62349E-04-2.20997E-14
 -1      2291 4.53948E-03-4.64222E-04-2.35054E-14
 -1      2292 4.29492E-03-4.23186E-04-2.14181E-14
 -1      2293 4.69329E-03-4.68347E-04-2.49499E-14
 -1      2294 4.84842E-03-4.75189E-04-2.64336E-14
 -1      2295 4.59650E-03-4.25782E-04-2.42223E-14
 -1      2296 5.00512E-03-4.85260E-04-2.79556E-14
 -1      2297 5.16325E-03-4.99124E-04-2.95142E-14
 -1      2298 4.90333E-03-4.37786E-04-2.71811E-14
 -1      2299 5.32320E-03-5.17246E-04-3.11131E-14
 -1      2300 5.48458E-03-5.40209E-04-3.27523E-14
 -1      2301 5.21680E-03-4.63274E-04-3.02927E-14
 -1      2302 5.64790E-03-5.68273E-04-3.44296E-14
 -1      2303 5.81240E-03-6.01840E-04-3.61461E-14
 -1      2304 5.53830E-03-5.06632E-04-3.35586E-14
 -1      2305 5.97859E-03-6.40720E-04-3.79028E-14
 -1      2306 6.14525E-03-6.84716E-04-3.96999E-14
 -1      2307 5.86849E-03-5.71582E-04-3.69819E-14
 -1      2308 6.31271E-03-7.32897E-04-4.15393E-14
 -1      2309 6.47944E-03-7.83851E-04-4.34193E-14
 -1      2310 6.20606E-03-6.59075E-04-4.05658E-14
 -1      2311 6.64535E-03-8.35695E-04-4.53427E-14
 -1      2312 6.80927E-03-8.85422E-04-4.73080E-14
 -1      2313 6.54638E-03-7.63593E-04-4.43155E-14
 -1      2314 6.97068E-03-9.30333E-04-4.93178E-14
 -1      2315 7.12977E-03-9.66453E-04-5.13709E-14
 -1      2316 6.88205E-03-8.68863E-04-4.82346E-14
 -1      2317 7.28577E-03-9.91250E-04-5.34684E-14
 -1      2318 7.44094E-03-1.00163E-03-5.56109E-14
 -1      2319 7.20688E-03-9.47641E-04-5.23304E-14
 -1      2320 7.59447E-03-9.96582E-04-5.77981E-14
 -1      2321 7.74962E-03-9.76011E-04-6.00289E-14
 -1      2322 7.52212E-03-9.71386E-04-5.66077E-14
 -1      2323 7.90558E-03-9.40991E-04-6.23015E-14
 -1      2324 8.06468E-03-8.94576E-04-6.46172E-14
 -1      2325 7.83730E-03-9.27390E-04-6.10623E-14
 -1      2326 8.22611E-03-8.39279E-04-6.69738E-14
 -1      2327 8.39008E-03-7.79165E-04-6.93694E-14
 -1      2328 8.16210E-03-8.27973E-04-6.56875E-14
 -1      2329 8.55606E-03-7.16888E-04-7.18057E-14
 -1      2330 8.72288E-03-6.55439E-04-7.42842E-14
 -1      2331 8.49782E-03-7.01894E-04-7.04770E-14
 -1      2332 8.89046E-03-5.96708E-04-7.67987E-14
 -1      2333 9.05728E-03-5.42127E-04-7.93490E-14
 -1      2334 8.83831E-03-5.76373E-04-7.54255E-14
 -1      2335 9.22365E-03-4.92629E-04-8.19359E-14
 -1      2336 9.38837E-03-4.48407E-04-8.45548E-14
 -1      2337 9.17613E-03-4.67697E-04-8.05212E-14
 -1      2338 9.55195E-03-4.09660E-04-8.72042E-14
 -1      2339 9.71362E-03-3.75992E-04-8.98872E-14
 -1      2340 9.50668E-03-3.81434E-04-8.57509E-14
 -1      2341 9.87391E-03-3.47149E-04-9.25990E-14
 -1      2342 1.00324E-02-3.22551E-04-9.53394E-14
 -1      2343 9.82864E-03-3.16669E-04-9.11062E-14
 -1      2344 1.01896E-02-3.01739E-04-9.81085E-14
 -1      2345 1.03452E-02-2.84158E-04-1.00904E-13
 -1      2346 1.01427E-02-2.69714E-04-9.65786E-14
 -1      2347 1.04996E-02-2.69309E-04-1.03724E-13
 -1      2348 1.06527E-02-2.56737E-04-1.06570E-13
 -1      2349 1.04502E-02-2.36234E-04-1.02160E-13
 -1      2350 1.08048E-02-2.45993E-04-1.09440E-13
 -1      2351 1.09558E-02-2.36731E-04-1.12333E-13
 -1      2352 1.07527E-02-2.12237E-04-1.07843E-13
 -1      2353 1.11059E-02-2.28590E-04-1.15245E-13
 -1      2354 1.12553E-02-2.21320E-04-1.18175E-13
 -1      2355 1.10513E-02-1.94448E-04-1.13620E-13
 -1      2356 1.14038E-02-2.14655E-04-1.21123E-13
 -1      2357 1.15517E-02-2.08417E-04-1.24090E-13
 -1      2358 1.13470E-02-1.80356E-04-1.19475E-13
 -1      2359 1.16989E-02-2.02426E-04-1.27075E-13
 -1      2360 1.18457E-02-1.96562E-04-1.30077E-13
 -1      2361 1.16403E-02-1.68142E-04-1.25403E-13
 -1      2362 1.19919E-02-1.90709E-04-1.33096E-13
 -1      2363 1.21376E-02-1.84790E-04-1.36135E-13
 -1      2364 1.19318E-02-1.56557E-04-1.31402E-13
 -1      2365 1.22830E-02-1.78740E-04-1.39190E-13
 -1      2366 1.24280E-02-1.72512E-04-1.42263E-13
 -1      2367 1.22219E-02-1.44792E-04-1.37475E-13
 -1      2368 1.25727E-02-1.66076E-04-1.45353E-13
 -1      2369 1.27172E-02-1.59404E-04-1.48460E-13
 -1      2370 1.25108E-02-1.32367E-04-1.43617E-13
 -1      2371 1.28614E-02-1.52491E-04-1.51584E-13
 -1      2372 1.30054E-02-1.45324E-04-1.54725E-13
 -1      2373 1.27989E-02-1.19033E-04-1.49825E-13
 -1      2374 1.31491E-02-1.37912E-04-1.57877E-13
 -1      2375 1.32928E-02-1.30250E-04-1.61047E-13
 -1      2376 1.30864E-02-1.04696E-04-1.56097E-13
 -1      2377 1.34363E-02-1.22357E-04-1.64226E-13
 -1      2378 1.35797E-02-1.14233E-04-1.67417E-13
 -1      2379 1.33733E-02-8.93651E-05-1.62425E-13
 -1      2380 1.37229E-02-1.05902E-04-1.70621E-13
 -1      2381 1.38661E-02-9.73669E-05-1.73834E-13
 -1      2382 1.36599E-02-7.31099E-05-1.68803E-13
 -1      2383 1.40092E-02-8.86532E-05-1.77055E-13
 -1      2384 1.41523E-02-7.97683E-05-1.80282E-13
 -1      2385 1.39461E-02-5.60337E-05-1.75223E-13
 -1      2386 1.86814E-03 5.06394E-04-3.16243E-15
 -1      2387 1.72706E-03 4.96160E-04-2.66384E-15
 -1      2388 2.15051E-03 5.19906E-04-4.29222E-15
 -1      2389 2.00925E-03 5.14247E-04-3.70522E-15
 -1      2390 1.92797E-03 4.74435E-04-3.55988E-15
 -1      2391 2.43390E-03 5.25903E-04-5.59703E-15
 -1      2392 2.29204E-03 5.23735E-04-4.92285E-15
 -1      2393 2.21218E-03 4.85645E-04-4.74885E-15
 -1      2394 2.71900E-03 5.26204E-04-7.07629E-15
 -1      2395 2.57620E-03 5.26675E-04-6.31503E-15
 -1      2396 2.49710E-03 4.89855E-04-6.11203E-15
 -1      2397 3.00641E-03 5.22304E-04-8.72874E-15
 -1      2398 2.86238E-03 5.24697E-04-7.88082E-15
 -1      2399 2.78330E-03 4.88767E-04-7.64773E-15
 -1      2400 3.29668E-03 5.15553E-04-1.05521E-14
 -1      2401 3.15114E-03 5.19203E-04-9.61927E-15
 -1      2402 3.07125E-03 4.83802E-04-9.35569E-15
 -1      2403 3.59035E-03 5.07343E-04-1.25454E-14
 -1      2404 3.44303E-03 5.11539E-04-1.15274E-14
 -1      2405 3.36141E-03 4.76281E-04-1.12331E-14
 -1      2406 3.88805E-03 4.99305E-04-1.47060E-14
 -1      2407 3.73863E-03 5.03189E-04-1.36048E-14
 -1      2408 3.65424E-03 4.67600E-04-1.32790E-14
 -1      2409 4.19041E-03 4.93547E-04-1.70325E-14
 -1      2410 4.03858E-03 4.95993E-04-1.58482E-14
 -1      2411 3.95025E-03 4.59428E-04-1.54914E-14
 -1      2412 4.49818E-03 4.92913E-04-1.95248E-14
 -1      2413 4.34355E-03 4.92389E-04-1.82585E-14
 -1      2414 4.25008E-03 4.53944E-04-1.78702E-14
 -1      2415 4.81216E-03 5.01245E-04-2.21808E-14
 -1      2416 4.65434E-03 4.95690E-04-2.08325E-14
 -1      2417 4.55452E-03 4.54087E-04-2.04128E-14
 -1      2418 5.13320E-03 5.23557E-04-2.49973E-14
 -1      2419 4.97179E-03 5.10307E-04-2.35689E-14
 -1      2420 4.86464E-03 4.63813E-04-2.31169E-14
 -1      2421 5.46212E-03 5.65925E-04-2.79758E-14
 -1      2422 5.29675E-03 5.41824E-04-2.64671E-14
 -1      2423 5.18188E-03 4.88264E-04-2.59814E-14
 -1      2424 5.79936E-03 6.34697E-04-3.11153E-14
 -1      2425 5.62993E-03 5.96617E-04-2.95242E-14
 -1      2426 5.50801E-03 5.33692E-04-2.90057E-14
 -1      2427 6.14417E-03 7.34396E-04-3.44195E-14
 -1      2428 5.97127E-03 6.80509E-04-3.27467E-14
 -1      2429 5.84473E-03 6.06728E-04-3.21908E-14
 -1      2430 6.49339E-03 8.63696E-04-3.78926E-14
 -1      2431 6.31892E-03 7.95765E-04-3.61343E-14
 -1      2432 6.19233E-03 7.12227E-04-3.55395E-14
 -1      2433 6.84059E-03 1.00964E-03-4.15414E-14
 -1      2434 6.66802E-03 9.36037E-04-3.96954E-14
 -1      2435 6.54761E-03 8.48687E-04-3.90577E-14
 -1      2436 7.17785E-03 1.14398E-03-4.53735E-14
 -1      2437 7.01073E-03 1.08078E-03-4.34336E-14
 -1      2438 6.90213E-03 1.00101E-03-4.27513E-14
 -1      2439 7.50221E-03 1.22852E-03-4.93926E-14
 -1      2440 7.34085E-03 1.19493E-03-4.73596E-14
 -1      2441 7.24567E-03 1.13531E-03-4.66289E-14
 -1      2442 7.82060E-03 1.23494E-03-5.36002E-14
 -1      2443 7.66052E-03 1.24223E-03-5.14724E-14
 -1      2444 7.57557E-03 1.20756E-03-5.06965E-14
 -1      2445 8.14555E-03 1.16445E-03-5.79948E-14
 -1      2446 7.98102E-03 1.20767E-03-5.57756E-14
 -1      2447 7.90232E-03 1.19067E-03-5.49568E-14
 -1      2448 8.48359E-03 1.04732E-03-6.25609E-14
 -1      2449 8.31289E-03 1.10915E-03-6.02561E-14
 -1      2450 8.23982E-03 1.09674E-03-5.94019E-14
 -1      2451 8.83122E-03 9.21287E-04-6.72881E-14
 -1      2452 8.65692E-03 9.83295E-04-6.49046E-14
 -1      2453 8.59094E-03 9.66431E-04-6.40171E-14
 -1      2454 9.18060E-03 8.13619E-04-7.21656E-14
 -1      2455 9.00652E-03 8.64147E-04-6.97089E-14
 -1      2456 8.94736E-03 8.39985E-04-6.87892E-14
 -1      2457 9.52537E-03 7.36024E-04-7.71908E-14
 -1      2458 9.35410E-03 7.70903E-04-7.46596E-14
 -1      2459 9.29913E-03 7.40278E-04-7.37107E-14
 -1      2460 9.86259E-03 6.89039E-04-8.23509E-14
 -1      2461 9.69519E-03 7.08959E-04-7.97543E-14
 -1      2462 9.64086E-03 6.73494E-04-7.87740E-14
 -1      2463 1.01917E-02 6.67844E-04-8.76467E-14
 -1      2464 1.00282E-02 6.75601E-04-8.49827E-14
 -1      2465 9.97174E-03 6.36632E-04-8.39720E-14
 -1      2466 1.05132E-02 6.66099E-04-9.30665E-14
 -1      2467 1.03534E-02 6.64913E-04-9.03408E-14
 -1      2468 1.02931E-02 6.23446E-04-8.93000E-14
 -1      2469 1.08281E-02 6.77879E-04-9.86126E-14
 -1      2470 1.06714E-02 6.70607E-04-9.58241E-14
 -1      2471 1.06069E-02 6.27430E-04-9.47521E-14
 -1      2472 1.11372E-02 6.98395E-04-1.04276E-13
 -1      2473 1.09833E-02 6.87280E-04-1.01432E-13
 -1      2474 1.09147E-02 6.43025E-04-1.00327E-13
 -1      2475 1.14414E-02 7.24087E-04-1.10044E-13
 -1      2476 1.12898E-02 7.10764E-04-1.07148E-13
 -1      2477 1.12178E-02 6.65927E-04-1.06015E-13
 -1      2478 1.17415E-02 7.52465E-04-1.15906E-13
 -1      2479 1.15919E-02 7.38058E-04-1.12964E-13
 -1      2480 1.15172E-02 6.93007E-04-1.11803E-13
 -1      2481 1.20383E-02 7.81872E-04-1.21853E-13
 -1      2482 1.18903E-02 7.67118E-04-1.18870E-13
 -1      2483 1.18135E-02 7.22107E-04-1.17684E-13
 -1      2484 1.23324E-02 8.11265E-04-1.27878E-13
 -1      2485 1.21856E-02 7.96621E-04-1.24856E-13
 -1      2486 1.21073E-02 7.51809E-04-1.23647E-13
 -1      2487 1.26243E-02 8.40032E-04-1.33967E-13
 -1      2488 1.24785E-02 8.25757E-04-1.30914E-13
 -1      2489 1.23992E-02 7.81234E-04-1.29685E-13
 -1      2490 1.29145E-02 8.67854E-04-1.40113E-13
 -1      2491 1.27696E-02 8.54078E-04-1.37034E-13
 -1      2492 1.26896E-02 8.09880E-04-1.35787E-13
 -1      2493 1.32034E-02 8.94606E-04-1.46301E-13
 -1      2494 1.30591E-02 8.81371E-04-1.43202E-13
 -1      2495 1.29787E-02 8.37502E-04-1.41941E-13
 -1      2496 1.34913E-02 9.20281E-04-1.52525E-13
 -1      2497 1.33474E-02 9.07579E-04-1.49408E-13
 -1      2498 1.32668E-02 8.64020E-04-1.48139E-13
 -1      2499 1.37785E-02 9.44946E-04-1.58779E-13
 -1      2500 1.36350E-02 9.32737E-04-1.55650E-13
 -1      2501 1.35542E-02 8.89458E-04-1.54370E-13
 -1      2502 1.40651E-02 9.68706E-04-1.65067E-13
 -1      2503 1.39219E-02 9.56935E-04-1.61917E-13
 -1      2504 1.38410E-02 9.13900E-04-1.60631E-13
 -1      2505 1.43514E-02 9.91688E-04-1.71403E-13
 -1      2506 1.42083E-02 9.80289E-04-1.68230E-13
 -1      2507 1.41275E-02 9.37461E-04-1.66929E-13
 -1      2508 1.46374E-02 1.01403E-03-1.77776E-13
 -1      2509 1.44944E-02 1.00293E-03-1.74584E-13
 -1      2510 1.44136E-02 9.60272E-04-1.73273E-13
 -1      2511 1.47854E-02 1.02640E-03-1.81077E-13
 -1      2512 1.46259E-02 6.89807E-04-1.81786E-13
 -1      2513 1.46358E-02 7.31457E-04-1.81475E-13
 -1      2514 1.46062E-02 6.06673E-04-1.82402E-13
 -1      2515 1.46160E-02 6.48215E-04-1.82093E-13
 -1      2516 1.44974E-02 6.59786E-04-1.79172E-13
 -1      2517 1.46655E-02 8.55384E-04-1.80551E-13
 -1      2518 1.46757E-02 8.97296E-04-1.80234E-13
 -1      2519 1.46457E-02 7.72818E-04-1.81168E-13
 -1      2520 1.46555E-02 8.13889E-04-1.80860E-13
 -1      2521 1.45369E-02 8.25337E-04-1.77936E-13
 -1      2522 1.45171E-02 7.42589E-04-1.78556E-13
 -1      2523 1.45864E-02 5.23702E-04-1.83013E-13
 -1      2524 1.45963E-02 5.65173E-04-1.82709E-13
 -1      2525 1.44778E-02 5.76877E-04-1.79784E-13
 -1      2526 1.45666E-02 4.40804E-04-1.83614E-13
 -1      2527 1.45765E-02 4.82251E-04-1.83315E-13
 -1      2528 1.44581E-02 4.94130E-04-1.80392E-13
 -1      2529 1.45466E-02 3.57879E-04-1.84205E-13
 -1      2530 1.45566E-02 3.99352E-04-1.83911E-13
 -1      2531 1.44382E-02 4.11436E-04-1.80986E-13
 -1      2532 1.45270E-02 2.76241E-04-1.84777E-13
 -1      2533 1.45368E-02 3.17081E-04-1.84492E-13
 -1      2534 1.44184E-02 3.29385E-04-1.81565E-13
 -1      2535 1.45070E-02 1.92996E-04-1.85345E-13
 -1      2536 1.45170E-02 2.34648E-04-1.85062E-13
 -1      2537 1.43985E-02 2.47172E-04-1.82133E-13
 -1      2538 1.44873E-02 1.09499E-04-1.85901E-13
 -1      2539 1.44971E-02 1.51280E-04-1.85626E-13
 -1      2540 1.43785E-02 1.64010E-04-1.82694E-13
 -1      2541 1.44678E-02 2.57326E-05-1.86437E-13
 -1      2542 1.44775E-02 6.76474E-05-1.86168E-13
 -1      2543 1.43587E-02 8.05478E-05-1.83238E-13
 -1      2544 9.82615E-03 1.65352E-04-7.00331E-14
 -1      2545 9.85708E-03 1.57530E-04-7.02978E-14
 -1      2546 9.64372E-03 2.15272E-04-6.91024E-14
 -1      2547 9.75308E-03 1.86427E-04-6.96843E-14
 -1      2548 9.85276E-03 1.45159E-04-7.03983E-14
 -1      2549 9.80648E-03 1.34535E-04-7.04298E-14
 -1      2550 1.58587E-03 4.83024E-04-2.20979E-15
 -1      2551 1.44441E-03 4.66774E-04-1.79988E-15
 -1      2552 1.64380E-03 4.54075E-04-2.54671E-15
 -1      2553 1.45288E-02-4.32105E-05-1.88666E-13
 -1      2554 9.34593E-03 3.22318E-04-6.70806E-14
 -1      2555 9.48380E-03 2.69986E-04-6.79399E-14
 -1      2556 8.92384E-03 5.23487E-04-6.42995E-14
 -1      2557 9.14445E-03 4.12098E-04-6.57522E-14
 -1      2558 5.88636E-04-2.34684E-04-5.44839E-16
 -1      2559 7.81500E-04-2.99992E-04-8.60125E-16
 -1      2560 8.41214E-04-2.88220E-04-1.03693E-15
 -1      2561 5.79321E-04-2.06931E-04-5.70277E-16
 -1      2562 9.70611E-03 1.06413E-04-6.99733E-14
 -1      2563 9.59479E-03 7.55321E-05-6.95426E-14
 -1      2564 7.11682E-03-7.61335E-04-5.14846E-14
 -1      2565 6.97163E-03-6.86094E-04-5.02548E-14
 -1      2566 5.46641E-04-2.22104E-05-6.04348E-16
 -1      2567 5.47146E-04-3.77979E-05-6.09254E-16
 -1      2568 6.62492E-04-5.41114E-05-8.26691E-16
 -1      2569 6.61126E-04-1.71330E-05-8.14236E-16
 -1      2570 6.76368E-03 7.47912E-04-4.58100E-14
 -1      2571 6.92908E-03 8.51791E-04-4.67353E-14
 -1      2572 7.49145E-03 1.11064E-03-5.14292E-14
 -1      2573 7.61125E-03 1.12559E-03-5.26631E-14
 -1      2574 8.03063E-03-7.17344E-04-6.05444E-14
 -1      2575 7.89992E-03-7.82196E-04-5.93700E-14
 -1      2576 7.15571E-03 9.79412E-04-4.83488E-14
 -1      2577 7.32433E-03 1.06153E-03-4.98159E-14
 -1      2578 6.38382E-03 5.22836E-04-4.39957E-14
 -1      2579 6.57810E-03 6.37487E-04-4.48975E-14
 -1      2580 6.65363E-03 6.83478E-04-4.45201E-14
 -1      2581 5.97247E-03 3.15214E-04-4.25572E-14
 -1      2582 6.16110E-03 4.06335E-04-4.32517E-14
 -1      2583 5.59174E-03 1.64894E-04-4.12048E-14
 -1      2584 5.76801E-03 2.26963E-04-4.17995E-14
 -1      2585 5.36340E-03 1.01444E-04-4.09105E-14
 -1      2586 5.43677E-03 1.17714E-04-4.08886E-14
 -1      2587 5.31426E-03 7.89208E-05-4.09225E-14
 -1      2588 5.31951E-03 8.58932E-05-4.08262E-14
 -1      2589 5.44562E-03 4.21489E-05-4.17675E-14
 -1      2590 5.35961E-03 6.21847E-05-4.13061E-14
 -1      2591 5.72166E-03-4.58511E-05-4.29920E-14
 -1      2592 5.57898E-03 1.42548E-06-4.23551E-14
 -1      2593 6.06876E-03-1.92410E-04-4.45566E-14
 -1      2594 5.89740E-03-1.15941E-04-4.37827E-14
 -1      2595 6.44709E-03-3.89317E-04-4.65822E-14
 -1      2596 6.27613E-03-2.95470E-04-4.56184E-14
 -1      2597 6.80237E-03-5.93905E-04-4.89296E-14
 -1      2598 6.64208E-03-4.99088E-04-4.78106E-14
 -1      2599 7.39723E-03-8.55962E-04-5.42073E-14
 -1      2600 7.28034E-03-8.24662E-04-5.30096E-14
 -1      2601 7.71577E-03-8.44051E-04-5.75648E-14
 -1      2602 7.55650E-03-8.67576E-04-5.58603E-14
 -1      2603 8.36516E-03-5.24722E-04-6.32328E-14
 -1      2604 8.19399E-03-6.28799E-04-6.18812E-14
 -1      2605 8.12220E-03-6.69267E-04-6.18231E-14
 -1      2606 8.71977E-03-3.15843E-04-6.56166E-14
 -1      2607 8.55780E-03-4.10843E-04-6.46135E-14
 -1      2608 9.09603E-03-1.19455E-04-6.77217E-14
 -1      2609 8.91530E-03-2.09651E-04-6.67848E-14
 -1      2610 9.45385E-03 2.92117E-05-6.92721E-14
 -1      2611 9.29972E-03-2.87275E-05-6.87107E-14
 -1      2612 8.54407E-03 7.40339E-04-6.15688E-14
 -1      2613 8.70242E-03 6.45516E-04-6.27920E-14
 -1      2614 7.57603E-04 3.29753E-04-4.35971E-16
 -1      2615 6.11177E-04 2.81534E-04-2.79101E-16
 -1      2616 5.84685E-04 2.54889E-04-2.97180E-16
 -1      2617 8.13849E-04 3.17825E-04-5.92300E-16
 -1      2618 7.03816E-03 9.20206E-04-4.70071E-14
 -1      2619 6.70652E-04-1.34553E-04-8.26474E-16
 -1      2620 5.55033E-04-1.23422E-04-6.08034E-16
 -1      2621 5.58257E-04-1.43246E-04-6.00445E-16
 -1      2622 1.35883E-03 4.21754E-04-1.71019E-15
 -1      2623 5.72466E-04 2.24697E-04-3.44248E-16
 -1      2624 9.53410E-03 5.85876E-05-7.05838E-14
 -1      2625 9.20867E-03-6.73113E-05-6.93060E-14
 -1      2626 9.77409E-03 1.26796E-04-7.13183E-14
 -1      2627 8.44180E-03 8.08914E-04-6.10895E-14
 -1      2628 8.45691E-03-4.70021E-04-6.45570E-14
 -1      2629 7.79920E-03-8.22439E-04-5.86607E-14
 -1      2630 9.59263E-03 2.38020E-04-6.96915E-14
 -1      2631 7.48699E-03-8.70252E-04-5.51969E-14
 -1      2632 1.47047E-02 9.83867E-04-1.79756E-13
 -1      2633 1.46806E-02 9.49629E-04-1.79652E-13
 -1      2634 6.87707E-03-6.41562E-04-4.91881E-14
 -1      2635 9.87368E-03 1.53770E-04-7.16756E-14
 -1      2636 9.80969E-03 1.77027E-04-7.12204E-14
 -1      2637 6.53689E-03-4.45525E-04-4.66543E-14
 -1      2638 6.89938E-04 2.47124E-04-5.14522E-16
 -1      2639 8.83654E-03 5.78230E-04-6.43231E-14
 -1      2640 6.15729E-03-2.40047E-04-4.43913E-14
 -1      2641 9.24309E-03 3.72596E-04-6.71815E-14
 -1      2642 7.18817E-03-7.96427E-04-5.20231E-14
 -1      2643 5.79332E-03-7.67150E-05-4.25676E-14
 -1      2644 5.49537E-03 2.40975E-05-4.12130E-14
 -1      2645 5.31933E-03 6.93515E-05-4.02576E-14
 -1      2646 5.32283E-03 8.85153E-05-3.99631E-14
 -1      2647 5.50429E-03 1.34539E-04-4.03555E-14
 -1      2648 5.57597E-03 1.58057E-04-3.98207E-14
 -1      2649 5.43034E-03 1.17008E-04-3.95149E-14
 -1      2650 6.27434E-03 4.61923E-04-4.28907E-14
 -1      2651 5.72207E-04-1.82103E-04-5.89291E-16
 -1      2652 8.05723E-03 1.01811E-03-5.73266E-14
 -1      2653 8.15488E-03 9.78216E-04-5.84614E-14
 -1      2654 7.96688E-03 1.06493E-03-5.64132E-14
 -1      2655 7.70283E-03 1.12545E-03-5.35529E-14
 -1      2656 7.39732E-03 1.09155E-03-5.02161E-14
 -1      2657 5.86111E-03 2.62834E-04-4.14109E-14
 -1      2658 1.43765E-02-6.80099E-05-1.85382E-13
 -1      2659 1.44344E-02-1.20298E-05-1.86096E-13
 -1      2660 1.43155E-02 1.00486E-06-1.83161E-13
 -1      2661 1.42488E-02-7.45119E-05-1.82471E-13
 -1      2662 8.82598E-03-2.56420E-04-6.71274E-14
 -1      2663 1.45517E-02 9.19082E-04-1.77045E-13
 -1      2664 1.41856E-02-4.20116E-05-1.80630E-13
 -1      2665 7.80041E-04 7.49004E-05-9.93956E-16
 -1      2666 7.78647E-04 5.36819E-05-1.01298E-15
 -1      2667 7.77702E-04 3.24636E-05-1.02979E-15
 -1      2668 7.77228E-04 1.15167E-05-1.04437E-15
 -1      2669 8.95820E-04 4.79553E-05-1.29463E-15
 -1      2670 7.92054E-04 1.68704E-04-8.85048E-16
 -1      2671 7.87894E-04 1.43678E-04-9.17994E-16
 -1      2672 8.04072E-04 2.23361E-04-8.05088E-16
 -1      2673 7.97407E-04 1.95201E-04-8.47914E-16
 -1      2674 9.15408E-04 2.02272E-04-1.10827E-15
 -1      2675 1.13062E-03 3.53688E-04-1.27467E-15
 -1      2676 9.86828E-04 3.26131E-04-9.78194E-16
 -1      2677 8.77320E-03 6.32901E-04-6.45119E-14
 -1      2678 8.96683E-03 5.23027E-04-6.60432E-14
 -1      2679 1.41740E-03 3.96043E-04-1.99736E-15
 -1      2680 1.27405E-03 3.76874E-04-1.61413E-15
 -1      2681 1.19065E-03 3.32580E-04-1.51254E-15
 -1      2682 1.32127E-03-3.52331E-04-2.38537E-15
 -1      2683 1.46474E-03-3.69432E-04-2.87921E-15
 -1      2684 1.60806E-03-3.83433E-04-3.41941E-15
 -1      2685 1.75134E-03-3.94557E-04-4.00619E-15
 -1      2686 1.52615E-03-3.42452E-04-3.17442E-15
 -1      2687 1.89450E-03-4.03256E-04-4.63945E-15
 -1      2688 2.03764E-03-4.09712E-04-5.31815E-15
 -1      2689 1.81313E-03-3.63898E-04-4.34884E-15
 -1      2690 2.18075E-03-4.14292E-04-6.04223E-15
 -1      2691 2.32388E-03-4.17147E-04-6.81135E-15
 -1      2692 2.09999E-03-3.76410E-04-5.70525E-15
 -1      2693 2.46706E-03-4.18567E-04-7.62479E-15
 -1      2694 2.61033E-03-4.18684E-04-8.48306E-15
 -1      2695 2.38670E-03-3.81951E-04-7.24046E-15
 -1      2696 2.75372E-03-4.17735E-04-9.38588E-15
 -1      2697 2.89727E-03-4.15839E-04-1.03320E-14
 -1      2698 2.67335E-03-3.82155E-04-8.95308E-15
 -1      2699 3.04101E-03-4.13203E-04-1.13211E-14
 -1      2700 3.18499E-03-4.09945E-04-1.23529E-14
 -1      2701 2.96009E-03-3.78401E-04-1.08398E-14
 -1      2702 3.32922E-03-4.06267E-04-1.34278E-14
 -1      2703 3.47379E-03-4.02301E-04-1.45445E-14
 -1      2704 3.24711E-03-3.71929E-04-1.28983E-14
 -1      2705 3.61871E-03-3.98263E-04-1.57025E-14
 -1      2706 3.76407E-03-3.94317E-04-1.69017E-14
 -1      2707 3.53465E-03-3.63966E-04-1.51251E-14
 -1      2708 3.90992E-03-3.90716E-04-1.81418E-14
 -1      2709 4.05637E-03-3.87679E-04-1.94219E-14
 -1      2710 3.82309E-03-3.55865E-04-1.75170E-14
 -1      2711 4.20350E-03-3.85508E-04-2.07422E-14
 -1      2712 4.35147E-03-3.84509E-04-2.21017E-14
 -1      2713 4.11302E-03-3.49250E-04-2.00713E-14
 -1      2714 4.50041E-03-3.85035E-04-2.34999E-14
 -1      2715 4.65051E-03-3.87519E-04-2.49368E-14
 -1      2716 4.40537E-03-3.46176E-04-2.27829E-14
 -1      2717 4.80203E-03-3.92354E-04-2.64127E-14
 -1      2718 4.95512E-03-4.00143E-04-2.79256E-14
 -1      2719 4.70162E-03-3.49291E-04-2.56494E-14
 -1      2720 5.11023E-03-4.11279E-04-2.94768E-14
 -1      2721 5.26741E-03-4.26569E-04-3.10667E-14
 -1      2722 5.00392E-03-3.62014E-04-2.86675E-14
 -1      2723 5.42728E-03-4.46341E-04-3.26956E-14
 -1      2724 5.58963E-03-4.71532E-04-3.43628E-14
 -1      2725 5.31518E-03-3.88716E-04-3.18384E-14
 -1      2726 5.75519E-03-5.02279E-04-3.60688E-14
 -1      2727 5.92321E-03-5.39387E-04-3.78146E-14
 -1      2728 5.63866E-03-4.34713E-04-3.51631E-14
 -1      2729 6.09439E-03-5.82576E-04-3.95995E-14
 -1      2730 6.26705E-03-6.31827E-04-4.14261E-14
 -1      2731 5.97665E-03-5.05490E-04-3.86426E-14
 -1      2732 6.44151E-03-6.86139E-04-4.32948E-14
 -1      2733 6.61530E-03-7.43197E-04-4.52053E-14
 -1      2734 6.32802E-03-6.04226E-04-4.22830E-14
 -1      2735 6.78813E-03-8.00846E-04-4.71594E-14
 -1      2736 6.95806E-03-8.54047E-04-4.91564E-14
 -1      2737 6.68503E-03-7.24842E-04-4.60907E-14
 -1      2738 7.12409E-03-8.99699E-04-5.11996E-14
 -1      2739 7.28740E-03-9.31105E-04-5.32877E-14
 -1      2740 7.03465E-03-8.43016E-04-5.00734E-14
 -1      2741 7.44658E-03-9.45980E-04-5.54221E-14
 -1      2742 7.60646E-03-9.40876E-04-5.76014E-14
 -1      2743 7.36832E-03-9.16313E-04-5.42415E-14
 -1      2744 7.76556E-03-9.16186E-04-5.98254E-14
 -1      2745 7.92878E-03-8.74492E-04-6.20941E-14
 -1      2746 7.69319E-03-9.06525E-04-5.85932E-14
 -1      2747 8.09489E-03-8.18418E-04-6.44046E-14
 -1      2748 8.26483E-03-7.54890E-04-6.67576E-14
 -1      2749 8.02704E-03-8.12704E-04-6.31248E-14
 -1      2750 8.43756E-03-6.86784E-04-6.91508E-14
 -1      2751 8.61140E-03-6.19241E-04-7.15830E-14
 -1      2752 8.37655E-03-6.73829E-04-6.78262E-14
 -1      2753 8.78596E-03-5.54442E-04-7.40560E-14
 -1      2754 8.95870E-03-4.94631E-04-7.65662E-14
 -1      2755 8.73358E-03-5.32162E-04-7.26910E-14
 -1      2756 9.12996E-03-4.40852E-04-7.91123E-14
 -1      2757 9.29810E-03-3.93111E-04-8.16921E-14
 -1      2758 9.08508E-03-4.12339E-04-7.77080E-14
 -1      2759 9.46381E-03-3.51712E-04-8.43022E-14
 -1      2760 9.62630E-03-3.15844E-04-8.69449E-14
 -1      2761 9.42325E-03-3.20288E-04-8.28579E-14
 -1      2762 9.78632E-03-2.85384E-04-8.96189E-14
 -1      2763 9.94367E-03-2.59379E-04-9.23219E-14
 -1      2764 9.74688E-03-2.52980E-04-8.81380E-14
 -1      2765 1.00990E-02-2.37516E-04-9.50554E-14
 -1      2766 1.02523E-02-2.18994E-04-9.78146E-14
 -1      2767 1.00583E-02-2.04882E-04-9.35367E-14
 -1      2768 1.04040E-02-2.03429E-04-1.00603E-13
 -1      2769 1.05543E-02-1.90224E-04-1.03414E-13
 -1      2770 1.03608E-02-1.70730E-04-9.90482E-14
 -1      2771 1.07036E-02-1.79002E-04-1.06252E-13
 -1      2772 1.08518E-02-1.69345E-04-1.09114E-13
 -1      2773 1.06572E-02-1.46208E-04-1.04665E-13
 -1      2774 1.09993E-02-1.60923E-04-1.11997E-13
 -1      2775 1.11461E-02-1.53453E-04-1.14905E-13
 -1      2776 1.09497E-02-1.28000E-04-1.10380E-13
 -1      2777 1.12923E-02-1.46671E-04-1.17828E-13
 -1      2778 1.14380E-02-1.40389E-04-1.20772E-13
 -1      2779 1.12397E-02-1.13626E-04-1.16185E-13
 -1      2780 1.15834E-02-1.34412E-04-1.23734E-13
 -1      2781 1.17284E-02-1.28618E-04-1.26713E-13
 -1      2782 1.15283E-02-1.01285E-04-1.22067E-13
 -1      2783 1.18731E-02-1.22873E-04-1.29712E-13
 -1      2784 1.20176E-02-1.17103E-04-1.32729E-13
 -1      2785 1.18160E-02-8.97202E-05-1.28022E-13
 -1      2786 1.21619E-02-1.11223E-04-1.35760E-13
 -1      2787 1.23059E-02-1.05188E-04-1.38813E-13
 -1      2788 1.21030E-02-7.80956E-05-1.34050E-13
 -1      2789 1.24498E-02-9.89540E-05-1.41883E-13
 -1      2790 1.25936E-02-9.24966E-05-1.44967E-13
 -1      2791 1.23897E-02-6.58955E-05-1.40150E-13
 -1      2792 1.27372E-02-8.57968E-05-1.48069E-13
 -1      2793 1.28807E-02-7.88459E-05-1.51187E-13
 -1      2794 1.26761E-02-5.28364E-05-1.46318E-13
 -1      2795 1.30241E-02-7.16425E-05-1.54320E-13
 -1      2796 1.31675E-02-6.41867E-05-1.57469E-13
 -1      2797 1.29624E-02-3.87968E-05-1.52547E-13
 -1      2798 1.33107E-02-5.64885E-05-1.60630E-13
 -1      2799 1.34539E-02-4.85531E-05-1.63802E-13
 -1      2800 1.32485E-02-2.37638E-05-1.58837E-13
 -1      2801 1.35970E-02-4.03973E-05-1.66990E-13
 -1      2802 1.37401E-02-3.20282E-05-1.70187E-13
 -1      2803 1.35345E-02-7.79227E-06-1.65179E-13
 -1      2804 1.38831E-02-2.34665E-05-1.73394E-13
 -1      2805 1.40261E-02-1.47220E-05-1.76609E-13
 -1      2806 1.38204E-02 9.02636E-06-1.71567E-13
 -1      2807 2.27431E-03 4.50919E-04-5.21455E-15
 -1      2808 2.13154E-03 4.47333E-04-4.56911E-15
 -1      2809 8.92256E-03-2.13967E-04-6.89113E-14
 -1      2810 8.74918E-03-3.08621E-04-6.77223E-14
 -1      2811 1.98884E-03 4.41866E-04-3.96791E-15
 -1      2812 1.84612E-03 4.34356E-04-3.40937E-15
 -1      2813 2.05048E-03 4.08880E-04-4.38510E-15
 -1      2814 2.84696E-03 4.51219E-04-8.22721E-15
 -1      2815 2.70345E-03 4.52899E-04-7.40974E-15
 -1      2816 3.13490E-03 4.45392E-04-9.98939E-15
 -1      2817 2.99075E-03 4.48676E-04-9.08694E-15
 -1      2818 2.90995E-03 4.13735E-04-8.81447E-15
 -1      2819 3.42436E-03 4.37315E-04-1.19210E-14
 -1      2820 3.27940E-03 4.41561E-04-1.09345E-14
 -1      2821 3.19734E-03 4.07240E-04-1.06311E-14
 -1      2822 3.71572E-03 4.28375E-04-1.40197E-14
 -1      2823 3.56976E-03 4.32866E-04-1.29493E-14
 -1      2824 3.48555E-03 3.98806E-04-1.26157E-14
 -1      2825 4.00942E-03 4.20258E-04-1.62845E-14
 -1      2826 3.86222E-03 4.24101E-04-1.51316E-14
 -1      2827 3.77485E-03 3.89800E-04-1.47668E-14
 -1      2828 4.30607E-03 4.15171E-04-1.87145E-14
 -1      2829 4.15731E-03 4.17182E-04-1.74785E-14
 -1      2830 4.06562E-03 3.81891E-04-1.70841E-14
 -1      2831 4.60661E-03 4.16076E-04-2.13069E-14
 -1      2832 4.45577E-03 4.14657E-04-1.99905E-14
 -1      2833 4.35851E-03 3.77258E-04-1.95646E-14
 -1      2834 4.91246E-03 4.26947E-04-2.40581E-14
 -1      2835 4.75876E-03 4.19960E-04-2.26628E-14
 -1      2836 4.65462E-03 3.78807E-04-2.22055E-14
 -1      2837 5.22576E-03 4.52963E-04-2.69696E-14
 -1      2838 5.06806E-03 4.37640E-04-2.54934E-14
 -1      2839 4.95584E-03 3.90432E-04-2.50047E-14
 -1      2840 5.54945E-03 5.00542E-04-3.00397E-14
 -1      2841 5.38623E-03 4.73504E-04-2.84854E-14
 -1      2842 5.26513E-03 4.17277E-04-2.79624E-14
 -1      2843 5.88669E-03 5.76841E-04-3.32700E-14
 -1      2844 5.71646E-03 5.34494E-04-3.16341E-14
 -1      2845 5.58678E-03 4.66047E-04-3.10776E-14
 -1      2846 6.23896E-03 6.87710E-04-3.66620E-14
 -1      2847 6.06142E-03 6.27605E-04-3.49457E-14
 -1      2848 5.92556E-03 5.44938E-04-3.43518E-14
 -1      2849 6.60304E-03 8.32166E-04-4.02236E-14
 -1      2850 6.42061E-03 7.56114E-04-3.84215E-14
 -1      2851 6.28428E-03 6.61555E-04-3.77868E-14
 -1      2852 6.96734E-03 9.93460E-04-4.39594E-14
 -1      2853 6.78637E-03 9.13207E-04-4.20690E-14
 -1      2854 6.65851E-03 8.17038E-04-4.13892E-14
 -1      2855 7.31824E-03 1.12947E-03-4.78866E-14
 -1      2856 7.14472E-03 1.06884E-03-4.58997E-14
 -1      2857 7.03284E-03 9.90364E-04-4.51702E-14
 -1      2858 7.65351E-03 1.18719E-03-5.20044E-14
 -1      2859 7.48597E-03 1.17136E-03-4.99216E-14
 -1      2860 7.39081E-03 1.12680E-03-4.91440E-14
 -1      2861 7.98929E-03 1.14152E-03-5.63178E-14
 -1      2862 7.81900E-03 1.17621E-03-5.41365E-14
 -1      2863 7.73467E-03 1.16206E-03-5.33152E-14
 -1      2864 8.34062E-03 1.02078E-03-6.08144E-14
 -1      2865 8.16225E-03 1.08640E-03-5.85440E-14
 -1      2866 8.08486E-03 1.08093E-03-5.76829E-14
 -1      2867 8.70539E-03 8.78957E-04-6.54778E-14
 -1      2868 8.52264E-03 9.49115E-04-6.31254E-14
 -1      2869 8.45382E-03 9.34464E-04-6.22320E-14
 -1      2870 9.06887E-03 7.55926E-04-7.02957E-14
 -1      2871 8.88866E-03 8.13561E-04-6.78682E-14
 -1      2872 8.83068E-03 7.86735E-04-6.69437E-14
 -1      2873 9.42037E-03 6.67583E-04-7.52594E-14
 -1      2874 9.24689E-03 7.07443E-04-7.27592E-14
 -1      2875 9.19706E-03 6.72529E-04-7.18062E-14
 -1      2876 9.75678E-03 6.13391E-04-8.03616E-14
 -1      2877 9.59064E-03 6.36711E-04-7.77950E-14
 -1      2878 9.54421E-03 5.98228E-04-7.68125E-14
 -1      2879 1.00800E-02 5.87210E-04-8.55952E-14
 -1      2880 9.91995E-03 5.97357E-04-8.29616E-14
 -1      2881 9.87260E-03 5.57343E-04-8.19523E-14
 -1      2882 1.03931E-02 5.81909E-04-9.09563E-14
 -1      2883 1.02376E-02 5.82415E-04-8.82590E-14
 -1      2884 1.01867E-02 5.41525E-04-8.72198E-14
 -1      2885 1.06992E-02 5.91219E-04-9.64377E-14
 -1      2886 1.05469E-02 5.85090E-04-9.36815E-14
 -1      2887 1.04912E-02 5.43443E-04-9.26118E-14
 -1      2888 1.10002E-02 6.10160E-04-1.02040E-13
 -1      2889 1.08502E-02 5.99741E-04-9.92244E-14
 -1      2890 1.07895E-02 5.57396E-04-9.81247E-14
 -1      2891 1.12976E-02 6.35008E-04-1.07751E-13
 -1      2892 1.11493E-02 6.22025E-04-1.04884E-13
 -1      2893 1.10841E-02 5.79099E-04-1.03754E-13
 -1      2894 1.15924E-02 6.63100E-04-1.13561E-13
 -1      2895 1.14453E-02 6.48771E-04-1.10645E-13
 -1      2896 1.13762E-02 6.05429E-04-1.09488E-13
 -1      2897 1.18852E-02 6.92617E-04-1.19459E-13
 -1      2898 1.17390E-02 6.77762E-04-1.16498E-13
 -1      2899 1.16668E-02 6.34176E-04-1.15318E-13
 -1      2900 1.21763E-02 7.22374E-04-1.25440E-13
 -1      2901 1.20309E-02 7.07517E-04-1.22440E-13
 -1      2902 1.19563E-02 6.63840E-04-1.21235E-13
 -1      2903 1.24661E-02 7.51647E-04-1.31492E-13
 -1      2904 1.23213E-02 7.37101E-04-1.28458E-13
 -1      2905 1.22449E-02 6.93448E-04-1.27232E-13
 -1      2906 1.27549E-02 7.80034E-04-1.37606E-13
 -1      2907 1.26106E-02 7.65967E-04-1.34542E-13
 -1      2908 1.25328E-02 7.22416E-04-1.33300E-13
 -1      2909 1.30429E-02 8.07353E-04-1.43770E-13
 -1      2910 1.28990E-02 7.93834E-04-1.40683E-13
 -1      2911 1.28202E-02 7.50432E-04-1.39423E-13
 -1      2912 1.33303E-02 8.33565E-04-1.49975E-13
 -1      2913 1.31867E-02 8.20598E-04-1.46868E-13
 -1      2914 1.31072E-02 7.77367E-04-1.45598E-13
 -1      2915 1.36172E-02 8.58715E-04-1.56214E-13
 -1      2916 1.34738E-02 8.46269E-04-1.53090E-13
 -1      2917 1.33939E-02 8.03213E-04-1.51813E-13
 -1      2918 1.39037E-02 8.82899E-04-1.62482E-13
 -1      2919 1.37605E-02 8.70923E-04-1.59345E-13
 -1      2920 1.36803E-02 8.28034E-04-1.58058E-13
 -1      2921 1.41900E-02 9.06239E-04-1.68793E-13
 -1      2922 1.40469E-02 8.94668E-04-1.65631E-13
 -1      2923 1.39665E-02 8.51934E-04-1.64337E-13
 -1      2924 1.44423E-02 9.18402E-04-1.74499E-13
 -1      2925 1.42994E-02 9.07140E-04-1.71322E-13
 -1      2926 1.42189E-02 8.64545E-04-1.70013E-13
 -1      2927 1.44376E-02 8.66164E-04-1.75082E-13
 -1      2928 1.43298E-02 4.64653E-04-1.77771E-13
 -1      2929 1.43397E-02 5.05890E-04-1.77473E-13
 -1      2930 1.41226E-02-9.54804E-06-1.78792E-13
 -1      2931 1.42190E-02-4.30250E-06-1.80975E-13
 -1      2932 1.40597E-02 2.28599E-05-1.76954E-13
 -1      2933 1.43691E-02 6.29799E-04-1.76562E-13
 -1      2934 1.43789E-02 6.71217E-04-1.76256E-13
 -1      2935 1.43099E-02 3.82187E-04-1.78357E-13
 -1      2936 1.43199E-02 4.23426E-04-1.78065E-13
 -1      2937 1.42016E-02 4.35298E-04-1.75153E-13
 -1      2938 1.43495E-02 5.47148E-04-1.77170E-13
 -1      2939 1.43593E-02 5.88447E-04-1.76867E-13
 -1      2940 1.42408E-02 5.99867E-04-1.73958E-13
 -1      2941 1.42213E-02 5.17511E-04-1.74562E-13
 -1      2942 7.54561E-03-8.78205E-04-5.60045E-14
 -1      2943 7.40781E-03-8.69128E-04-5.43504E-14
 -1      2944 1.42901E-02 3.01021E-04-1.78924E-13
 -1      2945 1.43000E-02 3.41625E-04-1.78643E-13
 -1      2946 1.41818E-02 3.53776E-04-1.75727E-13
 -1      2947 1.42700E-02 2.18242E-04-1.79490E-13
 -1      2948 1.42801E-02 2.59665E-04-1.79209E-13
 -1      2949 1.41617E-02 2.72106E-04-1.76292E-13
 -1      2950 1.42499E-02 1.35157E-04-1.80042E-13
 -1      2951 1.42599E-02 1.76742E-04-1.79766E-13
 -1      2952 1.41415E-02 1.89461E-04-1.76848E-13
 -1      2953 6.60002E-03-5.00413E-04-4.65718E-14
 -1      2954 6.43046E-03-4.02344E-04-4.53675E-14
 -1      2955 8.36835E-03 8.73671E-04-6.07998E-14
 -1      2956 8.54264E-03 7.70397E-04-6.25202E-14
 -1      2957 7.24736E-03-8.31146E-04-5.25489E-14
 -1      2958 7.10574E-03-7.72715E-04-5.10339E-14
 -1      2959 7.89443E-04-2.47585E-04-9.76947E-16
 -1      2960 9.20720E-04-2.82200E-04-1.25979E-15
 -1      2961 8.03602E-04 2.73175E-04-6.89471E-16
 -1      2962 9.89823E-03 1.59667E-04-7.31963E-14
 -1      2963 9.89099E-03 1.53438E-04-7.32987E-14
 -1      2964 7.88825E-03-7.94085E-04-5.99660E-14
 -1      2965 7.72832E-03-8.51429E-04-5.81488E-14
 -1      2966 1.70336E-03 4.24400E-04-2.89462E-15
 -1      2967 1.56045E-03 4.11800E-04-2.42428E-15
 -1      2968 1.47751E-03 3.69624E-04-2.29591E-15
 -1      2969 1.76413E-03 3.94174E-04-3.25347E-15
 -1      2970 9.81241E-03 1.87638E-04-7.27219E-14
 -1      2971 9.87188E-03 1.72801E-04-7.30800E-14
 -1      2972 2.56021E-03 4.53511E-04-6.63543E-15
 -1      2973 2.41718E-03 4.52932E-04-5.90356E-15
 -1      2974 2.33674E-03 4.15919E-04-5.69004E-15
 -1      2975 2.62315E-03 4.17052E-04-7.16694E-15
 -1      2976 1.04905E-03-3.08509E-04-1.58013E-15
 -1      2977 1.19248E-03-3.32608E-04-1.98479E-15
 -1      2978 1.25399E-03-3.10471E-04-2.23301E-15
 -1      2979 9.97508E-04-2.68133E-04-1.49831E-15
 -1      2980 7.84572E-04 1.19888E-04-9.46508E-16
 -1      2981 7.82009E-04 9.69904E-05-9.71892E-16
 -1      2982 8.99284E-04 9.61551E-05-1.24747E-15
 -1      2983 9.05486E-04 1.46993E-04-1.18658E-15
 -1      2984 9.31272E-03-2.87940E-05-7.10118E-14
 -1      2985 9.12929E-03-1.09062E-04-7.00038E-14
 -1      2986 7.81720E-04-9.49603E-05-1.08310E-15
 -1      2987 7.84206E-04-1.17773E-04-1.08351E-15
 -1      2988 7.66135E-03 1.13768E-03-5.29055E-14
 -1      2989 7.80767E-03 1.11691E-03-5.46434E-14
 -1      2990 7.36498E-03 1.08534E-03-4.96501E-14
 -1      2991 7.51356E-03 1.12610E-03-5.12618E-14
 -1      2992 7.62073E-03 1.14179E-03-5.23190E-14
 -1      2993 9.53605E-03 2.70739E-04-7.04876E-14
 -1      2994 9.67997E-03 2.26618E-04-7.16703E-14
 -1      2995 6.53431E-04-1.84642E-04-7.49441E-16
 -1      2996 5.76563E-03 2.27935E-04-4.02037E-14
 -1      2997 5.95306E-03 3.04912E-04-4.09410E-14
 -1      2998 6.54687E-03 6.26787E-04-4.33258E-14
 -1      2999 6.70762E-03 7.28289E-04-4.42142E-14
 -1      3000 1.42525E-02 3.33552E-05-1.81316E-13
 -1      3001 6.14467E-03 3.97255E-04-4.16523E-14
 -1      3002 6.33877E-03 5.04190E-04-4.23711E-14
 -1      3003 6.02189E-03 3.50620E-04-4.04324E-14
 -1      3004 5.28390E-03 8.22530E-05-3.88330E-14
 -1      3005 5.32509E-03 9.10374E-05-3.89147E-14
 -1      3006 5.32652E-03 6.06464E-05-3.95251E-14
 -1      3007 5.28269E-03 7.04755E-05-3.91519E-14
 -1      3008 5.53295E-03 4.21338E-06-4.04775E-14
 -1      3009 5.41476E-03 3.61174E-05-3.99093E-14
 -1      3010 9.16924E-03 4.19004E-04-6.75214E-14
 -1      3011 9.35097E-03 3.38616E-04-6.88682E-14
 -1      3012 5.84746E-03-1.10689E-04-4.20198E-14
 -1      3013 5.69275E-03-5.07491E-05-4.12538E-14
 -1      3014 6.94092E-03-6.91705E-04-4.94578E-14
 -1      3015 6.79340E-03-6.08526E-04-4.81476E-14
 -1      3016 6.92031E-03 8.60107E-04-4.55641E-14
 -1      3017 7.11782E-03 9.77754E-04-4.71496E-14
 -1      3018 8.20461E-03-6.25916E-04-6.30836E-14
 -1      3019 8.06190E-03-7.09387E-04-6.17304E-14
 -1      3020 9.82938E-03 1.37168E-04-7.28771E-14
 -1      3021 9.73446E-03 1.16726E-04-7.24135E-14
 -1      3022 6.22388E-03-2.89238E-04-4.40956E-14
 -1      3023 6.04184E-03-1.97759E-04-4.30612E-14
 -1      3024 9.63291E-03 8.75675E-05-7.21346E-14
 -1      3025 9.51108E-03 4.80504E-05-7.18548E-14
 -1      3026 9.71875E-03 1.04837E-04-7.36974E-14
 -1      3027 8.54638E-03-4.21792E-04-6.59953E-14
 -1      3028 8.37490E-03-5.25893E-04-6.45964E-14
 -1      3029 7.87431E-04-1.41447E-04-1.08075E-15
 -1      3030 7.91445E-04-1.66214E-04-1.07430E-15
 -1      3031 9.04984E-04-1.44493E-04-1.36956E-15
 -1      3032 8.94662E-04 1.00122E-06-1.33017E-15
 -1      3033 7.77195E-04-9.37475E-06-1.05653E-15
 -1      3034 7.77605E-04-3.03053E-05-1.06673E-15
 -1      3035 9.09901E-03 4.78094E-04-6.77138E-14
 -1      3036 9.05073E-03-1.65549E-04-7.06074E-14
 -1      3037 1.42602E-02 6.82148E-04-1.73348E-13
 -1      3038 1.43886E-02 7.12361E-04-1.75949E-13
 -1      3039 1.43984E-02 7.53587E-04-1.75640E-13
 -1      3040 8.66457E-03-3.72244E-04-6.77575E-14
 -1      3041 9.92178E-03 1.70378E-04-7.47139E-14
 -1      3042 6.29448E-03-3.53161E-04-4.40120E-14
 -1      3043 9.88584E-03 1.46884E-04-7.44063E-14
 -1      3044 6.40405E-03 5.57134E-04-4.20703E-14
 -1      3045 7.64097E-03-8.73177E-04-5.72720E-14
 -1      3046 1.44129E-02 7.89105E-04-1.75518E-13
 -1      3047 1.44229E-02 8.30498E-04-1.75207E-13
 -1      3048 1.43135E-02 8.29749E-04-1.72671E-13
 -1      3049 1.42844E-02 7.58668E-04-1.72919E-13
 -1      3050 8.30581E-03-5.78553E-04-6.44980E-14
 -1      3051 6.80575E-03 8.05256E-04-4.43441E-14
 -1      3052 6.67056E-03-5.63438E-04-4.68278E-14
 -1      3053 1.42623E-02 7.51719E-05-1.81055E-13
 -1      3054 7.00992E-03-7.44731E-04-4.99625E-14
 -1      3055 8.68784E-03 7.10312E-04-6.42121E-14
 -1      3056 5.91357E-03-1.61802E-04-4.17310E-14
 -1      3057 5.57674E-03-2.82439E-05-3.99436E-14
 -1      3058 5.34107E-03 4.37532E-05-3.88060E-14
 -1      3059 8.65536E-04 2.60970E-04-8.58444E-16
 -1      3060 7.97688E-03-7.60606E-04-6.12007E-14
 -1      3061 5.36091E-03 1.03917E-04-3.83886E-14
 -1      3062 7.31521E-03-8.59017E-04-5.33286E-14
 -1      3063 8.27221E-03 9.38675E-04-5.98549E-14
 -1      3064 7.78476E-04-5.13998E-05-1.07454E-15
 -1      3065 7.79824E-04-7.29348E-05-1.08003E-15
 -1      3066 8.98978E-04-9.38337E-05-1.36832E-15
 -1      3067 8.95679E-04-4.58260E-05-1.35472E-15
 -1      3068 7.70603E-04-1.97817E-04-9.96314E-16
 -1      3069 7.90876E-03 1.09628E-03-5.57450E-14
 -1      3070 9.78115E-03 2.13627E-04-7.35329E-14
 -1      3071 9.47340E-03 3.13323E-04-7.08335E-14
 -1      3072 5.65427E-03 1.90313E-04-3.93593E-14
 -1      3073 5.72693E-03 2.29419E-04-3.88944E-14
 -1      3074 5.55354E-03 1.64211E-04-3.85240E-14
 -1      3075 9.43933E-03 1.03356E-05-7.25637E-14
 -1      3076 5.25436E-03 7.38548E-05-3.81141E-14
 -1      3077 9.83731E-04 2.69161E-04-1.12605E-15
 -1      3078 1.41017E-02 5.55275E-05-1.77543E-13
 -1      3079 1.42079E-02 1.02518E-04-1.79458E-13
 -1      3080 1.40893E-02 1.15467E-04-1.76538E-13
 -1      3081 1.40053E-02 5.03302E-05-1.75366E-13
 -1      3082 8.08273E-03-7.21827E-04-6.27896E-14
 -1      3083 7.92611E-03-7.99667E-04-6.10064E-14
 -1      3084 1.04091E-03 2.36437E-04-1.35513E-15
 -1      3085 1.03406E-03 2.05182E-04-1.40679E-15
 -1      3086 9.79473E-03 1.16097E-04-7.52634E-14
 -1      3087 9.70675E-03 9.08287E-05-7.49779E-14
 -1      3088 1.73229E-03-3.24888E-04-4.06200E-15
 -1      3089 1.87590E-03-3.32745E-04-4.69485E-15
 -1      3090 2.01945E-03-3.38665E-04-5.37255E-15
 -1      3091 2.16298E-03-3.42793E-04-6.09463E-15
 -1      3092 1.93939E-03-3.01170E-04-5.04449E-15
 -1      3093 2.30642E-03-3.45405E-04-6.86079E-15
 -1      3094 2.44980E-03-3.46620E-04-7.67093E-15
 -1      3095 2.22646E-03-3.08969E-04-6.48623E-15
 -1      3096 2.59307E-03-3.46675E-04-8.52538E-15
 -1      3097 2.73628E-03-3.45670E-04-9.42349E-15
 -1      3098 2.51309E-03-3.11275E-04-8.10322E-15
 -1      3099 2.87939E-03-3.43809E-04-1.03640E-14
 -1      3100 3.02244E-03-3.41183E-04-1.13474E-14
 -1      3101 2.79907E-03-3.09352E-04-9.89362E-15
 -1      3102 3.16541E-03-3.37980E-04-1.23742E-14
 -1      3103 3.30836E-03-3.34293E-04-1.34429E-14
 -1      3104 3.08429E-03-3.04301E-04-1.18555E-14
 -1      3105 3.45127E-03-3.30310E-04-1.45528E-14
 -1      3106 3.59423E-03-3.26140E-04-1.57041E-14
 -1      3107 3.36875E-03-2.97141E-04-1.39864E-14
 -1      3108 3.73724E-03-3.21985E-04-1.68973E-14
 -1      3109 3.88041E-03-3.17989E-04-1.81308E-14
 -1      3110 3.65257E-03-2.88904E-04-1.62827E-14
 -1      3111 4.02379E-03-3.14380E-04-1.94040E-14
 -1      3112 4.16754E-03-3.11366E-04-2.07180E-14
 -1      3113 3.93609E-03-2.80736E-04-1.87430E-14
 -1      3114 4.31176E-03-3.09203E-04-2.20705E-14
 -1      3115 4.45670E-03-3.08207E-04-2.34616E-14
 -1      3116 4.21998E-03-2.74023E-04-2.13626E-14
 -1      3117 4.60257E-03-3.08656E-04-2.48906E-14
 -1      3118 4.74969E-03-3.11043E-04-2.63579E-14
 -1      3119 4.50549E-03-2.70526E-04-2.41379E-14
 -1      3120 4.89843E-03-3.15644E-04-2.78641E-14
 -1      3121 5.04920E-03-3.23237E-04-2.94068E-14
 -1      3122 4.79469E-03-2.72593E-04-2.70650E-14
 -1      3123 5.20260E-03-3.34072E-04-3.09869E-14
 -1      3124 5.35903E-03-3.49362E-04-3.26067E-14
 -1      3125 5.09085E-03-2.83503E-04-3.01432E-14
 -1      3126 5.51935E-03-3.69345E-04-3.42635E-14
 -1      3127 5.68361E-03-3.95595E-04-3.59588E-14
 -1      3128 5.39875E-03-3.08181E-04-3.33707E-14
 -1      3129 5.85300E-03-4.28120E-04-3.76930E-14
 -1      3130 6.02656E-03-4.68885E-04-3.94662E-14
 -1      3131 5.72434E-03-3.53910E-04-3.67506E-14
 -1      3132 6.20559E-03-5.17647E-04-4.12798E-14
 -1      3133 6.38705E-03-5.74836E-04-4.31343E-14
 -1      3134 6.07272E-03-4.30219E-04-4.02856E-14
 -1      3135 7.01018E-03-7.94473E-04-4.97979E-14
 -1      3136 7.18741E-03-8.51048E-04-5.18482E-14
 -1      3137 7.33153E-03-8.86346E-04-5.36380E-14
 -1      3138 7.50099E-03-9.01795E-04-5.57763E-14
 -1      3139 7.94096E-03-8.21929E-04-6.17113E-14
 -1      3140 8.11618E-03-7.54783E-04-6.40162E-14
 -1      3141 8.31451E-03-6.63111E-04-6.65078E-14
 -1      3142 8.49785E-03-5.84491E-04-6.89003E-14
 -1      3143 8.68247E-03-5.09148E-04-7.13314E-14
 -1      3144 8.86393E-03-4.41367E-04-7.38017E-14
 -1      3145 8.63405E-03-4.87354E-04-6.99755E-14
 -1      3146 9.04294E-03-3.82279E-04-7.63073E-14
 -1      3147 9.21653E-03-3.30790E-04-7.88485E-14
 -1      3148 9.00410E-03-3.49986E-04-7.49127E-14
 -1      3149 9.38594E-03-2.87487E-04-8.14225E-14
 -1      3150 9.55026E-03-2.50593E-04-8.40263E-14
 -1      3151 9.35275E-03-2.52293E-04-7.99888E-14
 -1      3152 9.71062E-03-2.19968E-04-8.66632E-14
 -1      3153 9.86709E-03-1.93965E-04-8.93301E-14
 -1      3154 9.67837E-03-1.85153E-04-8.51946E-14
 -1      3155 1.00205E-02-1.72398E-04-9.20271E-14
 -1      3156 1.01713E-02-1.54086E-04-9.47509E-14
 -1      3157 9.98635E-03-1.39007E-04-9.05222E-14
 -1      3158 1.03200E-02-1.38765E-04-9.75021E-14
 -1      3159 1.04671E-02-1.25665E-04-1.00282E-13
 -1      3160 1.02824E-02-1.06642E-04-9.59624E-14
 -1      3161 1.06130E-02-1.14518E-04-1.03085E-13
 -1      3162 1.07578E-02-1.04839E-04-1.05915E-13
 -1      3163 1.05714E-02-8.31626E-05-1.01509E-13
 -1      3164 1.09020E-02-9.63719E-05-1.08770E-13
 -1      3165 1.10456E-02-8.88113E-05-1.11647E-13
 -1      3166 1.08565E-02-6.53505E-05-1.07163E-13
 -1      3167 1.11888E-02-8.19356E-05-1.14546E-13
 -1      3168 1.13318E-02-7.55545E-05-1.17465E-13
 -1      3169 1.11398E-02-5.09653E-05-1.12910E-13
 -1      3170 1.14746E-02-6.94901E-05-1.20403E-13
 -1      3171 1.16173E-02-6.36257E-05-1.23361E-13
 -1      3172 1.14224E-02-3.84231E-05-1.18744E-13
 -1      3173 1.17599E-02-5.78286E-05-1.26340E-13
 -1      3174 1.19025E-02-5.20307E-05-1.29335E-13
 -1      3175 1.17051E-02-2.66123E-05-1.24657E-13
 -1      3176 1.20451E-02-4.61402E-05-1.32347E-13
 -1      3177 1.21877E-02-4.01208E-05-1.35376E-13
 -1      3178 1.19882E-02-1.47763E-05-1.30643E-13
 -1      3179 1.23303E-02-3.39150E-05-1.38423E-13
 -1      3180 1.24729E-02-2.75070E-05-1.41489E-13
 -1      3181 1.22717E-02-2.43148E-06-1.36702E-13
 -1      3182 1.26156E-02-2.08656E-05-1.44571E-13
 -1      3183 1.27583E-02-1.39882E-05-1.47669E-13
 -1      3184 1.25557E-02 1.07010E-05-1.42827E-13
 -1      3185 1.29010E-02-6.86283E-06-1.50782E-13
 -1      3186 1.30438E-02 5.05295E-07-1.53910E-13
 -1      3187 1.28402E-02 2.47516E-05-1.49019E-13
 -1      3188 1.31865E-02 8.11514E-06-1.57052E-13
 -1      3189 1.33293E-02 1.59569E-05-1.60207E-13
 -1      3190 1.31249E-02 3.97477E-05-1.55269E-13
 -1      3191 1.34721E-02 2.40209E-05-1.63375E-13
 -1      3192 1.36149E-02 3.22958E-05-1.66556E-13
 -1      3193 1.34100E-02 5.56494E-05-1.61575E-13
 -1      3194 1.37387E-02 3.68595E-05-1.69353E-13
 -1      3195 1.38815E-02 4.54893E-05-1.72552E-13
 -1      3196 1.39236E-02 7.79877E-05-1.73139E-13
 -1      3197 1.36762E-02 6.84818E-05-1.67536E-13
 -1      3198 3.25869E-03 3.69518E-04-1.12799E-14
 -1      3199 3.11549E-03 3.73281E-04-1.03236E-14
 -1      3200 2.97232E-03 3.76462E-04-9.40937E-15
 -1      3201 2.82912E-03 3.78965E-04-8.53739E-15
 -1      3202 3.03406E-03 3.39547E-04-1.00128E-14
 -1      3203 3.83185E-03 3.52071E-04-1.55215E-14
 -1      3204 3.68843E-03 3.56469E-04-1.43988E-14
 -1      3205 4.11913E-03 3.44505E-04-1.78899E-14
 -1      3206 3.97536E-03 3.48019E-04-1.66853E-14
 -1      3207 3.88682E-03 3.15284E-04-1.62831E-14
 -1      3208 4.40767E-03 3.40336E-04-2.04207E-14
 -1      3209 4.26316E-03 3.41848E-04-1.91348E-14
 -1      3210 4.17009E-03 3.08150E-04-1.87026E-14
 -1      3211 4.69874E-03 3.42331E-04-2.31098E-14
 -1      3212 4.55275E-03 3.40346E-04-2.17453E-14
 -1      3213 4.45369E-03 3.04388E-04-2.12824E-14
 -1      3214 4.99464E-03 3.54196E-04-2.59567E-14
 -1      3215 4.84587E-03 3.46702E-04-2.45137E-14
 -1      3216 4.73906E-03 3.06519E-04-2.40199E-14
 -1      3217 5.29920E-03 3.80958E-04-2.89599E-14
 -1      3218 5.14554E-03 3.65205E-04-2.74383E-14
 -1      3219 5.02889E-03 3.17942E-04-2.69131E-14
 -1      3220 5.61809E-03 4.29635E-04-3.21196E-14
 -1      3221 5.45652E-03 4.01752E-04-3.05205E-14
 -1      3222 5.32785E-03 3.43494E-04-2.99612E-14
 -1      3223 5.95805E-03 5.10020E-04-3.54360E-14
 -1      3224 5.78525E-03 4.64829E-04-3.37582E-14
 -1      3225 5.64315E-03 3.90921E-04-3.31649E-14
 -1      3226 6.32475E-03 6.32146E-04-3.89116E-14
 -1      3227 6.13876E-03 5.64637E-04-3.71530E-14
 -1      3228 5.98444E-03 4.71693E-04-3.65221E-14
 -1      3229 7.11366E-03 1.00217E-03-4.64121E-14
 -1      3230 6.92318E-03 9.12054E-04-4.44727E-14
 -1      3231 7.52273E-03 1.14286E-03-5.09479E-14
 -1      3232 7.34380E-03 1.09892E-03-4.88964E-14
 -1      3233 7.83614E-03 1.13579E-03-5.47291E-14
 -1      3234 7.65928E-03 1.15374E-03-5.25873E-14
 -1      3235 8.55858E-03 8.45844E-04-6.33942E-14
 -1      3236 8.36341E-03 9.30836E-04-6.10773E-14
 -1      3237 9.33072E-03 5.91207E-04-7.33184E-14
 -1      3238 9.15250E-03 6.35386E-04-7.08478E-14
 -1      3239 9.66912E-03 5.33609E-04-7.83655E-14
 -1      3240 9.50318E-03 5.58322E-04-7.58242E-14
 -1      3241 9.46825E-03 5.15573E-04-7.48360E-14
 -1      3242 9.98683E-03 5.06416E-04-8.35383E-14
 -1      3243 9.83019E-03 5.17063E-04-8.09354E-14
 -1      3244 9.79341E-03 4.75191E-04-7.99195E-14
 -1      3245 1.02907E-02 5.00403E-04-8.88401E-14
 -1      3246 1.01401E-02 5.01373E-04-8.61736E-14
 -1      3247 1.00984E-02 4.60822E-04-8.51290E-14
 -1      3248 1.05863E-02 5.08732E-04-9.42655E-14
 -1      3249 1.04393E-02 5.03159E-04-9.15383E-14
 -1      3250 1.03915E-02 4.63334E-04-9.04641E-14
 -1      3251 1.08773E-02 5.26571E-04-9.98079E-14
 -1      3252 1.07322E-02 5.16718E-04-9.70221E-14
 -1      3253 1.06783E-02 4.76961E-04-9.59216E-14
 -1      3254 1.11659E-02 5.50422E-04-1.05462E-13
 -1      3255 1.10218E-02 5.37917E-04-1.02622E-13
 -1      3256 1.09624E-02 4.97826E-04-1.01491E-13
 -1      3257 1.14533E-02 5.77761E-04-1.11219E-13
 -1      3258 1.13097E-02 5.63772E-04-1.08329E-13
 -1      3259 1.12455E-02 5.23200E-04-1.07171E-13
 -1      3260 1.17401E-02 6.06808E-04-1.17069E-13
 -1      3261 1.15967E-02 5.92149E-04-1.14133E-13
 -1      3262 1.15286E-02 5.51105E-04-1.12950E-13
 -1      3263 1.20266E-02 6.36354E-04-1.23005E-13
 -1      3264 1.18834E-02 6.21569E-04-1.20027E-13
 -1      3265 1.18121E-02 5.80141E-04-1.18822E-13
 -1      3266 1.23130E-02 6.65618E-04-1.29020E-13
 -1      3267 1.21698E-02 6.51051E-04-1.26004E-13
 -1      3268 1.20961E-02 6.09349E-04-1.24776E-13
 -1      3269 1.25993E-02 6.94139E-04-1.35100E-13
 -1      3270 1.24561E-02 6.79988E-04-1.32052E-13
 -1      3271 1.23805E-02 6.38113E-04-1.30808E-13
 -1      3272 1.28854E-02 7.21679E-04-1.41237E-13
 -1      3273 1.27423E-02 7.08038E-04-1.38162E-13
 -1      3274 1.26653E-02 6.66076E-04-1.36901E-13
 -1      3275 1.31715E-02 7.48155E-04-1.47421E-13
 -1      3276 1.30285E-02 7.35051E-04-1.44323E-13
 -1      3277 1.29504E-02 6.93063E-04-1.43049E-13
 -1      3278 1.34576E-02 7.73585E-04-1.53643E-13
 -1      3279 1.33146E-02 7.60998E-04-1.50528E-13
 -1      3280 1.32357E-02 7.19027E-04-1.49244E-13
 -1      3281 1.37435E-02 7.98042E-04-1.59897E-13
 -1      3282 1.36005E-02 7.85930E-04-1.56766E-13
 -1      3283 1.35212E-02 7.44003E-04-1.55475E-13
 -1      3284 1.40294E-02 8.21634E-04-1.66185E-13
 -1      3285 1.38865E-02 8.09939E-04-1.63036E-13
 -1      3286 1.38067E-02 7.68072E-04-1.61736E-13
 -1      3287 1.42262E-02 8.26240E-04-1.70685E-13
 -1      3288 1.41168E-02 8.25301E-04-1.68163E-13
 -1      3289 1.40369E-02 7.83500E-04-1.66854E-13
 -1      3290 1.42116E-02 7.90679E-04-1.70811E-13
 -1      3291 1.01554E-03 6.56786E-05-1.58822E-15
 -1      3292 1.01421E-03 3.96836E-05-1.61285E-15
 -1      3293 1.40734E-02 4.06083E-04-1.72539E-13
 -1      3294 1.40834E-02 4.47031E-04-1.72251E-13
 -1      3295 1.40129E-02 1.60839E-04-1.74209E-13
 -1      3296 1.40231E-02 2.02150E-04-1.73937E-13
 -1      3297 1.40537E-02 3.25521E-04-1.73101E-13
 -1      3298 1.40636E-02 3.65819E-04-1.72821E-13
 -1      3299 1.39456E-02 3.77727E-04-1.69926E-13
 -1      3300 9.94256E-03 1.53041E-04-7.61869E-14
 -1      3301 9.87823E-03 1.37827E-04-7.57573E-14
 -1      3302 5.95263E-03-2.13379E-04-4.12159E-14
 -1      3303 5.78239E-03-1.37276E-04-4.02051E-14
 -1      3304 9.19533E-03-1.19913E-04-7.27408E-14
 -1      3305 9.01481E-03-2.12602E-04-7.16243E-14
 -1      3306 7.66440E-03-8.86237E-04-5.79163E-14
 -1      3307 6.33059E-03-4.10708E-04-4.37100E-14
 -1      3308 6.14978E-03-3.11314E-04-4.24707E-14
 -1      3309 8.78765E-03 7.58261E-04-6.61771E-14
 -1      3310 8.71613E-03 7.39233E-04-6.49833E-14
 -1      3311 8.92068E-03 6.19039E-04-6.70169E-14
 -1      3312 8.97725E-03 6.91223E-04-6.85795E-14
 -1      3313 7.97719E-03 1.08873E-03-5.65069E-14
 -1      3314 1.40334E-02 2.43356E-04-1.73663E-13
 -1      3315 1.40435E-02 2.84476E-04-1.73383E-13
 -1      3316 1.39255E-02 2.96747E-04-1.70484E-13
 -1      3317 1.39050E-02 2.14786E-04-1.71035E-13
 -1      3318 3.54514E-03 3.60947E-04-1.33168E-14
 -1      3319 3.40188E-03 3.65371E-04-1.22775E-14
 -1      3320 3.31897E-03 3.32366E-04-1.19355E-14
 -1      3321 3.60320E-03 3.23861E-04-1.40263E-14
 -1      3322 7.23316E-03 1.04699E-03-4.78874E-14
 -1      3323 2.11283E-03 3.75523E-04-4.81206E-15
 -1      3324 1.96944E-03 3.70463E-04-4.19581E-15
 -1      3325 8.44860E-03-5.26219E-04-6.68014E-14
 -1      3326 8.29670E-03-6.14688E-04-6.52590E-14
 -1      3327 1.44529E-03-3.02246E-04-2.93324E-15
 -1      3328 1.58876E-03-3.14781E-04-3.47498E-15
 -1      3329 1.65225E-03-2.86416E-04-3.78041E-15
 -1      3330 8.88492E-04-2.06404E-04-1.27963E-15
 -1      3331 9.76711E-03 2.43071E-04-7.47054E-14
 -1      3332 9.88330E-03 2.08279E-04-7.57779E-14
 -1      3333 6.73248E-03-6.29214E-04-4.70766E-14
 -1      3334 6.55912E-03-5.35038E-04-4.55238E-14
 -1      3335 6.86762E-03-7.25993E-04-4.82481E-14
 -1      3336 5.90512E-03 3.13182E-04-3.91946E-14
 -1      3337 6.07528E-03 3.95278E-04-3.98838E-14
 -1      3338 9.56771E-03 4.07629E-05-7.45968E-14
 -1      3339 9.39253E-03-2.74395E-05-7.37368E-14
 -1      3340 1.14592E-03 3.02253E-04-1.47435E-15
 -1      3341 1.08313E-03 2.64174E-04-1.40181E-15
 -1      3342 1.20209E-03 2.64515E-04-1.74159E-15
 -1      3343 1.28921E-03 3.22579E-04-1.83977E-15
 -1      3344 5.33768E-03 2.60180E-05-3.78422E-14
 -1      3345 5.26332E-03 4.77350E-05-3.74727E-14
 -1      3346 6.26981E-03 4.99483E-04-4.07553E-14
 -1      3347 6.45688E-03 6.10269E-04-4.16829E-14
 -1      3348 9.40613E-03 3.63339E-04-7.10860E-14
 -1      3349 9.57593E-03 3.03159E-04-7.27291E-14
 -1      3350 5.29654E-03 9.82078E-05-3.71787E-14
 -1      3351 5.40529E-03 1.22411E-04-3.77638E-14
 -1      3352 6.60531E-03 7.06078E-04-4.24112E-14
 -1      3353 6.79964E-03 8.28120E-04-4.37240E-14
 -1      3354 6.73039E-03 8.22673E-04-4.25242E-14
 -1      3355 6.46609E-03 6.45371E-04-4.10807E-14
 -1      3356 8.16512E-03 1.01799E-03-5.87358E-14
 -1      3357 5.60589E-03-6.37544E-05-3.92638E-14
 -1      3358 5.46632E-03-1.58500E-05-3.85134E-14
 -1      3359 5.22155E-03 6.41681E-05-3.71206E-14
 -1      3360 5.21805E-03 7.47399E-05-3.68094E-14
 -1      3361 9.95535E-03 1.80736E-04-7.63877E-14
 -1      3362 9.97117E-03 1.68808E-04-7.65060E-14
 -1      3363 1.01353E-03 1.39285E-05-1.63401E-15
 -1      3364 1.01349E-03-1.17216E-05-1.65192E-15
 -1      3365 1.13366E-03 2.89600E-05-1.96686E-15
 -1      3366 1.15317E-03 2.04662E-04-1.74229E-15
 -1      3367 1.02842E-03 1.75373E-04-1.45218E-15
 -1      3368 1.02393E-03 1.46731E-04-1.49269E-15
 -1      3369 9.66758E-03 5.94589E-05-7.61703E-14
 -1      3370 1.18854E-03-2.70317E-04-2.07951E-15
 -1      3371 1.31679E-03-2.87394E-04-2.48801E-15
 -1      3372 1.38045E-03-2.63239E-04-2.74969E-15
 -1      3373 5.19470E-03 5.06000E-05-3.61812E-14
 -1      3374 1.41320E-02 6.52142E-04-1.70755E-13
 -1      3375 1.41416E-02 6.93091E-04-1.70449E-13
 -1      3376 1.02342E-03-1.44039E-04-1.69258E-15
 -1      3377 1.02778E-03-1.72597E-04-1.68958E-15
 -1      3378 6.43399E-03-5.38238E-04-4.39171E-14
 -1      3379 6.56415E-03-6.32147E-04-4.49681E-14
 -1      3380 6.13726E-03 4.51188E-04-3.95045E-14
 -1      3381 6.74852E-03-7.00723E-04-4.69053E-14
 -1      3382 5.99780E-03-2.74611E-04-4.09215E-14
 -1      3383 8.23492E-03-6.72672E-04-6.50503E-14
 -1      3384 7.83617E-03-8.46300E-04-6.01473E-14
 -1      3385 9.67237E-03 3.21343E-04-7.52224E-14
 -1      3386 9.71874E-03 2.79396E-04-7.49669E-14
 -1      3387 9.84801E-03 2.67235E-04-7.72273E-14
 -1      3388 1.01485E-03-2.27862E-04-1.60223E-15
 -1      3389 2.74851E-03 3.44288E-04-8.25615E-15
 -1      3390 2.68593E-03 3.80595E-04-7.70738E-15
 -1      3391 2.54271E-03 3.81253E-04-6.91950E-15
 -1      3392 6.40773E-03 6.48356E-04-3.99768E-14
 -1      3393 6.24384E-03 5.40065E-04-3.93085E-14
 -1      3394 6.53804E-03 7.34144E-04-4.06805E-14
 -1      3395 1.88870E-03 3.32207E-04-4.00229E-15
 -1      3396 1.82601E-03 3.63412E-04-3.62262E-15
 -1      3397 1.68251E-03 3.54206E-04-3.09248E-15
 -1      3398 5.35311E-03-2.31488E-06-3.71846E-14
 -1      3399 9.12346E-03 5.97286E-04-7.00562E-14
 -1      3400 1.01757E-03 9.20065E-05-1.56044E-15
 -1      3401 1.13672E-03 8.50508E-05-1.90971E-15
 -1      3402 1.02032E-03 1.18914E-04-1.52864E-15
 -1      3403 9.87958E-03 1.26954E-04-7.70528E-14
 -1      3404 1.41127E-02 5.69837E-04-1.71361E-13
 -1      3405 1.41224E-02 6.10946E-04-1.71059E-13
 -1      3406 1.40039E-02 6.21846E-04-1.68168E-13
 -1      3407 1.40932E-02 4.87899E-04-1.71956E-13
 -1      3408 1.41030E-02 5.28887E-04-1.71660E-13
 -1      3409 1.39847E-02 5.39999E-04-1.68768E-13
 -1      3410 1.39652E-02 4.58516E-04-1.69357E-13
 -1      3411 9.99813E-03 1.62463E-04-7.78751E-14
 -1      3412 5.64392E-03-1.11942E-04-3.87650E-14
 -1      3413 9.35022E-03-7.50646E-05-7.47734E-14
 -1      3414 9.00578E-03-2.54917E-04-7.26933E-14
 -1      3415 8.84773E-03-3.07825E-04-7.05671E-14
 -1      3416 6.40373E-03-4.85457E-04-4.39435E-14
 -1      3417 9.10253E-03 5.60894E-04-6.92848E-14
 -1      3418 9.09343E-03 5.17748E-04-6.84904E-14
 -1      3419 9.26909E-03 4.28164E-04-6.99956E-14
 -1      3420 9.27622E-03 5.10857E-04-7.15628E-14
 -1      3421 1.55756E-03 3.47982E-04-2.65269E-15
 -1      3422 1.41405E-03 3.33803E-04-2.20516E-15
 -1      3423 1.36996E-03 3.04385E-04-2.15282E-15
 -1      3424 1.62000E-03 3.19891E-04-2.97830E-15
 -1      3425 2.39946E-03 3.80725E-04-6.17457E-15
 -1      3426 2.25616E-03 3.78900E-04-5.47159E-15
 -1      3427 2.46236E-03 3.45483E-04-6.66790E-15
 -1      3428 8.66487E-03-4.03393E-04-6.88050E-14
 -1      3429 2.17571E-03 3.41925E-04-5.24968E-15
 -1      3430 1.01728E-03-8.95579E-05-1.68661E-15
 -1      3431 1.01993E-03-1.16414E-04-1.69144E-15
 -1      3432 1.14252E-03-1.40395E-04-2.04848E-15
 -1      3433 9.39414E-03 4.06708E-04-7.18790E-14
 -1      3434 5.45853E-03 1.48182E-04-3.73105E-14
 -1      3435 5.78514E-03 2.69441E-04-3.83588E-14
 -1      3436 5.83207E-03 3.12582E-04-3.78197E-14
 -1      3437 5.67175E-03 2.34589E-04-3.75322E-14
 -1      3438 5.22032E-03 8.52552E-05-3.62013E-14
 -1      3439 5.23499E-03 9.87071E-05-3.55939E-14
 -1      3440 5.15769E-03 7.53083E-05-3.52341E-14
 -1      3441 9.96660E-03 2.01916E-04-7.75828E-14
 -1      3442 1.39472E-02 1.03219E-04-1.73385E-13
 -1      3443 1.39893E-02 1.35658E-04-1.73968E-13
 -1      3444 1.38710E-02 1.48571E-04-1.71065E-13
 -1      3445 1.38236E-02 9.83365E-05-1.70578E-13
 -1      3446 6.22365E-03-4.28262E-04-4.21431E-14
 -1      3447 9.41703E-03 4.34369E-04-7.28350E-14
 -1      3448 9.53641E-03 3.78720E-04-7.39467E-14
 -1      3449 9.69052E-03 3.50112E-04-7.61987E-14
 -1      3450 9.42727E-03 4.75000E-04-7.36273E-14
 -1      3451 9.79216E-03 8.07175E-05-7.82247E-14
 -1      3452 9.67235E-03 3.43172E-05-7.78327E-14
 -1      3453 1.19874E-03-2.08373E-04-2.18461E-15
 -1      3454 1.07949E-03-2.10023E-04-1.81090E-15
 -1      3455 6.05158E-03-3.33325E-04-4.09013E-14
 -1      3456 5.87427E-03-2.45825E-04-3.96769E-14
 -1      3457 6.09361E-03-3.90257E-04-4.08742E-14
 -1      3458 6.06897E-03 4.43946E-04-3.84600E-14
 -1      3459 2.14707E-03-2.72786E-04-6.11719E-15
 -1      3460 2.29045E-03-2.74989E-04-6.87993E-15
 -1      3461 2.43364E-03-2.76028E-04-7.68667E-15
 -1      3462 2.57663E-03-2.75986E-04-8.53678E-15
 -1      3463 2.35486E-03-2.40940E-04-7.27623E-15
 -1      3464 2.71936E-03-2.75051E-04-9.42905E-15
 -1      3465 2.86182E-03-2.73289E-04-1.03644E-14
 -1      3466 2.64038E-03-2.40853E-04-8.97066E-15
 -1      3467 3.00396E-03-2.70872E-04-1.13430E-14
 -1      3468 3.14580E-03-2.67857E-04-1.23636E-14
 -1      3469 2.92452E-03-2.37585E-04-1.08362E-14
 -1      3470 3.28729E-03-2.64408E-04-1.34253E-14
 -1      3471 3.42847E-03-2.60582E-04-1.45286E-14
 -1      3472 3.20698E-03-2.31950E-04-1.28706E-14
 -1      3473 3.56930E-03-2.56546E-04-1.56745E-14
 -1      3474 3.70988E-03-2.52370E-04-1.68605E-14
 -1      3475 3.48756E-03-2.24703E-04-1.50715E-14
 -1      3476 3.85018E-03-2.48228E-04-1.80866E-14
 -1      3477 3.99034E-03-2.44224E-04-1.93533E-14
 -1      3478 3.76623E-03-2.16608E-04-1.74361E-14
 -1      3479 4.13037E-03-2.40542E-04-2.06597E-14
 -1      3480 4.27051E-03-2.37348E-04-2.20055E-14
 -1      3481 4.04323E-03-2.08494E-04-1.99622E-14
 -1      3482 4.41084E-03-2.34830E-04-2.33893E-14
 -1      3483 4.55173E-03-2.33280E-04-2.48116E-14
 -1      3484 4.31918E-03-2.01340E-04-2.26459E-14
 -1      3485 4.69336E-03-2.32878E-04-2.62716E-14
 -1      3486 4.83629E-03-2.34140E-04-2.77697E-14
 -1      3487 4.59540E-03-1.96405E-04-2.54837E-14
 -1      3488 4.98086E-03-2.37209E-04-2.93041E-14
 -1      3489 5.12792E-03-2.43056E-04-3.08761E-14
 -1      3490 4.87431E-03-1.95496E-04-2.84706E-14
 -1      3491 5.27808E-03-2.51833E-04-3.24851E-14
 -1      3492 5.43232E-03-2.65233E-04-3.41318E-14
 -1      3493 5.16001E-03-2.01493E-04-3.16060E-14
 -1      3494 5.91439E-03-3.45728E-04-3.90789E-14
 -1      3495 9.32761E-03-2.13340E-04-7.85583E-14
 -1      3496 9.49329E-03-1.76726E-04-8.11277E-14
 -1      3497 9.65299E-03-1.47822E-04-8.37280E-14
 -1      3498 9.80734E-03-1.23598E-04-8.63574E-14
 -1      3499 9.63416E-03-1.07996E-04-8.22644E-14
 -1      3500 9.95754E-03-1.04148E-04-8.90188E-14
 -1      3501 1.01045E-02-8.76068E-05-9.17081E-14
 -1      3502 9.93376E-03-6.82317E-05-8.75204E-14
 -1      3503 1.02490E-02-7.38518E-05-9.44238E-14
 -1      3504 1.03917E-02-6.19071E-05-9.71678E-14
 -1      3505 1.02192E-02-4.08822E-05-9.28910E-14
 -1      3506 1.05331E-02-5.16471E-05-9.99366E-14
 -1      3507 1.06737E-02-4.25490E-05-1.02733E-13
 -1      3508 1.04975E-02-2.05258E-05-9.83694E-14
 -1      3509 1.08136E-02-3.44543E-05-1.05557E-13
 -1      3510 1.09533E-02-2.70706E-05-1.08405E-13
 -1      3511 1.07729E-02-4.27036E-06-1.03955E-13
 -1      3512 1.10929E-02-2.02384E-05-1.11276E-13
 -1      3513 1.12324E-02-1.37996E-05-1.14169E-13
 -1      3514 1.10476E-02 9.63157E-06-1.09644E-13
 -1      3515 1.13720E-02-7.60900E-06-1.17084E-13
 -1      3516 1.15119E-02-1.57919E-06-1.20018E-13
 -1      3517 1.13230E-02 2.23223E-05-1.15427E-13
 -1      3518 1.16518E-02 4.40939E-06-1.22972E-13
 -1      3519 1.17921E-02 1.04013E-05-1.25949E-13
 -1      3520 1.15996E-02 3.45928E-05-1.21294E-13
 -1      3521 1.19325E-02 1.64874E-05-1.28942E-13
 -1      3522 1.20732E-02 2.26861E-05-1.31950E-13
 -1      3523 1.18777E-02 4.69971E-05-1.27238E-13
 -1      3524 1.22142E-02 2.90608E-05-1.34977E-13
 -1      3525 1.23553E-02 3.56142E-05-1.38021E-13
 -1      3526 1.21573E-02 5.99015E-05-1.33254E-13
 -1      3527 1.24967E-02 4.23863E-05-1.41084E-13
 -1      3528 1.26383E-02 4.93700E-05-1.44163E-13
 -1      3529 1.24382E-02 7.35258E-05-1.39342E-13
 -1      3530 1.27800E-02 5.65871E-05-1.47254E-13
 -1      3531 1.29219E-02 6.40250E-05-1.50364E-13
 -1      3532 1.27203E-02 8.79776E-05-1.45494E-13
 -1      3533 1.30639E-02 7.16917E-05-1.53487E-13
 -1      3534 1.32061E-02 7.95727E-05-1.56623E-13
 -1      3535 1.30033E-02 1.03282E-04-1.51707E-13
 -1      3536 1.33483E-02 8.76679E-05-1.59774E-13
 -1      3537 1.34907E-02 9.59571E-05-1.62935E-13
 -1      3538 1.32870E-02 1.19408E-04-1.57977E-13
 -1      3539 3.09533E-03 3.03119E-04-1.06236E-14
 -1      3540 2.95328E-03 3.06015E-04-9.69781E-15
 -1      3541 4.21886E-03 2.72998E-04-1.95211E-14
 -1      3542 4.07959E-03 2.76031E-04-1.82660E-14
 -1      3543 3.94010E-03 2.79602E-04-1.70517E-14
 -1      3544 3.80021E-03 2.83577E-04-1.58770E-14
 -1      3545 3.99185E-03 2.45099E-04-1.78267E-14
 -1      3546 4.77569E-03 2.71619E-04-2.49352E-14
 -1      3547 4.63601E-03 2.69751E-04-2.35230E-14
 -1      3548 5.05817E-03 2.82038E-04-2.78743E-14
 -1      3549 4.91613E-03 2.75450E-04-2.63859E-14
 -1      3550 4.80869E-03 2.37516E-04-2.58558E-14
 -1      3551 5.34969E-03 3.05342E-04-3.09665E-14
 -1      3552 5.20231E-03 2.91490E-04-2.94009E-14
 -1      3553 5.08240E-03 2.46092E-04-2.88401E-14
 -1      3554 5.65859E-03 3.50234E-04-3.42122E-14
 -1      3555 5.50112E-03 3.23875E-04-3.25707E-14
 -1      3556 5.36401E-03 2.66164E-04-3.19759E-14
 -1      3557 5.89144E-03 3.92016E-04-3.67250E-14
 -1      3558 5.36760E-03 1.41421E-04-3.58985E-14
 -1      3559 5.51142E-03 1.82166E-04-3.66363E-14
 -1      3560 9.59195E-03 4.50192E-04-7.61350E-14
 -1      3561 1.04887E-02 4.29618E-04-9.20980E-14
 -1      3562 1.03484E-02 4.23604E-04-8.93989E-14
 -1      3563 1.07671E-02 4.47413E-04-9.75843E-14
 -1      3564 1.06281E-02 4.37726E-04-9.48261E-14
 -1      3565 1.05810E-02 3.99568E-04-9.37337E-14
 -1      3566 1.10447E-02 4.70469E-04-1.03183E-13
 -1      3567 1.09059E-02 4.58419E-04-1.00371E-13
 -1      3568 1.08518E-02 4.20296E-04-9.92506E-14
 -1      3569 1.13229E-02 4.96764E-04-1.08886E-13
 -1      3570 1.11837E-02 4.83302E-04-1.06022E-13
 -1      3571 1.11238E-02 4.44707E-04-1.04874E-13
 -1      3572 1.16023E-02 5.24808E-04-1.14686E-13
 -1      3573 1.14624E-02 5.10629E-04-1.11774E-13
 -1      3574 1.13978E-02 4.71367E-04-1.10600E-13
 -1      3575 1.18828E-02 5.53528E-04-1.20578E-13
 -1      3576 1.17424E-02 5.39125E-04-1.17622E-13
 -1      3577 1.16740E-02 4.99183E-04-1.16422E-13
 -1      3578 1.21645E-02 5.82181E-04-1.26552E-13
 -1      3579 1.20235E-02 5.67889E-04-1.23555E-13
 -1      3580 1.19521E-02 5.27344E-04-1.22335E-13
 -1      3581 1.24473E-02 6.10291E-04-1.32598E-13
 -1      3582 1.23058E-02 5.96318E-04-1.29568E-13
 -1      3583 1.22320E-02 5.55280E-04-1.28326E-13
 -1      3584 1.27308E-02 6.37586E-04-1.38706E-13
 -1      3585 1.25889E-02 6.24046E-04-1.35646E-13
 -1      3586 1.25133E-02 5.82627E-04-1.34391E-13
 -1      3587 1.30149E-02 6.63941E-04-1.44867E-13
 -1      3588 1.28728E-02 6.50881E-04-1.41781E-13
 -1      3589 1.27957E-02 6.09182E-04-1.40510E-13
 -1      3590 1.32995E-02 6.89337E-04-1.51071E-13
 -1      3591 1.31572E-02 6.76755E-04-1.47964E-13
 -1      3592 1.30791E-02 6.34859E-04-1.46683E-13
 -1      3593 1.35845E-02 7.13824E-04-1.57309E-13
 -1      3594 1.34420E-02 7.01691E-04-1.54185E-13
 -1      3595 1.33632E-02 6.59665E-04-1.52897E-13
 -1      3596 1.38697E-02 7.37481E-04-1.63581E-13
 -1      3597 1.37271E-02 7.25750E-04-1.60442E-13
 -1      3598 1.36477E-02 6.83641E-04-1.59145E-13
 -1      3599 1.00608E-02 1.71319E-04-7.97812E-14
 -1      3600 1.00235E-02 1.54092E-04-7.94553E-14
 -1      3601 1.41693E-02 7.24109E-04-1.70693E-13
 -1      3602 1.41837E-02 7.59500E-04-1.70571E-13
 -1      3603 1.40964E-02 7.55960E-04-1.68592E-13
 -1      3604 1.40410E-02 6.93878E-04-1.68108E-13
 -1      3605 1.38177E-02 3.49208E-04-1.67317E-13
 -1      3606 1.38276E-02 3.89132E-04-1.67042E-13
 -1      3607 9.48907E-03-6.61816E-05-7.77301E-14
 -1      3608 9.32161E-03-1.48084E-04-7.67034E-14
 -1      3609 1.02068E-02 4.19877E-04-8.67288E-14
 -1      3610 1.00629E-02 4.19546E-04-8.40901E-14
 -1      3611 1.03096E-02 3.84401E-04-8.83324E-14
 -1      3612 5.35181E-03-3.38444E-05-3.63277E-14
 -1      3613 5.24077E-03 5.00472E-06-3.56822E-14
 -1      3614 9.96283E-03 1.32016E-04-7.92364E-14
 -1      3615 9.88520E-03 1.10553E-04-7.87329E-14
 -1      3616 9.89739E-03 8.97624E-05-8.04208E-14
 -1      3617 9.91634E-03 4.22723E-04-8.14838E-14
 -1      3618 9.76540E-03 4.31322E-04-7.89086E-14
 -1      3619 1.00336E-02 3.77826E-04-8.30528E-14
 -1      3620 1.01409E-03-3.74093E-05-1.66670E-15
 -1      3621 1.01534E-03-6.32719E-05-1.67841E-15
 -1      3622 1.13645E-03-8.24923E-05-2.03652E-15
 -1      3623 5.15571E-03 3.42026E-05-3.50444E-14
 -1      3624 5.11994E-03 5.17215E-05-3.47059E-14
 -1      3625 4.49690E-03 2.69605E-04-2.21503E-14
 -1      3626 4.35786E-03 2.70783E-04-2.08160E-14
 -1      3627 4.26562E-03 2.39088E-04-2.03464E-14
 -1      3628 4.53745E-03 2.35971E-04-2.30236E-14
 -1      3629 8.64410E-03-4.56765E-04-6.95809E-14
 -1      3630 8.83409E-03-3.80013E-04-7.20265E-14
 -1      3631 1.57328E-03-2.48829E-04-3.50395E-15
 -1      3632 1.71661E-03-2.57411E-04-4.09068E-15
 -1      3633 1.86007E-03-2.64159E-04-4.72199E-15
 -1      3634 2.00360E-03-2.69211E-04-5.39786E-15
 -1      3635 2.06841E-03-2.36927E-04-5.75367E-15
 -1      3636 2.23912E-03 3.08141E-04-5.69671E-15
 -1      3637 2.09570E-03 3.05146E-04-5.02347E-15
 -1      3638 1.32668E-03 2.75771E-04-2.09648E-15
 -1      3639 1.28421E-03 2.47934E-04-2.03669E-15
 -1      3640 1.45155E-03 2.84635E-04-2.48621E-15
 -1      3641 1.00063E-02 2.25529E-04-7.94123E-14
 -1      3642 1.00644E-02 1.98220E-04-8.00338E-14
 -1      3643 5.65171E-03-1.59009E-04-3.80263E-14
 -1      3644 5.49837E-03-9.40971E-05-3.71200E-14
 -1      3645 1.27710E-03 2.14122E-04-2.09823E-15
 -1      3646 5.13606E-03 1.06963E-05-3.42206E-14
 -1      3647 1.27349E-03-1.82860E-04-2.45221E-15
 -1      3648 1.32608E-03-2.22060E-04-2.60194E-15
 -1      3649 1.45400E-03-2.34078E-04-3.05547E-15
 -1      3650 1.78167E-03-2.27764E-04-4.40587E-15
 -1      3651 5.81384E-03-2.76998E-04-3.85443E-14
 -1      3652 5.76432E-03-2.22548E-04-3.85694E-14
 -1      3653 5.60295E-03-1.95070E-04-3.69226E-14
 -1      3654 5.80280E-03-3.20736E-04-3.79749E-14
 -1      3655 1.37972E-02 2.67826E-04-1.67871E-13
 -1      3656 1.38075E-02 3.08554E-04-1.67594E-13
 -1      3657 1.36897E-02 3.20213E-04-1.64718E-13
 -1      3658 5.50141E-03-2.27245E-04-3.53098E-14
 -1      3659 5.63552E-03-2.92716E-04-3.62431E-14
 -1      3660 9.16054E-03-2.34947E-04-7.55994E-14
 -1      3661 9.72984E-03 3.89167E-04-7.76668E-14
 -1      3662 2.87327E-03 2.72568E-04-9.37946E-15
 -1      3663 2.81095E-03 3.08239E-04-8.81364E-15
 -1      3664 2.66833E-03 3.09722E-04-7.97131E-15
 -1      3665 3.23702E-03 2.99736E-04-1.15911E-14
 -1      3666 3.15615E-03 2.67298E-04-1.12426E-14
 -1      3667 3.37839E-03 2.95930E-04-1.25999E-14
 -1      3668 1.35953E-02 9.47329E-05-1.65357E-13
 -1      3669 1.37188E-02 9.94160E-05-1.68147E-13
 -1      3670 1.37426E-02 1.24468E-04-1.68391E-13
 -1      3671 1.35335E-02 1.26616E-04-1.63543E-13
 -1      3672 2.38238E-03 3.09817E-04-6.41227E-15
 -1      3673 2.30294E-03 2.74270E-04-6.15352E-15
 -1      3674 2.52547E-03 3.10275E-04-7.17066E-15
 -1      3675 3.71567E-03 2.52575E-04-1.54668E-14
 -1      3676 3.66000E-03 2.87705E-04-1.47434E-14
 -1      3677 3.51937E-03 2.91896E-04-1.36505E-14
 -1      3678 5.78141E-03 3.14231E-04-3.68915E-14
 -1      3679 5.71923E-03 3.53456E-04-3.50032E-14
 -1      3680 5.25939E-03 1.19751E-04-3.49413E-14
 -1      3681 5.28838E-03 1.46505E-04-3.42870E-14
 -1      3682 5.16570E-03 1.04514E-04-3.39945E-14
 -1      3683 1.37099E-02 4.00954E-04-1.64161E-13
 -1      3684 1.38375E-02 4.29639E-04-1.66756E-13
 -1      3685 1.38473E-02 4.70160E-04-1.66466E-13
 -1      3686 1.95219E-03 3.00597E-04-4.39281E-15
 -1      3687 1.80863E-03 2.94369E-04-3.80543E-15
 -1      3688 2.01631E-03 2.68647E-04-4.79425E-15
 -1      3689 1.25502E-03 4.57743E-05-2.32823E-15
 -1      3690 1.25415E-03 1.60892E-05-2.35678E-15
 -1      3691 1.14302E-03 1.43160E-04-1.83573E-15
 -1      3692 1.00495E-02 1.42370E-04-8.11594E-14
 -1      3693 1.01256E-02 1.89161E-04-8.16362E-14
 -1      3694 1.01758E-02 1.80888E-04-8.32494E-14
 -1      3695 1.01881E-02 2.09852E-04-8.35059E-14
 -1      3696 1.40091E-02 7.52347E-04-1.66614E-13
 -1      3697 9.63899E-03-3.09984E-05-7.98049E-14
 -1      3698 1.25928E-03 1.05793E-04-2.25827E-15
 -1      3699 1.25673E-03 7.55811E-05-2.29568E-15
 -1      3700 1.37748E-03 6.39347E-05-2.71742E-15
 -1      3701 9.01823E-03-3.16110E-04-7.45087E-14
 -1      3702 9.96095E-03 2.82327E-04-7.99504E-14
 -1      3703 9.98531E-03 2.51709E-04-7.96831E-14
 -1      3704 1.01084E-02 2.43260E-04-8.21640E-14
 -1      3705 5.35694E-03-7.45825E-05-3.56192E-14
 -1      3706 1.13358E-03-2.65035E-05-2.00907E-15
 -1      3707 1.51937E-03-2.07817E-04-3.32984E-15
 -1      3708 5.55418E-03 2.16849E-04-3.61116E-14
 -1      3709 5.03238E-03 4.87278E-05-3.30180E-14
 -1      3710 5.09290E-03 6.27359E-05-3.41201E-14
 -1      3711 5.07768E-03 7.36718E-05-3.35340E-14
 -1      3712 1.38759E-02 5.91802E-04-1.65585E-13
 -1      3713 1.38854E-02 6.32722E-04-1.65285E-13
 -1      3714 1.26473E-03-1.19760E-04-2.44726E-15
 -1      3715 1.26858E-03-1.50925E-04-2.45207E-15
 -1      3716 1.39542E-03-1.60401E-04-2.89181E-15
 -1      3717 1.39294E-02 7.10174E-04-1.65311E-13
 -1      3718 1.39018E-02 6.79249E-04-1.65069E-13
 -1      3719 1.37663E-02 1.49490E-04-1.68633E-13
 -1      3720 1.36552E-02 1.58478E-04-1.65955E-13
 -1      3721 1.37834E-02 1.82518E-04-1.68620E-13
 -1      3722 1.37938E-02 2.23483E-04-1.68351E-13
 -1      3723 1.35508E-02 1.59448E-04-1.63534E-13
 -1      3724 1.37739E-02 6.48842E-04-1.62500E-13
 -1      3725 1.99066E-03-2.01562E-04-5.39698E-15
 -1      3726 2.13386E-03-2.04365E-04-6.11273E-15
 -1      3727 2.27692E-03-2.06115E-04-6.87188E-15
 -1      3728 2.41976E-03-2.06876E-04-7.67408E-15
 -1      3729 2.19990E-03-1.71585E-04-6.47445E-15
 -1      3730 5.40874E-03-1.74522E-04-3.48012E-14
 -1      3731 2.56228E-03-2.06804E-04-8.51912E-15
 -1      3732 2.70443E-03-2.05941E-04-9.40600E-15
 -1      3733 2.48513E-03-1.72877E-04-8.07344E-15
 -1      3734 2.84612E-03-2.04435E-04-1.03354E-14
 -1      3735 2.98733E-03-2.02314E-04-1.13082E-14
 -1      3736 2.76880E-03-1.71337E-04-9.84224E-15
 -1      3737 3.12797E-03-1.99719E-04-1.23220E-14
 -1      3738 3.26804E-03-1.96663E-04-1.33771E-14
 -1      3739 3.05027E-03-1.67566E-04-1.17791E-14
 -1      3740 3.40746E-03-1.93287E-04-1.44736E-14
 -1      3741 3.54627E-03-1.89600E-04-1.56121E-14
 -1      3742 3.32904E-03-1.62081E-04-1.38833E-14
 -1      3743 3.68440E-03-1.85744E-04-1.67919E-14
 -1      3744 3.82191E-03-1.81732E-04-1.80106E-14
 -1      3745 3.60471E-03-1.55349E-04-1.61515E-14
 -1      3746 3.95874E-03-1.77708E-04-1.92699E-14
 -1      3747 4.09505E-03-1.73701E-04-2.05693E-14
 -1      3748 3.87703E-03-1.47811E-04-1.85835E-14
 -1      3749 4.23079E-03-1.69851E-04-2.19077E-14
 -1      3750 4.36622E-03-1.66236E-04-2.32847E-14
 -1      3751 4.14595E-03-1.39898E-04-2.11743E-14
 -1      3752 4.50132E-03-1.62981E-04-2.46998E-14
 -1      3753 4.63658E-03-1.60281E-04-2.61532E-14
 -1      3754 4.41174E-03-1.32067E-04-2.39213E-14
 -1      3755 4.77203E-03-1.58234E-04-2.76432E-14
 -1      3756 4.90850E-03-1.57321E-04-2.91699E-14
 -1      3757 4.67529E-03-1.24900E-04-2.68203E-14
 -1      3758 5.04602E-03-1.57536E-04-3.07321E-14
 -1      3759 5.18596E-03-1.59754E-04-3.23319E-14
 -1      3760 4.93862E-03-1.19455E-04-2.98651E-14
 -1      3761 9.78077E-03-1.33893E-05-8.23875E-14
 -1      3762 4.04255E-03 2.11916E-04-1.86076E-14
 -1      3763 3.90699E-03 2.15172E-04-1.73828E-14
 -1      3764 1.01934E-02-8.34767E-06-9.13616E-14
 -1      3765 1.03296E-02 1.32173E-06-9.40714E-14
 -1      3766 1.04647E-02 9.83475E-06-9.68070E-14
 -1      3767 1.05995E-02 1.76974E-05-9.95696E-14
 -1      3768 1.04344E-02 3.94781E-05-9.52488E-14
 -1      3769 1.07340E-02 2.49696E-05-1.02360E-13
 -1      3770 1.08688E-02 3.18695E-05-1.05175E-13
 -1      3771 1.06968E-02 5.32776E-05-1.00770E-13
 -1      3772 1.10037E-02 3.84981E-05-1.08016E-13
 -1      3773 1.11391E-02 4.49251E-05-1.10882E-13
 -1      3774 1.09610E-02 6.63418E-05-1.06393E-13
 -1      3775 1.12750E-02 5.12630E-05-1.13770E-13
 -1      3776 1.14114E-02 5.75368E-05-1.16681E-13
 -1      3777 1.12279E-02 7.91885E-05-1.12117E-13
 -1      3778 1.15483E-02 6.38493E-05-1.19612E-13
 -1      3779 1.16857E-02 7.01998E-05-1.22565E-13
 -1      3780 1.14976E-02 9.21492E-05-1.17934E-13
 -1      3781 1.18237E-02 7.66740E-05-1.25536E-13
 -1      3782 1.19621E-02 8.32583E-05-1.28526E-13
 -1      3783 1.17701E-02 1.05485E-04-1.23836E-13
 -1      3784 1.21011E-02 9.00184E-05-1.31535E-13
 -1      3785 1.22405E-02 9.69346E-05-1.34559E-13
 -1      3786 1.20453E-02 1.19376E-04-1.29812E-13
 -1      3787 1.23803E-02 1.04054E-04-1.37601E-13
 -1      3788 1.25204E-02 1.11353E-04-1.40661E-13
 -1      3789 1.23227E-02 1.33934E-04-1.35862E-13
 -1      3790 1.26610E-02 1.18864E-04-1.43735E-13
 -1      3791 1.28018E-02 1.26563E-04-1.46825E-13
 -1      3792 1.26020E-02 1.49211E-04-1.41978E-13
 -1      3793 1.29429E-02 1.34466E-04-1.49931E-13
 -1      3794 1.30843E-02 1.42553E-04-1.53051E-13
 -1      3795 1.28829E-02 1.65212E-04-1.48157E-13
 -1      3796 1.32259E-02 1.50830E-04-1.56181E-13
 -1      3797 1.33677E-02 1.59275E-04-1.59324E-13
 -1      3798 1.31650E-02 1.81902E-04-1.54390E-13
 -1      3799 1.36317E-02 6.37318E-04-1.59360E-13
 -1      3800 5.10056E-03 2.11471E-04-2.98103E-14
 -1      3801 4.96903E-03 2.07314E-04-2.82771E-14
 -1      3802 4.83834E-03 2.04852E-04-2.67815E-14
 -1      3803 4.70715E-03 2.03758E-04-2.53228E-14
 -1      3804 4.86486E-03 1.73566E-04-2.77113E-14
 -1      3805 5.56535E-03 2.83081E-04-3.43822E-14
 -1      3806 1.11996E-02 4.20337E-04-1.06562E-13
 -1      3807 1.10655E-02 4.07568E-04-1.03725E-13
 -1      3808 1.35966E-02 5.89049E-04-1.59160E-13
 -1      3809 1.34706E-02 6.23384E-04-1.55819E-13
 -1      3810 1.26722E-03 1.68340E-04-2.16826E-15
 -1      3811 1.26278E-03 1.36703E-04-2.21585E-15
 -1      3812 1.38310E-03 1.27739E-04-2.63277E-15
 -1      3813 1.09322E-02 3.95339E-04-1.00914E-13
 -1      3814 1.07997E-02 3.83692E-04-9.81276E-14
 -1      3815 1.10083E-02 3.71905E-04-1.02578E-13
 -1      3816 1.06680E-02 3.72847E-04-9.53704E-14
 -1      3817 1.05367E-02 3.62916E-04-9.26400E-14
 -1      3818 1.07492E-02 3.48621E-04-9.70080E-14
 -1      3819 1.14702E-02 4.46860E-04-1.12313E-13
 -1      3820 1.13344E-02 4.33439E-04-1.09427E-13
 -1      3821 1.12720E-02 3.96873E-04-1.08253E-13
 -1      3822 1.17437E-02 4.74119E-04-1.18159E-13
 -1      3823 1.16066E-02 4.60421E-04-1.15226E-13
 -1      3824 1.15400E-02 4.22871E-04-1.14029E-13
 -1      3825 1.20199E-02 5.01504E-04-1.24091E-13
 -1      3826 1.18815E-02 4.87812E-04-1.21114E-13
 -1      3827 1.18116E-02 4.49331E-04-1.19895E-13
 -1      3828 1.22983E-02 5.28581E-04-1.30104E-13
 -1      3829 1.21589E-02 5.15090E-04-1.27088E-13
 -1      3830 1.20864E-02 4.75791E-04-1.25848E-13
 -1      3831 1.25785E-02 5.55072E-04-1.36180E-13
 -1      3832 1.24382E-02 5.41903E-04-1.33133E-13
 -1      3833 1.23637E-02 5.01917E-04-1.31879E-13
 -1      3834 1.28602E-02 5.80827E-04-1.42314E-13
 -1      3835 1.27192E-02 5.68041E-04-1.39241E-13
 -1      3836 1.26431E-02 5.27499E-04-1.37970E-13
 -1      3837 1.31429E-02 6.05788E-04-1.48498E-13
 -1      3838 1.30014E-02 5.93405E-04-1.45400E-13
 -1      3839 1.29241E-02 5.52425E-04-1.44117E-13
 -1      3840 1.33287E-02 6.11505E-04-1.52700E-13
 -1      3841 9.84757E-03 3.41224E-04-7.89703E-14
 -1      3842 1.25970E-03-5.91980E-05-2.42409E-15
 -1      3843 1.26176E-03-8.92406E-05-2.43783E-15
 -1      3844 1.38790E-03-9.54172E-05-2.87490E-15
 -1      3845 1.00031E-02 9.77556E-05-8.26802E-14
 -1      3846 9.91950E-03 6.84280E-05-8.21596E-14
 -1      3847 1.01386E-02 1.53182E-04-8.31912E-14
 -1      3848 1.00812E-02 1.29249E-04-8.29662E-14
 -1      3849 1.70434E-03-1.92225E-04-4.09567E-15
 -1      3850 1.84746E-03-1.97541E-04-4.72467E-15
 -1      3851 1.91390E-03-1.66775E-04-5.04712E-15
 -1      3852 1.38569E-02 5.10589E-04-1.66177E-13
 -1      3853 1.38665E-02 5.51216E-04-1.65883E-13
 -1      3854 1.37483E-02 5.62087E-04-1.63008E-13
 -1      3855 1.37294E-02 4.81466E-04-1.63589E-13
 -1      3856 1.69258E-03 2.93648E-04-3.34307E-15
 -1      3857 1.56742E-03 2.88798E-04-2.88540E-15
 -1      3858 1.52467E-03 2.60852E-04-2.81444E-15
 -1      3859 1.75672E-03 2.64199E-04-3.69316E-15
 -1      3860 5.28021E-03-1.23867E-04-3.38767E-14
 -1      3861 5.10190E-03-1.73788E-05-3.32071E-14
 -1      3862 5.02572E-03 1.30149E-05-3.25958E-14
 -1      3863 5.15927E-03-7.05907E-05-3.31327E-14
 -1      3864 1.49027E-03-1.70704E-04-3.24105E-15
 -1      3865 1.60884E-03-1.82795E-04-3.70282E-15
 -1      3866 1.67559E-03-1.54422E-04-3.99102E-15
 -1      3867 1.48565E-03-1.36779E-04-3.23483E-15
 -1      3868 1.04060E-02 3.54097E-04-8.99401E-14
 -1      3869 1.02750E-02 3.46609E-04-8.72668E-14
 -1      3870 1.04948E-02 3.27736E-04-9.15473E-14
 -1      3871 1.25607E-03-6.62993E-06-2.38234E-15
 -1      3872 1.25665E-03-3.62419E-05-2.40366E-15
 -1      3873 1.38240E-03-3.94461E-05-2.83602E-15
 -1      3874 1.37765E-03 8.65568E-06-2.78244E-15
 -1      3875 1.39700E-03 2.07742E-04-2.50790E-15
 -1      3876 9.99962E-03 3.18511E-04-8.14530E-14
 -1      3877 4.92830E-03 4.74321E-06-3.10598E-14
 -1      3878 4.97915E-03 2.83359E-05-3.20370E-14
 -1      3879 4.94230E-03 4.17244E-05-3.14765E-14
 -1      3880 1.01852E-02 2.52772E-04-8.40692E-14
 -1      3881 1.01896E-02 2.29816E-04-8.37891E-14
 -1      3882 1.02608E-02 2.18993E-04-8.54230E-14
 -1      3883 1.36759E-02 2.35624E-04-1.65468E-13
 -1      3884 4.17713E-03 2.09055E-04-1.98725E-14
 -1      3885 4.09245E-03 1.80113E-04-1.93951E-14
 -1      3886 4.31089E-03 2.06620E-04-2.11770E-14
 -1      3887 2.93562E-03 2.37364E-04-9.95308E-15
 -1      3888 2.79419E-03 2.39209E-04-9.05726E-15
 -1      3889 1.01287E-02 3.22740E-04-8.40557E-14
 -1      3890 3.43704E-03 2.60320E-04-1.32717E-14
 -1      3891 9.91619E-03-3.22906E-05-8.60240E-14
 -1      3892 1.00562E-02-1.92574E-05-8.86784E-14
 -1      3893 1.34892E-02 1.90885E-04-1.61720E-13
 -1      3894 5.20734E-03 1.85609E-04-3.18728E-14
 -1      3895 5.09340E-03 1.49869E-04-3.12650E-14
 -1      3896 5.07223E-03 8.96180E-05-3.29062E-14
 -1      3897 5.07581E-03 1.08653E-04-3.22765E-14
 -1      3898 4.98840E-03 7.62778E-05-3.18302E-14
 -1      3899 1.01718E-02 2.38980E-05-8.98345E-14
 -1      3900 3.21675E-03 2.32183E-04-1.18689E-14
 -1      3901 3.07648E-03 2.35012E-04-1.08902E-14
 -1      3902 2.99804E-03 2.02724E-04-1.05350E-14
 -1      3903 3.77060E-03 2.18590E-04-1.61979E-14
 -1      3904 3.63330E-03 2.22150E-04-1.50532E-14
 -1      3905 3.82500E-03 1.85822E-04-1.69351E-14
 -1      3906 1.35874E-02 5.48828E-04-1.59453E-13
 -1      3907 1.35823E-02 3.72184E-04-1.61573E-13
 -1      3908 1.35922E-02 4.12263E-04-1.61290E-13
 -1      3909 2.08107E-03 2.36407E-04-5.20595E-15
 -1      3910 1.93776E-03 2.32622E-04-4.56234E-15
 -1      3911 2.36725E-03 2.40374E-04-6.61996E-15
 -1      3912 2.22425E-03 2.38959E-04-5.89176E-15
 -1      3913 2.14642E-03 2.03925E-04-5.62763E-15
 -1      3914 2.58875E-03 2.75215E-04-7.68267E-15
 -1      3915 1.32503E-02 5.70230E-04-1.51407E-13
 -1      3916 1.02283E-02 1.71654E-04-8.50840E-14
 -1      3917 5.49422E-03 2.36844E-04-3.45532E-14
 -1      3918 5.44360E-03 2.38722E-04-3.37726E-14
 -1      3919 1.01129E-02 1.12521E-04-8.47313E-14
 -1      3920 5.30579E-03 2.26175E-04-3.21469E-14
 -1      3921 1.50093E-03 8.33058E-05-3.13314E-15
 -1      3922 1.49893E-03 5.04700E-05-3.17483E-15
 -1      3923 5.39343E-03 1.85064E-04-3.45838E-14
 -1      3924 5.53934E-03 2.29317E-04-3.54529E-14
 -1      3925 1.35619E-02 2.91754E-04-1.62120E-13
 -1      3926 1.35722E-02 3.32002E-04-1.61849E-13
 -1      3927 1.34548E-02 3.43581E-04-1.58988E-13
 -1      3928 9.91369E-03 3.55685E-05-8.35095E-14
 -1      3929 4.57584E-03 2.03826E-04-2.39028E-14
 -1      3930 4.44368E-03 2.04856E-04-2.25207E-14
 -1      3931 4.35497E-03 1.75643E-04-2.20138E-14
 -1      3932 1.62333E-03 4.32318E-05-3.66599E-15
 -1      3933 1.50010E-03 2.53527E-05-3.21085E-15
 -1      3934 1.50185E-03 2.61669E-07-3.24389E-15
 -1      3935 5.02253E-03-6.07931E-05-3.15349E-14
 -1      3936 1.02281E-02 2.93396E-04-8.56272E-14
 -1      3937 1.51266E-03 2.10593E-04-2.90848E-15
 -1      3938 5.27339E-03 1.57929E-04-3.36478E-14
 -1      3939 4.61233E-03 1.73196E-04-2.47872E-14
 -1      3940 2.40902E-03-1.39140E-04-7.63445E-15
 -1      3941 2.55107E-03-1.38991E-04-8.47368E-15
 -1      3942 2.69263E-03-1.38309E-04-9.35530E-15
 -1      3943 2.83362E-03-1.37094E-04-1.02785E-14
 -1      3944 2.61759E-03-1.05293E-04-8.87483E-15
 -1      3945 2.97394E-03-1.35462E-04-1.12437E-14
 -1      3946 3.11354E-03-1.33395E-04-1.22505E-14
 -1      3947 2.89895E-03-1.03288E-04-1.07150E-14
 -1      3948 3.25232E-03-1.31007E-04-1.32992E-14
 -1      3949 3.39024E-03-1.28265E-04-1.43883E-14
 -1      3950 3.17724E-03-9.98735E-05-1.27217E-14
 -1      3951 3.52720E-03-1.25288E-04-1.55192E-14
 -1      3952 3.66320E-03-1.22028E-04-1.66911E-14
 -1      3953 3.45178E-03-9.52828E-05-1.48933E-14
 -1      3954 3.79812E-03-1.18605E-04-1.79023E-14
 -1      3955 3.93201E-03-1.14956E-04-1.91541E-14
 -1      3956 3.72192E-03-8.97026E-05-1.72274E-14
 -1      3957 4.06472E-03-1.11209E-04-2.04466E-14
 -1      3958 4.19638E-03-1.07282E-04-2.17782E-14
 -1      3959 3.98704E-03-8.32333E-05-1.97238E-14
 -1      3960 4.32679E-03-1.03300E-04-2.31477E-14
 -1      3961 4.45625E-03-9.91920E-05-2.45558E-14
 -1      3962 4.24659E-03-7.59182E-05-2.23794E-14
 -1      3963 4.58445E-03-9.50979E-05-2.60014E-14
 -1      3964 4.71191E-03-9.09244E-05-2.74847E-14
 -1      3965 4.50004E-03-6.76726E-05-2.51880E-14
 -1      3966 4.80742E-03-7.83002E-05-2.87113E-14
 -1      3967 4.93213E-03-7.39194E-05-3.02578E-14
 -1      3968 4.89735E-03-2.55200E-05-3.03331E-14
 -1      3969 4.71863E-03-5.08663E-05-2.78546E-14
 -1      3970 1.67525E-03 2.24466E-04-3.48659E-15
 -1      3971 1.54894E-03 1.73842E-04-3.13192E-15
 -1      3972 1.04065E-02 6.77567E-05-9.36922E-14
 -1      3973 1.05334E-02 7.39940E-05-9.64224E-14
 -1      3974 1.34930E-02 2.34811E-04-1.61252E-13
 -1      3975 1.06609E-02 8.02782E-05-9.91813E-14
 -1      3976 1.07896E-02 8.65644E-05-1.01965E-13
 -1      3977 1.06260E-02 1.06004E-04-9.75965E-14
 -1      3978 1.09191E-02 9.29780E-05-1.04774E-13
 -1      3979 1.10497E-02 9.94180E-05-1.07607E-13
 -1      3980 1.08776E-02 1.18361E-04-1.03158E-13
 -1      3981 1.11812E-02 1.05993E-04-1.10469E-13
 -1      3982 1.13138E-02 1.12630E-04-1.13352E-13
 -1      3983 1.11349E-02 1.31651E-04-1.08823E-13
 -1      3984 1.14473E-02 1.19425E-04-1.16258E-13
 -1      3985 1.15817E-02 1.26314E-04-1.19186E-13
 -1      3986 1.13971E-02 1.45654E-04-1.14586E-13
 -1      3987 1.17169E-02 1.33379E-04-1.22136E-13
 -1      3988 1.18530E-02 1.40563E-04-1.25106E-13
 -1      3989 1.16638E-02 1.60335E-04-1.20440E-13
 -1      3990 1.19897E-02 1.47932E-04-1.28092E-13
 -1      3991 1.21272E-02 1.55436E-04-1.31099E-13
 -1      3992 1.19343E-02 1.75662E-04-1.26374E-13
 -1      3993 1.22653E-02 1.63127E-04-1.34124E-13
 -1      3994 1.24040E-02 1.70964E-04-1.37166E-13
 -1      3995 1.22081E-02 1.91609E-04-1.32387E-13
 -1      3996 1.25432E-02 1.78982E-04-1.40223E-13
 -1      3997 1.26829E-02 1.87147E-04-1.43297E-13
 -1      3998 1.24845E-02 2.08152E-04-1.38468E-13
 -1      3999 1.28230E-02 1.95485E-04-1.46384E-13
 -1      4000 1.29635E-02 2.03962E-04-1.49486E-13
 -1      4001 1.27632E-02 2.25256E-04-1.44614E-13
 -1      4002 1.31043E-02 2.12593E-04-1.52601E-13
 -1      4003 1.32454E-02 2.21357E-04-1.55726E-13
 -1      4004 1.30437E-02 2.42879E-04-1.50813E-13
 -1      4005 4.88978E-03 1.45128E-04-2.86426E-14
 -1      4006 4.77003E-03 1.44934E-04-2.71388E-14
 -1      4007 2.65228E-03 2.40379E-04-8.20360E-15
 -1      4008 2.50994E-03 2.40823E-04-7.39050E-15
 -1      4009 2.43198E-03 2.06526E-04-7.09618E-15
 -1      4010 5.67006E-03 2.78573E-04-3.60807E-14
 -1      4011 1.00339E-02 4.73617E-05-8.58023E-14
 -1      4012 4.64845E-03 1.45017E-04-2.56734E-14
 -1      4013 4.52460E-03 1.45765E-04-2.42448E-14
 -1      4014 4.68423E-03 1.18809E-04-2.65641E-14
 -1      4015 1.16075E-02 3.99249E-04-1.15745E-13
 -1      4016 1.14738E-02 3.86579E-04-1.12835E-13
 -1      4017 1.52604E-03 1.44904E-04-3.11110E-15
 -1      4018 1.52215E-03 1.10985E-04-3.16414E-15
 -1      4019 1.64359E-03 9.76485E-05-3.65867E-15
 -1      4020 1.68782E-03 1.55785E-04-3.71412E-15
 -1      4021 1.10801E-02 3.49685E-04-1.04246E-13
 -1      4022 1.09516E-02 3.37846E-04-1.01435E-13
 -1      4023 1.08247E-02 3.26451E-04-9.86501E-14
 -1      4024 1.06994E-02 3.15361E-04-9.58913E-14
 -1      4025 1.08949E-02 3.05403E-04-1.00294E-13
 -1      4026 1.18778E-02 4.24712E-04-1.21633E-13
 -1      4027 1.17421E-02 4.11946E-04-1.18679E-13
 -1      4028 1.16727E-02 3.75665E-04-1.17462E-13
 -1      4029 1.21515E-02 4.50124E-04-1.27607E-13
 -1      4030 1.20143E-02 4.37426E-04-1.24608E-13
 -1      4031 1.19423E-02 4.00014E-04-1.23372E-13
 -1      4032 1.24281E-02 4.75228E-04-1.33653E-13
 -1      4033 1.22895E-02 4.62715E-04-1.30623E-13
 -1      4034 1.22155E-02 4.24319E-04-1.29365E-13
 -1      4035 1.27070E-02 4.99863E-04-1.39761E-13
 -1      4036 1.25673E-02 4.87603E-04-1.36699E-13
 -1      4037 1.24916E-02 4.48377E-04-1.35430E-13
 -1      4038 1.29876E-02 5.23942E-04-1.45922E-13
 -1      4039 1.28471E-02 5.11969E-04-1.42835E-13
 -1      4040 1.27702E-02 4.72064E-04-1.41551E-13
 -1      4041 1.03278E-02 1.89294E-04-8.74062E-14
 -1      4042 1.02916E-02 1.58996E-04-8.73463E-14
 -1      4043 1.05761E-02 3.04856E-04-9.31589E-14
 -1      4044 1.04544E-02 2.94680E-04-9.04574E-14
 -1      4045 1.06498E-02 2.83970E-04-9.47749E-14
 -1      4046 1.02193E-02 1.26365E-04-8.68189E-14
 -1      4047 1.01492E-02 9.47772E-05-8.65252E-14
 -1      4048 1.34746E-02 4.23204E-04-1.58431E-13
 -1      4049 1.36019E-02 4.52224E-04-1.61006E-13
 -1      4050 1.36114E-02 4.92239E-04-1.60721E-13
 -1      4051 1.34602E-02 5.19130E-04-1.56886E-13
 -1      4052 1.13413E-02 3.74096E-04-1.09946E-13
 -1      4053 1.12100E-02 3.61733E-04-1.07083E-13
 -1      4054 1.14076E-02 3.51553E-04-1.11640E-13
 -1      4055 1.50418E-03-2.48611E-05-3.27425E-15
 -1      4056 1.50709E-03-5.00886E-05-3.30178E-15
 -1      4057 1.62662E-03-8.84466E-06-3.74044E-15
 -1      4058 1.49425E-03-7.67862E-05-3.26428E-15
 -1      4059 1.49704E-03-1.09871E-04-3.28048E-15
 -1      4060 1.59164E-03-1.17969E-04-3.65132E-15
 -1      4061 1.61599E-03-6.26278E-05-3.73612E-15
 -1      4062 3.49522E-03 2.25644E-04-1.39505E-14
 -1      4063 3.35633E-03 2.29053E-04-1.28892E-14
 -1      4064 3.27723E-03 1.97866E-04-1.25030E-14
 -1      4065 3.55307E-03 1.91985E-04-1.46366E-14
 -1      4066 1.83821E-03-1.32746E-04-4.70445E-15
 -1      4067 1.98106E-03-1.35518E-04-5.37287E-15
 -1      4068 2.71608E-03 2.05857E-04-8.73269E-15
 -1      4069 2.12389E-03-1.37468E-04-6.08401E-15
 -1      4070 2.26660E-03-1.38636E-04-6.83802E-15
 -1      4071 2.33395E-03-1.05593E-04-7.20322E-15
 -1      4072 2.04891E-03-1.03809E-04-5.70128E-15
 -1      4073 1.79136E-03 2.24211E-04-3.95770E-15
 -1      4074 1.03162E-02 2.77164E-04-8.72838E-14
 -1      4075 1.01576E-02 6.67873E-05-8.79051E-14
 -1      4076 1.33162E-02 5.24436E-04-1.53493E-13
 -1      4077 1.31314E-02 5.19438E-04-1.49290E-13
 -1      4078 1.30535E-02 4.79113E-04-1.47994E-13
 -1      4079 1.33404E-02 4.68690E-04-1.54751E-13
 -1      4080 4.98095E-03 1.30631E-04-3.02262E-14
 -1      4081 1.02810E-02 7.28192E-05-9.05793E-14
 -1      4082 4.84520E-03-7.27952E-06-2.98011E-14
 -1      4083 1.03791E-02 1.04952E-04-9.17249E-14
 -1      4084 1.85715E-03 1.93987E-04-4.32429E-15
 -1      4085 1.33145E-02 2.77602E-04-1.56593E-13
 -1      4086 1.33757E-02 2.47024E-04-1.58395E-13
 -1      4087 4.91234E-03 5.78665E-05-3.08779E-14
 -1      4088 4.89186E-03 7.44920E-05-3.02769E-14
 -1      4089 4.84389E-03 3.81509E-05-2.99309E-14
 -1      4090 4.39904E-03 1.46846E-04-2.28537E-14
 -1      4091 4.27155E-03 1.48441E-04-2.15003E-14
 -1      4092 4.44316E-03 1.19746E-04-2.36988E-14
 -1      4093 4.89318E-03 1.05440E-04-2.96161E-14
 -1      4094 1.97949E-03 1.70182E-04-4.93693E-15
 -1      4095 1.83356E-03 1.63469E-04-4.30393E-15
 -1      4096 1.81077E-03 1.33420E-04-4.27857E-15
 -1      4097 1.03398E-02 1.45483E-04-8.91696E-14
 -1      4098 3.87938E-03 1.54330E-04-1.76793E-14
 -1      4099 3.74582E-03 1.56872E-04-1.64847E-14
 -1      4100 1.78875E-03 1.03853E-04-4.24786E-15
 -1      4101 1.76754E-03 7.46815E-05-4.21248E-15
 -1      4102 1.93418E-03 1.09484E-04-4.88006E-15
 -1      4103 2.26522E-03 1.74415E-04-6.32030E-15
 -1      4104 2.12243E-03 1.72755E-04-5.60739E-15
 -1      4105 2.09922E-03 1.41913E-04-5.58124E-15
 -1      4106 1.03488E-02 2.07963E-04-8.77052E-14
 -1      4107 1.04296E-02 1.96630E-04-9.00015E-14
 -1      4108 1.03626E-02 2.27387E-04-8.79976E-14
 -1      4109 1.03947E-02 2.56291E-04-8.88626E-14
 -1      4110 1.33215E-02 3.89869E-04-1.55313E-13
 -1      4111 1.33311E-02 4.29252E-04-1.55035E-13
 -1      4112 1.31878E-02 4.34976E-04-1.51649E-13
 -1      4113 1.11480E-02 3.28031E-04-1.05916E-13
 -1      4114 4.14222E-03 1.49793E-04-2.01894E-14
 -1      4115 4.01151E-03 1.51998E-04-1.89148E-14
 -1      4116 3.93406E-03 1.24163E-04-1.84305E-14
 -1      4117 2.78030E-03 1.71707E-04-9.27057E-15
 -1      4118 2.63905E-03 1.72545E-04-8.40536E-15
 -1      4119 3.06076E-03 1.68702E-04-1.11254E-14
 -1      4120 2.92089E-03 1.70424E-04-1.01776E-14
 -1      4121 2.84499E-03 1.38000E-04-9.81759E-15
 -1      4122 1.33131E-02 3.14002E-04-1.56094E-13
 -1      4123 1.33233E-02 3.53645E-04-1.55820E-13
 -1      4124 1.31803E-02 3.60064E-04-1.52434E-13
 -1      4125 1.31833E-02 2.88068E-04-1.53437E-13
 -1      4126 1.68652E-03-1.25884E-04-4.04154E-15
 -1      4127 1.76809E-03 4.76834E-05-4.25929E-15
 -1      4128 1.76931E-03 2.07436E-05-4.30282E-15
 -1      4129 1.91314E-03 5.19817E-05-4.89604E-15
 -1      4130 1.75467E-03-9.64422E-05-4.33043E-15
 -1      4131 2.82529E-03-7.10384E-05-1.01932E-14
 -1      4132 2.96497E-03-6.99495E-05-1.11515E-14
 -1      4133 3.10377E-03-6.86238E-05-1.21506E-14
 -1      4134 3.24161E-03-6.70251E-05-1.31909E-14
 -1      4135 3.03176E-03-3.71243E-05-1.15867E-14
 -1      4136 3.37838E-03-6.52267E-05-1.42734E-14
 -1      4137 3.51400E-03-6.31526E-05-1.53964E-14
 -1      4138 3.30680E-03-3.48895E-05-1.36599E-14
 -1      4139 3.64831E-03-6.09221E-05-1.65595E-14
 -1      4140 3.78130E-03-5.84094E-05-1.77625E-14
 -1      4141 3.57707E-03-3.19554E-05-1.58973E-14
 -1      4142 3.91277E-03-5.57150E-05-1.90068E-14
 -1      4143 4.04273E-03-5.27147E-05-2.02915E-14
 -1      4144 3.84161E-03-2.81877E-05-1.82962E-14
 -1      4145 4.17091E-03-4.95484E-05-2.16154E-14
 -1      4146 4.29736E-03-4.59964E-05-2.29782E-14
 -1      4147 4.09940E-03-2.34736E-05-2.08566E-14
 -1      4148 4.42174E-03-4.22059E-05-2.43779E-14
 -1      4149 4.54404E-03-3.78507E-05-2.58161E-14
 -1      4150 4.34921E-03-1.74684E-05-2.35736E-14
 -1      4151 4.63820E-03-2.65009E-05-2.70026E-14
 -1      4152 4.72952E-03-1.47595E-05-2.82107E-14
 -1      4153 4.56563E-03-3.41722E-06-2.61545E-14
 -1      4154 1.05909E-02 1.29997E-04-9.60146E-14
 -1      4155 1.07123E-02 1.35838E-04-9.87681E-14
 -1      4156 1.08358E-02 1.42345E-04-1.01548E-13
 -1      4157 1.09611E-02 1.49029E-04-1.04351E-13
 -1      4158 1.07931E-02 1.64857E-04-9.99386E-14
 -1      4159 1.10881E-02 1.56091E-04-1.07180E-13
 -1      4160 1.12167E-02 1.63326E-04-1.10036E-13
 -1      4161 1.10406E-02 1.79310E-04-1.05543E-13
 -1      4162 1.13467E-02 1.70815E-04-1.12915E-13
 -1      4163 1.14780E-02 1.78461E-04-1.15817E-13
 -1      4164 1.12955E-02 1.94875E-04-1.11248E-13
 -1      4165 1.16105E-02 1.86347E-04-1.18745E-13
 -1      4166 1.17441E-02 1.94359E-04-1.21692E-13
 -1      4167 1.15566E-02 2.11397E-04-1.17052E-13
 -1      4168 1.18787E-02 2.02565E-04-1.24659E-13
 -1      4169 1.20143E-02 2.10887E-04-1.27646E-13
 -1      4170 1.18228E-02 2.28626E-04-1.22945E-13
 -1      4171 1.21507E-02 2.19375E-04-1.30649E-13
 -1      4172 1.22879E-02 2.27971E-04-1.33674E-13
 -1      4173 1.20931E-02 2.46411E-04-1.28916E-13
 -1      4174 1.24258E-02 2.36712E-04-1.36714E-13
 -1      4175 1.25643E-02 2.45552E-04-1.39770E-13
 -1      4176 1.23669E-02 2.64648E-04-1.34960E-13
 -1      4177 1.27034E-02 2.54520E-04-1.42844E-13
 -1      4178 1.28430E-02 2.63575E-04-1.45929E-13
 -1      4179 1.26436E-02 2.83258E-04-1.41073E-13
 -1      4180 1.30427E-02 2.78763E-04-1.50320E-13
 -1      4181 2.52356E-03 1.74109E-04-7.72651E-15
 -1      4182 2.38137E-03 1.73856E-04-6.93693E-15
 -1      4183 2.35795E-03 1.42839E-04-6.90939E-15
 -1      4184 2.58927E-03 1.40504E-04-8.22590E-15
 -1      4185 2.07685E-03 1.11420E-04-5.54934E-15
 -1      4186 2.05527E-03 8.11845E-05-5.51225E-15
 -1      4187 2.21940E-03 1.12728E-04-6.26098E-15
 -1      4188 1.76702E-03-6.77182E-05-4.37328E-15
 -1      4189 1.07167E-02 2.64525E-04-9.63893E-14
 -1      4190 1.05989E-02 2.54547E-04-9.36573E-14
 -1      4191 1.05338E-02 1.68324E-04-9.34119E-14
 -1      4192 1.04678E-02 1.33884E-04-9.28713E-14
 -1      4193 1.17360E-02 3.51991E-04-1.19179E-13
 -1      4194 1.16030E-02 3.40457E-04-1.16246E-13
 -1      4195 4.72100E-03 9.44647E-05-2.74633E-14
 -1      4196 4.60632E-03 9.42802E-05-2.59896E-14
 -1      4197 1.20053E-02 3.75147E-04-1.25113E-13
 -1      4198 1.18701E-02 3.63537E-04-1.22137E-13
 -1      4199 1.17975E-02 3.27989E-04-1.20899E-13
 -1      4200 1.09601E-02 2.85086E-04-1.01937E-13
 -1      4201 1.08371E-02 2.74581E-04-9.91516E-14
 -1      4202 1.07776E-02 2.45331E-04-9.80073E-14
 -1      4203 1.22783E-02 3.98310E-04-1.31127E-13
 -1      4204 1.21414E-02 3.86727E-04-1.28112E-13
 -1      4205 1.20670E-02 3.49939E-04-1.26858E-13
 -1      4206 1.25544E-02 4.21314E-04-1.37206E-13
 -1      4207 1.24160E-02 4.09832E-04-1.34159E-13
 -1      4208 1.23403E-02 3.71971E-04-1.32890E-13
 -1      4209 1.28328E-02 4.44063E-04-1.43343E-13
 -1      4210 1.26933E-02 4.32716E-04-1.40268E-13
 -1      4211 1.26164E-02 3.93946E-04-1.38984E-13
 -1      4212 3.66925E-03 1.27934E-04-1.60308E-14
 -1      4213 3.61100E-03 1.59399E-04-1.53303E-14
 -1      4214 3.47497E-03 1.61962E-04-1.42171E-14
 -1      4215 1.14713E-02 3.29065E-04-1.13336E-13
 -1      4216 1.13410E-02 3.17738E-04-1.10448E-13
 -1      4217 1.15326E-02 3.06309E-04-1.15032E-13
 -1      4218 1.77120E-03-6.16875E-06-4.34288E-15
 -1      4219 1.77375E-03-3.31298E-05-4.37953E-15
 -1      4220 1.91605E-03-3.27018E-06-4.98890E-15
 -1      4221 2.54373E-03-7.23269E-05-8.40230E-15
 -1      4222 2.68484E-03-7.18222E-05-9.27717E-15
 -1      4223 2.75287E-03-3.86331E-05-9.67905E-15
 -1      4224 1.91183E-03-6.64110E-05-5.02551E-15
 -1      4225 1.04938E-02 2.43824E-04-9.11814E-14
 -1      4226 4.79951E-03 8.52132E-05-2.87051E-14
 -1      4227 4.77313E-03 1.36843E-05-2.89095E-14
 -1      4228 1.12122E-02 3.06693E-04-1.07586E-13
 -1      4229 1.10852E-02 2.95726E-04-1.04749E-13
 -1      4230 1.12734E-02 2.85128E-04-1.09259E-13
 -1      4231 1.10211E-02 2.64720E-04-1.03582E-13
 -1      4232 4.73357E-03 3.21119E-05-2.83414E-14
 -1      4233 2.05439E-03-6.75292E-05-5.71160E-15
 -1      4234 1.29819E-02 3.08321E-04-1.48533E-13
 -1      4235 4.73275E-03 6.26466E-05-2.80972E-14
 -1      4236 2.63759E-03 1.06550E-04-8.62522E-15
 -1      4237 2.52239E-03 1.07983E-04-7.93651E-15
 -1      4238 2.05562E-03 5.29728E-05-5.56879E-15
 -1      4239 1.05543E-02 2.25797E-04-9.27697E-14
 -1      4240 4.53586E-03 7.00875E-05-2.54107E-14
 -1      4241 4.48841E-03 9.39594E-05-2.45522E-14
 -1      4242 4.36739E-03 9.42385E-05-2.31520E-14
 -1      4243 1.29756E-02 4.39258E-04-1.46696E-13
 -1      4244 3.72835E-03 9.75685E-05-1.67386E-14
 -1      4245 3.59520E-03 9.88885E-05-1.55749E-14
 -1      4246 4.19248E-03 1.21467E-04-2.09871E-14
 -1      4247 3.19978E-03 1.66702E-04-1.21145E-14
 -1      4248 3.12387E-03 1.35368E-04-1.17239E-14
 -1      4249 3.33789E-03 1.64401E-04-1.31453E-14
 -1      4250 2.40207E-03-7.24816E-05-7.57004E-15
 -1      4251 2.47097E-03-3.93830E-05-7.93772E-15
 -1      4252 2.25997E-03-7.23182E-05-6.77976E-15
 -1      4253 1.29804E-02 3.43766E-04-1.48033E-13
 -1      4254 3.98973E-03 9.52774E-05-1.91883E-14
 -1      4255 3.85989E-03 9.63998E-05-1.79435E-14
 -1      4256 3.78856E-03 6.83089E-05-1.74532E-14
 -1      4257 2.91821E-03 1.05382E-04-1.04225E-14
 -1      4258 2.77828E-03 1.06127E-04-9.50307E-15
 -1      4259 2.71273E-03 7.41245E-05-9.18608E-15
 -1      4260 1.29665E-02 4.00782E-04-1.46977E-13
 -1      4261 1.27698E-02 3.48924E-04-1.43106E-13
 -1      4262 2.73098E-03 1.76619E-05-9.44098E-15
 -1      4263 2.87088E-03 1.78467E-05-1.03604E-14
 -1      4264 3.23690E-03-4.22162E-06-1.30539E-14
 -1      4265 3.37303E-03-3.47085E-06-1.41278E-14
 -1      4266 3.54711E-03 1.85515E-05-1.55158E-14
 -1      4267 3.68003E-03 1.92155E-05-1.66795E-14
 -1      4268 3.81129E-03 1.99049E-05-1.78841E-14
 -1      4269 3.94080E-03 2.09311E-05-1.91289E-14
 -1      4270 4.28201E-03 6.84648E-06-2.27746E-14
 -1      4271 4.40343E-03 9.56277E-06-2.41666E-14
 -1      4272 1.26308E-02 3.38774E-04-1.40033E-13
 -1      4273 2.12404E-03-3.53460E-05-6.03535E-15
 -1      4274 1.09914E-02 2.01351E-04-1.03909E-13
 -1      4275 1.11163E-02 2.09477E-04-1.06735E-13
 -1      4276 1.12880E-02 2.40484E-04-1.10261E-13
 -1      4277 1.14169E-02 2.49711E-04-1.13142E-13
 -1      4278 1.15474E-02 2.59244E-04-1.16047E-13
 -1      4279 1.16792E-02 2.68827E-04-1.18977E-13
 -1      4280 1.18122E-02 2.78622E-04-1.21927E-13
 -1      4281 1.19464E-02 2.88453E-04-1.24901E-13
 -1      4282 1.20816E-02 2.98431E-04-1.27894E-13
 -1      4283 1.22178E-02 3.08425E-04-1.30903E-13
 -1      4284 1.23547E-02 3.18519E-04-1.33930E-13
 -1      4285 1.24924E-02 3.28614E-04-1.36974E-13
 -1      4286 2.19802E-03 5.37142E-05-6.28381E-15
 -1      4287 2.05667E-03 2.48569E-05-5.62137E-15
 -1      4288 2.05848E-03-3.25224E-06-5.67000E-15
 -1      4289 1.05328E-02 2.07490E-04-9.24730E-14
 -1      4290 1.05052E-02 1.87538E-04-9.21650E-14
 -1      4291 1.06442E-02 1.78921E-04-9.59151E-14
 -1      4292 4.64725E-03 3.91804E-05-2.71158E-14
 -1      4293 2.33543E-03 1.12067E-04-6.87578E-15
 -1      4294 2.38521E-03 7.85347E-05-7.23470E-15
 -1      4295 3.39890E-03 1.31858E-04-1.37948E-14
 -1      4296 4.24377E-03 9.43920E-05-2.17921E-14
 -1      4297 4.11771E-03 9.46706E-05-2.04713E-14
 -1      4298 4.04685E-03 6.79312E-05-1.99507E-14
 -1      4299 4.29674E-03 6.85394E-05-2.26036E-14
 -1      4300 2.38549E-03 4.98131E-05-7.30113E-15
 -1      4301 1.07552E-02 1.86072E-04-9.85002E-14
 -1      4302 1.08757E-02 1.93535E-04-1.01278E-13
 -1      4303 1.09472E-02 2.22457E-04-1.02447E-13
 -1      4304 1.07213E-02 2.06161E-04-9.72302E-14
 -1      4305 3.48149E-03 4.84238E-05-1.48559E-14
 -1      4306 3.41738E-03 7.90195E-05-1.42029E-14
 -1      4307 4.53329E-03 3.69685E-05-2.56487E-14
 -1      4308 1.06376E-02 2.17143E-04-9.49590E-14
 -1      4309 2.98545E-03 6.34542E-06-1.11762E-14
 -1      4310 3.12365E-03 6.73330E-06-1.21723E-14
 -1      4311 3.19300E-03 3.82833E-05-1.26058E-14
 -1      4312 2.96679E-03 6.17423E-05-1.08995E-14
 -1      4313 1.11056E-02 2.52734E-04-1.05749E-13
 -1      4314 1.09813E-02 2.43227E-04-1.02930E-13
 -1      4315 1.07472E-02 2.25419E-04-9.75369E-14
 -1      4316 4.06831E-03 2.22737E-05-2.04128E-14
 -1      4317 4.19370E-03 2.38779E-05-2.17371E-14
 -1      4318 4.43649E-03 2.80049E-05-2.44988E-14
 -1      4319 1.12319E-02 2.62463E-04-1.08594E-13
 -1      4320 3.28133E-03 7.99108E-05-1.31301E-14
 -1      4321 2.26360E-03-6.98626E-06-6.73188E-15
 -1      4322 2.59034E-03 1.75344E-05-8.56284E-15
 -1      4323 1.08666E-02 2.34363E-04-1.00306E-13
 -1      4324 2.44905E-03 1.73363E-05-7.72582E-15
 -1      4325 3.03148E-03 9.29825E-05-1.12450E-14
 -1      4326 3.16967E-03 9.20178E-05-1.22410E-14
 -1      4327 4.25679E-03 5.01038E-05-2.22939E-14
 -1      4328 4.37842E-03 5.12839E-05-2.36703E-14
 -3
    1PSTEP                         2           1           1          
  100CL  101 1.000000000        4328                     0    1           1
 -4  STRESS      6    1
 -5  SXX         1    4    1    1
 -5  SYY         1    4    2    2
 -5  SZZ         1    4    3    3
 -5  SXY         1    4    1    2
 -5  SYZ         1    4    2    3
 -5  SZX         1    4    3    1
 -1         1 8.28690E+00 8.04083E+00-3.29171E-01 8.21933E+00-4.22695E-12-3.79902E-12
 -1         2-7.13274E-01-2.42715E+01-3.33999E+00 9.53344E-02 1.19577E-12 2.95364E-13
 -1         3 2.00000E+01 2.19258E-04 2.39286E-03 1.79765E-04-4.06830E-13-3.41955E-13
 -1         4 1.99999E+01 1.02690E-04 2.32013E-03-7.03343E-05 4.53632E-14 1.06279E-13
 -1         5 3.26269E+01 6.11626E+00 2.72417E+00 6.20059E+00-7.13665E-14 4.70801E-12
 -1         6 3.55961E+01 1.22073E+01 5.09490E+00-8.61079E+00-2.86271E-13 3.68289E-12
 -1         7 2.07774E+01 6.08711E+00-1.25965E-01-4.70306E+00-4.10227E-14 3.17468E-13
 -1         8 1.96617E+01 5.93134E+00 5.26151E-02-3.25022E+00-4.24522E-14-6.26733E-13
 -1         9 1.91465E+01 5.77419E+00 5.02851E-02-2.49821E+00-3.50258E-14-1.09384E-12
 -1        10 1.89152E+01 5.69759E+00 5.16044E-02-1.92132E+00-2.05183E-14-1.28914E-12
 -1        11 1.87979E+01 5.65800E+00 5.01510E-02-1.42765E+00-1.23560E-14-1.35378E-12
 -1        12 1.87349E+01 5.63655E+00 4.80521E-02-9.91706E-01-1.56992E-16-1.35050E-12
 -1        13 1.87005E+01 5.62488E+00 4.62826E-02-5.80013E-01 4.83337E-15-1.31677E-12
 -1        14 1.86857E+01 5.61982E+00 4.53263E-02-1.85988E-01 1.23429E-14-1.26907E-12
 -1        15 1.86863E+01 5.62001E+00 4.53716E-02 2.02590E-01 1.77178E-14-1.21026E-12
 -1        16 1.87024E+01 5.62546E+00 4.64381E-02 5.97483E-01 2.31759E-14-1.12966E-12
 -1        17 1.87381E+01 5.63745E+00 4.84067E-02 1.01126E+00 2.75754E-14-1.02133E-12
 -1        18 1.88024E+01 5.65929E+00 5.07457E-02 1.45048E+00 3.77584E-14-8.70812E-13
 -1        19 1.89212E+01 5.69933E+00 5.21118E-02 1.95016E+00 5.07441E-14-6.26291E-13
 -1        20 1.91519E+01 5.77678E+00 5.00002E-02 2.53558E+00 6.00995E-14-2.18372E-13
 -1        21 1.96567E+01 5.94570E+00 4.75836E-02 3.28445E+00 6.52811E-14 5.10174E-13
 -1        22 2.11553E+01 6.36694E+00 1.40444E-01 4.50149E+00 5.31519E-15 1.86914E-12
 -1        23 2.29411E+01-1.37552E+00-9.37224E-01-7.06067E-01-1.96714E-13 2.70819E-12
 -1        24 1.93109E+01-9.94942E-02-3.08973E-01 6.32166E-02-4.65010E-14 1.86483E-12
 -1        25 1.86461E+01-5.66855E-02-6.87641E-02 6.03614E-02-2.85308E-14 1.01929E-12
 -1        26 1.84707E+01-2.28221E-02-7.05800E-03 3.25732E-02-1.15707E-14 4.44941E-13
 -1        27 1.85185E+01-1.29136E-02 5.24865E-04 2.22713E-02-3.04108E-14 6.08003E-14
 -1        28 1.86843E+01-7.77575E-03 2.24305E-04 1.61454E-02-9.37672E-16-1.65750E-13
 -1        29 1.89173E+01-5.10755E-03-4.38913E-04 1.23162E-02 9.57174E-15-2.60922E-13
 -1        30 1.91940E+01-3.79769E-03-9.74384E-04 9.88194E-03 2.70300E-15-3.72216E-13
 -1        31 1.95052E+01-3.28636E-03-1.64651E-03 8.45379E-03-3.88914E-14-6.13579E-13
 -1        32 1.98511E+01-3.23514E-03-2.53296E-03 7.88319E-03-2.74859E-14-8.34428E-13
 -1        33 2.02370E+01-3.38460E-03-3.54315E-03 8.13057E-03 3.43013E-14-9.67888E-13
 -1        34 2.06706E+01-3.47682E-03-4.46413E-03 9.19050E-03 9.35843E-15-9.83789E-13
 -1        35 2.11585E+01-3.20554E-03-4.93527E-03 1.10232E-02 2.49828E-14-1.05439E-12
 -1        36 2.17017E+01-2.18564E-03-4.38068E-03 1.34556E-02-2.01036E-14-1.14619E-12
 -1        37 2.22885E+01 4.23576E-05-1.94596E-03 1.60214E-02-3.02223E-14-1.05728E-12
 -1        38 2.28863E+01 3.93015E-03 3.46910E-03 1.77219E-02-6.11980E-14-1.18188E-12
 -1        39 2.34305E+01 9.69438E-03 1.28966E-02 1.67544E-02 4.79879E-15-1.33282E-12
 -1        40 2.38170E+01 1.68787E-02 2.64277E-02 1.04115E-02 6.91017E-14-1.26391E-12
 -1        41 2.39039E+01 2.37721E-02 4.16984E-02-4.36922E-03-1.89983E-14-1.56846E-12
 -1        42 2.35397E+01 2.70644E-02 5.22856E-02-2.91085E-02-3.82288E-14-1.66645E-12
 -1        43 2.26289E+01 2.25446E-02 4.80240E-02-6.03077E-02 8.13911E-15-1.40250E-12
 -1        44 2.12310E+01 7.64046E-03 2.03094E-02-8.63171E-02 3.34466E-14-1.04639E-12
 -1        45 1.96400E+01-1.50109E-02-2.79978E-02-8.96166E-02-3.45416E-14-1.08107E-12
 -1        46 1.83497E+01-3.63367E-02-7.65510E-02-5.83889E-02 2.23411E-14-1.51418E-12
 -1        47 1.78491E+01-4.52196E-02-9.73952E-02-2.97157E-04 4.63531E-14-1.27135E-12
 -1        48 1.83467E+01-3.65008E-02-7.68806E-02 5.79734E-02 5.25864E-14-1.04476E-12
 -1        49 1.96376E+01-1.52714E-02-2.83655E-02 8.94588E-02 2.42992E-14-1.23262E-12
 -1        50 2.12342E+01 7.34469E-03 1.99482E-02 8.63433E-02-4.56957E-14-1.53321E-12
 -1        51 2.26428E+01 2.22284E-02 4.76464E-02 6.04549E-02 1.63888E-14-1.62222E-12
 -1        52 2.35691E+01 2.67261E-02 5.19223E-02 2.93270E-02-1.87985E-14-1.38441E-12
 -1        53 2.39536E+01 2.33785E-02 4.12850E-02 4.63273E-03-4.17856E-14-1.31423E-12
 -1        54 2.38925E+01 1.63976E-02 2.58981E-02-1.00760E-02 6.31811E-14-1.36406E-12
 -1        55 2.35389E+01 9.09882E-03 1.21869E-02-1.62803E-02 8.83825E-15-1.42700E-12
 -1        56 2.30366E+01 3.20937E-03 2.54691E-03-1.70166E-02-8.06744E-15-1.24878E-12
 -1        57 2.24923E+01-8.00524E-04-3.10111E-03-1.49749E-02 6.91045E-15-9.59557E-13
 -1        58 2.19728E+01-3.12940E-03-5.77513E-03-1.19404E-02 6.26468E-15-1.15311E-12
 -1        59 2.15133E+01-4.20732E-03-6.56536E-03-8.88677E-03 6.37865E-14-1.23316E-12
 -1        60 2.11273E+01-4.46258E-03-6.31075E-03-6.24652E-03-5.74103E-14-5.21009E-13
 -1        61 2.08154E+01-4.23427E-03-5.56208E-03-4.14803E-03 5.25684E-14-3.82330E-13
 -1        62 2.05712E+01-3.76008E-03-4.64527E-03-2.57215E-03-5.51014E-14-4.14830E-13
 -1        63 2.03852E+01-3.19312E-03-3.73691E-03-1.44065E-03-1.37676E-13-1.10395E-12
 -1        64 2.02474E+01-2.62494E-03-2.92334E-03-6.60800E-04 7.27556E-14-1.43407E-12
 -1        65 2.01482E+01-2.10563E-03-2.24042E-03-1.44733E-04-2.39842E-14-1.20370E-12
 -1        66 2.00792E+01-1.65866E-03-1.69896E-03 1.84584E-04-1.43785E-14-1.06051E-12
 -1        67 2.00337E+01-1.29033E-03-1.29932E-03 3.94818E-04 1.16399E-13-7.98441E-13
 -1        68 2.00061E+01-9.92788E-04-1.03183E-03 5.51750E-04-8.14727E-15-5.03618E-13
 -1        69 1.99926E+01-7.38413E-04-8.41294E-04 7.26288E-04-6.12799E-14-4.19149E-13
 -1        70 1.99901E+01-4.40279E-04-5.11193E-04 1.00243E-03 1.06963E-13 4.93939E-13
 -1        71 1.99957E+01 7.09171E-05 6.40247E-04 1.20976E-03-4.88066E-14 5.57988E-13
 -1        72 2.09601E+01-4.03518E-01-9.78847E-01-3.10732E-01 5.21076E-14 4.41965E-12
 -1        73 1.92742E+01-6.59524E-02-2.90357E-01-5.35522E-02 3.19844E-14 3.55565E-12
 -1        74 1.86535E+01-2.08949E-02-6.42990E-02-1.97622E-02 1.13641E-14 2.88347E-12
 -1        75 1.84773E+01-1.05258E-02-9.90862E-03-1.45708E-02 1.58817E-14 2.45719E-12
 -1        76 1.85246E+01-6.10225E-03-4.22253E-04-1.12558E-02 8.17862E-15 2.06709E-12
 -1        77 1.86894E+01-3.89497E-03 8.64527E-05-8.77465E-03 2.37950E-14 1.79016E-12
 -1        78 1.89220E+01-2.83378E-03-4.50911E-04-6.86965E-03 5.16335E-15 1.66071E-12
 -1        79 1.91998E+01-2.44888E-03-1.09206E-03-5.35146E-03-2.95947E-15 1.58998E-12
 -1        80 1.95153E+01-2.49257E-03-1.97787E-03-4.17641E-03-6.07077E-15 1.48710E-12
 -1        81 1.98709E+01-2.80284E-03-3.19812E-03-3.40330E-03 2.32004E-14 1.39101E-12
 -1        82 2.02759E+01-3.23492E-03-4.71737E-03-3.16799E-03 5.73326E-15 1.21596E-12
 -1        83 2.07440E+01-3.61276E-03-6.39307E-03-3.68610E-03 1.37854E-14 1.03703E-12
 -1        84 2.12906E+01-3.68185E-03-7.92429E-03-5.26261E-03 1.01544E-14 9.26799E-13
 -1        85 2.19286E+01-3.06194E-03-8.72114E-03-8.28007E-03 1.87394E-15 9.55489E-13
 -1        86 2.26613E+01-1.21925E-03-7.70386E-03-1.31095E-02 2.47878E-15 9.59418E-13
 -1        87 2.34710E+01 2.48187E-03-3.09745E-03-1.98386E-02-5.14476E-15 1.02505E-12
 -1        88 2.43016E+01 8.52066E-03 7.52724E-03-2.76497E-02-3.94332E-15 1.08369E-12
 -1        89 2.50371E+01 1.65785E-02 2.63453E-02-3.37257E-02 6.70260E-14 8.03105E-13
 -1        90 2.54844E+01 2.44967E-02 5.25943E-02-3.20343E-02-5.70459E-14 5.30699E-13
 -1        91 2.53855E+01 2.74605E-02 7.80263E-02-1.35865E-02 2.01766E-14 6.37410E-13
 -1        92 2.44977E+01 1.93892E-02 8.39134E-02 2.85883E-02-3.96716E-14 8.57429E-13
 -1        93 2.27702E+01-1.74611E-03 4.81801E-02 8.77145E-02-3.31507E-14 7.56048E-13
 -1        94 2.05534E+01-2.79318E-02-3.26042E-02 1.33889E-01 5.45354E-15 5.55812E-13
 -1        95 1.86359E+01-4.33064E-02-1.21274E-01 1.26247E-01 1.74557E-15 4.33355E-13
 -1        96 1.78982E+01-3.79642E-02-1.57719E-01 5.23536E-02 1.47170E-14 3.74640E-13
 -1        97 1.87201E+01-1.69200E-02-1.13494E-01-4.74016E-02-4.75663E-14 3.49113E-13
 -1        98 2.06849E+01 6.27421E-03-2.29504E-02-1.13419E-01 2.83738E-14 3.09891E-13
 -1        99 2.29032E+01 2.10774E-02 5.41111E-02-1.20355E-01-5.30186E-15-1.84311E-13
 -1       100 2.46033E+01 2.48665E-02 8.51513E-02-8.62493E-02-5.49979E-14-1.61964E-13
 -1       101 2.54603E+01 2.07224E-02 7.62840E-02-4.23502E-02-1.19464E-14-1.71009E-13
 -1       102 2.55426E+01 1.33893E-02 5.00166E-02-8.23236E-03 6.88163E-14-5.23112E-13
 -1       103 2.50989E+01 6.33537E-03 2.39165E-02 1.13471E-02-1.54129E-14-5.84148E-13
 -1       104 2.43866E+01 1.12634E-03 5.43945E-03 1.93915E-02 5.43291E-14-4.14422E-13
 -1       105 2.35963E+01-2.05082E-03-4.93865E-03 2.05132E-02 3.45762E-14-4.72188E-13
 -1       106 2.28423E+01-3.62161E-03-9.44095E-03 1.83161E-02-8.49260E-14-3.88216E-13
 -1       107 2.21807E+01-4.12825E-03-1.04709E-02 1.49780E-02 2.07019E-14-5.29056E-13
 -1       108 2.16300E+01-4.01900E-03-9.76722E-03 1.16041E-02 5.36390E-15-6.65867E-13
 -1       109 2.11885E+01-3.60275E-03-8.37127E-03 8.65660E-03 3.15609E-14-6.23733E-13
 -1       110 2.08444E+01-3.06963E-03-6.82942E-03 6.26535E-03-1.30884E-14-8.55110E-13
 -1       111 2.05824E+01-2.52640E-03-5.39409E-03 4.40983E-03 6.20076E-14-5.82270E-13
 -1       112 2.03875E+01-2.02734E-03-4.16151E-03 3.01383E-03-4.44366E-14-5.73971E-13
 -1       113 2.02456E+01-1.59606E-03-3.15276E-03 1.98943E-03 3.73405E-14-4.55877E-13
 -1       114 2.01450E+01-1.23904E-03-2.35738E-03 1.25453E-03-7.10130E-14-5.91254E-13
 -1       115 2.00760E+01-9.53373E-04-1.75487E-03 7.36846E-04 6.89161E-14-6.24676E-13
 -1       116 2.00310E+01-7.29391E-04-1.32430E-03 3.71511E-04-2.56045E-15-6.09640E-13
 -1       117 2.00043E+01-5.52207E-04-1.04215E-03 9.47070E-05 5.93706E-14-9.82132E-13
 -1       118 1.99916E+01-3.95683E-04-8.44536E-04-1.69524E-04-6.84264E-14-1.26489E-12
 -1       119 1.99899E+01-1.45347E-04-4.59685E-04-5.90064E-04-3.70821E-14-8.08984E-13
 -1       120 1.99958E+01 2.89027E-04 6.51310E-04-1.16292E-03 2.32761E-13-8.48709E-13
 -1       121 1.99999E+01-4.14999E-03 4.49524E-04-1.42716E-03-6.14492E-13-1.17513E-14
 -1       122 1.99995E+01-9.14943E-03-6.84262E-04-7.28603E-04 3.51618E-13-6.21167E-15
 -1       123 1.99994E+01-5.44900E-03-8.40390E-04-8.86413E-05 5.72957E-13 2.27685E-14
 -1       124 1.99996E+01 6.52045E-03-5.49956E-04 3.49476E-04 4.63366E-13 2.80003E-13
 -1       125 1.99998E+01 2.35525E-02-1.29505E-04 5.50181E-04 3.29279E-13-3.53409E-13
 -1       126 2.00000E+01 4.11198E-02 2.56819E-04 5.54083E-04-6.30678E-13 1.13000E-13
 -1       127 2.00002E+01 5.57450E-02 5.51274E-04 4.01246E-04 1.98424E-13 9.77425E-14
 -1       128 2.00003E+01 6.39522E-02 7.08901E-04 1.48739E-04-1.13247E-13-2.30130E-13
 -1       129 2.00003E+01 6.40229E-02 7.08653E-04-1.37491E-04-2.31004E-13 2.29510E-13
 -1       130 2.00002E+01 5.59612E-02 5.51507E-04-3.89521E-04-5.29915E-13-2.95454E-13
 -1       131 2.00000E+01 4.14887E-02 2.57254E-04-5.46242E-04-1.90509E-12-2.15084E-13
 -1       132 1.99998E+01 2.40554E-02-1.23673E-04-5.42443E-04-1.87304E-12 2.56885E-13
 -1       133 1.99996E+01 7.10958E-03-5.33537E-04-3.43899E-04-9.04197E-13 2.68554E-14
 -1       134 1.99994E+01-4.95866E-03-8.57709E-04 4.20355E-05-4.77995E-13 8.73159E-14
 -1       135 1.99996E+01-8.74280E-03-6.24566E-04 9.74836E-04-6.86275E-13-1.29454E-13
 -1       136 1.99996E+01-4.13671E-03 4.37150E-04 2.03312E-03-6.74866E-13-5.44930E-14
 -1       137-1.37927E+00-2.01572E+01-3.11265E+00-3.82566E+00 2.23882E-12 2.13256E-13
 -1       138-1.65355E+00-9.36583E+00-2.38355E+00-3.29496E+00 2.81530E-12 1.09945E-12
 -1       139 2.25847E+00 2.43765E+00-1.23908E+00 2.71019E+00 2.89091E-12 2.26624E-12
 -1       140 1.47280E+01 1.01112E+01 2.43251E-01 1.21567E+01 2.63706E-12 2.82324E-12
 -1       141 3.39319E+01 1.00272E+01 1.73986E+00 1.79144E+01 1.78610E-12 3.08875E-12
 -1       142 5.40233E+01 5.25294E+00 2.95291E+00 1.51937E+01 6.20337E-13 1.86734E-12
 -1       143 6.59627E+01 1.22120E+00 3.60957E+00 4.26117E+00 1.38976E-13-6.67050E-13
 -1       144 6.33262E+01 2.14256E+00 3.48645E+00-9.05110E+00 4.29611E-13-2.93676E-12
 -1       145 4.77618E+01 7.04318E+00 2.62787E+00-1.73883E+01 1.46100E-12-3.94634E-12
 -1       146 2.77415E+01 1.09273E+01 1.33418E+00-1.70583E+01 2.78544E-12-4.29123E-12
 -1       147 9.58193E+00 8.63660E+00-2.33417E-01-9.15987E+00 3.89067E-12-3.75500E-12
 -1       148 1.12684E-01-1.57917E+00-1.69725E+00-4.21157E-02 3.92197E-12-2.43983E-12
 -1       149-1.89496E+00-1.47673E+01-2.77030E+00 4.31212E+00 2.87620E-12-1.02247E-12
 -1       150-8.75905E-01-2.32449E+01-3.29166E+00 2.37558E+00 4.61464E-13-1.85517E-13
 -1       151-8.72941E-01-2.32873E+01-3.29105E+00-2.12768E+00-2.54299E-12-3.73351E-13
 -1       152-1.77171E+00-1.44436E+01-2.72381E+00-4.09639E+00-4.42862E-12-1.35786E-12
 -1       153 2.13831E-01-1.18208E+00-1.60382E+00 1.02481E-01-4.73221E-12-2.87959E-12
 -1       154 2.27407E+01 1.11503E+01 9.84634E-01 1.56868E+01-3.11406E-12-4.22601E-12
 -1       155 4.09884E+01 8.71187E+00 2.19797E+00 1.82564E+01-1.75746E-12-3.60523E-12
 -1       156 5.75292E+01 3.80991E+00 3.10765E+00 1.33508E+01-5.62640E-13-2.03748E-12
 -1       157 6.54864E+01 9.49143E-01 3.52067E+00 2.29180E+00-5.52822E-14-9.47853E-15
 -1       158 6.13289E+01 2.47750E+00 3.31626E+00-1.00340E+01-4.32575E-13 2.09122E-12
 -1       159 4.69634E+01 7.15584E+00 2.53527E+00-1.74555E+01-1.28220E-12 3.22442E-12
 -1       160 2.84331E+01 1.07982E+01 1.38600E+00-1.71422E+01-2.33613E-12 3.64009E-12
 -1       161 1.21793E+01 9.59389E+00 6.47871E-02-1.07997E+01-3.00893E-12 3.14876E-12
 -1       162 2.21271E+00 2.28586E+00-1.19891E+00-2.61397E+00-3.37425E-12 2.46209E-12
 -1       163-1.50387E+00-8.99857E+00-2.28463E+00 3.05402E+00-2.45992E-12 1.19671E-12
 -1       164-1.35032E+00-1.96843E+01-3.04486E+00 3.57570E+00-7.78266E-13 7.96793E-14
 -1       165 2.09918E+01 3.68438E+00-5.68792E-02-3.58066E+00-5.91509E-13-1.33150E-13
 -1       166 1.99948E+01 4.20417E+00-4.53798E-02-2.77643E+00-4.98158E-13-6.98011E-13
 -1       167 1.95233E+01 4.48252E+00-3.14289E-02-2.16041E+00-3.68510E-13-9.83632E-13
 -1       168 1.92888E+01 4.62687E+00-2.35593E-02-1.64104E+00-2.30944E-13-1.10849E-12
 -1       169 1.91568E+01 4.71638E+00-1.92928E-02-1.18967E+00-1.20935E-13-1.13785E-12
 -1       170 1.90802E+01 4.77256E+00-1.71194E-02-7.70468E-01-2.49864E-14-1.11831E-12
 -1       171 1.90403E+01 4.80385E+00-1.60673E-02-3.75466E-01 8.36971E-14-1.07605E-12
 -1       172 1.90285E+01 4.81359E+00-1.57626E-02 8.09252E-03 1.75708E-13-1.02907E-12
 -1       173 1.90423E+01 4.80261E+00-1.61056E-02 3.91987E-01 2.57232E-13-9.71265E-13
 -1       174 1.90844E+01 4.76960E+00-1.71874E-02 7.88050E-01 3.44053E-13-8.84913E-13
 -1       175 1.91619E+01 4.71180E+00-1.93933E-02 1.20204E+00 4.40267E-13-7.67135E-13
 -1       176 1.92983E+01 4.61768E+00-2.37372E-02 1.66441E+00 5.38894E-13-5.79918E-13
 -1       177 1.95406E+01 4.46403E+00-3.25580E-02 2.19190E+00 6.22565E-13-2.95052E-13
 -1       178 2.00168E+01 4.18060E+00-4.67975E-02 2.81415E+00 6.65203E-13 1.95965E-13
 -1       179 2.11114E+01 3.45511E+00-5.93382E-02 3.50789E+00 5.85719E-13 1.04520E-12
 -1       180 2.23657E+01 1.13978E+00-3.35196E-01 2.99345E+00 4.00769E-13 2.13086E-12
 -1       181 2.19322E+01 8.55599E-01 6.71809E-04-1.93786E+00-5.25475E-13 6.17492E-13
 -1       182 2.04291E+01 1.90434E-01-9.78621E-03-7.43828E-01-4.79217E-13 3.78685E-13
 -1       183 1.96786E+01 1.03736E-01 1.37579E-02-2.61889E-01-3.55297E-13 1.64235E-13
 -1       184 1.93710E+01 5.09499E-02 1.02649E-02-3.61291E-02-2.42421E-13-5.50246E-14
 -1       185 1.92846E+01 2.81178E-02 5.52539E-03 8.36954E-02-1.37522E-13-1.61340E-13
 -1       186 1.93303E+01 1.71740E-02 2.90480E-03 1.53919E-01-9.69769E-14-2.29089E-13
 -1       187 1.94589E+01 1.22305E-02 1.72197E-03 1.99807E-01-7.81113E-14-3.06696E-13
 -1       188 1.96450E+01 1.07871E-02 1.21075E-03 2.34978E-01-1.28042E-13-3.42347E-13
 -1       189 1.98763E+01 1.15092E-02 9.86523E-04 2.67512E-01-1.64103E-13-3.69647E-13
 -1       190 2.01482E+01 1.34408E-02 8.74509E-04 3.02186E-01-6.69481E-14-4.24073E-13
 -1       191 2.04603E+01 1.56404E-02 7.73638E-04 3.41126E-01-5.76336E-14-5.46212E-13
 -1       192 2.08136E+01 1.69335E-02 5.99074E-04 3.83629E-01-6.06644E-14-6.42796E-13
 -1       193 2.12070E+01 1.56900E-02 2.66649E-04 4.25382E-01-3.47724E-14-6.70042E-13
 -1       194 2.16336E+01 9.64391E-03-2.98425E-04 4.57198E-01-7.22306E-15-6.20189E-13
 -1       195 2.20766E+01-4.10377E-03-1.13003E-03 4.63588E-01-5.66564E-14-5.38961E-13
 -1       196 2.25040E+01-2.85613E-02-2.16476E-03 4.22026E-01-3.90414E-14-4.74706E-13
 -1       197 2.28648E+01-6.52107E-02-3.17377E-03 3.04829E-01 7.04187E-14-4.99467E-13
 -1       198 2.30884E+01-1.10680E-01-3.75917E-03 8.69372E-02-1.38477E-13-6.19358E-13
 -1       199 2.30936E+01-1.52066E-01-3.45280E-03-2.36902E-01-8.82879E-14-5.89666E-13
 -1       200 2.28123E+01-1.64097E-01-2.02410E-03-6.26081E-01 8.68580E-14-6.10775E-13
 -1       201 2.22308E+01-1.15789E-01 7.99922E-05-9.72057E-01 1.58190E-13-5.87545E-13
 -1       202 2.14397E+01 6.23744E-03 1.83577E-03-1.11128E+00 6.70636E-15-4.97919E-13
 -1       203 2.06548E+01 1.67481E-01 2.47726E-03-9.03464E-01-1.20395E-13-3.59926E-13
 -1       204 2.01587E+01 2.85660E-01 2.37233E-03-3.50750E-01-2.22392E-14-4.38833E-13
 -1       205 2.01589E+01 2.86443E-01 2.47116E-03 3.49410E-01 1.34389E-14-5.53072E-13
 -1       206 2.06569E+01 1.68935E-01 2.68480E-03 9.04966E-01-1.05033E-13-8.57695E-13
 -1       207 2.14465E+01 7.75357E-03 2.02340E-03 1.11636E+00-1.83490E-13-1.02086E-12
 -1       208 2.22454E+01-1.14322E-01 1.65693E-04 9.80917E-01 6.50413E-14-9.78124E-13
 -1       209 2.28383E+01-1.62677E-01-1.94450E-03 6.38690E-01 1.47991E-13-7.91739E-13
 -1       210 2.31348E+01-1.50550E-01-3.36567E-03 2.53376E-01-3.65897E-15-7.14237E-13
 -1       211 2.31487E+01-1.08823E-01-3.64425E-03-6.60014E-02-4.74204E-14-6.13264E-13
 -1       212 2.29493E+01-6.28138E-02-3.03623E-03-2.78301E-01 3.33884E-14-6.52455E-13
 -1       213 2.26190E+01-2.54971E-02-2.00075E-03-3.88395E-01 4.09896E-14-4.30294E-13
 -1       214 2.22295E+01-3.20852E-04-9.45307E-04-4.21144E-01 1.22862E-13-4.64250E-13
 -1       215 2.18333E+01 1.41343E-02-9.77305E-05-4.04217E-01-4.77380E-14-5.04316E-13
 -1       216 2.14634E+01 2.08159E-02 4.71894E-04-3.60302E-01-9.11315E-14-3.10773E-13
 -1       217 2.11375E+01 2.25396E-02 7.88149E-04-3.05257E-01 2.79826E-13-5.52453E-13
 -1       218 2.08622E+01 2.14427E-02 9.13182E-04-2.48946E-01 7.82714E-14-3.34366E-13
 -1       219 2.06373E+01 1.89618E-02 9.12421E-04-1.96824E-01-9.59333E-14-2.96702E-13
 -1       220 2.04587E+01 1.59849E-02 8.39300E-04-1.51426E-01-3.65074E-13-3.99190E-13
 -1       221 2.03204E+01 1.30209E-02 7.31921E-04-1.13495E-01-1.95385E-13-5.02365E-13
 -1       222 2.02160E+01 1.03362E-02 6.14846E-04-8.27579E-02 1.68519E-13-6.09253E-13
 -1       223 2.01392E+01 8.05165E-03 5.02037E-04-5.84169E-02-2.93328E-14-6.63342E-13
 -1       224 2.00845E+01 6.20470E-03 3.99070E-04-3.94513E-02 2.51545E-13-4.30117E-13
 -1       225 2.00470E+01 4.78632E-03 3.04560E-04-2.47960E-02 2.27620E-13-1.84816E-13
 -1       226 2.00229E+01 3.73974E-03 2.15176E-04-1.34631E-02 1.24828E-13-1.10839E-13
 -1       227 2.00089E+01 2.88950E-03 1.52905E-04-4.75409E-03 4.50279E-13-1.49587E-13
 -1       228 2.00018E+01 1.77072E-03 1.22936E-04 1.38779E-03 6.41993E-14-6.94075E-15
 -1       229 2.09275E+01 2.76419E-01-5.09807E-02 1.14795E+00 4.42802E-13 1.83618E-12
 -1       230 1.98553E+01 1.27497E-01 8.47509E-03 4.25850E-01 3.36955E-13 1.48855E-12
 -1       231 1.93764E+01 5.99010E-02 1.28816E-02 1.28395E-01 2.50752E-13 1.18386E-12
 -1       232 1.92033E+01 3.08138E-02 7.82018E-03-1.90528E-02 2.05482E-13 9.69084E-13
 -1       233 1.92038E+01 1.76150E-02 4.07971E-03-1.00569E-01 1.33370E-13 8.08231E-13
 -1       234 1.93091E+01 1.14184E-02 2.23492E-03-1.50366E-01 5.87982E-14 7.29944E-13
 -1       235 1.94837E+01 9.00180E-03 1.40666E-03-1.85498E-01 5.26719E-14 6.57170E-13
 -1       236 1.97104E+01 8.96696E-03 1.01547E-03-2.15860E-01 7.48894E-14 6.09855E-13
 -1       237 1.99836E+01 1.05699E-02 8.03319E-04-2.47868E-01 7.19137E-14 4.78271E-13
 -1       238 2.03049E+01 1.32788E-02 6.53805E-04-2.85808E-01 6.22967E-14 5.27314E-13
 -1       239 2.06800E+01 1.65356E-02 4.92847E-04-3.32149E-01 1.14041E-13 4.95795E-13
 -1       240 2.11160E+01 1.95378E-02 2.54147E-04-3.87158E-01 6.03710E-14 4.07386E-13
 -1       241 2.16181E+01 2.09619E-02-1.20446E-04-4.47789E-01 3.51741E-14 3.69934E-13
 -1       242 2.21847E+01 1.86118E-02-6.50035E-04-5.05688E-01-1.24895E-15 3.58830E-13
 -1       243 2.28001E+01 9.08001E-03-1.24519E-03-5.44306E-01-4.06954E-14 3.54033E-13
 -1       244 2.34253E+01-1.22181E-02-1.60803E-03-5.35754E-01-7.98645E-15 3.64846E-13
 -1       245 2.39878E+01-4.97051E-02-1.17344E-03-4.39824E-01 1.62799E-13 3.73372E-13
 -1       246 2.43755E+01-1.03391E-01 6.78504E-04-2.10968E-01 1.01854E-14 3.91521E-13
 -1       247 2.44466E+01-1.60741E-01 3.83685E-03 1.77441E-01-1.26303E-13 3.81932E-13
 -1       248 2.40708E+01-1.88017E-01 6.45849E-03 6.85976E-01-2.06154E-13 5.69776E-13
 -1       249 2.32146E+01-1.36002E-01 5.03143E-03 1.15634E+00 8.24158E-14 7.04352E-13
 -1       250 2.20492E+01 1.97513E-02-2.96042E-03 1.32194E+00 1.19327E-13 5.40490E-13
 -1       251 2.09865E+01 2.22638E-01-1.36884E-02 9.59618E-01 1.32535E-13 3.98108E-13
 -1       252 2.05206E+01 3.38673E-01-1.82258E-02 1.28645E-01 2.92500E-14 2.17327E-13
 -1       253 2.09012E+01 2.76031E-01-1.13411E-02-7.69845E-01 3.73659E-14 2.54567E-13
 -1       254 2.19307E+01 8.77180E-02 7.62165E-04-1.28241E+00 1.22599E-13 5.97179E-14
 -1       255 2.31241E+01-9.17354E-02 8.19462E-03-1.24891E+00 1.53142E-13-9.29638E-14
 -1       256 2.40429E+01-1.76597E-01 7.79918E-03-8.36734E-01-5.49539E-14-1.47922E-13
 -1       257 2.44880E+01-1.71049E-01 3.34825E-03-3.21434E-01 4.80423E-14-2.95695E-13
 -1       258 2.44780E+01-1.20723E-01-6.37733E-04 1.03940E-01 1.22335E-13-3.97196E-13
 -1       259 2.41398E+01-6.49284E-02-2.51840E-03 3.71476E-01-1.33639E-13-1.21772E-13
 -1       260 2.36181E+01-2.20792E-02-2.61580E-03 4.94726E-01 8.76596E-14-1.10542E-13
 -1       261 2.30298E+01 4.53933E-03-1.84087E-03 5.16823E-01 1.34866E-14-1.74652E-14
 -1       262 2.24531E+01 1.81577E-02-9.09443E-04 4.80288E-01-6.62543E-14 1.06074E-13
 -1       263 2.19316E+01 2.32542E-02-1.63455E-04 4.16413E-01 1.33117E-13-1.21053E-13
 -1       264 2.14845E+01 2.34934E-02 3.15195E-04 3.44758E-01 5.27837E-14-2.01168E-13
 -1       265 2.11153E+01 2.13313E-02 5.64057E-04 2.76034E-01-6.15379E-14-2.21605E-13
 -1       266 2.08195E+01 1.82296E-02 6.53099E-04 2.15240E-01 1.04029E-13-2.04182E-13
 -1       267 2.05879E+01 1.49813E-02 6.45779E-04 1.64046E-01-3.17075E-14-2.59868E-13
 -1       268 2.04107E+01 1.19748E-02 5.88030E-04 1.22354E-01-1.53159E-14-1.42715E-13
 -1       269 2.02778E+01 9.37240E-03 5.09077E-04 8.92260E-02-3.40365E-14-2.14519E-13
 -1       270 2.01804E+01 7.21898E-03 4.25374E-04 6.33937E-02-5.18247E-14-1.70121E-13
 -1       271 2.01109E+01 5.50293E-03 3.44456E-04 4.35286E-02 1.87106E-13-2.90730E-13
 -1       272 2.00630E+01 4.18717E-03 2.67365E-04 2.83734E-02-4.22179E-14-4.10610E-13
 -1       273 2.00316E+01 3.21609E-03 1.89530E-04 1.68100E-02 1.14613E-13-3.47477E-13
 -1       274 2.00128E+01 2.52435E-03 1.14045E-04 7.94662E-03 1.20772E-14-1.26266E-13
 -1       275 2.00033E+01 1.97157E-03 1.22579E-04 1.23116E-03-2.45797E-13-2.21902E-13
 -1       276 2.00001E+01 4.60704E-04 2.64665E-04-2.76501E-03 1.31713E-13 9.04020E-15
 -1       277 2.00018E+01 1.65232E-03 1.00083E-04-9.48728E-04 6.70879E-14 4.56169E-13
 -1       278 2.00026E+01 7.45801E-03 2.26134E-05 4.76326E-03 1.04981E-13 8.76500E-14
 -1       279 2.00019E+01 1.76693E-02 5.47659E-06 1.05380E-02 2.39925E-13 1.05418E-13
 -1       280 2.00007E+01 3.10615E-02-1.34711E-06 1.39829E-02 1.82945E-13-1.24162E-13
 -1       281 1.99994E+01 4.51900E-02-2.98471E-05 1.43223E-02 7.46573E-14-6.20560E-13
 -1       282 1.99982E+01 5.79495E-02-6.00944E-05 1.16033E-02-9.13787E-14 1.01502E-13
 -1       283 1.99974E+01 6.66935E-02-8.38849E-05 6.47350E-03-3.05892E-13-3.03032E-14
 -1       284 1.99972E+01 6.98006E-02-9.25457E-05 3.84874E-05 1.76421E-15-2.34770E-13
 -1       285 1.99974E+01 6.67007E-02-8.39907E-05-6.39031E-03-4.78986E-13-4.47339E-13
 -1       286 1.99982E+01 5.79778E-02-6.07349E-05-1.15110E-02-4.37714E-13-6.74774E-13
 -1       287 1.99993E+01 4.55097E-02-2.87536E-05-1.42137E-02-3.77792E-13-2.88612E-14
 -1       288 2.00007E+01 3.11873E-02-2.86855E-06-1.39281E-02-2.87976E-13 4.14228E-13
 -1       289 2.00019E+01 1.77983E-02 2.16742E-06-1.05111E-02-2.38289E-13 3.43011E-13
 -1       290 2.00025E+01 7.94161E-03 7.64800E-05-5.03031E-03-1.94336E-13-1.31060E-13
 -1       291 2.00037E+01 4.78630E-03 6.35855E-05-1.49107E-03-1.64058E-14-1.41472E-13
 -1       292-9.12380E-01-1.07561E+01-9.80984E-01 9.04376E-01 3.17288E-13 5.08121E-13
 -1       293 2.47030E+00-8.46093E+00-7.75712E-01 3.34566E+00 6.97914E-13 6.21350E-13
 -1       294 8.57484E+00-5.33029E+00-5.52647E-01 5.24359E+00 9.55569E-13 9.14172E-13
 -1       295 1.85350E+01-2.00420E+00-1.40014E-01 6.86993E+00 9.97924E-13 1.07078E-12
 -1       296 2.85415E+01 2.19883E+00 2.91042E-01 7.51044E+00 1.05824E-12 1.21342E-12
 -1       297 3.78720E+01 4.50729E+00 5.88729E-01 5.30059E+00 1.09525E-12 5.01488E-13
 -1       298 4.24683E+01 6.68801E+00 6.47328E-01 1.87694E+00 1.28275E-12-4.84335E-14
 -1       299 4.70297E+01 6.66075E+00 1.05596E+00-7.83758E-01 1.08516E-12-6.91863E-13
 -1       300 4.23814E+01 5.97863E+00 7.87832E-01-3.61815E+00 1.03534E-12-1.29136E-12
 -1       301 3.56282E+01 4.08903E+00 6.05922E-01-6.90881E+00 1.30468E-12-1.81999E-12
 -1       302 2.50867E+01 1.36329E+00 1.66579E-01-7.62429E+00 1.52681E-12-1.73161E-12
 -1       303 1.42170E+01-2.60935E+00-3.15992E-01-6.43913E+00 1.42245E-12-1.58337E-12
 -1       304 6.23378E+00-6.74323E+00-5.87554E-01-4.84287E+00 8.73968E-13-1.20414E-12
 -1       305 3.83994E-01-9.94261E+00-9.26494E-01-2.06477E+00 3.86358E-13-1.31124E-12
 -1       306-1.29864E+00-1.11301E+01-1.02192E+00 4.90728E-02-4.47154E-13-1.43535E-12
 -1       307 5.01665E-01-9.57258E+00-8.62704E-01 2.36944E+00-1.12488E-12-1.19264E-12
 -1       308 5.58297E+00-6.67539E+00-6.88538E-01 4.40350E+00-1.85355E-12-1.31282E-12
 -1       309 1.37481E+01-2.64098E+00-3.00197E-01 6.49449E+00-1.90686E-12-1.48848E-12
 -1       310 2.30261E+01 8.43945E-01 9.48557E-02 7.58619E+00-1.76426E-12-1.70297E-12
 -1       311 3.24406E+01 3.58609E+00 4.79666E-01 7.38109E+00-1.58173E-12-1.38634E-12
 -1       312 4.05878E+01 5.45361E+00 8.11917E-01 5.61424E+00-1.29446E-12-1.00236E-12
 -1       313 4.55540E+01 6.42676E+00 9.89910E-01 2.57835E+00-1.06151E-12-4.99253E-13
 -1       314 4.47955E+01 6.98914E+00 8.68120E-01-9.93418E-01-9.19126E-13-5.97578E-14
 -1       315 4.26074E+01 5.84536E+00 8.74956E-01-4.71732E+00-8.53026E-13 6.74183E-13
 -1       316 3.51375E+01 4.06548E+00 5.36473E-01-6.47777E+00-9.06063E-13 9.62203E-13
 -1       317 2.60096E+01 1.79056E+00 2.11451E-01-7.66028E+00-8.98420E-13 1.12871E-12
 -1       318 1.70559E+01-1.84399E+00-1.65685E-01-6.91736E+00-8.72108E-13 7.64472E-13
 -1       319 8.85266E+00-5.22595E+00-4.80385E-01-5.53797E+00-5.76678E-13 1.16791E-12
 -1       320 2.64234E+00-8.27237E+00-7.32266E-01-3.52204E+00-2.26319E-13 1.07785E-12
 -1       321-6.60587E-01-9.62407E+00-8.00627E-01-1.40149E+00 1.80148E-13 8.29337E-13
 -1       322 2.01594E+01 3.02172E+00-1.77535E-02-2.06845E+00-5.11997E-13-6.07962E-13
 -1       323 2.07532E+01 2.20857E+00-1.76512E-02-2.32763E+00-6.09191E-13-2.89112E-13
 -1       324 1.95988E+01 3.72169E+00-1.54639E-02-1.27839E+00-2.28516E-13-8.68097E-13
 -1       325 1.94711E+01 3.88865E+00-1.34846E-02-8.91387E-01-9.52792E-14-8.81879E-13
 -1       326 1.93965E+01 3.98774E+00-1.24488E-02-5.22855E-01 3.00272E-14-8.30923E-13
 -1       327 1.93626E+01 4.03339E+00-1.20091E-02-1.66133E-01 1.56653E-13-8.16926E-13
 -1       328 1.93641E+01 4.03178E+00-1.20286E-02 1.86730E-01 2.67775E-13-7.71214E-13
 -1       329 1.94011E+01 3.98257E+00-1.25022E-02 5.43802E-01 3.69618E-13-7.14162E-13
 -1       330 1.94776E+01 3.88135E+00-1.35609E-02 9.06529E-01 4.75095E-13-6.12668E-13
 -1       331 1.96101E+01 3.70830E+00-1.55053E-02 1.29293E+00 5.83550E-13-4.65518E-13
 -1       332 1.98278E+01 3.42760E+00-1.87290E-02 1.69521E+00 6.79940E-13-2.64904E-13
 -1       333 2.01934E+01 2.96171E+00-2.27824E-02 2.08536E+00 7.39137E-13 4.14989E-14
 -1       334 2.07462E+01 2.12862E+00-3.02476E-02 2.28697E+00 7.09350E-13 5.80430E-13
 -1       335 2.10776E+01 1.18601E+00-2.46430E-02 1.89426E+00 6.00329E-13 1.07099E-12
 -1       336 2.03919E+01 4.92119E-01 8.49177E-03 8.96505E-01 4.94817E-13 8.66796E-13
 -1       337 2.04708E+01 6.81893E-01 1.26900E-02-9.84734E-01-5.01107E-13-1.78458E-13
 -1       338 2.00720E+01 3.50207E-01 7.34216E-03-4.04792E-01-3.84081E-13-1.90049E-13
 -1       339 1.98493E+01 1.96422E-01 4.39801E-03-7.65281E-02-2.61532E-13-2.21498E-13
 -1       340 1.97559E+01 1.18234E-01 2.22964E-03 1.21704E-01-1.54873E-13-2.97196E-13
 -1       341 1.97562E+01 7.82506E-02 1.22115E-03 2.49181E-01-1.08781E-13-3.33923E-13
 -1       342 1.98241E+01 5.97013E-02 8.15680E-04 3.39246E-01-1.21445E-13-3.32363E-13
 -1       343 1.99428E+01 5.41338E-02 6.76810E-04 4.11932E-01-1.46601E-13-3.71506E-13
 -1       344 2.01027E+01 5.63426E-02 6.52850E-04 4.79552E-01-1.51075E-13-3.35508E-13
 -1       345 2.02989E+01 6.21557E-02 6.64755E-04 5.49035E-01-1.09751E-13-3.68162E-13
 -1       346 2.05296E+01 6.72048E-02 6.48618E-04 6.22549E-01-9.66178E-14-3.56922E-13
 -1       347 2.07939E+01 6.60259E-02 5.32971E-04 6.97026E-01-8.14578E-14-3.81972E-13
 -1       348 2.10908E+01 5.13388E-02 2.32995E-04 7.62893E-01 1.89877E-14-3.13243E-13
 -1       349 2.14170E+01 1.37443E-02-3.41598E-04 8.02300E-01-1.41749E-14-2.41115E-13
 -1       350 2.17654E+01-5.73994E-02-1.25955E-03 7.87537E-01-1.64864E-14-2.34058E-13
 -1       351 2.21221E+01-1.70423E-01-2.50203E-03 6.81281E-01 4.28047E-14-1.84846E-13
 -1       352 2.24629E+01-3.22996E-01-3.84577E-03 4.41923E-01-6.85054E-14-2.54518E-13
 -1       353 2.27480E+01-4.88042E-01-4.85155E-03 3.91980E-02-8.12568E-14-2.16264E-13
 -1       354 2.29173E+01-5.98703E-01-4.83179E-03-5.15156E-01 5.84897E-14-1.43677E-13
 -1       355 2.28972E+01-5.49264E-01-3.24494E-03-1.12465E+00 1.16010E-13-1.09369E-13
 -1       356 2.26365E+01-2.43714E-01-6.43321E-04-1.57916E+00 9.15754E-14-2.16908E-13
 -1       357 2.21792E+01 2.97815E-01 1.60062E-03-1.60310E+00 3.61675E-14-2.10076E-13
 -1       358 2.17190E+01 8.53358E-01 2.51271E-03-1.02851E+00-2.36691E-13-1.96744E-13
 -1       359 2.15229E+01 1.09446E+00 3.06104E-03-7.04511E-04-9.98993E-14-4.86065E-13
 -1       360 2.17204E+01 8.58639E-01 3.36755E-03 1.03066E+00-1.35563E-13-6.33853E-13
 -1       361 2.21853E+01 3.03270E-01 2.23436E-03 1.61061E+00-1.52764E-13-5.38290E-13
 -1       362 2.26484E+01-2.37802E-01-4.92726E-04 1.59277E+00 9.56949E-15-5.67359E-13
 -1       363 2.29176E+01-5.43543E-01-3.18831E-03 1.14445E+00 1.72744E-13-6.52415E-13
 -1       364 2.29482E+01-5.92759E-01-4.81378E-03 5.41288E-01 1.60318E-13-6.92073E-13
 -1       365 2.27917E+01-4.81149E-01-4.77844E-03-6.07759E-03-2.96529E-15-5.35950E-13
 -1       366 2.25224E+01-3.14304E-01-3.74736E-03-4.00221E-01 9.84956E-14-3.42823E-13
 -1       367 2.22009E+01-1.59417E-01-2.36191E-03-6.28809E-01 1.66782E-13-2.26474E-13
 -1       368 2.18681E+01-4.38157E-02-1.09959E-03-7.21788E-01 7.18446E-14-2.12483E-13
 -1       369 2.15487E+01 2.98707E-02-1.59021E-04-7.20747E-01-4.37549E-14-1.97064E-13
 -1       370 2.12569E+01 6.97007E-02 4.37637E-04-6.63329E-01-2.49789E-14-2.97545E-13
 -1       371 2.09997E+01 8.59764E-02 7.51715E-04-5.77918E-01-2.25202E-14-1.64098E-13
 -1       372 2.07796E+01 8.75858E-02 8.66056E-04-4.83569E-01 9.41865E-14-3.50821E-13
 -1       373 2.05961E+01 8.10455E-02 8.55902E-04-3.91844E-01 1.02152E-13-5.45546E-13
 -1       374 2.04466E+01 7.06899E-02 7.77778E-04-3.08953E-01-8.11533E-14-3.33213E-13
 -1       375 2.03273E+01 5.91949E-02 6.69830E-04-2.37580E-01-2.33643E-13-9.17935E-14
 -1       376 2.02342E+01 4.80944E-02 5.55627E-04-1.78235E-01-2.51543E-13-3.67609E-14
 -1       377 2.01629E+01 3.81860E-02 4.48560E-04-1.30192E-01 1.44223E-13-2.52537E-13
 -1       378 2.01096E+01 2.98153E-02 3.54880E-04-9.20982E-02 2.98236E-13 1.97708E-13
 -1       379 2.00707E+01 2.30505E-02 2.75285E-04-6.23637E-02 2.96099E-13 3.41158E-15
 -1       380 2.00430E+01 1.77690E-02 2.11307E-04-3.94400E-02-1.04655E-13 1.59735E-13
 -1       381 2.00239E+01 1.36177E-02 1.82921E-04-2.19434E-02 1.90798E-13 5.68358E-14
 -1       382 2.00118E+01 9.43783E-03 7.79811E-05-9.79182E-03 2.93837E-13 5.09887E-14
 -1       383 1.99146E+01 2.35288E-01 1.09507E-02 3.59511E-01 3.95235E-13 6.91283E-13
 -1       384 1.96589E+01 1.26486E-01 6.41472E-03 6.66747E-02 2.93342E-13 5.44027E-13
 -1       385 1.95688E+01 7.37883E-02 3.15245E-03-1.03115E-01 2.14154E-13 4.17797E-13
 -1       386 1.95894E+01 4.79001E-02 1.64881E-03-2.09038E-01 1.30410E-13 3.28903E-13
 -1       387 1.96863E+01 3.66630E-02 1.06734E-03-2.82983E-01 8.83054E-14 2.31115E-13
 -1       388 1.98400E+01 3.45158E-02 8.83642E-04-3.43668E-01 1.00217E-13 2.49728E-13
 -1       389 2.00409E+01 3.84432E-02 8.76598E-04-4.03077E-01 1.05416E-13 2.30260E-13
 -1       390 2.02862E+01 4.63280E-02 9.48696E-04-4.69050E-01 5.36676E-14 2.75984E-13
 -1       391 2.05769E+01 5.60705E-02 1.03016E-03-5.46085E-01 1.29362E-13 2.00555E-13
 -1       392 2.09163E+01 6.48511E-02 1.03990E-03-6.34973E-01 1.21173E-13 2.23453E-13
 -1       393 2.13071E+01 6.82814E-02 8.69598E-04-7.31353E-01 9.19508E-14 1.48441E-13
 -1       394 2.17491E+01 5.93998E-02 3.83307E-04-8.23081E-01-2.12983E-14 1.67687E-13
 -1       395 2.22357E+01 2.78154E-02-5.54160E-04-8.86468E-01-4.56756E-14 1.88514E-13
 -1       396 2.27496E+01-3.99481E-02-2.00084E-03-8.82247E-01-4.06282E-14 2.00952E-13
 -1       397 2.32576E+01-1.56396E-01-3.79219E-03-7.54230E-01 9.41155E-14 3.15417E-13
 -1       398 2.37044E+01-3.20934E-01-5.35922E-03-4.37647E-01 6.96223E-14 3.99924E-13
 -1       399 2.40071E+01-4.96920E-01-5.89639E-03 1.10669E-01-1.41033E-13 5.04142E-13
 -1       400 2.40596E+01-5.87301E-01-5.09613E-03 8.50330E-01-2.01743E-13 5.17041E-13
 -1       401 2.37658E+01-4.44651E-01-3.43275E-03 1.57779E+00-2.83762E-14 5.14572E-13
 -1       402 2.31348E+01 1.80805E-02-2.70213E-03 1.91190E+00 1.96170E-13 5.29590E-13
 -1       403 2.24001E+01 6.52581E-01-3.25528E-03 1.48329E+00 2.69630E-13 4.03578E-13
 -1       404 2.19846E+01 1.05080E+00-3.31899E-03 3.07670E-01 1.00965E-13 2.84385E-13
 -1       405 2.21833E+01 8.91927E-01-9.89062E-04-1.04058E+00 1.27807E-13 7.28445E-14
 -1       406 2.28590E+01 3.10364E-01 1.63919E-03-1.84034E+00 2.17338E-13-1.89583E-13
 -1       407 2.35888E+01-2.69579E-01 4.61936E-04-1.81351E+00 1.59290E-13-4.87314E-14
 -1       408 2.40375E+01-5.58047E-01-3.78945E-03-1.20549E+00-5.82364E-14 5.90224E-14
 -1       409 2.41186E+01-5.54515E-01-7.03171E-03-4.35542E-01 1.52015E-13 9.61112E-14
 -1       410 2.39067E+01-3.99680E-01-7.21109E-03 2.05272E-01 5.80092E-14 2.45253E-13
 -1       411 2.35154E+01-2.20460E-01-5.46749E-03 6.13827E-01-2.60460E-14 1.14936E-14
 -1       412 2.30408E+01-7.90833E-02-3.15420E-03 8.07000E-01 1.16555E-14-2.31372E-13
 -1       413 2.25491E+01 1.10597E-02-1.14596E-03 8.45982E-01-1.51754E-13-5.88957E-14
 -1       414 2.20817E+01 5.87262E-02 2.26110E-04 7.92767E-01-7.34183E-14 1.76112E-13
 -1       415 2.16615E+01 7.77470E-02 9.93358E-04 6.94324E-01 1.98309E-13 2.67386E-13
 -1       416 2.12986E+01 7.99539E-02 1.31738E-03 5.81047E-01 1.58270E-13 1.85704E-13
 -1       417 2.09950E+01 7.35299E-02 1.36430E-03 4.70318E-01-9.28292E-14 4.24236E-14
 -1       418 2.07474E+01 6.34896E-02 1.26172E-03 3.70781E-01 2.52364E-14-7.99744E-14
 -1       419 2.05501E+01 5.26382E-02 1.09355E-03 2.85769E-01-1.54739E-13-4.24942E-15
 -1       420 2.03959E+01 4.24051E-02 9.08960E-04 2.15646E-01 1.51299E-14 1.94829E-13
 -1       421 2.02778E+01 3.34260E-02 7.33994E-04 1.59269E-01-5.00006E-14 2.06224E-13
 -1       422 2.01892E+01 2.59094E-02 5.80201E-04 1.14833E-01 4.18197E-14 1.58183E-13
 -1       423 2.01241E+01 1.98468E-02 4.50754E-04 8.03407E-02 2.01732E-13 1.19240E-13
 -1       424 2.00776E+01 1.51204E-02 3.43881E-04 5.38523E-02-5.06654E-14 8.06212E-14
 -1       425 2.00454E+01 1.15417E-02 2.56080E-04 3.36249E-02 8.82450E-14 1.18344E-13
 -1       426 2.00241E+01 8.81901E-03 1.74577E-04 1.82798E-02-2.16813E-14 2.37762E-13
 -1       427 2.00108E+01 6.37632E-03 1.15482E-04 6.98786E-03-1.52150E-13 4.62925E-13
 -1       428 2.00055E+01 4.67180E-03 5.32248E-05 2.29137E-03-1.43883E-13 3.91633E-13
 -1       429 2.00050E+01 3.78803E-02 4.53663E-05 2.51909E-02 1.64971E-13 4.85328E-14
 -1       430 2.00088E+01 2.30861E-02 7.50145E-05 1.83534E-02 2.99936E-14 4.57913E-13
 -1       431 2.00085E+01 1.23397E-02 7.99874E-05 9.82487E-03-1.42681E-13 3.23671E-13
 -1       432 2.00001E+01 5.31346E-02 2.56315E-06 2.74108E-02-6.94931E-14-6.69335E-13
 -1       433 1.99952E+01 6.72766E-02-3.78375E-05 2.44154E-02-5.86163E-15 4.33581E-14
 -1       434 1.99914E+01 7.80091E-02-7.09982E-05 1.67585E-02-3.16117E-14-1.10610E-13
 -1       435 1.99893E+01 8.37591E-02-8.95318E-05 5.95604E-03-1.73245E-13-1.76448E-13
 -1       436 1.99893E+01 8.36789E-02-8.96459E-05-5.93848E-03-3.40038E-13-5.60416E-13
 -1       437 1.99914E+01 7.77905E-02-7.11844E-05-1.67039E-02-4.29709E-13-5.20063E-13
 -1       438 1.99951E+01 6.72068E-02-3.83299E-05-2.42237E-02-6.13166E-14-2.67584E-13
 -1       439 2.00000E+01 5.31011E-02-1.56026E-06-2.72969E-02 2.06232E-14 4.45866E-13
 -1       440 2.00049E+01 3.76708E-02 3.59356E-05-2.51309E-02 3.30484E-14 2.61668E-13
 -1       441 2.00088E+01 2.27013E-02 6.45379E-05-1.82666E-02-9.74724E-14-3.98462E-14
 -1       442 1.05845E+01-5.28240E+00 1.52068E-02 6.81787E+00-6.76681E-14 4.40321E-13
 -1       443 1.16056E+00-4.31847E+00-6.44717E-02 1.19495E-01-8.98734E-14 6.45983E-13
 -1       444 3.43611E+00-4.55773E+00-4.23683E-02 4.01140E+00-9.32587E-14 3.87523E-13
 -1       445 1.77091E+01-5.68817E+00-3.13188E-02 6.72205E+00 2.16493E-14 5.31464E-13
 -1       446 2.69571E+01-3.54368E+00 1.79845E-02 4.07445E+00 3.06005E-13 2.44901E-13
 -1       447 1.98214E+01 3.44887E+00-1.75571E-02-1.69475E+00-3.75776E-13-7.77781E-13
 -1       448 3.47833E+01 4.71452E+00 1.94749E-02-2.48390E-01 1.20767E-12-9.85462E-14
 -1       449 3.54089E+01 7.90268E+00 1.24772E-02-1.13143E-01 1.34415E-12-1.40478E-14
 -1       450 3.54837E+01 7.23321E+00 3.86560E-02 4.08539E-01 1.23734E-12-7.17690E-14
 -1       451 3.38933E+01 3.22608E+00 1.05022E-02-4.06684E-02 7.82076E-13-3.28196E-13
 -1       452 3.07539E+01-6.98920E-01 4.21721E-02-2.88014E+00 7.03902E-13-7.11264E-13
 -1       453 2.36091E+01-4.15077E+00-2.34805E-02-5.54785E+00 4.69624E-13-8.92578E-13
 -1       454 1.51033E+01-5.66703E+00-5.64333E-02-6.91997E+00 1.48576E-13-8.06692E-13
 -1       455 6.69487E+00-4.92242E+00-7.85217E-03-5.80588E+00-2.06987E-13-1.10761E-12
 -1       456 1.67475E+00-4.68911E+00-8.68691E-02-2.22974E+00-1.42650E-13-1.57521E-12
 -1       457 1.55240E+00-4.59529E+00-8.72428E-02 2.15843E+00-1.02834E-13-1.47515E-12
 -1       458 6.43018E+00-5.40844E+00-9.68894E-02 5.91913E+00-2.02005E-13-8.81753E-13
 -1       459 1.42208E+01-5.52586E+00-6.50436E-02 7.06006E+00-5.16032E-13-7.33385E-13
 -1       460 2.26216E+01-4.36058E+00-1.01898E-02 5.85897E+00-7.06518E-13-5.82201E-13
 -1       461 2.90360E+01-1.53185E+00 2.19883E-02 3.48146E+00-8.97116E-13-3.11404E-13
 -1       462 3.32793E+01 2.42101E+00 5.30043E-02 1.28487E+00-1.12878E-12-2.62096E-13
 -1       463 3.47878E+01 6.08000E+00 3.53747E-02-2.04798E-01-1.16740E-12-2.24321E-13
 -1       464 3.55620E+01 7.92340E+00 5.11920E-02-8.19214E-02-1.07683E-12-3.18856E-13
 -1       465 3.51614E+01 6.88828E+00 4.20442E-02 2.31870E-01-9.83782E-13-3.63168E-13
 -1       466 3.44402E+01 3.89953E+00 8.48972E-02-8.29815E-01-6.79179E-13-2.02088E-13
 -1       467 3.04146E+01-5.08881E-01 1.84311E-02-2.70091E+00-2.71724E-13 4.16334E-15
 -1       468 2.51296E+01-3.57457E+00 5.31413E-03-5.02344E+00 7.28168E-14 2.50272E-13
 -1       469 1.75499E+01-5.33770E+00-2.65329E-02-6.85442E+00 2.59903E-13 2.11109E-13
 -1       470 9.54165E+00-5.46347E+00-6.50626E-02-6.70687E+00 4.35915E-13 8.38926E-13
 -1       471 3.77750E+00-4.64661E+00-4.64680E-02-4.43466E+00 1.86573E-13 8.68791E-13
 -1       472 3.15936E+01-1.17811E-01-2.16177E-03 1.57620E+00 7.15346E-13 4.61853E-14
 -1       473 3.17207E+01 6.37463E+00-1.24108E-01-1.29010E+00 1.16487E-12-1.04354E-13
 -1       474 2.03971E+01 8.46397E-01 4.06806E-03 9.18548E-01 5.40408E-13 2.92723E-13
 -1       475 1.97291E+01 3.17293E+00-5.23835E-03-5.98099E-01-4.30056E-14-7.66346E-13
 -1       476 1.98356E+01 2.98582E+00-5.64682E-03-9.01424E-01-1.61273E-13-7.74230E-13
 -1       477 1.96516E+01 3.30757E+00-4.90631E-03 8.54387E-03 1.96600E-13-7.09416E-13
 -1       478 1.96730E+01 3.27148E+00-4.99244E-03 3.11006E-01 3.04185E-13-6.80368E-13
 -1       479 1.97341E+01 3.16598E+00-5.32234E-03 6.09865E-01 4.05702E-13-5.88101E-13
 -1       480 1.98426E+01 2.97476E+00-5.89888E-03 9.12904E-01 5.11424E-13-4.68945E-13
 -1       481 2.00074E+01 2.67349E+00-6.49384E-03 1.20167E+00 5.91036E-13-3.18545E-13
 -1       482 2.02535E+01 2.21130E+00-5.67579E-03 1.44649E+00 6.41965E-13-1.09527E-13
 -1       483 2.01567E+01 4.78140E-01 5.18803E-03 3.93021E-01 4.27981E-13 2.19444E-13
 -1       484 2.03723E+01 9.95715E-01 2.83581E-03-8.77059E-01-4.19571E-13-3.85101E-13
 -1       485 3.05845E+01 1.24515E+00-1.17235E-01-1.53592E+00 6.99149E-13-5.96752E-13
 -1       486 2.02184E+01 5.81388E-01 2.42692E-03-3.83016E-01-3.25329E-13-3.48750E-13
 -1       487 2.00955E+01 3.54713E-01 1.23057E-03-5.11164E-02-2.29864E-13-3.34057E-13
 -1       488 2.00273E+01 2.30227E-01 6.28527E-04 1.71645E-01-1.72542E-13-3.37868E-13
 -1       489 2.00107E+01 1.64100E-01 3.69524E-04 3.27850E-01-1.37738E-13-3.82884E-13
 -1       490 2.00372E+01 1.33848E-01 2.82220E-04 4.46700E-01-1.64991E-13-3.66489E-13
 -1       491 2.00991E+01 1.26093E-01 2.66217E-04 5.47900E-01-9.17658E-14-3.52695E-13
 -1       492 2.01911E+01 1.31249E-01 2.77787E-04 6.44178E-01-1.06748E-13-2.68745E-13
 -1       493 2.03107E+01 1.40635E-01 2.90628E-04 7.42474E-01-1.01011E-13-1.81432E-13
 -1       494 2.04578E+01 1.44558E-01 2.77428E-04 8.44086E-01-7.72902E-14-1.50138E-13
 -1       495 2.06348E+01 1.30792E-01 2.03342E-04 9.43952E-01-1.50229E-14-1.84381E-13
 -1       496 2.08473E+01 8.34912E-02 2.49126E-05 1.02920E+00 2.53252E-14-3.04454E-13
 -1       497 2.11043E+01-1.67039E-02-3.06487E-04 1.07717E+00 6.76551E-15-1.78367E-13
 -1       498 2.14182E+01-1.89603E-01-8.39056E-04 1.05348E+00 3.48092E-14-1.04226E-13
 -1       499 2.18023E+01-4.46223E-01-1.55665E-03 9.11645E-01-8.48835E-14-9.87076E-14
 -1       500 2.22606E+01-7.68951E-01-2.21685E-03 5.97972E-01-2.00019E-14-1.13420E-13
 -1       501 2.27672E+01-1.08058E+00-2.67179E-03 7.03999E-02 1.08223E-14 1.92872E-14
 -1       502 2.32402E+01-1.21706E+00-2.73841E-03-6.58436E-01 1.11365E-13 9.90400E-14
 -1       503 2.35269E+01-9.41728E-01-2.83575E-03-1.44746E+00 8.17652E-14 9.11795E-14
 -1       504 2.34798E+01-9.98879E-02-4.88474E-03-1.96198E+00 9.68617E-15 1.21519E-13
 -1       505 2.31130E+01 1.12954E+00-9.08598E-03-1.77286E+00-1.95940E-13-9.35600E-14
 -1       506 2.27454E+01 2.08623E+00-1.17199E-02-7.25290E-01-3.05462E-13-2.99956E-13
 -1       507 2.27474E+01 2.09161E+00-1.04322E-02 7.24247E-01-3.45896E-13-4.83467E-13
 -1       508 2.31188E+01 1.13728E+00-7.20056E-03 1.78342E+00-1.77216E-13-6.37358E-13
 -1       509 2.34851E+01-8.45639E-02-4.49930E-03 1.97734E+00-1.08986E-13-6.29681E-13
 -1       510 2.35419E+01-9.30725E-01-2.68974E-03 1.47066E+00 8.13646E-14-5.42957E-13
 -1       511 2.32608E+01-1.20473E+00-2.83759E-03 6.89032E-01 2.63468E-13-3.84415E-13
 -1       512 2.27958E+01-1.06777E+00-2.66006E-03-3.20610E-02 1.47817E-13-4.11675E-13
 -1       513 2.22969E+01-7.52715E-01-2.18376E-03-5.50163E-01 2.03303E-13-2.12587E-13
 -1       514 2.18486E+01-4.25882E-01-1.43865E-03-8.51746E-01 1.92109E-13-1.58102E-13
 -1       515 2.14763E+01-1.64368E-01-7.48099E-04-9.78737E-01 9.10679E-14 1.47269E-14
 -1       516 2.11765E+01 1.34197E-02-2.27660E-04-9.84679E-01-8.31339E-14-2.44507E-14
 -1       517 2.09360E+01 1.17928E-01 1.10787E-04-9.16558E-01-1.48952E-13-7.90162E-14
 -1       518 2.07416E+01 1.68321E-01 2.98856E-04-8.09576E-01 8.73883E-14 4.63114E-14
 -1       519 2.05836E+01 1.82981E-01 3.77944E-04-6.87837E-01 1.18721E-13 4.68273E-14
 -1       520 2.04547E+01 1.76297E-01 3.88746E-04-5.66589E-01-2.08519E-13-3.18308E-14
 -1       521 2.03500E+01 1.58371E-01 3.61064E-04-4.54607E-01 7.26077E-15-3.67679E-13
 -1       522 2.02656E+01 1.35778E-01 3.15158E-04-3.56214E-01 1.20628E-13-4.11767E-13
 -1       523 2.01982E+01 1.12518E-01 2.63687E-04-2.72844E-01-5.51860E-14-7.42782E-14
 -1       524 2.01451E+01 9.08369E-02 2.13788E-04-2.04168E-01-2.12376E-13 2.29849E-14
 -1       525 2.01040E+01 7.18546E-02 1.69878E-04-1.48881E-01 3.06046E-13 1.13666E-13
 -1       526 2.00724E+01 5.59906E-02 1.33852E-04-1.05213E-01 7.64698E-14 1.34826E-13
 -1       527 2.00486E+01 4.31548E-02 1.04190E-04-7.12942E-02 1.20362E-13-8.91097E-14
 -1       528 2.00307E+01 3.29448E-02 9.07792E-05-4.53858E-02 1.73851E-13 1.07644E-13
 -1       529 1.99224E+01 1.79023E-01 1.23851E-03-1.53822E-01 2.74388E-13 8.36548E-14
 -1       530 1.99157E+01 1.26232E-01 6.93731E-04-3.01260E-01 1.59820E-13-1.24084E-14
 -1       531 1.99633E+01 1.04179E-01 5.10580E-04-4.12844E-01 8.81531E-14-3.13005E-14
 -1       532 2.00544E+01 1.02203E-01 4.82030E-04-5.09764E-01 8.92699E-14-4.12380E-14
 -1       533 2.01823E+01 1.13572E-01 5.24619E-04-6.06336E-01 8.73249E-14 5.35238E-15
 -1       534 2.03437E+01 1.32764E-01 5.95668E-04-7.11809E-01 1.24564E-13 1.41276E-14
 -1       535 2.05381E+01 1.53642E-01 6.53969E-04-8.30747E-01 1.48824E-13 1.54420E-14
 -1       536 2.07669E+01 1.67702E-01 6.43849E-04-9.62261E-01 1.02748E-13-2.85193E-14
 -1       537 2.10337E+01 1.62061E-01 4.86918E-04-1.09806E+00-2.19928E-14-2.15811E-15
 -1       538 2.13448E+01 1.17409E-01 8.06440E-05-1.21920E+00-2.57236E-14 1.62507E-14
 -1       539 2.17103E+01 7.12571E-03-6.82764E-04-1.29175E+00-6.51217E-14 5.49103E-14
 -1       540 2.21452E+01-1.99190E-01-1.86474E-03-1.26234E+00-6.16250E-14 7.38332E-14
 -1       541 2.26654E+01-5.21033E-01-3.31662E-03-1.05663E+00-1.17705E-14 3.02861E-13
 -1       542 2.32723E+01-9.30485E-01-4.37260E-03-5.89555E-01-1.15157E-13 4.50211E-13
 -1       543 2.39141E+01-1.29281E+00-4.72793E-03 1.92652E-01-2.56087E-13 5.01258E-13
 -1       544 2.44446E+01-1.32558E+00-6.21825E-03 1.21732E+00-6.45873E-14 5.66977E-13
 -1       545 2.46119E+01-6.64171E-01-1.09475E-02 2.14047E+00 8.91318E-14 4.47242E-13
 -1       546 2.43027E+01 7.17143E-01-1.80621E-02 2.32961E+00 3.52169E-13 4.23364E-13
 -1       547 2.37965E+01 2.12480E+00-2.73482E-02 1.29411E+00 4.29856E-13 3.16523E-13
 -1       548 2.36767E+01 2.43368E+00-2.88164E-02-5.69401E-01 3.50940E-13-1.17207E-13
 -1       549 2.40868E+01 1.36798E+00-2.37968E-02-2.06017E+00 3.91139E-13-2.73050E-13
 -1       550 2.45485E+01-1.53050E-01-1.05839E-02-2.36256E+00 1.99687E-13-3.42084E-13
 -1       551 2.45863E+01-1.14487E+00-6.05566E-03-1.66160E+00-6.79358E-14-3.62157E-13
 -1       552 2.41826E+01-1.36285E+00-6.38907E-03-6.23124E-01-9.30103E-14-2.35939E-13
 -1       553 2.35707E+01-1.09213E+00-5.74473E-03 2.74338E-01-6.85138E-14-8.47535E-14
 -1       554 2.29480E+01-6.73549E-01-4.38525E-03 8.60746E-01 2.22203E-13-5.84000E-14
 -1       555 2.24026E+01-3.03388E-01-2.64260E-03 1.15322E+00 1.26805E-13-1.47186E-13
 -1       556 2.19496E+01-4.59123E-02-1.08095E-03 1.23158E+00-2.55271E-13 1.62201E-13
 -1       557 2.15764E+01 1.04558E-01-1.09606E-05 1.17689E+00-2.57234E-13 1.96133E-13
 -1       558 2.12668E+01 1.76274E-01 5.92533E-04 1.05168E+00-3.87472E-14 3.34719E-13
 -1       559 2.10087E+01 1.97971E-01 8.62700E-04 8.98055E-01 2.68725E-13 5.66288E-13
 -1       560 2.07937E+01 1.91478E-01 9.22887E-04 7.41649E-01 1.21614E-13 3.40513E-13
 -1       561 2.06158E+01 1.71198E-01 8.66988E-04 5.96477E-01 5.47893E-15 3.17745E-13
 -1       562 2.04704E+01 1.45793E-01 7.57845E-04 4.69062E-01 9.63324E-14 3.62186E-13
 -1       563 2.03532E+01 1.20069E-01 6.32953E-04 3.61402E-01-3.78878E-13 1.90417E-13
 -1       564 2.02602E+01 9.64515E-02 5.12115E-04 2.72950E-01 1.57833E-14 2.43307E-13
 -1       565 2.01878E+01 7.59823E-02 4.04858E-04 2.01864E-01 4.79002E-14 1.63393E-13
 -1       566 2.01322E+01 5.89583E-02 3.13942E-04 1.45751E-01-2.79845E-15 3.21968E-13
 -1       567 2.00903E+01 4.52554E-02 2.38562E-04 1.02094E-01-4.65275E-15 7.21431E-13
 -1       568 2.00594E+01 3.45198E-02 1.87857E-04 6.85652E-02 2.55530E-14 7.28062E-13
 -1       569 2.00369E+01 2.62762E-02 1.67836E-04 4.31340E-02 5.08666E-15 6.91243E-13
 -1       570 2.00207E+01 1.94867E-02 1.26660E-04 2.40733E-02-1.52621E-13 8.18317E-13
 -1       571 1.99938E+01 7.91318E-02-1.16393E-05 4.01744E-02-6.04665E-14-3.53859E-13
 -1       572 1.99845E+01 9.40572E-02-2.60540E-05 3.12694E-02-5.76343E-15 2.79141E-13
 -1       573 2.00139E+01 4.14874E-02-7.76912E-06 3.72188E-02-2.15613E-14 2.38439E-13
 -1       574 2.00044E+01 6.09024E-02 1.53672E-06 4.22226E-02-2.44888E-13-3.27210E-13
 -1       575 1.99782E+01 1.03723E-01-3.73165E-05 1.70172E-02-2.32756E-13-1.87695E-13
 -1       576 1.99761E+01 1.06945E-01-4.15208E-05-1.11247E-04-2.15588E-13-3.28058E-13
 -1       577 1.99783E+01 1.03346E-01-3.69469E-05-1.71870E-02-1.31293E-13-4.42843E-13
 -1       578 1.99845E+01 9.36285E-02-2.49759E-05-3.11084E-02-4.08421E-14-1.50015E-13
 -1       579 1.99937E+01 7.86292E-02-1.71000E-05-3.99687E-02 2.72723E-14-6.07557E-14
 -1       580 2.00041E+01 6.04031E-02-1.46624E-05-4.20079E-02-1.80853E-14 3.55963E-13
 -1       581 2.00135E+01 4.12456E-02 3.70663E-05-3.70938E-02-5.65404E-14 2.93729E-13
 -1       582 5.33309E+00-1.37697E+00 1.83466E-01 2.21517E+00-2.07209E-13 5.22735E-13
 -1       583 9.77231E+00-2.73104E+00 1.51398E-01 5.64150E+00-2.60049E-13 1.08066E-13
 -1       584 5.01651E+00-1.52551E+00 1.66655E-01-2.37842E+00-1.20841E-13 5.81993E-13
 -1       585 1.99984E+01 2.82484E-01 2.61269E-03 6.11961E-02 3.18640E-13 1.59511E-13
 -1       586 1.67341E+01-5.05362E+00 9.45672E-02 6.62620E+00-3.72036E-13 1.54727E-13
 -1       587 2.39638E+01-5.50629E+00 1.77114E-02 4.48243E+00-2.30899E-13-1.12906E-13
 -1       588 2.04152E+01 1.77004E+00-5.97836E-03-1.48570E+00-5.08177E-13-4.95455E-13
 -1       589 9.39153E+00-3.50414E+00 1.29484E-01-6.17753E+00 5.28286E-13 4.03164E-13
 -1       590 3.05880E+01 3.05774E+00-1.31774E-01-1.56996E+00-9.62973E-13 1.46161E-13
 -1       591 1.96698E+01 3.27584E+00-4.98672E-03-2.94000E-01 8.77358E-14-7.29584E-13
 -1       592 3.00092E+01-8.49498E-01-1.17879E-01 9.69161E-01 3.28054E-13 3.54210E-13
 -1       593 3.01684E+01 6.90016E+00-1.90686E-01 5.07823E-01 1.09496E-12 5.34600E-13
 -1       594 3.06760E+01 4.29962E+00-1.48598E-01 1.65160E+00-6.74016E-13-5.64715E-13
 -1       595 3.00486E+01 4.32331E+00-1.62454E-01 2.11710E+00 8.89025E-13 7.94982E-13
 -1       596 2.78626E+01-4.08291E+00-2.56336E-02-1.96063E+00 2.69333E-14-7.65360E-15
 -1       597 2.17916E+01-5.68994E+00 3.45772E-02-5.59688E+00-2.67258E-13-6.90406E-13
 -1       598 1.40647E+01-4.64119E+00 1.03952E-01-6.76217E+00-4.03066E-13-6.51500E-13
 -1       599 6.33821E+00-2.28345E+00 1.48418E-01-4.10285E+00-2.92523E-13-1.14851E-12
 -1       600 4.50877E+00-1.29415E+00 1.78694E-01-8.97901E-02 5.34824E-14-1.49133E-12
 -1       601 6.83431E+00-2.44209E+00 1.53250E-01 4.74606E+00 3.02626E-13-8.91065E-13
 -1       602 1.35578E+01-4.44674E+00 1.16937E-01 6.94265E+00 3.72057E-13-5.66887E-13
 -1       603 2.07111E+01-5.56070E+00 4.85885E-02 5.96747E+00 1.18398E-13-9.85470E-14
 -1       604 2.66577E+01-4.44142E+00-2.16273E-02 2.86848E+00-2.06252E-13 2.08895E-13
 -1       605 2.96517E+01-1.09511E+00-8.77616E-02-1.63602E-01-5.69758E-13 2.55296E-13
 -1       606 3.04661E+01 6.49917E+00-1.56280E-01-1.14992E+00-1.03612E-12-6.02574E-14
 -1       607 3.00615E+01 7.25120E+00-1.61402E-01 5.49771E-01-8.87290E-13-2.47621E-13
 -1       608 3.03829E+01 4.13666E-01-9.14354E-02 6.39683E-01-2.82305E-13-5.09592E-13
 -1       609 2.79175E+01-3.50842E+00-4.15273E-02-1.93105E+00 2.54081E-13-2.81608E-13
 -1       610 2.32780E+01-5.40817E+00 2.27173E-02-4.90884E+00 5.51600E-13 2.04392E-13
 -1       611 1.61712E+01-4.91569E+00 8.65581E-02-6.82904E+00 7.92678E-13 2.71710E-13
 -1       612 2.88429E+01-3.12305E+00-5.76108E-02 6.68787E-01 1.46006E-13-4.16334E-13
 -1       613 2.05946E+01 1.31117E+00-9.46464E-04 1.50569E+00 6.46150E-13 4.05406E-13
 -1       614 1.99882E+01 2.68889E+00-9.67873E-03-1.18418E+00-2.94100E-13-7.18626E-13
 -1       615 1.17534E+01-2.64277E+00 1.36970E-01-5.70606E+00-4.79505E-13-7.75470E-13
 -1       616 2.90425E+01 3.30355E+00-1.36053E-01-2.43766E+00 7.09065E-13-3.69281E-13
 -1       617 2.00211E+01 2.67497E-02 8.34073E-05-3.12308E-02 7.41246E-14 2.45473E-13
 -1       618 1.99357E+01 2.55447E+00-1.55286E-03 3.57056E-01 3.29633E-13-5.38946E-13
 -1       619 1.98960E+01 2.63727E+00-1.49055E-03 1.22914E-01 2.10793E-13-6.10037E-13
 -1       620 2.01258E+01 2.11659E+00-1.57921E-03 7.81017E-01 4.76364E-13-3.31354E-13
 -1       621 2.02582E+01 1.72477E+00-2.23118E-03 9.19916E-01 5.24588E-13-1.95161E-13
 -1       622 2.03500E+01 1.07382E+00 2.90542E-03 7.55977E-01 5.09703E-13-1.21322E-15
 -1       623 2.62073E+01-4.59061E+00-1.95442E-02 1.66051E+00-1.66997E-13-2.03544E-13
 -1       624 2.02508E+01 6.70428E-01 1.18833E-03 3.17738E-01 3.99992E-13-1.52415E-14
 -1       625 2.02764E+01 7.46673E-01 6.04560E-04-2.80243E-01-2.55472E-13-4.15451E-13
 -1       626 2.02164E+01 4.89474E-01 2.52366E-04 1.47995E-02-1.98531E-13-4.11918E-13
 -1       627 2.01667E+01 3.40091E-01 1.24710E-04 2.29585E-01-1.53256E-13-3.91815E-13
 -1       628 2.01358E+01 2.59926E-01 7.92187E-05 3.91753E-01-1.38948E-13-3.44203E-13
 -1       629 2.01247E+01 2.25382E-01 7.49187E-05 5.23667E-01-8.28519E-14-2.84677E-13
 -1       630 2.01319E+01 2.19958E-01 8.20550E-05 6.42033E-01-5.15130E-14-2.78402E-13
 -1       631 2.01561E+01 2.30006E-01 9.27818E-05 7.58252E-01-5.08261E-14-2.17217E-13
 -1       632 2.01980E+01 2.41857E-01 1.01332E-04 8.78670E-01-6.82039E-14-2.27254E-13
 -1       633 2.02613E+01 2.39547E-01 9.93144E-05 1.00444E+00-9.89638E-14-1.99517E-13
 -1       634 2.03549E+01 2.02862E-01 7.28907E-05 1.13086E+00-4.49636E-14-1.90108E-13
 -1       635 2.04947E+01 1.06077E-01 3.23225E-06 1.24591E+00 7.11758E-14-1.59190E-13
 -1       636 2.07072E+01-8.12881E-02-1.39306E-04 1.32780E+00 9.53847E-14-2.00449E-13
 -1       637 2.10303E+01-3.88796E-01-4.34522E-04 1.34111E+00 4.14473E-15-1.44108E-13
 -1       638 2.15108E+01-8.29288E-01-8.67833E-04 1.23131E+00 5.67318E-14 1.04233E-14
 -1       639 2.21860E+01-1.36273E+00-8.32568E-04 9.20798E-01 1.16398E-13 2.34525E-13
 -1       640 2.30403E+01-1.83822E+00-9.89043E-04 3.26272E-01 1.42170E-13 3.73136E-13
 -1       641 2.39435E+01-1.94711E+00-3.92563E-03-5.87327E-01 1.63119E-13 4.26927E-13
 -1       642 2.46082E+01-1.23419E+00-8.20511E-03-1.64262E+00 3.03068E-14 3.73402E-13
 -1       643 2.46306E+01 5.22762E-01-2.33778E-02-2.28696E+00-3.19906E-13 1.61658E-13
 -1       644 2.42177E+01 2.65171E+00-4.65095E-02-1.72002E+00-5.51366E-13-1.00687E-13
 -1       645 2.39522E+01 3.70178E+00-6.24151E-02-6.43040E-03-5.07851E-13-4.15801E-13
 -1       646 2.43208E+01 2.64993E+00-3.31023E-02 1.70600E+00-2.74320E-13-3.35401E-13
 -1       647 2.46745E+01 5.47666E-01-3.12292E-02 2.25099E+00-2.53975E-13-4.16732E-13
 -1       648 2.46049E+01-1.21607E+00-1.13452E-02 1.65801E+00 1.66469E-13-3.87547E-13
 -1       649 2.39535E+01-1.92751E+00-4.30495E-03 6.16470E-01 3.34411E-13-2.61759E-13
 -1       650 2.30593E+01-1.82415E+00-1.09537E-03-2.86797E-01 3.21659E-13 7.04810E-14
 -1       651 2.22021E+01-1.33861E+00-8.27997E-04-8.74352E-01 2.47211E-13 3.47434E-13
 -1       652 2.15301E+01-8.00238E-01-4.85198E-04-1.17255E+00 1.91134E-13 8.77699E-14
 -1       653 2.10514E+01-3.52333E-01-2.59408E-04-1.26818E+00 1.37716E-13-1.75425E-13
 -1       654 2.07308E+01-3.74753E-02-8.52769E-05-1.23725E+00-7.08800E-14-2.12593E-13
 -1       655 2.05209E+01 1.56411E-01 3.51644E-05-1.13551E+00-1.08445E-13 7.74975E-14
 -1       656 2.03830E+01 2.58077E-01 1.05821E-04-9.99137E-01-1.66182E-15 2.99538E-13
 -1       657 2.02898E+01 2.96579E-01 1.31912E-04-8.51287E-01-4.81978E-14 5.99254E-14
 -1       658 2.02241E+01 2.95546E-01 1.34336E-04-7.06311E-01-8.02665E-15-2.08542E-13
 -1       659 2.01756E+01 2.72176E-01 1.23994E-04-5.72580E-01-2.74535E-13 1.66012E-14
 -1       660 2.01382E+01 2.38116E-01 1.07747E-04-4.54381E-01-1.15016E-13-1.79486E-13
 -1       661 2.01085E+01 2.00775E-01 8.99047E-05-3.53269E-01 3.91368E-14-4.35792E-13
 -1       662 2.00846E+01 1.64559E-01 7.26050E-05-2.69035E-01 1.51160E-14-3.41015E-13
 -1       663 2.00652E+01 1.31853E-01 5.65065E-05-2.00426E-01 1.08167E-13-1.69222E-14
 -1       664 2.00493E+01 1.03727E-01 4.27585E-05-1.45654E-01 2.16230E-13 8.22976E-14
 -1       665 2.00364E+01 8.04296E-02 4.88013E-05-1.02696E-01 1.10900E-13-1.05554E-13
 -1       666 2.00256E+01 6.15222E-02 2.74303E-05-6.96824E-02 2.12637E-13 4.03234E-13
 -1       667 2.00921E+01 2.23824E-01 1.86448E-04-3.75831E-01 1.47607E-13-2.18686E-14
 -1       668 2.56768E+01-4.58283E+00-9.61335E-03-2.11570E+00 4.97945E-13-4.36335E-13
 -1       669 2.01151E+01 2.93716E-01 2.61282E-04-2.11977E-01 2.49244E-13-1.14857E-15
 -1       670 2.01284E+01 2.01123E-01 1.80464E-04-6.29860E-01 6.52557E-14-5.36908E-14
 -1       671 2.01793E+01 2.24169E-01 2.07554E-04-7.52922E-01 7.40311E-14-7.37284E-14
 -1       672 2.02482E+01 2.57009E-01 2.40942E-04-8.86850E-01 1.61894E-13-4.13182E-14
 -1       673 2.03353E+01 2.87991E-01 2.66706E-04-1.03584E+00 1.58324E-13-2.58450E-14
 -1       674 2.04440E+01 3.00769E-01 2.61382E-04-1.19870E+00 5.84932E-14-2.40732E-14
 -1       675 2.05843E+01 2.71160E-01 1.92529E-04-1.36721E+00-1.57918E-14-6.91126E-14
 -1       676 2.07769E+01 1.64327E-01 1.43576E-05-1.52339E+00-9.00078E-14-3.73078E-14
 -1       677 2.10591E+01-6.55205E-02-3.14293E-04-1.63496E+00-1.35009E-13 5.18188E-14
 -1       678 2.14901E+01-4.67146E-01-8.60763E-04-1.64816E+00-1.68182E-13 1.65981E-13
 -1       679 2.21480E+01-1.06421E+00-1.46425E-03-1.47686E+00-1.69760E-13 2.88281E-13
 -1       680 2.30973E+01-1.78265E+00-6.83928E-04-9.96430E-01-1.86028E-13 3.44642E-13
 -1       681 2.43030E+01-2.33174E+00-6.60676E-05-7.65391E-02-2.70001E-13 3.41572E-13
 -1       682 2.54918E+01-2.10817E+00-2.16428E-02 1.27952E+00-8.34575E-15 4.98046E-13
 -1       683 2.60941E+01-4.70162E-01-4.14505E-02 2.42429E+00 2.17662E-13 5.24262E-13
 -1       684 2.59042E+01 2.35740E+00-8.03901E-02 2.41723E+00 6.23352E-13 3.30734E-13
 -1       685 2.56097E+01 4.30257E+00-1.00655E-01 5.13308E-01 6.71272E-13 2.76359E-14
 -1       686 2.57391E+01 3.44508E+00-1.01545E-01-1.82863E+00 5.31103E-13-1.58302E-13
 -1       687 2.61073E+01 6.53127E-01-5.67690E-02-2.64508E+00 3.13104E-13-2.77031E-13
 -1       688 2.58416E+01-1.64140E+00-2.08994E-02-1.82142E+00 1.59126E-13-3.13119E-13
 -1       689 2.48265E+01-2.36696E+00-6.44466E-03-4.57857E-01-7.32029E-14-2.07882E-13
 -1       690 2.35863E+01-2.04286E+00-2.51758E-03 6.44917E-01-1.04661E-13-2.54209E-13
 -1       691 2.25241E+01-1.33719E+00-1.78132E-03 1.28260E+00-1.34895E-13-1.69295E-14
 -1       692 2.17560E+01-6.66577E-01-1.29501E-03 1.55337E+00 9.97666E-14 3.43395E-13
 -1       693 2.12475E+01-1.78322E-01-5.78389E-04 1.58945E+00-9.52834E-15 4.38122E-13
 -1       694 2.09195E+01 1.23287E-01-8.34082E-05 1.49339E+00-2.59581E-13 2.53153E-13
 -1       695 2.07041E+01 2.80518E-01 1.64721E-04 1.33098E+00-1.52371E-13 1.56156E-13
 -1       696 2.05544E+01 3.41625E-01 2.80191E-04 1.14319E+00-1.41312E-15 1.72361E-13
 -1       697 2.04431E+01 3.45299E-01 3.15907E-04 9.54331E-01 2.47414E-13 2.40915E-13
 -1       698 2.03553E+01 3.18331E-01 3.05010E-04 7.78136E-01 1.27576E-13 4.08385E-13
 -1       699 2.02834E+01 2.77676E-01 2.71382E-04 6.21509E-01 6.23771E-15 9.11016E-14
 -1       700 2.02237E+01 2.33324E-01 2.29986E-04 4.87037E-01-7.51390E-14 5.29832E-13
 -1       701 2.01741E+01 1.90740E-01 1.88810E-04 3.74661E-01-1.99301E-13 3.77715E-13
 -1       702 2.01333E+01 1.52602E-01 1.50451E-04 2.82800E-01 5.43424E-14 3.80502E-13
 -1       703 2.01003E+01 1.19956E-01 1.14147E-04 2.09139E-01 1.32968E-14 3.34007E-13
 -1       704 2.00737E+01 9.30247E-02 8.58284E-05 1.51015E-01-2.01624E-13 2.68159E-13
 -1       705 2.00527E+01 7.13626E-02 7.12173E-05 1.05852E-01-1.30960E-13 3.12387E-13
 -1       706 2.00363E+01 5.43607E-02 9.54399E-05 7.13580E-02-1.71651E-13 4.95529E-13
 -1       707 2.00237E+01 4.78910E-02 5.98005E-05 5.25946E-02-3.07913E-13 4.20355E-13
 -1       708 1.99586E+01 1.35796E-01-1.43892E-05 1.17689E-02-3.51435E-14-2.29210E-13
 -1       709 2.00194E+01 5.06444E-02 8.63318E-06-5.19188E-02 1.58963E-13 2.73924E-13
 -1       710 1.99791E+01 1.12150E-01-6.40945E-06 5.13135E-02-1.57975E-13 9.16415E-14
 -1       711 1.99587E+01 1.35433E-01-1.41950E-05-1.24424E-02-2.27630E-14-4.93678E-13
 -1       712 1.99657E+01 1.27746E-01-1.20525E-05 3.41947E-02-1.55907E-13-2.28529E-13
 -1       713 2.70144E+01 5.92253E+00-1.60090E-01-5.63310E-01-8.30523E-13 2.06302E-14
 -1       714 1.99659E+01 1.26967E-01-9.97376E-06-3.43088E-02 5.72977E-14-3.45215E-13
 -1       715 1.99791E+01 1.11088E-01-1.76436E-05-5.11937E-02 4.56950E-14-8.41972E-14
 -1       716 1.99962E+01 8.96342E-02-2.18444E-05-5.99832E-02 2.20428E-13 2.08110E-13
 -1       717 2.72263E+01-3.20560E+00-5.02535E-02 1.40746E-01-1.74862E-13 4.27481E-13
 -1       718 2.79539E+01-1.47672E+00-8.26277E-02-1.82251E+00 2.94398E-13-5.35513E-13
 -1       719 2.72585E+01 3.66052E+00-1.33954E-01-2.16042E+00-7.53224E-13 1.46320E-13
 -1       720 2.03024E+01 1.71535E+00 9.20622E-05-1.07383E+00-3.74935E-13-5.38566E-13
 -1       721 7.82588E+00 1.16541E-01 1.51705E-01-2.04455E-01-1.11177E-13 3.91590E-13
 -1       722 2.73628E+01 4.94966E+00-1.49648E-01 1.76219E+00-5.72715E-13-3.89314E-13
 -1       723 2.01693E+01 4.30800E-01 6.58513E-04 8.73715E-03 3.40464E-13-2.05644E-14
 -1       724 9.92331E+00-5.21298E-01 1.24941E-01 3.42535E+00-3.65400E-13 3.73430E-13
 -1       725 2.00980E+01 1.97577E-01 1.68560E-04-5.08730E-01 1.14617E-13-6.60760E-14
 -1       726 2.03187E+01 1.12932E+00-1.53130E-04-6.35739E-01-3.23628E-13-4.64396E-13
 -1       727 2.00131E+01 2.38512E+00-1.62831E-03 5.81434E-01 4.07411E-13-4.45327E-13
 -1       728 2.09445E+01-4.91455E+00 5.67588E-02-5.17901E+00 7.35443E-13 2.55430E-13
 -1       729 2.00068E+01 2.39523E+00-1.55361E-03-5.73298E-01-9.86630E-14-6.64560E-13
 -1       730 2.77478E+01 5.59316E+00-1.62320E-01-1.00962E+00 7.55153E-13 1.55355E-13
 -1       731 2.79432E+01 5.54196E+00-1.67715E-01 1.07147E+00 8.75619E-13 6.06940E-13
 -1       732 1.57057E+01-3.04208E+00 1.05655E-01 5.63059E+00-1.79912E-13 2.20469E-13
 -1       733 1.96489E+01-4.85463E+00 6.62809E-02-5.55281E+00-4.54366E-13-6.54161E-13
 -1       734 2.79894E+01-3.05843E+00-5.75708E-02 3.33254E-01 3.15882E-15 5.23141E-13
 -1       735 2.49307E+01-5.13086E+00 6.90525E-03-3.09434E+00-2.80297E-13-8.13221E-14
 -1       736 8.32215E+00-2.55399E-01 1.65271E-01-2.23202E+00-1.47211E-13-9.78266E-13
 -1       737 7.84343E+00-4.27405E-01 1.54141E-01 2.40608E+00 3.05932E-13-9.49636E-13
 -1       738 1.23986E+01-2.23445E+00 1.24621E-01 5.55942E+00 5.05231E-13-5.11854E-13
 -1       739 2.14777E+01-4.99720E+00 4.51134E-02 4.80118E+00-2.81546E-13 3.93088E-15
 -1       740 1.86353E+01-4.41041E+00 7.44889E-02 5.79522E+00 5.30204E-13-1.82869E-13
 -1       741 2.80215E+01 2.96941E-01-1.06240E-01-1.98944E+00-5.72056E-13 4.69132E-13
 -1       742 2.80515E+01 8.59924E-01-9.63909E-02 2.51112E+00 4.49443E-13 7.87152E-13
 -1       743 2.84692E+01 1.49530E+00-1.17906E-01 2.09179E+00-2.73215E-13-4.39017E-13
 -1       744 9.54551E+00-1.28236E+00 1.47792E-01-4.40004E+00 4.18388E-13-8.83738E-14
 -1       745 2.41233E+01-5.03097E+00 1.49849E-02 3.49417E+00 2.45023E-13 2.09959E-13
 -1       746 1.39490E+01-3.06415E+00 1.00751E-01-6.01720E+00 6.83977E-13 2.59192E-13
 -1       747 2.80682E+01-2.13291E+00-7.83827E-02 5.68967E-01 1.18925E-13-5.82912E-13
 -1       748 2.01233E+01 2.13361E+00-1.16721E-03-7.85304E-01-2.17947E-13-6.40445E-13
 -1       749 1.98949E+01 2.63881E+00-1.50455E-03-1.13652E-01 1.17378E-13-6.42827E-13
 -1       750 1.99962E+01 9.08607E-02-3.49003E-05 6.04036E-02-3.62326E-13-3.28184E-14
 -1       751 2.00112E+01 6.94252E-02-4.12348E-06 5.97689E-02-5.10729E-13-3.98527E-13
 -1       752 1.99321E+01 2.55984E+00-1.54450E-03-3.47540E-01 2.57328E-14-6.30819E-13
 -1       753 1.67569E+01-3.37491E+00 8.71497E-02-5.55301E+00-4.50067E-13-6.42748E-13
 -1       754 2.00097E+01 7.70604E-02-8.60587E-06-6.70843E-02 1.54113E-13 1.25703E-14
 -1       755 2.59842E+01 2.16207E+00-7.83347E-02 2.34732E+00-3.49294E-13-5.37960E-13
 -1       756 2.02744E+01 1.39250E+00 2.69211E-04 5.37722E-01 4.09210E-13-2.38301E-13
 -1       757 1.33194E+01-1.36009E+00 7.79387E-02-4.63140E+00 4.54635E-13 1.11852E-13
 -1       758 2.02632E+01 5.91259E-01-2.00330E-05 8.95169E-02-1.13796E-13-3.71287E-13
 -1       759 2.02154E+01 4.37150E-01-1.47888E-06 2.79221E-01-1.12382E-13-3.18824E-13
 -1       760 2.01630E+01 3.56548E-01 5.17697E-06 4.31781E-01-1.02432E-13-3.01847E-13
 -1       761 2.01109E+01 3.26662E-01 1.30231E-05 5.63780E-01-5.01364E-14-2.97185E-13
 -1       762 2.00609E+01 3.29029E-01 2.07073E-05 6.88732E-01-2.83689E-14-3.27609E-13
 -1       763 2.00149E+01 3.46538E-01 2.91858E-05 8.16639E-01-4.61614E-14-2.86792E-13
 -1       764 1.99763E+01 3.60841E-01 3.91831E-05 9.53978E-01-3.42416E-14-2.40931E-13
 -1       765 1.99528E+01 3.49970E-01 4.95245E-05 1.10377E+00-3.54619E-14-1.10905E-13
 -1       766 1.99596E+01 2.86036E-01 5.37031E-05 1.26534E+00 2.11863E-14-1.69885E-13
 -1       767 2.00235E+01 1.33604E-01 5.25444E-05 1.43313E+00 3.73378E-14-2.05102E-13
 -1       768 2.01889E+01-1.49588E-01 3.16827E-05 1.59323E+00 6.70114E-14-1.91447E-13
 -1       769 2.05230E+01-6.05972E-01-1.92718E-04 1.71598E+00 9.27170E-14-1.36207E-13
 -1       770 2.11161E+01-1.25806E+00-7.39145E-04 1.73909E+00 2.40752E-13-4.98560E-14
 -1       771 2.20662E+01-2.05245E+00 9.60672E-04 1.54128E+00 2.37939E-13 4.71939E-14
 -1       772 2.34062E+01-2.73704E+00 5.06295E-03 9.48756E-01 2.52061E-13 2.22539E-13
 -1       773 2.49563E+01-2.76127E+00 4.56141E-03-1.95493E-01 6.47924E-14 3.84985E-13
 -1       774 2.61332E+01-1.32135E+00-4.12714E-02 1.73417E+00 1.28049E-13-1.74473E-13
 -1       775 2.48974E+01-2.69216E+00-2.33677E-03 2.75714E-01 4.05774E-13 2.82364E-15
 -1       776 2.34246E+01-2.74901E+00-4.47218E-03-8.72987E-01 5.08982E-13 2.12276E-13
 -1       777 2.20859E+01-2.01321E+00 1.82710E-03-1.48211E+00 5.00026E-13 2.11240E-13
 -1       778 2.11369E+01-1.22549E+00 1.08285E-03-1.67584E+00 9.39435E-14 1.38035E-13
 -1       779 2.05295E+01-5.61638E-01 2.30006E-04-1.64627E+00-2.84586E-16 1.93445E-13
 -1       780 2.01883E+01-9.66618E-02 9.76359E-05-1.50982E+00-9.32430E-15 1.61818E-13
 -1       781 2.00135E+01 1.94808E-01 6.29801E-05-1.33386E+00 2.19432E-14 2.99857E-13
 -1       782 1.99377E+01 3.54162E-01 7.93754E-05-1.14803E+00-2.88664E-14 2.01206E-13
 -1       783 1.99162E+01 4.21622E-01 6.91729E-05-9.67609E-01-1.37916E-13 1.83837E-13
 -1       784 1.99215E+01 4.29943E-01 5.70828E-05-8.00405E-01-1.50660E-13-2.84970E-14
 -1       785 1.99376E+01 4.03306E-01 4.58751E-05-6.50436E-01-2.93343E-15-1.88213E-13
 -1       786 1.99560E+01 3.58530E-01 3.62668E-05-5.19452E-01-1.76305E-13 3.89431E-14
 -1       787 1.99728E+01 3.06703E-01 2.82734E-05-4.07669E-01-1.89704E-13-2.00732E-13
 -1       788 1.99862E+01 2.54712E-01 2.20017E-05-3.14250E-01 2.18470E-13-2.47580E-13
 -1       789 1.99959E+01 2.06532E-01 1.57658E-05-2.37684E-01 3.06208E-13 2.66742E-14
 -1       790 2.00024E+01 1.64134E-01 1.02926E-05-1.76032E-01 2.71122E-13 2.38687E-13
 -1       791 2.00062E+01 1.28174E-01 1.32196E-05-1.27473E-01 1.91645E-13 4.09027E-13
 -1       792 2.00096E+01 9.98151E-02 1.22987E-05-9.38294E-02-2.55374E-15 3.54437E-13
 -1       793 2.00498E+01 3.60313E-01 6.35589E-05-8.33803E-01 9.82480E-14-1.40365E-13
 -1       794 2.00814E+01 3.22066E-01 5.14684E-05-6.97610E-01 9.01645E-14-1.07699E-13
 -1       795 1.99903E+01 4.46600E-01 1.07067E-04-1.15104E+00 5.03232E-14-5.75277E-14
 -1       796 1.99699E+01 4.52915E-01 1.19206E-04-1.33883E+00-3.65801E-15-2.27396E-14
 -1       797 1.99747E+01 3.91313E-01 1.17866E-04-1.54496E+00-5.44132E-14 5.36344E-14
 -1       798 2.00399E+01 2.12060E-01 1.14563E-04-1.76306E+00-1.38381E-13-9.54236E-15
 -1       799 2.02313E+01-1.50369E-01 3.62975E-04-1.97700E+00-2.06356E-13 2.53720E-14
 -1       800 2.06528E+01-7.64695E-01 3.76204E-04-2.14772E+00-2.41718E-13-2.11515E-14
 -1       801 2.14720E+01-1.68063E+00 9.51107E-05-2.18059E+00-2.17116E-13 2.61894E-14
 -1       802 2.29045E+01-2.78953E+00 8.75875E-03-1.87463E+00-2.99008E-13 8.56771E-14
 -1       803 2.47773E+01-3.53241E+00-2.61414E-02-9.32329E-01-3.21612E-13 2.87144E-13
 -1       804 2.36375E+01-3.15281E+00 4.61652E-03 1.52718E+00-3.24046E-13-1.77147E-13
 -1       805 2.19961E+01-2.09980E+00 2.74390E-03 2.05557E+00-1.40840E-13 1.03715E-13
 -1       806 2.09596E+01-1.07655E+00-1.85202E-04 2.12789E+00-9.30859E-14 1.66257E-14
 -1       807 2.03949E+01-3.34690E-01 1.60817E-04 1.98865E+00-6.91001E-14-2.72940E-15
 -1       808 2.01170E+01 1.33550E-01 1.83840E-04 1.77355E+00-1.20377E-13 1.09645E-13
 -1       809 2.00047E+01 3.87547E-01 1.62070E-04 1.53738E+00-1.09087E-13 1.43105E-13
 -1       810 1.99741E+01 4.97424E-01 1.41783E-04 1.30589E+00-1.14724E-13 1.02681E-13
 -1       811 1.99787E+01 5.18318E-01 1.28939E-04 1.08966E+00-3.12461E-14 2.18896E-13
 -1       812 1.99943E+01 4.89058E-01 1.11778E-04 8.94002E-01 1.53043E-13 3.39172E-13
 -1       813 2.00100E+01 4.35057E-01 9.30804E-05 7.21450E-01 1.41532E-13 4.34622E-13
 -1       814 2.00216E+01 3.71964E-01 7.65370E-05 5.72703E-01-9.90197E-14 3.78017E-13
 -1       815 2.00284E+01 3.08876E-01 6.27229E-05 4.47132E-01-1.08759E-13 1.56688E-13
 -1       816 2.00310E+01 2.50677E-01 5.33998E-05 3.43148E-01 1.30255E-14 6.26076E-14
 -1       817 2.00306E+01 1.99625E-01 3.81996E-05 2.58531E-01 8.34475E-15-1.31399E-13
 -1       818 2.00281E+01 1.56534E-01 2.46909E-05 1.90992E-01-1.06265E-13-1.41905E-13
 -1       819 2.00245E+01 1.21051E-01 2.43132E-05 1.37743E-01-1.47103E-13-1.68321E-13
 -1       820 2.00200E+01 9.25399E-02 2.25260E-05 9.66938E-02-1.98443E-14-3.47453E-13
 -1       821 2.00150E+01 8.03702E-02-5.36806E-05 7.65293E-02-2.41206E-13-4.53752E-13
 -1       822 2.00850E+01 2.03730E+00-3.61352E-04 1.65856E-01 2.42049E-13-4.92856E-13
 -1       823 1.99326E+01 1.73931E-01-4.75636E-06-7.72620E-04 2.48987E-14-4.84541E-13
 -1       824 1.99776E+01 1.28156E-01-1.34336E-05-7.79014E-02-2.31506E-15 9.49983E-14
 -1       825 1.99383E+01 1.68162E-01 1.36542E-06-3.22388E-02-2.77513E-14-2.60407E-13
 -1       826 1.07315E+01 1.93383E-01 8.87120E-02-2.39665E+00 1.23288E-13-3.85941E-13
 -1       827 2.18132E+01-4.08489E+00 3.50103E-02 3.80560E+00 4.10665E-13 1.50622E-13
 -1       828 2.31934E+01-4.19011E+00 2.77406E-02-2.95477E+00 6.80616E-13-2.96464E-13
 -1       829 2.50781E+01-3.91922E+00-1.27160E-02 1.19457E+00 1.58974E-13 3.05530E-13
 -1       830 2.56204E+01-3.44016E+00-7.43951E-03 1.98877E-01-2.63306E-13-4.05540E-13
 -1       831 1.99540E+01 1.52367E-01-1.40586E-05-5.95210E-02-2.96107E-14-2.35296E-13
 -1       832 2.00191E+01 4.07614E-01 8.47598E-05-9.83311E-01 1.23385E-13-8.78177E-14
 -1       833 2.01984E+01 4.01453E-01 2.51318E-05-2.67615E-01 2.04788E-13-5.02764E-14
 -1       834 2.02955E+01 8.51241E-01 9.58589E-06-1.55068E-01-1.99636E-13-4.46231E-13
 -1       835 1.44064E+01-8.93810E-01 6.21538E-02 4.02998E+00-4.29785E-13 1.81579E-13
 -1       836 2.62816E+01-1.50344E+00-3.59838E-02-1.52125E+00-3.09995E-13 2.91538E-13
 -1       837 2.25998E+01-4.51262E+00 1.71230E-02-3.62988E+00-5.06123E-13-1.34327E-13
 -1       838 1.83831E+01-3.25970E+00 4.09348E-02-4.95263E+00 7.10043E-13 1.25823E-13
 -1       839 2.03044E+01 1.01418E+00 9.57207E-05 4.51865E-01 4.23927E-13-9.34187E-14
 -1       840 1.19458E+01-3.66961E-01 7.82404E-02 3.49722E+00 3.78352E-13-5.52544E-13
 -1       841 2.59945E+01-3.95934E+00 4.23342E-03-8.43188E-01-2.22014E-13 4.07363E-13
 -1       842 1.98106E+01-3.48569E+00 3.62191E-02 4.40208E+00-2.24404E-13-1.80795E-13
 -1       843 1.21750E+01-9.06852E-01 9.35675E-02-4.07605E+00-2.86802E-13-7.30416E-13
 -1       844 2.67698E+01-2.29387E+00-2.61446E-02 1.28745E+00 2.69190E-14 6.07717E-13
 -1       845 1.67658E+01-2.56798E+00 5.27936E-02 5.02736E+00 4.71222E-13-2.86646E-13
 -1       846 1.02870E+01 5.91447E-01 8.89634E-02 2.69404E-01 1.24428E-13-8.41147E-13
 -1       847 1.09530E+01 6.34520E-01 7.91346E-02 1.19312E+00-1.60289E-13 3.09234E-13
 -1       848 2.00668E+01 2.08013E+00-6.33424E-04 3.92835E-03 1.40212E-13-5.28616E-13
 -1       849 2.02063E+01 1.69320E+00 9.66979E-05 4.51397E-01 3.68955E-13-3.43206E-13
 -1       850 2.02966E+01 1.21608E+00 2.31969E-04-4.31961E-01-2.43266E-13-4.83756E-13
 -1       851 1.99772E+01 1.30402E-01 6.24957E-06 7.80316E-02-1.98547E-13-1.93201E-13
 -1       852 2.01987E+01 1.70204E+00-9.63664E-04-4.43424E-01-1.52653E-13-5.68250E-13
 -1       853 1.77006E+01-1.71020E+00 2.07290E-02 3.91433E+00-5.05788E-13 1.66382E-14
 -1       854 2.01154E+01 3.06859E-01 4.46363E-05-5.66440E-01 7.78526E-14-7.59864E-14
 -1       855 2.02461E+01 5.50017E-01 8.45906E-05-6.48582E-02 2.70955E-13-6.90776E-14
 -1       856 2.01329E+01 1.91002E+00-2.77145E-04 3.18825E-01 2.99336E-13-4.20929E-13
 -1       857 1.99535E+01 1.54183E-01-9.81597E-06 5.91035E-02-1.72936E-13 2.89878E-13
 -1       858 1.99380E+01 1.69159E-01 1.43370E-06 3.13504E-02-2.63809E-14 3.24694E-14
 -1       859 2.52636E+01-3.52501E+00 4.94363E-05-6.11535E-01 5.19952E-13-2.59550E-13
 -1       860 2.32019E+01-4.12523E+00 1.71142E-02 2.83421E+00-4.50788E-13-2.56151E-13
 -1       861 2.02775E+01 7.36091E-01-6.13070E-05 1.60622E-01 3.60260E-13-9.66238E-14
 -1       862 2.01540E+01 3.28078E-01 3.90064E-05-4.28384E-01 1.41782E-13-5.22829E-14
 -1       863 2.01296E+01 1.91573E+00-3.32322E-04-3.10581E-01-2.73659E-14-5.45895E-13
 -1       864 2.01011E+01-3.56564E+00 4.40691E-02-4.33589E+00-4.78800E-13-3.54304E-13
 -1       865 1.19964E+01 4.58253E-01 5.63551E-02-1.84769E+00-5.41245E-14-6.37098E-13
 -1       866 1.99928E+01 1.15427E-01 1.49047E-04-8.76647E-02-3.46025E-14 4.56093E-13
 -1       867 2.10650E+01-2.92193E+00 2.15532E-02 3.27742E+00-3.70737E-13-5.31935E-13
 -1       868 1.67463E+01-1.53005E+00 3.00860E-02-4.07250E+00 3.17262E-13 1.99232E-13
 -1       869 2.33255E+01-3.60059E+00-1.23667E-02 2.01325E+00 3.29718E-13 1.33070E-13
 -1       870 2.01992E+01 5.17677E-01-1.69648E-05 3.03755E-01-6.04252E-14-2.64219E-13
 -1       871 2.01160E+01 4.48704E-01-9.42756E-06 4.36396E-01-6.87419E-14-2.02843E-13
 -1       872 2.00172E+01 4.31911E-01-5.15716E-06 5.58389E-01-8.88739E-14-2.33400E-13
 -1       873 1.99061E+01 4.47638E-01 1.29162E-06 6.80776E-01-2.25442E-14-2.58318E-13
 -1       874 1.97856E+01 4.76189E-01 7.63778E-06 8.12880E-01 9.71789E-15-2.48817E-13
 -1       875 1.96603E+01 4.95771E-01 1.44567E-05 9.62617E-01 2.53378E-14-2.34537E-13
 -1       876 1.95393E+01 4.80021E-01 2.57561E-05 1.13732E+00-1.14940E-14-1.96961E-13
 -1       877 1.94405E+01 3.95405E-01 3.60515E-05 1.34437E+00-1.68854E-14-2.34062E-13
 -1       878 1.93964E+01 1.98410E-01 1.07549E-04 1.59117E+00 5.32310E-14-2.64376E-13
 -1       879 1.94650E+01-1.65363E-01 4.87461E-04 1.88048E+00 1.00453E-13-2.62490E-13
 -1       880 1.97344E+01-7.55154E-01-2.07925E-04 2.20395E+00 2.60225E-13-1.59819E-13
 -1       881 2.03701E+01-1.63036E+00 2.32583E-03 2.48697E+00 2.97936E-13-6.12759E-14
 -1       882 2.17276E+01-2.75792E+00 1.40057E-02-2.56995E+00 4.90358E-13-9.62593E-14
 -1       883 2.04022E+01-1.62013E+00-9.79022E-03-2.44720E+00 2.15080E-13-2.31252E-13
 -1       884 1.97238E+01-7.04423E-01 7.05638E-04-2.14465E+00 7.12684E-14-1.93467E-13
 -1       885 1.94429E+01-1.06765E-01 3.69555E-04-1.81381E+00 6.27646E-14-5.74763E-14
 -1       886 1.93563E+01 2.68031E-01 1.58871E-05-1.51291E+00 1.91516E-14-1.06850E-13
 -1       887 1.93793E+01 4.74877E-01 8.80995E-05-1.25158E+00-1.77480E-13-1.95035E-13
 -1       888 1.94537E+01 5.65572E-01 6.18471E-05-1.02868E+00-3.70130E-14-3.45814E-13
 -1       889 1.95463E+01 5.80788E-01 3.88599E-05-8.38792E-01-2.11144E-13-3.13826E-13
 -1       890 1.96392E+01 5.50026E-01 2.31394E-05-6.77226E-01-1.19048E-14-1.75601E-13
 -1       891 1.97233E+01 4.94143E-01 1.32698E-05-5.40458E-01-6.63641E-15-1.63613E-13
 -1       892 1.97947E+01 4.27336E-01 8.29382E-06-4.25674E-01-3.20855E-13-1.35102E-13
 -1       893 1.98527E+01 3.58761E-01 5.53760E-06-3.30413E-01-9.43351E-14-5.10707E-14
 -1       894 1.98982E+01 2.93908E-01 3.04128E-06-2.52416E-01 3.20783E-13-2.09074E-13
 -1       895 1.99326E+01 2.35889E-01 1.58004E-05-1.89537E-01 4.97746E-13-3.34728E-13
 -1       896 1.99578E+01 1.85552E-01-6.56149E-05-1.39342E-01 3.53507E-13 1.02534E-13
 -1       897 1.99374E+01 4.55115E-01 4.99021E-06-7.01932E-01 1.05745E-13-1.16822E-13
 -1       898 1.93625E+01 6.22642E-01 6.60368E-05-1.36971E+00-3.31634E-14-9.07550E-14
 -1       899 1.95281E+01 6.20672E-01 6.47191E-05-1.16300E+00 2.43630E-14-4.85223E-14
 -1       900 1.90860E+01 3.05035E-01 3.56524E-04-1.92930E+00-2.03576E-13-1.57468E-13
 -1       901 1.90856E+01-1.56689E-01 6.64613E-04-2.32414E+00-1.88298E-13-2.15822E-13
 -1       902 1.94128E+01-9.78844E-01-1.56974E-03-2.81095E+00-3.15303E-13-2.13585E-13
 -1       903 2.01794E+01-2.17711E+00 1.08093E-02-3.24846E+00-2.51427E-13-2.16318E-13
 -1       904 1.62542E+01-1.68858E+00 4.46259E-02-4.33687E+00-3.16008E-13-5.51932E-13
 -1       905 1.90580E+01 2.00900E-01 4.71681E-04 2.01553E+00-1.35817E-13-1.48332E-13
 -1       906 1.91254E+01 5.25887E-01 2.85158E-04 1.66032E+00-1.42611E-13-2.64118E-13
 -1       907 1.92571E+01 6.73056E-01 9.52523E-05 1.37156E+00-1.33359E-13-1.75137E-13
 -1       908 1.94044E+01 7.07557E-01 5.98624E-05 1.13060E+00-1.59697E-13 1.74847E-13
 -1       909 1.95420E+01 6.76057E-01 3.62561E-05 9.26204E-01 1.59470E-14 1.90322E-13
 -1       910 1.96594E+01 6.09855E-01 1.87277E-05 7.51405E-01 3.05296E-13 1.20647E-13
 -1       911 1.97545E+01 5.28838E-01 1.23671E-05 6.02173E-01 4.48555E-14-5.84525E-14
 -1       912 1.98284E+01 4.45235E-01 9.05086E-06 4.75905E-01 8.99872E-14-3.55935E-15
 -1       913 1.98842E+01 3.66132E-01 1.47372E-05 3.70428E-01 7.06668E-14-2.51488E-13
 -1       914 1.99251E+01 2.95180E-01 3.53707E-05 2.83648E-01 1.41023E-14-2.46821E-13
 -1       915 1.99537E+01 2.34130E-01-4.31068E-05 2.13192E-01-1.58005E-13-1.27602E-13
 -1       916 1.99737E+01 1.83111E-01 5.13321E-05 1.57058E-01 1.24928E-15-1.04426E-13
 -1       917 1.99874E+01 1.40705E-01 6.17296E-05 1.13238E-01-2.03258E-14-9.39589E-14
 -1       918 1.24011E+01 8.72824E-01 2.82434E-02-8.28625E-01 4.58271E-15-2.14644E-13
 -1       919 1.99976E+01 1.05257E-01 2.22880E-05 8.06684E-02-1.01524E-13 7.00507E-14
 -1       920 1.99013E+01 2.17092E-01-1.58759E-05-2.27609E-02 1.86406E-13-3.66078E-13
 -1       921 1.91771E+01-4.09377E-01-2.46066E-03 2.45519E+00-6.41863E-14-1.34258E-13
 -1       922 1.55135E+01-8.26332E-01 2.36507E-02 3.71545E+00 3.58295E-13-3.99951E-13
 -1       923 1.40599E+01-1.03334E-01 4.06451E-02-3.13306E+00 3.89567E-14-4.11773E-13
 -1       924 1.96533E+01-1.37741E+00 1.09836E-02 2.95549E+00-2.05172E-13-1.40602E-13
 -1       925 2.00827E+01 2.03998E+00-5.28329E-04-1.56968E-01 5.73514E-14-5.71958E-13
 -1       926 1.29963E+01 6.61301E-01 3.39481E-02 1.61420E+00 1.51059E-13-4.96663E-13
 -1       927 1.92023E+01 5.37308E-01 7.36364E-05-1.61966E+00-7.95896E-14-1.16384E-13
 -1       928 2.02911E+01 9.05733E-01 1.84708E-05-4.31309E-02-9.42033E-14-3.76221E-13
 -1       929 2.02610E+01 6.60744E-01-5.67500E-05 1.47858E-01-5.94397E-14-3.57848E-13
 -1       930 2.02044E+01 4.94633E-01-9.04986E-06-3.02752E-01 1.78565E-13-1.56904E-13
 -1       931 2.02984E+01 1.02136E+00-9.09420E-05 2.53780E-01 3.35070E-13-2.14767E-13
 -1       932 1.41184E+01 5.27235E-01 1.92196E-02 2.13966E+00-2.32579E-13 2.14316E-13
 -1       933 1.96499E+01-2.53029E+00 2.11895E-02 3.71787E+00 4.01399E-13 1.40248E-14
 -1       934 2.02731E+01 1.24744E+00 2.23559E-04-2.25819E-01-1.29695E-13-4.55349E-13
 -1       935 2.20761E+01-3.02208E+00 4.04603E-03 2.43968E+00 3.36589E-13 7.84868E-14
 -1       936 1.99168E+01 2.03188E-01 3.58163E-06-6.25640E-02 1.65561E-13-2.65003E-13
 -1       937 2.00403E+01 4.23017E-01 9.21193E-06-5.74974E-01 8.10382E-14-1.95880E-13
 -1       938 1.98185E+01 5.11068E-01 1.20227E-05-8.37036E-01 5.10006E-14-6.57960E-14
 -1       939 1.99789E+01 1.47165E-01 2.92150E-05-1.11667E-01 2.33172E-13 1.94812E-13
 -1       940 2.01292E+01 4.30595E-01 3.07727E-06-4.45976E-01 1.24610E-13-1.59151E-13
 -1       941 1.96821E+01 5.73341E-01 2.83908E-05-9.88239E-01 9.48475E-14-8.17365E-14
 -1       942 2.02928E+01-2.79741E+00 3.25796E-02-3.62407E+00-3.38262E-13-2.31000E-13
 -1       943 1.47367E+01-2.21551E-01 1.44092E-02-3.15992E+00-1.58009E-13-6.64216E-13
 -1       944 1.99009E+01 2.18035E-01-8.44361E-06 2.05743E-02-9.23453E-14-3.70364E-13
 -1       945 2.02625E+01 6.36270E-01-9.73247E-05-1.30997E-01 2.19334E-13-1.88875E-13
 -1       946 2.01836E+01 1.60446E+00-3.73472E-05 4.89583E-02 1.49328E-13-4.31869E-13
 -1       947 1.42402E+01 1.08386E+00 1.31644E-02 6.76727E-01-7.17003E-14-1.31340E-15
 -1       948 2.02079E+01 1.52460E+00-2.02551E-04 1.33650E-01 2.05409E-13-4.05649E-13
 -1       949 1.62522E+01-1.23970E-01 7.43463E-03 2.87511E+00-2.20677E-13 7.81757E-14
 -1       950 1.32602E+01 9.63563E-01 2.41691E-02-9.28882E-02 3.70738E-14-6.37766E-13
 -1       951 1.99439E+01 1.81468E-01 5.65177E-05 9.32681E-02-6.71643E-14-1.00567E-13
 -1       952 2.02290E+01 1.44168E+00 2.04791E-05-1.63439E-01-1.44869E-14-4.53127E-13
 -1       953 1.99508E+01 1.71605E-01 1.17158E-06-9.46561E-02 1.87009E-13-1.71626E-13
 -1       954 2.02243E+01 7.00932E-01-4.05215E-05 1.72827E-01-1.82670E-14-3.23547E-13
 -1       955 2.01361E+01 5.81119E-01-6.79756E-06 2.89610E-01-4.22239E-14-3.16674E-13
 -1       956 2.00145E+01 5.33249E-01-2.54899E-05 3.95388E-01-3.44720E-14-2.79361E-13
 -1       957 1.98645E+01 5.36549E-01-2.22164E-05 4.99202E-01-1.86792E-14-1.69941E-13
 -1       958 1.96885E+01 5.70775E-01-1.38145E-05 6.10421E-01-1.00348E-14-1.02598E-13
 -1       959 1.94882E+01 6.14917E-01-3.54178E-05 7.38254E-01 1.37611E-14-1.38458E-13
 -1       960 1.92660E+01 6.46082E-01-5.91811E-05 8.93112E-01 2.49309E-15-1.48196E-13
 -1       961 1.90276E+01 6.36099E-01-7.20423E-05 1.08807E+00-1.46628E-14-1.15060E-13
 -1       962 1.87847E+01 5.50174E-01-4.75386E-05 1.34129E+00 3.43144E-14-1.53261E-13
 -1       963 1.85604E+01 3.41804E-01 2.41904E-05 1.67947E+00 7.75471E-14-9.38208E-14
 -1       964 1.84077E+01-6.22710E-02-4.85045E-04 2.14619E+00 2.23027E-13-4.69571E-14
 -1       965 1.84448E+01-7.22009E-01 3.07203E-03 2.76273E+00 3.69385E-13-1.19522E-13
 -1       966 1.89797E+01 8.00838E-01 3.50088E-05-1.05321E+00 7.22500E-14-1.00213E-13
 -1       967 1.83897E+01-7.96318E-03-2.37308E-03-2.09789E+00 7.37217E-14-1.28818E-13
 -1       968 1.85039E+01 4.14476E-01-9.64649E-04-1.62672E+00 4.82380E-14-7.04796E-14
 -1       969 1.87004E+01 6.36588E-01 4.71648E-05-1.27808E+00-1.15623E-13-1.07796E-13
 -1       970 1.89124E+01 7.31675E-01 3.50313E-05-1.01231E+00-2.17150E-13-7.84465E-14
 -1       971 1.91162E+01 7.44113E-01 1.65689E-05-8.05023E-01-1.33337E-13-9.51102E-14
 -1       972 1.92997E+01 7.04908E-01-2.92305E-06-6.39749E-01-1.25193E-13-1.45627E-13
 -1       973 1.94578E+01 6.36335E-01-1.09037E-05-5.06175E-01-5.87831E-14-3.95759E-13
 -1       974 1.95896E+01 5.54224E-01-1.10342E-05-3.97468E-01-1.35728E-13-5.17378E-13
 -1       975 1.96965E+01 4.69133E-01-6.44951E-06-3.08906E-01-1.98097E-13-3.26433E-13
 -1       976 1.97811E+01 3.87739E-01 4.19295E-06-2.37005E-01 2.35340E-13-1.19647E-13
 -1       977 1.98467E+01 3.13801E-01 1.29778E-05-1.79432E-01 3.48706E-13-5.73248E-15
 -1       978 1.98958E+01 2.49485E-01 1.18684E-05-1.33058E-01 4.24877E-13-3.59139E-14
 -1       979 1.75194E+01 7.98055E-03 5.98205E-03-2.54139E+00-2.89222E-13-4.11095E-13
 -1       980 1.78527E+01 4.91348E-01-1.57785E-03-1.94286E+00-7.79399E-14-3.29969E-13
 -1       981 1.87546E+01 9.03062E-01-1.52984E-05 1.04931E+00-2.48085E-13 4.31044E-13
 -1       982 1.99040E+01 2.43763E-01-3.13946E-05 1.32536E-01-2.27305E-14-1.04113E-13
 -1       983 2.02534E+01 1.36360E+00-2.47563E-04 2.06765E-01 2.61139E-13-3.35454E-13
 -1       984 1.84260E+01 8.70490E-01-1.30089E-04 1.29924E+00-1.98267E-13 5.49826E-13
 -1       985 1.80555E+01 7.19650E-01-5.76707E-04 1.63618E+00-1.09683E-13 5.25065E-13
 -1       986 1.90335E+01 8.64043E-01-3.61378E-05 8.53625E-01 2.58772E-14-8.40446E-14
 -1       987 1.92631E+01 7.85830E-01-5.89466E-05 6.93964E-01 1.78704E-13-3.84576E-14
 -1       988 1.94482E+01 6.88921E-01-4.80014E-05 5.60346E-01 2.92114E-13 2.35805E-13
 -1       989 1.95943E+01 5.86952E-01-3.89424E-05 4.47709E-01 5.45419E-14 2.25510E-13
 -1       990 1.97078E+01 4.88521E-01-2.79083E-05 3.53046E-01 1.51719E-13 2.06908E-13
 -1       991 1.97943E+01 3.98551E-01 1.83866E-05 2.74141E-01 7.88752E-14 2.30501E-13
 -1       992 1.98582E+01 3.19511E-01-8.17384E-05 2.09535E-01-1.90260E-13 3.24751E-14
 -1       993 2.01961E+01 1.56006E+00 1.50918E-04-8.43981E-02 4.55885E-14-5.37607E-13
 -1       994 1.63943E+01-3.41657E-01-3.33906E-04-2.98707E+00-1.07608E-14 1.07961E-13
 -1       995 1.44572E+01 7.37233E-01 1.36028E-02-1.73635E+00 1.27364E-13-3.34650E-13
 -1       996 2.02700E+01 9.16499E-01-2.32426E-04 3.43332E-02-3.67346E-14-3.39574E-13
 -1       997 1.99156E+01 2.05666E-01-5.65241E-06 6.07243E-02-9.39625E-15 1.55329E-13
 -1       998 2.02909E+01 7.91828E-01-2.89145E-04 3.97110E-02 2.82169E-13-2.02431E-13
 -1       999 1.54956E+01 3.06128E-01 3.00224E-03 2.29289E+00 1.88356E-13-2.28953E-13
 -1      1000 2.02649E+01 1.15181E+00 5.26201E-04-6.66695E-02 3.66951E-15-3.86094E-13
 -1      1001 1.77021E+01 3.85688E-01 2.52734E-03 2.11967E+00-2.39501E-13 3.92758E-13
 -1      1002 2.01837E+01 1.60454E+00 2.99042E-04-1.89470E-02 7.63110E-14-4.94453E-13
 -1      1003 1.49284E+01 8.74323E-01 8.47981E-03 1.18273E+00 1.00650E-13-4.07115E-13
 -1      1004 1.54066E+01 7.60878E-01 1.09121E-02 1.73923E+00-2.33439E-13 7.79073E-14
 -1      1005 1.86436E+01 8.09452E-01-1.58240E-04-1.26231E+00-1.82906E-14-9.98835E-14
 -1      1006 1.98981E+01 5.37080E-01-1.92518E-05-5.23669E-01 5.64551E-14-1.25551E-13
 -1      1007 1.85310E+01-6.87852E-01 1.44214E-02-2.71186E+00 8.27205E-14-1.64863E-13
 -1      1008 1.45239E+01 7.60013E-01 1.03564E-02-1.58680E+00-9.25991E-14-5.32803E-13
 -1      1009 1.97237E+01 5.89388E-01-5.50567E-05-6.32634E-01 6.21052E-14-1.15051E-13
 -1      1010 1.92690E+01 7.42601E-01 6.41060E-06-8.88028E-01 6.29931E-14-6.96700E-14
 -1      1011 1.98550E+01 2.73325E-01-1.73697E-05-2.25028E-03 1.37447E-13-1.86084E-13
 -1      1012 2.02375E+01 6.92083E-01 9.22408E-05-1.69142E-01 1.70803E-13-2.13898E-13
 -1      1013 2.01555E+01 5.70835E-01 5.59723E-05-3.01814E-01 1.07417E-13-1.85183E-13
 -1      1014 1.76499E+01-1.59427E+00 4.81265E-02-3.86829E+00-2.37789E-13-5.05487E-13
 -1      1015 2.02411E+01 1.21561E+00 6.20509E-05 2.24356E-02 1.23417E-13-3.68915E-13
 -1      1016 1.98662E+01 2.63795E-01-1.48150E-05-5.77654E-02 4.65969E-13-3.47197E-13
 -1      1017 1.82642E+01 7.26438E-01-4.36727E-04-1.54278E+00-7.87417E-14-1.63865E-13
 -1      1018 2.02323E+01 1.24479E+00 1.60200E-04 6.47343E-03 8.82284E-14-3.82958E-13
 -1      1019 2.00418E+01 6.27395E-01-9.10814E-05 2.27985E-01-3.13704E-14-3.76375E-13
 -1      1020 1.98778E+01 6.07470E-01-1.30572E-04 3.01624E-01 2.97995E-14-2.96013E-13
 -1      1021 1.96751E+01 6.35640E-01-4.95584E-05 3.79828E-01 7.43004E-14-2.28846E-13
 -1      1022 1.94324E+01 6.92588E-01-1.26363E-05 4.70094E-01 2.66980E-14-1.48732E-13
 -1      1023 1.91485E+01 7.56528E-01-1.59638E-04 5.80995E-01 2.13614E-14-9.99389E-14
 -1      1024 1.88178E+01 8.07438E-01-3.42958E-04 7.26525E-01 1.95480E-14-8.16043E-14
 -1      1025 1.84379E+01 8.17163E-01-3.23579E-04 9.21989E-01-5.17529E-14-1.26928E-13
 -1      1026 1.79968E+01 7.57177E-01-9.20269E-04 1.19764E+00 1.16020E-13-1.17722E-13
 -1      1027 1.75026E+01 5.78457E-01 2.03029E-03 1.59674E+00 1.50120E-13-6.75985E-14
 -1      1028 1.66808E+01 4.82129E-01 9.40430E-03 1.92039E+00 1.80401E-13-3.75649E-14
 -1      1029 2.02792E+01 9.33656E-01 6.72512E-04-3.68339E-03 2.11805E-13-2.56795E-13
 -1      1030 1.74603E+01 6.57373E-01 4.18615E-03-1.55875E+00 1.24486E-13-1.56119E-13
 -1      1031 1.79035E+01 8.45112E-01-3.14331E-04-1.16733E+00-1.52391E-13-3.06229E-13
 -1      1032 1.83082E+01 9.19941E-01 8.28178E-05-8.81245E-01-2.26474E-13-4.39109E-13
 -1      1033 1.86527E+01 9.14004E-01-5.54532E-05-6.76914E-01-1.33243E-13-4.71627E-13
 -1      1034 1.89403E+01 8.60499E-01-1.28726E-04-5.23456E-01-1.18423E-13-2.91598E-13
 -1      1035 1.91796E+01 7.76676E-01-9.29580E-05-4.06395E-01-2.98173E-13-3.26816E-13
 -1      1036 1.93748E+01 6.79048E-01-8.06476E-05-3.15303E-01 4.55958E-14-2.59019E-13
 -1      1037 1.95319E+01 5.78200E-01-6.95723E-05-2.43352E-01 1.08440E-14-9.67372E-14
 -1      1038 1.96565E+01 4.81120E-01-2.57392E-05-1.86317E-01 4.77864E-14 2.40230E-13
 -1      1039 1.97536E+01 3.92285E-01-1.47020E-05-1.40494E-01 2.96492E-13-6.38107E-14
 -1      1040 1.98277E+01 3.14173E-01-1.25199E-05-1.05183E-01 3.01115E-13-1.44593E-13
 -1      1041 1.63888E+01 7.68638E-01 2.56523E-03-1.64749E+00-6.87379E-14-3.11190E-13
 -1      1042 2.00417E+01 5.25321E-01 3.47293E-05-4.16378E-01 8.44804E-14-1.48614E-13
 -1      1043 1.72146E+01 9.41459E-01-1.75562E-03-1.23351E+00-2.27492E-14-3.26946E-13
 -1      1044 1.88572E+01 9.45836E-01-2.46608E-04 5.35278E-01 3.25599E-14 2.10225E-13
 -1      1045 2.02608E+01 1.08999E+00 1.52424E-05 1.76356E-02 1.59285E-13-3.11995E-13
 -1      1046 1.80762E+01 1.08622E+00-1.97659E-04 8.09316E-01 5.67026E-14 3.23274E-13
 -1      1047 1.75259E+01 1.07486E+00-8.43510E-04 1.02159E+00-1.77497E-13 5.07815E-13
 -1      1048 1.91325E+01 8.36731E-01-1.88442E-04 4.36830E-01 7.19036E-14 3.79005E-13
 -1      1049 1.93501E+01 7.20586E-01-1.47270E-04 3.53942E-01 7.17560E-14 5.24731E-13
 -1      1050 1.95203E+01 6.06607E-01-1.25169E-04 2.83466E-01-1.01798E-15 5.63788E-13
 -1      1051 1.96524E+01 5.00486E-01-6.10703E-05 2.23946E-01 9.33017E-14 6.99973E-13
 -1      1052 1.97528E+01 4.05017E-01-2.64161E-04 1.73674E-01 3.91209E-14 5.88144E-13
 -1      1053 1.53901E+01 1.16273E+00 3.20890E-03-5.04266E-01-1.97054E-13-3.89603E-13
 -1      1054 1.68295E+01 9.66361E-01-1.53230E-03 1.33756E+00-4.13908E-13 2.33213E-13
 -1      1055 1.62415E+01 4.94167E-01 1.02020E-03-2.03212E+00 1.56038E-13-1.01568E-13
 -1      1056 1.98645E+01 2.66917E-01 1.11371E-05 5.39387E-02 9.33648E-14 1.11986E-13
 -1      1057 1.85115E+01 1.03463E+00-1.39796E-04 6.54546E-01 3.30637E-14 1.09378E-13
 -1      1058 2.02347E+01 1.23211E+00 2.96236E-04-9.98731E-03 7.42598E-14-4.95246E-13
 -1      1059 2.02459E+01 1.21531E+00 3.78054E-04-3.55586E-02 3.62890E-14-4.94125E-13
 -1      1060 1.95159E+01 6.63726E-01-6.60653E-05-7.51937E-01 5.92528E-14-1.35750E-13
 -1      1061 2.02368E+01 8.93012E-01 9.39393E-06 6.44146E-02 1.13032E-14-4.25060E-13
 -1      1062 2.01635E+01 7.14337E-01-2.70489E-04 1.50811E-01-2.05568E-14-3.83047E-13
 -1      1063 1.98127E+01 3.33776E-01 1.11147E-04 1.02602E-01 2.36592E-13 2.25311E-13
 -1      1064 1.50292E+01 1.12089E+00 4.17735E-03-1.22744E-01 2.91278E-14-4.74231E-13
 -1      1065 1.78701E+01 9.96054E-01-5.23133E-04-9.76618E-01 1.65620E-14-2.71444E-13
 -1      1066 2.02324E+01 8.17708E-01-2.43606E-04-1.04610E-01 1.43214E-13-2.43719E-13
 -1      1067 1.88248E+01 8.96895E-01-5.39575E-05-6.68930E-01 5.64226E-14-1.30595E-13
 -1      1068 2.02250E+01 9.20569E-01 7.68862E-04-4.92553E-02 1.13019E-13-3.25860E-13
 -1      1069 2.01490E+01 6.70847E-01 3.39485E-04-2.05763E-01 1.13066E-13-1.94765E-13
 -1      1070 1.56945E+01 1.19188E+00 5.06918E-03 4.77435E-01-3.99664E-13-2.53888E-13
 -1      1071 1.97860E+01 3.50536E-01-3.01287E-05 2.99485E-02 2.55903E-13-4.09692E-14
 -1      1072 1.83929E+01 9.69904E-01-1.16923E-04-7.95970E-01 6.88436E-14-1.28950E-13
 -1      1073 1.99139E+01 6.05542E-01-6.29821E-05-3.31326E-01 8.35810E-14-2.25900E-13
 -1      1074 1.97155E+01 6.39538E-01-1.24134E-04-4.07617E-01 4.53284E-14-2.63064E-13
 -1      1075 1.97955E+01 3.40782E-01 8.85991E-05-4.16162E-02 1.37089E-13-2.61884E-13
 -1      1076 2.02181E+01 9.45204E-01 1.91505E-04-1.10996E-02 6.97921E-14-3.24458E-13
 -1      1077 1.97251E+01 6.70742E-01 1.22362E-04 1.52862E-01 1.08483E-13-2.00288E-13
 -1      1078 1.94739E+01 7.22504E-01-1.96428E-04 1.96475E-01 4.21218E-14-2.35663E-13
 -1      1079 1.91680E+01 8.05004E-01 8.48616E-04 2.57587E-01 2.21055E-15-2.51794E-13
 -1      1080 1.87956E+01 8.93997E-01 5.09869E-04 3.36799E-01 3.43925E-14-2.48160E-13
 -1      1081 1.83499E+01 9.66685E-01-2.41056E-04 4.43228E-01 8.45141E-15-2.26488E-13
 -1      1082 1.78232E+01 1.00021E+00 9.53873E-04 5.95572E-01 4.85135E-14-1.44890E-13
 -1      1083 1.71394E+01 9.95797E-01 3.47940E-03 8.07595E-01 2.00129E-13-1.52832E-13
 -1      1084 1.62223E+01 1.02392E+00-1.89502E-03 8.47004E-01 1.06514E-13-2.88429E-13
 -1      1085 1.70484E+01 1.08700E+00-4.14456E-04-8.15126E-01-2.64684E-13-7.36255E-13
 -1      1086 1.76954E+01 1.10341E+00 3.94220E-04-5.84295E-01-1.86512E-13-8.24643E-13
 -1      1087 1.81921E+01 1.07801E+00 6.41590E-04-4.19858E-01-7.84981E-14-4.56794E-13
 -1      1088 1.85863E+01 1.00625E+00 1.03922E-04-3.09076E-01 6.47024E-14-4.70174E-13
 -1      1089 1.89092E+01 9.05335E-01-1.30723E-04-2.30969E-01-1.59664E-13-3.61380E-13
 -1      1090 1.91672E+01 7.93438E-01-1.12969E-04-1.72577E-01-1.27453E-14-6.53365E-14
 -1      1091 1.93729E+01 6.78718E-01-9.26665E-05-1.28962E-01 1.88255E-13-2.09123E-13
 -1      1092 1.95355E+01 5.68130E-01-7.19822E-05-9.63898E-02 2.27522E-13-1.26585E-13
 -1      1093 1.96658E+01 4.64933E-01 3.17860E-04-7.08385E-02-7.70384E-14-2.58856E-13
 -1      1094 2.00463E+01 6.12796E-01-3.53746E-04-2.70032E-01 1.12774E-13-1.58203E-13
 -1      1095 2.01492E+01 7.39423E-01-1.48464E-04-1.06875E-01 8.76794E-14-2.83397E-13
 -1      1096 1.66896E+01 1.22316E+00-5.10182E-04 4.54896E-01-4.21171E-13-2.12529E-13
 -1      1097 1.88373E+01 9.57013E-01 4.19913E-05 2.29070E-01-8.30745E-14 9.83842E-14
 -1      1098 1.61945E+01 1.12156E+00 6.52300E-03-5.57612E-01-8.28693E-14-3.71434E-13
 -1      1099 1.91189E+01 8.33748E-01 9.70431E-05 1.93751E-01-2.11925E-14-1.13699E-13
 -1      1100 1.74640E+01 1.21182E+00-6.06106E-04 3.67263E-01 6.72083E-14-5.30040E-14
 -1      1101 1.93402E+01 7.10337E-01 8.64477E-05 1.60989E-01-5.27372E-14-4.45351E-15
 -1      1102 1.95130E+01 5.93134E-01 5.66540E-05 1.31370E-01 8.44599E-14-5.77287E-14
 -1      1103 1.96490E+01 4.84430E-01-1.25891E-04 1.04065E-01 8.09089E-14-4.07306E-14
 -1      1104 1.91761E+01 8.05840E-01-1.71909E-04-5.67047E-01 7.04433E-15-1.39185E-13
 -1      1105 1.84832E+01 1.07212E+00-1.78255E-04 2.71837E-01-3.03168E-14 9.24815E-14
 -1      1106 2.02211E+01 9.33964E-01-1.71638E-04 2.35834E-02 3.24061E-14-4.61433E-13
 -1      1107 1.99293E+01 6.61058E-01 2.10730E-04 1.17194E-01 7.22726E-14-2.56096E-13
 -1      1108 1.80544E+01 1.15473E+00 1.93334E-03 3.16832E-01 1.16704E-13 4.21673E-14
 -1      1109 1.99582E+01 6.55998E-01-2.00823E-04-1.51191E-01 1.25989E-13-2.26465E-13
 -1      1110 1.71148E+01 1.14994E+00 2.00854E-03-4.50233E-01 1.70592E-15-2.75687E-13
 -1      1111 1.88498E+01 9.13175E-01-5.09590E-04-2.82071E-01 1.92268E-14-3.29882E-13
 -1      1112 1.94714E+01 7.13763E-01 2.94732E-04-4.82907E-01 2.25735E-14-2.06352E-13
 -1      1113 2.00892E+01 7.08768E-01 4.02944E-04 8.27910E-02 1.31653E-14-3.51015E-13
 -1      1114 1.83985E+01 1.01607E+00-1.04997E-04-3.16331E-01 8.64260E-14-2.64501E-13
 -1      1115 1.97557E+01 6.69547E-01-1.16760E-04-1.89518E-01 1.21362E-13-2.55224E-13
 -1      1116 1.92844E+01 7.92822E-01-7.45750E-04-4.96469E-02 3.09580E-14-3.23632E-13
 -1      1117 1.72577E+01 1.12136E+00-1.10106E-02 6.90024E-02 8.35714E-14-7.33847E-14
 -1      1118 1.78221E+01 1.18198E+00-2.44641E-03-3.58883E-02 3.79889E-14-3.14840E-13
 -1      1119 2.01376E+01 7.65114E-01-3.31071E-04-2.50283E-02 8.13559E-14-3.16810E-13
 -1      1120 1.64465E+01 1.22275E+00-6.49753E-04-1.77906E-01-4.11981E-13-6.63713E-13
 -1      1121 1.78355E+01 1.10098E+00 6.17336E-04-3.67631E-01 1.68669E-13-2.86466E-13
 -1      1122 1.72299E+01 1.22776E+00 5.04335E-04-8.99478E-02-2.38335E-13-7.78547E-13
 -1      1123 1.95405E+01 7.23698E-01 4.46648E-04-1.35542E-01 5.07676E-14-2.69353E-13
 -1      1124 2.78680E+01 9.05453E+00 2.31354E+00-6.67003E+00-8.38218E-14 1.95707E-12
 -1      1125 2.05196E+01 6.21909E+00 2.10661E-01-3.88099E+00-4.18554E-14-4.86694E-14
 -1      1126 1.94341E+01 5.85331E+00 7.68978E-02-2.86157E+00-2.51119E-14-8.35573E-13
 -1      1127 1.90410E+01 5.73074E+00 6.14883E-02-2.20594E+00-1.52031E-14-1.16574E-12
 -1      1128 1.88619E+01 5.67596E+00 5.79340E-02-1.67224E+00-8.75168E-15-1.29848E-12
 -1      1129 1.87707E+01 5.64778E+00 5.52159E-02-1.20811E+00-3.24220E-15-1.32670E-12
 -1      1130 1.87215E+01 5.63233E+00 5.28805E-02-7.84876E-01 3.69496E-16-1.31319E-12
 -1      1131 1.86967E+01 5.62440E+00 5.12770E-02-3.82528E-01 2.59601E-15-1.26870E-12
 -1      1132 1.86895E+01 5.62209E+00 5.07559E-02 8.27944E-03 5.84710E-15-1.21894E-12
 -1      1133 1.86980E+01 5.62483E+00 5.14091E-02 3.99513E-01 7.83835E-15-1.14626E-12
 -1      1134 1.87241E+01 5.63320E+00 5.31890E-02 8.03282E-01 1.12662E-14-1.05724E-12
 -1      1135 1.87750E+01 5.64931E+00 5.59846E-02 1.22927E+00 1.47269E-14-9.20958E-13
 -1      1136 1.88677E+01 5.67799E+00 5.88751E-02 1.69792E+00 2.04056E-14-7.26030E-13
 -1      1137 1.90466E+01 5.73244E+00 6.15232E-02 2.23921E+00 2.60729E-14-3.96683E-13
 -1      1138 1.94307E+01 5.85048E+00 7.08654E-02 2.90230E+00 3.15997E-14 1.68752E-13
 -1      1139 2.04254E+01 6.17400E+00 1.54511E-01 3.85597E+00 3.32234E-14 1.19893E-12
 -1      1140 2.51324E+01 7.96643E+00 1.42228E+00 5.82194E+00 5.61218E-14 3.19056E-12
 -1      1141 2.86911E+01 3.59703E+00 1.25912E+00-4.19779E+00-3.25712E-13 3.21121E-12
 -1      1142 2.01575E+01-1.77837E-01-6.15700E-01-1.08456E-01-1.07733E-13 2.46000E-12
 -1      1143 1.87891E+01-9.67497E-02-2.36088E-01 6.23718E-02-4.69572E-14 1.43582E-12
 -1      1144 1.84792E+01-4.90058E-02-6.03761E-02 4.01779E-02-2.52615E-14 7.18696E-13
 -1      1145 1.84548E+01-2.61722E-02-1.68569E-02 2.64793E-02-2.75188E-14 2.43753E-13
 -1      1146 1.85794E+01-1.52831E-02-7.49539E-03 1.88855E-02-2.05964E-14-6.11178E-14
 -1      1147 1.87874E+01-9.62474E-03-4.97996E-03 1.42060E-02-2.20201E-16-2.31301E-13
 -1      1148 1.90463E+01-6.75362E-03-4.10310E-03 1.12213E-02-4.63128E-15-3.02591E-13
 -1      1149 1.93416E+01-5.52061E-03-4.11910E-03 9.37101E-03-2.62023E-14-5.03998E-13
 -1      1150 1.96701E+01-5.27839E-03-4.84162E-03 8.42080E-03-1.16531E-14-7.48252E-13
 -1      1151 2.00350E+01-5.57950E-03-6.02133E-03 8.28993E-03-2.78580E-15-9.41482E-13
 -1      1152 2.04436E+01-6.02091E-03-7.28863E-03 8.95753E-03 1.80670E-14-9.67696E-13
 -1      1153 2.09039E+01-6.14597E-03-8.10612E-03 1.03944E-02 9.69906E-15-1.04795E-12
 -1      1154 2.14206E+01-5.37099E-03-7.67875E-03 1.24811E-02-8.22313E-16-1.09392E-12
 -1      1155 2.19899E+01-2.94111E-03-4.86034E-03 1.48804E-02 3.66409E-15-1.12118E-12
 -1      1156 2.25914E+01 2.03980E-03 1.84915E-03 1.68452E-02-5.55204E-14-1.10336E-12
 -1      1157 2.31781E+01 1.04056E-02 1.40193E-02 1.69758E-02-2.35566E-14-1.30108E-12
 -1      1158 2.36663E+01 2.23985E-02 3.23906E-02 1.30527E-02 3.34181E-14-1.29440E-12
 -1      1159 2.39301E+01 3.66674E-02 5.50908E-02 2.27087E-03 1.43063E-14-1.44218E-12
 -1      1160 2.38145E+01 4.90011E-02 7.53021E-02-1.75621E-02-7.74641E-15-1.66012E-12
 -1      1161 2.31809E+01 5.17253E-02 8.02086E-02-4.54156E-02 7.52133E-15-1.59346E-12
 -1      1162 2.19947E+01 3.58347E-02 5.50495E-02-7.38055E-02 1.17814E-14-1.24629E-12
 -1      1163 2.04275E+01-2.14043E-03-5.16699E-03-8.82914E-02 2.71051E-19-9.71279E-13
 -1      1164 1.88950E+01-5.14859E-02-8.25294E-02-7.42226E-02-1.17285E-14-1.33746E-12
 -1      1165 1.79338E+01-8.74388E-02-1.38317E-01-2.94281E-02 3.87156E-14-1.42224E-12
 -1      1166 1.79319E+01-8.76659E-02-1.38614E-01 2.89264E-02 3.43727E-14-1.15168E-12
 -1      1167 1.88915E+01-5.19348E-02-8.31400E-02 7.39470E-02 3.92134E-14-1.08542E-12
 -1      1168 2.04270E+01-2.63875E-03-5.81069E-03 8.82298E-02-9.04084E-15-1.43555E-12
 -1      1169 2.20023E+01 3.52905E-02 5.43801E-02 7.38997E-02-1.70953E-14-1.63923E-12
 -1      1170 2.32016E+01 5.11837E-02 7.95399E-02 4.56107E-02 2.50043E-14-1.53266E-12
 -1      1171 2.38530E+01 4.83993E-02 7.45862E-02 1.78218E-02-3.54621E-14-1.31992E-12
 -1      1172 2.39914E+01 3.59420E-02 5.42233E-02-1.94671E-03-1.14500E-14-1.36069E-12
 -1      1173 2.37566E+01 2.14839E-02 3.12686E-02-1.26159E-02 3.27449E-14-1.41815E-12
 -1      1174 2.33055E+01 9.27103E-03 1.25748E-02-1.63464E-02 3.42977E-14-1.38286E-12
 -1      1175 2.27660E+01 6.74313E-04 4.82876E-05-1.59206E-02-5.60396E-15-1.12060E-12
 -1      1176 2.22245E+01-4.51841E-03-7.02312E-03-1.35409E-02 1.13069E-14-9.28329E-13
 -1      1177 2.17303E+01-7.11246E-03-1.01818E-02-1.05859E-02 5.38285E-15-1.47132E-12
 -1      1178 2.13061E+01-7.96291E-03-1.08942E-02-7.77409E-03 4.34103E-14-8.72255E-13
 -1      1179 2.09577E+01-7.76342E-03-1.02544E-02-5.40451E-03-9.17886E-16-4.09861E-13
 -1      1180 2.06810E+01-7.00692E-03-8.98027E-03-3.54738E-03-1.87616E-14-3.24647E-13
 -1      1181 2.04678E+01-6.01464E-03-7.50274E-03-2.16499E-03-7.31471E-14-7.05633E-13
 -1      1182 2.03077E+01-4.98122E-03-6.06051E-03-1.17866E-03-4.09324E-14-1.32206E-12
 -1      1183 2.01909E+01-4.01552E-03-4.77369E-03-5.01803E-04 7.82916E-14-1.42256E-12
 -1      1184 2.01083E+01-3.17162E-03-3.69425E-03-5.36909E-05-6.06611E-16-1.02942E-12
 -1      1185 2.00523E+01-2.46960E-03-2.83792E-03 2.37405E-04 1.82358E-14-9.26256E-13
 -1      1186 2.00167E+01-1.90730E-03-2.19898E-03 4.37624E-04 2.79905E-14-5.90192E-13
 -1      1187 1.99969E+01-1.46264E-03-1.73254E-03 6.14215E-04-4.55305E-14-6.47000E-13
 -1      1188 1.99895E+01-1.06004E-03-1.27699E-03 8.30423E-04 4.48165E-14 1.29505E-13
 -1      1189 1.99920E+01-7.38282E-04-2.95551E-04 1.18891E-03 2.27954E-15 5.99198E-13
 -1      1190 1.99982E+01 6.37893E-04 1.59039E-03 5.43939E-04 4.16735E-14 3.02717E-13
 -1      1191 2.76753E+01 5.23393E-01 3.70032E-01 1.95945E+00-5.76483E-14 4.78712E-12
 -1      1192 2.00154E+01-6.64937E-02-5.72877E-01 1.28983E-01 2.28706E-14 4.03397E-12
 -1      1193 1.88620E+01-4.11563E-02-1.93101E-01 1.97213E-02 2.02009E-14 3.24249E-12
 -1      1194 1.85063E+01-2.23786E-02-5.13011E-02 2.22302E-03 1.38388E-15 2.68899E-12
 -1      1195 1.84656E+01-1.38674E-02-1.49504E-02-2.92533E-03 1.84757E-14 2.29267E-12
 -1      1196 1.85837E+01-9.48454E-03-7.07468E-03-4.00870E-03 1.58133E-14 1.95199E-12
 -1      1197 1.87889E+01-7.18508E-03-5.39583E-03-3.82271E-03 1.83858E-14 1.73545E-12
 -1      1198 1.90473E+01-6.17354E-03-5.11933E-03-3.17108E-03-5.86662E-16 1.65924E-12
 -1      1199 1.93451E+01-6.06244E-03-5.62741E-03-2.33699E-03-3.79969E-15 1.55038E-12
 -1      1200 1.96801E+01-6.61436E-03-6.89561E-03-1.49777E-03-5.04859E-16 1.47611E-12
 -1      1201 2.00586E+01-7.62935E-03-8.84707E-03-8.32058E-04 1.80792E-14 1.30369E-12
 -1      1202 2.04923E+01-8.86471E-03-1.12806E-02-5.65580E-04 6.95418E-15 1.16685E-12
 -1      1203 2.09964E+01-9.94589E-03-1.38018E-02-1.01088E-03 2.35079E-14 9.64459E-13
 -1      1204 2.15857E+01-1.02516E-02-1.56621E-02-2.60191E-03-2.35738E-15 9.63033E-13
 -1      1205 2.22699E+01-8.78267E-03-1.55012E-02-5.89557E-03 2.65022E-15 9.52325E-13
 -1      1206 2.30445E+01-4.07980E-03-1.10518E-02-1.14669E-02 2.35123E-14 9.69481E-13
 -1      1207 2.38765E+01 5.61664E-03 9.54949E-04-1.95516E-02-2.32362E-14 1.07446E-12
 -1      1208 2.46844E+01 2.15740E-02 2.40485E-02-2.92262E-02 3.96276E-15 9.96342E-13
 -1      1209 2.53165E+01 4.26529E-02 5.93515E-02-3.70631E-02 2.48187E-14 6.59563E-13
 -1      1210 2.55429E+01 6.24093E-02 1.00277E-01-3.59446E-02-4.11563E-15 5.84968E-13
 -1      1211 2.50946E+01 6.74990E-02 1.26888E-01-1.62881E-02-4.68375E-16 7.67580E-13
 -1      1212 2.37905E+01 4.30894E-02 1.08667E-01 2.69966E-02-1.64504E-14 8.50972E-13
 -1      1213 2.17499E+01-1.19340E-02 2.57012E-02 8.27337E-02-3.78289E-14 6.19116E-13
 -1      1214 1.95515E+01-7.15993E-02-9.85359E-02 1.19677E-01-3.98986E-15 5.07497E-13
 -1      1215 1.80966E+01-9.64945E-02-1.93330E-01 1.05246E-01-1.74340E-15 3.76428E-13
 -1      1216 1.80951E+01-7.15970E-02-1.93950E-01 3.87249E-02 3.16067E-15 2.89012E-13
 -1      1217 1.95466E+01-2.11087E-02-1.04553E-01-4.17981E-02-2.98130E-14 3.99042E-13
 -1      1218 2.17433E+01 2.07499E-02 8.72500E-03-9.23409E-02 3.81737E-14 5.04874E-14
 -1      1219 2.37878E+01 3.88236E-02 8.29777E-02-9.77482E-02-2.07130E-14-1.86406E-13
 -1      1220 2.51042E+01 3.75968E-02 1.00990E-01-7.24348E-02-1.84514E-14-1.47424E-13
 -1      1221 2.55736E+01 2.74589E-02 8.15178E-02-3.87446E-02 4.41491E-14-2.54909E-13
 -1      1222 2.53749E+01 1.60507E-02 5.00367E-02-1.11469E-02 6.48912E-14-6.72525E-13
 -1      1223 2.47760E+01 6.89245E-03 2.23794E-02 6.05348E-03-9.99092E-15-3.79426E-13
 -1      1224 2.40077E+01 7.59842E-04 3.80799E-03 1.42947E-02 1.52944E-14-4.93924E-13
 -1      1225 2.32241E+01-2.78405E-03-6.38444E-03 1.66535E-02-1.39587E-14-3.79710E-13
 -1      1226 2.25095E+01-4.48707E-03-1.07709E-02 1.58280E-02-2.16668E-14-4.26000E-13
 -1      1227 2.18999E+01-5.02586E-03-1.17604E-02 1.36185E-02 4.00680E-14-7.15877E-13
 -1      1228 2.14025E+01-4.89798E-03-1.10299E-02 1.10460E-02 1.37553E-14-5.22193E-13
 -1      1229 2.10095E+01-4.43153E-03-9.58127E-03 8.61203E-03 3.04820E-14-8.11719E-13
 -1      1230 2.07069E+01-3.82775E-03-7.95184E-03 6.51894E-03 2.42780E-14-7.95650E-13
 -1      1231 2.04792E+01-3.20280E-03-6.40281E-03 4.81470E-03 5.19284E-15-6.00513E-13
 -1      1232 2.03117E+01-2.61974E-03-5.04532E-03 3.47644E-03 2.68980E-15-3.61037E-13
 -1      1233 2.01912E+01-2.11025E-03-3.91551E-03 2.45415E-03 4.56178E-15-5.12621E-13
 -1      1234 2.01072E+01-1.68751E-03-3.01556E-03 1.69091E-03 1.90882E-14-6.28177E-13
 -1      1235 2.00508E+01-1.35318E-03-2.33411E-03 1.13001E-03 4.36958E-14-5.43983E-13
 -1      1236 2.00154E+01-1.09662E-03-1.85098E-03 7.14275E-04-4.23417E-14-7.39514E-13
 -1      1237 1.99959E+01-8.93405E-04-1.51792E-03 3.77568E-04 4.81023E-14-1.15413E-12
 -1      1238 1.99890E+01-6.46017E-04-1.14482E-03 2.21880E-06-4.71048E-14-1.01781E-12
 -1      1239 1.99918E+01-1.69415E-05-1.32083E-04-5.81660E-04 9.44678E-14-8.95819E-13
 -1      1240 1.99984E+01 5.23402E-04 1.62292E-03-5.20548E-04 2.01677E-14-6.13887E-13
 -1      1241 2.00002E+01-1.59717E-03 1.46417E-03-5.80939E-04-6.82729E-13 9.49921E-15
 -1      1242 1.99993E+01-7.82545E-03-4.50734E-04-1.01463E-03-2.42856E-13-1.67511E-14
 -1      1243 1.99990E+01-8.83537E-03-1.24394E-03-4.00267E-04 6.86675E-13-1.13403E-13
 -1      1244 1.99992E+01-6.92740E-04-1.06957E-03 1.22591E-04 5.27297E-13 2.30940E-14
 -1      1245 1.99996E+01 1.45283E-02-4.83228E-04 4.34738E-04 5.56373E-13 6.07575E-14
 -1      1246 2.00000E+01 3.26317E-02 1.72870E-04 5.35444E-04-4.97394E-13-1.53673E-13
 -1      1247 2.00004E+01 4.94325E-02 7.35390E-04 4.67788E-04-8.81927E-14 7.98540E-14
 -1      1248 2.00007E+01 6.13319E-02 1.11440E-03 2.69538E-04 2.17745E-13-1.04760E-13
 -1      1249 2.00008E+01 6.56387E-02 1.24603E-03 5.89390E-06-3.81141E-13-1.72354E-13
 -1      1250 2.00007E+01 6.14734E-02 1.11328E-03-2.57894E-04-1.39970E-13 1.65415E-14
 -1      1251 2.00004E+01 4.97256E-02 7.35116E-04-4.55659E-04-1.30300E-12-2.82679E-13
 -1      1252 2.00000E+01 3.30678E-02 1.78658E-04-5.30466E-04-2.09695E-12 4.91781E-14
 -1      1253 1.99996E+01 1.50859E-02-4.69316E-04-4.29926E-04-1.48439E-12 9.66315E-14
 -1      1254 1.99992E+01-9.29903E-05-1.04928E-03-1.29146E-04-4.14558E-13 3.63825E-14
 -1      1255 1.99992E+01-8.46905E-03-1.22233E-03 4.39585E-04-6.78697E-13-4.08514E-14
 -1      1256 1.99993E+01-7.05951E-03-2.42702E-04 1.53425E-03-6.20234E-13-1.32746E-13
 -1      1257 2.00002E+01-1.86578E-03 1.38362E-03 7.23948E-04-3.43996E-13-5.33888E-14
 -1      1258-1.03434E+00-2.40586E+01-3.72527E+00-2.14219E+00 2.06718E-12 3.00291E-13
 -1      1259-1.83399E+00-1.58575E+01-3.12664E+00-4.17275E+00 2.47602E-12 8.25173E-13
 -1      1260-2.42602E-01-3.79472E+00-2.04277E+00-9.25525E-01 2.92388E-12 1.67444E-12
 -1      1261 7.97502E+00 6.77316E+00-4.91083E-01 7.31264E+00 2.91855E-12 2.68630E-12
 -1      1262 2.44991E+01 1.08929E+01 1.27256E+00 1.56726E+01 2.25042E-12 3.10996E-12
 -1      1263 4.54586E+01 8.37840E+00 2.97678E+00 1.75256E+01 1.26055E-12 2.62146E-12
 -1      1264 6.22997E+01 3.63416E+00 4.01115E+00 1.03041E+01 3.30388E-13 7.02327E-13
 -1      1265 6.75786E+01 1.67036E+00 4.37113E+00-2.55454E+00 2.30593E-13-1.94861E-12
 -1      1266 5.74065E+01 5.03630E+00 3.68696E+00-1.39320E+01 9.52016E-13-3.54805E-12
 -1      1267 3.87089E+01 9.69849E+00 2.45683E+00-1.80657E+01 2.18758E-12-4.26881E-12
 -1      1268 1.85442E+01 1.05274E+01 7.24165E-01-1.35188E+01 3.43703E-12-4.22662E-12
 -1      1269 4.21966E+00 3.76252E+00-1.06905E+00-4.24028E+00 3.98903E-12-3.22964E-12
 -1      1270-1.37894E+00-8.84216E+00-2.53087E+00 2.82297E+00 3.51763E-12-1.79956E-12
 -1      1271-1.48590E+00-2.05163E+01-3.46424E+00 3.87553E+00 1.82176E-12-5.99257E-13
 -1      1272-8.47238E-01-2.50368E+01-3.76283E+00 1.44866E-01-1.01391E-12-2.17014E-13
 -1      1273-1.44673E+00-2.03186E+01-3.42389E+00-3.60485E+00-3.77298E-12-9.07149E-13
 -1      1274-1.21772E+00-8.41230E+00-2.43534E+00-2.70169E+00-4.69136E-12-2.22988E-12
 -1      1275 3.76004E+00 3.68738E+00-1.02924E+00 3.91670E+00-4.59721E-12-3.50164E-12
 -1      1276 1.53522E+01 1.02489E+01 4.69919E-01 1.21826E+01-3.74412E-12-4.14424E-12
 -1      1277 3.23874E+01 1.06508E+01 1.94331E+00 1.76153E+01-2.52454E-12-4.10871E-12
 -1      1278 5.06907E+01 6.74292E+00 3.18705E+00 1.65511E+01-1.12221E-12-2.94720E-12
 -1      1279 6.37969E+01 2.57403E+00 4.01478E+00 8.25601E+00-2.23585E-13-1.08047E-12
 -1      1280 6.56708E+01 1.98603E+00 4.11745E+00-4.06988E+00-2.51986E-13 1.14816E-12
 -1      1281 5.60635E+01 5.19049E+00 3.57419E+00-1.45121E+01-8.32556E-13 2.74913E-12
 -1      1282 3.85152E+01 9.68929E+00 2.39011E+00-1.80055E+01-1.89593E-12 3.61444E-12
 -1      1283 2.03204E+01 1.09367E+01 9.42643E-01-1.43859E+01-2.75913E-12 3.42992E-12
 -1      1284 6.71146E+00 6.30208E+00-5.97759E-01-6.55851E+00-3.33755E-12 2.94653E-12
 -1      1285-1.96388E-01-3.65520E+00-1.97297E+00 7.69479E-01-3.05089E-12 1.91580E-12
 -1      1286-1.76549E+00-1.55602E+01-3.09140E+00 3.97253E+00-1.67977E-12 6.95610E-13
 -1      1287-1.18253E+00-2.36295E+01-3.68079E+00 2.10884E+00 7.26086E-14 1.20171E-13
 -1      1288 2.22004E+01 1.83525E+00-7.23323E-01-2.77641E+00-1.23623E-13 1.47882E-12
 -1      1289 2.03430E+01 4.68346E+00-4.76898E-02-3.28119E+00-2.93224E-13-4.20594E-13
 -1      1290 2.08346E+01 4.79875E+00-1.12399E-01-4.13498E+00-3.95045E-13-3.44169E-15
 -1      1291 1.95377E+01 4.99204E+00-1.91582E-02-2.62447E+00-2.71873E-13-9.85156E-13
 -1      1292 1.98265E+01 5.08607E+00 1.13022E-03-3.01692E+00-3.14034E-13-7.53092E-13
 -1      1293 2.05172E+01 3.94702E+00-2.54501E-02-3.04457E+00-5.03039E-13-3.66207E-13
 -1      1294 1.92017E+01 5.08882E+00-3.41122E-03-2.03890E+00-1.96461E-13-1.22854E-12
 -1      1295 1.93458E+01 5.14262E+00 1.12813E-02-2.33214E+00-2.33178E-13-1.12547E-12
 -1      1296 1.97636E+01 4.36707E+00-2.40502E-02-2.45563E+00-4.16649E-13-8.26693E-13
 -1      1297 1.90311E+01 5.13994E+00 3.12298E-03-1.53392E+00-1.22624E-13-1.32393E-12
 -1      1298 1.91075E+01 5.16911E+00 1.30605E-02-1.78288E+00-1.46289E-13-1.28823E-12
 -1      1299 1.94104E+01 4.56383E+00-1.96512E-02-1.89777E+00-2.85062E-13-1.03602E-12
 -1      1300 1.89374E+01 5.17353E+00 6.16840E-03-1.09089E+00-5.56126E-14-1.33769E-12
 -1      1301 1.89803E+01 5.19002E+00 1.29559E-02-1.30962E+00-7.98597E-14-1.33396E-12
 -1      1302 1.92262E+01 4.67779E+00-1.57308E-02-1.41288E+00-1.70922E-13-1.11015E-12
 -1      1303 1.88842E+01 5.19601E+00 7.73349E-03-6.75520E-01-2.67147E-15-1.30682E-12
 -1      1304 1.89082E+01 5.20517E+00 1.19995E-02-8.81545E-01-1.91245E-14-1.32707E-12
 -1      1305 1.91212E+01 4.74922E+00-1.36225E-02-9.78707E-01-6.97155E-14-1.12472E-12
 -1      1306 1.88588E+01 5.20965E+00 8.83666E-03-2.80947E-01 5.99820E-14-1.26179E-12
 -1      1307 1.88694E+01 5.21370E+00 1.08757E-02-4.77896E-01 3.96749E-14-1.28492E-12
 -1      1308 1.90628E+01 4.79245E+00-1.24992E-02-5.72200E-01 2.25782E-14-1.08562E-12
 -1      1309 1.88548E+01 5.21530E+00 9.86631E-03 1.05275E-01 1.10882E-13-1.20598E-12
 -1      1310 1.88544E+01 5.21514E+00 9.79157E-03-8.88876E-02 9.36611E-14-1.23796E-12
 -1      1311 1.90368E+01 4.81276E+00-1.20307E-02-1.83452E-01 1.23416E-13-1.04708E-12
 -1      1312 1.88714E+01 5.21340E+00 1.09801E-02 4.94887E-01 1.59668E-13-1.13243E-12
 -1      1313 1.88600E+01 5.20904E+00 8.77435E-03 2.97502E-01 1.40622E-13-1.17720E-12
 -1      1314 1.90378E+01 4.81214E+00-1.20466E-02 1.99768E-01 2.04207E-13-9.92061E-13
 -1      1315 1.89120E+01 5.20409E+00 1.21393E-02 9.00072E-01 2.07273E-13-1.03387E-12
 -1      1316 1.88871E+01 5.19472E+00 7.68494E-03 6.93046E-01 1.93099E-13-1.09465E-12
 -1      1317 1.90658E+01 4.79043E+00-1.25444E-02 5.89206E-01 2.89888E-13-9.19709E-13
 -1      1318 1.89851E+01 5.18821E+00 1.31886E-02 1.32711E+00 2.67479E-13-8.96503E-13
 -1      1319 1.89413E+01 5.17130E+00 6.10032E-03 1.10688E+00 2.46234E-13-9.78627E-13
 -1      1320 1.91262E+01 4.74565E+00-1.35793E-02 9.93643E-01 3.72209E-13-8.16666E-13
 -1      1321 1.91159E+01 5.16544E+00 1.33563E-02 1.80887E+00 3.31983E-13-6.73479E-13
 -1      1322 1.90378E+01 5.13550E+00 2.99466E-03 1.55711E+00 3.00550E-13-8.04945E-13
 -1      1323 1.92336E+01 4.67117E+00-1.57490E-02 1.43083E+00 4.59219E-13-6.62574E-13
 -1      1324 1.93568E+01 5.13641E+00 1.09048E-02 2.36641E+00 3.87836E-13-3.22076E-13
 -1      1325 1.92114E+01 5.08075E+00-4.22677E-03 2.06865E+00 3.52638E-13-5.36227E-13
 -1      1326 1.94244E+01 4.55137E+00-1.95881E-02 1.92394E+00 5.52551E-13-4.27974E-13
 -1      1327 1.98514E+01 5.09513E+00 6.89802E-03 3.05540E+00 4.16403E-13 2.90545E-13
 -1      1328 1.95493E+01 4.98321E+00-1.99920E-02 2.66665E+00 3.76713E-13-7.55958E-14
 -1      1329 1.97848E+01 4.34756E+00-2.41323E-02 2.49445E+00 6.11225E-13-3.00177E-14
 -1      1330 2.10682E+01 4.89483E+00 8.75856E-03 4.02867E+00 3.29792E-13 1.37962E-12
 -1      1331 2.03169E+01 4.72671E+00-4.70503E-02 3.39028E+00 3.31277E-13 7.21687E-13
 -1      1332 2.05547E+01 3.91031E+00-2.19332E-02 3.14782E+00 6.01841E-13 6.35159E-13
 -1      1333 2.71073E+01 3.19240E+00 9.22096E-01 4.56000E+00 1.34545E-13 3.31729E-12
 -1      1334 2.19685E+01 3.51372E+00-1.80776E-01 3.86345E+00 1.48215E-13 1.98991E-12
 -1      1335 2.20721E+01 2.55506E+00-3.23504E-02 3.43063E+00 5.21886E-13 1.62168E-12
 -1      1336 2.13602E+01 3.58555E-01-7.61548E-01 1.17389E+00 2.64788E-13 3.23441E-12
 -1      1337 2.19402E+01 1.30891E-01-3.99998E-01-1.27324E+00-3.34399E-13 1.62617E-12
 -1      1338 2.06309E+01 3.05768E-01-1.64072E-01-7.95498E-01-2.99566E-13 1.22803E-12
 -1      1339 2.00432E+01 1.53527E-01-7.31216E-02-3.92077E-01-2.54737E-13 1.07638E-12
 -1      1340 1.95856E+01 9.16359E-02-1.45802E-02-3.19934E-01-2.45026E-13 7.00009E-13
 -1      1341 2.09430E+01 3.68125E-01-1.04135E-01-1.25347E+00-5.38188E-13 5.09558E-13
 -1      1342 1.92406E+01 6.53463E-02 3.24570E-03-1.23836E-01-1.95195E-13 5.75325E-13
 -1      1343 1.91004E+01 4.25309E-02 1.34649E-02-1.05508E-01-1.75745E-13 3.06113E-13
 -1      1344 1.99144E+01 1.34589E-01-3.54067E-02-4.82212E-01-4.23182E-13 2.91430E-13
 -1      1345 1.89559E+01 3.31720E-02 1.33962E-02-1.26832E-02-1.34679E-13 1.87492E-13
 -1      1346 1.89553E+01 2.14548E-02 1.13183E-02-2.36932E-03-1.34722E-13-2.34708E-15
 -1      1347 1.94649E+01 5.76157E-02-8.98801E-03-1.42457E-01-3.08319E-13 5.63855E-14
 -1      1348 1.89208E+01 1.85063E-02 8.94212E-03 4.64547E-02-8.77380E-14-4.88845E-14
 -1      1349 1.89896E+01 1.20273E-02 6.75458E-03 5.24592E-02-6.44684E-14-1.59289E-13
 -1      1350 1.92928E+01 2.79660E-02-4.20709E-03 2.66533E-02-1.93562E-13-1.17507E-13
 -1      1351 1.90191E+01 1.13397E-02 4.85018E-03 8.09085E-02-5.58145E-14-1.85690E-13
 -1      1352 1.91267E+01 7.48219E-03 4.01923E-03 8.46976E-02-3.61343E-14-2.46621E-13
 -1      1353 1.92860E+01 1.52880E-02-3.18945E-03 1.20362E-01-1.28814E-13-1.93943E-13
 -1      1354 1.91962E+01 7.83651E-03 2.61321E-03 1.03236E-01-3.22449E-14-2.68907E-13
 -1      1355 1.93285E+01 5.48939E-03 2.64157E-03 1.06020E-01-4.37660E-14-3.39355E-13
 -1      1356 1.93805E+01 9.67596E-03-2.60862E-03 1.77703E-01-7.56856E-14-2.74700E-13
 -1      1357 1.94259E+01 6.43209E-03 1.46453E-03 1.20254E-01-6.50427E-14-3.52901E-13
 -1      1358 1.95772E+01 5.00328E-03 1.90315E-03 1.22797E-01-9.60590E-14-4.66762E-13
 -1      1359 1.95415E+01 7.68397E-03-2.20359E-03 2.17806E-01-1.08678E-13-3.36035E-13
 -1      1360 1.96965E+01 6.32772E-03 7.94373E-04 1.36051E-01-9.99566E-14-4.87407E-13
 -1      1361 1.98662E+01 5.42553E-03 1.42931E-03 1.38854E-01-9.37117E-14-5.89184E-13
 -1      1362 1.97519E+01 7.81194E-03-2.04300E-03 2.51395E-01-1.51960E-13-3.73954E-13
 -1      1363 2.00056E+01 6.99933E-03 3.08000E-04 1.53090E-01-6.45246E-14-6.17098E-13
 -1      1364 2.01956E+01 6.29279E-03 1.04987E-03 1.56449E-01-1.56429E-14-6.84604E-13
 -1      1365 2.00039E+01 9.18690E-03-2.10716E-03 2.84857E-01-1.26283E-13-4.14729E-13
 -1      1366 2.03552E+01 7.98121E-03-1.27840E-04 1.72532E-01 2.07549E-15-7.34850E-13
 -1      1367 2.05687E+01 7.12413E-03 6.76069E-04 1.76525E-01-1.90549E-14-7.60425E-13
 -1      1368 2.02958E+01 1.10811E-02-2.30839E-03 3.21640E-01-4.37495E-14-4.88250E-13
 -1      1369 2.07493E+01 8.73198E-03-5.72763E-04 1.94141E-01-3.17071E-14-8.18833E-13
 -1      1370 2.09889E+01 7.31224E-03 2.56166E-04 1.98568E-01-1.87474E-14-8.45130E-13
 -1      1371 2.06285E+01 1.26608E-02-2.51982E-03 3.62483E-01-7.58696E-14-6.22460E-13
 -1      1372 2.11901E+01 8.52172E-03-1.03193E-03 2.15892E-01 1.07023E-14-8.62514E-13
 -1      1373 2.14554E+01 6.03030E-03-2.21405E-04 2.20150E-01-3.23162E-14-8.97882E-13
 -1      1374 2.10026E+01 1.27910E-02-2.57055E-03 4.04924E-01-2.79089E-14-6.79488E-13
 -1      1375 2.16741E+01 6.33494E-03-1.43490E-03 2.33310E-01-4.25772E-15-9.05578E-13
 -1      1376 2.19584E+01 2.17701E-03-6.95965E-04 2.36223E-01-1.35070E-15-8.62668E-13
 -1      1377 2.14150E+01 9.86501E-03-2.22327E-03 4.42279E-01-4.67385E-14-6.52618E-13
 -1      1378 2.21860E+01 8.38335E-04-1.59283E-03 2.38688E-01-3.06781E-14-8.07916E-13
 -1      1379 2.24725E+01-5.55580E-03-9.87073E-04 2.38314E-01-5.96662E-14-8.47652E-13
 -1      1380 2.18548E+01 1.72953E-03-1.15245E-03 4.62270E-01-1.56022E-14-5.89113E-13
 -1      1381 2.26924E+01-9.45391E-03-1.16212E-03 2.20590E-01-5.54357E-14-8.35445E-13
 -1      1382 2.29491E+01-1.83153E-02-7.64860E-04 2.14125E-01-2.91015E-14-9.02676E-13
 -1      1383 2.22985E+01-1.40883E-02 1.04832E-03 4.45890E-01-6.14888E-14-5.00853E-13
 -1      1384 2.31347E+01-2.55641E-02 3.17142E-04 1.64569E-01 4.09763E-14-8.87204E-13
 -1      1385 2.33116E+01-3.61548E-02 3.76813E-04 1.48650E-01 6.26717E-14-8.70894E-13
 -1      1386 2.27052E+01-3.94447E-02 4.77383E-03 3.67842E-01 1.31258E-14-4.83844E-13
 -1      1387 2.34257E+01-4.66873E-02 3.17734E-03 5.67920E-02-4.62113E-14-9.42919E-13
 -1      1388 2.34570E+01-5.63745E-02 2.64247E-03 2.86676E-02-1.05578E-13-1.05233E-12
 -1      1389 2.30131E+01-7.34260E-02 1.01290E-02 2.01185E-01-4.79027E-14-6.02043E-13
 -1      1390 2.34561E+01-6.80671E-02 7.11851E-03-1.07484E-01-3.49148E-14-1.07244E-12
 -1      1391 2.32750E+01-7.15846E-02 5.51808E-03-1.47410E-01-6.96335E-14-1.11995E-12
 -1      1392 2.31431E+01-1.08978E-01 1.63759E-02-7.03559E-02-9.93858E-14-6.14551E-13
 -1      1393 2.31220E+01-7.91970E-02 1.05691E-02-3.10400E-01 2.98060E-14-1.12647E-12
 -1      1394 2.26908E+01-6.94140E-02 7.26569E-03-3.54934E-01 6.36921E-14-1.03561E-12
 -1      1395 2.30136E+01-1.29846E-01 2.12677E-02-4.30591E-01-2.78024E-14-6.05209E-13
 -1      1396 2.23776E+01-6.54929E-02 1.06243E-02-4.98859E-01 7.37353E-14-9.93802E-13
 -1      1397 2.17313E+01-3.74147E-02 5.27679E-03-5.31786E-01 9.02438E-14-8.27387E-13
 -1      1398 2.25744E+01-1.12762E-01 2.07871E-02-8.05713E-01 1.34209E-13-6.74722E-13
 -1      1399 2.13055E+01-1.73111E-02 4.76748E-03-5.88329E-01 3.62050E-14-7.85177E-13
 -1      1400 2.05823E+01 2.51286E-02-1.91074E-03-5.88663E-01-3.05276E-14-7.84373E-13
 -1      1401 2.18566E+01-4.07829E-02 1.06907E-02-1.05762E+00 1.04913E-13-5.40842E-13
 -1      1402 2.01593E+01 5.56631E-02-6.00336E-03-5.00227E-01-8.70363E-14-7.66220E-13
 -1      1403 1.95796E+01 9.60148E-02-1.18420E-02-4.55841E-01-8.04209E-14-9.30027E-13
 -1      1404 2.10172E+01 7.51888E-02-9.08382E-03-1.02836E+00-6.99571E-14-4.02288E-13
 -1      1405 1.93119E+01 1.19625E-01-1.58748E-02-2.24396E-01 1.57079E-14-9.73891E-13
 -1      1406 1.90884E+01 1.36552E-01-1.82493E-02-1.46635E-01 2.30232E-14-8.47199E-13
 -1      1407 2.03261E+01 1.86973E-01-3.03511E-02-6.42528E-01-6.80029E-14-4.31967E-13
 -1      1408 1.90884E+01 1.36722E-01-1.82392E-02 1.45698E-01 2.72993E-14-9.17686E-13
 -1      1409 1.93108E+01 1.20103E-01-1.58690E-02 2.23679E-01 1.13833E-14-8.22512E-13
 -1      1410 2.00565E+01 2.34064E-01-3.96769E-02-7.67473E-04 5.55632E-15-4.68149E-13
 -1      1411 1.95793E+01 9.66083E-02-1.18063E-02 4.56271E-01-1.59699E-14-9.70730E-13
 -1      1412 2.01596E+01 5.63635E-02-5.93916E-03 5.01042E-01-3.45106E-14-1.05748E-12
 -1      1413 2.03268E+01 1.87871E-01-3.03656E-02 6.42541E-01-5.93241E-14-7.29987E-13
 -1      1414 2.05849E+01 2.58276E-02-1.84567E-03 5.90985E-01-9.65452E-14-1.11559E-12
 -1      1415 2.13110E+01-1.65925E-02 4.84092E-03 5.91040E-01-1.15527E-13-1.25235E-12
 -1      1416 2.10210E+01 7.64460E-02-9.09945E-03 1.03165E+00-1.55299E-13-9.52172E-13
 -1      1417 2.17408E+01-3.67077E-02 5.30850E-03 5.36071E-01 9.21312E-15-1.23556E-12
 -1      1418 2.23923E+01-6.48042E-02 1.06598E-02 5.03508E-01 3.22719E-14-1.32731E-12
 -1      1419 2.18666E+01-3.96195E-02 1.05515E-02 1.06459E+00-3.99212E-14-1.01895E-12
 -1      1420 2.27113E+01-6.87135E-02 7.28151E-03 3.61150E-01 3.78170E-14-1.19071E-12
 -1      1421 2.31502E+01-7.85150E-02 1.06275E-02 3.16965E-01 6.91218E-14-1.14030E-12
 -1      1422 2.25940E+01-1.11596E-01 2.06024E-02 8.16459E-01 7.32496E-14-9.03812E-13
 -1      1423 2.33107E+01-7.08477E-02 5.54297E-03 1.55586E-01-1.92069E-14-9.92650E-13
 -1      1424 2.35020E+01-6.73153E-02 7.19887E-03 1.16027E-01-1.69014E-14-9.83517E-13
 -1      1425 2.30464E+01-1.28693E-01 2.10556E-02 4.45130E-01 9.10721E-14-7.69732E-13
 -1      1426 2.35127E+01-5.54946E-02 2.66995E-03-1.82679E-02-1.26782E-14-9.20016E-13
 -1      1427 2.34942E+01-4.57533E-02 3.27640E-03-4.59371E-02 3.25295E-14-9.12845E-13
 -1      1428 2.31929E+01-1.07649E-01 1.61366E-02 8.90329E-02-2.21949E-14-6.83592E-13
 -1      1429 2.33924E+01-3.50322E-02 3.94619E-04-1.35470E-01 2.23519E-14-9.74242E-13
 -1      1430 2.32320E+01-2.43682E-02 4.18177E-04-1.50795E-01-1.76812E-15-9.96685E-13
 -1      1431 2.30844E+01-7.17591E-02 9.82992E-03-1.77501E-01-4.83051E-14-6.37715E-13
 -1      1432 2.30618E+01-1.68789E-02-7.71300E-04-1.97393E-01 4.84747E-14-9.38322E-13
 -1      1433 2.28260E+01-7.95216E-03-1.06472E-03-2.03092E-01 5.47539E-14-8.79409E-13
 -1      1434 2.28035E+01-3.72799E-02 4.40249E-03-3.37820E-01 6.27614E-14-5.51561E-13
 -1      1435 2.26254E+01-3.76975E-03-1.03030E-03-2.17139E-01 4.02357E-14-8.23175E-13
 -1      1436 2.23654E+01 2.65251E-03-1.50889E-03-2.16563E-01 8.93746E-14-6.96974E-13
 -1      1437 2.24308E+01-1.13527E-02 5.93258E-04-4.07908E-01 4.09122E-14-4.38591E-13
 -1      1438 2.21617E+01 4.31806E-03-7.92052E-04-2.09694E-01-6.20753E-14-6.99762E-13
 -1      1439 2.19107E+01 8.43636E-03-1.37531E-03-2.05647E-01-3.71697E-14-7.54025E-13
 -1      1440 2.20291E+01 5.06781E-03-1.68778E-03-4.14603E-01 7.80085E-14-5.09911E-13
 -1      1441 2.17210E+01 8.50230E-03-3.92157E-04-1.87418E-01-5.89596E-14-7.75685E-13
 -1      1442 2.14970E+01 1.08504E-02-1.01631E-03-1.81861E-01-2.39572E-14-7.64619E-13
 -1      1443 2.16409E+01 1.37878E-02-2.82437E-03-3.83273E-01-9.60870E-14-4.50052E-13
 -1      1444 2.13303E+01 1.00535E-02-2.14095E-05-1.58950E-01 2.06152E-13-7.47226E-13
 -1      1445 2.11407E+01 1.11782E-02-6.33548E-04-1.53094E-01 9.41119E-14-5.48402E-13
 -1      1446 2.12905E+01 1.72291E-02-3.21076E-03-3.33190E-01 1.35693E-13-4.24008E-13
 -1      1447 2.10004E+01 1.00156E-02 2.46092E-04-1.29646E-01-8.87777E-15-3.51143E-13
 -1      1448 2.08462E+01 1.03596E-02-3.15238E-04-1.24161E-01 8.66013E-14-4.24178E-13
 -1      1449 2.09893E+01 1.74703E-02-3.15397E-03-2.77147E-01 1.22038E-13-4.56970E-13
 -1      1450 2.07319E+01 9.12843E-03 4.03153E-04-1.02465E-01 1.86689E-15-3.78703E-13
 -1      1451 2.06105E+01 9.01232E-03-8.43076E-05-9.76631E-02-1.13952E-13-3.60309E-13
 -1      1452 2.07397E+01 1.60021E-02-2.86391E-03-2.22731E-01 4.53092E-14-3.88227E-13
 -1      1453 2.05200E+01 7.87049E-03 4.70858E-04-7.87798E-02-1.99974E-13-4.57868E-13
 -1      1454 2.04271E+01 7.51089E-03 6.63309E-05-7.47608E-02-2.82897E-13-7.89049E-13
 -1      1455 2.05390E+01 1.37850E-02-2.47332E-03-1.73878E-01-2.46533E-13-2.92201E-13
 -1      1456 2.03572E+01 6.52911E-03 4.76517E-04-5.89970E-02-1.85451E-13-8.58309E-13
 -1      1457 2.02879E+01 6.06515E-03 1.53744E-04-5.57418E-02-2.85993E-14-1.04581E-12
 -1      1458 2.03819E+01 1.13894E-02-2.06124E-03-1.32186E-01-3.31631E-13-4.49498E-13
 -1      1459 2.02354E+01 5.26427E-03 4.43834E-04-4.29791E-02 1.07294E-13-9.81788E-13
 -1      1460 2.01852E+01 4.78112E-03 1.95177E-04-4.04074E-02 6.12689E-14-9.83889E-13
 -1      1461 2.02619E+01 9.12716E-03-1.67173E-03-9.78606E-02-3.90334E-15-6.19569E-13
 -1      1462 2.01467E+01 4.15628E-03 3.89456E-04-3.03097E-02-6.34439E-14-8.27908E-13
 -1      1463 2.01116E+01 3.70291E-03 2.03565E-04-2.83148E-02 1.26607E-14-8.58709E-13
 -1      1464 2.01725E+01 7.15110E-03-1.32718E-03-7.03500E-02 7.37884E-14-6.35691E-13
 -1      1465 2.00842E+01 3.23813E-03 3.22009E-04-2.04529E-02 8.59653E-14-8.21317E-13
 -1      1466 2.00609E+01 2.83910E-03 1.85506E-04-1.89210E-02 1.55959E-13-6.53159E-13
 -1      1467 2.01078E+01 5.52155E-03-1.03746E-03-4.87342E-02 1.28860E-13-6.99658E-13
 -1      1468 2.00423E+01 2.51525E-03 2.42060E-04-1.28474E-02 1.82116E-13-5.37112E-13
 -1      1469 2.00279E+01 2.17700E-03 1.42665E-04-1.16672E-02 1.08598E-13-3.63935E-13
 -1      1470 2.00626E+01 4.24839E-03-8.05208E-04-3.19634E-02 2.49122E-13-2.66152E-13
 -1      1471 2.00161E+01 1.97124E-03 1.46947E-04-6.96721E-03 4.04151E-14-2.93704E-13
 -1      1472 2.00087E+01 1.67433E-03 8.51168E-05-6.03893E-03 1.28052E-15-2.88787E-13
 -1      1473 2.00326E+01 3.31041E-03-6.25356E-04-1.90059E-02 1.58197E-13-1.40085E-13
 -1      1474 2.00020E+01 1.53065E-03 5.39738E-05-2.42936E-03 2.10701E-13-1.98623E-13
 -1      1475 2.00000E+01 1.20432E-03 6.61738E-05-1.68998E-03 2.97273E-13 1.41580E-13
 -1      1476 2.00141E+01 2.61412E-03-4.69123E-04-9.01166E-03 2.23705E-13-1.10880E-13
 -1      1477 1.99968E+01 1.20186E-03 1.00556E-04 8.26138E-04 9.33205E-14 2.45301E-13
 -1      1478 1.99987E+01 5.04843E-04 3.28907E-04 1.40929E-03-4.41620E-14 3.56726E-13
 -1      1479 2.00042E+01 1.85255E-03-2.83252E-04-1.66246E-03 3.28683E-13-1.21796E-13
 -1      1480 1.99984E+01-9.46214E-04 7.90486E-04 1.38261E-03-3.17594E-13 2.13060E-13
 -1      1481 2.00003E+01-9.88602E-04 1.42272E-04 2.12761E-03-3.13614E-13 9.95963E-14
 -1      1482 2.02125E+01 7.53984E-02-1.51474E-01 4.75542E-01 2.59025E-13 2.66490E-12
 -1      1483 2.14693E+01 2.15834E-01-2.28971E-01 7.11781E-01 2.24321E-13 3.04132E-12
 -1      1484 2.16821E+01 8.78537E-01-8.55417E-02 2.04596E+00 4.25264E-13 2.08254E-12
 -1      1485 1.93070E+01 3.27490E-02-2.11503E-02 1.77406E-01 1.88537E-13 2.16240E-12
 -1      1486 1.97160E+01 1.13876E-01-6.23084E-02 2.29518E-01 1.82736E-13 2.46025E-12
 -1      1487 2.02776E+01 1.87368E-01-5.51849E-02 7.69433E-01 3.85282E-13 1.69035E-12
 -1      1488 1.89524E+01 1.58939E-02 5.62104E-03 4.26253E-02 1.37751E-13 1.79912E-12
 -1      1489 1.90774E+01 5.25644E-02 1.20815E-03 6.94798E-02 1.27958E-13 2.00284E-12
 -1      1490 1.95570E+01 7.26951E-02-1.23479E-02 2.79805E-01 2.90651E-13 1.36992E-12
 -1      1491 1.88785E+01 8.37150E-03 6.79142E-03-2.41071E-02 1.08423E-13 1.49376E-12
 -1      1492 1.88747E+01 2.75251E-02 1.12679E-02-8.69553E-03 1.07895E-13 1.68118E-12
 -1      1493 1.92530E+01 3.29036E-02-2.84014E-03 5.81006E-02 2.25868E-13 1.08874E-12
 -1      1494 1.89557E+01 4.99926E-03 4.47704E-03-6.07922E-02 7.87007E-14 1.27841E-12
 -1      1495 1.88858E+01 1.63299E-02 8.71737E-03-5.10972E-02 7.05820E-14 1.40577E-12
 -1      1496 1.91789E+01 1.62126E-02-2.20225E-03-5.70339E-02 1.72883E-13 9.06631E-13
 -1      1497 1.91220E+01 3.49554E-03 2.85246E-03-8.32556E-02 2.98704E-14 1.17715E-12
 -1      1498 1.90143E+01 1.08502E-02 5.61244E-03-7.65036E-02 4.57668E-14 1.22934E-12
 -1      1499 1.92389E+01 8.73448E-03-2.48420E-03-1.23221E-01 1.03104E-13 7.80649E-13
 -1      1500 1.93469E+01 3.03881E-03 1.90213E-03-9.93843E-02 2.59906E-14 1.10285E-12
 -1      1501 1.92142E+01 8.31372E-03 3.73699E-03-9.40030E-02 2.20533E-14 1.14451E-12
 -1      1502 1.93827E+01 5.57351E-03-2.57834E-03-1.65995E-01 4.79285E-14 7.27174E-13
 -1      1503 1.96177E+01 3.27387E-03 1.22488E-03-1.13845E-01 4.07238E-14 1.02315E-12
 -1      1504 1.94647E+01 7.57078E-03 2.69979E-03-1.08773E-01 3.56809E-14 1.07001E-12
 -1      1505 1.95852E+01 4.84273E-03-2.65531E-03-1.98852E-01 6.81423E-14 6.53609E-13
 -1      1506 1.99324E+01 3.99548E-03 6.14047E-04-1.29729E-01 4.89860E-14 9.33089E-13
 -1      1507 1.97585E+01 8.06401E-03 2.08063E-03-1.24176E-01 3.16122E-14 9.75149E-13
 -1      1508 1.98355E+01 5.67491E-03-2.88565E-03-2.29988E-01 6.48125E-14 5.59078E-13
 -1      1509 2.02963E+01 5.03247E-03-1.98247E-06-1.49136E-01 3.95282E-14 8.63603E-13
 -1      1510 2.00974E+01 9.44073E-03 1.65838E-03-1.42490E-01 4.71502E-14 9.21459E-13
 -1      1511 2.01322E+01 7.55194E-03-3.32533E-03-2.64795E-01 7.32190E-14 4.89538E-13
 -1      1512 2.07189E+01 6.17689E-03-6.32321E-04-1.73271E-01 7.30846E-14 7.54630E-13
 -1      1513 2.04888E+01 1.13736E-02 1.32070E-03-1.65099E-01 6.20324E-14 8.35738E-13
 -1      1514 2.04789E+01 1.00373E-02-3.96254E-03-3.06695E-01 8.04367E-14 5.55503E-13
 -1      1515 2.12111E+01 7.10850E-03-1.23572E-03-2.02213E-01 2.92149E-14 6.49391E-13
 -1      1516 2.09428E+01 1.34210E-02 9.96494E-04-1.92339E-01 4.33043E-14 6.89949E-13
 -1      1517 2.08826E+01 1.25967E-02-4.73131E-03-3.57132E-01 1.02952E-13 4.63159E-13
 -1      1518 2.17814E+01 7.29510E-03-1.68334E-03-2.34280E-01 1.22735E-14 6.66203E-13
 -1      1519 2.14695E+01 1.48618E-02 6.38341E-04-2.22987E-01 8.08598E-15 6.33077E-13
 -1      1520 2.13502E+01 1.44038E-02-5.47961E-03-4.14845E-01 3.88309E-14 3.75402E-13
 -1      1521 2.24300E+01 5.87205E-03-1.67643E-03-2.64912E-01-4.90309E-15 6.49121E-13
 -1      1522 2.20737E+01 1.44831E-02 2.45590E-04-2.53305E-01-2.99858E-15 6.34293E-13
 -1      1523 2.18842E+01 1.40887E-02-5.89807E-03-4.74352E-01 1.59209E-14 3.91243E-13
 -1      1524 2.31389E+01 1.55142E-03-6.30308E-04-2.85046E-01-2.99576E-15 6.83682E-13
 -1      1525 2.27483E+01 1.03561E-02-7.02290E-05-2.75618E-01-3.79888E-15 6.71430E-13
 -1      1526 2.24776E+01 9.45211E-03-5.41756E-03-5.23531E-01-7.53152E-15 3.70927E-13
 -1      1527 2.38593E+01-7.27803E-03 2.39728E-03-2.79320E-01-1.00645E-14 7.35760E-13
 -1      1528 2.34627E+01-2.23800E-04 1.61765E-05-2.76653E-01-3.78185E-14 7.03323E-13
 -1      1529 2.31052E+01-2.69087E-03-3.12202E-03-5.40586E-01-4.27781E-14 3.44553E-13
 -1      1530 2.44956E+01-2.18842E-02 8.48722E-03-2.25500E-01 8.25841E-14 5.94975E-13
 -1      1531 2.41499E+01-2.01647E-02 1.11336E-03-2.36691E-01 5.64050E-14 7.01186E-13
 -1      1532 2.37136E+01-2.60433E-02 2.17322E-03-4.91823E-01 8.27272E-14 3.72582E-13
 -1      1533 2.48965E+01-4.14058E-02 1.78802E-02-9.84438E-02-3.55445E-14 4.57144E-13
 -1      1534 2.46926E+01-5.05283E-02 3.92414E-03-1.32176E-01 6.26938E-14 5.64080E-13
 -1      1535 2.42120E+01-6.27002E-02 1.13532E-02-3.34193E-01 1.16527E-13 4.16335E-13
 -1      1536 2.48668E+01-5.98697E-02 2.79418E-02 1.16080E-01-3.87433E-14 5.07771E-13
 -1      1537 2.49226E+01-8.63331E-02 8.43244E-03 5.36958E-02-8.73711E-14 4.30901E-13
 -1      1538 2.44710E+01-1.08198E-01 2.35534E-02-3.01653E-02-6.81278E-14 3.71458E-13
 -1      1539 2.42305E+01-6.38576E-02 3.12047E-02 3.94641E-01-1.19944E-13 7.19792E-13
 -1      1540 2.46510E+01-1.11544E-01 1.24864E-02 3.08748E-01-8.14019E-14 6.15306E-13
 -1      1541 2.43450E+01-1.44380E-01 3.41650E-02 4.17087E-01-1.47798E-13 5.17089E-13
 -1      1542 2.29563E+01-3.69179E-02 1.72858E-02 6.47250E-01 4.44297E-14 7.65304E-13
 -1      1543 2.37553E+01-9.98838E-02 1.10555E-02 5.64052E-01-3.73226E-15 7.83672E-13
 -1      1544 2.37351E+01-1.36494E-01 3.46613E-02 9.12625E-01-1.08394E-13 6.44471E-13
 -1      1545 2.13065E+01 2.38694E-02-1.78122E-02 7.25907E-01 8.02689E-14 5.47645E-13
 -1      1546 2.23170E+01-3.18449E-02-1.10238E-03 6.90207E-01 3.29702E-14 6.74516E-13
 -1      1547 2.26947E+01-4.99959E-02 1.76497E-02 1.24393E+00 1.21863E-13 6.76226E-13
 -1      1548 1.98637E+01 9.10811E-02-5.88255E-02 5.11753E-01 8.34385E-14 4.16597E-13
 -1      1549 2.07288E+01 7.61514E-02-2.22531E-02 5.60158E-01 6.78572E-14 4.78298E-13
 -1      1550 2.15182E+01 1.07932E-01-1.30957E-02 1.15819E+00 1.11178E-13 4.21638E-13
 -1      1551 1.92868E+01 1.17617E-01-7.60037E-02 4.56700E-02 1.60288E-15 3.30666E-13
 -1      1552 1.96155E+01 1.63193E-01-3.91128E-02 1.67639E-01 1.30347E-14 3.30465E-13
 -1      1553 2.06888E+01 2.57172E-01-3.95924E-02 5.62001E-01 1.11910E-13 2.84654E-13
 -1      1554 1.98755E+01 8.22831E-02-5.23269E-02-4.45848E-01-1.65302E-14 2.84127E-13
 -1      1555 1.95008E+01 1.69112E-01-3.65975E-02-3.12423E-01 3.18391E-14 3.23123E-13
 -1      1556 2.06148E+01 2.87861E-01-4.46711E-02-3.14792E-01 1.99007E-14 2.55029E-13
 -1      1557 2.13348E+01 1.36098E-02-4.77571E-03-7.15289E-01 8.54685E-14 2.21850E-13
 -1      1558 2.04419E+01 9.46219E-02-1.43799E-02-6.36082E-01 1.93959E-14 2.92960E-13
 -1      1559 2.13321E+01 1.70052E-01-2.91708E-02-1.03199E+00 5.76345E-14 1.80033E-13
 -1      1560 2.30027E+01-4.22732E-02 3.40869E-02-6.82795E-01 5.53867E-14-1.39264E-13
 -1      1561 2.19885E+01-2.81214E-03 1.14610E-02-6.78484E-01 1.29215E-13 4.90163E-14
 -1      1562 2.24806E+01-9.29299E-03-8.18389E-03-1.27397E+00 2.14149E-13-4.64281E-14
 -1      1563 2.42909E+01-6.30516E-02 4.69052E-02-4.48317E-01-5.73560E-14-1.84033E-13
 -1      1564 2.35051E+01-6.79184E-02 2.54619E-02-4.94698E-01-1.59560E-14-1.94678E-13
 -1      1565 2.35747E+01-1.37948E-01 6.07043E-03-1.04699E+00 7.40727E-15-1.29594E-13
 -1      1566 2.49384E+01-5.55860E-02 3.85770E-02-1.65705E-01 1.89926E-14-1.99896E-13
 -1      1567 2.45354E+01-8.56601E-02 2.47454E-02-2.26355E-01-2.10856E-14-1.73341E-13
 -1      1568 2.42822E+01-1.73228E-01 1.11119E-02-5.79179E-01-3.24584E-14-1.82883E-13
 -1      1569 2.49818E+01-3.64704E-02 2.25955E-02 6.17425E-02 1.12337E-13-4.23940E-13
 -1      1570 2.49378E+01-7.13784E-02 1.59439E-02 1.10794E-02 8.79713E-14-3.39548E-13
 -1      1571 2.45105E+01-1.41584E-01 1.02837E-02-1.07292E-01 1.22001E-13-4.18551E-13
 -1      1572 2.46014E+01-1.78359E-02 8.46024E-03 2.00960E-01-8.19015E-14-4.23304E-13
 -1      1573 2.48067E+01-4.59072E-02 6.46351E-03 1.68365E-01-3.67857E-14-4.43603E-13
 -1      1574 2.43362E+01-8.69982E-02 7.30883E-03 2.38919E-01 2.14724E-14-2.32142E-13
 -1      1575 2.39938E+01-4.47661E-03-5.15968E-04 2.62350E-01 9.25605E-14-2.67555E-13
 -1      1576 2.43303E+01-2.24320E-02-5.64342E-05 2.46155E-01 5.98089E-15-3.27930E-13
 -1      1577 2.39003E+01-3.81406E-02 4.33733E-03 4.33607E-01-7.83852E-14-8.11278E-14
 -1      1578 2.33112E+01 3.35035E-03-4.81761E-03 2.70687E-01 1.08158E-14-3.32206E-13
 -1      1579 2.36890E+01-5.73390E-03-3.19063E-03 2.65959E-01 2.05708E-14-3.33083E-13
 -1      1580 2.33378E+01-4.88580E-03 2.15133E-03 5.05777E-01 8.21227E-14-9.52328E-14
 -1      1581 2.26499E+01 7.05930E-03-6.09851E-03 2.49172E-01-6.49831E-14-1.21226E-13
 -1      1582 2.30135E+01 4.20394E-03-3.96418E-03 2.51177E-01-8.77759E-15-1.69247E-13
 -1      1583 2.27488E+01 1.35898E-02 7.72858E-04 4.98368E-01-7.28580E-14 6.72552E-14
 -1      1584 2.20604E+01 8.20190E-03-5.82208E-03 2.14342E-01 3.08941E-14-3.22556E-13
 -1      1585 2.23817E+01 9.09836E-03-3.53617E-03 2.19650E-01 1.10081E-14-2.41002E-13
 -1      1586 2.21948E+01 2.15870E-02-1.76801E-05 4.48181E-01 9.44223E-14 4.17682E-14
 -1      1587 2.15622E+01 7.95027E-03-4.92386E-03 1.76255E-01 9.94712E-15-4.60868E-13
 -1      1588 2.18312E+01 1.07779E-02-2.69739E-03 1.82730E-01 4.76689E-14-4.28315E-13
 -1      1589 2.17072E+01 2.33029E-02-4.36548E-04 3.80522E-01 1.02282E-13-2.17690E-13
 -1      1590 2.11568E+01 7.05259E-03-3.89682E-03 1.40258E-01-2.02659E-15-4.40941E-13
 -1      1591 2.13737E+01 1.06422E-02-1.85602E-03 1.46715E-01-2.22888E-14-4.17840E-13
 -1      1592 2.12972E+01 2.17622E-02-6.34263E-04 3.10449E-01-2.29671E-14-1.67583E-13
 -1      1593 2.08364E+01 5.93730E-03-2.95777E-03 1.08742E-01 3.95834E-14-5.33489E-13
 -1      1594 2.10061E+01 9.61077E-03-1.16904E-03 1.14599E-01 7.80001E-14-4.48732E-13
 -1      1595 2.09639E+01 1.88338E-02-7.03168E-04 2.45781E-01 6.98469E-14-2.19077E-13
 -1      1596 2.05890E+01 4.82792E-03-2.17851E-03 8.24143E-02 3.20284E-15-4.13078E-13
 -1      1597 2.07188E+01 8.23172E-03-6.64626E-04 8.74454E-02-3.73185E-14-5.36405E-13
 -1      1598 2.06999E+01 1.55539E-02-6.97867E-04 1.89843E-01-3.58654E-15-3.02641E-13
 -1      1599 2.04023E+01 3.82838E-03-1.56485E-03 6.11154E-02-4.10315E-14-3.94448E-13
 -1      1600 2.04993E+01 6.80696E-03-3.19040E-04 6.52861E-02 5.60063E-14-3.56472E-13
 -1      1601 2.04957E+01 1.24398E-02-6.51343E-04 1.43427E-01 3.81164E-14-2.41623E-13
 -1      1602 2.02643E+01 2.97794E-03-1.09766E-03 4.42887E-02 6.95115E-15-3.77134E-13
 -1      1603 2.03352E+01 5.48908E-03-9.52822E-05 4.76605E-02-7.46675E-14-3.98012E-13
 -1      1604 2.03410E+01 9.71381E-03-5.84505E-04 1.06021E-01-9.55225E-14-1.52113E-13
 -1      1605 2.01648E+01 2.28339E-03-7.52346E-04 3.12352E-02-8.94781E-14-4.07497E-13
 -1      1606 2.02153E+01 4.34618E-03 4.07397E-05 3.39132E-02-1.13372E-14-4.02086E-13
 -1      1607 2.02263E+01 7.44349E-03-5.11654E-04 7.65313E-02 1.38225E-14-2.15469E-13
 -1      1608 2.00951E+01 1.73629E-03-5.06839E-04 2.12414E-02 1.26892E-13-4.54558E-13
 -1      1609 2.01300E+01 3.40121E-03 1.15074E-04 2.33467E-02 7.06405E-14-4.12546E-13
 -1      1610 2.01432E+01 5.62211E-03-4.43337E-04 5.36672E-02 5.36032E-14-1.97319E-13
 -1      1611 2.00483E+01 1.32152E-03-3.44703E-04 1.36407E-02-2.22921E-14-4.70866E-13
 -1      1612 2.00712E+01 2.65381E-03 1.45006E-04 1.52967E-02-4.54828E-15-5.01778E-13
 -1      1613 2.00849E+01 4.21076E-03-3.88019E-04 3.61409E-02 7.62963E-14-4.14758E-13
 -1      1614 2.00190E+01 1.01683E-03-2.53053E-04 7.84509E-03 8.00677E-14-6.27647E-13
 -1      1615 2.00328E+01 2.08861E-03 1.39526E-04 9.16950E-03 3.51639E-14-5.59569E-13
 -1      1616 2.00456E+01 3.15760E-03-3.52323E-04 2.27682E-02 2.44449E-14-3.94586E-13
 -1      1617 2.00031E+01 7.91808E-04-2.01826E-04 3.38459E-03-5.68195E-14-7.15018E-13
 -1      1618 2.00099E+01 1.67302E-03 1.06685E-04 4.48056E-03 5.56095E-14-6.26219E-13
 -1      1619 2.00207E+01 2.39590E-03-3.34966E-04 1.25414E-02 8.50737E-14-2.18338E-13
 -1      1620 1.99972E+01 5.83730E-04-7.14879E-05-3.52014E-05-1.34835E-13-5.48722E-13
 -1      1621 1.99987E+01 1.33224E-03 8.64275E-05 9.21514E-04-1.45464E-13-7.67489E-13
 -1      1622 2.00069E+01 1.85718E-03-2.87616E-04 4.75442E-03-1.50874E-13-1.54416E-13
 -1      1623 1.99980E+01 8.28374E-05 4.32756E-04-1.94942E-03 6.91570E-14-4.28601E-13
 -1      1624 1.99960E+01 6.84468E-04 2.04628E-04-1.34427E-03 4.52821E-14-4.62566E-13
 -1      1625 2.00007E+01 9.56443E-04-1.23092E-04-7.79436E-04 2.73592E-14-1.23167E-13
 -1      1626 1.99986E+01-1.09302E-03 7.64449E-04-1.31057E-03-2.49526E-13-3.13496E-13
 -1      1627 2.00008E+01-3.02894E-03-1.19505E-04-6.05468E-04 1.22547E-13 2.72616E-13
 -1      1628 2.00005E+01-1.55862E-03 2.45010E-04-1.07472E-03-1.74606E-13 1.83521E-13
 -1      1629 2.00010E+01 1.75056E-03-2.08927E-04 2.57563E-03 3.24356E-13-6.43268E-15
 -1      1630 2.00010E+01-2.94520E-04-9.88701E-05 1.86133E-03 3.40801E-13-1.37234E-15
 -1      1631 2.00019E+01 3.81793E-03-2.10430E-04 1.78646E-03 8.83517E-14 2.14660E-13
 -1      1632 2.00006E+01 1.24892E-02-1.59981E-04 5.55500E-03 3.13960E-13-1.28275E-14
 -1      1633 2.00009E+01 6.79043E-03-1.37739E-04 5.00142E-03 3.85965E-13 8.18495E-14
 -1      1634 2.00018E+01 1.17713E-02-3.22514E-04 7.72332E-03 2.19726E-13 8.35341E-14
 -1      1635 2.00000E+01 2.72788E-02-8.71989E-05 7.24492E-03 3.57932E-13-2.61212E-13
 -1      1636 2.00004E+01 1.92827E-02-9.03892E-05 7.02015E-03 3.33589E-13 1.81306E-13
 -1      1637 2.00011E+01 2.39029E-02-1.84679E-04 1.24028E-02 1.53117E-13-1.19993E-14
 -1      1638 1.99994E+01 4.27380E-02-3.81114E-05 7.29000E-03-2.73324E-13-1.70792E-13
 -1      1639 1.99997E+01 3.45128E-02-3.93724E-05 7.40672E-03 1.81639E-13-5.68522E-13
 -1      1640 2.00000E+01 3.81956E-02 6.84769E-06 1.43074E-02 1.09397E-13-6.62353E-13
 -1      1641 1.99989E+01 5.61564E-02-5.12710E-06 5.76076E-03-2.92888E-14 1.30591E-13
 -1      1642 1.99992E+01 4.93046E-02-6.12634E-06 6.17819E-03-2.59251E-13 1.88204E-13
 -1      1643 1.99991E+01 5.21836E-02 1.92689E-04 1.31050E-02 7.98913E-15-4.58008E-14
 -1      1644 1.99986E+01 6.45106E-02 1.24456E-05 3.02681E-03-1.75467E-13-1.13133E-13
 -1      1645 1.99987E+01 6.06640E-02 1.14041E-05 3.64288E-03-1.39880E-13 1.02910E-13
 -1      1646 1.99983E+01 6.33687E-02 3.35070E-04 9.13339E-03-2.51590E-13 5.28946E-14
 -1      1647 1.99985E+01 6.61487E-02 1.80217E-05-3.20474E-04-1.17212E-13 5.03095E-14
 -1      1648 1.99985E+01 6.61150E-02 1.69563E-05 3.64535E-04-1.26865E-13-2.23975E-13
 -1      1649 1.99979E+01 6.95319E-02 4.11241E-04 3.28920E-03-1.71595E-13-2.85640E-13
 -1      1650 1.99987E+01 6.07738E-02 1.20739E-05-3.59504E-03-5.41922E-13-3.77333E-13
 -1      1651 1.99986E+01 6.45524E-02 1.17789E-05-2.98055E-03-2.90810E-13-2.52761E-14
 -1      1652 1.99979E+01 6.95336E-02 4.10308E-04-3.20955E-03-9.19242E-14-1.58042E-13
 -1      1653 1.99992E+01 4.94984E-02-6.96240E-06-6.12517E-03-1.07687E-12-4.97244E-13
 -1      1654 1.99989E+01 5.62840E-02-3.88941E-06-5.71076E-03-5.48868E-13-4.85835E-13
 -1      1655 1.99983E+01 6.33847E-02 3.32188E-04-9.04550E-03-5.53866E-13-5.74270E-13
 -1      1656 1.99997E+01 3.49251E-02-3.74495E-05-7.35294E-03-1.11997E-12 1.63329E-13
 -1      1657 1.99994E+01 4.30878E-02-3.66268E-05-7.23240E-03-1.07068E-12-2.04212E-13
 -1      1658 1.99991E+01 5.23503E-02 1.94729E-04-1.29980E-02-4.24185E-13-5.07483E-13
 -1      1659 2.00003E+01 1.96322E-02-8.50793E-05-6.99202E-03-6.93645E-13 1.51682E-13
 -1      1660 2.00000E+01 2.75894E-02-8.66933E-05-7.21210E-03-1.01250E-12 3.06122E-13
 -1      1661 2.00000E+01 3.84241E-02 9.00056E-06-1.42301E-02-4.15397E-13 3.94087E-13
 -1      1662 2.00008E+01 7.09171E-03-1.57507E-04-4.99836E-03-3.51935E-13 2.09297E-13
 -1      1663 2.00006E+01 1.28528E-02-1.53907E-04-5.54474E-03-5.76312E-13 2.41814E-13
 -1      1664 2.00010E+01 2.40465E-02-1.81102E-04-1.23729E-02-3.36064E-13 3.58704E-13
 -1      1665 2.00012E+01-6.02115E-06-5.24573E-05-2.01883E-03-4.62964E-13-1.53780E-13
 -1      1666 2.00009E+01 2.14535E-03-2.23754E-04-2.76058E-03-3.65866E-13 2.73957E-14
 -1      1667 2.00017E+01 1.20683E-02-3.19103E-04-7.75495E-03-1.56338E-13 8.43587E-14
 -1      1668 2.00012E+01-1.63203E-04 2.01512E-04 4.38554E-04-3.79403E-13-6.55458E-14
 -1      1669 2.00014E+01-1.14369E-03-2.00165E-04-1.98068E-04-3.51287E-13-1.38667E-13
 -1      1670 2.00033E+01 6.37805E-03 8.37281E-05-3.29659E-03-1.24691E-13-2.10525E-13
 -1      1671 2.00031E+01 3.73632E-03 2.76511E-04-1.63248E-04 3.15430E-14-8.81237E-14
 -1      1672-6.90020E-01-1.49238E+01-1.73269E+00-1.14488E+00 1.25794E-12 2.28401E-13
 -1      1673-6.31714E-01-1.67283E+01-1.87065E+00 2.35247E-01 7.82763E-13 4.77451E-13
 -1      1674 1.09540E+00-8.69976E+00-1.27120E+00 1.93880E-01 1.71252E-12 8.90232E-13
 -1      1675 4.67026E-01-1.34717E+01-1.73870E+00-2.39082E-01 1.41842E-12 5.21916E-13
 -1      1676 5.83442E+00-1.32143E+00-6.88066E-01 3.77454E+00 1.91247E-12 1.54099E-12
 -1      1677 3.17540E+00-6.75942E+00-1.41118E+00 1.16819E+00 1.91691E-12 9.67004E-13
 -1      1678 1.67457E+01 4.00922E+00 1.35679E-01 9.05274E+00 1.85940E-12 1.87084E-12
 -1      1679 1.03893E+01 2.17301E-01-7.51518E-01 5.27749E+00 1.85996E-12 1.64913E-12
 -1      1680 3.05166E+01 6.33914E+00 9.09414E-01 1.23923E+01 1.43552E-12 2.08988E-12
 -1      1681 2.14208E+01 5.75072E+00 3.13440E-02 1.01129E+01 1.76759E-12 1.99751E-12
 -1      1682 4.45625E+01 4.85840E+00 1.39114E+00 1.01110E+01 9.14852E-13 1.18217E-12
 -1      1683 3.56801E+01 6.35087E+00 7.73558E-01 1.14376E+01 1.37479E-12 1.76170E-12
 -1      1684 5.28233E+01 3.88124E+00 1.68917E+00 3.36023E+00 7.39964E-13-2.73115E-13
 -1      1685 4.76523E+01 5.13645E+00 1.31920E+00 7.99476E+00 9.19390E-13 8.17568E-13
 -1      1686 5.42739E+01 3.87102E+00 1.82714E+00-4.43863E+00 7.02771E-13-1.73450E-12
 -1      1687 5.53814E+01 3.48849E+00 1.86004E+00 1.32632E+00 6.21531E-13-7.14331E-13
 -1      1688 4.47085E+01 5.61662E+00 1.28812E+00-1.00879E+01 1.13062E-12-2.55063E-12
 -1      1689 5.15829E+01 4.03345E+00 1.76947E+00-6.49400E+00 7.77128E-13-2.10310E-12
 -1      1690 3.15016E+01 6.76656E+00 6.50390E-01-1.20319E+01 1.93967E-12-2.94720E-12
 -1      1691 4.05909E+01 5.69997E+00 1.36686E+00-1.19998E+01 1.43430E-12-2.82729E-12
 -1      1692 1.72550E+01 4.66409E+00-2.12022E-01-8.75423E+00 2.61280E-12-2.74847E-12
 -1      1693 2.59799E+01 6.28218E+00 7.09777E-01-1.19376E+01 2.19280E-12-2.94165E-12
 -1      1694 6.95825E+00-1.73154E+00-1.00773E+00-3.61684E+00 2.60436E-12-2.05091E-12
 -1      1695 1.21070E+01 3.12063E+00-1.30778E-01-7.44254E+00 2.66098E-12-2.56561E-12
 -1      1696 2.03564E+00-9.97046E+00-1.52530E+00-4.95970E-01 1.79690E-12-1.17290E-12
 -1      1697 3.89233E+00-4.17308E+00-8.78165E-01-2.41762E+00 2.37455E-12-1.70575E-12
 -1      1698-2.65739E-01-1.58035E+01-1.88930E+00 3.29136E-01 4.37150E-13-8.02247E-13
 -1      1699-1.59977E-01-1.19969E+01-1.53605E+00 8.86202E-01 1.59095E-12-1.09398E-12
 -1      1700-7.59793E-01-1.65479E+01-1.85438E+00-7.05653E-01-1.39502E-12-8.21093E-13
 -1      1701-7.63383E-01-1.65474E+01-1.86155E+00 8.85214E-01-3.96905E-14-7.51288E-13
 -1      1702-3.19013E-03-1.16944E+01-1.48077E+00-5.75952E-01-2.70362E-12-1.13312E-12
 -1      1703-1.74281E-01-1.55461E+01-1.82524E+00-3.45882E-02-1.83631E-12-8.31057E-13
 -1      1704 3.44441E+00-3.84433E+00-9.15434E-01 2.18666E+00-3.28226E-12-1.97387E-12
 -1      1705 1.68810E+00-9.82047E+00-1.58241E+00 2.70081E-01-3.06311E-12-1.40438E-12
 -1      1706 1.12552E+01 2.71728E+00-1.93165E-01 7.05131E+00-3.05866E-12-2.55407E-12
 -1      1707 6.80876E+00-1.67904E+00-9.81329E-01 3.67881E+00-3.23186E-12-2.22478E-12
 -1      1708 2.26310E+01 6.07291E+00 5.32291E-01 1.12357E+01-2.43849E-12-2.87348E-12
 -1      1709 1.55712E+01 4.16079E+00-2.74574E-01 8.22798E+00-2.90312E-12-2.70783E-12
 -1      1710 3.59556E+01 6.28701E+00 1.19159E+00 1.25462E+01-1.71280E-12-2.47691E-12
 -1      1711 2.74774E+01 6.70536E+00 4.55607E-01 1.16294E+01-2.25375E-12-2.78821E-12
 -1      1712 4.79789E+01 4.69558E+00 1.67938E+00 9.54200E+00-9.64201E-13-1.56009E-12
 -1      1713 4.04907E+01 6.28262E+00 1.13983E+00 1.17567E+01-1.43219E-12-2.23177E-12
 -1      1714 5.43913E+01 3.43689E+00 1.84585E+00 2.76173E+00-5.24025E-13-3.20355E-13
 -1      1715 5.08774E+01 4.48766E+00 1.63896E+00 7.53753E+00-7.67469E-13-1.18650E-12
 -1      1716 5.22059E+01 4.15345E+00 1.64506E+00-4.99421E+00-6.67466E-13 9.32254E-13
 -1      1717 5.40249E+01 3.63513E+00 1.75910E+00 2.20082E-01-5.48783E-13 3.47292E-14
 -1      1718 4.43084E+01 5.75724E+00 1.31020E+00-1.08244E+01-1.03392E-12 1.92424E-12
 -1      1719 5.07358E+01 4.13143E+00 1.73593E+00-7.54019E+00-6.88297E-13 1.35836E-12
 -1      1720 3.16969E+01 6.62831E+00 6.47281E-01-1.17667E+01-1.51001E-12 2.28328E-12
 -1      1721 4.01270E+01 5.68751E+00 1.32060E+00-1.16967E+01-1.12510E-12 2.07001E-12
 -1      1722 1.89598E+01 5.32785E+00-5.64596E-02-9.49855E+00-1.83364E-12 2.09255E-12
 -1      1723 2.67440E+01 6.41932E+00 7.36092E-01-1.20257E+01-1.62248E-12 2.29905E-12
 -1      1724 9.59220E+00 2.88857E-01-7.23319E-01-5.17637E+00-2.05591E-12 1.60538E-12
 -1      1725 1.47848E+01 3.85717E+00 4.51587E-02-8.48555E+00-1.93956E-12 1.95310E-12
 -1      1726 3.54565E+00-6.53478E+00-1.28674E+00-1.55501E+00-1.48104E-12 1.23462E-12
 -1      1727 6.04224E+00-1.43768E+00-6.31188E-01-3.95160E+00-1.94600E-12 1.79723E-12
 -1      1728 5.77184E-01-1.30606E+01-1.65724E+00 1.56686E-02-5.30576E-13 5.64444E-13
 -1      1729 1.18758E+00-8.37418E+00-1.20995E+00-3.84492E-01-1.28408E-12 1.04075E-12
 -1      1730-5.31234E-01-1.60426E+01-1.75758E+00-4.16232E-01 5.61939E-13 5.06123E-13
 -1      1731-5.01768E-01-1.40517E+01-1.57241E+00 7.28151E-01-2.43638E-13 3.84581E-13
 -1      1732 2.36516E+01 2.24942E-01 1.65470E-01 7.12862E+00 1.11644E-12 1.22002E-12
 -1      1733 1.34754E+01-3.72542E+00-3.90263E-01 6.17916E+00 9.52904E-13 1.08941E-12
 -1      1734 1.99999E+01-1.64099E-03 3.40722E-04-2.25769E-03-2.26509E-13-2.41298E-14
 -1      1735 2.00008E+01 1.19261E-03 1.62028E-04-1.95687E-03 1.05591E-13 3.18500E-13
 -1      1736 2.98361E-01-1.04091E+01-1.22321E+00 2.04734E+00 6.31772E-13 4.93994E-13
 -1      1737 5.13078E+00-7.51509E+00-9.27516E-01 4.14842E+00 8.59202E-13 7.55826E-13
 -1      1738-1.28492E+00-1.10991E+01-1.26992E+00-2.50086E-01 2.40336E-13 8.22287E-13
 -1      1739 3.41356E+01 3.87343E+00 8.30630E-01 6.68833E+00 1.07889E-12 9.52349E-13
 -1      1740 4.15666E+01 6.17473E+00 1.13963E+00 3.77531E+00 1.20501E-12 2.19713E-13
 -1      1741 4.60249E+01 7.37829E+00 1.38592E+00 6.78165E-01 1.18228E-12-3.20022E-13
 -1      1742 4.60067E+01 7.05159E+00 1.48803E+00-2.33516E+00 1.05804E-12-1.06160E-12
 -1      1743 4.01914E+01 5.61386E+00 1.17775E+00-5.41836E+00 1.19441E-12-1.65845E-12
 -1      1744 3.09483E+01 3.13898E+00 6.69673E-01-7.44661E+00 1.43552E-12-1.83875E-12
 -1      1745 1.97431E+01-5.48168E-01-2.59175E-02-7.10017E+00 1.50380E-12-1.72551E-12
 -1      1746 9.94856E+00-5.15697E+00-6.33328E-01-5.48367E+00 1.21980E-12-1.47427E-12
 -1      1747 2.88332E+00-8.86502E+00-1.01650E+00-3.43650E+00 7.00773E-13-1.30551E-12
 -1      1748-9.36689E-01-1.14407E+01-1.34372E+00-9.47264E-01-8.93730E-15-1.40299E-12
 -1      1749-8.81216E-01-1.11703E+01-1.29098E+00 1.17302E+00-8.50237E-13-1.39333E-12
 -1      1750 2.63945E+00-8.84309E+00-1.06303E+00 3.28331E+00-1.56763E-12-1.27987E-12
 -1      1751 9.46564E+00-4.91687E+00-6.12542E-01 5.40507E+00-1.97098E-12-1.48082E-12
 -1      1752 1.84539E+01-8.23666E-01-5.87912E-02 7.07148E+00-1.90492E-12-1.61027E-12
 -1      1753 2.81464E+01 2.55588E+00 5.02102E-01 7.61720E+00-1.71413E-12-1.65079E-12
 -1      1754 3.73666E+01 5.03340E+00 1.02913E+00 6.69671E+00-1.42926E-12-1.25122E-12
 -1      1755 4.42846E+01 6.60782E+00 1.42717E+00 4.23148E+00-1.19854E-12-7.81319E-13
 -1      1756 4.65540E+01 7.38382E+00 1.49970E+00 7.96734E-01-1.00220E-12-2.68868E-13
 -1      1757 4.50422E+01 7.06472E+00 1.42106E+00-2.91496E+00-8.68305E-13 3.05811E-13
 -1      1758 3.97688E+01 5.51959E+00 1.12201E+00-5.76535E+00-9.00911E-13 9.31588E-13
 -1      1759 3.12115E+01 3.33988E+00 6.62234E-01-7.27799E+00-9.49962E-13 1.12133E-12
 -1      1760 2.16074E+01 8.36737E-02 8.72070E-02-7.29161E+00-9.11826E-13 1.03639E-12
 -1      1761 1.28071E+01-3.71137E+00-4.08395E-01-6.19633E+00-7.99805E-13 1.00658E-12
 -1      1762 5.39182E+00-7.27592E+00-8.43954E-01-4.43947E+00-3.89910E-13 1.15673E-12
 -1      1763 5.31847E-01-9.78603E+00-1.11503E+00-2.38818E+00-6.66134E-14 9.25315E-13
 -1      1764 2.28031E+01 1.97882E+00-2.41353E-02-2.70275E+00-4.04794E-13 1.17295E-12
 -1      1765 1.98379E+01 3.71974E+00-3.55382E-02-2.11413E+00-4.28445E-13-7.17221E-13
 -1      1766 2.00676E+01 3.56408E+00-3.98058E-02-2.40768E+00-5.15468E-13-5.81060E-13
 -1      1767 2.03644E+01 3.17936E+00-4.55270E-02-2.55104E+00-5.30341E-13-3.92512E-13
 -1      1768 2.05734E+01 2.80513E+00-1.41724E-01-2.82113E+00-5.95253E-13-1.37293E-13
 -1      1769 2.04305E+01 2.69622E+00-4.17761E-03-2.18720E+00-5.57257E-13-4.40578E-13
 -1      1770 1.93717E+01 4.21341E+00-2.03206E-02-1.23626E+00-1.75424E-13-9.12740E-13
 -1      1771 1.94464E+01 4.17013E+00-1.71571E-02-1.45808E+00-2.33623E-13-8.99988E-13
 -1      1772 1.92714E+01 4.32668E+00-1.68477E-02-8.32892E-01-5.79818E-14-9.07587E-13
 -1      1773 1.93164E+01 4.30062E+00-1.39848E-02-1.03952E+00-1.11913E-13-9.17554E-13
 -1      1774 1.95403E+01 3.81837E+00-8.85030E-03-1.08375E+00-1.62977E-13-8.80667E-13
 -1      1775 1.92159E+01 4.39292E+00-1.47576E-02-4.50719E-01 5.61045E-14-8.62333E-13
 -1      1776 1.92398E+01 4.37865E+00-1.30001E-02-6.45652E-01 2.88203E-15-8.86027E-13
 -1      1777 1.94377E+01 3.94815E+00-8.73278E-03-7.06369E-01-2.92871E-14-8.62248E-13
 -1      1778 1.91946E+01 4.42138E+00-1.35165E-02-8.02913E-02 1.67023E-13-8.35360E-13
 -1      1779 1.92017E+01 4.41695E+00-1.29742E-02-2.69676E-01 1.21974E-13-8.59843E-13
 -1      1780 1.93830E+01 4.01891E+00-8.62692E-03-3.44132E-01 8.82832E-14-8.28568E-13
 -1      1781 1.92035E+01 4.41560E+00-1.29231E-02 2.88285E-01 2.64553E-13-7.84905E-13
 -1      1782 1.91951E+01 4.42055E+00-1.36030E-02 9.87401E-02 2.24757E-13-8.12453E-13
 -1      1783 1.93666E+01 4.04050E+00-8.59190E-03 1.02855E-02 2.05569E-13-7.97147E-13
 -1      1784 1.92443E+01 4.37461E+00-1.30150E-02 6.64983E-01 3.62941E-13-7.13488E-13
 -1      1785 1.92190E+01 4.38976E+00-1.48701E-02 4.69545E-01 3.15885E-13-7.63303E-13
 -1      1786 1.93859E+01 4.01562E+00-8.65795E-03 3.64894E-01 3.08183E-13-7.48858E-13
 -1      1787 1.93224E+01 4.29463E+00-1.40578E-02 1.05327E+00 4.65441E-13-6.06560E-13
 -1      1788 1.92766E+01 4.32137E+00-1.70235E-02 8.49347E-01 4.07470E-13-6.67938E-13
 -1      1789 1.94434E+01 3.94196E+00-8.72580E-03 7.24422E-01 4.09832E-13-6.61587E-13
 -1      1790 1.94574E+01 4.15860E+00-1.70349E-02 1.47729E+00 5.68378E-13-4.49286E-13
 -1      1791 1.93794E+01 4.20417E+00-2.06166E-02 1.25021E+00 5.08507E-13-5.44431E-13
 -1      1792 1.95488E+01 3.80864E+00-8.87895E-03 1.09868E+00 5.19654E-13-5.41777E-13
 -1      1793 1.96855E+01 3.93218E+00-2.48266E-02 1.94039E+00 6.57096E-13-2.18246E-13
 -1      1794 1.95538E+01 4.01237E+00-2.70140E-02 1.68378E+00 6.06097E-13-3.54234E-13
 -1      1795 1.97261E+01 3.59004E+00-8.46532E-03 1.49303E+00 6.19675E-13-3.62103E-13
 -1      1796 2.00851E+01 3.52445E+00-4.47595E-02 2.43471E+00 7.11479E-13 1.69819E-13
 -1      1797 1.98508E+01 3.68841E+00-3.96802E-02 2.14475E+00 6.73722E-13-6.11629E-14
 -1      1798 2.00210E+01 3.23519E+00-5.17445E-03 1.89166E+00 6.98982E-13-1.06731E-13
 -1      1799 2.09086E+01 2.67753E+00-5.71692E-02 2.82588E+00 6.45998E-13 8.46941E-13
 -1      1800 2.04140E+01 3.09488E+00-5.01532E-02 2.58190E+00 6.75641E-13 4.39343E-13
 -1      1801 2.05233E+01 2.61264E+00 3.19481E-03 2.20590E+00 7.13128E-13 3.14151E-13
 -1      1802 2.16964E+01 1.21021E+00-1.21538E-01 2.30599E+00 5.18530E-13 1.64499E-12
 -1      1803 2.12530E+01 2.25792E+00 1.07817E-04 2.71214E+00 5.82426E-13 1.12389E-12
 -1      1804 2.09282E+01 1.68399E+00-2.25299E-02 2.10838E+00 6.57703E-13 8.28160E-13
 -1      1805 2.09270E+01 7.77580E-01-6.19211E-02 1.50142E+00 5.30236E-13 1.46929E-12
 -1      1806 2.17655E+01 2.45125E+00 9.05353E-02-3.02153E+00-5.31429E-13 3.39423E-13
 -1      1807 2.00964E+01 3.00052E-01-8.48387E-03 6.32530E-01 4.18259E-13 1.18895E-12
 -1      1808 2.06369E+01 4.41390E-01-1.21575E-02 1.01043E+00 4.53346E-13 1.34903E-12
 -1      1809 2.07356E+01 8.45320E-01 2.05219E-03 1.38603E+00 5.41824E-13 9.80431E-13
 -1      1810 2.14871E+01 1.74007E+00 7.92124E-02-2.30789E+00-5.63272E-13 1.56576E-13
 -1      1811 2.05196E+01 5.03598E-01 3.27026E-02-8.91139E-01-4.72782E-13 1.05144E-13
 -1      1812 2.01007E+01 3.57198E-01 8.25885E-03-5.96954E-01-4.10616E-13-1.51797E-14
 -1      1813 1.99174E+01 2.64544E-01 2.76184E-02-3.53156E-01-3.67750E-13-2.35853E-14
 -1      1814 1.97431E+01 1.87596E-01 1.12425E-02-2.10334E-01-3.03368E-13-1.19900E-13
 -1      1815 2.02222E+01 4.93080E-01-6.16899E-03-6.76123E-01-4.48501E-13-1.86749E-13
 -1      1816 1.96364E+01 1.44198E-01 1.69979E-02-6.83335E-02-2.45354E-13-1.34026E-13
 -1      1817 1.95808E+01 1.07088E-01 8.08907E-03 1.00369E-02-1.89463E-13-1.97178E-13
 -1      1818 1.99229E+01 2.59743E-01-6.23193E-03-2.33260E-01-3.32590E-13-2.01538E-13
 -1      1819 1.95364E+01 8.46540E-02 9.15974E-03 9.54780E-02-1.44291E-13-2.31368E-13
 -1      1820 1.95523E+01 6.59683E-02 5.56613E-03 1.42213E-01-1.18173E-13-2.73054E-13
 -1      1821 1.97763E+01 1.47899E-01-5.27794E-03 2.65226E-02-2.16229E-13-2.61310E-13
 -1      1822 1.95536E+01 5.42287E-02 4.85309E-03 1.96949E-01-1.08857E-13-2.86309E-13
 -1      1823 1.96143E+01 4.52887E-02 4.28246E-03 2.27732E-01-8.59261E-14-3.26771E-13
 -1      1824 1.97378E+01 9.17221E-02-4.28965E-03 1.87566E-01-1.44617E-13-3.16252E-13
 -1      1825 1.96485E+01 3.95929E-02 2.61979E-03 2.66388E-01-9.06240E-14-3.19097E-13
 -1      1826 1.97400E+01 3.63778E-02 3.73809E-03 2.89747E-01-9.55481E-14-3.33979E-13
 -1      1827 1.97770E+01 6.42158E-02-3.36819E-03 2.95285E-01-1.19003E-13-3.39237E-13
 -1      1828 1.97990E+01 3.43771E-02 1.46189E-03 3.21103E-01-1.36603E-13-3.31352E-13
 -1      1829 1.99144E+01 3.46719E-02 3.57705E-03 3.42103E-01-1.47295E-13-3.46972E-13
 -1      1830 1.98733E+01 5.31741E-02-2.68277E-03 3.76014E-01-1.38762E-13-3.51049E-13
 -1      1831 1.99935E+01 3.48937E-02 8.64671E-04 3.71551E-01-1.55785E-13-3.37111E-13
 -1      1832 2.01301E+01 3.71583E-02 3.58791E-03 3.93188E-01-9.75308E-14-3.61276E-13
 -1      1833 2.00143E+01 5.20199E-02-2.25651E-03 4.45775E-01-1.52064E-13-3.81236E-13
 -1      1834 2.02271E+01 3.83934E-02 5.63853E-04 4.23757E-01-8.24037E-14-3.93335E-13
 -1      1835 2.03841E+01 4.12076E-02 3.59754E-03 4.47391E-01-7.73089E-14-4.40589E-13
 -1      1836 2.01932E+01 5.62522E-02-2.03452E-03 5.14137E-01-1.34330E-13-3.57616E-13
 -1      1837 2.04983E+01 4.21693E-02 4.04219E-04 4.79997E-01-9.45921E-14-4.41486E-13
 -1      1838 2.06757E+01 4.38706E-02 3.40863E-03 5.05294E-01-7.60228E-14-4.81783E-13
 -1      1839 2.04071E+01 6.17615E-02-1.94396E-03 5.85655E-01-1.04660E-13-3.64641E-13
 -1      1840 2.08070E+01 4.29402E-02 2.80368E-04 5.38509E-01-6.75231E-14-4.85495E-13
 -1      1841 2.10036E+01 4.13292E-02 2.77047E-03 5.63030E-01-6.06308E-14-5.06001E-13
 -1      1842 2.06552E+01 6.37867E-02-1.91616E-03 6.59921E-01-7.31727E-14-3.79143E-13
 -1      1843 2.11516E+01 3.63457E-02 1.18525E-04 5.92477E-01-1.86309E-14-5.11949E-13
 -1      1844 2.13634E+01 2.84742E-02 1.37723E-03 6.11015E-01 4.90873E-15-4.51501E-13
 -1      1845 2.09367E+01 5.61166E-02-1.88944E-03 7.30693E-01-4.31973E-14-3.95458E-13
 -1      1846 2.15271E+01 1.66447E-02-1.23995E-04 6.28522E-01-1.42771E-14-4.08552E-13
 -1      1847 2.17447E+01-1.14583E-03-1.09004E-03 6.32361E-01-2.90693E-14-3.73957E-13
 -1      1848 2.12500E+01 3.05823E-02-1.80162E-03 7.84351E-01-7.73368E-15-2.54893E-13
 -1      1849 2.19211E+01-2.29890E-02-4.58210E-04 6.25202E-01-4.17526E-14-3.77597E-13
 -1      1850 2.21277E+01-5.43783E-02-4.83983E-03 6.01780E-01-8.31149E-16-3.23378E-13
 -1      1851 2.15902E+01-2.26610E-02-1.56949E-03 7.98179E-01-1.94794E-14-2.71842E-13
 -1      1852 2.23105E+01-8.87154E-02-8.79372E-04 5.52763E-01 7.38992E-16-3.06795E-13
 -1      1853 2.24801E+01-1.35388E-01-9.71073E-03 4.86770E-01 5.65394E-14-3.26792E-13
 -1      1854 2.19471E+01-1.12937E-01-1.04247E-03 7.39602E-01 2.20319E-14-1.99307E-13
 -1      1855 2.26575E+01-1.81484E-01-1.42124E-03 3.76730E-01 1.71738E-15-4.01716E-13
 -1      1856 2.27556E+01-2.39118E-01-1.47867E-02 2.54375E-01-7.71397E-14-4.47826E-13
 -1      1857 2.23021E+01-2.43113E-01 8.35603E-05 5.68763E-01-3.87299E-14-2.35779E-13
 -1      1858 2.29069E+01-2.88724E-01-2.30086E-03 6.95592E-02-9.64012E-14-4.30728E-13
 -1      1859 2.28962E+01-3.41418E-01-1.80563E-02-1.12142E-01-8.09040E-14-4.12042E-13
 -1      1860 2.26229E+01-3.98360E-01 2.28205E-03 2.48703E-01-6.90455E-14-2.33979E-13
 -1      1861 2.29886E+01-3.74086E-01-3.90220E-03-3.65679E-01-3.18686E-14-3.28980E-13
 -1      1862 2.28413E+01-3.90919E-01-1.65281E-02-5.84781E-01 4.27419E-14-3.13088E-13
 -1      1863 2.28589E+01-5.31924E-01 5.88255E-03-2.31698E-01-1.58996E-14-2.14244E-13
 -1      1864 2.28334E+01-3.74123E-01-6.42593E-03-8.61443E-01 9.82972E-14-2.71119E-13
 -1      1865 2.25514E+01-3.16890E-01-7.86811E-03-1.05844E+00 1.45716E-13-3.05833E-13
 -1      1866 2.29405E+01-5.58262E-01 1.03762E-02-8.20729E-01 8.00258E-14-1.20140E-13
 -1      1867 2.24124E+01-2.20894E-01-8.98883E-03-1.26125E+00 1.32657E-13-3.21630E-13
 -1      1868 2.20459E+01-7.22935E-02 6.31623E-03-1.34458E+00 5.62032E-14-3.11617E-13
 -1      1869 2.27987E+01-3.79614E-01 1.26297E-02-1.36587E+00 1.06778E-13-1.81857E-13
 -1      1870 2.17977E+01 9.68140E-02-8.50596E-03-1.34955E+00 2.34751E-15-2.98774E-13
 -1      1871 2.14467E+01 2.95239E-01 1.86825E-02-1.23769E+00-4.15241E-14-2.20855E-13
 -1      1872 2.24220E+01 3.66159E-02 7.50007E-03-1.61933E+00 7.54863E-14-2.16017E-13
 -1      1873 2.11950E+01 4.68504E-01-1.42268E-03-9.73017E-01-1.54550E-13-2.89165E-13
 -1      1874 2.09783E+01 6.14758E-01 2.05907E-02-6.63879E-01-1.32583E-13-3.29894E-13
 -1      1875 2.19305E+01 5.66700E-01-6.65868E-03-1.34691E+00-1.22018E-13-2.13734E-13
 -1      1876 2.08706E+01 6.90045E-01 1.12235E-02-1.97739E-01-6.29097E-14-4.53154E-13
 -1      1877 2.08707E+01 6.90980E-01 1.14123E-02 1.96514E-01-1.85997E-14-4.66404E-13
 -1      1878 2.15735E+01 9.46935E-01-2.01920E-02-5.28447E-01-1.33686E-13-3.35613E-13
 -1      1879 2.09792E+01 6.17367E-01 2.09451E-02 6.64104E-01-9.43221E-14-6.18700E-13
 -1      1880 2.11969E+01 4.71918E-01-9.04221E-04 9.75011E-01-1.61888E-13-7.12305E-13
 -1      1881 2.15740E+01 9.49650E-01-1.97919E-02 5.28601E-01-1.16195E-13-5.88752E-13
 -1      1882 2.14510E+01 2.98720E-01 1.91445E-02 1.24219E+00-1.42545E-13-6.97003E-13
 -1      1883 2.18044E+01 1.00460E-01-8.03331E-03 1.35602E+00-1.53407E-13-7.81977E-13
 -1      1884 2.19340E+01 5.72525E-01-5.79572E-03 1.35188E+00-1.52097E-13-5.73306E-13
 -1      1885 2.20556E+01-6.85142E-02 6.57955E-03 1.35373E+00-8.77161E-14-7.72021E-13
 -1      1886 2.24260E+01-2.17101E-01-8.76794E-03 1.27261E+00 5.34785E-14-7.37205E-13
 -1      1887 2.24305E+01 4.16739E-02 7.54442E-03 1.62979E+00-7.82725E-14-5.46973E-13
 -1      1888 2.25692E+01-3.13170E-01-7.71839E-03 1.07263E+00 1.21242E-13-7.54384E-13
 -1      1889 2.28569E+01-3.70403E-01-6.21271E-03 8.77821E-01 2.06246E-13-6.56063E-13
 -1      1890 2.28144E+01-3.73818E-01 1.26196E-02 1.38262E+00 8.05558E-14-6.57573E-13
 -1      1891 2.28701E+01-3.87167E-01-1.64256E-02 6.03985E-01 1.62587E-13-7.44544E-13
 -1      1892 2.30250E+01-3.70129E-01-3.64635E-03 3.87177E-01 8.58636E-14-7.11157E-13
 -1      1893 2.29656E+01-5.52703E-01 1.01985E-02 8.43682E-01 1.71815E-13-6.83120E-13
 -1      1894 2.29389E+01-3.37213E-01-1.79572E-02 1.36773E-01 3.00714E-15-6.71166E-13
 -1      1895 2.29594E+01-2.84001E-01-1.93426E-03-4.22672E-02-1.19548E-14-5.81891E-13
 -1      1896 2.28956E+01-5.25685E-01 5.73917E-03 2.61287E-01 8.00931E-14-6.20499E-13
 -1      1897 2.28159E+01-2.33902E-01-1.46772E-02-2.23269E-01-2.32236E-14-5.63099E-13
 -1      1898 2.27301E+01-1.75497E-01-9.59847E-04-3.42294E-01 5.98584E-14-4.81247E-13
 -1      1899 2.26737E+01-3.90904E-01 2.08882E-03-2.11379E-01 6.05501E-14-4.39463E-13
 -1      1900 2.25623E+01-1.28760E-01-9.57926E-03-4.47525E-01 1.40855E-13-4.52948E-13
 -1      1901 2.24082E+01-8.11611E-02-3.13154E-04-5.09324E-01 1.14671E-13-3.09587E-13
 -1      1902 2.23703E+01-2.33620E-01-1.16396E-04-5.21777E-01 1.25212E-13-2.43707E-13
 -1      1903 2.22371E+01-4.61188E-02-4.69379E-03-5.52397E-01 1.55045E-14-3.26310E-13
 -1      1904 2.20498E+01-1.37420E-02 1.98663E-04-5.70661E-01 9.09240E-14-3.01220E-13
 -1      1905 2.20369E+01-1.01080E-01-1.27267E-03-6.80604E-01 1.22369E-13-2.77382E-13
 -1      1906 2.18877E+01 8.77808E-03-9.39203E-04-5.70714E-01 2.09059E-14-3.75248E-13
 -1      1907 2.16937E+01 2.75246E-02 6.16561E-04-5.60769E-01 3.37754E-14-3.79827E-13
 -1      1908 2.17063E+01-8.28854E-03-1.81892E-03-7.24632E-01-5.37634E-15-1.79435E-13
 -1      1909 2.15470E+01 3.99182E-02 1.51438E-03-5.35126E-01-7.16170E-15-4.28195E-13
 -1      1910 2.13638E+01 4.86195E-02 9.22881E-04-5.09653E-01-3.67322E-14-2.85372E-13
 -1      1911 2.13978E+01 4.73211E-02-2.04516E-03-6.93873E-01-1.89046E-14-2.72260E-13
 -1      1912 2.12354E+01 5.39507E-02 2.86218E-03-4.71327E-01-7.21084E-14-2.38899E-13
 -1      1913 2.10726E+01 5.61292E-02 1.10544E-03-4.39297E-01 7.76282E-14-3.46227E-13
 -1      1914 2.11216E+01 7.47850E-02-2.09293E-03-6.21398E-01 1.50715E-15-2.45233E-13
 -1      1915 2.09633E+01 5.70374E-02 3.40768E-03-3.96973E-01 2.37155E-13-5.09947E-13
 -1      1916 2.08249E+01 5.54330E-02 1.17376E-03-3.64048E-01 1.10212E-13-3.17782E-13
 -1      1917 2.08823E+01 8.35502E-02-2.02886E-03-5.30852E-01 4.37503E-14-2.97726E-13
 -1      1918 2.07340E+01 5.38525E-02 3.43606E-03-3.22959E-01 6.47108E-14-4.55548E-13
 -1      1919 2.06204E+01 5.03511E-02 1.15287E-03-2.92326E-01 1.03176E-14-4.02234E-13
 -1      1920 2.06806E+01 8.11850E-02-1.88986E-03-4.37436E-01 6.14952E-14-4.38982E-13
 -1      1921 2.05465E+01 4.75705E-02 3.16904E-03-2.55261E-01-5.37808E-14-2.47006E-13
 -1      1922 2.04559E+01 4.33654E-02 1.07209E-03-2.28441E-01-1.89837E-13-1.69613E-13
 -1      1923 2.05145E+01 7.30046E-02-1.70304E-03-3.49944E-01 6.03386E-14-5.30008E-13
 -1      1924 2.03971E+01 4.01841E-02 2.76053E-03-1.96585E-01-3.00159E-13-1.81250E-13
 -1      1925 2.03266E+01 3.59754E-02 9.58039E-04-1.74062E-01-1.99310E-13-1.63371E-13
 -1      1926 2.03809E+01 6.24313E-02-1.49108E-03-2.72749E-01-2.35094E-13-1.24926E-13
 -1      1927 2.02808E+01 3.28560E-02 2.30850E-03-1.47625E-01-2.73327E-13-2.11823E-13
 -1      1928 2.02274E+01 2.90190E-02 8.31579E-04-1.29283E-01-6.09321E-14-2.84366E-13
 -1      1929 2.02755E+01 5.15124E-02-1.27240E-03-2.07399E-01-2.13102E-13-1.21957E-13
 -1      1930 2.01924E+01 2.62070E-02 1.86993E-03-1.07919E-01 1.73512E-13-4.45195E-13
 -1      1931 2.01529E+01 2.29158E-02 7.07225E-04-9.33270E-02 8.79545E-14-4.82305E-13
 -1      1932 2.01942E+01 4.13764E-02-1.06058E-03-1.53753E-01-6.91731E-14-1.65001E-13
 -1      1933 2.01268E+01 2.05231E-02 1.47361E-03-7.64149E-02 9.43237E-14-2.85705E-13
 -1      1934 2.00985E+01 1.78314E-02 5.92579E-04-6.50005E-02 2.95922E-13-4.00000E-14
 -1      1935 2.01327E+01 3.25744E-02-8.64151E-04-1.10751E-01 2.36755E-13-8.64900E-14
 -1      1936 2.00795E+01 1.58869E-02 1.12927E-03-5.18154E-02 3.15848E-13 3.03526E-14
 -1      1937 2.00600E+01 1.37744E-02 4.87319E-04-4.29780E-02 2.66983E-13 4.87192E-14
 -1      1938 2.00873E+01 2.53027E-02-6.88330E-04-7.69073E-02 3.20351E-13 1.15913E-13
 -1      1939 2.00464E+01 1.22517E-02 8.33833E-04-3.28101E-02 3.19387E-14 8.95533E-15
 -1      1940 2.00338E+01 1.06531E-02 3.94822E-04-2.60039E-02 5.71884E-14-9.94772E-15
 -1      1941 2.00547E+01 1.95394E-02-5.31223E-04-5.06368E-02 1.00012E-13 2.70096E-15
 -1      1942 2.00244E+01 9.38806E-03 5.63678E-04-1.82022E-02 1.69790E-13-1.69722E-13
 -1      1943 2.00170E+01 8.09827E-03 3.01229E-04-1.30565E-02 2.57671E-13-1.53236E-15
 -1      1944 2.00318E+01 1.51225E-02-3.75494E-04-3.04893E-02 3.79585E-14 3.96928E-14
 -1      1945 2.00110E+01 6.86501E-03 3.97730E-04-7.57193E-03 4.26233E-13-1.23441E-13
 -1      1946 2.00071E+01 5.38850E-03 2.33711E-04-4.13879E-03 2.82669E-13-7.70788E-14
 -1      1947 2.00073E+01 6.46790E-03-2.51451E-04-5.44738E-03 1.80688E-13 4.34455E-14
 -1      1948 2.00166E+01 1.08907E-02-3.94805E-04-1.56404E-02 2.19370E-13 7.36715E-14
 -1      1949 1.96398E+01 1.46840E-01 8.32318E-03 2.28415E-01 3.31978E-13 9.36543E-13
 -1      1950 1.98977E+01 2.07862E-01 1.67369E-02 4.04423E-01 3.55002E-13 1.08523E-12
 -1      1951 2.01144E+01 3.54950E-01-1.78606E-03 6.20076E-01 4.42589E-13 7.92080E-13
 -1      1952 1.94324E+01 7.96373E-02 7.51639E-03 1.40590E-02 2.59878E-13 7.56659E-13
 -1      1953 1.95286E+01 1.08422E-01 1.46118E-02 1.07818E-01 2.66055E-13 8.54786E-13
 -1      1954 1.97499E+01 1.73568E-01-2.30267E-03 2.10130E-01 3.45637E-13 6.34768E-13
 -1      1955 1.93897E+01 4.72610E-02 5.19778E-03-1.08362E-01 1.73160E-13 6.09125E-13
 -1      1956 1.93941E+01 6.18467E-02 8.92502E-03-5.33263E-02 2.07623E-13 7.05800E-13
 -1      1957 1.95879E+01 9.35225E-02-3.28310E-03-1.93663E-02 2.60451E-13 4.96085E-13
 -1      1958 1.94535E+01 3.14011E-02 3.89153E-03-1.84431E-01 9.43659E-14 5.27054E-13
 -1      1959 1.94028E+01 3.88403E-02 5.14959E-03-1.48856E-01 1.30197E-13 5.85768E-13
 -1      1960 1.95606E+01 5.55461E-02-3.44033E-03-1.56204E-01 1.70936E-13 3.74086E-13
 -1      1961 1.95897E+01 2.46786E-02 3.34206E-03-2.38030E-01 7.15762E-14 4.34947E-13
 -1      1962 1.95027E+01 2.80616E-02 3.18732E-03-2.11851E-01 6.76321E-14 4.97881E-13
 -1      1963 1.96239E+01 3.79844E-02-3.08719E-03-2.45569E-01 1.09998E-13 2.96874E-13
 -1      1964 1.97803E+01 2.37080E-02 3.18502E-03-2.83169E-01 8.88243E-14 4.29821E-13
 -1      1965 1.96662E+01 2.45790E-02 2.26099E-03-2.60345E-01 7.49667E-14 4.48417E-13
 -1      1966 1.97519E+01 3.18748E-02-2.68591E-03-3.12491E-01 9.58762E-14 2.35976E-13
 -1      1967 2.00179E+01 2.66136E-02 3.23696E-03-3.28881E-01 9.08583E-14 3.33940E-13
 -1      1968 1.98799E+01 2.59040E-02 1.88072E-03-3.05398E-01 9.41553E-14 4.11812E-13
 -1      1969 1.99304E+01 3.29867E-02-2.42636E-03-3.72223E-01 1.11031E-13 2.63918E-13
 -1      1970 2.03019E+01 3.20296E-02 3.39773E-03-3.81116E-01 4.84284E-14 3.96839E-13
 -1      1971 2.01394E+01 3.04499E-02 1.78919E-03-3.54227E-01 5.36758E-14 3.71352E-13
 -1      1972 2.01538E+01 3.88264E-02-2.34171E-03-4.34645E-01 6.97957E-14 2.50374E-13
 -1      1973 2.06355E+01 3.85416E-02 3.56426E-03-4.43254E-01 1.12394E-13 3.71916E-13
 -1      1974 2.04460E+01 3.68213E-02 1.82874E-03-4.11306E-01 8.67700E-14 3.89884E-13
 -1      1975 2.04215E+01 4.73665E-02-2.41263E-03-5.05939E-01 9.60900E-14 2.56323E-13
 -1      1976 2.10237E+01 4.41941E-02 3.58205E-03-5.15683E-01 9.41688E-14 3.52107E-13
 -1      1977 2.08040E+01 4.33005E-02 1.86330E-03-4.78364E-01 1.08949E-13 3.56669E-13
 -1      1978 2.07360E+01 5.62452E-02-2.60914E-03-5.88808E-01 1.19502E-13 1.92770E-13
 -1      1979 2.14701E+01 4.59112E-02 3.21524E-03-5.94486E-01 7.02749E-14 2.57787E-13
 -1      1980 2.12183E+01 4.72998E-02 1.74236E-03-5.53515E-01 6.81252E-14 2.80174E-13
 -1      1981 2.11007E+01 6.19917E-02-2.89681E-03-6.81585E-01 1.12775E-13 2.13181E-13
 -1      1982 2.19731E+01 3.88202E-02 2.14122E-03-6.69076E-01-7.60828E-15 2.60041E-13
 -1      1983 2.16909E+01 4.47002E-02 1.29021E-03-6.29429E-01 4.63280E-15 2.63978E-13
 -1      1984 2.15175E+01 5.91282E-02-3.22388E-03-7.76224E-01 2.51769E-14 1.47184E-13
 -1      1985 2.25207E+01 1.57239E-02 8.38476E-06-7.18822E-01-5.74700E-14 2.67735E-13
 -1      1986 2.22171E+01 2.91901E-02 3.25293E-04-6.90513E-01-1.68566E-14 2.68285E-13
 -1      1987 2.19836E+01 3.92709E-02-3.48816E-03-8.55106E-01-1.86864E-14 1.72085E-13
 -1      1988 2.30838E+01-3.24783E-02-3.37370E-03-7.09471E-01-5.37764E-15 2.72276E-13
 -1      1989 2.27796E+01-7.88472E-03-1.27562E-03-7.09507E-01-6.64800E-14 2.30161E-13
 -1      1990 2.24880E+01-9.10075E-03-3.47341E-03-8.87107E-01-5.95905E-14 1.78910E-13
 -1      1991 2.36091E+01-1.13577E-01-7.63023E-03-5.92132E-01 1.20999E-13 3.25281E-13
 -1      1992 2.33411E+01-7.58121E-02-3.46106E-03-6.45237E-01 5.75946E-14 3.05950E-13
 -1      1993 2.30063E+01-9.84621E-02-2.75383E-03-8.24720E-01 4.74551E-14 2.81163E-13
 -1      1994 2.40147E+01-2.25121E-01-1.12967E-02-3.11454E-01 7.62671E-15 4.00975E-13
 -1      1995 2.38368E+01-1.78312E-01-5.87123E-03-4.46054E-01 1.22504E-13 3.86483E-13
 -1      1996 2.34947E+01-2.34239E-01-6.02983E-04-6.07039E-01 8.55175E-14 3.77189E-13
 -1      1997 2.41936E+01-3.38627E-01-1.18260E-02 1.66118E-01-1.48225E-13 4.16817E-13
 -1      1998 2.41698E+01-3.00205E-01-7.89340E-03-6.76396E-02-7.43017E-14 4.37163E-13
 -1      1999 2.38836E+01-3.97525E-01 3.77802E-03-1.78095E-01-3.23413E-14 4.48760E-13
 -1      2000 2.40357E+01-3.84950E-01-7.01608E-03 7.96631E-01-1.93993E-13 4.96121E-13
 -1      2001 2.42191E+01-3.89821E-01-9.03760E-03 4.85408E-01-1.88955E-13 4.49096E-13
 -1      2002 2.40755E+01-5.22284E-01 1.01096E-02 4.67762E-01-1.88353E-13 5.19859E-13
 -1      2003 2.34803E+01-2.68234E-01 1.59083E-03 1.39214E+00 3.64674E-14 5.68615E-13
 -1      2004 2.38781E+01-3.54844E-01-8.90234E-03 1.09811E+00-1.49904E-13 5.35212E-13
 -1      2005 2.39620E+01-4.89394E-01 1.55199E-02 1.21415E+00-1.26824E-13 5.27589E-13
 -1      2006 2.26077E+01 5.32826E-02 5.91313E-03 1.62483E+00 1.60907E-13 5.13159E-13
 -1      2007 2.31430E+01-1.13768E-01-6.79756E-03 1.50965E+00 1.55449E-13 5.97383E-13
 -1      2008 2.34889E+01-1.90967E-01 1.29843E-02 1.76757E+00 9.94959E-14 5.45761E-13
 -1      2009 2.17185E+01 4.60150E-01-1.73592E-03 1.20539E+00 1.73290E-13 4.00882E-13
 -1      2010 2.22175E+01 2.92702E-01-1.69235E-03 1.40375E+00 1.65925E-13 4.21531E-13
 -1      2011 2.27737E+01 3.36413E-01-1.43100E-03 1.73703E+00 2.49222E-13 4.48742E-13
 -1      2012 2.12625E+01 6.84488E-01-1.64693E-02 1.88370E-01 1.02380E-13 2.22745E-13
 -1      2013 2.15093E+01 6.39172E-01 6.12294E-03 6.60153E-01 1.35617E-13 3.50114E-13
 -1      2014 2.21619E+01 8.24172E-01-1.96972E-02 9.22764E-01 1.78729E-13 3.35226E-13
 -1      2015 2.15317E+01 5.48322E-01-2.13590E-02-9.31006E-01 7.59219E-14 1.40492E-13
 -1      2016 2.13943E+01 6.67911E-01 1.16801E-02-4.25409E-01 6.73073E-14 1.40553E-13
 -1      2017 2.20422E+01 9.38802E-01-2.24455E-02-3.76064E-01 9.73978E-14 2.02725E-13
 -1      2018 2.23824E+01 1.64901E-01-9.88309E-03-1.57452E+00 1.17547E-13-1.12368E-13
 -1      2019 2.19202E+01 3.59346E-01 9.73373E-03-1.28888E+00 1.33414E-13 8.64586E-15
 -1      2020 2.24982E+01 5.90684E-01-7.97942E-03-1.47550E+00 2.04134E-13-1.13042E-13
 -1      2021 2.33596E+01-1.95093E-01 6.38947E-03-1.53305E+00 1.81641E-13 3.27932E-14
 -1      2022 2.27829E+01-5.06500E-02 8.14514E-04-1.54524E+00 1.75635E-13-4.35381E-14
 -1      2023 2.32241E+01 3.29818E-02 5.97611E-03-1.85693E+00 1.81146E-13-1.39054E-13
 -1      2024 2.40586E+01-3.63131E-01 1.46204E-02-1.01599E+00-8.18321E-14-6.71980E-14
 -1      2025 2.35863E+01-3.20414E-01-8.75422E-03-1.22869E+00-1.78538E-14-3.22728E-14
 -1      2026 2.38237E+01-3.97142E-01 6.70972E-03-1.51895E+00 4.02360E-14 3.14315E-14
 -1      2027 2.43260E+01-3.50387E-01 1.32284E-02-3.70182E-01 7.68378E-14-1.41678E-13
 -1      2028 2.40753E+01-3.83232E-01-1.37573E-02-6.37518E-01 7.78717E-15 2.45481E-14
 -1      2029 2.40893E+01-5.46124E-01 4.97413E-04-8.14671E-01 2.64459E-14 7.54986E-14
 -1      2030 2.42098E+01-2.48014E-01 7.62394E-03 1.63128E-01 9.17036E-14-1.09390E-13
 -1      2031 2.41876E+01-3.08746E-01-1.35139E-02-5.94567E-02 9.93441E-14-1.39162E-13
 -1      2032 2.40224E+01-4.73416E-01-3.98690E-03-1.04269E-01 1.23016E-13 1.30009E-13
 -1      2033 2.38368E+01-1.34147E-01 2.26743E-03 4.99512E-01-7.32968E-14 2.75301E-14
 -1      2034 2.39870E+01-1.90134E-01-1.01449E-02 3.56820E-01-1.48805E-14-9.52407E-14
 -1      2035 2.37193E+01-3.09874E-01-4.76006E-03 4.19051E-01 3.49807E-14 1.48348E-13
 -1      2036 2.33316E+01-4.57675E-02-1.02971E-03 6.55347E-01 2.65723E-14-1.52486E-13
 -1      2037 2.35824E+01-8.48361E-02-5.93851E-03 5.86721E-01-1.01580E-13-1.21040E-13
 -1      2038 2.32843E+01-1.50906E-01-3.56660E-03 7.16632E-01-4.09100E-14-1.31940E-13
 -1      2039 2.27872E+01 9.97188E-03-2.38036E-03 6.83629E-01-2.22598E-14 4.05969E-14
 -1      2040 2.30780E+01-1.22197E-02-2.23181E-03 6.67985E-01 1.95731E-14-1.06633E-14
 -1      2041 2.27984E+01-3.55458E-02-2.05516E-03 8.29743E-01-2.58370E-14-1.28420E-13
 -1      2042 2.22631E+01 3.90937E-02-2.53006E-03 6.37020E-01-1.16830E-13 1.23641E-13
 -1      2043 2.25522E+01 2.93504E-02 4.41259E-04 6.53021E-01-8.77305E-14 2.05192E-13
 -1      2044 2.23160E+01 3.32012E-02-9.89620E-04 8.20602E-01-1.52233E-13 6.18698E-14
 -1      2045 2.17918E+01 5.04222E-02-2.13156E-03 5.54720E-01 1.74898E-13 6.47572E-14
 -1      2046 2.20554E+01 4.84321E-02 2.05724E-03 5.86271E-01 5.21410E-14 1.85372E-13
 -1      2047 2.18697E+01 6.64496E-02-4.53153E-04 7.43605E-01 7.98107E-14 1.96178E-13
 -1      2048 2.13871E+01 5.13760E-02-1.58112E-03 4.61614E-01 1.27177E-13 3.48788E-15
 -1      2049 2.16144E+01 5.35743E-02 2.83077E-03 4.98369E-01 1.55454E-13 8.39964E-14
 -1      2050 2.14764E+01 7.70119E-02-2.80476E-04 6.37176E-01 1.50278E-13 2.26910E-13
 -1      2051 2.10515E+01 4.70443E-02-1.06810E-03 3.71611E-01-1.13590E-13-1.14324E-13
 -1      2052 2.12398E+01 5.11238E-02 3.03001E-03 4.07689E-01-1.19050E-14-5.43585E-14
 -1      2053 2.11422E+01 7.49144E-02-2.89666E-04 5.24964E-01 7.17618E-14 8.64122E-14
 -1      2054 2.07805E+01 4.05308E-02-6.58361E-04 2.91403E-01 7.52430E-14-9.76140E-14
 -1      2055 2.09319E+01 4.51501E-02 2.88647E-03 3.23893E-01-3.36619E-14-9.54869E-14
 -1      2056 2.08663E+01 6.67615E-02-3.57328E-04 4.19813E-01-6.01793E-14-4.65008E-14
 -1      2057 2.05668E+01 3.35656E-02-3.58101E-04 2.23395E-01-1.02850E-13-3.77778E-14
 -1      2058 2.06855E+01 3.80178E-02 2.56854E-03 2.51173E-01-5.34724E-14-4.37635E-14
 -1      2059 2.06439E+01 5.64515E-02-4.19458E-04 3.27611E-01-7.69647E-14-6.36751E-14
 -1      2060 2.04017E+01 2.70272E-02-1.50612E-04 1.67651E-01-1.19447E-15 6.25272E-14
 -1      2061 2.04928E+01 3.09852E-02 2.18525E-03 1.90588E-01 4.57555E-14-1.21624E-14
 -1      2062 2.04686E+01 4.60822E-02-4.52248E-04 2.50148E-01-6.94013E-14 1.07802E-13
 -1      2063 2.02767E+01 2.13043E-02-1.36839E-05 1.23087E-01-2.05776E-14 3.81433E-14
 -1      2064 2.03451E+01 2.46526E-02 1.80057E-03 1.41552E-01-2.25258E-14 7.31298E-14
 -1      2065 2.03330E+01 3.66656E-02-4.53423E-04 1.87008E-01 4.33800E-15 2.21751E-13
 -1      2066 2.01841E+01 1.65222E-02 7.27851E-05 8.81400E-02 2.15483E-14 4.89021E-14
 -1      2067 2.02343E+01 1.92545E-02 1.44789E-03 1.02723E-01 2.90501E-14 8.39881E-14
 -1      2068 2.02302E+01 2.86076E-02-4.29558E-04 1.36703E-01-3.31720E-14 1.36454E-13
 -1      2069 2.01171E+01 1.26725E-02 1.24112E-04 6.11309E-02 1.50847E-13-1.17441E-13
 -1      2070 2.01530E+01 1.48352E-02 1.14132E-03 7.24935E-02 4.10936E-14 1.67457E-14
 -1      2071 2.01539E+01 2.19952E-02-3.90397E-04 9.73278E-02 1.15360E-13 7.54888E-14
 -1      2072 2.00701E+01 9.67857E-03 1.50130E-04 4.04546E-02-2.50340E-14-2.61054E-13
 -1      2073 2.00949E+01 1.13418E-02 8.83096E-04 4.92432E-02 8.84333E-14-1.73824E-13
 -1      2074 2.00986E+01 1.67583E-02-3.44253E-04 6.69129E-02 1.11095E-13 8.86376E-14
 -1      2075 2.00385E+01 7.41644E-03 1.52669E-04 2.46769E-02 8.55486E-14-1.25952E-13
 -1      2076 2.00548E+01 8.67093E-03 6.67561E-04 3.14835E-02 2.93645E-15-1.42305E-13
 -1      2077 2.00597E+01 1.27476E-02-2.96807E-04 4.36177E-02-4.12189E-14 1.34822E-13
 -1      2078 2.00185E+01 5.68607E-03 1.26287E-04 1.26774E-02-4.51152E-14 1.23061E-13
 -1      2079 2.00284E+01 6.64520E-03 4.82125E-04 1.79648E-02 5.67637E-14-4.80966E-14
 -1      2080 2.00333E+01 9.70109E-03-2.58222E-04 2.58773E-02 6.75553E-14 1.08021E-13
 -1      2081 2.00072E+01 4.16026E-03 1.63768E-04 3.90625E-03-2.29761E-13 1.09526E-13
 -1      2082 2.00122E+01 4.95528E-03 3.13408E-04 7.79533E-03-4.24217E-14 2.06997E-13
 -1      2083 2.00163E+01 7.28372E-03-2.03156E-04 1.25281E-02-9.26104E-14 4.18494E-13
 -1      2084 2.00027E+01 2.35111E-03 1.98281E-04-3.41706E-04 2.53070E-14 2.92937E-13
 -1      2085 2.00047E+01 3.73531E-03 1.93047E-04 1.90414E-03-2.02752E-13 1.46706E-13
 -1      2086 2.00076E+01 5.55584E-03-1.06971E-04 4.60298E-03-1.48223E-13 3.65771E-13
 -1      2087 2.00037E+01 3.03812E-03 5.44028E-05 5.74941E-04-2.73869E-14 4.52188E-13
 -1      2088 2.00024E+01 3.43694E-02-1.23034E-04 1.95667E-02 1.75322E-13 1.04868E-14
 -1      2089 2.00039E+01 2.80847E-02 2.35458E-04 1.76921E-02 1.72881E-13 1.98609E-13
 -1      2090 2.00051E+01 2.04652E-02-1.95013E-05 1.45476E-02 1.48412E-13 2.71276E-13
 -1      2091 2.00059E+01 1.54884E-02 2.21868E-04 1.12764E-02 2.70414E-14 3.42764E-13
 -1      2092 2.00067E+01 3.02380E-02-6.32086E-05 2.19880E-02 1.00537E-13 1.98834E-13
 -1      2093 2.00055E+01 1.00183E-02 6.06346E-05 7.37407E-03-5.46947E-14 2.35803E-13
 -1      2094 2.00051E+01 6.76822E-03 1.51449E-04 4.18019E-03-2.60928E-14 3.33476E-13
 -1      2095 2.00072E+01 8.28566E-03 7.70547E-05 6.01158E-03-9.68132E-14 3.32073E-13
 -1      2096 2.00082E+01 1.73262E-02-1.66338E-04 1.39299E-02-8.40790E-14 3.71177E-13
 -1      2097 1.99992E+01 4.88481E-02-2.20715E-04 2.07103E-02-8.43375E-14-7.82226E-13
 -1      2098 2.00009E+01 4.22386E-02 1.51194E-04 2.06267E-02-1.16905E-14-3.69707E-13
 -1      2099 2.00026E+01 4.56067E-02 4.58770E-05 2.65502E-02 2.78045E-14-2.96682E-13
 -1      2100 1.99961E+01 6.21143E-02-2.95686E-04 1.77445E-02-2.89887E-14-1.46269E-14
 -1      2101 1.99977E+01 5.61445E-02 1.94507E-05 1.94385E-02 8.84812E-15-1.93300E-13
 -1      2102 1.99978E+01 6.06979E-02 1.66715E-04 2.61581E-02 1.19238E-14-3.83243E-13
 -1      2103 1.99939E+01 7.17517E-02-3.26862E-04 1.12862E-02-1.65145E-13-9.42963E-14
 -1      2104 1.99950E+01 6.76540E-02-1.20556E-04 1.43785E-02-2.90987E-14-5.92972E-14
 -1      2105 1.99936E+01 7.34928E-02 2.75465E-04 2.07764E-02-3.08318E-14-2.69401E-14
 -1      2106 1.99929E+01 7.61781E-02-3.06054E-04 2.65774E-03-1.55303E-13-3.47219E-13
 -1      2107 1.99933E+01 7.47190E-02-2.37104E-04 6.50888E-03-2.06439E-13-1.15286E-13
 -1      2108 1.99908E+01 8.19795E-02 3.47903E-04 1.14596E-02-1.26838E-13-1.85441E-13
 -1      2109 1.99933E+01 7.46862E-02-2.33598E-04-6.45624E-03-3.57208E-13-5.12328E-13
 -1      2110 1.99929E+01 7.61366E-02-3.09317E-04-2.61012E-03-1.27450E-13-3.36609E-13
 -1      2111 1.99898E+01 8.48983E-02 3.71895E-04 7.47184E-06-2.28096E-13-3.68566E-13
 -1      2112 1.99950E+01 6.75592E-02-1.21607E-04-1.43002E-02-4.27847E-13-5.26792E-13
 -1      2113 1.99939E+01 7.16518E-02-3.26252E-04-1.12201E-02-4.49838E-13-5.53770E-13
 -1      2114 1.99908E+01 8.18251E-02 3.43106E-04-1.14254E-02-3.92591E-13-5.87687E-13
 -1      2115 1.99976E+01 5.62616E-02 1.60154E-05-1.92847E-02-1.74004E-13-2.03021E-13
 -1      2116 1.99961E+01 6.20947E-02-2.94789E-04-1.76061E-02-2.80857E-13-3.98155E-13
 -1      2117 1.99936E+01 7.33316E-02 2.75043E-04-2.06474E-02-3.12500E-13-3.43500E-13
 -1      2118 2.00008E+01 4.22802E-02 1.46915E-04-2.05429E-02-8.53171E-14 5.50150E-13
 -1      2119 1.99991E+01 4.89886E-02-2.22233E-04-2.05981E-02-1.41092E-13 2.68464E-13
 -1      2120 1.99977E+01 6.06420E-02 1.60381E-04-2.60031E-02 2.28854E-14-5.75883E-14
 -1      2121 2.00039E+01 2.80262E-02 2.28046E-04-1.76684E-02-8.06387E-14 3.05617E-13
 -1      2122 2.00023E+01 3.43285E-02-1.25711E-04-1.95073E-02-5.49442E-14 2.47341E-13
 -1      2123 2.00024E+01 4.54701E-02 3.00702E-05-2.64517E-02 2.44248E-14 4.22299E-13
 -1      2124 2.00056E+01 1.49536E-02 1.64611E-06-1.12369E-02-1.65571E-13-6.07093E-14
 -1      2125 2.00051E+01 2.04280E-02 3.96149E-07-1.45386E-02-9.31652E-14 1.36913E-13
 -1      2126 2.00067E+01 3.01385E-02-2.83702E-05-2.19164E-02-7.52207E-14 1.64891E-13
 -1      2127 9.90695E+00-5.31901E+00-1.47980E-01 6.19396E+00 4.24438E-13 6.17076E-13
 -1      2128 6.53034E+00-6.57575E+00-3.51388E-01 5.09452E+00 2.43972E-13 5.55833E-13
 -1      2129 2.77579E-01-7.29271E+00-4.28803E-01 7.48702E-01 1.56763E-13 6.03795E-13
 -1      2130 3.32690E-01-6.71373E+00-3.37933E-01-7.98795E-01 1.67644E-14 7.88924E-13
 -1      2131 3.11193E+00-6.28494E+00-2.82113E-01 3.87232E+00 3.16636E-13 4.14946E-13
 -1      2132 1.29399E+00-7.33258E+00-4.42849E-01 2.30743E+00 9.87266E-14 4.48142E-13
 -1      2133 1.80662E+01-3.84856E+00-4.02174E-02 6.82622E+00 5.00433E-13 7.94781E-13
 -1      2134 1.32229E+01-5.51171E+00-3.27740E-01 6.02567E+00 3.89466E-13 7.14567E-13
 -1      2135 1.41572E+01-5.63539E+00-3.82637E-02 6.75499E+00-3.55271E-15 4.81684E-13
 -1      2136 2.76551E+01-7.82012E-01 1.58986E-01 5.70024E+00 7.13096E-13 7.08322E-13
 -1      2137 2.27403E+01-2.88455E+00-1.59470E-01 5.42082E+00 6.26998E-13 6.38822E-13
 -1      2138 1.95430E+01 4.03220E+00-2.50843E-02-1.66151E+00-2.92921E-13-8.51800E-13
 -1      2139 1.96659E+01 3.95482E+00-2.43444E-02-1.91704E+00-3.82405E-13-7.91651E-13
 -1      2140 1.99805E+01 3.24978E+00-1.85806E-02-1.88299E+00-4.30330E-13-7.03090E-13
 -1      2141 1.97127E+01 3.61371E+00-6.40598E-03-1.47830E+00-2.87723E-13-8.24018E-13
 -1      2142 3.81036E+01 5.62616E+00 1.92140E-01 1.03646E+00 1.24994E-12-3.60822E-14
 -1      2143 3.63715E+01 4.45645E+00 2.36160E-01 2.23636E+00 1.11700E-12 1.66422E-13
 -1      2144 4.10045E+01 7.26701E+00 4.91694E-01-8.43905E-02 1.22430E-12-3.37910E-13
 -1      2145 3.86670E+01 7.14803E+00 2.06266E-01 6.76583E-01 1.27698E-12-2.88103E-14
 -1      2146 3.84984E+01 6.36435E+00 2.02281E-01-1.26019E+00 1.11755E-12-6.55642E-13
 -1      2147 4.07346E+01 6.82022E+00 3.96379E-01-4.93407E-01 1.19105E-12-4.39523E-13
 -1      2148 3.60534E+01 7.99345E+00 3.06886E-01 1.07191E-01 1.32561E-12-6.11802E-14
 -1      2149 3.47359E+01 3.24075E+00 1.55026E-01-3.10326E+00 9.91908E-13-1.12188E-12
 -1      2150 3.74807E+01 4.51917E+00 2.37822E-01-1.98138E+00 9.56901E-13-8.32612E-13
 -1      2151 2.78455E+01 3.81040E-02-5.31803E-02-5.11923E+00 1.09601E-12-1.19882E-12
 -1      2152 3.27487E+01 1.68322E+00 2.42407E-01-4.88970E+00 1.01436E-12-1.26266E-12
 -1      2153 1.88983E+01-3.46304E+00-2.57392E-01-6.01555E+00 8.70193E-13-1.19788E-12
 -1      2154 2.42363E+01-1.35553E+00 1.07791E-01-6.57816E+00 1.03340E-12-1.24761E-12
 -1      2155 1.05730E+01-6.00450E+00-3.40886E-01-5.82656E+00 5.03153E-13-9.91762E-13
 -1      2156 1.48847E+01-4.16199E+00-9.40472E-02-6.75520E+00 8.15126E-13-1.16224E-12
 -1      2157 3.53706E+00-7.11377E+00-4.22024E-01-3.86455E+00 4.23550E-14-1.19577E-12
 -1      2158 6.59602E+00-5.71456E+00-1.83970E-01-5.49717E+00 3.23575E-13-1.10192E-12
 -1      2159 2.30146E-01-7.57195E+00-4.65565E-01-8.93541E-01-2.80470E-13-1.50224E-12
 -1      2160 1.19582E+00-7.06684E+00-3.86512E-01-2.36537E+00 1.18183E-13-1.35725E-12
 -1      2161 1.18097E+00-6.84133E+00-3.60191E-01 2.48287E+00-6.22224E-13-1.31212E-12
 -1      2162 2.06997E-01-7.55642E+00-4.72518E-01 8.90637E-01-2.42910E-13-1.50491E-12
 -1      2163 6.25748E+00-5.98011E+00-2.82507E-01 5.34637E+00-1.02396E-12-1.01316E-12
 -1      2164 3.42801E+00-7.21187E+00-4.47667E-01 4.02255E+00-6.65801E-13-1.04172E-12
 -1      2165 1.40873E+01-4.03850E+00-9.95578E-02 6.81230E+00-1.24656E-12-1.05776E-12
 -1      2166 9.85185E+00-5.97787E+00-4.10577E-01 5.72136E+00-1.10023E-12-1.04428E-12
 -1      2167 2.27957E+01-1.75868E+00 8.37903E-02 6.68619E+00-1.25999E-12-1.10784E-12
 -1      2168 1.81695E+01-3.63447E+00-2.55383E-01 6.17901E+00-1.25805E-12-1.01896E-12
 -1      2169 3.04895E+01 1.04764E+00 2.36638E-01 5.39635E+00-1.29852E-12-8.34444E-13
 -1      2170 2.59731E+01-6.43609E-01-9.32933E-02 5.45026E+00-1.29408E-12-1.07503E-12
 -1      2171 3.64330E+01 3.92465E+00 3.27810E-01 3.47106E+00-1.20882E-12-5.87030E-13
 -1      2172 3.26972E+01 2.63246E+00 7.57412E-02 4.10921E+00-1.30761E-12-7.99583E-13
 -1      2173 3.95010E+01 6.16228E+00 3.34768E-01 1.33069E+00-1.12749E-12-3.70981E-13
 -1      2174 3.73726E+01 5.42214E+00 2.12874E-01 2.31197E+00-1.21675E-12-5.59275E-13
 -1      2175 3.96679E+01 7.30150E+00 2.69616E-01-2.41824E-01-9.49241E-13-2.26305E-13
 -1      2176 4.00981E+01 6.96670E+00 3.53121E-01 9.12128E-01-1.06926E-12-4.18832E-13
 -1      2177 3.57457E+01 7.38143E+00 3.20530E-01-1.40432E-01-1.14142E-12-2.85938E-13
 -1      2178 3.86482E+01 6.06547E+00 3.09203E-01-1.85708E+00-8.67917E-13 9.28702E-14
 -1      2179 3.94222E+01 6.82501E+00 2.87341E-01-6.38723E-01-9.28146E-13-1.80911E-13
 -1      2180 3.45619E+01 3.70135E+00 1.32640E-01-3.45754E+00-7.99860E-13 3.37730E-13
 -1      2181 3.80557E+01 4.83878E+00 3.76930E-01-2.86959E+00-7.81653E-13 2.03948E-13
 -1      2182 2.82121E+01 2.84887E-01-3.02702E-02-5.05136E+00-5.35821E-13 5.56666E-13
 -1      2183 3.24534E+01 1.81459E+00 2.45957E-01-4.61704E+00-6.17797E-13 4.25548E-13
 -1      2184 2.10247E+01-2.83077E+00-1.90075E-01-5.95215E+00-3.52718E-13 4.48586E-13
 -1      2185 2.55445E+01-9.09008E-01 1.46248E-01-6.29240E+00-4.50029E-13 6.38434E-13
 -1      2186 1.31705E+01-5.25953E+00-3.11650E-01-6.18450E+00-1.29785E-13 6.15258E-13
 -1      2187 1.73909E+01-3.55088E+00-1.74057E-02-6.91446E+00-3.58602E-13 3.86191E-13
 -1      2188 6.05521E+00-6.67929E+00-3.98469E-01-5.05028E+00 1.55431E-13 9.73222E-13
 -1      2189 9.34833E+00-5.25398E+00-1.74678E-01-6.21526E+00-4.55191E-14 9.30159E-13
 -1      2190 1.59107E+00-6.87158E+00-3.73344E-01-2.77559E+00 1.64202E-13 8.31946E-13
 -1      2191 3.43919E+00-6.33957E+00-2.87997E-01-4.17863E+00-3.27516E-14 9.68114E-13
 -1      2192 3.42128E+01 2.15004E+00 1.94737E-01 3.50716E+00 9.12673E-13 2.30982E-13
 -1      2193 3.01057E+01 6.17134E-01-5.90300E-03 4.31766E+00 8.36581E-13 6.13731E-13
 -1      2194 2.96024E+01-1.68067E+00 1.47461E-01 2.79275E+00 4.82350E-13 2.86549E-13
 -1      2195 2.25175E+01-4.73073E+00 2.77327E-02 5.53005E+00 2.02116E-13 3.99236E-13
 -1      2196 2.07257E+01 1.10865E+00-2.04630E-02-1.58645E+00-5.45300E-13 3.52045E-14
 -1      2197 3.38220E+01 2.61301E+00 2.32205E-01 7.11898E-01 9.72888E-13-1.17684E-14
 -1      2198 2.06304E+01 1.33479E+00-1.81518E-02-1.63905E+00-5.67253E-13-2.05058E-13
 -1      2199 6.81817E+00-5.20455E+00-1.14759E-01 5.50312E+00-2.37588E-14 4.53249E-13
 -1      2200 2.08851E+00-4.77182E+00-1.91268E-01 2.06810E+00-7.71883E-14 5.49172E-13
 -1      2201 2.00067E+01 1.30380E-02 8.32161E-05-9.84093E-03-7.01676E-14-1.30070E-13
 -1      2202 2.19428E+00-4.79633E+00-1.69298E-01-2.19170E+00-9.71445E-15 8.17013E-13
 -1      2203 6.51847E+00-5.33438E+00-1.47153E-01-5.57186E+00 3.12084E-13 8.40050E-13
 -1      2204 1.35351E+01-5.54118E+00-7.60506E-02-6.85332E+00 3.80806E-13 6.42460E-13
 -1      2205 2.14659E+01-4.53311E+00 1.28629E-02-5.96958E+00 9.82547E-14 2.35256E-13
 -1      2206 2.80545E+01-1.93754E+00 1.20563E-01-3.88512E+00-1.21708E-13 1.66367E-13
 -1      2207 3.28844E+01 1.89163E+00 2.18916E-01-1.80621E+00-4.72247E-13-6.69464E-14
 -1      2208 3.60734E+01 7.75944E+00 2.78356E-01 8.22312E-02-1.03034E-12-2.95652E-13
 -1      2209 3.46884E+01 4.56143E+00 2.86838E-01 5.88092E-01-1.15702E-12-2.54796E-13
 -1      2210 3.15977E+01 6.51302E-01 2.11159E-01 2.41986E+00-1.05180E-12-3.15692E-13
 -1      2211 2.61011E+01-2.88754E+00 1.00190E-01 4.70453E+00-8.17318E-13-5.04208E-13
 -1      2212 1.85413E+01-5.00838E+00-1.72197E-02 6.54301E+00-6.93001E-13-6.88449E-13
 -1      2213 1.02445E+01-5.71078E+00-1.48810E-01 6.52665E+00-3.59546E-13-8.56953E-13
 -1      2214 3.74175E+00-5.33581E+00-2.02650E-01 4.06610E+00-2.02366E-13-1.19105E-12
 -1      2215 1.36821E+00-4.98593E+00-2.24340E-01-3.07505E-02-1.25139E-13-1.61593E-12
 -1      2216 3.94533E+00-5.02358E+00-1.52407E-01-4.05388E+00-1.68532E-13-1.31128E-12
 -1      2217 1.06577E+01-5.67609E+00-1.33000E-01-6.41641E+00-2.55351E-15-1.00517E-12
 -1      2218 1.94330E+01-5.02845E+00-4.06483E-02-6.27005E+00 3.18690E-13-9.16406E-13
 -1      2219 2.75504E+01-2.32836E+00 1.38468E-01-4.25862E+00 6.53144E-13-8.44269E-13
 -1      2220 3.53762E+01 5.55203E+00 2.62716E-01 1.94080E-01 1.00941E-12-2.53186E-13
 -1      2221 3.66443E+01 6.51887E+00 2.17643E-01 1.04890E-01 1.25783E-12-8.40716E-14
 -1      2222 3.34263E+01 5.70396E+00 4.23890E-02-7.71571E-01 1.21858E-12-8.23785E-14
 -1      2223 3.34624E+01 7.06873E+00-9.90888E-02-7.34958E-01 1.24883E-12-2.92127E-14
 -1      2224 3.29664E+01 1.53665E+00 2.60502E-01-1.53634E+00 7.16135E-13-5.64049E-13
 -1      2225 3.53705E+01 5.72070E+00 3.10638E-01-3.01827E-01-8.16791E-13-2.65787E-13
 -1      2226 2.01733E+01 5.18128E-01 4.39939E-03 6.31046E-01 4.63039E-13 4.95484E-13
 -1      2227 2.04284E+01 7.08267E-01 2.08573E-02 9.27594E-01 5.11854E-13 5.76545E-13
 -1      2228 1.95600E+01 3.57410E+00-1.12755E-02-5.63383E-01-1.65292E-15-7.99908E-13
 -1      2229 1.95993E+01 3.52448E+00-1.02722E-02-7.41762E-01-7.28924E-14-8.34726E-13
 -1      2230 1.96500E+01 3.42880E+00-1.30303E-02-9.00124E-01-1.20291E-13-8.34291E-13
 -1      2231 1.97149E+01 3.34337E+00-1.24943E-02-1.08590E+00-2.00583E-13-8.25050E-13
 -1      2232 1.97883E+01 3.09625E+00 6.78234E-04-7.49715E-01-9.91006E-14-7.76249E-13
 -1      2233 1.95066E+01 3.66499E+00-9.57734E-03 9.52876E-02 2.41649E-13-7.44127E-13
 -1      2234 1.95059E+01 3.66581E+00-9.58343E-03-7.64309E-02 1.71882E-13-7.69992E-13
 -1      2235 1.95363E+01 3.62201E+00-9.57838E-03 4.24942E-01 3.43000E-13-7.03521E-13
 -1      2236 1.95165E+01 3.64651E+00-1.02060E-02 2.51421E-01 2.80731E-13-7.35861E-13
 -1      2237 1.96670E+01 3.30169E+00-3.90009E-04 1.59713E-01 2.49966E-13-6.97924E-13
 -1      2238 1.96049E+01 3.51732E+00-1.03828E-02 7.55165E-01 4.45186E-13-6.10114E-13
 -1      2239 1.95648E+01 3.56784E+00-1.13780E-02 5.79658E-01 3.86572E-13-6.61700E-13
 -1      2240 1.97089E+01 3.23220E+00-3.97721E-05 4.60280E-01 3.50650E-13-6.36315E-13
 -1      2241 1.97237E+01 3.33166E+00-1.26517E-02 1.09853E+00 5.55323E-13-4.71999E-13
 -1      2242 1.96569E+01 3.41976E+00-1.31254E-02 9.13374E-01 4.90461E-13-5.51664E-13
 -1      2243 1.97946E+01 3.08738E+00 6.21303E-04 7.61404E-01 4.50326E-13-5.25089E-13
 -1      2244 1.99088E+01 3.03215E+00-1.78306E-02 1.44093E+00 6.44420E-13-2.96232E-13
 -1      2245 1.98066E+01 3.17873E+00-1.54580E-02 1.25223E+00 5.83006E-13-3.97323E-13
 -1      2246 1.99334E+01 2.84725E+00 2.15841E-03 1.05809E+00 5.43227E-13-3.97047E-13
 -1      2247 2.01868E+01 2.55889E+00-2.81093E-02 1.74621E+00 7.01536E-13-4.31079E-14
 -1      2248 2.00366E+01 2.80340E+00-1.73005E-02 1.57118E+00 6.58622E-13-1.90504E-13
 -1      2249 2.01348E+01 2.48034E+00 5.95844E-03 1.32091E+00 6.14065E-13-2.05127E-13
 -1      2250 1.99237E+01 2.87366E-01 5.64514E-03 2.22305E-01 3.53858E-13 3.81209E-13
 -1      2251 2.00672E+01 3.83140E-01 2.02888E-02 3.87556E-01 4.02869E-13 4.53914E-13
 -1      2252 2.02435E+01 6.53479E-01-2.72129E-03 6.42891E-01 4.87623E-13 2.65088E-13
 -1      2253 2.04230E+01 8.70104E-01 1.36781E-02-9.47698E-01-4.52147E-13-2.92107E-13
 -1      2254 2.02225E+01 6.46055E-01-3.89992E-03-6.33164E-01-3.94817E-13-2.90393E-13
 -1      2255 3.23386E+01 2.90489E+00-1.30424E-01-8.26175E-01 9.40470E-13-3.86857E-13
 -1      2256 3.11584E+01 6.58746E-01-5.90126E-02-1.46520E-01 7.22492E-13-2.98039E-13
 -1      2257 2.01657E+01 4.93617E-01 1.61794E-02-4.06192E-01-3.53224E-13-2.54610E-13
 -1      2258 2.00415E+01 3.73833E-01 1.05264E-03-2.24306E-01-2.89789E-13-2.74687E-13
 -1      2259 2.02809E+01 7.78035E-01-1.18781E-03-6.20464E-01-3.82625E-13-3.62162E-13
 -1      2260 1.99895E+01 2.94125E-01 1.08766E-02-7.26947E-02-2.47716E-13-2.64412E-13
 -1      2261 1.99329E+01 2.29111E-01 1.94893E-03 3.91837E-02-1.91795E-13-3.02352E-13
 -1      2262 2.01377E+01 4.58908E-01-4.10644E-03-2.10924E-01-2.84074E-13-3.43512E-13
 -1      2263 1.99038E+01 1.85751E-01 6.43235E-03 1.40564E-01-1.66450E-13-2.96799E-13
 -1      2264 1.98979E+01 1.50912E-01 2.25411E-03 2.13427E-01-1.37271E-13-3.27782E-13
 -1      2265 2.00449E+01 2.86115E-01-4.17311E-03 6.39185E-02-2.00855E-13-3.30173E-13
 -1      2266 1.98919E+01 1.28030E-01 3.63513E-03 2.84277E-01-1.06316E-13-3.61297E-13
 -1      2267 1.99226E+01 1.11042E-01 2.49730E-03 3.35979E-01-1.23417E-13-3.64920E-13
 -1      2268 2.00060E+01 1.92321E-01-3.58924E-03 2.51854E-01-1.69470E-13-3.61312E-13
 -1      2269 1.99365E+01 1.00592E-01 1.93784E-03 3.89957E-01-1.58837E-13-3.47780E-13
 -1      2270 1.99946E+01 9.47065E-02 2.74012E-03 4.31391E-01-1.49659E-13-3.78324E-13
 -1      2271 2.00139E+01 1.45231E-01-2.90699E-03 3.88367E-01-1.51043E-13-3.70261E-13
 -1      2272 2.00251E+01 9.20017E-02 9.10823E-04 4.77667E-01-1.17973E-13-3.77429E-13
 -1      2273 2.01051E+01 9.29029E-02 2.96855E-03 5.15593E-01-1.16700E-13-3.59378E-13
 -1      2274 2.00601E+01 1.26972E-01-2.34883E-03 4.97724E-01-1.33092E-13-3.62658E-13
 -1      2275 2.01500E+01 9.45929E-02 3.17062E-04 5.60063E-01-1.35285E-13-3.09744E-13
 -1      2276 2.02490E+01 9.88228E-02 3.13288E-03 5.98330E-01-1.15875E-13-3.13585E-13
 -1      2277 2.01385E+01 1.26144E-01-1.96602E-03 5.96056E-01-9.70421E-14-3.19594E-13
 -1      2278 2.03074E+01 1.01840E-01 3.59484E-05 6.44173E-01-1.06458E-13-2.80540E-13
 -1      2279 2.04238E+01 1.05872E-01 3.14087E-03 6.84079E-01-8.61909E-14-2.64087E-13
 -1      2280 2.02452E+01 1.33689E-01-1.75099E-03 6.93171E-01-1.12533E-13-2.29948E-13
 -1      2281 2.04961E+01 1.06742E-01 1.90126E-05 7.31789E-01-8.17874E-14-2.78277E-13
 -1      2282 2.06290E+01 1.06297E-01 2.84986E-03 7.71876E-01-6.35023E-14-2.71070E-13
 -1      2283 2.03790E+01 1.40476E-01-1.69702E-03 7.93203E-01-9.22286E-14-1.64082E-13
 -1      2284 2.07169E+01 1.00591E-01 2.72703E-04 8.18871E-01-5.01963E-14-2.72146E-13
 -1      2285 2.08652E+01 9.00849E-02 2.06326E-03 8.54337E-01 7.57500E-15-2.38751E-13
 -1      2286 2.05411E+01 1.35573E-01-1.82535E-03 8.94321E-01-5.04538E-14-1.55188E-13
 -1      2287 2.09722E+01 7.20327E-02 8.48981E-04 8.94193E-01 1.96983E-14-2.59618E-13
 -1      2288 2.11332E+01 4.43210E-02 5.38361E-04 9.16054E-01 4.94177E-15-2.36848E-13
 -1      2289 2.07356E+01 1.04931E-01-2.19559E-03 9.87639E-01 9.67238E-15-2.70758E-13
 -1      2290 2.12648E+01 6.88052E-03 1.82076E-03 9.37469E-01-3.97208E-14-2.06689E-13
 -1      2291 2.14338E+01-4.61979E-02-1.97851E-03 9.31830E-01-3.35273E-14-2.21266E-13
 -1      2292 2.09695E+01 3.08824E-02-2.89389E-03 1.05549E+00-5.57944E-16-2.37860E-13
 -1      2293 2.15975E+01-1.10131E-01 3.20657E-03 9.17643E-01-9.85030E-15-1.43952E-13
 -1      2294 2.17664E+01-1.95373E-01-5.65227E-03 8.65845E-01 4.08321E-14-1.37892E-13
 -1      2295 2.12534E+01-1.06248E-01-3.97571E-03 1.06943E+00 3.06766E-14-1.43845E-13
 -1      2296 2.19694E+01-2.89404E-01 4.81975E-03 7.92951E-01-2.05300E-14-1.50635E-13
 -1      2297 2.21253E+01-4.06419E-01-1.02824E-02 6.74082E-01-7.31860E-14-1.45703E-13
 -1      2298 2.16004E+01-3.21915E-01-5.30540E-03 9.89039E-01-4.52111E-14-1.49689E-13
 -1      2299 2.23693E+01-5.23208E-01 6.03115E-03 5.16302E-01-3.29569E-14-1.74342E-13
 -1      2300 2.24930E+01-6.53925E-01-1.48393E-02 3.14554E-01-3.48007E-14-1.35261E-13
 -1      2301 2.20203E+01-6.12549E-01-6.18006E-03 7.63881E-01-5.09249E-14-1.01969E-13
 -1      2302 2.27622E+01-7.63996E-01 5.29153E-03 5.28038E-02-3.62995E-14-9.13901E-14
 -1      2303 2.28278E+01-8.60163E-01-1.70207E-02-2.27784E-01 3.74093E-14-8.01015E-14
 -1      2304 2.25052E+01-9.29397E-01-5.09090E-03 3.44823E-01 3.46847E-15-8.30354E-14
 -1      2305 2.30743E+01-9.02779E-01 4.50344E-04-5.83523E-01 9.68752E-14-8.75365E-14
 -1      2306 2.30555E+01-8.82331E-01-1.29406E-02-8.97987E-01 1.09541E-13-1.05884E-13
 -1      2307 2.30048E+01-1.15016E+00-4.82450E-04-2.85355E-01 5.67836E-14 7.76288E-14
 -1      2308 2.31931E+01-7.73261E-01-9.80949E-03-1.27322E+00 8.80346E-14-7.80977E-14
 -1      2309 2.30789E+01-5.52407E-01-2.74370E-04-1.51751E+00 7.17891E-14-1.23516E-13
 -1      2310 2.34034E+01-1.07215E+00 7.88060E-03-1.05496E+00 9.38517E-14 8.31372E-14
 -1      2311 2.30249E+01-2.39534E-01-2.27324E-02-1.74897E+00 7.00130E-14-9.38338E-14
 -1      2312 2.28450E+01 1.80611E-01 1.60105E-02-1.77837E+00 5.41581E-14-1.15848E-13
 -1      2313 2.35384E+01-5.01773E-01 1.35331E-02-1.72727E+00 5.09384E-14 8.85080E-14
 -1      2314 2.26165E+01 6.24475E-01-2.81600E-02-1.67022E+00-6.13559E-14-2.23942E-13
 -1      2315 2.24461E+01 1.07151E+00 2.14865E-02-1.38518E+00-2.20404E-13-1.40935E-13
 -1      2316 2.33285E+01 5.31313E-01 5.38879E-03-1.91423E+00-8.45088E-14-4.26742E-16
 -1      2317 2.22261E+01 1.41386E+00-1.57337E-02-8.78208E-01-2.58921E-13-2.16270E-13
 -1      2318 2.21547E+01 1.61063E+00 7.43204E-03-3.45936E-01-2.16202E-13-3.43471E-13
 -1      2319 2.29385E+01 1.60733E+00-1.32865E-02-1.29004E+00-2.33289E-13-2.08002E-13
 -1      2320 2.21562E+01 1.61427E+00 8.53586E-03 3.44925E-01-2.46423E-13-5.10184E-13
 -1      2321 2.22250E+01 1.42082E+00-1.50572E-02 8.79002E-01-1.75812E-13-5.52378E-13
 -1      2322 2.27383E+01 2.07842E+00-2.34148E-02 1.51023E-03-3.66814E-13-3.96973E-13
 -1      2323 2.24493E+01 1.07989E+00 2.31734E-02 1.39181E+00-1.05259E-13-6.30425E-13
 -1      2324 2.26222E+01 6.31971E-01-2.67953E-02 1.67877E+00-1.43934E-13-5.65773E-13
 -1      2325 2.29385E+01 1.62018E+00-1.11117E-02 1.29601E+00-2.36680E-13-5.78543E-13
 -1      2326 2.28512E+01 1.89455E-01 1.64448E-02 1.78933E+00-1.23414E-13-5.94044E-13
 -1      2327 2.30342E+01-2.30042E-01-2.24986E-02 1.76374E+00-1.46800E-14-5.82512E-13
 -1      2328 2.33342E+01 5.41881E-01 6.31375E-03 1.92493E+00-1.52260E-13-6.44206E-13
 -1      2329 2.30927E+01-5.43499E-01 2.95851E-05 1.53603E+00 2.38416E-14-6.00874E-13
 -1      2330 2.32106E+01-7.64689E-01-9.70615E-03 1.29483E+00 1.01555E-13-6.87056E-13
 -1      2331 2.35495E+01-4.88513E-01 1.41148E-02 1.74789E+00-1.73554E-14-5.59376E-13
 -1      2332 2.30763E+01-8.73452E-01-1.29464E-02 9.23029E-01 2.11698E-13-5.48220E-13
 -1      2333 2.31003E+01-8.93672E-01 5.14589E-04 6.11995E-01 2.25122E-13-5.56096E-13
 -1      2334 2.34209E+01-1.06038E+00 7.86234E-03 1.08171E+00 1.81462E-13-4.77702E-13
 -1      2335 2.28576E+01-8.50770E-01-1.70269E-02 2.60036E-01 1.56115E-13-5.64910E-13
 -1      2336 2.27987E+01-7.53790E-01 5.56253E-03-1.68871E-02 8.01078E-14-4.77368E-13
 -1      2337 2.30294E+01-1.13717E+00-3.84842E-04 3.20026E-01 1.91989E-13-3.97064E-13
 -1      2338 2.25332E+01-6.42580E-01-1.48789E-02-2.74226E-01 7.96316E-14-3.33774E-13
 -1      2339 2.24176E+01-5.10330E-01 6.39106E-03-4.71339E-01 1.73650E-13-2.54593E-13
 -1      2340 2.25372E+01-9.15214E-01-5.25289E-03-3.01911E-01 1.95796E-13-3.11100E-13
 -1      2341 2.21784E+01-3.92104E-01-1.02819E-02-6.23398E-01 1.42337E-13-2.67998E-13
 -1      2342 2.20324E+01-2.73227E-01 5.29751E-03-7.36532E-01 1.53790E-13-1.77484E-13
 -1      2343 2.20612E+01-5.94339E-01-6.21978E-03-7.10098E-01 1.82012E-13-2.17489E-13
 -1      2344 2.18351E+01-1.77490E-01-5.67043E-03-8.02388E-01 1.27553E-13-1.41661E-13
 -1      2345 2.16784E+01-9.01894E-02 3.72827E-03-8.47150E-01 1.25367E-13-9.05951E-14
 -1      2346 2.16521E+01-2.99364E-01-5.38515E-03-9.21859E-01 1.21334E-13-9.45042E-14
 -1      2347 2.15215E+01-2.45518E-02-2.01634E-03-8.52872E-01-9.89728E-15-1.44712E-13
 -1      2348 2.13673E+01 3.05051E-02 2.37699E-03-8.50211E-01-3.14433E-14-1.26272E-13
 -1      2349 2.13181E+01-7.87821E-02-4.07399E-03-9.85935E-01 9.41822E-15 1.80276E-15
 -1      2350 2.12435E+01 6.94451E-02 4.80348E-04-8.19119E-01-1.33852E-13-1.59787E-13
 -1      2351 2.11000E+01 9.88397E-02 1.42612E-03-7.87891E-01-8.43202E-14-1.57182E-13
 -1      2352 2.10496E+01 6.29763E-02-2.96904E-03-9.53013E-01-1.43579E-13-3.54110E-14
 -1      2353 2.10017E+01 1.17958E-01 1.97734E-03-7.37517E-01 1.89596E-14-9.89860E-14
 -1      2354 2.08735E+01 1.29552E-01 8.30200E-04-6.92015E-01 4.34124E-14-6.27928E-14
 -1      2355 2.08331E+01 1.40784E-01-2.20923E-03-8.64175E-01 2.35860E-14 6.19059E-15
 -1      2356 2.07948E+01 1.35550E-01 2.72228E-03-6.34307E-01 4.41725E-14-3.71274E-14
 -1      2357 2.06840E+01 1.36035E-01 4.84646E-04-5.84213E-01 8.53788E-15-7.01809E-14
 -1      2358 2.06576E+01 1.73528E-01-1.73267E-03-7.48976E-01 7.41133E-14-7.93597E-15
 -1      2359 2.06207E+01 1.34180E-01 2.95344E-03-5.26674E-01-6.55468E-14-1.40980E-13
 -1      2360 2.05274E+01 1.28466E-01 2.96553E-04-4.77930E-01-2.18977E-14-2.77081E-13
 -1      2361 2.05145E+01 1.77686E-01-1.43502E-03-6.26978E-01-5.58829E-14 2.84642E-14
 -1      2362 2.04766E+01 1.22454E-01 2.86395E-03-4.24832E-01 8.05606E-14-4.92280E-13
 -1      2363 2.04000E+01 1.13833E-01 1.99297E-04-3.80676E-01 3.28920E-15-5.22986E-13
 -1      2364 2.03981E+01 1.65550E-01-1.23263E-03-5.10092E-01-1.22058E-13-1.78516E-13
 -1      2365 2.03593E+01 1.06063E-01 2.59544E-03-3.34098E-01-1.85878E-14-4.22670E-13
 -1      2366 2.02979E+01 9.65878E-02 1.51013E-04-2.95961E-01-4.86150E-14-2.34942E-13
 -1      2367 2.03039E+01 1.45473E-01-1.07458E-03-4.04790E-01 8.22347E-14-4.24884E-13
 -1      2368 2.02657E+01 8.85184E-02 2.24468E-03-2.56574E-01-1.13409E-13-1.73751E-13
 -1      2369 2.02174E+01 7.93795E-02 1.27522E-04-2.24759E-01-1.02511E-13-4.90404E-14
 -1      2370 2.02285E+01 1.22741E-01-9.35071E-04-3.13891E-01 1.69847E-14-2.11257E-13
 -1      2371 2.01922E+01 7.18295E-02 1.87323E-03-1.92381E-01-1.58698E-13 1.97701E-14
 -1      2372 2.01551E+01 6.36523E-02 1.15752E-04-1.66540E-01-2.40359E-14 1.49991E-14
 -1      2373 2.01687E+01 1.00470E-01-8.03771E-04-2.37907E-01-1.27271E-13-2.51802E-14
 -1      2374 2.01355E+01 5.70323E-02 1.51750E-03-1.40527E-01 2.29080E-13 2.50492E-15
 -1      2375 2.01076E+01 5.00891E-02 1.09403E-04-1.19976E-01 3.57434E-13 1.91536E-13
 -1      2376 2.01220E+01 8.03332E-02-6.77800E-04-1.75993E-01 7.43212E-15 1.10089E-13
 -1      2377 2.00927E+01 4.45580E-02 1.19654E-03-9.94634E-02 1.73255E-13 1.01031E-13
 -1      2378 2.00722E+01 3.88976E-02 1.02216E-04-8.33850E-02 1.79090E-13-3.13249E-14
 -1      2379 2.00861E+01 6.30957E-02-5.55745E-04-1.26596E-01 2.03203E-13 1.14479E-13
 -1      2380 2.00610E+01 3.44342E-02 9.16147E-04-6.74620E-02 2.23637E-13-9.63728E-14
 -1      2381 2.00463E+01 2.99744E-02 1.01819E-04-5.50683E-02 8.63477E-14 2.62165E-14
 -1      2382 2.00588E+01 4.89167E-02-4.42516E-04-8.78689E-02 1.09033E-13 1.05055E-13
 -1      2383 2.00378E+01 2.63257E-02 6.46300E-04-4.28560E-02 5.30663E-16 2.05477E-13
 -1      2384 2.00278E+01 2.30089E-02 1.79511E-04-3.35223E-02 1.56424E-13 2.10123E-13
 -1      2385 2.00383E+01 3.76427E-02-3.23695E-04-5.79979E-02 1.69005E-13-1.35091E-13
 -1      2386 1.97637E+01 1.10589E-01 3.64744E-03-1.86351E-01 1.93076E-13 1.88748E-13
 -1      2387 1.97599E+01 1.36677E-01 7.21380E-03-1.23910E-01 2.46748E-13 2.50889E-13
 -1      2388 1.98069E+01 8.10494E-02 3.36302E-03-2.96308E-01 1.14667E-13 9.28752E-14
 -1      2389 1.97621E+01 9.32042E-02 4.09213E-03-2.52174E-01 1.41985E-13 1.36586E-13
 -1      2390 1.99038E+01 1.47029E-01-3.96780E-03-2.29598E-01 2.14472E-13 2.24535E-14
 -1      2391 1.99067E+01 7.05525E-02 3.41151E-03-3.82091E-01 9.25595E-14 1.06962E-13
 -1      2392 1.98314E+01 7.38289E-02 2.33529E-03-3.45930E-01 9.30615E-14 9.52867E-14
 -1      2393 1.99277E+01 1.10903E-01-3.23977E-03-3.58041E-01 1.25644E-13-1.11882E-14
 -1      2394 2.00523E+01 7.26350E-02 3.65795E-03-4.60200E-01 9.55172E-14 1.11175E-13
 -1      2395 1.99522E+01 6.99604E-02 1.34577E-03-4.25349E-01 9.71117E-14 1.12273E-13
 -1      2396 1.99994E+01 9.96785E-02-2.64612E-03-4.61587E-01 9.26157E-14-4.38539E-14
 -1      2397 2.02389E+01 8.29835E-02 4.01145E-03-5.41622E-01 6.86027E-14 1.26311E-13
 -1      2398 2.01157E+01 7.64472E-02 7.99737E-04-5.03713E-01 8.42707E-14 1.21764E-13
 -1      2399 2.01103E+01 1.04802E-01-2.25167E-03-5.57857E-01 9.21083E-14-1.08607E-14
 -1      2400 2.04650E+01 9.77394E-02 4.36495E-03-6.33124E-01 1.29685E-13 1.01089E-13
 -1      2401 2.03187E+01 8.93637E-02 5.25823E-04-5.89655E-01 1.06344E-13 1.32636E-13
 -1      2402 2.02556E+01 1.20262E-01-2.03159E-03-6.58594E-01 1.09425E-13 7.35618E-16
 -1      2403 2.07317E+01 1.12237E-01 4.55572E-03-7.37247E-01 1.19042E-13 8.11490E-14
 -1      2404 2.05612E+01 1.04619E-01 4.26330E-04-6.87761E-01 1.38527E-13 9.51047E-14
 -1      2405 2.04338E+01 1.40328E-01-1.95142E-03-7.70718E-01 1.51089E-13 3.70253E-14
 -1      2406 2.10407E+01 1.19686E-01 4.33456E-03-8.51176E-01 1.13417E-13 5.72852E-14
 -1      2407 2.08453E+01 1.16714E-01 4.50767E-04-7.98002E-01 1.27149E-13 7.84482E-14
 -1      2408 2.06455E+01 1.57763E-01-2.00304E-03-8.96126E-01 1.21234E-13-1.81361E-14
 -1      2409 2.13936E+01 1.09661E-01 3.34332E-03-9.64435E-01-2.26817E-14 1.14135E-13
 -1      2410 2.11740E+01 1.17322E-01 5.95479E-04-9.14028E-01 5.01736E-14 9.93714E-14
 -1      2411 2.08933E+01 1.61923E-01-2.22839E-03-1.03034E+00 4.42471E-14 4.49619E-16
 -1      2412 2.17898E+01 6.67079E-02 1.12189E-03-1.05538E+00-2.47900E-14 1.23992E-13
 -1      2413 2.15502E+01 9.37534E-02 9.13317E-04-1.02021E+00-6.17735E-15 1.44407E-13
 -1      2414 2.11822E+01 1.36717E-01-2.73588E-03-1.15993E+00-2.79292E-14 1.77451E-15
 -1      2415 2.22257E+01-2.96718E-02-2.80922E-03-1.08706E+00-7.25855E-14 1.42181E-13
 -1      2416 2.19758E+01 2.79702E-02 1.51641E-03-1.08754E+00-4.87498E-14 1.17903E-13
 -1      2417 2.15200E+01 5.90952E-02-3.69553E-03-1.25866E+00-2.89298E-14 1.52683E-14
 -1      2418 2.26919E+01-2.00570E-01-8.70449E-03-1.00443E+00 1.19859E-14 2.05723E-13
 -1      2419 2.24494E+01-1.01853E-01 2.51667E-03-1.06947E+00-4.97983E-14 1.60165E-13
 -1      2420 2.19190E+01-9.96157E-02-5.24118E-03-1.28310E+00-6.65444E-14 8.30458E-14
 -1      2421 2.31695E+01-4.52769E-01-1.59635E-02-7.37905E-01 5.90669E-14 3.50389E-13
 -1      2422 2.29621E+01-3.12860E-01 3.82103E-03-9.00659E-01 6.85224E-14 3.29627E-13
 -1      2423 2.23947E+01-3.64552E-01-7.16394E-03-1.16940E+00-3.05415E-14 1.71047E-13
 -1      2424 2.36190E+01-7.46890E-01-2.21776E-02-2.24015E-01-1.18416E-13 4.79172E-13
 -1      2425 2.34859E+01-5.94882E-01 4.69149E-03-5.06982E-01-9.18276E-15 4.28136E-13
 -1      2426 2.29575E+01-7.31132E-01-8.15721E-03-8.37126E-01-7.37904E-14 3.84409E-13
 -1      2427 2.39652E+01-9.55184E-01-2.29766E-02 5.41851E-01-2.29439E-13 5.48112E-13
 -1      2428 2.39517E+01-8.70924E-01 2.75459E-03 1.57598E-01-1.86864E-13 5.45940E-13
 -1      2429 2.35873E+01-1.11602E+00-5.58658E-03-2.13926E-01-1.62780E-13 4.49093E-13
 -1      2430 2.40940E+01-8.49740E-01-1.26308E-02 1.41765E+00-3.44421E-14 5.23136E-13
 -1      2431 2.42305E+01-9.61015E-01-6.24326E-03 1.03245E+00-1.19716E-13 5.74758E-13
 -1      2432 2.41893E+01-1.30530E+00 2.17417E-03 6.95984E-01-1.86975E-13 5.62892E-13
 -1      2433 2.38899E+01-2.25828E-01 6.46159E-03 2.03174E+00 1.33611E-13 4.76693E-13
 -1      2434 2.41585E+01-6.14915E-01-2.27602E-02 1.84373E+00 4.02243E-14 4.51741E-13
 -1      2435 2.45656E+01-9.76471E-01 1.07630E-02 1.69829E+00 3.26674E-14 4.74667E-13
 -1      2436 2.33951E+01 8.03769E-01 1.88875E-02 1.88579E+00 3.65577E-13 4.35424E-13
 -1      2437 2.36945E+01 2.59598E-01-3.60065E-02 2.09691E+00 2.74857E-13 4.48818E-13
 -1      2438 2.45058E+01 5.05396E-02 6.54599E-03 2.29002E+00 2.07161E-13 4.31630E-13
 -1      2439 2.29349E+01 1.63097E+00 4.78173E-03 7.67221E-01 2.19168E-13 2.81429E-13
 -1      2440 2.31063E+01 1.29529E+00-3.01825E-02 1.37778E+00 3.26499E-13 3.42976E-13
 -1      2441 2.40698E+01 1.42722E+00-2.08886E-02 1.87853E+00 3.94147E-13 3.69921E-13
 -1      2442 2.29387E+01 1.58766E+00-2.41270E-02-8.17098E-01 2.05280E-13 1.50539E-14
 -1      2443 2.28726E+01 1.74283E+00-3.42553E-03-1.20787E-01 1.85078E-13 9.45576E-14
 -1      2444 2.37259E+01 2.26932E+00-4.36844E-02 3.76366E-01 3.68029E-13 1.04599E-13
 -1      2445 2.34420E+01 7.12225E-01-3.79327E-02-1.92969E+00 3.10035E-13-2.07233E-13
 -1      2446 2.31805E+01 1.21964E+00 1.70602E-02-1.53706E+00 3.00510E-13-1.10900E-13
 -1      2447 2.38864E+01 1.89887E+00-3.34223E-02-1.36818E+00 3.89924E-13-2.22785E-13
 -1      2448 2.40212E+01-2.99758E-01-2.60229E-02-2.06057E+00 1.48987E-13-2.58902E-13
 -1      2449 2.37162E+01 1.79061E-01 1.42980E-02-2.09861E+00 2.34765E-13-2.39652E-13
 -1      2450 2.43581E+01 6.28163E-01-2.06447E-03-2.27779E+00 2.69338E-13-2.78469E-13
 -1      2451 2.42746E+01-8.72249E-01-8.34088E-03-1.42097E+00-5.13539E-14-1.49462E-13
 -1      2452 2.40645E+01-6.56199E-01-5.45705E-03-1.74302E+00 1.53853E-14-2.58553E-13
 -1      2453 2.46119E+01-6.24675E-01 1.42167E-02-2.04438E+00 8.65673E-14-3.82893E-13
 -1      2454 2.41308E+01-9.35155E-01 2.23134E-03-5.30317E-01 3.34255E-14-3.91386E-15
 -1      2455 2.40728E+01-9.58430E-01-2.06086E-02-9.20477E-01-4.48062E-14 2.18085E-14
 -1      2456 2.44037E+01-1.24683E+00 5.03074E-03-1.14148E+00-7.77327E-14-3.20590E-13
 -1      2457 2.37323E+01-7.08612E-01 5.60937E-03 2.33427E-01-6.97220E-14 1.74044E-13
 -1      2458 2.38115E+01-8.45628E-01-2.33190E-02-8.54663E-02 4.97484E-14 6.84350E-14
 -1      2459 2.38735E+01-1.23065E+00-5.20694E-03-1.60064E-01-8.30828E-14-1.66291E-13
 -1      2460 2.32330E+01-4.13930E-01 4.91580E-03 7.31205E-01 1.58373E-13-5.84051E-14
 -1      2461 2.34055E+01-5.63078E-01-1.81218E-02 5.29426E-01 1.25148E-13 1.66111E-13
 -1      2462 2.32470E+01-8.88781E-01-9.29717E-03 5.82600E-01 5.13634E-14-2.84200E-14
 -1      2463 2.27268E+01-1.68166E-01 3.26741E-03 9.75960E-01 6.48327E-14-1.97075E-13
 -1      2464 2.29482E+01-2.83396E-01-1.08847E-02 8.81339E-01 6.02747E-14-1.28542E-13
 -1      2465 2.26626E+01-4.93843E-01-8.69835E-03 1.01846E+00 2.00712E-13-1.30669E-13
 -1      2466 2.22561E+01-3.77337E-03 1.98423E-03 1.03624E+00-2.50679E-13 4.67170E-14
 -1      2467 2.24926E+01-7.67512E-02-4.56313E-03 1.01849E+00-8.28838E-14-4.10958E-14
 -1      2468 2.21658E+01-1.78839E-01-6.39603E-03 1.19982E+00-7.05504E-14-3.88534E-14
 -1      2469 2.18363E+01 8.84269E-02 1.24083E-03 9.83184E-01-1.88463E-13 1.72933E-13
 -1      2470 2.20656E+01 4.99150E-02-1.07532E-04 1.01183E+00-2.45422E-13-8.14138E-15
 -1      2471 2.17546E+01 2.58115E-02-4.31220E-03 1.20846E+00-2.35025E-13 2.01517E-13
 -1      2472 2.14714E+01 1.29462E-01 8.89604E-04 8.71728E-01 8.15392E-14 3.43943E-13
 -1      2473 2.16803E+01 1.14256E-01 2.56561E-03 9.23476E-01-4.33808E-14 2.15553E-13
 -1      2474 2.14141E+01 1.37218E-01-2.93880E-03 1.11628E+00-1.72535E-13 2.78581E-13
 -1      2475 2.11605E+01 1.38981E-01 7.51392E-04 7.38391E-01 1.61102E-13 4.54743E-13
 -1      2476 2.13425E+01 1.37609E-01 3.88036E-03 7.97942E-01 2.36906E-13 5.04668E-13
 -1      2477 2.11307E+01 1.84057E-01-2.17370E-03 9.75468E-01 1.35988E-13 4.14414E-13
 -1      2478 2.09005E+01 1.31324E-01 6.98632E-04 6.04848E-01-3.27432E-14 2.39581E-13
 -1      2479 2.10539E+01 1.37180E-01 4.28995E-03 6.63300E-01 1.14491E-13 2.79217E-13
 -1      2480 2.08944E+01 1.91776E-01-1.77576E-03 8.19654E-01 1.86239E-13 4.29668E-13
 -1      2481 2.06870E+01 1.15698E-01 6.64837E-04 4.82519E-01 1.07661E-14 8.39583E-14
 -1      2482 2.08128E+01 1.24660E-01 4.15908E-03 5.35336E-01-2.30219E-14 2.27351E-13
 -1      2483 2.06982E+01 1.78563E-01-1.55523E-03 6.68456E-01 7.76451E-14 3.18468E-13
 -1      2484 2.05147E+01 9.75039E-02 6.24250E-04 3.76361E-01-7.13122E-14 5.01866E-14
 -1      2485 2.06156E+01 1.07212E-01 3.74585E-03 4.21717E-01 6.04064E-14 1.21424E-13
 -1      2486 2.05370E+01 1.55960E-01-1.40008E-03 5.31997E-01 4.14962E-14 3.83067E-13
 -1      2487 2.03783E+01 7.96572E-02 5.71901E-04 2.87556E-01-1.94489E-13 1.58857E-13
 -1      2488 2.04574E+01 8.88727E-02 3.21652E-03 3.25170E-01-2.57326E-13 1.82243E-14
 -1      2489 2.04063E+01 1.30682E-01-1.25792E-03 4.14434E-01-1.70767E-13 2.69535E-13
 -1      2490 2.02721E+01 6.35739E-02 5.11173E-04 2.15248E-01-7.00620E-14 2.44653E-13
 -1      2491 2.03329E+01 7.17223E-02 2.66942E-03 2.45647E-01-2.88864E-15 1.88912E-13
 -1      2492 2.03019E+01 1.06319E-01-1.11191E-03 3.16430E-01-1.68225E-13 2.05107E-13
 -1      2493 2.01909E+01 4.98192E-02 4.48139E-04 1.57602E-01 4.80100E-14 1.64518E-13
 -1      2494 2.02367E+01 5.66957E-02 2.15747E-03 1.81684E-01-1.18496E-14 1.87052E-13
 -1      2495 2.02199E+01 8.45811E-02-9.61761E-04 2.36747E-01-1.25887E-15 2.70503E-13
 -1      2496 2.01300E+01 3.85048E-02 3.86867E-04 1.12411E-01 1.11230E-13 2.69554E-13
 -1      2497 2.01638E+01 4.41014E-02 1.70438E-03 1.31195E-01 4.32506E-14 2.56481E-13
 -1      2498 2.01566E+01 6.61235E-02-8.11694E-04 1.73249E-01 2.19171E-14 2.35447E-13
 -1      2499 2.00854E+01 2.94896E-02 3.27321E-04 7.74440E-02-2.52696E-14 5.26179E-13
 -1      2500 2.01097E+01 3.39080E-02 1.31777E-03 9.19306E-02 1.09970E-13 4.68728E-13
 -1      2501 2.01085E+01 5.10188E-02-6.70019E-04 1.23464E-01 2.27756E-15 4.31231E-13
 -1      2502 2.00535E+01 2.25198E-02 2.84145E-04 5.06640E-02 4.01546E-14 3.73099E-13
 -1      2503 2.00704E+01 2.59043E-02 9.96509E-04 6.17504E-02-8.51999E-14 5.08264E-13
 -1      2504 2.00727E+01 3.90312E-02-5.34743E-04 8.49518E-02 5.04716E-15 8.42870E-13
 -1      2505 2.00312E+01 1.70913E-02 2.13595E-04 3.02728E-02 5.09727E-15 3.65586E-13
 -1      2506 2.00425E+01 1.97425E-02 7.21696E-04 3.87025E-02 1.27111E-13 3.98511E-13
 -1      2507 2.00464E+01 2.97719E-02-4.21741E-04 5.55689E-02 4.87201E-14 7.02085E-13
 -1      2508 2.00160E+01 1.26114E-02 1.44091E-04 1.52258E-02-1.94501E-13 5.67559E-13
 -1      2509 2.00233E+01 1.48616E-02 5.28513E-04 2.14428E-02-7.52904E-14 5.38877E-13
 -1      2510 2.00274E+01 2.20970E-02-4.14281E-04 3.32344E-02-1.23983E-13 7.66141E-13
 -1      2511 2.00102E+01 9.84644E-03 3.03798E-04 8.57975E-03-1.47047E-13 4.29007E-13
 -1      2512 1.99936E+01 7.26167E-02-3.97076E-04 3.20044E-02-1.25734E-14-1.07535E-13
 -1      2513 1.99976E+01 6.61728E-02 1.80519E-04 3.37921E-02-1.88034E-14-5.02844E-13
 -1      2514 1.99872E+01 8.53833E-02-4.02305E-04 2.36790E-02-2.27286E-14 7.10449E-14
 -1      2515 1.99903E+01 8.05104E-02 4.09938E-05 2.79494E-02-5.28977E-14 1.99448E-13
 -1      2516 1.99895E+01 8.74057E-02 2.95708E-04 3.60116E-02 4.26021E-15 4.45547E-14
 -1      2517 2.00087E+01 3.94943E-02-2.32066E-04 3.10391E-02 6.78113E-14 1.28288E-13
 -1      2518 2.00118E+01 3.26802E-02 2.97343E-04 2.77938E-02 2.80024E-14 4.21435E-13
 -1      2519 2.00014E+01 5.65928E-02-3.34098E-04 3.45998E-02-1.42494E-13-3.98326E-13
 -1      2520 2.00054E+01 4.95992E-02 2.84957E-04 3.36482E-02-4.93256E-14-7.72830E-14
 -1      2521 2.00094E+01 5.15303E-02 1.44748E-04 4.00010E-02-1.15783E-13-1.13758E-13
 -1      2522 1.99993E+01 7.05445E-02 1.76073E-04 4.15109E-02-1.64866E-13-4.23914E-13
 -1      2523 1.99833E+01 9.31161E-02-3.49135E-04 1.11528E-02-1.75718E-13-1.59861E-13
 -1      2524 1.99850E+01 9.05057E-02-1.14066E-04 1.71000E-02-1.21263E-13-1.86020E-13
 -1      2525 1.99818E+01 9.99444E-02 3.89318E-04 2.43375E-02-1.08864E-13-7.39268E-14
 -1      2526 1.99825E+01 9.47924E-02-2.46349E-04-3.31352E-03-2.88756E-13-4.94336E-13
 -1      2527 1.99825E+01 9.48263E-02-2.52759E-04 3.21361E-03-2.01887E-13-2.05483E-13
 -1      2528 1.99777E+01 1.06516E-01 4.35618E-04 8.51882E-03-2.28014E-13-2.12108E-13
 -1      2529 1.99850E+01 9.02125E-02-1.11965E-04-1.71492E-02-3.11006E-13-5.05844E-13
 -1      2530 1.99833E+01 9.28929E-02-3.50429E-04-1.12311E-02-2.64157E-13-5.61396E-13
 -1      2531 1.99777E+01 1.06324E-01 4.30740E-04-8.72089E-03-1.04495E-13-4.81829E-13
 -1      2532 1.99902E+01 8.02662E-02 4.13827E-05-2.77684E-02-5.23909E-14-9.11362E-14
 -1      2533 1.99872E+01 8.50618E-02-3.99840E-04-2.35785E-02-2.45005E-13-2.98858E-13
 -1      2534 1.99819E+01 9.95117E-02 3.85853E-04-2.43371E-02-1.31756E-13-3.22286E-13
 -1      2535 1.99975E+01 6.59194E-02 1.73511E-04-3.36270E-02 9.37186E-15 1.64179E-13
 -1      2536 1.99936E+01 7.23566E-02-3.92270E-04-3.18153E-02 1.49142E-14-1.70468E-13
 -1      2537 1.99894E+01 8.69259E-02 2.85339E-04-3.58357E-02 2.23293E-14-5.40262E-14
 -1      2538 2.00052E+01 4.90950E-02 2.32419E-04-3.34654E-02-3.17838E-14 3.93230E-13
 -1      2539 2.00013E+01 5.63423E-02-3.02704E-04-3.44866E-02-6.59461E-14 4.44782E-13
 -1      2540 1.99991E+01 7.00302E-02 1.60587E-04-4.13034E-02-4.67069E-15 1.42599E-13
 -1      2541 2.00116E+01 3.21125E-02 2.50152E-04-2.75582E-02-7.66889E-14 1.52576E-13
 -1      2542 2.00087E+01 3.92129E-02-1.73586E-04-3.10514E-02-4.87300E-14 2.47542E-13
 -1      2543 2.00087E+01 5.07932E-02-7.36430E-05-3.98261E-02-1.85613E-14 3.16943E-13
 -1      2544 4.35566E+00-2.90439E+00 6.65046E-02 3.17626E+00-1.59928E-13 4.21607E-13
 -1      2545 3.32216E+00-2.70682E+00 8.89614E-02 1.09241E+00-1.75839E-13 4.76064E-13
 -1      2546 9.99914E+00-4.03066E+00 4.92515E-02 6.27502E+00-1.87794E-13 2.31537E-13
 -1      2547 6.76871E+00-3.49519E+00 9.29674E-02 4.79035E+00-1.58595E-13 2.67564E-13
 -1      2548 3.11602E+00-2.81808E+00 6.18468E-02-1.08460E+00-1.24963E-13 5.79536E-13
 -1      2549 4.34450E+00-3.02299E+00 6.37973E-02-3.47124E+00 4.57967E-14 6.83897E-13
 -1      2550 1.97946E+01 1.71061E-01 4.47321E-03-2.70408E-02 2.67400E-13 2.90030E-13
 -1      2551 1.98500E+01 2.21204E-01 1.25884E-02 7.09961E-02 2.95678E-13 3.47033E-13
 -1      2552 1.99403E+01 2.23135E-01-4.51361E-03-4.99874E-02 3.07437E-13 1.37711E-13
 -1      2553 2.00109E+01 1.65269E-02 2.91140E-04-1.43789E-02 3.48097E-14 4.72636E-14
 -1      2554 1.70587E+01-5.42150E+00-1.88141E-02 6.76369E+00-1.53544E-13 3.21011E-13
 -1      2555 1.37563E+01-5.06508E+00 7.09785E-02 6.59473E+00-1.97509E-13 2.84078E-13
 -1      2556 2.51406E+01-4.69831E+00-7.60459E-02 4.36819E+00 6.23945E-14 1.20182E-14
 -1      2557 2.10105E+01-5.44589E+00 3.71782E-02 5.53032E+00-9.14546E-14 2.12746E-13
 -1      2558 2.05565E+01 1.96170E+00-1.33876E-02-1.85291E+00-5.39475E-13-4.10116E-13
 -1      2559 2.04253E+01 1.22024E+00-8.36319E-03-1.24251E+00-5.11592E-13-3.44517E-13
 -1      2560 2.04037E+01 1.40268E+00 8.52099E-03-1.18133E+00-4.70339E-13-4.19648E-13
 -1      2561 2.03099E+01 2.40800E+00 4.75518E-04-1.78943E+00-5.08442E-13-5.45709E-13
 -1      2562 6.63485E+00-3.97085E+00 5.75778E-02-5.23599E+00 3.95434E-13 6.60055E-13
 -1      2563 9.41685E+00-4.51991E+00 1.12455E-02-6.50907E+00 4.48086E-13 6.16812E-13
 -1      2564 3.24288E+01 4.43924E+00-1.33344E-01-7.66315E-01-1.10639E-12-7.30527E-14
 -1      2565 3.19104E+01 2.69814E+00-7.00331E-02-2.91984E-01-1.04797E-12-8.20455E-14
 -1      2566 1.95142E+01 3.64951E+00-1.01599E-02-2.32561E-01 1.25634E-13-7.83405E-13
 -1      2567 1.95324E+01 3.62690E+00-9.51997E-03-4.05973E-01 5.12139E-14-7.85723E-13
 -1      2568 1.97045E+01 3.23781E+00-1.02163E-04-4.45920E-01 2.01915E-14-7.40692E-13
 -1      2569 1.96654E+01 3.30377E+00-4.05557E-04-1.42670E-01 1.34550E-13-7.31160E-13
 -1      2570 3.04416E+01-8.34217E-01-4.74579E-02-7.42218E-01 4.35464E-13-2.04003E-13
 -1      2571 3.15080E+01 9.66415E-01-1.88302E-01 4.07708E-01 5.62966E-13 1.12271E-13
 -1      2572 3.26131E+01 7.01178E+00-1.20582E-01 6.10134E-01 1.13770E-12 2.95305E-13
 -1      2573 3.26993E+01 7.30340E+00-1.26170E-01-1.63253E-02 1.20781E-12 2.15558E-13
 -1      2574 3.24967E+01 4.04286E+00-5.65657E-02 5.85515E-01-6.47621E-13-3.90132E-13
 -1      2575 3.25849E+01 5.45389E+00-1.51006E-01 8.42138E-01-8.37774E-13-5.08121E-13
 -1      2576 3.19364E+01 3.84830E+00-9.18188E-02 1.23951E+00 7.88897E-13 2.97623E-13
 -1      2577 3.24244E+01 5.61202E+00-1.70442E-01 1.12874E+00 1.01580E-12 4.16570E-13
 -1      2578 2.59455E+01-4.10092E+00-1.98152E-02-3.61112E+00 2.30732E-13-4.40786E-13
 -1      2579 2.89608E+01-2.60869E+00-8.97163E-02-2.42685E+00 4.00693E-13-3.17302E-13
 -1      2580 2.91958E+01-2.40533E+00 2.06773E-02-5.20211E-01 1.77662E-13 8.33222E-14
 -1      2581 1.85566E+01-5.54316E+00 9.51979E-03-6.16708E+00-9.08718E-14-7.30485E-13
 -1      2582 2.24924E+01-5.06668E+00-6.32350E-02-5.63049E+00 1.21902E-13-7.64111E-13
 -1      2583 1.04553E+01-4.62105E+00 8.03695E-02-6.30645E+00-2.41779E-13-9.09856E-13
 -1      2584 1.44609E+01-5.22717E+00 1.20933E-02-6.96231E+00-1.21347E-13-6.86104E-13
 -1      2585 4.09887E+00-3.45651E+00 3.42944E-02-3.10388E+00-2.34604E-13-1.32833E-12
 -1      2586 6.39753E+00-3.54225E+00 5.31791E-02-4.92645E+00-2.57239E-13-1.05232E-12
 -1      2587 3.04375E+00-2.81251E+00 6.39781E-02 1.09735E+00-4.20428E-14-1.44745E-12
 -1      2588 3.13668E+00-2.89727E+00 6.06343E-02-1.22510E+00-4.00097E-14-1.55986E-12
 -1      2589 6.57384E+00-3.90917E+00 1.93707E-02 5.43203E+00 5.27356E-14-8.62088E-13
 -1      2590 4.22624E+00-3.36545E+00 5.78969E-02 3.41102E+00 1.01946E-13-1.14186E-12
 -1      2591 1.37835E+01-5.06020E+00-1.40521E-03 7.08416E+00-6.29496E-14-6.03517E-13
 -1      2592 1.01428E+01-4.76088E+00 4.59677E-02 6.40028E+00 9.81992E-14-7.49539E-13
 -1      2593 2.14377E+01-5.08555E+00-4.01460E-02 5.96792E+00-2.99927E-13-3.02508E-13
 -1      2594 1.76445E+01-5.45873E+00 1.36768E-02 6.45571E+00-1.75582E-13-4.03434E-13
 -1      2595 2.75804E+01-3.12909E+00-7.04352E-02 3.22399E+00-5.46618E-13-6.41154E-15
 -1      2596 2.47594E+01-4.36223E+00-1.42065E-02 4.25073E+00-3.86691E-13-1.43385E-13
 -1      2597 3.11632E+01 5.13383E-01-9.63454E-02 6.22056E-01-8.60229E-13-5.05151E-15
 -1      2598 2.93858E+01-1.31978E+00-5.84540E-02 1.51385E+00-7.03205E-13 2.07057E-14
 -1      2599 3.27764E+01 7.09270E+00-1.20653E-01-4.96063E-01-1.09163E-12-1.90556E-13
 -1      2600 3.25279E+01 6.22973E+00-1.00140E-01-8.01158E-01-1.10600E-12-1.37945E-13
 -1      2601 3.25071E+01 7.06263E+00-9.44300E-02 5.42469E-01-9.16323E-13-3.01051E-13
 -1      2602 3.26364E+01 7.51187E+00-1.13837E-01 8.16887E-02-9.59177E-13-3.14221E-13
 -1      2603 3.04147E+01-1.79528E-02-5.44160E-02-9.08471E-01-2.67786E-13-2.63123E-13
 -1      2604 3.21183E+01 2.01976E+00-8.33886E-02-1.57279E-01-4.73635E-13-3.33178E-13
 -1      2605 3.07859E+01 2.45130E+00-3.21058E-02 1.14097E+00-4.75869E-13-5.01793E-13
 -1      2606 2.65787E+01-3.50275E+00-2.73083E-02-3.35723E+00 1.87544E-13 2.39808E-14
 -1      2607 2.89288E+01-2.12512E+00-7.28228E-02-2.38620E+00-5.47618E-14-1.53211E-13
 -1      2608 2.05536E+01-5.28493E+00 1.77672E-02-5.80969E+00 4.00568E-13 1.77566E-13
 -1      2609 2.39959E+01-4.61217E+00-3.97343E-02-5.02401E+00 2.82302E-13 2.00673E-13
 -1      2610 1.30458E+01-5.06473E+00 4.55945E-02-6.73264E+00 6.36463E-13 6.06334E-13
 -1      2611 1.66897E+01-5.21912E+00-1.41475E-02-6.90715E+00 5.49560E-13 2.90871E-13
 -1      2612 2.99181E+01-1.80376E+00-1.18238E-01 1.23734E+00 4.02303E-13-2.00506E-13
 -1      2613 2.80107E+01-3.24058E+00 2.90988E-03 2.20205E+00 1.81598E-13-5.78426E-14
 -1      2614 2.04962E+01 8.79990E-01-6.73311E-03 1.19002E+00 5.73699E-13 6.28579E-13
 -1      2615 2.08371E+01 1.25893E+00-5.84470E-03 1.69291E+00 6.11733E-13 7.18783E-13
 -1      2616 2.06496E+01 1.71813E+00-1.57909E-02 1.88309E+00 6.76684E-13 4.94219E-13
 -1      2617 2.04650E+01 1.06800E+00-9.58547E-03 1.19394E+00 6.04539E-13 3.57255E-13
 -1      2618 3.04475E+01 1.87765E+00-3.89678E-02 1.62331E+00 6.26221E-13 5.63466E-13
 -1      2619 1.99239E+01 2.85867E+00 1.36975E-03-1.04554E+00-2.31490E-13-7.47918E-13
 -1      2620 1.97952E+01 3.19023E+00-1.64409E-02-1.23978E+00-2.55352E-13-7.96778E-13
 -1      2621 1.99000E+01 3.04108E+00-1.84420E-02-1.42845E+00-3.35259E-13-7.52442E-13
 -1      2622 2.00524E+01 3.69795E-01-4.10870E-03 2.20654E-01 3.76982E-13 1.97239E-13
 -1      2623 2.04341E+01 2.12213E+00-1.26531E-02 1.83216E+00 6.84128E-13 2.24192E-13
 -1      2624 1.28324E+01-4.25796E+00 1.06809E-01-6.61409E+00 6.58307E-13 4.14863E-13
 -1      2625 1.98727E+01-5.26291E+00 9.05663E-02-5.93904E+00 6.46566E-13 2.46971E-13
 -1      2626 7.03978E+00-2.57619E+00 1.42069E-01-4.32693E+00 2.49564E-13 5.44537E-13
 -1      2627 2.99885E+01-9.16329E-01-2.05043E-02-5.45799E-01 4.20192E-13-5.05151E-13
 -1      2628 2.93904E+01-1.52127E+00-2.51214E-03-6.24355E-01-2.48794E-14-4.58800E-13
 -1      2629 3.06693E+01 5.94336E+00-7.09601E-02 1.15002E+00-7.91978E-13-3.77365E-13
 -1      2630 1.32596E+01-3.97860E+00 1.45871E-01 6.19558E+00-3.26433E-13 1.95816E-13
 -1      2631 3.05225E+01 7.04131E+00-6.95422E-02-3.18008E-01-9.65894E-13-2.15213E-13
 -1      2632 2.00139E+01 1.61084E-02-2.37396E-06 1.67289E-02-1.44732E-13 5.43689E-13
 -1      2633 2.00145E+01 2.15694E-02 4.12722E-05 2.13881E-02-1.89748E-14 6.75456E-13
 -1      2634 3.04041E+01 1.06938E+00-1.29526E-02-8.90987E-01-7.55812E-13 1.88072E-13
 -1      2635 5.11288E+00-1.51605E+00 1.69911E-01-5.70549E-02-1.95911E-13 5.63660E-13
 -1      2636 7.55453E+00-2.11756E+00 1.68721E-01 4.00540E+00-1.83631E-13 3.23103E-13
 -1      2637 2.84241E+01-2.75729E+00 1.56286E-02 1.34397E+00-4.29060E-13 1.95649E-13
 -1      2638 2.04520E+01 1.82232E+00 1.24657E-02 1.51313E+00 6.37104E-13 1.46232E-13
 -1      2639 2.66652E+01-4.38608E+00 2.27673E-02 2.64212E+00-1.09496E-14-2.01283E-13
 -1      2640 2.38973E+01-5.06000E+00 6.17497E-02 4.48332E+00-4.74065E-14 1.98175E-14
 -1      2641 2.04804E+01-5.34135E+00 9.18601E-02 5.61745E+00-3.27516E-13 3.74006E-14
 -1      2642 3.08182E+01 4.93790E+00-4.54185E-02-1.38608E+00-1.01746E-12 1.17129E-14
 -1      2643 1.72481E+01-5.08361E+00 1.06930E-01 6.51790E+00 2.62679E-13-3.53301E-13
 -1      2644 1.01904E+01-3.53522E+00 1.37833E-01 5.94518E+00 2.94431E-13-7.71910E-13
 -1      2645 5.51184E+00-1.91377E+00 1.60671E-01 2.33590E+00 1.69822E-13-1.23590E-12
 -1      2646 5.46614E+00-1.90751E+00 1.66118E-01-2.10304E+00-1.31277E-13-1.36557E-12
 -1      2647 9.59163E+00-3.68628E+00 1.10823E-01-5.76827E+00-3.36398E-13-9.44966E-13
 -1      2648 1.27750E+01-3.64632E+00 7.44250E-02-6.12963E+00-4.67237E-13-7.03826E-13
 -1      2649 9.04839E+00-2.46551E+00 1.27610E-01-5.01131E+00-3.50706E-13-9.72111E-13
 -1      2650 2.51015E+01-4.92501E+00 4.56740E-02-3.85409E+00-1.00059E-13-3.50886E-13
 -1      2651 2.01371E+01 2.62977E+00-9.70521E-03-1.62826E+00-4.44380E-13-6.47741E-13
 -1      2652 3.17760E+01 3.91668E+00-7.19641E-02-1.42656E+00 9.42524E-13-3.12139E-13
 -1      2653 2.99762E+01 2.47539E+00-2.54678E-02-1.98886E+00 7.14512E-13-5.06456E-13
 -1      2654 3.00695E+01 4.69789E+00-2.45784E-01-1.85745E+00 8.82239E-13-2.67286E-13
 -1      2655 3.11913E+01 6.80993E+00-9.79837E-02-3.70256E-01 1.13692E-12 1.48642E-13
 -1      2656 3.03149E+01 5.79880E+00-9.10705E-02 1.32635E+00 9.58095E-13 7.12971E-13
 -1      2657 1.78890E+01-5.32454E+00 6.42646E-02-6.29193E+00-3.38701E-13-6.84577E-13
 -1      2658 2.00170E+01 1.80116E-02 2.59035E-04-2.04049E-02 1.44816E-13 1.88391E-13
 -1      2659 2.00141E+01 2.46037E-02-2.24174E-04-2.45042E-02 2.43423E-14 8.47395E-14
 -1      2660 2.00176E+01 3.43333E-02 2.14704E-04-3.43813E-02-1.93370E-14 2.18994E-13
 -1      2661 2.00234E+01 2.08399E-02 5.27980E-04-2.68739E-02 1.55314E-13 2.60693E-13
 -1      2662 2.57833E+01-4.49461E+00 3.76518E-02-3.41386E+00 4.00402E-13-1.35725E-14
 -1      2663 2.00180E+01 3.07036E-02 2.09468E-04 3.10542E-02-7.59871E-14 6.11202E-13
 -1      2664 2.00249E+01 2.91387E-02-3.98023E-04-3.81013E-02 1.08798E-13 2.45516E-13
 -1      2665 1.98315E+01 2.85191E+00-6.19342E-03 4.79600E-01 3.71399E-13-5.64062E-13
 -1      2666 1.98020E+01 2.90554E+00-6.00822E-03 3.37476E-01 3.14041E-13-6.08946E-13
 -1      2667 1.97818E+01 2.94728E+00-5.66174E-03 2.13484E-01 2.63066E-13-6.48809E-13
 -1      2668 1.97715E+01 2.96553E+00-5.62365E-03 6.89627E-02 2.04285E-13-6.58382E-13
 -1      2669 1.99217E+01 2.61130E+00 4.15620E-03 2.40113E-01 2.64859E-13-5.75842E-13
 -1      2670 2.00553E+01 2.37916E+00-1.03917E-02 9.83994E-01 5.39832E-13-3.26892E-13
 -1      2671 1.99844E+01 2.53539E+00-6.78388E-03 8.51871E-01 4.93550E-13-4.02762E-13
 -1      2672 2.02373E+01 1.94472E+00-1.16751E-02 1.16426E+00 5.84811E-13-1.56372E-13
 -1      2673 2.01412E+01 2.18991E+00-5.23565E-03 1.07059E+00 5.54780E-13-2.56049E-13
 -1      2674 2.02023E+01 1.94689E+00 6.62893E-03 8.55516E-01 4.96017E-13-2.54744E-13
 -1      2675 2.02519E+01 7.59045E-01-2.68274E-03 5.69009E-01 4.72160E-13 1.05868E-13
 -1      2676 2.03827E+01 9.77021E-01 9.18631E-03 8.42381E-01 5.17424E-13 1.48722E-13
 -1      2677 2.72484E+01-4.04361E+00-1.42361E-01 1.26035E+00 3.10724E-14-2.92252E-13
 -1      2678 2.53179E+01-4.84304E+00 8.48863E-02 2.91728E+00-2.17569E-13-1.25941E-13
 -1      2679 2.01307E+01 4.63239E-01-6.22016E-04 1.86937E-01 3.60085E-13 7.00805E-14
 -1      2680 2.02167E+01 5.93308E-01 1.03550E-02 3.64005E-01 4.06405E-13 1.03453E-13
 -1      2681 2.02905E+01 8.67564E-01 3.18835E-04 5.28795E-01 4.59326E-13-8.64369E-15
 -1      2682 2.02574E+01 6.80106E-01 7.58369E-03-3.38073E-01-2.82580E-13-3.82215E-13
 -1      2683 2.01876E+01 5.38994E-01-2.18301E-03-1.63025E-01-2.36351E-13-3.88844E-13
 -1      2684 2.01665E+01 4.35678E-01 6.24155E-03-2.38500E-02-2.05236E-13-3.72783E-13
 -1      2685 2.01249E+01 3.52897E-01-5.96980E-04 9.53025E-02-1.69423E-13-3.97865E-13
 -1      2686 2.02376E+01 6.13065E-01-1.81268E-03-1.28118E-01-2.33987E-13-4.03647E-13
 -1      2687 2.01053E+01 2.94377E-01 4.07367E-03 1.96276E-01-1.58702E-13-3.76003E-13
 -1      2688 2.00921E+01 2.48529E-01 5.56112E-04 2.80590E-01-1.61573E-13-3.80165E-13
 -1      2689 2.01824E+01 4.11083E-01-2.34435E-03 1.25077E-01-1.70530E-13-4.06292E-13
 -1      2690 2.00793E+01 2.17673E-01 2.34065E-03 3.56633E-01-1.39535E-13-3.56334E-13
 -1      2691 2.00900E+01 1.95698E-01 1.35089E-03 4.20895E-01-1.42716E-13-3.49180E-13
 -1      2692 2.01433E+01 2.96948E-01-2.20638E-03 3.12398E-01-1.55301E-13-3.72099E-13
 -1      2693 2.00852E+01 1.82671E-01 1.08732E-03 4.82910E-01-1.21589E-13-3.28119E-13
 -1      2694 2.01152E+01 1.76163E-01 1.91156E-03 5.37276E-01-7.93493E-14-3.13138E-13
 -1      2695 2.01238E+01 2.40204E-01-1.86765E-03 4.58599E-01-1.18292E-13-3.06482E-13
 -1      2696 2.01183E+01 1.74316E-01 2.23021E-04 5.93327E-01-6.74494E-14-3.08200E-13
 -1      2697 2.01647E+01 1.77020E-01 2.30531E-03 6.44450E-01-6.52109E-14-2.75140E-13
 -1      2698 2.01231E+01 2.20721E-01-1.53575E-03 5.83145E-01-6.93682E-14-2.91874E-13
 -1      2699 2.01756E+01 1.80912E-01-3.07034E-04 6.99979E-01-7.19180E-14-2.38355E-13
 -1      2700 2.02365E+01 1.87144E-01 2.55276E-03 7.51571E-01-7.75624E-14-2.17299E-13
 -1      2701 2.01398E+01 2.23400E-01-1.30051E-03 7.00066E-01-4.72765E-14-2.34549E-13
 -1      2702 2.02560E+01 1.91291E-01-5.10611E-04 8.09520E-01-9.86193E-14-1.93439E-13
 -1      2703 2.03309E+01 1.94812E-01 2.63440E-03 8.62454E-01-7.57324E-14-1.79690E-13
 -1      2704 2.01734E+01 2.34562E-01-1.22023E-03 8.18228E-01-6.57673E-14-2.33701E-13
 -1      2705 2.03614E+01 1.92729E-01-3.40643E-04 9.23150E-01-7.69818E-14-1.47748E-13
 -1      2706 2.04510E+01 1.85811E-01 2.49529E-03 9.75162E-01-5.23781E-14-1.93035E-13
 -1      2707 2.02260E+01 2.39339E-01-1.37315E-03 9.41398E-01-7.83116E-14-2.11247E-13
 -1      2708 2.04976E+01 1.69227E-01 3.13307E-04 1.03590E+00-4.71116E-14-2.16175E-13
 -1      2709 2.06040E+01 1.41923E-01 2.04020E-03 1.08095E+00-3.58020E-15-2.61411E-13
 -1      2710 2.03035E+01 2.19532E-01-1.89058E-03 1.06784E+00-9.18405E-14-2.12299E-13
 -1      2711 2.06758E+01 1.00335E-01 1.62672E-03 1.13517E+00 4.56649E-14-2.52258E-13
 -1      2712 2.08026E+01 4.03406E-02 1.11585E-03 1.16259E+00 7.33313E-14-1.90392E-13
 -1      2713 2.04178E+01 1.51972E-01-2.97225E-03 1.18927E+00 2.29721E-14-1.53908E-13
 -1      2714 2.09140E+01-3.84598E-02 3.80800E-03 1.19852E+00 8.32536E-14-1.69409E-13
 -1      2715 2.10661E+01-1.44393E-01-5.31529E-04 1.19212E+00 8.46969E-14-1.42319E-13
 -1      2716 2.05894E+01 8.25221E-03-4.86735E-03 1.28892E+00 9.36771E-14-1.75656E-13
 -1      2717 2.12375E+01-2.71528E-01 6.97020E-03 1.19087E+00 3.63361E-14-1.51609E-13
 -1      2718 2.14198E+01-4.32820E-01-3.29892E-03 1.12866E+00-2.59701E-14-1.19336E-13
 -1      2719 2.08500E+01-2.41970E-01-7.78602E-03 1.33839E+00 3.02589E-14-2.33527E-13
 -1      2720 2.16756E+01-6.11113E-01 1.09049E-02 1.06182E+00-1.44016E-14-6.34310E-14
 -1      2721 2.18881E+01-8.22070E-01-7.44984E-03 9.17758E-01-9.03791E-15-4.81098E-14
 -1      2722 2.12418E+01-6.20204E-01-1.16302E-02 1.29308E+00 4.70580E-14-6.43327E-14
 -1      2723 2.22464E+01-1.03107E+00 1.46456E-02 7.46848E-01 5.33423E-14 4.22519E-14
 -1      2724 2.24754E+01-1.25022E+00-1.24238E-02 4.98568E-01 7.86979E-14 9.04768E-14
 -1      2725 2.18099E+01-1.11272E+00-1.50275E-02 1.08717E+00 7.81991E-14 1.38251E-13
 -1      2726 2.29236E+01-1.42435E+00 1.46882E-02 1.86155E-01 8.64315E-14 2.23413E-13
 -1      2727 2.31326E+01-1.55214E+00-1.64266E-02-1.64996E-01 1.20623E-13 3.01855E-13
 -1      2728 2.25718E+01-1.61937E+00-1.44513E-02 6.38532E-01 1.41678E-13 3.04396E-13
 -1      2729 2.35950E+01-1.56635E+00 5.30476E-03-6.24596E-01 1.24837E-13 3.41047E-13
 -1      2730 2.37223E+01-1.43751E+00-1.46250E-02-1.02042E+00 1.24771E-13 3.10095E-13
 -1      2731 2.34656E+01-1.90882E+00-8.66132E-03-1.14384E-01 1.27314E-13 3.83206E-13
 -1      2732 2.40351E+01-1.12162E+00-1.67401E-02-1.52316E+00 7.28988E-14 3.04658E-13
 -1      2733 2.40333E+01-5.91637E-01-5.43160E-04-1.80319E+00-5.33601E-15 2.76682E-13
 -1      2734 2.42817E+01-1.59902E+00-1.52469E-04-1.11149E+00 1.16426E-13 3.70223E-13
 -1      2735 2.40213E+01 1.05418E-01-5.16308E-02-2.06204E+00-1.51216E-13 2.12297E-13
 -1      2736 2.39139E+01 9.55193E-01 1.06298E-02-1.99960E+00-2.81521E-13 6.20346E-14
 -1      2737 2.46714E+01-3.42045E-01-7.59922E-03-2.00369E+00-1.50786E-13 2.97529E-13
 -1      2738 2.36571E+01 1.76535E+00-6.12701E-02-1.70969E+00-3.61915E-13-8.08419E-14
 -1      2739 2.35146E+01 2.45819E+00-9.63810E-03-1.21145E+00-3.98001E-13-2.05476E-13
 -1      2740 2.45593E+01 1.56925E+00-3.62238E-03-2.03291E+00-4.30062E-13 3.27360E-14
 -1      2741 2.33820E+01 2.84341E+00-3.53506E-02-3.57015E-01-4.11858E-13-4.06065E-13
 -1      2742 2.33406E+01 2.83305E+00-5.18805E-02 3.44740E-01-4.21455E-13-4.40165E-13
 -1      2743 2.42085E+01 3.23118E+00-1.95898E-02-8.59741E-01-5.57401E-13-3.01831E-13
 -1      2744 2.35450E+01 2.48966E+00 5.85260E-03 1.21880E+00-3.28109E-13-4.33004E-13
 -1      2745 2.36616E+01 1.78001E+00-5.87181E-02 1.72394E+00-2.50218E-13-4.79077E-13
 -1      2746 2.41831E+01 3.28658E+00-2.67953E-02 9.13837E-01-3.77441E-13-3.94752E-13
 -1      2747 2.39146E+01 9.62937E-01 1.01028E-02 2.01081E+00-1.97254E-13-5.11627E-13
 -1      2748 2.40245E+01 1.23409E-01-5.02962E-02 2.07560E+00-1.48250E-13-5.36897E-13
 -1      2749 2.45535E+01 1.60095E+00-2.53175E-02 2.03733E+00-2.75205E-13-3.50496E-13
 -1      2750 2.40431E+01-5.74720E-01-9.53148E-05 1.82587E+00-2.50563E-14-5.44945E-13
 -1      2751 2.40439E+01-1.11147E+00-1.89539E-02 1.54578E+00 1.28369E-13-4.31512E-13
 -1      2752 2.46962E+01-2.97089E-01 8.72233E-03 2.00007E+00-4.66936E-14-4.30860E-13
 -1      2753 2.37384E+01-1.42201E+00-1.37080E-02 1.04790E+00 2.32417E-13-3.79325E-13
 -1      2754 2.36096E+01-1.55162E+00 4.42211E-03 6.54929E-01 3.13886E-13-2.97447E-13
 -1      2755 2.42922E+01-1.57669E+00 9.68809E-04 1.13607E+00 2.48752E-13-3.67519E-13
 -1      2756 2.31525E+01-1.53672E+00-1.60803E-02 2.00951E-01 3.06027E-13-1.87315E-13
 -1      2757 2.29468E+01-1.40973E+00 1.46856E-02-1.47634E-01 2.35392E-13-1.35256E-13
 -1      2758 2.34808E+01-1.88766E+00-7.55090E-03 1.51500E-01 3.29769E-13-1.16754E-13
 -1      2759 2.24982E+01-1.23256E+00-1.26003E-02-4.56329E-01 1.53779E-13-7.08270E-14
 -1      2760 2.22731E+01-1.01089E+00 1.48219E-02-6.99583E-01 2.28706E-13-1.18087E-14
 -1      2761 2.25889E+01-1.60051E+00-1.47405E-02-5.97169E-01 2.74122E-13 2.53666E-13
 -1      2762 2.19162E+01-7.99623E-01-7.36517E-03-8.64356E-01 2.17901E-13-9.87818E-14
 -1      2763 2.17088E+01-5.86132E-01 1.13625E-02-1.00238E+00 2.65788E-13-6.59887E-14
 -1      2764 2.18283E+01-1.08515E+00-1.43488E-02-1.03422E+00 2.03183E-13 1.86882E-13
 -1      2765 2.14536E+01-4.04908E-01-3.36999E-03-1.06229E+00 1.82508E-13-1.16515E-13
 -1      2766 2.12775E+01-2.40327E-01 7.38945E-03-1.11691E+00 8.40827E-14-9.40524E-14
 -1      2767 2.12623E+01-5.87443E-01-1.12610E-02-1.22746E+00 1.74381E-13-2.54950E-14
 -1      2768 2.11070E+01-1.10252E-01-6.88650E-04-1.10953E+00-1.08744E-14-5.16152E-14
 -1      2769 2.09623E+01-1.16874E-03 4.18371E-03-1.10695E+00-3.09453E-14-1.17084E-13
 -1      2770 2.08725E+01-2.01709E-01-7.59097E-03-1.25673E+00 1.42306E-14-2.82402E-13
 -1      2771 2.08517E+01 8.02481E-02 8.97764E-04-1.06119E+00-1.75859E-13 3.17135E-14
 -1      2772 2.07335E+01 1.42963E-01 1.98385E-03-1.02366E+00-1.72849E-13 7.73138E-15
 -1      2773 2.06146E+01 5.54321E-02-4.73504E-03-1.18852E+00-6.25885E-14-8.36296E-14
 -1      2774 2.06621E+01 1.86522E-01 1.78986E-03-9.58790E-01-3.49434E-14 1.49400E-13
 -1      2775 2.05651E+01 2.15652E-01 6.21593E-04-9.02964E-01 8.58047E-14 2.05715E-13
 -1      2776 2.04454E+01 2.04883E-01-2.81696E-03-1.06825E+00-4.13239E-14 2.17002E-13
 -1      2777 2.05182E+01 2.33032E-01 2.22721E-03-8.31367E-01 1.45257E-14 2.10100E-14
 -1      2778 2.04382E+01 2.40165E-01-1.47018E-04-7.68718E-01 8.34761E-14-1.61688E-14
 -1      2779 2.03324E+01 2.75882E-01-1.65988E-03-9.25373E-01-4.54364E-14 1.88979E-13
 -1      2780 2.04063E+01 2.41078E-01 2.36487E-03-6.98049E-01 1.18415E-13-1.39148E-13
 -1      2781 2.03402E+01 2.35121E-01-5.25495E-04-6.35902E-01-1.29391E-13-1.04257E-13
 -1      2782 2.02544E+01 2.95081E-01-1.01493E-03-7.78493E-01-2.74638E-14-1.45171E-13
 -1      2783 2.03176E+01 2.26689E-01 2.30818E-03-5.70585E-01-3.02934E-13-5.85626E-14
 -1      2784 2.02632E+01 2.13876E-01-6.66056E-04-5.13203E-01-1.79824E-13-1.33247E-13
 -1      2785 2.01980E+01 2.83105E-01-6.75176E-04-6.38878E-01-1.37285E-13-7.94286E-14
 -1      2786 2.02464E+01 2.00922E-01 2.13128E-03-4.55484E-01-4.90297E-14-2.71201E-13
 -1      2787 2.02022E+01 1.85326E-01-6.71863E-04-4.04994E-01 4.60120E-14-3.22329E-13
 -1      2788 2.01553E+01 2.54500E-01-5.02145E-04-5.12794E-01-2.06204E-13-9.31608E-14
 -1      2789 2.01892E+01 1.70914E-01 1.88863E-03-3.55680E-01 7.49051E-14-4.05749E-13
 -1      2790 2.01536E+01 1.55027E-01-6.08804E-04-3.12807E-01 1.30483E-14-2.85914E-13
 -1      2791 2.01220E+01 2.18864E-01-4.11924E-04-4.03113E-01-1.50045E-14-2.53705E-13
 -1      2792 2.01433E+01 1.40972E-01 1.61898E-03-2.71797E-01-1.29334E-14-2.62794E-13
 -1      2793 2.01151E+01 1.26206E-01-5.17248E-04-2.36391E-01-1.16370E-13-2.21579E-13
 -1      2794 2.00953E+01 1.82138E-01-3.57356E-04-3.10473E-01 2.99153E-14-4.56260E-13
 -1      2795 2.01068E+01 1.13492E-01 1.34835E-03-2.03053E-01-6.30995E-14-9.46166E-14
 -1      2796 2.00847E+01 1.00546E-01-4.20652E-04-1.74476E-01 1.96829E-13-3.37125E-15
 -1      2797 2.00738E+01 1.47731E-01-3.15427E-04-2.34117E-01 5.32801E-14-1.82730E-13
 -1      2798 2.00780E+01 8.96186E-02 1.09404E-03-1.47912E-01 2.76889E-13-1.44091E-14
 -1      2799 2.00610E+01 7.87575E-02-3.29248E-04-1.25292E-01 1.76003E-13 7.54017E-14
 -1      2800 2.00562E+01 1.17376E-01-2.74392E-04-1.72506E-01 2.01043E-13 6.97839E-14
 -1      2801 2.00555E+01 6.97611E-02 8.75873E-04-1.04490E-01 1.32261E-13-2.94794E-14
 -1      2802 2.00426E+01 6.09075E-02-2.37641E-04-8.68568E-02 1.21087E-13-3.83851E-14
 -1      2803 2.00420E+01 9.17611E-02-2.23791E-04-1.23735E-01 1.18594E-13-1.36556E-13
 -1      2804 2.00379E+01 5.35501E-02 6.40150E-04-7.09258E-02 6.94852E-14 9.88633E-14
 -1      2805 2.00283E+01 4.68223E-02-5.41097E-05-5.74982E-02 2.02827E-13 1.81273E-13
 -1      2806 2.00301E+01 7.05468E-02-2.74320E-04-8.57300E-02 1.90788E-13 1.74948E-13
 -1      2807 2.00321E+01 1.63336E-01 1.99509E-03-3.96423E-01 1.07231E-13-2.36628E-14
 -1      2808 2.00109E+01 1.80977E-01 2.78567E-03-3.34890E-01 1.57855E-13 1.54609E-14
 -1      2809 2.46720E+01-4.81946E+00 6.73470E-02-3.38351E+00 5.30839E-13-1.15005E-13
 -1      2810 2.65759E+01-4.22228E+00-1.06367E-01-2.11018E+00 3.59504E-13-3.25642E-13
 -1      2811 2.00201E+01 2.06733E-01 1.31821E-03-2.59011E-01 2.04441E-13 5.16615E-15
 -1      2812 2.00286E+01 2.46316E-01 4.89709E-03-1.77790E-01 2.59907E-13 4.39513E-14
 -1      2813 2.00935E+01 2.54937E-01-2.82541E-03-2.95723E-01 1.99530E-13-5.59470E-15
 -1      2814 2.01594E+01 1.59737E-01 3.02413E-03-6.19846E-01 7.45342E-14-3.71183E-14
 -1      2815 2.00947E+01 1.52649E-01 2.96616E-04-5.67928E-01 7.93510E-14-4.20266E-14
 -1      2816 2.02655E+01 1.81615E-01 3.43591E-03-7.34010E-01 9.53584E-14-2.57866E-14
 -1      2817 2.01830E+01 1.68511E-01-3.95146E-04-6.78217E-01 8.33334E-14-2.47275E-14
 -1      2818 2.01488E+01 2.10724E-01-1.44195E-03-6.91089E-01 6.32289E-14-7.95463E-14
 -1      2819 2.03970E+01 2.08689E-01 3.74473E-03-8.60321E-01 1.65323E-13-1.59649E-17
 -1      2820 2.02976E+01 1.93841E-01-8.21953E-04-7.98196E-01 1.48373E-13 9.99395E-15
 -1      2821 2.02097E+01 2.39008E-01-1.17564E-03-8.19309E-01 1.23204E-13-5.87516E-14
 -1      2822 2.05548E+01 2.30717E-01 3.86809E-03-1.00040E+00 1.21679E-13-1.22068E-14
 -1      2823 2.04380E+01 2.19833E-01-9.77506E-04-9.32262E-01 1.58692E-13 1.61676E-14
 -1      2824 2.02883E+01 2.71147E-01-1.05623E-03-9.60705E-01 1.69895E-13-2.66101E-14
 -1      2825 2.07424E+01 2.32802E-01 3.67097E-03-1.14951E+00-2.56685E-15-3.12996E-14
 -1      2826 2.06071E+01 2.34306E-01-7.73819E-04-1.07932E+00 6.09031E-14-8.96700E-15
 -1      2827 2.03862E+01 2.93088E-01-1.18768E-03-1.11682E+00 1.02991E-13-4.13291E-14
 -1      2828 2.09680E+01 1.92788E-01 2.95653E-03-1.29416E+00-3.30198E-14-9.06993E-14
 -1      2829 2.08119E+01 2.19169E-01-1.38193E-05-1.23099E+00-2.25941E-14-7.27679E-14
 -1      2830 2.05097E+01 2.84410E-01-1.78299E-03-1.28304E+00 1.77063E-14-1.99292E-14
 -1      2831 2.12473E+01 7.94093E-02 1.43846E-03-1.40858E+00-7.66935E-14-2.03152E-15
 -1      2832 2.10664E+01 1.48003E-01 1.62738E-03-1.36852E+00-5.66312E-14-6.04529E-14
 -1      2833 2.06731E+01 2.15277E-01-3.20773E-03-1.44642E+00-3.68767E-14-9.96196E-14
 -1      2834 2.16064E+01-1.46037E-01-1.29668E-03-1.45022E+00-9.06600E-14 7.13310E-14
 -1      2835 2.13952E+01-1.45784E-02 4.58704E-03-1.45836E+00-8.96379E-14 5.44441E-14
 -1      2836 2.09041E+01 4.47730E-02-5.98045E-03-1.58206E+00-1.11194E-13 3.31912E-14
 -1      2837 2.20824E+01-5.18166E-01-5.85935E-03-1.35534E+00-1.07169E-13 2.14820E-13
 -1      2838 2.18357E+01-3.07485E-01 9.21746E-03-1.44648E+00-1.00564E-13 1.32317E-13
 -1      2839 2.12493E+01-2.75087E-01-1.05776E-02-1.64733E+00-1.52812E-13 1.10916E-13
 -1      2840 2.27135E+01-1.03317E+00-1.23746E-02-1.03775E+00-1.29508E-13 3.81263E-13
 -1      2841 2.24337E+01-7.52902E-01 1.52635E-02-1.25268E+00-1.13968E-13 2.97915E-13
 -1      2842 2.17771E+01-7.81531E-01-1.69683E-02-1.57318E+00-1.87917E-13 2.07907E-13
 -1      2843 2.35028E+01-1.57916E+00-1.93896E-02-4.06457E-01-2.16585E-13 4.04673E-13
 -1      2844 2.32165E+01-1.30532E+00 2.07710E-02-7.74399E-01-1.49350E-13 3.93563E-13
 -1      2845 2.25632E+01-1.44810E+00-2.22545E-02-1.25440E+00-1.63040E-13 3.04686E-13
 -1      2846 2.43626E+01-1.84592E+00-2.14804E-02 5.68685E-01-1.90544E-13 4.69540E-13
 -1      2847 2.41275E+01-1.76705E+00 1.81623E-02 7.28931E-02-2.84660E-13 3.97099E-13
 -1      2848 2.36362E+01-2.08803E+00-2.05102E-02-5.61190E-01-2.16677E-13 3.52674E-13
 -1      2849 2.50506E+01-1.33146E+00-1.22192E-02 1.69841E+00 3.12025E-14 5.14323E-13
 -1      2850 2.49395E+01-1.73466E+00-1.28202E-02 1.21980E+00-5.06422E-14 4.99442E-13
 -1      2851 2.48386E+01-2.24895E+00-2.03319E-02 5.77412E-01-1.33693E-13 3.92398E-13
 -1      2852 2.52114E+01 2.84669E-01-3.62044E-03 2.38643E+00 2.94806E-13 4.67602E-13
 -1      2853 2.52893E+01-6.74580E-01-6.09853E-02 2.24847E+00 1.50660E-13 4.98030E-13
 -1      2854 2.58411E+01-1.30013E+00-2.99474E-03 1.86562E+00 8.48956E-14 5.46460E-13
 -1      2855 2.48611E+01 2.40190E+00-2.23219E-02 1.82228E+00 5.62467E-13 3.17961E-13
 -1      2856 2.50471E+01 1.36949E+00-9.35684E-02 2.31181E+00 4.44818E-13 3.68792E-13
 -1      2857 2.60950E+01 9.39061E-01-4.63592E-02 2.50233E+00 4.10762E-13 4.58841E-13
 -1      2858 2.45963E+01 3.36315E+00-6.47535E-02-3.28007E-02 5.04215E-13-3.92733E-14
 -1      2859 2.46604E+01 3.13827E+00-7.43580E-02 8.96559E-01 5.79946E-13 1.81919E-13
 -1      2860 2.58339E+01 3.39999E+00-7.57217E-02 1.50599E+00 6.82426E-13 1.27169E-13
 -1      2861 2.48485E+01 2.23715E+00-1.00683E-01-1.90164E+00 4.50778E-13-1.94700E-13
 -1      2862 2.47209E+01 3.04313E+00-3.07457E-02-1.17150E+00 4.96540E-13-1.21313E-13
 -1      2863 2.57283E+01 3.97741E+00-8.92765E-02-6.89829E-01 5.92318E-13-7.08201E-14
 -1      2864 2.52608E+01 1.06278E-01-7.64977E-02-2.45495E+00 2.29818E-13-2.53904E-13
 -1      2865 2.51208E+01 1.19468E+00-4.33697E-03-2.34667E+00 3.54598E-13-2.52466E-13
 -1      2866 2.60157E+01 2.05417E+00-5.50959E-02-2.34128E+00 4.14099E-13-2.27686E-13
 -1      2867 2.51806E+01-1.42832E+00-2.47540E-02-1.72144E+00 4.80870E-14-2.78570E-13
 -1      2868 2.51982E+01-7.86098E-01-5.84015E-03-2.10472E+00 2.12844E-13-3.39870E-13
 -1      2869 2.60505E+01-4.69385E-01-8.38961E-03-2.30442E+00 2.62138E-13-3.32914E-13
 -1      2870 2.45158E+01-1.83475E+00 9.61893E-03-5.50320E-01-7.91958E-14-2.79369E-13
 -1      2871 2.46933E+01-1.75099E+00-2.19040E-02-1.06482E+00-3.45151E-14-2.40860E-13
 -1      2872 2.53233E+01-2.01078E+00-1.03161E-02-1.13079E+00 3.35799E-15-2.38325E-13
 -1      2873 2.36095E+01-1.51471E+00 2.02122E-02 4.40411E-01-5.10369E-14-2.79498E-13
 -1      2874 2.38788E+01-1.74047E+00-2.33358E-02 1.38258E-02-8.90676E-14-2.81443E-13
 -1      2875 2.41555E+01-2.23556E+00-1.89711E-02 1.19110E-01-7.67834E-14-2.19370E-13
 -1      2876 2.27665E+01-9.59382E-01 1.76724E-02 1.05530E+00 1.66983E-14-6.23943E-14
 -1      2877 2.30490E+01-1.25380E+00-1.60833E-02 7.83022E-01-7.76215E-14-1.57660E-13
 -1      2878 2.29930E+01-1.71715E+00-2.32563E-02 9.84330E-01-1.31039E-13-2.21343E-13
 -1      2879 2.21014E+01-4.53252E-01 1.16947E-02 1.34224E+00 1.39748E-13 1.32317E-13
 -1      2880 2.23566E+01-6.98921E-01-8.69821E-03 1.21051E+00 1.95558E-13 6.64396E-14
 -1      2881 2.20912E+01-1.02137E+00-1.95893E-02 1.43145E+00 4.74100E-15 1.38523E-13
 -1      2882 2.16124E+01-9.30262E-02 6.57924E-03 1.40395E+00-1.43830E-13 1.90628E-13
 -1      2883 2.18297E+01-2.58597E-01-3.15324E-03 1.37330E+00 6.16688E-14 1.76854E-13
 -1      2884 2.14703E+01-4.33499E-01-1.30405E-02 1.57894E+00 6.86079E-14 4.82595E-13
 -1      2885 2.12558E+01 1.23967E-01 3.07500E-03 1.33143E+00-2.18142E-13 2.17931E-13
 -1      2886 2.14386E+01 2.92556E-02 3.13053E-04 1.36375E+00-2.21777E-13 1.86853E-13
 -1      2887 2.10655E+01-3.36048E-02-7.67950E-03 1.54549E+00-1.74009E-13 2.60685E-13
 -1      2888 2.09897E+01 2.32653E-01 9.84032E-04 1.18920E+00-1.12350E-13 2.05004E-13
 -1      2889 2.11438E+01 1.88849E-01 2.29347E-03 1.25503E+00-1.96511E-13 2.00885E-13
 -1      2890 2.08021E+01 1.98697E-01-4.16842E-03 1.41402E+00-1.90749E-13 2.51190E-13
 -1      2891 2.07839E+01 2.70653E-01-1.00565E-04 1.01929E+00 1.33674E-13 2.87499E-13
 -1      2892 2.09142E+01 2.58894E-01 3.27903E-03 1.09866E+00 5.49934E-15 2.69904E-13
 -1      2893 2.06239E+01 3.09218E-01-2.22460E-03 1.23759E+00-6.69850E-14 1.87005E-13
 -1      2894 2.06198E+01 2.67413E-01-5.72246E-04 8.47043E-01 2.28114E-13 2.48774E-13
 -1      2895 2.07295E+01 2.73703E-01 3.63754E-03 9.27605E-01 3.27954E-13 4.07750E-13
 -1      2896 2.04954E+01 3.42166E-01-1.26379E-03 1.04849E+00 1.43917E-13 1.84068E-13
 -1      2897 2.04866E+01 2.42933E-01-7.08533E-04 6.86546E-01 4.49001E-14 3.25669E-13
 -1      2898 2.05781E+01 2.58059E-01 3.60236E-03 7.61429E-01 1.70583E-13 4.11039E-13
 -1      2899 2.03965E+01 3.30708E-01-8.44410E-04 8.65545E-01 1.55128E-13 3.42562E-13
 -1      2900 2.03777E+01 2.09620E-01-6.79771E-04 5.44631E-01 1.03814E-13 2.58974E-13
 -1      2901 2.04531E+01 2.27995E-01 3.33601E-03 6.10556E-01 1.03901E-14 2.54137E-13
 -1      2902 2.03169E+01 2.96953E-01-6.84665E-04 6.98942E-01 5.97494E-14 2.34324E-13
 -1      2903 2.02892E+01 1.74614E-01-5.81905E-04 4.23644E-01-2.36054E-13 4.00284E-13
 -1      2904 2.03503E+01 1.93097E-01 2.95130E-03 4.79550E-01 7.16244E-14 3.90916E-13
 -1      2905 2.02511E+01 2.54484E-01-6.26396E-04 5.53344E-01-1.13103E-14 1.85441E-13
 -1      2906 2.02179E+01 1.41704E-01-4.65612E-04 3.23301E-01-3.67294E-14 2.82681E-13
 -1      2907 2.02666E+01 1.58681E-01 2.52328E-03 3.69407E-01-2.92899E-13 2.29936E-13
 -1      2908 2.01966E+01 2.11069E-01-5.93650E-04 4.29959E-01-1.52397E-13 4.42859E-13
 -1      2909 2.01612E+01 1.12656E-01-3.56131E-04 2.41897E-01 5.20245E-14 1.70212E-13
 -1      2910 2.01994E+01 1.27420E-01 2.09842E-03 2.79090E-01 1.06200E-13 3.21771E-13
 -1      2911 2.01516E+01 1.70787E-01-5.56324E-04 3.27925E-01-8.52232E-14 4.70251E-13
 -1      2912 2.01168E+01 8.80996E-02-2.61611E-04 1.77080E-01 2.19439E-14 2.15288E-13
 -1      2913 2.01462E+01 1.00439E-01 1.70256E-03 2.06538E-01 8.75750E-14 1.70158E-13
 -1      2914 2.01149E+01 1.35494E-01-5.08488E-04 2.45264E-01 8.51074E-14 4.10162E-13
 -1      2915 2.00825E+01 6.80337E-02-1.87984E-04 1.26258E-01-9.74865E-14 3.37844E-13
 -1      2916 2.01048E+01 7.80334E-02 1.34999E-03 1.49248E-01-8.73952E-14 2.29001E-13
 -1      2917 2.00853E+01 1.05809E-01-4.52594E-04 1.79489E-01-1.08966E-13 2.73438E-13
 -1      2918 2.00565E+01 5.20841E-02-1.05874E-04 8.69770E-02 3.07323E-15 5.10355E-13
 -1      2919 2.00730E+01 5.99616E-02 1.04820E-03 1.04664E-01-4.10482E-14 5.63473E-13
 -1      2920 2.00618E+01 8.16329E-02-3.77310E-04 1.27936E-01-1.76068E-13 3.33889E-13
 -1      2921 2.00372E+01 3.98336E-02 1.36217E-04 5.71354E-02-5.28913E-15 6.23083E-13
 -1      2922 2.00489E+01 4.56246E-02 7.81595E-04 7.03616E-02 5.50086E-14 6.25179E-13
 -1      2923 2.00432E+01 6.24612E-02-3.06482E-04 8.81447E-02-1.19719E-13 3.57859E-13
 -1      2924 2.00230E+01 3.32204E-02 1.85021E-04 3.81692E-02-2.02123E-13 6.18439E-13
 -1      2925 2.00313E+01 3.79764E-02 5.66766E-04 4.83934E-02-1.18501E-13 6.26267E-13
 -1      2926 2.00285E+01 5.03575E-02-5.49449E-04 6.16515E-02-2.18204E-13 4.34225E-13
 -1      2927 2.00178E+01 4.38497E-02-4.69918E-04 4.46728E-02-2.18432E-13 2.84432E-13
 -1      2928 1.99670E+01 1.20724E-01-3.07069E-04 5.48628E-03-1.40341E-13-2.79861E-13
 -1      2929 1.99685E+01 1.19280E-01-1.55097E-04 1.46589E-02-1.82750E-13-1.50127E-13
 -1      2930 2.00259E+01 4.25804E-02 4.80802E-04-4.90020E-02 2.10012E-13 1.61170E-13
 -1      2931 2.00206E+01 3.84848E-02 5.46808E-05-4.16914E-02 1.03516E-13 2.47062E-13
 -1      2932 2.00218E+01 5.55565E-02-3.19802E-04-6.05245E-02 1.77956E-13 3.93551E-13
 -1      2933 1.99808E+01 1.02306E-01-5.06666E-04 4.08978E-02-5.46075E-14 2.44306E-13
 -1      2934 1.99872E+01 9.55921E-02 1.79174E-04 4.57816E-02-6.02626E-14-1.58278E-13
 -1      2935 1.99686E+01 1.18922E-01-1.46364E-04-1.50704E-02-3.29249E-14-4.87423E-13
 -1      2936 1.99670E+01 1.20541E-01-3.13853E-04-5.93217E-03-1.08422E-13-3.87137E-13
 -1      2937 1.99592E+01 1.36964E-01 5.42310E-04-3.42218E-04-4.29030E-14-3.68140E-13
 -1      2938 1.99713E+01 1.14969E-01-4.35763E-04 2.52166E-02-2.06843E-13-1.68688E-13
 -1      2939 1.99756E+01 1.10644E-01 2.40351E-05 3.28994E-02-6.87442E-14 4.55198E-14
 -1      2940 1.99729E+01 1.21065E-01 4.47299E-04 4.30728E-02-2.12123E-13 1.12396E-14
 -1      2941 1.99627E+01 1.33063E-01 5.20544E-04 2.31440E-02-7.81329E-14-2.18259E-13
 -1      2942 2.85019E+01 6.58926E+00-1.67548E-01 9.24772E-02-8.68555E-13-1.00555E-13
 -1      2943 2.86711E+01 6.22181E+00-1.75345E-01-9.32819E-01-8.75161E-13 4.71845E-15
 -1      2944 1.99756E+01 1.10053E-01 3.11514E-05-3.28618E-02-1.50019E-14-3.16952E-13
 -1      2945 1.99714E+01 1.14389E-01-4.36057E-04-2.53688E-02-5.70488E-14-2.35785E-13
 -1      2946 1.99629E+01 1.32451E-01 5.15925E-04-2.35420E-02 1.62966E-14-4.11147E-13
 -1      2947 1.99871E+01 9.48204E-02 1.70156E-04-4.56278E-02 4.14193E-14-3.26785E-14
 -1      2948 1.99808E+01 1.01595E-01-5.01576E-04-4.07752E-02-1.69192E-15-9.12465E-14
 -1      2949 1.99729E+01 1.20104E-01 4.20721E-04-4.30737E-02 2.76825E-14-2.56268E-13
 -1      2950 2.00007E+01 7.47871E-02 7.29281E-05-5.08409E-02 1.26626E-13 2.98425E-13
 -1      2951 1.99939E+01 8.35089E-02-4.58540E-04-4.98083E-02 1.51954E-13 5.46797E-14
 -1      2952 1.99878E+01 1.01315E-01 2.83352E-04-5.60839E-02 1.54846E-13 6.96015E-14
 -1      2953 2.81713E+01-2.33438E+00-1.58340E-01 8.01862E-02-3.77467E-13 3.34760E-13
 -1      2954 2.70800E+01-3.64851E+00 2.35905E-02 1.37512E+00-1.90001E-13 3.35842E-13
 -1      2955 2.90945E+01-3.88412E-01-1.88839E-01-1.59428E+00 4.53450E-13-5.42011E-13
 -1      2956 2.85487E+01-2.02737E+00 1.06787E-02-7.39364E-01 2.33806E-13-5.03764E-13
 -1      2957 2.87073E+01 4.99946E+00-1.91542E-01-1.58618E+00-8.89344E-13 1.11459E-13
 -1      2958 2.89278E+01 3.47259E+00-1.18116E-01-1.96129E+00-8.22897E-13 2.44749E-13
 -1      2959 2.03405E+01 1.73474E+00-9.72640E-03-1.27316E+00-4.39551E-13-5.19031E-13
 -1      2960 2.03138E+01 1.35877E+00-6.35897E-03-9.69379E-01-4.06442E-13-4.72066E-13
 -1      2961 2.03603E+01 1.52004E+00-1.54192E-03 1.21183E+00 5.91153E-13 8.85698E-14
 -1      2962 6.48453E+00-6.66610E-01 1.12069E-01 9.92711E-01-1.72071E-13 5.07566E-13
 -1      2963 6.47610E+00-6.63692E-01 1.63548E-01-1.29357E+00-1.43319E-13 4.36207E-13
 -1      2964 2.90851E+01 4.68641E+00-1.28640E-01 1.78220E+00-6.32716E-13-4.54886E-13
 -1      2965 2.85713E+01 5.99499E+00-2.17650E-01 1.06661E+00-7.46070E-13-2.39857E-13
 -1      2966 2.00513E+01 2.97142E-01 4.46614E-04-7.55232E-02 3.04081E-13 3.37948E-14
 -1      2967 2.00963E+01 3.70945E-01 7.62542E-03 4.16009E-02 3.26784E-13 7.05400E-14
 -1      2968 2.01993E+01 5.44091E-01-2.28322E-03 1.59229E-01 3.72972E-13-1.40614E-14
 -1      2969 2.01309E+01 3.56556E-01-3.12498E-03-1.04678E-01 2.99793E-13-1.26699E-14
 -1      2970 9.63630E+00-1.68295E+00 5.72531E-02 4.52171E+00-2.50980E-13 1.41720E-13
 -1      2971 7.80278E+00-8.92243E-01 1.81271E-01 2.77581E+00-2.97817E-13 4.43229E-13
 -1      2972 2.00804E+01 1.51029E-01 2.54641E-03-5.11127E-01 1.00593E-13-5.54687E-14
 -1      2973 2.00355E+01 1.53913E-01 1.31298E-03-4.58183E-01 1.06278E-13-5.54839E-14
 -1      2974 2.00870E+01 2.07682E-01-2.30134E-03-4.43139E-01 1.35999E-13-6.83765E-14
 -1      2975 2.01069E+01 1.96959E-01-1.82284E-03-5.69466E-01 8.92069E-14-3.18519E-14
 -1      2976 2.03474E+01 1.07312E+00 4.93470E-03-7.58652E-01-3.63089E-13-4.27838E-13
 -1      2977 2.02635E+01 8.44529E-01-4.40230E-03-5.06789E-01-3.22013E-13-4.27302E-13
 -1      2978 2.02928E+01 9.40324E-01 1.66158E-03-4.53668E-01-2.97022E-13-4.33056E-13
 -1      2979 2.03036E+01 1.43049E+00 1.65618E-03-8.42952E-01-3.55515E-13-4.86069E-13
 -1      2980 1.99220E+01 2.66899E+00-7.66673E-03 7.41958E-01 4.62456E-13-4.58069E-13
 -1      2981 1.98717E+01 2.76709E+00-6.52693E-03 5.99626E-01 4.06384E-13-5.13630E-13
 -1      2982 1.99811E+01 2.48725E+00 4.78807E-03 4.69714E-01 3.71065E-13-4.95507E-13
 -1      2983 2.00774E+01 2.27206E+00 5.96695E-03 6.82567E-01 4.34754E-13-3.87206E-13
 -1      2984 1.87831E+01-4.77438E+00 1.49827E-01-5.91813E+00 7.28209E-13 1.55792E-13
 -1      2985 2.18113E+01-5.31205E+00-6.79184E-02-5.11026E+00 6.74266E-13 2.89354E-13
 -1      2986 1.98662E+01 2.77568E+00-6.37090E-03-5.89675E-01-6.46225E-14-7.18484E-13
 -1      2987 1.99156E+01 2.68008E+00-7.31883E-03-7.32054E-01-1.35535E-13-7.22093E-13
 -1      2988 2.88775E+01 6.29219E+00-1.86036E-01-2.62497E-01 9.56596E-13 3.58906E-13
 -1      2989 2.97696E+01 5.94628E+00-1.33896E-01-1.23446E+00 9.01834E-13 1.87905E-14
 -1      2990 2.90183E+01 5.07342E+00-1.35590E-01 1.56563E+00 9.34419E-13 7.34142E-13
 -1      2991 2.91042E+01 6.10559E+00-1.90965E-01 7.29586E-01 9.97202E-13 6.00849E-13
 -1      2992 2.79426E+01 5.65215E+00-1.45102E-01 5.23702E-02 8.29808E-13 4.02798E-13
 -1      2993 1.60110E+01-4.12668E+00 3.10452E-02 6.19742E+00-2.85078E-13 1.76192E-13
 -1      2994 1.28774E+01-2.81496E+00 1.58943E-01 5.62100E+00-2.54810E-13 1.63342E-13
 -1      2995 2.01038E+01 2.55355E+00-2.31182E-03-1.40301E+00-3.85813E-13-6.48016E-13
 -1      2996 1.69791E+01-4.67181E+00 1.13084E-01-6.14508E+00-4.24022E-13-6.33396E-13
 -1      2997 2.04826E+01-5.36835E+00-8.15396E-03-5.66550E+00-3.58769E-13-6.68725E-13
 -1      2998 2.80667E+01-3.38826E+00 3.80166E-02-6.81166E-01 4.18068E-16 2.47302E-13
 -1      2999 2.87320E+01-2.10329E+00-1.79220E-01 5.10937E-01 1.63810E-13 4.03649E-13
 -1      3000 2.00162E+01 4.59982E-02-1.68182E-05-4.44090E-02 8.25863E-14 3.40935E-13
 -1      3001 2.35886E+01-5.26466E+00 8.91280E-02-4.22412E+00-2.58085E-13-3.50109E-13
 -1      3002 2.60621E+01-4.77786E+00-1.21945E-01-2.62352E+00-1.02342E-13-2.55351E-15
 -1      3003 2.24132E+01-5.06506E+00 6.45007E-02-4.41387E+00-3.60822E-13-4.09402E-13
 -1      3004 6.43560E+00-7.46007E-01 1.61253E-01-1.17482E+00-5.01925E-14-1.20312E-12
 -1      3005 7.38201E+00-1.22431E+00 1.80245E-01-3.20392E+00-2.20463E-13-1.09002E-12
 -1      3006 7.23163E+00-1.47813E+00 1.03854E-01 3.58793E+00 2.98692E-13-9.05054E-13
 -1      3007 6.13341E+00-8.75520E-01 1.43294E-01 1.14013E+00 2.22508E-13-1.22255E-12
 -1      3008 1.27228E+01-3.42731E+00 3.29861E-02 6.27851E+00 4.19734E-13-5.20528E-13
 -1      3009 9.79188E+00-2.25874E+00 1.70435E-01 5.11885E+00 4.21163E-13-6.77625E-13
 -1      3010 2.24358E+01-5.40846E+00-7.02514E-02 4.72740E+00-3.04562E-13-7.74797E-14
 -1      3011 1.92440E+01-4.90935E+00 1.08266E-01 5.62201E+00-3.53398E-13-2.35402E-14
 -1      3012 1.93766E+01-5.10306E+00-3.63816E-02 5.94376E+00 3.25365E-13-1.26663E-13
 -1      3013 1.62960E+01-4.31525E+00 1.45448E-01 6.27309E+00 5.00683E-13-3.62009E-13
 -1      3014 2.90705E+01 1.53210E+00-1.96593E-01-1.66416E+00-7.25781E-13 3.51774E-13
 -1      3015 2.88756E+01-2.51544E-01-6.73438E-02-1.14089E+00-4.99795E-13 3.66707E-13
 -1      3016 2.91577E+01 2.24566E-01-4.72643E-02 1.86312E+00 3.78184E-13 6.32772E-13
 -1      3017 2.88540E+01 2.45077E+00-1.90616E-01 2.27143E+00 7.03215E-13 7.20174E-13
 -1      3018 2.94715E+01 1.07694E+00-6.93150E-02 1.44736E+00-3.06449E-13-4.87582E-13
 -1      3019 2.93970E+01 2.77999E+00-1.96402E-01 1.79233E+00-4.82919E-13-5.05568E-13
 -1      3020 7.24258E+00-1.39964E+00 1.33437E-01-3.40461E+00 1.25358E-13 2.76001E-13
 -1      3021 9.37670E+00-2.41747E+00 1.07573E-01-5.30189E+00 4.86500E-13 1.24761E-13
 -1      3022 2.50881E+01-4.90353E+00-1.05344E-01 3.26749E+00 1.91513E-15 1.88752E-13
 -1      3023 2.26047E+01-5.14065E+00 9.36436E-02 4.61644E+00 1.86420E-13 3.17871E-14
 -1      3024 1.18724E+01-3.18102E+00 1.62128E-01-6.00530E+00 5.93345E-13 2.39919E-13
 -1      3025 1.47290E+01-4.09487E+00-1.19767E-02-6.46981E+00 7.68718E-13 2.20879E-13
 -1      3026 1.18390E+01-2.15718E+00 1.63383E-01-5.24372E+00 5.54515E-13 1.23998E-13
 -1      3027 2.80686E+01-2.62170E+00-1.82492E-02-5.97808E-01 1.91786E-13-4.68792E-13
 -1      3028 2.90481E+01-9.87566E-01-1.52330E-01 5.18077E-01-9.93788E-14-5.44953E-13
 -1      3029 1.99764E+01 2.55180E+00-5.86558E-03-8.43717E-01-1.81599E-13-7.01722E-13
 -1      3030 2.00439E+01 2.41506E+00-6.46087E-03-9.74174E-01-2.63665E-13-6.76200E-13
 -1      3031 2.00696E+01 2.28580E+00 6.18773E-03-6.76842E-01-1.54706E-13-6.51750E-13
 -1      3032 1.99011E+01 2.65269E+00 3.92042E-03 4.58649E-03 1.63063E-13-6.18744E-13
 -1      3033 1.97708E+01 2.96633E+00-5.67011E-03-5.59123E-02 1.58871E-13-6.73031E-13
 -1      3034 1.97799E+01 2.95025E+00-5.58692E-03-2.00499E-01 1.02221E-13-6.90725E-13
 -1      3035 2.40001E+01-4.85749E+00 3.35676E-02 3.29223E+00-2.64025E-13-1.52760E-14
 -1      3036 2.35061E+01-4.80454E+00 4.85738E-02-3.67115E+00 6.35186E-13-6.92987E-14
 -1      3037 1.99878E+01 1.02389E-01 2.76563E-04 5.62799E-02-1.91391E-13-1.70698E-14
 -1      3038 1.99939E+01 8.43591E-02-4.90713E-04 4.99409E-02-2.13263E-13-2.84957E-13
 -1      3039 2.00011E+01 7.59408E-02 2.36793E-04 5.11940E-02-3.34036E-13-2.95865E-13
 -1      3040 2.69685E+01-3.46837E+00-3.72260E-02-7.76920E-01 3.24830E-13-4.96519E-13
 -1      3041 8.94722E+00-1.83686E-01 1.79157E-01 1.66572E+00-3.02550E-13 4.69610E-13
 -1      3042 2.58733E+01-4.18745E+00 8.67418E-03 1.84182E+00 2.48065E-14 3.30569E-13
 -1      3043 8.55145E+00-5.16271E-01 1.77667E-01-2.31173E+00 1.31846E-13 9.46188E-14
 -1      3044 2.66286E+01-4.12695E+00 2.70384E-03-1.39312E+00-1.17212E-13 2.22447E-13
 -1      3045 2.73546E+01 5.65685E+00-1.03067E-01 6.69309E-01-7.10015E-13-1.71731E-13
 -1      3046 2.00068E+01 6.45464E-02-4.41713E-04 5.06947E-02-3.34258E-13-3.65965E-13
 -1      3047 2.00134E+01 5.54282E-02 2.36901E-04 4.83546E-02-2.07313E-13-6.96849E-14
 -1      3048 2.00182E+01 5.94830E-02 4.62862E-04 5.65234E-02-4.69981E-13 5.49656E-14
 -1      3049 2.00041E+01 8.08569E-02 2.92485E-04 6.04117E-02-4.77859E-13-2.23172E-13
 -1      3050 2.84294E+01-3.53384E-01-7.67794E-02 1.35117E+00-1.18031E-13-4.51791E-13
 -1      3051 2.82299E+01-1.05810E+00-4.92041E-02 1.50904E+00 1.84762E-13 6.78305E-13
 -1      3052 2.78397E+01-1.46427E+00-3.20562E-02-9.65020E-01-3.48287E-13 4.44714E-13
 -1      3053 2.00115E+01 5.61442E-02 1.45119E-04-4.72042E-02 9.76399E-14 2.54410E-13
 -1      3054 2.78260E+01 2.04173E+00-7.03404E-02-2.12701E+00-6.92585E-13 2.48995E-13
 -1      3055 2.73143E+01-3.09154E+00-3.85057E-02-8.42483E-02 1.30122E-13-4.30322E-13
 -1      3056 2.15368E+01-4.77057E+00 8.51226E-02 4.69776E+00 3.75575E-13-6.66567E-15
 -1      3057 1.56098E+01-3.34885E+00 1.40748E-01 5.77017E+00 5.14783E-13-3.72952E-13
 -1      3058 1.01364E+01-1.28914E+00 1.82623E-01 4.08389E+00 3.85414E-13-7.01855E-13
 -1      3059 2.03140E+01 1.61778E+00-1.60147E-03 1.10102E+00 5.73659E-13-3.45119E-14
 -1      3060 2.81472E+01 3.28988E+00-9.82437E-02 1.99628E+00-4.32390E-13-4.69944E-13
 -1      3061 9.84400E+00-1.48906E+00 1.50185E-01-4.00143E+00-3.39381E-13-8.95284E-13
 -1      3062 2.72952E+01 4.89595E+00-1.02618E-01-1.39788E+00-7.99472E-13 5.87308E-14
 -1      3063 2.85309E+01 8.37074E-01-1.08174E-01-2.23207E+00 4.96714E-13-4.48683E-13
 -1      3064 1.97986E+01 2.91050E+00-5.98314E-03-3.24282E-01 6.19208E-14-6.70769E-13
 -1      3065 1.98274E+01 2.85823E+00-6.05755E-03-4.68946E-01-1.21309E-14-6.96183E-13
 -1      3066 1.99761E+01 2.49438E+00 4.65324E-03-4.60960E-01-3.58802E-14-6.52996E-13
 -1      3067 1.99194E+01 2.61441E+00 4.05649E-03-2.30781E-01 6.64016E-14-6.41187E-13
 -1      3068 2.01625E+01 2.21153E+00 6.04620E-04-1.14576E+00-3.24639E-13-6.28265E-13
 -1      3069 2.85923E+01 4.56138E+00-1.08956E-01-1.71144E+00 7.26447E-13-1.09933E-13
 -1      3070 1.27692E+01-1.74958E+00 1.56528E-01 4.65001E+00-2.30385E-13 2.57433E-13
 -1      3071 1.86033E+01-4.07370E+00 9.85361E-02 5.27873E+00-2.18908E-13 8.31696E-14
 -1      3072 1.56273E+01-4.01346E+00 1.11428E-01-6.10158E+00-4.31155E-13-6.74794E-13
 -1      3073 1.81378E+01-4.09550E+00 6.78476E-02-5.46685E+00-4.42896E-13-6.42229E-13
 -1      3074 1.42498E+01-3.03190E+00 8.85188E-02-5.68738E+00-4.42313E-13-6.96915E-13
 -1      3075 1.75078E+01-4.02570E+00 1.12695E-01-5.75625E+00 7.12194E-13 2.39017E-13
 -1      3076 7.94349E+00-2.91646E-01 1.79433E-01 4.77177E-02 1.01657E-13-1.05521E-12
 -1      3077 2.03049E+01 1.41031E+00 2.42527E-03 8.45265E-01 5.23591E-13-9.75164E-14
 -1      3078 2.00144E+01 6.35392E-02-1.55066E-04-5.94018E-02 6.23257E-14 8.99299E-14
 -1      3079 2.00063E+01 6.86015E-02-1.70001E-04-5.41114E-02 1.04128E-13 1.40670E-13
 -1      3080 2.00036E+01 8.41534E-02 4.05629E-04-6.36792E-02 2.02338E-13 1.88508E-13
 -1      3081 2.00185E+01 7.04457E-02 5.59324E-04-6.87083E-02 1.55258E-13 2.23420E-13
 -1      3082 2.72483E+01 1.93402E+00-6.92911E-02 2.29159E+00-2.91100E-13-5.23304E-13
 -1      3083 2.66154E+01 3.46797E+00-1.30938E-01 2.07169E+00-4.70568E-13-5.73180E-13
 -1      3084 2.02556E+01 1.54766E+00-5.92227E-03 7.20412E-01 4.61075E-13-2.19044E-13
 -1      3085 2.02077E+01 1.74610E+00-8.23882E-04 6.65766E-01 4.32575E-13-2.79565E-13
 -1      3086 1.15225E+01-1.31186E+00 1.17029E-01-4.46567E+00 4.88089E-13-6.93334E-14
 -1      3087 1.34295E+01-2.29935E+00 6.55773E-03-5.33822E+00 5.20459E-13 2.44429E-13
 -1      3088 2.02456E+01 5.49376E-01 3.34657E-03 4.88347E-02-1.64414E-13-3.89486E-13
 -1      3089 2.02157E+01 4.60085E-01-1.31806E-03 1.60387E-01-1.34597E-13-3.90638E-13
 -1      3090 2.01960E+01 3.95063E-01 2.29022E-03 2.51700E-01-1.34676E-13-3.45097E-13
 -1      3091 2.01771E+01 3.45483E-01-1.45490E-04 3.36420E-01-1.30088E-13-3.40472E-13
 -1      3092 2.02352E+01 5.12526E-01-7.36584E-04 1.86435E-01-1.18916E-13-3.41682E-13
 -1      3093 2.01530E+01 3.12121E-01 1.17028E-03 4.09774E-01-1.16729E-13-3.05887E-13
 -1      3094 2.01458E+01 2.89914E-01 7.28918E-04 4.78648E-01-8.56769E-14-2.97346E-13
 -1      3095 2.01854E+01 3.95388E-01-8.19367E-04 3.56732E-01-1.10170E-13-3.07738E-13
 -1      3096 2.01201E+01 2.77832E-01 2.32047E-04 5.42363E-01-7.88426E-14-2.82987E-13
 -1      3097 2.01234E+01 2.73715E-01 1.36718E-03 6.03759E-01-6.90851E-14-2.89199E-13
 -1      3098 2.01339E+01 3.40464E-01-7.09899E-04 4.98353E-01-7.45237E-14-3.06453E-13
 -1      3099 2.00977E+01 2.74797E-01-4.80713E-04 6.64524E-01-3.81045E-14-2.60626E-13
 -1      3100 2.01106E+01 2.80878E-01 1.84247E-03 7.24253E-01-3.31038E-14-2.53846E-13
 -1      3101 2.00837E+01 3.27049E-01-5.46277E-04 6.26328E-01-4.13675E-14-2.96649E-13
 -1      3102 2.00861E+01 2.87664E-01-9.37645E-04 7.86921E-01-6.63577E-14-2.60364E-13
 -1      3103 2.01086E+01 2.96055E-01 2.21403E-03 8.48341E-01-5.27877E-14-2.41519E-13
 -1      3104 2.00364E+01 3.37270E-01-4.38551E-04 7.52413E-01-5.01201E-14-3.47247E-13
 -1      3105 2.00876E+01 3.00483E-01-1.08800E-03 9.15914E-01-5.91797E-14-2.23803E-13
 -1      3106 2.01213E+01 3.02113E-01 2.53294E-03 9.79903E-01-7.75205E-14-2.21904E-13
 -1      3107 1.99943E+01 3.53311E-01-4.95533E-04 8.84842E-01-4.27604E-14-2.33063E-13
 -1      3108 2.01082E+01 2.94417E-01-8.31913E-04 1.05349E+00-8.26658E-14-1.81408E-13
 -1      3109 2.01570E+01 2.77942E-01 2.84123E-03 1.11820E+00-3.30685E-14-1.47100E-13
 -1      3110 1.99627E+01 3.54876E-01-8.71498E-04 1.02836E+00-3.00439E-14-1.77248E-13
 -1      3111 2.01601E+01 2.45689E-01 9.32779E-06 1.19677E+00-7.69591E-15-1.69399E-13
 -1      3112 2.02318E+01 1.96614E-01 3.15107E-03 1.25707E+00 4.12835E-14-1.58394E-13
 -1      3113 1.99523E+01 3.16814E-01-1.80101E-03 1.18415E+00-7.67181E-15-1.17334E-13
 -1      3114 2.02654E+01 1.24233E-01 1.73287E-03 1.33665E+00 5.87853E-14-1.34902E-13
 -1      3115 2.03724E+01 2.48214E-02 3.37689E-03 1.38308E+00 7.06619E-14-1.83303E-13
 -1      3116 1.99831E+01 2.07094E-01-3.63509E-03 1.34917E+00 4.07037E-14-2.04079E-13
 -1      3117 2.04603E+01-1.05466E-01 4.76483E-03 1.45484E+00 6.32987E-14-2.16461E-13
 -1      3118 2.06203E+01-2.74105E-01 3.16764E-03 1.47180E+00 3.10354E-14-1.88711E-13
 -1      3119 2.00893E+01-1.37157E-02-6.83866E-03 1.51389E+00 3.52505E-14-2.20184E-13
 -1      3120 2.07980E+01-4.77996E-01 9.54485E-03 1.51825E+00 3.37446E-14-1.06610E-13
 -1      3121 2.10317E+01-7.29423E-01 1.55765E-03 1.48146E+00 8.20444E-14-5.00295E-14
 -1      3122 2.03251E+01-3.88408E-01-1.19374E-02 1.65694E+00 8.96141E-14-2.01217E-13
 -1      3123 2.13475E+01-1.00993E+00 1.64905E-02 1.46823E+00 1.63612E-13-5.16514E-16
 -1      3124 2.16679E+01-1.33462E+00-2.86107E-03 1.34145E+00 1.68298E-13 1.15731E-13
 -1      3125 2.07685E+01-9.51840E-01-1.96433E-02 1.73349E+00 1.70266E-13-1.03596E-13
 -1      3126 2.21733E+01-1.65681E+00 2.53433E-02 1.20604E+00 1.67322E-13 1.67075E-13
 -1      3127 2.25692E+01-1.98095E+00-8.90499E-03 9.43431E-01 1.88840E-13 2.01208E-13
 -1      3128 2.15183E+01-1.69062E+00-2.77453E-02 1.65672E+00 2.34183E-13 1.70090E-15
 -1      3129 2.32649E+01-2.23499E+00 2.70880E-02 6.13552E-01 1.90817E-13 3.11066E-13
 -1      3130 2.36806E+01-2.39507E+00-2.03023E-02 1.89862E-01 2.00789E-13 3.48870E-13
 -1      3131 2.26556E+01-2.40858E+00-1.75199E-02 1.25927E+00 2.57089E-13 1.36367E-13
 -1      3132 2.44646E+01-2.31747E+00 1.71023E-02-4.08860E-01 1.34976E-13 3.93143E-13
 -1      3133 2.47700E+01-2.01142E+00-2.30289E-02-9.06812E-01 2.67069E-14 3.54451E-13
 -1      3134 2.41004E+01-2.82380E+00-2.42447E-02 4.04943E-01 1.69142E-13 2.95326E-13
 -1      3135 2.57004E+01 1.89549E+00-1.20797E-01-2.18933E+00-5.09412E-13 9.66813E-14
 -1      3136 2.56042E+01 3.18082E+00-9.06175E-02-1.96533E+00-6.63414E-13-1.35655E-14
 -1      3137 2.54109E+01 4.21992E+00-1.23706E-01-1.17432E+00-7.39353E-13-5.46577E-14
 -1      3138 2.53161E+01 4.72068E+00-1.42577E-01-3.29569E-01-6.89310E-13-1.80571E-13
 -1      3139 2.51315E+01 2.51828E+00-2.63659E-02 1.95849E+00-2.92134E-13-3.87072E-13
 -1      3140 2.52614E+01 1.18866E+00-1.05945E-01 2.26038E+00-3.21160E-13-4.00409E-13
 -1      3141 2.54457E+01-2.00366E-01-4.54034E-03 2.01115E+00-1.06873E-13-2.97918E-13
 -1      3142 2.53410E+01-1.30676E+00-3.98007E-02 1.66327E+00 1.88492E-13-2.35031E-13
 -1      3143 2.47622E+01-1.97055E+00-2.55234E-02 9.56926E-01 2.82120E-13-1.68665E-13
 -1      3144 2.44475E+01-2.30576E+00 3.20792E-03 4.57105E-01 3.32096E-13-1.64923E-13
 -1      3145 2.55163E+01-2.09010E+00-3.40221E-02 9.60333E-01 2.75443E-13-7.66418E-14
 -1      3146 2.37160E+01-2.35534E+00-9.48703E-03-1.50754E-01 4.11524E-13 2.64198E-15
 -1      3147 2.32774E+01-2.21237E+00 2.60148E-02-5.65374E-01 4.31998E-13 1.07767E-13
 -1      3148 2.41438E+01-2.77306E+00-1.05401E-03-3.30079E-01 4.32577E-13 1.29704E-13
 -1      3149 2.25855E+01-1.95712E+00-9.11753E-03-8.99491E-01 3.68324E-13 2.10171E-13
 -1      3150 2.21869E+01-1.62513E+00 2.54298E-02-1.15489E+00 3.99896E-13 3.46570E-13
 -1      3151 2.26446E+01-2.41523E+00-3.70573E-02-1.20372E+00 5.21130E-13 2.09333E-13
 -1      3152 2.16834E+01-1.30380E+00-2.25591E-03-1.28633E+00 1.79846E-13 3.07120E-13
 -1      3153 2.13642E+01-9.77042E-01 1.72978E-02-1.40766E+00 9.54192E-14 1.78939E-13
 -1      3154 2.15372E+01-1.65149E+00-2.57074E-02-1.58978E+00 3.30281E-13 1.61551E-13
 -1      3155 2.10436E+01-6.93655E-01 1.34386E-03-1.41728E+00 6.31613E-14 2.04152E-13
 -1      3156 2.08115E+01-4.37122E-01 9.97363E-03-1.44683E+00 7.57674E-14 8.03722E-14
 -1      3157 2.07805E+01-9.12196E-01-1.85393E-02-1.66860E+00 5.34275E-14 1.85904E-13
 -1      3158 2.06298E+01-2.29757E-01 2.87163E-03-1.39343E+00 6.14164E-14 5.42996E-16
 -1      3159 2.04715E+01-5.66961E-02 4.97428E-03-1.36785E+00-8.04789E-14 4.93770E-15
 -1      3160 2.03289E+01-3.39452E-01-1.14490E-02-1.58029E+00-2.48612E-14 1.48462E-13
 -1      3161 2.03786E+01 7.69437E-02 2.98650E-03-1.28790E+00-5.29334E-14 1.11716E-13
 -1      3162 2.02732E+01 1.80290E-01 1.90714E-03-1.23180E+00 1.98514E-14 2.36197E-13
 -1      3163 2.00848E+01 4.36001E-02-6.55543E-03-1.42266E+00 3.06623E-15 2.27571E-13
 -1      3164 2.02334E+01 2.55511E-01 2.77879E-03-1.14292E+00-1.16111E-14 1.72583E-13
 -1      3165 2.01628E+01 3.07427E-01 1.44058E-04-1.07232E+00-2.27764E-14 2.68154E-13
 -1      3166 1.99680E+01 2.72046E-01-3.35225E-03-1.24096E+00-8.03706E-16 2.28212E-13
 -1      3167 2.01523E+01 3.41199E-01 2.49830E-03-9.83931E-01-1.33765E-13 1.98753E-13
 -1      3168 2.01034E+01 3.58474E-01-8.07466E-04-9.09037E-01-1.09138E-13 1.35349E-13
 -1      3169 1.99241E+01 3.87069E-01-1.46366E-03-1.05742E+00-1.06387E-13 2.10762E-13
 -1      3170 2.01076E+01 3.65272E-01 2.23449E-03-8.26172E-01-1.25223E-13 6.07345E-14
 -1      3171 2.00722E+01 3.61072E-01-1.24882E-03-7.53363E-01-1.07253E-13-1.12569E-13
 -1      3172 1.99183E+01 4.25747E-01-4.49275E-04-8.83386E-01-1.49772E-13 1.03931E-13
 -1      3173 2.00824E+01 3.51795E-01 1.99899E-03-6.78647E-01-6.08845E-14-1.36417E-13
 -1      3174 2.00556E+01 3.35581E-01-1.38409E-03-6.11685E-01-1.41489E-13-1.40002E-13
 -1      3175 1.99300E+01 4.16909E-01 4.34183E-05-7.24681E-01-8.27722E-14-1.37525E-13
 -1      3176 2.00672E+01 3.17854E-01 1.77735E-03-5.46309E-01-2.19938E-13 2.90431E-16
 -1      3177 2.00461E+01 2.96026E-01-1.34440E-03-4.87140E-01-1.76489E-13-1.38640E-13
 -1      3178 1.99476E+01 3.81278E-01 2.40886E-04-5.84161E-01-6.69424E-14-1.32686E-13
 -1      3179 2.00567E+01 2.74873E-01 1.56078E-03-4.31354E-01-1.90853E-13-1.47418E-13
 -1      3180 2.00397E+01 2.51518E-01-1.21392E-03-3.80678E-01-9.48604E-14-3.38812E-13
 -1      3181 1.99652E+01 3.32937E-01 2.82950E-04-4.62788E-01-2.12030E-13-6.67309E-14
 -1      3182 2.00485E+01 2.30052E-01 1.34828E-03-3.34112E-01 7.38385E-14-3.41670E-13
 -1      3183 2.00346E+01 2.07611E-01-1.04466E-03-2.91817E-01 1.11224E-13-2.20506E-13
 -1      3184 1.99801E+01 2.80946E-01 2.52898E-04-3.60233E-01 2.89510E-14-3.37772E-13
 -1      3185 2.00413E+01 1.87624E-01 1.14198E-03-2.53716E-01 1.43942E-13-5.42152E-14
 -1      3186 2.00299E+01 1.67420E-01-8.68901E-04-2.19189E-01 1.68755E-13 9.79919E-14
 -1      3187 1.99914E+01 2.30779E-01 1.99423E-04-2.75311E-01 2.69451E-13-1.56728E-13
 -1      3188 2.00347E+01 1.49807E-01 9.44627E-04-1.88581E-01 2.13901E-13 2.39880E-13
 -1      3189 2.00253E+01 1.32417E-01-7.05784E-04-1.60955E-01 2.64065E-13 2.87774E-13
 -1      3190 1.99993E+01 1.85437E-01 1.45122E-04-2.06286E-01 2.94899E-13 2.07785E-13
 -1      3191 2.00284E+01 1.17534E-01 7.59874E-04-1.36847E-01 1.11157E-13 3.05279E-13
 -1      3192 2.00210E+01 1.03174E-01-4.81108E-04-1.15148E-01 6.70474E-14 2.10282E-13
 -1      3193 2.00043E+01 1.46320E-01 1.27922E-04-1.51248E-01 1.93432E-13 2.52379E-13
 -1      3194 2.00237E+01 9.14485E-02 6.41515E-04-9.85923E-02 1.18428E-13 2.29166E-13
 -1      3195 2.00175E+01 7.98707E-02-2.79012E-04-8.16319E-02 2.50988E-13 3.31605E-13
 -1      3196 2.00091E+01 8.77185E-02-3.32266E-04-8.01274E-02 1.15170E-13 1.18868E-13
 -1      3197 2.00076E+01 1.13681E-01-1.22058E-04-1.10326E-01 8.57247E-14 4.34447E-13
 -1      3198 2.01514E+01 3.11352E-01 2.67730E-03-8.61098E-01 1.24384E-13-8.95486E-14
 -1      3199 2.01149E+01 2.90912E-01-1.31466E-03-7.92881E-01 9.27458E-14-9.51618E-14
 -1      3200 2.01328E+01 2.75123E-01 2.27148E-03-7.26224E-01 6.73531E-14-9.50852E-14
 -1      3201 2.01063E+01 2.61577E-01-6.01967E-04-6.62746E-01 7.41712E-14-7.46359E-14
 -1      3202 2.00642E+01 3.40680E-01-2.96785E-04-7.65306E-01 8.96205E-14-1.34693E-13
 -1      3203 2.02196E+01 3.76410E-01 3.36336E-03-1.17533E+00 5.96055E-14-3.50086E-14
 -1      3204 2.01623E+01 3.65131E-01-1.98381E-03-1.09348E+00 1.06547E-13-6.20040E-14
 -1      3205 2.02804E+01 3.64040E-01 3.74119E-03-1.35358E+00-2.27188E-14 5.17734E-15
 -1      3206 2.02071E+01 3.75466E-01-1.72390E-03-1.26861E+00 3.36574E-14 5.23344E-15
 -1      3207 1.99803E+01 4.50110E-01-1.42600E-04-1.24414E+00 7.74365E-15-5.76649E-14
 -1      3208 2.03811E+01 2.78434E-01 4.22075E-03-1.53541E+00-7.55492E-14 1.20523E-14
 -1      3209 2.02819E+01 3.31977E-01-7.14873E-04-1.45507E+00-1.94511E-14 1.71535E-14
 -1      3210 1.99703E+01 4.21912E-01-1.16061E-03-1.44125E+00-2.11532E-14 2.21703E-14
 -1      3211 2.05588E+01 7.12630E-02 4.74093E-03-1.70198E+00-1.32686E-13 3.51084E-14
 -1      3212 2.04157E+01 1.93233E-01 1.57524E-03-1.64013E+00-1.16577E-13 2.62677E-14
 -1      3213 1.99993E+01 2.99706E-01-3.54909E-03-1.65371E+00-1.04327E-13 2.97131E-14
 -1      3214 2.08763E+01-3.15822E-01 4.93898E-03-1.81895E+00-1.82690E-13 8.41686E-14
 -1      3215 2.06614E+01-9.47292E-02 6.06545E-03-1.79863E+00-1.77985E-13 6.85052E-14
 -1      3216 2.01149E+01 2.48180E-02-8.14618E-03-1.87068E+00-1.76514E-13 2.38749E-14
 -1      3217 2.14247E+01-9.33674E-01 2.92852E-03-1.82462E+00-2.22511E-13 1.15590E-13
 -1      3218 2.11039E+01-5.89231E-01 1.38125E-02-1.88285E+00-2.00595E-13 8.63396E-14
 -1      3219 2.04001E+01-4.72319E-01-1.58634E-02-2.06442E+00-1.98408E-13-4.49554E-15
 -1      3220 2.23156E+01-1.76647E+00-1.57297E-03-1.60633E+00-1.97386E-13 1.68366E-13
 -1      3221 2.18616E+01-1.32121E+00 2.51509E-02-1.80180E+00-1.87414E-13 1.72288E-13
 -1      3222 2.09839E+01-1.25083E+00-2.82926E-02-2.17535E+00-2.46344E-13-2.45507E-15
 -1      3223 2.36210E+01-2.60329E+00-4.60533E-03-9.98519E-01-2.85581E-13 2.17344E-13
 -1      3224 2.30399E+01-2.20239E+00 3.81793E-02-1.39952E+00-2.37703E-13 1.99602E-13
 -1      3225 2.20362E+01-2.26010E+00-3.64710E-02-2.05250E+00-2.27397E-13 7.21298E-15
 -1      3226 2.52893E+01-2.82370E+00-2.99004E-03 1.97053E-01-1.52925E-13 3.90833E-13
 -1      3227 2.46461E+01-2.88515E+00 3.41316E-02-4.77451E-01-2.91044E-13 3.53077E-13
 -1      3228 2.37248E+01-3.16503E+00-2.44383E-02-1.40446E+00-3.26469E-13 2.14483E-13
 -1      3229 2.69941E+01 1.76703E+00-4.82844E-02 2.40694E+00 5.67296E-13 5.75574E-13
 -1      3230 2.69971E+01 1.03544E-02-1.05976E-01 2.40723E+00 3.34857E-13 6.44811E-13
 -1      3231 2.67429E+01 4.89559E+00-1.37486E-01 8.61663E-01 7.61113E-13 3.15810E-13
 -1      3232 2.67601E+01 3.93403E+00-1.38578E-01 1.79665E+00 7.69509E-13 4.28768E-13
 -1      3233 2.66257E+01 4.40448E+00-1.82244E-01-1.37155E+00 6.27567E-13-5.71314E-14
 -1      3234 2.66201E+01 5.03409E+00-1.21465E-01-2.55636E-01 7.30721E-13 9.37557E-14
 -1      3235 2.68453E+01-1.64191E+00-5.77868E-02-1.77718E+00 2.21203E-13-4.30156E-13
 -1      3236 2.70123E+01-1.89118E-01-4.07936E-02-2.24348E+00 3.34580E-13-4.24067E-13
 -1      3237 2.36782E+01-2.51837E+00 3.86159E-02 1.04143E+00-1.90186E-13-9.57693E-14
 -1      3238 2.42509E+01-2.82511E+00-2.45207E-02 5.48661E-01-1.54467E-13-1.49996E-13
 -1      3239 2.23202E+01-1.65410E+00 3.19571E-02 1.63556E+00-1.63932E-13 7.77184E-14
 -1      3240 2.28165E+01-2.11625E+00-7.78203E-03 1.36986E+00-1.27717E-13-1.00089E-14
 -1      3241 2.26880E+01-2.66781E+00-3.59846E-02 1.81780E+00-2.05253E-13-6.42715E-15
 -1      3242 2.13974E+01-8.35310E-01 1.79680E-02 1.82135E+00-5.18379E-14 1.49116E-13
 -1      3243 2.17671E+01-1.23377E+00-5.03231E-06 1.72066E+00-9.50750E-14 8.09012E-14
 -1      3244 2.13841E+01-1.62847E+00-3.35495E-02 2.10781E+00-1.23257E-13 4.47940E-14
 -1      3245 2.08422E+01-2.37324E-01 8.84586E-03 1.77901E+00 1.23245E-14 2.46001E-13
 -1      3246 2.10931E+01-5.11122E-01 3.91146E-03 1.77929E+00-1.23534E-15 2.20560E-13
 -1      3247 2.06223E+01-7.24149E-01-2.05964E-02 2.06178E+00-1.14625E-13-6.41848E-16
 -1      3248 2.05286E+01 1.36802E-01 3.35228E-03 1.62871E+00-1.95278E-13 1.98421E-13
 -1      3249 2.06933E+01-2.67062E-02 4.38183E-03 1.68547E+00 3.86551E-15 2.93900E-13
 -1      3250 2.02274E+01-1.09248E-01-1.09611E-02 1.88292E+00-3.59461E-14 1.29627E-14
 -1      3251 2.03582E+01 3.36628E-01 3.02976E-04 1.43233E+00-1.09367E-13 1.73825E-13
 -1      3252 2.04684E+01 2.54757E-01 4.10357E-03 1.51688E+00-2.17868E-13 2.57449E-13
 -1      3253 2.00491E+01 2.57437E-01-4.93239E-03 1.65551E+00-1.67802E-13 1.24164E-13
 -1      3254 2.02649E+01 4.19043E-01-1.19399E-03 1.22404E+00-7.16139E-14 1.03310E-13
 -1      3255 2.03427E+01 3.90159E-01 3.59380E-03 1.31889E+00-1.09029E-13 8.28951E-14
 -1      3256 1.99860E+01 4.41895E-01-1.74931E-03 1.42120E+00-8.91880E-14 1.55149E-13
 -1      3257 2.02100E+01 4.29756E-01-1.80251E-03 1.02206E+00 8.69029E-14 2.30778E-13
 -1      3258 2.02689E+01 4.32257E-01 3.19115E-03 1.11657E+00 3.49013E-14 1.81160E-13
 -1      3259 1.99767E+01 5.08343E-01-2.10462E-04 1.19706E+00-5.20931E-14 1.67689E-13
 -1      3260 2.01735E+01 4.00946E-01-1.93102E-03 8.36298E-01 8.64665E-14 4.11145E-13
 -1      3261 2.02206E+01 4.20097E-01 2.86718E-03 9.24343E-01 1.29334E-13 3.43257E-13
 -1      3262 1.99880E+01 5.04434E-01 4.03548E-04 9.90951E-01 5.68280E-14 2.73058E-13
 -1      3263 2.01453E+01 3.53429E-01-1.81671E-03 6.71708E-01 5.81457E-14 3.42962E-13
 -1      3264 2.01844E+01 3.79906E-01 2.57492E-03 7.50104E-01 1.95345E-13 4.10803E-13
 -1      3265 2.00037E+01 4.62724E-01 5.42495E-04 8.06774E-01 1.49404E-13 3.31341E-13
 -1      3266 2.01215E+01 2.99808E-01-1.59361E-03 5.30040E-01-2.02242E-13 4.63939E-13
 -1      3267 2.01542E+01 3.28069E-01 2.28791E-03 5.97547E-01-1.15919E-13 2.01828E-13
 -1      3268 2.00170E+01 4.03982E-01 4.76366E-04 6.46114E-01 2.02456E-14 4.32271E-13
 -1      3269 2.01003E+01 2.47230E-01-1.33656E-03 4.10999E-01-1.40090E-13 3.34636E-13
 -1      3270 2.01277E+01 2.74198E-01 1.99862E-03 4.67611E-01-7.70947E-14 4.10291E-13
 -1      3271 2.00257E+01 3.40689E-01 3.44047E-04 5.08995E-01-1.26484E-13 2.33604E-13
 -1      3272 2.00815E+01 1.99390E-01-1.08546E-03 3.13021E-01-6.63758E-14 2.84892E-13
 -1      3273 2.01042E+01 2.23534E-01 1.71270E-03 3.59464E-01-1.43540E-13 3.20712E-13
 -1      3274 2.00300E+01 2.79878E-01 2.12338E-04 3.94293E-01-7.91827E-14 1.32418E-13
 -1      3275 2.00650E+01 1.57854E-01-8.69165E-04 2.33852E-01 1.39766E-15 1.23042E-13
 -1      3276 2.00834E+01 1.78593E-01 1.43348E-03 2.71231E-01 3.25135E-14 1.20938E-13
 -1      3277 2.00308E+01 2.25139E-01 1.08311E-04 3.00101E-01-2.13859E-15 3.61630E-14
 -1      3278 2.00506E+01 1.23177E-01-6.84766E-04 1.70975E-01-1.37945E-13 1.36220E-13
 -1      3279 2.00655E+01 1.40339E-01 1.16870E-03 2.00584E-01-9.20345E-14 8.02233E-14
 -1      3280 2.00292E+01 1.77992E-01 4.44733E-05 2.24117E-01-3.10490E-14-1.47443E-13
 -1      3281 2.00384E+01 9.49276E-02-5.09312E-04 1.21762E-01-1.38213E-13 1.33154E-13
 -1      3282 2.00502E+01 1.08804E-01 9.42871E-04 1.44816E-01-1.60536E-13 1.14199E-13
 -1      3283 2.00260E+01 1.38729E-01 5.52342E-06 1.63795E-01-1.46837E-13-1.65761E-13
 -1      3284 2.00284E+01 7.28280E-02-1.23061E-04 8.41119E-02-1.88090E-13 8.98700E-14
 -1      3285 2.00373E+01 8.32497E-02 7.05901E-04 1.01523E-01-7.74537E-14 1.75196E-14
 -1      3286 2.00219E+01 1.06719E-01-2.96371E-05 1.16657E-01-6.16364E-14-1.38762E-13
 -1      3287 2.00201E+01 6.39589E-02 1.33128E-04 6.45860E-02-2.95751E-13 8.72007E-14
 -1      3288 2.00265E+01 6.82629E-02 4.72963E-04 7.44553E-02-2.85378E-13 4.37079E-14
 -1      3289 2.00170E+01 8.64224E-02-1.61343E-04 8.64505E-02-1.36104E-13-4.80351E-13
 -1      3290 2.00123E+01 7.40842E-02-4.95117E-04 6.79377E-02-4.63648E-13-4.51847E-13
 -1      3291 2.00061E+01 2.28713E+00-4.31315E-03 2.57242E-01 2.88857E-13-5.11885E-13
 -1      3292 1.99879E+01 2.32942E+00-3.76716E-03 1.48166E-01 2.18232E-13-5.53351E-13
 -1      3293 1.99455E+01 1.54031E-01-2.49963E-04-6.95078E-03-7.53610E-15-4.53499E-13
 -1      3294 1.99454E+01 1.54203E-01-2.62444E-04 5.85740E-03 1.50023E-14-3.29638E-13
 -1      3295 1.99875E+01 1.08534E-01 4.41590E-05-6.88864E-02 8.60448E-14 1.17275E-13
 -1      3296 1.99771E+01 1.18698E-01-5.88748E-04-6.43219E-02 3.63216E-14 9.67247E-15
 -1      3297 1.99525E+01 1.47180E-01-2.36105E-05-3.35085E-02 2.23666E-14-3.35520E-13
 -1      3298 1.99478E+01 1.50925E-01-4.49313E-04-2.19239E-02 1.62859E-14-2.88295E-13
 -1      3299 1.99362E+01 1.72564E-01 6.61178E-04-1.66178E-02 4.43205E-14-3.66506E-13
 -1      3300 9.13722E+00 9.92195E-02 6.10031E-02-1.34700E+00 1.15043E-13 2.28706E-14
 -1      3301 1.01276E+01-5.35261E-01 1.09994E-01-3.37761E+00 2.70346E-13-2.34326E-13
 -1      3302 2.26648E+01-4.68474E+00-7.47034E-02 3.73062E+00 3.31665E-13 2.01659E-13
 -1      3303 2.04271E+01-4.12165E+00 1.19915E-01 4.69888E+00 4.52305E-13-6.26929E-15
 -1      3304 2.23161E+01-4.42788E+00 1.21676E-01-3.95986E+00 7.68954E-13-9.01345E-14
 -1      3305 2.41335E+01-4.48969E+00-8.01536E-02-2.60861E+00 6.34215E-13-3.65940E-13
 -1      3306 2.55035E+01 4.49440E+00-9.72928E-02 8.51162E-01-5.33601E-13-3.01557E-13
 -1      3307 2.59113E+01-3.73910E+00-1.25454E-01 7.59237E-01-2.97635E-14 3.90056E-13
 -1      3308 2.47491E+01-4.28167E+00 7.60434E-02 2.21740E+00 2.23340E-13 3.06751E-13
 -1      3309 2.57366E+01-2.54839E+00-3.04161E-02-7.95321E-01-3.11348E-14-3.43661E-13
 -1      3310 2.67103E+01-2.61182E+00-6.14821E-02-7.67508E-01 5.68191E-14-4.74270E-13
 -1      3311 2.60363E+01-3.90468E+00 5.05455E-02 8.46084E-01-2.14198E-13-3.93185E-13
 -1      3312 2.52802E+01-2.83137E+00 2.40140E-02-1.55619E-01-1.94369E-13-2.97977E-13
 -1      3313 2.73666E+01 3.57192E+00-8.35734E-02-2.12483E+00 6.33563E-13-2.22405E-13
 -1      3314 1.99674E+01 1.31599E-01 1.70195E-04-5.54249E-02 2.18867E-14-2.80785E-13
 -1      3315 1.99589E+01 1.38669E-01-5.85411E-04-4.64328E-02 4.91373E-14-3.12997E-13
 -1      3316 1.99468E+01 1.61596E-01 5.87194E-04-4.62112E-02-7.49890E-14-2.57824E-13
 -1      3317 1.99658E+01 1.41334E-01 3.11075E-04-6.93366E-02 1.91642E-14-9.11477E-14
 -1      3318 2.01795E+01 3.50738E-01 3.02712E-03-1.01015E+00 1.50698E-13-6.34340E-14
 -1      3319 2.01333E+01 3.30241E-01-1.79551E-03-9.34958E-01 1.52488E-13-7.78635E-14
 -1      3320 2.00342E+01 3.83911E-01-4.48780E-06-9.07891E-01 1.12586E-13-1.24174E-13
 -1      3321 2.00052E+01 4.27411E-01 1.23948E-04-1.06638E+00 9.17921E-14-5.68702E-14
 -1      3322 2.78105E+01 3.15720E+00-1.44214E-01 2.30128E+00 8.04662E-13 5.80994E-13
 -1      3323 2.01476E+01 3.09603E-01 2.15516E-04-3.23085E-01 1.81542E-13-2.95543E-14
 -1      3324 2.01629E+01 3.54884E-01 2.83964E-03-2.36418E-01 2.30525E-13-2.05325E-14
 -1      3325 2.71141E+01-1.59648E+00-1.51248E-02 1.24119E+00 1.29972E-13-3.90812E-13
 -1      3326 2.71038E+01-1.08562E-01-1.29375E-01 1.85412E+00-5.14519E-14-3.22013E-13
 -1      3327 2.02898E+01 8.07656E-01 3.14068E-03-2.20856E-01-2.26193E-13-4.39405E-13
 -1      3328 2.02552E+01 6.61899E-01-2.59988E-03-6.91994E-02-2.01064E-13-4.40483E-13
 -1      3329 2.02764E+01 7.18370E-01-2.73815E-04-2.96512E-02-1.54924E-13-4.04038E-13
 -1      3330 2.02104E+01 1.94418E+00 9.52729E-04-9.38175E-01-2.89151E-13-5.96420E-13
 -1      3331 1.48481E+01-1.98922E+00 2.73153E-02 4.79711E+00-2.95312E-13 1.41540E-13
 -1      3332 1.23077E+01-6.86444E-01 1.28044E-01 3.76122E+00-3.86538E-13 3.35565E-13
 -1      3333 2.69757E+01-6.82552E-01-1.16267E-01-1.70997E+00-4.52444E-13 3.97883E-13
 -1      3334 2.68466E+01-2.15197E+00 2.06762E-02-8.11408E-01-2.27762E-13 3.65041E-13
 -1      3335 2.62087E+01 5.02106E-01-4.94469E-02-2.22285E+00-4.71824E-13 2.65780E-13
 -1      3336 2.12341E+01-4.59099E+00 7.83061E-02-4.56536E+00-4.47184E-13-4.09880E-13
 -1      3337 2.35036E+01-4.92025E+00-6.48517E-02-3.44610E+00-4.18700E-13-1.56809E-13
 -1      3338 1.63577E+01-3.03708E+00 1.38758E-01-5.46131E+00 6.49154E-13 1.66575E-13
 -1      3339 1.92673E+01-4.22045E+00-7.65838E-02-5.11476E+00 7.20216E-13 2.22558E-13
 -1      3340 2.03202E+01 1.04253E+00-5.45954E-04 6.02074E-01 4.64388E-13-6.65686E-14
 -1      3341 2.02890E+01 1.36615E+00 2.49115E-03 6.85026E-01 4.68253E-13-1.40895E-13
 -1      3342 2.02897E+01 1.20605E+00 5.76165E-04 4.95902E-01 4.20243E-13-1.61973E-13
 -1      3343 2.02691E+01 8.40635E-01-3.05695E-03 3.82459E-01 4.19290E-13-6.03203E-14
 -1      3344 1.19209E+01-1.38361E+00 9.23630E-03 4.52564E+00 4.24660E-13-5.40817E-13
 -1      3345 1.00057E+01-3.75495E-01 1.22723E-01 2.94499E+00 3.29358E-13-6.73003E-13
 -1      3346 2.56144E+01-4.42861E+00 6.81919E-02-1.90470E+00-2.92953E-13 1.73819E-13
 -1      3347 2.67276E+01-3.63327E+00-1.04044E-01-3.39504E-01-8.02396E-14 5.05852E-13
 -1      3348 2.04877E+01-4.26998E+00 2.72856E-03 4.63778E+00-2.25792E-13-7.43364E-14
 -1      3349 1.78496E+01-3.26288E+00 7.29017E-02 5.00312E+00-1.88377E-13 4.51306E-14
 -1      3350 1.01687E+01-6.43489E-01 8.45051E-02-3.22824E+00-1.94365E-13-8.23230E-13
 -1      3351 1.19380E+01-1.70466E+00 1.46446E-01-4.87438E+00-3.76185E-13-7.51260E-13
 -1      3352 2.74612E+01-2.62044E+00 7.27383E-04 8.76912E-01 1.09860E-14 5.57887E-13
 -1      3353 2.73738E+01-8.59386E-01-8.11218E-02 1.92602E+00 2.20726E-13 7.06095E-13
 -1      3354 2.64005E+01-1.29655E+00-2.69625E-02 1.82887E+00 9.66848E-14 5.89667E-13
 -1      3355 2.64929E+01-3.10921E+00 1.44227E-02 2.30019E-01-7.53544E-14 5.17409E-13
 -1      3356 2.74087E+01 1.71907E+00-1.57987E-01-2.47388E+00 5.03063E-13-3.19023E-13
 -1      3357 1.74065E+01-3.60549E+00-4.41503E-02 5.44066E+00 5.05637E-13-2.21816E-13
 -1      3358 1.47906E+01-2.32499E+00 1.43522E-01 5.23526E+00 4.98997E-13-4.05724E-13
 -1      3359 9.02099E+00 1.04031E-01 1.06387E-01 1.29392E+00 2.00805E-13-8.86957E-13
 -1      3360 9.21351E+00 1.37978E-01 8.71808E-02-9.23965E-01-2.13492E-14-9.12201E-13
 -1      3361 1.02188E+01-3.25659E-02 1.31855E-02 2.28896E+00-3.10616E-13 3.56437E-13
 -1      3362 9.52690E+00 3.99473E-01 1.45354E-01 4.85169E-01-1.68563E-13 2.84911E-13
 -1      3363 1.99790E+01 2.35114E+00-3.70477E-03 5.94993E-02 1.79582E-13-5.66210E-13
 -1      3364 1.99781E+01 2.35152E+00-3.91691E-03-5.15705E-02 1.25622E-13-5.86918E-13
 -1      3365 2.00818E+01 2.07491E+00 5.30860E-03 8.49776E-02 1.86426E-13-5.09112E-13
 -1      3366 2.02517E+01 1.55982E+00 7.08987E-03 4.98575E-01 3.90948E-13-2.92522E-13
 -1      3367 2.01540E+01 1.89169E+00-7.04520E-03 6.08214E-01 4.26870E-13-3.44596E-13
 -1      3368 2.01081E+01 2.03065E+00-3.41462E-03 5.20479E-01 3.80461E-13-3.85935E-13
 -1      3369 1.58936E+01-2.28041E+00 9.75993E-02-4.92707E+00 5.45883E-13 1.67824E-13
 -1      3370 2.03051E+01 1.17542E+00-4.30230E-04-5.36324E-01-2.76455E-13-4.75332E-13
 -1      3371 2.02796E+01 9.75586E-01-4.01196E-03-3.54142E-01-2.49288E-13-4.66317E-13
 -1      3372 2.02940E+01 1.03574E+00 1.38396E-03-2.89530E-01-2.27252E-13-4.68931E-13
 -1      3373 1.11168E+01 1.88063E-01 1.34236E-01 1.89595E+00 2.75276E-13-6.82621E-13
 -1      3374 1.99769E+01 1.20307E-01-5.98359E-04 6.42546E-02-2.16838E-13-7.90291E-14
 -1      3375 1.99876E+01 1.10542E-01 1.89453E-04 6.91291E-02-2.59899E-13-1.31723E-14
 -1      3376 2.01048E+01 2.03943E+00-3.05995E-03-5.14232E-01-1.17951E-13-6.06018E-13
 -1      3377 2.01519E+01 1.90071E+00-6.56240E-03-6.07147E-01-1.80451E-13-6.08338E-13
 -1      3378 2.55338E+01-2.25223E+00-5.21419E-02-8.25898E-01-1.40018E-13 3.81784E-13
 -1      3379 2.54465E+01-1.37751E+00-1.17780E-02-1.57919E+00-1.53376E-13 3.06357E-13
 -1      3380 2.45103E+01-4.32624E+00 5.04387E-02-2.28690E+00-4.13024E-13 8.60423E-14
 -1      3381 2.55282E+01-3.64203E-01-8.25328E-03-1.91534E+00-3.44988E-13 1.97935E-13
 -1      3382 2.35243E+01-4.06538E+00 1.77816E-02 2.54559E+00 3.16996E-13 2.22381E-13
 -1      3383 2.61934E+01 3.99933E-01-3.61374E-02 2.12302E+00-1.17663E-13-3.70551E-13
 -1      3384 2.56640E+01 3.63378E+00-1.19490E-01 1.68825E+00-3.79030E-13-3.52321E-13
 -1      3385 1.86160E+01-2.61196E+00-6.26774E-03 4.14106E+00-3.73986E-13-8.94770E-15
 -1      3386 1.68707E+01-2.32100E+00 8.22015E-02 4.63885E+00-3.72480E-13 1.12809E-13
 -1      3387 1.60684E+01-1.33727E+00 2.07129E-02 4.01787E+00-4.89615E-13-4.35416E-15
 -1      3388 2.02331E+01 1.63108E+00-1.76676E-03-7.28336E-01-2.77655E-13-5.51388E-13
 -1      3389 2.00957E+01 3.13439E-01-6.56048E-04-6.32046E-01 9.46938E-14-7.82384E-14
 -1      3390 2.01245E+01 2.54848E-01 1.76494E-03-5.99272E-01 6.59649E-14-6.21110E-14
 -1      3391 2.01095E+01 2.54069E-01 3.27860E-04-5.35948E-01 8.33479E-14-6.15168E-14
 -1      3392 2.57922E+01-2.90921E+00 3.54324E-03 3.02254E-01-9.06081E-14 4.67784E-13
 -1      3393 2.52844E+01-3.81824E+00-5.86972E-02-9.04083E-01-2.83122E-13 2.87030E-13
 -1      3394 2.60004E+01-2.30808E+00-8.85598E-02 1.25755E+00 1.00163E-14 5.62791E-13
 -1      3395 2.02165E+01 4.72127E-01-1.46065E-03-1.68642E-01 2.32632E-13-5.86680E-14
 -1      3396 2.01826E+01 4.15557E-01-8.88042E-04-1.39917E-01 2.55133E-13-2.69476E-14
 -1      3397 2.02141E+01 5.00077E-01 3.75068E-03-2.38050E-02 3.05477E-13-4.11677E-14
 -1      3398 1.43676E+01-1.42177E+00 1.09535E-01 4.37445E+00 4.17916E-13-4.68355E-13
 -1      3399 2.45122E+01-3.35747E+00-4.13465E-02 9.07999E-01-3.14310E-13-2.86657E-13
 -1      3400 2.00329E+01 2.22396E+00-3.56751E-03 3.41923E-01 3.16162E-13-4.79047E-13
 -1      3401 2.01156E+01 1.99040E+00 5.82932E-03 2.43075E-01 2.71145E-13-4.48336E-13
 -1      3402 2.00669E+01 2.13706E+00-5.16781E-03 4.44907E-01 3.63247E-13-4.40017E-13
 -1      3403 1.20888E+01-5.39057E-01 1.31846E-01-3.51348E+00 2.36228E-13-2.14689E-13
 -1      3404 1.99586E+01 1.39976E-01-5.84334E-04 4.61521E-02-1.90298E-13 6.87660E-14
 -1      3405 1.99672E+01 1.33034E-01 1.74787E-04 5.53361E-02-2.03039E-13 2.91435E-13
 -1      3406 1.99658E+01 1.43320E-01 4.15580E-04 6.91935E-02-1.49045E-13 1.15179E-14
 -1      3407 1.99476E+01 1.51619E-01-4.37441E-04 2.11314E-02-2.50523E-15-1.05178E-13
 -1      3408 1.99522E+01 1.48025E-01-5.07861E-05 3.30138E-02-5.60627E-14-1.47708E-13
 -1      3409 1.99464E+01 1.63088E-01 5.99544E-04 4.55032E-02-1.02577E-13 9.87362E-14
 -1      3410 1.99360E+01 1.73106E-01 6.68550E-04 1.53909E-02-1.06887E-14-2.48350E-13
 -1      3411 1.07452E+01 4.91595E-01 1.15202E-01-5.98461E-01 3.58272E-14-6.51354E-14
 -1      3412 1.94025E+01-3.36495E+00 7.29125E-02 4.47729E+00 4.34180E-13-9.72243E-14
 -1      3413 2.10335E+01-3.79093E+00 8.90386E-02-4.00460E+00 7.64486E-13-8.96366E-14
 -1      3414 2.43205E+01-3.87500E+00 2.08568E-02-1.77858E+00 5.66606E-13-2.38237E-13
 -1      3415 2.55501E+01-3.88197E+00 6.37160E-02-1.25565E+00 5.35186E-13-3.91367E-13
 -1      3416 2.58290E+01-2.78180E+00-1.37778E-02-2.05515E-01-9.82405E-14 3.24733E-13
 -1      3417 2.44838E+01-3.87180E+00-1.16751E-02 1.57003E+00-3.84555E-13-3.58715E-13
 -1      3418 2.44531E+01-4.44762E+00-5.94323E-02 2.31905E+00-3.08111E-13-1.83253E-13
 -1      3419 2.25089E+01-4.42909E+00 9.05863E-02 3.72069E+00-3.20691E-13-5.31285E-14
 -1      3420 2.35518E+01-3.52431E+00 7.16950E-02 2.13570E+00-4.38450E-13-3.24905E-13
 -1      3421 2.02234E+01 5.76980E-01-1.85849E-03 8.36205E-02 3.55777E-13-5.63461E-14
 -1      3422 2.02681E+01 7.11678E-01 3.47697E-03 2.42400E-01 3.84480E-13-5.45916E-14
 -1      3423 2.02872E+01 8.79105E-01 8.78131E-04 3.04125E-01 3.98207E-13-8.42271E-14
 -1      3424 2.02567E+01 6.42066E-01-9.29013E-04 4.57106E-02 3.20171E-13-9.10251E-14
 -1      3425 2.01286E+01 2.62028E-01 1.10496E-03-4.69813E-01 1.18199E-13-7.31317E-14
 -1      3426 2.01275E+01 2.80270E-01 1.49253E-03-3.99679E-01 1.42895E-13-5.04763E-14
 -1      3427 2.01306E+01 3.15911E-01-1.01867E-03-4.98016E-01 1.05817E-13-6.33642E-14
 -1      3428 2.64787E+01-3.00313E+00-7.88129E-02-8.11899E-02 3.52597E-13-4.43555E-13
 -1      3429 2.01708E+01 3.62721E-01-1.31084E-03-3.49398E-01 1.80139E-13-4.96444E-14
 -1      3430 2.00303E+01 2.22954E+00-3.32051E-03-3.33979E-01 1.07878E-14-5.90149E-13
 -1      3431 2.00629E+01 2.14462E+00-4.98738E-03-4.39089E-01-6.82692E-14-6.09387E-13
 -1      3432 2.01695E+01 1.82434E+00 4.55310E-03-3.77728E-01-1.01608E-13-5.63395E-13
 -1      3433 2.16004E+01-3.86611E+00 3.39758E-02 3.65091E+00-3.33455E-13-2.34273E-13
 -1      3434 1.43679E+01-2.16012E+00 1.04873E-01-4.89183E+00-3.93761E-13-6.95041E-13
 -1      3435 1.99458E+01-4.24295E+00 4.49810E-02-4.90158E+00-4.64656E-13-5.34000E-13
 -1      3436 2.12982E+01-4.07379E+00 1.50215E-02-3.99308E+00-4.45439E-13-2.61209E-13
 -1      3437 1.84571E+01-3.45401E+00 5.53689E-02-4.92767E+00-4.62588E-13-4.79911E-13
 -1      3438 1.04350E+01 1.25519E-01 1.48788E-01-1.98885E+00-8.51229E-14-7.82985E-13
 -1      3439 1.19547E+01-2.18495E-01 4.17771E-02-2.88685E+00-1.91888E-13-6.47600E-13
 -1      3440 1.11179E+01 5.08025E-01 6.50564E-02-8.86135E-01 6.40894E-14-7.62383E-13
 -1      3441 1.25841E+01-8.91163E-02 9.57480E-02 2.72526E+00-2.97942E-13 3.90382E-13
 -1      3442 2.00013E+01 9.52900E-02-2.36032E-04-7.73166E-02 1.11799E-13 3.10351E-13
 -1      3443 1.99939E+01 1.01661E-01-3.29348E-04-7.34152E-02 4.52634E-14 2.83278E-13
 -1      3444 1.99854E+01 1.22436E-01 3.39021E-04-8.28968E-02-2.50335E-14 2.07292E-13
 -1      3445 2.00017E+01 1.08535E-01 5.01387E-04-9.09621E-02-6.42395E-14 4.20966E-13
 -1      3446 2.51615E+01-3.18650E+00 7.09126E-02 4.36052E-01 8.85785E-14 3.51981E-13
 -1      3447 2.19527E+01-3.58246E+00-3.88201E-02 3.08260E+00-4.11544E-13-4.14198E-13
 -1      3448 2.05791E+01-3.11847E+00 8.84758E-02 3.80177E+00-2.96973E-13-4.05977E-13
 -1      3449 1.94146E+01-2.36105E+00 3.11805E-02 3.65792E+00-4.05051E-13-2.01868E-13
 -1      3450 2.24052E+01-3.09787E+00 6.59058E-03 2.43124E+00-3.78057E-13-3.70379E-13
 -1      3451 1.51350E+01-1.37211E+00 9.71694E-02-4.31853E+00 4.47880E-13 2.36710E-13
 -1      3452 1.72703E+01-2.51845E+00-6.57085E-02-4.56302E+00 5.21585E-13 1.95441E-13
 -1      3453 2.02528E+01 1.46825E+00 2.60652E-03-4.43856E-01-2.01908E-13-5.23598E-13
 -1      3454 2.02230E+01 1.66263E+00 1.19673E-03-6.13610E-01-2.33926E-13-5.43547E-13
 -1      3455 2.40387E+01-3.86078E+00-7.67446E-02 1.67980E+00 2.46629E-13 1.96149E-13
 -1      3456 2.26982E+01-3.75590E+00 5.70654E-02 2.84881E+00 3.75527E-13 2.16346E-13
 -1      3457 2.42353E+01-3.27528E+00-1.05608E-02 9.24062E-01 2.01191E-13 1.95637E-13
 -1      3458 2.38597E+01-4.02619E+00 1.12783E-02-2.25841E+00-4.17597E-13 7.52000E-14
 -1      3459 2.02096E+01 4.81302E-01 9.19382E-04 2.90143E-01-1.00451E-13-2.95437E-13
 -1      3460 2.01812E+01 4.34813E-01-4.10286E-04 3.67967E-01-9.64349E-14-2.86586E-13
 -1      3461 2.01409E+01 4.04641E-01 1.36253E-04 4.33188E-01-8.73692E-14-2.57180E-13
 -1      3462 2.01140E+01 3.86996E-01 3.74809E-04 5.00339E-01-4.08228E-14-2.55458E-13
 -1      3463 2.01571E+01 4.83057E-01 3.61222E-04 3.70808E-01-6.14958E-14-2.28353E-13
 -1      3464 2.00645E+01 3.79647E-01-5.98117E-04 5.60664E-01-5.10301E-14-2.74737E-13
 -1      3465 2.00398E+01 3.81054E-01 9.95731E-04 6.23775E-01-6.08035E-14-3.01053E-13
 -1      3466 2.00666E+01 4.40393E-01 3.80903E-04 4.97619E-01-6.77933E-14-2.04875E-13
 -1      3467 1.99831E+01 3.87355E-01-1.21954E-03 6.84761E-01-2.92208E-14-3.40518E-13
 -1      3468 1.99614E+01 3.98636E-01 1.52791E-03 7.48859E-01-1.48514E-14-3.08962E-13
 -1      3469 1.99624E+01 4.40157E-01 4.84469E-04 6.19376E-01-7.67090E-14-2.51674E-13
 -1      3470 1.98992E+01 4.09405E-01-1.68225E-03 8.15083E-01-9.34478E-15-2.81809E-13
 -1      3471 1.98822E+01 4.20827E-01 2.06925E-03 8.83565E-01 4.18456E-15-2.62438E-13
 -1      3472 1.98473E+01 4.62585E-01 5.65019E-04 7.46271E-01-1.10953E-15-2.58922E-13
 -1      3473 1.98172E+01 4.25749E-01-1.93333E-03 9.58746E-01 4.40471E-15-2.26970E-13
 -1      3474 1.98085E+01 4.25878E-01 2.74433E-03 1.03349E+00-3.59685E-15-1.67729E-13
 -1      3475 1.97247E+01 4.86818E-01 4.88908E-04 8.86884E-01 1.61931E-14-2.19325E-13
 -1      3476 1.97456E+01 4.12307E-01-1.86902E-03 1.12078E+00-4.09653E-14-1.62721E-13
 -1      3477 1.97530E+01 3.86784E-01 3.70679E-03 1.20212E+00 6.29664E-16-1.63242E-13
 -1      3478 1.96009E+01 4.88579E-01 5.68153E-05 1.04880E+00 4.99181E-15-2.31592E-13
 -1      3479 1.97016E+01 3.38621E-01-1.28883E-03 1.30428E+00 8.72620E-16-2.06034E-13
 -1      3480 1.97385E+01 2.69046E-01 5.11844E-03 1.39069E+00 1.37229E-14-2.29879E-13
 -1      3481 1.94886E+01 4.37701E-01-1.00579E-03 1.23933E+00-1.27470E-14-2.10333E-13
 -1      3482 1.97159E+01 1.65947E-01 2.52272E-04 1.50967E+00 2.98137E-14-2.47838E-13
 -1      3483 1.98043E+01 2.92387E-02 7.01422E-03 1.59634E+00 4.94394E-14-2.19887E-13
 -1      3484 1.94116E+01 2.95170E-01-3.18982E-03 1.46588E+00 3.78442E-14-2.45073E-13
 -1      3485 1.98409E+01-1.52634E-01 3.57320E-03 1.73056E+00 7.46103E-14-2.14330E-13
 -1      3486 2.00140E+01-3.81914E-01 9.35368E-03 1.80590E+00 1.06007E-13-2.20507E-13
 -1      3487 1.94127E+01 1.09046E-02-7.16023E-03 1.73394E+00 5.49960E-14-2.83044E-13
 -1      3488 2.01587E+01-6.65024E-01 9.87812E-03 1.94637E+00 1.58625E-13-1.30958E-13
 -1      3489 2.04547E+01-1.01449E+00 7.98105E-03 1.98714E+00 2.25765E-13-1.25942E-13
 -1      3490 1.95626E+01-4.70777E-01-1.36207E-02 2.03885E+00 1.94975E-13-2.05424E-13
 -1      3491 2.08009E+01-1.39841E+00 2.54622E-02 2.08777E+00 2.67476E-13-4.77754E-14
 -1      3492 2.12320E+01-1.87525E+00-1.68014E-03 2.04961E+00 2.66534E-13-4.39577E-14
 -1      3493 1.99858E+01-1.23662E+00-2.93228E-02 2.35344E+00 2.65852E-13-1.03605E-13
 -1      3494 2.34775E+01-3.10230E+00 4.34961E-02 1.45468E+00 2.74603E-13 1.39140E-13
 -1      3495 2.26246E+01-2.76211E+00 1.65991E-02-1.70594E+00 5.10234E-13 6.19928E-14
 -1      3496 2.19532E+01-2.30273E+00 4.84527E-02-1.96037E+00 5.35259E-13 3.93482E-14
 -1      3497 2.12974E+01-1.82543E+00 1.69040E-02-1.99987E+00 3.81382E-13-4.93728E-14
 -1      3498 2.08053E+01-1.37219E+00 2.29275E-02-2.04447E+00 1.78949E-13-8.87164E-14
 -1      3499 2.09063E+01-2.28715E+00-6.28683E-02-2.52943E+00 3.64248E-13-1.46397E-13
 -1      3500 2.04661E+01-9.70083E-01 1.21717E-02-1.92557E+00 8.77579E-14-9.56150E-14
 -1      3501 2.01571E+01-6.18695E-01 1.03298E-02-1.88247E+00 5.55528E-14-1.90562E-14
 -1      3502 1.99557E+01-1.17568E+00-3.02134E-02-2.29923E+00 1.64402E-13-1.67746E-13
 -1      3503 2.00055E+01-3.30848E-01 9.15803E-03-1.73735E+00-1.29078E-14-1.70884E-14
 -1      3504 1.98293E+01-9.65814E-02 3.70040E-03-1.65571E+00 3.37469E-14 3.52669E-14
 -1      3505 1.95488E+01-4.18028E-01-1.34292E-02-1.97661E+00 3.65234E-14-1.22395E-13
 -1      3506 1.97835E+01 8.99307E-02 6.61279E-03-1.51534E+00 1.79334E-14 3.47916E-14
 -1      3507 1.96907E+01 2.31551E-01 3.60852E-04-1.42109E+00 1.98030E-16 3.82181E-14
 -1      3508 1.93822E+01 7.52153E-02-7.08963E-03-1.66166E+00 7.81990E-14-1.26689E-14
 -1      3509 1.97024E+01 3.38886E-01 4.75877E-03-1.29451E+00-6.15085E-14-1.04540E-14
 -1      3510 1.96598E+01 4.12420E-01-1.17665E-03-1.19951E+00-8.19561E-14-5.48088E-14
 -1      3511 1.93617E+01 3.70029E-01-2.94068E-03-1.38046E+00-1.04644E-13-1.85371E-13
 -1      3512 1.96986E+01 4.63317E-01 3.38121E-03-1.08894E+00-4.82621E-14-7.70346E-14
 -1      3513 1.96839E+01 4.90610E-01-1.87569E-03-9.98781E-01-4.61362E-14-2.22276E-14
 -1      3514 1.94163E+01 5.20617E-01-6.27804E-04-1.13864E+00-1.02330E-13-2.96878E-13
 -1      3515 1.97326E+01 5.04167E-01 2.45273E-03-9.03236E-01-1.78521E-13-5.10436E-14
 -1      3516 1.97319E+01 5.02085E-01-2.10508E-03-8.20607E-01-1.72011E-13-1.26281E-13
 -1      3517 1.95025E+01 5.74407E-01 5.10710E-04-9.32494E-01-1.28140E-13-2.93716E-13
 -1      3518 1.97809E+01 4.92633E-01 1.86417E-03-7.38650E-01-5.50704E-14-1.11290E-13
 -1      3519 1.97861E+01 4.73391E-01-2.08187E-03-6.64919E-01 1.77903E-14-1.09016E-13
 -1      3520 1.95963E+01 5.66904E-01 1.00714E-03-7.56936E-01-1.08332E-13-2.76196E-13
 -1      3521 1.98307E+01 4.51157E-01 1.48352E-03-5.95257E-01 4.66919E-14-1.26314E-13
 -1      3522 1.98374E+01 4.23239E-01-1.92291E-03-5.30973E-01-3.57652E-14 1.18746E-14
 -1      3523 1.96848E+01 5.23556E-01 1.14863E-03-6.07890E-01-2.39366E-14-1.44691E-13
 -1      3524 1.98756E+01 3.95179E-01 1.22213E-03-4.72429E-01-2.51601E-13-1.34804E-14
 -1      3525 1.98818E+01 3.64198E-01-1.69808E-03-4.17555E-01-2.71975E-13-4.38073E-14
 -1      3526 1.97622E+01 4.62036E-01 1.10006E-03-4.82215E-01-1.11201E-13-2.79242E-13
 -1      3527 1.99130E+01 3.34789E-01 1.02689E-03-3.68984E-01-1.22314E-13-1.52196E-13
 -1      3528 1.99178E+01 3.04236E-01-1.45258E-03-3.23062E-01 1.09510E-13-1.61027E-13
 -1      3529 1.98264E+01 3.94122E-01 9.64755E-04-3.77287E-01-2.82853E-13-8.09026E-14
 -1      3530 1.99424E+01 2.76167E-01 8.67598E-04-2.83344E-01 2.87688E-13-2.23466E-13
 -1      3531 1.99457E+01 2.48066E-01-1.21220E-03-2.45637E-01 3.59988E-13-2.32126E-13
 -1      3532 1.98776E+01 3.27179E-01 7.98399E-04-2.90742E-01 1.47517E-13-8.81576E-14
 -1      3533 1.99645E+01 2.22839E-01 7.24834E-04-2.13658E-01 4.42384E-13-2.07048E-13
 -1      3534 1.99664E+01 1.98264E-01-9.59825E-04-1.83257E-01 4.14040E-13-6.38134E-14
 -1      3535 1.99170E+01 2.65537E-01 6.41291E-04-2.20373E-01 3.91195E-13-3.53977E-13
 -1      3536 1.99802E+01 1.76164E-01 4.91452E-04-1.57742E-01 2.38835E-13 9.70001E-14
 -1      3537 1.99817E+01 1.55656E-01-5.70594E-04-1.33953E-01 3.00451E-13 2.48337E-13
 -1      3538 1.99463E+01 2.11620E-01 5.58805E-04-1.63932E-01 4.29517E-13-1.06879E-13
 -1      3539 1.99943E+01 4.09300E-01 1.55042E-03-7.67911E-01 1.00889E-13-1.35070E-13
 -1      3540 2.00088E+01 3.87481E-01-1.42014E-03-6.99796E-01 1.08069E-13-1.17585E-13
 -1      3541 1.96714E+01 5.11529E-01 4.50645E-03-1.45727E+00-8.91891E-14-4.65427E-14
 -1      3542 1.96637E+01 5.33261E-01-3.30035E-03-1.35560E+00-2.87166E-14-6.22532E-14
 -1      3543 1.97499E+01 5.40285E-01 3.20979E-03-1.25042E+00 4.19456E-15-6.73912E-14
 -1      3544 1.97562E+01 5.29494E-01-3.16317E-03-1.15839E+00 3.84777E-14-5.78177E-14
 -1      3545 1.94509E+01 6.24203E-01 1.60145E-03-1.26489E+00 2.81084E-15-6.24229E-14
 -1      3546 1.96746E+01 8.57875E-02 1.08730E-02-1.95770E+00-2.21504E-13-8.94087E-14
 -1      3547 1.95686E+01 2.55762E-01-1.12755E-03-1.84443E+00-1.79557E-13-1.02402E-13
 -1      3548 1.99008E+01-4.57897E-01 1.41907E-02-2.24438E+00-2.12546E-13-9.07589E-14
 -1      3549 1.96803E+01-1.52393E-01 3.74482E-03-2.14143E+00-1.95614E-13-1.15773E-13
 -1      3550 1.90702E+01 7.14980E-02-6.21597E-03-2.12053E+00-1.97308E-13-2.19314E-13
 -1      3551 2.04554E+01-1.32620E+00 1.37401E-02-2.49678E+00-2.89892E-13-1.28449E-13
 -1      3552 2.00638E+01-8.39647E-01 1.88492E-02-2.44099E+00-2.80055E-13-1.17704E-13
 -1      3553 1.92112E+01-5.61559E-01-2.07442E-03-2.56855E+00-2.40330E-13-1.72445E-13
 -1      3554 2.15911E+01-2.53878E+00 1.05531E-02-2.60002E+00-2.40225E-13-4.86833E-14
 -1      3555 2.09031E+01-1.89734E+00 2.86030E-02-2.67393E+00-2.19034E-13-8.25663E-14
 -1      3556 1.96521E+01-1.57752E+00-3.33762E-02-3.00749E+00-2.93360E-13-2.47012E-13
 -1      3557 2.28558E+01-3.60289E+00 3.43189E-02-2.64320E+00-4.26324E-13 2.53137E-14
 -1      3558 1.42174E+01-1.34725E+00 3.97376E-02-4.26860E+00-3.01151E-13-6.58390E-13
 -1      3559 1.64626E+01-2.52034E+00 6.39876E-02-4.94450E+00-3.93567E-13-5.87821E-13
 -1      3560 2.16287E+01-2.43029E+00 5.17579E-02 2.60508E+00-2.43131E-13-2.11564E-13
 -1      3561 1.95987E+01 1.65727E-01 6.13878E-04 1.89077E+00-2.11880E-13-4.26135E-15
 -1      3562 1.97486E+01-6.03704E-02 1.22077E-02 2.00905E+00-1.16566E-13-7.57163E-14
 -1      3563 1.95666E+01 4.53039E-01-2.09898E-03 1.59884E+00-1.11309E-13-7.80625E-14
 -1      3564 1.96307E+01 3.36314E-01 7.90370E-03 1.71919E+00-2.01312E-13-5.50252E-15
 -1      3565 1.90858E+01 3.62401E-01-3.10860E-03 1.83383E+00-2.13462E-13-1.32598E-13
 -1      3566 1.96136E+01 5.80784E-01-3.05150E-03 1.34008E+00-1.33478E-13 2.03414E-14
 -1      3567 1.96345E+01 5.34980E-01 4.96612E-03 1.45477E+00-1.19994E-13-3.37633E-14
 -1      3568 1.91936E+01 6.01353E-01 1.34529E-04 1.51367E+00-9.06543E-14-2.58149E-13
 -1      3569 1.96882E+01 6.08422E-01-3.21481E-03 1.11189E+00-1.09220E-13 1.89476E-13
 -1      3570 1.96902E+01 6.06061E-01 3.31732E-03 1.21773E+00-1.17317E-13 1.28059E-13
 -1      3571 1.93368E+01 6.93126E-01 1.61299E-03 1.24941E+00-1.43569E-13 3.23315E-15
 -1      3572 1.97645E+01 5.78260E-01-3.03713E-03 9.11816E-01 1.27733E-13 2.35340E-13
 -1      3573 1.97602E+01 6.00194E-01 2.39569E-03 1.00723E+00-3.85546E-14 2.10021E-13
 -1      3574 1.94800E+01 6.94678E-01 2.09514E-03 1.02710E+00-7.26323E-14 2.26091E-13
 -1      3575 1.98314E+01 5.18477E-01-2.71638E-03 7.37917E-01 1.52683E-13 1.63085E-13
 -1      3576 1.98266E+01 5.52214E-01 1.88428E-03 8.22125E-01 2.84073E-13 1.87779E-13
 -1      3577 1.96069E+01 6.45468E-01 2.03999E-03 8.37714E-01 2.12866E-13 1.67055E-13
 -1      3578 1.98852E+01 4.46799E-01-2.34272E-03 5.88656E-01 6.60849E-14 2.34803E-13
 -1      3579 1.98821E+01 4.84585E-01 1.58601E-03 6.61442E-01 7.87358E-14 2.74521E-13
 -1      3580 1.97121E+01 5.71396E-01 1.77290E-03 6.75809E-01 1.19376E-13 4.94559E-15
 -1      3581 1.99261E+01 3.73868E-01-1.96645E-03 4.62476E-01-2.40873E-14 5.79233E-14
 -1      3582 1.99251E+01 4.11119E-01 1.38020E-03 5.24139E-01 9.22965E-14 2.20514E-13
 -1      3583 1.97955E+01 4.88619E-01 1.44089E-03 5.38142E-01 7.38263E-14-7.86900E-14
 -1      3584 1.99558E+01 3.05642E-01-1.61174E-03 3.57517E-01 9.73240E-14-1.76753E-13
 -1      3585 1.99566E+01 3.39862E-01 1.21281E-03 4.08777E-01-5.25136E-14-8.28456E-14
 -1      3586 1.98593E+01 4.06856E-01 1.12109E-03 4.22351E-01 5.91865E-14-9.97383E-14
 -1      3587 1.99765E+01 2.45082E-01-1.29825E-03 2.71644E-01-2.13849E-14-2.04359E-13
 -1      3588 1.99785E+01 2.75082E-01 1.06405E-03 3.13491E-01 1.06825E-13-1.21099E-13
 -1      3589 1.99068E+01 3.31487E-01 8.50533E-04 3.26290E-01 1.17488E-13-2.23812E-13
 -1      3590 1.99898E+01 1.93065E-01-1.20236E-03 2.02850E-01-9.60496E-14-1.44795E-13
 -1      3591 1.99930E+01 2.18431E-01 8.36510E-04 2.36092E-01-6.32072E-14-1.40379E-13
 -1      3592 1.99414E+01 2.65106E-01 6.85896E-04 2.47689E-01-1.49906E-13-2.55482E-13
 -1      3593 1.99986E+01 1.50134E-01-8.61347E-04 1.47806E-01-5.47023E-14-2.68469E-13
 -1      3594 2.00017E+01 1.71264E-01 7.39995E-04 1.74048E-01-3.14460E-14-1.93134E-13
 -1      3595 1.99654E+01 2.10214E-01 9.64954E-04 1.84519E-01-5.95284E-14-2.65860E-14
 -1      3596 2.00037E+01 1.15529E-01-4.04531E-04 1.05107E-01 6.36694E-15-2.82260E-13
 -1      3597 2.00063E+01 1.32189E-01 5.63934E-04 1.25540E-01-9.21420E-14-1.97263E-13
 -1      3598 1.99817E+01 1.62738E-01 6.48370E-04 1.34814E-01-2.02073E-14-6.10729E-14
 -1      3599 1.16137E+01 7.30221E-01 2.63318E-02 8.99086E-02-7.61812E-14 8.21287E-14
 -1      3600 1.15874E+01 5.59245E-01 6.45439E-02-1.57289E+00 5.29073E-14-2.85744E-13
 -1      3601 1.99960E+01 9.71434E-02-5.16000E-04 7.03224E-02-2.98726E-13 1.13285E-13
 -1      3602 2.00050E+01 8.69526E-02 4.91279E-05 7.01280E-02-4.07460E-13-2.38444E-13
 -1      3603 2.00065E+01 9.30535E-02 9.23838E-05 7.87244E-02-1.90427E-13-3.26679E-13
 -1      3604 1.99871E+01 1.18323E-01 8.17220E-05 7.96551E-02-1.29346E-13-7.67668E-15
 -1      3605 1.99200E+01 1.92071E-01-1.32436E-04-2.78345E-02 8.29802E-14-2.88700E-13
 -1      3606 1.99164E+01 1.94594E-01-4.48579E-04-1.12998E-02 8.91988E-14-3.89467E-13
 -1      3607 2.03796E+01-2.93076E+00 9.68761E-02-3.67568E+00 6.03467E-13-2.65742E-14
 -1      3608 2.21722E+01-3.54802E+00-7.23714E-02-2.78145E+00 5.23656E-13-1.40976E-13
 -1      3609 1.98097E+01-3.60222E-01 7.25599E-03 2.20907E+00-1.10375E-13-2.00697E-14
 -1      3610 2.01088E+01-7.37133E-01 1.77755E-02 2.30580E+00-8.82988E-14-1.01549E-14
 -1      3611 1.90830E+01-1.05771E-01-1.01345E-02 2.23056E+00-8.04369E-14-1.94753E-13
 -1      3612 1.58663E+01-1.80898E+00-6.25794E-02 4.38683E+00 3.93127E-13-3.60066E-13
 -1      3613 1.38396E+01-5.54862E-01 8.05133E-02 3.59455E+00 3.58736E-13-4.75793E-13
 -1      3614 1.24081E+01 1.61476E-02 4.00133E-02-2.79337E+00 1.29150E-14-5.03375E-13
 -1      3615 1.36110E+01-7.49487E-01 2.10147E-02-3.86055E+00 2.34434E-13-1.48874E-13
 -1      3616 1.54171E+01-7.62194E-01 7.62056E-02-3.59546E+00 2.24926E-13-6.86950E-14
 -1      3617 2.03595E+01-1.18879E+00 2.49215E-02 2.49710E+00-1.40847E-13-2.90104E-14
 -1      3618 2.08500E+01-1.76196E+00 1.18462E-02 2.52777E+00-1.67730E-13-3.84197E-14
 -1      3619 1.93455E+01-9.45266E-01-3.14287E-02 2.70570E+00-1.34298E-13-1.07382E-13
 -1      3620 1.99873E+01 2.33192E+00-3.44057E-03-1.39726E-01 8.82250E-14-6.06520E-13
 -1      3621 2.00039E+01 2.29087E+00-4.28119E-03-2.49584E-01 3.79308E-14-6.01149E-13
 -1      3622 2.01108E+01 1.99283E+00 4.54285E-03-2.33609E-01 2.21351E-14-5.61147E-13
 -1      3623 1.23612E+01 1.29600E-01 1.61061E-02 2.51679E+00 2.67177E-13-5.38521E-13
 -1      3624 1.16435E+01 6.05417E-01 4.44078E-02 9.69001E-01 1.76269E-13-6.73656E-13
 -1      3625 1.96281E+01 3.80918E-01 6.76734E-03-1.69270E+00-1.09117E-13-8.29531E-14
 -1      3626 1.95883E+01 4.59949E-01-2.87685E-03-1.58283E+00-6.25817E-14-4.56992E-14
 -1      3627 1.92861E+01 5.82124E-01 6.37585E-04-1.49260E+00-6.71943E-14-1.08532E-13
 -1      3628 1.91415E+01 4.21660E-01-1.76851E-03-1.77156E+00-1.30232E-13-1.13696E-13
 -1      3629 2.58048E+01-2.50573E+00-2.44109E-02 5.64190E-01 3.45229E-13-1.69226E-13
 -1      3630 2.50794E+01-3.02797E+00 1.33313E-02-1.56986E-01 4.95366E-13-1.10874E-13
 -1      3631 2.02938E+01 8.81911E-01 4.97966E-04-1.00863E-01-1.45305E-13-3.95034E-13
 -1      3632 2.02756E+01 7.42533E-01-2.16066E-03 2.32307E-02-9.68374E-14-3.78050E-13
 -1      3633 2.02648E+01 6.31403E-01 1.46931E-03 1.17045E-01-7.63221E-14-3.67581E-13
 -1      3634 2.02375E+01 5.44774E-01-1.39546E-03 2.13599E-01-8.87889E-14-3.51929E-13
 -1      3635 2.02296E+01 5.89096E-01 5.38448E-04 2.27205E-01-7.80668E-14-3.08357E-13
 -1      3636 2.01798E+01 4.08902E-01-2.68535E-04-3.66009E-01 1.67705E-13-1.02047E-13
 -1      3637 2.02045E+01 4.52826E-01 1.33738E-03-2.83380E-01 1.87294E-13-9.81298E-14
 -1      3638 2.03016E+01 1.02149E+00 6.55055E-04 3.51842E-01 3.77938E-13-1.49268E-13
 -1      3639 2.02817E+01 1.20123E+00-1.92363E-03 3.92137E-01 3.77666E-13-2.28904E-13
 -1      3640 2.02837E+01 8.76861E-01-2.02465E-03 2.04292E-01 3.43164E-13-1.48767E-13
 -1      3641 1.41296E+01-1.87229E-01 1.20167E-02 3.05122E+00-3.25332E-13 2.74294E-13
 -1      3642 1.26349E+01 5.86350E-01 6.05365E-02 1.73682E+00-1.89189E-13 3.42667E-13
 -1      3643 2.04837E+01-3.39001E+00-4.97818E-02 3.78974E+00 4.06035E-13 5.75633E-14
 -1      3644 1.84436E+01-2.46978E+00 1.05711E-01 4.31549E+00 4.18492E-13-1.46421E-13
 -1      3645 2.02590E+01 1.35078E+00-3.02730E-04 3.61430E-01 3.53400E-13-2.81599E-13
 -1      3646 1.42141E+01 1.08827E-02 7.25885E-02 2.72210E+00 2.18021E-13-4.52204E-13
 -1      3647 2.02379E+01 1.47737E+00 1.77639E-03-3.36264E-01-1.44196E-13-5.04386E-13
 -1      3648 2.02818E+01 1.23141E+00-1.53249E-03-3.28707E-01-1.91316E-13-4.70675E-13
 -1      3649 2.02835E+01 1.04765E+00-1.74529E-03-1.92146E-01-1.66000E-13-4.45624E-13
 -1      3650 2.02768E+01 7.81430E-01 8.27798E-04 5.46804E-02-7.06281E-14-3.67836E-13
 -1      3651 2.26289E+01-3.30010E+00-2.01989E-02 2.20616E+00 3.26039E-13 1.25557E-13
 -1      3652 2.20062E+01-3.47868E+00 4.59361E-02 3.04537E+00 3.75614E-13 1.26272E-13
 -1      3653 2.08873E+01-2.84443E+00-5.08109E-04 3.11657E+00 3.81858E-13 6.69352E-14
 -1      3654 2.27764E+01-2.91374E+00-2.68221E-03 1.70024E+00 2.90348E-13 9.98021E-14
 -1      3655 1.99365E+01 1.77884E-01 2.98296E-04-6.14477E-02-2.73320E-15-2.53716E-13
 -1      3656 1.99264E+01 1.84500E-01-6.65975E-04-4.69481E-02 1.41062E-14-3.40708E-13
 -1      3657 1.99101E+01 2.11830E-01 8.17780E-04-4.29617E-02 1.96871E-13-3.38230E-13
 -1      3658 2.10841E+01-2.33773E+00-2.76360E-02 2.48810E+00 3.34080E-13 2.09980E-14
 -1      3659 2.21230E+01-2.46627E+00 3.53171E-02 1.95848E+00 2.91911E-13 6.67045E-14
 -1      3660 2.33589E+01-3.33348E+00 3.63940E-02-1.78710E+00 5.23165E-13-3.11548E-14
 -1      3661 2.01849E+01-2.18054E+00-3.64859E-02 3.13126E+00-2.84329E-13-3.24416E-13
 -1      3662 1.99898E+01 4.39478E-01 6.23317E-04-6.38320E-01 9.50982E-14-1.58785E-13
 -1      3663 2.00617E+01 3.73153E-01 1.09833E-03-6.36549E-01 9.46403E-14-1.59737E-13
 -1      3664 2.00785E+01 3.65480E-01-5.72715E-04-5.70104E-01 8.63612E-14-1.44393E-13
 -1      3665 1.99324E+01 4.33288E-01-2.14991E-03-8.36000E-01 6.58013E-14-1.05880E-13
 -1      3666 1.98804E+01 4.84135E-01 1.03481E-03-7.68985E-01 7.97479E-14-1.02917E-13
 -1      3667 1.99193E+01 4.61605E-01 1.95657E-03-9.09954E-01 6.69948E-14-8.17741E-14
 -1      3668 1.99928E+01 1.38583E-01 3.63738E-04-1.19820E-01 3.28691E-13 2.65455E-13
 -1      3669 1.99944E+01 1.22673E-01-2.61554E-04-1.02983E-01 4.09401E-14 2.81734E-13
 -1      3670 1.99859E+01 1.30645E-01-8.17887E-05-9.93314E-02 7.01386E-14 3.25017E-13
 -1      3671 1.99692E+01 1.66702E-01 3.18856E-04-1.25482E-01 3.32226E-13 2.09828E-13
 -1      3672 2.01435E+01 3.81858E-01 3.57969E-04-4.35942E-01 1.31631E-13-9.12946E-14
 -1      3673 2.01653E+01 4.61951E-01 4.31338E-06-3.75220E-01 1.52079E-13-1.45758E-13
 -1      3674 2.01232E+01 3.68009E-01 5.17711E-04-5.06611E-01 1.02104E-13-1.37348E-13
 -1      3675 1.96104E+01 5.99220E-01 1.70504E-03-1.07450E+00 6.66917E-14-6.71952E-14
 -1      3676 1.98366E+01 5.12831E-01 2.45420E-03-1.06917E+00 7.55146E-14-5.93242E-14
 -1      3677 1.98480E+01 4.87097E-01-2.74257E-03-9.86843E-01 9.72885E-14-6.50743E-14
 -1      3678 2.12895E+01-3.60709E+00 1.92959E-02-3.63682E+00-4.54130E-13-1.43698E-13
 -1      3679 2.17110E+01-2.82173E+00 2.46026E-02-2.78586E+00-3.25013E-13-2.43594E-14
 -1      3680 1.36686E+01-5.01166E-01 1.05876E-01-3.54263E+00-2.09520E-13-7.01036E-13
 -1      3681 1.53413E+01-9.20118E-01 7.34822E-03-3.72875E+00-2.34718E-13-6.11906E-13
 -1      3682 1.32935E+01 1.06978E-01 2.08951E-02-2.54079E+00-1.05188E-13-6.26218E-13
 -1      3683 1.99019E+01 2.19421E-01 8.07817E-04-1.12884E-03 5.02210E-14-3.94921E-13
 -1      3684 1.99163E+01 1.95095E-01-4.16599E-04 9.42589E-03-3.45130E-14-4.92086E-13
 -1      3685 1.99196E+01 1.92993E-01-1.59160E-04 2.63382E-02-6.12614E-14-1.59199E-13
 -1      3686 2.02302E+01 5.14535E-01-1.15282E-03-1.99561E-01 2.05470E-13-1.30373E-13
 -1      3687 2.02579E+01 5.99455E-01 2.03564E-03-9.57620E-02 2.53005E-13-1.27106E-13
 -1      3688 2.02314E+01 5.64271E-01-2.22384E-05-2.18580E-01 1.88298E-13-1.69126E-13
 -1      3689 2.01309E+01 1.81310E+00-3.24933E-03 1.03064E-01 2.02592E-13-4.65707E-13
 -1      3690 2.01222E+01 1.83381E+00-3.41707E-03 2.97598E-02 1.42457E-13-4.84053E-13
 -1      3691 2.01765E+01 1.82068E+00 6.74637E-03 3.86457E-01 3.29879E-13-3.73992E-13
 -1      3692 1.32515E+01 4.55867E-01 8.27006E-02-1.99168E+00 3.26163E-14-3.56590E-13
 -1      3693 1.28199E+01 8.37516E-01 4.85141E-02 9.39089E-01-8.05363E-14 2.33936E-13
 -1      3694 1.32864E+01 9.79342E-01 4.74374E-04-1.54986E-02-5.35500E-14-6.37164E-14
 -1      3695 1.41906E+01 7.88213E-01 1.12922E-02 1.35406E+00-1.53636E-13 1.03447E-13
 -1      3696 2.00087E+01 9.95884E-02 2.10502E-04 8.88370E-02-2.19174E-14-2.22855E-13
 -1      3697 1.94377E+01-2.21128E+00 5.09179E-02-3.46973E+00 3.68299E-13 1.14245E-14
 -1      3698 2.01652E+01 1.70789E+00-4.14707E-03 2.21920E-01 2.53785E-13-4.19196E-13
 -1      3699 2.01452E+01 1.77383E+00-2.51330E-03 1.53502E-01 2.27168E-13-4.55333E-13
 -1      3700 2.02009E+01 1.58163E+00 5.52825E-03 9.17629E-02 1.79714E-13-4.14154E-13
 -1      3701 2.41730E+01-3.17644E+00-5.11209E-02-7.77208E-01 4.45375E-13 1.29566E-14
 -1      3702 1.68031E+01-9.22055E-01-2.43439E-02 3.39362E+00-3.41032E-13-5.52614E-14
 -1      3703 1.54858E+01-4.57759E-01 7.09597E-02 3.35205E+00-3.27515E-13 4.96877E-14
 -1      3704 1.51295E+01 1.66585E-01-8.75073E-03 2.54622E+00-2.07714E-13 1.98067E-13
 -1      3705 1.76749E+01-1.71658E+00 4.74045E-02 3.81580E+00 3.75214E-13-2.24372E-13
 -1      3706 2.00801E+01 2.07574E+00 4.89599E-03-7.63144E-02 9.36313E-14-5.57513E-13
 -1      3707 2.02846E+01 1.07647E+00 1.59864E-03-1.34940E-01-1.09705E-13-4.02587E-13
 -1      3708 1.81458E+01-2.68141E+00 3.99799E-02-4.39257E+00-4.17662E-13-4.57828E-13
 -1      3709 1.31292E+01 8.07112E-01 3.12303E-02 6.94555E-01 1.36039E-13-5.61173E-13
 -1      3710 1.19462E+01 8.02829E-01 8.41884E-02 1.02926E-01 7.95598E-14-7.50410E-13
 -1      3711 1.25231E+01 6.78589E-01 2.54679E-03-9.21911E-01 4.39926E-15-6.64947E-13
 -1      3712 1.99476E+01 1.66288E-01-7.56795E-04 7.59381E-02-7.06637E-14 8.40236E-14
 -1      3713 1.99623E+01 1.56099E-01 5.22946E-04 8.58216E-02-8.72512E-14-8.08160E-14
 -1      3714 2.01816E+01 1.67400E+00-1.41947E-04-2.39607E-01-2.00077E-14-4.86180E-13
 -1      3715 2.02085E+01 1.56684E+00-3.33597E-03-2.96377E-01-8.94351E-14-5.15045E-13
 -1      3716 2.02507E+01 1.35312E+00 1.89914E-03-1.93716E-01-7.82082E-14-4.67134E-13
 -1      3717 1.99932E+01 1.22827E-01 2.32221E-04 9.65489E-02-1.42994E-14 7.95422E-15
 -1      3718 1.99808E+01 1.34875E-01-5.26400E-04 9.54017E-02-1.28362E-13-1.27082E-13
 -1      3719 1.99771E+01 1.37107E-01-4.05849E-04-9.42153E-02 3.05838E-14 1.41752E-13
 -1      3720 1.99643E+01 1.60309E-01 1.43794E-04-1.03500E-01 1.85603E-13 2.95520E-16
 -1      3721 1.99652E+01 1.50083E-01 3.36948E-04-8.62756E-02 6.29347E-14 2.82573E-14
 -1      3722 1.99506E+01 1.60736E-01-8.28814E-04-7.68958E-02 3.12719E-14-8.90633E-14
 -1      3723 1.99530E+01 1.78319E-01-4.01264E-04-1.16330E-01 3.28767E-13-1.11476E-13
 -1      3724 1.99641E+01 1.61369E-01-3.34954E-04 1.03984E-01-8.01903E-14-1.78726E-14
 -1      3725 2.02432E+01 6.83954E-01 3.28597E-04 1.59944E-01-3.96089E-14-3.34109E-13
 -1      3726 2.02101E+01 6.06391E-01-1.31199E-03 2.37669E-01-2.59526E-14-3.02744E-13
 -1      3727 2.01678E+01 5.51089E-01-1.57756E-04 2.96407E-01-2.67120E-14-2.87814E-13
 -1      3728 2.01251E+01 5.13357E-01-5.34082E-04 3.62643E-01-5.89871E-14-2.65940E-13
 -1      3729 2.01824E+01 6.42092E-01 1.50217E-03 2.31902E-01-2.99043E-14-3.18027E-13
 -1      3730 2.00751E+01-1.99625E+00 4.16621E-02 3.01377E+00 3.73370E-13-7.98797E-15
 -1      3731 2.00647E+01 4.91273E-01-7.54518E-04 4.15966E-01-4.66010E-14-2.36650E-13
 -1      3732 2.00153E+01 4.82292E-01 1.03223E-04 4.76537E-01-5.52672E-14-2.34896E-13
 -1      3733 2.00776E+01 5.58209E-01 1.33777E-03 3.42818E-01-4.24125E-14-2.98392E-13
 -1      3734 1.99394E+01 4.83117E-01-1.38791E-03 5.29290E-01-6.65184E-14-1.86122E-13
 -1      3735 1.98848E+01 4.92912E-01 6.57369E-04 5.89558E-01-3.63303E-14-1.85227E-13
 -1      3736 1.99424E+01 5.36095E-01 1.36394E-03 4.47196E-01-3.57467E-14-2.28420E-13
 -1      3737 1.97950E+01 5.06766E-01-2.00994E-03 6.46544E-01-2.07087E-14-1.52248E-13
 -1      3738 1.97367E+01 5.25308E-01 1.20621E-03 7.11118E-01-2.46155E-15-1.54896E-13
 -1      3739 1.97804E+01 5.55262E-01 1.55358E-03 5.54324E-01-1.27318E-14-1.35360E-13
 -1      3740 1.96338E+01 5.41847E-01-2.63062E-03 7.76940E-01 3.91435E-15-1.67622E-13
 -1      3741 1.95742E+01 5.58337E-01 1.88470E-03 8.49854E-01 1.73900E-14-1.95347E-13
 -1      3742 1.95934E+01 5.94893E-01 1.76100E-03 6.73486E-01-9.85099E-16-1.20911E-13
 -1      3743 1.94595E+01 5.65888E-01-3.23730E-03 9.29544E-01 2.64730E-14-2.14698E-13
 -1      3744 1.94034E+01 5.67551E-01 2.87879E-03 1.01481E+00 1.38271E-14-1.69383E-13
 -1      3745 1.93831E+01 6.32968E-01 1.87402E-03 8.14328E-01 1.27564E-14-1.54163E-13
 -1      3746 1.92799E+01 5.51603E-01-3.77539E-03 1.11447E+00-2.22847E-14-1.76779E-13
 -1      3747 1.92367E+01 5.22516E-01 4.48660E-03 1.21635E+00-3.11558E-14-1.86934E-13
 -1      3748 1.91532E+01 6.43757E-01 1.75664E-03 9.88629E-01-1.50372E-14-1.24699E-13
 -1      3749 1.91102E+01 4.64800E-01-4.13054E-03 1.34424E+00 5.00439E-15-1.84878E-13
 -1      3750 1.90972E+01 3.84364E-01 7.18208E-03 1.46766E+00 5.41097E-14-1.97531E-13
 -1      3751 1.89118E+01 5.95775E-01 1.24594E-03 1.21175E+00 1.97664E-14-1.40087E-13
 -1      3752 1.89806E+01 2.60572E-01-3.75425E-03 1.63526E+00 4.87865E-14-1.87725E-13
 -1      3753 1.90276E+01 1.01727E-01 1.15085E-02 1.78393E+00 7.60363E-14-1.58504E-13
 -1      3754 1.86755E+01 4.47596E-01-8.71358E-05 1.50581E+00 4.86231E-14-1.51699E-13
 -1      3755 1.89514E+01-1.23067E-01-1.90363E-03 2.00365E+00 1.80108E-13-1.46914E-13
 -1      3756 1.91068E+01-3.92050E-01 1.76233E-02 2.17286E+00 2.77246E-13-1.09859E-13
 -1      3757 1.84831E+01 1.43981E-01-1.17079E-03 1.90560E+00 1.40075E-13-5.09091E-14
 -1      3758 1.91137E+01-7.16604E-01 1.15900E-02 2.45642E+00 3.15843E-13-1.29112E-13
 -1      3759 1.94171E+01-1.19680E+00 7.42666E-03 2.65409E+00 3.06376E-13-8.54728E-14
 -1      3760 1.84114E+01-3.81858E-01 2.58019E-03 2.43363E+00 2.93514E-13-9.65543E-14
 -1      3761 1.88555E+01-1.58803E+00 3.85216E-02-3.27083E+00 2.26161E-13-8.63064E-14
 -1      3762 1.91692E+01 7.16276E-01 2.78248E-03-1.20953E+00 4.11940E-14-7.83966E-14
 -1      3763 1.92472E+01 7.03918E-01-4.76459E-03-1.11129E+00 4.87956E-14-6.81395E-14
 -1      3764 1.90834E+01-3.40066E-01 1.53647E-02-2.12334E+00 3.18229E-14-2.11793E-13
 -1      3765 1.89255E+01-6.24726E-02-2.05783E-03-1.94848E+00 8.34200E-14-1.14697E-13
 -1      3766 1.89876E+01 1.66782E-01 1.04638E-02-1.72436E+00 1.11559E-13-6.46240E-14
 -1      3767 1.89322E+01 3.32269E-01-3.98505E-03-1.57003E+00 9.30526E-14-1.07211E-13
 -1      3768 1.84378E+01 2.07362E-01-3.79827E-03-1.85643E+00 8.91902E-14-7.59394E-14
 -1      3769 1.90343E+01 4.61819E-01 6.75318E-03-1.39676E+00-5.66029E-14-1.73740E-13
 -1      3770 1.90370E+01 5.47817E-01-4.02744E-03-1.26646E+00-1.86374E-13-1.70829E-13
 -1      3771 1.86056E+01 5.27365E-01-2.87751E-04-1.44804E+00-3.25909E-14-1.26019E-13
 -1      3772 1.91479E+01 6.09717E-01 4.25444E-03-1.13178E+00-2.18379E-13-1.48129E-13
 -1      3773 1.91788E+01 6.41914E-01-3.79470E-03-1.02264E+00-1.21631E-13-2.44685E-13
 -1      3774 1.88131E+01 6.87112E-01 1.65654E-03-1.14228E+00-1.91688E-13-1.17886E-13
 -1      3775 1.92850E+01 6.59217E-01 2.64610E-03-9.16079E-01-1.01026E-13-1.95064E-13
 -1      3776 1.93268E+01 6.56845E-01-3.39730E-03-8.24077E-01-1.71350E-13-1.63748E-13
 -1      3777 1.90222E+01 7.41164E-01 2.29519E-03-9.06658E-01-1.53459E-13-9.41151E-14
 -1      3778 1.94222E+01 6.45979E-01 1.69850E-03-7.38310E-01-1.26108E-13-2.78425E-13
 -1      3779 1.94652E+01 6.22732E-01-2.97688E-03-6.60502E-01-5.29497E-14-2.19994E-13
 -1      3780 1.92156E+01 7.27615E-01 2.40644E-03-7.20919E-01-1.50892E-13-1.94616E-13
 -1      3781 1.95475E+01 5.95590E-01 1.14717E-03-5.90760E-01-1.80979E-14-3.30803E-13
 -1      3782 1.95868E+01 5.61224E-01-2.56343E-03-5.25081E-01-1.41306E-14-2.77214E-13
 -1      3783 1.93857E+01 6.73424E-01 2.29058E-03-5.71823E-01-8.91846E-14-2.65758E-13
 -1      3784 1.96554E+01 5.26150E-01 8.24920E-04-4.68156E-01-7.04502E-14-3.37142E-13
 -1      3785 1.96889E+01 4.87371E-01-2.17337E-03-4.13057E-01-1.79828E-13-3.45297E-13
 -1      3786 1.95297E+01 5.97666E-01 2.03978E-03-4.50914E-01-1.11376E-13-4.12551E-13
 -1      3787 1.97448E+01 4.49913E-01 6.36817E-04-3.66650E-01-3.08773E-13-1.95873E-13
 -1      3788 1.97719E+01 4.11065E-01-1.81339E-03-3.20879E-01-1.65778E-13-1.81114E-13
 -1      3789 1.96480E+01 5.13644E-01 1.74439E-03-3.52436E-01-1.85736E-13-4.06868E-13
 -1      3790 1.98163E+01 3.74708E-01 5.19137E-04-2.83251E-01 3.16100E-14-3.72401E-14
 -1      3791 1.98375E+01 3.38363E-01-1.49634E-03-2.45692E-01 2.11202E-13-1.54799E-13
 -1      3792 1.97428E+01 4.30035E-01 1.45815E-03-2.72344E-01 5.88046E-14-2.43041E-13
 -1      3793 1.98720E+01 3.05144E-01 4.37373E-04-2.15558E-01 2.96407E-13-1.35153E-13
 -1      3794 1.98879E+01 2.72852E-01-1.19746E-03-1.85180E-01 3.90056E-13-1.46698E-13
 -1      3795 1.98171E+01 3.52040E-01 1.20290E-03-2.07664E-01 2.41327E-13-9.81842E-14
 -1      3796 1.99141E+01 2.43511E-01 3.14383E-04-1.61267E-01 4.13900E-13-1.19670E-13
 -1      3797 1.99266E+01 2.16325E-01-5.59267E-04-1.37048E-01 4.16494E-13-1.33038E-14
 -1      3798 1.98737E+01 2.82357E-01 8.43047E-04-1.56011E-01 3.86103E-13-7.01156E-14
 -1      3799 1.99565E+01 1.82561E-01-3.07857E-04 1.24718E-01-1.08048E-13-1.32811E-13
 -1      3800 1.83987E+01-4.80055E-01-9.08896E-03-2.69030E+00-3.02091E-13-2.78397E-13
 -1      3801 1.82662E+01-8.52907E-02-9.74211E-03-2.40355E+00-2.28398E-13-2.99400E-13
 -1      3802 1.84750E+01 1.84784E-01 1.10402E-02-2.13535E+00-1.57890E-13-2.87854E-13
 -1      3803 1.84662E+01 3.80637E-01-8.74627E-03-1.93803E+00-1.49211E-13-2.50445E-13
 -1      3804 1.76996E+01 2.62428E-01 1.14878E-02-2.22542E+00-1.90547E-13-3.67870E-13
 -1      3805 2.02398E+01-2.50925E+00 1.21740E-02-3.43793E+00-2.95666E-13-2.53254E-13
 -1      3806 1.90718E+01 7.97213E-01-5.30870E-03 1.09370E+00-1.98375E-13 3.11386E-13
 -1      3807 1.90039E+01 7.93370E-01 3.17273E-03 1.20829E+00-1.70003E-13 1.64256E-13
 -1      3808 1.99266E+01 2.13126E-01 9.14069E-04 1.12057E-01-2.06151E-14-1.48052E-13
 -1      3809 1.99365E+01 2.12084E-01-1.10078E-03 1.46025E-01-3.00391E-14-3.23874E-14
 -1      3810 2.02207E+01 1.51972E+00-4.91702E-03 3.23193E-01 3.18779E-13-3.43585E-13
 -1      3811 2.01911E+01 1.63041E+00-2.15924E-03 2.65985E-01 2.75019E-13-3.77481E-13
 -1      3812 2.02356E+01 1.46092E+00 5.56863E-03 1.69600E-01 2.35514E-13-3.69301E-13
 -1      3813 1.88336E+01 7.61043E-01-6.48277E-03 1.33956E+00-1.31879E-13 1.42937E-13
 -1      3814 1.87766E+01 7.07491E-01 5.89308E-03 1.47837E+00-9.23622E-14 2.78564E-14
 -1      3815 1.86067E+01 8.93429E-01 5.01064E-03 1.17157E+00-2.34677E-13 5.07632E-13
 -1      3816 1.85841E+01 6.08274E-01-7.76664E-03 1.65176E+00-1.47181E-13-2.48427E-14
 -1      3817 1.85623E+01 4.75008E-01 9.59268E-03 1.82515E+00-8.23138E-14 1.37682E-13
 -1      3818 1.82579E+01 8.02949E-01 4.85475E-03 1.46293E+00-1.34601E-13 4.89360E-13
 -1      3819 1.92810E+01 7.63818E-01-4.36827E-03 8.93113E-01-1.34095E-14 8.78443E-14
 -1      3820 1.92162E+01 7.89062E-01 1.76638E-03 9.89918E-01-1.04629E-13 6.45046E-14
 -1      3821 1.89083E+01 8.89189E-01 4.56141E-03 9.49691E-01-1.15626E-13 1.12335E-13
 -1      3822 1.94556E+01 6.92801E-01-3.62281E-03 7.25316E-01 2.53299E-13 8.23991E-14
 -1      3823 1.93998E+01 7.33166E-01 1.06003E-03 8.08200E-01 1.14138E-13 2.47790E-14
 -1      3824 1.91602E+01 8.29522E-01 3.86244E-03 7.72623E-01 1.40809E-13-5.47989E-14
 -1      3825 1.95966E+01 6.04661E-01-2.99977E-03 5.83382E-01 1.85886E-13 3.14249E-14
 -1      3826 1.95515E+01 6.51208E-01 7.59384E-04 6.54377E-01 3.51601E-13 1.68695E-13
 -1      3827 1.93652E+01 7.41120E-01 3.21258E-03 6.26232E-01 2.13659E-13 8.03645E-14
 -1      3828 1.97076E+01 5.12514E-01-2.47514E-03 4.63487E-01 2.20441E-14 2.70989E-14
 -1      3829 1.96727E+01 5.59565E-01 6.35182E-04 5.23824E-01 4.95901E-14-1.53480E-14
 -1      3830 1.95288E+01 6.40891E-01 2.60685E-03 5.03245E-01 1.68029E-13 2.43344E-13
 -1      3831 1.97930E+01 4.24291E-01-2.01617E-03 3.63048E-01 1.10781E-13 2.80644E-14
 -1      3832 1.97669E+01 4.68469E-01 5.81209E-04 4.13692E-01 1.34766E-13 6.72238E-14
 -1      3833 1.96569E+01 5.40015E-01 2.06871E-03 3.99685E-01 7.92178E-14 1.89221E-13
 -1      3834 1.98574E+01 3.44252E-01-1.62066E-03 2.79855E-01 4.08464E-14 5.05930E-14
 -1      3835 1.98385E+01 3.83877E-01 5.68041E-04 3.21784E-01 9.34893E-14 8.56814E-15
 -1      3836 1.97554E+01 4.45300E-01 1.63003E-03 3.12995E-01 1.50593E-13 2.23110E-13
 -1      3837 1.99034E+01 2.74524E-01-1.63976E-03 2.11657E-01-2.09730E-13-1.16641E-13
 -1      3838 1.98917E+01 3.08950E-01 6.44985E-04 2.46289E-01-9.12798E-14-8.74603E-14
 -1      3839 1.98299E+01 3.60037E-01 1.20389E-03 2.41414E-01-4.99412E-14 1.51132E-13
 -1      3840 1.99278E+01 2.40214E-01 3.16462E-04 1.72545E-01-1.20190E-13-4.60582E-14
 -1      3841 1.87993E+01-1.46798E+00 6.60920E-02 3.41143E+00-3.37207E-13-9.22591E-14
 -1      3842 2.01400E+01 1.79359E+00-1.31685E-03-1.22793E-01 6.41838E-14-5.50575E-13
 -1      3843 2.01575E+01 1.73182E+00-3.48082E-03-1.90915E-01 1.94388E-14-5.35067E-13
 -1      3844 2.02150E+01 1.51336E+00 3.68964E-03-1.23437E-01 1.56181E-14-4.92537E-13
 -1      3845 1.53077E+01-2.34700E-01 3.11530E-02-3.04776E+00 1.25737E-14-1.19252E-13
 -1      3846 1.64276E+01-8.97759E-01-7.80673E-03-3.45221E+00 1.45340E-13 1.39670E-13
 -1      3847 1.34377E+01 7.82656E-01 1.33318E-02-1.29758E+00 8.73056E-14-3.60115E-13
 -1      3848 1.41934E+01 2.81744E-01-2.59055E-03-2.41672E+00 7.04905E-14-3.22110E-13
 -1      3849 2.02802E+01 9.13122E-01-2.28465E-04-3.84217E-03-5.98960E-14-3.54692E-13
 -1      3850 2.02631E+01 7.84995E-01-1.90415E-03 9.03587E-02-4.76096E-14-3.47209E-13
 -1      3851 2.02497E+01 8.09649E-01 1.73741E-03 1.05151E-01-3.41551E-14-3.41301E-13
 -1      3852 1.99259E+01 1.86170E-01-6.29989E-04 4.55978E-02-5.86240E-14 1.47337E-13
 -1      3853 1.99355E+01 1.79768E-01 1.57526E-04 6.01346E-02-1.35640E-13 1.15777E-13
 -1      3854 1.99293E+01 1.94269E-01 8.98054E-05 7.76893E-02-1.47041E-14 2.26656E-15
 -1      3855 1.99096E+01 2.13530E-01 8.66265E-04 4.10530E-02-5.40777E-14-5.81160E-15
 -1      3856 2.02654E+01 6.69566E-01-1.43331E-03-1.33240E-02 2.83985E-13-1.38176E-13
 -1      3857 2.02874E+01 7.70663E-01 2.23004E-03 1.01624E-01 3.13981E-13-1.54788E-13
 -1      3858 2.02908E+01 9.03142E-01-1.71695E-03 1.41798E-01 3.11287E-13-2.09739E-13
 -1      3859 2.02715E+01 7.16535E-01-4.16018E-04-4.92323E-02 2.62831E-13-1.91510E-13
 -1      3860 1.88582E+01-1.62500E+00-3.54344E-02 3.21986E+00 3.81680E-13-4.82722E-14
 -1      3861 1.53967E+01-2.69794E-01-2.09914E-02 2.99180E+00 2.67544E-13-3.05238E-13
 -1      3862 1.42837E+01 4.69090E-01 2.00815E-02 1.97994E+00 1.42589E-13-3.48513E-13
 -1      3863 1.71854E+01-7.27874E-01 5.06816E-02 3.18469E+00 4.05546E-13-2.52589E-13
 -1      3864 2.02658E+01 1.19527E+00-1.93273E-03-1.43240E-01-5.96541E-14-4.33260E-13
 -1      3865 2.02762E+01 1.03131E+00-4.04642E-04-5.51546E-02-4.64916E-14-3.89314E-13
 -1      3866 2.02681E+01 1.03660E+00 1.30945E-03-1.64169E-02-1.76401E-14-3.46680E-13
 -1      3867 2.02485E+01 1.29350E+00 2.02926E-04-1.17012E-01-1.77455E-15-4.15464E-13
 -1      3868 1.83644E+01 2.73902E-01-8.13675E-03 2.05937E+00-1.52270E-13 4.95254E-14
 -1      3869 1.84494E+01 1.20105E-02 1.40470E-02 2.27736E+00-1.49572E-13 4.21253E-14
 -1      3870 1.78913E+01 5.62151E-01 8.12733E-03 1.86868E+00-1.55467E-13 5.52875E-13
 -1      3871 2.01238E+01 1.83500E+00-2.36032E-03-1.05350E-02 1.15734E-13-5.04470E-13
 -1      3872 2.01287E+01 1.81465E+00-3.54080E-03-8.30294E-02 6.70373E-14-5.39034E-13
 -1      3873 2.01955E+01 1.59466E+00 5.18179E-03-5.16520E-02 5.60332E-14-5.33304E-13
 -1      3874 2.01908E+01 1.61855E+00 5.96701E-03 1.49609E-02 1.10444E-13-4.58418E-13
 -1      3875 2.02826E+01 1.21255E+00 4.88668E-03 2.38208E-01 2.95143E-13-2.82704E-13
 -1      3876 1.79757E+01-7.69254E-01 2.23906E-02 3.00105E+00-1.97849E-13-4.86852E-14
 -1      3877 1.51897E+01 5.91155E-01 3.40344E-03 1.68812E+00 1.67600E-13-3.01030E-13
 -1      3878 1.40769E+01 7.76401E-01 4.13065E-02 1.40316E+00 1.17056E-13-4.31333E-13
 -1      3879 1.40305E+01 8.81045E-01-1.06944E-02 5.86684E-01 7.13691E-14-5.18408E-13
 -1      3880 1.57627E+01 3.30469E-01 2.85175E-03 2.27830E+00-2.35540E-13 1.77251E-13
 -1      3881 1.48704E+01 7.03515E-01 6.31063E-02 1.92839E+00-2.38202E-13 1.41017E-13
 -1      3882 1.47512E+01 8.67902E-01-1.48660E-02 1.23312E+00-1.46659E-13 5.83370E-14
 -1      3883 1.99337E+01 1.88456E-01 3.00347E-04-7.95515E-02 1.17345E-13-1.74757E-13
 -1      3884 1.89954E+01 7.06653E-01-6.02999E-03-1.31989E+00 1.01156E-14-8.76793E-14
 -1      3885 1.88260E+01 8.10871E-01 4.43169E-03-1.15549E+00 3.79735E-14-8.48072E-14
 -1      3886 1.89226E+01 6.81117E-01 4.72005E-03-1.43952E+00-6.79771E-14-1.17938E-13
 -1      3887 1.99168E+01 4.96337E-01 4.19875E-04-6.12194E-01 7.75892E-14-1.07607E-13
 -1      3888 1.99678E+01 4.79305E-01-1.35116E-03-5.49717E-01 5.84773E-14-1.35015E-13
 -1      3889 1.78063E+01-2.79232E-01 9.26969E-03 2.69598E+00-1.40104E-13-3.91280E-14
 -1      3890 1.97544E+01 5.43867E-01 1.43172E-03-9.11864E-01 6.41097E-14-7.48256E-14
 -1      3891 1.95097E+01-1.12958E+00 1.97688E-02-2.55648E+00 1.32627E-13-1.96388E-13
 -1      3892 1.91149E+01-6.95401E-01 4.32268E-03-2.39241E+00 7.72182E-14-1.99700E-13
 -1      3893 1.99260E+01 2.09708E-01 4.24421E-04-1.13151E-01 3.72844E-13-1.89856E-13
 -1      3894 1.72695E+01-6.89544E-01 9.16953E-03-3.10381E+00-2.55878E-13-4.09674E-13
 -1      3895 1.63529E+01-8.82377E-02 5.04045E-02-2.83555E+00-2.39117E-13-5.32365E-13
 -1      3896 1.34434E+01 6.59048E-01 8.44055E-02-1.68342E+00-8.32832E-14-6.43891E-13
 -1      3897 1.44807E+01 2.62651E-01-2.57562E-02-2.31882E+00-9.91863E-14-6.39717E-13
 -1      3898 1.38340E+01 8.44525E-01 3.73938E-03-8.78715E-01-6.86387E-14-5.80121E-13
 -1      3899 1.84052E+01-3.64021E-01-9.60709E-03-2.39509E+00 7.00225E-14-1.94824E-13
 -1      3900 1.97698E+01 5.51243E-01 7.54541E-04-7.33876E-01 6.92831E-14-1.02987E-13
 -1      3901 1.98280E+01 5.20061E-01-2.14077E-03-6.68355E-01 9.03184E-14-1.06399E-13
 -1      3902 1.98156E+01 5.65049E-01 1.89175E-03-5.77960E-01 6.62357E-14-1.03774E-13
 -1      3903 1.93965E+01 6.84244E-01 1.71637E-03-1.02384E+00 3.93478E-14-6.44944E-14
 -1      3904 1.94703E+01 6.52662E-01-3.84028E-03-9.40596E-01 8.23719E-14-7.72834E-14
 -1      3905 1.91364E+01 7.76315E-01 3.92871E-03-9.69398E-01 6.09113E-14-9.77447E-14
 -1      3906 1.99078E+01 2.24744E-01-4.48704E-04 9.47420E-02 4.44771E-14-1.17659E-14
 -1      3907 1.98780E+01 2.44440E-01-3.05167E-04-1.29000E-02 2.12745E-13-3.22498E-13
 -1      3908 1.98776E+01 2.44659E-01-4.42655E-04 9.66252E-03 3.92426E-14-3.02594E-13
 -1      3909 2.02206E+01 5.90714E-01-7.68764E-04-2.35573E-01 1.62326E-13-1.90719E-13
 -1      3910 2.02502E+01 6.67143E-01 2.82926E-04-1.48489E-01 1.74209E-13-2.13673E-13
 -1      3911 2.01420E+01 4.98972E-01-2.63548E-04-3.73496E-01 1.19171E-13-1.62621E-13
 -1      3912 2.01799E+01 5.34815E-01-1.04583E-04-3.00907E-01 1.54104E-13-1.77377E-13
 -1      3913 2.01971E+01 6.29587E-01 3.78953E-04-2.35923E-01 1.38881E-13-1.87767E-13
 -1      3914 2.00843E+01 4.26610E-01 2.45186E-04-5.10792E-01 1.12259E-13-1.99392E-13
 -1      3915 1.98833E+01 2.81757E-01 6.01427E-04 1.70124E-01-1.66042E-13-9.67535E-14
 -1      3916 1.42457E+01 9.83564E-01 3.26253E-02-5.27628E-01 2.99569E-14-2.04651E-13
 -1      3917 1.89118E+01-2.27502E+00 1.13689E-02-3.80623E+00-2.56531E-13-4.25297E-13
 -1      3918 1.89430E+01-1.87352E+00 3.49889E-02-3.60038E+00-2.63897E-13-3.81417E-13
 -1      3919 1.54839E+01 2.17697E-01 3.92948E-02-2.39579E+00 7.62151E-15-1.37281E-13
 -1      3920 1.86803E+01-1.26600E+00 4.26650E-02-3.28372E+00-2.86675E-13-3.66955E-13
 -1      3921 2.02195E+01 1.36148E+00-3.83340E-03 7.59926E-02 1.59829E-13-3.84946E-13
 -1      3922 2.02099E+01 1.40352E+00-2.45605E-03 4.04884E-02 1.28587E-13-3.97315E-13
 -1      3923 1.69994E+01-1.59988E+00 7.56313E-02-4.05623E+00-2.75217E-13-4.91281E-13
 -1      3924 1.86919E+01-2.53462E+00 3.63808E-02-4.14117E+00-3.54477E-13-4.42858E-13
 -1      3925 1.98920E+01 2.32607E-01-1.35236E-04-6.02551E-02 3.38176E-13-2.04933E-13
 -1      3926 1.98827E+01 2.38877E-01-7.97971E-04-3.98344E-02 3.23160E-13-4.19095E-13
 -1      3927 1.98615E+01 2.70687E-01 9.14770E-04-3.03765E-02 3.15713E-13-3.32256E-13
 -1      3928 1.76742E+01-1.12434E+00-5.08368E-03-3.33483E+00 1.56192E-13-1.93062E-14
 -1      3929 1.86789E+01 5.29223E-01 8.48676E-03-1.73604E+00-1.44936E-13-1.36426E-13
 -1      3930 1.87257E+01 6.19076E-01-7.41148E-03-1.58540E+00-9.62529E-14-1.32610E-13
 -1      3931 1.84700E+01 7.74310E-01 4.40930E-03-1.39891E+00-6.18667E-14-1.46591E-13
 -1      3932 2.02430E+01 1.24495E+00 5.77474E-03 1.42239E-02 1.12488E-13-3.66969E-13
 -1      3933 2.02047E+01 1.41710E+00-2.74672E-03 2.60940E-02 1.21293E-13-3.98879E-13
 -1      3934 2.02038E+01 1.41762E+00-2.92246E-03-2.70566E-03 7.58135E-14-4.35000E-13
 -1      3935 1.70314E+01-2.44942E-01 8.21735E-03 2.61990E+00 2.86889E-13-1.75525E-13
 -1      3936 1.70510E+01 1.37604E-01 1.17240E-02 2.47674E+00-2.71730E-13 1.99290E-13
 -1      3937 2.02788E+01 1.07304E+00-5.77042E-04 1.32520E-01 2.64262E-13-2.67462E-13
 -1      3938 1.60945E+01-9.37383E-01 4.75325E-03-3.54063E+00-2.19508E-13-5.69213E-13
 -1      3939 1.80748E+01 6.16971E-01 3.72790E-03-1.73510E+00-5.69891E-14-2.58712E-13
 -1      3940 2.00874E+01 6.04547E-01-9.13844E-04 2.59504E-01-4.49108E-14-3.41605E-13
 -1      3941 2.00263E+01 5.79479E-01-6.82981E-04 3.10825E-01-3.93716E-14-3.34973E-13
 -1      3942 1.99438E+01 5.69264E-01-1.53537E-03 3.49395E-01-3.53222E-15-3.03717E-13
 -1      3943 1.98694E+01 5.72080E-01-2.17644E-04 3.99461E-01 1.15058E-14-2.45634E-13
 -1      3944 1.99641E+01 6.19229E-01 1.90570E-03 2.64615E-01 1.43448E-15-3.64058E-13
 -1      3945 1.97665E+01 5.83723E-01-2.10145E-03 4.40868E-01 3.30535E-14-2.22562E-13
 -1      3946 1.96798E+01 6.04142E-01 2.21921E-04 4.93944E-01 3.35599E-14-1.90708E-13
 -1      3947 1.97819E+01 6.23733E-01 2.15804E-03 3.40313E-01 4.91087E-14-2.43256E-13
 -1      3948 1.95562E+01 6.27640E-01-2.80618E-03 5.42128E-01 4.75135E-15-1.27625E-13
 -1      3949 1.94583E+01 6.55372E-01 6.38519E-04 6.02723E-01 2.13143E-14-1.38497E-13
 -1      3950 1.95612E+01 6.66772E-01 2.68944E-03 4.24065E-01 5.22706E-14-1.91325E-13
 -1      3951 1.93126E+01 6.80130E-01-3.79170E-03 6.62288E-01 2.52267E-14-9.92087E-14
 -1      3952 1.92049E+01 7.04702E-01 1.25760E-03 7.35454E-01 9.99157E-15-1.02781E-13
 -1      3953 1.93002E+01 7.28432E-01 3.36406E-03 5.24692E-01 1.94727E-14-1.24557E-13
 -1      3954 1.90347E+01 7.18717E-01-5.04985E-03 8.13139E-01-3.04685E-15-9.10460E-14
 -1      3955 1.89208E+01 7.26978E-01 2.23730E-03 9.05509E-01 2.28192E-14-5.71455E-14
 -1      3956 1.89952E+01 7.86932E-01 3.81667E-03 6.51834E-01 2.67856E-14-7.70889E-14
 -1      3957 1.87235E+01 7.15649E-01-6.61402E-03 1.00937E+00-1.56255E-14-9.65224E-14
 -1      3958 1.86100E+01 6.92913E-01 4.14717E-03 1.12998E+00 2.48499E-15-1.26487E-13
 -1      3959 1.86430E+01 8.18252E-01 4.57584E-03 8.21867E-01-1.33189E-14-1.03004E-13
 -1      3960 1.83810E+01 6.37716E-01-8.78521E-03 1.27429E+00 7.63009E-14-1.41014E-13
 -1      3961 1.82782E+01 5.62058E-01 5.97019E-03 1.43726E+00 1.25570E-13-1.06397E-13
 -1      3962 1.82367E+01 7.94806E-01 5.48197E-03 1.05475E+00 2.55404E-14-1.30644E-13
 -1      3963 1.80164E+01 4.41496E-01-1.10166E-02 1.63544E+00 1.32430E-13-1.12747E-13
 -1      3964 1.79318E+01 2.75598E-01 2.87642E-03 1.86881E+00 1.61046E-13-7.34795E-14
 -1      3965 1.77802E+01 6.75494E-01 8.64123E-03 1.39062E+00 1.49446E-13-1.11516E-13
 -1      3966 1.75086E+01 1.68798E-01-1.68106E-02 2.05195E+00 2.03358E-13-5.33861E-14
 -1      3967 1.74808E+01-1.42790E-01-7.49926E-03 2.36827E+00 2.83012E-13-8.71761E-14
 -1      3968 1.61725E+01 4.50125E-01 4.25386E-02 2.10924E+00 1.80352E-13-1.33304E-13
 -1      3969 1.71629E+01 5.52299E-01 2.85950E-02 1.74229E+00 1.54350E-13-4.62495E-14
 -1      3970 2.02872E+01 8.70163E-01 1.55348E-03 2.12480E-02 2.42907E-13-2.29062E-13
 -1      3971 2.02657E+01 1.14053E+00-7.69943E-04 9.99570E-02 2.31460E-13-2.83665E-13
 -1      3972 1.79085E+01 3.46323E-01 5.97324E-03-1.83463E+00 1.14448E-13-5.04223E-14
 -1      3973 1.79588E+01 5.18092E-01-1.08389E-02-1.59765E+00 7.39914E-14-3.65558E-14
 -1      3974 1.99043E+01 2.25921E-01-5.55546E-04-9.60069E-02 3.49432E-13-9.87038E-14
 -1      3975 1.82021E+01 6.41559E-01 5.08202E-03-1.39625E+00-1.09316E-13-9.62365E-14
 -1      3976 1.82915E+01 7.25899E-01-8.36704E-03-1.22764E+00-1.29927E-13-9.24521E-14
 -1      3977 1.76990E+01 7.51021E-01 5.52706E-03-1.36054E+00-7.96140E-15-2.63384E-13
 -1      3978 1.85030E+01 7.86596E-01 4.14955E-03-1.07779E+00-1.45570E-13-2.11729E-13
 -1      3979 1.86010E+01 8.13922E-01-6.53142E-03-9.51480E-01-2.08079E-13-2.08890E-13
 -1      3980 1.81258E+01 8.90584E-01 6.18881E-03-1.01991E+00-2.04368E-13-3.26864E-13
 -1      3981 1.87797E+01 8.28081E-01 2.16217E-03-8.42425E-01-1.88519E-13-2.69288E-13
 -1      3982 1.88761E+01 8.20765E-01-5.12619E-03-7.44731E-01-1.11512E-13-2.43583E-13
 -1      3983 1.84976E+01 9.23406E-01 5.50253E-03-7.76015E-01-1.91769E-13-5.64672E-13
 -1      3984 1.90253E+01 8.05353E-01 1.07587E-03-6.62212E-01-1.43312E-13-1.75973E-13
 -1      3985 1.91133E+01 7.76150E-01-4.07712E-03-5.84780E-01-1.73946E-13-2.01321E-13
 -1      3986 1.88102E+01 8.92952E-01 4.50095E-03-5.98550E-01-1.00660E-13-3.62519E-13
 -1      3987 1.92368E+01 7.42810E-01 5.15128E-04-5.21225E-01-2.59201E-13-1.55023E-13
 -1      3988 1.93132E+01 7.01445E-01-3.26581E-03-4.58895E-01-1.90869E-13-3.58536E-13
 -1      3989 1.90716E+01 8.23174E-01 3.84091E-03-4.63600E-01-2.31928E-13-3.32156E-13
 -1      3990 1.94138E+01 6.59074E-01 2.08571E-04-4.09187E-01-6.14042E-14-2.99157E-13
 -1      3991 1.94777E+01 6.12643E-01-2.63271E-03-3.58505E-01-5.81117E-14-4.07210E-13
 -1      3992 1.92866E+01 7.31568E-01 3.17998E-03-3.59922E-01-8.63648E-14-3.20625E-13
 -1      3993 1.95586E+01 5.67263E-01 7.64465E-05-3.19150E-01-6.52547E-14-3.56251E-13
 -1      3994 1.96105E+01 5.20456E-01-2.13104E-03-2.77831E-01-7.80577E-14-2.11106E-13
 -1      3995 1.94609E+01 6.31616E-01 2.60782E-03-2.78626E-01 1.59790E-14-2.17858E-13
 -1      3996 1.96748E+01 4.76020E-01 3.26133E-05-2.46593E-01-5.61209E-14-8.64273E-14
 -1      3997 1.97159E+01 4.31974E-01-1.67103E-03-2.13052E-01 2.38344E-13-1.79601E-14
 -1      3998 1.96001E+01 5.32047E-01 2.11614E-03-2.14222E-01 1.91121E-15 7.95496E-14
 -1      3999 1.97660E+01 3.90538E-01-5.06064E-05-1.88095E-01 2.97546E-13-1.40649E-13
 -1      4000 1.97980E+01 3.50769E-01-1.35998E-03-1.61372E-01 3.29224E-13-4.26603E-15
 -1      4001 1.97098E+01 4.38947E-01 1.84658E-03-1.63067E-01 1.86151E-13 4.65462E-14
 -1      4002 1.98362E+01 3.14938E-01 9.79654E-05-1.41634E-01 3.43580E-13-4.67463E-14
 -1      4003 1.98601E+01 2.80645E-01-8.91893E-04-1.20042E-01 3.35651E-13-1.88771E-14
 -1      4004 1.97938E+01 3.54350E-01 1.10231E-03-1.22521E-01 3.32391E-13-1.59541E-13
 -1      4005 1.68547E+01 3.69744E-01-2.06735E-02-2.10092E+00-1.75809E-13-3.93107E-13
 -1      4006 1.70840E+01 6.04998E-01-1.99507E-02-1.79050E+00-5.25493E-14-2.86228E-13
 -1      4007 2.00403E+01 4.73532E-01 1.07739E-04-4.95315E-01 8.42364E-14-1.46220E-13
 -1      4008 2.00849E+01 4.78662E-01-6.42126E-04-4.30705E-01 1.15619E-13-1.60732E-13
 -1      4009 2.01002E+01 5.47245E-01 7.86041E-04-3.59526E-01 9.80220E-14-1.82568E-13
 -1      4010 2.02217E+01-3.10209E+00 7.52726E-02-3.92106E+00-3.92551E-13-2.74260E-13
 -1      4011 1.74911E+01-5.22694E-01 4.54369E-03-2.86548E+00 7.41750E-14 1.84752E-14
 -1      4012 1.75223E+01 7.30892E-01 3.28252E-03-1.58133E+00-1.72583E-14-3.04350E-13
 -1      4013 1.77195E+01 8.11852E-01-1.41978E-02-1.39702E+00-1.23781E-14-2.49525E-13
 -1      4014 1.68671E+01 8.71552E-01 1.91871E-02-1.42475E+00-5.28922E-14-2.95947E-13
 -1      4015 1.90519E+01 8.59846E-01-4.50385E-03 6.18489E-01 1.14403E-13 1.68052E-13
 -1      4016 1.89393E+01 9.05760E-01-3.68401E-04 6.91138E-01 5.84800E-14 1.26541E-13
 -1      4017 2.02533E+01 1.21842E+00-2.90053E-03 1.05231E-01 2.05308E-13-3.22832E-13
 -1      4018 2.02353E+01 1.30101E+00-9.73796E-04 7.91593E-02 1.70885E-13-3.52236E-13
 -1      4019 2.02562E+01 1.16612E+00 4.90012E-03 2.09245E-02 1.45420E-13-3.40450E-13
 -1      4020 2.02699E+01 1.02001E+00 2.46992E-03 6.39275E-03 1.78213E-13-2.93682E-13
 -1      4021 1.84014E+01 9.83230E-01-7.80317E-03 9.35931E-01-1.24979E-13 3.76761E-13
 -1      4022 1.82427E+01 9.83857E-01 1.35513E-03 1.04918E+00-1.38485E-13 4.89934E-13
 -1      4023 1.79577E+01 9.55151E-01-1.13674E-02 1.16894E+00-2.48631E-13 5.97771E-13
 -1      4024 1.77803E+01 9.08408E-01 2.93630E-03 1.32333E+00-1.68450E-13 5.66576E-13
 -1      4025 1.78333E+01 1.09244E+00 9.96755E-03 9.12167E-01-1.14539E-13 4.18189E-13
 -1      4026 1.92838E+01 7.58128E-01-3.55970E-03 5.01607E-01 1.41984E-13 3.09420E-13
 -1      4027 1.91931E+01 8.11695E-01-4.37420E-04 5.62694E-01 1.45268E-13 2.07231E-13
 -1      4028 1.90095E+01 8.96974E-01 4.82837E-03 4.85296E-01 6.69331E-14 3.05928E-13
 -1      4029 1.94671E+01 6.49994E-01-2.85553E-03 4.03191E-01 9.61187E-14 4.16716E-13
 -1      4030 1.93954E+01 7.05123E-01-3.71360E-04 4.55043E-01 1.98189E-13 4.46086E-13
 -1      4031 1.92527E+01 7.83074E-01 3.83029E-03 3.94771E-01 5.98763E-14 4.59074E-13
 -1      4032 1.96100E+01 5.44439E-01-2.31961E-03 3.20099E-01 5.99526E-14 4.41111E-13
 -1      4033 1.95545E+01 5.97242E-01-2.55296E-04 3.64006E-01 5.18337E-14 4.61664E-13
 -1      4034 1.94440E+01 6.67029E-01 3.00919E-03 3.18188E-01 1.59268E-14 4.64058E-13
 -1      4035 1.97202E+01 4.47125E-01-1.76193E-03 2.50518E-01 9.93803E-14 4.68177E-13
 -1      4036 1.96779E+01 4.95107E-01-1.29658E-04 2.87292E-01 1.40355E-13 4.66156E-13
 -1      4037 1.95930E+01 5.56156E-01 2.34196E-03 2.53159E-01 9.11933E-14 6.59935E-13
 -1      4038 1.98030E+01 3.59550E-01-1.74958E-03 1.92203E-01-9.79554E-14 3.50950E-13
 -1      4039 1.97720E+01 4.02914E-01 2.51886E-05 2.22746E-01 5.64705E-14 3.98427E-13
 -1      4040 1.97072E+01 4.55529E-01 1.81435E-03 1.98613E-01 6.97242E-14 5.90381E-13
 -1      4041 1.47671E+01 1.12297E+00 1.81562E-03 5.10049E-02-1.41408E-13-2.98902E-13
 -1      4042 1.48832E+01 9.49023E-01-3.48409E-03-1.09606E+00 9.56589E-15-3.01880E-13
 -1      4043 1.74115E+01 8.16086E-01-1.79761E-02 1.49527E+00-2.75120E-13 4.39393E-13
 -1      4044 1.72365E+01 6.93983E-01 3.77398E-03 1.72538E+00-2.96700E-13 4.05984E-13
 -1      4045 1.72232E+01 1.03704E+00 1.43226E-02 1.17367E+00-2.76295E-13 3.31149E-13
 -1      4046 1.53856E+01 6.10219E-01 1.05770E-02-1.87690E+00 1.32133E-13-1.64490E-13
 -1      4047 1.62609E+01 5.15130E-02-1.69105E-02-2.51716E+00 3.92590E-14 3.73954E-14
 -1      4048 1.98612E+01 2.72280E-01 1.10473E-03 2.58940E-02 6.69507E-14-9.02766E-14
 -1      4049 1.98817E+01 2.41003E-01-7.44713E-04 3.67386E-02-3.33844E-14-8.26784E-14
 -1      4050 1.98908E+01 2.35721E-01-2.41497E-06 5.77360E-02 7.67413E-14 1.28969E-13
 -1      4051 1.98831E+01 2.58304E-01 6.61583E-04 9.40102E-02 5.69256E-14 2.66526E-14
 -1      4052 1.87619E+01 9.41345E-01-5.75426E-03 7.59245E-01 5.18252E-14-1.08503E-14
 -1      4053 1.86255E+01 9.71456E-01 2.10485E-04 8.47783E-01-6.52340E-14 2.36218E-13
 -1      4054 1.87030E+01 9.96940E-01 5.97351E-03 5.94131E-01 2.33765E-15 1.07386E-13
 -1      4055 2.02063E+01 1.41142E+00-2.24931E-03-1.68517E-02 7.78857E-14-4.89114E-13
 -1      4056 2.02117E+01 1.38951E+00-2.53672E-03-4.45407E-02 5.04086E-14-5.22283E-13
 -1      4057 2.02396E+01 1.25247E+00 5.66356E-03-2.02639E-03 7.65732E-14-4.37003E-13
 -1      4058 2.02203E+01 1.38128E+00-1.53898E-03-6.27112E-02 3.92297E-14-5.05833E-13
 -1      4059 2.02335E+01 1.32331E+00-2.45236E-03-9.67442E-02 2.16583E-14-4.75943E-13
 -1      4060 2.02554E+01 1.18970E+00 1.88986E-03-5.18715E-02 2.47892E-14-4.43869E-13
 -1      4061 2.02437E+01 1.23409E+00 4.01980E-03-2.24787E-02 4.66321E-14-4.94606E-13
 -1      4062 1.95971E+01 6.20341E-01 1.11310E-03-8.68693E-01 6.48389E-14-1.06868E-13
 -1      4063 1.96630E+01 5.84010E-01-2.98150E-03-7.96146E-01 5.91801E-14-9.16386E-14
 -1      4064 1.96263E+01 6.29485E-01 2.43272E-03-6.91826E-01 6.55214E-14-1.41681E-13
 -1      4065 1.94018E+01 7.06718E-01 3.18108E-03-8.18799E-01 5.55825E-14-9.75282E-14
 -1      4066 2.02539E+01 9.07793E-01 4.78503E-04 5.06812E-02-1.05407E-14-3.94763E-13
 -1      4067 2.02262E+01 7.95550E-01-1.95014E-03 1.19369E-01-3.46825E-15-3.73459E-13
 -1      4068 1.99728E+01 5.31913E-01 1.35673E-03-4.70187E-01 7.06866E-14-1.26021E-13
 -1      4069 2.01936E+01 7.09282E-01-3.54806E-04 1.62543E-01-1.70350E-14-3.55995E-13
 -1      4070 2.01471E+01 6.46424E-01-1.36492E-03 2.19517E-01-3.06253E-14-3.51644E-13
 -1      4071 2.01063E+01 6.74751E-01 2.38821E-03 1.90089E-01-2.79601E-14-3.59666E-13
 -1      4072 2.02024E+01 8.04643E-01 1.20305E-03 1.10328E-01-6.32093E-15-4.05285E-13
 -1      4073 2.02719E+01 7.81354E-01-9.56776E-04-6.55417E-02 2.16043E-13-2.24684E-13
 -1      4074 1.65388E+01 5.29148E-01-1.82991E-02 1.97561E+00-2.37623E-13 2.01134E-13
 -1      4075 1.73451E+01-8.83879E-02 1.66967E-02-2.44444E+00 7.84884E-14-1.01997E-13
 -1      4076 1.98567E+01 2.87313E-01-9.61786E-04 1.19159E-01 7.25076E-14 2.51765E-14
 -1      4077 1.98336E+01 3.29965E-01 8.61198E-04 1.56243E-01 9.91201E-15 6.48671E-14
 -1      4078 1.97823E+01 3.68343E-01-5.58815E-04 1.37249E-01 1.60563E-13 3.69728E-13
 -1      4079 1.98383E+01 2.98522E-01-5.35501E-04 7.74779E-02 1.70720E-13 2.51334E-13
 -1      4080 1.60400E+01 3.51619E-01 4.72163E-03-2.16879E+00-1.60811E-13-4.67014E-13
 -1      4081 1.73464E+01 2.06804E-01-8.32073E-03-2.10760E+00 9.51864E-14-4.85811E-14
 -1      4082 1.57642E+01 6.48167E-01-1.27863E-02 1.57905E+00 1.35334E-13-2.03451E-13
 -1      4083 1.68888E+01 5.67266E-01-1.88615E-03-1.76695E+00 1.32527E-13-1.26376E-13
 -1      4084 2.02591E+01 8.09363E-01 5.55813E-04-8.66697E-02 1.96804E-13-2.40224E-13
 -1      4085 1.98465E+01 2.87994E-01-4.45827E-04-8.10971E-02 3.75631E-13-1.94774E-13
 -1      4086 1.98793E+01 2.59293E-01 4.73292E-04-9.58070E-02 4.07104E-13-8.39743E-14
 -1      4087 1.42803E+01 1.07630E+00 5.52335E-02-9.59162E-02 2.93073E-14-5.72173E-13
 -1      4088 1.46502E+01 9.00680E-01-3.49321E-02-8.05760E-01-6.15753E-14-4.78912E-13
 -1      4089 1.49464E+01 9.92557E-01-6.10183E-04 5.02026E-01 7.10543E-14-4.46857E-13
 -1      4090 1.80604E+01 8.69097E-01 2.64784E-03-1.25432E+00-4.58374E-14-2.16754E-13
 -1      4091 1.82418E+01 8.87436E-01-9.71584E-03-1.12640E+00-2.00731E-14-1.76922E-13
 -1      4092 1.75803E+01 9.83346E-01 1.13139E-02-1.10072E+00 9.13766E-16-3.13492E-13
 -1      4093 1.55748E+01 8.21657E-01 4.94723E-02-1.63194E+00-7.15007E-14-4.16450E-13
 -1      4094 2.02354E+01 7.60242E-01 1.26771E-03-1.37069E-01 1.78646E-13-2.29586E-13
 -1      4095 2.02533E+01 8.69806E-01-2.20178E-03-5.68278E-02 1.86978E-13-2.51011E-13
 -1      4096 2.02471E+01 9.51696E-01 6.40762E-05-4.17377E-02 1.50439E-13-2.73418E-13
 -1      4097 1.58045E+01 8.68840E-01 2.22290E-02-1.27162E+00 3.75460E-14-2.52343E-13
 -1      4098 1.88962E+01 8.50638E-01 2.88042E-04-8.57602E-01 5.01536E-14-1.21874E-13
 -1      4099 1.90379E+01 8.13189E-01-4.97315E-03-7.82697E-01 5.40277E-14-1.13372E-13
 -1      4100 2.02384E+01 9.97417E-01-3.42460E-03-1.80739E-02 1.47416E-13-3.25585E-13
 -1      4101 2.02336E+01 1.06093E+00-9.06082E-04-1.19207E-02 1.21589E-13-3.51419E-13
 -1      4102 2.02293E+01 8.76017E-01 1.99975E-03-7.75707E-02 1.15371E-13-2.88632E-13
 -1      4103 2.01514E+01 6.23133E-01 3.00668E-04-2.54747E-01 9.94629E-14-1.85371E-13
 -1      4104 2.01926E+01 6.77664E-01-1.59283E-03-1.89477E-01 1.43478E-13-1.93284E-13
 -1      4105 2.01922E+01 7.42173E-01 3.35698E-04-1.54136E-01 1.25265E-13-2.25411E-13
 -1      4106 1.50546E+01 1.15241E+00 3.40262E-02 5.45999E-01-1.94739E-13-1.60550E-13
 -1      4107 1.55346E+01 1.16991E+00 3.00723E-03 1.29282E-02-2.84924E-13-3.55597E-13
 -1      4108 1.54817E+01 9.80755E-01-6.60534E-03 1.07624E+00-3.32504E-13-5.95791E-14
 -1      4109 1.62041E+01 8.83820E-01 2.32165E-02 1.52529E+00-3.31950E-13 6.40475E-14
 -1      4110 1.98204E+01 3.11156E-01-2.74298E-04 1.31718E-02 2.03048E-13-8.25759E-14
 -1      4111 1.98253E+01 3.06836E-01-6.48902E-04 4.23299E-02 1.78905E-13-1.83448E-14
 -1      4112 1.98033E+01 3.43549E-01 1.60119E-03 6.67200E-02 2.06614E-13 1.09996E-13
 -1      4113 1.83179E+01 1.06979E+00 7.82485E-03 7.30227E-01 9.87273E-14 2.07359E-13
 -1      4114 1.85113E+01 8.93933E-01 1.16360E-03-1.02477E+00 2.59192E-14-1.02961E-13
 -1      4115 1.86746E+01 8.75782E-01-6.68534E-03-9.30082E-01 8.33146E-14-1.07896E-13
 -1      4116 1.86287E+01 9.41375E-01 6.68394E-03-7.31165E-01 5.20792E-14-1.21901E-13
 -1      4117 1.99039E+01 5.70261E-01-5.37946E-04-4.26258E-01 6.93193E-14-1.91287E-13
 -1      4118 1.99762E+01 5.65043E-01-1.19105E-03-3.74615E-01 7.48132E-14-1.91469E-13
 -1      4119 1.97170E+01 6.13625E-01-6.02625E-04-5.17671E-01 3.56113E-14-1.85985E-13
 -1      4120 1.98046E+01 5.86699E-01-1.74719E-03-4.65987E-01 4.81114E-14-1.96219E-13
 -1      4121 1.98218E+01 6.24116E-01 2.53624E-03-3.69404E-01 7.03058E-14-2.40054E-13
 -1      4122 1.98317E+01 3.01612E-01-8.08089E-06-5.01045E-02 3.23128E-13-2.84720E-13
 -1      4123 1.98240E+01 3.04772E-01-1.00824E-03-2.19169E-02 1.33426E-13-1.22137E-13
 -1      4124 1.97905E+01 3.48131E-01 8.10780E-04-7.06108E-03 2.07310E-13-1.63118E-13
 -1      4125 1.98107E+01 3.28415E-01 1.44153E-04-7.40446E-02 2.05895E-13-2.80951E-13
 -1      4126 2.02556E+01 1.06354E+00-1.65396E-03-3.51294E-03 2.95413E-15-4.17340E-13
 -1      4127 2.02258E+01 1.07253E+00-3.11166E-03-1.12765E-04 1.03954E-13-3.46180E-13
 -1      4128 2.02244E+01 1.08598E+00-2.19002E-03-2.12380E-03 8.30225E-14-3.61596E-13
 -1      4129 2.02243E+01 9.42664E-01 3.76972E-03-2.99528E-02 9.53576E-14-3.14050E-13
 -1      4130 2.02443E+01 1.04879E+00 3.86349E-04 1.51934E-02 1.35904E-14-4.55520E-13
 -1      4131 1.97975E+01 6.35708E-01-2.45272E-03 2.28309E-01 6.71292E-14-2.32997E-13
 -1      4132 1.96991E+01 6.52907E-01-1.07889E-04 2.64956E-01 8.83365E-14-2.00129E-13
 -1      4133 1.95695E+01 6.75297E-01-2.93923E-03 2.90567E-01 5.56766E-14-2.05754E-13
 -1      4134 1.94506E+01 7.08149E-01-2.86414E-04 3.31652E-01 3.25335E-14-2.08549E-13
 -1      4135 1.96097E+01 6.99915E-01 3.77113E-03 1.74145E-01 7.03590E-14-2.05706E-13
 -1      4136 1.92963E+01 7.41219E-01-3.37348E-03 3.63874E-01 2.30543E-14-2.05916E-13
 -1      4137 1.91539E+01 7.79277E-01-1.04793E-03 4.12398E-01 1.07669E-14-2.03919E-13
 -1      4138 1.93389E+01 7.66590E-01 5.66800E-03 2.26119E-01 3.60620E-14-2.42640E-13
 -1      4139 1.89663E+01 8.15448E-01-5.37380E-03 4.60356E-01 3.84283E-14-2.00178E-13
 -1      4140 1.88060E+01 8.50816E-01-3.90181E-05 5.24662E-01 4.00591E-14-1.87614E-13
 -1      4141 1.90016E+01 8.60911E-01 8.77362E-03 2.97015E-01 1.07327E-14-2.38878E-13
 -1      4142 1.85763E+01 8.73056E-01-7.97496E-03 5.88506E-01-1.29975E-14-1.96043E-13
 -1      4143 1.83941E+01 8.93703E-01 5.03180E-04 6.75319E-01-3.69394E-14-1.91804E-13
 -1      4144 1.86085E+01 9.44005E-01 1.26675E-02 3.89376E-01 2.84092E-14-2.49698E-13
 -1      4145 1.81113E+01 8.94064E-01-1.07351E-02 7.67456E-01-1.77035E-14-1.48607E-13
 -1      4146 1.79035E+01 8.85968E-01 1.44432E-03 8.93141E-01 6.67730E-14-1.36804E-13
 -1      4147 1.81180E+01 9.98823E-01 1.19981E-02 5.16831E-01 3.13215E-14-1.64734E-13
 -1      4148 1.75475E+01 8.56713E-01-1.26422E-02 1.01404E+00 1.32785E-13-1.19100E-13
 -1      4149 1.72807E+01 7.84936E-01-7.30763E-03 1.20951E+00 1.72443E-13-1.02653E-13
 -1      4150 1.75380E+01 9.96906E-01 1.26293E-02 6.97229E-01 1.10178E-13-1.70158E-13
 -1      4151 1.68435E+01 7.62625E-01-1.41988E-02 1.25836E+00 1.25205E-13-9.00379E-14
 -1      4152 1.64204E+01 7.39012E-01-6.87979E-03 1.37109E+00 1.22865E-13-1.33331E-13
 -1      4153 1.67359E+01 1.02638E+00 1.82481E-02 8.23861E-01 1.67784E-13-2.06474E-13
 -1      4154 1.72382E+01 8.80036E-01 3.93218E-03-1.19400E+00-1.18812E-13-5.24463E-13
 -1      4155 1.74509E+01 9.49103E-01-1.02392E-02-1.00774E+00-2.05321E-13-6.38401E-13
 -1      4156 1.77898E+01 9.82516E-01 1.99704E-03-8.69759E-01-1.34935E-13-6.60949E-13
 -1      4157 1.79842E+01 9.97054E-01-9.18880E-03-7.41363E-01-2.03470E-13-6.27445E-13
 -1      4158 1.74067E+01 1.10413E+00 1.21708E-02-6.95119E-01-2.29883E-13-7.74894E-13
 -1      4159 1.82472E+01 9.99014E-01 6.55258E-04-6.49931E-01-2.10885E-13-4.53335E-13
 -1      4160 1.84084E+01 9.80446E-01-8.75867E-03-5.60734E-01-1.37094E-13-3.67432E-13
 -1      4161 1.79827E+01 1.09968E+00 1.20727E-02-4.99546E-01-1.50973E-13-7.00748E-13
 -1      4162 1.86182E+01 9.60205E-01-3.29639E-04-4.89476E-01 2.88105E-15-3.90456E-13
 -1      4163 1.87580E+01 9.22400E-01-5.75211E-03-4.22977E-01 1.90540E-14-3.51514E-13
 -1      4164 1.84166E+01 1.05899E+00 1.17321E-02-3.61163E-01 1.19978E-14-4.01398E-13
 -1      4165 1.89233E+01 8.81586E-01-1.01599E-03-3.73731E-01-1.35716E-13-3.49894E-13
 -1      4166 1.90408E+01 8.32741E-01-4.34519E-03-3.23405E-01-2.43652E-13-3.13875E-13
 -1      4167 1.87789E+01 9.68101E-01 1.09542E-02-2.67831E-01-4.99385E-14-5.25372E-13
 -1      4168 1.91721E+01 7.83642E-01-9.74495E-04-2.86850E-01-1.34423E-13-1.72398E-13
 -1      4169 1.92682E+01 7.29948E-01-3.30058E-03-2.47643E-01 8.88524E-14-1.39830E-13
 -1      4170 1.90623E+01 8.59404E-01 8.61428E-03-2.00129E-01-9.90044E-14-1.45355E-13
 -1      4171 1.93726E+01 6.77614E-01-8.90689E-04-2.20149E-01 9.08254E-14-2.09500E-13
 -1      4172 1.94501E+01 6.23628E-01-2.54308E-03-1.89060E-01 6.38777E-14-1.16617E-13
 -1      4173 1.92886E+01 7.43739E-01 6.68673E-03-1.49662E-01 9.49151E-14-1.53744E-13
 -1      4174 1.95324E+01 5.72186E-01-7.69477E-04-1.68296E-01 1.55420E-13-3.10288E-14
 -1      4175 1.95942E+01 5.21037E-01-1.90651E-03-1.43409E-01 1.61622E-13 1.38489E-13
 -1      4176 1.94684E+01 6.29122E-01 5.10408E-03-1.11943E-01 2.19773E-13-2.00067E-13
 -1      4177 1.96580E+01 4.72793E-01-7.21116E-04-1.27545E-01-4.60961E-14 8.77136E-14
 -1      4178 1.97077E+01 4.26941E-01-9.85644E-04-1.07107E-01 9.55587E-14-7.71798E-14
 -1      4179 1.96086E+01 5.21063E-01 3.47628E-03-8.38957E-02 4.18808E-14-2.03388E-13
 -1      4180 1.97723E+01 3.66257E-01-6.14497E-04-8.90990E-02 2.07701E-13-1.72732E-13
 -1      4181 2.00424E+01 5.70388E-01-3.09994E-04-3.43312E-01 7.87595E-14-1.66161E-13
 -1      4182 2.01017E+01 5.91061E-01-8.81169E-04-2.87553E-01 1.01657E-13-1.83397E-13
 -1      4183 2.00985E+01 6.38257E-01-5.45250E-04-2.37467E-01 1.20354E-13-1.76763E-13
 -1      4184 1.99825E+01 6.14347E-01 2.04298E-03-3.01620E-01 9.98962E-14-1.77779E-13
 -1      4185 2.01896E+01 7.76909E-01-1.62802E-03-1.09612E-01 1.12490E-13-2.73431E-13
 -1      4186 2.01873E+01 8.25252E-01-7.38153E-04-7.84571E-02 1.03416E-13-2.94508E-13
 -1      4187 2.01483E+01 7.13762E-01 2.09165E-03-1.56223E-01 1.06999E-13-2.57850E-13
 -1      4188 2.02337E+01 1.05418E+00-2.71091E-03 2.16342E-02 4.51226E-14-4.63823E-13
 -1      4189 1.70712E+01 1.13313E+00-1.47224E-02 7.52886E-01-2.57892E-13 1.69565E-13
 -1      4190 1.67163E+01 1.09447E+00-7.63835E-03 8.91079E-01-3.94958E-13 1.14564E-13
 -1      4191 1.62654E+01 1.12813E+00 4.10470E-03-6.74825E-01-2.00195E-13-5.30620E-13
 -1      4192 1.66177E+01 8.29400E-01-3.54658E-03-1.36436E+00-3.58256E-14-4.39466E-13
 -1      4193 1.89810E+01 8.89024E-01-4.43206E-03 3.36125E-01 3.09740E-14 2.19008E-13
 -1      4194 1.88444E+01 9.46909E-01-2.37450E-03 3.75806E-01 4.73912E-14 1.60388E-13
 -1      4195 1.62107E+01 9.28199E-01-1.76115E-02-1.10063E+00-8.32831E-14-3.38870E-13
 -1      4196 1.66514E+01 1.01730E+00-1.79886E-02-9.11128E-01-6.05358E-14-3.39754E-13
 -1      4197 1.92314E+01 7.70895E-01-3.48725E-03 2.75929E-01-3.06979E-14 1.87857E-13
 -1      4198 1.91237E+01 8.31582E-01-1.80704E-03 3.10073E-01 4.32541E-14 1.43127E-13
 -1      4199 1.90063E+01 9.06861E-01 1.03385E-02 2.12797E-01-3.92128E-14-9.44622E-15
 -1      4200 1.77458E+01 1.13796E+00-9.73414E-03 5.98384E-01 7.85925E-14 1.81367E-13
 -1      4201 1.74722E+01 1.14621E+00-3.56038E-03 6.87306E-01-4.97318E-14 2.73629E-13
 -1      4202 1.71169E+01 1.23111E+00 1.17337E-02 4.06354E-01-2.17744E-13-1.51577E-13
 -1      4203 1.94276E+01 6.53441E-01-2.79489E-03 2.23673E-01-1.01750E-13 2.77750E-13
 -1      4204 1.93437E+01 7.12741E-01-1.30605E-03 2.53397E-01-5.04239E-14 2.33659E-13
 -1      4205 1.92511E+01 7.80870E-01 8.05281E-03 1.78242E-01-5.61783E-14-8.40897E-14
 -1      4206 1.95805E+01 5.42786E-01-2.19969E-03 1.78500E-01 6.51271E-14 4.07779E-13
 -1      4207 1.95157E+01 5.97965E-01-9.20067E-04 2.04209E-01 3.13854E-14 2.30910E-13
 -1      4208 1.94430E+01 6.58371E-01 6.17469E-03 1.46643E-01 9.80856E-15-3.66935E-14
 -1      4209 1.97030E+01 4.43573E-01-1.51320E-04 1.40236E-01 4.62102E-14 3.11408E-13
 -1      4210 1.96491E+01 4.91492E-01-7.14883E-04 1.61759E-01 1.06628E-13 3.60295E-13
 -1      4211 1.95916E+01 5.44283E-01 4.36876E-03 1.18404E-01 1.29607E-13-1.39943E-14
 -1      4212 1.90207E+01 8.56474E-01 6.21046E-03-6.17021E-01 4.50752E-14-1.34677E-13
 -1      4213 1.92206E+01 7.73261E-01 1.71237E-06-7.26243E-01 2.97870E-14-1.10594E-13
 -1      4214 1.93390E+01 7.28028E-01-4.81809E-03-6.64875E-01 2.66671E-14-1.48308E-13
 -1      4215 1.86628E+01 9.99332E-01-5.54948E-03 4.07128E-01 1.13283E-15 9.32969E-14
 -1      4216 1.84907E+01 1.04674E+00-3.23299E-03 4.55947E-01-4.65958E-14 1.06230E-13
 -1      4217 1.86930E+01 1.02818E+00 1.23775E-02 2.49681E-01-3.82372E-14 1.39522E-13
 -1      4218 2.02220E+01 1.08226E+00-3.21524E-03 1.02632E-02 6.25758E-14-4.27654E-13
 -1      4219 2.02264E+01 1.07696E+00-1.70287E-03 8.40693E-03 4.74283E-14-4.84029E-13
 -1      4220 2.02239E+01 9.53825E-01 4.87768E-03 6.96571E-03 5.43622E-14-3.94507E-13
 -1      4221 1.99824E+01 6.41623E-01-1.88878E-03 1.72108E-01 2.03754E-14-3.18657E-13
 -1      4222 1.99026E+01 6.33044E-01-4.44720E-04 2.07401E-01 4.92174E-14-2.86406E-13
 -1      4223 1.98356E+01 6.68052E-01 3.39515E-03 1.34176E-01 1.01279E-13-2.25821E-13
 -1      4224 2.02296E+01 9.25625E-01 2.80803E-03 4.18686E-02 2.21407E-14-4.52917E-13
 -1      4225 1.62127E+01 1.06092E+00-1.53090E-02 9.40098E-01-4.37160E-13-7.62888E-15
 -1      4226 1.56726E+01 9.49498E-01 4.64043E-03-9.39338E-01-3.32876E-14-3.93685E-13
 -1      4227 1.56891E+01 9.73122E-01 3.52609E-02 1.01339E+00 8.14526E-14-4.00758E-13
 -1      4228 1.82629E+01 1.08944E+00-5.77194E-03 4.90469E-01 6.36317E-14 1.40980E-13
 -1      4229 1.80470E+01 1.12189E+00-1.90230E-03 5.55820E-01 1.66042E-13 1.74149E-13
 -1      4230 1.82885E+01 1.11284E+00 3.42030E-03 2.97202E-01 3.83314E-15 6.47050E-14
 -1      4231 1.77853E+01 1.19082E+00 8.38610E-03 3.38463E-01 1.29411E-13-4.70453E-14
 -1      4232 1.55843E+01 1.05189E+00-1.97462E-02 3.95028E-01 7.87638E-14-4.13675E-13
 -1      4233 2.01914E+01 8.20620E-01-1.48268E-03 8.23234E-02 4.62016E-15-4.27268E-13
 -1      4234 1.97364E+01 4.01577E-01 1.06612E-03-5.48428E-02 5.29298E-14-2.76168E-13
 -1      4235 1.56624E+01 1.14671E+00 2.60891E-02-3.46852E-01-3.45415E-14-4.33839E-13
 -1      4236 1.99318E+01 6.29467E-01-1.77036E-03-2.41581E-01 1.12701E-13-2.23794E-13
 -1      4237 2.00024E+01 6.38263E-01 6.62149E-04-2.12743E-01 1.30400E-13-1.94007E-13
 -1      4238 2.01823E+01 8.37570E-01-1.56836E-03-5.33164E-02 7.96543E-14-3.00098E-13
 -1      4239 1.62482E+01 1.22336E+00 1.97349E-02 4.65375E-01-4.37961E-13-2.82582E-13
 -1      4240 1.67135E+01 1.14834E+00 1.93911E-02-5.07393E-01-5.32699E-14-3.26158E-13
 -1      4241 1.71476E+01 1.03556E+00-6.62408E-03-8.24160E-01-2.68355E-14-3.49886E-13
 -1      4242 1.74798E+01 1.04589E+00-1.24488E-02-7.20943E-01 4.47355E-14-3.14092E-13
 -1      4243 1.97363E+01 4.05469E-01-3.29657E-04 1.02531E-01 1.28260E-13 1.34550E-13
 -1      4244 1.88311E+01 9.02720E-01-2.56890E-03-4.71139E-01 4.92073E-14-2.35594E-13
 -1      4245 1.90027E+01 8.52211E-01-6.16963E-03-4.26244E-01 1.53533E-14-2.39812E-13
 -1      4246 1.81590E+01 9.93096E-01 8.77300E-03-8.83254E-01 4.84084E-14-1.96584E-13
 -1      4247 1.95947E+01 6.48175E-01-2.51415E-03-5.59055E-01 5.05663E-14-1.57067E-13
 -1      4248 1.96052E+01 6.79862E-01 4.08417E-03-4.45517E-01 3.02154E-14-2.40227E-13
 -1      4249 1.94910E+01 6.89018E-01-1.27890E-04-6.14384E-01 6.85873E-14-1.67441E-13
 -1      4250 2.00623E+01 6.66490E-01-1.41194E-03 1.53414E-01-7.43226E-15-3.66417E-13
 -1      4251 2.00146E+01 6.88853E-01 3.10292E-03 9.89851E-02 3.63283E-14-2.96930E-13
 -1      4252 2.01244E+01 7.11730E-01-7.34487E-04 1.16523E-01-5.59718E-15-3.73966E-13
 -1      4253 1.97225E+01 4.05103E-01-1.63933E-03-1.84032E-02 9.35776E-14-1.88863E-13
 -1      4254 1.83890E+01 9.89843E-01-2.67986E-03-5.51214E-01 6.67865E-14-1.99066E-13
 -1      4255 1.86048E+01 9.47078E-01-5.86772E-03-5.00468E-01 7.70097E-14-1.88620E-13
 -1      4256 1.86566E+01 9.76282E-01 1.05842E-02-3.00035E-01 5.27726E-14-3.11071E-13
 -1      4257 1.97293E+01 6.50836E-01-2.70181E-03-2.99169E-01 8.19803E-14-2.48867E-13
 -1      4258 1.98331E+01 6.35208E-01-1.57536E-03-2.62837E-01 9.58990E-14-2.47037E-13
 -1      4259 1.98644E+01 6.66377E-01 2.94197E-03-1.71775E-01 1.36386E-13-2.39558E-13
 -1      4260 1.97210E+01 4.16888E-01 4.21953E-04 6.49850E-02 1.15096E-13-5.38061E-15
 -1      4261 1.96487E+01 4.77941E-01-5.93637E-04 1.54844E-02 2.74981E-16-2.90084E-13
 -1      4262 1.98356E+01 6.62253E-01-2.83471E-03-2.96173E-02 1.12332E-13-2.59601E-13
 -1      4263 1.97332E+01 6.74700E-01-6.26522E-04-1.85562E-02 1.16982E-13-2.36746E-13
 -1      4264 1.93698E+01 7.51182E-01-5.42161E-03 7.52076E-02 4.41790E-14-2.62617E-13
 -1      4265 1.92142E+01 7.95358E-01-4.33709E-03 1.04610E-01 1.49166E-14-2.84384E-13
 -1      4266 1.89906E+01 8.58046E-01-3.43385E-03-3.42523E-03 6.45214E-15-2.71974E-13
 -1      4267 1.87940E+01 9.02603E-01-5.52928E-03 2.32583E-02 1.37406E-14-2.66278E-13
 -1      4268 1.85618E+01 9.46933E-01-9.31718E-03 2.03105E-02 5.00576E-14-2.53790E-13
 -1      4269 1.83334E+01 9.91120E-01-7.42132E-03 5.98534E-02 7.10442E-14-2.32911E-13
 -1      4270 1.75192E+01 1.05208E+00-1.28982E-02 3.36540E-01 6.71804E-14-1.18745E-13
 -1      4271 1.71828E+01 1.05959E+00-4.78051E-03 4.27706E-01 1.45850E-13-1.07086E-13
 -1      4272 1.95800E+01 5.25531E-01-3.05159E-03 7.94449E-03 9.69694E-14-2.12037E-13
 -1      4273 2.01627E+01 8.14820E-01 1.66550E-03 5.31743E-02 2.38383E-14-3.95272E-13
 -1      4274 1.77384E+01 1.14373E+00-4.36429E-03-3.00190E-01-1.01433E-13-5.98831E-13
 -1      4275 1.79803E+01 1.12176E+00-9.72567E-03-2.27643E-01 2.65903E-14-4.84384E-13
 -1      4276 1.83010E+01 1.08011E+00-5.08089E-03-6.39671E-02-5.77641E-15-2.22698E-13
 -1      4277 1.84956E+01 1.03357E+00-8.28122E-03-2.81387E-02-3.30519E-15-1.79695E-13
 -1      4278 1.86769E+01 9.77851E-01-8.21995E-03-3.40741E-02-9.21997E-14-2.27889E-13
 -1      4279 1.88414E+01 9.27773E-01-7.12337E-03-5.59250E-03-1.61066E-13-1.85873E-13
 -1      4280 1.89859E+01 8.66459E-01-6.91184E-03-1.36954E-02-9.25744E-14-1.90606E-13
 -1      4281 1.91182E+01 8.11534E-01-5.48035E-03 7.42325E-03-5.19939E-14-1.42914E-13
 -1      4282 1.92322E+01 7.49297E-01-5.46412E-03-1.54916E-03-3.09479E-14-6.11658E-14
 -1      4283 1.93377E+01 6.93467E-01-4.10715E-03 1.38338E-02 1.35613E-13-7.59937E-14
 -1      4284 1.94269E+01 6.33760E-01-4.24099E-03 4.90960E-03 1.85406E-13-1.54136E-13
 -1      4285 1.95105E+01 5.80259E-01-2.95433E-03 1.60507E-02 1.48331E-13-1.62387E-13
 -1      4286 2.01489E+01 7.60488E-01 3.47348E-03-6.56047E-02 9.06186E-14-2.86312E-13
 -1      4287 2.01778E+01 8.50156E-01-1.27672E-03-1.95365E-02 8.93202E-14-3.14286E-13
 -1      4288 2.01766E+01 8.43811E-01-2.66274E-03 3.81272E-03 6.29081E-14-3.86091E-13
 -1      4289 1.60435E+01 1.18201E+00-1.29737E-02 1.41426E-01-4.03786E-13-4.70158E-13
 -1      4290 1.59411E+01 1.18539E+00-8.88509E-04-3.47521E-01-3.08617E-13-5.00347E-13
 -1      4291 1.67623E+01 1.14499E+00 2.11264E-03-5.11321E-01-2.91167E-13-6.80210E-13
 -1      4292 1.61602E+01 1.08635E+00 5.71275E-04 1.45414E-01 1.96120E-14-3.52790E-13
 -1      4293 2.00940E+01 6.72401E-01-1.82314E-03-1.85666E-01 9.51109E-14-2.24866E-13
 -1      4294 2.00572E+01 6.90911E-01-4.48875E-04-1.31289E-01 9.64705E-14-2.46609E-13
 -1      4295 1.93345E+01 7.67926E-01 5.01691E-03-5.24401E-01 1.32564E-14-1.66263E-13
 -1      4296 1.78450E+01 1.04160E+00-3.31011E-03-6.66695E-01 1.01944E-13-2.85869E-13
 -1      4297 1.81021E+01 1.01773E+00-9.52900E-03-5.94253E-01 1.05055E-13-2.07933E-13
 -1      4298 1.81589E+01 1.07376E+00 1.42218E-02-3.38145E-01 1.17175E-13-2.59227E-13
 -1      4299 1.75448E+01 1.12098E+00 1.34447E-02-4.11048E-01 1.16818E-13-2.96082E-13
 -1      4300 2.00522E+01 7.07222E-01 6.61580E-04-8.39688E-02 8.73692E-14-2.62368E-13
 -1      4301 1.71157E+01 1.14898E+00-4.34538E-03-4.37425E-01-2.02634E-13-7.20502E-13
 -1      4302 1.74365E+01 1.15328E+00-9.02002E-03-3.44794E-01-1.93731E-13-6.74631E-13
 -1      4303 1.75573E+01 1.21780E+00 1.04650E-02-6.26632E-02-8.80374E-14-5.36138E-13
 -1      4304 1.68763E+01 1.24753E+00 1.55456E-02-1.34735E-01-3.37351E-13-8.01543E-13
 -1      4305 1.90901E+01 8.58844E-01 6.62661E-03-1.61452E-01 2.79816E-14-3.27836E-13
 -1      4306 1.92199E+01 8.01345E-01-1.03846E-03-3.01620E-01 1.97840E-14-2.64017E-13
 -1      4307 1.66038E+01 1.10586E+00-9.41565E-03 1.42171E-01 4.63095E-14-2.65366E-13
 -1      4308 1.65537E+01 1.21874E+00-4.22100E-03 1.56776E-01-4.30608E-13-4.92388E-13
 -1      4309 1.96242E+01 6.91802E-01-3.82063E-03 1.28639E-02 8.12904E-14-2.44765E-13
 -1      4310 1.95023E+01 7.24997E-01-4.30603E-04 2.86968E-02 3.76506E-14-2.52980E-13
 -1      4311 1.94263E+01 7.64987E-01 5.41577E-03-9.55056E-02 2.98466E-14-2.85597E-13
 -1      4312 1.96591E+01 7.01685E-01 4.52371E-03-1.64659E-01 9.04205E-14-2.51762E-13
 -1      4313 1.79469E+01 1.16056E+00-4.86674E-04 1.43206E-01 2.29431E-14-7.62133E-14
 -1      4314 1.76384E+01 1.18899E+00-5.40387E-03 1.53415E-01 8.20763E-14-1.99617E-13
 -1      4315 1.69494E+01 1.21534E+00-7.08651E-03 1.65815E-01-3.71011E-13-5.70125E-13
 -1      4316 1.80474E+01 1.02964E+00-9.75166E-03 6.00584E-02 1.00445E-13-2.31752E-13
 -1      4317 1.77797E+01 1.06291E+00-2.39341E-03 1.11227E-01 1.22605E-13-1.89369E-13
 -1      4318 1.70563E+01 1.08690E+00-2.71811E-03 1.84033E-01 1.12826E-13-1.71205E-13
 -1      4319 1.81811E+01 1.13786E+00 6.83623E-03 1.28640E-01-3.15015E-15-8.45942E-14
 -1      4320 1.93667E+01 7.53051E-01-2.53027E-03-2.71474E-01 3.80100E-15-2.85109E-13
 -1      4321 2.01103E+01 7.38802E-01-4.32140E-04 2.91733E-02 3.56531E-14-3.44473E-13
 -1      4322 1.99364E+01 6.64919E-01-8.90446E-04-1.66819E-02 9.99075E-14-2.52567E-13
 -1      4323 1.73381E+01 1.21035E+00-4.93862E-03 1.47136E-01-1.31084E-13-4.43103E-13
 -1      4324 2.00184E+01 6.83466E-01-1.63023E-03-2.88940E-02 7.30776E-14-2.94868E-13
 -1      4325 1.96226E+01 6.81479E-01-1.50683E-03-2.75082E-01 5.95495E-14-2.57028E-13
 -1      4326 1.94938E+01 7.13768E-01-3.54914E-03-3.08061E-01 1.85752E-14-2.61619E-13
 -1      4327 1.75685E+01 1.11916E+00 1.59610E-03-1.61676E-01 1.41823E-13-1.89062E-13
 -1      4328 1.72053E+01 1.14421E+00 4.78605E-03-1.76559E-01 4.15226E-14-1.36943E-13
 -3
    1PSTEP                         3           1           1          
  100CL  101 1.000000000        4328                     0    1           1
 -4  TOSTRAIN    6    1
 -5  EXX         1    4    1    1
 -5  EYY         1    4    2    2
 -5  EZZ         1    4    3    3
 -5  EXY         1    4    1    2
 -5  EYZ         1    4    2    3
 -5  EZX         1    4    3    1
 -1         1 2.84448E-05 2.69215E-05-2.48928E-05 5.08815E-05-2.61657E-17-2.35174E-17
 -1         2 3.60485E-05-1.09788E-04 1.97878E-05 5.90165E-07 7.40241E-18 1.82845E-18
 -1         3 9.52344E-05-2.85738E-05-2.85604E-05 1.11283E-09-2.51847E-18-2.11686E-18
 -1         4 9.52342E-05-2.85741E-05-2.85604E-05-4.35403E-10 2.80820E-19 6.57919E-19
 -1         5 1.42737E-04-2.13765E-05-4.23752E-05 3.83846E-05-4.41728E-19 2.91447E-17
 -1         6 1.44788E-04 2.56574E-10-4.40292E-05-5.33049E-05-1.77115E-18 2.27992E-17
 -1         7 9.04240E-05-5.15773E-07-3.89777E-05-2.91142E-05-2.53898E-19 1.96509E-18
 -1         8 8.50784E-05 8.12187E-08-3.63109E-05-2.01204E-05-2.62845E-19-3.87977E-18
 -1         9 8.28530E-05 7.22056E-08-3.53615E-05-1.54651E-05-2.16867E-19-6.77141E-18
 -1        10 8.18592E-05 3.59654E-08-3.49154E-05-1.18939E-05-1.27028E-19-7.98037E-18
 -1        11 8.13594E-05 1.70494E-08-3.46982E-05-8.83786E-06-7.64712E-20-8.38054E-18
 -1        12 8.10929E-05 7.92045E-09-3.45875E-05-6.13913E-06-9.72764E-22-8.36023E-18
 -1        13 8.09484E-05 4.01819E-09-3.45302E-05-3.59056E-06 2.99249E-20-8.15146E-18
 -1        14 8.08863E-05 2.47872E-09-3.45063E-05-1.15136E-06 7.64089E-20-7.85616E-18
 -1        15 8.08889E-05 2.45053E-09-3.45072E-05 1.25413E-06 1.09682E-19-7.49208E-18
 -1        16 8.09563E-05 3.87247E-09-3.45330E-05 3.69871E-06 1.43467E-19-6.99313E-18
 -1        17 8.11066E-05 7.04342E-09-3.45918E-05 6.26017E-06 1.70707E-19-6.32253E-18
 -1        18 8.13780E-05 1.59479E-08-3.47036E-05 8.97914E-06 2.33758E-19-5.39073E-18
 -1        19 8.18846E-05 3.49276E-08-3.49240E-05 1.20724E-05 3.14150E-19-3.87704E-18
 -1        20 8.28758E-05 7.71276E-08-3.53744E-05 1.56964E-05 3.72020E-19-1.35182E-18
 -1        21 8.50416E-05 1.63869E-07-3.63483E-05 2.03323E-05 4.04088E-19 3.15822E-18
 -1        22 9.14433E-05-1.03730E-07-3.86487E-05 2.78663E-05 3.30343E-20 1.15708E-17
 -1        23 1.12547E-04-3.79843E-05-3.52710E-05-4.37089E-06-1.21785E-18 1.67646E-17
 -1        24 9.25401E-05-2.76194E-05-2.89161E-05 3.91341E-07-2.87839E-19 1.15442E-17
 -1        25 8.89702E-05-2.68090E-05-2.68838E-05 3.73666E-07-1.76613E-19 6.30988E-18
 -1        26 8.79983E-05-2.64853E-05-2.63877E-05 2.01644E-07-7.16281E-20 2.75441E-18
 -1        27 8.82010E-05-2.65172E-05-2.64340E-05 1.37870E-07-1.88258E-19 3.76367E-19
 -1        28 8.89834E-05-2.67291E-05-2.66796E-05 9.99475E-08-5.80557E-21-1.02605E-18
 -1        29 9.00904E-05-2.70484E-05-2.70195E-05 7.62430E-08 5.92536E-20-1.61524E-18
 -1        30 9.14066E-05-2.74366E-05-2.74192E-05 6.11739E-08 1.67337E-20-2.30419E-18
 -1        31 9.28891E-05-2.78779E-05-2.78678E-05 5.23330E-08-2.40757E-19-3.79835E-18
 -1        32 9.45374E-05-2.83705E-05-2.83662E-05 4.88007E-08-1.70151E-19-5.16550E-18
 -1        33 9.63765E-05-2.89210E-05-2.89220E-05 5.03321E-08 2.12341E-19-5.99170E-18
 -1        34 9.84427E-05-2.95396E-05-2.95457E-05 5.68936E-08 5.79332E-20-6.09012E-18
 -1        35 1.00767E-04-3.02347E-05-3.02454E-05 6.82387E-08 1.54654E-19-6.52722E-18
 -1        36 1.03351E-04-3.10066E-05-3.10202E-05 8.32969E-08-1.24451E-19-7.09547E-18
 -1        37 1.06139E-04-3.18378E-05-3.18501E-05 9.91801E-08-1.87090E-19-6.54508E-18
 -1        38 1.08972E-04-3.26809E-05-3.26838E-05 1.09707E-07-3.78844E-19-7.31639E-18
 -1        39 1.11542E-04-3.34445E-05-3.34246E-05 1.03718E-07 2.97090E-20-8.25081E-18
 -1        40 1.13352E-04-3.39816E-05-3.39225E-05 6.44524E-08 4.27765E-19-7.82419E-18
 -1        41 1.13735E-04-3.40948E-05-3.39839E-05-2.70475E-08-1.17607E-19-9.70950E-18
 -1        42 1.11981E-04-3.35740E-05-3.34179E-05-1.80195E-07-2.36651E-19-1.03161E-17
 -1        43 1.07656E-04-3.22883E-05-3.21305E-05-3.73333E-07 5.03894E-20-8.68210E-18
 -1        44 1.01060E-04-3.03226E-05-3.02442E-05-5.34344E-07 2.07052E-19-6.47766E-18
 -1        45 9.35853E-05-2.80886E-05-2.81690E-05-5.54770E-07-2.13833E-19-6.69230E-18
 -1        46 8.75410E-05-2.62776E-05-2.65265E-05-3.61455E-07 1.38293E-19-9.37349E-18
 -1        47 8.51996E-05-2.55750E-05-2.58979E-05-1.83954E-09 2.86937E-19-7.87026E-18
 -1        48 8.75270E-05-2.62735E-05-2.65235E-05 3.58883E-07 3.25537E-19-6.46763E-18
 -1        49 9.35749E-05-2.80860E-05-2.81670E-05 5.53793E-07 1.50424E-19-7.63042E-18
 -1        50 1.01076E-04-3.03282E-05-3.02501E-05 5.34506E-07-2.82879E-19-9.49124E-18
 -1        51 1.07723E-04-3.23091E-05-3.21517E-05 3.74245E-07 1.01455E-19-1.00424E-17
 -1        52 1.12121E-04-3.36170E-05-3.34611E-05 1.81548E-07-1.16374E-19-8.57023E-18
 -1        53 1.13972E-04-3.41670E-05-3.40562E-05 2.86788E-08-2.58673E-19-8.13569E-18
 -1        54 1.13713E-04-3.40910E-05-3.40322E-05-6.23750E-08 3.91121E-19-8.44416E-18
 -1        55 1.12060E-04-3.36011E-05-3.35820E-05-1.00783E-07 5.47130E-20-8.83383E-18
 -1        56 1.09690E-04-3.28978E-05-3.29019E-05-1.05341E-07-4.99412E-20-7.73049E-18
 -1        57 1.07112E-04-3.21312E-05-3.21455E-05-9.27019E-08 4.27791E-20-5.94010E-18
 -1        58 1.04645E-04-3.13964E-05-3.14128E-05-7.39165E-08 3.87815E-20-7.13833E-18
 -1        59 1.02460E-04-3.07439E-05-3.07585E-05-5.50134E-08 3.94869E-19-7.63386E-18
 -1        60 1.00622E-04-3.01941E-05-3.02056E-05-3.86690E-08-3.55398E-19-3.22529E-18
 -1        61 9.91351E-05-2.97486E-05-2.97568E-05-2.56783E-08 3.25424E-19-2.36680E-18
 -1        62 9.79701E-05-2.93987E-05-2.94042E-05-1.59228E-08-3.41103E-19-2.56799E-18
 -1        63 9.70824E-05-2.91316E-05-2.91350E-05-8.91834E-09-8.52278E-19-6.83399E-18
 -1        64 9.64240E-05-2.89332E-05-2.89350E-05-4.09067E-09 4.50391E-19-8.87756E-18
 -1        65 9.59498E-05-2.87899E-05-2.87907E-05-8.95966E-10-1.48474E-19-7.45146E-18
 -1        66 9.56201E-05-2.86901E-05-2.86903E-05 1.14266E-09-8.90098E-20-6.56505E-18
 -1        67 9.54021E-05-2.86238E-05-2.86239E-05 2.44411E-09 7.20564E-19-4.94273E-18
 -1        68 9.52703E-05-2.85835E-05-2.85837E-05 3.41559E-09-5.04355E-20-3.11764E-18
 -1        69 9.52053E-05-2.85632E-05-2.85639E-05 4.49607E-09-3.79352E-19-2.59474E-18
 -1        70 9.51924E-05-2.85587E-05-2.85591E-05 6.20552E-09 6.62149E-19 3.05772E-18
 -1        71 9.52168E-05-2.85659E-05-2.85624E-05 7.48896E-09-3.02136E-19 3.45421E-18
 -1        72 1.01785E-04-3.04662E-05-3.40278E-05-1.92358E-06 3.22481E-19 2.73600E-17
 -1        73 9.22911E-05-2.74339E-05-2.88230E-05-3.31513E-07 1.98004E-19 2.20112E-17
 -1        74 8.89481E-05-2.66556E-05-2.69243E-05-1.22337E-07 7.03492E-20 1.78500E-17
 -1        75 8.80164E-05-2.64321E-05-2.64283E-05-9.02003E-08 9.83146E-20 1.52112E-17
 -1        76 8.82217E-05-2.64922E-05-2.64570E-05-6.96790E-08 5.06292E-20 1.27963E-17
 -1        77 8.90024E-05-2.67178E-05-2.66931E-05-5.43193E-08 1.47303E-19 1.10819E-17
 -1        78 9.01095E-05-2.70443E-05-2.70295E-05-4.25264E-08 3.19635E-20 1.02806E-17
 -1        79 9.14327E-05-2.74384E-05-2.74300E-05-3.31281E-08-1.83208E-20 9.84275E-18
 -1        80 9.29364E-05-2.78880E-05-2.78849E-05-2.58539E-08-3.75810E-20 9.20585E-18
 -1        81 9.46320E-05-2.83958E-05-2.83983E-05-2.10680E-08 1.43622E-19 8.61098E-18
 -1        82 9.65634E-05-2.89743E-05-2.89834E-05-1.96114E-08 3.54910E-20 7.52735E-18
 -1        83 9.87953E-05-2.96424E-05-2.96596E-05-2.28187E-08 8.53365E-20 6.41969E-18
 -1        84 1.01400E-04-3.04214E-05-3.04476E-05-3.25781E-08 6.28601E-20 5.73734E-18
 -1        85 1.04439E-04-3.13287E-05-3.13637E-05-5.12576E-08 1.16004E-20 5.91495E-18
 -1        86 1.07924E-04-3.23680E-05-3.24082E-05-8.11543E-08 1.53444E-20 5.93926E-18
 -1        87 1.11767E-04-3.35137E-05-3.35483E-05-1.22810E-07-3.18481E-20 6.34553E-18
 -1        88 1.15699E-04-3.46868E-05-3.46930E-05-1.71165E-07-2.44107E-20 6.70852E-18
 -1        89 1.19163E-04-3.57260E-05-3.56656E-05-2.08778E-07 4.14925E-19 4.97161E-18
 -1        90 1.21244E-04-3.63648E-05-3.61908E-05-1.98308E-07-3.53143E-19 3.28528E-18
 -1        91 1.20732E-04-3.62456E-05-3.59326E-05-8.41067E-08 1.24909E-19 3.94587E-18
 -1        92 1.16508E-04-3.50243E-05-3.46249E-05 1.76975E-07-2.45588E-19 5.30785E-18
 -1        93 1.08363E-04-3.26061E-05-3.22970E-05 5.42994E-07-2.05220E-19 4.68039E-18
 -1        94 9.79599E-05-2.94485E-05-2.94774E-05 8.28839E-07 3.37680E-20 3.44067E-18
 -1        95 8.89774E-05-2.66557E-05-2.71383E-05 7.81530E-07 1.08278E-20 2.68271E-18
 -1        96 8.55090E-05-2.55243E-05-2.62657E-05 3.24093E-07 9.11057E-20 2.31921E-18
 -1        97 8.93295E-05-2.66614E-05-2.72592E-05-2.93439E-07-2.94458E-19 2.16105E-18
 -1        98 9.85234E-05-2.94872E-05-2.96681E-05-7.02117E-07 1.75647E-19 1.91837E-18
 -1        99 1.08956E-04-3.26958E-05-3.24913E-05-7.45052E-07-3.28242E-20-1.14095E-18
 -1       100 1.17002E-04-3.51508E-05-3.47777E-05-5.33924E-07-3.40464E-19-1.00260E-18
 -1       101 1.21101E-04-3.63821E-05-3.60381E-05-2.62168E-07-7.39549E-20-1.05864E-18
 -1       102 1.21541E-04-3.64971E-05-3.62703E-05-5.09622E-08 4.26009E-19-3.23831E-18
 -1       103 1.19475E-04-3.58596E-05-3.57508E-05 7.02439E-08-9.54136E-20-3.61615E-18
 -1       104 1.16117E-04-3.48404E-05-3.48137E-05 1.20043E-07 3.36323E-19-2.56543E-18
 -1       105 1.12373E-04-3.37116E-05-3.37295E-05 1.26987E-07 2.14043E-19-2.92303E-18
 -1       106 1.08791E-04-3.26356E-05-3.26716E-05 1.13385E-07-5.25733E-19-2.40326E-18
 -1       107 1.05643E-04-3.16914E-05-3.17306E-05 9.27211E-08 1.28154E-19-3.27511E-18
 -1       108 1.03020E-04-3.09052E-05-3.09408E-05 7.18348E-08 3.32059E-20-4.12204E-18
 -1       109 1.00915E-04-3.02745E-05-3.03040E-05 5.35885E-08 1.95378E-19-3.86120E-18
 -1       110 9.92730E-05-2.97825E-05-2.98058E-05 3.87855E-08-8.10243E-20-5.29355E-18
 -1       111 9.80229E-05-2.94078E-05-2.94256E-05 2.72990E-08 3.83857E-19-3.60453E-18
 -1       112 9.70921E-05-2.91287E-05-2.91419E-05 1.86570E-08-2.75084E-19-3.55315E-18
 -1       113 9.64144E-05-2.89254E-05-2.89350E-05 1.23155E-08 2.31155E-19-2.82209E-18
 -1       114 9.59337E-05-2.87811E-05-2.87880E-05 7.76617E-09-4.39604E-19-3.66014E-18
 -1       115 9.56040E-05-2.86821E-05-2.86870E-05 4.56143E-09 4.26624E-19-3.86704E-18
 -1       116 9.53888E-05-2.86173E-05-2.86210E-05 2.29983E-09-1.58506E-20-3.77396E-18
 -1       117 9.52608E-05-2.85787E-05-2.85817E-05 5.86282E-10 3.67533E-19-6.07986E-18
 -1       118 9.51998E-05-2.85601E-05-2.85629E-05-1.04943E-09-4.23592E-19-7.83027E-18
 -1       119 9.51909E-05-2.85571E-05-2.85590E-05-3.65278E-09-2.29556E-19-5.00799E-18
 -1       120 9.52167E-05-2.85650E-05-2.85627E-05-7.19905E-09 1.44090E-18-5.25391E-18
 -1       121 9.52430E-05-2.85917E-05-2.85632E-05-8.83478E-09-3.80400E-18-7.27458E-20
 -1       122 9.52497E-05-2.86133E-05-2.85609E-05-4.51040E-09 2.17668E-18-3.84532E-20
 -1       123 9.52444E-05-2.85954E-05-2.85668E-05-5.48732E-10 3.54687E-18 1.40948E-19
 -1       124 9.52275E-05-2.85390E-05-2.85827E-05 2.16342E-09 2.86845E-18 1.73335E-18
 -1       125 9.52037E-05-2.84588E-05-2.86054E-05 3.40588E-09 2.03839E-18-2.18777E-18
 -1       126 9.51791E-05-2.83760E-05-2.86290E-05 3.43004E-09-3.90420E-18 6.99526E-19
 -1       127 9.51587E-05-2.83071E-05-2.86487E-05 2.48390E-09 1.22834E-18 6.05073E-19
 -1       128 9.51472E-05-2.82684E-05-2.86599E-05 9.20765E-10-7.01051E-19-1.42462E-18
 -1       129 9.51471E-05-2.82680E-05-2.86600E-05-8.51134E-10-1.43002E-18 1.42078E-18
 -1       130 9.51584E-05-2.83060E-05-2.86491E-05-2.41132E-09-3.28042E-18-1.82900E-18
 -1       131 9.51786E-05-2.83743E-05-2.86295E-05-3.38150E-09-1.17934E-17-1.33147E-18
 -1       132 9.52030E-05-2.84564E-05-2.86061E-05-3.35798E-09-1.15950E-17 1.59024E-18
 -1       133 9.52267E-05-2.85362E-05-2.85835E-05-2.12890E-09-5.59741E-18 1.66248E-19
 -1       134 9.52435E-05-2.85930E-05-2.85676E-05 2.60220E-10-2.95902E-18 5.40527E-19
 -1       135 9.52496E-05-2.86116E-05-2.85613E-05 6.03470E-09-4.24837E-18-8.01381E-19
 -1       136 9.52417E-05-2.85912E-05-2.85629E-05 1.25860E-08-4.17774E-18-3.37338E-19
 -1       137 2.66747E-05-8.95698E-05 1.59443E-05-2.36827E-05 1.38598E-17 1.32026E-18
 -1       138 8.91076E-06-3.88319E-05 4.39172E-06-2.03974E-05 1.74281E-17 6.80549E-18
 -1       139 9.04238E-06 1.01516E-05-1.26091E-05 1.67774E-05 1.78944E-17 1.40290E-17
 -1       140 5.53412E-05 2.67611E-05-3.43262E-05 7.52556E-05 1.63240E-17 1.74760E-17
 -1       141 1.44770E-04-3.21122E-06-5.45137E-05 1.10899E-04 1.10563E-17 1.91205E-17
 -1       142 2.45531E-04-5.63806E-05-7.06188E-05 9.40562E-05 3.84002E-18 1.15590E-17
 -1       143 3.07207E-04-9.35738E-05-7.87886E-05 2.63787E-05 8.60427E-19-4.12960E-18
 -1       144 2.93512E-04-8.52440E-05-7.69247E-05-5.60306E-05 2.65944E-18-1.81799E-17
 -1       145 2.13621E-04-3.84463E-05-6.57791E-05-1.07642E-04 9.04525E-18-2.44293E-17
 -1       146 1.14586E-04 1.04982E-05-4.88879E-05-1.05599E-04 1.72414E-17-2.65646E-17
 -1       147 3.36237E-05 2.77717E-05-2.71380E-05-5.67040E-05 2.40867E-17-2.32451E-17
 -1       148 5.21719E-06-5.25618E-06-5.98717E-06-2.60716E-07 2.42836E-17-1.51034E-17
 -1       149 1.60301E-05-6.36558E-05 1.06113E-05 2.66941E-05 1.78046E-17-6.32988E-18
 -1       150 3.37385E-05-1.04737E-04 1.87838E-05 1.47059E-05 2.85672E-18-1.14837E-18
 -1       151 3.38122E-05-1.04943E-04 1.88429E-05-1.31714E-05-1.57423E-17-2.31130E-18
 -1       152 1.60882E-05-6.23569E-05 1.01942E-05-2.53586E-05-2.74159E-17-8.40585E-18
 -1       153 4.99810E-06-3.64326E-06-6.25402E-06 6.34409E-07-2.92959E-17-1.78267E-17
 -1       154 9.09535E-05 1.92034E-05-4.37271E-05 9.71088E-05-1.92785E-17-2.61589E-17
 -1       155 1.79598E-04-2.02098E-05-6.05339E-05 1.13016E-04-1.08793E-17-2.23176E-17
 -1       156 2.64066E-04-6.84816E-05-7.28289E-05 8.26479E-05-3.48295E-18-1.26132E-17
 -1       157 3.05455E-04-9.40618E-05-7.81429E-05 1.41874E-05-3.42334E-19-5.86041E-20
 -1       158 2.83765E-04-8.05526E-05-7.53602E-05-6.21154E-05-2.67783E-18 1.29448E-17
 -1       159 2.09791E-04-3.66369E-05-6.52404E-05-1.08058E-04-7.93670E-18 1.99603E-17
 -1       160 1.17990E-04 8.82134E-06-4.94448E-05-1.06118E-04-1.44629E-17 2.25336E-17
 -1       161 4.41985E-05 2.81937E-05-3.07960E-05-6.68551E-05-1.86275E-17 1.94923E-17
 -1       162 8.98394E-06 9.43677E-06-1.21356E-05-1.61817E-05-2.08883E-17 1.52411E-17
 -1       163 8.95759E-06-3.74382E-05 4.12428E-06 1.89059E-05-1.52297E-17 7.40815E-18
 -1       164 2.60402E-05-8.74561E-05 1.55502E-05 2.21353E-05-4.81708E-18 4.93238E-19
 -1       165 9.47788E-05-1.23624E-05-3.55225E-05-2.21660E-05-3.66172E-18-8.24322E-19
 -1       166 8.92723E-05-8.47932E-06-3.47861E-05-1.71874E-05-3.08385E-18-4.32109E-18
 -1       167 8.66095E-05-6.50022E-06-3.44437E-05-1.33739E-05-2.28126E-18-6.08915E-18
 -1       168 8.52751E-05-5.48902E-06-3.42774E-05-1.01588E-05-1.42965E-18-6.86211E-18
 -1       169 8.45127E-05-4.88034E-06-3.41964E-05-7.36461E-06-7.48646E-19-7.04379E-18
 -1       170 8.40644E-05-4.50643E-06-3.41568E-05-4.76956E-06-1.54677E-19-6.92286E-18
 -1       171 8.38285E-05-4.30204E-06-3.41396E-05-2.32431E-06 5.18125E-19-6.66123E-18
 -1       172 8.37577E-05-4.23918E-06-3.41351E-05 5.00966E-08 1.08772E-18-6.37045E-18
 -1       173 8.38396E-05-4.31068E-06-3.41408E-05 2.42659E-06 1.59239E-18-6.01259E-18
 -1       174 8.40887E-05-4.52642E-06-3.41589E-05 4.87840E-06 2.12985E-18-5.47804E-18
 -1       175 8.45437E-05-4.90928E-06-3.41976E-05 7.44121E-06 2.72546E-18-4.74894E-18
 -1       176 8.53337E-05-5.54610E-06-3.42787E-05 1.03035E-05 3.33601E-18-3.58996E-18
 -1       177 8.67200E-05-6.61141E-06-3.44474E-05 1.35689E-05 3.85397E-18-1.82651E-18
 -1       178 8.94129E-05-8.62100E-06-3.47906E-05 1.74209E-05 4.11789E-18 1.21308E-18
 -1       179 9.56796E-05-1.36215E-05-3.53776E-05 2.17155E-05 3.62592E-18 6.47041E-18
 -1       180 1.05354E-04-2.60446E-05-3.51754E-05 1.85309E-05 2.48095E-18 1.31912E-17
 -1       181 1.03216E-04-2.72583E-05-3.25507E-05-1.19963E-05-3.25300E-18 3.82250E-18
 -1       182 9.70235E-05-2.82637E-05-2.95031E-05-4.60465E-06-2.96663E-18 2.34424E-18
 -1       183 9.35396E-05-2.76379E-05-2.81949E-05-1.62122E-06-2.19946E-18 1.01670E-18
 -1       184 9.21552E-05-2.74449E-05-2.76967E-05-2.23657E-07-1.50071E-18-3.40633E-19
 -1       185 9.17835E-05-2.74235E-05-2.75633E-05 5.18114E-07-8.51320E-19-9.98776E-19
 -1       186 9.20203E-05-2.75371E-05-2.76254E-05 9.52834E-07-6.00332E-19-1.41817E-18
 -1       187 9.26417E-05-2.77427E-05-2.78078E-05 1.23690E-06-4.83546E-19-1.89860E-18
 -1       188 9.35307E-05-2.80147E-05-2.80740E-05 1.45462E-06-7.92640E-19-2.11929E-18
 -1       189 9.46311E-05-2.83413E-05-2.84064E-05 1.65602E-06-1.01588E-18-2.28829E-18
 -1       190 9.59232E-05-2.87203E-05-2.87981E-05 1.87067E-06-4.14440E-19-2.62521E-18
 -1       191 9.74067E-05-2.91557E-05-2.92477E-05 2.11173E-06-3.56780E-19-3.38131E-18
 -1       192 9.90875E-05-2.96540E-05-2.97551E-05 2.37485E-06-3.75542E-19-3.97921E-18
 -1       193 1.00963E-04-3.02214E-05-3.03168E-05 2.63332E-06-2.15258E-19-4.14788E-18
 -1       194 1.03004E-04-3.08588E-05-3.09204E-05 2.83027E-06-4.47140E-20-3.83926E-18
 -1       195 1.05134E-04-3.15560E-05-3.15376E-05 2.86983E-06-3.50730E-19-3.33642E-18
 -1       196 1.07206E-04-3.22815E-05-3.21181E-05 2.61254E-06-2.41686E-19-2.93865E-18
 -1       197 1.08978E-04-3.29699E-05-3.25859E-05 1.88703E-06 4.35932E-19-3.09194E-18
 -1       198 1.10108E-04-3.35050E-05-3.28432E-05 5.38183E-07-8.57235E-19-3.83412E-18
 -1       199 1.10192E-04-3.37101E-05-3.27901E-05-1.46653E-06-5.46545E-19-3.65031E-18
 -1       200 1.08867E-04-3.33675E-05-3.23642E-05-3.87574E-06 5.37700E-19-3.78099E-18
 -1       201 1.06026E-04-3.23098E-05-3.15925E-05-6.01749E-06 9.79273E-19-3.63717E-18
 -1       202 1.02082E-04-3.06011E-05-3.06284E-05-6.87934E-06 4.15157E-20-3.08235E-18
 -1       203 9.81135E-05-2.87129E-05-2.97344E-05-5.59287E-06-7.45303E-19-2.22812E-18
 -1       204 9.55824E-05-2.74413E-05-2.91950E-05-2.17131E-06-1.37656E-19-2.71658E-18
 -1       205 9.55821E-05-2.74380E-05-2.91959E-05 2.16301E-06 8.31846E-20-3.42378E-18
 -1       206 9.81211E-05-2.87093E-05-2.97384E-05 5.60217E-06-6.50207E-19-5.30955E-18
 -1       207 1.02112E-04-3.06039E-05-3.06393E-05 6.91079E-06-1.13589E-18-6.31962E-18
 -1       208 1.06094E-04-3.23238E-05-3.16151E-05 6.07234E-06 4.02633E-19-6.05507E-18
 -1       209 1.08989E-04-3.33981E-05-3.24031E-05 3.95379E-06 9.16136E-19-4.90125E-18
 -1       210 1.10385E-04-3.37617E-05-3.28506E-05 1.56852E-06-2.26581E-20-4.42147E-18
 -1       211 1.10393E-04-3.35826E-05-3.29315E-05-4.08580E-07-2.93553E-19-3.79640E-18
 -1       212 1.09377E-04-3.30795E-05-3.27095E-05-1.72282E-06 2.06691E-19-4.03901E-18
 -1       213 1.07749E-04-3.24314E-05-3.22860E-05-2.40435E-06 2.53744E-19-2.66373E-18
 -1       214 1.05857E-04-3.17566E-05-3.17605E-05-2.60708E-06 7.60572E-19-2.87393E-18
 -1       215 1.03948E-04-3.11230E-05-3.12111E-05-2.50229E-06-2.95521E-19-3.12196E-18
 -1       216 1.02176E-04-3.05636E-05-3.06895E-05-2.23044E-06-5.64147E-19-1.92384E-18
 -1       217 1.00621E-04-3.00902E-05-3.02248E-05-1.88969E-06 1.73226E-18-3.41995E-18
 -1       218 9.93118E-05-2.97023E-05-2.98294E-05-1.54109E-06 4.84536E-19-2.06988E-18
 -1       219 9.82444E-05-2.93929E-05-2.95046E-05-1.21844E-06-5.93871E-19-1.83673E-18
 -1       220 9.73983E-05-2.91518E-05-2.92455E-05-9.37399E-07-2.25998E-18-2.47117E-18
 -1       221 9.67444E-05-2.89682E-05-2.90443E-05-7.02590E-07-1.20953E-18-3.10988E-18
 -1       222 9.62512E-05-2.88317E-05-2.88919E-05-5.12311E-07 1.04321E-18-3.77156E-18
 -1       223 9.58890E-05-2.87327E-05-2.87795E-05-3.61628E-07-1.81585E-19-4.10641E-18
 -1       224 9.56311E-05-2.86632E-05-2.86991E-05-2.44222E-07 1.55718E-18-2.66263E-18
 -1       225 9.54549E-05-2.86163E-05-2.86440E-05-1.53499E-07 1.40908E-18-1.14410E-18
 -1       226 9.53417E-05-2.85867E-05-2.86085E-05-8.33429E-08 7.72748E-19-6.86144E-19
 -1       227 9.52762E-05-2.85706E-05-2.85876E-05-2.94301E-08 2.78744E-18-9.26017E-19
 -1       228 9.52442E-05-2.85658E-05-2.85760E-05 8.59110E-09 3.97424E-19-4.29662E-20
 -1       229 9.93328E-05-2.85074E-05-3.05341E-05 7.10636E-06 2.74113E-18 1.13669E-17
 -1       230 9.43547E-05-2.77697E-05-2.85065E-05 2.63621E-06 2.08592E-18 9.21486E-18
 -1       231 9.21646E-05-2.74137E-05-2.77048E-05 7.94824E-07 1.55227E-18 7.32864E-18
 -1       232 9.13890E-05-2.72977E-05-2.74400E-05-1.17946E-07 1.27204E-18 5.99910E-18
 -1       233 9.14156E-05-2.73559E-05-2.74397E-05-6.22573E-07 8.25626E-19 5.00334E-18
 -1       234 9.19288E-05-2.75333E-05-2.75902E-05-9.30836E-07 3.63986E-19 4.51870E-18
 -1       235 9.27645E-05-2.77929E-05-2.78400E-05-1.14832E-06 3.26063E-19 4.06820E-18
 -1       236 9.38447E-05-2.81164E-05-2.81657E-05-1.33627E-06 4.63602E-19 3.77529E-18
 -1       237 9.51439E-05-2.84989E-05-2.85593E-05-1.53442E-06 4.45180E-19 2.96073E-18
 -1       238 9.66702E-05-2.89447E-05-2.90229E-05-1.76929E-06 3.85647E-19 3.26433E-18
 -1       239 9.84517E-05-2.94648E-05-2.95641E-05-2.05616E-06 7.05968E-19 3.06921E-18
 -1       240 1.00524E-04-3.00730E-05-3.01924E-05-2.39669E-06 3.73725E-19 2.52192E-18
 -1       241 1.02914E-04-3.07830E-05-3.09135E-05-2.77203E-06 2.17745E-19 2.29006E-18
 -1       242 1.05616E-04-3.16029E-05-3.17221E-05-3.13045E-06-7.73124E-21 2.22133E-18
 -1       243 1.08561E-04-3.25266E-05-3.25905E-05-3.36951E-06-2.51924E-19 2.19163E-18
 -1       244 1.11569E-04-3.35206E-05-3.34550E-05-3.31657E-06-4.94406E-20 2.25856E-18
 -1       245 1.14300E-04-3.45033E-05-3.42029E-05-2.72272E-06 1.00780E-18 2.31135E-18
 -1       246 1.16221E-04-3.53155E-05-3.46713E-05-1.30599E-06 6.30477E-20 2.42370E-18
 -1       247 1.16637E-04-3.56947E-05-3.46759E-05 1.09844E-06-7.81891E-19 2.36434E-18
 -1       248 1.14882E-04-3.52913E-05-3.40875E-05 4.24652E-06-1.27619E-18 3.52718E-18
 -1       249 1.10733E-04-3.38185E-05-3.29454E-05 7.15828E-06 5.10198E-19 4.36027E-18
 -1       250 1.04972E-04-3.14006E-05-3.15412E-05 8.18345E-06 7.38686E-19 3.34591E-18
 -1       251 9.96372E-05-2.89010E-05-3.03639E-05 5.94049E-06 8.20457E-19 2.46445E-18
 -1       252 9.72592E-05-2.76763E-05-2.98857E-05 7.96374E-07 1.81073E-19 1.34535E-18
 -1       253 9.91513E-05-2.85282E-05-3.03072E-05-4.76571E-06 2.31319E-19 1.57585E-18
 -1       254 1.04305E-04-3.09129E-05-3.14512E-05-7.93874E-06 7.58943E-19 3.69664E-19
 -1       255 1.10234E-04-3.34830E-05-3.28643E-05-7.73136E-06 9.48022E-19-5.75460E-19
 -1       256 1.14731E-04-3.51991E-05-3.40576E-05-5.17978E-06-3.40196E-19-9.15705E-19
 -1       257 1.16849E-04-3.58022E-05-3.47226E-05-1.98983E-06 2.97411E-19-1.83050E-18
 -1       258 1.16735E-04-3.55425E-05-3.47992E-05 6.43440E-07 7.57304E-19-2.45882E-18
 -1       259 1.15048E-04-3.47910E-05-3.44047E-05 2.29961E-06-8.27290E-19-7.53825E-19
 -1       260 1.12502E-04-3.38415E-05-3.37210E-05 3.06259E-06 5.42651E-19-6.84298E-19
 -1       261 1.09662E-04-3.28755E-05-3.29150E-05 3.19938E-06 8.34882E-20-1.08116E-19
 -1       262 1.06895E-04-3.19881E-05-3.21062E-05 2.97321E-06-4.10145E-19 6.56648E-19
 -1       263 1.04403E-04-3.12199E-05-3.13649E-05 2.57779E-06 8.24056E-19-7.49377E-19
 -1       264 1.02273E-04-3.05807E-05-3.07242E-05 2.13421E-06 3.26757E-19-1.24533E-18
 -1       265 1.00518E-04-3.00640E-05-3.01926E-05 1.70878E-06-3.80949E-19-1.37184E-18
 -1       266 9.91133E-05-2.96562E-05-2.97650E-05 1.33244E-06 6.43986E-19-1.26398E-18
 -1       267 9.80155E-05-2.93409E-05-2.94297E-05 1.01552E-06-1.96287E-19-1.60871E-18
 -1       268 9.71758E-05-2.91020E-05-2.91724E-05 7.57431E-07-9.48131E-20-8.83477E-19
 -1       269 9.65470E-05-2.89244E-05-2.89793E-05 5.52352E-07-2.10702E-19-1.32798E-18
 -1       270 9.60864E-05-2.87954E-05-2.88375E-05 3.92437E-07-3.20820E-19-1.05313E-18
 -1       271 9.57580E-05-2.87042E-05-2.87361E-05 2.69463E-07 1.15827E-18-1.79976E-18
 -1       272 9.55317E-05-2.86419E-05-2.86661E-05 1.75645E-07-2.61349E-19-2.54187E-18
 -1       273 9.53838E-05-2.86016E-05-2.86203E-05 1.04062E-07 7.09508E-19-2.15105E-18
 -1       274 9.52955E-05-2.85779E-05-2.85928E-05 4.91933E-08 7.47635E-20-7.81645E-19
 -1       275 9.52510E-05-2.85670E-05-2.85784E-05 7.62145E-09-1.52160E-18-1.37368E-18
 -1       276 9.52374E-05-2.85697E-05-2.85709E-05-1.71167E-08 8.15365E-19 5.59631E-20
 -1       277 9.52441E-05-2.85663E-05-2.85759E-05-5.87308E-09 4.15306E-19 2.82390E-18
 -1       278 9.52396E-05-2.85396E-05-2.85856E-05 2.94869E-08 6.49880E-19 5.42595E-19
 -1       279 9.52219E-05-2.84900E-05-2.85993E-05 6.52355E-08 1.48525E-18 6.52586E-19
 -1       280 9.51969E-05-2.84245E-05-2.86168E-05 8.65610E-08 1.13252E-18-7.68621E-19
 -1       281 9.51705E-05-2.83553E-05-2.86352E-05 8.86621E-08 4.62165E-19-3.84156E-18
 -1       282 9.51468E-05-2.82928E-05-2.86519E-05 7.18299E-08-5.65678E-19 6.28344E-19
 -1       283 9.51307E-05-2.82500E-05-2.86634E-05 4.00741E-08-1.89361E-18-1.87591E-19
 -1       284 9.51250E-05-2.82349E-05-2.86675E-05 2.38255E-10 1.09213E-20-1.45334E-18
 -1       285 9.51307E-05-2.82500E-05-2.86634E-05-3.95590E-08-2.96515E-18-2.76924E-18
 -1       286 9.51468E-05-2.82927E-05-2.86520E-05-7.12587E-08-2.70966E-18-4.17717E-18
 -1       287 9.51699E-05-2.83537E-05-2.86356E-05-8.79898E-08-2.33871E-18-1.78665E-19
 -1       288 9.51967E-05-2.84239E-05-2.86169E-05-8.62214E-08-1.78271E-18 2.56427E-18
 -1       289 9.52215E-05-2.84893E-05-2.85995E-05-6.50686E-08-1.47512E-18 2.12340E-18
 -1       290 9.52383E-05-2.85372E-05-2.85859E-05-3.11400E-08-1.20303E-18-8.11321E-19
 -1       291 9.52487E-05-2.85540E-05-2.85832E-05-9.23042E-09-1.01560E-19-8.75781E-19
 -1       292 1.24226E-05-4.85147E-05 1.19979E-05 5.59852E-06 1.96427E-18 3.14514E-18
 -1       293 2.49586E-05-4.27110E-05 4.86418E-06 2.07112E-05 4.32029E-18 3.84622E-18
 -1       294 4.92368E-05-3.68426E-05-7.26672E-06 3.24603E-05 5.91695E-18 5.65919E-18
 -1       295 9.13252E-05-3.58224E-05-2.42822E-05 4.25281E-05 6.17741E-18 6.62803E-18
 -1       296 1.32355E-04-3.07187E-05-4.25288E-05 4.64932E-05 6.55085E-18 7.51297E-18
 -1       297 1.73063E-04-3.34806E-05-5.77383E-05 3.28132E-05 6.78009E-18 3.10480E-18
 -1       298 1.91751E-04-2.97462E-05-6.71408E-05 1.16191E-05 7.94115E-18-2.99850E-19
 -1       299 2.12927E-04-3.69760E-05-7.16723E-05-4.85183E-06 6.71792E-18-4.28308E-18
 -1       300 1.92150E-04-3.32006E-05-6.53341E-05-2.23981E-05 6.40886E-18-7.99430E-18
 -1       301 1.62951E-04-3.22915E-05-5.38536E-05-4.27688E-05 8.07678E-18-1.12672E-17
 -1       302 1.17275E-04-2.95843E-05-3.69925E-05-4.71980E-05 9.45225E-18-1.07184E-17
 -1       303 7.18792E-05-3.22841E-05-1.80871E-05-3.98613E-05 8.80618E-18-9.80091E-18
 -1       304 4.01572E-05-4.01767E-05-2.07009E-06-2.99797E-05 5.40958E-18-7.45427E-18
 -1       305 1.73558E-05-4.65708E-05 9.24330E-06-1.27819E-05 2.39181E-18-8.11733E-18
 -1       306 1.11760E-05-4.96852E-05 1.28890E-05 3.03784E-07-2.76809E-18-8.88559E-18
 -1       307 1.72964E-05-4.50679E-05 8.85033E-06 1.46680E-05-6.96325E-18-7.38327E-18
 -1       308 3.71054E-05-3.87796E-05-1.71815E-06 2.72598E-05-1.14737E-17-8.12691E-18
 -1       309 6.96686E-05-3.17873E-05-1.72968E-05 4.02040E-05-1.18047E-17-9.21477E-18
 -1       310 1.08307E-04-2.90112E-05-3.36484E-05 4.69621E-05-1.09221E-17-1.05422E-17
 -1       311 1.48671E-04-2.99524E-05-4.91826E-05 4.56925E-05-9.79149E-18-8.58150E-18
 -1       312 1.84324E-04-3.31728E-05-6.19072E-05 3.47548E-05-8.01322E-18-6.20473E-18
 -1       313 2.06329E-04-3.58877E-05-6.95444E-05 1.59612E-05-6.57043E-18-3.09061E-18
 -1       314 2.02087E-04-3.19521E-05-6.98441E-05-6.14973E-06-5.68984E-18-3.69677E-19
 -1       315 1.93292E-04-3.42826E-05-6.50518E-05-2.92025E-05-5.28093E-18 4.17291E-18
 -1       316 1.60747E-04-3.16034E-05-5.34496E-05-4.01005E-05-5.60926E-18 5.95612E-18
 -1       317 1.20995E-04-2.89321E-05-3.87076E-05-4.74208E-05-5.56119E-18 6.98654E-18
 -1       318 8.40894E-05-3.29098E-05-2.25202E-05-4.28217E-05-5.39920E-18 4.73258E-18
 -1       319 5.03074E-05-3.68459E-05-7.46856E-06-3.42827E-05-3.57003E-18 7.22964E-18
 -1       320 2.54463E-05-4.21209E-05 4.55591E-06-2.18031E-05-1.40078E-18 6.67245E-18
 -1       321 1.17468E-05-4.37415E-05 1.08799E-05-8.67590E-06 1.11496E-18 5.13376E-18
 -1       322 9.17057E-05-1.43846E-05-3.32004E-05-1.28047E-05-3.16951E-18-3.76358E-18
 -1       323 9.56951E-05-1.91053E-05-3.28866E-05-1.44091E-05-3.77117E-18-1.78977E-18
 -1       324 8.80331E-05-1.02539E-05-3.33886E-05-7.91387E-06-1.41462E-18-5.37394E-18
 -1       325 8.71836E-05-9.27920E-06-3.34353E-05-5.51811E-06-5.89824E-19-5.45925E-18
 -1       326 8.66853E-05-8.70227E-06-3.34653E-05-3.23672E-06 1.85883E-19-5.14381E-18
 -1       327 8.64581E-05-8.43711E-06-3.34801E-05-1.02844E-06 9.69756E-19-5.05716E-18
 -1       328 8.64675E-05-8.44684E-06-3.34800E-05 1.15595E-06 1.65765E-18-4.77418E-18
 -1       329 8.67147E-05-8.73340E-06-3.34648E-05 3.36639E-06 2.28811E-18-4.42100E-18
 -1       330 8.72251E-05-9.32314E-06-3.34345E-05 5.61185E-06 2.94106E-18-3.79272E-18
 -1       331 8.81062E-05-1.03338E-05-3.33859E-05 8.00383E-06 3.61245E-18-2.88178E-18
 -1       332 8.95483E-05-1.19768E-05-3.33112E-05 1.04942E-05 4.20915E-18-1.63989E-18
 -1       333 9.19604E-05-1.47117E-05-3.31871E-05 1.29094E-05 4.57561E-18 2.56902E-19
 -1       334 9.57939E-05-1.94580E-05-3.28224E-05 1.41574E-05 4.39122E-18 3.59316E-18
 -1       335 9.87104E-05-2.44280E-05-3.19225E-05 1.17264E-05 3.71633E-18 6.62995E-18
 -1       336 9.63891E-05-2.68000E-05-2.97939E-05 5.54979E-06 3.06315E-18 5.36589E-18
 -1       337 9.64878E-05-2.60150E-05-3.01577E-05-6.09597E-06-3.10210E-18-1.10474E-18
 -1       338 9.50702E-05-2.70171E-05-2.91396E-05-2.50586E-06-2.37765E-18-1.17649E-18
 -1       339 9.42338E-05-2.74271E-05-2.86159E-05-4.73745E-07-1.61901E-18-1.37118E-18
 -1       340 9.39036E-05-2.76629E-05-2.83810E-05 7.53404E-07-9.58739E-19-1.83979E-18
 -1       341 9.39638E-05-2.78523E-05-2.83292E-05 1.54255E-06-6.73409E-19-2.06714E-18
 -1       342 9.43142E-05-2.80371E-05-2.84016E-05 2.10009E-06-7.51801E-19-2.05749E-18
 -1       343 9.48876E-05-2.82329E-05-2.85639E-05 2.55006E-06-9.07530E-19-2.29980E-18
 -1       344 9.56456E-05-2.84508E-05-2.87955E-05 2.96865E-06-9.35224E-19-2.07696E-18
 -1       345 9.65717E-05-2.87034E-05-2.90841E-05 3.39879E-06-6.79410E-19-2.27910E-18
 -1       346 9.76629E-05-2.90089E-05-2.94209E-05 3.85388E-06-5.98110E-19-2.20952E-18
 -1       347 9.89236E-05-2.93920E-05-2.97974E-05 4.31492E-06-5.04263E-19-2.36459E-18
 -1       348 1.00359E-04-2.98856E-05-3.02020E-05 4.72267E-06 1.17543E-19-1.93913E-18
 -1       349 1.01967E-04-3.05298E-05-3.06170E-05 4.96662E-06-8.77491E-20-1.49262E-18
 -1       350 1.03728E-04-3.13649E-05-3.10174E-05 4.87523E-06-1.02058E-19-1.44893E-18
 -1       351 1.05590E-04-3.24109E-05-3.13714E-05 4.21745E-06 2.64979E-19-1.14429E-18
 -1       352 1.07433E-04-3.36225E-05-3.16468E-05 2.73571E-06-4.24081E-19-1.57559E-18
 -1       353 1.09028E-04-3.48143E-05-3.18231E-05 2.42655E-07-5.03019E-19-1.33877E-18
 -1       354 1.09992E-04-3.55831E-05-3.19068E-05-3.18906E-06 3.62082E-19-8.89428E-19
 -1       355 1.09824E-04-3.53212E-05-3.19411E-05-6.96212E-06 7.18157E-19-6.77048E-19
 -1       356 1.08142E-04-3.34975E-05-3.19928E-05-9.77575E-06 5.66897E-19-1.34276E-18
 -1       357 1.05188E-04-3.02688E-05-3.21025E-05-9.92395E-06 2.23896E-19-1.30047E-18
 -1       358 1.02201E-04-2.69671E-05-3.22343E-05-6.36699E-06-1.46522E-18-1.21793E-18
 -1       359 1.00922E-04-2.55396E-05-3.22959E-05-4.36126E-09-6.18413E-19-3.00897E-18
 -1       360 1.02199E-04-2.69453E-05-3.22398E-05 6.38025E-06-8.39195E-19-3.92385E-18
 -1       361 1.05208E-04-3.02523E-05-3.21159E-05 9.97047E-06-9.45678E-19-3.33228E-18
 -1       362 1.08190E-04-3.34866E-05-3.20175E-05 9.86003E-06 5.92410E-20-3.51223E-18
 -1       363 1.09913E-04-3.53232E-05-3.19782E-05 7.08468E-06 1.06937E-18-4.03876E-18
 -1       364 1.10131E-04-3.55989E-05-3.19592E-05 3.35083E-06 9.92443E-19-4.28426E-18
 -1       365 1.09226E-04-3.48440E-05-3.18950E-05-3.76232E-08-1.83560E-20-3.31778E-18
 -1       366 1.07704E-04-3.36661E-05-3.17436E-05-2.47756E-06 6.09735E-19-2.12224E-18
 -1       367 1.05950E-04-3.24714E-05-3.14991E-05-3.89263E-06 1.03246E-18-1.40198E-18
 -1       368 1.04198E-04-3.14472E-05-3.11828E-05-4.46821E-06 4.44753E-19-1.31537E-18
 -1       369 1.02571E-04-3.06414E-05-3.08273E-05-4.46177E-06-2.70863E-19-1.21992E-18
 -1       370 1.01123E-04-3.00357E-05-3.04645E-05-4.10632E-06-1.54632E-19-1.84194E-18
 -1       371 9.98746E-05-2.95912E-05-3.01188E-05-3.57759E-06-1.39412E-19-1.01584E-18
 -1       372 9.88242E-05-2.92693E-05-2.98062E-05-2.99352E-06 5.83060E-19-2.17175E-18
 -1       373 9.79597E-05-2.90383E-05-2.95347E-05-2.42570E-06 6.32373E-19-3.37719E-18
 -1       374 9.72625E-05-2.88739E-05-2.93067E-05-1.91257E-06-5.02377E-19-2.06275E-18
 -1       375 9.67112E-05-2.87581E-05-2.91204E-05-1.47073E-06-1.44636E-18-5.68246E-19
 -1       376 9.62837E-05-2.86777E-05-2.89720E-05-1.10336E-06-1.55717E-18-2.27567E-19
 -1       377 9.59588E-05-2.86230E-05-2.88566E-05-8.05947E-07 8.92811E-19-1.56333E-18
 -1       378 9.57171E-05-2.85866E-05-2.87690E-05-5.70132E-07 1.84623E-18 1.22390E-18
 -1       379 9.55415E-05-2.85631E-05-2.87041E-05-3.86061E-07 1.83299E-18 2.11193E-20
 -1       380 9.54173E-05-2.85486E-05-2.86573E-05-2.44153E-07-6.47865E-19 9.88835E-19
 -1       381 9.53322E-05-2.85410E-05-2.86241E-05-1.35840E-07 1.18113E-18 3.51841E-19
 -1       382 9.52809E-05-2.85435E-05-2.86015E-05-6.06161E-08 1.81899E-18 3.15644E-19
 -1       383 9.44799E-05-2.73447E-05-2.87335E-05 2.22555E-06 2.44669E-18 4.27937E-18
 -1       384 9.34239E-05-2.74910E-05-2.82343E-05 4.12748E-07 1.81593E-18 3.36778E-18
 -1       385 9.30750E-05-2.76086E-05-2.80459E-05-6.38334E-07 1.32571E-18 2.58636E-18
 -1       386 9.32121E-05-2.77591E-05-2.80454E-05-1.29404E-06 8.07300E-19 2.03607E-18
 -1       387 9.36903E-05-2.79502E-05-2.81705E-05-1.75180E-06 5.46652E-19 1.43071E-18
 -1       388 9.44254E-05-2.81797E-05-2.83879E-05-2.12747E-06 6.20391E-19 1.54594E-18
 -1       389 9.53767E-05-2.84480E-05-2.86806E-05-2.49524E-06 6.52575E-19 1.42542E-18
 -1       390 9.65332E-05-2.87610E-05-2.90419E-05-2.90365E-06 3.32228E-19 1.70847E-18
 -1       391 9.79038E-05-2.91301E-05-2.94708E-05-3.38053E-06 8.00811E-19 1.24153E-18
 -1       392 9.95073E-05-2.95731E-05-2.99681E-05-3.93079E-06 7.50119E-19 1.38328E-18
 -1       393 1.01364E-04-3.01148E-05-3.05321E-05-4.52742E-06 5.69219E-19 9.18921E-19
 -1       394 1.03482E-04-3.07878E-05-3.11532E-05-5.09526E-06-1.31847E-19 1.03806E-18
 -1       395 1.05845E-04-3.16321E-05-3.18077E-05-5.48766E-06-2.82754E-19 1.16700E-18
 -1       396 1.08392E-04-3.26869E-05-3.24519E-05-5.46153E-06-2.51508E-19 1.24399E-18
 -1       397 1.10979E-04-3.39645E-05-3.30198E-05-4.66905E-06 5.82621E-19 1.95258E-18
 -1       398 1.13344E-04-3.53840E-05-3.34304E-05-2.70924E-06 4.31001E-19 2.47572E-18
 -1       399 1.15038E-04-3.66537E-05-3.36140E-05 6.85094E-07-8.73049E-19 3.12088E-18
 -1       400 1.15416E-04-3.71603E-05-3.35562E-05 5.26395E-06-1.24888E-18 3.20073E-18
 -1       401 1.13810E-04-3.60636E-05-3.33322E-05 9.76727E-06-1.75662E-19 3.18545E-18
 -1       402 1.10144E-04-3.29598E-05-3.30885E-05 1.18356E-05 1.21439E-18 3.27841E-18
 -1       403 1.05739E-04-2.88879E-05-3.29478E-05 9.18226E-06 1.66910E-18 2.49834E-18
 -1       404 1.03192E-04-2.63980E-05-3.29235E-05 1.90462E-06 6.25044E-19 1.76048E-18
 -1       405 1.04362E-04-2.74417E-05-3.29693E-05-6.44166E-06 7.91182E-19 4.50952E-19
 -1       406 1.08407E-04-3.11802E-05-3.30913E-05-1.13926E-05 1.34543E-18-1.17361E-18
 -1       407 1.12712E-04-3.49826E-05-3.33109E-05-1.12265E-05 9.86086E-19-3.01669E-19
 -1       408 1.15267E-04-3.69912E-05-3.35601E-05-7.46258E-06-3.60505E-19 3.65379E-19
 -1       409 1.15653E-04-3.70857E-05-3.36965E-05-2.69621E-06 9.41047E-19 5.94976E-19
 -1       410 1.14423E-04-3.60453E-05-3.36157E-05 1.27073E-06 3.59101E-19 1.51823E-18
 -1       411 1.12301E-04-3.46355E-05-3.33046E-05 3.79988E-06-1.61239E-19 7.11475E-20
 -1       412 1.09836E-04-3.32875E-05-3.28175E-05 4.99572E-06 7.21508E-20-1.43231E-18
 -1       413 1.07363E-04-3.21587E-05-3.22343E-05 5.23703E-06-9.39430E-19-3.64591E-19
 -1       414 1.05067E-04-3.12660E-05-3.16281E-05 4.90761E-06-4.54495E-19 1.09022E-18
 -1       415 1.03037E-04-3.05761E-05-3.10513E-05 4.29820E-06 1.22763E-18 1.65525E-18
 -1       416 1.01306E-04-3.00477E-05-3.05345E-05 3.59696E-06 9.79766E-19 1.14960E-18
 -1       417 9.98691E-05-2.96446E-05-3.00914E-05 2.91150E-06-5.74658E-19 2.62622E-19
 -1       418 9.87048E-05-2.93387E-05-2.97239E-05 2.29531E-06 1.56224E-19-4.95080E-19
 -1       419 9.77807E-05-2.91082E-05-2.94272E-05 1.76904E-06-9.57907E-19-2.63058E-20
 -1       420 9.70615E-05-2.89364E-05-2.91933E-05 1.33495E-06 9.36625E-20 1.20609E-18
 -1       421 9.65123E-05-2.88102E-05-2.90126E-05 9.85949E-07-3.09527E-19 1.27663E-18
 -1       422 9.61012E-05-2.87192E-05-2.88760E-05 7.10873E-07 2.58884E-19 9.79229E-19
 -1       423 9.58002E-05-2.86549E-05-2.87750E-05 4.97347E-07 1.24882E-18 7.38153E-19
 -1       424 9.55856E-05-2.86108E-05-2.87023E-05 3.33371E-07-3.13642E-19 4.99083E-19
 -1       425 9.54375E-05-2.85817E-05-2.86516E-05 2.08154E-07 5.46279E-19 7.32603E-19
 -1       426 9.53400E-05-2.85641E-05-2.86176E-05 1.13161E-07-1.34217E-19 1.47186E-18
 -1       427 9.52802E-05-2.85567E-05-2.85954E-05 4.32582E-08-9.41883E-19 2.86573E-18
 -1       428 9.52577E-05-2.85572E-05-2.85858E-05 1.41847E-08-8.90705E-19 2.42439E-18
 -1       429 9.52078E-05-2.83983E-05-2.86325E-05 1.55944E-07 1.02125E-18 3.00441E-19
 -1       430 9.52469E-05-2.84742E-05-2.86166E-05 1.13616E-07 1.85675E-19 2.83470E-18
 -1       431 9.52607E-05-2.85249E-05-2.86008E-05 6.08207E-08-8.83265E-19 2.00368E-18
 -1       432 9.51626E-05-2.83185E-05-2.86474E-05 1.69686E-07-4.30195E-19-4.14351E-18
 -1       433 9.51191E-05-2.82441E-05-2.86608E-05 1.51143E-07-3.62863E-20 2.68407E-19
 -1       434 9.50856E-05-2.81875E-05-2.86709E-05 1.03743E-07-1.95691E-19-6.84729E-19
 -1       435 9.50676E-05-2.81572E-05-2.86762E-05 3.68707E-08-1.07247E-18-1.09229E-18
 -1       436 9.50678E-05-2.81576E-05-2.86761E-05-3.67620E-08-2.10500E-18-3.46924E-18
 -1       437 9.50861E-05-2.81886E-05-2.86706E-05-1.03405E-07-2.66010E-18-3.21943E-18
 -1       438 9.51189E-05-2.82444E-05-2.86606E-05-1.49957E-07-3.79579E-19-1.65647E-18
 -1       439 9.51621E-05-2.83185E-05-2.86472E-05-1.68981E-07 1.27668E-19 2.76012E-18
 -1       440 9.52075E-05-2.83991E-05-2.86321E-05-1.55572E-07 2.04585E-19 1.61985E-18
 -1       441 9.52472E-05-2.84759E-05-2.86161E-05-1.13079E-07-6.03400E-19-2.46667E-19
 -1       442 5.79269E-05-4.02967E-05-7.50201E-06 4.22059E-05-4.18646E-19 2.72580E-18
 -1       443 1.17878E-05-2.21300E-05 4.20430E-06 7.39733E-07-5.56340E-19 3.99852E-18
 -1       444 2.29340E-05-2.65517E-05 1.40056E-06 2.48325E-05-5.77359E-19 2.39859E-18
 -1       445 9.24997E-05-5.23405E-05-1.73219E-05 4.16127E-05 1.33937E-19 3.29006E-18
 -1       446 1.33404E-04-5.54105E-05-3.33621E-05 2.52228E-05 1.89428E-18 1.51608E-18
 -1       447 8.94857E-05-1.18680E-05-3.33268E-05-1.04913E-05-2.32623E-18-4.81485E-18
 -1       448 1.58872E-04-2.72682E-05-5.63328E-05-1.53765E-06 7.47644E-18-6.10181E-19
 -1       449 1.57306E-04-1.29701E-05-6.18143E-05-7.00408E-07 8.32062E-18-8.70326E-20
 -1       450 1.58581E-04-1.63023E-05-6.08400E-05 2.52905E-06 7.65982E-18-4.44269E-19
 -1       451 1.56773E-04-3.30717E-05-5.29777E-05-2.51757E-07 4.84127E-18-2.03129E-18
 -1       452 1.47386E-04-4.73227E-05-4.27349E-05-1.78295E-05 4.35740E-18-4.40330E-18
 -1       453 1.18387E-04-5.34593E-05-2.79094E-05-3.43438E-05 2.90733E-18-5.52562E-18
 -1       454 8.00970E-05-4.84814E-05-1.37492E-05-4.28379E-05 9.19560E-19-4.99373E-18
 -1       455 3.89236E-05-3.29930E-05-2.56946E-06-3.59412E-05-1.28114E-18-6.85647E-18
 -1       456 1.47978E-05-2.45975E-05 3.89257E-06-1.38031E-05-8.82926E-19-9.75115E-18
 -1       457 1.40817E-05-2.39754E-05 3.93155E-06 1.33617E-05-6.36466E-19-9.13176E-18
 -1       458 3.84846E-05-3.48020E-05-1.92100E-06 3.66423E-05-1.25043E-18-5.45839E-18
 -1       459 7.57051E-05-4.65361E-05-1.27311E-05 4.37051E-05-3.19458E-18-4.54002E-18
 -1       460 1.13966E-04-5.30666E-05-2.61357E-05 3.62698E-05-4.37365E-18-3.60391E-18
 -1       461 1.40424E-04-4.88059E-05-3.91869E-05 2.15519E-05-5.55352E-18-1.92764E-18
 -1       462 1.54939E-04-3.60890E-05-5.07481E-05 7.95397E-06-6.98757E-18-1.62249E-18
 -1       463 1.56920E-04-2.07949E-05-5.82141E-05-1.26780E-06-7.22667E-18-1.38871E-18
 -1       464 1.57951E-04-1.31455E-05-6.18782E-05-5.07133E-07-6.66551E-18-1.97396E-18
 -1       465 1.57535E-04-1.74893E-05-5.98707E-05 1.43538E-06-6.09006E-18-2.24797E-18
 -1       466 1.58309E-04-3.07524E-05-5.43668E-05-5.13695E-06-4.20435E-18-1.25022E-18
 -1       467 1.45532E-04-4.58990E-05-4.26346E-05-1.67199E-05-1.68210E-18 2.54110E-20
 -1       468 1.24764E-04-5.29287E-05-3.07675E-05-3.10975E-05 4.50622E-19 1.54933E-18
 -1       469 9.12343E-05-5.04510E-05-1.75724E-05-4.24321E-05 1.60915E-18 1.30695E-18
 -1       470 5.33343E-05-3.95545E-05-6.13579E-06-4.15187E-05 2.69865E-18 5.19353E-18
 -1       471 2.46925E-05-2.74567E-05 1.02031E-06-2.74527E-05 1.15504E-18 5.37845E-18
 -1       472 1.50617E-04-4.56916E-05-4.49757E-05 9.75742E-06 4.42835E-18 2.85768E-19
 -1       473 1.42121E-04-1.47826E-05-5.50128E-05-7.98636E-06 7.21100E-18-6.45863E-19
 -1       474 9.59141E-05-2.51141E-05-3.03285E-05 5.68625E-06 3.34538E-18 1.81210E-18
 -1       475 8.94227E-05-1.30677E-05-3.27421E-05-3.70252E-06-2.66225E-19-4.74404E-18
 -1       476 9.01976E-05-1.41103E-05-3.26288E-05-5.58025E-06-9.98354E-19-4.79285E-18
 -1       477 8.88610E-05-1.23164E-05-3.28222E-05 5.28906E-08 1.21705E-18-4.39163E-18
 -1       478 8.90144E-05-1.25186E-05-3.28016E-05 1.92528E-06 1.88305E-18-4.21180E-18
 -1       479 8.94568E-05-1.31079E-05-3.27398E-05 3.77536E-06 2.51149E-18-3.64062E-18
 -1       480 9.02474E-05-1.41726E-05-3.26244E-05 5.65131E-06 3.16596E-18-2.90299E-18
 -1       481 9.14632E-05-1.58418E-05-3.24321E-05 7.43891E-06 3.65879E-18-1.97194E-18
 -1       482 9.32945E-05-1.83955E-05-3.21196E-05 8.95445E-06 3.97407E-18-6.78025E-19
 -1       483 9.52936E-05-2.65258E-05-2.94536E-05 2.43299E-06 2.64940E-18 1.35847E-18
 -1       484 9.55846E-05-2.43659E-05-3.05123E-05-5.42941E-06-2.59735E-18-2.38396E-18
 -1       485 1.44029E-04-3.75954E-05-4.60293E-05-9.50806E-06 4.32802E-18-3.69418E-18
 -1       486 9.54439E-05-2.61183E-05-2.97024E-05-2.37105E-06-2.01394E-18-2.15893E-18
 -1       487 9.51843E-05-2.70205E-05-2.92087E-05-3.16435E-07-1.42297E-18-2.06797E-18
 -1       488 9.50383E-05-2.75150E-05-2.89363E-05 1.06256E-06-1.06812E-18-2.09157E-18
 -1       489 9.50540E-05-2.78058E-05-2.88194E-05 2.02954E-06-8.52661E-19-2.37024E-18
 -1       490 9.52235E-05-2.79876E-05-2.88144E-05 2.76529E-06-1.02137E-18-2.26874E-18
 -1       491 9.55293E-05-2.81129E-05-2.88918E-05 3.39176E-06-5.68073E-19-2.18335E-18
 -1       492 9.59602E-05-2.82198E-05-2.90306E-05 3.98777E-06-6.60822E-19-1.66366E-18
 -1       493 9.65163E-05-2.83460E-05-2.92148E-05 4.59627E-06-6.25309E-19-1.12315E-18
 -1       494 9.72111E-05-2.85374E-05-2.94306E-05 5.22530E-06-4.78463E-19-9.29427E-19
 -1       495 9.80739E-05-2.88558E-05-2.96642E-05 5.84351E-06-9.29991E-20-1.14141E-18
 -1       496 9.91536E-05-2.93843E-05-2.99010E-05 6.37124E-06 1.56775E-19-1.88471E-18
 -1       497 1.00521E-04-3.02281E-05-3.01266E-05 6.66818E-06 4.18820E-20-1.10417E-18
 -1       498 1.02264E-04-3.14992E-05-3.03306E-05 6.52151E-06 2.15485E-19-6.45209E-19
 -1       499 1.04460E-04-3.32688E-05-3.05161E-05 5.64352E-06-5.25469E-19-6.11047E-19
 -1       500 1.07104E-04-3.54593E-05-3.07129E-05 3.70173E-06-1.23821E-19-7.02126E-19
 -1       501 1.09963E-04-3.76664E-05-3.09937E-05 4.35809E-07 6.69967E-20 1.19396E-19
 -1       502 1.12410E-04-3.89920E-05-3.14747E-05-4.07603E-06 6.89403E-19 6.13105E-19
 -1       503 1.13382E-04-3.80902E-05-3.22781E-05-8.96049E-06 5.06162E-19 5.64446E-19
 -1       504 1.11958E-04-3.40113E-05-3.34232E-05-1.21456E-05 5.99673E-20 7.52263E-19
 -1       505 1.08461E-04-2.76268E-05-3.46755E-05-1.09748E-05-1.21297E-18-5.79184E-19
 -1       506 1.05348E-04-2.25422E-05-3.55295E-05-4.48989E-06-1.89095E-18-1.85687E-18
 -1       507 1.05348E-04-2.25213E-05-3.55340E-05 4.48344E-06-2.14126E-18-2.99289E-18
 -1       508 1.08475E-04-2.76010E-05-3.46859E-05 1.10402E-05-1.09706E-18-3.94555E-18
 -1       509 1.11961E-04-3.39463E-05-3.34507E-05 1.22407E-05-6.74679E-19-3.89802E-18
 -1       510 1.13438E-04-3.80594E-05-3.23144E-05 9.10411E-06 5.03685E-19-3.36116E-18
 -1       511 1.12491E-04-3.89624E-05-3.15222E-05 4.26543E-06 1.63099E-18-2.37971E-18
 -1       512 1.10081E-04-3.76463E-05-3.10527E-05-1.98473E-07 9.15060E-19-2.54847E-18
 -1       513 1.07254E-04-3.54340E-05-3.07878E-05-3.40577E-06 1.25854E-18-1.31602E-18
 -1       514 1.04651E-04-3.32383E-05-3.06108E-05-5.27272E-06 1.18925E-18-9.78726E-19
 -1       515 1.02504E-04-3.14621E-05-3.04492E-05-6.05885E-06 5.63754E-19 9.11666E-20
 -1       516 1.00822E-04-3.01880E-05-3.02725E-05-6.09563E-06-5.14638E-19-1.51361E-19
 -1       517 9.95265E-05-2.93471E-05-3.00765E-05-5.67393E-06-9.22081E-19-4.89148E-19
 -1       518 9.85288E-05-2.88298E-05-2.98699E-05-5.01166E-06 5.40975E-19 2.86689E-19
 -1       519 9.77551E-05-2.85343E-05-2.96647E-05-4.25804E-06 7.34939E-19 2.89883E-19
 -1       520 9.71511E-05-2.83821E-05-2.94711E-05-3.50746E-06-1.29083E-18-1.97048E-19
 -1       521 9.66781E-05-2.83178E-05-2.92960E-05-2.81423E-06 4.49475E-20-2.27611E-18
 -1       522 9.63083E-05-2.83047E-05-2.91433E-05-2.20513E-06 7.46747E-19-2.54904E-18
 -1       523 9.60207E-05-2.83191E-05-2.90140E-05-1.68903E-06-3.41628E-19-4.59818E-19
 -1       524 9.57992E-05-2.83465E-05-2.89075E-05-1.26390E-06-1.31471E-18 1.42288E-19
 -1       525 9.56302E-05-2.83780E-05-2.88218E-05-9.21642E-07 1.89457E-18 7.03644E-19
 -1       526 9.55027E-05-2.84084E-05-2.87542E-05-6.51319E-07 4.73385E-19 8.34638E-19
 -1       527 9.54075E-05-2.84354E-05-2.87019E-05-4.41345E-07 7.45100E-19-5.51631E-19
 -1       528 9.53370E-05-2.84585E-05-2.86619E-05-2.80960E-07 1.07622E-18 6.66367E-19
 -1       529 9.46113E-05-2.76099E-05-2.87105E-05-9.52232E-07 1.69859E-18 5.17863E-19
 -1       530 9.46553E-05-2.78509E-05-2.86280E-05-1.86494E-06 9.89363E-19-7.68138E-20
 -1       531 9.49138E-05-2.80237E-05-2.86654E-05-2.55570E-06 5.45709E-19-1.93765E-19
 -1       532 9.53506E-05-2.81632E-05-2.87929E-05-3.15568E-06 5.52623E-19-2.55283E-19
 -1       533 9.59433E-05-2.82918E-05-2.89916E-05-3.75351E-06 5.40583E-19 3.31338E-20
 -1       534 9.66844E-05-2.84311E-05-2.92493E-05-4.40644E-06 7.71109E-19 8.74564E-20
 -1       535 9.75799E-05-2.86094E-05-2.95565E-05-5.14272E-06 9.21295E-19 9.55937E-20
 -1       536 9.86493E-05-2.88693E-05-2.99035E-05-5.95685E-06 6.36059E-19-1.76548E-19
 -1       537 9.99281E-05-2.92771E-05-3.02773E-05-6.79749E-06-1.36146E-19-1.33599E-20
 -1       538 1.01474E-04-2.99336E-05-3.06599E-05-7.54741E-06-1.59242E-19 1.00600E-19
 -1       539 1.03373E-04-3.09799E-05-3.10282E-05-7.99655E-06-4.03134E-19 3.39921E-19
 -1       540 1.05740E-04-3.25818E-05-3.13603E-05-7.81448E-06-3.81489E-19 4.57064E-19
 -1       541 1.08680E-04-3.48555E-05-3.16506E-05-6.54102E-06-7.28659E-20 1.87485E-18
 -1       542 1.12156E-04-3.76708E-05-3.19377E-05-3.64962E-06-7.12875E-19 2.78702E-18
 -1       543 1.15730E-04-4.03125E-05-3.23387E-05 1.19261E-06-1.58530E-18 3.10303E-18
 -1       544 1.18305E-04-4.12242E-05-3.30567E-05 7.53577E-06-3.99826E-19 3.50986E-18
 -1       545 1.18164E-04-3.83070E-05-3.42632E-05 1.32505E-05 5.51767E-19 2.76864E-18
 -1       546 1.14728E-04-3.12774E-05-3.58286E-05 1.44214E-05 2.18010E-18 2.62083E-18
 -1       547 1.10320E-04-2.38378E-05-3.71606E-05 8.01114E-06 2.66103E-18 1.95943E-18
 -1       548 1.09311E-04-2.21938E-05-3.74378E-05-3.52486E-06 2.17248E-18-7.25569E-19
 -1       549 1.12779E-04-2.78616E-05-3.64773E-05-1.27534E-05 2.42134E-18-1.69031E-18
 -1       550 1.17131E-04-3.57830E-05-3.49010E-05-1.46254E-05 1.23617E-18-2.11766E-18
 -1       551 1.18722E-04-4.05664E-05-3.35166E-05-1.02861E-05-4.20553E-19-2.24192E-18
 -1       552 1.17111E-04-4.10271E-05-3.26300E-05-3.85743E-06-5.75777E-19-1.46057E-18
 -1       553 1.13810E-04-3.88648E-05-3.21395E-05 1.69828E-06-4.24131E-19-5.24665E-19
 -1       554 1.10245E-04-3.59840E-05-3.18415E-05 5.32843E-06 1.37554E-18-3.61523E-19
 -1       555 1.07116E-04-3.34447E-05-3.15829E-05 7.13897E-06 7.84986E-19-9.11154E-19
 -1       556 1.04589E-04-3.15737E-05-3.12962E-05 7.62406E-06-1.58025E-18 1.00410E-18
 -1       557 1.02595E-04-3.03255E-05-3.09728E-05 7.28552E-06-1.59240E-18 1.21416E-18
 -1       558 1.01018E-04-2.95427E-05-3.06302E-05 6.51037E-06-2.39864E-19 2.07207E-18
 -1       559 9.97576E-05-2.90710E-05-3.02912E-05 5.55939E-06 1.66353E-18 3.50559E-18
 -1       560 9.87427E-05-2.87948E-05-2.99744E-05 4.59116E-06 7.52848E-19 2.10794E-18
 -1       561 9.79247E-05-2.86372E-05-2.96916E-05 3.69248E-06 3.39175E-20 1.96699E-18
 -1       562 9.72687E-05-2.85502E-05-2.94481E-05 2.90372E-06 5.96344E-19 2.24210E-18
 -1       563 9.67476E-05-2.85051E-05-2.92445E-05 2.23725E-06-2.34543E-18 1.17877E-18
 -1       564 9.63389E-05-2.84847E-05-2.90786E-05 1.68969E-06 9.77064E-20 1.50619E-18
 -1       565 9.60230E-05-2.84784E-05-2.89463E-05 1.24963E-06 2.96525E-19 1.01148E-18
 -1       566 9.57829E-05-2.84800E-05-2.88430E-05 9.02270E-07-1.73236E-20 1.99314E-18
 -1       567 9.56033E-05-2.84853E-05-2.87640E-05 6.32011E-07-2.88028E-20 4.46600E-18
 -1       568 9.54714E-05-2.84922E-05-2.87047E-05 4.24451E-07 1.58185E-19 4.50705E-18
 -1       569 9.53761E-05-2.84993E-05-2.86609E-05 2.67020E-07 3.14889E-20 4.27912E-18
 -1       570 9.53088E-05-2.85084E-05-2.86283E-05 1.49025E-07-9.44799E-19 5.06577E-18
 -1       571 9.50956E-05-2.81857E-05-2.86757E-05 2.48699E-07-3.74317E-19-2.19056E-18
 -1       572 9.50300E-05-2.81014E-05-2.86838E-05 1.93572E-07-3.56784E-20 1.72802E-18
 -1       573 9.52450E-05-2.83937E-05-2.86506E-05 2.30402E-07-1.33475E-19 1.47605E-18
 -1       574 9.51720E-05-2.82877E-05-2.86647E-05 2.61378E-07-1.51597E-18-2.02558E-18
 -1       575 9.49864E-05-2.80464E-05-2.86887E-05 1.05345E-07-1.44087E-18-1.16192E-18
 -1       576 9.49714E-05-2.80279E-05-2.86902E-05-6.88670E-10-1.33459E-18-2.03084E-18
 -1       577 9.49873E-05-2.80483E-05-2.86883E-05-1.06396E-07-8.12767E-19-2.74141E-18
 -1       578 9.50304E-05-2.81034E-05-2.86831E-05-1.92576E-07-2.52832E-19-9.28666E-19
 -1       579 9.50957E-05-2.81880E-05-2.86748E-05-2.47425E-07 1.68828E-19-3.76107E-19
 -1       580 9.51712E-05-2.82896E-05-2.86636E-05-2.60049E-07-1.11956E-19 2.20358E-18
 -1       581 9.52434E-05-2.83944E-05-2.86495E-05-2.29628E-07-3.50012E-19 1.81832E-18
 -1       582 2.71007E-05-1.44378E-05-4.77796E-06 1.37130E-05-1.28278E-18 3.23598E-18
 -1       583 5.02200E-05-2.71817E-05-9.33801E-06 3.49236E-05-1.60968E-18 6.69103E-19
 -1       584 2.58294E-05-1.46689E-05-4.19355E-06-1.47235E-05-7.48089E-19 3.60275E-18
 -1       585 9.48234E-05-2.72278E-05-2.89603E-05 3.78833E-07 1.97253E-18 9.87449E-19
 -1       586 8.67705E-05-4.81058E-05-1.62361E-05 4.10193E-05-2.30319E-18 9.57796E-19
 -1       587 1.21954E-04-6.04797E-05-2.62835E-05 2.77484E-05-1.42932E-18-6.98882E-19
 -1       588 9.46954E-05-2.07274E-05-3.17217E-05-9.19719E-06-3.14586E-18-3.06711E-18
 -1       589 4.95425E-05-3.02878E-05-7.79395E-06-3.82419E-05 3.27034E-18 2.49573E-18
 -1       590 1.41477E-04-2.89483E-05-4.86929E-05-9.71881E-06-5.96110E-18 9.04684E-19
 -1       591 8.89930E-05-1.24933E-05-3.28032E-05-1.82000E-06 5.43127E-19-4.51647E-18
 -1       592 1.44283E-04-4.67471E-05-4.22181E-05 5.99957E-06 2.03079E-18 2.19281E-18
 -1       593 1.34074E-04-9.96746E-06-5.38632E-05 3.14366E-06 6.77806E-18 3.30940E-18
 -1       594 1.40146E-04-2.31362E-05-5.06728E-05 1.02242E-05-4.17238E-18-3.49592E-18
 -1       595 1.37144E-04-2.21073E-05-4.98763E-05 1.31059E-05 5.50360E-18 4.92126E-18
 -1       596 1.38548E-04-5.92095E-05-3.40930E-05-1.21372E-05 1.66746E-19-4.74338E-20
 -1       597 1.11849E-04-5.82753E-05-2.28378E-05-3.46474E-05-1.65426E-18-4.27401E-18
 -1       598 7.34563E-05-4.23418E-05-1.29671E-05-4.18610E-05-2.49515E-18-4.03304E-18
 -1       599 3.32320E-05-2.01402E-05-5.08577E-06-2.53986E-05-1.81069E-18-7.10978E-18
 -1       600 2.30638E-05-1.28590E-05-3.74139E-06-5.55843E-07 3.31090E-19-9.23224E-18
 -1       601 3.58141E-05-2.16112E-05-5.54484E-06 2.93803E-05 1.87337E-18-5.51609E-18
 -1       602 7.07464E-05-4.07103E-05-1.24590E-05 4.29783E-05 2.30308E-18-3.50928E-18
 -1       603 1.06499E-04-5.61362E-05-2.14121E-05 3.69415E-05 7.32842E-19-6.10042E-19
 -1       604 1.33317E-04-5.92011E-05-3.18405E-05 1.77573E-05-1.27682E-18 1.29310E-18
 -1       605 1.42889E-04-4.74491E-05-4.12131E-05-1.01277E-06-3.52710E-18 1.58056E-18
 -1       606 1.36016E-04-1.23514E-05-5.35518E-05-7.11855E-06-6.41426E-18-3.73039E-19
 -1       607 1.33022E-04-8.18489E-06-5.40724E-05 3.40334E-06-5.49280E-18-1.53289E-18
 -1       608 1.44220E-04-4.13036E-05-4.44305E-05 3.95994E-06-1.74759E-18-3.15462E-18
 -1       609 1.38012E-04-5.65295E-05-3.50678E-05-1.19541E-05 1.57291E-18-1.74351E-18
 -1       610 1.18541E-04-5.90400E-05-2.54202E-05-3.03881E-05 3.41444E-18 1.26528E-18
 -1       611 8.39044E-05-4.66334E-05-1.56671E-05-4.22750E-05 4.90697E-18 1.68202E-18
 -1       612 1.41891E-04-5.59935E-05-3.70169E-05 4.14011E-06 9.03829E-19-2.57742E-18
 -1       613 9.61977E-05-2.31758E-05-3.12984E-05 9.32095E-06 3.99997E-18 2.50966E-18
 -1       614 9.13544E-05-1.57365E-05-3.24419E-05-7.33067E-06-1.82062E-18-4.44864E-18
 -1       615 5.95485E-05-2.95709E-05-1.23630E-05-3.53232E-05-2.96835E-18-4.80061E-18
 -1       616 1.33773E-04-2.55638E-05-4.68566E-05-1.50903E-05 4.38948E-18-2.28601E-18
 -1       617 9.53004E-05-2.84744E-05-2.86394E-05-1.93333E-07 4.58867E-19 1.51960E-18
 -1       618 9.12847E-05-1.63131E-05-3.21362E-05 2.21035E-06 2.04059E-18-3.33633E-18
 -1       619 9.09775E-05-1.58623E-05-3.21975E-05 7.60894E-07 1.30491E-18-3.77642E-18
 -1       620 9.28156E-05-1.86699E-05-3.17823E-05 4.83487E-06 2.94892E-18-2.05124E-18
 -1       621 9.40070E-05-2.07240E-05-3.14149E-05 5.69472E-06 3.24745E-18-1.20814E-18
 -1       622 9.53664E-05-2.39621E-05-3.05916E-05 4.67986E-06 3.15531E-18-7.51039E-21
 -1       623 1.31383E-04-5.92711E-05-3.09741E-05 1.02794E-05-1.03375E-18-1.26007E-18
 -1       624 9.54727E-05-2.57388E-05-2.98817E-05 1.96695E-06 2.47614E-18-9.43525E-20
 -1       625 9.54867E-05-2.54116E-05-3.00301E-05-1.73484E-06-1.58149E-18-2.57184E-18
 -1       626 9.55691E-05-2.65501E-05-2.95787E-05 9.16160E-08-1.22900E-18-2.54997E-18
 -1       627 9.55459E-05-2.71903E-05-2.92948E-05 1.42124E-06-9.48727E-19-2.42552E-18
 -1       628 9.55135E-05-2.75278E-05-2.91364E-05 2.42514E-06-8.60153E-19-2.13078E-18
 -1       629 9.55100E-05-2.76765E-05-2.90712E-05 3.24175E-06-5.12893E-19-1.76229E-18
 -1       630 9.55517E-05-2.77125E-05-2.90736E-05 3.97449E-06-3.18890E-19-1.72344E-18
 -1       631 9.56526E-05-2.76993E-05-2.91225E-05 4.69394E-06-3.14638E-19-1.34468E-18
 -1       632 9.58352E-05-2.77027E-05-2.91993E-05 5.43939E-06-4.22214E-19-1.40681E-18
 -1       633 9.61402E-05-2.78042E-05-2.92865E-05 6.21798E-06-6.12633E-19-1.23510E-18
 -1       634 9.66381E-05-2.81125E-05-2.93678E-05 7.00055E-06-2.78346E-19-1.17686E-18
 -1       635 9.74424E-05-2.87730E-05-2.94297E-05 7.71276E-06 4.40612E-19-9.85459E-19
 -1       636 9.87219E-05-2.99686E-05-2.94662E-05 8.21973E-06 5.90477E-19-1.24087E-18
 -1       637 1.00700E-04-3.18941E-05-2.94900E-05 8.30212E-06 2.56577E-20-8.92098E-19
 -1       638 1.03618E-04-3.46774E-05-2.95491E-05 7.62239E-06 3.51196E-19 6.45243E-20
 -1       639 1.07596E-04-3.81823E-05-2.97515E-05 5.70018E-06 7.20559E-19 1.45182E-18
 -1       640 1.12343E-04-4.16667E-05-3.02933E-05 2.01978E-06 8.80105E-19 2.30989E-18
 -1       641 1.16804E-04-4.34713E-05-3.14421E-05-3.63583E-06 1.00978E-18 2.64288E-18
 -1       642 1.18957E-04-4.10199E-05-3.34305E-05-1.01686E-05 1.87610E-19 2.31154E-18
 -1       643 1.16575E-04-3.26638E-05-3.60446E-05-1.41574E-05-1.98039E-18 1.00074E-18
 -1       644 1.11601E-04-2.19032E-05-3.86064E-05-1.06478E-05-3.41323E-18-6.23297E-19
 -1       645 1.08859E-04-1.65007E-05-3.98029E-05-3.98072E-08-3.14380E-18-2.57399E-18
 -1       646 1.12075E-04-2.20780E-05-3.86873E-05 1.05609E-05-1.69818E-18-2.07628E-18
 -1       647 1.16760E-04-3.25968E-05-3.61804E-05 1.39347E-05-1.57223E-18-2.57976E-18
 -1       648 1.18920E-04-4.09245E-05-3.34667E-05 1.02639E-05 1.03051E-18-2.39911E-18
 -1       649 1.16824E-04-4.33917E-05-3.14862E-05 3.81624E-06 2.07016E-18-1.62042E-18
 -1       650 1.12414E-04-4.16268E-05-3.03412E-05-1.77541E-06 1.99122E-18 4.36314E-19
 -1       651 1.07638E-04-3.80905E-05-2.98090E-05-5.41265E-06 1.53035E-18 2.15078E-18
 -1       652 1.03668E-04-3.45673E-05-2.96164E-05-7.25864E-06 1.18321E-18 5.43336E-19
 -1       653 1.00748E-04-3.17508E-05-2.95713E-05-7.85062E-06 8.52525E-19-1.08597E-18
 -1       654 9.87716E-05-2.97937E-05-2.95623E-05-7.65915E-06-4.38781E-19-1.31605E-18
 -1       655 9.74952E-05-2.85708E-05-2.95389E-05-7.02934E-06-6.71327E-19 4.79747E-19
 -1       656 9.66929E-05-2.78897E-05-2.94867E-05-6.18513E-06-1.02873E-20 1.85428E-18
 -1       657 9.61941E-05-2.75733E-05-2.94084E-05-5.26987E-06-2.98367E-19 3.70966E-19
 -1       658 9.58828E-05-2.74844E-05-2.93131E-05-4.37240E-06-4.96888E-20-1.29097E-18
 -1       659 9.56851E-05-2.75263E-05-2.92105E-05-3.54454E-06-1.69950E-18 1.02770E-19
 -1       660 9.55558E-05-2.76351E-05-2.91085E-05-2.81284E-06-7.12004E-19-1.11111E-18
 -1       661 9.54680E-05-2.77705E-05-2.90129E-05-2.18690E-06 2.42275E-19-2.69776E-18
 -1       662 9.54059E-05-2.79088E-05-2.89271E-05-1.66546E-06 9.35752E-20-2.11105E-18
 -1       663 9.53601E-05-2.80368E-05-2.88527E-05-1.24073E-06 6.69607E-19-1.04756E-19
 -1       664 9.53248E-05-2.81480E-05-2.87899E-05-9.01670E-07 1.33857E-18 5.09462E-19
 -1       665 9.52964E-05-2.82405E-05-2.87381E-05-6.35734E-07 6.86522E-19-6.53432E-19
 -1       666 9.52723E-05-2.83151E-05-2.86958E-05-4.31367E-07 1.31632E-18 2.49621E-18
 -1       667 9.53566E-05-2.76374E-05-2.90218E-05-2.32657E-06 9.13757E-19-1.35377E-19
 -1       668 1.28831E-04-5.84904E-05-3.01801E-05-1.30972E-05 3.08250E-18-2.70117E-18
 -1       669 9.53663E-05-2.73376E-05-2.91542E-05-1.31224E-06 1.54294E-18-7.11043E-21
 -1       670 9.55619E-05-2.77974E-05-2.90413E-05-3.89913E-06 4.03964E-19-3.32371E-19
 -1       671 9.57712E-05-2.77603E-05-2.91468E-05-4.66095E-06 4.58288E-19-4.56414E-19
 -1       672 9.60527E-05-2.77026E-05-2.92921E-05-5.49003E-06 1.00220E-18-2.55779E-19
 -1       673 9.64230E-05-2.76794E-05-2.94606E-05-6.41236E-06 9.80099E-19-1.59993E-19
 -1       674 9.69224E-05-2.77739E-05-2.96342E-05-7.42049E-06 3.62101E-19-1.49025E-19
 -1       675 9.76328E-05-2.81152E-05-2.97926E-05-8.46365E-06-9.77587E-20-4.27840E-19
 -1       676 9.87026E-05-2.88987E-05-2.99159E-05-9.43054E-06-5.57191E-19-2.30953E-19
 -1       677 1.00375E-04-3.03959E-05-2.99923E-05-1.01212E-05-8.35769E-19 3.20783E-19
 -1       678 1.03002E-04-3.29234E-05-3.00369E-05-1.02029E-05-1.04113E-18 1.02750E-18
 -1       679 1.06989E-04-3.67056E-05-3.01267E-05-9.14244E-06-1.05090E-18 1.78460E-18
 -1       680 1.12535E-04-4.14840E-05-3.04528E-05-6.16838E-06-1.15160E-18 2.13349E-18
 -1       681 1.19060E-04-4.58219E-05-3.13878E-05-4.73814E-07-1.67144E-18 2.11448E-18
 -1       682 1.24432E-04-4.64248E-05-3.35082E-05 7.92082E-06-5.16558E-20 3.08314E-18
 -1       683 1.24989E-04-3.94570E-05-3.68030E-05 1.50075E-05 1.34743E-18 3.24541E-18
 -1       684 1.20101E-04-2.56655E-05-4.07566E-05 1.49638E-05 3.85891E-18 2.04742E-18
 -1       685 1.15948E-04-1.59530E-05-4.32111E-05 3.17762E-06 4.15552E-18 1.71068E-19
 -1       686 1.17791E-04-2.02199E-05-4.21752E-05-1.13201E-05 3.28768E-18-9.79977E-19
 -1       687 1.23468E-04-3.41049E-05-3.84995E-05-1.63743E-05 1.93829E-18-1.71493E-18
 -1       688 1.25430E-04-4.47029E-05-3.46712E-05-1.12755E-05 9.85079E-19-1.93836E-18
 -1       689 1.21612E-04-4.67285E-05-3.21158E-05-2.83436E-06-4.53161E-19-1.28688E-18
 -1       690 1.15238E-04-4.34190E-05-3.07884E-05 3.99234E-06-6.47905E-19-1.57367E-18
 -1       691 1.09170E-04-3.85422E-05-3.02754E-05 7.93990E-06-8.35061E-19-1.04800E-19
 -1       692 1.04554E-04-3.42524E-05-3.01340E-05 9.61609E-06 6.17603E-19 2.12578E-18
 -1       693 1.01434E-04-3.12019E-05-3.01016E-05 9.83944E-06-5.89848E-20 2.71218E-18
 -1       694 9.94408E-05-2.92979E-05-3.00616E-05 9.24481E-06-1.60693E-18 1.56714E-18
 -1       695 9.81898E-05-2.82417E-05-2.99772E-05 8.23938E-06-9.43247E-19 9.66678E-19
 -1       696 9.73899E-05-2.77371E-05-2.98502E-05 7.07687E-06-8.74780E-21 1.06699E-18
 -1       697 9.68545E-05-2.75607E-05-2.96963E-05 5.90776E-06 1.53161E-18 1.49138E-18
 -1       698 9.64748E-05-2.75636E-05-2.95323E-05 4.81703E-06 7.89756E-19 2.52810E-18
 -1       699 9.61905E-05-2.76544E-05-2.93716E-05 3.84744E-06 3.86143E-20 5.63962E-19
 -1       700 9.59695E-05-2.77802E-05-2.92232E-05 3.01499E-06-4.65146E-19 3.27991E-18
 -1       701 9.57944E-05-2.79121E-05-2.90917E-05 2.31933E-06-1.23377E-18 2.33823E-18
 -1       702 9.56548E-05-2.80354E-05-2.89792E-05 1.75066E-06 3.36405E-19 2.35549E-18
 -1       703 9.55440E-05-2.81436E-05-2.88855E-05 1.29467E-06 8.23137E-20 2.06766E-18
 -1       704 9.54562E-05-2.82339E-05-2.88092E-05 9.34853E-07-1.24815E-18 1.66003E-18
 -1       705 9.53872E-05-2.83070E-05-2.87484E-05 6.55271E-07-8.10705E-19 1.93383E-18
 -1       706 9.53329E-05-2.83645E-05-2.87004E-05 4.41740E-07-1.06260E-18 3.06756E-18
 -1       707 9.52825E-05-2.83773E-05-2.86734E-05 3.25585E-07-1.90613E-18 2.60220E-18
 -1       708 9.48469E-05-2.78656E-05-2.87063E-05 7.28548E-08-2.17555E-19-1.41892E-18
 -1       709 9.52579E-05-2.83579E-05-2.86714E-05-3.21402E-07 9.84054E-19 1.69572E-18
 -1       710 9.49783E-05-2.80075E-05-2.87018E-05 3.17655E-07-9.77938E-19 5.67305E-19
 -1       711 9.48480E-05-2.78675E-05-2.87060E-05-7.70247E-08-1.40914E-19-3.05610E-18
 -1       712 9.48925E-05-2.79142E-05-2.87050E-05 2.11682E-07-9.65137E-19-1.41470E-18
 -1       713 1.20408E-04-1.01607E-05-4.78150E-05-3.48716E-06-5.14144E-18 1.27730E-19
 -1       714 9.48942E-05-2.79180E-05-2.87041E-05-2.12388E-07 3.54700E-19-2.13705E-18
 -1       715 9.49798E-05-2.80125E-05-2.87003E-05-3.16913E-07 2.82874E-19-5.21221E-19
 -1       716 9.50918E-05-2.81391E-05-2.86941E-05-3.71324E-07 1.36455E-18 1.28830E-18
 -1       717 1.34300E-04-5.40876E-05-3.45545E-05 8.71284E-07-1.08248E-18 2.64626E-18
 -1       718 1.35342E-04-4.68482E-05-3.82180E-05-1.12822E-05 1.82248E-18-3.31510E-18
 -1       719 1.24764E-04-2.13183E-05-4.48079E-05-1.33740E-05-4.66286E-18 9.05836E-19
 -1       720 9.42272E-05-2.08352E-05-3.14534E-05-6.64750E-06-2.32103E-18-3.33398E-18
 -1       721 3.68829E-05-1.08416E-05-1.06239E-05-1.26567E-06-6.88241E-19 2.42421E-18
 -1       722 1.23442E-04-1.53061E-05-4.68733E-05 1.09088E-05-3.54547E-18-2.40991E-18
 -1       723 9.54279E-05-2.67628E-05-2.94256E-05 5.40871E-08 2.10764E-18-1.27304E-19
 -1       724 4.78201E-05-1.68370E-05-1.28365E-05 2.12045E-05-2.26205E-18 2.31184E-18
 -1       725 9.54224E-05-2.77709E-05-2.89929E-05-3.14928E-06 7.09533E-19-4.09042E-19
 -1       726 9.51426E-05-2.36488E-05-3.06408E-05-3.93553E-06-2.00341E-18-2.87483E-18
 -1       727 9.18953E-05-1.72300E-05-3.20052E-05 3.59936E-06 2.52207E-18-2.75679E-18
 -1       728 1.06675E-04-5.34044E-05-2.26296E-05-3.20605E-05 4.55262E-18 1.58124E-18
 -1       729 9.18508E-05-1.71730E-05-3.20103E-05-3.54899E-06-6.10771E-19-4.11395E-18
 -1       730 1.24374E-04-1.27738E-05-4.84029E-05-6.25006E-06 4.67451E-18 9.61740E-19
 -1       731 1.25385E-04-1.32889E-05-4.86345E-05 6.63289E-06 5.42053E-18 3.75727E-18
 -1       732 7.89840E-05-3.70737E-05-1.75878E-05 3.48561E-05-1.11380E-18 1.36477E-18
 -1       733 1.00407E-04-5.12819E-05-2.08191E-05-3.43745E-05-2.81265E-18-4.04952E-18
 -1       734 1.37734E-04-5.44666E-05-3.58898E-05 2.06300E-06 1.95719E-20 3.23852E-18
 -1       735 1.26037E-04-6.00578E-05-2.82526E-05-1.91554E-05-1.73519E-18-5.03429E-19
 -1       736 3.97580E-05-1.33411E-05-1.07369E-05-1.38173E-05-9.11288E-19-6.05597E-18
 -1       737 3.77400E-05-1.34604E-05-9.86031E-06 1.48948E-05 1.89387E-18-5.87841E-18
 -1       738 6.20548E-05-2.85305E-05-1.39267E-05 3.44154E-05 3.12767E-18-3.16862E-18
 -1       739 1.09349E-04-5.45431E-05-2.33288E-05 2.97216E-05-1.74293E-18 2.43456E-20
 -1       740 9.49335E-05-4.77301E-05-1.99665E-05 3.58752E-05 3.28220E-18-1.13206E-18
 -1       741 1.33163E-04-3.84649E-05-4.09608E-05-1.23156E-05-3.54131E-18 2.90416E-18
 -1       742 1.32488E-04-3.58411E-05-4.17611E-05 1.55450E-05 2.78224E-18 4.87282E-18
 -1       743 1.33600E-04-3.33814E-05-4.33679E-05 1.29491E-05-1.69123E-18-2.71776E-18
 -1       744 4.70756E-05-1.99540E-05-1.11007E-05-2.72384E-05 2.59001E-18-5.46919E-19
 -1       745 1.22039E-04-5.84403E-05-2.72034E-05 2.16306E-05 1.51682E-18 1.29979E-18
 -1       746 7.06574E-05-3.46623E-05-1.50701E-05-3.72493E-05 4.23411E-18 1.60457E-18
 -1       747 1.36817E-04-5.01422E-05-3.74237E-05 3.52217E-06 7.36211E-19-3.60841E-18
 -1       748 9.27787E-05-1.85858E-05-3.18011E-05-4.86140E-06-1.34920E-18-3.96466E-18
 -1       749 9.09700E-05-1.58533E-05-3.21982E-05-7.03558E-07 7.26628E-19-3.97941E-18
 -1       750 9.50902E-05-2.81333E-05-2.86960E-05 3.73927E-07-2.24297E-18-2.03161E-19
 -1       751 9.51923E-05-2.82568E-05-2.86866E-05 3.69998E-07-3.16166E-18-2.46707E-18
 -1       752 9.12600E-05-1.62825E-05-3.21387E-05-2.15144E-06 1.59298E-19-3.90507E-18
 -1       753 8.44914E-05-4.01339E-05-1.87021E-05-3.43758E-05-2.78614E-18-3.97902E-18
 -1       754 9.51744E-05-2.82184E-05-2.86955E-05-4.15284E-07 9.54031E-19 7.78161E-20
 -1       755 1.20758E-04-2.67129E-05-4.05820E-05 1.45310E-05-2.16229E-18-3.33020E-18
 -1       756 9.45553E-05-2.23329E-05-3.09515E-05 3.32875E-06 2.53321E-18-1.47520E-18
 -1       757 6.52571E-05-2.56156E-05-1.67135E-05-2.86706E-05 2.81441E-18 6.92370E-19
 -1       758 9.56466E-05-2.61318E-05-2.97921E-05 5.54152E-07-7.04451E-19-2.29845E-18
 -1       759 9.56393E-05-2.67975E-05-2.95036E-05 1.72851E-06-6.95698E-19-1.97367E-18
 -1       760 9.55050E-05-2.71065E-05-2.93136E-05 2.67293E-06-6.34102E-19-1.86857E-18
 -1       761 9.52994E-05-2.71743E-05-2.91964E-05 3.49007E-06-3.10368E-19-1.83972E-18
 -1       762 9.50581E-05-2.70917E-05-2.91284E-05 4.26358E-06-1.75617E-19-2.02806E-18
 -1       763 9.48138E-05-2.69425E-05-2.90876E-05 5.05538E-06-2.85761E-19-1.77538E-18
 -1       764 9.46095E-05-2.68193E-05-2.90528E-05 5.90558E-06-2.11972E-19-1.49148E-18
 -1       765 9.45134E-05-2.68376E-05-2.90037E-05 6.83287E-06-2.19526E-19-6.86552E-19
 -1       766 9.46369E-05-2.71517E-05-2.89220E-05 7.83306E-06 1.31153E-19-1.05167E-18
 -1       767 9.51589E-05-2.79688E-05-2.87956E-05 8.87173E-06 2.31138E-19-1.26968E-18
 -1       768 9.63512E-05-2.95536E-05-2.86274E-05 9.86283E-06 4.14833E-19-1.18515E-18
 -1       769 9.85945E-05-3.22039E-05-2.84538E-05 1.06227E-05 5.73962E-19-8.43187E-19
 -1       770 1.02351E-04-3.61556E-05-2.83721E-05 1.07658E-05 1.49037E-18-3.08633E-19
 -1       771 1.08008E-04-4.12981E-05-2.85865E-05 9.54124E-06 1.47295E-18 2.92151E-19
 -1       772 1.15361E-04-4.64782E-05-2.95033E-05 5.87325E-06 1.56037E-18 1.37762E-18
 -1       773 1.22778E-04-4.88073E-05-3.16854E-05-1.21019E-06 4.01093E-19 2.38324E-18
 -1       774 1.26390E-04-4.35663E-05-3.56420E-05 1.07353E-05 7.92677E-19-1.08009E-18
 -1       775 1.22408E-04-4.83842E-05-3.17329E-05 1.70680E-06 2.51195E-18 1.74800E-20
 -1       776 1.15479E-04-4.65479E-05-2.95579E-05-5.40421E-06 3.15084E-18 1.31409E-18
 -1       777 1.08044E-04-4.11406E-05-2.86666E-05-9.17498E-06 3.09539E-18 1.30767E-18
 -1       778 1.02401E-04-3.60328E-05-2.84397E-05-1.03742E-05 5.81551E-19 8.54506E-19
 -1       779 9.85616E-05-3.20027E-05-2.85245E-05-1.01912E-05-1.76136E-21 1.19752E-18
 -1       780 9.62729E-05-2.93009E-05-2.87019E-05-9.34652E-06-5.77223E-20 1.00173E-18
 -1       781 9.50241E-05-2.76632E-05-2.88687E-05-8.25723E-06 1.35839E-19 1.85626E-18
 -1       782 9.44355E-05-2.67961E-05-2.89880E-05-7.10686E-06-1.78697E-19 1.24556E-18
 -1       783 9.42368E-05-2.64441E-05-2.90537E-05-5.98996E-06-8.53764E-19 1.13804E-18
 -1       784 9.42498E-05-2.64120E-05-2.90732E-05-4.95489E-06-9.32655E-19-1.76410E-19
 -1       785 9.43645E-05-2.65618E-05-2.90582E-05-4.02651E-06-1.81594E-20-1.16513E-18
 -1       786 9.45164E-05-2.68014E-05-2.90206E-05-3.21566E-06-1.09141E-18 2.41076E-19
 -1       787 9.46702E-05-2.70721E-05-2.89705E-05-2.52366E-06-1.17436E-18-1.24263E-18
 -1       788 9.48083E-05-2.73388E-05-2.89154E-05-1.94536E-06 1.35243E-18-1.53264E-18
 -1       789 9.49236E-05-2.75821E-05-2.88606E-05-1.47137E-06 1.89557E-18 1.65126E-19
 -1       790 9.50148E-05-2.77932E-05-2.88092E-05-1.08972E-06 1.67837E-18 1.47758E-18
 -1       791 9.50843E-05-2.79699E-05-2.87633E-05-7.89117E-07 1.18637E-18 2.53207E-18
 -1       792 9.51411E-05-2.81098E-05-2.87276E-05-5.80849E-07-1.58089E-20 2.19413E-18
 -1       793 9.49605E-05-2.69269E-05-2.91570E-05-5.16164E-06 6.08202E-19-8.68929E-19
 -1       794 9.51657E-05-2.71542E-05-2.91476E-05-4.31854E-06 5.58162E-19-6.66711E-19
 -1       795 9.45540E-05-2.64311E-05-2.91951E-05-7.12552E-06 3.11524E-19-3.56124E-19
 -1       796 9.44476E-05-2.63719E-05-2.91749E-05-8.28800E-06-2.26448E-20-1.40769E-19
 -1       797 9.45584E-05-2.66721E-05-2.90937E-05-9.56403E-06-3.36843E-19 3.32023E-19
 -1       798 9.51248E-05-2.76187E-05-2.89308E-05-1.09142E-05-8.56642E-19-5.90720E-20
 -1       799 9.65536E-05-2.96184E-05-2.86853E-05-1.22386E-05-1.27744E-18 1.57065E-19
 -1       800 9.94388E-05-3.31460E-05-2.84099E-05-1.32954E-05-1.49635E-18-1.30935E-19
 -1       801 1.04648E-04-3.86774E-05-2.82729E-05-1.34989E-05-1.34405E-18 1.62122E-19
 -1       802 1.13042E-04-4.60167E-05-2.86940E-05-1.16049E-05-1.85100E-18 5.30377E-19
 -1       803 1.23071E-04-5.21797E-05-3.04743E-05-5.77156E-06-1.99093E-18 1.77755E-18
 -1       804 1.17057E-04-4.87878E-05-2.92418E-05 9.45400E-06-2.00599E-18-1.09662E-18
 -1       805 1.07739E-04-4.14259E-05-2.84102E-05 1.27249E-05-8.71860E-19 6.42050E-19
 -1       806 1.01346E-04-3.50685E-05-2.84053E-05 1.31726E-05-5.76244E-19 1.02919E-19
 -1       807 9.75965E-05-3.07296E-05-2.86567E-05 1.23107E-05-4.27763E-19-1.68970E-20
 -1       808 9.56042E-05-2.81029E-05-2.89285E-05 1.09791E-05-7.45191E-19 6.78755E-19
 -1       809 9.47067E-05-2.67329E-05-2.91310E-05 9.51710E-06-6.75299E-19 8.85886E-19
 -1       810 9.44040E-05-2.61660E-05-2.92444E-05 8.08411E-06-7.10194E-19 6.35643E-19
 -1       811 9.43959E-05-2.60730E-05-2.92808E-05 6.74549E-06-1.93428E-19 1.35507E-18
 -1       812 9.45122E-05-2.62346E-05-2.92614E-05 5.53430E-06 9.47410E-19 2.09964E-18
 -1       813 9.46639E-05-2.65141E-05-2.92067E-05 4.46612E-06 8.76150E-19 2.69052E-18
 -1       814 9.48093E-05-2.68311E-05-2.91332E-05 3.54530E-06-6.12979E-19 2.34010E-18
 -1       815 9.49318E-05-2.71412E-05-2.90529E-05 2.76796E-06-6.73272E-19 9.69970E-19
 -1       816 9.50276E-05-2.74221E-05-2.89736E-05 2.12425E-06 8.06341E-20 3.87571E-19
 -1       817 9.50986E-05-2.76646E-05-2.89001E-05 1.60043E-06 5.16580E-20-8.13420E-19
 -1       818 9.51483E-05-2.78662E-05-2.88351E-05 1.18233E-06-6.57828E-19-8.78458E-19
 -1       819 9.51816E-05-2.80300E-05-2.87792E-05 8.52696E-07-9.10636E-19-1.04198E-18
 -1       820 9.52012E-05-2.81594E-05-2.87321E-05 5.98581E-07-1.22846E-19-2.15090E-18
 -1       821 9.51949E-05-2.82101E-05-2.87080E-05 4.73753E-07-1.49318E-18-2.80894E-18
 -1       822 9.27329E-05-1.89909E-05-3.16050E-05 1.02673E-06 1.49840E-18-3.05101E-18
 -1       823 9.46689E-05-2.76470E-05-2.87237E-05-4.78289E-09 1.54135E-19-2.99954E-18
 -1       824 9.49481E-05-2.79291E-05-2.87225E-05-4.82247E-07-1.43313E-20 5.88085E-19
 -1       825 9.47040E-05-2.76825E-05-2.87235E-05-1.99574E-07-1.71793E-19-1.61204E-18
 -1       826 5.06995E-05-1.45366E-05-1.51846E-05-1.48364E-05 7.63187E-19-2.38908E-18
 -1       827 1.09658E-04-5.06636E-05-2.51594E-05 2.35585E-05 2.54223E-18 9.32426E-19
 -1       828 1.16391E-04-5.31260E-05-2.70155E-05-1.82914E-05 4.21333E-18-1.83526E-18
 -1       829 1.25036E-04-5.44706E-05-3.02875E-05 7.39498E-06 9.84140E-19 1.89137E-18
 -1       830 1.26927E-04-5.29716E-05-3.17215E-05 1.23115E-06-1.62998E-18-2.51048E-18
 -1       831 9.48013E-05-2.77801E-05-2.87234E-05-3.68463E-07-1.83304E-19-1.45660E-18
 -1       832 9.47468E-05-2.66579E-05-2.91807E-05-6.08716E-06 7.63815E-19-5.43633E-19
 -1       833 9.56092E-05-2.69432E-05-2.94282E-05-1.65666E-06 1.26773E-18-3.11235E-19
 -1       834 9.54293E-05-2.49401E-05-3.02096E-05-9.59946E-07-1.23584E-18-2.76238E-18
 -1       835 6.97898E-05-2.49256E-05-1.90077E-05 2.49475E-05-2.66057E-18 1.12411E-18
 -1       836 1.27350E-04-4.46530E-05-3.55688E-05-9.41724E-06-1.91903E-18 1.80476E-18
 -1       837 1.14040E-04-5.37986E-05-2.57573E-05-2.24707E-05-3.13311E-18-8.31545E-19
 -1       838 9.21370E-05-4.18425E-05-2.14100E-05-3.06591E-05 4.39544E-18 7.78926E-19
 -1       839 9.52389E-05-2.41771E-05-3.04547E-05 2.79726E-06 2.62431E-18-5.78306E-19
 -1       840 5.72973E-05-1.89247E-05-1.61687E-05 2.16494E-05 2.34215E-18-3.42056E-18
 -1       841 1.29433E-04-5.59950E-05-3.14586E-05-5.21974E-06-1.37437E-18 2.52181E-18
 -1       842 9.92638E-05-4.49511E-05-2.31488E-05 2.72509E-05-1.38916E-18-1.11920E-18
 -1       843 5.91381E-05-2.18449E-05-1.56518E-05-2.52327E-05-1.77547E-18-4.52167E-18
 -1       844 1.30790E-04-4.91284E-05-3.50901E-05 7.96992E-06 1.66647E-19 3.76204E-18
 -1       845 8.34302E-05-3.62550E-05-2.00312E-05 3.11217E-05 2.91706E-18-1.77443E-18
 -1       846 4.80139E-05-1.20064E-05-1.51171E-05 1.66774E-06 7.70266E-19-5.20706E-18
 -1       847 5.11378E-05-1.27387E-05-1.61768E-05 7.38595E-06-9.92273E-19 1.91431E-18
 -1       848 9.25855E-05-1.87606E-05-3.16415E-05 2.43184E-08 8.67977E-19-3.27238E-18
 -1       849 9.38013E-05-2.08034E-05-3.12845E-05 2.79436E-06 2.28401E-18-2.12461E-18
 -1       850 9.49129E-05-2.32046E-05-3.07313E-05-2.67404E-06-1.50593E-18-2.99468E-18
 -1       851 9.49431E-05-2.79179E-05-2.87251E-05 4.83053E-07-1.22910E-18-1.19601E-18
 -1       852 9.37543E-05-2.07490E-05-3.12914E-05-2.74501E-06-9.44998E-19-3.51774E-18
 -1       853 8.67021E-05-3.34600E-05-2.27447E-05 2.42316E-05-3.13106E-18 1.03007E-19
 -1       854 9.53494E-05-2.72752E-05-2.91745E-05-3.50653E-06 4.81945E-19-4.70392E-19
 -1       855 9.56242E-05-2.63040E-05-2.97083E-05-4.01503E-07 1.67734E-18-4.27623E-19
 -1       856 9.31426E-05-1.96655E-05-3.14911E-05 1.97368E-06 1.85303E-18-2.60575E-18
 -1       857 9.47965E-05-2.77708E-05-2.87253E-05 3.65879E-07-1.07056E-18 1.79448E-18
 -1       858 9.47010E-05-2.76773E-05-2.87245E-05 1.94074E-07-1.63310E-19 2.01001E-19
 -1       859 1.25338E-04-5.28767E-05-3.10549E-05-3.78569E-06 3.21876E-18-1.60673E-18
 -1       860 1.16354E-04-5.28140E-05-2.71709E-05 1.75451E-05-2.79058E-18-1.58572E-18
 -1       861 9.55082E-05-2.54626E-05-3.00197E-05 9.94329E-07 2.23018E-18-5.98148E-19
 -1       862 9.55027E-05-2.72292E-05-2.92599E-05-2.65190E-06 8.77698E-19-3.23656E-19
 -1       863 9.31189E-05-1.96335E-05-3.14949E-05-1.92264E-06-1.69408E-19-3.37935E-18
 -1       864 1.00750E-04-4.57580E-05-2.34122E-05-2.68412E-05-2.96403E-18-2.19331E-18
 -1       865 5.63905E-05-1.50361E-05-1.75240E-05-1.14381E-05-3.35051E-19-3.94396E-18
 -1       866 9.50386E-05-2.80117E-05-2.87253E-05-5.42687E-07-2.14206E-19 2.82343E-18
 -1       867 1.04453E-04-4.40376E-05-2.58161E-05 2.02888E-05-2.29503E-18-3.29292E-18
 -1       868 8.18870E-05-3.12522E-05-2.15942E-05-2.52107E-05 1.96401E-18 1.23334E-18
 -1       869 1.16235E-04-5.04501E-05-2.82373E-05 1.24630E-05 2.04110E-18 8.23769E-19
 -1       870 9.54471E-05-2.63908E-05-2.95956E-05 1.88039E-06-3.74061E-19-1.63564E-18
 -1       871 9.51494E-05-2.66004E-05-2.93782E-05 2.70150E-06-4.25545E-19-1.25570E-18
 -1       872 9.47030E-05-2.65393E-05-2.92130E-05 3.45669E-06-5.50172E-19-1.44486E-18
 -1       873 9.41515E-05-2.63057E-05-2.90768E-05 4.21433E-06-1.39559E-19-1.59911E-18
 -1       874 9.35368E-05-2.59976E-05-2.89454E-05 5.03211E-06 6.01584E-20-1.54030E-18
 -1       875 9.29121E-05-2.57253E-05-2.87943E-05 5.95905E-06 1.56853E-19-1.45190E-18
 -1       876 9.23587E-05-2.56276E-05-2.85990E-05 7.04052E-06-7.11534E-20-1.21928E-18
 -1       877 9.20089E-05-2.58893E-05-2.83368E-05 8.32227E-06-1.04529E-19-1.44895E-18
 -1       878 9.20803E-05-2.67645E-05-2.79921E-05 9.85011E-06 3.29525E-19-1.63662E-18
 -1       879 9.29259E-05-2.85952E-05-2.75685E-05 1.16411E-05 6.21852E-19-1.62494E-18
 -1       880 9.50524E-05-3.17877E-05-2.71142E-05 1.36435E-05 1.61091E-18-9.89352E-19
 -1       881 9.93261E-05-3.68670E-05-2.67599E-05 1.53956E-05 1.84437E-18-3.79323E-19
 -1       882 1.07384E-04-4.41923E-05-2.70328E-05-1.59092E-05 3.03555E-18-5.95903E-19
 -1       883 9.94818E-05-3.68469E-05-2.68782E-05-1.51493E-05 1.33144E-18-1.43155E-18
 -1       884 9.49281E-05-3.15323E-05-2.71672E-05-1.32764E-05 4.41185E-19-1.19765E-18
 -1       885 9.27371E-05-2.82845E-05-2.76213E-05-1.12283E-05 3.88544E-19-3.55807E-19
 -1       886 9.17898E-05-2.63755E-05-2.80346E-05-9.36563E-06 1.18558E-19-6.61455E-19
 -1       887 9.16036E-05-2.54235E-05-2.83626E-05-7.74790E-06-1.09869E-18-1.20736E-18
 -1       888 9.18284E-05-2.50978E-05-2.85986E-05-6.36801E-06-2.29128E-19-2.14075E-18
 -1       889 9.22480E-05-2.51577E-05-2.87528E-05-5.19252E-06-1.30708E-18-1.94273E-18
 -1       890 9.27344E-05-2.54369E-05-2.88417E-05-4.19235E-06-7.36962E-20-1.08705E-18
 -1       891 9.32146E-05-2.58231E-05-2.88820E-05-3.34569E-06-4.10826E-20-1.01284E-18
 -1       892 9.36502E-05-2.62433E-05-2.88886E-05-2.63513E-06-1.98624E-18-8.36345E-19
 -1       893 9.40243E-05-2.66527E-05-2.88735E-05-2.04542E-06-5.83980E-19-3.16152E-19
 -1       894 9.43334E-05-2.70264E-05-2.88458E-05-1.56258E-06 1.98580E-18-1.29427E-18
 -1       895 9.45801E-05-2.73519E-05-2.88120E-05-1.17332E-06 3.08129E-18-2.07212E-18
 -1       896 9.47722E-05-2.76275E-05-2.87765E-05-8.62591E-07 2.18838E-18 6.34736E-19
 -1       897 9.42896E-05-2.63147E-05-2.91321E-05-4.34530E-06 6.54609E-19-7.23182E-19
 -1       898 9.13128E-05-2.46958E-05-2.85499E-05-8.47917E-06-2.05297E-19-5.61817E-19
 -1       899 9.21041E-05-2.49418E-05-2.87836E-05-7.19955E-06 1.50819E-19-3.00376E-19
 -1       900 9.04494E-05-2.58137E-05-2.76998E-05-1.19433E-05-1.26023E-18-9.74802E-19
 -1       901 9.11069E-05-2.80123E-05-2.70382E-05-1.43876E-05-1.16565E-18-1.33604E-18
 -1       902 9.38424E-05-3.23915E-05-2.63417E-05-1.74011E-05-1.95188E-18-1.32219E-18
 -1       903 9.91871E-05-3.92104E-05-2.56661E-05-2.01095E-05-1.55646E-18-1.33911E-18
 -1       904 7.97493E-05-3.13249E-05-2.05955E-05-2.68473E-05-1.95624E-18-3.41672E-18
 -1       905 9.04649E-05-2.62698E-05-2.75105E-05 1.24771E-05-8.40771E-19-9.18246E-19
 -1       906 9.03216E-05-2.48182E-05-2.80719E-05 1.02782E-05-8.82828E-19-1.63502E-18
 -1       907 9.07389E-05-2.43053E-05-2.84712E-05 8.49064E-06-8.25555E-19-1.08418E-18
 -1       908 9.13911E-05-2.43514E-05-2.87311E-05 6.99895E-06-9.88603E-19 1.08239E-18
 -1       909 9.20911E-05-2.46978E-05-2.88827E-05 5.73364E-06 9.87195E-20 1.17818E-18
 -1       910 9.27451E-05-2.51809E-05-2.89560E-05 4.65156E-06 1.88992E-18 7.46865E-19
 -1       911 9.33134E-05-2.57024E-05-2.89761E-05 3.72774E-06 2.77677E-19-3.61849E-19
 -1       912 9.37850E-05-2.62062E-05-2.89623E-05 2.94608E-06 5.57063E-19-2.20341E-20
 -1       913 9.41636E-05-2.66625E-05-2.89290E-05 2.29312E-06 4.37461E-19-1.55683E-18
 -1       914 9.44599E-05-2.70589E-05-2.88860E-05 1.75592E-06 8.72999E-20-1.52794E-18
 -1       915 9.46830E-05-2.73903E-05-2.88399E-05 1.31976E-06-9.78125E-19-7.89916E-19
 -1       916 9.48513E-05-2.76620E-05-2.87952E-05 9.72262E-07 7.73371E-21-6.46444E-19
 -1       917 9.49771E-05-2.78835E-05-2.87542E-05 7.00998E-07-1.25826E-19-5.81650E-19
 -1       918 5.77658E-05-1.36000E-05-1.88283E-05-5.12958E-06 2.83657E-20-1.32876E-18
 -1       919 9.50761E-05-2.80668E-05-2.87182E-05 4.99376E-07-6.28482E-19 4.33647E-19
 -1       920 9.44580E-05-2.73967E-05-2.87407E-05-1.40901E-07 1.15394E-18-2.26619E-18
 -1       921 9.19079E-05-2.93418E-05-2.68228E-05 1.51988E-05-3.97339E-19-8.31120E-19
 -1       922 7.50204E-05-2.61308E-05-2.08690E-05 2.30004E-05 2.21800E-18-2.47592E-18
 -1       923 6.70416E-05-2.06358E-05-1.97445E-05-1.93951E-05 2.41169E-19-2.54907E-18
 -1       924 9.55394E-05-3.46510E-05-2.60562E-05 1.82959E-05-1.27010E-18-8.70387E-19
 -1       925 9.27183E-05-1.89746E-05-3.16063E-05-9.71704E-07 3.55033E-19-3.54069E-18
 -1       926 6.08938E-05-1.54655E-05-1.93492E-05 9.99265E-06 9.35130E-19-3.07458E-18
 -1       927 9.06717E-05-2.48733E-05-2.81990E-05-1.00265E-05-4.92697E-19-7.20475E-19
 -1       928 9.53303E-05-2.46743E-05-3.02811E-05-2.67001E-07-5.83163E-19-2.32899E-18
 -1       929 9.55370E-05-2.57978E-05-2.98884E-05 9.15313E-07-3.67960E-19-2.21525E-18
 -1       930 9.55049E-05-2.65080E-05-2.95701E-05-1.87418E-06 1.10541E-18-9.71309E-19
 -1       931 9.52002E-05-2.41340E-05-3.04573E-05 1.57102E-06 2.07425E-18-1.32951E-18
 -1       932 6.64499E-05-1.76860E-05-2.08308E-05 1.32455E-05-1.43978E-18 1.32672E-18
 -1       933 9.71552E-05-4.01505E-05-2.43556E-05 2.30154E-05 2.48486E-18 8.68242E-20
 -1       934 9.47563E-05-2.30217E-05-3.07426E-05-1.39792E-06-8.02872E-19-2.81883E-18
 -1       935 1.09436E-04-4.59339E-05-2.72007E-05 1.51028E-05 2.08364E-18 4.85872E-19
 -1       936 9.45516E-05-2.74850E-05-2.87428E-05-3.87301E-07 1.02490E-18-1.64050E-18
 -1       937 9.48256E-05-2.66146E-05-2.92332E-05-3.55936E-06 5.01665E-19-1.21259E-18
 -1       938 9.36439E-05-2.58786E-05-2.90422E-05-5.18165E-06 3.15718E-19-4.07308E-19
 -1       939 9.49273E-05-2.78405E-05-2.87514E-05-6.91273E-07 1.44344E-18 1.20598E-18
 -1       940 9.52382E-05-2.67056E-05-2.93711E-05-2.76080E-06 7.71394E-19-9.85223E-19
 -1       941 9.29053E-05-2.53872E-05-2.89362E-05-6.11767E-06 5.87151E-19-5.05988E-19
 -1       942 1.00582E-04-4.23573E-05-2.48383E-05-2.24347E-05-2.09399E-18-1.43000E-18
 -1       943 7.04706E-05-2.21280E-05-2.06673E-05-1.95614E-05-9.78144E-19-4.11182E-18
 -1       944 9.44546E-05-2.73915E-05-2.87413E-05 1.27365E-07-5.71661E-19-2.29273E-18
 -1       945 9.55791E-05-2.59164E-05-2.98558E-05-8.10934E-07 1.35778E-18-1.16923E-18
 -1       946 9.38205E-05-2.11934E-05-3.11260E-05 3.03075E-07 9.24412E-19-2.67348E-18
 -1       947 6.62431E-05-1.52006E-05-2.18288E-05 4.18926E-06-4.43867E-19-8.12870E-21
 -1       948 9.40506E-05-2.16082E-05-3.10474E-05 8.27354E-07 1.27158E-18-2.51116E-18
 -1       949 7.75581E-05-2.38184E-05-2.30050E-05 1.77983E-05-1.36610E-18 4.83941E-19
 -1       950 6.17326E-05-1.43892E-05-2.02045E-05-5.75022E-07 2.29509E-19-3.94808E-18
 -1       951 9.47116E-05-2.76272E-05-2.87503E-05 5.77374E-07-4.15779E-19-6.22557E-19
 -1       952 9.42690E-05-2.20334E-05-3.09580E-05-1.01176E-06-8.96812E-20-2.80507E-18
 -1       953 9.47586E-05-2.76840E-05-2.87463E-05-5.85966E-07 1.15767E-18-1.06244E-18
 -1       954 9.53051E-05-2.55541E-05-2.98934E-05 1.06988E-06-1.13081E-19-2.00291E-18
 -1       955 9.50563E-05-2.59987E-05-2.95961E-05 1.79283E-06-2.61386E-19-1.96036E-18
 -1       956 9.45456E-05-2.60529E-05-2.93541E-05 2.44764E-06-2.13398E-19-1.72938E-18
 -1       957 9.38262E-05-2.58228E-05-2.91444E-05 3.09030E-06-1.15633E-19-1.05202E-18
 -1       958 9.29392E-05-2.54084E-05-2.89418E-05 3.77879E-06-6.21203E-20-6.35133E-19
 -1       959 9.19226E-05-2.49121E-05-2.87189E-05 4.57015E-06 8.51880E-20-8.57121E-19
 -1       960 9.08200E-05-2.44462E-05-2.84461E-05 5.52879E-06 1.54332E-20-9.17405E-19
 -1       961 8.96990E-05-2.41531E-05-2.80913E-05 6.73565E-06-9.07703E-20-7.12276E-19
 -1       962 8.86652E-05-2.42154E-05-2.76215E-05 8.30324E-06 2.12422E-19-9.48759E-19
 -1       963 8.78947E-05-2.48873E-05-2.70031E-05 1.03967E-05 4.80054E-19-5.80796E-19
 -1       964 8.77451E-05-2.65925E-05-2.62100E-05 1.32859E-05 1.38064E-18-2.90687E-19
 -1       965 8.88595E-05-2.97922E-05-2.53037E-05 1.71026E-05 2.28668E-18-7.39897E-19
 -1       966 8.92357E-05-2.33005E-05-2.82578E-05-6.51986E-06 4.47262E-19-6.20366E-19
 -1       967 8.75850E-05-2.63056E-05-2.62710E-05-1.29869E-05 4.56372E-19-7.97447E-19
 -1       968 8.75233E-05-2.44591E-05-2.70309E-05-1.00701E-05 2.98616E-19-4.36303E-19
 -1       969 8.81399E-05-2.36835E-05-2.76240E-05-7.91192E-06-7.15764E-19-6.67308E-19
 -1       970 8.90138E-05-2.35336E-05-2.80628E-05-6.26669E-06-1.34426E-18-4.85621E-19
 -1       971 8.99667E-05-2.37655E-05-2.83719E-05-4.98348E-06-8.25419E-19-5.88778E-19
 -1       972 9.08963E-05-2.42143E-05-2.85780E-05-3.96035E-06-7.75004E-19-9.01503E-19
 -1       973 9.17473E-05-2.47667E-05-2.87060E-05-3.13346E-06-3.63896E-19-2.44994E-18
 -1       974 9.24922E-05-2.53460E-05-2.87770E-05-2.46052E-06-8.40221E-19-3.20282E-18
 -1       975 9.31228E-05-2.59039E-05-2.88081E-05-1.91227E-06-1.22631E-18-2.02078E-18
 -1       976 9.36420E-05-2.64124E-05-2.88127E-05-1.46718E-06 1.45686E-18-7.40674E-19
 -1       977 9.40598E-05-2.68582E-05-2.88007E-05-1.11077E-06 2.15866E-18-3.54868E-20
 -1       978 9.43857E-05-2.72346E-05-2.87790E-05-8.23692E-07 2.63019E-18-2.22324E-19
 -1       979 8.34058E-05-2.49983E-05-2.50106E-05-1.57324E-05-1.79041E-18-2.54488E-18
 -1       980 8.43133E-05-2.31619E-05-2.62133E-05-1.20272E-05-4.82486E-19-2.04267E-18
 -1       981 8.80174E-05-2.24919E-05-2.80824E-05 6.49576E-06-1.53576E-18 2.66837E-18
 -1       982 9.44326E-05-2.72734E-05-2.87826E-05 8.20461E-07-1.40713E-19-6.44507E-19
 -1       983 9.44970E-05-2.24397E-05-3.08826E-05 1.27997E-06 1.61658E-18-2.07662E-18
 -1       984 8.64997E-05-2.21775E-05-2.75671E-05 8.04290E-06-1.22737E-18 3.40368E-18
 -1       985 8.49512E-05-2.23658E-05-2.68243E-05 1.01288E-05-6.78991E-19 3.25040E-18
 -1       986 8.94016E-05-2.30762E-05-2.84253E-05 5.28435E-06 1.60192E-19-5.20276E-19
 -1       987 9.06068E-05-2.37767E-05-2.86417E-05 4.29597E-06 1.10626E-18-2.38070E-19
 -1       988 9.16262E-05-2.45025E-05-2.87675E-05 3.46881E-06 1.80832E-18 1.45974E-18
 -1       989 9.24680E-05-2.51969E-05-2.88306E-05 2.77153E-06 3.37640E-19 1.39601E-18
 -1       990 9.31486E-05-2.58276E-05-2.88520E-05 2.18552E-06 9.39211E-19 1.28086E-18
 -1       991 9.36891E-05-2.63797E-05-2.88468E-05 1.69707E-06 4.88275E-19 1.42691E-18
 -1       992 9.41067E-05-2.68473E-05-2.88257E-05 1.29712E-06-1.17780E-18 2.01037E-19
 -1       993 9.39431E-05-2.14230E-05-3.10795E-05-5.22464E-07 2.82214E-19-3.32805E-18
 -1       994 7.85564E-05-2.50468E-05-2.29339E-05-1.84914E-05-6.66186E-20 6.68339E-19
 -1       995 6.77711E-05-1.71619E-05-2.16415E-05-1.07489E-05 7.88441E-19-2.07164E-18
 -1       996 9.52147E-05-2.45925E-05-3.02675E-05 2.12539E-07-2.27405E-19-2.10213E-18
 -1       997 9.45424E-05-2.74715E-05-2.87447E-05 3.75913E-07-5.81673E-20 9.61558E-19
 -1       998 9.54925E-05-2.52160E-05-3.01196E-05 2.45830E-07 1.74676E-18-1.25314E-18
 -1       999 7.33472E-05-2.06832E-05-2.25597E-05 1.41941E-05 1.16601E-18-1.41733E-18
 -1      1000 9.48532E-05-2.34658E-05-3.05928E-05-4.12716E-07 2.27160E-20-2.39010E-18
 -1      1001 8.37413E-05-2.34558E-05-2.58277E-05 1.31218E-05-1.48262E-18 2.43136E-18
 -1      1002 9.38202E-05-2.11936E-05-3.11246E-05-1.17291E-07 4.72401E-19-3.06090E-18
 -1      1003 6.98266E-05-1.71750E-05-2.25350E-05 7.32168E-06 6.23068E-19-2.52023E-18
 -1      1004 7.22621E-05-1.84017E-05-2.30444E-05 1.07667E-05-1.44510E-18 4.82288E-19
 -1      1005 8.76230E-05-2.27790E-05-2.77909E-05-7.81433E-06-1.13228E-19-6.18327E-19
 -1      1006 9.39854E-05-2.58682E-05-2.91931E-05-3.24176E-06 3.49484E-19-7.77222E-19
 -1      1007 8.92050E-05-2.97690E-05-2.54216E-05-1.67877E-05 5.12078E-19-1.02057E-18
 -1      1008 6.80607E-05-1.71441E-05-2.17848E-05-9.82307E-06-5.73234E-19-3.29830E-18
 -1      1009 9.30805E-05-2.53700E-05-2.90190E-05-3.91631E-06 3.84461E-19-7.12222E-19
 -1      1010 9.06962E-05-2.39909E-05-2.85880E-05-5.49732E-06 3.89958E-19-4.31291E-19
 -1      1011 9.41572E-05-2.70627E-05-2.87548E-05-1.39303E-08 8.50864E-19-1.15195E-18
 -1      1012 9.53804E-05-2.56153E-05-2.98990E-05-1.04707E-06 1.05735E-18-1.32413E-18
 -1      1013 9.51632E-05-2.60754E-05-2.96088E-05-1.86837E-06 6.64963E-19-1.14637E-18
 -1      1014 8.62560E-05-3.28747E-05-2.27075E-05-2.39466E-05-1.47202E-18-3.12920E-18
 -1      1015 9.46497E-05-2.31274E-05-3.06522E-05 1.38887E-07 7.64009E-19-2.28376E-18
 -1      1016 9.42243E-05-2.71242E-05-2.87573E-05-3.57595E-07 2.88457E-18-2.14932E-18
 -1      1017 8.59351E-05-2.26318E-05-2.71315E-05-9.55057E-06-4.87450E-19-1.01440E-18
 -1      1018 9.45659E-05-2.29760E-05-3.06808E-05 4.00736E-08 5.46175E-19-2.37069E-18
 -1      1019 9.45410E-05-2.56434E-05-2.95278E-05 1.41133E-06-1.94198E-19-2.32994E-18
 -1      1020 9.37885E-05-2.55039E-05-2.92653E-05 1.86719E-06 1.84473E-19-1.83246E-18
 -1      1021 9.27827E-05-2.50803E-05-2.90155E-05 2.35132E-06 4.59955E-19-1.41666E-18
 -1      1022 9.15459E-05-2.44625E-05-2.87501E-05 2.91011E-06 1.65273E-19-9.20720E-19
 -1      1023 9.01030E-05-2.37523E-05-2.84366E-05 3.59663E-06 1.32237E-19-6.18670E-19
 -1      1024 8.84557E-05-2.30372E-05-2.80377E-05 4.49754E-06 1.21011E-19-5.05170E-19
 -1      1025 8.66326E-05-2.24481E-05-2.75088E-05 5.70755E-06-3.20375E-19-7.85746E-19
 -1      1026 8.46188E-05-2.21028E-05-2.67958E-05 7.41397E-06 7.18220E-19-7.28755E-19
 -1      1027 8.25162E-05-2.22520E-05-2.58204E-05 9.88460E-06 9.29313E-19-4.18468E-19
 -1      1028 7.87302E-05-2.15473E-05-2.44737E-05 1.18881E-05 1.11677E-18-2.32544E-19
 -1      1029 9.52329E-05-2.45253E-05-3.03009E-05-2.28019E-08 1.31117E-18-1.58968E-18
 -1      1030 8.21992E-05-2.18189E-05-2.58625E-05-9.64938E-06 7.70630E-19-9.66453E-19
 -1      1031 8.40480E-05-2.15517E-05-2.67853E-05-7.22634E-06-9.43371E-19-1.89570E-18
 -1      1032 8.58678E-05-2.17741E-05-2.74684E-05-5.45533E-06-1.40198E-18-2.71829E-18
 -1      1033 8.75168E-05-2.22943E-05-2.79527E-05-4.19042E-06-8.24838E-19-2.91960E-18
 -1      1034 8.89628E-05-2.29598E-05-2.82875E-05-3.24044E-06-7.33092E-19-1.80513E-18
 -1      1035 9.02221E-05-2.37009E-05-2.85094E-05-2.51578E-06-1.84583E-18-2.02314E-18
 -1      1036 9.12910E-05-2.44446E-05-2.86487E-05-1.95188E-06 2.82260E-19-1.60345E-18
 -1      1037 9.21830E-05-2.51492E-05-2.87290E-05-1.50647E-06 6.71297E-20-5.98849E-19
 -1      1038 9.29153E-05-2.57897E-05-2.87682E-05-1.15339E-06 2.95821E-19 1.48714E-18
 -1      1039 9.35044E-05-2.63514E-05-2.87799E-05-8.69723E-07 1.83543E-18-3.95018E-19
 -1      1040 9.39690E-05-2.68293E-05-2.87742E-05-6.51131E-07 1.86405E-18-8.95097E-19
 -1      1041 7.69402E-05-1.97561E-05-2.44984E-05-1.01988E-05-4.25521E-19-1.92642E-18
 -1      1042 9.46860E-05-2.61295E-05-2.93813E-05-2.57758E-06 5.22974E-19-9.19994E-19
 -1      1043 8.06321E-05-2.01067E-05-2.59457E-05-7.63602E-06-1.40828E-19-2.02395E-18
 -1      1044 8.84452E-05-2.24345E-05-2.82912E-05 3.31363E-06 2.01562E-19 1.30139E-18
 -1      1045 9.49229E-05-2.37536E-05-3.05011E-05 1.09173E-07 9.86048E-19-1.93139E-18
 -1      1046 8.45257E-05-2.06504E-05-2.73758E-05 5.01005E-06 3.51016E-19 2.00122E-18
 -1      1047 8.19226E-05-1.99175E-05-2.65766E-05 6.32416E-06-1.09879E-18 3.14362E-18
 -1      1048 8.99122E-05-2.33475E-05-2.85284E-05 2.70418E-06 4.45118E-19 2.34622E-18
 -1      1049 9.11140E-05-2.42114E-05-2.86731E-05 2.19107E-06 4.44204E-19 3.24834E-18
 -1      1050 9.20875E-05-2.49974E-05-2.87534E-05 1.75479E-06-6.30180E-21 3.49012E-18
 -1      1051 9.28678E-05-2.56915E-05-2.87901E-05 1.38633E-06 5.77581E-19 4.33316E-18
 -1      1052 9.34826E-05-2.62892E-05-2.87981E-05 1.07512E-06 2.42177E-19 3.64089E-18
 -1      1053 7.16206E-05-1.64536E-05-2.36316E-05-3.12165E-06-1.21985E-18-2.41183E-18
 -1      1054 7.87623E-05-1.94383E-05-2.54300E-05 8.28013E-06-2.56229E-18 1.44370E-18
 -1      1055 7.66330E-05-2.08504E-05-2.39032E-05-1.25798E-05 9.65951E-19-6.28756E-19
 -1      1056 9.42117E-05-2.71069E-05-2.87592E-05 3.33906E-07 5.77972E-19 6.93245E-19
 -1      1057 8.66722E-05-2.15180E-05-2.79237E-05 4.05195E-06 2.04680E-19 6.77102E-19
 -1      1058 9.45952E-05-2.30400E-05-3.06655E-05-6.18262E-08 4.59704E-19-3.06581E-18
 -1      1059 9.46723E-05-2.31361E-05-3.06571E-05-2.20125E-07 2.24646E-19-3.05887E-18
 -1      1060 9.19847E-05-2.47192E-05-2.88283E-05-4.65485E-06 3.66803E-19-8.40359E-19
 -1      1061 9.50899E-05-2.46573E-05-3.01854E-05 3.98757E-07 6.99723E-20-2.63132E-18
 -1      1062 9.49968E-05-2.54031E-05-2.98268E-05 9.33589E-07-1.27256E-19-2.37124E-18
 -1      1063 9.38692E-05-2.67146E-05-2.87802E-05 6.35157E-07 1.46462E-18 1.39478E-18
 -1      1064 6.99603E-05-1.61387E-05-2.30516E-05-7.59845E-07 1.80312E-19-2.93572E-18
 -1      1065 8.36734E-05-2.07848E-05-2.69541E-05-6.04573E-06 1.02526E-19-1.68037E-18
 -1      1066 9.51771E-05-2.50093E-05-3.00728E-05-6.47584E-07 8.86565E-19-1.50874E-18
 -1      1067 8.83605E-05-2.26215E-05-2.81740E-05-4.14099E-06 3.49283E-19-8.08443E-19
 -1      1068 9.49935E-05-2.45103E-05-3.02043E-05-3.04913E-07 6.99642E-19-2.01723E-18
 -1      1069 9.49890E-05-2.55903E-05-2.97411E-05-1.27377E-06 6.99935E-19-1.20569E-18
 -1      1070 7.30258E-05-1.67523E-05-2.40993E-05 2.95555E-06-2.47411E-18-1.57169E-18
 -1      1071 9.37183E-05-2.65964E-05-2.87666E-05 1.85395E-07 1.58416E-18-2.53619E-19
 -1      1072 8.61996E-05-2.16567E-05-2.76616E-05-4.92743E-06 4.26175E-19-7.98262E-19
 -1      1073 9.39630E-05-2.55648E-05-2.93138E-05-2.05107E-06 5.17406E-19-1.39843E-18
 -1      1074 9.29698E-05-2.51194E-05-2.90792E-05-2.52334E-06 2.80604E-19-1.62849E-18
 -1      1075 9.37773E-05-2.66566E-05-2.87657E-05-2.57624E-07 8.48648E-19-1.62119E-18
 -1      1076 9.49261E-05-2.43823E-05-3.02324E-05-6.87121E-08 4.32046E-19-2.00855E-18
 -1      1077 9.29705E-05-2.49848E-05-2.91363E-05 9.46290E-07 6.71562E-19-1.23988E-18
 -1      1078 9.17010E-05-2.43791E-05-2.88530E-05 1.21628E-06 2.60754E-19-1.45887E-18
 -1      1079 9.01249E-05-2.35507E-05-2.85288E-05 1.59458E-06 1.36838E-20-1.55873E-18
 -1      1080 8.82248E-05-2.25944E-05-2.81255E-05 2.08494E-06 2.12906E-19-1.53623E-18
 -1      1081 8.59997E-05-2.16105E-05-2.75962E-05 2.74379E-06 5.23192E-20-1.40207E-18
 -1      1082 8.34422E-05-2.07002E-05-2.68861E-05 3.68687E-06 3.00322E-19-8.96938E-19
 -1      1083 8.01888E-05-1.97480E-05-2.58909E-05 4.99940E-06 1.23889E-18-9.46104E-19
 -1      1084 7.57892E-05-1.82963E-05-2.46465E-05 5.24336E-06 6.59369E-19-1.78551E-18
 -1      1085 7.96304E-05-1.91780E-05-2.59096E-05-5.04602E-06-1.63852E-18-4.55777E-18
 -1      1086 8.26869E-05-2.00254E-05-2.68535E-05-3.61706E-06-1.15460E-18-5.10493E-18
 -1      1087 8.50881E-05-2.08563E-05-2.75257E-05-2.59912E-06-4.85940E-19-2.82778E-18
 -1      1088 8.70688E-05-2.17604E-05-2.79889E-05-1.91333E-06 4.00538E-19-2.91060E-18
 -1      1089 8.87505E-05-2.27018E-05-2.83071E-05-1.42981E-06-9.88394E-19-2.23711E-18
 -1      1090 9.01389E-05-2.36032E-05-2.85157E-05-1.06833E-06-7.88992E-20-4.04465E-19
 -1      1091 9.12823E-05-2.44434E-05-2.86456E-05-7.98338E-07 1.16539E-18-1.29457E-18
 -1      1092 9.22147E-05-2.52024E-05-2.87198E-05-5.96698E-07 1.40847E-18-7.83619E-19
 -1      1093 9.29820E-05-2.58805E-05-2.87567E-05-4.38524E-07-4.76905E-19-1.60244E-18
 -1      1094 9.45838E-05-2.57190E-05-2.95147E-05-1.67163E-06 6.98123E-19-9.79353E-19
 -1      1095 9.48926E-05-2.52634E-05-2.98416E-05-6.61605E-07 5.42777E-19-1.75436E-18
 -1      1096 7.77276E-05-1.80170E-05-2.55921E-05 2.81602E-06-2.60725E-18-1.31565E-18
 -1      1097 8.83344E-05-2.23533E-05-2.82774E-05 1.41806E-06-5.14271E-19 6.09044E-19
 -1      1098 7.55051E-05-1.78036E-05-2.47062E-05-3.45188E-06-5.12997E-19-2.29935E-18
 -1      1099 8.98513E-05-2.33427E-05-2.85034E-05 1.19941E-06-1.31192E-19-7.03853E-19
 -1      1100 8.14314E-05-1.91771E-05-2.66826E-05 2.27353E-06 4.16052E-19-3.28121E-19
 -1      1101 9.10811E-05-2.42464E-05-2.86432E-05 9.96601E-07-3.26469E-19-2.75698E-20
 -1      1102 9.20717E-05-2.50514E-05-2.87228E-05 8.13245E-07 5.22847E-19-3.57368E-19
 -1      1103 9.28748E-05-2.57630E-05-2.87626E-05 6.44210E-07 5.00865E-19-2.52142E-19
 -1      1104 9.01638E-05-2.35568E-05-2.85464E-05-3.51029E-06 4.36077E-20-8.61620E-19
 -1      1105 8.64839E-05-2.12990E-05-2.79370E-05 1.68280E-06-1.87676E-19 5.72503E-19
 -1      1106 9.49569E-05-2.44396E-05-3.02223E-05 1.45993E-07 2.00609E-19-2.85649E-18
 -1      1107 9.39568E-05-2.53228E-05-2.94138E-05 7.25488E-07 4.47402E-19-1.58536E-18
 -1      1108 8.43211E-05-2.02961E-05-2.74324E-05 1.96134E-06 7.22454E-19 2.61035E-19
 -1      1109 9.41022E-05-2.53876E-05-2.94498E-05-9.35945E-07 7.79934E-19-1.40192E-18
 -1      1110 7.98534E-05-1.89767E-05-2.60829E-05-2.78716E-06 1.05598E-20-1.70663E-18
 -1      1111 8.84570E-05-2.25791E-05-2.82352E-05-1.74615E-06 1.19023E-19-2.04213E-18
 -1      1112 9.17010E-05-2.44179E-05-2.88346E-05-2.98942E-06 1.39740E-19-1.27742E-18
 -1      1113 9.46498E-05-2.53244E-05-2.97095E-05 5.12515E-07 8.14992E-20-2.17295E-18
 -1      1114 8.61604E-05-2.14449E-05-2.77356E-05-1.95824E-06 5.35019E-19-1.63739E-18
 -1      1115 9.31185E-05-2.50340E-05-2.91795E-05-1.17320E-06 7.51291E-19-1.57996E-18
 -1      1116 9.06989E-05-2.37727E-05-2.86853E-05-3.07338E-07 1.91644E-19-2.00343E-18
 -1      1117 8.05934E-05-1.92983E-05-2.63083E-05 4.27158E-07 5.17347E-19-4.54283E-19
 -1      1118 8.31822E-05-1.98282E-05-2.71604E-05-2.22165E-07 2.35169E-19-1.94901E-18
 -1      1119 9.48009E-05-2.51242E-05-2.98626E-05-1.54937E-07 5.03631E-19-1.96121E-18
 -1      1120 7.65706E-05-1.76714E-05-2.52448E-05-1.10132E-06-2.55036E-18-4.10870E-18
 -1      1121 8.33572E-05-2.02374E-05-2.70492E-05-2.27581E-06 1.04414E-18-1.77336E-18
 -1      1122 8.02924E-05-1.87684E-05-2.63657E-05-5.56820E-07-1.47541E-18-4.81957E-18
 -1      1123 9.20155E-05-2.44695E-05-2.89467E-05-8.39069E-07 3.14276E-19-1.66742E-18
 -1      1124 1.16465E-04 2.56574E-10-4.17297E-05-4.12906E-05-5.18808E-19 1.21151E-17
 -1      1125 8.85270E-05 7.19878E-11-3.71950E-05-2.40252E-05-2.59086E-19-3.01120E-19
 -1      1126 8.40717E-05 4.16010E-11-3.57587E-05-1.77145E-05-1.55325E-19-5.17262E-18
 -1      1127 8.23966E-05 3.20525E-11-3.50953E-05-1.36558E-05-9.41001E-20-7.21647E-18
 -1      1128 8.16274E-05 2.72182E-11-3.47782E-05-1.03520E-05-5.41439E-20-8.03819E-18
 -1      1129 8.12372E-05 2.43029E-11-3.46206E-05-7.47877E-06-2.00641E-20-8.21290E-18
 -1      1130 8.10284E-05 2.24941E-11-3.45394E-05-4.85875E-06 2.28633E-21-8.12927E-18
 -1      1131 8.09238E-05 2.14965E-11-3.45003E-05-2.36803E-06 1.60721E-20-7.85387E-18
 -1      1132 8.08937E-05 2.11896E-11-3.44892E-05 5.12537E-08 3.61966E-20-7.54581E-18
 -1      1133 8.09292E-05 2.15421E-11-3.45021E-05 2.47318E-06 4.85241E-20-7.09589E-18
 -1      1134 8.10391E-05 2.25990E-11-3.45429E-05 4.97270E-06 6.97413E-20-6.54480E-18
 -1      1135 8.12544E-05 2.44706E-11-3.46253E-05 7.60974E-06 9.11685E-20-5.70115E-18
 -1      1136 8.16508E-05 2.75223E-11-3.47849E-05 1.05109E-05 1.26327E-19-4.49447E-18
 -1      1137 8.24210E-05 3.25450E-11-3.51057E-05 1.38618E-05 1.61439E-19-2.45568E-18
 -1      1138 8.40681E-05 4.20689E-11-3.57785E-05 1.79666E-05 1.95559E-19 1.04466E-18
 -1      1139 8.82233E-05 6.68312E-11-3.72634E-05 2.38703E-05 2.05723E-19 7.42189E-18
 -1      1140 1.06265E-04 1.63499E-10-4.05112E-05 3.60406E-05 3.47284E-19 1.97510E-17
 -1      1141 1.29687E-04-2.56573E-05-4.01300E-05-2.59863E-05-2.01594E-18 1.98786E-17
 -1      1142 9.71217E-05-2.87637E-05-3.14743E-05-6.71396E-07-6.67012E-19 1.52286E-17
 -1      1143 8.99473E-05-2.69650E-05-2.78276E-05 3.86111E-07-2.90651E-19 8.88839E-18
 -1      1144 8.81526E-05-2.65460E-05-2.66164E-05 2.48720E-07-1.56387E-19 4.44909E-18
 -1      1145 8.79413E-05-2.64645E-05-2.64068E-05 1.63920E-07-1.70353E-19 1.50891E-18
 -1      1146 8.85059E-05-2.66041E-05-2.65559E-05 1.16910E-07-1.27502E-19-3.78333E-19
 -1      1147 8.94846E-05-2.68778E-05-2.68491E-05 8.79422E-08-1.36319E-21-1.43186E-18
 -1      1148 9.07119E-05-2.72352E-05-2.72188E-05 6.94652E-08-2.86697E-20-1.87317E-18
 -1      1149 9.21168E-05-2.76513E-05-2.76426E-05 5.80110E-08-1.62204E-19-3.11998E-18
 -1      1150 9.36815E-05-2.81183E-05-2.81156E-05 5.21288E-08-7.21384E-20-4.63205E-18
 -1      1151 9.54213E-05-2.86394E-05-2.86421E-05 5.13186E-08-1.72459E-20-5.82822E-18
 -1      1152 9.73695E-05-2.92234E-05-2.92313E-05 5.54514E-08 1.11844E-19-5.99051E-18
 -1      1153 9.95626E-05-2.98804E-05-2.98925E-05 6.43465E-08 6.00405E-20-6.48735E-18
 -1      1154 1.02022E-04-3.06155E-05-3.06298E-05 7.72637E-08-5.09088E-21-6.77194E-18
 -1      1155 1.04725E-04-3.14212E-05-3.14331E-05 9.21166E-08 2.26823E-20-6.94063E-18
 -1      1156 1.07573E-04-3.22664E-05-3.22675E-05 1.04280E-07-3.43698E-19-6.83031E-18
 -1      1157 1.10337E-04-3.30821E-05-3.30597E-05 1.05088E-07-1.45826E-19-8.05428E-18
 -1      1158 1.12618E-04-3.37486E-05-3.36867E-05 8.08025E-08 2.06871E-19-8.01296E-18
 -1      1159 1.13822E-04-3.40899E-05-3.39759E-05 1.40578E-08 8.85646E-20-8.92779E-18
 -1      1160 1.13225E-04-3.38949E-05-3.37321E-05-1.08717E-07-4.79467E-20-1.02769E-17
 -1      1161 1.10197E-04-3.29839E-05-3.28076E-05-2.81144E-07 4.65637E-20-9.86428E-18
 -1      1162 1.04607E-04-3.13289E-05-3.12100E-05-4.56891E-07 7.29309E-20-7.71520E-18
 -1      1163 9.72843E-05-2.91850E-05-2.92037E-05-5.46566E-07 1.24077E-24-6.01266E-18
 -1      1164 9.01677E-05-2.71202E-05-2.73123E-05-4.59473E-07-7.26165E-20-8.27948E-18
 -1      1165 8.57216E-05-2.58385E-05-2.61535E-05-1.82174E-07 2.39657E-19-8.80438E-18
 -1      1166 8.57132E-05-2.58364E-05-2.61518E-05 1.79068E-07 2.12764E-19-7.12945E-18
 -1      1167 9.01523E-05-2.71163E-05-2.73095E-05 4.57767E-07 2.42758E-19-6.71919E-18
 -1      1168 9.72836E-05-2.91857E-05-2.92054E-05 5.46185E-07-5.59687E-20-8.88665E-18
 -1      1169 1.04645E-04-3.13415E-05-3.12233E-05 4.57474E-07-1.05825E-19-1.01476E-17
 -1      1170 1.10297E-04-3.30150E-05-3.28395E-05 2.82352E-07 1.54789E-19-9.48799E-18
 -1      1171 1.13410E-04-3.39517E-05-3.37896E-05 1.10326E-07-2.19530E-19-8.17093E-18
 -1      1172 1.14116E-04-3.41797E-05-3.40666E-05-1.20511E-08-7.08795E-20-8.42335E-18
 -1      1173 1.13051E-04-3.38804E-05-3.38198E-05-7.80986E-08 2.02707E-19-8.77899E-18
 -1      1174 1.10947E-04-3.32674E-05-3.32469E-05-1.01192E-07 2.12319E-19-8.56051E-18
 -1      1175 1.08409E-04-3.25197E-05-3.25236E-05-9.85560E-08-3.46910E-20-6.93703E-18
 -1      1176 1.05847E-04-3.17607E-05-3.17762E-05-8.38244E-08 6.99944E-20-5.74680E-18
 -1      1177 1.03502E-04-3.10626E-05-3.10816E-05-6.55316E-08 3.33230E-20-9.10817E-18
 -1      1178 1.01485E-04-3.04597E-05-3.04778E-05-4.81253E-08 2.68729E-19-5.39967E-18
 -1      1179 9.98242E-05-2.99618E-05-2.99773E-05-3.34565E-08-5.68190E-21-2.53722E-18
 -1      1180 9.85040E-05-2.95649E-05-2.95771E-05-2.19600E-08-1.16142E-19-2.00972E-18
 -1      1181 9.74849E-05-2.92576E-05-2.92668E-05-1.34023E-08-4.52814E-19-4.36821E-18
 -1      1182 9.67192E-05-2.90261E-05-2.90328E-05-7.29647E-09-2.53391E-19-8.18418E-18
 -1      1183 9.61598E-05-2.88565E-05-2.88612E-05-3.10640E-09 4.84662E-19-8.80633E-18
 -1      1184 9.57637E-05-2.87360E-05-2.87392E-05-3.32372E-10-3.75561E-21-6.37262E-18
 -1      1185 9.54946E-05-2.86538E-05-2.86561E-05 1.46965E-09 1.12889E-19-5.73397E-18
 -1      1186 9.53235E-05-2.86012E-05-2.86030E-05 2.70910E-09 1.73275E-19-3.65357E-18
 -1      1187 9.52279E-05-2.85715E-05-2.85732E-05 3.80228E-09-2.81856E-19-4.00524E-18
 -1      1188 9.51915E-05-2.85597E-05-2.85610E-05 5.14071E-09 2.77436E-19 8.01699E-19
 -1      1189 9.52016E-05-2.85631E-05-2.85604E-05 7.35993E-09 1.41115E-20 3.70932E-18
 -1      1190 9.52263E-05-2.85681E-05-2.85622E-05 3.36724E-09 2.57979E-19 1.87396E-18
 -1      1191 1.30511E-04-3.75724E-05-3.85217E-05 1.21299E-05-3.56839E-19 2.96347E-17
 -1      1192 9.62250E-05-2.80917E-05-3.12265E-05 7.98463E-07 1.41534E-19 2.49722E-17
 -1      1193 9.01538E-05-2.68659E-05-2.78065E-05 1.22084E-07 1.25070E-19 2.00725E-17
 -1      1194 8.82307E-05-2.64709E-05-2.66500E-05 1.37615E-08 8.56959E-21 1.66461E-17
 -1      1195 8.79724E-05-2.64240E-05-2.64307E-05-1.81092E-08 1.14373E-19 1.41927E-17
 -1      1196 8.85176E-05-2.65832E-05-2.65683E-05-2.48158E-08 9.78919E-20 1.20838E-17
 -1      1197 8.94888E-05-2.68678E-05-2.68567E-05-2.36644E-08 1.13817E-19 1.07432E-17
 -1      1198 9.07177E-05-2.72325E-05-2.72260E-05-1.96305E-08-3.63215E-21 1.02715E-17
 -1      1199 9.21360E-05-2.76566E-05-2.76539E-05-1.44671E-08-2.35221E-20 9.59755E-18
 -1      1200 9.37340E-05-2.81361E-05-2.81378E-05-9.27193E-09-3.12467E-21 9.13780E-18
 -1      1201 9.55406E-05-2.86788E-05-2.86863E-05-5.15083E-09 1.11919E-19 8.07044E-18
 -1      1202 9.76114E-05-2.93009E-05-2.93158E-05-3.50121E-09 4.30481E-20 7.22339E-18
 -1      1203 1.00017E-04-3.00225E-05-3.00463E-05-6.25783E-09 1.45523E-19 5.97047E-18
 -1      1204 1.02826E-04-3.08631E-05-3.08966E-05-1.61071E-08-1.45931E-20 5.96166E-18
 -1      1205 1.06082E-04-3.18338E-05-3.18754E-05-3.64964E-08 1.64071E-20 5.89540E-18
 -1      1206 1.09757E-04-3.29244E-05-3.29675E-05-7.09856E-08 1.45552E-19 6.00155E-18
 -1      1207 1.13688E-04-3.40839E-05-3.41128E-05-1.21034E-07-1.43843E-19 6.65141E-18
 -1      1208 1.17480E-04-3.51951E-05-3.51797E-05-1.80924E-07 2.45325E-20 6.16786E-18
 -1      1209 1.20409E-04-3.60481E-05-3.59448E-05-2.29438E-07 1.53641E-19 4.08303E-18
 -1      1210 1.21401E-04-3.63360E-05-3.61016E-05-2.22514E-07-2.54772E-20 3.62124E-18
 -1      1211 1.19220E-04-3.57092E-05-3.53416E-05-1.00831E-07-2.89844E-21 4.75164E-18
 -1      1212 1.13071E-04-3.39365E-05-3.35305E-05 1.67122E-07-1.01833E-19 5.26780E-18
 -1      1213 1.03551E-04-3.11648E-05-3.09318E-05 5.12161E-07-2.34181E-19 3.83272E-18
 -1      1214 9.33454E-05-2.81309E-05-2.82976E-05 7.40860E-07-2.46831E-20 3.14165E-18
 -1      1215 8.65884E-05-2.60356E-05-2.66351E-05 6.51522E-07-1.07666E-20 2.33029E-18
 -1      1216 8.65466E-05-2.59140E-05-2.66715E-05 2.39726E-07 1.95545E-20 1.78915E-18
 -1      1217 9.32587E-05-2.78749E-05-2.83915E-05-2.58750E-07-1.84554E-19 2.46995E-18
 -1      1218 1.03497E-04-3.09755E-05-3.10499E-05-5.71634E-07 2.36314E-19 3.12555E-19
 -1      1219 1.13101E-04-3.39162E-05-3.36429E-05-6.05108E-07-1.28226E-19-1.15398E-18
 -1      1220 1.19346E-04-3.58284E-05-3.54360E-05-4.48406E-07-1.14227E-19-9.12519E-19
 -1      1221 1.21623E-04-3.65194E-05-3.61848E-05-2.39847E-07 2.73304E-19-1.57800E-18
 -1      1222 1.20738E-04-3.62448E-05-3.60345E-05-6.90049E-08 4.01709E-19-4.16323E-18
 -1      1223 1.17939E-04-3.53934E-05-3.52975E-05 3.74739E-08-6.18491E-20-2.34885E-18
 -1      1224 1.14316E-04-3.42986E-05-3.42797E-05 8.84909E-08 9.46793E-20-3.05758E-18
 -1      1225 1.10604E-04-3.31814E-05-3.32037E-05 1.03093E-07-8.64112E-20-2.35060E-18
 -1      1226 1.07210E-04-3.21625E-05-3.22014E-05 9.79827E-08-1.34128E-19-2.63716E-18
 -1      1227 1.04309E-04-3.12928E-05-3.13345E-05 8.43048E-08 2.48040E-19-4.43160E-18
 -1      1228 1.01939E-04-3.05825E-05-3.06205E-05 6.83799E-08 8.51533E-20-3.23262E-18
 -1      1229 1.00065E-04-3.00209E-05-3.00528E-05 5.33126E-08 1.88699E-19-5.02493E-18
 -1      1230 9.86212E-05-2.95882E-05-2.96137E-05 4.03553E-08 1.50293E-19-4.92546E-18
 -1      1231 9.75339E-05-2.92621E-05-2.92820E-05 2.98053E-08 3.21459E-20-3.71746E-18
 -1      1232 9.67332E-05-2.90219E-05-2.90369E-05 2.15208E-08 1.66509E-20-2.23499E-18
 -1      1233 9.61574E-05-2.88491E-05-2.88603E-05 1.51924E-08 2.82391E-20-3.17337E-18
 -1      1234 9.57552E-05-2.87283E-05-2.87365E-05 1.04676E-08 1.18165E-19-3.88871E-18
 -1      1235 9.54852E-05-2.86471E-05-2.86532E-05 6.99530E-09 2.70498E-19-3.36751E-18
 -1      1236 9.53154E-05-2.85959E-05-2.86006E-05 4.42170E-09-2.62115E-19-4.57794E-18
 -1      1237 9.52222E-05-2.85677E-05-2.85716E-05 2.33733E-09 2.97776E-19-7.14464E-18
 -1      1238 9.51883E-05-2.85571E-05-2.85602E-05 1.37354E-11-2.91601E-19-6.30074E-18
 -1      1239 9.51993E-05-2.85596E-05-2.85603E-05-3.60076E-09 5.84801E-19-5.54555E-18
 -1      1240 9.52273E-05-2.85689E-05-2.85621E-05-3.22244E-09 1.24848E-19-3.80025E-18
 -1      1241 9.52394E-05-2.85815E-05-2.85625E-05-3.59629E-09-4.22642E-18 5.88047E-20
 -1      1242 9.52467E-05-2.86071E-05-2.85614E-05-6.28105E-09-1.50339E-18-1.03697E-19
 -1      1243 9.52478E-05-2.86103E-05-2.85633E-05-2.47785E-09 4.25084E-18-7.02022E-19
 -1      1244 9.52367E-05-2.85720E-05-2.85743E-05 7.58899E-10 3.26422E-18 1.42963E-19
 -1      1245 9.52160E-05-2.85009E-05-2.85939E-05 2.69123E-09 3.44421E-18 3.76118E-19
 -1      1246 9.51913E-05-2.84163E-05-2.86172E-05 3.31465E-09-3.07911E-18-9.51308E-19
 -1      1247 9.51684E-05-2.83377E-05-2.86391E-05 2.89583E-09-5.45956E-19 4.94334E-19
 -1      1248 9.51521E-05-2.82819E-05-2.86547E-05 1.66857E-09 1.34795E-18-6.48514E-19
 -1      1249 9.51462E-05-2.82617E-05-2.86604E-05 3.64861E-11-2.35944E-18-1.06696E-18
 -1      1250 9.51519E-05-2.82813E-05-2.86549E-05-1.59648E-09-8.66482E-19 1.02400E-19
 -1      1251 9.51679E-05-2.83363E-05-2.86395E-05-2.82074E-09-8.06617E-18-1.74992E-18
 -1      1252 9.51907E-05-2.84142E-05-2.86178E-05-3.28384E-09-1.29811E-17 3.04436E-19
 -1      1253 9.52152E-05-2.84983E-05-2.85946E-05-2.66145E-09-9.18906E-18 5.98195E-19
 -1      1254 9.52358E-05-2.85692E-05-2.85751E-05-7.99473E-10-2.56631E-18 2.25225E-19
 -1      1255 9.52479E-05-2.86088E-05-2.85639E-05 2.72124E-09-4.20146E-18-2.52890E-19
 -1      1256 9.52450E-05-2.86037E-05-2.85615E-05 9.49775E-09-3.83955E-18-8.21761E-19
 -1      1257 9.52400E-05-2.85826E-05-2.85625E-05 4.48158E-09-2.12950E-18-3.30502E-19
 -1      1258 3.47658E-05-1.07765E-04 1.81076E-05-1.32612E-05 1.27970E-17 1.85900E-18
 -1      1259 1.83869E-05-6.84252E-05 1.03848E-05-2.58313E-05 1.53271E-17 5.10824E-18
 -1      1260 7.18403E-06-1.48053E-05-3.95989E-06-5.72944E-06 1.80994E-17 1.03651E-17
 -1      1261 2.90019E-05 2.15618E-05-2.34073E-05 4.52687E-05 1.80655E-17 1.66298E-17
 -1      1262 9.92831E-05 1.50545E-05-4.45003E-05 9.70208E-05 1.39320E-17 1.92514E-17
 -1      1263 2.00248E-04-2.92963E-05-6.27349E-05 1.08492E-04 7.80287E-18 1.62275E-17
 -1      1264 2.85743E-04-7.74242E-05-7.50905E-05 6.37871E-05 2.04527E-18 4.34697E-18
 -1      1265 3.13172E-04-9.48312E-05-7.81122E-05-1.58138E-05 1.42746E-18-1.20630E-17
 -1      1266 2.60903E-04-6.32940E-05-7.16471E-05-8.62459E-05 5.89387E-18-2.19653E-17
 -1      1267 1.66963E-04-1.26249E-05-5.74542E-05-1.11836E-04 1.35424E-17-2.64274E-17
 -1      1268 7.22318E-05 2.26044E-05-3.80824E-05-8.36876E-05 2.12783E-17-2.61665E-17
 -1      1269 1.62458E-05 1.34159E-05-1.64938E-05-2.62494E-05 2.46961E-17-1.99917E-17
 -1      1270 9.68084E-06-3.65201E-05 2.54980E-06 1.74755E-05 2.17772E-17-1.11410E-17
 -1      1271 2.71822E-05-9.06250E-05 1.49353E-05 2.39914E-05 1.12782E-17-3.70958E-18
 -1      1272 3.71079E-05-1.12637E-04 1.90590E-05 8.96788E-07-6.27630E-18-1.34345E-18
 -1      1273 2.70286E-05-8.97972E-05 1.47891E-05-2.23158E-05-2.33561E-17-5.61583E-18
 -1      1274 9.69796E-06-3.48399E-05 2.16030E-06-1.67248E-05-2.90422E-17-1.38041E-17
 -1      1275 1.41076E-05 1.36578E-05-1.55403E-05 2.42463E-05-2.84569E-17-2.16764E-17
 -1      1276 5.77929E-05 2.62014E-05-3.43353E-05 7.54162E-05-2.31782E-17-2.56549E-17
 -1      1277 1.36234E-04 1.67438E-06-5.22293E-05 1.09047E-04-1.56286E-17-2.54330E-17
 -1      1278 2.27198E-04-4.48590E-05-6.68715E-05 1.02459E-04-6.94736E-18-1.82442E-17
 -1      1279 2.94382E-04-8.46165E-05-7.56976E-05 5.11086E-05-1.38418E-18-6.68775E-18
 -1      1280 3.03999E-04-9.02402E-05-7.70457E-05-2.51945E-05-1.56000E-18 7.10745E-18
 -1      1281 2.54448E-04-6.04801E-05-7.04857E-05-8.98367E-05-5.15356E-18 1.70177E-17
 -1      1282 1.66149E-04-1.22967E-05-5.74821E-05-1.11463E-04-1.17373E-17 2.23752E-17
 -1      1283 7.97933E-05 2.17039E-05-4.01643E-05-8.90556E-05-1.70813E-17 2.12334E-17
 -1      1284 2.38103E-05 2.12761E-05-2.14372E-05-4.06003E-05-2.06608E-17 1.82417E-17
 -1      1285 7.10507E-06-1.43066E-05-3.89284E-06 4.76344E-06-1.88888E-17 1.18593E-17
 -1      1286 1.82381E-05-6.71580E-05 1.00301E-05 2.45919E-05-1.03982E-17 4.30568E-18
 -1      1287 3.33836E-05-1.05574E-04 1.79182E-05 1.30547E-05 4.50622E-19 7.43986E-19
 -1      1288 1.04128E-04-2.19423E-05-3.77811E-05-1.71873E-05-7.65506E-19 9.15389E-18
 -1      1289 9.02488E-05-6.69108E-06-3.59792E-05-2.03121E-05-1.81519E-18-2.60367E-18
 -1      1290 9.25176E-05-6.75196E-06-3.71543E-05-2.55975E-05-2.44560E-18-2.13346E-20
 -1      1291 8.59325E-05-4.11199E-06-3.51337E-05-1.62467E-05-1.68305E-18-6.09858E-18
 -1      1292 8.71447E-05-4.10585E-06-3.55841E-05-1.86761E-05-1.94394E-18-4.66207E-18
 -1      1293 9.20985E-05-1.04785E-05-3.50700E-05-1.88474E-05-3.11406E-18-2.26698E-18
 -1      1294 8.41717E-05-3.19363E-06-3.47169E-05-1.26217E-05-1.21621E-18-7.60526E-18
 -1      1295 8.47600E-05-3.16429E-06-3.49297E-05-1.44371E-05-1.44348E-18-6.96727E-18
 -1      1296 8.79080E-05-7.40376E-06-3.45869E-05-1.52015E-05-2.57926E-18-5.11761E-18
 -1      1297 8.32771E-05-2.71587E-06-3.45152E-05-9.49572E-06-7.59094E-19-8.19575E-18
 -1      1298 8.35849E-05-2.70023E-06-3.46187E-05-1.10369E-05-9.05611E-19-7.97476E-18
 -1      1299 8.59386E-05-5.96849E-06-3.43424E-05-1.17481E-05-1.76468E-18-6.41342E-18
 -1      1300 8.27783E-05-2.42631E-06-3.44147E-05-6.75316E-06-3.44269E-19-8.28094E-18
 -1      1301 8.29494E-05-2.41882E-06-3.44673E-05-8.10720E-06-4.94363E-19-8.25786E-18
 -1      1302 8.48933E-05-5.16835E-06-3.42235E-05-8.74642E-06-1.05809E-18-6.87238E-18
 -1      1303 8.24910E-05-2.24564E-06-3.43635E-05-4.18179E-06-1.65337E-20-8.08985E-18
 -1      1304 8.25859E-05-2.24232E-06-3.43905E-05-5.45718E-06-1.18389E-19-8.21519E-18
 -1      1305 8.42884E-05-4.68130E-06-3.41655E-05-6.05866E-06-4.31572E-19-6.96254E-18
 -1      1306 8.23488E-05-2.14590E-06-3.43414E-05-1.73920E-06 3.71317E-19-7.81110E-18
 -1      1307 8.23905E-05-2.14463E-06-3.43526E-05-2.95841E-06 2.45610E-19-7.95427E-18
 -1      1308 8.39467E-05-4.39350E-06-3.41384E-05-3.54219E-06 1.39770E-19-6.72054E-18
 -1      1309 8.23205E-05-2.11485E-06-3.43389E-05 6.51702E-07 6.86411E-19-7.46560E-18
 -1      1310 8.23188E-05-2.11488E-06-3.43385E-05-5.50257E-07 5.79807E-19-7.66358E-18
 -1      1311 8.37933E-05-4.26036E-06-3.41281E-05-1.13566E-06 7.64004E-19-6.48188E-18
 -1      1312 8.24005E-05-2.14912E-06-3.43546E-05 3.06359E-06 9.88423E-19-7.01027E-18
 -1      1313 8.23554E-05-2.15041E-06-3.43425E-05 1.84168E-06 8.70517E-19-7.28742E-18
 -1      1314 8.37988E-05-4.26465E-06-3.41287E-05 1.23666E-06 1.26414E-18-6.14132E-18
 -1      1315 8.26054E-05-2.25314E-06-3.43938E-05 5.57187E-06 1.28312E-18-6.40015E-18
 -1      1316 8.25067E-05-2.25584E-06-3.43660E-05 4.29029E-06 1.19537E-18-6.77640E-18
 -1      1317 8.39639E-05-4.40737E-06-3.41400E-05 3.64747E-06 1.79455E-18-5.69344E-18
 -1      1318 8.29746E-05-2.43463E-06-3.44705E-05 8.21543E-06 1.65582E-18-5.54979E-18
 -1      1319 8.28006E-05-2.44251E-06-3.44176E-05 6.85210E-06 1.52431E-18-6.05818E-18
 -1      1320 8.43170E-05-4.70542E-06-3.41673E-05 6.15112E-06 2.30415E-18-5.05554E-18
 -1      1321 8.36299E-05-2.73017E-06-3.46240E-05 1.11977E-05 2.05511E-18-4.16918E-18
 -1      1322 8.33153E-05-2.74630E-06-3.45190E-05 9.63922E-06 1.86055E-18-4.98296E-18
 -1      1323 8.49378E-05-5.21036E-06-3.42246E-05 8.85752E-06 2.84279E-18-4.10165E-18
 -1      1324 8.48221E-05-3.20911E-06-3.49384E-05 1.46492E-05 2.40089E-18-1.99381E-18
 -1      1325 8.42308E-05-3.24480E-06-3.47232E-05 1.28059E-05 2.18302E-18-3.31950E-18
 -1      1326 8.60231E-05-6.04794E-06-3.43444E-05 1.19101E-05 3.42055E-18-2.64936E-18
 -1      1327 8.72420E-05-4.10651E-06-3.56051E-05 1.89144E-05 2.57773E-18 1.79867E-18
 -1      1328 8.60014E-05-4.16937E-06-3.51416E-05 1.65078E-05 2.33204E-18-4.67959E-19
 -1      1329 8.80371E-05-7.52689E-06-3.45897E-05 1.54418E-05 3.78375E-18-1.85844E-19
 -1      1330 9.33197E-05-6.80125E-06-3.70484E-05 2.49394E-05 2.04198E-18 8.54063E-18
 -1      1331 9.00618E-05-6.44873E-06-3.60006E-05 2.09874E-05 2.05083E-18 4.46762E-18
 -1      1332 9.23246E-05-1.07120E-05-3.50544E-05 1.94865E-05 3.72570E-18 3.93198E-18
 -1      1333 1.23205E-04-2.48401E-05-3.88944E-05 2.82286E-05 8.32845E-19 2.05355E-17
 -1      1334 9.98506E-05-1.43933E-05-3.72640E-05 2.39166E-05 9.17548E-19 1.23186E-17
 -1      1335 1.01501E-04-1.93184E-05-3.53357E-05 2.12372E-05 3.23072E-18 1.00390E-17
 -1      1336 1.02291E-04-2.77193E-05-3.46533E-05 7.26692E-06 1.63911E-18 2.00226E-17
 -1      1337 1.04862E-04-3.01484E-05-3.34349E-05-7.88197E-06-2.07036E-18 1.00670E-17
 -1      1338 9.80401E-05-2.77823E-05-3.06909E-05-4.92451E-06-1.85453E-18 7.60207E-18
 -1      1339 9.53289E-05-2.77976E-05-2.92006E-05-2.42715E-06-1.57696E-18 6.66331E-18
 -1      1340 9.31546E-05-2.75222E-05-2.81797E-05-1.98055E-06-1.51688E-18 4.33339E-18
 -1      1341 9.93515E-05-2.80168E-05-3.09404E-05-7.75961E-06-3.33165E-18 3.15432E-18
 -1      1342 9.15239E-05-2.71800E-05-2.75645E-05-7.66606E-07-1.20835E-18 3.56156E-18
 -1      1343 9.08742E-05-2.71030E-05-2.72829E-05-6.53147E-07-1.08794E-18 1.89497E-18
 -1      1344 9.46888E-05-2.77577E-05-2.88100E-05-2.98512E-06-2.61971E-18 1.80409E-18
 -1      1345 9.01999E-05-2.69411E-05-2.70635E-05-7.85149E-08-8.33729E-19 1.16070E-18
 -1      1346 9.02167E-05-2.69931E-05-2.70558E-05-1.46672E-08-8.33993E-19-1.45319E-20
 -1      1347 9.26205E-05-2.75198E-05-2.79321E-05-8.81879E-07-1.90865E-18 3.49070E-19
 -1      1348 9.00599E-05-2.69544E-05-2.70136E-05 2.87577E-07-5.43140E-19-3.02616E-19
 -1      1349 9.03999E-05-2.70804E-05-2.71130E-05 3.24748E-07-3.99090E-19-9.86079E-19
 -1      1350 9.18364E-05-2.74219E-05-2.76211E-05 1.64996E-07-1.19824E-18-7.27436E-19
 -1      1351 9.05440E-05-2.71231E-05-2.71632E-05 5.00862E-07-3.45518E-19-1.14950E-18
 -1      1352 9.10629E-05-2.72939E-05-2.73154E-05 5.24318E-07-2.23688E-19-1.52671E-18
 -1      1353 9.18210E-05-2.74741E-05-2.75885E-05 7.45101E-07-7.97415E-19-1.20060E-18
 -1      1354 9.13957E-05-2.73896E-05-2.74220E-05 6.39078E-07-1.99613E-19-1.66466E-18
 -1      1355 9.20290E-05-2.75898E-05-2.76074E-05 6.56312E-07-2.70931E-19-2.10077E-18
 -1      1356 9.22778E-05-2.76366E-05-2.77126E-05 1.10007E-06-4.68532E-19-1.70052E-18
 -1      1357 9.24928E-05-2.77227E-05-2.77534E-05 7.44432E-07-4.02645E-19-2.18463E-18
 -1      1358 9.32149E-05-2.79463E-05-2.79655E-05 7.60169E-07-5.94651E-19-2.88947E-18
 -1      1359 9.30472E-05-2.78768E-05-2.79380E-05 1.34832E-06-6.72766E-19-2.08022E-18
 -1      1360 9.37829E-05-2.81089E-05-2.81432E-05 8.42223E-07-6.18780E-19-3.01728E-18
 -1      1361 9.45911E-05-2.83565E-05-2.83812E-05 8.59572E-07-5.80121E-19-3.64733E-18
 -1      1362 9.40483E-05-2.81768E-05-2.82378E-05 1.55626E-06-9.40707E-19-2.31495E-18
 -1      1363 9.52544E-05-2.85466E-05-2.85880E-05 9.47702E-07-3.99436E-19-3.82012E-18
 -1      1364 9.61589E-05-2.88223E-05-2.88548E-05 9.68492E-07-9.68364E-20-4.23803E-18
 -1      1365 9.52464E-05-2.85302E-05-2.86001E-05 1.76340E-06-7.81754E-19-2.56737E-18
 -1      1366 9.69184E-05-2.90407E-05-2.90909E-05 1.06805E-06 1.28503E-20-4.54908E-18
 -1      1367 9.79350E-05-2.93509E-05-2.93908E-05 1.09277E-06-1.17958E-19-4.70739E-18
 -1      1368 9.66341E-05-2.89379E-05-2.90208E-05 1.99111E-06-2.70830E-19-3.02250E-18
 -1      1369 9.87946E-05-2.95995E-05-2.96571E-05 1.20183E-06-1.96282E-19-5.06898E-18
 -1      1370 9.99361E-05-2.99496E-05-2.99933E-05 1.22923E-06-1.16056E-19-5.23177E-18
 -1      1371 9.82165E-05-2.94054E-05-2.94994E-05 2.24394E-06-4.69669E-19-3.85332E-18
 -1      1372 1.00895E-04-3.02296E-05-3.02887E-05 1.33647E-06 6.62514E-20-5.33938E-18
 -1      1373 1.02160E-04-3.06215E-05-3.06602E-05 1.36283E-06-2.00054E-19-5.55831E-18
 -1      1374 9.99977E-05-2.99391E-05-3.00342E-05 2.50667E-06-1.72770E-19-4.20635E-18
 -1      1375 1.03203E-04-3.09307E-05-3.09788E-05 1.44430E-06-2.63571E-20-5.60596E-18
 -1      1376 1.04562E-04-3.13578E-05-3.13756E-05 1.46233E-06-8.36156E-21-5.34032E-18
 -1      1377 1.01965E-04-3.05426E-05-3.06175E-05 2.73792E-06-2.89335E-19-4.04002E-18
 -1      1378 1.05649E-04-3.16880E-05-3.17030E-05 1.47759E-06-1.89912E-19-5.00137E-18
 -1      1379 1.07021E-04-3.21286E-05-3.21003E-05 1.47527E-06-3.69362E-19-5.24738E-18
 -1      1380 1.04070E-04-3.12112E-05-3.12291E-05 2.86167E-06-9.65852E-20-3.64688E-18
 -1      1381 1.08074E-04-3.24611E-05-3.24098E-05 1.36556E-06-3.43176E-19-5.17179E-18
 -1      1382 1.09309E-04-3.28706E-05-3.27619E-05 1.32554E-06-1.80152E-19-5.58798E-18
 -1      1383 1.06202E-04-3.19236E-05-3.18299E-05 2.76027E-06-3.80645E-19-3.10051E-18
 -1      1384 1.10202E-04-3.31718E-05-3.30116E-05 1.01876E-06 2.53667E-19-5.49221E-18
 -1      1385 1.11059E-04-3.34750E-05-3.32488E-05 9.20214E-07 3.87961E-19-5.39125E-18
 -1      1386 1.08169E-04-3.26306E-05-3.23569E-05 2.27712E-06 8.12589E-20-2.99523E-18
 -1      1387 1.11613E-04-3.36921E-05-3.33834E-05 3.51569E-07-2.86079E-19-5.83712E-18
 -1      1388 1.11777E-04-3.37823E-05-3.34169E-05 1.77466E-07-6.53582E-19-6.51439E-18
 -1      1389 1.09677E-04-3.32400E-05-3.27227E-05 1.24543E-06-2.96528E-19-3.72694E-18
 -1      1390 1.11783E-04-3.38431E-05-3.33776E-05-6.65376E-07-2.16126E-19-6.63889E-18
 -1      1391 1.10928E-04-3.35987E-05-3.31214E-05-9.12540E-07-4.31067E-19-6.93302E-18
 -1      1392 1.10338E-04-3.36039E-05-3.28279E-05-4.35536E-07-6.15237E-19-3.80437E-18
 -1      1393 1.10203E-04-3.34237E-05-3.28680E-05-1.92152E-06 1.84521E-19-6.97337E-18
 -1      1394 1.08140E-04-3.27563E-05-3.22817E-05-2.19721E-06 3.94294E-19-6.41090E-18
 -1      1395 1.09744E-04-3.35253E-05-3.25899E-05-2.66556E-06-1.72107E-19-3.74653E-18
 -1      1396 1.06638E-04-3.22950E-05-3.18238E-05-3.08817E-06 4.56451E-19-6.15213E-18
 -1      1397 1.03528E-04-3.12305E-05-3.09662E-05-3.29201E-06 5.58655E-19-5.12196E-18
 -1      1398 1.07628E-04-3.28157E-05-3.19890E-05-4.98775E-06 8.30820E-19-4.17686E-18
 -1      1399 1.01473E-04-3.05256E-05-3.03890E-05-3.64203E-06 2.24127E-19-4.86070E-18
 -1      1400 9.79776E-05-2.92809E-05-2.94482E-05-3.64410E-06-1.88981E-19-4.85562E-18
 -1      1401 1.04122E-04-3.14331E-05-3.11145E-05-6.54717E-06 6.49463E-19-3.34808E-18
 -1      1402 9.59256E-05-2.85253E-05-2.89071E-05-3.09664E-06-5.38806E-19-4.74323E-18
 -1      1403 9.31158E-05-2.74967E-05-2.81644E-05-2.82187E-06-4.97844E-19-5.75734E-18
 -1      1404 9.99874E-05-2.96535E-05-3.01752E-05-6.36606E-06-4.33059E-19-2.49038E-18
 -1      1405 9.18132E-05-2.69961E-05-2.78349E-05-1.38912E-06 9.72500E-20-6.02884E-18
 -1      1406 9.07283E-05-2.65929E-05-2.75512E-05-9.07742E-07 1.42540E-19-5.24457E-18
 -1      1407 9.65671E-05-2.81035E-05-2.94489E-05-3.97755E-06-4.20962E-19-2.67410E-18
 -1      1408 9.07280E-05-2.65921E-05-2.75514E-05 9.01942E-07 1.68983E-19-5.68091E-18
 -1      1409 9.18074E-05-2.69923E-05-2.78340E-05 1.38468E-06 7.04626E-20-5.09178E-18
 -1      1410 9.52296E-05-2.74809E-05-2.91755E-05-4.75102E-09 3.43842E-20-2.89808E-18
 -1      1411 9.31136E-05-2.74935E-05-2.81647E-05 2.82454E-06-9.88580E-20-6.00928E-18
 -1      1412 9.59261E-05-2.85226E-05-2.89082E-05 3.10169E-06-2.13638E-19-6.54635E-18
 -1      1413 9.65692E-05-2.81002E-05-2.94512E-05 3.97763E-06-3.67255E-19-4.51898E-18
 -1      1414 9.79890E-05-2.92814E-05-2.94527E-05 3.65848E-06-5.97662E-19-6.90602E-18
 -1      1415 1.01498E-04-3.05302E-05-3.03975E-05 3.65882E-06-7.15167E-19-7.75263E-18
 -1      1416 1.00004E-04-2.96530E-05-3.01826E-05 6.38638E-06-9.61389E-19-5.89440E-18
 -1      1417 1.03572E-04-3.12406E-05-3.09805E-05 3.31853E-06 5.70225E-20-7.64881E-18
 -1      1418 1.06707E-04-3.23128E-05-3.18457E-05 3.11696E-06 1.99774E-19-8.21675E-18
 -1      1419 1.04168E-04-3.14417E-05-3.11311E-05 6.59033E-06-2.47132E-19-6.30776E-18
 -1      1420 1.08237E-04-3.27823E-05-3.23118E-05 2.23569E-06 2.34099E-19-7.37109E-18
 -1      1421 1.10336E-04-3.34607E-05-3.29089E-05 1.96216E-06 4.27897E-19-7.05907E-18
 -1      1422 1.07720E-04-3.28379E-05-3.20195E-05 5.05427E-06 4.53441E-19-5.59504E-18
 -1      1423 1.11097E-04-3.36463E-05-3.31734E-05 9.63154E-07-1.18909E-19-6.14500E-18
 -1      1424 1.12000E-04-3.39052E-05-3.34439E-05 7.18265E-07-1.04628E-19-6.08843E-18
 -1      1425 1.09899E-04-3.35664E-05-3.26393E-05 2.75557E-06 5.63780E-19-4.76501E-18
 -1      1426 1.12041E-04-3.38576E-05-3.34975E-05-1.13087E-07-7.84829E-20-5.69534E-18
 -1      1427 1.11938E-04-3.37857E-05-3.34822E-05-2.84373E-07 2.01369E-19-5.65094E-18
 -1      1428 1.10573E-04-3.36684E-05-3.29021E-05 5.51156E-07-1.37391E-19-4.23176E-18
 -1      1429 1.11442E-04-3.35851E-05-3.33658E-05-8.38625E-07 1.38364E-19-6.03101E-18
 -1      1430 1.10663E-04-3.33052E-05-3.31518E-05-9.33494E-07-1.09453E-20-6.16996E-18
 -1      1431 1.10014E-04-3.33335E-05-3.28284E-05-1.09882E-06-2.99029E-19-3.94776E-18
 -1      1432 1.09843E-04-3.30247E-05-3.29250E-05-1.22196E-06 3.00081E-19-5.80865E-18
 -1      1433 1.08708E-04-3.26450E-05-3.26023E-05-1.25724E-06 3.38954E-19-5.44395E-18
 -1      1434 1.08635E-04-3.27603E-05-3.25023E-05-2.09127E-06 3.88523E-19-3.41442E-18
 -1      1435 1.07747E-04-3.23384E-05-3.23215E-05-1.34419E-06 2.49078E-19-5.09584E-18
 -1      1436 1.06500E-04-3.19358E-05-3.19616E-05-1.34063E-06 5.53271E-19-4.31459E-18
 -1      1437 1.06829E-04-3.20989E-05-3.20249E-05-2.52514E-06 2.53266E-19-2.71508E-18
 -1      1438 1.05527E-04-3.16379E-05-3.16695E-05-1.29811E-06-3.84276E-19-4.33186E-18
 -1      1439 1.04326E-04-3.12588E-05-3.13195E-05-1.27305E-06-2.30098E-19-4.66778E-18
 -1      1440 1.04896E-04-3.14436E-05-3.14854E-05-2.56659E-06 4.82909E-19-3.15659E-18
 -1      1441 1.03422E-04-3.09890E-05-3.10440E-05-1.16021E-06-3.64986E-19-4.80186E-18
 -1      1442 1.02352E-04-3.06568E-05-3.07303E-05-1.12581E-06-1.48305E-19-4.73335E-18
 -1      1443 1.03036E-04-3.08459E-05-3.09487E-05-2.37264E-06-5.94825E-19-2.78603E-18
 -1      1444 1.01559E-04-3.04240E-05-3.04864E-05-9.83974E-07 1.27618E-18-4.62568E-18
 -1      1445 1.00655E-04-3.01469E-05-3.02200E-05-9.47726E-07 5.82597E-19-3.39487E-18
 -1      1446 1.01363E-04-3.03284E-05-3.04549E-05-2.06260E-06 8.40004E-19-2.62481E-18
 -1      1447 9.99873E-05-2.99532E-05-3.00137E-05-8.02572E-07-5.49579E-20-2.17373E-18
 -1      1448 9.92534E-05-2.97306E-05-2.97966E-05-7.68613E-07 5.36104E-19-2.62586E-18
 -1      1449 9.99286E-05-2.98970E-05-3.00247E-05-1.71567E-06 7.55471E-19-2.82886E-18
 -1      1450 9.87099E-05-2.95742E-05-2.96282E-05-6.34310E-07 1.15574E-20-2.34435E-18
 -1      1451 9.81326E-05-2.94006E-05-2.94569E-05-6.04581E-07-7.05420E-19-2.23048E-18
 -1      1452 9.87417E-05-2.95478E-05-2.96646E-05-1.37881E-06 2.80487E-19-2.40331E-18
 -1      1453 9.77025E-05-2.92775E-05-2.93233E-05-4.87685E-07-1.23794E-18-2.83442E-18
 -1      1454 9.72609E-05-2.91458E-05-2.91919E-05-4.62805E-07-1.75127E-18-4.88459E-18
 -1      1455 9.77887E-05-2.92723E-05-2.93729E-05-1.07639E-06-1.52616E-18-1.80886E-18
 -1      1456 9.69291E-05-2.90513E-05-2.90888E-05-3.65219E-07-1.14803E-18-5.31334E-18
 -1      1457 9.66003E-05-2.89541E-05-2.89907E-05-3.45068E-07-1.77043E-19-6.47404E-18
 -1      1458 9.70433E-05-2.90598E-05-2.91431E-05-8.18292E-07-2.05295E-18-2.78261E-18
 -1      1459 9.63507E-05-2.88832E-05-2.89131E-05-2.66061E-07 6.64198E-19-6.07773E-18
 -1      1460 9.61129E-05-2.88135E-05-2.88419E-05-2.50141E-07 3.79284E-19-6.09074E-18
 -1      1461 9.64745E-05-2.88997E-05-2.89666E-05-6.05804E-07-2.41636E-20-3.83543E-18
 -1      1462 9.59300E-05-2.87617E-05-2.87850E-05-1.87631E-07-3.92748E-19-5.12514E-18
 -1      1463 9.57639E-05-2.87135E-05-2.87352E-05-1.75282E-07 7.83758E-20-5.31582E-18
 -1      1464 9.60513E-05-2.87819E-05-2.88344E-05-4.35500E-07 4.56786E-19-3.93523E-18
 -1      1465 9.56341E-05-2.86768E-05-2.86949E-05-1.26613E-07 5.32166E-19-5.08434E-18
 -1      1466 9.55236E-05-2.86451E-05-2.86615E-05-1.17130E-07 9.65459E-19-4.04337E-18
 -1      1467 9.57451E-05-2.86977E-05-2.87383E-05-3.01688E-07 7.97705E-19-4.33121E-18
 -1      1468 9.54354E-05-2.86202E-05-2.86342E-05-7.95317E-08 1.12739E-18-3.32498E-18
 -1      1469 9.53677E-05-2.86011E-05-2.86137E-05-7.22254E-08 6.72270E-19-2.25293E-18
 -1      1470 9.55313E-05-2.86395E-05-2.86708E-05-1.97869E-07 1.54219E-18-1.64760E-18
 -1      1471 9.53116E-05-2.85852E-05-2.85965E-05-4.31304E-08 2.50189E-19-1.81817E-18
 -1      1472 9.52771E-05-2.85760E-05-2.85859E-05-3.73838E-08 7.92708E-21-1.78773E-18
 -1      1473 9.53894E-05-2.86013E-05-2.86257E-05-1.17656E-07 9.79313E-19-8.67190E-19
 -1      1474 9.52453E-05-2.85670E-05-2.85762E-05-1.50389E-08 1.30434E-18-1.22957E-18
 -1      1475 9.52364E-05-2.85658E-05-2.85729E-05-1.04618E-08 1.84026E-18 8.76450E-19
 -1      1476 9.53024E-05-2.85785E-05-2.85976E-05-5.57865E-08 1.38484E-18-6.86401E-19
 -1      1477 9.52212E-05-2.85613E-05-2.85682E-05 5.11419E-09 5.77698E-19 1.51853E-18
 -1      1478 9.52307E-05-2.85676E-05-2.85687E-05 8.72419E-09-2.73384E-19 2.20831E-18
 -1      1479 9.52561E-05-2.85683E-05-2.85815E-05-1.02914E-08 2.03470E-18-7.53977E-19
 -1      1480 9.52307E-05-2.85748E-05-2.85640E-05 8.55901E-09-1.96606E-18 1.31895E-18
 -1      1481 9.52406E-05-2.85767E-05-2.85697E-05 1.31709E-08-1.94142E-18 6.16549E-19
 -1      1482 9.63587E-05-2.82996E-05-2.97040E-05 2.94383E-06 1.60346E-18 1.64971E-17
 -1      1483 1.02254E-04-2.93156E-05-3.20691E-05 4.40626E-06 1.38866E-18 1.88274E-17
 -1      1484 1.02115E-04-2.66687E-05-3.26368E-05 1.26655E-05 2.63253E-18 1.28919E-17
 -1      1485 9.19214E-05-2.73952E-05-2.77289E-05 1.09822E-06 1.16712E-18 1.33863E-17
 -1      1486 9.38119E-05-2.75344E-05-2.86251E-05 1.42082E-06 1.13121E-18 1.52301E-17
 -1      1487 9.63713E-05-2.79970E-05-2.94985E-05 4.76316E-06 2.38509E-18 1.04640E-17
 -1      1488 9.02189E-05-2.70072E-05-2.70708E-05 2.63871E-07 8.52731E-19 1.11374E-17
 -1      1489 9.07679E-05-2.70048E-05-2.73228E-05 4.30113E-07 7.92121E-19 1.23986E-17
 -1      1490 9.30423E-05-2.75747E-05-2.81012E-05 1.73213E-06 1.79930E-18 8.48045E-18
 -1      1491 8.98759E-05-2.69391E-05-2.69489E-05-1.49235E-07 6.71188E-19 9.24712E-18
 -1      1492 8.98242E-05-2.68489E-05-2.69495E-05-5.38295E-08 6.67920E-19 1.04073E-17
 -1      1493 9.16378E-05-2.73435E-05-2.75648E-05 3.59670E-07 1.39823E-18 6.73984E-18
 -1      1494 9.02518E-05-2.70622E-05-2.70654E-05-3.76333E-07 4.87198E-19 7.91397E-18
 -1      1495 8.98968E-05-2.69145E-05-2.69616E-05-3.16316E-07 4.36937E-19 8.70240E-18
 -1      1496 9.13082E-05-2.73181E-05-2.74321E-05-3.53067E-07 1.07023E-18 5.61247E-18
 -1      1497 9.10480E-05-2.73045E-05-2.73085E-05-5.15392E-07 1.84910E-19 7.28713E-18
 -1      1498 9.05206E-05-2.71196E-05-2.71520E-05-4.73594E-07 2.83318E-19 7.61019E-18
 -1      1499 9.16050E-05-2.74390E-05-2.75085E-05-7.62798E-07 6.38262E-19 4.83258E-18
 -1      1500 9.21209E-05-2.76266E-05-2.76337E-05-6.15236E-07 1.60895E-19 6.82716E-18
 -1      1501 9.14791E-05-2.74146E-05-2.74430E-05-5.81923E-07 1.36521E-19 7.08506E-18
 -1      1502 9.22944E-05-2.76594E-05-2.77098E-05-1.02759E-06 2.96700E-19 4.50155E-18
 -1      1503 9.34110E-05-2.80114E-05-2.80241E-05-7.04753E-07 2.52100E-19 6.33376E-18
 -1      1504 9.26742E-05-2.77745E-05-2.78046E-05-6.73359E-07 2.20881E-19 6.62386E-18
 -1      1505 9.32595E-05-2.79519E-05-2.79984E-05-1.23099E-06 4.21832E-19 4.04615E-18
 -1      1506 9.49097E-05-2.84567E-05-2.84777E-05-8.03087E-07 3.03246E-19 5.77628E-18
 -1      1507 9.40736E-05-2.81910E-05-2.82280E-05-7.68711E-07 1.95694E-19 6.03663E-18
 -1      1508 9.44510E-05-2.83053E-05-2.83583E-05-1.42374E-06 4.01221E-19 3.46096E-18
 -1      1509 9.66420E-05-2.89708E-05-2.90020E-05-9.23220E-07 2.44697E-19 5.34610E-18
 -1      1510 9.56862E-05-2.86680E-05-2.87162E-05-8.82080E-07 2.91882E-19 5.70427E-18
 -1      1511 9.58614E-05-2.87195E-05-2.87868E-05-1.63920E-06 4.53263E-19 3.03047E-18
 -1      1512 9.86534E-05-2.95681E-05-2.96102E-05-1.07263E-06 4.52428E-19 4.67153E-18
 -1      1513 9.75475E-05-2.92174E-05-2.92796E-05-1.02204E-06 3.84009E-19 5.17362E-18
 -1      1514 9.75099E-05-2.92021E-05-2.92888E-05-1.89859E-06 4.97943E-19 3.43883E-18
 -1      1515 1.00997E-04-3.02659E-05-3.03176E-05-1.25180E-06 1.80854E-19 4.02004E-18
 -1      1516 9.97070E-05-2.98558E-05-2.99327E-05-1.19067E-06 2.68074E-19 4.27112E-18
 -1      1517 9.94299E-05-2.97656E-05-2.98729E-05-2.21081E-06 6.37320E-19 2.86718E-18
 -1      1518 1.03713E-04-3.10792E-05-3.11348E-05-1.45031E-06 7.59790E-20 4.12412E-18
 -1      1519 1.02213E-04-3.06008E-05-3.06889E-05-1.38040E-06 5.00577E-20 3.91906E-18
 -1      1520 1.01655E-04-3.04238E-05-3.05469E-05-2.56809E-06 2.40382E-19 2.32392E-18
 -1      1521 1.06804E-04-3.20125E-05-3.20592E-05-1.63993E-06-3.03526E-20 4.01839E-18
 -1      1522 1.05092E-04-3.14653E-05-3.15534E-05-1.56808E-06-1.85619E-20 3.92659E-18
 -1      1523 1.04199E-04-3.11876E-05-3.13113E-05-2.93647E-06 9.85586E-20 2.42198E-18
 -1      1524 1.10184E-04-3.30473E-05-3.30608E-05-1.76457E-06-1.85452E-20 4.23231E-18
 -1      1525 1.08311E-04-3.24482E-05-3.25127E-05-1.70621E-06-2.35172E-20 4.15646E-18
 -1      1526 1.07030E-04-3.20581E-05-3.21502E-05-3.24091E-06-4.66244E-20 2.29621E-18
 -1      1527 1.13622E-04-3.41227E-05-3.40628E-05-1.72912E-06-6.23041E-20 4.55469E-18
 -1      1528 1.11728E-04-3.35193E-05-3.35178E-05-1.71261E-06-2.34114E-19 4.35389E-18
 -1      1529 1.10033E-04-3.30158E-05-3.30185E-05-3.34649E-06-2.64819E-19 2.13294E-18
 -1      1530 1.16665E-04-3.51101E-05-3.49221E-05-1.39595E-06 5.11237E-19 3.68319E-18
 -1      1531 1.15027E-04-3.45974E-05-3.44657E-05-1.46523E-06 3.49173E-19 4.34070E-18
 -1      1532 1.12956E-04-3.40037E-05-3.38291E-05-3.04462E-06 5.12117E-19 2.30646E-18
 -1      1533 1.18588E-04-3.57891E-05-3.54221E-05-6.09414E-07-2.20047E-19 2.82994E-18
 -1      1534 1.17651E-04-3.55214E-05-3.51843E-05-8.18230E-07 3.88100E-19 3.49193E-18
 -1      1535 1.15369E-04-3.49034E-05-3.44449E-05-2.06881E-06 7.21361E-19 2.57731E-18
 -1      1536 1.18459E-04-3.58491E-05-3.53055E-05 7.18589E-07-2.39836E-19 3.14334E-18
 -1      1537 1.18790E-04-3.60269E-05-3.54402E-05 3.32402E-07-5.40850E-19 2.66748E-18
 -1      1538 1.16649E-04-3.55074E-05-3.46918E-05-1.86738E-07-4.21769E-19 2.29950E-18
 -1      1539 1.15430E-04-3.49637E-05-3.43752E-05 2.44301E-06-7.42517E-19 4.45592E-18
 -1      1540 1.17527E-04-3.57647E-05-3.49969E-05 1.91129E-06-5.03905E-19 3.80900E-18
 -1      1541 1.16086E-04-3.55149E-05-3.44096E-05 2.58197E-06-9.14954E-19 3.20103E-18
 -1      1542 1.09344E-04-3.29953E-05-3.26597E-05 4.00678E-06 2.75044E-19 4.73756E-18
 -1      1543 1.13247E-04-3.44275E-05-3.37407E-05 3.49175E-06-2.30949E-20 4.85128E-18
 -1      1544 1.13170E-04-3.46068E-05-3.35473E-05 5.64958E-06-6.71009E-19 3.98959E-18
 -1      1545 1.01451E-04-3.02987E-05-3.05568E-05 4.49371E-06 4.96901E-19 3.39020E-18
 -1      1546 1.06318E-04-3.20315E-05-3.18412E-05 4.27271E-06 2.04097E-19 4.17561E-18
 -1      1547 1.08116E-04-3.26843E-05-3.22656E-05 7.70052E-06 7.54395E-19 4.18617E-18
 -1      1548 9.45428E-05-2.78589E-05-2.87869E-05 3.16799E-06 5.16531E-19 2.57900E-18
 -1      1549 9.86316E-05-2.92182E-05-2.98273E-05 3.46765E-06 4.20089E-19 2.96075E-18
 -1      1550 1.02332E-04-3.02075E-05-3.09568E-05 7.16976E-06 6.88267E-19 2.61013E-18
 -1      1551 9.17825E-05-2.68839E-05-2.80825E-05 2.82719E-07 9.91293E-21 2.04697E-18
 -1      1552 9.32297E-05-2.71891E-05-2.84415E-05 1.03776E-06 8.07064E-20 2.04572E-18
 -1      1553 9.82072E-05-2.82742E-05-3.01113E-05 3.47905E-06 6.92767E-19 1.76213E-18
 -1      1554 9.46025E-05-2.79270E-05-2.87603E-05-2.76001E-06-1.02339E-19 1.75881E-18
 -1      1555 9.26717E-05-2.70007E-05-2.82742E-05-1.93405E-06 1.97094E-19 2.00024E-18
 -1      1556 9.78183E-05-2.80151E-05-3.00737E-05-1.94871E-06 1.23164E-19 1.57872E-18
 -1      1557 1.01582E-04-3.04067E-05-3.05205E-05-4.42798E-06 5.29091E-19 1.37336E-18
 -1      1558 9.72280E-05-2.87317E-05-2.94064E-05-3.93765E-06 1.20067E-19 1.81339E-18
 -1      1559 1.01380E-04-2.96230E-05-3.08563E-05-6.38849E-06 3.56799E-19 1.11454E-18
 -1      1560 1.09549E-04-3.31111E-05-3.26384E-05-4.22683E-06 3.42876E-19-8.62174E-19
 -1      1561 1.04695E-04-3.14419E-05-3.13536E-05-4.20014E-06 7.99904E-19 3.03555E-19
 -1      1562 1.07076E-04-3.21478E-05-3.21409E-05-7.88647E-06 1.32568E-18-2.87409E-19
 -1      1563 1.15694E-04-3.50685E-05-3.43878E-05-2.77530E-06-3.55072E-19-1.13931E-18
 -1      1564 1.11990E-04-3.39386E-05-3.33605E-05-3.06242E-06-9.87720E-20-1.20506E-18
 -1      1565 1.12449E-04-3.43437E-05-3.34522E-05-6.48137E-06 4.58589E-20-8.02246E-19
 -1      1566 1.18779E-04-3.59461E-05-3.53632E-05-1.02579E-06 1.17579E-19-1.23744E-18
 -1      1567 1.16922E-04-3.54939E-05-3.48104E-05-1.40125E-06-1.30529E-19-1.07295E-18
 -1      1568 1.15861E-04-3.55296E-05-3.43885E-05-3.58539E-06-2.00932E-19-1.13216E-18
 -1      1569 1.18981E-04-3.58942E-05-3.55286E-05 3.82216E-07 6.95421E-19-2.62439E-18
 -1      1570 1.18831E-04-3.59881E-05-3.54475E-05 6.85869E-08 5.44563E-19-2.10194E-18
 -1      1571 1.16904E-04-3.57039E-05-3.47638E-05-6.64187E-07 7.55262E-19-2.59102E-18
 -1      1572 1.17163E-04-3.52418E-05-3.50791E-05 1.24404E-06-5.07005E-19-2.62043E-18
 -1      1573 1.18183E-04-3.56660E-05-3.53418E-05 1.04226E-06-2.27720E-19-2.74611E-18
 -1      1574 1.16000E-04-3.51907E-05-3.46069E-05 1.47902E-06 1.32918E-19-1.43706E-18
 -1      1575 1.14263E-04-3.42974E-05-3.42729E-05 1.62407E-06 5.72993E-19-1.65627E-18
 -1      1576 1.15891E-04-3.48643E-05-3.47258E-05 1.52382E-06 3.70246E-20-2.03005E-18
 -1      1577 1.13859E-04-3.43311E-05-3.40681E-05 2.68424E-06-4.85244E-19-5.02218E-19
 -1      1578 1.11008E-04-3.32789E-05-3.33294E-05 1.67568E-06 6.69546E-20-2.05650E-18
 -1      1579 1.12817E-04-3.38641E-05-3.38484E-05 1.64641E-06 1.27343E-19-2.06190E-18
 -1      1580 1.11137E-04-3.33661E-05-3.33226E-05 3.13100E-06 5.08377E-19-5.89535E-19
 -1      1581 1.07855E-04-3.23147E-05-3.23961E-05 1.54249E-06-4.02275E-19-7.50445E-19
 -1      1582 1.09588E-04-3.28507E-05-3.29013E-05 1.55490E-06-5.43350E-20-1.04771E-18
 -1      1583 1.08307E-04-3.24346E-05-3.25140E-05 3.08513E-06-4.51025E-19 4.16343E-19
 -1      1584 1.05046E-04-3.14675E-05-3.15543E-05 1.32688E-06 1.91249E-19-1.99678E-18
 -1      1585 1.06572E-04-3.19255E-05-3.20037E-05 1.35974E-06 6.81464E-20-1.49192E-18
 -1      1586 1.05658E-04-3.16040E-05-3.17377E-05 2.77445E-06 5.84519E-19 2.58567E-19
 -1      1587 1.02673E-04-3.07583E-05-3.08380E-05 1.09110E-06 6.15770E-20-2.85299E-18
 -1      1588 1.03947E-04-3.11323E-05-3.12157E-05 1.13119E-06 2.95092E-19-2.65146E-18
 -1      1589 1.03335E-04-3.08987E-05-3.10457E-05 2.35561E-06 6.33170E-19-1.34760E-18
 -1      1590 1.00742E-04-3.01849E-05-3.02527E-05 8.68267E-07-1.25458E-20-2.72963E-18
 -1      1591 1.01767E-04-3.04805E-05-3.05578E-05 9.08236E-07-1.37977E-19-2.58663E-18
 -1      1592 1.01385E-04-3.03201E-05-3.04587E-05 1.92183E-06-1.42179E-19-1.03742E-18
 -1      1593 9.92165E-05-2.97337E-05-2.97888E-05 6.73165E-07 2.45039E-19-3.30256E-18
 -1      1594 1.00017E-04-2.99613E-05-3.00281E-05 7.09424E-07 4.82859E-19-2.77786E-18
 -1      1595 9.98021E-05-2.98577E-05-2.99786E-05 1.52150E-06 4.32386E-19-1.35619E-18
 -1      1596 9.80393E-05-2.93868E-05-2.94302E-05 5.10184E-07 1.98283E-20-2.55715E-18
 -1      1597 9.86502E-05-2.95582E-05-2.96132E-05 5.41329E-07-2.31019E-19-3.32061E-18
 -1      1598 9.85499E-05-2.94963E-05-2.95969E-05 1.17522E-06-2.22048E-20-1.87349E-18
 -1      1599 9.71506E-05-2.91257E-05-2.91591E-05 3.78333E-07-2.54006E-19-2.44182E-18
 -1      1600 9.76065E-05-2.92519E-05-2.92960E-05 4.04152E-07 3.46705E-19-2.20673E-18
 -1      1601 9.75817E-05-2.92194E-05-2.93004E-05 8.87880E-07 2.35955E-19-1.49576E-18
 -1      1602 9.64942E-05-2.89333E-05-2.89585E-05 2.74168E-07 4.30308E-20-2.33464E-18
 -1      1603 9.68268E-05-2.90241E-05-2.90586E-05 2.95041E-07-4.62227E-19-2.46389E-18
 -1      1604 9.68488E-05-2.90115E-05-2.90752E-05 6.56320E-07-5.91330E-19-9.41654E-19
 -1      1605 9.60208E-05-2.87949E-05-2.88137E-05 1.93360E-07-5.53912E-19-2.52260E-18
 -1      1606 9.62573E-05-2.88584E-05-2.88851E-05 2.09939E-07-7.01830E-20-2.48911E-18
 -1      1607 9.63057E-05-2.88585E-05-2.89077E-05 4.73765E-07 8.55677E-20-1.33386E-18
 -1      1608 9.56893E-05-2.86983E-05-2.87122E-05 1.31494E-07 7.85525E-19-2.81393E-18
 -1      1609 9.58520E-05-2.87411E-05-2.87614E-05 1.44527E-07 4.37298E-19-2.55386E-18
 -1      1610 9.59128E-05-2.87486E-05-2.87862E-05 3.32225E-07 3.31829E-19-1.22150E-18
 -1      1611 9.54668E-05-2.86337E-05-2.86440E-05 8.44426E-08-1.37999E-19-2.91488E-18
 -1      1612 9.55733E-05-2.86608E-05-2.86763E-05 9.46941E-08-2.81564E-20-3.10624E-18
 -1      1613 9.56368E-05-2.86721E-05-2.87006E-05 2.23730E-07 4.72311E-19-2.56755E-18
 -1      1614 9.53275E-05-2.85934E-05-2.86012E-05 4.85648E-08 4.95658E-19-3.88544E-18
 -1      1615 9.53912E-05-2.86086E-05-2.86206E-05 5.67636E-08 2.17681E-19-3.46400E-18
 -1      1616 9.54510E-05-2.86210E-05-2.86427E-05 1.40946E-07 1.51325E-19-2.44267E-18
 -1      1617 9.52518E-05-2.85717E-05-2.85779E-05 2.09522E-08-3.51739E-19-4.42630E-18
 -1      1618 9.52827E-05-2.85777E-05-2.85874E-05 2.77368E-08 3.44250E-19-3.87659E-18
 -1      1619 9.53339E-05-2.85892E-05-2.86061E-05 7.76373E-08 5.26647E-19-1.35161E-18
 -1      1620 9.52239E-05-2.85645E-05-2.85686E-05-2.17914E-10-8.34694E-19-3.39685E-18
 -1      1621 9.52298E-05-2.85633E-05-2.85710E-05 5.70461E-09-9.00491E-19-4.75112E-18
 -1      1622 9.52685E-05-2.85720E-05-2.85852E-05 2.94321E-08-9.33979E-19-9.55906E-19
 -1      1623 9.52281E-05-2.85689E-05-2.85667E-05-1.20678E-08 4.28115E-19-2.65324E-18
 -1      1624 9.52177E-05-2.85627E-05-2.85657E-05-8.32167E-09 2.80318E-19-2.86350E-18
 -1      1625 9.52405E-05-2.85678E-05-2.85744E-05-4.82508E-09 1.69367E-19-7.62460E-19
 -1      1626 9.52317E-05-2.85757E-05-2.85642E-05-8.11307E-09-1.54468E-18-1.94069E-18
 -1      1627 9.52466E-05-2.85869E-05-2.85689E-05-3.74814E-09 7.58625E-19 1.68762E-18
 -1      1628 9.52424E-05-2.85799E-05-2.85688E-05-6.65305E-09-1.08090E-18 1.13608E-18
 -1      1629 9.52408E-05-2.85643E-05-2.85764E-05 1.59443E-08 2.00792E-18-3.98214E-20
 -1      1630 9.52435E-05-2.85741E-05-2.85729E-05 1.15225E-08 2.10972E-18-8.49546E-21
 -1      1631 9.52422E-05-2.85557E-05-2.85807E-05 1.10590E-08 5.46939E-19 1.32885E-18
 -1      1632 9.52235E-05-2.85126E-05-2.85909E-05 3.43881E-08 1.94356E-18-7.94087E-20
 -1      1633 9.52327E-05-2.85401E-05-2.85830E-05 3.09612E-08 2.38931E-18 5.06687E-19
 -1      1634 9.52304E-05-2.85175E-05-2.85924E-05 4.78110E-08 1.36021E-18 5.17116E-19
 -1      1635 9.51994E-05-2.84414E-05-2.86109E-05 4.48495E-08 2.21577E-18-1.61703E-18
 -1      1636 9.52124E-05-2.84800E-05-2.85999E-05 4.34581E-08 2.06508E-18 1.12237E-18
 -1      1637 9.52093E-05-2.84589E-05-2.86080E-05 7.67794E-08 9.47868E-19-7.42816E-20
 -1      1638 9.51743E-05-2.83670E-05-2.86318E-05 4.51286E-08-1.69201E-18-1.05728E-18
 -1      1639 9.51876E-05-2.84067E-05-2.86205E-05 4.58511E-08 1.12443E-18-3.51942E-18
 -1      1640 9.51837E-05-2.83896E-05-2.86260E-05 8.85695E-08 6.77218E-19-4.10028E-18
 -1      1641 9.51527E-05-2.83024E-05-2.86501E-05 3.56619E-08-1.81312E-19 8.08418E-19
 -1      1642 9.51637E-05-2.83354E-05-2.86407E-05 3.82459E-08-1.60489E-18 1.16508E-18
 -1      1643 9.51588E-05-2.83219E-05-2.86437E-05 8.11260E-08 4.94565E-20-2.83529E-19
 -1      1644 9.51392E-05-2.82622E-05-2.86615E-05 1.87374E-08-1.08622E-18-7.00348E-19
 -1      1645 9.51454E-05-2.82808E-05-2.86562E-05 2.25511E-08-8.65923E-19 6.37062E-19
 -1      1646 9.51390E-05-2.82677E-05-2.86579E-05 5.65400E-08-1.55746E-18 3.27443E-19
 -1      1647 9.51366E-05-2.82544E-05-2.86638E-05-1.98388E-09-7.25598E-19 3.11440E-19
 -1      1648 9.51367E-05-2.82545E-05-2.86637E-05 2.25664E-09-7.85353E-19-1.38651E-18
 -1      1649 9.51281E-05-2.82379E-05-2.86658E-05 2.03617E-08-1.06226E-18-1.76825E-18
 -1      1650 9.51453E-05-2.82803E-05-2.86564E-05-2.22550E-08-3.35476E-18-2.33587E-18
 -1      1651 9.51392E-05-2.82621E-05-2.86616E-05-1.84510E-08-1.80025E-18-1.56471E-19
 -1      1652 9.51281E-05-2.82379E-05-2.86658E-05-1.98686E-08-5.69055E-19-9.78357E-19
 -1      1653 9.51634E-05-2.83345E-05-2.86410E-05-3.79177E-08-6.66635E-18-3.07817E-18
 -1      1654 9.51525E-05-2.83018E-05-2.86503E-05-3.53523E-08-3.39776E-18-3.00755E-18
 -1      1655 9.51389E-05-2.82676E-05-2.86580E-05-5.59960E-08-3.42870E-18-3.55500E-18
 -1      1656 9.51870E-05-2.84047E-05-2.86211E-05-4.55182E-08-6.93318E-18 1.01109E-18
 -1      1657 9.51738E-05-2.83653E-05-2.86323E-05-4.47720E-08-6.62804E-18-1.26417E-18
 -1      1658 9.51586E-05-2.83211E-05-2.86439E-05-8.04638E-08-2.62591E-18-3.14156E-18
 -1      1659 9.52118E-05-2.84783E-05-2.86004E-05-4.32839E-08-4.29399E-18 9.38986E-19
 -1      1660 9.51989E-05-2.84400E-05-2.86113E-05-4.46464E-08-6.26783E-18 1.89504E-18
 -1      1661 9.51833E-05-2.83885E-05-2.86263E-05-8.80911E-08-2.57150E-18 2.43959E-18
 -1      1662 9.52321E-05-2.85386E-05-2.85835E-05-3.09422E-08-2.17864E-18 1.29565E-18
 -1      1663 9.52229E-05-2.85109E-05-2.85914E-05-3.43246E-08-3.56765E-18 1.49694E-18
 -1      1664 9.52090E-05-2.84582E-05-2.86081E-05-7.65943E-08-2.08040E-18 2.22055E-18
 -1      1665 9.52440E-05-2.85731E-05-2.85734E-05-1.24975E-08-2.86597E-18-9.51969E-19
 -1      1666 9.52397E-05-2.85622E-05-2.85769E-05-1.70893E-08-2.26489E-18 1.69592E-19
 -1      1667 9.52292E-05-2.85159E-05-2.85925E-05-4.80069E-08-9.67804E-19 5.22221E-19
 -1      1668 9.52437E-05-2.85742E-05-2.85719E-05 2.71486E-09-2.34869E-18-4.05760E-19
 -1      1669 9.52466E-05-2.85786E-05-2.85727E-05-1.22614E-09-2.17464E-18-8.58416E-19
 -1      1670 9.52447E-05-2.85459E-05-2.85849E-05-2.04074E-08-7.71897E-19-1.30325E-18
 -1      1671 9.52472E-05-2.85585E-05-2.85799E-05-1.01058E-09 1.95266E-19-5.45528E-19
 -1      1672 2.05092E-05-6.76046E-05 1.40545E-05-7.08734E-06 7.78720E-18 1.41370E-18
 -1      1673 2.35618E-05-7.60840E-05 1.58922E-05 1.45629E-06 4.84566E-18 2.95551E-18
 -1      1674 1.94604E-05-4.11763E-05 4.81006E-06 1.20021E-06 1.06015E-17 5.51080E-18
 -1      1675 2.39530E-05-6.23341E-05 1.02986E-05-1.48003E-06 8.78119E-18 3.23090E-18
 -1      1676 3.06537E-05-1.36445E-05-9.72363E-06 2.33662E-05 1.18373E-17 9.53971E-18
 -1      1677 2.67932E-05-3.47080E-05-1.59985E-06 7.23167E-06 1.18678E-17 5.98598E-18
 -1      1678 7.38201E-05-5.02473E-06-2.90038E-05 5.60408E-05 1.15095E-17 1.15806E-17
 -1      1679 5.02360E-05-1.27335E-05-1.87309E-05 3.26702E-05 1.15129E-17 1.02084E-17
 -1      1680 1.34962E-04-1.47080E-05-4.83206E-05 7.67143E-05 8.88665E-18 1.29401E-17
 -1      1681 9.37438E-05-3.26154E-06-3.86672E-05 6.26037E-05 1.09420E-17 1.23658E-17
 -1      1682 2.03274E-04-4.25127E-05-6.39767E-05 6.25921E-05 5.66326E-18 7.31836E-18
 -1      1683 1.59728E-04-2.18345E-05-5.63607E-05 7.08044E-05 8.50972E-18 1.09055E-17
 -1      1684 2.43582E-04-5.93929E-05-7.29628E-05 2.08014E-05 4.58075E-18-1.69068E-18
 -1      1685 2.17693E-04-4.55000E-05-6.91306E-05 4.94914E-05 5.69143E-18 5.06102E-18
 -1      1686 2.50307E-04-6.17109E-05-7.43635E-05-2.74773E-05 4.35036E-18-1.07378E-17
 -1      1687 2.56080E-04-6.51616E-05-7.52424E-05 8.21053E-06 3.84701E-18-4.42199E-18
 -1      1688 2.03034E-04-3.89636E-05-6.57590E-05-6.24488E-05 6.99940E-18-1.57887E-17
 -1      1689 2.37343E-04-5.70107E-05-7.10258E-05-4.02009E-05 4.81083E-18-1.30193E-17
 -1      1690 1.39412E-04-1.37097E-05-5.15717E-05-7.44833E-05 1.20067E-17-1.82459E-17
 -1      1691 1.83195E-04-3.27970E-05-5.96210E-05-7.42843E-05 8.87945E-18-1.75022E-17
 -1      1692 7.58066E-05-2.13718E-06-3.23226E-05-5.41928E-05 1.61766E-17-1.70144E-17
 -1      1693 1.13725E-04-8.21292E-06-4.27088E-05-7.38994E-05 1.35737E-17-1.82087E-17
 -1      1694 3.70477E-05-1.67462E-05-1.22654E-05-2.23900E-05 1.61233E-17-1.26962E-17
 -1      1695 5.33810E-05-2.24869E-06-2.23765E-05-4.60729E-05 1.64731E-17-1.58819E-17
 -1      1696 2.61160E-05-4.82074E-05 4.07211E-06-3.07029E-06 1.11232E-17-7.26077E-18
 -1      1697 2.57510E-05-2.41778E-05-3.78067E-06-1.49662E-05 1.47011E-17-1.05600E-17
 -1      1698 2.40100E-05-7.21763E-05 1.39594E-05 2.03751E-06 2.70585E-18-4.96626E-18
 -1      1699 1.85710E-05-5.47051E-05 1.00524E-05 5.48601E-06 9.84845E-18-6.77245E-18
 -1      1700 2.26709E-05-7.50649E-05 1.58949E-05-4.36833E-06-8.63571E-18-5.08283E-18
 -1      1701 2.26633E-05-7.50471E-05 1.58651E-05 5.47989E-06-2.45428E-19-4.65106E-18
 -1      1702 1.88065E-05-5.35678E-05 9.65962E-06-3.56542E-06-1.67357E-17-7.01470E-18
 -1      1703 2.39863E-05-7.11728E-05 1.37661E-05-2.14117E-07-1.13685E-17-5.14467E-18
 -1      1704 2.32016E-05-2.19192E-05-3.78790E-06 1.35365E-05-2.03186E-17-1.22197E-17
 -1      1705 2.43284E-05-4.69151E-05 4.08237E-06 1.67193E-06-1.89617E-17-8.69373E-18
 -1      1706 4.99902E-05-2.86343E-06-2.08805E-05 4.36510E-05-1.89337E-17-1.58116E-17
 -1      1707 3.62232E-05-1.63203E-05-1.20012E-05 2.27736E-05-2.00069E-17-1.37728E-17
 -1      1708 9.83305E-05-4.17173E-06-3.84708E-05 6.95542E-05-1.50967E-17-1.77877E-17
 -1      1709 6.85966E-05-2.03898E-06-2.94960E-05 5.09351E-05-1.79715E-17-1.67628E-17
 -1      1710 1.60533E-04-2.31292E-05-5.46723E-05 7.76672E-05-1.06027E-17-1.53321E-17
 -1      1711 1.20615E-04-7.97401E-06-4.66629E-05 7.19914E-05-1.39519E-17-1.72591E-17
 -1      1712 2.19364E-04-4.85805E-05-6.72522E-05 5.90695E-05-5.96888E-18-9.65956E-18
 -1      1713 1.82209E-04-2.95550E-05-6.13913E-05 7.27798E-05-8.86589E-18-1.38143E-17
 -1      1714 2.51459E-04-6.39726E-05-7.38219E-05 1.70964E-05-3.24392E-18-1.98290E-18
 -1      1715 2.33521E-04-5.36536E-05-7.12885E-05 4.66609E-05-4.75058E-18-7.34420E-18
 -1      1716 2.40316E-04-5.71516E-05-7.26797E-05-3.09165E-05-4.13161E-18 5.77084E-18
 -1      1717 2.49556E-04-6.23814E-05-7.39948E-05 1.36241E-06-3.39745E-18 2.15093E-19
 -1      1718 2.00896E-04-3.77540E-05-6.52833E-05-6.70084E-05-6.40029E-18 1.19118E-17
 -1      1719 2.33217E-04-5.52861E-05-7.01154E-05-4.66774E-05-4.26089E-18 8.40850E-18
 -1      1720 1.40544E-04-1.46426E-05-5.16681E-05-7.28414E-05-9.34870E-18 1.41336E-17
 -1      1721 1.81070E-04-3.21276E-05-5.91608E-05-7.24080E-05-6.96515E-18 1.28131E-17
 -1      1722 8.27544E-05-1.63411E-06-3.49655E-05-5.88005E-05-1.13519E-17 1.29537E-17
 -1      1723 1.17130E-04-8.68908E-06-4.38710E-05-7.44448E-05-1.00458E-17 1.42318E-17
 -1      1724 4.62978E-05-1.12943E-05-1.75602E-05-3.20442E-05-1.27275E-17 9.93739E-18
 -1      1725 6.48291E-05-2.81818E-06-2.64164E-05-5.25296E-05-1.20075E-17 1.20914E-17
 -1      1726 2.80576E-05-3.43450E-05-1.85714E-06-9.62626E-06-9.16828E-18 7.64235E-18
 -1      1727 3.17281E-05-1.45762E-05-9.58360E-06-2.44623E-05-1.20448E-17 1.11258E-17
 -1      1728 2.37739E-05-6.06502E-05 9.94176E-06 9.69958E-08-3.28564E-18 3.49420E-18
 -1      1729 1.93467E-05-3.98451E-05 4.50491E-06-2.38019E-06-7.94940E-18 6.44285E-18
 -1      1730 2.28992E-05-7.31237E-05 1.53075E-05-2.57667E-06 3.47866E-18 3.13339E-18
 -1      1731 1.99308E-05-6.39497E-05 1.33030E-05 4.50760E-06-1.50857E-18 2.38059E-18
 -1      1732 1.12069E-04-3.29532E-05-3.33214E-05 4.41295E-05 6.91009E-18 7.55384E-18
 -1      1733 7.00479E-05-3.64331E-05-1.57869E-05 3.82519E-05 5.89874E-18 6.74323E-18
 -1      1734 9.52396E-05-2.85796E-05-2.85674E-05-1.39762E-08-1.40220E-18-1.49375E-19
 -1      1735 9.52400E-05-2.85671E-05-2.85735E-05-1.21140E-08 6.53657E-19 1.97166E-18
 -1      1736 1.80384E-05-4.82461E-05 8.61914E-06 1.26740E-05 3.91075E-18 3.05779E-18
 -1      1737 3.64931E-05-4.17908E-05-1.01058E-06 2.56807E-05 5.31937E-18 4.67904E-18
 -1      1738 1.15514E-05-4.92033E-05 1.16443E-05-1.54815E-06 1.48771E-18 5.08982E-18
 -1      1739 1.55831E-04-3.15069E-05-5.03433E-05 4.14040E-05 6.67907E-18 5.89620E-18
 -1      1740 1.87487E-04-3.16054E-05-6.27751E-05 2.33710E-05 7.45940E-18 1.36161E-18
 -1      1741 2.06646E-04-3.25950E-05-6.96906E-05 4.19817E-06 7.31921E-18-1.98100E-18
 -1      1742 2.06880E-04-3.42705E-05-6.87116E-05-1.44557E-05 6.55053E-18-6.57213E-18
 -1      1743 1.81685E-04-3.23661E-05-5.98277E-05-3.35422E-05 7.39402E-18-1.02660E-17
 -1      1744 1.41932E-04-3.02210E-05-4.55072E-05-4.60981E-05 8.88622E-18-1.13824E-17
 -1      1745 9.48351E-05-3.07778E-05-2.75448E-05-4.39534E-05 9.31059E-18-1.06815E-17
 -1      1746 5.56460E-05-3.78645E-05-9.86097E-06-3.39465E-05 7.55215E-18-9.12636E-18
 -1      1747 2.78466E-05-4.48813E-05 3.70478E-06-2.12736E-05 4.33850E-18-8.08165E-18
 -1      1748 1.38031E-05-5.12220E-05 1.12834E-05-5.86402E-06-5.54807E-20-8.68548E-18
 -1      1749 1.36055E-05-5.00886E-05 1.10689E-05 7.26156E-06-5.26325E-18-8.62449E-18
 -1      1750 2.67204E-05-4.43620E-05 3.80031E-06 2.03253E-05-9.70488E-18-7.92304E-18
 -1      1751 5.29736E-05-3.60610E-05-9.41511E-06 3.34600E-05-1.22032E-17-9.16701E-18
 -1      1752 8.91362E-05-3.02009E-05-2.54659E-05 4.37758E-05-1.17941E-17-9.96958E-18
 -1      1753 1.29662E-04-2.87555E-05-4.14694E-05 4.71541E-05-1.06108E-17-1.02186E-17
 -1      1754 1.69275E-04-3.08825E-05-5.56708E-05 4.14558E-05-8.84768E-18-7.74612E-18
 -1      1755 1.99401E-04-3.38367E-05-6.59075E-05 2.61949E-05-7.41959E-18-4.83656E-18
 -1      1756 2.08995E-04-3.34871E-05-6.99126E-05 4.93216E-06-6.20409E-18-1.66442E-18
 -1      1757 2.02364E-04-3.27346E-05-6.76715E-05-1.80450E-05-5.37485E-18 1.89312E-18
 -1      1758 1.79887E-04-3.21317E-05-5.93549E-05-3.56903E-05-5.57708E-18 5.76660E-18
 -1      1759 1.42909E-04-2.96297E-05-4.62056E-05-4.50542E-05-5.88053E-18 6.94144E-18
 -1      1760 1.02648E-04-3.05939E-05-3.05720E-05-4.51386E-05-5.64420E-18 6.41543E-18
 -1      1761 6.68716E-05-3.53856E-05-1.49386E-05-3.83583E-05-4.95175E-18 6.23077E-18
 -1      1762 3.72752E-05-4.11442E-05-1.32726E-06-2.74824E-05-2.41404E-18 7.16071E-18
 -1      1763 1.81055E-05-4.57670E-05 7.91058E-06-1.47840E-05-4.12082E-19 5.72848E-18
 -1      1764 1.05794E-04-2.31183E-05-3.55176E-05-1.67313E-05-2.50591E-18 7.26098E-18
 -1      1765 8.92032E-05-1.05761E-05-3.38230E-05-1.30875E-05-2.65229E-18-4.43993E-18
 -1      1766 9.05253E-05-1.16393E-05-3.39491E-05-1.49047E-05-3.19099E-18-3.59708E-18
 -1      1767 9.24967E-05-1.38872E-05-3.38508E-05-1.57922E-05-3.28307E-18-2.42987E-18
 -1      1768 9.41639E-05-1.58304E-05-3.40728E-05-1.74641E-05-3.68492E-18-8.49945E-19
 -1      1769 9.34422E-05-1.63413E-05-3.30580E-05-1.35398E-05-3.44969E-18-2.72742E-18
 -1      1770 8.62560E-05-7.58095E-06-3.37898E-05-7.65304E-06-1.08596E-18-5.65031E-18
 -1      1771 8.66691E-05-7.89832E-06-3.38196E-05-9.02620E-06-1.44623E-18-5.57139E-18
 -1      1772 8.56117E-05-6.90329E-06-3.37918E-05-5.15600E-06-3.58935E-19-5.61841E-18
 -1      1773 8.58592E-05-7.09574E-06-3.38052E-05-6.43514E-06-6.92794E-19-5.68008E-18
 -1      1774 8.76069E-05-9.71937E-06-3.34117E-05-6.70892E-06-1.00891E-18-5.45176E-18
 -1      1775 8.52499E-05-6.51159E-06-3.37972E-05-2.79017E-06 3.47315E-19-5.33825E-18
 -1      1776 8.53814E-05-6.61612E-06-3.38025E-05-3.99689E-06 1.78415E-20-5.48491E-18
 -1      1777 8.69329E-05-8.95502E-06-3.34500E-05-4.37276E-06-1.81302E-19-5.33770E-18
 -1      1778 8.51057E-05-6.34729E-06-3.38014E-05-4.97041E-07 1.03395E-18-5.17124E-18
 -1      1779 8.51451E-05-6.37931E-06-3.38027E-05-1.66943E-06 7.55080E-19-5.32286E-18
 -1      1780 8.65708E-05-8.53992E-06-3.34723E-05-2.13034E-06 5.46515E-19-5.12923E-18
 -1      1781 8.51559E-05-6.38849E-06-3.38032E-05 1.78462E-06 1.63771E-18-4.85893E-18
 -1      1782 8.51097E-05-6.35192E-06-3.38014E-05 6.11248E-07 1.39135E-18-5.02944E-18
 -1      1783 8.64621E-05-8.41383E-06-3.34796E-05 6.36724E-08 1.27257E-18-4.93472E-18
 -1      1784 8.54086E-05-6.64178E-06-3.38033E-05 4.11656E-06 2.24678E-18-4.41681E-18
 -1      1785 8.52693E-05-6.53086E-06-3.37976E-05 2.90670E-06 1.95548E-18-4.72520E-18
 -1      1786 8.65898E-05-8.55983E-06-3.34720E-05 2.25887E-06 1.90780E-18-4.63577E-18
 -1      1787 8.58961E-05-7.13264E-06-3.38055E-05 6.52027E-06 2.88130E-18-3.75490E-18
 -1      1788 8.56442E-05-6.93573E-06-3.37924E-05 5.25786E-06 2.52243E-18-4.13484E-18
 -1      1789 8.69689E-05-8.99262E-06-3.34493E-05 4.48452E-06 2.53705E-18-4.09554E-18
 -1      1790 8.67376E-05-7.96904E-06-3.38182E-05 9.14510E-06 3.51853E-18-2.78130E-18
 -1      1791 8.63064E-05-7.63553E-06-3.37890E-05 7.73940E-06 3.14790E-18-3.37032E-18
 -1      1792 8.76612E-05-9.77779E-06-3.34100E-05 6.80136E-06 3.21691E-18-3.35388E-18
 -1      1793 8.81585E-05-9.36198E-06-3.38577E-05 1.20119E-05 4.06774E-18-1.35104E-18
 -1      1794 8.74202E-05-8.78897E-06-3.37947E-05 1.04234E-05 3.75203E-18-2.19286E-18
 -1      1795 8.88172E-05-1.10726E-05-3.33491E-05 9.24258E-06 3.83608E-18-2.24158E-18
 -1      1796 9.06722E-05-1.18459E-05-3.39410E-05 1.50720E-05 4.40441E-18 1.05122E-18
 -1      1797 8.93151E-05-1.07377E-05-3.38164E-05 1.32770E-05 4.17066E-18-3.78597E-19
 -1      1798 9.07237E-05-1.31884E-05-3.32477E-05 1.17103E-05 4.32703E-18-6.60712E-19
 -1      1799 9.58214E-05-1.70376E-05-3.39667E-05 1.74935E-05 3.99904E-18 5.24308E-18
 -1      1800 9.28598E-05-1.43537E-05-3.38229E-05 1.59832E-05 4.18255E-18 2.71972E-18
 -1      1801 9.39930E-05-1.68824E-05-3.30361E-05 1.36556E-05 4.41460E-18 1.94476E-18
 -1      1802 1.01761E-04-2.50583E-05-3.33025E-05 1.42752E-05 3.20994E-18 1.01833E-17
 -1      1803 9.79791E-05-1.96096E-05-3.35865E-05 1.67895E-05 3.60550E-18 6.95753E-18
 -1      1804 9.72846E-05-2.18462E-05-3.24104E-05 1.30519E-05 4.07150E-18 5.12677E-18
 -1      1805 9.86299E-05-2.61045E-05-3.13014E-05 9.29453E-06 3.28241E-18 9.09560E-18
 -1      1806 1.00014E-04-1.95502E-05-3.41642E-05-1.87047E-05-3.28980E-18 2.10107E-18
 -1      1807 9.52807E-05-2.72682E-05-2.91782E-05 3.91566E-06 2.58922E-18 7.36021E-18
 -1      1808 9.76580E-05-2.73621E-05-3.01698E-05 6.25506E-06 2.80641E-18 8.35115E-18
 -1      1809 9.75302E-05-2.55998E-05-3.08201E-05 8.58017E-06 3.35412E-18 6.06932E-18
 -1      1810 9.97206E-05-2.25230E-05-3.28045E-05-1.42869E-05-3.48694E-18 9.69217E-19
 -1      1811 9.69464E-05-2.69624E-05-2.98775E-05-5.51657E-06-2.92671E-18 6.50899E-19
 -1      1812 9.51956E-05-2.70262E-05-2.91862E-05-3.69543E-06-2.54193E-18-9.39810E-20
 -1      1813 9.44272E-05-2.72331E-05-2.86998E-05-2.18621E-06-2.27655E-18-1.46007E-19
 -1      1814 9.37306E-05-2.73272E-05-2.84189E-05-1.30207E-06-1.87799E-18-7.42242E-19
 -1      1815 9.56006E-05-2.65320E-05-2.96226E-05-4.18552E-06-2.77643E-18-1.15606E-18
 -1      1816 9.32766E-05-2.73897E-05-2.81771E-05-4.23017E-07-1.51886E-18-8.29695E-19
 -1      1817 9.30773E-05-2.74742E-05-2.80870E-05 6.21329E-08-1.17286E-18-1.22063E-18
 -1      1818 9.45088E-05-2.72155E-05-2.88620E-05-1.44399E-06-2.05890E-18-1.24761E-18
 -1      1819 9.28966E-05-2.75192E-05-2.79865E-05 5.91054E-07-8.93233E-19-1.43227E-18
 -1      1820 9.30042E-05-2.76257E-05-2.79997E-05 8.80368E-07-7.31545E-19-1.69034E-18
 -1      1821 9.39691E-05-2.75400E-05-2.84883E-05 1.64187E-07-1.33856E-18-1.61764E-18
 -1      1822 9.30278E-05-2.76824E-05-2.79880E-05 1.21921E-06-6.73873E-19-1.77239E-18
 -1      1823 9.33308E-05-2.78110E-05-2.80648E-05 1.40977E-06-5.31923E-19-2.02287E-18
 -1      1824 9.38645E-05-2.77539E-05-2.83483E-05 1.16112E-06-8.95249E-19-1.95775E-18
 -1      1825 9.35037E-05-2.78844E-05-2.81133E-05 1.64907E-06-5.61005E-19-1.97536E-18
 -1      1826 9.39429E-05-2.80322E-05-2.82342E-05 1.79367E-06-5.91489E-19-2.06749E-18
 -1      1827 9.40893E-05-2.79423E-05-2.83606E-05 1.82795E-06-7.36687E-19-2.10004E-18
 -1      1828 9.42295E-05-2.81226E-05-2.83264E-05 1.98778E-06-8.45638E-19-2.05122E-18
 -1      1829 9.47759E-05-2.82892E-05-2.84817E-05 2.11778E-06-9.11826E-19-2.14792E-18
 -1      1830 9.45628E-05-2.81334E-05-2.84792E-05 2.32770E-06-8.59005E-19-2.17316E-18
 -1      1831 9.51561E-05-2.83972E-05-2.86079E-05 2.30008E-06-9.64383E-19-2.08688E-18
 -1      1832 9.57992E-05-2.85854E-05-2.87932E-05 2.43402E-06-6.03762E-19-2.23647E-18
 -1      1833 9.52351E-05-2.83409E-05-2.86769E-05 2.75956E-06-9.41346E-19-2.36003E-18
 -1      1834 9.62640E-05-2.87139E-05-2.89480E-05 2.62326E-06-5.10118E-19-2.43493E-18
 -1      1835 9.70032E-05-2.89291E-05-2.91619E-05 2.76957E-06-4.78579E-19-2.72746E-18
 -1      1836 9.60807E-05-2.85767E-05-2.89375E-05 3.18275E-06-8.31565E-19-2.21381E-18
 -1      1837 9.75503E-05-2.90831E-05-2.93416E-05 2.97141E-06-5.85569E-19-2.73301E-18
 -1      1838 9.83882E-05-2.93327E-05-2.95832E-05 3.12801E-06-4.70617E-19-2.98247E-18
 -1      1839 9.70914E-05-2.88562E-05-2.92505E-05 3.62548E-06-6.47896E-19-2.25730E-18
 -1      1840 9.90190E-05-2.95202E-05-2.97842E-05 3.33363E-06-4.17999E-19-3.00544E-18
 -1      1841 9.99541E-05-2.98123E-05-3.00510E-05 3.48543E-06-3.75334E-19-3.13239E-18
 -1      1842 9.82696E-05-2.92009E-05-2.96076E-05 4.08523E-06-4.52974E-19-2.34708E-18
 -1      1843 1.00670E-04-3.00437E-05-3.02680E-05 3.66771E-06-1.15335E-19-3.16921E-18
 -1      1844 1.01688E-04-3.03855E-05-3.05533E-05 3.78247E-06 3.03873E-20-2.79501E-18
 -1      1845 9.96213E-05-2.96397E-05-2.99988E-05 4.52334E-06-2.67412E-19-2.44807E-18
 -1      1846 1.02487E-04-3.06736E-05-3.07774E-05 3.89085E-06-8.83819E-20-2.52913E-18
 -1      1847 1.03550E-04-3.10678E-05-3.10674E-05 3.91462E-06-1.79953E-19-2.31497E-18
 -1      1848 1.01150E-04-3.02090E-05-3.04095E-05 4.85550E-06-4.78752E-20-1.57791E-18
 -1      1849 1.04420E-04-3.14247E-05-3.12852E-05 3.87030E-06-2.58470E-19-2.33750E-18
 -1      1850 1.05455E-04-3.18630E-05-3.15564E-05 3.72531E-06-5.14506E-21-2.00187E-18
 -1      1851 1.02845E-04-3.09489E-05-3.08183E-05 4.94111E-06-1.20587E-19-1.68283E-18
 -1      1852 1.06368E-04-3.22933E-05-3.17496E-05 3.42186E-06 4.57265E-21-1.89921E-18
 -1      1853 1.07255E-04-3.27452E-05-3.19672E-05 3.01334E-06 3.50007E-19-2.02300E-18
 -1      1854 1.04673E-04-3.18894E-05-3.11967E-05 4.57849E-06 1.36386E-19-1.23380E-18
 -1      1855 1.08154E-04-3.32300E-05-3.21153E-05 2.33214E-06 1.06342E-20-2.48681E-18
 -1      1856 1.08723E-04-3.36256E-05-3.22369E-05 1.57470E-06-4.77531E-19-2.77226E-18
 -1      1857 1.06547E-04-3.30179E-05-3.15124E-05 3.52091E-06-2.39758E-19-1.45959E-18
 -1      1858 1.09496E-04-3.40957E-05-3.23226E-05 4.30605E-07-5.96768E-19-2.66641E-18
 -1      1859 1.09543E-04-3.43088E-05-3.23070E-05-6.94212E-07-5.00821E-19-2.55073E-18
 -1      1860 1.08294E-04-3.42186E-05-3.17385E-05 1.53959E-06-4.27424E-19-1.44844E-18
 -1      1861 1.10009E-04-3.46166E-05-3.23250E-05-2.26373E-06-1.97286E-19-2.03655E-18
 -1      1862 1.09350E-04-3.44684E-05-3.21507E-05-3.62007E-06 2.64592E-19-1.93817E-18
 -1      1863 1.09603E-04-3.51969E-05-3.18677E-05-1.43432E-06-9.84246E-20-1.32627E-18
 -1      1864 1.09274E-04-3.43914E-05-3.21152E-05-5.33275E-06 6.08501E-19-1.67836E-18
 -1      1865 1.07852E-04-3.37140E-05-3.18010E-05-6.55224E-06 9.02054E-19-1.89324E-18
 -1      1866 1.10023E-04-3.54453E-05-3.19252E-05-5.08071E-06 4.95398E-19-7.43725E-19
 -1      1867 1.07054E-04-3.30568E-05-3.17450E-05-7.80772E-06 8.21208E-19-1.99104E-18
 -1      1868 1.05075E-04-3.18475E-05-3.13608E-05-8.32362E-06 3.47924E-19-1.92907E-18
 -1      1869 1.09089E-04-3.43952E-05-3.19671E-05-8.45540E-06 6.61003E-19-1.12578E-18
 -1      1870 1.03672E-04-3.06664E-05-3.13184E-05-8.35436E-06 1.45319E-20-1.84956E-18
 -1      1871 1.01679E-04-2.92590E-05-3.09710E-05-7.66191E-06-2.57055E-19-1.36721E-18
 -1      1872 1.06709E-04-3.18678E-05-3.20481E-05-1.00244E-05 4.67300E-19-1.33725E-18
 -1      1873 1.00261E-04-2.80455E-05-3.09546E-05-6.02344E-06-9.56730E-19-1.79009E-18
 -1      1874 9.89891E-05-2.70710E-05-3.07492E-05-4.10972E-06-8.20722E-19-2.04219E-18
 -1      1875 1.03631E-04-2.86212E-05-3.21706E-05-8.33799E-06-7.55342E-19-1.32311E-18
 -1      1876 9.83818E-05-2.65452E-05-3.07474E-05-1.22410E-06-3.89423E-19-2.80524E-18
 -1      1877 9.83811E-05-2.65413E-05-3.07481E-05 1.21652E-06-1.15144E-19-2.88726E-18
 -1      1878 1.01407E-04-2.62813E-05-3.22682E-05-3.27134E-06-8.27564E-19-2.07760E-18
 -1      1879 9.89889E-05-2.70603E-05-3.07524E-05 4.11112E-06-5.83884E-19-3.83004E-18
 -1      1880 1.00265E-04-2.80327E-05-3.09597E-05 6.03578E-06-1.00216E-18-4.40951E-18
 -1      1881 1.01405E-04-2.62696E-05-3.22709E-05 3.27229E-06-7.19310E-19-3.64466E-18
 -1      1882 1.01693E-04-2.92491E-05-3.09798E-05 7.68974E-06-8.82426E-19-4.31479E-18
 -1      1883 1.03699E-04-3.06593E-05-3.13309E-05 8.39442E-06-9.49663E-19-4.84081E-18
 -1      1884 1.03638E-04-2.85998E-05-3.21798E-05 8.36877E-06-9.41543E-19-3.54904E-18
 -1      1885 1.05115E-04-3.18436E-05-3.13788E-05 8.38026E-06-5.43004E-19-4.77918E-18
 -1      1886 1.07113E-04-3.30584E-05-3.17687E-05 7.87805E-06 3.31054E-19-4.56365E-18
 -1      1887 1.06742E-04-3.18559E-05-3.20672E-05 1.00892E-05-4.84537E-19-3.38603E-18
 -1      1888 1.07931E-04-3.37220E-05-3.18311E-05 6.64010E-06 7.50537E-19-4.67000E-18
 -1      1889 1.09381E-04-3.44077E-05-3.21532E-05 5.43413E-06 1.27676E-18-4.06134E-18
 -1      1890 1.09156E-04-3.43901E-05-3.19978E-05 8.55911E-06 4.98684E-19-4.07069E-18
 -1      1891 1.09482E-04-3.44918E-05-3.21967E-05 3.73895E-06 1.00649E-18-4.60908E-18
 -1      1892 1.10177E-04-3.46501E-05-3.23814E-05 2.39681E-06 5.31520E-19-4.40240E-18
 -1      1893 1.10135E-04-3.54545E-05-3.19698E-05 5.22279E-06 1.06362E-18-4.22884E-18
 -1      1894 1.09740E-04-3.43500E-05-3.23737E-05 8.46689E-07 1.86149E-20-4.15484E-18
 -1      1895 1.09739E-04-3.41488E-05-3.24027E-05-2.61654E-07-7.40029E-20-3.60218E-18
 -1      1896 1.09769E-04-3.52194E-05-3.19297E-05 1.61749E-06 4.95812E-19-3.84119E-18
 -1      1897 1.09002E-04-3.36870E-05-3.23299E-05-1.38214E-06-1.43764E-19-3.48585E-18
 -1      1898 1.08491E-04-3.33059E-05-3.22255E-05-2.11896E-06 3.70550E-19-2.97915E-18
 -1      1899 1.08525E-04-3.42554E-05-3.18226E-05-1.30854E-06 3.74835E-19-2.72049E-18
 -1      1900 1.07637E-04-3.28313E-05-3.20935E-05-2.77040E-06 8.71958E-19-2.80397E-18
 -1      1901 1.06822E-04-3.23977E-05-3.18972E-05-3.15296E-06 7.09867E-19-1.91649E-18
 -1      1902 1.06859E-04-3.30699E-05-3.16244E-05-3.23005E-06 7.75118E-19-1.50866E-18
 -1      1903 1.05964E-04-3.19802E-05-3.17238E-05-3.41960E-06 9.59794E-20-2.02001E-18
 -1      1904 1.05018E-04-3.15654E-05-3.14791E-05-3.53267E-06 5.62863E-19-1.86469E-18
 -1      1905 1.05084E-04-3.19608E-05-3.13430E-05-4.21326E-06 7.57522E-19-1.71713E-18
 -1      1906 1.04216E-04-3.12249E-05-3.12851E-05-3.53299E-06 1.29417E-19-2.32297E-18
 -1      1907 1.03263E-04-3.08609E-05-3.10274E-05-3.47143E-06 2.09086E-19-2.35131E-18
 -1      1908 1.03378E-04-3.10459E-05-3.10059E-05-4.48582E-06-3.32816E-20-1.11079E-18
 -1      1909 1.02545E-04-3.05935E-05-3.08312E-05-3.31268E-06-4.43361E-20-2.65073E-18
 -1      1910 1.01662E-04-3.02895E-05-3.05848E-05-3.15499E-06-2.27392E-19-1.76659E-18
 -1      1911 1.01829E-04-3.03400E-05-3.06456E-05-4.29541E-06-1.17028E-19-1.68542E-18
 -1      1912 1.01040E-04-3.00834E-05-3.03997E-05-2.91774E-06-4.46386E-19-1.47890E-18
 -1      1913 1.00264E-04-2.98380E-05-3.01786E-05-2.71946E-06 4.80556E-19-2.14331E-18
 -1      1914 1.00475E-04-2.98146E-05-3.02905E-05-3.84675E-06 9.32894E-21-1.51811E-18
 -1      1915 9.97387E-05-2.96808E-05-3.00128E-05-2.45745E-06 1.46810E-18-3.15682E-18
 -1      1916 9.90851E-05-2.94875E-05-2.98234E-05-2.25363E-06 6.82267E-19-1.96722E-18
 -1      1917 9.93231E-05-2.94311E-05-2.99609E-05-3.28622E-06 2.70835E-19-1.84307E-18
 -1      1918 9.86515E-05-2.93685E-05-2.96806E-05-1.99927E-06 4.00592E-19-2.82006E-18
 -1      1919 9.81186E-05-2.92195E-05-2.95241E-05-1.80964E-06 6.38716E-20-2.49002E-18
 -1      1920 9.83656E-05-2.91544E-05-2.96686E-05-2.70794E-06 3.80685E-19-2.71751E-18
 -1      1921 9.77681E-05-2.91302E-05-2.94050E-05-1.58019E-06-3.32927E-19-1.52909E-18
 -1      1922 9.73453E-05-2.90177E-05-2.92795E-05-1.41416E-06-1.17518E-18-1.04999E-18
 -1      1923 9.75864E-05-2.89564E-05-2.94189E-05-2.16632E-06 3.73524E-19-3.28100E-18
 -1      1924 9.70677E-05-2.89513E-05-2.91830E-05-1.21696E-06-1.85813E-18-1.12202E-18
 -1      1925 9.67407E-05-2.88681E-05-2.90849E-05-1.07753E-06-1.23383E-18-1.01135E-18
 -1      1926 9.69647E-05-2.88161E-05-2.92118E-05-1.68845E-06-1.45534E-18-7.73349E-19
 -1      1927 9.65250E-05-2.88194E-05-2.90085E-05-9.13869E-07-1.69202E-18-1.31129E-18
 -1      1928 9.62782E-05-2.87592E-05-2.89337E-05-8.00325E-07-3.77197E-19-1.76036E-18
 -1      1929 9.64783E-05-2.87179E-05-2.90447E-05-1.28390E-06-1.31920E-18-7.54974E-19
 -1      1930 9.61141E-05-2.87241E-05-2.88748E-05-6.68072E-07 1.07412E-18-2.75597E-18
 -1      1931 9.59326E-05-2.86818E-05-2.88193E-05-5.77738E-07 5.44480E-19-2.98570E-18
 -1      1932 9.61052E-05-2.86503E-05-2.89130E-05-9.51806E-07-4.28214E-19-1.02144E-18
 -1      1933 9.58104E-05-2.86569E-05-2.87749E-05-4.73045E-07 5.83908E-19-1.76865E-18
 -1      1934 9.56810E-05-2.86281E-05-2.87348E-05-4.02384E-07 1.83190E-18-2.47619E-19
 -1      1935 9.58248E-05-2.86047E-05-2.88117E-05-6.85601E-07 1.46562E-18-5.35414E-19
 -1      1936 9.55921E-05-2.86109E-05-2.87023E-05-3.20762E-07 1.95525E-18 1.87897E-19
 -1      1937 9.55035E-05-2.85923E-05-2.86745E-05-2.66054E-07 1.65275E-18 3.01595E-19
 -1      1938 9.56189E-05-2.85747E-05-2.87356E-05-4.76093E-07 1.98313E-18 7.17555E-19
 -1      1939 9.54406E-05-2.85806E-05-2.86513E-05-2.03110E-07 1.97715E-19 5.54378E-20
 -1      1940 9.53834E-05-2.85696E-05-2.86331E-05-1.60977E-07 3.54023E-19-6.15810E-20
 -1      1941 9.54713E-05-2.85557E-05-2.86800E-05-3.13466E-07 6.19122E-19 1.67202E-20
 -1      1942 9.53399E-05-2.85623E-05-2.86170E-05-1.12680E-07 1.05108E-18-1.05066E-18
 -1      1943 9.53068E-05-2.85575E-05-2.86058E-05-8.08262E-08 1.59511E-18-9.48600E-21
 -1      1944 9.53684E-05-2.85443E-05-2.86402E-05-1.88744E-07 2.34981E-19 2.45717E-19
 -1      1945 9.52801E-05-2.85550E-05-2.85951E-05-4.68739E-08 2.63859E-18-7.64161E-19
 -1      1946 9.52640E-05-2.85563E-05-2.85882E-05-2.56211E-08 1.74985E-18-4.77155E-19
 -1      1947 9.52639E-05-2.85507E-05-2.85923E-05-3.37219E-08 1.11854E-18 2.68948E-19
 -1      1948 9.53020E-05-2.85427E-05-2.86126E-05-9.68214E-08 1.35801E-18 4.56062E-19
 -1      1949 9.33010E-05-2.73694E-05-2.82269E-05 1.41400E-06 2.05511E-18 5.79765E-18
 -1      1950 9.44299E-05-2.74593E-05-2.86425E-05 2.50357E-06 2.19763E-18 6.71814E-18
 -1      1951 9.52785E-05-2.70421E-05-2.92505E-05 3.83857E-06 2.73985E-18 4.90335E-18
 -1      1952 9.24106E-05-2.73921E-05-2.78385E-05 8.70319E-08 1.60876E-18 4.68408E-18
 -1      1953 9.28176E-05-2.74026E-05-2.79833E-05 6.67445E-07 1.64700E-18 5.29153E-18
 -1      1954 9.38026E-05-2.73844E-05-2.84731E-05 1.30080E-06 2.13965E-18 3.92952E-18
 -1      1955 9.22571E-05-2.74820E-05-2.77424E-05-6.70813E-07 1.07194E-18 3.77077E-18
 -1      1956 9.22519E-05-2.74242E-05-2.77518E-05-3.30115E-07 1.28529E-18 4.36923E-18
 -1      1957 9.31466E-05-2.75326E-05-2.81319E-05-1.19887E-07 1.61232E-18 3.07101E-18
 -1      1958 9.25854E-05-2.76468E-05-2.78171E-05-1.14171E-06 5.84171E-19 3.26272E-18
 -1      1959 9.23314E-05-2.75407E-05-2.77492E-05-9.21491E-07 8.05985E-19 3.62618E-18
 -1      1960 9.30712E-05-2.76743E-05-2.80394E-05-9.66979E-07 1.05818E-18 2.31577E-18
 -1      1961 9.32441E-05-2.78725E-05-2.80046E-05-1.47352E-06 4.43091E-19 2.69253E-18
 -1      1962 9.28255E-05-2.77320E-05-2.78860E-05-1.31146E-06 4.18673E-19 3.08212E-18
 -1      1963 9.33975E-05-2.78489E-05-2.81032E-05-1.52019E-06 6.80942E-19 1.83779E-18
 -1      1964 9.41535E-05-2.81492E-05-2.82763E-05-1.75295E-06 5.49866E-19 2.66080E-18
 -1      1965 9.36103E-05-2.79808E-05-2.81189E-05-1.61166E-06 4.64080E-19 2.77591E-18
 -1      1966 9.40148E-05-2.80613E-05-2.82753E-05-1.93447E-06 5.93519E-19 1.46080E-18
 -1      1967 9.52809E-05-2.84749E-05-2.86197E-05-2.03593E-06 5.62456E-19 2.06725E-18
 -1      1968 9.46265E-05-2.82792E-05-2.84279E-05-1.89056E-06 5.82866E-19 2.54931E-18
 -1      1969 9.48630E-05-2.83114E-05-2.85307E-05-2.30424E-06 6.87337E-19 1.63377E-18
 -1      1970 9.66250E-05-2.88550E-05-2.90323E-05-2.35929E-06 2.99796E-19 2.45663E-18
 -1      1971 9.58560E-05-2.86282E-05-2.88056E-05-2.19284E-06 3.32278E-19 2.29885E-18
 -1      1972 9.59183E-05-2.86029E-05-2.88577E-05-2.69066E-06 4.32070E-19 1.54993E-18
 -1      1973 9.82040E-05-2.93008E-05-2.95173E-05-2.74395E-06 6.95773E-19 2.30234E-18
 -1      1974 9.73069E-05-2.90359E-05-2.92525E-05-2.54618E-06 5.37148E-19 2.41357E-18
 -1      1975 9.71810E-05-2.89446E-05-2.92527E-05-3.13200E-06 5.94843E-19 1.58676E-18
 -1      1976 1.00044E-04-2.98285E-05-3.00799E-05-3.19232E-06 5.82949E-19 2.17971E-18
 -1      1977 9.90024E-05-2.95165E-05-2.97731E-05-2.96130E-06 6.74447E-19 2.20795E-18
 -1      1978 9.86663E-05-2.93513E-05-2.97156E-05-3.64500E-06 7.39772E-19 1.19334E-18
 -1      1979 1.02168E-04-3.04575E-05-3.07218E-05-3.68015E-06 4.35036E-19 1.59582E-18
 -1      1980 1.00969E-04-3.00891E-05-3.03711E-05-3.42652E-06 4.21728E-19 1.73441E-18
 -1      1981 1.00395E-04-2.98445E-05-3.02462E-05-4.21934E-06 6.98131E-19 1.31969E-18
 -1      1982 1.04575E-04-3.12084E-05-3.14354E-05-4.14190E-06-4.70997E-20 1.60978E-18
 -1      1983 1.03224E-04-3.07759E-05-3.10447E-05-3.89647E-06 2.86817E-20 1.63415E-18
 -1      1984 1.02384E-04-3.04531E-05-3.08391E-05-4.80520E-06 1.55857E-19 9.11141E-19
 -1      1985 1.07219E-04-3.20976E-05-3.21949E-05-4.44985E-06-3.55766E-19 1.65741E-18
 -1      1986 1.05753E-04-3.16002E-05-3.17788E-05-4.27460E-06-1.04350E-19 1.66081E-18
 -1      1987 1.04633E-04-3.12132E-05-3.14779E-05-5.29352E-06-1.15677E-19 1.06529E-18
 -1      1988 1.09974E-04-3.31267E-05-3.29465E-05-4.39196E-06-3.32891E-20 1.68552E-18
 -1      1989 1.08487E-04-3.25780E-05-3.25371E-05-4.39219E-06-4.11542E-19 1.42481E-18
 -1      1990 1.07104E-04-3.21641E-05-3.21293E-05-5.49161E-06-3.68894E-19 1.10754E-18
 -1      1991 1.12597E-04-3.42572E-05-3.36013E-05-3.66558E-06 7.49042E-19 2.01364E-18
 -1      1992 1.11261E-04-3.37005E-05-3.32526E-05-3.99432E-06 3.56541E-19 1.89398E-18
 -1      1993 1.09698E-04-3.33310E-05-3.27386E-05-5.10541E-06 2.93770E-19 1.74053E-18
 -1      1994 1.14694E-04-3.53626E-05-3.40389E-05-1.92805E-06 4.72155E-20 2.48223E-18
 -1      1995 1.13772E-04-3.48933E-05-3.38258E-05-2.76129E-06 7.58359E-19 2.39251E-18
 -1      1996 1.12215E-04-3.46784E-05-3.32321E-05-3.75786E-06 5.29389E-19 2.33498E-18
 -1      1997 1.15708E-04-3.61579E-05-3.41349E-05 1.02835E-06-9.17588E-19 2.58030E-18
 -1      1998 1.15534E-04-3.59465E-05-3.41370E-05-4.18722E-07-4.59959E-19 2.70625E-18
 -1      1999 1.14294E-04-3.60178E-05-3.35335E-05-1.10249E-06-2.00191E-19 2.77803E-18
 -1      2000 1.15016E-04-3.61598E-05-3.38202E-05 4.93152E-06-1.20091E-18 3.07121E-18
 -1      2001 1.15899E-04-3.64421E-05-3.40848E-05 3.00491E-06-1.16974E-18 2.78012E-18
 -1      2002 1.15377E-04-3.68951E-05-3.35993E-05 2.89567E-06-1.16600E-18 3.21817E-18
 -1      2003 1.12192E-04-3.48229E-05-3.31525E-05 8.61799E-06 2.25751E-19 3.52003E-18
 -1      2004 1.14225E-04-3.57886E-05-3.36470E-05 6.79781E-06-9.27978E-19 3.31321E-18
 -1      2005 1.14782E-04-3.65841E-05-3.34584E-05 7.51619E-06-7.85100E-19 3.26603E-18
 -1      2006 1.07571E-04-3.20514E-05-3.23446E-05 1.00585E-05 9.96089E-19 3.17669E-18
 -1      2007 1.10377E-04-3.35935E-05-3.29313E-05 9.34547E-06 9.62307E-19 3.69812E-18
 -1      2008 1.12106E-04-3.44835E-05-3.32210E-05 1.09421E-05 6.15930E-19 3.37852E-18
 -1      2009 1.02767E-04-2.88328E-05-3.16921E-05 7.46196E-06 1.07275E-18 2.48162E-18
 -1      2010 1.05382E-04-3.03431E-05-3.21655E-05 8.68989E-06 1.02713E-18 2.60946E-18
 -1      2011 1.07968E-04-3.09299E-05-3.30213E-05 1.07531E-05 1.54277E-18 2.77792E-18
 -1      2012 1.00296E-04-2.70920E-05-3.14312E-05 1.16610E-06 6.33792E-19 1.37889E-18
 -1      2013 1.01503E-04-2.76927E-05-3.16115E-05 4.08666E-06 8.39542E-19 2.16737E-18
 -1      2014 1.04383E-04-2.77070E-05-3.29310E-05 5.71235E-06 1.10642E-18 2.07522E-18
 -1      2015 1.01779E-04-2.81181E-05-3.16447E-05-5.76337E-06 4.69997E-19 8.69691E-19
 -1      2016 1.00907E-04-2.73995E-05-3.14619E-05-2.63349E-06 4.16661E-19 8.70088E-19
 -1      2017 1.03654E-04-2.69864E-05-3.29370E-05-2.32801E-06 6.02955E-19 1.25497E-18
 -1      2018 1.06361E-04-3.11754E-05-3.22574E-05-9.74702E-06 7.27667E-19-6.95599E-19
 -1      2019 1.03855E-04-2.96173E-05-3.17816E-05-7.97877E-06 8.25910E-19 5.35484E-20
 -1      2020 1.06302E-04-2.93161E-05-3.30221E-05-9.13404E-06 1.26369E-18-6.99788E-19
 -1      2021 1.11506E-04-3.43090E-05-3.30618E-05-9.49033E-06 1.12445E-18 2.03063E-19
 -1      2022 1.08561E-04-3.27894E-05-3.24708E-05-9.56578E-06 1.08727E-18-2.69515E-19
 -1      2023 1.10535E-04-3.30288E-05-3.31959E-05-1.14953E-05 1.12138E-18-8.60810E-19
 -1      2024 1.15063E-04-3.61196E-05-3.37811E-05-6.28946E-06-5.06579E-19-4.15999E-19
 -1      2025 1.12786E-04-3.52080E-05-3.32787E-05-7.60617E-06-1.10518E-19-1.99767E-19
 -1      2026 1.14004E-04-3.59346E-05-3.34346E-05-9.40301E-06 2.49074E-19 1.94573E-19
 -1      2027 1.16320E-04-3.64388E-05-3.41879E-05-2.29161E-06 4.75662E-19-8.77056E-19
 -1      2028 1.15211E-04-3.61985E-05-3.39113E-05-3.94654E-06 4.81750E-20 1.51966E-19
 -1      2029 1.15491E-04-3.70146E-05-3.36308E-05-5.04320E-06 1.63716E-19 4.67377E-19
 -1      2030 1.15628E-04-3.57774E-05-3.41949E-05 1.00984E-06 5.67678E-19-6.77157E-19
 -1      2031 1.15639E-04-3.60046E-05-3.41770E-05-3.68065E-07 6.14972E-19-8.61479E-19
 -1      2032 1.15075E-04-3.65664E-05-3.36605E-05-6.45475E-07 7.61516E-19 8.04814E-19
 -1      2033 1.13697E-04-3.46947E-05-3.38502E-05 3.09222E-06-4.53745E-19 1.70419E-19
 -1      2034 1.14510E-04-3.51580E-05-3.40438E-05 2.20888E-06-9.21148E-20-5.89581E-19
 -1      2035 1.13399E-04-3.53536E-05-3.34647E-05 2.59413E-06 2.16543E-19 9.18349E-19
 -1      2036 1.11170E-04-3.35473E-05-3.32704E-05 4.05691E-06 1.64493E-19-9.43959E-19
 -1      2037 1.12427E-04-3.40846E-05-3.35962E-05 3.63208E-06-6.28826E-19-7.49293E-19
 -1      2038 1.11098E-04-3.39768E-05-3.30647E-05 4.43629E-06-2.53250E-19-8.16781E-19
 -1      2039 1.08500E-04-3.25023E-05-3.25788E-05 4.23199E-06-1.37798E-19 2.51314E-19
 -1      2040 1.09916E-04-3.30235E-05-3.29617E-05 4.13515E-06 1.21165E-19-6.60156E-20
 -1      2041 1.08618E-04-3.27355E-05-3.25282E-05 5.13651E-06-1.59946E-19-7.94983E-19
 -1      2042 1.05963E-04-3.16147E-05-3.18723E-05 3.94346E-06-7.23233E-19 7.65400E-19
 -1      2043 1.07349E-04-3.20784E-05-3.22573E-05 4.04251E-06-5.43094E-19 1.27024E-18
 -1      2044 1.06220E-04-3.17204E-05-3.19321E-05 5.07992E-06-9.42396E-19 3.83004E-19
 -1      2045 1.03701E-04-3.08879E-05-3.12133E-05 3.43398E-06 1.08270E-18 4.00877E-19
 -1      2046 1.04954E-04-3.12800E-05-3.15671E-05 3.62930E-06 3.22776E-19 1.14754E-18
 -1      2047 1.04047E-04-3.09253E-05-3.13394E-05 4.60327E-06 4.94066E-19 1.21444E-18
 -1      2048 1.01772E-04-3.03061E-05-3.06339E-05 2.85761E-06 7.87284E-19 2.15911E-20
 -1      2049 1.02845E-04-3.06267E-05-3.09408E-05 3.08514E-06 9.62335E-19 5.19977E-19
 -1      2050 1.02159E-04-3.03134E-05-3.07919E-05 3.94442E-06 9.30294E-19 1.40468E-18
 -1      2051 1.00179E-04-2.98480E-05-3.01458E-05 2.30045E-06-7.03178E-19-7.07721E-19
 -1      2052 1.01064E-04-3.01034E-05-3.04012E-05 2.52379E-06-7.37001E-20-3.36505E-19
 -1      2053 1.00570E-04-2.98460E-05-3.03115E-05 3.24978E-06 4.44241E-19 5.34932E-19
 -1      2054 9.88979E-05-2.94925E-05-2.97475E-05 1.80393E-06 4.65790E-19-6.04277E-19
 -1      2055 9.96072E-05-2.96919E-05-2.99535E-05 2.00505E-06-2.08385E-19-5.91109E-19
 -1      2056 9.92684E-05-2.94906E-05-2.99061E-05 2.59884E-06-3.72541E-19-2.87862E-19
 -1      2057 9.78897E-05-2.92208E-05-2.94308E-05 1.38292E-06-6.36692E-19-2.33862E-19
 -1      2058 9.84445E-05-2.93734E-05-2.95928E-05 1.55488E-06-3.31021E-19-2.70916E-19
 -1      2059 9.82244E-05-2.92219E-05-2.95740E-05 2.02807E-06-4.76448E-19-3.94179E-19
 -1      2060 9.71126E-05-2.90164E-05-2.91846E-05 1.03784E-06-7.39417E-21 3.87073E-19
 -1      2061 9.75372E-05-2.91310E-05-2.93092E-05 1.17983E-06 2.83248E-19-7.52911E-20
 -1      2062 9.74041E-05-2.90207E-05-2.93088E-05 1.54854E-06-4.29627E-19 6.67347E-19
 -1      2063 9.65254E-05-2.88653E-05-2.89972E-05 7.61969E-07-1.27384E-19 2.36125E-19
 -1      2064 9.68436E-05-2.89496E-05-2.90911E-05 8.76272E-07-1.39445E-19 4.52709E-19
 -1      2065 9.67719E-05-2.88718E-05-2.91016E-05 1.15767E-06 2.68552E-20 1.37274E-18
 -1      2066 9.60910E-05-2.87558E-05-2.88577E-05 5.45629E-07 1.33395E-19 3.02728E-19
 -1      2067 9.63242E-05-2.88165E-05-2.89268E-05 6.35907E-07 1.79833E-19 5.19927E-19
 -1      2068 9.62939E-05-2.87634E-05-2.89432E-05 8.46256E-07-2.05350E-19 8.44717E-19
 -1      2069 9.57774E-05-2.86785E-05-2.87562E-05 3.78429E-07 9.33816E-19-7.27018E-19
 -1      2070 9.59438E-05-2.87210E-05-2.88058E-05 4.48769E-07 2.54390E-19 1.03664E-19
 -1      2071 9.59400E-05-2.86859E-05-2.88245E-05 6.02506E-07 7.14136E-19 4.67312E-19
 -1      2072 9.55578E-05-2.86257E-05-2.86846E-05 2.50433E-07-1.54972E-19-1.61605E-18
 -1      2073 9.56725E-05-2.86542E-05-2.87190E-05 3.04839E-07 5.47444E-19-1.07605E-18
 -1      2074 9.56841E-05-2.86320E-05-2.87378E-05 4.14223E-07 6.87730E-19 5.48709E-19
 -1      2075 9.54104E-05-2.85913E-05-2.86362E-05 1.52762E-07 5.29587E-19-7.79702E-19
 -1      2076 9.54855E-05-2.86093E-05-2.86589E-05 1.94898E-07 1.81781E-20-8.80936E-19
 -1      2077 9.55045E-05-2.85955E-05-2.86763E-05 2.70014E-07-2.55164E-19 8.34615E-19
 -1      2078 9.53179E-05-2.85710E-05-2.86054E-05 7.84791E-08-2.79285E-19 7.61804E-19
 -1      2079 9.53630E-05-2.85810E-05-2.86191E-05 1.11211E-07 3.51395E-19-2.97741E-19
 -1      2080 9.53832E-05-2.85725E-05-2.86341E-05 1.60193E-07 4.18199E-19 6.68700E-19
 -1      2081 9.52664E-05-2.85622E-05-2.85869E-05 2.41816E-08-1.42233E-18 6.78021E-19
 -1      2082 9.52888E-05-2.85658E-05-2.85945E-05 4.82568E-08-2.62610E-19 1.28141E-18
 -1      2083 9.53058E-05-2.85598E-05-2.86062E-05 7.75548E-08-5.73302E-19 2.59068E-18
 -1      2084 9.52474E-05-2.85644E-05-2.85777E-05-2.11532E-09 1.56662E-19 1.81342E-18
 -1      2085 9.52549E-05-2.85606E-05-2.85826E-05 1.17875E-08-1.25513E-18 9.08182E-19
 -1      2086 9.52666E-05-2.85557E-05-2.85908E-05 2.84947E-08-9.17569E-19 2.26430E-18
 -1      2087 9.52511E-05-2.85623E-05-2.85807E-05 3.55916E-09-1.69538E-19 2.79926E-18
 -1      2088 9.52005E-05-2.84110E-05-2.86245E-05 1.21127E-07 1.08533E-18 6.49181E-20
 -1      2089 9.52164E-05-2.84437E-05-2.86161E-05 1.09523E-07 1.07022E-18 1.22949E-18
 -1      2090 9.52333E-05-2.84813E-05-2.86081E-05 9.00567E-08 9.18741E-19 1.67933E-18
 -1      2091 9.52440E-05-2.85065E-05-2.86010E-05 6.98060E-08 1.67399E-19 2.12187E-18
 -1      2092 9.52271E-05-2.84370E-05-2.86246E-05 1.36116E-07 6.22370E-19 1.23088E-18
 -1      2093 9.52500E-05-2.85317E-05-2.85934E-05 4.56490E-08-3.38586E-19 1.45973E-18
 -1      2094 9.52526E-05-2.85467E-05-2.85877E-05 2.58773E-08-1.61527E-19 2.06437E-18
 -1      2095 9.52606E-05-2.85424E-05-2.85932E-05 3.72146E-08-5.99320E-19 2.05569E-18
 -1      2096 9.52526E-05-2.85004E-05-2.86087E-05 8.62327E-08-5.20489E-19 2.29776E-18
 -1      2097 9.51646E-05-2.83373E-05-2.86411E-05 1.28207E-07-5.22089E-19-4.84235E-18
 -1      2098 9.51817E-05-2.83718E-05-2.86323E-05 1.27689E-07-7.23697E-20-2.28866E-18
 -1      2099 9.51851E-05-2.83580E-05-2.86400E-05 1.64359E-07 1.72123E-19-1.83660E-18
 -1      2100 9.51313E-05-2.82697E-05-2.86560E-05 1.09847E-07-1.79454E-19-9.05474E-20
 -1      2101 9.51467E-05-2.83007E-05-2.86482E-05 1.20333E-07 5.47741E-20-1.19662E-18
 -1      2102 9.51409E-05-2.82795E-05-2.86543E-05 1.61931E-07 7.38138E-20-2.37246E-18
 -1      2103 9.51071E-05-2.82206E-05-2.86668E-05 6.98667E-08-1.02233E-18-5.83739E-19
 -1      2104 9.51176E-05-2.82419E-05-2.86614E-05 8.90097E-08-1.80135E-19-3.67078E-19
 -1      2105 9.51025E-05-2.82128E-05-2.86660E-05 1.28616E-07-1.90863E-19-1.66772E-19
 -1      2106 9.50961E-05-2.81981E-05-2.86716E-05 1.64527E-08-9.61399E-19-2.14945E-18
 -1      2107 9.50998E-05-2.82057E-05-2.86697E-05 4.02931E-08-1.27796E-18-7.13674E-19
 -1      2108 9.50768E-05-2.81684E-05-2.86738E-05 7.09405E-08-7.85185E-19-1.14797E-18
 -1      2109 9.50999E-05-2.82059E-05-2.86697E-05-3.99672E-08-2.21129E-18-3.17156E-18
 -1      2110 9.50961E-05-2.81983E-05-2.86716E-05-1.61579E-08-7.88976E-19-2.08377E-18
 -1      2111 9.50679E-05-2.81532E-05-2.86764E-05 4.62542E-11-1.41202E-18-2.28160E-18
 -1      2112 9.51178E-05-2.82423E-05-2.86613E-05-8.85252E-08-2.64858E-18-3.26109E-18
 -1      2113 9.51074E-05-2.82211E-05-2.86667E-05-6.94580E-08-2.78471E-18-3.42810E-18
 -1      2114 9.50770E-05-2.81692E-05-2.86736E-05-7.07287E-08-2.43033E-18-3.63807E-18
 -1      2115 9.51462E-05-2.83001E-05-2.86483E-05-1.19382E-07-1.07717E-18-1.25680E-18
 -1      2116 9.51312E-05-2.82697E-05-2.86560E-05-1.08990E-07-1.73864E-18-2.46477E-18
 -1      2117 9.51027E-05-2.82135E-05-2.86658E-05-1.27817E-07-1.93453E-18-2.12643E-18
 -1      2118 9.51814E-05-2.83715E-05-2.86323E-05-1.27171E-07-5.28153E-19 3.40569E-18
 -1      2119 9.51641E-05-2.83365E-05-2.86412E-05-1.27512E-07-8.73428E-19 1.66192E-18
 -1      2120 9.51405E-05-2.82797E-05-2.86541E-05-1.60971E-07 1.41672E-19-3.56499E-19
 -1      2121 9.52162E-05-2.84438E-05-2.86159E-05-1.09376E-07-4.99192E-19 1.89191E-18
 -1      2122 9.52003E-05-2.84111E-05-2.86244E-05-1.20760E-07-3.40131E-19 1.53116E-18
 -1      2123 9.51847E-05-2.83584E-05-2.86397E-05-1.63749E-07 1.51201E-19 2.61423E-18
 -1      2124 9.52432E-05-2.85082E-05-2.86007E-05-6.95619E-08-1.02496E-18-3.75819E-19
 -1      2125 9.52332E-05-2.84815E-05-2.86079E-05-9.00010E-08-5.76737E-19 8.47558E-19
 -1      2126 9.52268E-05-2.84374E-05-2.86241E-05-1.35673E-07-4.65652E-19 1.02075E-18
 -1      2127 5.49859E-05-3.92700E-05-7.25886E-06 3.83436E-05 2.62877E-18 3.82007E-18
 -1      2128 4.09927E-05-4.01401E-05-1.60841E-06 3.15375E-05 1.51111E-18 3.44107E-18
 -1      2129 1.23525E-05-3.45111E-05 7.97969E-06 4.63482E-06 9.70382E-19 3.73753E-18
 -1      2130 1.16580E-05-3.19626E-05 7.50656E-06-4.94492E-06 1.03550E-19 4.88357E-18
 -1      2131 2.42002E-05-3.39709E-05 3.18948E-06 2.39715E-05 1.96003E-18 2.56820E-18
 -1      2132 1.72696E-05-3.61330E-05 6.51775E-06 1.42841E-05 6.11346E-19 2.77361E-18
 -1      2133 9.15851E-05-4.40780E-05-2.05025E-05 4.22576E-05 3.09887E-18 4.92020E-18
 -1      2134 7.13085E-05-4.46680E-05-1.25767E-05 3.73017E-05 2.41235E-18 4.42352E-18
 -1      2135 7.55204E-05-4.70051E-05-1.23562E-05 4.18166E-05-2.15993E-20 2.98193E-18
 -1      2136 1.32581E-04-4.34583E-05-3.76330E-05 3.52872E-05 4.41389E-18 4.38509E-18
 -1      2137 1.12636E-04-4.59943E-05-2.91248E-05 3.35574E-05 3.88195E-18 3.95437E-18
 -1      2138 8.73373E-05-8.68173E-06-3.37983E-05-1.02855E-05-1.81332E-18-5.27306E-18
 -1      2139 8.80323E-05-9.22692E-06-3.38599E-05-1.18674E-05-2.36727E-18-4.90071E-18
 -1      2140 9.05291E-05-1.30418E-05-3.32745E-05-1.16566E-05-2.66395E-18-4.35245E-18
 -1      2141 8.87167E-05-1.09437E-05-3.33539E-05-9.15137E-06-1.78114E-18-5.10107E-18
 -1      2142 1.73134E-04-2.79169E-05-6.15561E-05 6.41621E-06 7.73807E-18-2.23193E-19
 -1      2143 1.66494E-04-3.10754E-05-5.72010E-05 1.38441E-05 6.91497E-18 1.02999E-18
 -1      2144 1.84175E-04-2.46754E-05-6.66178E-05-5.22417E-07 7.57840E-18-2.09192E-18
 -1      2145 1.73622E-04-2.14950E-05-6.44678E-05 4.18837E-06 7.90578E-18-1.78512E-19
 -1      2146 1.73945E-04-2.49802E-05-6.31264E-05-7.80120E-06 6.91857E-18-4.05898E-18
 -1      2147 1.83665E-04-2.62813E-05-6.60479E-05-3.05442E-06 7.37342E-18-2.72088E-18
 -1      2148 1.59825E-04-1.38792E-05-6.14627E-05 6.63563E-07 8.20606E-18-3.78730E-19
 -1      2149 1.60558E-04-3.44121E-05-5.35142E-05-1.92107E-05 6.14030E-18-6.94567E-18
 -1      2150 1.71684E-04-3.23638E-05-5.88674E-05-1.22657E-05 5.92330E-18-5.15377E-18
 -1      2151 1.32619E-04-3.95219E-05-4.00870E-05-3.16905E-05 6.78452E-18-7.42128E-18
 -1      2152 1.53195E-04-3.91148E-05-4.80341E-05-3.02696E-05 6.27948E-18-7.81642E-18
 -1      2153 9.53069E-05-4.31205E-05-2.32761E-05-3.72391E-05 5.38713E-18-7.41493E-18
 -1      2154 1.17194E-04-4.12322E-05-3.21736E-05-4.07220E-05 6.39764E-18-7.72325E-18
 -1      2155 5.94125E-05-4.32102E-05-8.14971E-06-3.60692E-05 3.11496E-18-6.13945E-18
 -1      2156 7.69597E-05-4.09485E-05-1.57661E-05-4.18179E-05 5.04662E-18-7.19427E-18
 -1      2157 2.76086E-05-3.83251E-05 3.09995E-06-2.39234E-05 2.62580E-19-7.40222E-18
 -1      2158 3.98361E-05-3.63723E-05-2.13528E-06-3.40301E-05 2.00239E-18-6.82158E-18
 -1      2159 1.25781E-05-3.57206E-05 8.27132E-06-5.53145E-06-1.73621E-18-9.30000E-18
 -1      2160 1.63420E-05-3.48078E-05 6.54663E-06-1.46427E-05 7.30989E-19-8.40172E-18
 -1      2161 1.59115E-05-3.37503E-05 6.37103E-06 1.53702E-05-3.85104E-18-8.12262E-18
 -1      2162 1.24556E-05-3.56036E-05 8.24909E-06 5.51347E-06-1.50380E-18-9.31652E-18
 -1      2163 3.87441E-05-3.70124E-05-1.74152E-06 3.30966E-05-6.33877E-18-6.27196E-18
 -1      2164 2.72660E-05-3.85999E-05 3.27377E-06 2.49015E-05-4.12124E-18-6.44846E-18
 -1      2165 7.29937E-05-3.92134E-05-1.48295E-05 4.21714E-05-7.71732E-18-6.54841E-18
 -1      2166 5.60399E-05-4.19536E-05-7.48938E-06 3.54180E-05-6.81184E-18-6.46450E-18
 -1      2167 1.10944E-04-4.10597E-05-2.96539E-05 4.13907E-05-7.79990E-18-6.85843E-18
 -1      2168 9.20785E-05-4.28987E-05-2.19805E-05 3.82510E-05-7.78847E-18-6.30701E-18
 -1      2169 1.43353E-04-3.89057E-05-4.39262E-05 3.34060E-05-8.03834E-18-5.16436E-18
 -1      2170 1.24734E-04-4.00359E-05-3.66292E-05 3.37397E-05-8.01039E-18-6.65556E-18
 -1      2171 1.67416E-04-3.38266E-05-5.60928E-05 2.14875E-05-7.48311E-18-3.63377E-18
 -1      2172 1.51832E-04-3.42829E-05-5.01102E-05 2.54380E-05-8.09494E-18-4.95091E-18
 -1      2173 1.78819E-04-2.75641E-05-6.36392E-05 8.23762E-06-6.97955E-18-2.29694E-18
 -1      2174 1.69915E-04-2.78738E-05-6.01217E-05 1.43122E-05-7.53224E-18-3.46140E-18
 -1      2175 1.78079E-04-2.22845E-05-6.58152E-05-1.49701E-06-5.87587E-18-1.40081E-18
 -1      2176 1.80486E-04-2.46126E-05-6.55539E-05 5.64651E-06-6.61872E-18-2.59319E-18
 -1      2177 1.59215E-04-1.63736E-05-6.00839E-05-8.69341E-07-7.06595E-18-1.77009E-18
 -1      2178 1.74932E-04-2.67703E-05-6.24043E-05-1.14962E-05-5.37294E-18 5.74288E-19
 -1      2179 1.77564E-04-2.42278E-05-6.46991E-05-3.95400E-06-5.74627E-18-1.11978E-18
 -1      2180 1.59103E-04-3.19381E-05-5.40301E-05-2.14038E-05-4.95149E-18 2.09005E-18
 -1      2181 1.73767E-04-3.18619E-05-5.94829E-05-1.77641E-05-4.83868E-18 1.26293E-18
 -1      2182 1.33979E-04-3.89031E-05-4.08541E-05-3.12703E-05-3.31698E-18 3.44573E-18
 -1      2183 1.51596E-04-3.80725E-05-4.77830E-05-2.85817E-05-3.82435E-18 2.63470E-18
 -1      2184 1.04433E-04-4.32436E-05-2.68965E-05-3.68466E-05-2.18407E-18 2.77700E-18
 -1      2185 1.22730E-04-4.10297E-05-3.44972E-05-3.89529E-05-2.78547E-18 3.95226E-18
 -1      2186 7.06757E-05-4.34152E-05-1.27855E-05-3.82850E-05-8.03834E-19 3.80868E-18
 -1      2187 8.79114E-05-4.17282E-05-1.98544E-05-4.28038E-05-2.22050E-18 2.39096E-18
 -1      2188 3.89454E-05-3.98872E-05-1.00592E-06-3.12636E-05 9.62653E-19 6.02473E-18
 -1      2189 5.22711E-05-3.81241E-05-6.68087E-06-3.84754E-05-2.82062E-19 5.75816E-18
 -1      2190 1.79264E-05-3.44614E-05 5.76576E-06-1.71823E-05 1.01686E-18 5.15038E-18
 -1      2191 2.58451E-05-3.46901E-05 2.77198E-06-2.58677E-05-2.02441E-19 5.99318E-18
 -1      2192 1.59568E-04-3.89154E-05-5.10196E-05 2.17110E-05 5.64990E-18 1.42937E-18
 -1      2193 1.42487E-04-4.00609E-05-4.39178E-05 2.67284E-05 5.17918E-18 3.80021E-18
 -1      2194 1.43154E-04-5.05031E-05-3.91861E-05 1.72884E-05 2.98579E-18 1.77369E-18
 -1      2195 1.13945E-04-5.47347E-05-2.52775E-05 3.42337E-05 1.25086E-18 2.47164E-18
 -1      2196 9.71390E-05-2.42996E-05-3.12893E-05-9.82085E-06-3.37564E-18 2.17912E-19
 -1      2197 1.56992E-04-3.62059E-05-5.09442E-05 4.40699E-06 6.02272E-18-7.36919E-20
 -1      2198 9.63589E-05-2.30899E-05-3.14652E-05-1.01465E-05-3.51157E-18-1.26945E-18
 -1      2199 4.00665E-05-3.43599E-05-2.85164E-06 3.40670E-05-1.46537E-19 2.80537E-18
 -1      2200 1.70354E-05-2.54333E-05 2.92249E-06 1.28025E-05-4.77938E-19 3.39914E-18
 -1      2201 9.52512E-05-2.85190E-05-2.85992E-05-6.09200E-08-4.34371E-19-8.05196E-19
 -1      2202 1.75427E-05-2.57325E-05 2.91103E-06-1.35677E-05-6.02452E-20 5.05763E-18
 -1      2203 3.88711E-05-3.45037E-05-2.39229E-06-3.44925E-05 1.93124E-18 5.20036E-18
 -1      2204 7.24775E-05-4.56138E-05-1.17820E-05-4.24253E-05 2.35772E-18 3.97727E-18
 -1      2205 1.08676E-04-5.22702E-05-2.41285E-05-3.69546E-05 6.07746E-19 1.45626E-18
 -1      2206 1.36188E-04-4.94764E-05-3.67358E-05-2.40508E-05-7.53648E-19 1.02999E-18
 -1      2207 1.53577E-04-3.82826E-05-4.86375E-05-1.11813E-05-2.92353E-18-4.13776E-19
 -1      2208 1.60296E-04-1.49814E-05-6.12929E-05 5.09050E-07-6.37816E-18-1.83023E-18
 -1      2209 1.58257E-04-2.82435E-05-5.47052E-05 3.64057E-06-7.16230E-18-1.57675E-18
 -1      2210 1.49233E-04-4.23398E-05-4.50645E-05 1.49801E-05-6.51106E-18-1.95411E-18
 -1      2211 1.28273E-04-5.11806E-05-3.26852E-05 2.91233E-05-5.05975E-18-3.12132E-18
 -1      2212 9.54713E-05-5.03124E-05-1.94147E-05 4.05044E-05-4.29022E-18-4.26132E-18
 -1      2213 5.71543E-05-4.16167E-05-7.18540E-06 4.04031E-05-2.22600E-18-5.30507E-18
 -1      2214 2.57300E-05-3.04645E-05 1.31222E-06 2.51711E-05-1.25255E-18-7.37300E-18
 -1      2215 1.39585E-05-2.53766E-05 4.09989E-06-1.90360E-07-7.74691E-19-1.00035E-17
 -1      2216 2.61815E-05-2.93403E-05 8.14613E-07-2.50954E-05-1.04291E-18-8.11712E-18
 -1      2217 5.90497E-05-4.20643E-05-7.74993E-06-3.97207E-05-1.52466E-20-6.22252E-18
 -1      2218 9.97797E-05-5.16484E-05-2.07715E-05-3.88146E-05 1.97274E-18-5.67279E-18
 -1      2219 1.34321E-04-5.06430E-05-3.53722E-05-2.63629E-05 4.04310E-18-5.22619E-18
 -1      2220 1.60151E-04-2.44745E-05-5.72178E-05 1.20145E-06 6.24941E-18-1.56722E-18
 -1      2221 1.64873E-04-2.16177E-05-6.06253E-05 6.49321E-07 7.78699E-18-5.20502E-19
 -1      2222 1.50964E-04-2.06507E-05-5.56986E-05-4.77639E-06 7.54346E-18-5.09914E-19
 -1      2223 1.49388E-04-1.40012E-05-5.83735E-05-4.54974E-06 7.73045E-18-1.80736E-19
 -1      2224 1.54415E-04-4.01496E-05-4.80496E-05-9.51069E-06 4.43326E-18-3.49147E-18
 -1      2225 1.59815E-04-2.37317E-05-5.72225E-05-1.86845E-06-5.05615E-18-1.64451E-18
 -1      2226 9.53167E-05-2.63579E-05-2.95382E-05 3.90647E-06 2.86643E-18 3.06728E-18
 -1      2227 9.62364E-05-2.58405E-05-3.00959E-05 5.74225E-06 3.16860E-18 3.56909E-18
 -1      2228 8.80530E-05-1.09072E-05-3.31024E-05-3.48761E-06-1.02322E-20-4.95181E-18
 -1      2229 8.83096E-05-1.12010E-05-3.30829E-05-4.59186E-06-4.51239E-19-5.16736E-18
 -1      2230 8.86916E-05-1.17252E-05-3.30317E-05-5.57219E-06-7.44657E-19-5.16466E-18
 -1      2231 8.91221E-05-1.22255E-05-3.29999E-05-6.72223E-06-1.24170E-18-5.10745E-18
 -1      2232 8.98056E-05-1.35258E-05-3.26889E-05-4.64109E-06-6.13480E-19-4.80536E-18
 -1      2233 8.76668E-05-1.04006E-05-3.31479E-05 5.89876E-07 1.49592E-18-4.60651E-18
 -1      2234 8.76620E-05-1.03956E-05-3.31481E-05-4.73144E-07 1.06403E-18-4.76661E-18
 -1      2235 8.78692E-05-1.06476E-05-3.31289E-05 2.63059E-06 2.12334E-18-4.35513E-18
 -1      2236 8.77410E-05-1.05018E-05-3.31386E-05 1.55641E-06 1.73786E-18-4.55532E-18
 -1      2237 8.89360E-05-1.23728E-05-3.28142E-05 9.88702E-07 1.54741E-18-4.32049E-18
 -1      2238 8.83469E-05-1.12431E-05-3.30812E-05 4.67483E-06 2.75591E-18-3.77689E-18
 -1      2239 8.80851E-05-1.09438E-05-3.31008E-05 3.58836E-06 2.39306E-18-4.09624E-18
 -1      2240 8.92346E-05-1.27641E-05-3.27732E-05 2.84936E-06 2.17069E-18-3.93909E-18
 -1      2241 8.91808E-05-1.22936E-05-3.29964E-05 6.80045E-06 3.43771E-18-2.92189E-18
 -1      2242 8.87374E-05-1.17779E-05-3.30291E-05 5.65422E-06 3.03619E-18-3.41506E-18
 -1      2243 8.98484E-05-1.35770E-05-3.26855E-05 4.71345E-06 2.78773E-18-3.25055E-18
 -1      2244 9.04974E-05-1.39768E-05-3.28576E-05 8.92005E-06 3.98926E-18-1.83381E-18
 -1      2245 8.97984E-05-1.31363E-05-3.29099E-05 7.75191E-06 3.60909E-18-2.45961E-18
 -1      2246 9.08502E-05-1.49210E-05-3.25335E-05 6.55007E-06 3.36283E-18-2.45791E-18
 -1      2247 9.25122E-05-1.66129E-05-3.26277E-05 1.08099E-05 4.34284E-18-2.66835E-19
 -1      2248 9.14324E-05-1.52495E-05-3.27110E-05 9.72635E-06 4.07718E-18-1.17929E-18
 -1      2249 9.23281E-05-1.69614E-05-3.22790E-05 8.17709E-06 3.80135E-18-1.26984E-18
 -1      2250 9.44562E-05-2.71021E-05-2.88461E-05 1.37617E-06 2.19056E-18 2.35987E-18
 -1      2251 9.49820E-05-2.68720E-05-2.91182E-05 2.39916E-06 2.49395E-18 2.80995E-18
 -1      2252 9.54679E-05-2.58036E-05-2.98658E-05 3.97980E-06 3.01861E-18 1.64102E-18
 -1      2253 9.59898E-05-2.50519E-05-3.03536E-05-5.86670E-06-2.79901E-18-1.80828E-18
 -1      2254 9.53801E-05-2.58072E-05-2.98308E-05-3.91959E-06-2.44411E-18-1.79767E-18
 -1      2255 1.50030E-04-3.21789E-05-5.09689E-05-5.11442E-06 5.82208E-18-2.39414E-18
 -1      2256 1.47516E-04-4.12908E-05-4.57340E-05-9.07026E-07 4.47286E-18-1.84463E-18
 -1      2257 9.52990E-05-2.64807E-05-2.94363E-05-2.51452E-06-2.18663E-18-1.57616E-18
 -1      2258 9.49003E-05-2.68521E-05-2.91598E-05-1.38856E-06-1.79393E-18-1.70044E-18
 -1      2259 9.54660E-05-2.52661E-05-3.00899E-05-3.84097E-06-2.36863E-18-2.24196E-18
 -1      2260 9.47525E-05-2.71714E-05-2.89249E-05-4.50015E-07-1.53348E-18-1.63683E-18
 -1      2261 9.45885E-05-2.73874E-05-2.87936E-05 2.42566E-07-1.18730E-18-1.87170E-18
 -1      2262 9.52439E-05-2.65769E-05-2.94432E-05-1.30572E-06-1.75855E-18-2.12650E-18
 -1      2263 9.45056E-05-2.75587E-05-2.86688E-05 8.70160E-07-1.03040E-18-1.83733E-18
 -1      2264 9.45331E-05-2.77102E-05-2.86304E-05 1.32121E-06-8.49774E-19-2.02912E-18
 -1      2265 9.50491E-05-2.72672E-05-2.90642E-05 3.95686E-07-1.24339E-18-2.04393E-18
 -1      2266 9.45354E-05-2.78126E-05-2.85826E-05 1.75981E-06-6.58148E-19-2.23660E-18
 -1      2267 9.47075E-05-2.79357E-05-2.86077E-05 2.07987E-06-7.64010E-19-2.25903E-18
 -1      2268 9.49972E-05-2.76591E-05-2.88719E-05 1.55910E-06-1.04910E-18-2.23670E-18
 -1      2269 9.47893E-05-2.80045E-05-2.86152E-05 2.41402E-06-9.83276E-19-2.15292E-18
 -1      2270 9.50733E-05-2.81167E-05-2.86860E-05 2.67052E-06-9.26461E-19-2.34201E-18
 -1      2271 9.51008E-05-2.78955E-05-2.88126E-05 2.40418E-06-9.35031E-19-2.29209E-18
 -1      2272 9.52249E-05-2.81705E-05-2.87344E-05 2.95698E-06-7.30310E-19-2.33646E-18
 -1      2273 9.56017E-05-2.82835E-05-2.88402E-05 3.19176E-06-7.22427E-19-2.22472E-18
 -1      2274 9.53464E-05-2.80493E-05-2.88499E-05 3.08115E-06-8.23902E-19-2.24502E-18
 -1      2275 9.58168E-05-2.83357E-05-2.89194E-05 3.46705E-06-8.37481E-19-1.91746E-18
 -1      2276 9.62781E-05-2.84610E-05-2.90534E-05 3.70395E-06-7.17319E-19-1.94124E-18
 -1      2277 9.57201E-05-2.81657E-05-2.89588E-05 3.68987E-06-6.00736E-19-1.97844E-18
 -1      2278 9.65562E-05-2.85256E-05-2.91558E-05 3.98774E-06-6.59023E-19-1.73668E-18
 -1      2279 9.71006E-05-2.86772E-05-2.93132E-05 4.23477E-06-5.33563E-19-1.63482E-18
 -1      2280 9.62170E-05-2.82825E-05-2.91210E-05 4.29106E-06-6.96635E-19-1.42349E-18
 -1      2281 9.74478E-05-2.87718E-05-2.94325E-05 4.53012E-06-5.06303E-19-1.72267E-18
 -1      2282 9.80776E-05-2.89680E-05-2.96084E-05 4.77828E-06-3.93109E-19-1.67805E-18
 -1      2283 9.68444E-05-2.84414E-05-2.93216E-05 4.91031E-06-5.70939E-19-1.01575E-18
 -1      2284 9.85080E-05-2.91170E-05-2.97380E-05 5.06920E-06-3.10739E-19-1.68472E-18
 -1      2285 9.92263E-05-2.93813E-05-2.99262E-05 5.28875E-06 4.68933E-20-1.47798E-18
 -1      2286 9.76238E-05-2.86963E-05-2.95468E-05 5.53628E-06-3.12334E-19-9.60687E-19
 -1      2287 9.97635E-05-2.96185E-05-3.00592E-05 5.53548E-06 1.21942E-19-1.60716E-18
 -1      2288 1.00570E-04-2.99799E-05-3.02510E-05 5.67081E-06 3.05920E-20-1.46620E-18
 -1      2289 9.85942E-05-2.91195E-05-2.97826E-05 6.11396E-06 5.98767E-20-1.67612E-18
 -1      2290 1.01249E-04-3.03482E-05-3.03795E-05 5.80338E-06-2.45891E-19-1.27951E-18
 -1      2291 1.02135E-04-3.08369E-05-3.05632E-05 5.76847E-06-2.07550E-19-1.36974E-18
 -1      2292 9.98147E-05-2.98052E-05-3.00143E-05 6.53398E-06-3.45389E-21-1.47247E-18
 -1      2293 1.02998E-04-3.13825E-05-3.06809E-05 5.68064E-06-6.09789E-20-8.91134E-19
 -1      2294 1.03937E-04-3.20171E-05-3.08427E-05 5.35999E-06 2.52769E-19-8.53619E-19
 -1      2295 1.01364E-04-3.08623E-05-3.02292E-05 6.62030E-06 1.89902E-19-8.90467E-19
 -1      2296 1.05023E-04-3.27698E-05-3.09484E-05 4.90875E-06-1.27091E-19-9.32503E-19
 -1      2297 1.05954E-04-3.35283E-05-3.10760E-05 4.17289E-06-4.53057E-19-9.01968E-19
 -1      2298 1.03327E-04-3.23831E-05-3.04231E-05 6.12263E-06-2.79879E-19-9.26648E-19
 -1      2299 1.07259E-04-3.44562E-05-3.11800E-05 3.19615E-06-2.04017E-19-1.07926E-18
 -1      2300 1.08065E-04-3.52255E-05-3.12693E-05 1.94724E-06-2.15434E-19-8.37331E-19
 -1      2301 1.05743E-04-3.43657E-05-3.06120E-05 4.72879E-06-3.15249E-19-6.31239E-19
 -1      2302 1.09475E-04-3.61630E-05-3.14008E-05 3.26881E-07-2.24709E-19-5.65749E-19
 -1      2303 1.09957E-04-3.66828E-05-3.14634E-05-1.41009E-06 2.31581E-19-4.95867E-19
 -1      2304 1.08502E-04-3.65687E-05-3.08468E-05 2.13462E-06 2.14736E-20-5.14028E-19
 -1      2305 1.11167E-04-3.72629E-05-3.16715E-05-3.61228E-06 5.99704E-19-5.41893E-19
 -1      2306 1.11067E-04-3.71195E-05-3.17376E-05-5.55897E-06 6.78113E-19-6.55474E-19
 -1      2307 1.11190E-04-3.83402E-05-3.12232E-05-1.76648E-06 3.51518E-19 4.80559E-19
 -1      2308 1.11562E-04-3.68012E-05-3.20751E-05-7.88183E-06 5.44970E-19-4.83462E-19
 -1      2309 1.10689E-04-3.56000E-05-3.21821E-05-9.39413E-06 4.44408E-19-7.64623E-19
 -1      2310 1.12965E-04-3.85502E-05-3.18643E-05-6.53070E-06 5.80984E-19 5.14659E-19
 -1      2311 1.10017E-04-3.40009E-05-3.26588E-05-1.08269E-05 4.33415E-19-5.80873E-19
 -1      2312 1.08505E-04-3.17985E-05-3.28175E-05-1.10090E-05 3.35266E-19-7.17151E-19
 -1      2313 1.12785E-04-3.60350E-05-3.28450E-05-1.06926E-05 3.15330E-19 5.47908E-19
 -1      2314 1.06846E-04-2.92954E-05-3.33355E-05-1.03395E-05-3.79821E-19-1.38630E-18
 -1      2315 1.05325E-04-2.69941E-05-3.34942E-05-8.57494E-06-1.36440E-18-8.72451E-19
 -1      2316 1.10321E-04-3.08040E-05-3.40597E-05-1.18500E-05-5.23145E-19-2.64036E-21
 -1      2317 1.03841E-04-2.49964E-05-3.38463E-05-5.43653E-06-1.60284E-18-1.33881E-18
 -1      2318 1.03187E-04-2.39905E-05-3.39150E-05-2.14151E-06-1.33839E-18-2.12625E-18
 -1      2319 1.06954E-04-2.50964E-05-3.51288E-05-7.98594E-06-1.44417E-18-1.28763E-18
 -1      2320 1.03188E-04-2.39770E-05-3.39172E-05 2.13525E-06-1.52551E-18-3.15828E-18
 -1      2321 1.03825E-04-2.49627E-05-3.38514E-05 5.44144E-06-1.08836E-18-3.41949E-18
 -1      2322 1.05342E-04-2.25526E-05-3.55639E-05 9.34902E-09-2.27076E-18-2.45745E-18
 -1      2323 1.05326E-04-2.69612E-05-3.35028E-05 8.61597E-06-6.51593E-19-3.90263E-18
 -1      2324 1.06860E-04-2.92698E-05-3.33479E-05 1.03924E-05-8.91024E-19-3.50240E-18
 -1      2325 1.06932E-04-2.50383E-05-3.51367E-05 8.02290E-06-1.46516E-18-3.58146E-18
 -1      2326 1.08521E-04-3.17660E-05-3.28370E-05 1.10768E-05-7.63984E-19-3.67742E-18
 -1      2327 1.10048E-04-3.39693E-05-3.26845E-05 1.09184E-05-9.08765E-20-3.60602E-18
 -1      2328 1.10332E-04-3.07632E-05-3.40786E-05 1.19162E-05-9.42576E-19-3.98795E-18
 -1      2329 1.10741E-04-3.55777E-05-3.22129E-05 9.50875E-06 1.47593E-19-3.71969E-18
 -1      2330 1.11633E-04-3.67855E-05-3.21118E-05 8.01561E-06 6.28677E-19-4.25320E-18
 -1      2331 1.12818E-04-3.59886E-05-3.28771E-05 1.08202E-05-1.07438E-19-3.46280E-18
 -1      2332 1.11153E-04-3.71069E-05-3.17799E-05 5.71399E-06 1.31052E-18-3.39374E-18
 -1      2333 1.11277E-04-3.72567E-05-3.17212E-05 3.78854E-06 1.39362E-18-3.44250E-18
 -1      2334 1.13031E-04-3.85190E-05-3.19061E-05 6.69628E-06 1.12333E-18-2.95720E-18
 -1      2335 1.10086E-04-3.66807E-05-3.15195E-05 1.60975E-06 9.66425E-19-3.49706E-18
 -1      2336 1.09634E-04-3.61669E-05-3.14662E-05-1.04539E-07 4.95906E-19-2.95513E-18
 -1      2337 1.11289E-04-3.83137E-05-3.12764E-05 1.98111E-06 1.18850E-18-2.45802E-18
 -1      2338 1.08240E-04-3.52289E-05-3.13431E-05-1.69759E-06 4.92967E-19-2.06622E-18
 -1      2339 1.07471E-04-3.44645E-05-3.12657E-05-2.91781E-06 1.07498E-18-1.57605E-18
 -1      2340 1.08635E-04-3.65467E-05-3.09136E-05-1.86897E-06 1.21207E-18-1.92586E-18
 -1      2341 1.06186E-04-3.35359E-05-3.11722E-05-3.85913E-06 8.81136E-19-1.65903E-18
 -1      2342 1.05299E-04-3.27836E-05-3.10594E-05-4.55948E-06 9.52034E-19-1.09871E-18
 -1      2343 1.05911E-04-3.43373E-05-3.06966E-05-4.39584E-06 1.12674E-18-1.34636E-18
 -1      2344 1.04238E-04-3.20300E-05-3.09664E-05-4.96717E-06 7.89613E-19-8.76949E-19
 -1      2345 1.03354E-04-3.14040E-05-3.08226E-05-5.24426E-06 7.76079E-19-5.60826E-19
 -1      2346 1.03541E-04-3.23495E-05-3.05296E-05-5.70675E-06 7.51114E-19-5.85026E-19
 -1      2347 1.02521E-04-3.08591E-05-3.07196E-05-5.27968E-06-6.12686E-20-8.95835E-19
 -1      2348 1.01702E-04-3.03829E-05-3.05570E-05-5.26321E-06-1.94649E-19-7.81685E-19
 -1      2349 1.01633E-04-3.08238E-05-3.03613E-05-6.10341E-06 5.83036E-20 1.11601E-20
 -1      2350 1.01060E-04-3.00179E-05-3.04448E-05-5.07074E-06-8.28605E-19-9.89160E-19
 -1      2351 1.00333E-04-2.96743E-05-3.02773E-05-4.87742E-06-5.21982E-19-9.73033E-19
 -1      2352 1.00150E-04-2.97667E-05-3.01749E-05-5.89960E-06-8.88822E-19-2.19211E-19
 -1      2353 9.98368E-05-2.94436E-05-3.01615E-05-4.56558E-06 1.17369E-19-6.12771E-19
 -1      2354 9.92114E-05-2.92036E-05-3.00004E-05-4.28390E-06 2.68744E-19-3.88717E-19
 -1      2355 9.90074E-05-2.90881E-05-2.99733E-05-5.34965E-06 1.46009E-19 3.83229E-20
 -1      2356 9.88255E-05-2.90653E-05-2.98876E-05-3.92666E-06 2.73449E-19-2.29836E-19
 -1      2357 9.83000E-05-2.89014E-05-2.97405E-05-3.61656E-06 5.28535E-20-4.34453E-19
 -1      2358 9.81239E-05-2.86820E-05-2.97669E-05-4.63652E-06 4.58796E-19-4.91273E-20
 -1      2359 9.79978E-05-2.88234E-05-2.96357E-05-3.26036E-06-4.05766E-19-8.72733E-19
 -1      2360 9.75657E-05-2.87136E-05-2.95070E-05-2.95861E-06-1.35558E-19-1.71526E-18
 -1      2361 9.74365E-05-2.84583E-05-2.95671E-05-3.88129E-06-3.45942E-19 1.76207E-19
 -1      2362 9.73284E-05-2.86732E-05-2.94135E-05-2.62991E-06 4.98708E-19-3.04745E-18
 -1      2363 9.69800E-05-2.86011E-05-2.93045E-05-2.35656E-06 2.03623E-20-3.23753E-18
 -1      2364 9.68992E-05-2.83501E-05-2.93826E-05-3.15772E-06-7.55599E-19-1.10510E-18
 -1      2365 9.67940E-05-2.85834E-05-2.92239E-05-2.06823E-06-1.15066E-19-2.61653E-18
 -1      2366 9.65185E-05-2.85373E-05-2.91343E-05-1.83214E-06-3.00950E-19-1.45440E-18
 -1      2367 9.64792E-05-2.83114E-05-2.92186E-05-2.50584E-06 5.09072E-19-2.63023E-18
 -1      2368 9.63735E-05-2.85326E-05-2.90667E-05-1.58831E-06-7.02058E-19-1.07560E-18
 -1      2369 9.61598E-05-2.85042E-05-2.89948E-05-1.39136E-06-6.34593E-19-3.03584E-19
 -1      2370 9.61520E-05-2.83120E-05-2.90776E-05-1.94313E-06 1.05143E-19-1.30778E-18
 -1      2371 9.60479E-05-2.85066E-05-2.89396E-05-1.19093E-06-9.82417E-19 1.22386E-19
 -1      2372 9.58854E-05-2.84900E-05-2.88833E-05-1.03096E-06-1.48793E-19 9.28514E-20
 -1      2373 9.58991E-05-2.83329E-05-2.89598E-05-1.47276E-06-7.87871E-19-1.55877E-19
 -1      2374 9.57999E-05-2.84956E-05-2.88393E-05-8.69929E-07 1.41811E-18 1.55067E-20
 -1      2375 9.56790E-05-2.84868E-05-2.87962E-05-7.42706E-07 2.21269E-18 1.18570E-18
 -1      2376 9.57055E-05-2.83623E-05-2.88638E-05-1.08948E-06 4.60082E-20 6.81504E-19
 -1      2377 9.56143E-05-2.84934E-05-2.87619E-05-6.15726E-07 1.07253E-18 6.25427E-19
 -1      2378 9.55264E-05-2.84895E-05-2.87297E-05-5.16193E-07 1.10865E-18-1.93916E-19
 -1      2379 9.55589E-05-2.83932E-05-2.87872E-05-7.83689E-07 1.25793E-18 7.08677E-19
 -1      2380 9.54779E-05-2.84959E-05-2.87034E-05-4.17622E-07 1.38442E-18-5.96594E-19
 -1      2381 9.54156E-05-2.84950E-05-2.86799E-05-3.40899E-07 5.34534E-19 1.62293E-19
 -1      2382 9.54490E-05-2.84219E-05-2.87275E-05-5.43950E-07 6.74966E-19 6.50343E-19
 -1      2383 9.53794E-05-2.85009E-05-2.86599E-05-2.65299E-07 3.28499E-21 1.27200E-18
 -1      2384 9.53371E-05-2.85018E-05-2.86431E-05-2.07519E-07 9.68337E-19 1.30076E-18
 -1      2385 9.53670E-05-2.84464E-05-2.86814E-05-3.59035E-07 1.04622E-18-8.36275E-19
 -1      2386 9.39497E-05-2.77125E-05-2.83745E-05-1.15360E-06 1.19523E-18 1.16844E-18
 -1      2387 9.38890E-05-2.75878E-05-2.83893E-05-7.67064E-07 1.52749E-18 1.55312E-18
 -1      2388 9.41981E-05-2.79145E-05-2.83954E-05-1.83429E-06 7.09845E-19 5.74942E-19
 -1      2389 9.39660E-05-2.77935E-05-2.83452E-05-1.56108E-06 8.78953E-19 8.45529E-19
 -1      2390 9.45754E-05-2.77281E-05-2.86629E-05-1.42132E-06 1.32768E-18 1.38997E-19
 -1      2391 9.46880E-05-2.81070E-05-2.85226E-05-2.36533E-06 5.72987E-19 6.62149E-19
 -1      2392 9.43265E-05-2.79824E-05-2.84249E-05-2.14147E-06 5.76094E-19 5.89870E-19
 -1      2393 9.47401E-05-2.79354E-05-2.86420E-05-2.21645E-06 7.77793E-19-6.92600E-20
 -1      2394 9.53784E-05-2.83056E-05-2.87326E-05-2.84886E-06 5.91297E-19 6.88226E-19
 -1      2395 9.49084E-05-2.81719E-05-2.85966E-05-2.63311E-06 6.01167E-19 6.95021E-19
 -1      2396 9.50966E-05-2.80921E-05-2.87256E-05-2.85744E-06 5.73335E-19-2.71476E-19
 -1      2397 9.62514E-05-2.85233E-05-2.90122E-05-3.35290E-06 4.24683E-19 7.81927E-19
 -1      2398 9.56788E-05-2.83739E-05-2.88421E-05-3.11823E-06 5.21674E-19 7.53776E-19
 -1      2399 9.56166E-05-2.82267E-05-2.88894E-05-3.45340E-06 5.70194E-19-6.72328E-20
 -1      2400 9.73065E-05-2.87765E-05-2.93546E-05-3.91934E-06 8.02815E-19 6.25786E-19
 -1      2401 9.66274E-05-2.86019E-05-2.91519E-05-3.65025E-06 6.58323E-19 8.21077E-19
 -1      2402 9.62863E-05-2.83610E-05-2.91181E-05-4.07701E-06 6.77394E-19 4.55384E-21
 -1      2403 9.85554E-05-2.90887E-05-2.97553E-05-4.56391E-06 7.36923E-19 5.02351E-19
 -1      2404 9.77603E-05-2.88755E-05-2.95205E-05-4.25757E-06 8.57546E-19 5.88743E-19
 -1      2405 9.71061E-05-2.85201E-05-2.94009E-05-4.77111E-06 9.35309E-19 2.29204E-19
 -1      2406 1.00017E-04-2.94945E-05-3.02086E-05-5.26918E-06 7.02108E-19 3.54623E-19
 -1      2407 9.90957E-05-2.92238E-05-2.99435E-05-4.94001E-06 7.87115E-19 4.85632E-19
 -1      2408 9.80893E-05-2.87394E-05-2.97284E-05-5.54745E-06 7.50498E-19-1.12271E-19
 -1      2409 1.01713E-04-3.00449E-05-3.07031E-05-5.97031E-06-1.40411E-19 7.06549E-19
 -1      2410 1.00660E-04-2.96907E-05-3.04133E-05-5.65827E-06 3.10598E-19 6.15156E-19
 -1      2411 9.92638E-05-2.90733E-05-3.00895E-05-6.37831E-06 2.73911E-19 2.78367E-21
 -1      2412 1.03664E-04-3.08123E-05-3.12183E-05-6.53331E-06-1.53461E-19 7.67568E-19
 -1      2413 1.02485E-04-3.03409E-05-3.09156E-05-6.31556E-06-3.82406E-20 8.93951E-19
 -1      2414 1.00676E-04-2.96053E-05-3.04686E-05-7.18049E-06-1.72895E-19 1.09854E-20
 -1      2415 1.05883E-04-3.18882E-05-3.17219E-05-6.72945E-06-4.49339E-19 8.80170E-19
 -1      2416 1.04604E-04-3.12630E-05-3.14267E-05-6.73240E-06-3.01785E-19 7.29878E-19
 -1      2417 1.02397E-04-3.04562E-05-3.08449E-05-7.79171E-06-1.79089E-19 9.45186E-20
 -1      2418 1.08356E-04-3.33597E-05-3.21720E-05-6.21792E-06 7.41964E-20 1.27353E-18
 -1      2419 1.07044E-04-3.25592E-05-3.19131E-05-6.62052E-06-3.08277E-19 9.91498E-19
 -1      2420 1.04526E-04-3.17797E-05-3.11955E-05-7.94297E-06-4.11942E-19 5.14094E-19
 -1      2421 1.11001E-04-3.52325E-05-3.25285E-05-4.56798E-06 3.65654E-19 2.16908E-18
 -1      2422 1.09785E-04-3.42983E-05-3.23379E-05-5.57551E-06 4.24182E-19 2.04055E-18
 -1      2423 1.07172E-04-3.37181E-05-3.15057E-05-7.23914E-06-1.89066E-19 1.05886E-18
 -1      2424 1.13570E-04-3.72664E-05-3.27801E-05-1.38676E-06-7.33047E-19 2.96631E-18
 -1      2425 1.12681E-04-3.63908E-05-3.26791E-05-3.13846E-06-5.68372E-20 2.65036E-18
 -1      2426 1.10378E-04-3.62664E-05-3.17908E-05-5.18221E-06-4.56799E-19 2.37968E-18
 -1      2427 1.15518E-04-3.87517E-05-3.29809E-05 3.35432E-06-1.42034E-18 3.39307E-18
 -1      2428 1.15296E-04-3.83679E-05-3.29594E-05 9.75610E-07-1.15678E-18 3.37963E-18
 -1      2429 1.13923E-04-3.90026E-05-3.21285E-05-1.32430E-06-1.00769E-18 2.78010E-18
 -1      2430 1.15965E-04-3.84484E-05-3.32662E-05 8.77590E-06-2.13207E-19 3.23847E-18
 -1      2431 1.16765E-04-3.91823E-05-3.32718E-05 6.39139E-06-7.41098E-19 3.55802E-18
 -1      2432 1.17049E-04-4.07749E-05-3.26810E-05 4.30847E-06-1.15746E-18 3.48457E-18
 -1      2433 1.14075E-04-3.52130E-05-3.37750E-05 1.25775E-05 8.27114E-19 2.95096E-18
 -1      2434 1.15951E-04-3.74078E-05-3.37421E-05 1.14136E-05 2.49009E-19 2.79650E-18
 -1      2435 1.18359E-04-3.97590E-05-3.36475E-05 1.05132E-05 2.02224E-19 2.93842E-18
 -1      2436 1.10230E-04-2.96211E-05-3.44799E-05 1.16740E-05 2.26307E-18 2.69548E-18
 -1      2437 1.12512E-04-3.25617E-05-3.43916E-05 1.29809E-05 1.70149E-18 2.77839E-18
 -1      2438 1.16613E-04-3.47770E-05-3.50493E-05 1.41763E-05 1.28245E-18 2.67200E-18
 -1      2439 1.06877E-04-2.50044E-05-3.50713E-05 4.74946E-06 1.35679E-18 1.74218E-18
 -1      2440 1.08223E-04-2.67979E-05-3.50032E-05 8.52913E-06 2.02117E-18 2.12319E-18
 -1      2441 1.12609E-04-2.75593E-05-3.65238E-05 1.16290E-05 2.43992E-18 2.28998E-18
 -1      2442 1.06998E-04-2.51748E-05-3.51525E-05-5.05823E-06 1.27076E-18 9.32001E-20
 -1      2443 1.06432E-04-2.43710E-05-3.51812E-05-7.47730E-07 1.14569E-18 5.85358E-19
 -1      2444 1.09801E-04-2.30255E-05-3.73441E-05 2.32989E-06 2.27828E-18 6.47517E-19
 -1      2445 1.10665E-04-3.00429E-05-3.46867E-05-1.19457E-05 1.91926E-18-1.28288E-18
 -1      2446 1.08617E-04-2.73316E-05-3.47761E-05-9.51514E-06 1.86030E-18-6.86520E-19
 -1      2447 1.11080E-04-2.50334E-05-3.69952E-05-8.46968E-06 2.41383E-18-1.37915E-18
 -1      2448 1.14852E-04-3.57063E-05-3.40117E-05-1.27559E-05 9.22301E-19-1.60273E-18
 -1      2449 1.12658E-04-3.30481E-05-3.40680E-05-1.29914E-05 1.45331E-18-1.48356E-18
 -1      2450 1.15096E-04-3.18030E-05-3.57044E-05-1.41006E-05 1.66733E-18-1.72386E-18
 -1      2451 1.16851E-04-3.88196E-05-3.34716E-05-8.79648E-06-3.17905E-19-9.25241E-19
 -1      2452 1.15538E-04-3.74948E-05-3.34664E-05-1.07901E-05 9.52449E-20-1.60057E-18
 -1      2453 1.18072E-04-3.81548E-05-3.41998E-05-1.26557E-05 5.35899E-19-2.37029E-18
 -1      2454 1.16241E-04-3.89289E-05-3.31260E-05-3.28291E-06 2.06914E-19-2.42256E-20
 -1      2455 1.16031E-04-3.89243E-05-3.31187E-05-5.69819E-06-2.77364E-19 1.35004E-19
 -1      2456 1.17982E-04-4.08070E-05-3.30573E-05-7.06631E-06-4.81202E-19-1.98461E-18
 -1      2457 1.14015E-04-3.72856E-05-3.28643E-05 1.44502E-06-4.31610E-19 1.07741E-18
 -1      2458 1.14629E-04-3.80099E-05-3.29194E-05-5.29077E-07 3.07963E-19 4.23647E-19
 -1      2459 1.15449E-04-3.99579E-05-3.23718E-05-9.90870E-07-5.14324E-19-1.02942E-18
 -1      2460 1.11218E-04-3.51681E-05-3.25753E-05 4.52650E-06 9.80401E-19-3.61557E-19
 -1      2461 1.12285E-04-3.60919E-05-3.27183E-05 3.27740E-06 7.74727E-19 1.02830E-18
 -1      2462 1.11983E-04-3.74290E-05-3.19846E-05 3.60657E-06 3.17970E-19-1.75933E-19
 -1      2463 1.08458E-04-3.32723E-05-3.22110E-05 6.04166E-06 4.01348E-19-1.21999E-18
 -1      2464 1.09697E-04-3.41171E-05-3.24301E-05 5.45591E-06 3.73131E-19-7.95738E-19
 -1      2465 1.08635E-04-3.47144E-05-3.17111E-05 6.30475E-06 1.24250E-18-8.08905E-19
 -1      2466 1.05984E-04-3.18152E-05-3.17796E-05 6.41481E-06-1.55182E-18 2.89201E-19
 -1      2467 1.07224E-04-3.24913E-05-3.20444E-05 6.30491E-06-5.13091E-19-2.54403E-19
 -1      2468 1.05816E-04-3.25079E-05-3.14404E-05 7.42746E-06-4.36741E-19-2.40521E-19
 -1      2469 1.03855E-04-3.07755E-05-3.13152E-05 6.08638E-06-1.16668E-18 1.07054E-18
 -1      2470 1.05003E-04-3.12844E-05-3.15941E-05 6.26374E-06-1.51928E-18-5.03993E-20
 -1      2471 1.03562E-04-3.09489E-05-3.11353E-05 7.48093E-06-1.45492E-18 1.24749E-18
 -1      2472 1.02059E-04-3.00582E-05-3.08542E-05 5.39641E-06 5.04766E-19 2.12917E-18
 -1      2473 1.03072E-04-3.04314E-05-3.11228E-05 5.71675E-06-2.68548E-19 1.33438E-18
 -1      2474 1.01780E-04-2.99340E-05-3.08016E-05 6.91032E-06-1.06807E-18 1.72455E-18
 -1      2475 1.00565E-04-2.95685E-05-3.04242E-05 4.57099E-06 9.97298E-19 2.81507E-18
 -1      2476 1.01429E-04-2.98396E-05-3.06674E-05 4.93964E-06 1.46656E-18 3.12413E-18
 -1      2477 1.00363E-04-2.93072E-05-3.04600E-05 6.03861E-06 8.41827E-19 2.56542E-18
 -1      2478 9.93374E-05-2.92335E-05-3.00421E-05 3.74430E-06-2.02696E-19 1.48312E-18
 -1      2479 1.00055E-04-2.94299E-05-3.02525E-05 4.10614E-06 7.08753E-19 1.72849E-18
 -1      2480 9.92255E-05-2.89333E-05-3.01315E-05 5.07405E-06 1.15291E-18 2.65985E-18
 -1      2481 9.83431E-05-2.90028E-05-2.97149E-05 2.98702E-06 6.66459E-20 5.19742E-19
 -1      2482 9.89245E-05-2.91449E-05-2.98908E-05 3.31399E-06-1.42516E-19 1.40741E-18
 -1      2483 9.83100E-05-2.87163E-05-2.98314E-05 4.13806E-06 4.80660E-19 1.97147E-18
 -1      2484 9.75491E-05-2.88434E-05-2.94431E-05 2.32985E-06-4.41456E-19 3.10679E-19
 -1      2485 9.80108E-05-2.89456E-05-2.95861E-05 2.61063E-06 3.73944E-19 7.51671E-19
 -1      2486 9.75745E-05-2.85939E-05-2.95681E-05 3.29331E-06 2.56882E-19 2.37137E-18
 -1      2487 9.69248E-05-2.87333E-05-2.92229E-05 1.78011E-06-1.20398E-18 9.83402E-19
 -1      2488 9.72845E-05-2.88062E-05-2.93365E-05 2.01295E-06-1.59297E-18 1.12817E-19
 -1      2489 9.69881E-05-2.85278E-05-2.93446E-05 2.56555E-06-1.05713E-18 1.66855E-18
 -1      2490 9.64420E-05-2.86581E-05-2.90485E-05 1.33249E-06-4.33717E-19 1.51452E-18
 -1      2491 9.67169E-05-2.87092E-05-2.91367E-05 1.52067E-06-1.78820E-20 1.16946E-18
 -1      2492 9.65256E-05-2.84949E-05-2.91599E-05 1.95885E-06-1.04139E-18 1.26971E-18
 -1      2493 9.60752E-05-2.86075E-05-2.89131E-05 9.75632E-07 2.97205E-19 1.01844E-18
 -1      2494 9.62812E-05-2.86427E-05-2.89803E-05 1.12471E-06-7.33544E-20 1.15794E-18
 -1      2495 9.61659E-05-2.84815E-05-2.90110E-05 1.46558E-06-7.79328E-21 1.67454E-18
 -1      2496 9.58017E-05-2.85744E-05-2.88104E-05 6.95879E-07 6.88567E-19 1.66867E-18
 -1      2497 9.59528E-05-2.85979E-05-2.88603E-05 8.12159E-07 2.67742E-19 1.58774E-18
 -1      2498 9.58904E-05-2.84791E-05-2.88934E-05 1.07249E-06 1.35678E-19 1.45753E-18
 -1      2499 9.56022E-05-2.85535E-05-2.87340E-05 4.79415E-07-1.56431E-19 3.25730E-18
 -1      2500 9.57101E-05-2.85685E-05-2.87703E-05 5.69094E-07 6.80768E-19 2.90165E-18
 -1      2501 9.56829E-05-2.84825E-05-2.88025E-05 7.64304E-07 1.40991E-20 2.66953E-18
 -1      2502 9.54601E-05-2.85410E-05-2.86786E-05 3.13634E-07 2.48576E-19 2.30966E-18
 -1      2503 9.55348E-05-2.85500E-05-2.87042E-05 3.82265E-07-5.27428E-19 3.14640E-18
 -1      2504 9.55292E-05-2.84886E-05-2.87336E-05 5.25892E-07 3.12443E-20 5.21777E-18
 -1      2505 9.53618E-05-2.85349E-05-2.86394E-05 1.87403E-07 3.15546E-20 2.26315E-18
 -1      2506 9.54110E-05-2.85391E-05-2.86568E-05 2.39587E-07 7.86879E-19 2.46697E-18
 -1      2507 9.54169E-05-2.84953E-05-2.86822E-05 3.43998E-07 3.01601E-19 4.34624E-18
 -1      2508 9.52959E-05-2.85344E-05-2.86116E-05 9.42551E-08-1.20405E-18 3.51346E-18
 -1      2509 9.53271E-05-2.85347E-05-2.86234E-05 1.32741E-07-4.66083E-19 3.33591E-18
 -1      2510 9.53377E-05-2.85048E-05-2.86441E-05 2.05737E-07-7.67513E-19 4.74278E-18
 -1      2511 9.52723E-05-2.85396E-05-2.85987E-05 5.31127E-08-9.10293E-19 2.65576E-18
 -1      2512 9.51047E-05-2.82160E-05-2.86680E-05 1.98122E-07-7.78353E-20-6.65692E-19
 -1      2513 9.51319E-05-2.82532E-05-2.86617E-05 2.09189E-07-1.16402E-19-3.11284E-18
 -1      2514 9.50558E-05-2.81460E-05-2.86771E-05 1.46584E-07-1.40701E-19 4.39802E-19
 -1      2515 9.50769E-05-2.81743E-05-2.86724E-05 1.73020E-07-3.27462E-19 1.23468E-18
 -1      2516 9.50628E-05-2.81406E-05-2.86799E-05 2.22929E-07 2.63728E-20 2.75815E-19
 -1      2517 9.52234E-05-2.83955E-05-2.86414E-05 1.92147E-07 4.19785E-19 7.94164E-19
 -1      2518 9.52473E-05-2.84331E-05-2.86336E-05 1.72057E-07 1.73348E-19 2.60888E-18
 -1      2519 9.51643E-05-2.83034E-05-2.86558E-05 2.14190E-07-8.82108E-19-2.46583E-18
 -1      2520 9.51926E-05-2.83434E-05-2.86487E-05 2.08298E-07-3.05349E-19-4.78419E-19
 -1      2521 9.52090E-05-2.83397E-05-2.86578E-05 2.47625E-07-7.16749E-19-7.04215E-19
 -1      2522 9.51336E-05-2.82347E-05-2.86703E-05 2.56972E-07-1.02060E-18-2.62423E-18
 -1      2523 9.50260E-05-2.81037E-05-2.86823E-05 6.90412E-08-1.08778E-18-9.89614E-19
 -1      2524 9.50374E-05-2.81188E-05-2.86798E-05 1.05857E-07-7.50678E-19-1.15155E-18
 -1      2525 9.50083E-05-2.80701E-05-2.86864E-05 1.50661E-07-6.73921E-19-4.57642E-19
 -1      2526 9.50199E-05-2.80947E-05-2.86831E-05-2.05123E-08-1.78754E-18-3.06017E-18
 -1      2527 9.50197E-05-2.80945E-05-2.86831E-05 1.98938E-08-1.24978E-18-1.27204E-18
 -1      2528 9.49790E-05-2.80330E-05-2.86896E-05 5.27356E-08-1.41151E-18-1.31305E-18
 -1      2529 9.50381E-05-2.81203E-05-2.86794E-05-1.06162E-07-1.92527E-18-3.13142E-18
 -1      2530 9.50266E-05-2.81048E-05-2.86820E-05-6.95259E-08-1.63526E-18-3.47531E-18
 -1      2531 9.49795E-05-2.80339E-05-2.86894E-05-5.39864E-08-6.46877E-19-2.98275E-18
 -1      2532 9.50769E-05-2.81753E-05-2.86720E-05-1.71900E-07-3.24324E-19-5.64176E-19
 -1      2533 9.50563E-05-2.81476E-05-2.86766E-05-1.45962E-07-1.51670E-18-1.85008E-18
 -1      2534 9.50091E-05-2.80722E-05-2.86859E-05-1.50658E-07-8.15629E-19-1.99510E-18
 -1      2535 9.51316E-05-2.82542E-05-2.86612E-05-2.08167E-07 5.80163E-20 1.01634E-18
 -1      2536 9.51046E-05-2.82171E-05-2.86675E-05-1.96952E-07 9.23260E-20-1.05528E-18
 -1      2537 9.50631E-05-2.81428E-05-2.86791E-05-2.21840E-07 1.38229E-19-3.34448E-19
 -1      2538 9.51925E-05-2.83455E-05-2.86479E-05-2.07167E-07-1.96757E-19 2.43428E-18
 -1      2539 9.51643E-05-2.83046E-05-2.86552E-05-2.13488E-07-4.08237E-19 2.75341E-18
 -1      2540 9.51333E-05-2.82368E-05-2.86694E-05-2.55688E-07-2.89138E-20 8.82758E-19
 -1      2541 9.52471E-05-2.84354E-05-2.86327E-05-1.70598E-07-4.74741E-19 9.44517E-19
 -1      2542 9.52235E-05-2.83968E-05-2.86406E-05-1.92223E-07-3.01662E-19 1.53240E-18
 -1      2543 9.52069E-05-2.83418E-05-2.86567E-05-2.46543E-07-1.14903E-19 1.96203E-18
 -1      2544 2.47954E-05-2.01478E-05-1.75655E-06 1.96625E-05-9.90182E-19 2.61013E-18
 -1      2545 1.95596E-05-1.77626E-05-4.55434E-07 6.76255E-06-1.08857E-18 2.94725E-18
 -1      2546 5.33027E-05-3.35485E-05-8.29186E-06 3.88454E-05-1.16213E-18 1.43360E-18
 -1      2547 3.70923E-05-2.64462E-05-4.23376E-06 2.96545E-05-9.81605E-19 1.65637E-18
 -1      2548 1.87757E-05-1.79593E-05-1.31119E-07-6.71422E-06-7.73553E-19 3.58761E-18
 -1      2549 2.49155E-05-2.06928E-05-1.58408E-06-2.14886E-05 2.83333E-19 4.23368E-18
 -1      2550 9.40091E-05-2.74698E-05-2.85010E-05-1.67396E-07 1.65533E-18 1.79542E-18
 -1      2551 9.41896E-05-2.73217E-05-2.86131E-05 4.39499E-07 1.83039E-18 2.14831E-18
 -1      2552 9.46413E-05-2.74171E-05-2.88264E-05-3.09446E-07 1.90318E-18 8.52495E-19
 -1      2553 9.52659E-05-2.85087E-05-2.86092E-05-8.90125E-08 2.15489E-19 2.92584E-19
 -1      2554 8.90037E-05-5.01593E-05-1.67141E-05 4.18705E-05-9.50583E-19 1.98722E-18
 -1      2555 7.26407E-05-4.38727E-05-1.20781E-05 4.08245E-05-1.22269E-18 1.75865E-18
 -1      2556 1.26537E-04-5.81794E-05-2.95653E-05 2.70412E-05 3.86247E-19 7.44330E-20
 -1      2557 1.07777E-04-5.60009E-05-2.20581E-05 3.42353E-05-5.65818E-19 1.31714E-18
 -1      2558 9.51048E-05-2.00059E-05-3.22326E-05-1.14704E-05-3.33960E-18-2.53882E-18
 -1      2559 9.55323E-05-2.33565E-05-3.09621E-05-7.69170E-06-3.16699E-18-2.13273E-18
 -1      2560 9.51445E-05-2.24809E-05-3.11114E-05-7.31301E-06-2.91162E-18-2.59782E-18
 -1      2561 9.32730E-05-1.75481E-05-3.24518E-05-1.10774E-05-3.14750E-18-3.37821E-18
 -1      2562 3.71849E-05-2.84694E-05-3.53153E-06-3.24133E-05 2.44793E-18 4.08609E-18
 -1      2563 5.12831E-05-3.49921E-05-6.94208E-06-4.02942E-05 2.77403E-18 3.81842E-18
 -1      2564 1.48271E-04-2.49971E-05-5.33035E-05-4.74385E-06-6.84868E-18-4.52739E-19
 -1      2565 1.48200E-04-3.26380E-05-4.97743E-05-1.80752E-06-6.48721E-18-5.07796E-19
 -1      2566 8.77258E-05-1.04843E-05-3.31394E-05-1.43966E-06 7.77735E-19-4.84965E-18
 -1      2567 8.78439E-05-1.06189E-05-3.31301E-05-2.51316E-06 3.17038E-19-4.86400E-18
 -1      2568 8.92058E-05-1.27311E-05-3.27752E-05-2.76046E-06 1.24995E-19-4.58523E-18
 -1      2569 8.89256E-05-1.23606E-05-3.28150E-05-8.83194E-07 8.32929E-19-4.52623E-18
 -1      2570 1.46220E-04-4.73927E-05-4.25223E-05-4.59468E-06 2.69567E-18-1.26293E-18
 -1      2571 1.48926E-04-4.01404E-05-4.72887E-05 2.52390E-06 3.48491E-18 6.95414E-19
 -1      2572 1.45456E-04-1.30285E-05-5.71812E-05 3.77702E-06 7.04266E-18 1.82800E-18
 -1      2573 1.45458E-04-1.17550E-05-5.77475E-05-1.01061E-07 7.47676E-18 1.33437E-18
 -1      2574 1.49051E-04-2.70913E-05-5.24687E-05 3.62462E-06-4.00901E-18-2.41447E-18
 -1      2575 1.47591E-04-2.03633E-05-5.50603E-05 5.21324E-06-5.18617E-18-3.14546E-18
 -1      2576 1.46711E-04-2.71670E-05-5.15582E-05 7.67317E-06 4.88420E-18 1.84272E-18
 -1      2577 1.46628E-04-1.93532E-05-5.51494E-05 6.98747E-06 6.28837E-18 2.57869E-18
 -1      2578 1.29437E-04-5.65648E-05-3.13008E-05-2.23546E-05 1.42852E-18-2.72850E-18
 -1      2579 1.41763E-04-5.36667E-05-3.80731E-05-1.50234E-05 2.48043E-18-1.96385E-18
 -1      2580 1.42434E-04-5.31918E-05-3.81737E-05-3.22036E-06 1.09977E-18 5.15843E-19
 -1      2581 9.62701E-05-5.29191E-05-1.85453E-05-3.81772E-05-5.62642E-19-4.52194E-18
 -1      2582 1.14435E-04-5.61687E-05-2.51950E-05-3.48554E-05 7.54706E-19-4.73004E-18
 -1      2583 5.62738E-05-3.70560E-05-7.95190E-06-3.90399E-05-1.49692E-18-5.63235E-18
 -1      2584 7.63116E-05-4.55670E-05-1.31335E-05-4.31000E-05-7.51318E-19-4.24734E-18
 -1      2585 2.44073E-05-2.23641E-05-7.54345E-07-1.92145E-05-1.45224E-18-8.22300E-18
 -1      2586 3.54488E-05-2.60831E-05-3.82574E-06-3.04970E-05-1.59242E-18-6.51390E-18
 -1      2587 1.84205E-05-1.78325E-05-2.56858E-08 6.79310E-06-2.60304E-19-8.96034E-18
 -1      2588 1.89889E-05-1.83641E-05-5.32785E-08-7.58394E-06-2.47651E-19-9.65618E-18
 -1      2589 3.68608E-05-2.80340E-05-3.71443E-06 3.36269E-05 3.26531E-19-5.33715E-18
 -1      2590 2.48500E-05-2.21461E-05-9.53997E-07 2.11158E-05 6.31040E-19-7.06849E-18
 -1      2591 7.28667E-05-4.37849E-05-1.24686E-05 4.38543E-05-3.89847E-19-3.73605E-18
 -1      2592 5.50345E-05-3.72262E-05-7.46952E-06 3.96208E-05 6.07746E-19-4.64026E-18
 -1      2593 1.09407E-04-5.47849E-05-2.35514E-05 3.69443E-05-1.85670E-18-1.87258E-18
 -1      2594 9.18000E-05-5.12199E-05-1.73431E-05 3.99639E-05-1.08780E-18-2.49742E-18
 -1      2595 1.35906E-04-5.42004E-05-3.52658E-05 1.99580E-05-3.38368E-18-3.98105E-20
 -1      2596 1.24154E-04-5.61228E-05-2.92065E-05 2.63140E-05-2.39372E-18-8.87902E-19
 -1      2597 1.47800E-04-4.19365E-05-4.57110E-05 3.85082E-06-5.32514E-18-3.13402E-20
 -1      2598 1.41901E-04-4.81809E-05-4.03727E-05 9.37148E-06-4.35314E-18 1.28537E-19
 -1      2599 1.46118E-04-1.28763E-05-5.75304E-05-3.07087E-06-6.75763E-18-1.17971E-18
 -1      2600 1.46138E-04-1.66601E-05-5.58449E-05-4.95955E-06-6.84678E-18-8.54233E-19
 -1      2601 1.44841E-04-1.26723E-05-5.69779E-05 3.35814E-06-5.67258E-18-1.86337E-18
 -1      2602 1.44843E-04-1.06900E-05-5.78968E-05 5.05692E-07-5.93770E-18-1.94518E-18
 -1      2603 1.44935E-04-4.34573E-05-4.36830E-05-5.62387E-06-1.65770E-18-1.62927E-18
 -1      2604 1.50178E-04-3.61462E-05-4.91657E-05-9.73630E-07-2.93200E-18-2.06274E-18
 -1      2605 1.43144E-04-3.22612E-05-4.76346E-05 7.06315E-06-2.94587E-18-3.10628E-18
 -1      2606 1.31608E-04-5.46103E-05-3.30956E-05-2.07829E-05 1.16107E-18 1.48866E-19
 -1      2607 1.40896E-04-5.13425E-05-3.86377E-05-1.47717E-05-3.38972E-19-9.48889E-19
 -1      2608 1.05399E-04-5.45540E-05-2.17278E-05-3.59648E-05 2.47927E-18 1.09913E-18
 -1      2609 1.20912E-04-5.61859E-05-2.78803E-05-3.11010E-05 1.74743E-18 1.24239E-18
 -1      2610 6.92928E-05-4.28197E-05-1.11843E-05-4.16783E-05 3.93997E-18 3.75363E-18
 -1      2611 8.69507E-05-4.86751E-05-1.64539E-05-4.27586E-05 3.40190E-18 1.80066E-18
 -1      2612 1.45213E-04-5.11605E-05-4.07263E-05 7.65974E-06 2.49044E-18-1.24112E-18
 -1      2613 1.38009E-04-5.54507E-05-3.53720E-05 1.36317E-05 1.12407E-18-3.57660E-19
 -1      2614 9.63534E-05-2.50802E-05-3.05695E-05 7.36678E-06 3.55145E-18 3.89120E-18
 -1      2615 9.74341E-05-2.37640E-05-3.15936E-05 1.04799E-05 3.78693E-18 4.44961E-18
 -1      2616 9.58994E-05-2.12953E-05-3.20291E-05 1.16572E-05 4.18901E-18 3.05946E-18
 -1      2617 9.59403E-05-2.41363E-05-3.08071E-05 7.39107E-06 3.74238E-18 2.21158E-18
 -1      2618 1.42362E-04-3.44996E-05-4.63644E-05 1.00490E-05 3.87698E-18 3.48808E-18
 -1      2619 9.07899E-05-1.48520E-05-3.25400E-05-6.47239E-06-1.43303E-18-4.62997E-18
 -1      2620 8.97289E-05-1.30638E-05-3.29146E-05-7.67484E-06-1.58075E-18-4.93244E-18
 -1      2621 9.04441E-05-1.39210E-05-3.28609E-05-8.84280E-06-2.07541E-18-4.65798E-18
 -1      2622 9.49652E-05-2.68795E-05-2.91941E-05 1.36595E-06 2.33370E-18 1.22100E-18
 -1      2623 9.42915E-05-1.90681E-05-3.22834E-05 1.13420E-05 4.23508E-18 1.38786E-18
 -1      2624 6.70370E-05-3.87606E-05-1.17406E-05-4.09444E-05 4.07529E-18 2.56820E-18
 -1      2625 1.02021E-04-5.35804E-05-2.04398E-05-3.67655E-05 4.00244E-18 1.52892E-18
 -1      2626 3.70001E-05-2.25273E-05-5.70005E-06-2.67858E-05 1.54488E-18 3.37098E-18
 -1      2627 1.44141E-04-4.71749E-05-4.16294E-05-3.37875E-06 2.60124E-18-3.12746E-18
 -1      2628 1.42131E-04-4.92269E-05-3.98250E-05-3.86505E-06-1.53942E-19-2.84010E-18
 -1      2629 1.37655E-04-1.54102E-05-5.26417E-05 7.11915E-06-4.90305E-18-2.33622E-18
 -1      2630 6.86161E-05-3.80963E-05-1.25639E-05 3.83536E-05-2.02102E-18 1.21232E-18
 -1      2631 1.35386E-04-9.97417E-06-5.39937E-05-1.96862E-06-5.97963E-18-1.33228E-18
 -1      2632 9.52812E-05-2.85145E-05-2.86143E-05 1.03560E-07-8.95960E-19 3.36569E-18
 -1      2633 9.52762E-05-2.84895E-05-2.86227E-05 1.32402E-07-1.17463E-19 4.18139E-18
 -1      2634 1.43272E-04-3.83237E-05-4.50239E-05-5.51563E-06-4.67869E-18 1.16382E-18
 -1      2635 2.62701E-05-1.47661E-05-4.32924E-06-3.53197E-07-1.21285E-18 3.48935E-18
 -1      2636 3.87580E-05-2.11168E-05-6.96368E-06 2.47953E-05-1.13672E-18 2.00006E-18
 -1      2637 1.39269E-04-5.37581E-05-3.65924E-05 8.31982E-06-2.65614E-18 1.21126E-18
 -1      2638 9.47694E-05-2.05572E-05-3.17611E-05 9.36700E-06 3.94397E-18 9.05253E-19
 -1      2639 1.33211E-04-5.90118E-05-3.17189E-05 1.63560E-05-6.75509E-20-1.24620E-18
 -1      2640 1.20937E-04-5.83225E-05-2.66164E-05 2.77539E-05-2.93497E-19 1.22608E-19
 -1      2641 1.05025E-04-5.48239E-05-2.11898E-05 3.47747E-05-2.02737E-18 2.31558E-19
 -1      2642 1.39764E-04-2.04473E-05-5.12964E-05-8.58047E-06-6.29896E-18 7.25272E-20
 -1      2643 8.92435E-05-4.90006E-05-1.68687E-05 4.03489E-05 1.62630E-18-2.18709E-18
 -1      2644 5.33790E-05-3.15890E-05-8.85101E-06 3.68035E-05 1.82260E-18-4.77832E-18
 -1      2645 2.87513E-05-1.72168E-05-4.37501E-06 1.44603E-05 1.05127E-18-7.65083E-18
 -1      2646 2.85170E-05-1.71295E-05-4.29271E-06-1.30188E-05-8.12622E-19-8.45381E-18
 -1      2647 5.07823E-05-3.14144E-05-7.90849E-06-3.57083E-05-2.08243E-18-5.84940E-18
 -1      2648 6.59359E-05-3.57197E-05-1.26865E-05-3.79453E-05-2.89241E-18-4.35693E-18
 -1      2649 4.64274E-05-2.48491E-05-8.79645E-06-3.10224E-05-2.17105E-18-6.01775E-18
 -1      2650 1.26502E-04-5.93770E-05-2.86061E-05-2.38586E-05-6.19181E-19-2.17232E-18
 -1      2651 9.21481E-05-1.62307E-05-3.25703E-05-1.00797E-05-2.75092E-18-4.00984E-18
 -1      2652 1.45822E-04-2.66406E-05-5.13322E-05-8.83110E-06 5.83479E-18-1.93208E-18
 -1      2653 1.39244E-04-3.09991E-05-4.64807E-05-1.23120E-05 4.42321E-18-3.13508E-18
 -1      2654 1.36828E-04-2.02343E-05-5.08381E-05-1.14985E-05 5.46146E-18-1.65447E-18
 -1      2655 1.38942E-04-1.19908E-05-5.47541E-05-2.29206E-06 7.03800E-18 9.20142E-19
 -1      2656 1.36203E-04-1.55636E-05-5.20247E-05 8.21071E-06 5.93092E-18 4.41368E-18
 -1      2657 9.27005E-05-5.10025E-05-1.76432E-05-3.89500E-05-2.09662E-18-4.23786E-18
 -1      2658 9.52929E-05-2.85103E-05-2.86202E-05-1.26316E-07 8.96482E-19 1.16623E-18
 -1      2659 9.52703E-05-2.84741E-05-2.86278E-05-1.51693E-07 1.50691E-19 5.24578E-19
 -1      2660 9.52728E-05-2.84334E-05-2.86447E-05-2.12837E-07-1.19705E-19 1.35567E-18
 -1      2661 9.53189E-05-2.85063E-05-2.86321E-05-1.66362E-07 9.61467E-19 1.61381E-18
 -1      2662 1.29144E-04-5.82899E-05-3.02331E-05-2.11334E-05 2.47874E-18-8.41739E-20
 -1      2663 9.52795E-05-2.84512E-05-2.86400E-05 1.92240E-07-4.70396E-19 3.78363E-18
 -1      2664 9.53156E-05-2.84677E-05-2.86505E-05-2.35865E-07 6.73508E-19 1.51986E-18
 -1      2665 9.03704E-05-1.47414E-05-3.24344E-05 2.96895E-06 2.29913E-18-3.49181E-18
 -1      2666 9.01529E-05-1.44440E-05-3.24679E-05 2.08914E-06 1.94407E-18-3.76966E-18
 -1      2667 8.99968E-05-1.42170E-05-3.24971E-05 1.32157E-06 1.62851E-18-4.01644E-18
 -1      2668 8.99216E-05-1.41154E-05-3.25083E-05 4.26912E-07 1.26462E-18-4.07570E-18
 -1      2669 9.11291E-05-1.60308E-05-3.21703E-05 1.48641E-06 1.63960E-18-3.56474E-18
 -1      2670 9.21176E-05-1.73063E-05-3.20988E-05 6.09139E-06 3.34182E-18-2.02361E-18
 -1      2671 9.15514E-05-1.64661E-05-3.22034E-05 5.27349E-06 3.05531E-18-2.49329E-18
 -1      2672 9.36065E-05-1.96332E-05-3.17442E-05 7.20734E-06 3.62026E-18-9.68020E-19
 -1      2673 9.27893E-05-1.83375E-05-3.19265E-05 6.62744E-06 3.43435E-18-1.58506E-18
 -1      2674 9.34105E-05-1.95989E-05-3.16101E-05 5.29605E-06 3.07058E-18-1.57699E-18
 -1      2675 9.53573E-05-2.53130E-05-3.00285E-05 3.52244E-06 2.92289E-18 6.55376E-19
 -1      2676 9.56515E-05-2.44787E-05-3.04701E-05 5.21474E-06 3.20310E-18 9.20661E-19
 -1      2677 1.35734E-04-5.79782E-05-3.38276E-05 7.80218E-06 1.92435E-19-1.80926E-18
 -1      2678 1.27359E-04-5.93518E-05-2.88456E-05 1.80593E-05-1.34673E-18-7.79588E-19
 -1      2679 9.51998E-05-2.65514E-05-2.94229E-05 1.15723E-06 2.22909E-18 4.33831E-19
 -1      2680 9.54075E-05-2.60705E-05-2.96792E-05 2.25336E-06 2.51584E-18 6.40424E-19
 -1      2681 9.53816E-05-2.48556E-05-3.02243E-05 3.27349E-06 2.84345E-18-5.35087E-20
 -1      2682 9.54812E-05-2.57113E-05-2.98746E-05-2.09283E-06-1.74931E-18-2.36609E-18
 -1      2683 9.53646E-05-2.62697E-05-2.96198E-05-1.00920E-06-1.46312E-18-2.40713E-18
 -1      2684 9.53994E-05-2.67435E-05-2.94019E-05-1.47643E-07-1.27051E-18-2.30771E-18
 -1      2685 9.53297E-05-2.70686E-05-2.92569E-05 5.89968E-07-1.04881E-18-2.46297E-18
 -1      2686 9.54965E-05-2.59890E-05-2.97954E-05-7.93113E-07-1.44849E-18-2.49877E-18
 -1      2687 9.53132E-05-2.73259E-05-2.91230E-05 1.21504E-06-9.82444E-19-2.32764E-18
 -1      2688 9.53210E-05-2.75204E-05-2.90554E-05 1.73699E-06-1.00021E-18-2.35340E-18
 -1      2689 9.55226E-05-2.68711E-05-2.94304E-05 7.74289E-07-1.05566E-18-2.51514E-18
 -1      2690 9.53015E-05-2.76515E-05-2.89845E-05 2.20773E-06-8.63789E-19-2.20588E-18
 -1      2691 9.53849E-05-2.77700E-05-2.89731E-05 2.60554E-06-8.83478E-19-2.16159E-18
 -1      2692 9.54994E-05-2.73589E-05-2.92108E-05 1.93389E-06-9.61390E-19-2.30347E-18
 -1      2693 9.53811E-05-2.78248E-05-2.89489E-05 2.98944E-06-7.52692E-19-2.03121E-18
 -1      2694 9.55324E-05-2.78999E-05-2.89786E-05 3.32600E-06-4.91210E-19-1.93848E-18
 -1      2695 9.54871E-05-2.76018E-05-2.91003E-05 2.83895E-06-7.32286E-19-1.89727E-18
 -1      2696 9.55522E-05-2.79107E-05-2.89884E-05 3.67298E-06-4.17544E-19-1.90791E-18
 -1      2697 9.57662E-05-2.79671E-05-2.90486E-05 3.98945E-06-4.03686E-19-1.70325E-18
 -1      2698 9.55112E-05-2.76941E-05-2.90699E-05 3.60995E-06-4.29422E-19-1.80684E-18
 -1      2699 9.58162E-05-2.79603E-05-2.90822E-05 4.33320E-06-4.45207E-19-1.47553E-18
 -1      2700 9.60932E-05-2.80218E-05-2.91645E-05 4.65258E-06-4.80148E-19-1.34519E-18
 -1      2701 9.55864E-05-2.77054E-05-2.90964E-05 4.33374E-06-2.92664E-19-1.45197E-18
 -1      2702 9.61844E-05-2.80254E-05-2.92128E-05 5.01132E-06-6.10501E-19-1.19748E-18
 -1      2703 9.65315E-05-2.81202E-05-2.93098E-05 5.33900E-06-4.68819E-19-1.11237E-18
 -1      2704 9.57304E-05-2.77004E-05-2.91600E-05 5.06522E-06-4.07130E-19-1.44672E-18
 -1      2705 9.66841E-05-2.81694E-05-2.93646E-05 5.71474E-06-4.76554E-19-9.14633E-19
 -1      2706 9.71165E-05-2.83344E-05-2.94692E-05 6.03672E-06-3.24245E-19-1.19498E-18
 -1      2707 9.59742E-05-2.77526E-05-2.92427E-05 5.82770E-06-4.84786E-19-1.30772E-18
 -1      2708 9.73656E-05-2.84770E-05-2.95226E-05 6.41269E-06-2.91643E-19-1.33823E-18
 -1      2709 9.79086E-05-2.87614E-05-2.96273E-05 6.69162E-06-2.21633E-20-1.61826E-18
 -1      2710 9.63723E-05-2.79569E-05-2.93276E-05 6.61043E-06-5.68537E-19-1.31423E-18
 -1      2711 9.83107E-05-2.90615E-05-2.96725E-05 7.02721E-06 2.82687E-19-1.56160E-18
 -1      2712 9.90007E-05-2.95275E-05-2.97703E-05 7.19702E-06 4.53955E-19-1.17862E-18
 -1      2713 9.70147E-05-2.84404E-05-2.93995E-05 7.36212E-06 1.42208E-19-9.52762E-19
 -1      2714 9.96400E-05-3.00657E-05-2.98041E-05 7.41942E-06 5.15379E-19-1.04872E-18
 -1      2715 1.00522E-04-3.07813E-05-2.98907E-05 7.37981E-06 5.24314E-19-8.81019E-19
 -1      2716 9.80401E-05-2.93672E-05-2.94485E-05 7.97901E-06 5.79906E-19-1.08739E-18
 -1      2717 1.01509E-04-3.16423E-05-2.99182E-05 7.37204E-06 2.24937E-19-9.38534E-19
 -1      2718 1.02622E-04-3.26561E-05-2.99972E-05 6.98692E-06-1.60767E-19-7.38749E-19
 -1      2719 9.96424E-05-3.09268E-05-2.94771E-05 8.28528E-06 1.87317E-19-1.44564E-18
 -1      2720 1.04074E-04-3.38907E-05-3.00402E-05 6.57315E-06-8.91531E-20-3.92668E-19
 -1      2721 1.05414E-04-3.51727E-05-3.01298E-05 5.68136E-06-5.59480E-20-2.97823E-19
 -1      2722 1.02054E-04-3.32822E-05-2.95149E-05 8.00479E-06 2.91312E-19-3.98249E-19
 -1      2723 1.07387E-04-3.67114E-05-3.02379E-05 4.62335E-06 3.30215E-19 2.61559E-19
 -1      2724 1.08829E-04-3.80433E-05-3.03808E-05 3.08637E-06 4.87176E-19 5.60093E-19
 -1      2725 1.05468E-04-3.64341E-05-2.96389E-05 6.73011E-06 4.84088E-19 8.55842E-19
 -1      2726 1.11174E-04-3.95516E-05-3.06432E-05 1.15239E-06 5.35053E-19 1.38303E-18
 -1      2727 1.12396E-04-4.04143E-05-3.09075E-05-1.02141E-06 7.46714E-19 1.86863E-18
 -1      2728 1.09819E-04-3.99361E-05-3.00009E-05 3.95281E-06 8.77055E-19 1.88436E-18
 -1      2729 1.14587E-04-4.11735E-05-3.14442E-05-3.86655E-06 7.72799E-19 2.11124E-18
 -1      2730 1.15038E-04-4.07133E-05-3.19050E-05-6.31687E-06 7.72388E-19 1.91964E-18
 -1      2731 1.14480E-04-4.25996E-05-3.08367E-05-7.08094E-07 7.88134E-19 2.37223E-18
 -1      2732 1.16079E-04-3.96530E-05-3.28132E-05-9.42911E-06 4.51274E-19 1.88598E-18
 -1      2733 1.15290E-04-3.71498E-05-3.34907E-05-1.11626E-05-3.30343E-20 1.71279E-18
 -1      2734 1.17912E-04-4.23023E-05-3.24046E-05-6.88064E-06 7.20732E-19 2.29186E-18
 -1      2735 1.14310E-04-3.37404E-05-3.47126E-05-1.27650E-05-9.36091E-19 1.31423E-18
 -1      2736 1.12496E-04-2.96294E-05-3.54767E-05-1.23785E-05-1.74277E-18 3.84027E-19
 -1      2737 1.17982E-04-3.68628E-05-3.47924E-05-1.24038E-05-9.33430E-19 1.84186E-18
 -1      2738 1.10219E-04-2.53019E-05-3.66096E-05-1.05838E-05-2.24043E-18-5.00450E-19
 -1      2739 1.08477E-04-2.18729E-05-3.71499E-05-7.49945E-06-2.46378E-18-1.27199E-18
 -1      2740 1.14712E-04-2.76069E-05-3.73438E-05-1.25847E-05-2.66232E-18 2.02653E-19
 -1      2741 1.07332E-04-1.98124E-05-3.76333E-05-2.21009E-06-2.54960E-18-2.51373E-18
 -1      2742 1.07172E-04-1.97788E-05-3.76379E-05 2.13411E-06-2.60897E-18-2.72484E-18
 -1      2743 1.10691E-04-1.91690E-05-3.92928E-05-5.32221E-06-3.45055E-18-1.86849E-18
 -1      2744 1.08554E-04-2.17886E-05-3.71645E-05 7.54497E-06-2.03116E-18-2.68050E-18
 -1      2745 1.10215E-04-2.52422E-05-3.66248E-05 1.06720E-05-1.54897E-18-2.96571E-18
 -1      2746 1.10501E-04-1.88586E-05-3.93700E-05 5.65709E-06-2.33651E-18-2.44369E-18
 -1      2747 1.12489E-04-2.95928E-05-3.54913E-05 1.24479E-05-1.22110E-18-3.16721E-18
 -1      2748 1.14298E-04-3.36612E-05-3.47365E-05 1.28490E-05-9.17727E-19-3.32364E-18
 -1      2749 1.14671E-04-2.74167E-05-3.74841E-05 1.26121E-05-1.70365E-18-2.16975E-18
 -1      2750 1.15312E-04-3.70839E-05-3.35267E-05 1.13030E-05-1.55113E-19-3.37347E-18
 -1      2751 1.16110E-04-3.96141E-05-3.28509E-05 9.56912E-06 7.94668E-19-2.67126E-18
 -1      2752 1.18013E-04-3.67075E-05-3.48144E-05 1.23814E-05-2.89076E-19-2.66723E-18
 -1      2753 1.15091E-04-4.06638E-05-3.19458E-05 6.48702E-06 1.43877E-18-2.34820E-18
 -1      2754 1.14637E-04-4.11230E-05-3.14903E-05 4.05433E-06 1.94311E-18-1.84134E-18
 -1      2755 1.17928E-04-4.22126E-05-3.24462E-05 7.03282E-06 1.53989E-18-2.27511E-18
 -1      2756 1.12468E-04-4.03698E-05-3.09563E-05 1.24398E-06 1.89446E-18-1.15957E-18
 -1      2757 1.11263E-04-3.95151E-05-3.06972E-05-9.13923E-07 1.45719E-18-8.37299E-19
 -1      2758 1.14521E-04-4.25221E-05-3.08833E-05 9.37857E-07 2.04143E-18-7.22765E-19
 -1      2759 1.08913E-04-3.79916E-05-3.04394E-05-2.82489E-06 9.51969E-19-4.38452E-19
 -1      2760 1.07486E-04-3.66537E-05-3.03041E-05-4.33075E-06 1.41580E-18-7.31021E-20
 -1      2761 1.09874E-04-3.98703E-05-3.00536E-05-3.69676E-06 1.69695E-18 1.57031E-18
 -1      2762 1.05516E-04-3.51060E-05-3.02016E-05-5.35078E-06 1.34891E-18-6.11507E-19
 -1      2763 1.04196E-04-3.38199E-05-3.01211E-05-6.20523E-06 1.64535E-18-4.08501E-19
 -1      2764 1.05515E-04-3.63302E-05-2.97014E-05-6.40232E-06 1.25780E-18 1.15689E-18
 -1      2765 1.02743E-04-3.25713E-05-3.00856E-05-6.57608E-06 1.12981E-18-7.21286E-19
 -1      2766 1.01654E-04-3.15514E-05-3.00179E-05-6.91423E-06 5.20512E-19-5.82229E-19
 -1      2767 1.02104E-04-3.31560E-05-2.95891E-05-7.59856E-06 1.07950E-18-1.57826E-19
 -1      2768 1.00668E-04-3.06768E-05-2.99986E-05-6.86851E-06-6.73176E-20-3.19524E-19
 -1      2769 9.98159E-05-2.99576E-05-2.99245E-05-6.85255E-06-1.91566E-19-7.24804E-19
 -1      2770 9.96918E-05-3.07675E-05-2.95658E-05-7.77979E-06 8.80941E-20-1.74821E-18
 -1      2771 9.91778E-05-2.94073E-05-2.98985E-05-6.56929E-06-1.08865E-18 1.96321E-19
 -1      2772 9.85237E-05-2.89413E-05-2.98140E-05-6.33696E-06-1.07002E-18 4.78608E-20
 -1      2773 9.80924E-05-2.91787E-05-2.95512E-05-7.35750E-06-3.87452E-19-5.17707E-19
 -1      2774 9.81220E-05-2.86317E-05-2.97753E-05-5.93536E-06-2.16317E-19 9.24856E-19
 -1      2775 9.76199E-05-2.83526E-05-2.96838E-05-5.58978E-06 5.31172E-19 1.27348E-18
 -1      2776 9.70702E-05-2.82280E-05-2.95138E-05-6.61299E-06-2.55814E-19 1.34335E-18
 -1      2777 9.73698E-05-2.82053E-05-2.96341E-05-5.14656E-06 8.99205E-20 1.30062E-19
 -1      2778 9.69817E-05-2.80535E-05-2.95412E-05-4.75873E-06 5.16756E-19-1.00092E-19
 -1      2779 9.64294E-05-2.77302E-05-2.94484E-05-5.72850E-06-2.81273E-19 1.16987E-18
 -1      2780 9.68252E-05-2.80073E-05-2.94850E-05-4.32126E-06 7.33044E-19-8.61392E-19
 -1      2781 9.65230E-05-2.79371E-05-2.93958E-05-3.93653E-06-8.00990E-19-6.45399E-19
 -1      2782 9.60294E-05-2.75282E-05-2.93612E-05-4.81924E-06-1.70014E-19-8.98676E-19
 -1      2783 9.64232E-05-2.79489E-05-2.93379E-05-3.53220E-06-1.87531E-18-3.62530E-19
 -1      2784 9.61870E-05-2.79281E-05-2.92562E-05-3.17697E-06-1.11320E-18-8.24860E-19
 -1      2785 9.57773E-05-2.75051E-05-2.92619E-05-3.95496E-06-8.49861E-19-4.91701E-19
 -1      2786 9.61214E-05-2.79697E-05-2.92003E-05-2.81966E-06-3.03517E-19-1.67886E-18
 -1      2787 9.59370E-05-2.79768E-05-2.91282E-05-2.50711E-06 2.84836E-19-1.99537E-18
 -1      2788 9.56148E-05-2.75807E-05-2.91593E-05-3.17444E-06-1.27650E-18-5.76709E-19
 -1      2789 9.58921E-05-2.80305E-05-2.90769E-05-2.20183E-06 4.63698E-19-2.51178E-18
 -1      2790 9.57488E-05-2.80517E-05-2.90152E-05-1.93642E-06 8.07753E-20-1.76994E-18
 -1      2791 9.55068E-05-2.77029E-05-2.90603E-05-2.49546E-06-9.28849E-20-1.57056E-18
 -1      2792 9.57169E-05-2.81072E-05-2.89698E-05-1.68255E-06-8.00638E-20-1.62682E-18
 -1      2793 9.56065E-05-2.81341E-05-2.89186E-05-1.46337E-06-7.20388E-19-1.37168E-18
 -1      2794 9.54323E-05-2.78398E-05-2.89695E-05-1.92198E-06 1.85190E-19-2.82447E-18
 -1      2795 9.55827E-05-2.81855E-05-2.88797E-05-1.25700E-06-3.90616E-19-5.85722E-19
 -1      2796 9.54986E-05-2.82131E-05-2.88381E-05-1.08009E-06 1.21846E-18-2.08697E-20
 -1      2797 9.53787E-05-2.79729E-05-2.88893E-05-1.44930E-06 3.29829E-19-1.13119E-18
 -1      2798 9.54802E-05-2.82577E-05-2.88057E-05-9.15643E-07 1.71408E-18-8.91992E-20
 -1      2799 9.54166E-05-2.82831E-05-2.87727E-05-7.75619E-07 1.08954E-18 4.66772E-19
 -1      2800 9.53387E-05-2.80925E-05-2.88208E-05-1.06789E-06 1.24455E-18 4.31996E-19
 -1      2801 9.54015E-05-2.83198E-05-2.87462E-05-6.46845E-07 8.18761E-19-1.82492E-19
 -1      2802 9.53541E-05-2.83419E-05-2.87204E-05-5.37685E-07 7.49588E-19-2.37622E-19
 -1      2803 9.53071E-05-2.81941E-05-2.87635E-05-7.65976E-07 7.34152E-19-8.45349E-19
 -1      2804 9.53411E-05-2.83715E-05-2.86990E-05-4.39065E-07 4.30146E-19 6.12011E-19
 -1      2805 9.53061E-05-2.83888E-05-2.86790E-05-3.55941E-07 1.25560E-18 1.12217E-18
 -1      2806 9.52811E-05-2.82781E-05-2.87165E-05-5.30710E-07 1.18107E-18 1.08301E-18
 -1      2807 9.51548E-05-2.78424E-05-2.88411E-05-2.45405E-06 6.63814E-19-1.46484E-19
 -1      2808 9.50276E-05-2.77292E-05-2.88323E-05-2.07313E-06 9.77200E-19 9.57103E-20
 -1      2809 1.24275E-04-5.82918E-05-2.80401E-05-2.09455E-05 3.28617E-18-7.11984E-19
 -1      2810 1.32736E-04-5.79197E-05-3.24403E-05-1.30630E-05 2.22547E-18-2.01594E-18
 -1      2811 9.50367E-05-2.76176E-05-2.88892E-05-1.60340E-06 1.26558E-18 3.19806E-20
 -1      2812 9.50154E-05-2.74463E-05-2.89408E-05-1.10061E-06 1.60895E-18 2.72080E-19
 -1      2813 9.53233E-05-2.74870E-05-2.90827E-05-1.83067E-06 1.23519E-18-3.46336E-20
 -1      2814 9.57647E-05-2.80428E-05-2.90130E-05-3.83714E-06 4.61403E-19-2.29780E-19
 -1      2815 9.54706E-05-2.79803E-05-2.89234E-05-3.51574E-06 4.91220E-19-2.60165E-19
 -1      2816 9.62378E-05-2.80907E-05-2.91937E-05-4.54387E-06 5.90314E-19-1.59631E-19
 -1      2817 9.58694E-05-2.80299E-05-2.90755E-05-4.19849E-06 5.15873E-19-1.53075E-19
 -1      2818 9.56477E-05-2.77785E-05-2.90919E-05-4.27817E-06 3.91417E-19-4.92430E-19
 -1      2819 9.68253E-05-2.81502E-05-2.94189E-05-5.32579E-06 1.02343E-18-9.84345E-23
 -1      2820 9.63793E-05-2.80723E-05-2.92773E-05-4.94121E-06 9.18499E-19 6.18671E-20
 -1      2821 9.58968E-05-2.77311E-05-2.92180E-05-5.07192E-06 7.62690E-19-3.63700E-19
 -1      2822 9.75450E-05-2.82709E-05-2.96752E-05-6.19297E-06 7.53248E-19-7.55659E-20
 -1      2823 9.70112E-05-2.81489E-05-2.95159E-05-5.77115E-06 9.82382E-19 1.00085E-19
 -1      2824 9.62250E-05-2.76906E-05-2.93756E-05-5.94722E-06 1.05173E-18-1.64729E-19
 -1      2825 9.84356E-05-2.85287E-05-2.99471E-05-7.11604E-06-1.58901E-20-1.93759E-19
 -1      2826 9.77954E-05-2.83219E-05-2.97771E-05-6.68152E-06 3.77019E-19-5.55101E-20
 -1      2827 9.66601E-05-2.77258E-05-2.95475E-05-6.91363E-06 6.37564E-19-2.55846E-19
 -1      2828 9.95681E-05-2.90405E-05-3.02156E-05-8.01147E-06-2.04409E-19-5.61472E-19
 -1      2829 9.87911E-05-2.86876E-05-3.00444E-05-7.62040E-06-1.39869E-19-4.50468E-19
 -1      2830 9.72614E-05-2.79427E-05-2.97143E-05-7.94261E-06 1.09610E-19-1.23371E-19
 -1      2831 1.01062E-04-2.99772E-05-3.04598E-05-8.71978E-06-4.74769E-19-1.25758E-20
 -1      2832 1.00102E-04-2.93924E-05-3.02986E-05-8.47178E-06-3.50575E-19-3.74232E-19
 -1      2833 9.81404E-05-2.85033E-05-2.98558E-05-8.95402E-06-2.28284E-19-6.16693E-19
 -1      2834 1.03098E-04-3.15598E-05-3.06638E-05-8.97756E-06-5.61228E-19 4.41575E-19
 -1      2835 1.01896E-04-3.06406E-05-3.05219E-05-9.02796E-06-5.54901E-19 3.37035E-19
 -1      2836 9.94877E-05-2.96412E-05-2.99554E-05-9.79373E-06-6.88342E-19 2.05469E-19
 -1      2837 1.05903E-04-3.40054E-05-3.08340E-05-8.39018E-06-6.63429E-19 1.32984E-18
 -1      2838 1.04406E-04-3.26712E-05-3.07107E-05-8.95439E-06-6.22541E-19 8.19108E-19
 -1      2839 1.01595E-04-3.16510E-05-3.00135E-05-1.01978E-05-9.45977E-19 6.86623E-19
 -1      2840 1.09653E-04-3.73500E-05-3.10308E-05-6.42414E-06-8.01713E-19 2.36019E-18
 -1      2841 1.07881E-04-3.56552E-05-3.08999E-05-7.75470E-06-7.05515E-19 1.84423E-18
 -1      2842 1.04841E-04-3.48074E-05-3.00744E-05-9.73872E-06-1.16330E-18 1.28704E-18
 -1      2843 1.14202E-04-4.10676E-05-3.14119E-05-2.51616E-06-1.34076E-18 2.50512E-18
 -1      2844 1.12390E-04-3.94118E-05-3.12027E-05-4.79390E-06-9.24546E-19 2.43634E-18
 -1      2845 1.09544E-04-3.90970E-05-3.02704E-05-7.76532E-06-1.00930E-18 1.88615E-18
 -1      2846 1.18680E-04-4.35631E-05-3.22690E-05 3.52043E-06-1.17956E-18 2.90668E-18
 -1      2847 1.17391E-04-4.29083E-05-3.18570E-05 4.51243E-07-1.76219E-18 2.45824E-18
 -1      2848 1.15565E-04-4.36796E-05-3.08807E-05-3.47403E-06-1.34133E-18 2.18322E-18
 -1      2849 1.21208E-04-4.21094E-05-3.39426E-05 1.05139E-05 1.93157E-19 3.18391E-18
 -1      2850 1.21256E-04-4.38699E-05-3.32108E-05 7.55116E-06-3.13501E-19 3.09178E-18
 -1      2851 1.21521E-04-4.61639E-05-3.23677E-05 3.57445E-06-8.27611E-19 2.42913E-18
 -1      2852 1.19653E-04-3.46555E-05-3.64402E-05 1.47732E-05 1.82499E-18 2.89468E-18
 -1      2853 1.21476E-04-3.92527E-05-3.54542E-05 1.39191E-05 9.32649E-19 3.08304E-18
 -1      2854 1.24915E-04-4.31027E-05-3.50728E-05 1.15491E-05 5.25531E-19 3.38286E-18
 -1      2855 1.14987E-04-2.40464E-05-3.90535E-05 1.12808E-05 3.48183E-18 1.96833E-18
 -1      2856 1.17449E-04-2.91265E-05-3.81836E-05 1.43112E-05 2.75365E-18 2.28299E-18
 -1      2857 1.22987E-04-3.27406E-05-3.88408E-05 1.54906E-05 2.54282E-18 2.84042E-18
 -1      2858 1.12413E-04-1.90300E-05-4.02504E-05-2.03052E-07 3.12132E-18-2.43118E-19
 -1      2859 1.13053E-04-2.01788E-05-4.00665E-05 5.55013E-06 3.59010E-18 1.12617E-18
 -1      2860 1.18270E-04-2.06069E-05-4.21233E-05 9.32282E-06 4.22458E-18 7.87211E-19
 -1      2861 1.15274E-04-2.47010E-05-3.91732E-05-1.17720E-05 2.79044E-18-1.20529E-18
 -1      2862 1.13415E-04-2.07805E-05-3.98093E-05-7.25217E-06 3.07378E-18-7.50974E-19
 -1      2863 1.16961E-04-1.76871E-05-4.28618E-05-4.27037E-06 3.66670E-18-4.38419E-19
 -1      2864 1.20247E-04-3.54715E-05-3.66030E-05-1.51973E-05 1.42268E-18-1.57176E-18
 -1      2865 1.17922E-04-3.01917E-05-3.76142E-05-1.45270E-05 2.19511E-18-1.56288E-18
 -1      2866 1.21029E-04-2.73049E-05-4.03622E-05-1.44937E-05 2.56339E-18-1.40946E-18
 -1      2867 1.21983E-04-4.27385E-05-3.40497E-05-1.06565E-05 2.97688E-19-1.72447E-18
 -1      2868 1.21123E-04-3.97325E-05-3.49023E-05-1.30292E-05 1.31763E-18-2.10395E-18
 -1      2869 1.24733E-04-3.94382E-05-3.65844E-05-1.42654E-05 1.62278E-18-2.06088E-18
 -1      2870 1.19349E-04-4.37732E-05-3.23556E-05-3.40674E-06-4.90260E-19-1.72943E-18
 -1      2871 1.20120E-04-4.35829E-05-3.28790E-05-6.59174E-06-2.13665E-19-1.49104E-18
 -1      2872 1.23474E-04-4.57366E-05-3.33527E-05-7.00011E-06 2.07920E-20-1.47535E-18
 -1      2873 1.14561E-04-4.09696E-05-3.14677E-05 2.72635E-06-3.15942E-19-1.73022E-18
 -1      2874 1.16228E-04-4.23672E-05-3.17373E-05 8.55885E-08-5.51372E-19-1.74227E-18
 -1      2875 1.18247E-04-4.51263E-05-3.14046E-05 7.37349E-07-4.75328E-19-1.35800E-18
 -1      2876 1.09757E-04-3.71173E-05-3.10688E-05 6.53281E-06 1.03370E-19-3.86250E-19
 -1      2877 1.11571E-04-3.88747E-05-3.12127E-05 4.84728E-06-4.80509E-19-9.75990E-19
 -1      2878 1.11977E-04-4.09909E-05-3.05049E-05 6.09347E-06-8.11192E-19-1.37022E-18
 -1      2879 1.05876E-04-3.37485E-05-3.08703E-05 8.30909E-06 8.65103E-19 8.19104E-19
 -1      2880 1.07471E-04-3.52538E-05-3.09810E-05 7.49366E-06 1.21060E-18 4.11294E-19
 -1      2881 1.06683E-04-3.63945E-05-3.01930E-05 8.86137E-06 2.93484E-20 8.57525E-19
 -1      2882 1.03039E-04-3.13272E-05-3.07106E-05 8.69112E-06-8.90375E-19 1.18008E-18
 -1      2883 1.04325E-04-3.24122E-05-3.08309E-05 8.50139E-06 3.81759E-19 1.09481E-18
 -1      2884 1.02878E-04-3.27175E-05-3.01147E-05 9.77438E-06 4.24716E-19 2.98749E-18
 -1      2885 1.01036E-04-2.97795E-05-3.05278E-05 8.24216E-06-1.35040E-18 1.34910E-18
 -1      2886 1.02046E-04-3.04876E-05-3.06668E-05 8.44224E-06-1.37290E-18 1.15671E-18
 -1      2887 1.00371E-04-3.02427E-05-3.00822E-05 9.56729E-06-1.07720E-18 1.61377E-18
 -1      2888 9.96171E-05-2.88788E-05-3.03129E-05 7.36170E-06-6.95503E-19 1.26907E-18
 -1      2889 1.00412E-04-2.93094E-05-3.04643E-05 7.76922E-06-1.21649E-18 1.24357E-18
 -1      2890 9.87797E-05-2.87651E-05-3.00210E-05 8.75345E-06-1.18083E-18 1.55499E-18
 -1      2891 9.85846E-05-2.84024E-05-3.00785E-05 6.30990E-06 8.27505E-19 1.77976E-18
 -1      2892 9.92168E-05-2.86493E-05-3.02316E-05 6.80120E-06 3.40430E-20 1.67084E-18
 -1      2893 9.77704E-05-2.79870E-05-2.99150E-05 7.66128E-06-4.14669E-19 1.15765E-18
 -1      2894 9.78085E-05-2.81827E-05-2.98417E-05 5.24360E-06 1.41214E-18 1.54003E-18
 -1      2895 9.83158E-05-2.83155E-05-2.99873E-05 5.74232E-06 2.03019E-18 2.52416E-18
 -1      2896 9.71100E-05-2.76479E-05-2.97739E-05 6.49066E-06 8.90918E-19 1.13947E-18
 -1      2897 9.72091E-05-2.81087E-05-2.96170E-05 4.25005E-06 2.77953E-19 2.01605E-18
 -1      2898 9.76171E-05-2.81736E-05-2.97488E-05 4.71361E-06 1.05599E-18 2.54453E-18
 -1      2899 9.66550E-05-2.75619E-05-2.96143E-05 5.35814E-06 9.60314E-19 2.12062E-18
 -1      2900 9.67383E-05-2.81119E-05-2.94137E-05 3.37153E-06 6.42657E-19 1.60317E-18
 -1      2901 9.70652E-05-2.81378E-05-2.95285E-05 3.77963E-06 6.43199E-20 1.57323E-18
 -1      2902 9.63238E-05-2.76091E-05-2.94516E-05 4.32678E-06 3.69877E-19 1.45058E-18
 -1      2903 9.63666E-05-2.81522E-05-2.92368E-05 2.62256E-06-1.46129E-18 2.47795E-18
 -1      2904 9.66261E-05-2.81566E-05-2.93337E-05 2.96865E-06 4.43389E-19 2.41995E-18
 -1      2905 9.60714E-05-2.77175E-05-2.92967E-05 3.42547E-06-7.00162E-20 1.14797E-18
 -1      2906 9.60738E-05-2.82072E-05-2.90873E-05 2.00139E-06-2.27372E-19 1.74993E-18
 -1      2907 9.62774E-05-2.82003E-05-2.91670E-05 2.28681E-06-1.81319E-18 1.42341E-18
 -1      2908 9.58736E-05-2.78463E-05-2.91566E-05 2.66165E-06-9.43410E-19 2.74151E-18
 -1      2909 9.58451E-05-2.82647E-05-2.89643E-05 1.49746E-06 3.22056E-19 1.05369E-18
 -1      2910 9.60025E-05-2.82525E-05-2.90283E-05 1.72770E-06 6.57430E-19 1.99192E-18
 -1      2911 9.57168E-05-2.79739E-05-2.90346E-05 2.03001E-06-5.27572E-19 2.91107E-18
 -1      2912 9.56686E-05-2.83183E-05-2.88653E-05 1.09621E-06 1.35843E-19 1.33273E-18
 -1      2913 9.57884E-05-2.83044E-05-2.89157E-05 1.27857E-06 5.42131E-19 1.05336E-18
 -1      2914 9.55923E-05-2.80896E-05-2.89315E-05 1.51830E-06 5.26855E-19 2.53910E-18
 -1      2915 9.55340E-05-2.83650E-05-2.87874E-05 7.81595E-07-6.03488E-19 2.09142E-18
 -1      2916 9.56236E-05-2.83515E-05-2.88262E-05 9.23919E-07-5.41018E-19 1.41762E-18
 -1      2917 9.54939E-05-2.81888E-05-2.88466E-05 1.11112E-06-6.74549E-19 1.69271E-18
 -1      2918 9.54327E-05-2.84039E-05-2.87270E-05 5.38429E-07 1.90245E-20 3.15934E-18
 -1      2919 9.54985E-05-2.83917E-05-2.87564E-05 6.47919E-07-2.54108E-19 3.48816E-18
 -1      2920 9.54165E-05-2.82705E-05-2.87782E-05 7.91984E-07-1.08995E-18 2.06693E-18
 -1      2921 9.53583E-05-2.84351E-05-2.86809E-05 3.53695E-07-3.27422E-20 3.85718E-18
 -1      2922 9.54047E-05-2.84252E-05-2.87028E-05 4.35572E-07 3.40530E-19 3.87015E-18
 -1      2923 9.53550E-05-2.83353E-05-2.87238E-05 5.45658E-07-7.41116E-19 2.21532E-18
 -1      2924 9.52999E-05-2.84463E-05-2.86509E-05 2.36286E-07-1.25124E-18 3.82843E-18
 -1      2925 9.53319E-05-2.84360E-05-2.86676E-05 2.99578E-07-7.33577E-19 3.87689E-18
 -1      2926 9.53026E-05-2.83715E-05-2.86867E-05 3.81652E-07-1.35078E-18 2.68806E-18
 -1      2927 9.52610E-05-2.83874E-05-2.86618E-05 2.76546E-07-1.35220E-18 1.76077E-18
 -1      2928 9.49088E-05-2.79489E-05-2.86982E-05 3.39627E-08-8.68775E-19-1.73247E-18
 -1      2929 9.49177E-05-2.79582E-05-2.86975E-05 9.07456E-08-1.13131E-18-9.29360E-19
 -1      2930 9.52997E-05-2.84063E-05-2.86669E-05-3.03346E-07 1.30008E-18 9.97720E-19
 -1      2931 9.52811E-05-2.84177E-05-2.86556E-05-2.58089E-07 6.40813E-19 1.52943E-18
 -1      2932 9.52631E-05-2.83376E-05-2.86835E-05-3.74675E-07 1.10163E-18 2.43627E-18
 -1      2933 9.50011E-05-2.80561E-05-2.86925E-05 2.53177E-07-3.38047E-19 1.51237E-18
 -1      2934 9.50403E-05-2.80982E-05-2.86888E-05 2.83410E-07-3.73054E-19-9.79819E-19
 -1      2935 9.49188E-05-2.79600E-05-2.86971E-05-9.32928E-08-2.03821E-19-3.01738E-18
 -1      2936 9.49093E-05-2.79499E-05-2.86980E-05-3.67230E-08-6.71182E-19-2.39656E-18
 -1      2937 9.48475E-05-2.78617E-05-2.87063E-05-2.11849E-09-2.65590E-19-2.27896E-18
 -1      2938 9.49376E-05-2.79823E-05-2.86967E-05 1.56103E-07-1.28046E-18-1.04426E-18
 -1      2939 9.49637E-05-2.80097E-05-2.86945E-05 2.03663E-07-4.25559E-19 2.81789E-19
 -1      2940 9.49355E-05-2.79569E-05-2.87036E-05 2.66641E-07-1.31314E-18 6.95782E-20
 -1      2941 9.48698E-05-2.78853E-05-2.87058E-05 1.43272E-07-4.83680E-19-1.35113E-18
 -1      2942 1.26549E-04-9.10017E-06-5.09280E-05 5.72478E-07-5.37675E-18-6.22477E-19
 -1      2943 1.27891E-04-1.10805E-05-5.06819E-05-5.77459E-06-5.41805E-18 2.93285E-20
 -1      2944 9.49648E-05-2.80126E-05-2.86937E-05-2.03430E-07-9.28688E-20-1.96208E-18
 -1      2945 9.49390E-05-2.79852E-05-2.86960E-05-1.57045E-07-3.53159E-19-1.45962E-18
 -1      2946 9.48713E-05-2.78884E-05-2.87051E-05-1.45736E-07 1.00883E-19-2.54520E-18
 -1      2947 9.50411E-05-2.81017E-05-2.86877E-05-2.82458E-07 2.56405E-19-2.02296E-19
 -1      2948 9.50021E-05-2.80595E-05-2.86915E-05-2.52418E-07-1.04738E-20-5.64859E-19
 -1      2949 9.49370E-05-2.79614E-05-2.87023E-05-2.66647E-07 1.71368E-19-1.58642E-18
 -1      2950 9.51343E-05-2.82164E-05-2.86789E-05-3.14730E-07 7.83878E-19 1.84739E-18
 -1      2951 9.50904E-05-2.81644E-05-2.86842E-05-3.08337E-07 9.40669E-19 3.38493E-19
 -1      2952 9.50348E-05-2.80719E-05-2.86974E-05-3.47186E-07 9.58569E-19 4.30867E-19
 -1      2953 1.37710E-04-5.11347E-05-3.76640E-05 4.96391E-07-2.33673E-18 2.07248E-18
 -1      2954 1.34131E-04-5.60933E-05-3.33612E-05 8.51262E-06-1.17620E-18 2.07894E-18
 -1      2955 1.39370E-04-4.31434E-05-4.19080E-05-9.86934E-06 2.80707E-18-3.35542E-18
 -1      2956 1.38827E-04-5.04532E-05-3.78367E-05-4.57701E-06 1.44742E-18-3.11867E-18
 -1      2957 1.29833E-04-1.69298E-05-4.90646E-05-9.81918E-06-5.50550E-18 6.90067E-19
 -1      2958 1.32959E-04-2.46206E-05-4.68488E-05-1.21413E-05-5.09395E-18 1.51513E-18
 -1      2959 9.43953E-05-2.07833E-05-3.15824E-05-7.88150E-06-2.72103E-18-3.21305E-18
 -1      2960 9.48003E-05-2.25403E-05-3.09911E-05-6.00092E-06-2.51607E-18-2.92231E-18
 -1      2961 9.47847E-05-2.18457E-05-3.12650E-05 7.50178E-06 3.65951E-18 5.48295E-19
 -1      2962 3.16709E-05-1.25980E-05-7.77766E-06 6.14535E-06-1.06525E-18 3.14207E-18
 -1      2963 3.15531E-05-1.26457E-05-7.52464E-06-8.00780E-06-8.87214E-19 2.70034E-18
 -1      2964 1.31989E-04-1.90502E-05-4.88576E-05 1.10327E-05-3.91689E-18-2.81607E-18
 -1      2965 1.27800E-04-1.19576E-05-5.04168E-05 6.60282E-06-4.61866E-18-1.48474E-18
 -1      2966 9.50572E-05-2.72304E-05-2.90671E-05-4.67524E-07 1.88240E-18 2.09206E-19
 -1      2967 9.51560E-05-2.69535E-05-2.92026E-05 2.57529E-07 2.02295E-18 4.36677E-19
 -1      2968 9.54131E-05-2.62620E-05-2.96443E-05 9.85706E-07 2.30888E-18-8.70471E-20
 -1      2969 9.53564E-05-2.70560E-05-2.92826E-05-6.48009E-07 1.85586E-18-7.84324E-20
 -1      2970 4.82095E-05-2.18620E-05-1.10893E-05 2.79915E-05-1.55367E-18 8.77738E-19
 -1      2971 3.81718E-05-1.56546E-05-9.00900E-06 1.71836E-05-1.84362E-18 2.74417E-18
 -1      2972 9.54017E-05-2.79708E-05-2.88899E-05-3.16412E-06 6.22718E-19-3.43377E-19
 -1      2973 9.51856E-05-2.78912E-05-2.88358E-05-2.83637E-06 6.57909E-19-3.43472E-19
 -1      2974 9.53591E-05-2.77035E-05-2.90034E-05-2.74324E-06 8.41898E-19-4.23283E-19
 -1      2975 9.54683E-05-2.77836E-05-2.90142E-05-3.52527E-06 5.52233E-19-1.97179E-19
 -1      2976 9.53523E-05-2.39647E-05-3.05772E-05-4.69642E-06-2.24770E-18-2.64852E-18
 -1      2977 9.52926E-05-2.49200E-05-3.01753E-05-3.13726E-06-1.99341E-18-2.64520E-18
 -1      2978 9.52867E-05-2.45143E-05-3.03251E-05-2.80842E-06-1.83871E-18-2.68082E-18
 -1      2979 9.46379E-05-2.21957E-05-3.10408E-05-5.21827E-06-2.20081E-18-3.00900E-18
 -1      2980 9.10646E-05-1.57395E-05-3.23093E-05 4.59307E-06 2.86282E-18-2.83567E-18
 -1      2981 9.06835E-05-1.52022E-05-3.23722E-05 3.71197E-06 2.51571E-18-3.17961E-18
 -1      2982 9.15881E-05-1.67072E-05-3.20749E-05 2.90775E-06 2.29707E-18-3.06742E-18
 -1      2983 9.23524E-05-1.78712E-05-3.18994E-05 4.22542E-06 2.69133E-18-2.39699E-18
 -1      2984 9.60498E-05-4.97822E-05-1.92990E-05-3.66361E-05 4.50791E-18 9.64400E-19
 -1      2985 1.11549E-04-5.63574E-05-2.38938E-05-3.16350E-05 4.17386E-18 1.79125E-18
 -1      2986 9.06449E-05-1.51537E-05-3.23759E-05-3.65037E-06-4.00044E-19-4.44776E-18
 -1      2987 9.10178E-05-1.56781E-05-3.23143E-05-4.53176E-06-8.39025E-19-4.47011E-18
 -1      2988 1.28789E-04-1.10250E-05-5.11283E-05-1.62498E-06 5.92140E-18 2.22181E-18
 -1      2989 1.33457E-04-1.40211E-05-5.16604E-05-7.64189E-06 5.58279E-18 1.16255E-19
 -1      2990 1.31129E-04-1.71020E-05-4.93482E-05 9.69197E-06 5.78439E-18 4.54481E-18
 -1      2991 1.30142E-04-1.22304E-05-5.12091E-05 4.51649E-06 6.17275E-18 3.71956E-18
 -1      2992 1.25193E-04-1.27957E-05-4.86835E-05 3.24197E-07 5.13683E-18 2.49353E-18
 -1      2993 8.20935E-05-4.25680E-05-1.68297E-05 3.83650E-05-1.76469E-18 1.09077E-18
 -1      2994 6.51152E-05-3.20279E-05-1.36180E-05 3.47967E-05-1.57739E-18 1.01136E-18
 -1      2995 9.20878E-05-1.65567E-05-3.23787E-05-8.68531E-06-2.38837E-18-4.01152E-18
 -1      2996 8.73652E-05-4.66641E-05-1.70433E-05-3.80409E-05-2.62485E-18-3.92102E-18
 -1      2997 1.05217E-04-5.48128E-05-2.16306E-05-3.50721E-05-2.22113E-18-4.13973E-18
 -1      2998 1.38437E-04-5.62842E-05-3.50739E-05-4.21674E-06 2.60727E-21 1.53080E-18
 -1      2999 1.40080E-04-5.08053E-05-3.88944E-05 3.16294E-06 1.01408E-18 2.49875E-18
 -1      3000 9.52494E-05-2.83755E-05-2.86603E-05-2.74913E-07 5.11248E-19 2.11055E-18
 -1      3001 1.19720E-04-5.88951E-05-2.57526E-05-2.61493E-05-1.59772E-18-2.16735E-18
 -1      3002 1.31105E-04-5.98091E-05-3.09867E-05-1.62409E-05-6.33475E-19-1.58819E-20
 -1      3003 1.13873E-04-5.62304E-05-2.44759E-05-2.73240E-05-2.23384E-18-2.53436E-18
 -1      3004 3.14811E-05-1.29765E-05-7.36012E-06-7.27267E-06-3.10702E-19-7.44796E-18
 -1      3005 3.66440E-05-1.66333E-05-7.93841E-06-1.98338E-05-1.36483E-18-6.74789E-18
 -1      3006 3.63996E-05-1.75180E-05-7.72475E-06 2.22110E-05 1.84902E-18-5.60270E-18
 -1      3007 3.02528E-05-1.31359E-05-6.82892E-06 7.05793E-06 1.37745E-18-7.56803E-18
 -1      3008 6.54338E-05-3.45431E-05-1.31222E-05 3.88670E-05 2.59827E-18-3.22233E-18
 -1      3009 4.96113E-05-2.49878E-05-9.95003E-06 3.16881E-05 2.60738E-18-4.19472E-18
 -1      3010 1.14664E-04-5.77053E-05-2.46593E-05 2.92649E-05-1.88550E-18-4.79632E-19
 -1      3011 9.84968E-05-5.10240E-05-1.99625E-05 3.48029E-05-2.18778E-18-1.45743E-19
 -1      3012 9.96115E-05-5.19291E-05-2.05640E-05 3.67947E-05 2.01403E-18-7.84088E-19
 -1      3013 8.35570E-05-4.40367E-05-1.64228E-05 3.88334E-05 3.09961E-18-2.24093E-18
 -1      3014 1.36523E-04-3.39528E-05-4.46542E-05-1.03019E-05-4.49277E-18 2.17772E-18
 -1      3015 1.37958E-04-4.23525E-05-4.12122E-05-7.06265E-06-3.09400E-18 2.27005E-18
 -1      3016 1.38593E-04-4.05169E-05-4.21997E-05 1.15336E-05 2.34109E-18 3.91732E-18
 -1      3017 1.34171E-04-2.92773E-05-4.56287E-05 1.40612E-05 4.35322E-18 4.45836E-18
 -1      3018 1.38901E-04-3.68748E-05-4.39707E-05 8.95982E-06-1.89714E-18-3.01840E-18
 -1      3019 1.36295E-04-2.84770E-05-4.69023E-05 1.10954E-05-2.98950E-18-3.12989E-18
 -1      3020 3.62973E-05-1.72021E-05-7.71164E-06-2.10761E-05 7.76041E-19 1.70847E-18
 -1      3021 4.79508E-05-2.50607E-05-9.42950E-06-3.28212E-05 3.01152E-18 7.72282E-19
 -1      3022 1.26623E-04-5.90398E-05-2.93367E-05 2.02273E-05 1.18585E-20 1.16843E-18
 -1      3023 1.14851E-04-5.69055E-05-2.45027E-05 2.85780E-05 1.15398E-18 1.96776E-19
 -1      3024 6.08477E-05-3.23398E-05-1.16442E-05-3.71757E-05 3.67316E-18 1.48506E-18
 -1      3025 7.60048E-05-4.05236E-05-1.52486E-05-4.00512E-05 4.75863E-18 1.36743E-18
 -1      3026 5.92247E-05-2.74186E-05-1.30532E-05-3.24611E-05 3.43260E-18 7.67624E-19
 -1      3027 1.37431E-04-5.25562E-05-3.64396E-05-3.70072E-06 1.18726E-18-2.90215E-18
 -1      3028 1.39953E-04-4.59824E-05-4.08119E-05 3.20714E-06-6.15211E-19-3.37331E-18
 -1      3029 9.14888E-05-1.63779E-05-3.22111E-05-5.22301E-06-1.12418E-18-4.34400E-18
 -1      3030 9.20063E-05-1.71246E-05-3.21150E-05-6.03060E-06-1.63221E-18-4.18600E-18
 -1      3031 9.22952E-05-1.77949E-05-3.19068E-05-4.18997E-06-9.57702E-19-4.03465E-18
 -1      3032 9.09721E-05-1.58039E-05-3.22011E-05 2.83925E-08 1.00944E-18-3.83032E-18
 -1      3033 8.99172E-05-1.41105E-05-3.25086E-05-3.46124E-07 9.83489E-19-4.16638E-18
 -1      3034 8.99835E-05-1.42002E-05-3.24983E-05-1.24118E-06 6.32798E-19-4.27591E-18
 -1      3035 1.21177E-04-5.74647E-05-2.71867E-05 2.03805E-05-1.63430E-18-9.46030E-20
 -1      3036 1.18728E-04-5.65283E-05-2.64852E-05-2.27262E-05 3.93198E-18-4.28996E-19
 -1      3037 9.50335E-05-2.80669E-05-2.86990E-05 3.48399E-07-1.18480E-18-1.05670E-19
 -1      3038 9.50891E-05-2.81603E-05-2.86855E-05 3.09158E-07-1.32020E-18-1.76402E-18
 -1      3039 9.51345E-05-2.82117E-05-2.86804E-05 3.16915E-07-2.06784E-18-1.83154E-18
 -1      3040 1.33429E-04-5.49892E-05-3.37489E-05-4.80950E-06 2.01094E-18-3.07356E-18
 -1      3041 4.26123E-05-1.39124E-05-1.16662E-05 1.03116E-05-1.87295E-18 2.90712E-18
 -1      3042 1.29176E-04-5.69144E-05-3.09384E-05 1.14018E-05 1.53578E-19 2.04638E-18
 -1      3043 4.12049E-05-1.49286E-05-1.06328E-05-1.43107E-05 8.16222E-19 5.85512E-19
 -1      3044 1.32695E-04-5.76969E-05-3.21324E-05-8.62409E-06-7.25590E-19 1.37706E-18
 -1      3045 1.22326E-04-1.19934E-05-4.76500E-05 4.14334E-06-4.39536E-18-1.06311E-18
 -1      3046 9.51788E-05-2.82731E-05-2.86754E-05 3.13825E-07-2.06922E-18-2.26550E-18
 -1      3047 9.52222E-05-2.83269E-05-2.86686E-05 2.99338E-07-1.28337E-18-4.31383E-19
 -1      3048 9.52391E-05-2.83148E-05-2.86802E-05 3.49907E-07-2.90941E-18 3.40263E-19
 -1      3049 9.51418E-05-2.81927E-05-2.86914E-05 3.73977E-07-2.95817E-18-1.38154E-18
 -1      3050 1.35993E-04-4.21865E-05-4.04742E-05 8.36438E-06-7.30619E-19-2.79669E-18
 -1      3051 1.36010E-04-4.52967E-05-3.90512E-05 9.34165E-06 1.14371E-18 4.19895E-18
 -1      3052 1.34707E-04-4.66979E-05-3.78318E-05-5.97393E-06-2.15615E-18 2.75286E-18
 -1      3053 9.52125E-05-2.83207E-05-2.86674E-05-2.92217E-07 6.04437E-19 1.57492E-18
 -1      3054 1.29688E-04-2.99284E-05-4.30031E-05-1.31672E-05-4.28742E-18 1.54139E-18
 -1      3055 1.34540E-04-5.36871E-05-3.47873E-05-5.21537E-07 8.05601E-19-2.66402E-18
 -1      3056 1.09250E-04-5.36055E-05-2.35464E-05 2.90813E-05 2.32479E-18-4.12598E-20
 -1      3057 7.89153E-05-3.84477E-05-1.68454E-05 3.57201E-05 3.18675E-18-2.30869E-18
 -1      3058 4.98491E-05-2.08802E-05-1.17693E-05 2.52813E-05 2.38593E-18-4.34486E-18
 -1      3059 9.44243E-05-2.13140E-05-3.13387E-05 6.81582E-06 3.55122E-18-2.13644E-19
 -1      3060 1.29475E-04-2.44039E-05-4.53780E-05 1.23579E-05-2.67662E-18-2.90913E-18
 -1      3061 4.87889E-05-2.13682E-05-1.12205E-05-2.47707E-05-2.10101E-18-5.54235E-18
 -1      3062 1.23130E-04-1.55326E-05-4.64761E-05-8.65352E-06-4.94921E-18 3.63642E-19
 -1      3063 1.34820E-04-3.66178E-05-4.24693E-05-1.38176E-05 3.07494E-18-2.77742E-18
 -1      3064 9.01298E-05-1.44157E-05-3.24701E-05-2.00746E-06 3.83320E-19-4.15238E-18
 -1      3065 9.03415E-05-1.47055E-05-3.24368E-05-2.90300E-06-7.50959E-20-4.30971E-18
 -1      3066 9.15544E-05-1.66660E-05-3.20786E-05-2.85356E-06-2.22116E-19-4.04235E-18
 -1      3067 9.11136E-05-1.60125E-05-3.21718E-05-1.42865E-06 4.11058E-19-3.96925E-18
 -1      3068 9.28516E-05-1.82733E-05-3.19600E-05-7.09279E-06-2.00967E-18-3.88926E-18
 -1      3069 1.29793E-04-1.89696E-05-4.78812E-05-1.05946E-05 4.49700E-18-6.80591E-19
 -1      3070 6.30813E-05-2.67966E-05-1.49969E-05 2.87858E-05-1.42635E-18 1.59369E-18
 -1      3071 9.42661E-05-4.61155E-05-2.02874E-05 3.26778E-05-1.35515E-18 5.14917E-19
 -1      3072 7.99900E-05-4.15956E-05-1.60606E-05-3.77717E-05-2.66900E-18-4.17730E-18
 -1      3073 9.21240E-05-4.55104E-05-1.97373E-05-3.38424E-05-2.74153E-18-3.97576E-18
 -1      3074 7.20612E-05-3.49210E-05-1.56041E-05-3.52076E-05-2.73803E-18-4.31426E-18
 -1      3075 8.89603E-05-4.43421E-05-1.87234E-05-3.56340E-05 4.40859E-18 1.47966E-18
 -1      3076 3.79865E-05-1.29930E-05-1.00768E-05 2.95395E-07 6.29339E-19-6.53211E-18
 -1      3077 9.46718E-05-2.22947E-05-3.10102E-05 5.23259E-06 3.24127E-18-6.03673E-19
 -1      3078 9.52160E-05-2.82892E-05-2.86835E-05-3.67725E-07 3.85826E-19 5.56709E-19
 -1      3079 9.51701E-05-2.82534E-05-2.86792E-05-3.34975E-07 6.44602E-19 8.70817E-19
 -1      3080 9.51342E-05-2.81764E-05-2.86948E-05-3.94204E-07 1.25257E-18 1.16695E-18
 -1      3081 9.52246E-05-2.82631E-05-2.86958E-05-4.25337E-07 9.61119E-19 1.38308E-18
 -1      3082 1.27090E-04-2.96175E-05-4.20189E-05 1.41860E-05-1.80185E-18-3.23937E-18
 -1      3083 1.21973E-04-2.13208E-05-4.35997E-05 1.28247E-05-2.91295E-18-3.54827E-18
 -1      3084 9.42527E-05-2.15583E-05-3.11757E-05 4.45970E-06 2.85428E-18-1.35599E-18
 -1      3085 9.37339E-05-2.05522E-05-3.13665E-05 4.12141E-06 2.67784E-18-1.73064E-18
 -1      3086 5.65759E-05-2.28748E-05-1.40293E-05-2.76446E-05 3.02147E-18-4.29234E-19
 -1      3087 6.72256E-05-3.01437E-05-1.58690E-05-3.30461E-05 3.22185E-18 1.51322E-18
 -1      3088 9.56182E-05-2.63111E-05-2.96912E-05 3.02310E-07-1.01780E-18-2.41110E-18
 -1      3089 9.56097E-05-2.66868E-05-2.95431E-05 9.92871E-07-8.33223E-19-2.41823E-18
 -1      3090 9.56038E-05-2.69734E-05-2.94049E-05 1.55814E-06-8.33706E-19-2.13632E-18
 -1      3091 9.55881E-05-2.71791E-05-2.93187E-05 2.08260E-06-8.05307E-19-2.10768E-18
 -1      3092 9.56269E-05-2.64658E-05-2.96431E-05 1.15412E-06-7.36144E-19-2.11517E-18
 -1      3093 9.55192E-05-2.73054E-05-2.92304E-05 2.53669E-06-7.22608E-19-1.89359E-18
 -1      3094 9.55170E-05-2.74001E-05-2.91903E-05 2.96306E-06-5.30381E-19-1.84071E-18
 -1      3095 9.55571E-05-2.69523E-05-2.94050E-05 2.20834E-06-6.82008E-19-1.90505E-18
 -1      3096 9.54129E-05-2.74203E-05-2.91388E-05 3.35749E-06-4.88073E-19-1.75182E-18
 -1      3097 9.54328E-05-2.74463E-05-2.91322E-05 3.73756E-06-4.27669E-19-1.79028E-18
 -1      3098 9.53902E-05-2.71404E-05-2.92524E-05 3.08505E-06-4.61337E-19-1.89709E-18
 -1      3099 9.53114E-05-2.74017E-05-2.91058E-05 4.11372E-06-2.35885E-19-1.61340E-18
 -1      3100 9.53609E-05-2.73945E-05-2.91219E-05 4.48347E-06-2.04928E-19-1.57143E-18
 -1      3101 9.51701E-05-2.71328E-05-2.91608E-05 3.87727E-06-2.56084E-19-1.83640E-18
 -1      3102 9.52385E-05-2.73233E-05-2.91099E-05 4.87141E-06-4.10786E-19-1.61178E-18
 -1      3103 9.53293E-05-2.73200E-05-2.91390E-05 5.25164E-06-3.26781E-19-1.49512E-18
 -1      3104 9.49300E-05-2.70167E-05-2.91073E-05 4.65780E-06-3.10267E-19-2.14962E-18
 -1      3105 9.52276E-05-2.72642E-05-2.91310E-05 5.66995E-06-3.66350E-19-1.38545E-18
 -1      3106 9.53805E-05-2.73097E-05-2.91642E-05 6.06607E-06-4.79889E-19-1.37369E-18
 -1      3107 9.47068E-05-2.68801E-05-2.90704E-05 5.47760E-06-2.64707E-19-1.44277E-18
 -1      3108 9.53338E-05-2.73228E-05-2.91505E-05 6.52161E-06-5.11741E-19-1.12300E-18
 -1      3109 9.55848E-05-2.74763E-05-2.91793E-05 6.92221E-06-2.04710E-19-9.10620E-19
 -1      3110 9.45546E-05-2.68270E-05-2.90292E-05 6.36603E-06-1.85986E-19-1.09725E-18
 -1      3111 9.56493E-05-2.76302E-05-2.91510E-05 7.40856E-06-4.76415E-20-1.04866E-18
 -1      3112 9.60564E-05-2.79708E-05-2.91684E-05 7.78188E-06 2.55564E-19-9.80532E-19
 -1      3113 9.45608E-05-2.69920E-05-2.89644E-05 7.33045E-06-4.74921E-20-7.26352E-19
 -1      3114 9.63219E-05-2.83615E-05-2.91198E-05 8.27449E-06 3.63909E-19-8.35110E-19
 -1      3115 9.69712E-05-2.89901E-05-2.91228E-05 8.56193E-06 4.37431E-19-1.13473E-18
 -1      3116 9.48668E-05-2.75559E-05-2.88604E-05 8.35199E-06 2.51976E-19-1.26335E-18
 -1      3117 9.75739E-05-2.97380E-05-2.90556E-05 9.00615E-06 3.91849E-19-1.34000E-18
 -1      3118 9.85791E-05-3.07674E-05-2.90510E-05 9.11117E-06 1.92123E-19-1.16821E-18
 -1      3119 9.56929E-05-2.87546E-05-2.87120E-05 9.37171E-06 2.18217E-19-1.36305E-18
 -1      3120 9.97073E-05-3.20012E-05-2.89831E-05 9.39872E-06 2.08896E-19-6.59969E-19
 -1      3121 1.01191E-04-3.35209E-05-2.89958E-05 9.17095E-06 5.07891E-19-3.09708E-19
 -1      3122 9.73583E-05-3.08684E-05-2.85379E-05 1.02572E-05 5.54755E-19-1.24563E-18
 -1      3123 1.03074E-04-3.53291E-05-2.89751E-05 9.08904E-06 1.01283E-18-3.19953E-21
 -1      3124 1.05091E-04-3.73054E-05-2.90612E-05 8.30423E-06 1.04185E-18 7.16432E-19
 -1      3125 1.00285E-04-3.41738E-05-2.84031E-05 1.07311E-05 1.05403E-18-6.41307E-19
 -1      3126 1.07918E-04-3.96020E-05-2.91886E-05 7.46599E-06 1.03580E-18 1.03428E-18
 -1      3127 1.10315E-04-4.16620E-05-2.94542E-05 5.84029E-06 1.16901E-18 1.24558E-18
 -1      3128 1.04923E-04-3.87513E-05-2.84573E-05 1.02559E-05 1.44971E-18 1.05284E-20
 -1      3129 1.13939E-04-4.39170E-05-2.99137E-05 3.79818E-06 1.18125E-18 1.92565E-18
 -1      3130 1.16215E-04-4.52056E-05-3.05046E-05 1.17534E-06 1.24298E-18 2.15968E-18
 -1      3131 1.11349E-04-4.38095E-05-2.90077E-05 7.79549E-06 1.59150E-18 8.44168E-19
 -1      3132 1.19784E-04-4.60094E-05-3.15573E-05-2.53104E-06 8.35562E-19 2.43374E-18
 -1      3133 1.20859E-04-4.49310E-05-3.26219E-05-5.61360E-06 1.65330E-19 2.19422E-18
 -1      3134 1.18832E-04-4.78411E-05-3.05106E-05 2.50679E-06 1.04707E-18 1.82821E-18
 -1      3135 1.19848E-04-2.75162E-05-3.99979E-05-1.35530E-05-3.15340E-18 5.98482E-19
 -1      3136 1.17510E-04-2.13012E-05-4.15530E-05-1.21663E-05-4.10689E-18-8.39357E-20
 -1      3137 1.15152E-04-1.60296E-05-4.29188E-05-7.26963E-06-4.57705E-18-3.38337E-19
 -1      3138 1.14013E-04-1.34828E-05-4.35887E-05-2.04019E-06-4.26719E-18-1.11779E-18
 -1      3139 1.16114E-04-2.38727E-05-3.96253E-05 1.21240E-05-1.80847E-18-2.39614E-18
 -1      3140 1.18746E-04-3.02761E-05-3.82903E-05 1.39928E-05-1.98812E-18-2.47874E-18
 -1      3141 1.21463E-04-3.72986E-05-3.60863E-05 1.24500E-05-6.61586E-19-1.84426E-18
 -1      3142 1.22595E-04-4.23672E-05-3.45242E-05 1.02965E-05 1.16685E-18-1.45496E-18
 -1      3143 1.20767E-04-4.47217E-05-3.26811E-05 5.92383E-06 1.74646E-18-1.04412E-18
 -1      3144 1.19706E-04-4.59094E-05-3.16159E-05 2.82970E-06 2.05584E-18-1.02095E-18
 -1      3145 1.24541E-04-4.63561E-05-3.36280E-05 5.94492E-06 1.70513E-18-4.74444E-19
 -1      3146 1.16312E-04-4.50824E-05-3.05605E-05-9.33237E-07 2.54753E-18 1.63534E-20
 -1      3147 1.13968E-04-4.38256E-05-2.99690E-05-3.49994E-06 2.67427E-18 6.67134E-19
 -1      3148 1.18934E-04-4.76947E-05-3.05347E-05-2.04335E-06 2.67786E-18 8.02931E-19
 -1      3149 1.10359E-04-4.15715E-05-2.95125E-05-5.56828E-06 2.28010E-18 1.30106E-18
 -1      3150 1.07937E-04-3.94706E-05-2.92528E-05-7.14935E-06 2.47555E-18 2.14543E-18
 -1      3151 1.11335E-04-4.37976E-05-2.90756E-05-7.45161E-06 3.22604E-18 1.29587E-18
 -1      3152 1.05120E-04-3.71817E-05-2.91244E-05-7.96302E-06 1.11333E-18 1.90122E-18
 -1      3153 1.03105E-04-3.51976E-05-2.90421E-05-8.71408E-06 5.90691E-19 1.10772E-18
 -1      3154 1.04954E-04-3.85949E-05-2.85305E-05-9.84150E-06 2.04459E-18 1.00008E-18
 -1      3155 1.01197E-04-3.33673E-05-2.90649E-05-8.77366E-06 3.90998E-19 1.26379E-18
 -1      3156 9.97126E-05-3.18265E-05-2.90588E-05-8.95657E-06 4.69035E-19 4.97543E-19
 -1      3157 1.00284E-04-3.40037E-05-2.84716E-05-1.03295E-05 3.30741E-19 1.15083E-18
 -1      3158 9.85614E-05-3.05694E-05-2.91293E-05-8.62599E-06 3.80196E-19 3.36239E-21
 -1      3159 9.75570E-05-2.95220E-05-2.91402E-05-8.46766E-06-4.98202E-19 3.05663E-20
 -1      3160 9.73057E-05-3.06414E-05-2.86109E-05-9.78275E-06-1.53904E-19 9.19049E-19
 -1      3161 9.69269E-05-2.87502E-05-2.92080E-05-7.97274E-06-3.27684E-19 6.91578E-19
 -1      3162 9.62787E-05-2.81059E-05-2.92102E-05-7.62545E-06 1.22890E-19 1.46217E-18
 -1      3163 9.55892E-05-2.84757E-05-2.87861E-05-8.80692E-06 1.89813E-20 1.40878E-18
 -1      3164 9.59807E-05-2.76922E-05-2.92567E-05-7.07524E-06-7.18785E-20 1.06837E-18
 -1      3165 9.55737E-05-2.73402E-05-2.92424E-05-6.63815E-06-1.40997E-19 1.66000E-18
 -1      3166 9.47018E-05-2.72254E-05-2.89303E-05-7.68212E-06-4.97539E-21 1.41274E-18
 -1      3167 9.54723E-05-2.71678E-05-2.92645E-05-6.09100E-06-8.28067E-19 1.23038E-18
 -1      3168 9.52198E-05-2.70110E-05-2.92352E-05-5.62737E-06-6.75618E-19 8.37876E-19
 -1      3169 9.43257E-05-2.66177E-05-2.90229E-05-6.54594E-06-6.58585E-19 1.30472E-18
 -1      3170 9.52253E-05-2.69889E-05-2.92363E-05-5.11440E-06-7.75193E-19 3.75975E-19
 -1      3171 9.50681E-05-2.69535E-05-2.91964E-05-4.66367E-06-6.63949E-19-6.96858E-19
 -1      3172 9.42416E-05-2.64267E-05-2.90651E-05-5.46858E-06-9.27158E-19 6.43382E-19
 -1      3173 9.51250E-05-2.70168E-05-2.91822E-05-4.20115E-06-3.76904E-19-8.44488E-19
 -1      3174 9.50256E-05-2.70509E-05-2.91369E-05-3.78662E-06-8.75886E-19-8.66678E-19
 -1      3175 9.43092E-05-2.64862E-05-2.90668E-05-4.48612E-06-5.12399E-19-8.51344E-19
 -1      3176 9.51014E-05-2.71563E-05-2.91130E-05-3.38191E-06-1.36152E-18 1.79803E-21
 -1      3177 9.50366E-05-2.72257E-05-2.90666E-05-3.01563E-06-1.09255E-18-8.58245E-19
 -1      3178 9.44436E-05-2.66813E-05-2.90401E-05-3.61623E-06-4.14405E-19-8.21392E-19
 -1      3179 9.51134E-05-2.73458E-05-2.90377E-05-2.67029E-06-1.18147E-18-9.12588E-19
 -1      3180 9.50696E-05-2.74287E-05-2.89932E-05-2.35658E-06-5.87231E-19-2.09741E-18
 -1      3181 9.45962E-05-2.69367E-05-2.89959E-05-2.86488E-06-1.31257E-18-4.13096E-19
 -1      3182 9.51386E-05-2.75472E-05-2.89630E-05-2.06831E-06 4.57096E-19-2.11510E-18
 -1      3183 9.51077E-05-2.76307E-05-2.89224E-05-1.80648E-06 6.88528E-19-1.36504E-18
 -1      3184 9.47414E-05-2.72055E-05-2.89431E-05-2.23001E-06 1.79221E-19-2.09097E-18
 -1      3185 9.51653E-05-2.77387E-05-2.88931E-05-1.57062E-06 8.91069E-19-3.35618E-19
 -1      3186 9.51426E-05-2.78157E-05-2.88575E-05-1.35689E-06 1.04467E-18 6.06616E-19
 -1      3187 9.48673E-05-2.74605E-05-2.88879E-05-1.70430E-06 1.66803E-18-9.70222E-19
 -1      3188 9.51880E-05-2.79090E-05-2.88305E-05-1.16740E-06 1.32415E-18 1.48497E-18
 -1      3189 9.51706E-05-2.79761E-05-2.88002E-05-9.96386E-07 1.63469E-18 1.78146E-18
 -1      3190 9.49699E-05-2.76877E-05-2.88347E-05-1.27701E-06 1.82557E-18 1.28629E-18
 -1      3191 9.52045E-05-2.80534E-05-2.87763E-05-8.47151E-07 6.88113E-19 1.88982E-18
 -1      3192 9.51912E-05-2.81094E-05-2.87511E-05-7.12822E-07 4.15055E-19 1.30175E-18
 -1      3193 9.50493E-05-2.78810E-05-2.87860E-05-9.36297E-07 1.19744E-18 1.56235E-18
 -1      3194 9.52193E-05-2.81707E-05-2.87328E-05-6.10334E-07 7.33124E-19 1.41865E-18
 -1      3195 9.52078E-05-2.82157E-05-2.87119E-05-5.05340E-07 1.55374E-18 2.05279E-18
 -1      3196 9.51567E-05-2.81663E-05-2.87113E-05-4.96027E-07 7.12957E-19 7.35849E-19
 -1      3197 9.51121E-05-2.80408E-05-2.87453E-05-6.82970E-07 5.30676E-19 2.68943E-18
 -1      3198 9.55104E-05-2.73089E-05-2.92198E-05-5.33061E-06 7.69998E-19-5.54348E-19
 -1      3199 9.53715E-05-2.73484E-05-2.91574E-05-4.90831E-06 5.74140E-19-5.89097E-19
 -1      3200 9.54744E-05-2.74543E-05-2.91434E-05-4.49567E-06 4.16948E-19-5.88622E-19
 -1      3201 9.53717E-05-2.74769E-05-2.90999E-05-4.10271E-06 4.59155E-19-4.62032E-19
 -1      3202 9.50575E-05-2.70404E-05-2.91512E-05-4.73761E-06 5.54794E-19-8.33812E-19
 -1      3203 9.57415E-05-2.70976E-05-2.94069E-05-7.27582E-06 3.68986E-19-2.16720E-19
 -1      3204 9.54920E-05-2.70617E-05-2.93343E-05-6.76918E-06 6.59577E-19-3.83835E-19
 -1      3205 9.60477E-05-2.72438E-05-2.94742E-05-8.37932E-06-1.40640E-19 3.20498E-20
 -1      3206 9.56903E-05-2.70769E-05-2.94118E-05-7.85327E-06 2.08355E-19 3.23970E-20
 -1      3207 9.45016E-05-2.63997E-05-2.91870E-05-7.70183E-06 4.79369E-20-3.56973E-19
 -1      3208 9.66489E-05-2.77959E-05-2.94935E-05-9.50489E-06-4.67685E-19 7.46093E-20
 -1      3209 9.61071E-05-2.73922E-05-2.94518E-05-9.00760E-06-1.20411E-19 1.06188E-19
 -1      3210 9.44956E-05-2.65183E-05-2.91373E-05-8.92202E-06-1.30948E-19 1.37245E-19
 -1      3211 9.77903E-05-2.90371E-05-2.94489E-05-1.05360E-05-8.21387E-19 2.17337E-19
 -1      3212 9.69393E-05-2.82474E-05-2.94338E-05-1.01532E-05-7.21669E-19 1.62609E-19
 -1      3213 9.48118E-05-2.71382E-05-2.90155E-05-1.02373E-05-6.45831E-19 1.83938E-19
 -1      3214 9.98553E-05-3.13343E-05-2.93487E-05-1.12601E-05-1.13094E-18 5.21044E-19
 -1      3215 9.85145E-05-2.99761E-05-2.93521E-05-1.11344E-05-1.10181E-18 4.24079E-19
 -1      3216 9.57614E-05-2.86057E-05-2.88098E-05-1.15804E-05-1.09270E-18 1.47796E-19
 -1      3217 1.03352E-04-3.50569E-05-2.92589E-05-1.12953E-05-1.37745E-18 7.15563E-19
 -1      3218 1.01317E-04-3.29741E-05-2.92410E-05-1.16557E-05-1.24178E-18 5.34485E-19
 -1      3219 9.78405E-05-3.13694E-05-2.85437E-05-1.27798E-05-1.22824E-18-2.78297E-20
 -1      3220 1.08791E-04-4.02890E-05-2.93634E-05-9.94393E-06-1.22192E-18 1.04226E-18
 -1      3221 1.05954E-04-3.75582E-05-2.92236E-05-1.11540E-05-1.16019E-18 1.06655E-18
 -1      3222 1.01751E-04-3.58929E-05-2.83248E-05-1.34664E-05-1.52498E-18-1.51970E-20
 -1      3223 1.16207E-04-4.61344E-05-3.00473E-05-6.18131E-06-1.76789E-18 1.34545E-18
 -1      3224 1.12806E-04-4.34563E-05-2.95861E-05-8.66367E-06-1.47149E-18 1.23563E-18
 -1      3225 1.08215E-04-4.21906E-05-2.84253E-05-1.27059E-05-1.40770E-18 4.46545E-20
 -1      3226 1.24463E-04-4.95695E-05-3.21080E-05 1.21985E-06-9.46685E-19 2.41944E-18
 -1      3227 1.21435E-04-4.89963E-05-3.09246E-05-2.95565E-06-1.80170E-18 2.18570E-18
 -1      3228 1.17532E-04-4.89292E-05-2.94875E-05-8.69425E-06-2.02100E-18 1.32774E-18
 -1      3229 1.26088E-04-3.00796E-05-4.13172E-05 1.49001E-05 3.51196E-18 3.56307E-18
 -1      3230 1.28694E-04-3.83666E-05-3.90867E-05 1.49019E-05 2.07301E-18 3.99170E-18
 -1      3231 1.20550E-04-1.46954E-05-4.58525E-05 5.33410E-06 4.71162E-18 1.95503E-18
 -1      3232 1.22007E-04-1.92972E-05-4.45086E-05 1.11221E-05 4.76371E-18 2.65434E-18
 -1      3233 1.20757E-04-1.68027E-05-4.51967E-05-8.49058E-06 3.88481E-18-3.53689E-19
 -1      3234 1.19745E-04-1.38834E-05-4.57987E-05-1.58251E-06 4.52369E-18 5.80396E-19
 -1      3235 1.30263E-04-4.60865E-05-3.62800E-05-1.10016E-05 1.36933E-18-2.66291E-18
 -1      3236 1.28959E-04-3.94313E-05-3.85131E-05-1.38882E-05 2.07121E-18-2.62511E-18
 -1      3237 1.16296E-04-4.58734E-05-3.00445E-05 6.44693E-06-1.17735E-18-5.92850E-19
 -1      3238 1.19552E-04-4.80621E-05-3.07251E-05 3.39647E-06-9.56221E-19-9.28547E-19
 -1      3239 1.08604E-04-3.98084E-05-2.93709E-05 1.01249E-05-1.01481E-18 4.81113E-19
 -1      3240 1.11684E-04-4.26612E-05-2.96088E-05 8.48009E-06-7.90613E-19-6.19492E-20
 -1      3241 1.11901E-04-4.50639E-05-2.87716E-05 1.12530E-05-1.27060E-18-3.97775E-20
 -1      3242 1.03060E-04-3.45710E-05-2.92888E-05 1.12750E-05-3.20901E-19 9.23100E-19
 -1      3243 1.05415E-04-3.69709E-05-2.93334E-05 1.06517E-05-5.88559E-19 5.00817E-19
 -1      3244 1.04203E-04-3.82554E-05-2.83821E-05 1.30484E-05-7.63021E-19 2.77294E-19
 -1      3245 9.95749E-05-3.09173E-05-2.93934E-05 1.10129E-05 7.62950E-20 1.52286E-18
 -1      3246 1.01168E-04-3.25726E-05-2.93843E-05 1.10146E-05-7.64728E-21 1.36537E-18
 -1      3247 9.92656E-05-3.28794E-05-2.85241E-05 1.27634E-05-7.09580E-19-3.97543E-21
 -1      3248 9.75549E-05-2.86799E-05-2.95060E-05 1.00825E-05-1.20886E-18 1.22832E-18
 -1      3249 9.85713E-05-2.96953E-05-2.95028E-05 1.04339E-05 2.39299E-20 1.81938E-18
 -1      3250 9.64929E-05-2.94009E-05-2.87925E-05 1.16562E-05-2.22523E-19 8.02448E-20
 -1      3251 9.64627E-05-2.74807E-05-2.95627E-05 8.86678E-06-6.77032E-19 1.07606E-18
 -1      3252 9.70989E-05-2.80334E-05-2.95850E-05 9.39019E-06-1.34871E-18 1.59373E-18
 -1      3253 9.51113E-05-2.74087E-05-2.90329E-05 1.02484E-05-1.03878E-18 7.68633E-19
 -1      3254 9.59024E-05-2.69526E-05-2.95541E-05 7.57741E-06-4.43324E-19 6.39535E-19
 -1      3255 9.63075E-05-2.72082E-05-2.96013E-05 8.16456E-06-6.74942E-19 5.13160E-19
 -1      3256 9.45429E-05-2.64447E-05-2.91911E-05 8.79793E-06-5.52116E-19 9.60448E-19
 -1      3257 9.56269E-05-2.68225E-05-2.94940E-05 6.32701E-06 5.37971E-19 1.42862E-18
 -1      3258 9.58967E-05-2.69018E-05-2.95579E-05 6.91210E-06 2.16055E-19 1.12146E-18
 -1      3259 9.44013E-05-2.61172E-05-2.92654E-05 7.41035E-06-3.22481E-19 1.03807E-18
 -1      3260 9.54941E-05-2.69072E-05-2.94012E-05 5.17709E-06 5.35269E-19 2.54518E-18
 -1      3261 9.56845E-05-2.68903E-05-2.94731E-05 5.72212E-06 8.00641E-19 2.12493E-18
 -1      3262 9.44599E-05-2.61528E-05-2.92730E-05 6.13446E-06 3.51792E-19 1.69036E-18
 -1      3263 9.54279E-05-2.70935E-05-2.92926E-05 4.15819E-06 3.59949E-19 2.12310E-18
 -1      3264 9.55699E-05-2.70295E-05-2.93653E-05 4.64350E-06 1.20928E-18 2.54307E-18
 -1      3265 9.45941E-05-2.63741E-05-2.92352E-05 4.99432E-06 9.24879E-19 2.05116E-18
 -1      3266 9.53905E-05-2.73150E-05-2.91809E-05 3.28120E-06-1.25198E-18 2.87201E-18
 -1      3267 9.55006E-05-2.72328E-05-2.92495E-05 3.69910E-06-7.17592E-19 1.24941E-18
 -1      3268 9.47412E-05-2.66726E-05-2.91705E-05 3.99975E-06 1.25330E-19 2.67596E-18
 -1      3269 9.53646E-05-2.75356E-05-2.90743E-05 2.54428E-06-8.67224E-19 2.07156E-18
 -1      3270 9.54517E-05-2.74510E-05-2.91361E-05 2.89473E-06-4.77253E-19 2.53990E-18
 -1      3271 9.48733E-05-2.69863E-05-2.90932E-05 3.15092E-06-7.82996E-19 1.44612E-18
 -1      3272 9.53429E-05-2.77368E-05-2.89779E-05 1.93775E-06-4.10898E-19 1.76362E-18
 -1      3273 9.54123E-05-2.76582E-05-2.90314E-05 2.22525E-06-8.88580E-19 1.98536E-18
 -1      3274 9.49808E-05-2.72818E-05-2.90131E-05 2.44086E-06-4.90178E-19 8.19733E-19
 -1      3275 9.53232E-05-2.79113E-05-2.88939E-05 1.44766E-06 8.65215E-21 7.61691E-19
 -1      3276 9.53783E-05-2.78422E-05-2.89389E-05 1.67905E-06 2.01274E-19 7.48666E-19
 -1      3277 9.50631E-05-2.75435E-05-2.89366E-05 1.85777E-06-1.32388E-20 2.23866E-19
 -1      3278 9.53040E-05-2.80562E-05-2.88229E-05 1.05842E-06-8.53945E-19 8.43264E-19
 -1      3279 9.53478E-05-2.79984E-05-2.88599E-05 1.24171E-06-5.69737E-19 4.96621E-19
 -1      3280 9.51229E-05-2.77657E-05-2.88672E-05 1.38739E-06-1.92208E-19-9.12744E-19
 -1      3281 9.52859E-05-2.81735E-05-2.87643E-05 7.53764E-07-8.55606E-19 8.24288E-19
 -1      3282 9.53203E-05-2.81264E-05-2.87941E-05 8.96481E-07-9.93794E-19 7.06949E-19
 -1      3283 9.51638E-05-2.79480E-05-2.88068E-05 1.01397E-06-9.08990E-19-1.02614E-18
 -1      3284 9.52694E-05-2.82650E-05-2.87166E-05 5.20693E-07-1.16437E-18 5.56338E-19
 -1      3285 9.52956E-05-2.82292E-05-2.87402E-05 6.28476E-07-4.79475E-19 1.08454E-19
 -1      3286 9.51898E-05-2.80944E-05-2.87553E-05 7.22165E-07-3.81559E-19-8.59005E-19
 -1      3287 9.52420E-05-2.82957E-05-2.86908E-05 3.99818E-07-1.83084E-18 5.39814E-19
 -1      3288 9.52660E-05-2.82849E-05-2.87045E-05 4.60913E-07-1.76662E-18 2.70572E-19
 -1      3289 9.51957E-05-2.81839E-05-2.87199E-05 5.35170E-07-8.42550E-19-2.97360E-18
 -1      3290 9.51914E-05-2.82355E-05-2.86972E-05 4.20567E-07-2.87020E-18-2.79715E-18
 -1      3291 9.20059E-05-1.76828E-05-3.18680E-05 1.59245E-06 1.78816E-18-3.16881E-18
 -1      3292 9.18582E-05-1.74563E-05-3.18999E-05 9.17220E-07 1.35096E-18-3.42551E-18
 -1      3293 9.47590E-05-2.77598E-05-2.87148E-05-4.30287E-08-4.66521E-20-2.80738E-18
 -1      3294 9.47583E-05-2.77588E-05-2.87150E-05 3.62601E-08 9.28714E-20-2.04062E-18
 -1      3295 9.50236E-05-2.80368E-05-2.87084E-05-4.26440E-07 5.32658E-19 7.25986E-19
 -1      3296 9.49605E-05-2.79727E-05-2.87112E-05-3.98183E-07 2.24848E-19 5.98772E-20
 -1      3297 9.48015E-05-2.78026E-05-2.87139E-05-2.07433E-07 1.38460E-19-2.07703E-18
 -1      3298 9.47747E-05-2.77776E-05-2.87146E-05-1.35720E-07 1.00817E-19-1.78468E-18
 -1      3299 9.46868E-05-2.76595E-05-2.87236E-05-1.02872E-07 2.74365E-19-2.26885E-18
 -1      3300 4.32817E-05-1.26678E-05-1.29044E-05-8.33858E-06 7.12150E-19 1.41666E-19
 -1      3301 4.88340E-05-1.71739E-05-1.31795E-05-2.09090E-05 1.67353E-18-1.45054E-18
 -1      3302 1.14727E-04-5.45798E-05-2.60415E-05 2.30943E-05 2.05321E-18 1.24838E-18
 -1      3303 1.02989E-04-4.89799E-05-2.27225E-05 2.90883E-05 2.79995E-18-3.88245E-20
 -1      3304 1.12419E-04-5.31390E-05-2.49752E-05-2.45134E-05 4.76019E-18-5.57990E-19
 -1      3305 1.21450E-04-5.57414E-05-2.84443E-05-1.61486E-05 3.92610E-18-2.26539E-18
 -1      3306 1.15164E-04-1.48927E-05-4.33175E-05 5.26910E-06-3.30322E-18-1.86676E-18
 -1      3307 1.28908E-04-5.46421E-05-3.22719E-05 4.70004E-06-1.84230E-19 2.41468E-18
 -1      3308 1.23861E-04-5.58535E-05-2.88771E-05 1.37268E-05 1.38257E-18 1.89892E-18
 -1      3309 1.26239E-04-4.88583E-05-3.32708E-05-4.92342E-06-1.92736E-19-2.12742E-18
 -1      3310 1.31011E-04-5.05070E-05-3.47192E-05-4.75124E-06 3.51744E-19-2.93600E-18
 -1      3311 1.29488E-04-5.58606E-05-3.13759E-05 5.23766E-06-1.32597E-18-2.43403E-18
 -1      3312 1.24393E-04-4.96316E-05-3.19555E-05-9.63353E-07-1.20324E-18-1.84461E-18
 -1      3313 1.25334E-04-2.19666E-05-4.45959E-05-1.31537E-05 3.92187E-18-1.37680E-18
 -1      3314 9.48945E-05-2.78984E-05-2.87120E-05-3.43107E-07 1.35489E-19-1.73819E-18
 -1      3315 9.48450E-05-2.78515E-05-2.87136E-05-2.87441E-07 3.04183E-19-1.93760E-18
 -1      3316 9.47532E-05-2.77268E-05-2.87235E-05-2.86069E-07-4.64217E-19-1.59606E-18
 -1      3317 9.48731E-05-2.78501E-05-2.87231E-05-4.29227E-07 1.18635E-19-5.64248E-19
 -1      3318 9.55875E-05-2.71620E-05-2.93145E-05-6.25332E-06 9.32895E-19-3.92687E-19
 -1      3319 9.54038E-05-2.71868E-05-2.92422E-05-5.78784E-06 9.43973E-19-4.82012E-19
 -1      3320 9.48525E-05-2.67921E-05-2.91687E-05-5.62028E-06 6.96960E-19-7.68699E-19
 -1      3321 9.46520E-05-2.65437E-05-2.91888E-05-6.60139E-06 5.68237E-19-3.52054E-19
 -1      3322 1.28127E-04-2.44890E-05-4.49263E-05 1.42460E-05 4.98119E-18 3.59671E-18
 -1      3323 9.54983E-05-2.73083E-05-2.92235E-05-2.00005E-06 1.12383E-18-1.82955E-19
 -1      3324 9.55029E-05-2.71183E-05-2.92976E-05-1.46354E-06 1.42706E-18-1.27106E-19
 -1      3325 1.31417E-04-4.63151E-05-3.65258E-05 7.68353E-06 8.04602E-19-2.41934E-18
 -1      3326 1.29406E-04-3.90519E-05-3.91807E-05 1.14779E-05-3.18590E-19-1.99336E-18
 -1      3327 9.54596E-05-2.51439E-05-3.01242E-05-1.36720E-06-1.40024E-18-2.72012E-18
 -1      3328 9.55117E-05-2.57804E-05-2.98940E-05-4.28377E-07-1.24468E-18-2.72680E-18
 -1      3329 9.55284E-05-2.55451E-05-2.99938E-05-1.83555E-07-9.59053E-19-2.50118E-18
 -1      3330 9.34612E-05-1.96154E-05-3.16448E-05-5.80775E-06-1.78998E-18-3.69212E-18
 -1      3331 7.35077E-05-3.07230E-05-1.82397E-05 2.96964E-05-1.82819E-18 8.76203E-19
 -1      3332 5.94056E-05-2.10341E-05-1.59920E-05 2.32837E-05-2.39289E-18 2.07740E-18
 -1      3333 1.29597E-04-4.16208E-05-3.81153E-05-1.05855E-05-2.80085E-18 2.46307E-18
 -1      3334 1.30885E-04-4.86293E-05-3.51795E-05-5.02300E-06-1.40999E-18 2.25973E-18
 -1      3335 1.24157E-04-3.49793E-05-3.83937E-05-1.37605E-05-2.92078E-18 1.64531E-18
 -1      3336 1.07562E-04-5.23082E-05-2.34030E-05-2.82618E-05-2.76821E-18-2.53733E-18
 -1      3337 1.19043E-04-5.69137E-05-2.68564E-05-2.13330E-05-2.59192E-18-9.70706E-19
 -1      3338 8.20341E-05-3.80286E-05-1.83687E-05-3.38081E-05 4.01859E-18 1.03126E-18
 -1      3339 9.78877E-05-4.75127E-05-2.18602E-05-3.16628E-05 4.45841E-18 1.37775E-18
 -1      3340 9.52743E-05-2.40636E-05-3.05208E-05 3.72712E-06 2.87478E-18-4.12091E-19
 -1      3341 9.46589E-05-2.24823E-05-3.09240E-05 4.24064E-06 2.89871E-18-8.72209E-19
 -1      3342 9.48940E-05-2.32430E-05-3.07055E-05 3.06987E-06 2.60150E-18-1.00269E-18
 -1      3343 9.53229E-05-2.49484E-05-3.01713E-05 2.36761E-06 2.59561E-18-3.73411E-19
 -1      3344 5.87296E-05-2.36317E-05-1.50093E-05 2.80158E-05 2.62882E-18-3.34800E-18
 -1      3345 4.80073E-05-1.62572E-05-1.31730E-05 1.82309E-05 2.03886E-18-4.16613E-18
 -1      3346 1.28202E-04-5.77780E-05-2.99406E-05-1.17910E-05-1.81351E-18 1.07610E-18
 -1      3347 1.32613E-04-5.53349E-05-3.34873E-05-2.10169E-06-4.96725E-19 3.13143E-18
 -1      3348 1.03657E-04-4.96053E-05-2.31552E-05 2.87101E-05-1.39771E-18-4.60177E-19
 -1      3349 8.95551E-05-4.11411E-05-2.04910E-05 3.09717E-05-1.16621E-18 2.79362E-19
 -1      3350 4.92211E-05-1.77117E-05-1.32051E-05-1.99843E-05-1.20321E-18-5.09617E-18
 -1      3351 5.90735E-05-2.53809E-05-1.39217E-05-3.01747E-05-2.32881E-18-4.65074E-18
 -1      3352 1.34510E-04-5.17096E-05-3.54834E-05 5.42851E-06 6.80141E-20 3.45357E-18
 -1      3353 1.31695E-04-4.30818E-05-3.82640E-05 1.19230E-05 1.36637E-18 4.37101E-18
 -1      3354 1.27608E-04-4.38506E-05-3.59912E-05 1.13216E-05 5.98535E-19 3.65028E-18
 -1      3355 1.30578E-04-5.26733E-05-3.33365E-05 1.42393E-06-4.66472E-19 3.20303E-18
 -1      3356 1.28288E-04-3.07436E-05-4.23635E-05-1.53145E-05 3.11428E-18-1.97480E-18
 -1      3357 8.81020E-05-4.19724E-05-1.99260E-05 3.36803E-05 3.13016E-18-1.37315E-18
 -1      3358 7.35480E-05-3.24059E-05-1.71246E-05 3.24087E-05 3.08897E-18-2.51166E-18
 -1      3359 4.26565E-05-1.25437E-05-1.25291E-05 8.01000E-06 1.24309E-18-5.49026E-18
 -1      3360 4.35522E-05-1.26297E-05-1.29441E-05-5.71978E-06-1.32157E-19-5.64675E-18
 -1      3361 4.86887E-05-1.47722E-05-1.44890E-05 1.41698E-05-1.92286E-18 2.20652E-18
 -1      3362 4.45879E-05-1.19153E-05-1.34884E-05 3.00343E-06-1.04347E-18 1.76384E-18
 -1      3363 9.17847E-05-1.73403E-05-3.19179E-05 3.68329E-07 1.11170E-18-3.50511E-18
 -1      3364 9.17803E-05-1.73369E-05-3.19182E-05-3.19246E-07 7.77658E-19-3.63330E-18
 -1      3365 9.26558E-05-1.88153E-05-3.16271E-05 5.26052E-07 1.15406E-18-3.15164E-18
 -1      3366 9.41984E-05-2.15135E-05-3.11256E-05 3.08642E-06 2.42015E-18-1.81085E-18
 -1      3367 9.32791E-05-1.97734E-05-3.15274E-05 3.76514E-06 2.64253E-18-2.13322E-18
 -1      3368 9.28567E-05-1.90512E-05-3.16430E-05 3.22201E-06 2.35523E-18-2.38912E-18
 -1      3369 7.88023E-05-3.37037E-05-1.89827E-05-3.05009E-05 3.37929E-18 1.03899E-18
 -1      3370 9.50123E-05-2.34094E-05-3.06885E-05-3.32010E-06-1.71139E-18-2.94253E-18
 -1      3371 9.51814E-05-2.43194E-05-3.03836E-05-2.19231E-06-1.54321E-18-2.88672E-18
 -1      3372 9.51566E-05-2.40613E-05-3.04645E-05-1.79233E-06-1.40680E-18-2.90291E-18
 -1      3373 5.24767E-05-1.51774E-05-1.55106E-05 1.17369E-05 1.70410E-18-4.22574E-18
 -1      3374 9.49572E-05-2.79647E-05-2.87132E-05 3.97766E-07-1.34233E-18-4.89228E-19
 -1      3375 9.50207E-05-2.80275E-05-2.87107E-05 4.27942E-07-1.60890E-18-8.15426E-20
 -1      3376 9.28282E-05-1.90053E-05-3.16492E-05-3.18334E-06-7.30171E-19-3.75154E-18
 -1      3377 9.32556E-05-1.97281E-05-3.15350E-05-3.75853E-06-1.11708E-18-3.76590E-18
 -1      3378 1.24882E-04-4.71273E-05-3.35077E-05-5.11270E-06-8.66779E-19 2.36343E-18
 -1      3379 1.23158E-04-4.28949E-05-3.44403E-05-9.77595E-06-9.49471E-19 1.89650E-18
 -1      3380 1.22824E-04-5.56879E-05-2.85942E-05-1.41570E-05-2.55677E-18 5.32651E-19
 -1      3381 1.22095E-04-3.81913E-05-3.59878E-05-1.18569E-05-2.13563E-18 1.22532E-18
 -1      3382 1.17803E-04-5.29905E-05-2.77138E-05 1.57584E-05 1.96231E-18 1.37664E-18
 -1      3383 1.24211E-04-3.54630E-05-3.81625E-05 1.31425E-05-7.28369E-19-2.29387E-18
 -1      3384 1.17189E-04-1.91884E-05-4.24230E-05 1.04511E-05-2.34655E-18-2.18102E-18
 -1      3385 9.23880E-05-3.90232E-05-2.28928E-05 2.56351E-05-2.31515E-18-5.54012E-20
 -1      3386 8.35349E-05-3.52708E-05-2.03938E-05 2.87167E-05-2.30581E-18 6.98299E-19
 -1      3387 7.83970E-05-2.93524E-05-2.09458E-05 2.48725E-05-3.03094E-18-2.69462E-20
 -1      3388 9.40203E-05-2.11348E-05-3.12429E-05-4.50875E-06-1.71882E-18-3.41335E-18
 -1      3389 9.52469E-05-2.72146E-05-2.91590E-05-3.91267E-06 5.86200E-19-4.84333E-19
 -1      3390 9.54644E-05-2.75383E-05-2.91050E-05-3.70978E-06 4.08354E-19-3.84497E-19
 -1      3391 9.53963E-05-2.75185E-05-2.90893E-05-3.31778E-06 5.15963E-19-3.80818E-19
 -1      3392 1.26971E-04-5.07045E-05-3.26732E-05 1.87109E-06-5.60868E-19 2.89582E-18
 -1      3393 1.25940E-04-5.42188E-05-3.09455E-05-5.59671E-06-1.75266E-18 1.77683E-18
 -1      3394 1.27235E-04-4.80078E-05-3.42679E-05 7.78483E-06 6.20452E-20 3.48395E-18
 -1      3395 9.55968E-05-2.66304E-05-2.95622E-05-1.04398E-06 1.44010E-18-3.63183E-19
 -1      3396 9.55153E-05-2.68522E-05-2.94302E-05-8.66151E-07 1.57939E-18-1.66818E-19
 -1      3397 9.55378E-05-2.65013E-05-2.95738E-05-1.47364E-07 1.89105E-18-2.54848E-19
 -1      3398 7.02916E-05-2.74519E-05-1.79724E-05 2.70799E-05 2.58702E-18-2.89929E-18
 -1      3399 1.21580E-04-5.09463E-05-3.04179E-05 5.62095E-06-1.94572E-18-1.77455E-18
 -1      3400 9.22229E-05-1.80231E-05-3.18125E-05 2.11667E-06 1.95719E-18-2.96553E-18
 -1      3401 9.29368E-05-1.92668E-05-3.15522E-05 1.50475E-06 1.67851E-18-2.77541E-18
 -1      3402 9.25109E-05-1.84831E-05-3.17445E-05 2.75419E-06 2.24867E-18-2.72392E-18
 -1      3403 5.81475E-05-2.00250E-05-1.58718E-05-2.17501E-05 1.46238E-18-1.32910E-18
 -1      3404 9.48416E-05-2.78448E-05-2.87150E-05 2.85703E-07-1.17804E-18 4.25694E-19
 -1      3405 9.48914E-05-2.78913E-05-2.87137E-05 3.42557E-07-1.25691E-18 1.80412E-18
 -1      3406 9.48700E-05-2.78407E-05-2.87254E-05 4.28341E-07-9.22662E-19 7.13011E-20
 -1      3407 9.47727E-05-2.77740E-05-2.87153E-05 1.30813E-07-1.55086E-20-6.51102E-19
 -1      3408 9.47991E-05-2.77982E-05-2.87148E-05 2.04371E-07-3.47055E-19-9.14384E-19
 -1      3409 9.47489E-05-2.77191E-05-2.87250E-05 2.81687E-07-6.34999E-19 6.11224E-19
 -1      3410 9.46851E-05-2.76566E-05-2.87241E-05 9.52773E-08-6.61679E-20-1.53741E-18
 -1      3411 5.03009E-05-1.31740E-05-1.55040E-05-3.70476E-06 2.21787E-19-4.03135E-19
 -1      3412 9.70957E-05-4.38456E-05-2.25636E-05 2.77165E-05 2.68785E-18-6.01843E-19
 -1      3413 1.05448E-04-4.82271E-05-2.42082E-05-2.47904E-05 4.73253E-18-5.54879E-19
 -1      3414 1.21318E-04-5.32257E-05-2.91085E-05-1.10103E-05 3.50755E-18-1.47480E-18
 -1      3415 1.27122E-04-5.50767E-05-3.06510E-05-7.77310E-06 3.31306E-18-2.42283E-18
 -1      3416 1.26989E-04-5.01256E-05-3.29902E-05-1.27223E-06-6.08164E-19 2.01025E-18
 -1      3417 1.22137E-04-5.33973E-05-2.95013E-05 9.71921E-06-2.38059E-18-2.22062E-18
 -1      3418 1.22882E-04-5.60272E-05-2.88622E-05 1.43561E-05-1.90733E-18-1.13443E-18
 -1      3419 1.13383E-04-5.33758E-05-2.53969E-05 2.30329E-05-1.98523E-18-3.28907E-19
 -1      3420 1.17084E-04-5.05303E-05-2.82693E-05 1.32210E-05-2.71421E-18-2.01132E-18
 -1      3421 9.54804E-05-2.61404E-05-2.97237E-05 5.17651E-07 2.20243E-18-3.48809E-19
 -1      3422 9.54930E-05-2.55704E-05-2.99545E-05 1.50057E-06 2.38011E-18-3.37948E-19
 -1      3423 9.53485E-05-2.47967E-05-3.02334E-05 1.88268E-06 2.46509E-18-5.21406E-19
 -1      3424 9.55447E-05-2.58794E-05-2.98599E-05 2.82970E-07 1.98201E-18-5.63489E-19
 -1      3425 9.54746E-05-2.75090E-05-2.91242E-05-2.90836E-06 7.31708E-19-4.52720E-19
 -1      3426 9.54427E-05-2.74211E-05-2.91469E-05-2.47421E-06 8.84587E-19-3.12472E-19
 -1      3427 9.54102E-05-2.72522E-05-2.92142E-05-3.08295E-06 6.55058E-19-3.92254E-19
 -1      3428 1.30492E-04-5.20147E-05-3.39118E-05-5.02604E-07 2.18277E-18-2.74576E-18
 -1      3429 9.55353E-05-2.70864E-05-2.93399E-05-2.16294E-06 1.11515E-18-3.07322E-19
 -1      3430 9.22020E-05-1.79931E-05-3.18156E-05-2.06749E-06 6.67815E-20-3.65330E-18
 -1      3431 9.24808E-05-1.84416E-05-3.17487E-05-2.71817E-06-4.22619E-19-3.77240E-18
 -1      3432 9.34324E-05-2.01327E-05-3.13981E-05-2.33832E-06-6.29002E-19-3.48768E-18
 -1      3433 1.08334E-04-4.93163E-05-2.51729E-05 2.26009E-05-2.06422E-18-1.45025E-18
 -1      3434 7.13544E-05-3.09616E-05-1.69402E-05-3.02828E-05-2.43760E-18-4.30282E-18
 -1      3435 1.00977E-04-4.87627E-05-2.22184E-05-3.03431E-05-2.87637E-18-3.30565E-18
 -1      3436 1.07218E-04-4.98465E-05-2.45347E-05-2.47191E-05-2.75744E-18-1.61701E-18
 -1      3437 9.27459E-05-4.28940E-05-2.11692E-05-3.05046E-05-2.86366E-18-2.97089E-18
 -1      3438 4.92988E-05-1.45220E-05-1.43780E-05-1.23119E-05-5.26954E-19-4.84699E-18
 -1      3439 5.71797E-05-1.81783E-05-1.65671E-05-1.78709E-05-1.18786E-18-4.00906E-18
 -1      3440 5.21238E-05-1.35565E-05-1.62987E-05-5.48559E-06 3.96742E-19-4.71951E-18
 -1      3441 5.99147E-05-1.85384E-05-1.73940E-05 1.68707E-05-1.84439E-18 2.41669E-18
 -1      3442 9.51085E-05-2.81192E-05-2.87105E-05-4.78627E-07 6.92089E-19 1.92122E-18
 -1      3443 9.50641E-05-2.80781E-05-2.87095E-05-4.54475E-07 2.80202E-19 1.75363E-18
 -1      3444 9.49931E-05-2.79680E-05-2.87238E-05-5.13170E-07-1.54969E-19 1.28324E-18
 -1      3445 9.50905E-05-2.80578E-05-2.87266E-05-5.63099E-07-3.97673E-19 2.60598E-18
 -1      3446 1.24268E-04-5.12201E-05-3.10552E-05 2.69937E-06 5.48341E-19 2.17894E-18
 -1      3447 1.09710E-04-4.83649E-05-2.64280E-05 1.90828E-05-2.54765E-18-2.56407E-18
 -1      3448 1.02324E-04-4.43749E-05-2.45224E-05 2.35348E-05-1.83841E-18-2.51319E-18
 -1      3449 9.57790E-05-3.90228E-05-2.42138E-05 2.26443E-05-2.50743E-18-1.24966E-18
 -1      3450 1.11108E-04-4.67686E-05-2.75505E-05 1.50505E-05-2.34034E-18-2.29281E-18
 -1      3451 7.38930E-05-2.82942E-05-1.91986E-05-2.67337E-05 2.77258E-18 1.46531E-18
 -1      3452 8.59311E-05-3.65706E-05-2.13870E-05-2.82473E-05 3.22884E-18 1.20988E-18
 -1      3453 9.43407E-05-2.19446E-05-3.10177E-05-2.74768E-06-1.24991E-18-3.24132E-18
 -1      3454 9.39233E-05-2.09745E-05-3.12595E-05-3.79854E-06-1.44812E-18-3.36482E-18
 -1      3455 1.20095E-04-5.26160E-05-2.91911E-05 1.03988E-05 1.52675E-18 1.21426E-18
 -1      3456 1.13371E-04-5.03927E-05-2.67886E-05 1.76355E-05 2.32470E-18 1.33928E-18
 -1      3457 1.20100E-04-5.02034E-05-2.99932E-05 5.72039E-06 1.24546E-18 1.21109E-18
 -1      3458 1.19353E-04-5.32738E-05-2.82799E-05-1.39806E-05-2.58508E-18 4.65512E-19
 -1      3459 9.55471E-05-2.65802E-05-2.95540E-05 1.79613E-06-6.21842E-19-1.82890E-18
 -1      3460 9.54804E-05-2.67592E-05-2.94534E-05 2.27789E-06-5.96978E-19-1.77411E-18
 -1      3461 9.53307E-05-2.68460E-05-2.93501E-05 2.68164E-06-5.40857E-19-1.59207E-18
 -1      3462 9.52275E-05-2.68920E-05-2.92853E-05 3.09734E-06-2.52712E-19-1.58141E-18
 -1      3463 9.52956E-05-2.64961E-05-2.94842E-05 2.29548E-06-3.80688E-19-1.41361E-18
 -1      3464 9.50036E-05-2.68548E-05-2.92087E-05 3.47078E-06-3.15901E-19-1.70075E-18
 -1      3465 9.48821E-05-2.68152E-05-2.91680E-05 3.86146E-06-3.76402E-19-1.86366E-18
 -1      3466 9.49257E-05-2.65701E-05-2.92939E-05 3.08050E-06-4.19673E-19-1.26827E-18
 -1      3467 9.46059E-05-2.67010E-05-2.91064E-05 4.23900E-06-1.80891E-19-2.10797E-18
 -1      3468 9.44828E-05-2.66203E-05-2.90786E-05 4.63579E-06-9.19372E-20-1.91262E-18
 -1      3469 9.44297E-05-2.64225E-05-2.91442E-05 3.83423E-06-4.74865E-19-1.55798E-18
 -1      3470 9.41758E-05-2.64755E-05-2.90203E-05 5.04575E-06-5.78487E-20-1.74453E-18
 -1      3471 9.40730E-05-2.64022E-05-2.89945E-05 5.46969E-06 2.59047E-20-1.62462E-18
 -1      3472 9.38493E-05-2.61513E-05-2.90114E-05 4.61977E-06-6.86857E-21-1.60285E-18
 -1      3473 9.37619E-05-2.62801E-05-2.89276E-05 5.93510E-06 2.72672E-20-1.40506E-18
 -1      3474 9.37141E-05-2.62738E-05-2.88932E-05 6.39777E-06-2.22662E-20-1.03832E-18
 -1      3475 9.32308E-05-2.58606E-05-2.88712E-05 5.49023E-06 1.00243E-19-1.35773E-18
 -1      3476 9.34405E-05-2.62420E-05-2.88060E-05 6.93814E-06-2.53595E-19-1.00732E-18
 -1      3477 9.35041E-05-2.63820E-05-2.87535E-05 7.44170E-06 3.89809E-21-1.01054E-18
 -1      3478 9.26395E-05-2.56748E-05-2.86990E-05 6.49256E-06 3.09017E-20-1.43366E-18
 -1      3479 9.33353E-05-2.65308E-05-2.86350E-05 8.07412E-06 5.40190E-21-1.27545E-18
 -1      3480 9.36013E-05-2.69240E-05-2.85579E-05 8.60902E-06 8.49514E-20-1.42306E-18
 -1      3481 9.21792E-05-2.57552E-05-2.84710E-05 7.67202E-06-7.89101E-20-1.30206E-18
 -1      3482 9.36476E-05-2.73756E-05-2.84014E-05 9.34557E-06 1.84561E-19-1.53423E-18
 -1      3483 9.42545E-05-2.81627E-05-2.83003E-05 9.88214E-06 3.06054E-19-1.36121E-18
 -1      3484 9.20189E-05-2.63207E-05-2.81677E-05 9.07452E-06 2.34274E-19-1.51712E-18
 -1      3485 9.46934E-05-2.90761E-05-2.81091E-05 1.07130E-05 4.61873E-19-1.32681E-18
 -1      3486 9.58370E-05-3.04234E-05-2.80013E-05 1.11794E-05 6.56231E-19-1.36504E-18
 -1      3487 9.24359E-05-2.76702E-05-2.77820E-05 1.07339E-05 3.40452E-19-1.75217E-18
 -1      3488 9.69299E-05-3.19791E-05-2.78011E-05 1.20490E-05 9.81965E-19-8.10692E-19
 -1      3489 9.88411E-05-3.40633E-05-2.77337E-05 1.23013E-05 1.39759E-18-7.79639E-19
 -1      3490 9.38472E-05-3.01689E-05-2.73389E-05 1.26214E-05 1.20699E-18-1.27167E-18
 -1      3491 1.01013E-04-3.64111E-05-2.75966E-05 1.29243E-05 1.65581E-18-2.95750E-19
 -1      3492 1.03786E-04-3.92587E-05-2.76604E-05 1.26880E-05 1.64997E-18-2.72114E-19
 -1      3493 9.69791E-05-3.43980E-05-2.69242E-05 1.45689E-05 1.64575E-18-6.41361E-19
 -1      3494 1.16167E-04-4.83743E-05-2.89003E-05 9.00516E-06 1.69993E-18 8.61340E-19
 -1      3495 1.11658E-04-4.54975E-05-2.82959E-05-1.05606E-05 3.15859E-18 3.83764E-19
 -1      3496 1.07759E-04-4.23963E-05-2.78413E-05-1.21357E-05 3.31351E-18 2.43581E-19
 -1      3497 1.04000E-04-3.91416E-05-2.77367E-05-1.23802E-05 2.36094E-18-3.05637E-19
 -1      3498 1.01000E-04-3.62888E-05-2.76524E-05-1.26562E-05 1.10778E-18-5.49195E-19
 -1      3499 1.02911E-04-4.06675E-05-2.68982E-05-1.56584E-05 2.25487E-18-9.06252E-19
 -1      3500 9.88259E-05-3.38741E-05-2.77935E-05-1.19202E-05 5.43264E-19-5.91901E-19
 -1      3501 9.68552E-05-3.17568E-05-2.78628E-05-1.16534E-05 3.43899E-19-1.17966E-19
 -1      3502 9.67497E-05-3.40634E-05-2.69724E-05-1.42333E-05 1.01773E-18-1.03842E-18
 -1      3503 9.57236E-05-3.01678E-05-2.80630E-05-1.07550E-05-7.99048E-20-1.05786E-19
 -1      3504 9.45580E-05-2.87928E-05-2.81720E-05-1.02496E-05 2.08909E-19 2.18319E-19
 -1      3505 9.37057E-05-2.98982E-05-2.73936E-05-1.22361E-05 2.26097E-19-7.57684E-19
 -1      3506 9.40690E-05-2.78433E-05-2.83591E-05-9.38066E-06 1.11016E-19 2.15376E-19
 -1      3507 9.34338E-05-2.70274E-05-2.84586E-05-8.79722E-06 1.22567E-21 2.36588E-19
 -1      3508 9.21988E-05-2.73205E-05-2.78300E-05-1.02864E-05 4.84089E-19-7.84258E-20
 -1      3509 9.33298E-05-2.65393E-05-2.86077E-05-8.01361E-06-3.80767E-19-6.47151E-20
 -1      3510 9.30305E-05-2.61198E-05-2.86802E-05-7.42556E-06-5.07347E-19-3.39292E-19
 -1      3511 9.16742E-05-2.58933E-05-2.82022E-05-8.54572E-06-6.47795E-19-1.14754E-18
 -1      3512 9.31362E-05-2.59394E-05-2.87867E-05-6.74107E-06-2.98765E-19-4.76881E-19
 -1      3513 9.30348E-05-2.57810E-05-2.88297E-05-6.18293E-06-2.85605E-19-1.37600E-19
 -1      3514 9.17156E-05-2.52575E-05-2.84843E-05-7.04870E-06-6.33470E-19-1.83782E-18
 -1      3515 9.32409E-05-2.57921E-05-2.88979E-05-5.59146E-06-1.10513E-18-3.15984E-19
 -1      3516 9.32471E-05-2.57945E-05-2.89157E-05-5.07995E-06-1.06483E-18-7.81738E-19
 -1      3517 9.20477E-05-2.51262E-05-2.86788E-05-5.77258E-06-7.93250E-19-1.81824E-18
 -1      3518 9.34882E-05-2.59152E-05-2.89533E-05-4.57259E-06-3.40912E-19-6.88939E-19
 -1      3519 9.35462E-05-2.60086E-05-2.89520E-05-4.11616E-06 1.10131E-19-6.74863E-19
 -1      3520 9.25042E-05-2.52966E-05-2.87997E-05-4.68579E-06-6.70625E-19-1.70978E-18
 -1      3521 9.37851E-05-2.61833E-05-2.89670E-05-3.68493E-06 2.89045E-19-7.81945E-19
 -1      3522 9.38621E-05-2.63210E-05-2.89530E-05-3.28698E-06-2.21404E-19 7.35096E-20
 -1      3523 9.29877E-05-2.56297E-05-2.88637E-05-3.76313E-06-1.48179E-19-8.95704E-19
 -1      3524 9.40792E-05-2.65136E-05-2.89524E-05-2.92456E-06-1.55753E-18-8.34503E-20
 -1      3525 9.41571E-05-2.66658E-05-2.89309E-05-2.58487E-06-1.68366E-18-2.71188E-19
 -1      3526 9.34442E-05-2.60332E-05-2.88866E-05-2.98514E-06-6.88389E-19-1.72864E-18
 -1      3527 9.43438E-05-2.68543E-05-2.89205E-05-2.28419E-06-7.57184E-19-9.42168E-19
 -1      3528 9.44139E-05-2.70031E-05-2.88955E-05-1.99990E-06 6.77919E-19-9.96835E-19
 -1      3529 9.38471E-05-2.64481E-05-2.88819E-05-2.33559E-06-1.75100E-18-5.00826E-19
 -1      3530 9.45682E-05-2.71753E-05-2.88796E-05-1.75403E-06 1.78093E-18-1.38336E-18
 -1      3531 9.46267E-05-2.73108E-05-2.88539E-05-1.52061E-06 2.22849E-18-1.43697E-18
 -1      3532 9.41866E-05-2.68397E-05-2.88601E-05-1.79983E-06 9.13203E-19-5.45737E-19
 -1      3533 9.47498E-05-2.74606E-05-2.88356E-05-1.32265E-06 2.73857E-18-1.28172E-18
 -1      3534 9.47961E-05-2.75779E-05-2.88112E-05-1.13445E-06 2.56311E-18-3.95036E-19
 -1      3535 9.44626E-05-2.71893E-05-2.88291E-05-1.36421E-06 2.42168E-18-2.19128E-18
 -1      3536 9.48915E-05-2.77050E-05-2.87925E-05-9.76497E-07 1.47850E-18 6.00477E-19
 -1      3537 9.49294E-05-2.78032E-05-2.87704E-05-8.29235E-07 1.85993E-18 1.53732E-18
 -1      3538 9.46792E-05-2.74878E-05-2.87943E-05-1.01482E-06 2.65892E-18-6.61633E-19
 -1      3539 9.46239E-05-2.66164E-05-2.91406E-05-4.75374E-06 6.24550E-19-8.36145E-19
 -1      3540 9.47284E-05-2.67368E-05-2.91443E-05-4.33207E-06 6.69000E-19-7.27909E-19
 -1      3541 9.29359E-05-2.56725E-05-2.88112E-05-9.02119E-06-5.52123E-19-2.88121E-19
 -1      3542 9.28794E-05-2.55469E-05-2.88684E-05-8.39178E-06-1.77769E-19-3.85377E-19
 -1      3543 9.32709E-05-2.56460E-05-2.89708E-05-7.74067E-06 2.59662E-20-4.17184E-19
 -1      3544 9.33251E-05-2.56972E-05-2.89946E-05-7.17096E-06 2.38195E-19-3.57919E-19
 -1      3545 9.17292E-05-2.48168E-05-2.86710E-05-7.83025E-06 1.74006E-20-3.86428E-19
 -1      3546 9.35506E-05-2.77136E-05-2.81774E-05-1.21191E-05-1.37121E-18-5.53483E-19
 -1      3547 9.28200E-05-2.67356E-05-2.83259E-05-1.14179E-05-1.11154E-18-6.33915E-19
 -1      3548 9.53997E-05-3.06305E-05-2.77080E-05-1.38938E-05-1.31576E-18-5.61843E-19
 -1      3549 9.39282E-05-2.88458E-05-2.78792E-05-1.32564E-05-1.21095E-18-7.16693E-19
 -1      3550 9.07170E-05-2.68937E-05-2.73748E-05-1.31271E-05-1.22143E-18-1.35766E-18
 -1      3551 9.92815E-05-3.55568E-05-2.72620E-05-1.54562E-05-1.79457E-18-7.95163E-19
 -1      3552 9.67144E-05-3.26878E-05-2.73733E-05-1.51109E-05-1.73367E-18-7.28640E-19
 -1      3553 9.22871E-05-3.01157E-05-2.66522E-05-1.59006E-05-1.48776E-18-1.06753E-18
 -1      3554 1.06427E-04-4.29490E-05-2.71674E-05-1.60954E-05-1.48713E-18-3.01378E-19
 -1      3555 1.02208E-04-3.89373E-05-2.70149E-05-1.65529E-05-1.35592E-18-5.11125E-19
 -1      3556 9.58829E-05-3.55388E-05-2.59798E-05-1.86178E-05-1.81604E-18-1.52912E-18
 -1      3557 1.13935E-04-4.98567E-05-2.73407E-05-1.63627E-05-2.63912E-18 1.56690E-19
 -1      3558 6.95698E-05-2.67828E-05-1.81967E-05-2.64247E-05-1.86429E-18-4.07582E-18
 -1      3559 8.19023E-05-3.56110E-05-1.96128E-05-3.06088E-05-2.43638E-18-3.63896E-18
 -1      3560 1.06392E-04-4.25449E-05-2.71798E-05 1.61267E-05-1.50509E-18-1.30968E-18
 -1      3561 9.30894E-05-2.72098E-05-2.82319E-05 1.17048E-05-1.31164E-18-2.63796E-20
 -1      3562 9.41096E-05-2.85172E-05-2.80679E-05 1.24370E-05-7.21603E-19-4.68721E-19
 -1      3563 9.25303E-05-2.57920E-05-2.86095E-05 9.89758E-06-6.89055E-19-4.83245E-19
 -1      3564 9.29878E-05-2.64536E-05-2.84867E-05 1.06426E-05-1.24622E-18-3.40637E-20
 -1      3565 9.03716E-05-2.55353E-05-2.77980E-05 1.13523E-05-1.32143E-18-8.20841E-19
 -1      3566 9.25727E-05-2.52494E-05-2.88636E-05 8.29571E-06-8.26295E-19 1.25923E-19
 -1      3567 9.27265E-05-2.55089E-05-2.87900E-05 9.00571E-06-7.42820E-19-2.09011E-19
 -1      3568 9.05390E-05-2.45561E-05-2.82779E-05 9.37033E-06-5.61194E-19-1.59806E-18
 -1      3569 9.28886E-05-2.52241E-05-2.90104E-05 6.88312E-06-6.76126E-19 1.17294E-18
 -1      3570 9.28923E-05-2.52476E-05-2.89788E-05 7.53834E-06-7.26246E-19 7.92743E-19
 -1      3571 9.10875E-05-2.43257E-05-2.86065E-05 7.73442E-06-8.88762E-19 2.00147E-20
 -1      3572 9.32951E-05-2.54771E-05-2.90756E-05 5.64458E-06 7.90725E-19 1.45687E-18
 -1      3573 9.32354E-05-2.53742E-05-2.90749E-05 6.23524E-06-2.38671E-19 1.30013E-18
 -1      3574 9.17665E-05-2.45236E-05-2.88110E-05 6.35825E-06-4.49628E-19 1.39961E-18
 -1      3575 9.36985E-05-2.58578E-05-2.90842E-05 4.56806E-06 9.45180E-19 1.00957E-18
 -1      3576 9.36207E-05-2.56968E-05-2.91036E-05 5.08934E-06 1.75855E-18 1.16244E-18
 -1      3577 9.24413E-05-2.49392E-05-2.89223E-05 5.18585E-06 1.31774E-18 1.03415E-18
 -1      3578 9.40566E-05-2.62765E-05-2.90569E-05 3.64406E-06 4.09097E-19 1.45354E-18
 -1      3579 9.39820E-05-2.60977E-05-2.90877E-05 4.09464E-06 4.87412E-19 1.69942E-18
 -1      3580 9.30485E-05-2.54418E-05-2.89680E-05 4.18358E-06 7.38996E-19 3.06157E-20
 -1      3581 9.43551E-05-2.66828E-05-2.90094E-05 2.86295E-06-1.49112E-19 3.58573E-19
 -1      3582 9.42920E-05-2.65087E-05-2.90451E-05 3.24467E-06 5.71360E-19 1.36508E-18
 -1      3583 9.35642E-05-2.59546E-05-2.89704E-05 3.33135E-06 4.57019E-19-4.87129E-19
 -1      3584 9.45934E-05-2.70506E-05-2.89526E-05 2.21320E-06 6.02482E-19-1.09418E-18
 -1      3585 9.45441E-05-2.68927E-05-2.89891E-05 2.53053E-06-3.25084E-19-5.12853E-19
 -1      3586 9.39854E-05-2.64347E-05-2.89463E-05 2.61455E-06 3.66393E-19-6.17428E-19
 -1      3587 9.47777E-05-2.73689E-05-2.88941E-05 1.68160E-06-1.32383E-19-1.26508E-18
 -1      3588 9.47413E-05-2.72323E-05-2.89286E-05 1.94066E-06 6.61298E-19-7.49663E-19
 -1      3589 9.43196E-05-2.68610E-05-2.89078E-05 2.01989E-06 7.27306E-19-1.38550E-18
 -1      3590 9.49156E-05-2.76358E-05-2.88384E-05 1.25574E-06-5.94593E-19-8.96352E-19
 -1      3591 9.48913E-05-2.75224E-05-2.88694E-05 1.46152E-06-3.91283E-19-8.69011E-19
 -1      3592 9.45792E-05-2.72262E-05-2.88631E-05 1.53331E-06-9.27988E-19-1.58156E-18
 -1      3593 9.50180E-05-2.78532E-05-2.87880E-05 9.14991E-07-3.38633E-19-1.66195E-18
 -1      3594 9.50006E-05-2.77594E-05-2.88150E-05 1.07744E-06-1.94666E-19-1.19559E-18
 -1      3595 9.47717E-05-2.75224E-05-2.88177E-05 1.14226E-06-3.68509E-19-1.64580E-19
 -1      3596 9.50910E-05-2.80259E-05-2.87436E-05 6.50664E-07 3.94144E-20-1.74732E-18
 -1      3597 9.50786E-05-2.79518E-05-2.87666E-05 7.77151E-07-5.70403E-19-1.22115E-18
 -1      3598 9.49174E-05-2.77712E-05-2.87747E-05 8.34562E-07-1.25093E-19-3.78070E-19
 -1      3599 5.42224E-05-1.31513E-05-1.75087E-05 5.56577E-07-4.71612E-19 5.08405E-19
 -1      3600 5.42872E-05-1.39826E-05-1.70451E-05-9.73697E-06 3.27511E-19-1.76887E-18
 -1      3601 9.50810E-05-2.81024E-05-2.87070E-05 4.35329E-07-1.84926E-18 7.01286E-19
 -1      3602 9.51378E-05-2.81646E-05-2.87026E-05 4.34126E-07-2.52237E-18-1.47608E-18
 -1      3603 9.51359E-05-2.81377E-05-2.87132E-05 4.87342E-07-1.17884E-18-2.02230E-18
 -1      3604 9.50076E-05-2.79897E-05-2.87217E-05 4.93103E-07-8.00711E-19-4.75223E-20
 -1      3605 9.45830E-05-2.75424E-05-2.87322E-05-1.72309E-07 5.13687E-19-1.78719E-18
 -1      3606 9.45628E-05-2.75248E-05-2.87322E-05-6.99513E-08 5.52183E-19-2.41098E-18
 -1      3607 1.01094E-04-4.32081E-05-2.44656E-05-2.27542E-05 3.73574E-18-1.64506E-19
 -1      3608 1.10754E-04-4.84665E-05-2.69506E-05-1.72185E-05 3.24167E-18-8.72722E-19
 -1      3609 9.48363E-05-3.00253E-05-2.77505E-05 1.36752E-05-6.83278E-19-1.24238E-19
 -1      3610 9.67840E-05-3.22625E-05-2.75892E-05 1.42740E-05-5.46610E-19-6.28599E-20
 -1      3611 9.10370E-05-2.77506E-05-2.71586E-05 1.38083E-05-4.97945E-19-1.20561E-18
 -1      3612 7.82273E-05-3.11909E-05-2.03798E-05 2.71565E-05 2.43358E-18-2.22902E-18
 -1      3613 6.65804E-05-2.25280E-05-1.85948E-05 2.22520E-05 2.22073E-18-2.94537E-18
 -1      3614 5.90061E-05-1.77062E-05-1.75584E-05-1.72923E-05 7.99520E-20-3.11608E-18
 -1      3615 6.58547E-05-2.30432E-05-1.82735E-05-2.38987E-05 1.45126E-18-9.21625E-19
 -1      3616 7.43949E-05-2.57628E-05-2.05727E-05-2.22576E-05 1.39240E-18-4.25250E-19
 -1      3617 9.86126E-05-3.47815E-05-2.72680E-05 1.54583E-05-8.71911E-19-1.79591E-19
 -1      3618 1.01786E-04-3.81929E-05-2.72122E-05 1.56481E-05-1.03834E-18-2.37833E-19
 -1      3619 9.35167E-05-3.20928E-05-2.64357E-05 1.67495E-05-8.31363E-19-6.64739E-19
 -1      3620 9.18514E-05-1.74441E-05-3.19010E-05-8.64970E-07 5.46155E-19-3.75465E-18
 -1      3621 9.19900E-05-1.76620E-05-3.18700E-05-1.54505E-06 2.34810E-19-3.72140E-18
 -1      3622 9.29123E-05-1.92465E-05-3.15550E-05-1.44615E-06 1.37027E-19-3.47377E-18
 -1      3623 5.86545E-05-1.70647E-05-1.77672E-05 1.55802E-05 1.65394E-18-3.33366E-18
 -1      3624 5.45168E-05-1.38140E-05-1.72869E-05 5.99858E-06 1.09118E-18-4.17026E-18
 -1      3625 9.29132E-05-2.62359E-05-2.85521E-05-1.04786E-05-6.75488E-19-5.13520E-19
 -1      3626 9.26245E-05-2.57889E-05-2.86540E-05-9.79849E-06-3.87410E-19-2.82899E-19
 -1      3627 9.10060E-05-2.47804E-05-2.83801E-05-9.23987E-06-4.15964E-19-6.71867E-19
 -1      3628 9.05501E-05-2.53346E-05-2.79558E-05-1.09668E-05-8.06199E-19-7.03829E-19
 -1      3629 1.26494E-04-4.87611E-05-3.34006E-05 3.49261E-06 2.13713E-18-1.04762E-18
 -1      3630 1.23732E-04-5.02657E-05-3.14386E-05-9.71821E-07 3.06656E-18-6.86361E-19
 -1      3631 9.53767E-05-2.47923E-05-3.02487E-05-6.24392E-07-8.99509E-19-2.44545E-18
 -1      3632 9.54929E-05-2.54262E-05-3.00362E-05 1.43809E-07-5.99469E-19-2.34031E-18
 -1      3633 9.55948E-05-2.59451E-05-2.98447E-05 7.24562E-07-4.72470E-19-2.27550E-18
 -1      3634 9.55930E-05-2.63146E-05-2.96957E-05 1.32228E-06-5.49646E-19-2.17861E-18
 -1      3635 9.54891E-05-2.60950E-05-2.97384E-05 1.40651E-06-4.83270E-19-1.90888E-18
 -1      3636 9.55105E-05-2.68807E-05-2.94137E-05-2.26577E-06 1.03817E-18-6.31719E-19
 -1      3637 9.55632E-05-2.67092E-05-2.95041E-05-1.75426E-06 1.15944E-18-6.07470E-19
 -1      3638 9.52141E-05-2.41390E-05-3.04584E-05 2.17807E-06 2.33962E-18-9.24042E-19
 -1      3639 9.48663E-05-2.32510E-05-3.06991E-05 2.42751E-06 2.33793E-18-1.41703E-18
 -1      3640 9.53393E-05-2.47983E-05-3.02390E-05 1.26466E-06 2.12435E-18-9.20937E-19
 -1      3641 6.75341E-05-2.10939E-05-1.98605E-05 1.88885E-05-2.01396E-18 1.69804E-18
 -1      3642 5.92420E-05-1.53442E-05-1.85992E-05 1.07517E-05-1.17118E-18 2.12124E-18
 -1      3643 1.02455E-04-4.53341E-05-2.46566E-05 2.34603E-05 2.51356E-18 3.56349E-19
 -1      3644 9.12039E-05-3.82599E-05-2.23164E-05 2.67149E-05 2.59068E-18-9.06405E-19
 -1      3645 9.45421E-05-2.25087E-05-3.08725E-05 2.23742E-06 2.18772E-18-1.74323E-18
 -1      3646 6.75668E-05-2.03577E-05-1.99757E-05 1.68511E-05 1.34966E-18-2.79935E-18
 -1      3647 9.42580E-05-2.18788E-05-3.10134E-05-2.08163E-06-8.92642E-19-3.12239E-18
 -1      3648 9.48232E-05-2.31080E-05-3.07405E-05-2.03486E-06-1.18434E-18-2.91371E-18
 -1      3649 9.50939E-05-2.39851E-05-3.04814E-05-1.18947E-06-1.02762E-18-2.75862E-18
 -1      3650 9.54387E-05-2.52469E-05-3.00792E-05 3.38498E-07-4.37222E-19-2.27708E-18
 -1      3651 1.12500E-04-4.80129E-05-2.77088E-05 1.36572E-05 2.01833E-18 7.77252E-19
 -1      3652 1.09696E-04-4.80683E-05-2.62492E-05 1.88523E-05 2.32525E-18 7.81679E-19
 -1      3653 1.03528E-04-4.33832E-05-2.57780E-05 1.92930E-05 2.36390E-18 4.14355E-19
 -1      3654 1.12625E-04-4.64088E-05-2.83880E-05 1.05253E-05 1.79739E-18 6.17820E-19
 -1      3655 9.46811E-05-2.76341E-05-2.87334E-05-3.80390E-07-1.69198E-20-1.57062E-18
 -1      3656 9.46252E-05-2.75868E-05-2.87331E-05-2.90631E-07 8.73242E-20-2.10915E-18
 -1      3657 9.45064E-05-2.74355E-05-2.87418E-05-2.65953E-07 1.21873E-18-2.09380E-18
 -1      3658 1.03780E-04-4.12127E-05-2.69121E-05 1.54026E-05 2.06812E-18 1.29993E-19
 -1      3659 1.08820E-04-4.33988E-05-2.79128E-05 1.21239E-05 1.80706E-18 4.12936E-19
 -1      3660 1.15943E-04-4.92956E-05-2.84345E-05-1.10630E-05 3.23863E-18-1.92874E-19
 -1      3661 9.92859E-05-3.91670E-05-2.58943E-05 1.93840E-05-1.76011E-18-2.00828E-18
 -1      3662 9.45608E-05-2.64650E-05-2.91817E-05-3.95150E-06 5.88703E-19-9.82957E-19
 -1      3663 9.49973E-05-2.68842E-05-2.91874E-05-3.94054E-06 5.85869E-19-9.88849E-19
 -1      3664 9.50907E-05-2.69424E-05-2.92084E-05-3.52921E-06 5.34617E-19-8.93859E-19
 -1      3665 9.43005E-05-2.64086E-05-2.91041E-05-5.17524E-06 4.07342E-19-6.55445E-19
 -1      3666 9.39757E-05-2.60967E-05-2.90873E-05-4.76038E-06 4.93677E-19-6.37104E-19
 -1      3667 9.41915E-05-2.62608E-05-2.91062E-05-5.63305E-06 4.14729E-19-5.06221E-19
 -1      3668 9.50053E-05-2.79017E-05-2.87574E-05-7.41746E-07 2.03475E-18 1.64330E-18
 -1      3669 9.50365E-05-2.79789E-05-2.87399E-05-6.37512E-07 2.53439E-19 1.74407E-18
 -1      3670 9.49845E-05-2.79291E-05-2.87383E-05-6.14909E-07 4.34192E-19 2.01201E-18
 -1      3671 9.48528E-05-2.77341E-05-2.87641E-05-7.76795E-07 2.05664E-18 1.29894E-18
 -1      3672 9.53756E-05-2.69586E-05-2.93203E-05-2.69869E-06 8.14859E-19-5.65158E-19
 -1      3673 9.53655E-05-2.66079E-05-2.94675E-05-2.32279E-06 9.41441E-19-9.02314E-19
 -1      3674 9.52982E-05-2.69957E-05-2.92707E-05-3.13616E-06 6.32073E-19-8.50252E-19
 -1      3675 9.25243E-05-2.51638E-05-2.88627E-05-6.65164E-06 4.12854E-19-4.15971E-19
 -1      3676 9.37241E-05-2.58995E-05-2.90590E-05-6.61870E-06 4.67471E-19-3.67245E-19
 -1      3677 9.38224E-05-2.60309E-05-2.90632E-05-6.10903E-06 6.02262E-19-4.02841E-19
 -1      3678 1.06504E-04-4.76177E-05-2.51687E-05-2.25136E-05-2.81124E-18-8.89543E-19
 -1      3679 1.07382E-04-4.44877E-05-2.68676E-05-1.72458E-05-2.01199E-18-1.50788E-19
 -1      3680 6.56534E-05-2.20644E-05-1.83065E-05-2.19306E-05-1.29705E-18-4.33972E-18
 -1      3681 7.43578E-05-2.63082E-05-2.05667E-05-2.30827E-05-1.45302E-18-3.78798E-18
 -1      3682 6.31199E-05-1.85112E-05-1.90441E-05-1.57287E-05-6.51157E-19-3.87663E-18
 -1      3683 9.44564E-05-2.73876E-05-2.87409E-05-6.98804E-09 3.10892E-19-2.44475E-18
 -1      3684 9.45612E-05-2.75222E-05-2.87325E-05 5.83507E-08-2.13652E-19-3.04625E-18
 -1      3685 9.45797E-05-2.75373E-05-2.87330E-05 1.63046E-07-3.79237E-19-9.85518E-19
 -1      3686 9.56011E-05-2.64485E-05-2.96409E-05-1.23538E-06 1.27195E-18-8.07072E-19
 -1      3687 9.56071E-05-2.60883E-05-2.97866E-05-5.92812E-07 1.56622E-18-7.86844E-19
 -1      3688 9.55338E-05-2.62149E-05-2.97082E-05-1.35311E-06 1.16565E-18-1.04697E-18
 -1      3689 9.32757E-05-2.01199E-05-3.13640E-05 6.38013E-07 1.25414E-18-2.88295E-18
 -1      3690 9.32051E-05-2.00087E-05-3.13820E-05 1.84227E-07 8.81877E-19-2.99652E-18
 -1      3691 9.34678E-05-2.01633E-05-3.13924E-05 2.39236E-06 2.04211E-18-2.31519E-18
 -1      3692 6.23330E-05-1.68781E-05-1.91881E-05-1.23294E-05 2.01918E-19-2.20750E-18
 -1      3693 5.97814E-05-1.43953E-05-1.92796E-05 5.81341E-06-4.98565E-19 1.44817E-18
 -1      3694 6.18690E-05-1.43178E-05-2.03774E-05-9.59439E-08-3.31511E-19-3.94413E-19
 -1      3695 6.64321E-05-1.65350E-05-2.13445E-05 8.38229E-06-9.51086E-19 6.40403E-19
 -1      3696 9.51368E-05-2.81099E-05-2.87251E-05 5.49943E-07-1.35679E-19-1.37958E-18
 -1      3697 9.56466E-05-3.83707E-05-2.43667E-05-2.14793E-05 2.27995E-18 7.07206E-20
 -1      3698 9.35911E-05-2.06688E-05-3.12671E-05 1.37379E-06 1.57105E-18-2.59502E-18
 -1      3699 9.33992E-05-2.03285E-05-3.13249E-05 9.50253E-07 1.40628E-18-2.81873E-18
 -1      3700 9.39274E-05-2.13348E-05-3.10916E-05 5.68056E-07 1.11251E-18-2.56381E-18
 -1      3701 1.19720E-04-4.95857E-05-3.02385E-05-4.81128E-06 2.75710E-18 8.02034E-20
 -1      3702 8.13669E-05-2.83604E-05-2.28032E-05 2.10081E-05-2.11115E-18-3.42082E-19
 -1      3703 7.42943E-05-2.44037E-05-2.11307E-05 2.07508E-05-2.02747E-18 3.07605E-19
 -1      3704 7.18197E-05-2.08078E-05-2.18932E-05 1.57623E-05-1.28585E-18 1.22609E-18
 -1      3705 8.65507E-05-3.34917E-05-2.25719E-05 2.36216E-05 2.32272E-18-1.38900E-18
 -1      3706 9.26471E-05-1.88084E-05-3.16279E-05-4.72423E-07 5.79622E-19-3.45127E-18
 -1      3707 9.50531E-05-2.38542E-05-3.05082E-05-8.35346E-07-6.79127E-19-2.49220E-18
 -1      3708 9.01820E-05-3.87483E-05-2.19016E-05-2.71921E-05-2.58557E-18-2.83412E-18
 -1      3709 6.13225E-05-1.49573E-05-1.97603E-05 4.29963E-06 8.42149E-19-3.47395E-18
 -1      3710 5.56196E-05-1.33633E-05-1.78120E-05 6.37163E-07 4.92526E-19-4.64534E-18
 -1      3711 5.86605E-05-1.46623E-05-1.88474E-05-5.70707E-06 2.72440E-20-4.11637E-18
 -1      3712 9.47519E-05-2.77036E-05-2.87377E-05 4.70093E-07-4.37442E-19 5.20146E-19
 -1      3713 9.48350E-05-2.77751E-05-2.87381E-05 5.31277E-07-5.40126E-19-5.00289E-19
 -1      3714 9.37115E-05-2.08592E-05-3.12229E-05-1.48328E-06-1.23857E-19-3.00969E-18
 -1      3715 9.39973E-05-2.14034E-05-3.11235E-05-1.83471E-06-5.53646E-19-3.18837E-18
 -1      3716 9.44963E-05-2.24889E-05-3.08536E-05-1.19919E-06-4.84146E-19-2.89178E-18
 -1      3717 9.50298E-05-2.79771E-05-2.87361E-05 5.97683E-07-8.85202E-20 4.92404E-20
 -1      3718 9.49545E-05-2.79009E-05-2.87391E-05 5.90582E-07-7.94620E-19-7.86701E-19
 -1      3719 9.49339E-05-2.78853E-05-2.87365E-05-5.83238E-07 1.89328E-19 8.77514E-19
 -1      3720 9.48387E-05-2.77572E-05-2.87487E-05-6.40714E-07 1.14897E-18 1.82940E-21
 -1      3721 9.48576E-05-2.78075E-05-2.87345E-05-5.34087E-07 3.89596E-19 1.74926E-19
 -1      3722 9.47746E-05-2.77343E-05-2.87345E-05-4.76021E-07 1.93588E-19-5.51344E-19
 -1      3723 9.47603E-05-2.76546E-05-2.87610E-05-7.20138E-07 2.03522E-18-6.90091E-19
 -1      3724 9.48369E-05-2.77512E-05-2.87522E-05 6.43711E-07-4.96416E-19-1.10640E-19
 -1      3725 9.54186E-05-2.56624E-05-2.98944E-05 9.90130E-07-2.45198E-19-2.06830E-18
 -1      3726 9.53744E-05-2.59822E-05-2.97442E-05 1.47128E-06-1.60659E-19-1.87413E-18
 -1      3727 9.52501E-05-2.61867E-05-2.95992E-05 1.83490E-06-1.65360E-19-1.78171E-18
 -1      3728 9.51012E-05-2.63048E-05-2.94861E-05 2.24493E-06-3.65158E-19-1.64630E-18
 -1      3729 9.51873E-05-2.57766E-05-2.97421E-05 1.43559E-06-1.85122E-19-1.96874E-18
 -1      3730 9.83882E-05-3.82443E-05-2.56286E-05 1.86567E-05 2.31134E-18-4.94447E-20
 -1      3731 9.48455E-05-2.63234E-05-2.93693E-05 2.57503E-06-2.88482E-19-1.46498E-18
 -1      3732 9.46216E-05-2.62968E-05-2.92817E-05 2.94999E-06-3.42130E-19-1.45412E-18
 -1      3733 9.48084E-05-2.60261E-05-2.94734E-05 2.12221E-06-2.62554E-19-1.84719E-18
 -1      3734 9.42614E-05-2.61823E-05-2.91817E-05 3.27656E-06-4.11781E-19-1.15219E-18
 -1      3735 9.39845E-05-2.60606E-05-2.91079E-05 3.64964E-06-2.24902E-19-1.14664E-18
 -1      3736 9.41961E-05-2.59383E-05-2.92485E-05 2.76835E-06-2.21289E-19-1.41403E-18
 -1      3737 9.35407E-05-2.58625E-05-2.90121E-05 4.00242E-06-1.28197E-19-9.42488E-19
 -1      3738 9.32319E-05-2.56955E-05-2.89399E-05 4.40216E-06-1.52382E-20-9.58877E-19
 -1      3739 9.33968E-05-2.56158E-05-2.90435E-05 3.43153E-06-7.88158E-20-8.37945E-19
 -1      3740 9.27240E-05-2.54643E-05-2.88349E-05 4.80963E-06 2.42317E-20-1.03766E-18
 -1      3741 9.24101E-05-2.53071E-05-2.87518E-05 5.26100E-06 1.07652E-19-1.20929E-18
 -1      3742 9.24494E-05-2.51602E-05-2.88320E-05 4.16920E-06-6.09818E-21-7.48494E-19
 -1      3743 9.18605E-05-2.51000E-05-2.86231E-05 5.75432E-06 1.63881E-19-1.32908E-18
 -1      3744 9.15825E-05-2.50207E-05-2.85163E-05 6.28213E-06 8.55963E-20-1.04856E-18
 -1      3745 9.13935E-05-2.46787E-05-2.85854E-05 5.04108E-06 7.89682E-20-9.54343E-19
 -1      3746 9.10263E-05-2.49106E-05-2.83486E-05 6.89908E-06-1.37953E-19-1.09435E-18
 -1      3747 9.08506E-05-2.49993E-05-2.82061E-05 7.52977E-06-1.92869E-19-1.15721E-18
 -1      3748 9.02835E-05-2.42987E-05-2.82730E-05 6.12008E-06-9.30882E-20-7.71949E-19
 -1      3749 9.03427E-05-2.50810E-05-2.79839E-05 8.32151E-06 3.09796E-20-1.14448E-18
 -1      3750 9.03798E-05-2.54617E-05-2.77966E-05 9.08554E-06 3.34965E-19-1.22281E-18
 -1      3751 8.92033E-05-2.41816E-05-2.78620E-05 7.50131E-06 1.22363E-19-8.67208E-19
 -1      3752 9.00170E-05-2.58690E-05-2.75053E-05 1.01230E-05 3.02012E-19-1.16211E-18
 -1      3753 9.04456E-05-2.67142E-05-2.72727E-05 1.10434E-05 4.70702E-19-9.81213E-19
 -1      3754 8.82917E-05-2.45478E-05-2.73191E-05 9.32171E-06 3.01000E-19-9.39091E-19
 -1      3755 9.04235E-05-2.76568E-05-2.69067E-05 1.24036E-05 1.11495E-18-9.09464E-19
 -1      3756 9.15198E-05-2.91876E-05-2.66515E-05 1.34511E-05 1.71628E-18-6.80077E-19
 -1      3757 8.78105E-05-2.57171E-05-2.66156E-05 1.17966E-05 8.67130E-19-3.15151E-19
 -1      3758 9.20246E-05-3.07342E-05-2.62263E-05 1.52064E-05 1.95522E-18-7.99265E-19
 -1      3759 9.41613E-05-3.34483E-05-2.59936E-05 1.64301E-05 1.89662E-18-5.29110E-19
 -1      3760 8.82151E-05-2.81240E-05-2.57442E-05 1.50653E-05 1.81699E-18-5.97717E-19
 -1      3761 9.20018E-05-3.45535E-05-2.44844E-05-2.02480E-05 1.40005E-18-5.34278E-19
 -1      3762 9.02546E-05-2.39777E-05-2.83946E-05-7.48754E-06 2.55010E-19-4.85312E-19
 -1      3763 9.06544E-05-2.41372E-05-2.85243E-05-6.87943E-06 3.02068E-19-4.21816E-19
 -1      3764 9.13372E-05-2.89033E-05-2.67030E-05-1.31445E-05 1.96995E-19-1.31110E-18
 -1      3765 9.02136E-05-2.73310E-05-2.69570E-05-1.20620E-05 5.16411E-19-7.10028E-19
 -1      3766 9.01639E-05-2.63459E-05-2.73136E-05-1.06746E-05 6.90602E-19-4.00054E-19
 -1      3767 8.96845E-05-2.54581E-05-2.75397E-05-9.71925E-06 5.76040E-19-6.63689E-19
 -1      3768 8.75082E-05-2.53468E-05-2.66540E-05-1.14922E-05 5.52131E-19-4.70100E-19
 -1      3769 8.99701E-05-2.50024E-05-2.78194E-05-8.64662E-06-3.50399E-19-1.07553E-18
 -1      3770 8.98756E-05-2.45813E-05-2.79975E-05-7.83997E-06-1.15374E-18-1.05751E-18
 -1      3771 8.78453E-05-2.40678E-05-2.73342E-05-8.96403E-06-2.01754E-19-7.80119E-19
 -1      3772 9.03034E-05-2.44568E-05-2.82049E-05-7.00625E-06-1.35187E-18-9.16987E-19
 -1      3773 9.04160E-05-2.43361E-05-2.83334E-05-6.33061E-06-7.52954E-19-1.51472E-18
 -1      3774 8.86020E-05-2.36062E-05-2.78495E-05-7.07126E-06-1.18664E-18-7.29772E-19
 -1      3775 9.08878E-05-2.44147E-05-2.84791E-05-5.67096E-06-6.25400E-19-1.20754E-18
 -1      3776 9.10987E-05-2.44770E-05-2.85642E-05-5.10143E-06-1.06074E-18-1.01368E-18
 -1      3777 8.95196E-05-2.36484E-05-2.82224E-05-5.61264E-06-9.49982E-19-5.82617E-19
 -1      3778 9.15615E-05-2.46723E-05-2.86608E-05-4.57049E-06-7.80670E-19-1.72358E-18
 -1      3779 9.18060E-05-2.48378E-05-2.87112E-05-4.08882E-06-3.27784E-19-1.36186E-18
 -1      3780 9.04602E-05-2.39895E-05-2.84789E-05-4.46283E-06-9.34092E-19-1.20477E-18
 -1      3781 9.22307E-05-2.50904E-05-2.87703E-05-3.65709E-06-1.12034E-19-2.04783E-18
 -1      3782 9.24722E-05-2.53049E-05-2.87951E-05-3.25050E-06-8.74753E-20-1.71608E-18
 -1      3783 9.13477E-05-2.44904E-05-2.86450E-05-3.53985E-06-5.52095E-19-1.64517E-18
 -1      3784 9.28445E-05-2.55749E-05-2.88269E-05-2.89811E-06-4.36121E-19-2.08707E-18
 -1      3785 9.30636E-05-2.58031E-05-2.88336E-05-2.55702E-06-1.11322E-18-2.13755E-18
 -1      3786 9.21419E-05-2.50565E-05-2.87437E-05-2.79137E-06-6.89471E-19-2.55389E-18
 -1      3787 9.33791E-05-2.60653E-05-2.88465E-05-2.26974E-06-1.91145E-18-1.21255E-18
 -1      3788 9.35674E-05-2.62856E-05-2.88415E-05-1.98640E-06-1.02624E-18-1.12118E-18
 -1      3789 9.28257E-05-2.56252E-05-2.87941E-05-2.18174E-06-1.14980E-18-2.51871E-18
 -1      3790 9.38272E-05-2.65254E-05-2.88418E-05-1.75346E-06 1.95681E-19-2.30534E-19
 -1      3791 9.39829E-05-2.67259E-05-2.88297E-05-1.52095E-06 1.30744E-18-9.58279E-19
 -1      3792 9.33969E-05-2.61583E-05-2.88114E-05-1.68594E-06 3.64028E-19-1.50454E-18
 -1      3793 9.41918E-05-2.69361E-05-2.88224E-05-1.33441E-06 1.83490E-18-8.36664E-19
 -1      3794 9.43161E-05-2.71102E-05-2.88067E-05-1.14635E-06 2.41463E-18-9.08130E-19
 -1      3795 9.38623E-05-2.66354E-05-2.88073E-05-1.28554E-06 1.49393E-18-6.07807E-19
 -1      3796 9.44807E-05-2.72896E-05-2.87951E-05-9.98321E-07 2.56224E-18-7.40812E-19
 -1      3797 9.45803E-05-2.74356E-05-2.87782E-05-8.48394E-07 2.57830E-18-8.23568E-20
 -1      3798 9.42319E-05-2.70476E-05-2.87903E-05-9.65782E-07 2.39016E-18-4.34049E-19
 -1      3799 9.47707E-05-2.76395E-05-2.87716E-05 7.72063E-07-6.68871E-19-8.22164E-19
 -1      3800 8.83117E-05-2.85569E-05-2.56414E-05-1.66542E-05-1.87008E-18-1.72341E-18
 -1      3801 8.71176E-05-2.64868E-05-2.60191E-05-1.48791E-05-1.41389E-18-1.85343E-18
 -1      3802 8.76966E-05-2.55288E-05-2.66043E-05-1.32188E-05-9.77416E-19-1.78195E-18
 -1      3803 8.74028E-05-2.45552E-05-2.69656E-05-1.19973E-05-9.23684E-19-1.55037E-18
 -1      3804 8.38926E-05-2.40519E-05-2.56054E-05-1.37764E-05-1.17958E-18-2.27729E-18
 -1      3805 9.99471E-05-4.08801E-05-2.52713E-05-2.12824E-05-1.83033E-18-1.56775E-18
 -1      3806 8.96870E-05-2.34416E-05-2.84096E-05 6.77050E-06-1.22804E-18 1.92763E-18
 -1      3807 8.93568E-05-2.33750E-05-2.82667E-05 7.47990E-06-1.05240E-18 1.01682E-18
 -1      3808 9.45830E-05-2.74531E-05-2.87667E-05 6.93685E-07-1.27617E-19-9.16513E-19
 -1      3809 9.46345E-05-2.74693E-05-2.87890E-05 9.03964E-07-1.85956E-19-2.00493E-19
 -1      3810 9.41250E-05-2.16429E-05-3.10811E-05 2.00072E-06 1.97339E-18-2.12695E-18
 -1      3811 9.38221E-05-2.10775E-05-3.11839E-05 1.64657E-06 1.70250E-18-2.33679E-18
 -1      3812 9.42650E-05-2.19592E-05-3.09685E-05 1.04991E-06 1.45795E-18-2.28615E-18
 -1      3813 8.86058E-05-2.32719E-05-2.80232E-05 8.29251E-06-8.16396E-19 8.84847E-19
 -1      3814 8.83931E-05-2.34631E-05-2.78063E-05 9.15182E-06-5.71766E-19 1.72444E-19
 -1      3815 8.73198E-05-2.23337E-05-2.78335E-05 7.25258E-06-1.45276E-18 3.14249E-18
 -1      3816 8.76378E-05-2.36411E-05-2.74546E-05 1.02252E-05-9.11121E-19-1.53788E-19
 -1      3817 8.76994E-05-2.42693E-05-2.71504E-05 1.12986E-05-5.09561E-19 8.52310E-19
 -1      3818 8.57886E-05-2.22662E-05-2.72067E-05 9.05623E-06-8.33242E-19 3.02937E-18
 -1      3819 9.07293E-05-2.39008E-05-2.86562E-05 5.52880E-06-8.30113E-20 5.43798E-19
 -1      3820 9.03758E-05-2.36967E-05-2.85705E-05 6.12806E-06-6.47705E-19 3.99313E-19
 -1      3821 8.87628E-05-2.27842E-05-2.82604E-05 5.87904E-06-7.15779E-19 6.95409E-19
 -1      3822 9.16612E-05-2.44895E-05-2.88007E-05 4.49005E-06 1.56804E-18 5.10090E-19
 -1      3823 9.13312E-05-2.42243E-05-2.87564E-05 5.00314E-06 7.06566E-19 1.53394E-19
 -1      3824 9.00483E-05-2.34271E-05-2.85383E-05 4.78291E-06 8.71672E-19-3.39231E-19
 -1      3825 9.24578E-05-2.51116E-05-2.88733E-05 3.61141E-06 1.15072E-18 1.94535E-19
 -1      3826 9.21712E-05-2.48309E-05-2.88574E-05 4.05090E-06 2.17658E-18 1.04430E-18
 -1      3827 9.11520E-05-2.41400E-05-2.87080E-05 3.87668E-06 1.32265E-18 4.97495E-19
 -1      3828 9.31172E-05-2.57097E-05-2.88977E-05 2.86920E-06 1.36463E-19 1.67755E-19
 -1      3829 9.28793E-05-2.54402E-05-2.89002E-05 3.24272E-06 3.06986E-19-9.50113E-20
 -1      3830 9.20750E-05-2.48502E-05-2.88014E-05 3.11532E-06 1.04018E-18 1.50642E-18
 -1      3831 9.36491E-05-2.62524E-05-2.88915E-05 2.24744E-06 6.85787E-19 1.73732E-19
 -1      3832 9.34581E-05-2.60085E-05-2.89049E-05 2.56095E-06 8.34268E-19 4.16148E-19
 -1      3833 9.28298E-05-2.55127E-05-2.88429E-05 2.47424E-06 4.90396E-19 1.17137E-18
 -1      3834 9.40694E-05-2.67261E-05-2.88672E-05 1.73244E-06 2.52859E-19 3.13195E-19
 -1      3835 9.39198E-05-2.65135E-05-2.88864E-05 1.99199E-06 5.78743E-19 5.30410E-20
 -1      3836 9.34349E-05-2.61039E-05-2.88504E-05 1.93759E-06 9.32244E-19 1.38115E-18
 -1      3837 9.43882E-05-2.71238E-05-2.88334E-05 1.31026E-06-1.29833E-18-7.22064E-19
 -1      3838 9.42803E-05-2.69465E-05-2.88551E-05 1.52465E-06-5.65066E-19-5.41421E-19
 -1      3839 9.39121E-05-2.66157E-05-2.88371E-05 1.49447E-06-3.09160E-19 9.35582E-19
 -1      3840 9.45507E-05-2.73249E-05-2.88100E-05 1.06813E-06-7.44034E-19-2.85123E-19
 -1      3841 9.15231E-05-3.39409E-05-2.44443E-05 2.11184E-05-2.08745E-18-5.71125E-19
 -1      3842 9.33444E-05-2.02287E-05-3.13400E-05-7.60149E-07 3.97328E-19-3.40832E-18
 -1      3843 9.35191E-05-2.05447E-05-3.12870E-05-1.18185E-06 1.20336E-19-3.31232E-18
 -1      3844 9.40945E-05-2.16773E-05-3.10229E-05-7.64134E-07 9.66835E-20-3.04904E-18
 -1      3845 7.31847E-05-2.30303E-05-2.13845E-05-1.88671E-05 7.78327E-20-7.38216E-19
 -1      3846 7.95203E-05-2.77319E-05-2.22227E-05-2.13708E-05 8.99718E-19 8.64609E-19
 -1      3847 6.28518E-05-1.54888E-05-2.02513E-05-8.03261E-06 5.40463E-19-2.22928E-18
 -1      3848 6.71887E-05-1.89309E-05-2.06911E-05-1.49606E-05 4.36374E-19-1.99403E-18
 -1      3849 9.52683E-05-2.46232E-05-3.02773E-05-2.37848E-08-3.70785E-19-2.19571E-18
 -1      3850 9.53725E-05-2.52066E-05-3.00778E-05 5.59363E-07-2.94726E-19-2.14939E-18
 -1      3851 9.52680E-05-2.50752E-05-3.00765E-05 6.50936E-07-2.11436E-19-2.11282E-18
 -1      3852 9.46202E-05-2.75782E-05-2.87345E-05 2.82272E-07-3.62911E-19 9.12087E-19
 -1      3853 9.46738E-05-2.76234E-05-2.87353E-05 3.72262E-07-8.39677E-19 7.16717E-19
 -1      3854 9.46237E-05-2.75454E-05-2.87475E-05 4.80934E-07-9.10252E-20 1.40312E-20
 -1      3855 9.45011E-05-2.74267E-05-2.87431E-05 2.54137E-07-3.34767E-19-3.59766E-20
 -1      3856 9.55475E-05-2.57601E-05-2.99139E-05-8.24820E-08 1.75800E-18-8.55375E-19
 -1      3857 9.55026E-05-2.53154E-05-3.00724E-05 6.29102E-07 1.94369E-18-9.58211E-19
 -1      3858 9.53352E-05-2.46838E-05-3.02853E-05 8.77796E-07 1.92701E-18-1.29838E-18
 -1      3859 9.55081E-05-2.55467E-05-2.99849E-05-3.04771E-07 1.62705E-18-1.18554E-18
 -1      3860 9.21732E-05-3.46278E-05-2.47877E-05 1.99325E-05 2.36280E-18-2.98817E-19
 -1      3861 7.37331E-05-2.32500E-05-2.17098E-05 1.85207E-05 1.65623E-18-1.88961E-18
 -1      3862 6.73187E-05-1.82002E-05-2.09798E-05 1.22567E-05 8.82696E-19-2.15745E-18
 -1      3863 8.28028E-05-2.80891E-05-2.32695E-05 1.97147E-05 2.51053E-18-1.56365E-18
 -1      3864 9.47990E-05-2.32566E-05-3.06679E-05-8.86724E-07-3.69287E-19-2.68208E-18
 -1      3865 9.50805E-05-2.40544E-05-3.04412E-05-3.41433E-07-2.87805E-19-2.41004E-18
 -1      3866 9.50319E-05-2.40201E-05-3.04290E-05-1.01628E-07-1.09201E-19-2.14611E-18
 -1      3867 9.45732E-05-2.27672E-05-3.07733E-05-7.24360E-07-1.09852E-20-2.57192E-18
 -1      3868 8.70697E-05-2.49189E-05-2.66648E-05 1.27485E-05-9.42621E-19 3.06581E-19
 -1      3869 8.78169E-05-2.63191E-05-2.63065E-05 1.40979E-05-9.25918E-19 2.60773E-19
 -1      3870 8.43819E-05-2.28937E-05-2.63233E-05 1.15680E-05-9.62416E-19 3.42256E-18
 -1      3871 9.32098E-05-2.00069E-05-3.13810E-05-6.52165E-08 7.16448E-19-3.12291E-18
 -1      3872 9.32637E-05-2.01091E-05-3.13645E-05-5.13992E-07 4.14992E-19-3.33687E-18
 -1      3873 9.38837E-05-2.12646E-05-3.11042E-05-3.19751E-07 3.46872E-19-3.30140E-18
 -1      3874 9.38257E-05-2.11451E-05-3.11277E-05 9.26153E-08 6.83701E-19-2.83783E-18
 -1      3875 9.48446E-05-2.32081E-05-3.06841E-05 1.47462E-06 1.82707E-18-1.75007E-18
 -1      3876 8.66653E-05-2.93746E-05-2.44739E-05 1.85779E-05-1.22477E-18-3.01377E-19
 -1      3877 7.14826E-05-1.88894E-05-2.25279E-05 1.04503E-05 1.03753E-18-1.86352E-18
 -1      3878 6.58649E-05-1.64718E-05-2.10224E-05 8.68624E-06 7.24630E-19-2.67017E-18
 -1      3879 6.55684E-05-1.58328E-05-2.13531E-05 3.63185E-06 4.41807E-19-3.20921E-18
 -1      3880 7.45843E-05-2.09486E-05-2.29767E-05 1.41037E-05-1.45810E-18 1.09727E-18
 -1      3881 6.97160E-05-1.79834E-05-2.19479E-05 1.19376E-05-1.47458E-18 8.72973E-19
 -1      3882 6.90252E-05-1.69190E-05-2.23838E-05 7.63362E-06-9.07894E-19 3.61137E-19
 -1      3883 9.46529E-05-2.75798E-05-2.87446E-05-4.92461E-07 7.26422E-19-1.08183E-18
 -1      3884 8.94533E-05-2.37626E-05-2.81745E-05-8.17075E-06 6.26198E-20-5.42777E-19
 -1      3885 8.84827E-05-2.30393E-05-2.80315E-05-7.15303E-06 2.35074E-19-5.24997E-19
 -1      3886 8.91280E-05-2.37957E-05-2.79829E-05-8.91133E-06-4.20810E-19-7.30091E-19
 -1      3887 9.41322E-05-2.60896E-05-2.91596E-05-3.78977E-06 4.80314E-19-6.66136E-19
 -1      3888 9.44022E-05-2.62412E-05-2.92166E-05-3.40301E-06 3.62003E-19-8.35806E-19
 -1      3889 8.51776E-05-2.67805E-05-2.49945E-05 1.66894E-05-8.67307E-19-2.42217E-19
 -1      3890 9.32894E-05-2.56327E-05-2.89907E-05-5.64487E-06 3.96869E-19-4.63206E-19
 -1      3891 9.44886E-05-3.32782E-05-2.61631E-05-1.58258E-05 8.21020E-19-1.21574E-18
 -1      3892 9.20106E-05-3.06246E-05-2.62930E-05-1.48102E-05 4.78018E-19-1.23624E-18
 -1      3893 9.45855E-05-2.74677E-05-2.87633E-05-7.00456E-07 2.30808E-18-1.17530E-18
 -1      3894 8.32075E-05-2.79673E-05-2.36419E-05-1.92140E-05-1.58401E-18-2.53609E-18
 -1      3895 7.79248E-05-2.38534E-05-2.29952E-05-1.75534E-05-1.48024E-18-3.29560E-18
 -1      3896 6.29543E-05-1.61872E-05-1.97445E-05-1.04211E-05-5.15559E-19-3.98598E-18
 -1      3897 6.86173E-05-1.93992E-05-2.11846E-05-1.43546E-05-6.14010E-19-3.96014E-18
 -1      3898 6.46645E-05-1.57467E-05-2.09515E-05-5.43966E-06-4.24909E-19-3.59123E-18
 -1      3899 8.81774E-05-2.80128E-05-2.58188E-05-1.48267E-05 4.33469E-19-1.20605E-18
 -1      3900 9.33533E-05-2.56187E-05-2.90265E-05-4.54304E-06 4.28895E-19-6.37536E-19
 -1      3901 9.36789E-05-2.58461E-05-2.90788E-05-4.13744E-06 5.59114E-19-6.58659E-19
 -1      3902 9.35503E-05-2.56200E-05-2.91063E-05-3.57785E-06 4.10030E-19-6.42412E-19
 -1      3903 9.13844E-05-2.44534E-05-2.86786E-05-6.33808E-06 2.43582E-19-3.99251E-19
 -1      3904 9.17886E-05-2.47012E-05-2.87653E-05-5.82273E-06 5.09921E-19-4.78421E-19
 -1      3905 9.00109E-05-2.36465E-05-2.84280E-05-6.00104E-06 3.77070E-19-6.05087E-19
 -1      3906 9.44784E-05-2.73688E-05-2.87629E-05 5.86498E-07 2.75334E-19-7.28362E-20
 -1      3907 9.43084E-05-2.72327E-05-2.87478E-05-7.98569E-08 1.31699E-18-1.99641E-18
 -1      3908 9.43062E-05-2.72309E-05-2.87481E-05 5.98156E-08 2.42930E-19-1.87320E-18
 -1      3909 9.54459E-05-2.60726E-05-2.97341E-05-1.45831E-06 1.00488E-18-1.18064E-18
 -1      3910 9.54761E-05-2.57524E-05-2.98806E-05-9.19217E-07 1.07843E-18-1.32274E-18
 -1      3911 9.52019E-05-2.63979E-05-2.94884E-05-2.31212E-06 7.37725E-19-1.00670E-18
 -1      3912 9.53307E-05-2.62815E-05-2.95929E-05-1.86276E-06 9.53976E-19-1.09805E-18
 -1      3913 9.52767E-05-2.58555E-05-2.97506E-05-1.46048E-06 8.59739E-19-1.16237E-18
 -1      3914 9.50298E-05-2.66607E-05-2.93002E-05-3.16204E-06 6.94940E-19-1.23433E-18
 -1      3915 9.42789E-05-2.70638E-05-2.88043E-05 1.05315E-06-1.02788E-18-5.98950E-19
 -1      3916 6.63848E-05-1.57139E-05-2.16007E-05-3.26627E-06 1.85451E-19-1.26690E-18
 -1      3917 9.32898E-05-3.78665E-05-2.37127E-05-2.35624E-05-1.58803E-18-2.63278E-18
 -1      3918 9.28312E-05-3.60330E-05-2.42184E-05-2.22880E-05-1.63364E-18-2.36116E-18
 -1      3919 7.33659E-05-2.11394E-05-2.22438E-05-1.48311E-05 4.71758E-20-8.49852E-19
 -1      3920 9.07012E-05-3.27756E-05-2.46744E-05-2.03278E-05-1.77466E-18-2.27163E-18
 -1      3921 9.43439E-05-2.23963E-05-3.08482E-05 4.70430E-07 9.89418E-19-2.38300E-18
 -1      3922 9.42362E-05-2.21844E-05-3.08881E-05 2.50642E-07 7.96012E-19-2.45957E-18
 -1      3923 8.31269E-05-3.20114E-05-2.16391E-05-2.51100E-05-1.70371E-18-3.04125E-18
 -1      3924 9.25777E-05-3.88242E-05-2.29085E-05-2.56358E-05-2.19438E-18-2.74148E-18
 -1      3925 9.43919E-05-2.73094E-05-2.87501E-05-3.73008E-07 2.09347E-18-1.26863E-18
 -1      3926 9.43395E-05-2.72653E-05-2.87490E-05-2.46594E-07 2.00051E-18-2.59440E-18
 -1      3927 9.41906E-05-2.70859E-05-2.87559E-05-1.88045E-07 1.95441E-18-2.05682E-18
 -1      3928 8.57762E-05-3.05955E-05-2.36668E-05-2.06442E-05 9.66895E-19-1.19503E-19
 -1      3929 8.81790E-05-2.41762E-05-2.73998E-05-1.07469E-05-8.97226E-19-8.44540E-19
 -1      3930 8.82964E-05-2.37925E-05-2.76707E-05-9.81439E-06-5.95851E-19-8.20919E-19
 -1      3931 8.68397E-05-2.27048E-05-2.74708E-05-8.65992E-06-3.82985E-19-9.07471E-19
 -1      3932 9.46087E-05-2.29986E-05-3.06696E-05 8.80525E-08 6.96354E-19-2.27171E-18
 -1      3933 9.41926E-05-2.21119E-05-3.09014E-05 1.61534E-07 7.50863E-19-2.46925E-18
 -1      3934 9.41877E-05-2.21079E-05-3.09017E-05-1.67493E-08 4.69322E-19-2.69286E-18
 -1      3935 8.14400E-05-2.55087E-05-2.39415E-05 1.62185E-05 1.77598E-18-1.08659E-18
 -1      3936 8.09820E-05-2.37201E-05-2.44993E-05 1.53322E-05-1.68213E-18 1.23370E-18
 -1      3937 9.50338E-05-2.38592E-05-3.05054E-05 8.20365E-07 1.63591E-18-1.65572E-18
 -1      3938 7.79730E-05-2.74627E-05-2.16304E-05-2.19182E-05-1.35885E-18-3.52368E-18
 -1      3939 8.51837E-05-2.28885E-05-2.66848E-05-1.07411E-05-3.52792E-19-1.60155E-18
 -1      3940 9.47922E-05-2.58163E-05-2.95643E-05 1.60645E-06-2.78019E-19-2.11470E-18
 -1      3941 9.45364E-05-2.58486E-05-2.94401E-05 1.92416E-06-2.43729E-19-2.07364E-18
 -1      3942 9.41596E-05-2.57782E-05-2.93117E-05 2.16292E-06-2.18661E-20-1.88015E-18
 -1      3943 9.37992E-05-2.56604E-05-2.92032E-05 2.47286E-06 7.12266E-20-1.52059E-18
 -1      3944 9.41797E-05-2.55741E-05-2.93957E-05 1.63809E-06 8.88025E-21-2.25369E-18
 -1      3945 9.32951E-05-2.54552E-05-2.90817E-05 2.72918E-06 2.04617E-19-1.37776E-18
 -1      3946 9.28502E-05-2.52375E-05-2.89761E-05 3.05775E-06 2.07752E-19-1.18057E-18
 -1      3947 9.33053E-05-2.52927E-05-2.91406E-05 2.10670E-06 3.04007E-19-1.50587E-18
 -1      3948 9.22321E-05-2.49446E-05-2.88474E-05 3.35603E-06 2.94131E-20-7.90060E-19
 -1      3949 9.17213E-05-2.46776E-05-2.87307E-05 3.73114E-06 1.31946E-19-8.57359E-19
 -1      3950 9.21923E-05-2.47733E-05-2.88843E-05 2.62516E-06 3.23581E-19-1.18439E-18
 -1      3951 9.09984E-05-2.43452E-05-2.85790E-05 4.09988E-06 1.56166E-19-6.14149E-19
 -1      3952 9.04433E-05-2.40816E-05-2.84363E-05 4.55281E-06 6.18528E-20-6.36265E-19
 -1      3953 9.08602E-05-2.41078E-05-2.85963E-05 3.24809E-06 1.20545E-19-7.71069E-19
 -1      3954 8.96218E-05-2.37627E-05-2.82432E-05 5.03372E-06-1.88617E-20-5.63618E-19
 -1      3955 8.90572E-05-2.35711E-05-2.80576E-05 5.60553E-06 1.41261E-19-3.53758E-19
 -1      3956 8.93235E-05-2.33941E-05-2.82420E-05 4.03516E-06 1.65816E-19-4.77217E-19
 -1      3957 8.81466E-05-2.33305E-05-2.78017E-05 6.24848E-06-9.67295E-20-5.97520E-19
 -1      3958 8.76232E-05-2.32920E-05-2.75558E-05 6.99514E-06 1.53835E-20-7.83017E-19
 -1      3959 8.76009E-05-2.27430E-05-2.77800E-05 5.08775E-06-8.24493E-20-6.37641E-19
 -1      3960 8.66300E-05-2.32092E-05-2.72114E-05 7.88847E-06 4.72339E-19-8.72941E-19
 -1      3961 8.62277E-05-2.34438E-05-2.68862E-05 8.89733E-06 7.77339E-19-6.58650E-19
 -1      3962 8.56983E-05-2.22755E-05-2.71618E-05 6.52938E-06 1.58107E-19-8.08751E-19
 -1      3963 8.51776E-05-2.36197E-05-2.64209E-05 1.01241E-05 8.19806E-19-6.97957E-19
 -1      3964 8.49917E-05-2.43086E-05-2.59969E-05 1.15688E-05 9.96954E-19-4.54876E-19
 -1      3965 8.36901E-05-2.21959E-05-2.63241E-05 8.60858E-06 9.25139E-19-6.90340E-19
 -1      3966 8.31573E-05-2.41845E-05-2.53335E-05 1.27026E-05 1.25888E-18-3.30487E-19
 -1      3967 8.34566E-05-2.56418E-05-2.48043E-05 1.46607E-05 1.75197E-18-5.39660E-19
 -1      3968 7.63083E-05-2.10209E-05-2.35441E-05 1.30572E-05 1.11647E-18-8.25215E-19
 -1      3969 8.08982E-05-2.19293E-05-2.51712E-05 1.07856E-05 9.55499E-19-2.86307E-19
 -1      3970 9.53605E-05-2.48403E-05-3.02174E-05 1.31535E-07 1.50371E-18-1.41800E-18
 -1      3971 9.48749E-05-2.35187E-05-3.05839E-05 6.18782E-07 1.43285E-18-1.75602E-18
 -1      3972 8.47753E-05-2.39430E-05-2.60499E-05-1.13572E-05 7.08493E-19-3.12135E-19
 -1      3973 8.47935E-05-2.31729E-05-2.64472E-05-9.89021E-06 4.58040E-19-2.26297E-19
 -1      3974 9.44605E-05-2.73581E-05-2.87601E-05-5.94328E-07 2.16315E-18-6.11023E-19
 -1      3975 8.57530E-05-2.29553E-05-2.68953E-05-8.64344E-06-6.76720E-19-5.95751E-19
 -1      3976 8.60772E-05-2.26621E-05-2.72075E-05-7.59968E-06-8.04310E-19-5.72323E-19
 -1      3977 8.32003E-05-2.17159E-05-2.63309E-05-8.42240E-06-4.92876E-20-1.63048E-18
 -1      3978 8.69797E-05-2.26930E-05-2.75367E-05-6.67203E-06-9.01148E-19-1.31070E-18
 -1      3979 8.74226E-05-2.26877E-05-2.77667E-05-5.89011E-06-1.28811E-18-1.29313E-18
 -1      3980 8.50324E-05-2.16620E-05-2.71369E-05-6.31371E-06-1.26513E-18-2.02345E-18
 -1      3981 8.82412E-05-2.28880E-05-2.80008E-05-5.21501E-06-1.16702E-18-1.66702E-18
 -1      3982 8.87212E-05-2.30502E-05-2.81628E-05-4.61024E-06-6.90316E-19-1.50790E-18
 -1      3983 8.67570E-05-2.20359E-05-2.77182E-05-4.80390E-06-1.18714E-18-3.49559E-18
 -1      3984 8.94448E-05-2.33456E-05-2.83244E-05-4.09941E-06-8.87168E-19-1.08936E-18
 -1      3985 8.99129E-05-2.36030E-05-2.84330E-05-3.62006E-06-1.07681E-18-1.24627E-18
 -1      3986 8.82903E-05-2.26260E-05-2.81259E-05-3.70531E-06-6.23136E-19-2.24416E-18
 -1      3987 9.05419E-05-2.39447E-05-2.85399E-05-3.22663E-06-1.60458E-18-9.59669E-19
 -1      3988 9.09700E-05-2.42453E-05-2.86078E-05-2.84078E-06-1.18157E-18-2.21951E-18
 -1      3989 8.96358E-05-2.33308E-05-2.84029E-05-2.86991E-06-1.43575E-18-2.05621E-18
 -1      3990 9.15048E-05-2.45958E-05-2.86745E-05-2.53306E-06-3.80121E-19-1.85192E-18
 -1      3991 9.18793E-05-2.49041E-05-2.87130E-05-2.21932E-06-3.59739E-19-2.52082E-18
 -1      3992 9.07915E-05-2.40732E-05-2.85823E-05-2.22809E-06-5.34639E-19-1.98482E-18
 -1      3993 9.23259E-05-2.52398E-05-2.87509E-05-1.97569E-06-4.03958E-19-2.20536E-18
 -1      3994 9.26429E-05-2.55336E-05-2.87687E-05-1.71991E-06-4.83214E-19-1.30685E-18
 -1      3995 9.17648E-05-2.47973E-05-2.86911E-05-1.72483E-06 9.89177E-20-1.34865E-18
 -1      3996 9.30093E-05-2.58401E-05-2.87867E-05-1.52653E-06-3.47415E-19-5.35026E-19
 -1      3997 9.32704E-05-2.61061E-05-2.87906E-05-1.31889E-06 1.47546E-18-1.11181E-19
 -1      3998 9.25709E-05-2.54697E-05-2.87502E-05-1.32614E-06 1.18315E-20 4.92450E-19
 -1      3999 9.35658E-05-2.63773E-05-2.87952E-05-1.16440E-06 1.84195E-18-8.70682E-19
 -1      4000 9.37768E-05-2.66105E-05-2.87904E-05-9.98970E-07 2.03806E-18-2.64087E-20
 -1      4001 9.32264E-05-2.60693E-05-2.87751E-05-1.00946E-06 1.15237E-18 2.88143E-19
 -1      4002 9.40080E-05-2.68379E-05-2.87869E-05-8.76781E-07 2.12692E-18-2.89382E-19
 -1      4003 9.41722E-05-2.70339E-05-2.87767E-05-7.43118E-07 2.07784E-18-1.16858E-19
 -1      4004 9.37482E-05-2.65910E-05-2.87778E-05-7.58465E-07 2.05766E-18-9.87634E-19
 -1      4005 7.97619E-05-2.22879E-05-2.47048E-05-1.30057E-05-1.08834E-18-2.43351E-18
 -1      4006 8.05166E-05-2.14963E-05-2.53650E-05-1.10841E-05-3.25307E-19-1.77189E-18
 -1      4007 9.47534E-05-2.63742E-05-2.93050E-05-3.06624E-06 5.21463E-19-9.05170E-19
 -1      4008 9.49596E-05-2.64125E-05-2.93796E-05-2.66627E-06 7.15737E-19-9.95006E-19
 -1      4009 9.49323E-05-2.61098E-05-2.94926E-05-2.22564E-06 6.06803E-19-1.13018E-18
 -1      4010 1.00618E-04-4.37675E-05-2.40982E-05-2.42732E-05-2.43006E-18-1.69780E-18
 -1      4011 8.40310E-05-2.74828E-05-2.42189E-05-1.77387E-05 4.59178E-19 1.14392E-19
 -1      4012 8.23907E-05-2.15561E-05-2.60604E-05-9.78920E-06-1.06836E-19-1.88407E-18
 -1      4013 8.32392E-05-2.14274E-05-2.65410E-05-8.64824E-06-7.66263E-20-1.54468E-18
 -1      4014 7.90472E-05-1.99731E-05-2.52496E-05-8.81989E-06-3.27426E-19-1.83205E-18
 -1      4015 8.95014E-05-2.31161E-05-2.84668E-05 3.82874E-06 7.08208E-19 1.04032E-18
 -1      4016 8.88938E-05-2.27425E-05-2.83519E-05 4.27847E-06 3.62020E-19 7.83350E-19
 -1      4017 9.47076E-05-2.31271E-05-3.06876E-05 6.51431E-07 1.27096E-18-1.99848E-18
 -1      4018 9.45012E-05-2.27109E-05-3.07707E-05 4.90033E-07 1.05786E-18-2.18051E-18
 -1      4019 9.47852E-05-2.33915E-05-3.05800E-05 1.29532E-07 9.00222E-19-2.10755E-18
 -1      4020 9.50625E-05-2.41033E-05-3.04024E-05 3.95742E-08 1.10322E-18-1.81803E-18
 -1      4021 8.62324E-05-2.15946E-05-2.77295E-05 5.79386E-06-7.73683E-19 2.33233E-18
 -1      4022 8.54624E-05-2.13779E-05-2.74600E-05 6.49490E-06-8.57289E-19 3.03292E-18
 -1      4023 8.41647E-05-2.10893E-05-2.70725E-05 7.23628E-06-1.53914E-18 3.70049E-18
 -1      4024 8.33662E-05-2.10789E-05-2.66842E-05 8.19202E-06-1.04279E-18 3.50737E-18
 -1      4025 8.33458E-05-2.02884E-05-2.69894E-05 5.64675E-06-7.09050E-19 2.58879E-18
 -1      4026 9.07499E-05-2.39331E-05-2.86483E-05 3.10519E-06 8.78951E-19 1.91546E-18
 -1      4027 9.02367E-05-2.35528E-05-2.85803E-05 3.48335E-06 8.99281E-19 1.28286E-18
 -1      4028 8.92330E-05-2.28920E-05-2.84148E-05 3.00421E-06 4.14348E-19 1.89384E-18
 -1      4029 9.17758E-05-2.47108E-05-2.87522E-05 2.49595E-06 5.95020E-19 2.57967E-18
 -1      4030 9.13523E-05-2.43495E-05-2.87168E-05 2.81693E-06 1.22688E-18 2.76149E-18
 -1      4031 9.05554E-05-2.37804E-05-2.86043E-05 2.44382E-06 3.70663E-19 2.84189E-18
 -1      4032 9.26063E-05-2.54184E-05-2.88030E-05 1.98157E-06 3.71135E-19 2.73069E-18
 -1      4033 9.22640E-05-2.50907E-05-2.87895E-05 2.25337E-06 3.20875E-19 2.85792E-18
 -1      4034 9.16332E-05-2.46051E-05-2.87157E-05 1.96974E-06 9.85947E-20 2.87274E-18
 -1      4035 9.32694E-05-2.60400E-05-2.88188E-05 1.55082E-06 6.15211E-19 2.89824E-18
 -1      4036 9.29973E-05-2.57535E-05-2.88192E-05 1.77847E-06 8.68866E-19 2.88573E-18
 -1      4037 9.25022E-05-2.53450E-05-2.87734E-05 1.56718E-06 5.64530E-19 4.08531E-18
 -1      4038 9.37887E-05-2.65753E-05-2.88119E-05 1.18983E-06-6.06391E-19 2.17255E-18
 -1      4039 9.35767E-05-2.63271E-05-2.88212E-05 1.37891E-06 3.49580E-19 2.46645E-18
 -1      4040 9.31902E-05-2.59865E-05-2.87952E-05 1.22951E-06 4.31626E-19 3.65474E-18
 -1      4041 6.87126E-05-1.57509E-05-2.26914E-05 3.15745E-07-8.75384E-19-1.85034E-18
 -1      4042 6.95215E-05-1.67376E-05-2.26340E-05-6.78514E-06 5.92173E-20-1.86879E-18
 -1      4043 8.17715E-05-2.09617E-05-2.61249E-05 9.25640E-06-1.70312E-18 2.72005E-18
 -1      4044 8.10820E-05-2.13243E-05-2.55971E-05 1.06809E-05-1.83671E-18 2.51324E-18
 -1      4045 8.05131E-05-1.96867E-05-2.60178E-05 7.26555E-06-1.71040E-18 2.04997E-18
 -1      4046 7.23777E-05-1.90887E-05-2.28007E-05-1.16189E-05 8.17972E-19-1.01827E-18
 -1      4047 7.73833E-05-2.29604E-05-2.33839E-05-1.55824E-05 2.43034E-19 2.31491E-19
 -1      4048 9.41867E-05-2.70782E-05-2.87569E-05 1.60296E-07 4.14456E-19-5.58855E-19
 -1      4049 9.43314E-05-2.72537E-05-2.87502E-05 2.27429E-07-2.06665E-19-5.11818E-19
 -1      4050 9.43812E-05-2.72929E-05-2.87521E-05 3.57413E-07 4.75065E-19 7.98382E-19
 -1      4051 9.43116E-05-2.71754E-05-2.87703E-05 5.81968E-07 3.52397E-19 1.64992E-19
 -1      4052 8.80057E-05-2.23119E-05-2.81749E-05 4.70009E-06 3.20823E-19-6.71688E-20
 -1      4053 8.73050E-05-2.19822E-05-2.79947E-05 5.24818E-06-4.03830E-19 1.46230E-18
 -1      4054 8.76291E-05-2.19797E-05-2.81143E-05 3.67796E-06 1.44713E-20 6.64770E-19
 -1      4055 9.42073E-05-2.21419E-05-3.08931E-05-1.04320E-07 4.82149E-19-3.02785E-18
 -1      4056 9.42649E-05-2.22536E-05-3.08710E-05-2.75728E-07 3.12053E-19-3.23318E-18
 -1      4057 9.45818E-05-2.29577E-05-3.06760E-05-1.25443E-08 4.74025E-19-2.70526E-18
 -1      4058 9.43163E-05-2.23065E-05-3.08668E-05-3.88212E-07 2.42850E-19-3.13135E-18
 -1      4059 9.44629E-05-2.26000E-05-3.08071E-05-5.98892E-07 1.34075E-19-2.94631E-18
 -1      4060 9.47519E-05-2.32737E-05-3.06268E-05-3.21109E-07 1.53457E-19-2.74776E-18
 -1      4061 9.46300E-05-2.30488E-05-3.06635E-05-1.39154E-07 2.88675E-19-3.06185E-18
 -1      4062 9.24319E-05-2.50435E-05-2.88768E-05-5.37762E-06 4.01384E-19-6.61563E-19
 -1      4063 9.28035E-05-2.53048E-05-2.89386E-05-4.92852E-06 3.66354E-19-5.67287E-19
 -1      4064 9.25559E-05-2.50435E-05-2.89253E-05-4.28274E-06 4.05609E-19-8.77073E-19
 -1      4065 9.13752E-05-2.43560E-05-2.87112E-05-5.06876E-06 3.44082E-19-6.03746E-19
 -1      4066 9.51494E-05-2.46119E-05-3.02286E-05 3.13741E-07-6.52518E-20-2.44377E-18
 -1      4067 9.51814E-05-2.51034E-05-3.00403E-05 7.38950E-07-2.14701E-20-2.31189E-18
 -1      4068 9.43467E-05-2.60016E-05-2.92860E-05-2.91068E-06 4.37584E-19-7.80127E-19
 -1      4069 9.51473E-05-2.54700E-05-2.98630E-05 1.00622E-06-1.05455E-19-2.20378E-18
 -1      4070 9.50172E-05-2.57015E-05-2.97116E-05 1.35891E-06-1.89585E-19-2.17684E-18
 -1      4071 9.47772E-05-2.55137E-05-2.96759E-05 1.17674E-06-1.73086E-19-2.22651E-18
 -1      4072 9.50506E-05-2.50306E-05-3.00043E-05 6.82983E-07-3.91295E-20-2.50891E-18
 -1      4073 9.54181E-05-2.52378E-05-3.00807E-05-4.05734E-07 1.33741E-18-1.39090E-18
 -1      4074 7.80266E-05-2.10810E-05-2.44700E-05 1.22300E-05-1.47100E-18 1.24512E-18
 -1      4075 8.26979E-05-2.52234E-05-2.45729E-05-1.51323E-05 4.85879E-19-6.31399E-19
 -1      4076 9.41466E-05-2.69972E-05-2.87817E-05 7.37652E-07 4.48856E-19 1.55854E-19
 -1      4077 9.39730E-05-2.67636E-05-2.88010E-05 9.67221E-07 6.13601E-20 4.01558E-19
 -1      4078 9.36758E-05-2.65056E-05-2.87892E-05 8.49639E-07 9.93964E-19 2.28879E-18
 -1      4079 9.40422E-05-2.69181E-05-2.87694E-05 4.79625E-07 1.05684E-18 1.55588E-18
 -1      4080 7.58719E-05-2.12467E-05-2.33941E-05-1.34258E-05-9.95482E-19-2.89102E-18
 -1      4081 8.23184E-05-2.37839E-05-2.51156E-05-1.30470E-05 5.89250E-19-3.00739E-19
 -1      4082 7.41601E-05-1.94156E-05-2.35072E-05 9.77509E-06 8.37788E-19-1.25945E-18
 -1      4083 7.96152E-05-2.14229E-05-2.49462E-05-1.09382E-05 8.20410E-19-7.82326E-19
 -1      4084 9.53148E-05-2.50882E-05-3.00951E-05-5.36526E-07 1.21831E-18-1.48710E-18
 -1      4085 9.40962E-05-2.69801E-05-2.87656E-05-5.02029E-07 2.32533E-18-1.20574E-18
 -1      4086 9.42922E-05-2.71649E-05-2.87671E-05-5.93091E-07 2.52017E-18-5.19841E-19
 -1      4087 6.63849E-05-1.53541E-05-2.16750E-05-5.93767E-07 1.81424E-19-3.54202E-18
 -1      4088 6.85262E-05-1.65900E-05-2.23819E-05-4.98804E-06-3.81181E-19-2.96470E-18
 -1      4089 6.97564E-05-1.66247E-05-2.27729E-05 3.10778E-06 4.39859E-19-2.76625E-18
 -1      4090 8.47563E-05-2.16657E-05-2.70295E-05-7.76482E-06-2.83756E-19-1.34181E-18
 -1      4091 8.56118E-05-2.18199E-05-2.73737E-05-6.97297E-06-1.24263E-19-1.09523E-18
 -1      4092 8.22946E-05-2.04482E-05-2.64656E-05-6.81397E-06 5.65585E-21-1.94067E-18
 -1      4093 7.29212E-05-1.84077E-05-2.31879E-05-1.01025E-05-4.42624E-19-2.57803E-18
 -1      4094 9.52714E-05-2.52894E-05-2.99878E-05-8.48521E-07 1.10591E-18-1.42125E-18
 -1      4095 9.52049E-05-2.47882E-05-3.01864E-05-3.51791E-07 1.15748E-18-1.55388E-18
 -1      4096 9.50550E-05-2.43926E-05-3.02836E-05-2.58376E-07 9.31287E-19-1.69259E-18
 -1      4097 7.39868E-05-1.84723E-05-2.37133E-05-7.87191E-06 2.32429E-19-1.56213E-18
 -1      4098 8.87663E-05-2.29443E-05-2.82084E-05-5.30897E-06 3.10475E-19-7.54460E-19
 -1      4099 8.95021E-05-2.33176E-05-2.83824E-05-4.84527E-06 3.34458E-19-7.01824E-19
 -1      4100 9.49535E-05-2.41575E-05-3.03532E-05-1.11886E-07 9.12574E-19-2.01553E-18
 -1      4101 9.48361E-05-2.38518E-05-3.04251E-05-7.37947E-08 7.52695E-19-2.17545E-18
 -1      4102 9.50756E-05-2.47303E-05-3.01409E-05-4.80200E-07 7.14202E-19-1.78677E-18
 -1      4103 9.50686E-05-2.58209E-05-2.96765E-05-1.57700E-06 6.15722E-19-1.14754E-18
 -1      4104 9.51894E-05-2.56173E-05-2.98222E-05-1.17295E-06 8.88200E-19-1.19652E-18
 -1      4105 9.50925E-05-2.53123E-05-2.99046E-05-9.54176E-07 7.75448E-19-1.39540E-18
 -1      4106 6.99935E-05-1.60675E-05-2.29908E-05 3.38000E-06-1.20553E-18-9.93881E-19
 -1      4107 7.22986E-05-1.66255E-05-2.38492E-05 8.00316E-08-1.76382E-18-2.20132E-18
 -1      4108 7.23308E-05-1.74370E-05-2.35493E-05 6.66243E-06-2.05836E-18-3.68813E-19
 -1      4109 7.58665E-05-1.89732E-05-2.43007E-05 9.44230E-06-2.05492E-18 3.96491E-19
 -1      4110 9.39389E-05-2.68328E-05-2.87607E-05 8.15396E-08 1.25697E-18-5.11184E-19
 -1      4111 9.39686E-05-2.68597E-05-2.87632E-05 2.62043E-07 1.10751E-18-1.13563E-19
 -1      4112 9.38083E-05-2.66568E-05-2.87736E-05 4.13029E-07 1.27904E-18 6.80928E-19
 -1      4113 8.56886E-05-2.10853E-05-2.76594E-05 4.52046E-06 6.11168E-19 1.28365E-18
 -1      4114 8.68703E-05-2.21896E-05-2.77162E-05-6.34383E-06 1.60452E-19-6.37379E-19
 -1      4115 8.76849E-05-2.24980E-05-2.79609E-05-5.75765E-06 5.15757E-19-6.67927E-19
 -1      4116 8.73538E-05-2.21393E-05-2.79254E-05-4.52626E-06 3.22395E-19-7.54626E-19
 -1      4117 9.39664E-05-2.57178E-05-2.92513E-05-2.63874E-06 4.29119E-19-1.18416E-18
 -1      4118 9.43191E-05-2.58450E-05-2.93502E-05-2.31905E-06 4.63129E-19-1.18528E-18
 -1      4119 9.30145E-05-2.52442E-05-2.90466E-05-3.20463E-06 2.20451E-19-1.15134E-18
 -1      4120 9.34722E-05-2.54960E-05-2.91388E-05-2.88468E-06 2.97832E-19-1.21469E-18
 -1      4121 9.34943E-05-2.53485E-05-2.91964E-05-2.28679E-06 4.35226E-19-1.48605E-18
 -1      4122 9.40056E-05-2.68947E-05-2.87619E-05-3.10171E-07 2.00032E-18-1.76255E-18
 -1      4123 9.39661E-05-2.68673E-05-2.87602E-05-1.35676E-07 8.25972E-19-7.56089E-19
 -1      4124 9.37418E-05-2.66155E-05-2.87656E-05-4.37114E-08 1.28335E-18-1.00978E-18
 -1      4125 9.38671E-05-2.67373E-05-2.87694E-05-4.58371E-07 1.27459E-18-1.73922E-18
 -1      4126 9.49381E-05-2.38697E-05-3.04637E-05-2.17468E-08 1.82874E-20-2.58353E-18
 -1      4127 9.47856E-05-2.37823E-05-3.04410E-05-6.98072E-10 6.43527E-19-2.14302E-18
 -1      4128 9.47583E-05-2.37175E-05-3.04538E-05-1.31473E-08 5.13949E-19-2.23845E-18
 -1      4129 9.49539E-05-2.44083E-05-3.02205E-05-1.85422E-07 5.90309E-19-1.94412E-18
 -1      4130 9.49025E-05-2.39267E-05-3.04168E-05 9.40542E-08 8.41307E-20-2.81989E-18
 -1      4131 9.33692E-05-2.52515E-05-2.92020E-05 1.41334E-06 4.15562E-19-1.44236E-18
 -1      4132 9.28727E-05-2.50323E-05-2.90748E-05 1.64020E-06 5.46845E-19-1.23890E-18
 -1      4133 9.22274E-05-2.47365E-05-2.89351E-05 1.79875E-06 3.44665E-19-1.27371E-18
 -1      4134 9.16107E-05-2.44140E-05-2.87996E-05 2.05309E-06 2.01398E-19-1.29102E-18
 -1      4135 9.23741E-05-2.46863E-05-2.89957E-05 1.07804E-06 4.35556E-19-1.27342E-18
 -1      4136 9.08333E-05-2.40318E-05-2.86412E-05 2.25255E-06 1.42717E-19-1.27472E-18
 -1      4137 9.00973E-05-2.36504E-05-2.84810E-05 2.55294E-06 6.66517E-20-1.26236E-18
 -1      4138 9.09868E-05-2.39847E-05-2.86951E-05 1.39978E-06 2.23241E-19-1.50205E-18
 -1      4139 8.91586E-05-2.32040E-05-2.82853E-05 2.84982E-06 2.37889E-19-1.23920E-18
 -1      4140 8.83372E-05-2.28142E-05-2.80814E-05 3.24791E-06 2.47985E-19-1.16142E-18
 -1      4141 8.92413E-05-2.30581E-05-2.83332E-05 1.83866E-06 6.64408E-20-1.47877E-18
 -1      4142 8.72230E-05-2.23688E-05-2.78228E-05 3.64313E-06-8.04604E-20-1.21360E-18
 -1      4143 8.63138E-05-2.20224E-05-2.75517E-05 4.18055E-06-2.28671E-19-1.18736E-18
 -1      4144 8.72453E-05-2.21064E-05-2.78719E-05 2.41043E-06 1.75866E-19-1.54575E-18
 -1      4145 8.49824E-05-2.16005E-05-2.72016E-05 4.75092E-06-1.09594E-19-9.19946E-19
 -1      4146 8.39870E-05-2.13596E-05-2.68352E-05 5.52897E-06 4.13357E-19-8.46880E-19
 -1      4147 8.48322E-05-2.11437E-05-2.72526E-05 3.19943E-06 1.93896E-19-1.01978E-18
 -1      4148 8.23538E-05-2.09703E-05-2.63520E-05 6.27741E-06 8.21999E-19-7.37283E-19
 -1      4149 8.11780E-05-2.09384E-05-2.58428E-05 7.48745E-06 1.06750E-18-6.35471E-19
 -1      4150 8.20722E-05-2.03252E-05-2.64183E-05 4.31618E-06 6.82055E-19-1.05336E-18
 -1      4151 7.91381E-05-2.04103E-05-2.52193E-05 7.78982E-06 7.75078E-19-5.57375E-19
 -1      4152 7.71467E-05-1.99288E-05-2.45463E-05 8.48772E-06 7.60590E-19-8.25384E-19
 -1      4153 7.82023E-05-1.90469E-05-2.52878E-05 5.10009E-06 1.03866E-18-1.27817E-18
 -1      4154 8.08236E-05-2.04409E-05-2.58644E-05-7.39145E-06-7.35505E-19-3.24668E-18
 -1      4155 8.17583E-05-2.03957E-05-2.63345E-05-6.23838E-06-1.27104E-18-3.95201E-18
 -1      4156 8.33068E-05-2.07382E-05-2.68081E-05-5.38422E-06-8.35311E-19-4.09159E-18
 -1      4157 8.42280E-05-2.09308E-05-2.71599E-05-4.58939E-06-1.25958E-18-3.88418E-18
 -1      4158 8.12944E-05-1.96264E-05-2.63861E-05-4.30312E-06-1.42308E-18-4.79696E-18
 -1      4159 8.54632E-05-2.13111E-05-2.74914E-05-4.02338E-06-1.30548E-18-2.80636E-18
 -1      4160 8.62709E-05-2.16164E-05-2.77401E-05-3.47121E-06-8.48674E-19-2.27458E-18
 -1      4161 8.40438E-05-2.04703E-05-2.72031E-05-3.09243E-06-9.34595E-19-4.33797E-18
 -1      4162 8.72867E-05-2.20245E-05-2.79707E-05-3.03009E-06 1.78357E-20-2.41711E-18
 -1      4163 8.80143E-05-2.23965E-05-2.81422E-05-2.61843E-06 1.17953E-19-2.17604E-18
 -1      4164 8.61686E-05-2.12834E-05-2.77664E-05-2.23577E-06 7.42709E-20-2.48485E-18
 -1      4165 8.88531E-05-2.28338E-05-2.82976E-05-2.31357E-06-8.40145E-19-2.16601E-18
 -1      4166 8.94869E-05-2.32294E-05-2.84114E-05-2.00203E-06-1.50832E-18-1.94304E-18
 -1      4167 8.80244E-05-2.22326E-05-2.81578E-05-1.65800E-06-3.09142E-19-3.25230E-18
 -1      4168 9.01776E-05-2.36557E-05-2.85128E-05-1.77574E-06-8.32142E-19-1.06723E-18
 -1      4169 9.07154E-05-2.40454E-05-2.85845E-05-1.53303E-06 5.50039E-19-8.65614E-19
 -1      4170 8.95329E-05-2.31518E-05-2.84186E-05-1.23889E-06-6.12883E-19-8.99818E-19
 -1      4171 9.12835E-05-2.44471E-05-2.86473E-05-1.36283E-06 5.62252E-19-1.29690E-18
 -1      4172 9.17325E-05-2.48126E-05-2.86889E-05-1.17037E-06 3.95434E-19-7.21918E-19
 -1      4173 9.07786E-05-2.40231E-05-2.85858E-05-9.26478E-07 5.87570E-19-9.51746E-19
 -1      4174 9.21949E-05-2.51776E-05-2.87244E-05-1.04183E-06 9.62126E-19-1.92083E-19
 -1      4175 9.25639E-05-2.55078E-05-2.87451E-05-8.87771E-07 1.00052E-18 8.57312E-19
 -1      4176 9.18004E-05-2.48234E-05-2.86864E-05-6.92983E-07 1.36050E-18-1.23851E-18
 -1      4177 9.29352E-05-2.58305E-05-2.87617E-05-7.89563E-07-2.85357E-19 5.42989E-19
 -1      4178 9.32377E-05-2.61194E-05-2.87685E-05-6.63045E-07 5.91554E-19-4.77779E-19
 -1      4179 9.26251E-05-2.55360E-05-2.87402E-05-5.19354E-07 2.59262E-19-1.25907E-18
 -1      4180 9.36314E-05-2.65012E-05-2.87723E-05-5.51566E-07 1.28577E-18-1.06929E-18
 -1      4181 9.46255E-05-2.59154E-05-2.94483E-05-2.12527E-06 4.87559E-19-1.02861E-18
 -1      4182 9.48793E-05-2.59009E-05-2.95653E-05-1.78009E-06 6.29303E-19-1.13532E-18
 -1      4183 9.47963E-05-2.56721E-05-2.96266E-05-1.47003E-06 7.45048E-19-1.09425E-18
 -1      4184 9.42741E-05-2.56238E-05-2.94143E-05-1.86717E-06 6.18405E-19-1.10053E-18
 -1      4185 9.50333E-05-2.51404E-05-2.99599E-05-6.78549E-07 6.96366E-19-1.69267E-18
 -1      4186 9.49522E-05-2.49082E-05-3.00215E-05-4.85687E-07 6.40197E-19-1.82314E-18
 -1      4187 9.49215E-05-2.53874E-05-2.97929E-05-9.67097E-07 6.62374E-19-1.59622E-18
 -1      4188 9.48486E-05-2.38815E-05-3.04241E-05 1.33926E-07 2.79330E-19-2.87129E-18
 -1      4189 7.96937E-05-1.89705E-05-2.60763E-05 4.66072E-06-1.59647E-18 1.04969E-18
 -1      4190 7.80489E-05-1.86578E-05-2.54804E-05 5.51621E-06-2.44498E-18 7.09205E-19
 -1      4191 7.58367E-05-1.78701E-05-2.48283E-05-4.17749E-06-1.23930E-18-3.28479E-18
 -1      4192 7.79522E-05-1.97850E-05-2.49413E-05-8.44606E-06-2.21779E-19-2.72050E-18
 -1      4193 8.91219E-05-2.28759E-05-2.84068E-05 2.08077E-06 1.91744E-19 1.35576E-18
 -1      4194 8.83859E-05-2.24081E-05-2.82846E-05 2.32642E-06 2.93374E-19 9.92876E-19
 -1      4195 7.58930E-05-1.87130E-05-2.45680E-05-6.81343E-06-5.15562E-19-2.09777E-18
 -1      4196 7.78647E-05-1.89177E-05-2.53266E-05-5.64032E-06-3.74746E-19-2.10324E-18
 -1      4197 9.04816E-05-2.37975E-05-2.85913E-05 1.70813E-06-1.90035E-19 1.16292E-18
 -1      4198 8.98798E-05-2.33571E-05-2.85161E-05 1.91950E-06 2.67764E-19 8.86027E-19
 -1      4199 8.91959E-05-2.28482E-05-2.83981E-05 1.31732E-06-2.42745E-19-5.84763E-20
 -1      4200 8.28921E-05-1.99184E-05-2.70232E-05 3.70428E-06 4.86524E-19 1.12275E-18
 -1      4201 8.15685E-05-1.94970E-05-2.66146E-05 4.25475E-06-3.07865E-19 1.69389E-18
 -1      4202 7.97333E-05-1.86070E-05-2.61555E-05 2.51552E-06-1.34794E-18-9.38334E-19
 -1      4203 9.15830E-05-2.46381E-05-2.87006E-05 1.38464E-06-6.29878E-19 1.71941E-18
 -1      4204 9.10965E-05-2.42380E-05-2.86583E-05 1.56865E-06-3.12148E-19 1.44646E-18
 -1      4205 9.05451E-05-2.37947E-05-2.85788E-05 1.10340E-06-3.47771E-19-5.20556E-19
 -1      4206 9.24683E-05-2.53843E-05-2.87581E-05 1.10500E-06 4.03168E-19 2.52434E-18
 -1      4207 9.20788E-05-2.50308E-05-2.87381E-05 1.26415E-06 1.94291E-19 1.42945E-18
 -1      4208 9.16366E-05-2.46495E-05-2.86869E-05 9.07787E-07 6.07188E-20-2.27151E-19
 -1      4209 9.31902E-05-2.60346E-05-2.87815E-05 8.68129E-07 2.86063E-19 1.92776E-18
 -1      4210 9.28660E-05-2.57287E-05-2.87757E-05 1.00137E-06 6.60078E-19 2.23040E-18
 -1      4211 9.25094E-05-2.54024E-05-2.87447E-05 7.32979E-07 8.02329E-19-8.66311E-20
 -1      4212 8.93423E-05-2.31028E-05-2.83664E-05-3.81965E-06 2.79037E-19-8.33717E-19
 -1      4213 9.04219E-05-2.37758E-05-2.85626E-05-4.49579E-06 1.84396E-19-6.84631E-19
 -1      4214 9.10571E-05-2.41534E-05-2.86901E-05-4.11589E-06 1.65082E-19-9.18098E-19
 -1      4215 8.74509E-05-2.18945E-05-2.81152E-05 2.52032E-06 7.01263E-21 5.77552E-19
 -1      4216 8.65601E-05-2.14262E-05-2.79260E-05 2.82253E-06-2.88450E-19 6.57614E-19
 -1      4217 8.75278E-05-2.18259E-05-2.81142E-05 1.54565E-06-2.36707E-19 8.63704E-19
 -1      4218 9.47537E-05-2.37303E-05-3.04500E-05 6.35343E-08 3.87374E-19-2.64738E-18
 -1      4219 9.47802E-05-2.37641E-05-3.04415E-05 5.20429E-08 2.93604E-19-2.99637E-18
 -1      4220 9.49346E-05-2.43562E-05-3.02306E-05 4.31210E-08 3.36528E-19-2.44219E-18
 -1      4221 9.42404E-05-2.54883E-05-2.94719E-05 1.06543E-06 1.26134E-19-1.97264E-18
 -1      4222 9.38706E-05-2.54172E-05-2.93387E-05 1.28391E-06 3.04679E-19-1.77299E-18
 -1      4223 9.34959E-05-2.51602E-05-2.92747E-05 8.30614E-07 6.26963E-19-1.39794E-18
 -1      4224 9.50051E-05-2.44957E-05-3.02084E-05 2.59187E-07 1.37061E-19-2.80377E-18
 -1      4225 7.57096E-05-1.80871E-05-2.47495E-05 5.81965E-06-2.70623E-18-4.72246E-20
 -1      4226 7.32683E-05-1.78746E-05-2.37237E-05-5.81495E-06-2.06067E-19-2.43710E-18
 -1      4227 7.32694E-05-1.78295E-05-2.36353E-05 6.27339E-06 5.04231E-19-2.48088E-18
 -1      4228 8.54179E-05-2.08937E-05-2.76736E-05 3.03624E-06 3.93910E-19 8.72730E-19
 -1      4229 8.43382E-05-2.04364E-05-2.73932E-05 3.44079E-06 1.02788E-18 1.07806E-18
 -1      4230 8.54934E-05-2.08321E-05-2.76999E-05 1.83982E-06 2.37283E-20 4.00553E-19
 -1      4231 8.29786E-05-1.97489E-05-2.70688E-05 2.09525E-06 8.01116E-19-2.91232E-19
 -1      4232 7.27366E-05-1.72261E-05-2.38600E-05 2.44541E-06 4.87585E-19-2.56084E-18
 -1      4233 9.49793E-05-2.49350E-05-3.00242E-05 5.09621E-07 2.86009E-20-2.64499E-18
 -1      4234 9.34074E-05-2.62840E-05-2.87634E-05-3.39503E-07 3.27660E-19-1.70961E-18
 -1      4235 7.29076E-05-1.69517E-05-2.38888E-05-2.14718E-06-2.13827E-19-2.68567E-18
 -1      4236 9.40165E-05-2.54740E-05-2.93816E-05-1.49550E-06 6.97673E-19-1.38539E-18
 -1      4237 9.43369E-05-2.55365E-05-2.94836E-05-1.31698E-06 8.07240E-19-1.20100E-18
 -1      4238 9.49120E-05-2.48412E-05-3.00359E-05-3.30054E-07 4.93098E-19-1.85775E-18
 -1      4239 7.55963E-05-1.74143E-05-2.48653E-05 2.88090E-06-2.71118E-18-1.74931E-18
 -1      4240 7.79199E-05-1.84358E-05-2.54246E-05-3.14101E-06-3.29766E-19-2.01907E-18
 -1      4241 8.01852E-05-1.95558E-05-2.60075E-05-5.10194E-06-1.66124E-19-2.16596E-18
 -1      4242 8.17608E-05-1.99729E-05-2.65245E-05-4.46298E-06 2.76933E-19-1.94438E-18
 -1      4243 9.34037E-05-2.62635E-05-2.87756E-05 6.34714E-07 7.93993E-19 8.32931E-19
 -1      4244 8.83861E-05-2.25993E-05-2.82034E-05-2.91658E-06 3.04616E-19-1.45844E-18
 -1      4245 8.92804E-05-2.30797E-05-2.83935E-05-2.63865E-06 9.50441E-20-1.48455E-18
 -1      4246 8.50403E-05-2.12250E-05-2.73184E-05-5.46777E-06 2.99670E-19-1.21695E-18
 -1      4247 9.23856E-05-2.49023E-05-2.89303E-05-3.46082E-06 3.13030E-19-9.72317E-19
 -1      4248 9.23808E-05-2.47758E-05-2.89591E-05-2.75796E-06 1.87047E-19-1.48712E-18
 -1      4249 9.18300E-05-2.45630E-05-2.88292E-05-3.80333E-06 4.24588E-19-1.03654E-18
 -1      4250 9.45849E-05-2.54847E-05-2.96193E-05 9.49705E-07-4.60088E-20-2.26830E-18
 -1      4251 9.43189E-05-2.53164E-05-2.95615E-05 6.12765E-07 2.24890E-19-1.83814E-18
 -1      4252 9.48147E-05-2.53589E-05-2.97694E-05 7.21334E-07-3.46491E-20-2.31503E-18
 -1      4253 9.33402E-05-2.62436E-05-2.87615E-05-1.13924E-07 5.79289E-19-1.16915E-18
 -1      4254 8.61565E-05-2.15527E-05-2.76969E-05-3.41228E-06 4.13441E-19-1.23231E-18
 -1      4255 8.72495E-05-2.20599E-05-2.79591E-05-3.09814E-06 4.76727E-19-1.16765E-18
 -1      4256 8.74313E-05-2.20185E-05-2.79966E-05-1.85736E-06 3.26686E-19-1.92568E-18
 -1      4257 9.30231E-05-2.50816E-05-2.91273E-05-1.85200E-06 5.07497E-19-1.54061E-18
 -1      4258 9.35384E-05-2.53060E-05-2.92480E-05-1.62709E-06 5.93660E-19-1.52928E-18
 -1      4259 9.36361E-05-2.52087E-05-2.93156E-05-1.06337E-06 8.44292E-19-1.48298E-18
 -1      4260 9.33132E-05-2.61882E-05-2.87663E-05 4.02288E-07 7.12499E-19-3.33085E-20
 -1      4261 9.28834E-05-2.57928E-05-2.87552E-05 9.58559E-08 1.70213E-21-1.79576E-18
 -1      4262 9.35131E-05-2.51789E-05-2.92961E-05-1.83345E-07 6.95387E-19-1.60705E-18
 -1      4263 9.30048E-05-2.49766E-05-2.91572E-05-1.14871E-07 7.24177E-19-1.46557E-18
 -1      4264 9.11717E-05-2.40863E-05-2.87700E-05 4.65571E-07 2.73489E-19-1.62573E-18
 -1      4265 9.03661E-05-2.36552E-05-2.86057E-05 6.47585E-07 9.23404E-20-1.76047E-18
 -1      4266 8.92106E-05-2.30386E-05-2.83716E-05-2.12038E-08 3.99425E-20-1.68365E-18
 -1      4267 8.82137E-05-2.25426E-05-2.81643E-05 1.43980E-07 8.50617E-20-1.64839E-18
 -1      4268 8.70502E-05-2.19944E-05-2.79140E-05 1.25732E-07 3.09880E-19-1.57108E-18
 -1      4269 8.58967E-05-2.14604E-05-2.76418E-05 3.70521E-07 4.39799E-19-1.44183E-18
 -1      4270 8.19400E-05-1.99990E-05-2.65918E-05 2.08334E-06 4.15878E-19-7.35087E-19
 -1      4271 8.03160E-05-1.94944E-05-2.60833E-05 2.64770E-06 9.02882E-19-6.62915E-19
 -1      4272 9.24917E-05-2.54645E-05-2.87367E-05 4.91802E-08 6.00287E-19-1.31261E-18
 -1      4273 9.48467E-05-2.49262E-05-2.99600E-05 3.29174E-07 1.47570E-19-2.44692E-18
 -1      4274 8.28409E-05-1.98880E-05-2.69953E-05-1.85832E-06-6.27920E-19-3.70705E-18
 -1      4275 8.40319E-05-2.03305E-05-2.73350E-05-1.40922E-06 1.64607E-19-2.99857E-18
 -1      4276 8.56119E-05-2.09936E-05-2.77115E-05-3.95987E-07-3.57590E-20-1.37861E-18
 -1      4277 8.66095E-05-2.14886E-05-2.79382E-05-1.74192E-07-2.04607E-20-1.11240E-18
 -1      4278 8.75525E-05-2.20131E-05-2.81174E-05-2.10935E-07-5.70761E-19-1.41074E-18
 -1      4279 8.84056E-05-2.24881E-05-2.82756E-05-3.46202E-08-9.97073E-19-1.15064E-18
 -1      4280 8.91812E-05-2.29869E-05-2.83934E-05-8.47809E-08-5.73079E-19-1.17994E-18
 -1      4281 8.98877E-05-2.34395E-05-2.84972E-05 4.59534E-08-3.21867E-19-8.84707E-19
 -1      4282 9.05191E-05-2.38986E-05-2.85710E-05-9.59003E-09-1.91583E-19-3.78645E-19
 -1      4283 9.10995E-05-2.43172E-05-2.86355E-05 8.56381E-08 8.39508E-19-4.70437E-19
 -1      4284 9.16097E-05-2.47287E-05-2.86783E-05 3.03928E-08 1.14775E-18-9.54176E-19
 -1      4285 9.20825E-05-2.51048E-05-2.87152E-05 9.93613E-08 9.18241E-19-1.00525E-18
 -1      4286 9.48556E-05-2.51677E-05-2.98540E-05-4.06125E-07 5.60972E-19-1.77241E-18
 -1      4287 9.48719E-05-2.47752E-05-3.00460E-05-1.20940E-07 5.52934E-19-1.94558E-18
 -1      4288 9.48776E-05-2.48018E-05-3.00419E-05 2.36026E-08 3.89431E-19-2.39009E-18
 -1      4289 7.47276E-05-1.72722E-05-2.46697E-05 8.75497E-07-2.49962E-18-2.91050E-18
 -1      4290 7.42179E-05-1.71270E-05-2.44707E-05-2.15132E-06-1.91048E-18-3.09738E-18
 -1      4291 7.81819E-05-1.84969E-05-2.55718E-05-3.16532E-06-1.80246E-18-4.21082E-18
 -1      4292 7.54006E-05-1.79137E-05-2.46352E-05 9.00181E-07 1.21408E-19-2.18393E-18
 -1      4293 9.47277E-05-2.55012E-05-2.96750E-05-1.14936E-06 5.88781E-19-1.39203E-18
 -1      4294 9.45243E-05-2.53625E-05-2.96424E-05-8.12744E-07 5.97198E-19-1.52662E-18
 -1      4295 9.09650E-05-2.39711E-05-2.86939E-05-3.24629E-06 8.20633E-20-1.02924E-18
 -1      4296 8.34928E-05-2.05281E-05-2.69966E-05-4.12716E-06 6.31084E-19-1.76967E-18
 -1      4297 8.47603E-05-2.10002E-05-2.73595E-05-3.67871E-06 6.50339E-19-1.28720E-18
 -1      4298 8.49166E-05-2.08484E-05-2.74075E-05-2.09328E-06 7.25368E-19-1.60474E-18
 -1      4299 8.19263E-05-1.97453E-05-2.66014E-05-2.54458E-06 7.23160E-19-1.83289E-18
 -1      4300 9.44756E-05-2.52793E-05-2.96532E-05-5.19807E-07 5.40857E-19-1.62418E-18
 -1      4301 7.98680E-05-1.89734E-05-2.61131E-05-2.70787E-06-1.25440E-18-4.46025E-18
 -1      4302 8.13962E-05-1.94046E-05-2.65997E-05-2.13444E-06-1.19929E-18-4.17629E-18
 -1      4303 8.18517E-05-1.92978E-05-2.67718E-05-3.87915E-07-5.44994E-19-3.31895E-18
 -1      4304 7.85590E-05-1.81906E-05-2.58172E-05-8.34075E-07-2.08837E-18-4.96193E-18
 -1      4305 8.96687E-05-2.31913E-05-2.84669E-05-9.99464E-07 1.73220E-19-2.02946E-18
 -1      4306 9.03802E-05-2.36396E-05-2.86068E-05-1.86717E-06 1.22473E-19-1.63439E-18
 -1      4307 7.74994E-05-1.84403E-05-2.53444E-05 8.80109E-07 2.86676E-19-1.64274E-18
 -1      4308 7.70919E-05-1.78385E-05-2.54092E-05 9.70517E-07-2.66567E-18-3.04812E-18
 -1      4309 9.24658E-05-2.47348E-05-2.90411E-05 7.96339E-08 5.03227E-19-1.51521E-18
 -1      4310 9.18331E-05-2.44075E-05-2.88982E-05 1.77647E-07 2.33074E-19-1.56606E-18
 -1      4311 9.14058E-05-2.41169E-05-2.88190E-05-5.91225E-07 1.84765E-19-1.76798E-18
 -1      4312 9.26059E-05-2.47495E-05-2.90653E-05-1.01932E-06 5.59746E-19-1.55853E-18
 -1      4313 8.38042E-05-2.01113E-05-2.72987E-05 8.86514E-07 1.42029E-19-4.71797E-19
 -1      4314 8.23017E-05-1.95282E-05-2.69221E-05 9.49711E-07 5.08091E-19-1.23572E-18
 -1      4315 7.89854E-05-1.84160E-05-2.59834E-05 1.02647E-06-2.29674E-18-3.52934E-18
 -1      4316 8.44830E-05-2.08650E-05-2.72993E-05 3.71790E-07 6.21805E-19-1.43466E-18
 -1      4317 8.31501E-05-2.03346E-05-2.69294E-05 6.88546E-07 7.58983E-19-1.17228E-18
 -1      4318 7.96718E-05-1.91866E-05-2.59318E-05 1.13925E-06 6.98447E-19-1.05984E-18
 -1      4319 8.49412E-05-2.05644E-05-2.75659E-05 7.96345E-07-1.95016E-20-5.23680E-19
 -1      4320 9.11502E-05-2.40771E-05-2.87545E-05-1.68055E-06 2.35292E-20-1.76496E-18
 -1      4321 9.47086E-05-2.52103E-05-2.97865E-05 1.80596E-07 2.20710E-19-2.13245E-18
 -1      4322 9.39866E-05-2.53130E-05-2.94347E-05-1.03269E-07 6.18475E-19-1.56351E-18
 -1      4323 8.08401E-05-1.89980E-05-2.65212E-05 9.10840E-07-8.11469E-19-2.74302E-18
 -1      4324 9.43518E-05-2.53408E-05-2.95819E-05-1.78868E-07 4.52385E-19-1.82537E-18
 -1      4325 9.24695E-05-2.47850E-05-2.90130E-05-1.70289E-06 3.68639E-19-1.59113E-18
 -1      4326 9.18133E-05-2.44444E-05-2.88849E-05-1.90705E-06 1.14990E-19-1.61954E-18
 -1      4327 8.20584E-05-1.97708E-05-2.66890E-05-1.00085E-06 8.77956E-19-1.17038E-18
 -1      4328 8.02885E-05-1.91372E-05-2.61908E-05-1.09298E-06 2.57045E-19-8.47739E-19
 -3
    1PSTEP                         4           1           1          
  100CL  101 1.000000000        4328                     0    1           1
 -4  ERROR       1    1
 -5  STR(%)      1    1    0    0
 -1         1 3.28289E+01
 -1         2 2.54409E+01
 -1         3 4.55216E-03
 -1         4 5.26971E-03
 -1         5 1.40273E+01
 -1         6 1.31305E+01
 -1         7 1.31305E+01
 -1         8 3.62345E+00
 -1         9 1.79583E+00
 -1        10 1.27700E+00
 -1        11 1.03418E+00
 -1        12 8.85727E-01
 -1        13 7.91679E-01
 -1        14 7.34162E-01
 -1        15 7.36255E-01
 -1        16 7.96066E-01
 -1        17 8.86610E-01
 -1        18 1.04038E+00
 -1        19 1.29535E+00
 -1        20 1.80598E+00
 -1        21 3.46502E+00
 -1        22 8.60277E+00
 -1        23 1.31305E+01
 -1        24 4.34539E+00
 -1        25 3.36426E+00
 -1        26 2.13568E+00
 -1        27 1.42034E+00
 -1        28 1.09655E+00
 -1        29 8.73466E-01
 -1        30 7.09392E-01
 -1        31 5.82633E-01
 -1        32 4.80235E-01
 -1        33 4.93351E-01
 -1        34 5.39277E-01
 -1        35 5.78321E-01
 -1        36 6.55534E-01
 -1        37 8.37413E-01
 -1        38 1.01467E+00
 -1        39 1.13278E+00
 -1        40 1.13278E+00
 -1        41 1.16645E+00
 -1        42 1.16645E+00
 -1        43 1.42825E+00
 -1        44 2.03963E+00
 -1        45 3.13509E+00
 -1        46 3.52904E+00
 -1        47 3.53131E+00
 -1        48 3.53131E+00
 -1        49 3.14534E+00
 -1        50 2.05448E+00
 -1        51 1.43617E+00
 -1        52 1.16666E+00
 -1        53 1.16666E+00
 -1        54 1.11324E+00
 -1        55 1.11324E+00
 -1        56 9.94948E-01
 -1        57 8.19308E-01
 -1        58 6.54393E-01
 -1        59 5.11617E-01
 -1        60 4.32202E-01
 -1        61 3.62213E-01
 -1        62 2.92700E-01
 -1        63 2.29211E-01
 -1        64 1.74356E-01
 -1        65 1.28827E-01
 -1        66 1.00603E-01
 -1        67 8.35089E-02
 -1        68 6.67285E-02
 -1        69 5.00659E-02
 -1        70 3.25038E-02
 -1        71 1.76360E-02
 -1        72 1.40273E+01
 -1        73 3.42510E+00
 -1        74 2.44403E+00
 -1        75 1.70041E+00
 -1        76 1.20624E+00
 -1        77 1.01197E+00
 -1        78 8.65459E-01
 -1        79 7.55285E-01
 -1        80 6.73392E-01
 -1        81 6.14274E-01
 -1        82 5.72245E-01
 -1        83 6.09731E-01
 -1        84 6.84492E-01
 -1        85 7.48317E-01
 -1        86 7.77849E-01
 -1        87 8.13552E-01
 -1        88 1.07220E+00
 -1        89 1.28249E+00
 -1        90 1.37330E+00
 -1        91 1.71865E+00
 -1        92 1.71865E+00
 -1        93 2.12497E+00
 -1        94 2.92887E+00
 -1        95 3.86710E+00
 -1        96 4.37013E+00
 -1        97 4.37013E+00
 -1        98 4.08587E+00
 -1        99 2.60127E+00
 -1       100 1.59956E+00
 -1       101 1.29985E+00
 -1       102 1.52898E+00
 -1       103 1.52898E+00
 -1       104 1.51755E+00
 -1       105 1.34867E+00
 -1       106 1.13593E+00
 -1       107 9.38009E-01
 -1       108 7.41246E-01
 -1       109 5.64199E-01
 -1       110 4.14795E-01
 -1       111 3.18630E-01
 -1       112 2.44110E-01
 -1       113 1.82456E-01
 -1       114 1.32926E-01
 -1       115 9.40129E-02
 -1       116 6.38990E-02
 -1       117 4.91435E-02
 -1       118 3.88311E-02
 -1       119 2.65937E-02
 -1       120 1.64172E-02
 -1       121 5.24322E-03
 -1       122 5.79246E-03
 -1       123 5.79246E-03
 -1       124 4.66566E-03
 -1       125 2.14475E-03
 -1       126 3.60945E-03
 -1       127 5.11318E-03
 -1       128 5.62075E-03
 -1       129 5.62075E-03
 -1       130 5.10418E-03
 -1       131 3.56774E-03
 -1       132 2.09579E-03
 -1       133 4.65296E-03
 -1       134 5.52828E-03
 -1       135 5.52828E-03
 -1       136 5.88837E-03
 -1       137 2.48864E+01
 -1       138 4.93422E+01
 -1       139 4.93422E+01
 -1       140 2.30314E+01
 -1       141 1.27803E+01
 -1       142 1.35077E+01
 -1       143 1.35077E+01
 -1       144 1.27554E+01
 -1       145 1.27554E+01
 -1       146 1.37798E+01
 -1       147 3.32046E+01
 -1       148 3.32046E+01
 -1       149 2.70811E+01
 -1       150 2.44570E+01
 -1       151 2.49765E+01
 -1       152 2.81952E+01
 -1       153 3.33201E+01
 -1       154 1.29454E+01
 -1       155 1.18227E+01
 -1       156 1.19423E+01
 -1       157 1.23998E+01
 -1       158 1.23998E+01
 -1       159 1.20971E+01
 -1       160 1.16286E+01
 -1       161 2.28325E+01
 -1       162 4.83364E+01
 -1       163 4.83364E+01
 -1       164 2.54409E+01
 -1       165 6.02314E+00
 -1       166 2.26861E+00
 -1       167 1.49738E+00
 -1       168 1.14841E+00
 -1       169 9.62194E-01
 -1       170 8.50092E-01
 -1       171 7.78363E-01
 -1       172 7.36255E-01
 -1       173 7.81938E-01
 -1       174 8.52923E-01
 -1       175 9.69693E-01
 -1       176 1.16289E+00
 -1       177 1.51707E+00
 -1       178 2.24625E+00
 -1       179 3.89864E+00
 -1       180 1.40273E+01
 -1       181 4.34539E+00
 -1       182 3.36426E+00
 -1       183 2.13568E+00
 -1       184 1.46103E+00
 -1       185 1.09655E+00
 -1       186 8.73466E-01
 -1       187 7.09392E-01
 -1       188 5.82633E-01
 -1       189 4.80235E-01
 -1       190 4.49271E-01
 -1       191 4.93351E-01
 -1       192 5.39277E-01
 -1       193 5.78321E-01
 -1       194 6.85106E-01
 -1       195 8.37413E-01
 -1       196 1.01467E+00
 -1       197 1.13278E+00
 -1       198 1.11689E+00
 -1       199 1.16645E+00
 -1       200 1.07618E+00
 -1       201 1.42825E+00
 -1       202 2.04685E+00
 -1       203 3.13509E+00
 -1       204 3.52904E+00
 -1       205 3.53131E+00
 -1       206 3.14534E+00
 -1       207 2.05579E+00
 -1       208 1.43617E+00
 -1       209 1.07264E+00
 -1       210 1.16666E+00
 -1       211 1.09816E+00
 -1       212 1.11324E+00
 -1       213 9.94948E-01
 -1       214 8.19308E-01
 -1       215 6.91527E-01
 -1       216 5.97604E-01
 -1       217 4.89631E-01
 -1       218 3.83622E-01
 -1       219 2.92700E-01
 -1       220 2.29211E-01
 -1       221 1.79406E-01
 -1       222 1.37594E-01
 -1       223 1.02733E-01
 -1       224 8.35089E-02
 -1       225 6.67285E-02
 -1       226 5.00659E-02
 -1       227 3.25038E-02
 -1       228 1.89081E-02
 -1       229 3.42510E+00
 -1       230 2.44403E+00
 -1       231 1.70041E+00
 -1       232 1.20624E+00
 -1       233 1.01197E+00
 -1       234 8.65459E-01
 -1       235 7.55285E-01
 -1       236 6.73392E-01
 -1       237 6.14274E-01
 -1       238 5.72245E-01
 -1       239 5.39575E-01
 -1       240 6.09731E-01
 -1       241 6.84492E-01
 -1       242 7.48317E-01
 -1       243 7.77849E-01
 -1       244 9.04327E-01
 -1       245 1.07220E+00
 -1       246 1.28249E+00
 -1       247 1.37330E+00
 -1       248 1.71865E+00
 -1       249 1.64201E+00
 -1       250 2.12497E+00
 -1       251 2.92887E+00
 -1       252 3.86710E+00
 -1       253 4.37013E+00
 -1       254 4.08587E+00
 -1       255 2.60127E+00
 -1       256 1.59956E+00
 -1       257 1.19198E+00
 -1       258 1.29985E+00
 -1       259 1.52898E+00
 -1       260 1.51755E+00
 -1       261 1.34867E+00
 -1       262 1.13593E+00
 -1       263 9.43414E-01
 -1       264 7.67549E-01
 -1       265 6.00724E-01
 -1       266 4.54423E-01
 -1       267 3.32846E-01
 -1       268 2.44110E-01
 -1       269 1.82456E-01
 -1       270 1.33321E-01
 -1       271 9.68466E-02
 -1       272 6.82309E-02
 -1       273 4.91435E-02
 -1       274 3.88311E-02
 -1       275 2.65937E-02
 -1       276 1.64172E-02
 -1       277 8.98801E-03
 -1       278 1.05148E-02
 -1       279 1.05148E-02
 -1       280 7.27934E-03
 -1       281 7.37377E-03
 -1       282 1.05741E-02
 -1       283 1.18988E-02
 -1       284 1.18988E-02
 -1       285 1.18807E-02
 -1       286 1.04753E-02
 -1       287 7.39122E-03
 -1       288 7.08647E-03
 -1       289 1.06380E-02
 -1       290 1.06380E-02
 -1       291 1.04874E-02
 -1       292 3.01734E+01
 -1       293 3.06162E+01
 -1       294 4.93422E+01
 -1       295 2.54130E+01
 -1       296 1.18000E+01
 -1       297 1.27803E+01
 -1       298 1.35077E+01
 -1       299 1.19567E+01
 -1       300 1.27554E+01
 -1       301 1.15968E+01
 -1       302 1.37798E+01
 -1       303 3.32046E+01
 -1       304 3.23822E+01
 -1       305 2.67559E+01
 -1       306 2.70577E+01
 -1       307 2.70577E+01
 -1       308 3.33201E+01
 -1       309 3.33201E+01
 -1       310 1.29454E+01
 -1       311 1.07786E+01
 -1       312 1.18227E+01
 -1       313 1.19423E+01
 -1       314 1.23998E+01
 -1       315 1.20971E+01
 -1       316 1.15268E+01
 -1       317 1.16286E+01
 -1       318 2.47713E+01
 -1       319 4.83364E+01
 -1       320 2.94048E+01
 -1       321 3.01734E+01
 -1       322 1.02705E+00
 -1       323 2.44116E+00
 -1       324 7.86882E-01
 -1       325 6.84547E-01
 -1       326 6.18876E-01
 -1       327 5.72281E-01
 -1       328 5.75613E-01
 -1       329 6.21632E-01
 -1       330 6.90835E-01
 -1       331 7.87980E-01
 -1       332 9.24342E-01
 -1       333 1.13796E+00
 -1       334 1.30100E+00
 -1       335 2.18679E+00
 -1       336 1.89223E+00
 -1       337 1.73843E+00
 -1       338 1.27088E+00
 -1       339 9.02599E-01
 -1       340 6.98870E-01
 -1       341 5.95283E-01
 -1       342 4.98996E-01
 -1       343 4.08825E-01
 -1       344 3.38946E-01
 -1       345 3.81168E-01
 -1       346 4.21882E-01
 -1       347 4.80075E-01
 -1       348 5.84657E-01
 -1       349 6.82801E-01
 -1       350 7.91372E-01
 -1       351 8.53290E-01
 -1       352 8.14074E-01
 -1       353 6.16710E-01
 -1       354 6.39576E-01
 -1       355 8.69311E-01
 -1       356 1.42162E+00
 -1       357 1.86999E+00
 -1       358 2.17924E+00
 -1       359 2.04797E+00
 -1       360 2.18380E+00
 -1       361 1.87837E+00
 -1       362 1.42889E+00
 -1       363 8.74723E-01
 -1       364 6.33340E-01
 -1       365 6.26558E-01
 -1       366 8.08008E-01
 -1       367 8.50781E-01
 -1       368 7.94328E-01
 -1       369 7.08328E-01
 -1       370 6.31572E-01
 -1       371 5.45357E-01
 -1       372 4.49765E-01
 -1       373 3.56933E-01
 -1       374 2.73709E-01
 -1       375 2.03139E-01
 -1       376 1.45816E-01
 -1       377 1.02733E-01
 -1       378 7.44732E-02
 -1       379 5.38454E-02
 -1       380 3.87439E-02
 -1       381 2.76264E-02
 -1       382 1.79034E-02
 -1       383 1.14770E+00
 -1       384 8.84747E-01
 -1       385 6.84610E-01
 -1       386 5.66626E-01
 -1       387 5.27532E-01
 -1       388 4.89060E-01
 -1       389 4.54162E-01
 -1       390 4.23260E-01
 -1       391 4.56186E-01
 -1       392 5.66273E-01
 -1       393 7.33039E-01
 -1       394 8.86224E-01
 -1       395 1.01598E+00
 -1       396 1.11241E+00
 -1       397 1.11241E+00
 -1       398 1.08994E+00
 -1       399 8.73540E-01
 -1       400 7.61700E-01
 -1       401 1.29106E+00
 -1       402 2.01433E+00
 -1       403 2.22260E+00
 -1       404 2.26992E+00
 -1       405 2.35927E+00
 -1       406 2.48115E+00
 -1       407 1.85697E+00
 -1       408 1.01626E+00
 -1       409 7.78421E-01
 -1       410 1.02290E+00
 -1       411 1.12546E+00
 -1       412 1.14760E+00
 -1       413 1.09108E+00
 -1       414 9.78687E-01
 -1       415 8.58249E-01
 -1       416 7.14656E-01
 -1       417 5.71417E-01
 -1       418 4.41625E-01
 -1       419 3.31056E-01
 -1       420 2.40929E-01
 -1       421 1.78959E-01
 -1       422 1.33321E-01
 -1       423 9.68466E-02
 -1       424 6.82309E-02
 -1       425 4.60498E-02
 -1       426 3.01004E-02
 -1       427 1.89993E-02
 -1       428 1.01658E-02
 -1       429 1.29298E-02
 -1       430 1.66165E-02
 -1       431 1.66165E-02
 -1       432 1.06655E-02
 -1       433 1.57183E-02
 -1       434 1.81945E-02
 -1       435 1.81945E-02
 -1       436 1.80525E-02
 -1       437 1.80525E-02
 -1       438 1.56298E-02
 -1       439 1.05677E-02
 -1       440 1.29128E-02
 -1       441 1.61820E-02
 -1       442 3.06162E+01
 -1       443 3.21226E+01
 -1       444 3.21226E+01
 -1       445 1.78387E+01
 -1       446 1.04497E+01
 -1       447 9.03857E-01
 -1       448 8.37934E+00
 -1       449 1.07931E+01
 -1       450 1.09198E+01
 -1       451 8.84055E+00
 -1       452 7.64916E+00
 -1       453 1.29715E+01
 -1       454 2.19912E+01
 -1       455 2.57722E+01
 -1       456 3.78103E+01
 -1       457 3.78103E+01
 -1       458 2.80577E+01
 -1       459 2.23864E+01
 -1       460 1.25538E+01
 -1       461 6.94245E+00
 -1       462 8.18699E+00
 -1       463 1.04220E+01
 -1       464 1.05389E+01
 -1       465 9.91793E+00
 -1       466 8.71299E+00
 -1       467 6.48239E+00
 -1       468 1.03363E+01
 -1       469 1.71440E+01
 -1       470 2.94048E+01
 -1       471 3.08806E+01
 -1       472 6.93556E+00
 -1       473 9.14024E+00
 -1       474 1.05012E+00
 -1       475 4.76681E-01
 -1       476 5.08471E-01
 -1       477 4.15438E-01
 -1       478 4.44230E-01
 -1       479 4.77343E-01
 -1       480 5.05019E-01
 -1       481 5.05019E-01
 -1       482 5.93899E-01
 -1       483 8.84747E-01
 -1       484 7.76339E-01
 -1       485 4.84169E+00
 -1       486 6.85508E-01
 -1       487 5.56383E-01
 -1       488 4.23613E-01
 -1       489 3.76184E-01
 -1       490 3.12668E-01
 -1       491 2.39375E-01
 -1       492 2.52648E-01
 -1       493 2.89259E-01
 -1       494 4.06275E-01
 -1       495 5.19983E-01
 -1       496 6.19318E-01
 -1       497 6.98486E-01
 -1       498 7.95220E-01
 -1       499 8.82824E-01
 -1       500 9.11327E-01
 -1       501 1.03897E+00
 -1       502 1.20446E+00
 -1       503 1.40237E+00
 -1       504 1.48434E+00
 -1       505 2.01197E+00
 -1       506 2.37331E+00
 -1       507 2.44067E+00
 -1       508 1.94735E+00
 -1       509 1.48709E+00
 -1       510 1.39553E+00
 -1       511 1.18570E+00
 -1       512 1.04729E+00
 -1       513 9.30937E-01
 -1       514 9.13703E-01
 -1       515 8.35161E-01
 -1       516 7.35703E-01
 -1       517 6.71051E-01
 -1       518 5.87838E-01
 -1       519 4.94193E-01
 -1       520 4.01573E-01
 -1       521 3.16796E-01
 -1       522 2.43234E-01
 -1       523 1.81936E-01
 -1       524 1.32532E-01
 -1       525 9.38849E-02
 -1       526 6.45269E-02
 -1       527 4.29264E-02
 -1       528 2.75085E-02
 -1       529 5.34932E-01
 -1       530 4.68998E-01
 -1       531 3.94571E-01
 -1       532 3.15433E-01
 -1       533 3.10115E-01
 -1       534 3.60377E-01
 -1       535 4.76620E-01
 -1       536 6.35992E-01
 -1       537 7.94261E-01
 -1       538 9.33639E-01
 -1       539 1.04105E+00
 -1       540 1.16018E+00
 -1       541 1.28540E+00
 -1       542 1.32700E+00
 -1       543 1.46474E+00
 -1       544 1.59797E+00
 -1       545 1.78557E+00
 -1       546 2.22260E+00
 -1       547 3.08939E+00
 -1       548 3.19601E+00
 -1       549 2.64465E+00
 -1       550 1.85918E+00
 -1       551 1.61970E+00
 -1       552 1.58005E+00
 -1       553 1.30138E+00
 -1       554 1.33390E+00
 -1       555 1.24353E+00
 -1       556 1.10178E+00
 -1       557 1.01153E+00
 -1       558 8.98875E-01
 -1       559 7.60788E-01
 -1       560 6.19894E-01
 -1       561 4.89554E-01
 -1       562 3.76245E-01
 -1       563 2.81968E-01
 -1       564 2.06127E-01
 -1       565 1.46810E-01
 -1       566 1.01609E-01
 -1       567 6.80676E-02
 -1       568 4.46779E-02
 -1       569 3.22473E-02
 -1       570 2.26557E-02
 -1       571 2.10932E-02
 -1       572 2.53160E-02
 -1       573 1.68434E-02
 -1       574 1.75819E-02
 -1       575 2.55710E-02
 -1       576 2.55710E-02
 -1       577 2.54741E-02
 -1       578 2.50879E-02
 -1       579 2.08632E-02
 -1       580 2.04712E-02
 -1       581 2.04712E-02
 -1       582 3.21226E+01
 -1       583 2.10838E+01
 -1       584 3.08806E+01
 -1       585 6.84610E-01
 -1       586 1.25740E+01
 -1       587 9.12050E+00
 -1       588 8.55705E-01
 -1       589 2.06619E+01
 -1       590 5.49637E+00
 -1       591 4.44067E-01
 -1       592 4.19453E+00
 -1       593 7.82088E+00
 -1       594 6.10680E+00
 -1       595 6.84051E+00
 -1       596 7.29989E+00
 -1       597 1.05259E+01
 -1       598 1.75431E+01
 -1       599 2.57722E+01
 -1       600 3.78103E+01
 -1       601 2.80577E+01
 -1       602 1.69214E+01
 -1       603 1.04980E+01
 -1       604 7.22042E+00
 -1       605 3.91533E+00
 -1       606 7.25133E+00
 -1       607 7.83363E+00
 -1       608 4.39191E+00
 -1       609 5.63107E+00
 -1       610 9.20941E+00
 -1       611 1.34913E+01
 -1       612 6.10086E+00
 -1       613 1.30895E+00
 -1       614 5.37817E-01
 -1       615 1.58210E+01
 -1       616 6.56637E+00
 -1       617 1.79034E-02
 -1       618 3.49032E-01
 -1       619 3.27474E-01
 -1       620 3.59140E-01
 -1       621 3.42157E-01
 -1       622 5.19033E-01
 -1       623 5.91457E+00
 -1       624 4.88545E-01
 -1       625 3.63198E-01
 -1       626 3.28979E-01
 -1       627 2.59851E-01
 -1       628 2.08411E-01
 -1       629 1.55150E-01
 -1       630 1.35753E-01
 -1       631 2.18303E-01
 -1       632 3.28479E-01
 -1       633 4.48664E-01
 -1       634 5.75071E-01
 -1       635 7.00590E-01
 -1       636 8.12339E-01
 -1       637 9.87265E-01
 -1       638 1.18998E+00
 -1       639 1.36825E+00
 -1       640 1.63704E+00
 -1       641 2.00327E+00
 -1       642 2.01816E+00
 -1       643 4.04418E+00
 -1       644 4.59443E+00
 -1       645 5.28025E+00
 -1       646 3.13753E+00
 -1       647 1.94735E+00
 -1       648 1.91994E+00
 -1       649 1.83076E+00
 -1       650 1.60637E+00
 -1       651 1.36234E+00
 -1       652 1.20909E+00
 -1       653 1.01176E+00
 -1       654 8.41057E-01
 -1       655 7.40849E-01
 -1       656 6.30287E-01
 -1       657 5.21733E-01
 -1       658 4.21990E-01
 -1       659 3.34259E-01
 -1       660 2.59580E-01
 -1       661 1.97692E-01
 -1       662 1.47592E-01
 -1       663 1.07912E-01
 -1       664 7.71331E-02
 -1       665 5.38150E-02
 -1       666 3.30561E-02
 -1       667 2.77516E-01
 -1       668 6.03547E+00
 -1       669 3.22879E-01
 -1       670 1.81709E-01
 -1       671 2.40628E-01
 -1       672 3.73200E-01
 -1       673 5.22626E-01
 -1       674 6.87408E-01
 -1       675 8.62968E-01
 -1       676 1.03907E+00
 -1       677 1.19610E+00
 -1       678 1.42995E+00
 -1       679 1.75332E+00
 -1       680 2.02890E+00
 -1       681 2.41691E+00
 -1       682 1.88115E+00
 -1       683 2.12046E+00
 -1       684 4.83662E+00
 -1       685 4.17086E+00
 -1       686 4.75864E+00
 -1       687 2.64465E+00
 -1       688 2.90119E+00
 -1       689 2.53238E+00
 -1       690 2.10675E+00
 -1       691 1.87078E+00
 -1       692 1.56369E+00
 -1       693 1.27355E+00
 -1       694 1.12686E+00
 -1       695 9.67692E-01
 -1       696 8.05641E-01
 -1       697 6.54371E-01
 -1       698 5.20308E-01
 -1       699 4.05739E-01
 -1       700 3.10543E-01
 -1       701 2.33284E-01
 -1       702 1.71892E-01
 -1       703 1.24065E-01
 -1       704 8.75583E-02
 -1       705 6.02506E-02
 -1       706 3.99429E-02
 -1       707 2.37754E-02
 -1       708 3.56982E-02
 -1       709 2.04712E-02
 -1       710 3.38682E-02
 -1       711 3.55637E-02
 -1       712 3.56982E-02
 -1       713 5.75093E+00
 -1       714 3.55637E-02
 -1       715 3.30581E-02
 -1       716 2.49892E-02
 -1       717 4.43219E+00
 -1       718 3.39853E+00
 -1       719 4.75469E+00
 -1       720 5.37817E-01
 -1       721 1.33725E+01
 -1       722 5.28025E+00
 -1       723 4.17492E-01
 -1       724 1.42665E+01
 -1       725 2.18719E-01
 -1       726 3.80600E-01
 -1       727 3.59140E-01
 -1       728 9.78091E+00
 -1       729 3.55971E-01
 -1       730 5.89867E+00
 -1       731 4.83662E+00
 -1       732 1.13261E+01
 -1       733 9.52196E+00
 -1       734 4.53179E+00
 -1       735 6.54830E+00
 -1       736 1.57845E+01
 -1       737 1.61477E+01
 -1       738 1.37240E+01
 -1       739 7.59543E+00
 -1       740 9.67566E+00
 -1       741 4.04418E+00
 -1       742 3.24912E+00
 -1       743 3.50045E+00
 -1       744 1.65172E+01
 -1       745 6.87521E+00
 -1       746 1.05908E+01
 -1       747 3.28680E+00
 -1       748 3.86114E-01
 -1       749 3.26964E-01
 -1       750 2.56042E-02
 -1       751 2.20975E-02
 -1       752 3.48045E-01
 -1       753 9.58066E+00
 -1       754 2.33339E-02
 -1       755 3.50045E+00
 -1       756 2.47307E-01
 -1       757 8.40840E+00
 -1       758 1.85027E-01
 -1       759 1.46627E-01
 -1       760 1.04143E-01
 -1       761 1.22925E-01
 -1       762 1.85479E-01
 -1       763 2.66487E-01
 -1       764 3.74002E-01
 -1       765 4.95375E-01
 -1       766 6.55187E-01
 -1       767 8.48922E-01
 -1       768 1.06644E+00
 -1       769 1.28024E+00
 -1       770 1.68837E+00
 -1       771 2.22714E+00
 -1       772 2.03984E+00
 -1       773 2.54055E+00
 -1       774 2.94659E+00
 -1       775 1.91994E+00
 -1       776 2.54027E+00
 -1       777 2.04751E+00
 -1       778 1.77964E+00
 -1       779 1.31762E+00
 -1       780 1.10122E+00
 -1       781 8.94107E-01
 -1       782 7.18688E-01
 -1       783 5.73927E-01
 -1       784 4.50464E-01
 -1       785 3.51816E-01
 -1       786 2.76739E-01
 -1       787 2.11964E-01
 -1       788 1.58182E-01
 -1       789 1.15623E-01
 -1       790 8.32595E-02
 -1       791 5.81790E-02
 -1       792 3.83374E-02
 -1       793 2.72078E-01
 -1       794 1.73616E-01
 -1       795 5.44594E-01
 -1       796 7.37416E-01
 -1       797 9.63229E-01
 -1       798 1.24632E+00
 -1       799 1.57636E+00
 -1       800 1.93382E+00
 -1       801 2.56634E+00
 -1       802 3.42691E+00
 -1       803 3.22921E+00
 -1       804 3.42029E+00
 -1       805 3.00974E+00
 -1       806 2.08923E+00
 -1       807 1.73995E+00
 -1       808 1.41379E+00
 -1       809 1.11559E+00
 -1       810 8.86911E-01
 -1       811 6.96476E-01
 -1       812 5.40356E-01
 -1       813 4.14470E-01
 -1       814 3.17152E-01
 -1       815 2.40869E-01
 -1       816 1.80530E-01
 -1       817 1.33276E-01
 -1       818 9.69183E-02
 -1       819 6.89363E-02
 -1       820 4.75657E-02
 -1       821 3.03853E-02
 -1       822 2.72979E-01
 -1       823 4.77794E-02
 -1       824 3.38054E-02
 -1       825 4.87370E-02
 -1       826 9.28510E+00
 -1       827 6.51424E+00
 -1       828 6.32533E+00
 -1       829 4.24804E+00
 -1       830 3.60842E+00
 -1       831 4.87370E-02
 -1       832 3.91196E-01
 -1       833 1.87906E-01
 -1       834 1.86518E-01
 -1       835 9.17056E+00
 -1       836 2.65671E+00
 -1       837 4.93199E+00
 -1       838 7.77980E+00
 -1       839 2.64407E-01
 -1       840 1.02873E+01
 -1       841 4.44129E+00
 -1       842 6.75105E+00
 -1       843 1.11872E+01
 -1       844 2.80587E+00
 -1       845 8.55496E+00
 -1       846 1.01659E+01
 -1       847 8.93442E+00
 -1       848 2.57746E-01
 -1       849 2.73443E-01
 -1       850 2.67827E-01
 -1       851 4.14011E-02
 -1       852 2.75574E-01
 -1       853 5.26849E+00
 -1       854 1.06941E-01
 -1       855 2.38445E-01
 -1       856 2.73443E-01
 -1       857 4.84406E-02
 -1       858 4.84406E-02
 -1       859 3.38394E+00
 -1       860 4.26539E+00
 -1       861 2.33489E-01
 -1       862 1.26533E-01
 -1       863 2.75574E-01
 -1       864 5.32012E+00
 -1       865 7.98879E+00
 -1       866 3.60443E-02
 -1       867 4.65433E+00
 -1       868 6.66073E+00
 -1       869 2.64259E+00
 -1       870 1.12880E-01
 -1       871 1.45738E-01
 -1       872 1.92230E-01
 -1       873 2.66487E-01
 -1       874 3.74002E-01
 -1       875 4.95375E-01
 -1       876 6.34103E-01
 -1       877 8.23504E-01
 -1       878 1.06236E+00
 -1       879 1.46635E+00
 -1       880 1.97420E+00
 -1       881 2.62142E+00
 -1       882 6.66073E+00
 -1       883 4.03336E+00
 -1       884 1.98596E+00
 -1       885 1.49970E+00
 -1       886 1.10194E+00
 -1       887 8.51284E-01
 -1       888 6.73970E-01
 -1       889 5.54604E-01
 -1       890 4.46125E-01
 -1       891 3.51816E-01
 -1       892 2.72289E-01
 -1       893 2.06830E-01
 -1       894 1.54010E-01
 -1       895 1.12114E-01
 -1       896 7.93597E-02
 -1       897 2.66186E-01
 -1       898 9.20619E-01
 -1       899 7.17631E-01
 -1       900 1.57527E+00
 -1       901 2.54132E+00
 -1       902 6.14854E+00
 -1       903 3.51881E+00
 -1       904 7.79281E+00
 -1       905 1.87472E+00
 -1       906 1.35783E+00
 -1       907 1.04962E+00
 -1       908 8.50457E-01
 -1       909 6.75273E-01
 -1       910 5.27614E-01
 -1       911 4.06238E-01
 -1       912 3.08025E-01
 -1       913 2.29768E-01
 -1       914 1.68256E-01
 -1       915 1.20232E-01
 -1       916 9.29302E-02
 -1       917 6.04864E-02
 -1       918 6.75170E+00
 -1       919 3.73234E-02
 -1       920 6.75261E-02
 -1       921 3.68707E+00
 -1       922 6.59407E+00
 -1       923 6.75170E+00
 -1       924 4.89970E+00
 -1       925 2.72850E-01
 -1       926 6.27516E+00
 -1       927 1.18508E+00
 -1       928 9.84413E-02
 -1       929 1.00478E-01
 -1       930 1.13811E-01
 -1       931 1.77323E-01
 -1       932 6.03377E+00
 -1       933 5.97643E+00
 -1       934 1.31939E-01
 -1       935 3.33550E+00
 -1       936 6.75261E-02
 -1       937 1.82929E-01
 -1       938 3.88778E-01
 -1       939 5.36123E-02
 -1       940 1.40703E-01
 -1       941 5.40151E-01
 -1       942 3.80124E+00
 -1       943 6.14854E+00
 -1       944 6.89203E-02
 -1       945 1.30005E-01
 -1       946 1.91362E-01
 -1       947 6.06067E+00
 -1       948 1.92035E-01
 -1       949 4.89970E+00
 -1       950 6.27008E+00
 -1       951 6.87257E-02
 -1       952 1.62858E-01
 -1       953 6.66826E-02
 -1       954 1.21923E-01
 -1       955 1.50079E-01
 -1       956 1.93221E-01
 -1       957 2.50529E-01
 -1       958 3.53584E-01
 -1       959 4.79868E-01
 -1       960 6.34103E-01
 -1       961 8.23504E-01
 -1       962 1.05270E+00
 -1       963 1.36863E+00
 -1       964 2.62353E+00
 -1       965 4.66978E+00
 -1       966 8.92189E-01
 -1       967 2.86435E+00
 -1       968 1.39442E+00
 -1       969 1.07545E+00
 -1       970 8.51284E-01
 -1       971 6.70678E-01
 -1       972 5.25018E-01
 -1       973 4.07916E-01
 -1       974 3.14025E-01
 -1       975 2.39149E-01
 -1       976 1.79745E-01
 -1       977 1.32940E-01
 -1       978 9.64267E-02
 -1       979 5.34505E+00
 -1       980 2.19136E+00
 -1       981 1.03816E+00
 -1       982 1.13330E-01
 -1       983 1.92035E-01
 -1       984 1.35783E+00
 -1       985 1.81517E+00
 -1       986 7.96055E-01
 -1       987 6.11284E-01
 -1       988 4.68889E-01
 -1       989 3.57324E-01
 -1       990 2.69864E-01
 -1       991 2.01372E-01
 -1       992 1.48238E-01
 -1       993 1.78531E-01
 -1       994 3.85911E+00
 -1       995 4.33298E+00
 -1       996 8.36224E-02
 -1       997 6.89203E-02
 -1       998 1.17711E-01
 -1       999 4.66978E+00
 -1      1000 8.55606E-02
 -1      1001 3.43955E+00
 -1      1002 1.85392E-01
 -1      1003 4.14353E+00
 -1      1004 3.43955E+00
 -1      1005 1.18508E+00
 -1      1006 2.39798E-01
 -1      1007 3.69883E+00
 -1      1008 5.34505E+00
 -1      1009 3.52172E-01
 -1      1010 6.66209E-01
 -1      1011 1.01052E-01
 -1      1012 1.26840E-01
 -1      1013 1.49164E-01
 -1      1014 6.14854E+00
 -1      1015 1.20531E-01
 -1      1016 9.04822E-02
 -1      1017 1.57527E+00
 -1      1018 1.16238E-01
 -1      1019 1.93552E-01
 -1      1020 2.46103E-01
 -1      1021 3.11334E-01
 -1      1022 4.10685E-01
 -1      1023 5.58369E-01
 -1      1024 7.54046E-01
 -1      1025 1.02977E+00
 -1      1026 1.36863E+00
 -1      1027 2.26406E+00
 -1      1028 3.46781E+00
 -1      1029 8.78902E-02
 -1      1030 2.62817E+00
 -1      1031 1.39442E+00
 -1      1032 1.04081E+00
 -1      1033 7.72022E-01
 -1      1034 5.80225E-01
 -1      1035 4.38521E-01
 -1      1036 3.31904E-01
 -1      1037 2.50969E-01
 -1      1038 1.88612E-01
 -1      1039 1.51678E-01
 -1      1040 1.02782E-01
 -1      1041 3.68528E+00
 -1      1042 1.73102E-01
 -1      1043 1.96975E+00
 -1      1044 6.43980E-01
 -1      1045 1.20531E-01
 -1      1046 1.18136E+00
 -1      1047 1.64879E+00
 -1      1048 4.89594E-01
 -1      1049 3.72169E-01
 -1      1050 2.82679E-01
 -1      1051 2.13460E-01
 -1      1052 1.76034E-01
 -1      1053 3.22261E+00
 -1      1054 3.01239E+00
 -1      1055 3.26495E+00
 -1      1056 1.10771E-01
 -1      1057 8.62590E-01
 -1      1058 1.05580E-01
 -1      1059 1.02038E-01
 -1      1060 4.91268E-01
 -1      1061 1.03444E-01
 -1      1062 1.68967E-01
 -1      1063 2.01769E-01
 -1      1064 3.48415E+00
 -1      1065 1.40901E+00
 -1      1066 1.19079E-01
 -1      1067 7.37001E-01
 -1      1068 1.05512E-01
 -1      1069 1.30764E-01
 -1      1070 2.52393E+00
 -1      1071 2.01769E-01
 -1      1072 1.00578E+00
 -1      1073 2.23881E-01
 -1      1074 2.81520E-01
 -1      1075 1.53694E-01
 -1      1076 1.20221E-01
 -1      1077 3.11334E-01
 -1      1078 3.73580E-01
 -1      1079 5.29173E-01
 -1      1080 7.36466E-01
 -1      1081 9.78670E-01
 -1      1082 1.11634E+00
 -1      1083 1.59781E+00
 -1      1084 2.50097E+00
 -1      1085 2.71953E+00
 -1      1086 1.14782E+00
 -1      1087 9.38158E-01
 -1      1088 5.95551E-01
 -1      1089 4.35105E-01
 -1      1090 3.41067E-01
 -1      1091 2.65317E-01
 -1      1092 2.05257E-01
 -1      1093 1.58351E-01
 -1      1094 2.07927E-01
 -1      1095 2.36807E-01
 -1      1096 1.64976E+00
 -1      1097 5.39060E-01
 -1      1098 2.18661E+00
 -1      1099 4.33184E-01
 -1      1100 1.15941E+00
 -1      1101 3.41067E-01
 -1      1102 2.65317E-01
 -1      1103 2.01769E-01
 -1      1104 5.80672E-01
 -1      1105 9.38158E-01
 -1      1106 1.68967E-01
 -1      1107 2.46103E-01
 -1      1108 8.81642E-01
 -1      1109 2.36807E-01
 -1      1110 1.72896E+00
 -1      1111 5.89400E-01
 -1      1112 4.11063E-01
 -1      1113 2.05902E-01
 -1      1114 7.76953E-01
 -1      1115 2.70570E-01
 -1      1116 5.80672E-01
 -1      1117 9.90831E-01
 -1      1118 9.38158E-01
 -1      1119 2.36807E-01
 -1      1120 2.71953E+00
 -1      1121 1.01981E+00
 -1      1122 1.22450E+00
 -1      1123 3.42935E-01
 -1      1124 1.31305E+01
 -1      1125 8.37700E+00
 -1      1126 2.70964E+00
 -1      1127 1.53641E+00
 -1      1128 1.15559E+00
 -1      1129 9.59956E-01
 -1      1130 8.38703E-01
 -1      1131 7.62920E-01
 -1      1132 7.35209E-01
 -1      1133 7.66161E-01
 -1      1134 8.41338E-01
 -1      1135 9.63496E-01
 -1      1136 1.16787E+00
 -1      1137 1.55066E+00
 -1      1138 2.63550E+00
 -1      1139 6.03389E+00
 -1      1140 1.13151E+01
 -1      1141 1.31305E+01
 -1      1142 8.73797E+00
 -1      1143 3.85482E+00
 -1      1144 2.74997E+00
 -1      1145 1.77801E+00
 -1      1146 1.25844E+00
 -1      1147 9.85007E-01
 -1      1148 7.91429E-01
 -1      1149 6.46012E-01
 -1      1150 5.31434E-01
 -1      1151 4.86793E-01
 -1      1152 5.16314E-01
 -1      1153 5.58799E-01
 -1      1154 6.16927E-01
 -1      1155 7.46474E-01
 -1      1156 9.26041E-01
 -1      1157 1.07372E+00
 -1      1158 1.13278E+00
 -1      1159 1.14961E+00
 -1      1160 1.16645E+00
 -1      1161 1.29735E+00
 -1      1162 1.73394E+00
 -1      1163 2.58736E+00
 -1      1164 3.33207E+00
 -1      1165 3.53017E+00
 -1      1166 3.53131E+00
 -1      1167 3.33832E+00
 -1      1168 2.59991E+00
 -1      1169 1.74533E+00
 -1      1170 1.30142E+00
 -1      1171 1.16666E+00
 -1      1172 1.13995E+00
 -1      1173 1.11324E+00
 -1      1174 1.05409E+00
 -1      1175 9.07128E-01
 -1      1176 7.36850E-01
 -1      1177 5.83005E-01
 -1      1178 4.71910E-01
 -1      1179 3.97207E-01
 -1      1180 3.27456E-01
 -1      1181 2.60955E-01
 -1      1182 2.01784E-01
 -1      1183 1.51592E-01
 -1      1184 1.14715E-01
 -1      1185 9.20559E-02
 -1      1186 7.51187E-02
 -1      1187 5.83972E-02
 -1      1188 4.12849E-02
 -1      1189 2.50699E-02
 -1      1190 1.14529E-02
 -1      1191 1.40273E+01
 -1      1192 8.72622E+00
 -1      1193 2.93456E+00
 -1      1194 2.07222E+00
 -1      1195 1.45332E+00
 -1      1196 1.10910E+00
 -1      1197 9.38715E-01
 -1      1198 8.10372E-01
 -1      1199 7.14338E-01
 -1      1200 6.43833E-01
 -1      1201 5.93260E-01
 -1      1202 5.90988E-01
 -1      1203 6.47111E-01
 -1      1204 7.16404E-01
 -1      1205 7.63083E-01
 -1      1206 7.95700E-01
 -1      1207 9.42878E-01
 -1      1208 1.17735E+00
 -1      1209 1.32790E+00
 -1      1210 1.54597E+00
 -1      1211 1.71865E+00
 -1      1212 1.92181E+00
 -1      1213 2.52692E+00
 -1      1214 3.39798E+00
 -1      1215 4.11861E+00
 -1      1216 4.37013E+00
 -1      1217 4.22800E+00
 -1      1218 3.34357E+00
 -1      1219 2.10041E+00
 -1      1220 1.44971E+00
 -1      1221 1.41442E+00
 -1      1222 1.52898E+00
 -1      1223 1.52326E+00
 -1      1224 1.43311E+00
 -1      1225 1.24230E+00
 -1      1226 1.03697E+00
 -1      1227 8.39627E-01
 -1      1228 6.52722E-01
 -1      1229 4.89497E-01
 -1      1230 3.66712E-01
 -1      1231 2.81370E-01
 -1      1232 2.13283E-01
 -1      1233 1.57691E-01
 -1      1234 1.13469E-01
 -1      1235 7.89559E-02
 -1      1236 5.65212E-02
 -1      1237 4.39873E-02
 -1      1238 3.27124E-02
 -1      1239 2.15055E-02
 -1      1240 1.04847E-02
 -1      1241 4.89769E-03
 -1      1242 5.51784E-03
 -1      1243 5.79246E-03
 -1      1244 5.22906E-03
 -1      1245 3.40521E-03
 -1      1246 2.87710E-03
 -1      1247 4.36131E-03
 -1      1248 5.36696E-03
 -1      1249 5.62075E-03
 -1      1250 5.36246E-03
 -1      1251 4.33596E-03
 -1      1252 2.83177E-03
 -1      1253 3.37437E-03
 -1      1254 5.09062E-03
 -1      1255 5.52828E-03
 -1      1256 5.70833E-03
 -1      1257 5.57904E-03
 -1      1258 2.51637E+01
 -1      1259 3.71143E+01
 -1      1260 4.93422E+01
 -1      1261 3.61868E+01
 -1      1262 1.79058E+01
 -1      1263 1.31440E+01
 -1      1264 1.35077E+01
 -1      1265 1.31315E+01
 -1      1266 1.27554E+01
 -1      1267 1.32676E+01
 -1      1268 2.34922E+01
 -1      1269 3.32046E+01
 -1      1270 3.01428E+01
 -1      1271 2.57690E+01
 -1      1272 2.47167E+01
 -1      1273 2.65858E+01
 -1      1274 3.07577E+01
 -1      1275 3.30745E+01
 -1      1276 2.28871E+01
 -1      1277 1.23840E+01
 -1      1278 1.18825E+01
 -1      1279 1.21710E+01
 -1      1280 1.23998E+01
 -1      1281 1.22484E+01
 -1      1282 1.18629E+01
 -1      1283 1.72306E+01
 -1      1284 3.55845E+01
 -1      1285 4.83364E+01
 -1      1286 3.68887E+01
 -1      1287 2.54409E+01
 -1      1288 1.31305E+01
 -1      1289 4.82329E+00
 -1      1290 9.57684E+00
 -1      1291 2.03222E+00
 -1      1292 2.94603E+00
 -1      1293 4.14588E+00
 -1      1294 1.38719E+00
 -1      1295 1.64660E+00
 -1      1296 1.88300E+00
 -1      1297 1.09130E+00
 -1      1298 1.21271E+00
 -1      1299 1.32290E+00
 -1      1300 9.23961E-01
 -1      1301 9.98189E-01
 -1      1302 1.05530E+00
 -1      1303 8.20885E-01
 -1      1304 8.67909E-01
 -1      1305 9.06143E-01
 -1      1306 7.56263E-01
 -1      1307 7.85021E-01
 -1      1308 8.14227E-01
 -1      1309 7.36255E-01
 -1      1310 7.35209E-01
 -1      1311 7.57309E-01
 -1      1312 7.89002E-01
 -1      1313 7.59096E-01
 -1      1314 7.59096E-01
 -1      1315 8.69767E-01
 -1      1316 8.24495E-01
 -1      1317 8.17431E-01
 -1      1318 1.00504E+00
 -1      1319 9.28151E-01
 -1      1320 9.11308E-01
 -1      1321 1.22912E+00
 -1      1322 1.10164E+00
 -1      1323 1.06629E+00
 -1      1324 1.66153E+00
 -1      1325 1.40621E+00
 -1      1326 1.33998E+00
 -1      1327 2.85564E+00
 -1      1328 2.02612E+00
 -1      1329 1.88166E+00
 -1      1330 6.25070E+00
 -1      1331 3.68183E+00
 -1      1332 3.07245E+00
 -1      1333 1.40273E+01
 -1      1334 1.13151E+01
 -1      1335 8.96299E+00
 -1      1336 1.40273E+01
 -1      1337 8.73797E+00
 -1      1338 4.34539E+00
 -1      1339 3.85482E+00
 -1      1340 3.36426E+00
 -1      1341 3.85482E+00
 -1      1342 2.74997E+00
 -1      1343 2.13568E+00
 -1      1344 2.74997E+00
 -1      1345 1.79836E+00
 -1      1346 1.44069E+00
 -1      1347 1.79836E+00
 -1      1348 1.25844E+00
 -1      1349 1.09655E+00
 -1      1350 1.27879E+00
 -1      1351 9.85007E-01
 -1      1352 8.73466E-01
 -1      1353 9.85007E-01
 -1      1354 7.91429E-01
 -1      1355 7.09392E-01
 -1      1356 7.91429E-01
 -1      1357 6.46012E-01
 -1      1358 5.82633E-01
 -1      1359 6.46012E-01
 -1      1360 5.31434E-01
 -1      1361 4.80235E-01
 -1      1362 5.31434E-01
 -1      1363 4.64753E-01
 -1      1364 4.71311E-01
 -1      1365 4.64753E-01
 -1      1366 4.93351E-01
 -1      1367 5.16314E-01
 -1      1368 4.71311E-01
 -1      1369 5.39277E-01
 -1      1370 5.58799E-01
 -1      1371 5.16314E-01
 -1      1372 5.78321E-01
 -1      1373 6.16927E-01
 -1      1374 5.58799E-01
 -1      1375 6.70320E-01
 -1      1376 7.61259E-01
 -1      1377 6.31713E-01
 -1      1378 8.37413E-01
 -1      1379 9.26041E-01
 -1      1380 7.61259E-01
 -1      1381 1.01467E+00
 -1      1382 1.07372E+00
 -1      1383 9.26041E-01
 -1      1384 1.13278E+00
 -1      1385 1.13278E+00
 -1      1386 1.07372E+00
 -1      1387 1.12483E+00
 -1      1388 1.14167E+00
 -1      1389 1.12483E+00
 -1      1390 1.16645E+00
 -1      1391 1.16645E+00
 -1      1392 1.14167E+00
 -1      1393 1.12132E+00
 -1      1394 1.25222E+00
 -1      1395 1.12132E+00
 -1      1396 1.42825E+00
 -1      1397 1.73394E+00
 -1      1398 1.25222E+00
 -1      1399 2.04324E+00
 -1      1400 2.59097E+00
 -1      1401 1.73755E+00
 -1      1402 3.13509E+00
 -1      1403 3.33207E+00
 -1      1404 2.59097E+00
 -1      1405 3.52904E+00
 -1      1406 3.53017E+00
 -1      1407 3.33207E+00
 -1      1408 3.53131E+00
 -1      1409 3.53131E+00
 -1      1410 3.53017E+00
 -1      1411 3.33832E+00
 -1      1412 3.14534E+00
 -1      1413 3.33832E+00
 -1      1414 2.60057E+00
 -1      1415 2.05514E+00
 -1      1416 2.60057E+00
 -1      1417 1.74533E+00
 -1      1418 1.43617E+00
 -1      1419 1.74598E+00
 -1      1420 1.25440E+00
 -1      1421 1.11965E+00
 -1      1422 1.25440E+00
 -1      1423 1.16666E+00
 -1      1424 1.16666E+00
 -1      1425 1.11965E+00
 -1      1426 1.13241E+00
 -1      1427 1.10570E+00
 -1      1428 1.13241E+00
 -1      1429 1.11324E+00
 -1      1430 1.11324E+00
 -1      1431 1.10570E+00
 -1      1432 1.05409E+00
 -1      1433 9.94948E-01
 -1      1434 1.05409E+00
 -1      1435 9.07128E-01
 -1      1436 8.19308E-01
 -1      1437 9.07128E-01
 -1      1438 7.55417E-01
 -1      1439 6.72960E-01
 -1      1440 7.55417E-01
 -1      1441 6.25998E-01
 -1      1442 5.54610E-01
 -1      1443 6.44565E-01
 -1      1444 5.00624E-01
 -1      1445 4.60917E-01
 -1      1446 5.43617E-01
 -1      1447 4.07912E-01
 -1      1448 3.72917E-01
 -1      1449 4.36627E-01
 -1      1450 3.27456E-01
 -1      1451 2.92700E-01
 -1      1452 3.38161E-01
 -1      1453 2.60955E-01
 -1      1454 2.29211E-01
 -1      1455 2.60955E-01
 -1      1456 2.04308E-01
 -1      1457 1.76881E-01
 -1      1458 2.04308E-01
 -1      1459 1.55975E-01
 -1      1460 1.33211E-01
 -1      1461 1.58500E-01
 -1      1462 1.15780E-01
 -1      1463 1.01668E-01
 -1      1464 1.20164E-01
 -1      1465 9.20559E-02
 -1      1466 8.35089E-02
 -1      1467 9.31211E-02
 -1      1468 7.51187E-02
 -1      1469 6.67285E-02
 -1      1470 7.51187E-02
 -1      1471 5.83972E-02
 -1      1472 5.00659E-02
 -1      1473 5.83972E-02
 -1      1474 4.12849E-02
 -1      1475 3.25038E-02
 -1      1476 4.12849E-02
 -1      1477 2.57059E-02
 -1      1478 1.82720E-02
 -1      1479 2.57059E-02
 -1      1480 1.17622E-02
 -1      1481 1.23982E-02
 -1      1482 3.42510E+00
 -1      1483 8.72622E+00
 -1      1484 8.72622E+00
 -1      1485 2.44403E+00
 -1      1486 2.93456E+00
 -1      1487 2.93456E+00
 -1      1488 1.70041E+00
 -1      1489 2.07222E+00
 -1      1490 2.07222E+00
 -1      1491 1.20624E+00
 -1      1492 1.45332E+00
 -1      1493 1.45332E+00
 -1      1494 1.01197E+00
 -1      1495 1.10910E+00
 -1      1496 1.10910E+00
 -1      1497 8.65459E-01
 -1      1498 9.38715E-01
 -1      1499 9.38715E-01
 -1      1500 7.55285E-01
 -1      1501 8.10372E-01
 -1      1502 8.10372E-01
 -1      1503 6.73392E-01
 -1      1504 7.14338E-01
 -1      1505 7.14338E-01
 -1      1506 6.14274E-01
 -1      1507 6.43833E-01
 -1      1508 6.43833E-01
 -1      1509 5.72245E-01
 -1      1510 5.93260E-01
 -1      1511 5.93260E-01
 -1      1512 5.74653E-01
 -1      1513 5.55910E-01
 -1      1514 5.55910E-01
 -1      1515 6.47111E-01
 -1      1516 6.09731E-01
 -1      1517 5.74653E-01
 -1      1518 7.16404E-01
 -1      1519 6.84492E-01
 -1      1520 6.47111E-01
 -1      1521 7.63083E-01
 -1      1522 7.48317E-01
 -1      1523 7.16404E-01
 -1      1524 7.95700E-01
 -1      1525 7.77849E-01
 -1      1526 7.63083E-01
 -1      1527 9.88266E-01
 -1      1528 8.58940E-01
 -1      1529 8.41088E-01
 -1      1530 1.17735E+00
 -1      1531 1.07220E+00
 -1      1532 9.88266E-01
 -1      1533 1.32790E+00
 -1      1534 1.28249E+00
 -1      1535 1.17735E+00
 -1      1536 1.54597E+00
 -1      1537 1.37330E+00
 -1      1538 1.32790E+00
 -1      1539 1.71865E+00
 -1      1540 1.71865E+00
 -1      1541 1.54597E+00
 -1      1542 1.88349E+00
 -1      1543 1.68033E+00
 -1      1544 1.68033E+00
 -1      1545 2.52692E+00
 -1      1546 2.12497E+00
 -1      1547 1.88349E+00
 -1      1548 3.39798E+00
 -1      1549 2.92887E+00
 -1      1550 2.52692E+00
 -1      1551 4.11861E+00
 -1      1552 3.86710E+00
 -1      1553 3.39798E+00
 -1      1554 4.37013E+00
 -1      1555 4.37013E+00
 -1      1556 4.11861E+00
 -1      1557 4.08587E+00
 -1      1558 4.22800E+00
 -1      1559 4.22800E+00
 -1      1560 2.60127E+00
 -1      1561 3.34357E+00
 -1      1562 3.34357E+00
 -1      1563 1.59956E+00
 -1      1564 2.10041E+00
 -1      1565 2.10041E+00
 -1      1566 1.24591E+00
 -1      1567 1.39577E+00
 -1      1568 1.39577E+00
 -1      1569 1.41442E+00
 -1      1570 1.29985E+00
 -1      1571 1.24591E+00
 -1      1572 1.52898E+00
 -1      1573 1.52898E+00
 -1      1574 1.41442E+00
 -1      1575 1.51755E+00
 -1      1576 1.52326E+00
 -1      1577 1.52326E+00
 -1      1578 1.34867E+00
 -1      1579 1.43311E+00
 -1      1580 1.43311E+00
 -1      1581 1.13593E+00
 -1      1582 1.24230E+00
 -1      1583 1.24230E+00
 -1      1584 9.40711E-01
 -1      1585 1.03967E+00
 -1      1586 1.03967E+00
 -1      1587 7.54397E-01
 -1      1588 8.52779E-01
 -1      1589 8.55481E-01
 -1      1590 5.82461E-01
 -1      1591 6.70985E-01
 -1      1592 6.84136E-01
 -1      1593 4.34609E-01
 -1      1594 5.09311E-01
 -1      1595 5.27573E-01
 -1      1596 3.25738E-01
 -1      1597 3.73820E-01
 -1      1598 3.93635E-01
 -1      1599 2.44110E-01
 -1      1600 2.81370E-01
 -1      1601 2.88478E-01
 -1      1602 1.82456E-01
 -1      1603 2.13283E-01
 -1      1604 2.13283E-01
 -1      1605 1.33124E-01
 -1      1606 1.57889E-01
 -1      1607 1.57889E-01
 -1      1608 9.54297E-02
 -1      1609 1.14886E-01
 -1      1610 1.15084E-01
 -1      1611 6.60649E-02
 -1      1612 8.11219E-02
 -1      1613 8.25388E-02
 -1      1614 4.91435E-02
 -1      1615 5.65212E-02
 -1      1616 5.86872E-02
 -1      1617 3.88311E-02
 -1      1618 4.39873E-02
 -1      1619 4.39873E-02
 -1      1620 2.65937E-02
 -1      1621 3.27124E-02
 -1      1622 3.27124E-02
 -1      1623 1.64172E-02
 -1      1624 2.15055E-02
 -1      1625 2.15055E-02
 -1      1626 1.08302E-02
 -1      1627 7.39024E-03
 -1      1628 7.11562E-03
 -1      1629 8.15364E-03
 -1      1630 8.15364E-03
 -1      1631 9.75142E-03
 -1      1632 7.59024E-03
 -1      1633 8.15364E-03
 -1      1634 1.05148E-02
 -1      1635 4.71204E-03
 -1      1636 5.97250E-03
 -1      1637 8.89708E-03
 -1      1638 5.49161E-03
 -1      1639 4.75926E-03
 -1      1640 7.32655E-03
 -1      1641 7.84363E-03
 -1      1642 7.09176E-03
 -1      1643 8.97392E-03
 -1      1644 8.75980E-03
 -1      1645 8.50601E-03
 -1      1646 1.12365E-02
 -1      1647 8.75980E-03
 -1      1648 8.75980E-03
 -1      1649 1.18988E-02
 -1      1650 8.49246E-03
 -1      1651 8.75074E-03
 -1      1652 1.18898E-02
 -1      1653 7.02154E-03
 -1      1654 7.78976E-03
 -1      1655 1.11780E-02
 -1      1656 4.74350E-03
 -1      1657 5.47948E-03
 -1      1658 8.93328E-03
 -1      1659 5.86972E-03
 -1      1660 4.59113E-03
 -1      1661 7.23885E-03
 -1      1662 8.08314E-03
 -1      1663 7.64548E-03
 -1      1664 8.86224E-03
 -1      1665 8.08314E-03
 -1      1666 8.08314E-03
 -1      1667 1.06380E-02
 -1      1668 8.18788E-03
 -1      1669 8.00783E-03
 -1      1670 1.05627E-02
 -1      1671 1.46977E-02
 -1      1672 2.75299E+01
 -1      1673 2.78072E+01
 -1      1674 3.99792E+01
 -1      1675 2.77513E+01
 -1      1676 4.93422E+01
 -1      1677 4.93422E+01
 -1      1678 2.42222E+01
 -1      1679 3.73776E+01
 -1      1680 1.22902E+01
 -1      1681 1.74157E+01
 -1      1682 1.31440E+01
 -1      1683 1.27803E+01
 -1      1684 1.35077E+01
 -1      1685 1.35077E+01
 -1      1686 1.23561E+01
 -1      1687 1.27322E+01
 -1      1688 1.27554E+01
 -1      1689 1.27554E+01
 -1      1690 1.26883E+01
 -1      1691 1.21761E+01
 -1      1692 2.34922E+01
 -1      1693 1.37798E+01
 -1      1694 3.32046E+01
 -1      1695 3.32046E+01
 -1      1696 2.97317E+01
 -1      1697 3.27934E+01
 -1      1698 2.56064E+01
 -1      1699 2.69185E+01
 -1      1700 2.60171E+01
 -1      1701 2.57573E+01
 -1      1702 2.76265E+01
 -1      1703 2.60171E+01
 -1      1704 3.33201E+01
 -1      1705 3.07577E+01
 -1      1706 3.30745E+01
 -1      1707 3.33201E+01
 -1      1708 1.29454E+01
 -1      1709 2.28871E+01
 -1      1710 1.13006E+01
 -1      1711 1.18620E+01
 -1      1712 1.18825E+01
 -1      1713 1.18227E+01
 -1      1714 1.21710E+01
 -1      1715 1.19423E+01
 -1      1716 1.23998E+01
 -1      1717 1.23998E+01
 -1      1718 1.20971E+01
 -1      1719 1.22484E+01
 -1      1720 1.15777E+01
 -1      1721 1.18120E+01
 -1      1722 1.72306E+01
 -1      1723 1.16286E+01
 -1      1724 3.65539E+01
 -1      1725 2.38019E+01
 -1      1726 4.83364E+01
 -1      1727 4.83364E+01
 -1      1728 2.74229E+01
 -1      1729 3.88706E+01
 -1      1730 2.78072E+01
 -1      1731 2.78072E+01
 -1      1732 1.86065E+01
 -1      1733 3.73776E+01
 -1      1734 1.08302E-02
 -1      1735 1.27026E-02
 -1      1736 3.03948E+01
 -1      1737 3.99792E+01
 -1      1738 3.01734E+01
 -1      1739 1.22902E+01
 -1      1740 1.31440E+01
 -1      1741 1.27322E+01
 -1      1742 1.23561E+01
 -1      1743 1.21761E+01
 -1      1744 1.26883E+01
 -1      1745 2.34922E+01
 -1      1746 3.27934E+01
 -1      1747 2.95691E+01
 -1      1748 2.69068E+01
 -1      1749 2.70577E+01
 -1      1750 3.01889E+01
 -1      1751 3.33201E+01
 -1      1752 2.31327E+01
 -1      1753 1.18620E+01
 -1      1754 1.13006E+01
 -1      1755 1.18825E+01
 -1      1756 1.21710E+01
 -1      1757 1.22484E+01
 -1      1758 1.18120E+01
 -1      1759 1.15777E+01
 -1      1760 1.82000E+01
 -1      1761 3.65539E+01
 -1      1762 3.88706E+01
 -1      1763 2.97891E+01
 -1      1764 9.57684E+00
 -1      1765 1.26222E+00
 -1      1766 1.64783E+00
 -1      1767 2.35488E+00
 -1      1768 4.23215E+00
 -1      1769 1.73410E+00
 -1      1770 8.74538E-01
 -1      1771 9.67648E-01
 -1      1772 7.67319E-01
 -1      1773 8.23371E-01
 -1      1774 7.35715E-01
 -1      1775 6.98619E-01
 -1      1776 7.34484E-01
 -1      1777 6.51711E-01
 -1      1778 6.54268E-01
 -1      1779 6.75322E-01
 -1      1780 5.95578E-01
 -1      1781 6.78775E-01
 -1      1782 6.55934E-01
 -1      1783 5.73947E-01
 -1      1784 7.37278E-01
 -1      1785 7.01785E-01
 -1      1786 5.98622E-01
 -1      1787 8.30264E-01
 -1      1788 7.71879E-01
 -1      1789 6.56233E-01
 -1      1790 9.75436E-01
 -1      1791 8.78836E-01
 -1      1792 7.39408E-01
 -1      1793 1.22071E+00
 -1      1794 1.04362E+00
 -1      1795 8.56161E-01
 -1      1796 1.69211E+00
 -1      1797 1.32752E+00
 -1      1798 1.03115E+00
 -1      1799 2.59982E+00
 -1      1800 1.77363E+00
 -1      1801 1.21948E+00
 -1      1802 8.10707E+00
 -1      1803 3.04271E+00
 -1      1804 1.74389E+00
 -1      1805 2.80594E+00
 -1      1806 5.18427E+00
 -1      1807 2.16813E+00
 -1      1808 2.65867E+00
 -1      1809 2.03951E+00
 -1      1810 3.39328E+00
 -1      1811 2.55134E+00
 -1      1812 1.93706E+00
 -1      1813 1.70328E+00
 -1      1814 1.36596E+00
 -1      1815 1.50466E+00
 -1      1816 1.18182E+00
 -1      1817 9.99573E-01
 -1      1818 1.08674E+00
 -1      1819 8.97708E-01
 -1      1820 7.86168E-01
 -1      1821 8.00734E-01
 -1      1822 7.34374E-01
 -1      1823 6.52337E-01
 -1      1824 6.47076E-01
 -1      1825 6.04194E-01
 -1      1826 5.40815E-01
 -1      1827 5.47139E-01
 -1      1828 4.95729E-01
 -1      1829 4.44530E-01
 -1      1830 4.53910E-01
 -1      1831 4.09590E-01
 -1      1832 3.94109E-01
 -1      1833 3.73885E-01
 -1      1834 4.15219E-01
 -1      1835 4.37259E-01
 -1      1836 3.60057E-01
 -1      1837 4.57616E-01
 -1      1838 4.80579E-01
 -1      1839 4.01525E-01
 -1      1840 5.09676E-01
 -1      1841 5.29198E-01
 -1      1842 4.50978E-01
 -1      1843 5.81489E-01
 -1      1844 6.34881E-01
 -1      1845 5.32366E-01
 -1      1846 6.83953E-01
 -1      1847 7.60107E-01
 -1      1848 6.33729E-01
 -1      1849 8.14392E-01
 -1      1850 9.03020E-01
 -1      1851 7.37086E-01
 -1      1852 9.33979E-01
 -1      1853 9.93034E-01
 -1      1854 8.22331E-01
 -1      1855 9.73426E-01
 -1      1856 9.65480E-01
 -1      1857 8.33682E-01
 -1      1858 8.66798E-01
 -1      1859 8.91581E-01
 -1      1860 7.15392E-01
 -1      1861 9.03014E-01
 -1      1862 8.57878E-01
 -1      1863 6.28143E-01
 -1      1864 9.72745E-01
 -1      1865 1.14878E+00
 -1      1866 7.54444E-01
 -1      1867 1.42494E+00
 -1      1868 1.73424E+00
 -1      1869 1.14547E+00
 -1      1870 1.95842E+00
 -1      1871 2.50254E+00
 -1      1872 1.64581E+00
 -1      1873 2.65717E+00
 -1      1874 2.85414E+00
 -1      1875 2.02462E+00
 -1      1876 2.78850E+00
 -1      1877 2.78964E+00
 -1      1878 2.11361E+00
 -1      1879 2.85755E+00
 -1      1880 2.66457E+00
 -1      1881 2.11588E+00
 -1      1882 2.51186E+00
 -1      1883 1.96708E+00
 -1      1884 2.03109E+00
 -1      1885 1.74234E+00
 -1      1886 1.43253E+00
 -1      1887 1.65363E+00
 -1      1888 1.15545E+00
 -1      1889 9.73679E-01
 -1      1890 1.15181E+00
 -1      1891 8.52987E-01
 -1      1892 9.00002E-01
 -1      1893 7.54031E-01
 -1      1894 8.96611E-01
 -1      1895 8.62358E-01
 -1      1896 6.29949E-01
 -1      1897 9.53084E-01
 -1      1898 9.60625E-01
 -1      1899 7.17283E-01
 -1      1900 9.82011E-01
 -1      1901 9.22865E-01
 -1      1902 8.29395E-01
 -1      1903 8.94638E-01
 -1      1904 8.06818E-01
 -1      1905 8.22554E-01
 -1      1906 7.63818E-01
 -1      1907 6.99928E-01
 -1      1908 7.51328E-01
 -1      1909 6.61550E-01
 -1      1910 6.14588E-01
 -1      1911 6.69950E-01
 -1      1912 5.71480E-01
 -1      1913 5.17494E-01
 -1      1914 5.88464E-01
 -1      1915 4.69698E-01
 -1      1916 4.16694E-01
 -1      1917 4.97561E-01
 -1      1918 3.70277E-01
 -1      1919 3.24816E-01
 -1      1920 4.03349E-01
 -1      1921 2.83204E-01
 -1      1922 2.51460E-01
 -1      1923 3.15321E-01
 -1      1924 2.16175E-01
 -1      1925 1.91272E-01
 -1      1926 2.38424E-01
 -1      1927 1.62611E-01
 -1      1928 1.41705E-01
 -1      1929 1.74477E-01
 -1      1930 1.20164E-01
 -1      1931 1.02733E-01
 -1      1932 1.24274E-01
 -1      1933 8.86033E-02
 -1      1934 7.89910E-02
 -1      1935 8.86033E-02
 -1      1936 6.86771E-02
 -1      1937 6.02869E-02
 -1      1938 6.41593E-02
 -1      1939 5.27362E-02
 -1      1940 4.44049E-02
 -1      1941 4.62946E-02
 -1      1942 3.88462E-02
 -1      1943 3.00651E-02
 -1      1944 3.31852E-02
 -1      1945 2.52036E-02
 -1      1946 1.84057E-02
 -1      1947 1.41954E-02
 -1      1948 2.27649E-02
 -1      1949 1.42405E+00
 -1      1950 1.79586E+00
 -1      1951 1.51997E+00
 -1      1952 1.04549E+00
 -1      1953 1.29258E+00
 -1      1954 1.01622E+00
 -1      1955 8.48291E-01
 -1      1956 9.45423E-01
 -1      1957 7.84678E-01
 -1      1958 7.16042E-01
 -1      1959 7.89299E-01
 -1      1960 6.25618E-01
 -1      1961 6.41409E-01
 -1      1962 6.96495E-01
 -1      1963 5.47079E-01
 -1      1964 5.81226E-01
 -1      1965 6.22172E-01
 -1      1966 5.08296E-01
 -1      1967 5.34218E-01
 -1      1968 5.63777E-01
 -1      1969 4.71611E-01
 -1      1970 4.97753E-01
 -1      1971 5.18767E-01
 -1      1972 4.38711E-01
 -1      1973 4.97880E-01
 -1      1974 5.14216E-01
 -1      1975 4.39723E-01
 -1      1976 5.88002E-01
 -1      1977 5.52924E-01
 -1      1978 5.11229E-01
 -1      1979 7.08765E-01
 -1      1980 6.71385E-01
 -1      1981 6.49656E-01
 -1      1982 8.17271E-01
 -1      1983 7.85358E-01
 -1      1984 8.09632E-01
 -1      1985 8.96912E-01
 -1      1986 8.82146E-01
 -1      1987 9.51100E-01
 -1      1988 1.00837E+00
 -1      1989 9.45127E-01
 -1      1990 1.06419E+00
 -1      1991 1.09230E+00
 -1      1992 1.00837E+00
 -1      1993 1.11241E+00
 -1      1994 1.18622E+00
 -1      1995 1.08107E+00
 -1      1996 1.10117E+00
 -1      1997 1.12342E+00
 -1      1998 1.07802E+00
 -1      1999 9.81742E-01
 -1      2000 1.24017E+00
 -1      2001 1.06750E+00
 -1      2002 8.17620E-01
 -1      2003 1.46653E+00
 -1      2004 1.50485E+00
 -1      2005 1.02638E+00
 -1      2006 2.06965E+00
 -1      2007 1.82817E+00
 -1      2008 1.65270E+00
 -1      2009 2.57574E+00
 -1      2010 2.17379E+00
 -1      2011 2.11847E+00
 -1      2012 3.06851E+00
 -1      2013 2.59940E+00
 -1      2014 2.24626E+00
 -1      2015 3.36470E+00
 -1      2016 3.11318E+00
 -1      2017 2.31459E+00
 -1      2018 3.28351E+00
 -1      2019 3.42564E+00
 -1      2020 2.42021E+00
 -1      2021 2.22912E+00
 -1      2022 2.97142E+00
 -1      2023 2.16906E+00
 -1      2024 1.30791E+00
 -1      2025 1.80876E+00
 -1      2026 1.43662E+00
 -1      2027 9.85198E-01
 -1      2028 1.18899E+00
 -1      2029 8.97341E-01
 -1      2030 1.16137E+00
 -1      2031 1.10744E+00
 -1      2032 9.00659E-01
 -1      2033 1.32722E+00
 -1      2034 1.21266E+00
 -1      2035 1.07418E+00
 -1      2036 1.33257E+00
 -1      2037 1.33829E+00
 -1      2038 1.13653E+00
 -1      2039 1.21987E+00
 -1      2040 1.30431E+00
 -1      2041 1.11934E+00
 -1      2042 1.05731E+00
 -1      2043 1.16368E+00
 -1      2044 1.03488E+00
 -1      2045 9.00831E-01
 -1      2046 9.97090E-01
 -1      2047 9.18468E-01
 -1      2048 7.41102E-01
 -1      2049 8.29035E-01
 -1      2050 7.86452E-01
 -1      2051 5.86070E-01
 -1      2052 6.69483E-01
 -1      2053 6.43036E-01
 -1      2054 4.48024E-01
 -1      2055 5.21174E-01
 -1      2056 5.06521E-01
 -1      2057 3.31951E-01
 -1      2058 3.92740E-01
 -1      2059 3.86341E-01
 -1      2060 2.42519E-01
 -1      2061 2.86887E-01
 -1      2062 2.85993E-01
 -1      2063 1.80708E-01
 -1      2064 2.11534E-01
 -1      2065 2.09944E-01
 -1      2066 1.33321E-01
 -1      2067 1.57889E-01
 -1      2068 1.56140E-01
 -1      2069 9.68466E-02
 -1      2070 1.15084E-01
 -1      2071 1.15084E-01
 -1      2072 6.82309E-02
 -1      2073 8.25388E-02
 -1      2074 8.25388E-02
 -1      2075 4.75967E-02
 -1      2076 5.71404E-02
 -1      2077 5.71404E-02
 -1      2078 3.44657E-02
 -1      2079 3.96219E-02
 -1      2080 3.80751E-02
 -1      2081 2.27965E-02
 -1      2082 2.89152E-02
 -1      2083 2.45499E-02
 -1      2084 1.32915E-02
 -1      2085 1.83797E-02
 -1      2086 1.45825E-02
 -1      2087 9.57689E-03
 -1      2088 1.01046E-02
 -1      2089 1.17223E-02
 -1      2090 1.35657E-02
 -1      2091 1.35657E-02
 -1      2092 1.47731E-02
 -1      2093 1.35657E-02
 -1      2094 1.28023E-02
 -1      2095 1.33911E-02
 -1      2096 1.66165E-02
 -1      2097 9.01963E-03
 -1      2098 8.97241E-03
 -1      2099 1.17976E-02
 -1      2100 1.31462E-02
 -1      2101 1.15460E-02
 -1      2102 1.31919E-02
 -1      2103 1.50467E-02
 -1      2104 1.43843E-02
 -1      2105 1.69564E-02
 -1      2106 1.50467E-02
 -1      2107 1.50467E-02
 -1      2108 1.81945E-02
 -1      2109 1.49666E-02
 -1      2110 1.49757E-02
 -1      2111 1.81235E-02
 -1      2112 1.42639E-02
 -1      2113 1.49666E-02
 -1      2114 1.80525E-02
 -1      2115 1.15105E-02
 -1      2116 1.30526E-02
 -1      2117 1.68412E-02
 -1      2118 8.82707E-03
 -1      2119 8.97945E-03
 -1      2120 1.30987E-02
 -1      2121 1.17754E-02
 -1      2122 9.99964E-03
 -1      2123 1.17402E-02
 -1      2124 1.34100E-02
 -1      2125 1.34100E-02
 -1      2126 1.45474E-02
 -1      2127 3.99792E+01
 -1      2128 3.06162E+01
 -1      2129 3.11480E+01
 -1      2130 3.11480E+01
 -1      2131 3.13694E+01
 -1      2132 3.11480E+01
 -1      2133 2.16259E+01
 -1      2134 3.35904E+01
 -1      2135 2.42275E+01
 -1      2136 1.11249E+01
 -1      2137 1.79314E+01
 -1      2138 1.02614E+00
 -1      2139 1.20062E+00
 -1      2140 9.65453E-01
 -1      2141 8.45370E-01
 -1      2142 1.09435E+01
 -1      2143 1.05798E+01
 -1      2144 1.13749E+01
 -1      2145 1.21504E+01
 -1      2146 1.18376E+01
 -1      2147 1.14382E+01
 -1      2148 1.08564E+01
 -1      2149 1.02187E+01
 -1      2150 1.07980E+01
 -1      2151 1.07145E+01
 -1      2152 9.62299E+00
 -1      2153 2.30880E+01
 -1      2154 1.33757E+01
 -1      2155 2.71867E+01
 -1      2156 2.75979E+01
 -1      2157 2.62641E+01
 -1      2158 2.90772E+01
 -1      2159 3.24340E+01
 -1      2160 3.22831E+01
 -1      2161 3.24340E+01
 -1      2162 3.24340E+01
 -1      2163 3.06889E+01
 -1      2164 2.75577E+01
 -1      2165 2.78533E+01
 -1      2166 2.78533E+01
 -1      2167 1.27496E+01
 -1      2168 2.29369E+01
 -1      2169 8.86050E+00
 -1      2170 9.94391E+00
 -1      2171 1.00048E+01
 -1      2172 9.48277E+00
 -1      2173 1.11822E+01
 -1      2174 1.11223E+01
 -1      2175 1.14693E+01
 -1      2176 1.12406E+01
 -1      2177 1.04804E+01
 -1      2178 1.10075E+01
 -1      2179 1.11588E+01
 -1      2180 1.01199E+01
 -1      2181 1.04051E+01
 -1      2182 9.05552E+00
 -1      2183 9.00459E+00
 -1      2184 1.75538E+01
 -1      2185 1.09825E+01
 -1      2186 3.27402E+01
 -1      2187 2.09576E+01
 -1      2188 2.94048E+01
 -1      2189 3.88706E+01
 -1      2190 3.05270E+01
 -1      2191 3.01427E+01
 -1      2192 9.85792E+00
 -1      2193 9.36780E+00
 -1      2194 8.69265E+00
 -1      2195 1.41442E+01
 -1      2196 2.90271E+00
 -1      2197 7.65745E+00
 -1      2198 2.08979E+00
 -1      2199 3.13694E+01
 -1      2200 3.21226E+01
 -1      2201 1.33347E-02
 -1      2202 3.15016E+01
 -1      2203 3.01427E+01
 -1      2204 2.32744E+01
 -1      2205 1.37402E+01
 -1      2206 8.40936E+00
 -1      2207 7.59769E+00
 -1      2208 1.02284E+01
 -1      2209 9.30450E+00
 -1      2210 7.56472E+00
 -1      2211 9.74811E+00
 -1      2212 1.74701E+01
 -1      2213 2.52221E+01
 -1      2214 3.29340E+01
 -1      2215 3.78103E+01
 -1      2216 3.17913E+01
 -1      2217 2.38817E+01
 -1      2218 1.74814E+01
 -1      2219 1.03103E+01
 -1      2220 9.88015E+00
 -1      2221 1.13239E+01
 -1      2222 8.75979E+00
 -1      2223 9.96668E+00
 -1      2224 8.24485E+00
 -1      2225 9.31546E+00
 -1      2226 1.09891E+00
 -1      2227 1.47118E+00
 -1      2228 5.47778E-01
 -1      2229 5.80614E-01
 -1      2230 5.96509E-01
 -1      2231 6.47677E-01
 -1      2232 4.92576E-01
 -1      2233 4.95525E-01
 -1      2234 4.93859E-01
 -1      2235 5.32931E-01
 -1      2236 5.09921E-01
 -1      2237 4.29834E-01
 -1      2238 5.84089E-01
 -1      2239 5.49487E-01
 -1      2240 4.60786E-01
 -1      2241 6.46500E-01
 -1      2242 5.97927E-01
 -1      2243 4.91181E-01
 -1      2244 7.14680E-01
 -1      2245 6.46500E-01
 -1      2246 5.05019E-01
 -1      2247 8.65930E-01
 -1      2248 7.59120E-01
 -1      2249 5.49459E-01
 -1      2250 8.84747E-01
 -1      2251 1.01622E+00
 -1      2252 9.67433E-01
 -1      2253 1.25738E+00
 -1      2254 1.02361E+00
 -1      2255 6.61052E+00
 -1      2256 5.88862E+00
 -1      2257 9.78196E-01
 -1      2258 7.94053E-01
 -1      2259 7.30923E-01
 -1      2260 7.29491E-01
 -1      2261 6.27626E-01
 -1      2262 6.20945E-01
 -1      2263 5.61242E-01
 -1      2264 5.09448E-01
 -1      2265 4.89998E-01
 -1      2266 4.85734E-01
 -1      2267 4.37590E-01
 -1      2268 3.99899E-01
 -1      2269 4.05832E-01
 -1      2270 3.60746E-01
 -1      2271 3.44426E-01
 -1      2272 3.24100E-01
 -1      2273 2.89160E-01
 -1      2274 2.76021E-01
 -1      2275 2.95797E-01
 -1      2276 3.16908E-01
 -1      2277 2.46011E-01
 -1      2278 3.35213E-01
 -1      2279 3.55570E-01
 -1      2280 2.70954E-01
 -1      2281 4.14078E-01
 -1      2282 4.43175E-01
 -1      2283 3.47767E-01
 -1      2284 5.00029E-01
 -1      2285 5.52320E-01
 -1      2286 4.63129E-01
 -1      2287 6.01988E-01
 -1      2288 6.51060E-01
 -1      2289 5.69651E-01
 -1      2290 6.90643E-01
 -1      2291 7.44929E-01
 -1      2292 6.58902E-01
 -1      2293 7.93296E-01
 -1      2294 8.24255E-01
 -1      2295 7.46853E-01
 -1      2296 8.68057E-01
 -1      2297 8.48449E-01
 -1      2298 8.39022E-01
 -1      2299 8.62701E-01
 -1      2300 7.64019E-01
 -1      2301 8.97076E-01
 -1      2302 8.27838E-01
 -1      2303 8.39271E-01
 -1      2304 9.75147E-01
 -1      2305 9.22019E-01
 -1      2306 1.03689E+00
 -1      2307 1.12171E+00
 -1      2308 1.13584E+00
 -1      2309 1.41200E+00
 -1      2310 1.30342E+00
 -1      2311 1.45298E+00
 -1      2312 1.67717E+00
 -1      2313 1.44336E+00
 -1      2314 1.94098E+00
 -1      2315 2.09560E+00
 -1      2316 1.74815E+00
 -1      2317 2.27628E+00
 -1      2318 2.21064E+00
 -1      2319 2.19264E+00
 -1      2320 2.24432E+00
 -1      2321 2.31223E+00
 -1      2322 2.40699E+00
 -1      2323 2.06557E+00
 -1      2324 1.91286E+00
 -1      2325 2.19401E+00
 -1      2326 1.68273E+00
 -1      2327 1.45799E+00
 -1      2328 1.71722E+00
 -1      2329 1.41221E+00
 -1      2330 1.13513E+00
 -1      2331 1.44131E+00
 -1      2332 1.03021E+00
 -1      2333 9.09522E-01
 -1      2334 1.29062E+00
 -1      2335 8.40316E-01
 -1      2336 8.36925E-01
 -1      2337 1.11650E+00
 -1      2338 7.78748E-01
 -1      2339 8.69473E-01
 -1      2340 9.89114E-01
 -1      2341 8.60856E-01
 -1      2342 8.82242E-01
 -1      2343 9.22320E-01
 -1      2344 8.42971E-01
 -1      2345 8.14745E-01
 -1      2346 8.74432E-01
 -1      2347 7.65016E-01
 -1      2348 7.22016E-01
 -1      2349 7.85432E-01
 -1      2350 6.89689E-01
 -1      2351 6.51311E-01
 -1      2352 7.03377E-01
 -1      2353 6.09705E-01
 -1      2354 5.66598E-01
 -1      2355 6.29444E-01
 -1      2356 5.19775E-01
 -1      2357 4.71979E-01
 -1      2358 5.41016E-01
 -1      2359 4.25669E-01
 -1      2360 3.79253E-01
 -1      2361 4.47883E-01
 -1      2362 3.36864E-01
 -1      2363 2.95252E-01
 -1      2364 3.59184E-01
 -1      2365 2.58471E-01
 -1      2366 2.23186E-01
 -1      2367 2.80015E-01
 -1      2368 1.92538E-01
 -1      2369 1.63876E-01
 -1      2370 2.12585E-01
 -1      2371 1.39174E-01
 -1      2372 1.17633E-01
 -1      2373 1.57234E-01
 -1      2374 9.83091E-02
 -1      2375 8.41790E-02
 -1      2376 1.13209E-01
 -1      2377 6.95000E-02
 -1      2378 5.91861E-02
 -1      2379 7.92059E-02
 -1      2380 4.83859E-02
 -1      2381 4.08352E-02
 -1      2382 5.37267E-02
 -1      2383 3.31262E-02
 -1      2384 2.75675E-02
 -1      2385 3.52175E-02
 -1      2386 5.50779E-01
 -1      2387 6.09771E-01
 -1      2388 4.98265E-01
 -1      2389 5.17812E-01
 -1      2390 5.01965E-01
 -1      2391 4.41816E-01
 -1      2392 4.61052E-01
 -1      2393 4.31785E-01
 -1      2394 3.84798E-01
 -1      2395 4.02247E-01
 -1      2396 3.55002E-01
 -1      2397 3.66688E-01
 -1      2398 3.82138E-01
 -1      2399 3.12774E-01
 -1      2400 4.08281E-01
 -1      2401 3.91819E-01
 -1      2402 3.35246E-01
 -1      2403 5.21447E-01
 -1      2404 4.66403E-01
 -1      2405 4.18499E-01
 -1      2406 6.84515E-01
 -1      2407 6.01132E-01
 -1      2408 5.56306E-01
 -1      2409 8.40243E-01
 -1      2410 7.63650E-01
 -1      2411 7.15126E-01
 -1      2412 9.74807E-01
 -1      2413 9.09932E-01
 -1      2414 8.63950E-01
 -1      2415 1.07673E+00
 -1      2416 1.02851E+00
 -1      2417 9.87343E-01
 -1      2418 1.13629E+00
 -1      2419 1.13629E+00
 -1      2420 1.10061E+00
 -1      2421 1.18767E+00
 -1      2422 1.19890E+00
 -1      2423 1.22279E+00
 -1      2424 1.10027E+00
 -1      2425 1.20847E+00
 -1      2426 1.30620E+00
 -1      2427 1.11322E+00
 -1      2428 1.16914E+00
 -1      2429 1.39587E+00
 -1      2430 1.44452E+00
 -1      2431 1.17984E+00
 -1      2432 1.53135E+00
 -1      2433 1.89995E+00
 -1      2434 1.53832E+00
 -1      2435 1.69177E+00
 -1      2436 2.22260E+00
 -1      2437 2.11847E+00
 -1      2438 2.00409E+00
 -1      2439 2.67965E+00
 -1      2440 2.65600E+00
 -1      2441 2.65600E+00
 -1      2442 2.77764E+00
 -1      2443 2.73297E+00
 -1      2444 3.14270E+00
 -1      2445 2.56290E+00
 -1      2446 2.50196E+00
 -1      2447 2.92033E+00
 -1      2448 1.85807E+00
 -1      2449 2.17016E+00
 -1      2450 2.25191E+00
 -1      2451 1.31798E+00
 -1      2452 1.73833E+00
 -1      2453 1.73944E+00
 -1      2454 1.17924E+00
 -1      2455 1.29816E+00
 -1      2456 1.59987E+00
 -1      2457 1.16214E+00
 -1      2458 1.03990E+00
 -1      2459 1.44072E+00
 -1      2460 1.22968E+00
 -1      2461 1.17840E+00
 -1      2462 1.31764E+00
 -1      2463 1.19557E+00
 -1      2464 1.18449E+00
 -1      2465 1.28871E+00
 -1      2466 1.09643E+00
 -1      2467 1.12469E+00
 -1      2468 1.17265E+00
 -1      2469 9.95108E-01
 -1      2470 1.05130E+00
 -1      2471 1.05665E+00
 -1      2472 8.78562E-01
 -1      2473 9.38781E-01
 -1      2474 9.55202E-01
 -1      2475 7.37722E-01
 -1      2476 8.09518E-01
 -1      2477 8.29831E-01
 -1      2478 5.95656E-01
 -1      2479 6.67275E-01
 -1      2480 6.90341E-01
 -1      2481 4.65589E-01
 -1      2482 5.30486E-01
 -1      2483 5.54724E-01
 -1      2484 3.53651E-01
 -1      2485 4.08935E-01
 -1      2486 4.32899E-01
 -1      2487 2.61449E-01
 -1      2488 3.06512E-01
 -1      2489 3.29107E-01
 -1      2490 1.92543E-01
 -1      2491 2.23528E-01
 -1      2492 2.44048E-01
 -1      2493 1.40066E-01
 -1      2494 1.62884E-01
 -1      2495 1.76468E-01
 -1      2496 9.92277E-02
 -1      2497 1.17465E-01
 -1      2498 1.24209E-01
 -1      2499 6.81492E-02
 -1      2500 8.24571E-02
 -1      2501 8.48382E-02
 -1      2502 4.53639E-02
 -1      2503 5.64544E-02
 -1      2504 5.63727E-02
 -1      2505 3.11738E-02
 -1      2506 3.91486E-02
 -1      2507 3.84626E-02
 -1      2508 2.08275E-02
 -1      2509 2.63781E-02
 -1      2510 2.74515E-02
 -1      2511 1.78079E-02
 -1      2512 1.84058E-02
 -1      2513 1.58794E-02
 -1      2514 2.17552E-02
 -1      2515 2.05171E-02
 -1      2516 2.32046E-02
 -1      2517 1.48866E-02
 -1      2518 1.67300E-02
 -1      2519 1.41237E-02
 -1      2520 1.52558E-02
 -1      2521 1.72127E-02
 -1      2522 1.93376E-02
 -1      2523 2.18828E-02
 -1      2524 2.18828E-02
 -1      2525 2.54435E-02
 -1      2526 2.18118E-02
 -1      2527 2.18828E-02
 -1      2528 2.55710E-02
 -1      2529 2.17633E-02
 -1      2530 2.17633E-02
 -1      2531 2.55226E-02
 -1      2532 2.03588E-02
 -1      2533 2.15702E-02
 -1      2534 2.52810E-02
 -1      2535 1.57155E-02
 -1      2536 1.82465E-02
 -1      2537 2.29756E-02
 -1      2538 1.66920E-02
 -1      2539 1.55194E-02
 -1      2540 2.06672E-02
 -1      2541 1.83266E-02
 -1      2542 1.66920E-02
 -1      2543 2.04712E-02
 -1      2544 3.21226E+01
 -1      2545 3.21226E+01
 -1      2546 2.58500E+01
 -1      2547 2.66032E+01
 -1      2548 3.15016E+01
 -1      2549 3.08806E+01
 -1      2550 6.84610E-01
 -1      2551 7.84678E-01
 -1      2552 6.09771E-01
 -1      2553 1.70427E-02
 -1      2554 1.52064E+01
 -1      2555 2.15951E+01
 -1      2556 9.78512E+00
 -1      2557 1.34796E+01
 -1      2558 1.64843E+00
 -1      2559 1.29707E+00
 -1      2560 8.16022E-01
 -1      2561 9.41377E-01
 -1      2562 2.57712E+01
 -1      2563 2.50333E+01
 -1      2564 7.95919E+00
 -1      2565 6.84168E+00
 -1      2566 5.08174E-01
 -1      2567 5.31471E-01
 -1      2568 4.60374E-01
 -1      2569 4.29753E-01
 -1      2570 5.92185E+00
 -1      2571 6.51754E+00
 -1      2572 9.37032E+00
 -1      2573 9.30700E+00
 -1      2574 7.40989E+00
 -1      2575 8.01237E+00
 -1      2576 7.84053E+00
 -1      2577 8.88013E+00
 -1      2578 1.01357E+01
 -1      2579 7.47453E+00
 -1      2580 5.74721E+00
 -1      2581 1.62586E+01
 -1      2582 1.17487E+01
 -1      2583 2.16577E+01
 -1      2584 1.97672E+01
 -1      2585 3.17913E+01
 -1      2586 2.57722E+01
 -1      2587 3.78103E+01
 -1      2588 3.78103E+01
 -1      2589 2.80577E+01
 -1      2590 3.29340E+01
 -1      2591 1.96539E+01
 -1      2592 2.24895E+01
 -1      2593 1.15259E+01
 -1      2594 1.64422E+01
 -1      2595 7.08143E+00
 -1      2596 9.88709E+00
 -1      2597 6.05116E+00
 -1      2598 5.42889E+00
 -1      2599 8.89510E+00
 -1      2600 8.83667E+00
 -1      2601 8.87578E+00
 -1      2602 9.18625E+00
 -1      2603 5.43715E+00
 -1      2604 6.55245E+00
 -1      2605 5.24936E+00
 -1      2606 7.98370E+00
 -1      2607 6.05673E+00
 -1      2608 1.31767E+01
 -1      2609 9.77287E+00
 -1      2610 2.14481E+01
 -1      2611 1.53177E+01
 -1      2612 6.51821E+00
 -1      2613 8.27530E+00
 -1      2614 1.60059E+00
 -1      2615 1.74787E+00
 -1      2616 1.30498E+00
 -1      2617 1.17953E+00
 -1      2618 5.51752E+00
 -1      2619 5.23144E-01
 -1      2620 6.62350E-01
 -1      2621 7.20837E-01
 -1      2622 7.84678E-01
 -1      2623 1.22346E+00
 -1      2624 1.70766E+01
 -1      2625 1.13504E+01
 -1      2626 2.57712E+01
 -1      2627 5.47128E+00
 -1      2628 5.01149E+00
 -1      2629 6.97022E+00
 -1      2630 1.68289E+01
 -1      2631 7.54248E+00
 -1      2632 1.96361E-02
 -1      2633 1.96361E-02
 -1      2634 4.70585E+00
 -1      2635 3.15016E+01
 -1      2636 2.66032E+01
 -1      2637 5.56788E+00
 -1      2638 9.51424E-01
 -1      2639 7.61068E+00
 -1      2640 8.85921E+00
 -1      2641 1.08473E+01
 -1      2642 6.37385E+00
 -1      2643 1.37097E+01
 -1      2644 2.24895E+01
 -1      2645 3.29340E+01
 -1      2646 3.17913E+01
 -1      2647 2.07966E+01
 -1      2648 1.66820E+01
 -1      2649 2.07966E+01
 -1      2650 8.91288E+00
 -1      2651 8.79781E-01
 -1      2652 7.47286E+00
 -1      2653 5.70403E+00
 -1      2654 7.85331E+00
 -1      2655 8.48056E+00
 -1      2656 7.33069E+00
 -1      2657 1.40345E+01
 -1      2658 1.79034E-02
 -1      2659 1.70427E-02
 -1      2660 1.91873E-02
 -1      2661 2.27649E-02
 -1      2662 7.42024E+00
 -1      2663 1.97496E-02
 -1      2664 2.27060E-02
 -1      2665 4.13187E-01
 -1      2666 3.96631E-01
 -1      2667 3.85852E-01
 -1      2668 3.71456E-01
 -1      2669 3.38253E-01
 -1      2670 4.32080E-01
 -1      2671 4.32080E-01
 -1      2672 4.68028E-01
 -1      2673 4.23588E-01
 -1      2674 3.50648E-01
 -1      2675 7.01890E-01
 -1      2676 7.84576E-01
 -1      2677 6.00772E+00
 -1      2678 7.51754E+00
 -1      2679 5.86578E-01
 -1      2680 6.86646E-01
 -1      2681 5.03789E-01
 -1      2682 5.24353E-01
 -1      2683 4.59790E-01
 -1      2684 4.42681E-01
 -1      2685 3.76296E-01
 -1      2686 3.46089E-01
 -1      2687 3.41732E-01
 -1      2688 3.18018E-01
 -1      2689 2.94415E-01
 -1      2690 2.92298E-01
 -1      2691 2.60539E-01
 -1      2692 2.34131E-01
 -1      2693 2.33909E-01
 -1      2694 1.97262E-01
 -1      2695 1.81781E-01
 -1      2696 1.87564E-01
 -1      2697 1.94201E-01
 -1      2698 1.45451E-01
 -1      2699 2.35476E-01
 -1      2700 2.53781E-01
 -1      2701 1.77028E-01
 -1      2702 3.08869E-01
 -1      2703 3.67377E-01
 -1      2704 2.73391E-01
 -1      2705 4.27469E-01
 -1      2706 4.84324E-01
 -1      2707 3.88571E-01
 -1      2708 5.47527E-01
 -1      2709 5.97194E-01
 -1      2710 5.11867E-01
 -1      2711 6.59954E-01
 -1      2712 6.99538E-01
 -1      2713 6.37830E-01
 -1      2714 7.55412E-01
 -1      2715 8.03780E-01
 -1      2716 7.56465E-01
 -1      2717 8.91242E-01
 -1      2718 9.35045E-01
 -1      2719 8.99802E-01
 -1      2720 1.03640E+00
 -1      2721 1.05065E+00
 -1      2722 1.08862E+00
 -1      2723 1.13979E+00
 -1      2724 1.20361E+00
 -1      2725 1.27911E+00
 -1      2726 1.33800E+00
 -1      2727 1.42075E+00
 -1      2728 1.50265E+00
 -1      2729 1.60387E+00
 -1      2730 1.70282E+00
 -1      2731 1.82016E+00
 -1      2732 1.71027E+00
 -1      2733 1.75125E+00
 -1      2734 2.01072E+00
 -1      2735 2.76426E+00
 -1      2736 3.02807E+00
 -1      2737 3.03117E+00
 -1      2738 3.30320E+00
 -1      2739 3.48387E+00
 -1      2740 4.31931E+00
 -1      2741 3.82678E+00
 -1      2742 3.86046E+00
 -1      2743 4.93734E+00
 -1      2744 2.78910E+00
 -1      2745 2.54244E+00
 -1      2746 4.20889E+00
 -1      2747 1.94735E+00
 -1      2748 1.71722E+00
 -1      2749 2.54244E+00
 -1      2750 1.70352E+00
 -1      2751 1.65774E+00
 -1      2752 1.93365E+00
 -1      2753 1.61314E+00
 -1      2754 1.50823E+00
 -1      2755 1.87535E+00
 -1      2756 1.39604E+00
 -1      2757 1.32683E+00
 -1      2758 1.71856E+00
 -1      2759 1.20482E+00
 -1      2760 1.14664E+00
 -1      2761 1.48435E+00
 -1      2762 1.07001E+00
 -1      2763 1.06140E+00
 -1      2764 1.28571E+00
 -1      2765 9.62733E-01
 -1      2766 9.23462E-01
 -1      2767 1.11043E+00
 -1      2768 8.38109E-01
 -1      2769 7.88380E-01
 -1      2770 9.26410E-01
 -1      2771 7.38276E-01
 -1      2772 7.05950E-01
 -1      2773 7.90953E-01
 -1      2774 6.50669E-01
 -1      2775 6.09063E-01
 -1      2776 6.85568E-01
 -1      2777 5.54786E-01
 -1      2778 5.07963E-01
 -1      2779 5.76010E-01
 -1      2780 4.58092E-01
 -1      2781 4.11782E-01
 -1      2782 4.71862E-01
 -1      2783 3.67916E-01
 -1      2784 3.25528E-01
 -1      2785 3.78125E-01
 -1      2786 2.88188E-01
 -1      2787 2.51407E-01
 -1      2788 2.96920E-01
 -1      2789 2.20463E-01
 -1      2790 1.89814E-01
 -1      2791 2.28636E-01
 -1      2792 1.64764E-01
 -1      2793 1.40062E-01
 -1      2794 1.72642E-01
 -1      2795 1.20222E-01
 -1      2796 1.00898E-01
 -1      2797 1.27752E-01
 -1      2798 8.55090E-02
 -1      2799 7.08300E-02
 -1      2800 9.25223E-02
 -1      2801 5.91710E-02
 -1      2802 4.83707E-02
 -1      2803 6.54740E-02
 -1      2804 3.79913E-02
 -1      2805 3.02823E-02
 -1      2806 4.34356E-02
 -1      2807 3.36044E-01
 -1      2808 3.73257E-01
 -1      2809 7.62244E+00
 -1      2810 5.83327E+00
 -1      2811 3.95939E-01
 -1      2812 4.28906E-01
 -1      2813 3.00197E-01
 -1      2814 2.45912E-01
 -1      2815 2.48571E-01
 -1      2816 3.00503E-01
 -1      2817 2.75371E-01
 -1      2818 2.11169E-01
 -1      2819 4.24910E-01
 -1      2820 3.66789E-01
 -1      2821 3.06914E-01
 -1      2822 5.79309E-01
 -1      2823 4.99623E-01
 -1      2824 4.47913E-01
 -1      2825 7.40834E-01
 -1      2826 6.61700E-01
 -1      2827 6.05017E-01
 -1      2828 8.98304E-01
 -1      2829 8.28615E-01
 -1      2830 7.75188E-01
 -1      2831 1.04006E+00
 -1      2832 9.86354E-01
 -1      2833 9.51019E-01
 -1      2834 1.17814E+00
 -1      2835 1.11857E+00
 -1      2836 1.11758E+00
 -1      2837 1.35768E+00
 -1      2838 1.29507E+00
 -1      2839 1.31303E+00
 -1      2840 1.54016E+00
 -1      2841 1.51936E+00
 -1      2842 1.59163E+00
 -1      2843 1.74682E+00
 -1      2844 1.67795E+00
 -1      2845 1.89111E+00
 -1      2846 2.00744E+00
 -1      2847 1.94083E+00
 -1      2848 2.22291E+00
 -1      2849 1.83336E+00
 -1      2850 1.73956E+00
 -1      2851 2.14903E+00
 -1      2852 2.17153E+00
 -1      2853 1.95301E+00
 -1      2854 2.00080E+00
 -1      2855 3.96300E+00
 -1      2856 3.52961E+00
 -1      2857 3.47854E+00
 -1      2858 3.68343E+00
 -1      2859 3.63012E+00
 -1      2860 4.50374E+00
 -1      2861 3.70164E+00
 -1      2862 3.97732E+00
 -1      2863 4.46475E+00
 -1      2864 2.25191E+00
 -1      2865 2.64465E+00
 -1      2866 3.70164E+00
 -1      2867 2.26044E+00
 -1      2868 2.38018E+00
 -1      2869 2.77292E+00
 -1      2870 2.05621E+00
 -1      2871 2.07604E+00
 -1      2872 2.71678E+00
 -1      2873 1.70406E+00
 -1      2874 1.84340E+00
 -1      2875 2.31956E+00
 -1      2876 1.60234E+00
 -1      2877 1.58608E+00
 -1      2878 1.98876E+00
 -1      2879 1.40361E+00
 -1      2880 1.44879E+00
 -1      2881 1.71723E+00
 -1      2882 1.18766E+00
 -1      2883 1.25854E+00
 -1      2884 1.41862E+00
 -1      2885 1.06920E+00
 -1      2886 1.11432E+00
 -1      2887 1.20021E+00
 -1      2888 9.33283E-01
 -1      2889 9.89611E-01
 -1      2890 1.04728E+00
 -1      2891 7.83214E-01
 -1      2892 8.52258E-01
 -1      2893 8.86667E-01
 -1      2894 6.37133E-01
 -1      2895 7.07579E-01
 -1      2896 7.30006E-01
 -1      2897 5.04931E-01
 -1      2898 5.70101E-01
 -1      2899 5.87339E-01
 -1      2900 3.90992E-01
 -1      2901 4.47646E-01
 -1      2902 4.63024E-01
 -1      2903 2.96256E-01
 -1      2904 3.43394E-01
 -1      2905 3.58141E-01
 -1      2906 2.19706E-01
 -1      2907 2.57626E-01
 -1      2908 2.71914E-01
 -1      2909 1.59351E-01
 -1      2910 1.89010E-01
 -1      2911 2.02588E-01
 -1      2912 1.12837E-01
 -1      2913 1.35438E-01
 -1      2914 1.47979E-01
 -1      2915 7.78129E-02
 -1      2916 9.45836E-02
 -1      2917 1.05812E-01
 -1      2918 5.24642E-02
 -1      2919 6.41591E-02
 -1      2920 7.39044E-02
 -1      2921 3.60951E-02
 -1      2922 4.23104E-02
 -1      2923 5.00968E-02
 -1      2924 2.32156E-02
 -1      2925 2.80113E-02
 -1      2926 3.18592E-02
 -1      2927 2.03094E-02
 -1      2928 3.06346E-02
 -1      2929 3.06346E-02
 -1      2930 2.39898E-02
 -1      2931 1.91873E-02
 -1      2932 2.67636E-02
 -1      2933 2.95921E-02
 -1      2934 2.74807E-02
 -1      2935 3.05189E-02
 -1      2936 3.05674E-02
 -1      2937 3.56310E-02
 -1      2938 3.06346E-02
 -1      2939 3.05071E-02
 -1      2940 3.47832E-02
 -1      2941 3.56982E-02
 -1      2942 6.79228E+00
 -1      2943 6.50113E+00
 -1      2944 3.03258E-02
 -1      2945 3.05189E-02
 -1      2946 3.55637E-02
 -1      2947 2.69606E-02
 -1      2948 2.90730E-02
 -1      2949 3.43109E-02
 -1      2950 2.27302E-02
 -1      2951 2.29262E-02
 -1      2952 2.90236E-02
 -1      2953 4.17376E+00
 -1      2954 5.82631E+00
 -1      2955 4.12011E+00
 -1      2956 4.74970E+00
 -1      2957 6.00301E+00
 -1      2958 5.12553E+00
 -1      2959 6.96761E-01
 -1      2960 6.57078E-01
 -1      2961 8.22009E-01
 -1      2962 2.27475E+01
 -1      2963 2.21265E+01
 -1      2964 5.69352E+00
 -1      2965 6.55694E+00
 -1      2966 4.76212E-01
 -1      2967 5.51051E-01
 -1      2968 4.53019E-01
 -1      2969 3.70185E-01
 -1      2970 1.76751E+01
 -1      2971 2.31945E+01
 -1      2972 2.67076E-01
 -1      2973 3.06645E-01
 -1      2974 2.48117E-01
 -1      2975 2.00214E-01
 -1      2976 5.78469E-01
 -1      2977 5.33054E-01
 -1      2978 3.71899E-01
 -1      2979 4.59208E-01
 -1      2980 4.32080E-01
 -1      2981 4.18242E-01
 -1      2982 3.54086E-01
 -1      2983 3.59140E-01
 -1      2984 1.16361E+01
 -1      2985 9.49516E+00
 -1      2986 4.16326E-01
 -1      2987 4.32221E-01
 -1      2988 6.85977E+00
 -1      2989 7.51945E+00
 -1      2990 5.83856E+00
 -1      2991 6.32875E+00
 -1      2992 5.36764E+00
 -1      2993 1.19500E+01
 -1      2994 1.62049E+01
 -1      2995 7.20837E-01
 -1      2996 1.35325E+01
 -1      2997 1.00239E+01
 -1      2998 5.91584E+00
 -1      2999 4.36316E+00
 -1      3000 2.04712E-02
 -1      3001 8.53709E+00
 -1      3002 6.92410E+00
 -1      3003 8.03513E+00
 -1      3004 2.67974E+01
 -1      3005 2.07784E+01
 -1      3006 2.21027E+01
 -1      3007 2.69790E+01
 -1      3008 1.53227E+01
 -1      3009 2.08908E+01
 -1      3010 8.35797E+00
 -1      3011 1.00847E+01
 -1      3012 1.00868E+01
 -1      3013 1.32985E+01
 -1      3014 4.77027E+00
 -1      3015 3.97975E+00
 -1      3016 3.72183E+00
 -1      3017 5.04481E+00
 -1      3018 3.94618E+00
 -1      3019 4.80363E+00
 -1      3020 2.36989E+01
 -1      3021 1.85895E+01
 -1      3022 7.04782E+00
 -1      3023 8.68661E+00
 -1      3024 1.56263E+01
 -1      3025 1.20411E+01
 -1      3026 1.35540E+01
 -1      3027 4.45894E+00
 -1      3028 3.83936E+00
 -1      3029 4.47293E-01
 -1      3030 4.61966E-01
 -1      3031 3.71042E-01
 -1      3032 3.27219E-01
 -1      3033 3.71201E-01
 -1      3034 3.85516E-01
 -1      3035 6.75500E+00
 -1      3036 7.90819E+00
 -1      3037 2.97362E-02
 -1      3038 2.33487E-02
 -1      3039 2.15930E-02
 -1      3040 4.66113E+00
 -1      3041 1.38195E+01
 -1      3042 5.65370E+00
 -1      3043 1.49448E+01
 -1      3044 5.54005E+00
 -1      3045 5.51559E+00
 -1      3046 1.98397E-02
 -1      3047 1.94705E-02
 -1      3048 2.29365E-02
 -1      3049 2.38508E-02
 -1      3050 3.39362E+00
 -1      3051 3.89046E+00
 -1      3052 4.23818E+00
 -1      3053 2.04712E-02
 -1      3054 4.39943E+00
 -1      3055 4.65655E+00
 -1      3056 8.27544E+00
 -1      3057 1.16998E+01
 -1      3058 1.49358E+01
 -1      3059 5.56466E-01
 -1      3060 4.39035E+00
 -1      3061 1.58027E+01
 -1      3062 5.25281E+00
 -1      3063 4.98245E+00
 -1      3064 3.96056E-01
 -1      3065 4.12363E-01
 -1      3066 3.52008E-01
 -1      3067 3.37504E-01
 -1      3068 5.37817E-01
 -1      3069 6.23252E+00
 -1      3070 1.27963E+01
 -1      3071 9.46076E+00
 -1      3072 1.35619E+01
 -1      3073 9.55131E+00
 -1      3074 1.27008E+01
 -1      3075 1.01859E+01
 -1      3076 1.59661E+01
 -1      3077 4.30595E-01
 -1      3078 2.19025E-02
 -1      3079 2.19025E-02
 -1      3080 2.41615E-02
 -1      3081 2.81950E-02
 -1      3082 3.50045E+00
 -1      3083 4.39035E+00
 -1      3084 2.94732E-01
 -1      3085 3.03223E-01
 -1      3086 1.24628E+01
 -1      3087 9.49963E+00
 -1      3088 2.57003E-01
 -1      3089 2.22439E-01
 -1      3090 2.03239E-01
 -1      3091 1.77519E-01
 -1      3092 1.65827E-01
 -1      3093 1.56277E-01
 -1      3094 1.29647E-01
 -1      3095 1.25385E-01
 -1      3096 1.39038E-01
 -1      3097 1.29339E-01
 -1      3098 1.13534E-01
 -1      3099 1.60616E-01
 -1      3100 2.01891E-01
 -1      3101 1.54202E-01
 -1      3102 2.42395E-01
 -1      3103 2.97483E-01
 -1      3104 2.25983E-01
 -1      3105 3.51240E-01
 -1      3106 4.11333E-01
 -1      3107 3.20245E-01
 -1      3108 4.72019E-01
 -1      3109 5.35223E-01
 -1      3110 4.34689E-01
 -1      3111 6.15129E-01
 -1      3112 6.77888E-01
 -1      3113 5.75281E-01
 -1      3114 7.74756E-01
 -1      3115 8.30631E-01
 -1      3116 7.52054E-01
 -1      3117 9.39391E-01
 -1      3118 1.02685E+00
 -1      3119 9.57682E-01
 -1      3120 1.13375E+00
 -1      3121 1.23511E+00
 -1      3122 1.17334E+00
 -1      3123 1.43917E+00
 -1      3124 1.52831E+00
 -1      3125 1.48431E+00
 -1      3126 1.79770E+00
 -1      3127 1.93209E+00
 -1      3128 1.95776E+00
 -1      3129 1.83844E+00
 -1      3130 2.02156E+00
 -1      3131 2.13349E+00
 -1      3132 2.27191E+00
 -1      3133 2.27935E+00
 -1      3134 2.29019E+00
 -1      3135 4.39943E+00
 -1      3136 4.67456E+00
 -1      3137 5.17268E+00
 -1      3138 5.51559E+00
 -1      3139 3.31899E+00
 -1      3140 2.72390E+00
 -1      3141 2.44697E+00
 -1      3142 2.43327E+00
 -1      3143 1.91994E+00
 -1      3144 1.87535E+00
 -1      3145 2.43327E+00
 -1      3146 2.18551E+00
 -1      3147 2.07332E+00
 -1      3148 2.23011E+00
 -1      3149 1.82694E+00
 -1      3150 1.70492E+00
 -1      3151 2.29389E+00
 -1      3152 1.57099E+00
 -1      3153 1.49437E+00
 -1      3154 1.91357E+00
 -1      3155 1.26335E+00
 -1      3156 1.16469E+00
 -1      3157 1.54863E+00
 -1      3158 1.05649E+00
 -1      3159 9.71141E-01
 -1      3160 1.20942E+00
 -1      3161 8.67582E-01
 -1      3162 8.17478E-01
 -1      3163 9.97666E-01
 -1      3164 7.29768E-01
 -1      3165 6.74487E-01
 -1      3166 8.06397E-01
 -1      3167 6.02107E-01
 -1      3168 5.47830E-01
 -1      3169 6.46307E-01
 -1      3170 4.86098E-01
 -1      3171 4.36227E-01
 -1      3172 5.12196E-01
 -1      3173 3.86903E-01
 -1      3174 3.43037E-01
 -1      3175 4.01140E-01
 -1      3176 3.05499E-01
 -1      3177 2.68160E-01
 -1      3178 3.14277E-01
 -1      3179 2.35772E-01
 -1      3180 2.04828E-01
 -1      3181 2.44351E-01
 -1      3182 1.77937E-01
 -1      3183 1.52887E-01
 -1      3184 1.85073E-01
 -1      3185 1.31608E-01
 -1      3186 1.11767E-01
 -1      3187 1.36903E-01
 -1      3188 9.55856E-02
 -1      3189 8.01963E-02
 -1      3190 9.94414E-02
 -1      3191 6.76560E-02
 -1      3192 5.59970E-02
 -1      3193 7.07192E-02
 -1      3194 4.60762E-02
 -1      3195 3.56968E-02
 -1      3196 3.08357E-02
 -1      3197 4.82582E-02
 -1      3198 3.22639E-01
 -1      3199 2.56353E-01
 -1      3200 2.07122E-01
 -1      3201 1.77663E-01
 -1      3202 2.22847E-01
 -1      3203 6.16001E-01
 -1      3204 5.33610E-01
 -1      3205 8.00192E-01
 -1      3206 7.12412E-01
 -1      3207 6.41005E-01
 -1      3208 1.00115E+00
 -1      3209 9.13099E-01
 -1      3210 8.50323E-01
 -1      3211 1.22121E+00
 -1      3212 1.14270E+00
 -1      3213 1.10478E+00
 -1      3214 1.50316E+00
 -1      3215 1.38623E+00
 -1      3216 1.41134E+00
 -1      3217 1.84357E+00
 -1      3218 1.68189E+00
 -1      3219 1.75509E+00
 -1      3220 2.29762E+00
 -1      3221 2.15983E+00
 -1      3222 2.25008E+00
 -1      3223 2.92191E+00
 -1      3224 2.72790E+00
 -1      3225 2.99662E+00
 -1      3226 2.55518E+00
 -1      3227 2.82306E+00
 -1      3228 3.32806E+00
 -1      3229 4.04287E+00
 -1      3230 2.68479E+00
 -1      3231 4.50374E+00
 -1      3232 4.83662E+00
 -1      3233 5.32865E+00
 -1      3234 5.03476E+00
 -1      3235 3.14986E+00
 -1      3236 3.02159E+00
 -1      3237 2.76352E+00
 -1      3238 2.97633E+00
 -1      3239 2.44026E+00
 -1      3240 2.55824E+00
 -1      3241 3.21502E+00
 -1      3242 1.82646E+00
 -1      3243 1.98001E+00
 -1      3244 2.54949E+00
 -1      3245 1.50675E+00
 -1      3246 1.65182E+00
 -1      3247 1.91459E+00
 -1      3248 1.27033E+00
 -1      3249 1.34367E+00
 -1      3250 1.57687E+00
 -1      3251 1.04164E+00
 -1      3252 1.12122E+00
 -1      3253 1.26469E+00
 -1      3254 8.46276E-01
 -1      3255 9.27302E-01
 -1      3256 1.00125E+00
 -1      3257 6.75424E-01
 -1      3258 7.51059E-01
 -1      3259 7.91694E-01
 -1      3260 5.30332E-01
 -1      3261 5.97363E-01
 -1      3262 6.18416E-01
 -1      3263 4.10105E-01
 -1      3264 4.67389E-01
 -1      3265 4.77413E-01
 -1      3266 3.13848E-01
 -1      3267 3.61445E-01
 -1      3268 3.65811E-01
 -1      3269 2.37077E-01
 -1      3270 2.75706E-01
 -1      3271 2.79011E-01
 -1      3272 1.76211E-01
 -1      3273 2.06907E-01
 -1      3274 2.10700E-01
 -1      3275 1.28671E-01
 -1      3276 1.52584E-01
 -1      3277 1.56903E-01
 -1      3278 9.22383E-02
 -1      3279 1.10492E-01
 -1      3280 1.15097E-01
 -1      3281 6.45935E-02
 -1      3282 7.82473E-02
 -1      3283 8.29273E-02
 -1      3284 4.37543E-02
 -1      3285 5.39081E-02
 -1      3286 5.82510E-02
 -1      3287 2.70804E-02
 -1      3288 3.51641E-02
 -1      3289 3.89755E-02
 -1      3290 2.62414E-02
 -1      3291 3.11005E-01
 -1      3292 3.00227E-01
 -1      3293 4.16715E-02
 -1      3294 4.17388E-02
 -1      3295 2.93973E-02
 -1      3296 3.34317E-02
 -1      3297 4.21503E-02
 -1      3298 4.21503E-02
 -1      3299 4.82582E-02
 -1      3300 1.13288E+01
 -1      3301 1.29011E+01
 -1      3302 6.69472E+00
 -1      3303 8.09495E+00
 -1      3304 8.05312E+00
 -1      3305 6.18040E+00
 -1      3306 5.28025E+00
 -1      3307 4.34012E+00
 -1      3308 5.56163E+00
 -1      3309 3.25480E+00
 -1      3310 3.50347E+00
 -1      3311 4.76150E+00
 -1      3312 3.07040E+00
 -1      3313 5.66251E+00
 -1      3314 4.08975E-02
 -1      3315 4.21503E-02
 -1      3316 4.87370E-02
 -1      3317 4.12712E-02
 -1      3318 4.56911E-01
 -1      3319 3.82198E-01
 -1      3320 3.31637E-01
 -1      3321 4.67895E-01
 -1      3322 5.83856E+00
 -1      3323 2.32711E-01
 -1      3324 2.55393E-01
 -1      3325 3.11670E+00
 -1      3326 3.22352E+00
 -1      3327 2.74858E-01
 -1      3328 2.57748E-01
 -1      3329 1.85772E-01
 -1      3330 4.61966E-01
 -1      3331 1.02483E+01
 -1      3332 1.17185E+01
 -1      3333 3.35044E+00
 -1      3334 3.54445E+00
 -1      3335 4.04418E+00
 -1      3336 7.22698E+00
 -1      3337 5.74015E+00
 -1      3338 9.18532E+00
 -1      3339 8.78035E+00
 -1      3340 3.91720E-01
 -1      3341 3.03282E-01
 -1      3342 2.55857E-01
 -1      3343 3.76476E-01
 -1      3344 1.20056E+01
 -1      3345 1.32175E+01
 -1      3346 5.49480E+00
 -1      3347 4.48654E+00
 -1      3348 7.17324E+00
 -1      3349 9.03857E+00
 -1      3350 1.34858E+01
 -1      3351 1.35041E+01
 -1      3352 3.66883E+00
 -1      3353 3.02749E+00
 -1      3354 2.46316E+00
 -1      3355 3.62358E+00
 -1      3356 4.60551E+00
 -1      3357 9.11531E+00
 -1      3358 1.11395E+01
 -1      3359 1.31568E+01
 -1      3360 1.29752E+01
 -1      3361 1.16004E+01
 -1      3362 1.11535E+01
 -1      3363 2.92610E-01
 -1      3364 2.92355E-01
 -1      3365 2.65363E-01
 -1      3366 2.60375E-01
 -1      3367 3.16292E-01
 -1      3368 3.16292E-01
 -1      3369 8.09410E+00
 -1      3370 3.24213E-01
 -1      3371 3.15513E-01
 -1      3372 2.27172E-01
 -1      3373 1.02266E+01
 -1      3374 3.76346E-02
 -1      3375 3.35026E-02
 -1      3376 3.15772E-01
 -1      3377 3.30844E-01
 -1      3378 2.59863E+00
 -1      3379 2.33743E+00
 -1      3380 4.68664E+00
 -1      3381 3.35044E+00
 -1      3382 5.38114E+00
 -1      3383 3.22352E+00
 -1      3384 4.20889E+00
 -1      3385 6.00977E+00
 -1      3386 8.29729E+00
 -1      3387 7.21952E+00
 -1      3388 3.83357E-01
 -1      3389 1.40279E-01
 -1      3390 1.44325E-01
 -1      3391 1.62830E-01
 -1      3392 3.16122E+00
 -1      3393 3.83525E+00
 -1      3394 2.34351E+00
 -1      3395 2.13176E-01
 -1      3396 2.80662E-01
 -1      3397 3.27968E-01
 -1      3398 9.42113E+00
 -1      3399 3.51435E+00
 -1      3400 3.11237E-01
 -1      3401 2.73211E-01
 -1      3402 3.16292E-01
 -1      3403 8.84675E+00
 -1      3404 4.20694E-02
 -1      3405 4.11544E-02
 -1      3406 4.49209E-02
 -1      3407 4.20694E-02
 -1      3408 4.20694E-02
 -1      3409 4.84406E-02
 -1      3410 4.81100E-02
 -1      3411 9.10976E+00
 -1      3412 7.53460E+00
 -1      3413 7.05256E+00
 -1      3414 4.85463E+00
 -1      3415 4.70970E+00
 -1      3416 3.45238E+00
 -1      3417 3.93690E+00
 -1      3418 5.08998E+00
 -1      3419 5.93041E+00
 -1      3420 3.84284E+00
 -1      3421 3.25490E-01
 -1      3422 3.61017E-01
 -1      3423 2.48948E-01
 -1      3424 2.35967E-01
 -1      3425 1.72626E-01
 -1      3426 2.02024E-01
 -1      3427 1.16737E-01
 -1      3428 3.33537E+00
 -1      3429 1.57220E-01
 -1      3430 3.11809E-01
 -1      3431 3.15772E-01
 -1      3432 2.75574E-01
 -1      3433 5.50822E+00
 -1      3434 1.03839E+01
 -1      3435 7.42104E+00
 -1      3436 5.12606E+00
 -1      3437 7.45039E+00
 -1      3438 1.18866E+01
 -1      3439 9.58797E+00
 -1      3440 9.07733E+00
 -1      3441 9.05249E+00
 -1      3442 2.96891E-02
 -1      3443 3.05167E-02
 -1      3444 3.49249E-02
 -1      3445 3.71909E-02
 -1      3446 3.39430E+00
 -1      3447 4.45986E+00
 -1      3448 5.70269E+00
 -1      3449 4.96141E+00
 -1      3450 4.03731E+00
 -1      3451 7.53457E+00
 -1      3452 7.22027E+00
 -1      3453 2.71701E-01
 -1      3454 3.26971E-01
 -1      3455 3.44532E+00
 -1      3456 4.57841E+00
 -1      3457 2.59157E+00
 -1      3458 4.08060E+00
 -1      3459 1.29754E-01
 -1      3460 1.08512E-01
 -1      3461 1.24940E-01
 -1      3462 1.34332E-01
 -1      3463 1.29309E-01
 -1      3464 1.57578E-01
 -1      3465 1.88855E-01
 -1      3466 1.68984E-01
 -1      3467 2.25983E-01
 -1      3468 2.66487E-01
 -1      3469 2.29358E-01
 -1      3470 3.20245E-01
 -1      3471 3.74002E-01
 -1      3472 3.20245E-01
 -1      3473 4.34689E-01
 -1      3474 4.95375E-01
 -1      3475 4.34689E-01
 -1      3476 5.64739E-01
 -1      3477 6.44645E-01
 -1      3478 5.64739E-01
 -1      3479 7.39345E-01
 -1      3480 8.36213E-01
 -1      3481 7.28804E-01
 -1      3482 9.55639E-01
 -1      3483 1.06440E+00
 -1      3484 9.42930E-01
 -1      3485 1.26640E+00
 -1      3486 1.37330E+00
 -1      3487 1.26435E+00
 -1      3488 1.62722E+00
 -1      3489 1.83129E+00
 -1      3490 1.72028E+00
 -1      3491 2.15490E+00
 -1      3492 2.42428E+00
 -1      3493 2.29781E+00
 -1      3494 2.34121E+00
 -1      3495 4.60050E+00
 -1      3496 4.35412E+00
 -1      3497 3.04043E+00
 -1      3498 2.90650E+00
 -1      3499 5.34705E+00
 -1      3500 1.88280E+00
 -1      3501 1.65179E+00
 -1      3502 3.00966E+00
 -1      3503 1.40866E+00
 -1      3504 1.30046E+00
 -1      3505 1.74283E+00
 -1      3506 1.10158E+00
 -1      3507 9.98022E-01
 -1      3508 1.30082E+00
 -1      3509 8.72695E-01
 -1      3510 7.84986E-01
 -1      3511 9.76610E-01
 -1      3512 6.96329E-01
 -1      3513 6.23949E-01
 -1      3514 7.62627E-01
 -1      3515 5.64265E-01
 -1      3516 5.02534E-01
 -1      3517 6.14287E-01
 -1      3518 4.48294E-01
 -1      3519 3.98970E-01
 -1      3520 5.00364E-01
 -1      3521 3.51816E-01
 -1      3522 3.14277E-01
 -1      3523 3.98970E-01
 -1      3524 2.74514E-01
 -1      3525 2.42127E-01
 -1      3526 3.12053E-01
 -1      3527 2.09397E-01
 -1      3528 1.82506E-01
 -1      3529 2.39560E-01
 -1      3530 1.56096E-01
 -1      3531 1.34817E-01
 -1      3532 1.80420E-01
 -1      3533 1.13869E-01
 -1      3534 9.76870E-02
 -1      3535 1.33062E-01
 -1      3536 8.13096E-02
 -1      3537 6.87693E-02
 -1      3538 9.57371E-02
 -1      3539 2.69132E-01
 -1      3540 2.19901E-01
 -1      3541 9.41924E-01
 -1      3542 8.29018E-01
 -1      3543 7.27523E-01
 -1      3544 6.31112E-01
 -1      3545 8.19125E-01
 -1      3546 1.57582E+00
 -1      3547 1.41080E+00
 -1      3548 2.23757E+00
 -1      3549 2.05884E+00
 -1      3550 2.05829E+00
 -1      3551 4.35744E+00
 -1      3552 4.04118E+00
 -1      3553 4.34493E+00
 -1      3554 3.47286E+00
 -1      3555 3.04257E+00
 -1      3556 4.83367E+00
 -1      3557 4.17945E+00
 -1      3558 9.48998E+00
 -1      3559 8.68674E+00
 -1      3560 3.83204E+00
 -1      3561 1.64426E+00
 -1      3562 1.80733E+00
 -1      3563 1.23671E+00
 -1      3564 1.38581E+00
 -1      3565 1.61627E+00
 -1      3566 9.68264E-01
 -1      3567 1.08260E+00
 -1      3568 1.20372E+00
 -1      3569 7.73467E-01
 -1      3570 8.68684E-01
 -1      3571 9.50037E-01
 -1      3572 6.07814E-01
 -1      3573 6.85875E-01
 -1      3574 7.62865E-01
 -1      3575 4.71042E-01
 -1      3576 5.33985E-01
 -1      3577 6.01443E-01
 -1      3578 3.61695E-01
 -1      3579 4.10354E-01
 -1      3580 4.66926E-01
 -1      3581 2.74447E-01
 -1      3582 3.12588E-01
 -1      3583 3.57132E-01
 -1      3584 2.05149E-01
 -1      3585 2.35319E-01
 -1      3586 2.68896E-01
 -1      3587 1.50766E-01
 -1      3588 1.74393E-01
 -1      3589 1.99012E-01
 -1      3590 1.08575E-01
 -1      3591 1.26754E-01
 -1      3592 1.44244E-01
 -1      3593 8.09333E-02
 -1      3594 9.49243E-02
 -1      3595 1.06581E-01
 -1      3596 5.40260E-02
 -1      3597 6.47114E-02
 -1      3598 7.67083E-02
 -1      3599 7.84306E+00
 -1      3600 8.01840E+00
 -1      3601 3.14638E-02
 -1      3602 2.97104E-02
 -1      3603 3.38543E-02
 -1      3604 3.93623E-02
 -1      3605 5.81315E-02
 -1      3606 5.76527E-02
 -1      3607 7.22027E+00
 -1      3608 6.49303E+00
 -1      3609 2.71351E+00
 -1      3610 2.88815E+00
 -1      3611 2.78089E+00
 -1      3612 7.57452E+00
 -1      3613 8.44069E+00
 -1      3614 8.01840E+00
 -1      3615 7.58005E+00
 -1      3616 6.70622E+00
 -1      3617 3.49447E+00
 -1      3618 3.95472E+00
 -1      3619 4.29338E+00
 -1      3620 2.99907E-01
 -1      3621 3.10448E-01
 -1      3622 2.74212E-01
 -1      3623 8.28123E+00
 -1      3624 8.22051E+00
 -1      3625 1.21570E+00
 -1      3626 1.07415E+00
 -1      3627 1.05285E+00
 -1      3628 1.38017E+00
 -1      3629 3.16526E+00
 -1      3630 2.65194E+00
 -1      3631 1.42479E-01
 -1      3632 1.41734E-01
 -1      3633 1.42753E-01
 -1      3634 1.23553E-01
 -1      3635 1.06679E-01
 -1      3636 1.20172E-01
 -1      3637 1.50859E-01
 -1      3638 2.20865E-01
 -1      3639 2.12315E-01
 -1      3640 2.05406E-01
 -1      3641 7.60216E+00
 -1      3642 7.48410E+00
 -1      3643 6.24533E+00
 -1      3644 7.26570E+00
 -1      3645 2.25383E-01
 -1      3646 6.43461E+00
 -1      3647 2.03757E-01
 -1      3648 1.99883E-01
 -1      3649 1.59228E-01
 -1      3650 9.94597E-02
 -1      3651 2.98904E+00
 -1      3652 4.92487E+00
 -1      3653 4.65596E+00
 -1      3654 2.68767E+00
 -1      3655 5.81315E-02
 -1      3656 5.81315E-02
 -1      3657 6.75261E-02
 -1      3658 2.97846E+00
 -1      3659 2.78132E+00
 -1      3660 4.43280E+00
 -1      3661 4.77702E+00
 -1      3662 2.24558E-01
 -1      3663 1.78273E-01
 -1      3664 1.44935E-01
 -1      3665 3.30428E-01
 -1      3666 3.27482E-01
 -1      3667 3.89987E-01
 -1      3668 5.58956E-02
 -1      3669 4.59749E-02
 -1      3670 4.48283E-02
 -1      3671 6.64860E-02
 -1      3672 1.33618E-01
 -1      3673 1.27257E-01
 -1      3674 1.23822E-01
 -1      3675 6.28891E-01
 -1      3676 5.42373E-01
 -1      3677 4.65674E-01
 -1      3678 4.36661E+00
 -1      3679 3.61407E+00
 -1      3680 8.66785E+00
 -1      3681 6.97067E+00
 -1      3682 7.06866E+00
 -1      3683 6.82232E-02
 -1      3684 5.83498E-02
 -1      3685 5.86804E-02
 -1      3686 1.58956E-01
 -1      3687 1.84225E-01
 -1      3688 1.21908E-01
 -1      3689 2.32170E-01
 -1      3690 2.24554E-01
 -1      3691 2.73443E-01
 -1      3692 6.75170E+00
 -1      3693 7.49755E+00
 -1      3694 6.40619E+00
 -1      3695 6.04722E+00
 -1      3696 4.24445E-02
 -1      3697 6.66073E+00
 -1      3698 2.32739E-01
 -1      3699 2.32507E-01
 -1      3700 1.91699E-01
 -1      3701 2.96210E+00
 -1      3702 5.08409E+00
 -1      3703 7.03513E+00
 -1      3704 5.46674E+00
 -1      3705 6.28525E+00
 -1      3706 2.65298E-01
 -1      3707 1.15190E-01
 -1      3708 6.55647E+00
 -1      3709 6.27262E+00
 -1      3710 8.21798E+00
 -1      3711 7.12944E+00
 -1      3712 5.85831E-02
 -1      3713 5.50634E-02
 -1      3714 2.19216E-01
 -1      3715 2.19216E-01
 -1      3716 1.47399E-01
 -1      3717 4.89049E-02
 -1      3718 5.09438E-02
 -1      3719 4.37089E-02
 -1      3720 6.01475E-02
 -1      3721 5.02440E-02
 -1      3722 5.77098E-02
 -1      3723 7.30212E-02
 -1      3724 6.46060E-02
 -1      3725 1.11200E-01
 -1      3726 1.17402E-01
 -1      3727 1.31480E-01
 -1      3728 1.47909E-01
 -1      3729 1.36001E-01
 -1      3730 4.29892E+00
 -1      3731 1.69479E-01
 -1      3732 1.92726E-01
 -1      3733 1.71650E-01
 -1      3734 2.21380E-01
 -1      3735 2.58508E-01
 -1      3736 2.21875E-01
 -1      3737 3.10035E-01
 -1      3738 3.63793E-01
 -1      3739 3.02057E-01
 -1      3740 4.26935E-01
 -1      3741 4.87621E-01
 -1      3742 4.16726E-01
 -1      3743 5.64739E-01
 -1      3744 6.34103E-01
 -1      3745 5.56985E-01
 -1      3746 7.28804E-01
 -1      3747 8.23504E-01
 -1      3748 7.28804E-01
 -1      3749 9.38104E-01
 -1      3750 1.05753E+00
 -1      3751 9.38104E-01
 -1      3752 1.21549E+00
 -1      3753 1.41749E+00
 -1      3754 1.21066E+00
 -1      3755 2.04494E+00
 -1      3756 2.29887E+00
 -1      3757 1.99608E+00
 -1      3758 3.32199E+00
 -1      3759 3.64560E+00
 -1      3760 3.64666E+00
 -1      3761 5.34705E+00
 -1      3762 9.06404E-01
 -1      3763 8.04910E-01
 -1      3764 2.42515E+00
 -1      3765 2.18203E+00
 -1      3766 1.44706E+00
 -1      3767 1.24818E+00
 -1      3768 2.12938E+00
 -1      3769 1.08869E+00
 -1      3770 9.63365E-01
 -1      3771 1.23493E+00
 -1      3772 8.51284E-01
 -1      3773 7.62627E-01
 -1      3774 9.63365E-01
 -1      3775 6.72324E-01
 -1      3776 6.12641E-01
 -1      3777 7.60981E-01
 -1      3778 5.39811E-01
 -1      3779 4.85571E-01
 -1      3780 5.97848E-01
 -1      3781 4.27020E-01
 -1      3782 3.79866E-01
 -1      3783 4.66467E-01
 -1      3784 3.32920E-01
 -1      3785 2.93157E-01
 -1      3786 3.60970E-01
 -1      3787 2.55719E-01
 -1      3788 2.22989E-01
 -1      3789 2.76587E-01
 -1      3790 1.93288E-01
 -1      3791 1.66878E-01
 -1      3792 2.09447E-01
 -1      3793 1.43475E-01
 -1      3794 1.22527E-01
 -1      3795 1.56343E-01
 -1      3796 1.04271E-01
 -1      3797 8.78932E-02
 -1      3798 1.14684E-01
 -1      3799 8.08279E-02
 -1      3800 5.74679E+00
 -1      3801 3.94318E+00
 -1      3802 2.36634E+00
 -1      3803 1.88332E+00
 -1      3804 3.76821E+00
 -1      3805 3.66002E+00
 -1      3806 9.44307E-01
 -1      3807 1.04389E+00
 -1      3808 9.10277E-02
 -1      3809 1.03130E-01
 -1      3810 2.32739E-01
 -1      3811 2.32739E-01
 -1      3812 1.92035E-01
 -1      3813 1.20372E+00
 -1      3814 1.35783E+00
 -1      3815 1.19799E+00
 -1      3816 1.58650E+00
 -1      3817 1.84494E+00
 -1      3818 1.58650E+00
 -1      3819 7.35664E-01
 -1      3820 8.23256E-01
 -1      3821 9.17106E-01
 -1      3822 5.69449E-01
 -1      3823 6.43279E-01
 -1      3824 7.03670E-01
 -1      3825 4.37563E-01
 -1      3826 4.98251E-01
 -1      3827 5.40087E-01
 -1      3828 3.32674E-01
 -1      3829 3.81781E-01
 -1      3830 4.13106E-01
 -1      3831 2.49816E-01
 -1      3832 2.88945E-01
 -1      3833 3.13594E-01
 -1      3834 1.84814E-01
 -1      3835 2.15570E-01
 -1      3836 2.35618E-01
 -1      3837 1.34235E-01
 -1      3838 1.58247E-01
 -1      3839 1.74805E-01
 -1      3840 1.16781E-01
 -1      3841 5.08409E+00
 -1      3842 2.25691E-01
 -1      3843 2.27053E-01
 -1      3844 1.70695E-01
 -1      3845 5.30541E+00
 -1      3846 5.25992E+00
 -1      3847 5.54234E+00
 -1      3848 5.54234E+00
 -1      3849 9.10319E-02
 -1      3850 9.20503E-02
 -1      3851 1.02773E-01
 -1      3852 5.86804E-02
 -1      3853 5.86804E-02
 -1      3854 6.88230E-02
 -1      3855 6.89203E-02
 -1      3856 1.78078E-01
 -1      3857 1.75600E-01
 -1      3858 1.47517E-01
 -1      3859 1.23858E-01
 -1      3860 5.32311E+00
 -1      3861 5.63193E+00
 -1      3862 5.47247E+00
 -1      3863 5.63193E+00
 -1      3864 1.08750E-01
 -1      3865 9.20009E-02
 -1      3866 8.45915E-02
 -1      3867 1.24209E-01
 -1      3868 2.65713E+00
 -1      3869 3.56331E+00
 -1      3870 2.62736E+00
 -1      3871 2.21569E-01
 -1      3872 2.29121E-01
 -1      3873 1.81961E-01
 -1      3874 1.88377E-01
 -1      3875 1.84679E-01
 -1      3876 4.89970E+00
 -1      3877 4.40666E+00
 -1      3878 5.20934E+00
 -1      3879 5.20680E+00
 -1      3880 4.16962E+00
 -1      3881 4.73666E+00
 -1      3882 4.75011E+00
 -1      3883 6.71044E-02
 -1      3884 1.05285E+00
 -1      3885 1.03863E+00
 -1      3886 1.18508E+00
 -1      3887 2.52992E-01
 -1      3888 2.11364E-01
 -1      3889 4.29338E+00
 -1      3890 4.64465E-01
 -1      3891 3.86609E+00
 -1      3892 2.84239E+00
 -1      3893 8.15547E-02
 -1      3894 6.14854E+00
 -1      3895 5.74679E+00
 -1      3896 6.66692E+00
 -1      3897 5.74679E+00
 -1      3898 5.80757E+00
 -1      3899 3.28159E+00
 -1      3900 3.70475E-01
 -1      3901 3.09179E-01
 -1      3902 2.95985E-01
 -1      3903 6.91920E-01
 -1      3904 6.03180E-01
 -1      3905 7.79199E-01
 -1      3906 9.11250E-02
 -1      3907 8.42889E-02
 -1      3908 8.49860E-02
 -1      3909 1.20326E-01
 -1      3910 1.28422E-01
 -1      3911 1.44934E-01
 -1      3912 1.31488E-01
 -1      3913 1.38002E-01
 -1      3914 1.61816E-01
 -1      3915 1.30784E-01
 -1      3916 5.19683E+00
 -1      3917 4.97489E+00
 -1      3918 4.83367E+00
 -1      3919 4.09605E+00
 -1      3920 6.14854E+00
 -1      3921 1.56283E-01
 -1      3922 1.55947E-01
 -1      3923 6.97067E+00
 -1      3924 5.73433E+00
 -1      3925 7.90041E-02
 -1      3926 7.90041E-02
 -1      3927 9.57669E-02
 -1      3928 5.17978E+00
 -1      3929 1.57527E+00
 -1      3930 1.38017E+00
 -1      3931 1.38017E+00
 -1      3932 1.18384E-01
 -1      3933 1.53800E-01
 -1      3934 1.50815E-01
 -1      3935 4.66978E+00
 -1      3936 4.16962E+00
 -1      3937 1.54873E-01
 -1      3938 6.14854E+00
 -1      3939 1.88332E+00
 -1      3940 1.71816E-01
 -1      3941 1.93386E-01
 -1      3942 2.19662E-01
 -1      3943 2.48316E-01
 -1      3944 2.19827E-01
 -1      3945 2.80931E-01
 -1      3946 3.32459E-01
 -1      3947 2.78718E-01
 -1      3948 3.82135E-01
 -1      3949 4.45276E-01
 -1      3950 3.61009E-01
 -1      3951 5.19119E-01
 -1      3952 5.96236E-01
 -1      3953 4.84527E-01
 -1      3954 6.94074E-01
 -1      3955 7.88775E-01
 -1      3956 6.56208E-01
 -1      3957 9.26636E-01
 -1      3958 1.04124E+00
 -1      3959 8.91907E-01
 -1      3960 1.21066E+00
 -1      3961 1.36863E+00
 -1      3962 1.19920E+00
 -1      3963 1.81634E+00
 -1      3964 2.44379E+00
 -1      3965 1.81634E+00
 -1      3966 3.04567E+00
 -1      3967 4.06880E+00
 -1      3968 4.06880E+00
 -1      3969 2.86594E+00
 -1      3970 1.02800E-01
 -1      3971 1.39963E-01
 -1      3972 2.74626E+00
 -1      3973 2.01129E+00
 -1      3974 8.19764E-02
 -1      3975 1.39442E+00
 -1      3976 1.23493E+00
 -1      3977 2.01129E+00
 -1      3978 1.05813E+00
 -1      3979 9.46047E-01
 -1      3980 1.21761E+00
 -1      3981 8.11653E-01
 -1      3982 7.21350E-01
 -1      3983 9.06416E-01
 -1      3984 6.25452E-01
 -1      3985 5.52622E-01
 -1      3986 6.76124E-01
 -1      3987 4.81770E-01
 -1      3988 4.23218E-01
 -1      3989 5.09373E-01
 -1      3990 3.69910E-01
 -1      3991 3.22964E-01
 -1      3992 3.85212E-01
 -1      3993 2.82497E-01
 -1      3994 2.45059E-01
 -1      3995 2.91436E-01
 -1      3996 2.13880E-01
 -1      3997 1.84179E-01
 -1      3998 2.19790E-01
 -1      3999 1.65711E-01
 -1      4000 1.42309E-01
 -1      4001 1.70145E-01
 -1      4002 1.17861E-01
 -1      4003 9.96042E-02
 -1      4004 1.27230E-01
 -1      4005 4.51517E+00
 -1      4006 2.93832E+00
 -1      4007 1.78015E-01
 -1      4008 1.56903E-01
 -1      4009 1.61133E-01
 -1      4010 4.56068E+00
 -1      4011 3.77897E+00
 -1      4012 2.08056E+00
 -1      4013 1.77251E+00
 -1      4014 2.82752E+00
 -1      4015 6.27632E-01
 -1      4016 7.20017E-01
 -1      4017 1.56283E-01
 -1      4018 1.56283E-01
 -1      4019 1.20531E-01
 -1      4020 1.04211E-01
 -1      4021 1.10976E+00
 -1      4022 1.26959E+00
 -1      4023 1.50331E+00
 -1      4024 1.73198E+00
 -1      4025 1.41507E+00
 -1      4026 4.79241E-01
 -1      4027 5.50439E-01
 -1      4028 5.66787E-01
 -1      4029 3.64746E-01
 -1      4030 4.20529E-01
 -1      4031 4.30882E-01
 -1      4032 2.76272E-01
 -1      4033 3.20002E-01
 -1      4034 3.27424E-01
 -1      4035 2.07416E-01
 -1      4036 2.41662E-01
 -1      4037 2.48070E-01
 -1      4038 1.62136E-01
 -1      4039 1.88703E-01
 -1      4040 1.94747E-01
 -1      4041 4.64164E+00
 -1      4042 3.77780E+00
 -1      4043 2.41378E+00
 -1      4044 3.22597E+00
 -1      4045 2.33059E+00
 -1      4046 3.79897E+00
 -1      4047 3.56203E+00
 -1      4048 1.05911E-01
 -1      4049 8.98454E-02
 -1      4050 8.98454E-02
 -1      4051 1.12050E-01
 -1      4052 8.29323E-01
 -1      4053 9.50374E-01
 -1      4054 7.53285E-01
 -1      4055 1.45486E-01
 -1      4056 1.42056E-01
 -1      4057 1.10909E-01
 -1      4058 1.40285E-01
 -1      4059 1.32448E-01
 -1      4060 9.37992E-02
 -1      4061 1.03809E-01
 -1      4062 5.15710E-01
 -1      4063 4.40023E-01
 -1      4064 4.21720E-01
 -1      4065 5.78739E-01
 -1      4066 9.35331E-02
 -1      4067 1.12683E-01
 -1      4068 2.06450E-01
 -1      4069 1.45445E-01
 -1      4070 1.59523E-01
 -1      4071 1.81259E-01
 -1      4072 1.36205E-01
 -1      4073 1.08947E-01
 -1      4074 3.43955E+00
 -1      4075 3.48189E+00
 -1      4076 1.57549E-01
 -1      4077 1.75004E-01
 -1      4078 1.88901E-01
 -1      4079 1.56270E-01
 -1      4080 5.34505E+00
 -1      4081 3.06465E+00
 -1      4082 3.80567E+00
 -1      4083 2.94656E+00
 -1      4084 1.07365E-01
 -1      4085 9.66319E-02
 -1      4086 9.34544E-02
 -1      4087 4.87712E+00
 -1      4088 4.41460E+00
 -1      4089 3.81384E+00
 -1      4090 1.49214E+00
 -1      4091 1.29704E+00
 -1      4092 1.68938E+00
 -1      4093 4.51517E+00
 -1      4094 1.22959E-01
 -1      4095 1.03484E-01
 -1      4096 1.19805E-01
 -1      4097 3.24378E+00
 -1      4098 8.14595E-01
 -1      4099 7.01605E-01
 -1      4100 1.13021E-01
 -1      4101 1.13021E-01
 -1      4102 1.12295E-01
 -1      4103 1.39964E-01
 -1      4104 1.28802E-01
 -1      4105 1.24921E-01
 -1      4106 4.29230E+00
 -1      4107 2.87327E+00
 -1      4108 2.98174E+00
 -1      4109 3.22597E+00
 -1      4110 1.51410E-01
 -1      4111 1.56270E-01
 -1      4112 2.01769E-01
 -1      4113 1.02197E+00
 -1      4114 1.09543E+00
 -1      4115 9.48984E-01
 -1      4116 8.71389E-01
 -1      4117 2.31840E-01
 -1      4118 1.98492E-01
 -1      4119 3.16846E-01
 -1      4120 2.60659E-01
 -1      4121 2.52701E-01
 -1      4122 1.22088E-01
 -1      4123 1.27373E-01
 -1      4124 1.77731E-01
 -1      4125 1.28238E-01
 -1      4126 9.28301E-02
 -1      4127 1.20376E-01
 -1      4128 1.18229E-01
 -1      4129 1.12866E-01
 -1      4130 1.02741E-01
 -1      4131 2.78718E-01
 -1      4132 3.11334E-01
 -1      4133 3.42457E-01
 -1      4134 3.92132E-01
 -1      4135 3.42457E-01
 -1      4136 4.69929E-01
 -1      4137 5.43771E-01
 -1      4138 4.51376E-01
 -1      4139 6.47418E-01
 -1      4140 7.45256E-01
 -1      4141 6.32820E-01
 -1      4142 8.66358E-01
 -1      4143 1.00422E+00
 -1      4144 8.57568E-01
 -1      4145 1.07305E+00
 -1      4146 1.24248E+00
 -1      4147 1.04750E+00
 -1      4148 1.48322E+00
 -1      4149 1.93093E+00
 -1      4150 1.35707E+00
 -1      4151 2.38251E+00
 -1      4152 2.98439E+00
 -1      4153 2.04939E+00
 -1      4154 2.67385E+00
 -1      4155 2.05697E+00
 -1      4156 1.27112E+00
 -1      4157 1.09432E+00
 -1      4158 1.93368E+00
 -1      4159 9.89484E-01
 -1      4160 8.55090E-01
 -1      4161 1.04299E+00
 -1      4162 6.83787E-01
 -1      4163 5.87888E-01
 -1      4164 7.66855E-01
 -1      4165 5.07665E-01
 -1      4166 4.36813E-01
 -1      4167 5.15328E-01
 -1      4168 3.89794E-01
 -1      4169 3.36485E-01
 -1      4170 3.88086E-01
 -1      4171 2.98610E-01
 -1      4172 2.58143E-01
 -1      4173 3.03192E-01
 -1      4174 2.28113E-01
 -1      4175 1.96935E-01
 -1      4176 2.35287E-01
 -1      4177 1.73482E-01
 -1      4178 1.55015E-01
 -1      4179 1.81804E-01
 -1      4180 1.52686E-01
 -1      4181 1.90515E-01
 -1      4182 1.78546E-01
 -1      4183 1.69345E-01
 -1      4184 2.15904E-01
 -1      4185 1.77943E-01
 -1      4186 1.71159E-01
 -1      4187 1.83785E-01
 -1      4188 1.04512E-01
 -1      4189 1.64927E+00
 -1      4190 2.33107E+00
 -1      4191 2.97107E+00
 -1      4192 2.99224E+00
 -1      4193 5.14327E-01
 -1      4194 5.91520E-01
 -1      4195 2.93594E+00
 -1      4196 2.07818E+00
 -1      4197 4.02676E-01
 -1      4198 4.61389E-01
 -1      4199 4.86122E-01
 -1      4200 1.17039E+00
 -1      4201 1.40410E+00
 -1      4202 1.40459E+00
 -1      4203 3.11873E-01
 -1      4204 3.56618E-01
 -1      4205 3.87125E-01
 -1      4206 2.39388E-01
 -1      4207 2.73998E-01
 -1      4208 3.03192E-01
 -1      4209 1.88901E-01
 -1      4210 2.07615E-01
 -1      4211 2.33543E-01
 -1      4212 6.58836E-01
 -1      4213 6.23440E-01
 -1      4214 5.35970E-01
 -1      4215 7.91069E-01
 -1      4216 9.00374E-01
 -1      4217 7.38609E-01
 -1      4218 1.42602E-01
 -1      4219 1.37274E-01
 -1      4220 1.44594E-01
 -1      4221 2.19827E-01
 -1      4222 2.46103E-01
 -1      4223 2.78718E-01
 -1      4224 1.36205E-01
 -1      4225 2.76816E+00
 -1      4226 3.58472E+00
 -1      4227 3.32225E+00
 -1      4228 8.72116E-01
 -1      4229 1.03150E+00
 -1      4230 9.09900E-01
 -1      4231 1.02053E+00
 -1      4232 2.99256E+00
 -1      4233 1.68967E-01
 -1      4234 1.56023E-01
 -1      4235 2.83538E+00
 -1      4236 2.30344E-01
 -1      4237 2.22367E-01
 -1      4238 1.78514E-01
 -1      4239 2.08684E+00
 -1      4240 1.95778E+00
 -1      4241 1.84936E+00
 -1      4242 1.56898E+00
 -1      4243 2.01769E-01
 -1      4244 6.63201E-01
 -1      4245 5.85036E-01
 -1      4246 1.20739E+00
 -1      4247 3.81618E-01
 -1      4248 3.46292E-01
 -1      4249 4.51166E-01
 -1      4250 1.99727E-01
 -1      4251 2.26003E-01
 -1      4252 1.87435E-01
 -1      4253 1.80060E-01
 -1      4254 8.91366E-01
 -1      4255 7.56977E-01
 -1      4256 6.83177E-01
 -1      4257 2.76045E-01
 -1      4258 2.47226E-01
 -1      4259 2.53689E-01
 -1      4260 2.01769E-01
 -1      4261 1.80060E-01
 -1      4262 2.58337E-01
 -1      4263 2.90952E-01
 -1      4264 4.77126E-01
 -1      4265 5.54922E-01
 -1      4266 5.59287E-01
 -1      4267 6.62933E-01
 -1      4268 7.56710E-01
 -1      4269 8.77812E-01
 -1      4270 1.05358E+00
 -1      4271 1.29432E+00
 -1      4272 2.03513E-01
 -1      4273 1.87435E-01
 -1      4274 1.04299E+00
 -1      4275 9.38158E-01
 -1      4276 9.38158E-01
 -1      4277 7.66855E-01
 -1      4278 5.67306E-01
 -1      4279 4.87082E-01
 -1      4280 4.34144E-01
 -1      4281 3.87125E-01
 -1      4282 3.41067E-01
 -1      4283 3.03192E-01
 -1      4284 2.65317E-01
 -1      4285 2.35287E-01
 -1      4286 2.36807E-01
 -1      4287 1.78514E-01
 -1      4288 2.02887E-01
 -1      4289 2.62173E+00
 -1      4290 2.97107E+00
 -1      4291 2.71953E+00
 -1      4292 2.34379E+00
 -1      4293 2.22367E-01
 -1      4294 2.36807E-01
 -1      4295 4.95867E-01
 -1      4296 1.21441E+00
 -1      4297 1.01279E+00
 -1      4298 8.98382E-01
 -1      4299 1.37439E+00
 -1      4300 2.36807E-01
 -1      4301 1.97202E+00
 -1      4302 1.18616E+00
 -1      4303 1.08133E+00
 -1      4304 1.97202E+00
 -1      4305 5.85036E-01
 -1      4306 5.80672E-01
 -1      4307 2.11496E+00
 -1      4308 2.18464E+00
 -1      4309 3.27134E-01
 -1      4310 3.58258E-01
 -1      4311 4.61804E-01
 -1      4312 3.06753E-01
 -1      4313 9.09900E-01
 -1      4314 1.04879E+00
 -1      4315 1.43713E+00
 -1      4316 9.99241E-01
 -1      4317 1.06807E+00
 -1      4318 1.66339E+00
 -1      4319 9.38158E-01
 -1      4320 4.95867E-01
 -1      4321 2.21355E-01
 -1      4322 2.41455E-01
 -1      4323 1.19196E+00
 -1      4324 2.21355E-01
 -1      4325 3.12228E-01
 -1      4326 3.76999E-01
 -1      4327 1.00532E+00
 -1      4328 1.35990E+00
 -3
 9999
