    1C
    1UUSER                                                              
    1UDATE              27.october.2022                                 
    1UTIME              00:13:09                                        
    1UHOST                                                              
    1UPGM               CalculiX                                        
    1UVERSION           Version 2.17                             
    1UCOMPILETIME       Thu Jul 23 21:43:50 CEST 2020                    
    1UDIR                                                               
    1UDBN                                                               
    1UMAT    1SOLIDMATERIAL                                             
    2C                          4309                                     1
 -1         1 1.11818E+02 3.14790E+01 0.00000E+00
 -1         2 1.18558E+02 2.44839E+01 0.00000E+00
 -1         3 1.50000E+02 0.00000E+00 0.00000E+00
 -1         4 1.50000E+02 5.00000E+01 0.00000E+00
 -1         5 0.00000E+00 0.00000E+00 0.00000E+00
 -1         6 0.00000E+00 5.00000E+01 0.00000E+00
 -1         7 0.00000E+00 4.70500E+01 0.00000E+00
 -1         8 0.00000E+00 4.41000E+01 0.00000E+00
 -1         9 0.00000E+00 4.11500E+01 0.00000E+00
 -1        10 0.00000E+00 3.82000E+01 0.00000E+00
 -1        11 0.00000E+00 3.52500E+01 0.00000E+00
 -1        12 0.00000E+00 3.23500E+01 0.00000E+00
 -1        13 0.00000E+00 2.94000E+01 0.00000E+00
 -1        14 0.00000E+00 2.64500E+01 0.00000E+00
 -1        15 0.00000E+00 2.35000E+01 0.00000E+00
 -1        16 0.00000E+00 2.05500E+01 0.00000E+00
 -1        17 0.00000E+00 1.76000E+01 0.00000E+00
 -1        18 0.00000E+00 1.47000E+01 0.00000E+00
 -1        19 0.00000E+00 1.17500E+01 0.00000E+00
 -1        20 0.00000E+00 8.80000E+00 0.00000E+00
 -1        21 0.00000E+00 5.85000E+00 0.00000E+00
 -1        22 0.00000E+00 2.90000E+00 0.00000E+00
 -1        23 3.15000E+00 5.00000E+01 0.00000E+00
 -1        24 6.15000E+00 5.00000E+01 0.00000E+00
 -1        25 9.15000E+00 5.00000E+01 0.00000E+00
 -1        26 1.21500E+01 5.00000E+01 0.00000E+00
 -1        27 1.51500E+01 5.00000E+01 0.00000E+00
 -1        28 1.81500E+01 5.00000E+01 0.00000E+00
 -1        29 2.11500E+01 5.00000E+01 0.00000E+00
 -1        30 2.41500E+01 5.00000E+01 0.00000E+00
 -1        31 2.71500E+01 5.00000E+01 0.00000E+00
 -1        32 3.01500E+01 5.00000E+01 0.00000E+00
 -1        33 3.31500E+01 5.00000E+01 0.00000E+00
 -1        34 3.61500E+01 5.00000E+01 0.00000E+00
 -1        35 3.91500E+01 5.00000E+01 0.00000E+00
 -1        36 4.21500E+01 5.00000E+01 0.00000E+00
 -1        37 4.51500E+01 5.00000E+01 0.00000E+00
 -1        38 4.81500E+01 5.00000E+01 0.00000E+00
 -1        39 5.11500E+01 5.00000E+01 0.00000E+00
 -1        40 5.41500E+01 5.00000E+01 0.00000E+00
 -1        41 5.71500E+01 5.00000E+01 0.00000E+00
 -1        42 6.01500E+01 5.00000E+01 0.00000E+00
 -1        43 6.31500E+01 5.00000E+01 0.00000E+00
 -1        44 6.61500E+01 5.00000E+01 0.00000E+00
 -1        45 6.91500E+01 5.00000E+01 0.00000E+00
 -1        46 7.21500E+01 5.00000E+01 0.00000E+00
 -1        47 7.51500E+01 5.00000E+01 0.00000E+00
 -1        48 7.81500E+01 5.00000E+01 0.00000E+00
 -1        49 8.11500E+01 5.00000E+01 0.00000E+00
 -1        50 8.41500E+01 5.00000E+01 0.00000E+00
 -1        51 8.71500E+01 5.00000E+01 0.00000E+00
 -1        52 9.01500E+01 5.00000E+01 0.00000E+00
 -1        53 9.31500E+01 5.00000E+01 0.00000E+00
 -1        54 9.61500E+01 5.00000E+01 0.00000E+00
 -1        55 9.91500E+01 5.00000E+01 0.00000E+00
 -1        56 1.02150E+02 5.00000E+01 0.00000E+00
 -1        57 1.05150E+02 5.00000E+01 0.00000E+00
 -1        58 1.08150E+02 5.00000E+01 0.00000E+00
 -1        59 1.11150E+02 5.00000E+01 0.00000E+00
 -1        60 1.14150E+02 5.00000E+01 0.00000E+00
 -1        61 1.17150E+02 5.00000E+01 0.00000E+00
 -1        62 1.20150E+02 5.00000E+01 0.00000E+00
 -1        63 1.23150E+02 5.00000E+01 0.00000E+00
 -1        64 1.26150E+02 5.00000E+01 0.00000E+00
 -1        65 1.29150E+02 5.00000E+01 0.00000E+00
 -1        66 1.32150E+02 5.00000E+01 0.00000E+00
 -1        67 1.35150E+02 5.00000E+01 0.00000E+00
 -1        68 1.38150E+02 5.00000E+01 0.00000E+00
 -1        69 1.41150E+02 5.00000E+01 0.00000E+00
 -1        70 1.44150E+02 5.00000E+01 0.00000E+00
 -1        71 1.47150E+02 5.00000E+01 0.00000E+00
 -1        72 3.15000E+00 0.00000E+00 0.00000E+00
 -1        73 6.15000E+00 0.00000E+00 0.00000E+00
 -1        74 9.15000E+00 0.00000E+00 0.00000E+00
 -1        75 1.21500E+01 0.00000E+00 0.00000E+00
 -1        76 1.51500E+01 0.00000E+00 0.00000E+00
 -1        77 1.81500E+01 0.00000E+00 0.00000E+00
 -1        78 2.11500E+01 0.00000E+00 0.00000E+00
 -1        79 2.41500E+01 0.00000E+00 0.00000E+00
 -1        80 2.71500E+01 0.00000E+00 0.00000E+00
 -1        81 3.01500E+01 0.00000E+00 0.00000E+00
 -1        82 3.31500E+01 0.00000E+00 0.00000E+00
 -1        83 3.61500E+01 0.00000E+00 0.00000E+00
 -1        84 3.91500E+01 0.00000E+00 0.00000E+00
 -1        85 4.21500E+01 0.00000E+00 0.00000E+00
 -1        86 4.51500E+01 0.00000E+00 0.00000E+00
 -1        87 4.81500E+01 0.00000E+00 0.00000E+00
 -1        88 5.11500E+01 0.00000E+00 0.00000E+00
 -1        89 5.41500E+01 0.00000E+00 0.00000E+00
 -1        90 5.71500E+01 0.00000E+00 0.00000E+00
 -1        91 6.01500E+01 0.00000E+00 0.00000E+00
 -1        92 6.31500E+01 0.00000E+00 0.00000E+00
 -1        93 6.61500E+01 0.00000E+00 0.00000E+00
 -1        94 6.91500E+01 0.00000E+00 0.00000E+00
 -1        95 7.21500E+01 0.00000E+00 0.00000E+00
 -1        96 7.51500E+01 0.00000E+00 0.00000E+00
 -1        97 7.81500E+01 0.00000E+00 0.00000E+00
 -1        98 8.11500E+01 0.00000E+00 0.00000E+00
 -1        99 8.41500E+01 0.00000E+00 0.00000E+00
 -1       100 8.71500E+01 0.00000E+00 0.00000E+00
 -1       101 9.01500E+01 0.00000E+00 0.00000E+00
 -1       102 9.31500E+01 0.00000E+00 0.00000E+00
 -1       103 9.61500E+01 0.00000E+00 0.00000E+00
 -1       104 9.91500E+01 0.00000E+00 0.00000E+00
 -1       105 1.02150E+02 0.00000E+00 0.00000E+00
 -1       106 1.05150E+02 0.00000E+00 0.00000E+00
 -1       107 1.08150E+02 0.00000E+00 0.00000E+00
 -1       108 1.11150E+02 0.00000E+00 0.00000E+00
 -1       109 1.14150E+02 0.00000E+00 0.00000E+00
 -1       110 1.17150E+02 0.00000E+00 0.00000E+00
 -1       111 1.20150E+02 0.00000E+00 0.00000E+00
 -1       112 1.23150E+02 0.00000E+00 0.00000E+00
 -1       113 1.26150E+02 0.00000E+00 0.00000E+00
 -1       114 1.29150E+02 0.00000E+00 0.00000E+00
 -1       115 1.32150E+02 0.00000E+00 0.00000E+00
 -1       116 1.35150E+02 0.00000E+00 0.00000E+00
 -1       117 1.38150E+02 0.00000E+00 0.00000E+00
 -1       118 1.41150E+02 0.00000E+00 0.00000E+00
 -1       119 1.44150E+02 0.00000E+00 0.00000E+00
 -1       120 1.47150E+02 0.00000E+00 0.00000E+00
 -1       121 1.50000E+02 2.95000E+00 0.00000E+00
 -1       122 1.50000E+02 5.90000E+00 0.00000E+00
 -1       123 1.50000E+02 8.85000E+00 0.00000E+00
 -1       124 1.50000E+02 1.18000E+01 0.00000E+00
 -1       125 1.50000E+02 1.47500E+01 0.00000E+00
 -1       126 1.50000E+02 1.76500E+01 0.00000E+00
 -1       127 1.50000E+02 2.06000E+01 0.00000E+00
 -1       128 1.50000E+02 2.35500E+01 0.00000E+00
 -1       129 1.50000E+02 2.65000E+01 0.00000E+00
 -1       130 1.50000E+02 2.94500E+01 0.00000E+00
 -1       131 1.50000E+02 3.24000E+01 0.00000E+00
 -1       132 1.50000E+02 3.53000E+01 0.00000E+00
 -1       133 1.50000E+02 3.82500E+01 0.00000E+00
 -1       134 1.50000E+02 4.12000E+01 0.00000E+00
 -1       135 1.50000E+02 4.41500E+01 0.00000E+00
 -1       136 1.50000E+02 4.71000E+01 0.00000E+00
 -1       137 1.18393E+02 2.29747E+01 0.00000E+00
 -1       138 1.17917E+02 2.15580E+01 0.00000E+00
 -1       139 1.17148E+02 2.02703E+01 0.00000E+00
 -1       140 1.16123E+02 1.91776E+01 0.00000E+00
 -1       141 1.14947E+02 1.83591E+01 0.00000E+00
 -1       142 1.13529E+02 1.77671E+01 0.00000E+00
 -1       143 1.12091E+02 1.75042E+01 0.00000E+00
 -1       144 1.10529E+02 1.75599E+01 0.00000E+00
 -1       145 1.09097E+02 1.79308E+01 0.00000E+00
 -1       146 1.07784E+02 1.85881E+01 0.00000E+00
 -1       147 1.06637E+02 1.95054E+01 0.00000E+00
 -1       148 1.05724E+02 2.06146E+01 0.00000E+00
 -1       149 1.05010E+02 2.20100E+01 0.00000E+00
 -1       150 1.04649E+02 2.33571E+01 0.00000E+00
 -1       151 1.04572E+02 2.49271E+01 0.00000E+00
 -1       152 1.04826E+02 2.64015E+01 0.00000E+00
 -1       153 1.05467E+02 2.79341E+01 0.00000E+00
 -1       154 1.06344E+02 2.91548E+01 0.00000E+00
 -1       155 1.07550E+02 3.02231E+01 0.00000E+00
 -1       156 1.08784E+02 3.09110E+01 0.00000E+00
 -1       157 1.10300E+02 3.13699E+01 0.00000E+00
 -1       158 1.13336E+02 3.12543E+01 0.00000E+00
 -1       159 1.14790E+02 3.06930E+01 0.00000E+00
 -1       160 1.16087E+02 2.98210E+01 0.00000E+00
 -1       161 1.17129E+02 2.87215E+01 0.00000E+00
 -1       162 1.17922E+02 2.73992E+01 0.00000E+00
 -1       163 1.18400E+02 2.59639E+01 0.00000E+00
 -1       164 2.59800E+00 4.55750E+01 0.00000E+00
 -1       165 2.59800E+00 4.26250E+01 0.00000E+00
 -1       166 2.59800E+00 3.96750E+01 0.00000E+00
 -1       167 2.59800E+00 3.67250E+01 0.00000E+00
 -1       168 2.59800E+00 3.38250E+01 0.00000E+00
 -1       169 2.59800E+00 3.08750E+01 0.00000E+00
 -1       170 2.59800E+00 2.79250E+01 0.00000E+00
 -1       171 2.59800E+00 2.49750E+01 0.00000E+00
 -1       172 2.59800E+00 2.20250E+01 0.00000E+00
 -1       173 2.59800E+00 1.90750E+01 0.00000E+00
 -1       174 2.59800E+00 1.61750E+01 0.00000E+00
 -1       175 2.59800E+00 1.32250E+01 0.00000E+00
 -1       176 2.59800E+00 1.02750E+01 0.00000E+00
 -1       177 2.59800E+00 7.32500E+00 0.00000E+00
 -1       178 2.59800E+00 4.37500E+00 0.00000E+00
 -1       179 2.87400E+00 2.18750E+00 0.00000E+00
 -1       180 4.65000E+00 4.74020E+01 0.00000E+00
 -1       181 7.65000E+00 4.74020E+01 0.00000E+00
 -1       182 1.06500E+01 4.74020E+01 0.00000E+00
 -1       183 1.36500E+01 4.74020E+01 0.00000E+00
 -1       184 1.66500E+01 4.74020E+01 0.00000E+00
 -1       185 1.96500E+01 4.74020E+01 0.00000E+00
 -1       186 2.26500E+01 4.74020E+01 0.00000E+00
 -1       187 2.56500E+01 4.74020E+01 0.00000E+00
 -1       188 2.86500E+01 4.74020E+01 0.00000E+00
 -1       189 3.16500E+01 4.74020E+01 0.00000E+00
 -1       190 3.46500E+01 4.74020E+01 0.00000E+00
 -1       191 3.76500E+01 4.74020E+01 0.00000E+00
 -1       192 4.06500E+01 4.74020E+01 0.00000E+00
 -1       193 4.36500E+01 4.74020E+01 0.00000E+00
 -1       194 4.66500E+01 4.74020E+01 0.00000E+00
 -1       195 4.96500E+01 4.74020E+01 0.00000E+00
 -1       196 5.26500E+01 4.74020E+01 0.00000E+00
 -1       197 5.56500E+01 4.74020E+01 0.00000E+00
 -1       198 5.86500E+01 4.74020E+01 0.00000E+00
 -1       199 6.16500E+01 4.74020E+01 0.00000E+00
 -1       200 6.46500E+01 4.74020E+01 0.00000E+00
 -1       201 6.76500E+01 4.74020E+01 0.00000E+00
 -1       202 7.06500E+01 4.74020E+01 0.00000E+00
 -1       203 7.36500E+01 4.74020E+01 0.00000E+00
 -1       204 7.66500E+01 4.74020E+01 0.00000E+00
 -1       205 7.96500E+01 4.74020E+01 0.00000E+00
 -1       206 8.26500E+01 4.74020E+01 0.00000E+00
 -1       207 8.56500E+01 4.74020E+01 0.00000E+00
 -1       208 8.86500E+01 4.74020E+01 0.00000E+00
 -1       209 9.16500E+01 4.74020E+01 0.00000E+00
 -1       210 9.46500E+01 4.74020E+01 0.00000E+00
 -1       211 9.76500E+01 4.74020E+01 0.00000E+00
 -1       212 1.00650E+02 4.74020E+01 0.00000E+00
 -1       213 1.03650E+02 4.74020E+01 0.00000E+00
 -1       214 1.06650E+02 4.74020E+01 0.00000E+00
 -1       215 1.09650E+02 4.74020E+01 0.00000E+00
 -1       216 1.12650E+02 4.74020E+01 0.00000E+00
 -1       217 1.15650E+02 4.74020E+01 0.00000E+00
 -1       218 1.18650E+02 4.74020E+01 0.00000E+00
 -1       219 1.21650E+02 4.74020E+01 0.00000E+00
 -1       220 1.24650E+02 4.74020E+01 0.00000E+00
 -1       221 1.27650E+02 4.74020E+01 0.00000E+00
 -1       222 1.30650E+02 4.74020E+01 0.00000E+00
 -1       223 1.33650E+02 4.74020E+01 0.00000E+00
 -1       224 1.36650E+02 4.74020E+01 0.00000E+00
 -1       225 1.39650E+02 4.74020E+01 0.00000E+00
 -1       226 1.42650E+02 4.74020E+01 0.00000E+00
 -1       227 1.45650E+02 4.74020E+01 0.00000E+00
 -1       228 5.87400E+00 2.18750E+00 0.00000E+00
 -1       229 8.87400E+00 2.18750E+00 0.00000E+00
 -1       230 1.18740E+01 2.18750E+00 0.00000E+00
 -1       231 1.48740E+01 2.18750E+00 0.00000E+00
 -1       232 1.78740E+01 2.18750E+00 0.00000E+00
 -1       233 2.08740E+01 2.18750E+00 0.00000E+00
 -1       234 2.38740E+01 2.18750E+00 0.00000E+00
 -1       235 2.68740E+01 2.18750E+00 0.00000E+00
 -1       236 2.98740E+01 2.18750E+00 0.00000E+00
 -1       237 3.28740E+01 2.18750E+00 0.00000E+00
 -1       238 3.58740E+01 2.18750E+00 0.00000E+00
 -1       239 3.88740E+01 2.18750E+00 0.00000E+00
 -1       240 4.18740E+01 2.18750E+00 0.00000E+00
 -1       241 4.48740E+01 2.18750E+00 0.00000E+00
 -1       242 4.78740E+01 2.18750E+00 0.00000E+00
 -1       243 5.08740E+01 2.18750E+00 0.00000E+00
 -1       244 5.38740E+01 2.18750E+00 0.00000E+00
 -1       245 5.68740E+01 2.18750E+00 0.00000E+00
 -1       246 5.98740E+01 2.18750E+00 0.00000E+00
 -1       247 6.28740E+01 2.18750E+00 0.00000E+00
 -1       248 6.58740E+01 2.18750E+00 0.00000E+00
 -1       249 6.88740E+01 2.18750E+00 0.00000E+00
 -1       250 7.18740E+01 2.18750E+00 0.00000E+00
 -1       251 7.48740E+01 2.18750E+00 0.00000E+00
 -1       252 7.78740E+01 2.18750E+00 0.00000E+00
 -1       253 8.08740E+01 2.18750E+00 0.00000E+00
 -1       254 8.38740E+01 2.18750E+00 0.00000E+00
 -1       255 8.68740E+01 2.18750E+00 0.00000E+00
 -1       256 8.98740E+01 2.18750E+00 0.00000E+00
 -1       257 9.28740E+01 2.18750E+00 0.00000E+00
 -1       258 9.58740E+01 2.18750E+00 0.00000E+00
 -1       259 9.88740E+01 2.18750E+00 0.00000E+00
 -1       260 1.01874E+02 2.18750E+00 0.00000E+00
 -1       261 1.04874E+02 2.18750E+00 0.00000E+00
 -1       262 1.07874E+02 2.18750E+00 0.00000E+00
 -1       263 1.10874E+02 2.18750E+00 0.00000E+00
 -1       264 1.13874E+02 2.18750E+00 0.00000E+00
 -1       265 1.16874E+02 2.18750E+00 0.00000E+00
 -1       266 1.19874E+02 2.18750E+00 0.00000E+00
 -1       267 1.22874E+02 2.18750E+00 0.00000E+00
 -1       268 1.25874E+02 2.18750E+00 0.00000E+00
 -1       269 1.28874E+02 2.18750E+00 0.00000E+00
 -1       270 1.31874E+02 2.18750E+00 0.00000E+00
 -1       271 1.34874E+02 2.18750E+00 0.00000E+00
 -1       272 1.37874E+02 2.18750E+00 0.00000E+00
 -1       273 1.40874E+02 2.18750E+00 0.00000E+00
 -1       274 1.43874E+02 2.18750E+00 0.00000E+00
 -1       275 1.46874E+02 2.18750E+00 0.00000E+00
 -1       276 1.47402E+02 4.42500E+00 0.00000E+00
 -1       277 1.47402E+02 7.37500E+00 0.00000E+00
 -1       278 1.47402E+02 1.03250E+01 0.00000E+00
 -1       279 1.47402E+02 1.32750E+01 0.00000E+00
 -1       280 1.47402E+02 1.61750E+01 0.00000E+00
 -1       281 1.47402E+02 1.91250E+01 0.00000E+00
 -1       282 1.47402E+02 2.20750E+01 0.00000E+00
 -1       283 1.47402E+02 2.50250E+01 0.00000E+00
 -1       284 1.47402E+02 2.79750E+01 0.00000E+00
 -1       285 1.47402E+02 3.09250E+01 0.00000E+00
 -1       286 1.47402E+02 3.38250E+01 0.00000E+00
 -1       287 1.47402E+02 3.67750E+01 0.00000E+00
 -1       288 1.47402E+02 3.97250E+01 0.00000E+00
 -1       289 1.47402E+02 4.26750E+01 0.00000E+00
 -1       290 1.46526E+02 4.50385E+01 0.00000E+00
 -1       291 1.19764E+02 2.35887E+01 0.00000E+00
 -1       292 1.19384E+02 2.18534E+01 0.00000E+00
 -1       293 1.18645E+02 2.02493E+01 0.00000E+00
 -1       294 1.17581E+02 1.88375E+01 0.00000E+00
 -1       295 1.16228E+02 1.77732E+01 0.00000E+00
 -1       296 1.14737E+02 1.68669E+01 0.00000E+00
 -1       297 1.13028E+02 1.64430E+01 0.00000E+00
 -1       298 1.11261E+02 1.61530E+01 0.00000E+00
 -1       299 1.09488E+02 1.64906E+01 0.00000E+00
 -1       300 1.07860E+02 1.71005E+01 0.00000E+00
 -1       301 1.06454E+02 1.80998E+01 0.00000E+00
 -1       302 1.05245E+02 1.92897E+01 0.00000E+00
 -1       303 1.04288E+02 2.07595E+01 0.00000E+00
 -1       304 1.03658E+02 2.23702E+01 0.00000E+00
 -1       305 1.03232E+02 2.40743E+01 0.00000E+00
 -1       306 1.03421E+02 2.58841E+01 0.00000E+00
 -1       307 1.03796E+02 2.77330E+01 0.00000E+00
 -1       308 1.04921E+02 2.92519E+01 0.00000E+00
 -1       309 1.06032E+02 3.07219E+01 0.00000E+00
 -1       310 1.07577E+02 3.16261E+01 0.00000E+00
 -1       311 1.09191E+02 3.23008E+01 0.00000E+00
 -1       312 1.10960E+02 3.28009E+01 0.00000E+00
 -1       313 1.12755E+02 3.25660E+01 0.00000E+00
 -1       314 1.14530E+02 3.21829E+01 0.00000E+00
 -1       315 1.16162E+02 3.13327E+01 0.00000E+00
 -1       316 1.17488E+02 3.01053E+01 0.00000E+00
 -1       317 1.18638E+02 2.87266E+01 0.00000E+00
 -1       318 1.19391E+02 2.70909E+01 0.00000E+00
 -1       319 1.19684E+02 2.53528E+01 0.00000E+00
 -1       320 5.19600E+00 4.11500E+01 0.00000E+00
 -1       321 5.19600E+00 4.41000E+01 0.00000E+00
 -1       322 5.19600E+00 3.52750E+01 0.00000E+00
 -1       323 5.19600E+00 3.23250E+01 0.00000E+00
 -1       324 5.19600E+00 2.93750E+01 0.00000E+00
 -1       325 5.19600E+00 2.64250E+01 0.00000E+00
 -1       326 5.19600E+00 2.34750E+01 0.00000E+00
 -1       327 5.19600E+00 2.05250E+01 0.00000E+00
 -1       328 5.19600E+00 1.76250E+01 0.00000E+00
 -1       329 5.19600E+00 1.46750E+01 0.00000E+00
 -1       330 5.19600E+00 1.17250E+01 0.00000E+00
 -1       331 5.19600E+00 8.77500E+00 0.00000E+00
 -1       332 5.19600E+00 5.82500E+00 0.00000E+00
 -1       333 5.53500E+00 4.00625E+00 0.00000E+00
 -1       334 8.53500E+00 4.00625E+00 0.00000E+00
 -1       335 9.15000E+00 4.48040E+01 0.00000E+00
 -1       336 1.21500E+01 4.48040E+01 0.00000E+00
 -1       337 1.51500E+01 4.48040E+01 0.00000E+00
 -1       338 1.81500E+01 4.48040E+01 0.00000E+00
 -1       339 2.11500E+01 4.48040E+01 0.00000E+00
 -1       340 2.41500E+01 4.48040E+01 0.00000E+00
 -1       341 2.71500E+01 4.48040E+01 0.00000E+00
 -1       342 3.01500E+01 4.48040E+01 0.00000E+00
 -1       343 3.31500E+01 4.48040E+01 0.00000E+00
 -1       344 3.61500E+01 4.48040E+01 0.00000E+00
 -1       345 3.91500E+01 4.48040E+01 0.00000E+00
 -1       346 4.21500E+01 4.48040E+01 0.00000E+00
 -1       347 4.51500E+01 4.48040E+01 0.00000E+00
 -1       348 4.81500E+01 4.48040E+01 0.00000E+00
 -1       349 5.11500E+01 4.48040E+01 0.00000E+00
 -1       350 5.41500E+01 4.48040E+01 0.00000E+00
 -1       351 5.71500E+01 4.48040E+01 0.00000E+00
 -1       352 6.01500E+01 4.48040E+01 0.00000E+00
 -1       353 6.31500E+01 4.48040E+01 0.00000E+00
 -1       354 6.61500E+01 4.48040E+01 0.00000E+00
 -1       355 6.91500E+01 4.48040E+01 0.00000E+00
 -1       356 7.21500E+01 4.48040E+01 0.00000E+00
 -1       357 7.51500E+01 4.48040E+01 0.00000E+00
 -1       358 7.81500E+01 4.48040E+01 0.00000E+00
 -1       359 8.11500E+01 4.48040E+01 0.00000E+00
 -1       360 8.41500E+01 4.48040E+01 0.00000E+00
 -1       361 8.71500E+01 4.48040E+01 0.00000E+00
 -1       362 9.01500E+01 4.48040E+01 0.00000E+00
 -1       363 9.31500E+01 4.48040E+01 0.00000E+00
 -1       364 9.61500E+01 4.48040E+01 0.00000E+00
 -1       365 9.91500E+01 4.48040E+01 0.00000E+00
 -1       366 1.02150E+02 4.48040E+01 0.00000E+00
 -1       367 1.05150E+02 4.48040E+01 0.00000E+00
 -1       368 1.08150E+02 4.48040E+01 0.00000E+00
 -1       369 1.11150E+02 4.48040E+01 0.00000E+00
 -1       370 1.14150E+02 4.48040E+01 0.00000E+00
 -1       371 1.17150E+02 4.48040E+01 0.00000E+00
 -1       372 1.20150E+02 4.48040E+01 0.00000E+00
 -1       373 1.23150E+02 4.48040E+01 0.00000E+00
 -1       374 1.26150E+02 4.48040E+01 0.00000E+00
 -1       375 1.29150E+02 4.48040E+01 0.00000E+00
 -1       376 1.32150E+02 4.48040E+01 0.00000E+00
 -1       377 1.35150E+02 4.48040E+01 0.00000E+00
 -1       378 1.38150E+02 4.48040E+01 0.00000E+00
 -1       379 1.41150E+02 4.48040E+01 0.00000E+00
 -1       380 1.43838E+02 4.49212E+01 0.00000E+00
 -1       381 1.15350E+01 4.00625E+00 0.00000E+00
 -1       382 1.45350E+01 4.00625E+00 0.00000E+00
 -1       383 1.75350E+01 4.00625E+00 0.00000E+00
 -1       384 2.05350E+01 4.00625E+00 0.00000E+00
 -1       385 2.35350E+01 4.00625E+00 0.00000E+00
 -1       386 2.65350E+01 4.00625E+00 0.00000E+00
 -1       387 2.95350E+01 4.00625E+00 0.00000E+00
 -1       388 3.25350E+01 4.00625E+00 0.00000E+00
 -1       389 3.55350E+01 4.00625E+00 0.00000E+00
 -1       390 3.85350E+01 4.00625E+00 0.00000E+00
 -1       391 4.15350E+01 4.00625E+00 0.00000E+00
 -1       392 4.45350E+01 4.00625E+00 0.00000E+00
 -1       393 4.75350E+01 4.00625E+00 0.00000E+00
 -1       394 5.05350E+01 4.00625E+00 0.00000E+00
 -1       395 5.35350E+01 4.00625E+00 0.00000E+00
 -1       396 5.65350E+01 4.00625E+00 0.00000E+00
 -1       397 5.95350E+01 4.00625E+00 0.00000E+00
 -1       398 6.25350E+01 4.00625E+00 0.00000E+00
 -1       399 6.55350E+01 4.00625E+00 0.00000E+00
 -1       400 6.85350E+01 4.00625E+00 0.00000E+00
 -1       401 7.15350E+01 4.00625E+00 0.00000E+00
 -1       402 7.45350E+01 4.00625E+00 0.00000E+00
 -1       403 7.75350E+01 4.00625E+00 0.00000E+00
 -1       404 8.05350E+01 4.00625E+00 0.00000E+00
 -1       405 8.35350E+01 4.00625E+00 0.00000E+00
 -1       406 8.65350E+01 4.00625E+00 0.00000E+00
 -1       407 8.95350E+01 4.00625E+00 0.00000E+00
 -1       408 9.25350E+01 4.00625E+00 0.00000E+00
 -1       409 9.55350E+01 4.00625E+00 0.00000E+00
 -1       410 9.85350E+01 4.00625E+00 0.00000E+00
 -1       411 1.01535E+02 4.00625E+00 0.00000E+00
 -1       412 1.04535E+02 4.00625E+00 0.00000E+00
 -1       413 1.07535E+02 4.00625E+00 0.00000E+00
 -1       414 1.10535E+02 4.00625E+00 0.00000E+00
 -1       415 1.13535E+02 4.00625E+00 0.00000E+00
 -1       416 1.16535E+02 4.00625E+00 0.00000E+00
 -1       417 1.19535E+02 4.00625E+00 0.00000E+00
 -1       418 1.22535E+02 4.00625E+00 0.00000E+00
 -1       419 1.25535E+02 4.00625E+00 0.00000E+00
 -1       420 1.28535E+02 4.00625E+00 0.00000E+00
 -1       421 1.31535E+02 4.00625E+00 0.00000E+00
 -1       422 1.34535E+02 4.00625E+00 0.00000E+00
 -1       423 1.37535E+02 4.00625E+00 0.00000E+00
 -1       424 1.40535E+02 4.00625E+00 0.00000E+00
 -1       425 1.43535E+02 4.00625E+00 0.00000E+00
 -1       426 1.45469E+02 4.21562E+00 0.00000E+00
 -1       427 1.44804E+02 1.18000E+01 0.00000E+00
 -1       428 1.44804E+02 8.85000E+00 0.00000E+00
 -1       429 1.45136E+02 6.53281E+00 0.00000E+00
 -1       430 1.44804E+02 1.47000E+01 0.00000E+00
 -1       431 1.44804E+02 1.76500E+01 0.00000E+00
 -1       432 1.44804E+02 2.06000E+01 0.00000E+00
 -1       433 1.44804E+02 2.35500E+01 0.00000E+00
 -1       434 1.44804E+02 2.65000E+01 0.00000E+00
 -1       435 1.44804E+02 2.94500E+01 0.00000E+00
 -1       436 1.44804E+02 3.23500E+01 0.00000E+00
 -1       437 1.44804E+02 3.53000E+01 0.00000E+00
 -1       438 1.44804E+02 3.82500E+01 0.00000E+00
 -1       439 1.44804E+02 4.12000E+01 0.00000E+00
 -1       440 1.20420E+02 2.04040E+01 0.00000E+00
 -1       441 1.21019E+02 2.45294E+01 0.00000E+00
 -1       442 1.21249E+02 2.23539E+01 0.00000E+00
 -1       443 1.19215E+02 1.87129E+01 0.00000E+00
 -1       444 1.17757E+02 1.72206E+01 0.00000E+00
 -1       445 5.19600E+00 3.82125E+01 0.00000E+00
 -1       446 1.14255E+02 1.51529E+01 0.00000E+00
 -1       447 1.12382E+02 1.48536E+01 0.00000E+00
 -1       448 1.10101E+02 1.48839E+01 0.00000E+00
 -1       449 1.08160E+02 1.54249E+01 0.00000E+00
 -1       450 1.06358E+02 1.64752E+01 0.00000E+00
 -1       451 1.04764E+02 1.75918E+01 0.00000E+00
 -1       452 1.03680E+02 1.93176E+01 0.00000E+00
 -1       453 1.02532E+02 2.10013E+01 0.00000E+00
 -1       454 1.02106E+02 2.27054E+01 0.00000E+00
 -1       455 1.01954E+02 2.51226E+01 0.00000E+00
 -1       456 1.02092E+02 2.71161E+01 0.00000E+00
 -1       457 1.03048E+02 2.94633E+01 0.00000E+00
 -1       458 1.04159E+02 3.09334E+01 0.00000E+00
 -1       459 1.06108E+02 3.23650E+01 0.00000E+00
 -1       460 1.07852E+02 3.32366E+01 0.00000E+00
 -1       461 1.09723E+02 3.37982E+01 0.00000E+00
 -1       462 1.12058E+02 3.42179E+01 0.00000E+00
 -1       463 1.13833E+02 3.38348E+01 0.00000E+00
 -1       464 1.16022E+02 3.30560E+01 0.00000E+00
 -1       465 1.17705E+02 3.16704E+01 0.00000E+00
 -1       466 1.19252E+02 3.04068E+01 0.00000E+00
 -1       467 1.20344E+02 2.85209E+01 0.00000E+00
 -1       468 1.20816E+02 2.64378E+01 0.00000E+00
 -1       469 1.16199E+02 1.61409E+01 0.00000E+00
 -1       470 1.00350E+01 6.60425E+00 0.00000E+00
 -1       471 7.79400E+00 3.08500E+01 0.00000E+00
 -1       472 7.79400E+00 3.38000E+01 0.00000E+00
 -1       473 7.79400E+00 2.49500E+01 0.00000E+00
 -1       474 7.79400E+00 2.20000E+01 0.00000E+00
 -1       475 7.79400E+00 1.91000E+01 0.00000E+00
 -1       476 7.79400E+00 1.61500E+01 0.00000E+00
 -1       477 7.79400E+00 1.32000E+01 0.00000E+00
 -1       478 7.79400E+00 1.02500E+01 0.00000E+00
 -1       479 1.30350E+01 6.60425E+00 0.00000E+00
 -1       480 1.06500E+01 4.22060E+01 0.00000E+00
 -1       481 1.17955E+02 1.52710E+01 0.00000E+00
 -1       482 1.36500E+01 4.22060E+01 0.00000E+00
 -1       483 1.66500E+01 4.22060E+01 0.00000E+00
 -1       484 1.96500E+01 4.22060E+01 0.00000E+00
 -1       485 2.26500E+01 4.22060E+01 0.00000E+00
 -1       486 2.56500E+01 4.22060E+01 0.00000E+00
 -1       487 2.86500E+01 4.22060E+01 0.00000E+00
 -1       488 3.16500E+01 4.22060E+01 0.00000E+00
 -1       489 3.46500E+01 4.22060E+01 0.00000E+00
 -1       490 3.76500E+01 4.22060E+01 0.00000E+00
 -1       491 4.06500E+01 4.22060E+01 0.00000E+00
 -1       492 4.36500E+01 4.22060E+01 0.00000E+00
 -1       493 4.66500E+01 4.22060E+01 0.00000E+00
 -1       494 4.96500E+01 4.22060E+01 0.00000E+00
 -1       495 5.26500E+01 4.22060E+01 0.00000E+00
 -1       496 5.56500E+01 4.22060E+01 0.00000E+00
 -1       497 5.86500E+01 4.22060E+01 0.00000E+00
 -1       498 6.16500E+01 4.22060E+01 0.00000E+00
 -1       499 6.46500E+01 4.22060E+01 0.00000E+00
 -1       500 6.76500E+01 4.22060E+01 0.00000E+00
 -1       501 7.06500E+01 4.22060E+01 0.00000E+00
 -1       502 7.36500E+01 4.22060E+01 0.00000E+00
 -1       503 7.66500E+01 4.22060E+01 0.00000E+00
 -1       504 7.96500E+01 4.22060E+01 0.00000E+00
 -1       505 8.26500E+01 4.22060E+01 0.00000E+00
 -1       506 8.56500E+01 4.22060E+01 0.00000E+00
 -1       507 8.86500E+01 4.22060E+01 0.00000E+00
 -1       508 9.16500E+01 4.22060E+01 0.00000E+00
 -1       509 9.46500E+01 4.22060E+01 0.00000E+00
 -1       510 9.76500E+01 4.22060E+01 0.00000E+00
 -1       511 1.00650E+02 4.22060E+01 0.00000E+00
 -1       512 1.03650E+02 4.22060E+01 0.00000E+00
 -1       513 1.06650E+02 4.22060E+01 0.00000E+00
 -1       514 1.09650E+02 4.22060E+01 0.00000E+00
 -1       515 1.12650E+02 4.22060E+01 0.00000E+00
 -1       516 1.15650E+02 4.22060E+01 0.00000E+00
 -1       517 1.18650E+02 4.22060E+01 0.00000E+00
 -1       518 1.21650E+02 4.22060E+01 0.00000E+00
 -1       519 1.24650E+02 4.22060E+01 0.00000E+00
 -1       520 1.27650E+02 4.22060E+01 0.00000E+00
 -1       521 1.30650E+02 4.22060E+01 0.00000E+00
 -1       522 1.33650E+02 4.22060E+01 0.00000E+00
 -1       523 1.36650E+02 4.22060E+01 0.00000E+00
 -1       524 1.39650E+02 4.22060E+01 0.00000E+00
 -1       525 1.90350E+01 6.60425E+00 0.00000E+00
 -1       526 2.20350E+01 6.60425E+00 0.00000E+00
 -1       527 2.50350E+01 6.60425E+00 0.00000E+00
 -1       528 2.80350E+01 6.60425E+00 0.00000E+00
 -1       529 3.10350E+01 6.60425E+00 0.00000E+00
 -1       530 3.40350E+01 6.60425E+00 0.00000E+00
 -1       531 3.70350E+01 6.60425E+00 0.00000E+00
 -1       532 4.00350E+01 6.60425E+00 0.00000E+00
 -1       533 4.30350E+01 6.60425E+00 0.00000E+00
 -1       534 4.60350E+01 6.60425E+00 0.00000E+00
 -1       535 4.90350E+01 6.60425E+00 0.00000E+00
 -1       536 5.20350E+01 6.60425E+00 0.00000E+00
 -1       537 5.50350E+01 6.60425E+00 0.00000E+00
 -1       538 5.80350E+01 6.60425E+00 0.00000E+00
 -1       539 6.10350E+01 6.60425E+00 0.00000E+00
 -1       540 6.40350E+01 6.60425E+00 0.00000E+00
 -1       541 6.70350E+01 6.60425E+00 0.00000E+00
 -1       542 7.00350E+01 6.60425E+00 0.00000E+00
 -1       543 7.30350E+01 6.60425E+00 0.00000E+00
 -1       544 7.60350E+01 6.60425E+00 0.00000E+00
 -1       545 7.90350E+01 6.60425E+00 0.00000E+00
 -1       546 8.20350E+01 6.60425E+00 0.00000E+00
 -1       547 8.50350E+01 6.60425E+00 0.00000E+00
 -1       548 8.80350E+01 6.60425E+00 0.00000E+00
 -1       549 9.10350E+01 6.60425E+00 0.00000E+00
 -1       550 9.40350E+01 6.60425E+00 0.00000E+00
 -1       551 9.70350E+01 6.60425E+00 0.00000E+00
 -1       552 1.00035E+02 6.60425E+00 0.00000E+00
 -1       553 1.03035E+02 6.60425E+00 0.00000E+00
 -1       554 1.06035E+02 6.60425E+00 0.00000E+00
 -1       555 1.09035E+02 6.60425E+00 0.00000E+00
 -1       556 1.12035E+02 6.60425E+00 0.00000E+00
 -1       557 1.15035E+02 6.60425E+00 0.00000E+00
 -1       558 1.18035E+02 6.60425E+00 0.00000E+00
 -1       559 1.21035E+02 6.60425E+00 0.00000E+00
 -1       560 1.24035E+02 6.60425E+00 0.00000E+00
 -1       561 1.27035E+02 6.60425E+00 0.00000E+00
 -1       562 1.30035E+02 6.60425E+00 0.00000E+00
 -1       563 1.33035E+02 6.60425E+00 0.00000E+00
 -1       564 1.36035E+02 6.60425E+00 0.00000E+00
 -1       565 1.39035E+02 6.60425E+00 0.00000E+00
 -1       566 1.42035E+02 6.60425E+00 0.00000E+00
 -1       567 1.42206E+02 1.61750E+01 0.00000E+00
 -1       568 1.42206E+02 1.91250E+01 0.00000E+00
 -1       569 1.42206E+02 1.03250E+01 0.00000E+00
 -1       570 1.42206E+02 1.32500E+01 0.00000E+00
 -1       571 1.42206E+02 2.20750E+01 0.00000E+00
 -1       572 1.42206E+02 2.50250E+01 0.00000E+00
 -1       573 1.42206E+02 2.79750E+01 0.00000E+00
 -1       574 1.42206E+02 3.08750E+01 0.00000E+00
 -1       575 1.42206E+02 3.38250E+01 0.00000E+00
 -1       576 1.42206E+02 3.67750E+01 0.00000E+00
 -1       577 1.42206E+02 3.97250E+01 0.00000E+00
 -1       578 1.23006E+02 2.36398E+01 0.00000E+00
 -1       579 1.21351E+02 1.84660E+01 0.00000E+00
 -1       580 1.60350E+01 6.60425E+00 0.00000E+00
 -1       581 1.22803E+02 2.55482E+01 0.00000E+00
 -1       582 1.22413E+02 2.07077E+01 0.00000E+00
 -1       583 7.92300E+00 4.16780E+01 0.00000E+00
 -1       584 1.22171E+02 2.78398E+01 0.00000E+00
 -1       585 1.10617E+02 3.55312E+01 0.00000E+00
 -1       586 1.00981E+02 2.89364E+01 0.00000E+00
 -1       587 1.01897E+02 1.93348E+01 0.00000E+00
 -1       588 7.79400E+00 2.79000E+01 0.00000E+00
 -1       589 1.11216E+02 1.29862E+01 0.00000E+00
 -1       590 1.00396E+02 2.62319E+01 0.00000E+00
 -1       591 1.13576E+02 1.33924E+01 0.00000E+00
 -1       592 1.08692E+02 1.35830E+01 0.00000E+00
 -1       593 1.06396E+02 1.44681E+01 0.00000E+00
 -1       594 1.04577E+02 1.56288E+01 0.00000E+00
 -1       595 1.02980E+02 1.76090E+01 0.00000E+00
 -1       596 1.00330E+02 2.13562E+01 0.00000E+00
 -1       597 1.06325E+02 3.41101E+01 0.00000E+00
 -1       598 1.00178E+02 2.37734E+01 0.00000E+00
 -1       599 1.02302E+02 3.11820E+01 0.00000E+00
 -1       600 1.18060E+02 3.38168E+01 0.00000E+00
 -1       601 1.04217E+02 3.28964E+01 0.00000E+00
 -1       602 1.08294E+02 3.51601E+01 0.00000E+00
 -1       603 1.13343E+02 3.58666E+01 0.00000E+00
 -1       604 1.15532E+02 3.50878E+01 0.00000E+00
 -1       605 1.19606E+02 3.25532E+01 0.00000E+00
 -1       606 1.21282E+02 3.03233E+01 0.00000E+00
 -1       607 1.16004E+02 1.41179E+01 0.00000E+00
 -1       608 7.61550E+00 6.21462E+00 0.00000E+00
 -1       609 1.19653E+02 1.68268E+01 0.00000E+00
 -1       610 7.79400E+00 3.67375E+01 0.00000E+00
 -1       611 1.24170E+02 2.19936E+01 0.00000E+00
 -1       612 1.41678E+02 4.22645E+01 0.00000E+00
 -1       613 1.03920E+01 2.05500E+01 0.00000E+00
 -1       614 1.03920E+01 2.35000E+01 0.00000E+00
 -1       615 1.03920E+01 1.46750E+01 0.00000E+00
 -1       616 1.03920E+01 1.17250E+01 0.00000E+00
 -1       617 1.15350E+01 9.20225E+00 0.00000E+00
 -1       618 1.24140E+02 2.71502E+01 0.00000E+00
 -1       619 1.15329E+02 1.19512E+01 0.00000E+00
 -1       620 1.51500E+01 3.96080E+01 0.00000E+00
 -1       621 1.81500E+01 3.96080E+01 0.00000E+00
 -1       622 2.11500E+01 3.96080E+01 0.00000E+00
 -1       623 2.41500E+01 3.96080E+01 0.00000E+00
 -1       624 2.71500E+01 3.96080E+01 0.00000E+00
 -1       625 3.01500E+01 3.96080E+01 0.00000E+00
 -1       626 3.31500E+01 3.96080E+01 0.00000E+00
 -1       627 3.61500E+01 3.96080E+01 0.00000E+00
 -1       628 3.91500E+01 3.96080E+01 0.00000E+00
 -1       629 4.21500E+01 3.96080E+01 0.00000E+00
 -1       630 4.51500E+01 3.96080E+01 0.00000E+00
 -1       631 4.81500E+01 3.96080E+01 0.00000E+00
 -1       632 5.11500E+01 3.96080E+01 0.00000E+00
 -1       633 5.41500E+01 3.96080E+01 0.00000E+00
 -1       634 5.71500E+01 3.96080E+01 0.00000E+00
 -1       635 6.01500E+01 3.96080E+01 0.00000E+00
 -1       636 6.31500E+01 3.96080E+01 0.00000E+00
 -1       637 6.61500E+01 3.96080E+01 0.00000E+00
 -1       638 6.91500E+01 3.96080E+01 0.00000E+00
 -1       639 7.21500E+01 3.96080E+01 0.00000E+00
 -1       640 7.51500E+01 3.96080E+01 0.00000E+00
 -1       641 7.81500E+01 3.96080E+01 0.00000E+00
 -1       642 8.11500E+01 3.96080E+01 0.00000E+00
 -1       643 8.41500E+01 3.96080E+01 0.00000E+00
 -1       644 8.71500E+01 3.96080E+01 0.00000E+00
 -1       645 9.01500E+01 3.96080E+01 0.00000E+00
 -1       646 9.31500E+01 3.96080E+01 0.00000E+00
 -1       647 9.61500E+01 3.96080E+01 0.00000E+00
 -1       648 9.91500E+01 3.96080E+01 0.00000E+00
 -1       649 1.02150E+02 3.96080E+01 0.00000E+00
 -1       650 1.05150E+02 3.96080E+01 0.00000E+00
 -1       651 1.08150E+02 3.96080E+01 0.00000E+00
 -1       652 1.11150E+02 3.96080E+01 0.00000E+00
 -1       653 1.14150E+02 3.96080E+01 0.00000E+00
 -1       654 1.17150E+02 3.96080E+01 0.00000E+00
 -1       655 1.20150E+02 3.96080E+01 0.00000E+00
 -1       656 1.23150E+02 3.96080E+01 0.00000E+00
 -1       657 1.26150E+02 3.96080E+01 0.00000E+00
 -1       658 1.29150E+02 3.96080E+01 0.00000E+00
 -1       659 1.32150E+02 3.96080E+01 0.00000E+00
 -1       660 1.35150E+02 3.96080E+01 0.00000E+00
 -1       661 1.38150E+02 3.96080E+01 0.00000E+00
 -1       662 2.35350E+01 9.20225E+00 0.00000E+00
 -1       663 1.39206E+02 1.03250E+01 0.00000E+00
 -1       664 2.05350E+01 9.20225E+00 0.00000E+00
 -1       665 2.95350E+01 9.20225E+00 0.00000E+00
 -1       666 3.25350E+01 9.20225E+00 0.00000E+00
 -1       667 3.55350E+01 9.20225E+00 0.00000E+00
 -1       668 3.85350E+01 9.20225E+00 0.00000E+00
 -1       669 4.15350E+01 9.20225E+00 0.00000E+00
 -1       670 4.45350E+01 9.20225E+00 0.00000E+00
 -1       671 4.75350E+01 9.20225E+00 0.00000E+00
 -1       672 5.05350E+01 9.20225E+00 0.00000E+00
 -1       673 5.35350E+01 9.20225E+00 0.00000E+00
 -1       674 5.65350E+01 9.20225E+00 0.00000E+00
 -1       675 5.95350E+01 9.20225E+00 0.00000E+00
 -1       676 6.25350E+01 9.20225E+00 0.00000E+00
 -1       677 6.55350E+01 9.20225E+00 0.00000E+00
 -1       678 6.85350E+01 9.20225E+00 0.00000E+00
 -1       679 7.15350E+01 9.20225E+00 0.00000E+00
 -1       680 7.45350E+01 9.20225E+00 0.00000E+00
 -1       681 7.75350E+01 9.20225E+00 0.00000E+00
 -1       682 8.05350E+01 9.20225E+00 0.00000E+00
 -1       683 8.35350E+01 9.20225E+00 0.00000E+00
 -1       684 8.65350E+01 9.20225E+00 0.00000E+00
 -1       685 8.95350E+01 9.20225E+00 0.00000E+00
 -1       686 9.25350E+01 9.20225E+00 0.00000E+00
 -1       687 9.55350E+01 9.20225E+00 0.00000E+00
 -1       688 9.85350E+01 9.20225E+00 0.00000E+00
 -1       689 1.01535E+02 9.20225E+00 0.00000E+00
 -1       690 1.04535E+02 9.20225E+00 0.00000E+00
 -1       691 1.07535E+02 9.20225E+00 0.00000E+00
 -1       692 1.10535E+02 9.20225E+00 0.00000E+00
 -1       693 1.13535E+02 9.20225E+00 0.00000E+00
 -1       694 1.16535E+02 9.20225E+00 0.00000E+00
 -1       695 1.19535E+02 9.20225E+00 0.00000E+00
 -1       696 1.22535E+02 9.20225E+00 0.00000E+00
 -1       697 1.25535E+02 9.20225E+00 0.00000E+00
 -1       698 1.28535E+02 9.20225E+00 0.00000E+00
 -1       699 1.31535E+02 9.20225E+00 0.00000E+00
 -1       700 1.34535E+02 9.20225E+00 0.00000E+00
 -1       701 1.36870E+02 9.76363E+00 0.00000E+00
 -1       702 1.21926E+02 1.61715E+01 0.00000E+00
 -1       703 1.39608E+02 2.35500E+01 0.00000E+00
 -1       704 1.40178E+02 3.96665E+01 0.00000E+00
 -1       705 1.39608E+02 1.76500E+01 0.00000E+00
 -1       706 1.39608E+02 2.65000E+01 0.00000E+00
 -1       707 1.39608E+02 2.06000E+01 0.00000E+00
 -1       708 1.19919E+02 3.45131E+01 0.00000E+00
 -1       709 1.39608E+02 2.94000E+01 0.00000E+00
 -1       710 1.39608E+02 3.23500E+01 0.00000E+00
 -1       711 1.39608E+02 3.53000E+01 0.00000E+00
 -1       712 1.23735E+02 1.87091E+01 0.00000E+00
 -1       713 1.24610E+02 2.47759E+01 0.00000E+00
 -1       714 1.09158E+02 3.72047E+01 0.00000E+00
 -1       715 1.07220E+01 3.94717E+01 0.00000E+00
 -1       716 1.04248E+02 3.52801E+01 0.00000E+00
 -1       717 1.00844E+02 1.74708E+01 0.00000E+00
 -1       718 9.97299E+01 3.11834E+01 0.00000E+00
 -1       719 1.75350E+01 9.20225E+00 0.00000E+00
 -1       720 2.65350E+01 9.20225E+00 0.00000E+00
 -1       721 1.45350E+01 9.20225E+00 0.00000E+00
 -1       722 1.04473E+02 1.34613E+01 0.00000E+00
 -1       723 1.22083E+02 3.26699E+01 0.00000E+00
 -1       724 1.03920E+01 1.76125E+01 0.00000E+00
 -1       725 1.06542E+02 3.60745E+01 0.00000E+00
 -1       726 1.17717E+02 3.62842E+01 0.00000E+00
 -1       727 9.92772E+01 1.94921E+01 0.00000E+00
 -1       728 1.06927E+02 1.24252E+01 0.00000E+00
 -1       729 9.90124E+01 2.79471E+01 0.00000E+00
 -1       730 1.23499E+02 2.97159E+01 0.00000E+00
 -1       731 1.03920E+01 3.23250E+01 0.00000E+00
 -1       732 9.83751E+01 2.24470E+01 0.00000E+00
 -1       733 1.01780E+02 3.36917E+01 0.00000E+00
 -1       734 1.02440E+02 1.54905E+01 0.00000E+00
 -1       735 9.86621E+01 2.51464E+01 0.00000E+00
 -1       736 1.15125E+02 3.74089E+01 0.00000E+00
 -1       737 1.11750E+02 3.75675E+01 0.00000E+00
 -1       738 1.17938E+02 1.30737E+01 0.00000E+00
 -1       739 1.09482E+02 1.12894E+01 0.00000E+00
 -1       740 1.20228E+02 1.46157E+01 0.00000E+00
 -1       741 1.12744E+02 1.11688E+01 0.00000E+00
 -1       742 1.03920E+01 3.52625E+01 0.00000E+00
 -1       743 1.03920E+01 2.64500E+01 0.00000E+00
 -1       744 1.39608E+02 1.47250E+01 0.00000E+00
 -1       745 1.25492E+02 1.99949E+01 0.00000E+00
 -1       746 1.03920E+01 2.93875E+01 0.00000E+00
 -1       747 1.38879E+02 3.74540E+01 0.00000E+00
 -1       748 1.04669E+02 3.77730E+01 0.00000E+00
 -1       749 1.29900E+01 1.32000E+01 0.00000E+00
 -1       750 1.96500E+01 3.70100E+01 0.00000E+00
 -1       751 2.26500E+01 3.70100E+01 0.00000E+00
 -1       752 2.56500E+01 3.70100E+01 0.00000E+00
 -1       753 2.86500E+01 3.70100E+01 0.00000E+00
 -1       754 3.16500E+01 3.70100E+01 0.00000E+00
 -1       755 3.46500E+01 3.70100E+01 0.00000E+00
 -1       756 3.76500E+01 3.70100E+01 0.00000E+00
 -1       757 4.06500E+01 3.70100E+01 0.00000E+00
 -1       758 4.36500E+01 3.70100E+01 0.00000E+00
 -1       759 4.66500E+01 3.70100E+01 0.00000E+00
 -1       760 4.96500E+01 3.70100E+01 0.00000E+00
 -1       761 5.26500E+01 3.70100E+01 0.00000E+00
 -1       762 5.56500E+01 3.70100E+01 0.00000E+00
 -1       763 5.86500E+01 3.70100E+01 0.00000E+00
 -1       764 6.16500E+01 3.70100E+01 0.00000E+00
 -1       765 6.46500E+01 3.70100E+01 0.00000E+00
 -1       766 6.76500E+01 3.70100E+01 0.00000E+00
 -1       767 7.06500E+01 3.70100E+01 0.00000E+00
 -1       768 7.36500E+01 3.70100E+01 0.00000E+00
 -1       769 7.66500E+01 3.70100E+01 0.00000E+00
 -1       770 7.96500E+01 3.70100E+01 0.00000E+00
 -1       771 8.26500E+01 3.70100E+01 0.00000E+00
 -1       772 8.56500E+01 3.70100E+01 0.00000E+00
 -1       773 8.86500E+01 3.70100E+01 0.00000E+00
 -1       774 9.16500E+01 3.70100E+01 0.00000E+00
 -1       775 9.46500E+01 3.70100E+01 0.00000E+00
 -1       776 9.76500E+01 3.70100E+01 0.00000E+00
 -1       777 1.00650E+02 3.70100E+01 0.00000E+00
 -1       778 1.18650E+02 3.73902E+01 0.00000E+00
 -1       779 1.21650E+02 3.73902E+01 0.00000E+00
 -1       780 1.24650E+02 3.73902E+01 0.00000E+00
 -1       781 1.27650E+02 3.73902E+01 0.00000E+00
 -1       782 1.30650E+02 3.73902E+01 0.00000E+00
 -1       783 1.33650E+02 3.73902E+01 0.00000E+00
 -1       784 1.36264E+02 3.74221E+01 0.00000E+00
 -1       785 2.20350E+01 1.18003E+01 0.00000E+00
 -1       786 3.40350E+01 1.18003E+01 0.00000E+00
 -1       787 3.10350E+01 1.18003E+01 0.00000E+00
 -1       788 4.00350E+01 1.18003E+01 0.00000E+00
 -1       789 4.30350E+01 1.18003E+01 0.00000E+00
 -1       790 4.60350E+01 1.18003E+01 0.00000E+00
 -1       791 4.90350E+01 1.18003E+01 0.00000E+00
 -1       792 5.20350E+01 1.18003E+01 0.00000E+00
 -1       793 5.50350E+01 1.18003E+01 0.00000E+00
 -1       794 5.80350E+01 1.18003E+01 0.00000E+00
 -1       795 6.10350E+01 1.18003E+01 0.00000E+00
 -1       796 6.40350E+01 1.18003E+01 0.00000E+00
 -1       797 6.70350E+01 1.18003E+01 0.00000E+00
 -1       798 7.00350E+01 1.18003E+01 0.00000E+00
 -1       799 7.30350E+01 1.18003E+01 0.00000E+00
 -1       800 7.60350E+01 1.18003E+01 0.00000E+00
 -1       801 7.90350E+01 1.18003E+01 0.00000E+00
 -1       802 8.20350E+01 1.18003E+01 0.00000E+00
 -1       803 8.50350E+01 1.18003E+01 0.00000E+00
 -1       804 8.80350E+01 1.18003E+01 0.00000E+00
 -1       805 9.10350E+01 1.18003E+01 0.00000E+00
 -1       806 9.40350E+01 1.18003E+01 0.00000E+00
 -1       807 9.70350E+01 1.18003E+01 0.00000E+00
 -1       808 1.00035E+02 1.18003E+01 0.00000E+00
 -1       809 1.21035E+02 1.18003E+01 0.00000E+00
 -1       810 1.24035E+02 1.18003E+01 0.00000E+00
 -1       811 1.27035E+02 1.18003E+01 0.00000E+00
 -1       812 1.30035E+02 1.18003E+01 0.00000E+00
 -1       813 1.33035E+02 1.18003E+01 0.00000E+00
 -1       814 1.37010E+02 2.50250E+01 0.00000E+00
 -1       815 1.37010E+02 3.38250E+01 0.00000E+00
 -1       816 1.37010E+02 2.79250E+01 0.00000E+00
 -1       817 1.26386E+02 2.63611E+01 0.00000E+00
 -1       818 1.25809E+02 2.89301E+01 0.00000E+00
 -1       819 1.90350E+01 1.18003E+01 0.00000E+00
 -1       820 9.70255E+01 2.04198E+01 0.00000E+00
 -1       821 1.37010E+02 3.08750E+01 0.00000E+00
 -1       822 1.24637E+02 1.61531E+01 0.00000E+00
 -1       823 3.70350E+01 1.18003E+01 0.00000E+00
 -1       824 1.22221E+02 3.50249E+01 0.00000E+00
 -1       825 9.64798E+01 2.40135E+01 0.00000E+00
 -1       826 9.84401E+01 1.72254E+01 0.00000E+00
 -1       827 1.66500E+01 3.70100E+01 0.00000E+00
 -1       828 9.68301E+01 2.68141E+01 0.00000E+00
 -1       829 1.24640E+02 3.20789E+01 0.00000E+00
 -1       830 1.37625E+01 1.12011E+01 0.00000E+00
 -1       831 9.89082E+01 3.39472E+01 0.00000E+00
 -1       832 1.35210E+01 3.61362E+01 0.00000E+00
 -1       833 1.26581E+02 2.30383E+01 0.00000E+00
 -1       834 9.73695E+01 3.00090E+01 0.00000E+00
 -1       835 1.29900E+01 2.20250E+01 0.00000E+00
 -1       836 1.22836E+02 1.39767E+01 0.00000E+00
 -1       837 1.29900E+01 2.49750E+01 0.00000E+00
 -1       838 1.29900E+01 1.61375E+01 0.00000E+00
 -1       839 1.37010E+02 1.61875E+01 0.00000E+00
 -1       840 9.65478E+01 3.27729E+01 0.00000E+00
 -1       841 9.61884E+01 1.81531E+01 0.00000E+00
 -1       842 1.24778E+02 3.44339E+01 0.00000E+00
 -1       843 1.63988E+01 1.15007E+01 0.00000E+00
 -1       844 1.35210E+01 3.31987E+01 0.00000E+00
 -1       845 2.80350E+01 1.18003E+01 0.00000E+00
 -1       846 1.35370E+02 1.23616E+01 0.00000E+00
 -1       847 1.37010E+02 1.91375E+01 0.00000E+00
 -1       848 2.50350E+01 1.18003E+01 0.00000E+00
 -1       849 1.37010E+02 2.20812E+01 0.00000E+00
 -1       850 1.26394E+02 1.74390E+01 0.00000E+00
 -1       851 9.89395E+01 1.46355E+01 0.00000E+00
 -1       852 1.35210E+01 3.02612E+01 0.00000E+00
 -1       853 9.51303E+01 2.19863E+01 0.00000E+00
 -1       854 1.36940E+02 1.29756E+01 0.00000E+00
 -1       855 1.29900E+01 1.90812E+01 0.00000E+00
 -1       856 1.36637E+02 3.56235E+01 0.00000E+00
 -1       857 2.41500E+01 3.44120E+01 0.00000E+00
 -1       858 2.71500E+01 3.44120E+01 0.00000E+00
 -1       859 3.01500E+01 3.44120E+01 0.00000E+00
 -1       860 3.31500E+01 3.44120E+01 0.00000E+00
 -1       861 3.61500E+01 3.44120E+01 0.00000E+00
 -1       862 3.91500E+01 3.44120E+01 0.00000E+00
 -1       863 4.21500E+01 3.44120E+01 0.00000E+00
 -1       864 4.51500E+01 3.44120E+01 0.00000E+00
 -1       865 4.81500E+01 3.44120E+01 0.00000E+00
 -1       866 5.11500E+01 3.44120E+01 0.00000E+00
 -1       867 5.41500E+01 3.44120E+01 0.00000E+00
 -1       868 5.71500E+01 3.44120E+01 0.00000E+00
 -1       869 6.01500E+01 3.44120E+01 0.00000E+00
 -1       870 6.31500E+01 3.44120E+01 0.00000E+00
 -1       871 6.61500E+01 3.44120E+01 0.00000E+00
 -1       872 6.91500E+01 3.44120E+01 0.00000E+00
 -1       873 7.21500E+01 3.44120E+01 0.00000E+00
 -1       874 7.51500E+01 3.44120E+01 0.00000E+00
 -1       875 7.81500E+01 3.44120E+01 0.00000E+00
 -1       876 8.11500E+01 3.44120E+01 0.00000E+00
 -1       877 8.41500E+01 3.44120E+01 0.00000E+00
 -1       878 8.71500E+01 3.44120E+01 0.00000E+00
 -1       879 9.01500E+01 3.44120E+01 0.00000E+00
 -1       880 9.31500E+01 3.44120E+01 0.00000E+00
 -1       881 1.29150E+02 3.47922E+01 0.00000E+00
 -1       882 1.32150E+02 3.47922E+01 0.00000E+00
 -1       883 4.45350E+01 1.43982E+01 0.00000E+00
 -1       884 4.15350E+01 1.43982E+01 0.00000E+00
 -1       885 5.05350E+01 1.43982E+01 0.00000E+00
 -1       886 5.35350E+01 1.43982E+01 0.00000E+00
 -1       887 5.65350E+01 1.43982E+01 0.00000E+00
 -1       888 5.95350E+01 1.43982E+01 0.00000E+00
 -1       889 6.25350E+01 1.43982E+01 0.00000E+00
 -1       890 6.55350E+01 1.43982E+01 0.00000E+00
 -1       891 6.85350E+01 1.43982E+01 0.00000E+00
 -1       892 7.15350E+01 1.43982E+01 0.00000E+00
 -1       893 7.45350E+01 1.43982E+01 0.00000E+00
 -1       894 7.75350E+01 1.43982E+01 0.00000E+00
 -1       895 8.05350E+01 1.43982E+01 0.00000E+00
 -1       896 8.35350E+01 1.43982E+01 0.00000E+00
 -1       897 8.65350E+01 1.43982E+01 0.00000E+00
 -1       898 8.95350E+01 1.43982E+01 0.00000E+00
 -1       899 9.25350E+01 1.43982E+01 0.00000E+00
 -1       900 9.55350E+01 1.43982E+01 0.00000E+00
 -1       901 1.31535E+02 1.43982E+01 0.00000E+00
 -1       902 1.34412E+02 2.64750E+01 0.00000E+00
 -1       903 1.28098E+02 2.80955E+01 0.00000E+00
 -1       904 2.05350E+01 1.43982E+01 0.00000E+00
 -1       905 1.28535E+02 1.43982E+01 0.00000E+00
 -1       906 1.25685E+02 1.41875E+01 0.00000E+00
 -1       907 1.28698E+02 2.48293E+01 0.00000E+00
 -1       908 4.75350E+01 1.43982E+01 0.00000E+00
 -1       909 3.25350E+01 1.43982E+01 0.00000E+00
 -1       910 9.55989E+01 3.48914E+01 0.00000E+00
 -1       911 1.32555E+01 2.76181E+01 0.00000E+00
 -1       912 1.27461E+02 3.13344E+01 0.00000E+00
 -1       913 2.11500E+01 3.44120E+01 0.00000E+00
 -1       914 1.28440E+02 2.06567E+01 0.00000E+00
 -1       915 1.81500E+01 3.44120E+01 0.00000E+00
 -1       916 9.47868E+01 2.56475E+01 0.00000E+00
 -1       917 2.35350E+01 1.43982E+01 0.00000E+00
 -1       918 9.49129E+01 2.87808E+01 0.00000E+00
 -1       919 1.55880E+01 1.46687E+01 0.00000E+00
 -1       920 9.40913E+01 3.15446E+01 0.00000E+00
 -1       921 9.42931E+01 1.97196E+01 0.00000E+00
 -1       922 2.95350E+01 1.43982E+01 0.00000E+00
 -1       923 3.55350E+01 1.43982E+01 0.00000E+00
 -1       924 1.34394E+02 3.52079E+01 0.00000E+00
 -1       925 1.78988E+01 1.40987E+01 0.00000E+00
 -1       926 3.85350E+01 1.43982E+01 0.00000E+00
 -1       927 1.34412E+02 2.94250E+01 0.00000E+00
 -1       928 1.55880E+01 2.35000E+01 0.00000E+00
 -1       929 1.33870E+02 1.49596E+01 0.00000E+00
 -1       930 1.34412E+02 2.35313E+01 0.00000E+00
 -1       931 2.65350E+01 1.43982E+01 0.00000E+00
 -1       932 9.34373E+01 2.36203E+01 0.00000E+00
 -1       933 1.30557E+02 2.24476E+01 0.00000E+00
 -1       934 1.55880E+01 2.05562E+01 0.00000E+00
 -1       935 1.58355E+01 3.38054E+01 0.00000E+00
 -1       936 1.34412E+02 1.76625E+01 0.00000E+00
 -1       937 1.34766E+02 3.34093E+01 0.00000E+00
 -1       938 1.58355E+01 3.08679E+01 0.00000E+00
 -1       939 1.27464E+02 1.59186E+01 0.00000E+00
 -1       940 1.30120E+02 3.01753E+01 0.00000E+00
 -1       941 2.86500E+01 3.18140E+01 0.00000E+00
 -1       942 3.16500E+01 3.18140E+01 0.00000E+00
 -1       943 3.46500E+01 3.18140E+01 0.00000E+00
 -1       944 3.76500E+01 3.18140E+01 0.00000E+00
 -1       945 4.06500E+01 3.18140E+01 0.00000E+00
 -1       946 4.36500E+01 3.18140E+01 0.00000E+00
 -1       947 4.66500E+01 3.18140E+01 0.00000E+00
 -1       948 4.96500E+01 3.18140E+01 0.00000E+00
 -1       949 5.26500E+01 3.18140E+01 0.00000E+00
 -1       950 5.56500E+01 3.18140E+01 0.00000E+00
 -1       951 5.86500E+01 3.18140E+01 0.00000E+00
 -1       952 6.16500E+01 3.18140E+01 0.00000E+00
 -1       953 6.46500E+01 3.18140E+01 0.00000E+00
 -1       954 6.76500E+01 3.18140E+01 0.00000E+00
 -1       955 7.06500E+01 3.18140E+01 0.00000E+00
 -1       956 7.36500E+01 3.18140E+01 0.00000E+00
 -1       957 7.66500E+01 3.18140E+01 0.00000E+00
 -1       958 7.96500E+01 3.18140E+01 0.00000E+00
 -1       959 8.26500E+01 3.18140E+01 0.00000E+00
 -1       960 8.56500E+01 3.18140E+01 0.00000E+00
 -1       961 8.86500E+01 3.18140E+01 0.00000E+00
 -1       962 5.80350E+01 1.69963E+01 0.00000E+00
 -1       963 1.30650E+02 3.21942E+01 0.00000E+00
 -1       964 1.26923E+02 3.31265E+01 0.00000E+00
 -1       965 5.50350E+01 1.69963E+01 0.00000E+00
 -1       966 5.20350E+01 1.69963E+01 0.00000E+00
 -1       967 6.10350E+01 1.69963E+01 0.00000E+00
 -1       968 6.40350E+01 1.69963E+01 0.00000E+00
 -1       969 6.70350E+01 1.69963E+01 0.00000E+00
 -1       970 7.00350E+01 1.69963E+01 0.00000E+00
 -1       971 7.30350E+01 1.69963E+01 0.00000E+00
 -1       972 7.60350E+01 1.69963E+01 0.00000E+00
 -1       973 7.90350E+01 1.69963E+01 0.00000E+00
 -1       974 8.20350E+01 1.69963E+01 0.00000E+00
 -1       975 8.50350E+01 1.69963E+01 0.00000E+00
 -1       976 8.80350E+01 1.69963E+01 0.00000E+00
 -1       977 9.10350E+01 1.69963E+01 0.00000E+00
 -1       978 2.20350E+01 1.69963E+01 0.00000E+00
 -1       979 1.32077E+02 1.71011E+01 0.00000E+00
 -1       980 1.29770E+02 1.65099E+01 0.00000E+00
 -1       981 4.30350E+01 1.69963E+01 0.00000E+00
 -1       982 2.50350E+01 1.69963E+01 0.00000E+00
 -1       983 2.26500E+01 3.18140E+01 0.00000E+00
 -1       984 1.55880E+01 1.76125E+01 0.00000E+00
 -1       985 1.96500E+01 3.18140E+01 0.00000E+00
 -1       986 2.56500E+01 3.18140E+01 0.00000E+00
 -1       987 9.26339E+01 2.73033E+01 0.00000E+00
 -1       988 9.34141E+01 1.70589E+01 0.00000E+00
 -1       989 1.34412E+02 2.05969E+01 0.00000E+00
 -1       990 1.58535E+01 2.61431E+01 0.00000E+00
 -1       991 1.77428E+01 3.13409E+01 0.00000E+00
 -1       992 1.30909E+02 2.69235E+01 0.00000E+00
 -1       993 9.26002E+01 2.13536E+01 0.00000E+00
 -1       994 4.90350E+01 1.69963E+01 0.00000E+00
 -1       995 9.16500E+01 3.18140E+01 0.00000E+00
 -1       996 1.58445E+01 2.85055E+01 0.00000E+00
 -1       997 3.10350E+01 1.69963E+01 0.00000E+00
 -1       998 4.00350E+01 1.69963E+01 0.00000E+00
 -1       999 3.40350E+01 1.69963E+01 0.00000E+00
 -1      1000 1.90351E+01 1.69963E+01 0.00000E+00
 -1      1001 9.12843E+01 2.52761E+01 0.00000E+00
 -1      1002 1.31814E+02 2.50031E+01 0.00000E+00
 -1      1003 2.80350E+01 1.69963E+01 0.00000E+00
 -1      1004 1.31177E+02 1.95688E+01 0.00000E+00
 -1      1005 4.60350E+01 1.69963E+01 0.00000E+00
 -1      1006 1.83057E+01 2.45619E+01 0.00000E+00
 -1      1007 9.21419E+01 2.95586E+01 0.00000E+00
 -1      1008 1.83057E+01 2.16182E+01 0.00000E+00
 -1      1009 1.29609E+02 1.76537E+01 0.00000E+00
 -1      1010 2.65350E+01 1.95942E+01 0.00000E+00
 -1      1011 3.31500E+01 2.92160E+01 0.00000E+00
 -1      1012 3.61500E+01 2.92160E+01 0.00000E+00
 -1      1013 3.91500E+01 2.92160E+01 0.00000E+00
 -1      1014 4.21500E+01 2.92160E+01 0.00000E+00
 -1      1015 4.51500E+01 2.92160E+01 0.00000E+00
 -1      1016 4.81500E+01 2.92160E+01 0.00000E+00
 -1      1017 5.11500E+01 2.92160E+01 0.00000E+00
 -1      1018 5.41500E+01 2.92160E+01 0.00000E+00
 -1      1019 5.71500E+01 2.92160E+01 0.00000E+00
 -1      1020 6.01500E+01 2.92160E+01 0.00000E+00
 -1      1021 6.31500E+01 2.92160E+01 0.00000E+00
 -1      1022 6.61500E+01 2.92160E+01 0.00000E+00
 -1      1023 6.91500E+01 2.92160E+01 0.00000E+00
 -1      1024 7.21500E+01 2.92160E+01 0.00000E+00
 -1      1025 7.51500E+01 2.92160E+01 0.00000E+00
 -1      1026 7.81500E+01 2.92160E+01 0.00000E+00
 -1      1027 8.11500E+01 2.92160E+01 0.00000E+00
 -1      1028 8.41500E+01 2.92160E+01 0.00000E+00
 -1      1029 8.71500E+01 2.92160E+01 0.00000E+00
 -1      1030 6.25350E+01 1.95942E+01 0.00000E+00
 -1      1031 3.70350E+01 1.69963E+01 0.00000E+00
 -1      1032 2.95350E+01 1.95942E+01 0.00000E+00
 -1      1033 5.65350E+01 1.95942E+01 0.00000E+00
 -1      1034 2.05351E+01 1.95943E+01 0.00000E+00
 -1      1035 5.95350E+01 1.95942E+01 0.00000E+00
 -1      1036 5.35350E+01 1.95942E+01 0.00000E+00
 -1      1037 6.55350E+01 1.95942E+01 0.00000E+00
 -1      1038 6.85350E+01 1.95942E+01 0.00000E+00
 -1      1039 7.15350E+01 1.95942E+01 0.00000E+00
 -1      1040 7.45350E+01 1.95942E+01 0.00000E+00
 -1      1041 7.75350E+01 1.95942E+01 0.00000E+00
 -1      1042 8.05350E+01 1.95942E+01 0.00000E+00
 -1      1043 8.35350E+01 1.95942E+01 0.00000E+00
 -1      1044 8.65350E+01 1.95942E+01 0.00000E+00
 -1      1045 8.95350E+01 1.95942E+01 0.00000E+00
 -1      1046 9.19141E+01 1.96569E+01 0.00000E+00
 -1      1047 2.71500E+01 2.92160E+01 0.00000E+00
 -1      1048 8.96460E+01 2.93873E+01 0.00000E+00
 -1      1049 4.45350E+01 1.95942E+01 0.00000E+00
 -1      1050 2.35350E+01 1.95943E+01 0.00000E+00
 -1      1051 2.11500E+01 2.92160E+01 0.00000E+00
 -1      1052 1.82967E+01 2.69243E+01 0.00000E+00
 -1      1053 2.41500E+01 2.92160E+01 0.00000E+00
 -1      1054 3.01500E+01 2.92160E+01 0.00000E+00
 -1      1055 4.15350E+01 1.95942E+01 0.00000E+00
 -1      1056 5.05350E+01 1.95942E+01 0.00000E+00
 -1      1057 1.80197E+01 2.91326E+01 0.00000E+00
 -1      1058 3.25350E+01 1.95942E+01 0.00000E+00
 -1      1059 9.04472E+01 2.30094E+01 0.00000E+00
 -1      1060 4.75350E+01 1.95942E+01 0.00000E+00
 -1      1061 1.77687E+01 1.98618E+01 0.00000E+00
 -1      1062 9.04651E+01 2.73317E+01 0.00000E+00
 -1      1063 2.08992E+01 2.57530E+01 0.00000E+00
 -1      1064 2.08992E+01 2.28092E+01 0.00000E+00
 -1      1065 3.76500E+01 2.66180E+01 0.00000E+00
 -1      1066 4.06500E+01 2.66180E+01 0.00000E+00
 -1      1067 4.36500E+01 2.66180E+01 0.00000E+00
 -1      1068 4.66500E+01 2.66180E+01 0.00000E+00
 -1      1069 4.96500E+01 2.66180E+01 0.00000E+00
 -1      1070 5.26500E+01 2.66180E+01 0.00000E+00
 -1      1071 5.56500E+01 2.66180E+01 0.00000E+00
 -1      1072 5.86500E+01 2.66180E+01 0.00000E+00
 -1      1073 6.16500E+01 2.66180E+01 0.00000E+00
 -1      1074 6.46500E+01 2.66180E+01 0.00000E+00
 -1      1075 6.76500E+01 2.66180E+01 0.00000E+00
 -1      1076 7.06500E+01 2.66180E+01 0.00000E+00
 -1      1077 7.36500E+01 2.66180E+01 0.00000E+00
 -1      1078 7.66500E+01 2.66180E+01 0.00000E+00
 -1      1079 7.96500E+01 2.66180E+01 0.00000E+00
 -1      1080 8.26500E+01 2.66180E+01 0.00000E+00
 -1      1081 8.56500E+01 2.66180E+01 0.00000E+00
 -1      1082 6.70350E+01 2.21922E+01 0.00000E+00
 -1      1083 6.10350E+01 2.21922E+01 0.00000E+00
 -1      1084 5.50350E+01 2.21922E+01 0.00000E+00
 -1      1085 7.00350E+01 2.21922E+01 0.00000E+00
 -1      1086 7.30350E+01 2.21922E+01 0.00000E+00
 -1      1087 7.60350E+01 2.21922E+01 0.00000E+00
 -1      1088 7.90350E+01 2.21922E+01 0.00000E+00
 -1      1089 8.20350E+01 2.21922E+01 0.00000E+00
 -1      1090 8.50350E+01 2.21922E+01 0.00000E+00
 -1      1091 3.46500E+01 2.66180E+01 0.00000E+00
 -1      1092 2.56500E+01 2.66180E+01 0.00000E+00
 -1      1093 2.86500E+01 2.66180E+01 0.00000E+00
 -1      1094 6.40350E+01 2.21922E+01 0.00000E+00
 -1      1095 3.16500E+01 2.66180E+01 0.00000E+00
 -1      1096 2.32746E+01 2.61855E+01 0.00000E+00
 -1      1097 5.80350E+01 2.21922E+01 0.00000E+00
 -1      1098 8.97611E+01 2.13127E+01 0.00000E+00
 -1      1099 2.80350E+01 2.21922E+01 0.00000E+00
 -1      1100 5.20350E+01 2.21922E+01 0.00000E+00
 -1      1101 4.30350E+01 2.21922E+01 0.00000E+00
 -1      1102 3.10350E+01 2.21922E+01 0.00000E+00
 -1      1103 3.55350E+01 1.95942E+01 0.00000E+00
 -1      1104 4.60350E+01 2.21922E+01 0.00000E+00
 -1      1105 8.80350E+01 2.21922E+01 0.00000E+00
 -1      1106 8.96280E+01 2.50650E+01 0.00000E+00
 -1      1107 2.50350E+01 2.21923E+01 0.00000E+00
 -1      1108 3.85350E+01 1.95942E+01 0.00000E+00
 -1      1109 8.80576E+01 2.69749E+01 0.00000E+00
 -1      1110 4.21500E+01 2.40200E+01 0.00000E+00
 -1      1111 5.11500E+01 2.40200E+01 0.00000E+00
 -1      1112 4.00350E+01 2.21922E+01 0.00000E+00
 -1      1113 3.61500E+01 2.40200E+01 0.00000E+00
 -1      1114 3.91500E+01 2.40200E+01 0.00000E+00
 -1      1115 2.25523E+01 2.34133E+01 0.00000E+00
 -1      1116 4.90350E+01 2.21922E+01 0.00000E+00
 -1      1117 3.35925E+01 2.31061E+01 0.00000E+00
 -1      1118 4.81500E+01 2.40200E+01 0.00000E+00
 -1      1119 0.00000E+00 4.85250E+01 0.00000E+00
 -1      1120 0.00000E+00 4.55750E+01 0.00000E+00
 -1      1121 0.00000E+00 4.26250E+01 0.00000E+00
 -1      1122 0.00000E+00 3.96750E+01 0.00000E+00
 -1      1123 0.00000E+00 3.67250E+01 0.00000E+00
 -1      1124 0.00000E+00 3.38000E+01 0.00000E+00
 -1      1125 0.00000E+00 3.08750E+01 0.00000E+00
 -1      1126 0.00000E+00 2.79250E+01 0.00000E+00
 -1      1127 0.00000E+00 2.49750E+01 0.00000E+00
 -1      1128 0.00000E+00 2.20250E+01 0.00000E+00
 -1      1129 0.00000E+00 1.90750E+01 0.00000E+00
 -1      1130 0.00000E+00 1.61500E+01 0.00000E+00
 -1      1131 0.00000E+00 1.32250E+01 0.00000E+00
 -1      1132 0.00000E+00 1.02750E+01 0.00000E+00
 -1      1133 0.00000E+00 7.32500E+00 0.00000E+00
 -1      1134 0.00000E+00 4.37500E+00 0.00000E+00
 -1      1135 0.00000E+00 1.45000E+00 0.00000E+00
 -1      1136 1.57500E+00 5.00000E+01 0.00000E+00
 -1      1137 4.65000E+00 5.00000E+01 0.00000E+00
 -1      1138 7.65000E+00 5.00000E+01 0.00000E+00
 -1      1139 1.06500E+01 5.00000E+01 0.00000E+00
 -1      1140 1.36500E+01 5.00000E+01 0.00000E+00
 -1      1141 1.66500E+01 5.00000E+01 0.00000E+00
 -1      1142 1.96500E+01 5.00000E+01 0.00000E+00
 -1      1143 2.26500E+01 5.00000E+01 0.00000E+00
 -1      1144 2.56500E+01 5.00000E+01 0.00000E+00
 -1      1145 2.86500E+01 5.00000E+01 0.00000E+00
 -1      1146 3.16500E+01 5.00000E+01 0.00000E+00
 -1      1147 3.46500E+01 5.00000E+01 0.00000E+00
 -1      1148 3.76500E+01 5.00000E+01 0.00000E+00
 -1      1149 4.06500E+01 5.00000E+01 0.00000E+00
 -1      1150 4.36500E+01 5.00000E+01 0.00000E+00
 -1      1151 4.66500E+01 5.00000E+01 0.00000E+00
 -1      1152 4.96500E+01 5.00000E+01 0.00000E+00
 -1      1153 5.26500E+01 5.00000E+01 0.00000E+00
 -1      1154 5.56500E+01 5.00000E+01 0.00000E+00
 -1      1155 5.86500E+01 5.00000E+01 0.00000E+00
 -1      1156 6.16500E+01 5.00000E+01 0.00000E+00
 -1      1157 6.46500E+01 5.00000E+01 0.00000E+00
 -1      1158 6.76500E+01 5.00000E+01 0.00000E+00
 -1      1159 7.06500E+01 5.00000E+01 0.00000E+00
 -1      1160 7.36500E+01 5.00000E+01 0.00000E+00
 -1      1161 7.66500E+01 5.00000E+01 0.00000E+00
 -1      1162 7.96500E+01 5.00000E+01 0.00000E+00
 -1      1163 8.26500E+01 5.00000E+01 0.00000E+00
 -1      1164 8.56500E+01 5.00000E+01 0.00000E+00
 -1      1165 8.86500E+01 5.00000E+01 0.00000E+00
 -1      1166 9.16500E+01 5.00000E+01 0.00000E+00
 -1      1167 9.46500E+01 5.00000E+01 0.00000E+00
 -1      1168 9.76500E+01 5.00000E+01 0.00000E+00
 -1      1169 1.00650E+02 5.00000E+01 0.00000E+00
 -1      1170 1.03650E+02 5.00000E+01 0.00000E+00
 -1      1171 1.06650E+02 5.00000E+01 0.00000E+00
 -1      1172 1.09650E+02 5.00000E+01 0.00000E+00
 -1      1173 1.12650E+02 5.00000E+01 0.00000E+00
 -1      1174 1.15650E+02 5.00000E+01 0.00000E+00
 -1      1175 1.18650E+02 5.00000E+01 0.00000E+00
 -1      1176 1.21650E+02 5.00000E+01 0.00000E+00
 -1      1177 1.24650E+02 5.00000E+01 0.00000E+00
 -1      1178 1.27650E+02 5.00000E+01 0.00000E+00
 -1      1179 1.30650E+02 5.00000E+01 0.00000E+00
 -1      1180 1.33650E+02 5.00000E+01 0.00000E+00
 -1      1181 1.36650E+02 5.00000E+01 0.00000E+00
 -1      1182 1.39650E+02 5.00000E+01 0.00000E+00
 -1      1183 1.42650E+02 5.00000E+01 0.00000E+00
 -1      1184 1.45650E+02 5.00000E+01 0.00000E+00
 -1      1185 1.48575E+02 5.00000E+01 0.00000E+00
 -1      1186 1.57500E+00 0.00000E+00 0.00000E+00
 -1      1187 4.65000E+00 0.00000E+00 0.00000E+00
 -1      1188 7.65000E+00 0.00000E+00 0.00000E+00
 -1      1189 1.06500E+01 0.00000E+00 0.00000E+00
 -1      1190 1.36500E+01 0.00000E+00 0.00000E+00
 -1      1191 1.66500E+01 0.00000E+00 0.00000E+00
 -1      1192 1.96500E+01 0.00000E+00 0.00000E+00
 -1      1193 2.26500E+01 0.00000E+00 0.00000E+00
 -1      1194 2.56500E+01 0.00000E+00 0.00000E+00
 -1      1195 2.86500E+01 0.00000E+00 0.00000E+00
 -1      1196 3.16500E+01 0.00000E+00 0.00000E+00
 -1      1197 3.46500E+01 0.00000E+00 0.00000E+00
 -1      1198 3.76500E+01 0.00000E+00 0.00000E+00
 -1      1199 4.06500E+01 0.00000E+00 0.00000E+00
 -1      1200 4.36500E+01 0.00000E+00 0.00000E+00
 -1      1201 4.66500E+01 0.00000E+00 0.00000E+00
 -1      1202 4.96500E+01 0.00000E+00 0.00000E+00
 -1      1203 5.26500E+01 0.00000E+00 0.00000E+00
 -1      1204 5.56500E+01 0.00000E+00 0.00000E+00
 -1      1205 5.86500E+01 0.00000E+00 0.00000E+00
 -1      1206 6.16500E+01 0.00000E+00 0.00000E+00
 -1      1207 6.46500E+01 0.00000E+00 0.00000E+00
 -1      1208 6.76500E+01 0.00000E+00 0.00000E+00
 -1      1209 7.06500E+01 0.00000E+00 0.00000E+00
 -1      1210 7.36500E+01 0.00000E+00 0.00000E+00
 -1      1211 7.66500E+01 0.00000E+00 0.00000E+00
 -1      1212 7.96500E+01 0.00000E+00 0.00000E+00
 -1      1213 8.26500E+01 0.00000E+00 0.00000E+00
 -1      1214 8.56500E+01 0.00000E+00 0.00000E+00
 -1      1215 8.86500E+01 0.00000E+00 0.00000E+00
 -1      1216 9.16500E+01 0.00000E+00 0.00000E+00
 -1      1217 9.46500E+01 0.00000E+00 0.00000E+00
 -1      1218 9.76500E+01 0.00000E+00 0.00000E+00
 -1      1219 1.00650E+02 0.00000E+00 0.00000E+00
 -1      1220 1.03650E+02 0.00000E+00 0.00000E+00
 -1      1221 1.06650E+02 0.00000E+00 0.00000E+00
 -1      1222 1.09650E+02 0.00000E+00 0.00000E+00
 -1      1223 1.12650E+02 0.00000E+00 0.00000E+00
 -1      1224 1.15650E+02 0.00000E+00 0.00000E+00
 -1      1225 1.18650E+02 0.00000E+00 0.00000E+00
 -1      1226 1.21650E+02 0.00000E+00 0.00000E+00
 -1      1227 1.24650E+02 0.00000E+00 0.00000E+00
 -1      1228 1.27650E+02 0.00000E+00 0.00000E+00
 -1      1229 1.30650E+02 0.00000E+00 0.00000E+00
 -1      1230 1.33650E+02 0.00000E+00 0.00000E+00
 -1      1231 1.36650E+02 0.00000E+00 0.00000E+00
 -1      1232 1.39650E+02 0.00000E+00 0.00000E+00
 -1      1233 1.42650E+02 0.00000E+00 0.00000E+00
 -1      1234 1.45650E+02 0.00000E+00 0.00000E+00
 -1      1235 1.48575E+02 0.00000E+00 0.00000E+00
 -1      1236 1.50000E+02 1.47500E+00 0.00000E+00
 -1      1237 1.50000E+02 4.42500E+00 0.00000E+00
 -1      1238 1.50000E+02 7.37500E+00 0.00000E+00
 -1      1239 1.50000E+02 1.03250E+01 0.00000E+00
 -1      1240 1.50000E+02 1.32750E+01 0.00000E+00
 -1      1241 1.50000E+02 1.62000E+01 0.00000E+00
 -1      1242 1.50000E+02 1.91250E+01 0.00000E+00
 -1      1243 1.50000E+02 2.20750E+01 0.00000E+00
 -1      1244 1.50000E+02 2.50250E+01 0.00000E+00
 -1      1245 1.50000E+02 2.79750E+01 0.00000E+00
 -1      1246 1.50000E+02 3.09250E+01 0.00000E+00
 -1      1247 1.50000E+02 3.38500E+01 0.00000E+00
 -1      1248 1.50000E+02 3.67750E+01 0.00000E+00
 -1      1249 1.50000E+02 3.97250E+01 0.00000E+00
 -1      1250 1.50000E+02 4.26750E+01 0.00000E+00
 -1      1251 1.50000E+02 4.56250E+01 0.00000E+00
 -1      1252 1.50000E+02 4.85500E+01 0.00000E+00
 -1      1253 1.18517E+02 2.37248E+01 0.00000E+00
 -1      1254 1.18193E+02 2.22536E+01 0.00000E+00
 -1      1255 1.17567E+02 2.08935E+01 0.00000E+00
 -1      1256 1.16665E+02 1.96965E+01 0.00000E+00
 -1      1257 1.15556E+02 1.87382E+01 0.00000E+00
 -1      1258 1.14254E+02 1.80240E+01 0.00000E+00
 -1      1259 1.12817E+02 1.75980E+01 0.00000E+00
 -1      1260 1.11309E+02 1.74883E+01 0.00000E+00
 -1      1261 1.09803E+02 1.77074E+01 0.00000E+00
 -1      1262 1.08423E+02 1.82250E+01 0.00000E+00
 -1      1263 1.07187E+02 1.90166E+01 0.00000E+00
 -1      1264 1.06152E+02 2.00365E+01 0.00000E+00
 -1      1265 1.05328E+02 2.12922E+01 0.00000E+00
 -1      1266 1.04796E+02 2.26745E+01 0.00000E+00
 -1      1267 1.04566E+02 2.41399E+01 0.00000E+00
 -1      1268 1.04659E+02 2.56711E+01 0.00000E+00
 -1      1269 1.05101E+02 2.71869E+01 0.00000E+00
 -1      1270 1.05873E+02 2.85681E+01 0.00000E+00
 -1      1271 1.06916E+02 2.97238E+01 0.00000E+00
 -1      1272 1.08150E+02 3.05983E+01 0.00000E+00
 -1      1273 1.09529E+02 3.11834E+01 0.00000E+00
 -1      1274 1.11056E+02 3.14659E+01 0.00000E+00
 -1      1275 1.12583E+02 3.14084E+01 0.00000E+00
 -1      1276 1.14079E+02 3.10143E+01 0.00000E+00
 -1      1277 1.15463E+02 3.02933E+01 0.00000E+00
 -1      1278 1.16638E+02 2.92995E+01 0.00000E+00
 -1      1279 1.17562E+02 2.80822E+01 0.00000E+00
 -1      1280 1.18200E+02 2.66945E+01 0.00000E+00
 -1      1281 1.18518E+02 2.52281E+01 0.00000E+00
 -1      1282 1.57500E+00 4.85250E+01 0.00000E+00
 -1      1283 1.29900E+00 4.48375E+01 0.00000E+00
 -1      1284 1.29900E+00 4.63125E+01 0.00000E+00
 -1      1285 1.29900E+00 4.18875E+01 0.00000E+00
 -1      1286 1.29900E+00 4.33625E+01 0.00000E+00
 -1      1287 2.59800E+00 4.41000E+01 0.00000E+00
 -1      1288 1.29900E+00 3.89375E+01 0.00000E+00
 -1      1289 1.29900E+00 4.04125E+01 0.00000E+00
 -1      1290 2.59800E+00 4.11500E+01 0.00000E+00
 -1      1291 1.29900E+00 3.59875E+01 0.00000E+00
 -1      1292 1.29900E+00 3.74625E+01 0.00000E+00
 -1      1293 2.59800E+00 3.82000E+01 0.00000E+00
 -1      1294 1.29900E+00 3.30875E+01 0.00000E+00
 -1      1295 1.29900E+00 3.45375E+01 0.00000E+00
 -1      1296 2.59800E+00 3.52750E+01 0.00000E+00
 -1      1297 1.29900E+00 3.01375E+01 0.00000E+00
 -1      1298 1.29900E+00 3.16125E+01 0.00000E+00
 -1      1299 2.59800E+00 3.23500E+01 0.00000E+00
 -1      1300 1.29900E+00 2.71875E+01 0.00000E+00
 -1      1301 1.29900E+00 2.86625E+01 0.00000E+00
 -1      1302 2.59800E+00 2.94000E+01 0.00000E+00
 -1      1303 1.29900E+00 2.42375E+01 0.00000E+00
 -1      1304 1.29900E+00 2.57125E+01 0.00000E+00
 -1      1305 2.59800E+00 2.64500E+01 0.00000E+00
 -1      1306 1.29900E+00 2.12875E+01 0.00000E+00
 -1      1307 1.29900E+00 2.27625E+01 0.00000E+00
 -1      1308 2.59800E+00 2.35000E+01 0.00000E+00
 -1      1309 1.29900E+00 1.83375E+01 0.00000E+00
 -1      1310 1.29900E+00 1.98125E+01 0.00000E+00
 -1      1311 2.59800E+00 2.05500E+01 0.00000E+00
 -1      1312 1.29900E+00 1.54375E+01 0.00000E+00
 -1      1313 1.29900E+00 1.68875E+01 0.00000E+00
 -1      1314 2.59800E+00 1.76250E+01 0.00000E+00
 -1      1315 1.29900E+00 1.24875E+01 0.00000E+00
 -1      1316 1.29900E+00 1.39625E+01 0.00000E+00
 -1      1317 2.59800E+00 1.47000E+01 0.00000E+00
 -1      1318 1.29900E+00 9.53750E+00 0.00000E+00
 -1      1319 1.29900E+00 1.10125E+01 0.00000E+00
 -1      1320 2.59800E+00 1.17500E+01 0.00000E+00
 -1      1321 1.29900E+00 6.58750E+00 0.00000E+00
 -1      1322 1.29900E+00 8.06250E+00 0.00000E+00
 -1      1323 2.59800E+00 8.80000E+00 0.00000E+00
 -1      1324 1.29900E+00 3.63750E+00 0.00000E+00
 -1      1325 1.29900E+00 5.11250E+00 0.00000E+00
 -1      1326 2.59800E+00 5.85000E+00 0.00000E+00
 -1      1327 1.43700E+00 1.09375E+00 0.00000E+00
 -1      1328 1.43700E+00 2.54375E+00 0.00000E+00
 -1      1329 2.73600E+00 3.28125E+00 0.00000E+00
 -1      1330 3.01200E+00 1.09375E+00 0.00000E+00
 -1      1331 3.90000E+00 4.87010E+01 0.00000E+00
 -1      1332 5.40000E+00 4.87010E+01 0.00000E+00
 -1      1333 6.90000E+00 4.87010E+01 0.00000E+00
 -1      1334 8.40000E+00 4.87010E+01 0.00000E+00
 -1      1335 6.15000E+00 4.74020E+01 0.00000E+00
 -1      1336 9.90000E+00 4.87010E+01 0.00000E+00
 -1      1337 1.14000E+01 4.87010E+01 0.00000E+00
 -1      1338 9.15000E+00 4.74020E+01 0.00000E+00
 -1      1339 1.29000E+01 4.87010E+01 0.00000E+00
 -1      1340 1.44000E+01 4.87010E+01 0.00000E+00
 -1      1341 1.21500E+01 4.74020E+01 0.00000E+00
 -1      1342 1.59000E+01 4.87010E+01 0.00000E+00
 -1      1343 1.74000E+01 4.87010E+01 0.00000E+00
 -1      1344 1.51500E+01 4.74020E+01 0.00000E+00
 -1      1345 1.89000E+01 4.87010E+01 0.00000E+00
 -1      1346 2.04000E+01 4.87010E+01 0.00000E+00
 -1      1347 1.81500E+01 4.74020E+01 0.00000E+00
 -1      1348 2.19000E+01 4.87010E+01 0.00000E+00
 -1      1349 2.34000E+01 4.87010E+01 0.00000E+00
 -1      1350 2.11500E+01 4.74020E+01 0.00000E+00
 -1      1351 2.49000E+01 4.87010E+01 0.00000E+00
 -1      1352 2.64000E+01 4.87010E+01 0.00000E+00
 -1      1353 2.41500E+01 4.74020E+01 0.00000E+00
 -1      1354 2.79000E+01 4.87010E+01 0.00000E+00
 -1      1355 2.94000E+01 4.87010E+01 0.00000E+00
 -1      1356 2.71500E+01 4.74020E+01 0.00000E+00
 -1      1357 3.09000E+01 4.87010E+01 0.00000E+00
 -1      1358 3.24000E+01 4.87010E+01 0.00000E+00
 -1      1359 3.01500E+01 4.74020E+01 0.00000E+00
 -1      1360 3.39000E+01 4.87010E+01 0.00000E+00
 -1      1361 3.54000E+01 4.87010E+01 0.00000E+00
 -1      1362 3.31500E+01 4.74020E+01 0.00000E+00
 -1      1363 3.69000E+01 4.87010E+01 0.00000E+00
 -1      1364 3.84000E+01 4.87010E+01 0.00000E+00
 -1      1365 3.61500E+01 4.74020E+01 0.00000E+00
 -1      1366 3.99000E+01 4.87010E+01 0.00000E+00
 -1      1367 4.14000E+01 4.87010E+01 0.00000E+00
 -1      1368 3.91500E+01 4.74020E+01 0.00000E+00
 -1      1369 4.29000E+01 4.87010E+01 0.00000E+00
 -1      1370 4.44000E+01 4.87010E+01 0.00000E+00
 -1      1371 4.21500E+01 4.74020E+01 0.00000E+00
 -1      1372 4.59000E+01 4.87010E+01 0.00000E+00
 -1      1373 4.74000E+01 4.87010E+01 0.00000E+00
 -1      1374 4.51500E+01 4.74020E+01 0.00000E+00
 -1      1375 4.89000E+01 4.87010E+01 0.00000E+00
 -1      1376 5.04000E+01 4.87010E+01 0.00000E+00
 -1      1377 4.81500E+01 4.74020E+01 0.00000E+00
 -1      1378 5.19000E+01 4.87010E+01 0.00000E+00
 -1      1379 5.34000E+01 4.87010E+01 0.00000E+00
 -1      1380 5.11500E+01 4.74020E+01 0.00000E+00
 -1      1381 5.49000E+01 4.87010E+01 0.00000E+00
 -1      1382 5.64000E+01 4.87010E+01 0.00000E+00
 -1      1383 5.41500E+01 4.74020E+01 0.00000E+00
 -1      1384 5.79000E+01 4.87010E+01 0.00000E+00
 -1      1385 5.94000E+01 4.87010E+01 0.00000E+00
 -1      1386 5.71500E+01 4.74020E+01 0.00000E+00
 -1      1387 6.09000E+01 4.87010E+01 0.00000E+00
 -1      1388 6.24000E+01 4.87010E+01 0.00000E+00
 -1      1389 6.01500E+01 4.74020E+01 0.00000E+00
 -1      1390 6.39000E+01 4.87010E+01 0.00000E+00
 -1      1391 6.54000E+01 4.87010E+01 0.00000E+00
 -1      1392 6.31500E+01 4.74020E+01 0.00000E+00
 -1      1393 6.69000E+01 4.87010E+01 0.00000E+00
 -1      1394 6.84000E+01 4.87010E+01 0.00000E+00
 -1      1395 6.61500E+01 4.74020E+01 0.00000E+00
 -1      1396 6.99000E+01 4.87010E+01 0.00000E+00
 -1      1397 7.14000E+01 4.87010E+01 0.00000E+00
 -1      1398 6.91500E+01 4.74020E+01 0.00000E+00
 -1      1399 7.29000E+01 4.87010E+01 0.00000E+00
 -1      1400 7.44000E+01 4.87010E+01 0.00000E+00
 -1      1401 7.21500E+01 4.74020E+01 0.00000E+00
 -1      1402 7.59000E+01 4.87010E+01 0.00000E+00
 -1      1403 7.74000E+01 4.87010E+01 0.00000E+00
 -1      1404 7.51500E+01 4.74020E+01 0.00000E+00
 -1      1405 7.89000E+01 4.87010E+01 0.00000E+00
 -1      1406 8.04000E+01 4.87010E+01 0.00000E+00
 -1      1407 7.81500E+01 4.74020E+01 0.00000E+00
 -1      1408 8.19000E+01 4.87010E+01 0.00000E+00
 -1      1409 8.34000E+01 4.87010E+01 0.00000E+00
 -1      1410 8.11500E+01 4.74020E+01 0.00000E+00
 -1      1411 8.49000E+01 4.87010E+01 0.00000E+00
 -1      1412 8.64000E+01 4.87010E+01 0.00000E+00
 -1      1413 8.41500E+01 4.74020E+01 0.00000E+00
 -1      1414 8.79000E+01 4.87010E+01 0.00000E+00
 -1      1415 8.94000E+01 4.87010E+01 0.00000E+00
 -1      1416 8.71500E+01 4.74020E+01 0.00000E+00
 -1      1417 9.09000E+01 4.87010E+01 0.00000E+00
 -1      1418 9.24000E+01 4.87010E+01 0.00000E+00
 -1      1419 9.01500E+01 4.74020E+01 0.00000E+00
 -1      1420 9.39000E+01 4.87010E+01 0.00000E+00
 -1      1421 9.54000E+01 4.87010E+01 0.00000E+00
 -1      1422 9.31500E+01 4.74020E+01 0.00000E+00
 -1      1423 9.69000E+01 4.87010E+01 0.00000E+00
 -1      1424 9.84000E+01 4.87010E+01 0.00000E+00
 -1      1425 9.61500E+01 4.74020E+01 0.00000E+00
 -1      1426 9.99000E+01 4.87010E+01 0.00000E+00
 -1      1427 1.01400E+02 4.87010E+01 0.00000E+00
 -1      1428 9.91500E+01 4.74020E+01 0.00000E+00
 -1      1429 1.02900E+02 4.87010E+01 0.00000E+00
 -1      1430 1.04400E+02 4.87010E+01 0.00000E+00
 -1      1431 1.02150E+02 4.74020E+01 0.00000E+00
 -1      1432 1.05900E+02 4.87010E+01 0.00000E+00
 -1      1433 1.07400E+02 4.87010E+01 0.00000E+00
 -1      1434 1.05150E+02 4.74020E+01 0.00000E+00
 -1      1435 1.08900E+02 4.87010E+01 0.00000E+00
 -1      1436 1.10400E+02 4.87010E+01 0.00000E+00
 -1      1437 1.08150E+02 4.74020E+01 0.00000E+00
 -1      1438 1.11900E+02 4.87010E+01 0.00000E+00
 -1      1439 1.13400E+02 4.87010E+01 0.00000E+00
 -1      1440 1.11150E+02 4.74020E+01 0.00000E+00
 -1      1441 1.14900E+02 4.87010E+01 0.00000E+00
 -1      1442 1.16400E+02 4.87010E+01 0.00000E+00
 -1      1443 1.14150E+02 4.74020E+01 0.00000E+00
 -1      1444 1.17900E+02 4.87010E+01 0.00000E+00
 -1      1445 1.19400E+02 4.87010E+01 0.00000E+00
 -1      1446 1.17150E+02 4.74020E+01 0.00000E+00
 -1      1447 1.20900E+02 4.87010E+01 0.00000E+00
 -1      1448 1.22400E+02 4.87010E+01 0.00000E+00
 -1      1449 1.20150E+02 4.74020E+01 0.00000E+00
 -1      1450 1.23900E+02 4.87010E+01 0.00000E+00
 -1      1451 1.25400E+02 4.87010E+01 0.00000E+00
 -1      1452 1.23150E+02 4.74020E+01 0.00000E+00
 -1      1453 1.26900E+02 4.87010E+01 0.00000E+00
 -1      1454 1.28400E+02 4.87010E+01 0.00000E+00
 -1      1455 1.26150E+02 4.74020E+01 0.00000E+00
 -1      1456 1.29900E+02 4.87010E+01 0.00000E+00
 -1      1457 1.31400E+02 4.87010E+01 0.00000E+00
 -1      1458 1.29150E+02 4.74020E+01 0.00000E+00
 -1      1459 1.32900E+02 4.87010E+01 0.00000E+00
 -1      1460 1.34400E+02 4.87010E+01 0.00000E+00
 -1      1461 1.32150E+02 4.74020E+01 0.00000E+00
 -1      1462 1.35900E+02 4.87010E+01 0.00000E+00
 -1      1463 1.37400E+02 4.87010E+01 0.00000E+00
 -1      1464 1.35150E+02 4.74020E+01 0.00000E+00
 -1      1465 1.38900E+02 4.87010E+01 0.00000E+00
 -1      1466 1.40400E+02 4.87010E+01 0.00000E+00
 -1      1467 1.38150E+02 4.74020E+01 0.00000E+00
 -1      1468 1.41900E+02 4.87010E+01 0.00000E+00
 -1      1469 1.43400E+02 4.87010E+01 0.00000E+00
 -1      1470 1.41150E+02 4.74020E+01 0.00000E+00
 -1      1471 1.44900E+02 4.87010E+01 0.00000E+00
 -1      1472 1.46400E+02 4.87010E+01 0.00000E+00
 -1      1473 1.44150E+02 4.74020E+01 0.00000E+00
 -1      1474 1.48575E+02 4.85500E+01 0.00000E+00
 -1      1475 1.47825E+02 4.72510E+01 0.00000E+00
 -1      1476 6.01200E+00 1.09375E+00 0.00000E+00
 -1      1477 4.51200E+00 1.09375E+00 0.00000E+00
 -1      1478 4.37400E+00 2.18750E+00 0.00000E+00
 -1      1479 9.01200E+00 1.09375E+00 0.00000E+00
 -1      1480 7.51200E+00 1.09375E+00 0.00000E+00
 -1      1481 7.37400E+00 2.18750E+00 0.00000E+00
 -1      1482 1.20120E+01 1.09375E+00 0.00000E+00
 -1      1483 1.05120E+01 1.09375E+00 0.00000E+00
 -1      1484 1.03740E+01 2.18750E+00 0.00000E+00
 -1      1485 1.50120E+01 1.09375E+00 0.00000E+00
 -1      1486 1.35120E+01 1.09375E+00 0.00000E+00
 -1      1487 1.33740E+01 2.18750E+00 0.00000E+00
 -1      1488 1.80120E+01 1.09375E+00 0.00000E+00
 -1      1489 1.65120E+01 1.09375E+00 0.00000E+00
 -1      1490 1.63740E+01 2.18750E+00 0.00000E+00
 -1      1491 2.10120E+01 1.09375E+00 0.00000E+00
 -1      1492 1.95120E+01 1.09375E+00 0.00000E+00
 -1      1493 1.93740E+01 2.18750E+00 0.00000E+00
 -1      1494 2.40120E+01 1.09375E+00 0.00000E+00
 -1      1495 2.25120E+01 1.09375E+00 0.00000E+00
 -1      1496 2.23740E+01 2.18750E+00 0.00000E+00
 -1      1497 2.70120E+01 1.09375E+00 0.00000E+00
 -1      1498 2.55120E+01 1.09375E+00 0.00000E+00
 -1      1499 2.53740E+01 2.18750E+00 0.00000E+00
 -1      1500 3.00120E+01 1.09375E+00 0.00000E+00
 -1      1501 2.85120E+01 1.09375E+00 0.00000E+00
 -1      1502 2.83740E+01 2.18750E+00 0.00000E+00
 -1      1503 3.30120E+01 1.09375E+00 0.00000E+00
 -1      1504 3.15120E+01 1.09375E+00 0.00000E+00
 -1      1505 3.13740E+01 2.18750E+00 0.00000E+00
 -1      1506 3.60120E+01 1.09375E+00 0.00000E+00
 -1      1507 3.45120E+01 1.09375E+00 0.00000E+00
 -1      1508 3.43740E+01 2.18750E+00 0.00000E+00
 -1      1509 3.90120E+01 1.09375E+00 0.00000E+00
 -1      1510 3.75120E+01 1.09375E+00 0.00000E+00
 -1      1511 3.73740E+01 2.18750E+00 0.00000E+00
 -1      1512 4.20120E+01 1.09375E+00 0.00000E+00
 -1      1513 4.05120E+01 1.09375E+00 0.00000E+00
 -1      1514 4.03740E+01 2.18750E+00 0.00000E+00
 -1      1515 4.50120E+01 1.09375E+00 0.00000E+00
 -1      1516 4.35120E+01 1.09375E+00 0.00000E+00
 -1      1517 4.33740E+01 2.18750E+00 0.00000E+00
 -1      1518 4.80120E+01 1.09375E+00 0.00000E+00
 -1      1519 4.65120E+01 1.09375E+00 0.00000E+00
 -1      1520 4.63740E+01 2.18750E+00 0.00000E+00
 -1      1521 5.10120E+01 1.09375E+00 0.00000E+00
 -1      1522 4.95120E+01 1.09375E+00 0.00000E+00
 -1      1523 4.93740E+01 2.18750E+00 0.00000E+00
 -1      1524 5.40120E+01 1.09375E+00 0.00000E+00
 -1      1525 5.25120E+01 1.09375E+00 0.00000E+00
 -1      1526 5.23740E+01 2.18750E+00 0.00000E+00
 -1      1527 5.70120E+01 1.09375E+00 0.00000E+00
 -1      1528 5.55120E+01 1.09375E+00 0.00000E+00
 -1      1529 5.53740E+01 2.18750E+00 0.00000E+00
 -1      1530 6.00120E+01 1.09375E+00 0.00000E+00
 -1      1531 5.85120E+01 1.09375E+00 0.00000E+00
 -1      1532 5.83740E+01 2.18750E+00 0.00000E+00
 -1      1533 6.30120E+01 1.09375E+00 0.00000E+00
 -1      1534 6.15120E+01 1.09375E+00 0.00000E+00
 -1      1535 6.13740E+01 2.18750E+00 0.00000E+00
 -1      1536 6.60120E+01 1.09375E+00 0.00000E+00
 -1      1537 6.45120E+01 1.09375E+00 0.00000E+00
 -1      1538 6.43740E+01 2.18750E+00 0.00000E+00
 -1      1539 6.90120E+01 1.09375E+00 0.00000E+00
 -1      1540 6.75120E+01 1.09375E+00 0.00000E+00
 -1      1541 6.73740E+01 2.18750E+00 0.00000E+00
 -1      1542 7.20120E+01 1.09375E+00 0.00000E+00
 -1      1543 7.05120E+01 1.09375E+00 0.00000E+00
 -1      1544 7.03740E+01 2.18750E+00 0.00000E+00
 -1      1545 7.50120E+01 1.09375E+00 0.00000E+00
 -1      1546 7.35120E+01 1.09375E+00 0.00000E+00
 -1      1547 7.33740E+01 2.18750E+00 0.00000E+00
 -1      1548 7.80120E+01 1.09375E+00 0.00000E+00
 -1      1549 7.65120E+01 1.09375E+00 0.00000E+00
 -1      1550 7.63740E+01 2.18750E+00 0.00000E+00
 -1      1551 8.10120E+01 1.09375E+00 0.00000E+00
 -1      1552 7.95120E+01 1.09375E+00 0.00000E+00
 -1      1553 7.93740E+01 2.18750E+00 0.00000E+00
 -1      1554 8.40120E+01 1.09375E+00 0.00000E+00
 -1      1555 8.25120E+01 1.09375E+00 0.00000E+00
 -1      1556 8.23740E+01 2.18750E+00 0.00000E+00
 -1      1557 8.70120E+01 1.09375E+00 0.00000E+00
 -1      1558 8.55120E+01 1.09375E+00 0.00000E+00
 -1      1559 8.53740E+01 2.18750E+00 0.00000E+00
 -1      1560 9.00120E+01 1.09375E+00 0.00000E+00
 -1      1561 8.85120E+01 1.09375E+00 0.00000E+00
 -1      1562 8.83740E+01 2.18750E+00 0.00000E+00
 -1      1563 9.30120E+01 1.09375E+00 0.00000E+00
 -1      1564 9.15120E+01 1.09375E+00 0.00000E+00
 -1      1565 9.13740E+01 2.18750E+00 0.00000E+00
 -1      1566 9.60120E+01 1.09375E+00 0.00000E+00
 -1      1567 9.45120E+01 1.09375E+00 0.00000E+00
 -1      1568 9.43740E+01 2.18750E+00 0.00000E+00
 -1      1569 9.90120E+01 1.09375E+00 0.00000E+00
 -1      1570 9.75120E+01 1.09375E+00 0.00000E+00
 -1      1571 9.73740E+01 2.18750E+00 0.00000E+00
 -1      1572 1.02012E+02 1.09375E+00 0.00000E+00
 -1      1573 1.00512E+02 1.09375E+00 0.00000E+00
 -1      1574 1.00374E+02 2.18750E+00 0.00000E+00
 -1      1575 1.05012E+02 1.09375E+00 0.00000E+00
 -1      1576 1.03512E+02 1.09375E+00 0.00000E+00
 -1      1577 1.03374E+02 2.18750E+00 0.00000E+00
 -1      1578 1.08012E+02 1.09375E+00 0.00000E+00
 -1      1579 1.06512E+02 1.09375E+00 0.00000E+00
 -1      1580 1.06374E+02 2.18750E+00 0.00000E+00
 -1      1581 1.11012E+02 1.09375E+00 0.00000E+00
 -1      1582 1.09512E+02 1.09375E+00 0.00000E+00
 -1      1583 1.09374E+02 2.18750E+00 0.00000E+00
 -1      1584 1.14012E+02 1.09375E+00 0.00000E+00
 -1      1585 1.12512E+02 1.09375E+00 0.00000E+00
 -1      1586 1.12374E+02 2.18750E+00 0.00000E+00
 -1      1587 1.17012E+02 1.09375E+00 0.00000E+00
 -1      1588 1.15512E+02 1.09375E+00 0.00000E+00
 -1      1589 1.15374E+02 2.18750E+00 0.00000E+00
 -1      1590 1.20012E+02 1.09375E+00 0.00000E+00
 -1      1591 1.18512E+02 1.09375E+00 0.00000E+00
 -1      1592 1.18374E+02 2.18750E+00 0.00000E+00
 -1      1593 1.23012E+02 1.09375E+00 0.00000E+00
 -1      1594 1.21512E+02 1.09375E+00 0.00000E+00
 -1      1595 1.21374E+02 2.18750E+00 0.00000E+00
 -1      1596 1.26012E+02 1.09375E+00 0.00000E+00
 -1      1597 1.24512E+02 1.09375E+00 0.00000E+00
 -1      1598 1.24374E+02 2.18750E+00 0.00000E+00
 -1      1599 1.29012E+02 1.09375E+00 0.00000E+00
 -1      1600 1.27512E+02 1.09375E+00 0.00000E+00
 -1      1601 1.27374E+02 2.18750E+00 0.00000E+00
 -1      1602 1.32012E+02 1.09375E+00 0.00000E+00
 -1      1603 1.30512E+02 1.09375E+00 0.00000E+00
 -1      1604 1.30374E+02 2.18750E+00 0.00000E+00
 -1      1605 1.35012E+02 1.09375E+00 0.00000E+00
 -1      1606 1.33512E+02 1.09375E+00 0.00000E+00
 -1      1607 1.33374E+02 2.18750E+00 0.00000E+00
 -1      1608 1.38012E+02 1.09375E+00 0.00000E+00
 -1      1609 1.36512E+02 1.09375E+00 0.00000E+00
 -1      1610 1.36374E+02 2.18750E+00 0.00000E+00
 -1      1611 1.41012E+02 1.09375E+00 0.00000E+00
 -1      1612 1.39512E+02 1.09375E+00 0.00000E+00
 -1      1613 1.39374E+02 2.18750E+00 0.00000E+00
 -1      1614 1.44012E+02 1.09375E+00 0.00000E+00
 -1      1615 1.42512E+02 1.09375E+00 0.00000E+00
 -1      1616 1.42374E+02 2.18750E+00 0.00000E+00
 -1      1617 1.47012E+02 1.09375E+00 0.00000E+00
 -1      1618 1.45512E+02 1.09375E+00 0.00000E+00
 -1      1619 1.45374E+02 2.18750E+00 0.00000E+00
 -1      1620 1.48575E+02 1.47500E+00 0.00000E+00
 -1      1621 1.48701E+02 5.16250E+00 0.00000E+00
 -1      1622 1.48701E+02 3.68750E+00 0.00000E+00
 -1      1623 1.48701E+02 8.11250E+00 0.00000E+00
 -1      1624 1.48701E+02 6.63750E+00 0.00000E+00
 -1      1625 1.47402E+02 5.90000E+00 0.00000E+00
 -1      1626 1.48701E+02 1.10625E+01 0.00000E+00
 -1      1627 1.48701E+02 9.58750E+00 0.00000E+00
 -1      1628 1.47402E+02 8.85000E+00 0.00000E+00
 -1      1629 1.48701E+02 1.40125E+01 0.00000E+00
 -1      1630 1.48701E+02 1.25375E+01 0.00000E+00
 -1      1631 1.47402E+02 1.18000E+01 0.00000E+00
 -1      1632 1.48701E+02 1.69125E+01 0.00000E+00
 -1      1633 1.48701E+02 1.54625E+01 0.00000E+00
 -1      1634 1.47402E+02 1.47250E+01 0.00000E+00
 -1      1635 1.48701E+02 1.98625E+01 0.00000E+00
 -1      1636 1.48701E+02 1.83875E+01 0.00000E+00
 -1      1637 1.47402E+02 1.76500E+01 0.00000E+00
 -1      1638 1.48701E+02 2.28125E+01 0.00000E+00
 -1      1639 1.48701E+02 2.13375E+01 0.00000E+00
 -1      1640 1.47402E+02 2.06000E+01 0.00000E+00
 -1      1641 1.48701E+02 2.57625E+01 0.00000E+00
 -1      1642 1.48701E+02 2.42875E+01 0.00000E+00
 -1      1643 1.47402E+02 2.35500E+01 0.00000E+00
 -1      1644 1.48701E+02 2.87125E+01 0.00000E+00
 -1      1645 1.48701E+02 2.72375E+01 0.00000E+00
 -1      1646 1.47402E+02 2.65000E+01 0.00000E+00
 -1      1647 1.48701E+02 3.16625E+01 0.00000E+00
 -1      1648 1.48701E+02 3.01875E+01 0.00000E+00
 -1      1649 1.47402E+02 2.94500E+01 0.00000E+00
 -1      1650 1.48701E+02 3.45625E+01 0.00000E+00
 -1      1651 1.48701E+02 3.31125E+01 0.00000E+00
 -1      1652 1.47402E+02 3.23750E+01 0.00000E+00
 -1      1653 1.48701E+02 3.75125E+01 0.00000E+00
 -1      1654 1.48701E+02 3.60375E+01 0.00000E+00
 -1      1655 1.47402E+02 3.53000E+01 0.00000E+00
 -1      1656 1.48701E+02 4.04625E+01 0.00000E+00
 -1      1657 1.48701E+02 3.89875E+01 0.00000E+00
 -1      1658 1.47402E+02 3.82500E+01 0.00000E+00
 -1      1659 1.48701E+02 4.34125E+01 0.00000E+00
 -1      1660 1.48701E+02 4.19375E+01 0.00000E+00
 -1      1661 1.47402E+02 4.12000E+01 0.00000E+00
 -1      1662 1.48263E+02 4.60692E+01 0.00000E+00
 -1      1663 1.48263E+02 4.45942E+01 0.00000E+00
 -1      1664 1.46964E+02 4.38568E+01 0.00000E+00
 -1      1665 1.46088E+02 4.62202E+01 0.00000E+00
 -1      1666 1.19079E+02 2.32817E+01 0.00000E+00
 -1      1667 1.19161E+02 2.40363E+01 0.00000E+00
 -1      1668 1.18650E+02 2.17057E+01 0.00000E+00
 -1      1669 1.18889E+02 2.24140E+01 0.00000E+00
 -1      1670 1.17896E+02 2.02598E+01 0.00000E+00
 -1      1671 1.18281E+02 2.09037E+01 0.00000E+00
 -1      1672 1.16852E+02 1.90075E+01 0.00000E+00
 -1      1673 1.17364E+02 1.95539E+01 0.00000E+00
 -1      1674 1.15587E+02 1.80661E+01 0.00000E+00
 -1      1675 1.16176E+02 1.84754E+01 0.00000E+00
 -1      1676 1.14133E+02 1.73170E+01 0.00000E+00
 -1      1677 1.14842E+02 1.76130E+01 0.00000E+00
 -1      1678 1.12560E+02 1.69736E+01 0.00000E+00
 -1      1679 1.13278E+02 1.71050E+01 0.00000E+00
 -1      1680 1.10895E+02 1.68564E+01 0.00000E+00
 -1      1681 1.11676E+02 1.68286E+01 0.00000E+00
 -1      1682 1.09292E+02 1.72107E+01 0.00000E+00
 -1      1683 1.10009E+02 1.70252E+01 0.00000E+00
 -1      1684 1.07822E+02 1.78443E+01 0.00000E+00
 -1      1685 1.08478E+02 1.75157E+01 0.00000E+00
 -1      1686 1.06545E+02 1.88026E+01 0.00000E+00
 -1      1687 1.07119E+02 1.83440E+01 0.00000E+00
 -1      1688 1.05485E+02 1.99522E+01 0.00000E+00
 -1      1689 1.05941E+02 1.93976E+01 0.00000E+00
 -1      1690 1.04649E+02 2.13848E+01 0.00000E+00
 -1      1691 1.05006E+02 2.06871E+01 0.00000E+00
 -1      1692 1.04154E+02 2.28636E+01 0.00000E+00
 -1      1693 1.04334E+02 2.21901E+01 0.00000E+00
 -1      1694 1.03902E+02 2.45007E+01 0.00000E+00
 -1      1695 1.03941E+02 2.37157E+01 0.00000E+00
 -1      1696 1.04124E+02 2.61428E+01 0.00000E+00
 -1      1697 1.03997E+02 2.54056E+01 0.00000E+00
 -1      1698 1.04632E+02 2.78336E+01 0.00000E+00
 -1      1699 1.04311E+02 2.70673E+01 0.00000E+00
 -1      1700 1.05633E+02 2.92033E+01 0.00000E+00
 -1      1701 1.05194E+02 2.85930E+01 0.00000E+00
 -1      1702 1.06791E+02 3.04725E+01 0.00000E+00
 -1      1703 1.06188E+02 2.99384E+01 0.00000E+00
 -1      1704 1.08181E+02 3.12685E+01 0.00000E+00
 -1      1705 1.07564E+02 3.09246E+01 0.00000E+00
 -1      1706 1.09745E+02 3.18353E+01 0.00000E+00
 -1      1707 1.08988E+02 3.16059E+01 0.00000E+00
 -1      1708 1.11389E+02 3.21399E+01 0.00000E+00
 -1      1709 1.10630E+02 3.20854E+01 0.00000E+00
 -1      1710 1.13045E+02 3.19102E+01 0.00000E+00
 -1      1711 1.12286E+02 3.20225E+01 0.00000E+00
 -1      1712 1.14660E+02 3.14380E+01 0.00000E+00
 -1      1713 1.13933E+02 3.17186E+01 0.00000E+00
 -1      1714 1.16125E+02 3.05768E+01 0.00000E+00
 -1      1715 1.15476E+02 3.10129E+01 0.00000E+00
 -1      1716 1.17309E+02 2.94134E+01 0.00000E+00
 -1      1717 1.16788E+02 2.99631E+01 0.00000E+00
 -1      1718 1.18280E+02 2.80629E+01 0.00000E+00
 -1      1719 1.17883E+02 2.87241E+01 0.00000E+00
 -1      1720 1.18895E+02 2.65274E+01 0.00000E+00
 -1      1721 1.18656E+02 2.72450E+01 0.00000E+00
 -1      1722 1.19121E+02 2.49183E+01 0.00000E+00
 -1      1723 1.19042E+02 2.56584E+01 0.00000E+00
 -1      1724 1.16904E+02 1.83053E+01 0.00000E+00
 -1      1725 1.18113E+02 1.95434E+01 0.00000E+00
 -1      1726 1.48437E+02 2.56875E+00 0.00000E+00
 -1      1727 1.47138E+02 3.30625E+00 0.00000E+00
 -1      1728 1.19574E+02 2.27210E+01 0.00000E+00
 -1      1729 1.19014E+02 2.10514E+01 0.00000E+00
 -1      1730 1.19724E+02 2.44708E+01 0.00000E+00
 -1      1731 1.15483E+02 1.73200E+01 0.00000E+00
 -1      1732 1.13883E+02 1.66550E+01 0.00000E+00
 -1      1733 1.12145E+02 1.62980E+01 0.00000E+00
 -1      1734 1.10374E+02 1.63218E+01 0.00000E+00
 -1      1735 1.08674E+02 1.67956E+01 0.00000E+00
 -1      1736 1.07157E+02 1.76002E+01 0.00000E+00
 -1      1737 1.05849E+02 1.86948E+01 0.00000E+00
 -1      1738 1.04766E+02 2.00246E+01 0.00000E+00
 -1      1739 1.03973E+02 2.15648E+01 0.00000E+00
 -1      1740 1.03445E+02 2.32222E+01 0.00000E+00
 -1      1741 1.03327E+02 2.49792E+01 0.00000E+00
 -1      1742 1.03609E+02 2.68086E+01 0.00000E+00
 -1      1743 1.04359E+02 2.84924E+01 0.00000E+00
 -1      1744 1.05477E+02 2.99869E+01 0.00000E+00
 -1      1745 1.06805E+02 3.11740E+01 0.00000E+00
 -1      1746 1.08384E+02 3.19634E+01 0.00000E+00
 -1      1747 1.10075E+02 3.25508E+01 0.00000E+00
 -1      1748 1.11857E+02 3.26834E+01 0.00000E+00
 -1      1749 1.13642E+02 3.23745E+01 0.00000E+00
 -1      1750 1.15346E+02 3.17578E+01 0.00000E+00
 -1      1751 1.16825E+02 3.07190E+01 0.00000E+00
 -1      1752 1.18063E+02 2.94160E+01 0.00000E+00
 -1      1753 1.19014E+02 2.79088E+01 0.00000E+00
 -1      1754 1.19537E+02 2.62218E+01 0.00000E+00
 -1      1755 2.87400E+00 4.77875E+01 0.00000E+00
 -1      1756 3.89700E+00 4.04125E+01 0.00000E+00
 -1      1757 3.89700E+00 4.18875E+01 0.00000E+00
 -1      1758 3.89700E+00 4.33625E+01 0.00000E+00
 -1      1759 3.89700E+00 4.48375E+01 0.00000E+00
 -1      1760 5.19600E+00 4.26250E+01 0.00000E+00
 -1      1761 3.89700E+00 3.45500E+01 0.00000E+00
 -1      1762 3.89700E+00 3.60000E+01 0.00000E+00
 -1      1763 3.89700E+00 3.16000E+01 0.00000E+00
 -1      1764 3.89700E+00 3.30750E+01 0.00000E+00
 -1      1765 5.19600E+00 3.38000E+01 0.00000E+00
 -1      1766 3.89700E+00 2.86500E+01 0.00000E+00
 -1      1767 3.89700E+00 3.01250E+01 0.00000E+00
 -1      1768 5.19600E+00 3.08500E+01 0.00000E+00
 -1      1769 3.89700E+00 2.57000E+01 0.00000E+00
 -1      1770 3.89700E+00 2.71750E+01 0.00000E+00
 -1      1771 5.19600E+00 2.79000E+01 0.00000E+00
 -1      1772 3.89700E+00 2.27500E+01 0.00000E+00
 -1      1773 3.89700E+00 2.42250E+01 0.00000E+00
 -1      1774 5.19600E+00 2.49500E+01 0.00000E+00
 -1      1775 3.89700E+00 1.98000E+01 0.00000E+00
 -1      1776 3.89700E+00 2.12750E+01 0.00000E+00
 -1      1777 5.19600E+00 2.20000E+01 0.00000E+00
 -1      1778 3.89700E+00 1.69000E+01 0.00000E+00
 -1      1779 3.89700E+00 1.83500E+01 0.00000E+00
 -1      1780 5.19600E+00 1.90750E+01 0.00000E+00
 -1      1781 3.89700E+00 1.39500E+01 0.00000E+00
 -1      1782 3.89700E+00 1.54250E+01 0.00000E+00
 -1      1783 5.19600E+00 1.61500E+01 0.00000E+00
 -1      1784 3.89700E+00 1.10000E+01 0.00000E+00
 -1      1785 3.89700E+00 1.24750E+01 0.00000E+00
 -1      1786 5.19600E+00 1.32000E+01 0.00000E+00
 -1      1787 3.89700E+00 8.05000E+00 0.00000E+00
 -1      1788 3.89700E+00 9.52500E+00 0.00000E+00
 -1      1789 5.19600E+00 1.02500E+01 0.00000E+00
 -1      1790 3.89700E+00 5.10000E+00 0.00000E+00
 -1      1791 3.89700E+00 6.57500E+00 0.00000E+00
 -1      1792 5.19600E+00 7.30000E+00 0.00000E+00
 -1      1793 4.20450E+00 3.09687E+00 0.00000E+00
 -1      1794 4.06650E+00 4.19063E+00 0.00000E+00
 -1      1795 5.36550E+00 4.91563E+00 0.00000E+00
 -1      1796 5.70450E+00 3.09687E+00 0.00000E+00
 -1      1797 3.62400E+00 4.64885E+01 0.00000E+00
 -1      1798 8.70450E+00 3.09687E+00 0.00000E+00
 -1      1799 7.20450E+00 3.09687E+00 0.00000E+00
 -1      1800 7.03500E+00 4.00625E+00 0.00000E+00
 -1      1801 4.92300E+00 4.57510E+01 0.00000E+00
 -1      1802 8.40000E+00 4.61030E+01 0.00000E+00
 -1      1803 9.90000E+00 4.61030E+01 0.00000E+00
 -1      1804 1.14000E+01 4.61030E+01 0.00000E+00
 -1      1805 1.29000E+01 4.61030E+01 0.00000E+00
 -1      1806 1.06500E+01 4.48040E+01 0.00000E+00
 -1      1807 1.44000E+01 4.61030E+01 0.00000E+00
 -1      1808 1.59000E+01 4.61030E+01 0.00000E+00
 -1      1809 1.36500E+01 4.48040E+01 0.00000E+00
 -1      1810 1.74000E+01 4.61030E+01 0.00000E+00
 -1      1811 1.89000E+01 4.61030E+01 0.00000E+00
 -1      1812 1.66500E+01 4.48040E+01 0.00000E+00
 -1      1813 2.04000E+01 4.61030E+01 0.00000E+00
 -1      1814 2.19000E+01 4.61030E+01 0.00000E+00
 -1      1815 1.96500E+01 4.48040E+01 0.00000E+00
 -1      1816 2.34000E+01 4.61030E+01 0.00000E+00
 -1      1817 2.49000E+01 4.61030E+01 0.00000E+00
 -1      1818 2.26500E+01 4.48040E+01 0.00000E+00
 -1      1819 2.64000E+01 4.61030E+01 0.00000E+00
 -1      1820 2.79000E+01 4.61030E+01 0.00000E+00
 -1      1821 2.56500E+01 4.48040E+01 0.00000E+00
 -1      1822 2.94000E+01 4.61030E+01 0.00000E+00
 -1      1823 3.09000E+01 4.61030E+01 0.00000E+00
 -1      1824 2.86500E+01 4.48040E+01 0.00000E+00
 -1      1825 3.24000E+01 4.61030E+01 0.00000E+00
 -1      1826 3.39000E+01 4.61030E+01 0.00000E+00
 -1      1827 3.16500E+01 4.48040E+01 0.00000E+00
 -1      1828 3.54000E+01 4.61030E+01 0.00000E+00
 -1      1829 3.69000E+01 4.61030E+01 0.00000E+00
 -1      1830 3.46500E+01 4.48040E+01 0.00000E+00
 -1      1831 3.84000E+01 4.61030E+01 0.00000E+00
 -1      1832 3.99000E+01 4.61030E+01 0.00000E+00
 -1      1833 3.76500E+01 4.48040E+01 0.00000E+00
 -1      1834 4.14000E+01 4.61030E+01 0.00000E+00
 -1      1835 4.29000E+01 4.61030E+01 0.00000E+00
 -1      1836 4.06500E+01 4.48040E+01 0.00000E+00
 -1      1837 4.44000E+01 4.61030E+01 0.00000E+00
 -1      1838 4.59000E+01 4.61030E+01 0.00000E+00
 -1      1839 4.36500E+01 4.48040E+01 0.00000E+00
 -1      1840 4.74000E+01 4.61030E+01 0.00000E+00
 -1      1841 4.89000E+01 4.61030E+01 0.00000E+00
 -1      1842 4.66500E+01 4.48040E+01 0.00000E+00
 -1      1843 5.04000E+01 4.61030E+01 0.00000E+00
 -1      1844 5.19000E+01 4.61030E+01 0.00000E+00
 -1      1845 4.96500E+01 4.48040E+01 0.00000E+00
 -1      1846 5.34000E+01 4.61030E+01 0.00000E+00
 -1      1847 5.49000E+01 4.61030E+01 0.00000E+00
 -1      1848 5.26500E+01 4.48040E+01 0.00000E+00
 -1      1849 5.64000E+01 4.61030E+01 0.00000E+00
 -1      1850 5.79000E+01 4.61030E+01 0.00000E+00
 -1      1851 5.56500E+01 4.48040E+01 0.00000E+00
 -1      1852 5.94000E+01 4.61030E+01 0.00000E+00
 -1      1853 6.09000E+01 4.61030E+01 0.00000E+00
 -1      1854 5.86500E+01 4.48040E+01 0.00000E+00
 -1      1855 6.24000E+01 4.61030E+01 0.00000E+00
 -1      1856 6.39000E+01 4.61030E+01 0.00000E+00
 -1      1857 6.16500E+01 4.48040E+01 0.00000E+00
 -1      1858 6.54000E+01 4.61030E+01 0.00000E+00
 -1      1859 6.69000E+01 4.61030E+01 0.00000E+00
 -1      1860 6.46500E+01 4.48040E+01 0.00000E+00
 -1      1861 6.84000E+01 4.61030E+01 0.00000E+00
 -1      1862 6.99000E+01 4.61030E+01 0.00000E+00
 -1      1863 6.76500E+01 4.48040E+01 0.00000E+00
 -1      1864 7.14000E+01 4.61030E+01 0.00000E+00
 -1      1865 7.29000E+01 4.61030E+01 0.00000E+00
 -1      1866 7.06500E+01 4.48040E+01 0.00000E+00
 -1      1867 7.44000E+01 4.61030E+01 0.00000E+00
 -1      1868 7.59000E+01 4.61030E+01 0.00000E+00
 -1      1869 7.36500E+01 4.48040E+01 0.00000E+00
 -1      1870 7.74000E+01 4.61030E+01 0.00000E+00
 -1      1871 7.89000E+01 4.61030E+01 0.00000E+00
 -1      1872 7.66500E+01 4.48040E+01 0.00000E+00
 -1      1873 8.04000E+01 4.61030E+01 0.00000E+00
 -1      1874 8.19000E+01 4.61030E+01 0.00000E+00
 -1      1875 7.96500E+01 4.48040E+01 0.00000E+00
 -1      1876 8.34000E+01 4.61030E+01 0.00000E+00
 -1      1877 8.49000E+01 4.61030E+01 0.00000E+00
 -1      1878 8.26500E+01 4.48040E+01 0.00000E+00
 -1      1879 8.64000E+01 4.61030E+01 0.00000E+00
 -1      1880 8.79000E+01 4.61030E+01 0.00000E+00
 -1      1881 8.56500E+01 4.48040E+01 0.00000E+00
 -1      1882 8.94000E+01 4.61030E+01 0.00000E+00
 -1      1883 9.09000E+01 4.61030E+01 0.00000E+00
 -1      1884 8.86500E+01 4.48040E+01 0.00000E+00
 -1      1885 9.24000E+01 4.61030E+01 0.00000E+00
 -1      1886 9.39000E+01 4.61030E+01 0.00000E+00
 -1      1887 9.16500E+01 4.48040E+01 0.00000E+00
 -1      1888 9.54000E+01 4.61030E+01 0.00000E+00
 -1      1889 9.69000E+01 4.61030E+01 0.00000E+00
 -1      1890 9.46500E+01 4.48040E+01 0.00000E+00
 -1      1891 9.84000E+01 4.61030E+01 0.00000E+00
 -1      1892 9.99000E+01 4.61030E+01 0.00000E+00
 -1      1893 9.76500E+01 4.48040E+01 0.00000E+00
 -1      1894 1.01400E+02 4.61030E+01 0.00000E+00
 -1      1895 1.02900E+02 4.61030E+01 0.00000E+00
 -1      1896 1.00650E+02 4.48040E+01 0.00000E+00
 -1      1897 1.04400E+02 4.61030E+01 0.00000E+00
 -1      1898 1.05900E+02 4.61030E+01 0.00000E+00
 -1      1899 1.03650E+02 4.48040E+01 0.00000E+00
 -1      1900 1.07400E+02 4.61030E+01 0.00000E+00
 -1      1901 1.08900E+02 4.61030E+01 0.00000E+00
 -1      1902 1.06650E+02 4.48040E+01 0.00000E+00
 -1      1903 1.10400E+02 4.61030E+01 0.00000E+00
 -1      1904 1.11900E+02 4.61030E+01 0.00000E+00
 -1      1905 1.09650E+02 4.48040E+01 0.00000E+00
 -1      1906 1.13400E+02 4.61030E+01 0.00000E+00
 -1      1907 1.14900E+02 4.61030E+01 0.00000E+00
 -1      1908 1.12650E+02 4.48040E+01 0.00000E+00
 -1      1909 1.16400E+02 4.61030E+01 0.00000E+00
 -1      1910 1.17900E+02 4.61030E+01 0.00000E+00
 -1      1911 1.15650E+02 4.48040E+01 0.00000E+00
 -1      1912 1.19400E+02 4.61030E+01 0.00000E+00
 -1      1913 1.20900E+02 4.61030E+01 0.00000E+00
 -1      1914 1.18650E+02 4.48040E+01 0.00000E+00
 -1      1915 1.22400E+02 4.61030E+01 0.00000E+00
 -1      1916 1.23900E+02 4.61030E+01 0.00000E+00
 -1      1917 1.21650E+02 4.48040E+01 0.00000E+00
 -1      1918 1.25400E+02 4.61030E+01 0.00000E+00
 -1      1919 1.26900E+02 4.61030E+01 0.00000E+00
 -1      1920 1.24650E+02 4.48040E+01 0.00000E+00
 -1      1921 1.28400E+02 4.61030E+01 0.00000E+00
 -1      1922 1.29900E+02 4.61030E+01 0.00000E+00
 -1      1923 1.27650E+02 4.48040E+01 0.00000E+00
 -1      1924 1.31400E+02 4.61030E+01 0.00000E+00
 -1      1925 1.32900E+02 4.61030E+01 0.00000E+00
 -1      1926 1.30650E+02 4.48040E+01 0.00000E+00
 -1      1927 1.34400E+02 4.61030E+01 0.00000E+00
 -1      1928 1.35900E+02 4.61030E+01 0.00000E+00
 -1      1929 1.33650E+02 4.48040E+01 0.00000E+00
 -1      1930 1.37400E+02 4.61030E+01 0.00000E+00
 -1      1931 1.38900E+02 4.61030E+01 0.00000E+00
 -1      1932 1.36650E+02 4.48040E+01 0.00000E+00
 -1      1933 1.40400E+02 4.61030E+01 0.00000E+00
 -1      1934 1.41900E+02 4.61030E+01 0.00000E+00
 -1      1935 1.39650E+02 4.48040E+01 0.00000E+00
 -1      1936 1.43244E+02 4.61616E+01 0.00000E+00
 -1      1937 1.44744E+02 4.61616E+01 0.00000E+00
 -1      1938 1.45182E+02 4.49799E+01 0.00000E+00
 -1      1939 1.42494E+02 4.48626E+01 0.00000E+00
 -1      1940 1.17045E+01 3.09687E+00 0.00000E+00
 -1      1941 1.02045E+01 3.09687E+00 0.00000E+00
 -1      1942 1.00350E+01 4.00625E+00 0.00000E+00
 -1      1943 1.47045E+01 3.09687E+00 0.00000E+00
 -1      1944 1.32045E+01 3.09687E+00 0.00000E+00
 -1      1945 1.30350E+01 4.00625E+00 0.00000E+00
 -1      1946 1.77045E+01 3.09687E+00 0.00000E+00
 -1      1947 1.62045E+01 3.09687E+00 0.00000E+00
 -1      1948 1.60350E+01 4.00625E+00 0.00000E+00
 -1      1949 2.07045E+01 3.09687E+00 0.00000E+00
 -1      1950 1.92045E+01 3.09687E+00 0.00000E+00
 -1      1951 1.90350E+01 4.00625E+00 0.00000E+00
 -1      1952 2.37045E+01 3.09687E+00 0.00000E+00
 -1      1953 2.22045E+01 3.09687E+00 0.00000E+00
 -1      1954 2.20350E+01 4.00625E+00 0.00000E+00
 -1      1955 2.67045E+01 3.09687E+00 0.00000E+00
 -1      1956 2.52045E+01 3.09687E+00 0.00000E+00
 -1      1957 2.50350E+01 4.00625E+00 0.00000E+00
 -1      1958 2.97045E+01 3.09687E+00 0.00000E+00
 -1      1959 2.82045E+01 3.09687E+00 0.00000E+00
 -1      1960 2.80350E+01 4.00625E+00 0.00000E+00
 -1      1961 3.27045E+01 3.09687E+00 0.00000E+00
 -1      1962 3.12045E+01 3.09687E+00 0.00000E+00
 -1      1963 3.10350E+01 4.00625E+00 0.00000E+00
 -1      1964 3.57045E+01 3.09687E+00 0.00000E+00
 -1      1965 3.42045E+01 3.09687E+00 0.00000E+00
 -1      1966 3.40350E+01 4.00625E+00 0.00000E+00
 -1      1967 3.87045E+01 3.09687E+00 0.00000E+00
 -1      1968 3.72045E+01 3.09687E+00 0.00000E+00
 -1      1969 3.70350E+01 4.00625E+00 0.00000E+00
 -1      1970 4.17045E+01 3.09687E+00 0.00000E+00
 -1      1971 4.02045E+01 3.09687E+00 0.00000E+00
 -1      1972 4.00350E+01 4.00625E+00 0.00000E+00
 -1      1973 4.47045E+01 3.09687E+00 0.00000E+00
 -1      1974 4.32045E+01 3.09687E+00 0.00000E+00
 -1      1975 4.30350E+01 4.00625E+00 0.00000E+00
 -1      1976 4.77045E+01 3.09687E+00 0.00000E+00
 -1      1977 4.62045E+01 3.09687E+00 0.00000E+00
 -1      1978 4.60350E+01 4.00625E+00 0.00000E+00
 -1      1979 5.07045E+01 3.09687E+00 0.00000E+00
 -1      1980 4.92045E+01 3.09687E+00 0.00000E+00
 -1      1981 4.90350E+01 4.00625E+00 0.00000E+00
 -1      1982 5.37045E+01 3.09687E+00 0.00000E+00
 -1      1983 5.22045E+01 3.09687E+00 0.00000E+00
 -1      1984 5.20350E+01 4.00625E+00 0.00000E+00
 -1      1985 5.67045E+01 3.09687E+00 0.00000E+00
 -1      1986 5.52045E+01 3.09687E+00 0.00000E+00
 -1      1987 5.50350E+01 4.00625E+00 0.00000E+00
 -1      1988 5.97045E+01 3.09687E+00 0.00000E+00
 -1      1989 5.82045E+01 3.09687E+00 0.00000E+00
 -1      1990 5.80350E+01 4.00625E+00 0.00000E+00
 -1      1991 6.27045E+01 3.09687E+00 0.00000E+00
 -1      1992 6.12045E+01 3.09687E+00 0.00000E+00
 -1      1993 6.10350E+01 4.00625E+00 0.00000E+00
 -1      1994 6.57045E+01 3.09687E+00 0.00000E+00
 -1      1995 6.42045E+01 3.09687E+00 0.00000E+00
 -1      1996 6.40350E+01 4.00625E+00 0.00000E+00
 -1      1997 6.87045E+01 3.09687E+00 0.00000E+00
 -1      1998 6.72045E+01 3.09687E+00 0.00000E+00
 -1      1999 6.70350E+01 4.00625E+00 0.00000E+00
 -1      2000 7.17045E+01 3.09687E+00 0.00000E+00
 -1      2001 7.02045E+01 3.09687E+00 0.00000E+00
 -1      2002 7.00350E+01 4.00625E+00 0.00000E+00
 -1      2003 7.47045E+01 3.09687E+00 0.00000E+00
 -1      2004 7.32045E+01 3.09687E+00 0.00000E+00
 -1      2005 7.30350E+01 4.00625E+00 0.00000E+00
 -1      2006 7.77045E+01 3.09687E+00 0.00000E+00
 -1      2007 7.62045E+01 3.09687E+00 0.00000E+00
 -1      2008 7.60350E+01 4.00625E+00 0.00000E+00
 -1      2009 8.07045E+01 3.09687E+00 0.00000E+00
 -1      2010 7.92045E+01 3.09687E+00 0.00000E+00
 -1      2011 7.90350E+01 4.00625E+00 0.00000E+00
 -1      2012 8.37045E+01 3.09687E+00 0.00000E+00
 -1      2013 8.22045E+01 3.09687E+00 0.00000E+00
 -1      2014 8.20350E+01 4.00625E+00 0.00000E+00
 -1      2015 8.67045E+01 3.09687E+00 0.00000E+00
 -1      2016 8.52045E+01 3.09687E+00 0.00000E+00
 -1      2017 8.50350E+01 4.00625E+00 0.00000E+00
 -1      2018 8.97045E+01 3.09687E+00 0.00000E+00
 -1      2019 8.82045E+01 3.09687E+00 0.00000E+00
 -1      2020 8.80350E+01 4.00625E+00 0.00000E+00
 -1      2021 9.27045E+01 3.09687E+00 0.00000E+00
 -1      2022 9.12045E+01 3.09687E+00 0.00000E+00
 -1      2023 9.10350E+01 4.00625E+00 0.00000E+00
 -1      2024 9.57045E+01 3.09687E+00 0.00000E+00
 -1      2025 9.42045E+01 3.09687E+00 0.00000E+00
 -1      2026 9.40350E+01 4.00625E+00 0.00000E+00
 -1      2027 9.87045E+01 3.09687E+00 0.00000E+00
 -1      2028 9.72045E+01 3.09687E+00 0.00000E+00
 -1      2029 9.70350E+01 4.00625E+00 0.00000E+00
 -1      2030 1.01704E+02 3.09687E+00 0.00000E+00
 -1      2031 1.00204E+02 3.09687E+00 0.00000E+00
 -1      2032 1.00035E+02 4.00625E+00 0.00000E+00
 -1      2033 1.04704E+02 3.09687E+00 0.00000E+00
 -1      2034 1.03204E+02 3.09687E+00 0.00000E+00
 -1      2035 1.03035E+02 4.00625E+00 0.00000E+00
 -1      2036 1.07704E+02 3.09687E+00 0.00000E+00
 -1      2037 1.06204E+02 3.09687E+00 0.00000E+00
 -1      2038 1.06035E+02 4.00625E+00 0.00000E+00
 -1      2039 1.10704E+02 3.09687E+00 0.00000E+00
 -1      2040 1.09204E+02 3.09687E+00 0.00000E+00
 -1      2041 1.09035E+02 4.00625E+00 0.00000E+00
 -1      2042 1.13704E+02 3.09687E+00 0.00000E+00
 -1      2043 1.12204E+02 3.09687E+00 0.00000E+00
 -1      2044 1.12035E+02 4.00625E+00 0.00000E+00
 -1      2045 1.16704E+02 3.09687E+00 0.00000E+00
 -1      2046 1.15204E+02 3.09687E+00 0.00000E+00
 -1      2047 1.15035E+02 4.00625E+00 0.00000E+00
 -1      2048 1.19704E+02 3.09687E+00 0.00000E+00
 -1      2049 1.18204E+02 3.09687E+00 0.00000E+00
 -1      2050 1.18035E+02 4.00625E+00 0.00000E+00
 -1      2051 1.22704E+02 3.09687E+00 0.00000E+00
 -1      2052 1.21204E+02 3.09687E+00 0.00000E+00
 -1      2053 1.21035E+02 4.00625E+00 0.00000E+00
 -1      2054 1.25704E+02 3.09687E+00 0.00000E+00
 -1      2055 1.24204E+02 3.09687E+00 0.00000E+00
 -1      2056 1.24035E+02 4.00625E+00 0.00000E+00
 -1      2057 1.28704E+02 3.09687E+00 0.00000E+00
 -1      2058 1.27204E+02 3.09687E+00 0.00000E+00
 -1      2059 1.27035E+02 4.00625E+00 0.00000E+00
 -1      2060 1.31704E+02 3.09687E+00 0.00000E+00
 -1      2061 1.30204E+02 3.09687E+00 0.00000E+00
 -1      2062 1.30035E+02 4.00625E+00 0.00000E+00
 -1      2063 1.34704E+02 3.09687E+00 0.00000E+00
 -1      2064 1.33204E+02 3.09687E+00 0.00000E+00
 -1      2065 1.33035E+02 4.00625E+00 0.00000E+00
 -1      2066 1.37704E+02 3.09687E+00 0.00000E+00
 -1      2067 1.36204E+02 3.09687E+00 0.00000E+00
 -1      2068 1.36035E+02 4.00625E+00 0.00000E+00
 -1      2069 1.40704E+02 3.09687E+00 0.00000E+00
 -1      2070 1.39204E+02 3.09687E+00 0.00000E+00
 -1      2071 1.39035E+02 4.00625E+00 0.00000E+00
 -1      2072 1.43704E+02 3.09687E+00 0.00000E+00
 -1      2073 1.42204E+02 3.09687E+00 0.00000E+00
 -1      2074 1.42035E+02 4.00625E+00 0.00000E+00
 -1      2075 1.46171E+02 3.20156E+00 0.00000E+00
 -1      2076 1.44671E+02 3.20156E+00 0.00000E+00
 -1      2077 1.44502E+02 4.11094E+00 0.00000E+00
 -1      2078 1.46435E+02 4.32031E+00 0.00000E+00
 -1      2079 1.46103E+02 1.25375E+01 0.00000E+00
 -1      2080 1.46103E+02 1.10625E+01 0.00000E+00
 -1      2081 1.46103E+02 9.58750E+00 0.00000E+00
 -1      2082 1.46103E+02 8.11250E+00 0.00000E+00
 -1      2083 1.44804E+02 1.03250E+01 0.00000E+00
 -1      2084 1.46269E+02 6.95391E+00 0.00000E+00
 -1      2085 1.46269E+02 5.47891E+00 0.00000E+00
 -1      2086 1.45302E+02 5.37422E+00 0.00000E+00
 -1      2087 1.44970E+02 7.69141E+00 0.00000E+00
 -1      2088 1.46103E+02 1.54375E+01 0.00000E+00
 -1      2089 1.46103E+02 1.39875E+01 0.00000E+00
 -1      2090 1.44804E+02 1.32500E+01 0.00000E+00
 -1      2091 1.46103E+02 1.83875E+01 0.00000E+00
 -1      2092 1.46103E+02 1.69125E+01 0.00000E+00
 -1      2093 1.44804E+02 1.61750E+01 0.00000E+00
 -1      2094 1.46103E+02 2.13375E+01 0.00000E+00
 -1      2095 1.46103E+02 1.98625E+01 0.00000E+00
 -1      2096 1.44804E+02 1.91250E+01 0.00000E+00
 -1      2097 1.46103E+02 2.42875E+01 0.00000E+00
 -1      2098 1.46103E+02 2.28125E+01 0.00000E+00
 -1      2099 1.44804E+02 2.20750E+01 0.00000E+00
 -1      2100 1.46103E+02 2.72375E+01 0.00000E+00
 -1      2101 1.46103E+02 2.57625E+01 0.00000E+00
 -1      2102 1.44804E+02 2.50250E+01 0.00000E+00
 -1      2103 1.46103E+02 3.01875E+01 0.00000E+00
 -1      2104 1.46103E+02 2.87125E+01 0.00000E+00
 -1      2105 1.44804E+02 2.79750E+01 0.00000E+00
 -1      2106 1.46103E+02 3.30875E+01 0.00000E+00
 -1      2107 1.46103E+02 3.16375E+01 0.00000E+00
 -1      2108 1.44804E+02 3.09000E+01 0.00000E+00
 -1      2109 1.46103E+02 3.60375E+01 0.00000E+00
 -1      2110 1.46103E+02 3.45625E+01 0.00000E+00
 -1      2111 1.44804E+02 3.38250E+01 0.00000E+00
 -1      2112 1.46103E+02 3.89875E+01 0.00000E+00
 -1      2113 1.46103E+02 3.75125E+01 0.00000E+00
 -1      2114 1.44804E+02 3.67750E+01 0.00000E+00
 -1      2115 1.46103E+02 4.19375E+01 0.00000E+00
 -1      2116 1.46103E+02 4.04625E+01 0.00000E+00
 -1      2117 1.44804E+02 3.97250E+01 0.00000E+00
 -1      2118 1.19533E+02 2.03267E+01 0.00000E+00
 -1      2119 1.19902E+02 2.11287E+01 0.00000E+00
 -1      2120 1.20392E+02 2.40590E+01 0.00000E+00
 -1      2121 1.20352E+02 2.49411E+01 0.00000E+00
 -1      2122 1.20317E+02 2.21036E+01 0.00000E+00
 -1      2123 1.20507E+02 2.29713E+01 0.00000E+00
 -1      2124 1.18398E+02 1.87752E+01 0.00000E+00
 -1      2125 1.18930E+02 1.94811E+01 0.00000E+00
 -1      2126 1.16993E+02 1.74969E+01 0.00000E+00
 -1      2127 1.17669E+02 1.80290E+01 0.00000E+00
 -1      2128 3.89700E+00 3.74688E+01 0.00000E+00
 -1      2129 3.89700E+00 3.89437E+01 0.00000E+00
 -1      2130 5.19600E+00 3.96813E+01 0.00000E+00
 -1      2131 5.19600E+00 3.67438E+01 0.00000E+00
 -1      2132 1.13642E+02 1.57980E+01 0.00000E+00
 -1      2133 1.14496E+02 1.60099E+01 0.00000E+00
 -1      2134 1.11821E+02 1.55033E+01 0.00000E+00
 -1      2135 1.12705E+02 1.56483E+01 0.00000E+00
 -1      2136 1.09794E+02 1.56872E+01 0.00000E+00
 -1      2137 1.10681E+02 1.55184E+01 0.00000E+00
 -1      2138 1.08010E+02 1.62627E+01 0.00000E+00
 -1      2139 1.08824E+02 1.59577E+01 0.00000E+00
 -1      2140 1.06406E+02 1.72875E+01 0.00000E+00
 -1      2141 1.07109E+02 1.67879E+01 0.00000E+00
 -1      2142 1.05004E+02 1.84408E+01 0.00000E+00
 -1      2143 1.05609E+02 1.78458E+01 0.00000E+00
 -1      2144 1.03984E+02 2.00386E+01 0.00000E+00
 -1      2145 1.04462E+02 1.93037E+01 0.00000E+00
 -1      2146 1.03095E+02 2.16857E+01 0.00000E+00
 -1      2147 1.03410E+02 2.08804E+01 0.00000E+00
 -1      2148 1.02669E+02 2.33898E+01 0.00000E+00
 -1      2149 1.02882E+02 2.25378E+01 0.00000E+00
 -1      2150 1.02319E+02 2.18533E+01 0.00000E+00
 -1      2151 1.02688E+02 2.55034E+01 0.00000E+00
 -1      2152 1.02593E+02 2.45985E+01 0.00000E+00
 -1      2153 1.02944E+02 2.74245E+01 0.00000E+00
 -1      2154 1.02757E+02 2.65001E+01 0.00000E+00
 -1      2155 1.03984E+02 2.93576E+01 0.00000E+00
 -1      2156 1.03422E+02 2.85982E+01 0.00000E+00
 -1      2157 1.05096E+02 3.08277E+01 0.00000E+00
 -1      2158 1.04540E+02 3.00926E+01 0.00000E+00
 -1      2159 1.03603E+02 3.01984E+01 0.00000E+00
 -1      2160 1.06842E+02 3.19955E+01 0.00000E+00
 -1      2161 1.06070E+02 3.15435E+01 0.00000E+00
 -1      2162 1.08521E+02 3.27687E+01 0.00000E+00
 -1      2163 1.07714E+02 3.24313E+01 0.00000E+00
 -1      2164 1.10341E+02 3.32995E+01 0.00000E+00
 -1      2165 1.09457E+02 3.30495E+01 0.00000E+00
 -1      2166 1.12406E+02 3.33919E+01 0.00000E+00
 -1      2167 1.11509E+02 3.35094E+01 0.00000E+00
 -1      2168 1.14181E+02 3.30088E+01 0.00000E+00
 -1      2169 1.13294E+02 3.32004E+01 0.00000E+00
 -1      2170 1.12946E+02 3.40263E+01 0.00000E+00
 -1      2171 1.16092E+02 3.21944E+01 0.00000E+00
 -1      2172 1.15276E+02 3.26194E+01 0.00000E+00
 -1      2173 1.17597E+02 3.08879E+01 0.00000E+00
 -1      2174 1.16934E+02 3.15016E+01 0.00000E+00
 -1      2175 1.18945E+02 2.95667E+01 0.00000E+00
 -1      2176 1.18370E+02 3.02561E+01 0.00000E+00
 -1      2177 1.19867E+02 2.78059E+01 0.00000E+00
 -1      2178 1.19491E+02 2.86238E+01 0.00000E+00
 -1      2179 1.20250E+02 2.58953E+01 0.00000E+00
 -1      2180 1.20103E+02 2.67643E+01 0.00000E+00
 -1      2181 1.15468E+02 1.65039E+01 0.00000E+00
 -1      2182 1.16214E+02 1.69571E+01 0.00000E+00
 -1      2183 1.18486E+02 1.79667E+01 0.00000E+00
 -1      2184 6.42300E+00 4.57510E+01 0.00000E+00
 -1      2185 1.16978E+02 1.66807E+01 0.00000E+00
 -1      2186 1.15227E+02 1.56469E+01 0.00000E+00
 -1      2187 7.17300E+00 4.44520E+01 0.00000E+00
 -1      2188 1.20835E+02 2.13789E+01 0.00000E+00
 -1      2189 1.21134E+02 2.34416E+01 0.00000E+00
 -1      2190 1.45665E+02 4.31193E+01 0.00000E+00
 -1      2191 1.19818E+02 1.95585E+01 0.00000E+00
 -1      2192 1.20917E+02 2.54836E+01 0.00000E+00
 -1      2193 1.20580E+02 2.74794E+01 0.00000E+00
 -1      2194 1.19798E+02 2.94639E+01 0.00000E+00
 -1      2195 1.18479E+02 3.10386E+01 0.00000E+00
 -1      2196 1.14928E+02 3.34454E+01 0.00000E+00
 -1      2197 1.10890E+02 3.40080E+01 0.00000E+00
 -1      2198 1.08787E+02 3.35174E+01 0.00000E+00
 -1      2199 1.05133E+02 3.16492E+01 0.00000E+00
 -1      2200 1.02570E+02 2.82897E+01 0.00000E+00
 -1      2201 1.02030E+02 2.39140E+01 0.00000E+00
 -1      2202 1.03106E+02 2.01594E+01 0.00000E+00
 -1      2203 1.04222E+02 1.84547E+01 0.00000E+00
 -1      2204 1.05561E+02 1.70335E+01 0.00000E+00
 -1      2205 1.07259E+02 1.59500E+01 0.00000E+00
 -1      2206 1.09131E+02 1.51544E+01 0.00000E+00
 -1      2207 1.13318E+02 1.50033E+01 0.00000E+00
 -1      2208 1.11241E+02 1.48687E+01 0.00000E+00
 -1      2209 1.02023E+02 2.61194E+01 0.00000E+00
 -1      2210 1.06980E+02 3.28008E+01 0.00000E+00
 -1      2211 1.16864E+02 3.23632E+01 0.00000E+00
 -1      2212 1.07850E+01 5.30525E+00 0.00000E+00
 -1      2213 9.28500E+00 5.30525E+00 0.00000E+00
 -1      2214 6.49500E+00 3.01125E+01 0.00000E+00
 -1      2215 6.49500E+00 3.15875E+01 0.00000E+00
 -1      2216 6.49500E+00 3.30625E+01 0.00000E+00
 -1      2217 6.49500E+00 3.45375E+01 0.00000E+00
 -1      2218 7.79400E+00 3.23250E+01 0.00000E+00
 -1      2219 6.49500E+00 2.42125E+01 0.00000E+00
 -1      2220 6.49500E+00 2.56875E+01 0.00000E+00
 -1      2221 6.49500E+00 2.12625E+01 0.00000E+00
 -1      2222 6.49500E+00 2.27375E+01 0.00000E+00
 -1      2223 7.79400E+00 2.34750E+01 0.00000E+00
 -1      2224 6.49500E+00 1.83625E+01 0.00000E+00
 -1      2225 6.49500E+00 1.98125E+01 0.00000E+00
 -1      2226 7.79400E+00 2.05500E+01 0.00000E+00
 -1      2227 6.49500E+00 1.54125E+01 0.00000E+00
 -1      2228 6.49500E+00 1.68875E+01 0.00000E+00
 -1      2229 7.79400E+00 1.76250E+01 0.00000E+00
 -1      2230 6.49500E+00 1.24625E+01 0.00000E+00
 -1      2231 6.49500E+00 1.39375E+01 0.00000E+00
 -1      2232 7.79400E+00 1.46750E+01 0.00000E+00
 -1      2233 6.49500E+00 9.51250E+00 0.00000E+00
 -1      2234 6.49500E+00 1.09875E+01 0.00000E+00
 -1      2235 7.79400E+00 1.17250E+01 0.00000E+00
 -1      2236 1.37850E+01 5.30525E+00 0.00000E+00
 -1      2237 1.22850E+01 5.30525E+00 0.00000E+00
 -1      2238 1.15350E+01 6.60425E+00 0.00000E+00
 -1      2239 9.90000E+00 4.35050E+01 0.00000E+00
 -1      2240 1.14000E+01 4.35050E+01 0.00000E+00
 -1      2241 1.17077E+02 1.57060E+01 0.00000E+00
 -1      2242 1.17856E+02 1.62458E+01 0.00000E+00
 -1      2243 1.29000E+01 4.35050E+01 0.00000E+00
 -1      2244 1.44000E+01 4.35050E+01 0.00000E+00
 -1      2245 1.21500E+01 4.22060E+01 0.00000E+00
 -1      2246 1.59000E+01 4.35050E+01 0.00000E+00
 -1      2247 1.74000E+01 4.35050E+01 0.00000E+00
 -1      2248 1.51500E+01 4.22060E+01 0.00000E+00
 -1      2249 1.89000E+01 4.35050E+01 0.00000E+00
 -1      2250 2.04000E+01 4.35050E+01 0.00000E+00
 -1      2251 1.81500E+01 4.22060E+01 0.00000E+00
 -1      2252 2.19000E+01 4.35050E+01 0.00000E+00
 -1      2253 2.34000E+01 4.35050E+01 0.00000E+00
 -1      2254 2.11500E+01 4.22060E+01 0.00000E+00
 -1      2255 2.49000E+01 4.35050E+01 0.00000E+00
 -1      2256 2.64000E+01 4.35050E+01 0.00000E+00
 -1      2257 2.41500E+01 4.22060E+01 0.00000E+00
 -1      2258 2.79000E+01 4.35050E+01 0.00000E+00
 -1      2259 2.94000E+01 4.35050E+01 0.00000E+00
 -1      2260 2.71500E+01 4.22060E+01 0.00000E+00
 -1      2261 3.09000E+01 4.35050E+01 0.00000E+00
 -1      2262 3.24000E+01 4.35050E+01 0.00000E+00
 -1      2263 3.01500E+01 4.22060E+01 0.00000E+00
 -1      2264 3.39000E+01 4.35050E+01 0.00000E+00
 -1      2265 3.54000E+01 4.35050E+01 0.00000E+00
 -1      2266 3.31500E+01 4.22060E+01 0.00000E+00
 -1      2267 3.69000E+01 4.35050E+01 0.00000E+00
 -1      2268 3.84000E+01 4.35050E+01 0.00000E+00
 -1      2269 3.61500E+01 4.22060E+01 0.00000E+00
 -1      2270 3.99000E+01 4.35050E+01 0.00000E+00
 -1      2271 4.14000E+01 4.35050E+01 0.00000E+00
 -1      2272 3.91500E+01 4.22060E+01 0.00000E+00
 -1      2273 4.29000E+01 4.35050E+01 0.00000E+00
 -1      2274 4.44000E+01 4.35050E+01 0.00000E+00
 -1      2275 4.21500E+01 4.22060E+01 0.00000E+00
 -1      2276 4.59000E+01 4.35050E+01 0.00000E+00
 -1      2277 4.74000E+01 4.35050E+01 0.00000E+00
 -1      2278 4.51500E+01 4.22060E+01 0.00000E+00
 -1      2279 4.89000E+01 4.35050E+01 0.00000E+00
 -1      2280 5.04000E+01 4.35050E+01 0.00000E+00
 -1      2281 4.81500E+01 4.22060E+01 0.00000E+00
 -1      2282 5.19000E+01 4.35050E+01 0.00000E+00
 -1      2283 5.34000E+01 4.35050E+01 0.00000E+00
 -1      2284 5.11500E+01 4.22060E+01 0.00000E+00
 -1      2285 5.49000E+01 4.35050E+01 0.00000E+00
 -1      2286 5.64000E+01 4.35050E+01 0.00000E+00
 -1      2287 5.41500E+01 4.22060E+01 0.00000E+00
 -1      2288 5.79000E+01 4.35050E+01 0.00000E+00
 -1      2289 5.94000E+01 4.35050E+01 0.00000E+00
 -1      2290 5.71500E+01 4.22060E+01 0.00000E+00
 -1      2291 6.09000E+01 4.35050E+01 0.00000E+00
 -1      2292 6.24000E+01 4.35050E+01 0.00000E+00
 -1      2293 6.01500E+01 4.22060E+01 0.00000E+00
 -1      2294 6.39000E+01 4.35050E+01 0.00000E+00
 -1      2295 6.54000E+01 4.35050E+01 0.00000E+00
 -1      2296 6.31500E+01 4.22060E+01 0.00000E+00
 -1      2297 6.69000E+01 4.35050E+01 0.00000E+00
 -1      2298 6.84000E+01 4.35050E+01 0.00000E+00
 -1      2299 6.61500E+01 4.22060E+01 0.00000E+00
 -1      2300 6.99000E+01 4.35050E+01 0.00000E+00
 -1      2301 7.14000E+01 4.35050E+01 0.00000E+00
 -1      2302 6.91500E+01 4.22060E+01 0.00000E+00
 -1      2303 7.29000E+01 4.35050E+01 0.00000E+00
 -1      2304 7.44000E+01 4.35050E+01 0.00000E+00
 -1      2305 7.21500E+01 4.22060E+01 0.00000E+00
 -1      2306 7.59000E+01 4.35050E+01 0.00000E+00
 -1      2307 7.74000E+01 4.35050E+01 0.00000E+00
 -1      2308 7.51500E+01 4.22060E+01 0.00000E+00
 -1      2309 7.89000E+01 4.35050E+01 0.00000E+00
 -1      2310 8.04000E+01 4.35050E+01 0.00000E+00
 -1      2311 7.81500E+01 4.22060E+01 0.00000E+00
 -1      2312 8.19000E+01 4.35050E+01 0.00000E+00
 -1      2313 8.34000E+01 4.35050E+01 0.00000E+00
 -1      2314 8.11500E+01 4.22060E+01 0.00000E+00
 -1      2315 8.49000E+01 4.35050E+01 0.00000E+00
 -1      2316 8.64000E+01 4.35050E+01 0.00000E+00
 -1      2317 8.41500E+01 4.22060E+01 0.00000E+00
 -1      2318 8.79000E+01 4.35050E+01 0.00000E+00
 -1      2319 8.94000E+01 4.35050E+01 0.00000E+00
 -1      2320 8.71500E+01 4.22060E+01 0.00000E+00
 -1      2321 9.09000E+01 4.35050E+01 0.00000E+00
 -1      2322 9.24000E+01 4.35050E+01 0.00000E+00
 -1      2323 9.01500E+01 4.22060E+01 0.00000E+00
 -1      2324 9.39000E+01 4.35050E+01 0.00000E+00
 -1      2325 9.54000E+01 4.35050E+01 0.00000E+00
 -1      2326 9.31500E+01 4.22060E+01 0.00000E+00
 -1      2327 9.69000E+01 4.35050E+01 0.00000E+00
 -1      2328 9.84000E+01 4.35050E+01 0.00000E+00
 -1      2329 9.61500E+01 4.22060E+01 0.00000E+00
 -1      2330 9.99000E+01 4.35050E+01 0.00000E+00
 -1      2331 1.01400E+02 4.35050E+01 0.00000E+00
 -1      2332 9.91500E+01 4.22060E+01 0.00000E+00
 -1      2333 1.02900E+02 4.35050E+01 0.00000E+00
 -1      2334 1.04400E+02 4.35050E+01 0.00000E+00
 -1      2335 1.02150E+02 4.22060E+01 0.00000E+00
 -1      2336 1.05900E+02 4.35050E+01 0.00000E+00
 -1      2337 1.07400E+02 4.35050E+01 0.00000E+00
 -1      2338 1.05150E+02 4.22060E+01 0.00000E+00
 -1      2339 1.08900E+02 4.35050E+01 0.00000E+00
 -1      2340 1.10400E+02 4.35050E+01 0.00000E+00
 -1      2341 1.08150E+02 4.22060E+01 0.00000E+00
 -1      2342 1.11900E+02 4.35050E+01 0.00000E+00
 -1      2343 1.13400E+02 4.35050E+01 0.00000E+00
 -1      2344 1.11150E+02 4.22060E+01 0.00000E+00
 -1      2345 1.14900E+02 4.35050E+01 0.00000E+00
 -1      2346 1.16400E+02 4.35050E+01 0.00000E+00
 -1      2347 1.14150E+02 4.22060E+01 0.00000E+00
 -1      2348 1.17900E+02 4.35050E+01 0.00000E+00
 -1      2349 1.19400E+02 4.35050E+01 0.00000E+00
 -1      2350 1.17150E+02 4.22060E+01 0.00000E+00
 -1      2351 1.20900E+02 4.35050E+01 0.00000E+00
 -1      2352 1.22400E+02 4.35050E+01 0.00000E+00
 -1      2353 1.20150E+02 4.22060E+01 0.00000E+00
 -1      2354 1.23900E+02 4.35050E+01 0.00000E+00
 -1      2355 1.25400E+02 4.35050E+01 0.00000E+00
 -1      2356 1.23150E+02 4.22060E+01 0.00000E+00
 -1      2357 1.26900E+02 4.35050E+01 0.00000E+00
 -1      2358 1.28400E+02 4.35050E+01 0.00000E+00
 -1      2359 1.26150E+02 4.22060E+01 0.00000E+00
 -1      2360 1.29900E+02 4.35050E+01 0.00000E+00
 -1      2361 1.31400E+02 4.35050E+01 0.00000E+00
 -1      2362 1.29150E+02 4.22060E+01 0.00000E+00
 -1      2363 1.32900E+02 4.35050E+01 0.00000E+00
 -1      2364 1.34400E+02 4.35050E+01 0.00000E+00
 -1      2365 1.32150E+02 4.22060E+01 0.00000E+00
 -1      2366 1.35900E+02 4.35050E+01 0.00000E+00
 -1      2367 1.37400E+02 4.35050E+01 0.00000E+00
 -1      2368 1.35150E+02 4.22060E+01 0.00000E+00
 -1      2369 1.38900E+02 4.35050E+01 0.00000E+00
 -1      2370 1.40400E+02 4.35050E+01 0.00000E+00
 -1      2371 1.38150E+02 4.22060E+01 0.00000E+00
 -1      2372 1.97850E+01 5.30525E+00 0.00000E+00
 -1      2373 1.82850E+01 5.30525E+00 0.00000E+00
 -1      2374 2.27850E+01 5.30525E+00 0.00000E+00
 -1      2375 2.12850E+01 5.30525E+00 0.00000E+00
 -1      2376 2.05350E+01 6.60425E+00 0.00000E+00
 -1      2377 2.57850E+01 5.30525E+00 0.00000E+00
 -1      2378 2.42850E+01 5.30525E+00 0.00000E+00
 -1      2379 2.35350E+01 6.60425E+00 0.00000E+00
 -1      2380 2.87850E+01 5.30525E+00 0.00000E+00
 -1      2381 2.72850E+01 5.30525E+00 0.00000E+00
 -1      2382 2.65350E+01 6.60425E+00 0.00000E+00
 -1      2383 3.17850E+01 5.30525E+00 0.00000E+00
 -1      2384 3.02850E+01 5.30525E+00 0.00000E+00
 -1      2385 2.95350E+01 6.60425E+00 0.00000E+00
 -1      2386 3.47850E+01 5.30525E+00 0.00000E+00
 -1      2387 3.32850E+01 5.30525E+00 0.00000E+00
 -1      2388 3.25350E+01 6.60425E+00 0.00000E+00
 -1      2389 3.77850E+01 5.30525E+00 0.00000E+00
 -1      2390 3.62850E+01 5.30525E+00 0.00000E+00
 -1      2391 3.55350E+01 6.60425E+00 0.00000E+00
 -1      2392 4.07850E+01 5.30525E+00 0.00000E+00
 -1      2393 3.92850E+01 5.30525E+00 0.00000E+00
 -1      2394 3.85350E+01 6.60425E+00 0.00000E+00
 -1      2395 4.37850E+01 5.30525E+00 0.00000E+00
 -1      2396 4.22850E+01 5.30525E+00 0.00000E+00
 -1      2397 4.15350E+01 6.60425E+00 0.00000E+00
 -1      2398 4.67850E+01 5.30525E+00 0.00000E+00
 -1      2399 4.52850E+01 5.30525E+00 0.00000E+00
 -1      2400 4.45350E+01 6.60425E+00 0.00000E+00
 -1      2401 4.97850E+01 5.30525E+00 0.00000E+00
 -1      2402 4.82850E+01 5.30525E+00 0.00000E+00
 -1      2403 4.75350E+01 6.60425E+00 0.00000E+00
 -1      2404 5.27850E+01 5.30525E+00 0.00000E+00
 -1      2405 5.12850E+01 5.30525E+00 0.00000E+00
 -1      2406 5.05350E+01 6.60425E+00 0.00000E+00
 -1      2407 5.57850E+01 5.30525E+00 0.00000E+00
 -1      2408 5.42850E+01 5.30525E+00 0.00000E+00
 -1      2409 5.35350E+01 6.60425E+00 0.00000E+00
 -1      2410 5.87850E+01 5.30525E+00 0.00000E+00
 -1      2411 5.72850E+01 5.30525E+00 0.00000E+00
 -1      2412 5.65350E+01 6.60425E+00 0.00000E+00
 -1      2413 6.17850E+01 5.30525E+00 0.00000E+00
 -1      2414 6.02850E+01 5.30525E+00 0.00000E+00
 -1      2415 5.95350E+01 6.60425E+00 0.00000E+00
 -1      2416 6.47850E+01 5.30525E+00 0.00000E+00
 -1      2417 6.32850E+01 5.30525E+00 0.00000E+00
 -1      2418 6.25350E+01 6.60425E+00 0.00000E+00
 -1      2419 6.77850E+01 5.30525E+00 0.00000E+00
 -1      2420 6.62850E+01 5.30525E+00 0.00000E+00
 -1      2421 6.55350E+01 6.60425E+00 0.00000E+00
 -1      2422 7.07850E+01 5.30525E+00 0.00000E+00
 -1      2423 6.92850E+01 5.30525E+00 0.00000E+00
 -1      2424 6.85350E+01 6.60425E+00 0.00000E+00
 -1      2425 7.37850E+01 5.30525E+00 0.00000E+00
 -1      2426 7.22850E+01 5.30525E+00 0.00000E+00
 -1      2427 7.15350E+01 6.60425E+00 0.00000E+00
 -1      2428 7.67850E+01 5.30525E+00 0.00000E+00
 -1      2429 7.52850E+01 5.30525E+00 0.00000E+00
 -1      2430 7.45350E+01 6.60425E+00 0.00000E+00
 -1      2431 7.97850E+01 5.30525E+00 0.00000E+00
 -1      2432 7.82850E+01 5.30525E+00 0.00000E+00
 -1      2433 7.75350E+01 6.60425E+00 0.00000E+00
 -1      2434 8.27850E+01 5.30525E+00 0.00000E+00
 -1      2435 8.12850E+01 5.30525E+00 0.00000E+00
 -1      2436 8.05350E+01 6.60425E+00 0.00000E+00
 -1      2437 8.57850E+01 5.30525E+00 0.00000E+00
 -1      2438 8.42850E+01 5.30525E+00 0.00000E+00
 -1      2439 8.35350E+01 6.60425E+00 0.00000E+00
 -1      2440 8.87850E+01 5.30525E+00 0.00000E+00
 -1      2441 8.72850E+01 5.30525E+00 0.00000E+00
 -1      2442 8.65350E+01 6.60425E+00 0.00000E+00
 -1      2443 9.17850E+01 5.30525E+00 0.00000E+00
 -1      2444 9.02850E+01 5.30525E+00 0.00000E+00
 -1      2445 8.95350E+01 6.60425E+00 0.00000E+00
 -1      2446 9.47850E+01 5.30525E+00 0.00000E+00
 -1      2447 9.32850E+01 5.30525E+00 0.00000E+00
 -1      2448 9.25350E+01 6.60425E+00 0.00000E+00
 -1      2449 9.77850E+01 5.30525E+00 0.00000E+00
 -1      2450 9.62850E+01 5.30525E+00 0.00000E+00
 -1      2451 9.55350E+01 6.60425E+00 0.00000E+00
 -1      2452 1.00785E+02 5.30525E+00 0.00000E+00
 -1      2453 9.92850E+01 5.30525E+00 0.00000E+00
 -1      2454 9.85350E+01 6.60425E+00 0.00000E+00
 -1      2455 1.03785E+02 5.30525E+00 0.00000E+00
 -1      2456 1.02285E+02 5.30525E+00 0.00000E+00
 -1      2457 1.01535E+02 6.60425E+00 0.00000E+00
 -1      2458 1.06785E+02 5.30525E+00 0.00000E+00
 -1      2459 1.05285E+02 5.30525E+00 0.00000E+00
 -1      2460 1.04535E+02 6.60425E+00 0.00000E+00
 -1      2461 1.09785E+02 5.30525E+00 0.00000E+00
 -1      2462 1.08285E+02 5.30525E+00 0.00000E+00
 -1      2463 1.07535E+02 6.60425E+00 0.00000E+00
 -1      2464 1.12785E+02 5.30525E+00 0.00000E+00
 -1      2465 1.11285E+02 5.30525E+00 0.00000E+00
 -1      2466 1.10535E+02 6.60425E+00 0.00000E+00
 -1      2467 1.15785E+02 5.30525E+00 0.00000E+00
 -1      2468 1.14285E+02 5.30525E+00 0.00000E+00
 -1      2469 1.13535E+02 6.60425E+00 0.00000E+00
 -1      2470 1.18785E+02 5.30525E+00 0.00000E+00
 -1      2471 1.17285E+02 5.30525E+00 0.00000E+00
 -1      2472 1.16535E+02 6.60425E+00 0.00000E+00
 -1      2473 1.21785E+02 5.30525E+00 0.00000E+00
 -1      2474 1.20285E+02 5.30525E+00 0.00000E+00
 -1      2475 1.19535E+02 6.60425E+00 0.00000E+00
 -1      2476 1.24785E+02 5.30525E+00 0.00000E+00
 -1      2477 1.23285E+02 5.30525E+00 0.00000E+00
 -1      2478 1.22535E+02 6.60425E+00 0.00000E+00
 -1      2479 1.27785E+02 5.30525E+00 0.00000E+00
 -1      2480 1.26285E+02 5.30525E+00 0.00000E+00
 -1      2481 1.25535E+02 6.60425E+00 0.00000E+00
 -1      2482 1.30785E+02 5.30525E+00 0.00000E+00
 -1      2483 1.29285E+02 5.30525E+00 0.00000E+00
 -1      2484 1.28535E+02 6.60425E+00 0.00000E+00
 -1      2485 1.33785E+02 5.30525E+00 0.00000E+00
 -1      2486 1.32285E+02 5.30525E+00 0.00000E+00
 -1      2487 1.31535E+02 6.60425E+00 0.00000E+00
 -1      2488 1.36785E+02 5.30525E+00 0.00000E+00
 -1      2489 1.35285E+02 5.30525E+00 0.00000E+00
 -1      2490 1.34535E+02 6.60425E+00 0.00000E+00
 -1      2491 1.39785E+02 5.30525E+00 0.00000E+00
 -1      2492 1.38285E+02 5.30525E+00 0.00000E+00
 -1      2493 1.37535E+02 6.60425E+00 0.00000E+00
 -1      2494 1.42785E+02 5.30525E+00 0.00000E+00
 -1      2495 1.41285E+02 5.30525E+00 0.00000E+00
 -1      2496 1.40535E+02 6.60425E+00 0.00000E+00
 -1      2497 1.44336E+02 5.26953E+00 0.00000E+00
 -1      2498 1.43505E+02 1.69125E+01 0.00000E+00
 -1      2499 1.43505E+02 1.54375E+01 0.00000E+00
 -1      2500 1.43505E+02 1.98625E+01 0.00000E+00
 -1      2501 1.43505E+02 1.83875E+01 0.00000E+00
 -1      2502 1.42206E+02 1.76500E+01 0.00000E+00
 -1      2503 1.43505E+02 1.10625E+01 0.00000E+00
 -1      2504 1.43505E+02 9.58750E+00 0.00000E+00
 -1      2505 1.43505E+02 1.39750E+01 0.00000E+00
 -1      2506 1.43505E+02 1.25250E+01 0.00000E+00
 -1      2507 1.42206E+02 1.17875E+01 0.00000E+00
 -1      2508 1.42206E+02 1.47125E+01 0.00000E+00
 -1      2509 1.43505E+02 2.28125E+01 0.00000E+00
 -1      2510 1.43505E+02 2.13375E+01 0.00000E+00
 -1      2511 1.42206E+02 2.06000E+01 0.00000E+00
 -1      2512 1.43505E+02 2.57625E+01 0.00000E+00
 -1      2513 1.43505E+02 2.42875E+01 0.00000E+00
 -1      2514 1.42206E+02 2.35500E+01 0.00000E+00
 -1      2515 1.43505E+02 2.87125E+01 0.00000E+00
 -1      2516 1.43505E+02 2.72375E+01 0.00000E+00
 -1      2517 1.42206E+02 2.65000E+01 0.00000E+00
 -1      2518 1.43505E+02 3.16125E+01 0.00000E+00
 -1      2519 1.43505E+02 3.01625E+01 0.00000E+00
 -1      2520 1.42206E+02 2.94250E+01 0.00000E+00
 -1      2521 1.43505E+02 3.45625E+01 0.00000E+00
 -1      2522 1.43505E+02 3.30875E+01 0.00000E+00
 -1      2523 1.42206E+02 3.23500E+01 0.00000E+00
 -1      2524 1.43505E+02 3.75125E+01 0.00000E+00
 -1      2525 1.43505E+02 3.60375E+01 0.00000E+00
 -1      2526 1.42206E+02 3.53000E+01 0.00000E+00
 -1      2527 1.43505E+02 4.04625E+01 0.00000E+00
 -1      2528 1.43505E+02 3.89875E+01 0.00000E+00
 -1      2529 1.42206E+02 3.82500E+01 0.00000E+00
 -1      2530 1.22128E+02 2.29968E+01 0.00000E+00
 -1      2531 1.22013E+02 2.40846E+01 0.00000E+00
 -1      2532 1.20283E+02 1.85895E+01 0.00000E+00
 -1      2533 1.20886E+02 1.94350E+01 0.00000E+00
 -1      2534 1.67850E+01 5.30525E+00 0.00000E+00
 -1      2535 1.52850E+01 5.30525E+00 0.00000E+00
 -1      2536 1.75350E+01 6.60425E+00 0.00000E+00
 -1      2537 1.44321E+02 4.30606E+01 0.00000E+00
 -1      2538 1.21911E+02 2.50388E+01 0.00000E+00
 -1      2539 1.21809E+02 2.59930E+01 0.00000E+00
 -1      2540 1.22905E+02 2.45940E+01 0.00000E+00
 -1      2541 1.21417E+02 2.05559E+01 0.00000E+00
 -1      2542 1.21831E+02 2.15308E+01 0.00000E+00
 -1      2543 6.55950E+00 4.28890E+01 0.00000E+00
 -1      2544 8.53650E+00 4.32410E+01 0.00000E+00
 -1      2545 9.28650E+00 4.19420E+01 0.00000E+00
 -1      2546 6.55950E+00 4.14140E+01 0.00000E+00
 -1      2547 1.21493E+02 2.71388E+01 0.00000E+00
 -1      2548 1.21257E+02 2.81803E+01 0.00000E+00
 -1      2549 1.11337E+02 3.48745E+01 0.00000E+00
 -1      2550 1.10170E+02 3.46647E+01 0.00000E+00
 -1      2551 1.02015E+02 2.91999E+01 0.00000E+00
 -1      2552 1.01537E+02 2.80262E+01 0.00000E+00
 -1      2553 1.02214E+02 2.01680E+01 0.00000E+00
 -1      2554 1.02788E+02 1.93262E+01 0.00000E+00
 -1      2555 6.49500E+00 2.71625E+01 0.00000E+00
 -1      2556 6.49500E+00 2.86375E+01 0.00000E+00
 -1      2557 7.79400E+00 2.93750E+01 0.00000E+00
 -1      2558 7.79400E+00 2.64250E+01 0.00000E+00
 -1      2559 1.10658E+02 1.39350E+01 0.00000E+00
 -1      2560 1.11799E+02 1.39199E+01 0.00000E+00
 -1      2561 1.01244E+02 2.66740E+01 0.00000E+00
 -1      2562 1.01175E+02 2.56773E+01 0.00000E+00
 -1      2563 1.12979E+02 1.41230E+01 0.00000E+00
 -1      2564 1.13915E+02 1.42727E+01 0.00000E+00
 -1      2565 1.08426E+02 1.45039E+01 0.00000E+00
 -1      2566 1.09397E+02 1.42334E+01 0.00000E+00
 -1      2567 1.06377E+02 1.54717E+01 0.00000E+00
 -1      2568 1.07278E+02 1.49465E+01 0.00000E+00
 -1      2569 1.04670E+02 1.66103E+01 0.00000E+00
 -1      2570 1.05467E+02 1.60520E+01 0.00000E+00
 -1      2571 1.03330E+02 1.84633E+01 0.00000E+00
 -1      2572 1.03872E+02 1.76004E+01 0.00000E+00
 -1      2573 1.02438E+02 1.84719E+01 0.00000E+00
 -1      2574 1.01218E+02 2.20308E+01 0.00000E+00
 -1      2575 1.01431E+02 2.11787E+01 0.00000E+00
 -1      2576 1.07088E+02 3.36733E+01 0.00000E+00
 -1      2577 1.06216E+02 3.32375E+01 0.00000E+00
 -1      2578 1.01066E+02 2.44480E+01 0.00000E+00
 -1      2579 1.01142E+02 2.32394E+01 0.00000E+00
 -1      2580 1.00254E+02 2.25648E+01 0.00000E+00
 -1      2581 1.03230E+02 3.10577E+01 0.00000E+00
 -1      2582 1.02675E+02 3.03227E+01 0.00000E+00
 -1      2583 1.17883E+02 3.27436E+01 0.00000E+00
 -1      2584 1.17041E+02 3.34364E+01 0.00000E+00
 -1      2585 1.05162E+02 3.26307E+01 0.00000E+00
 -1      2586 1.04188E+02 3.19149E+01 0.00000E+00
 -1      2587 1.09008E+02 3.44791E+01 0.00000E+00
 -1      2588 1.08073E+02 3.41983E+01 0.00000E+00
 -1      2589 1.13588E+02 3.48507E+01 0.00000E+00
 -1      2590 1.12700E+02 3.50423E+01 0.00000E+00
 -1      2591 1.15777E+02 3.40719E+01 0.00000E+00
 -1      2592 1.14682E+02 3.44613E+01 0.00000E+00
 -1      2593 1.14437E+02 3.54772E+01 0.00000E+00
 -1      2594 1.19429E+02 3.14800E+01 0.00000E+00
 -1      2595 1.18656E+02 3.21118E+01 0.00000E+00
 -1      2596 1.18833E+02 3.31850E+01 0.00000E+00
 -1      2597 1.20813E+02 2.94221E+01 0.00000E+00
 -1      2598 1.20267E+02 3.03651E+01 0.00000E+00
 -1      2599 1.15130E+02 1.46354E+01 0.00000E+00
 -1      2600 1.16102E+02 1.51294E+01 0.00000E+00
 -1      2601 8.07525E+00 5.11044E+00 0.00000E+00
 -1      2602 6.57525E+00 5.11044E+00 0.00000E+00
 -1      2603 6.40575E+00 6.01981E+00 0.00000E+00
 -1      2604 8.82525E+00 6.40944E+00 0.00000E+00
 -1      2605 1.18705E+02 1.70237E+01 0.00000E+00
 -1      2606 1.19434E+02 1.77699E+01 0.00000E+00
 -1      2607 1.12396E+02 1.31893E+01 0.00000E+00
 -1      2608 7.79400E+00 3.52687E+01 0.00000E+00
 -1      2609 6.49500E+00 3.60062E+01 0.00000E+00
 -1      2610 6.49500E+00 3.74750E+01 0.00000E+00
 -1      2611 1.45350E+01 6.60425E+00 0.00000E+00
 -1      2612 6.40575E+00 7.49481E+00 0.00000E+00
 -1      2613 1.18804E+02 1.60489E+01 0.00000E+00
 -1      2614 1.22487E+02 2.66940E+01 0.00000E+00
 -1      2615 1.14790E+02 1.37551E+01 0.00000E+00
 -1      2616 1.16796E+02 3.44523E+01 0.00000E+00
 -1      2617 1.43586E+02 6.56853E+00 0.00000E+00
 -1      2618 1.20502E+02 1.76464E+01 0.00000E+00
 -1      2619 1.43419E+02 7.72713E+00 0.00000E+00
 -1      2620 1.23292E+02 2.13507E+01 0.00000E+00
 -1      2621 1.22710E+02 2.21737E+01 0.00000E+00
 -1      2622 1.23588E+02 2.28167E+01 0.00000E+00
 -1      2623 1.21882E+02 1.95869E+01 0.00000E+00
 -1      2624 1.09455E+02 3.53456E+01 0.00000E+00
 -1      2625 1.05271E+02 3.35032E+01 0.00000E+00
 -1      2626 7.70475E+00 8.23231E+00 0.00000E+00
 -1      2627 6.55950E+00 3.99453E+01 0.00000E+00
 -1      2628 1.20444E+02 3.14383E+01 0.00000E+00
 -1      2629 1.11980E+02 3.56989E+01 0.00000E+00
 -1      2630 1.00287E+02 2.50026E+01 0.00000E+00
 -1      2631 1.07310E+02 3.46351E+01 0.00000E+00
 -1      2632 1.03778E+02 1.66189E+01 0.00000E+00
 -1      2633 1.00689E+02 2.75841E+01 0.00000E+00
 -1      2634 1.05486E+02 1.50484E+01 0.00000E+00
 -1      2635 1.07544E+02 1.40255E+01 0.00000E+00
 -1      2636 1.01113E+02 2.03455E+01 0.00000E+00
 -1      2637 1.01642E+02 3.00592E+01 0.00000E+00
 -1      2638 1.21726E+02 2.90815E+01 0.00000E+00
 -1      2639 1.16980E+02 1.46945E+01 0.00000E+00
 -1      2640 1.09954E+02 1.32846E+01 0.00000E+00
 -1      2641 1.03259E+02 3.20392E+01 0.00000E+00
 -1      2642 1.42758E+02 4.35929E+01 0.00000E+00
 -1      2643 1.43241E+02 4.17323E+01 0.00000E+00
 -1      2644 1.41942E+02 4.09948E+01 0.00000E+00
 -1      2645 1.41414E+02 4.35342E+01 0.00000E+00
 -1      2646 1.42120E+02 8.46463E+00 0.00000E+00
 -1      2647 1.40664E+02 4.22352E+01 0.00000E+00
 -1      2648 9.09300E+00 1.98250E+01 0.00000E+00
 -1      2649 9.09300E+00 2.12750E+01 0.00000E+00
 -1      2650 9.09300E+00 2.27500E+01 0.00000E+00
 -1      2651 9.09300E+00 2.42250E+01 0.00000E+00
 -1      2652 1.03920E+01 2.20250E+01 0.00000E+00
 -1      2653 9.09300E+00 1.39375E+01 0.00000E+00
 -1      2654 9.09300E+00 1.54125E+01 0.00000E+00
 -1      2655 9.09300E+00 1.09875E+01 0.00000E+00
 -1      2656 9.09300E+00 1.24625E+01 0.00000E+00
 -1      2657 1.03920E+01 1.32000E+01 0.00000E+00
 -1      2658 1.22850E+01 7.90325E+00 0.00000E+00
 -1      2659 1.07850E+01 7.90325E+00 0.00000E+00
 -1      2660 7.85850E+00 3.92077E+01 0.00000E+00
 -1      2661 1.23471E+02 2.63492E+01 0.00000E+00
 -1      2662 1.23155E+02 2.74950E+01 0.00000E+00
 -1      2663 8.91450E+00 8.42712E+00 0.00000E+00
 -1      2664 1.14452E+02 1.26718E+01 0.00000E+00
 -1      2665 1.15667E+02 1.30346E+01 0.00000E+00
 -1      2666 1.44000E+01 4.09070E+01 0.00000E+00
 -1      2667 1.59000E+01 4.09070E+01 0.00000E+00
 -1      2668 1.74000E+01 4.09070E+01 0.00000E+00
 -1      2669 1.89000E+01 4.09070E+01 0.00000E+00
 -1      2670 1.66500E+01 3.96080E+01 0.00000E+00
 -1      2671 2.04000E+01 4.09070E+01 0.00000E+00
 -1      2672 2.19000E+01 4.09070E+01 0.00000E+00
 -1      2673 1.96500E+01 3.96080E+01 0.00000E+00
 -1      2674 2.34000E+01 4.09070E+01 0.00000E+00
 -1      2675 2.49000E+01 4.09070E+01 0.00000E+00
 -1      2676 2.26500E+01 3.96080E+01 0.00000E+00
 -1      2677 2.64000E+01 4.09070E+01 0.00000E+00
 -1      2678 2.79000E+01 4.09070E+01 0.00000E+00
 -1      2679 2.56500E+01 3.96080E+01 0.00000E+00
 -1      2680 2.94000E+01 4.09070E+01 0.00000E+00
 -1      2681 3.09000E+01 4.09070E+01 0.00000E+00
 -1      2682 2.86500E+01 3.96080E+01 0.00000E+00
 -1      2683 3.24000E+01 4.09070E+01 0.00000E+00
 -1      2684 3.39000E+01 4.09070E+01 0.00000E+00
 -1      2685 3.16500E+01 3.96080E+01 0.00000E+00
 -1      2686 3.54000E+01 4.09070E+01 0.00000E+00
 -1      2687 3.69000E+01 4.09070E+01 0.00000E+00
 -1      2688 3.46500E+01 3.96080E+01 0.00000E+00
 -1      2689 3.84000E+01 4.09070E+01 0.00000E+00
 -1      2690 3.99000E+01 4.09070E+01 0.00000E+00
 -1      2691 3.76500E+01 3.96080E+01 0.00000E+00
 -1      2692 4.14000E+01 4.09070E+01 0.00000E+00
 -1      2693 4.29000E+01 4.09070E+01 0.00000E+00
 -1      2694 4.06500E+01 3.96080E+01 0.00000E+00
 -1      2695 4.44000E+01 4.09070E+01 0.00000E+00
 -1      2696 4.59000E+01 4.09070E+01 0.00000E+00
 -1      2697 4.36500E+01 3.96080E+01 0.00000E+00
 -1      2698 4.74000E+01 4.09070E+01 0.00000E+00
 -1      2699 4.89000E+01 4.09070E+01 0.00000E+00
 -1      2700 4.66500E+01 3.96080E+01 0.00000E+00
 -1      2701 5.04000E+01 4.09070E+01 0.00000E+00
 -1      2702 5.19000E+01 4.09070E+01 0.00000E+00
 -1      2703 4.96500E+01 3.96080E+01 0.00000E+00
 -1      2704 5.34000E+01 4.09070E+01 0.00000E+00
 -1      2705 5.49000E+01 4.09070E+01 0.00000E+00
 -1      2706 5.26500E+01 3.96080E+01 0.00000E+00
 -1      2707 5.64000E+01 4.09070E+01 0.00000E+00
 -1      2708 5.79000E+01 4.09070E+01 0.00000E+00
 -1      2709 5.56500E+01 3.96080E+01 0.00000E+00
 -1      2710 5.94000E+01 4.09070E+01 0.00000E+00
 -1      2711 6.09000E+01 4.09070E+01 0.00000E+00
 -1      2712 5.86500E+01 3.96080E+01 0.00000E+00
 -1      2713 6.24000E+01 4.09070E+01 0.00000E+00
 -1      2714 6.39000E+01 4.09070E+01 0.00000E+00
 -1      2715 6.16500E+01 3.96080E+01 0.00000E+00
 -1      2716 6.54000E+01 4.09070E+01 0.00000E+00
 -1      2717 6.69000E+01 4.09070E+01 0.00000E+00
 -1      2718 6.46500E+01 3.96080E+01 0.00000E+00
 -1      2719 6.84000E+01 4.09070E+01 0.00000E+00
 -1      2720 6.99000E+01 4.09070E+01 0.00000E+00
 -1      2721 6.76500E+01 3.96080E+01 0.00000E+00
 -1      2722 7.14000E+01 4.09070E+01 0.00000E+00
 -1      2723 7.29000E+01 4.09070E+01 0.00000E+00
 -1      2724 7.06500E+01 3.96080E+01 0.00000E+00
 -1      2725 7.44000E+01 4.09070E+01 0.00000E+00
 -1      2726 7.59000E+01 4.09070E+01 0.00000E+00
 -1      2727 7.36500E+01 3.96080E+01 0.00000E+00
 -1      2728 7.74000E+01 4.09070E+01 0.00000E+00
 -1      2729 7.89000E+01 4.09070E+01 0.00000E+00
 -1      2730 7.66500E+01 3.96080E+01 0.00000E+00
 -1      2731 8.04000E+01 4.09070E+01 0.00000E+00
 -1      2732 8.19000E+01 4.09070E+01 0.00000E+00
 -1      2733 7.96500E+01 3.96080E+01 0.00000E+00
 -1      2734 8.34000E+01 4.09070E+01 0.00000E+00
 -1      2735 8.49000E+01 4.09070E+01 0.00000E+00
 -1      2736 8.26500E+01 3.96080E+01 0.00000E+00
 -1      2737 8.64000E+01 4.09070E+01 0.00000E+00
 -1      2738 8.79000E+01 4.09070E+01 0.00000E+00
 -1      2739 8.56500E+01 3.96080E+01 0.00000E+00
 -1      2740 8.94000E+01 4.09070E+01 0.00000E+00
 -1      2741 9.09000E+01 4.09070E+01 0.00000E+00
 -1      2742 8.86500E+01 3.96080E+01 0.00000E+00
 -1      2743 9.24000E+01 4.09070E+01 0.00000E+00
 -1      2744 9.39000E+01 4.09070E+01 0.00000E+00
 -1      2745 9.16500E+01 3.96080E+01 0.00000E+00
 -1      2746 9.54000E+01 4.09070E+01 0.00000E+00
 -1      2747 9.69000E+01 4.09070E+01 0.00000E+00
 -1      2748 9.46500E+01 3.96080E+01 0.00000E+00
 -1      2749 9.84000E+01 4.09070E+01 0.00000E+00
 -1      2750 9.99000E+01 4.09070E+01 0.00000E+00
 -1      2751 9.76500E+01 3.96080E+01 0.00000E+00
 -1      2752 1.01400E+02 4.09070E+01 0.00000E+00
 -1      2753 1.02900E+02 4.09070E+01 0.00000E+00
 -1      2754 1.00650E+02 3.96080E+01 0.00000E+00
 -1      2755 1.04400E+02 4.09070E+01 0.00000E+00
 -1      2756 1.05900E+02 4.09070E+01 0.00000E+00
 -1      2757 1.03650E+02 3.96080E+01 0.00000E+00
 -1      2758 1.07400E+02 4.09070E+01 0.00000E+00
 -1      2759 1.08900E+02 4.09070E+01 0.00000E+00
 -1      2760 1.06650E+02 3.96080E+01 0.00000E+00
 -1      2761 1.10400E+02 4.09070E+01 0.00000E+00
 -1      2762 1.11900E+02 4.09070E+01 0.00000E+00
 -1      2763 1.09650E+02 3.96080E+01 0.00000E+00
 -1      2764 1.13400E+02 4.09070E+01 0.00000E+00
 -1      2765 1.14900E+02 4.09070E+01 0.00000E+00
 -1      2766 1.12650E+02 3.96080E+01 0.00000E+00
 -1      2767 1.16400E+02 4.09070E+01 0.00000E+00
 -1      2768 1.17900E+02 4.09070E+01 0.00000E+00
 -1      2769 1.15650E+02 3.96080E+01 0.00000E+00
 -1      2770 1.19400E+02 4.09070E+01 0.00000E+00
 -1      2771 1.20900E+02 4.09070E+01 0.00000E+00
 -1      2772 1.18650E+02 3.96080E+01 0.00000E+00
 -1      2773 1.22400E+02 4.09070E+01 0.00000E+00
 -1      2774 1.23900E+02 4.09070E+01 0.00000E+00
 -1      2775 1.21650E+02 3.96080E+01 0.00000E+00
 -1      2776 1.25400E+02 4.09070E+01 0.00000E+00
 -1      2777 1.26900E+02 4.09070E+01 0.00000E+00
 -1      2778 1.24650E+02 3.96080E+01 0.00000E+00
 -1      2779 1.28400E+02 4.09070E+01 0.00000E+00
 -1      2780 1.29900E+02 4.09070E+01 0.00000E+00
 -1      2781 1.27650E+02 3.96080E+01 0.00000E+00
 -1      2782 1.31400E+02 4.09070E+01 0.00000E+00
 -1      2783 1.32900E+02 4.09070E+01 0.00000E+00
 -1      2784 1.30650E+02 3.96080E+01 0.00000E+00
 -1      2785 1.34400E+02 4.09070E+01 0.00000E+00
 -1      2786 1.35900E+02 4.09070E+01 0.00000E+00
 -1      2787 1.33650E+02 3.96080E+01 0.00000E+00
 -1      2788 1.37400E+02 4.09070E+01 0.00000E+00
 -1      2789 1.38900E+02 4.09070E+01 0.00000E+00
 -1      2790 1.36650E+02 3.96080E+01 0.00000E+00
 -1      2791 2.42850E+01 7.90325E+00 0.00000E+00
 -1      2792 2.27850E+01 7.90325E+00 0.00000E+00
 -1      2793 1.40706E+02 1.03250E+01 0.00000E+00
 -1      2794 1.40620E+02 8.46463E+00 0.00000E+00
 -1      2795 1.39120E+02 8.46463E+00 0.00000E+00
 -1      2796 2.12850E+01 7.90325E+00 0.00000E+00
 -1      2797 1.97850E+01 7.90325E+00 0.00000E+00
 -1      2798 2.20350E+01 9.20225E+00 0.00000E+00
 -1      2799 3.02850E+01 7.90325E+00 0.00000E+00
 -1      2800 2.87850E+01 7.90325E+00 0.00000E+00
 -1      2801 3.32850E+01 7.90325E+00 0.00000E+00
 -1      2802 3.17850E+01 7.90325E+00 0.00000E+00
 -1      2803 3.10350E+01 9.20225E+00 0.00000E+00
 -1      2804 3.62850E+01 7.90325E+00 0.00000E+00
 -1      2805 3.47850E+01 7.90325E+00 0.00000E+00
 -1      2806 3.40350E+01 9.20225E+00 0.00000E+00
 -1      2807 3.92850E+01 7.90325E+00 0.00000E+00
 -1      2808 3.77850E+01 7.90325E+00 0.00000E+00
 -1      2809 3.70350E+01 9.20225E+00 0.00000E+00
 -1      2810 4.22850E+01 7.90325E+00 0.00000E+00
 -1      2811 4.07850E+01 7.90325E+00 0.00000E+00
 -1      2812 4.00350E+01 9.20225E+00 0.00000E+00
 -1      2813 4.52850E+01 7.90325E+00 0.00000E+00
 -1      2814 4.37850E+01 7.90325E+00 0.00000E+00
 -1      2815 4.30350E+01 9.20225E+00 0.00000E+00
 -1      2816 4.82850E+01 7.90325E+00 0.00000E+00
 -1      2817 4.67850E+01 7.90325E+00 0.00000E+00
 -1      2818 4.60350E+01 9.20225E+00 0.00000E+00
 -1      2819 5.12850E+01 7.90325E+00 0.00000E+00
 -1      2820 4.97850E+01 7.90325E+00 0.00000E+00
 -1      2821 4.90350E+01 9.20225E+00 0.00000E+00
 -1      2822 5.42850E+01 7.90325E+00 0.00000E+00
 -1      2823 5.27850E+01 7.90325E+00 0.00000E+00
 -1      2824 5.20350E+01 9.20225E+00 0.00000E+00
 -1      2825 5.72850E+01 7.90325E+00 0.00000E+00
 -1      2826 5.57850E+01 7.90325E+00 0.00000E+00
 -1      2827 5.50350E+01 9.20225E+00 0.00000E+00
 -1      2828 6.02850E+01 7.90325E+00 0.00000E+00
 -1      2829 5.87850E+01 7.90325E+00 0.00000E+00
 -1      2830 5.80350E+01 9.20225E+00 0.00000E+00
 -1      2831 6.32850E+01 7.90325E+00 0.00000E+00
 -1      2832 6.17850E+01 7.90325E+00 0.00000E+00
 -1      2833 6.10350E+01 9.20225E+00 0.00000E+00
 -1      2834 6.62850E+01 7.90325E+00 0.00000E+00
 -1      2835 6.47850E+01 7.90325E+00 0.00000E+00
 -1      2836 6.40350E+01 9.20225E+00 0.00000E+00
 -1      2837 6.92850E+01 7.90325E+00 0.00000E+00
 -1      2838 6.77850E+01 7.90325E+00 0.00000E+00
 -1      2839 6.70350E+01 9.20225E+00 0.00000E+00
 -1      2840 7.22850E+01 7.90325E+00 0.00000E+00
 -1      2841 7.07850E+01 7.90325E+00 0.00000E+00
 -1      2842 7.00350E+01 9.20225E+00 0.00000E+00
 -1      2843 7.52850E+01 7.90325E+00 0.00000E+00
 -1      2844 7.37850E+01 7.90325E+00 0.00000E+00
 -1      2845 7.30350E+01 9.20225E+00 0.00000E+00
 -1      2846 7.82850E+01 7.90325E+00 0.00000E+00
 -1      2847 7.67850E+01 7.90325E+00 0.00000E+00
 -1      2848 7.60350E+01 9.20225E+00 0.00000E+00
 -1      2849 8.12850E+01 7.90325E+00 0.00000E+00
 -1      2850 7.97850E+01 7.90325E+00 0.00000E+00
 -1      2851 7.90350E+01 9.20225E+00 0.00000E+00
 -1      2852 8.42850E+01 7.90325E+00 0.00000E+00
 -1      2853 8.27850E+01 7.90325E+00 0.00000E+00
 -1      2854 8.20350E+01 9.20225E+00 0.00000E+00
 -1      2855 8.72850E+01 7.90325E+00 0.00000E+00
 -1      2856 8.57850E+01 7.90325E+00 0.00000E+00
 -1      2857 8.50350E+01 9.20225E+00 0.00000E+00
 -1      2858 9.02850E+01 7.90325E+00 0.00000E+00
 -1      2859 8.87850E+01 7.90325E+00 0.00000E+00
 -1      2860 8.80350E+01 9.20225E+00 0.00000E+00
 -1      2861 9.32850E+01 7.90325E+00 0.00000E+00
 -1      2862 9.17850E+01 7.90325E+00 0.00000E+00
 -1      2863 9.10350E+01 9.20225E+00 0.00000E+00
 -1      2864 9.62850E+01 7.90325E+00 0.00000E+00
 -1      2865 9.47850E+01 7.90325E+00 0.00000E+00
 -1      2866 9.40350E+01 9.20225E+00 0.00000E+00
 -1      2867 9.92850E+01 7.90325E+00 0.00000E+00
 -1      2868 9.77850E+01 7.90325E+00 0.00000E+00
 -1      2869 9.70350E+01 9.20225E+00 0.00000E+00
 -1      2870 1.02285E+02 7.90325E+00 0.00000E+00
 -1      2871 1.00785E+02 7.90325E+00 0.00000E+00
 -1      2872 1.00035E+02 9.20225E+00 0.00000E+00
 -1      2873 1.05285E+02 7.90325E+00 0.00000E+00
 -1      2874 1.03785E+02 7.90325E+00 0.00000E+00
 -1      2875 1.03035E+02 9.20225E+00 0.00000E+00
 -1      2876 1.08285E+02 7.90325E+00 0.00000E+00
 -1      2877 1.06785E+02 7.90325E+00 0.00000E+00
 -1      2878 1.06035E+02 9.20225E+00 0.00000E+00
 -1      2879 1.11285E+02 7.90325E+00 0.00000E+00
 -1      2880 1.09785E+02 7.90325E+00 0.00000E+00
 -1      2881 1.09035E+02 9.20225E+00 0.00000E+00
 -1      2882 1.14285E+02 7.90325E+00 0.00000E+00
 -1      2883 1.12785E+02 7.90325E+00 0.00000E+00
 -1      2884 1.12035E+02 9.20225E+00 0.00000E+00
 -1      2885 1.17285E+02 7.90325E+00 0.00000E+00
 -1      2886 1.15785E+02 7.90325E+00 0.00000E+00
 -1      2887 1.15035E+02 9.20225E+00 0.00000E+00
 -1      2888 1.20285E+02 7.90325E+00 0.00000E+00
 -1      2889 1.18785E+02 7.90325E+00 0.00000E+00
 -1      2890 1.18035E+02 9.20225E+00 0.00000E+00
 -1      2891 1.23285E+02 7.90325E+00 0.00000E+00
 -1      2892 1.21785E+02 7.90325E+00 0.00000E+00
 -1      2893 1.21035E+02 9.20225E+00 0.00000E+00
 -1      2894 1.26285E+02 7.90325E+00 0.00000E+00
 -1      2895 1.24785E+02 7.90325E+00 0.00000E+00
 -1      2896 1.24035E+02 9.20225E+00 0.00000E+00
 -1      2897 1.29285E+02 7.90325E+00 0.00000E+00
 -1      2898 1.27785E+02 7.90325E+00 0.00000E+00
 -1      2899 1.27035E+02 9.20225E+00 0.00000E+00
 -1      2900 1.32285E+02 7.90325E+00 0.00000E+00
 -1      2901 1.30785E+02 7.90325E+00 0.00000E+00
 -1      2902 1.30035E+02 9.20225E+00 0.00000E+00
 -1      2903 1.35285E+02 7.90325E+00 0.00000E+00
 -1      2904 1.33785E+02 7.90325E+00 0.00000E+00
 -1      2905 1.33035E+02 9.20225E+00 0.00000E+00
 -1      2906 1.37953E+02 8.18394E+00 0.00000E+00
 -1      2907 1.36453E+02 8.18394E+00 0.00000E+00
 -1      2908 1.35703E+02 9.48294E+00 0.00000E+00
 -1      2909 1.38038E+02 1.00443E+01 0.00000E+00
 -1      2910 1.20790E+02 1.64992E+01 0.00000E+00
 -1      2911 1.21639E+02 1.73187E+01 0.00000E+00
 -1      2912 1.40907E+02 2.42875E+01 0.00000E+00
 -1      2913 1.40907E+02 2.28125E+01 0.00000E+00
 -1      2914 1.39914E+02 4.09362E+01 0.00000E+00
 -1      2915 1.40928E+02 4.09655E+01 0.00000E+00
 -1      2916 1.39164E+02 3.96372E+01 0.00000E+00
 -1      2917 1.40907E+02 1.83875E+01 0.00000E+00
 -1      2918 1.40907E+02 1.69125E+01 0.00000E+00
 -1      2919 1.40907E+02 2.72375E+01 0.00000E+00
 -1      2920 1.40907E+02 2.57625E+01 0.00000E+00
 -1      2921 1.39608E+02 2.50250E+01 0.00000E+00
 -1      2922 1.40907E+02 2.13375E+01 0.00000E+00
 -1      2923 1.40907E+02 1.98625E+01 0.00000E+00
 -1      2924 1.39608E+02 1.91250E+01 0.00000E+00
 -1      2925 1.39608E+02 2.20750E+01 0.00000E+00
 -1      2926 1.19762E+02 3.35332E+01 0.00000E+00
 -1      2927 1.18989E+02 3.41650E+01 0.00000E+00
 -1      2928 1.40907E+02 3.01375E+01 0.00000E+00
 -1      2929 1.40907E+02 2.86875E+01 0.00000E+00
 -1      2930 1.39608E+02 2.79500E+01 0.00000E+00
 -1      2931 1.40907E+02 3.30875E+01 0.00000E+00
 -1      2932 1.40907E+02 3.16125E+01 0.00000E+00
 -1      2933 1.39608E+02 3.08750E+01 0.00000E+00
 -1      2934 1.40907E+02 3.60375E+01 0.00000E+00
 -1      2935 1.40907E+02 3.45625E+01 0.00000E+00
 -1      2936 1.39608E+02 3.38250E+01 0.00000E+00
 -1      2937 1.22543E+02 1.85875E+01 0.00000E+00
 -1      2938 1.23074E+02 1.97084E+01 0.00000E+00
 -1      2939 1.23808E+02 2.42078E+01 0.00000E+00
 -1      2940 1.23706E+02 2.51620E+01 0.00000E+00
 -1      2941 1.09888E+02 3.63679E+01 0.00000E+00
 -1      2942 1.08726E+02 3.61824E+01 0.00000E+00
 -1      2943 9.32250E+00 4.05749E+01 0.00000E+00
 -1      2944 1.06860E+01 4.08389E+01 0.00000E+00
 -1      2945 1.21860E+01 4.08389E+01 0.00000E+00
 -1      2946 9.25800E+00 3.81046E+01 0.00000E+00
 -1      2947 1.05287E+02 3.46951E+01 0.00000E+00
 -1      2948 1.04233E+02 3.40882E+01 0.00000E+00
 -1      2949 1.01370E+02 1.84028E+01 0.00000E+00
 -1      2950 1.01912E+02 1.75399E+01 0.00000E+00
 -1      2951 1.01016E+02 3.11827E+01 0.00000E+00
 -1      2952 1.00356E+02 3.00599E+01 0.00000E+00
 -1      2953 1.82850E+01 7.90325E+00 0.00000E+00
 -1      2954 1.67850E+01 7.90325E+00 0.00000E+00
 -1      2955 1.90350E+01 9.20225E+00 0.00000E+00
 -1      2956 2.72850E+01 7.90325E+00 0.00000E+00
 -1      2957 2.57850E+01 7.90325E+00 0.00000E+00
 -1      2958 2.50350E+01 9.20225E+00 0.00000E+00
 -1      2959 2.80350E+01 9.20225E+00 0.00000E+00
 -1      2960 1.52850E+01 7.90325E+00 0.00000E+00
 -1      2961 1.37850E+01 7.90325E+00 0.00000E+00
 -1      2962 1.30350E+01 9.20225E+00 0.00000E+00
 -1      2963 1.60350E+01 9.20225E+00 0.00000E+00
 -1      2964 1.04525E+02 1.45450E+01 0.00000E+00
 -1      2965 1.05434E+02 1.39647E+01 0.00000E+00
 -1      2966 1.21683E+02 3.14966E+01 0.00000E+00
 -1      2967 1.20845E+02 3.26116E+01 0.00000E+00
 -1      2968 9.09300E+00 1.68813E+01 0.00000E+00
 -1      2969 9.09300E+00 1.83563E+01 0.00000E+00
 -1      2970 1.03920E+01 1.90812E+01 0.00000E+00
 -1      2971 1.03920E+01 1.61437E+01 0.00000E+00
 -1      2972 1.07418E+02 3.56173E+01 0.00000E+00
 -1      2973 1.06434E+02 3.50923E+01 0.00000E+00
 -1      2974 1.17888E+02 3.50505E+01 0.00000E+00
 -1      2975 1.16624E+02 3.56860E+01 0.00000E+00
 -1      2976 9.98035E+01 2.04241E+01 0.00000E+00
 -1      2977 1.00587E+02 1.94135E+01 0.00000E+00
 -1      2978 1.00061E+02 1.84814E+01 0.00000E+00
 -1      2979 1.06661E+02 1.34466E+01 0.00000E+00
 -1      2980 1.07810E+02 1.30041E+01 0.00000E+00
 -1      2981 9.99969E+01 2.84418E+01 0.00000E+00
 -1      2982 9.97041E+01 2.70895E+01 0.00000E+00
 -1      2983 1.22835E+02 2.87778E+01 0.00000E+00
 -1      2984 1.22390E+02 3.00196E+01 0.00000E+00
 -1      2985 9.09300E+00 3.15875E+01 0.00000E+00
 -1      2986 9.09300E+00 3.30625E+01 0.00000E+00
 -1      2987 9.92767E+01 2.31102E+01 0.00000E+00
 -1      2988 9.93524E+01 2.19016E+01 0.00000E+00
 -1      2989 1.02999E+02 3.32940E+01 0.00000E+00
 -1      2990 1.02041E+02 3.24368E+01 0.00000E+00
 -1      2991 1.41192E+02 3.96958E+01 0.00000E+00
 -1      2992 1.02710E+02 1.65498E+01 0.00000E+00
 -1      2993 1.03508E+02 1.55597E+01 0.00000E+00
 -1      2994 1.01642E+02 1.64807E+01 0.00000E+00
 -1      2995 9.95289E+01 2.56892E+01 0.00000E+00
 -1      2996 9.94202E+01 2.44599E+01 0.00000E+00
 -1      2997 1.15328E+02 3.62483E+01 0.00000E+00
 -1      2998 1.14234E+02 3.66377E+01 0.00000E+00
 -1      2999 1.12546E+02 3.67171E+01 0.00000E+00
 -1      3000 1.11183E+02 3.65493E+01 0.00000E+00
 -1      3001 1.16971E+02 1.35958E+01 0.00000E+00
 -1      3002 1.17947E+02 1.41724E+01 0.00000E+00
 -1      3003 1.09087E+02 1.24362E+01 0.00000E+00
 -1      3004 1.10349E+02 1.21378E+01 0.00000E+00
 -1      3005 1.19092E+02 1.49434E+01 0.00000E+00
 -1      3006 1.19941E+02 1.57213E+01 0.00000E+00
 -1      3007 1.21077E+02 1.53936E+01 0.00000E+00
 -1      3008 1.11980E+02 1.20775E+01 0.00000E+00
 -1      3009 1.13160E+02 1.22806E+01 0.00000E+00
 -1      3010 9.09300E+00 3.45313E+01 0.00000E+00
 -1      3011 9.09300E+00 3.60000E+01 0.00000E+00
 -1      3012 1.03920E+01 3.37938E+01 0.00000E+00
 -1      3013 1.03920E+01 2.49750E+01 0.00000E+00
 -1      3014 9.09300E+00 2.57000E+01 0.00000E+00
 -1      3015 9.09300E+00 2.71750E+01 0.00000E+00
 -1      3016 1.03457E+02 1.44759E+01 0.00000E+00
 -1      3017 1.03014E+02 3.44859E+01 0.00000E+00
 -1      3018 1.24375E+02 2.59630E+01 0.00000E+00
 -1      3019 9.66450E+00 9.72612E+00 0.00000E+00
 -1      3020 1.05395E+02 3.56773E+01 0.00000E+00
 -1      3021 1.14036E+02 1.15600E+01 0.00000E+00
 -1      3022 1.39608E+02 1.61875E+01 0.00000E+00
 -1      3023 1.40907E+02 1.54500E+01 0.00000E+00
 -1      3024 1.40907E+02 1.39875E+01 0.00000E+00
 -1      3025 1.22831E+02 1.74403E+01 0.00000E+00
 -1      3026 1.19083E+02 1.38447E+01 0.00000E+00
 -1      3027 1.18818E+02 3.53986E+01 0.00000E+00
 -1      3028 1.21001E+02 3.35915E+01 0.00000E+00
 -1      3029 1.40706E+02 1.17875E+01 0.00000E+00
 -1      3030 1.08205E+02 1.18573E+01 0.00000E+00
 -1      3031 1.23952E+02 2.03513E+01 0.00000E+00
 -1      3032 1.24831E+02 2.09943E+01 0.00000E+00
 -1      3033 1.24613E+02 1.93520E+01 0.00000E+00
 -1      3034 1.41192E+02 3.82207E+01 0.00000E+00
 -1      3035 1.16633E+02 1.25125E+01 0.00000E+00
 -1      3036 1.09635E+01 1.04636E+01 0.00000E+00
 -1      3037 1.13437E+02 3.74882E+01 0.00000E+00
 -1      3038 1.16421E+02 3.68465E+01 0.00000E+00
 -1      3039 9.85186E+01 2.37967E+01 0.00000E+00
 -1      3040 1.23819E+02 2.84330E+01 0.00000E+00
 -1      3041 1.07850E+02 3.66396E+01 0.00000E+00
 -1      3042 1.29360E+01 3.95399E+01 0.00000E+00
 -1      3043 9.93711E+01 2.95652E+01 0.00000E+00
 -1      3044 9.88261E+01 2.09695E+01 0.00000E+00
 -1      3045 1.00755E+02 3.24375E+01 0.00000E+00
 -1      3046 1.10454E+02 3.73861E+01 0.00000E+00
 -1      3047 1.24390E+02 2.33847E+01 0.00000E+00
 -1      3048 1.05700E+02 1.29432E+01 0.00000E+00
 -1      3049 9.09300E+00 2.86437E+01 0.00000E+00
 -1      3050 9.09300E+00 3.01187E+01 0.00000E+00
 -1      3051 1.03920E+01 3.08563E+01 0.00000E+00
 -1      3052 1.03920E+01 2.79188E+01 0.00000E+00
 -1      3053 1.22791E+02 3.11929E+01 0.00000E+00
 -1      3054 9.88372E+01 2.65468E+01 0.00000E+00
 -1      3055 1.11113E+02 1.12291E+01 0.00000E+00
 -1      3056 1.39529E+02 3.85602E+01 0.00000E+00
 -1      3057 1.40542E+02 3.71145E+01 0.00000E+00
 -1      3058 1.39243E+02 3.63770E+01 0.00000E+00
 -1      3059 1.38514E+02 3.85310E+01 0.00000E+00
 -1      3060 1.05606E+02 3.69238E+01 0.00000E+00
 -1      3061 1.04459E+02 3.65265E+01 0.00000E+00
 -1      3062 1.16910E+01 1.24625E+01 0.00000E+00
 -1      3063 1.16910E+01 1.39375E+01 0.00000E+00
 -1      3064 1.89000E+01 3.83090E+01 0.00000E+00
 -1      3065 2.04000E+01 3.83090E+01 0.00000E+00
 -1      3066 2.19000E+01 3.83090E+01 0.00000E+00
 -1      3067 2.34000E+01 3.83090E+01 0.00000E+00
 -1      3068 2.11500E+01 3.70100E+01 0.00000E+00
 -1      3069 2.49000E+01 3.83090E+01 0.00000E+00
 -1      3070 2.64000E+01 3.83090E+01 0.00000E+00
 -1      3071 2.41500E+01 3.70100E+01 0.00000E+00
 -1      3072 2.79000E+01 3.83090E+01 0.00000E+00
 -1      3073 2.94000E+01 3.83090E+01 0.00000E+00
 -1      3074 2.71500E+01 3.70100E+01 0.00000E+00
 -1      3075 3.09000E+01 3.83090E+01 0.00000E+00
 -1      3076 3.24000E+01 3.83090E+01 0.00000E+00
 -1      3077 3.01500E+01 3.70100E+01 0.00000E+00
 -1      3078 3.39000E+01 3.83090E+01 0.00000E+00
 -1      3079 3.54000E+01 3.83090E+01 0.00000E+00
 -1      3080 3.31500E+01 3.70100E+01 0.00000E+00
 -1      3081 3.69000E+01 3.83090E+01 0.00000E+00
 -1      3082 3.84000E+01 3.83090E+01 0.00000E+00
 -1      3083 3.61500E+01 3.70100E+01 0.00000E+00
 -1      3084 3.99000E+01 3.83090E+01 0.00000E+00
 -1      3085 4.14000E+01 3.83090E+01 0.00000E+00
 -1      3086 3.91500E+01 3.70100E+01 0.00000E+00
 -1      3087 4.29000E+01 3.83090E+01 0.00000E+00
 -1      3088 4.44000E+01 3.83090E+01 0.00000E+00
 -1      3089 4.21500E+01 3.70100E+01 0.00000E+00
 -1      3090 4.59000E+01 3.83090E+01 0.00000E+00
 -1      3091 4.74000E+01 3.83090E+01 0.00000E+00
 -1      3092 4.51500E+01 3.70100E+01 0.00000E+00
 -1      3093 4.89000E+01 3.83090E+01 0.00000E+00
 -1      3094 5.04000E+01 3.83090E+01 0.00000E+00
 -1      3095 4.81500E+01 3.70100E+01 0.00000E+00
 -1      3096 5.19000E+01 3.83090E+01 0.00000E+00
 -1      3097 5.34000E+01 3.83090E+01 0.00000E+00
 -1      3098 5.11500E+01 3.70100E+01 0.00000E+00
 -1      3099 5.49000E+01 3.83090E+01 0.00000E+00
 -1      3100 5.64000E+01 3.83090E+01 0.00000E+00
 -1      3101 5.41500E+01 3.70100E+01 0.00000E+00
 -1      3102 5.79000E+01 3.83090E+01 0.00000E+00
 -1      3103 5.94000E+01 3.83090E+01 0.00000E+00
 -1      3104 5.71500E+01 3.70100E+01 0.00000E+00
 -1      3105 6.09000E+01 3.83090E+01 0.00000E+00
 -1      3106 6.24000E+01 3.83090E+01 0.00000E+00
 -1      3107 6.01500E+01 3.70100E+01 0.00000E+00
 -1      3108 6.39000E+01 3.83090E+01 0.00000E+00
 -1      3109 6.54000E+01 3.83090E+01 0.00000E+00
 -1      3110 6.31500E+01 3.70100E+01 0.00000E+00
 -1      3111 6.69000E+01 3.83090E+01 0.00000E+00
 -1      3112 6.84000E+01 3.83090E+01 0.00000E+00
 -1      3113 6.61500E+01 3.70100E+01 0.00000E+00
 -1      3114 6.99000E+01 3.83090E+01 0.00000E+00
 -1      3115 7.14000E+01 3.83090E+01 0.00000E+00
 -1      3116 6.91500E+01 3.70100E+01 0.00000E+00
 -1      3117 7.29000E+01 3.83090E+01 0.00000E+00
 -1      3118 7.44000E+01 3.83090E+01 0.00000E+00
 -1      3119 7.21500E+01 3.70100E+01 0.00000E+00
 -1      3120 7.59000E+01 3.83090E+01 0.00000E+00
 -1      3121 7.74000E+01 3.83090E+01 0.00000E+00
 -1      3122 7.51500E+01 3.70100E+01 0.00000E+00
 -1      3123 7.89000E+01 3.83090E+01 0.00000E+00
 -1      3124 8.04000E+01 3.83090E+01 0.00000E+00
 -1      3125 7.81500E+01 3.70100E+01 0.00000E+00
 -1      3126 8.19000E+01 3.83090E+01 0.00000E+00
 -1      3127 8.34000E+01 3.83090E+01 0.00000E+00
 -1      3128 8.11500E+01 3.70100E+01 0.00000E+00
 -1      3129 8.49000E+01 3.83090E+01 0.00000E+00
 -1      3130 8.64000E+01 3.83090E+01 0.00000E+00
 -1      3131 8.41500E+01 3.70100E+01 0.00000E+00
 -1      3132 8.79000E+01 3.83090E+01 0.00000E+00
 -1      3133 8.94000E+01 3.83090E+01 0.00000E+00
 -1      3134 8.71500E+01 3.70100E+01 0.00000E+00
 -1      3135 9.09000E+01 3.83090E+01 0.00000E+00
 -1      3136 9.24000E+01 3.83090E+01 0.00000E+00
 -1      3137 9.01500E+01 3.70100E+01 0.00000E+00
 -1      3138 9.39000E+01 3.83090E+01 0.00000E+00
 -1      3139 9.54000E+01 3.83090E+01 0.00000E+00
 -1      3140 9.31500E+01 3.70100E+01 0.00000E+00
 -1      3141 9.69000E+01 3.83090E+01 0.00000E+00
 -1      3142 9.84000E+01 3.83090E+01 0.00000E+00
 -1      3143 9.61500E+01 3.70100E+01 0.00000E+00
 -1      3144 9.99000E+01 3.83090E+01 0.00000E+00
 -1      3145 1.01400E+02 3.83090E+01 0.00000E+00
 -1      3146 9.91500E+01 3.70100E+01 0.00000E+00
 -1      3147 1.03410E+02 3.86905E+01 0.00000E+00
 -1      3148 1.04910E+02 3.86905E+01 0.00000E+00
 -1      3149 1.08654E+02 3.84064E+01 0.00000E+00
 -1      3150 1.10154E+02 3.84064E+01 0.00000E+00
 -1      3151 1.11450E+02 3.85877E+01 0.00000E+00
 -1      3152 1.12950E+02 3.85877E+01 0.00000E+00
 -1      3153 1.14637E+02 3.85084E+01 0.00000E+00
 -1      3154 1.16137E+02 3.85084E+01 0.00000E+00
 -1      3155 1.17900E+02 3.84991E+01 0.00000E+00
 -1      3156 1.19400E+02 3.84991E+01 0.00000E+00
 -1      3157 1.20900E+02 3.84991E+01 0.00000E+00
 -1      3158 1.22400E+02 3.84991E+01 0.00000E+00
 -1      3159 1.20150E+02 3.73902E+01 0.00000E+00
 -1      3160 1.23900E+02 3.84991E+01 0.00000E+00
 -1      3161 1.25400E+02 3.84991E+01 0.00000E+00
 -1      3162 1.23150E+02 3.73902E+01 0.00000E+00
 -1      3163 1.26900E+02 3.84991E+01 0.00000E+00
 -1      3164 1.28400E+02 3.84991E+01 0.00000E+00
 -1      3165 1.26150E+02 3.73902E+01 0.00000E+00
 -1      3166 1.29900E+02 3.84991E+01 0.00000E+00
 -1      3167 1.31400E+02 3.84991E+01 0.00000E+00
 -1      3168 1.29150E+02 3.73902E+01 0.00000E+00
 -1      3169 1.32900E+02 3.84991E+01 0.00000E+00
 -1      3170 1.34400E+02 3.84991E+01 0.00000E+00
 -1      3171 1.32150E+02 3.73902E+01 0.00000E+00
 -1      3172 1.35707E+02 3.85150E+01 0.00000E+00
 -1      3173 1.37207E+02 3.85150E+01 0.00000E+00
 -1      3174 1.37572E+02 3.74380E+01 0.00000E+00
 -1      3175 1.34957E+02 3.74061E+01 0.00000E+00
 -1      3176 2.27850E+01 1.05013E+01 0.00000E+00
 -1      3177 2.12850E+01 1.05013E+01 0.00000E+00
 -1      3178 3.47850E+01 1.05013E+01 0.00000E+00
 -1      3179 3.32850E+01 1.05013E+01 0.00000E+00
 -1      3180 3.17850E+01 1.05013E+01 0.00000E+00
 -1      3181 3.02850E+01 1.05013E+01 0.00000E+00
 -1      3182 3.25350E+01 1.18003E+01 0.00000E+00
 -1      3183 4.07850E+01 1.05013E+01 0.00000E+00
 -1      3184 3.92850E+01 1.05013E+01 0.00000E+00
 -1      3185 4.37850E+01 1.05013E+01 0.00000E+00
 -1      3186 4.22850E+01 1.05013E+01 0.00000E+00
 -1      3187 4.15350E+01 1.18003E+01 0.00000E+00
 -1      3188 4.67850E+01 1.05013E+01 0.00000E+00
 -1      3189 4.52850E+01 1.05013E+01 0.00000E+00
 -1      3190 4.45350E+01 1.18003E+01 0.00000E+00
 -1      3191 4.97850E+01 1.05013E+01 0.00000E+00
 -1      3192 4.82850E+01 1.05013E+01 0.00000E+00
 -1      3193 4.75350E+01 1.18003E+01 0.00000E+00
 -1      3194 5.27850E+01 1.05013E+01 0.00000E+00
 -1      3195 5.12850E+01 1.05013E+01 0.00000E+00
 -1      3196 5.05350E+01 1.18003E+01 0.00000E+00
 -1      3197 5.57850E+01 1.05013E+01 0.00000E+00
 -1      3198 5.42850E+01 1.05013E+01 0.00000E+00
 -1      3199 5.35350E+01 1.18003E+01 0.00000E+00
 -1      3200 5.87850E+01 1.05013E+01 0.00000E+00
 -1      3201 5.72850E+01 1.05013E+01 0.00000E+00
 -1      3202 5.65350E+01 1.18003E+01 0.00000E+00
 -1      3203 6.17850E+01 1.05013E+01 0.00000E+00
 -1      3204 6.02850E+01 1.05013E+01 0.00000E+00
 -1      3205 5.95350E+01 1.18003E+01 0.00000E+00
 -1      3206 6.47850E+01 1.05013E+01 0.00000E+00
 -1      3207 6.32850E+01 1.05013E+01 0.00000E+00
 -1      3208 6.25350E+01 1.18003E+01 0.00000E+00
 -1      3209 6.77850E+01 1.05013E+01 0.00000E+00
 -1      3210 6.62850E+01 1.05013E+01 0.00000E+00
 -1      3211 6.55350E+01 1.18003E+01 0.00000E+00
 -1      3212 7.07850E+01 1.05013E+01 0.00000E+00
 -1      3213 6.92850E+01 1.05013E+01 0.00000E+00
 -1      3214 6.85350E+01 1.18003E+01 0.00000E+00
 -1      3215 7.37850E+01 1.05013E+01 0.00000E+00
 -1      3216 7.22850E+01 1.05013E+01 0.00000E+00
 -1      3217 7.15350E+01 1.18003E+01 0.00000E+00
 -1      3218 7.67850E+01 1.05013E+01 0.00000E+00
 -1      3219 7.52850E+01 1.05013E+01 0.00000E+00
 -1      3220 7.45350E+01 1.18003E+01 0.00000E+00
 -1      3221 7.97850E+01 1.05013E+01 0.00000E+00
 -1      3222 7.82850E+01 1.05013E+01 0.00000E+00
 -1      3223 7.75350E+01 1.18003E+01 0.00000E+00
 -1      3224 8.27850E+01 1.05013E+01 0.00000E+00
 -1      3225 8.12850E+01 1.05013E+01 0.00000E+00
 -1      3226 8.05350E+01 1.18003E+01 0.00000E+00
 -1      3227 8.57850E+01 1.05013E+01 0.00000E+00
 -1      3228 8.42850E+01 1.05013E+01 0.00000E+00
 -1      3229 8.35350E+01 1.18003E+01 0.00000E+00
 -1      3230 8.87850E+01 1.05013E+01 0.00000E+00
 -1      3231 8.72850E+01 1.05013E+01 0.00000E+00
 -1      3232 8.65350E+01 1.18003E+01 0.00000E+00
 -1      3233 9.17850E+01 1.05013E+01 0.00000E+00
 -1      3234 9.02850E+01 1.05013E+01 0.00000E+00
 -1      3235 8.95350E+01 1.18003E+01 0.00000E+00
 -1      3236 9.47850E+01 1.05013E+01 0.00000E+00
 -1      3237 9.32850E+01 1.05013E+01 0.00000E+00
 -1      3238 9.25350E+01 1.18003E+01 0.00000E+00
 -1      3239 9.77850E+01 1.05013E+01 0.00000E+00
 -1      3240 9.62850E+01 1.05013E+01 0.00000E+00
 -1      3241 9.55350E+01 1.18003E+01 0.00000E+00
 -1      3242 1.00785E+02 1.05013E+01 0.00000E+00
 -1      3243 9.92850E+01 1.05013E+01 0.00000E+00
 -1      3244 9.85350E+01 1.18003E+01 0.00000E+00
 -1      3245 1.04504E+02 1.13318E+01 0.00000E+00
 -1      3246 1.03004E+02 1.13318E+01 0.00000E+00
 -1      3247 1.06004E+02 1.13318E+01 0.00000E+00
 -1      3248 1.10009E+02 1.02458E+01 0.00000E+00
 -1      3249 1.08509E+02 1.02458E+01 0.00000E+00
 -1      3250 1.13139E+02 1.01855E+01 0.00000E+00
 -1      3251 1.11639E+02 1.01855E+01 0.00000E+00
 -1      3252 1.21785E+02 1.05013E+01 0.00000E+00
 -1      3253 1.20285E+02 1.05013E+01 0.00000E+00
 -1      3254 1.24785E+02 1.05013E+01 0.00000E+00
 -1      3255 1.23285E+02 1.05013E+01 0.00000E+00
 -1      3256 1.22535E+02 1.18003E+01 0.00000E+00
 -1      3257 1.27785E+02 1.05013E+01 0.00000E+00
 -1      3258 1.26285E+02 1.05013E+01 0.00000E+00
 -1      3259 1.25535E+02 1.18003E+01 0.00000E+00
 -1      3260 1.30785E+02 1.05013E+01 0.00000E+00
 -1      3261 1.29285E+02 1.05013E+01 0.00000E+00
 -1      3262 1.28535E+02 1.18003E+01 0.00000E+00
 -1      3263 1.33785E+02 1.05013E+01 0.00000E+00
 -1      3264 1.32285E+02 1.05013E+01 0.00000E+00
 -1      3265 1.31535E+02 1.18003E+01 0.00000E+00
 -1      3266 1.02449E+02 3.61450E+01 0.00000E+00
 -1      3267 1.01215E+02 3.53508E+01 0.00000E+00
 -1      3268 1.38309E+02 2.57625E+01 0.00000E+00
 -1      3269 1.38309E+02 2.42875E+01 0.00000E+00
 -1      3270 1.38309E+02 3.45625E+01 0.00000E+00
 -1      3271 1.38309E+02 3.30875E+01 0.00000E+00
 -1      3272 1.38309E+02 2.86625E+01 0.00000E+00
 -1      3273 1.38309E+02 2.72125E+01 0.00000E+00
 -1      3274 1.37010E+02 2.64750E+01 0.00000E+00
 -1      3275 1.19486E+02 1.24370E+01 0.00000E+00
 -1      3276 1.20632E+02 1.32080E+01 0.00000E+00
 -1      3277 1.25498E+02 2.55685E+01 0.00000E+00
 -1      3278 1.25263E+02 2.67556E+01 0.00000E+00
 -1      3279 1.07346E+02 3.78413E+01 0.00000E+00
 -1      3280 1.14432E+02 1.05767E+01 0.00000E+00
 -1      3281 1.24974E+02 2.80401E+01 0.00000E+00
 -1      3282 1.24654E+02 2.93230E+01 0.00000E+00
 -1      3283 1.97850E+01 1.05013E+01 0.00000E+00
 -1      3284 1.82850E+01 1.05013E+01 0.00000E+00
 -1      3285 2.05350E+01 1.18003E+01 0.00000E+00
 -1      3286 9.77003E+01 2.14334E+01 0.00000E+00
 -1      3287 9.81514E+01 1.99560E+01 0.00000E+00
 -1      3288 1.05570E+01 3.73671E+01 0.00000E+00
 -1      3289 1.15932E+02 1.05767E+01 0.00000E+00
 -1      3290 1.38309E+02 3.16125E+01 0.00000E+00
 -1      3291 1.38309E+02 3.01375E+01 0.00000E+00
 -1      3292 1.37010E+02 2.94000E+01 0.00000E+00
 -1      3293 1.37010E+02 3.23500E+01 0.00000E+00
 -1      3294 1.01238E+02 1.36454E+01 0.00000E+00
 -1      3295 1.02254E+02 1.26308E+01 0.00000E+00
 -1      3296 1.23281E+02 1.61623E+01 0.00000E+00
 -1      3297 1.24186E+02 1.74311E+01 0.00000E+00
 -1      3298 1.39407E+02 1.25250E+01 0.00000E+00
 -1      3299 3.77850E+01 1.05013E+01 0.00000E+00
 -1      3300 3.62850E+01 1.05013E+01 0.00000E+00
 -1      3301 3.55350E+01 1.18003E+01 0.00000E+00
 -1      3302 3.85350E+01 1.18003E+01 0.00000E+00
 -1      3303 1.22152E+02 3.38474E+01 0.00000E+00
 -1      3304 1.21070E+02 3.47690E+01 0.00000E+00
 -1      3305 9.75709E+01 2.45800E+01 0.00000E+00
 -1      3306 9.74274E+01 2.32302E+01 0.00000E+00
 -1      3307 9.88586E+01 1.83588E+01 0.00000E+00
 -1      3308 9.96420E+01 1.73481E+01 0.00000E+00
 -1      3309 1.59000E+01 3.83090E+01 0.00000E+00
 -1      3310 1.74000E+01 3.83090E+01 0.00000E+00
 -1      3311 1.81500E+01 3.70100E+01 0.00000E+00
 -1      3312 9.79212E+01 2.73806E+01 0.00000E+00
 -1      3313 9.77461E+01 2.59803E+01 0.00000E+00
 -1      3314 9.66550E+01 2.54138E+01 0.00000E+00
 -1      3315 1.24069E+02 3.08974E+01 0.00000E+00
 -1      3316 1.23362E+02 3.23744E+01 0.00000E+00
 -1      3317 1.26488E+01 1.02017E+01 0.00000E+00
 -1      3318 1.20772E+01 1.14631E+01 0.00000E+00
 -1      3319 1.33763E+01 1.22006E+01 0.00000E+00
 -1      3320 1.41488E+01 1.02017E+01 0.00000E+00
 -1      3321 1.00344E+02 3.38194E+01 0.00000E+00
 -1      3322 9.93190E+01 3.25653E+01 0.00000E+00
 -1      3323 1.21215E+01 3.78040E+01 0.00000E+00
 -1      3324 1.43355E+01 3.78721E+01 0.00000E+00
 -1      3325 1.50855E+01 3.65731E+01 0.00000E+00
 -1      3326 1.19565E+01 3.56994E+01 0.00000E+00
 -1      3327 1.17236E+02 1.11380E+01 0.00000E+00
 -1      3328 1.25375E+02 2.25160E+01 0.00000E+00
 -1      3329 1.25595E+02 2.39071E+01 0.00000E+00
 -1      3330 9.85497E+01 3.05962E+01 0.00000E+00
 -1      3331 9.81909E+01 2.89781E+01 0.00000E+00
 -1      3332 1.16910E+01 2.12875E+01 0.00000E+00
 -1      3333 1.16910E+01 2.27625E+01 0.00000E+00
 -1      3334 1.21532E+02 1.42962E+01 0.00000E+00
 -1      3335 1.22381E+02 1.50741E+01 0.00000E+00
 -1      3336 1.23736E+02 1.50649E+01 0.00000E+00
 -1      3337 1.21935E+02 1.28885E+01 0.00000E+00
 -1      3338 1.18736E+02 1.11380E+01 0.00000E+00
 -1      3339 1.16910E+01 2.42375E+01 0.00000E+00
 -1      3340 1.16910E+01 2.57125E+01 0.00000E+00
 -1      3341 1.29900E+01 2.35000E+01 0.00000E+00
 -1      3342 1.29900E+01 1.46687E+01 0.00000E+00
 -1      3343 1.16910E+01 1.54063E+01 0.00000E+00
 -1      3344 1.16910E+01 1.68750E+01 0.00000E+00
 -1      3345 1.38309E+02 1.69188E+01 0.00000E+00
 -1      3346 1.38309E+02 1.54563E+01 0.00000E+00
 -1      3347 9.77280E+01 3.33600E+01 0.00000E+00
 -1      3348 9.81388E+01 3.19781E+01 0.00000E+00
 -1      3349 9.69586E+01 3.13909E+01 0.00000E+00
 -1      3350 1.02660E+02 3.73915E+01 0.00000E+00
 -1      3351 1.05846E+02 3.78413E+01 0.00000E+00
 -1      3352 1.26097E+02 2.76456E+01 0.00000E+00
 -1      3353 1.17433E+02 3.79461E+01 0.00000E+00
 -1      3354 9.66069E+01 1.92865E+01 0.00000E+00
 -1      3355 9.77328E+01 1.88226E+01 0.00000E+00
 -1      3356 9.73142E+01 1.76893E+01 0.00000E+00
 -1      3357 1.23431E+02 3.35519E+01 0.00000E+00
 -1      3358 1.23500E+02 3.47294E+01 0.00000E+00
 -1      3359 1.24709E+02 3.32564E+01 0.00000E+00
 -1      3360 1.69669E+01 1.03515E+01 0.00000E+00
 -1      3361 1.54669E+01 1.03515E+01 0.00000E+00
 -1      3362 1.50806E+01 1.13509E+01 0.00000E+00
 -1      3363 1.77169E+01 1.16505E+01 0.00000E+00
 -1      3364 1.21936E+02 3.62076E+01 0.00000E+00
 -1      3365 1.20784E+02 3.59516E+01 0.00000E+00
 -1      3366 1.19565E+01 3.27619E+01 0.00000E+00
 -1      3367 1.19565E+01 3.42306E+01 0.00000E+00
 -1      3368 1.35210E+01 3.46675E+01 0.00000E+00
 -1      3369 2.95350E+01 1.18003E+01 0.00000E+00
 -1      3370 2.87850E+01 1.05013E+01 0.00000E+00
 -1      3371 2.72850E+01 1.05013E+01 0.00000E+00
 -1      3372 1.07231E+02 1.08137E+01 0.00000E+00
 -1      3373 1.26036E+02 2.15166E+01 0.00000E+00
 -1      3374 1.26483E+02 2.46997E+01 0.00000E+00
 -1      3375 9.97791E+01 3.54786E+01 0.00000E+00
 -1      3376 1.34953E+02 1.07819E+01 0.00000E+00
 -1      3377 1.34203E+02 1.20809E+01 0.00000E+00
 -1      3378 1.36120E+02 1.10626E+01 0.00000E+00
 -1      3379 1.38309E+02 1.98687E+01 0.00000E+00
 -1      3380 1.38309E+02 1.83937E+01 0.00000E+00
 -1      3381 1.37010E+02 1.76625E+01 0.00000E+00
 -1      3382 2.57850E+01 1.05013E+01 0.00000E+00
 -1      3383 2.42850E+01 1.05013E+01 0.00000E+00
 -1      3384 2.65350E+01 1.18003E+01 0.00000E+00
 -1      3385 1.38309E+02 2.28156E+01 0.00000E+00
 -1      3386 1.38309E+02 2.13406E+01 0.00000E+00
 -1      3387 1.37010E+02 2.06094E+01 0.00000E+00
 -1      3388 1.37010E+02 2.35531E+01 0.00000E+00
 -1      3389 1.25064E+02 1.80740E+01 0.00000E+00
 -1      3390 1.25943E+02 1.87169E+01 0.00000E+00
 -1      3391 1.25515E+02 1.67960E+01 0.00000E+00
 -1      3392 1.00690E+02 1.50630E+01 0.00000E+00
 -1      3393 9.94872E+01 1.32179E+01 0.00000E+00
 -1      3394 9.79872E+01 1.32179E+01 0.00000E+00
 -1      3395 9.98917E+01 1.60531E+01 0.00000E+00
 -1      3396 2.35350E+01 1.18003E+01 0.00000E+00
 -1      3397 1.19565E+01 3.12931E+01 0.00000E+00
 -1      3398 1.35210E+01 3.17300E+01 0.00000E+00
 -1      3399 1.19565E+01 2.98244E+01 0.00000E+00
 -1      3400 9.86898E+01 1.59305E+01 0.00000E+00
 -1      3401 9.67527E+01 2.22166E+01 0.00000E+00
 -1      3402 9.60779E+01 2.12030E+01 0.00000E+00
 -1      3403 9.58050E+01 2.29999E+01 0.00000E+00
 -1      3404 1.38274E+02 1.38503E+01 0.00000E+00
 -1      3405 1.38073E+02 1.16503E+01 0.00000E+00
 -1      3406 1.36905E+02 1.13696E+01 0.00000E+00
 -1      3407 1.36975E+02 1.45815E+01 0.00000E+00
 -1      3408 1.25224E+02 3.05045E+01 0.00000E+00
 -1      3409 1.16910E+01 1.83469E+01 0.00000E+00
 -1      3410 1.16910E+01 1.98156E+01 0.00000E+00
 -1      3411 1.29900E+01 2.05531E+01 0.00000E+00
 -1      3412 1.29900E+01 1.76094E+01 0.00000E+00
 -1      3413 9.70998E+01 2.84116E+01 0.00000E+00
 -1      3414 1.19284E+02 3.59516E+01 0.00000E+00
 -1      3415 1.18183E+02 3.68372E+01 0.00000E+00
 -1      3416 1.37758E+02 3.65388E+01 0.00000E+00
 -1      3417 1.38123E+02 3.54618E+01 0.00000E+00
 -1      3418 1.36824E+02 3.47243E+01 0.00000E+00
 -1      3419 1.36451E+02 3.65228E+01 0.00000E+00
 -1      3420 2.34000E+01 3.57110E+01 0.00000E+00
 -1      3421 2.49000E+01 3.57110E+01 0.00000E+00
 -1      3422 2.64000E+01 3.57110E+01 0.00000E+00
 -1      3423 2.79000E+01 3.57110E+01 0.00000E+00
 -1      3424 2.56500E+01 3.44120E+01 0.00000E+00
 -1      3425 2.94000E+01 3.57110E+01 0.00000E+00
 -1      3426 3.09000E+01 3.57110E+01 0.00000E+00
 -1      3427 2.86500E+01 3.44120E+01 0.00000E+00
 -1      3428 3.24000E+01 3.57110E+01 0.00000E+00
 -1      3429 3.39000E+01 3.57110E+01 0.00000E+00
 -1      3430 3.16500E+01 3.44120E+01 0.00000E+00
 -1      3431 3.54000E+01 3.57110E+01 0.00000E+00
 -1      3432 3.69000E+01 3.57110E+01 0.00000E+00
 -1      3433 3.46500E+01 3.44120E+01 0.00000E+00
 -1      3434 3.84000E+01 3.57110E+01 0.00000E+00
 -1      3435 3.99000E+01 3.57110E+01 0.00000E+00
 -1      3436 3.76500E+01 3.44120E+01 0.00000E+00
 -1      3437 4.14000E+01 3.57110E+01 0.00000E+00
 -1      3438 4.29000E+01 3.57110E+01 0.00000E+00
 -1      3439 4.06500E+01 3.44120E+01 0.00000E+00
 -1      3440 4.44000E+01 3.57110E+01 0.00000E+00
 -1      3441 4.59000E+01 3.57110E+01 0.00000E+00
 -1      3442 4.36500E+01 3.44120E+01 0.00000E+00
 -1      3443 4.74000E+01 3.57110E+01 0.00000E+00
 -1      3444 4.89000E+01 3.57110E+01 0.00000E+00
 -1      3445 4.66500E+01 3.44120E+01 0.00000E+00
 -1      3446 5.04000E+01 3.57110E+01 0.00000E+00
 -1      3447 5.19000E+01 3.57110E+01 0.00000E+00
 -1      3448 4.96500E+01 3.44120E+01 0.00000E+00
 -1      3449 5.34000E+01 3.57110E+01 0.00000E+00
 -1      3450 5.49000E+01 3.57110E+01 0.00000E+00
 -1      3451 5.26500E+01 3.44120E+01 0.00000E+00
 -1      3452 5.64000E+01 3.57110E+01 0.00000E+00
 -1      3453 5.79000E+01 3.57110E+01 0.00000E+00
 -1      3454 5.56500E+01 3.44120E+01 0.00000E+00
 -1      3455 5.94000E+01 3.57110E+01 0.00000E+00
 -1      3456 6.09000E+01 3.57110E+01 0.00000E+00
 -1      3457 5.86500E+01 3.44120E+01 0.00000E+00
 -1      3458 6.24000E+01 3.57110E+01 0.00000E+00
 -1      3459 6.39000E+01 3.57110E+01 0.00000E+00
 -1      3460 6.16500E+01 3.44120E+01 0.00000E+00
 -1      3461 6.54000E+01 3.57110E+01 0.00000E+00
 -1      3462 6.69000E+01 3.57110E+01 0.00000E+00
 -1      3463 6.46500E+01 3.44120E+01 0.00000E+00
 -1      3464 6.84000E+01 3.57110E+01 0.00000E+00
 -1      3465 6.99000E+01 3.57110E+01 0.00000E+00
 -1      3466 6.76500E+01 3.44120E+01 0.00000E+00
 -1      3467 7.14000E+01 3.57110E+01 0.00000E+00
 -1      3468 7.29000E+01 3.57110E+01 0.00000E+00
 -1      3469 7.06500E+01 3.44120E+01 0.00000E+00
 -1      3470 7.44000E+01 3.57110E+01 0.00000E+00
 -1      3471 7.59000E+01 3.57110E+01 0.00000E+00
 -1      3472 7.36500E+01 3.44120E+01 0.00000E+00
 -1      3473 7.74000E+01 3.57110E+01 0.00000E+00
 -1      3474 7.89000E+01 3.57110E+01 0.00000E+00
 -1      3475 7.66500E+01 3.44120E+01 0.00000E+00
 -1      3476 8.04000E+01 3.57110E+01 0.00000E+00
 -1      3477 8.19000E+01 3.57110E+01 0.00000E+00
 -1      3478 7.96500E+01 3.44120E+01 0.00000E+00
 -1      3479 8.34000E+01 3.57110E+01 0.00000E+00
 -1      3480 8.49000E+01 3.57110E+01 0.00000E+00
 -1      3481 8.26500E+01 3.44120E+01 0.00000E+00
 -1      3482 8.64000E+01 3.57110E+01 0.00000E+00
 -1      3483 8.79000E+01 3.57110E+01 0.00000E+00
 -1      3484 8.56500E+01 3.44120E+01 0.00000E+00
 -1      3485 8.94000E+01 3.57110E+01 0.00000E+00
 -1      3486 9.09000E+01 3.57110E+01 0.00000E+00
 -1      3487 8.86500E+01 3.44120E+01 0.00000E+00
 -1      3488 9.24000E+01 3.57110E+01 0.00000E+00
 -1      3489 9.39000E+01 3.57110E+01 0.00000E+00
 -1      3490 9.16500E+01 3.44120E+01 0.00000E+00
 -1      3491 9.82791E+01 3.54786E+01 0.00000E+00
 -1      3492 1.23436E+02 3.62076E+01 0.00000E+00
 -1      3493 1.24714E+02 3.59121E+01 0.00000E+00
 -1      3494 1.26214E+02 3.59121E+01 0.00000E+00
 -1      3495 1.28400E+02 3.60912E+01 0.00000E+00
 -1      3496 1.29900E+02 3.60912E+01 0.00000E+00
 -1      3497 1.31400E+02 3.60912E+01 0.00000E+00
 -1      3498 1.32900E+02 3.60912E+01 0.00000E+00
 -1      3499 1.30650E+02 3.47922E+01 0.00000E+00
 -1      3500 4.52850E+01 1.30992E+01 0.00000E+00
 -1      3501 4.37850E+01 1.30992E+01 0.00000E+00
 -1      3502 4.22850E+01 1.30992E+01 0.00000E+00
 -1      3503 4.07850E+01 1.30992E+01 0.00000E+00
 -1      3504 4.30350E+01 1.43982E+01 0.00000E+00
 -1      3505 5.12850E+01 1.30992E+01 0.00000E+00
 -1      3506 4.97850E+01 1.30992E+01 0.00000E+00
 -1      3507 5.42850E+01 1.30992E+01 0.00000E+00
 -1      3508 5.27850E+01 1.30992E+01 0.00000E+00
 -1      3509 5.20350E+01 1.43982E+01 0.00000E+00
 -1      3510 5.72850E+01 1.30992E+01 0.00000E+00
 -1      3511 5.57850E+01 1.30992E+01 0.00000E+00
 -1      3512 5.50350E+01 1.43982E+01 0.00000E+00
 -1      3513 6.02850E+01 1.30992E+01 0.00000E+00
 -1      3514 5.87850E+01 1.30992E+01 0.00000E+00
 -1      3515 5.80350E+01 1.43982E+01 0.00000E+00
 -1      3516 6.32850E+01 1.30992E+01 0.00000E+00
 -1      3517 6.17850E+01 1.30992E+01 0.00000E+00
 -1      3518 6.10350E+01 1.43982E+01 0.00000E+00
 -1      3519 6.62850E+01 1.30992E+01 0.00000E+00
 -1      3520 6.47850E+01 1.30992E+01 0.00000E+00
 -1      3521 6.40350E+01 1.43982E+01 0.00000E+00
 -1      3522 6.92850E+01 1.30992E+01 0.00000E+00
 -1      3523 6.77850E+01 1.30992E+01 0.00000E+00
 -1      3524 6.70350E+01 1.43982E+01 0.00000E+00
 -1      3525 7.22850E+01 1.30992E+01 0.00000E+00
 -1      3526 7.07850E+01 1.30992E+01 0.00000E+00
 -1      3527 7.00350E+01 1.43982E+01 0.00000E+00
 -1      3528 7.52850E+01 1.30992E+01 0.00000E+00
 -1      3529 7.37850E+01 1.30992E+01 0.00000E+00
 -1      3530 7.30350E+01 1.43982E+01 0.00000E+00
 -1      3531 7.82850E+01 1.30992E+01 0.00000E+00
 -1      3532 7.67850E+01 1.30992E+01 0.00000E+00
 -1      3533 7.60350E+01 1.43982E+01 0.00000E+00
 -1      3534 8.12850E+01 1.30992E+01 0.00000E+00
 -1      3535 7.97850E+01 1.30992E+01 0.00000E+00
 -1      3536 7.90350E+01 1.43982E+01 0.00000E+00
 -1      3537 8.42850E+01 1.30992E+01 0.00000E+00
 -1      3538 8.27850E+01 1.30992E+01 0.00000E+00
 -1      3539 8.20350E+01 1.43982E+01 0.00000E+00
 -1      3540 8.72850E+01 1.30992E+01 0.00000E+00
 -1      3541 8.57850E+01 1.30992E+01 0.00000E+00
 -1      3542 8.50350E+01 1.43982E+01 0.00000E+00
 -1      3543 9.02850E+01 1.30992E+01 0.00000E+00
 -1      3544 8.87850E+01 1.30992E+01 0.00000E+00
 -1      3545 8.80350E+01 1.43982E+01 0.00000E+00
 -1      3546 9.32850E+01 1.30992E+01 0.00000E+00
 -1      3547 9.17850E+01 1.30992E+01 0.00000E+00
 -1      3548 9.10350E+01 1.43982E+01 0.00000E+00
 -1      3549 9.62850E+01 1.30992E+01 0.00000E+00
 -1      3550 9.47850E+01 1.30992E+01 0.00000E+00
 -1      3551 9.40350E+01 1.43982E+01 0.00000E+00
 -1      3552 1.23435E+02 1.28885E+01 0.00000E+00
 -1      3553 1.32285E+02 1.30992E+01 0.00000E+00
 -1      3554 1.30785E+02 1.30992E+01 0.00000E+00
 -1      3555 1.35711E+02 2.72000E+01 0.00000E+00
 -1      3556 1.35711E+02 2.57500E+01 0.00000E+00
 -1      3557 1.27242E+02 2.72283E+01 0.00000E+00
 -1      3558 1.26953E+02 2.85128E+01 0.00000E+00
 -1      3559 2.12850E+01 1.30992E+01 0.00000E+00
 -1      3560 1.97850E+01 1.30992E+01 0.00000E+00
 -1      3561 1.29285E+02 1.30992E+01 0.00000E+00
 -1      3562 1.27785E+02 1.30992E+01 0.00000E+00
 -1      3563 1.30035E+02 1.43982E+01 0.00000E+00
 -1      3564 1.26360E+02 1.29939E+01 0.00000E+00
 -1      3565 1.24860E+02 1.29939E+01 0.00000E+00
 -1      3566 1.24261E+02 1.40821E+01 0.00000E+00
 -1      3567 1.27110E+02 1.42929E+01 0.00000E+00
 -1      3568 1.27639E+02 2.39338E+01 0.00000E+00
 -1      3569 1.27542E+02 2.55952E+01 0.00000E+00
 -1      3570 4.82850E+01 1.30992E+01 0.00000E+00
 -1      3571 4.67850E+01 1.30992E+01 0.00000E+00
 -1      3572 4.60350E+01 1.43982E+01 0.00000E+00
 -1      3573 4.90350E+01 1.43982E+01 0.00000E+00
 -1      3574 3.32850E+01 1.30992E+01 0.00000E+00
 -1      3575 3.17850E+01 1.30992E+01 0.00000E+00
 -1      3576 9.66245E+01 3.59507E+01 0.00000E+00
 -1      3577 9.72536E+01 3.44193E+01 0.00000E+00
 -1      3578 9.60734E+01 3.38321E+01 0.00000E+00
 -1      3579 9.51245E+01 3.59507E+01 0.00000E+00
 -1      3580 1.18237E+01 2.70341E+01 0.00000E+00
 -1      3581 1.18237E+01 2.85028E+01 0.00000E+00
 -1      3582 1.33883E+01 2.89397E+01 0.00000E+00
 -1      3583 1.31228E+01 2.62966E+01 0.00000E+00
 -1      3584 1.26635E+02 3.01323E+01 0.00000E+00
 -1      3585 1.26050E+02 3.17067E+01 0.00000E+00
 -1      3586 2.04000E+01 3.57110E+01 0.00000E+00
 -1      3587 2.19000E+01 3.57110E+01 0.00000E+00
 -1      3588 2.26500E+01 3.44120E+01 0.00000E+00
 -1      3589 1.26966E+02 2.03258E+01 0.00000E+00
 -1      3590 1.27510E+02 2.18475E+01 0.00000E+00
 -1      3591 1.74000E+01 3.57110E+01 0.00000E+00
 -1      3592 1.89000E+01 3.57110E+01 0.00000E+00
 -1      3593 1.96500E+01 3.44120E+01 0.00000E+00
 -1      3594 9.69875E+01 1.58118E+01 0.00000E+00
 -1      3595 9.72372E+01 1.45169E+01 0.00000E+00
 -1      3596 9.58085E+01 2.62308E+01 0.00000E+00
 -1      3597 9.56333E+01 2.48305E+01 0.00000E+00
 -1      3598 2.42850E+01 1.30992E+01 0.00000E+00
 -1      3599 2.27850E+01 1.30992E+01 0.00000E+00
 -1      3600 2.20350E+01 1.43982E+01 0.00000E+00
 -1      3601 9.61412E+01 2.93949E+01 0.00000E+00
 -1      3602 9.58715E+01 2.77975E+01 0.00000E+00
 -1      3603 1.42890E+01 1.39344E+01 0.00000E+00
 -1      3604 1.42890E+01 1.54031E+01 0.00000E+00
 -1      3605 1.27779E+02 2.97150E+01 0.00000E+00
 -1      3606 1.26964E+02 3.46131E+01 0.00000E+00
 -1      3607 9.53195E+01 3.21587E+01 0.00000E+00
 -1      3608 9.57304E+01 3.07768E+01 0.00000E+00
 -1      3609 9.45021E+01 3.01627E+01 0.00000E+00
 -1      3610 9.43745E+01 3.46517E+01 0.00000E+00
 -1      3611 9.56593E+01 2.00697E+01 0.00000E+00
 -1      3612 9.52408E+01 1.89364E+01 0.00000E+00
 -1      3613 9.47117E+01 2.08530E+01 0.00000E+00
 -1      3614 3.10350E+01 1.43982E+01 0.00000E+00
 -1      3615 3.02850E+01 1.30992E+01 0.00000E+00
 -1      3616 2.87850E+01 1.30992E+01 0.00000E+00
 -1      3617 3.47850E+01 1.30992E+01 0.00000E+00
 -1      3618 3.40350E+01 1.43982E+01 0.00000E+00
 -1      3619 3.62850E+01 1.30992E+01 0.00000E+00
 -1      3620 1.34022E+02 3.62990E+01 0.00000E+00
 -1      3621 1.35329E+02 3.63150E+01 0.00000E+00
 -1      3622 1.35515E+02 3.54157E+01 0.00000E+00
 -1      3623 1.33272E+02 3.50000E+01 0.00000E+00
 -1      3624 1.84669E+01 1.29495E+01 0.00000E+00
 -1      3625 1.71488E+01 1.27997E+01 0.00000E+00
 -1      3626 1.92169E+01 1.42485E+01 0.00000E+00
 -1      3627 4.00350E+01 1.43982E+01 0.00000E+00
 -1      3628 3.92850E+01 1.30992E+01 0.00000E+00
 -1      3629 3.77850E+01 1.30992E+01 0.00000E+00
 -1      3630 1.35711E+02 2.86750E+01 0.00000E+00
 -1      3631 1.34412E+02 2.79500E+01 0.00000E+00
 -1      3632 1.35711E+02 3.01500E+01 0.00000E+00
 -1      3633 1.42890E+01 2.27625E+01 0.00000E+00
 -1      3634 1.42890E+01 2.42375E+01 0.00000E+00
 -1      3635 1.33453E+02 1.33799E+01 0.00000E+00
 -1      3636 1.32703E+02 1.46789E+01 0.00000E+00
 -1      3637 1.34620E+02 1.36606E+01 0.00000E+00
 -1      3638 1.34412E+02 2.50031E+01 0.00000E+00
 -1      3639 1.35711E+02 2.42781E+01 0.00000E+00
 -1      3640 1.35711E+02 2.28062E+01 0.00000E+00
 -1      3641 1.36155E+02 1.26686E+01 0.00000E+00
 -1      3642 2.72850E+01 1.30992E+01 0.00000E+00
 -1      3643 2.57850E+01 1.30992E+01 0.00000E+00
 -1      3644 2.80350E+01 1.43982E+01 0.00000E+00
 -1      3645 1.27417E+02 1.90478E+01 0.00000E+00
 -1      3646 9.49586E+01 2.38169E+01 0.00000E+00
 -1      3647 9.42838E+01 2.28033E+01 0.00000E+00
 -1      3648 9.41121E+01 2.46339E+01 0.00000E+00
 -1      3649 9.48499E+01 2.72141E+01 0.00000E+00
 -1      3650 1.29498E+02 2.15522E+01 0.00000E+00
 -1      3651 1.28569E+02 2.27430E+01 0.00000E+00
 -1      3652 1.29627E+02 2.36385E+01 0.00000E+00
 -1      3653 1.28398E+02 2.64624E+01 0.00000E+00
 -1      3654 2.50350E+01 1.43982E+01 0.00000E+00
 -1      3655 1.42890E+01 2.12906E+01 0.00000E+00
 -1      3656 1.55880E+01 2.20281E+01 0.00000E+00
 -1      3657 1.42890E+01 1.98188E+01 0.00000E+00
 -1      3658 9.58617E+01 1.62757E+01 0.00000E+00
 -1      3659 1.46783E+01 3.49708E+01 0.00000E+00
 -1      3660 1.62428E+01 3.54077E+01 0.00000E+00
 -1      3661 1.69928E+01 3.41087E+01 0.00000E+00
 -1      3662 1.46783E+01 3.35021E+01 0.00000E+00
 -1      3663 1.35711E+02 1.84000E+01 0.00000E+00
 -1      3664 1.35711E+02 1.69250E+01 0.00000E+00
 -1      3665 1.25161E+02 1.51703E+01 0.00000E+00
 -1      3666 1.35702E+02 3.45164E+01 0.00000E+00
 -1      3667 1.35888E+02 3.36172E+01 0.00000E+00
 -1      3668 1.34580E+02 3.43086E+01 0.00000E+00
 -1      3669 1.46783E+01 3.05646E+01 0.00000E+00
 -1      3670 1.46783E+01 3.20333E+01 0.00000E+00
 -1      3671 1.58355E+01 3.23366E+01 0.00000E+00
 -1      3672 1.34141E+02 1.63111E+01 0.00000E+00
 -1      3673 1.35440E+02 1.55736E+01 0.00000E+00
 -1      3674 1.35888E+02 3.21422E+01 0.00000E+00
 -1      3675 1.26575E+02 1.50530E+01 0.00000E+00
 -1      3676 1.26050E+02 1.60358E+01 0.00000E+00
 -1      3677 1.26929E+02 1.66788E+01 0.00000E+00
 -1      3678 1.28000E+02 1.51584E+01 0.00000E+00
 -1      3679 1.29109E+02 2.91354E+01 0.00000E+00
 -1      3680 1.28790E+02 3.07549E+01 0.00000E+00
 -1      3681 2.79000E+01 3.31130E+01 0.00000E+00
 -1      3682 2.94000E+01 3.31130E+01 0.00000E+00
 -1      3683 3.09000E+01 3.31130E+01 0.00000E+00
 -1      3684 3.24000E+01 3.31130E+01 0.00000E+00
 -1      3685 3.01500E+01 3.18140E+01 0.00000E+00
 -1      3686 3.39000E+01 3.31130E+01 0.00000E+00
 -1      3687 3.54000E+01 3.31130E+01 0.00000E+00
 -1      3688 3.31500E+01 3.18140E+01 0.00000E+00
 -1      3689 3.69000E+01 3.31130E+01 0.00000E+00
 -1      3690 3.84000E+01 3.31130E+01 0.00000E+00
 -1      3691 3.61500E+01 3.18140E+01 0.00000E+00
 -1      3692 3.99000E+01 3.31130E+01 0.00000E+00
 -1      3693 4.14000E+01 3.31130E+01 0.00000E+00
 -1      3694 3.91500E+01 3.18140E+01 0.00000E+00
 -1      3695 4.29000E+01 3.31130E+01 0.00000E+00
 -1      3696 4.44000E+01 3.31130E+01 0.00000E+00
 -1      3697 4.21500E+01 3.18140E+01 0.00000E+00
 -1      3698 4.59000E+01 3.31130E+01 0.00000E+00
 -1      3699 4.74000E+01 3.31130E+01 0.00000E+00
 -1      3700 4.51500E+01 3.18140E+01 0.00000E+00
 -1      3701 4.89000E+01 3.31130E+01 0.00000E+00
 -1      3702 5.04000E+01 3.31130E+01 0.00000E+00
 -1      3703 4.81500E+01 3.18140E+01 0.00000E+00
 -1      3704 5.19000E+01 3.31130E+01 0.00000E+00
 -1      3705 5.34000E+01 3.31130E+01 0.00000E+00
 -1      3706 5.11500E+01 3.18140E+01 0.00000E+00
 -1      3707 5.49000E+01 3.31130E+01 0.00000E+00
 -1      3708 5.64000E+01 3.31130E+01 0.00000E+00
 -1      3709 5.41500E+01 3.18140E+01 0.00000E+00
 -1      3710 5.79000E+01 3.31130E+01 0.00000E+00
 -1      3711 5.94000E+01 3.31130E+01 0.00000E+00
 -1      3712 5.71500E+01 3.18140E+01 0.00000E+00
 -1      3713 6.09000E+01 3.31130E+01 0.00000E+00
 -1      3714 6.24000E+01 3.31130E+01 0.00000E+00
 -1      3715 6.01500E+01 3.18140E+01 0.00000E+00
 -1      3716 6.39000E+01 3.31130E+01 0.00000E+00
 -1      3717 6.54000E+01 3.31130E+01 0.00000E+00
 -1      3718 6.31500E+01 3.18140E+01 0.00000E+00
 -1      3719 6.69000E+01 3.31130E+01 0.00000E+00
 -1      3720 6.84000E+01 3.31130E+01 0.00000E+00
 -1      3721 6.61500E+01 3.18140E+01 0.00000E+00
 -1      3722 6.99000E+01 3.31130E+01 0.00000E+00
 -1      3723 7.14000E+01 3.31130E+01 0.00000E+00
 -1      3724 6.91500E+01 3.18140E+01 0.00000E+00
 -1      3725 7.29000E+01 3.31130E+01 0.00000E+00
 -1      3726 7.44000E+01 3.31130E+01 0.00000E+00
 -1      3727 7.21500E+01 3.18140E+01 0.00000E+00
 -1      3728 7.59000E+01 3.31130E+01 0.00000E+00
 -1      3729 7.74000E+01 3.31130E+01 0.00000E+00
 -1      3730 7.51500E+01 3.18140E+01 0.00000E+00
 -1      3731 7.89000E+01 3.31130E+01 0.00000E+00
 -1      3732 8.04000E+01 3.31130E+01 0.00000E+00
 -1      3733 7.81500E+01 3.18140E+01 0.00000E+00
 -1      3734 8.19000E+01 3.31130E+01 0.00000E+00
 -1      3735 8.34000E+01 3.31130E+01 0.00000E+00
 -1      3736 8.11500E+01 3.18140E+01 0.00000E+00
 -1      3737 8.49000E+01 3.31130E+01 0.00000E+00
 -1      3738 8.64000E+01 3.31130E+01 0.00000E+00
 -1      3739 8.41500E+01 3.18140E+01 0.00000E+00
 -1      3740 8.79000E+01 3.31130E+01 0.00000E+00
 -1      3741 8.94000E+01 3.31130E+01 0.00000E+00
 -1      3742 8.71500E+01 3.18140E+01 0.00000E+00
 -1      3743 5.87850E+01 1.56973E+01 0.00000E+00
 -1      3744 5.72850E+01 1.56973E+01 0.00000E+00
 -1      3745 1.29900E+02 3.34932E+01 0.00000E+00
 -1      3746 1.31400E+02 3.34932E+01 0.00000E+00
 -1      3747 1.25782E+02 3.26027E+01 0.00000E+00
 -1      3748 1.25851E+02 3.37802E+01 0.00000E+00
 -1      3749 1.34589E+02 3.14172E+01 0.00000E+00
 -1      3750 5.57850E+01 1.56973E+01 0.00000E+00
 -1      3751 5.42850E+01 1.56973E+01 0.00000E+00
 -1      3752 5.65350E+01 1.69963E+01 0.00000E+00
 -1      3753 5.27850E+01 1.56973E+01 0.00000E+00
 -1      3754 5.12850E+01 1.56973E+01 0.00000E+00
 -1      3755 5.35350E+01 1.69963E+01 0.00000E+00
 -1      3756 6.17850E+01 1.56973E+01 0.00000E+00
 -1      3757 6.02850E+01 1.56973E+01 0.00000E+00
 -1      3758 5.95350E+01 1.69963E+01 0.00000E+00
 -1      3759 6.47850E+01 1.56973E+01 0.00000E+00
 -1      3760 6.32850E+01 1.56973E+01 0.00000E+00
 -1      3761 6.25350E+01 1.69963E+01 0.00000E+00
 -1      3762 6.77850E+01 1.56973E+01 0.00000E+00
 -1      3763 6.62850E+01 1.56973E+01 0.00000E+00
 -1      3764 6.55350E+01 1.69963E+01 0.00000E+00
 -1      3765 7.07850E+01 1.56973E+01 0.00000E+00
 -1      3766 6.92850E+01 1.56973E+01 0.00000E+00
 -1      3767 6.85350E+01 1.69963E+01 0.00000E+00
 -1      3768 7.37850E+01 1.56973E+01 0.00000E+00
 -1      3769 7.22850E+01 1.56973E+01 0.00000E+00
 -1      3770 7.15350E+01 1.69963E+01 0.00000E+00
 -1      3771 7.67850E+01 1.56973E+01 0.00000E+00
 -1      3772 7.52850E+01 1.56973E+01 0.00000E+00
 -1      3773 7.45350E+01 1.69963E+01 0.00000E+00
 -1      3774 7.97850E+01 1.56973E+01 0.00000E+00
 -1      3775 7.82850E+01 1.56973E+01 0.00000E+00
 -1      3776 7.75350E+01 1.69963E+01 0.00000E+00
 -1      3777 8.27850E+01 1.56973E+01 0.00000E+00
 -1      3778 8.12850E+01 1.56973E+01 0.00000E+00
 -1      3779 8.05350E+01 1.69963E+01 0.00000E+00
 -1      3780 8.57850E+01 1.56973E+01 0.00000E+00
 -1      3781 8.42850E+01 1.56973E+01 0.00000E+00
 -1      3782 8.35350E+01 1.69963E+01 0.00000E+00
 -1      3783 8.87850E+01 1.56973E+01 0.00000E+00
 -1      3784 8.72850E+01 1.56973E+01 0.00000E+00
 -1      3785 8.65350E+01 1.69963E+01 0.00000E+00
 -1      3786 9.17850E+01 1.56973E+01 0.00000E+00
 -1      3787 9.02850E+01 1.56973E+01 0.00000E+00
 -1      3788 8.95350E+01 1.69963E+01 0.00000E+00
 -1      3789 2.27850E+01 1.56973E+01 0.00000E+00
 -1      3790 2.12850E+01 1.56973E+01 0.00000E+00
 -1      3791 1.32973E+02 1.60304E+01 0.00000E+00
 -1      3792 1.31806E+02 1.57497E+01 0.00000E+00
 -1      3793 1.33244E+02 1.73818E+01 0.00000E+00
 -1      3794 1.30653E+02 1.54541E+01 0.00000E+00
 -1      3795 1.29153E+02 1.54541E+01 0.00000E+00
 -1      3796 1.28617E+02 1.62142E+01 0.00000E+00
 -1      3797 1.30923E+02 1.68055E+01 0.00000E+00
 -1      3798 1.27192E+02 3.22305E+01 0.00000E+00
 -1      3799 9.48451E+01 3.32180E+01 0.00000E+00
 -1      3800 1.35405E+02 1.39676E+01 0.00000E+00
 -1      3801 4.37850E+01 1.56973E+01 0.00000E+00
 -1      3802 4.22850E+01 1.56973E+01 0.00000E+00
 -1      3803 2.57850E+01 1.56973E+01 0.00000E+00
 -1      3804 2.42850E+01 1.56973E+01 0.00000E+00
 -1      3805 2.35350E+01 1.69963E+01 0.00000E+00
 -1      3806 2.19000E+01 3.31130E+01 0.00000E+00
 -1      3807 2.34000E+01 3.31130E+01 0.00000E+00
 -1      3808 1.42890E+01 1.68750E+01 0.00000E+00
 -1      3809 1.42890E+01 1.83469E+01 0.00000E+00
 -1      3810 1.55880E+01 1.90844E+01 0.00000E+00
 -1      3811 1.89000E+01 3.31130E+01 0.00000E+00
 -1      3812 2.04000E+01 3.31130E+01 0.00000E+00
 -1      3813 2.11500E+01 3.18140E+01 0.00000E+00
 -1      3814 2.49000E+01 3.31130E+01 0.00000E+00
 -1      3815 2.64000E+01 3.31130E+01 0.00000E+00
 -1      3816 2.41500E+01 3.18140E+01 0.00000E+00
 -1      3817 9.37734E+01 2.80420E+01 0.00000E+00
 -1      3818 9.37104E+01 2.64754E+01 0.00000E+00
 -1      3819 9.48012E+01 1.76060E+01 0.00000E+00
 -1      3820 9.44745E+01 1.57286E+01 0.00000E+00
 -1      3821 9.29745E+01 1.57286E+01 0.00000E+00
 -1      3822 9.38536E+01 1.83893E+01 0.00000E+00
 -1      3823 1.46753E+01 1.29349E+01 0.00000E+00
 -1      3824 1.35711E+02 2.13391E+01 0.00000E+00
 -1      3825 1.35711E+02 1.98672E+01 0.00000E+00
 -1      3826 1.34412E+02 1.91297E+01 0.00000E+00
 -1      3827 1.34412E+02 2.20641E+01 0.00000E+00
 -1      3828 1.57207E+01 2.48216E+01 0.00000E+00
 -1      3829 1.44218E+01 2.55591E+01 0.00000E+00
 -1      3830 1.45545E+01 2.68806E+01 0.00000E+00
 -1      3831 9.36206E+01 3.29783E+01 0.00000E+00
 -1      3832 1.67891E+01 3.25732E+01 0.00000E+00
 -1      3833 1.79464E+01 3.28765E+01 0.00000E+00
 -1      3834 1.86964E+01 3.15775E+01 0.00000E+00
 -1      3835 1.67891E+01 3.11044E+01 0.00000E+00
 -1      3836 1.29803E+02 2.58764E+01 0.00000E+00
 -1      3837 1.29503E+02 2.75095E+01 0.00000E+00
 -1      3838 1.55880E+01 1.61406E+01 0.00000E+00
 -1      3839 1.59934E+01 1.30847E+01 0.00000E+00
 -1      3840 1.67434E+01 1.43837E+01 0.00000E+00
 -1      3841 9.38652E+01 2.16700E+01 0.00000E+00
 -1      3842 9.34466E+01 2.05366E+01 0.00000E+00
 -1      3843 9.30187E+01 2.24869E+01 0.00000E+00
 -1      3844 5.05350E+01 1.69963E+01 0.00000E+00
 -1      3845 4.97850E+01 1.56973E+01 0.00000E+00
 -1      3846 4.82850E+01 1.56973E+01 0.00000E+00
 -1      3847 9.09000E+01 3.31130E+01 0.00000E+00
 -1      3848 9.24000E+01 3.31130E+01 0.00000E+00
 -1      3849 1.45500E+01 2.80618E+01 0.00000E+00
 -1      3850 1.46827E+01 2.93834E+01 0.00000E+00
 -1      3851 1.58400E+01 2.96867E+01 0.00000E+00
 -1      3852 1.58490E+01 2.73243E+01 0.00000E+00
 -1      3853 3.17850E+01 1.56973E+01 0.00000E+00
 -1      3854 3.02850E+01 1.56973E+01 0.00000E+00
 -1      3855 1.32443E+02 3.17923E+01 0.00000E+00
 -1      3856 1.32266E+02 2.98002E+01 0.00000E+00
 -1      3857 3.70350E+01 1.43982E+01 0.00000E+00
 -1      3858 1.33458E+02 3.41007E+01 0.00000E+00
 -1      3859 4.07850E+01 1.56973E+01 0.00000E+00
 -1      3860 3.92850E+01 1.56973E+01 0.00000E+00
 -1      3861 4.15350E+01 1.69963E+01 0.00000E+00
 -1      3862 3.47850E+01 1.56973E+01 0.00000E+00
 -1      3863 3.32850E+01 1.56973E+01 0.00000E+00
 -1      3864 3.25350E+01 1.69963E+01 0.00000E+00
 -1      3865 2.05350E+01 1.69963E+01 0.00000E+00
 -1      3866 1.97850E+01 1.56973E+01 0.00000E+00
 -1      3867 9.22245E+01 1.70276E+01 0.00000E+00
 -1      3868 9.19591E+01 2.62897E+01 0.00000E+00
 -1      3869 9.30356E+01 2.54618E+01 0.00000E+00
 -1      3870 9.23608E+01 2.44482E+01 0.00000E+00
 -1      3871 1.29055E+02 3.17643E+01 0.00000E+00
 -1      3872 1.28787E+02 3.26604E+01 0.00000E+00
 -1      3873 9.28706E+01 3.16793E+01 0.00000E+00
 -1      3874 1.33113E+02 2.57391E+01 0.00000E+00
 -1      3875 1.33113E+02 2.42672E+01 0.00000E+00
 -1      3876 2.87850E+01 1.56973E+01 0.00000E+00
 -1      3877 2.72850E+01 1.56973E+01 0.00000E+00
 -1      3878 2.95350E+01 1.69963E+01 0.00000E+00
 -1      3879 1.30514E+02 2.85494E+01 0.00000E+00
 -1      3880 1.29808E+02 2.01128E+01 0.00000E+00
 -1      3881 1.30867E+02 2.10082E+01 0.00000E+00
 -1      3882 9.01500E+01 3.18140E+01 0.00000E+00
 -1      3883 2.65350E+01 1.69963E+01 0.00000E+00
 -1      3884 1.32708E+02 3.28018E+01 0.00000E+00
 -1      3885 1.30733E+02 2.46856E+01 0.00000E+00
 -1      3886 4.67850E+01 1.56973E+01 0.00000E+00
 -1      3887 4.52850E+01 1.56973E+01 0.00000E+00
 -1      3888 4.75350E+01 1.69963E+01 0.00000E+00
 -1      3889 1.32794E+02 1.86157E+01 0.00000E+00
 -1      3890 1.31627E+02 1.83350E+01 0.00000E+00
 -1      3891 4.45350E+01 1.69963E+01 0.00000E+00
 -1      3892 1.69469E+01 2.40310E+01 0.00000E+00
 -1      3893 1.70796E+01 2.53525E+01 0.00000E+00
 -1      3894 9.31166E+01 3.05516E+01 0.00000E+00
 -1      3895 9.35274E+01 2.91697E+01 0.00000E+00
 -1      3896 9.23879E+01 2.84310E+01 0.00000E+00
 -1      3897 9.18960E+01 3.06863E+01 0.00000E+00
 -1      3898 2.71500E+01 3.18140E+01 0.00000E+00
 -1      3899 1.32660E+02 2.81743E+01 0.00000E+00
 -1      3900 1.32660E+02 2.66993E+01 0.00000E+00
 -1      3901 1.69469E+01 2.10872E+01 0.00000E+00
 -1      3902 1.69469E+01 2.25591E+01 0.00000E+00
 -1      3903 1.83057E+01 2.30900E+01 0.00000E+00
 -1      3904 1.28001E+02 1.75463E+01 0.00000E+00
 -1      3905 1.29025E+02 1.91552E+01 0.00000E+00
 -1      3906 1.32794E+02 2.00828E+01 0.00000E+00
 -1      3907 1.73115E+01 1.58325E+01 0.00000E+00
 -1      3908 1.73115E+01 1.73044E+01 0.00000E+00
 -1      3909 1.30393E+02 1.86112E+01 0.00000E+00
 -1      3910 2.72850E+01 1.82952E+01 0.00000E+00
 -1      3911 2.57850E+01 1.82952E+01 0.00000E+00
 -1      3912 3.24000E+01 3.05150E+01 0.00000E+00
 -1      3913 3.39000E+01 3.05150E+01 0.00000E+00
 -1      3914 3.54000E+01 3.05150E+01 0.00000E+00
 -1      3915 3.69000E+01 3.05150E+01 0.00000E+00
 -1      3916 3.46500E+01 2.92160E+01 0.00000E+00
 -1      3917 3.84000E+01 3.05150E+01 0.00000E+00
 -1      3918 3.99000E+01 3.05150E+01 0.00000E+00
 -1      3919 3.76500E+01 2.92160E+01 0.00000E+00
 -1      3920 4.14000E+01 3.05150E+01 0.00000E+00
 -1      3921 4.29000E+01 3.05150E+01 0.00000E+00
 -1      3922 4.06500E+01 2.92160E+01 0.00000E+00
 -1      3923 4.44000E+01 3.05150E+01 0.00000E+00
 -1      3924 4.59000E+01 3.05150E+01 0.00000E+00
 -1      3925 4.36500E+01 2.92160E+01 0.00000E+00
 -1      3926 4.74000E+01 3.05150E+01 0.00000E+00
 -1      3927 4.89000E+01 3.05150E+01 0.00000E+00
 -1      3928 4.66500E+01 2.92160E+01 0.00000E+00
 -1      3929 5.04000E+01 3.05150E+01 0.00000E+00
 -1      3930 5.19000E+01 3.05150E+01 0.00000E+00
 -1      3931 4.96500E+01 2.92160E+01 0.00000E+00
 -1      3932 5.34000E+01 3.05150E+01 0.00000E+00
 -1      3933 5.49000E+01 3.05150E+01 0.00000E+00
 -1      3934 5.26500E+01 2.92160E+01 0.00000E+00
 -1      3935 5.64000E+01 3.05150E+01 0.00000E+00
 -1      3936 5.79000E+01 3.05150E+01 0.00000E+00
 -1      3937 5.56500E+01 2.92160E+01 0.00000E+00
 -1      3938 5.94000E+01 3.05150E+01 0.00000E+00
 -1      3939 6.09000E+01 3.05150E+01 0.00000E+00
 -1      3940 5.86500E+01 2.92160E+01 0.00000E+00
 -1      3941 6.24000E+01 3.05150E+01 0.00000E+00
 -1      3942 6.39000E+01 3.05150E+01 0.00000E+00
 -1      3943 6.16500E+01 2.92160E+01 0.00000E+00
 -1      3944 6.54000E+01 3.05150E+01 0.00000E+00
 -1      3945 6.69000E+01 3.05150E+01 0.00000E+00
 -1      3946 6.46500E+01 2.92160E+01 0.00000E+00
 -1      3947 6.84000E+01 3.05150E+01 0.00000E+00
 -1      3948 6.99000E+01 3.05150E+01 0.00000E+00
 -1      3949 6.76500E+01 2.92160E+01 0.00000E+00
 -1      3950 7.14000E+01 3.05150E+01 0.00000E+00
 -1      3951 7.29000E+01 3.05150E+01 0.00000E+00
 -1      3952 7.06500E+01 2.92160E+01 0.00000E+00
 -1      3953 7.44000E+01 3.05150E+01 0.00000E+00
 -1      3954 7.59000E+01 3.05150E+01 0.00000E+00
 -1      3955 7.36500E+01 2.92160E+01 0.00000E+00
 -1      3956 7.74000E+01 3.05150E+01 0.00000E+00
 -1      3957 7.89000E+01 3.05150E+01 0.00000E+00
 -1      3958 7.66500E+01 2.92160E+01 0.00000E+00
 -1      3959 8.04000E+01 3.05150E+01 0.00000E+00
 -1      3960 8.19000E+01 3.05150E+01 0.00000E+00
 -1      3961 7.96500E+01 2.92160E+01 0.00000E+00
 -1      3962 8.34000E+01 3.05150E+01 0.00000E+00
 -1      3963 8.49000E+01 3.05150E+01 0.00000E+00
 -1      3964 8.26500E+01 2.92160E+01 0.00000E+00
 -1      3965 8.64000E+01 3.05150E+01 0.00000E+00
 -1      3966 8.79000E+01 3.05150E+01 0.00000E+00
 -1      3967 8.56500E+01 2.92160E+01 0.00000E+00
 -1      3968 6.32850E+01 1.82952E+01 0.00000E+00
 -1      3969 6.17850E+01 1.82952E+01 0.00000E+00
 -1      3970 1.28037E+02 3.39594E+01 0.00000E+00
 -1      3971 3.77850E+01 1.56973E+01 0.00000E+00
 -1      3972 3.62850E+01 1.56973E+01 0.00000E+00
 -1      3973 3.55350E+01 1.69963E+01 0.00000E+00
 -1      3974 3.85350E+01 1.69963E+01 0.00000E+00
 -1      3975 3.02850E+01 1.82952E+01 0.00000E+00
 -1      3976 2.87850E+01 1.82952E+01 0.00000E+00
 -1      3977 2.80350E+01 1.95942E+01 0.00000E+00
 -1      3978 5.72850E+01 1.82952E+01 0.00000E+00
 -1      3979 5.57850E+01 1.82952E+01 0.00000E+00
 -1      3980 2.12850E+01 1.82953E+01 0.00000E+00
 -1      3981 1.97851E+01 1.82953E+01 0.00000E+00
 -1      3982 6.02850E+01 1.82952E+01 0.00000E+00
 -1      3983 5.87850E+01 1.82952E+01 0.00000E+00
 -1      3984 6.10350E+01 1.95942E+01 0.00000E+00
 -1      3985 5.42850E+01 1.82952E+01 0.00000E+00
 -1      3986 5.27850E+01 1.82952E+01 0.00000E+00
 -1      3987 5.50350E+01 1.95942E+01 0.00000E+00
 -1      3988 6.62850E+01 1.82952E+01 0.00000E+00
 -1      3989 6.47850E+01 1.82952E+01 0.00000E+00
 -1      3990 6.40350E+01 1.95942E+01 0.00000E+00
 -1      3991 6.92850E+01 1.82952E+01 0.00000E+00
 -1      3992 6.77850E+01 1.82952E+01 0.00000E+00
 -1      3993 6.70350E+01 1.95942E+01 0.00000E+00
 -1      3994 7.22850E+01 1.82952E+01 0.00000E+00
 -1      3995 7.07850E+01 1.82952E+01 0.00000E+00
 -1      3996 7.00350E+01 1.95942E+01 0.00000E+00
 -1      3997 7.52850E+01 1.82952E+01 0.00000E+00
 -1      3998 7.37850E+01 1.82952E+01 0.00000E+00
 -1      3999 7.30350E+01 1.95942E+01 0.00000E+00
 -1      4000 7.82850E+01 1.82952E+01 0.00000E+00
 -1      4001 7.67850E+01 1.82952E+01 0.00000E+00
 -1      4002 7.60350E+01 1.95942E+01 0.00000E+00
 -1      4003 8.12850E+01 1.82952E+01 0.00000E+00
 -1      4004 7.97850E+01 1.82952E+01 0.00000E+00
 -1      4005 7.90350E+01 1.95942E+01 0.00000E+00
 -1      4006 8.42850E+01 1.82952E+01 0.00000E+00
 -1      4007 8.27850E+01 1.82952E+01 0.00000E+00
 -1      4008 8.20350E+01 1.95942E+01 0.00000E+00
 -1      4009 8.72850E+01 1.82952E+01 0.00000E+00
 -1      4010 8.57850E+01 1.82952E+01 0.00000E+00
 -1      4011 8.50350E+01 1.95942E+01 0.00000E+00
 -1      4012 9.02850E+01 1.82952E+01 0.00000E+00
 -1      4013 8.87850E+01 1.82952E+01 0.00000E+00
 -1      4014 8.80350E+01 1.95942E+01 0.00000E+00
 -1      4015 9.26641E+01 1.83579E+01 0.00000E+00
 -1      4016 9.14745E+01 1.83266E+01 0.00000E+00
 -1      4017 9.07245E+01 1.96256E+01 0.00000E+00
 -1      4018 9.31036E+01 1.96883E+01 0.00000E+00
 -1      4019 1.30385E+02 3.11848E+01 0.00000E+00
 -1      4020 2.64000E+01 3.05150E+01 0.00000E+00
 -1      4021 2.79000E+01 3.05150E+01 0.00000E+00
 -1      4022 8.91480E+01 3.06007E+01 0.00000E+00
 -1      4023 9.06480E+01 3.06007E+01 0.00000E+00
 -1      4024 9.08939E+01 2.94730E+01 0.00000E+00
 -1      4025 8.83980E+01 2.93017E+01 0.00000E+00
 -1      4026 4.52850E+01 1.82952E+01 0.00000E+00
 -1      4027 4.37850E+01 1.82952E+01 0.00000E+00
 -1      4028 2.42850E+01 1.82953E+01 0.00000E+00
 -1      4029 2.27850E+01 1.82953E+01 0.00000E+00
 -1      4030 2.20350E+01 1.95943E+01 0.00000E+00
 -1      4031 2.50350E+01 1.95943E+01 0.00000E+00
 -1      4032 1.28537E+02 1.67861E+01 0.00000E+00
 -1      4033 2.04000E+01 3.05150E+01 0.00000E+00
 -1      4034 2.19000E+01 3.05150E+01 0.00000E+00
 -1      4035 1.32484E+02 2.15223E+01 0.00000E+00
 -1      4036 1.83012E+01 2.57431E+01 0.00000E+00
 -1      4037 1.70751E+01 2.65337E+01 0.00000E+00
 -1      4038 1.70706E+01 2.77149E+01 0.00000E+00
 -1      4039 1.84669E+01 1.55475E+01 0.00000E+00
 -1      4040 2.34000E+01 3.05150E+01 0.00000E+00
 -1      4041 2.49000E+01 3.05150E+01 0.00000E+00
 -1      4042 2.26500E+01 2.92160E+01 0.00000E+00
 -1      4043 1.32484E+02 2.29894E+01 0.00000E+00
 -1      4044 2.94000E+01 3.05150E+01 0.00000E+00
 -1      4045 3.09000E+01 3.05150E+01 0.00000E+00
 -1      4046 3.16500E+01 2.92160E+01 0.00000E+00
 -1      4047 4.30350E+01 1.95942E+01 0.00000E+00
 -1      4048 4.22850E+01 1.82952E+01 0.00000E+00
 -1      4049 4.07850E+01 1.82952E+01 0.00000E+00
 -1      4050 5.12850E+01 1.82952E+01 0.00000E+00
 -1      4051 4.97850E+01 1.82952E+01 0.00000E+00
 -1      4052 5.20350E+01 1.95942E+01 0.00000E+00
 -1      4053 1.69321E+01 2.88191E+01 0.00000E+00
 -1      4054 1.69276E+01 3.00002E+01 0.00000E+00
 -1      4055 1.78812E+01 3.02368E+01 0.00000E+00
 -1      4056 1.81582E+01 2.80284E+01 0.00000E+00
 -1      4057 5.80350E+01 1.95942E+01 0.00000E+00
 -1      4058 3.17850E+01 1.82952E+01 0.00000E+00
 -1      4059 3.10350E+01 1.95942E+01 0.00000E+00
 -1      4060 3.32850E+01 1.82952E+01 0.00000E+00
 -1      4061 9.22571E+01 2.05053E+01 0.00000E+00
 -1      4062 2.56500E+01 2.92160E+01 0.00000E+00
 -1      4063 1.31361E+02 2.59633E+01 0.00000E+00
 -1      4064 9.19422E+01 2.33149E+01 0.00000E+00
 -1      4065 9.15237E+01 2.21815E+01 0.00000E+00
 -1      4066 9.08657E+01 2.41428E+01 0.00000E+00
 -1      4067 4.67850E+01 1.82952E+01 0.00000E+00
 -1      4068 4.60350E+01 1.95942E+01 0.00000E+00
 -1      4069 4.82850E+01 1.82952E+01 0.00000E+00
 -1      4070 2.86500E+01 2.92160E+01 0.00000E+00
 -1      4071 1.84019E+01 1.84291E+01 0.00000E+00
 -1      4072 1.66784E+01 1.87372E+01 0.00000E+00
 -1      4073 9.13035E+01 2.84452E+01 0.00000E+00
 -1      4074 9.15495E+01 2.73175E+01 0.00000E+00
 -1      4075 9.08747E+01 2.63039E+01 0.00000E+00
 -1      4076 9.00555E+01 2.83595E+01 0.00000E+00
 -1      4077 1.88349E+01 3.04733E+01 0.00000E+00
 -1      4078 1.95849E+01 2.91743E+01 0.00000E+00
 -1      4079 1.96025E+01 2.51574E+01 0.00000E+00
 -1      4080 1.95980E+01 2.63386E+01 0.00000E+00
 -1      4081 1.66784E+01 2.02090E+01 0.00000E+00
 -1      4082 1.30843E+02 1.73774E+01 0.00000E+00
 -1      4083 1.96025E+01 2.22137E+01 0.00000E+00
 -1      4084 1.96025E+01 2.36856E+01 0.00000E+00
 -1      4085 2.08992E+01 2.42811E+01 0.00000E+00
 -1      4086 1.80372E+01 2.07400E+01 0.00000E+00
 -1      4087 1.91519E+01 1.97281E+01 0.00000E+00
 -1      4088 1.97234E+01 2.80701E+01 0.00000E+00
 -1      4089 3.69000E+01 2.79170E+01 0.00000E+00
 -1      4090 3.84000E+01 2.79170E+01 0.00000E+00
 -1      4091 3.99000E+01 2.79170E+01 0.00000E+00
 -1      4092 4.14000E+01 2.79170E+01 0.00000E+00
 -1      4093 3.91500E+01 2.66180E+01 0.00000E+00
 -1      4094 4.29000E+01 2.79170E+01 0.00000E+00
 -1      4095 4.44000E+01 2.79170E+01 0.00000E+00
 -1      4096 4.21500E+01 2.66180E+01 0.00000E+00
 -1      4097 4.59000E+01 2.79170E+01 0.00000E+00
 -1      4098 4.74000E+01 2.79170E+01 0.00000E+00
 -1      4099 4.51500E+01 2.66180E+01 0.00000E+00
 -1      4100 4.89000E+01 2.79170E+01 0.00000E+00
 -1      4101 5.04000E+01 2.79170E+01 0.00000E+00
 -1      4102 4.81500E+01 2.66180E+01 0.00000E+00
 -1      4103 5.19000E+01 2.79170E+01 0.00000E+00
 -1      4104 5.34000E+01 2.79170E+01 0.00000E+00
 -1      4105 5.11500E+01 2.66180E+01 0.00000E+00
 -1      4106 5.49000E+01 2.79170E+01 0.00000E+00
 -1      4107 5.64000E+01 2.79170E+01 0.00000E+00
 -1      4108 5.41500E+01 2.66180E+01 0.00000E+00
 -1      4109 5.79000E+01 2.79170E+01 0.00000E+00
 -1      4110 5.94000E+01 2.79170E+01 0.00000E+00
 -1      4111 5.71500E+01 2.66180E+01 0.00000E+00
 -1      4112 6.09000E+01 2.79170E+01 0.00000E+00
 -1      4113 6.24000E+01 2.79170E+01 0.00000E+00
 -1      4114 6.01500E+01 2.66180E+01 0.00000E+00
 -1      4115 6.39000E+01 2.79170E+01 0.00000E+00
 -1      4116 6.54000E+01 2.79170E+01 0.00000E+00
 -1      4117 6.31500E+01 2.66180E+01 0.00000E+00
 -1      4118 6.69000E+01 2.79170E+01 0.00000E+00
 -1      4119 6.84000E+01 2.79170E+01 0.00000E+00
 -1      4120 6.61500E+01 2.66180E+01 0.00000E+00
 -1      4121 6.99000E+01 2.79170E+01 0.00000E+00
 -1      4122 7.14000E+01 2.79170E+01 0.00000E+00
 -1      4123 6.91500E+01 2.66180E+01 0.00000E+00
 -1      4124 7.29000E+01 2.79170E+01 0.00000E+00
 -1      4125 7.44000E+01 2.79170E+01 0.00000E+00
 -1      4126 7.21500E+01 2.66180E+01 0.00000E+00
 -1      4127 7.59000E+01 2.79170E+01 0.00000E+00
 -1      4128 7.74000E+01 2.79170E+01 0.00000E+00
 -1      4129 7.51500E+01 2.66180E+01 0.00000E+00
 -1      4130 7.89000E+01 2.79170E+01 0.00000E+00
 -1      4131 8.04000E+01 2.79170E+01 0.00000E+00
 -1      4132 7.81500E+01 2.66180E+01 0.00000E+00
 -1      4133 8.19000E+01 2.79170E+01 0.00000E+00
 -1      4134 8.34000E+01 2.79170E+01 0.00000E+00
 -1      4135 8.11500E+01 2.66180E+01 0.00000E+00
 -1      4136 8.49000E+01 2.79170E+01 0.00000E+00
 -1      4137 8.64000E+01 2.79170E+01 0.00000E+00
 -1      4138 8.41500E+01 2.66180E+01 0.00000E+00
 -1      4139 6.77850E+01 2.08932E+01 0.00000E+00
 -1      4140 6.62850E+01 2.08932E+01 0.00000E+00
 -1      4141 2.10246E+01 2.74845E+01 0.00000E+00
 -1      4142 6.17850E+01 2.08932E+01 0.00000E+00
 -1      4143 6.02850E+01 2.08932E+01 0.00000E+00
 -1      4144 5.57850E+01 2.08932E+01 0.00000E+00
 -1      4145 5.42850E+01 2.08932E+01 0.00000E+00
 -1      4146 7.07850E+01 2.08932E+01 0.00000E+00
 -1      4147 6.92850E+01 2.08932E+01 0.00000E+00
 -1      4148 6.85350E+01 2.21922E+01 0.00000E+00
 -1      4149 7.37850E+01 2.08932E+01 0.00000E+00
 -1      4150 7.22850E+01 2.08932E+01 0.00000E+00
 -1      4151 7.15350E+01 2.21922E+01 0.00000E+00
 -1      4152 7.67850E+01 2.08932E+01 0.00000E+00
 -1      4153 7.52850E+01 2.08932E+01 0.00000E+00
 -1      4154 7.45350E+01 2.21922E+01 0.00000E+00
 -1      4155 7.97850E+01 2.08932E+01 0.00000E+00
 -1      4156 7.82850E+01 2.08932E+01 0.00000E+00
 -1      4157 7.75350E+01 2.21922E+01 0.00000E+00
 -1      4158 8.27850E+01 2.08932E+01 0.00000E+00
 -1      4159 8.12850E+01 2.08932E+01 0.00000E+00
 -1      4160 8.05350E+01 2.21922E+01 0.00000E+00
 -1      4161 8.57850E+01 2.08932E+01 0.00000E+00
 -1      4162 8.42850E+01 2.08932E+01 0.00000E+00
 -1      4163 8.35350E+01 2.21922E+01 0.00000E+00
 -1      4164 3.39000E+01 2.79170E+01 0.00000E+00
 -1      4165 3.54000E+01 2.79170E+01 0.00000E+00
 -1      4166 3.61500E+01 2.66180E+01 0.00000E+00
 -1      4167 1.29690E+02 1.70818E+01 0.00000E+00
 -1      4168 2.49000E+01 2.79170E+01 0.00000E+00
 -1      4169 2.64000E+01 2.79170E+01 0.00000E+00
 -1      4170 2.79000E+01 2.79170E+01 0.00000E+00
 -1      4171 2.94000E+01 2.79170E+01 0.00000E+00
 -1      4172 2.71500E+01 2.66180E+01 0.00000E+00
 -1      4173 6.47850E+01 2.08932E+01 0.00000E+00
 -1      4174 6.32850E+01 2.08932E+01 0.00000E+00
 -1      4175 6.55350E+01 2.21922E+01 0.00000E+00
 -1      4176 1.94204E+01 2.06062E+01 0.00000E+00
 -1      4177 3.09000E+01 2.79170E+01 0.00000E+00
 -1      4178 3.24000E+01 2.79170E+01 0.00000E+00
 -1      4179 3.01500E+01 2.66180E+01 0.00000E+00
 -1      4180 2.22123E+01 2.77007E+01 0.00000E+00
 -1      4181 2.37123E+01 2.77007E+01 0.00000E+00
 -1      4182 2.44623E+01 2.64017E+01 0.00000E+00
 -1      4183 2.20869E+01 2.59692E+01 0.00000E+00
 -1      4184 5.87850E+01 2.08932E+01 0.00000E+00
 -1      4185 5.72850E+01 2.08932E+01 0.00000E+00
 -1      4186 5.65350E+01 2.21922E+01 0.00000E+00
 -1      4187 5.95350E+01 2.21922E+01 0.00000E+00
 -1      4188 9.11806E+01 2.13332E+01 0.00000E+00
 -1      4189 9.08376E+01 2.04848E+01 0.00000E+00
 -1      4190 9.01041E+01 2.21611E+01 0.00000E+00
 -1      4191 2.87850E+01 2.08932E+01 0.00000E+00
 -1      4192 2.72850E+01 2.08932E+01 0.00000E+00
 -1      4193 2.07171E+01 2.12017E+01 0.00000E+00
 -1      4194 5.27850E+01 2.08932E+01 0.00000E+00
 -1      4195 5.12850E+01 2.08932E+01 0.00000E+00
 -1      4196 5.35350E+01 2.21922E+01 0.00000E+00
 -1      4197 4.37850E+01 2.08932E+01 0.00000E+00
 -1      4198 4.22850E+01 2.08932E+01 0.00000E+00
 -1      4199 3.02850E+01 2.08932E+01 0.00000E+00
 -1      4200 2.95350E+01 2.21922E+01 0.00000E+00
 -1      4201 3.17850E+01 2.08932E+01 0.00000E+00
 -1      4202 1.31185E+02 2.37254E+01 0.00000E+00
 -1      4203 3.47850E+01 1.82952E+01 0.00000E+00
 -1      4204 3.40350E+01 1.95942E+01 0.00000E+00
 -1      4205 3.62850E+01 1.82952E+01 0.00000E+00
 -1      4206 4.90350E+01 1.95942E+01 0.00000E+00
 -1      4207 4.52850E+01 2.08932E+01 0.00000E+00
 -1      4208 4.45350E+01 2.21922E+01 0.00000E+00
 -1      4209 4.67850E+01 2.08932E+01 0.00000E+00
 -1      4210 3.31500E+01 2.66180E+01 0.00000E+00
 -1      4211 8.87850E+01 2.08932E+01 0.00000E+00
 -1      4212 8.72850E+01 2.08932E+01 0.00000E+00
 -1      4213 8.96480E+01 2.04535E+01 0.00000E+00
 -1      4214 9.04562E+01 2.51706E+01 0.00000E+00
 -1      4215 9.00376E+01 2.40372E+01 0.00000E+00
 -1      4216 9.00466E+01 2.61984E+01 0.00000E+00
 -1      4217 2.65350E+01 2.21923E+01 0.00000E+00
 -1      4218 2.57850E+01 2.08933E+01 0.00000E+00
 -1      4219 2.42850E+01 2.08933E+01 0.00000E+00
 -1      4220 3.92850E+01 1.82952E+01 0.00000E+00
 -1      4221 3.77850E+01 1.82952E+01 0.00000E+00
 -1      4222 4.00350E+01 1.95942E+01 0.00000E+00
 -1      4223 2.22171E+01 2.12017E+01 0.00000E+00
 -1      4224 6.25350E+01 2.21922E+01 0.00000E+00
 -1      4225 8.65350E+01 2.21922E+01 0.00000E+00
 -1      4226 8.76038E+01 2.80954E+01 0.00000E+00
 -1      4227 8.88518E+01 2.81811E+01 0.00000E+00
 -1      4228 8.92614E+01 2.71533E+01 0.00000E+00
 -1      4229 8.68538E+01 2.67964E+01 0.00000E+00
 -1      4230 4.14000E+01 2.53190E+01 0.00000E+00
 -1      4231 4.29000E+01 2.53190E+01 0.00000E+00
 -1      4232 4.48425E+01 2.44051E+01 0.00000E+00
 -1      4233 4.63425E+01 2.44051E+01 0.00000E+00
 -1      4234 5.04000E+01 2.53190E+01 0.00000E+00
 -1      4235 5.19000E+01 2.53190E+01 0.00000E+00
 -1      4236 5.38425E+01 2.44051E+01 0.00000E+00
 -1      4237 5.53425E+01 2.44051E+01 0.00000E+00
 -1      4238 5.68425E+01 2.44051E+01 0.00000E+00
 -1      4239 5.83425E+01 2.44051E+01 0.00000E+00
 -1      4240 5.98425E+01 2.44051E+01 0.00000E+00
 -1      4241 6.13425E+01 2.44051E+01 0.00000E+00
 -1      4242 6.28425E+01 2.44051E+01 0.00000E+00
 -1      4243 6.43425E+01 2.44051E+01 0.00000E+00
 -1      4244 6.58425E+01 2.44051E+01 0.00000E+00
 -1      4245 6.73425E+01 2.44051E+01 0.00000E+00
 -1      4246 6.88425E+01 2.44051E+01 0.00000E+00
 -1      4247 7.03425E+01 2.44051E+01 0.00000E+00
 -1      4248 7.18425E+01 2.44051E+01 0.00000E+00
 -1      4249 7.33425E+01 2.44051E+01 0.00000E+00
 -1      4250 7.48425E+01 2.44051E+01 0.00000E+00
 -1      4251 7.63425E+01 2.44051E+01 0.00000E+00
 -1      4252 7.78425E+01 2.44051E+01 0.00000E+00
 -1      4253 7.93425E+01 2.44051E+01 0.00000E+00
 -1      4254 8.08425E+01 2.44051E+01 0.00000E+00
 -1      4255 8.23425E+01 2.44051E+01 0.00000E+00
 -1      4256 8.38425E+01 2.44051E+01 0.00000E+00
 -1      4257 8.53425E+01 2.44051E+01 0.00000E+00
 -1      4258 4.15350E+01 2.21922E+01 0.00000E+00
 -1      4259 4.07850E+01 2.08932E+01 0.00000E+00
 -1      4260 3.92850E+01 2.08932E+01 0.00000E+00
 -1      4261 3.54000E+01 2.53190E+01 0.00000E+00
 -1      4262 3.69000E+01 2.53190E+01 0.00000E+00
 -1      4263 2.68425E+01 2.44051E+01 0.00000E+00
 -1      4264 2.83425E+01 2.44051E+01 0.00000E+00
 -1      4265 2.41548E+01 2.41889E+01 0.00000E+00
 -1      4266 2.53425E+01 2.44051E+01 0.00000E+00
 -1      4267 2.98425E+01 2.44051E+01 0.00000E+00
 -1      4268 3.84000E+01 2.53190E+01 0.00000E+00
 -1      4269 3.99000E+01 2.53190E+01 0.00000E+00
 -1      4270 4.06500E+01 2.40200E+01 0.00000E+00
 -1      4271 3.76500E+01 2.40200E+01 0.00000E+00
 -1      4272 3.13425E+01 2.44051E+01 0.00000E+00
 -1      4273 2.17258E+01 2.45831E+01 0.00000E+00
 -1      4274 2.29135E+01 2.47994E+01 0.00000E+00
 -1      4275 4.97850E+01 2.08932E+01 0.00000E+00
 -1      4276 4.82850E+01 2.08932E+01 0.00000E+00
 -1      4277 5.05350E+01 2.21922E+01 0.00000E+00
 -1      4278 3.26213E+01 2.48621E+01 0.00000E+00
 -1      4279 3.41213E+01 2.48621E+01 0.00000E+00
 -1      4280 3.48713E+01 2.35631E+01 0.00000E+00
 -1      4281 3.23138E+01 2.26492E+01 0.00000E+00
 -1      4282 2.17258E+01 2.31112E+01 0.00000E+00
 -1      4283 8.68425E+01 2.44051E+01 0.00000E+00
 -1      4284 4.74000E+01 2.53190E+01 0.00000E+00
 -1      4285 4.89000E+01 2.53190E+01 0.00000E+00
 -1      4286 3.70350E+01 1.95942E+01 0.00000E+00
 -1      4287 4.25925E+01 2.31061E+01 0.00000E+00
 -1      4288 4.10925E+01 2.31061E+01 0.00000E+00
 -1      4289 8.88428E+01 2.60199E+01 0.00000E+00
 -1      4290 8.88980E+01 2.17525E+01 0.00000E+00
 -1      4291 8.92411E+01 2.26008E+01 0.00000E+00
 -1      4292 8.88315E+01 2.36286E+01 0.00000E+00
 -1      4293 4.96500E+01 2.40200E+01 0.00000E+00
 -1      4294 4.70925E+01 2.31061E+01 0.00000E+00
 -1      4295 2.37937E+01 2.28028E+01 0.00000E+00
 -1      4296 5.30925E+01 2.31061E+01 0.00000E+00
 -1      4297 8.76390E+01 2.58415E+01 0.00000E+00
 -1      4298 3.30638E+01 2.13502E+01 0.00000E+00
 -1      4299 3.45638E+01 2.13502E+01 0.00000E+00
 -1      4300 2.29671E+01 2.25007E+01 0.00000E+00
 -1      4301 4.40925E+01 2.31061E+01 0.00000E+00
 -1      4302 3.73425E+01 2.18071E+01 0.00000E+00
 -1      4303 3.58425E+01 2.18071E+01 0.00000E+00
 -1      4304 3.95925E+01 2.31061E+01 0.00000E+00
 -1      4305 4.75350E+01 2.21922E+01 0.00000E+00
 -1      4306 4.85925E+01 2.31061E+01 0.00000E+00
 -1      4307 5.00925E+01 2.31061E+01 0.00000E+00
 -1      4308 3.80925E+01 2.31061E+01 0.00000E+00
 -1      4309 5.15925E+01 2.31061E+01 0.00000E+00
 -3
    3C                          2073                                     1
 -1       164    8    0    1
 -2         6         7        23      1119      1282      1136
 -1       165    8    0    1
 -2         7         8       164      1120      1283      1284
 -1       166    8    0    1
 -2         8         9       165      1121      1285      1286
 -1       167    8    0    1
 -2         8       165       164      1286      1287      1283
 -1       168    8    0    1
 -2         9        10       166      1122      1288      1289
 -1       169    8    0    1
 -2         9       166       165      1289      1290      1285
 -1       170    8    0    1
 -2        10        11       167      1123      1291      1292
 -1       171    8    0    1
 -2        10       167       166      1292      1293      1288
 -1       172    8    0    1
 -2        11        12       168      1124      1294      1295
 -1       173    8    0    1
 -2        11       168       167      1295      1296      1291
 -1       174    8    0    1
 -2        12        13       169      1125      1297      1298
 -1       175    8    0    1
 -2        12       169       168      1298      1299      1294
 -1       176    8    0    1
 -2        13        14       170      1126      1300      1301
 -1       177    8    0    1
 -2        13       170       169      1301      1302      1297
 -1       178    8    0    1
 -2        14        15       171      1127      1303      1304
 -1       179    8    0    1
 -2        14       171       170      1304      1305      1300
 -1       180    8    0    1
 -2        15        16       172      1128      1306      1307
 -1       181    8    0    1
 -2        15       172       171      1307      1308      1303
 -1       182    8    0    1
 -2        16        17       173      1129      1309      1310
 -1       183    8    0    1
 -2        16       173       172      1310      1311      1306
 -1       184    8    0    1
 -2        17        18       174      1130      1312      1313
 -1       185    8    0    1
 -2        17       174       173      1313      1314      1309
 -1       186    8    0    1
 -2        18        19       175      1131      1315      1316
 -1       187    8    0    1
 -2        18       175       174      1316      1317      1312
 -1       188    8    0    1
 -2        19        20       176      1132      1318      1319
 -1       189    8    0    1
 -2        19       176       175      1319      1320      1315
 -1       190    8    0    1
 -2        20        21       177      1133      1321      1322
 -1       191    8    0    1
 -2        20       177       176      1322      1323      1318
 -1       192    8    0    1
 -2        21        22       178      1134      1324      1325
 -1       193    8    0    1
 -2        21       178       177      1325      1326      1321
 -1       194    8    0    1
 -2        22         5       179      1135      1327      1328
 -1       195    8    0    1
 -2       178        22       179      1324      1328      1329
 -1       196    8    0    1
 -2         5        72       179      1186      1330      1327
 -1       197    8    0    1
 -2        24        23       180      1137      1331      1332
 -1       198    8    0    1
 -2        25        24       181      1138      1333      1334
 -1       199    8    0    1
 -2        24       180       181      1332      1335      1333
 -1       200    8    0    1
 -2        26        25       182      1139      1336      1337
 -1       201    8    0    1
 -2        25       181       182      1334      1338      1336
 -1       202    8    0    1
 -2        27        26       183      1140      1339      1340
 -1       203    8    0    1
 -2        26       182       183      1337      1341      1339
 -1       204    8    0    1
 -2        28        27       184      1141      1342      1343
 -1       205    8    0    1
 -2        27       183       184      1340      1344      1342
 -1       206    8    0    1
 -2        29        28       185      1142      1345      1346
 -1       207    8    0    1
 -2        28       184       185      1343      1347      1345
 -1       208    8    0    1
 -2        30        29       186      1143      1348      1349
 -1       209    8    0    1
 -2        29       185       186      1346      1350      1348
 -1       210    8    0    1
 -2        31        30       187      1144      1351      1352
 -1       211    8    0    1
 -2        30       186       187      1349      1353      1351
 -1       212    8    0    1
 -2        32        31       188      1145      1354      1355
 -1       213    8    0    1
 -2        31       187       188      1352      1356      1354
 -1       214    8    0    1
 -2        33        32       189      1146      1357      1358
 -1       215    8    0    1
 -2        32       188       189      1355      1359      1357
 -1       216    8    0    1
 -2        34        33       190      1147      1360      1361
 -1       217    8    0    1
 -2        33       189       190      1358      1362      1360
 -1       218    8    0    1
 -2        35        34       191      1148      1363      1364
 -1       219    8    0    1
 -2        34       190       191      1361      1365      1363
 -1       220    8    0    1
 -2        36        35       192      1149      1366      1367
 -1       221    8    0    1
 -2        35       191       192      1364      1368      1366
 -1       222    8    0    1
 -2        37        36       193      1150      1369      1370
 -1       223    8    0    1
 -2        36       192       193      1367      1371      1369
 -1       224    8    0    1
 -2        38        37       194      1151      1372      1373
 -1       225    8    0    1
 -2        37       193       194      1370      1374      1372
 -1       226    8    0    1
 -2        39        38       195      1152      1375      1376
 -1       227    8    0    1
 -2        38       194       195      1373      1377      1375
 -1       228    8    0    1
 -2        40        39       196      1153      1378      1379
 -1       229    8    0    1
 -2        39       195       196      1376      1380      1378
 -1       230    8    0    1
 -2        41        40       197      1154      1381      1382
 -1       231    8    0    1
 -2        40       196       197      1379      1383      1381
 -1       232    8    0    1
 -2        42        41       198      1155      1384      1385
 -1       233    8    0    1
 -2        41       197       198      1382      1386      1384
 -1       234    8    0    1
 -2        43        42       199      1156      1387      1388
 -1       235    8    0    1
 -2        42       198       199      1385      1389      1387
 -1       236    8    0    1
 -2        44        43       200      1157      1390      1391
 -1       237    8    0    1
 -2        43       199       200      1388      1392      1390
 -1       238    8    0    1
 -2        45        44       201      1158      1393      1394
 -1       239    8    0    1
 -2        44       200       201      1391      1395      1393
 -1       240    8    0    1
 -2        46        45       202      1159      1396      1397
 -1       241    8    0    1
 -2        45       201       202      1394      1398      1396
 -1       242    8    0    1
 -2        47        46       203      1160      1399      1400
 -1       243    8    0    1
 -2        46       202       203      1397      1401      1399
 -1       244    8    0    1
 -2        48        47       204      1161      1402      1403
 -1       245    8    0    1
 -2        47       203       204      1400      1404      1402
 -1       246    8    0    1
 -2        49        48       205      1162      1405      1406
 -1       247    8    0    1
 -2        48       204       205      1403      1407      1405
 -1       248    8    0    1
 -2        50        49       206      1163      1408      1409
 -1       249    8    0    1
 -2        49       205       206      1406      1410      1408
 -1       250    8    0    1
 -2        51        50       207      1164      1411      1412
 -1       251    8    0    1
 -2        50       206       207      1409      1413      1411
 -1       252    8    0    1
 -2        52        51       208      1165      1414      1415
 -1       253    8    0    1
 -2        51       207       208      1412      1416      1414
 -1       254    8    0    1
 -2        53        52       209      1166      1417      1418
 -1       255    8    0    1
 -2        52       208       209      1415      1419      1417
 -1       256    8    0    1
 -2        54        53       210      1167      1420      1421
 -1       257    8    0    1
 -2        53       209       210      1418      1422      1420
 -1       258    8    0    1
 -2        55        54       211      1168      1423      1424
 -1       259    8    0    1
 -2        54       210       211      1421      1425      1423
 -1       260    8    0    1
 -2        56        55       212      1169      1426      1427
 -1       261    8    0    1
 -2        55       211       212      1424      1428      1426
 -1       262    8    0    1
 -2        57        56       213      1170      1429      1430
 -1       263    8    0    1
 -2        56       212       213      1427      1431      1429
 -1       264    8    0    1
 -2        58        57       214      1171      1432      1433
 -1       265    8    0    1
 -2        57       213       214      1430      1434      1432
 -1       266    8    0    1
 -2        59        58       215      1172      1435      1436
 -1       267    8    0    1
 -2        58       214       215      1433      1437      1435
 -1       268    8    0    1
 -2        60        59       216      1173      1438      1439
 -1       269    8    0    1
 -2        59       215       216      1436      1440      1438
 -1       270    8    0    1
 -2        61        60       217      1174      1441      1442
 -1       271    8    0    1
 -2        60       216       217      1439      1443      1441
 -1       272    8    0    1
 -2        62        61       218      1175      1444      1445
 -1       273    8    0    1
 -2        61       217       218      1442      1446      1444
 -1       274    8    0    1
 -2        63        62       219      1176      1447      1448
 -1       275    8    0    1
 -2        62       218       219      1445      1449      1447
 -1       276    8    0    1
 -2        64        63       220      1177      1450      1451
 -1       277    8    0    1
 -2        63       219       220      1448      1452      1450
 -1       278    8    0    1
 -2        65        64       221      1178      1453      1454
 -1       279    8    0    1
 -2        64       220       221      1451      1455      1453
 -1       280    8    0    1
 -2        66        65       222      1179      1456      1457
 -1       281    8    0    1
 -2        65       221       222      1454      1458      1456
 -1       282    8    0    1
 -2        67        66       223      1180      1459      1460
 -1       283    8    0    1
 -2        66       222       223      1457      1461      1459
 -1       284    8    0    1
 -2        68        67       224      1181      1462      1463
 -1       285    8    0    1
 -2        67       223       224      1460      1464      1462
 -1       286    8    0    1
 -2        69        68       225      1182      1465      1466
 -1       287    8    0    1
 -2        68       224       225      1463      1467      1465
 -1       288    8    0    1
 -2        70        69       226      1183      1468      1469
 -1       289    8    0    1
 -2        69       225       226      1466      1470      1468
 -1       290    8    0    1
 -2        71        70       227      1184      1471      1472
 -1       291    8    0    1
 -2        70       226       227      1469      1473      1471
 -1       292    8    0    1
 -2         4        71       136      1185      1474      1252
 -1       293    8    0    1
 -2       136        71       227      1474      1472      1475
 -1       294    8    0    1
 -2        72        73       228      1187      1476      1477
 -1       295    8    0    1
 -2        72       228       179      1477      1478      1330
 -1       296    8    0    1
 -2        73        74       229      1188      1479      1480
 -1       297    8    0    1
 -2        73       229       228      1480      1481      1476
 -1       298    8    0    1
 -2        74        75       230      1189      1482      1483
 -1       299    8    0    1
 -2        74       230       229      1483      1484      1479
 -1       300    8    0    1
 -2        75        76       231      1190      1485      1486
 -1       301    8    0    1
 -2        75       231       230      1486      1487      1482
 -1       302    8    0    1
 -2        76        77       232      1191      1488      1489
 -1       303    8    0    1
 -2        76       232       231      1489      1490      1485
 -1       304    8    0    1
 -2        77        78       233      1192      1491      1492
 -1       305    8    0    1
 -2        77       233       232      1492      1493      1488
 -1       306    8    0    1
 -2        78        79       234      1193      1494      1495
 -1       307    8    0    1
 -2        78       234       233      1495      1496      1491
 -1       308    8    0    1
 -2        79        80       235      1194      1497      1498
 -1       309    8    0    1
 -2        79       235       234      1498      1499      1494
 -1       310    8    0    1
 -2        80        81       236      1195      1500      1501
 -1       311    8    0    1
 -2        80       236       235      1501      1502      1497
 -1       312    8    0    1
 -2        81        82       237      1196      1503      1504
 -1       313    8    0    1
 -2        81       237       236      1504      1505      1500
 -1       314    8    0    1
 -2        82        83       238      1197      1506      1507
 -1       315    8    0    1
 -2        82       238       237      1507      1508      1503
 -1       316    8    0    1
 -2        83        84       239      1198      1509      1510
 -1       317    8    0    1
 -2        83       239       238      1510      1511      1506
 -1       318    8    0    1
 -2        84        85       240      1199      1512      1513
 -1       319    8    0    1
 -2        84       240       239      1513      1514      1509
 -1       320    8    0    1
 -2        85        86       241      1200      1515      1516
 -1       321    8    0    1
 -2        85       241       240      1516      1517      1512
 -1       322    8    0    1
 -2        86        87       242      1201      1518      1519
 -1       323    8    0    1
 -2        86       242       241      1519      1520      1515
 -1       324    8    0    1
 -2        87        88       243      1202      1521      1522
 -1       325    8    0    1
 -2        87       243       242      1522      1523      1518
 -1       326    8    0    1
 -2        88        89       244      1203      1524      1525
 -1       327    8    0    1
 -2        88       244       243      1525      1526      1521
 -1       328    8    0    1
 -2        89        90       245      1204      1527      1528
 -1       329    8    0    1
 -2        89       245       244      1528      1529      1524
 -1       330    8    0    1
 -2        90        91       246      1205      1530      1531
 -1       331    8    0    1
 -2        90       246       245      1531      1532      1527
 -1       332    8    0    1
 -2        91        92       247      1206      1533      1534
 -1       333    8    0    1
 -2        91       247       246      1534      1535      1530
 -1       334    8    0    1
 -2        92        93       248      1207      1536      1537
 -1       335    8    0    1
 -2        92       248       247      1537      1538      1533
 -1       336    8    0    1
 -2        93        94       249      1208      1539      1540
 -1       337    8    0    1
 -2        93       249       248      1540      1541      1536
 -1       338    8    0    1
 -2        94        95       250      1209      1542      1543
 -1       339    8    0    1
 -2        94       250       249      1543      1544      1539
 -1       340    8    0    1
 -2        95        96       251      1210      1545      1546
 -1       341    8    0    1
 -2        95       251       250      1546      1547      1542
 -1       342    8    0    1
 -2        96        97       252      1211      1548      1549
 -1       343    8    0    1
 -2        96       252       251      1549      1550      1545
 -1       344    8    0    1
 -2        97        98       253      1212      1551      1552
 -1       345    8    0    1
 -2        97       253       252      1552      1553      1548
 -1       346    8    0    1
 -2        98        99       254      1213      1554      1555
 -1       347    8    0    1
 -2        98       254       253      1555      1556      1551
 -1       348    8    0    1
 -2        99       100       255      1214      1557      1558
 -1       349    8    0    1
 -2        99       255       254      1558      1559      1554
 -1       350    8    0    1
 -2       100       101       256      1215      1560      1561
 -1       351    8    0    1
 -2       100       256       255      1561      1562      1557
 -1       352    8    0    1
 -2       101       102       257      1216      1563      1564
 -1       353    8    0    1
 -2       101       257       256      1564      1565      1560
 -1       354    8    0    1
 -2       102       103       258      1217      1566      1567
 -1       355    8    0    1
 -2       102       258       257      1567      1568      1563
 -1       356    8    0    1
 -2       103       104       259      1218      1569      1570
 -1       357    8    0    1
 -2       103       259       258      1570      1571      1566
 -1       358    8    0    1
 -2       104       105       260      1219      1572      1573
 -1       359    8    0    1
 -2       104       260       259      1573      1574      1569
 -1       360    8    0    1
 -2       105       106       261      1220      1575      1576
 -1       361    8    0    1
 -2       105       261       260      1576      1577      1572
 -1       362    8    0    1
 -2       106       107       262      1221      1578      1579
 -1       363    8    0    1
 -2       106       262       261      1579      1580      1575
 -1       364    8    0    1
 -2       107       108       263      1222      1581      1582
 -1       365    8    0    1
 -2       107       263       262      1582      1583      1578
 -1       366    8    0    1
 -2       108       109       264      1223      1584      1585
 -1       367    8    0    1
 -2       108       264       263      1585      1586      1581
 -1       368    8    0    1
 -2       109       110       265      1224      1587      1588
 -1       369    8    0    1
 -2       109       265       264      1588      1589      1584
 -1       370    8    0    1
 -2       110       111       266      1225      1590      1591
 -1       371    8    0    1
 -2       110       266       265      1591      1592      1587
 -1       372    8    0    1
 -2       111       112       267      1226      1593      1594
 -1       373    8    0    1
 -2       111       267       266      1594      1595      1590
 -1       374    8    0    1
 -2       112       113       268      1227      1596      1597
 -1       375    8    0    1
 -2       112       268       267      1597      1598      1593
 -1       376    8    0    1
 -2       113       114       269      1228      1599      1600
 -1       377    8    0    1
 -2       113       269       268      1600      1601      1596
 -1       378    8    0    1
 -2       114       115       270      1229      1602      1603
 -1       379    8    0    1
 -2       114       270       269      1603      1604      1599
 -1       380    8    0    1
 -2       115       116       271      1230      1605      1606
 -1       381    8    0    1
 -2       115       271       270      1606      1607      1602
 -1       382    8    0    1
 -2       116       117       272      1231      1608      1609
 -1       383    8    0    1
 -2       116       272       271      1609      1610      1605
 -1       384    8    0    1
 -2       117       118       273      1232      1611      1612
 -1       385    8    0    1
 -2       117       273       272      1612      1613      1608
 -1       386    8    0    1
 -2       118       119       274      1233      1614      1615
 -1       387    8    0    1
 -2       118       274       273      1615      1616      1611
 -1       388    8    0    1
 -2       119       120       275      1234      1617      1618
 -1       389    8    0    1
 -2       119       275       274      1618      1619      1614
 -1       390    8    0    1
 -2       120         3       121      1235      1236      1620
 -1       391    8    0    1
 -2       121       122       276      1237      1621      1622
 -1       392    8    0    1
 -2       122       123       277      1238      1623      1624
 -1       393    8    0    1
 -2       122       277       276      1624      1625      1621
 -1       394    8    0    1
 -2       123       124       278      1239      1626      1627
 -1       395    8    0    1
 -2       123       278       277      1627      1628      1623
 -1       396    8    0    1
 -2       124       125       279      1240      1629      1630
 -1       397    8    0    1
 -2       124       279       278      1630      1631      1626
 -1       398    8    0    1
 -2       125       126       280      1241      1632      1633
 -1       399    8    0    1
 -2       125       280       279      1633      1634      1629
 -1       400    8    0    1
 -2       126       127       281      1242      1635      1636
 -1       401    8    0    1
 -2       126       281       280      1636      1637      1632
 -1       402    8    0    1
 -2       127       128       282      1243      1638      1639
 -1       403    8    0    1
 -2       127       282       281      1639      1640      1635
 -1       404    8    0    1
 -2       128       129       283      1244      1641      1642
 -1       405    8    0    1
 -2       128       283       282      1642      1643      1638
 -1       406    8    0    1
 -2       129       130       284      1245      1644      1645
 -1       407    8    0    1
 -2       129       284       283      1645      1646      1641
 -1       408    8    0    1
 -2       130       131       285      1246      1647      1648
 -1       409    8    0    1
 -2       130       285       284      1648      1649      1644
 -1       410    8    0    1
 -2       131       132       286      1247      1650      1651
 -1       411    8    0    1
 -2       131       286       285      1651      1652      1647
 -1       412    8    0    1
 -2       132       133       287      1248      1653      1654
 -1       413    8    0    1
 -2       132       287       286      1654      1655      1650
 -1       414    8    0    1
 -2       133       134       288      1249      1656      1657
 -1       415    8    0    1
 -2       133       288       287      1657      1658      1653
 -1       416    8    0    1
 -2       134       135       289      1250      1659      1660
 -1       417    8    0    1
 -2       134       289       288      1660      1661      1656
 -1       418    8    0    1
 -2       135       136       290      1251      1662      1663
 -1       419    8    0    1
 -2       289       135       290      1659      1663      1664
 -1       420    8    0    1
 -2       136       227       290      1475      1665      1662
 -1       421    8    0    1
 -2         2       137       291      1253      1666      1667
 -1       422    8    0    1
 -2       137       138       292      1254      1668      1669
 -1       423    8    0    1
 -2       138       139       293      1255      1670      1671
 -1       424    8    0    1
 -2       139       140       294      1256      1672      1673
 -1       425    8    0    1
 -2       140       141       295      1257      1674      1675
 -1       426    8    0    1
 -2       141       142       296      1258      1676      1677
 -1       427    8    0    1
 -2       142       143       297      1259      1678      1679
 -1       428    8    0    1
 -2       143       144       298      1260      1680      1681
 -1       429    8    0    1
 -2       144       145       299      1261      1682      1683
 -1       430    8    0    1
 -2       145       146       300      1262      1684      1685
 -1       431    8    0    1
 -2       146       147       301      1263      1686      1687
 -1       432    8    0    1
 -2       147       148       302      1264      1688      1689
 -1       433    8    0    1
 -2       148       149       303      1265      1690      1691
 -1       434    8    0    1
 -2       149       150       304      1266      1692      1693
 -1       435    8    0    1
 -2       150       151       305      1267      1694      1695
 -1       436    8    0    1
 -2       151       152       306      1268      1696      1697
 -1       437    8    0    1
 -2       152       153       307      1269      1698      1699
 -1       438    8    0    1
 -2       153       154       308      1270      1700      1701
 -1       439    8    0    1
 -2       154       155       309      1271      1702      1703
 -1       440    8    0    1
 -2       155       156       310      1272      1704      1705
 -1       441    8    0    1
 -2       156       157       311      1273      1706      1707
 -1       442    8    0    1
 -2       157         1       312      1274      1708      1709
 -1       443    8    0    1
 -2         1       158       313      1275      1710      1711
 -1       444    8    0    1
 -2       158       159       314      1276      1712      1713
 -1       445    8    0    1
 -2       159       160       315      1277      1714      1715
 -1       446    8    0    1
 -2       160       161       316      1278      1716      1717
 -1       447    8    0    1
 -2       161       162       317      1279      1718      1719
 -1       448    8    0    1
 -2       162       163       318      1280      1720      1721
 -1       449    8    0    1
 -2       163         2       319      1281      1722      1723
 -1       450    8    0    1
 -2       294       140       295      1672      1675      1724
 -1       451    8    0    1
 -2       293       139       294      1670      1673      1725
 -1       452    8    0    1
 -2       120       121       275      1620      1726      1617
 -1       453    8    0    1
 -2       121       276       275      1622      1727      1726
 -1       454    8    0    1
 -2       291       137       292      1666      1669      1728
 -1       455    8    0    1
 -2       292       138       293      1668      1671      1729
 -1       456    8    0    1
 -2         2       291       319      1667      1730      1722
 -1       457    8    0    1
 -2       141       296       295      1677      1731      1674
 -1       458    8    0    1
 -2       142       297       296      1679      1732      1676
 -1       459    8    0    1
 -2       143       298       297      1681      1733      1678
 -1       460    8    0    1
 -2       144       299       298      1683      1734      1680
 -1       461    8    0    1
 -2       145       300       299      1685      1735      1682
 -1       462    8    0    1
 -2       146       301       300      1687      1736      1684
 -1       463    8    0    1
 -2       147       302       301      1689      1737      1686
 -1       464    8    0    1
 -2       148       303       302      1691      1738      1688
 -1       465    8    0    1
 -2       149       304       303      1693      1739      1690
 -1       466    8    0    1
 -2       150       305       304      1695      1740      1692
 -1       467    8    0    1
 -2       151       306       305      1697      1741      1694
 -1       468    8    0    1
 -2       152       307       306      1699      1742      1696
 -1       469    8    0    1
 -2       153       308       307      1701      1743      1698
 -1       470    8    0    1
 -2       154       309       308      1703      1744      1700
 -1       471    8    0    1
 -2       155       310       309      1705      1745      1702
 -1       472    8    0    1
 -2       156       311       310      1707      1746      1704
 -1       473    8    0    1
 -2       157       312       311      1709      1747      1706
 -1       474    8    0    1
 -2         1       313       312      1711      1748      1708
 -1       475    8    0    1
 -2       158       314       313      1713      1749      1710
 -1       476    8    0    1
 -2       159       315       314      1715      1750      1712
 -1       477    8    0    1
 -2       160       316       315      1717      1751      1714
 -1       478    8    0    1
 -2       161       317       316      1719      1752      1716
 -1       479    8    0    1
 -2       162       318       317      1721      1753      1718
 -1       480    8    0    1
 -2       163       319       318      1723      1754      1720
 -1       481    8    0    1
 -2        23         7       164      1282      1284      1755
 -1       482    8    0    1
 -2       165       166       320      1290      1756      1757
 -1       483    8    0    1
 -2       164       165       321      1287      1758      1759
 -1       484    8    0    1
 -2       165       320       321      1757      1760      1758
 -1       485    8    0    1
 -2       167       168       322      1296      1761      1762
 -1       486    8    0    1
 -2       168       169       323      1299      1763      1764
 -1       487    8    0    1
 -2       168       323       322      1764      1765      1761
 -1       488    8    0    1
 -2       169       170       324      1302      1766      1767
 -1       489    8    0    1
 -2       169       324       323      1767      1768      1763
 -1       490    8    0    1
 -2       170       171       325      1305      1769      1770
 -1       491    8    0    1
 -2       170       325       324      1770      1771      1766
 -1       492    8    0    1
 -2       171       172       326      1308      1772      1773
 -1       493    8    0    1
 -2       171       326       325      1773      1774      1769
 -1       494    8    0    1
 -2       172       173       327      1311      1775      1776
 -1       495    8    0    1
 -2       172       327       326      1776      1777      1772
 -1       496    8    0    1
 -2       173       174       328      1314      1778      1779
 -1       497    8    0    1
 -2       173       328       327      1779      1780      1775
 -1       498    8    0    1
 -2       174       175       329      1317      1781      1782
 -1       499    8    0    1
 -2       174       329       328      1782      1783      1778
 -1       500    8    0    1
 -2       175       176       330      1320      1784      1785
 -1       501    8    0    1
 -2       175       330       329      1785      1786      1781
 -1       502    8    0    1
 -2       176       177       331      1323      1787      1788
 -1       503    8    0    1
 -2       176       331       330      1788      1789      1784
 -1       504    8    0    1
 -2       177       178       332      1326      1790      1791
 -1       505    8    0    1
 -2       177       332       331      1791      1792      1787
 -1       506    8    0    1
 -2       178       179       333      1329      1793      1794
 -1       507    8    0    1
 -2       332       178       333      1790      1794      1795
 -1       508    8    0    1
 -2       179       228       333      1478      1796      1793
 -1       509    8    0    1
 -2       180        23       164      1331      1755      1797
 -1       510    8    0    1
 -2       228       229       334      1481      1798      1799
 -1       511    8    0    1
 -2       228       334       333      1799      1800      1796
 -1       512    8    0    1
 -2       180       164       321      1797      1759      1801
 -1       513    8    0    1
 -2       182       181       335      1338      1802      1803
 -1       514    8    0    1
 -2       183       182       336      1341      1804      1805
 -1       515    8    0    1
 -2       182       335       336      1803      1806      1804
 -1       516    8    0    1
 -2       184       183       337      1344      1807      1808
 -1       517    8    0    1
 -2       183       336       337      1805      1809      1807
 -1       518    8    0    1
 -2       185       184       338      1347      1810      1811
 -1       519    8    0    1
 -2       184       337       338      1808      1812      1810
 -1       520    8    0    1
 -2       186       185       339      1350      1813      1814
 -1       521    8    0    1
 -2       185       338       339      1811      1815      1813
 -1       522    8    0    1
 -2       187       186       340      1353      1816      1817
 -1       523    8    0    1
 -2       186       339       340      1814      1818      1816
 -1       524    8    0    1
 -2       188       187       341      1356      1819      1820
 -1       525    8    0    1
 -2       187       340       341      1817      1821      1819
 -1       526    8    0    1
 -2       189       188       342      1359      1822      1823
 -1       527    8    0    1
 -2       188       341       342      1820      1824      1822
 -1       528    8    0    1
 -2       190       189       343      1362      1825      1826
 -1       529    8    0    1
 -2       189       342       343      1823      1827      1825
 -1       530    8    0    1
 -2       191       190       344      1365      1828      1829
 -1       531    8    0    1
 -2       190       343       344      1826      1830      1828
 -1       532    8    0    1
 -2       192       191       345      1368      1831      1832
 -1       533    8    0    1
 -2       191       344       345      1829      1833      1831
 -1       534    8    0    1
 -2       193       192       346      1371      1834      1835
 -1       535    8    0    1
 -2       192       345       346      1832      1836      1834
 -1       536    8    0    1
 -2       194       193       347      1374      1837      1838
 -1       537    8    0    1
 -2       193       346       347      1835      1839      1837
 -1       538    8    0    1
 -2       195       194       348      1377      1840      1841
 -1       539    8    0    1
 -2       194       347       348      1838      1842      1840
 -1       540    8    0    1
 -2       196       195       349      1380      1843      1844
 -1       541    8    0    1
 -2       195       348       349      1841      1845      1843
 -1       542    8    0    1
 -2       197       196       350      1383      1846      1847
 -1       543    8    0    1
 -2       196       349       350      1844      1848      1846
 -1       544    8    0    1
 -2       198       197       351      1386      1849      1850
 -1       545    8    0    1
 -2       197       350       351      1847      1851      1849
 -1       546    8    0    1
 -2       199       198       352      1389      1852      1853
 -1       547    8    0    1
 -2       198       351       352      1850      1854      1852
 -1       548    8    0    1
 -2       200       199       353      1392      1855      1856
 -1       549    8    0    1
 -2       199       352       353      1853      1857      1855
 -1       550    8    0    1
 -2       201       200       354      1395      1858      1859
 -1       551    8    0    1
 -2       200       353       354      1856      1860      1858
 -1       552    8    0    1
 -2       202       201       355      1398      1861      1862
 -1       553    8    0    1
 -2       201       354       355      1859      1863      1861
 -1       554    8    0    1
 -2       203       202       356      1401      1864      1865
 -1       555    8    0    1
 -2       202       355       356      1862      1866      1864
 -1       556    8    0    1
 -2       204       203       357      1404      1867      1868
 -1       557    8    0    1
 -2       203       356       357      1865      1869      1867
 -1       558    8    0    1
 -2       205       204       358      1407      1870      1871
 -1       559    8    0    1
 -2       204       357       358      1868      1872      1870
 -1       560    8    0    1
 -2       206       205       359      1410      1873      1874
 -1       561    8    0    1
 -2       205       358       359      1871      1875      1873
 -1       562    8    0    1
 -2       207       206       360      1413      1876      1877
 -1       563    8    0    1
 -2       206       359       360      1874      1878      1876
 -1       564    8    0    1
 -2       208       207       361      1416      1879      1880
 -1       565    8    0    1
 -2       207       360       361      1877      1881      1879
 -1       566    8    0    1
 -2       209       208       362      1419      1882      1883
 -1       567    8    0    1
 -2       208       361       362      1880      1884      1882
 -1       568    8    0    1
 -2       210       209       363      1422      1885      1886
 -1       569    8    0    1
 -2       209       362       363      1883      1887      1885
 -1       570    8    0    1
 -2       211       210       364      1425      1888      1889
 -1       571    8    0    1
 -2       210       363       364      1886      1890      1888
 -1       572    8    0    1
 -2       212       211       365      1428      1891      1892
 -1       573    8    0    1
 -2       211       364       365      1889      1893      1891
 -1       574    8    0    1
 -2       213       212       366      1431      1894      1895
 -1       575    8    0    1
 -2       212       365       366      1892      1896      1894
 -1       576    8    0    1
 -2       214       213       367      1434      1897      1898
 -1       577    8    0    1
 -2       213       366       367      1895      1899      1897
 -1       578    8    0    1
 -2       215       214       368      1437      1900      1901
 -1       579    8    0    1
 -2       214       367       368      1898      1902      1900
 -1       580    8    0    1
 -2       216       215       369      1440      1903      1904
 -1       581    8    0    1
 -2       215       368       369      1901      1905      1903
 -1       582    8    0    1
 -2       217       216       370      1443      1906      1907
 -1       583    8    0    1
 -2       216       369       370      1904      1908      1906
 -1       584    8    0    1
 -2       218       217       371      1446      1909      1910
 -1       585    8    0    1
 -2       217       370       371      1907      1911      1909
 -1       586    8    0    1
 -2       219       218       372      1449      1912      1913
 -1       587    8    0    1
 -2       218       371       372      1910      1914      1912
 -1       588    8    0    1
 -2       220       219       373      1452      1915      1916
 -1       589    8    0    1
 -2       219       372       373      1913      1917      1915
 -1       590    8    0    1
 -2       221       220       374      1455      1918      1919
 -1       591    8    0    1
 -2       220       373       374      1916      1920      1918
 -1       592    8    0    1
 -2       222       221       375      1458      1921      1922
 -1       593    8    0    1
 -2       221       374       375      1919      1923      1921
 -1       594    8    0    1
 -2       223       222       376      1461      1924      1925
 -1       595    8    0    1
 -2       222       375       376      1922      1926      1924
 -1       596    8    0    1
 -2       224       223       377      1464      1927      1928
 -1       597    8    0    1
 -2       223       376       377      1925      1929      1927
 -1       598    8    0    1
 -2       225       224       378      1467      1930      1931
 -1       599    8    0    1
 -2       224       377       378      1928      1932      1930
 -1       600    8    0    1
 -2       226       225       379      1470      1933      1934
 -1       601    8    0    1
 -2       225       378       379      1931      1935      1933
 -1       602    8    0    1
 -2       227       226       380      1473      1936      1937
 -1       603    8    0    1
 -2       290       227       380      1665      1937      1938
 -1       604    8    0    1
 -2       226       379       380      1934      1939      1936
 -1       605    8    0    1
 -2       229       230       381      1484      1940      1941
 -1       606    8    0    1
 -2       229       381       334      1941      1942      1798
 -1       607    8    0    1
 -2       230       231       382      1487      1943      1944
 -1       608    8    0    1
 -2       230       382       381      1944      1945      1940
 -1       609    8    0    1
 -2       231       232       383      1490      1946      1947
 -1       610    8    0    1
 -2       231       383       382      1947      1948      1943
 -1       611    8    0    1
 -2       232       233       384      1493      1949      1950
 -1       612    8    0    1
 -2       232       384       383      1950      1951      1946
 -1       613    8    0    1
 -2       233       234       385      1496      1952      1953
 -1       614    8    0    1
 -2       233       385       384      1953      1954      1949
 -1       615    8    0    1
 -2       234       235       386      1499      1955      1956
 -1       616    8    0    1
 -2       234       386       385      1956      1957      1952
 -1       617    8    0    1
 -2       235       236       387      1502      1958      1959
 -1       618    8    0    1
 -2       235       387       386      1959      1960      1955
 -1       619    8    0    1
 -2       236       237       388      1505      1961      1962
 -1       620    8    0    1
 -2       236       388       387      1962      1963      1958
 -1       621    8    0    1
 -2       237       238       389      1508      1964      1965
 -1       622    8    0    1
 -2       237       389       388      1965      1966      1961
 -1       623    8    0    1
 -2       238       239       390      1511      1967      1968
 -1       624    8    0    1
 -2       238       390       389      1968      1969      1964
 -1       625    8    0    1
 -2       239       240       391      1514      1970      1971
 -1       626    8    0    1
 -2       239       391       390      1971      1972      1967
 -1       627    8    0    1
 -2       240       241       392      1517      1973      1974
 -1       628    8    0    1
 -2       240       392       391      1974      1975      1970
 -1       629    8    0    1
 -2       241       242       393      1520      1976      1977
 -1       630    8    0    1
 -2       241       393       392      1977      1978      1973
 -1       631    8    0    1
 -2       242       243       394      1523      1979      1980
 -1       632    8    0    1
 -2       242       394       393      1980      1981      1976
 -1       633    8    0    1
 -2       243       244       395      1526      1982      1983
 -1       634    8    0    1
 -2       243       395       394      1983      1984      1979
 -1       635    8    0    1
 -2       244       245       396      1529      1985      1986
 -1       636    8    0    1
 -2       244       396       395      1986      1987      1982
 -1       637    8    0    1
 -2       245       246       397      1532      1988      1989
 -1       638    8    0    1
 -2       245       397       396      1989      1990      1985
 -1       639    8    0    1
 -2       246       247       398      1535      1991      1992
 -1       640    8    0    1
 -2       246       398       397      1992      1993      1988
 -1       641    8    0    1
 -2       247       248       399      1538      1994      1995
 -1       642    8    0    1
 -2       247       399       398      1995      1996      1991
 -1       643    8    0    1
 -2       248       249       400      1541      1997      1998
 -1       644    8    0    1
 -2       248       400       399      1998      1999      1994
 -1       645    8    0    1
 -2       249       250       401      1544      2000      2001
 -1       646    8    0    1
 -2       249       401       400      2001      2002      1997
 -1       647    8    0    1
 -2       250       251       402      1547      2003      2004
 -1       648    8    0    1
 -2       250       402       401      2004      2005      2000
 -1       649    8    0    1
 -2       251       252       403      1550      2006      2007
 -1       650    8    0    1
 -2       251       403       402      2007      2008      2003
 -1       651    8    0    1
 -2       252       253       404      1553      2009      2010
 -1       652    8    0    1
 -2       252       404       403      2010      2011      2006
 -1       653    8    0    1
 -2       253       254       405      1556      2012      2013
 -1       654    8    0    1
 -2       253       405       404      2013      2014      2009
 -1       655    8    0    1
 -2       254       255       406      1559      2015      2016
 -1       656    8    0    1
 -2       254       406       405      2016      2017      2012
 -1       657    8    0    1
 -2       255       256       407      1562      2018      2019
 -1       658    8    0    1
 -2       255       407       406      2019      2020      2015
 -1       659    8    0    1
 -2       256       257       408      1565      2021      2022
 -1       660    8    0    1
 -2       256       408       407      2022      2023      2018
 -1       661    8    0    1
 -2       257       258       409      1568      2024      2025
 -1       662    8    0    1
 -2       257       409       408      2025      2026      2021
 -1       663    8    0    1
 -2       258       259       410      1571      2027      2028
 -1       664    8    0    1
 -2       258       410       409      2028      2029      2024
 -1       665    8    0    1
 -2       259       260       411      1574      2030      2031
 -1       666    8    0    1
 -2       259       411       410      2031      2032      2027
 -1       667    8    0    1
 -2       260       261       412      1577      2033      2034
 -1       668    8    0    1
 -2       260       412       411      2034      2035      2030
 -1       669    8    0    1
 -2       261       262       413      1580      2036      2037
 -1       670    8    0    1
 -2       261       413       412      2037      2038      2033
 -1       671    8    0    1
 -2       262       263       414      1583      2039      2040
 -1       672    8    0    1
 -2       262       414       413      2040      2041      2036
 -1       673    8    0    1
 -2       263       264       415      1586      2042      2043
 -1       674    8    0    1
 -2       263       415       414      2043      2044      2039
 -1       675    8    0    1
 -2       264       265       416      1589      2045      2046
 -1       676    8    0    1
 -2       264       416       415      2046      2047      2042
 -1       677    8    0    1
 -2       265       266       417      1592      2048      2049
 -1       678    8    0    1
 -2       265       417       416      2049      2050      2045
 -1       679    8    0    1
 -2       266       267       418      1595      2051      2052
 -1       680    8    0    1
 -2       266       418       417      2052      2053      2048
 -1       681    8    0    1
 -2       267       268       419      1598      2054      2055
 -1       682    8    0    1
 -2       267       419       418      2055      2056      2051
 -1       683    8    0    1
 -2       268       269       420      1601      2057      2058
 -1       684    8    0    1
 -2       268       420       419      2058      2059      2054
 -1       685    8    0    1
 -2       269       270       421      1604      2060      2061
 -1       686    8    0    1
 -2       269       421       420      2061      2062      2057
 -1       687    8    0    1
 -2       270       271       422      1607      2063      2064
 -1       688    8    0    1
 -2       270       422       421      2064      2065      2060
 -1       689    8    0    1
 -2       271       272       423      1610      2066      2067
 -1       690    8    0    1
 -2       271       423       422      2067      2068      2063
 -1       691    8    0    1
 -2       272       273       424      1613      2069      2070
 -1       692    8    0    1
 -2       272       424       423      2070      2071      2066
 -1       693    8    0    1
 -2       273       274       425      1616      2072      2073
 -1       694    8    0    1
 -2       273       425       424      2073      2074      2069
 -1       695    8    0    1
 -2       274       275       426      1619      2075      2076
 -1       696    8    0    1
 -2       425       274       426      2072      2076      2077
 -1       697    8    0    1
 -2       275       276       426      1727      2078      2075
 -1       698    8    0    1
 -2       278       279       427      1631      2079      2080
 -1       699    8    0    1
 -2       277       278       428      1628      2081      2082
 -1       700    8    0    1
 -2       278       427       428      2080      2083      2081
 -1       701    8    0    1
 -2       276       277       429      1625      2084      2085
 -1       702    8    0    1
 -2       426       276       429      2078      2085      2086
 -1       703    8    0    1
 -2       277       428       429      2082      2087      2084
 -1       704    8    0    1
 -2       279       280       430      1634      2088      2089
 -1       705    8    0    1
 -2       279       430       427      2089      2090      2079
 -1       706    8    0    1
 -2       280       281       431      1637      2091      2092
 -1       707    8    0    1
 -2       280       431       430      2092      2093      2088
 -1       708    8    0    1
 -2       281       282       432      1640      2094      2095
 -1       709    8    0    1
 -2       281       432       431      2095      2096      2091
 -1       710    8    0    1
 -2       282       283       433      1643      2097      2098
 -1       711    8    0    1
 -2       282       433       432      2098      2099      2094
 -1       712    8    0    1
 -2       283       284       434      1646      2100      2101
 -1       713    8    0    1
 -2       283       434       433      2101      2102      2097
 -1       714    8    0    1
 -2       284       285       435      1649      2103      2104
 -1       715    8    0    1
 -2       284       435       434      2104      2105      2100
 -1       716    8    0    1
 -2       285       286       436      1652      2106      2107
 -1       717    8    0    1
 -2       285       436       435      2107      2108      2103
 -1       718    8    0    1
 -2       286       287       437      1655      2109      2110
 -1       719    8    0    1
 -2       286       437       436      2110      2111      2106
 -1       720    8    0    1
 -2       287       288       438      1658      2112      2113
 -1       721    8    0    1
 -2       287       438       437      2113      2114      2109
 -1       722    8    0    1
 -2       288       289       439      1661      2115      2116
 -1       723    8    0    1
 -2       288       439       438      2116      2117      2112
 -1       724    8    0    1
 -2       292       293       440      1729      2118      2119
 -1       725    8    0    1
 -2       319       291       441      1730      2120      2121
 -1       726    8    0    1
 -2       291       292       442      1728      2122      2123
 -1       727    8    0    1
 -2       293       294       443      1725      2124      2125
 -1       728    8    0    1
 -2       294       295       444      1724      2126      2127
 -1       729    8    0    1
 -2       166       167       445      1293      2128      2129
 -1       730    8    0    1
 -2       320       166       445      1756      2129      2130
 -1       731    8    0    1
 -2       167       322       445      1762      2131      2128
 -1       732    8    0    1
 -2       296       297       446      1732      2132      2133
 -1       733    8    0    1
 -2       297       298       447      1733      2134      2135
 -1       734    8    0    1
 -2       298       299       448      1734      2136      2137
 -1       735    8    0    1
 -2       299       300       449      1735      2138      2139
 -1       736    8    0    1
 -2       300       301       450      1736      2140      2141
 -1       737    8    0    1
 -2       301       302       451      1737      2142      2143
 -1       738    8    0    1
 -2       302       303       452      1738      2144      2145
 -1       739    8    0    1
 -2       303       304       453      1739      2146      2147
 -1       740    8    0    1
 -2       304       305       454      1740      2148      2149
 -1       741    8    0    1
 -2       304       454       453      2149      2150      2146
 -1       742    8    0    1
 -2       305       306       455      1741      2151      2152
 -1       743    8    0    1
 -2       306       307       456      1742      2153      2154
 -1       744    8    0    1
 -2       307       308       457      1743      2155      2156
 -1       745    8    0    1
 -2       308       309       458      1744      2157      2158
 -1       746    8    0    1
 -2       308       458       457      2158      2159      2155
 -1       747    8    0    1
 -2       309       310       459      1745      2160      2161
 -1       748    8    0    1
 -2       310       311       460      1746      2162      2163
 -1       749    8    0    1
 -2       311       312       461      1747      2164      2165
 -1       750    8    0    1
 -2       312       313       462      1748      2166      2167
 -1       751    8    0    1
 -2       313       314       463      1749      2168      2169
 -1       752    8    0    1
 -2       313       463       462      2169      2170      2166
 -1       753    8    0    1
 -2       314       315       464      1750      2171      2172
 -1       754    8    0    1
 -2       315       316       465      1751      2173      2174
 -1       755    8    0    1
 -2       316       317       466      1752      2175      2176
 -1       756    8    0    1
 -2       317       318       467      1753      2177      2178
 -1       757    8    0    1
 -2       318       319       468      1754      2179      2180
 -1       758    8    0    1
 -2       295       296       469      1731      2181      2182
 -1       759    8    0    1
 -2       443       294       444      2124      2127      2183
 -1       760    8    0    1
 -2       180       321       181      1801      2184      1335
 -1       761    8    0    1
 -2       444       295       469      2126      2182      2185
 -1       762    8    0    1
 -2       296       446       469      2133      2186      2181
 -1       763    8    0    1
 -2       335       181       321      1802      2184      2187
 -1       764    8    0    1
 -2       442       292       440      2122      2119      2188
 -1       765    8    0    1
 -2       441       291       442      2120      2123      2189
 -1       766    8    0    1
 -2       439       289       290      2115      1664      2190
 -1       767    8    0    1
 -2       440       293       443      2118      2125      2191
 -1       768    8    0    1
 -2       319       441       468      2121      2192      2179
 -1       769    8    0    1
 -2       467       318       468      2177      2180      2193
 -1       770    8    0    1
 -2       466       317       467      2175      2178      2194
 -1       771    8    0    1
 -2       465       316       466      2173      2176      2195
 -1       772    8    0    1
 -2       463       314       464      2168      2172      2196
 -1       773    8    0    1
 -2       461       312       462      2164      2167      2197
 -1       774    8    0    1
 -2       460       311       461      2162      2165      2198
 -1       775    8    0    1
 -2       458       309       459      2157      2161      2199
 -1       776    8    0    1
 -2       456       307       457      2153      2156      2200
 -1       777    8    0    1
 -2       454       305       455      2148      2152      2201
 -1       778    8    0    1
 -2       452       303       453      2144      2147      2202
 -1       779    8    0    1
 -2       451       302       452      2142      2145      2203
 -1       780    8    0    1
 -2       450       301       451      2140      2143      2204
 -1       781    8    0    1
 -2       449       300       450      2138      2141      2205
 -1       782    8    0    1
 -2       448       299       449      2136      2139      2206
 -1       783    8    0    1
 -2       446       297       447      2132      2135      2207
 -1       784    8    0    1
 -2       447       298       448      2134      2137      2208
 -1       785    8    0    1
 -2       455       306       456      2151      2154      2209
 -1       786    8    0    1
 -2       459       310       460      2160      2163      2210
 -1       787    8    0    1
 -2       464       315       465      2171      2174      2211
 -1       788    8    0    1
 -2       334       381       470      1942      2212      2213
 -1       789    8    0    1
 -2       323       324       471      1768      2214      2215
 -1       790    8    0    1
 -2       322       323       472      1765      2216      2217
 -1       791    8    0    1
 -2       323       471       472      2215      2218      2216
 -1       792    8    0    1
 -2       325       326       473      1774      2219      2220
 -1       793    8    0    1
 -2       326       327       474      1777      2221      2222
 -1       794    8    0    1
 -2       326       474       473      2222      2223      2219
 -1       795    8    0    1
 -2       327       328       475      1780      2224      2225
 -1       796    8    0    1
 -2       327       475       474      2225      2226      2221
 -1       797    8    0    1
 -2       328       329       476      1783      2227      2228
 -1       798    8    0    1
 -2       328       476       475      2228      2229      2224
 -1       799    8    0    1
 -2       329       330       477      1786      2230      2231
 -1       800    8    0    1
 -2       329       477       476      2231      2232      2227
 -1       801    8    0    1
 -2       330       331       478      1789      2233      2234
 -1       802    8    0    1
 -2       330       478       477      2234      2235      2230
 -1       803    8    0    1
 -2       381       382       479      1945      2236      2237
 -1       804    8    0    1
 -2       381       479       470      2237      2238      2212
 -1       805    8    0    1
 -2       336       335       480      1806      2239      2240
 -1       806    8    0    1
 -2       444       469       481      2185      2241      2242
 -1       807    8    0    1
 -2       337       336       482      1809      2243      2244
 -1       808    8    0    1
 -2       336       480       482      2240      2245      2243
 -1       809    8    0    1
 -2       338       337       483      1812      2246      2247
 -1       810    8    0    1
 -2       337       482       483      2244      2248      2246
 -1       811    8    0    1
 -2       339       338       484      1815      2249      2250
 -1       812    8    0    1
 -2       338       483       484      2247      2251      2249
 -1       813    8    0    1
 -2       340       339       485      1818      2252      2253
 -1       814    8    0    1
 -2       339       484       485      2250      2254      2252
 -1       815    8    0    1
 -2       341       340       486      1821      2255      2256
 -1       816    8    0    1
 -2       340       485       486      2253      2257      2255
 -1       817    8    0    1
 -2       342       341       487      1824      2258      2259
 -1       818    8    0    1
 -2       341       486       487      2256      2260      2258
 -1       819    8    0    1
 -2       343       342       488      1827      2261      2262
 -1       820    8    0    1
 -2       342       487       488      2259      2263      2261
 -1       821    8    0    1
 -2       344       343       489      1830      2264      2265
 -1       822    8    0    1
 -2       343       488       489      2262      2266      2264
 -1       823    8    0    1
 -2       345       344       490      1833      2267      2268
 -1       824    8    0    1
 -2       344       489       490      2265      2269      2267
 -1       825    8    0    1
 -2       346       345       491      1836      2270      2271
 -1       826    8    0    1
 -2       345       490       491      2268      2272      2270
 -1       827    8    0    1
 -2       347       346       492      1839      2273      2274
 -1       828    8    0    1
 -2       346       491       492      2271      2275      2273
 -1       829    8    0    1
 -2       348       347       493      1842      2276      2277
 -1       830    8    0    1
 -2       347       492       493      2274      2278      2276
 -1       831    8    0    1
 -2       349       348       494      1845      2279      2280
 -1       832    8    0    1
 -2       348       493       494      2277      2281      2279
 -1       833    8    0    1
 -2       350       349       495      1848      2282      2283
 -1       834    8    0    1
 -2       349       494       495      2280      2284      2282
 -1       835    8    0    1
 -2       351       350       496      1851      2285      2286
 -1       836    8    0    1
 -2       350       495       496      2283      2287      2285
 -1       837    8    0    1
 -2       352       351       497      1854      2288      2289
 -1       838    8    0    1
 -2       351       496       497      2286      2290      2288
 -1       839    8    0    1
 -2       353       352       498      1857      2291      2292
 -1       840    8    0    1
 -2       352       497       498      2289      2293      2291
 -1       841    8    0    1
 -2       354       353       499      1860      2294      2295
 -1       842    8    0    1
 -2       353       498       499      2292      2296      2294
 -1       843    8    0    1
 -2       355       354       500      1863      2297      2298
 -1       844    8    0    1
 -2       354       499       500      2295      2299      2297
 -1       845    8    0    1
 -2       356       355       501      1866      2300      2301
 -1       846    8    0    1
 -2       355       500       501      2298      2302      2300
 -1       847    8    0    1
 -2       357       356       502      1869      2303      2304
 -1       848    8    0    1
 -2       356       501       502      2301      2305      2303
 -1       849    8    0    1
 -2       358       357       503      1872      2306      2307
 -1       850    8    0    1
 -2       357       502       503      2304      2308      2306
 -1       851    8    0    1
 -2       359       358       504      1875      2309      2310
 -1       852    8    0    1
 -2       358       503       504      2307      2311      2309
 -1       853    8    0    1
 -2       360       359       505      1878      2312      2313
 -1       854    8    0    1
 -2       359       504       505      2310      2314      2312
 -1       855    8    0    1
 -2       361       360       506      1881      2315      2316
 -1       856    8    0    1
 -2       360       505       506      2313      2317      2315
 -1       857    8    0    1
 -2       362       361       507      1884      2318      2319
 -1       858    8    0    1
 -2       361       506       507      2316      2320      2318
 -1       859    8    0    1
 -2       363       362       508      1887      2321      2322
 -1       860    8    0    1
 -2       362       507       508      2319      2323      2321
 -1       861    8    0    1
 -2       364       363       509      1890      2324      2325
 -1       862    8    0    1
 -2       363       508       509      2322      2326      2324
 -1       863    8    0    1
 -2       365       364       510      1893      2327      2328
 -1       864    8    0    1
 -2       364       509       510      2325      2329      2327
 -1       865    8    0    1
 -2       366       365       511      1896      2330      2331
 -1       866    8    0    1
 -2       365       510       511      2328      2332      2330
 -1       867    8    0    1
 -2       367       366       512      1899      2333      2334
 -1       868    8    0    1
 -2       366       511       512      2331      2335      2333
 -1       869    8    0    1
 -2       368       367       513      1902      2336      2337
 -1       870    8    0    1
 -2       367       512       513      2334      2338      2336
 -1       871    8    0    1
 -2       369       368       514      1905      2339      2340
 -1       872    8    0    1
 -2       368       513       514      2337      2341      2339
 -1       873    8    0    1
 -2       370       369       515      1908      2342      2343
 -1       874    8    0    1
 -2       369       514       515      2340      2344      2342
 -1       875    8    0    1
 -2       371       370       516      1911      2345      2346
 -1       876    8    0    1
 -2       370       515       516      2343      2347      2345
 -1       877    8    0    1
 -2       372       371       517      1914      2348      2349
 -1       878    8    0    1
 -2       371       516       517      2346      2350      2348
 -1       879    8    0    1
 -2       373       372       518      1917      2351      2352
 -1       880    8    0    1
 -2       372       517       518      2349      2353      2351
 -1       881    8    0    1
 -2       374       373       519      1920      2354      2355
 -1       882    8    0    1
 -2       373       518       519      2352      2356      2354
 -1       883    8    0    1
 -2       375       374       520      1923      2357      2358
 -1       884    8    0    1
 -2       374       519       520      2355      2359      2357
 -1       885    8    0    1
 -2       376       375       521      1926      2360      2361
 -1       886    8    0    1
 -2       375       520       521      2358      2362      2360
 -1       887    8    0    1
 -2       377       376       522      1929      2363      2364
 -1       888    8    0    1
 -2       376       521       522      2361      2365      2363
 -1       889    8    0    1
 -2       378       377       523      1932      2366      2367
 -1       890    8    0    1
 -2       377       522       523      2364      2368      2366
 -1       891    8    0    1
 -2       379       378       524      1935      2369      2370
 -1       892    8    0    1
 -2       378       523       524      2367      2371      2369
 -1       893    8    0    1
 -2       383       384       525      1951      2372      2373
 -1       894    8    0    1
 -2       384       385       526      1954      2374      2375
 -1       895    8    0    1
 -2       384       526       525      2375      2376      2372
 -1       896    8    0    1
 -2       385       386       527      1957      2377      2378
 -1       897    8    0    1
 -2       385       527       526      2378      2379      2374
 -1       898    8    0    1
 -2       386       387       528      1960      2380      2381
 -1       899    8    0    1
 -2       386       528       527      2381      2382      2377
 -1       900    8    0    1
 -2       387       388       529      1963      2383      2384
 -1       901    8    0    1
 -2       387       529       528      2384      2385      2380
 -1       902    8    0    1
 -2       388       389       530      1966      2386      2387
 -1       903    8    0    1
 -2       388       530       529      2387      2388      2383
 -1       904    8    0    1
 -2       389       390       531      1969      2389      2390
 -1       905    8    0    1
 -2       389       531       530      2390      2391      2386
 -1       906    8    0    1
 -2       390       391       532      1972      2392      2393
 -1       907    8    0    1
 -2       390       532       531      2393      2394      2389
 -1       908    8    0    1
 -2       391       392       533      1975      2395      2396
 -1       909    8    0    1
 -2       391       533       532      2396      2397      2392
 -1       910    8    0    1
 -2       392       393       534      1978      2398      2399
 -1       911    8    0    1
 -2       392       534       533      2399      2400      2395
 -1       912    8    0    1
 -2       393       394       535      1981      2401      2402
 -1       913    8    0    1
 -2       393       535       534      2402      2403      2398
 -1       914    8    0    1
 -2       394       395       536      1984      2404      2405
 -1       915    8    0    1
 -2       394       536       535      2405      2406      2401
 -1       916    8    0    1
 -2       395       396       537      1987      2407      2408
 -1       917    8    0    1
 -2       395       537       536      2408      2409      2404
 -1       918    8    0    1
 -2       396       397       538      1990      2410      2411
 -1       919    8    0    1
 -2       396       538       537      2411      2412      2407
 -1       920    8    0    1
 -2       397       398       539      1993      2413      2414
 -1       921    8    0    1
 -2       397       539       538      2414      2415      2410
 -1       922    8    0    1
 -2       398       399       540      1996      2416      2417
 -1       923    8    0    1
 -2       398       540       539      2417      2418      2413
 -1       924    8    0    1
 -2       399       400       541      1999      2419      2420
 -1       925    8    0    1
 -2       399       541       540      2420      2421      2416
 -1       926    8    0    1
 -2       400       401       542      2002      2422      2423
 -1       927    8    0    1
 -2       400       542       541      2423      2424      2419
 -1       928    8    0    1
 -2       401       402       543      2005      2425      2426
 -1       929    8    0    1
 -2       401       543       542      2426      2427      2422
 -1       930    8    0    1
 -2       402       403       544      2008      2428      2429
 -1       931    8    0    1
 -2       402       544       543      2429      2430      2425
 -1       932    8    0    1
 -2       403       404       545      2011      2431      2432
 -1       933    8    0    1
 -2       403       545       544      2432      2433      2428
 -1       934    8    0    1
 -2       404       405       546      2014      2434      2435
 -1       935    8    0    1
 -2       404       546       545      2435      2436      2431
 -1       936    8    0    1
 -2       405       406       547      2017      2437      2438
 -1       937    8    0    1
 -2       405       547       546      2438      2439      2434
 -1       938    8    0    1
 -2       406       407       548      2020      2440      2441
 -1       939    8    0    1
 -2       406       548       547      2441      2442      2437
 -1       940    8    0    1
 -2       407       408       549      2023      2443      2444
 -1       941    8    0    1
 -2       407       549       548      2444      2445      2440
 -1       942    8    0    1
 -2       408       409       550      2026      2446      2447
 -1       943    8    0    1
 -2       408       550       549      2447      2448      2443
 -1       944    8    0    1
 -2       409       410       551      2029      2449      2450
 -1       945    8    0    1
 -2       409       551       550      2450      2451      2446
 -1       946    8    0    1
 -2       410       411       552      2032      2452      2453
 -1       947    8    0    1
 -2       410       552       551      2453      2454      2449
 -1       948    8    0    1
 -2       411       412       553      2035      2455      2456
 -1       949    8    0    1
 -2       411       553       552      2456      2457      2452
 -1       950    8    0    1
 -2       412       413       554      2038      2458      2459
 -1       951    8    0    1
 -2       412       554       553      2459      2460      2455
 -1       952    8    0    1
 -2       413       414       555      2041      2461      2462
 -1       953    8    0    1
 -2       413       555       554      2462      2463      2458
 -1       954    8    0    1
 -2       414       415       556      2044      2464      2465
 -1       955    8    0    1
 -2       414       556       555      2465      2466      2461
 -1       956    8    0    1
 -2       415       416       557      2047      2467      2468
 -1       957    8    0    1
 -2       415       557       556      2468      2469      2464
 -1       958    8    0    1
 -2       416       417       558      2050      2470      2471
 -1       959    8    0    1
 -2       416       558       557      2471      2472      2467
 -1       960    8    0    1
 -2       417       418       559      2053      2473      2474
 -1       961    8    0    1
 -2       417       559       558      2474      2475      2470
 -1       962    8    0    1
 -2       418       419       560      2056      2476      2477
 -1       963    8    0    1
 -2       418       560       559      2477      2478      2473
 -1       964    8    0    1
 -2       419       420       561      2059      2479      2480
 -1       965    8    0    1
 -2       419       561       560      2480      2481      2476
 -1       966    8    0    1
 -2       420       421       562      2062      2482      2483
 -1       967    8    0    1
 -2       420       562       561      2483      2484      2479
 -1       968    8    0    1
 -2       421       422       563      2065      2485      2486
 -1       969    8    0    1
 -2       421       563       562      2486      2487      2482
 -1       970    8    0    1
 -2       422       423       564      2068      2488      2489
 -1       971    8    0    1
 -2       422       564       563      2489      2490      2485
 -1       972    8    0    1
 -2       423       424       565      2071      2491      2492
 -1       973    8    0    1
 -2       423       565       564      2492      2493      2488
 -1       974    8    0    1
 -2       424       425       566      2074      2494      2495
 -1       975    8    0    1
 -2       424       566       565      2495      2496      2491
 -1       976    8    0    1
 -2       425       426       429      2077      2086      2497
 -1       977    8    0    1
 -2       430       431       567      2093      2498      2499
 -1       978    8    0    1
 -2       431       432       568      2096      2500      2501
 -1       979    8    0    1
 -2       431       568       567      2501      2502      2498
 -1       980    8    0    1
 -2       428       427       569      2083      2503      2504
 -1       981    8    0    1
 -2       427       430       570      2090      2505      2506
 -1       982    8    0    1
 -2       569       427       570      2503      2506      2507
 -1       983    8    0    1
 -2       430       567       570      2499      2508      2505
 -1       984    8    0    1
 -2       432       433       571      2099      2509      2510
 -1       985    8    0    1
 -2       432       571       568      2510      2511      2500
 -1       986    8    0    1
 -2       433       434       572      2102      2512      2513
 -1       987    8    0    1
 -2       433       572       571      2513      2514      2509
 -1       988    8    0    1
 -2       434       435       573      2105      2515      2516
 -1       989    8    0    1
 -2       434       573       572      2516      2517      2512
 -1       990    8    0    1
 -2       435       436       574      2108      2518      2519
 -1       991    8    0    1
 -2       435       574       573      2519      2520      2515
 -1       992    8    0    1
 -2       436       437       575      2111      2521      2522
 -1       993    8    0    1
 -2       436       575       574      2522      2523      2518
 -1       994    8    0    1
 -2       437       438       576      2114      2524      2525
 -1       995    8    0    1
 -2       437       576       575      2525      2526      2521
 -1       996    8    0    1
 -2       438       439       577      2117      2527      2528
 -1       997    8    0    1
 -2       438       577       576      2528      2529      2524
 -1       998    8    0    1
 -2       441       442       578      2189      2530      2531
 -1       999    8    0    1
 -2       440       443       579      2191      2532      2533
 -1      1000    8    0    1
 -2       382       383       580      1948      2534      2535
 -1      1001    8    0    1
 -2       383       525       580      2373      2536      2534
 -1      1002    8    0    1
 -2       439       290       380      2190      1938      2537
 -1      1003    8    0    1
 -2       468       441       581      2192      2538      2539
 -1      1004    8    0    1
 -2       441       578       581      2531      2540      2538
 -1      1005    8    0    1
 -2       442       440       582      2188      2541      2542
 -1      1006    8    0    1
 -2       335       321       583      2187      2543      2544
 -1      1007    8    0    1
 -2       480       335       583      2239      2544      2545
 -1      1008    8    0    1
 -2       321       320       583      1760      2546      2543
 -1      1009    8    0    1
 -2       467       468       584      2193      2547      2548
 -1      1010    8    0    1
 -2       461       462       585      2197      2549      2550
 -1      1011    8    0    1
 -2       456       457       586      2200      2551      2552
 -1      1012    8    0    1
 -2       452       453       587      2202      2553      2554
 -1      1013    8    0    1
 -2       324       325       588      1771      2555      2556
 -1      1014    8    0    1
 -2       471       324       588      2214      2556      2557
 -1      1015    8    0    1
 -2       325       473       588      2220      2558      2555
 -1      1016    8    0    1
 -2       447       448       589      2208      2559      2560
 -1      1017    8    0    1
 -2       455       456       590      2209      2561      2562
 -1      1018    8    0    1
 -2       446       447       591      2207      2563      2564
 -1      1019    8    0    1
 -2       448       449       592      2206      2565      2566
 -1      1020    8    0    1
 -2       449       450       593      2205      2567      2568
 -1      1021    8    0    1
 -2       450       451       594      2204      2569      2570
 -1      1022    8    0    1
 -2       451       452       595      2203      2571      2572
 -1      1023    8    0    1
 -2       452       587       595      2554      2573      2571
 -1      1024    8    0    1
 -2       453       454       596      2150      2574      2575
 -1      1025    8    0    1
 -2       459       460       597      2210      2576      2577
 -1      1026    8    0    1
 -2       454       455       598      2201      2578      2579
 -1      1027    8    0    1
 -2       454       598       596      2579      2580      2574
 -1      1028    8    0    1
 -2       457       458       599      2159      2581      2582
 -1      1029    8    0    1
 -2       464       465       600      2211      2583      2584
 -1      1030    8    0    1
 -2       458       459       601      2199      2585      2586
 -1      1031    8    0    1
 -2       460       461       602      2198      2587      2588
 -1      1032    8    0    1
 -2       462       463       603      2170      2589      2590
 -1      1033    8    0    1
 -2       463       464       604      2196      2591      2592
 -1      1034    8    0    1
 -2       463       604       603      2592      2593      2589
 -1      1035    8    0    1
 -2       465       466       605      2195      2594      2595
 -1      1036    8    0    1
 -2       465       605       600      2595      2596      2583
 -1      1037    8    0    1
 -2       466       467       606      2194      2597      2598
 -1      1038    8    0    1
 -2       469       446       607      2186      2599      2600
 -1      1039    8    0    1
 -2       333       334       608      1800      2601      2602
 -1      1040    8    0    1
 -2       332       333       608      1795      2602      2603
 -1      1041    8    0    1
 -2       334       470       608      2213      2604      2601
 -1      1042    8    0    1
 -2       443       444       609      2183      2605      2606
 -1      1043    8    0    1
 -2       447       589       591      2560      2607      2563
 -1      1044    8    0    1
 -2       322       472       610      2217      2608      2609
 -1      1045    8    0    1
 -2       322       610       445      2609      2610      2131
 -1      1046    8    0    1
 -2       479       382       580      2236      2535      2611
 -1      1047    8    0    1
 -2       331       332       608      1792      2603      2612
 -1      1048    8    0    1
 -2       609       444       481      2605      2242      2613
 -1      1049    8    0    1
 -2       584       468       581      2547      2539      2614
 -1      1050    8    0    1
 -2       607       446       591      2599      2564      2615
 -1      1051    8    0    1
 -2       604       464       600      2591      2584      2616
 -1      1052    8    0    1
 -2       425       429       566      2497      2617      2494
 -1      1053    8    0    1
 -2       579       443       609      2532      2606      2618
 -1      1054    8    0    1
 -2       429       428       566      2087      2619      2617
 -1      1055    8    0    1
 -2       442       582       611      2542      2620      2621
 -1      1056    8    0    1
 -2       442       611       578      2621      2622      2530
 -1      1057    8    0    1
 -2       440       579       582      2533      2623      2541
 -1      1058    8    0    1
 -2       602       461       585      2587      2550      2624
 -1      1059    8    0    1
 -2       601       459       597      2585      2577      2625
 -1      1060    8    0    1
 -2       331       608       478      2612      2626      2233
 -1      1061    8    0    1
 -2       583       320       445      2546      2130      2627
 -1      1062    8    0    1
 -2       466       606       605      2598      2628      2594
 -1      1063    8    0    1
 -2       585       462       603      2549      2590      2629
 -1      1064    8    0    1
 -2       598       455       590      2578      2562      2630
 -1      1065    8    0    1
 -2       597       460       602      2576      2588      2631
 -1      1066    8    0    1
 -2       594       451       595      2569      2572      2632
 -1      1067    8    0    1
 -2       456       586       590      2552      2633      2561
 -1      1068    8    0    1
 -2       593       450       594      2567      2570      2634
 -1      1069    8    0    1
 -2       592       449       593      2565      2568      2635
 -1      1070    8    0    1
 -2       453       596       587      2575      2636      2553
 -1      1071    8    0    1
 -2       586       457       599      2551      2582      2637
 -1      1072    8    0    1
 -2       467       584       606      2548      2638      2597
 -1      1073    8    0    1
 -2       481       469       607      2241      2600      2639
 -1      1074    8    0    1
 -2       448       592       589      2566      2640      2559
 -1      1075    8    0    1
 -2       599       458       601      2581      2586      2641
 -1      1076    8    0    1
 -2       439       380       612      2537      2642      2643
 -1      1077    8    0    1
 -2       577       439       612      2527      2643      2644
 -1      1078    8    0    1
 -2       380       379       612      1939      2645      2642
 -1      1079    8    0    1
 -2       566       428       569      2619      2504      2646
 -1      1080    8    0    1
 -2       612       379       524      2645      2370      2647
 -1      1081    8    0    1
 -2       474       475       613      2226      2648      2649
 -1      1082    8    0    1
 -2       473       474       614      2223      2650      2651
 -1      1083    8    0    1
 -2       474       613       614      2649      2652      2650
 -1      1084    8    0    1
 -2       476       477       615      2232      2653      2654
 -1      1085    8    0    1
 -2       477       478       616      2235      2655      2656
 -1      1086    8    0    1
 -2       477       616       615      2656      2657      2653
 -1      1087    8    0    1
 -2       470       479       617      2238      2658      2659
 -1      1088    8    0    1
 -2       583       445       610      2627      2610      2660
 -1      1089    8    0    1
 -2       584       581       618      2614      2661      2662
 -1      1090    8    0    1
 -2       608       470       478      2604      2663      2626
 -1      1091    8    0    1
 -2       607       591       619      2615      2664      2665
 -1      1092    8    0    1
 -2       483       482       620      2248      2666      2667
 -1      1093    8    0    1
 -2       484       483       621      2251      2668      2669
 -1      1094    8    0    1
 -2       483       620       621      2667      2670      2668
 -1      1095    8    0    1
 -2       485       484       622      2254      2671      2672
 -1      1096    8    0    1
 -2       484       621       622      2669      2673      2671
 -1      1097    8    0    1
 -2       486       485       623      2257      2674      2675
 -1      1098    8    0    1
 -2       485       622       623      2672      2676      2674
 -1      1099    8    0    1
 -2       487       486       624      2260      2677      2678
 -1      1100    8    0    1
 -2       486       623       624      2675      2679      2677
 -1      1101    8    0    1
 -2       488       487       625      2263      2680      2681
 -1      1102    8    0    1
 -2       487       624       625      2678      2682      2680
 -1      1103    8    0    1
 -2       489       488       626      2266      2683      2684
 -1      1104    8    0    1
 -2       488       625       626      2681      2685      2683
 -1      1105    8    0    1
 -2       490       489       627      2269      2686      2687
 -1      1106    8    0    1
 -2       489       626       627      2684      2688      2686
 -1      1107    8    0    1
 -2       491       490       628      2272      2689      2690
 -1      1108    8    0    1
 -2       490       627       628      2687      2691      2689
 -1      1109    8    0    1
 -2       492       491       629      2275      2692      2693
 -1      1110    8    0    1
 -2       491       628       629      2690      2694      2692
 -1      1111    8    0    1
 -2       493       492       630      2278      2695      2696
 -1      1112    8    0    1
 -2       492       629       630      2693      2697      2695
 -1      1113    8    0    1
 -2       494       493       631      2281      2698      2699
 -1      1114    8    0    1
 -2       493       630       631      2696      2700      2698
 -1      1115    8    0    1
 -2       495       494       632      2284      2701      2702
 -1      1116    8    0    1
 -2       494       631       632      2699      2703      2701
 -1      1117    8    0    1
 -2       496       495       633      2287      2704      2705
 -1      1118    8    0    1
 -2       495       632       633      2702      2706      2704
 -1      1119    8    0    1
 -2       497       496       634      2290      2707      2708
 -1      1120    8    0    1
 -2       496       633       634      2705      2709      2707
 -1      1121    8    0    1
 -2       498       497       635      2293      2710      2711
 -1      1122    8    0    1
 -2       497       634       635      2708      2712      2710
 -1      1123    8    0    1
 -2       499       498       636      2296      2713      2714
 -1      1124    8    0    1
 -2       498       635       636      2711      2715      2713
 -1      1125    8    0    1
 -2       500       499       637      2299      2716      2717
 -1      1126    8    0    1
 -2       499       636       637      2714      2718      2716
 -1      1127    8    0    1
 -2       501       500       638      2302      2719      2720
 -1      1128    8    0    1
 -2       500       637       638      2717      2721      2719
 -1      1129    8    0    1
 -2       502       501       639      2305      2722      2723
 -1      1130    8    0    1
 -2       501       638       639      2720      2724      2722
 -1      1131    8    0    1
 -2       503       502       640      2308      2725      2726
 -1      1132    8    0    1
 -2       502       639       640      2723      2727      2725
 -1      1133    8    0    1
 -2       504       503       641      2311      2728      2729
 -1      1134    8    0    1
 -2       503       640       641      2726      2730      2728
 -1      1135    8    0    1
 -2       505       504       642      2314      2731      2732
 -1      1136    8    0    1
 -2       504       641       642      2729      2733      2731
 -1      1137    8    0    1
 -2       506       505       643      2317      2734      2735
 -1      1138    8    0    1
 -2       505       642       643      2732      2736      2734
 -1      1139    8    0    1
 -2       507       506       644      2320      2737      2738
 -1      1140    8    0    1
 -2       506       643       644      2735      2739      2737
 -1      1141    8    0    1
 -2       508       507       645      2323      2740      2741
 -1      1142    8    0    1
 -2       507       644       645      2738      2742      2740
 -1      1143    8    0    1
 -2       509       508       646      2326      2743      2744
 -1      1144    8    0    1
 -2       508       645       646      2741      2745      2743
 -1      1145    8    0    1
 -2       510       509       647      2329      2746      2747
 -1      1146    8    0    1
 -2       509       646       647      2744      2748      2746
 -1      1147    8    0    1
 -2       511       510       648      2332      2749      2750
 -1      1148    8    0    1
 -2       510       647       648      2747      2751      2749
 -1      1149    8    0    1
 -2       512       511       649      2335      2752      2753
 -1      1150    8    0    1
 -2       511       648       649      2750      2754      2752
 -1      1151    8    0    1
 -2       513       512       650      2338      2755      2756
 -1      1152    8    0    1
 -2       512       649       650      2753      2757      2755
 -1      1153    8    0    1
 -2       514       513       651      2341      2758      2759
 -1      1154    8    0    1
 -2       513       650       651      2756      2760      2758
 -1      1155    8    0    1
 -2       515       514       652      2344      2761      2762
 -1      1156    8    0    1
 -2       514       651       652      2759      2763      2761
 -1      1157    8    0    1
 -2       516       515       653      2347      2764      2765
 -1      1158    8    0    1
 -2       515       652       653      2762      2766      2764
 -1      1159    8    0    1
 -2       517       516       654      2350      2767      2768
 -1      1160    8    0    1
 -2       516       653       654      2765      2769      2767
 -1      1161    8    0    1
 -2       518       517       655      2353      2770      2771
 -1      1162    8    0    1
 -2       517       654       655      2768      2772      2770
 -1      1163    8    0    1
 -2       519       518       656      2356      2773      2774
 -1      1164    8    0    1
 -2       518       655       656      2771      2775      2773
 -1      1165    8    0    1
 -2       520       519       657      2359      2776      2777
 -1      1166    8    0    1
 -2       519       656       657      2774      2778      2776
 -1      1167    8    0    1
 -2       521       520       658      2362      2779      2780
 -1      1168    8    0    1
 -2       520       657       658      2777      2781      2779
 -1      1169    8    0    1
 -2       522       521       659      2365      2782      2783
 -1      1170    8    0    1
 -2       521       658       659      2780      2784      2782
 -1      1171    8    0    1
 -2       523       522       660      2368      2785      2786
 -1      1172    8    0    1
 -2       522       659       660      2783      2787      2785
 -1      1173    8    0    1
 -2       524       523       661      2371      2788      2789
 -1      1174    8    0    1
 -2       523       660       661      2786      2790      2788
 -1      1175    8    0    1
 -2       526       527       662      2379      2791      2792
 -1      1176    8    0    1
 -2       566       569       663      2646      2793      2794
 -1      1177    8    0    1
 -2       566       663       565      2794      2795      2496
 -1      1178    8    0    1
 -2       525       526       664      2376      2796      2797
 -1      1179    8    0    1
 -2       526       662       664      2792      2798      2796
 -1      1180    8    0    1
 -2       528       529       665      2385      2799      2800
 -1      1181    8    0    1
 -2       529       530       666      2388      2801      2802
 -1      1182    8    0    1
 -2       529       666       665      2802      2803      2799
 -1      1183    8    0    1
 -2       530       531       667      2391      2804      2805
 -1      1184    8    0    1
 -2       530       667       666      2805      2806      2801
 -1      1185    8    0    1
 -2       531       532       668      2394      2807      2808
 -1      1186    8    0    1
 -2       531       668       667      2808      2809      2804
 -1      1187    8    0    1
 -2       532       533       669      2397      2810      2811
 -1      1188    8    0    1
 -2       532       669       668      2811      2812      2807
 -1      1189    8    0    1
 -2       533       534       670      2400      2813      2814
 -1      1190    8    0    1
 -2       533       670       669      2814      2815      2810
 -1      1191    8    0    1
 -2       534       535       671      2403      2816      2817
 -1      1192    8    0    1
 -2       534       671       670      2817      2818      2813
 -1      1193    8    0    1
 -2       535       536       672      2406      2819      2820
 -1      1194    8    0    1
 -2       535       672       671      2820      2821      2816
 -1      1195    8    0    1
 -2       536       537       673      2409      2822      2823
 -1      1196    8    0    1
 -2       536       673       672      2823      2824      2819
 -1      1197    8    0    1
 -2       537       538       674      2412      2825      2826
 -1      1198    8    0    1
 -2       537       674       673      2826      2827      2822
 -1      1199    8    0    1
 -2       538       539       675      2415      2828      2829
 -1      1200    8    0    1
 -2       538       675       674      2829      2830      2825
 -1      1201    8    0    1
 -2       539       540       676      2418      2831      2832
 -1      1202    8    0    1
 -2       539       676       675      2832      2833      2828
 -1      1203    8    0    1
 -2       540       541       677      2421      2834      2835
 -1      1204    8    0    1
 -2       540       677       676      2835      2836      2831
 -1      1205    8    0    1
 -2       541       542       678      2424      2837      2838
 -1      1206    8    0    1
 -2       541       678       677      2838      2839      2834
 -1      1207    8    0    1
 -2       542       543       679      2427      2840      2841
 -1      1208    8    0    1
 -2       542       679       678      2841      2842      2837
 -1      1209    8    0    1
 -2       543       544       680      2430      2843      2844
 -1      1210    8    0    1
 -2       543       680       679      2844      2845      2840
 -1      1211    8    0    1
 -2       544       545       681      2433      2846      2847
 -1      1212    8    0    1
 -2       544       681       680      2847      2848      2843
 -1      1213    8    0    1
 -2       545       546       682      2436      2849      2850
 -1      1214    8    0    1
 -2       545       682       681      2850      2851      2846
 -1      1215    8    0    1
 -2       546       547       683      2439      2852      2853
 -1      1216    8    0    1
 -2       546       683       682      2853      2854      2849
 -1      1217    8    0    1
 -2       547       548       684      2442      2855      2856
 -1      1218    8    0    1
 -2       547       684       683      2856      2857      2852
 -1      1219    8    0    1
 -2       548       549       685      2445      2858      2859
 -1      1220    8    0    1
 -2       548       685       684      2859      2860      2855
 -1      1221    8    0    1
 -2       549       550       686      2448      2861      2862
 -1      1222    8    0    1
 -2       549       686       685      2862      2863      2858
 -1      1223    8    0    1
 -2       550       551       687      2451      2864      2865
 -1      1224    8    0    1
 -2       550       687       686      2865      2866      2861
 -1      1225    8    0    1
 -2       551       552       688      2454      2867      2868
 -1      1226    8    0    1
 -2       551       688       687      2868      2869      2864
 -1      1227    8    0    1
 -2       552       553       689      2457      2870      2871
 -1      1228    8    0    1
 -2       552       689       688      2871      2872      2867
 -1      1229    8    0    1
 -2       553       554       690      2460      2873      2874
 -1      1230    8    0    1
 -2       553       690       689      2874      2875      2870
 -1      1231    8    0    1
 -2       554       555       691      2463      2876      2877
 -1      1232    8    0    1
 -2       554       691       690      2877      2878      2873
 -1      1233    8    0    1
 -2       555       556       692      2466      2879      2880
 -1      1234    8    0    1
 -2       555       692       691      2880      2881      2876
 -1      1235    8    0    1
 -2       556       557       693      2469      2882      2883
 -1      1236    8    0    1
 -2       556       693       692      2883      2884      2879
 -1      1237    8    0    1
 -2       557       558       694      2472      2885      2886
 -1      1238    8    0    1
 -2       557       694       693      2886      2887      2882
 -1      1239    8    0    1
 -2       558       559       695      2475      2888      2889
 -1      1240    8    0    1
 -2       558       695       694      2889      2890      2885
 -1      1241    8    0    1
 -2       559       560       696      2478      2891      2892
 -1      1242    8    0    1
 -2       559       696       695      2892      2893      2888
 -1      1243    8    0    1
 -2       560       561       697      2481      2894      2895
 -1      1244    8    0    1
 -2       560       697       696      2895      2896      2891
 -1      1245    8    0    1
 -2       561       562       698      2484      2897      2898
 -1      1246    8    0    1
 -2       561       698       697      2898      2899      2894
 -1      1247    8    0    1
 -2       562       563       699      2487      2900      2901
 -1      1248    8    0    1
 -2       562       699       698      2901      2902      2897
 -1      1249    8    0    1
 -2       563       564       700      2490      2903      2904
 -1      1250    8    0    1
 -2       563       700       699      2904      2905      2900
 -1      1251    8    0    1
 -2       564       565       701      2493      2906      2907
 -1      1252    8    0    1
 -2       700       564       701      2903      2907      2908
 -1      1253    8    0    1
 -2       565       663       701      2795      2909      2906
 -1      1254    8    0    1
 -2       579       609       702      2618      2910      2911
 -1      1255    8    0    1
 -2       571       572       703      2514      2912      2913
 -1      1256    8    0    1
 -2       612       524       704      2647      2914      2915
 -1      1257    8    0    1
 -2       524       661       704      2789      2916      2914
 -1      1258    8    0    1
 -2       567       568       705      2502      2917      2918
 -1      1259    8    0    1
 -2       572       573       706      2517      2919      2920
 -1      1260    8    0    1
 -2       572       706       703      2920      2921      2912
 -1      1261    8    0    1
 -2       568       571       707      2511      2922      2923
 -1      1262    8    0    1
 -2       705       568       707      2917      2923      2924
 -1      1263    8    0    1
 -2       571       703       707      2913      2925      2922
 -1      1264    8    0    1
 -2       600       605       708      2596      2926      2927
 -1      1265    8    0    1
 -2       573       574       709      2520      2928      2929
 -1      1266    8    0    1
 -2       573       709       706      2929      2930      2919
 -1      1267    8    0    1
 -2       574       575       710      2523      2931      2932
 -1      1268    8    0    1
 -2       574       710       709      2932      2933      2928
 -1      1269    8    0    1
 -2       575       576       711      2526      2934      2935
 -1      1270    8    0    1
 -2       575       711       710      2935      2936      2931
 -1      1271    8    0    1
 -2       582       579       712      2623      2937      2938
 -1      1272    8    0    1
 -2       581       578       713      2540      2939      2940
 -1      1273    8    0    1
 -2       602       585       714      2624      2941      2942
 -1      1274    8    0    1
 -2       480       583       715      2545      2943      2944
 -1      1275    8    0    1
 -2       482       480       715      2245      2944      2945
 -1      1276    8    0    1
 -2       583       610       715      2660      2946      2943
 -1      1277    8    0    1
 -2       601       597       716      2625      2947      2948
 -1      1278    8    0    1
 -2       595       587       717      2573      2949      2950
 -1      1279    8    0    1
 -2       586       599       718      2637      2951      2952
 -1      1280    8    0    1
 -2       580       525       719      2536      2953      2954
 -1      1281    8    0    1
 -2       525       664       719      2797      2955      2953
 -1      1282    8    0    1
 -2       527       528       720      2382      2956      2957
 -1      1283    8    0    1
 -2       662       527       720      2791      2957      2958
 -1      1284    8    0    1
 -2       528       665       720      2800      2959      2956
 -1      1285    8    0    1
 -2       479       580       721      2611      2960      2961
 -1      1286    8    0    1
 -2       617       479       721      2658      2961      2962
 -1      1287    8    0    1
 -2       580       719       721      2954      2963      2960
 -1      1288    8    0    1
 -2       593       594       722      2634      2964      2965
 -1      1289    8    0    1
 -2       605       606       723      2628      2966      2967
 -1      1290    8    0    1
 -2       475       476       724      2229      2968      2969
 -1      1291    8    0    1
 -2       613       475       724      2648      2969      2970
 -1      1292    8    0    1
 -2       476       615       724      2654      2971      2968
 -1      1293    8    0    1
 -2       597       602       725      2631      2972      2973
 -1      1294    8    0    1
 -2       604       600       726      2616      2974      2975
 -1      1295    8    0    1
 -2       587       596       727      2636      2976      2977
 -1      1296    8    0    1
 -2       587       727       717      2977      2978      2949
 -1      1297    8    0    1
 -2       592       593       728      2635      2979      2980
 -1      1298    8    0    1
 -2       590       586       729      2633      2981      2982
 -1      1299    8    0    1
 -2       606       584       730      2638      2983      2984
 -1      1300    8    0    1
 -2       472       471       731      2218      2985      2986
 -1      1301    8    0    1
 -2       596       598       732      2580      2987      2988
 -1      1302    8    0    1
 -2       599       601       733      2641      2989      2990
 -1      1303    8    0    1
 -2       577       612       704      2644      2915      2991
 -1      1304    8    0    1
 -2       594       595       734      2632      2992      2993
 -1      1305    8    0    1
 -2       595       717       734      2950      2994      2992
 -1      1306    8    0    1
 -2       598       590       735      2630      2995      2996
 -1      1307    8    0    1
 -2       603       604       736      2593      2997      2998
 -1      1308    8    0    1
 -2       585       603       737      2629      2999      3000
 -1      1309    8    0    1
 -2       481       607       738      2639      3001      3002
 -1      1310    8    0    1
 -2       589       592       739      2640      3003      3004
 -1      1311    8    0    1
 -2       609       481       740      2613      3005      3006
 -1      1312    8    0    1
 -2       609       740       702      3006      3007      2910
 -1      1313    8    0    1
 -2       591       589       741      2607      3008      3009
 -1      1314    8    0    1
 -2       610       472       742      2608      3010      3011
 -1      1315    8    0    1
 -2       472       731       742      2986      3012      3010
 -1      1316    8    0    1
 -2       473       614       743      2651      3013      3014
 -1      1317    8    0    1
 -2       473       743       588      3014      3015      2558
 -1      1318    8    0    1
 -2       722       594       734      2964      2993      3016
 -1      1319    8    0    1
 -2       601       716       733      2948      3017      2989
 -1      1320    8    0    1
 -2       618       581       713      2661      2940      3018
 -1      1321    8    0    1
 -2       478       470       617      2663      2659      3019
 -1      1322    8    0    1
 -2       597       725       716      2973      3020      2947
 -1      1323    8    0    1
 -2       619       591       741      2664      3009      3021
 -1      1324    8    0    1
 -2       567       705       744      2918      3022      3023
 -1      1325    8    0    1
 -2       567       744       570      3023      3024      2508
 -1      1326    8    0    1
 -2       579       702       712      2911      3025      2937
 -1      1327    8    0    1
 -2       740       481       738      3005      3002      3026
 -1      1328    8    0    1
 -2       600       708       726      2927      3027      2974
 -1      1329    8    0    1
 -2       708       605       723      2926      2967      3028
 -1      1330    8    0    1
 -2       569       570       663      2507      3029      2793
 -1      1331    8    0    1
 -2       739       592       728      3003      2980      3030
 -1      1332    8    0    1
 -2       611       582       745      2620      3031      3032
 -1      1333    8    0    1
 -2       582       712       745      2938      3033      3031
 -1      1334    8    0    1
 -2       576       577       704      2529      2991      3034
 -1      1335    8    0    1
 -2       738       607       619      3001      2665      3035
 -1      1336    8    0    1
 -2       616       478       617      2655      3019      3036
 -1      1337    8    0    1
 -2       737       603       736      2999      2998      3037
 -1      1338    8    0    1
 -2       736       604       726      2997      2975      3038
 -1      1339    8    0    1
 -2       732       598       735      2987      2996      3039
 -1      1340    8    0    1
 -2       730       584       618      2983      2662      3040
 -1      1341    8    0    1
 -2       602       714       725      2942      3041      2972
 -1      1342    8    0    1
 -2       482       715       620      2945      3042      2666
 -1      1343    8    0    1
 -2       729       586       718      2981      2952      3043
 -1      1344    8    0    1
 -2       727       596       732      2976      2988      3044
 -1      1345    8    0    1
 -2       718       599       733      2951      2990      3045
 -1      1346    8    0    1
 -2       714       585       737      2941      3000      3046
 -1      1347    8    0    1
 -2       713       578       611      2939      2622      3047
 -1      1348    8    0    1
 -2       593       722       728      2965      3048      2979
 -1      1349    8    0    1
 -2       471       588       746      2557      3049      3050
 -1      1350    8    0    1
 -2       731       471       746      2985      3050      3051
 -1      1351    8    0    1
 -2       588       743       746      3015      3052      3049
 -1      1352    8    0    1
 -2       723       606       730      2966      2984      3053
 -1      1353    8    0    1
 -2       590       729       735      2982      3054      2995
 -1      1354    8    0    1
 -2       589       739       741      3004      3055      3008
 -1      1355    8    0    1
 -2       576       704       747      3034      3056      3057
 -1      1356    8    0    1
 -2       711       576       747      2934      3057      3058
 -1      1357    8    0    1
 -2       704       661       747      2916      3059      3056
 -1      1358    8    0    1
 -2       716       725       748      3020      3060      3061
 -1      1359    8    0    1
 -2       615       616       749      2657      3062      3063
 -1      1360    8    0    1
 -2       622       621       750      2673      3064      3065
 -1      1361    8    0    1
 -2       623       622       751      2676      3066      3067
 -1      1362    8    0    1
 -2       622       750       751      3065      3068      3066
 -1      1363    8    0    1
 -2       624       623       752      2679      3069      3070
 -1      1364    8    0    1
 -2       623       751       752      3067      3071      3069
 -1      1365    8    0    1
 -2       625       624       753      2682      3072      3073
 -1      1366    8    0    1
 -2       624       752       753      3070      3074      3072
 -1      1367    8    0    1
 -2       626       625       754      2685      3075      3076
 -1      1368    8    0    1
 -2       625       753       754      3073      3077      3075
 -1      1369    8    0    1
 -2       627       626       755      2688      3078      3079
 -1      1370    8    0    1
 -2       626       754       755      3076      3080      3078
 -1      1371    8    0    1
 -2       628       627       756      2691      3081      3082
 -1      1372    8    0    1
 -2       627       755       756      3079      3083      3081
 -1      1373    8    0    1
 -2       629       628       757      2694      3084      3085
 -1      1374    8    0    1
 -2       628       756       757      3082      3086      3084
 -1      1375    8    0    1
 -2       630       629       758      2697      3087      3088
 -1      1376    8    0    1
 -2       629       757       758      3085      3089      3087
 -1      1377    8    0    1
 -2       631       630       759      2700      3090      3091
 -1      1378    8    0    1
 -2       630       758       759      3088      3092      3090
 -1      1379    8    0    1
 -2       632       631       760      2703      3093      3094
 -1      1380    8    0    1
 -2       631       759       760      3091      3095      3093
 -1      1381    8    0    1
 -2       633       632       761      2706      3096      3097
 -1      1382    8    0    1
 -2       632       760       761      3094      3098      3096
 -1      1383    8    0    1
 -2       634       633       762      2709      3099      3100
 -1      1384    8    0    1
 -2       633       761       762      3097      3101      3099
 -1      1385    8    0    1
 -2       635       634       763      2712      3102      3103
 -1      1386    8    0    1
 -2       634       762       763      3100      3104      3102
 -1      1387    8    0    1
 -2       636       635       764      2715      3105      3106
 -1      1388    8    0    1
 -2       635       763       764      3103      3107      3105
 -1      1389    8    0    1
 -2       637       636       765      2718      3108      3109
 -1      1390    8    0    1
 -2       636       764       765      3106      3110      3108
 -1      1391    8    0    1
 -2       638       637       766      2721      3111      3112
 -1      1392    8    0    1
 -2       637       765       766      3109      3113      3111
 -1      1393    8    0    1
 -2       639       638       767      2724      3114      3115
 -1      1394    8    0    1
 -2       638       766       767      3112      3116      3114
 -1      1395    8    0    1
 -2       640       639       768      2727      3117      3118
 -1      1396    8    0    1
 -2       639       767       768      3115      3119      3117
 -1      1397    8    0    1
 -2       641       640       769      2730      3120      3121
 -1      1398    8    0    1
 -2       640       768       769      3118      3122      3120
 -1      1399    8    0    1
 -2       642       641       770      2733      3123      3124
 -1      1400    8    0    1
 -2       641       769       770      3121      3125      3123
 -1      1401    8    0    1
 -2       643       642       771      2736      3126      3127
 -1      1402    8    0    1
 -2       642       770       771      3124      3128      3126
 -1      1403    8    0    1
 -2       644       643       772      2739      3129      3130
 -1      1404    8    0    1
 -2       643       771       772      3127      3131      3129
 -1      1405    8    0    1
 -2       645       644       773      2742      3132      3133
 -1      1406    8    0    1
 -2       644       772       773      3130      3134      3132
 -1      1407    8    0    1
 -2       646       645       774      2745      3135      3136
 -1      1408    8    0    1
 -2       645       773       774      3133      3137      3135
 -1      1409    8    0    1
 -2       647       646       775      2748      3138      3139
 -1      1410    8    0    1
 -2       646       774       775      3136      3140      3138
 -1      1411    8    0    1
 -2       648       647       776      2751      3141      3142
 -1      1412    8    0    1
 -2       647       775       776      3139      3143      3141
 -1      1413    8    0    1
 -2       649       648       777      2754      3144      3145
 -1      1414    8    0    1
 -2       648       776       777      3142      3146      3144
 -1      1415    8    0    1
 -2       650       649       748      2757      3147      3148
 -1      1416    8    0    1
 -2       652       651       714      2763      3149      3150
 -1      1417    8    0    1
 -2       653       652       737      2766      3151      3152
 -1      1418    8    0    1
 -2       654       653       736      2769      3153      3154
 -1      1419    8    0    1
 -2       655       654       778      2772      3155      3156
 -1      1420    8    0    1
 -2       656       655       779      2775      3157      3158
 -1      1421    8    0    1
 -2       655       778       779      3156      3159      3157
 -1      1422    8    0    1
 -2       657       656       780      2778      3160      3161
 -1      1423    8    0    1
 -2       656       779       780      3158      3162      3160
 -1      1424    8    0    1
 -2       658       657       781      2781      3163      3164
 -1      1425    8    0    1
 -2       657       780       781      3161      3165      3163
 -1      1426    8    0    1
 -2       659       658       782      2784      3166      3167
 -1      1427    8    0    1
 -2       658       781       782      3164      3168      3166
 -1      1428    8    0    1
 -2       660       659       783      2787      3169      3170
 -1      1429    8    0    1
 -2       659       782       783      3167      3171      3169
 -1      1430    8    0    1
 -2       661       660       784      2790      3172      3173
 -1      1431    8    0    1
 -2       747       661       784      3059      3173      3174
 -1      1432    8    0    1
 -2       660       783       784      3170      3175      3172
 -1      1433    8    0    1
 -2       664       662       785      2798      3176      3177
 -1      1434    8    0    1
 -2       666       667       786      2806      3178      3179
 -1      1435    8    0    1
 -2       665       666       787      2803      3180      3181
 -1      1436    8    0    1
 -2       666       786       787      3179      3182      3180
 -1      1437    8    0    1
 -2       668       669       788      2812      3183      3184
 -1      1438    8    0    1
 -2       669       670       789      2815      3185      3186
 -1      1439    8    0    1
 -2       669       789       788      3186      3187      3183
 -1      1440    8    0    1
 -2       670       671       790      2818      3188      3189
 -1      1441    8    0    1
 -2       670       790       789      3189      3190      3185
 -1      1442    8    0    1
 -2       671       672       791      2821      3191      3192
 -1      1443    8    0    1
 -2       671       791       790      3192      3193      3188
 -1      1444    8    0    1
 -2       672       673       792      2824      3194      3195
 -1      1445    8    0    1
 -2       672       792       791      3195      3196      3191
 -1      1446    8    0    1
 -2       673       674       793      2827      3197      3198
 -1      1447    8    0    1
 -2       673       793       792      3198      3199      3194
 -1      1448    8    0    1
 -2       674       675       794      2830      3200      3201
 -1      1449    8    0    1
 -2       674       794       793      3201      3202      3197
 -1      1450    8    0    1
 -2       675       676       795      2833      3203      3204
 -1      1451    8    0    1
 -2       675       795       794      3204      3205      3200
 -1      1452    8    0    1
 -2       676       677       796      2836      3206      3207
 -1      1453    8    0    1
 -2       676       796       795      3207      3208      3203
 -1      1454    8    0    1
 -2       677       678       797      2839      3209      3210
 -1      1455    8    0    1
 -2       677       797       796      3210      3211      3206
 -1      1456    8    0    1
 -2       678       679       798      2842      3212      3213
 -1      1457    8    0    1
 -2       678       798       797      3213      3214      3209
 -1      1458    8    0    1
 -2       679       680       799      2845      3215      3216
 -1      1459    8    0    1
 -2       679       799       798      3216      3217      3212
 -1      1460    8    0    1
 -2       680       681       800      2848      3218      3219
 -1      1461    8    0    1
 -2       680       800       799      3219      3220      3215
 -1      1462    8    0    1
 -2       681       682       801      2851      3221      3222
 -1      1463    8    0    1
 -2       681       801       800      3222      3223      3218
 -1      1464    8    0    1
 -2       682       683       802      2854      3224      3225
 -1      1465    8    0    1
 -2       682       802       801      3225      3226      3221
 -1      1466    8    0    1
 -2       683       684       803      2857      3227      3228
 -1      1467    8    0    1
 -2       683       803       802      3228      3229      3224
 -1      1468    8    0    1
 -2       684       685       804      2860      3230      3231
 -1      1469    8    0    1
 -2       684       804       803      3231      3232      3227
 -1      1470    8    0    1
 -2       685       686       805      2863      3233      3234
 -1      1471    8    0    1
 -2       685       805       804      3234      3235      3230
 -1      1472    8    0    1
 -2       686       687       806      2866      3236      3237
 -1      1473    8    0    1
 -2       686       806       805      3237      3238      3233
 -1      1474    8    0    1
 -2       687       688       807      2869      3239      3240
 -1      1475    8    0    1
 -2       687       807       806      3240      3241      3236
 -1      1476    8    0    1
 -2       688       689       808      2872      3242      3243
 -1      1477    8    0    1
 -2       688       808       807      3243      3244      3239
 -1      1478    8    0    1
 -2       689       690       722      2875      3245      3246
 -1      1479    8    0    1
 -2       690       691       722      2878      3247      3245
 -1      1480    8    0    1
 -2       691       692       739      2881      3248      3249
 -1      1481    8    0    1
 -2       692       693       741      2884      3250      3251
 -1      1482    8    0    1
 -2       695       696       809      2893      3252      3253
 -1      1483    8    0    1
 -2       696       697       810      2896      3254      3255
 -1      1484    8    0    1
 -2       696       810       809      3255      3256      3252
 -1      1485    8    0    1
 -2       697       698       811      2899      3257      3258
 -1      1486    8    0    1
 -2       697       811       810      3258      3259      3254
 -1      1487    8    0    1
 -2       698       699       812      2902      3260      3261
 -1      1488    8    0    1
 -2       698       812       811      3261      3262      3257
 -1      1489    8    0    1
 -2       699       700       813      2905      3263      3264
 -1      1490    8    0    1
 -2       699       813       812      3264      3265      3260
 -1      1491    8    0    1
 -2       733       716       777      3017      3266      3267
 -1      1492    8    0    1
 -2       703       706       814      2921      3268      3269
 -1      1493    8    0    1
 -2       710       711       815      2936      3270      3271
 -1      1494    8    0    1
 -2       706       709       816      2930      3272      3273
 -1      1495    8    0    1
 -2       706       816       814      3273      3274      3268
 -1      1496    8    0    1
 -2       740       738       809      3026      3275      3276
 -1      1497    8    0    1
 -2       737       736       653      3037      3153      3152
 -1      1498    8    0    1
 -2       618       713       817      3018      3277      3278
 -1      1499    8    0    1
 -2       714       651       725      3149      3279      3041
 -1      1500    8    0    1
 -2       741       693       619      3250      3280      3021
 -1      1501    8    0    1
 -2       730       618       818      3040      3281      3282
 -1      1502    8    0    1
 -2       719       664       819      2955      3283      3284
 -1      1503    8    0    1
 -2       664       785       819      3177      3285      3283
 -1      1504    8    0    1
 -2       727       732       820      3044      3286      3287
 -1      1505    8    0    1
 -2       715       610       742      2946      3011      3288
 -1      1506    8    0    1
 -2       619       693       694      3280      2887      3289
 -1      1507    8    0    1
 -2       709       710       821      2933      3290      3291
 -1      1508    8    0    1
 -2       816       709       821      3272      3291      3292
 -1      1509    8    0    1
 -2       710       815       821      3271      3293      3290
 -1      1510    8    0    1
 -2       722       734       808      3016      3294      3295
 -1      1511    8    0    1
 -2       737       652       714      3151      3150      3046
 -1      1512    8    0    1
 -2       712       702       822      3025      3296      3297
 -1      1513    8    0    1
 -2       663       570       744      3029      3024      3298
 -1      1514    8    0    1
 -2       667       668       823      2809      3299      3300
 -1      1515    8    0    1
 -2       786       667       823      3178      3300      3301
 -1      1516    8    0    1
 -2       668       788       823      3184      3302      3299
 -1      1517    8    0    1
 -2       708       723       824      3028      3303      3304
 -1      1518    8    0    1
 -2       732       735       825      3039      3305      3306
 -1      1519    8    0    1
 -2       717       727       826      2978      3307      3308
 -1      1520    8    0    1
 -2       621       620       827      2670      3309      3310
 -1      1521    8    0    1
 -2       621       827       750      3310      3311      3064
 -1      1522    8    0    1
 -2       735       729       828      3054      3312      3313
 -1      1523    8    0    1
 -2       735       828       825      3313      3314      3305
 -1      1524    8    0    1
 -2       723       730       829      3053      3315      3316
 -1      1525    8    0    1
 -2       616       617       830      3036      3317      3318
 -1      1526    8    0    1
 -2       749       616       830      3062      3318      3319
 -1      1527    8    0    1
 -2       617       721       830      2962      3320      3317
 -1      1528    8    0    1
 -2       718       733       831      3045      3321      3322
 -1      1529    8    0    1
 -2       620       715       832      3042      3323      3324
 -1      1530    8    0    1
 -2       827       620       832      3309      3324      3325
 -1      1531    8    0    1
 -2       715       742       832      3288      3326      3323
 -1      1532    8    0    1
 -2       738       619       694      3035      3289      3327
 -1      1533    8    0    1
 -2       741       739       692      3055      3248      3251
 -1      1534    8    0    1
 -2       713       611       833      3047      3328      3329
 -1      1535    8    0    1
 -2       729       718       834      3043      3330      3331
 -1      1536    8    0    1
 -2       614       613       835      2652      3332      3333
 -1      1537    8    0    1
 -2       702       740       836      3007      3334      3335
 -1      1538    8    0    1
 -2       822       702       836      3296      3335      3336
 -1      1539    8    0    1
 -2       740       809       836      3276      3337      3334
 -1      1540    8    0    1
 -2       689       722       808      3246      3295      3242
 -1      1541    8    0    1
 -2       738       694       695      3327      2890      3338
 -1      1542    8    0    1
 -2       738       695       809      3338      3253      3275
 -1      1543    8    0    1
 -2       743       614       837      3013      3339      3340
 -1      1544    8    0    1
 -2       614       835       837      3333      3341      3339
 -1      1545    8    0    1
 -2       615       749       838      3063      3342      3343
 -1      1546    8    0    1
 -2       615       838       724      3343      3344      2971
 -1      1547    8    0    1
 -2       744       705       839      3022      3345      3346
 -1      1548    8    0    1
 -2       718       831       840      3322      3347      3348
 -1      1549    8    0    1
 -2       718       840       834      3348      3349      3330
 -1      1550    8    0    1
 -2       649       777       748      3145      3350      3147
 -1      1551    8    0    1
 -2       651       650       725      2760      3351      3279
 -1      1552    8    0    1
 -2       618       817       818      3278      3352      3281
 -1      1553    8    0    1
 -2       654       736       726      3154      3038      3353
 -1      1554    8    0    1
 -2       727       820       841      3287      3354      3355
 -1      1555    8    0    1
 -2       727       841       826      3355      3356      3307
 -1      1556    8    0    1
 -2       824       723       842      3303      3357      3358
 -1      1557    8    0    1
 -2       723       829       842      3316      3359      3357
 -1      1558    8    0    1
 -2       721       719       843      2963      3360      3361
 -1      1559    8    0    1
 -2       830       721       843      3320      3361      3362
 -1      1560    8    0    1
 -2       719       819       843      3284      3363      3360
 -1      1561    8    0    1
 -2       708       824       779      3304      3364      3365
 -1      1562    8    0    1
 -2       742       731       844      3012      3366      3367
 -1      1563    8    0    1
 -2       742       844       832      3367      3368      3326
 -1      1564    8    0    1
 -2       665       787       845      3181      3369      3370
 -1      1565    8    0    1
 -2       665       845       720      3370      3371      2959
 -1      1566    8    0    1
 -2       691       739       728      3249      3030      3372
 -1      1567    8    0    1
 -2       833       611       745      3328      3032      3373
 -1      1568    8    0    1
 -2       713       833       817      3329      3374      3277
 -1      1569    8    0    1
 -2       733       777       831      3267      3375      3321
 -1      1570    8    0    1
 -2       813       700       846      3263      3376      3377
 -1      1571    8    0    1
 -2       700       701       846      2908      3378      3376
 -1      1572    8    0    1
 -2       777       716       748      3266      3061      3350
 -1      1573    8    0    1
 -2       705       707       847      2924      3379      3380
 -1      1574    8    0    1
 -2       705       847       839      3380      3381      3345
 -1      1575    8    0    1
 -2       662       720       848      2958      3382      3383
 -1      1576    8    0    1
 -2       720       845       848      3371      3384      3382
 -1      1577    8    0    1
 -2       707       703       849      2925      3385      3386
 -1      1578    8    0    1
 -2       847       707       849      3379      3386      3387
 -1      1579    8    0    1
 -2       703       814       849      3269      3388      3385
 -1      1580    8    0    1
 -2       745       712       850      3033      3389      3390
 -1      1581    8    0    1
 -2       712       822       850      3297      3391      3389
 -1      1582    8    0    1
 -2       808       734       851      3294      3392      3393
 -1      1583    8    0    1
 -2       807       808       851      3244      3393      3394
 -1      1584    8    0    1
 -2       734       717       851      2994      3395      3392
 -1      1585    8    0    1
 -2       662       848       785      3383      3396      3176
 -1      1586    8    0    1
 -2       844       731       852      3366      3397      3398
 -1      1587    8    0    1
 -2       731       746       852      3051      3399      3397
 -1      1588    8    0    1
 -2       851       717       826      3395      3308      3400
 -1      1589    8    0    1
 -2       820       732       853      3286      3401      3402
 -1      1590    8    0    1
 -2       732       825       853      3306      3403      3401
 -1      1591    8    0    1
 -2       663       744       854      3298      3404      3405
 -1      1592    8    0    1
 -2       701       663       854      2909      3405      3406
 -1      1593    8    0    1
 -2       744       839       854      3346      3407      3404
 -1      1594    8    0    1
 -2       730       818       829      3282      3408      3315
 -1      1595    8    0    1
 -2       613       724       855      2970      3409      3410
 -1      1596    8    0    1
 -2       835       613       855      3332      3410      3411
 -1      1597    8    0    1
 -2       724       838       855      3344      3412      3409
 -1      1598    8    0    1
 -2       828       729       834      3312      3331      3413
 -1      1599    8    0    1
 -2       726       708       778      3027      3414      3415
 -1      1600    8    0    1
 -2       711       747       856      3058      3416      3417
 -1      1601    8    0    1
 -2       815       711       856      3270      3417      3418
 -1      1602    8    0    1
 -2       747       784       856      3174      3419      3416
 -1      1603    8    0    1
 -2       778       708       779      3414      3365      3159
 -1      1604    8    0    1
 -2       752       751       857      3071      3420      3421
 -1      1605    8    0    1
 -2       753       752       858      3074      3422      3423
 -1      1606    8    0    1
 -2       752       857       858      3421      3424      3422
 -1      1607    8    0    1
 -2       754       753       859      3077      3425      3426
 -1      1608    8    0    1
 -2       753       858       859      3423      3427      3425
 -1      1609    8    0    1
 -2       755       754       860      3080      3428      3429
 -1      1610    8    0    1
 -2       754       859       860      3426      3430      3428
 -1      1611    8    0    1
 -2       756       755       861      3083      3431      3432
 -1      1612    8    0    1
 -2       755       860       861      3429      3433      3431
 -1      1613    8    0    1
 -2       757       756       862      3086      3434      3435
 -1      1614    8    0    1
 -2       756       861       862      3432      3436      3434
 -1      1615    8    0    1
 -2       758       757       863      3089      3437      3438
 -1      1616    8    0    1
 -2       757       862       863      3435      3439      3437
 -1      1617    8    0    1
 -2       759       758       864      3092      3440      3441
 -1      1618    8    0    1
 -2       758       863       864      3438      3442      3440
 -1      1619    8    0    1
 -2       760       759       865      3095      3443      3444
 -1      1620    8    0    1
 -2       759       864       865      3441      3445      3443
 -1      1621    8    0    1
 -2       761       760       866      3098      3446      3447
 -1      1622    8    0    1
 -2       760       865       866      3444      3448      3446
 -1      1623    8    0    1
 -2       762       761       867      3101      3449      3450
 -1      1624    8    0    1
 -2       761       866       867      3447      3451      3449
 -1      1625    8    0    1
 -2       763       762       868      3104      3452      3453
 -1      1626    8    0    1
 -2       762       867       868      3450      3454      3452
 -1      1627    8    0    1
 -2       764       763       869      3107      3455      3456
 -1      1628    8    0    1
 -2       763       868       869      3453      3457      3455
 -1      1629    8    0    1
 -2       765       764       870      3110      3458      3459
 -1      1630    8    0    1
 -2       764       869       870      3456      3460      3458
 -1      1631    8    0    1
 -2       766       765       871      3113      3461      3462
 -1      1632    8    0    1
 -2       765       870       871      3459      3463      3461
 -1      1633    8    0    1
 -2       767       766       872      3116      3464      3465
 -1      1634    8    0    1
 -2       766       871       872      3462      3466      3464
 -1      1635    8    0    1
 -2       768       767       873      3119      3467      3468
 -1      1636    8    0    1
 -2       767       872       873      3465      3469      3467
 -1      1637    8    0    1
 -2       769       768       874      3122      3470      3471
 -1      1638    8    0    1
 -2       768       873       874      3468      3472      3470
 -1      1639    8    0    1
 -2       770       769       875      3125      3473      3474
 -1      1640    8    0    1
 -2       769       874       875      3471      3475      3473
 -1      1641    8    0    1
 -2       771       770       876      3128      3476      3477
 -1      1642    8    0    1
 -2       770       875       876      3474      3478      3476
 -1      1643    8    0    1
 -2       772       771       877      3131      3479      3480
 -1      1644    8    0    1
 -2       771       876       877      3477      3481      3479
 -1      1645    8    0    1
 -2       773       772       878      3134      3482      3483
 -1      1646    8    0    1
 -2       772       877       878      3480      3484      3482
 -1      1647    8    0    1
 -2       774       773       879      3137      3485      3486
 -1      1648    8    0    1
 -2       773       878       879      3483      3487      3485
 -1      1649    8    0    1
 -2       775       774       880      3140      3488      3489
 -1      1650    8    0    1
 -2       774       879       880      3486      3490      3488
 -1      1651    8    0    1
 -2       777       776       831      3146      3491      3375
 -1      1652    8    0    1
 -2       725       650       748      3351      3148      3060
 -1      1653    8    0    1
 -2       780       779       824      3162      3364      3492
 -1      1654    8    0    1
 -2       781       780       842      3165      3493      3494
 -1      1655    8    0    1
 -2       782       781       881      3168      3495      3496
 -1      1656    8    0    1
 -2       783       782       882      3171      3497      3498
 -1      1657    8    0    1
 -2       782       881       882      3496      3499      3497
 -1      1658    8    0    1
 -2       789       790       883      3190      3500      3501
 -1      1659    8    0    1
 -2       788       789       884      3187      3502      3503
 -1      1660    8    0    1
 -2       789       883       884      3501      3504      3502
 -1      1661    8    0    1
 -2       791       792       885      3196      3505      3506
 -1      1662    8    0    1
 -2       792       793       886      3199      3507      3508
 -1      1663    8    0    1
 -2       792       886       885      3508      3509      3505
 -1      1664    8    0    1
 -2       793       794       887      3202      3510      3511
 -1      1665    8    0    1
 -2       793       887       886      3511      3512      3507
 -1      1666    8    0    1
 -2       794       795       888      3205      3513      3514
 -1      1667    8    0    1
 -2       794       888       887      3514      3515      3510
 -1      1668    8    0    1
 -2       795       796       889      3208      3516      3517
 -1      1669    8    0    1
 -2       795       889       888      3517      3518      3513
 -1      1670    8    0    1
 -2       796       797       890      3211      3519      3520
 -1      1671    8    0    1
 -2       796       890       889      3520      3521      3516
 -1      1672    8    0    1
 -2       797       798       891      3214      3522      3523
 -1      1673    8    0    1
 -2       797       891       890      3523      3524      3519
 -1      1674    8    0    1
 -2       798       799       892      3217      3525      3526
 -1      1675    8    0    1
 -2       798       892       891      3526      3527      3522
 -1      1676    8    0    1
 -2       799       800       893      3220      3528      3529
 -1      1677    8    0    1
 -2       799       893       892      3529      3530      3525
 -1      1678    8    0    1
 -2       800       801       894      3223      3531      3532
 -1      1679    8    0    1
 -2       800       894       893      3532      3533      3528
 -1      1680    8    0    1
 -2       801       802       895      3226      3534      3535
 -1      1681    8    0    1
 -2       801       895       894      3535      3536      3531
 -1      1682    8    0    1
 -2       802       803       896      3229      3537      3538
 -1      1683    8    0    1
 -2       802       896       895      3538      3539      3534
 -1      1684    8    0    1
 -2       803       804       897      3232      3540      3541
 -1      1685    8    0    1
 -2       803       897       896      3541      3542      3537
 -1      1686    8    0    1
 -2       804       805       898      3235      3543      3544
 -1      1687    8    0    1
 -2       804       898       897      3544      3545      3540
 -1      1688    8    0    1
 -2       805       806       899      3238      3546      3547
 -1      1689    8    0    1
 -2       805       899       898      3547      3548      3543
 -1      1690    8    0    1
 -2       806       807       900      3241      3549      3550
 -1      1691    8    0    1
 -2       806       900       899      3550      3551      3546
 -1      1692    8    0    1
 -2       809       810       836      3256      3552      3337
 -1      1693    8    0    1
 -2       812       813       901      3265      3553      3554
 -1      1694    8    0    1
 -2       814       816       902      3274      3555      3556
 -1      1695    8    0    1
 -2       780       824       842      3492      3358      3493
 -1      1696    8    0    1
 -2       818       817       903      3352      3557      3558
 -1      1697    8    0    1
 -2       819       785       904      3285      3559      3560
 -1      1698    8    0    1
 -2       811       812       905      3262      3561      3562
 -1      1699    8    0    1
 -2       812       901       905      3554      3563      3561
 -1      1700    8    0    1
 -2       810       811       906      3259      3564      3565
 -1      1701    8    0    1
 -2       836       810       906      3552      3565      3566
 -1      1702    8    0    1
 -2       811       905       906      3562      3567      3564
 -1      1703    8    0    1
 -2       654       726       778      3353      3415      3155
 -1      1704    8    0    1
 -2       817       833       907      3374      3568      3569
 -1      1705    8    0    1
 -2       790       791       908      3193      3570      3571
 -1      1706    8    0    1
 -2       883       790       908      3500      3571      3572
 -1      1707    8    0    1
 -2       791       885       908      3506      3573      3570
 -1      1708    8    0    1
 -2       787       786       909      3182      3574      3575
 -1      1709    8    0    1
 -2       831       776       910      3491      3576      3577
 -1      1710    8    0    1
 -2       840       831       910      3347      3577      3578
 -1      1711    8    0    1
 -2       776       775       910      3143      3579      3576
 -1      1712    8    0    1
 -2       746       743       911      3052      3580      3581
 -1      1713    8    0    1
 -2       852       746       911      3399      3581      3582
 -1      1714    8    0    1
 -2       743       837       911      3340      3583      3580
 -1      1715    8    0    1
 -2       829       818       912      3408      3584      3585
 -1      1716    8    0    1
 -2       751       750       913      3068      3586      3587
 -1      1717    8    0    1
 -2       751       913       857      3587      3588      3420
 -1      1718    8    0    1
 -2       833       745       914      3373      3589      3590
 -1      1719    8    0    1
 -2       750       827       915      3311      3591      3592
 -1      1720    8    0    1
 -2       750       915       913      3592      3593      3586
 -1      1721    8    0    1
 -2       851       826       900      3400      3594      3595
 -1      1722    8    0    1
 -2       825       828       916      3314      3596      3597
 -1      1723    8    0    1
 -2       807       851       900      3394      3595      3549
 -1      1724    8    0    1
 -2       785       848       917      3396      3598      3599
 -1      1725    8    0    1
 -2       785       917       904      3599      3600      3559
 -1      1726    8    0    1
 -2       828       834       918      3413      3601      3602
 -1      1727    8    0    1
 -2       838       749       919      3342      3603      3604
 -1      1728    8    0    1
 -2       912       818       903      3584      3558      3605
 -1      1729    8    0    1
 -2       881       781       842      3495      3494      3606
 -1      1730    8    0    1
 -2       834       840       920      3349      3607      3608
 -1      1731    8    0    1
 -2       834       920       918      3608      3609      3601
 -1      1732    8    0    1
 -2       775       880       910      3489      3610      3579
 -1      1733    8    0    1
 -2       841       820       921      3354      3611      3612
 -1      1734    8    0    1
 -2       820       853       921      3402      3613      3611
 -1      1735    8    0    1
 -2       787       909       922      3575      3614      3615
 -1      1736    8    0    1
 -2       787       922       845      3615      3616      3369
 -1      1737    8    0    1
 -2       909       786       923      3574      3617      3618
 -1      1738    8    0    1
 -2       786       823       923      3301      3619      3617
 -1      1739    8    0    1
 -2       784       783       924      3175      3620      3621
 -1      1740    8    0    1
 -2       856       784       924      3419      3621      3622
 -1      1741    8    0    1
 -2       783       882       924      3498      3623      3620
 -1      1742    8    0    1
 -2       843       819       925      3363      3624      3625
 -1      1743    8    0    1
 -2       819       904       925      3560      3626      3624
 -1      1744    8    0    1
 -2       788       884       926      3503      3627      3628
 -1      1745    8    0    1
 -2       788       926       823      3628      3629      3302
 -1      1746    8    0    1
 -2       902       816       927      3555      3630      3631
 -1      1747    8    0    1
 -2       816       821       927      3292      3632      3630
 -1      1748    8    0    1
 -2       722       691       728      3247      3372      3048
 -1      1749    8    0    1
 -2       837       835       928      3341      3633      3634
 -1      1750    8    0    1
 -2       901       813       929      3553      3635      3636
 -1      1751    8    0    1
 -2       813       846       929      3377      3637      3635
 -1      1752    8    0    1
 -2       814       902       930      3556      3638      3639
 -1      1753    8    0    1
 -2       814       930       849      3639      3640      3388
 -1      1754    8    0    1
 -2       846       701       854      3378      3406      3641
 -1      1755    8    0    1
 -2       848       845       931      3384      3642      3643
 -1      1756    8    0    1
 -2       845       922       931      3616      3644      3642
 -1      1757    8    0    1
 -2       745       850       914      3390      3645      3589
 -1      1758    8    0    1
 -2       853       825       932      3403      3646      3647
 -1      1759    8    0    1
 -2       825       916       932      3597      3648      3646
 -1      1760    8    0    1
 -2       828       918       916      3602      3649      3596
 -1      1761    8    0    1
 -2       833       914       933      3590      3650      3651
 -1      1762    8    0    1
 -2       833       933       907      3651      3652      3568
 -1      1763    8    0    1
 -2       817       907       903      3569      3653      3557
 -1      1764    8    0    1
 -2       917       848       931      3598      3643      3654
 -1      1765    8    0    1
 -2       928       835       934      3633      3655      3656
 -1      1766    8    0    1
 -2       835       855       934      3411      3657      3655
 -1      1767    8    0    1
 -2       900       826       841      3594      3356      3658
 -1      1768    8    0    1
 -2       827       832       935      3325      3659      3660
 -1      1769    8    0    1
 -2       915       827       935      3591      3660      3661
 -1      1770    8    0    1
 -2       832       844       935      3368      3662      3659
 -1      1771    8    0    1
 -2       839       847       936      3381      3663      3664
 -1      1772    8    0    1
 -2       822       836       906      3336      3566      3665
 -1      1773    8    0    1
 -2       815       856       937      3418      3666      3667
 -1      1774    8    0    1
 -2       856       924       937      3622      3668      3666
 -1      1775    8    0    1
 -2       844       852       938      3398      3669      3670
 -1      1776    8    0    1
 -2       844       938       935      3670      3671      3662
 -1      1777    8    0    1
 -2       839       936       929      3664      3672      3673
 -1      1778    8    0    1
 -2       815       937       821      3667      3674      3293
 -1      1779    8    0    1
 -2       822       906       939      3665      3675      3676
 -1      1780    8    0    1
 -2       850       822       939      3391      3676      3677
 -1      1781    8    0    1
 -2       906       905       939      3567      3678      3675
 -1      1782    8    0    1
 -2       912       903       940      3605      3679      3680
 -1      1783    8    0    1
 -2       859       858       941      3427      3681      3682
 -1      1784    8    0    1
 -2       860       859       942      3430      3683      3684
 -1      1785    8    0    1
 -2       859       941       942      3682      3685      3683
 -1      1786    8    0    1
 -2       861       860       943      3433      3686      3687
 -1      1787    8    0    1
 -2       860       942       943      3684      3688      3686
 -1      1788    8    0    1
 -2       862       861       944      3436      3689      3690
 -1      1789    8    0    1
 -2       861       943       944      3687      3691      3689
 -1      1790    8    0    1
 -2       863       862       945      3439      3692      3693
 -1      1791    8    0    1
 -2       862       944       945      3690      3694      3692
 -1      1792    8    0    1
 -2       864       863       946      3442      3695      3696
 -1      1793    8    0    1
 -2       863       945       946      3693      3697      3695
 -1      1794    8    0    1
 -2       865       864       947      3445      3698      3699
 -1      1795    8    0    1
 -2       864       946       947      3696      3700      3698
 -1      1796    8    0    1
 -2       866       865       948      3448      3701      3702
 -1      1797    8    0    1
 -2       865       947       948      3699      3703      3701
 -1      1798    8    0    1
 -2       867       866       949      3451      3704      3705
 -1      1799    8    0    1
 -2       866       948       949      3702      3706      3704
 -1      1800    8    0    1
 -2       868       867       950      3454      3707      3708
 -1      1801    8    0    1
 -2       867       949       950      3705      3709      3707
 -1      1802    8    0    1
 -2       869       868       951      3457      3710      3711
 -1      1803    8    0    1
 -2       868       950       951      3708      3712      3710
 -1      1804    8    0    1
 -2       870       869       952      3460      3713      3714
 -1      1805    8    0    1
 -2       869       951       952      3711      3715      3713
 -1      1806    8    0    1
 -2       871       870       953      3463      3716      3717
 -1      1807    8    0    1
 -2       870       952       953      3714      3718      3716
 -1      1808    8    0    1
 -2       872       871       954      3466      3719      3720
 -1      1809    8    0    1
 -2       871       953       954      3717      3721      3719
 -1      1810    8    0    1
 -2       873       872       955      3469      3722      3723
 -1      1811    8    0    1
 -2       872       954       955      3720      3724      3722
 -1      1812    8    0    1
 -2       874       873       956      3472      3725      3726
 -1      1813    8    0    1
 -2       873       955       956      3723      3727      3725
 -1      1814    8    0    1
 -2       875       874       957      3475      3728      3729
 -1      1815    8    0    1
 -2       874       956       957      3726      3730      3728
 -1      1816    8    0    1
 -2       876       875       958      3478      3731      3732
 -1      1817    8    0    1
 -2       875       957       958      3729      3733      3731
 -1      1818    8    0    1
 -2       877       876       959      3481      3734      3735
 -1      1819    8    0    1
 -2       876       958       959      3732      3736      3734
 -1      1820    8    0    1
 -2       878       877       960      3484      3737      3738
 -1      1821    8    0    1
 -2       877       959       960      3735      3739      3737
 -1      1822    8    0    1
 -2       879       878       961      3487      3740      3741
 -1      1823    8    0    1
 -2       878       960       961      3738      3742      3740
 -1      1824    8    0    1
 -2       887       888       962      3515      3743      3744
 -1      1825    8    0    1
 -2       882       881       963      3499      3745      3746
 -1      1826    8    0    1
 -2       842       829       964      3359      3747      3748
 -1      1827    8    0    1
 -2       821       937       927      3674      3749      3632
 -1      1828    8    0    1
 -2       886       887       965      3512      3750      3751
 -1      1829    8    0    1
 -2       887       962       965      3744      3752      3750
 -1      1830    8    0    1
 -2       885       886       966      3509      3753      3754
 -1      1831    8    0    1
 -2       886       965       966      3751      3755      3753
 -1      1832    8    0    1
 -2       888       889       967      3518      3756      3757
 -1      1833    8    0    1
 -2       888       967       962      3757      3758      3743
 -1      1834    8    0    1
 -2       889       890       968      3521      3759      3760
 -1      1835    8    0    1
 -2       889       968       967      3760      3761      3756
 -1      1836    8    0    1
 -2       890       891       969      3524      3762      3763
 -1      1837    8    0    1
 -2       890       969       968      3763      3764      3759
 -1      1838    8    0    1
 -2       891       892       970      3527      3765      3766
 -1      1839    8    0    1
 -2       891       970       969      3766      3767      3762
 -1      1840    8    0    1
 -2       892       893       971      3530      3768      3769
 -1      1841    8    0    1
 -2       892       971       970      3769      3770      3765
 -1      1842    8    0    1
 -2       893       894       972      3533      3771      3772
 -1      1843    8    0    1
 -2       893       972       971      3772      3773      3768
 -1      1844    8    0    1
 -2       894       895       973      3536      3774      3775
 -1      1845    8    0    1
 -2       894       973       972      3775      3776      3771
 -1      1846    8    0    1
 -2       895       896       974      3539      3777      3778
 -1      1847    8    0    1
 -2       895       974       973      3778      3779      3774
 -1      1848    8    0    1
 -2       896       897       975      3542      3780      3781
 -1      1849    8    0    1
 -2       896       975       974      3781      3782      3777
 -1      1850    8    0    1
 -2       897       898       976      3545      3783      3784
 -1      1851    8    0    1
 -2       897       976       975      3784      3785      3780
 -1      1852    8    0    1
 -2       898       899       977      3548      3786      3787
 -1      1853    8    0    1
 -2       898       977       976      3787      3788      3783
 -1      1854    8    0    1
 -2       904       917       978      3600      3789      3790
 -1      1855    8    0    1
 -2       901       929       979      3636      3791      3792
 -1      1856    8    0    1
 -2       929       936       979      3672      3793      3791
 -1      1857    8    0    1
 -2       905       901       980      3563      3794      3795
 -1      1858    8    0    1
 -2       939       905       980      3678      3795      3796
 -1      1859    8    0    1
 -2       901       979       980      3792      3797      3794
 -1      1860    8    0    1
 -2       829       912       964      3585      3798      3747
 -1      1861    8    0    1
 -2       840       910       920      3578      3799      3607
 -1      1862    8    0    1
 -2       854       839       929      3407      3673      3800
 -1      1863    8    0    1
 -2       884       883       981      3504      3801      3802
 -1      1864    8    0    1
 -2       917       931       982      3654      3803      3804
 -1      1865    8    0    1
 -2       917       982       978      3804      3805      3789
 -1      1866    8    0    1
 -2       857       913       983      3588      3806      3807
 -1      1867    8    0    1
 -2       855       838       984      3412      3808      3809
 -1      1868    8    0    1
 -2       855       984       934      3809      3810      3657
 -1      1869    8    0    1
 -2       913       915       985      3593      3811      3812
 -1      1870    8    0    1
 -2       913       985       983      3812      3813      3806
 -1      1871    8    0    1
 -2       858       857       986      3424      3814      3815
 -1      1872    8    0    1
 -2       857       983       986      3807      3816      3814
 -1      1873    8    0    1
 -2       916       918       987      3649      3817      3818
 -1      1874    8    0    1
 -2       900       841       988      3658      3819      3820
 -1      1875    8    0    1
 -2       899       900       988      3551      3820      3821
 -1      1876    8    0    1
 -2       841       921       988      3612      3822      3819
 -1      1877    8    0    1
 -2       749       830       919      3319      3823      3603
 -1      1878    8    0    1
 -2       847       849       989      3387      3824      3825
 -1      1879    8    0    1
 -2       936       847       989      3663      3825      3826
 -1      1880    8    0    1
 -2       849       930       989      3640      3827      3824
 -1      1881    8    0    1
 -2       837       928       990      3634      3828      3829
 -1      1882    8    0    1
 -2       837       990       911      3829      3830      3583
 -1      1883    8    0    1
 -2       910       880       920      3610      3831      3799
 -1      1884    8    0    1
 -2       915       935       991      3661      3832      3833
 -1      1885    8    0    1
 -2       985       915       991      3811      3833      3834
 -1      1886    8    0    1
 -2       935       938       991      3671      3835      3832
 -1      1887    8    0    1
 -2       903       907       992      3653      3836      3837
 -1      1888    8    0    1
 -2       838       919       984      3604      3838      3808
 -1      1889    8    0    1
 -2       919       830       843      3823      3362      3839
 -1      1890    8    0    1
 -2       919       843       925      3839      3625      3840
 -1      1891    8    0    1
 -2       854       929       846      3800      3637      3641
 -1      1892    8    0    1
 -2       921       853       993      3613      3841      3842
 -1      1893    8    0    1
 -2       853       932       993      3647      3843      3841
 -1      1894    8    0    1
 -2       885       966       994      3754      3844      3845
 -1      1895    8    0    1
 -2       885       994       908      3845      3846      3573
 -1      1896    8    0    1
 -2       880       879       995      3490      3847      3848
 -1      1897    8    0    1
 -2       852       911       996      3582      3849      3850
 -1      1898    8    0    1
 -2       938       852       996      3669      3850      3851
 -1      1899    8    0    1
 -2       911       990       996      3830      3852      3849
 -1      1900    8    0    1
 -2       922       909       997      3614      3853      3854
 -1      1901    8    0    1
 -2       927       937       940      3749      3855      3856
 -1      1902    8    0    1
 -2       923       823       926      3619      3629      3857
 -1      1903    8    0    1
 -2       924       882       937      3623      3858      3668
 -1      1904    8    0    1
 -2       926       884       998      3627      3859      3860
 -1      1905    8    0    1
 -2       884       981       998      3802      3861      3859
 -1      1906    8    0    1
 -2       909       923       999      3618      3862      3863
 -1      1907    8    0    1
 -2       909       999       997      3863      3864      3853
 -1      1908    8    0    1
 -2       904       978      1000      3790      3865      3866
 -1      1909    8    0    1
 -2       977       899       988      3786      3821      3867
 -1      1910    8    0    1
 -2       916       987      1001      3818      3868      3869
 -1      1911    8    0    1
 -2       916      1001       932      3869      3870      3648
 -1      1912    8    0    1
 -2       964       912       963      3798      3871      3872
 -1      1913    8    0    1
 -2       920       880       995      3831      3848      3873
 -1      1914    8    0    1
 -2       930       902      1002      3638      3874      3875
 -1      1915    8    0    1
 -2       931       922      1003      3644      3876      3877
 -1      1916    8    0    1
 -2       922       997      1003      3854      3878      3876
 -1      1917    8    0    1
 -2       903       992       940      3837      3879      3679
 -1      1918    8    0    1
 -2       933       914      1004      3650      3880      3881
 -1      1919    8    0    1
 -2       995       879       961      3847      3741      3882
 -1      1920    8    0    1
 -2       931      1003       982      3877      3883      3803
 -1      1921    8    0    1
 -2       937       882       963      3858      3746      3884
 -1      1922    8    0    1
 -2       907       933       992      3652      3885      3836
 -1      1923    8    0    1
 -2       883       908      1005      3572      3886      3887
 -1      1924    8    0    1
 -2       908       994      1005      3846      3888      3886
 -1      1925    8    0    1
 -2       979       936      1004      3793      3889      3890
 -1      1926    8    0    1
 -2       981       883      1005      3801      3887      3891
 -1      1927    8    0    1
 -2       990       928      1006      3828      3892      3893
 -1      1928    8    0    1
 -2       918       920      1007      3609      3894      3895
 -1      1929    8    0    1
 -2       987       918      1007      3817      3895      3896
 -1      1930    8    0    1
 -2       920       995      1007      3873      3897      3894
 -1      1931    8    0    1
 -2       858       986       941      3815      3898      3681
 -1      1932    8    0    1
 -2       902       927       992      3631      3899      3900
 -1      1933    8    0    1
 -2       928       934      1008      3656      3901      3902
 -1      1934    8    0    1
 -2       928      1008      1006      3902      3903      3892
 -1      1935    8    0    1
 -2       914       850      1009      3645      3904      3905
 -1      1936    8    0    1
 -2       936       989      1004      3826      3906      3889
 -1      1937    8    0    1
 -2       984       919      1000      3838      3907      3908
 -1      1938    8    0    1
 -2       914      1009      1004      3905      3909      3880
 -1      1939    8    0    1
 -2       982      1003      1010      3883      3910      3911
 -1      1940    8    0    1
 -2       943       942      1011      3688      3912      3913
 -1      1941    8    0    1
 -2       944       943      1012      3691      3914      3915
 -1      1942    8    0    1
 -2       943      1011      1012      3913      3916      3914
 -1      1943    8    0    1
 -2       945       944      1013      3694      3917      3918
 -1      1944    8    0    1
 -2       944      1012      1013      3915      3919      3917
 -1      1945    8    0    1
 -2       946       945      1014      3697      3920      3921
 -1      1946    8    0    1
 -2       945      1013      1014      3918      3922      3920
 -1      1947    8    0    1
 -2       947       946      1015      3700      3923      3924
 -1      1948    8    0    1
 -2       946      1014      1015      3921      3925      3923
 -1      1949    8    0    1
 -2       948       947      1016      3703      3926      3927
 -1      1950    8    0    1
 -2       947      1015      1016      3924      3928      3926
 -1      1951    8    0    1
 -2       949       948      1017      3706      3929      3930
 -1      1952    8    0    1
 -2       948      1016      1017      3927      3931      3929
 -1      1953    8    0    1
 -2       950       949      1018      3709      3932      3933
 -1      1954    8    0    1
 -2       949      1017      1018      3930      3934      3932
 -1      1955    8    0    1
 -2       951       950      1019      3712      3935      3936
 -1      1956    8    0    1
 -2       950      1018      1019      3933      3937      3935
 -1      1957    8    0    1
 -2       952       951      1020      3715      3938      3939
 -1      1958    8    0    1
 -2       951      1019      1020      3936      3940      3938
 -1      1959    8    0    1
 -2       953       952      1021      3718      3941      3942
 -1      1960    8    0    1
 -2       952      1020      1021      3939      3943      3941
 -1      1961    8    0    1
 -2       954       953      1022      3721      3944      3945
 -1      1962    8    0    1
 -2       953      1021      1022      3942      3946      3944
 -1      1963    8    0    1
 -2       955       954      1023      3724      3947      3948
 -1      1964    8    0    1
 -2       954      1022      1023      3945      3949      3947
 -1      1965    8    0    1
 -2       956       955      1024      3727      3950      3951
 -1      1966    8    0    1
 -2       955      1023      1024      3948      3952      3950
 -1      1967    8    0    1
 -2       957       956      1025      3730      3953      3954
 -1      1968    8    0    1
 -2       956      1024      1025      3951      3955      3953
 -1      1969    8    0    1
 -2       958       957      1026      3733      3956      3957
 -1      1970    8    0    1
 -2       957      1025      1026      3954      3958      3956
 -1      1971    8    0    1
 -2       959       958      1027      3736      3959      3960
 -1      1972    8    0    1
 -2       958      1026      1027      3957      3961      3959
 -1      1973    8    0    1
 -2       960       959      1028      3739      3962      3963
 -1      1974    8    0    1
 -2       959      1027      1028      3960      3964      3962
 -1      1975    8    0    1
 -2       961       960      1029      3742      3965      3966
 -1      1976    8    0    1
 -2       960      1028      1029      3963      3967      3965
 -1      1977    8    0    1
 -2       967       968      1030      3761      3968      3969
 -1      1978    8    0    1
 -2       842       964       881      3748      3970      3606
 -1      1979    8    0    1
 -2       927       940       992      3856      3879      3899
 -1      1980    8    0    1
 -2       923       926      1031      3857      3971      3972
 -1      1981    8    0    1
 -2       999       923      1031      3862      3972      3973
 -1      1982    8    0    1
 -2       926       998      1031      3860      3974      3971
 -1      1983    8    0    1
 -2      1003       997      1032      3878      3975      3976
 -1      1984    8    0    1
 -2      1003      1032      1010      3976      3977      3910
 -1      1985    8    0    1
 -2       965       962      1033      3752      3978      3979
 -1      1986    8    0    1
 -2      1000       978      1034      3865      3980      3981
 -1      1987    8    0    1
 -2       962       967      1035      3758      3982      3983
 -1      1988    8    0    1
 -2       967      1030      1035      3969      3984      3982
 -1      1989    8    0    1
 -2       966       965      1036      3755      3985      3986
 -1      1990    8    0    1
 -2       965      1033      1036      3979      3987      3985
 -1      1991    8    0    1
 -2       968       969      1037      3764      3988      3989
 -1      1992    8    0    1
 -2       968      1037      1030      3989      3990      3968
 -1      1993    8    0    1
 -2       969       970      1038      3767      3991      3992
 -1      1994    8    0    1
 -2       969      1038      1037      3992      3993      3988
 -1      1995    8    0    1
 -2       970       971      1039      3770      3994      3995
 -1      1996    8    0    1
 -2       970      1039      1038      3995      3996      3991
 -1      1997    8    0    1
 -2       971       972      1040      3773      3997      3998
 -1      1998    8    0    1
 -2       971      1040      1039      3998      3999      3994
 -1      1999    8    0    1
 -2       972       973      1041      3776      4000      4001
 -1      2000    8    0    1
 -2       972      1041      1040      4001      4002      3997
 -1      2001    8    0    1
 -2       973       974      1042      3779      4003      4004
 -1      2002    8    0    1
 -2       973      1042      1041      4004      4005      4000
 -1      2003    8    0    1
 -2       974       975      1043      3782      4006      4007
 -1      2004    8    0    1
 -2       974      1043      1042      4007      4008      4003
 -1      2005    8    0    1
 -2       975       976      1044      3785      4009      4010
 -1      2006    8    0    1
 -2       975      1044      1043      4010      4011      4006
 -1      2007    8    0    1
 -2       976       977      1045      3788      4012      4013
 -1      2008    8    0    1
 -2       976      1045      1044      4013      4014      4009
 -1      2009    8    0    1
 -2       977       988      1046      3867      4015      4016
 -1      2010    8    0    1
 -2      1045       977      1046      4012      4016      4017
 -1      2011    8    0    1
 -2       988       921      1046      3822      4018      4015
 -1      2012    8    0    1
 -2       963       912       940      3871      3680      4019
 -1      2013    8    0    1
 -2       941       986      1047      3898      4020      4021
 -1      2014    8    0    1
 -2       964       963       881      3872      3745      3970
 -1      2015    8    0    1
 -2       995       961      1048      3882      4022      4023
 -1      2016    8    0    1
 -2      1007       995      1048      3897      4023      4024
 -1      2017    8    0    1
 -2       961      1029      1048      3966      4025      4022
 -1      2018    8    0    1
 -2       981      1005      1049      3891      4026      4027
 -1      2019    8    0    1
 -2       978       982      1050      3805      4028      4029
 -1      2020    8    0    1
 -2      1034       978      1050      3980      4029      4030
 -1      2021    8    0    1
 -2       982      1010      1050      3911      4031      4028
 -1      2022    8    0    1
 -2       850       939      1009      3677      4032      3904
 -1      2023    8    0    1
 -2       983       985      1051      3813      4033      4034
 -1      2024    8    0    1
 -2       933      1004       989      3881      3906      4035
 -1      2025    8    0    1
 -2       990      1006      1052      3893      4036      4037
 -1      2026    8    0    1
 -2       990      1052       996      4037      4038      3852
 -1      2027    8    0    1
 -2       919       925      1000      3840      4039      3907
 -1      2028    8    0    1
 -2       986       983      1053      3816      4040      4041
 -1      2029    8    0    1
 -2       983      1051      1053      4034      4042      4040
 -1      2030    8    0    1
 -2       989       930       933      3827      4043      4035
 -1      2031    8    0    1
 -2       942       941      1054      3685      4044      4045
 -1      2032    8    0    1
 -2       942      1054      1011      4045      4046      3912
 -1      2033    8    0    1
 -2       904      1000       925      3866      4039      3626
 -1      2034    8    0    1
 -2       981      1049      1055      4027      4047      4048
 -1      2035    8    0    1
 -2       981      1055       998      4048      4049      3861
 -1      2036    8    0    1
 -2       994       966      1056      3844      4050      4051
 -1      2037    8    0    1
 -2       966      1036      1056      3986      4052      4050
 -1      2038    8    0    1
 -2       938       996      1057      3851      4053      4054
 -1      2039    8    0    1
 -2       991       938      1057      3835      4054      4055
 -1      2040    8    0    1
 -2       996      1052      1057      4038      4056      4053
 -1      2041    8    0    1
 -2      1033       962      1035      3978      3983      4057
 -1      2042    8    0    1
 -2      1032       997      1058      3975      4058      4059
 -1      2043    8    0    1
 -2       997       999      1058      3864      4060      4058
 -1      2044    8    0    1
 -2      1046       921       993      4018      3842      4061
 -1      2045    8    0    1
 -2      1047       986      1053      4020      4041      4062
 -1      2046    8    0    1
 -2      1002       902       992      3874      3900      4063
 -1      2047    8    0    1
 -2       993       932      1059      3843      4064      4065
 -1      2048    8    0    1
 -2       932      1001      1059      3870      4066      4064
 -1      2049    8    0    1
 -2      1049      1005      1060      4026      4067      4068
 -1      2050    8    0    1
 -2      1005       994      1060      3888      4069      4067
 -1      2051    8    0    1
 -2       941      1047      1054      4021      4070      4044
 -1      2052    8    0    1
 -2       984      1000      1061      3908      4071      4072
 -1      2053    8    0    1
 -2       987      1007      1062      3896      4073      4074
 -1      2054    8    0    1
 -2      1001       987      1062      3868      4074      4075
 -1      2055    8    0    1
 -2      1007      1048      1062      4024      4076      4073
 -1      2056    8    0    1
 -2       985       991      1057      3834      4055      4077
 -1      2057    8    0    1
 -2      1051       985      1057      4033      4077      4078
 -1      2058    8    0    1
 -2      1052      1006      1063      4036      4079      4080
 -1      2059    8    0    1
 -2       934       984      1061      3810      4072      4081
 -1      2060    8    0    1
 -2       979      1004      1009      3890      3909      4082
 -1      2061    8    0    1
 -2      1006      1008      1064      3903      4083      4084
 -1      2062    8    0    1
 -2      1006      1064      1063      4084      4085      4079
 -1      2063    8    0    1
 -2      1008       934      1061      3901      4081      4086
 -1      2064    8    0    1
 -2      1061      1000      1034      4071      3981      4087
 -1      2065    8    0    1
 -2      1057      1052      1051      4056      4088      4078
 -1      2066    8    0    1
 -2      1013      1012      1065      3919      4089      4090
 -1      2067    8    0    1
 -2      1014      1013      1066      3922      4091      4092
 -1      2068    8    0    1
 -2      1013      1065      1066      4090      4093      4091
 -1      2069    8    0    1
 -2      1015      1014      1067      3925      4094      4095
 -1      2070    8    0    1
 -2      1014      1066      1067      4092      4096      4094
 -1      2071    8    0    1
 -2      1016      1015      1068      3928      4097      4098
 -1      2072    8    0    1
 -2      1015      1067      1068      4095      4099      4097
 -1      2073    8    0    1
 -2      1017      1016      1069      3931      4100      4101
 -1      2074    8    0    1
 -2      1016      1068      1069      4098      4102      4100
 -1      2075    8    0    1
 -2      1018      1017      1070      3934      4103      4104
 -1      2076    8    0    1
 -2      1017      1069      1070      4101      4105      4103
 -1      2077    8    0    1
 -2      1019      1018      1071      3937      4106      4107
 -1      2078    8    0    1
 -2      1018      1070      1071      4104      4108      4106
 -1      2079    8    0    1
 -2      1020      1019      1072      3940      4109      4110
 -1      2080    8    0    1
 -2      1019      1071      1072      4107      4111      4109
 -1      2081    8    0    1
 -2      1021      1020      1073      3943      4112      4113
 -1      2082    8    0    1
 -2      1020      1072      1073      4110      4114      4112
 -1      2083    8    0    1
 -2      1022      1021      1074      3946      4115      4116
 -1      2084    8    0    1
 -2      1021      1073      1074      4113      4117      4115
 -1      2085    8    0    1
 -2      1023      1022      1075      3949      4118      4119
 -1      2086    8    0    1
 -2      1022      1074      1075      4116      4120      4118
 -1      2087    8    0    1
 -2      1024      1023      1076      3952      4121      4122
 -1      2088    8    0    1
 -2      1023      1075      1076      4119      4123      4121
 -1      2089    8    0    1
 -2      1025      1024      1077      3955      4124      4125
 -1      2090    8    0    1
 -2      1024      1076      1077      4122      4126      4124
 -1      2091    8    0    1
 -2      1026      1025      1078      3958      4127      4128
 -1      2092    8    0    1
 -2      1025      1077      1078      4125      4129      4127
 -1      2093    8    0    1
 -2      1027      1026      1079      3961      4130      4131
 -1      2094    8    0    1
 -2      1026      1078      1079      4128      4132      4130
 -1      2095    8    0    1
 -2      1028      1027      1080      3964      4133      4134
 -1      2096    8    0    1
 -2      1027      1079      1080      4131      4135      4133
 -1      2097    8    0    1
 -2      1029      1028      1081      3967      4136      4137
 -1      2098    8    0    1
 -2      1028      1080      1081      4134      4138      4136
 -1      2099    8    0    1
 -2      1037      1038      1082      3993      4139      4140
 -1      2100    8    0    1
 -2      1052      1063      1051      4080      4141      4088
 -1      2101    8    0    1
 -2       940       937       963      3855      3884      4019
 -1      2102    8    0    1
 -2      1035      1030      1083      3984      4142      4143
 -1      2103    8    0    1
 -2      1036      1033      1084      3987      4144      4145
 -1      2104    8    0    1
 -2      1038      1039      1085      3996      4146      4147
 -1      2105    8    0    1
 -2      1038      1085      1082      4147      4148      4139
 -1      2106    8    0    1
 -2      1039      1040      1086      3999      4149      4150
 -1      2107    8    0    1
 -2      1039      1086      1085      4150      4151      4146
 -1      2108    8    0    1
 -2      1040      1041      1087      4002      4152      4153
 -1      2109    8    0    1
 -2      1040      1087      1086      4153      4154      4149
 -1      2110    8    0    1
 -2      1041      1042      1088      4005      4155      4156
 -1      2111    8    0    1
 -2      1041      1088      1087      4156      4157      4152
 -1      2112    8    0    1
 -2      1042      1043      1089      4008      4158      4159
 -1      2113    8    0    1
 -2      1042      1089      1088      4159      4160      4155
 -1      2114    8    0    1
 -2      1043      1044      1090      4011      4161      4162
 -1      2115    8    0    1
 -2      1043      1090      1089      4162      4163      4158
 -1      2116    8    0    1
 -2      1012      1011      1091      3916      4164      4165
 -1      2117    8    0    1
 -2      1012      1091      1065      4165      4166      4089
 -1      2118    8    0    1
 -2      1009       939       980      4032      3796      4167
 -1      2119    8    0    1
 -2      1047      1053      1092      4062      4168      4169
 -1      2120    8    0    1
 -2      1054      1047      1093      4070      4170      4171
 -1      2121    8    0    1
 -2      1047      1092      1093      4169      4172      4170
 -1      2122    8    0    1
 -2      1030      1037      1094      3990      4173      4174
 -1      2123    8    0    1
 -2      1037      1082      1094      4140      4175      4173
 -1      2124    8    0    1
 -2      1008      1061      1034      4086      4087      4176
 -1      2125    8    0    1
 -2      1011      1054      1095      4046      4177      4178
 -1      2126    8    0    1
 -2      1054      1093      1095      4171      4179      4177
 -1      2127    8    0    1
 -2      1053      1051      1096      4042      4180      4181
 -1      2128    8    0    1
 -2      1092      1053      1096      4168      4181      4182
 -1      2129    8    0    1
 -2      1051      1063      1096      4141      4183      4180
 -1      2130    8    0    1
 -2      1033      1035      1097      4057      4184      4185
 -1      2131    8    0    1
 -2      1084      1033      1097      4144      4185      4186
 -1      2132    8    0    1
 -2      1035      1083      1097      4143      4187      4184
 -1      2133    8    0    1
 -2      1046       993      1098      4061      4188      4189
 -1      2134    8    0    1
 -2       993      1059      1098      4065      4190      4188
 -1      2135    8    0    1
 -2       979      1009       980      4082      4167      3797
 -1      2136    8    0    1
 -2      1010      1032      1099      3977      4191      4192
 -1      2137    8    0    1
 -2      1008      1034      1064      4176      4193      4083
 -1      2138    8    0    1
 -2      1056      1036      1100      4052      4194      4195
 -1      2139    8    0    1
 -2      1036      1084      1100      4145      4196      4194
 -1      2140    8    0    1
 -2      1055      1049      1101      4047      4197      4198
 -1      2141    8    0    1
 -2      1099      1032      1102      4191      4199      4200
 -1      2142    8    0    1
 -2      1032      1058      1102      4059      4201      4199
 -1      2143    8    0    1
 -2       992       933      1002      3885      4202      4063
 -1      2144    8    0    1
 -2      1058       999      1103      4060      4203      4204
 -1      2145    8    0    1
 -2       999      1031      1103      3973      4205      4203
 -1      2146    8    0    1
 -2       994      1056      1060      4051      4206      4069
 -1      2147    8    0    1
 -2      1002       933       930      4202      4043      3875
 -1      2148    8    0    1
 -2      1101      1049      1104      4197      4207      4208
 -1      2149    8    0    1
 -2      1049      1060      1104      4068      4209      4207
 -1      2150    8    0    1
 -2      1091      1011      1095      4164      4178      4210
 -1      2151    8    0    1
 -2      1044      1045      1105      4014      4211      4212
 -1      2152    8    0    1
 -2      1045      1046      1098      4017      4189      4213
 -1      2153    8    0    1
 -2      1059      1001      1106      4066      4214      4215
 -1      2154    8    0    1
 -2      1001      1062      1106      4075      4216      4214
 -1      2155    8    0    1
 -2      1010      1099      1107      4192      4217      4218
 -1      2156    8    0    1
 -2      1010      1107      1050      4218      4219      4031
 -1      2157    8    0    1
 -2      1031       998      1108      3974      4220      4221
 -1      2158    8    0    1
 -2       998      1055      1108      4049      4222      4220
 -1      2159    8    0    1
 -2      1034      1050      1064      4030      4223      4193
 -1      2160    8    0    1
 -2      1083      1030      1094      4142      4174      4224
 -1      2161    8    0    1
 -2      1044      1105      1090      4212      4225      4161
 -1      2162    8    0    1
 -2      1048      1029      1109      4025      4226      4227
 -1      2163    8    0    1
 -2      1062      1048      1109      4076      4227      4228
 -1      2164    8    0    1
 -2      1029      1081      1109      4137      4229      4226
 -1      2165    8    0    1
 -2      1067      1066      1110      4096      4230      4231
 -1      2166    8    0    1
 -2      1068      1067      1104      4099      4232      4233
 -1      2167    8    0    1
 -2      1070      1069      1111      4105      4234      4235
 -1      2168    8    0    1
 -2      1071      1070      1084      4108      4236      4237
 -1      2169    8    0    1
 -2      1072      1071      1097      4111      4238      4239
 -1      2170    8    0    1
 -2      1073      1072      1083      4114      4240      4241
 -1      2171    8    0    1
 -2      1074      1073      1094      4117      4242      4243
 -1      2172    8    0    1
 -2      1075      1074      1082      4120      4244      4245
 -1      2173    8    0    1
 -2      1076      1075      1085      4123      4246      4247
 -1      2174    8    0    1
 -2      1077      1076      1086      4126      4248      4249
 -1      2175    8    0    1
 -2      1078      1077      1087      4129      4250      4251
 -1      2176    8    0    1
 -2      1079      1078      1088      4132      4252      4253
 -1      2177    8    0    1
 -2      1080      1079      1089      4135      4254      4255
 -1      2178    8    0    1
 -2      1081      1080      1090      4138      4256      4257
 -1      2179    8    0    1
 -2      1085      1086      1076      4151      4248      4247
 -1      2180    8    0    1
 -2      1055      1101      1112      4198      4258      4259
 -1      2181    8    0    1
 -2      1055      1112      1108      4259      4260      4222
 -1      2182    8    0    1
 -2      1085      1075      1082      4246      4245      4148
 -1      2183    8    0    1
 -2      1086      1087      1077      4154      4250      4249
 -1      2184    8    0    1
 -2      1094      1073      1083      4242      4241      4224
 -1      2185    8    0    1
 -2      1087      1088      1078      4157      4252      4251
 -1      2186    8    0    1
 -2      1088      1089      1079      4160      4254      4253
 -1      2187    8    0    1
 -2      1089      1090      1080      4163      4256      4255
 -1      2188    8    0    1
 -2      1065      1091      1113      4166      4261      4262
 -1      2189    8    0    1
 -2      1082      1074      1094      4244      4243      4175
 -1      2190    8    0    1
 -2      1093      1092      1099      4172      4263      4264
 -1      2191    8    0    1
 -2      1092      1096      1107      4182      4265      4266
 -1      2192    8    0    1
 -2      1093      1099      1102      4264      4200      4267
 -1      2193    8    0    1
 -2      1066      1065      1114      4093      4268      4269
 -1      2194    8    0    1
 -2      1110      1066      1114      4230      4269      4270
 -1      2195    8    0    1
 -2      1065      1113      1114      4262      4271      4268
 -1      2196    8    0    1
 -2      1095      1093      1102      4179      4267      4272
 -1      2197    8    0    1
 -2      1096      1063      1115      4183      4273      4274
 -1      2198    8    0    1
 -2      1060      1056      1116      4206      4275      4276
 -1      2199    8    0    1
 -2      1056      1100      1116      4195      4277      4275
 -1      2200    8    0    1
 -2      1091      1095      1117      4210      4278      4279
 -1      2201    8    0    1
 -2      1113      1091      1117      4261      4279      4280
 -1      2202    8    0    1
 -2      1095      1102      1117      4272      4281      4278
 -1      2203    8    0    1
 -2      1063      1064      1115      4085      4282      4273
 -1      2204    8    0    1
 -2      1090      1105      1081      4225      4283      4257
 -1      2205    8    0    1
 -2      1083      1072      1097      4240      4239      4187
 -1      2206    8    0    1
 -2      1071      1084      1097      4237      4186      4238
 -1      2207    8    0    1
 -2      1099      1092      1107      4263      4266      4217
 -1      2208    8    0    1
 -2      1069      1068      1118      4102      4284      4285
 -1      2209    8    0    1
 -2      1103      1031      1108      4205      4221      4286
 -1      2210    8    0    1
 -2      1112      1101      1110      4258      4287      4288
 -1      2211    8    0    1
 -2      1062      1109      1106      4228      4289      4216
 -1      2212    8    0    1
 -2      1105      1045      1098      4211      4213      4290
 -1      2213    8    0    1
 -2      1105      1098      1059      4290      4190      4291
 -1      2214    8    0    1
 -2      1105      1059      1106      4291      4215      4292
 -1      2215    8    0    1
 -2      1069      1118      1111      4285      4293      4234
 -1      2216    8    0    1
 -2      1118      1068      1104      4284      4233      4294
 -1      2217    8    0    1
 -2      1096      1115      1107      4274      4295      4265
 -1      2218    8    0    1
 -2      1084      1070      1111      4236      4235      4296
 -1      2219    8    0    1
 -2      1081      1105      1106      4283      4292      4297
 -1      2220    8    0    1
 -2      1102      1058      1117      4201      4298      4281
 -1      2221    8    0    1
 -2      1058      1103      1117      4204      4299      4298
 -1      2222    8    0    1
 -2      1064      1050      1107      4223      4219      4300
 -1      2223    8    0    1
 -2      1067      1110      1104      4231      4301      4232
 -1      2224    8    0    1
 -2      1103      1108      1113      4286      4302      4303
 -1      2225    8    0    1
 -2      1112      1110      1114      4288      4270      4304
 -1      2226    8    0    1
 -2      1118      1104      1116      4294      4305      4306
 -1      2227    8    0    1
 -2      1060      1116      1104      4276      4305      4209
 -1      2228    8    0    1
 -2      1117      1103      1113      4299      4303      4280
 -1      2229    8    0    1
 -2      1111      1118      1116      4293      4306      4307
 -1      2230    8    0    1
 -2      1113      1108      1112      4302      4260      4308
 -1      2231    8    0    1
 -2      1100      1084      1111      4196      4296      4309
 -1      2232    8    0    1
 -2      1081      1106      1109      4297      4289      4229
 -1      2233    8    0    1
 -2      1100      1111      1116      4309      4307      4277
 -1      2234    8    0    1
 -2      1110      1101      1104      4287      4208      4301
 -1      2235    8    0    1
 -2      1113      1112      1114      4308      4304      4271
 -1      2236    8    0    1
 -2      1115      1064      1107      4282      4300      4295
 -3
    1PSTEP                         1           1           1          
  100CL  101 1.000000000        4309                     0    1           1
 -4  DISP        4    1
 -5  D1          1    2    1    0
 -5  D2          1    2    2    0
 -5  D3          1    2    3    0
 -5  ALL         1    2    0    0    1ALL
 -1         1 1.11281E-02-8.16574E-04-1.11729E-13
 -1         2 1.32763E-02 5.48760E-05-1.22938E-13
 -1         3 1.50112E-02 5.62487E-04-1.77618E-13
 -1         4 1.48931E-02-3.70761E-04-1.86238E-13
 -1         5 0.00000E+00 0.00000E+00 0.00000E+00
 -1         6 0.00000E+00 0.00000E+00 0.00000E+00
 -1         7 0.00000E+00 0.00000E+00 0.00000E+00
 -1         8 0.00000E+00 0.00000E+00 0.00000E+00
 -1         9 0.00000E+00 0.00000E+00 0.00000E+00
 -1        10 0.00000E+00 0.00000E+00 0.00000E+00
 -1        11 0.00000E+00 0.00000E+00 0.00000E+00
 -1        12 0.00000E+00 0.00000E+00 0.00000E+00
 -1        13 0.00000E+00 0.00000E+00 0.00000E+00
 -1        14 0.00000E+00 0.00000E+00 0.00000E+00
 -1        15 0.00000E+00 0.00000E+00 0.00000E+00
 -1        16 0.00000E+00 0.00000E+00 0.00000E+00
 -1        17 0.00000E+00 0.00000E+00 0.00000E+00
 -1        18 0.00000E+00 0.00000E+00 0.00000E+00
 -1        19 0.00000E+00 0.00000E+00 0.00000E+00
 -1        20 0.00000E+00 0.00000E+00 0.00000E+00
 -1        21 0.00000E+00 0.00000E+00 0.00000E+00
 -1        22 0.00000E+00 0.00000E+00 0.00000E+00
 -1        23 4.11377E-04-2.60760E-04 4.59634E-17
 -1        24 7.03340E-04-4.01033E-04-1.33204E-16
 -1        25 9.73376E-04-4.98431E-04-5.30666E-16
 -1        26 1.23782E-03-5.67187E-04-1.14063E-15
 -1        27 1.50129E-03-6.16441E-04-1.95865E-15
 -1        28 1.76587E-03-6.51565E-04-2.98064E-15
 -1        29 2.03253E-03-6.76263E-04-4.20230E-15
 -1        30 2.30161E-03-6.93222E-04-5.61697E-15
 -1        31 2.57318E-03-7.04445E-04-7.22172E-15
 -1        32 2.84709E-03-7.11439E-04-9.01413E-15
 -1        33 3.12312E-03-7.15332E-04-1.09874E-14
 -1        34 3.40100E-03-7.16953E-04-1.31305E-14
 -1        35 3.68048E-03-7.16899E-04-1.54417E-14
 -1        36 3.96132E-03-7.15579E-04-1.79135E-14
 -1        37 4.24334E-03-7.13261E-04-2.05473E-14
 -1        38 4.52642E-03-7.10100E-04-2.33374E-14
 -1        39 4.81050E-03-7.06173E-04-2.62804E-14
 -1        40 5.09565E-03-7.01507E-04-2.93737E-14
 -1        41 5.38200E-03-6.96105E-04-3.26131E-14
 -1        42 5.66982E-03-6.89985E-04-3.60002E-14
 -1        43 5.95953E-03-6.83213E-04-3.95278E-14
 -1        44 6.25169E-03-6.75958E-04-4.31886E-14
 -1        45 6.54704E-03-6.68554E-04-4.69843E-14
 -1        46 6.84649E-03-6.61582E-04-5.09200E-14
 -1        47 7.15113E-03-6.55976E-04-5.49832E-14
 -1        48 7.46214E-03-6.53141E-04-5.91663E-14
 -1        49 7.78073E-03-6.55083E-04-6.34676E-14
 -1        50 8.10783E-03-6.64506E-04-6.78902E-14
 -1        51 8.44378E-03-6.84803E-04-7.24229E-14
 -1        52 8.78771E-03-7.19806E-04-7.70662E-14
 -1        53 9.13686E-03-7.73083E-04-8.18186E-14
 -1        54 9.48594E-03-8.46551E-04-8.66913E-14
 -1        55 9.82708E-03-9.38375E-04-9.16607E-14
 -1        56 1.01512E-02-1.04067E-03-9.67234E-14
 -1        57 1.04510E-02-1.13849E-03-1.01893E-13
 -1        58 1.07254E-02-1.21201E-03-1.07158E-13
 -1        59 1.09817E-02-1.24292E-03-1.12514E-13
 -1        60 1.12349E-02-1.22227E-03-1.17948E-13
 -1        61 1.15003E-02-1.15492E-03-1.23462E-13
 -1        62 1.17880E-02-1.05692E-03-1.29058E-13
 -1        63 1.20989E-02-9.48025E-04-1.34734E-13
 -1        64 1.24267E-02-8.44436E-04-1.40453E-13
 -1        65 1.27621E-02-7.55273E-04-1.46208E-13
 -1        66 1.30962E-02-6.82812E-04-1.51992E-13
 -1        67 1.34228E-02-6.24554E-04-1.57790E-13
 -1        68 1.37384E-02-5.75458E-04-1.63575E-13
 -1        69 1.40421E-02-5.29630E-04-1.69330E-13
 -1        70 1.43355E-02-4.81531E-04-1.75053E-13
 -1        71 1.46223E-02-4.27434E-04-1.80782E-13
 -1        72 4.13824E-04 2.61465E-04 9.15948E-17
 -1        73 7.03166E-04 4.03740E-04-6.62380E-18
 -1        74 9.73914E-04 5.00207E-04-2.91535E-16
 -1        75 1.23865E-03 5.68901E-04-7.66460E-16
 -1        76 1.50225E-03 6.18201E-04-1.43175E-15
 -1        77 1.76690E-03 6.53415E-04-2.28722E-15
 -1        78 2.03359E-03 6.78225E-04-3.32868E-15
 -1        79 2.30270E-03 6.95307E-04-4.55482E-15
 -1        80 2.57428E-03 7.06658E-04-5.96410E-15
 -1        81 2.84820E-03 7.13783E-04-7.55647E-15
 -1        82 3.12423E-03 7.17809E-04-9.32767E-15
 -1        83 3.40212E-03 7.19563E-04-1.12732E-14
 -1        84 3.68160E-03 7.19641E-04-1.33853E-14
 -1        85 3.96244E-03 7.18452E-04-1.56645E-14
 -1        86 4.24445E-03 7.16262E-04-1.81113E-14
 -1        87 4.52752E-03 7.13226E-04-2.07236E-14
 -1        88 4.81160E-03 7.09416E-04-2.34890E-14
 -1        89 5.09673E-03 7.04855E-04-2.64062E-14
 -1        90 5.38307E-03 6.99541E-04-2.94731E-14
 -1        91 5.67089E-03 6.93481E-04-3.26871E-14
 -1        92 5.96062E-03 6.86732E-04-3.60447E-14
 -1        93 6.25282E-03 6.79446E-04-3.95380E-14
 -1        94 6.54829E-03 6.71939E-04-4.31664E-14
 -1        95 6.84798E-03 6.64777E-04-4.69173E-14
 -1        96 7.15308E-03 6.58885E-04-5.07862E-14
 -1        97 7.46491E-03 6.55686E-04-5.47796E-14
 -1        98 7.78489E-03 6.57254E-04-5.88983E-14
 -1        99 8.11426E-03 6.66460E-04-6.31235E-14
 -1       100 8.45370E-03 6.87029E-04-6.74517E-14
 -1       101 8.80273E-03 7.23355E-04-7.18895E-14
 -1       102 9.15887E-03 7.79845E-04-7.64170E-14
 -1       103 9.51674E-03 8.59447E-04-8.10347E-14
 -1       104 9.86777E-03 9.61207E-04-8.57519E-14
 -1       105 1.02014E-02 1.07733E-03-9.05706E-14
 -1       106 1.05086E-02 1.19143E-03-9.55100E-14
 -1       107 1.07869E-02 1.28068E-03-1.00574E-13
 -1       108 1.10445E-02 1.32328E-03-1.05746E-13
 -1       109 1.12981E-02 1.30839E-03-1.11018E-13
 -1       110 1.15663E-02 1.24186E-03-1.16376E-13
 -1       111 1.18600E-02 1.14286E-03-1.21806E-13
 -1       112 1.21796E-02 1.03446E-03-1.27298E-13
 -1       113 1.25171E-02 9.34815E-04-1.32816E-13
 -1       114 1.28613E-02 8.53401E-04-1.38366E-13
 -1       115 1.32027E-02 7.91808E-04-1.43951E-13
 -1       116 1.35345E-02 7.46506E-04-1.49563E-13
 -1       117 1.38535E-02 7.11505E-04-1.55207E-13
 -1       118 1.41593E-02 6.80179E-04-1.60864E-13
 -1       119 1.44535E-02 6.46473E-04-1.66540E-13
 -1       120 1.47404E-02 6.06234E-04-1.72228E-13
 -1       121 1.50582E-02 4.77554E-04-1.78160E-13
 -1       122 1.51110E-02 3.94571E-04-1.78703E-13
 -1       123 1.51701E-02 3.18783E-04-1.79239E-13
 -1       124 1.52314E-02 2.54013E-04-1.79766E-13
 -1       125 1.52890E-02 2.01984E-04-1.80281E-13
 -1       126 1.53363E-02 1.63008E-04-1.80827E-13
 -1       127 1.53691E-02 1.33649E-04-1.81394E-13
 -1       128 1.53823E-02 1.10975E-04-1.81945E-13
 -1       129 1.53738E-02 9.02214E-05-1.82479E-13
 -1       130 1.53439E-02 6.63542E-05-1.82978E-13
 -1       131 1.52953E-02 3.49125E-05-1.83475E-13
 -1       132 1.52337E-02-6.49640E-06-1.83987E-13
 -1       133 1.51627E-02-6.08462E-05-1.84472E-13
 -1       134 1.50888E-02-1.27361E-04-1.84918E-13
 -1       135 1.50176E-02-2.04240E-04-1.85358E-13
 -1       136 1.49522E-02-2.87245E-04-1.85804E-13
 -1       137 1.32265E-02 2.36832E-04-1.22417E-13
 -1       138 1.30779E-02 4.08912E-04-1.21335E-13
 -1       139 1.28359E-02 5.67271E-04-1.19746E-13
 -1       140 1.25124E-02 7.03861E-04-1.17740E-13
 -1       141 1.21391E-02 8.07491E-04-1.15512E-13
 -1       142 1.16889E-02 8.82668E-04-1.12895E-13
 -1       143 1.12304E-02 9.14073E-04-1.10309E-13
 -1       144 1.07351E-02 9.01965E-04-1.07566E-13
 -1       145 1.02807E-02 8.48070E-04-1.05117E-13
 -1       146 9.86685E-03 7.58088E-04-1.02935E-13
 -1       147 9.50666E-03 6.38098E-04-1.01087E-13
 -1       148 9.22181E-03 4.98342E-04-9.96843E-14
 -1       149 8.99957E-03 3.28080E-04-9.86578E-14
 -1       150 8.88776E-03 1.66961E-04-9.82169E-14
 -1       151 8.86318E-03-1.70582E-05-9.82853E-14
 -1       152 8.94069E-03-1.91145E-04-9.89029E-14
 -1       153 9.13826E-03-3.72253E-04-1.00187E-13
 -1       154 9.40967E-03-5.20941E-04-1.01857E-13
 -1       155 9.78466E-03-6.53929E-04-1.04082E-13
 -1       156 1.01714E-02-7.42055E-04-1.06324E-13
 -1       157 1.06496E-02-8.02049E-04-1.09039E-13
 -1       158 1.16107E-02-7.87087E-04-1.14397E-13
 -1       159 1.20723E-02-7.13502E-04-1.16933E-13
 -1       160 1.24848E-02-6.01291E-04-1.19159E-13
 -1       161 1.28169E-02-4.62595E-04-1.20901E-13
 -1       162 1.30699E-02-2.99182E-04-1.22170E-13
 -1       163 1.32237E-02-1.24632E-04-1.22856E-13
 -1       164 2.40392E-04-1.25545E-04-4.72543E-17
 -1       165 2.25266E-04-9.46507E-05-7.54571E-17
 -1       166 2.19518E-04-7.28078E-05-9.02056E-17
 -1       167 2.16709E-04-5.51366E-05-9.77239E-17
 -1       168 2.15228E-04-3.99931E-05-1.01339E-16
 -1       169 2.14398E-04-2.59328E-05-1.02376E-16
 -1       170 2.13982E-04-1.26528E-05-1.02017E-16
 -1       171 2.13861E-04 2.73472E-07-1.00655E-16
 -1       172 2.14001E-04 1.32120E-05-9.84828E-17
 -1       173 2.14439E-04 2.65314E-05-9.48779E-17
 -1       174 2.15277E-04 4.04183E-05-8.96838E-17
 -1       175 2.16820E-04 5.59435E-05-8.16709E-17
 -1       176 2.19669E-04 7.38483E-05-6.91755E-17
 -1       177 2.25435E-04 9.60489E-05-4.87349E-17
 -1       178 2.39322E-04 1.27623E-04-1.47180E-17
 -1       179 2.97696E-04 1.85526E-04 2.16502E-17
 -1       180 4.68599E-04-2.63596E-04-1.26950E-16
 -1       181 7.66715E-04-3.82213E-04-4.54399E-16
 -1       182 1.05053E-03-4.65111E-04-9.84246E-16
 -1       183 1.32788E-03-5.23894E-04-1.71675E-15
 -1       184 1.60242E-03-5.65569E-04-2.64905E-15
 -1       185 1.87624E-03-5.94816E-04-3.77809E-15
 -1       186 2.15047E-03-6.14932E-04-5.09932E-15
 -1       187 2.42569E-03-6.28327E-04-6.60912E-15
 -1       188 2.70218E-03-6.36794E-04-8.30450E-15
 -1       189 2.98001E-03-6.41668E-04-1.01811E-14
 -1       190 3.25913E-03-6.43934E-04-1.22322E-14
 -1       191 3.53946E-03-6.44301E-04-1.44508E-14
 -1       192 3.82089E-03-6.43263E-04-1.68351E-14
 -1       193 4.10330E-03-6.41145E-04-1.93779E-14
 -1       194 4.38664E-03-6.38141E-04-2.20799E-14
 -1       195 4.67088E-03-6.34348E-04-2.49355E-14
 -1       196 4.95603E-03-6.29793E-04-2.79408E-14
 -1       197 5.24222E-03-6.24464E-04-3.10941E-14
 -1       198 5.52961E-03-6.18341E-04-3.43935E-14
 -1       199 5.81850E-03-6.11428E-04-3.78331E-14
 -1       200 6.10926E-03-6.03802E-04-4.14136E-14
 -1       201 6.40240E-03-5.95667E-04-4.51294E-14
 -1       202 6.69853E-03-5.87430E-04-4.89824E-14
 -1       203 6.99838E-03-5.79797E-04-5.29680E-14
 -1       204 7.30276E-03-5.73898E-04-5.70755E-14
 -1       205 7.61249E-03-5.71423E-04-6.13025E-14
 -1       206 7.92829E-03-5.74763E-04-6.56468E-14
 -1       207 8.25061E-03-5.87102E-04-7.01069E-14
 -1       208 8.57932E-03-6.12342E-04-7.46764E-14
 -1       209 8.91340E-03-6.54695E-04-7.93576E-14
 -1       210 9.25056E-03-7.17666E-04-8.41500E-14
 -1       211 9.58699E-03-8.02193E-04-8.90462E-14
 -1       212 9.91765E-03-9.04066E-04-9.40398E-14
 -1       213 1.02374E-02-1.01159E-03-9.91327E-14
 -1       214 1.05431E-02-1.10556E-03-1.04329E-13
 -1       215 1.08360E-02-1.16382E-03-1.09624E-13
 -1       216 1.11223E-02-1.17000E-03-1.15000E-13
 -1       217 1.14112E-02-1.12167E-03-1.20459E-13
 -1       218 1.17100E-02-1.03151E-03-1.25998E-13
 -1       219 1.20213E-02-9.20669E-04-1.31616E-13
 -1       220 1.23428E-02-8.09433E-04-1.37296E-13
 -1       221 1.26697E-02-7.11154E-04-1.43017E-13
 -1       222 1.29963E-02-6.31072E-04-1.48767E-13
 -1       223 1.33185E-02-5.68180E-04-1.54539E-13
 -1       224 1.36334E-02-5.17832E-04-1.60309E-13
 -1       225 1.39399E-02-4.73856E-04-1.66071E-13
 -1       226 1.42383E-02-4.29958E-04-1.71807E-13
 -1       227 1.45301E-02-3.80838E-04-1.77533E-13
 -1       228 6.04532E-04 3.31093E-04-1.07732E-16
 -1       229 8.93595E-04 4.32731E-04-4.13162E-16
 -1       230 1.17244E-03 5.04489E-04-9.01558E-16
 -1       231 1.44674E-03 5.55571E-04-1.57587E-15
 -1       232 1.71949E-03 5.91791E-04-2.43619E-15
 -1       233 1.99231E-03 6.17121E-04-3.48141E-15
 -1       234 2.26604E-03 6.34423E-04-4.70968E-15
 -1       235 2.54109E-03 6.45811E-04-6.11932E-15
 -1       236 2.81759E-03 6.52867E-04-7.70816E-15
 -1       237 3.09555E-03 6.56768E-04-9.47407E-15
 -1       238 3.37486E-03 6.58374E-04-1.14139E-14
 -1       239 3.65540E-03 6.58299E-04-1.35209E-14
 -1       240 3.93705E-03 6.56964E-04-1.57944E-14
 -1       241 4.21970E-03 6.54635E-04-1.82336E-14
 -1       242 4.50328E-03 6.51463E-04-2.08339E-14
 -1       243 4.78779E-03 6.47513E-04-2.35886E-14
 -1       244 5.07328E-03 6.42792E-04-2.64973E-14
 -1       245 5.35990E-03 6.37276E-04-2.95544E-14
 -1       246 5.64787E-03 6.30946E-04-3.27562E-14
 -1       247 5.93754E-03 6.23821E-04-3.61046E-14
 -1       248 6.22938E-03 6.16009E-04-3.95882E-14
 -1       249 6.52400E-03 6.07771E-04-4.32067E-14
 -1       250 6.82213E-03 5.99607E-04-4.69469E-14
 -1       251 7.12466E-03 5.92367E-04-5.08065E-14
 -1       252 7.43257E-03 5.87397E-04-5.47935E-14
 -1       253 7.74683E-03 5.86706E-04-5.89022E-14
 -1       254 8.06832E-03 5.93137E-04-6.31187E-14
 -1       255 8.39750E-03 6.10473E-04-6.74408E-14
 -1       256 8.73410E-03 6.43332E-04-7.18707E-14
 -1       257 9.07661E-03 6.96597E-04-7.63949E-14
 -1       258 9.42181E-03 7.74029E-04-8.10096E-14
 -1       259 9.76459E-03 8.75762E-04-8.57229E-14
 -1       260 1.00985E-02 9.95009E-04-9.05387E-14
 -1       261 1.04179E-02 1.11559E-03-9.54739E-14
 -1       262 1.07203E-02 1.21335E-03-1.00529E-13
 -1       263 1.10097E-02 1.26371E-03-1.05689E-13
 -1       264 1.12956E-02 1.25317E-03-1.10947E-13
 -1       265 1.15888E-02 1.18663E-03-1.16293E-13
 -1       266 1.18962E-02 1.08447E-03-1.21714E-13
 -1       267 1.22181E-02 9.71886E-04-1.27195E-13
 -1       268 1.25497E-02 8.68781E-04-1.32717E-13
 -1       269 1.28844E-02 7.85460E-04-1.38269E-13
 -1       270 1.32162E-02 7.23601E-04-1.43850E-13
 -1       271 1.35407E-02 6.79372E-04-1.49457E-13
 -1       272 1.38558E-02 6.46356E-04-1.55094E-13
 -1       273 1.41610E-02 6.17489E-04-1.60751E-13
 -1       274 1.44575E-02 5.86240E-04-1.66424E-13
 -1       275 1.47474E-02 5.47817E-04-1.72105E-13
 -1       276 1.48366E-02 4.77828E-04-1.73519E-13
 -1       277 1.48947E-02 4.00093E-04-1.74055E-13
 -1       278 1.49582E-02 3.29452E-04-1.74588E-13
 -1       279 1.50214E-02 2.67302E-04-1.75122E-13
 -1       280 1.50770E-02 2.14849E-04-1.75648E-13
 -1       281 1.51205E-02 1.69443E-04-1.76189E-13
 -1       282 1.51455E-02 1.30035E-04-1.76731E-13
 -1       283 1.51485E-02 9.36482E-05-1.77262E-13
 -1       284 1.51283E-02 5.68268E-05-1.77778E-13
 -1       285 1.50868E-02 1.62221E-05-1.78286E-13
 -1       286 1.50291E-02-3.00036E-05-1.78776E-13
 -1       287 1.49587E-02-8.50943E-05-1.79260E-13
 -1       288 1.48827E-02-1.48837E-04-1.79725E-13
 -1       289 1.48071E-02-2.20631E-04-1.80172E-13
 -1       290 1.46666E-02-2.99357E-04-1.78855E-13
 -1       291 1.32879E-02 1.04911E-04-1.25037E-13
 -1       292 1.31461E-02 2.11864E-04-1.24082E-13
 -1       293 1.28845E-02 3.47873E-04-1.22489E-13
 -1       294 1.25400E-02 5.15437E-04-1.20342E-13
 -1       295 1.21696E-02 6.95894E-04-1.17732E-13
 -1       296 1.17714E-02 8.56084E-04-1.14921E-13
 -1       297 1.13874E-02 9.62979E-04-1.11815E-13
 -1       298 1.10021E-02 9.94761E-04-1.08654E-13
 -1       299 1.06147E-02 9.24873E-04-1.05608E-13
 -1       300 1.02313E-02 7.87778E-04-1.02889E-13
 -1       301 9.83869E-03 6.16325E-04-1.00629E-13
 -1       302 9.47747E-03 4.41478E-04-9.87514E-14
 -1       303 9.15815E-03 2.82707E-04-9.73468E-14
 -1       304 8.93617E-03 1.56924E-04-9.65071E-14
 -1       305 8.83393E-03 5.40744E-05-9.60226E-14
 -1       306 8.87548E-03-4.06379E-05-9.65567E-14
 -1       307 9.06676E-03-1.48682E-04-9.74125E-14
 -1       308 9.36657E-03-3.16662E-04-9.94776E-14
 -1       309 9.75126E-03-4.87106E-04-1.01551E-13
 -1       310 1.01304E-02-6.70345E-04-1.04317E-13
 -1       311 1.05202E-02-8.11251E-04-1.07209E-13
 -1       312 1.09210E-02-8.93403E-04-1.10379E-13
 -1       313 1.13076E-02-8.71200E-04-1.13533E-13
 -1       314 1.17028E-02-7.68802E-04-1.16669E-13
 -1       315 1.21144E-02-5.99702E-04-1.19512E-13
 -1       316 1.25202E-02-4.16537E-04-1.21765E-13
 -1       317 1.28695E-02-2.38535E-04-1.23686E-13
 -1       318 1.31403E-02-9.84825E-05-1.24847E-13
 -1       319 1.32847E-02 7.18123E-06-1.25144E-13
 -1       320 4.55384E-04-1.64854E-04-3.06118E-16
 -1       321 4.74231E-04-2.13034E-04-2.60984E-16
 -1       322 4.40459E-04-9.40627E-05-3.46118E-16
 -1       323 4.37511E-04-6.49472E-05-3.52715E-16
 -1       324 4.35898E-04-3.79283E-05-3.54019E-16
 -1       325 4.35192E-04-1.20244E-05-3.51844E-16
 -1       326 4.35222E-04 1.35452E-05-3.46481E-16
 -1       327 4.35994E-04 3.95067E-05-3.37661E-16
 -1       328 4.37651E-04 6.61771E-05-3.24671E-16
 -1       329 4.40695E-04 9.54632E-05-3.06185E-16
 -1       330 4.46067E-04 1.28382E-04-2.79443E-16
 -1       331 4.55885E-04 1.67364E-04-2.39944E-16
 -1       332 4.75865E-04 2.17102E-04-1.80784E-16
 -1       333 5.31985E-04 2.70029E-04-1.54689E-16
 -1       334 8.24440E-04 3.73587E-04-4.70933E-16
 -1       335 8.63209E-04-3.57488E-04-8.09933E-16
 -1       336 1.14954E-03-4.26242E-04-1.46358E-15
 -1       337 1.43230E-03-4.75425E-04-2.31236E-15
 -1       338 1.71297E-03-5.10125E-04-3.35349E-15
 -1       339 1.99271E-03-5.34158E-04-4.58511E-15
 -1       340 2.27225E-03-5.50331E-04-6.00296E-15
 -1       341 2.55209E-03-5.60742E-04-7.60436E-15
 -1       342 2.83247E-03-5.66959E-04-9.38663E-15
 -1       343 3.11353E-03-5.70141E-04-1.13448E-14
 -1       344 3.39531E-03-5.71134E-04-1.34726E-14
 -1       345 3.67780E-03-5.70532E-04-1.57669E-14
 -1       346 3.96097E-03-5.68735E-04-1.82225E-14
 -1       347 4.24481E-03-5.65990E-04-2.08357E-14
 -1       348 4.52930E-03-5.62428E-04-2.36041E-14
 -1       349 4.81448E-03-5.58097E-04-2.65236E-14
 -1       350 5.10040E-03-5.52986E-04-2.95913E-14
 -1       351 5.38717E-03-5.47058E-04-3.28039E-14
 -1       352 5.67497E-03-5.40279E-04-3.61606E-14
 -1       353 5.96403E-03-5.32660E-04-3.96577E-14
 -1       354 6.25466E-03-5.24305E-04-4.32921E-14
 -1       355 6.54725E-03-5.15475E-04-4.70642E-14
 -1       356 6.84226E-03-5.06671E-04-5.09710E-14
 -1       357 7.14024E-03-4.98748E-04-5.50032E-14
 -1       358 7.44181E-03-4.93042E-04-5.91554E-14
 -1       359 7.74762E-03-4.91518E-04-6.34248E-14
 -1       360 8.05835E-03-4.96912E-04-6.78115E-14
 -1       361 8.37461E-03-5.12790E-04-7.23090E-14
 -1       362 8.69684E-03-5.43421E-04-7.69169E-14
 -1       363 9.02500E-03-5.93227E-04-8.16319E-14
 -1       364 9.35818E-03-6.65527E-04-8.64538E-14
 -1       365 9.69397E-03-7.60267E-04-9.13781E-14
 -1       366 1.00281E-02-8.70842E-04-9.64001E-14
 -1       367 1.03554E-02-9.81460E-04-1.01522E-13
 -1       368 1.06723E-02-1.06794E-03-1.06747E-13
 -1       369 1.09805E-02-1.10559E-03-1.12066E-13
 -1       370 1.12868E-02-1.08166E-03-1.17469E-13
 -1       371 1.15993E-02-1.00324E-03-1.22956E-13
 -1       372 1.19211E-02-8.92601E-04-1.28520E-13
 -1       373 1.22500E-02-7.74815E-04-1.34156E-13
 -1       374 1.25807E-02-6.67907E-04-1.39845E-13
 -1       375 1.29084E-02-5.80146E-04-1.45570E-13
 -1       376 1.32300E-02-5.12045E-04-1.51314E-13
 -1       377 1.35443E-02-4.59534E-04-1.57066E-13
 -1       378 1.38510E-02-4.16493E-04-1.62817E-13
 -1       379 1.41505E-02-3.76339E-04-1.68557E-13
 -1       380 1.44106E-02-3.41040E-04-1.73706E-13
 -1       381 1.10989E-03 4.47919E-04-9.64950E-16
 -1       382 1.39060E-03 5.00978E-04-1.64109E-15
 -1       383 1.66886E-03 5.38564E-04-2.50041E-15
 -1       384 1.94621E-03 5.64791E-04-3.54257E-15
 -1       385 2.22357E-03 5.82655E-04-4.76632E-15
 -1       386 2.50148E-03 5.94376E-04-6.16975E-15
 -1       387 2.78023E-03 6.01611E-04-7.75014E-15
 -1       388 3.05992E-03 6.05591E-04-9.50680E-15
 -1       389 3.34056E-03 6.07215E-04-1.14358E-14
 -1       390 3.62213E-03 6.07125E-04-1.35328E-14
 -1       391 3.90455E-03 6.05757E-04-1.57953E-14
 -1       392 4.18779E-03 6.03388E-04-1.82220E-14
 -1       393 4.47180E-03 6.00174E-04-2.08086E-14
 -1       394 4.75660E-03 5.96177E-04-2.35500E-14
 -1       395 5.04225E-03 5.91398E-04-2.64450E-14
 -1       396 5.32885E-03 5.85804E-04-2.94892E-14
 -1       397 5.61660E-03 5.79355E-04-3.26782E-14
 -1       398 5.90577E-03 5.72047E-04-3.60133E-14
 -1       399 6.19672E-03 5.63953E-04-3.94854E-14
 -1       400 6.48991E-03 5.55289E-04-4.30897E-14
 -1       401 6.78592E-03 5.46494E-04-4.68184E-14
 -1       402 7.08541E-03 5.38344E-04-5.06678E-14
 -1       403 7.38914E-03 5.32087E-04-5.46436E-14
 -1       404 7.69791E-03 5.29621E-04-5.87400E-14
 -1       405 8.01248E-03 5.33669E-04-6.29479E-14
 -1       406 8.33348E-03 5.47920E-04-6.72600E-14
 -1       407 8.66119E-03 5.76994E-04-7.16794E-14
 -1       408 8.99527E-03 6.26015E-04-7.61961E-14
 -1       409 9.33430E-03 6.99422E-04-8.08056E-14
 -1       410 9.67534E-03 7.98648E-04-8.55134E-14
 -1       411 1.00137E-02 9.18650E-04-9.03213E-14
 -1       412 1.03439E-02 1.04456E-03-9.52475E-14
 -1       413 1.06620E-02 1.15158E-03-1.00289E-13
 -1       414 1.09691E-02 1.21191E-03-1.05438E-13
 -1       415 1.12721E-02 1.20792E-03-1.10688E-13
 -1       416 1.15805E-02 1.14278E-03-1.16020E-13
 -1       417 1.18994E-02 1.03824E-03-1.21432E-13
 -1       418 1.22282E-02 9.22082E-04-1.26908E-13
 -1       419 1.25619E-02 8.16015E-04-1.32426E-13
 -1       420 1.28950E-02 7.31011E-04-1.37979E-13
 -1       421 1.32231E-02 6.68728E-04-1.43557E-13
 -1       422 1.35438E-02 6.25107E-04-1.49159E-13
 -1       423 1.38560E-02 5.93508E-04-1.54793E-13
 -1       424 1.41598E-02 5.66667E-04-1.60448E-13
 -1       425 1.44560E-02 5.37833E-04-1.66117E-13
 -1       426 1.46474E-02 5.09741E-04-1.69819E-13
 -1       427 1.47477E-02 3.25166E-04-1.69941E-13
 -1       428 1.46804E-02 3.95147E-04-1.69403E-13
 -1       429 1.46614E-02 4.50979E-04-1.69613E-13
 -1       430 1.48105E-02 2.63225E-04-1.70468E-13
 -1       431 1.48644E-02 2.07037E-04-1.71000E-13
 -1       432 1.49015E-02 1.56667E-04-1.71529E-13
 -1       433 1.49168E-02 1.10077E-04-1.72055E-13
 -1       434 1.49080E-02 6.45349E-05-1.72577E-13
 -1       435 1.48753E-02 1.71202E-05-1.73089E-13
 -1       436 1.48231E-02-3.37687E-05-1.73578E-13
 -1       437 1.47549E-02-9.15583E-05-1.74061E-13
 -1       438 1.46779E-02-1.56154E-04-1.74529E-13
 -1       439 1.45985E-02-2.27439E-04-1.74986E-13
 -1       440 1.30121E-02 2.13510E-04-1.25776E-13
 -1       441 1.33214E-02 5.66081E-05-1.27491E-13
 -1       442 1.32467E-02 1.16036E-04-1.27598E-13
 -1       443 1.26751E-02 3.67386E-04-1.23311E-13
 -1       444 1.22783E-02 5.67711E-04-1.20426E-13
 -1       445 4.45599E-04-1.26536E-04-3.31874E-16
 -1       446 1.15153E-02 9.40569E-04-1.13807E-13
 -1       447 1.11999E-02 1.02140E-03-1.10440E-13
 -1       448 1.08285E-02 9.96657E-04-1.06449E-13
 -1       449 1.04846E-02 8.68819E-04-1.03181E-13
 -1       450 1.00950E-02 6.70513E-04-1.00266E-13
 -1       451 9.72422E-03 4.67769E-04-9.77516E-14
 -1       452 9.34722E-03 2.92016E-04-9.61835E-14
 -1       453 9.04464E-03 1.53058E-04-9.45172E-14
 -1       454 8.87487E-03 8.25731E-05-9.40357E-14
 -1       455 8.82075E-03 1.59812E-05-9.40879E-14
 -1       456 8.93752E-03-4.28999E-05-9.45562E-14
 -1       457 9.26329E-03-1.74855E-04-9.64051E-14
 -1       458 9.57847E-03-3.22235E-04-9.84274E-14
 -1       459 1.00286E-02-5.62341E-04-1.01890E-13
 -1       460 1.03909E-02-7.48401E-04-1.04994E-13
 -1       461 1.07345E-02-8.81572E-04-1.08326E-13
 -1       462 1.11238E-02-9.27354E-04-1.12504E-13
 -1       463 1.14232E-02-8.60571E-04-1.15629E-13
 -1       464 1.18368E-02-6.76999E-04-1.19490E-13
 -1       465 1.22630E-02-4.58572E-04-1.22380E-13
 -1       466 1.26379E-02-2.60589E-04-1.25054E-13
 -1       467 1.30003E-02-1.00618E-04-1.26812E-13
 -1       468 1.32412E-02-4.04903E-06-1.27390E-13
 -1       469 1.19119E-02 7.59753E-04-1.17442E-13
 -1       470 9.31203E-04 3.46125E-04-8.27680E-16
 -1       471 6.65898E-04-7.51768E-05-7.50868E-16
 -1       472 6.69841E-04-1.15953E-04-7.43387E-16
 -1       473 6.63244E-04 1.10581E-06-7.43068E-16
 -1       474 6.63959E-04 3.87904E-05-7.29160E-16
 -1       475 6.66085E-04 7.68654E-05-7.08706E-16
 -1       476 6.70155E-04 1.17795E-04-6.79527E-16
 -1       477 6.77135E-04 1.62426E-04-6.39019E-16
 -1       478 6.89017E-04 2.12797E-04-5.82525E-16
 -1       479 1.21706E-03 4.06619E-04-1.44663E-15
 -1       480 9.76243E-04-3.28770E-04-1.20332E-15
 -1       481 1.20814E-02 6.55981E-04-1.20488E-13
 -1       482 1.26219E-03-3.83656E-04-1.97224E-15
 -1       483 1.54716E-03-4.23342E-04-2.92970E-15
 -1       484 1.83127E-03-4.51351E-04-4.07477E-15
 -1       485 2.11479E-03-4.70534E-04-5.40407E-15
 -1       486 2.39804E-03-4.83163E-04-6.91511E-15
 -1       487 2.68127E-03-4.90987E-04-8.60476E-15
 -1       488 2.96465E-03-4.95324E-04-1.04697E-14
 -1       489 3.24829E-03-4.97147E-04-1.25069E-14
 -1       490 3.53222E-03-4.97156E-04-1.47115E-14
 -1       491 3.81648E-03-4.95832E-04-1.70796E-14
 -1       492 4.10109E-03-4.93485E-04-1.96052E-14
 -1       493 4.38604E-03-4.90292E-04-2.22856E-14
 -1       494 4.67138E-03-4.86332E-04-2.51201E-14
 -1       495 4.95712E-03-4.81612E-04-2.81030E-14
 -1       496 5.24332E-03-4.76095E-04-3.12325E-14
 -1       497 5.53007E-03-4.69730E-04-3.45061E-14
 -1       498 5.81748E-03-4.62487E-04-3.79200E-14
 -1       499 6.10572E-03-4.54393E-04-4.14737E-14
 -1       500 6.39496E-03-4.45591E-04-4.51652E-14
 -1       501 6.68548E-03-4.36403E-04-4.89919E-14
 -1       502 6.97760E-03-4.27418E-04-5.29494E-14
 -1       503 7.27173E-03-4.19606E-04-5.70280E-14
 -1       504 7.56845E-03-4.14443E-04-6.12241E-14
 -1       505 7.86851E-03-4.14059E-04-6.55359E-14
 -1       506 8.17294E-03-4.21367E-04-6.99618E-14
 -1       507 8.48313E-03-4.40144E-04-7.44975E-14
 -1       508 8.80075E-03-4.74936E-04-7.91395E-14
 -1       509 9.12742E-03-5.30589E-04-8.38855E-14
 -1       510 9.46378E-03-6.10960E-04-8.87377E-14
 -1       511 9.80789E-03-7.16087E-04-9.36879E-14
 -1       512 1.01540E-02-8.37408E-04-9.87371E-14
 -1       513 1.04938E-02-9.53291E-04-1.03891E-13
 -1       514 1.08223E-02-1.03043E-03-1.09145E-13
 -1       515 1.11436E-02-1.03962E-03-1.14491E-13
 -1       516 1.14686E-02-9.76282E-04-1.19925E-13
 -1       517 1.18042E-02-8.64078E-04-1.25438E-13
 -1       518 1.21476E-02-7.36933E-04-1.31030E-13
 -1       519 1.24907E-02-6.20199E-04-1.36684E-13
 -1       520 1.28265E-02-5.25217E-04-1.42380E-13
 -1       521 1.31520E-02-4.52961E-04-1.48102E-13
 -1       522 1.34672E-02-3.99123E-04-1.53835E-13
 -1       523 1.37734E-02-3.57382E-04-1.59572E-13
 -1       524 1.40723E-02-3.21057E-04-1.65302E-13
 -1       525 1.78386E-03 4.81126E-04-3.22260E-15
 -1       526 2.06582E-03 5.02400E-04-4.38003E-15
 -1       527 2.34754E-03 5.16585E-04-5.71458E-15
 -1       528 2.62935E-03 5.25574E-04-7.22519E-15
 -1       529 2.91146E-03 5.30787E-04-8.91074E-15
 -1       530 3.19401E-03 5.33275E-04-1.07682E-14
 -1       531 3.47703E-03 5.33796E-04-1.27943E-14
 -1       532 3.76054E-03 5.32878E-04-1.49860E-14
 -1       533 4.04455E-03 5.30866E-04-1.73411E-14
 -1       534 4.32905E-03 5.27965E-04-1.98567E-14
 -1       535 4.61406E-03 5.24272E-04-2.25284E-14
 -1       536 4.89961E-03 5.19806E-04-2.53534E-14
 -1       537 5.18577E-03 5.14536E-04-2.83291E-14
 -1       538 5.47264E-03 5.08407E-04-3.14532E-14
 -1       539 5.76036E-03 5.01378E-04-3.47217E-14
 -1       540 6.04915E-03 4.93455E-04-3.81302E-14
 -1       541 6.33924E-03 4.84746E-04-4.16743E-14
 -1       542 6.63096E-03 4.75529E-04-4.53446E-14
 -1       543 6.92471E-03 4.66343E-04-4.91391E-14
 -1       544 7.22097E-03 4.58102E-04-5.30560E-14
 -1       545 7.52031E-03 4.52246E-04-5.70959E-14
 -1       546 7.82345E-03 4.50913E-04-6.12541E-14
 -1       547 8.13130E-03 4.57111E-04-6.55171E-14
 -1       548 8.44498E-03 4.74846E-04-6.98873E-14
 -1       549 8.76577E-03 5.09078E-04-7.43606E-14
 -1       550 9.09495E-03 5.65266E-04-7.89271E-14
 -1       551 9.43302E-03 6.48087E-04-8.35916E-14
 -1       552 9.77839E-03 7.58669E-04-8.83573E-14
 -1       553 1.01261E-02 8.89922E-04-9.32303E-14
 -1       554 1.04683E-02 1.02156E-03-9.82148E-14
 -1       555 1.07991E-02 1.12056E-03-1.03312E-13
 -1       556 1.11211E-02 1.15391E-03-1.08518E-13
 -1       557 1.14443E-02 1.11049E-03-1.13813E-13
 -1       558 1.17773E-02 1.00957E-03-1.19189E-13
 -1       559 1.21196E-02 8.86031E-04-1.24635E-13
 -1       560 1.24642E-02 7.69376E-04-1.30137E-13
 -1       561 1.28035E-02 6.75030E-04-1.35673E-13
 -1       562 1.31336E-02 6.06196E-04-1.41238E-13
 -1       563 1.34537E-02 5.59122E-04-1.46826E-13
 -1       564 1.37645E-02 5.27141E-04-1.52447E-13
 -1       565 1.40673E-02 5.02919E-04-1.58096E-13
 -1       566 1.43631E-02 4.79369E-04-1.63758E-13
 -1       567 1.46015E-02 2.44810E-04-1.65814E-13
 -1       568 1.46516E-02 1.86277E-04-1.66340E-13
 -1       569 1.44677E-02 3.79607E-04-1.64758E-13
 -1       570 1.45378E-02 3.09067E-04-1.65288E-13
 -1       571 1.46810E-02 1.32683E-04-1.66862E-13
 -1       572 1.46851E-02 8.16053E-05-1.67379E-13
 -1       573 1.46627E-02 2.99878E-05-1.67890E-13
 -1       574 1.46170E-02-2.40941E-05-1.68380E-13
 -1       575 1.45516E-02-8.44979E-05-1.68862E-13
 -1       576 1.44739E-02-1.51205E-04-1.69336E-13
 -1       577 1.43910E-02-2.24049E-04-1.69798E-13
 -1       578 1.33545E-02 7.43353E-05-1.31039E-13
 -1       579 1.28493E-02 2.69790E-04-1.27195E-13
 -1       580 1.50115E-03 4.50277E-04-2.24469E-15
 -1       581 1.33398E-02 4.19058E-05-1.30944E-13
 -1       582 1.31626E-02 1.48171E-04-1.29498E-13
 -1       583 7.12585E-04-2.51917E-04-6.80838E-16
 -1       584 1.31753E-02-1.92643E-05-1.30104E-13
 -1       585 1.09112E-02-9.36827E-04-1.10110E-13
 -1       586 9.05330E-03-8.10263E-05-9.29651E-14
 -1       587 9.20020E-03 1.98528E-04-9.32774E-14
 -1       588 6.63849E-04-3.65431E-05-7.50366E-16
 -1       589 1.10215E-02 1.04789E-03-1.08118E-13
 -1       590 8.82366E-03 8.81017E-07-9.17053E-14
 -1       591 1.13450E-02 1.00949E-03-1.12335E-13
 -1       592 1.06649E-02 9.53633E-04-1.03832E-13
 -1       593 1.02913E-02 7.64836E-04-1.00056E-13
 -1       594 9.93732E-03 5.62912E-04-9.71816E-14
 -1       595 9.51380E-03 3.39044E-04-9.48190E-14
 -1       596 8.90730E-03 9.09396E-05-9.10036E-14
 -1       597 1.02343E-02-6.61467E-04-1.02473E-13
 -1       598 8.78492E-03 4.10629E-05-9.10600E-14
 -1       599 9.40977E-03-2.28050E-04-9.53793E-14
 -1       600 1.20606E-02-5.43091E-04-1.23318E-13
 -1       601 9.82930E-03-4.38057E-04-9.87600E-14
 -1       602 1.05776E-02-8.35880E-04-1.05994E-13
 -1       603 1.12795E-02-9.17962E-04-1.15006E-13
 -1       604 1.16097E-02-7.87362E-04-1.18862E-13
 -1       605 1.23965E-02-3.60115E-04-1.26002E-13
 -1       606 1.28457E-02-1.46029E-04-1.28805E-13
 -1       607 1.17169E-02 8.54835E-04-1.16784E-13
 -1       608 7.03775E-04 2.90974E-04-4.43859E-16
 -1       609 1.24714E-02 4.45911E-04-1.23825E-13
 -1       610 6.76596E-04-1.60120E-04-7.25629E-16
 -1       611 1.33405E-02 1.03498E-04-1.32948E-13
 -1       612 1.42692E-02-2.97905E-04-1.69182E-13
 -1       613 8.99885E-04 7.41550E-05-1.23893E-15
 -1       614 8.97809E-04 2.51919E-05-1.26604E-15
 -1       615 9.11889E-04 1.78318E-04-1.14803E-15
 -1       616 9.24213E-04 2.36895E-04-1.07708E-15
 -1       617 1.04886E-03 3.14027E-04-1.23276E-15
 -1       618 1.33224E-02 1.66643E-05-1.33671E-13
 -1       619 1.15441E-02 9.62457E-04-1.15233E-13
 -1       620 1.38328E-03-3.37119E-04-2.51096E-15
 -1       621 1.66948E-03-3.68040E-04-3.57080E-15
 -1       622 1.95570E-03-3.89760E-04-4.81379E-15
 -1       623 2.24174E-03-4.04450E-04-6.23644E-15
 -1       624 2.52760E-03-4.13883E-04-7.83637E-15
 -1       625 2.81332E-03-4.19456E-04-9.60989E-15
 -1       626 3.09896E-03-4.22227E-04-1.15554E-14
 -1       627 3.38455E-03-4.22979E-04-1.36695E-14
 -1       628 3.67014E-03-4.22264E-04-1.59494E-14
 -1       629 3.95574E-03-4.20451E-04-1.83887E-14
 -1       630 4.24138E-03-4.17767E-04-2.09824E-14
 -1       631 4.52708E-03-4.14329E-04-2.37305E-14
 -1       632 4.81284E-03-4.10170E-04-2.66302E-14
 -1       633 5.09868E-03-4.05268E-04-2.96770E-14
 -1       634 5.38461E-03-3.99574E-04-3.28684E-14
 -1       635 5.67067E-03-3.93034E-04-3.61997E-14
 -1       636 5.95687E-03-3.85629E-04-3.96729E-14
 -1       637 6.24327E-03-3.77410E-04-4.32843E-14
 -1       638 6.52994E-03-3.68551E-04-4.70297E-14
 -1       639 6.81700E-03-3.59417E-04-5.09100E-14
 -1       640 7.10465E-03-3.50639E-04-5.49158E-14
 -1       641 7.39327E-03-3.43215E-04-5.90397E-14
 -1       642 7.68347E-03-3.38624E-04-6.32807E-14
 -1       643 7.97629E-03-3.38961E-04-6.76346E-14
 -1       644 8.27338E-03-3.47097E-04-7.20995E-14
 -1       645 8.57725E-03-3.66859E-04-7.66716E-14
 -1       646 8.89127E-03-4.03217E-04-8.13460E-14
 -1       647 9.21924E-03-4.62245E-04-8.61220E-14
 -1       648 9.56378E-03-5.50144E-04-9.10008E-14
 -1       649 9.92258E-03-6.69047E-04-9.59793E-14
 -1       650 1.02873E-02-8.09077E-04-1.01058E-13
 -1       651 1.06432E-02-9.34519E-04-1.06243E-13
 -1       652 1.09861E-02-9.95106E-04-1.11531E-13
 -1       653 1.13263E-02-9.58203E-04-1.16908E-13
 -1       654 1.16786E-02-8.41807E-04-1.22372E-13
 -1       655 1.20416E-02-6.97132E-04-1.27915E-13
 -1       656 1.24032E-02-5.65211E-04-1.33532E-13
 -1       657 1.27520E-02-4.62097E-04-1.39198E-13
 -1       658 1.30840E-02-3.87268E-04-1.44896E-13
 -1       659 1.34007E-02-3.34182E-04-1.50610E-13
 -1       660 1.37058E-02-2.95253E-04-1.56330E-13
 -1       661 1.40024E-02-2.63534E-04-1.62048E-13
 -1       662 2.19061E-03 4.37368E-04-5.24749E-15
 -1       663 1.41796E-02 3.96768E-04-1.59091E-13
 -1       664 1.90562E-03 4.20715E-04-3.97936E-15
 -1       665 2.76005E-03 4.54833E-04-8.30594E-15
 -1       666 3.04473E-03 4.58354E-04-1.00930E-14
 -1       667 3.32950E-03 4.59652E-04-1.20485E-14
 -1       668 3.61439E-03 4.59338E-04-1.41708E-14
 -1       669 3.89944E-03 4.57829E-04-1.64558E-14
 -1       670 4.18467E-03 4.55384E-04-1.89014E-14
 -1       671 4.47008E-03 4.52142E-04-2.15046E-14
 -1       672 4.75571E-03 4.48153E-04-2.42603E-14
 -1       673 5.04157E-03 4.43401E-04-2.71684E-14
 -1       674 5.32770E-03 4.37838E-04-3.02273E-14
 -1       675 5.61416E-03 4.31403E-04-3.34301E-14
 -1       676 5.90102E-03 4.24063E-04-3.67756E-14
 -1       677 6.18835E-03 4.15849E-04-4.02584E-14
 -1       678 6.47628E-03 4.06911E-04-4.38710E-14
 -1       679 6.76496E-03 3.97586E-04-4.76077E-14
 -1       680 7.05463E-03 3.88488E-04-5.14687E-14
 -1       681 7.34562E-03 3.80615E-04-5.54531E-14
 -1       682 7.63847E-03 3.75485E-04-5.95583E-14
 -1       683 7.93402E-03 3.75293E-04-6.37745E-14
 -1       684 8.23367E-03 3.83087E-04-6.80968E-14
 -1       685 8.53949E-03 4.02938E-04-7.25234E-14
 -1       686 8.85447E-03 4.40071E-04-7.70480E-14
 -1       687 9.18213E-03 5.00757E-04-8.16679E-14
 -1       688 9.52532E-03 5.91375E-04-8.63891E-14
 -1       689 9.88297E-03 7.14905E-04-9.12138E-14
 -1       690 1.02485E-02 8.63648E-04-9.61472E-14
 -1       691 1.06072E-02 1.00602E-03-1.01186E-13
 -1       692 1.09531E-02 1.09288E-03-1.06340E-13
 -1       693 1.12929E-02 1.08352E-03-1.11598E-13
 -1       694 1.16421E-02 9.86372E-04-1.16942E-13
 -1       695 1.20033E-02 8.48866E-04-1.22363E-13
 -1       696 1.23665E-02 7.16384E-04-1.27841E-13
 -1       697 1.27190E-02 6.11801E-04-1.33362E-13
 -1       698 1.30556E-02 5.38074E-04-1.38915E-13
 -1       699 1.33768E-02 4.89638E-04-1.44494E-13
 -1       700 1.36858E-02 4.58708E-04-1.50099E-13
 -1       701 1.39359E-02 4.25310E-04-1.54590E-13
 -1       702 1.26796E-02 3.75577E-04-1.27888E-13
 -1       703 1.44609E-02 1.03045E-04-1.62199E-13
 -1       704 1.41977E-02-2.44575E-04-1.65921E-13
 -1       705 1.43953E-02 2.17514E-04-1.61160E-13
 -1       706 1.44510E-02 4.93659E-05-1.62705E-13
 -1       707 1.44410E-02 1.57940E-04-1.61682E-13
 -1       708 1.22579E-02-4.56684E-04-1.26840E-13
 -1       709 1.44131E-02-5.99768E-06-1.63192E-13
 -1       710 1.43508E-02-6.78912E-05-1.63675E-13
 -1       711 1.42721E-02-1.36703E-04-1.64149E-13
 -1       712 1.30856E-02 2.05973E-04-1.31627E-13
 -1       713 1.34164E-02 5.83114E-05-1.34191E-13
 -1       714 1.07406E-02-9.19713E-04-1.07743E-13
 -1       715 9.61610E-04-2.66860E-04-1.28579E-15
 -1       716 1.00214E-02-5.71920E-04-9.90796E-14
 -1       717 9.30196E-03 2.55344E-04-9.13259E-14
 -1       718 9.15565E-03-1.52583E-04-9.11775E-14
 -1       719 1.62028E-03 3.96291E-04-2.88670E-15
 -1       720 2.47537E-03 4.48227E-04-6.68997E-15
 -1       721 1.33459E-03 3.61658E-04-1.97134E-15
 -1       722 1.00863E-02 6.72674E-04-9.67025E-14
 -1       723 1.26849E-02-2.44446E-04-1.30622E-13
 -1       724 9.04308E-04 1.24686E-04-1.20061E-15
 -1       725 1.03721E-02-7.55980E-04-1.03069E-13
 -1       726 1.18527E-02-6.86910E-04-1.23004E-13
 -1       727 8.98678E-03 1.36173E-04-8.90750E-14
 -1       728 1.04634E-02 8.79440E-04-1.00658E-13
 -1       729 8.85624E-03-3.10783E-05-8.96733E-14
 -1       730 1.30954E-02-6.54723E-05-1.32850E-13
 -1       731 9.03940E-04-1.22273E-04-1.28462E-15
 -1       732 8.75740E-03 5.71404E-05-8.80103E-14
 -1       733 9.58884E-03-3.48282E-04-9.47923E-14
 -1       734 9.66843E-03 4.33821E-04-9.36464E-14
 -1       735 8.73293E-03 1.97446E-05-8.87924E-14
 -1       736 1.14766E-02-8.73445E-04-1.18410E-13
 -1       737 1.10600E-02-9.67421E-04-1.12364E-13
 -1       738 1.19317E-02 7.67227E-04-1.20110E-13
 -1       739 1.08156E-02 1.03261E-03-1.04850E-13
 -1       740 1.23392E-02 5.44558E-04-1.24526E-13
 -1       741 1.12105E-02 1.06378E-03-1.10521E-13
 -1       742 9.11351E-04-1.75702E-04-1.26688E-15
 -1       743 8.97749E-04-2.31687E-05-1.28286E-15
 -1       744 1.43314E-02 2.83187E-04-1.60638E-13
 -1       745 1.33103E-02 1.51191E-04-1.35085E-13
 -1       746 8.99683E-04-7.18627E-05-1.28926E-15
 -1       747 1.41394E-02-1.97357E-04-1.63102E-13
 -1       748 1.01837E-02-7.13489E-04-1.00055E-13
 -1       749 1.16159E-03 2.43744E-04-1.72226E-15
 -1       750 1.79738E-03-3.09527E-04-4.23611E-15
 -1       751 2.08507E-03-3.25531E-04-5.57165E-15
 -1       752 2.37289E-03-3.36179E-04-7.08322E-15
 -1       753 2.66061E-03-3.42803E-04-8.76680E-15
 -1       754 2.94812E-03-3.46467E-04-1.06212E-14
 -1       755 3.23539E-03-3.47982E-04-1.26453E-14
 -1       756 3.52239E-03-3.47940E-04-1.48348E-14
 -1       757 3.80915E-03-3.46753E-04-1.71866E-14
 -1       758 4.09565E-03-3.44687E-04-1.96948E-14
 -1       759 4.38191E-03-3.41894E-04-2.23571E-14
 -1       760 4.66792E-03-3.38438E-04-2.51719E-14
 -1       761 4.95367E-03-3.34320E-04-2.81348E-14
 -1       762 5.23912E-03-3.29503E-04-3.12460E-14
 -1       763 5.52422E-03-3.23931E-04-3.44975E-14
 -1       764 5.80893E-03-3.17559E-04-3.78889E-14
 -1       765 6.09315E-03-3.10379E-04-4.14199E-14
 -1       766 6.37682E-03-3.02462E-04-4.50877E-14
 -1       767 6.65987E-03-2.93994E-04-4.88893E-14
 -1       768 6.94228E-03-2.85338E-04-5.28194E-14
 -1       769 7.22415E-03-2.77088E-04-5.68726E-14
 -1       770 7.50579E-03-2.70146E-04-6.10425E-14
 -1       771 7.78786E-03-2.65814E-04-6.53280E-14
 -1       772 8.07168E-03-2.65919E-04-6.97228E-14
 -1       773 8.35951E-03-2.73041E-04-7.42230E-14
 -1       774 8.65503E-03-2.90937E-04-7.88302E-14
 -1       775 8.96373E-03-3.25344E-04-8.35374E-14
 -1       776 9.29208E-03-3.85079E-04-8.83439E-14
 -1       777 9.64655E-03-4.81441E-04-9.32505E-14
 -1       778 1.19292E-02-6.78666E-04-1.24862E-13
 -1       779 1.23117E-02-5.22538E-04-1.30437E-13
 -1       780 1.26750E-02-4.06540E-04-1.36073E-13
 -1       781 1.30137E-02-3.28532E-04-1.41745E-13
 -1       782 1.33313E-02-2.76763E-04-1.47438E-13
 -1       783 1.36341E-02-2.41197E-04-1.53146E-13
 -1       784 1.38890E-02-2.18219E-04-1.58122E-13
 -1       785 2.03278E-03 3.57618E-04-4.77043E-15
 -1       786 3.18013E-03 3.84639E-04-1.12975E-14
 -1       787 2.89354E-03 3.82503E-04-9.41182E-15
 -1       788 3.75282E-03 3.84129E-04-1.55662E-14
 -1       789 4.03896E-03 3.82262E-04-1.79435E-14
 -1       790 4.32499E-03 3.79604E-04-2.04786E-14
 -1       791 4.61091E-03 3.76239E-04-2.31675E-14
 -1       792 4.89671E-03 3.72178E-04-2.60077E-14
 -1       793 5.18239E-03 3.67388E-04-2.89993E-14
 -1       794 5.46792E-03 3.61811E-04-3.21385E-14
 -1       795 5.75328E-03 3.55395E-04-3.54207E-14
 -1       796 6.03842E-03 3.48123E-04-3.88420E-14
 -1       797 6.32330E-03 3.40057E-04-4.23951E-14
 -1       798 6.60788E-03 3.31380E-04-4.60755E-14
 -1       799 6.89216E-03 3.22461E-04-4.98812E-14
 -1       800 7.17619E-03 3.13928E-04-5.38083E-14
 -1       801 7.46021E-03 3.06754E-04-5.78602E-14
 -1       802 7.74474E-03 3.02360E-04-6.20285E-14
 -1       803 8.03083E-03 3.02748E-04-6.63036E-14
 -1       804 8.32041E-03 3.10699E-04-7.06841E-14
 -1       805 8.61670E-03 3.30105E-04-7.51668E-14
 -1       806 8.92466E-03 3.66594E-04-7.97460E-14
 -1       807 9.25078E-03 4.28316E-04-8.44216E-14
 -1       808 9.60099E-03 5.26038E-04-8.91995E-14
 -1       809 1.22805E-02 6.57354E-04-1.25538E-13
 -1       810 1.26497E-02 5.38122E-04-1.31043E-13
 -1       811 1.29935E-02 4.60778E-04-1.36585E-13
 -1       812 1.33145E-02 4.14058E-04-1.42157E-13
 -1       813 1.36193E-02 3.86750E-04-1.47754E-13
 -1       814 1.42416E-02 7.14368E-05-1.57542E-13
 -1       815 1.40745E-02-1.15163E-04-1.58975E-13
 -1       816 1.42141E-02 1.66749E-05-1.58026E-13
 -1       817 1.34711E-02 3.58977E-05-1.37749E-13
 -1       818 1.33219E-02-2.15409E-05-1.37058E-13
 -1       819 1.74573E-03 3.39135E-04-3.56794E-15
 -1       820 8.77300E-03 9.54933E-05-8.56146E-14
 -1       821 1.41552E-02-4.50125E-05-1.58506E-13
 -1       822 1.29755E-02 3.06508E-04-1.32880E-13
 -1       823 3.46654E-03 3.85024E-04-1.33501E-14
 -1       824 1.25170E-02-3.71314E-04-1.31199E-13
 -1       825 8.63491E-03 3.23339E-05-8.51944E-14
 -1       826 9.08787E-03 2.12807E-04-8.74344E-14
 -1       827 1.51026E-03-2.86609E-04-3.07914E-15
 -1       828 8.68629E-03-7.45758E-06-8.60639E-14
 -1       829 1.30051E-02-1.48741E-04-1.35324E-13
 -1       830 1.24624E-03 3.00955E-04-1.85302E-15
 -1       831 9.27311E-03-2.68247E-04-9.01142E-14
 -1       832 1.20818E-03-2.33463E-04-2.07789E-15
 -1       833 1.34970E-02 8.67337E-05-1.37594E-13
 -1       834 8.87220E-03-8.44725E-05-8.72605E-14
 -1       835 1.13844E-03 5.90841E-05-1.91283E-15
 -1       836 1.26243E-02 4.65590E-04-1.29202E-13
 -1       837 1.13709E-03 1.19891E-06-1.94336E-15
 -1       838 1.14991E-03 1.79194E-04-1.80467E-15
 -1       839 1.41298E-02 2.51421E-04-1.55996E-13
 -1       840 8.96170E-03-1.78080E-04-8.62106E-14
 -1       841 8.83145E-03 1.56043E-04-8.39974E-14
 -1       842 1.28554E-02-2.57539E-04-1.35914E-13
 -1       843 1.49561E-03 3.24205E-04-2.64048E-15
 -1       844 1.19749E-03-1.68303E-04-2.10732E-15
 -1       845 2.60678E-03 3.77946E-04-7.69445E-15
 -1       846 1.38669E-02 3.56896E-04-1.52234E-13
 -1       847 1.41950E-02 1.84706E-04-1.56519E-13
 -1       848 2.31985E-03 3.70052E-04-6.14660E-15
 -1       849 1.42348E-02 1.25957E-04-1.57033E-13
 -1       850 1.32290E-02 2.32302E-04-1.36345E-13
 -1       851 9.31652E-03 3.44940E-04-8.78652E-14
 -1       852 1.19083E-03-1.06256E-04-2.11751E-15
 -1       853 8.59538E-03 6.20352E-05-8.28321E-14
 -1       854 1.40356E-02 3.33995E-04-1.55294E-13
 -1       855 1.14253E-03 1.17994E-04-1.86705E-15
 -1       856 1.39837E-02-1.64702E-04-1.58554E-13
 -1       857 2.21857E-03-2.58772E-04-6.34686E-15
 -1       858 2.50767E-03-2.65926E-04-7.94255E-15
 -1       859 2.79670E-03-2.70185E-04-9.70617E-15
 -1       860 3.08545E-03-2.72314E-04-1.16397E-14
 -1       861 3.37382E-03-2.72893E-04-1.37407E-14
 -1       862 3.66175E-03-2.72340E-04-1.60023E-14
 -1       863 3.94922E-03-2.70938E-04-1.84246E-14
 -1       864 4.23620E-03-2.68863E-04-2.10016E-14
 -1       865 4.52266E-03-2.66203E-04-2.37300E-14
 -1       866 4.80859E-03-2.62983E-04-2.66103E-14
 -1       867 5.09390E-03-2.59185E-04-2.96369E-14
 -1       868 5.37851E-03-2.54764E-04-3.28086E-14
 -1       869 5.66230E-03-2.49668E-04-3.61207E-14
 -1       870 5.94510E-03-2.43863E-04-3.95728E-14
 -1       871 6.22672E-03-2.37352E-04-4.31621E-14
 -1       872 6.50694E-03-2.30206E-04-4.68867E-14
 -1       873 6.78556E-03-2.22595E-04-5.07416E-14
 -1       874 7.06239E-03-2.14824E-04-5.47201E-14
 -1       875 7.33736E-03-2.07362E-04-5.88205E-14
 -1       876 7.61064E-03-2.00890E-04-6.30363E-14
 -1       877 7.88276E-03-1.96350E-04-6.73644E-14
 -1       878 8.15500E-03-1.95075E-04-7.17976E-14
 -1       879 8.42982E-03-1.99101E-04-7.63386E-14
 -1       880 8.71153E-03-2.11856E-04-8.09791E-14
 -1       881 1.32937E-02-1.99387E-04-1.44222E-13
 -1       882 1.35870E-02-1.70995E-04-1.49906E-13
 -1       883 4.17912E-03 3.06492E-04-1.94506E-14
 -1       884 3.89232E-03 3.08477E-04-1.69833E-14
 -1       885 4.75153E-03 3.00616E-04-2.48462E-14
 -1       886 5.03707E-03 2.96753E-04-2.77706E-14
 -1       887 5.32208E-03 2.92226E-04-3.08446E-14
 -1       888 5.60647E-03 2.86983E-04-3.40649E-14
 -1       889 5.89011E-03 2.80987E-04-3.74243E-14
 -1       890 6.17282E-03 2.74244E-04-4.09192E-14
 -1       891 6.45442E-03 2.66836E-04-4.45415E-14
 -1       892 6.73471E-03 2.58960E-04-4.82899E-14
 -1       893 7.01348E-03 2.50974E-04-5.21649E-14
 -1       894 7.29063E-03 2.43439E-04-5.61620E-14
 -1       895 7.56621E-03 2.37172E-04-6.02813E-14
 -1       896 7.84061E-03 2.33305E-04-6.45093E-14
 -1       897 8.11488E-03 2.33387E-04-6.88430E-14
 -1       898 8.39114E-03 2.39619E-04-7.32821E-14
 -1       899 8.67330E-03 2.55364E-04-7.78214E-14
 -1       900 8.96829E-03 2.86996E-04-8.24550E-14
 -1       901 1.35670E-02 3.11031E-04-1.45406E-13
 -1       902 1.40219E-02 4.04864E-05-1.52876E-13
 -1       903 1.35203E-02 3.21520E-06-1.41226E-13
 -1       904 1.87605E-03 2.78761E-04-4.28767E-15
 -1       905 1.32728E-02 3.31495E-04-1.39815E-13
 -1       906 1.29641E-02 3.79756E-04-1.34493E-13
 -1       907 1.36292E-02 6.27031E-05-1.41838E-13
 -1       908 4.46553E-03 3.03859E-04-2.20733E-14
 -1       909 3.02966E-03 3.08884E-04-1.05423E-14
 -1       910 8.97448E-03-2.52745E-04-8.48801E-14
 -1       911 1.16280E-03-5.13822E-05-2.03537E-15
 -1       912 1.33144E-02-8.88999E-05-1.40520E-13
 -1       913 1.92974E-03-2.47766E-04-4.92381E-15
 -1       914 1.35478E-02 1.35910E-04-1.40683E-13
 -1       915 1.64175E-03-2.31805E-04-3.67547E-15
 -1       916 8.54754E-03 7.36012E-06-8.27197E-14
 -1       917 2.16439E-03 2.91958E-04-5.59669E-15
 -1       918 8.63362E-03-4.95896E-05-8.32461E-14
 -1       919 1.40138E-03 2.37145E-04-2.51505E-15
 -1       920 8.68082E-03-1.22437E-04-8.22161E-14
 -1       921 8.61259E-03 1.07502E-04-8.12428E-14
 -1       922 2.74143E-03 3.06019E-04-8.72565E-15
 -1       923 3.31758E-03 3.09947E-04-1.25262E-14
 -1       924 1.37853E-02-1.67819E-04-1.54228E-13
 -1       925 1.62465E-03 2.70150E-04-3.26677E-15
 -1       926 3.60513E-03 3.09699E-04-1.46731E-14
 -1       927 1.39685E-02-1.90010E-05-1.53357E-13
 -1       928 1.38127E-03 3.41238E-05-2.72515E-15
 -1       929 1.38074E-02 2.86622E-04-1.49877E-13
 -1       930 1.40340E-02 9.39690E-05-1.52383E-13
 -1       931 2.45295E-03 3.00674E-04-7.07691E-15
 -1       932 8.46417E-03 3.56685E-05-8.03937E-14
 -1       933 1.37387E-02 1.05607E-04-1.44942E-13
 -1       934 1.38442E-03 1.00027E-04-2.67583E-15
 -1       935 1.41853E-03-2.00839E-04-2.83950E-15
 -1       936 1.39374E-02 2.15314E-04-1.51366E-13
 -1       937 1.38820E-02-1.15248E-04-1.54655E-13
 -1       938 1.41030E-03-1.32015E-04-2.85460E-15
 -1       939 1.32433E-02 2.82314E-04-1.38082E-13
 -1       940 1.35927E-02-4.42197E-05-1.45364E-13
 -1       941 2.64563E-03-1.93906E-04-8.81271E-15
 -1       942 2.93553E-03-1.96295E-04-1.06550E-14
 -1       943 3.22506E-03-1.97290E-04-1.26651E-14
 -1       944 3.51408E-03-1.97266E-04-1.48381E-14
 -1       945 3.80249E-03-1.96490E-04-1.71719E-14
 -1       946 4.09026E-03-1.95134E-04-1.96631E-14
 -1       947 4.37733E-03-1.93299E-04-2.23081E-14
 -1       948 4.66365E-03-1.91026E-04-2.51026E-14
 -1       949 4.94913E-03-1.88316E-04-2.80464E-14
 -1       950 5.23367E-03-1.85140E-04-3.11365E-14
 -1       951 5.51710E-03-1.81457E-04-3.43687E-14
 -1       952 5.79920E-03-1.77225E-04-3.77418E-14
 -1       953 6.07972E-03-1.72417E-04-4.12532E-14
 -1       954 6.35833E-03-1.67040E-04-4.48999E-14
 -1       955 6.63467E-03-1.61149E-04-4.86798E-14
 -1       956 6.90835E-03-1.54865E-04-5.25852E-14
 -1       957 7.17898E-03-1.48387E-04-5.66138E-14
 -1       958 7.44621E-03-1.41995E-04-6.07595E-14
 -1       959 7.70985E-03-1.36059E-04-6.50217E-14
 -1       960 7.96993E-03-1.31050E-04-6.93888E-14
 -1       961 8.22704E-03-1.27628E-04-7.38642E-14
 -1       962 5.46082E-03 2.18354E-04-3.27054E-14
 -1       963 1.35552E-02-9.94312E-05-1.46674E-13
 -1       964 1.31608E-02-1.60368E-04-1.39769E-13
 -1       965 5.17687E-03 2.22275E-04-2.95504E-14
 -1       966 4.89198E-03 2.25640E-04-2.65429E-14
 -1       967 5.74364E-03 2.13840E-04-3.60046E-14
 -1       968 6.02508E-03 2.08713E-04-3.94404E-14
 -1       969 6.30486E-03 2.03000E-04-4.30077E-14
 -1       970 6.58263E-03 1.96791E-04-4.66995E-14
 -1       971 6.85799E-03 1.90272E-04-5.05177E-14
 -1       972 7.13054E-03 1.83741E-04-5.44617E-14
 -1       973 7.39991E-03 1.77624E-04-5.85302E-14
 -1       974 7.66581E-03 1.72481E-04-6.27125E-14
 -1       975 7.92821E-03 1.69010E-04-6.70016E-14
 -1       976 8.18757E-03 1.68116E-04-7.13961E-14
 -1       977 8.44532E-03 1.71149E-04-7.58911E-14
 -1       978 2.01041E-03 2.15172E-04-5.04584E-15
 -1       979 1.37163E-02 2.28955E-04-1.46888E-13
 -1       980 1.34877E-02 2.49544E-04-1.42475E-13
 -1       981 4.03282E-03 2.32699E-04-1.84200E-14
 -1       982 2.29977E-03 2.23852E-04-6.45717E-15
 -1       983 2.06587E-03-1.82805E-04-5.63145E-15
 -1       984 1.39091E-03 1.67371E-04-2.60677E-15
 -1       985 1.77702E-03-1.72718E-04-4.29704E-15
 -1       986 2.35561E-03-1.89620E-04-7.13815E-15
 -1       987 8.43550E-03-2.40993E-05-7.95494E-14
 -1       988 8.64826E-03 1.76185E-04-7.95351E-14
 -1       989 1.40032E-02 1.50199E-04-1.51878E-13
 -1       990 1.40616E-03-2.48535E-05-2.84358E-15
 -1       991 1.59305E-03-1.52581E-04-3.54074E-15
 -1       992 1.37503E-02 2.85524E-05-1.46333E-13
 -1       993 8.44360E-03 7.34141E-05-7.88350E-14
 -1       994 4.60628E-03 2.28489E-04-2.36851E-14
 -1       995 8.48278E-03-1.26999E-04-7.84419E-14
 -1       996 1.40719E-03-7.80949E-05-2.85514E-15
 -1       997 2.87895E-03 2.32705E-04-9.78564E-15
 -1       998 3.74516E-03 2.33989E-04-1.60191E-14
 -1       999 3.16817E-03 2.34265E-04-1.16998E-14
 -1      1000 1.72194E-03 2.02495E-04-3.80423E-15
 -1      1001 8.32047E-03 8.08373E-06-7.72665E-14
 -1      1002 1.38385E-02 6.36137E-05-1.47730E-13
 -1      1003 2.58941E-03 2.29438E-04-8.03761E-15
 -1      1004 1.37200E-02 1.65895E-04-1.45624E-13
 -1      1005 4.31987E-03 2.30846E-04-2.09768E-14
 -1      1006 1.63932E-03 1.15711E-05-3.71375E-15
 -1      1007 8.45381E-03-7.06747E-05-7.90050E-14
 -1      1008 1.64152E-03 8.36074E-05-3.65943E-15
 -1      1009 1.35224E-02 2.14762E-04-1.42368E-13
 -1      1010 2.43845E-03 1.53484E-04-7.35044E-15
 -1      1011 3.07676E-03-1.21429E-04-1.16106E-14
 -1      1012 3.36665E-03-1.21702E-04-1.36940E-14
 -1      1013 3.65591E-03-1.21410E-04-1.59382E-14
 -1      1014 3.94443E-03-1.20695E-04-1.83429E-14
 -1      1015 4.23215E-03-1.19640E-04-2.09028E-14
 -1      1016 4.51900E-03-1.18293E-04-2.36130E-14
 -1      1017 4.80489E-03-1.16663E-04-2.64734E-14
 -1      1018 5.08969E-03-1.14739E-04-2.94806E-14
 -1      1019 5.37323E-03-1.12497E-04-3.26321E-14
 -1      1020 5.65528E-03-1.09903E-04-3.59260E-14
 -1      1021 5.93554E-03-1.06926E-04-3.93588E-14
 -1      1022 6.21364E-03-1.03547E-04-4.29291E-14
 -1      1023 6.48913E-03-9.97636E-05-4.66314E-14
 -1      1024 6.76150E-03-9.56006E-05-5.04649E-14
 -1      1025 7.03016E-03-9.11094E-05-5.44215E-14
 -1      1026 7.29443E-03-8.63647E-05-5.84960E-14
 -1      1027 7.55357E-03-8.14487E-05-6.26914E-14
 -1      1028 7.80674E-03-7.64261E-05-6.69956E-14
 -1      1029 8.05295E-03-7.13432E-05-7.14042E-14
 -1      1030 5.87995E-03 1.42766E-04-3.79582E-14
 -1      1031 3.45693E-03 2.34583E-04-1.37776E-14
 -1      1032 2.72883E-03 1.56588E-04-9.02866E-15
 -1      1033 5.31634E-03 1.49093E-04-3.13469E-14
 -1      1034 1.85897E-03 1.41073E-04-4.49646E-15
 -1      1035 5.59895E-03 1.46141E-04-3.45828E-14
 -1      1036 5.03237E-03 1.51641E-04-2.82571E-14
 -1      1037 6.15897E-03 1.38970E-04-4.14690E-14
 -1      1038 6.43560E-03 1.34790E-04-4.51079E-14
 -1      1039 6.70933E-03 1.30315E-04-4.88725E-14
 -1      1040 6.97958E-03 1.25694E-04-5.27622E-14
 -1      1041 7.24569E-03 1.21142E-04-5.67778E-14
 -1      1042 7.50691E-03 1.16924E-04-6.09110E-14
 -1      1043 7.76241E-03 1.13322E-04-6.51571E-14
 -1      1044 8.01126E-03 1.10592E-04-6.95060E-14
 -1      1045 8.25250E-03 1.09057E-04-7.39624E-14
 -1      1046 8.43601E-03 1.07497E-04-7.75733E-14
 -1      1047 2.49578E-03-1.18302E-04-7.94109E-15
 -1      1048 8.25515E-03-7.07407E-05-7.51692E-14
 -1      1049 4.17421E-03 1.57105E-04-1.98788E-14
 -1      1050 2.14830E-03 1.48498E-04-5.83887E-15
 -1      1051 1.91568E-03-1.09513E-04-4.94019E-15
 -1      1052 1.63906E-03-4.60892E-05-3.73856E-15
 -1      1053 2.20534E-03-1.14821E-04-6.35644E-15
 -1      1054 2.78639E-03-1.20388E-04-9.69265E-15
 -1      1055 3.88645E-03 1.58203E-04-1.73873E-14
 -1      1056 4.74727E-03 1.53815E-04-2.53151E-14
 -1      1057 1.61509E-03-9.94829E-05-3.64521E-15
 -1      1058 3.01902E-03 1.58287E-04-1.08730E-14
 -1      1059 8.26766E-03 4.46365E-05-7.57438E-14
 -1      1060 4.46118E-03 1.55635E-04-2.25228E-14
 -1      1061 1.59312E-03 1.24977E-04-3.41673E-15
 -1      1062 8.28168E-03-2.86681E-05-7.62253E-14
 -1      1063 1.88827E-03-1.86310E-05-4.79557E-15
 -1      1064 1.88916E-03 5.79637E-05-4.73988E-15
 -1      1065 3.50991E-03-4.58632E-05-1.47250E-14
 -1      1066 3.79906E-03-4.56216E-05-1.70405E-14
 -1      1067 4.08738E-03-4.52320E-05-1.95146E-14
 -1      1068 4.37480E-03-4.47179E-05-2.21406E-14
 -1      1069 4.66120E-03-4.40885E-05-2.49175E-14
 -1      1070 4.94650E-03-4.33420E-05-2.78425E-14
 -1      1071 5.23049E-03-4.24755E-05-3.09120E-14
 -1      1072 5.51298E-03-4.14618E-05-3.41247E-14
 -1      1073 5.79366E-03-4.02867E-05-3.74791E-14
 -1      1074 6.07215E-03-3.89294E-05-4.09741E-14
 -1      1075 6.34800E-03-3.73702E-05-4.46001E-14
 -1      1076 6.62064E-03-3.55912E-05-4.83572E-14
 -1      1077 6.88942E-03-3.35754E-05-5.22423E-14
 -1      1078 7.15354E-03-3.13035E-05-5.62491E-14
 -1      1079 7.41203E-03-2.87457E-05-6.03713E-14
 -1      1080 7.66367E-03-2.58483E-05-6.46105E-14
 -1      1081 7.90675E-03-2.25429E-05-6.89553E-14
 -1      1082 6.29284E-03 7.19473E-05-4.35094E-14
 -1      1083 5.73701E-03 7.58288E-05-3.64729E-14
 -1      1084 5.17289E-03 7.88830E-05-2.99896E-14
 -1      1085 6.56649E-03 6.97571E-05-4.72208E-14
 -1      1086 6.83645E-03 6.74877E-05-5.10585E-14
 -1      1087 7.10198E-03 6.52458E-05-5.50212E-14
 -1      1088 7.36215E-03 6.31662E-05-5.91052E-14
 -1      1089 7.61579E-03 6.13950E-05-6.33033E-14
 -1      1090 7.86136E-03 6.00640E-05-6.76119E-14
 -1      1091 3.22002E-03-4.59169E-05-1.25704E-14
 -1      1092 2.34783E-03-4.41261E-05-7.09369E-15
 -1      1093 2.63868E-03-4.51585E-05-8.75409E-15
 -1      1094 6.01617E-03 7.39852E-05-3.99254E-14
 -1      1095 2.92954E-03-4.57119E-05-1.05799E-14
 -1      1096 2.11766E-03-3.11378E-05-5.89079E-15
 -1      1097 5.45580E-03 7.74612E-05-3.31597E-14
 -1      1098 8.23810E-03 7.49406E-05-7.45103E-14
 -1      1099 2.58004E-03 8.11467E-05-8.27504E-15
 -1      1100 4.88855E-03 8.01041E-05-2.69651E-14
 -1      1101 4.02884E-03 8.26320E-05-1.87800E-14
 -1      1102 2.87082E-03 8.24334E-05-1.00489E-14
 -1      1103 3.30878E-03 1.58951E-04-1.28820E-14
 -1      1104 4.31640E-03 8.19782E-05-2.13575E-14
 -1      1105 8.09637E-03 5.90507E-05-7.20251E-14
 -1      1106 8.20291E-03 9.84974E-06-7.47269E-14
 -1      1107 2.28933E-03 7.89803E-05-6.66684E-15
 -1      1108 3.59796E-03 1.58860E-04-1.50540E-14
 -1      1109 8.09710E-03-2.60619E-05-7.25549E-14
 -1      1110 3.94327E-03 2.98342E-05-1.81453E-14
 -1      1111 4.80394E-03 2.91392E-05-2.62205E-14
 -1      1112 3.74041E-03 8.30708E-05-1.63549E-14
 -1      1113 3.36492E-03 2.99032E-05-1.35345E-14
 -1      1114 3.65450E-03 2.99197E-05-1.57594E-14
 -1      1115 2.04815E-03 4.35650E-05-5.49430E-15
 -1      1116 4.60300E-03 8.11312E-05-2.40870E-14
 -1      1117 3.11789E-03 5.64030E-05-1.17298E-14
 -1      1118 4.51808E-03 2.94363E-05-2.33773E-14
 -1      1119 0.00000E+00 0.00000E+00 0.00000E+00
 -1      1120 0.00000E+00 0.00000E+00 0.00000E+00
 -1      1121 0.00000E+00 0.00000E+00 0.00000E+00
 -1      1122 0.00000E+00 0.00000E+00 0.00000E+00
 -1      1123 0.00000E+00 0.00000E+00 0.00000E+00
 -1      1124 0.00000E+00 0.00000E+00 0.00000E+00
 -1      1125 0.00000E+00 0.00000E+00 0.00000E+00
 -1      1126 0.00000E+00 0.00000E+00 0.00000E+00
 -1      1127 0.00000E+00 0.00000E+00 0.00000E+00
 -1      1128 0.00000E+00 0.00000E+00 0.00000E+00
 -1      1129 0.00000E+00 0.00000E+00 0.00000E+00
 -1      1130 0.00000E+00 0.00000E+00 0.00000E+00
 -1      1131 0.00000E+00 0.00000E+00 0.00000E+00
 -1      1132 0.00000E+00 0.00000E+00 0.00000E+00
 -1      1133 0.00000E+00 0.00000E+00 0.00000E+00
 -1      1134 0.00000E+00 0.00000E+00 0.00000E+00
 -1      1135 0.00000E+00 0.00000E+00 0.00000E+00
 -1      1136 2.11663E-04-1.48339E-04 1.90684E-17
 -1      1137 5.51611E-04-3.37544E-04-7.35631E-17
 -1      1138 8.33398E-04-4.59055E-04-3.57068E-16
 -1      1139 1.10293E-03-5.40747E-04-8.62564E-16
 -1      1140 1.36829E-03-5.97996E-04-1.57770E-15
 -1      1141 1.63303E-03-6.38685E-04-2.49802E-15
 -1      1142 1.89900E-03-6.67455E-04-3.61976E-15
 -1      1143 2.16705E-03-6.87419E-04-4.93769E-15
 -1      1144 2.43747E-03-7.00850E-04-6.44684E-15
 -1      1145 2.71026E-03-7.09454E-04-8.14385E-15
 -1      1146 2.98525E-03-7.14515E-04-1.00261E-14
 -1      1147 3.26221E-03-7.16988E-04-1.20845E-14
 -1      1148 3.54089E-03-7.17564E-04-1.43106E-14
 -1      1149 3.82105E-03-7.16731E-04-1.67021E-14
 -1      1150 4.10248E-03-7.14814E-04-1.92546E-14
 -1      1151 4.38503E-03-7.12011E-04-2.19651E-14
 -1      1152 4.66862E-03-7.08427E-04-2.48301E-14
 -1      1153 4.95325E-03-7.04102E-04-2.78478E-14
 -1      1154 5.23903E-03-6.99038E-04-3.10135E-14
 -1      1155 5.52616E-03-6.93230E-04-3.43279E-14
 -1      1156 5.81498E-03-6.86703E-04-3.77867E-14
 -1      1157 6.10598E-03-6.79552E-04-4.13807E-14
 -1      1158 6.39981E-03-6.72001E-04-4.51070E-14
 -1      1159 6.69730E-03-6.64476E-04-4.89713E-14
 -1      1160 6.99942E-03-6.57697E-04-5.29711E-14
 -1      1161 7.30731E-03-6.52798E-04-5.70938E-14
 -1      1162 7.62213E-03-6.51463E-04-6.13348E-14
 -1      1163 7.94493E-03-6.56058E-04-6.56935E-14
 -1      1164 8.27632E-03-6.69720E-04-7.01745E-14
 -1      1165 8.61604E-03-6.96271E-04-7.47637E-14
 -1      1166 8.96229E-03-7.39799E-04-7.94586E-14
 -1      1167 9.31115E-03-8.03620E-04-8.42687E-14
 -1      1168 9.65616E-03-8.88400E-04-8.91891E-14
 -1      1169 9.98891E-03-9.89640E-04-9.42067E-14
 -1      1170 1.03011E-02-1.09554E-03-9.93233E-14
 -1      1171 1.05884E-02-1.18729E-03-1.04538E-13
 -1      1172 1.08536E-02-1.24373E-03-1.09846E-13
 -1      1173 1.11081E-02-1.24950E-03-1.15241E-13
 -1      1174 1.13672E-02-1.20233E-03-1.20715E-13
 -1      1175 1.16438E-02-1.11405E-03-1.26268E-13
 -1      1176 1.19434E-02-1.00472E-03-1.31907E-13
 -1      1177 1.22629E-02-8.94027E-04-1.37603E-13
 -1      1178 1.25944E-02-7.95316E-04-1.43336E-13
 -1      1179 1.29290E-02-7.14108E-04-1.49106E-13
 -1      1180 1.32591E-02-6.49701E-04-1.54897E-13
 -1      1181 1.35800E-02-5.97683E-04-1.60685E-13
 -1      1182 1.38897E-02-5.52046E-04-1.66455E-13
 -1      1183 1.41882E-02-5.06607E-04-1.72191E-13
 -1      1184 1.44782E-02-4.56185E-04-1.77916E-13
 -1      1185 1.47566E-02-4.00471E-04-1.83513E-13
 -1      1186 2.28422E-04 1.60718E-04 4.67020E-17
 -1      1187 5.53785E-04 3.42177E-04 2.06947E-17
 -1      1188 8.34330E-04 4.61226E-04-1.71751E-16
 -1      1189 1.10383E-03 5.42438E-04-5.53499E-16
 -1      1190 1.36919E-03 5.99678E-04-1.12479E-15
 -1      1191 1.63398E-03 6.40454E-04-1.88594E-15
 -1      1192 1.90001E-03 6.69330E-04-2.83535E-15
 -1      1193 2.16810E-03 6.89414E-04-3.96869E-15
 -1      1194 2.43854E-03 7.02973E-04-5.28597E-15
 -1      1195 2.71135E-03 7.11711E-04-6.78570E-15
 -1      1196 2.98635E-03 7.16907E-04-8.46733E-15
 -1      1197 3.26332E-03 7.19515E-04-1.03252E-14
 -1      1198 3.54200E-03 7.20228E-04-1.23540E-14
 -1      1199 3.82216E-03 7.19531E-04-1.45500E-14
 -1      1200 4.10358E-03 7.17747E-04-1.69110E-14
 -1      1201 4.38613E-03 7.15074E-04-1.94410E-14
 -1      1202 4.66971E-03 7.11614E-04-2.21296E-14
 -1      1203 4.95434E-03 7.07404E-04-2.49702E-14
 -1      1204 5.24010E-03 7.02441E-04-2.79607E-14
 -1      1205 5.52723E-03 6.96712E-04-3.11010E-14
 -1      1206 5.81606E-03 6.90232E-04-3.43881E-14
 -1      1207 6.10709E-03 6.83081E-04-3.78120E-14
 -1      1208 6.40101E-03 6.75465E-04-4.13698E-14
 -1      1209 6.69868E-03 6.67788E-04-4.50581E-14
 -1      1210 7.00117E-03 6.60755E-04-4.88706E-14
 -1      1211 7.30971E-03 6.55493E-04-5.28027E-14
 -1      1212 7.62566E-03 6.53714E-04-5.68565E-14
 -1      1213 7.95031E-03 6.57887E-04-6.10277E-14
 -1      1214 8.28460E-03 6.71377E-04-6.53034E-14
 -1      1215 8.62861E-03 6.98450E-04-6.96860E-14
 -1      1216 8.98091E-03 7.43927E-04-7.41670E-14
 -1      1217 9.33765E-03 8.12144E-04-7.87393E-14
 -1      1218 9.69200E-03 9.04901E-04-8.34084E-14
 -1      1219 1.00345E-02 1.01838E-03-8.81791E-14
 -1      1220 1.03552E-02 1.14024E-03-9.30574E-14
 -1      1221 1.06482E-02 1.24922E-03-9.80559E-14
 -1      1222 1.09159E-02 1.32033E-03-1.03172E-13
 -1      1223 1.11710E-02 1.33495E-03-1.08396E-13
 -1      1224 1.14316E-02 1.29020E-03-1.13707E-13
 -1      1225 1.17126E-02 1.20051E-03-1.19101E-13
 -1      1226 1.20196E-02 1.08983E-03-1.24565E-13
 -1      1227 1.23483E-02 9.80867E-04-1.30066E-13
 -1      1228 1.26891E-02 8.88071E-04-1.35593E-13
 -1      1229 1.30317E-02 8.16538E-04-1.41162E-13
 -1      1230 1.33681E-02 7.64475E-04-1.46757E-13
 -1      1231 1.36934E-02 7.26356E-04-1.52388E-13
 -1      1232 1.40057E-02 6.95292E-04-1.58037E-13
 -1      1233 1.43057E-02 6.64473E-04-1.63703E-13
 -1      1234 1.45961E-02 6.28328E-04-1.69388E-13
 -1      1235 1.48746E-02 5.85892E-04-1.74926E-13
 -1      1236 1.50332E-02 5.21270E-04-1.77889E-13
 -1      1237 1.50827E-02 4.36907E-04-1.78435E-13
 -1      1238 1.51396E-02 3.57393E-04-1.78971E-13
 -1      1239 1.52014E-02 2.87151E-04-1.79501E-13
 -1      1240 1.52629E-02 2.28766E-04-1.80024E-13
 -1      1241 1.53173E-02 1.83229E-04-1.80552E-13
 -1      1242 1.53591E-02 1.48834E-04-1.81108E-13
 -1      1243 1.53832E-02 1.22568E-04-1.81670E-13
 -1      1244 1.53859E-02 1.00571E-04-1.82217E-13
 -1      1245 1.53661E-02 7.79817E-05-1.82732E-13
 -1      1246 1.53256E-02 5.00869E-05-1.83217E-13
 -1      1247 1.52688E-02 1.34462E-05-1.83729E-13
 -1      1248 1.52006E-02-3.44527E-05-1.84236E-13
 -1      1249 1.51262E-02-9.48616E-05-1.84694E-13
 -1      1250 1.50521E-02-1.66493E-04-1.85129E-13
 -1      1251 1.49831E-02-2.46555E-04-1.85577E-13
 -1      1252 1.49212E-02-3.30209E-04-1.86029E-13
 -1      1253 1.33041E-02 1.32542E-04-1.22748E-13
 -1      1254 1.31878E-02 2.88831E-04-1.21942E-13
 -1      1255 1.29658E-02 4.47349E-04-1.20605E-13
 -1      1256 1.26564E-02 6.05034E-04-1.18805E-13
 -1      1257 1.22913E-02 7.47945E-04-1.16683E-13
 -1      1258 1.18799E-02 8.65093E-04-1.14260E-13
 -1      1259 1.14402E-02 9.39309E-04-1.11644E-13
 -1      1260 1.09871E-02 9.54472E-04-1.08967E-13
 -1      1261 1.05342E-02 9.09291E-04-1.06359E-13
 -1      1262 1.01100E-02 8.13249E-04-1.04026E-13
 -1      1263 9.71675E-03 6.81650E-04-1.01992E-13
 -1      1264 9.37476E-03 5.32393E-04-1.00348E-13
 -1      1265 9.09197E-03 3.73190E-04-9.91087E-14
 -1      1266 8.90358E-03 2.18687E-04-9.83795E-14
 -1      1267 8.82181E-03 6.92276E-05-9.81729E-14
 -1      1268 8.85434E-03-8.39516E-05-9.85308E-14
 -1      1269 9.01120E-03-2.44407E-04-9.94820E-14
 -1      1270 9.27610E-03-4.08229E-04-1.00995E-13
 -1      1271 9.62215E-03-5.65978E-04-1.02958E-13
 -1      1272 1.00149E-02-7.02566E-04-1.05215E-13
 -1      1273 1.04388E-02-8.03229E-04-1.07702E-13
 -1      1274 1.08970E-02-8.54407E-04-1.10420E-13
 -1      1275 1.13534E-02-8.44722E-04-1.13109E-13
 -1      1276 1.18085E-02-7.73141E-04-1.15719E-13
 -1      1277 1.22447E-02-6.51912E-04-1.18110E-13
 -1      1278 1.26326E-02-5.02253E-04-1.20098E-13
 -1      1279 1.29523E-02-3.40484E-04-1.21602E-13
 -1      1280 1.31827E-02-1.78088E-04-1.22577E-13
 -1      1281 1.33025E-02-2.19348E-05-1.22966E-13
 -1      1282 1.66691E-04-1.10351E-04-1.15332E-17
 -1      1283 1.12534E-04-5.69897E-05-4.59837E-17
 -1      1284 1.17615E-04-6.75952E-05-3.64021E-17
 -1      1285 1.08420E-04-4.35109E-05-6.15556E-17
 -1      1286 1.10281E-04-4.96242E-05-5.69477E-17
 -1      1287 2.26317E-04-1.07656E-04-1.34184E-16
 -1      1288 1.06839E-04-3.36266E-05-6.97006E-17
 -1      1289 1.07687E-04-3.83508E-05-6.74645E-17
 -1      1290 2.19104E-04-8.24936E-05-1.61682E-16
 -1      1291 1.06061E-04-2.53721E-05-7.41730E-17
 -1      1292 1.06490E-04-2.94036E-05-7.31159E-17
 -1      1293 2.15860E-04-6.33096E-05-1.76833E-16
 -1      1294 1.05666E-04-1.81070E-05-7.65311E-17
 -1      1295 1.05893E-04-2.16772E-05-7.61652E-17
 -1      1296 2.14213E-04-4.72242E-05-1.85344E-16
 -1      1297 1.05446E-04-1.12494E-05-7.73714E-17
 -1      1298 1.05569E-04-1.46373E-05-7.73578E-17
 -1      1299 2.13308E-04-3.27790E-05-1.89424E-16
 -1      1300 1.05348E-04-4.69347E-06-7.72630E-17
 -1      1301 1.05400E-04-7.94954E-06-7.74662E-17
 -1      1302 2.12814E-04-1.92060E-05-1.90616E-16
 -1      1303 1.05336E-04 1.74475E-06-7.62601E-17
 -1      1304 1.05335E-04-1.47148E-06-7.65718E-17
 -1      1305 2.12602E-04-6.16530E-06-1.89546E-16
 -1      1306 1.05408E-04 8.23244E-06-7.45660E-17
 -1      1307 1.05352E-04 4.96994E-06-7.50539E-17
 -1      1308 2.12609E-04 6.71480E-06-1.86618E-16
 -1      1309 1.05584E-04 1.49450E-05-7.20452E-17
 -1      1310 1.05457E-04 1.15427E-05-7.28313E-17
 -1      1311 2.12839E-04 1.97813E-05-1.81929E-16
 -1      1312 1.05915E-04 2.19680E-05-6.80066E-17
 -1      1313 1.05681E-04 1.83750E-05-6.92263E-17
 -1      1314 2.13346E-04 3.32929E-05-1.74679E-16
 -1      1315 1.06536E-04 2.98374E-05-6.22603E-17
 -1      1316 1.06098E-04 2.57595E-05-6.43067E-17
 -1      1317 2.14281E-04 4.78277E-05-1.64257E-16
 -1      1318 1.07723E-04 3.89369E-05-5.33834E-17
 -1      1319 1.06873E-04 3.41432E-05-5.67580E-17
 -1      1320 2.15978E-04 6.42446E-05-1.49254E-16
 -1      1321 1.10259E-04 5.03620E-05-3.94650E-17
 -1      1322 1.08422E-04 4.41793E-05-4.53468E-17
 -1      1323 2.19198E-04 8.37428E-05-1.26797E-16
 -1      1324 1.16931E-04 6.76306E-05-1.74150E-17
 -1      1325 1.12181E-04 5.77884E-05-2.79453E-17
 -1      1326 2.26304E-04 1.09474E-04-9.33363E-17
 -1      1327 1.57573E-04 1.09867E-04 1.67645E-17
 -1      1328 1.35653E-04 8.61010E-05-4.41812E-18
 -1      1329 2.56022E-04 1.52116E-04-5.36273E-17
 -1      1330 3.35068E-04 2.20757E-04 3.07642E-18
 -1      1331 4.21515E-04-2.61766E-04-9.35395E-17
 -1      1332 5.74598E-04-3.36837E-04-1.89193E-16
 -1      1333 7.21770E-04-3.97449E-04-3.43123E-16
 -1      1334 8.64920E-04-4.46751E-04-5.50653E-16
 -1      1335 6.12025E-04-3.30941E-04-3.21385E-16
 -1      1336 1.00492E-03-4.87829E-04-8.08855E-16
 -1      1337 1.14274E-03-5.21820E-04-1.11932E-15
 -1      1338 9.05225E-04-4.31653E-04-7.49495E-16
 -1      1339 1.27921E-03-5.50595E-04-1.48087E-15
 -1      1340 1.41483E-03-5.74628E-04-1.89383E-15
 -1      1341 1.18761E-03-5.01082E-04-1.38066E-15
 -1      1342 1.55004E-03-5.94983E-04-2.35645E-15
 -1      1343 1.68510E-03-6.11992E-04-2.86949E-15
 -1      1344 1.46450E-03-5.49849E-04-2.21297E-15
 -1      1345 1.82024E-03-6.26285E-04-3.43208E-15
 -1      1346 1.95559E-03-6.38152E-04-4.04306E-15
 -1      1347 1.73912E-03-5.84120E-04-3.24319E-15
 -1      1348 2.09125E-03-6.47995E-04-4.70239E-15
 -1      1349 2.22728E-03-6.56060E-04-5.41014E-15
 -1      1350 2.01336E-03-6.07871E-04-4.46811E-15
 -1      1351 2.36374E-03-6.62622E-04-6.16483E-15
 -1      1352 2.50062E-03-6.67883E-04-6.96563E-15
 -1      1353 2.28819E-03-6.23904E-04-5.88317E-15
 -1      1354 2.63794E-03-6.72035E-04-7.81383E-15
 -1      1355 2.77571E-03-6.75240E-04-8.70755E-15
 -1      1356 2.56410E-03-6.34277E-04-7.48510E-15
 -1      1357 2.91390E-03-6.77633E-04-9.64647E-15
 -1      1358 3.05251E-03-6.79340E-04-1.06303E-14
 -1      1359 2.84128E-03-6.40519E-04-9.26994E-15
 -1      1360 3.19151E-03-6.80455E-04-1.16570E-14
 -1      1361 3.33088E-03-6.81072E-04-1.27261E-14
 -1      1362 3.11975E-03-6.43766E-04-1.12326E-14
 -1      1363 3.47062E-03-6.81256E-04-1.38371E-14
 -1      1364 3.61068E-03-6.81075E-04-1.49897E-14
 -1      1365 3.39947E-03-6.44843E-04-1.33663E-14
 -1      1366 3.75105E-03-6.80568E-04-1.61833E-14
 -1      1367 3.89172E-03-6.79787E-04-1.74175E-14
 -1      1368 3.68034E-03-6.44335E-04-1.56679E-14
 -1      1369 4.03267E-03-6.78750E-04-1.86914E-14
 -1      1370 4.17388E-03-6.77492E-04-2.00050E-14
 -1      1371 3.96225E-03-6.42638E-04-1.81311E-14
 -1      1372 4.31535E-03-6.76020E-04-2.13573E-14
 -1      1373 4.45706E-03-6.74357E-04-2.27483E-14
 -1      1374 4.24512E-03-6.39998E-04-2.07526E-14
 -1      1375 4.59902E-03-6.72497E-04-2.41783E-14
 -1      1376 4.74123E-03-6.70457E-04-2.56468E-14
 -1      1377 4.52891E-03-6.36548E-04-2.35300E-14
 -1      1378 4.88370E-03-6.68223E-04-2.71524E-14
 -1      1379 5.02643E-03-6.65808E-04-2.86943E-14
 -1      1380 4.81362E-03-6.32339E-04-2.64600E-14
 -1      1381 5.16945E-03-6.63195E-04-3.02745E-14
 -1      1382 5.31279E-03-6.60397E-04-3.18913E-14
 -1      1383 5.09932E-03-6.27367E-04-2.95387E-14
 -1      1384 5.45647E-03-6.57394E-04-3.35442E-14
 -1      1385 5.60053E-03-6.54206E-04-3.52336E-14
 -1      1386 5.38615E-03-6.21602E-04-3.27651E-14
 -1      1387 5.74503E-03-6.50816E-04-3.69579E-14
 -1      1388 5.89000E-03-6.47256E-04-3.87177E-14
 -1      1389 5.67434E-03-6.15021E-04-3.61354E-14
 -1      1390 6.03553E-03-6.43517E-04-4.05109E-14
 -1      1391 6.18168E-03-6.39651E-04-4.23374E-14
 -1      1392 5.96423E-03-6.07644E-04-3.96452E-14
 -1      1393 6.32853E-03-6.35664E-04-4.41996E-14
 -1      1394 6.47617E-03-6.31636E-04-4.60936E-14
 -1      1395 6.25627E-03-5.99588E-04-4.32937E-14
 -1      1396 6.62471E-03-6.27602E-04-4.80220E-14
 -1      1397 6.77423E-03-6.23680E-04-4.99854E-14
 -1      1398 6.55100E-03-5.91128E-04-4.70778E-14
 -1      1399 6.92486E-03-6.19948E-04-5.19803E-14
 -1      1400 7.07672E-03-6.16577E-04-5.40072E-14
 -1      1401 6.84909E-03-5.82789E-04-5.09953E-14
 -1      1402 7.22993E-03-6.13709E-04-5.60647E-14
 -1      1403 7.38460E-03-6.11576E-04-5.81517E-14
 -1      1404 7.15130E-03-5.75453E-04-5.50402E-14
 -1      1405 7.54085E-03-6.10412E-04-6.02693E-14
 -1      1406 7.69879E-03-6.10523E-04-6.24148E-14
 -1      1407 7.45842E-03-5.70497E-04-5.92070E-14
 -1      1408 7.85850E-03-6.12263E-04-6.45905E-14
 -1      1409 8.02002E-03-6.16010E-04-6.67966E-14
 -1      1410 7.77120E-03-5.69953E-04-6.34922E-14
 -1      1411 8.18339E-03-6.22257E-04-6.90301E-14
 -1      1412 8.34857E-03-6.31439E-04-7.12937E-14
 -1      1413 8.09018E-03-5.76647E-04-6.78945E-14
 -1      1414 8.51544E-03-6.44178E-04-7.35845E-14
 -1      1415 8.68383E-03-6.60908E-04-7.59009E-14
 -1      1416 8.41549E-03-5.94250E-04-7.24091E-14
 -1      1417 8.85346E-03-6.82302E-04-7.82453E-14
 -1      1418 9.02393E-03-7.08673E-04-8.06166E-14
 -1      1419 8.74656E-03-6.27097E-04-7.70356E-14
 -1      1420 9.19474E-03-7.40548E-04-8.30162E-14
 -1      1421 9.36526E-03-7.77910E-04-8.54445E-14
 -1      1422 9.08177E-03-6.79517E-04-8.17696E-14
 -1      1423 9.53478E-03-8.20795E-04-8.78972E-14
 -1      1424 9.70249E-03-8.68565E-04-9.03746E-14
 -1      1425 9.41818E-03-7.54370E-04-8.66120E-14
 -1      1426 9.86758E-03-9.20339E-04-9.28786E-14
 -1      1427 1.00293E-02-9.74608E-04-9.54080E-14
 -1      1428 9.75153E-03-8.50629E-04-9.15566E-14
 -1      1429 1.01869E-02-1.02930E-03-9.79603E-14
 -1      1430 1.03401E-02-1.08204E-03-1.00538E-13
 -1      1431 1.00768E-02-9.60499E-04-9.66021E-14
 -1      1432 1.04886E-02-1.12983E-03-1.03140E-13
 -1      1433 1.06328E-02-1.16997E-03-1.05766E-13
 -1      1434 1.03898E-02-1.06770E-03-1.01747E-13
 -1      1435 1.07733E-02-1.19957E-03-1.08415E-13
 -1      1436 1.09113E-02-1.21665E-03-1.11085E-13
 -1      1437 1.06893E-02-1.14958E-03-1.06988E-13
 -1      1438 1.10478E-02-1.21979E-03-1.13779E-13
 -1      1439 1.11845E-02-1.20868E-03-1.16495E-13
 -1      1440 1.09790E-02-1.18458E-03-1.12322E-13
 -1      1441 1.13226E-02-1.18411E-03-1.19228E-13
 -1      1442 1.14634E-02-1.14762E-03-1.21977E-13
 -1      1443 1.12667E-02-1.16204E-03-1.17740E-13
 -1      1444 1.16078E-02-1.10177E-03-1.24752E-13
 -1      1445 1.17562E-02-1.04913E-03-1.27548E-13
 -1      1446 1.15607E-02-1.08782E-03-1.23241E-13
 -1      1447 1.19087E-02-9.92767E-04-1.30359E-13
 -1      1448 1.20650E-02-9.35150E-04-1.33188E-13
 -1      1449 1.18660E-02-9.81015E-04-1.28818E-13
 -1      1450 1.22245E-02-8.78626E-04-1.36032E-13
 -1      1451 1.23866E-02-8.24880E-04-1.38884E-13
 -1      1452 1.21826E-02-8.64547E-04-1.34464E-13
 -1      1453 1.25503E-02-7.75042E-04-1.41746E-13
 -1      1454 1.27148E-02-7.29851E-04-1.44618E-13
 -1      1455 1.25066E-02-7.56425E-04-1.40163E-13
 -1      1456 1.28793E-02-6.89368E-04-1.47499E-13
 -1      1457 1.30431E-02-6.53593E-04-1.50384E-13
 -1      1458 1.28330E-02-6.66048E-04-1.45896E-13
 -1      1459 1.32057E-02-6.21918E-04-1.53273E-13
 -1      1460 1.33665E-02-5.93899E-04-1.56163E-13
 -1      1461 1.31570E-02-5.95007E-04-1.51657E-13
 -1      1462 1.35252E-02-5.68633E-04-1.59052E-13
 -1      1463 1.36816E-02-5.45467E-04-1.61937E-13
 -1      1464 1.34752E-02-5.39805E-04-1.57425E-13
 -1      1465 1.38357E-02-5.23446E-04-1.64818E-13
 -1      1466 1.39874E-02-5.01865E-04-1.67694E-13
 -1      1467 1.37858E-02-4.94459E-04-1.63188E-13
 -1      1468 1.41369E-02-4.79869E-04-1.70565E-13
 -1      1469 1.42844E-02-4.56815E-04-1.73427E-13
 -1      1470 1.40884E-02-4.52287E-04-1.68936E-13
 -1      1471 1.44302E-02-4.32124E-04-1.76293E-13
 -1      1472 1.45746E-02-4.05389E-04-1.79160E-13
 -1      1473 1.43835E-02-4.07093E-04-1.74669E-13
 -1      1474 1.47854E-02-3.59133E-04-1.83296E-13
 -1      1475 1.47406E-02-3.37183E-04-1.81668E-13
 -1      1476 6.43036E-04 3.72055E-04-1.08109E-16
 -1      1477 4.92924E-04 3.03721E-04-2.88940E-17
 -1      1478 4.44853E-04 2.65927E-04-7.11508E-17
 -1      1479 9.28585E-04 4.72036E-04-4.05532E-16
 -1      1480 7.87741E-04 4.26538E-04-2.33646E-16
 -1      1481 7.44685E-04 3.90770E-04-2.85687E-16
 -1      1482 1.20343E-03 5.41462E-04-8.88300E-16
 -1      1483 1.06679E-03 5.09782E-04-6.23335E-16
 -1      1484 1.03069E-03 4.76224E-04-6.83793E-16
 -1      1485 1.47391E-03 5.90648E-04-1.55846E-15
 -1      1486 1.33889E-03 5.68197E-04-1.19987E-15
 -1      1487 1.30856E-03 5.36048E-04-1.26581E-15
 -1      1488 1.74337E-03 6.25509E-04-2.41646E-15
 -1      1489 1.60860E-03 6.09628E-04-1.96387E-15
 -1      1490 1.58273E-03 5.78316E-04-2.03345E-15
 -1      1491 2.01348E-03 6.49904E-04-3.45962E-15
 -1      1492 1.87826E-03 6.38843E-04-2.91484E-15
 -1      1493 1.85582E-03 6.07998E-04-2.98637E-15
 -1      1494 2.28505E-03 6.66570E-04-4.68591E-15
 -1      1495 2.14905E-03 6.59073E-04-4.05008E-15
 -1      1496 2.12924E-03 6.28466E-04-4.12294E-15
 -1      1497 2.55841E-03 6.77530E-04-6.09454E-15
 -1      1498 2.42149E-03 6.72663E-04-5.36756E-15
 -1      1499 2.40371E-03 6.42154E-04-5.44149E-15
 -1      1500 2.83360E-03 6.84305E-04-7.68422E-15
 -1      1501 2.69577E-03 6.81365E-04-6.86711E-15
 -1      1502 2.67952E-03 6.50872E-04-6.94003E-15
 -1      1503 3.11054E-03 6.88026E-04-9.45239E-15
 -1      1504 2.97186E-03 6.86491E-04-8.54621E-15
 -1      1505 2.95676E-03 6.55965E-04-8.61756E-15
 -1      1506 3.38907E-03 6.89526E-04-1.13925E-14
 -1      1507 3.24962E-03 6.89013E-04-1.04007E-14
 -1      1508 3.23539E-03 6.58430E-04-1.04695E-14
 -1      1509 3.66902E-03 6.89396E-04-1.35025E-14
 -1      1510 3.52888E-03 6.89636E-04-1.24269E-14
 -1      1511 3.51530E-03 6.58985E-04-1.24925E-14
 -1      1512 3.95021E-03 6.88041E-04-1.57785E-14
 -1      1513 3.80947E-03 6.88852E-04-1.46194E-14
 -1      1514 3.79639E-03 6.58131E-04-1.46825E-14
 -1      1515 4.23251E-03 6.85717E-04-1.82191E-14
 -1      1516 4.09123E-03 6.86988E-04-1.69780E-14
 -1      1517 4.07853E-03 6.56198E-04-1.70371E-14
 -1      1518 4.51583E-03 6.82569E-04-2.08239E-14
 -1      1519 4.37405E-03 6.84239E-04-1.95019E-14
 -1      1520 4.36164E-03 6.53382E-04-1.95567E-14
 -1      1521 4.80015E-03 6.78657E-04-2.35845E-14
 -1      1522 4.65787E-03 6.80704E-04-2.21854E-14
 -1      1523 4.64570E-03 6.49779E-04-2.22343E-14
 -1      1524 5.08553E-03 6.73986E-04-2.64950E-14
 -1      1525 4.94270E-03 6.76413E-04-2.50205E-14
 -1      1526 4.93071E-03 6.45415E-04-2.50652E-14
 -1      1527 5.37211E-03 6.68533E-04-2.95563E-14
 -1      1528 5.22866E-03 6.71352E-04-2.80078E-14
 -1      1529 5.21680E-03 6.40267E-04-2.80476E-14
 -1      1530 5.66016E-03 6.62281E-04-3.27653E-14
 -1      1531 5.51593E-03 6.65498E-04-3.11422E-14
 -1      1532 5.50414E-03 6.34300E-04-3.11776E-14
 -1      1533 5.95006E-03 6.55252E-04-3.61154E-14
 -1      1534 5.80485E-03 6.58848E-04-3.44224E-14
 -1      1535 5.79302E-03 6.27497E-04-3.44525E-14
 -1      1536 6.24235E-03 6.47559E-04-3.96026E-14
 -1      1537 6.09588E-03 6.51460E-04-3.78423E-14
 -1      1538 6.08386E-03 6.19900E-04-3.78670E-14
 -1      1539 6.53771E-03 6.39467E-04-4.32204E-14
 -1      1540 6.38961E-03 6.43517E-04-4.13955E-14
 -1      1541 6.37718E-03 6.11665E-04-4.14159E-14
 -1      1542 6.83700E-03 6.31483E-04-4.69665E-14
 -1      1543 6.68681E-03 6.35392E-04-4.50788E-14
 -1      1544 6.67367E-03 6.03139E-04-4.50938E-14
 -1      1545 7.14121E-03 6.24467E-04-5.08367E-14
 -1      1546 6.98842E-03 6.27754E-04-4.88863E-14
 -1      1547 6.97412E-03 5.94958E-04-4.88967E-14
 -1      1548 7.45146E-03 6.19780E-04-5.48240E-14
 -1      1549 7.29551E-03 6.21692E-04-5.28141E-14
 -1      1550 7.27944E-03 5.88176E-04-5.28209E-14
 -1      1551 7.76886E-03 6.19455E-04-5.89324E-14
 -1      1552 7.60919E-03 6.18886E-04-5.68638E-14
 -1      1553 7.59061E-03 5.84435E-04-5.68663E-14
 -1      1554 8.09434E-03 6.26380E-04-6.31537E-14
 -1      1555 7.93054E-03 6.21779E-04-6.10298E-14
 -1      1556 7.90849E-03 5.86152E-04-6.10282E-14
 -1      1557 8.42833E-03 6.44414E-04-6.74791E-14
 -1      1558 8.26026E-03 6.33743E-04-6.53027E-14
 -1      1559 8.23373E-03 5.96690E-04-6.52977E-14
 -1      1560 8.77025E-03 6.78284E-04-7.19068E-14
 -1      1561 8.59836E-03 6.59111E-04-6.96798E-14
 -1      1562 8.56638E-03 6.20422E-04-6.96710E-14
 -1      1563 9.11800E-03 7.33004E-04-7.64322E-14
 -1      1564 8.94359E-03 7.02870E-04-7.41585E-14
 -1      1565 8.90554E-03 6.62465E-04-7.41457E-14
 -1      1566 9.46736E-03 8.12406E-04-8.10502E-14
 -1      1567 9.29283E-03 7.69680E-04-7.87294E-14
 -1      1568 9.24893E-03 7.27748E-04-7.87150E-14
 -1      1569 9.81194E-03 9.16508E-04-8.57687E-14
 -1      1570 9.64074E-03 8.61835E-04-8.33975E-14
 -1      1571 9.59251E-03 8.19015E-04-8.33825E-14
 -1      1572 1.01441E-02 1.03807E-03-9.05927E-14
 -1      1573 9.98009E-03 9.76109E-04-8.81656E-14
 -1      1574 9.93072E-03 9.33620E-04-8.81489E-14
 -1      1575 1.04573E-02 1.16017E-03-9.55263E-14
 -1      1576 1.03034E-02 1.10053E-03-9.30449E-14
 -1      1577 1.02575E-02 1.06006E-03-9.30248E-14
 -1      1578 1.07497E-02 1.25787E-03-1.00580E-13
 -1      1579 1.06059E-02 1.21360E-03-9.80391E-14
 -1      1580 1.05686E-02 1.17674E-03-9.80171E-14
 -1      1581 1.10267E-02 1.30645E-03-1.05746E-13
 -1      1582 1.08894E-02 1.28923E-03-1.03149E-13
 -1      1583 1.08648E-02 1.25663E-03-1.03122E-13
 -1      1584 1.13003E-02 1.29285E-03-1.11007E-13
 -1      1585 1.11630E-02 1.30723E-03-1.08366E-13
 -1      1586 1.11525E-02 1.27802E-03-1.08333E-13
 -1      1587 1.15832E-02 1.22284E-03-1.16356E-13
 -1      1588 1.14398E-02 1.26365E-03-1.13672E-13
 -1      1589 1.14422E-02 1.23586E-03-1.13632E-13
 -1      1590 1.18839E-02 1.11763E-03-1.21781E-13
 -1      1591 1.17311E-02 1.17296E-03-1.19059E-13
 -1      1592 1.17428E-02 1.14461E-03-1.19016E-13
 -1      1593 1.22028E-02 1.00298E-03-1.27262E-13
 -1      1594 1.20413E-02 1.06010E-03-1.24514E-13
 -1      1595 1.20577E-02 1.03005E-03-1.24465E-13
 -1      1596 1.25347E-02 8.98909E-04-1.32776E-13
 -1      1597 1.23676E-02 9.48874E-04-1.30017E-13
 -1      1598 1.23844E-02 9.16980E-04-1.29965E-13
 -1      1599 1.28717E-02 8.15502E-04-1.38325E-13
 -1      1600 1.27031E-02 8.54478E-04-1.35544E-13
 -1      1601 1.27172E-02 8.21246E-04-1.35497E-13
 -1      1602 1.32064E-02 7.54032E-04-1.43906E-13
 -1      1603 1.30398E-02 7.82265E-04-1.41113E-13
 -1      1604 1.30500E-02 7.48430E-04-1.41061E-13
 -1      1605 1.35336E-02 7.10303E-04-1.49519E-13
 -1      1606 1.33713E-02 7.30367E-04-1.46708E-13
 -1      1607 1.33777E-02 6.96630E-04-1.46657E-13
 -1      1608 1.38506E-02 6.77643E-04-1.55155E-13
 -1      1609 1.36935E-02 6.93044E-04-1.52333E-13
 -1      1610 1.36973E-02 6.59957E-04-1.52280E-13
 -1      1611 1.41566E-02 6.48827E-04-1.60813E-13
 -1      1612 1.40049E-02 6.63168E-04-1.57982E-13
 -1      1613 1.40074E-02 6.31102E-04-1.57926E-13
 -1      1614 1.44529E-02 6.17250E-04-1.66485E-13
 -1      1615 1.43058E-02 6.33702E-04-1.63646E-13
 -1      1616 1.43084E-02 6.02848E-04-1.63589E-13
 -1      1617 1.47423E-02 5.78207E-04-1.72166E-13
 -1      1618 1.45982E-02 5.98771E-04-1.69327E-13
 -1      1619 1.46017E-02 5.69107E-04-1.69266E-13
 -1      1620 1.48974E-02 5.43843E-04-1.75194E-13
 -1      1621 1.49728E-02 4.39067E-04-1.76108E-13
 -1      1622 1.49460E-02 4.79441E-04-1.75838E-13
 -1      1623 1.50324E-02 3.63072E-04-1.76643E-13
 -1      1624 1.50018E-02 4.00151E-04-1.76376E-13
 -1      1625 1.48639E-02 4.39736E-04-1.73782E-13
 -1      1626 1.50962E-02 2.95553E-04-1.77177E-13
 -1      1627 1.50641E-02 3.28127E-04-1.76910E-13
 -1      1628 1.49262E-02 3.65666E-04-1.74317E-13
 -1      1629 1.51582E-02 2.38010E-04-1.77703E-13
 -1      1630 1.51278E-02 2.65493E-04-1.77442E-13
 -1      1631 1.49914E-02 2.99358E-04-1.74852E-13
 -1      1632 1.52111E-02 1.91274E-04-1.78233E-13
 -1      1633 1.51860E-02 2.13470E-04-1.77965E-13
 -1      1634 1.50529E-02 2.42060E-04-1.75380E-13
 -1      1635 1.52504E-02 1.52411E-04-1.78787E-13
 -1      1636 1.52329E-02 1.70881E-04-1.78511E-13
 -1      1637 1.51044E-02 1.92923E-04-1.75916E-13
 -1      1638 1.52700E-02 1.19658E-04-1.79334E-13
 -1      1639 1.52629E-02 1.35473E-04-1.79061E-13
 -1      1640 1.51401E-02 1.50235E-04-1.76459E-13
 -1      1641 1.52672E-02 8.94125E-05-1.79869E-13
 -1      1642 1.52715E-02 1.04462E-04-1.79605E-13
 -1      1643 1.51547E-02 1.11990E-04-1.76996E-13
 -1      1644 1.52415E-02 5.76957E-05-1.80377E-13
 -1      1645 1.52571E-02 7.39771E-05-1.80127E-13
 -1      1646 1.51460E-02 7.50188E-05-1.77521E-13
 -1      1647 1.51952E-02 2.08064E-05-1.80874E-13
 -1      1648 1.52207E-02 4.00964E-05-1.80624E-13
 -1      1649 1.51143E-02 3.59685E-05-1.78028E-13
 -1      1650 1.51342E-02-2.32602E-05-1.81370E-13
 -1      1651 1.51664E-02-1.34589E-07-1.81122E-13
 -1      1652 1.50631E-02-7.73817E-06-1.78522E-13
 -1      1653 1.50619E-02-7.76262E-05-1.81862E-13
 -1      1654 1.50990E-02-4.91932E-05-1.81621E-13
 -1      1655 1.49972E-02-5.85086E-05-1.79015E-13
 -1      1656 1.49856E-02-1.41879E-04-1.82317E-13
 -1      1657 1.50239E-02-1.08550E-04-1.82095E-13
 -1      1658 1.49221E-02-1.17937E-04-1.79491E-13
 -1      1659 1.49112E-02-2.14958E-04-1.82763E-13
 -1      1660 1.49479E-02-1.77434E-04-1.82540E-13
 -1      1661 1.48445E-02-1.85604E-04-1.79947E-13
 -1      1662 1.48079E-02-2.95537E-04-1.82328E-13
 -1      1663 1.48414E-02-2.55286E-04-1.82104E-13
 -1      1664 1.47358E-02-2.61089E-04-1.79513E-13
 -1      1665 1.45966E-02-3.40949E-04-1.78195E-13
 -1      1666 1.32981E-02 1.31160E-04-1.23723E-13
 -1      1667 1.33316E-02 8.31265E-05-1.23984E-13
 -1      1668 1.31263E-02 2.49624E-04-1.22707E-13
 -1      1669 1.32214E-02 1.92536E-04-1.23246E-13
 -1      1670 1.28412E-02 3.97253E-04-1.21125E-13
 -1      1671 1.29846E-02 3.25366E-04-1.21917E-13
 -1      1672 1.24814E-02 5.71549E-04-1.19054E-13
 -1      1673 1.26539E-02 4.88617E-04-1.20057E-13
 -1      1674 1.21039E-02 7.48299E-04-1.16647E-13
 -1      1675 1.22806E-02 6.70027E-04-1.17759E-13
 -1      1676 1.16951E-02 9.00797E-04-1.13941E-13
 -1      1677 1.18840E-02 8.33692E-04-1.15249E-13
 -1      1678 1.13062E-02 9.89521E-04-1.11096E-13
 -1      1679 1.14838E-02 9.58139E-04-1.12388E-13
 -1      1680 1.09074E-02 9.97116E-04-1.08152E-13
 -1      1681 1.10914E-02 1.00712E-03-1.09518E-13
 -1      1682 1.05119E-02 9.11086E-04-1.05404E-13
 -1      1683 1.06907E-02 9.59653E-04-1.06626E-13
 -1      1684 1.01194E-02 7.63293E-04-1.02949E-13
 -1      1685 1.02999E-02 8.37595E-04-1.04037E-13
 -1      1686 9.72495E-03 5.88400E-04-1.00888E-13
 -1      1687 9.90282E-03 6.72002E-04-1.01809E-13
 -1      1688 9.37110E-03 4.16135E-04-9.92324E-14
 -1      1689 9.52855E-03 4.93637E-04-9.99351E-14
 -1      1690 9.06306E-03 2.59302E-04-9.80098E-14
 -1      1691 9.19782E-03 3.29974E-04-9.85214E-14
 -1      1692 8.87182E-03 1.39255E-04-9.73636E-14
 -1      1693 8.94387E-03 1.89145E-04-9.75842E-14
 -1      1694 8.80051E-03 3.38323E-05-9.71535E-14
 -1      1695 8.81663E-03 7.95049E-05-9.71179E-14
 -1      1696 8.87404E-03-6.90977E-05-9.77331E-14
 -1      1697 8.82270E-03-2.13840E-05-9.74239E-14
 -1      1698 9.10217E-03-1.94411E-04-9.88123E-14
 -1      1699 8.97804E-03-1.29230E-04-9.81719E-14
 -1      1700 9.41682E-03-3.67064E-04-1.00695E-13
 -1      1701 9.26230E-03-2.91271E-04-9.98610E-14
 -1      1702 9.81900E-03-5.46979E-04-1.02851E-13
 -1      1703 9.62931E-03-4.57016E-04-1.01746E-13
 -1      1704 1.01978E-02-7.18648E-04-1.05357E-13
 -1      1705 1.00241E-02-6.46984E-04-1.04242E-13
 -1      1706 1.06046E-02-8.49554E-04-1.08160E-13
 -1      1707 1.04114E-02-7.94701E-04-1.06806E-13
 -1      1708 1.10070E-02-9.08031E-04-1.11090E-13
 -1      1709 1.08284E-02-8.93486E-04-1.09743E-13
 -1      1710 1.14082E-02-8.67751E-04-1.13997E-13
 -1      1711 1.12224E-02-8.96028E-04-1.12665E-13
 -1      1712 1.18168E-02-7.47114E-04-1.16824E-13
 -1      1713 1.16255E-02-8.12902E-04-1.15557E-13
 -1      1714 1.22364E-02-5.70984E-04-1.19353E-13
 -1      1715 1.20435E-02-6.56780E-04-1.18238E-13
 -1      1716 1.26351E-02-3.89087E-04-1.21345E-13
 -1      1717 1.24590E-02-4.73519E-04-1.20474E-13
 -1      1718 1.29730E-02-2.15947E-04-1.22926E-13
 -1      1719 1.28235E-02-2.90587E-04-1.22296E-13
 -1      1720 1.32173E-02-7.99168E-05-1.23845E-13
 -1      1721 1.31193E-02-1.38004E-04-1.23504E-13
 -1      1722 1.33299E-02 2.74934E-05-1.24037E-13
 -1      1723 1.32954E-02-2.09732E-05-1.23995E-13
 -1      1724 1.23225E-02 5.80898E-04-1.19052E-13
 -1      1725 1.27033E-02 3.88625E-04-1.21422E-13
 -1      1726 1.49018E-02 5.14938E-04-1.75134E-13
 -1      1727 1.47902E-02 5.13845E-04-1.72809E-13
 -1      1728 1.32622E-02 1.30439E-04-1.24556E-13
 -1      1729 1.30360E-02 2.35758E-04-1.23286E-13
 -1      1730 1.33412E-02 5.68395E-05-1.25087E-13
 -1      1731 1.19280E-02 7.78712E-04-1.16352E-13
 -1      1732 1.15487E-02 9.40521E-04-1.13396E-13
 -1      1733 1.11817E-02 1.02472E-03-1.10265E-13
 -1      1734 1.08286E-02 1.00180E-03-1.07166E-13
 -1      1735 1.04605E-02 8.77558E-04-1.04281E-13
 -1      1736 1.00763E-02 6.94421E-04-1.01788E-13
 -1      1737 9.68434E-03 4.96236E-04-9.97086E-14
 -1      1738 9.31714E-03 3.17176E-04-9.80582E-14
 -1      1739 9.01846E-03 1.79372E-04-9.69307E-14
 -1      1740 8.83710E-03 8.30716E-05-9.62644E-14
 -1      1741 8.80163E-03 1.61853E-05-9.62889E-14
 -1      1742 8.93188E-03-6.21583E-05-9.69908E-14
 -1      1743 9.20600E-03-1.85323E-04-9.84614E-14
 -1      1744 9.57899E-03-3.64677E-04-1.00546E-13
 -1      1745 9.97761E-03-5.66092E-04-1.02969E-13
 -1      1746 1.03642E-02-7.57417E-04-1.05798E-13
 -1      1747 1.07468E-02-8.91684E-04-1.08826E-13
 -1      1748 1.11055E-02-9.28721E-04-1.11986E-13
 -1      1749 1.14776E-02-8.54410E-04-1.15125E-13
 -1      1750 1.18679E-02-6.90497E-04-1.18108E-13
 -1      1751 1.22838E-02-4.84879E-04-1.20652E-13
 -1      1752 1.26857E-02-2.84778E-04-1.22731E-13
 -1      1753 1.30259E-02-1.24290E-04-1.24265E-13
 -1      1754 1.32581E-02-1.92652E-05-1.24992E-13
 -1      1755 2.85222E-04-1.76251E-04-8.31176E-17
 -1      1756 3.32186E-04-1.16815E-04-2.56238E-16
 -1      1757 3.36317E-04-1.33060E-04-2.41533E-16
 -1      1758 3.42191E-04-1.52047E-04-2.23183E-16
 -1      1759 3.51739E-04-1.74046E-04-1.97216E-16
 -1      1760 4.58311E-04-1.88126E-04-3.50645E-16
 -1      1761 3.24580E-04-6.54128E-05-2.85525E-16
 -1      1762 3.25710E-04-7.67146E-05-2.81079E-16
 -1      1763 3.23097E-04-4.39124E-05-2.90119E-16
 -1      1764 3.23746E-04-5.44065E-05-2.88371E-16
 -1      1765 4.36536E-04-7.93202E-05-4.23273E-16
 -1      1766 3.22320E-04-2.37847E-05-2.90959E-16
 -1      1767 3.22648E-04-3.37033E-05-2.90905E-16
 -1      1768 4.34550E-04-5.13413E-05-4.28260E-16
 -1      1769 3.22030E-04-4.33906E-06-2.88574E-16
 -1      1770 3.22125E-04-1.39971E-05-2.90173E-16
 -1      1771 4.33539E-04-2.49361E-05-4.28151E-16
 -1      1772 3.22150E-04 1.49903E-05-2.83505E-16
 -1      1773 3.22038E-04 5.32219E-06-2.86460E-16
 -1      1774 4.33244E-04 7.58486E-07-4.23869E-16
 -1      1775 3.22710E-04 3.47498E-05-2.75428E-16
 -1      1776 3.22362E-04 2.47988E-05-2.79887E-16
 -1      1777 4.33596E-04 2.64819E-05-4.15480E-16
 -1      1778 3.23829E-04 5.51957E-05-2.63529E-16
 -1      1779 3.23171E-04 4.48292E-05-2.70197E-16
 -1      1780 4.34663E-04 5.27494E-05-4.02740E-16
 -1      1781 3.25872E-04 7.78525E-05-2.46859E-16
 -1      1782 3.24681E-04 6.62692E-05-2.56156E-16
 -1      1783 4.36702E-04 8.06385E-05-3.84702E-16
 -1      1784 3.29546E-04 1.03693E-04-2.22438E-16
 -1      1785 3.27405E-04 9.03418E-05-2.36166E-16
 -1      1786 4.40330E-04 1.11614E-04-3.59061E-16
 -1      1787 3.36564E-04 1.35149E-04-1.86198E-16
 -1      1788 3.32390E-04 1.18652E-04-2.06486E-16
 -1      1789 4.46779E-04 1.47385E-04-3.22225E-16
 -1      1790 3.52278E-04 1.77637E-04-1.32449E-16
 -1      1791 3.42789E-04 1.54795E-04-1.62590E-16
 -1      1792 4.59292E-04 1.91503E-04-2.68787E-16
 -1      1793 4.07670E-04 2.33716E-04-9.49355E-17
 -1      1794 3.78062E-04 2.02694E-04-1.19438E-16
 -1      1795 4.95820E-04 2.44038E-04-2.21015E-16
 -1      1796 5.58504E-04 3.02544E-04-1.82160E-16
 -1      1797 3.39997E-04-1.90937E-04-1.44429E-16
 -1      1798 8.53496E-04 4.07171E-04-4.95087E-16
 -1      1799 7.07107E-04 3.59425E-04-3.16370E-16
 -1      1800 6.73348E-04 3.28859E-04-3.41253E-16
 -1      1801 4.58921E-04-2.36757E-04-2.56563E-16
 -1      1802 8.07163E-04-3.74169E-04-6.84647E-16
 -1      1803 9.52413E-04-4.15354E-04-9.56063E-16
 -1      1804 1.09524E-03-4.50040E-04-1.27707E-15
 -1      1805 1.23689E-03-4.78935E-04-1.64810E-15
 -1      1806 1.00384E-03-3.97971E-04-1.17069E-15
 -1      1807 1.37728E-03-5.03414E-04-2.06755E-15
 -1      1808 1.51694E-03-5.23771E-04-2.53638E-15
 -1      1809 1.28951E-03-4.55936E-04-1.92079E-15
 -1      1810 1.65608E-03-5.40930E-04-3.05403E-15
 -1      1811 1.79490E-03-5.55124E-04-3.62008E-15
 -1      1812 1.57188E-03-4.96853E-04-2.86445E-15
 -1      1813 1.93359E-03-5.66962E-04-4.23377E-15
 -1      1814 2.07222E-03-5.76647E-04-4.89474E-15
 -1      1815 1.85246E-03-5.25338E-04-4.00014E-15
 -1      1816 2.21094E-03-5.84595E-04-5.60303E-15
 -1      1817 2.34974E-03-5.90974E-04-6.35748E-15
 -1      1818 2.13232E-03-5.44718E-04-5.32403E-15
 -1      1819 2.48875E-03-5.96077E-04-7.15813E-15
 -1      1820 2.62793E-03-6.00042E-04-8.00450E-15
 -1      1821 2.41213E-03-5.57433E-04-6.83348E-15
 -1      1822 2.76736E-03-6.03078E-04-8.89615E-15
 -1      1823 2.90701E-03-6.05293E-04-9.83186E-15
 -1      1824 2.69232E-03-5.65293E-04-8.52440E-15
 -1      1825 3.04691E-03-6.06835E-04-1.08113E-14
 -1      1826 3.18704E-03-6.07788E-04-1.18338E-14
 -1      1827 2.97308E-03-5.69642E-04-1.03935E-14
 -1      1828 3.32742E-03-6.08252E-04-1.28991E-14
 -1      1829 3.46802E-03-6.08292E-04-1.40064E-14
 -1      1830 3.25453E-03-5.71463E-04-1.24348E-14
 -1      1831 3.60887E-03-6.07972E-04-1.51547E-14
 -1      1832 3.74991E-03-6.07340E-04-1.63447E-14
 -1      1833 3.53667E-03-5.71461E-04-1.46454E-14
 -1      1834 3.89119E-03-6.06433E-04-1.75736E-14
 -1      1835 4.03266E-03-6.05283E-04-1.88428E-14
 -1      1836 3.81951E-03-5.70119E-04-1.70194E-14
 -1      1837 4.17434E-03-6.03910E-04-2.01517E-14
 -1      1838 4.31621E-03-6.02335E-04-2.14986E-14
 -1      1839 4.10302E-03-5.67748E-04-1.95529E-14
 -1      1840 4.45829E-03-6.00559E-04-2.28846E-14
 -1      1841 4.60057E-03-5.98598E-04-2.43092E-14
 -1      1842 4.38720E-03-5.64526E-04-2.22431E-14
 -1      1843 4.74305E-03-5.96442E-04-2.57721E-14
 -1      1844 4.88575E-03-5.94101E-04-2.72712E-14
 -1      1845 4.67204E-03-5.60532E-04-2.50868E-14
 -1      1846 5.02868E-03-5.91558E-04-2.88069E-14
 -1      1847 5.17185E-03-5.88822E-04-3.03802E-14
 -1      1848 4.95761E-03-5.55772E-04-2.80796E-14
 -1      1849 5.31528E-03-5.85872E-04-3.19906E-14
 -1      1850 5.45901E-03-5.82720E-04-3.36365E-14
 -1      1851 5.24398E-03-5.50211E-04-3.12196E-14
 -1      1852 5.60304E-03-5.79345E-04-3.53181E-14
 -1      1853 5.74745E-03-5.75766E-04-3.70348E-14
 -1      1854 5.53131E-03-5.43798E-04-3.45051E-14
 -1      1855 5.89224E-03-5.71972E-04-3.87855E-14
 -1      1856 6.03749E-03-5.67989E-04-4.05715E-14
 -1      1857 5.81979E-03-5.36506E-04-3.79307E-14
 -1      1858 6.18321E-03-5.63824E-04-4.23935E-14
 -1      1859 6.32952E-03-5.59523E-04-4.42490E-14
 -1      1860 6.10969E-03-5.28372E-04-4.14973E-14
 -1      1861 6.47641E-03-5.55117E-04-4.61377E-14
 -1      1862 6.62403E-03-5.50680E-04-4.80599E-14
 -1      1863 6.40136E-03-5.19553E-04-4.52010E-14
 -1      1864 6.77238E-03-5.46285E-04-5.00141E-14
 -1      1865 6.92161E-03-5.42043E-04-5.20011E-14
 -1      1866 6.69522E-03-5.10403E-04-4.90383E-14
 -1      1867 7.07172E-03-5.38091E-04-5.40201E-14
 -1      1868 7.22289E-03-5.34588E-04-5.60699E-14
 -1      1869 6.99176E-03-5.01567E-04-5.30050E-14
 -1      1870 7.37512E-03-5.31758E-04-5.81498E-14
 -1      1871 7.52857E-03-5.29823E-04-6.02585E-14
 -1      1872 7.29156E-03-4.94111E-04-5.70971E-14
 -1      1873 7.68324E-03-5.29122E-04-6.23986E-14
 -1      1874 7.83928E-03-5.29953E-04-6.45667E-14
 -1      1875 7.59522E-03-4.89667E-04-6.13083E-14
 -1      1876 7.99670E-03-5.32790E-04-6.67618E-14
 -1      1877 8.15555E-03-5.38016E-04-6.89862E-14
 -1      1878 7.90340E-03-4.90593E-04-6.56357E-14
 -1      1879 8.31590E-03-5.46236E-04-7.12399E-14
 -1      1880 8.47760E-03-5.57912E-04-7.35219E-14
 -1      1881 8.21672E-03-5.00108E-04-7.00766E-14
 -1      1882 8.64084E-03-5.73723E-04-7.58297E-14
 -1      1883 8.80517E-03-5.94159E-04-7.81646E-14
 -1      1884 8.53574E-03-5.22295E-04-7.46286E-14
 -1      1885 8.97091E-03-6.19824E-04-8.05282E-14
 -1      1886 9.13722E-03-6.51107E-04-8.29166E-14
 -1      1887 8.86071E-03-5.61820E-04-7.92903E-14
 -1      1888 9.30453E-03-6.88262E-04-8.53344E-14
 -1      1889 9.47159E-03-7.31301E-04-8.77748E-14
 -1      1890 9.19134E-03-6.23071E-04-8.40601E-14
 -1      1891 9.63885E-03-7.79746E-04-9.02399E-14
 -1      1892 9.80478E-03-8.32808E-04-9.27333E-14
 -1      1893 9.52615E-03-7.08370E-04-8.89321E-14
 -1      1894 9.96967E-03-8.88905E-04-9.52497E-14
 -1      1895 1.01322E-02-9.46119E-04-9.77913E-14
 -1      1896 9.86190E-03-8.14970E-04-9.39034E-14
 -1      1897 1.02923E-02-1.00172E-03-1.00361E-13
 -1      1898 1.04496E-02-1.05266E-03-1.02952E-13
 -1      1899 1.01935E-02-9.31660E-04-9.89763E-14
 -1      1900 1.06036E-02-1.09571E-03-1.05566E-13
 -1      1901 1.07556E-02-1.12776E-03-1.08205E-13
 -1      1902 1.05159E-02-1.03714E-03-1.04150E-13
 -1      1903 1.09048E-02-1.14636E-03-1.10869E-13
 -1      1904 1.10539E-02-1.14993E-03-1.13554E-13
 -1      1905 1.08274E-02-1.10429E-03-1.09420E-13
 -1      1906 1.12021E-02-1.13810E-03-1.16258E-13
 -1      1907 1.13524E-02-1.11174E-03-1.18984E-13
 -1      1908 1.11329E-02-1.11194E-03-1.14779E-13
 -1      1909 1.15038E-02-1.07279E-03-1.21730E-13
 -1      1910 1.16582E-02-1.02403E-03-1.24496E-13
 -1      1911 1.14410E-02-1.05685E-03-1.20224E-13
 -1      1912 1.18150E-02-9.68606E-04-1.27283E-13
 -1      1913 1.19742E-02-9.09651E-04-1.30085E-13
 -1      1914 1.17581E-02-9.55803E-04-1.25748E-13
 -1      1915 1.21356E-02-8.50091E-04-1.32903E-13
 -1      1916 1.22980E-02-7.92155E-04-1.35737E-13
 -1      1917 1.20842E-02-8.35274E-04-1.31348E-13
 -1      1918 1.24617E-02-7.37683E-04-1.38583E-13
 -1      1919 1.26251E-02-6.87678E-04-1.41438E-13
 -1      1920 1.24149E-02-7.18585E-04-1.37006E-13
 -1      1921 1.27885E-02-6.42778E-04-1.44301E-13
 -1      1922 1.29507E-02-6.03031E-04-1.47172E-13
 -1      1923 1.27446E-02-6.19252E-04-1.42710E-13
 -1      1924 1.31120E-02-5.68169E-04-1.50049E-13
 -1      1925 1.32715E-02-5.37728E-04-1.52927E-13
 -1      1926 1.30693E-02-5.41189E-04-1.48444E-13
 -1      1927 1.34296E-02-5.10924E-04-1.55803E-13
 -1      1928 1.35857E-02-4.87082E-04-1.58682E-13
 -1      1929 1.33871E-02-4.81919E-04-1.54190E-13
 -1      1930 1.37400E-02-4.65219E-04-1.61562E-13
 -1      1931 1.38924E-02-4.44608E-04-1.64436E-13
 -1      1932 1.36975E-02-4.35757E-04-1.59937E-13
 -1      1933 1.40430E-02-4.24291E-04-1.67309E-13
 -1      1934 1.41919E-02-4.03557E-04-1.70177E-13
 -1      1935 1.40005E-02-3.95915E-04-1.65683E-13
 -1      1936 1.43224E-02-3.85684E-04-1.72754E-13
 -1      1937 1.44684E-02-3.62148E-04-1.75619E-13
 -1      1938 1.45381E-02-3.22121E-04-1.76277E-13
 -1      1939 1.42801E-02-3.59603E-04-1.71127E-13
 -1      1940 1.13851E-03 4.80137E-04-9.87098E-16
 -1      1941 9.96760E-04 4.46887E-04-7.18094E-16
 -1      1942 9.64387E-04 4.17435E-04-7.46690E-16
 -1      1943 1.41758E-03 5.31604E-04-1.66246E-15
 -1      1944 1.27845E-03 5.08165E-04-1.30161E-15
 -1      1945 1.24883E-03 4.80033E-04-1.33175E-15
 -1      1946 1.69390E-03 5.67860E-04-2.52240E-15
 -1      1947 1.55590E-03 5.51389E-04-2.06944E-15
 -1      1948 1.52905E-03 5.24223E-04-2.09961E-15
 -1      1949 1.96940E-03 5.93075E-04-3.56529E-15
 -1      1950 1.83166E-03 5.81678E-04-3.02067E-15
 -1      1951 1.80724E-03 5.55153E-04-3.05009E-15
 -1      1952 2.24516E-03 6.10193E-04-4.79087E-15
 -1      1953 2.10721E-03 6.02522E-04-4.15545E-15
 -1      1954 2.08480E-03 5.76406E-04-4.18257E-15
 -1      1955 2.52174E-03 6.21374E-04-6.19609E-15
 -1      1956 2.38333E-03 6.16433E-04-5.47114E-15
 -1      1957 2.36256E-03 5.90569E-04-5.49564E-15
 -1      1958 2.79939E-03 6.28223E-04-7.78026E-15
 -1      1959 2.66043E-03 6.25271E-04-6.96577E-15
 -1      1960 2.64095E-03 5.99553E-04-6.98660E-15
 -1      1961 3.07820E-03 6.31932E-04-9.54140E-15
 -1      1962 2.93866E-03 6.30419E-04-8.63898E-15
 -1      1963 2.92020E-03 6.04779E-04-8.65523E-15
 -1      1964 3.35815E-03 6.33369E-04-1.14728E-14
 -1      1965 3.21805E-03 6.32898E-04-1.04857E-14
 -1      1966 3.20038E-03 6.07292E-04-1.04973E-14
 -1      1967 3.63917E-03 6.33154E-04-1.35751E-14
 -1      1968 3.49854E-03 6.33444E-04-1.25033E-14
 -1      1969 3.48149E-03 6.07844E-04-1.25096E-14
 -1      1970 3.92118E-03 6.31704E-04-1.58421E-14
 -1      1971 3.78006E-03 6.32567E-04-1.46878E-14
 -1      1972 3.76348E-03 6.06960E-04-1.46886E-14
 -1      1973 4.20411E-03 6.29284E-04-1.82735E-14
 -1      1974 4.06254E-03 6.30606E-04-1.70372E-14
 -1      1975 4.04631E-03 6.04984E-04-1.70323E-14
 -1      1976 4.48790E-03 6.26038E-04-2.08654E-14
 -1      1977 4.34590E-03 6.27759E-04-1.95501E-14
 -1      1978 4.32994E-03 6.02120E-04-1.95390E-14
 -1      1979 4.77258E-03 6.22023E-04-2.36147E-14
 -1      1980 4.63013E-03 6.24125E-04-2.22207E-14
 -1      1981 4.61436E-03 5.98466E-04-2.22029E-14
 -1      1982 5.05820E-03 6.17232E-04-2.65136E-14
 -1      1983 4.91527E-03 6.19723E-04-2.50452E-14
 -1      1984 4.89960E-03 5.94042E-04-2.50208E-14
 -1      1985 5.34489E-03 6.11628E-04-2.95640E-14
 -1      1986 5.20140E-03 6.14530E-04-2.80203E-14
 -1      1987 5.18575E-03 5.88820E-04-2.79893E-14
 -1      1988 5.63286E-03 6.05171E-04-3.27609E-14
 -1      1989 5.48870E-03 6.08502E-04-3.11441E-14
 -1      1990 5.47297E-03 5.82751E-04-3.11067E-14
 -1      1991 5.92244E-03 5.97852E-04-3.60995E-14
 -1      1992 5.77743E-03 6.01609E-04-3.44126E-14
 -1      1993 5.76148E-03 5.75794E-04-3.43688E-14
 -1      1994 6.21403E-03 5.89748E-04-3.95760E-14
 -1      1995 6.06795E-03 5.93880E-04-3.78208E-14
 -1      1996 6.05161E-03 5.67965E-04-3.77713E-14
 -1      1997 6.50816E-03 5.81075E-04-4.31826E-14
 -1      1998 6.36073E-03 5.85451E-04-4.13639E-14
 -1      1999 6.34376E-03 5.59381E-04-4.13076E-14
 -1      2000 6.80549E-03 5.72282E-04-4.69168E-14
 -1      2001 6.65637E-03 5.76643E-04-4.50345E-14
 -1      2002 6.63845E-03 5.50340E-04-4.49730E-14
 -1      2003 7.10677E-03 5.64158E-04-5.07774E-14
 -1      2004 6.95557E-03 5.68060E-04-4.88310E-14
 -1      2005 6.93629E-03 5.41410E-04-4.87639E-14
 -1      2006 7.41284E-03 5.57983E-04-5.47550E-14
 -1      2007 7.25913E-03 5.60716E-04-5.27502E-14
 -1      2008 7.23797E-03 5.33564E-04-5.26768E-14
 -1      2009 7.72453E-03 5.55708E-04-5.88533E-14
 -1      2010 7.56790E-03 5.56205E-04-5.67898E-14
 -1      2011 7.54426E-03 5.28339E-04-5.67104E-14
 -1      2012 8.04258E-03 5.60151E-04-6.30658E-14
 -1      2013 7.88270E-03 5.56887E-04-6.09463E-14
 -1      2014 7.85589E-03 5.28032E-04-6.08618E-14
 -1      2015 8.36745E-03 5.75144E-04-6.73840E-14
 -1      2016 8.20414E-03 5.66080E-04-6.52114E-14
 -1      2017 8.17355E-03 5.35886E-04-6.51224E-14
 -1      2018 8.69906E-03 6.05504E-04-7.18020E-14
 -1      2019 8.53246E-03 5.88129E-04-6.95803E-14
 -1      2020 8.49766E-03 5.56198E-04-6.94864E-14
 -1      2021 9.03645E-03 6.56554E-04-7.63210E-14
 -1      2022 8.86719E-03 6.28204E-04-7.40496E-14
 -1      2023 8.82822E-03 5.94159E-04-7.39519E-14
 -1      2024 9.37740E-03 7.32807E-04-8.09352E-14
 -1      2025 9.20680E-03 6.91448E-04-7.86159E-14
 -1      2026 9.16448E-03 6.55109E-04-7.85141E-14
 -1      2027 9.71818E-03 8.35433E-04-8.56481E-14
 -1      2028 9.54830E-03 7.81097E-04-8.32787E-14
 -1      2029 9.50447E-03 7.42786E-04-8.31741E-14
 -1      2030 1.00536E-02 9.58554E-04-9.04653E-14
 -1      2031 9.88713E-03 8.95251E-04-8.80431E-14
 -1      2032 9.84458E-03 8.56164E-04-8.79337E-14
 -1      2033 1.03784E-02 1.08616E-03-9.53954E-14
 -1      2034 1.02178E-02 1.02324E-03-9.29164E-14
 -1      2035 1.01796E-02 9.85511E-04-9.28041E-14
 -1      2036 1.06895E-02 1.19238E-03-1.00439E-13
 -1      2037 1.05356E-02 1.14358E-03-9.79030E-14
 -1      2038 1.05043E-02 1.10973E-03-9.77859E-14
 -1      2039 1.09891E-02 1.24976E-03-1.05592E-13
 -1      2040 1.08401E-02 1.22832E-03-1.03002E-13
 -1      2041 1.08165E-02 1.19973E-03-1.02880E-13
 -1      2042 1.12851E-02 1.24189E-03-1.10841E-13
 -1      2043 1.11366E-02 1.25392E-03-1.08205E-13
 -1      2044 1.11203E-02 1.22985E-03-1.08076E-13
 -1      2045 1.15870E-02 1.17315E-03-1.16180E-13
 -1      2046 1.14345E-02 1.21390E-03-1.13501E-13
 -1      2047 1.14250E-02 1.19189E-03-1.13367E-13
 -1      2048 1.19004E-02 1.06575E-03-1.21594E-13
 -1      2049 1.17420E-02 1.12257E-03-1.18878E-13
 -1      2050 1.17385E-02 1.10016E-03-1.18741E-13
 -1      2051 1.22250E-02 9.47567E-04-1.27066E-13
 -1      2052 1.20615E-02 1.00661E-03-1.24323E-13
 -1      2053 1.20630E-02 9.82548E-04-1.24181E-13
 -1      2054 1.25564E-02 8.40353E-04-1.32582E-13
 -1      2055 1.23903E-02 8.91877E-04-1.29819E-13
 -1      2056 1.23949E-02 8.66133E-04-1.29674E-13
 -1      2057 1.28888E-02 7.54986E-04-1.38129E-13
 -1      2058 1.27229E-02 7.94831E-04-1.35352E-13
 -1      2059 1.27286E-02 7.67972E-04-1.35205E-13
 -1      2060 1.32176E-02 6.92896E-04-1.43707E-13
 -1      2061 1.30540E-02 7.21289E-04-1.40916E-13
 -1      2062 1.30590E-02 6.93951E-04-1.40768E-13
 -1      2063 1.35395E-02 6.49722E-04-1.49319E-13
 -1      2064 1.33796E-02 6.69356E-04-1.46510E-13
 -1      2065 1.33832E-02 6.42072E-04-1.46360E-13
 -1      2066 1.38530E-02 6.18527E-04-1.54947E-13
 -1      2067 1.36974E-02 6.33066E-04-1.52128E-13
 -1      2068 1.36994E-02 6.06262E-04-1.51979E-13
 -1      2069 1.41578E-02 5.91804E-04-1.60605E-13
 -1      2070 1.40064E-02 6.05010E-04-1.57776E-13
 -1      2071 1.40073E-02 5.79042E-04-1.57623E-13
 -1      2072 1.44547E-02 5.62644E-04-1.66273E-13
 -1      2073 1.43071E-02 5.77852E-04-1.63437E-13
 -1      2074 1.43074E-02 5.53006E-04-1.63284E-13
 -1      2075 1.46957E-02 5.30065E-04-1.70961E-13
 -1      2076 1.45507E-02 5.48803E-04-1.68122E-13
 -1      2077 1.45508E-02 5.25026E-04-1.67969E-13
 -1      2078 1.47411E-02 4.95525E-04-1.71666E-13
 -1      2079 1.48868E-02 2.98552E-04-1.72531E-13
 -1      2080 1.48537E-02 3.30646E-04-1.72263E-13
 -1      2081 1.48203E-02 3.64667E-04-1.71996E-13
 -1      2082 1.47873E-02 4.00421E-04-1.71728E-13
 -1      2083 1.47148E-02 3.60404E-04-1.69673E-13
 -1      2084 1.47779E-02 4.27717E-04-1.71831E-13
 -1      2085 1.47476E-02 4.66297E-04-1.71562E-13
 -1      2086 1.46528E-02 4.81058E-04-1.69714E-13
 -1      2087 1.46702E-02 4.23735E-04-1.69508E-13
 -1      2088 1.49473E-02 2.40925E-04-1.73054E-13
 -1      2089 1.49180E-02 2.68847E-04-1.72791E-13
 -1      2090 1.47817E-02 2.94472E-04-1.70203E-13
 -1      2091 1.49970E-02 1.89349E-04-1.73593E-13
 -1      2092 1.49740E-02 2.14368E-04-1.73322E-13
 -1      2093 1.48420E-02 2.35324E-04-1.70730E-13
 -1      2094 1.50287E-02 1.43424E-04-1.74126E-13
 -1      2095 1.50154E-02 1.65891E-04-1.73861E-13
 -1      2096 1.48891E-02 1.81977E-04-1.71263E-13
 -1      2097 1.50380E-02 1.00789E-04-1.74659E-13
 -1      2098 1.50364E-02 1.21970E-04-1.74394E-13
 -1      2099 1.49165E-02 1.33433E-04-1.71794E-13
 -1      2100 1.50232E-02 5.85218E-05-1.75177E-13
 -1      2101 1.50336E-02 7.99013E-05-1.74919E-13
 -1      2102 1.49200E-02 8.73123E-05-1.72318E-13
 -1      2103 1.49853E-02 1.36555E-05-1.75681E-13
 -1      2104 1.50069E-02 3.66710E-05-1.75430E-13
 -1      2105 1.48987E-02 4.07703E-05-1.72831E-13
 -1      2106 1.49293E-02-3.53854E-05-1.76171E-13
 -1      2107 1.49593E-02-1.00775E-05-1.75927E-13
 -1      2108 1.48550E-02-8.48580E-06-1.73329E-13
 -1      2109 1.48587E-02-9.18996E-05-1.76659E-13
 -1      2110 1.48953E-02-6.27216E-05-1.76415E-13
 -1      2111 1.47932E-02-6.28889E-05-1.73816E-13
 -1      2112 1.47810E-02-1.55745E-04-1.77123E-13
 -1      2113 1.48204E-02-1.22914E-04-1.76893E-13
 -1      2114 1.47187E-02-1.24146E-04-1.74294E-13
 -1      2115 1.47025E-02-2.26704E-04-1.77579E-13
 -1      2116 1.47415E-02-1.90421E-04-1.77352E-13
 -1      2117 1.46387E-02-1.92098E-04-1.74757E-13
 -1      2118 1.29472E-02 2.24737E-04-1.24137E-13
 -1      2119 1.30901E-02 1.71017E-04-1.24930E-13
 -1      2120 1.33447E-02 6.64243E-05-1.26265E-13
 -1      2121 1.33424E-02 4.70307E-05-1.26319E-13
 -1      2122 1.32210E-02 1.19620E-04-1.25839E-13
 -1      2123 1.33003E-02 9.29058E-05-1.26318E-13
 -1      2124 1.25805E-02 3.94042E-04-1.21835E-13
 -1      2125 1.27611E-02 3.09415E-04-1.22909E-13
 -1      2126 1.21793E-02 6.07744E-04-1.19097E-13
 -1      2127 1.23630E-02 5.05361E-04-1.20399E-13
 -1      2128 3.27129E-04-8.90211E-05-2.75076E-16
 -1      2129 3.29238E-04-1.02166E-04-2.66781E-16
 -1      2130 4.46315E-04-1.45154E-04-3.88917E-16
 -1      2131 4.39997E-04-1.09988E-04-4.11102E-16
 -1      2132 1.14293E-02 9.84799E-04-1.12840E-13
 -1      2133 1.15873E-02 9.16304E-04-1.14395E-13
 -1      2134 1.11109E-02 1.04988E-03-1.09581E-13
 -1      2135 1.12612E-02 1.03079E-03-1.11158E-13
 -1      2136 1.07634E-02 9.93008E-04-1.06069E-13
 -1      2137 1.09169E-02 1.03547E-03-1.07587E-13
 -1      2138 1.04173E-02 8.36138E-04-1.03074E-13
 -1      2139 1.05806E-02 9.20809E-04-1.04429E-13
 -1      2140 1.00250E-02 6.21988E-04-1.00481E-13
 -1      2141 1.02069E-02 7.24674E-04-1.01608E-13
 -1      2142 9.64152E-03 4.10898E-04-9.82719E-14
 -1      2143 9.82281E-03 5.07624E-04-9.92104E-14
 -1      2144 9.26059E-03 2.39607E-04-9.67775E-14
 -1      2145 9.43107E-03 3.15604E-04-9.74786E-14
 -1      2146 8.97128E-03 1.19398E-04-9.55215E-14
 -1      2147 9.09447E-03 1.63990E-04-9.59393E-14
 -1      2148 8.81636E-03 5.91635E-05-9.50342E-14
 -1      2149 8.87787E-03 8.37780E-05-9.52774E-14
 -1      2150 8.92842E-03 8.75705E-05-9.42871E-14
 -1      2151 8.81202E-03 1.12441E-05-9.53262E-14
 -1      2152 8.78847E-03 2.96048E-05-9.50589E-14
 -1      2153 8.98348E-03-4.84853E-05-9.59926E-14
 -1      2154 8.87896E-03-1.64606E-05-9.55649E-14
 -1      2155 9.32993E-03-1.89232E-04-9.79641E-14
 -1      2156 9.16497E-03-1.16887E-04-9.69312E-14
 -1      2157 9.69860E-03-3.64143E-04-1.00019E-13
 -1      2158 9.50618E-03-2.71545E-04-9.89871E-14
 -1      2159 9.42872E-03-2.08159E-04-9.74412E-14
 -1      2160 1.01258E-02-6.06282E-04-1.03139E-13
 -1      2161 9.94305E-03-4.99472E-04-1.01762E-13
 -1      2162 1.04905E-02-7.99566E-04-1.06136E-13
 -1      2163 1.03210E-02-7.11801E-04-1.04696E-13
 -1      2164 1.08353E-02-9.25674E-04-1.09384E-13
 -1      2165 1.06733E-02-8.75077E-04-1.07801E-13
 -1      2166 1.11874E-02-9.39535E-04-1.13051E-13
 -1      2167 1.10376E-02-9.51734E-04-1.11472E-13
 -1      2168 1.15094E-02-8.37171E-04-1.16177E-13
 -1      2169 1.13477E-02-9.01612E-04-1.14612E-13
 -1      2170 1.12551E-02-9.31301E-04-1.14093E-13
 -1      2171 1.19142E-02-6.29463E-04-1.19521E-13
 -1      2172 1.17298E-02-7.32345E-04-1.18099E-13
 -1      2173 1.23446E-02-4.01734E-04-1.22091E-13
 -1      2174 1.21466E-02-5.07515E-04-1.20962E-13
 -1      2175 1.27327E-02-2.00671E-04-1.24378E-13
 -1      2176 1.25487E-02-2.89951E-04-1.23421E-13
 -1      2177 1.30820E-02-5.80641E-05-1.25831E-13
 -1      2178 1.29340E-02-1.14261E-04-1.25252E-13
 -1      2179 1.32977E-02 1.83403E-05-1.26269E-13
 -1      2180 1.32174E-02-1.01417E-05-1.26120E-13
 -1      2181 1.18005E-02 8.13995E-04-1.16207E-13
 -1      2182 1.19797E-02 7.16067E-04-1.17612E-13
 -1      2183 1.24550E-02 4.33237E-04-1.21879E-13
 -1      2184 6.07833E-04-2.98177E-04-4.15778E-16
 -1      2185 1.20569E-02 6.52185E-04-1.18951E-13
 -1      2186 1.16740E-02 8.67765E-04-1.15645E-13
 -1      2187 6.63555E-04-2.92472E-04-5.56670E-16
 -1      2188 1.31614E-02 1.28431E-04-1.26690E-13
 -1      2189 1.33329E-02 7.60243E-05-1.27550E-13
 -1      2190 1.46304E-02-2.64305E-04-1.76921E-13
 -1      2191 1.28489E-02 2.45915E-04-1.24549E-13
 -1      2192 1.33281E-02 4.01475E-05-1.27448E-13
 -1      2193 1.31532E-02-1.75548E-05-1.27109E-13
 -1      2194 1.28238E-02-1.36943E-04-1.25943E-13
 -1      2195 1.24287E-02-3.25344E-04-1.23731E-13
 -1      2196 1.15949E-02-7.91382E-04-1.17580E-13
 -1      2197 1.09419E-02-9.50758E-04-1.10439E-13
 -1      2198 1.05945E-02-8.41734E-04-1.06689E-13
 -1      2199 9.82996E-03-4.15816E-04-1.00186E-13
 -1      2200 9.07271E-03-6.77055E-05-9.54953E-14
 -1      2201 8.79217E-03 4.12707E-05-9.40699E-14
 -1      2202 9.18215E-03 1.78287E-04-9.53607E-14
 -1      2203 9.55155E-03 3.41321E-04-9.69822E-14
 -1      2204 9.94246E-03 5.48350E-04-9.90309E-14
 -1      2205 1.03306E-02 7.76518E-04-1.01753E-13
 -1      2206 1.06849E-02 9.63522E-04-1.04846E-13
 -1      2207 1.13373E-02 1.01729E-03-1.12149E-13
 -1      2208 1.10178E-02 1.05519E-03-1.08470E-13
 -1      2209 8.83712E-03 5.72500E-06-9.43309E-14
 -1      2210 1.02485E-02-6.56815E-04-1.03474E-13
 -1      2211 1.20092E-02-5.59138E-04-1.20953E-13
 -1      2212 1.01651E-03 3.99880E-04-9.52160E-16
 -1      2213 8.72057E-04 3.63494E-04-6.95760E-16
 -1      2214 5.47836E-04-5.53307E-05-6.08021E-16
 -1      2215 5.48866E-04-7.20543E-05-6.06557E-16
 -1      2216 5.50279E-04-8.93814E-05-6.03155E-16
 -1      2217 5.52142E-04-1.07362E-04-5.97816E-16
 -1      2218 6.65340E-04-9.55380E-05-8.19155E-16
 -1      2219 5.46464E-04 8.86258E-06-5.98967E-16
 -1      2220 5.46444E-04-6.98468E-06-6.03386E-16
 -1      2221 5.47214E-04 4.08927E-05-5.86011E-16
 -1      2222 5.46717E-04 2.48087E-05-5.93316E-16
 -1      2223 6.61416E-04 1.99423E-05-8.07419E-16
 -1      2224 5.49029E-04 7.35314E-05-5.67349E-16
 -1      2225 5.47972E-04 5.70309E-05-5.77676E-16
 -1      2226 6.62734E-04 5.78189E-05-7.89028E-16
 -1      2227 5.52403E-04 1.09018E-04-5.40868E-16
 -1      2228 5.50489E-04 9.09366E-05-5.55288E-16
 -1      2229 6.65579E-04 9.73062E-05-7.62546E-16
 -1      2230 5.58262E-04 1.48360E-04-5.03598E-16
 -1      2231 5.54955E-04 1.28132E-04-5.23900E-16
 -1      2232 6.70647E-04 1.40091E-04-7.25657E-16
 -1      2233 5.68568E-04 1.93960E-04-4.50906E-16
 -1      2234 5.62741E-04 1.70242E-04-4.79692E-16
 -1      2235 6.79270E-04 1.87642E-04-6.74279E-16
 -1      2236 1.30193E-03 4.56810E-04-1.59920E-15
 -1      2237 1.15963E-03 4.30877E-04-1.25301E-15
 -1      2238 1.07170E-03 3.81404E-04-1.16844E-15
 -1      2239 9.15122E-04-3.46456E-04-1.06156E-15
 -1      2240 1.05919E-03-3.79753E-04-1.39339E-15
 -1      2241 1.19609E-02 6.98090E-04-1.18982E-13
 -1      2242 1.21333E-02 5.94237E-04-1.20474E-13
 -1      2243 1.20246E-03-4.08141E-04-1.77249E-15
 -1      2244 1.34525E-03-4.32016E-04-2.19963E-15
 -1      2245 1.11689E-03-3.60510E-04-1.62363E-15
 -1      2246 1.48740E-03-4.52217E-04-2.67485E-15
 -1      2247 1.62916E-03-4.69030E-04-3.19754E-15
 -1      2248 1.40323E-03-4.07337E-04-2.48556E-15
 -1      2249 1.77057E-03-4.83125E-04-3.76729E-15
 -1      2250 1.91173E-03-4.94721E-04-4.38394E-15
 -1      2251 1.68833E-03-4.40518E-04-3.53534E-15
 -1      2252 2.05274E-03-5.04308E-04-5.04691E-15
 -1      2253 2.19364E-03-5.12059E-04-5.75616E-15
 -1      2254 1.97249E-03-4.63477E-04-4.77164E-15
 -1      2255 2.33452E-03-5.18333E-04-6.51065E-15
 -1      2256 2.47539E-03-5.23270E-04-7.31086E-15
 -1      2257 2.25611E-03-4.78838E-04-6.19037E-15
 -1      2258 2.61632E-03-5.27130E-04-8.15545E-15
 -1      2259 2.75730E-03-5.30024E-04-9.04475E-15
 -1      2260 2.53950E-03-4.88616E-04-7.78957E-15
 -1      2261 2.89839E-03-5.32140E-04-9.97818E-15
 -1      2262 3.03956E-03-5.33563E-04-1.09546E-14
 -1      2263 2.82290E-03-4.94338E-04-9.56598E-15
 -1      2264 3.18086E-03-5.34426E-04-1.19742E-14
 -1      2265 3.32226E-03-5.34792E-04-1.30358E-14
 -1      2266 3.10647E-03-4.97138E-04-1.15166E-14
 -1      2267 3.46380E-03-5.34753E-04-1.41392E-14
 -1      2268 3.60546E-03-5.34354E-04-1.52840E-14
 -1      2269 3.39030E-03-4.97841E-04-1.36363E-14
 -1      2270 3.74725E-03-5.33653E-04-1.64683E-14
 -1      2271 3.88915E-03-5.32682E-04-1.76933E-14
 -1      2272 3.67443E-03-4.97024E-04-1.59212E-14
 -1      2273 4.03119E-03-5.31473E-04-1.89579E-14
 -1      2274 4.17335E-03-5.30047E-04-2.02618E-14
 -1      2275 3.95888E-03-4.95073E-04-1.83664E-14
 -1      2276 4.31565E-03-5.28417E-04-2.16051E-14
 -1      2277 4.45807E-03-5.26597E-04-2.29858E-14
 -1      2278 4.24368E-03-4.92220E-04-2.09693E-14
 -1      2279 4.60063E-03-5.24584E-04-2.44045E-14
 -1      2280 4.74332E-03-5.22385E-04-2.58621E-14
 -1      2281 4.52885E-03-4.88584E-04-2.37269E-14
 -1      2282 4.88617E-03-5.19990E-04-2.73562E-14
 -1      2283 5.02917E-03-5.17401E-04-2.88861E-14
 -1      2284 4.81441E-03-4.84197E-04-2.66349E-14
 -1      2285 5.17233E-03-5.14603E-04-3.04531E-14
 -1      2286 5.31568E-03-5.11598E-04-3.20572E-14
 -1      2287 5.10040E-03-4.79032E-04-2.96915E-14
 -1      2288 5.45923E-03-5.08369E-04-3.36964E-14
 -1      2289 5.60300E-03-5.04922E-04-3.53715E-14
 -1      2290 5.38691E-03-4.73035E-04-3.28922E-14
 -1      2291 5.74700E-03-5.01244E-04-3.70816E-14
 -1      2292 5.89129E-03-4.97348E-04-3.88260E-14
 -1      2293 5.67403E-03-4.66151E-04-3.62361E-14
 -1      2294 6.03585E-03-4.93233E-04-4.06053E-14
 -1      2295 6.18077E-03-4.88926E-04-4.24205E-14
 -1      2296 5.96189E-03-4.58361E-04-3.97192E-14
 -1      2297 6.32603E-03-4.84446E-04-4.42702E-14
 -1      2298 6.47173E-03-4.79839E-04-4.61521E-14
 -1      2299 6.25066E-03-4.49730E-04-4.33418E-14
 -1      2300 6.61786E-03-4.75159E-04-4.80678E-14
 -1      2301 6.76453E-03-4.70479E-04-5.00153E-14
 -1      2302 6.54057E-03-4.40466E-04-4.70999E-14
 -1      2303 6.91172E-03-4.65906E-04-5.19943E-14
 -1      2304 7.05957E-03-4.61553E-04-5.40064E-14
 -1      2305 6.83189E-03-4.31000E-04-5.09894E-14
 -1      2306 7.20807E-03-4.57593E-04-5.60501E-14
 -1      2307 7.35737E-03-4.54199E-04-5.81222E-14
 -1      2308 7.12499E-03-4.22082E-04-5.50062E-14
 -1      2309 7.50748E-03-4.51635E-04-6.02244E-14
 -1      2310 7.65854E-03-4.50148E-04-6.23566E-14
 -1      2311 7.42034E-03-4.14912E-04-5.91455E-14
 -1      2312 7.81060E-03-4.50110E-04-6.45157E-14
 -1      2313 7.96379E-03-4.51871E-04-6.67021E-14
 -1      2314 7.71859E-03-4.11281E-04-6.33990E-14
 -1      2315 8.11823E-03-4.55912E-04-6.89178E-14
 -1      2316 8.27400E-03-4.62711E-04-7.11627E-14
 -1      2317 8.02062E-03-4.13725E-04-6.77658E-14
 -1      2318 8.43134E-03-4.72828E-04-7.34350E-14
 -1      2319 8.59019E-03-4.86882E-04-7.57337E-14
 -1      2320 8.32768E-03-4.25656E-04-7.22462E-14
 -1      2321 8.75095E-03-5.05434E-04-7.80605E-14
 -1      2322 8.91333E-03-5.29196E-04-8.04126E-14
 -1      2323 8.64137E-03-4.51397E-04-7.68359E-14
 -1      2324 9.07791E-03-5.58565E-04-8.27906E-14
 -1      2325 9.24397E-03-5.94185E-04-8.51966E-14
 -1      2326 8.96356E-03-4.95958E-04-8.15287E-14
 -1      2327 9.41221E-03-6.36034E-04-8.76277E-14
 -1      2328 9.58132E-03-6.84241E-04-9.00821E-14
 -1      2329 9.29569E-03-5.64276E-04-8.63271E-14
 -1      2330 9.75187E-03-7.38033E-04-9.25631E-14
 -1      2331 9.92202E-03-7.96208E-04-9.50689E-14
 -1      2332 9.63745E-03-6.59259E-04-9.12287E-14
 -1      2333 1.00919E-02-8.56903E-04-9.76008E-14
 -1      2334 1.02598E-02-9.17138E-04-1.00158E-13
 -1      2335 9.98475E-03-7.77487E-04-9.62301E-14
 -1      2336 1.04252E-02-9.73931E-04-1.02738E-13
 -1      2337 1.05879E-02-1.02242E-03-1.05343E-13
 -1      2338 1.03294E-02-9.04076E-04-1.01331E-13
 -1      2339 1.07468E-02-1.05957E-03-1.07973E-13
 -1      2340 1.09043E-02-1.08115E-03-1.10628E-13
 -1      2341 1.06627E-02-1.00910E-03-1.06533E-13
 -1      2342 1.10593E-02-1.08550E-03-1.13304E-13
 -1      2343 1.12158E-02-1.07203E-03-1.16002E-13
 -1      2344 1.09835E-02-1.05678E-03-1.11832E-13
 -1      2345 1.13728E-02-1.04159E-03-1.18719E-13
 -1      2346 1.15331E-02-9.97649E-04-1.21458E-13
 -1      2347 1.13022E-02-1.02718E-03-1.17219E-13
 -1      2348 1.16959E-02-9.43048E-04-1.24221E-13
 -1      2349 1.18615E-02-8.82598E-04-1.27001E-13
 -1      2350 1.16307E-02-9.31711E-04-1.22694E-13
 -1      2351 1.20293E-02-8.19406E-04-1.29796E-13
 -1      2352 1.21977E-02-7.57120E-04-1.32608E-13
 -1      2353 1.19713E-02-8.03779E-04-1.28247E-13
 -1      2354 1.23667E-02-6.97858E-04-1.35431E-13
 -1      2355 1.25344E-02-6.43228E-04-1.38271E-13
 -1      2356 1.23168E-02-6.76099E-04-1.33862E-13
 -1      2357 1.27013E-02-5.94189E-04-1.41122E-13
 -1      2358 1.28658E-02-5.50787E-04-1.43979E-13
 -1      2359 1.26581E-02-5.67597E-04-1.39534E-13
 -1      2360 1.30287E-02-5.13069E-04-1.46840E-13
 -1      2361 1.31891E-02-4.80369E-04-1.49707E-13
 -1      2362 1.29896E-02-4.83600E-04-1.45241E-13
 -1      2363 1.33475E-02-4.52168E-04-1.52577E-13
 -1      2364 1.35037E-02-4.27576E-04-1.55445E-13
 -1      2365 1.33103E-02-4.21458E-04-1.50964E-13
 -1      2366 1.36579E-02-4.05799E-04-1.58316E-13
 -1      2367 1.38102E-02-3.85947E-04-1.61186E-13
 -1      2368 1.36210E-02-3.75191E-04-1.56698E-13
 -1      2369 1.39607E-02-3.67158E-04-1.64055E-13
 -1      2370 1.41096E-02-3.48601E-04-1.66922E-13
 -1      2371 1.39234E-02-3.37888E-04-1.62429E-13
 -1      2372 1.86501E-03 5.25201E-04-3.43627E-15
 -1      2373 1.72481E-03 5.12497E-04-2.90944E-15
 -1      2374 2.14503E-03 5.44350E-04-4.62598E-15
 -1      2375 2.00507E-03 5.35759E-04-4.00870E-15
 -1      2376 1.92438E-03 4.94564E-04-3.83093E-15
 -1      2377 2.42502E-03 5.56935E-04-5.99362E-15
 -1      2378 2.28501E-03 5.51358E-04-5.28763E-15
 -1      2379 2.20644E-03 5.11678E-04-5.07636E-15
 -1      2380 2.70537E-03 5.64738E-04-7.53820E-15
 -1      2381 2.56515E-03 5.61354E-04-6.74376E-15
 -1      2382 2.48833E-03 5.22766E-04-6.49815E-15
 -1      2383 2.98628E-03 5.69084E-04-9.25869E-15
 -1      2384 2.84576E-03 5.67282E-04-8.37622E-15
 -1      2385 2.77039E-03 5.29470E-04-8.09564E-15
 -1      2386 3.26785E-03 5.70940E-04-1.11497E-14
 -1      2387 3.12699E-03 5.70278E-04-1.01835E-14
 -1      2388 3.05277E-03 5.33012E-04-9.86629E-15
 -1      2389 3.55011E-03 5.71000E-04-1.32106E-14
 -1      2390 3.40890E-03 5.71162E-04-1.21590E-14
 -1      2391 3.33559E-03 5.34281E-04-1.18072E-14
 -1      2392 3.83304E-03 5.69737E-04-1.54366E-14
 -1      2393 3.69149E-03 5.70511E-04-1.43030E-14
 -1      2394 3.61888E-03 5.33908E-04-1.39155E-14
 -1      2395 4.11663E-03 5.67454E-04-1.78261E-14
 -1      2396 3.97476E-03 5.68708E-04-1.66112E-14
 -1      2397 3.90266E-03 5.32317E-04-1.61883E-14
 -1      2398 4.40087E-03 5.64323E-04-2.03762E-14
 -1      2399 4.25867E-03 5.65986E-04-1.90816E-14
 -1      2400 4.18692E-03 5.29772E-04-1.86233E-14
 -1      2401 4.68577E-03 5.60416E-04-2.30824E-14
 -1      2402 4.54324E-03 5.62462E-04-2.17094E-14
 -1      2403 4.47170E-03 5.26413E-04-2.12165E-14
 -1      2404 4.97139E-03 5.55732E-04-2.59409E-14
 -1      2405 4.82849E-03 5.58169E-04-2.44933E-14
 -1      2406 4.75699E-03 5.22287E-04-2.39642E-14
 -1      2407 5.25781E-03 5.50228E-04-2.89504E-14
 -1      2408 5.11449E-03 5.53082E-04-2.74271E-14
 -1      2409 5.04287E-03 5.17378E-04-2.68646E-14
 -1      2410 5.54518E-03 5.43847E-04-3.21073E-14
 -1      2411 5.40136E-03 5.47146E-04-3.05099E-14
 -1      2412 5.32942E-03 5.11630E-04-2.99146E-14
 -1      2413 5.83371E-03 5.36549E-04-3.54063E-14
 -1      2414 5.68927E-03 5.40308E-04-3.37395E-14
 -1      2415 5.61676E-03 5.04981E-04-3.31097E-14
 -1      2416 6.12367E-03 5.28358E-04-3.88461E-14
 -1      2417 5.97848E-03 5.32555E-04-3.71093E-14
 -1      2418 5.90506E-03 4.97396E-04-3.64477E-14
 -1      2419 6.41541E-03 5.19414E-04-4.24161E-14
 -1      2420 6.26928E-03 5.23960E-04-4.06147E-14
 -1      2421 6.19455E-03 4.88910E-04-3.99223E-14
 -1      2422 6.70937E-03 5.10053E-04-4.61162E-14
 -1      2423 6.56207E-03 5.14751E-04-4.42507E-14
 -1      2424 6.48551E-03 4.79691E-04-4.35291E-14
 -1      2425 7.00607E-03 5.00908E-04-4.99405E-14
 -1      2426 6.85732E-03 5.05399E-04-4.80115E-14
 -1      2427 6.77828E-03 4.70117E-04-4.72620E-14
 -1      2428 7.30609E-03 4.93041E-04-5.38842E-14
 -1      2429 7.15560E-03 4.96730E-04-5.18971E-14
 -1      2430 7.07331E-03 4.60879E-04-5.11168E-14
 -1      2431 7.61010E-03 4.88114E-04-5.79506E-14
 -1      2432 7.45753E-03 4.90086E-04-5.59034E-14
 -1      2433 7.37108E-03 4.53120E-04-5.50955E-14
 -1      2434 7.91882E-03 4.88582E-04-6.21311E-14
 -1      2435 7.76381E-03 4.87498E-04-6.00261E-14
 -1      2436 7.67224E-03 4.48604E-04-5.91926E-14
 -1      2437 8.23302E-03 4.97879E-04-6.64199E-14
 -1      2438 8.07520E-03 4.91888E-04-6.42626E-14
 -1      2439 7.97758E-03 4.49905E-04-6.34028E-14
 -1      2440 8.55345E-03 5.20503E-04-7.08119E-14
 -1      2441 8.39246E-03 5.07219E-04-6.86038E-14
 -1      2442 8.28809E-03 4.60586E-04-6.77196E-14
 -1      2443 8.88071E-03 5.61826E-04-7.53040E-14
 -1      2444 8.71631E-03 5.38476E-04-7.30457E-14
 -1      2445 8.60505E-03 4.85290E-04-7.21406E-14
 -1      2446 9.21494E-03 6.27291E-04-7.98936E-14
 -1      2447 9.04717E-03 5.91220E-04-7.75860E-14
 -1      2448 8.92988E-03 5.29559E-04-7.66596E-14
 -1      2449 9.55513E-03 7.20520E-04-8.45810E-14
 -1      2450 9.38470E-03 6.70314E-04-8.22250E-14
 -1      2451 9.26375E-03 5.99061E-04-8.12743E-14
 -1      2452 9.89816E-03 8.39885E-04-8.93717E-14
 -1      2453 9.72691E-03 7.77363E-04-8.69620E-14
 -1      2454 9.60650E-03 6.97678E-04-8.59913E-14
 -1      2455 1.02383E-02 9.73863E-04-9.42717E-14
 -1      2456 1.00692E-02 9.06274E-04-9.18077E-14
 -1      2457 9.95481E-03 8.23426E-04-9.08117E-14
 -1      2458 1.05690E-02 1.09820E-03-9.92822E-14
 -1      2459 1.04051E-02 1.03938E-03-9.67637E-14
 -1      2460 1.03016E-02 9.62938E-04-9.57414E-14
 -1      2461 1.08872E-02 1.18021E-03-1.04404E-13
 -1      2462 1.07290E-02 1.14659E-03-1.01829E-13
 -1      2463 1.06381E-02 1.08742E-03-1.00780E-13
 -1      2464 1.11984E-02 1.19386E-03-1.09625E-13
 -1      2465 1.10424E-02 1.19645E-03-1.07003E-13
 -1      2466 1.09615E-02 1.15947E-03-1.05929E-13
 -1      2467 1.15132E-02 1.13615E-03-1.14938E-13
 -1      2468 1.13542E-02 1.17289E-03-1.12271E-13
 -1      2469 1.12800E-02 1.15338E-03-1.11176E-13
 -1      2470 1.18388E-02 1.02925E-03-1.20331E-13
 -1      2471 1.16744E-02 1.08673E-03-1.17626E-13
 -1      2472 1.16059E-02 1.07399E-03-1.16511E-13
 -1      2473 1.21740E-02 9.05571E-04-1.25785E-13
 -1      2474 1.20057E-02 9.67520E-04-1.23050E-13
 -1      2475 1.19443E-02 9.52745E-04-1.21922E-13
 -1      2476 1.25124E-02 7.91529E-04-1.31291E-13
 -1      2477 1.23436E-02 8.46245E-04-1.28533E-13
 -1      2478 1.22897E-02 8.25686E-04-1.27391E-13
 -1      2479 1.28477E-02 7.00413E-04-1.36831E-13
 -1      2480 1.26810E-02 7.42800E-04-1.34057E-13
 -1      2481 1.26333E-02 7.16628E-04-1.32908E-13
 -1      2482 1.31760E-02 6.34506E-04-1.42399E-13
 -1      2483 1.30130E-02 6.64485E-04-1.39612E-13
 -1      2484 1.29688E-02 6.34204E-04-1.38456E-13
 -1      2485 1.34959E-02 5.89614E-04-1.48004E-13
 -1      2486 1.33371E-02 6.09822E-04-1.45199E-13
 -1      2487 1.32941E-02 5.77075E-04-1.44036E-13
 -1      2488 1.38073E-02 5.58760E-04-1.53626E-13
 -1      2489 1.36527E-02 5.72878E-04-1.50812E-13
 -1      2490 1.36094E-02 5.39198E-04-1.49641E-13
 -1      2491 1.41109E-02 5.34325E-04-1.59277E-13
 -1      2492 1.39601E-02 5.46185E-04-1.56448E-13
 -1      2493 1.39161E-02 5.13041E-04-1.55275E-13
 -1      2494 1.44074E-02 5.09120E-04-1.64940E-13
 -1      2495 1.42600E-02 5.22230E-04-1.62106E-13
 -1      2496 1.42153E-02 4.91065E-04-1.60928E-13
 -1      2497 1.45574E-02 4.94752E-04-1.67865E-13
 -1      2498 1.47369E-02 2.26410E-04-1.68405E-13
 -1      2499 1.47084E-02 2.56010E-04-1.68140E-13
 -1      2500 1.47812E-02 1.71579E-04-1.68933E-13
 -1      2501 1.47614E-02 1.98401E-04-1.68669E-13
 -1      2502 1.46321E-02 2.14931E-04-1.66078E-13
 -1      2503 1.46095E-02 3.53234E-04-1.67351E-13
 -1      2504 1.45743E-02 3.89208E-04-1.67083E-13
 -1      2505 1.46772E-02 2.86877E-04-1.67876E-13
 -1      2506 1.46441E-02 3.19128E-04-1.67614E-13
 -1      2507 1.45044E-02 3.43756E-04-1.65025E-13
 -1      2508 1.45733E-02 2.76282E-04-1.65551E-13
 -1      2509 1.48038E-02 1.20998E-04-1.69460E-13
 -1      2510 1.47955E-02 1.45985E-04-1.69196E-13
 -1      2511 1.46732E-02 1.59056E-04-1.66603E-13
 -1      2512 1.48012E-02 7.21380E-05-1.69978E-13
 -1      2513 1.48058E-02 9.66297E-05-1.69721E-13
 -1      2514 1.46907E-02 1.07033E-04-1.67125E-13
 -1      2515 1.47731E-02 2.20880E-05-1.70485E-13
 -1      2516 1.47902E-02 4.75289E-05-1.70233E-13
 -1      2517 1.46814E-02 5.60306E-05-1.67638E-13
 -1      2518 1.47233E-02-3.08047E-05-1.70974E-13
 -1      2519 1.47507E-02-3.70507E-06-1.70730E-13
 -1      2520 1.46464E-02 3.42001E-06-1.68134E-13
 -1      2521 1.46555E-02-9.01185E-05-1.71461E-13
 -1      2522 1.46912E-02-5.96579E-05-1.71220E-13
 -1      2523 1.45894E-02-5.36908E-05-1.68622E-13
 -1      2524 1.45771E-02-1.55744E-04-1.71933E-13
 -1      2525 1.46172E-02-1.22125E-04-1.71699E-13
 -1      2526 1.45160E-02-1.17270E-04-1.69104E-13
 -1      2527 1.44950E-02-2.27577E-04-1.72390E-13
 -1      2528 1.45361E-02-1.90938E-04-1.72160E-13
 -1      2529 1.44338E-02-1.87162E-04-1.69569E-13
 -1      2530 1.33329E-02 7.50901E-05-1.29321E-13
 -1      2531 1.33650E-02 6.45922E-05-1.29269E-13
 -1      2532 1.27510E-02 2.74512E-04-1.25259E-13
 -1      2533 1.29242E-02 2.04679E-04-1.26493E-13
 -1      2534 1.58431E-03 4.97099E-04-2.42743E-15
 -1      2535 1.44340E-03 4.78797E-04-1.99042E-15
 -1      2536 1.64168E-03 4.69234E-04-2.76379E-15
 -1      2537 1.45032E-02-2.83819E-04-1.74345E-13
 -1      2538 1.33596E-02 5.24235E-05-1.29225E-13
 -1      2539 1.33198E-02 4.17095E-05-1.29177E-13
 -1      2540 1.33842E-02 5.95604E-05-1.31002E-13
 -1      2541 1.30987E-02 1.41883E-04-1.27640E-13
 -1      2542 1.32224E-02 1.07426E-04-1.28552E-13
 -1      2543 5.88470E-04-2.38037E-04-5.11228E-16
 -1      2544 7.81257E-04-3.04901E-04-8.10495E-16
 -1      2545 8.40718E-04-2.93675E-04-9.85702E-16
 -1      2546 5.78947E-04-2.10246E-04-5.39878E-16
 -1      2547 1.32267E-02 1.39266E-05-1.28754E-13
 -1      2548 1.31036E-02-2.02761E-05-1.28466E-13
 -1      2549 1.10108E-02-9.67218E-04-1.11337E-13
 -1      2550 1.08487E-02-9.40848E-04-1.09248E-13
 -1      2551 9.15117E-03-8.55472E-05-9.47009E-14
 -1      2552 8.98390E-03-3.23865E-05-9.37771E-14
 -1      2553 9.11826E-03 1.40778E-04-9.39139E-14
 -1      2554 9.27786E-03 2.01077E-04-9.47433E-14
 -1      2555 5.46657E-04-2.29142E-05-6.06123E-16
 -1      2556 5.47111E-04-3.89643E-05-6.07682E-16
 -1      2557 6.62586E-04-5.58459E-05-8.22801E-16
 -1      2558 6.61364E-04-1.77149E-05-8.18668E-16
 -1      2559 1.09456E-02 1.05531E-03-1.07317E-13
 -1      2560 1.10983E-02 1.06876E-03-1.09308E-13
 -1      2561 8.85438E-03 5.22795E-06-9.31392E-14
 -1      2562 8.79541E-03 1.82607E-05-9.29063E-14
 -1      2563 1.12645E-02 1.04585E-03-1.11415E-13
 -1      2564 1.13977E-02 1.00053E-03-1.13098E-13
 -1      2565 1.06143E-02 9.30194E-04-1.03546E-13
 -1      2566 1.07618E-02 1.00105E-03-1.05175E-13
 -1      2567 1.02433E-02 7.14000E-04-1.00198E-13
 -1      2568 1.04189E-02 8.23003E-04-1.01650E-13
 -1      2569 9.87191E-03 4.91866E-04-9.74924E-14
 -1      2570 1.00513E-02 5.99016E-04-9.87491E-14
 -1      2571 9.45261E-03 2.77325E-04-9.55194E-14
 -1      2572 9.63951E-03 3.67388E-04-9.63008E-14
 -1      2573 9.35885E-03 2.33252E-04-9.40667E-14
 -1      2574 8.87329E-03 6.45508E-05-9.25330E-14
 -1      2575 8.96006E-03 8.61015E-05-9.27722E-14
 -1      2576 1.03468E-02-7.07903E-04-1.03768E-13
 -1      2577 1.01786E-02-6.05559E-04-1.02221E-13
 -1      2578 8.77054E-03 3.30105E-05-9.25830E-14
 -1      2579 8.79937E-03 4.31517E-05-9.25582E-14
 -1      2580 8.80841E-03 4.97727E-05-9.10497E-14
 -1      2581 9.51075E-03-2.36876E-04-9.69292E-14
 -1      2582 9.35101E-03-1.65254E-04-9.59203E-14
 -1      2583 1.21119E-02-4.83023E-04-1.22872E-13
 -1      2584 1.19154E-02-6.01803E-04-1.21421E-13
 -1      2585 9.96130E-03-4.78308E-04-1.00356E-13
 -1      2586 9.73906E-03-3.52866E-04-9.86284E-14
 -1      2587 1.06762E-02-8.82020E-04-1.07191E-13
 -1      2588 1.05286E-02-8.07613E-04-1.05530E-13
 -1      2589 1.13213E-02-9.15948E-04-1.15350E-13
 -1      2590 1.11975E-02-9.53528E-04-1.13785E-13
 -1      2591 1.16754E-02-7.41361E-04-1.19200E-13
 -1      2592 1.14935E-02-8.43012E-04-1.17270E-13
 -1      2593 1.14204E-02-8.80914E-04-1.16957E-13
 -1      2594 1.24849E-02-2.78099E-04-1.25546E-13
 -1      2595 1.22972E-02-3.78615E-04-1.24207E-13
 -1      2596 1.22025E-02-4.35070E-04-1.24680E-13
 -1      2597 1.29175E-02-8.60273E-05-1.27819E-13
 -1      2598 1.27332E-02-1.60374E-04-1.26940E-13
 -1      2599 1.15900E-02 9.12660E-04-1.15318E-13
 -1      2600 1.17649E-02 8.11945E-04-1.17137E-13
 -1      2601 7.57826E-04 3.34284E-04-5.13275E-16
 -1      2602 6.11425E-04 2.84915E-04-3.37200E-16
 -1      2603 5.84709E-04 2.58147E-04-3.50577E-16
 -1      2604 8.13657E-04 3.22963E-04-6.74306E-16
 -1      2605 1.23469E-02 4.75339E-04-1.22136E-13
 -1      2606 1.25436E-02 3.72531E-04-1.23579E-13
 -1      2607 1.11743E-02 1.06752E-03-1.10247E-13
 -1      2608 6.70267E-04-1.38008E-04-8.05359E-16
 -1      2609 5.54621E-04-1.26264E-04-5.89901E-16
 -1      2610 5.57764E-04-1.46254E-04-5.78950E-16
 -1      2611 1.35769E-03 4.32791E-04-1.87650E-15
 -1      2612 5.72220E-04 2.27954E-04-3.93376E-16
 -1      2613 1.22498E-02 5.32304E-04-1.22166E-13
 -1      2614 1.32961E-02 3.29891E-05-1.30538E-13
 -1      2615 1.15050E-02 9.59706E-04-1.14575E-13
 -1      2616 1.18021E-02-6.73097E-04-1.21108E-13
 -1      2617 1.45124E-02 4.66923E-04-1.66683E-13
 -1      2618 1.26549E-02 3.23242E-04-1.25516E-13
 -1      2619 1.45225E-02 4.37640E-04-1.66583E-13
 -1      2620 1.32753E-02 1.02772E-04-1.31225E-13
 -1      2621 1.33066E-02 8.68444E-05-1.30274E-13
 -1      2622 1.33712E-02 7.85189E-05-1.32000E-13
 -1      2623 1.30224E-02 1.74326E-04-1.28353E-13
 -1      2624 1.07623E-02-9.19751E-04-1.08077E-13
 -1      2625 1.00617E-02-5.40167E-04-1.00643E-13
 -1      2626 6.89502E-04 2.51314E-04-5.75535E-16
 -1      2627 5.71825E-04-1.85272E-04-5.61969E-16
 -1      2628 1.26143E-02-2.19016E-04-1.27420E-13
 -1      2629 1.10953E-02-9.70260E-04-1.12580E-13
 -1      2630 8.76026E-03 2.66120E-05-9.13973E-14
 -1      2631 1.04390E-02-7.63701E-04-1.04262E-13
 -1      2632 9.74790E-03 4.25735E-04-9.60206E-14
 -1      2633 8.90315E-03-1.26109E-05-9.23518E-14
 -1      2634 1.01453E-02 6.58912E-04-9.86441E-14
 -1      2635 1.05078E-02 8.77983E-04-1.01972E-13
 -1      2636 9.02780E-03 1.08891E-04-9.21573E-14
 -1      2637 9.22137E-03-1.17793E-04-9.41919E-14
 -1      2638 1.30301E-02-4.70001E-05-1.29469E-13
 -1      2639 1.18662E-02 7.58869E-04-1.18650E-13
 -1      2640 1.08592E-02 1.03881E-03-1.05999E-13
 -1      2641 9.63287E-03-3.02641E-04-9.70926E-14
 -1      2642 1.43383E-02-3.20448E-04-1.71440E-13
 -1      2643 1.44347E-02-2.63847E-04-1.72080E-13
 -1      2644 1.43301E-02-2.60528E-04-1.69486E-13
 -1      2645 1.42086E-02-3.36628E-04-1.68864E-13
 -1      2646 1.44146E-02 4.28493E-04-1.64262E-13
 -1      2647 1.41708E-02-3.09415E-04-1.67235E-13
 -1      2648 7.80283E-04 7.73761E-05-1.02293E-15
 -1      2649 7.79030E-04 5.55029E-05-1.03671E-15
 -1      2650 7.78189E-04 3.35786E-05-1.04811E-15
 -1      2651 7.77769E-04 1.19026E-05-1.05756E-15
 -1      2652 8.96619E-04 4.97055E-05-1.32029E-15
 -1      2653 7.91567E-04 1.73209E-04-9.37510E-16
 -1      2654 7.87579E-04 1.47788E-04-9.64235E-16
 -1      2655 8.03391E-04 2.28413E-04-8.70140E-16
 -1      2656 7.96788E-04 2.00019E-04-9.06651E-16
 -1      2657 9.14864E-04 2.07910E-04-1.17593E-15
 -1      2658 1.12974E-03 3.62043E-04-1.39651E-15
 -1      2659 9.86151E-04 3.32977E-04-1.07917E-15
 -1      2660 6.88560E-04-2.04091E-04-7.76587E-16
 -1      2661 1.33532E-02 4.09005E-05-1.32319E-13
 -1      2662 1.32682E-02 2.13244E-05-1.31897E-13
 -1      2663 8.03045E-04 2.78321E-04-7.63739E-16
 -1      2664 1.14312E-02 1.00511E-03-1.13804E-13
 -1      2665 1.15992E-02 9.23627E-04-1.16030E-13
 -1      2666 1.32007E-03-3.62883E-04-2.29692E-15
 -1      2667 1.46330E-03-3.81823E-04-2.77781E-15
 -1      2668 1.60634E-03-3.97874E-04-3.30495E-15
 -1      2669 1.74926E-03-4.11250E-04-3.87844E-15
 -1      2670 1.52494E-03-3.55482E-04-3.07656E-15
 -1      2671 1.89203E-03-4.22416E-04-4.49766E-15
 -1      2672 2.03468E-03-4.31556E-04-5.16265E-15
 -1      2673 1.81163E-03-3.81316E-04-4.22650E-15
 -1      2674 2.17722E-03-4.39041E-04-5.87270E-15
 -1      2675 2.31968E-03-4.45024E-04-6.62762E-15
 -1      2676 2.09809E-03-3.99065E-04-5.55781E-15
 -1      2677 2.46210E-03-4.49789E-04-7.42696E-15
 -1      2678 2.60446E-03-4.53456E-04-8.27033E-15
 -1      2679 2.38427E-03-4.10723E-04-7.06772E-15
 -1      2680 2.74681E-03-4.56239E-04-9.15798E-15
 -1      2681 2.88915E-03-4.58230E-04-1.00887E-14
 -1      2682 2.67022E-03-4.17886E-04-8.75337E-15
 -1      2683 3.03150E-03-4.59583E-04-1.10624E-14
 -1      2684 3.17386E-03-4.60369E-04-1.20788E-14
 -1      2685 2.95601E-03-4.21783E-04-1.06123E-14
 -1      2686 3.31625E-03-4.60696E-04-1.31370E-14
 -1      2687 3.45866E-03-4.60615E-04-1.42369E-14
 -1      2688 3.24171E-03-4.23327E-04-1.26415E-14
 -1      2689 3.60112E-03-4.60200E-04-1.53772E-14
 -1      2690 3.74360E-03-4.59484E-04-1.65580E-14
 -1      2691 3.52736E-03-4.23179E-04-1.48370E-14
 -1      2692 3.88614E-03-4.58514E-04-1.77786E-14
 -1      2693 4.02871E-03-4.57312E-04-1.90388E-14
 -1      2694 3.81300E-03-4.21790E-04-1.71946E-14
 -1      2695 4.17134E-03-4.55902E-04-2.03377E-14
 -1      2696 4.31401E-03-4.54296E-04-2.16759E-14
 -1      2697 4.09865E-03-4.19450E-04-1.97103E-14
 -1      2698 4.45674E-03-4.52502E-04-2.30524E-14
 -1      2699 4.59953E-03-4.50526E-04-2.44664E-14
 -1      2700 4.38435E-03-4.16321E-04-2.23810E-14
 -1      2701 4.74237E-03-4.48364E-04-2.59179E-14
 -1      2702 4.88528E-03-4.46016E-04-2.74066E-14
 -1      2703 4.67010E-03-4.12469E-04-2.52048E-14
 -1      2704 5.02825E-03-4.43472E-04-2.89322E-14
 -1      2705 5.17130E-03-4.40728E-04-3.04943E-14
 -1      2706 4.95593E-03-4.07891E-04-2.81766E-14
 -1      2707 5.31443E-03-4.37773E-04-3.20913E-14
 -1      2708 5.45765E-03-4.34603E-04-3.37250E-14
 -1      2709 5.24184E-03-4.02541E-04-3.12950E-14
 -1      2710 5.60095E-03-4.31207E-04-3.53940E-14
 -1      2711 5.74438E-03-4.27585E-04-3.70980E-14
 -1      2712 5.52787E-03-3.96356E-04-3.45563E-14
 -1      2713 5.88790E-03-4.23736E-04-3.88372E-14
 -1      2714 6.03158E-03-4.19665E-04-4.06102E-14
 -1      2715 5.81402E-03-3.89285E-04-3.79585E-14
 -1      2716 6.17538E-03-4.15389E-04-4.24182E-14
 -1      2717 6.31937E-03-4.10925E-04-4.42618E-14
 -1      2718 6.10034E-03-3.81329E-04-4.15003E-14
 -1      2719 6.46352E-03-4.06313E-04-4.61374E-14
 -1      2720 6.60790E-03-4.01593E-04-4.80456E-14
 -1      2721 6.38688E-03-3.72582E-04-4.51783E-14
 -1      2722 6.75249E-03-3.96842E-04-4.99884E-14
 -1      2723 6.89739E-03-3.92129E-04-5.19612E-14
 -1      2724 6.67372E-03-3.63291E-04-4.89899E-14
 -1      2725 7.04257E-03-3.87581E-04-5.39666E-14
 -1      2726 7.18814E-03-3.83314E-04-5.60029E-14
 -1      2727 6.96102E-03-3.53930E-04-5.29324E-14
 -1      2728 7.33411E-03-3.79517E-04-5.80686E-14
 -1      2729 7.48063E-03-3.76373E-04-6.01640E-14
 -1      2730 7.24905E-03-3.45290E-04-5.69965E-14
 -1      2731 7.62771E-03-3.74146E-04-6.22876E-14
 -1      2732 7.77556E-03-3.73114E-04-6.44387E-14
 -1      2733 7.53828E-03-3.38586E-04-6.11794E-14
 -1      2734 7.92426E-03-3.73619E-04-6.66179E-14
 -1      2735 8.07404E-03-3.76075E-04-6.88255E-14
 -1      2736 7.82952E-03-3.35588E-04-6.54753E-14
 -1      2737 8.22513E-03-3.80892E-04-7.10630E-14
 -1      2738 8.37774E-03-3.88677E-04-7.33268E-14
 -1      2739 8.12414E-03-3.38773E-04-6.98840E-14
 -1      2740 8.53230E-03-3.99864E-04-7.56169E-14
 -1      2741 8.68898E-03-4.15316E-04-7.79332E-14
 -1      2742 8.42428E-03-3.51508E-04-7.44030E-14
 -1      2743 8.84843E-03-4.35424E-04-8.02749E-14
 -1      2744 9.01059E-03-4.61300E-04-8.26415E-14
 -1      2745 8.73310E-03-3.78284E-04-7.90259E-14
 -1      2746 9.17635E-03-4.93164E-04-8.50361E-14
 -1      2747 9.34512E-03-5.32243E-04-8.74546E-14
 -1      2748 9.05453E-03-4.24873E-04-8.37511E-14
 -1      2749 9.51786E-03-5.78387E-04-8.99004E-14
 -1      2750 9.69288E-03-6.32175E-04-9.23704E-14
 -1      2751 9.39239E-03-4.98153E-04-8.85789E-14
 -1      2752 9.87086E-03-6.92665E-04-9.48653E-14
 -1      2753 1.00490E-02-7.58135E-04-9.73867E-14
 -1      2754 9.74755E-03-6.04282E-04-9.35088E-14
 -1      2755 1.02269E-02-8.26485E-04-9.99309E-14
 -1      2756 1.04021E-02-8.92593E-04-1.02501E-13
 -1      2757 1.01134E-02-7.40312E-04-9.85364E-14
 -1      2758 1.05735E-02-9.52746E-04-1.05099E-13
 -1      2759 1.07413E-02-9.98685E-04-1.07720E-13
 -1      2760 1.04753E-02-8.85676E-04-1.03668E-13
 -1      2761 1.09040E-02-1.02706E-03-1.10365E-13
 -1      2762 1.10667E-02-1.03279E-03-1.13035E-13
 -1      2763 1.08203E-02-9.90934E-04-1.08903E-13
 -1      2764 1.12279E-02-1.01516E-03-1.15727E-13
 -1      2765 1.13934E-02-9.77585E-04-1.18437E-13
 -1      2766 1.11530E-02-1.00421E-03-1.14234E-13
 -1      2767 1.15618E-02-9.22443E-04-1.21170E-13
 -1      2768 1.17348E-02-8.58019E-04-1.23929E-13
 -1      2769 1.14928E-02-9.17559E-04-1.19654E-13
 -1      2770 1.19112E-02-7.87867E-04-1.26701E-13
 -1      2771 1.20887E-02-7.18408E-04-1.29491E-13
 -1      2772 1.18505E-02-7.74515E-04-1.25157E-13
 -1      2773 1.22668E-02-6.52138E-04-1.32297E-13
 -1      2774 1.24425E-02-5.91738E-04-1.35116E-13
 -1      2775 1.22169E-02-6.27692E-04-1.30733E-13
 -1      2776 1.26163E-02-5.38372E-04-1.37950E-13
 -1      2777 1.27861E-02-4.91672E-04-1.40793E-13
 -1      2778 1.25759E-02-5.06818E-04-1.36370E-13
 -1      2779 1.29529E-02-4.51878E-04-1.43643E-13
 -1      2780 1.31158E-02-4.17817E-04-1.46498E-13
 -1      2781 1.29184E-02-4.17784E-04-1.42047E-13
 -1      2782 1.32757E-02-3.89179E-04-1.49355E-13
 -1      2783 1.34324E-02-3.64625E-04-1.52217E-13
 -1      2784 1.32436E-02-3.55060E-04-1.47749E-13
 -1      2785 1.35866E-02-3.43595E-04-1.55081E-13
 -1      2786 1.37384E-02-3.24941E-04-1.57943E-13
 -1      2787 1.35547E-02-3.10788E-04-1.53464E-13
 -1      2788 1.38884E-02-3.07978E-04-1.60805E-13
 -1      2789 1.40365E-02-2.91763E-04-1.63667E-13
 -1      2790 1.38554E-02-2.77273E-04-1.59182E-13
 -1      2791 2.26900E-03 4.78363E-04-5.53359E-15
 -1      2792 2.12720E-03 4.71599E-04-4.86154E-15
 -1      2793 1.43248E-02 3.88383E-04-1.61928E-13
 -1      2794 1.42692E-02 4.38621E-04-1.61429E-13
 -1      2795 1.41224E-02 4.47923E-04-1.58599E-13
 -1      2796 1.98529E-03 4.63194E-04-4.23355E-15
 -1      2797 1.84326E-03 4.52989E-04-3.64936E-15
 -1      2798 2.04753E-03 4.31237E-04-4.64394E-15
 -1      2799 2.83603E-03 4.93738E-04-8.65906E-15
 -1      2800 2.69426E-03 4.91323E-04-7.81252E-15
 -1      2801 3.11970E-03 4.96559E-04-1.04796E-14
 -1      2802 2.97785E-03 4.95458E-04-9.54807E-15
 -1      2803 2.90229E-03 4.57636E-04-9.22806E-15
 -1      2804 3.40362E-03 4.97316E-04-1.24693E-14
 -1      2805 3.26163E-03 4.97159E-04-1.14535E-14
 -1      2806 3.18709E-03 4.59802E-04-1.10981E-14
 -1      2807 3.68783E-03 4.96576E-04-1.46251E-14
 -1      2808 3.54569E-03 4.97108E-04-1.35267E-14
 -1      2809 3.47197E-03 4.60108E-04-1.31362E-14
 -1      2810 3.97235E-03 4.94716E-04-1.69445E-14
 -1      2811 3.83005E-03 4.95770E-04-1.57648E-14
 -1      2812 3.75698E-03 4.59058E-04-1.53395E-14
 -1      2813 4.25721E-03 4.91960E-04-1.94239E-14
 -1      2814 4.11474E-03 4.93441E-04-1.81642E-14
 -1      2815 4.04215E-03 4.56980E-04-1.77046E-14
 -1      2816 4.54242E-03 4.88421E-04-2.20598E-14
 -1      2817 4.39977E-03 4.90285E-04-2.07224E-14
 -1      2818 4.32749E-03 4.54063E-04-2.02281E-14
 -1      2819 4.82801E-03 4.84125E-04-2.48503E-14
 -1      2820 4.68516E-03 4.86368E-04-2.34364E-14
 -1      2821 4.61304E-03 4.50392E-04-2.29075E-14
 -1      2822 5.11403E-03 4.79040E-04-2.77917E-14
 -1      2823 4.97096E-03 4.81683E-04-2.63021E-14
 -1      2824 4.89881E-03 4.45974E-04-2.57394E-14
 -1      2825 5.40055E-03 4.73104E-04-3.08815E-14
 -1      2826 5.25722E-03 4.76181E-04-2.93177E-14
 -1      2827 5.18484E-03 4.40768E-04-2.87214E-14
 -1      2828 5.68766E-03 4.66253E-04-3.41159E-14
 -1      2829 5.54402E-03 4.69794E-04-3.24809E-14
 -1      2830 5.47116E-03 4.34706E-04-3.18513E-14
 -1      2831 5.97550E-03 4.58459E-04-3.74916E-14
 -1      2832 5.83147E-03 4.62472E-04-3.57865E-14
 -1      2833 5.75785E-03 4.27727E-04-3.51250E-14
 -1      2834 6.26422E-03 4.49775E-04-4.10021E-14
 -1      2835 6.11972E-03 4.54220E-04-3.92306E-14
 -1      2836 6.04498E-03 4.19813E-04-3.85380E-14
 -1      2837 6.55403E-03 4.40394E-04-4.46427E-14
 -1      2838 6.40895E-03 4.45153E-04-4.28065E-14
 -1      2839 6.33263E-03 4.11033E-04-4.20847E-14
 -1      2840 6.84520E-03 4.30732E-04-4.84093E-14
 -1      2841 6.69941E-03 4.35563E-04-4.65107E-14
 -1      2842 6.62095E-03 4.01608E-04-4.57591E-14
 -1      2843 7.13807E-03 4.21529E-04-5.22973E-14
 -1      2844 6.99138E-03 4.26016E-04-5.03379E-14
 -1      2845 6.91011E-03 3.91983E-04-4.95584E-14
 -1      2846 7.43309E-03 4.13988E-04-5.63092E-14
 -1      2847 7.28526E-03 4.17461E-04-5.42879E-14
 -1      2848 7.20037E-03 3.82935E-04-5.34800E-14
 -1      2849 7.73090E-03 4.09932E-04-6.04367E-14
 -1      2850 7.58158E-03 4.11389E-04-5.83586E-14
 -1      2851 7.49216E-03 3.75691E-04-5.75236E-14
 -1      2852 8.03240E-03 4.11990E-04-6.46763E-14
 -1      2853 7.88110E-03 4.10000E-04-6.25425E-14
 -1      2854 7.78614E-03 3.72087E-04-6.16832E-14
 -1      2855 8.33895E-03 4.23779E-04-6.90225E-14
 -1      2856 8.18495E-03 4.16389E-04-6.68367E-14
 -1      2857 8.08343E-03 3.74738E-04-6.59522E-14
 -1      2858 8.65245E-03 4.50013E-04-7.34689E-14
 -1      2859 8.49474E-03 4.34713E-04-7.12331E-14
 -1      2860 8.38580E-03 3.87232E-04-7.03255E-14
 -1      2861 8.97533E-03 4.96421E-04-7.80152E-14
 -1      2862 8.81267E-03 4.70222E-04-7.57305E-14
 -1      2863 8.69592E-03 4.14319E-04-7.48006E-14
 -1      2864 9.30996E-03 5.69116E-04-8.26591E-14
 -1      2865 9.14128E-03 5.28991E-04-8.03256E-14
 -1      2866 9.01737E-03 4.62019E-04-7.93756E-14
 -1      2867 9.65705E-03 6.72725E-04-8.74042E-14
 -1      2868 9.48234E-03 6.16782E-04-8.50182E-14
 -1      2869 9.35383E-03 5.37321E-04-8.40468E-14
 -1      2870 1.00129E-02 8.05906E-04-9.22534E-14
 -1      2871 9.83469E-03 7.36300E-04-8.98143E-14
 -1      2872 9.70678E-03 6.46706E-04-8.88192E-14
 -1      2873 1.03686E-02 9.52397E-04-9.72116E-14
 -1      2874 1.01920E-02 8.79248E-04-9.47198E-14
 -1      2875 1.00722E-02 7.88555E-04-9.36976E-14
 -1      2876 1.07122E-02 1.07929E-03-1.02279E-13
 -1      2877 1.05425E-02 1.02218E-03-9.97327E-14
 -1      2878 1.04372E-02 9.45873E-04-9.86829E-14
 -1      2879 1.10403E-02 1.13954E-03-1.07456E-13
 -1      2880 1.08767E-02 1.12030E-03-1.04856E-13
 -1      2881 1.07871E-02 1.07371E-03-1.03779E-13
 -1      2882 1.13662E-02 1.10937E-03-1.12727E-13
 -1      2883 1.12015E-02 1.13561E-03-1.10079E-13
 -1      2884 1.11215E-02 1.11694E-03-1.08983E-13
 -1      2885 1.17045E-02 1.00470E-03-1.18086E-13
 -1      2886 1.15328E-02 1.06324E-03-1.15396E-13
 -1      2887 1.14590E-02 1.05628E-03-1.14280E-13
 -1      2888 1.20566E-02 8.69584E-04-1.23513E-13
 -1      2889 1.18797E-02 9.37828E-04-1.20792E-13
 -1      2890 1.18135E-02 9.25549E-04-1.19660E-13
 -1      2891 1.24114E-02 7.42056E-04-1.28999E-13
 -1      2892 1.22348E-02 8.03110E-04-1.26251E-13
 -1      2893 1.21793E-02 7.80390E-04-1.25108E-13
 -1      2894 1.27582E-02 6.41048E-04-1.34523E-13
 -1      2895 1.25866E-02 6.87922E-04-1.31756E-13
 -1      2896 1.25408E-02 6.57188E-04-1.30605E-13
 -1      2897 1.30922E-02 5.69248E-04-1.40082E-13
 -1      2898 1.29271E-02 6.01840E-04-1.37301E-13
 -1      2899 1.28876E-02 5.67239E-04-1.36141E-13
 -1      2900 1.34131E-02 5.21705E-04-1.45670E-13
 -1      2901 1.32543E-02 5.42979E-04-1.42870E-13
 -1      2902 1.32173E-02 5.07234E-04-1.41709E-13
 -1      2903 1.37233E-02 4.90955E-04-1.51283E-13
 -1      2904 1.35695E-02 5.04759E-04-1.48473E-13
 -1      2905 1.35326E-02 4.69340E-04-1.47303E-13
 -1      2906 1.39995E-02 4.63241E-04-1.56347E-13
 -1      2907 1.38495E-02 4.73332E-04-1.53526E-13
 -1      2908 1.38120E-02 4.38951E-04-1.52351E-13
 -1      2909 1.40590E-02 4.09301E-04-1.56844E-13
 -1      2910 1.25611E-02 3.82100E-04-1.25864E-13
 -1      2911 1.27496E-02 2.97278E-04-1.27552E-13
 -1      2912 1.45776E-02 9.19327E-05-1.64791E-13
 -1      2913 1.45752E-02 1.18246E-04-1.64534E-13
 -1      2914 1.41350E-02-2.81699E-04-1.65609E-13
 -1      2915 1.42328E-02-2.71338E-04-1.67548E-13
 -1      2916 1.41009E-02-2.53342E-04-1.63981E-13
 -1      2917 1.45280E-02 2.01363E-04-1.63752E-13
 -1      2918 1.45010E-02 2.31749E-04-1.63489E-13
 -1      2919 1.45609E-02 3.92307E-05-1.65296E-13
 -1      2920 1.45728E-02 6.58723E-05-1.65046E-13
 -1      2921 1.44642E-02 7.63496E-05-1.62458E-13
 -1      2922 1.45658E-02 1.44879E-04-1.64274E-13
 -1      2923 1.45499E-02 1.72579E-04-1.64012E-13
 -1      2924 1.44248E-02 1.86395E-04-1.61426E-13
 -1      2925 1.44589E-02 1.29795E-04-1.61946E-13
 -1      2926 1.22991E-02-3.92738E-04-1.26442E-13
 -1      2927 1.21366E-02-4.85973E-04-1.25098E-13
 -1      2928 1.45184E-02-1.56301E-05-1.65783E-13
 -1      2929 1.45426E-02 1.24293E-05-1.65542E-13
 -1      2930 1.44396E-02 2.25934E-05-1.62954E-13
 -1      2931 1.44537E-02-7.69219E-05-1.66271E-13
 -1      2932 1.44883E-02-4.54414E-05-1.66028E-13
 -1      2933 1.43881E-02-3.55317E-05-1.63439E-13
 -1      2934 1.43745E-02-1.44752E-04-1.66744E-13
 -1      2935 1.44154E-02-1.09988E-04-1.66507E-13
 -1      2936 1.43156E-02-1.00741E-04-1.63916E-13
 -1      2937 1.29718E-02 2.06718E-04-1.29414E-13
 -1      2938 1.31267E-02 1.53253E-04-1.30568E-13
 -1      2939 1.34099E-02 6.26472E-05-1.32620E-13
 -1      2940 1.34009E-02 5.59538E-05-1.32579E-13
 -1      2941 1.08325E-02-9.51990E-04-1.08957E-13
 -1      2942 1.06845E-02-8.98993E-04-1.06901E-13
 -1      2943 8.33566E-04-2.64010E-04-1.02434E-15
 -1      2944 9.65129E-04-2.98949E-04-1.30953E-15
 -1      2945 1.10816E-03-3.26742E-04-1.67448E-15
 -1      2946 8.14019E-04-2.12371E-04-1.05459E-15
 -1      2947 1.01538E-02-6.08666E-04-1.00807E-13
 -1      2948 9.96142E-03-4.94820E-04-9.89557E-14
 -1      2949 9.26043E-03 1.98178E-04-9.23232E-14
 -1      2950 9.41516E-03 2.64842E-04-9.30882E-14
 -1      2951 9.28357E-03-1.58483E-04-9.32955E-14
 -1      2952 9.10775E-03-9.14249E-05-9.20944E-14
 -1      2953 1.70106E-03 4.40565E-04-3.10980E-15
 -1      2954 1.55862E-03 4.25720E-04-2.61465E-15
 -1      2955 1.76204E-03 4.11227E-04-3.46489E-15
 -1      2956 2.55251E-03 4.88045E-04-7.00949E-15
 -1      2957 2.41077E-03 4.83802E-04-6.25003E-15
 -1      2958 2.33263E-03 4.44533E-04-5.99870E-15
 -1      2959 2.61751E-03 4.52882E-04-7.52741E-15
 -1      2960 1.41596E-03 4.07918E-04-2.16389E-15
 -1      2961 1.27292E-03 3.86901E-04-1.75770E-15
 -1      2962 1.18961E-03 3.41586E-04-1.63561E-15
 -1      2963 1.47604E-03 3.82261E-04-2.46152E-15
 -1      2964 1.00455E-02 6.10517E-04-9.69701E-14
 -1      2965 1.02131E-02 7.14505E-04-9.84043E-14
 -1      2966 1.27499E-02-1.69292E-04-1.29726E-13
 -1      2967 1.25300E-02-2.73468E-04-1.28323E-13
 -1      2968 7.84449E-04 1.23524E-04-9.87017E-16
 -1      2969 7.82076E-04 1.00077E-04-1.00657E-15
 -1      2970 8.99711E-04 9.94995E-05-1.28662E-15
 -1      2971 9.05416E-04 1.51661E-04-1.23957E-15
 -1      2972 1.04956E-02-8.07119E-04-1.04562E-13
 -1      2973 1.03384E-02-7.14320E-04-1.02809E-13
 -1      2974 1.19194E-02-6.15496E-04-1.23188E-13
 -1      2975 1.17099E-02-7.41248E-04-1.20954E-13
 -1      2976 8.93662E-03 9.20351E-05-9.00596E-14
 -1      2977 9.08628E-03 1.34273E-04-9.11894E-14
 -1      2978 9.13220E-03 1.67003E-04-9.02210E-14
 -1      2979 1.04109E-02 8.30887E-04-1.00394E-13
 -1      2980 1.05819E-02 9.29943E-04-1.02276E-13
 -1      2981 8.93732E-03-2.95372E-05-9.13331E-14
 -1      2982 8.82270E-03 9.77753E-07-9.07049E-14
 -1      2983 1.31410E-02-1.75496E-05-1.31484E-13
 -1      2984 1.29781E-02-7.33783E-05-1.30835E-13
 -1      2985 7.81810E-04-9.80232E-05-1.07042E-15
 -1      2986 7.84108E-04-1.21386E-04-1.06524E-15
 -1      2987 8.75119E-03 4.15701E-05-8.95500E-14
 -1      2988 8.80982E-03 5.59309E-05-8.95236E-14
 -1      2989 9.72737E-03-3.68330E-04-9.67995E-14
 -1      2990 9.52221E-03-2.65212E-04-9.51162E-14
 -1      2991 1.42952E-02-2.34521E-04-1.67857E-13
 -1      2992 9.61662E-03 3.63172E-04-9.42562E-14
 -1      2993 9.82092E-03 4.76989E-04-9.54325E-14
 -1      2994 9.49165E-03 3.19125E-04-9.25068E-14
 -1      2995 8.75361E-03 2.06846E-05-9.02621E-14
 -1      2996 8.73320E-03 2.87971E-05-8.99432E-14
 -1      2997 1.15145E-02-8.46381E-04-1.18665E-13
 -1      2998 1.13669E-02-9.15898E-04-1.16736E-13
 -1      2999 1.11567E-02-9.71470E-04-1.13712E-13
 -1      3000 1.09941E-02-9.78831E-04-1.11264E-13
 -1      3001 1.18012E-02 8.12785E-04-1.18462E-13
 -1      3002 1.19711E-02 7.09421E-04-1.20314E-13
 -1      3003 1.07629E-02 1.01561E-03-1.04378E-13
 -1      3004 1.09207E-02 1.06623E-03-1.06512E-13
 -1      3005 1.21887E-02 5.83216E-04-1.22516E-13
 -1      3006 1.23750E-02 4.76916E-04-1.24186E-13
 -1      3007 1.24974E-02 4.40468E-04-1.26215E-13
 -1      3008 1.11194E-02 1.08293E-03-1.09344E-13
 -1      3009 1.12617E-02 1.06124E-03-1.11451E-13
 -1      3010 7.87167E-04-1.45554E-04-1.05712E-15
 -1      3011 7.91046E-04-1.70751E-04-1.04532E-15
 -1      3012 9.04962E-04-1.49155E-04-1.34418E-15
 -1      3013 8.95599E-04 1.00937E-06-1.34291E-15
 -1      3014 7.77741E-04-9.72564E-06-1.06467E-15
 -1      3015 7.78101E-04-3.13855E-05-1.06950E-15
 -1      3016 9.89933E-03 5.42098E-04-9.51940E-14
 -1      3017 9.82143E-03-4.44813E-04-9.69549E-14
 -1      3018 1.34027E-02 4.68062E-05-1.33942E-13
 -1      3019 8.64823E-04 2.66643E-04-9.35585E-16
 -1      3020 1.02192E-02-6.66068E-04-1.01100E-13
 -1      3021 1.13629E-02 1.04225E-03-1.12889E-13
 -1      3022 1.43680E-02 2.48732E-04-1.60904E-13
 -1      3023 1.44702E-02 2.63393E-04-1.63227E-13
 -1      3024 1.44362E-02 2.96730E-04-1.62965E-13
 -1      3025 1.28896E-02 2.61021E-04-1.29763E-13
 -1      3026 1.21131E-02 6.49896E-04-1.22324E-13
 -1      3027 1.20302E-02-5.69491E-04-1.24942E-13
 -1      3028 1.24601E-02-3.29254E-04-1.28746E-13
 -1      3029 1.43625E-02 3.50852E-04-1.62189E-13
 -1      3030 1.06597E-02 9.82088E-04-1.02777E-13
 -1      3031 1.32406E-02 1.27155E-04-1.32296E-13
 -1      3032 1.33385E-02 1.12720E-04-1.34025E-13
 -1      3033 1.32123E-02 1.58055E-04-1.33362E-13
 -1      3034 1.43383E-02-1.96354E-04-1.67631E-13
 -1      3035 1.17143E-02 8.79280E-04-1.17679E-13
 -1      3036 9.82926E-04 2.75880E-04-1.21473E-15
 -1      3037 1.12580E-02-9.57308E-04-1.15401E-13
 -1      3038 1.16420E-02-7.96810E-04-1.20730E-13
 -1      3039 8.70997E-03 3.46298E-05-8.84238E-14
 -1      3040 1.32332E-02-1.51184E-06-1.33271E-13
 -1      3041 1.05788E-02-8.61753E-04-1.05428E-13
 -1      3042 1.16982E-03-3.07038E-04-1.90943E-15
 -1      3043 8.98663E-03-6.46662E-05-9.04469E-14
 -1      3044 8.84080E-03 7.51343E-05-8.85659E-14
 -1      3045 9.37187E-03-2.22431E-04-9.30016E-14
 -1      3046 1.09073E-02-9.75807E-04-1.10073E-13
 -1      3047 1.34177E-02 7.27732E-05-1.33577E-13
 -1      3048 1.02981E-02 7.82772E-04-9.87002E-14
 -1      3049 7.78876E-04-5.31824E-05-1.07203E-15
 -1      3050 7.80084E-04-7.53836E-05-1.07247E-15
 -1      3051 8.99429E-04-9.71526E-05-1.35577E-15
 -1      3052 8.96489E-04-4.75539E-05-1.35486E-15
 -1      3053 1.28975E-02-1.24728E-04-1.31747E-13
 -1      3054 8.76012E-03 8.05728E-06-8.92533E-14
 -1      3055 1.10163E-02 1.08743E-03-1.07698E-13
 -1      3056 1.41691E-02-2.20519E-04-1.64510E-13
 -1      3057 1.43091E-02-1.74195E-04-1.66218E-13
 -1      3058 1.42082E-02-1.65523E-04-1.63626E-13
 -1      3059 1.40722E-02-2.28759E-04-1.62571E-13
 -1      3060 1.02950E-02-7.35995E-04-1.01594E-13
 -1      3061 1.01287E-02-6.44323E-04-9.96009E-14
 -1      3062 1.04029E-03 2.43359E-04-1.44020E-15
 -1      3063 1.03369E-03 2.11631E-04-1.48282E-15
 -1      3064 1.73169E-03-3.40494E-04-3.95837E-15
 -1      3065 1.87537E-03-3.50663E-04-4.57981E-15
 -1      3066 2.01903E-03-3.59104E-04-5.24590E-15
 -1      3067 2.16268E-03-3.65968E-04-5.95703E-15
 -1      3068 1.94025E-03-3.19326E-04-4.93824E-15
 -1      3069 2.30629E-03-3.71530E-04-6.71200E-15
 -1      3070 2.44984E-03-3.75913E-04-7.51053E-15
 -1      3071 2.22830E-03-3.32327E-04-6.35994E-15
 -1      3072 2.59334E-03-3.79337E-04-8.35287E-15
 -1      3073 2.73678E-03-3.81896E-04-9.23836E-15
 -1      3074 2.51630E-03-3.40668E-04-7.95666E-15
 -1      3075 2.88018E-03-3.83759E-04-1.01664E-14
 -1      3076 3.02351E-03-3.84997E-04-1.11372E-14
 -1      3077 2.80408E-03-3.45561E-04-9.72501E-15
 -1      3078 3.16680E-03-3.85734E-04-1.21501E-14
 -1      3079 3.31004E-03-3.86022E-04-1.32049E-14
 -1      3080 3.09159E-03-3.47945E-04-1.16631E-14
 -1      3081 3.45324E-03-3.85948E-04-1.43010E-14
 -1      3082 3.59640E-03-3.85547E-04-1.54372E-14
 -1      3083 3.37882E-03-3.48519E-04-1.37692E-14
 -1      3084 3.73952E-03-3.84878E-04-1.66142E-14
 -1      3085 3.88261E-03-3.83962E-04-1.78306E-14
 -1      3086 3.66577E-03-3.47779E-04-1.60381E-14
 -1      3087 4.02568E-03-3.82838E-04-1.90864E-14
 -1      3088 4.16871E-03-3.81514E-04-2.03810E-14
 -1      3089 3.95245E-03-3.46058E-04-1.84670E-14
 -1      3090 4.31171E-03-3.80011E-04-2.17142E-14
 -1      3091 4.45469E-03-3.78331E-04-2.30861E-14
 -1      3092 4.23887E-03-3.43557E-04-2.10517E-14
 -1      3093 4.59765E-03-3.76481E-04-2.44949E-14
 -1      3094 4.74058E-03-3.74458E-04-2.59411E-14
 -1      3095 4.52504E-03-3.40377E-04-2.37895E-14
 -1      3096 4.88348E-03-3.72260E-04-2.74254E-14
 -1      3097 5.02636E-03-3.69878E-04-2.89462E-14
 -1      3098 4.81095E-03-3.36543E-04-2.66776E-14
 -1      3099 5.16921E-03-3.67308E-04-3.05029E-14
 -1      3100 5.31204E-03-3.64540E-04-3.20955E-14
 -1      3101 5.09658E-03-3.32029E-04-2.97144E-14
 -1      3102 5.45482E-03-3.61567E-04-3.37229E-14
 -1      3103 5.59759E-03-3.58379E-04-3.53861E-14
 -1      3104 5.38188E-03-3.26778E-04-3.28937E-14
 -1      3105 5.74030E-03-3.54977E-04-3.70853E-14
 -1      3106 5.88299E-03-3.51353E-04-3.88186E-14
 -1      3107 5.66681E-03-3.20730E-04-3.62148E-14
 -1      3108 6.02561E-03-3.47516E-04-4.05862E-14
 -1      3109 6.16821E-03-3.43468E-04-4.23885E-14
 -1      3110 5.95128E-03-3.13846E-04-3.96767E-14
 -1      3111 6.31075E-03-3.39236E-04-4.42248E-14
 -1      3112 6.45326E-03-3.34831E-04-4.60944E-14
 -1      3113 6.23522E-03-3.06143E-04-4.32750E-14
 -1      3114 6.59570E-03-3.30308E-04-4.79979E-14
 -1      3115 6.73814E-03-3.25698E-04-4.99333E-14
 -1      3116 6.51855E-03-2.97732E-04-4.70093E-14
 -1      3117 6.88053E-03-3.21090E-04-5.19006E-14
 -1      3118 7.02295E-03-3.16544E-04-5.38992E-14
 -1      3119 6.80120E-03-2.88870E-04-5.08740E-14
 -1      3120 7.16536E-03-3.12193E-04-5.59285E-14
 -1      3121 7.30790E-03-3.08141E-04-5.79877E-14
 -1      3122 7.08322E-03-2.80012E-04-5.48647E-14
 -1      3123 7.45055E-03-3.04570E-04-6.00752E-14
 -1      3124 7.59348E-03-3.01654E-04-6.21924E-14
 -1      3125 7.36477E-03-2.71884E-04-5.89759E-14
 -1      3126 7.73675E-03-2.99625E-04-6.43383E-14
 -1      3127 7.88061E-03-2.98763E-04-6.65103E-14
 -1      3128 7.64633E-03-2.65556E-04-6.32032E-14
 -1      3129 8.02519E-03-2.99340E-04-6.87102E-14
 -1      3130 8.17087E-03-3.01812E-04-7.09386E-14
 -1      3131 7.92888E-03-2.62552E-04-6.75427E-14
 -1      3132 8.31795E-03-3.06468E-04-7.31934E-14
 -1      3133 8.46691E-03-3.14054E-04-7.54751E-14
 -1      3134 8.21424E-03-2.65010E-04-7.19898E-14
 -1      3135 8.61830E-03-3.24841E-04-7.77826E-14
 -1      3136 8.77268E-03-3.40053E-04-8.01147E-14
 -1      3137 8.50549E-03-2.75998E-04-7.65441E-14
 -1      3138 8.93095E-03-3.59913E-04-8.24736E-14
 -1      3139 9.09345E-03-3.86219E-04-8.48570E-14
 -1      3140 8.80753E-03-3.00187E-04-8.12021E-14
 -1      3141 9.26145E-03-4.19075E-04-8.72663E-14
 -1      3142 9.43455E-03-4.61031E-04-8.97006E-14
 -1      3143 9.12704E-03-3.44855E-04-8.59600E-14
 -1      3144 9.61447E-03-5.11857E-04-9.21568E-14
 -1      3145 9.79855E-03-5.73911E-04-9.46406E-14
 -1      3146 9.47153E-03-4.21033E-04-9.08150E-14
 -1      3147 1.00630E-02-6.88376E-04-9.80444E-14
 -1      3148 1.02504E-02-7.66475E-04-1.00588E-13
 -1      3149 1.07019E-02-9.40669E-04-1.07026E-13
 -1      3150 1.08766E-02-9.82875E-04-1.09661E-13
 -1      3151 1.10220E-02-9.99816E-04-1.11975E-13
 -1      3152 1.11929E-02-9.85258E-04-1.14654E-13
 -1      3153 1.13868E-02-9.33356E-04-1.17689E-13
 -1      3154 1.15666E-02-8.66232E-04-1.20414E-13
 -1      3155 1.17840E-02-7.69961E-04-1.23640E-13
 -1      3156 1.19725E-02-6.88228E-04-1.26409E-13
 -1      3157 1.21627E-02-6.10241E-04-1.29196E-13
 -1      3158 1.23487E-02-5.40701E-04-1.31998E-13
 -1      3159 1.21097E-02-5.94835E-04-1.27661E-13
 -1      3160 1.25316E-02-4.81170E-04-1.34814E-13
 -1      3161 1.27083E-02-4.30576E-04-1.37642E-13
 -1      3162 1.24896E-02-4.54158E-04-1.33262E-13
 -1      3163 1.28802E-02-3.89090E-04-1.40477E-13
 -1      3164 1.30462E-02-3.54350E-04-1.43320E-13
 -1      3165 1.28447E-02-3.58076E-04-1.38910E-13
 -1      3166 1.32076E-02-3.26092E-04-1.46168E-13
 -1      3167 1.33648E-02-3.02519E-04-1.49020E-13
 -1      3168 1.31745E-02-2.95270E-04-1.44590E-13
 -1      3169 1.35187E-02-2.83039E-04-1.51874E-13
 -1      3170 1.36696E-02-2.66189E-04-1.54729E-13
 -1      3171 1.34849E-02-2.53932E-04-1.50287E-13
 -1      3172 1.37987E-02-2.53733E-04-1.57223E-13
 -1      3173 1.39458E-02-2.39888E-04-1.60079E-13
 -1      3174 1.40159E-02-2.06350E-04-1.60609E-13
 -1      3175 1.37633E-02-2.26833E-04-1.55627E-13
 -1      3176 2.11104E-03 3.98650E-04-5.06241E-15
 -1      3177 1.96782E-03 3.90788E-04-4.42367E-15
 -1      3178 3.25495E-03 4.22746E-04-1.17224E-14
 -1      3179 3.11208E-03 4.22202E-04-1.07417E-14
 -1      3180 2.96919E-03 4.21159E-04-9.80238E-15
 -1      3181 2.82628E-03 4.19558E-04-8.90607E-15
 -1      3182 3.03669E-03 3.84385E-04-1.03834E-14
 -1      3183 3.82635E-03 4.21372E-04-1.60585E-14
 -1      3184 3.68351E-03 4.22156E-04-1.49126E-14
 -1      3185 4.11205E-03 4.19134E-04-1.84682E-14
 -1      3186 3.96920E-03 4.20360E-04-1.72432E-14
 -1      3187 3.89594E-03 3.83574E-04-1.67817E-14
 -1      3188 4.39778E-03 4.16113E-04-2.10359E-14
 -1      3189 4.25492E-03 4.17717E-04-1.97331E-14
 -1      3190 4.18207E-03 3.81232E-04-1.92367E-14
 -1      3191 4.68355E-03 4.12367E-04-2.37581E-14
 -1      3192 4.54066E-03 4.14330E-04-2.23779E-14
 -1      3193 4.46807E-03 3.78160E-04-2.18485E-14
 -1      3194 4.96938E-03 4.07891E-04-2.66318E-14
 -1      3195 4.82646E-03 4.10223E-04-2.51760E-14
 -1      3196 4.75396E-03 3.74397E-04-2.46124E-14
 -1      3197 5.25528E-03 4.02632E-04-2.96545E-14
 -1      3198 5.11232E-03 4.05363E-04-2.81244E-14
 -1      3199 5.03973E-03 3.69925E-04-2.75273E-14
 -1      3200 5.54126E-03 3.96523E-04-3.28255E-14
 -1      3201 5.39826E-03 3.99688E-04-3.12222E-14
 -1      3202 5.32537E-03 3.64686E-04-3.05923E-14
 -1      3203 5.82734E-03 3.89509E-04-3.61375E-14
 -1      3204 5.68428E-03 3.93132E-04-3.44635E-14
 -1      3205 5.61084E-03 3.58615E-04-3.38029E-14
 -1      3206 6.11352E-03 3.81583E-04-3.95873E-14
 -1      3207 5.97040E-03 3.85659E-04-3.78455E-14
 -1      3208 5.89611E-03 3.51664E-04-3.71530E-14
 -1      3209 6.39984E-03 3.72832E-04-4.31681E-14
 -1      3210 6.25665E-03 3.77303E-04-4.13616E-14
 -1      3211 6.18113E-03 3.43839E-04-4.06389E-14
 -1      3212 6.68634E-03 3.63497E-04-4.68777E-14
 -1      3213 6.54305E-03 3.68220E-04-4.50069E-14
 -1      3214 6.46585E-03 3.35244E-04-4.42550E-14
 -1      3215 6.97313E-03 3.54046E-04-5.07089E-14
 -1      3216 6.82967E-03 3.58752E-04-4.87778E-14
 -1      3217 6.75024E-03 3.26133E-04-4.79970E-14
 -1      3218 7.26038E-03 3.45264E-04-5.46660E-14
 -1      3219 7.11665E-03 3.49515E-04-5.26728E-14
 -1      3220 7.03431E-03 3.16980E-04-5.18643E-14
 -1      3221 7.54849E-03 3.38372E-04-5.87424E-14
 -1      3222 7.40427E-03 3.41493E-04-5.66895E-14
 -1      3223 7.31817E-03 3.08558E-04-5.58540E-14
 -1      3224 7.83819E-03 3.35157E-04-6.29309E-14
 -1      3225 7.69306E-03 3.36169E-04-6.08227E-14
 -1      3226 7.60219E-03 3.02033E-04-5.99626E-14
 -1      3227 8.13077E-03 3.38144E-04-6.72302E-14
 -1      3228 7.98399E-03 3.35670E-04-6.50671E-14
 -1      3229 7.88714E-03 2.99081E-04-6.41821E-14
 -1      3230 8.42847E-03 3.50805E-04-7.16323E-14
 -1      3231 8.27879E-03 3.42954E-04-6.94192E-14
 -1      3232 8.17450E-03 3.02046E-04-6.85102E-14
 -1      3233 8.73474E-03 3.77875E-04-7.61350E-14
 -1      3234 8.58029E-03 3.62074E-04-7.38709E-14
 -1      3235 8.46695E-03 3.14200E-04-7.29420E-14
 -1      3236 9.05444E-03 4.25742E-04-8.07353E-14
 -1      3237 8.89267E-03 3.98530E-04-7.84216E-14
 -1      3238 8.76882E-03 3.40223E-04-7.74715E-14
 -1      3239 9.39291E-03 5.02654E-04-8.54355E-14
 -1      3240 9.22130E-03 4.59707E-04-8.30734E-14
 -1      3241 9.08636E-03 3.87099E-04-8.20987E-14
 -1      3242 9.75358E-03 6.17452E-04-9.02360E-14
 -1      3243 9.57116E-03 5.54352E-04-8.78235E-14
 -1      3244 9.42712E-03 4.65001E-04-8.68264E-14
 -1      3245 1.01986E-02 7.74836E-04-9.64606E-14
 -1      3246 1.00052E-02 6.88043E-04-9.39828E-14
 -1      3247 1.03917E-02 8.67082E-04-9.89649E-14
 -1      3248 1.08932E-02 1.08234E-03-1.05628E-13
 -1      3249 1.07188E-02 1.03438E-03-1.03046E-13
 -1      3250 1.12474E-02 1.09092E-03-1.11082E-13
 -1      3251 1.10765E-02 1.10362E-03-1.08450E-13
 -1      3252 1.23128E-02 6.84346E-04-1.26702E-13
 -1      3253 1.21250E-02 7.55591E-04-1.23963E-13
 -1      3254 1.26778E-02 5.71203E-04-1.32209E-13
 -1      3255 1.24986E-02 6.23014E-04-1.29451E-13
 -1      3256 1.24601E-02 5.86579E-04-1.28295E-13
 -1      3257 1.30207E-02 4.95589E-04-1.37758E-13
 -1      3258 1.28524E-02 5.29512E-04-1.34980E-13
 -1      3259 1.28215E-02 4.88508E-04-1.33819E-13
 -1      3260 1.33435E-02 4.48485E-04-1.43332E-13
 -1      3261 1.31845E-02 4.69334E-04-1.40542E-13
 -1      3262 1.31558E-02 4.28865E-04-1.39374E-13
 -1      3263 1.36515E-02 4.20195E-04-1.48938E-13
 -1      3264 1.34991E-02 4.32649E-04-1.46130E-13
 -1      3265 1.34691E-02 3.94416E-04-1.44959E-13
 -1      3266 9.84556E-03-5.10981E-04-9.61834E-14
 -1      3267 9.64137E-03-4.05972E-04-9.40538E-14
 -1      3268 1.43508E-02 6.04364E-05-1.60122E-13
 -1      3269 1.43560E-02 8.73023E-05-1.59871E-13
 -1      3270 1.41750E-02-1.25551E-04-1.61563E-13
 -1      3271 1.42171E-02-8.97318E-05-1.61329E-13
 -1      3272 1.43172E-02 5.71126E-06-1.60608E-13
 -1      3273 1.43377E-02 3.37070E-05-1.60367E-13
 -1      3274 1.42369E-02 4.50420E-05-1.57784E-13
 -1      3275 1.20934E-02 7.03289E-04-1.22832E-13
 -1      3276 1.22858E-02 5.94639E-04-1.25045E-13
 -1      3277 1.34624E-02 5.10434E-05-1.35977E-13
 -1      3278 1.34137E-02 3.66990E-05-1.35719E-13
 -1      3279 1.05383E-02-8.66685E-04-1.04687E-13
 -1      3280 1.13987E-02 1.04650E-03-1.13434E-13
 -1      3281 1.33322E-02 1.15136E-05-1.35372E-13
 -1      3282 1.32218E-02-2.33999E-05-1.34960E-13
 -1      3283 1.82454E-03 3.81165E-04-3.82870E-15
 -1      3284 1.68118E-03 3.69608E-04-3.27723E-15
 -1      3285 1.88829E-03 3.50429E-04-4.20158E-15
 -1      3286 8.75191E-03 6.47281E-05-8.68329E-14
 -1      3287 8.86567E-03 9.72979E-05-8.73612E-14
 -1      3288 9.32152E-04-2.20496E-04-1.34640E-15
 -1      3289 1.15792E-02 9.83588E-04-1.16109E-13
 -1      3290 1.42557E-02-5.60103E-05-1.61093E-13
 -1      3291 1.42893E-02-2.41454E-05-1.60852E-13
 -1      3292 1.41923E-02-1.19792E-05-1.58268E-13
 -1      3293 1.41204E-02-7.74576E-05-1.58746E-13
 -1      3294 9.66186E-03 4.68662E-04-9.14481E-14
 -1      3295 9.85112E-03 5.79714E-04-9.29522E-14
 -1      3296 1.28268E-02 3.18540E-04-1.30390E-13
 -1      3297 1.30255E-02 2.38464E-04-1.32262E-13
 -1      3298 1.42586E-02 3.37011E-04-1.59870E-13
 -1      3299 3.54066E-03 4.22670E-04-1.38082E-14
 -1      3300 3.39782E-03 4.22888E-04-1.27449E-14
 -1      3301 3.32328E-03 3.85460E-04-1.23523E-14
 -1      3302 3.60969E-03 3.85063E-04-1.44857E-14
 -1      3303 1.25848E-02-2.93690E-04-1.30925E-13
 -1      3304 1.23758E-02-3.98203E-04-1.29033E-13
 -1      3305 8.66720E-03 2.67541E-05-8.70087E-14
 -1      3306 8.67522E-03 3.84329E-05-8.66214E-14
 -1      3307 9.03680E-03 1.56022E-04-8.82793E-14
 -1      3308 9.19457E-03 2.11364E-04-8.93972E-14
 -1      3309 1.44459E-03-3.13826E-04-2.85109E-15
 -1      3310 1.58810E-03-3.28279E-04-3.38205E-15
 -1      3311 1.65243E-03-3.00185E-04-3.69381E-15
 -1      3312 8.75325E-03-5.66273E-06-8.78830E-14
 -1      3313 8.69315E-03 1.24113E-05-8.74490E-14
 -1      3314 8.63323E-03 1.64085E-05-8.56545E-14
 -1      3315 1.30473E-02-8.78638E-05-1.34095E-13
 -1      3316 1.28480E-02-1.72301E-04-1.32981E-13
 -1      3317 1.14499E-03 3.10667E-04-1.58508E-15
 -1      3318 1.08236E-03 2.71729E-04-1.49709E-15
 -1      3319 1.20146E-03 2.73133E-04-1.84683E-15
 -1      3320 1.28815E-03 3.32630E-04-1.96968E-15
 -1      3321 9.43509E-03-2.87247E-04-9.24734E-14
 -1      3322 9.22514E-03-1.94025E-04-9.06766E-14
 -1      3323 1.08176E-03-2.54069E-04-1.72525E-15
 -1      3324 1.29264E-03-2.85274E-04-2.35508E-15
 -1      3325 1.35712E-03-2.61812E-04-2.61580E-15
 -1      3326 1.05676E-03-2.05830E-04-1.71265E-15
 -1      3327 1.17534E-02 8.93525E-04-1.18543E-13
 -1      3328 1.34373E-02 8.53140E-05-1.35275E-13
 -1      3329 1.34768E-02 7.03570E-05-1.35903E-13
 -1      3330 9.00186E-03-9.57863E-05-8.92331E-14
 -1      3331 8.85914E-03-4.14543E-05-8.84862E-14
 -1      3332 1.01671E-03 6.82375E-05-1.62298E-15
 -1      3333 1.01554E-03 4.12420E-05-1.63965E-15
 -1      3334 1.24721E-02 4.87577E-04-1.26872E-13
 -1      3335 1.26366E-02 4.06304E-04-1.28556E-13
 -1      3336 1.27975E-02 3.67862E-04-1.31049E-13
 -1      3337 1.24391E-02 5.52021E-04-1.27379E-13
 -1      3338 1.19459E-02 8.08791E-04-1.21254E-13
 -1      3339 1.01495E-03 1.44523E-05-1.65292E-15
 -1      3340 1.01491E-03-1.22425E-05-1.66332E-15
 -1      3341 1.13566E-03 3.01767E-05-1.99369E-15
 -1      3342 1.15314E-03 2.11895E-04-1.82611E-15
 -1      3343 1.02839E-03 1.81245E-04-1.51944E-15
 -1      3344 1.02424E-03 1.51905E-04-1.55166E-15
 -1      3345 1.42672E-02 2.32684E-04-1.58583E-13
 -1      3346 1.42324E-02 2.66638E-04-1.58321E-13
 -1      3347 9.11336E-03-2.06266E-04-8.81824E-14
 -1      3348 9.06381E-03-1.48458E-04-8.87102E-14
 -1      3349 8.91631E-03-1.17185E-04-8.67629E-14
 -1      3350 9.92529E-03-5.88215E-04-9.66570E-14
 -1      3351 1.03501E-02-7.85740E-04-1.02103E-13
 -1      3352 1.34198E-02 1.96266E-05-1.37413E-13
 -1      3353 1.17396E-02-7.74924E-04-1.22717E-13
 -1      3354 8.79573E-03 1.12857E-04-8.48311E-14
 -1      3355 8.91022E-03 1.29669E-04-8.65496E-14
 -1      3356 8.95163E-03 1.67526E-04-8.57361E-14
 -1      3357 1.27603E-02-2.33927E-04-1.33273E-13
 -1      3358 1.26838E-02-2.98079E-04-1.33564E-13
 -1      3359 1.29257E-02-1.89349E-04-1.35629E-13
 -1      3360 1.55627E-03 3.61550E-04-2.82055E-15
 -1      3361 1.41291E-03 3.45396E-04-2.35191E-15
 -1      3362 1.36911E-03 3.15173E-04-2.28569E-15
 -1      3363 1.61930E-03 3.33934E-04-3.14228E-15
 -1      3364 1.23988E-02-4.40346E-04-1.30836E-13
 -1      3365 1.22629E-02-4.81597E-04-1.28656E-13
 -1      3366 1.04780E-03-1.45843E-04-1.73707E-15
 -1      3367 1.05173E-03-1.75367E-04-1.72704E-15
 -1      3368 1.20035E-03-2.01264E-04-2.15802E-15
 -1      3369 2.74990E-03 3.81273E-04-8.58244E-15
 -1      3370 2.68332E-03 4.17263E-04-8.05152E-15
 -1      3371 2.54034E-03 4.14193E-04-7.23985E-15
 -1      3372 1.05588E-02 9.57930E-04-1.00960E-13
 -1      3373 1.34340E-02 1.05054E-04-1.36350E-13
 -1      3374 1.35186E-02 6.23874E-05-1.37684E-13
 -1      3375 9.47067E-03-3.61394E-04-9.17061E-14
 -1      3376 1.37773E-02 4.03812E-04-1.51177E-13
 -1      3377 1.37453E-02 3.67848E-04-1.50001E-13
 -1      3378 1.39011E-02 3.89256E-04-1.53417E-13
 -1      3379 1.43232E-02 1.70121E-04-1.59102E-13
 -1      3380 1.42980E-02 2.00518E-04-1.58843E-13
 -1      3381 1.41685E-02 2.15395E-04-1.56264E-13
 -1      3382 2.39729E-03 4.10161E-04-6.47088E-15
 -1      3383 2.25420E-03 4.05062E-04-5.74473E-15
 -1      3384 2.46289E-03 3.75335E-04-6.95016E-15
 -1      3385 1.43529E-02 1.13967E-04-1.59618E-13
 -1      3386 1.43418E-02 1.41570E-04-1.59359E-13
 -1      3387 1.42231E-02 1.53452E-04-1.56779E-13
 -1      3388 1.42476E-02 9.81800E-05-1.57288E-13
 -1      3389 1.31564E-02 2.02370E-04-1.33992E-13
 -1      3390 1.32754E-02 1.77155E-04-1.35727E-13
 -1      3391 1.31084E-02 2.53059E-04-1.34621E-13
 -1      3392 9.49806E-03 3.65413E-04-9.07673E-14
 -1      3393 9.46945E-03 4.24244E-04-8.85628E-14
 -1      3394 9.29405E-03 3.78412E-04-8.61701E-14
 -1      3395 9.32686E-03 2.82844E-04-8.96204E-14
 -1      3396 2.17566E-03 3.65510E-04-5.48959E-15
 -1      3397 1.04471E-03-1.17119E-04-1.74291E-15
 -1      3398 1.19188E-03-1.37501E-04-2.17823E-15
 -1      3399 1.04244E-03-8.90417E-05-1.74485E-15
 -1      3400 9.20560E-03 2.62229E-04-8.76791E-14
 -1      3401 8.66905E-03 5.17848E-05-8.54307E-14
 -1      3402 8.66827E-03 6.88171E-05-8.42427E-14
 -1      3403 8.59953E-03 4.26552E-05-8.40344E-14
 -1      3404 1.41873E-02 3.06245E-04-1.57968E-13
 -1      3405 1.41076E-02 3.64612E-04-1.57198E-13
 -1      3406 1.39868E-02 3.76976E-04-1.54948E-13
 -1      3407 1.40864E-02 2.89665E-04-1.55652E-13
 -1      3408 1.31794E-02-6.27211E-05-1.36203E-13
 -1      3409 1.02096E-03 1.23353E-04-1.57943E-15
 -1      3410 1.01850E-03 9.55703E-05-1.60309E-15
 -1      3411 1.13830E-03 8.86598E-05-1.95488E-15
 -1      3412 1.14387E-03 1.48832E-04-1.89977E-15
 -1      3413 8.75610E-03-2.94003E-05-8.66871E-14
 -1      3414 1.20630E-02-5.68696E-04-1.25874E-13
 -1      3415 1.18732E-02-6.84003E-04-1.23957E-13
 -1      3416 1.40625E-02-1.80310E-04-1.60823E-13
 -1      3417 1.41305E-02-1.49452E-04-1.61349E-13
 -1      3418 1.40320E-02-1.37729E-04-1.58764E-13
 -1      3419 1.39382E-02-1.89163E-04-1.58336E-13
 -1      3420 2.15056E-03-2.93286E-04-6.01233E-15
 -1      3421 2.29493E-03-2.98123E-04-6.76671E-15
 -1      3422 2.43929E-03-3.01989E-04-7.56440E-15
 -1      3423 2.58362E-03-3.04978E-04-8.40526E-15
 -1      3424 2.36244E-03-2.63403E-04-7.17739E-15
 -1      3425 2.72790E-03-3.07251E-04-9.28810E-15
 -1      3426 2.87210E-03-3.08880E-04-1.02134E-14
 -1      3427 2.65173E-03-2.68901E-04-8.85608E-15
 -1      3428 3.01623E-03-3.09990E-04-1.11814E-14
 -1      3429 3.16026E-03-3.10633E-04-1.21909E-14
 -1      3430 2.94078E-03-2.71917E-04-1.07039E-14
 -1      3431 3.30421E-03-3.10902E-04-1.32416E-14
 -1      3432 3.44806E-03-3.10831E-04-1.43339E-14
 -1      3433 3.22947E-03-2.73124E-04-1.27196E-14
 -1      3434 3.59182E-03-3.10489E-04-1.54668E-14
 -1      3435 3.73547E-03-3.09896E-04-1.66390E-14
 -1      3436 3.51772E-03-2.73021E-04-1.48997E-14
 -1      3437 3.87904E-03-3.09097E-04-1.78516E-14
 -1      3438 4.02251E-03-3.08101E-04-1.91032E-14
 -1      3439 3.80549E-03-2.71954E-04-1.72406E-14
 -1      3440 4.16588E-03-3.06939E-04-2.03930E-14
 -1      3441 4.30915E-03-3.05611E-04-2.17219E-14
 -1      3442 4.09276E-03-2.70148E-04-1.97395E-14
 -1      3443 4.45233E-03-3.04132E-04-2.30887E-14
 -1      3444 4.59540E-03-3.02498E-04-2.44929E-14
 -1      3445 4.37953E-03-2.67727E-04-2.23921E-14
 -1      3446 4.73837E-03-3.00715E-04-2.59341E-14
 -1      3447 4.88123E-03-2.98773E-04-2.74136E-14
 -1      3448 4.66577E-03-2.64744E-04-2.51958E-14
 -1      3449 5.02397E-03-2.96673E-04-2.89294E-14
 -1      3450 5.16659E-03-2.94400E-04-3.04811E-14
 -1      3451 4.95142E-03-2.61195E-04-2.81482E-14
 -1      3452 5.30907E-03-2.91956E-04-3.20683E-14
 -1      3453 5.45140E-03-2.89324E-04-3.36909E-14
 -1      3454 5.23640E-03-2.57041E-04-3.12468E-14
 -1      3455 5.59357E-03-2.86507E-04-3.53490E-14
 -1      3456 5.73558E-03-2.83487E-04-3.70432E-14
 -1      3457 5.52062E-03-2.52227E-04-3.44876E-14
 -1      3458 5.87737E-03-2.80275E-04-3.87711E-14
 -1      3459 6.01898E-03-2.76856E-04-4.05331E-14
 -1      3460 5.80392E-03-2.46700E-04-3.78692E-14
 -1      3461 6.16034E-03-2.73253E-04-4.23299E-14
 -1      3462 6.30147E-03-2.69454E-04-4.41611E-14
 -1      3463 6.08612E-03-2.40434E-04-4.13889E-14
 -1      3464 6.44231E-03-2.65502E-04-4.60256E-14
 -1      3465 6.58289E-03-2.61394E-04-4.79232E-14
 -1      3466 6.36701E-03-2.33454E-04-4.50458E-14
 -1      3467 6.72314E-03-2.57197E-04-4.98521E-14
 -1      3468 6.86311E-03-2.52920E-04-5.18128E-14
 -1      3469 6.64636E-03-2.25866E-04-4.88343E-14
 -1      3470 7.00273E-03-2.48661E-04-5.38054E-14
 -1      3471 7.14208E-03-2.44453E-04-5.58283E-14
 -1      3472 6.92396E-03-2.17891E-04-5.27504E-14
 -1      3473 7.28110E-03-2.40424E-04-5.78803E-14
 -1      3474 7.41992E-03-2.36642E-04-5.99618E-14
 -1      3475 7.19966E-03-2.09897E-04-5.67885E-14
 -1      3476 7.55850E-03-2.33267E-04-6.20725E-14
 -1      3477 7.69705E-03-2.30427E-04-6.42121E-14
 -1      3478 7.47348E-03-2.02428E-04-6.09454E-14
 -1      3479 7.83559E-03-2.28302E-04-6.63780E-14
 -1      3480 7.97447E-03-2.27126E-04-6.85707E-14
 -1      3481 7.74577E-03-1.96251E-04-6.52171E-14
 -1      3482 8.11377E-03-2.27083E-04-7.07923E-14
 -1      3483 8.25407E-03-2.28610E-04-7.30397E-14
 -1      3484 8.01741E-03-1.92418E-04-6.95978E-14
 -1      3485 8.39561E-03-2.31859E-04-7.53113E-14
 -1      3486 8.53927E-03-2.37685E-04-7.76108E-14
 -1      3487 8.29030E-03-1.92441E-04-7.40854E-14
 -1      3488 8.68554E-03-2.46164E-04-7.99358E-14
 -1      3489 8.83570E-03-2.59081E-04-8.22860E-14
 -1      3490 8.56796E-03-1.98779E-04-7.86752E-14
 -1      3491 9.29504E-03-3.18399E-04-8.92647E-14
 -1      3492 1.25853E-02-3.80042E-04-1.33642E-13
 -1      3493 1.27559E-02-3.24353E-04-1.36003E-13
 -1      3494 1.29266E-02-2.86662E-04-1.38828E-13
 -1      3495 1.31548E-02-2.54832E-04-1.42986E-13
 -1      3496 1.33106E-02-2.33708E-04-1.45827E-13
 -1      3497 1.34620E-02-2.17035E-04-1.48674E-13
 -1      3498 1.36103E-02-2.03125E-04-1.51520E-13
 -1      3499 1.34437E-02-1.78628E-04-1.47061E-13
 -1      3500 4.25219E-03 3.43303E-04-2.00100E-14
 -1      3501 4.10901E-03 3.44586E-04-1.87401E-14
 -1      3502 3.96575E-03 3.45689E-04-1.75099E-14
 -1      3503 3.82244E-03 3.46605E-04-1.63190E-14
 -1      3504 4.03577E-03 3.07771E-04-1.82432E-14
 -1      3505 4.82427E-03 3.36531E-04-2.54712E-14
 -1      3506 4.68135E-03 3.38471E-04-2.40489E-14
 -1      3507 5.10986E-03 3.32136E-04-2.84277E-14
 -1      3508 4.96710E-03 3.34423E-04-2.69312E-14
 -1      3509 4.89447E-03 2.98817E-04-2.63340E-14
 -1      3510 5.39510E-03 3.27002E-04-3.15339E-14
 -1      3511 5.25253E-03 3.29667E-04-2.99618E-14
 -1      3512 5.17977E-03 2.94576E-04-2.93320E-14
 -1      3513 5.67992E-03 3.21066E-04-3.47835E-14
 -1      3514 5.53756E-03 3.24140E-04-3.31413E-14
 -1      3515 5.46450E-03 2.89633E-04-3.24785E-14
 -1      3516 5.96422E-03 3.14292E-04-3.81716E-14
 -1      3517 5.82214E-03 3.17788E-04-3.64605E-14
 -1      3518 5.74853E-03 2.83934E-04-3.57673E-14
 -1      3519 6.24789E-03 3.06696E-04-4.16935E-14
 -1      3520 6.10613E-03 3.10597E-04-3.99161E-14
 -1      3521 6.03171E-03 2.77450E-04-3.91928E-14
 -1      3522 6.53080E-03 2.98396E-04-4.53441E-14
 -1      3523 6.38944E-03 3.02628E-04-4.35026E-14
 -1      3524 6.31385E-03 2.70213E-04-4.27509E-14
 -1      3525 6.81282E-03 2.89652E-04-4.91209E-14
 -1      3526 6.67191E-03 2.94065E-04-4.72179E-14
 -1      3527 6.59474E-03 2.62346E-04-4.64371E-14
 -1      3528 7.09388E-03 2.80930E-04-5.30224E-14
 -1      3529 6.95346E-03 2.85260E-04-5.10549E-14
 -1      3530 6.87418E-03 2.54108E-04-5.02471E-14
 -1      3531 7.37403E-03 2.72960E-04-5.70457E-14
 -1      3532 7.23404E-03 2.76804E-04-5.50189E-14
 -1      3533 7.15197E-03 2.45936E-04-5.41829E-14
 -1      3534 7.65354E-03 2.66817E-04-6.11845E-14
 -1      3535 7.51380E-03 2.69586E-04-5.91014E-14
 -1      3536 7.42808E-03 2.38493E-04-5.82395E-14
 -1      3537 7.93321E-03 2.64006E-04-6.54364E-14
 -1      3538 7.79324E-03 2.64878E-04-6.32972E-14
 -1      3539 7.70269E-03 2.32714E-04-6.24120E-14
 -1      3540 8.21462E-03 2.66618E-04-6.97935E-14
 -1      3541 8.07350E-03 2.64446E-04-6.76016E-14
 -1      3542 7.97650E-03 2.29868E-04-6.66935E-14
 -1      3543 8.50075E-03 2.77635E-04-7.42530E-14
 -1      3544 8.35678E-03 2.70752E-04-7.20114E-14
 -1      3545 8.25112E-03 2.31701E-04-7.10796E-14
 -1      3546 8.79669E-03 3.01645E-04-7.88104E-14
 -1      3547 8.64701E-03 2.87424E-04-7.65192E-14
 -1      3548 8.52969E-03 2.40811E-04-7.55668E-14
 -1      3549 9.11018E-03 3.46171E-04-8.34674E-14
 -1      3550 8.95065E-03 3.20325E-04-8.11262E-14
 -1      3551 8.81791E-03 2.61564E-04-8.01539E-14
 -1      3552 1.26265E-02 4.94114E-04-1.30132E-13
 -1      3553 1.35927E-02 3.45297E-04-1.46589E-13
 -1      3554 1.34437E-02 3.54885E-04-1.43787E-13
 -1      3555 1.41223E-02 2.94133E-05-1.55449E-13
 -1      3556 1.41376E-02 5.63411E-05-1.55207E-13
 -1      3557 1.35072E-02 2.64996E-05-1.39491E-13
 -1      3558 1.34336E-02 1.38030E-06-1.39146E-13
 -1      3559 1.95325E-03 3.18985E-04-4.58368E-15
 -1      3560 1.80926E-03 3.10439E-04-3.97805E-15
 -1      3561 1.32912E-02 3.67691E-04-1.40994E-13
 -1      3562 1.31338E-02 3.86066E-04-1.38208E-13
 -1      3563 1.34232E-02 3.13720E-04-1.42615E-13
 -1      3564 1.29733E-02 4.13580E-04-1.35548E-13
 -1      3565 1.28027E-02 4.47361E-04-1.32775E-13
 -1      3566 1.27938E-02 4.06567E-04-1.31852E-13
 -1      3567 1.31213E-02 3.43897E-04-1.37158E-13
 -1      3568 1.35795E-02 7.29363E-05-1.39723E-13
 -1      3569 1.35656E-02 5.23428E-05-1.39803E-13
 -1      3570 4.53837E-03 3.40243E-04-2.26643E-14
 -1      3571 4.39532E-03 3.41856E-04-2.13179E-14
 -1      3572 4.32242E-03 3.05401E-04-2.07876E-14
 -1      3573 4.60867E-03 3.02414E-04-2.34851E-14
 -1      3574 3.10479E-03 3.47316E-04-1.09706E-14
 -1      3575 2.96105E-03 3.46377E-04-1.00237E-14
 -1      3576 9.13298E-03-3.06874E-04-8.66356E-14
 -1      3577 9.12484E-03-2.47268E-04-8.75152E-14
 -1      3578 8.97020E-03-2.06296E-04-8.55743E-14
 -1      3579 8.97198E-03-2.82709E-04-8.42406E-14
 -1      3580 1.02762E-03-3.65528E-05-1.70443E-15
 -1      3581 1.02865E-03-6.36169E-05-1.70872E-15
 -1      3582 1.17472E-03-7.87776E-05-2.14191E-15
 -1      3583 1.14790E-03-2.49449E-05-2.05458E-15
 -1      3584 1.33210E-02-4.31652E-05-1.38793E-13
 -1      3585 1.31681E-02-1.01660E-04-1.37926E-13
 -1      3586 1.86199E-03-2.79991E-04-4.63454E-15
 -1      3587 2.00624E-03-2.87281E-04-5.30156E-15
 -1      3588 2.07319E-03-2.54552E-04-5.66948E-15
 -1      3589 1.34406E-02 1.32076E-04-1.37888E-13
 -1      3590 1.35352E-02 1.04383E-04-1.39150E-13
 -1      3591 1.57412E-03-2.60749E-04-3.43361E-15
 -1      3592 1.71793E-03-2.71197E-04-4.01200E-15
 -1      3593 1.78442E-03-2.41288E-04-4.33593E-15
 -1      3594 9.03814E-03 2.38625E-04-8.49619E-14
 -1      3595 9.14051E-03 3.00380E-04-8.51730E-14
 -1      3596 8.60299E-03 4.74205E-06-8.44090E-14
 -1      3597 8.57664E-03 2.04847E-05-8.39771E-14
 -1      3598 2.24136E-03 3.31792E-04-5.92493E-15
 -1      3599 2.09730E-03 3.26057E-04-5.23281E-15
 -1      3600 2.01925E-03 2.86857E-04-4.97524E-15
 -1      3601 8.74001E-03-5.35662E-05-8.52657E-14
 -1      3602 8.65183E-03-1.99535E-05-8.46763E-14
 -1      3603 1.27935E-03 2.42961E-04-2.15913E-15
 -1      3604 1.27325E-03 2.08765E-04-2.20643E-15
 -1      3605 1.34336E-02-2.95295E-05-1.40879E-13
 -1      3606 1.30791E-02-2.14011E-04-1.40062E-13
 -1      3607 8.81333E-03-1.37671E-04-8.42315E-14
 -1      3608 8.77766E-03-9.26004E-05-8.47530E-14
 -1      3609 8.65110E-03-7.62803E-05-8.27589E-14
 -1      3610 8.83983E-03-2.22968E-04-8.29507E-14
 -1      3611 8.68831E-03 9.20587E-05-8.34439E-14
 -1      3612 8.71065E-03 1.20086E-04-8.26439E-14
 -1      3613 8.59313E-03 7.70710E-05-8.20634E-14
 -1      3614 2.88526E-03 3.08228E-04-9.66386E-15
 -1      3615 2.81723E-03 3.44905E-04-9.11975E-15
 -1      3616 2.67335E-03 3.42839E-04-8.25779E-15
 -1      3617 3.24847E-03 3.47828E-04-1.19584E-14
 -1      3618 3.17346E-03 3.10021E-04-1.15636E-14
 -1      3619 3.39206E-03 3.47954E-04-1.29873E-14
 -1      3620 1.37119E-02-2.00659E-04-1.53682E-13
 -1      3621 1.38377E-02-1.91215E-04-1.56171E-13
 -1      3622 1.38865E-02-1.64082E-04-1.56386E-13
 -1      3623 1.36883E-02-1.65994E-04-1.52064E-13
 -1      3624 1.68363E-03 3.05473E-04-3.47426E-15
 -1      3625 1.55817E-03 2.98885E-04-3.00464E-15
 -1      3626 1.74904E-03 2.76129E-04-3.81601E-15
 -1      3627 3.74872E-03 3.09454E-04-1.58557E-14
 -1      3628 3.67905E-03 3.47304E-04-1.51681E-14
 -1      3629 3.53559E-03 3.47771E-04-1.40576E-14
 -1      3630 1.40975E-02 7.03596E-07-1.55689E-13
 -1      3631 1.40052E-02 1.33462E-05-1.53114E-13
 -1      3632 1.40647E-02-3.04257E-05-1.55928E-13
 -1      3633 1.25767E-03 4.78690E-05-2.36432E-15
 -1      3634 1.25693E-03 1.67877E-05-2.38228E-15
 -1      3635 1.37164E-02 3.31202E-04-1.48826E-13
 -1      3636 1.36908E-02 2.93879E-04-1.47648E-13
 -1      3637 1.38377E-02 3.19068E-04-1.51063E-13
 -1      3638 1.40396E-02 6.76461E-05-1.52628E-13
 -1      3639 1.41434E-02 8.26700E-05-1.54958E-13
 -1      3640 1.41391E-02 1.09323E-04-1.54708E-13
 -1      3641 1.39532E-02 3.42922E-04-1.53770E-13
 -1      3642 2.52940E-03 3.40037E-04-7.43771E-15
 -1      3643 2.38540E-03 3.36416E-04-6.65985E-15
 -1      3644 2.59673E-03 3.04332E-04-7.93217E-15
 -1      3645 1.34106E-02 1.67022E-04-1.38521E-13
 -1      3646 8.54223E-03 3.21990E-05-8.28047E-14
 -1      3647 8.51637E-03 4.52870E-05-8.16339E-14
 -1      3648 8.49174E-03 2.15813E-05-8.15776E-14
 -1      3649 8.57111E-03-1.33238E-05-8.30084E-14
 -1      3650 1.36568E-02 1.15546E-04-1.42818E-13
 -1      3651 1.36217E-02 9.26017E-05-1.41272E-13
 -1      3652 1.36979E-02 8.21530E-05-1.43399E-13
 -1      3653 1.35993E-02 3.87923E-05-1.41541E-13
 -1      3654 2.30799E-03 2.97547E-04-6.36859E-15
 -1      3655 1.25912E-03 7.90989E-05-2.34199E-15
 -1      3656 1.38086E-03 6.71909E-05-2.76367E-15
 -1      3657 1.26132E-03 1.10664E-04-2.31542E-15
 -1      3658 8.90203E-03 2.08640E-04-8.32577E-14
 -1      3659 1.31116E-03-2.19463E-04-2.50790E-15
 -1      3660 1.46208E-03-2.43895E-04-3.02224E-15
 -1      3661 1.52846E-03-2.17346E-04-3.30474E-15
 -1      3662 1.30594E-03-1.85444E-04-2.52242E-15
 -1      3663 1.40721E-02 1.97207E-04-1.53946E-13
 -1      3664 1.40357E-02 2.31466E-04-1.53688E-13
 -1      3665 1.29642E-02 3.31947E-04-1.33696E-13
 -1      3666 1.39343E-02-1.38097E-04-1.56602E-13
 -1      3667 1.39808E-02-1.13298E-04-1.56817E-13
 -1      3668 1.38369E-02-1.38164E-04-1.54441E-13
 -1      3669 1.29851E-03-1.19535E-04-2.53591E-15
 -1      3670 1.30174E-03-1.52185E-04-2.53163E-15
 -1      3671 1.41232E-03-1.66765E-04-2.91120E-15
 -1      3672 1.38779E-02 2.46388E-04-1.50629E-13
 -1      3673 1.39735E-02 2.65282E-04-1.52941E-13
 -1      3674 1.40261E-02-7.61072E-05-1.56585E-13
 -1      3675 1.31072E-02 3.17699E-04-1.36294E-13
 -1      3676 1.31118E-02 2.80197E-04-1.35487E-13
 -1      3677 1.32374E-02 2.47065E-04-1.37224E-13
 -1      3678 1.32581E-02 2.99159E-04-1.38958E-13
 -1      3679 1.35617E-02-1.37141E-05-1.43292E-13
 -1      3680 1.34634E-02-5.63561E-05-1.42941E-13
 -1      3681 2.57572E-03-2.30608E-04-8.42941E-15
 -1      3682 2.72059E-03-2.32443E-04-9.30958E-15
 -1      3683 2.86540E-03-2.33786E-04-1.02319E-14
 -1      3684 3.01011E-03-2.34682E-04-1.11966E-14
 -1      3685 2.79014E-03-1.95659E-04-9.76538E-15
 -1      3686 3.15472E-03-2.35221E-04-1.22026E-14
 -1      3687 3.29921E-03-2.35435E-04-1.32495E-14
 -1      3688 3.08002E-03-1.97234E-04-1.16902E-14
 -1      3689 3.44356E-03-2.35391E-04-1.43374E-14
 -1      3690 3.58778E-03-2.35108E-04-1.54657E-14
 -1      3691 3.36942E-03-1.97623E-04-1.37804E-14
 -1      3692 3.73187E-03-2.34635E-04-1.66345E-14
 -1      3693 3.87580E-03-2.33979E-04-1.78424E-14
 -1      3694 3.65823E-03-1.97147E-04-1.60328E-14
 -1      3695 4.01959E-03-2.33176E-04-1.90896E-14
 -1      3696 4.16322E-03-2.32225E-04-2.03756E-14
 -1      3697 3.94639E-03-1.96022E-04-1.84445E-14
 -1      3698 4.30670E-03-2.31147E-04-2.16993E-14
 -1      3699 4.45002E-03-2.29938E-04-2.30615E-14
 -1      3700 4.23387E-03-1.94381E-04-2.10117E-14
 -1      3701 4.59317E-03-2.28610E-04-2.44609E-14
 -1      3702 4.73615E-03-2.27152E-04-2.58976E-14
 -1      3703 4.52061E-03-1.92291E-04-2.37303E-14
 -1      3704 4.87894E-03-2.25572E-04-2.73719E-14
 -1      3705 5.02153E-03-2.23853E-04-2.88826E-14
 -1      3706 4.80655E-03-1.89768E-04-2.65997E-14
 -1      3707 5.16391E-03-2.22003E-04-3.04292E-14
 -1      3708 5.30607E-03-2.20002E-04-3.20115E-14
 -1      3709 5.09159E-03-1.86792E-04-2.96158E-14
 -1      3710 5.44796E-03-2.17856E-04-3.36300E-14
 -1      3711 5.58960E-03-2.15544E-04-3.52839E-14
 -1      3712 5.37559E-03-1.83325E-04-3.27765E-14
 -1      3713 5.73093E-03-2.13078E-04-3.69718E-14
 -1      3714 5.87194E-03-2.10434E-04-3.86943E-14
 -1      3715 5.65837E-03-1.79318E-04-3.60784E-14
 -1      3716 6.01258E-03-2.07632E-04-4.04530E-14
 -1      3717 6.15284E-03-2.04649E-04-4.22451E-14
 -1      3718 5.93967E-03-1.74729E-04-3.95203E-14
 -1      3719 6.29266E-03-2.01517E-04-4.40698E-14
 -1      3720 6.43203E-03-1.98214E-04-4.59286E-14
 -1      3721 6.21921E-03-1.69541E-04-4.30989E-14
 -1      3722 6.57087E-03-1.94791E-04-4.78206E-14
 -1      3723 6.70919E-03-1.91225E-04-4.97440E-14
 -1      3724 6.49661E-03-1.63775E-04-4.68099E-14
 -1      3725 6.84690E-03-1.87590E-04-5.16992E-14
 -1      3726 6.98402E-03-1.83868E-04-5.36852E-14
 -1      3727 6.77151E-03-1.57506E-04-5.06522E-14
 -1      3728 7.12047E-03-1.80157E-04-5.57007E-14
 -1      3729 7.25628E-03-1.76444E-04-5.77462E-14
 -1      3730 7.04348E-03-1.50882E-04-5.46173E-14
 -1      3731 7.39136E-03-1.72851E-04-5.98232E-14
 -1      3732 7.52584E-03-1.69379E-04-6.19282E-14
 -1      3733 7.31214E-03-1.44122E-04-5.87036E-14
 -1      3734 7.65959E-03-1.66164E-04-6.40604E-14
 -1      3735 7.79285E-03-1.63241E-04-6.62203E-14
 -1      3736 7.57718E-03-1.37514E-04-6.29075E-14
 -1      3737 7.92551E-03-1.60752E-04-6.84071E-14
 -1      3738 8.05800E-03-1.58799E-04-7.06219E-14
 -1      3739 7.83850E-03-1.31414E-04-6.72213E-14
 -1      3740 8.19018E-03-1.57512E-04-7.28622E-14
 -1      3741 8.32288E-03-1.57183E-04-7.51277E-14
 -1      3742 8.09635E-03-1.26267E-04-7.16416E-14
 -1      3743 5.53361E-03 2.52643E-04-3.34268E-14
 -1      3744 5.39166E-03 2.55059E-04-3.18154E-14
 -1      3745 1.34310E-02-1.39846E-04-1.45448E-13
 -1      3746 1.35719E-02-1.30504E-04-1.48287E-13
 -1      3747 1.30822E-02-1.41718E-04-1.37551E-13
 -1      3748 1.30118E-02-1.94801E-04-1.37846E-13
 -1      3749 1.39331E-02-6.20995E-05-1.54006E-13
 -1      3750 5.24950E-03 2.57299E-04-3.02404E-14
 -1      3751 5.10713E-03 2.59382E-04-2.87022E-14
 -1      3752 5.31906E-03 2.20353E-04-3.11526E-14
 -1      3753 4.96458E-03 2.61304E-04-2.72009E-14
 -1      3754 4.82186E-03 2.63082E-04-2.57365E-14
 -1      3755 5.03461E-03 2.24039E-04-2.80720E-14
 -1      3756 5.81674E-03 2.47290E-04-3.67536E-14
 -1      3757 5.67530E-03 2.50060E-04-3.50727E-14
 -1      3758 5.60246E-03 2.16080E-04-3.43783E-14
 -1      3759 6.09867E-03 2.41222E-04-4.02169E-14
 -1      3760 5.95786E-03 2.44350E-04-3.84685E-14
 -1      3761 5.88459E-03 2.11182E-04-3.77434E-14
 -1      3762 6.37916E-03 2.34480E-04-4.38099E-14
 -1      3763 6.23910E-03 2.37938E-04-4.19977E-14
 -1      3764 6.16519E-03 2.05653E-04-4.12441E-14
 -1      3765 6.65790E-03 2.27191E-04-4.75317E-14
 -1      3766 6.51875E-03 2.30902E-04-4.56549E-14
 -1      3767 6.44391E-03 1.99541E-04-4.48736E-14
 -1      3768 6.93458E-03 2.19602E-04-5.13768E-14
 -1      3769 6.79650E-03 2.23426E-04-4.94390E-14
 -1      3770 6.72038E-03 1.92971E-04-4.86299E-14
 -1      3771 7.20892E-03 2.12110E-04-5.53477E-14
 -1      3772 7.07204E-03 2.15829E-04-5.33464E-14
 -1      3773 6.99419E-03 1.86171E-04-5.25109E-14
 -1      3774 7.48072E-03 2.05289E-04-5.94375E-14
 -1      3775 7.34511E-03 2.08590E-04-5.73779E-14
 -1      3776 7.26491E-03 1.79482E-04-5.65151E-14
 -1      3777 7.75004E-03 1.99908E-04-6.36414E-14
 -1      3778 7.61563E-03 2.02378E-04-6.15251E-14
 -1      3779 7.53218E-03 1.73370E-04-6.06389E-14
 -1      3780 8.01738E-03 1.96967E-04-6.79538E-14
 -1      3781 7.88383E-03 1.98065E-04-6.57849E-14
 -1      3782 7.79582E-03 1.68408E-04-6.48743E-14
 -1      3783 8.28411E-03 1.97823E-04-7.23680E-14
 -1      3784 8.15057E-03 1.96792E-04-7.01471E-14
 -1      3785 8.05600E-03 1.65282E-04-6.92159E-14
 -1      3786 8.55317E-03 2.04637E-04-7.68843E-14
 -1      3787 8.41788E-03 2.00193E-04-7.46143E-14
 -1      3788 8.31360E-03 1.64894E-04-7.36605E-14
 -1      3789 2.08626E-03 2.54036E-04-5.37577E-15
 -1      3790 1.94174E-03 2.48135E-04-4.71731E-15
 -1      3791 1.37635E-02 2.54148E-04-1.48389E-13
 -1      3792 1.36467E-02 2.63581E-04-1.46153E-13
 -1      3793 1.38316E-02 2.18144E-04-1.49131E-13
 -1      3794 1.35278E-02 2.75233E-04-1.43948E-13
 -1      3795 1.33851E-02 2.81270E-04-1.41151E-13
 -1      3796 1.33707E-02 2.56478E-04-1.40283E-13
 -1      3797 1.36072E-02 2.33097E-04-1.44686E-13
 -1      3798 1.32422E-02-1.13433E-04-1.40150E-13
 -1      3799 8.82051E-03-1.73482E-04-8.35748E-14
 -1      3800 1.39218E-02 3.08486E-04-1.52591E-13
 -1      3801 4.10600E-03 2.69848E-04-1.89815E-14
 -1      3802 3.96242E-03 2.70775E-04-1.77454E-14
 -1      3803 2.37555E-03 2.62766E-04-6.81974E-15
 -1      3804 2.23088E-03 2.58881E-04-6.07634E-15
 -1      3805 2.15416E-03 2.20548E-04-5.78441E-15
 -1      3806 1.99637E-03-2.16327E-04-5.33184E-15
 -1      3807 2.14108E-03-2.21135E-04-6.04199E-15
 -1      3808 1.26827E-03 1.75368E-04-2.24769E-15
 -1      3809 1.26435E-03 1.42707E-04-2.28413E-15
 -1      3810 1.38559E-03 1.33953E-04-2.70370E-15
 -1      3811 1.70768E-03-2.03481E-04-4.04249E-15
 -1      3812 1.85187E-03-2.10476E-04-4.66521E-15
 -1      3813 1.92020E-03-1.78762E-04-5.00000E-15
 -1      3814 2.28592E-03-2.25054E-04-6.79465E-15
 -1      3815 2.43082E-03-2.28166E-04-7.59077E-15
 -1      3816 2.20982E-03-1.87062E-04-6.41835E-15
 -1      3817 8.52339E-03-3.03117E-05-8.14125E-14
 -1      3818 8.48391E-03-4.77022E-06-8.11531E-14
 -1      3819 8.73858E-03 1.56834E-04-8.17828E-14
 -1      3820 8.79948E-03 2.17876E-04-8.10213E-14
 -1      3821 8.66006E-03 2.08546E-04-7.87066E-14
 -1      3822 8.62523E-03 1.33092E-04-8.04169E-14
 -1      3823 1.32109E-03 2.71193E-04-2.23366E-15
 -1      3824 1.41252E-02 1.36501E-04-1.54456E-13
 -1      3825 1.41025E-02 1.65849E-04-1.54201E-13
 -1      3826 1.39785E-02 1.78929E-04-1.51628E-13
 -1      3827 1.40294E-02 1.20076E-04-1.52132E-13
 -1      3828 1.39184E-03 4.80299E-06-2.84747E-15
 -1      3829 1.26934E-03-1.10668E-05-2.43605E-15
 -1      3830 1.28231E-03-3.93065E-05-2.48730E-15
 -1      3831 8.69619E-03-1.59357E-04-8.16288E-14
 -1      3832 1.50386E-03-1.78290E-04-3.24359E-15
 -1      3833 1.61547E-03-1.92425E-04-3.67095E-15
 -1      3834 1.68359E-03-1.63257E-04-3.96944E-15
 -1      3835 1.50000E-03-1.42836E-04-3.24988E-15
 -1      3836 1.37007E-02 4.79257E-05-1.44088E-13
 -1      3837 1.36459E-02 2.06411E-05-1.43781E-13
 -1      3838 1.39396E-03 2.02708E-04-2.62277E-15
 -1      3839 1.44611E-03 2.81070E-04-2.63959E-15
 -1      3840 1.51137E-03 2.54949E-04-2.93663E-15
 -1      3841 8.51345E-03 6.30585E-05-8.08489E-14
 -1      3842 8.51690E-03 8.38725E-05-8.00629E-14
 -1      3843 8.44227E-03 5.09874E-05-7.96389E-14
 -1      3844 4.74929E-03 2.27183E-04-2.51389E-14
 -1      3845 4.67897E-03 2.64711E-04-2.43093E-14
 -1      3846 4.53594E-03 2.66206E-04-2.29205E-14
 -1      3847 8.45592E-03-1.57849E-04-7.74194E-14
 -1      3848 8.59084E-03-1.60395E-04-7.97363E-14
 -1      3849 1.28282E-03-6.45863E-05-2.49188E-15
 -1      3850 1.29694E-03-9.36650E-05-2.53726E-15
 -1      3851 1.40690E-03-1.05316E-04-2.91836E-15
 -1      3852 1.40486E-03-5.15990E-05-2.91275E-15
 -1      3853 2.95396E-03 2.71247E-04-1.02150E-14
 -1      3854 2.80946E-03 2.69998E-04-9.30344E-15
 -1      3855 1.37339E-02-7.66762E-05-1.50004E-13
 -1      3856 1.37865E-02-2.72562E-05-1.49354E-13
 -1      3857 3.46129E-03 3.10293E-04-1.36282E-14
 -1      3858 1.37397E-02-1.37904E-04-1.52283E-13
 -1      3859 3.81872E-03 2.71534E-04-1.65486E-14
 -1      3860 3.67489E-03 2.72119E-04-1.53914E-14
 -1      3861 3.88900E-03 2.33599E-04-1.72471E-14
 -1      3862 3.24267E-03 2.72510E-04-1.21629E-14
 -1      3863 3.09837E-03 2.72071E-04-1.11682E-14
 -1      3864 3.02327E-03 2.34023E-04-1.07727E-14
 -1      3865 1.86489E-03 2.10055E-04-4.45947E-15
 -1      3866 1.79744E-03 2.40993E-04-4.10173E-15
 -1      3867 8.54309E-03 1.67221E-04-7.77345E-14
 -1      3868 8.36733E-03-5.67763E-06-7.84278E-14
 -1      3869 8.42927E-03 8.77543E-06-7.99990E-14
 -1      3870 8.38340E-03 2.19365E-05-7.88493E-14
 -1      3871 1.34371E-02-8.64186E-05-1.43594E-13
 -1      3872 1.33669E-02-1.17938E-04-1.43221E-13
 -1      3873 8.57829E-03-1.18209E-04-8.03482E-14
 -1      3874 1.39361E-02 5.28630E-05-1.50300E-13
 -1      3875 1.39427E-02 7.85154E-05-1.50056E-13
 -1      3876 2.66487E-03 2.68218E-04-8.43364E-15
 -1      3877 2.52023E-03 2.65852E-04-7.60584E-15
 -1      3878 2.73373E-03 2.31753E-04-8.94269E-15
 -1      3879 1.36876E-02-7.62151E-07-1.45850E-13
 -1      3880 1.36382E-02 1.45686E-04-1.43158E-13
 -1      3881 1.37418E-02 1.30748E-04-1.45289E-13
 -1      3882 8.35177E-03-1.22716E-04-7.61686E-14
 -1      3883 2.44393E-03 2.27495E-04-7.27918E-15
 -1      3884 1.37194E-02-1.03630E-04-1.50661E-13
 -1      3885 1.37719E-02 6.76690E-05-1.45644E-13
 -1      3886 4.39276E-03 2.67558E-04-2.15696E-14
 -1      3887 4.24945E-03 2.68776E-04-2.02565E-14
 -1      3888 4.46319E-03 2.29823E-04-2.23564E-14
 -1      3889 1.38305E-02 1.87310E-04-1.48500E-13
 -1      3890 1.37241E-02 1.92311E-04-1.46261E-13
 -1      3891 4.17641E-03 2.31972E-04-1.97246E-14
 -1      3892 1.50842E-03 2.35794E-05-3.26152E-15
 -1      3893 1.52088E-03-7.45024E-06-3.32673E-15
 -1      3894 8.55696E-03-8.78549E-05-8.06317E-14
 -1      3895 8.54015E-03-5.39248E-05-8.11406E-14
 -1      3896 8.43620E-03-4.20050E-05-7.93035E-14
 -1      3897 8.46308E-03-9.27869E-05-7.87519E-14
 -1      3898 2.49997E-03-1.92460E-04-8.00751E-15
 -1      3899 1.38625E-02 7.47563E-06-1.49842E-13
 -1      3900 1.38909E-02 3.57190E-05-1.49603E-13
 -1      3901 1.51111E-03 9.29461E-05-3.20875E-15
 -1      3902 1.50937E-03 5.81697E-05-3.23775E-15
 -1      3903 1.63865E-03 4.76796E-05-3.74849E-15
 -1      3904 1.33821E-02 2.12503E-04-1.39360E-13
 -1      3905 1.35425E-02 1.66861E-04-1.41535E-13
 -1      3906 1.38684E-02 1.54479E-04-1.48749E-13
 -1      3907 1.55961E-03 2.22765E-04-3.18582E-15
 -1      3908 1.55451E-03 1.86110E-04-3.23628E-15
 -1      3909 1.36312E-02 1.83114E-04-1.43998E-13
 -1      3910 2.51311E-03 1.91743E-04-7.74673E-15
 -1      3911 2.36799E-03 1.89387E-04-6.95311E-15
 -1      3912 3.00548E-03-1.59217E-04-1.11838E-14
 -1      3913 3.15049E-03-1.59592E-04-1.21857E-14
 -1      3914 3.29536E-03-1.59752E-04-1.32286E-14
 -1      3915 3.44008E-03-1.59710E-04-1.43119E-14
 -1      3916 3.22146E-03-1.21813E-04-1.26819E-14
 -1      3917 3.58464E-03-1.59512E-04-1.54363E-14
 -1      3918 3.72902E-03-1.59162E-04-1.66005E-14
 -1      3919 3.51116E-03-1.21750E-04-1.48449E-14
 -1      3920 3.87323E-03-1.58695E-04-1.78039E-14
 -1      3921 4.01724E-03-1.58109E-04-1.90467E-14
 -1      3922 3.80014E-03-1.21203E-04-1.71680E-14
 -1      3923 4.16107E-03-1.57428E-04-2.03276E-14
 -1      3924 4.30469E-03-1.56645E-04-2.16472E-14
 -1      3925 4.08833E-03-1.20286E-04-1.96485E-14
 -1      3926 4.44810E-03-1.55778E-04-2.30044E-14
 -1      3927 4.59130E-03-1.54815E-04-2.43989E-14
 -1      3928 4.37567E-03-1.19059E-04-2.22828E-14
 -1      3929 4.73426E-03-1.53768E-04-2.58313E-14
 -1      3930 4.87698E-03-1.52622E-04-2.73007E-14
 -1      3931 4.66209E-03-1.17549E-04-2.50677E-14
 -1      3932 5.01944E-03-1.51387E-04-2.88062E-14
 -1      3933 5.16163E-03-1.50045E-04-3.03479E-14
 -1      3934 4.94747E-03-1.15752E-04-2.80011E-14
 -1      3935 5.30350E-03-1.48606E-04-3.19259E-14
 -1      3936 5.44505E-03-1.47047E-04-3.35397E-14
 -1      3937 5.23166E-03-1.13647E-04-3.10798E-14
 -1      3938 5.58623E-03-1.45383E-04-3.51890E-14
 -1      3939 5.72703E-03-1.43586E-04-3.68721E-14
 -1      3940 5.51448E-03-1.11201E-04-3.43021E-14
 -1      3941 5.86738E-03-1.41677E-04-3.85903E-14
 -1      3942 6.00726E-03-1.39625E-04-4.03440E-14
 -1      3943 5.79563E-03-1.08379E-04-3.76650E-14
 -1      3944 6.14661E-03-1.37461E-04-4.21312E-14
 -1      3945 6.28540E-03-1.35149E-04-4.39503E-14
 -1      3946 6.07478E-03-1.05150E-04-4.11660E-14
 -1      3947 6.42354E-03-1.32733E-04-4.58043E-14
 -1      3948 6.56101E-03-1.30172E-04-4.76905E-14
 -1      3949 6.35153E-03-1.01498E-04-4.48019E-14
 -1      3950 6.69771E-03-1.27527E-04-4.96080E-14
 -1      3951 6.83362E-03-1.24749E-04-5.15576E-14
 -1      3952 6.62536E-03-9.74282E-05-4.85678E-14
 -1      3953 6.96862E-03-1.21919E-04-5.35375E-14
 -1      3954 7.10271E-03-1.18979E-04-5.55469E-14
 -1      3955 6.89571E-03-9.29697E-05-5.24603E-14
 -1      3956 7.23573E-03-1.16031E-04-5.75880E-14
 -1      3957 7.36772E-03-1.13002E-04-5.96589E-14
 -1      3958 7.16194E-03-8.81742E-05-5.64763E-14
 -1      3959 7.49849E-03-1.10015E-04-6.17578E-14
 -1      3960 7.62811E-03-1.06974E-04-6.38842E-14
 -1      3961 7.42330E-03-8.31010E-05-6.06102E-14
 -1      3962 7.75636E-03-1.04023E-04-6.60379E-14
 -1      3963 7.88340E-03-1.01043E-04-6.82189E-14
 -1      3964 7.67896E-03-7.77815E-05-6.48585E-14
 -1      3965 8.00893E-03-9.82215E-05-7.04273E-14
 -1      3966 8.13328E-03-9.53837E-05-7.26614E-14
 -1      3967 7.92795E-03-7.21895E-05-6.92148E-14
 -1      3968 5.95221E-03 1.75660E-04-3.87377E-14
 -1      3969 5.81188E-03 1.77900E-04-3.70185E-14
 -1      3970 1.32262E-02-1.72531E-04-1.41994E-13
 -1      3971 3.53093E-03 2.72493E-04-1.42748E-14
 -1      3972 3.38686E-03 2.72643E-04-1.31987E-14
 -1      3973 3.31239E-03 2.34845E-04-1.27684E-14
 -1      3974 3.60098E-03 2.34614E-04-1.49269E-14
 -1      3975 2.80330E-03 1.94947E-04-9.45886E-15
 -1      3976 2.65823E-03 1.93581E-04-8.58200E-15
 -1      3977 2.58302E-03 1.55561E-04-8.22194E-15
 -1      3978 5.38850E-03 1.83781E-04-3.20687E-14
 -1      3979 5.24669E-03 1.85486E-04-3.04895E-14
 -1      3980 1.93325E-03 1.78232E-04-4.82673E-15
 -1      3981 1.78883E-03 1.72850E-04-4.20253E-15
 -1      3982 5.67113E-03 1.79990E-04-3.53331E-14
 -1      3983 5.52999E-03 1.81957E-04-3.36840E-14
 -1      3984 5.73968E-03 1.44410E-04-3.62925E-14
 -1      3985 5.10460E-03 1.87059E-04-2.89480E-14
 -1      3986 4.96223E-03 1.88522E-04-2.74420E-14
 -1      3987 5.17455E-03 1.50406E-04-2.98271E-14
 -1      3988 6.23141E-03 1.70796E-04-4.22747E-14
 -1      3989 6.09207E-03 1.73302E-04-4.04894E-14
 -1      3990 6.01967E-03 1.40759E-04-3.97349E-14
 -1      3991 6.50833E-03 1.65449E-04-4.59403E-14
 -1      3992 6.37018E-03 1.68188E-04-4.40913E-14
 -1      3993 6.29746E-03 1.36680E-04-4.33084E-14
 -1      3994 6.78249E-03 1.59740E-04-4.97310E-14
 -1      3995 6.64578E-03 1.62644E-04-4.78201E-14
 -1      3996 6.57256E-03 1.32229E-04-4.70095E-14
 -1      3997 7.05338E-03 1.53869E-04-5.36486E-14
 -1      3998 6.91837E-03 1.56828E-04-5.16750E-14
 -1      3999 6.84441E-03 1.27516E-04-5.08372E-14
 -1      4000 7.32041E-03 1.48120E-04-5.76877E-14
 -1      4001 7.18739E-03 1.50983E-04-5.56528E-14
 -1      4002 7.11238E-03 1.22712E-04-5.47901E-14
 -1      4003 7.58304E-03 1.42850E-04-6.18420E-14
 -1      4004 7.45228E-03 1.45432E-04-5.97506E-14
 -1      4005 7.37573E-03 1.18041E-04-5.88622E-14
 -1      4006 7.84073E-03 1.38442E-04-6.61100E-14
 -1      4007 7.71248E-03 1.40551E-04-6.39623E-14
 -1      4008 7.63364E-03 1.13751E-04-6.30501E-14
 -1      4009 8.09315E-03 1.35283E-04-7.04820E-14
 -1      4010 7.96751E-03 1.36723E-04-6.82839E-14
 -1      4011 7.88515E-03 1.10041E-04-6.73486E-14
 -1      4012 8.34036E-03 1.33863E-04-7.49548E-14
 -1      4013 8.21721E-03 1.34364E-04-7.27049E-14
 -1      4014 8.12924E-03 1.07005E-04-7.17506E-14
 -1      4015 8.53117E-03 1.32841E-04-7.85817E-14
 -1      4016 8.43597E-03 1.33198E-04-7.67615E-14
 -1      4017 8.34013E-03 1.04319E-04-7.57871E-14
 -1      4018 8.51891E-03 1.01527E-04-7.94279E-14
 -1      4019 1.35794E-02-6.57386E-05-1.46015E-13
 -1      4020 2.42462E-03-1.54572E-04-7.59104E-15
 -1      4021 2.56989E-03-1.56299E-04-8.42683E-15
 -1      4022 8.23740E-03-9.50980E-05-7.45462E-14
 -1      4023 8.35978E-03-9.24988E-05-7.68276E-14
 -1      4024 8.34996E-03-6.66819E-05-7.71043E-14
 -1      4025 8.15076E-03-6.84948E-05-7.33052E-14
 -1      4026 4.24701E-03 1.94172E-04-2.04731E-14
 -1      4027 4.10337E-03 1.94984E-04-1.91924E-14
 -1      4028 2.22294E-03 1.86401E-04-6.20188E-15
 -1      4029 2.07799E-03 1.82723E-04-5.49311E-15
 -1      4030 2.00244E-03 1.45530E-04-5.20263E-15
 -1      4031 2.29250E-03 1.51634E-04-6.62796E-15
 -1      4032 1.33916E-02 2.37132E-04-1.40229E-13
 -1      4033 1.84478E-03-1.42059E-04-4.67404E-15
 -1      4034 1.98938E-03-1.46173E-04-5.33937E-15
 -1      4035 1.38735E-02 1.25293E-04-1.48414E-13
 -1      4036 1.63757E-03-1.73052E-05-3.78748E-15
 -1      4037 1.52083E-03-3.52903E-05-3.33711E-15
 -1      4038 1.52129E-03-6.31913E-05-3.34437E-15
 -1      4039 1.67144E-03 2.37489E-04-3.59032E-15
 -1      4040 2.13429E-03-1.49580E-04-6.04782E-15
 -1      4041 2.27940E-03-1.52350E-04-6.79826E-15
 -1      4042 2.05937E-03-1.12729E-04-5.68308E-15
 -1      4043 1.38915E-02 9.88034E-05-1.48659E-13
 -1      4044 2.71515E-03-1.57619E-04-9.30428E-15
 -1      4045 2.86036E-03-1.58566E-04-1.02230E-14
 -1      4046 2.93118E-03-1.21222E-04-1.06827E-14
 -1      4047 4.03036E-03 1.57811E-04-1.86604E-14
 -1      4048 3.95955E-03 1.95675E-04-1.79509E-14
 -1      4049 3.81556E-03 1.96248E-04-1.67480E-14
 -1      4050 4.81962E-03 1.89864E-04-2.59733E-14
 -1      4051 4.67678E-03 1.91103E-04-2.45414E-14
 -1      4052 4.88999E-03 1.52795E-04-2.68122E-14
 -1      4053 1.50941E-03-8.89788E-05-3.29939E-15
 -1      4054 1.51090E-03-1.17048E-04-3.30038E-15
 -1      4055 1.60242E-03-1.26476E-04-3.65432E-15
 -1      4056 1.62547E-03-7.30814E-05-3.75295E-15
 -1      4057 5.45786E-03 1.47620E-04-3.29888E-14
 -1      4058 2.94830E-03 1.95933E-04-1.03776E-14
 -1      4059 2.87351E-03 1.57857E-04-9.98217E-15
 -1      4060 3.09319E-03 1.96570E-04-1.13371E-14
 -1      4061 8.43263E-03 8.56731E-05-7.82305E-14
 -1      4062 2.34972E-03-1.17039E-04-7.18170E-15
 -1      4063 1.38058E-02 4.77474E-05-1.47033E-13
 -1      4064 8.36126E-03 3.84644E-05-7.80800E-14
 -1      4065 8.34649E-03 5.61682E-05-7.73096E-14
 -1      4066 8.28439E-03 2.56184E-05-7.65280E-14
 -1      4067 4.39047E-03 1.93257E-04-2.17917E-14
 -1      4068 4.31778E-03 1.56493E-04-2.12266E-14
 -1      4069 4.53372E-03 1.92229E-04-2.31474E-14
 -1      4070 2.64049E-03-1.19737E-04-8.84868E-15
 -1      4071 1.65566E-03 1.63613E-04-3.66922E-15
 -1      4072 1.49009E-03 1.47796E-04-3.05853E-15
 -1      4073 8.35737E-03-4.48978E-05-7.76363E-14
 -1      4074 8.35339E-03-2.35375E-05-7.79032E-14
 -1      4075 8.29276E-03-8.22493E-06-7.67693E-14
 -1      4076 8.26245E-03-4.63443E-05-7.57230E-14
 -1      4077 1.69426E-03-1.35860E-04-4.02594E-15
 -1      4078 1.76383E-03-1.05111E-04-4.32767E-15
 -1      4079 1.76225E-03-3.06971E-06-4.29690E-15
 -1      4080 1.76213E-03-3.30102E-05-4.31075E-15
 -1      4081 1.48699E-03 1.12782E-04-3.09537E-15
 -1      4082 1.36226E-02 2.16650E-04-1.44632E-13
 -1      4083 1.76381E-03 7.16179E-05-4.24084E-15
 -1      4084 1.76261E-03 3.42342E-05-4.27181E-15
 -1      4085 1.88714E-03 1.97055E-05-4.82832E-15
 -1      4086 1.61578E-03 1.04765E-04-3.59679E-15
 -1      4087 1.72452E-03 1.33667E-04-3.99682E-15
 -1      4088 1.77562E-03-7.72197E-05-4.37892E-15
 -1      4089 3.43785E-03-8.38943E-05-1.42584E-14
 -1      4090 3.58261E-03-8.37660E-05-1.53781E-14
 -1      4091 3.72718E-03-8.35691E-05-1.65372E-14
 -1      4092 3.87155E-03-8.32947E-05-1.77364E-14
 -1      4093 3.65440E-03-4.58087E-05-1.59116E-14
 -1      4094 4.01571E-03-8.29665E-05-1.89742E-14
 -1      4095 4.15964E-03-8.25747E-05-2.02506E-14
 -1      4096 3.94322E-03-4.54790E-05-1.83045E-14
 -1      4097 4.30335E-03-8.21379E-05-2.15662E-14
 -1      4098 4.44682E-03-8.16446E-05-2.29191E-14
 -1      4099 4.23115E-03-4.50126E-05-2.08535E-14
 -1      4100 4.59004E-03-8.11079E-05-2.43087E-14
 -1      4101 4.73299E-03-8.05144E-05-2.57366E-14
 -1      4102 4.51811E-03-4.44352E-05-2.35546E-14
 -1      4103 4.87566E-03-7.98764E-05-2.72000E-14
 -1      4104 5.01803E-03-7.91764E-05-2.87005E-14
 -1      4105 4.80401E-03-4.37404E-05-2.64038E-14
 -1      4106 5.16007E-03-7.84304E-05-3.02385E-14
 -1      4107 5.30176E-03-7.76169E-05-3.18115E-14
 -1      4108 5.08868E-03-4.29254E-05-2.94002E-14
 -1      4109 5.44306E-03-7.67478E-05-3.34200E-14
 -1      4110 5.58395E-03-7.58034E-05-3.50641E-14
 -1      4111 5.37195E-03-4.19763E-05-3.25421E-14
 -1      4112 5.72437E-03-7.47988E-05-3.67431E-14
 -1      4113 5.86430E-03-7.37093E-05-3.84567E-14
 -1      4114 5.65354E-03-4.08722E-05-3.58249E-14
 -1      4115 6.00365E-03-7.25562E-05-4.02049E-14
 -1      4116 6.14241E-03-7.13093E-05-4.19870E-14
 -1      4117 5.93311E-03-3.95924E-05-3.92481E-14
 -1      4118 6.28048E-03-6.99983E-05-4.38035E-14
 -1      4119 6.41782E-03-6.85856E-05-4.56517E-14
 -1      4120 6.21024E-03-3.81152E-05-4.28084E-14
 -1      4121 6.55433E-03-6.71126E-05-4.75323E-14
 -1      4122 6.68996E-03-6.55313E-05-4.94442E-14
 -1      4123 6.48441E-03-3.64194E-05-4.65001E-14
 -1      4124 6.82459E-03-6.38980E-05-5.13879E-14
 -1      4125 6.95817E-03-6.21498E-05-5.33627E-14
 -1      4126 6.75499E-03-3.44848E-05-5.03186E-14
 -1      4127 7.09055E-03-6.03615E-05-5.53682E-14
 -1      4128 7.22168E-03-5.84481E-05-5.74034E-14
 -1      4129 7.02124E-03-3.22888E-05-5.42641E-14
 -1      4130 7.35136E-03-5.65075E-05-5.94678E-14
 -1      4131 7.47956E-03-5.44191E-05-6.15610E-14
 -1      4132 7.28226E-03-2.98000E-05-5.83278E-14
 -1      4133 7.60599E-03-5.23133E-05-6.36812E-14
 -1      4134 7.73064E-03-5.00032E-05-6.58294E-14
 -1      4135 7.53690E-03-2.69631E-05-6.25073E-14
 -1      4136 7.85310E-03-4.76739E-05-6.80058E-14
 -1      4137 7.97340E-03-4.50186E-05-7.02082E-14
 -1      4138 7.78367E-03-2.36619E-05-6.67991E-14
 -1      4139 6.36353E-03 1.03317E-04-4.43449E-14
 -1      4140 6.22567E-03 1.04953E-04-4.25236E-14
 -1      4141 1.90024E-03-6.40709E-05-4.92960E-15
 -1      4142 5.80821E-03 1.09361E-04-3.72553E-14
 -1      4143 5.66794E-03 1.10677E-04-3.55661E-14
 -1      4144 5.24452E-03 1.14104E-04-3.07107E-14
 -1      4145 5.10263E-03 1.15095E-04-2.91650E-14
 -1      4146 6.63688E-03 9.98829E-05-4.80831E-14
 -1      4147 6.50062E-03 1.01641E-04-4.61983E-14
 -1      4148 6.42978E-03 7.07197E-05-4.53851E-14
 -1      4149 6.90651E-03 9.62920E-05-5.19471E-14
 -1      4150 6.77219E-03 9.81180E-05-4.99986E-14
 -1      4151 6.70147E-03 6.84188E-05-4.91594E-14
 -1      4152 7.17169E-03 9.26854E-05-5.59342E-14
 -1      4153 7.03969E-03 9.45050E-05-5.39252E-14
 -1      4154 6.96903E-03 6.60701E-05-5.30590E-14
 -1      4155 7.43150E-03 8.92346E-05-6.00399E-14
 -1      4156 7.30230E-03 9.09626E-05-5.79739E-14
 -1      4157 7.23161E-03 6.37890E-05-5.70823E-14
 -1      4158 7.68483E-03 8.61057E-05-6.42612E-14
 -1      4159 7.55901E-03 8.76683E-05-6.21365E-14
 -1      4160 7.48812E-03 6.17071E-05-6.12220E-14
 -1      4161 7.93026E-03 8.33647E-05-6.85904E-14
 -1      4162 7.80858E-03 8.47690E-05-6.64123E-14
 -1      4163 7.73716E-03 5.99432E-05-6.54756E-14
 -1      4164 3.14781E-03-8.38542E-05-1.21412E-14
 -1      4165 3.29291E-03-8.39225E-05-1.31792E-14
 -1      4166 3.36477E-03-4.59748E-05-1.36776E-14
 -1      4167 1.35092E-02 2.25596E-04-1.42428E-13
 -1      4168 2.27538E-03-7.99799E-05-6.77836E-15
 -1      4169 2.42078E-03-8.11708E-05-7.56777E-15
 -1      4170 2.56626E-03-8.21058E-05-8.39902E-15
 -1      4171 2.71175E-03-8.28069E-05-9.27267E-15
 -1      4172 2.49252E-03-4.47916E-05-7.95650E-15
 -1      4173 6.08713E-03 1.06495E-04-4.07342E-14
 -1      4174 5.94795E-03 1.07977E-04-3.89783E-14
 -1      4175 6.15469E-03 7.28871E-05-4.17376E-14
 -1      4176 1.74862E-03 1.12134E-04-4.12765E-15
 -1      4177 2.85720E-03-8.33180E-05-1.01876E-14
 -1      4178 3.00256E-03-8.36542E-05-1.11439E-14
 -1      4179 2.78360E-03-4.55563E-05-9.69874E-15
 -1      4180 2.01508E-03-7.12728E-05-5.46667E-15
 -1      4181 2.16014E-03-7.28954E-05-6.18037E-15
 -1      4182 2.23179E-03-3.76758E-05-6.53404E-15
 -1      4183 2.00177E-03-2.48752E-05-5.38659E-15
 -1      4184 5.52722E-03 1.11896E-04-3.39117E-14
 -1      4185 5.38606E-03 1.13045E-04-3.22936E-14
 -1      4186 5.31455E-03 7.81817E-05-3.15986E-14
 -1      4187 5.59662E-03 7.66334E-05-3.48392E-14
 -1      4188 8.33649E-03 7.10348E-05-7.66879E-14
 -1      4189 8.32882E-03 8.70266E-05-7.60650E-14
 -1      4190 8.24605E-03 5.74974E-05-7.51514E-14
 -1      4191 2.65363E-03 1.18970E-04-8.70408E-15
 -1      4192 2.50823E-03 1.17795E-04-7.86223E-15
 -1      4193 1.87239E-03 9.98719E-05-4.67822E-15
 -1      4194 4.96041E-03 1.16002E-04-2.76547E-14
 -1      4195 4.81789E-03 1.16848E-04-2.61809E-14
 -1      4196 5.03090E-03 7.95151E-05-2.85014E-14
 -1      4197 4.10141E-03 1.20029E-04-1.93753E-14
 -1      4198 3.95743E-03 1.20462E-04-1.81279E-14
 -1      4199 2.79902E-03 1.19869E-04-9.58730E-15
 -1      4200 2.72487E-03 8.20232E-05-9.19360E-15
 -1      4201 2.94433E-03 1.20506E-04-1.05119E-14
 -1      4202 1.38025E-02 8.36467E-05-1.46339E-13
 -1      4203 3.23796E-03 1.96934E-04-1.23380E-14
 -1      4204 3.16364E-03 1.58946E-04-1.19080E-14
 -1      4205 3.38259E-03 1.97043E-04-1.33801E-14
 -1      4206 4.60435E-03 1.54818E-04-2.39442E-14
 -1      4207 4.24518E-03 1.19535E-04-2.06609E-14
 -1      4208 4.17267E-03 8.23744E-05-2.00950E-14
 -1      4209 4.38872E-03 1.18960E-04-2.19843E-14
 -1      4210 3.07444E-03-4.59170E-05-1.16060E-14
 -1      4211 8.16596E-03 8.08692E-05-7.30229E-14
 -1      4212 8.04933E-03 8.21798E-05-7.07945E-14
 -1      4213 8.23953E-03 8.87160E-05-7.42634E-14
 -1      4214 8.25622E-03 9.36149E-06-7.60175E-14
 -1      4215 8.22695E-03 2.67375E-05-7.52617E-14
 -1      4216 8.23318E-03-7.79422E-06-7.55017E-14
 -1      4217 2.43389E-03 8.03523E-05-7.50391E-15
 -1      4218 2.36284E-03 1.16266E-04-7.06198E-15
 -1      4219 2.21756E-03 1.14375E-04-6.30361E-15
 -1      4220 3.67140E-03 1.96676E-04-1.55851E-14
 -1      4221 3.52708E-03 1.96955E-04-1.44623E-14
 -1      4222 3.74216E-03 1.58733E-04-1.62492E-14
 -1      4223 2.01709E-03 1.02706E-04-5.33689E-15
 -1      4224 5.87680E-03 7.48670E-05-3.82208E-14
 -1      4225 7.97671E-03 5.84876E-05-6.98344E-14
 -1      4226 8.07017E-03-4.64045E-05-7.20113E-14
 -1      4227 8.16803E-03-4.54515E-05-7.38881E-14
 -1      4228 8.18519E-03-2.56864E-05-7.44084E-14
 -1      4229 7.99884E-03-2.33374E-05-7.07765E-14
 -1      4230 3.87092E-03-7.84714E-06-1.76401E-14
 -1      4231 4.01513E-03-7.77577E-06-1.88729E-14
 -1      4232 4.20158E-03 1.86160E-05-2.04827E-14
 -1      4233 4.34525E-03 1.85705E-05-2.18025E-14
 -1      4234 4.73251E-03-7.34857E-06-2.56111E-14
 -1      4235 4.87515E-03-7.23839E-06-2.70699E-14
 -1      4236 5.05944E-03 1.81700E-05-2.89603E-14
 -1      4237 5.20132E-03 1.80739E-05-3.05023E-14
 -1      4238 5.34281E-03 1.79530E-05-3.20792E-14
 -1      4239 5.48390E-03 1.78422E-05-3.36924E-14
 -1      4240 5.62452E-03 1.77048E-05-3.53414E-14
 -1      4241 5.76464E-03 1.75838E-05-3.70251E-14
 -1      4242 5.90421E-03 1.74332E-05-3.87431E-14
 -1      4243 6.04317E-03 1.73094E-05-4.04953E-14
 -1      4244 6.18146E-03 1.71530E-05-4.22812E-14
 -1      4245 6.31901E-03 1.70386E-05-4.41003E-14
 -1      4246 6.45573E-03 1.68892E-05-4.59514E-14
 -1      4247 6.59156E-03 1.68034E-05-4.78334E-14
 -1      4248 6.72640E-03 1.66803E-05-4.97479E-14
 -1      4249 6.86014E-03 1.66510E-05-5.16929E-14
 -1      4250 6.99268E-03 1.65811E-05-5.36697E-14
 -1      4251 7.12389E-03 1.66461E-05-5.56770E-14
 -1      4252 7.25363E-03 1.66631E-05-5.77132E-14
 -1      4253 7.38176E-03 1.68715E-05-5.97789E-14
 -1      4254 7.50806E-03 1.70128E-05-6.18727E-14
 -1      4255 7.63238E-03 1.74259E-05-6.39940E-14
 -1      4256 7.75441E-03 1.77275E-05-6.61434E-14
 -1      4257 7.87393E-03 1.84509E-05-6.83209E-14
 -1      4258 3.88461E-03 8.29468E-05-1.75949E-14
 -1      4259 3.81324E-03 1.20807E-04-1.69192E-14
 -1      4260 3.66886E-03 1.21072E-04-1.57503E-14
 -1      4261 3.29198E-03-8.03584E-06-1.31028E-14
 -1      4262 3.43701E-03-7.99732E-06-1.41768E-14
 -1      4263 2.46235E-03 1.79246E-05-7.73726E-15
 -1      4264 2.60791E-03 1.81524E-05-8.57443E-15
 -1      4265 2.20182E-03 2.33544E-05-6.33591E-15
 -1      4266 2.31687E-03 1.76619E-05-6.94143E-15
 -1      4267 2.75347E-03 1.83152E-05-9.45333E-15
 -1      4268 3.58185E-03-7.95794E-06-1.52912E-14
 -1      4269 3.72649E-03-7.90322E-06-1.64459E-14
 -1      4270 3.79884E-03 2.99106E-05-1.69801E-14
 -1      4271 3.50957E-03 2.99632E-05-1.46763E-14
 -1      4272 2.89898E-03 1.84578E-05-1.03737E-14
 -1      4273 1.96679E-03 1.20214E-05-5.19852E-15
 -1      4274 2.08153E-03 6.43536E-06-5.74940E-15
 -1      4275 4.67509E-03 1.17616E-04-2.47454E-14
 -1      4276 4.53203E-03 1.18325E-04-2.33459E-14
 -1      4277 4.74593E-03 8.06559E-05-2.55506E-14
 -1      4278 3.02290E-03 5.23493E-06-1.12064E-14
 -1      4279 3.16822E-03 5.28748E-06-1.22037E-14
 -1      4280 3.24110E-03 4.32481E-05-1.26680E-14
 -1      4281 2.99392E-03 6.96110E-05-1.09259E-14
 -1      4282 1.96749E-03 5.10630E-05-5.16682E-15
 -1      4283 7.99050E-03 1.89392E-05-7.05241E-14
 -1      4284 4.44634E-03-7.54131E-06-2.28038E-14
 -1      4285 4.58956E-03-7.44420E-06-2.41893E-14
 -1      4286 3.45323E-03 1.59158E-04-1.39976E-14
 -1      4287 3.98591E-03 5.63048E-05-1.85096E-14
 -1      4288 3.84168E-03 5.64594E-05-1.72881E-14
 -1      4289 8.14420E-03-6.90174E-06-7.36691E-14
 -1      4290 8.16215E-03 6.50792E-05-7.32924E-14
 -1      4291 8.17824E-03 5.02558E-05-7.39016E-14
 -1      4292 8.14160E-03 3.32278E-05-7.34027E-14
 -1      4293 4.66115E-03 2.93053E-05-2.48226E-14
 -1      4294 4.41722E-03 5.56388E-05-2.24029E-14
 -1      4295 2.16766E-03 6.12211E-05-6.12313E-15
 -1      4296 4.98863E-03 5.43002E-05-2.81194E-14
 -1      4297 8.05301E-03-5.35418E-06-7.18493E-14
 -1      4298 3.06765E-03 1.07580E-04-1.13553E-14
 -1      4299 3.21278E-03 1.07820E-04-1.23573E-14
 -1      4300 2.08797E-03 6.86859E-05-5.72049E-15
 -1      4301 4.12991E-03 5.61114E-05-1.97694E-14
 -1      4302 3.48089E-03 9.45736E-05-1.43450E-14
 -1      4303 3.33603E-03 9.45792E-05-1.32666E-14
 -1      4304 3.69723E-03 5.65642E-05-1.61064E-14
 -1      4305 4.45981E-03 8.16104E-05-2.27473E-14
 -1      4306 4.56050E-03 5.53481E-05-2.37772E-14
 -1      4307 4.70350E-03 5.50330E-05-2.51867E-14
 -1      4308 3.55258E-03 5.66345E-05-1.49643E-14
 -1      4309 4.84622E-03 5.46828E-05-2.66344E-14
 -3
    1PSTEP                         2           1           1          
  100CL  101 1.000000000        4309                     0    1           1
 -4  STRESS      6    1
 -5  SXX         1    4    1    1
 -5  SYY         1    4    2    2
 -5  SZZ         1    4    3    3
 -5  SXY         1    4    1    2
 -5  SYZ         1    4    2    3
 -5  SZX         1    4    3    1
 -1         1 6.64034E+01 9.24354E-01 3.60614E+00-2.23243E+00-1.31919E-13 1.14421E-12
 -1         2-7.14634E-01-2.54326E+01-3.46834E+00-7.12619E-02 2.01800E-14-4.48877E-14
 -1         3 1.99711E+01-3.07314E-02 5.08411E-02-3.03319E-02-4.29995E-13-4.46003E-13
 -1         4 1.99760E+01-2.45438E-02 5.05984E-02 2.47622E-02 9.28502E-14 6.12174E-14
 -1         5 3.27669E+01 6.14247E+00 2.74256E+00 6.22432E+00-6.04378E-14 4.33030E-12
 -1         6 3.57511E+01 1.22631E+01 5.12562E+00-8.64670E+00-2.69951E-13 3.90366E-12
 -1         7 2.08169E+01 6.09922E+00-1.28759E-01-4.72600E+00-3.83166E-14 5.66606E-13
 -1         8 1.96705E+01 5.93460E+00 5.09068E-02-3.27567E+00-4.67612E-14-4.17185E-13
 -1         9 1.91369E+01 5.77177E+00 4.91608E-02-2.52761E+00-3.82108E-14-9.37261E-13
 -1        10 1.88947E+01 5.69205E+00 5.09530E-02-1.95223E+00-2.60720E-14-1.17139E-12
 -1        11 1.87741E+01 5.65137E+00 5.03046E-02-1.45722E+00-1.46458E-14-1.27749E-12
 -1        12 1.87114E+01 5.62998E+00 4.88953E-02-1.01601E+00-7.99686E-15-1.31223E-12
 -1        13 1.86782E+01 5.61865E+00 4.74971E-02-5.95861E-01-2.64025E-15-1.30526E-12
 -1        14 1.86643E+01 5.61387E+00 4.67669E-02-1.91358E-01 4.26110E-15-1.27868E-12
 -1        15 1.86648E+01 5.61403E+00 4.68061E-02 2.08404E-01 1.24847E-14-1.24586E-12
 -1        16 1.86797E+01 5.61912E+00 4.76215E-02 6.13720E-01 1.82988E-14-1.20475E-12
 -1        17 1.87141E+01 5.63070E+00 4.91263E-02 1.03578E+00 2.18035E-14-1.13111E-12
 -1        18 1.87783E+01 5.65256E+00 5.08599E-02 1.48008E+00 3.21596E-14-1.01074E-12
 -1        19 1.89009E+01 5.69374E+00 5.15472E-02 1.98131E+00 4.27809E-14-8.07616E-13
 -1        20 1.91416E+01 5.77425E+00 4.87698E-02 2.56489E+00 5.24632E-14-4.45055E-13
 -1        21 1.96660E+01 5.94919E+00 4.58715E-02 3.30968E+00 6.05280E-14 2.13616E-13
 -1        22 2.11999E+01 6.38101E+00 1.39624E-01 4.52355E+00 8.96505E-15 1.50030E-12
 -1        23 2.30275E+01-1.37909E+00-9.38241E-01-7.11344E-01-1.84439E-13 2.97548E-12
 -1        24 1.93638E+01-9.94787E-02-3.09830E-01 6.31895E-02-5.29672E-14 2.17705E-12
 -1        25 1.86748E+01-5.63088E-02-6.87557E-02 6.07252E-02-2.32019E-14 1.36809E-12
 -1        26 1.84713E+01-2.20844E-02-6.44675E-03 3.29120E-02-8.27637E-15 8.31843E-13
 -1        27 1.84813E+01-1.17929E-02 1.57055E-03 2.25637E-02-1.64670E-14 4.58624E-13
 -1        28 1.85942E+01-6.23851E-03 1.79200E-03 1.62643E-02-9.79371E-15 2.15023E-13
 -1        29 1.87525E+01-3.08272E-03 1.75893E-03 1.20871E-02-6.47326E-15-3.14375E-14
 -1        30 1.89251E+01-1.24093E-03 1.93294E-03 9.10415E-03 8.11155E-15-1.45276E-13
 -1        31 1.90943E+01-1.66688E-04 2.07768E-03 6.85563E-03 5.83247E-15-3.09521E-13
 -1        32 1.92506E+01 4.27358E-04 2.08542E-03 5.10581E-03-3.70154E-14-5.20435E-13
 -1        33 1.93895E+01 7.06934E-04 1.95755E-03 3.72454E-03 2.98065E-14-6.62746E-13
 -1        34 1.95099E+01 7.72877E-04 1.72572E-03 2.63141E-03 1.04473E-14-6.55926E-13
 -1        35 1.96129E+01 6.88464E-04 1.41841E-03 1.77187E-03 2.24458E-15-7.51320E-13
 -1        36 1.97013E+01 4.93028E-04 1.05303E-03 1.10750E-03-2.56502E-14-7.00230E-13
 -1        37 1.97789E+01 2.09588E-04 6.35890E-04 6.12305E-04-1.43749E-14-7.65203E-13
 -1        38 1.98507E+01-1.50271E-04 1.63857E-04 2.71696E-04-2.39000E-14-8.42492E-13
 -1        39 1.99223E+01-5.82684E-04-3.73786E-04 8.30690E-05-2.14642E-14-9.96441E-13
 -1        40 2.00007E+01-1.08808E-03-9.93248E-04 5.72204E-05-2.37416E-14-1.06681E-12
 -1        41 2.00936E+01-1.66733E-03-1.71347E-03 2.20403E-04 1.14302E-14-1.31859E-12
 -1        42 2.02100E+01-2.31666E-03-2.55182E-03 6.16720E-04-1.62761E-14-1.37521E-12
 -1        43 2.03604E+01-3.02044E-03-3.51686E-03 1.31031E-03-4.21429E-16-1.11915E-12
 -1        44 2.05562E+01-3.74029E-03-4.59546E-03 2.38603E-03 2.94236E-14-8.53586E-13
 -1        45 2.08098E+01-4.39918E-03-5.73007E-03 3.94566E-03-2.56501E-14-1.02699E-12
 -1        46 2.11335E+01-4.85878E-03-6.77962E-03 6.09336E-03 1.10353E-14-1.18058E-12
 -1        47 2.15374E+01-4.89062E-03-7.45610E-03 8.89850E-03-1.10430E-14-9.25959E-13
 -1        48 2.20258E+01-4.14685E-03-7.23272E-03 1.23146E-02 6.95399E-15-7.40040E-13
 -1        49 2.25913E+01-2.15024E-03-5.23917E-03 1.60232E-02-2.97500E-14-8.14055E-13
 -1        50 2.32055E+01 1.65127E-03-2.16342E-04 1.91703E-02 1.65138E-14-1.06997E-12
 -1        51 2.38072E+01 7.68317E-03 9.27831E-03 2.00046E-02-5.51721E-14-1.03721E-12
 -1        52 2.42894E+01 1.57876E-02 2.40629E-02 1.55744E-02 1.85088E-14-7.60459E-13
 -1        53 2.44956E+01 2.44967E-02 4.26066E-02 1.97798E-03-2.96783E-14-9.51251E-13
 -1        54 2.42393E+01 3.03770E-02 5.86321E-02-2.38389E-02 2.83174E-14-1.23404E-12
 -1        55 2.33702E+01 2.83176E-02 6.01863E-02-5.99594E-02-1.52337E-14-1.26821E-12
 -1        56 2.18900E+01 1.41608E-02 3.48033E-02-9.47579E-02 1.59706E-14-1.26950E-12
 -1        57 2.00709E+01-1.07611E-02-1.90200E-02-1.06884E-01 1.30251E-14-1.05429E-12
 -1        58 1.84609E+01-3.68173E-02-8.01020E-02-7.78230E-02 3.48575E-14-1.26981E-12
 -1        59 1.76696E+01-4.99741E-02-1.12304E-01-1.17113E-02-3.29745E-14-1.41464E-12
 -1        60 1.80159E+01-4.21374E-02-9.33636E-02 6.00139E-02-2.10027E-14-1.52781E-12
 -1        61 1.93116E+01-1.80325E-02-3.62602E-02 1.01194E-01 2.87672E-14-1.82069E-12
 -1        62 2.09870E+01 8.89172E-03 2.35029E-02 9.90117E-02-3.13498E-14-2.13745E-12
 -1        63 2.24382E+01 2.68510E-02 5.84347E-02 6.73378E-02 7.02550E-14-1.87124E-12
 -1        64 2.33003E+01 3.20745E-02 6.38504E-02 2.85455E-02-3.84842E-14-1.34748E-12
 -1        65 2.35019E+01 2.75386E-02 5.04779E-02-2.40611E-03-9.03819E-14-1.54551E-12
 -1        66 2.31666E+01 1.82774E-02 3.09607E-02-2.11481E-02 1.77216E-13-1.48034E-12
 -1        67 2.24917E+01 8.08685E-03 1.25379E-02-2.95163E-02 2.46189E-14-9.52670E-13
 -1        68 2.16720E+01-1.26365E-03-3.19023E-03-3.06408E-02 1.27950E-13-3.46424E-13
 -1        69 2.08766E+01-9.18889E-03-1.74783E-02-2.59167E-02 3.55633E-14 2.77782E-13
 -1        70 2.02602E+01-1.25209E-02-2.73244E-02-1.12164E-02-4.00065E-14 4.65661E-13
 -1        71 1.99696E+01 3.83978E-03-9.51619E-03 1.17886E-02-8.88423E-14 3.61376E-13
 -1        72 2.10401E+01-4.04867E-01-9.80361E-01-3.11521E-01 6.57842E-14 3.97661E-12
 -1        73 1.93284E+01-6.58806E-02-2.91136E-01-5.38089E-02 3.30278E-14 3.08001E-12
 -1        74 1.86841E+01-2.05023E-02-6.42687E-02-2.03285E-02 1.73202E-14 2.41153E-12
 -1        75 1.84803E+01-9.87426E-03-9.29916E-03-1.54258E-02 3.04834E-15 1.93101E-12
 -1        76 1.84904E+01-5.16174E-03 6.98060E-04-1.23506E-02 1.58675E-14 1.56658E-12
 -1        77 1.86024E+01-2.61408E-03 1.76491E-03-1.00656E-02 1.12846E-14 1.32064E-12
 -1        78 1.87597E+01-1.15053E-03 1.89939E-03-8.30499E-03-9.70399E-15 1.18530E-12
 -1        79 1.89312E+01-2.97797E-04 2.08451E-03-6.84542E-03 9.28632E-15 1.07636E-12
 -1        80 1.90993E+01 1.83927E-04 2.20982E-03-5.57908E-03-5.44612E-15 9.13448E-13
 -1        81 1.92547E+01 4.27677E-04 2.19501E-03-4.46196E-03 2.27290E-14 7.14896E-13
 -1        82 1.93927E+01 5.12557E-04 2.04590E-03-3.47399E-03 1.69069E-14 5.49126E-13
 -1        83 1.95124E+01 4.87349E-04 1.79438E-03-2.60209E-03-3.46865E-14 4.62828E-13
 -1        84 1.96146E+01 3.82209E-04 1.46861E-03-1.83432E-03 2.88949E-14 4.29087E-13
 -1        85 1.97023E+01 2.14891E-04 1.08540E-03-1.15872E-03 5.66651E-15 3.85013E-13
 -1        86 1.97793E+01-5.56850E-06 6.50182E-04-5.63988E-04 1.49149E-14 2.39871E-13
 -1        87 1.98504E+01-2.76362E-04 1.58584E-04-4.12137E-05-3.05047E-14 1.58810E-13
 -1        88 1.99215E+01-5.98863E-04-4.01951E-04 4.13897E-04-1.87019E-15 1.62663E-13
 -1        89 1.99995E+01-9.76530E-04-1.05044E-03 7.97972E-04 2.41612E-14 9.74377E-14
 -1        90 2.00924E+01-1.41226E-03-1.81014E-03 1.09590E-03 1.38080E-14-8.23190E-14
 -1        91 2.02094E+01-1.90455E-03-2.70495E-03 1.27524E-03 4.12243E-15-1.44519E-13
 -1        92 2.03615E+01-2.44149E-03-3.75311E-03 1.27851E-03-3.60298E-14-4.56656E-14
 -1        93 2.05610E+01-2.99124E-03-4.95517E-03 1.01267E-03-1.54863E-14 1.10215E-14
 -1        94 2.08217E+01-3.48718E-03-6.27149E-03 3.35814E-04-2.83802E-14-1.54418E-13
 -1        95 2.11581E+01-3.80594E-03-7.58086E-03-9.56740E-04 1.81607E-14-3.21105E-13
 -1        96 2.15833E+01-3.73852E-03-8.60830E-03-3.13905E-03 6.30623E-15-7.98766E-14
 -1        97 2.21062E+01-2.96067E-03-8.81032E-03-6.53287E-03 1.24881E-14-1.79260E-13
 -1        98 2.27246E+01-1.02457E-03-7.22202E-03-1.14116E-02-9.21201E-15-2.27268E-13
 -1        99 2.34156E+01 2.57474E-03-2.33267E-03-1.77458E-02-4.21058E-14-7.93159E-14
 -1       100 2.41210E+01 8.15920E-03 7.79121E-03-2.46738E-02 4.59004E-14 6.56610E-14
 -1       101 2.47297E+01 1.53288E-02 2.46632E-02-2.96451E-02-8.72439E-14-1.28549E-13
 -1       102 2.50670E+01 2.21569E-02 4.72266E-02-2.75594E-02-7.05382E-16 9.60110E-14
 -1       103 2.49084E+01 2.46443E-02 6.84262E-02-1.12070E-02 1.15795E-14-3.38393E-14
 -1       104 2.40501E+01 1.79423E-02 7.33934E-02 2.45870E-02-1.47898E-14 4.31044E-14
 -1       105 2.24517E+01 2.37676E-04 4.47641E-02 7.44689E-02 4.53688E-14 3.04857E-13
 -1       106 2.04013E+01-2.24461E-02-2.05916E-02 1.15086E-01-1.41812E-13 3.62474E-13
 -1       107 1.85498E+01-3.76254E-02-9.69541E-02 1.14145E-01 4.73796E-15 7.46347E-14
 -1       108 1.76550E+01-3.56792E-02-1.35245E-01 5.80258E-02 9.17799E-15-6.33388E-13
 -1       109 1.81116E+01-1.88965E-02-1.07753E-01-2.61759E-02-2.49590E-14-1.44960E-13
 -1       110 1.96628E+01 2.17405E-03-3.44361E-02-9.03968E-02 6.58424E-14-6.31391E-13
 -1       111 2.15862E+01 1.76259E-02 3.68814E-02-1.07258E-01 5.62692E-14-6.29392E-13
 -1       112 2.31630E+01 2.35271E-02 7.37095E-02-8.45720E-02-1.69979E-13 1.65704E-13
 -1       113 2.40073E+01 2.14374E-02 7.45410E-02-4.65721E-02 1.23575E-13 3.67654E-13
 -1       114 2.40933E+01 1.50698E-02 5.50749E-02-1.23082E-02-4.69388E-14-4.38667E-13
 -1       115 2.36046E+01 7.63773E-03 3.10062E-02 1.10527E-02 7.53293E-14-6.03086E-13
 -1       116 2.27811E+01 7.86275E-04 1.02407E-02 2.42796E-02 6.46670E-14-9.46462E-13
 -1       117 2.18376E+01-5.10231E-03-6.47448E-03 3.05281E-02-3.21149E-14-8.43804E-13
 -1       118 2.09498E+01-9.92138E-03-2.13844E-02 3.17162E-02 1.17130E-13-8.15721E-13
 -1       119 2.02751E+01-1.19489E-02-3.19482E-02 2.45236E-02-8.16168E-14-1.17118E-12
 -1       120 1.99751E+01 1.16256E-02-6.72271E-03-3.90303E-03 1.33029E-13-6.72307E-13
 -1       121 1.99978E+01-5.39916E-03-7.93502E-03-1.32541E-02-5.25317E-13 1.01513E-13
 -1       122 1.99842E+01 3.01680E-01-3.05668E-02 1.39767E-02 7.73682E-14-5.93757E-14
 -1       123 1.99897E+01 9.72148E-01-1.95351E-02 2.83080E-02 4.64897E-13 1.24759E-13
 -1       124 1.99971E+01 1.83628E+00-5.54658E-03 3.36165E-02 4.50981E-13 2.35771E-15
 -1       125 2.00049E+01 2.74948E+00 7.39007E-03 3.31106E-02 7.18696E-14-9.69316E-14
 -1       126 2.00126E+01 3.56488E+00 1.88824E-02 2.80111E-02-1.16732E-12 7.13230E-14
 -1       127 2.00181E+01 4.18441E+00 2.76510E-02 1.81357E-02-1.08495E-12 3.00724E-14
 -1       128 2.00210E+01 4.49665E+00 3.20730E-02 5.09419E-03-8.06339E-13-6.75212E-14
 -1       129 2.00204E+01 4.45272E+00 3.09958E-02-8.71632E-03 1.91326E-13-8.19072E-14
 -1       130 2.00166E+01 4.06387E+00 2.48020E-02-2.06267E-02 8.91006E-13-6.51162E-14
 -1       131 2.00103E+01 3.39793E+00 1.50898E-02-2.88989E-02-7.59599E-13-1.27824E-13
 -1       132 2.00031E+01 2.57484E+00 4.10210E-03-3.20335E-02-8.87842E-13 2.94730E-13
 -1       133 1.99959E+01 1.68884E+00-7.56906E-03-3.10321E-02 4.28543E-13 1.96072E-13
 -1       134 1.99875E+01 8.74112E-01-2.08578E-02-2.71407E-02 7.06529E-13-3.29388E-13
 -1       135 1.99872E+01 2.72300E-01-2.50356E-02-1.77566E-02-5.06492E-14-1.53109E-13
 -1       136 1.99868E+01 2.24733E-03-5.85902E-03 2.72091E-02-4.98996E-13 6.69144E-15
 -1       137-1.48419E+00-2.04358E+01-3.16415E+00-3.99383E+00 3.29681E-13 5.35579E-14
 -1       138-1.58532E+00-8.59179E+00-2.30807E+00-3.04803E+00 8.04745E-13 6.84564E-13
 -1       139 3.37835E+00 3.80273E+00-1.02518E+00 3.87628E+00 1.60899E-12 1.30873E-12
 -1       140 1.63350E+01 1.06954E+01 4.63788E-01 1.31074E+01 1.70486E-12 2.08433E-12
 -1       141 3.51722E+01 1.01645E+01 1.88618E+00 1.83999E+01 8.81961E-13 1.45439E-12
 -1       142 5.50162E+01 5.14956E+00 3.04779E+00 1.55661E+01 2.61000E-13 2.66565E-13
 -1       143 6.60513E+01 1.20411E+00 3.62198E+00 4.63302E+00-5.97092E-14-7.47222E-13
 -1       144 6.32959E+01 2.14763E+00 3.46673E+00-8.84194E+00 4.60545E-13-2.13174E-12
 -1       145 4.83328E+01 6.88109E+00 2.62826E+00-1.72519E+01 1.20037E-12-3.23708E-12
 -1       146 2.83346E+01 1.07455E+01 1.35988E+00-1.70699E+01 2.05541E-12-3.14870E-12
 -1       147 1.08579E+01 9.06371E+00-9.77725E-02-9.95208E+00 2.77850E-12-2.77994E-12
 -1       148 1.00907E+00 5.32834E-01-1.45083E+00-1.19420E+00 2.29883E-12-1.48470E-12
 -1       149-1.92587E+00-1.26106E+01-2.60607E+00 4.12536E+00 2.05119E-12-7.41615E-13
 -1       150-1.12524E+00-2.21236E+01-3.21758E+00 3.08061E+00 1.24264E-12-2.22035E-13
 -1       151-8.32125E-01-2.42398E+01-3.34256E+00-1.29853E+00-7.12180E-13-1.39808E-13
 -1       152-1.79983E+00-1.68649E+01-2.88290E+00-4.23879E+00-1.99663E-12-5.52378E-13
 -1       153-4.24268E-01-3.46781E+00-1.84819E+00-8.66321E-01-3.16291E-12-2.02424E-12
 -1       154 7.41140E+00 7.32014E+00-4.62161E-01 7.47824E+00-3.12111E-12-2.58249E-12
 -1       155 2.44846E+01 1.10566E+01 1.08086E+00 1.61438E+01-1.56808E-12-2.24193E-12
 -1       156 4.39722E+01 8.00085E+00 2.36189E+00 1.81334E+01-6.84619E-13-1.51373E-12
 -1       157 6.14834E+01 2.68705E+00 3.34958E+00 1.06317E+01-1.46671E-14 2.74780E-14
 -1       158 5.69950E+01 4.40457E+00 3.14229E+00-1.44552E+01-4.45956E-13 1.79928E-12
 -1       159 3.74963E+01 9.76968E+00 2.04358E+00-1.85286E+01-6.67910E-13 1.30229E-12
 -1       160 1.70112E+01 1.08580E+01 5.44883E-01-1.34580E+01-8.42215E-13 7.39298E-13
 -1       161 3.52024E+00 4.15110E+00-9.92498E-01-4.09997E+00-1.09268E-12 7.74381E-13
 -1       162-1.58715E+00-8.52902E+00-2.29582E+00 3.03189E+00 2.96929E-13 2.16466E-13
 -1       163-1.44343E+00-2.05351E+01-3.16149E+00 4.02219E+00 6.77236E-13-3.06442E-13
 -1       164 2.10115E+01 3.69398E+00-5.73516E-02-3.61114E+00-5.95933E-13 6.46254E-14
 -1       165 1.99897E+01 4.20767E+00-4.57418E-02-2.81049E+00-5.28401E-13-5.40623E-13
 -1       166 1.95086E+01 4.47678E+00-3.16117E-02-2.19529E+00-4.22099E-13-8.68626E-13
 -1       167 1.92674E+01 4.61507E+00-2.37709E-02-1.67653E+00-2.92179E-13-1.01817E-12
 -1       168 1.91383E+01 4.69663E+00-1.94860E-02-1.22004E+00-1.84344E-13-1.08118E-12
 -1       169 1.90651E+01 4.74777E+00-1.74142E-02-7.92673E-01-8.46806E-14-1.08982E-12
 -1       170 1.90282E+01 4.77568E+00-1.64252E-02-3.87193E-01 7.84431E-15-1.08063E-12
 -1       171 1.90174E+01 4.78423E+00-1.61381E-02 8.29112E-03 1.03161E-13-1.05892E-12
 -1       172 1.90299E+01 4.77440E+00-1.64708E-02 4.04113E-01 1.92437E-13-1.03040E-12
 -1       173 1.90687E+01 4.74483E+00-1.75239E-02 8.10673E-01 2.68721E-13-9.73948E-13
 -1       174 1.91426E+01 4.69237E+00-1.96902E-02 1.23241E+00 3.57706E-13-8.72362E-13
 -1       175 1.92774E+01 4.60520E+00-2.40086E-02 1.69928E+00 4.71639E-13-7.26433E-13
 -1       176 1.95234E+01 4.45940E+00-3.28530E-02 2.22771E+00 5.63179E-13-4.86266E-13
 -1       177 2.00121E+01 4.18371E+00-4.72178E-02 2.84789E+00 6.22993E-13-4.99635E-14
 -1       178 2.11332E+01 3.46363E+00-5.97892E-02 3.53762E+00 5.87658E-13 7.44481E-13
 -1       179 2.24172E+01 1.14346E+00-3.36471E-01 3.01548E+00 4.38196E-13 1.77545E-12
 -1       180 2.19693E+01 8.58322E-01 6.66916E-04-1.95970E+00-5.22263E-13 8.24486E-13
 -1       181 2.04442E+01 1.90247E-01-9.97711E-03-7.64799E-01-4.51113E-13 5.73526E-13
 -1       182 1.96682E+01 1.01512E-01 1.35707E-02-2.86389E-01-3.29424E-13 3.50745E-13
 -1       183 1.93276E+01 4.72647E-02 1.00076E-02-6.90509E-02-2.20551E-13 1.68909E-13
 -1       184 1.91971E+01 2.25406E-02 5.14157E-03 3.83695E-02-1.65487E-13 4.96127E-14
 -1       185 1.91829E+01 9.47412E-03 2.43942E-03 9.09188E-02-1.51864E-13-3.31232E-14
 -1       186 1.92307E+01 2.11954E-03 1.13771E-03 1.13275E-01-9.75911E-14-1.01882E-13
 -1       187 1.93093E+01-2.04288E-03 5.06973E-04 1.18337E-01-1.01416E-13-1.81013E-13
 -1       188 1.94000E+01-4.24352E-03 1.79083E-04 1.13597E-01-1.21374E-13-2.09593E-13
 -1       189 1.94921E+01-5.16446E-03 4.00242E-06 1.03771E-01-1.00595E-13-2.37922E-13
 -1       190 1.95798E+01-5.22448E-03-8.09622E-05 9.19673E-02-6.85686E-14-4.02396E-13
 -1       191 1.96604E+01-4.68975E-03-1.06276E-04 8.03034E-02-4.09827E-14-4.75725E-13
 -1       192 1.97336E+01-3.72647E-03-8.92455E-05 7.02687E-02 2.37599E-14-4.88912E-13
 -1       193 1.98008E+01-2.43007E-03-4.04242E-05 6.29685E-02-5.19526E-14-4.10206E-13
 -1       194 1.98646E+01-8.43774E-04 3.37787E-05 5.92952E-02-9.29652E-14-4.23803E-13
 -1       195 1.99286E+01 1.02774E-03 1.29599E-04 6.00533E-02-6.86333E-14-4.97748E-13
 -1       196 1.99973E+01 3.20633E-03 2.44715E-04 6.60463E-02-1.29896E-13-5.46303E-13
 -1       197 2.00760E+01 5.72741E-03 3.77028E-04 7.81298E-02-6.69378E-14-6.64827E-13
 -1       198 2.01710E+01 8.62324E-03 5.23171E-04 9.72228E-02-6.65902E-14-6.52050E-13
 -1       199 2.02893E+01 1.18984E-02 6.76500E-04 1.24264E-01 1.12335E-13-6.40983E-13
 -1       200 2.04387E+01 1.54911E-02 8.24302E-04 1.60086E-01 1.07370E-13-6.58496E-13
 -1       201 2.06271E+01 1.92115E-02 9.44049E-04 2.05161E-01-7.85161E-14-5.89275E-13
 -1       202 2.08626E+01 2.26438E-02 9.98936E-04 2.59148E-01 2.49032E-14-4.38498E-13
 -1       203 2.11514E+01 2.49979E-02 9.33979E-04 3.20142E-01 1.09790E-13-3.64517E-13
 -1       204 2.14967E+01 2.49045E-02 6.76144E-04 3.83501E-01 4.78354E-14-3.88899E-13
 -1       205 2.18951E+01 2.01819E-02 1.45426E-04 4.40183E-01-4.69512E-14-3.82978E-13
 -1       206 2.23327E+01 7.69602E-03-7.12765E-04 4.74682E-01-6.85238E-14-3.88705E-13
 -1       207 2.27799E+01-1.63532E-02-1.86458E-03 4.63227E-01-3.42657E-14-4.72210E-13
 -1       208 2.31853E+01-5.50505E-02-3.10214E-03 3.74060E-01 8.77241E-14-3.88093E-13
 -1       209 2.34738E+01-1.07347E-01-3.99893E-03 1.73412E-01 1.15329E-14-3.61814E-13
 -1       210 2.35513E+01-1.62099E-01-3.95871E-03-1.57589E-01-1.99370E-13-1.84819E-13
 -1       211 2.33262E+01-1.92249E-01-2.56680E-03-5.92169E-01-1.31825E-13-3.26223E-13
 -1       212 2.27537E+01-1.58794E-01-3.59998E-04-1.02412E+00 5.96224E-15-3.79543E-13
 -1       213 2.18976E+01-3.42683E-02 1.64962E-03-1.26628E+00 7.09665E-14-3.19191E-13
 -1       214 2.09728E+01 1.55123E-01 2.18882E-03-1.12598E+00-1.42293E-13-5.72938E-13
 -1       215 2.03044E+01 3.13417E-01 1.53505E-03-5.58172E-01-2.01523E-13-6.75550E-13
 -1       216 2.01646E+01 3.36242E-01 1.27074E-03 2.33961E-01-2.10193E-13-1.10969E-12
 -1       217 2.05927E+01 2.06306E-01 1.81015E-03 8.93397E-01-7.25075E-14-1.07322E-12
 -1       218 2.13638E+01 1.17724E-02 1.72809E-03 1.15269E+00-1.41934E-13-1.01530E-12
 -1       219 2.21440E+01-1.39158E-01 1.83696E-04 9.89930E-01 4.19872E-14-9.87000E-13
 -1       220 2.26737E+01-1.98688E-01-2.11634E-03 5.73137E-01 1.82347E-13-1.09435E-12
 -1       221 2.28467E+01-1.82435E-01-3.71955E-03 1.05973E-01 1.30450E-13-1.00007E-12
 -1       222 2.26857E+01-1.29120E-01-3.86857E-03-2.75430E-01 2.51823E-13-5.01064E-13
 -1       223 2.22816E+01-6.90662E-02-2.82889E-03-5.18057E-01 4.47184E-13-2.47018E-13
 -1       224 2.17447E+01-1.57176E-02-1.24018E-03-6.21328E-01 3.44574E-13 6.62990E-14
 -1       225 2.11781E+01 2.99800E-02 1.11319E-04-6.02851E-01 2.94955E-13-6.87328E-14
 -1       226 2.06687E+01 7.34682E-02 1.02699E-03-4.78496E-01 1.42534E-13-2.81358E-13
 -1       227 2.02695E+01 1.13717E-01 9.87723E-04-2.64776E-01 3.14449E-14-1.24051E-13
 -1       228 2.09607E+01 2.77037E-01-5.13398E-02 1.16550E+00 4.40793E-13 1.51542E-12
 -1       229 1.98653E+01 1.26829E-01 8.30786E-03 4.43816E-01 3.37729E-13 1.16884E-12
 -1       230 1.93582E+01 5.80375E-02 1.27337E-02 1.50833E-01 2.53445E-13 8.81743E-13
 -1       231 1.91477E+01 2.76867E-02 7.62792E-03 1.16388E-02 1.91087E-13 6.84030E-13
 -1       232 1.90970E+01 1.30367E-02 3.82425E-03-5.74065E-02 1.19042E-13 5.74023E-13
 -1       233 1.91318E+01 5.10674E-03 1.91094E-03-8.97808E-02 5.42524E-14 4.63443E-13
 -1       234 1.92100E+01 5.98478E-04 1.01206E-03-1.01578E-01 7.35805E-14 4.22314E-13
 -1       235 1.93070E+01-1.93303E-03 5.56939E-04-1.01576E-01 1.12621E-13 3.42564E-13
 -1       236 1.94085E+01-3.22295E-03 3.01049E-04-9.50584E-02 1.21358E-13 1.79577E-13
 -1       237 1.95063E+01-3.69556E-03 1.50419E-04-8.54168E-02 5.43189E-14 2.04172E-13
 -1       238 1.95965E+01-3.61417E-03 6.55696E-05-7.49107E-02 3.59707E-14 1.81977E-13
 -1       239 1.96778E+01-3.14540E-03 2.60325E-05-6.50935E-02 5.31784E-14 1.28202E-13
 -1       240 1.97511E+01-2.39088E-03 1.92715E-05-5.70769E-02 3.67612E-14 7.57495E-14
 -1       241 1.98185E+01-1.40519E-03 3.70282E-05-5.17120E-02 8.59145E-14-1.49224E-14
 -1       242 1.98833E+01-2.07518E-04 7.37046E-05-4.97215E-02 3.50546E-14-2.06046E-14
 -1       243 1.99498E+01 1.20975E-03 1.25297E-04-5.17968E-02 5.15752E-14-1.10251E-13
 -1       244 2.00233E+01 2.87355E-03 1.88460E-04-5.86694E-02 8.65609E-14-1.63215E-13
 -1       245 2.01099E+01 4.82182E-03 2.59525E-04-7.11541E-02 9.87526E-14-1.87995E-13
 -1       246 2.02168E+01 7.09220E-03 3.33281E-04-9.01610E-02-2.28052E-14-1.12775E-13
 -1       247 2.03523E+01 9.70432E-03 4.01357E-04-1.16659E-01-1.07889E-13-1.28245E-13
 -1       248 2.05255E+01 1.26302E-02 4.50112E-04-1.51564E-01-1.40197E-14-2.33324E-14
 -1       249 2.07462E+01 1.57435E-02 4.58236E-04-1.95506E-01 1.23994E-13-1.67152E-13
 -1       250 2.10240E+01 1.87343E-02 3.95074E-04-2.48384E-01 7.66369E-14-3.65326E-13
 -1       251 2.13669E+01 2.09715E-02 2.22478E-04-3.08603E-01-5.72808E-14-3.12143E-13
 -1       252 2.17790E+01 2.12992E-02-9.38878E-05-3.71820E-01 3.03692E-14-1.37871E-13
 -1       253 2.22561E+01 1.77816E-02-5.54364E-04-4.29066E-01 3.33646E-14-9.29625E-14
 -1       254 2.27798E+01 7.50468E-03-1.06775E-03-4.64308E-01-1.30708E-13-1.50531E-15
 -1       255 2.33100E+01-1.32376E-02-1.37957E-03-4.52140E-01-7.06660E-14 1.17349E-13
 -1       256 2.37764E+01-4.76345E-02-1.05003E-03-3.57786E-01 7.74214E-14 1.59989E-13
 -1       257 2.40753E+01-9.47990E-02 3.65333E-04-1.44087E-01 5.18045E-14-1.76356E-13
 -1       258 2.40802E+01-1.43299E-01 2.87906E-03 2.07672E-01 6.05982E-15-1.93063E-13
 -1       259 2.36784E+01-1.65355E-01 5.15906E-03 6.59604E-01-7.18037E-14-2.62411E-13
 -1       260 2.28437E+01-1.22408E-01 4.73970E-03 1.07850E+00-5.26562E-14-4.32779E-14
 -1       261 2.17214E+01 5.62726E-03-4.94407E-04 1.24521E+00-8.60026E-14 2.20522E-13
 -1       262 2.06594E+01 1.77001E-01-9.17599E-03 9.70372E-01 2.47040E-13-1.00744E-13
 -1       263 2.00870E+01 2.89202E-01-1.36675E-02 2.78201E-01 2.02835E-13-1.59898E-13
 -1       264 2.02570E+01 2.58757E-01-9.45497E-03-5.25827E-01-1.76198E-13-2.72587E-13
 -1       265 2.10552E+01 1.09960E-01-9.44775E-05-1.05156E+00 1.99161E-13-1.72942E-13
 -1       266 2.20847E+01-5.37039E-02 6.45191E-03-1.11012E+00-9.68667E-14 1.35098E-13
 -1       267 2.29322E+01-1.49943E-01 6.92283E-03-7.91793E-01-3.19466E-13 2.97135E-13
 -1       268 2.33627E+01-1.65125E-01 3.74504E-03-3.20678E-01 2.82683E-13 7.69593E-14
 -1       269 2.33438E+01-1.30127E-01 3.31330E-04 1.12777E-01 1.91599E-13 6.73300E-14
 -1       270 2.29687E+01-7.95680E-02-1.50125E-03 4.16436E-01 2.24254E-13-1.30220E-13
 -1       271 2.23750E+01-3.29877E-02-1.75318E-03 5.75902E-01-1.64734E-15-1.18903E-13
 -1       272 2.16963E+01 4.88470E-03-1.40986E-03 6.10805E-01 1.17569E-14-1.20518E-13
 -1       273 2.10457E+01 3.70594E-02-1.68654E-03 5.43186E-01 1.41330E-13-2.89790E-13
 -1       274 2.05154E+01 7.08685E-02-1.41262E-03 3.84514E-01 9.35558E-15-1.23599E-13
 -1       275 2.01588E+01 8.99992E-02 1.29517E-03 1.56090E-01-8.84762E-14-8.12243E-14
 -1       276 2.01188E+01 3.12430E-01 1.93215E-03 2.99591E-01 5.88233E-14 3.40341E-13
 -1       277 2.00813E+01 7.32845E-01 1.13268E-03 5.25215E-01 2.93236E-13 2.31782E-13
 -1       278 2.00357E+01 1.27977E+00 5.19002E-04 6.63586E-01 1.46705E-13-7.21146E-14
 -1       279 1.99938E+01 1.89014E+00-3.96307E-04 6.99124E-01-4.96166E-14-2.46285E-13
 -1       280 1.99534E+01 2.47444E+00-1.73582E-03 6.34358E-01-1.89546E-13-7.12970E-13
 -1       281 1.99178E+01 2.96899E+00-2.82950E-03 4.73716E-01-2.06568E-13-7.45508E-14
 -1       282 1.98942E+01 3.28689E+00-3.54970E-03 2.38734E-01-2.34245E-13 1.47935E-13
 -1       283 1.98881E+01 3.37819E+00-3.75137E-03-3.36150E-02 2.24460E-13 5.27158E-13
 -1       284 1.99010E+01 3.22955E+00-3.42655E-03-2.97519E-01-1.69585E-14 2.52274E-13
 -1       285 1.99292E+01 2.86776E+00-2.61273E-03-5.10097E-01-1.04021E-13-8.37176E-13
 -1       286 1.99650E+01 2.36196E+00-1.39171E-03-6.40359E-01 1.22089E-13 8.26054E-14
 -1       287 2.00034E+01 1.77048E+00-1.63182E-04-6.79963E-01 2.37427E-13 5.76333E-13
 -1       288 2.00402E+01 1.18263E+00 8.69815E-04-6.26241E-01 1.63766E-13 3.24709E-13
 -1       289 2.00808E+01 6.70620E-01 1.98362E-03-4.78931E-01 9.56370E-14-3.60352E-13
 -1       290 2.01702E+01 3.61887E-01 2.65095E-03-4.18550E-01 1.00642E-13-4.93361E-13
 -1       291-8.35856E-01-1.08090E+01-9.35437E-01 1.20259E+00 7.67719E-14 2.43333E-13
 -1       292 2.93155E+00-8.72751E+00-7.60994E-01 3.68186E+00 3.52135E-13 4.29899E-13
 -1       293 9.95880E+00-5.28956E+00-4.73824E-01 5.76546E+00 3.95295E-13 9.93747E-13
 -1       294 1.93981E+01-1.32483E+00-8.73469E-02 7.14999E+00 5.39541E-13 7.95780E-13
 -1       295 2.94120E+01 2.53731E+00 3.51673E-01 7.68930E+00 9.32282E-13 1.93845E-13
 -1       296 3.87677E+01 4.89176E+00 6.99930E-01 5.90672E+00 6.37951E-13-4.01068E-14
 -1       297 4.55584E+01 6.37533E+00 1.01264E+00 3.38638E+00 5.97883E-13-2.56350E-13
 -1       298 4.56227E+01 7.05416E+00 9.06750E-01-4.03435E-01 7.02216E-13-7.24362E-13
 -1       299 4.30075E+01 5.93453E+00 8.39305E-01-3.89222E+00 9.51267E-13-1.00911E-12
 -1       300 3.57116E+01 3.92133E+00 5.52671E-01-6.30314E+00 9.09849E-13-1.30868E-12
 -1       301 2.57410E+01 1.40991E+00 1.86866E-01-7.54357E+00 1.15294E-12-1.29330E-12
 -1       302 1.56021E+01-2.19064E+00-2.42447E-01-6.67007E+00 9.29590E-13-1.46180E-12
 -1       303 6.81055E+00-6.31161E+00-6.50895E-01-4.67709E+00 9.81493E-13-8.35478E-13
 -1       304 1.22243E+00-9.60306E+00-8.80006E-01-2.54772E+00 5.92248E-13-5.34170E-13
 -1       305-1.16012E+00-1.01856E+01-8.46296E-01-5.46887E-01 3.71751E-14-8.40578E-13
 -1       306-9.35414E-02-1.00077E+01-8.48445E-01 1.92834E+00-2.85591E-13-8.33972E-13
 -1       307 5.40782E+00-7.16004E+00-5.55766E-01 4.81874E+00-7.10931E-13-1.11317E-12
 -1       308 1.28020E+01-3.36575E+00-3.54831E-01 6.23641E+00-1.20542E-12-9.35224E-13
 -1       309 2.38044E+01-1.18468E-02 6.90151E-02 7.06962E+00-1.25713E-12-5.89834E-13
 -1       310 3.37759E+01 3.72180E+00 5.15177E-01 7.15383E+00-9.32421E-13-2.95097E-13
 -1       311 4.24414E+01 5.70630E+00 8.94622E-01 5.09538E+00-6.60604E-13 9.08440E-14
 -1       312 4.53020E+01 6.94530E+00 8.82525E-01 9.59560E-01-5.79897E-13 4.35880E-13
 -1       313 4.61008E+01 6.46493E+00 1.03535E+00-2.83774E+00-4.36401E-13 7.02507E-13
 -1       314 3.96285E+01 5.20098E+00 7.36753E-01-5.66088E+00-6.97532E-14 7.08933E-13
 -1       315 3.02645E+01 2.53266E+00 3.64562E-01-7.35911E+00-1.76636E-13 5.91194E-13
 -1       316 1.92140E+01-7.51018E-01-8.07286E-02-7.31631E+00-1.60982E-13 1.14242E-13
 -1       317 1.00026E+01-5.19409E+00-4.72315E-01-5.79632E+00 3.92297E-13 4.01332E-13
 -1       318 2.85680E+00-8.74900E+00-7.74292E-01-3.62208E+00 2.71783E-13 1.07830E-14
 -1       319-9.11179E-01-1.14242E+01-1.03426E+00-1.08941E+00 8.83876E-14-4.80851E-13
 -1       320 2.01448E+01 3.01525E+00-1.78607E-02-2.11173E+00-5.56027E-13-4.99440E-13
 -1       321 2.07543E+01 2.20826E+00-1.78113E-02-2.36445E+00-6.22871E-13-1.41564E-13
 -1       322 1.95853E+01 3.69119E+00-1.50683E-02-1.31820E+00-2.87598E-13-7.99434E-13
 -1       323 1.94620E+01 3.84834E+00-1.35708E-02-9.24254E-01-1.64911E-13-8.59312E-13
 -1       324 1.93935E+01 3.93905E+00-1.26952E-02-5.44320E-01-4.25987E-14-8.37205E-13
 -1       325 1.93633E+01 3.98034E+00-1.22975E-02-1.73388E-01 7.49633E-14-8.25682E-13
 -1       326 1.93646E+01 3.97873E+00-1.23184E-02 1.94578E-01 1.79553E-13-8.03114E-13
 -1       327 1.93977E+01 3.93382E+00-1.27638E-02 5.65865E-01 2.81262E-13-7.85100E-13
 -1       328 1.94680E+01 3.84056E+00-1.37717E-02 9.40097E-01 3.79531E-13-7.04885E-13
 -1       329 1.95941E+01 3.67835E+00-1.56562E-02 1.33436E+00 5.08381E-13-5.59022E-13
 -1       330 1.98088E+01 3.40974E+00-1.88320E-02 1.73979E+00 6.17375E-13-4.15443E-13
 -1       331 2.01783E+01 2.95507E+00-2.29423E-02 2.12838E+00 6.87007E-13-1.47067E-13
 -1       332 2.07472E+01 2.12939E+00-3.04708E-02 2.32325E+00 6.88224E-13 3.59088E-13
 -1       333 2.10932E+01 1.18773E+00-2.49267E-02 1.92285E+00 6.08326E-13 8.06735E-13
 -1       334 2.03891E+01 4.89228E-01 8.33320E-03 9.28352E-01 4.95874E-13 6.01444E-13
 -1       335 2.04554E+01 6.75467E-01 1.23651E-02-1.02641E+00-4.95058E-13-4.60195E-14
 -1       336 2.00349E+01 3.34637E-01 6.81621E-03-4.59479E-01-3.59518E-13-7.82332E-14
 -1       337 1.97795E+01 1.76486E-01 4.06035E-03-1.49965E-01-2.53646E-13-1.26208E-13
 -1       338 1.96436E+01 9.03505E-02 1.91358E-03 2.08640E-02-2.09116E-13-1.78050E-13
 -1       339 1.95878E+01 4.13559E-02 8.00280E-04 1.12012E-01-1.63613E-13-2.05434E-13
 -1       340 1.95824E+01 1.26530E-02 2.78704E-04 1.55461E-01-1.39975E-13-2.17292E-13
 -1       341 1.96067E+01-3.94638E-03 2.41467E-05 1.70194E-01-1.02037E-13-2.29941E-13
 -1       342 1.96469E+01-1.28314E-02-1.03612E-04 1.68152E-01-1.47053E-13-2.57384E-13
 -1       343 1.96946E+01-1.65960E-02-1.60543E-04 1.57172E-01-1.80497E-13-2.81956E-13
 -1       344 1.97444E+01-1.68613E-02-1.72068E-04 1.42566E-01-1.04065E-13-3.65392E-13
 -1       345 1.97940E+01-1.46582E-02-1.52063E-04 1.28036E-01-4.23847E-14-4.24833E-13
 -1       346 1.98423E+01-1.06254E-02-1.08813E-04 1.16253E-01 2.19681E-14-3.95608E-13
 -1       347 1.98900E+01-5.12509E-03-4.71165E-05 1.09255E-01-7.67585E-14-3.73230E-13
 -1       348 1.99387E+01 1.68005E-03 3.06234E-05 1.08724E-01-1.28393E-13-3.87808E-13
 -1       349 1.99908E+01 9.76702E-03 1.23586E-04 1.16182E-01-1.34263E-13-3.87155E-13
 -1       350 2.00494E+01 1.91958E-02 2.31741E-04 1.33119E-01-1.40376E-13-3.34367E-13
 -1       351 2.01183E+01 3.00453E-02 3.54935E-04 1.61046E-01-6.14538E-14-3.66522E-13
 -1       352 2.02018E+01 4.23274E-02 4.91626E-04 2.01475E-01 1.97596E-14-3.60642E-13
 -1       353 2.03046E+01 5.58629E-02 6.37060E-04 2.55771E-01 7.17170E-14-4.21904E-13
 -1       354 2.04319E+01 7.00912E-02 7.80516E-04 3.24858E-01 1.13266E-13-4.60821E-13
 -1       355 2.05888E+01 8.37786E-02 9.01353E-04 4.08677E-01 4.42695E-14-2.75472E-13
 -1       356 2.07799E+01 9.45849E-02 9.63789E-04 5.05300E-01 1.41188E-13-2.37246E-13
 -1       357 2.10092E+01 9.84608E-02 9.11147E-04 6.09571E-01 7.55764E-14-3.29174E-13
 -1       358 2.12788E+01 8.89226E-02 6.62402E-04 7.11144E-01 4.47084E-14-3.93711E-13
 -1       359 2.15879E+01 5.64576E-02 1.17048E-04 7.91939E-01 3.37817E-14-3.39959E-13
 -1       360 2.19318E+01-1.12137E-02-8.20069E-04 8.23424E-01-8.62522E-15-1.24475E-13
 -1       361 2.22995E+01-1.26423E-01-2.17449E-03 7.65084E-01-6.93391E-15-1.12195E-13
 -1       362 2.26703E+01-2.93695E-01-3.78948E-03 5.67227E-01 6.44725E-14-1.33168E-13
 -1       363 2.30070E+01-4.94059E-01-5.24671E-03 1.83948E-01-1.38343E-13-2.32111E-13
 -1       364 2.32483E+01-6.62855E-01-5.66680E-03-3.95935E-01-1.04188E-13-1.09181E-13
 -1       365 2.33063E+01-6.78736E-01-4.15588E-03-1.09590E+00-6.32465E-14 7.05765E-14
 -1       366 2.30982E+01-4.07713E-01-1.97254E-03-1.70202E+00-7.35523E-15-1.40116E-13
 -1       367 2.26248E+01 1.83728E-01 5.50237E-04-1.88567E+00-2.61555E-13-1.32245E-13
 -1       368 2.20704E+01 8.70480E-01 1.31480E-03-1.37999E+00-2.54419E-13-1.37564E-13
 -1       369 2.17525E+01 1.23976E+00 8.85015E-04-2.74071E-01-3.91184E-13-7.10744E-14
 -1       370 2.18734E+01 1.02147E+00 6.22145E-04 9.19707E-01-9.41604E-14 4.73580E-14
 -1       371 2.23133E+01 3.72985E-01 3.67071E-04 1.61691E+00-1.64385E-13-2.02455E-13
 -1       372 2.27532E+01-2.87286E-01-1.13635E-03 1.59684E+00-2.11794E-13-1.70944E-13
 -1       373 2.29550E+01-6.61871E-01-3.75100E-03 1.05179E+00 5.81410E-14-2.01149E-13
 -1       374 2.28704E+01-7.16955E-01-5.62003E-03 3.23169E-01 9.77662E-14-2.00573E-13
 -1       375 2.25705E+01-5.72187E-01-5.50571E-03-3.27984E-01 4.88907E-13-2.65261E-13
 -1       376 2.21497E+01-3.56981E-01-4.11256E-03-7.82012E-01 5.54981E-13 1.75542E-14
 -1       377 2.16826E+01-1.47274E-01-2.12227E-03-1.01898E+00 6.23148E-13-9.72326E-14
 -1       378 2.12193E+01 3.25078E-02-1.67888E-04-1.06303E+00 3.10028E-14 2.17737E-14
 -1       379 2.07942E+01 1.87507E-01 1.69387E-03-9.46800E-01-1.13409E-13-2.31295E-13
 -1       380 2.04649E+01 2.91763E-01 3.01129E-03-7.18844E-01 3.38813E-16-5.13968E-13
 -1       381 1.98869E+01 2.28393E-01 1.07931E-02 3.99821E-01 3.79810E-13 4.60707E-13
 -1       382 1.95978E+01 1.15239E-01 6.16824E-03 1.21258E-01 2.77653E-13 3.51095E-13
 -1       383 1.94625E+01 5.75380E-02 2.80064E-03-2.74414E-02 1.73047E-13 2.55631E-13
 -1       384 1.94222E+01 2.57062E-02 1.17678E-03-1.04230E-01 9.92817E-14 1.78849E-13
 -1       385 1.94375E+01 7.37199E-03 4.52509E-04-1.39506E-01 9.60160E-14 9.09822E-14
 -1       386 1.94834E+01-3.13982E-03 1.09773E-04-1.50306E-01 1.73380E-13 8.91297E-14
 -1       387 1.95441E+01-8.75579E-03-6.45749E-05-1.46980E-01 1.69686E-13 6.74005E-14
 -1       388 1.96099E+01-1.11588E-02-1.49486E-04-1.36181E-01 4.54681E-14 1.12304E-13
 -1       389 1.96753E+01-1.13859E-02-1.77860E-04-1.22356E-01 6.58882E-14 7.74530E-14
 -1       390 1.97378E+01-1.00924E-02-1.67055E-04-1.08568E-01 5.39838E-14 1.02028E-14
 -1       391 1.97966E+01-7.68337E-03-1.27553E-04-9.70066E-02 1.28675E-13-2.67065E-14
 -1       392 1.98529E+01-4.38695E-03-6.56531E-05-8.93294E-02 1.20857E-13-1.35591E-13
 -1       393 1.99085E+01-3.00857E-04 1.52957E-05-8.69018E-02 9.80607E-14-1.51246E-13
 -1       394 1.99665E+01 4.57332E-03 1.14012E-04-9.09738E-02 1.05071E-13-1.49488E-13
 -1       395 2.00309E+01 1.03007E-02 2.30446E-04-1.02804E-01 1.13845E-13-1.79155E-13
 -1       396 2.01061E+01 1.69812E-02 3.64854E-04-1.23732E-01 1.34694E-13-2.59650E-13
 -1       397 2.01977E+01 2.47076E-02 5.16542E-04-1.55198E-01-6.67058E-14-1.71173E-13
 -1       398 2.03118E+01 3.35028E-02 6.82004E-04-1.98677E-01-1.04491E-14-1.46458E-13
 -1       399 2.04551E+01 4.32177E-02 8.52030E-04-2.55501E-01-1.87800E-14-2.66975E-13
 -1       400 2.06346E+01 5.33648E-02 1.00738E-03-3.26480E-01 2.01973E-13-2.77532E-13
 -1       401 2.08572E+01 6.28467E-02 1.11279E-03-4.11241E-01 1.16908E-13-3.38413E-13
 -1       402 2.11288E+01 6.95359E-02 1.11009E-03-5.07098E-01-1.56055E-13-2.67023E-13
 -1       403 2.14529E+01 6.96800E-02 9.13334E-04-6.07276E-01-1.86262E-14-1.43186E-13
 -1       404 2.18283E+01 5.72006E-02 4.13641E-04-6.98336E-01 1.54876E-14-2.13304E-13
 -1       405 2.22467E+01 2.32341E-02-4.93151E-04-7.56911E-01-1.37561E-13 2.14312E-14
 -1       406 2.26887E+01-4.31183E-02-1.83949E-03-7.46690E-01-8.89862E-14 2.41529E-14
 -1       407 2.31193E+01-1.50807E-01-3.48874E-03-6.18355E-01 9.37467E-14 2.81382E-13
 -1       408 2.34834E+01-2.96572E-01-5.02678E-03-3.18276E-01 2.23480E-13 3.51203E-13
 -1       409 2.37027E+01-4.46894E-01-5.76125E-03 1.84972E-01 4.16282E-14-2.03768E-14
 -1       410 2.36828E+01-5.19966E-01-4.65873E-03 8.49599E-01 5.42604E-14-2.43187E-13
 -1       411 2.33454E+01-3.99887E-01-2.51694E-03 1.49955E+00-3.27082E-13-2.48108E-13
 -1       412 2.27078E+01-1.59757E-02 8.42953E-04 1.82051E+00-2.27457E-13-1.05725E-13
 -1       413 2.19658E+01 5.19913E-01 4.95085E-04 1.50212E+00 3.80780E-13 1.84904E-14
 -1       414 2.14784E+01 8.97167E-01 4.72270E-04 5.24373E-01 2.69671E-13 1.48699E-13
 -1       415 2.15244E+01 8.32637E-01 1.96993E-03-6.80672E-01-1.08333E-13-2.68613E-14
 -1       416 2.20437E+01 3.76081E-01 3.82564E-03-1.49948E+00 1.33652E-14-2.07016E-13
 -1       417 2.26928E+01-1.49961E-01 1.81235E-03-1.61166E+00-2.59282E-13 2.67811E-14
 -1       418 2.31422E+01-4.72069E-01-2.88852E-03-1.14401E+00-2.27199E-13 1.53439E-13
 -1       419 2.32538E+01-5.33702E-01-6.16427E-03-4.37220E-01 1.99242E-13 9.96240E-14
 -1       420 2.30552E+01-4.27957E-01-6.85920E-03 2.18458E-01 1.89868E-13 3.63231E-13
 -1       421 2.26421E+01-2.65715E-01-5.46979E-03 6.82128E-01 2.48935E-13 3.64198E-13
 -1       422 2.21141E+01-1.12393E-01-3.10712E-03 9.29315E-01 1.56306E-13 2.72795E-13
 -1       423 2.15528E+01 1.32459E-02-7.23831E-04 9.88093E-01 2.87189E-15 6.99740E-14
 -1       424 2.10207E+01 1.16769E-01 9.62009E-04 8.93651E-01 1.15614E-13 1.90838E-13
 -1       425 2.05609E+01 2.07739E-01 1.76187E-03 6.73589E-01 3.64458E-14 3.80807E-13
 -1       426 2.03173E+01 2.72821E-01 2.01069E-03 5.02456E-01 4.87994E-14 3.62133E-13
 -1       427 2.00529E+01 1.28287E+00 5.14353E-04 1.15843E+00-8.54977E-14-2.01088E-13
 -1       428 2.02064E+01 8.44247E-01 2.40986E-03 1.03061E+00-1.42386E-13 6.97404E-14
 -1       429 2.02839E+01 5.46325E-01 3.09788E-03 7.92912E-01-2.63589E-14 2.75702E-13
 -1       430 1.98969E+01 1.72705E+00-1.08162E-03 1.13304E+00-1.30580E-13-7.88362E-13
 -1       431 1.97454E+01 2.14097E+00-2.41195E-03 9.43530E-01 1.82084E-13-5.39185E-15
 -1       432 1.96264E+01 2.45396E+00-3.43793E-03 6.07903E-01 3.01527E-13-5.00845E-14
 -1       433 1.95661E+01 2.61182E+00-3.93676E-03 1.73792E-01-1.86815E-14 4.83569E-13
 -1       434 1.95797E+01 2.58534E+00-3.85332E-03-2.86165E-01-2.12870E-13-4.11626E-14
 -1       435 1.96628E+01 2.38110E+00-3.20061E-03-6.92818E-01-1.84940E-13-3.26860E-13
 -1       436 1.97899E+01 2.04578E+00-2.05338E-03-9.79366E-01 1.69616E-13-2.07884E-13
 -1       437 1.99378E+01 1.62526E+00-6.83580E-04-1.12242E+00 3.65298E-13 7.45131E-13
 -1       438 2.00831E+01 1.18432E+00 9.16460E-04-1.11207E+00 2.92018E-13 2.08131E-13
 -1       439 2.02157E+01 7.71654E-01 2.82879E-03-9.66878E-01-8.80466E-14-3.18489E-13
 -1       440 1.10937E+01-5.79472E+00-8.64585E-03 7.08515E+00-9.08995E-14 7.11424E-13
 -1       441 9.19130E-01-5.08890E+00-1.09040E-01-1.09960E-01 1.46660E-13-3.62765E-14
 -1       442 4.61629E+00-4.35001E+00 5.56475E-02 4.70548E+00 1.17586E-13 3.64542E-13
 -1       443 1.93253E+01-5.64184E+00-2.80470E-02 6.70461E+00-5.44981E-14 1.27585E-13
 -1       444 2.73065E+01-3.15745E+00 1.47850E-02 4.39298E+00 1.61648E-13-3.29958E-13
 -1       445 1.97871E+01 3.43924E+00-2.08823E-02-1.72676E+00-4.36581E-13-7.03529E-13
 -1       446 3.49244E+01 5.30304E+00 3.32479E-02-1.60741E-01 6.38697E-13-4.65725E-13
 -1       447 3.58568E+01 7.81793E+00 4.56911E-02-7.26906E-02 7.97473E-13-4.09166E-13
 -1       448 3.55058E+01 7.16481E+00 3.54052E-02 5.36699E-01 8.26117E-13-5.53203E-13
 -1       449 3.42825E+01 3.65558E+00 3.32870E-02-4.25542E-02 6.52395E-13-4.40356E-13
 -1       450 3.07148E+01-8.56378E-01 1.50969E-02-2.49021E+00 3.18322E-13-4.23467E-13
 -1       451 2.47521E+01-4.34375E+00-7.26452E-03-4.98567E+00 2.14148E-13-3.72299E-13
 -1       452 1.58875E+01-5.66952E+00-6.29002E-02-6.84856E+00 1.90292E-13-8.20139E-13
 -1       453 8.30244E+00-5.43389E+00-3.65557E-02-6.39657E+00 9.68114E-14-5.05776E-13
 -1       454 3.02242E+00-4.73250E+00-4.03610E-02-3.77058E+00-3.23491E-14-8.71553E-13
 -1       455 1.38470E+00-4.45963E+00-4.37813E-02 1.49279E+00 5.62814E-14-7.08433E-13
 -1       456 5.58232E+00-4.71671E+00-1.39267E-03 5.43806E+00 3.36620E-13-8.34541E-13
 -1       457 1.49187E+01-5.69131E+00 3.23102E-02 7.14480E+00 1.86351E-13-5.94781E-13
 -1       458 2.21778E+01-5.21758E+00-3.12513E-02 5.76529E+00-3.31096E-13 1.04000E-13
 -1       459 2.98805E+01-1.33098E+00 2.68250E-02 2.91426E+00-6.97629E-13 4.31738E-13
 -1       460 3.41141E+01 3.01600E+00 6.65802E-02 8.32677E-01-7.49796E-13 1.48243E-13
 -1       461 3.62401E+01 6.72446E+00 1.03573E-01-1.48039E-01-7.44002E-13-9.22595E-14
 -1       462 3.54219E+01 8.05135E+00 3.14453E-02-1.79875E-02-6.64302E-13-1.47455E-13
 -1       463 3.54298E+01 6.09821E+00 6.10028E-02 7.61118E-02-8.64309E-14 1.22249E-13
 -1       464 3.27152E+01 1.25538E+00 2.82346E-02-1.38197E+00 6.75224E-14 2.56156E-13
 -1       465 2.71573E+01-2.99878E+00 1.98842E-03-4.55676E+00 6.38517E-14 2.28456E-13
 -1       466 1.99910E+01-5.62132E+00-9.23454E-03-6.64108E+00 1.31450E-13 3.32429E-13
 -1       467 1.08316E+01-5.81616E+00-2.92525E-02-7.08636E+00 2.28401E-13 6.08215E-13
 -1       468 3.30911E+00-5.47536E+00-1.16937E-01-4.29322E+00 1.19876E-13-4.37303E-13
 -1       469 3.24540E+01 7.06065E-01 3.41969E-02 1.87203E+00 3.83433E-13-2.54380E-13
 -1       470 2.03714E+01 8.31774E-01 4.02902E-03 9.73376E-01 5.07423E-13 8.50307E-14
 -1       471 1.97351E+01 3.10345E+00-5.36791E-03-6.34678E-01-9.93635E-14-7.45581E-13
 -1       472 1.98305E+01 2.93039E+00-5.73071E-03-9.51349E-01-2.10870E-13-7.26090E-13
 -1       473 1.96680E+01 3.22603E+00-5.02527E-03 8.84951E-03 1.10963E-13-7.22496E-13
 -1       474 1.96864E+01 3.19301E+00-5.10448E-03 3.30771E-01 2.11456E-13-7.32106E-13
 -1       475 1.97397E+01 3.09620E+00-5.41329E-03 6.46542E-01 3.12497E-13-6.77814E-13
 -1       476 1.98376E+01 2.91844E+00-5.95368E-03 9.62471E-01 4.37339E-13-5.39389E-13
 -1       477 1.99920E+01 2.63348E+00-6.52369E-03 1.25792E+00 5.25084E-13-4.23917E-13
 -1       478 2.02331E+01 2.18751E+00-5.70234E-03 1.50279E+00 6.15386E-13-2.64696E-13
 -1       479 2.01093E+01 4.53442E-01 5.06474E-03 4.65680E-01 3.91210E-13 2.80319E-14
 -1       480 2.03402E+01 9.76379E-01 3.78142E-03-9.41085E-01-4.19406E-13-3.21719E-13
 -1       481 2.92742E+01-2.84437E+00-6.46703E-02 7.91261E-01 5.93935E-14-5.16365E-13
 -1       482 2.01748E+01 5.33833E-01 8.21001E-04-4.69867E-01-3.17334E-13-2.89462E-13
 -1       483 2.00226E+01 3.03540E-01 1.19210E-03-1.68341E-01-2.64050E-13-2.84444E-13
 -1       484 1.99218E+01 1.61664E-01 4.76427E-04 1.32832E-02-2.21500E-13-2.74201E-13
 -1       485 1.98632E+01 7.58592E-02 1.67257E-04 1.16272E-01-1.46777E-13-2.54608E-13
 -1       486 1.98362E+01 2.38528E-02 2.60427E-05 1.68384E-01-1.41465E-13-2.43322E-13
 -1       487 1.98309E+01-6.56527E-03-4.15816E-05 1.88461E-01-1.45336E-13-2.66022E-13
 -1       488 1.98395E+01-2.26639E-02-7.32788E-05 1.89364E-01-1.74475E-13-2.98926E-13
 -1       489 1.98567E+01-2.89974E-02-8.32913E-05 1.80006E-01-1.74807E-13-2.58637E-13
 -1       490 1.98787E+01-2.85021E-02-7.84652E-05 1.66659E-01-8.57288E-14-1.87378E-13
 -1       491 1.99037E+01-2.30663E-02-6.28803E-05 1.53832E-01-1.59015E-15-1.99832E-13
 -1       492 1.99307E+01-1.38545E-02-3.90231E-05 1.44871E-01-4.12063E-14-3.30325E-13
 -1       493 1.99598E+01-1.51372E-03-8.22565E-06 1.42402E-01-1.39718E-13-3.59850E-13
 -1       494 1.99916E+01 1.36764E-02 2.90103E-05 1.48636E-01-9.38211E-14-3.57620E-13
 -1       495 2.00275E+01 3.16771E-02 7.26980E-05 1.65591E-01-1.54926E-13-3.00231E-13
 -1       496 2.00691E+01 5.25617E-02 1.23036E-04 1.95208E-01-1.13675E-13-2.98599E-13
 -1       497 2.01184E+01 7.63614E-02 1.79962E-04 2.39392E-01-8.95754E-14-2.89064E-13
 -1       498 2.01779E+01 1.02858E-01 2.42571E-04 2.99922E-01-2.63217E-14-3.47413E-13
 -1       499 2.02501E+01 1.31287E-01 3.08156E-04 3.78228E-01 9.24205E-14-4.00119E-13
 -1       500 2.03381E+01 1.59891E-01 3.70796E-04 4.74968E-01 1.16522E-13-4.14884E-13
 -1       501 2.04449E+01 1.85270E-01 4.19308E-04 5.89321E-01 6.53683E-14-3.65699E-13
 -1       502 2.05746E+01 2.01461E-01 4.34522E-04 7.17915E-01 5.07518E-14-4.33475E-13
 -1       503 2.07320E+01 1.98751E-01 3.86137E-04 8.53264E-01-1.99094E-14-5.02542E-13
 -1       504 2.09245E+01 1.62432E-01 2.30811E-04 9.81597E-01 1.08840E-14-5.94586E-13
 -1       505 2.11628E+01 7.21887E-02-8.67873E-05 1.08010E+00 1.38018E-13-5.48489E-13
 -1       506 2.14623E+01-9.61483E-02-6.22237E-04 1.11382E+00 6.37462E-14-5.30753E-13
 -1       507 2.18426E+01-3.62947E-01-1.38052E-03 1.03322E+00 1.17849E-13-3.88469E-13
 -1       508 2.23196E+01-7.25576E-01-2.23310E-03 7.75750E-01 3.08244E-14-3.82470E-13
 -1       509 2.28856E+01-1.12330E+00-3.09439E-03 2.78582E-01-2.47249E-14-4.59683E-14
 -1       510 2.34717E+01-1.38948E+00-3.27198E-03-4.81742E-01-1.62795E-13-3.42764E-14
 -1       511 2.39150E+01-1.24219E+00-2.21009E-03-1.39687E+00-1.43703E-13-6.35326E-14
 -1       512 2.40024E+01-4.31606E-01-8.45316E-03-2.14197E+00-7.88297E-14 7.79884E-14
 -1       513 2.36664E+01 9.75415E-01-1.39084E-02-2.16463E+00-1.99655E-13 1.70192E-13
 -1       514 2.32062E+01 2.24660E+00-1.91090E-02-1.15930E+00-3.02279E-13 2.66739E-13
 -1       515 2.31123E+01 2.42807E+00-2.18227E-02 4.72061E-01-1.01840E-13 2.96453E-13
 -1       516 2.34596E+01 1.37763E+00-1.79101E-02 1.73738E+00-3.78981E-13 1.63087E-14
 -1       517 2.38337E+01-9.98077E-02-8.51549E-03 1.98076E+00-1.33006E-13-1.37967E-13
 -1       518 2.38262E+01-1.13105E+00-3.48381E-03 1.36285E+00-5.48606E-15 2.86778E-13
 -1       519 2.34154E+01-1.45612E+00-2.92027E-03 4.19843E-01 2.29386E-13 2.47547E-13
 -1       520 2.27973E+01-1.27042E+00-2.66228E-03-4.32891E-01 4.86427E-14 1.27099E-13
 -1       521 2.21617E+01-8.69097E-01-2.41578E-03-1.02780E+00 5.22139E-13 4.08351E-14
 -1       522 2.16018E+01-4.43626E-01-1.54265E-03-1.35058E+00 4.76564E-13 9.21739E-14
 -1       523 2.11397E+01-7.36411E-02-4.44066E-04-1.44422E+00 4.83377E-13-1.30673E-13
 -1       524 2.07652E+01 2.33210E-01 6.43775E-04-1.35459E+00-2.14651E-13-1.40622E-13
 -1       525 1.98067E+01 1.28859E-01 9.95653E-04-1.79515E-02 2.02493E-13-6.72565E-14
 -1       526 1.97487E+01 5.97565E-02 3.67043E-04-1.16638E-01 1.42720E-13-1.23979E-13
 -1       527 1.97301E+01 1.84801E-02 8.75878E-05-1.65314E-01 1.39084E-13-1.52946E-13
 -1       528 1.97367E+01-5.53680E-03-4.48406E-05-1.83055E-01 1.29850E-13-1.10525E-13
 -1       529 1.97583E+01-1.83062E-02-1.08819E-04-1.82459E-01 5.85718E-14-8.47814E-14
 -1       530 1.97882E+01-2.34993E-02-1.32924E-04-1.72070E-01 1.02622E-13-7.64743E-14
 -1       531 1.98220E+01-2.34471E-02-1.30459E-04-1.57807E-01 1.07940E-13-1.05674E-13
 -1       532 1.98576E+01-1.96363E-02-1.09125E-04-1.43872E-01 1.08639E-13-1.56467E-13
 -1       533 1.98941E+01-1.29786E-02-7.36613E-05-1.33359E-01 1.26724E-13-1.71054E-13
 -1       534 1.99317E+01-3.97382E-03-2.67097E-05-1.28679E-01 1.17483E-13-1.56143E-13
 -1       535 1.99717E+01 7.17806E-03 3.06061E-05-1.31870E-01 5.82060E-14-8.26062E-14
 -1       536 2.00158E+01 2.04890E-02 9.81704E-05-1.44815E-01 1.40599E-13-1.40868E-13
 -1       537 2.00665E+01 3.60994E-02 1.76381E-04-1.69387E-01 1.39614E-13-7.02383E-14
 -1       538 2.01266E+01 5.41802E-02 2.65538E-04-2.07509E-01-7.91446E-14-2.08256E-15
 -1       539 2.01995E+01 7.48010E-02 3.65004E-04-2.61131E-01-7.55268E-14-4.87513E-14
 -1       540 2.02889E+01 9.77311E-02 4.71855E-04-3.32071E-01 9.00262E-14-8.51134E-14
 -1       541 2.03987E+01 1.22129E-01 5.78823E-04-4.21679E-01 3.39486E-14-2.09155E-13
 -1       542 2.05331E+01 1.46049E-01 6.71192E-04-5.30224E-01 1.28725E-13-8.91836E-14
 -1       543 2.06962E+01 1.65689E-01 7.22461E-04-6.55887E-01-1.80466E-14-2.91591E-14
 -1       544 2.08924E+01 1.74303E-01 6.89232E-04-7.93179E-01-1.22003E-13-1.23316E-13
 -1       545 2.11266E+01 1.60814E-01 5.07081E-04-9.30610E-01 8.23763E-15-1.13062E-13
 -1       546 2.14046E+01 1.08518E-01 9.25387E-05-1.04751E+00-8.86440E-14-6.86757E-14
 -1       547 2.17343E+01-4.89441E-03-6.38876E-04-1.11022E+00-1.59480E-13-1.93891E-13
 -1       548 2.21251E+01-2.03143E-01-1.72305E-03-1.06886E+00-1.91778E-13-5.52048E-14
 -1       549 2.25840E+01-4.97644E-01-3.10998E-03-8.57712E-01 3.47622E-14-4.48090E-15
 -1       550 2.31016E+01-8.57511E-01-4.55673E-03-4.06898E-01 1.45661E-13 2.19144E-13
 -1       551 2.36221E+01-1.16342E+00-5.65602E-03 3.20297E-01 1.97856E-13 2.96801E-13
 -1       552 2.40144E+01-1.17795E+00-4.10434E-03 1.24597E+00-2.41114E-13 2.61222E-13
 -1       553 2.40804E+01-6.26451E-01-5.63044E-03 2.07534E+00-2.94695E-13 2.71183E-13
 -1       554 2.37481E+01 5.16777E-01-8.16294E-03 2.28207E+00-3.39718E-14 2.49024E-13
 -1       555 2.32160E+01 1.76211E+00-1.52915E-02 1.46283E+00 3.09744E-13 2.91923E-13
 -1       556 2.30013E+01 2.17904E+00-1.75095E-02-1.43539E-01 2.63433E-13 1.92629E-13
 -1       557 2.32871E+01 1.43292E+00-1.31123E-02-1.58635E+00 3.87060E-14-1.06843E-13
 -1       558 2.37449E+01 1.14280E-01-6.36264E-03-2.07262E+00-1.48232E-13-9.24822E-14
 -1       559 2.39022E+01-8.95140E-01-5.90431E-03-1.60226E+00-2.33139E-13-1.48039E-13
 -1       560 2.36510E+01-1.26452E+00-5.77631E-03-6.70185E-01-2.99726E-14-1.81644E-13
 -1       561 2.31298E+01-1.13144E+00-5.53641E-03 2.45125E-01 6.65425E-14 5.84601E-14
 -1       562 2.25247E+01-7.77938E-01-4.45266E-03 9.14089E-01 1.83524E-13 1.09512E-14
 -1       563 2.19464E+01-4.01866E-01-2.70195E-03 1.29528E+00 1.98789E-13 1.39916E-13
 -1       564 2.14377E+01-8.31538E-02-3.40164E-04 1.42861E+00 8.42205E-14 2.42476E-13
 -1       565 2.10003E+01 1.74170E-01 1.17993E-03 1.36779E+00 9.66589E-14 2.62208E-13
 -1       566 2.06158E+01 3.84128E-01 1.67785E-03 1.15441E+00-6.91491E-14 2.69402E-13
 -1       567 1.96284E+01 1.50569E+00-8.14007E-04 1.39403E+00 1.89257E-13-1.77849E-13
 -1       568 1.93359E+01 1.83040E+00-1.33702E-03 1.05091E+00 3.46762E-13 1.45348E-13
 -1       569 2.02551E+01 7.83781E-01-3.99239E-04 1.46473E+00-4.90744E-14-1.97936E-13
 -1       570 1.99509E+01 1.13899E+00 1.16326E-03 1.52520E+00-2.02453E-13-2.60748E-13
 -1       571 1.91374E+01 2.04804E+00-1.67292E-03 5.30380E-01 2.29145E-13-3.00563E-13
 -1       572 1.90853E+01 2.10586E+00-1.77093E-03-8.29500E-02-1.19582E-13 7.85424E-14
 -1       573 1.91936E+01 1.98924E+00-1.62727E-03-6.75133E-01-6.04617E-14-2.83153E-14
 -1       574 1.94237E+01 1.73495E+00-1.17346E-03-1.13401E+00-2.26981E-14-2.16581E-13
 -1       575 1.97224E+01 1.39366E+00-6.10813E-04-1.41175E+00 2.09873E-13 2.89123E-13
 -1       576 2.00240E+01 1.03118E+00 1.87625E-04-1.48590E+00-6.48382E-14 1.57464E-13
 -1       577 2.02962E+01 6.95815E-01-1.25000E-04-1.37167E+00-3.84562E-13-3.35984E-13
 -1       578 5.56614E+00-1.36294E+00 1.86972E-01 1.65913E+00 2.38221E-13 2.54935E-14
 -1       579 1.85198E+01-5.53487E+00 8.60697E-02 6.63750E+00-4.49925E-13 1.97547E-13
 -1       580 1.99217E+01 2.46118E-01 2.42758E-03 1.60377E-01 2.73411E-13-1.16630E-14
 -1       581 5.42630E+00-1.67281E+00 1.91580E-01-2.28292E+00 2.05122E-13-4.47656E-13
 -1       582 1.11627E+01-3.49675E+00 1.50217E-01 6.27924E+00-6.14647E-14 2.07633E-13
 -1       583 2.03931E+01 1.76875E+00-5.35331E-03-1.54683E+00-5.34459E-13-4.13870E-13
 -1       584 9.57422E+00-3.57238E+00 1.34373E-01-6.15356E+00-8.53553E-14 3.50053E-13
 -1       585 3.06204E+01 7.11167E+00-1.67882E-01-9.15838E-01-6.15716E-13 7.51829E-15
 -1       586 1.27528E+01-4.02224E+00 1.23905E-01 6.65044E+00 5.49526E-13-8.17936E-13
 -1       587 1.52529E+01-5.15481E+00 9.26155E-02-6.86082E+00 2.26208E-15-5.87544E-13
 -1       588 1.96835E+01 3.19743E+00-5.11689E-03-3.13216E-01 1.64741E-14-7.53869E-13
 -1       589 2.96281E+01 7.00996E+00-1.86539E-01 4.88869E-01 6.76847E-13-2.13099E-13
 -1       590 5.98955E+00-1.87432E+00 1.64517E-01 3.52279E+00 3.21566E-13-5.04902E-13
 -1       591 3.04059E+01 5.89076E+00-1.71937E-01-1.41109E+00 6.22308E-13-5.70599E-13
 -1       592 3.05812E+01 4.55252E+00-1.53048E-01 2.06523E+00 5.29826E-13-7.84997E-14
 -1       593 3.02712E+01-1.55613E-01-1.11192E-01 1.15300E+00 1.95236E-13-1.59685E-13
 -1       594 2.81338E+01-3.88588E+00-3.01285E-02-1.55873E+00-7.93809E-15-2.61478E-13
 -1       595 2.20836E+01-5.78545E+00 2.07215E-02-5.39893E+00-9.25995E-14-1.76002E-13
 -1       596 9.16251E+00-2.48550E+00 1.68204E-01-5.32694E+00-1.40693E-13-6.60826E-13
 -1       597 3.04468E+01-3.92020E-01-8.48065E-02-5.35757E-01-6.55469E-13 2.59945E-13
 -1       598 5.03846E+00-1.24971E+00 1.92107E-01-1.38675E+00-1.18862E-13-7.05949E-13
 -1       599 2.07379E+01-5.68002E+00 5.62460E-02 5.83154E+00 2.21843E-13 2.57294E-14
 -1       600 2.90386E+01-2.87233E+00-8.68610E-02-6.83777E-01 1.98199E-13 1.49325E-13
 -1       601 2.70580E+01-4.48767E+00-1.74479E-02 2.58192E+00-4.45345E-13 3.60163E-13
 -1       602 3.06925E+01 4.00287E+00-1.42960E-01-1.93762E+00-6.05155E-13 1.63057E-13
 -1       603 2.96485E+01 6.14593E+00-1.90008E-01 1.27565E+00-4.38108E-13-1.96992E-13
 -1       604 3.04984E+01 2.60495E+00-1.36682E-01 1.71301E+00 1.38639E-14 9.70266E-14
 -1       605 2.58290E+01-5.32045E+00 2.44663E-02-3.76248E+00 1.10627E-13 9.38347E-14
 -1       606 1.80022E+01-5.54702E+00 8.14926E-02-6.82961E+00 5.44287E-14 4.88058E-13
 -1       607 3.06082E+01 1.55311E+00-1.29420E-01-1.53899E+00 3.63216E-13-6.43076E-13
 -1       608 2.05832E+01 1.30512E+00-9.99426E-04 1.54912E+00 6.30552E-13 1.95405E-13
 -1       609 2.49911E+01-5.58231E+00 5.76625E-03 4.30005E+00-2.21198E-13-3.60746E-13
 -1       610 1.99822E+01 2.66161E+00-6.31194E-03-1.25919E+00-3.38258E-13-6.51638E-13
 -1       611 9.69359E+00-1.14290E+00 1.54380E-01 3.94500E+00-7.94625E-14 1.89015E-14
 -1       612 2.05498E+01 4.09257E-01 1.21246E-03-1.20645E+00-3.63387E-13-1.42198E-13
 -1       613 1.99633E+01 2.44851E+00-1.58256E-03 3.94743E-01 2.46633E-13-6.27068E-13
 -1       614 1.99317E+01 2.52331E+00-1.54804E-03 1.35776E-01 1.39754E-13-6.45529E-13
 -1       615 2.01215E+01 2.04554E+00-1.61275E-03 8.51609E-01 4.24031E-13-3.92827E-13
 -1       616 2.02391E+01 1.67532E+00-2.22891E-03 9.93345E-01 5.03348E-13-2.84687E-13
 -1       617 2.03184E+01 1.03623E+00 2.90369E-03 8.33144E-01 4.77201E-13-1.83186E-13
 -1       618 9.95856E+00-1.33560E+00 1.47606E-01-4.22932E+00-3.73521E-14 2.84828E-13
 -1       619 2.78206E+01 2.86414E+00-1.13651E-01-2.31660E+00 3.96488E-13-7.35752E-13
 -1       620 2.02438E+01 6.69462E-01 1.52655E-03-3.94967E-01-2.70854E-13-3.62044E-13
 -1       621 2.01670E+01 3.91700E-01 1.78326E-04-1.41178E-01-2.09393E-13-3.28210E-13
 -1       622 2.01021E+01 2.12893E-01 6.79256E-05 2.06667E-02-1.69536E-13-2.88181E-13
 -1       623 2.00522E+01 9.96443E-02 6.97011E-06 1.16302E-01-1.42523E-13-2.88706E-13
 -1       624 2.00179E+01 2.94987E-02-1.43768E-05 1.66394E-01-1.53936E-13-3.21762E-13
 -1       625 1.99964E+01-1.15511E-02-2.42607E-05 1.86788E-01-1.55389E-13-2.77118E-13
 -1       626 1.99848E+01-3.25610E-02-2.82411E-05 1.89197E-01-1.38496E-13-2.50171E-13
 -1       627 1.99805E+01-3.95245E-02-2.78306E-05 1.82167E-01-6.86332E-14-1.24037E-13
 -1       628 1.99815E+01-3.64215E-02-2.40153E-05 1.71938E-01-1.18421E-13-1.25597E-13
 -1       629 1.99865E+01-2.58343E-02-1.75414E-05 1.63129E-01-1.22495E-13-2.35821E-13
 -1       630 1.99944E+01-9.34210E-03-8.87519E-06 1.59270E-01-1.07094E-13-2.72581E-13
 -1       631 2.00049E+01 1.22004E-02 1.77778E-06 1.63202E-01-9.16916E-14-1.81926E-13
 -1       632 2.00179E+01 3.84406E-02 1.44077E-05 1.77372E-01-1.57818E-13-1.82261E-13
 -1       633 2.00333E+01 6.93235E-02 2.91451E-05 2.04024E-01-1.53020E-13-1.75397E-13
 -1       634 2.00515E+01 1.04871E-01 4.60791E-05 2.45306E-01-9.09958E-14-1.54488E-13
 -1       635 2.00727E+01 1.44910E-01 6.52641E-05 3.03269E-01-5.98715E-14-1.69074E-13
 -1       636 2.00976E+01 1.88707E-01 8.64677E-05 3.79760E-01-1.60455E-14-1.08113E-13
 -1       637 2.01269E+01 2.34453E-01 1.08852E-04 4.76174E-01 3.67426E-14-2.65042E-13
 -1       638 2.01621E+01 2.78520E-01 1.30552E-04 5.93045E-01 1.24433E-13-3.89142E-13
 -1       639 2.02055E+01 3.14413E-01 1.47956E-04 7.29430E-01 5.53952E-14-3.51549E-13
 -1       640 2.02621E+01 3.31358E-01 1.54561E-04 8.82017E-01-9.73699E-14-3.88614E-13
 -1       641 2.03407E+01 3.12572E-01 1.39009E-04 1.04388E+00-5.00089E-14-3.57738E-13
 -1       642 2.04573E+01 2.33621E-01 8.40533E-05 1.20264E+00 6.93325E-14-3.15780E-13
 -1       643 2.06387E+01 6.19604E-02-3.85371E-05 1.33774E+00 1.55941E-13-3.64449E-13
 -1       644 2.09269E+01-2.39647E-01-2.64084E-04 1.41595E+00 1.18965E-13-4.00169E-13
 -1       645 2.13793E+01-7.00002E-01-5.15381E-04 1.38399E+00 7.06188E-14-3.27813E-13
 -1       646 2.20564E+01-1.30553E+00-6.46387E-04 1.16050E+00 2.64668E-13-1.07685E-13
 -1       647 2.29866E+01-1.94103E+00-1.83819E-03 6.36246E-01 1.05815E-13 1.86493E-14
 -1       648 2.40859E+01-2.28444E+00-2.61658E-03-2.88263E-01 1.30154E-14 3.10775E-13
 -1       649 2.50011E+01-1.82068E+00-1.79731E-02-1.46175E+00-8.15301E-14 6.24964E-13
 -1       650 2.54072E+01-6.15709E-03-1.97340E-02-2.46079E+00-2.23450E-13 4.48952E-13
 -1       651 2.50368E+01 2.61567E+00-8.03289E-02-2.24133E+00-4.64627E-13 6.82011E-14
 -1       652 2.47240E+01 4.15202E+00-8.25940E-02-4.59452E-01-2.84245E-13-4.67557E-14
 -1       653 2.49257E+01 3.25247E+00-6.49799E-02 1.56031E+00-3.60358E-13-2.16138E-13
 -1       654 2.53287E+01 7.22447E-01-3.74885E-02 2.30099E+00-2.33424E-13-1.71334E-14
 -1       655 2.51701E+01-1.47819E+00-1.45873E-02 1.52952E+00 2.44234E-14 7.10907E-14
 -1       656 2.43282E+01-2.32795E+00-4.82546E-03 2.79354E-01 9.43015E-14 2.00688E-13
 -1       657 2.32295E+01-2.15978E+00 5.93088E-04-7.78651E-01 1.37451E-13 3.57759E-13
 -1       658 2.22288E+01-1.55249E+00-5.18059E-04-1.43292E+00 1.93164E-13 4.75068E-13
 -1       659 2.14680E+01-8.72026E-01-7.32298E-04-1.74470E+00 4.17659E-13 1.71551E-13
 -1       660 2.09451E+01-2.80082E-01-2.46733E-05-1.81049E+00 2.59100E-13 3.47286E-14
 -1       661 2.05994E+01 1.95572E-01 1.85993E-04-1.70634E+00 2.74406E-14-1.62181E-13
 -1       662 1.99726E+01 8.88146E-02 5.76159E-05-1.18288E-01 1.63036E-13-2.42011E-13
 -1       663 2.04526E+01 4.27027E-01 4.97194E-04 1.76540E+00-2.79477E-14-2.73100E-13
 -1       664 2.00260E+01 1.89575E-01 1.80979E-04-1.92746E-02 2.09731E-13-2.03325E-13
 -1       665 1.99267E+01-9.40164E-03-2.59891E-05-1.89525E-01 7.13245E-14-1.12907E-13
 -1       666 1.99236E+01-2.82579E-02-3.93398E-05-1.91126E-01 1.34312E-13-1.61815E-13
 -1       667 1.99285E+01-3.50378E-02-4.29480E-05-1.82882E-01 7.08331E-14-1.82619E-13
 -1       668 1.99387E+01-3.32423E-02-3.92187E-05-1.71094E-01 1.47024E-13-2.07098E-13
 -1       669 1.99525E+01-2.51285E-02-3.00133E-05-1.60376E-01 1.21413E-13-1.82812E-13
 -1       670 1.99691E+01-1.20659E-02-1.64796E-05-1.54224E-01 9.33497E-14-1.28560E-13
 -1       671 1.99882E+01 5.21871E-03 9.24716E-07-1.55443E-01 5.67616E-14-1.74663E-13
 -1       672 2.00102E+01 2.64612E-02 2.20550E-05-1.66451E-01 1.22248E-13-1.81551E-13
 -1       673 2.00357E+01 5.17064E-02 4.70588E-05-1.89497E-01 5.70706E-14-1.18414E-13
 -1       674 2.00654E+01 8.11459E-02 7.61674E-05-2.26789E-01 1.15728E-14-3.83108E-14
 -1       675 2.01005E+01 1.14922E-01 1.09561E-04-2.80531E-01 1.49086E-14-1.25853E-13
 -1       676 2.01422E+01 1.52859E-01 1.46957E-04-3.52846E-01-5.55218E-15-1.56566E-13
 -1       677 2.01918E+01 1.94063E-01 1.87166E-04-4.45566E-01 6.14146E-14-5.75881E-15
 -1       678 2.02511E+01 2.36320E-01 2.27348E-04-5.59837E-01 1.05978E-13-9.56571E-14
 -1       679 2.03222E+01 2.75180E-01 2.61715E-04-6.95472E-01 4.00940E-14-2.09587E-14
 -1       680 2.04086E+01 3.02610E-01 2.79812E-04-8.49978E-01-4.48386E-14 5.68180E-14
 -1       681 2.05167E+01 3.05169E-01 2.63963E-04-1.01711E+00 3.02721E-14-9.35835E-14
 -1       682 2.06576E+01 2.61868E-01 1.85381E-04-1.18478E+00-1.37604E-13-5.67336E-14
 -1       683 2.08517E+01 1.42539E-01 2.19702E-06-1.33208E+00-7.07703E-14 4.91768E-14
 -1       684 2.11322E+01-9.10095E-02-3.30439E-04-1.42497E+00-1.82322E-13 7.11711E-14
 -1       685 2.15480E+01-4.75886E-01-8.18646E-04-1.41024E+00-5.48511E-14 2.40176E-15
 -1       686 2.21569E+01-1.02132E+00-1.68108E-03-1.20880E+00 6.93012E-15 9.65152E-14
 -1       687 2.29958E+01-1.65060E+00-3.32962E-03-7.16782E-01-3.00413E-14 2.45804E-13
 -1       688 2.40154E+01-2.10921E+00-5.80933E-03 1.64806E-01-3.55118E-14 4.01273E-13
 -1       689 2.49544E+01-1.94289E+00-3.02837E-03 1.36714E+00-2.19648E-13 2.11671E-13
 -1       690 2.53931E+01-4.19115E-01-2.81937E-02 2.49484E+00-3.67536E-14 1.88209E-13
 -1       691 2.51255E+01 1.96433E+00-8.54173E-02 2.55185E+00 3.26308E-13-1.52296E-14
 -1       692 2.47318E+01 3.74259E+00-7.26370E-02 9.13421E-01 3.55518E-13-6.49550E-14
 -1       693 2.47828E+01 3.35366E+00-7.97765E-02-1.25858E+00 3.00718E-13-6.79027E-14
 -1       694 2.51909E+01 1.13679E+00-6.34695E-02-2.37039E+00 1.21939E-13-2.73112E-13
 -1       695 2.52867E+01-1.10849E+00-1.44242E-02-1.90252E+00-2.05221E-13-4.84425E-13
 -1       696 2.46017E+01-2.13071E+00-8.85992E-03-6.66021E-01-5.47813E-14-4.10517E-13
 -1       697 2.35699E+01-2.07982E+00-3.55374E-03 4.93464E-01-6.82082E-14-4.21790E-13
 -1       698 2.25660E+01-1.52067E+00-2.04903E-03 1.27767E+00 1.96827E-13-4.74782E-13
 -1       699 2.17689E+01-8.68702E-01-1.16047E-03 1.68951E+00 4.59653E-14-4.00582E-13
 -1       700 2.11976E+01-3.07670E-01-3.53387E-04 1.82084E+00 1.22850E-14-1.28558E-13
 -1       701 2.07715E+01 7.19322E-02 6.55581E-04 1.85011E+00 1.35754E-13-2.21279E-13
 -1       702 2.31287E+01-5.24942E+00 3.90124E-02 4.29329E+00-2.97911E-13-6.57630E-13
 -1       703 1.84759E+01 1.73532E+00-6.76754E-04 2.80670E-01 2.36880E-13-2.58088E-13
 -1       704 2.04346E+01 4.62727E-01 1.01304E-03-1.56276E+00-2.63927E-13-4.07251E-13
 -1       705 1.91450E+01 1.28207E+00-4.16061E-04 1.53882E+00 1.27476E-13 8.45236E-14
 -1       706 1.85285E+01 1.69506E+00-6.73627E-04-5.00868E-01 6.49597E-14-1.83165E-13
 -1       707 1.87054E+01 1.57932E+00-4.28382E-04 1.00826E+00 1.16920E-13-2.42703E-13
 -1       708 2.70015E+01-4.25416E+00-1.89553E-02-1.20143E+00 7.96360E-14 4.31866E-13
 -1       709 1.88361E+01 1.47646E+00-4.70046E-04-1.16080E+00-9.43316E-14-8.86016E-14
 -1       710 1.93070E+01 1.14751E+00-6.41248E-04-1.60130E+00 1.10566E-13 1.64224E-13
 -1       711 1.98257E+01 7.99819E-01-6.41939E-06-1.77087E+00-1.43210E-13-3.03068E-14
 -1       712 1.67445E+01-3.61515E+00 8.24309E-02 5.84296E+00-3.31620E-13 1.91680E-13
 -1       713 8.10450E+00-1.83275E-01 1.57694E-01-5.10623E-01 1.15667E-13-1.29612E-13
 -1       714 2.74188E+01 4.64033E+00-1.41067E-01-1.98332E+00-5.00280E-13 8.56485E-14
 -1       715 2.02959E+01 1.42640E+00 6.26727E-04-9.75874E-01-3.57974E-13-4.48119E-13
 -1       716 2.77586E+01-2.85671E+00-4.91670E-02-4.87177E-01-4.39540E-13 1.85817E-13
 -1       717 2.00714E+01-4.94954E+00 5.66484E-02-5.32131E+00-1.11616E-13-1.69670E-13
 -1       718 1.85817E+01-4.10346E+00 7.76576E-02 5.49964E+00 4.53606E-13-1.76388E-13
 -1       719 2.01043E+01 3.52730E-01 5.92154E-04 1.51039E-01 2.72319E-13-2.09241E-13
 -1       720 1.99414E+01 2.68710E-02 1.88909E-06-1.69326E-01 1.05557E-13-2.10150E-13
 -1       721 2.02045E+01 6.14302E-01 1.01177E-03 4.22135E-01 3.38922E-13-1.86421E-13
 -1       722 2.79720E+01-2.46295E+00-6.34385E-02 1.05474E+00-1.77176E-14-1.55306E-13
 -1       723 2.27724E+01-5.26046E+00 4.04263E-02-4.52862E+00 1.59421E-14-8.39849E-14
 -1       724 2.00264E+01 2.29402E+00-1.64700E-03 6.38873E-01 3.41314E-13-5.15262E-13
 -1       725 2.85165E+01 8.79898E-01-1.12847E-01-2.30742E+00-7.03920E-13 1.62780E-13
 -1       726 2.80449E+01-7.48863E-01-7.95992E-02 1.72345E+00-1.43992E-13 4.41022E-13
 -1       727 1.45166E+01-2.84559E+00 1.15282E-01-5.63728E+00-1.65069E-13-5.15608E-13
 -1       728 2.84195E+01 1.55761E+00-6.03650E-02 2.66050E+00 2.08174E-13-9.22387E-14
 -1       729 1.11180E+01-1.68846E+00 1.22867E-01 4.92374E+00 4.07310E-13-6.91551E-13
 -1       730 1.54322E+01-3.52227E+00 9.63440E-02-6.16293E+00-2.21351E-14 4.46039E-13
 -1       731 2.00215E+01 2.30213E+00-1.76917E-03-6.28921E-01-1.31123E-13-6.41795E-13
 -1       732 9.36130E+00-4.42472E-01 1.39514E-01-2.96323E+00 1.51943E-13-7.73603E-13
 -1       733 2.46334E+01-5.01791E+00 7.63460E-03 2.82312E+00 6.04169E-14 2.30564E-13
 -1       734 2.52574E+01-5.12294E+00-1.10592E-02-2.65480E+00-8.29059E-14-6.44589E-14
 -1       735 7.66313E+00-1.66988E-01 1.48075E-01 1.14367E+00 2.83867E-13-2.56579E-13
 -1       736 2.71975E+01 3.11956E+00-1.28744E-01 2.23157E+00-2.38996E-13-2.52021E-14
 -1       737 2.68033E+01 5.80222E+00-1.51558E-01 5.10824E-02-3.98279E-13-1.02732E-14
 -1       738 2.82709E+01-1.35567E+00-7.78232E-02-1.48998E+00-1.58398E-14-8.58241E-13
 -1       739 2.68244E+01 4.58063E+00-1.50565E-01 1.83067E+00 5.10869E-13 3.76088E-15
 -1       740 2.65895E+01-4.57609E+00-3.28183E-02 1.54911E+00-3.07888E-13-5.99614E-13
 -1       741 2.66121E+01 5.17335E+00-1.49347E-01-8.27562E-01 4.95846E-13-4.02118E-13
 -1       742 2.01115E+01 2.06219E+00-2.96207E-03-8.45190E-01-2.43433E-13-6.05972E-13
 -1       743 1.99305E+01 2.52456E+00-1.62765E-03-1.27017E-01 4.49671E-14-6.65966E-13
 -1       744 1.96716E+01 9.31893E-01-3.07154E-04 1.80623E+00 1.04558E-13-4.12528E-14
 -1       745 1.42600E+01-1.59718E+00 7.88781E-02 4.75631E+00-1.10384E-13-3.44169E-15
 -1       746 1.99604E+01 2.45291E+00-1.63448E-03-3.84443E-01-3.58968E-14-6.35388E-13
 -1       747 2.02013E+01 4.66286E-01 4.58633E-04-1.80708E+00-2.58244E-13-4.49579E-13
 -1       748 2.65272E+01-9.98534E-01-4.51274E-02-2.03009E+00-4.00669E-13 3.17939E-13
 -1       749 2.02647E+01 1.30577E+00-7.96788E-04 6.30837E-01 3.64747E-13-2.76885E-13
 -1       750 2.02637E+01 4.33124E-01-1.21186E-04-9.52736E-02-1.57993E-13-3.25406E-13
 -1       751 2.02240E+01 2.35743E-01-3.39203E-05 3.48910E-02-1.34184E-13-3.09373E-13
 -1       752 2.01831E+01 1.07173E-01-1.80396E-05 1.13194E-01-1.63698E-13-3.08210E-13
 -1       753 2.01461E+01 2.68603E-02-1.12497E-05 1.54713E-01-1.04359E-13-2.97552E-13
 -1       754 2.01148E+01-1.94291E-02-9.03792E-06 1.71875E-01-9.77518E-14-2.78950E-13
 -1       755 2.00894E+01-4.15583E-02-7.87228E-06 1.74386E-01-6.48933E-14-2.33242E-13
 -1       756 2.00693E+01-4.63375E-02-6.77634E-06 1.69613E-01-4.73557E-14-2.18022E-13
 -1       757 2.00536E+01-3.83790E-02-5.47706E-06 1.63095E-01-1.28510E-13-1.23434E-13
 -1       758 2.00414E+01-2.06795E-02-3.76862E-06 1.59047E-01-1.26860E-13-1.69667E-13
 -1       759 2.00318E+01 4.95756E-03-1.62056E-06 1.60776E-01-8.99421E-14-1.78038E-13
 -1       760 2.00236E+01 3.75906E-02 9.22109E-07 1.71016E-01-1.25520E-13-1.96651E-13
 -1       761 2.00158E+01 7.68493E-02 4.03767E-06 1.92170E-01-1.38124E-13-1.00476E-13
 -1       762 2.00072E+01 1.22654E-01 7.67065E-06 2.26468E-01-1.56107E-13-4.85691E-14
 -1       763 1.99968E+01 1.74894E-01 1.19846E-05 2.76052E-01-7.83955E-14-1.00998E-13
 -1       764 1.99831E+01 2.33022E-01 1.71557E-05 3.42971E-01-1.82762E-14-1.73985E-13
 -1       765 1.99652E+01 2.95545E-01 2.33322E-05 4.29095E-01-4.59276E-15-1.03219E-13
 -1       766 1.99422E+01 3.59291E-01 3.07708E-05 5.35971E-01 2.47367E-14-1.00372E-13
 -1       767 1.99144E+01 4.18424E-01 3.97952E-05 6.64607E-01 1.42384E-13-2.77634E-13
 -1       768 1.98839E+01 4.63071E-01 5.06885E-05 8.15234E-01 3.62993E-15-2.44039E-13
 -1       769 1.98566E+01 4.77551E-01 6.30616E-05 9.87011E-01-5.65444E-14-1.51631E-13
 -1       770 1.98454E+01 4.38239E-01 7.36859E-05 1.17762E+00-4.55729E-14-2.05048E-13
 -1       771 1.98743E+01 3.11464E-01 8.21759E-05 1.38231E+00 6.42413E-14-1.69159E-13
 -1       772 1.99859E+01 5.26055E-02 8.43992E-05 1.59141E+00 9.27511E-14-2.17064E-13
 -1       773 2.02491E+01-3.90803E-01 7.59062E-05 1.78365E+00 1.15072E-13-1.86870E-13
 -1       774 2.07698E+01-1.06535E+00 6.99917E-04 1.90962E+00 2.66824E-13-2.38798E-13
 -1       775 2.16739E+01-1.95125E+00 5.89336E-03 1.86300E+00 3.47184E-13-2.48402E-13
 -1       776 2.30642E+01-2.90004E+00-3.18101E-03 1.41886E+00 2.51778E-13 1.57208E-13
 -1       777 2.49598E+01-3.44074E+00-4.94105E-03 3.43287E-01 8.69915E-14 2.45140E-13
 -1       778 2.67727E+01-1.36195E+00-8.21043E-02 1.55838E+00-4.02924E-14 2.62977E-13
 -1       779 2.54542E+01-3.12572E+00-1.21263E-02 3.49244E-03 1.40836E-13 2.65878E-13
 -1       780 2.37207E+01-3.10089E+00-2.09717E-03-1.31885E+00 3.22559E-13 5.75970E-13
 -1       781 2.22682E+01-2.29188E+00-2.08928E-03-1.98161E+00-2.57515E-14 4.96775E-13
 -1       782 2.12531E+01-1.34755E+00-1.51280E-03-2.20653E+00 1.59538E-14 2.87023E-13
 -1       783 2.06521E+01-5.41053E-01-1.26486E-04-2.16256E+00 1.91169E-13-3.44373E-13
 -1       784 2.03654E+01 1.57130E-02 2.82260E-04-2.01035E+00 2.02218E-13-3.07049E-13
 -1       785 2.01718E+01 2.25028E-01 7.19371E-06-3.11057E-02 1.95210E-13-2.03508E-13
 -1       786 2.00457E+01-3.78325E-02-1.19669E-05-1.82550E-01 1.00175E-13-1.75220E-13
 -1       787 2.00650E+01-1.61290E-02-1.17582E-05-1.80234E-01 1.51324E-13-2.31117E-13
 -1       788 2.00242E+01-3.79907E-02-9.40189E-06-1.68455E-01 1.23538E-13-1.91899E-13
 -1       789 2.00197E+01-2.35499E-02-6.76813E-06-1.62349E-01 6.25091E-14-2.49671E-13
 -1       790 2.00181E+01-2.02000E-03-3.03545E-06-1.61796E-01 9.63829E-14-2.08739E-13
 -1       791 2.00186E+01 2.57499E-02 1.89819E-06-1.69632E-01 7.87399E-14-1.57121E-13
 -1       792 2.00204E+01 5.94934E-02 7.99457E-06-1.88347E-01 2.00667E-14-2.86007E-14
 -1       793 2.00230E+01 9.92913E-02 1.52630E-05-2.20271E-01 1.96552E-14-9.36124E-14
 -1       794 2.00256E+01 1.45319E-01 2.39701E-05-2.67675E-01-1.77298E-14-8.79441E-14
 -1       795 2.00275E+01 1.97531E-01 3.40819E-05-3.32778E-01-1.03161E-13 1.31550E-14
 -1       796 2.00279E+01 2.55237E-01 4.56163E-05-4.17666E-01-4.31670E-14 3.49411E-14
 -1       797 2.00261E+01 3.16485E-01 5.88013E-05-5.24116E-01 3.27564E-14 1.50047E-13
 -1       798 2.00218E+01 3.77167E-01 7.35341E-05-6.53315E-01-2.78743E-15 2.01148E-13
 -1       799 2.00162E+01 4.29705E-01 8.94058E-05-8.05484E-01-2.15749E-14 1.49434E-13
 -1       800 2.00129E+01 4.61216E-01 1.05247E-04-9.79403E-01-1.47694E-14 9.12560E-14
 -1       801 2.00212E+01 4.51080E-01 1.17221E-04-1.17177E+00 1.81009E-14 2.77996E-13
 -1       802 2.00601E+01 3.68167E-01 1.12412E-04-1.37614E+00-1.00430E-13 6.14393E-14
 -1       803 2.01650E+01 1.68754E-01 7.42145E-05-1.58068E+00-9.99999E-14-4.03792E-14
 -1       804 2.03967E+01-2.02133E-01 3.86320E-05-1.76296E+00-1.01356E-13-7.42514E-14
 -1       805 2.08511E+01-7.99662E-01 5.06492E-04-1.87739E+00-7.10238E-14-4.65428E-14
 -1       806 2.16515E+01-1.63626E+00 1.07484E-03-1.82683E+00-2.34752E-13-1.53876E-14
 -1       807 2.29265E+01-2.60516E+00-1.07912E-03-1.42824E+00-1.14848E-13-8.69287E-14
 -1       808 2.46073E+01-3.27008E+00 1.29905E-03-4.50916E-01-7.12169E-14-4.40733E-14
 -1       809 2.58961E+01-3.06201E+00-1.56650E-02-2.87555E-01-2.26174E-13-9.75540E-13
 -1       810 2.41254E+01-3.21556E+00 4.12437E-03 1.17728E+00-2.44365E-13-5.84509E-13
 -1       811 2.25356E+01-2.40502E+00 3.15749E-03 1.97980E+00 7.93247E-14-5.33117E-13
 -1       812 2.14284E+01-1.42522E+00 9.00012E-04 2.26241E+00-3.99967E-14-2.55315E-13
 -1       813 2.07657E+01-5.95591E-01 1.02441E-03 2.25861E+00-1.60787E-13-3.53998E-14
 -1       814 1.76840E+01 1.46624E+00-1.46415E-03-1.56527E-01-5.66511E-15-2.39576E-13
 -1       815 1.94391E+01 5.14858E-01-2.34895E-04-2.03903E+00 1.27836E-13-1.08234E-13
 -1       816 1.79890E+01 1.29048E+00 1.45984E-04-1.07024E+00 1.06961E-13-2.17909E-13
 -1       817 1.14121E+01 6.54999E-02 8.33589E-02-2.26539E+00-1.75372E-14 2.51528E-13
 -1       818 1.42987E+01-1.47788E+00 6.71436E-02-4.60708E+00-1.33462E-13 5.70665E-13
 -1       819 2.02205E+01 4.14795E-01-1.21366E-05 1.12704E-01 2.36100E-13-2.35644E-13
 -1       820 1.34207E+01-8.86696E-01 5.62448E-02-3.92755E+00 2.94634E-14-3.11768E-13
 -1       821 1.86513E+01 9.18873E-01 7.28342E-04-1.73776E+00 6.64794E-14 4.03444E-14
 -1       822 2.07148E+01-3.74153E+00 2.15285E-02 4.32765E+00-2.01660E-13-4.50733E-13
 -1       823 2.00325E+01-4.36810E-02-1.12066E-05-1.76663E-01 1.03261E-13-1.77175E-13
 -1       824 2.46993E+01-4.31629E+00-1.47418E-03-2.08016E+00 2.88847E-13 5.20362E-13
 -1       825 1.06067E+01 5.76373E-01 7.95721E-02-4.85807E-01 2.87049E-13-4.14436E-13
 -1       826 1.88656E+01-3.29278E+00 3.68720E-02-4.59089E+00-3.50582E-13-4.41851E-14
 -1       827 2.02920E+01 7.30552E-01 1.52113E-04-2.94561E-01-2.01644E-13-3.67143E-13
 -1       828 1.13101E+01 1.39724E-02 7.79177E-02 2.70723E+00 2.71180E-13-4.23914E-13
 -1       829 1.96765E+01-3.60912E+00 5.06963E-02-4.82853E+00-6.13572E-15 1.75581E-13
 -1       830 2.02785E+01 9.45566E-01 5.29463E-04 5.57047E-01 3.54323E-13-2.20846E-13
 -1       831 2.20353E+01-3.88158E+00 8.68384E-03 3.26311E+00 4.76343E-13-7.67008E-14
 -1       832 2.02769E+01 1.27425E+00 1.40248E-04-5.64924E-01-2.16150E-13-4.74979E-13
 -1       833 1.13413E+01 2.85003E-01 8.98351E-02 1.71943E+00-1.93296E-13-3.77448E-13
 -1       834 1.56789E+01-1.88780E+00 6.36080E-02 4.63269E+00 3.90590E-13-4.60536E-13
 -1       835 2.01425E+01 1.88807E+00-3.56146E-04 1.99474E-01 1.59413E-13-5.61814E-13
 -1       836 2.42817E+01-4.28888E+00 6.64017E-03 2.32237E+00-4.12065E-13-5.44779E-13
 -1       837 2.01314E+01 1.92541E+00-3.34495E-04 3.43703E-03 9.53323E-14-5.69574E-13
 -1       838 2.02215E+01 1.58165E+00-1.72728E-04 5.35311E-01 3.21340E-13-4.07357E-13
 -1       839 1.91799E+01 6.96802E-01 3.63296E-04 2.02868E+00-1.48455E-13-3.30919E-13
 -1       840 1.93921E+01-2.50232E+00 1.84598E-02 3.71807E+00 4.83982E-13-5.02853E-15
 -1       841 1.69421E+01-1.63222E+00 2.58584E-02-4.01083E+00-2.09016E-13 8.84154E-14
 -1       842 2.22928E+01-3.72554E+00 1.02528E-02-3.25228E+00 4.00964E-14-7.92582E-14
 -1       843 2.02513E+01 6.36428E-01-1.51068E-05 2.97475E-01 3.00644E-13-2.46042E-13
 -1       844 2.02319E+01 1.52917E+00-9.57780E-06-4.62705E-01-1.49831E-13-5.30807E-13
 -1       845 2.00919E+01 2.78450E-02-9.97108E-06-1.61811E-01 4.25688E-14-2.05716E-13
 -1       846 2.02975E+01-4.50985E-02-3.33052E-03 2.18621E+00-4.03129E-14 2.58907E-14
 -1       847 1.83977E+01 1.08896E+00-3.01230E-04 1.59421E+00-2.76465E-13 4.72550E-14
 -1       848 2.01276E+01 1.03545E-01-5.88237E-06-1.16717E-01 1.10716E-13-1.91050E-13
 -1       849 1.78334E+01 1.39188E+00 2.48279E-06 8.16510E-01-1.84359E-13-2.11909E-13
 -1       850 1.82801E+01-2.32472E+00 3.76660E-02 4.44459E+00-2.05287E-13-5.63711E-14
 -1       851 2.25255E+01-3.79086E+00 2.71047E-02-2.90018E+00-1.93072E-13-1.05811E-13
 -1       852 2.01949E+01 1.69742E+00-2.64385E-04-3.14728E-01-5.03668E-14-5.41421E-13
 -1       853 1.29799E+01 3.90384E-01 4.14715E-02-2.12345E+00 1.01633E-13-3.77567E-13
 -1       854 2.00519E+01 3.02779E-01-9.12547E-04 2.09385E+00 3.12107E-13 1.84760E-15
 -1       855 2.01744E+01 1.77465E+00-3.62507E-04 3.82555E-01 2.45821E-13-4.90018E-13
 -1       856 1.99131E+01 2.41520E-01-3.22467E-04-2.08008E+00 5.14571E-14-2.61891E-14
 -1       857 2.03081E+01 2.30826E-01-2.53700E-05 4.73718E-02-1.16906E-13-3.42601E-13
 -1       858 2.02721E+01 9.84304E-02-1.17590E-05 1.04550E-01-1.25226E-13-2.93028E-13
 -1       859 2.02329E+01 1.63023E-02-5.85843E-06 1.34670E-01-8.70819E-14-2.61146E-13
 -1       860 2.01944E+01-2.93233E-02-2.70058E-06 1.46923E-01-6.69657E-14-2.69586E-13
 -1       861 2.01586E+01-4.84359E-02-1.22590E-06 1.48749E-01-4.51131E-14-2.83644E-13
 -1       862 2.01263E+01-4.81159E-02-1.02476E-06 1.45935E-01-8.91616E-14-3.73715E-13
 -1       863 2.00970E+01-3.31852E-02-1.17592E-06 1.42936E-01-1.34615E-13-3.75969E-13
 -1       864 2.00699E+01-6.75499E-03-1.07980E-06 1.43224E-01-5.21792E-14-2.96728E-13
 -1       865 2.00437E+01 2.93591E-02-1.03107E-06 1.49595E-01-8.09488E-14-1.52909E-13
 -1       866 2.00168E+01 7.42480E-02-1.05402E-06 1.64427E-01-8.34158E-14-1.48044E-13
 -1       867 1.99871E+01 1.27576E-01-1.43830E-06 1.89847E-01-1.24306E-13-1.43099E-13
 -1       868 1.99522E+01 1.89231E-01-1.51964E-06 2.27888E-01-1.63639E-13-1.82269E-14
 -1       869 1.99096E+01 2.58888E-01-1.30822E-06 2.80540E-01-4.78302E-14-2.05877E-15
 -1       870 1.98566E+01 3.35522E-01-9.63056E-07 3.49776E-01 4.25399E-15 3.09387E-15
 -1       871 1.97903E+01 4.16775E-01-2.35799E-07 4.37567E-01 7.30738E-14-9.30082E-14
 -1       872 1.97085E+01 4.98105E-01 1.32574E-06 5.45933E-01-6.39562E-15-4.81183E-14
 -1       873 1.96097E+01 5.71672E-01 4.42599E-06 6.77093E-01 4.85204E-14-1.78978E-13
 -1       874 1.94950E+01 6.24873E-01 9.83863E-06 8.33827E-01 1.72688E-14-2.39130E-13
 -1       875 1.93694E+01 6.38453E-01 1.66980E-05 1.02015E+00-1.16281E-13-1.65241E-13
 -1       876 1.92456E+01 5.84118E-01 1.78545E-05 1.24228E+00-4.29115E-14-3.13347E-13
 -1       877 1.91497E+01 4.21776E-01 3.28267E-05 1.50932E+00 1.05400E-13-3.01426E-13
 -1       878 1.91308E+01 9.66797E-02 1.35922E-04 1.83242E+00 1.47740E-13-2.39420E-13
 -1       879 1.92761E+01-4.60190E-01 8.29806E-04 2.21613E+00 2.41666E-13-1.77574E-13
 -1       880 1.97306E+01-1.34160E+00-1.07830E-03 2.64399E+00 2.24500E-13-1.92045E-13
 -1       881 2.04820E+01-1.76332E+00 9.37825E-03-2.99180E+00-1.67533E-14-2.48152E-15
 -1       882 1.99081E+01-7.58275E-01-5.33740E-03-2.64139E+00-1.02976E-13 8.72327E-14
 -1       883 2.00597E+01-1.33432E-02-7.81798E-07-1.51946E-01 6.51830E-14-2.06770E-13
 -1       884 2.00800E+01-3.59486E-02-1.96380E-07-1.53392E-01 1.54344E-13-1.94612E-13
 -1       885 2.00224E+01 5.80821E-02-1.51623E-07-1.69956E-01-3.74573E-14-1.19124E-13
 -1       886 2.00024E+01 1.05850E-01 7.43513E-07-1.94261E-01 4.72455E-14-5.66830E-14
 -1       887 1.99790E+01 1.61682E-01 2.87973E-06-2.31688E-01 4.62658E-14-8.69824E-14
 -1       888 1.99500E+01 2.25645E-01 5.34756E-06-2.84336E-01-8.46323E-14-1.02141E-13
 -1       889 1.99128E+01 2.97353E-01 7.73823E-06-3.54250E-01-1.21594E-13-1.86509E-14
 -1       890 1.98648E+01 3.75399E-01 1.11239E-05-4.43399E-01-4.03788E-14 7.03169E-14
 -1       891 1.98033E+01 4.56582E-01 1.60502E-05-5.53632E-01 3.03456E-14 1.56646E-14
 -1       892 1.97262E+01 5.34822E-01 2.34263E-05-6.86699E-01 3.16244E-14 7.05234E-14
 -1       893 1.96331E+01 5.99654E-01 3.48168E-05-8.44431E-01 6.60559E-15 5.30987E-14
 -1       894 1.95268E+01 6.34167E-01 5.22622E-05-1.02920E+00-5.99715E-14-1.21238E-13
 -1       895 1.94169E+01 6.12264E-01 7.49484E-05-1.24472E+00-1.00506E-13-7.01062E-14
 -1       896 1.93253E+01 4.95274E-01 8.37227E-05-1.49683E+00-9.64934E-14 1.17929E-14
 -1       897 1.92951E+01 2.28615E-01 1.03811E-04-1.79302E+00-1.31302E-13 3.49684E-14
 -1       898 1.94057E+01-2.58901E-01 7.02063E-04-2.13690E+00-9.17594E-14 8.54037E-14
 -1       899 1.97878E+01-1.05452E+00 1.89702E-03-2.52243E+00-3.21106E-14 1.46801E-15
 -1       900 2.07458E+01-2.22219E+00 1.12176E-02-2.83338E+00-1.88996E-13-3.38115E-13
 -1       901 1.99338E+01-8.24414E-01 3.08071E-03 2.77054E+00-3.29343E-13-3.14642E-13
 -1       902 1.68626E+01 1.15170E+00-9.28905E-04-8.37097E-01-2.13725E-13-1.13726E-13
 -1       903 1.43904E+01-1.44185E-01 3.09086E-02-3.04872E+00-6.18876E-14 5.77831E-13
 -1       904 2.03034E+01 4.31089E-01-6.07154E-07 6.48404E-02 1.73072E-13-2.41756E-13
 -1       905 2.05845E+01-1.91555E+00 8.43936E-03 3.09840E+00-1.18480E-13-3.88224E-13
 -1       906 2.20091E+01-3.22528E+00 8.97877E-03 3.06551E+00-2.79558E-13-7.09740E-13
 -1       907 1.30341E+01 7.48146E-01 1.89155E-02-3.19378E-01-3.61161E-13-2.06767E-13
 -1       908 2.00409E+01 1.82803E-02-7.95586E-07-1.56615E-01-3.38340E-14-1.77679E-13
 -1       909 2.01613E+01-2.53102E-02-2.04463E-06-1.59674E-01 1.01435E-13-1.75741E-13
 -1       910 2.08974E+01-2.34410E+00 1.74806E-02 2.75785E+00 4.24352E-13-3.11056E-13
 -1       911 2.01569E+01 1.84003E+00-2.33201E-04-1.66053E-01 2.43918E-14-5.98648E-13
 -1       912 1.78584E+01-1.76145E+00 2.59439E-02-4.10039E+00-1.29919E-13 7.07455E-14
 -1       913 2.03335E+01 4.32011E-01-8.36426E-05-4.76246E-02-1.18624E-13-3.43240E-13
 -1       914 1.47935E+01-1.04717E-01 2.69007E-02 3.02280E+00-2.59287E-13 9.68236E-14
 -1       915 2.03360E+01 7.28827E-01-4.17723E-06-1.90894E-01-1.22232E-13-4.01492E-13
 -1       916 1.24608E+01 7.45392E-01 3.71873E-02 1.06047E+00 1.65038E-13-3.34859E-13
 -1       917 2.02721E+01 2.32096E-01-1.50853E-05-4.46632E-02 1.40620E-13-2.15863E-13
 -1       918 1.46477E+01-2.44277E-01 3.37361E-02 3.13512E+00 3.22953E-13-4.64754E-13
 -1       919 2.03053E+01 1.00459E+00-6.63582E-05 3.67549E-01 2.98029E-13-3.02972E-13
 -1       920 1.76084E+01-1.05835E+00 4.17729E-03 3.30827E+00 3.36559E-13-1.14697E-13
 -1       921 1.53766E+01-2.22857E-01 2.44595E-02-2.99931E+00-1.22402E-13 1.20839E-13
 -1       922 2.01964E+01 2.06032E-02-5.24081E-06-1.45491E-01 8.19262E-14-2.02491E-13
 -1       923 2.01302E+01-4.57922E-02 2.71408E-06-1.61637E-01 8.83467E-14-1.80089E-13
 -1       924 1.98893E+01-1.99924E-01-4.21379E-04-2.34216E+00 1.22207E-13 1.22702E-13
 -1       925 2.03077E+01 6.68147E-01 4.43829E-04 2.08367E-01 2.46715E-13-2.44690E-13
 -1       926 2.01033E+01-4.77594E-02 2.67550E-06-1.57890E-01 1.56734E-13-2.00384E-13
 -1       927 1.76611E+01 7.52626E-01-1.74091E-03-1.84409E+00-4.57951E-15 1.09756E-14
 -1       928 2.02803E+01 1.40521E+00 6.86359E-05 7.04843E-02 1.09489E-13-5.15024E-13
 -1       929 1.95040E+01-1.07175E-01 1.72613E-03 2.50608E+00-4.58892E-14-5.27592E-13
 -1       930 1.67290E+01 1.23344E+00-3.10104E-04 4.36851E-01-2.82020E-13-2.52537E-13
 -1       931 2.02344E+01 1.01797E-01-9.41196E-06-1.10684E-01 9.24944E-14-2.15943E-13
 -1       932 1.34571E+01 9.26665E-01 1.92135E-02-5.96350E-01 2.02389E-14-3.70215E-13
 -1       933 1.49514E+01 8.02604E-01 1.63456E-02 1.34155E+00-1.63712E-13 4.80370E-14
 -1       934 2.02872E+01 1.33831E+00-4.09529E-04 1.97119E-01 1.93758E-13-4.72415E-13
 -1       935 2.03098E+01 1.08126E+00-6.64029E-05-3.23862E-01-1.23874E-13-4.84958E-13
 -1       936 1.84036E+01 4.45473E-01-2.51332E-03 2.25553E+00-2.50354E-13-1.17648E-13
 -1       937 1.92533E+01 1.21650E-01-4.46738E-03-2.33035E+00 8.70783E-14-2.11494E-13
 -1       938 2.03020E+01 1.24360E+00 2.73878E-05-2.38881E-01-6.14010E-14-4.60758E-13
 -1       939 1.96666E+01-2.17306E+00 1.42043E-02 3.72398E+00-3.47838E-13-6.33928E-13
 -1       940 1.70285E+01-3.27729E-01 1.34236E-02-3.03296E+00-1.03470E-13 2.74044E-13
 -1       941 2.03283E+01 7.67391E-02-3.60874E-06 8.77445E-02-7.16941E-14-2.97233E-13
 -1       942 2.02858E+01 2.45311E-04-1.78811E-06 1.06435E-01-4.58714E-14-2.69863E-13
 -1       943 2.02412E+01-3.93980E-02 1.03375E-06 1.13695E-01-5.75145E-14-2.39873E-13
 -1       944 2.01974E+01-5.18755E-02 1.09945E-06 1.14683E-01-1.20669E-13-2.49447E-13
 -1       945 2.01553E+01-4.40643E-02 3.90487E-08 1.13451E-01-9.80243E-14-2.58349E-13
 -1       946 2.01148E+01-2.06276E-02-4.75484E-07 1.13217E-01-5.72767E-14-2.07947E-13
 -1       947 2.00748E+01 1.54690E-02-9.24990E-07 1.16502E-01 2.53283E-15-2.33321E-13
 -1       948 2.00336E+01 6.26075E-02-1.58375E-06 1.25434E-01-7.26051E-14-2.14351E-13
 -1       949 1.99886E+01 1.19973E-01-6.65593E-06 1.41849E-01-9.87759E-14-1.80431E-13
 -1       950 1.99369E+01 1.87353E-01-1.06385E-05 1.67434E-01-9.17810E-14-1.47348E-13
 -1       951 1.98751E+01 2.64565E-01-1.46574E-05 2.03907E-01 2.97223E-15-2.69904E-14
 -1       952 1.97991E+01 3.51018E-01-1.94555E-05 2.52983E-01 1.79389E-14 6.11623E-14
 -1       953 1.97048E+01 4.45204E-01-2.58032E-05 3.16507E-01 1.55699E-14-4.33523E-15
 -1       954 1.95876E+01 5.43989E-01-3.40449E-05 3.96602E-01-1.81314E-14 3.06211E-14
 -1       955 1.94432E+01 6.41781E-01-4.49998E-05 4.95932E-01-1.87539E-14-9.18025E-14
 -1       956 1.92677E+01 7.29513E-01-6.05880E-05 6.18268E-01 1.44928E-16 1.35457E-14
 -1       957 1.90582E+01 7.93388E-01-8.61550E-05 7.69535E-01-5.35858E-14-1.05085E-13
 -1       958 1.88146E+01 8.13258E-01-1.38244E-04 9.59604E-01-9.80400E-14-2.15113E-13
 -1       959 1.85412E+01 7.60301E-01-2.60734E-04 1.20503E+00-1.23823E-14-1.19540E-13
 -1       960 1.82522E+01 5.93661E-01-2.97454E-04 1.53194E+00 1.09336E-14-2.50325E-13
 -1       961 1.79765E+01 2.54387E-01-5.86169E-04 1.98192E+00 2.02696E-13-3.36785E-13
 -1       962 1.99093E+01 2.34916E-01-3.04755E-06-2.18712E-01-7.48428E-14 1.02628E-13
 -1       963 1.85464E+01-7.28507E-01 1.21690E-02-3.11521E+00-1.26379E-13-1.38451E-13
 -1       964 1.99175E+01-2.52929E+00 2.08407E-02-3.79873E+00 9.02403E-14-3.24775E-15
 -1       965 1.99601E+01 1.62896E-01-2.98099E-06-1.80847E-01-1.67691E-14-1.08149E-14
 -1       966 2.00026E+01 1.00681E-01-3.80360E-06-1.54686E-01-1.23839E-14-9.89936E-14
 -1       967 1.98463E+01 3.16616E-01-5.75433E-06-2.70014E-01-4.60543E-14 1.02281E-13
 -1       968 1.97670E+01 4.07155E-01-8.28944E-06-3.36494E-01-7.19836E-14-1.09452E-13
 -1       969 1.96670E+01 5.04354E-01-1.07991E-05-4.19950E-01-7.26248E-14-6.37403E-14
 -1       970 1.95413E+01 6.03870E-01-1.35389E-05-5.22413E-01-1.87692E-14 6.35413E-14
 -1       971 1.93855E+01 6.98135E-01-1.69928E-05-6.46547E-01-8.22961E-15 3.02412E-14
 -1       972 1.91959E+01 7.74982E-01-2.24943E-05-7.96506E-01 4.64619E-14-7.91922E-15
 -1       973 1.89708E+01 8.15831E-01-3.51233E-05-9.79553E-01-9.44922E-14-6.74279E-14
 -1       974 1.87133E+01 7.93101E-01-7.53843E-05-1.20879E+00-3.30482E-14-1.70813E-13
 -1       975 1.84355E+01 6.66223E-01-2.28262E-04-1.50662E+00-1.40684E-13-2.27641E-13
 -1       976 1.81681E+01 3.76225E-01-4.74536E-04-1.90766E+00-2.02160E-13-1.80285E-13
 -1       977 1.79784E+01-1.65621E-01 8.90996E-04-2.46534E+00-7.67394E-14-1.87732E-13
 -1       978 2.03628E+01 4.09500E-01-5.42746E-05 2.27205E-02 1.32943E-13-2.88198E-13
 -1       979 1.84117E+01-1.88617E-01 2.79760E-03 2.76838E+00-2.30179E-13-2.48850E-13
 -1       980 1.87727E+01-1.07007E+00 2.27601E-03 3.29697E+00-2.82361E-13-3.36886E-13
 -1       981 2.01087E+01-2.64713E-02-1.55608E-06-1.27999E-01 1.04377E-13-1.43033E-13
 -1       982 2.03404E+01 2.14129E-01 3.37241E-06-5.25741E-02 8.93728E-14-2.75539E-13
 -1       983 2.03847E+01 3.95721E-01-3.55839E-05-9.88497E-03-8.05238E-14-3.35668E-13
 -1       984 2.03023E+01 1.20294E+00 1.63334E-04 3.02310E-01 2.30854E-13-3.95920E-13
 -1       985 2.03786E+01 6.76016E-01-2.51579E-04-1.03653E-01-6.13497E-14-3.90478E-13
 -1       986 2.03639E+01 2.03029E-01-1.70188E-05 5.13452E-02-8.71614E-14-2.99975E-13
 -1       987 1.46213E+01 6.71629E-01 1.31296E-02 1.68504E+00 1.73258E-13-1.26214E-13
 -1       988 1.79495E+01-8.36178E-01 1.00702E-02-3.05938E+00 1.33871E-13-1.49554E-13
 -1       989 1.73294E+01 9.47428E-01-2.04219E-03 1.56316E+00-3.84096E-13 4.02770E-15
 -1       990 2.02909E+01 1.36245E+00 5.63018E-05-4.88436E-02 5.18855E-14-5.35170E-13
 -1       991 2.03535E+01 9.36278E-01 5.53020E-04-1.71277E-01-4.45225E-14-4.31538E-13
 -1       992 1.52759E+01 7.57601E-01 1.94122E-02-1.54340E+00-1.87670E-13 1.22764E-13
 -1       993 1.48367E+01 6.28138E-01 1.25290E-02-1.79264E+00-1.74777E-13-1.67005E-13
 -1       994 2.00398E+01 4.81895E-02-1.20532E-06-1.38439E-01-4.47526E-14-4.01844E-14
 -1       995 1.77934E+01-3.46385E-01 6.56113E-04 2.60906E+00 2.90365E-13-3.67998E-13
 -1       996 2.02949E+01 1.32384E+00 7.83308E-05-1.48765E-01-9.97251E-15-4.99938E-13
 -1       997 2.02641E+01 6.75543E-03-1.51851E-07-1.20883E-01 9.02593E-14-2.28651E-13
 -1       998 2.01444E+01-4.62925E-02 4.18079E-06-1.29340E-01 1.30435E-13-1.77292E-13
 -1       999 2.02224E+01-3.55615E-02-4.18941E-07-1.30089E-01 1.40491E-13-2.28239E-13
 -1      1000 2.03613E+01 6.93131E-01 8.78224E-05 1.34755E-01 1.89115E-13-3.27739E-13
 -1      1001 1.47379E+01 1.07399E+00 8.72975E-03 4.31897E-01 5.78835E-14-5.35520E-14
 -1      1002 1.53613E+01 9.91873E-01-4.55793E-03-2.88245E-01-2.25566E-13-2.97115E-14
 -1      1003 2.03050E+01 8.55459E-02 1.67901E-06-9.75565E-02 3.81395E-14-2.65895E-13
 -1      1004 1.67787E+01 1.96812E-01 9.45964E-03 2.54189E+00-1.57307E-13-1.35652E-13
 -1      1005 2.00745E+01 5.57771E-03 2.13490E-06-1.30228E-01-6.29419E-15-3.31463E-14
 -1      1006 2.03769E+01 9.81324E-01 2.02615E-04 1.26977E-02 7.07448E-14-4.41132E-13
 -1      1007 1.61807E+01 1.40665E-01 3.95948E-03 2.42142E+00 3.68239E-13-3.12995E-13
 -1      1008 2.03762E+01 9.44137E-01 4.00946E-04 8.79589E-02 1.54576E-13-4.40237E-13
 -1      1009 1.78418E+01-8.06129E-01 9.85841E-03 3.38104E+00-2.49686E-13 1.41480E-14
 -1      1010 2.03829E+01 1.76886E-01-3.34843E-05-4.94487E-02 8.79159E-14-2.99804E-13
 -1      1011 2.03096E+01-1.79107E-02-9.01190E-06 7.04990E-02-2.63502E-14-2.15678E-13
 -1      1012 2.02599E+01-4.74799E-02 4.00155E-06 7.37738E-02-7.40734E-14-2.08836E-13
 -1      1013 2.02099E+01-5.08015E-02 2.63752E-06 7.41210E-02-1.12859E-13-2.02147E-13
 -1      1014 2.01606E+01-3.40430E-02 1.17184E-06 7.39857E-02-5.81293E-14-1.38291E-13
 -1      1015 2.01115E+01-1.53910E-03-1.05255E-05 7.52959E-02-8.67090E-14-1.63233E-13
 -1      1016 2.00610E+01 4.43131E-02 4.64871E-06 7.95274E-02-1.81292E-14-2.64421E-13
 -1      1017 2.00067E+01 1.02081E-01-1.89832E-06 8.80867E-02-4.09695E-14-2.76093E-13
 -1      1018 1.99456E+01 1.70995E-01-2.98863E-05 1.02071E-01-1.66926E-14-1.88085E-13
 -1      1019 1.98735E+01 2.51330E-01-4.65242E-05 1.22825E-01-3.39787E-14-1.29019E-13
 -1      1020 1.97861E+01 3.42510E-01-5.62123E-05 1.51470E-01 8.66226E-15-1.23856E-13
 -1      1021 1.96781E+01 4.43798E-01-7.17908E-05 1.89356E-01-4.61872E-14-1.22092E-13
 -1      1022 1.95439E+01 5.53239E-01-9.14470E-05 2.38105E-01 8.80602E-15-8.01489E-14
 -1      1023 1.93769E+01 6.67122E-01-1.16945E-04 2.99806E-01-4.34949E-14-4.47588E-14
 -1      1024 1.91702E+01 7.79305E-01-1.52613E-04 3.77448E-01-7.12345E-15-6.44862E-15
 -1      1025 1.89156E+01 8.80531E-01-2.08400E-04 4.75728E-01-3.43483E-14-1.10300E-13
 -1      1026 1.86036E+01 9.57734E-01-3.07714E-04 6.02497E-01-1.25833E-13-5.52151E-14
 -1      1027 1.82224E+01 9.93230E-01-5.00559E-04 7.71361E-01-2.38064E-14-2.80941E-14
 -1      1028 1.77564E+01 9.63133E-01-8.09588E-04 1.00602E+00 1.85871E-14-4.08939E-14
 -1      1029 1.71864E+01 8.30764E-01-1.86171E-04 1.34217E+00 6.12634E-15 1.21334E-13
 -1      1030 1.97265E+01 4.10719E-01-4.42174E-05-2.19748E-01-3.30151E-15 1.29173E-13
 -1      1031 2.01822E+01-5.08875E-02 5.29665E-06-1.31249E-01 1.35833E-13-2.18473E-13
 -1      1032 2.03457E+01 5.88779E-02-1.65079E-05-7.52896E-02 6.03531E-14-3.56067E-13
 -1      1033 1.99006E+01 2.26121E-01-1.82095E-05-1.45451E-01-7.95664E-14 1.87480E-13
 -1      1034 2.03996E+01 6.24763E-01-5.60473E-05 6.50552E-02 1.19689E-13-3.77718E-13
 -1      1035 1.98229E+01 3.13081E-01-3.28564E-05-1.77518E-01-2.77073E-14 8.64629E-14
 -1      1036 1.99647E+01 1.50221E-01-2.23332E-05-1.22317E-01-1.15011E-13 4.84715E-14
 -1      1037 1.96057E+01 5.17713E-01-5.67616E-05-2.73406E-01-4.57524E-14 1.42332E-13
 -1      1038 1.94540E+01 6.31174E-01-7.16861E-05-3.39967E-01 1.54335E-14-4.49202E-14
 -1      1039 1.92643E+01 7.45940E-01-9.16674E-05-4.21421E-01 5.04764E-14-1.82476E-13
 -1      1040 1.90284E+01 8.53791E-01-1.22679E-04-5.20951E-01-7.92856E-14-1.96701E-13
 -1      1041 1.87369E+01 9.42591E-01-1.77743E-04-6.44243E-01-7.76126E-14 1.43417E-14
 -1      1042 1.83784E+01 9.95380E-01-2.83591E-04-8.01916E-01 2.47564E-14 7.67581E-14
 -1      1043 1.79381E+01 9.88827E-01-5.66370E-04-1.01437E+00-1.12791E-13 1.09515E-14
 -1      1044 1.74033E+01 8.86103E-01-7.04752E-04-1.31808E+00-1.29554E-13 2.09894E-14
 -1      1045 1.67482E+01 6.37925E-01-4.15082E-04-1.75810E+00-1.55077E-13-4.21082E-14
 -1      1046 1.61004E+01 3.09094E-01 5.42463E-03-2.27353E+00-1.37158E-13 5.36116E-15
 -1      1047 2.03950E+01 1.59136E-01-5.13509E-05 4.26011E-02-6.53232E-14-3.06927E-13
 -1      1048 1.66840E+01 5.83699E-01 1.40020E-03 1.79075E+00 1.48016E-13-8.07659E-14
 -1      1049 2.01142E+01-9.99858E-03-1.07169E-05-9.36872E-02-7.05605E-14-4.64381E-14
 -1      1050 2.04053E+01 3.57583E-01-1.51775E-04-4.31953E-03 8.70174E-14-3.11632E-13
 -1      1051 2.04150E+01 5.88871E-01-2.15330E-04-4.05000E-02-8.03868E-15-4.13169E-13
 -1      1052 2.03763E+01 9.71058E-01 2.97892E-04-5.07943E-02 8.39471E-15-4.84676E-13
 -1      1053 2.04178E+01 3.35038E-01 4.30556E-05 1.04276E-02-4.25691E-14-3.54461E-13
 -1      1054 2.03563E+01 4.69493E-02-3.11702E-05 6.13937E-02-3.13024E-14-2.49254E-13
 -1      1055 2.01597E+01-3.86481E-02-1.42037E-06-9.30161E-02 8.16888E-14-1.18344E-13
 -1      1056 2.00193E+01 8.55331E-02-1.49711E-05-1.06850E-01-7.02645E-14-1.25907E-13
 -1      1057 2.03663E+01 9.69177E-01 4.63011E-04-1.12889E-01-2.94908E-14-4.50207E-13
 -1      1058 2.03010E+01-1.03326E-02 3.36218E-05-8.80785E-02 1.04260E-13-3.06777E-13
 -1      1059 1.52524E+01 1.06044E+00 8.65033E-05-6.69096E-01-6.08004E-14-2.30636E-13
 -1      1060 2.00682E+01 3.19386E-02 1.00702E-05-9.78247E-02 2.56556E-14-1.06267E-13
 -1      1061 2.03599E+01 9.70879E-01 3.05607E-04 1.44289E-01 1.84201E-13-4.21756E-13
 -1      1062 1.55998E+01 8.72930E-01 5.74073E-03 1.29676E+00 7.46494E-14 2.60148E-14
 -1      1063 2.04239E+01 6.60220E-01-2.09897E-04-8.12072E-03 3.76946E-14-3.99079E-13
 -1      1064 2.04242E+01 6.45859E-01 2.84857E-04 2.64677E-02 6.44544E-14-4.01977E-13
 -1      1065 2.02547E+01-5.18291E-02 2.26688E-07 2.91194E-02-7.05955E-14-1.15645E-13
 -1      1066 2.02009E+01-4.45827E-02 1.67721E-05 2.90701E-02-2.24572E-14-3.57301E-14
 -1      1067 2.01476E+01-1.88397E-02 5.39935E-06 2.93684E-02-4.97452E-14-5.75818E-14
 -1      1068 2.00924E+01 2.28501E-02-1.36531E-05 3.06128E-02-1.20720E-13 5.08147E-15
 -1      1069 2.00346E+01 7.69297E-02 4.17265E-06 3.32983E-02-1.08164E-14-1.42336E-14
 -1      1070 1.99705E+01 1.44102E-01 1.31315E-04 3.84493E-02 1.82929E-14-4.87666E-14
 -1      1071 1.98952E+01 2.23678E-01 5.72805E-05 4.59174E-02-7.35187E-14-1.94143E-13
 -1      1072 1.98057E+01 3.14621E-01 4.58204E-05 5.63585E-02 5.01260E-15-2.33966E-13
 -1      1073 1.96960E+01 4.17234E-01 5.95044E-05 7.07003E-02 2.36517E-14-2.14814E-13
 -1      1074 1.95598E+01 5.30329E-01 7.73407E-05 8.97034E-02-1.46446E-14-1.46043E-13
 -1      1075 1.93897E+01 6.51536E-01 1.01605E-04 1.14467E-01 3.35839E-14-1.26213E-13
 -1      1076 1.91775E+01 7.76725E-01 1.35454E-04 1.46574E-01-2.57063E-14-1.35370E-13
 -1      1077 1.89126E+01 8.99583E-01 1.82331E-04 1.88428E-01-7.56410E-14-1.94573E-13
 -1      1078 1.85820E+01 1.01138E+00 2.42589E-04 2.43838E-01-9.88326E-14-2.13610E-13
 -1      1079 1.81668E+01 1.10108E+00 3.01280E-04 3.18952E-01-9.48296E-14-2.36988E-13
 -1      1080 1.76382E+01 1.15576E+00 2.23370E-04 4.23851E-01-1.02476E-13-1.98091E-13
 -1      1081 1.69606E+01 1.16341E+00 1.10378E-04 5.80991E-01 1.30571E-13-2.58240E-13
 -1      1082 1.94449E+01 6.19715E-01-7.52052E-05-1.61309E-01 1.28988E-13-2.17926E-13
 -1      1083 1.97305E+01 3.89877E-01-3.62984E-05-1.05835E-01-1.41706E-14-1.93732E-14
 -1      1084 1.99161E+01 2.02566E-01-1.16001E-05-7.15824E-02-1.33721E-13-8.59426E-14
 -1      1085 1.92458E+01 7.44745E-01-1.05827E-04-1.98790E-01 9.32973E-14-1.11115E-13
 -1      1086 1.89967E+01 8.69627E-01-1.48048E-04-2.44180E-01-7.69578E-14-1.93815E-14
 -1      1087 1.86847E+01 9.86144E-01-2.10059E-04-2.99653E-01-1.94879E-13 4.66688E-14
 -1      1088 1.82929E+01 1.08346E+00-3.06389E-04-3.69391E-01-6.51221E-14 8.34857E-14
 -1      1089 1.77960E+01 1.14848E+00-4.16756E-04-4.61133E-01-5.40786E-14 2.05502E-13
 -1      1090 1.71527E+01 1.17050E+00 3.40675E-04-5.87121E-01-5.30981E-14 2.19935E-13
 -1      1091 2.03080E+01-3.40724E-02 2.03621E-05 2.84822E-02-4.96209E-14-1.93207E-13
 -1      1092 2.04326E+01 2.59268E-01-2.70325E-05 1.04358E-02 5.01946E-15-3.11765E-13
 -1      1093 2.04034E+01 1.08908E-01 1.06887E-04 2.06669E-02-1.91954E-15-2.54393E-13
 -1      1094 1.96037E+01 5.00240E-01-5.26281E-05-1.30566E-01 5.20208E-14-1.26679E-13
 -1      1095 2.03591E+01 1.60377E-02 4.04786E-05 2.60012E-02 1.47182E-14-2.21382E-13
 -1      1096 2.04404E+01 4.32021E-01 6.69901E-05-1.20116E-03 3.62313E-14-3.83258E-13
 -1      1097 1.98325E+01 2.90534E-01-2.58304E-05-8.65515E-02-2.36924E-14-4.73167E-14
 -1      1098 1.59951E+01 9.01916E-01-1.77881E-03-1.29455E+00-1.28001E-14-7.29755E-14
 -1      1099 2.04025E+01 1.29551E-01 5.76254E-06-3.20387E-02 6.53138E-14-3.28748E-13
 -1      1100 1.99863E+01 1.27088E-01 1.61483E-04-6.17853E-02-1.93942E-13 1.47518E-14
 -1      1101 2.01535E+01-2.51284E-02 7.77554E-06-5.06336E-02-2.76114E-14-8.61869E-14
 -1      1102 2.03615E+01 2.80762E-02 8.21549E-06-4.33911E-02 3.83454E-14-3.13752E-13
 -1      1103 2.02542E+01-4.43754E-02-2.33444E-06-9.30576E-02 8.67166E-14-2.34438E-13
 -1      1104 2.01017E+01 1.18807E-02-6.50314E-05-5.17274E-02 7.97756E-15-7.76356E-14
 -1      1105 1.63223E+01 1.12674E+00 6.74991E-03-7.88806E-01 2.04745E-14-3.95037E-15
 -1      1106 1.54931E+01 1.13939E+00 2.82190E-03 2.37168E-01 1.20814E-13-6.83279E-14
 -1      1107 2.04288E+01 2.88886E-01 5.33601E-05-1.21537E-02 5.08179E-14-3.82840E-13
 -1      1108 2.02065E+01-5.22032E-02-8.92812E-05-9.38205E-02 9.64108E-14-1.86724E-13
 -1      1109 1.63588E+01 1.06240E+00 3.33607E-03 8.74456E-01 7.72380E-14-4.98092E-14
 -1      1110 2.01756E+01-3.39770E-02 4.25915E-05-1.74885E-02-2.43561E-14-7.86118E-14
 -1      1111 2.00025E+01 1.09524E-01-1.54535E-04-2.10293E-02-1.21294E-13-8.35684E-14
 -1      1112 2.02064E+01-4.79858E-02 1.25283E-04-4.96712E-02 3.98348E-14-1.73857E-13
 -1      1113 2.02849E+01-4.72258E-02-8.50943E-05-1.81098E-02 2.93741E-15-1.93852E-13
 -1      1114 2.02288E+01-5.02587E-02 4.14479E-05-1.81945E-02-2.37633E-16-1.11990E-13
 -1      1115 2.04350E+01 4.89481E-01-7.09130E-04 8.13956E-03 5.96620E-14-3.93291E-13
 -1      1116 2.00463E+01 6.33273E-02 1.00075E-05-5.54190E-02-7.87821E-14-4.90785E-14
 -1      1117 2.03263E+01-2.11972E-02-4.53857E-05-3.30588E-02 4.51049E-14-2.54773E-13
 -1      1118 2.00644E+01 4.88090E-02 1.75657E-05-1.91587E-02-6.99571E-14 6.62409E-14
 -1      1119 2.79618E+01 9.08618E+00 2.32532E+00-6.69859E+00-7.65499E-14 2.19103E-12
 -1      1120 2.05460E+01 6.22670E+00 2.09648E-01-3.90487E+00-4.08840E-14 1.81188E-13
 -1      1121 1.94337E+01 5.85272E+00 7.53451E-02-2.88914E+00-2.63678E-14-6.51767E-13
 -1      1122 1.90255E+01 5.72573E+00 6.02824E-02-2.23620E+00-1.79995E-14-1.02994E-12
 -1      1123 1.88397E+01 5.66916E+00 5.75331E-02-1.70270E+00-1.06998E-14-1.20000E-12
 -1      1124 1.87468E+01 5.64073E+00 5.56103E-02-1.23525E+00-5.37938E-15-1.27193E-12
 -1      1125 1.86985E+01 5.62570E+00 5.38727E-02-8.05098E-01-3.43042E-15-1.28879E-12
 -1      1126 1.86747E+01 5.61821E+00 5.26112E-02-3.93214E-01 7.40293E-16-1.26917E-12
 -1      1127 1.86680E+01 5.61606E+00 5.22091E-02 8.50363E-03 4.52080E-15-1.23883E-12
 -1      1128 1.86757E+01 5.61854E+00 5.27169E-02 4.10623E-01 7.14402E-15-1.20051E-12
 -1      1129 1.87005E+01 5.62640E+00 5.40957E-02 8.23817E-01 8.75038E-15-1.15009E-12
 -1      1130 1.87507E+01 5.64211E+00 5.62878E-02 1.25652E+00 1.37477E-14-1.04562E-12
 -1      1131 1.88453E+01 5.67114E+00 5.84755E-02 1.72851E+00 1.75172E-14-8.86785E-13
 -1      1132 1.90310E+01 5.72744E+00 6.03946E-02 2.26962E+00 2.34222E-14-6.02715E-13
 -1      1133 1.94300E+01 5.84977E+00 6.91681E-02 2.92967E+00 3.08642E-14-8.96349E-14
 -1      1134 2.04521E+01 6.18159E+00 1.53192E-01 3.87941E+00 3.50275E-14 8.62407E-13
 -1      1135 2.52160E+01 7.99395E+00 1.43039E+00 5.84681E+00 6.98330E-14 2.80653E-12
 -1      1136 2.88115E+01 3.61644E+00 1.27146E+00-4.21729E+00-3.06366E-13 3.46023E-12
 -1      1137 2.02252E+01-1.77714E-01-6.16287E-01-1.09993E-01-1.04847E-13 2.75580E-12
 -1      1138 1.88302E+01-9.63706E-02-2.36340E-01 6.25112E-02-4.65131E-14 1.76101E-12
 -1      1139 1.84954E+01-4.80183E-02-5.95380E-02 4.04838E-02-2.05695E-14 1.09605E-12
 -1      1140 1.84391E+01-2.46252E-02-1.51963E-02 2.67364E-02-2.24352E-14 6.28816E-13
 -1      1141 1.85195E+01-1.30583E-02-4.98718E-03 1.90324E-02-1.57656E-14 3.48419E-13
 -1      1142 1.86651E+01-6.60108E-03-1.45180E-03 1.40685E-02-1.64223E-14 8.64950E-14
 -1      1143 1.88361E+01-2.85093E-03 5.84053E-04 1.06132E-02-5.33774E-15-7.98823E-14
 -1      1144 1.90101E+01-6.44903E-04 1.87413E-03 8.05143E-03-5.83051E-15-2.15828E-13
 -1      1145 1.91746E+01 6.07576E-04 2.57703E-03 6.07252E-03-2.88499E-15-4.20284E-13
 -1      1146 1.93230E+01 1.24253E-03 2.82116E-03 4.51087E-03-1.02105E-14-6.31128E-13
 -1      1147 1.94528E+01 1.46290E-03 2.73066E-03 3.27008E-03 2.49797E-14-6.46706E-13
 -1      1148 1.95643E+01 1.39620E-03 2.40228E-03 2.28746E-03-8.70128E-15-7.43130E-13
 -1      1149 1.96594E+01 1.12278E-03 1.90057E-03 1.51934E-03-1.75633E-15-7.25252E-13
 -1      1150 1.97416E+01 6.91128E-04 1.26211E-03 9.35343E-04-2.21898E-14-7.47111E-13
 -1      1151 1.98152E+01 1.27187E-04 5.01227E-04 5.16505E-04-2.01232E-14-7.95674E-13
 -1      1152 1.98857E+01-5.59052E-04-3.84833E-04 2.55271E-04-2.13444E-14-9.48460E-13
 -1      1153 1.99593E+01-1.36798E-03-1.41101E-03 1.56586E-04-1.51750E-15-1.05107E-12
 -1      1154 2.00433E+01-2.30466E-03-2.59895E-03 2.39636E-04-1.23684E-14-1.19177E-12
 -1      1155 2.01461E+01-3.37175E-03-3.96975E-03 5.39946E-04 3.67951E-15-1.37762E-12
 -1      1156 2.02774E+01-4.55975E-03-5.53280E-03 1.11140E-03-7.03165E-15-1.32815E-12
 -1      1157 2.04482E+01-5.83248E-03-7.26769E-03 2.02716E-03 1.91665E-14-9.76043E-13
 -1      1158 2.06705E+01-7.10507E-03-9.09405E-03 3.37729E-03 6.36947E-15-8.49361E-13
 -1      1159 2.09571E+01-8.21125E-03-1.08219E-02 5.25842E-03-9.44492E-15-1.15625E-12
 -1      1160 2.13196E+01-8.85702E-03-1.20735E-02 7.74642E-03-6.44743E-15-1.08697E-12
 -1      1161 2.17662E+01-8.56245E-03-1.21707E-02 1.08361E-02-1.10863E-14-8.24056E-13
 -1      1162 2.22966E+01-6.60538E-03-1.00014E-02 1.43229E-02-5.86342E-15-7.26160E-13
 -1      1163 2.28949E+01-2.01192E-03-3.93312E-03 1.75985E-02-5.84663E-15-1.02760E-12
 -1      1164 2.35186E+01 6.30349E-03 8.03436E-03 1.93503E-02-1.44981E-14-1.08160E-12
 -1      1165 2.40849E+01 1.90630E-02 2.74940E-02 1.72529E-02-1.69402E-14-8.98120E-13
 -1      1166 2.44607E+01 3.55733E-02 5.37496E-02 7.96160E-03-1.89367E-14-7.92430E-13
 -1      1167 2.44668E+01 5.20818E-02 8.07585E-02-1.18853E-02 2.08800E-14-1.22887E-12
 -1      1168 2.39185E+01 6.03545E-02 9.45517E-02-4.27766E-02 5.13044E-15-1.22875E-12
 -1      1169 2.27198E+01 4.89323E-02 7.60871E-02-7.80220E-02 2.73943E-14-1.23813E-12
 -1      1170 2.09951E+01 1.04585E-02 1.39096E-02-1.01328E-01 3.43400E-14-1.25425E-12
 -1      1171 1.91728E+01-4.68905E-02-7.73192E-02-9.27742E-02 1.83538E-14-1.12357E-12
 -1      1172 1.78848E+01-9.44930E-02-1.52006E-01-4.50212E-02-2.69151E-14-1.34691E-12
 -1      1173 1.76500E+01-1.01311E-01-1.62655E-01 2.41981E-02 2.10118E-14-1.48224E-12
 -1      1174 1.85424E+01-6.22072E-02-1.01615E-01 8.08755E-02-8.29718E-15-1.68315E-12
 -1      1175 2.01376E+01-3.42927E-03-8.56515E-03 1.00453E-01-1.59375E-14-2.01850E-12
 -1      1176 2.17900E+01 4.28764E-02 6.59977E-02 8.36471E-02 1.96110E-14-2.11291E-12
 -1      1177 2.29857E+01 6.20176E-02 9.73043E-02 4.86284E-02 2.45429E-14-1.53499E-12
 -1      1178 2.35117E+01 5.79639E-02 9.08117E-02 1.38974E-02-5.37747E-14-1.38569E-12
 -1      1179 2.34148E+01 4.18326E-02 6.48818E-02-1.10018E-02 4.48799E-14-1.54447E-12
 -1      1180 2.28734E+01 2.27060E-02 3.48379E-02-2.47536E-02 5.88832E-14-1.16145E-12
 -1      1181 2.20925E+01 5.10505E-03 7.68903E-03-2.97148E-02 7.60338E-14-6.89924E-13
 -1      1182 2.12559E+01-9.93939E-03-1.59295E-02-2.81098E-02 3.48757E-14-5.09870E-14
 -1      1183 2.05235E+01-2.23060E-02-3.59599E-02-1.93502E-02 3.34737E-15 5.70004E-13
 -1      1184 2.00558E+01-3.31613E-02-4.02905E-02 1.36595E-03-6.45497E-14 2.06170E-13
 -1      1185 1.99629E+01 1.24494E-02 2.30685E-02 1.32546E-02 4.56844E-14 2.49292E-13
 -1      1186 2.77912E+01 5.25749E-01 3.77212E-01 1.96670E+00-4.55747E-14 4.38860E-12
 -1      1187 2.00828E+01-6.62308E-02-5.73608E-01 1.29499E-01 2.71137E-14 3.56637E-12
 -1      1188 1.89047E+01-4.05987E-02-1.93229E-01 1.94272E-02 2.17239E-14 2.77096E-12
 -1      1189 1.85241E+01-2.14124E-02-5.05528E-02 1.46838E-03 1.55752E-14 2.18819E-12
 -1      1190 1.84517E+01-1.23995E-02-1.33960E-02-4.06731E-03 1.33010E-14 1.78557E-12
 -1      1191 1.85260E+01-7.39516E-03-4.64570E-03-5.51744E-03 9.69309E-15 1.44637E-12
 -1      1192 1.86684E+01-4.32311E-03-1.91529E-03-5.69375E-03 9.53849E-15 1.26568E-12
 -1      1193 1.88377E+01-2.36137E-03-3.35266E-04-5.39477E-03-4.68278E-15 1.19007E-12
 -1      1194 1.90107E+01-1.10629E-03 7.67877E-04-4.87169E-03 2.52852E-15 9.97712E-13
 -1      1195 1.91746E+01-3.29535E-04 1.45023E-03-4.23651E-03 7.17786E-15 8.39184E-13
 -1      1196 1.93227E+01 1.11109E-04 1.76975E-03-3.55391E-03 2.39261E-14 6.30730E-13
 -1      1197 1.94524E+01 3.07883E-04 1.80610E-03-2.86362E-03-1.08477E-14 4.99311E-13
 -1      1198 1.95637E+01 3.20534E-04 1.62861E-03-2.18855E-03-1.01229E-15 4.55594E-13
 -1      1199 1.96588E+01 1.85894E-04 1.28447E-03-1.53960E-03 6.79261E-15 4.01755E-13
 -1      1200 1.97409E+01-7.63567E-05 7.98825E-04-9.19540E-04 3.22796E-15 3.44820E-13
 -1      1201 1.98145E+01-4.59848E-04 1.77633E-04-3.26274E-04 1.42224E-15 1.74120E-13
 -1      1202 1.98849E+01-9.68611E-04-5.89209E-04 2.44045E-04-2.41914E-14 1.37296E-13
 -1      1203 1.99585E+01-1.61432E-03-1.52500E-03 7.93651E-04 3.16533E-14 1.33780E-13
 -1      1204 2.00426E+01-2.41284E-03-2.66283E-03 1.31913E-03 9.90449E-15 4.15914E-14
 -1      1205 2.01458E+01-3.37918E-03-4.04056E-03 1.80609E-03 1.97718E-14-9.59406E-14
 -1      1206 2.02783E+01-4.51892E-03-5.69206E-03 2.22162E-03-2.35884E-15-8.03955E-14
 -1      1207 2.04515E+01-5.81378E-03-7.63120E-03 2.50343E-03-1.32703E-14 1.77757E-14
 -1      1208 2.06785E+01-7.19689E-03-9.82228E-03 2.54441E-03-2.15454E-14-9.83068E-14
 -1      1209 2.09737E+01-8.51233E-03-1.21265E-02 2.17170E-03 9.41673E-15-2.15448E-13
 -1      1210 2.13512E+01-9.45279E-03-1.42100E-02 1.12261E-03-6.82776E-15-2.41224E-13
 -1      1211 2.18227E+01-9.47431E-03-1.53965E-02-9.72779E-04-1.50747E-15-9.57272E-14
 -1      1212 2.23929E+01-7.70556E-03-1.44655E-02-4.57390E-03 1.20685E-14-2.27740E-13
 -1      1213 2.30516E+01-2.91757E-03-9.45322E-03-1.01130E-02-2.68300E-14-1.97852E-13
 -1      1214 2.37616E+01 6.28173E-03 2.32472E-03-1.76652E-02-1.42284E-14 6.61589E-14
 -1      1215 2.44416E+01 2.07299E-02 2.35260E-02-2.62621E-02 2.27483E-14-4.30211E-14
 -1      1216 2.49508E+01 3.91337E-02 5.45379E-02-3.28486E-02-6.03528E-14-4.96894E-14
 -1      1217 2.50851E+01 5.58931E-02 8.93603E-02-3.14701E-02 5.55892E-15 5.98081E-14
 -1      1218 2.46146E+01 6.01146E-02 1.11647E-01-1.44863E-02 4.58054E-15-6.37546E-14
 -1      1219 2.33899E+01 4.00771E-02 9.71850E-02 2.20186E-02-3.66807E-14 1.76997E-13
 -1      1220 2.15103E+01-5.53958E-03 3.01191E-02 6.95851E-02-6.30854E-14 4.57107E-13
 -1      1221 1.94508E+01-5.75741E-02-7.38637E-02 1.03555E-01-6.29032E-14 2.26374E-13
 -1      1222 1.79660E+01-8.39107E-02-1.60259E-01 9.72269E-02 1.03939E-13-3.61787E-13
 -1      1223 1.76978E+01-6.85999E-02-1.73187E-01 4.56615E-02-3.87381E-14-3.62245E-13
 -1      1224 1.87389E+01-2.66976E-02-1.06835E-01-2.39336E-02 5.43419E-14-3.93116E-13
 -1      1225 2.05636E+01 1.34004E-02-8.91463E-03-7.45965E-02 2.15730E-14-7.05852E-13
 -1      1226 2.23954E+01 3.51763E-02 6.54953E-02-8.81497E-02 1.00020E-14-3.80668E-13
 -1      1227 2.36511E+01 3.86287E-02 9.36704E-02-7.14528E-02-6.51900E-14 5.87329E-13
 -1      1228 2.41254E+01 3.13883E-02 8.48039E-02-4.21746E-02 1.98648E-14-2.59862E-15
 -1      1229 2.39121E+01 2.04396E-02 5.89089E-02-1.42783E-02-3.96775E-15-5.57700E-13
 -1      1230 2.32361E+01 9.36124E-03 3.08717E-02 6.41218E-03 1.16575E-13-7.76813E-13
 -1      1231 2.23312E+01-1.11218E-03 6.21845E-03 1.97860E-02-1.18294E-14-8.54070E-13
 -1      1232 2.13929E+01-1.16536E-02-1.59645E-02 2.75714E-02-1.46942E-15-8.34770E-13
 -1      1233 2.05844E+01-2.19297E-02-3.62329E-02 2.95941E-02 8.20366E-14-9.20066E-13
 -1      1234 2.00657E+01-2.35715E-02-3.97413E-02 1.87469E-02-1.18954E-14-9.59975E-13
 -1      1235 1.99659E+01 1.20515E-02 2.50869E-02-1.23404E-02-5.22239E-14-5.21897E-13
 -1      1236 2.00121E+01-3.50800E-02 2.32485E-02-1.11921E-02-5.70646E-13-8.59824E-14
 -1      1237 1.99716E+01 7.44516E-02-4.20692E-02-2.65489E-03-2.37597E-13-9.50563E-14
 -1      1238 1.99757E+01 5.89051E-01-3.93199E-02 2.13996E-02 2.27013E-13 2.05083E-14
 -1      1239 1.99880E+01 1.38178E+00-1.92722E-02 3.09942E-02 5.15549E-13-7.18397E-14
 -1      1240 2.00022E+01 2.29713E+00 2.30214E-03 3.33129E-02 7.52398E-13-1.33203E-13
 -1      1241 2.00163E+01 3.18653E+00 2.25262E-02 3.02501E-02-8.87613E-13-2.77744E-14
 -1      1242 2.00286E+01 3.92563E+00 3.93894E-02 2.30429E-02-1.31641E-12 8.88794E-14
 -1      1243 2.00369E+01 4.40609E+00 5.06817E-02 1.15904E-02-8.23407E-13-9.84820E-14
 -1      1244 2.00390E+01 4.54397E+00 5.35556E-02-1.79049E-03-3.71039E-13-9.81229E-14
 -1      1245 2.00346E+01 4.31980E+00 4.74150E-02-1.46303E-02 6.04860E-13 7.48685E-14
 -1      1246 2.00246E+01 3.77510E+00 3.39233E-02-2.46148E-02 2.25528E-13-1.92234E-13
 -1      1247 2.00125E+01 3.00794E+00 1.65434E-02-3.03858E-02-1.10330E-12-5.15500E-14
 -1      1248 1.99989E+01 2.13012E+00-2.22198E-03-3.15604E-02-2.39215E-13 1.85777E-13
 -1      1249 1.99862E+01 1.25649E+00-2.16184E-02-2.85613E-02 7.02594E-13-1.13436E-13
 -1      1250 1.99748E+01 5.10485E-01-4.17309E-02-2.30779E-02 3.36699E-13-1.42496E-13
 -1      1251 1.99648E+01 7.19146E-02-3.76313E-02 1.05079E-02-3.33410E-13-9.01482E-14
 -1      1252 2.00135E+01-3.62668E-02 2.31392E-02 1.14353E-02-2.70669E-13 6.29642E-14
 -1      1253-1.14069E+00-2.47088E+01-3.80019E+00-2.34456E+00 2.82663E-13 9.34600E-14
 -1      1254-1.87818E+00-1.56846E+01-3.14395E+00-4.22552E+00 4.74065E-13 3.30180E-13
 -1      1255 2.90884E-01-2.59405E+00-1.87857E+00-1.74039E-01 1.25167E-12 8.97837E-13
 -1      1256 9.39515E+00 7.80343E+00-2.51776E-01 8.47462E+00 1.72573E-12 1.81699E-12
 -1      1257 2.59854E+01 1.12332E+01 1.46966E+00 1.63552E+01 1.35070E-12 1.92868E-12
 -1      1258 4.63286E+01 8.27102E+00 2.97430E+00 1.78348E+01 5.30298E-13 8.34444E-13
 -1      1259 6.29025E+01 3.33837E+00 4.04226E+00 1.07160E+01 6.82787E-14-2.00284E-13
 -1      1260 6.72005E+01 1.85243E+00 4.28280E+00-2.24308E+00 1.95885E-13-1.45930E-12
 -1      1261 5.78769E+01 4.90501E+00 3.73470E+00-1.38341E+01 7.74186E-13-2.81264E-12
 -1      1262 3.92503E+01 9.54925E+00 2.45846E+00-1.79607E+01 1.64968E-12-3.31979E-12
 -1      1263 1.95436E+01 1.06670E+01 8.36342E-01-1.39273E+01 2.46780E-12-3.08775E-12
 -1      1264 5.44538E+00 5.16013E+00-8.03629E-01-5.37273E+00 2.53553E-12-2.18559E-12
 -1      1265-9.55944E-01-6.50637E+00-2.27419E+00 2.13121E+00 2.14317E-12-1.12299E-12
 -1      1266-1.73960E+00-1.87648E+01-3.36086E+00 4.19203E+00 1.88138E-12-6.00631E-13
 -1      1267-1.02757E+00-2.50048E+01-3.77417E+00 1.03357E+00 2.03781E-13-1.91715E-13
 -1      1268-1.37352E+00-2.24015E+01-3.63194E+00-3.27037E+00-1.50124E-12-3.53474E-13
 -1      1269-1.59845E+00-1.10039E+01-2.70758E+00-3.28429E+00-2.51266E-12-1.23562E-12
 -1      1270 2.84889E+00 2.05928E+00-1.29268E+00 2.84607E+00-3.58513E-12-2.67175E-12
 -1      1271 1.57069E+01 9.94620E+00 4.54845E-01 1.20932E+01-2.24731E-12-2.35811E-12
 -1      1272 3.48496E+01 1.02499E+01 2.09774E+00 1.78721E+01-1.18350E-12-2.04703E-12
 -1      1273 5.45683E+01 5.62402E+00 3.43450E+00 1.52978E+01-3.09586E-13-7.04325E-13
 -1      1274 6.62439E+01 2.08346E+00 4.19057E+00 4.40966E+00-3.05034E-14 6.78180E-13
 -1      1275 6.41958E+01 2.68432E+00 4.06570E+00-8.86016E+00-2.92336E-13 1.58051E-12
 -1      1276 4.86559E+01 7.63478E+00 3.12915E+00-1.73775E+01-5.32518E-13 1.61360E-12
 -1      1277 2.75757E+01 1.11673E+01 1.62531E+00-1.66611E+01-7.81042E-13 1.09734E-12
 -1      1278 9.80117E+00 8.10017E+00-1.80238E-01-8.79276E+00-1.02474E-12 7.42517E-13
 -1      1279 3.72994E-01-2.37808E+00-1.85009E+00 5.50602E-02-4.88498E-13 6.26721E-13
 -1      1280-1.82197E+00-1.56473E+01-3.10504E+00 4.20740E+00 6.51923E-13-1.60427E-13
 -1      1281-1.05132E+00-2.48146E+01-3.79948E+00 2.28879E+00 2.13607E-13-1.53832E-13
 -1      1282 2.22649E+01 1.83809E+00-7.25869E-01-2.79103E+00-1.15130E-13 1.73539E-12
 -1      1283 2.03577E+01 4.69004E+00-4.86613E-02-3.30797E+00-3.02147E-13-2.14724E-13
 -1      1284 2.08649E+01 4.81048E+00-1.13401E-01-4.16205E+00-3.94240E-13 2.23585E-13
 -1      1285 1.95309E+01 4.99325E+00-1.96003E-02-2.65585E+00-2.89206E-13-8.24351E-13
 -1      1286 1.98285E+01 5.09002E+00 2.31858E-04-3.04679E+00-3.33469E-13-5.65423E-13
 -1      1287 2.05244E+01 3.95278E+00-2.59055E-02-3.07604E+00-5.23515E-13-1.87322E-13
 -1      1288 1.91838E+01 5.08404E+00-3.66158E-03-2.07151E+00-2.28435E-13-1.10753E-12
 -1      1289 1.93329E+01 5.13918E+00 1.05739E-02-2.36470E+00-2.64067E-13-9.84459E-13
 -1      1290 1.97536E+01 4.36587E+00-2.42706E-02-2.49082E+00-4.55521E-13-6.91405E-13
 -1      1291 1.90092E+01 5.13092E+00 3.28280E-03-1.56598E+00-1.53814E-13-1.23654E-12
 -1      1292 1.90863E+01 5.16071E+00 1.25453E-02-1.81594E+00-1.85220E-13-1.17724E-12
 -1      1293 1.93924E+01 4.55551E+00-1.95753E-02-1.93234E+00-3.42836E-13-9.34780E-13
 -1      1294 1.89168E+01 5.16069E+00 6.62959E-03-1.11804E+00-9.46378E-14-1.28845E-12
 -1      1295 1.89587E+01 5.17687E+00 1.27241E-02-1.33965E+00-1.15625E-13-1.26623E-12
 -1      1296 1.92063E+01 4.66124E+00-1.60722E-02-1.44607E+00-2.23870E-13-1.03816E-12
 -1      1297 1.88658E+01 5.18060E+00 8.22711E-03-6.94430E-01-3.83066E-14-1.28830E-12
 -1      1298 1.88886E+01 5.18939E+00 1.20504E-02-9.04801E-01-5.75781E-14-1.29050E-12
 -1      1299 1.91044E+01 4.72661E+00-1.39431E-02-1.00507E+00-1.30201E-13-1.08041E-12
 -1      1300 1.88422E+01 5.19258E+00 9.31121E-03-2.89417E-01 1.27287E-14-1.27042E-12
 -1      1301 1.88519E+01 5.19637E+00 1.10887E-02-4.91697E-01-3.17238E-15-1.28174E-12
 -1      1302 1.90491E+01 4.76565E+00-1.29075E-02-5.89266E-01-3.49894E-14-1.07618E-12
 -1      1303 1.88385E+01 5.19753E+00 1.02394E-02 1.08322E-01 6.79259E-14-1.23853E-12
 -1      1304 1.88382E+01 5.19739E+00 1.01684E-02-9.15117E-02 5.17730E-14-1.25578E-12
 -1      1305 1.90251E+01 4.78369E+00-1.24726E-02-1.89249E-01 5.20339E-14-1.06284E-12
 -1      1306 1.88536E+01 5.19601E+00 1.11747E-02 5.09088E-01 1.20042E-13-1.20457E-12
 -1      1307 1.88431E+01 5.19194E+00 9.24543E-03 3.06393E-01 1.03982E-13-1.22895E-12
 -1      1308 1.90259E+01 4.78305E+00-1.24919E-02 2.05964E-01 1.40599E-13-1.03877E-12
 -1      1309 1.88918E+01 5.18824E+00 1.21040E-02 9.23660E-01 1.64355E-13-1.13605E-12
 -1      1310 1.88682E+01 5.17929E+00 8.15432E-03 7.12342E-01 1.48459E-13-1.17844E-12
 -1      1311 1.90516E+01 4.76359E+00-1.29787E-02 6.06674E-01 2.18017E-13-9.94007E-13
 -1      1312 1.89631E+01 5.17515E+00 1.29035E-02 1.35712E+00 2.20634E-13-1.02210E-12
 -1      1313 1.89201E+01 5.15851E+00 6.46795E-03 1.13412E+00 1.98324E-13-1.08986E-12
 -1      1314 1.91086E+01 4.72313E+00-1.40015E-02 1.02028E+00 2.98665E-13-9.15153E-13
 -1      1315 1.90950E+01 5.15659E+00 1.28229E-02 1.84194E+00 2.87517E-13-8.44744E-13
 -1      1316 1.90159E+01 5.12636E+00 3.15879E-03 1.58907E+00 2.61957E-13-9.51801E-13
 -1      1317 1.92133E+01 4.65473E+00-1.61459E-02 1.46361E+00 3.94441E-13-7.86999E-13
 -1      1318 1.93429E+01 5.13324E+00 1.01557E-02 2.39907E+00 3.48235E-13-5.39638E-13
 -1      1319 1.91932E+01 5.07624E+00-4.36941E-03 2.10179E+00 3.17864E-13-7.28397E-13
 -1      1320 1.94052E+01 4.54228E+00-1.99863E-02 1.95942E+00 4.93409E-13-5.97473E-13
 -1      1321 1.98538E+01 5.09913E+00 6.01963E-03 3.08506E+00 3.92478E-13 1.27745E-14
 -1      1322 1.95421E+01 4.98424E+00-2.05459E-02 2.69777E+00 3.52413E-13-3.18166E-13
 -1      1323 1.97736E+01 4.34627E+00-2.45687E-02 2.52930E+00 5.63027E-13-2.50897E-13
 -1      1324 2.11011E+01 4.90675E+00 8.27622E-03 4.05482E+00 3.35509E-13 1.03809E-12
 -1      1325 2.03323E+01 4.73364E+00-4.79863E-02 3.41734E+00 3.28709E-13 4.17215E-13
 -1      1326 2.05626E+01 3.91582E+00-2.24280E-02 3.17953E+00 5.77736E-13 3.59754E-13
 -1      1327 2.72008E+01 3.20533E+00 9.29093E-01 4.58270E+00 1.64618E-13 2.93687E-12
 -1      1328 2.20178E+01 3.52205E+00-1.82013E-01 3.88569E+00 1.69698E-13 1.62181E-12
 -1      1329 2.21099E+01 2.56177E+00-3.25763E-02 3.45751E+00 5.39926E-13 1.29530E-12
 -1      1330 2.14244E+01 3.59626E-01-7.63525E-01 1.18432E+00 2.95153E-13 2.83468E-12
 -1      1331 2.19986E+01 1.31407E-01-4.00864E-01-1.28620E+00-3.27099E-13 1.86060E-12
 -1      1332 2.06754E+01 3.06760E-01-1.64820E-01-8.06184E-01-2.98213E-13 1.48836E-12
 -1      1333 2.00773E+01 1.53509E-01-7.35339E-02-4.02484E-01-2.44218E-13 1.32960E-12
 -1      1334 1.96071E+01 9.11917E-02-1.49231E-02-3.30310E-01-2.28390E-13 9.66879E-13
 -1      1335 2.09694E+01 3.69305E-01-1.04213E-01-1.27469E+00-5.20868E-13 7.16593E-13
 -1      1336 1.92494E+01 6.44450E-02 3.05125E-03-1.35752E-01-1.81364E-13 8.41591E-13
 -1      1337 1.90945E+01 4.11911E-02 1.32220E-02-1.18005E-01-1.63591E-13 5.87287E-13
 -1      1338 1.99180E+01 1.33749E-01-3.51682E-02-5.04698E-01-3.98102E-13 4.85520E-13
 -1      1339 1.89337E+01 3.15127E-02 1.32388E-02-2.86072E-02-1.17922E-13 4.85910E-13
 -1      1340 1.89135E+01 1.94119E-02 1.10428E-02-1.92068E-02-1.12129E-13 3.03649E-13
 -1      1341 1.94401E+01 5.55502E-02-8.44008E-03-1.71012E-01-2.83433E-13 2.59417E-13
 -1      1342 1.88570E+01 1.60113E-02 8.76344E-03 2.44659E-02-8.80782E-14 2.51708E-13
 -1      1343 1.88986E+01 9.06330E-03 6.42308E-03 2.90902E-02-8.14516E-14 1.26073E-13
 -1      1344 1.92301E+01 2.43905E-02-3.53081E-03-1.22478E-02-1.92852E-13 1.20947E-13
 -1      1345 1.88981E+01 7.83141E-03 4.67815E-03 5.02196E-02-9.11750E-14 7.73496E-14
 -1      1346 1.89677E+01 3.48986E-03 3.65502E-03 5.20941E-02-7.52578E-14-3.48948E-14
 -1      1347 1.91724E+01 1.01700E-02-2.21870E-03 6.64262E-02-1.72810E-13 1.78546E-15
 -1      1348 1.89967E+01 3.17528E-03 2.46304E-03 6.08682E-02-4.51320E-14-6.16044E-14
 -1      1349 1.90764E+01 3.43367E-04 2.22883E-03 6.11304E-02-4.16542E-14-1.32688E-13
 -1      1350 1.91976E+01 2.73655E-03-1.32144E-03 1.03184E-01-1.19954E-13-4.83014E-14
 -1      1351 1.91196E+01 4.61067E-04 1.35708E-03 6.28580E-02-4.69986E-14-1.61440E-13
 -1      1352 1.91996E+01-1.41090E-03 1.46200E-03 6.21875E-02-4.86237E-14-2.28362E-13
 -1      1353 1.92657E+01-1.30016E-03-5.66517E-04 1.16486E-01-1.07631E-13-1.57735E-13
 -1      1354 1.92479E+01-1.07822E-03 7.78370E-04 5.99441E-02-5.56964E-14-2.69351E-13
 -1      1355 1.93229E+01-2.29567E-03 1.00222E-03 5.87802E-02-7.71607E-14-3.63003E-13
 -1      1356 1.93533E+01-3.43854E-03-2.24398E-05 1.16384E-01-1.12090E-13-1.99463E-13
 -1      1357 1.93711E+01-1.85821E-03 4.50980E-04 5.44969E-02-8.63671E-14-3.84358E-13
 -1      1358 1.94385E+01-2.60970E-03 7.03515E-04 5.31358E-02-3.69143E-14-4.51538E-13
 -1      1359 1.94464E+01-4.40151E-03 3.09106E-04 1.08921E-01-1.22249E-13-2.36207E-13
 -1      1360 1.94839E+01-2.12847E-03 2.58313E-04 4.80846E-02-7.93609E-15-5.21179E-13
 -1      1361 1.95427E+01-2.53931E-03 5.04894E-04 4.67291E-02-1.32958E-14-5.22074E-13
 -1      1362 1.95372E+01-4.59679E-03 4.69747E-04 9.79778E-02-7.85456E-14-3.32487E-13
 -1      1363 1.95842E+01-2.04641E-03 1.47568E-04 4.17742E-02-3.29200E-14-5.55031E-13
 -1      1364 1.96349E+01-2.20305E-03 3.76556E-04 4.05656E-02-3.74426E-14-5.99868E-13
 -1      1365 1.96216E+01-4.27466E-03 5.04389E-04 8.61517E-02-5.00701E-14-4.50831E-13
 -1      1366 1.96724E+01-1.71150E-03 9.05817E-05 3.63149E-02 3.89620E-14-6.02827E-13
 -1      1367 1.97162E+01-1.67427E-03 3.00964E-04 3.53554E-02 1.34254E-14-5.93320E-13
 -1      1368 1.96984E+01-3.59100E-03 4.47596E-04 7.52337E-02 1.04059E-15-4.80935E-13
 -1      1369 1.97504E+01-1.18342E-03 6.97556E-05 3.22596E-02-5.16118E-14-5.66004E-13
 -1      1370 1.97892E+01-9.94187E-04 2.66396E-04 3.16291E-02-3.95826E-14-5.97254E-13
 -1      1371 1.97682E+01-2.63802E-03 3.22493E-04 6.65128E-02-3.73879E-14-4.66931E-13
 -1      1372 1.98214E+01-4.92953E-04 7.27262E-05 3.00533E-02-4.19072E-14-5.90353E-13
 -1      1373 1.98576E+01-1.80575E-04 2.64312E-04 2.98218E-02-6.78500E-14-6.51196E-13
 -1      1374 1.98331E+01-1.46182E-03 1.42880E-04 6.09819E-02-4.83636E-14-4.03433E-13
 -1      1375 1.98898E+01 3.50459E-04 8.98107E-05 3.00961E-02-4.17809E-14-6.63255E-13
 -1      1376 1.99261E+01 7.65561E-04 2.87834E-04 3.03336E-02-4.91504E-14-7.45974E-13
 -1      1377 1.98961E+01-7.42067E-05-8.44599E-05 5.94849E-02-9.61164E-14-4.87938E-13
 -1      1378 1.99606E+01 1.35255E-03 1.12364E-04 3.27899E-02-7.87940E-14-7.33836E-13
 -1      1379 2.00004E+01 1.85379E-03 3.30520E-04 3.35726E-02-7.34009E-14-8.02702E-13
 -1      1380 1.99614E+01 1.53789E-03-3.57755E-04 6.28228E-02-1.09420E-13-5.20818E-13
 -1      1381 2.00399E+01 2.52801E-03 1.31439E-04 3.85657E-02-5.44261E-14-8.46965E-13
 -1      1382 2.00871E+01 3.09734E-03 3.85094E-04 3.99801E-02-3.79431E-14-9.51776E-13
 -1      1383 2.00339E+01 3.40314E-03-6.78360E-04 7.18241E-02-9.26793E-14-6.46690E-13
 -1      1384 2.01348E+01 3.89292E-03 1.36530E-04 4.78933E-02-2.02067E-14-9.63567E-13
 -1      1385 2.01937E+01 4.50394E-03 4.41979E-04 5.00355E-02-1.82940E-14-9.95563E-13
 -1      1386 2.01194E+01 5.55443E-03-1.04870E-03 8.73771E-02-8.53609E-14-6.58669E-13
 -1      1387 2.02533E+01 5.45386E-03 1.14325E-04 6.12619E-02 3.00991E-14-9.83347E-13
 -1      1388 2.03290E+01 6.06238E-03 4.87518E-04 6.42321E-02 3.89188E-14-8.91983E-13
 -1      1389 2.02246E+01 8.01273E-03-1.46970E-03 1.10415E-01 2.80580E-14-6.37700E-13
 -1      1390 2.04044E+01 7.19129E-03 4.76630E-05 7.91220E-02 4.61074E-14-8.20522E-13
 -1      1391 2.05025E+01 7.72181E-03 5.02065E-04 8.30089E-02 5.77601E-14-7.48163E-13
 -1      1392 2.03567E+01 1.07616E-02-1.93710E-03 1.41831E-01 1.10247E-13-6.82966E-13
 -1      1393 2.05979E+01 9.03288E-03-8.47035E-05 1.01764E-01-2.07083E-14-7.18383E-13
 -1      1394 2.07243E+01 9.35911E-03 4.58627E-04 1.06615E-01-6.05081E-14-8.10345E-13
 -1      1395 2.05240E+01 1.37060E-02-2.43603E-03 1.82294E-01 2.33717E-14-6.34689E-13
 -1      1396 2.08438E+01 1.08112E-02-3.06015E-04 1.29096E-01-1.59915E-14-7.57680E-13
 -1      1397 2.10043E+01 1.07291E-02 3.23907E-04 1.34864E-01 7.22556E-15-8.16135E-13
 -1      1398 2.07344E+01 1.66057E-02-2.93248E-03 2.31895E-01-2.51773E-14-5.04815E-13
 -1      1399 2.11514E+01 1.21990E-02-6.33965E-04 1.60278E-01 6.48279E-14-7.63947E-13
 -1      1400 2.13504E+01 1.13927E-02 6.56248E-05 1.66728E-01 5.15126E-14-6.50761E-13
 -1      1401 2.09956E+01 1.89709E-02-3.35986E-03 2.89554E-01 7.22400E-14-4.21628E-13
 -1      1402 2.15267E+01 1.26175E-02-1.06228E-03 1.93130E-01 1.65679E-14-6.44745E-13
 -1      1403 2.17656E+01 1.06245E-02-3.27324E-04 1.99697E-01 2.66581E-14-5.96137E-13
 -1      1404 2.13126E+01 1.99109E-02-3.59861E-03 3.52059E-01 5.32885E-14-4.00074E-13
 -1      1405 2.19698E+01 1.11247E-02-1.52421E-03 2.23284E-01 7.64232E-15-5.75295E-13
 -1      1406 2.22440E+01 7.32554E-03-8.04056E-04 2.28855E-01-3.59632E-14-5.81599E-13
 -1      1407 2.16861E+01 1.79446E-02-3.44764E-03 4.12655E-01 2.69511E-14-3.99849E-13
 -1      1408 2.24690E+01 6.32850E-03-1.83393E-03 2.43096E-01-5.30529E-14-5.92658E-13
 -1      1409 2.27636E+01 1.72567E-05-1.18859E-03 2.45745E-01-1.67841E-14-7.10109E-13
 -1      1410 2.21086E+01 1.08369E-02-2.59158E-03 4.59166E-01-7.75120E-14-3.70749E-13
 -1      1411 2.29940E+01-3.55047E-03-1.62042E-03 2.40617E-01 1.67141E-14-7.17369E-13
 -1      1412 2.32781E+01-1.28971E-02-1.11918E-03 2.37372E-01-3.38696E-14-7.58558E-13
 -1      1413 2.25593E+01-4.33948E-03-5.84394E-04 4.72013E-01-3.63001E-14-4.38096E-13
 -1      1414 2.34873E+01-2.01898E-02-3.18740E-04 1.99491E-01 1.04678E-14-6.99824E-13
 -1      1415 2.37091E+01-3.22767E-02-7.61786E-05 1.86401E-01 6.56428E-14-5.82312E-13
 -1      1416 2.29986E+01-3.04783E-02 3.09464E-03 4.23336E-01 6.48873E-15-4.47252E-13
 -1      1417 2.38574E+01-4.38275E-02 2.63168E-03 1.01595E-01 1.49949E-14-5.71719E-13
 -1      1418 2.39433E+01-5.64215E-02 2.36636E-03 7.46651E-02-4.17253E-14-6.14713E-13
 -1      1419 2.33632E+01-6.83467E-02 8.79647E-03 2.79883E-01 7.24403E-14-4.22474E-13
 -1      1420 2.39805E+01-7.07072E-02 7.23584E-03-6.47948E-02-9.24183E-14-5.51366E-13
 -1      1421 2.38469E+01-7.83667E-02 5.92703E-03-1.07001E-01-6.43877E-14-6.65187E-13
 -1      1422 2.35655E+01-1.12547E-01 1.61350E-02 1.41611E-02-1.05612E-13-2.67639E-13
 -1      1423 2.37235E+01-9.00455E-02 1.20245E-02-2.89377E-01-5.53993E-14-7.40678E-13
 -1      1424 2.33078E+01-8.42209E-02 8.76387E-03-3.41178E-01-7.43424E-14-8.04853E-13
 -1      1425 2.35059E+01-1.46582E-01 2.30868E-02-3.71787E-01-1.65938E-13-2.38672E-13
 -1      1426 2.29988E+01-8.43417E-02 1.34948E-02-5.21350E-01-2.02529E-14-8.55274E-13
 -1      1427 2.23117E+01-5.71648E-02 7.63941E-03-5.65981E-01-7.97973E-16-8.27435E-13
 -1      1428 2.31051E+01-1.42745E-01 2.51568E-02-8.12995E-01-5.61131E-14-4.37607E-13
 -1      1429 2.18502E+01-3.77596E-02 7.99577E-03-6.65348E-01 4.96513E-14-7.78988E-13
 -1      1430 2.10219E+01 9.61271E-03-9.38142E-05-6.77098E-01 7.01206E-14-7.14269E-13
 -1      1431 2.23621E+01-7.46911E-02 1.66447E-02-1.16152E+00 3.70875E-14-3.13223E-13
 -1      1432 2.05233E+01 4.51315E-02-4.74230E-03-6.16295E-01-8.36969E-14-7.99798E-13
 -1      1433 1.97994E+01 9.53233E-02-1.26240E-02-5.75589E-01-4.73571E-14-9.19556E-13
 -1      1434 2.14162E+01 5.50486E-02-4.60181E-03-1.22082E+00-3.53537E-14-4.77250E-13
 -1      1435 1.94392E+01 1.26987E-01-1.82076E-02-3.37353E-01-5.32369E-14-9.34319E-13
 -1      1436 1.90842E+01 1.52809E-01-2.22284E-02-2.51788E-01-8.52270E-14-9.76016E-13
 -1      1437 2.05582E+01 1.94992E-01-3.08027E-02-8.62819E-01-1.82914E-13-6.65142E-13
 -1      1438 1.90104E+01 1.57342E-01-2.30350E-02 7.90148E-02-9.57637E-14-1.23188E-12
 -1      1439 1.91604E+01 1.42407E-01-2.10028E-02 1.71144E-01-9.52068E-14-1.32400E-12
 -1      1440 2.01220E+01 2.66568E-01-4.53486E-02-1.65156E-01-1.94787E-13-8.44916E-13
 -1      1441 1.93942E+01 1.15840E-01-1.59805E-02 4.47203E-01-8.02709E-14-1.28943E-12
 -1      1442 1.99687E+01 6.96811E-02-9.17565E-03 5.02431E-01-2.59584E-14-1.43022E-12
 -1      1443 2.02852E+01 2.24224E-01-3.68699E-02 5.80635E-01-1.27067E-13-1.19222E-12
 -1      1444 2.03882E+01 3.18308E-02-3.24108E-03 6.12747E-01-6.48397E-14-1.41840E-12
 -1      1445 2.11413E+01-1.89330E-02 4.80643E-03 6.13666E-01-1.13935E-13-1.55021E-12
 -1      1446 2.09424E+01 9.44725E-02-1.19077E-02 1.04833E+00-1.01592E-13-1.09650E-12
 -1      1447 2.15655E+01-4.48779E-02 6.53690E-03 5.47700E-01 1.27381E-14-1.54482E-12
 -1      1448 2.22294E+01-7.85027E-02 1.28421E-02 5.08055E-01 8.93261E-14-1.46302E-12
 -1      1449 2.17791E+01-4.71054E-02 1.24554E-02 1.09091E+00-8.28504E-14-1.01514E-12
 -1      1450 2.25189E+01-8.42700E-02 9.61651E-03 3.34629E-01 9.56206E-14-1.50954E-12
 -1      1451 2.29235E+01-9.51321E-02 1.31915E-02 2.80598E-01 7.71145E-14-1.22131E-12
 -1      1452 2.24716E+01-1.36414E-01 2.49711E-02 7.89531E-01 1.23153E-13-1.08252E-12
 -1      1453 2.30221E+01-8.63693E-02 7.74888E-03 8.47773E-02-6.40286E-15-1.16930E-12
 -1      1454 2.31255E+01-8.05632E-02 9.12331E-03 3.67666E-02-2.80375E-14-1.25220E-12
 -1      1455 2.28315E+01-1.57189E-01 2.53919E-02 3.38070E-01 1.51804E-13-1.00878E-12
 -1      1456 2.30462E+01-6.66317E-02 4.38802E-03-1.23815E-01 2.32089E-14-1.01565E-12
 -1      1457 2.28978E+01-5.29030E-02 4.48009E-03-1.56767E-01 2.09016E-13-9.83404E-13
 -1      1458 2.28257E+01-1.29981E-01 1.91495E-02-9.08886E-02 1.75315E-13-7.20996E-13
 -1      1459 2.26897E+01-4.00532E-02 1.74193E-03-2.59289E-01 3.16557E-13-9.12508E-13
 -1      1460 2.23777E+01-2.45388E-02 1.12343E-03-2.76319E-01 2.25266E-13-6.27332E-13
 -1      1461 2.25223E+01-8.35267E-02 1.11466E-02-4.03910E-01 3.74509E-13-4.42214E-13
 -1      1462 2.20995E+01-1.47434E-02 1.80830E-04-3.20239E-01 1.64447E-13-4.88994E-13
 -1      1463 2.17155E+01-1.52267E-04-9.53448E-04-3.23689E-01 2.31220E-13-2.09348E-13
 -1      1464 2.20296E+01-3.65204E-02 3.88741E-03-5.76210E-01 3.80766E-13-7.79229E-14
 -1      1465 2.14218E+01 7.34919E-03-1.14789E-03-3.16269E-01 2.20397E-13-1.51334E-13
 -1      1466 2.10474E+01 2.04776E-02-2.71399E-03-3.08290E-01 1.36876E-13 9.02750E-14
 -1      1467 2.14580E+01 4.76551E-03-2.13191E-03-6.17767E-01 3.37125E-13-3.21479E-14
 -1      1468 2.07840E+01 2.75336E-02-3.33344E-03-2.56205E-01 1.24952E-13 5.17676E-14
 -1      1469 2.04918E+01 3.89474E-02-3.99216E-03-2.37066E-01 2.66688E-14 1.83372E-13
 -1      1470 2.09043E+01 4.21657E-02-6.97013E-03-5.45693E-01 2.18512E-13-1.80372E-13
 -1      1471 2.02905E+01 4.94444E-02-4.51003E-03-1.44702E-01-3.26605E-15 1.77166E-13
 -1      1472 2.01393E+01 4.89867E-02-5.83053E-04-1.17031E-01-7.76365E-14 2.06529E-13
 -1      1473 2.04433E+01 8.03228E-02-9.52933E-03-3.76080E-01 8.77506E-14-2.09120E-13
 -1      1474 2.00016E+01 1.78118E-02 1.51091E-03 3.63817E-03-2.69854E-13 2.54310E-13
 -1      1475 2.00957E+01 8.42484E-02-4.69768E-03-1.12921E-01-1.57734E-13-9.62275E-14
 -1      1476 2.02562E+01 7.54808E-02-1.52108E-01 4.84247E-01 2.52048E-13 2.26812E-12
 -1      1477 2.15270E+01 2.16121E-01-2.29290E-01 7.21256E-01 2.23252E-13 2.66329E-12
 -1      1478 2.17258E+01 8.81830E-01-8.54497E-02 2.06557E+00 4.41390E-13 1.75734E-12
 -1      1479 1.93269E+01 3.23752E-02-2.13387E-02 1.86411E-01 1.82829E-13 1.77013E-12
 -1      1480 1.97481E+01 1.13606E-01-6.27105E-02 2.38413E-01 1.81757E-13 2.06753E-12
 -1      1481 2.02998E+01 1.87692E-01-5.51839E-02 7.86917E-01 3.82014E-13 1.36905E-12
 -1      1482 1.89441E+01 1.50953E-02 5.66588E-03 5.39426E-02 1.27254E-13 1.38364E-12
 -1      1483 1.90833E+01 5.16060E-02 9.71935E-04 8.02400E-02 1.32516E-13 1.61026E-12
 -1      1484 1.95539E+01 7.18278E-02-1.21486E-02 2.99769E-01 2.94643E-13 1.05295E-12
 -1      1485 1.88325E+01 7.10888E-03 6.97779E-03-8.50666E-03 1.09850E-13 1.11326E-12
 -1      1486 1.88477E+01 2.58344E-02 1.10862E-02 5.87191E-03 9.96733E-14 1.27879E-12
 -1      1487 1.92176E+01 3.10156E-02-2.45458E-03 8.43489E-02 2.20991E-13 7.94326E-13
 -1      1488 1.88572E+01 3.19716E-03 4.78594E-03-3.87042E-02 6.72951E-14 9.33998E-13
 -1      1489 1.88141E+01 1.37789E-02 8.51980E-03-3.06115E-02 6.48370E-14 1.04551E-12
 -1      1490 1.91000E+01 1.32385E-02-1.60795E-03-2.05410E-02 1.50320E-13 6.51294E-13
 -1      1491 1.89499E+01 1.04718E-03 3.29825E-03-5.20886E-02 3.04145E-14 8.03600E-13
 -1      1492 1.88803E+01 7.25284E-03 5.36926E-03-4.76434E-02 3.76104E-14 8.72101E-13
 -1      1493 1.91001E+01 4.51692E-03-1.62107E-03-7.19409E-02 9.01707E-14 5.25645E-13
 -1      1494 1.90727E+01-1.87124E-04 2.51433E-03-5.60327E-02 4.93268E-14 7.32754E-13
 -1      1495 1.89935E+01 3.43213E-03 3.43546E-03-5.38402E-02 2.90997E-14 7.80848E-13
 -1      1496 1.91617E+01-1.16699E-04-1.36520E-03-9.45399E-02 5.89585E-14 4.71715E-13
 -1      1497 1.92041E+01-8.71516E-04 2.04633E-03-5.46009E-02 4.96764E-14 6.06905E-13
 -1      1498 1.91248E+01 1.12603E-03 2.33619E-03-5.38154E-02 5.40883E-14 6.79985E-13
 -1      1499 1.92526E+01-2.59862E-03-9.92323E-04-1.00800E-01 1.00502E-13 3.98990E-13
 -1      1500 1.93317E+01-1.19851E-03 1.69693E-03-5.02705E-02 6.41018E-14 4.49195E-13
 -1      1501 1.92576E+01-2.38070E-04 1.66240E-03-5.03398E-02 5.49023E-14 5.50517E-13
 -1      1502 1.93541E+01-3.81094E-03-6.56270E-04-9.77919E-02 1.23211E-13 2.77703E-13
 -1      1503 1.94493E+01-1.28423E-03 1.39870E-03-4.46418E-02 3.64310E-14 3.83439E-13
 -1      1504 1.93827E+01-9.77562E-04 1.20855E-03-4.51895E-02 3.91744E-14 4.40338E-13
 -1      1505 1.94552E+01-4.22469E-03-4.04326E-04-8.98843E-02 8.70029E-14 1.76341E-13
 -1      1506 1.95540E+01-1.20308E-03 1.13276E-03-3.87849E-02-4.41471E-15 3.01530E-13
 -1      1507 1.94959E+01-1.28596E-03 8.85723E-04-3.95464E-02 2.48599E-14 3.61562E-13
 -1      1508 1.95501E+01-4.11996E-03-2.35403E-04-7.99221E-02 5.24374E-14 2.25935E-13
 -1      1509 1.96458E+01-1.00249E-03 8.93284E-04-3.34361E-02 5.13183E-14 2.71663E-13
 -1      1510 1.95958E+01-1.28617E-03 6.52819E-04-3.42188E-02 1.56411E-14 2.76648E-13
 -1      1511 1.96365E+01-3.67156E-03-1.37456E-04-6.98249E-02 4.31991E-14 1.54402E-13
 -1      1512 1.97264E+01-7.10782E-04 6.76577E-04-2.91241E-02 2.28296E-14 2.25083E-13
 -1      1513 1.96832E+01-1.05536E-03 4.87195E-04-2.97805E-02 2.60384E-14 2.45152E-13
 -1      1514 1.97141E+01-2.98793E-03-1.00052E-04-6.09331E-02 4.67198E-14 1.05219E-13
 -1      1515 1.97988E+01-3.41889E-04 4.78303E-04-2.62572E-02 3.25516E-14 1.02278E-13
 -1      1516 1.97606E+01-6.38151E-04 3.74252E-04-2.66656E-02 3.30547E-14 1.73722E-13
 -1      1517 1.97844E+01-2.13165E-03-1.17055E-04-5.42327E-02 5.29924E-14 4.65913E-14
 -1      1518 1.98671E+01 1.01208E-04 2.92965E-04-2.51884E-02-1.03615E-14 8.90770E-14
 -1      1519 1.98315E+01-5.46770E-05 3.03667E-04-2.52370E-02 3.53665E-14 1.16317E-13
 -1      1520 1.98502E+01-1.13171E-03-1.86723E-04-5.05123E-02 7.24010E-14-1.25944E-14
 -1      1521 1.99363E+01 6.23812E-04 1.13878E-04-2.62635E-02 7.71120E-15 2.38090E-14
 -1      1522 1.99006E+01 6.93921E-04 2.67720E-04-2.58380E-02 1.61327E-14 3.15026E-14
 -1      1523 1.99155E+01 7.89873E-06-3.11414E-04-5.04784E-02 5.35856E-14-7.18281E-14
 -1      1524 2.00126E+01 1.23691E-03-6.67702E-05-2.98565E-02 4.94046E-14-5.16861E-14
 -1      1525 1.99733E+01 1.62105E-03 2.60236E-04-2.88302E-02 4.18507E-14 4.34904E-16
 -1      1526 1.99848E+01 1.30142E-03-4.97281E-04-5.48402E-02 4.64825E-14-1.51348E-13
 -1      1527 2.01030E+01 1.95403E-03-2.57777E-04-3.63922E-02 3.55143E-14-1.37039E-13
 -1      1528 2.00562E+01 2.75008E-03 2.75685E-04-3.46177E-02 5.91785E-14-6.02650E-14
 -1      1529 2.00639E+01 2.77484E-03-7.53858E-04-6.43672E-02 1.14711E-13-1.65764E-13
 -1      1530 2.02157E+01 2.78671E-03-4.68642E-04-4.63512E-02-7.83813E-15-1.40420E-13
 -1      1531 2.01569E+01 4.10827E-03 3.08179E-04-4.36564E-02 1.08717E-14-1.09556E-13
 -1      1532 2.01595E+01 4.45799E-03-1.09330E-03-7.99182E-02 3.27530E-14-1.49318E-13
 -1      1533 2.03604E+01 3.73726E-03-7.08867E-04-6.02517E-02-7.49193E-14-8.93560E-14
 -1      1534 2.02843E+01 5.71727E-03 3.50230E-04-5.64406E-02-4.47689E-14-1.27829E-13
 -1      1535 2.02792E+01 6.37322E-03-1.52885E-03-1.02430E-01-5.55787E-14-7.35547E-14
 -1      1536 2.05478E+01 4.78658E-03-9.86169E-04-7.85907E-02-5.81197E-15-9.19317E-15
 -1      1537 2.04484E+01 7.57705E-03 3.91167E-04-7.34543E-02-2.09763E-14-3.82143E-14
 -1      1538 2.04318E+01 8.51716E-03-2.07164E-03-1.32848E-01-6.64924E-14-7.29079E-14
 -1      1539 2.07897E+01 5.87351E-03-1.30207E-03-1.01719E-01 3.13180E-14-1.68346E-13
 -1      1540 2.06603E+01 9.63799E-03 4.15453E-04-9.50644E-02 3.68605E-14-8.10385E-14
 -1      1541 2.06267E+01 1.08300E-02-2.72445E-03-1.71955E-01 5.98996E-14-8.38521E-14
 -1      1542 2.10978E+01 6.86086E-03-1.64170E-03-1.29604E-01 4.75452E-14-3.19811E-13
 -1      1543 2.09317E+01 1.17531E-02 4.01840E-04-1.21317E-01 3.55306E-14-2.31038E-13
 -1      1544 2.08737E+01 1.31433E-02-3.46943E-03-2.20046E-01 1.18657E-13-2.79035E-13
 -1      1545 2.14827E+01 7.48233E-03-1.95216E-03-1.61414E-01-2.68119E-14-2.10790E-13
 -1      1546 2.12737E+01 1.35997E-02 3.25959E-04-1.51574E-01-3.74074E-14-3.10823E-13
 -1      1547 2.11819E+01 1.50935E-02-4.24559E-03-2.76335E-01-1.49945E-15-3.37032E-13
 -1      1548 2.19503E+01 7.26771E-03-2.10113E-03-1.94832E-01 1.95358E-14-1.83514E-13
 -1      1549 2.16947E+01 1.45604E-02 1.71754E-04-1.83923E-01 3.54812E-14-1.21348E-13
 -1      1550 2.15579E+01 1.59887E-02-4.90969E-03-3.37965E-01-6.88772E-15-2.24389E-13
 -1      1551 2.24967E+01 5.45836E-03-1.80907E-03-2.25016E-01-2.22749E-14-1.44194E-13
 -1      1552 2.21965E+01 1.35664E-02-3.93099E-05-2.14260E-01-1.06058E-14-1.22100E-13
 -1      1553 2.20024E+01 1.46240E-02-5.17546E-03-3.98472E-01 2.39188E-14-8.17311E-14
 -1      1554 2.31003E+01 9.65737E-04-5.67285E-04-2.43232E-01-7.74655E-14-6.52464E-14
 -1      1555 2.27677E+01 8.95378E-03-1.92533E-04-2.35066E-01-4.63073E-14-1.47613E-13
 -1      1556 2.25054E+01 9.09057E-03-4.53765E-03-4.45635E-01-2.57741E-14-6.90090E-14
 -1      1557 2.37109E+01-7.48444E-03 2.38534E-03-2.35549E-01-1.77415E-14 6.68493E-14
 -1      1558 2.33750E+01-1.50497E-03-6.17368E-06-2.34152E-01-6.90810E-14 3.46528E-14
 -1      1559 2.30396E+01-3.25849E-03-2.22482E-03-4.59071E-01-1.38025E-13 9.36317E-14
 -1      1560 2.42370E+01-2.07355E-02 7.83389E-03-1.82820E-01 2.29114E-15 5.67324E-14
 -1      1561 2.39518E+01-2.00123E-02 9.98794E-04-1.94329E-01 8.04964E-14 1.04087E-13
 -1      1562 2.35516E+01-2.52741E-02 2.68852E-03-4.08931E-01 3.07042E-14 1.48061E-13
 -1      1563 2.45405E+01-3.77341E-02 1.58039E-02-6.46328E-02 1.63064E-16-1.65406E-14
 -1      1564 2.43885E+01-4.69924E-02 3.32669E-03-9.61584E-02-4.80692E-14-1.25937E-13
 -1      1565 2.39552E+01-5.81355E-02 1.07802E-02-2.59029E-01 6.17935E-14-2.47831E-14
 -1      1566 2.44501E+01-5.32047E-02 2.40664E-02 1.28861E-01 2.36972E-14-1.35831E-13
 -1      1567 2.45339E+01-7.77327E-02 6.93352E-03 7.28007E-02 1.23729E-14-8.54369E-14
 -1      1568 2.41330E+01-9.73797E-02 2.11680E-02 1.98130E-02 3.05589E-14-2.07625E-13
 -1      1569 2.38162E+01-5.62313E-02 2.67854E-02 3.75485E-01-4.57629E-14-1.19349E-13
 -1      1570 2.42244E+01-9.88074E-02 1.01648E-02 2.99897E-01-4.17444E-14-9.26065E-14
 -1      1571 2.39571E+01-1.27342E-01 3.01905E-02 4.20701E-01-1.15637E-14-1.68333E-13
 -1      1572 2.26140E+01-3.40114E-02 1.59261E-02 5.99959E-01 4.20115E-14 6.43791E-14
 -1      1573 2.33575E+01-8.92809E-02 9.26685E-03 5.26384E-01-3.11313E-14 1.25247E-14
 -1      1574 2.33442E+01-1.20487E-01 3.10164E-02 8.60901E-01-8.90434E-14-1.84665E-13
 -1      1575 2.10621E+01 1.63437E-02-1.16742E-02 6.80928E-01-1.07927E-13 3.04062E-13
 -1      1576 2.20028E+01-3.34284E-02 2.55417E-04 6.45987E-01-2.83966E-14 2.54241E-13
 -1      1577 2.23412E+01-4.90085E-02 1.81692E-02 1.16476E+00-9.73930E-14 1.10096E-13
 -1      1578 1.96466E+01 7.40086E-02-4.64029E-02 5.17429E-01 7.27075E-14 2.07750E-14
 -1      1579 2.04884E+01 5.71353E-02-1.63219E-02 5.51855E-01 3.81839E-14 1.09551E-13
 -1      1580 2.11965E+01 8.17526E-02-7.11691E-03 1.12150E+00 1.36082E-13 1.00933E-13
 -1      1581 1.89379E+01 1.02294E-01-6.41465E-02 1.29217E-01 1.14480E-13-3.66283E-13
 -1      1582 1.93426E+01 1.35951E-01-3.11241E-02 2.28991E-01 1.64053E-13-7.91728E-14
 -1      1583 2.03217E+01 2.12669E-01-3.08104E-02 6.40253E-01 2.54956E-13-1.77334E-13
 -1      1584 1.92452E+01 7.95895E-02-4.93528E-02-3.10855E-01-8.74942E-14-1.92873E-13
 -1      1585 1.90383E+01 1.51939E-01-3.13798E-02-1.92886E-01-1.25800E-13-3.45100E-13
 -1      1586 2.00887E+01 2.54968E-01-3.80480E-02-1.16537E-01-5.77906E-14-1.34718E-13
 -1      1587 2.03894E+01 2.32885E-02-1.13152E-02-5.89408E-01 1.50514E-13-3.58914E-13
 -1      1588 1.96857E+01 9.71615E-02-1.51306E-02-5.09905E-01 1.03462E-13-1.57353E-13
 -1      1589 2.05787E+01 1.72403E-01-2.71166E-02-7.91913E-01 6.08038E-14-2.63328E-13
 -1      1590 2.18308E+01-2.95692E-02 2.42827E-02-6.09070E-01-6.19322E-14-2.91080E-13
 -1      1591 2.09536E+01 1.26660E-02 6.48834E-03-5.93481E-01-1.84958E-14-3.52260E-13
 -1      1592 2.15237E+01 2.16791E-02-9.28517E-03-1.08817E+00 6.56742E-14-9.33004E-14
 -1      1593 2.30198E+01-5.56439E-02 4.03359E-02-4.26336E-01-2.53237E-13 1.46473E-13
 -1      1594 2.22947E+01-5.31515E-02 2.03276E-02-4.61424E-01-1.29540E-13-1.88918E-13
 -1      1595 2.24979E+01-1.03993E-01 4.58164E-03-9.56326E-01-2.35707E-13 2.64462E-13
 -1      1596 2.36499E+01-5.51903E-02 3.73661E-02-1.67076E-01 1.90171E-13 2.35804E-13
 -1      1597 2.32574E+01-7.97558E-02 2.21850E-02-2.23067E-01-1.10901E-14 1.93096E-13
 -1      1598 2.31636E+01-1.55480E-01 1.09690E-02-5.58236E-01-4.30489E-14 1.96653E-13
 -1      1599 2.36876E+01-4.05248E-02 2.49608E-02 6.58306E-02 5.46507E-14-2.41819E-13
 -1      1600 2.36457E+01-7.43123E-02 1.61089E-02 1.30035E-02 1.66556E-13 3.59539E-14
 -1      1601 2.33827E+01-1.42101E-01 1.16655E-02-1.04092E-01 2.76326E-13 1.32730E-13
 -1      1602 2.32652E+01-2.27913E-02 1.18601E-02 2.25403E-01 1.31241E-13-4.37258E-13
 -1      1603 2.34936E+01-5.34167E-02 8.03644E-03 1.86975E-01 9.41972E-14-3.25120E-13
 -1      1604 2.31876E+01-9.78180E-02 9.54235E-03 2.64855E-01 1.70955E-13 1.04569E-14
 -1      1605 2.25671E+01-7.37139E-03 1.94388E-03 3.06687E-01 2.44676E-14-6.07799E-13
 -1      1606 2.29559E+01-2.95796E-02 1.69826E-03 2.84544E-01 5.90261E-14-4.17250E-13
 -1      1607 2.26977E+01-4.99668E-02 6.54664E-03 4.96399E-01 1.24048E-13-1.19568E-13
 -1      1608 2.17663E+01 5.00865E-03-4.94737E-03 3.21806E-01-2.50800E-14-5.17583E-13
 -1      1609 2.22137E+01-7.94095E-03-2.14160E-03 3.14265E-01-2.28035E-14-4.66092E-13
 -1      1610 2.20518E+01-1.02857E-02 3.23310E-03 5.94009E-01-2.36743E-14-4.55651E-14
 -1      1611 2.10073E+01 1.57683E-02-1.04144E-02 2.82778E-01 1.20740E-13-6.10940E-13
 -1      1612 2.14285E+01 1.15756E-02-4.54033E-03 2.88530E-01 4.74696E-14-5.94750E-13
 -1      1613 2.13752E+01 2.10163E-02-7.78170E-04 5.78863E-01 8.23092E-14-2.49131E-13
 -1      1614 2.04129E+01 2.64641E-02-1.34786E-02 1.94569E-01-4.82370E-14-6.99308E-13
 -1      1615 2.07331E+01 3.11748E-02-6.36311E-03 2.15086E-01 1.03319E-13-5.08205E-13
 -1      1616 2.07705E+01 4.92483E-02-5.34917E-03 4.68227E-01 1.28599E-13-2.02958E-13
 -1      1617 2.00855E+01 3.60881E-02-1.24926E-03 7.03885E-02-4.25831E-14-4.18874E-13
 -1      1618 2.02348E+01 4.68816E-02-5.21550E-03 1.01559E-01-9.39010E-14-6.26097E-13
 -1      1619 2.03141E+01 7.52292E-02-7.89983E-03 2.74019E-01-4.24686E-14-7.81344E-14
 -1      1620 2.00095E+01 2.30759E-02 3.07727E-03 3.03745E-03-2.04840E-13-2.19868E-13
 -1      1621 2.00476E+01 3.30837E-01-6.70609E-03 1.65176E-01 8.43726E-14 1.82065E-13
 -1      1622 2.00542E+01 1.66395E-01 1.08540E-03 1.31323E-01-2.68610E-13 2.37182E-13
 -1      1623 2.00303E+01 8.65870E-01-3.48497E-03 2.81562E-01 3.10528E-13 2.18746E-13
 -1      1624 2.00419E+01 5.47260E-01-4.64002E-03 2.61691E-01 1.61725E-13 9.86451E-14
 -1      1625 2.00891E+01 4.93123E-01-9.21151E-03 4.14791E-01 2.27256E-13 2.71150E-13
 -1      1626 2.00103E+01 1.55688E+00-9.10672E-04 3.48445E-01 2.30285E-13-9.50628E-14
 -1      1627 2.00231E+01 1.14856E+00-3.03853E-03 3.39406E-01 2.82645E-13 5.47834E-14
 -1      1628 2.00477E+01 9.85835E-01-7.29530E-03 5.99613E-01 2.32265E-13 1.60293E-13
 -1      1629 1.99905E+01 2.30558E+00 4.60239E-04 3.61968E-01 1.77813E-13-2.21619E-13
 -1      1630 2.00033E+01 1.87395E+00-1.34644E-03 3.63539E-01 2.00905E-13-1.88199E-14
 -1      1631 2.00123E+01 1.57949E+00-2.11304E-03 6.86705E-01 8.23629E-14-1.60154E-13
 -1      1632 1.99720E+01 2.99414E+00 1.14914E-03 3.23307E-01-6.13391E-13-2.65872E-13
 -1      1633 1.99835E+01 2.60918E+00-2.68160E-04 3.34851E-01-2.16431E-13-4.03587E-13
 -1      1634 1.99786E+01 2.19486E+00 3.67536E-03 6.71764E-01-1.06473E-13-7.02365E-13
 -1      1635 1.99566E+01 3.54402E+00 1.68606E-03 2.35341E-01-7.05784E-13 5.23782E-14
 -1      1636 1.99658E+01 3.25183E+00 7.49429E-04 2.56259E-01-6.68850E-13 2.32279E-14
 -1      1637 1.99485E+01 2.75153E+00 9.11953E-03 5.58711E-01-2.37502E-13-2.91422E-13
 -1      1638 1.99478E+01 3.85683E+00 1.93172E-03 1.10336E-01-4.99190E-13-2.05825E-15
 -1      1639 1.99525E+01 3.70956E+00 1.46675E-03 1.37367E-01-5.99690E-13 8.50934E-14
 -1      1640 1.99252E+01 3.17123E+00 1.35463E-02 3.59302E-01-3.17996E-13 1.29442E-13
 -1      1641 1.99478E+01 3.88405E+00 1.76381E-03-3.17549E-02 1.94232E-13 1.69541E-13
 -1      1642 1.99468E+01 3.90437E+00 1.81955E-03-3.14954E-03-2.85670E-13 2.86977E-13
 -1      1643 1.99136E+01 3.38270E+00 1.57992E-02 1.03362E-01-1.56571E-14 3.18387E-13
 -1      1644 1.99564E+01 3.62378E+00 1.13796E-03-1.66949E-01 3.12117E-13 2.08163E-13
 -1      1645 1.99502E+01 3.80662E+00 1.72080E-03-1.41737E-01 1.02282E-13 9.06211E-14
 -1      1646 1.99162E+01 3.35258E+00 1.52713E-02-1.67232E-01 1.38204E-13 2.77085E-13
 -1      1647 1.99712E+01 3.12138E+00 2.40591E-04-2.73485E-01-3.09013E-13-4.84922E-13
 -1      1648 1.99616E+01 3.43549E+00 1.35500E-03-2.55637E-01 3.66982E-13-4.87134E-13
 -1      1649 1.99322E+01 3.08813E+00 1.21316E-02-4.07471E-01-1.16008E-13-2.12109E-13
 -1      1650 1.99889E+01 2.46935E+00-5.64566E-04-3.36370E-01-3.26673E-13 2.61004E-13
 -1      1651 1.99776E+01 2.85831E+00 8.15170E-04-3.27984E-01-2.74157E-13-1.22212E-13
 -1      1652 1.99580E+01 2.63924E+00 7.44747E-03-5.79798E-01 2.41430E-14-4.61474E-13
 -1      1653 2.00073E+01 1.74210E+00-1.51941E-03-3.51991E-01 2.47998E-13 3.41806E-13
 -1      1654 1.99955E+01 2.16189E+00 1.87131E-04-3.52958E-01-2.62981E-13 5.36332E-13
 -1      1655 1.99871E+01 2.07405E+00 2.04667E-03-6.65145E-01 1.18806E-13 6.21348E-13
 -1      1656 2.00243E+01 1.05209E+00-2.86882E-03-3.19854E-01 3.32876E-13-2.45166E-14
 -1      1657 2.00131E+01 1.43722E+00-9.18895E-04-3.29414E-01 2.00201E-13 3.69328E-13
 -1      1658 2.00176E+01 1.46775E+00-3.16965E-03-6.57791E-01 1.72430E-13 3.96785E-13
 -1      1659 2.00431E+01 5.03407E-01-5.29980E-04-2.41569E-01-1.02557E-14-1.90037E-13
 -1      1660 2.00283E+01 7.89334E-01-3.18143E-03-2.59712E-01 3.90687E-13-3.21810E-13
 -1      1661 2.00492E+01 9.04377E-01-7.19128E-03-5.59014E-01 1.89698E-13-1.36989E-13
 -1      1662 2.00784E+01 2.00196E-01 5.05189E-03-1.76290E-01-1.84182E-13-2.48508E-13
 -1      1663 2.00718E+01 3.50042E-01-2.43031E-03-2.21704E-01 7.26919E-14-3.09386E-13
 -1      1664 2.01126E+01 4.94130E-01-8.02837E-03-4.47790E-01 8.45888E-14-3.09467E-13
 -1      1665 2.02196E+01 2.26491E-01-1.81054E-03-3.42974E-01 8.24539E-14-4.44073E-13
 -1      1666-6.22781E-01-1.50688E+01-1.70128E+00-1.01505E+00 1.99230E-13 1.43330E-13
 -1      1667-6.13254E-01-1.73038E+01-1.90991E+00 2.95211E-01 1.25844E-13 8.88178E-14
 -1      1668 1.36773E+00-8.44532E+00-1.22185E+00 4.24530E-01 5.66769E-13 5.83422E-13
 -1      1669 6.03825E-01-1.36830E+01-1.75472E+00-1.94023E-01 3.45834E-13 1.94993E-13
 -1      1670 7.15511E+00-7.18105E-01-5.44208E-01 4.59857E+00 9.77884E-13 1.09046E-12
 -1      1671 3.98676E+00-6.36205E+00-1.32173E+00 1.66392E+00 5.78648E-13 7.93587E-13
 -1      1672 1.78736E+01 4.71046E+00 2.52933E-01 9.68357E+00 1.12599E-12 1.34670E-12
 -1      1673 1.13191E+01 1.21883E+00-6.38921E-01 5.95159E+00 1.10578E-12 1.12799E-12
 -1      1674 3.16000E+01 6.53416E+00 1.01187E+00 1.26993E+01 9.47686E-13 8.54650E-13
 -1      1675 2.27310E+01 6.09859E+00 1.62146E-01 1.06320E+01 1.27776E-12 1.15730E-12
 -1      1676 4.57658E+01 5.15439E+00 1.61161E+00 1.06837E+01 4.94410E-13 6.41709E-14
 -1      1677 3.68128E+01 6.63971E+00 9.32623E-01 1.20353E+01 7.33191E-13 6.57252E-13
 -1      1678 5.46139E+01 3.60254E+00 1.91411E+00 4.35015E+00 2.74225E-13-5.09204E-13
 -1      1679 4.96824E+01 5.00289E+00 1.59584E+00 9.06823E+00 4.46171E-13 1.04361E-14
 -1      1680 5.35110E+01 4.01619E+00 1.71086E+00-4.06647E+00 5.65770E-13-1.36841E-12
 -1      1681 5.47618E+01 3.74155E+00 1.81969E+00 1.61291E+00 3.24518E-13-7.48734E-13
 -1      1682 4.51794E+01 5.56663E+00 1.30025E+00-1.02231E+01 1.04664E-12-2.05347E-12
 -1      1683 5.18322E+01 3.98709E+00 1.76231E+00-6.57494E+00 7.63223E-13-1.59039E-12
 -1      1684 3.19093E+01 6.50845E+00 6.26426E-01-1.16810E+01 1.39277E-12-2.29727E-12
 -1      1685 4.09733E+01 5.51262E+00 1.35176E+00-1.15659E+01 1.07903E-12-2.23022E-12
 -1      1686 1.81561E+01 4.86190E+00-1.60988E-01-9.05065E+00 1.93690E-12-1.94622E-12
 -1      1687 2.65466E+01 6.22335E+00 7.16498E-01-1.19192E+01 1.65268E-12-2.10276E-12
 -1      1688 8.12261E+00-6.72633E-01-9.02004E-01-4.33292E+00 1.57740E-12-1.56519E-12
 -1      1689 1.33783E+01 3.50260E+00-5.50851E-02-7.95341E+00 1.82476E-12-2.05935E-12
 -1      1690 2.19967E+00-8.80790E+00-1.53896E+00-4.34710E-01 1.45484E-12-7.93671E-13
 -1      1691 4.43787E+00-2.82834E+00-8.27636E-01-2.79478E+00 1.65290E-12-1.14797E-12
 -1      1692 2.41692E-02-1.49846E+01-1.81019E+00 3.80073E-01 9.52016E-13-3.96766E-13
 -1      1693 2.86579E-01-1.07877E+01-1.42686E+00 5.76391E-01 1.32516E-12-5.62952E-13
 -1      1694-7.07989E-01-1.63858E+01-1.75698E+00-5.89111E-01-2.61444E-13-5.10925E-13
 -1      1695-7.14478E-01-1.54804E+01-1.68724E+00 8.97266E-01 5.44287E-13-4.76008E-13
 -1      1696-3.54501E-01-1.29562E+01-1.51948E+00-8.53249E-01-1.11755E-12-6.84092E-13
 -1      1697-3.93737E-01-1.62128E+01-1.81100E+00 8.52571E-02-4.90386E-13-4.73510E-13
 -1      1698 3.26979E+00-5.29155E+00-9.04622E-01 2.02973E+00-1.83675E-12-1.44607E-12
 -1      1699 1.70058E+00-1.11032E+01-1.51626E+00 4.89552E-01-1.33671E-12-7.84164E-13
 -1      1700 1.02790E+01 2.16089E+00-2.54708E-01 6.52044E+00-2.25220E-12-1.68832E-12
 -1      1701 5.85467E+00-2.92669E+00-1.09789E+00 2.98004E+00-2.14895E-12-1.56408E-12
 -1      1702 2.38835E+01 5.52639E+00 5.55827E-01 1.10948E+01-1.44462E-12-1.33027E-12
 -1      1703 1.56590E+01 3.29878E+00-3.55092E-01 7.69517E+00-2.01605E-12-1.45262E-12
 -1      1704 3.80398E+01 6.09911E+00 1.30084E+00 1.24124E+01-8.50819E-13-8.86180E-13
 -1      1705 2.89742E+01 6.70797E+00 5.02125E-01 1.17514E+01-1.19660E-12-1.27853E-12
 -1      1706 5.07638E+01 4.20318E+00 1.78456E+00 8.04172E+00-3.55820E-13 7.88258E-15
 -1      1707 4.28796E+01 6.05960E+00 1.25479E+00 1.13712E+01-6.48592E-13-6.97886E-13
 -1      1708 5.46862E+01 3.63039E+00 1.80903E+00-1.42944E-01-3.67151E-13 7.44502E-13
 -1      1709 5.25582E+01 4.20371E+00 1.66777E+00 5.24317E+00-3.28737E-13 2.60625E-13
 -1      1710 5.09436E+01 4.73930E+00 1.67358E+00-8.22822E+00-4.16389E-13 1.22924E-12
 -1      1711 5.51224E+01 3.47479E+00 1.91973E+00-2.93546E+00-3.13582E-13 9.30006E-13
 -1      1712 3.83467E+01 6.56091E+00 1.00443E+00-1.19171E+01-3.31096E-13 1.00364E-12
 -1      1713 4.71594E+01 4.92674E+00 1.66566E+00-1.00628E+01-2.52479E-13 1.20515E-12
 -1      1714 2.35964E+01 6.05235E+00 1.95944E-01-1.06408E+01-4.55858E-13 6.48148E-13
 -1      1715 3.30848E+01 6.29948E+00 1.06319E+00-1.25710E+01-4.33764E-13 8.59757E-13
 -1      1716 1.11493E+01 1.71939E+00-6.46862E-01-6.08704E+00-5.37570E-13 3.29625E-13
 -1      1717 1.79812E+01 5.18172E+00 2.81041E-01-9.95302E+00-4.92717E-13 3.20410E-13
 -1      1718 4.02250E+00-6.28578E+00-1.31181E+00-1.69922E+00 3.29292E-13 4.17499E-13
 -1      1719 7.27952E+00-5.00072E-01-5.15801E-01-4.72531E+00-3.17746E-13 5.50449E-13
 -1      1720 5.85867E-01-1.37691E+01-1.76865E+00 1.73361E-01 4.45088E-13-1.69975E-13
 -1      1721 1.32354E+00-8.45890E+00-1.23374E+00-4.43469E-01 2.52687E-13 1.39500E-13
 -1      1722-6.52445E-01-1.76156E+01-1.96314E+00-2.86635E-01 3.79141E-14-2.67952E-13
 -1      1723-6.96656E-01-1.54613E+01-1.78092E+00 1.14323E+00 3.73701E-13-4.20469E-13
 -1      1724 2.46069E+01 8.06978E-01 2.57372E-01 7.44853E+00 6.97331E-13 4.82281E-13
 -1      1725 1.45759E+01-3.45055E+00-3.43040E-01 6.45362E+00 5.70877E-13 1.01918E-12
 -1      1726 2.00574E+01 6.27328E-02-5.27069E-03 6.79619E-02-2.59871E-13 6.45751E-16
 -1      1727 2.01332E+01 1.91935E-01-3.95263E-03 2.24627E-01-1.12299E-13 1.85137E-13
 -1      1728 5.43682E-01-1.06021E+01-1.20583E+00 2.36941E+00 1.92180E-13 2.73004E-13
 -1      1729 6.07219E+00-7.57212E+00-8.67351E-01 4.63482E+00 3.15081E-13 7.12826E-13
 -1      1730-1.37421E+00-1.20845E+01-1.37307E+00 4.30530E-02 6.28386E-14 2.68119E-14
 -1      1731 3.49316E+01 4.17813E+00 8.81600E-01 7.02748E+00 7.71022E-13 1.41998E-13
 -1      1732 4.32679E+01 6.32425E+00 1.35900E+00 4.78817E+00 6.28109E-13-1.32672E-13
 -1      1733 4.70602E+01 7.42240E+00 1.55706E+00 1.50063E+00 6.39100E-13-5.87280E-13
 -1      1734 4.57154E+01 7.20457E+00 1.45384E+00-2.20906E+00 8.23785E-13-9.50739E-13
 -1      1735 4.04008E+01 5.54347E+00 1.16099E+00-5.24889E+00 9.50351E-13-1.13343E-12
 -1      1736 3.14076E+01 3.09317E+00 6.73878E-01-7.15518E+00 9.92428E-13-1.44795E-12
 -1      1737 2.08125E+01-2.64542E-01 5.36524E-02-7.15108E+00 1.09535E-12-1.37890E-12
 -1      1738 1.10194E+01-4.47200E+00-5.46494E-01-5.62807E+00 9.98202E-13-1.24700E-12
 -1      1739 3.55642E+00-8.59701E+00-1.05927E+00-3.52112E+00 8.07354E-13-6.44582E-13
 -1      1740-4.62353E-01-1.08278E+01-1.24329E+00-1.45491E+00 3.01148E-13-7.49623E-13
 -1      1741-1.12498E+00-1.10578E+01-1.23432E+00 6.59414E-01-1.09843E-13-8.54483E-13
 -1      1742 2.16816E+00-9.21671E+00-1.00763E+00 3.34574E+00-5.98133E-13-9.68503E-13
 -1      1743 8.77211E+00-5.89002E+00-6.84807E-01 5.30594E+00-9.17044E-13-1.24228E-12
 -1      1744 1.84605E+01-1.58082E+00-8.50721E-02 6.85550E+00-1.38756E-12-7.27418E-13
 -1      1745 2.91021E+01 2.17173E+00 4.84349E-01 7.12317E+00-1.10034E-12-5.72875E-13
 -1      1746 3.90042E+01 5.23951E+00 1.09581E+00 6.30442E+00-8.24445E-13-1.29119E-13
 -1      1747 4.52431E+01 6.93513E+00 1.42399E+00 3.11663E+00-6.07459E-13 3.66485E-13
 -1      1748 4.70469E+01 7.45272E+00 1.53629E+00-9.27334E-01-5.32629E-13 5.75720E-13
 -1      1749 4.40592E+01 6.49177E+00 1.39695E+00-4.38208E+00-2.01450E-13 7.12652E-13
 -1      1750 3.57535E+01 4.36616E+00 9.15650E-01-6.65184E+00-1.47354E-13 6.69131E-13
 -1      1751 2.51209E+01 1.16613E+00 3.19200E-01-7.53822E+00-1.98064E-13 4.41647E-13
 -1      1752 1.44737E+01-3.17140E+00-3.52584E-01-6.47534E+00 1.08136E-13 1.99507E-13
 -1      1753 6.09178E+00-7.49336E+00-8.47543E-01-4.63308E+00 3.39728E-13 4.17937E-13
 -1      1754 4.95816E-01-1.08375E+01-1.23190E+00-2.28801E+00 2.02061E-13-3.06977E-13
 -1      1755 2.28576E+01 1.98495E+00-2.35540E-02-2.72300E+00-3.98702E-13 1.40016E-12
 -1      1756 1.98251E+01 3.71349E+00-3.54037E-02-2.15421E+00-4.77582E-13-6.07361E-13
 -1      1757 2.00571E+01 3.56262E+00-4.02639E-02-2.44639E+00-5.50317E-13-4.53203E-13
 -1      1758 2.03621E+01 3.18146E+00-4.58146E-02-2.58595E+00-5.55890E-13-2.44360E-13
 -1      1759 2.05819E+01 2.80977E+00-1.42535E-01-2.85420E+00-6.05568E-13 3.72896E-14
 -1      1760 2.04231E+01 2.69301E+00-4.13424E-03-2.22560E+00-5.85224E-13-3.17940E-13
 -1      1761 1.93560E+01 4.18858E+00-2.00400E-02-1.27148E+00-2.37893E-13-8.55257E-13
 -1      1762 1.94293E+01 4.14906E+00-1.69432E-02-1.49600E+00-2.92510E-13-8.25000E-13
 -1      1763 1.92599E+01 4.29447E+00-1.67457E-02-8.60236E-01-1.28828E-13-8.88890E-13
 -1      1764 1.93024E+01 4.27051E+00-1.42308E-02-1.07111E+00-1.77622E-13-8.83073E-13
 -1      1765 1.95284E+01 3.78284E+00-8.91333E-03-1.12037E+00-2.24394E-13-8.34320E-13
 -1      1766 1.92087E+01 4.35488E+00-1.47976E-02-4.67139E-01-1.43312E-14-8.68052E-13
 -1      1767 1.92305E+01 4.34201E+00-1.33093E-02-6.67567E-01-6.60382E-14-8.73444E-13
 -1      1768 1.94314E+01 3.90298E+00-9.14983E-03-7.33732E-01-1.06591E-13-8.53739E-13
 -1      1769 1.91895E+01 4.38048E+00-1.36753E-02-8.36837E-02 9.20299E-14-8.53890E-13
 -1      1770 1.91959E+01 4.37655E+00-1.32236E-02-2.79272E-01 3.88020E-14-8.65266E-13
 -1      1771 1.93815E+01 3.96738E+00-9.15408E-03-3.58569E-01 1.54110E-14-8.34116E-13
 -1      1772 1.91975E+01 4.37518E+00-1.31783E-02 2.98372E-01 1.89202E-13-8.26261E-13
 -1      1773 1.91900E+01 4.37965E+00-1.37598E-02 1.02624E-01 1.40659E-13-8.44651E-13
 -1      1774 1.93669E+01 3.98678E+00-9.14693E-03 1.05840E-02 1.24170E-13-8.21298E-13
 -1      1775 1.92345E+01 4.33798E+00-1.33375E-02 6.87400E-01 2.79282E-13-7.93473E-13
 -1      1776 1.92115E+01 4.35168E+00-1.49218E-02 4.86462E-01 2.37733E-13-8.19957E-13
 -1      1777 1.93842E+01 3.96406E+00-9.19103E-03 3.79925E-01 2.24219E-13-7.99687E-13
 -1      1778 1.93075E+01 4.26458E+00-1.44189E-02 1.08531E+00 3.74495E-13-7.01003E-13
 -1      1779 1.92644E+01 4.28906E+00-1.69748E-02 8.77231E-01 3.19420E-13-7.55385E-13
 -1      1780 1.94366E+01 3.89657E+00-9.19683E-03 7.52375E-01 3.17390E-13-7.46892E-13
 -1      1781 1.94385E+01 4.13739E+00-1.74114E-02 1.51550E+00 5.00133E-13-5.63202E-13
 -1      1782 1.93624E+01 4.17999E+00-2.04998E-02 1.28589E+00 4.28904E-13-6.35478E-13
 -1      1783 1.95357E+01 3.77271E+00-9.24249E-03 1.13637E+00 4.36031E-13-6.31406E-13
 -1      1784 1.96670E+01 3.92090E+00-2.52016E-02 1.98066E+00 5.97741E-13-3.77493E-13
 -1      1785 1.95345E+01 3.99768E+00-2.68980E-02 1.72330E+00 5.38247E-13-4.93699E-13
 -1      1786 1.97084E+01 3.56571E+00-8.69816E-03 1.53626E+00 5.53763E-13-4.88607E-13
 -1      1787 2.00749E+01 3.52265E+00-4.51944E-02 2.47308E+00 6.63759E-13-3.58533E-14
 -1      1788 1.98352E+01 3.68310E+00-3.97179E-02 2.18400E+00 6.12517E-13-2.39038E-13
 -1      1789 2.00040E+01 3.22267E+00-5.27387E-03 1.93565E+00 6.41437E-13-2.76008E-13
 -1      1790 2.09196E+01 2.68178E+00-5.76565E-02 2.85865E+00 6.35388E-13 5.93338E-13
 -1      1791 2.04125E+01 3.09688E+00-5.04249E-02 2.61694E+00 6.35951E-13 2.15980E-13
 -1      1792 2.05164E+01 2.60983E+00 3.18580E-03 2.24559E+00 6.78086E-13 1.07941E-13
 -1      1793 2.17296E+01 1.21301E+00-1.22097E-01 2.33054E+00 5.34940E-13 1.34992E-12
 -1      1794 2.12733E+01 2.26305E+00 1.20316E-04 2.74124E+00 5.87221E-13 8.51985E-13
 -1      1795 2.09360E+01 1.68501E+00-2.29692E-02 2.14110E+00 6.54778E-13 5.82763E-13
 -1      1796 2.09507E+01 7.78686E-01-6.24619E-02 1.52487E+00 5.40068E-13 1.17343E-12
 -1      1797 2.17956E+01 2.45828E+00 9.09240E-02-3.04892E+00-5.32215E-13 5.34781E-13
 -1      1798 2.00994E+01 2.97911E-01-8.92382E-03 6.57754E-01 4.22849E-13 8.92234E-13
 -1      1799 2.06518E+01 4.40394E-01-1.24701E-02 1.03476E+00 4.52326E-13 1.05277E-12
 -1      1800 2.07432E+01 8.45117E-01 2.25540E-03 1.41598E+00 5.46542E-13 7.12421E-13
 -1      1801 2.15059E+01 1.74237E+00 7.94406E-02-2.33800E+00-5.66311E-13 3.38021E-13
 -1      1802 2.05188E+01 5.00794E-01 3.24269E-02-9.22274E-01-4.57266E-13 2.65300E-13
 -1      1803 2.00868E+01 3.51887E-01 7.51825E-03-6.30285E-01-3.98664E-13 1.43941E-13
 -1      1804 1.98930E+01 2.56616E-01 2.74141E-02-3.92262E-01-3.39156E-13 1.28409E-13
 -1      1805 1.97013E+01 1.77591E-01 1.03399E-02-2.55032E-01-2.79686E-13 4.15301E-14
 -1      1806 2.01969E+01 4.81100E-01-6.64659E-03-7.23382E-01-4.41047E-13-6.26114E-14
 -1      1807 1.95787E+01 1.32955E-01 1.66500E-02-1.21164E-01-2.32313E-13 3.17680E-14
 -1      1808 1.95002E+01 9.30949E-02 6.92399E-03-5.03522E-02-1.96958E-13-3.57448E-14
 -1      1809 1.98706E+01 2.42893E-01-6.22307E-03-2.97287E-01-3.13196E-13-9.39622E-14
 -1      1810 1.94352E+01 6.82611E-02 8.68723E-03 2.30889E-02-1.93363E-13-5.67085E-14
 -1      1811 1.94202E+01 4.65416E-02 4.11496E-03 5.91818E-02-1.64294E-13-9.91819E-14
 -1      1812 1.96877E+01 1.25166E-01-4.64768E-03-6.03341E-02-2.43914E-13-1.42422E-13
 -1      1813 1.93939E+01 3.22240E-02 4.24843E-03 9.77794E-02-1.55199E-13-1.07825E-13
 -1      1814 1.94132E+01 1.98344E-02 2.44184E-03 1.14481E-01-1.25904E-13-1.43863E-13
 -1      1815 1.96008E+01 6.06731E-02-3.45439E-03 6.89763E-02-1.93987E-13-1.94309E-13
 -1      1816 1.94113E+01 1.12636E-02 1.86930E-03 1.32391E-01-1.27637E-13-1.63473E-13
 -1      1817 1.94479E+01 4.17045E-03 1.46666E-03 1.37821E-01-1.09129E-13-2.00451E-13
 -1      1818 1.95761E+01 2.39427E-02-2.34483E-03 1.35277E-01-1.55906E-13-2.03323E-13
 -1      1819 1.94603E+01-9.21382E-04 5.75688E-04 1.43337E-01-1.06046E-13-2.04274E-13
 -1      1820 1.95042E+01-4.76582E-03 8.72143E-04 1.42256E-01-1.06131E-13-2.10545E-13
 -1      1821 1.95894E+01 2.66880E-03-1.45963E-03 1.63754E-01-1.20809E-13-2.22856E-13
 -1      1822 1.95244E+01-7.60002E-03-1.32979E-04 1.40583E-01-1.31000E-13-2.09145E-13
 -1      1823 1.95698E+01-9.34910E-03 5.06740E-04 1.35996E-01-1.16066E-13-2.21281E-13
 -1      1824 1.96241E+01-9.18945E-03-8.31304E-04 1.69700E-01-1.20090E-13-2.52901E-13
 -1      1825 1.95934E+01-1.06589E-02-5.00940E-04 1.30546E-01-1.27045E-13-2.64434E-13
 -1      1826 1.96371E+01-1.10126E-02 2.98245E-04 1.24443E-01-1.28921E-13-3.41974E-13
 -1      1827 1.96696E+01-1.49747E-02-4.21181E-04 1.62920E-01-1.77312E-13-2.81776E-13
 -1      1828 1.96618E+01-1.12647E-02-6.57066E-04 1.17524E-01-1.02677E-13-3.77725E-13
 -1      1829 1.97022E+01-1.06621E-02 2.07458E-04 1.11263E-01-4.44992E-14-4.39290E-13
 -1      1830 1.97192E+01-1.66947E-02-1.77574E-04 1.49940E-01-1.50360E-13-3.15855E-13
 -1      1831 1.97266E+01-1.01587E-02-6.76740E-04 1.04483E-01-3.49586E-14-4.46943E-13
 -1      1832 1.97636E+01-8.87266E-03 2.10799E-04 9.90220E-02-2.94804E-14-4.66171E-13
 -1      1833 1.97693E+01-1.56072E-02-5.70269E-05 1.35238E-01-5.93061E-14-3.93596E-13
 -1      1834 1.97875E+01-7.80514E-03-6.07424E-04 9.35392E-02-1.58375E-15-4.59487E-13
 -1      1835 1.98216E+01-5.99457E-03 2.94189E-04 8.95890E-02-2.74904E-15-3.88660E-13
 -1      1836 1.98183E+01-1.25004E-02-2.75920E-05 1.21982E-01-2.82040E-14-4.36797E-13
 -1      1837 1.98451E+01-4.47530E-03-4.79953E-04 8.62887E-02-4.10739E-14-3.63827E-13
 -1      1838 1.98777E+01-2.21708E-03 4.50265E-04 8.44174E-02-7.39870E-14-3.57517E-13
 -1      1839 1.98661E+01-7.84346E-03-6.69809E-05 1.12513E-01-5.70673E-15-3.95708E-13
 -1      1840 1.99016E+01-3.01047E-04-3.14448E-04 8.40331E-02-1.24112E-13-3.91117E-13
 -1      1841 1.99345E+01 2.38698E-03 6.76406E-04 8.47444E-02-8.97996E-14-4.44423E-13
 -1      1842 1.99139E+01-1.87866E-03-1.60083E-04 1.08680E-01-1.25539E-13-3.95746E-13
 -1      1843 1.99600E+01 4.68479E-03-1.24049E-04 8.79445E-02-1.05267E-13-4.26116E-13
 -1      1844 1.99954E+01 7.82444E-03 9.72811E-04 9.17300E-02-1.32191E-13-4.65926E-13
 -1      1845 1.99637E+01 5.31364E-03-2.96806E-04 1.12079E-01-1.23239E-13-4.01165E-13
 -1      1846 2.00241E+01 1.05125E-02 8.23471E-05 9.91739E-02-1.38494E-13-4.53381E-13
 -1      1847 2.00646E+01 1.41453E-02 1.34016E-03 1.06545E-01-7.75500E-14-5.15279E-13
 -1      1848 2.00183E+01 1.37595E-02-4.70254E-04 1.24212E-01-1.51060E-13-3.66736E-13
 -1      1849 2.00984E+01 1.72366E-02 2.97807E-04 1.18908E-01-6.20822E-14-5.40088E-13
 -1      1850 2.01472E+01 2.13987E-02 1.77640E-03 1.30402E-01-7.81827E-14-5.53866E-13
 -1      1851 2.00811E+01 2.35339E-02-6.75086E-04 1.46578E-01-9.04100E-14-3.41342E-13
 -1      1852 2.01882E+01 2.48855E-02 5.15248E-04 1.48366E-01-4.12004E-14-4.96184E-13
 -1      1853 2.02489E+01 2.95724E-02 2.27201E-03 1.64517E-01 7.39551E-14-4.64608E-13
 -1      1854 2.01563E+01 3.46885E-02-9.05940E-04 1.80693E-01-3.24759E-14-3.91053E-13
 -1      1855 2.02994E+01 3.33895E-02 7.25356E-04 1.88705E-01 8.56666E-14-5.49552E-13
 -1      1856 2.03757E+01 3.85028E-02 2.80291E-03 2.09972E-01 9.91148E-14-5.57653E-13
 -1      1857 2.02484E+01 4.71505E-02-1.15594E-03 2.28003E-01 2.66531E-14-3.95261E-13
 -1      1858 2.04383E+01 4.24719E-02 9.14567E-04 2.40816E-01 1.09389E-13-5.90996E-13
 -1      1859 2.05343E+01 4.77357E-02 3.31991E-03 2.67430E-01 1.03713E-14-5.17082E-13
 -1      1860 2.03625E+01 6.05694E-02-1.41540E-03 2.89672E-01 1.08008E-13-4.42865E-13
 -1      1861 2.06116E+01 5.14799E-02 1.06343E-03 3.04928E-01-2.63750E-14-4.10810E-13
 -1      1862 2.07309E+01 5.63136E-02 3.73394E-03 3.36634E-01 6.81212E-14-3.42159E-13
 -1      1863 2.05035E+01 7.40811E-02-1.67103E-03 3.66160E-01 7.75810E-14-3.80229E-13
 -1      1864 2.08253E+01 5.91299E-02 1.14610E-03 3.79945E-01 7.36041E-14-3.15869E-13
 -1      1865 2.09710E+01 6.24622E-02 3.89728E-03 4.15572E-01 1.26344E-13-2.88462E-13
 -1      1866 2.06768E+01 8.59517E-02-1.90591E-03 4.56524E-01 9.98626E-14-2.42105E-13
 -1      1867 2.10847E+01 6.31436E-02 1.13259E-03 4.62395E-01 6.55246E-14-3.08723E-13
 -1      1868 2.12577E+01 6.31658E-02 3.58436E-03 4.99204E-01 5.33822E-14-3.15230E-13
 -1      1869 2.08867E+01 9.30646E-02-2.10054E-03 5.57296E-01 1.04063E-13-3.13866E-13
 -1      1870 2.13919E+01 5.97854E-02 9.95709E-04 5.44868E-01 4.67104E-14-3.46798E-13
 -1      1871 2.15900E+01 5.36876E-02 2.48305E-03 5.77642E-01-2.30869E-14-3.71830E-13
 -1      1872 2.11364E+01 9.02610E-02-2.23413E-03 6.60829E-01 6.38248E-14-3.67988E-13
 -1      1873 2.17450E+01 4.34179E-02 7.24011E-04 6.13918E-01-4.26521E-14-3.84331E-13
 -1      1874 2.19603E+01 2.72656E-02 2.20439E-04 6.33857E-01-2.49466E-14-3.84685E-13
 -1      1875 2.14270E+01 6.96794E-02-2.28259E-03 7.53039E-01 2.24780E-14-3.82936E-13
 -1      1876 2.21342E+01 6.44956E-03 3.35901E-04 6.47669E-01-6.20702E-14-2.88491E-13
 -1      1877 2.23509E+01-2.44011E-02-3.53172E-03 6.41475E-01-5.42093E-14-2.71394E-13
 -1      1878 2.17560E+01 2.05795E-02-2.20379E-03 8.10750E-01 2.58057E-14-2.44145E-13
 -1      1879 2.25391E+01-5.94467E-02-1.23034E-04 6.14149E-01-2.51932E-14-2.88572E-13
 -1      1880 2.27307E+01-1.08618E-01-8.80619E-03 5.64257E-01 5.61513E-14-2.25486E-13
 -1      1881 2.21159E+01-6.91862E-02-1.89041E-03 7.99477E-01-3.76807E-14-1.18364E-13
 -1      1882 2.29233E+01-1.59232E-01-6.39375E-04 4.72833E-01 6.78485E-14-2.38618E-13
 -1      1883 2.30524E+01-2.25217E-01-1.49143E-02 3.60723E-01 6.45903E-14-2.11733E-13
 -1      1884 2.24912E+01-2.07897E-01-1.07157E-03 6.73862E-01 2.80232E-14-1.35295E-13
 -1      1885 2.32307E+01-2.85619E-01-1.41188E-03 1.84100E-01-2.47918E-14-2.61432E-13
 -1      1886 2.32528E+01-3.54743E-01-1.98770E-02-6.54918E-04-1.73430E-13-2.50080E-13
 -1      1887 2.28530E+01-3.88189E-01 7.73644E-04 3.85230E-01-2.12677E-15-1.33591E-13
 -1      1888 2.33836E+01-4.05159E-01-2.92156E-03-2.66955E-01-1.90828E-13-2.39955E-13
 -1      1889 2.32595E+01-4.44568E-01-2.01540E-02-5.10245E-01-1.36648E-13-1.42720E-13
 -1      1890 2.31520E+01-5.68173E-01 4.36643E-03-9.69452E-02-1.54085E-13-2.40699E-13
 -1      1891 2.32936E+01-4.47641E-01-5.69695E-03-8.29396E-01-1.11045E-13-1.29085E-13
 -1      1892 2.30110E+01-4.09720E-01-1.24612E-02-1.07348E+00 5.05151E-15-1.19049E-13
 -1      1893 2.33115E+01-6.55042E-01 9.88570E-03-7.43275E-01-1.04616E-13 2.59688E-14
 -1      1894 2.29007E+01-3.24084E-01-9.78924E-03-1.34589E+00 4.31209E-14-1.51650E-13
 -1      1895 2.25003E+01-1.74345E-01 2.91615E-03-1.48763E+00 4.70479E-14-1.57038E-13
 -1      1896 2.32399E+01-5.23834E-01 1.41728E-02-1.41036E+00 5.41711E-15-4.38573E-14
 -1      1897 2.22431E+01 1.07854E-02-1.15051E-02-1.56366E+00-1.42517E-13-2.56961E-13
 -1      1898 2.18272E+01 2.41742E-01 1.84230E-02-1.49195E+00-1.73072E-13-3.39565E-13
 -1      1899 2.28864E+01-9.69189E-02 1.10778E-02-1.82417E+00-1.54617E-13-2.08821E-13
 -1      1900 2.15238E+01 4.56338E-01-5.80781E-03-1.25625E+00-2.13713E-13-3.84070E-13
 -1      1901 2.12302E+01 6.50774E-01 2.24073E-02-9.41340E-01-2.64372E-13-4.56602E-13
 -1      1902 2.23382E+01 5.23627E-01-3.70170E-03-1.67119E+00-2.38832E-13-1.04985E-13
 -1      1903 2.10568E+01 7.66138E-01 7.93522E-03-4.38540E-01-3.25058E-13-4.30877E-13
 -1      1904 2.09928E+01 7.94130E-01 1.17142E-02 5.86054E-03-3.25935E-13-5.31918E-13
 -1      1905 2.18662E+01 1.02895E+00-2.16138E-02-8.48952E-01-2.93727E-13-1.74677E-13
 -1      1906 2.10619E+01 7.26116E-01 2.08685E-02 5.47546E-01-1.56188E-13-5.35309E-13
 -1      1907 2.12422E+01 5.66021E-01-3.63206E-03 9.15303E-01-3.56798E-14-4.39071E-13
 -1      1908 2.17623E+01 1.10080E+00-2.48027E-02 3.35578E-01-2.59036E-13 2.79732E-14
 -1      1909 2.14873E+01 3.63704E-01 2.13022E-02 1.23661E+00-1.07679E-13-5.41297E-13
 -1      1910 2.18239E+01 1.25531E-01-1.20839E-02 1.37543E+00-1.00102E-13-5.42294E-13
 -1      1911 2.20731E+01 6.86711E-01-9.76632E-03 1.30527E+00-1.42606E-13-9.74013E-14
 -1      1912 2.20680E+01-8.06578E-02 8.17426E-03 1.37388E+00-1.44595E-13-4.89959E-13
 -1      1913 2.24230E+01-2.63384E-01-1.18226E-02 1.27592E+00-5.70468E-14-5.19032E-13
 -1      1914 2.25508E+01 5.44343E-02 8.06064E-03 1.64159E+00-1.83697E-13-1.87823E-13
 -1      1915 2.25349E+01-3.80894E-01-8.33190E-03 1.03277E+00 3.53051E-14-5.50991E-13
 -1      1916 2.27892E+01-4.50794E-01-7.98838E-03 7.96007E-01 1.85936E-13-6.17778E-13
 -1      1917 2.28914E+01-4.54682E-01 1.47768E-02 1.34137E+00-6.64677E-14-2.34140E-13
 -1      1918 2.27448E+01-4.69385E-01-1.86188E-02 4.64686E-01 7.92075E-14-6.41659E-13
 -1      1919 2.28397E+01-4.46743E-01-4.53474E-03 2.02891E-01 1.39396E-13-5.93821E-13
 -1      1920 2.29501E+01-6.71722E-01 1.17398E-02 6.88010E-01 8.69018E-14-2.62677E-13
 -1      1921 2.26805E+01-4.03523E-01-2.01942E-02-9.58485E-02 3.93070E-13-6.59330E-13
 -1      1922 2.26168E+01-3.35771E-01-2.14305E-03-3.08362E-01 4.79054E-13-4.28664E-13
 -1      1923 2.27482E+01-6.32361E-01 6.03065E-03-1.06392E-02 2.79736E-13-2.55919E-13
 -1      1924 2.23959E+01-2.70707E-01-1.59529E-02-5.17725E-01 4.53405E-13-2.06127E-13
 -1      1925 2.22115E+01-1.94655E-01-3.02540E-04-6.52385E-01 5.28845E-13 9.07564E-14
 -1      1926 2.23765E+01-4.57737E-01 1.61175E-03-5.65578E-01 5.53742E-13-1.35213E-13
 -1      1927 2.19690E+01-1.30982E-01-9.62286E-03-7.62386E-01 5.16894E-13 7.20040E-15
 -1      1928 2.17158E+01-6.33013E-02 1.70122E-03-8.18932E-01 5.01764E-13 8.62383E-14
 -1      1929 2.19221E+01-2.49891E-01-1.03730E-03-9.10257E-01 5.59299E-13 7.51107E-14
 -1      1930 2.14773E+01-8.44753E-03-3.77363E-03-8.40499E-01 2.12768E-13 7.26606E-14
 -1      1931 2.12059E+01 4.85191E-02 3.83932E-03-8.28777E-01 1.79961E-13-5.19281E-14
 -1      1932 2.14483E+01-5.89535E-02-2.43498E-03-1.04920E+00 3.76953E-13-9.89662E-14
 -1      1933 2.09864E+01 9.60622E-02 2.46076E-04-7.77368E-01 9.05307E-14-2.17708E-13
 -1      1934 2.07400E+01 1.45493E-01 5.57969E-03-7.06941E-01 4.22262E-14-3.05484E-13
 -1      1935 2.09975E+01 1.04286E-01-2.92763E-03-1.01178E+00-7.00371E-14-1.25479E-13
 -1      1936 2.05689E+01 1.77766E-01 2.14774E-03-6.00235E-01 1.02083E-13-4.51329E-13
 -1      1937 2.03770E+01 2.17167E-01 7.62597E-03-4.85642E-01 4.42571E-14-3.61609E-13
 -1      1938 2.03150E+01 3.12729E-01-2.34228E-03-5.72568E-01 3.34637E-14-5.38768E-13
 -1      1939 2.06150E+01 2.38304E-01-2.80875E-03-8.35676E-01-7.91316E-15-3.94844E-13
 -1      1940 1.96161E+01 1.41984E-01 7.87504E-03 2.60205E-01 3.29807E-13 6.79668E-13
 -1      1941 1.98885E+01 2.04050E-01 1.64313E-02 4.33160E-01 3.50983E-13 8.17086E-13
 -1      1942 2.01004E+01 3.50504E-01-1.52456E-03 6.55896E-01 4.36011E-13 5.40577E-13
 -1      1943 1.93731E+01 7.18564E-02 6.93826E-03 5.73148E-02 2.37195E-13 5.16882E-13
 -1      1944 1.94885E+01 1.01742E-01 1.41925E-02 1.45782E-01 2.61898E-13 6.15654E-13
 -1      1945 1.97072E+01 1.65108E-01-1.94637E-03 2.57240E-01 3.29566E-13 4.19376E-13
 -1      1946 1.92820E+01 3.60958E-02 4.42242E-03-4.80639E-02 1.42678E-13 4.15909E-13
 -1      1947 1.93125E+01 5.19031E-02 8.33433E-03-9.10974E-04 1.71172E-13 4.75314E-13
 -1      1948 1.95064E+01 8.06015E-02-2.82824E-03 4.53420E-02 2.32256E-13 3.11144E-13
 -1      1949 1.92796E+01 1.62039E-02 2.86007E-03-1.00528E-01 7.59885E-14 3.17772E-13
 -1      1950 1.92648E+01 2.50408E-02 4.35428E-03-7.59377E-02 1.12973E-13 3.88366E-13
 -1      1951 1.94268E+01 3.74346E-02-2.84395E-03-6.65014E-02 1.42343E-13 2.35784E-13
 -1      1952 1.93262E+01 4.66065E-03 1.99108E-03-1.22722E-01 7.93217E-14 2.74235E-13
 -1      1953 1.92883E+01 9.65292E-03 2.15683E-03-1.11271E-01 6.50631E-14 2.94786E-13
 -1      1954 1.94199E+01 1.36937E-02-2.31638E-03-1.22113E-01 8.81112E-14 1.32512E-13
 -1      1955 1.93974E+01-1.98690E-03 1.45717E-03-1.27247E-01 1.35492E-13 2.18165E-13
 -1      1956 1.93492E+01 6.97686E-04 9.67805E-04-1.23636E-01 1.10599E-13 2.62318E-13
 -1      1957 1.94542E+01 2.68948E-04-1.70157E-03-1.44936E-01 1.41512E-13 9.03473E-14
 -1      1958 1.94782E+01-5.54078E-03 1.08961E-03-1.21758E-01 1.51591E-13 9.70880E-14
 -1      1959 1.94272E+01-4.30894E-03 3.08592E-04-1.22724E-01 1.52369E-13 1.87670E-13
 -1      1960 1.95099E+01-7.08981E-03-1.18818E-03-1.48558E-01 1.76213E-13 7.73798E-14
 -1      1961 1.95597E+01-7.04856E-03 8.25570E-04-1.11178E-01 3.62770E-14 1.36114E-13
 -1      1962 1.95103E+01-6.75240E-03-5.48201E-05-1.14590E-01 8.11120E-14 1.19082E-13
 -1      1963 1.95748E+01-1.06235E-02-8.09046E-04-1.41431E-01 1.12219E-13 9.42279E-14
 -1      1964 1.96372E+01-7.16046E-03 6.40385E-04-9.88017E-02 5.26769E-14 1.35316E-13
 -1      1965 1.95915E+01-7.47185E-03-2.36085E-04-1.03211E-01 6.01866E-14 1.53908E-13
 -1      1966 1.96414E+01-1.16380E-02-5.46608E-04-1.29079E-01 5.18139E-14 1.12478E-13
 -1      1967 1.97090E+01-6.28853E-03 5.21726E-04-8.69000E-02 4.84206E-14 9.64245E-14
 -1      1968 1.96675E+01-6.99642E-03-2.96603E-04-9.12879E-02 4.38943E-14 1.01848E-13
 -1      1969 1.97059E+01-1.09384E-02-3.76539E-04-1.15244E-01 6.09088E-14 2.01244E-14
 -1      1970 1.97749E+01-4.68646E-03 4.62467E-04-7.70996E-02 9.46421E-14 2.04990E-14
 -1      1971 1.97375E+01-5.65812E-03-2.73177E-04-8.07179E-02 7.99513E-14 6.60459E-14
 -1      1972 1.97668E+01-9.02533E-03-2.79050E-04-1.02543E-01 9.13200E-14 6.35119E-15
 -1      1973 1.98367E+01-2.49499E-03 4.58850E-04-7.06400E-02 1.04106E-13-9.47169E-14
 -1      1974 1.98022E+01-3.65259E-03-1.88829E-04-7.29022E-02 5.46755E-14-3.95888E-14
 -1      1975 1.98243E+01-6.19514E-03-2.40058E-04-9.28914E-02 1.20709E-13-7.23247E-14
 -1      1976 1.98969E+01 2.28716E-04 5.09835E-04-6.85581E-02 5.02438E-14-1.15535E-13
 -1      1977 1.98637E+01-1.07608E-03-5.77195E-05-6.89586E-02 9.49551E-14-7.48686E-14
 -1      1978 1.98800E+01-2.59832E-03-2.50216E-04-8.77951E-02 1.21535E-13-1.34109E-13
 -1      1979 1.99593E+01 3.48928E-03 6.16542E-04-7.18228E-02 8.06991E-14-1.31573E-13
 -1      1980 1.99253E+01 2.04892E-03 1.11966E-04-6.98770E-02 6.83750E-14-1.21505E-13
 -1      1981 1.99364E+01 1.72192E-03-3.03805E-04-8.85565E-02 1.07496E-13-1.90672E-13
 -1      1982 2.00284E+01 7.33386E-03 7.81465E-04-8.14312E-02 9.49037E-14-1.85643E-13
 -1      1983 1.99909E+01 5.75288E-03 3.15877E-04-7.66310E-02 6.78453E-14-1.34298E-13
 -1      1984 1.99970E+01 6.79928E-03-3.97872E-04-9.64252E-02 1.01774E-13-1.25482E-13
 -1      1985 2.01097E+01 1.18307E-02 1.00720E-03-9.84660E-02 1.18908E-13-2.20037E-13
 -1      1986 2.00655E+01 1.00985E-02 5.51567E-04-9.02515E-02 1.31775E-13-2.25719E-13
 -1      1987 2.00660E+01 1.27153E-02-5.31461E-04-1.12697E-01 1.39133E-13-2.51872E-13
 -1      1988 2.02095E+01 1.70404E-02 1.29424E-03-1.24107E-01-5.60750E-14-1.66995E-13
 -1      1989 2.01550E+01 1.51547E-02 8.16372E-04-1.11859E-01 2.06293E-14-1.80966E-13
 -1      1990 2.01485E+01 1.95640E-02-7.04845E-04-1.38761E-01 3.45385E-14-1.98447E-13
 -1      1991 2.03349E+01 2.29718E-02 1.63725E-03-1.59581E-01-6.54626E-14-1.38429E-13
 -1      1992 2.02661E+01 2.09598E-02 1.10470E-03-1.42638E-01-4.57414E-14-1.18416E-13
 -1      1993 2.02503E+01 2.74020E-02-9.18746E-04-1.76074E-01-4.85256E-14-1.79016E-13
 -1      1994 2.04939E+01 2.95113E-02 2.01867E-03-2.06005E-01-3.32800E-14-1.72495E-13
 -1      1995 2.04061E+01 2.74614E-02 1.40433E-03-1.83737E-01-7.89752E-14-2.11603E-13
 -1      1996 2.03777E+01 3.61695E-02-1.17347E-03-2.26049E-01-6.33055E-15-1.80098E-13
 -1      1997 2.06948E+01 3.63044E-02 2.39873E-03-2.64079E-01 1.77606E-13-2.33548E-13
 -1      1998 2.05833E+01 3.44195E-02 1.69115E-03-2.36025E-01 9.01375E-14-1.24406E-13
 -1      1999 2.05378E+01 4.55607E-02-1.46791E-03-2.89775E-01 9.37223E-14-2.63260E-13
 -1      2000 2.09458E+01 4.25656E-02 2.70077E-03-3.33517E-01 1.08137E-13-4.27098E-13
 -1      2001 2.08058E+01 4.12470E-02 1.92234E-03-2.99660E-01 1.58125E-13-2.97890E-13
 -1      2002 2.07375E+01 5.48130E-02-1.79803E-03-3.67510E-01 1.76883E-13-3.24532E-13
 -1      2003 2.12537E+01 4.67847E-02 2.79299E-03-4.12076E-01-9.02971E-14-3.32385E-13
 -1      2004 2.10815E+01 4.67578E-02 2.02826E-03-3.73314E-01-6.52692E-14-3.74153E-13
 -1      2005 2.09836E+01 6.23720E-02-2.15425E-03-4.57792E-01-3.93574E-14-3.43780E-13
 -1      2006 2.16217E+01 4.63157E-02 2.47292E-03-4.94017E-01-7.16354E-15-1.73599E-13
 -1      2007 2.14158E+01 4.87977E-02 1.90624E-03-4.52935E-01-5.97801E-14-2.48044E-13
 -1      2008 2.12809E+01 6.54008E-02-2.51535E-03-5.56012E-01-9.62728E-14-1.78368E-13
 -1      2009 2.20467E+01 3.69096E-02 1.47159E-03-5.67838E-01 3.42478E-14-1.74022E-13
 -1      2010 2.18100E+01 4.37757E-02 1.42276E-03-5.29867E-01 1.58734E-14-1.28427E-13
 -1      2011 2.16310E+01 5.91535E-02-2.83489E-03-6.52248E-01 3.49998E-14-1.58363E-13
 -1      2012 2.25146E+01 1.24579E-02-4.86527E-04-6.13402E-01-1.41525E-13 8.14427E-14
 -1      2013 2.22573E+01 2.62528E-02 4.36409E-04-5.88323E-01-2.46576E-14-3.53970E-14
 -1      2014 2.20299E+01 3.64187E-02-3.01280E-03-7.28349E-01-7.76176E-14-1.30654E-13
 -1      2015 2.29948E+01-3.43325E-02-3.51634E-03-5.99290E-01-9.04606E-14 9.62260E-14
 -1      2016 2.27380E+01-1.09148E-02-1.14394E-03-6.02689E-01-1.50121E-13 5.68196E-14
 -1      2017 2.24644E+01-1.23225E-02-2.84570E-03-7.54746E-01-1.21792E-13 4.60504E-14
 -1      2018 2.34346E+01-1.08882E-01-7.26128E-03-4.82938E-01 9.35649E-14 2.29787E-13
 -1      2019 2.32136E+01-7.47539E-02-3.27030E-03-5.36301E-01 2.52684E-14 2.14164E-13
 -1      2020 2.29080E+01-9.65482E-02-1.96689E-03-6.88733E-01-2.05018E-14 1.42137E-13
 -1      2021 2.37563E+01-2.07270E-01-1.05086E-02-2.18921E-01 1.61395E-13 3.83413E-14
 -1      2022 2.36209E+01-1.66752E-01-5.66024E-03-3.45559E-01 1.36110E-13 1.46590E-13
 -1      2023 2.33159E+01-2.18693E-01 1.61908E-04-4.78367E-01 1.75225E-13 3.03889E-13
 -1      2024 2.38620E+01-3.03887E-01-1.10633E-02 2.16567E-01-1.82181E-14-1.48596E-13
 -1      2025 2.38693E+01-2.72170E-01-7.78228E-03 3.96758E-03 5.31866E-14-1.60655E-13
 -1      2026 2.36208E+01-3.60238E-01 4.07033E-03-7.93962E-02 1.34252E-13 1.91144E-13
 -1      2027 2.36542E+01-3.41137E-01-6.85838E-03 7.80110E-01 1.70653E-14-3.19397E-13
 -1      2028 2.38510E+01-3.46574E-01-8.73740E-03 5.02917E-01 4.09273E-14-1.83632E-13
 -1      2029 2.37332E+01-4.64588E-01 9.67773E-03 5.06529E-01 4.00773E-14-1.46697E-13
 -1      2030 2.30843E+01-2.43911E-01 9.16187E-04 1.31178E+00-1.85386E-13-1.41245E-13
 -1      2031 2.34762E+01-3.16298E-01-8.11276E-03 1.04959E+00-1.68735E-13-2.68424E-13
 -1      2032 2.35603E+01-4.35498E-01 1.47627E-02 1.17440E+00-1.38153E-13-2.29431E-13
 -1      2033 2.22255E+01 2.34406E-02 6.69874E-03 1.54131E+00-2.00374E-13 1.04038E-13
 -1      2034 2.27464E+01-1.16310E-01-4.66364E-03 1.42733E+00-2.00323E-13-1.51060E-14
 -1      2035 2.30628E+01-1.87903E-01 1.39204E-02 1.67814E+00-2.83293E-13-2.15357E-13
 -1      2036 2.13338E+01 3.69893E-01 1.71568E-03 1.22399E+00 3.23273E-13-4.15674E-14
 -1      2037 2.18345E+01 2.24064E-01 6.22576E-04 1.37194E+00 1.46282E-13 6.54407E-14
 -1      2038 2.23442E+01 2.55106E-01 3.32549E-03 1.69357E+00 8.19353E-14-4.35329E-14
 -1      2039 2.07932E+01 5.89505E-01-9.97238E-03 3.75522E-01 2.42173E-13-7.96557E-14
 -1      2040 2.10862E+01 5.34684E-01 7.57498E-03 7.68347E-01 2.87374E-13-1.14821E-14
 -1      2041 2.16953E+01 6.85492E-01-1.35176E-02 1.03860E+00 3.24995E-13 9.00001E-14
 -1      2042 2.08831E+01 5.18323E-01-1.62201E-02-6.27760E-01-1.75823E-13-2.73353E-13
 -1      2043 2.08412E+01 6.01707E-01 1.29430E-02-1.73719E-01 4.73233E-15-1.37432E-13
 -1      2044 2.14603E+01 8.33619E-01-1.85441E-02-8.14203E-02 1.00565E-13 9.98281E-14
 -1      2045 2.15365E+01 2.11841E-01-9.58064E-03-1.28922E+00 1.36692E-13-1.62058E-13
 -1      2046 2.11867E+01 3.75241E-01 1.18894E-02-9.95282E-01-7.35054E-14-2.36831E-13
 -1      2047 2.17568E+01 5.89515E-01-7.91849E-03-1.11751E+00-7.74016E-14-1.58606E-13
 -1      2048 2.23863E+01-1.19618E-01 2.54441E-03-1.36359E+00-1.59040E-13 7.54084E-14
 -1      2049 2.18973E+01 2.07140E-02 3.73067E-03-1.32733E+00-1.59360E-14-1.40794E-13
 -1      2050 2.23649E+01 1.21096E-01 5.26112E-03-1.58369E+00-5.02124E-14-9.06740E-14
 -1      2051 2.30483E+01-3.12316E-01 1.02520E-02-9.62856E-01-2.97927E-13 2.48093E-13
 -1      2052 2.26205E+01-2.52496E-01-6.23051E-03-1.12922E+00-2.38687E-13 2.71552E-13
 -1      2053 2.29290E+01-2.95014E-01 7.71520E-03-1.39107E+00-3.27855E-13 6.53557E-14
 -1      2054 2.33254E+01-3.41049E-01 1.08800E-02-3.70018E-01 2.99255E-13 9.36976E-14
 -1      2055 2.30881E+01-3.54378E-01-1.23956E-02-6.17985E-01 1.13919E-14 1.95647E-13
 -1      2056 2.32137E+01-4.89740E-01 3.39313E-03-7.89310E-01 4.93321E-14 9.23567E-14
 -1      2057 2.32142E+01-2.68423E-01 7.12131E-03 1.75330E-01 2.26647E-13 2.76248E-13
 -1      2058 2.31984E+01-3.18070E-01-1.33202E-02-5.48041E-02 2.40568E-13 2.39031E-13
 -1      2059 2.31693E+01-4.73570E-01-1.01198E-03-1.01293E-01 1.77195E-13 2.55340E-13
 -1      2060 2.28140E+01-1.63572E-01 2.87662E-03 5.57553E-01 2.38806E-13 1.04340E-13
 -1      2061 2.29812E+01-2.18537E-01-1.06351E-02 3.93420E-01 1.81660E-13 2.36327E-13
 -1      2062 2.28609E+01-3.43841E-01-2.74178E-03 4.59006E-01 2.22153E-13 3.85435E-13
 -1      2063 2.22478E+01-6.56956E-02 3.08194E-04 7.58144E-01 5.63456E-14 4.21338E-14
 -1      2064 2.25311E+01-1.11616E-01-6.40425E-03 6.68886E-01 2.30273E-13 6.32177E-14
 -1      2065 2.23865E+01-1.88539E-01-2.48527E-03 8.12606E-01 2.45568E-13 3.14566E-13
 -1      2066 2.16254E+01 1.49242E-02-3.77942E-04 8.01526E-01 4.21337E-14-7.40224E-14
 -1      2067 2.19566E+01-2.02858E-02-2.13257E-03 7.78928E-01-2.73527E-14 6.08107E-14
 -1      2068 2.18369E+01-5.08561E-02-1.68142E-03 9.63861E-01-8.46458E-15 3.06557E-13
 -1      2069 2.10344E+01 8.27815E-02-8.13903E-05 7.16796E-01 7.85270E-14 4.04273E-14
 -1      2070 2.13552E+01 5.46959E-02 1.20456E-03 7.51116E-01 1.16232E-13 8.73520E-14
 -1      2071 2.12843E+01 6.16479E-02-1.48295E-03 9.45112E-01 1.15958E-13-1.93049E-14
 -1      2072 2.05438E+01 1.45925E-01 1.93238E-03 5.24040E-01 8.57561E-15 2.06232E-13
 -1      2073 2.08044E+01 1.19422E-01 2.63186E-03 6.10650E-01 1.12113E-13 1.14706E-13
 -1      2074 2.07831E+01 1.57520E-01-1.85767E-03 7.88511E-01 6.14556E-14 2.67187E-13
 -1      2075 2.02421E+01 1.90297E-01 4.79903E-03 3.21823E-01-5.90565E-14 1.83671E-13
 -1      2076 2.04251E+01 1.71549E-01 2.58250E-03 4.43974E-01-5.55294E-14 1.95586E-13
 -1      2077 2.04315E+01 2.31347E-01-2.87004E-03 5.87876E-01 5.22410E-14 3.53815E-13
 -1      2078 2.02173E+01 2.90808E-01-1.93357E-04 4.00103E-01 5.93900E-14 3.24051E-13
 -1      2079 2.00085E+01 1.58198E+00-2.05963E-03 9.27201E-01-3.72172E-14-2.49161E-13
 -1      2080 2.00606E+01 1.28842E+00 3.60845E-03 9.07209E-01 6.92953E-14-1.45971E-13
 -1      2081 2.01100E+01 1.06235E+00 7.93040E-04 8.50306E-01-9.15934E-16-7.68283E-14
 -1      2082 2.01592E+01 7.97483E-01 4.97867E-03 7.70888E-01 1.19379E-13 9.53894E-14
 -1      2083 2.01259E+01 1.05630E+00-1.83717E-03 1.10315E+00-1.26495E-13 1.34205E-14
 -1      2084 2.01776E+01 6.46485E-01 2.28856E-03 6.59290E-01 1.19899E-13 3.05209E-13
 -1      2085 2.02134E+01 4.34390E-01 4.97995E-03 5.36034E-01 9.08876E-14 3.27150E-13
 -1      2086 2.03050E+01 4.09382E-01 3.33302E-03 6.44271E-01 9.34498E-14 2.50804E-13
 -1      2087 2.02367E+01 6.91662E-01-1.05628E-03 9.12208E-01-7.49023E-14 2.09359E-13
 -1      2088 1.99076E+01 2.08911E+00-6.02903E-03 8.77813E-01-1.61066E-13-8.43800E-13
 -1      2089 1.99594E+01 1.80915E+00 3.96358E-04 9.15313E-01-1.08201E-13-4.70857E-13
 -1      2090 1.99745E+01 1.50669E+00-3.70387E-05 1.15316E+00-1.19225E-13-4.97313E-13
 -1      2091 1.98135E+01 2.53725E+00-9.41414E-03 6.99190E-01 2.97340E-14-1.53798E-13
 -1      2092 1.98598E+01 2.30183E+00-3.12778E-03 7.92671E-01-4.68202E-14-2.66399E-13
 -1      2093 1.98272E+01 1.94812E+00 3.63802E-03 1.04590E+00 5.01712E-14-4.16272E-13
 -1      2094 1.97454E+01 2.84930E+00-1.11335E-02 4.11608E-01-6.15718E-16 1.18253E-13
 -1      2095 1.97763E+01 2.69826E+00-6.76193E-03 5.48555E-01 4.67443E-14-6.90645E-14
 -1      2096 1.96975E+01 2.32337E+00 7.22366E-03 7.81862E-01 2.53268E-13-1.52429E-13
 -1      2097 1.97186E+01 2.97414E+00-1.08037E-02 5.81986E-02 1.14366E-13 4.99578E-13
 -1      2098 1.97266E+01 2.93056E+00-9.76277E-03 2.17117E-01-7.98595E-14 3.08054E-13
 -1      2099 1.96119E+01 2.56704E+00 9.85081E-03 3.94003E-01 1.24916E-13 2.22704E-13
 -1      2100 1.97396E+01 2.89030E+00-8.73009E-03-3.01773E-01-5.71134E-14 4.32527E-14
 -1      2101 1.97228E+01 2.96031E+00-1.13646E-02-1.47775E-01 9.54591E-15 2.45349E-13
 -1      2102 1.95897E+01 2.63498E+00 1.05688E-02-5.69135E-02-1.30739E-13 2.80834E-13
 -1      2103 1.98020E+01 2.61332E+00-5.70232E-03-6.07861E-01-2.03209E-13-6.62097E-13
 -1      2104 1.97657E+01 2.78499E+00-1.09234E-02-4.84069E-01-9.25325E-14-2.28576E-14
 -1      2105 1.96356E+01 2.51527E+00 9.04888E-03-4.93868E-01-1.63187E-13-1.47013E-13
 -1      2106 1.98884E+01 2.19961E+00-2.23060E-03-8.12211E-01 1.43310E-13-1.50727E-13
 -1      2107 1.98419E+01 2.44090E+00-8.54999E-03-7.36470E-01 7.90383E-16-4.63256E-13
 -1      2108 1.97367E+01 2.23562E+00 6.14434E-03-8.42547E-01-2.34452E-14-2.99479E-13
 -1      2109 1.99844E+01 1.70030E+00 1.05823E-03-8.99823E-01 3.05839E-13 6.66553E-13
 -1      2110 1.99351E+01 1.98401E+00-4.88296E-03-8.76874E-01 2.35830E-13 4.58263E-13
 -1      2111 1.98679E+01 1.84609E+00 2.47661E-03-1.05834E+00 3.02404E-13 2.48078E-13
 -1      2112 2.00766E+01 1.19075E+00 3.88161E-03-8.64517E-01 3.17287E-13 2.30078E-13
 -1      2113 2.00301E+01 1.47480E+00-9.60030E-04-8.95377E-01 3.67171E-13 2.89589E-13
 -1      2114 2.00090E+01 1.40412E+00-5.46732E-04-1.12421E+00 3.25501E-13 4.94456E-13
 -1      2115 2.01615E+01 7.22158E-01 3.13931E-03-7.19749E-01 1.45457E-14-3.85224E-13
 -1      2116 2.01150E+01 9.78247E-01 9.96307E-04-7.97948E-01 7.17269E-14-8.43559E-14
 -1      2117 2.01434E+01 9.68734E-01-2.26118E-03-1.04344E+00 5.07164E-14-8.21520E-14
 -1      2118 1.07657E+01-5.47428E+00-1.13179E-01 6.57687E+00 1.62315E-13 8.81906E-13
 -1      2119 7.00522E+00-6.96678E+00-3.59211E-01 5.38774E+00 1.41165E-13 5.26634E-13
 -1      2120 1.14043E-01-7.66586E+00-4.22476E-01 7.28635E-01 1.27731E-13 1.70808E-13
 -1      2121 1.28542E-01-8.05570E+00-4.84111E-01-8.66676E-01 7.66887E-14-2.99816E-13
 -1      2122 3.99413E+00-6.34589E+00-2.08133E-01 4.46715E+00 2.17382E-13 3.29015E-13
 -1      2123 1.91713E+00-7.15750E+00-3.46202E-01 2.82112E+00 1.04750E-13 2.06168E-13
 -1      2124 1.94140E+01-3.42914E+00 2.11573E-02 6.95551E+00 2.54463E-13 4.24771E-13
 -1      2125 1.45923E+01-5.41357E+00-3.09355E-01 6.23003E+00 1.99840E-13 5.54196E-13
 -1      2126 2.82199E+01-3.13646E-01 1.99714E-01 5.99743E+00 5.57165E-13-1.21458E-13
 -1      2127 2.32940E+01-2.40990E+00-1.60393E-01 5.73531E+00 2.50355E-13 1.53322E-13
 -1      2128 1.95184E+01 4.01548E+00-2.70663E-02-1.70368E+00-3.61953E-13-7.77350E-13
 -1      2129 1.96463E+01 3.94543E+00-2.47548E-02-1.95500E+00-4.39605E-13-7.02167E-13
 -1      2130 1.99722E+01 3.24650E+00-1.36994E-02-1.91968E+00-4.83055E-13-6.01415E-13
 -1      2131 1.96978E+01 3.58503E+00-7.07458E-03-1.52191E+00-3.51048E-13-7.49170E-13
 -1      2132 3.95895E+01 5.78928E+00 3.72565E-01 1.76261E+00 6.32328E-13-2.95319E-13
 -1      2133 3.65916E+01 4.73769E+00 1.58493E-01 2.49917E+00 6.13704E-13-2.49745E-13
 -1      2134 4.01645E+01 7.26510E+00 2.72266E-01 7.32737E-02 7.31526E-13-4.58210E-13
 -1      2135 4.02943E+01 6.85393E+00 3.49973E-01 1.26040E+00 6.79234E-13-2.75918E-13
 -1      2136 3.89421E+01 6.26274E+00 2.62565E-01-1.30095E+00 7.85760E-13-7.44571E-13
 -1      2137 4.00097E+01 6.99476E+00 3.06347E-01-2.43243E-01 7.60669E-13-6.25278E-13
 -1      2138 3.48361E+01 3.43648E+00 1.13110E-01-2.86605E+00 7.78905E-13-7.86593E-13
 -1      2139 3.80795E+01 4.73735E+00 3.09426E-01-2.08506E+00 8.21510E-13-7.31082E-13
 -1      2140 2.81751E+01-5.19075E-02-5.30677E-02-4.87281E+00 6.59695E-13-9.23039E-13
 -1      2141 3.28020E+01 1.55823E+00 2.24436E-01-4.42082E+00 6.49689E-13-8.32778E-13
 -1      2142 2.02773E+01-3.47699E+00-2.22684E-01-5.84141E+00 5.59441E-13-8.19678E-13
 -1      2143 2.51785E+01-1.57229E+00 1.08154E-01-6.18215E+00 7.04159E-13-8.64586E-13
 -1      2144 1.12735E+01-5.86686E+00-3.91188E-01-5.77234E+00 6.19393E-13-8.45268E-13
 -1      2145 1.58127E+01-3.89133E+00-8.18115E-02-6.77876E+00 5.83200E-13-1.07342E-12
 -1      2146 4.75559E+00-7.16650E+00-4.17044E-01-4.46332E+00 2.96707E-13-5.21999E-13
 -1      2147 7.87559E+00-5.80117E+00-1.96481E-01-5.73891E+00 5.32574E-13-6.43333E-13
 -1      2148 9.22896E-01-7.14005E+00-3.67662E-01-2.00556E+00-6.82787E-15-8.42826E-13
 -1      2149 2.41299E+00-6.95355E+00-3.29522E-01-3.41426E+00 2.90878E-13-7.14817E-13
 -1      2150 5.54020E+00-5.39010E+00-1.70332E-01-5.09833E+00 3.30291E-14-6.60250E-13
 -1      2151 8.15908E-01-7.03751E+00-3.55168E-01 1.94027E+00-1.06831E-13-7.13596E-13
 -1      2152 1.85345E-01-7.06980E+00-3.64056E-01 2.62297E-01 5.30929E-14-7.32581E-13
 -1      2153 5.58987E+00-5.77421E+00-1.81993E-01 5.29901E+00-2.00506E-13-9.06913E-13
 -1      2154 2.78877E+00-7.07597E+00-3.84669E-01 3.56627E+00 2.74780E-14-7.97973E-13
 -1      2155 1.41855E+01-4.67740E+00-7.39258E-02 6.79396E+00-4.78173E-13-7.14095E-13
 -1      2156 1.01797E+01-6.17127E+00-2.47445E-01 5.98605E+00-2.24931E-13-8.87769E-13
 -1      2157 2.28694E+01-2.64733E+00 4.48052E-02 6.41494E+00-8.22731E-13-1.90792E-13
 -1      2158 1.76761E+01-4.43275E+00-2.51450E-01 6.05732E+00-7.54341E-13-3.51552E-13
 -1      2159 1.86580E+01-5.56146E+00-7.60895E-04 6.44303E+00-9.19265E-14-2.84980E-13
 -1      2160 3.16334E+01 1.22799E+00 2.77315E-01 5.01719E+00-8.48377E-13 7.28306E-14
 -1      2161 2.67344E+01-8.39361E-01-8.19338E-02 4.89124E+00-8.70137E-13-1.11910E-13
 -1      2162 3.77470E+01 4.35830E+00 3.80690E-01 3.06961E+00-7.05686E-13 1.23734E-13
 -1      2163 3.38370E+01 2.99592E+00 1.11985E-01 3.76537E+00-7.78523E-13-4.08562E-14
 -1      2164 4.02346E+01 6.71882E+00 3.24480E-01 6.51953E-01-6.33771E-13 1.78801E-13
 -1      2165 3.91308E+01 5.90937E+00 3.48271E-01 2.07889E+00-6.73628E-13 1.14742E-13
 -1      2166 4.02806E+01 7.03145E+00 3.53364E-01-9.87327E-01-5.38902E-13 3.07254E-13
 -1      2167 3.98450E+01 7.35542E+00 2.76653E-01 1.37087E-01-5.57554E-13 1.22118E-13
 -1      2168 3.72790E+01 5.33894E+00 1.95334E-01-2.44976E+00-7.79377E-14 4.44866E-13
 -1      2169 4.01342E+01 6.20429E+00 3.86904E-01-1.57626E+00-2.63178E-13 3.78864E-13
 -1      2170 3.59944E+01 7.49918E+00 3.33488E-01 4.54981E-02-3.96516E-13 1.91513E-14
 -1      2171 3.14618E+01 1.51712E+00 3.63187E-02-4.13131E+00-4.04676E-14 4.33209E-13
 -1      2172 3.56827E+01 3.22537E+00 2.99322E-01-3.59362E+00-3.58047E-14 4.77507E-13
 -1      2173 2.31287E+01-2.05598E+00-1.57214E-01-5.89628E+00-1.95399E-14 2.37921E-13
 -1      2174 2.84104E+01-1.53724E-01 1.72332E-01-5.97567E+00-8.39329E-14 4.50529E-13
 -1      2175 1.50464E+01-5.35839E+00-2.82511E-01-6.27292E+00 2.78666E-13 2.64677E-13
 -1      2176 1.97691E+01-3.27763E+00 3.80629E-02-6.98273E+00-7.77156E-15 3.12361E-13
 -1      2177 6.84137E+00-7.05814E+00-3.94246E-01-5.30775E+00 2.81830E-13 3.24060E-13
 -1      2178 1.06014E+01-5.47022E+00-1.53743E-01-6.57680E+00 3.05977E-13 5.31061E-13
 -1      2179 1.22128E+00-8.17550E+00-5.25259E-01-2.49727E+00 9.86988E-14-5.08371E-13
 -1      2180 3.23929E+00-6.95382E+00-3.40209E-01-4.11699E+00 2.02449E-13-2.57572E-13
 -1      2181 3.51103E+01 2.80343E+00 2.74267E-01 3.93504E+00 4.88387E-13-1.04805E-13
 -1      2182 3.08834E+01 1.24508E+00 2.89091E-02 4.59029E+00 6.40488E-13-1.18128E-13
 -1      2183 2.34905E+01-4.46051E+00 3.11918E-02 5.60882E+00 1.63758E-14-5.30687E-14
 -1      2184 2.07338E+01 1.10861E+00-2.06989E-02-1.61680E+00-5.35929E-13 2.06266E-13
 -1      2185 3.02637E+01-1.07257E+00 1.75270E-01 3.15061E+00 3.46487E-13-3.27682E-13
 -1      2186 3.43685E+01 3.26341E+00 2.54805E-01 9.01505E-01 5.34323E-13-3.23297E-13
 -1      2187 2.06246E+01 1.33049E+00-1.85064E-02-1.67902E+00-5.69459E-13-6.40547E-14
 -1      2188 7.61586E+00-5.47733E+00-1.09412E-01 5.92274E+00 1.40443E-14 4.70513E-13
 -1      2189 2.39785E+00-5.00104E+00-1.61716E-01 2.37322E+00 1.72667E-13 2.40086E-13
 -1      2190 2.02063E+01 5.69457E-01 4.14721E-03-6.90406E-01 3.21080E-14-3.20248E-13
 -1      2191 1.51667E+01-5.96352E+00-6.94309E-02 6.90734E+00-1.21292E-13 5.37285E-13
 -1      2192 1.83470E+00-5.66659E+00-2.66751E-01-2.23460E+00 1.11799E-13-3.89799E-13
 -1      2193 6.90601E+00-5.87027E+00-1.52246E-01-5.79035E+00 1.85574E-13 1.19821E-13
 -1      2194 1.54664E+01-5.92719E+00-4.52371E-02-6.95409E+00 2.08000E-13 4.51063E-13
 -1      2195 2.36915E+01-4.37644E+00 3.97157E-02-5.51450E+00 1.16962E-13 3.17302E-13
 -1      2196 3.47094E+01 3.96646E+00 2.61832E-01-6.35054E-01 3.13916E-14 2.04781E-13
 -1      2197 3.65688E+01 7.73904E+00 3.02103E-01-8.52022E-02-6.82565E-13-1.85268E-13
 -1      2198 3.57465E+01 5.22822E+00 3.37106E-01 3.29901E-01-7.98861E-13 3.22520E-14
 -1      2199 2.62561E+01-3.34657E+00 6.16853E-02 4.36206E+00-5.34961E-13 2.36977E-13
 -1      2200 1.01164E+01-5.48274E+00-4.87186E-02 6.42145E+00 2.14828E-13-8.09963E-13
 -1      2201 1.79747E+00-4.96292E+00-1.75637E-01-1.15373E+00 4.71845E-16-8.54317E-13
 -1      2202 1.19471E+01-5.85454E+00-1.26437E-01-6.59198E+00 2.21601E-13-7.16011E-13
 -1      2203 2.05172E+01-5.01573E+00 4.46591E-03-6.07962E+00 1.73972E-13-5.67657E-13
 -1      2204 2.80111E+01-2.53017E+00 1.19063E-01-3.69993E+00 2.62762E-13-4.69624E-13
 -1      2205 3.30837E+01 1.62958E+00 2.24976E-01-1.32706E+00 4.77889E-13-3.98404E-13
 -1      2206 3.55101E+01 5.75421E+00 2.88264E-01 2.60837E-01 7.46792E-13-5.90805E-13
 -1      2207 3.59973E+01 6.97627E+00 3.23748E-01-1.30144E-01 7.16649E-13-4.39010E-13
 -1      2208 3.64036E+01 7.90980E+00 3.09088E-01 2.41756E-01 8.42104E-13-5.33143E-13
 -1      2209 3.32516E+00-4.82138E+00-1.22616E-01 3.51310E+00 1.81077E-13-7.65776E-13
 -1      2210 3.24020E+01 1.02986E+00 2.00382E-01 1.87457E+00-7.29883E-13 2.64122E-13
 -1      2211 3.04687E+01-7.34585E-01 1.77553E-01-3.09421E+00 5.15421E-14 2.82330E-13
 -1      2212 2.01455E+01 5.06319E-01 3.73136E-03 6.79180E-01 4.36078E-13 2.66867E-13
 -1      2213 2.04136E+01 6.99869E-01 2.07929E-02 9.70729E-01 4.96140E-13 3.41571E-13
 -1      2214 1.95621E+01 3.51568E+00-1.10847E-02-5.92131E-01-6.92888E-14-7.98278E-13
 -1      2215 1.95974E+01 3.46985E+00-1.04309E-02-7.76616E-01-1.35526E-13-8.08923E-13
 -1      2216 1.96436E+01 3.38190E+00-1.26420E-02-9.41153E-01-1.79034E-13-7.96004E-13
 -1      2217 1.97049E+01 3.30085E+00-1.25070E-02-1.13057E+00-2.58318E-13-7.63733E-13
 -1      2218 1.97887E+01 3.03289E+00 3.29850E-04-7.93254E-01-1.48491E-13-7.44634E-13
 -1      2219 1.95152E+01 3.59810E+00-9.62057E-03 9.95575E-02 1.50699E-13-7.71298E-13
 -1      2220 1.95145E+01 3.59890E+00-9.63348E-03-8.01108E-02 9.27249E-14-7.83202E-13
 -1      2221 1.95411E+01 3.55867E+00-9.72500E-03 4.46005E-01 2.49175E-13-7.61162E-13
 -1      2222 1.95238E+01 3.58124E+00-1.01457E-02 2.64979E-01 1.91605E-13-7.72530E-13
 -1      2223 1.96814E+01 3.22075E+00-9.02976E-04 1.69796E-01 1.58602E-13-7.31478E-13
 -1      2224 1.96025E+01 3.46216E+00-1.06146E-02 7.90379E-01 3.50420E-13-7.01888E-13
 -1      2225 1.95665E+01 3.50916E+00-1.12104E-02 6.08761E-01 2.94185E-13-7.40477E-13
 -1      2226 1.97180E+01 3.15720E+00-5.01656E-04 4.88650E-01 2.60876E-13-7.06986E-13
 -1      2227 1.97125E+01 3.28850E+00-1.29559E-02 1.14407E+00 4.77120E-13-5.53599E-13
 -1      2228 1.96502E+01 3.37180E+00-1.28757E-02 9.54654E-01 4.11160E-13-6.31111E-13
 -1      2229 1.97945E+01 3.02359E+00 2.70317E-04 8.04746E-01 3.71118E-13-6.11510E-13
 -1      2230 1.98909E+01 3.00304E+00-1.81707E-02 1.49133E+00 5.81022E-13-4.31929E-13
 -1      2231 1.97918E+01 3.14428E+00-1.51760E-02 1.30084E+00 5.15329E-13-5.02294E-13
 -1      2232 1.99230E+01 2.79857E+00 1.96054E-03 1.11132E+00 4.72088E-13-4.80521E-13
 -1      2233 2.01684E+01 2.54362E+00-2.84056E-02 1.79577E+00 6.59156E-13-2.17677E-13
 -1      2234 2.00176E+01 2.78293E+00-1.70898E-02 1.62126E+00 6.08568E-13-3.40533E-13
 -1      2235 2.01167E+01 2.44805E+00 5.83951E-03 1.37725E+00 5.64365E-13-3.38187E-13
 -1      2236 1.98679E+01 2.68103E-01 4.71727E-03 2.86753E-01 3.30684E-13 1.88400E-13
 -1      2237 2.00289E+01 3.67865E-01 2.01658E-02 4.43859E-01 3.84154E-13 2.47177E-13
 -1      2238 2.02087E+01 6.34473E-01-2.22204E-03 7.06290E-01 4.52164E-13 6.58826E-14
 -1      2239 2.03967E+01 8.56849E-01 1.29082E-02-1.00235E+00-4.50776E-13-1.88867E-13
 -1      2240 2.01853E+01 6.25682E-01-5.52387E-03-6.88824E-01-3.88918E-13-2.07695E-13
 -1      2241 3.05310E+01-1.24991E+00-1.07057E-01 1.39538E+00 1.69052E-13-3.18967E-13
 -1      2242 2.83748E+01-2.96908E+00-3.29326E-02 2.43726E+00 1.35517E-13-4.64406E-13
 -1      2243 2.01276E+01 4.70141E-01 1.78925E-02-4.80828E-01-3.41123E-13-1.73645E-13
 -1      2244 1.99804E+01 3.47078E-01 4.76895E-04-3.05474E-01-2.85833E-13-2.18758E-13
 -1      2245 2.02375E+01 7.25356E-01-9.52167E-03-6.92078E-01-3.79575E-13-3.03863E-13
 -1      2246 1.99182E+01 2.59325E-01 1.09946E-02-1.67606E-01-2.63566E-13-2.11032E-13
 -1      2247 1.98387E+01 1.87774E-01 7.41512E-04-7.04874E-02-2.32954E-13-2.44340E-13
 -1      2248 2.00767E+01 4.17943E-01-3.74661E-03-3.11037E-01-2.99363E-13-2.86318E-13
 -1      2249 1.97942E+01 1.38335E-01 6.41281E-03 1.14374E-02-2.14401E-13-2.35028E-13
 -1      2250 1.97589E+01 9.61336E-02 7.40345E-04 6.47098E-02-1.88559E-13-2.54734E-13
 -1      2251 1.99578E+01 2.26924E-01-3.60277E-03-7.33369E-02-2.39780E-13-2.77939E-13
 -1      2252 1.97330E+01 6.63888E-02 3.59506E-03 1.10501E-01-1.48927E-13-2.44699E-13
 -1      2253 1.97256E+01 4.10482E-02 6.43593E-04 1.37159E-01-1.37335E-13-2.50534E-13
 -1      2254 1.98819E+01 1.14898E-01-2.92908E-03 6.74398E-02-1.92063E-13-2.64863E-13
 -1      2255 1.97140E+01 2.30215E-02 1.86605E-03 1.59645E-01-1.45139E-13-2.36174E-13
 -1      2256 1.97232E+01 8.07892E-03 5.37776E-04 1.70061E-01-1.17859E-13-2.27006E-13
 -1      2257 1.98424E+01 4.72614E-02-2.14140E-03 1.44018E-01-1.45349E-13-2.57403E-13
 -1      2258 1.97216E+01-2.48587E-03 8.04717E-04 1.77967E-01-1.16244E-13-2.51950E-13
 -1      2259 1.97401E+01-1.07045E-02 4.48015E-04 1.78741E-01-1.29269E-13-2.78756E-13
 -1      2260 1.98288E+01 6.97612E-03-1.47042E-03 1.79464E-01-1.49848E-13-2.49889E-13
 -1      2261 1.97448E+01-1.63133E-02 1.57668E-04 1.78003E-01-1.70010E-13-2.80855E-13
 -1      2262 1.97678E+01-2.00368E-02 3.88910E-04 1.73501E-01-1.88186E-13-2.76764E-13
 -1      2263 1.98322E+01-1.56400E-02-9.68425E-04 1.89508E-01-1.52468E-13-2.75765E-13
 -1      2264 1.97763E+01-2.22560E-02-2.21660E-04 1.68221E-01-1.77085E-13-2.61814E-13
 -1      2265 1.98011E+01-2.28960E-02 3.68581E-04 1.61418E-01-1.28840E-13-3.00543E-13
 -1      2266 1.98462E+01-2.64338E-02-6.21122E-04 1.84969E-01-1.88832E-13-2.92861E-13
 -1      2267 1.98118E+01-2.27369E-02-4.24483E-04 1.54476E-01-9.76918E-14-2.90998E-13
 -1      2268 1.98368E+01-2.11990E-02 3.90659E-04 1.47456E-01-5.05884E-14-3.00277E-13
 -1      2269 1.98666E+01-2.90976E-02-3.98459E-04 1.73395E-01-1.24256E-13-2.36286E-13
 -1      2270 1.98488E+01-1.93138E-02-5.11353E-04 1.40916E-01-2.09382E-14-3.00815E-13
 -1      2271 1.98735E+01-1.61653E-02 4.57214E-04 1.35186E-01 1.04151E-14-2.75385E-13
 -1      2272 1.98905E+01-2.60026E-02-2.72059E-04 1.60146E-01-5.60409E-14-1.81230E-13
 -1      2273 1.98864E+01-1.29573E-02-5.23841E-04 1.30583E-01 1.97793E-15-3.22940E-13
 -1      2274 1.99110E+01-8.52673E-03 5.70487E-04 1.27288E-01-4.69405E-14-3.46533E-13
 -1      2275 1.99166E+01-1.86446E-02-2.19133E-04 1.49128E-01-7.06560E-15-2.61567E-13
 -1      2276 1.99248E+01-4.22107E-03-4.90833E-04 1.25827E-01-1.38581E-13-3.61424E-13
 -1      2277 1.99501E+01 1.33444E-03 7.33367E-04 1.25909E-01-1.28466E-13-3.72329E-13
 -1      2278 1.99446E+01-7.90728E-03-2.22290E-04 1.43313E-01-1.16526E-13-3.57182E-13
 -1      2279 1.99652E+01 6.63979E-03-4.32394E-04 1.28612E-01-1.14337E-13-3.57061E-13
 -1      2280 1.99924E+01 1.32822E-02 9.49007E-04 1.32911E-01-1.14126E-13-3.57755E-13
 -1      2281 1.99748E+01 5.76217E-03-2.68415E-04 1.45107E-01-1.04508E-13-3.88904E-13
 -1      2282 2.00093E+01 1.95722E-02-3.62315E-04 1.40717E-01-1.53558E-13-3.19617E-13
 -1      2283 2.00400E+01 2.73342E-02 1.21975E-03 1.50040E-01-1.47260E-13-2.98764E-13
 -1      2284 2.00084E+01 2.22165E-02-3.47423E-04 1.56618E-01-1.28856E-13-3.27743E-13
 -1      2285 2.00596E+01 3.46321E-02-2.89760E-04 1.63864E-01-1.20950E-13-3.17242E-13
 -1      2286 2.00957E+01 4.35635E-02 1.54528E-03 1.79019E-01-7.20046E-14-3.11824E-13
 -1      2287 2.00467E+01 4.14822E-02-4.51167E-04 1.79822E-01-1.27128E-13-2.96449E-13
 -1      2288 2.01190E+01 5.18760E-02-2.20166E-04 1.99767E-01-6.47293E-14-3.12704E-13
 -1      2289 2.01625E+01 6.19745E-02 1.91986E-03 2.21544E-01-1.53301E-14-3.49298E-13
 -1      2290 2.00916E+01 6.36205E-02-5.72616E-04 2.16643E-01-9.47311E-14-3.14709E-13
 -1      2291 2.01907E+01 7.12177E-02-1.55368E-04 2.50075E-01 1.63847E-14-3.60316E-13
 -1      2292 2.02442E+01 8.23309E-02 2.32811E-03 2.79176E-01 2.84010E-14-4.05819E-13
 -1      2293 2.01455E+01 8.85472E-02-7.05379E-04 2.68929E-01-5.38019E-14-3.01418E-13
 -1      2294 2.02786E+01 9.22225E-02-9.26688E-05 3.16191E-01 6.67092E-14-3.92436E-13
 -1      2295 2.03444E+01 1.03902E-01 2.73902E-03 3.53070E-01 9.78172E-14-4.11302E-13
 -1      2296 2.02109E+01 1.15782E-01-8.44245E-04 3.38299E-01 1.05042E-14-3.78379E-13
 -1      2297 2.03865E+01 1.13800E-01-2.23241E-05 3.98908E-01 1.32025E-13-4.14043E-13
 -1      2298 2.04671E+01 1.25082E-01 3.09744E-03 4.43491E-01 9.19377E-14-3.58848E-13
 -1      2299 2.02905E+01 1.44075E-01-9.87386E-04 4.25820E-01 1.23964E-13-4.15789E-13
 -1      2300 2.05186E+01 1.33744E-01 7.72068E-05 4.97788E-01 5.04702E-14-3.32027E-13
 -1      2301 2.06162E+01 1.42833E-01 3.31307E-03 5.49024E-01 1.32452E-13-2.90477E-13
 -1      2302 2.03874E+01 1.70861E-01-1.14116E-03 5.31447E-01 9.08644E-14-3.81832E-13
 -1      2303 2.06794E+01 1.48078E-01 2.46812E-04 6.10176E-01 1.05774E-13-3.53939E-13
 -1      2304 2.07955E+01 1.51904E-01 3.24757E-03 6.65354E-01 8.64898E-14-3.87284E-13
 -1      2305 2.05052E+01 1.91462E-01-1.32881E-03 6.53141E-01 4.98735E-14-3.92773E-13
 -1      2306 2.08733E+01 1.50171E-01 5.56662E-04 7.29729E-01 3.47545E-14-4.33379E-13
 -1      2307 2.10085E+01 1.43874E-01 2.70273E-03 7.83511E-01 4.62692E-14-3.98905E-13
 -1      2308 2.06484E+01 1.98026E-01-1.60345E-03 7.85554E-01 1.36174E-14-4.66012E-13
 -1      2309 2.11051E+01 1.29757E-01 1.11500E-03 8.44344E-01 6.11534E-14-4.75243E-13
 -1      2310 2.12581E+01 1.06242E-01 1.41670E-03 8.87532E-01 5.45153E-14-4.38110E-13
 -1      2311 2.08227E+01 1.78292E-01-2.06224E-03 9.18167E-01-3.37485E-16-5.03924E-13
 -1      2312 2.13799E+01 7.22857E-02 2.06293E-03 9.33497E-01 9.51449E-14-4.28733E-13
 -1      2313 2.15474E+01 2.23427E-02-9.17473E-04 9.51746E-01 8.32034E-14-3.14761E-13
 -1      2314 2.10370E+01 1.14640E-01-2.85004E-03 1.03283E+00 7.92859E-14-6.33266E-13
 -1      2315 2.17035E+01-4.02440E-02 3.52574E-03 9.65352E-01 2.83614E-14-3.61270E-13
 -1      2316 2.18785E+01-1.26183E-01-4.57399E-03 9.38460E-01 1.92772E-14-3.48828E-13
 -1      2317 2.13039E+01-1.53469E-02-4.12112E-03 1.10079E+00 6.10943E-14-5.36383E-13
 -1      2318 2.20797E+01-2.24528E-01 5.47048E-03 8.94903E-01 7.04623E-14-2.85530E-13
 -1      2319 2.22506E+01-3.51066E-01-9.56685E-03 7.98121E-01 9.50416E-14-3.15278E-13
 -1      2320 2.16408E+01-2.34120E-01-5.88582E-03 1.07992E+00 1.27406E-13-4.45969E-13
 -1      2321 2.25052E+01-4.83283E-01 7.39847E-03 6.66410E-01 3.03815E-14-2.88833E-13
 -1      2322 2.26530E+01-6.38979E-01-1.52532E-02 4.76524E-01-6.20263E-14-2.82802E-13
 -1      2323 2.20662E+01-5.50450E-01-7.64757E-03 9.14021E-01 4.77503E-14-3.90027E-13
 -1      2324 2.29552E+01-7.81108E-01 7.73462E-03 2.26802E-01-1.20371E-13-2.04847E-13
 -1      2325 2.30522E+01-9.21103E-01-1.94350E-02-6.35807E-02-7.17915E-14-7.29607E-14
 -1      2326 2.25871E+01-9.31745E-01-8.04586E-03 5.39641E-01 2.06449E-14-2.03943E-13
 -1      2327 2.33608E+01-1.01076E+00 3.92122E-03-4.38649E-01-7.98758E-14-7.40740E-14
 -1      2328 2.33734E+01-1.04309E+00-1.71948E-02-7.95842E-01-9.67195E-14 3.63557E-14
 -1      2329 2.31708E+01-1.26225E+00-4.56979E-03-8.90037E-02-1.05724E-13-4.59241E-14
 -1      2330 2.35938E+01-9.78213E-01-6.40481E-03-1.23601E+00-9.86542E-14-2.35745E-14
 -1      2331 2.34982E+01-7.92076E-01-5.44904E-03-1.55534E+00-1.02354E-13-1.59179E-13
 -1      2332 2.37051E+01-1.31111E+00 5.55849E-03-9.36268E-01-1.61901E-13 1.01600E-14
 -1      2333 2.35154E+01-4.88059E-01-2.45569E-02-1.89687E+00-9.32933E-14-1.04736E-13
 -1      2334 2.33267E+01-3.58281E-02 1.27247E-02-2.01287E+00-1.48980E-13-7.48113E-14
 -1      2335 2.39970E+01-8.18142E-01 1.42243E-02-1.78856E+00-1.12941E-13-7.49427E-14
 -1      2336 2.31046E+01 4.76523E-01-3.60008E-02-2.00136E+00-2.33293E-13 7.35479E-14
 -1      2337 2.28986E+01 1.02512E+00 2.23870E-02-1.75864E+00-2.33763E-13 3.56512E-14
 -1      2338 2.38757E+01 2.93302E-01 5.61634E-03-2.20425E+00-1.15991E-13 1.44168E-13
 -1      2339 2.26210E+01 1.47869E+00-2.70469E-02-1.26427E+00-3.03651E-13 8.72865E-14
 -1      2340 2.25041E+01 1.78171E+00 7.86505E-03-6.96324E-01-3.65203E-13 8.86219E-14
 -1      2341 2.34573E+01 1.62117E+00-1.35615E-02-1.71903E+00-2.47895E-13 2.06067E-13
 -1      2342 2.24482E+01 1.84720E+00-2.43684E-04 8.31631E-02-2.57107E-13 1.14383E-13
 -1      2343 2.24852E+01 1.66895E+00-2.12916E-02 6.98179E-01-1.32628E-13 1.58259E-13
 -1      2344 2.31560E+01 2.33084E+00-3.23938E-02-3.51440E-01-2.15524E-13 2.60146E-13
 -1      2345 2.26984E+01 1.29247E+00 2.00970E-02 1.30999E+00-2.58646E-13 3.52912E-14
 -1      2346 2.28509E+01 7.69695E-01-3.75018E-02 1.65475E+00-2.78487E-13-1.35653E-13
 -1      2347 2.32943E+01 1.90100E+00-2.56745E-02 1.14977E+00-2.62717E-13 2.31631E-13
 -1      2348 2.30918E+01 2.35345E-01 1.77546E-02 1.79370E+00-1.46286E-13-2.77134E-13
 -1      2349 2.32536E+01-2.76713E-01-2.94851E-02 1.76221E+00-1.82215E-13-2.15893E-13
 -1      2350 2.36864E+01 6.58502E-01 1.44156E-03 1.91547E+00-2.60486E-13-1.37035E-13
 -1      2351 2.32869E+01-6.59602E-01 2.99201E-04 1.48494E+00-1.59261E-13-3.54335E-14
 -1      2352 2.33682E+01-9.29068E-01-1.21223E-02 1.19252E+00 4.20740E-14 5.72190E-14
 -1      2353 2.38726E+01-5.93302E-01 1.49194E-02 1.70035E+00-1.17972E-13 1.14052E-13
 -1      2354 2.31708E+01-1.05850E+00-1.44285E-02 7.43007E-01 7.87890E-14 5.32825E-14
 -1      2355 2.31392E+01-1.07849E+00 9.22540E-04 3.69009E-01 2.37585E-13 7.25488E-14
 -1      2356 2.36412E+01-1.28671E+00 8.37164E-03 8.93262E-01 1.29438E-13 3.14478E-13
 -1      2357 2.28184E+01-1.01926E+00-1.90513E-02-4.93552E-02 1.32604E-13 7.80506E-15
 -1      2358 2.26917E+01-8.94733E-01 7.00037E-03-3.76429E-01 2.57273E-13-1.40981E-14
 -1      2359 2.31028E+01-1.36664E+00-1.64024E-03-1.76663E-02 1.43529E-13 1.74090E-13
 -1      2360 2.23547E+01-7.52080E-01-1.63754E-02-6.73969E-01 4.77581E-13-8.73722E-14
 -1      2361 2.21673E+01-5.83008E-01 8.02461E-03-8.98967E-01 5.62864E-13-1.27006E-13
 -1      2362 2.24644E+01-1.07701E+00-7.23854E-03-7.43603E-01 2.73447E-13 8.36175E-14
 -1      2363 2.18688E+01-4.28183E-01-1.11679E-02-1.06382E+00 4.62260E-13-1.63199E-13
 -1      2364 2.16540E+01-2.68684E-01 7.32412E-03-1.17887E+00 5.37799E-13-1.02513E-13
 -1      2365 2.18646E+01-6.63548E-01-8.24760E-03-1.20080E+00 5.14429E-13 9.25573E-14
 -1      2366 2.14077E+01-1.32294E-01-6.11986E-03-1.23030E+00 5.93955E-13-2.88777E-13
 -1      2367 2.11901E+01 1.72570E-03 6.58489E-03-1.24821E+00 2.97415E-13-8.88333E-14
 -1      2368 2.13560E+01-2.64462E-01-6.66404E-03-1.40653E+00 4.55475E-13 6.20421E-15
 -1      2369 2.09893E+01 1.16500E-01-2.30628E-03-1.21002E+00-1.21743E-13-6.70812E-14
 -1      2370 2.07876E+01 2.25071E-01 5.41586E-03-1.14602E+00-2.21147E-13-1.21971E-13
 -1      2371 2.09403E+01 7.47638E-02-4.29006E-03-1.40769E+00 1.76069E-13-1.24962E-13
 -1      2372 1.96197E+01 7.25553E-02 2.07383E-03-6.45922E-02 1.40599E-13 4.24378E-14
 -1      2373 1.96473E+01 1.04212E-01 6.91083E-03-1.84510E-02 1.88920E-13 9.07228E-14
 -1      2374 1.95959E+01 3.09369E-02 1.35494E-03-1.30446E-01 1.04848E-13-3.58579E-14
 -1      2375 1.95930E+01 4.97229E-02 3.68922E-03-1.07845E-01 1.13314E-13 2.46819E-16
 -1      2376 1.97654E+01 8.99179E-02-3.18989E-03-6.98925E-02 1.76056E-13-1.04982E-13
 -1      2377 1.96080E+01 6.25651E-03 9.04783E-04-1.59378E-01 1.58476E-13-3.64018E-14
 -1      2378 1.95880E+01 1.73037E-02 1.82884E-03-1.50893E-01 1.16575E-13-4.83510E-14
 -1      2379 1.97313E+01 3.63137E-02-2.30590E-03-1.42599E-01 1.36536E-13-1.29668E-13
 -1      2380 1.96408E+01-7.80544E-03 6.09787E-04-1.66028E-01 1.40094E-13-8.17547E-15
 -1      2381 1.96121E+01-1.68218E-03 7.36739E-04-1.65854E-01 1.63717E-13-5.07266E-15
 -1      2382 1.97283E+01 4.75935E-03-1.54872E-03-1.75182E-01 1.42676E-13-1.25481E-13
 -1      2383 1.96840E+01-1.48942E-02 4.22681E-04-1.59964E-01 5.97170E-14 1.64257E-14
 -1      2384 1.96520E+01-1.20289E-02 9.36876E-05-1.64332E-01 1.09972E-13 1.30817E-14
 -1      2385 1.97445E+01-1.28985E-02-9.88976E-04-1.83332E-01 1.02579E-13-9.12334E-14
 -1      2386 1.97314E+01-1.72549E-02 3.22243E-04-1.47635E-01 7.53028E-14-5.09404E-16
 -1      2387 1.96990E+01-1.66081E-02-2.68434E-04-1.54006E-01 8.41209E-14 3.74458E-14
 -1      2388 1.97716E+01-2.14092E-02-6.07841E-04-1.77548E-01 7.70362E-14-8.70617E-14
 -1      2389 1.97796E+01-1.63165E-02 2.95690E-04-1.33501E-01 7.94225E-14-7.57560E-14
 -1      2390 1.97483E+01-1.72261E-02-4.47155E-04-1.40111E-01 1.06751E-13-2.53367E-14
 -1      2391 1.98042E+01-2.37057E-02-3.68113E-04-1.65015E-01 1.22155E-13-9.00300E-14
 -1      2392 1.98270E+01-1.29831E-02 3.34860E-04-1.20737E-01 1.23729E-13-1.19043E-13
 -1      2393 1.97972E+01-1.50359E-02-5.04338E-04-1.26318E-01 8.71471E-14-7.31310E-14
 -1      2394 1.98393E+01-2.16463E-02-2.36136E-04-1.50766E-01 8.79384E-14-1.27683E-13
 -1      2395 1.98736E+01-7.79486E-03 4.35498E-04-1.11702E-01 1.23754E-13-1.40827E-13
 -1      2396 1.98449E+01-1.07526E-02-4.81153E-04-1.15291E-01 1.34467E-13-1.03094E-13
 -1      2397 1.98755E+01-1.63941E-02-1.85999E-04-1.38428E-01 1.29667E-13-1.86384E-13
 -1      2398 1.99206E+01-1.02889E-03 5.96733E-04-1.08279E-01 1.20589E-13-1.28143E-13
 -1      2399 1.98920E+01-4.78067E-03-4.05351E-04-1.09083E-01 1.41550E-13-1.23037E-13
 -1      2400 1.99124E+01-8.62984E-03-1.98869E-04-1.30738E-01 1.17815E-13-1.67199E-13
 -1      2401 1.99701E+01 7.22988E-03 8.20292E-04-1.12108E-01 6.67275E-14-9.79437E-14
 -1      2402 1.99401E+01 2.70209E-03-2.95556E-04-1.09407E-01 8.61220E-14-1.16463E-13
 -1      2403 1.99509E+01 1.31378E-03-2.61176E-04-1.29912E-01 1.04960E-13-1.34533E-13
 -1      2404 2.00248E+01 1.70299E-02 1.10926E-03-1.24758E-01 1.21505E-13-1.31154E-13
 -1      2405 1.99916E+01 1.16810E-02-1.64198E-04-1.17837E-01 1.20316E-13-1.10628E-13
 -1      2406 1.99925E+01 1.33542E-02-3.63101E-04-1.37902E-01 8.04706E-14-1.21142E-13
 -1      2407 2.00884E+01 2.84939E-02 1.46625E-03-1.47836E-01 1.33664E-13-1.68297E-13
 -1      2408 2.00496E+01 2.22473E-02-1.95979E-05-1.35946E-01 1.52933E-13-1.30044E-13
 -1      2409 2.00393E+01 2.75756E-02-4.97210E-04-1.56580E-01 1.50319E-13-9.07272E-14
 -1      2410 2.01649E+01 4.17455E-02 1.89065E-03-1.83024E-01-6.35601E-14-7.48277E-14
 -1      2411 2.01178E+01 3.45334E-02 1.32420E-04-1.65370E-01 2.88199E-14-1.12609E-13
 -1      2412 2.00940E+01 4.41401E-02-6.57165E-04-1.87846E-01 2.66363E-14-6.37661E-14
 -1      2413 2.02591E+01 5.68063E-02 2.37433E-03-2.32027E-01-4.41837E-14-1.14033E-13
 -1      2414 2.02006E+01 4.86289E-02 2.87265E-04-2.07810E-01-6.42617E-14-8.35341E-14
 -1      2415 2.01598E+01 6.31758E-02-8.36683E-04-2.33638E-01-6.68755E-14-2.35997E-14
 -1      2416 2.03760E+01 7.34362E-02 2.89494E-03-2.96404E-01 4.65379E-14-1.74325E-13
 -1      2417 2.03029E+01 6.44535E-02 4.40703E-04-2.64917E-01 6.11185E-14-1.06163E-13
 -1      2418 2.02402E+01 8.46124E-02-1.02901E-03-2.95850E-01-8.96161E-15-5.93465E-14
 -1      2419 2.05212E+01 9.08803E-02 3.40581E-03-3.77202E-01 9.67715E-14-2.47047E-13
 -1      2420 2.04300E+01 8.15596E-02 5.88617E-04-3.38038E-01 3.09869E-14-2.42327E-13
 -1      2421 2.03390E+01 1.07929E-01-1.22740E-03-3.76087E-01 7.81457E-14-1.65801E-13
 -1      2422 2.06999E+01 1.07467E-01 3.82135E-03-4.74306E-01 1.27174E-13-1.33935E-13
 -1      2423 2.05874E+01 9.88160E-02 7.27931E-04-4.27718E-01 1.69117E-13-1.83742E-13
 -1      2424 2.04603E+01 1.31756E-01-1.42745E-03-4.75189E-01 5.74440E-14-1.56474E-13
 -1      2425 2.09172E+01 1.19998E-01 3.99792E-03-5.85362E-01-8.54451E-14-1.40342E-13
 -1      2426 2.07806E+01 1.13914E-01 8.59607E-04-5.32860E-01 1.95440E-14-1.42726E-13
 -1      2427 2.06084E+01 1.53245E-01-1.63261E-03-5.92438E-01 7.19354E-14-5.19848E-14
 -1      2428 2.11765E+01 1.22876E-01 3.71285E-03-7.04081E-01-6.67653E-14-1.23492E-13
 -1      2429 2.10147E+01 1.22637E-01 9.94899E-04-6.49362E-01-1.52197E-13-1.26105E-13
 -1      2430 2.07877E+01 1.67154E-01-1.86406E-03-7.24262E-01-1.09921E-13-9.02176E-14
 -1      2431 2.14796E+01 1.07072E-01 2.65123E-03-8.17774E-01 3.34515E-14-1.41350E-13
 -1      2432 2.12938E+01 1.17883E-01 1.16533E-03-7.68052E-01 3.04883E-14-8.99411E-14
 -1      2433 2.10026E+01 1.64588E-01-2.17413E-03-8.62294E-01-3.64079E-14-1.33745E-13
 -1      2434 2.18251E+01 5.93122E-02 4.22005E-04-9.04138E-01-1.35500E-13-7.37326E-14
 -1      2435 2.16201E+01 8.86517E-02 1.43317E-03-8.71782E-01-5.73914E-14-1.49495E-13
 -1      2436 2.12587E+01 1.31650E-01-2.65648E-03-9.90613E-01-3.19888E-14-8.26911E-14
 -1      2437 2.22069E+01-3.72879E-02-3.35266E-03-9.27896E-01-9.27182E-14-1.05415E-13
 -1      2438 2.19933E+01 1.96965E-02 1.88724E-03-9.31901E-01-1.17306E-13-1.13405E-13
 -1      2439 2.15624E+01 4.87758E-02-3.43060E-03-1.08224E+00-1.13473E-13-1.11583E-13
 -1      2440 2.26124E+01-1.98527E-01-8.81162E-03-8.39229E-01-9.09396E-14 1.23212E-13
 -1      2441 2.24085E+01-1.06353E-01 2.58309E-03-9.05140E-01-1.34875E-13 1.11647E-14
 -1      2442 2.19224E+01-1.07157E-01-4.54963E-03-1.09554E+00-1.84132E-13-1.27847E-13
 -1      2443 2.30180E+01-4.25988E-01-1.53954E-02-5.78549E-01 1.05397E-13 2.60624E-13
 -1      2444 2.28513E+01-3.00903E-01 3.32325E-03-7.34014E-01 4.85757E-14 1.47319E-13
 -1      2445 2.23470E+01-3.53719E-01-5.76553E-03-9.72586E-01-7.87272E-14-5.48354E-14
 -1      2446 2.33815E+01-6.81424E-01-2.10686E-02-9.58868E-02 1.64667E-13 2.13304E-13
 -1      2447 2.32885E+01-5.50491E-01 3.28150E-03-3.57447E-01 2.03022E-13 3.44011E-13
 -1      2448 2.28367E+01-6.80777E-01-6.14742E-03-6.44806E-01 7.41928E-14 8.76110E-14
 -1      2449 2.36316E+01-8.54420E-01-2.12932E-02 6.04477E-01 1.00925E-13-1.20101E-14
 -1      2450 2.36521E+01-7.85877E-01 6.58078E-04 2.56610E-01 1.54210E-13 1.73355E-13
 -1      2451 2.33626E+01-1.01162E+00-3.74752E-03-5.64869E-02 1.82916E-13 2.77799E-13
 -1      2452 2.36678E+01-7.60649E-01-1.12160E-02 1.39082E+00-3.05495E-13 5.79398E-16
 -1      2453 2.38280E+01-8.55103E-01-5.79423E-03 1.04560E+00-1.05593E-13 1.75201E-14
 -1      2454 2.38339E+01-1.16470E+00 3.84520E-03 7.76799E-01-4.47565E-14 2.57154E-13
 -1      2455 2.34071E+01-2.39831E-01 7.73105E-03 1.95311E+00-2.52153E-13 1.88426E-14
 -1      2456 2.36858E+01-5.64398E-01-1.76251E-02 1.77313E+00-3.36909E-13-1.05588E-14
 -1      2457 2.40836E+01-8.84079E-01 1.37489E-02 1.67579E+00-2.52101E-13 2.47800E-13
 -1      2458 2.28921E+01 6.25247E-01 2.12562E-02 1.87703E+00 1.61055E-13 1.60700E-13
 -1      2459 2.32049E+01 1.64717E-01-2.50432E-02 2.03150E+00-1.16661E-13 3.31592E-14
 -1      2460 2.39477E+01-4.15874E-02 5.98271E-03 2.21941E+00-1.67403E-13 3.03051E-13
 -1      2461 2.23925E+01 1.37834E+00 1.31049E-02 9.63102E-01 2.67085E-13 2.50512E-13
 -1      2462 2.25960E+01 1.05683E+00-2.18235E-02 1.47228E+00 3.76752E-13 1.93200E-13
 -1      2463 2.34927E+01 1.15083E+00-9.29791E-03 1.93265E+00 1.44649E-13 2.26992E-13
 -1      2464 2.22795E+01 1.45640E+00-1.13342E-02-4.27814E-01 2.79290E-14 2.02078E-13
 -1      2465 2.22770E+01 1.52682E+00 9.10067E-05 1.99263E-01 2.17264E-13 2.08044E-13
 -1      2466 2.30921E+01 1.95273E+00-3.40443E-02 6.79325E-01 2.63910E-13 2.32819E-13
 -1      2467 2.26449E+01 7.95121E-01-2.76911E-02-1.53115E+00-4.13766E-14-2.02897E-13
 -1      2468 2.24516E+01 1.19950E+00 1.98782E-02-1.11910E+00-2.24785E-14 8.82714E-15
 -1      2469 2.31369E+01 1.79755E+00-2.65027E-02-9.01394E-01 1.76754E-13 6.09113E-14
 -1      2470 2.31761E+01-1.05916E-01-2.45219E-02-1.81803E+00-1.97164E-13 5.57020E-14
 -1      2471 2.29138E+01 3.37001E-01 1.94377E-02-1.78172E+00-5.59596E-14-1.33725E-13
 -1      2472 2.35427E+01 7.88225E-01-7.12506E-04-1.89066E+00-1.02112E-13-1.28413E-13
 -1      2473 2.34839E+01-7.19105E-01-1.29605E-02-1.35614E+00-1.94075E-13-4.32336E-15
 -1      2474 2.32834E+01-4.65730E-01 6.28855E-04-1.61044E+00-3.02253E-13 3.11843E-14
 -1      2475 2.38635E+01-3.66947E-01 1.33215E-02-1.87254E+00-2.17034E-13-6.53232E-14
 -1      2476 2.34277E+01-8.89338E-01-2.31022E-03-5.49217E-01 1.31336E-14 1.12596E-15
 -1      2477 2.33633E+01-8.56330E-01-1.58803E-02-9.13408E-01-6.68875E-14-9.56787E-15
 -1      2478 2.38065E+01-1.06646E+00 9.43029E-03-1.14274E+00-1.20932E-13-3.15425E-13
 -1      2479 2.30817E+01-7.49458E-01 2.77408E-03 2.29310E-01 1.33740E-13 1.95372E-13
 -1      2480 2.31579E+01-8.48290E-01-2.14265E-02-1.01741E-01 9.31356E-14 6.15147E-14
 -1      2481 2.33992E+01-1.19541E+00 3.56814E-05-2.02816E-01 1.22370E-14-9.32728E-15
 -1      2482 2.25825E+01-4.89223E-01 3.98872E-03 7.93792E-01 2.23648E-13 2.53985E-13
 -1      2483 2.27650E+01-6.27791E-01-1.85646E-02 5.61971E-01 2.03238E-13 2.43585E-13
 -1      2484 2.28230E+01-9.57333E-01-5.78514E-03 5.93394E-01 1.29215E-13 7.17812E-14
 -1      2485 2.20358E+01-2.29439E-01 4.10855E-03 1.10808E+00 2.32230E-13 2.56637E-13
 -1      2486 2.22801E+01-3.57495E-01-1.23694E-02 9.85904E-01 2.28434E-13 3.12850E-13
 -1      2487 2.22263E+01-5.93889E-01-7.06532E-03 1.11698E+00 1.53913E-13 6.94388E-14
 -1      2488 2.15037E+01-1.34408E-02 4.48626E-03 1.20382E+00 6.80068E-14 2.24808E-13
 -1      2489 2.17693E+01-1.17726E-01-6.39504E-03 1.17705E+00 1.23910E-13 3.76078E-13
 -1      2490 2.16793E+01-2.47085E-01-6.23579E-03 1.37154E+00 1.79739E-13 2.13925E-13
 -1      2491 2.10184E+01 1.61823E-01 5.11220E-03 1.12436E+00 6.15191E-14 1.66205E-13
 -1      2492 2.12747E+01 7.73885E-02-1.52879E-03 1.17626E+00 7.24249E-14 1.41980E-13
 -1      2493 2.12034E+01 4.16776E-02-4.76618E-03 1.40540E+00 1.15804E-13 2.27930E-13
 -1      2494 2.05979E+01 3.09065E-01 5.67789E-03 9.07315E-01-5.56252E-14 2.25376E-13
 -1      2495 2.08239E+01 2.37333E-01 1.45661E-03 1.02196E+00 2.81307E-14 1.98804E-13
 -1      2496 2.07941E+01 2.76282E-01-4.05923E-03 1.26578E+00 1.40567E-15 2.61764E-13
 -1      2497 2.04279E+01 3.68317E-01 2.94741E-03 7.34979E-01 2.00120E-14 1.99314E-13
 -1      2498 1.96624E+01 1.80923E+00-9.93727E-03 1.16207E+00 1.79860E-13-7.12408E-14
 -1      2499 1.97832E+01 1.62060E+00 3.52849E-03 1.26162E+00 4.94492E-14-5.28474E-13
 -1      2500 1.94598E+01 2.12529E+00-1.12616E-02 8.20377E-01 3.89766E-13-3.21379E-14
 -1      2501 1.95565E+01 1.98384E+00 2.36251E-04 9.98551E-01 2.44154E-13 1.18160E-13
 -1      2502 1.94872E+01 1.68023E+00 3.89567E-03 1.23219E+00 1.97035E-13 2.49945E-14
 -1      2503 2.01341E+01 1.03329E+00-2.83741E-03 1.30700E+00-1.02864E-13-1.42642E-13
 -1      2504 2.02506E+01 8.20103E-01 5.82280E-03 1.24343E+00-8.11674E-14 6.51952E-15
 -1      2505 1.99043E+01 1.42403E+00-6.19996E-03 1.32492E+00-2.31062E-13-5.08852E-13
 -1      2506 2.00251E+01 1.21873E+00 5.96481E-03 1.33462E+00-2.03410E-13-2.63332E-13
 -1      2507 2.00868E+01 9.60711E-01-3.17297E-03 1.49783E+00-1.13423E-13-2.65579E-13
 -1      2508 1.97919E+01 1.32418E+00 2.51408E-04 1.47164E+00 1.00739E-14-2.67670E-13
 -1      2509 1.93389E+01 2.31356E+00-1.00783E-02 3.42802E-01 1.40653E-13 1.18744E-13
 -1      2510 1.93883E+01 2.24254E+00-4.04887E-03 5.74346E-01 2.75687E-13-1.28390E-13
 -1      2511 1.92468E+01 1.96084E+00 7.69500E-03 7.97454E-01 2.60741E-13-1.37463E-13
 -1      2512 1.93314E+01 2.33325E+00-6.72359E-03-1.91927E-01-1.94345E-13 8.71161E-14
 -1      2513 1.93202E+01 2.34467E+00-8.26965E-03 5.36924E-02-8.54898E-14 2.97452E-13
 -1      2514 1.91243E+01 2.10389E+00 9.85184E-03 2.25518E-01 1.18933E-13-6.53492E-14
 -1      2515 1.94378E+01 2.17883E+00-2.58941E-03-6.87842E-01-1.18442E-13-1.09792E-13
 -1      2516 1.93704E+01 2.27034E+00-1.09044E-02-4.71267E-01-1.36803E-13-7.43377E-14
 -1      2517 1.91515E+01 2.07340E+00 9.29913E-03-3.82888E-01-1.05573E-13 1.01948E-14
 -1      2518 1.96239E+01 1.89021E+00 1.29678E-03-1.05687E+00 6.37026E-14-2.13049E-13
 -1      2519 1.95209E+01 2.04184E+00-1.10654E-02-9.04983E-01-8.65303E-14-2.72613E-13
 -1      2520 1.93178E+01 1.88057E+00 6.54443E-03-9.12279E-01-4.49782E-14-9.79179E-14
 -1      2521 1.98505E+01 1.51424E+00 4.03670E-03-1.26420E+00 2.93766E-13 5.38365E-13
 -1      2522 1.97325E+01 1.70732E+00-8.89223E-03-1.18947E+00 1.69079E-13 1.01029E-13
 -1      2523 1.95764E+01 1.57332E+00 2.58001E-03-1.28260E+00 6.81419E-14 5.18526E-14
 -1      2524 2.00742E+01 1.11482E+00 4.97312E-03-1.29314E+00 9.63364E-14 2.99836E-13
 -1      2525 1.99616E+01 1.32187E+00-5.39832E-03-1.29945E+00 1.33059E-13 5.29179E-13
 -1      2526 1.98728E+01 1.21260E+00-1.07382E-03-1.45654E+00 7.74890E-14 2.31263E-13
 -1      2527 2.02721E+01 7.43643E-01 6.23435E-03-1.16302E+00-2.28033E-13-2.90724E-13
 -1      2528 2.01754E+01 9.41687E-01-8.05456E-04-1.24044E+00-1.03968E-13-1.09301E-13
 -1      2529 2.01593E+01 8.62260E-01-2.10620E-04-1.43404E+00-1.70162E-13-8.17325E-14
 -1      2530 4.96943E+00-2.78603E+00 1.14736E-01 3.10032E+00 1.86753E-13 1.92180E-13
 -1      2531 3.37858E+00-3.09181E+00 7.68358E-02 7.40850E-01 1.88693E-13 9.52016E-14
 -1      2532 1.88274E+01-5.70092E+00 1.78451E-03 6.76641E+00-2.07834E-13 7.06588E-14
 -1      2533 1.49646E+01-5.51740E+00 6.29464E-02 6.82632E+00-2.58987E-13 4.08812E-13
 -1      2534 1.97011E+01 1.43208E-01 3.25243E-03 6.14736E-02 2.20968E-13 1.21607E-13
 -1      2535 1.97799E+01 1.98023E-01 1.23759E-02 1.47639E-01 2.70026E-13 1.66552E-13
 -1      2536 1.98465E+01 1.80837E-01-3.87261E-03 6.70667E-02 2.48169E-13-2.89096E-14
 -1      2537 2.03377E+01 5.15637E-01 5.71867E-04-8.48053E-01-4.75309E-14-3.53885E-13
 -1      2538 3.25074E+00-3.18508E+00 7.60072E-02-1.13539E+00 1.94633E-13-2.65954E-13
 -1      2539 4.31138E+00-3.43226E+00 5.75296E-02-3.37729E+00 1.36446E-13-4.30433E-13
 -1      2540 5.53266E+00-1.65687E+00 1.73492E-01-2.49950E-01 2.57615E-13-1.17462E-13
 -1      2541 1.10233E+01-4.64869E+00 6.46219E-02 6.78222E+00-4.60465E-14 4.13281E-13
 -1      2542 7.92514E+00-3.79108E+00 1.14163E-01 5.48597E+00 3.98848E-14 3.57075E-13
 -1      2543 2.05457E+01 1.95482E+00-1.39062E-02-1.89919E+00-5.63070E-13-2.96405E-13
 -1      2544 2.04119E+01 1.21510E+00-6.11623E-03-1.28783E+00-5.18068E-13-2.38519E-13
 -1      2545 2.03776E+01 1.37447E+00 5.48786E-03-1.23623E+00-4.73310E-13-3.54225E-13
 -1      2546 2.02874E+01 2.38471E+00-5.28464E-03-1.84448E+00-5.47804E-13-4.48168E-13
 -1      2547 6.58938E+00-4.34865E+00 5.83848E-02-5.16076E+00 2.53131E-14-7.03881E-14
 -1      2548 9.96500E+00-4.73695E+00-6.58232E-03-6.69314E+00 1.74860E-14 4.34652E-13
 -1      2549 3.28192E+01 7.54132E+00-1.40052E-01-3.66816E-01-6.66800E-13-1.24197E-13
 -1      2550 3.33172E+01 6.88123E+00-7.10398E-02-7.18489E-01-6.43208E-13-9.24816E-14
 -1      2551 1.35477E+01-4.97904E+00-5.82875E-03 6.95282E+00 3.50886E-13-7.18037E-13
 -1      2552 9.36895E+00-4.21552E+00 1.19958E-01 6.00365E+00 4.61908E-13-8.51264E-13
 -1      2553 1.17870E+01-5.15428E+00 4.07709E-02-6.58287E+00 8.85403E-14-5.61634E-13
 -1      2554 1.55146E+01-5.49994E+00-5.75942E-03-6.92534E+00 1.37834E-13-7.37368E-13
 -1      2555 1.95218E+01 3.58431E+00-1.00908E-02-2.45561E-01 4.77321E-14-7.95691E-13
 -1      2556 1.95377E+01 3.56361E+00-9.66894E-03-4.26460E-01-1.56086E-14-8.04141E-13
 -1      2557 1.97140E+01 3.16295E+00-5.98558E-04-4.73989E-01-3.88930E-14-7.47561E-13
 -1      2558 1.96800E+01 3.22286E+00-9.31756E-04-1.52200E-01 6.11966E-14-7.43352E-13
 -1      2559 3.23574E+01 7.06871E+00-1.32070E-01 6.82304E-01 7.84983E-13-3.22048E-13
 -1      2560 3.25069E+01 7.33821E+00-1.36947E-01 5.03504E-02 7.71050E-13-3.81591E-13
 -1      2561 5.62754E+00-3.28132E+00 3.32690E-02 4.53969E+00 3.40117E-13-6.36824E-13
 -1      2562 3.81821E+00-3.03945E+00 8.61111E-02 2.41172E+00 2.05405E-13-5.35738E-13
 -1      2563 3.28130E+01 6.72371E+00-1.52465E-01-6.01173E-01 6.96665E-13-5.66672E-13
 -1      2564 3.25352E+01 5.59206E+00-1.05097E-01-9.46871E-01 5.77760E-13-5.48811E-13
 -1      2565 3.23561E+01 4.12865E+00-7.84812E-02 1.18488E+00 5.61162E-13-2.14495E-13
 -1      2566 3.27036E+01 5.72306E+00-1.54351E-01 1.17388E+00 7.01161E-13-2.54852E-13
 -1      2567 3.05685E+01-4.92667E-01-5.39033E-02-5.01800E-01 2.35797E-13-3.25517E-13
 -1      2568 3.19237E+01 1.57772E+00-1.41415E-01 4.83149E-01 4.01928E-13-2.90712E-13
 -1      2569 2.65772E+01-4.01594E+00 4.66801E-03-3.13134E+00 9.17044E-14-3.05866E-13
 -1      2570 2.91332E+01-2.55475E+00-8.82013E-02-2.09338E+00 1.38042E-13-3.91270E-13
 -1      2571 1.91799E+01-5.63879E+00 9.82511E-03-6.04730E+00-1.63203E-14-4.95284E-13
 -1      2572 2.30979E+01-5.18081E+00-8.30223E-02-5.26645E+00 9.98090E-14-2.57738E-13
 -1      2573 1.87970E+01-5.51933E+00 8.62970E-02-6.17678E+00-6.80012E-14-3.64566E-13
 -1      2574 6.29809E+00-3.41028E+00 1.06772E-01-4.51509E+00-8.92064E-14-7.46209E-13
 -1      2575 8.74141E+00-3.90486E+00 7.82213E-02-5.94229E+00-1.05194E-14-5.12312E-13
 -1      2576 3.19849E+01 1.16185E+00-9.83301E-02 2.43387E-01-6.84258E-13 2.02727E-13
 -1      2577 3.01858E+01-7.77454E-01-3.34411E-02 1.02713E+00-6.60907E-13 3.44558E-13
 -1      2578 3.17519E+00-2.71205E+00 9.04040E-02 9.61479E-02-6.59195E-15-7.58060E-13
 -1      2579 3.96418E+00-2.90854E+00 7.75025E-02-2.64746E+00-1.02529E-13-7.86926E-13
 -1      2580 7.09101E+00-1.94543E+00 1.74950E-01-3.46369E+00-1.59567E-13-7.49067E-13
 -1      2581 2.12409E+01-5.54710E+00-5.61432E-02 5.91468E+00-2.83107E-14 6.97567E-14
 -1      2582 1.79956E+01-5.54652E+00 8.20721E-02 6.33599E+00 2.24543E-13-2.38285E-13
 -1      2583 2.82555E+01-2.94203E+00-4.17594E-02-2.48701E+00 1.50158E-13 1.70586E-13
 -1      2584 3.04793E+01-1.04191E+00-1.45793E-01-1.10177E+00 1.26447E-13 1.92901E-13
 -1      2585 2.82145E+01-3.11086E+00-7.58954E-02 2.84517E+00-6.02948E-13 3.80834E-13
 -1      2586 2.47428E+01-4.67270E+00 1.18835E-02 4.10258E+00-3.44391E-13 2.33036E-13
 -1      2587 3.30697E+01 5.20929E+00-1.21122E-01-9.28342E-01-6.96665E-13-1.06581E-14
 -1      2588 3.23474E+01 3.48699E+00-7.40627E-02-7.33275E-01-6.74655E-13 1.23179E-13
 -1      2589 3.23411E+01 6.06023E+00-1.06624E-01 8.67873E-01-3.27127E-13-3.47500E-14
 -1      2590 3.21994E+01 6.96703E+00-1.68030E-01 5.02489E-01-6.34048E-13-1.68636E-13
 -1      2591 3.16115E+01 2.00768E+00-6.05680E-02 3.87121E-01-2.79221E-14 1.24345E-13
 -1      2592 3.25801E+01 4.18846E+00-1.51156E-01 7.78401E-01-3.18356E-14 1.02779E-13
 -1      2593 3.03481E+01 4.49960E+00-7.03477E-02 1.49292E+00-1.67644E-13-3.87745E-14
 -1      2594 2.31094E+01-5.34627E+00 3.54312E-02-5.09119E+00 8.46545E-14 1.78371E-13
 -1      2595 2.63202E+01-4.35241E+00-4.82370E-02-4.19156E+00 8.31557E-14 1.30590E-13
 -1      2596 2.76149E+01-4.05727E+00 3.34760E-02-2.20826E+00 1.56999E-13 2.13746E-13
 -1      2597 1.46541E+01-5.52193E+00 8.79400E-02-6.86225E+00 1.58568E-13 5.02924E-13
 -1      2598 1.87187E+01-5.72447E+00-5.14588E-02-6.82111E+00 1.08413E-13 3.68511E-13
 -1      2599 3.24233E+01 3.25396E+00-1.55067E-01-7.50736E-01 5.60607E-13-5.93359E-13
 -1      2600 3.15815E+01 1.12987E+00-5.67167E-02-1.61175E-02 3.92686E-13-4.56579E-13
 -1      2601 2.04881E+01 8.74851E-01-7.32093E-03 1.22788E+00 5.69118E-13 3.95920E-13
 -1      2602 2.08388E+01 1.25688E+00-6.05345E-03 1.72853E+00 6.06622E-13 4.82687E-13
 -1      2603 2.06449E+01 1.71556E+00-1.57921E-02 1.92277E+00 6.60599E-13 2.78392E-13
 -1      2604 2.04472E+01 1.05786E+00-9.39422E-03 1.24283E+00 5.84073E-13 1.50997E-13
 -1      2605 2.59106E+01-4.51164E+00-5.37292E-02 4.41413E+00-7.39409E-14-2.57905E-13
 -1      2606 2.22719E+01-5.50779E+00-1.12361E-03 5.42484E+00-1.09052E-13-7.95752E-14
 -1      2607 3.02931E+01 6.62918E+00-7.87590E-02-4.75991E-01 6.45900E-13-3.87218E-13
 -1      2608 1.99154E+01 2.81648E+00 3.29023E-03-1.10163E+00-2.72661E-13-6.83515E-13
 -1      2609 1.97813E+01 3.15997E+00-1.50000E-02-1.28657E+00-3.00475E-13-7.27182E-13
 -1      2610 1.98752E+01 3.03554E+00-1.82891E-02-1.48280E+00-3.98038E-13-6.90852E-13
 -1      2611 1.99924E+01 3.40016E-01-3.58015E-03 3.06183E-01 3.37335E-13 3.82810E-15
 -1      2612 2.04211E+01 2.11565E+00-1.27772E-02 1.87583E+00 6.52262E-13 2.01818E-14
 -1      2613 2.73873E+01-4.24794E+00 2.35266E-02 2.59600E+00-9.45632E-14-4.97630E-13
 -1      2614 7.36599E+00-2.68517E+00 1.55869E-01-4.25111E+00 1.97203E-14-8.98448E-14
 -1      2615 3.08249E+01 3.87474E+00-5.52727E-02-1.52804E+00 5.06040E-13-6.34576E-13
 -1      2616 3.01655E+01-9.78805E-02-1.83923E-02 5.76185E-01 5.29715E-14 1.24400E-13
 -1      2617 2.04444E+01 4.62264E-01 1.46993E-03 9.77087E-01-7.89751E-14 2.15896E-13
 -1      2618 2.18691E+01-5.65784E+00 7.91504E-02 5.46624E+00-2.97401E-13-1.04944E-13
 -1      2619 2.03924E+01 6.04975E-01 3.47010E-04 1.09531E+00-7.96902E-14 2.26864E-13
 -1      2620 1.03300E+01-2.32353E+00 1.27102E-01 4.96902E+00-8.45296E-14 1.15741E-13
 -1      2621 7.50229E+00-2.64207E+00 1.43334E-01 4.31766E+00 3.15026E-15 2.93127E-13
 -1      2622 7.62264E+00-1.26138E+00 1.56513E-01 2.90906E+00 9.63743E-14-4.28269E-14
 -1      2623 1.48198E+01-4.64658E+00 1.13015E-01 6.59834E+00-2.63123E-13 3.07046E-13
 -1      2624 3.09581E+01 5.72128E+00-4.50655E-02-1.49709E+00-6.20892E-13 5.81479E-14
 -1      2625 2.89870E+01-2.46334E+00 5.40742E-03 9.75875E-01-6.12569E-13 2.95597E-13
 -1      2626 2.04353E+01 1.80784E+00 1.25463E-02 1.56364E+00 6.15700E-13-4.45243E-14
 -1      2627 2.01140E+01 2.62123E+00-1.13127E-02-1.68063E+00-4.78098E-13-5.56647E-13
 -1      2628 2.21458E+01-5.59294E+00 8.09733E-02-5.37406E+00 7.19425E-14 2.42355E-13
 -1      2629 3.03906E+01 6.87613E+00-9.18445E-02 2.35120E-01-5.50004E-13-1.14436E-13
 -1      2630 5.40422E+00-1.59308E+00 1.79674E-01 1.07177E+00 1.27173E-13-5.46924E-13
 -1      2631 3.08867E+01 1.89937E+00-3.15192E-02-1.23887E+00-6.14578E-13 2.69312E-13
 -1      2632 2.53740E+01-4.90757E+00 3.48900E-02-3.58056E+00 4.66294E-15-2.01145E-13
 -1      2633 9.30427E+00-2.95281E+00 1.66743E-01 5.23855E+00 4.55275E-13-7.52509E-13
 -1      2634 2.94505E+01-2.00670E+00 6.20996E-04-1.59367E-01 6.87081E-14-2.48301E-13
 -1      2635 3.07212E+01 2.30647E+00-4.50708E-02 1.65694E+00 3.53606E-13-1.44357E-13
 -1      2636 1.21024E+01-3.95885E+00 1.22098E-01-6.11054E+00-7.48568E-14-6.30024E-13
 -1      2637 1.68854E+01-4.96198E+00 1.25720E-01 6.33770E+00 3.54883E-13-4.03330E-13
 -1      2638 1.38092E+01-4.60677E+00 1.30039E-01-6.67024E+00-3.28348E-14 4.73788E-13
 -1      2639 3.02569E+01-5.99537E-01-9.24931E-03-3.94796E-01 1.62675E-13-5.36737E-13
 -1      2640 3.03981E+01 5.96235E+00-8.01710E-02 1.30776E+00 6.36935E-13-1.94775E-13
 -1      2641 2.40967E+01-5.17976E+00 6.36773E-02 4.20662E+00-5.70655E-14 2.04683E-13
 -1      2642 2.05193E+01 3.64431E-01 6.90012E-03-9.59541E-01-1.72507E-13-3.24348E-13
 -1      2643 2.03677E+01 5.87163E-01-3.82920E-04-1.09313E+00-2.23282E-13-2.79553E-13
 -1      2644 2.04230E+01 5.43396E-01-1.47931E-03-1.29165E+00-3.91577E-13-1.60172E-13
 -1      2645 2.06780E+01 2.89523E-01 7.98051E-04-1.07427E+00-2.25776E-13-1.78734E-13
 -1      2646 2.04478E+01 5.75947E-01 6.73589E-04 1.31560E+00-1.11225E-14 5.24765E-14
 -1      2647 2.06509E+01 3.18705E-01-2.04188E-03-1.28046E+00-2.90783E-13-1.80017E-13
 -1      2648 1.98477E+01 2.76427E+00-6.29932E-03 5.16920E-01 2.82271E-13-6.43598E-13
 -1      2649 1.98231E+01 2.81403E+00-5.69633E-03 3.65861E-01 2.23443E-13-6.76620E-13
 -1      2650 1.98063E+01 2.85156E+00-5.61411E-03 2.30074E-01 1.81463E-13-6.92480E-13
 -1      2651 1.97977E+01 2.86839E+00-5.48501E-03 7.52573E-02 1.19821E-13-6.74217E-13
 -1      2652 1.99529E+01 2.50021E+00 3.64384E-03 2.65576E-01 1.92556E-13-6.48140E-13
 -1      2653 2.00447E+01 2.32349E+00-1.07110E-02 1.04727E+00 4.79463E-13-4.08141E-13
 -1      2654 1.99809E+01 2.47233E+00-6.32636E-03 9.11604E-01 4.26733E-13-4.67567E-13
 -1      2655 2.02168E+01 1.90811E+00-1.19397E-02 1.22875E+00 5.58532E-13-2.83082E-13
 -1      2656 2.01248E+01 2.14578E+00-4.84074E-03 1.13536E+00 5.10041E-13-3.49413E-13
 -1      2657 2.01902E+01 1.88604E+00 6.41878E-03 9.27866E-01 4.64056E-13-3.34417E-13
 -1      2658 2.02112E+01 7.26583E-01-3.48396E-03 6.44474E-01 4.28769E-13-7.92366E-14
 -1      2659 2.03533E+01 9.51394E-01 9.17686E-03 9.08102E-01 4.84074E-13-5.35243E-14
 -1      2660 2.01883E+01 2.27551E+00 3.67541E-03-1.42847E+00-4.36105E-13-5.31783E-13
 -1      2661 7.69674E+00-1.49534E+00 1.60299E-01-3.23893E+00 7.23865E-14-1.61537E-13
 -1      2662 9.59617E+00-2.50308E+00 7.63045E-02-5.21042E+00-2.75197E-14 3.37480E-13
 -1      2663 2.03368E+01 1.50001E+00-1.90242E-03 1.26847E+00 5.69459E-13-9.24556E-14
 -1      2664 2.89073E+01 4.20183E+00-2.16875E-01-1.79492E+00 5.25913E-13-5.96190E-13
 -1      2665 2.92784E+01 2.33390E+00-7.64152E-02-2.04560E+00 3.82749E-13-6.70519E-13
 -1      2666 2.02257E+01 6.23714E-01 1.15331E-02-4.35864E-01-2.86397E-13-3.24061E-13
 -1      2667 2.01318E+01 4.72188E-01-4.04250E-03-2.79908E-01-2.67156E-13-3.18923E-13
 -1      2668 2.01050E+01 3.62558E-01 6.68541E-03-1.60141E-01-2.38608E-13-2.99209E-13
 -1      2669 2.00459E+01 2.67805E-01-1.77412E-03-6.26249E-02-2.11261E-13-3.08235E-13
 -1      2670 2.01961E+01 5.28445E-01-1.37368E-03-2.64487E-01-2.48986E-13-3.31499E-13
 -1      2671 2.00201E+01 1.97875E-01 4.53897E-03 1.28206E-02-2.02060E-13-2.62354E-13
 -1      2672 1.99844E+01 1.38661E-01-8.05949E-04 6.96215E-02-1.61795E-13-2.54874E-13
 -1      2673 2.01264E+01 2.99027E-01-2.06679E-03-5.69441E-02-1.88110E-13-3.05141E-13
 -1      2674 1.99636E+01 9.49241E-02 2.89687E-03 1.13321E-01-1.45625E-13-2.37387E-13
 -1      2675 1.99458E+01 5.81778E-02-2.53233E-04 1.43218E-01-1.39332E-13-2.69831E-13
 -1      2676 2.00703E+01 1.53648E-01-1.91198E-03 7.08239E-02-1.58636E-13-2.84636E-13
 -1      2677 1.99311E+01 3.13325E-02 1.72570E-03 1.65356E-01-1.45577E-13-2.64507E-13
 -1      2678 1.99257E+01 9.36995E-03 6.73264E-05 1.78072E-01-1.49122E-13-2.85874E-13
 -1      2679 2.00297E+01 6.25968E-02-1.54755E-03 1.42905E-01-1.55901E-13-3.13103E-13
 -1      2680 1.99163E+01-6.21335E-03 9.12691E-04 1.86279E-01-1.52461E-13-2.65880E-13
 -1      2681 1.99190E+01-1.81788E-02 2.55461E-04 1.88554E-01-1.54091E-13-2.94498E-13
 -1      2682 2.00032E+01 7.53368E-03-1.17662E-03 1.77568E-01-1.46820E-13-3.14557E-13
 -1      2683 1.99138E+01-2.60563E-02 3.62941E-04 1.88425E-01-1.54543E-13-3.04238E-13
 -1      2684 1.99216E+01-3.11219E-02 3.73994E-04 1.84972E-01-1.64051E-13-2.62467E-13
 -1      2685 1.99877E+01-2.30853E-02-8.67442E-04 1.88548E-01-1.56026E-13-2.67819E-13
 -1      2686 1.99196E+01-3.36164E-02 1.30225E-06 1.80570E-01-1.31561E-13-1.79248E-13
 -1      2687 1.99304E+01-3.38215E-02 4.61194E-04 1.74727E-01-7.66152E-14-1.44870E-13
 -1      2688 1.99806E+01-3.67744E-02-6.32309E-04 1.85933E-01-1.04928E-13-1.84587E-13
 -1      2689 1.99306E+01-3.24632E-02-2.30134E-04 1.69007E-01-9.28909E-14-1.33380E-13
 -1      2690 1.99434E+01-2.91400E-02 5.40961E-04 1.63183E-01-5.78168E-14-1.73239E-13
 -1      2691 1.99795E+01-3.85011E-02-4.64571E-04 1.77080E-01-8.78224E-14-1.21103E-13
 -1      2692 1.99453E+01-2.49166E-02-3.75380E-04 1.58329E-01-6.39066E-14-2.54293E-13
 -1      2693 1.99594E+01-1.88997E-02 6.29238E-04 1.54317E-01-7.26731E-14-3.10437E-13
 -1      2694 1.99829E+01-3.15272E-02-3.52596E-04 1.67393E-01-1.30713E-13-1.81539E-13
 -1      2695 1.99626E+01-1.24114E-02-4.67512E-04 1.51999E-01-8.13932E-14-3.43840E-13
 -1      2696 1.99780E+01-4.17675E-03 7.37337E-04 1.51201E-01-1.13358E-13-3.36643E-13
 -1      2697 1.99895E+01-1.79168E-02-2.84477E-04 1.60927E-01-1.02519E-13-2.51190E-13
 -1      2698 1.99823E+01 4.25490E-03-5.31144E-04 1.52766E-01-1.18857E-13-2.73532E-13
 -1      2699 1.99993E+01 1.44871E-02 8.73414E-04 1.56355E-01-9.99527E-14-2.93688E-13
 -1      2700 1.99988E+01 1.12750E-03-2.49472E-04 1.60854E-01-9.94271E-14-2.28778E-13
 -1      2701 2.00046E+01 2.47337E-02-5.84294E-04 1.62974E-01-1.09239E-13-2.73073E-13
 -1      2702 2.00239E+01 3.69112E-02 1.04291E-03 1.72006E-01-1.18908E-13-2.63275E-13
 -1      2703 2.00106E+01 2.50140E-02-2.38251E-04 1.69807E-01-1.43565E-13-1.89708E-13
 -1      2704 2.00303E+01 4.89577E-02-6.39574E-04 1.84763E-01-1.56167E-13-2.64052E-13
 -1      2705 2.00527E+01 6.31092E-02 1.24826E-03 2.00243E-01-1.43004E-13-2.40344E-13
 -1      2706 2.00247E+01 5.35496E-02-2.42603E-04 1.90126E-01-1.50544E-13-1.88414E-13
 -1      2707 2.00601E+01 7.69674E-02-7.04558E-04 2.20184E-01-9.95134E-14-2.14308E-13
 -1      2708 2.00867E+01 9.30999E-02 1.48792E-03 2.43082E-01-9.22229E-14-2.50036E-13
 -1      2709 2.00415E+01 8.67271E-02-2.55719E-04 2.24005E-01-1.13797E-13-1.33476E-13
 -1      2710 2.00955E+01 1.08699E-01-7.81206E-04 2.71221E-01-1.09201E-13-2.14579E-13
 -1      2711 2.01273E+01 1.26664E-01 1.75507E-03 3.02429E-01-6.63013E-14-2.61305E-13
 -1      2712 2.00611E+01 1.24479E-01-2.72320E-04 2.73545E-01-7.27380E-14-1.69687E-13
 -1      2713 2.01377E+01 1.43703E-01-8.64180E-04 3.39688E-01-4.09896E-14-2.25451E-13
 -1      2714 2.01761E+01 1.63009E-01 2.03579E-03 3.79910E-01 4.94919E-14-2.63968E-13
 -1      2715 2.00841E+01 1.66360E-01-2.89985E-04 3.40702E-01-4.19817E-14-1.43520E-13
 -1      2716 2.01885E+01 1.80743E-01-9.37308E-04 4.26996E-01 9.43111E-14-3.25160E-13
 -1      2717 2.02349E+01 2.00284E-01 2.30693E-03 4.76537E-01 7.49824E-14-3.78285E-13
 -1      2718 2.01111E+01 2.11102E-01-3.12607E-04 4.27111E-01 1.84448E-14-1.71872E-13
 -1      2719 2.02501E+01 2.17215E-01-9.67429E-04 5.33727E-01 8.84752E-14-3.62166E-13
 -1      2720 2.03060E+01 2.34876E-01 2.53363E-03 5.92155E-01 8.16671E-14-4.03866E-13
 -1      2721 2.01433E+01 2.55979E-01-3.56618E-04 5.33759E-01 7.18519E-14-3.10018E-13
 -1      2722 2.03255E+01 2.48310E-01-8.94831E-04 6.58970E-01 4.52209E-14-3.85238E-13
 -1      2723 2.03926E+01 2.60420E-01 2.66672E-03 7.24606E-01 4.72678E-14-3.97561E-13
 -1      2724 2.01825E+01 2.95908E-01-4.61826E-04 6.60474E-01 1.13192E-13-4.35683E-13
 -1      2725 2.04192E+01 2.65867E-01-6.19605E-04 7.99322E-01-1.88387E-14-4.55940E-13
 -1      2726 2.04997E+01 2.66490E-01 2.63874E-03 8.68511E-01-6.15022E-14-5.15837E-13
 -1      2727 2.02320E+01 3.22191E-01-7.08635E-04 8.05171E-01-3.52907E-14-3.47836E-13
 -1      2728 2.05383E+01 2.56950E-01 1.52648E-05 9.47459E-01-5.71866E-14-5.26755E-13
 -1      2729 2.06354E+01 2.37102E-01 2.35563E-03 1.01359E+00-4.00129E-14-5.18225E-13
 -1      2730 2.02985E+01 3.20925E-01-1.24182E-03 9.62792E-01-8.16082E-14-4.02777E-13
 -1      2731 2.06949E+01 2.02418E-01 1.24000E-03 1.09012E+00 3.10593E-14-4.77267E-13
 -1      2732 2.08132E+01 1.49567E-01 1.67517E-03 1.14237E+00 1.38761E-13-4.71648E-13
 -1      2733 2.03937E+01 2.71279E-01-2.29539E-03 1.12378E+00-1.05536E-14-2.91714E-13
 -1      2734 2.09083E+01 7.64107E-02 3.35450E-03 1.20533E+00 1.54799E-13-4.66881E-13
 -1      2735 2.10545E+01-2.48950E-02 3.55230E-04 1.22728E+00 7.51838E-14-4.74536E-13
 -1      2736 2.05382E+01 1.44402E-01-4.20040E-03 1.27180E+00 1.45264E-13-3.89579E-13
 -1      2737 2.12077E+01-1.51139E-01 6.66441E-03 1.25864E+00 1.09772E-13-4.46796E-13
 -1      2738 2.13896E+01-3.15598E-01-2.01863E-03 1.22713E+00 1.12319E-13-4.03949E-13
 -1      2739 2.07651E+01-9.50923E-02-7.32777E-03 1.38021E+00 1.22510E-13-3.79900E-13
 -1      2740 2.16313E+01-5.04543E-01 1.12765E-02 1.19849E+00 8.02997E-14-3.41929E-13
 -1      2741 2.18545E+01-7.35680E-01-5.90951E-03 1.08383E+00 6.12540E-14-3.16542E-13
 -1      2742 2.11236E+01-4.80819E-01-1.18091E-02 1.40623E+00 9.71732E-14-4.16548E-13
 -1      2743 2.22156E+01-9.77275E-01 1.64791E-02 9.53541E-01 1.94691E-13-2.32132E-13
 -1      2744 2.24737E+01-1.24660E+00-1.17475E-02 7.24710E-01 1.54934E-13-6.81851E-14
 -1      2745 2.16743E+01-1.02039E+00-1.67358E-02 1.28282E+00 1.71361E-13-1.87438E-13
 -1      2746 2.29644E+01-1.48612E+00 1.88233E-02 4.40769E-01 3.27148E-14-7.10716E-15
 -1      2747 2.32241E+01-1.69878E+00-1.85184E-02 8.16181E-02-5.39135E-14 6.05375E-15
 -1      2748 2.24664E+01-1.64647E+00-1.99769E-02 9.15565E-01 1.48601E-13-8.70502E-14
 -1      2749 2.37902E+01-1.80404E+00 1.21976E-02-3.93816E-01-1.30133E-13 1.42156E-13
 -1      2750 2.39917E+01-1.76208E+00-1.44447E-02-8.47978E-01-1.04856E-13 2.03751E-13
 -1      2751 2.34857E+01-2.14140E+00-1.80608E-02 1.98409E-01 9.53749E-14 1.18420E-13
 -1      2752 2.44381E+01-1.53763E+00-1.45150E-02-1.42150E+00-1.06480E-13 2.75910E-13
 -1      2753 2.45209E+01-1.05429E+00-5.46120E-03-1.81378E+00-6.06336E-14 3.26303E-13
 -1      2754 2.45356E+01-2.01055E+00 3.30636E-03-8.81406E-01-7.75578E-14 4.77277E-13
 -1      2755 2.46273E+01-3.18888E-01-5.71620E-02-2.27118E+00-1.11026E-13 3.45482E-13
 -1      2756 2.45398E+01 6.49841E-01 7.38398E-03-2.31086E+00-1.78971E-13 3.53793E-13
 -1      2757 2.52452E+01-9.81235E-01-1.90375E-02-1.99903E+00-7.90618E-14 5.00020E-13
 -1      2758 2.42914E+01 1.61071E+00-8.88742E-02-2.13670E+00-3.22433E-13 1.81164E-13
 -1      2759 2.41663E+01 2.54062E+00-5.00323E-03-1.67219E+00-3.17225E-13 2.07936E-13
 -1      2760 2.52976E+01 1.35484E+00-2.38195E-02-2.44381E+00-3.82958E-13 3.02591E-13
 -1      2761 2.39181E+01 3.12256E+00-6.74312E-02-7.90021E-01-2.55459E-13 1.16608E-13
 -1      2762 2.39143E+01 3.26362E+00-4.52164E-02 1.51552E-02-1.52794E-13 1.65542E-13
 -1      2763 2.49856E+01 3.47813E+00-4.09296E-02-1.42550E+00-3.55931E-13-4.49883E-14
 -1      2764 2.40072E+01 2.91985E+00-2.37911E-02 9.98894E-01-1.86476E-13 4.88923E-14
 -1      2765 2.41388E+01 2.16191E+00-7.76505E-02 1.62548E+00-3.19165E-13-3.59400E-14
 -1      2766 2.48740E+01 3.74754E+00-6.73425E-02 5.53532E-01-3.27807E-13-1.63878E-13
 -1      2767 2.44074E+01 1.17808E+00 2.33011E-03 1.98703E+00-3.00142E-13-1.00792E-13
 -1      2768 2.45078E+01 1.59844E-01-6.70417E-02 2.07329E+00-1.62129E-13-5.59058E-15
 -1      2769 2.52090E+01 1.94498E+00-3.75373E-02 1.98960E+00-2.91107E-13-9.87127E-14
 -1      2770 2.45021E+01-6.98095E-01-2.22861E-03 1.76601E+00-5.59882E-14 4.82993E-14
 -1      2771 2.44624E+01-1.34817E+00-2.40821E-02 1.42631E+00 1.33292E-15 1.71945E-13
 -1      2772 2.52955E+01-3.94789E-01-1.20110E-02 1.96270E+00-9.99895E-14 1.17600E-13
 -1      2773 2.40742E+01-1.72157E+00-1.50154E-02 8.29302E-01 5.26237E-14 2.13703E-13
 -1      2774 2.38790E+01-1.87384E+00 5.02701E-03 3.55837E-01 1.91294E-13 1.86494E-13
 -1      2775 2.47650E+01-1.90577E+00 2.77123E-03 9.02787E-01 4.96768E-14 7.27413E-14
 -1      2776 2.33235E+01-1.83907E+00-1.64280E-02-1.78876E-01 1.78094E-13 1.24957E-13
 -1      2777 2.30414E+01-1.67367E+00 1.76731E-02-5.87997E-01 1.02678E-13 1.64198E-13
 -1      2778 2.37510E+01-2.25911E+00-6.87285E-03-2.68697E-01 9.62056E-14 2.52570E-13
 -1      2779 2.25190E+01-1.44656E+00-1.21939E-02-9.36277E-01 8.58849E-14 2.39841E-13
 -1      2780 2.22269E+01-1.16988E+00 1.71606E-02-1.21406E+00 3.33079E-13 3.10257E-13
 -1      2781 2.26817E+01-1.87553E+00-1.46082E-02-1.12285E+00 1.87969E-13 3.87248E-13
 -1      2782 2.18220E+01-8.99669E-01-7.42580E-03-1.39040E+00 4.67838E-13 1.55143E-13
 -1      2783 2.15611E+01-6.25526E-01 1.31423E-02-1.53553E+00 4.93080E-13 1.79010E-13
 -1      2784 2.18053E+01-1.22940E+00-1.58562E-02-1.60192E+00 3.03516E-13 3.51512E-13
 -1      2785 2.12786E+01-3.84118E-01-3.71241E-03-1.58370E+00 3.81708E-13 1.08705E-13
 -1      2786 2.10607E+01-1.53675E-01 9.18490E-03-1.61992E+00 3.34219E-13 2.65856E-14
 -1      2787 2.11756E+01-5.87052E-01-1.14045E-02-1.78583E+00 3.62379E-13 6.72569E-14
 -1      2788 2.08700E+01 4.57286E-02-1.51775E-03-1.57858E+00 2.30931E-13-1.12564E-13
 -1      2789 2.06941E+01 2.28861E-01 5.61908E-03-1.52629E+00-6.64195E-14-2.32140E-13
 -1      2790 2.07513E+01-4.66467E-02-6.72305E-03-1.76468E+00 1.31568E-13 7.85076E-15
 -1      2791 1.98534E+01 5.02284E-02 8.10202E-05-1.42825E-01 1.48865E-13-1.87870E-13
 -1      2792 1.98672E+01 8.17588E-02 3.16577E-03-1.14199E-01 1.59342E-13-1.58975E-13
 -1      2793 2.03527E+01 6.11652E-01 2.02671E-03 1.61588E+00-4.00380E-14-2.43731E-13
 -1      2794 2.05654E+01 4.30837E-01 5.94384E-03 1.45134E+00-5.11003E-14-1.10221E-14
 -1      2795 2.07398E+01 2.91910E-01 4.07262E-04 1.56616E+00 4.88002E-14 2.74146E-15
 -1      2796 1.98900E+01 1.19080E-01-2.34726E-04-6.94375E-02 1.70906E-13-1.61900E-13
 -1      2797 1.99257E+01 1.70453E-01 5.20100E-03-1.38099E-02 1.94016E-13-1.28136E-13
 -1      2798 1.99909E+01 1.36083E-01-2.35171E-03-7.12711E-02 1.96230E-13-2.27884E-13
 -1      2799 1.98436E+01-1.48670E-02 3.29226E-04-1.86444E-01 6.98085E-14-1.03397E-13
 -1      2800 1.98344E+01-4.59138E-03 8.76611E-04-1.84936E-01 1.07049E-13-1.19294E-13
 -1      2801 1.98567E+01-2.62126E-02 3.79765E-04-1.81908E-01 1.04070E-13-1.21500E-13
 -1      2802 1.98426E+01-2.17179E-02 2.88458E-04-1.85981E-01 8.14677E-14-1.02213E-13
 -1      2803 1.99222E+01-1.98608E-02-9.07156E-04-1.90902E-01 1.03551E-13-1.17559E-13
 -1      2804 1.98760E+01-2.90802E-02 4.26105E-04-1.70583E-01 8.93176E-14-1.29862E-13
 -1      2805 1.98592E+01-2.86164E-02-8.04125E-05-1.77025E-01 1.01205E-13-1.25789E-13
 -1      2806 1.99241E+01-3.23307E-02-6.25370E-04-1.87271E-01 1.03275E-13-1.88775E-13
 -1      2807 1.98988E+01-2.58922E-02 4.85132E-04-1.57706E-01 1.06344E-13-1.53056E-13
 -1      2808 1.98807E+01-2.83261E-02-3.00054E-04-1.64226E-01 1.10959E-13-1.17494E-13
 -1      2809 1.99322E+01-3.46000E-02-4.36667E-04-1.77030E-01 1.16421E-13-1.79878E-13
 -1      2810 1.99240E+01-1.81826E-02 5.67877E-04-1.47121E-01 1.24600E-13-1.67380E-13
 -1      2811 1.99051E+01-2.28088E-02-4.21009E-04-1.52029E-01 1.25843E-13-1.58454E-13
 -1      2812 1.99446E+01-2.95194E-02-3.21976E-04-1.65610E-01 1.31861E-13-2.29103E-13
 -1      2813 1.99512E+01-6.85017E-03 6.82587E-04-1.41772E-01 9.64704E-14-1.55369E-13
 -1      2814 1.99315E+01-1.32712E-02-4.80061E-04-1.43756E-01 1.18083E-13-1.37840E-13
 -1      2815 1.99599E+01-1.88796E-02-2.64684E-04-1.57044E-01 1.13907E-13-1.42885E-13
 -1      2816 1.99810E+01 7.66765E-03 8.36021E-04-1.44076E-01 6.94096E-14-1.17360E-13
 -1      2817 1.99599E+01-3.74600E-04-5.03846E-04-1.42033E-01 8.91719E-14-1.45538E-13
 -1      2818 1.99778E+01-3.71162E-03-2.51206E-04-1.54470E-01 8.23113E-14-1.84289E-13
 -1      2819 2.00143E+01 2.52622E-02 1.03368E-03-1.56178E-01 1.24161E-13-1.70174E-13
 -1      2820 1.99909E+01 1.56145E-02-5.11839E-04-1.49104E-01 8.68424E-14-1.14849E-13
 -1      2821 1.99983E+01 1.55033E-02-2.70094E-04-1.60486E-01 8.13210E-14-1.59038E-13
 -1      2822 2.00527E+01 4.60342E-02 1.27921E-03-1.80133E-01 8.38099E-14-8.30970E-14
 -1      2823 2.00258E+01 3.47014E-02-5.18132E-04-1.67043E-01 1.12587E-13-1.37350E-13
 -1      2824 2.00219E+01 3.86667E-02-3.11988E-04-1.77420E-01 9.94044E-14-1.63836E-13
 -1      2825 2.00979E+01 7.01623E-02 1.57318E-03-2.18001E-01-4.56740E-14-5.49408E-15
 -1      2826 2.00661E+01 5.70404E-02-5.32424E-04-1.97899E-01 6.03613E-14-5.38669E-14
 -1      2827 2.00492E+01 6.59068E-02-3.68600E-04-2.07496E-01 3.07691E-14-8.48462E-14
 -1      2828 2.01523E+01 9.77352E-02 1.91112E-03-2.71848E-01-1.86777E-14-1.07813E-13
 -1      2829 2.01138E+01 8.27894E-02-5.60268E-04-2.43743E-01-3.18319E-14-3.76876E-14
 -1      2830 2.00814E+01 9.74006E-02-4.32298E-04-2.52921E-01 1.14314E-14-6.88772E-14
 -1      2831 2.02182E+01 1.28512E-01 2.28054E-03-3.43630E-01 3.44654E-14-1.50497E-13
 -1      2832 2.01712E+01 1.11913E-01-6.02231E-04-3.06614E-01-2.58127E-14-1.29409E-13
 -1      2833 2.01195E+01 1.33141E-01-4.96568E-04-3.15864E-01 2.74841E-14-1.50121E-13
 -1      2834 2.02983E+01 1.61560E-01 2.65689E-03-4.34919E-01 3.89751E-14-8.51932E-14
 -1      2835 2.02409E+01 1.43889E-01-6.51415E-04-3.88341E-01 7.52579E-14-5.16104E-14
 -1      2836 2.01649E+01 1.72604E-01-5.57783E-04-3.98316E-01 1.50546E-14-1.00893E-13
 -1      2837 2.03953E+01 1.94695E-01 2.99804E-03-5.46398E-01 8.52613E-14-1.52587E-13
 -1      2838 2.03255E+01 1.77265E-01-6.88453E-04-4.90168E-01 6.76138E-14-1.39400E-13
 -1      2839 2.02192E+01 2.14243E-01-6.19585E-04-5.01787E-01 9.78049E-14-1.86444E-14
 -1      2840 2.05125E+01 2.23634E-01 3.23746E-03-6.77041E-01 5.43289E-14-4.17055E-14
 -1      2841 2.04285E+01 2.08972E-01-6.72787E-04-6.12126E-01 9.00139E-14-7.67502E-14
 -1      2842 2.02842E+01 2.54722E-01-7.01901E-04-6.26791E-01 5.23614E-14-7.25498E-14
 -1      2843 2.06538E+01 2.40762E-01 3.27583E-03-8.22840E-01-8.69085E-14-3.78987E-14
 -1      2844 2.05536E+01 2.33294E-01-5.28823E-04-7.52023E-01-3.38190E-14 2.43982E-14
 -1      2845 2.03627E+01 2.87774E-01-8.56711E-04-7.72039E-01-6.31254E-15 1.67137E-14
 -1      2846 2.08247E+01 2.33511E-01 2.97078E-03-9.74940E-01-1.14589E-14-1.30661E-13
 -1      2847 2.07064E+01 2.40447E-01-1.26653E-04-9.03915E-01-2.35193E-14-1.20017E-13
 -1      2848 2.04593E+01 3.02587E-01-1.19264E-03-9.33233E-01-1.35970E-14-3.20815E-14
 -1      2849 2.10340E+01 1.82638E-01 2.12309E-03-1.11703E+00-1.00613E-13-7.03635E-14
 -1      2850 2.08954E+01 2.14844E-01 7.38702E-04-1.05587E+00-4.64307E-14-1.13110E-13
 -1      2851 2.05824E+01 2.81784E-01-1.90659E-03-1.10132E+00-3.36261E-14-1.04970E-13
 -1      2852 2.12957E+01 6.14315E-02 4.56730E-04-1.22197E+00-1.09139E-13-5.93691E-14
 -1      2853 2.11341E+01 1.33634E-01 2.35629E-03-1.18686E+00-2.76742E-14-3.33025E-14
 -1      2854 2.07470E+01 1.99494E-01-3.30774E-03-1.25994E+00-1.20515E-13 5.43555E-15
 -1      2855 2.16312E+01-1.61518E-01-2.40203E-03-1.24801E+00-1.99559E-13-1.05993E-14
 -1      2856 2.14434E+01-3.28033E-02 5.05844E-03-1.26270E+00-2.08967E-13-7.53140E-14
 -1      2857 2.09785E+01 2.10770E-02-5.78854E-03-1.38185E+00-1.26184E-13 3.36435E-14
 -1      2858 2.20679E+01-5.10480E-01-6.91240E-03-1.13580E+00-1.31778E-14-2.19423E-14
 -1      2859 2.18529E+01-3.14578E-01 9.03643E-03-1.23156E+00-1.07595E-13-3.93027E-14
 -1      2860 2.13173E+01-2.91736E-01-9.63678E-03-1.42377E+00-1.16942E-13 3.64141E-14
 -1      2861 2.26286E+01-9.72871E-01-1.33891E-02-8.10533E-01 5.38146E-14 1.05786E-13
 -1      2862 2.23934E+01-7.23123E-01 1.36675E-02-1.02141E+00 7.30213E-14 3.71710E-14
 -1      2863 2.18171E+01-7.62308E-01-1.45531E-02-1.31995E+00-2.47183E-14 5.78290E-14
 -1      2864 2.33019E+01-1.44393E+00-2.10480E-02-2.00521E-01 9.37011E-14 2.44346E-13
 -1      2865 2.30745E+01-1.20957E+00 1.64489E-02-5.47327E-01 3.97187E-14 1.82144E-13
 -1      2866 2.25296E+01-1.35638E+00-1.90905E-02-9.78920E-01 1.69656E-15 1.28397E-13
 -1      2867 2.40010E+01-1.65448E+00-2.09376E-02 7.06221E-01-1.17440E-13 3.08395E-13
 -1      2868 2.38314E+01-1.59866E+00 1.15991E-02 2.50892E-01 1.07784E-13 3.99025E-13
 -1      2869 2.34578E+01-1.90386E+00-1.92357E-02-2.99163E-01-3.52121E-14 3.24925E-13
 -1      2870 2.45138E+01-1.21816E+00-8.57114E-03 1.70889E+00-2.22726E-13 2.18341E-13
 -1      2871 2.44614E+01-1.54292E+00-7.10952E-03 1.28758E+00-1.89857E-13 2.78045E-13
 -1      2872 2.44414E+01-2.01863E+00-1.73438E-02 7.62198E-01-1.14308E-13 3.10632E-13
 -1      2873 2.45510E+01 1.49001E-01-4.29083E-03 2.34348E+00-6.43860E-14 2.61867E-13
 -1      2874 2.46943E+01-6.31908E-01-3.71300E-02 2.23307E+00-2.07865E-13 2.66448E-13
 -1      2875 2.52353E+01-1.24207E+00 2.20867E-03 1.98079E+00-1.34705E-13 1.25289E-13
 -1      2876 2.42035E+01 1.96566E+00 3.84896E-03 1.93359E+00 2.80154E-13 1.03130E-13
 -1      2877 2.44087E+01 1.05139E+00-6.14838E-02 2.32964E+00 1.29084E-13 1.23860E-13
 -1      2878 2.53237E+01 7.79739E-01-5.63251E-02 2.58931E+00 1.76706E-13 1.38896E-13
 -1      2879 2.38409E+01 2.96420E+00-4.08469E-02 3.75070E-01 3.36189E-13 1.96310E-14
 -1      2880 2.39398E+01 2.64974E+00-6.18579E-02 1.18275E+00 3.45415E-13 8.04058E-14
 -1      2881 2.50013E+01 2.81444E+00-5.62809E-02 1.74670E+00 3.53634E-13-1.02536E-13
 -1      2882 2.39830E+01 2.24871E+00-7.84907E-02-1.38137E+00 2.09093E-13-1.30467E-13
 -1      2883 2.39173E+01 2.81987E+00-1.85773E-02-6.75613E-01 3.70134E-13 5.11605E-14
 -1      2884 2.48035E+01 3.62132E+00-6.27284E-02-2.06855E-01 3.29486E-13-2.73132E-14
 -1      2885 2.44146E+01 4.52246E-01-7.30606E-02-2.15223E+00-4.47524E-14-2.71823E-13
 -1      2886 2.42878E+01 1.42434E+00 9.30347E-03-1.95032E+00 1.00482E-13-1.72509E-13
 -1      2887 2.51025E+01 2.31345E+00-2.32116E-02-1.90821E+00 2.05481E-13-1.63911E-13
 -1      2888 2.45398E+01-1.05709E+00-3.15572E-02-1.71451E+00-2.28933E-13-2.83465E-13
 -1      2889 2.45067E+01-3.74873E-01 4.30535E-03-1.97676E+00-1.79166E-13-3.27558E-13
 -1      2890 2.53081E+01 5.41291E-02-6.89974E-03-2.21325E+00-4.77743E-14-4.31155E-13
 -1      2891 2.41218E+01-1.68604E+00-2.71220E-04-6.66329E-01-7.58099E-14-3.39983E-13
 -1      2892 2.42364E+01-1.48772E+00-1.74505E-02-1.13856E+00-1.64343E-13-3.13827E-13
 -1      2893 2.49470E+01-1.62581E+00-7.39651E-03-1.29301E+00-1.51092E-13-4.36842E-13
 -1      2894 2.33706E+01-1.56322E+00 1.45894E-02 3.56575E-01 3.87879E-15-2.63154E-13
 -1      2895 2.35989E+01-1.69721E+00-2.19950E-02-8.86172E-02-2.19421E-14-2.68690E-13
 -1      2896 2.40556E+01-2.12297E+00-1.21564E-02-6.79035E-02-6.84417E-14-3.58715E-13
 -1      2897 2.25717E+01-1.10437E+00 1.61517E-02 1.08117E+00 1.40016E-13-3.37046E-13
 -1      2898 2.28436E+01-1.36297E+00-1.77032E-02 7.63718E-01 1.17799E-13-2.64330E-13
 -1      2899 2.30192E+01-1.82381E+00-1.87078E-02 9.05754E-01 8.26117E-14-4.77359E-13
 -1      2900 2.18806E+01-5.98314E-01 1.30915E-02 1.48056E+00 6.99535E-14-1.91813E-13
 -1      2901 2.21470E+01-8.55166E-01-1.10681E-02 1.30393E+00 8.82061E-14-2.71381E-13
 -1      2902 2.21216E+01-1.21372E+00-1.79405E-02 1.49840E+00 9.48745E-14-4.14015E-13
 -1      2903 2.13393E+01-1.69253E-01 1.09884E-02 1.61370E+00 4.19374E-14 2.31675E-14
 -1      2904 2.15717E+01-3.77758E-01-5.79570E-03 1.55848E+00 1.33120E-13-3.03160E-14
 -1      2905 2.14457E+01-5.98670E-01-1.36599E-02 1.76639E+00 6.21625E-14-2.27215E-13
 -1      2906 2.09079E+01 1.42413E-01 7.64312E-03 1.59998E+00 1.33497E-13-2.49597E-14
 -1      2907 2.11075E+01-2.43514E-02-2.43767E-03 1.63998E+00 6.88459E-14-1.97419E-14
 -1      2908 2.09505E+01-1.32591E-01-1.19407E-02 1.84220E+00 7.53665E-14-1.57782E-13
 -1      2909 2.05781E+01 2.43578E-01-1.09759E-02 1.80567E+00 4.93390E-14-2.69495E-13
 -1      2910 2.38440E+01-5.54623E+00-5.23176E-02 4.36601E+00-2.36339E-13-5.76116E-13
 -1      2911 2.09882E+01-5.27034E+00 1.02282E-01 5.37087E+00-3.83860E-13-1.59258E-13
 -1      2912 1.87745E+01 1.90861E+00-6.60410E-03 9.15456E-02 1.02598E-13-8.28223E-14
 -1      2913 1.88117E+01 1.88438E+00-2.80719E-03 4.10408E-01 2.57948E-13-2.64783E-13
 -1      2914 2.06051E+01 3.43270E-01 8.88150E-04-1.45625E+00-2.26064E-13-2.01493E-13
 -1      2915 2.05018E+01 4.47060E-01 3.86196E-03-1.37905E+00-3.41532E-13-1.88758E-13
 -1      2916 2.05056E+01 3.25473E-01-4.49255E-03-1.63683E+00-1.03715E-13-2.94820E-13
 -1      2917 1.92108E+01 1.54008E+00-1.20595E-02 1.28702E+00 2.26354E-13 1.72345E-13
 -1      2918 1.94151E+01 1.40162E+00 7.35938E-03 1.46263E+00 1.68952E-13 4.53985E-14
 -1      2919 1.88716E+01 1.83766E+00-6.00821E-04-5.91281E-01-5.36070E-14-8.34564E-14
 -1      2920 1.87948E+01 1.88650E+00-8.56852E-03-2.83768E-01-2.06427E-14-8.37706E-14
 -1      2921 1.85137E+01 1.73871E+00 1.06355E-02-1.11660E-01 1.80310E-13-2.70184E-13
 -1      2922 1.89000E+01 1.79734E+00-1.09582E-02 7.60487E-01 1.22409E-13-2.96627E-13
 -1      2923 1.90406E+01 1.70596E+00 3.26794E-03 1.02974E+00 2.42845E-13 3.35475E-14
 -1      2924 1.89302E+01 1.44128E+00 4.86742E-03 1.28508E+00 1.11687E-13-4.07737E-14
 -1      2925 1.86013E+01 1.67776E+00 9.56639E-03 6.50895E-01 1.49538E-13-2.46167E-13
 -1      2926 2.64559E+01-4.60321E+00 5.56382E-02-2.35286E+00 1.04729E-13 2.64469E-13
 -1      2927 2.76865E+01-3.73117E+00-1.63385E-01-1.11472E+00 7.56444E-14 2.90559E-13
 -1      2928 1.91529E+01 1.60911E+00 4.83735E-03-1.14566E+00-6.75559E-14-1.99785E-13
 -1      2929 1.89904E+01 1.71617E+00-1.17340E-02-9.09040E-01-5.46225E-14-4.19803E-16
 -1      2930 1.86925E+01 1.60315E+00 8.31747E-03-8.39284E-01-2.81238E-14-4.17365E-14
 -1      2931 1.95431E+01 1.27993E+00 7.78759E-03-1.50208E+00 1.59707E-13 2.45440E-13
 -1      2932 1.93361E+01 1.42693E+00-1.13650E-02-1.36103E+00 6.32238E-14 2.81291E-14
 -1      2933 1.90730E+01 1.31765E+00 2.04306E-03-1.39320E+00-6.81615E-15-4.33477E-14
 -1      2934 1.99473E+01 9.29216E-01 7.52336E-03-1.62008E+00-9.12727E-14 4.46916E-15
 -1      2935 1.97470E+01 1.08765E+00-7.83683E-03-1.58978E+00 1.02130E-13 8.96095E-14
 -1      2936 1.95625E+01 9.69930E-01-2.11500E-03-1.70028E+00-4.95805E-14 1.05056E-13
 -1      2937 1.73703E+01-4.64501E+00 1.61459E-02 6.31847E+00-4.65850E-13 3.01301E-13
 -1      2938 1.40586E+01-3.47997E+00 1.33032E-01 6.03486E+00-2.34465E-13 1.59275E-13
 -1      2939 6.82307E+00-7.98055E-01 1.56738E-01 5.89851E-01 1.75129E-13-4.97102E-14
 -1      2940 6.82674E+00-9.58741E-01 1.55866E-01-1.40608E+00 2.15494E-13-2.43694E-13
 -1      2941 2.88094E+01 5.70926E+00-2.19402E-01-1.36813E+00-5.82617E-13 1.29709E-13
 -1      2942 2.91037E+01 4.41272E+00-1.03810E-01-2.08690E+00-5.71626E-13 1.06720E-13
 -1      2943 2.03083E+01 1.58842E+00-1.18743E-02-1.23757E+00-4.54521E-13-4.38643E-13
 -1      2944 2.03266E+01 1.23116E+00 1.27815E-02-9.69674E-01-3.90639E-13-3.87853E-13
 -1      2945 2.02427E+01 9.49527E-01-5.20410E-03-7.23851E-01-3.27298E-13-3.68274E-13
 -1      2946 2.01596E+01 2.04598E+00 1.32055E-04-1.14052E+00-3.45909E-13-5.34488E-13
 -1      2947 2.88482E+01-1.83501E+00-1.57483E-01-4.36083E-01-5.79183E-13 1.70267E-13
 -1      2948 2.75371E+01-3.45897E+00 1.54298E-02 9.09587E-01-4.58657E-13 2.27068E-13
 -1      2949 1.77926E+01-4.93044E+00 1.04507E-01-6.02070E+00-9.47298E-14-3.07081E-13
 -1      2950 2.07694E+01-5.48616E+00-5.61526E-02-5.45088E+00-1.06498E-13-2.06413E-13
 -1      2951 1.93206E+01-5.04396E+00-4.73669E-02 5.76453E+00 2.86160E-13-8.02414E-14
 -1      2952 1.60018E+01-3.90616E+00 1.93677E-01 5.98551E+00 4.86236E-13-4.87402E-13
 -1      2953 1.99593E+01 2.31045E-01-8.00021E-04 6.43961E-02 2.32584E-13-1.29507E-13
 -1      2954 2.00251E+01 3.14848E-01 7.83987E-03 1.62108E-01 2.71776E-13-1.08857E-13
 -1      2955 2.00553E+01 2.65959E-01-2.72337E-03 6.23092E-02 2.39208E-13-1.99343E-13
 -1      2956 1.98405E+01 8.68342E-03 2.45830E-04-1.76875E-01 1.08767E-13-1.68007E-13
 -1      2957 1.98400E+01 2.74425E-02 1.78459E-03-1.65177E-01 1.28333E-13-1.80602E-13
 -1      2958 1.99509E+01 5.56134E-02-1.79857E-03-1.45427E-01 1.37145E-13-2.30602E-13
 -1      2959 1.99297E+01 7.19831E-03-1.29834E-03-1.80436E-01 9.10579E-14-1.47200E-13
 -1      2960 2.00680E+01 4.15343E-01-1.64741E-03 2.89566E-01 3.12141E-13-1.03005E-13
 -1      2961 2.01695E+01 5.53737E-01 1.04421E-02 4.52364E-01 3.59483E-13-7.82502E-14
 -1      2962 2.02528E+01 8.21385E-01 7.15541E-04 6.19081E-01 4.09098E-13-1.76193E-13
 -1      2963 2.01451E+01 4.77661E-01-1.90040E-03 2.82123E-01 3.14625E-13-2.00486E-13
 -1      2964 2.82209E+01-2.99707E+00 3.68558E-02-1.73771E-01-3.40717E-14-9.62980E-14
 -1      2965 2.88261E+01-1.56866E+00-1.98904E-01 9.05200E-01 7.82499E-14-4.66016E-14
 -1      2966 2.07404E+01-5.23362E+00 1.61066E-01-5.54931E+00 3.23075E-14 1.36877E-13
 -1      2967 2.39079E+01-5.49120E+00-9.45042E-02-4.25861E+00 8.71803E-14-5.58026E-14
 -1      2968 1.99255E+01 2.59524E+00-7.89592E-03 7.95549E-01 3.94305E-13-5.33164E-13
 -1      2969 1.98821E+01 2.68737E+00-6.11647E-03 6.46383E-01 3.25399E-13-5.94318E-13
 -1      2970 2.00011E+01 2.38770E+00 4.34543E-03 5.17590E-01 2.94633E-13-5.73904E-13
 -1      2971 2.00816E+01 2.18998E+00 5.58281E-03 7.46995E-01 3.76981E-13-4.55240E-13
 -1      2972 2.93788E+01 2.25903E+00-2.26315E-01-1.99779E+00-6.26249E-13 1.81966E-13
 -1      2973 2.95468E+01 3.37941E-01-6.69919E-02-1.48004E+00-6.12371E-13 2.50744E-13
 -1      2974 2.86976E+01-1.62193E+00-1.38522E-02 6.26070E-01 5.63855E-14 2.32869E-13
 -1      2975 2.89900E+01 6.58112E-01-2.10177E-01 1.60103E+00-3.76643E-14 2.66814E-13
 -1      2976 1.19014E+01-2.62095E+00 1.58620E-01-5.45929E+00-1.50810E-13-5.58234E-13
 -1      2977 1.47241E+01-4.05590E+00 6.21570E-02-6.31075E+00-7.33302E-14-5.61010E-13
 -1      2978 1.73063E+01-3.94080E+00 1.14034E-01-5.56392E+00-1.45051E-13-3.41310E-13
 -1      2979 2.93414E+01 8.77373E-01-4.22173E-02 1.98254E+00 2.44749E-13-5.27078E-14
 -1      2980 2.93126E+01 2.87727E+00-1.67523E-01 2.28263E+00 3.66929E-13-6.26998E-14
 -1      2981 1.15959E+01-2.98388E+00-2.44172E-03 5.82098E+00 4.93786E-13-7.84539E-13
 -1      2982 8.73152E+00-1.70341E+00 1.91016E-01 4.19111E+00 3.72445E-13-6.19532E-13
 -1      2983 1.27558E+01-3.41553E+00 1.82165E-01-6.08766E+00-6.66966E-14 4.71304E-13
 -1      2984 1.62993E+01-4.69084E+00-5.29234E-02-6.57124E+00-2.70617E-14 5.42469E-13
 -1      2985 1.98774E+01 2.69625E+00-6.00542E-03-6.36031E-01-1.10830E-13-6.92218E-13
 -1      2986 1.99191E+01 2.60553E+00-8.15238E-03-7.86090E-01-1.74068E-13-6.86509E-13
 -1      2987 7.36318E+00-8.00094E-01 1.96381E-01-2.14739E+00-1.57999E-14-7.83540E-13
 -1      2988 9.02853E+00-1.52579E+00 7.63159E-02-4.15124E+00-3.32789E-14-7.53342E-13
 -1      2989 2.55567E+01-4.97940E+00-1.16154E-01 2.81110E+00-1.80286E-13 2.54283E-13
 -1      2990 2.28908E+01-5.16580E+00 9.46242E-02 4.21447E+00 1.67602E-13 6.68840E-14
 -1      2991 2.03639E+01 5.76494E-01-3.43521E-04-1.46903E+00-3.31441E-13-4.59387E-13
 -1      2992 2.39067E+01-5.27284E+00 8.34932E-02-3.94099E+00-8.35026E-14-1.61218E-13
 -1      2993 2.63486E+01-4.69998E+00-1.49288E-01-2.21197E+00-1.77913E-14-1.65312E-13
 -1      2994 2.28738E+01-5.09157E+00 7.45457E-02-4.08571E+00-7.56062E-14-1.72563E-13
 -1      2995 6.72881E+00-1.05786E+00 1.08179E-01 2.34126E+00 2.77819E-13-3.85025E-13
 -1      2996 6.27916E+00-7.54661E-01 1.23943E-01-1.28290E-01 1.10852E-13-4.56135E-13
 -1      2997 2.88606E+01 2.99577E+00-8.10381E-02 2.07509E+00-8.35443E-14 4.82392E-14
 -1      2998 2.82812E+01 4.48820E+00-2.15147E-01 1.68143E+00-2.70534E-13-9.92886E-14
 -1      2999 2.81826E+01 6.10917E+00-1.55139E-01 6.96678E-01-4.26159E-13-1.14304E-13
 -1      3000 2.86281E+01 6.38592E+00-1.76570E-01-5.20486E-01-5.45064E-13 2.69264E-14
 -1      3001 2.91480E+01-1.32014E-01-2.15760E-01-1.36139E+00 1.05541E-13-6.18991E-13
 -1      3002 2.88847E+01-1.94967E+00-1.81784E-02-4.30685E-01 9.31200E-15-6.18589E-13
 -1      3003 2.86995E+01 4.63457E+00-1.24791E-01 2.03728E+00 5.41456E-13-1.39791E-13
 -1      3004 2.81173E+01 5.73480E+00-1.96172E-01 1.10903E+00 6.18366E-13-1.24581E-13
 -1      3005 2.76574E+01-3.89799E+00-1.39663E-01 1.26854E+00-1.06207E-13-5.70696E-13
 -1      3006 2.59208E+01-4.91048E+00 3.28378E-02 2.81091E+00-2.90275E-13-5.18113E-13
 -1      3007 2.49875E+01-4.94219E+00 3.26862E-02 2.92356E+00-2.94202E-13-6.71317E-13
 -1      3008 2.79943E+01 6.04809E+00-1.93914E-01-1.22313E-01 5.46591E-13-3.33445E-13
 -1      3009 2.84714E+01 5.54280E+00-1.42930E-01-1.22384E+00 5.69989E-13-4.73711E-13
 -1      3010 1.99755E+01 2.48475E+00-6.17750E-03-9.01483E-01-2.24435E-13-6.60723E-13
 -1      3011 2.00290E+01 2.33722E+00-1.52679E-02-1.04581E+00-2.97204E-13-6.36947E-13
 -1      3012 2.00752E+01 2.20253E+00 5.61975E-03-7.36310E-01-1.89302E-13-6.18758E-13
 -1      3013 1.99360E+01 2.53806E+00 3.42347E-03 4.33144E-03 8.85629E-14-6.45293E-13
 -1      3014 1.97974E+01 2.86956E+00-5.36561E-03-6.18837E-02 8.15991E-14-6.87765E-13
 -1      3015 1.98045E+01 2.85438E+00-5.67364E-03-2.16933E-01 2.78744E-14-7.12483E-13
 -1      3016 2.68907E+01-3.95843E+00-5.85666E-03-9.07309E-01-6.19574E-14-8.84154E-14
 -1      3017 2.63973E+01-4.06140E+00 5.58868E-03 1.14544E+00-2.12403E-13 2.17881E-13
 -1      3018 9.04659E+00-7.24185E-01 1.91932E-01-2.34769E+00 6.90559E-14 6.43097E-14
 -1      3019 2.02898E+01 1.58729E+00-1.20389E-03 1.16739E+00 5.56260E-13-2.05210E-13
 -1      3020 2.83806E+01-9.99706E-01-1.72015E-02-1.44943E+00-5.74325E-13 2.76140E-13
 -1      3021 2.73705E+01 4.12194E+00-7.93461E-02-1.62721E+00 4.68195E-13-5.26690E-13
 -1      3022 1.94088E+01 1.10842E+00-2.73717E-05 1.67953E+00 6.21207E-14-7.70173E-14
 -1      3023 1.96152E+01 1.20911E+00-1.13998E-02 1.58983E+00 1.13760E-13-1.60863E-13
 -1      3024 1.98410E+01 1.04984E+00 1.05797E-02 1.66411E+00-1.62989E-14-1.70570E-13
 -1      3025 1.99934E+01-4.53640E+00 8.13602E-02 5.23890E+00-3.50830E-13-3.41810E-14
 -1      3026 2.76862E+01-3.08004E+00-1.96108E-02 5.96305E-02-1.45547E-13-7.40338E-13
 -1      3027 2.78285E+01-2.46887E+00 1.82577E-02 3.15454E-01-3.48679E-14 4.97546E-13
 -1      3028 2.49542E+01-4.87947E+00 2.12899E-02-2.92677E+00 1.00878E-13 1.93671E-13
 -1      3029 2.01596E+01 7.63896E-01-6.34004E-03 1.65449E+00-8.50291E-14-2.57436E-13
 -1      3030 2.77500E+01 3.01868E+00-1.06715E-01 2.24049E+00 3.66845E-13-8.93868E-14
 -1      3031 1.29126E+01-2.54174E+00 1.22183E-01 5.48106E+00-9.42441E-14 4.29656E-14
 -1      3032 1.19606E+01-1.38935E+00 8.94827E-02 4.39151E+00-1.10155E-13 1.63897E-14
 -1      3033 1.54400E+01-2.55292E+00 8.26741E-02 5.18923E+00-1.72588E-13-4.91690E-14
 -1      3034 2.02169E+01 7.33718E-01-7.20868E-04-1.53132E+00-1.06251E-13-2.69751E-13
 -1      3035 2.83076E+01 8.46375E-01-2.71950E-02-2.05020E+00 1.66325E-13-8.80906E-13
 -1      3036 2.02792E+01 1.36585E+00 2.03135E-03 9.21123E-01 4.94298E-13-2.35353E-13
 -1      3037 2.70789E+01 4.64808E+00-1.17796E-01 1.22014E+00-3.35648E-13-7.42045E-14
 -1      3038 2.77772E+01 1.18381E+00-6.77188E-02 2.01458E+00-1.92915E-13 2.01061E-13
 -1      3039 8.46435E+00-2.53166E-01 1.78237E-01-9.68097E-01 2.42362E-13-5.18752E-13
 -1      3040 1.27511E+01-2.38512E+00 1.73510E-01-5.27780E+00-4.65739E-14 4.48142E-13
 -1      3041 2.82370E+01 2.92198E+00-5.56206E-02-2.27815E+00-6.13204E-13 5.63716E-14
 -1      3042 2.02655E+01 1.02507E+00-7.51353E-04-6.71682E-01-3.15765E-13-3.99575E-13
 -1      3043 1.49074E+01-2.90000E+00 1.35304E-01 5.38603E+00 4.55830E-13-6.16743E-13
 -1      3044 1.17563E+01-1.63990E+00 1.31153E-01-4.43292E+00-5.09454E-14-6.40710E-13
 -1      3045 2.17240E+01-4.66588E+00 6.69687E-02 4.27562E+00 2.28970E-13 1.06599E-13
 -1      3046 2.72257E+01 5.31508E+00-1.04732E-01-1.02209E+00-4.33181E-13 6.17145E-14
 -1      3047 8.78242E+00-6.48213E-01 1.84022E-01 1.73591E+00 1.38396E-14-9.87543E-14
 -1      3048 2.83507E+01-3.74332E-01-3.05382E-02 1.96197E+00 1.01169E-13-1.88669E-13
 -1      3049 1.98204E+01 2.81957E+00-5.52330E-03-3.52060E-01-2.18450E-15-6.89157E-13
 -1      3050 1.98440E+01 2.77043E+00-6.37282E-03-5.06117E-01-7.22801E-14-6.86534E-13
 -1      3051 1.99973E+01 2.39527E+00 4.55698E-03-5.07117E-01-8.49824E-14-6.43441E-13
 -1      3052 1.99509E+01 2.50406E+00 3.80267E-03-2.55913E-01 5.57242E-15-6.63093E-13
 -1      3053 1.92917E+01-4.44647E+00 1.18762E-01-5.48855E+00 1.97342E-14 1.94261E-13
 -1      3054 9.37261E+00-8.40703E-01 1.92213E-01 3.08868E+00 3.30583E-13-3.86677E-13
 -1      3055 2.67966E+01 5.05720E+00-1.24940E-01 5.16029E-01 5.09606E-13-1.44784E-13
 -1      3056 2.03253E+01 4.72328E-01 4.33030E-03-1.68244E+00-2.91462E-13-4.01808E-13
 -1      3057 2.00930E+01 7.45216E-01-3.77819E-03-1.65073E+00-1.59149E-13-2.56358E-13
 -1      3058 2.00139E+01 6.22744E-01-1.39972E-03-1.79508E+00-1.17239E-13-2.87661E-13
 -1      3059 2.04080E+01 3.23379E-01 1.13436E-03-1.75507E+00-1.47530E-13-2.41125E-13
 -1      3060 2.73693E+01-2.04154E-01-1.23818E-01-2.12113E+00-6.03739E-13 2.35700E-13
 -1      3061 2.71544E+01-1.73714E+00-1.56631E-02-1.35941E+00-4.44943E-13 2.01311E-13
 -1      3062 2.02410E+01 1.48038E+00-6.15509E-03 8.03603E-01 4.32113E-13-2.81525E-13
 -1      3063 2.02014E+01 1.66882E+00-6.53936E-04 7.47930E-01 3.85353E-13-3.30510E-13
 -1      3064 2.02216E+01 4.22881E-01 3.93575E-03-1.21818E-01-1.80449E-13-3.28808E-13
 -1      3065 2.01828E+01 3.15598E-01-2.30788E-03-3.68057E-02-1.62757E-13-3.21860E-13
 -1      3066 2.01687E+01 2.32540E-01 3.15920E-03 2.48794E-02-1.57155E-13-3.11191E-13
 -1      3067 2.01386E+01 1.62595E-01-1.28171E-03 7.61569E-02-1.43852E-13-3.19256E-13
 -1      3068 2.02395E+01 3.32696E-01-9.18430E-04-2.75274E-02-1.50777E-13-3.04170E-13
 -1      3069 2.01221E+01 1.09298E-01 2.21623E-03 1.12508E-01-1.46207E-13-3.04703E-13
 -1      3070 2.01013E+01 6.50597E-02-5.82731E-04 1.40357E-01-1.52690E-13-3.20108E-13
 -1      3071 2.01992E+01 1.69811E-01-1.04434E-03 7.59204E-02-1.52529E-13-3.07777E-13
 -1      3072 2.00852E+01 3.21530E-02 1.43673E-03 1.58896E-01-1.29271E-13-3.07238E-13
 -1      3073 2.00722E+01 5.74236E-03-1.24865E-04 1.71274E-01-1.25145E-13-2.82049E-13
 -1      3074 2.01608E+01 6.55943E-02-9.89868E-04 1.35230E-01-1.37058E-13-3.00110E-13
 -1      3075 2.00579E+01-1.29992E-02 8.36267E-04 1.78148E-01-1.34519E-13-2.65297E-13
 -1      3076 2.00508E+01-2.69105E-02 1.71086E-04 1.81012E-01-1.16358E-13-2.49562E-13
 -1      3077 2.01273E+01 2.54476E-03-8.61104E-04 1.64098E-01-1.12645E-13-2.95750E-13
 -1      3078 2.00386E+01-3.56825E-02 3.93103E-04 1.80975E-01-1.10896E-13-2.29008E-13
 -1      3079 2.00359E+01-4.07307E-02 3.64459E-04 1.78711E-01-5.60592E-14-1.90949E-13
 -1      3080 2.00995E+01-3.14323E-02-7.15334E-04 1.73576E-01-7.83753E-14-2.50530E-13
 -1      3081 2.00259E+01-4.23812E-02 7.24005E-05 1.75350E-01-6.36574E-14-1.71144E-13
 -1      3082 2.00263E+01-4.10325E-02 4.96550E-04 1.71181E-01-1.01960E-13-1.84199E-13
 -1      3083 2.00773E+01-4.46881E-02-5.77039E-04 1.72177E-01-5.64485E-14-2.20962E-13
 -1      3084 2.00181E+01-3.74688E-02-1.60949E-04 1.67181E-01-1.40987E-13-1.35582E-13
 -1      3085 2.00209E+01-3.13495E-02 5.96286E-04 1.63501E-01-1.27712E-13-1.65756E-13
 -1      3086 2.00599E+01-4.29347E-02-4.54366E-04 1.66330E-01-9.14858E-14-1.67828E-13
 -1      3087 2.00142E+01-2.37997E-02-3.37407E-04 1.60903E-01-1.31318E-13-1.71089E-13
 -1      3088 2.00188E+01-1.39213E-02 6.84140E-04 1.59542E-01-1.21082E-13-1.79170E-13
 -1      3089 2.00463E+01-2.99728E-02-3.47964E-04 1.60892E-01-1.22924E-13-1.40973E-13
 -1      3090 2.00131E+01-3.11698E-03-4.81921E-04 1.59951E-01-1.01604E-13-1.81858E-13
 -1      3091 2.00193E+01 9.95842E-03 7.74514E-04 1.62379E-01-6.77450E-14-1.53881E-13
 -1      3092 2.00357E+01-8.19450E-03-2.54267E-04 1.59608E-01-1.08976E-13-2.05555E-13
 -1      3093 2.00140E+01 2.36420E-02-6.14176E-04 1.67125E-01-1.06884E-13-1.93641E-13
 -1      3094 2.00217E+01 3.96659E-02 8.77057E-04 1.74598E-01-1.54854E-13-1.92869E-13
 -1      3095 2.00270E+01 2.10351E-02-1.68620E-04 1.65486E-01-1.17139E-13-1.83829E-13
 -1      3096 2.00164E+01 5.60882E-02-7.49016E-04 1.84860E-01-1.86213E-13-1.51486E-13
 -1      3097 2.00256E+01 7.50016E-02 9.97867E-04 1.98518E-01-1.52780E-13-1.36272E-13
 -1      3098 2.00193E+01 5.70692E-02-8.50535E-05 1.81087E-01-1.20430E-13-1.75467E-13
 -1      3099 2.00197E+01 9.41379E-02-8.96792E-04 2.15404E-01-1.38448E-13-9.40247E-14
 -1      3100 2.00305E+01 1.15939E-01 1.13944E-03 2.36321E-01-1.28782E-13-8.99377E-14
 -1      3101 2.00113E+01 9.96920E-02 2.08539E-06 2.08722E-01-1.40313E-13-7.57466E-14
 -1      3102 2.00234E+01 1.37742E-01-1.06257E-03 2.60907E-01-9.63622E-14-1.16360E-13
 -1      3103 2.00359E+01 1.62328E-01 1.30118E-03 2.90098E-01-4.28098E-14-1.34355E-13
 -1      3104 2.00021E+01 1.48815E-01 9.70222E-05 2.50575E-01-1.36055E-13-5.94579E-14
 -1      3105 2.00270E+01 1.86552E-01-1.24511E-03 3.23423E-01-2.84133E-14-1.61757E-13
 -1      3106 2.00416E+01 2.13507E-01 1.48022E-03 3.61788E-01-1.34574E-15-1.34041E-13
 -1      3107 1.99904E+01 2.04118E-01 2.02009E-04 3.08745E-01-4.82410E-14-1.43590E-13
 -1      3108 2.00303E+01 2.39478E-01-1.43463E-03 4.04808E-01-2.48663E-14-1.02064E-13
 -1      3109 2.00473E+01 2.67796E-01 1.67289E-03 4.53018E-01-7.75306E-15-1.80433E-13
 -1      3110 1.99749E+01 2.64582E-01 3.13339E-04 3.85196E-01-8.41517E-16-1.54194E-13
 -1      3111 2.00333E+01 2.94077E-01-1.60840E-03 5.06522E-01 5.24241E-15-1.79584E-13
 -1      3112 2.00534E+01 3.21759E-01 1.87771E-03 5.64833E-01 8.29357E-14-2.54212E-13
 -1      3113 1.99549E+01 3.27867E-01 4.15919E-04 4.81644E-01-1.41938E-15-8.02069E-14
 -1      3114 2.00369E+01 3.45693E-01-1.72398E-03 6.29309E-01 1.44079E-13-3.35045E-13
 -1      3115 2.00613E+01 3.69188E-01 2.10033E-03 6.97283E-01 1.28182E-13-3.07073E-13
 -1      3116 1.99298E+01 3.89446E-01 4.74193E-04 5.99378E-01 8.07693E-14-2.10686E-13
 -1      3117 2.00435E+01 3.86257E-01-1.70837E-03 7.72755E-01-4.22599E-15-2.72906E-13
 -1      3118 2.00746E+01 3.99716E-01 2.35989E-03 8.48879E-01-7.87518E-14-2.45444E-13
 -1      3119 1.99007E+01 4.41405E-01 4.16608E-04 7.39028E-01 9.80446E-14-2.92201E-13
 -1      3120 2.00589E+01 4.02720E-01-1.44061E-03 9.34677E-01-8.10502E-14-2.33047E-13
 -1      3121 2.01009E+01 3.97065E-01 2.69204E-03 1.01584E+00-2.78278E-14-1.81744E-13
 -1      3122 1.98712E+01 4.70851E-01 1.11349E-04 9.00298E-01-4.81283E-14-2.33589E-13
 -1      3123 2.00942E+01 3.75175E-01-7.24411E-04 1.11025E+00-5.10588E-14-1.63822E-13
 -1      3124 2.01549E+01 3.37107E-01 3.13850E-03 1.19101E+00-3.13637E-14-1.98965E-13
 -1      3125 1.98503E+01 4.57919E-01-6.69237E-04 1.08163E+00-2.36735E-14-1.42497E-13
 -1      3126 2.01702E+01 2.75081E-01 7.59152E-04 1.29060E+00 7.51540E-14-2.14712E-13
 -1      3127 2.02628E+01 1.86472E-01 3.69439E-03 1.36203E+00 1.36886E-13-1.88591E-13
 -1      3128 1.98552E+01 3.73592E-01-2.29155E-03 1.27953E+00 6.78312E-15-2.23477E-13
 -1      3129 2.03225E+01 6.47681E-02 3.50997E-03 1.46005E+00 1.52443E-13-2.64428E-13
 -1      3130 2.04670E+01-9.64941E-02 4.15940E-03 1.50781E+00 1.26776E-13-2.91886E-13
 -1      3131 1.99176E+01 1.78137E-01-5.29806E-03 1.48693E+00 9.25887E-14-2.00846E-13
 -1      3132 2.06079E+01-2.99019E-01 8.26860E-03 1.59058E+00 8.78986E-14-2.93062E-13
 -1      3133 2.08309E+01-5.54215E-01 3.84064E-03 1.59153E+00 6.25154E-14-3.13018E-13
 -1      3134 2.00910E+01-1.77820E-01-1.03984E-02 1.68873E+00 1.05491E-13-1.73169E-13
 -1      3135 2.11080E+01-8.51486E-01 1.60192E-02 1.62975E+00 1.50833E-13-2.70134E-13
 -1      3136 2.14352E+01-1.20559E+00 1.41135E-03 1.54693E+00 2.71692E-13-1.65131E-13
 -1      3137 2.04598E+01-7.44776E-01-1.80649E-02 1.85094E+00 1.58566E-13-2.58957E-13
 -1      3138 2.19165E+01-1.57944E+00 2.70286E-02 1.48057E+00 2.44158E-13-1.65758E-13
 -1      3139 2.23558E+01-1.98747E+00-5.03984E-03 1.26198E+00 2.04036E-13-9.46144E-14
 -1      3140 2.11467E+01-1.53952E+00-2.52866E-02 1.89471E+00 3.00931E-13-2.61320E-13
 -1      3141 2.30813E+01-2.34183E+00 3.31476E-02 9.98631E-01 2.19367E-13 1.15838E-13
 -1      3142 2.35943E+01-2.64203E+00-1.72087E-02 5.98430E-01 1.61821E-13 2.72430E-13
 -1      3143 2.22538E+01-2.46310E+00-3.22884E-02 1.67273E+00 3.41241E-13-7.57224E-14
 -1      3144 2.45424E+01-2.78487E+00 1.58906E-02 5.21232E-04 7.01115E-14 2.82954E-13
 -1      3145 2.50433E+01-2.53353E+00 1.29667E-02-5.90157E-01-2.84144E-14 4.69282E-13
 -1      3146 2.38625E+01-3.22253E+00-5.70440E-02 9.31263E-01 1.06452E-13 2.02270E-13
 -1      3147 2.57391E+01-1.57185E+00-5.80989E-02-1.70391E+00-1.89383E-13 5.37005E-13
 -1      3148 2.59756E+01-3.93793E-01 3.30499E-03-2.18299E+00-3.33903E-13 3.98086E-13
 -1      3149 2.60525E+01 3.43988E+00-1.91223E-01-2.05781E+00-4.79602E-13-2.31325E-14
 -1      3150 2.59809E+01 4.55484E+00-1.00123E-01-1.20377E+00-3.90618E-13 5.82173E-15
 -1      3151 2.56907E+01 4.87340E+00-1.43088E-01-1.62539E-01-3.27974E-13-2.86385E-14
 -1      3152 2.57746E+01 4.50869E+00-1.25940E-01 8.32994E-01-3.65347E-13-1.41720E-13
 -1      3153 2.60535E+01 3.30962E+00-6.41260E-02 1.91161E+00-3.72119E-13-1.48680E-13
 -1      3154 2.61036E+01 1.71104E+00-1.44316E-01 2.18547E+00-2.29226E-13 3.04860E-14
 -1      3155 2.61842E+01-1.80331E-01-7.05734E-03 1.97009E+00-1.76276E-13 1.52569E-14
 -1      3156 2.59767E+01-1.50122E+00-4.53751E-02 1.52577E+00-1.60184E-14 1.00968E-13
 -1      3157 2.53156E+01-2.28856E+00-2.10386E-02 7.49595E-01 5.21267E-14 7.02702E-14
 -1      3158 2.48965E+01-2.69914E+00 4.41264E-03 1.36233E-01 1.52780E-13 2.03712E-13
 -1      3159 2.61239E+01-2.28137E+00-3.21928E-02 8.27831E-01 1.90091E-14 2.69071E-13
 -1      3160 2.40252E+01-2.76426E+00-2.28741E-02-5.37800E-01 2.20723E-13 3.95467E-13
 -1      3161 2.35224E+01-2.56868E+00 2.92746E-02-1.03040E+00 2.23456E-13 5.70222E-13
 -1      3162 2.45159E+01-3.14557E+00-1.95220E-02-6.74041E-01 3.01181E-13 4.06521E-13
 -1      3163 2.27483E+01-2.25963E+00-1.05662E-02-1.40472E+00 3.06023E-14 5.78805E-13
 -1      3164 2.22901E+01-1.85766E+00 2.82445E-02-1.68739E+00 1.37079E-13 4.62645E-13
 -1      3165 2.29158E+01-2.69381E+00-2.04102E-02-1.65786E+00 6.83798E-14 6.14192E-13
 -1      3166 2.17468E+01-1.47808E+00-6.03870E-03-1.83616E+00 8.05792E-14 4.83990E-13
 -1      3167 2.13926E+01-1.06805E+00 1.78072E-02-1.95786E+00 1.83023E-13 2.23235E-13
 -1      3168 2.16747E+01-1.86145E+00-3.33814E-02-2.11486E+00 5.84441E-14 4.11797E-13
 -1      3169 2.10661E+01-7.24405E-01-1.16510E-03-1.96438E+00 2.86800E-13-2.28974E-14
 -1      3170 2.08180E+01-3.87369E-01 1.03332E-02-1.97681E+00 2.34808E-13-2.23644E-13
 -1      3171 2.09031E+01-9.60874E-01-1.76458E-02-2.19215E+00 7.13969E-14-2.02880E-14
 -1      3172 2.06604E+01-1.43708E-01 3.11893E-04-1.91540E+00 1.82537E-13-1.20005E-13
 -1      3173 2.04954E+01 1.21585E-01 6.25350E-03-1.85274E+00 6.42749E-14-1.24622E-13
 -1      3174 2.02668E+01 2.40140E-01-4.83887E-03-1.90691E+00-7.46617E-14-3.51438E-13
 -1      3175 2.04805E+01-2.71984E-01-9.97639E-03-2.08785E+00 2.51337E-13-3.40396E-13
 -1      3176 2.00732E+01 1.51552E-01-1.10563E-03-7.54885E-02 1.77677E-13-2.37134E-13
 -1      3177 2.01055E+01 2.16478E-01 3.69602E-03-2.17743E-02 2.15179E-13-2.03231E-13
 -1      3178 1.99880E+01-3.66904E-02 3.74707E-04-1.83126E-01 7.17645E-14-1.98638E-13
 -1      3179 1.99862E+01-3.15878E-02 3.90731E-04-1.86003E-01 1.35974E-13-1.88840E-13
 -1      3180 1.99953E+01-2.31835E-02 2.07837E-04-1.86156E-01 1.43999E-13-1.98649E-13
 -1      3181 1.99983E+01-1.01166E-02 8.78360E-04-1.83627E-01 9.86127E-14-1.84495E-13
 -1      3182 2.00527E+01-2.79586E-02-7.76442E-04-1.81886E-01 1.33928E-13-2.05231E-13
 -1      3183 1.99892E+01-3.08538E-02 5.86088E-04-1.64775E-01 1.04071E-13-2.08214E-13
 -1      3184 1.99820E+01-3.56599E-02-1.82539E-04-1.69452E-01 1.51677E-13-2.34839E-13
 -1      3185 1.99953E+01-1.67574E-02 6.77245E-04-1.58655E-01 8.00320E-14-1.61601E-13
 -1      3186 1.99863E+01-2.48568E-02-3.47966E-04-1.61185E-01 8.74915E-14-1.89036E-13
 -1      3187 2.00208E+01-3.12055E-02-3.55768E-04-1.65235E-01 8.24633E-14-2.09734E-13
 -1      3188 2.00041E+01 2.95664E-03 7.78778E-04-1.59015E-01 7.25127E-14-1.89015E-13
 -1      3189 1.99936E+01-7.93302E-03-4.73335E-04-1.57930E-01 1.10020E-13-1.55268E-13
 -1      3190 2.00180E+01-1.31301E-02-2.76437E-04-1.61775E-01 9.18955E-14-2.79070E-13
 -1      3191 2.00155E+01 2.77577E-02 9.00299E-04-1.68480E-01 1.04739E-13-1.76352E-13
 -1      3192 2.00032E+01 1.42809E-02-5.80704E-04-1.62522E-01 6.40610E-14-1.69256E-13
 -1      3193 2.00176E+01 1.15832E-02-2.14960E-04-1.65307E-01 8.35629E-14-1.77165E-13
 -1      3194 2.00292E+01 5.75502E-02 1.04802E-03-1.89412E-01 3.91222E-14-6.66207E-14
 -1      3195 2.00150E+01 4.14876E-02-6.87506E-04-1.77428E-01 7.92014E-14-1.18221E-13
 -1      3196 2.00189E+01 4.23873E-02-1.63304E-04-1.78483E-01 4.53111E-14-1.09520E-13
 -1      3197 2.00455E+01 9.24745E-02 1.22470E-03-2.24075E-01-3.86406E-15-7.10873E-14
 -1      3198 2.00289E+01 7.37299E-02-8.06384E-04-2.04947E-01 2.19995E-14-9.10232E-14
 -1      3199 2.00212E+01 7.91992E-02-1.14017E-04-2.03706E-01 2.41053E-14-3.96884E-14
 -1      3200 2.00645E+01 1.32682E-01 1.42972E-03-2.74697E-01-1.76277E-14-8.22018E-14
 -1      3201 2.00450E+01 1.11183E-01-9.45545E-04-2.47327E-01 2.64082E-14-6.46727E-14
 -1      3202 2.00239E+01 1.22158E-01-5.93482E-05-2.43276E-01 6.77257E-15-1.31096E-13
 -1      3203 2.00864E+01 1.78043E-01 1.65856E-03-3.43440E-01-5.47739E-14-4.07920E-14
 -1      3204 2.00634E+01 1.53900E-01-1.10804E-03-3.06786E-01-4.75510E-14-2.68908E-14
 -1      3205 2.00264E+01 1.71340E-01 7.00863E-06-2.99439E-01-6.93083E-14 1.40348E-14
 -1      3206 2.01115E+01 2.27729E-01 1.90306E-03-4.32250E-01-8.22733E-15-2.22232E-15
 -1      3207 2.00842E+01 2.01468E-01-1.28955E-03-3.85431E-01-4.12463E-14-3.27035E-14
 -1      3208 2.00277E+01 2.26384E-01 8.79483E-05-3.74353E-01-6.33645E-14 1.79784E-14
 -1      3209 2.01403E+01 2.79607E-01 2.15261E-03-5.42580E-01 9.50519E-14 3.65330E-14
 -1      3210 2.01080E+01 2.52511E-01-1.47432E-03-4.85062E-01 7.74559E-14 4.64876E-14
 -1      3211 2.00273E+01 2.85975E-01 1.79106E-04-4.69961E-01-1.06159E-14 4.40753E-14
 -1      3212 2.01738E+01 3.29331E-01 2.39665E-03-6.74931E-01 1.68510E-14 1.13771E-13
 -1      3213 2.01354E+01 3.03939E-01-1.62828E-03-6.06832E-01 5.57343E-14 7.20399E-14
 -1      3214 2.00246E+01 3.47073E-01 2.60136E-04-5.87757E-01 2.51067E-14 1.76463E-13
 -1      3215 2.02143E+01 3.69014E-01 2.62943E-03-8.28191E-01-5.73762E-14 1.23623E-13
 -1      3216 2.01682E+01 3.49860E-01-1.68745E-03-7.50718E-01-1.98445E-14 1.03909E-13
 -1      3217 2.00199E+01 4.03801E-01 2.80080E-04-7.28465E-01-1.05278E-15 1.85807E-13
 -1      3218 2.02670E+01 3.85396E-01 2.85463E-03-9.98695E-01 3.35410E-14 3.57051E-14
 -1      3219 2.02102E+01 3.80005E-01-1.53957E-03-9.14778E-01 3.50802E-15 1.02462E-13
 -1      3220 2.00153E+01 4.45843E-01 1.32951E-04-8.91607E-01-2.75534E-14 8.51987E-14
 -1      3221 2.03424E+01 3.57534E-01 3.08037E-03-1.17890E+00-8.50791E-14 9.24511E-14
 -1      3222 2.02696E+01 3.77646E-01-9.96322E-04-1.09407E+00 6.07768E-14 8.99694E-14
 -1      3223 2.00168E+01 4.56274E-01-3.80263E-04-1.07495E+00 1.11624E-14 1.67825E-13
 -1      3224 2.04607E+01 2.54532E-01 3.28576E-03-1.35539E+00-1.23297E-13 4.51047E-14
 -1      3225 2.03621E+01 3.17215E-01 2.44300E-04-1.27904E+00-1.35764E-13 6.50337E-15
 -1      3226 2.00375E+01 4.08890E-01-1.60389E-03-1.27367E+00-4.86365E-14 1.70295E-13
 -1      3227 2.06567E+01 3.48902E-02 3.32936E-03-1.50563E+00-1.40858E-13-1.76565E-15
 -1      3228 2.05165E+01 1.62586E-01 2.64999E-03-1.45282E+00-9.72330E-14 4.13629E-14
 -1      3229 2.01032E+01 2.65716E-01-4.07470E-03-1.47876E+00-9.25134E-14 1.74584E-14
 -1      3230 2.09854E+01-3.48721E-01 2.72186E-03-1.59223E+00-8.71000E-14-3.40869E-14
 -1      3231 2.07810E+01-1.31497E-01 6.91349E-03-1.58643E+00-1.07814E-13 4.15264E-14
 -1      3232 2.02598E+01-2.34217E-02-8.49604E-03-1.67335E+00-1.04522E-13-8.96559E-14
 -1      3233 2.15225E+01-9.30585E-01 2.39315E-04-1.55288E+00-8.02904E-14 3.64551E-14
 -1      3234 2.12285E+01-6.09149E-01 1.39201E-02-1.62940E+00-5.10016E-14 2.70248E-14
 -1      3235 2.05826E+01-5.14748E-01-1.54278E-02-1.82428E+00-1.01461E-13-3.46583E-14
 -1      3236 2.23441E+01-1.68091E+00-6.80826E-03-1.28741E+00-1.22375E-13 1.93283E-13
 -1      3237 2.19491E+01-1.28095E+00 2.34836E-02-1.49411E+00-8.78605E-14 1.10188E-13
 -1      3238 2.11820E+01-1.24361E+00-2.43404E-02-1.86107E+00-1.47197E-13-3.21106E-14
 -1      3239 2.34904E+01-2.40018E+00-1.45061E-02-6.55526E-01-6.05037E-14 2.47582E-13
 -1      3240 2.30146E+01-2.05317E+00 3.24625E-02-1.04467E+00-8.93450E-14 2.31080E-13
 -1      3241 2.21814E+01-2.16609E+00-3.72109E-02-1.65235E+00-2.23644E-13-3.37438E-14
 -1      3242 2.48275E+01-2.63973E+00 1.53268E-03 4.08133E-01-1.26472E-13 1.36495E-13
 -1      3243 2.43822E+01-2.61102E+00 2.85532E-02-1.37209E-01-2.84573E-14 2.43374E-13
 -1      3244 2.36332E+01-2.98371E+00-5.30090E-02-9.66451E-01-3.42400E-14-1.04293E-13
 -1      3245 2.66624E+01-1.28877E+00-6.59281E-02 1.90730E+00 7.74519E-14-1.02928E-13
 -1      3246 2.62485E+01-2.26405E+00-2.46801E-02 1.21741E+00-1.20227E-13-4.85991E-14
 -1      3247 2.68572E+01 1.18397E-01-5.85668E-02 2.16037E+00 1.99757E-13-1.47819E-13
 -1      3248 2.57571E+01 4.19354E+00-1.00890E-01 1.39552E+00 3.90188E-13 4.18623E-14
 -1      3249 2.58269E+01 3.14721E+00-1.39908E-01 2.13583E+00 4.53373E-13-4.07192E-14
 -1      3250 2.56003E+01 4.11958E+00-1.65428E-01-9.97851E-01 3.90368E-13-1.60409E-13
 -1      3251 2.56277E+01 4.55474E+00-1.00642E-01 6.35865E-02 4.33042E-13-1.52645E-13
 -1      3252 2.52820E+01-2.56745E+00 5.24567E-03-4.79685E-01-1.40901E-13-6.71897E-13
 -1      3253 2.56189E+01-2.08793E+00-2.33419E-02-1.06837E+00-1.88161E-13-6.99337E-13
 -1      3254 2.39006E+01-2.57509E+00 3.19434E-02 7.97246E-01-1.09174E-13-4.35464E-13
 -1      3255 2.43787E+01-2.71225E+00-2.11391E-02 2.61914E-01-3.08568E-14-4.69144E-13
 -1      3256 2.49162E+01-3.20618E+00-3.64512E-02 4.78946E-01-2.77749E-13-7.59632E-13
 -1      3257 2.26066E+01-1.89859E+00 3.05844E-02 1.59466E+00 1.82943E-13-4.55059E-13
 -1      3258 2.30714E+01-2.29204E+00-1.29697E-02 1.25044E+00 1.44607E-14-4.37588E-13
 -1      3259 2.32188E+01-2.86316E+00-3.35288E-02 1.61137E+00-6.80669E-14-5.20316E-13
 -1      3260 2.16411E+01-1.10209E+00 2.13512E-02 1.95393E+00 2.20490E-14-2.58164E-13
 -1      3261 2.20182E+01-1.50506E+00-3.33182E-03 1.78332E+00 1.35135E-13-3.38241E-13
 -1      3262 2.18885E+01-1.95167E+00-3.09066E-02 2.13769E+00 5.68016E-14-5.61344E-13
 -1      3263 2.10185E+01-4.20523E-01 1.67467E-02 2.02547E+00-8.72576E-14-1.50825E-13
 -1      3264 2.12806E+01-7.50836E-01 6.55069E-04 1.98040E+00 3.86084E-15-2.77669E-13
 -1      3265 2.10270E+01-1.02973E+00-2.27987E-02 2.26907E+00-1.16767E-13-5.08608E-14
 -1      3266 2.60941E+01-3.40330E+00-1.11076E-01 5.73197E-02-1.08903E-13 2.37589E-13
 -1      3267 2.49328E+01-3.98717E+00 7.60452E-02 1.42398E+00 7.60364E-14 2.83381E-13
 -1      3268 1.81124E+01 1.57492E+00-2.30487E-03-3.33699E-01 9.55790E-14-2.71940E-13
 -1      3269 1.80774E+01 1.59152E+00-5.44347E-03 6.91299E-02 9.02613E-14-2.71032E-13
 -1      3270 1.96599E+01 6.71375E-01 8.65832E-03-1.89522E+00-9.67001E-14-6.71549E-14
 -1      3271 1.93349E+01 8.24456E-01-1.07548E-02-1.82138E+00 1.19151E-13-2.05114E-14
 -1      3272 1.84412E+01 1.38952E+00 7.47859E-03-1.11461E+00-1.10528E-14-1.26782E-13
 -1      3273 1.82346E+01 1.47460E+00-1.23532E-02-7.76769E-01 1.12009E-13-1.88306E-13
 -1      3274 1.78486E+01 1.39806E+00 1.08065E-02-6.20819E-01 1.19423E-13-2.64169E-13
 -1      3275 2.69189E+01-2.36844E+00-7.24138E-02-8.39217E-01-6.44415E-14-9.52446E-13
 -1      3276 2.63489E+01-3.66673E+00 3.11478E-02 5.17826E-01-2.50945E-13-7.97910E-13
 -1      3277 9.74632E+00-9.78465E-02 8.87339E-02-1.39615E+00 2.64788E-14 2.79776E-14
 -1      3278 1.06217E+01-6.70945E-01 6.99580E-02-3.22793E+00-2.58682E-14 2.40905E-13
 -1      3279 2.67748E+01 2.02570E+00-6.84286E-02-2.35425E+00-6.44512E-13 3.93158E-14
 -1      3280 2.62185E+01 3.30369E+00-8.39248E-02-1.77392E+00 3.48638E-13-3.71453E-13
 -1      3281 1.22757E+01-1.36721E+00 1.32490E-01-4.37926E+00-1.29230E-13 4.74010E-13
 -1      3282 1.45369E+01-2.59989E+00-3.40131E-02-5.39228E+00-4.23064E-14 3.75658E-13
 -1      3283 2.01242E+01 2.93949E-01-1.97059E-03 4.57437E-02 2.30995E-13-2.14676E-13
 -1      3284 2.01694E+01 3.94842E-01 4.41591E-03 1.36296E-01 2.49723E-13-2.20641E-13
 -1      3285 2.01907E+01 3.16650E-01-1.45751E-03 3.75724E-02 2.26184E-13-2.08279E-13
 -1      3286 1.14636E+01-6.82185E-01 1.02373E-01-3.51627E+00 8.90850E-14-5.66408E-13
 -1      3287 1.38190E+01-1.84695E+00 6.24620E-02-4.74819E+00-1.01481E-13-3.84331E-13
 -1      3288 2.02145E+01 1.77866E+00 6.18938E-03-9.24066E-01-3.08598E-13-5.27514E-13
 -1      3289 2.63149E+01 1.78104E+00-1.77157E-01-2.27937E+00 2.40745E-13-5.26659E-13
 -1      3290 1.90183E+01 1.04805E+00 1.24156E-02-1.65637E+00 7.76143E-14 6.32324E-14
 -1      3291 1.87099E+01 1.18063E+00-1.35236E-02-1.44208E+00-3.16316E-15-1.57734E-14
 -1      3292 1.83285E+01 1.11288E+00 6.21083E-03-1.42514E+00 8.85399E-14-1.06208E-13
 -1      3293 1.90146E+01 7.09472E-01-8.55715E-03-1.90409E+00 1.34215E-13-2.32671E-14
 -1      3294 2.50279E+01-4.06676E+00 4.71008E-02-1.37257E+00-1.36992E-13-3.91388E-14
 -1      3295 2.60011E+01-3.12624E+00-6.23512E-02 2.04151E-01-7.88887E-14-6.48682E-14
 -1      3296 2.17133E+01-4.59301E+00-3.40874E-02 4.37435E+00-2.82149E-13-5.47132E-13
 -1      3297 1.89007E+01-3.65322E+00 7.77227E-02 5.07694E+00-2.56913E-13 5.62120E-14
 -1      3298 2.00575E+01 6.63706E-01-2.42179E-03 1.80911E+00 1.10644E-13-1.90917E-13
 -1      3299 1.99865E+01-3.81741E-02 4.91703E-04-1.74251E-01 1.27262E-13-2.02215E-13
 -1      3300 1.99815E+01-3.87694E-02 5.15342E-05-1.79239E-01 7.82271E-14-1.89677E-13
 -1      3301 2.00370E+01-4.14963E-02-5.99288E-04-1.79814E-01 9.15902E-14-1.92668E-13
 -1      3302 2.00268E+01-4.13995E-02-4.61305E-04-1.72554E-01 1.27923E-13-1.71465E-13
 -1      3303 2.38224E+01-4.70088E+00 3.89827E-02-3.21767E+00 1.10849E-13 2.59470E-13
 -1      3304 2.56822E+01-4.37684E+00-4.62901E-02-1.70250E+00 1.99563E-13 4.62467E-13
 -1      3305 9.17666E+00 2.34110E-01 1.17767E-01 2.91306E-01 3.04146E-13-2.86410E-13
 -1      3306 9.85199E+00 3.89106E-02 6.13607E-02-1.63727E+00 2.64250E-13-4.91648E-13
 -1      3307 1.67380E+01-3.07060E+00 6.62380E-02-5.11181E+00-2.57724E-13-2.78860E-13
 -1      3308 1.92908E+01-4.16865E+00-2.84694E-03-4.97528E+00-2.26853E-13-8.71386E-14
 -1      3309 2.02700E+01 7.10722E-01 3.08775E-03-3.50414E-01-2.37066E-13-3.72126E-13
 -1      3310 2.02269E+01 5.50818E-01-3.76561E-03-2.15975E-01-2.02029E-13-3.64815E-13
 -1      3311 2.02749E+01 5.79216E-01-2.71119E-04-1.90572E-01-1.76226E-13-3.43273E-13
 -1      3312 1.09681E+01-9.05015E-01 7.77129E-03 3.78545E+00 3.13242E-13-4.93050E-13
 -1      3313 9.53121E+00-7.47156E-02 1.04008E-01 1.94184E+00 3.00997E-13-2.99649E-13
 -1      3314 1.09488E+01 3.62880E-01 1.24485E-01 1.09065E+00 3.00737E-13-3.94976E-13
 -1      3315 1.78550E+01-3.49327E+00 1.48696E-01-5.45756E+00 9.33975E-15 2.09058E-13
 -1      3316 2.09362E+01-4.51904E+00-3.56999E-02-4.71942E+00-4.17166E-14 7.37119E-14
 -1      3317 2.02909E+01 9.89262E-01-2.46601E-04 6.92258E-01 4.20037E-13-2.06572E-13
 -1      3318 2.02679E+01 1.30632E+00 3.03193E-03 7.73513E-01 4.26478E-13-2.36294E-13
 -1      3319 2.02743E+01 1.12751E+00 6.50617E-04 5.96695E-01 3.55761E-13-2.47114E-13
 -1      3320 2.02303E+01 7.75773E-01-4.21275E-03 4.86250E-01 3.52645E-13-2.11123E-13
 -1      3321 2.30895E+01-4.56076E+00-6.79833E-02 3.12837E+00 2.86070E-13 1.52689E-13
 -1      3322 2.04673E+01-3.93669E+00 7.03387E-02 4.29319E+00 4.74905E-13-2.85258E-14
 -1      3323 2.02758E+01 1.34979E+00-2.32786E-03-7.62738E-01-2.82000E-13-4.66028E-13
 -1      3324 2.02575E+01 9.63709E-01-3.63664E-03-4.81637E-01-2.50221E-13-4.31534E-13
 -1      3325 2.02886E+01 1.00147E+00 2.27353E-03-4.27653E-01-2.18875E-13-4.09535E-13
 -1      3326 2.02032E+01 1.67018E+00 2.46432E-03-7.14051E-01-2.19682E-13-5.26444E-13
 -1      3327 2.67559E+01 1.57831E-01-5.34845E-02-2.03795E+00 9.83380E-14-6.22648E-13
 -1      3328 1.04218E+01-4.30228E-01 1.01224E-01 2.80739E+00-1.35628E-13-1.71779E-13
 -1      3329 9.64914E+00 4.43918E-02 9.41975E-02 6.36893E-01-7.08123E-14-2.91225E-13
 -1      3330 1.68086E+01-3.04259E+00-8.52499E-03 5.07092E+00 5.12479E-13-3.76005E-13
 -1      3331 1.36565E+01-1.71873E+00 1.59529E-01 4.78732E+00 3.65138E-13-6.03441E-13
 -1      3332 2.00484E+01 2.15985E+00-4.29757E-03 2.93141E-01 2.11246E-13-6.02421E-13
 -1      3333 2.00352E+01 2.19848E+00-3.41014E-03 1.71107E-01 1.49559E-13-6.14430E-13
 -1      3334 2.52196E+01-4.51780E+00-7.47774E-02 2.00595E+00-3.73986E-13-5.12411E-13
 -1      3335 2.38096E+01-4.60650E+00 7.81301E-02 3.17659E+00-3.53908E-13-6.54535E-13
 -1      3336 2.25782E+01-4.09563E+00 2.24917E-02 3.39059E+00-2.85553E-13-6.13491E-13
 -1      3337 2.52206E+01-3.74040E+00-3.96114E-03 1.01359E+00-3.58167E-13-7.18564E-13
 -1      3338 2.66529E+01-1.28647E+00-6.41744E-02-1.72484E+00-7.63278E-14-7.05158E-13
 -1      3339 2.00288E+01 2.21727E+00-3.56590E-03 6.62515E-02 1.17367E-13-6.00444E-13
 -1      3340 2.00273E+01 2.21601E+00-4.38071E-03-5.86102E-02 6.24508E-14-6.08743E-13
 -1      3341 2.01421E+01 1.92201E+00 4.94019E-03 1.01806E-01 1.31244E-13-5.68158E-13
 -1      3342 2.02530E+01 1.46032E+00 5.93386E-03 5.87103E-01 3.43211E-13-3.39394E-13
 -1      3343 2.01606E+01 1.80065E+00-6.92404E-03 6.86883E-01 3.73276E-13-3.97459E-13
 -1      3344 2.01260E+01 1.93003E+00-2.47357E-03 5.91076E-01 3.23296E-13-4.56149E-13
 -1      3345 1.91211E+01 9.74465E-01-1.41015E-02 1.77667E+00-3.03574E-14-1.09177E-13
 -1      3346 1.94753E+01 8.35375E-01 1.72916E-02 1.90501E+00-5.14634E-14-6.13173E-14
 -1      3347 2.06899E+01-3.15834E+00 3.25264E-02 3.45179E+00 5.51879E-13-9.77933E-14
 -1      3348 1.90917E+01-3.26811E+00 5.95891E-02 4.51984E+00 5.17579E-13-4.49137E-14
 -1      3349 1.75447E+01-2.23669E+00 1.19138E-02 4.23266E+00 4.67338E-13-1.60580E-13
 -1      3350 2.58656E+01-2.39410E+00-1.02245E-02-8.80866E-01-1.13383E-13 2.73132E-13
 -1      3351 2.67631E+01 3.13249E-01-1.09379E-01-2.35051E+00-5.61384E-13 1.84540E-13
 -1      3352 1.29509E+01-6.45956E-01 1.34091E-01-3.45276E+00-1.05790E-13 5.09606E-13
 -1      3353 2.66209E+01 1.59741E-01-4.71165E-02 2.06177E+00-2.56919E-13 1.91382E-13
 -1      3354 1.51993E+01-1.31153E+00 2.40795E-02-4.03633E+00-1.09010E-13-9.40914E-15
 -1      3355 1.59243E+01-2.20010E+00 8.96009E-02-4.71235E+00-2.29865E-13-1.84491E-13
 -1      3356 1.77926E+01-2.43921E+00 1.43766E-02-4.28171E+00-3.06864E-13-5.27287E-14
 -1      3357 2.25771E+01-4.44854E+00 4.27178E-02-3.80250E+00-4.80518E-15-1.86606E-14
 -1      3358 2.34943E+01-4.04698E+00 1.21405E-02-2.63147E+00 1.50196E-13 2.43069E-13
 -1      3359 2.09903E+01-3.68237E+00 1.22564E-02-4.06468E+00 1.23200E-14 3.34732E-14
 -1      3360 2.01759E+01 4.86539E-01-2.66993E-03 2.22977E-01 2.91400E-13-2.31228E-13
 -1      3361 2.02321E+01 6.34917E-01 4.15841E-03 3.62563E-01 3.13243E-13-2.18034E-13
 -1      3362 2.02606E+01 7.95672E-01 9.93510E-04 4.24090E-01 3.28867E-13-2.32276E-13
 -1      3363 2.02303E+01 5.24655E-01-9.03768E-04 2.02127E-01 2.68005E-13-2.42423E-13
 -1      3364 2.51394E+01-3.74940E+00-1.38447E-02-1.07226E+00 2.36027E-13 4.17234E-13
 -1      3365 2.62354E+01-3.66023E+00-7.17749E-03-5.25104E-01 1.05901E-13 3.45758E-13
 -1      3366 2.01311E+01 1.90319E+00-2.23339E-03-5.49231E-01-1.33244E-13-5.71663E-13
 -1      3367 2.01606E+01 1.77908E+00-7.47139E-03-6.44686E-01-1.90480E-13-5.69687E-13
 -1      3368 2.02559E+01 1.41726E+00 3.96036E-03-5.16236E-01-1.83574E-13-5.08713E-13
 -1      3369 2.00750E+01 4.57686E-03-9.88355E-04-1.71903E-01 9.74541E-14-2.12127E-13
 -1      3370 2.00104E+01 7.21594E-03-4.94652E-05-1.76238E-01 3.56236E-14-1.62749E-13
 -1      3371 2.00202E+01 3.16288E-02 1.56418E-03-1.63756E-01 6.41734E-14-2.15345E-13
 -1      3372 2.66992E+01 1.82825E+00-1.02958E-01 2.63982E+00 2.66370E-13-1.32047E-13
 -1      3373 1.27074E+01-6.33017E-01 1.10335E-01 3.29219E+00-1.56083E-13-5.56083E-14
 -1      3374 1.12492E+01 2.75114E-01 1.21677E-01-2.83307E-01-1.30322E-13-1.42789E-13
 -1      3375 2.36993E+01-3.71209E+00 1.85819E-02 1.84051E+00 2.29412E-13 1.20498E-13
 -1      3376 2.07655E+01-1.93650E-01 5.82877E-04 2.01498E+00-7.61672E-14-7.33762E-14
 -1      3377 2.04906E+01-3.38785E-01-1.63209E-02 2.23112E+00-1.38943E-13-2.28459E-14
 -1      3378 2.05724E+01 3.00844E-02 1.23221E-02 2.01440E+00 6.37261E-14-6.11854E-14
 -1      3379 1.85156E+01 1.31608E+00-1.46630E-02 1.29246E+00-4.22378E-14-9.58215E-14
 -1      3380 1.88076E+01 1.19861E+00 1.10383E-02 1.56023E+00-8.38844E-14 1.68136E-13
 -1      3381 1.87871E+01 8.89404E-01-3.57381E-04 1.82737E+00-2.14635E-13-9.38305E-14
 -1      3382 2.00356E+01 6.17881E-02-4.59267E-04-1.43706E-01 1.09184E-13-2.08965E-13
 -1      3383 2.00551E+01 1.02613E-01 2.49685E-03-1.14968E-01 1.31749E-13-2.22405E-13
 -1      3384 2.01053E+01 6.40485E-02-1.21472E-03-1.40662E-01 7.84486E-14-2.06805E-13
 -1      3385 1.81374E+01 1.54723E+00-1.02495E-02 5.39708E-01-2.81521E-14-2.41476E-13
 -1      3386 1.82921E+01 1.48695E+00 4.43952E-03 9.13153E-01-2.01844E-14-3.01153E-13
 -1      3387 1.81222E+01 1.25267E+00 7.39080E-03 1.22074E+00-1.58766E-13-1.79272E-13
 -1      3388 1.77712E+01 1.45152E+00 1.19721E-02 3.33413E-01-1.68501E-13-1.91345E-13
 -1      3389 1.76508E+01-2.98438E+00 6.29220E-02 5.09868E+00-1.84415E-13-1.65562E-14
 -1      3390 1.62462E+01-2.01488E+00 2.42102E-02 4.63078E+00-1.22239E-13-6.09825E-14
 -1      3391 1.95188E+01-3.00391E+00 4.51093E-02 4.33115E+00-1.89685E-13-2.27825E-13
 -1      3392 2.35721E+01-4.53666E+00-5.82532E-02-2.82018E+00-1.68129E-13-1.41519E-14
 -1      3393 2.37331E+01-3.58906E+00 2.43529E-02-1.70060E+00-1.33638E-13-1.93957E-13
 -1      3394 2.28405E+01-3.10937E+00 5.94257E-02-2.10353E+00-1.12022E-13-2.00797E-13
 -1      3395 2.14957E+01-4.25430E+00 9.11765E-02-3.99165E+00-1.86275E-13-7.26073E-14
 -1      3396 2.01444E+01 1.62239E-01-1.39512E-03-7.59983E-02 1.51721E-13-2.06722E-13
 -1      3397 2.01014E+01 1.98622E+00-5.83906E-03-4.65648E-01-9.05158E-14-6.00409E-13
 -1      3398 2.02181E+01 1.62931E+00 4.86323E-03-3.89290E-01-1.08859E-13-5.47190E-13
 -1      3399 2.00800E+01 2.06461E+00-2.57319E-03-3.52602E-01-3.85769E-14-5.80916E-13
 -1      3400 2.08822E+01-3.59125E+00 5.91625E-02-3.79404E+00-2.87124E-13-5.04839E-14
 -1      3401 1.14171E+01-6.76498E-03 1.10942E-01-2.50154E+00 1.63649E-13-5.47840E-13
 -1      3402 1.31405E+01-2.39460E-01 4.03163E-02-2.95238E+00 8.65709E-14-3.87246E-13
 -1      3403 1.17782E+01 4.73270E-01 4.65816E-02-1.39685E+00 1.65777E-13-4.01838E-13
 -1      3404 1.98099E+01 6.03253E-01-1.46875E-02 1.95859E+00 2.77800E-13 3.37874E-14
 -1      3405 2.02940E+01 3.86488E-01 1.44218E-02 1.92037E+00 1.73708E-13-1.46539E-13
 -1      3406 2.04330E+01 1.81073E-01 4.45989E-03 1.97716E+00 2.27918E-13-9.17027E-14
 -1      3407 1.96055E+01 4.89483E-01-4.62297E-03 2.08267E+00 5.24381E-14-2.31506E-13
 -1      3408 1.71110E+01-2.56719E+00 1.07294E-01-4.84293E+00-2.49661E-14 2.52562E-13
 -1      3409 2.00933E+01 2.02402E+00-5.41921E-03 5.05732E-01 2.99363E-13-4.97110E-13
 -1      3410 2.00685E+01 2.10431E+00-3.06033E-03 3.92211E-01 2.46212E-13-5.56049E-13
 -1      3411 2.01646E+01 1.84681E+00 5.22555E-03 2.91870E-01 1.98500E-13-5.35439E-13
 -1      3412 2.02045E+01 1.69518E+00 5.74182E-03 4.60775E-01 2.86218E-13-4.46054E-13
 -1      3413 1.35349E+01-9.12496E-01 1.16512E-01 3.79196E+00 2.53148E-13-5.06803E-13
 -1      3414 2.70457E+01-2.69016E+00-3.40328E-02 2.99370E-01 2.61700E-14 4.33036E-13
 -1      3415 2.72740E+01-1.11059E+00-1.37567E-01 1.58323E+00-1.13409E-13 4.26215E-13
 -1      3416 2.00702E+01 3.67722E-01 5.44545E-03-1.93649E+00-8.34018E-14-2.21176E-13
 -1      3417 1.98481E+01 5.21921E-01-4.56362E-03-1.92357E+00-8.91266E-14 5.82039E-14
 -1      3418 1.96877E+01 3.74542E-01 1.87409E-03-2.05796E+00 2.80317E-14 4.47483E-15
 -1      3419 2.01523E+01 1.25346E-01 3.58219E-03-2.04720E+00 1.82362E-13-2.98464E-13
 -1      3420 2.02698E+01 2.39294E-01 2.12115E-03 3.92049E-02-1.29447E-13-3.17374E-13
 -1      3421 2.02455E+01 1.64914E-01-1.26297E-03 8.05267E-02-1.46206E-13-3.25197E-13
 -1      3422 2.02307E+01 1.07247E-01 1.57943E-03 1.07252E-01-1.44473E-13-3.03223E-13
 -1      3423 2.02095E+01 6.00220E-02-6.08928E-04 1.30017E-01-1.09948E-13-2.92139E-13
 -1      3424 2.02875E+01 1.63622E-01-4.46387E-04 7.73382E-02-1.13959E-13-3.24116E-13
 -1      3425 2.01919E+01 2.46477E-02 1.07698E-03 1.43405E-01-1.10997E-13-2.74919E-13
 -1      3426 2.01745E+01-3.04440E-03-1.53987E-04 1.53720E-01-1.06038E-13-2.74652E-13
 -1      3427 2.02498E+01 5.63517E-02-5.87647E-04 1.20552E-01-1.11587E-13-2.60313E-13
 -1      3428 2.01564E+01-2.24382E-02 6.55351E-04 1.58419E-01-8.34885E-14-2.83914E-13
 -1      3429 2.01427E+01-3.60634E-02 1.52234E-04 1.61119E-01-5.95486E-14-2.78557E-13
 -1      3430 2.02111E+01-7.45176E-03-6.13949E-04 1.41381E-01-7.66974E-14-2.63623E-13
 -1      3431 2.01253E+01-4.39468E-02 3.18932E-04 1.60851E-01-5.45504E-14-2.70437E-13
 -1      3432 2.01149E+01-4.73774E-02 3.53524E-04 1.59636E-01-2.53822E-14-2.62524E-13
 -1      3433 2.01743E+01-3.97042E-02-5.73607E-04 1.48142E-01-5.77023E-14-2.79816E-13
 -1      3434 2.00986E+01-4.68664E-02 5.25455E-05 1.57278E-01-6.26150E-14-2.72398E-13
 -1      3435 2.00908E+01-4.27713E-02 4.85586E-04 1.54946E-01-1.16766E-13-2.37356E-13
 -1      3436 2.01406E+01-4.89626E-02-4.94533E-04 1.47435E-01-5.66627E-14-3.14595E-13
 -1      3437 2.00757E+01-3.59656E-02-1.64140E-04 1.52705E-01-1.27805E-13-2.69329E-13
 -1      3438 2.00701E+01-2.61036E-02 5.75567E-04 1.51391E-01-1.19388E-13-2.60661E-13
 -1      3439 2.01102E+01-4.11915E-02-3.92974E-04 1.44364E-01-1.20163E-13-3.88066E-13
 -1      3440 2.00558E+01-1.43439E-02-3.50666E-04 1.50983E-01-8.35267E-14-2.62852E-13
 -1      3441 2.00517E+01 2.09761E-04 6.43651E-04 1.52362E-01-5.93014E-14-2.58817E-13
 -1      3442 2.00824E+01-2.03615E-02-2.75978E-04 1.42880E-01-9.05383E-14-3.35420E-13
 -1      3443 2.00376E+01 1.61491E-02-5.25097E-04 1.55176E-01-1.03039E-13-1.88523E-13
 -1      3444 2.00344E+01 3.48191E-02 7.03404E-04 1.60627E-01-1.29192E-13-1.73253E-13
 -1      3445 2.00562E+01 1.10670E-02-1.44880E-04 1.46102E-01-4.35931E-14-2.05246E-13
 -1      3446 2.00197E+01 5.45588E-02-7.01965E-04 1.67848E-01-1.01916E-13-1.66335E-13
 -1      3447 2.00170E+01 7.71044E-02 7.64122E-04 1.78570E-01-7.68399E-14-1.27238E-13
 -1      3448 2.00301E+01 5.17330E-02-1.66673E-07 1.56611E-01-9.96990E-14-1.60173E-13
 -1      3449 2.00006E+01 1.00510E-01-8.93105E-04 1.91274E-01-1.37689E-13-1.10560E-13
 -1      3450 1.99978E+01 1.26870E-01 8.31901E-04 2.08369E-01-1.58453E-13-8.73842E-14
 -1      3451 2.00022E+01 1.01024E-01 1.62687E-04 1.76651E-01-8.42480E-14-1.73728E-13
 -1      3452 1.99786E+01 1.53892E-01-1.10646E-03 2.27591E-01-1.78104E-13-3.96823E-14
 -1      3453 1.99750E+01 1.84005E-01 9.10055E-04 2.52105E-01-1.35291E-13-8.43145E-14
 -1      3454 1.99704E+01 1.58721E-01 3.46004E-04 2.08298E-01-1.60872E-13-6.80031E-14
 -1      3455 1.99517E+01 2.14484E-01-1.34546E-03 2.78874E-01-6.69180E-14-8.33085E-14
 -1      3456 1.99468E+01 2.48071E-01 1.00112E-03 3.11791E-01-3.21596E-14-1.25063E-13
 -1      3457 1.99323E+01 2.24614E-01 5.53473E-04 2.53563E-01-1.08535E-13-5.67418E-15
 -1      3458 1.99180E+01 2.81505E-01-1.60954E-03 3.47133E-01-1.83569E-14-1.03050E-13
 -1      3459 1.99111E+01 3.17803E-01 1.11014E-03 3.89347E-01 2.23147E-14-8.33792E-14
 -1      3460 1.98852E+01 2.98033E-01 7.84950E-04 3.14427E-01-1.86510E-14-1.32689E-14
 -1      3461 1.98755E+01 3.53038E-01-1.89173E-03 4.34288E-01 3.69403E-14-9.51382E-14
 -1      3462 1.98664E+01 3.90438E-01 1.24936E-03 4.86535E-01 3.52724E-14-9.51051E-14
 -1      3463 1.98263E+01 3.77285E-01 1.03248E-03 3.92861E-01 5.60683E-14-4.48164E-14
 -1      3464 1.98227E+01 4.25244E-01-2.17634E-03 5.42107E-01 2.21403E-14-7.91210E-14
 -1      3465 1.98114E+01 4.60804E-01 1.44648E-03 6.04889E-01 6.99149E-14-1.53990E-13
 -1      3466 1.97531E+01 4.58910E-01 1.27628E-03 4.90859E-01 2.24130E-14-8.49966E-14
 -1      3467 1.97591E+01 4.91308E-01-2.43540E-03 6.72175E-01 1.07787E-13-2.42223E-13
 -1      3468 1.97468E+01 5.20097E-01 1.75710E-03 7.45679E-01 8.21377E-14-2.25634E-13
 -1      3469 1.96636E+01 5.36686E-01 1.47448E-03 6.10530E-01 1.55054E-14-1.00192E-13
 -1      3470 1.96864E+01 5.40023E-01-2.62042E-03 8.25931E-01 7.71133E-15-2.41059E-13
 -1      3471 1.96763E+01 5.54273E-01 2.28032E-03 9.09968E-01-3.42914E-14-2.30385E-13
 -1      3472 1.95573E+01 6.00324E-01 1.54692E-03 7.54350E-01 1.69862E-14-2.04572E-13
 -1      3473 1.96104E+01 5.53989E-01-2.64403E-03 1.00484E+00-9.25854E-14-1.69023E-13
 -1      3474 1.96091E+01 5.42035E-01 3.17065E-03 1.09878E+00-6.52800E-14-2.49249E-13
 -1      3475 1.94370E+01 6.33768E-01 1.34720E-03 9.25680E-01-2.84687E-14-2.18538E-13
 -1      3476 1.95445E+01 5.07430E-01-2.33865E-03 1.21062E+00-4.37275E-14-3.09991E-13
 -1      3477 1.95643E+01 4.52518E-01 4.63980E-03 1.31312E+00-3.79253E-15-3.09078E-13
 -1      3478 1.93108E+01 6.13013E-01 6.13478E-04 1.12958E+00-8.47999E-14-2.17002E-13
 -1      3479 1.95146E+01 3.63961E-01-1.34187E-03 1.44502E+00 6.52850E-14-2.70557E-13
 -1      3480 1.95772E+01 2.43219E-01 6.90665E-03 1.55315E+00 6.06949E-14-2.98733E-13
 -1      3481 1.91969E+01 5.03433E-01-1.09973E-03 1.37365E+00 3.61708E-14-3.11388E-13
 -1      3482 1.95682E+01 7.51731E-02 1.09152E-03 1.70787E+00 6.93848E-14-2.06390E-13
 -1      3483 1.97079E+01-1.40536E-01 9.96306E-03 1.81441E+00 1.72172E-13-1.62256E-13
 -1      3484 1.91303E+01 2.56969E-01-4.49419E-03 1.66808E+00 1.28276E-13-2.99766E-13
 -1      3485 1.97859E+01-4.17205E-01 6.49420E-03 1.98963E+00 1.74154E-13-1.74713E-13
 -1      3486 2.00545E+01-7.58870E-01 1.40998E-02 2.07584E+00 2.54085E-13-1.66808E-13
 -1      3487 1.91758E+01-1.89823E-01-1.04855E-02 2.02127E+00 1.77400E-13-2.24616E-13
 -1      3488 2.02979E+01-1.17674E+00 1.58005E-02 2.25340E+00 2.50341E-13-2.04355E-13
 -1      3489 2.07390E+01-1.66596E+00 9.79770E-03 2.27513E+00 3.20956E-13-2.07646E-13
 -1      3490 1.94423E+01-9.10854E-01-2.03829E-02 2.42638E+00 2.44329E-13-1.53000E-13
 -1      3491 2.27218E+01-3.31496E+00 5.08434E-02 2.27854E+00 3.01762E-13 6.49480E-15
 -1      3492 2.42858E+01-3.68889E+00 2.73607E-02-1.68417E+00 3.41619E-13 5.20366E-13
 -1      3493 2.30837E+01-3.43901E+00-1.12825E-03-2.27825E+00 1.06675E-13 2.38247E-13
 -1      3494 2.23496E+01-2.92265E+00 3.20669E-02-2.54092E+00-8.28244E-15 1.90925E-13
 -1      3495 2.14174E+01-2.07299E+00 3.23939E-03-2.52275E+00-2.77486E-14 1.77539E-13
 -1      3496 2.09469E+01-1.50877E+00 3.01193E-02-2.56332E+00 7.73795E-14 1.53396E-13
 -1      3497 2.06181E+01-1.06769E+00 6.02692E-03-2.44455E+00-1.03109E-13 1.17490E-13
 -1      3498 2.03238E+01-6.34056E-01 9.47379E-03-2.39667E+00-1.74097E-14-1.10520E-13
 -1      3499 2.01362E+01-1.30672E+00-2.86003E-02-2.81599E+00-6.37693E-14 7.43997E-14
 -1      3500 2.00398E+01-6.55450E-03 6.76077E-04-1.57254E-01 5.97439E-14-2.12026E-13
 -1      3501 2.00399E+01-1.90517E-02-3.46770E-04-1.56977E-01 5.59819E-14-2.36357E-13
 -1      3502 2.00508E+01-2.89306E-02 5.97301E-04-1.58273E-01 1.00167E-13-1.97143E-13
 -1      3503 2.00526E+01-3.71120E-02-1.61323E-04-1.60599E-01 1.27918E-13-1.80145E-13
 -1      3504 2.00687E+01-2.50673E-02-3.10694E-04-1.52470E-01 1.03090E-13-1.89550E-13
 -1      3505 2.00223E+01 6.04256E-02 8.32395E-04-1.79494E-01-8.93392E-15-7.19680E-14
 -1      3506 2.00201E+01 4.05744E-02-6.75132E-04-1.69870E-01 1.95230E-14-1.12743E-13
 -1      3507 2.00135E+01 1.04444E-01 9.24755E-04-2.07580E-01 4.02080E-14-5.64490E-14
 -1      3508 2.00108E+01 8.09930E-02-8.50239E-04-1.91493E-01 2.23306E-14-4.11323E-14
 -1      3509 2.00124E+01 8.19603E-02 5.61308E-05-1.81603E-01 5.16477E-15-1.07887E-13
 -1      3510 2.00031E+01 1.55600E-01 1.03089E-03-2.49954E-01-2.22047E-14-1.29589E-13
 -1      3511 2.00001E+01 1.28467E-01-1.04733E-03-2.26289E-01 4.37920E-14-1.15498E-13
 -1      3512 1.99911E+01 1.33924E-01 2.08033E-04-2.12381E-01 5.63344E-14-6.94340E-14
 -1      3513 1.99895E+01 2.13900E-01 1.15042E-03-3.08764E-01-1.12648E-13-9.07757E-14
 -1      3514 1.99866E+01 1.83112E-01-1.27328E-03-2.76449E-01-7.15359E-14-1.24394E-13
 -1      3515 1.99654E+01 1.94016E-01 3.85251E-04-2.57332E-01-2.93150E-14-1.09534E-13
 -1      3516 1.99710E+01 2.78791E-01 1.28294E-03-3.86069E-01-7.65497E-14 2.06432E-14
 -1      3517 1.99686E+01 2.44715E-01-1.53025E-03-3.44112E-01-1.02852E-13-4.06244E-14
 -1      3518 1.99329E+01 2.62085E-01 5.91692E-04-3.18531E-01-9.29350E-14-6.10061E-14
 -1      3519 1.99459E+01 3.48581E-01 1.43242E-03-4.83736E-01-4.16726E-14 1.20708E-13
 -1      3520 1.99444E+01 3.12240E-01-1.81349E-03-4.31308E-01-3.66608E-14 5.56267E-14
 -1      3521 1.98910E+01 3.37243E-01 8.27876E-04-3.97986E-01-8.71015E-14 4.72165E-14
 -1      3522 1.99129E+01 4.19607E-01 1.61297E-03-6.03289E-01-4.40457E-15 8.40623E-14
 -1      3523 1.99123E+01 3.83136E-01-2.10923E-03-5.39842E-01 1.59482E-14 1.35882E-13
 -1      3524 1.98371E+01 4.17183E-01 1.08381E-03-4.97607E-01 2.38797E-15 4.73942E-14
 -1      3525 1.98714E+01 4.85059E-01 1.86097E-03-7.45743E-01 4.35445E-14 1.02592E-13
 -1      3526 1.98713E+01 4.52340E-01-2.38992E-03-6.71162E-01 1.03940E-14 1.20838E-13
 -1      3527 1.97687E+01 4.97249E-01 1.32974E-03-6.19193E-01 2.97242E-14 6.56709E-15
 -1      3528 1.98234E+01 5.33323E-01 2.25223E-03-9.11473E-01-5.39470E-14 4.12647E-14
 -1      3529 1.98217E+01 5.10882E-01-2.60538E-03-8.26243E-01 1.54876E-14 6.07322E-14
 -1      3530 1.96843E+01 5.69118E-01 1.50003E-03-7.64521E-01 3.20369E-14 6.47929E-14
 -1      3531 1.97752E+01 5.45743E-01 2.92018E-03-1.10016E+00-4.45574E-14 7.30651E-14
 -1      3532 1.97672E+01 5.43941E-01-2.66525E-03-1.00555E+00-8.36703E-14-8.87907E-16
 -1      3533 1.95849E+01 6.18994E-01 1.46527E-03-9.35662E-01-5.82222E-14-1.28142E-14
 -1      3534 1.97417E+01 4.93822E-01 4.05510E-03-1.31071E+00-9.67976E-14 2.05608E-14
 -1      3535 1.97176E+01 5.28337E-01-2.40235E-03-1.20909E+00-2.96395E-14 1.13699E-13
 -1      3536 1.94759E+01 6.25160E-01 9.82751E-04-1.13561E+00-4.29935E-14-1.28504E-13
 -1      3537 1.97524E+01 3.36322E-01 5.86502E-03-1.54057E+00-8.53776E-14 6.90852E-15
 -1      3538 1.96942E+01 4.29598E-01-1.50173E-03-1.43615E+00-8.70410E-14 8.04370E-14
 -1      3539 1.93720E+01 5.54831E-01-3.88771E-04-1.36909E+00-1.16725E-13-6.08389E-14
 -1      3540 1.98605E+01 1.78535E-02 8.49247E-03-1.78287E+00-1.28024E-13-3.58845E-14
 -1      3541 1.97379E+01 1.99604E-01 6.79213E-04-1.68381E+00-1.18958E-13 2.06958E-14
 -1      3542 1.93033E+01 3.60691E-01-3.36847E-03-1.64281E+00-1.11836E-13 5.30038E-14
 -1      3543 2.01558E+01-5.26126E-01 1.25906E-02-2.01728E+00-8.77223E-14 3.79963E-14
 -1      3544 1.99210E+01-2.22695E-01 5.52713E-03-1.94161E+00-9.99257E-14 4.86663E-14
 -1      3545 1.93278E+01-2.14099E-02-8.83164E-03-1.96292E+00-9.70400E-14 5.43866E-14
 -1      3546 2.07714E+01-1.35765E+00 1.48298E-02-2.18712E+00-1.38433E-13-8.03429E-14
 -1      3547 2.03641E+01-9.07106E-01 1.45850E-02-2.17840E+00-4.22966E-14-1.06458E-14
 -1      3548 1.95471E+01-6.66614E-01-1.64847E-02-2.32639E+00-9.78786E-14 1.03937E-13
 -1      3549 2.18794E+01-2.44938E+00 1.26374E-02-2.15907E+00-1.88928E-13-3.15232E-13
 -1      3550 2.12513E+01-1.86243E+00 3.75446E-02-2.28904E+00-2.37109E-13-2.35287E-13
 -1      3551 2.01587E+01-1.64499E+00-1.66485E-02-2.69009E+00-7.50823E-14-1.60780E-13
 -1      3552 2.43294E+01-3.63981E+00 6.58055E-02 1.69689E+00-3.91860E-13-5.86329E-13
 -1      3553 2.04008E+01-6.82565E-01 2.05003E-02 2.49741E+00-2.28199E-13-1.65368E-13
 -1      3554 2.07121E+01-1.13455E+00 1.15068E-02 2.53115E+00-2.05559E-13-1.97930E-13
 -1      3555 1.74538E+01 1.22347E+00 6.81510E-03-9.52871E-01-3.59346E-14-1.97001E-13
 -1      3556 1.72483E+01 1.29696E+00-1.12756E-02-4.88395E-01-1.07355E-13-1.88795E-13
 -1      3557 1.29649E+01-6.46950E-02 5.41410E-02-2.64479E+00-2.61943E-16 5.09058E-13
 -1      3558 1.41816E+01-8.93702E-01-2.52937E-02-3.81272E+00-1.04380E-13 7.20021E-13
 -1      3559 2.02369E+01 3.21830E-01-2.03497E-03 1.66955E-02 1.87869E-13-2.24925E-13
 -1      3560 2.02665E+01 4.31026E-01 2.94426E-03 9.10254E-02 2.10079E-13-2.42505E-13
 -1      3561 2.10785E+01-1.62800E+00 2.91103E-02 2.64822E+00-1.37699E-13-2.89070E-13
 -1      3562 2.16088E+01-2.19841E+00 9.35035E-03 2.56642E+00-7.91164E-14-5.07848E-13
 -1      3563 2.01739E+01-1.38746E+00-2.32881E-02 2.93302E+00-2.42834E-13-2.42070E-13
 -1      3564 2.23783E+01-2.72927E+00 5.08889E-02 2.47910E+00-6.48310E-14-5.37278E-13
 -1      3565 2.31234E+01-3.29697E+00-2.28885E-03 2.16250E+00-2.55499E-13-6.96036E-13
 -1      3566 2.29800E+01-3.83623E+00-4.45358E-02 2.74440E+00-3.19279E-13-6.83256E-13
 -1      3567 2.11747E+01-2.60399E+00-2.89410E-02 3.10517E+00-1.70173E-13-6.16073E-13
 -1      3568 1.21604E+01 5.12376E-01 3.72171E-02 6.19296E-01-2.33380E-13-3.09884E-13
 -1      3569 1.21683E+01 3.98344E-01 3.10216E-02-1.24415E+00-2.15217E-13 2.13371E-14
 -1      3570 2.00306E+01 2.34077E-02 7.51214E-04-1.63487E-01 1.54772E-14-1.70795E-13
 -1      3571 2.00294E+01 7.13782E-03-5.12018E-04-1.59165E-01 2.61448E-14-2.05626E-13
 -1      3572 2.00495E+01 2.18242E-03-1.97241E-04-1.53967E-01 2.66221E-14-1.91004E-13
 -1      3573 2.00312E+01 3.80309E-02-7.64986E-05-1.62872E-01-2.86504E-14-1.27104E-13
 -1      3574 2.01044E+01-3.23197E-02 1.62419E-04-1.71579E-01 1.04042E-13-1.78892E-13
 -1      3575 2.01152E+01-1.85463E-02 7.35920E-04-1.68889E-01 1.39581E-13-1.76525E-13
 -1      3576 2.20398E+01-2.64470E+00 1.91635E-02 2.08578E+00 3.88738E-13-1.03992E-13
 -1      3577 2.13259E+01-3.11882E+00-2.10782E-02 3.02665E+00 4.33419E-13-2.63838E-13
 -1      3578 2.01799E+01-2.37954E+00 4.39878E-02 3.21732E+00 4.24511E-13-2.30023E-13
 -1      3579 2.13647E+01-2.08951E+00 4.64274E-02 2.26345E+00 4.64510E-13-2.63892E-13
 -1      3580 2.00436E+01 2.17438E+00-2.86052E-03-1.49938E-01 3.91835E-14-6.34792E-13
 -1      3581 2.00535E+01 2.13543E+00-5.05739E-03-2.71226E-01-5.88426E-15-6.24525E-13
 -1      3582 2.01821E+01 1.78316E+00 5.09053E-03-2.41103E-01-1.31872E-14-5.68589E-13
 -1      3583 2.01507E+01 1.89668E+00 5.16381E-03-8.19971E-02 5.39806E-14-5.89785E-13
 -1      3584 1.62687E+01-1.57579E+00 9.17986E-02-4.36311E+00-9.33628E-14 3.55944E-13
 -1      3585 1.85591E+01-2.76447E+00-2.81651E-02-4.48213E+00-6.28907E-14 1.61812E-13
 -1      3586 2.03024E+01 4.39804E-01 2.40611E-03-7.35259E-02-1.32741E-13-3.25181E-13
 -1      3587 2.02779E+01 3.28093E-01-2.14693E-03-6.32723E-03-1.20836E-13-3.25400E-13
 -1      3588 2.03187E+01 3.30644E-01-1.12478E-04 1.83011E-03-1.35581E-13-3.33860E-13
 -1      3589 1.44561E+01-8.04390E-01 5.69264E-02 3.86098E+00-2.09700E-13 4.35554E-14
 -1      3590 1.30769E+01 5.07610E-02 3.18279E-02 2.43153E+00-2.31475E-13-1.20844E-13
 -1      3591 2.03143E+01 7.34004E-01 7.55444E-04-2.44362E-01-1.60788E-13-3.76599E-13
 -1      3592 2.02978E+01 5.73497E-01-2.90920E-03-1.42812E-01-1.37202E-13-3.65307E-13
 -1      3593 2.03346E+01 5.78130E-01 4.18742E-04-1.16261E-01-1.14527E-13-3.59874E-13
 -1      3594 2.00304E+01-2.69637E+00 7.70505E-02-3.62839E+00-2.65270E-13-1.96235E-13
 -1      3595 2.13881E+01-3.04911E+00-5.12324E-02-2.85678E+00-1.72917E-13-2.26846E-13
 -1      3596 1.17973E+01 3.49161E-01 2.32784E-02 1.85328E+00 2.04043E-13-3.59490E-13
 -1      3597 1.14850E+01 6.15794E-01 3.39394E-02 3.18142E-01 2.55633E-13-4.47281E-13
 -1      3598 2.02000E+01 1.63308E-01-1.26788E-03-8.10702E-02 1.36854E-13-2.03774E-13
 -1      3599 2.02265E+01 2.35433E-01 2.54652E-03-3.55853E-02 1.70162E-13-1.96581E-13
 -1      3600 2.02845E+01 3.30130E-01-4.62049E-04 7.74901E-03 1.56632E-13-2.26722E-13
 -1      3601 1.49810E+01-1.11046E+00-5.63803E-03 3.86543E+00 3.01318E-13-4.75890E-13
 -1      3602 1.31087E+01-8.21948E-02 8.80559E-02 2.95396E+00 2.72067E-13-4.89553E-13
 -1      3603 2.02764E+01 1.15534E+00-2.46506E-03 4.94997E-01 3.40849E-13-2.86797E-13
 -1      3604 2.02677E+01 1.28748E+00 1.84716E-04 4.55993E-01 2.99489E-13-3.56747E-13
 -1      3605 1.62147E+01-9.41036E-01 6.70064E-02-3.64985E+00-8.50032E-14 4.04152E-13
 -1      3606 2.12198E+01-2.70147E+00-6.41441E-03-3.14363E+00 3.52416E-14-7.01349E-14
 -1      3607 1.83618E+01-1.81762E+00-3.04732E-02 3.52537E+00 3.92318E-13-1.28595E-14
 -1      3608 1.68273E+01-1.42899E+00 6.65749E-02 3.87900E+00 3.71764E-13-2.36963E-13
 -1      3609 1.61414E+01-6.85887E-01 3.00868E-03 3.26623E+00 3.02907E-13-2.74704E-13
 -1      3610 2.02177E+01-1.90287E+00-3.40781E-02 2.71640E+00 3.27077E-13-2.44238E-13
 -1      3611 1.45546E+01-4.97146E-01 8.56341E-02-3.44590E+00-5.33020E-14-1.19689E-13
 -1      3612 1.60652E+01-9.11060E-01 1.81849E-02-3.46524E+00-1.44672E-13 1.30933E-13
 -1      3613 1.41327E+01 3.01093E-02 1.07425E-02-2.61540E+00-3.22607E-14-1.81879E-13
 -1      3614 2.01761E+01-3.39028E-03-7.12672E-04-1.53261E-01 9.32108E-14-1.70810E-13
 -1      3615 2.01315E+01 5.66635E-04-1.43634E-04-1.63338E-01 1.22676E-13-2.14751E-13
 -1      3616 2.01470E+01 2.76751E-02 1.23166E-03-1.52214E-01 8.05065E-14-2.01937E-13
 -1      3617 2.00893E+01-4.06274E-02 3.55323E-04-1.71334E-01 8.65308E-14-1.57754E-13
 -1      3618 2.01434E+01-3.64210E-02-6.25784E-04-1.61019E-01 1.07168E-13-2.02687E-13
 -1      3619 2.00823E+01-4.48062E-02 3.66206E-04-1.69598E-01 7.89773E-14-1.83690E-13
 -1      3620 2.02936E+01-3.70816E-01 6.66041E-03-2.25196E+00 1.62535E-13-1.47237E-13
 -1      3621 2.01448E+01-8.20896E-02 4.46617E-03-2.16712E+00 1.73783E-13-1.47637E-13
 -1      3622 1.98862E+01 1.38519E-02-7.67210E-03-2.20880E+00 9.07897E-14-6.05126E-14
 -1      3623 1.98870E+01-4.74418E-01-4.54656E-03-2.48840E+00 2.82437E-14 1.29767E-13
 -1      3624 2.02625E+01 5.35253E-01-2.36805E-03 1.59846E-01 2.35726E-13-2.52580E-13
 -1      3625 2.02815E+01 6.55444E-01 8.12868E-04 2.55820E-01 2.66773E-13-2.56728E-13
 -1      3626 2.03030E+01 5.49170E-01 2.82612E-05 1.33000E-01 2.12773E-13-2.28861E-13
 -1      3627 2.00901E+01-4.24173E-02-4.19762E-04-1.55587E-01 1.65012E-13-2.17223E-13
 -1      3628 2.00647E+01-4.24427E-02 5.01412E-04-1.63599E-01 1.41894E-13-1.60831E-13
 -1      3629 2.00688E+01-4.52880E-02 6.43613E-05-1.66761E-01 1.42960E-13-1.66740E-13
 -1      3630 1.77633E+01 9.98180E-01-2.12616E-02-1.43983E+00 7.39152E-14-1.02251E-13
 -1      3631 1.72919E+01 9.66671E-01 1.55477E-02-1.34631E+00-1.15370E-13-8.20920E-14
 -1      3632 1.82129E+01 8.64336E-01 2.27812E-02-1.79395E+00 3.82340E-14 3.93409E-14
 -1      3633 2.02072E+01 1.63897E+00-3.28745E-03 1.30884E-01 1.34167E-13-5.27732E-13
 -1      3634 2.02024E+01 1.65753E+00-3.13832E-03 3.99807E-02 9.26627E-14-5.45742E-13
 -1      3635 2.01509E+01-3.67900E-01 4.10587E-03 2.40159E+00-1.28100E-13-2.08795E-13
 -1      3636 1.96562E+01-4.98813E-01-2.30731E-02 2.64179E+00-1.52866E-13-4.21213E-13
 -1      3637 1.99434E+01-6.55618E-02 9.73351E-03 2.34330E+00-6.08443E-14-2.89019E-13
 -1      3638 1.67882E+01 1.23561E+00 1.82926E-02-2.02275E-01-2.44234E-13-2.14238E-13
 -1      3639 1.71928E+01 1.33926E+00-7.70709E-03 1.34614E-01-1.67344E-13-2.09399E-13
 -1      3640 1.72964E+01 1.30991E+00 2.45190E-03 6.30114E-01-1.95491E-13-1.56936E-13
 -1      3641 2.01529E+01 1.24755E-01-1.06349E-02 2.12866E+00 1.53551E-13 6.26386E-14
 -1      3642 2.01637E+01 6.19121E-02-6.02226E-04-1.36697E-01 6.39353E-14-2.17495E-13
 -1      3643 2.01846E+01 1.07721E-01 1.84936E-03-1.11829E-01 8.87317E-14-2.01612E-13
 -1      3644 2.02123E+01 6.00270E-02-7.44639E-04-1.29172E-01 8.76170E-14-2.12200E-13
 -1      3645 1.64334E+01-1.19294E+00 4.74625E-02 3.83665E+00-2.20365E-13 7.32869E-14
 -1      3646 1.22042E+01 7.75734E-01 7.92590E-02-5.40589E-01 1.43678E-13-4.34423E-13
 -1      3647 1.31106E+01 6.22451E-01-2.43535E-03-1.31742E+00 6.68701E-14-3.50192E-13
 -1      3648 1.29602E+01 8.50182E-01 3.35126E-02 1.51936E-01 1.22842E-13-3.57991E-13
 -1      3649 1.35449E+01 2.86263E-01 6.58090E-02 2.15864E+00 1.98386E-13-3.74485E-13
 -1      3650 1.48222E+01 3.24727E-01-7.14981E-03 2.11275E+00-1.42730E-13 1.27178E-13
 -1      3651 1.34146E+01 4.96163E-01 5.94821E-02 1.52154E+00-1.31209E-13-1.74501E-13
 -1      3652 1.39527E+01 7.56630E-01-5.83205E-03 5.80363E-01-1.96596E-13-1.70780E-13
 -1      3653 1.37490E+01 3.83091E-01 8.13351E-02-1.68989E+00-2.53070E-13 1.68650E-13
 -1      3654 2.02499E+01 1.65684E-01-6.81268E-04-7.92805E-02 1.26058E-13-2.23512E-13
 -1      3655 2.02156E+01 1.60613E+00-1.98269E-03 2.02183E-01 1.66079E-13-5.13540E-13
 -1      3656 2.02897E+01 1.38529E+00 4.75404E-03 1.34931E-01 1.50201E-13-4.92607E-13
 -1      3657 2.02257E+01 1.54765E+00-3.99389E-03 2.86432E-01 2.21885E-13-4.91164E-13
 -1      3658 1.89405E+01-2.00350E+00 9.71739E-03-3.48593E+00-1.78298E-13-1.95238E-13
 -1      3659 2.02867E+01 1.17385E+00-2.76717E-03-4.39406E-01-1.71763E-13-4.90636E-13
 -1      3660 2.03004E+01 9.07090E-01-9.01175E-04-3.12019E-01-1.62028E-13-4.17994E-13
 -1      3661 2.03252E+01 9.07793E-01 1.89615E-03-2.58451E-01-1.20554E-13-4.31132E-13
 -1      3662 2.02744E+01 1.30652E+00 1.74468E-03-3.96680E-01-1.36118E-13-5.05862E-13
 -1      3663 1.83389E+01 7.50519E-01-2.01727E-02 1.91755E+00-3.17464E-13-5.73362E-14
 -1      3664 1.88367E+01 5.97158E-01 1.78571E-02 2.12874E+00-1.53801E-13-2.20410E-13
 -1      3665 2.14720E+01-3.39972E+00 6.05501E-02 3.65047E+00-2.75136E-13-6.35630E-13
 -1      3666 1.95858E+01 1.94709E-01 2.74845E-03-2.19464E+00 6.92660E-14-1.49284E-13
 -1      3667 1.93492E+01 3.33808E-01 8.06640E-03-2.17723E+00 1.32458E-13-1.38248E-13
 -1      3668 1.95488E+01-3.16035E-02 3.03506E-04-2.34244E+00 1.41981E-13-8.61638E-14
 -1      3669 2.02498E+01 1.46821E+00-1.48515E-04-2.80154E-01-5.15137E-14-4.97002E-13
 -1      3670 2.02601E+01 1.38180E+00-3.53099E-03-3.47368E-01-1.07185E-13-5.09407E-13
 -1      3671 2.03064E+01 1.17016E+00 1.54910E-03-2.81667E-01-9.63961E-14-4.80892E-13
 -1      3672 1.89521E+01 1.69645E-01 4.37585E-03 2.39808E+00-7.95444E-14-3.23093E-13
 -1      3673 1.92770E+01 2.91223E-01-1.48712E-02 2.26115E+00-1.24173E-13-5.08774E-13
 -1      3674 1.88781E+01 4.91340E-01-1.96440E-02-2.04974E+00 7.27441E-14-7.46674E-14
 -1      3675 2.08713E+01-2.71963E+00 2.08363E-02 3.41971E+00-3.65727E-13-7.63703E-13
 -1      3676 2.00987E+01-2.96951E+00-8.57378E-03 4.03403E+00-2.51996E-13-6.26738E-13
 -1      3677 1.89398E+01-2.23504E+00 1.32373E-02 4.02718E+00-2.80165E-13-3.62977E-13
 -1      3678 2.01826E+01-2.00017E+00 3.63146E-02 3.38526E+00-1.86332E-13-5.15962E-13
 -1      3679 1.57769E+01-2.16670E-01 3.91495E-02-3.05909E+00-1.33415E-13 3.79407E-13
 -1      3680 1.72975E+01-1.07993E+00-2.08244E-02-3.54669E+00-7.25954E-14 1.88254E-13
 -1      3681 2.03023E+01 9.06559E-02 1.02353E-03 9.50003E-02-9.93175E-14-2.86839E-13
 -1      3682 2.02809E+01 4.46939E-02-4.76609E-04 1.11530E-01-7.04619E-14-2.76037E-13
 -1      3683 2.02611E+01 1.04162E-02 7.24878E-04 1.19577E-01-4.75570E-14-2.61444E-13
 -1      3684 2.02407E+01-1.54880E-02-8.98732E-05 1.27101E-01-5.16023E-14-2.58857E-13
 -1      3685 2.03050E+01 3.77335E-02-3.44609E-04 9.77020E-02-6.30177E-14-2.80107E-13
 -1      3686 2.02192E+01-3.30126E-02 4.52733E-04 1.29521E-01-5.58984E-14-2.40114E-13
 -1      3687 2.02007E+01-4.42067E-02 1.70402E-04 1.31679E-01-5.58623E-14-2.52077E-13
 -1      3688 2.02615E+01-2.03577E-02-4.50986E-04 1.10430E-01-5.24835E-14-2.51732E-13
 -1      3689 2.01791E+01-4.94585E-02 2.14627E-04 1.31115E-01-1.03654E-13-2.62882E-13
 -1      3690 2.01627E+01-4.98041E-02 3.35572E-04 1.30755E-01-1.03475E-13-3.45938E-13
 -1      3691 2.02174E+01-4.63566E-02-4.60681E-04 1.14361E-01-9.75285E-14-2.39429E-13
 -1      3692 2.01414E+01-4.59270E-02 4.20266E-06 1.29273E-01-8.15428E-14-3.43620E-13
 -1      3693 2.01269E+01-3.80827E-02 4.35359E-04 1.28602E-01-1.16035E-13-3.25239E-13
 -1      3694 2.01747E+01-4.85720E-02-4.02390E-04 1.14087E-01-1.04916E-13-2.48237E-13
 -1      3695 2.01062E+01-2.71888E-02-1.87014E-04 1.27827E-01-9.71252E-14-2.95522E-13
 -1      3696 2.00931E+01-1.28957E-02 4.91797E-04 1.28568E-01-6.67323E-14-2.61954E-13
 -1      3697 2.01338E+01-3.28007E-02-2.99200E-04 1.13234E-01-8.06655E-14-2.35691E-13
 -1      3698 2.00724E+01 3.68747E-03-3.70989E-04 1.29784E-01-3.35173E-14-2.27053E-13
 -1      3699 2.00599E+01 2.34057E-02 5.22896E-04 1.33319E-01-1.25097E-14-1.63635E-13
 -1      3700 2.00941E+01-2.85140E-03-1.54509E-04 1.14666E-01-2.75700E-14-2.02924E-13
 -1      3701 2.00383E+01 4.49548E-02-5.60257E-04 1.37606E-01-7.79613E-14-1.58160E-13
 -1      3702 2.00257E+01 6.95710E-02 5.37900E-04 1.45106E-01-9.93906E-14-1.58135E-13
 -1      3703 2.00540E+01 3.89700E-02 1.98794E-05 1.20690E-01-3.67243E-14-2.36507E-13
 -1      3704 2.00020E+01 9.57362E-02-7.65765E-04 1.53410E-01-1.00744E-13-1.45400E-13
 -1      3705 1.99881E+01 1.25048E-01 5.44807E-04 1.65907E-01-9.20487E-14-1.37862E-13
 -1      3706 2.00115E+01 9.14591E-02 2.24887E-04 1.33295E-01-8.84972E-14-2.15306E-13
 -1      3707 1.99608E+01 1.55728E-01-9.97139E-04 1.79112E-01-8.78984E-14-1.37972E-13
 -1      3708 1.99446E+01 1.89681E-01 5.51059E-04 1.97585E-01-1.11453E-13-5.65473E-14
 -1      3709 1.99639E+01 1.54109E-01 4.64662E-04 1.54222E-01-9.60043E-14-1.81891E-13
 -1      3710 1.99120E+01 2.24780E-01-1.25846E-03 2.16591E-01-6.43424E-14-3.91160E-14
 -1      3711 1.98921E+01 2.63217E-01 5.59579E-04 2.41980E-01-2.73768E-14 2.40707E-14
 -1      3712 1.99079E+01 2.26715E-01 7.37753E-04 1.85180E-01-4.96120E-14-8.97986E-14
 -1      3713 1.98522E+01 3.02423E-01-1.55627E-03 2.67710E-01-9.44212E-15 6.03400E-14
 -1      3714 1.98273E+01 3.44857E-01 5.76996E-04 3.00937E-01 2.44991E-14 7.69311E-14
 -1      3715 1.98399E+01 3.08916E-01 1.05431E-03 2.27884E-01-2.04370E-15 2.43717E-14
 -1      3716 1.97779E+01 3.87377E-01-1.89642E-03 3.34381E-01 1.76251E-14 3.17577E-14
 -1      3717 1.97466E+01 4.32683E-01 6.15992E-04 3.76363E-01 7.00245E-14-1.53454E-14
 -1      3718 1.97559E+01 3.99659E-01 1.40985E-03 2.84105E-01 2.79415E-14 2.47333E-14
 -1      3719 1.96855E+01 4.76880E-01-2.28334E-03 4.18651E-01 2.32980E-14-2.06860E-14
 -1      3720 1.96467E+01 5.22896E-01 7.02903E-04 4.70337E-01-1.53799E-14-4.96641E-14
 -1      3721 1.96514E+01 4.96630E-01 1.80157E-03 3.55823E-01-1.77528E-14 3.67051E-14
 -1      3722 1.95717E+01 5.65831E-01-2.72515E-03 5.22860E-01 7.95737E-15-7.44515E-14
 -1      3723 1.95249E+01 6.08858E-01 8.89644E-04 5.85324E-01 1.66703E-14-8.85804E-14
 -1      3724 1.95220E+01 5.95462E-01 2.21877E-03 4.45413E-01 4.76114E-16-5.97980E-14
 -1      3725 1.94338E+01 6.45708E-01-3.23629E-03 6.49989E-01-4.15363E-15-7.15066E-14
 -1      3726 1.93796E+01 6.79888E-01 1.27165E-03 7.24653E-01 1.06026E-14-9.07943E-14
 -1      3727 1.93635E+01 6.88814E-01 2.63815E-03 5.56064E-01-9.40482E-15-2.33319E-14
 -1      3728 1.92710E+01 7.03202E-01-3.83901E-03 8.04359E-01 2.68532E-14-1.44317E-13
 -1      3729 1.92124E+01 7.19716E-01 2.01255E-03 8.93394E-01-3.82457E-14-1.32441E-13
 -1      3730 1.91725E+01 7.65224E-01 3.01394E-03 6.92563E-01-2.21038E-14-3.20693E-14
 -1      3731 1.90859E+01 7.18470E-01-4.55441E-03 9.92840E-01-1.26951E-13-2.00634E-13
 -1      3732 1.90299E+01 7.04495E-01 3.36830E-03 1.09977E+00-6.83456E-14-1.96939E-13
 -1      3733 1.89472E+01 8.07663E-01 3.25349E-03 8.62705E-01-7.08736E-14-2.26473E-13
 -1      3734 1.88877E+01 6.62872E-01-5.35890E-03 1.22664E+00-1.61641E-14-2.04291E-13
 -1      3735 1.88482E+01 6.00191E-01 5.72143E-03 1.35694E+00 5.22191E-14-1.24725E-13
 -1      3736 1.86894E+01 7.91533E-01 3.15747E-03 1.07955E+00-3.89589E-14-1.77831E-13
 -1      3737 1.86972E+01 4.96156E-01-5.95209E-03 1.52315E+00 5.54536E-14-2.35021E-13
 -1      3738 1.87003E+01 3.59747E-01 9.84470E-03 1.68408E+00 8.78101E-14-2.79543E-13
 -1      3739 1.84070E+01 6.81458E-01 2.33355E-03 1.36447E+00-2.91128E-14-1.26997E-13
 -1      3740 1.85576E+01 1.61529E-01-5.88908E-03 1.90788E+00 1.48253E-13-2.82331E-13
 -1      3741 1.86483E+01-8.22685E-02 1.62546E-02 2.10432E+00 2.29850E-13-2.85599E-13
 -1      3742 1.81206E+01 4.27982E-01 2.06997E-04 1.75085E+00 1.07737E-13-3.14452E-13
 -1      3743 1.99297E+01 2.31966E-01 7.06067E-04-2.51426E-01-6.11068E-14 5.07374E-14
 -1      3744 1.99427E+01 1.96173E-01-1.22248E-03-2.25790E-01 3.46305E-14 4.45471E-14
 -1      3745 1.95000E+01-1.28877E+00 2.96573E-03-3.09939E+00-1.50210E-13-6.13741E-14
 -1      3746 1.92396E+01-7.37197E-01 1.81901E-03-2.86027E+00-6.96408E-14 8.44810E-15
 -1      3747 1.98820E+01-3.02289E+00 6.27320E-02-4.23929E+00 6.94132E-14 1.63506E-13
 -1      3748 2.10692E+01-3.19451E+00-3.90904E-03-3.57207E+00 6.63948E-14-7.48004E-14
 -1      3749 1.84950E+01 4.25176E-01 5.56161E-03-2.14732E+00 5.58832E-14-7.73360E-14
 -1      3750 1.99699E+01 1.63849E-01 6.77206E-04-2.06312E-01 4.59594E-15-3.49228E-14
 -1      3751 1.99803E+01 1.32620E-01-9.72797E-04-1.87944E-01-6.32713E-16-4.27437E-14
 -1      3752 1.99362E+01 1.99497E-01 6.03484E-04-1.99256E-01-2.84149E-14 2.66393E-14
 -1      3753 2.00030E+01 1.04682E-01 6.48494E-04-1.74627E-01 2.41334E-14-9.79473E-14
 -1      3754 2.00119E+01 7.79856E-02-7.53457E-04-1.62532E-01-4.24171E-14-1.43866E-13
 -1      3755 1.99821E+01 1.32102E-01 3.51685E-04-1.67315E-01-1.78848E-14-4.75069E-14
 -1      3756 1.98793E+01 3.08773E-01 7.35860E-04-3.11855E-01-1.10452E-13 4.58173E-14
 -1      3757 1.98962E+01 2.68608E-01-1.51022E-03-2.77995E-01-7.76052E-14 6.90449E-14
 -1      3758 1.98801E+01 2.76690E-01 8.98212E-04-2.43767E-01-8.30515E-14 1.26032E-13
 -1      3759 1.98153E+01 3.93151E-01 7.74297E-04-3.89446E-01-6.99790E-14-2.83102E-14
 -1      3760 1.98374E+01 3.49306E-01-1.84004E-03-3.46461E-01-1.05114E-13-5.50406E-14
 -1      3761 1.98100E+01 3.63208E-01 1.24117E-03-3.02588E-01-4.77937E-14-4.50127E-15
 -1      3762 1.97341E+01 4.82425E-01 8.37862E-04-4.86024E-01-1.86929E-14-5.27880E-15
 -1      3763 1.97627E+01 4.36463E-01-2.21493E-03-4.33075E-01-3.52869E-14-2.66597E-15
 -1      3764 1.97215E+01 4.57548E-01 1.63415E-03-3.77483E-01-7.20475E-14-1.22557E-13
 -1      3765 1.96323E+01 5.71440E-01 9.65078E-04-6.03492E-01 1.67824E-15 6.75299E-14
 -1      3766 1.96684E+01 5.26289E-01-2.63870E-03-5.39777E-01 3.39084E-14 3.14237E-14
 -1      3767 1.96101E+01 5.56451E-01 2.07191E-03-4.70356E-01-4.89479E-14 5.33436E-15
 -1      3768 1.95076E+01 6.51299E-01 1.23546E-03-7.44140E-01 1.64957E-14 3.27615E-14
 -1      3769 1.95512E+01 6.11912E-01-3.11801E-03-6.68765E-01 9.19913E-15 8.18792E-14
 -1      3770 1.94709E+01 6.53956E-01 2.53617E-03-5.83533E-01-6.41593E-15 8.90990E-14
 -1      3771 1.93597E+01 7.07693E-01 1.79850E-03-9.11317E-01 1.61520E-14-8.99334E-14
 -1      3772 1.94091E+01 6.81928E-01-3.66358E-03-8.23003E-01 4.11652E-14 5.36068E-14
 -1      3773 1.92998E+01 7.40170E-01 2.98561E-03-7.20372E-01-9.80883E-15 1.35813E-14
 -1      3774 1.91931E+01 7.18652E-01 2.90989E-03-1.11068E+00-1.16233E-13-7.16108E-14
 -1      3775 1.92430E+01 7.18453E-01-4.28337E-03-1.00724E+00-6.01220E-14-9.72276E-14
 -1      3776 1.90940E+01 7.99662E-01 3.33519E-03-8.86488E-01-1.06060E-14-7.01442E-14
 -1      3777 1.90209E+01 6.51490E-01 4.92995E-03-1.35204E+00-8.95439E-14-1.70538E-13
 -1      3778 1.90594E+01 6.94540E-01-4.94571E-03-1.22972E+00-6.39326E-14-1.15340E-13
 -1      3779 1.88536E+01 8.09241E-01 3.40282E-03-1.09190E+00-4.62723E-14-7.01192E-14
 -1      3780 1.88721E+01 4.59015E-01 8.35717E-03-1.65087E+00-1.32801E-13-1.24614E-13
 -1      3781 1.88764E+01 5.70704E-01-5.48435E-03-1.50418E+00-1.25296E-13-1.23476E-13
 -1      3782 1.85852E+01 7.34468E-01 2.76068E-03-1.35419E+00-1.14736E-13-2.60360E-13
 -1      3783 1.88037E+01 7.61374E-02 1.40620E-02-2.02752E+00-1.37097E-13-8.06149E-14
 -1      3784 1.87331E+01 2.91029E-01-5.24157E-03-1.85104E+00-1.56431E-13-7.53362E-14
 -1      3785 1.83082E+01 5.25166E-01 7.15086E-04-1.70185E+00-1.77920E-13-2.01390E-13
 -1      3786 1.89099E+01-5.86839E-01 2.04918E-02-2.50169E+00-3.70151E-14-8.77922E-14
 -1      3787 1.87066E+01-2.23654E-01-3.09816E-03-2.29297E+00-6.42797E-14-2.38632E-14
 -1      3788 1.80692E+01 1.09488E-01-2.54274E-03-2.17779E+00-1.55032E-13-1.18452E-13
 -1      3789 2.03164E+01 3.16034E-01-1.86874E-03-1.07710E-02 1.21919E-13-2.62061E-13
 -1      3790 2.03363E+01 4.25959E-01 1.99695E-03 4.51287E-02 1.39448E-13-2.70886E-13
 -1      3791 1.90022E+01-1.30822E-01 1.68781E-02 2.62558E+00-1.05882E-13-4.37019E-13
 -1      3792 1.91955E+01-5.13429E-01 1.02789E-02 2.78806E+00-2.75365E-13-3.83198E-13
 -1      3793 1.83582E+01 1.04210E-01-2.27083E-02 2.51152E+00-2.40737E-13-2.04762E-13
 -1      3794 1.94105E+01-9.15895E-01 2.11987E-02 3.01639E+00-3.41321E-13-3.47768E-13
 -1      3795 1.97067E+01-1.49579E+00 1.60982E-02 3.21448E+00-1.67743E-13-3.54966E-13
 -1      3796 1.91650E+01-1.62113E+00-3.39559E-03 3.51274E+00-3.15528E-13-3.91524E-13
 -1      3797 1.85503E+01-6.24851E-01-7.50668E-03 3.01647E+00-2.45570E-13-2.72949E-13
 -1      3798 1.88289E+01-2.18630E+00-3.71070E-03-3.99718E+00-5.46750E-14 2.48881E-14
 -1      3799 1.92369E+01-1.72734E+00 1.13849E-02 3.10094E+00 3.53696E-13-1.98765E-13
 -1      3800 1.98127E+01 1.17449E-01 9.45656E-03 2.28251E+00 4.73668E-14-3.13652E-13
 -1      3801 2.00850E+01-1.90766E-02 5.38574E-04-1.40347E-01 8.17394E-14-1.93247E-13
 -1      3802 2.00948E+01-3.14658E-02-1.81295E-04-1.40417E-01 1.34558E-13-1.77408E-13
 -1      3803 2.02872E+01 1.54547E-01-1.12061E-03-8.17835E-02 9.82768E-14-2.36431E-13
 -1      3804 2.03091E+01 2.28020E-01 1.67081E-03-4.71004E-02 1.09569E-13-2.49972E-13
 -1      3805 2.03501E+01 3.11372E-01 1.26606E-04-1.64250E-02 1.21595E-13-2.71812E-13
 -1      3806 2.03613E+01 4.18875E-01 1.46970E-03-2.98733E-02-1.06948E-13-3.64958E-13
 -1      3807 2.03453E+01 3.09149E-01-1.71481E-03 1.85493E-02-9.02956E-14-3.51901E-13
 -1      3808 2.02537E+01 1.38118E+00-5.11009E-03 4.14099E-01 2.83818E-13-4.09317E-13
 -1      3809 2.02404E+01 1.48225E+00-1.17127E-03 3.45545E-01 2.34870E-13-4.33567E-13
 -1      3810 2.02981E+01 1.28448E+00 3.82651E-03 2.50157E-01 2.14272E-13-4.25744E-13
 -1      3811 2.03578E+01 7.05837E-01 5.14359E-04-1.47274E-01-8.48849E-14-3.93256E-13
 -1      3812 2.03539E+01 5.49463E-01-2.28171E-03-7.60641E-02-8.79415E-14-3.68891E-13
 -1      3813 2.03819E+01 5.36147E-01 9.45340E-04-5.47628E-02-8.12374E-14-3.61834E-13
 -1      3814 2.03383E+01 2.20985E-01 1.29800E-03 4.80846E-02-8.36560E-14-3.33208E-13
 -1      3815 2.03178E+01 1.47806E-01-1.01617E-03 7.80668E-02-1.10430E-13-3.13041E-13
 -1      3816 2.03732E+01 2.98979E-01 2.54406E-04 2.18935E-02-7.53893E-14-2.94188E-13
 -1      3817 1.45452E+01 1.97518E-01-9.60156E-04 2.38126E+00 2.52335E-13-3.13648E-13
 -1      3818 1.35891E+01 7.11240E-01 3.15287E-02 1.41504E+00 1.20557E-13-1.88877E-13
 -1      3819 1.75089E+01-1.19465E+00 4.15749E-02-3.51583E+00-1.44173E-14-3.81466E-14
 -1      3820 1.93173E+01-1.54153E+00 1.24616E-02-2.98978E+00-7.91901E-16-2.66799E-13
 -1      3821 1.88662E+01-9.62383E-01-2.05739E-03-2.77659E+00 6.68920E-14-1.25083E-13
 -1      3822 1.66131E+01-5.80015E-01-1.47114E-02-3.06412E+00 3.94303E-15 3.47309E-14
 -1      3823 2.02915E+01 9.87253E-01 1.45083E-03 4.66583E-01 3.29417E-13-2.63324E-13
 -1      3824 1.75323E+01 1.14522E+00-1.85413E-02 1.17829E+00-2.84205E-13-9.92937E-14
 -1      3825 1.79056E+01 1.03415E+00 1.49123E-02 1.57257E+00-3.31157E-13-1.11925E-13
 -1      3826 1.78678E+01 7.08269E-01 6.23851E-03 1.93693E+00-3.20040E-13-1.00467E-13
 -1      3827 1.70551E+01 1.10796E+00 1.47394E-02 1.01220E+00-3.26427E-13-3.88474E-14
 -1      3828 2.02914E+01 1.39693E+00 5.02931E-03 1.04130E-02 7.69816E-14-5.21795E-13
 -1      3829 2.02103E+01 1.63771E+00-1.74981E-03-2.64650E-02 8.14599E-14-5.47637E-13
 -1      3830 2.02190E+01 1.59333E+00-3.56003E-03-1.04595E-01 2.97478E-14-5.60019E-13
 -1      3831 1.87294E+01-1.19373E+00 1.66511E-02 2.97703E+00 2.85069E-13-1.93262E-13
 -1      3832 2.03282E+01 1.00585E+00-1.81450E-03-2.45181E-01-7.83669E-14-4.67323E-13
 -1      3833 2.03431E+01 8.34373E-01-6.73352E-04-1.81836E-01-7.86837E-14-4.23355E-13
 -1      3834 2.03661E+01 8.07906E-01 8.89542E-04-1.37500E-01-5.29689E-14-4.01473E-13
 -1      3835 2.03291E+01 1.08783E+00 4.88421E-04-2.06622E-01-5.09543E-14-4.39259E-13
 -1      3836 1.41691E+01 7.63344E-01 2.58523E-02-9.66617E-01-2.62826E-13 5.01543E-14
 -1      3837 1.47307E+01 2.70083E-01-1.98668E-02-2.26970E+00-2.03166E-13 2.82451E-13
 -1      3838 2.03089E+01 1.11412E+00 4.05180E-03 3.36572E-01 2.58336E-13-3.62050E-13
 -1      3839 2.02811E+01 8.20495E-01-1.00013E-03 3.36158E-01 3.08357E-13-2.73121E-13
 -1      3840 2.03066E+01 8.30983E-01-6.30612E-04 2.87368E-01 2.75399E-13-2.68548E-13
 -1      3841 1.40113E+01 5.51797E-01 6.54254E-02-1.94829E+00-3.68852E-14-2.83442E-13
 -1      3842 1.50451E+01 2.00038E-01 7.57664E-03-2.37525E+00-1.84672E-13-4.58175E-14
 -1      3843 1.41062E+01 7.54952E-01 5.42420E-03-1.24185E+00-3.73816E-14-2.67272E-13
 -1      3844 2.00213E+01 7.44998E-02 1.32507E-04-1.46184E-01-4.58298E-14-6.86658E-14
 -1      3845 2.00317E+01 5.43905E-02 6.20526E-04-1.54441E-01-5.38106E-14-1.07712E-13
 -1      3846 2.00401E+01 3.21956E-02-5.54965E-04-1.47575E-01-3.17100E-14-1.18531E-13
 -1      3847 1.85585E+01-4.18797E-01-2.50031E-03 2.40741E+00 2.58792E-13-2.82898E-13
 -1      3848 1.88088E+01-8.19010E-01 2.47473E-02 2.63459E+00 2.19148E-13-2.67129E-13
 -1      3849 2.02258E+01 1.57710E+00-1.22240E-03-1.60853E-01 1.43710E-14-5.40870E-13
 -1      3850 2.02391E+01 1.50403E+00-3.70617E-03-2.29581E-01-2.46593E-14-5.15289E-13
 -1      3851 2.03017E+01 1.29331E+00 3.40299E-03-1.93816E-01-3.86602E-14-4.73059E-13
 -1      3852 2.02981E+01 1.35472E+00 4.52163E-03-9.88868E-02 1.03769E-14-5.27572E-13
 -1      3853 2.02134E+01-1.04542E-02-1.16795E-04-1.40717E-01 7.56269E-14-1.76585E-13
 -1      3854 2.02324E+01 1.62095E-02 8.74210E-04-1.32090E-01 7.68788E-14-1.93937E-13
 -1      3855 1.82720E+01-9.70413E-02 1.09321E-02-2.63776E+00-2.48794E-14 5.46672E-14
 -1      3856 1.72772E+01 1.99656E-01-2.06012E-02-2.41384E+00-6.26946E-14 1.08059E-13
 -1      3857 2.01148E+01-4.74816E-02-5.21231E-04-1.59888E-01 1.10475E-13-1.93589E-13
 -1      3858 1.95640E+01-2.97047E-01 3.91770E-03-2.47180E+00 2.77061E-14-9.04929E-14
 -1      3859 2.01131E+01-4.05711E-02 4.68171E-04-1.41781E-01 1.46635E-13-1.93191E-13
 -1      3860 2.01245E+01-4.67631E-02 2.77343E-05-1.43156E-01 1.45449E-13-2.08848E-13
 -1      3861 2.01252E+01-3.68734E-02-3.46333E-04-1.28561E-01 1.24297E-13-1.58236E-13
 -1      3862 2.01771E+01-4.10792E-02 1.69130E-04-1.46319E-01 1.24957E-13-2.08562E-13
 -1      3863 2.01935E+01-2.88147E-02 5.42307E-04-1.44023E-01 1.14707E-13-2.11928E-13
 -1      3864 2.02410E+01-1.52681E-02-5.31692E-04-1.25965E-01 1.08671E-13-2.25140E-13
 -1      3865 2.03607E+01 5.51310E-01 3.69952E-04 7.79925E-02 1.59670E-13-3.09811E-13
 -1      3866 2.03307E+01 5.57093E-01-2.40873E-03 1.02244E-01 1.76749E-13-2.82350E-13
 -1      3867 1.79634E+01-4.99595E-01 5.27374E-03-2.74851E+00 4.43838E-14-1.92945E-13
 -1      3868 1.46966E+01 8.77131E-01 1.84677E-02 1.02131E+00 1.18621E-13-7.67233E-14
 -1      3869 1.37074E+01 9.26729E-01 3.44659E-02 7.33817E-01 1.25968E-13-2.01013E-13
 -1      3870 1.40431E+01 9.73870E-01-1.19472E-02-4.85351E-02 2.71424E-14-2.15879E-13
 -1      3871 1.82819E+01-1.16339E+00 5.94433E-02-3.53372E+00-1.03769E-13-9.82296E-14
 -1      3872 1.90941E+01-1.61705E+00-5.69544E-03-3.47284E+00-2.11714E-14-1.41404E-13
 -1      3873 1.76958E+01-6.88409E-01 4.55191E-03 2.93856E+00 3.18212E-13-2.96664E-13
 -1      3874 1.61083E+01 1.05058E+00-1.66955E-02-5.64897E-01-2.15004E-13-6.16139E-14
 -1      3875 1.60312E+01 1.09253E+00-1.77767E-02 7.67915E-02-3.27456E-13-2.15952E-13
 -1      3876 2.02511E+01 5.09029E-02-5.31998E-04-1.21864E-01 6.05192E-14-1.95089E-13
 -1      3877 2.02722E+01 9.73199E-02 1.26399E-03-1.02787E-01 8.29106E-14-2.28034E-13
 -1      3878 2.02823E+01 4.53108E-02-4.27566E-04-1.09972E-01 6.95330E-14-2.40762E-13
 -1      3879 1.61890E+01 2.40170E-01 4.65647E-02-2.33906E+00-2.77315E-13 1.75760E-13
 -1      3880 1.59153E+01 6.94121E-02 4.74008E-02 2.76599E+00-2.14115E-13-2.81233E-14
 -1      3881 1.58582E+01 4.75177E-01 9.97580E-03 2.00909E+00-1.46937E-13-1.99537E-14
 -1      3882 1.78854E+01-3.73912E-02-1.57844E-04 2.28365E+00 2.78270E-13-3.40839E-13
 -1      3883 2.03206E+01 1.49107E-01-2.18598E-04-7.61684E-02 6.34791E-14-2.85853E-13
 -1      3884 1.89002E+01-3.30032E-01-2.12432E-02-2.67938E+00-7.36841E-14-1.31528E-13
 -1      3885 1.49134E+01 8.63016E-01 2.49401E-02-1.05504E-01-1.03742E-13-6.74807E-15
 -1      3886 2.00584E+01 1.29912E-02 5.86798E-04-1.43739E-01-1.24775E-14-1.19314E-13
 -1      3887 2.00671E+01-4.55349E-03-3.67977E-04-1.40975E-01 5.86025E-14-1.42495E-13
 -1      3888 2.00567E+01 2.67437E-02-4.81786E-05-1.34040E-01-2.23957E-14-3.68185E-14
 -1      3889 1.76584E+01 3.25395E-01 1.25084E-02 2.36921E+00-2.54741E-13-1.44273E-13
 -1      3890 1.76004E+01-1.48784E-02 2.17309E-03 2.67290E+00-1.95242E-13-1.41051E-13
 -1      3891 2.00907E+01-1.07702E-02-2.04981E-04-1.28910E-01 4.98717E-14-9.09318E-14
 -1      3892 2.03260E+01 1.18718E+00-1.94600E-03 3.80258E-02 1.01236E-13-4.76572E-13
 -1      3893 2.03302E+01 1.16487E+00-2.83208E-03-1.52961E-02 6.43078E-14-4.90167E-13
 -1      3894 1.68313E+01-4.40681E-01 5.02771E-04 2.85146E+00 3.56277E-13-2.78174E-13
 -1      3895 1.55335E+01-2.18660E-02 4.62169E-02 2.74278E+00 3.82153E-13-3.93504E-13
 -1      3896 1.53637E+01 3.71535E-01-1.12023E-02 2.10165E+00 2.72686E-13-2.49955E-13
 -1      3897 1.69211E+01-1.38020E-01-2.55716E-02 2.52694E+00 3.46956E-13-3.24984E-13
 -1      3898 2.03444E+01 1.39253E-01-1.10816E-04 7.04497E-02-8.66815E-14-3.00182E-13
 -1      3899 1.65521E+01 7.27876E-01 6.83874E-03-1.69680E+00-1.70515E-13 4.11583E-14
 -1      3900 1.61164E+01 9.09117E-01-6.10656E-03-1.17862E+00-1.79116E-13-1.84653E-14
 -1      3901 2.03281E+01 1.13494E+00-2.23547E-03 1.39324E-01 1.76891E-13-4.54851E-13
 -1      3902 2.03267E+01 1.16871E+00-1.80939E-03 8.38787E-02 1.41691E-13-4.74011E-13
 -1      3903 2.03811E+01 9.75123E-01 4.39274E-03 5.14033E-02 1.11063E-13-4.34636E-13
 -1      3904 1.79888E+01-1.52748E+00 2.17981E-02 3.90788E+00-2.92929E-13-4.51184E-14
 -1      3905 1.63394E+01-5.14874E-01 2.09494E-03 3.26044E+00-2.65819E-13 2.17413E-14
 -1      3906 1.69805E+01 5.45236E-01-2.67144E-02 2.04036E+00-2.85310E-13-6.06119E-14
 -1      3907 2.03279E+01 8.43406E-01-2.02128E-03 2.41805E-01 2.40207E-13-3.14038E-13
 -1      3908 2.03353E+01 9.41471E-01 7.42395E-04 2.18862E-01 2.03310E-13-3.55595E-13
 -1      3909 1.72551E+01-2.97952E-01 2.01657E-04 2.94863E+00-1.51997E-13-3.60918E-14
 -1      3910 2.03437E+01 1.29002E-01-8.52253E-04-7.36240E-02 5.00868E-14-3.04411E-13
 -1      3911 2.03635E+01 1.98866E-01 1.03879E-03-5.01001E-02 8.78630E-14-2.92359E-13
 -1      3912 2.02990E+01-7.47919E-03 4.30314E-04 8.77092E-02-2.71573E-14-2.71336E-13
 -1      3913 2.02761E+01-2.90517E-02 1.50993E-05 9.25080E-02-3.83666E-14-2.41814E-13
 -1      3914 2.02516E+01-4.26006E-02 2.85047E-04 9.30928E-02-6.86083E-14-2.50209E-13
 -1      3915 2.02294E+01-4.96766E-02 1.93734E-04 9.46689E-02-7.51990E-14-2.22917E-13
 -1      3916 2.02829E+01-3.34054E-02-3.88309E-04 7.22956E-02-5.58068E-14-2.03065E-13
 -1      3917 2.02045E+01-5.09343E-02 1.29282E-04 9.39142E-02-1.03100E-13-1.94393E-13
 -1      3918 2.01834E+01-4.71280E-02 2.97216E-04 9.42018E-02-1.17082E-13-1.87164E-13
 -1      3919 2.02333E+01-4.97574E-02-3.71724E-04 7.40163E-02-8.62724E-14-2.04489E-13
 -1      3920 2.01585E+01-3.90246E-02-3.10846E-05 9.33822E-02-8.65624E-14-2.15883E-13
 -1      3921 2.01384E+01-2.68133E-02 3.44570E-04 9.39505E-02-4.23377E-14-1.71753E-13
 -1      3922 2.01839E+01-4.29354E-02-3.15959E-04 7.40326E-02-9.67131E-14-1.83027E-13
 -1      3923 2.01133E+01-1.13829E-02-1.95815E-04 9.40921E-02-6.56630E-14-1.89272E-13
 -1      3924 2.00937E+01 7.61995E-03 3.50726E-04 9.61426E-02-5.10065E-14-2.16420E-13
 -1      3925 2.01351E+01-1.81130E-02-1.95215E-04 7.45449E-02-5.07874E-14-1.29148E-13
 -1      3926 2.00677E+01 2.92594E-02-3.68206E-04 9.80151E-02-2.71393E-14-2.67816E-13
 -1      3927 2.00476E+01 5.42022E-02 3.33715E-04 1.02600E-01-3.59939E-14-2.54192E-13
 -1      3928 2.00859E+01 2.12270E-02-2.74650E-05 7.72464E-02-6.90049E-14-2.03700E-13
 -1      3929 2.00196E+01 8.13781E-02-5.59882E-04 1.06960E-01-5.79230E-14-2.67505E-13
 -1      3930 1.99977E+01 1.11785E-01 2.84132E-04 1.14939E-01-6.80552E-14-2.40360E-13
 -1      3931 2.00342E+01 7.33309E-02 2.21133E-04 8.35826E-02-2.70722E-14-3.07553E-13
 -1      3932 1.99660E+01 1.44225E-01-7.92941E-04 1.22398E-01-5.73889E-14-2.06730E-13
 -1      3933 1.99409E+01 1.80018E-01 2.27325E-04 1.34551E-01-6.10517E-14-1.86195E-13
 -1      3934 1.99773E+01 1.37025E-01 4.88245E-04 9.48596E-02-2.77686E-14-2.35170E-13
 -1      3935 1.99036E+01 2.17696E-01-1.05792E-03 1.45801E-01-6.12561E-14-1.35568E-13
 -1      3936 1.98736E+01 2.58780E-01 1.60154E-04 1.62943E-01-1.61934E-14-1.11128E-13
 -1      3937 1.99115E+01 2.11977E-01 7.59568E-04 1.12109E-01-1.28307E-14-1.39558E-13
 -1      3938 1.98284E+01 3.01488E-01-1.35568E-03 1.78652E-01 9.07202E-15-7.78758E-14
 -1      3939 1.97915E+01 3.47593E-01 8.71327E-05 2.01551E-01 8.42721E-15-5.38982E-14
 -1      3940 1.98328E+01 2.98155E-01 1.13205E-03 1.36769E-01-2.44332E-14-1.41780E-13
 -1      3941 1.97358E+01 3.94882E-01-1.70873E-03 2.22468E-01-3.65265E-14-5.25924E-14
 -1      3942 1.96898E+01 4.45328E-01 1.42999E-05 2.51958E-01-1.89846E-14-1.19298E-13
 -1      3943 1.97365E+01 3.94888E-01 1.55742E-03 1.69966E-01-3.34768E-14-1.23499E-13
 -1      3944 1.96207E+01 4.96128E-01-2.12799E-03 2.79000E-01-4.71798E-15-7.15984E-14
 -1      3945 1.95635E+01 5.49467E-01-4.41249E-05 3.16033E-01 2.13372E-15-3.73209E-14
 -1      3946 1.96169E+01 5.00842E-01 2.04915E-03 2.13204E-01-5.03472E-15-9.48654E-14
 -1      3947 1.94776E+01 6.01749E-01-2.63905E-03 3.50362E-01-3.68014E-14-1.56205E-14
 -1      3948 1.94072E+01 6.55420E-01-5.99905E-05 3.96153E-01-6.51410E-14-9.08293E-14
 -1      3949 1.94681E+01 6.13200E-01 2.61946E-03 2.68323E-01-1.86229E-14-8.66746E-14
 -1      3950 1.93009E+01 7.05781E-01-3.28707E-03 4.39404E-01-3.03510E-14-7.35189E-14
 -1      3951 1.92153E+01 7.55697E-01 1.89935E-05 4.95707E-01 6.69148E-15-7.78496E-15
 -1      3952 1.92834E+01 7.27063E-01 3.28562E-03 3.37837E-01-1.51861E-14-2.30935E-15
 -1      3953 1.90843E+01 7.98892E-01-4.15332E-03 5.50389E-01-2.30239E-14-2.88119E-14
 -1      3954 1.89826E+01 8.38986E-01 2.86286E-04 6.20021E-01-7.87638E-14-8.05285E-14
 -1      3955 1.90553E+01 8.34771E-01 4.07605E-03 4.25543E-01-8.58603E-15-5.50683E-14
 -1      3956 1.88218E+01 8.67361E-01-5.37863E-03 6.90254E-01-1.43808E-13-8.43447E-14
 -1      3957 1.87043E+01 8.89041E-01 9.04702E-04 7.77991E-01-1.05087E-13-1.56915E-13
 -1      3958 1.87754E+01 9.25232E-01 5.03714E-03 5.37631E-01-1.04495E-13-8.16412E-14
 -1      3959 1.85072E+01 8.91835E-01-7.18166E-03 8.70800E-01-4.48919E-14-1.35361E-13
 -1      3960 1.83770E+01 8.83193E-01 2.14759E-03 9.84791E-01 2.13437E-14-9.21060E-14
 -1      3961 1.84331E+01 9.83186E-01 6.23156E-03 6.84671E-01-7.74980E-14-5.01681E-14
 -1      3962 1.81348E+01 8.45599E-01-9.75769E-03 1.11230E+00-1.41223E-15-1.13754E-13
 -1      3963 1.80004E+01 7.89587E-01 4.50820E-03 1.26610E+00 1.89267E-14-9.17408E-14
 -1      3964 1.80151E+01 9.87952E-01 7.65702E-03 8.85033E-01 1.89487E-14-9.04126E-14
 -1      3965 1.77038E+01 6.91419E-01-1.24404E-02 1.44733E+00 4.56883E-14-8.04570E-14
 -1      3966 1.75761E+01 5.63712E-01 8.64259E-03 1.66401E+00 1.31503E-13-1.44675E-13
 -1      3967 1.75025E+01 9.06574E-01 7.99416E-03 1.16927E+00 8.53170E-15 7.72069E-14
 -1      3968 1.97454E+01 4.09926E-01 1.70814E-04-2.77297E-01-4.57983E-14 1.41777E-14
 -1      3969 1.97837E+01 3.61159E-01-1.65909E-03-2.46059E-01 1.23375E-14 5.84529E-14
 -1      3970 2.02267E+01-2.08059E+00 3.94314E-02-3.35423E+00 3.05268E-14-3.77775E-14
 -1      3971 2.01436E+01-4.91821E-02 3.58233E-04-1.45013E-01 1.31283E-13-2.37804E-13
 -1      3972 2.01574E+01-4.74918E-02 2.66118E-04-1.45804E-01 1.25734E-13-2.08176E-13
 -1      3973 2.02003E+01-4.40242E-02-5.23256E-04-1.30889E-01 1.43351E-13-2.08081E-13
 -1      3974 2.01615E+01-4.92407E-02-4.54816E-04-1.30354E-01 1.29749E-13-2.19267E-13
 -1      3975 2.03052E+01 3.15506E-02-3.54722E-04-9.83782E-02 8.53747E-14-3.18549E-13
 -1      3976 2.03270E+01 7.46977E-02 7.80432E-04-8.54891E-02 4.14242E-14-3.24330E-13
 -1      3977 2.03627E+01 1.17291E-01-1.31884E-04-6.30522E-02 6.86077E-14-3.17189E-13
 -1      3978 1.99045E+01 2.31554E-01 3.11547E-04-1.81782E-01-9.89500E-14 9.12767E-14
 -1      3979 1.99290E+01 1.92831E-01-1.03642E-03-1.63742E-01-1.01276E-15 5.86621E-14
 -1      3980 2.03784E+01 5.13097E-01-2.27944E-03 4.30037E-02 1.30517E-13-3.42912E-13
 -1      3981 2.03810E+01 6.63431E-01 7.96423E-04 1.01325E-01 1.53681E-13-3.64479E-13
 -1      3982 1.98337E+01 3.15871E-01 2.44904E-04-2.23232E-01-3.98559E-14 7.11276E-14
 -1      3983 1.98641E+01 2.71922E-01-1.32436E-03-1.98978E-01-9.19929E-14 7.06027E-14
 -1      3984 1.97786E+01 3.63437E-01 1.42139E-03-1.98180E-01-1.32597E-14 7.30657E-14
 -1      3985 1.99623E+01 1.57579E-01 3.57736E-04-1.51469E-01-3.82943E-14 3.07715E-14
 -1      3986 1.99827E+01 1.24142E-01-7.89166E-04-1.38871E-01-6.47203E-14 8.31989E-15
 -1      3987 1.99343E+01 1.88846E-01 6.59582E-04-1.33531E-01-6.42343E-14 1.06685E-13
 -1      3988 1.96343E+01 5.11978E-01 9.59465E-05-3.45504E-01-6.13072E-14 1.84469E-14
 -1      3989 1.96829E+01 4.59425E-01-2.05233E-03-3.06500E-01-5.04855E-14 1.01245E-15
 -1      3990 1.96714E+01 4.66320E-01 1.90453E-03-2.46067E-01-3.28882E-14 1.44516E-13
 -1      3991 1.94950E+01 6.18452E-01 4.07078E-05-4.29603E-01-3.61484E-14-3.63402E-14
 -1      3992 1.95561E+01 5.64149E-01-2.52281E-03-3.81950E-01-4.87021E-14-4.92253E-14
 -1      3993 1.95369E+01 5.77227E-01 2.47389E-03-3.06107E-01-9.04501E-15 8.25362E-14
 -1      3994 1.93214E+01 7.23079E-01 4.97247E-05-5.31926E-01 5.54315E-15-8.81009E-14
 -1      3995 1.93973E+01 6.70501E-01-3.10593E-03-4.74439E-01 1.42443E-14-8.49348E-14
 -1      3996 1.93683E+01 6.92156E-01 3.14594E-03-3.80014E-01 3.92714E-14-1.47481E-13
 -1      3997 1.91079E+01 8.15855E-01 2.09967E-04-6.56159E-01-4.31134E-14-6.10303E-14
 -1      3998 1.92001E+01 7.70439E-01-3.86705E-03-5.86916E-01-5.28086E-14-1.19312E-13
 -1      3999 1.91581E+01 8.04450E-01 3.94420E-03-4.70335E-01-1.25957E-14-2.02662E-13
 -1      4000 1.88489E+01 8.81778E-01 6.83399E-04-8.08814E-01-8.07361E-14 2.29709E-14
 -1      4001 1.89579E+01 8.51547E-01-4.92377E-03-7.24340E-01-3.69629E-14 2.10258E-14
 -1      4002 1.88976E+01 9.03981E-01 4.90599E-03-5.81429E-01-9.74504E-14-1.17124E-13
 -1      4003 1.85407E+01 8.99215E-01 1.78501E-03-1.00182E+00-1.27353E-14-2.71709E-14
 -1      4004 1.86640E+01 8.95602E-01-6.47232E-03-8.95725E-01-2.05337E-14 1.24282E-15
 -1      4005 1.85768E+01 9.76282E-01 6.09158E-03-7.21314E-01-6.78545E-15 8.83592E-14
 -1      4006 1.81826E+01 8.36795E-01 3.85478E-03-1.25693E+00-1.42137E-13-1.00215E-13
 -1      4007 1.83129E+01 8.76526E-01-8.77652E-03-1.11786E+00-9.77262E-14-9.77019E-14
 -1      4008 1.81829E+01 1.00142E+00 7.55566E-03-9.05124E-01-5.71182E-14 9.86385E-15
 -1      4009 1.77830E+01 6.48014E-01 7.55660E-03-1.61055E+00-1.47702E-13-9.62826E-14
 -1      4010 1.79031E+01 7.56303E-01-1.19569E-02-1.41996E+00-1.06035E-13-4.35093E-14
 -1      4011 1.77005E+01 9.49616E-01 8.99791E-03-1.16152E+00-1.25836E-13 1.48232E-14
 -1      4012 1.73528E+01 2.65357E-01 1.19259E-02-2.12243E+00-1.34603E-13-1.33237E-13
 -1      4013 1.74414E+01 4.81691E-01-1.54276E-02-1.84624E+00-1.48143E-13-9.97994E-14
 -1      4014 1.71119E+01 7.72942E-01 8.69428E-03-1.53049E+00-1.54314E-13-2.36942E-14
 -1      4015 1.69906E+01-2.44234E-01 1.48703E-02-2.69078E+00-1.64591E-14-1.40181E-14
 -1      4016 1.70055E+01 2.99045E-02-1.89211E-02-2.39695E+00-1.12063E-13-1.09355E-13
 -1      4017 1.64781E+01 4.94971E-01 2.00694E-02-1.99667E+00-1.48765E-13-5.46533E-14
 -1      4018 1.57892E+01 7.34521E-02 3.64371E-02-2.61749E+00-1.21210E-13 1.28975E-13
 -1      4019 1.78477E+01-5.52506E-01 1.68913E-02-3.08370E+00-6.67192E-14 1.07711E-13
 -1      4020 2.03808E+01 1.83545E-01 6.37109E-04 4.61786E-02-8.24400E-14-3.04693E-13
 -1      4021 2.03616E+01 1.16284E-01-6.67496E-04 6.53309E-02-7.12603E-14-3.08329E-13
 -1      4022 1.72996E+01 3.87811E-01-1.85842E-02 1.89813E+00 1.47732E-13-2.42636E-13
 -1      4023 1.72131E+01 1.48866E-01 9.75801E-03 2.20448E+00 2.42134E-13-2.77743E-13
 -1      4024 1.64805E+01 3.97031E-01 2.49432E-02 2.08818E+00 2.74581E-13-2.12241E-13
 -1      4025 1.69717E+01 7.22456E-01 1.28420E-02 1.55629E+00 5.49826E-14 4.30473E-14
 -1      4026 2.00950E+01-1.46458E-03 4.17003E-04-1.12248E-01-4.36287E-14-2.03530E-15
 -1      4027 2.01117E+01-1.85439E-02-2.00959E-04-1.10650E-01 1.36684E-14-5.96125E-14
 -1      4028 2.03712E+01 2.83430E-01-1.48329E-03-2.83999E-02 9.23294E-14-2.95620E-13
 -1      4029 2.03863E+01 3.88301E-01 1.40934E-03 1.02146E-02 1.20529E-13-2.93865E-13
 -1      4030 2.04021E+01 4.89954E-01 4.93122E-05 2.74612E-02 9.75947E-14-3.43068E-13
 -1      4031 2.03926E+01 2.68449E-01 4.28247E-04-2.82094E-02 9.48355E-14-2.94440E-13
 -1      4032 1.87483E+01-1.47148E+00 2.51450E-02 3.55950E+00-3.02570E-13-2.46689E-13
 -1      4033 2.03984E+01 6.36200E-01 1.10620E-03-7.21439E-02-3.56381E-14-4.04602E-13
 -1      4034 2.03981E+01 4.89939E-01-1.53962E-03-2.52855E-02-4.37789E-14-3.68476E-13
 -1      4035 1.62267E+01 8.63642E-01 1.04672E-02 1.45727E+00-3.42646E-13 1.11699E-13
 -1      4036 2.03813E+01 9.88145E-01 4.68841E-03-1.92862E-02 3.34238E-14-4.57606E-13
 -1      4037 2.03309E+01 1.16205E+00-1.71317E-03-5.15429E-02 3.57012E-14-5.11224E-13
 -1      4038 2.03313E+01 1.14230E+00-2.39677E-03-9.59322E-02-8.96940E-16-4.96179E-13
 -1      4039 2.03354E+01 6.91007E-01 2.80083E-03 1.71365E-01 2.25832E-13-2.86520E-13
 -1      4040 2.04019E+01 3.67888E-01 5.63671E-04-7.13082E-04-5.50442E-14-3.46572E-13
 -1      4041 2.03902E+01 2.66369E-01-1.07373E-03 3.07949E-02-6.20474E-14-3.22523E-13
 -1      4042 2.04161E+01 4.61994E-01 5.79562E-04-1.37592E-02-1.95854E-14-3.70459E-13
 -1      4043 1.58676E+01 9.99040E-01-1.24454E-03 8.54477E-01-3.35466E-13-8.62871E-14
 -1      4044 2.03437E+01 6.37925E-02 5.69371E-04 7.37532E-02-4.38819E-14-2.89738E-13
 -1      4045 2.03215E+01 2.26413E-02-2.67192E-04 8.42217E-02-3.88518E-14-2.70575E-13
 -1      4046 2.03312E+01 1.37844E-02-3.17821E-04 6.62262E-02-2.68266E-14-2.26148E-13
 -1      4047 2.01359E+01-2.48102E-02-2.67770E-04-9.32700E-02-4.86480E-16-7.26720E-14
 -1      4048 2.01349E+01-3.20332E-02 3.83970E-04-1.10883E-01 1.02083E-13-1.28186E-13
 -1      4049 2.01526E+01-4.23859E-02-5.27350E-06-1.10775E-01 1.23831E-13-1.35175E-13
 -1      4050 2.00111E+01 9.40588E-02 3.91297E-04-1.30832E-01-2.69541E-14-1.03511E-13
 -1      4051 2.00290E+01 6.58687E-02-5.74125E-04-1.22811E-01-3.87414E-14-5.45710E-14
 -1      4052 1.99928E+01 1.18173E-01 3.47996E-04-1.14307E-01-1.20706E-13-3.56903E-14
 -1      4053 2.03297E+01 1.14175E+00-1.09441E-03-1.31993E-01-1.89685E-14-4.71764E-13
 -1      4054 2.03302E+01 1.10191E+00-2.02351E-03-1.73219E-01-5.24048E-14-4.53784E-13
 -1      4055 2.03606E+01 9.58094E-01 1.99111E-03-1.42978E-01-4.67414E-14-4.39705E-13
 -1      4056 2.03757E+01 9.78026E-01 3.72162E-03-8.16283E-02-4.78987E-16-4.78724E-13
 -1      4057 1.98644E+01 2.70661E-01 1.01055E-03-1.61077E-01-5.30216E-14 1.24760E-13
 -1      4058 2.02839E+01-1.57401E-04 5.74067E-04-1.03756E-01 1.04363E-13-2.82327E-13
 -1      4059 2.03212E+01 2.34158E-02-3.76396E-04-8.20711E-02 8.46387E-14-3.47342E-13
 -1      4060 2.02623E+01-2.37113E-02-1.00099E-05-1.09751E-01 1.14144E-13-2.60050E-13
 -1      4061 1.54160E+01 4.31072E-01-1.70794E-02-2.04420E+00-1.72694E-13-8.28313E-14
 -1      4062 2.04058E+01 2.46126E-01 2.44152E-04 2.72676E-02-5.78506E-14-3.15330E-13
 -1      4063 1.53059E+01 9.08237E-01 2.34921E-02-8.82342E-01-9.13675E-14-3.09119E-14
 -1      4064 1.44365E+01 1.02365E+00 3.37985E-02-6.23955E-01-5.78640E-14-2.91072E-13
 -1      4065 1.50080E+01 8.39587E-01-5.03652E-03-1.20809E+00-1.15826E-13-1.53880E-13
 -1      4066 1.49534E+01 1.06571E+00-1.50559E-03-1.44944E-01-3.50588E-15-1.52604E-13
 -1      4067 2.00712E+01 1.81163E-02-3.70405E-04-1.13996E-01-1.31609E-14-1.93379E-14
 -1      4068 2.00907E+01 1.08078E-02-7.49381E-05-9.55906E-02-2.14425E-14-5.67272E-14
 -1      4069 2.00544E+01 4.09330E-02 4.22600E-04-1.18315E-01-1.98081E-14-5.43088E-14
 -1      4070 2.03742E+01 1.02486E-01-1.07549E-04 5.24602E-02-5.11007E-14-2.87076E-13
 -1      4071 2.03612E+01 8.32737E-01-6.39687E-05 1.41274E-01 1.83518E-13-3.75772E-13
 -1      4072 2.03267E+01 1.08237E+00-2.47902E-03 2.21449E-01 2.01981E-13-4.10933E-13
 -1      4073 1.58564E+01 5.24020E-01 6.82964E-03 1.84933E+00 2.16244E-13-1.60022E-13
 -1      4074 1.51804E+01 8.15252E-01 3.93106E-02 1.47852E+00 1.45132E-13-6.29080E-14
 -1      4075 1.51136E+01 9.28894E-01-1.63901E-02 8.89178E-01 5.49651E-14 3.17238E-14
 -1      4076 1.60946E+01 6.95992E-01-2.04010E-02 1.55617E+00 1.53022E-13-9.96815E-15
 -1      4077 2.03711E+01 8.19729E-01-1.54606E-03-1.10279E-01-4.63500E-14-4.23315E-13
 -1      4078 2.03907E+01 7.73951E-01-2.34672E-04-7.56856E-02-2.08831E-14-4.22690E-13
 -1      4079 2.03989E+01 8.13650E-01-1.92280E-03 5.85139E-05 5.93176E-14-4.23362E-13
 -1      4080 2.03988E+01 8.08178E-01-2.06660E-03-2.78438E-02 1.54439E-14-4.41437E-13
 -1      4081 2.03229E+01 1.14986E+00-1.28199E-03 1.72468E-01 1.88063E-13-4.44030E-13
 -1      4082 1.81652E+01-4.67144E-01 2.25438E-02 3.05416E+00-2.24633E-13-4.06151E-14
 -1      4083 2.03962E+01 7.91604E-01-1.76015E-03 5.30222E-02 1.11770E-13-4.17945E-13
 -1      4084 2.03979E+01 8.09062E-01-1.77223E-03 2.20294E-02 7.07034E-14-4.16623E-13
 -1      4085 2.04265E+01 6.63137E-01 2.83438E-03 9.97838E-03 5.43974E-14-3.88280E-13
 -1      4086 2.03719E+01 9.64758E-01 3.64721E-03 1.15628E-01 1.69417E-13-4.38493E-13
 -1      4087 2.03800E+01 7.97703E-01 8.20480E-04 1.03738E-01 1.62256E-13-3.96539E-13
 -1      4088 2.03954E+01 7.73631E-01-1.54627E-03-5.02554E-02-2.04000E-15-4.56556E-13
 -1      4089 2.02581E+01-4.91575E-02 1.84394E-04 5.09336E-02-8.91600E-14-1.65980E-13
 -1      4090 2.02331E+01-5.11050E-02 2.00859E-04 5.20340E-02-9.06145E-14-1.85439E-13
 -1      4091 2.02061E+01-4.74965E-02 8.52128E-05 5.11775E-02-6.88094E-14-1.39759E-13
 -1      4092 2.01814E+01-3.89926E-02 2.35718E-04 5.19003E-02-4.94179E-14-9.14366E-14
 -1      4093 2.02264E+01-4.88793E-02-3.49509E-04 2.90658E-02-4.24757E-14-7.27611E-14
 -1      4094 2.01543E+01-2.63310E-02-2.51911E-05 5.14942E-02-6.02262E-14-6.73903E-14
 -1      4095 2.01300E+01-9.70256E-03 2.79653E-04 5.27465E-02-6.97015E-14-7.48436E-14
 -1      4096 2.01728E+01-3.20138E-02-2.64501E-04 2.91870E-02-3.05965E-14-4.74292E-14
 -1      4097 2.01019E+01 1.02082E-02-2.05424E-04 5.27112E-02-1.10960E-13-6.48223E-14
 -1      4098 2.00769E+01 3.38914E-02 1.92790E-04 5.51672E-02-6.74004E-14-8.91255E-14
 -1      4099 2.01195E+01 1.66711E-03-1.34335E-04 2.97635E-02-8.21885E-14-3.44771E-14
 -1      4100 2.00475E+01 6.01456E-02-3.09355E-04 5.65054E-02-8.54438E-15-1.57622E-13
 -1      4101 2.00205E+01 8.98642E-02 7.52703E-05 6.06022E-02-1.56399E-14-1.55238E-13
 -1      4102 2.00635E+01 4.98103E-02 1.34123E-04 3.19279E-02-8.89326E-14-1.70681E-14
 -1      4103 1.99880E+01 1.22095E-01-4.88896E-04 6.32495E-02-6.34547E-15-1.21601E-13
 -1      4104 1.99576E+01 1.57554E-01-7.57495E-05 6.95440E-02-1.76663E-15-9.38932E-14
 -1      4105 2.00039E+01 1.10870E-01 6.10112E-04 3.57326E-02 2.79488E-14-1.61060E-14
 -1      4106 1.99194E+01 1.95737E-01-8.45095E-04 7.41228E-02-3.18338E-14-1.34329E-13
 -1      4107 1.98841E+01 2.37329E-01-9.97399E-05 8.34216E-02-4.26002E-14-1.05214E-13
 -1      4108 1.99353E+01 1.85337E-01 1.22179E-03 4.19689E-02-3.92755E-14-1.38787E-13
 -1      4109 1.98383E+01 2.80737E-01-1.19041E-03 8.99942E-02-3.64074E-14-1.30359E-13
 -1      4110 1.97956E+01 3.28098E-01-2.57009E-04 1.02539E-01 6.84817E-15-1.36254E-13
 -1      4111 1.98557E+01 2.71203E-01 2.07400E-03 5.10116E-02-5.71744E-14-1.97258E-13
 -1      4112 1.97394E+01 3.76951E-01-1.55859E-03 1.11750E-01-2.29776E-14-9.65393E-14
 -1      4113 1.96866E+01 4.29707E-01-4.35304E-04 1.28099E-01-3.42735E-14-9.01381E-14
 -1      4114 1.97585E+01 3.69017E-01 2.97189E-03 6.34916E-02 3.74850E-14-2.31066E-13
 -1      4115 1.96169E+01 4.83319E-01-2.00731E-03 1.40509E-01-2.01598E-14-7.03418E-14
 -1      4116 1.95511E+01 5.40585E-01-6.37716E-04 1.61299E-01-5.02604E-15-8.30254E-14
 -1      4117 1.96385E+01 4.78067E-01 4.03935E-03 8.02642E-02 9.69369E-15-1.81846E-13
 -1      4118 1.94643E+01 5.97615E-01-2.56196E-03 1.77646E-01 1.50236E-14-8.42165E-14
 -1      4119 1.93824E+01 6.57697E-01-8.60807E-04 2.03698E-01 1.29734E-14-7.40755E-14
 -1      4120 1.94889E+01 5.96684E-01 5.33811E-03 1.02283E-01 4.21215E-15-1.23136E-13
 -1      4121 1.92741E+01 7.15810E-01-3.27207E-03 2.25008E-01-1.62783E-14-8.01834E-14
 -1      4122 1.91726E+01 7.75927E-01-1.09734E-03 2.57520E-01-2.73701E-14-9.31022E-14
 -1      4123 1.93023E+01 7.21722E-01 6.95708E-03 1.30894E-01 4.98435E-15-1.39213E-13
 -1      4124 1.90376E+01 8.31482E-01-4.22903E-03 2.85309E-01-5.75691E-14-1.11840E-13
 -1      4125 1.89127E+01 8.87525E-01-1.33588E-03 3.26214E-01-3.30415E-14-1.70843E-13
 -1      4126 1.90696E+01 8.48120E-01 9.04374E-03 1.68094E-01-4.81677E-14-1.86017E-13
 -1      4127 1.87439E+01 9.35302E-01-5.60053E-03 3.62829E-01-3.37375E-14-2.17828E-13
 -1      4128 1.85912E+01 9.81668E-01-1.56414E-03 4.15439E-01-7.33734E-14-1.15800E-13
 -1      4129 1.87797E+01 9.68629E-01 1.18494E-02 2.16985E-01-7.53063E-14-2.32921E-13
 -1      4130 1.83788E+01 1.01466E+00-7.68669E-03 4.64682E-01-7.64078E-14-1.41020E-13
 -1      4131 1.81929E+01 1.04418E+00-1.75581E-03 5.34831E-01-6.78141E-14-8.54220E-14
 -1      4132 1.84178E+01 1.07380E+00 1.57840E-02 2.82544E-01-1.10487E-13-2.09933E-13
 -1      4133 1.79215E+01 1.05360E+00-1.09332E-02 6.03252E-01-9.64140E-14-1.01638E-13
 -1      4134 1.76958E+01 1.05710E+00-1.69995E-03 7.01313E-01-5.50554E-14-1.10163E-13
 -1      4135 1.79619E+01 1.15217E+00 2.13379E-02 3.72798E-01-1.04944E-13-2.26911E-13
 -1      4136 1.73420E+01 1.03664E+00-1.39511E-02 8.02357E-01 5.39795E-14-1.11809E-13
 -1      4137 1.70635E+01 9.93251E-01-1.43987E-03 9.48976E-01 5.29128E-14-6.83479E-14
 -1      4138 1.73729E+01 1.18835E+00 2.74010E-02 4.99972E-01-9.38962E-15-2.11723E-13
 -1      4139 1.94479E+01 6.24020E-01-9.35834E-04-2.48756E-01 8.85514E-14-6.55505E-14
 -1      4140 1.95232E+01 5.64674E-01-2.27850E-03-2.19942E-01 2.76764E-14-4.72812E-15
 -1      4141 2.04221E+01 6.33559E-01 2.06539E-03-2.52740E-02 1.25209E-14-4.31509E-13
 -1      4142 1.97276E+01 3.99747E-01-4.33039E-04-1.61830E-01-2.99914E-14 1.00390E-13
 -1      4143 1.97754E+01 3.48926E-01-1.38758E-03-1.43055E-01-1.09309E-14 6.69670E-14
 -1      4144 1.99078E+01 2.14657E-01-4.34811E-05-1.08333E-01-1.27724E-13 1.35022E-13
 -1      4145 1.99397E+01 1.75142E-01-6.95488E-04-9.75828E-02-1.19932E-13 1.24327E-14
 -1      4146 1.92531E+01 7.43414E-01-1.23406E-03-3.07571E-01 8.57078E-14-1.31972E-13
 -1      4147 1.93473E+01 6.82878E-01-2.90165E-03-2.72771E-01 8.56137E-14-9.70588E-14
 -1      4148 1.93620E+01 6.88847E-01 5.89632E-03-1.79314E-01 1.19802E-13-1.84043E-13
 -1      4149 1.90101E+01 8.59287E-01-1.55213E-03-3.79195E-01-5.65020E-14-1.35968E-13
 -1      4150 1.91271E+01 8.01281E-01-3.73208E-03-3.37205E-01 1.80410E-14-1.14602E-13
 -1      4151 1.91430E+01 8.15905E-01 7.65321E-03-2.20448E-01 2.22091E-14-6.87914E-14
 -1      4152 1.87079E+01 9.61560E-01-1.87423E-03-4.67492E-01-1.18433E-13-4.15655E-14
 -1      4153 1.88522E+01 9.11387E-01-4.90633E-03-4.16019E-01-1.11355E-13-6.49898E-14
 -1      4154 1.88693E+01 9.39339E-01 9.95261E-03-2.70428E-01-1.31104E-13 4.04923E-14
 -1      4155 1.83321E+01 1.03651E+00-2.18558E-03-5.79752E-01-2.20478E-14 9.81982E-14
 -1      4156 1.85092E+01 1.00123E+00-6.67217E-03-5.14321E-01-6.85943E-14 5.50818E-14
 -1      4157 1.85269E+01 1.04994E+00 1.31016E-02-3.32343E-01-1.48653E-13 1.70408E-14
 -1      4158 1.78625E+01 1.06639E+00-2.46590E-03-7.29839E-01-5.66270E-14 1.34684E-13
 -1      4159 1.80791E+01 1.05502E+00-9.46432E-03-6.41675E-01 2.19864E-14 1.49805E-13
 -1      4160 1.80962E+01 1.13621E+00 1.76057E-02-4.12019E-01-4.07710E-14 1.66004E-13
 -1      4161 1.72737E+01 1.03097E+00-3.00865E-04-9.44036E-01-1.21383E-13 9.80873E-14
 -1      4162 1.75327E+01 1.05445E+00-1.36649E-02-8.16669E-01-6.58886E-14 1.58888E-13
 -1      4163 1.75461E+01 1.18497E+00 2.40359E-02-5.19743E-01-5.95464E-14 2.07719E-13
 -1      4164 2.03096E+01-2.54287E-02 2.35522E-04 4.86401E-02-4.57540E-14-1.80227E-13
 -1      4165 2.02845E+01-4.07956E-02 1.35114E-04 5.14742E-02-6.41212E-14-1.80307E-13
 -1      4166 2.02794E+01-4.37659E-02-4.10383E-04 2.88799E-02-5.65211E-14-1.61357E-13
 -1      4167 1.83008E+01-9.43220E-01 3.31173E-03 3.33710E+00-2.39958E-13-1.40172E-13
 -1      4168 2.04244E+01 2.97202E-01-2.71633E-04 9.70692E-03-2.82480E-14-3.31467E-13
 -1      4169 2.04135E+01 2.07933E-01-2.62997E-04 2.68561E-02-3.41810E-14-3.09100E-13
 -1      4170 2.03988E+01 1.34898E-01 1.68218E-04 3.04532E-02-2.96588E-14-2.67535E-13
 -1      4171 2.03798E+01 7.73572E-02 2.50862E-05 4.15524E-02-1.84785E-14-2.48843E-13
 -1      4172 2.04156E+01 1.82089E-01-3.47493E-04 1.48677E-02 6.88577E-16-2.64792E-13
 -1      4173 1.96035E+01 5.08018E-01-6.67600E-04-2.00619E-01-1.62505E-14 7.99007E-14
 -1      4174 1.96634E+01 4.52253E-01-1.78779E-03-1.77083E-01 1.77332E-14 9.01151E-14
 -1      4175 1.95368E+01 5.64932E-01 4.50254E-03-1.45410E-01 7.58608E-14-1.71372E-13
 -1      4176 2.03864E+01 7.79066E-01-1.73913E-03 7.88700E-02 1.40180E-13-4.09705E-13
 -1      4177 2.03580E+01 3.19894E-02 1.93769E-04 4.25159E-02 3.58477E-15-2.17255E-13
 -1      4178 2.03346E+01-1.31008E-03 7.57961E-05 4.86305E-02-1.00628E-14-2.05229E-13
 -1      4179 2.03788E+01 6.04160E-02-5.89372E-04 2.29235E-02 1.50568E-14-2.41294E-13
 -1      4180 2.04268E+01 5.10567E-01-7.53791E-04-1.80272E-02 1.18022E-14-4.04791E-13
 -1      4181 2.04290E+01 3.84788E-01-2.03706E-05 5.11954E-03-1.16674E-14-3.76238E-13
 -1      4182 2.04347E+01 3.46547E-01 2.09801E-04 2.90535E-03 2.19771E-14-3.43133E-13
 -1      4183 2.04316E+01 5.46424E-01 3.61913E-04-6.48083E-03 4.03256E-14-3.80044E-13
 -1      4184 1.98271E+01 3.01605E-01-2.29779E-04-1.31382E-01-1.49210E-14 6.56702E-14
 -1      4185 1.98656E+01 2.56359E-01-1.04398E-03-1.16898E-01-6.04624E-14 1.00802E-13
 -1      4186 1.98783E+01 2.48292E-01 1.56289E-03-7.92095E-02-7.31630E-14-8.38070E-14
 -1      4187 1.97881E+01 3.42714E-01 2.41666E-03-9.59314E-02-1.67084E-14-2.08250E-14
 -1      4188 1.54838E+01 7.88314E-01 2.51175E-02-1.52002E+00-9.66102E-14-1.16547E-13
 -1      4189 1.60282E+01 6.25083E-01 3.06420E-03-1.75488E+00-1.07828E-13-6.71138E-14
 -1      4190 1.56304E+01 9.67773E-01-2.26195E-03-1.00085E+00 5.77489E-15-1.61789E-13
 -1      4191 2.03730E+01 9.29006E-02-5.17222E-04-5.47189E-02 6.99863E-14-3.27290E-13
 -1      4192 2.03936E+01 1.55258E-01 8.42730E-04-3.99919E-02 8.23731E-14-3.13147E-13
 -1      4193 2.04147E+01 6.44749E-01 2.56923E-03 4.78028E-02 7.86026E-14-3.91080E-13
 -1      4194 1.99749E+01 1.39051E-01 5.23625E-05-9.20968E-02-1.61702E-13 2.95805E-14
 -1      4195 2.00020E+01 1.05525E-01-4.91264E-04-8.46004E-02-1.50011E-13-3.82335E-14
 -1      4196 1.99525E+01 1.63766E-01 1.10118E-04-6.63123E-02-1.42587E-13-3.52521E-14
 -1      4197 2.01346E+01-1.74189E-02 1.78415E-04-7.25207E-02-5.36879E-14-8.23199E-14
 -1      4198 2.01572E+01-3.20524E-02-6.53815E-05-7.15060E-02 1.82255E-14-1.22179E-13
 -1      4199 2.03545E+01 4.49594E-02 7.09924E-04-5.83006E-02 4.51333E-14-3.22039E-13
 -1      4200 2.03785E+01 7.71697E-02-7.33272E-04-3.91671E-02 5.42580E-14-3.10731E-13
 -1      4201 2.03313E+01 8.47331E-03 9.40833E-05-6.59684E-02 6.11601E-14-3.12801E-13
 -1      4202 1.51218E+01 9.58192E-01 3.26334E-02 4.70459E-01-2.52086E-13 2.05825E-15
 -1      4203 2.02392E+01-3.89352E-02 4.00231E-04-1.10837E-01 1.23089E-13-2.33956E-13
 -1      4204 2.02749E+01-2.86461E-02-6.85516E-04-9.09924E-02 9.49330E-14-2.72523E-13
 -1      4205 2.02186E+01-4.78561E-02 2.17682E-04-1.12826E-01 1.10208E-13-2.11557E-13
 -1      4206 2.00438E+01 5.87813E-02 1.28108E-04-1.02091E-01-1.79625E-14-1.29812E-13
 -1      4207 2.01082E+01 9.96032E-04-5.83027E-05-7.24716E-02-2.01492E-14-9.62063E-14
 -1      4208 2.01270E+01-7.72156E-03-2.58590E-04-5.11684E-02-2.11159E-14-5.05039E-14
 -1      4209 2.00851E+01 2.27099E-02 2.75102E-04-7.49823E-02 4.64251E-14-1.18631E-13
 -1      4210 2.03312E+01-1.04852E-02-5.48626E-04 2.72503E-02-2.63725E-14-2.01982E-13
 -1      4211 1.65112E+01 8.77324E-01-1.00216E-04-1.27813E+00-8.18166E-14-2.52997E-14
 -1      4212 1.68302E+01 9.66122E-01-1.99307E-02-1.08798E+00-6.25901E-14 5.62037E-14
 -1      4213 1.63182E+01 7.42736E-01-2.15790E-02-1.53090E+00-1.02064E-13-3.33516E-14
 -1      4214 1.51597E+01 1.14377E+00 3.39572E-02 3.26071E-01 8.15374E-14 5.45744E-15
 -1      4215 1.52880E+01 1.08016E+00-2.19068E-02-2.12220E-01 2.54836E-14-1.28053E-13
 -1      4216 1.55349E+01 9.97639E-01 3.16917E-03 7.58834E-01 9.79727E-14 1.55904E-14
 -1      4217 2.04135E+01 2.08551E-01-2.52281E-04-2.37726E-02 6.21948E-14-3.41584E-13
 -1      4218 2.04038E+01 2.30281E-01-1.42722E-03-3.22384E-02 8.19315E-14-3.45050E-13
 -1      4219 2.04181E+01 3.25528E-01 8.53871E-04-8.33578E-03 6.87248E-14-3.50224E-13
 -1      4220 2.01758E+01-4.85971E-02 3.28806E-04-1.11738E-01 1.08969E-13-1.84121E-13
 -1      4221 2.01953E+01-5.06771E-02 2.95184E-04-1.11506E-01 1.18748E-13-1.82698E-13
 -1      4222 2.01809E+01-4.57798E-02-5.11833E-04-9.34372E-02 8.96106E-14-1.50413E-13
 -1      4223 2.04157E+01 4.96396E-01-1.35327E-03 1.46202E-02 5.91098E-14-3.70631E-13
 -1      4224 1.96763E+01 4.48672E-01 3.36580E-03-1.17824E-01 1.31623E-14-5.62017E-14
 -1      4225 1.68046E+01 1.18304E+00 2.83219E-02-6.79901E-01-3.75916E-14 1.34026E-13
 -1      4226 1.67310E+01 9.22789E-01-1.57775E-02 1.11206E+00-1.05816E-14 4.88784E-14
 -1      4227 1.65008E+01 8.34603E-01 4.42486E-03 1.31885E+00 1.14041E-13-2.47838E-15
 -1      4228 1.60290E+01 9.90916E-01 2.25601E-02 1.07506E+00 9.36660E-14-1.21182E-14
 -1      4229 1.66912E+01 1.10892E+00 2.93325E-03 7.20762E-01 1.04145E-13-1.69361E-13
 -1      4230 2.01891E+01-3.89210E-02 1.89827E-04 5.35281E-03-2.71690E-14-5.75901E-14
 -1      4231 2.01624E+01-2.63523E-02 1.29302E-04 6.09696E-03-1.49843E-14-8.95888E-14
 -1      4232 2.01257E+01-3.20803E-03 6.40934E-05-1.13109E-02-3.14682E-14-6.43762E-14
 -1      4233 2.00982E+01 1.84144E-02 1.55194E-04-1.04795E-02-5.70669E-14-3.39770E-14
 -1      4234 2.00179E+01 9.32591E-02-2.95756E-04 6.29768E-03-3.65768E-14-1.11292E-14
 -1      4235 1.99852E+01 1.26649E-01-4.08977E-04 8.99352E-03-2.77434E-14-8.02197E-14
 -1      4236 1.99405E+01 1.73597E-01-5.76652E-04-1.56887E-02-7.55570E-14-1.41907E-13
 -1      4237 1.99019E+01 2.13663E-01-7.87435E-04-1.35139E-02-1.06891E-13-2.21321E-13
 -1      4238 1.98591E+01 2.56213E-01-1.38788E-03-1.88626E-02-6.13730E-14-1.86880E-13
 -1      4239 1.98131E+01 3.02836E-01-1.31343E-03-1.57414E-02-9.97965E-15-1.97211E-13
 -1      4240 1.97608E+01 3.50979E-01-2.05338E-03-2.27565E-02 1.76190E-14-2.02128E-13
 -1      4241 1.97045E+01 4.03652E-01-1.88437E-03-1.85306E-02 5.45838E-14-2.03331E-13
 -1      4242 1.96395E+01 4.57001E-01-2.80943E-03-2.73490E-02 6.97286E-14-2.71644E-13
 -1      4243 1.95697E+01 5.15138E-01-2.56966E-03-2.17975E-02 4.58362E-14-2.28840E-13
 -1      4244 1.94882E+01 5.72720E-01-3.72374E-03-3.25225E-02 6.28870E-14-2.04747E-13
 -1      4245 1.94011E+01 6.35122E-01-3.42138E-03-2.52922E-02 1.00293E-13-1.95864E-13
 -1      4246 1.92990E+01 6.95140E-01-4.86237E-03-3.80610E-02 4.15465E-14-1.18466E-13
 -1      4247 1.91902E+01 7.59722E-01-4.51251E-03-2.86202E-02 1.75537E-14-6.80401E-14
 -1      4248 1.90622E+01 8.19288E-01-6.33282E-03-4.36956E-02-6.70706E-14-2.23920E-14
 -1      4249 1.89261E+01 8.82886E-01-5.96493E-03-3.12185E-02-9.84494E-14-6.91060E-14
 -1      4250 1.87655E+01 9.37808E-01-8.32097E-03-4.91887E-02-1.54027E-13-3.93452E-14
 -1      4251 1.85951E+01 9.96095E-01-7.98523E-03-3.23684E-02-1.89476E-13-6.15452E-14
 -1      4252 1.83926E+01 1.04076E+00-1.11344E-02-5.44922E-02-1.12892E-13-5.36810E-14
 -1      4253 1.81778E+01 1.08835E+00-1.08898E-02-3.12888E-02-6.83273E-14-8.70340E-14
 -1      4254 1.79200E+01 1.11587E+00-1.51542E-02-5.99250E-02-1.04691E-13-3.12265E-14
 -1      4255 1.76458E+01 1.14672E+00-1.48677E-02-2.74739E-02-6.60325E-14-2.09303E-14
 -1      4256 1.73136E+01 1.15073E+00-1.97215E-02-6.52667E-02-4.32126E-14 2.70725E-14
 -1      4257 1.69605E+01 1.15633E+00-1.87529E-02-1.90970E-02 4.29158E-14-1.56146E-14
 -1      4258 2.01790E+01-3.69818E-02-1.86244E-04-5.00644E-02 7.24570E-15-1.42967E-13
 -1      4259 2.01841E+01-4.28789E-02 3.61134E-04-7.19531E-02 4.71024E-14-1.58648E-13
 -1      4260 2.02079E+01-5.00811E-02 1.82137E-04-7.16062E-02 7.65753E-14-1.90740E-13
 -1      4261 2.02974E+01-3.99546E-02 2.72410E-04 5.08793E-03-2.71656E-14-2.14776E-13
 -1      4262 2.02707E+01-4.87122E-02 3.90582E-04 6.37263E-03-2.16923E-14-1.45572E-13
 -1      4263 2.04212E+01 1.93537E-01-2.67883E-04-8.41337E-03 3.46624E-14-3.35152E-13
 -1      4264 2.04068E+01 1.22860E-01 8.24978E-04-4.14221E-03 2.58463E-14-3.15293E-13
 -1      4265 2.04364E+01 3.62560E-01-8.83333E-05-4.71447E-03 4.48724E-14-3.88478E-13
 -1      4266 2.04338E+01 2.80400E-01 8.85932E-04 3.22106E-04 2.98585E-14-3.53793E-13
 -1      4267 2.03862E+01 6.79931E-02 8.34239E-05-1.02251E-02 2.49071E-14-2.98707E-13
 -1      4268 2.02427E+01-5.12195E-02 5.10455E-05 4.89728E-03-3.42491E-14-1.05153E-13
 -1      4269 2.02158E+01-4.73415E-02 1.54303E-04 5.88929E-03-1.15267E-14-8.25061E-14
 -1      4270 2.02014E+01-4.24772E-02-1.59479E-04-1.75902E-02-1.49769E-14-8.29061E-14
 -1      4271 2.02553E+01-5.03971E-02-3.98979E-04-1.82531E-02 7.98129E-15-1.42410E-13
 -1      4272 2.03637E+01 2.47743E-02 6.21145E-04-7.61767E-03 2.77897E-14-2.82815E-13
 -1      4273 2.04288E+01 5.74087E-01-1.24455E-03 1.38069E-03 5.27052E-14-3.84499E-13
 -1      4274 2.04393E+01 4.62981E-01 3.20354E-04 3.70413E-03 5.41156E-14-3.78715E-13
 -1      4275 2.00328E+01 7.49764E-02 1.78399E-04-8.12053E-02-9.05318E-14-9.78909E-14
 -1      4276 2.00570E+01 4.71610E-02-3.19587E-04-7.66623E-02-8.69565E-15-1.12877E-13
 -1      4277 2.00168E+01 9.51882E-02 2.74758E-04-5.84091E-02-1.41813E-13 1.02423E-15
 -1      4278 2.03450E+01-2.55491E-03 2.59558E-04-3.08571E-03 2.25268E-14-2.52536E-13
 -1      4279 2.03187E+01-2.65275E-02 3.25097E-04-1.37460E-03-1.01812E-14-2.42039E-13
 -1      4280 2.03029E+01-3.48341E-02-8.19791E-04-2.63711E-02 6.45100E-15-2.36841E-13
 -1      4281 2.03407E+01 2.60284E-03-8.49196E-04-3.95822E-02 4.68096E-14-2.95470E-13
 -1      4282 2.04293E+01 5.67193E-01 5.92760E-05 1.46964E-02 6.94654E-14-4.03049E-13
 -1      4283 1.65517E+01 1.14489E+00-1.37036E-02-6.65134E-02 8.20047E-14-1.05247E-13
 -1      4284 2.00785E+01 3.56583E-02-1.52562E-04 5.86627E-03-9.42892E-14 1.45958E-14
 -1      4285 2.00493E+01 6.28641E-02-7.14644E-05 7.14023E-03-3.89107E-14 5.58195E-14
 -1      4286 2.02283E+01-4.94803E-02-7.17980E-04-9.39779E-02 8.64933E-14-1.97072E-13
 -1      4287 2.01644E+01-2.87491E-02 2.57024E-04-3.40748E-02-3.49546E-14-8.51102E-14
 -1      4288 2.01907E+01-4.15749E-02-2.19228E-04-3.35748E-02-5.01484E-16-1.18971E-13
 -1      4289 1.59554E+01 1.08238E+00 2.86240E-03 5.82963E-01 1.20578E-13-1.06981E-13
 -1      4290 1.61898E+01 1.01743E+00 1.22967E-02-1.03542E+00 1.09191E-14-9.20515E-14
 -1      4291 1.58762E+01 1.11586E+00 3.18194E-02-7.26960E-01 9.44535E-15-1.80319E-13
 -1      4292 1.58311E+01 1.12336E+00-1.71087E-02-2.87373E-01 7.41057E-14-3.31879E-14
 -1      4293 2.00337E+01 7.92983E-02 1.27914E-04-2.00638E-02-7.84406E-14 2.26217E-14
 -1      4294 2.00828E+01 3.01965E-02-2.09694E-04-3.58120E-02-3.16145E-14-4.02956E-14
 -1      4295 2.04312E+01 3.87528E-01-1.34167E-04-1.04944E-03 4.66627E-14-3.89824E-13
 -1      4296 1.99606E+01 1.56286E-01 4.70126E-04-4.51195E-02-1.30558E-13-1.20762E-13
 -1      4297 1.63173E+01 1.17069E+00 2.09324E-02 4.28575E-01 1.33618E-13-2.05657E-13
 -1      4298 2.03154E+01-1.39379E-02 5.60153E-04-5.96102E-02 7.97815E-14-2.74887E-13
 -1      4299 2.02921E+01-3.29477E-02 3.51490E-04-6.29463E-02 6.17933E-14-2.41201E-13
 -1      4300 2.04271E+01 4.57904E-01-2.55697E-04 6.28057E-03 5.66048E-14-3.95580E-13
 -1      4301 2.01378E+01-1.17824E-02-1.45692E-04-3.43656E-02-2.09333E-14-7.40434E-14
 -1      4302 2.02481E+01-4.95840E-02 2.55760E-04-5.65316E-02 4.72489E-14-1.99190E-13
 -1      4303 2.02726E+01-4.37184E-02 4.65180E-04-5.49372E-02 3.76594E-14-2.19872E-13
 -1      4304 2.02174E+01-4.80871E-02 4.13014E-04-3.38834E-02 2.00910E-14-1.42395E-13
 -1      4305 2.00735E+01 3.77029E-02 7.86192E-06-5.34844E-02-1.23552E-14-8.31201E-14
 -1      4306 2.00556E+01 5.64915E-02 2.34724E-04-3.72871E-02-8.27194E-14 7.55197E-15
 -1      4307 2.00243E+01 8.55525E-02-3.88112E-04-3.86402E-02-1.09811E-13-5.50209E-14
 -1      4308 2.02436E+01-4.92831E-02-4.02520E-04-3.39960E-02 3.00234E-14-1.68319E-13
 -1      4309 1.99951E+01 1.18640E-01 3.04777E-04-4.12894E-02-1.85039E-13-5.17406E-14
 -3
    1PSTEP                         3           1           1          
  100CL  101 1.000000000        4309                     0    1           1
 -4  TOSTRAIN    6    1
 -5  EXX         1    4    1    1
 -5  EYY         1    4    2    2
 -5  EZZ         1    4    3    3
 -5  EXY         1    4    1    2
 -5  EYZ         1    4    2    3
 -5  EZX         1    4    3    1
 -1         1 3.09735E-04-9.56120E-05-7.90104E-05-1.38198E-05-8.16831E-19 7.08337E-18
 -1         2 3.78840E-05-1.15132E-04 2.08373E-05-4.41145E-07 1.25017E-19-2.78039E-19
 -1         3 9.50717E-05-2.87491E-05-2.82441E-05-1.87769E-07-2.66188E-18-2.76097E-18
 -1         4 9.50866E-05-2.87263E-05-2.82611E-05 1.53290E-07 5.74791E-19 3.78965E-19
 -1         5 1.43340E-04-2.14779E-05-4.25250E-05 3.85315E-05-3.73912E-19 2.68062E-17
 -1         6 1.45403E-04 2.57546E-10-4.41840E-05-5.35272E-05-1.67120E-18 2.41646E-17
 -1         7 9.05990E-05-5.10620E-07-3.90648E-05-2.92562E-05-2.37381E-19 3.50759E-18
 -1         8 8.51183E-05 8.65898E-08-3.63363E-05-2.02780E-05-2.89500E-19-2.58256E-18
 -1         9 8.28123E-05 7.60169E-08-3.53497E-05-1.56471E-05-2.36494E-19-5.80209E-18
 -1        10 8.17707E-05 3.97093E-08-3.48814E-05-1.20853E-05-1.61413E-19-7.25149E-18
 -1        11 8.12552E-05 1.92704E-08-3.46540E-05-9.02091E-06-9.06722E-20-7.90825E-18
 -1        12 8.09891E-05 9.03096E-09-3.45405E-05-6.28958E-06-4.95051E-20-8.12331E-18
 -1        13 8.08494E-05 4.46154E-09-3.44836E-05-3.68866E-06-1.63467E-20-8.08015E-18
 -1        14 8.07910E-05 2.61984E-09-3.44604E-05-1.18460E-06 2.63790E-20-7.91566E-18
 -1        15 8.07930E-05 2.61362E-09-3.44611E-05 1.29012E-06 7.72876E-20-7.71244E-18
 -1        16 8.08556E-05 4.41327E-09-3.44858E-05 3.79922E-06 1.13278E-19-7.45799E-18
 -1        17 8.10005E-05 8.31799E-09-3.45443E-05 6.41197E-06 1.34979E-19-7.00210E-18
 -1        18 8.12729E-05 1.81129E-08-3.46591E-05 9.16237E-06 1.99102E-19-6.25694E-18
 -1        19 8.17965E-05 3.81824E-08-3.48897E-05 1.22653E-05 2.64870E-19-4.99957E-18
 -1        20 8.28321E-05 8.15803E-08-3.53619E-05 1.58779E-05 3.24705E-19-2.75508E-18
 -1        21 8.50833E-05 1.69632E-07-3.63747E-05 2.04885E-05 3.74680E-19 1.32237E-18
 -1        22 9.16368E-05-9.92696E-08-3.87364E-05 2.80029E-05 5.53748E-20 9.28752E-18
 -1        23 1.12965E-04-3.81232E-05-3.53941E-05-4.40356E-06-1.14177E-18 1.84196E-17
 -1        24 9.27935E-05-2.76937E-05-2.89959E-05 3.91173E-07-3.27927E-19 1.34770E-17
 -1        25 8.91061E-05-2.68482E-05-2.69252E-05 3.75918E-07-1.43630E-19 8.46918E-18
 -1        26 8.79995E-05-2.64836E-05-2.63868E-05 2.03741E-07-5.12364E-20 5.14954E-18
 -1        27 8.80209E-05-2.64603E-05-2.63776E-05 1.39680E-07-1.01939E-19 2.83912E-18
 -1        28 8.85501E-05-2.65954E-05-2.65457E-05 1.00684E-07-6.06280E-20 1.33107E-18
 -1        29 8.92997E-05-2.68065E-05-2.67766E-05 7.48246E-08-4.00729E-20-1.94616E-19
 -1        30 9.01185E-05-2.70445E-05-2.70249E-05 5.63590E-08 5.02145E-20-8.99317E-19
 -1        31 9.09224E-05-2.72813E-05-2.72674E-05 4.24396E-08 3.61056E-20-1.91608E-18
 -1        32 9.16658E-05-2.75018E-05-2.74915E-05 3.16074E-08-2.29143E-19-3.22174E-18
 -1        33 9.23271E-05-2.76987E-05-2.76910E-05 2.30567E-08 1.84517E-19-4.10271E-18
 -1        34 9.29007E-05-2.78701E-05-2.78642E-05 1.62897E-08 6.46737E-20-4.06050E-18
 -1        35 9.33919E-05-2.80172E-05-2.80127E-05 1.09687E-08 1.38950E-20-4.65102E-18
 -1        36 9.38135E-05-2.81439E-05-2.81404E-05 6.85598E-09-1.58787E-19-4.33475E-18
 -1        37 9.41841E-05-2.82555E-05-2.82529E-05 3.79046E-09-8.89872E-20-4.73697E-18
 -1        38 9.45269E-05-2.83590E-05-2.83571E-05 1.68193E-09-1.47953E-19-5.21543E-18
 -1        39 9.48696E-05-2.84627E-05-2.84614E-05 5.14237E-10-1.32874E-19-6.16845E-18
 -1        40 9.52444E-05-2.85762E-05-2.85756E-05 3.54222E-10-1.46971E-19-6.60406E-18
 -1        41 9.56885E-05-2.87106E-05-2.87109E-05 1.36440E-09 7.07585E-20-8.16271E-18
 -1        42 9.62452E-05-2.88789E-05-2.88803E-05 3.81779E-09-1.00756E-19-8.51323E-18
 -1        43 9.69636E-05-2.90956E-05-2.90987E-05 8.11146E-09-2.60841E-21-6.92807E-18
 -1        44 9.78986E-05-2.93772E-05-2.93825E-05 1.47707E-08 1.82146E-19-5.28411E-18
 -1        45 9.91089E-05-2.97411E-05-2.97493E-05 2.44255E-08-1.58788E-19-6.35758E-18
 -1        46 1.00652E-04-3.02042E-05-3.02161E-05 3.77208E-08 6.83150E-20-7.30834E-18
 -1        47 1.02577E-04-3.07803E-05-3.07962E-05 5.50860E-08-6.83607E-20-5.73213E-18
 -1        48 1.04901E-04-3.14748E-05-3.14939E-05 7.62331E-08 4.30483E-20-4.58119E-18
 -1        49 1.07588E-04-3.22760E-05-3.22951E-05 9.91909E-08-1.84166E-19-5.03939E-18
 -1        50 1.10500E-04-3.31426E-05-3.31541E-05 1.18673E-07 1.02229E-19-6.62361E-18
 -1        51 1.13343E-04-3.39869E-05-3.39771E-05 1.23838E-07-3.41541E-19-6.42084E-18
 -1        52 1.15607E-04-3.46584E-05-3.46072E-05 9.64130E-08 1.14583E-19-4.70759E-18
 -1        53 1.16550E-04-3.49379E-05-3.48258E-05 1.22446E-08-1.83718E-19-5.88869E-18
 -1        54 1.15298E-04-3.45667E-05-3.43918E-05-1.47574E-07 1.75296E-19-7.63928E-18
 -1        55 1.11160E-04-3.33371E-05-3.31398E-05-3.71177E-07-9.43019E-20-7.85084E-18
 -1        56 1.04168E-04-3.12537E-05-3.11259E-05-5.86597E-07 9.88663E-20-7.85893E-18
 -1        57 9.56182E-05-2.86968E-05-2.87479E-05-6.61666E-07 8.06327E-20-6.52660E-18
 -1        58 8.80759E-05-2.64335E-05-2.67015E-05-4.81761E-07 2.15788E-19-7.86065E-18
 -1        59 8.43730E-05-2.53199E-05-2.57057E-05-7.24986E-08-2.04128E-19-8.75732E-18
 -1        60 8.59837E-05-2.58043E-05-2.61214E-05 3.71515E-07-1.30026E-19-9.45800E-18
 -1        61 9.20374E-05-2.76220E-05-2.77349E-05 6.26437E-07 1.78080E-19-1.12709E-17
 -1        62 9.98918E-05-2.99727E-05-2.98822E-05 6.12929E-07-1.94069E-19-1.32319E-17
 -1        63 1.06727E-04-3.20101E-05-3.18146E-05 4.16853E-07 4.34913E-19-1.15838E-17
 -1        64 1.10817E-04-3.32247E-05-3.30280E-05 1.76710E-07-2.38240E-19-8.34151E-18
 -1        65 1.11802E-04-3.35151E-05-3.33731E-05-1.48950E-08-5.59508E-19-9.56746E-18
 -1        66 1.10247E-04-3.30524E-05-3.29739E-05-1.30917E-07 1.09705E-18-9.16404E-18
 -1        67 1.07074E-04-3.21104E-05-3.20828E-05-1.82720E-07 1.52402E-19-5.89747E-18
 -1        68 1.03206E-04-3.09614E-05-3.09733E-05-1.89681E-07 7.92073E-19-2.14454E-18
 -1        69 9.94506E-05-2.98425E-05-2.98938E-05-1.60436E-07 2.20155E-19 1.71959E-18
 -1        70 9.65339E-05-2.89637E-05-2.90553E-05-6.94351E-08-2.47657E-19 2.88265E-18
 -1        71 9.51013E-05-2.84961E-05-2.85788E-05 7.29768E-08-5.49975E-19 2.23710E-18
 -1        72 1.02170E-04-3.05847E-05-3.41473E-05-1.92846E-06 4.07105E-19 2.46165E-17
 -1        73 9.25500E-05-2.75098E-05-2.89042E-05-3.33103E-07 2.04453E-19 1.90667E-17
 -1        74 8.90930E-05-2.66974E-05-2.69683E-05-1.25843E-07 1.07220E-19 1.49285E-17
 -1        75 8.80287E-05-2.64341E-05-2.64306E-05-9.54934E-08 1.88684E-20 1.19538E-17
 -1        76 8.80559E-05-2.64404E-05-2.64042E-05-7.64560E-08 9.82289E-20 9.69789E-18
 -1        77 8.85840E-05-2.65898E-05-2.65627E-05-6.23110E-08 6.98571E-20 8.17539E-18
 -1        78 8.93307E-05-2.68077E-05-2.67888E-05-5.14118E-08-6.00729E-20 7.33759E-18
 -1        79 9.01458E-05-2.70489E-05-2.70342E-05-4.23764E-08 5.74866E-20 6.66317E-18
 -1        80 9.09459E-05-2.72871E-05-2.72745E-05-3.45371E-08-3.37141E-20 5.65468E-18
 -1        81 9.16853E-05-2.75078E-05-2.74969E-05-2.76216E-08 1.40703E-19 4.42554E-18
 -1        82 9.23428E-05-2.77044E-05-2.76949E-05-2.15056E-08 1.04661E-19 3.39936E-18
 -1        83 9.29127E-05-2.78750E-05-2.78669E-05-1.61081E-08-2.14726E-19 2.86513E-18
 -1        84 9.34004E-05-2.80212E-05-2.80145E-05-1.13553E-08 1.78873E-19 2.65625E-18
 -1        85 9.38186E-05-2.81467E-05-2.81413E-05-7.17300E-09 3.50784E-20 2.38341E-18
 -1        86 9.41860E-05-2.82570E-05-2.82530E-05-3.49135E-09 9.23306E-20 1.48492E-18
 -1        87 9.45258E-05-2.83592E-05-2.83566E-05-2.55132E-10-1.88839E-19 9.83107E-19
 -1        88 9.48659E-05-2.84616E-05-2.84604E-05 2.56222E-09-1.15774E-20 1.00696E-18
 -1        89 9.52388E-05-2.85739E-05-2.85744E-05 4.93983E-09 1.49569E-19 6.03186E-19
 -1        90 9.56826E-05-2.87075E-05-2.87100E-05 6.78414E-09 8.54780E-20-5.09594E-19
 -1        91 9.62418E-05-2.88758E-05-2.88807E-05 7.89436E-09 2.55200E-20-8.94642E-19
 -1        92 9.69682E-05-2.90941E-05-2.91022E-05 7.91461E-09-2.23042E-19-2.82693E-19
 -1        93 9.79207E-05-2.93800E-05-2.93921E-05 6.26891E-09-9.58672E-20 6.82292E-20
 -1        94 9.91649E-05-2.97529E-05-2.97702E-05 2.07885E-09-1.75687E-19-9.55920E-19
 -1        95 1.00769E-04-3.02331E-05-3.02565E-05-5.92268E-09 1.12423E-19-1.98780E-18
 -1        96 1.02795E-04-3.08388E-05-3.08690E-05-1.94322E-08 3.90394E-20-4.94482E-19
 -1        97 1.05284E-04-3.15818E-05-3.16180E-05-4.04416E-08 7.73077E-20-1.10969E-18
 -1        98 1.08224E-04-3.24583E-05-3.24966E-05-7.06435E-08-5.70258E-20-1.40688E-18
 -1        99 1.11503E-04-3.34353E-05-3.34657E-05-1.09855E-07-2.60655E-19-4.91008E-19
 -1       100 1.14839E-04-3.44308E-05-3.44331E-05-1.52743E-07 2.84144E-19 4.06496E-19
 -1       101 1.17703E-04-3.52904E-05-3.52326E-05-1.83517E-07-5.40077E-19-7.95761E-19
 -1       102 1.19267E-04-3.57719E-05-3.56167E-05-1.70606E-07-4.36917E-21 5.94353E-19
 -1       103 1.18478E-04-3.55638E-05-3.52927E-05-6.93767E-08 7.16901E-20-2.09462E-19
 -1       104 1.14394E-04-3.43767E-05-3.40335E-05 1.52205E-07-9.15557E-20 2.66921E-19
 -1       105 1.06849E-04-3.21367E-05-3.18610E-05 4.60998E-07 2.80855E-19 1.88722E-18
 -1       106 9.72103E-05-2.92221E-05-2.92106E-05 7.12438E-07-8.77883E-19 2.24382E-18
 -1       107 8.85247E-05-2.65404E-05-2.69077E-05 7.06612E-07 2.93384E-20 4.62004E-19
 -1       108 8.43154E-05-2.51981E-05-2.58144E-05 3.59207E-07 5.68190E-20-3.92099E-18
 -1       109 8.64268E-05-2.58098E-05-2.63599E-05-1.62041E-07-1.54506E-19-8.97445E-19
 -1       110 9.36784E-05-2.80301E-05-2.82568E-05-5.59599E-07 4.07595E-19-3.90855E-18
 -1       111 1.02714E-04-3.08062E-05-3.06870E-05-6.63979E-07 3.48333E-19-3.89622E-18
 -1       112 1.10161E-04-3.30833E-05-3.27726E-05-5.23541E-07-1.05225E-18 1.02576E-18
 -1       113 1.14184E-04-3.43006E-05-3.39719E-05-2.88303E-07 7.64988E-19 2.27591E-18
 -1       114 1.14630E-04-3.44260E-05-3.41783E-05-7.61939E-08-2.90576E-19-2.71556E-18
 -1       115 1.12348E-04-3.37288E-05-3.35842E-05 6.84217E-08 4.66325E-19-3.73340E-18
 -1       116 1.08465E-04-3.25553E-05-3.24967E-05 1.50302E-07 4.00320E-19-5.85906E-18
 -1       117 1.04005E-04-3.12117E-05-3.12202E-05 1.88984E-07-1.98806E-19-5.22348E-18
 -1       118 9.98059E-05-2.99450E-05-3.00160E-05 1.96338E-07 7.25087E-19-5.04969E-18
 -1       119 9.66108E-05-2.89757E-05-2.90995E-05 1.51813E-07-5.05243E-19-7.25017E-18
 -1       120 9.51127E-05-2.84710E-05-2.85845E-05-2.41616E-08 8.23515E-19-4.16190E-18
 -1       121 9.52468E-05-2.85827E-05-2.85984E-05-8.20494E-08-3.25196E-18 6.28413E-19
 -1       122 9.47757E-05-2.70687E-05-2.91254E-05 8.65226E-08 4.78941E-19-3.67560E-19
 -1       123 9.38280E-05-2.38995E-05-3.00385E-05 1.75240E-07 2.87791E-18 7.72314E-19
 -1       124 9.26088E-05-1.98151E-05-3.12169E-05 2.08102E-07 2.79181E-18 1.45955E-20
 -1       125 9.13231E-05-1.54962E-05-3.24711E-05 2.04970E-07 4.44931E-19-6.00051E-19
 -1       126 9.01787E-05-1.16409E-05-3.35923E-05 1.73402E-07-7.22625E-18 4.41523E-19
 -1       127 8.93073E-05-8.71107E-06-3.44434E-05 1.12269E-07-6.71634E-18 1.86161E-19
 -1       128 8.88685E-05-7.23462E-06-3.48725E-05 3.15355E-08-4.99162E-18-4.17978E-19
 -1       129 8.89299E-05-7.44140E-06-3.48140E-05-5.39582E-08 1.18441E-18-5.07041E-19
 -1       130 8.94761E-05-9.27878E-06-3.42825E-05-1.27689E-07 5.51573E-18-4.03100E-19
 -1       131 9.04113E-05-1.24270E-05-3.33685E-05-1.78898E-07-4.70230E-18-7.91290E-19
 -1       132 9.15687E-05-1.63206E-05-3.22347E-05-1.98302E-07-5.49614E-18 1.82452E-18
 -1       133 9.28167E-05-2.05127E-05-3.10142E-05-1.92103E-07 2.65286E-18 1.21378E-18
 -1       134 9.39598E-05-2.43614E-05-2.99017E-05-1.68014E-07 4.37373E-18-2.03907E-18
 -1       135 9.48241E-05-2.72208E-05-2.90614E-05-1.09922E-07-3.13544E-19-9.47819E-19
 -1       136 9.51803E-05-2.85335E-05-2.85837E-05 1.68437E-07-3.08902E-18 4.14221E-20
 -1       137 2.66467E-05-9.06730E-05 1.62470E-05-2.47237E-05 2.04093E-18 3.31613E-19
 -1       138 8.02209E-06-3.53513E-05 3.54793E-06-1.88687E-05 4.98309E-18 4.23792E-18
 -1       139 1.21194E-05 1.47466E-05-1.51405E-05 2.39960E-05 9.95941E-18 8.10187E-18
 -1       140 6.18440E-05 2.69323E-05-3.64064E-05 8.11408E-05 1.05528E-17 1.29029E-17
 -1       141 1.50271E-04-4.53826E-06-5.57849E-05 1.13904E-04 5.46019E-18 9.00565E-18
 -1       142 2.50271E-04-5.84268E-05-7.14377E-05 9.63616E-05 1.61577E-18 1.65129E-18
 -1       143 3.07635E-04-9.37994E-05-7.88316E-05 2.86806E-05-3.69598E-19-4.62533E-18
 -1       144 2.93388E-04-8.51483E-05-7.69825E-05-5.47358E-05 2.85102E-18-1.31968E-17
 -1       145 2.16571E-04-4.00344E-05-6.63615E-05-1.06798E-04 7.43049E-18-2.00383E-17
 -1       146 1.17633E-04 8.74821E-06-4.93531E-05-1.05671E-04 1.27237E-17-1.94911E-17
 -1       147 3.88959E-05 2.77889E-05-2.89251E-05-6.16081E-05 1.71999E-17-1.72109E-17
 -1       148 6.11652E-06 3.16840E-06-9.11146E-06-7.39266E-06 1.42306E-17-9.19221E-18
 -1       149 1.25673E-05-5.35762E-05 8.35648E-06 2.55380E-05 1.26996E-17-4.59071E-18
 -1       150 3.08433E-05-9.91463E-05 1.78908E-05 1.90705E-05 7.69296E-18-1.37455E-18
 -1       151 3.54409E-05-1.09464E-04 1.99002E-05-8.03851E-06-4.40912E-18-8.65324E-19
 -1       152 1.96405E-05-7.36192E-05 1.29358E-05-2.62401E-05-1.23605E-17-3.41942E-18
 -1       153 5.57396E-06-1.32670E-05-3.24080E-06-5.36294E-06-1.95792E-17-1.25308E-17
 -1       154 2.54953E-05 2.49303E-05-2.32458E-05 4.62939E-05-1.93225E-17-1.59856E-17
 -1       155 9.92541E-05 1.61285E-05-4.56262E-05 9.99380E-05-9.70742E-18-1.38774E-17
 -1       156 1.94587E-04-2.80922E-05-6.30001E-05 1.12254E-04-4.23749E-18-9.36988E-18
 -1       157 2.84154E-04-7.98230E-05-7.57216E-05 6.58155E-05-9.08310E-20 1.69830E-19
 -1       158 2.60624E-04-6.49363E-05-7.27504E-05-8.94848E-05-2.76064E-18 1.11387E-17
 -1       159 1.61678E-04-9.96323E-06-5.77914E-05-1.14701E-04-4.13479E-18 8.06164E-18
 -1       160 6.47159E-05 2.66245E-05-3.72184E-05-8.33114E-05-5.21476E-18 4.57610E-18
 -1       161 1.22508E-05 1.61561E-05-1.56852E-05-2.53807E-05-6.76652E-18 4.79505E-18
 -1       162 7.90622E-06-3.50673E-05 3.51917E-06 1.87689E-05 1.83933E-18 1.33958E-18
 -1       163 2.69788E-05-9.12077E-05 1.63432E-05 2.48992E-05 4.19239E-18-1.89704E-18
 -1       164 9.48595E-05-1.23441E-05-3.55666E-05-2.23547E-05-3.68912E-18 4.00038E-19
 -1       165 8.92437E-05-8.45492E-06-3.47856E-05-1.73983E-05-3.27104E-18-3.34668E-18
 -1       166 8.65480E-05-6.50632E-06-3.44154E-05-1.35899E-05-2.61299E-18-5.37723E-18
 -1       167 8.51905E-05-5.51438E-06-3.42310E-05-1.03785E-05-1.80872E-18-6.30300E-18
 -1       168 8.44533E-05-4.94772E-06-3.41427E-05-7.55261E-06-1.14117E-18-6.69305E-18
 -1       169 8.40284E-05-4.60253E-06-3.41013E-05-4.90702E-06-5.24213E-19-6.74652E-18
 -1       170 8.38116E-05-4.41835E-06-3.40838E-05-2.39691E-06 4.85603E-20-6.68959E-18
 -1       171 8.37477E-05-4.36269E-06-3.40792E-05 5.13260E-08 6.38618E-19-6.55524E-18
 -1       172 8.38214E-05-4.42674E-06-3.40845E-05 2.50165E-06 1.19127E-18-6.37863E-18
 -1       173 8.40499E-05-4.62149E-06-3.41027E-05 5.01845E-06 1.66351E-18-6.02921E-18
 -1       174 8.44802E-05-4.97387E-06-3.41438E-05 7.62922E-06 2.21438E-18-5.40036E-18
 -1       175 8.52527E-05-5.57537E-06-3.42324E-05 1.05194E-05 2.91967E-18-4.49696E-18
 -1       176 8.66451E-05-6.60845E-06-3.44176E-05 1.37906E-05 3.48634E-18-3.01020E-18
 -1       177 8.93865E-05-8.59884E-06-3.47903E-05 1.76298E-05 3.85661E-18-3.09286E-19
 -1       178 9.57715E-05-1.36113E-05-3.54230E-05 2.18996E-05 3.63790E-18 4.60855E-18
 -1       179 1.05596E-04-2.60989E-05-3.52603E-05 1.86673E-05 2.71263E-18 1.09912E-17
 -1       180 1.03389E-04-2.72984E-05-3.26077E-05-1.21314E-05-3.23315E-18 5.10388E-18
 -1       181 9.70960E-05-2.82859E-05-2.95254E-05-4.73447E-06-2.79263E-18 3.55037E-18
 -1       182 9.34938E-05-2.76335E-05-2.81779E-05-1.77288E-06-2.03929E-18 2.17127E-18
 -1       183 9.19546E-05-2.74002E-05-2.76308E-05-4.27458E-07-1.36532E-18 1.04563E-18
 -1       184 9.13753E-05-2.73245E-05-2.74322E-05 2.37526E-07-1.02444E-18 3.07131E-19
 -1       185 9.13300E-05-2.73625E-05-2.74060E-05 5.62831E-07-9.40109E-19-2.05049E-19
 -1       186 9.15701E-05-2.74640E-05-2.74700E-05 7.01226E-07-6.04135E-19-6.30698E-19
 -1       187 9.19510E-05-2.75951E-05-2.75793E-05 7.32561E-07-6.27815E-19-1.12056E-18
 -1       188 9.23868E-05-2.77348E-05-2.77074E-05 7.03222E-07-7.51363E-19-1.29748E-18
 -1       189 9.28271E-05-2.78705E-05-2.78385E-05 6.42391E-07-6.22729E-19-1.47285E-18
 -1       190 9.32446E-05-2.79959E-05-2.79640E-05 5.69321E-07-4.24472E-19-2.49102E-18
 -1       191 9.36276E-05-2.81084E-05-2.80800E-05 4.97116E-07-2.53702E-19-2.94496E-18
 -1       192 9.39749E-05-2.82085E-05-2.81859E-05 4.34997E-07 1.47085E-19-3.02660E-18
 -1       193 9.42931E-05-2.82984E-05-2.82836E-05 3.89805E-07-3.21611E-19-2.53937E-18
 -1       194 9.45946E-05-2.83821E-05-2.83767E-05 3.67066E-07-5.75499E-19-2.62354E-18
 -1       195 9.48965E-05-2.84647E-05-2.84703E-05 3.71758E-07-4.24872E-19-3.08130E-18
 -1       196 9.52202E-05-2.85526E-05-2.85710E-05 4.08858E-07-8.04121E-19-3.38188E-18
 -1       197 9.55913E-05-2.86533E-05-2.86864E-05 4.83660E-07-4.14377E-19-4.11560E-18
 -1       198 9.60394E-05-2.87754E-05-2.88256E-05 6.01855E-07-4.12225E-19-4.03650E-18
 -1       199 9.65978E-05-2.89290E-05-2.89985E-05 7.69254E-07 6.95405E-19-3.96799E-18
 -1       200 9.73036E-05-2.91255E-05-2.92163E-05 9.91010E-07 6.64670E-19-4.07640E-18
 -1       201 9.81956E-05-2.93772E-05-2.94903E-05 1.27005E-06-4.86050E-19-3.64789E-18
 -1       202 9.93118E-05-2.96973E-05-2.98313E-05 1.60425E-06 1.54161E-19-2.71451E-18
 -1       203 1.00684E-04-3.00986E-05-3.02475E-05 1.98183E-06 6.79655E-19-2.25654E-18
 -1       204 1.02329E-04-3.05919E-05-3.07419E-05 2.37405E-06 2.96125E-19-2.40747E-18
 -1       205 1.04233E-04-3.11828E-05-3.13068E-05 2.72494E-06-2.90651E-19-2.37082E-18
 -1       206 1.06336E-04-3.18663E-05-3.19183E-05 2.93850E-06-4.24194E-19-2.40627E-18
 -1       207 1.08502E-04-3.26179E-05-3.25282E-05 2.86760E-06-2.12120E-19-2.92320E-18
 -1       208 1.10489E-04-3.33796E-05-3.30580E-05 2.31561E-06 5.43055E-19-2.40247E-18
 -1       209 1.11939E-04-3.40395E-05-3.33997E-05 1.07350E-06 7.13923E-20-2.23980E-18
 -1       210 1.12386E-04-3.44110E-05-3.34321E-05-9.75548E-07-1.23419E-18-1.14412E-18
 -1       211 1.11356E-04-3.42350E-05-3.30608E-05-3.66581E-06-8.16057E-19-2.01948E-18
 -1       212 1.08578E-04-3.32610E-05-3.22802E-05-6.33977E-06 3.69088E-20-2.34955E-18
 -1       213 1.04321E-04-3.14478E-05-3.12254E-05-7.83885E-06 4.39316E-19-1.97594E-18
 -1       214 9.96459E-05-2.92256E-05-3.01724E-05-6.97035E-06-8.80860E-19-3.54677E-18
 -1       215 9.62375E-05-2.75160E-05-2.94467E-05-3.45535E-06-1.24753E-18-4.18198E-18
 -1       216 9.55397E-05-2.72072E-05-2.92808E-05 1.44833E-06-1.30119E-18-6.86949E-18
 -1       217 9.77630E-05-2.84383E-05-2.97042E-05 5.53056E-06-4.48861E-19-6.64375E-18
 -1       218 1.01713E-04-3.04662E-05-3.05284E-05 7.13569E-06-8.78638E-19-6.28520E-18
 -1       219 1.05646E-04-3.22973E-05-3.14347E-05 6.12814E-06 2.59918E-19-6.10999E-18
 -1       220 1.08257E-04-3.33341E-05-3.21172E-05 3.54799E-06 1.12881E-18-6.77456E-18
 -1       221 1.09060E-04-3.35015E-05-3.23952E-05 6.56025E-07 8.07543E-19-6.19093E-18
 -1       222 1.08217E-04-3.30174E-05-3.22421E-05-1.70504E-06 1.55891E-18-3.10182E-18
 -1       223 1.06206E-04-3.21557E-05-3.17457E-05-3.20702E-06 2.76827E-18-1.52916E-18
 -1       224 1.03570E-04-3.11369E-05-3.10473E-05-3.84631E-06 2.13308E-18 4.10421E-19
 -1       225 1.00805E-04-3.01118E-05-3.02967E-05-3.73193E-06 1.82591E-18-4.25485E-19
 -1       226 9.83159E-05-2.91783E-05-2.96268E-05-2.96212E-06 8.82352E-19-1.74174E-18
 -1       227 9.63575E-05-2.84163E-05-2.91142E-05-1.63909E-06 1.94658E-19-7.67937E-19
 -1       228 9.94905E-05-2.85513E-05-3.05841E-05 7.21500E-06 2.72868E-18 9.38114E-18
 -1       229 9.44036E-05-2.77869E-05-2.85206E-05 2.74743E-06 2.09070E-18 7.23569E-18
 -1       230 9.20807E-05-2.73964E-05-2.76768E-05 9.33728E-07 1.56895E-18 5.45840E-18
 -1       231 9.11289E-05-2.72329E-05-2.73570E-05 7.20495E-08 1.18292E-18 4.23446E-18
 -1       232 9.09138E-05-2.72248E-05-2.72818E-05-3.55374E-07 7.36927E-19 3.55348E-18
 -1       233 9.10939E-05-2.73096E-05-2.73294E-05-5.55786E-07 3.35849E-19 2.86893E-18
 -1       234 9.14740E-05-2.74415E-05-2.74389E-05-6.28819E-07 4.55498E-19 2.61433E-18
 -1       235 9.19403E-05-2.75915E-05-2.75761E-05-6.28802E-07 6.97176E-19 2.12063E-18
 -1       236 9.24255E-05-2.77422E-05-2.77204E-05-5.88457E-07 7.51262E-19 1.11167E-18
 -1       237 9.28922E-05-2.78839E-05-2.78601E-05-5.28770E-07 3.36260E-19 1.26392E-18
 -1       238 9.33217E-05-2.80123E-05-2.79895E-05-4.63733E-07 2.22675E-19 1.12653E-18
 -1       239 9.37085E-05-2.81262E-05-2.81066E-05-4.02960E-07 3.29200E-19 7.93633E-19
 -1       240 9.40564E-05-2.82273E-05-2.82124E-05-3.53333E-07 2.27569E-19 4.68926E-19
 -1       241 9.43759E-05-2.83189E-05-2.83100E-05-3.20122E-07 5.31851E-19-9.23769E-20
 -1       242 9.46827E-05-2.84058E-05-2.84041E-05-3.07800E-07 2.17005E-19-1.27553E-19
 -1       243 9.49973E-05-2.84942E-05-2.85009E-05-3.20647E-07 3.19275E-19-6.82504E-19
 -1       244 9.53447E-05-2.85913E-05-2.86079E-05-3.63192E-07 5.35853E-19-1.01038E-18
 -1       245 9.57542E-05-2.87058E-05-2.87341E-05-4.40478E-07 6.11326E-19-1.16378E-18
 -1       246 9.62600E-05-2.88479E-05-2.88897E-05-5.58139E-07-1.41175E-19-6.98130E-19
 -1       247 9.69014E-05-2.90291E-05-2.90867E-05-7.22173E-07-6.67883E-19-7.93895E-19
 -1       248 9.77220E-05-2.92627E-05-2.93381E-05-9.38254E-07-8.67882E-20-1.44439E-19
 -1       249 9.87684E-05-2.95631E-05-2.96578E-05-1.21027E-06 7.67581E-19-1.03475E-18
 -1       250 1.00087E-04-2.99456E-05-3.00592E-05-1.53762E-06 4.74421E-19-2.26154E-18
 -1       251 1.01717E-04-3.04246E-05-3.05531E-05-1.91040E-06-3.54596E-19-1.93231E-18
 -1       252 1.03679E-04-3.10113E-05-3.11437E-05-2.30174E-06 1.88000E-19-8.53483E-19
 -1       253 1.05957E-04-3.17089E-05-3.18224E-05-2.65612E-06 2.06543E-19-5.75484E-19
 -1       254 1.08466E-04-3.25054E-05-3.25584E-05-2.87429E-06-8.09146E-19-9.32067E-21
 -1       255 1.11021E-04-3.33611E-05-3.32877E-05-2.79896E-06-4.37455E-19 7.26453E-19
 -1       256 1.13290E-04-3.41916E-05-3.39032E-05-2.21486E-06 4.79270E-19 9.90403E-19
 -1       257 1.14779E-04-3.48452E-05-3.42561E-05-8.91967E-07 3.20698E-19-1.09173E-18
 -1       258 1.14868E-04-3.50868E-05-3.41818E-05 1.28559E-06 3.75077E-20-1.19515E-18
 -1       259 1.12983E-04-3.46210E-05-3.35655E-05 4.08326E-06-4.44494E-19-1.62445E-18
 -1       260 1.08947E-04-3.32235E-05-3.24364E-05 6.67644E-06-3.25972E-19-2.67901E-19
 -1       261 1.03428E-04-3.10031E-05-3.10410E-05 7.70845E-06-5.32396E-19 1.36509E-18
 -1       262 9.81384E-05-2.86575E-05-2.98100E-05 6.00707E-06 1.52929E-18-6.23635E-19
 -1       263 9.52586E-05-2.72990E-05-2.91739E-05 1.72220E-06 1.25566E-18-9.89841E-19
 -1       264 9.61057E-05-2.76929E-05-2.93532E-05-3.25512E-06-1.09077E-18-1.68742E-18
 -1       265 1.00106E-04-2.95551E-05-3.02364E-05-6.50966E-06 1.23291E-18-1.07056E-18
 -1       266 1.05233E-04-3.18145E-05-3.14421E-05-6.87217E-06-5.99648E-19 8.36346E-19
 -1       267 1.09405E-04-3.34841E-05-3.25131E-05-4.90158E-06-1.97765E-18 1.83939E-18
 -1       268 1.11482E-04-3.41670E-05-3.31216E-05-1.98515E-06 1.74994E-18 4.76411E-19
 -1       269 1.11346E-04-3.39684E-05-3.31608E-05 6.98145E-07 1.18609E-18 4.16806E-19
 -1       270 1.09490E-04-3.31891E-05-3.27059E-05 2.57793E-06 1.38824E-18-8.06121E-19
 -1       271 1.06597E-04-3.21189E-05-3.19255E-05 3.56511E-06-1.01991E-20-7.36062E-19
 -1       272 1.03311E-04-3.09694E-05-3.10084E-05 3.78117E-06 7.27801E-20-7.46061E-19
 -1       273 1.00167E-04-2.98864E-05-3.01263E-05 3.36258E-06 8.74898E-19-1.79394E-18
 -1       274 9.75930E-05-2.89682E-05-2.94156E-05 2.38032E-06 5.79151E-20-7.65138E-19
 -1       275 9.58639E-05-2.83716E-05-2.89207E-05 9.66270E-07-5.47708E-19-5.02815E-19
 -1       276 9.53548E-05-2.72562E-05-2.91783E-05 1.85461E-06 3.64144E-19 2.10688E-18
 -1       277 9.45765E-05-2.51994E-05-2.97290E-05 3.25133E-06 1.81527E-18 1.43484E-18
 -1       278 9.35793E-05-2.25291E-05-3.04483E-05 4.10792E-06 9.08168E-19-4.46424E-19
 -1       279 9.25088E-05-1.95613E-05-3.12646E-05 4.32791E-06-3.07149E-19-1.52462E-18
 -1       280 9.14837E-05-1.67193E-05-3.20480E-05 3.92698E-06-1.17338E-18-4.41362E-18
 -1       281 9.06093E-05-1.43119E-05-3.27089E-05 2.93253E-06-1.27875E-18-4.61499E-19
 -1       282 9.00437E-05-1.27633E-05-3.31327E-05 1.47788E-06-1.45009E-18 9.15780E-19
 -1       283 8.98846E-05-1.23196E-05-3.32554E-05-2.08093E-07 1.38951E-18 3.26336E-18
 -1       284 9.01578E-05-1.30462E-05-3.30599E-05-1.84178E-06-1.04982E-19 1.56169E-18
 -1       285 9.08078E-05-1.48105E-05-3.25795E-05-3.15774E-06-6.43946E-19-5.18252E-18
 -1       286 9.16993E-05-1.72721E-05-3.19023E-05-3.96413E-06 7.55793E-19 5.11369E-19
 -1       287 9.27254E-05-2.01453E-05-3.11064E-05-4.20930E-06 1.46978E-18 3.56778E-18
 -1       288 9.37387E-05-2.29985E-05-3.03142E-05-3.87673E-06 1.01379E-18 2.01011E-18
 -1       289 9.46622E-05-2.54963E-05-2.96355E-05-2.96481E-06 5.92040E-19-2.23076E-18
 -1       290 9.55276E-05-2.70950E-05-2.93189E-05-2.59103E-06 6.23023E-19-3.05414E-18
 -1       291 1.27975E-05-4.89410E-05 1.21811E-05 7.44460E-06 4.75291E-19 1.50655E-18
 -1       292 2.75148E-05-4.46604E-05 4.65616E-06 2.27925E-05 2.18005E-18 2.66127E-18
 -1       293 5.56563E-05-3.87383E-05-8.92665E-06 3.56909E-05 2.44729E-18 6.15189E-18
 -1       294 9.43891E-05-3.38954E-05-2.62349E-05 4.42618E-05 3.33922E-18 4.92613E-18
 -1       295 1.35930E-04-3.04371E-05-4.39673E-05 4.76004E-05 5.77052E-18 1.19982E-18
 -1       296 1.76620E-04-3.30883E-05-5.90377E-05 3.65654E-05 3.94916E-18-2.48181E-19
 -1       297 2.06391E-04-3.61714E-05-6.93690E-05 2.09633E-05 3.70143E-18-1.58692E-18
 -1       298 2.05878E-04-3.28794E-05-7.09348E-05-2.49746E-06 4.34655E-18-4.48414E-18
 -1       299 1.95120E-04-3.43786E-05-6.59204E-05-2.40947E-05 5.88878E-18-6.24687E-18
 -1       300 1.63664E-04-3.31330E-05-5.39867E-05-3.90194E-05 5.63256E-18-8.10102E-18
 -1       301 1.20295E-04-3.03259E-05-3.78972E-05-4.66983E-05 7.13646E-18-8.00594E-18
 -1       302 7.77714E-05-3.23739E-05-2.03137E-05-4.12909E-05 5.75411E-18-9.04885E-18
 -1       303 4.23776E-05-3.88548E-05-3.81226E-06-2.89534E-05 6.07683E-18-5.17193E-18
 -1       304 2.07969E-05-4.62180E-05 7.78182E-06-1.57716E-05 3.66617E-18-3.30666E-18
 -1       305 1.02354E-05-4.56364E-05 1.21781E-05-3.38549E-06 2.30181E-19-5.20354E-18
 -1       306 1.50634E-05-4.63102E-05 1.03902E-05 1.19373E-05-1.76818E-18-5.16256E-18
 -1       307 3.67741E-05-4.10269E-05-1.43340E-07 2.98303E-05-4.40012E-18-6.89090E-18
 -1       308 6.62769E-05-3.38090E-05-1.51700E-05 3.86064E-05-7.46172E-18-5.78979E-18
 -1       309 1.13273E-04-3.41613E-05-3.36607E-05 4.37643E-05-7.78169E-18-3.65092E-18
 -1       310 1.54785E-04-3.12644E-05-5.11149E-05 4.42856E-05-5.77205E-18-1.82684E-18
 -1       311 1.92672E-04-3.47358E-05-6.45223E-05 3.15428E-05-4.08953E-18 5.61795E-19
 -1       312 2.04541E-04-3.29050E-05-7.04365E-05 5.94013E-06-3.58962E-18 2.69822E-18
 -1       313 2.08813E-04-3.65519E-05-7.01637E-05-1.75669E-05-2.70193E-18 4.34888E-18
 -1       314 1.80224E-04-3.28980E-05-6.05337E-05-3.50435E-05-4.31828E-19 4.38890E-18
 -1       315 1.39978E-04-3.16955E-05-4.51170E-05-4.55564E-05-1.09320E-18 3.66024E-18
 -1       316 9.26837E-05-3.09096E-05-2.67602E-05-4.52914E-05-9.96111E-19 7.07908E-19
 -1       317 5.57264E-05-3.83485E-05-9.11844E-06-3.58820E-05 2.42971E-18 2.48467E-18
 -1       318 2.72085E-05-4.46369E-05 4.73032E-06-2.24224E-05 1.68242E-18 6.69156E-20
 -1       319 1.34589E-05-5.16218E-05 1.26969E-05-6.74395E-06 5.46972E-19-2.97616E-18
 -1       320 9.16455E-05-1.43944E-05-3.31708E-05-1.30726E-05-3.44207E-18-3.09176E-18
 -1       321 9.57007E-05-1.91080E-05-3.28885E-05-1.46371E-05-3.85587E-18-8.76342E-19
 -1       322 8.80118E-05-1.03804E-05-3.33239E-05-8.16026E-06-1.78037E-18-4.94886E-18
 -1       323 8.71982E-05-9.45811E-06-3.33652E-05-5.72157E-06-1.02088E-18-5.31955E-18
 -1       324 8.67411E-05-8.92952E-06-3.33927E-05-3.36960E-06-2.63706E-19-5.18269E-18
 -1       325 8.65374E-05-8.69023E-06-3.34066E-05-1.07335E-06 4.64059E-19-5.11136E-18
 -1       326 8.65459E-05-8.69973E-06-3.34062E-05 1.20453E-06 1.11152E-18-4.97166E-18
 -1       327 8.67684E-05-8.96024E-06-3.33915E-05 3.50298E-06 1.74115E-18-4.86014E-18
 -1       328 8.72377E-05-9.50333E-06-3.33635E-05 5.81965E-06 2.34948E-18-4.36357E-18
 -1       329 8.80730E-05-1.04533E-05-3.33210E-05 8.26033E-06 3.14712E-18-3.46061E-18
 -1       330 8.94833E-05-1.20345E-05-3.32590E-05 1.07701E-05 3.82185E-18-2.57179E-18
 -1       331 9.18986E-05-1.47217E-05-3.31570E-05 1.31757E-05 4.25290E-18-9.10415E-19
 -1       332 9.57976E-05-1.94553E-05-3.28259E-05 1.43820E-05 4.26043E-18 2.22293E-18
 -1       333 9.87826E-05-2.44416E-05-3.19486E-05 1.19034E-05 3.76584E-18 4.99404E-18
 -1       334 9.63800E-05-2.68095E-05-2.97865E-05 5.74694E-06 3.06969E-18 3.72323E-18
 -1       335 9.64241E-05-2.60232E-05-3.01281E-05-6.35399E-06-3.06465E-18-2.84882E-19
 -1       336 9.49166E-05-2.70375E-05-2.90669E-05-2.84439E-06-2.22558E-18-4.84301E-19
 -1       337 9.39301E-05-2.74218E-05-2.84892E-05-9.28356E-07-1.57019E-18-7.81286E-19
 -1       338 9.34091E-05-2.76348E-05-2.81822E-05 1.29158E-07-1.29453E-18-1.10222E-18
 -1       339 9.32152E-05-2.77868E-05-2.80379E-05 6.93410E-07-1.01284E-18-1.27174E-18
 -1       340 9.32311E-05-2.79150E-05-2.79916E-05 9.62379E-07-8.66514E-19-1.34514E-18
 -1       341 9.33707E-05-2.80283E-05-2.80038E-05 1.05358E-06-6.31660E-19-1.42345E-18
 -1       342 9.35753E-05-2.81280E-05-2.80492E-05 1.04094E-06-9.10325E-19-1.59333E-18
 -1       343 9.38076E-05-2.82139E-05-2.81122E-05 9.72969E-07-1.11736E-18-1.74544E-18
 -1       344 9.40455E-05-2.82864E-05-2.81831E-05 8.82553E-07-6.44214E-19-2.26195E-18
 -1       345 9.42781E-05-2.83467E-05-2.82569E-05 7.92602E-07-2.62382E-19-2.62992E-18
 -1       346 9.45025E-05-2.83966E-05-2.83315E-05 7.19659E-07 1.35993E-19-2.44900E-18
 -1       347 9.47218E-05-2.84387E-05-2.84072E-05 6.76339E-07-4.75171E-19-2.31047E-18
 -1       348 9.49439E-05-2.84759E-05-2.84861E-05 6.73053E-07-7.94812E-19-2.40072E-18
 -1       349 9.51802E-05-2.85120E-05-2.85717E-05 7.19223E-07-8.31154E-19-2.39667E-18
 -1       350 9.54457E-05-2.85509E-05-2.86683E-05 8.24069E-07-8.68992E-19-2.06989E-18
 -1       351 9.57580E-05-2.85979E-05-2.87817E-05 9.96954E-07-3.80428E-19-2.26894E-18
 -1       352 9.61378E-05-2.86588E-05-2.89178E-05 1.24723E-06 1.22322E-19-2.23254E-18
 -1       353 9.66081E-05-2.87415E-05-2.90834E-05 1.58335E-06 4.43962E-19-2.61178E-18
 -1       354 9.71937E-05-2.88558E-05-2.92849E-05 2.01103E-06 7.01171E-19-2.85270E-18
 -1       355 9.79209E-05-2.90149E-05-2.95279E-05 2.52990E-06 2.74048E-19-1.70530E-18
 -1       356 9.88156E-05-2.92366E-05-2.98162E-05 3.12805E-06 8.74021E-19-1.46866E-18
 -1       357 9.99020E-05-2.95456E-05-3.01495E-05 3.77354E-06 4.67854E-19-2.03774E-18
 -1       358 1.01199E-04-2.99757E-05-3.05221E-05 4.40232E-06 2.76768E-19-2.43726E-18
 -1       359 1.02718E-04-3.05711E-05-3.09199E-05 4.90248E-06 2.09125E-19-2.10451E-18
 -1       360 1.04454E-04-3.13833E-05-3.13190E-05 5.09739E-06-5.33939E-20-7.70557E-19
 -1       361 1.06372E-04-3.24554E-05-3.16862E-05 4.73623E-06-4.29232E-20-6.94541E-19
 -1       362 1.08379E-04-3.37792E-05-3.19846E-05 3.51140E-06 3.99116E-19-8.24372E-19
 -1       363 1.10271E-04-3.52124E-05-3.21864E-05 1.13873E-06-8.56402E-19-1.43688E-18
 -1       364 1.11661E-04-3.63602E-05-3.22919E-05-2.45102E-06-6.44978E-19-6.75884E-19
 -1       365 1.11958E-04-3.65208E-05-3.23448E-05-6.78415E-06-3.91524E-19 4.36904E-19
 -1       366 1.10577E-04-3.49361E-05-3.24244E-05-1.05363E-05-4.55313E-20-8.67390E-19
 -1       367 1.07474E-04-3.14471E-05-3.25810E-05-1.16732E-05-1.61915E-18-8.18659E-19
 -1       368 1.03852E-04-2.73859E-05-3.27664E-05-8.54278E-06-1.57499E-18-8.51586E-19
 -1       369 1.01811E-04-2.51726E-05-3.28418E-05-1.69663E-06-2.42160E-18-4.39983E-19
 -1       370 1.02699E-04-2.63844E-05-3.27039E-05 5.69342E-06-5.82904E-19 2.93163E-19
 -1       371 1.05720E-04-3.01005E-05-3.24072E-05 1.00094E-05-1.01762E-18-1.25330E-18
 -1       372 1.08761E-04-3.38710E-05-3.20995E-05 9.88522E-06-1.31111E-18-1.05823E-18
 -1       373 1.10260E-04-3.59392E-05-3.18652E-05 6.51108E-06 3.59916E-19-1.24521E-18
 -1       374 1.09939E-04-3.60780E-05-3.16745E-05 2.00057E-06 6.05218E-19-1.24164E-18
 -1       375 1.08304E-04-3.49605E-05-3.14524E-05-2.03037E-06 3.02657E-18-1.64209E-18
 -1       376 1.05991E-04-3.33365E-05-3.11521E-05-4.84102E-06 3.43560E-18 1.08669E-19
 -1       377 1.03464E-04-3.16734E-05-3.07749E-05-6.30796E-06 3.85758E-18-6.01916E-19
 -1       378 1.00998E-04-3.01583E-05-3.03606E-05-6.58068E-06 1.91922E-19 1.34790E-19
 -1       379 9.87496E-05-2.88155E-05-2.99658E-05-5.86114E-06-7.02054E-19-1.43182E-18
 -1       380 9.70309E-05-2.78506E-05-2.96381E-05-4.44999E-06 2.09649E-21-3.18170E-18
 -1       381 9.43580E-05-2.73377E-05-2.86848E-05 2.47508E-06 2.35120E-18 2.85201E-18
 -1       382 9.31492E-05-2.74568E-05-2.81320E-05 7.50648E-07 1.71880E-18 2.17345E-18
 -1       383 9.25926E-05-2.75337E-05-2.78725E-05-1.69875E-07 1.07124E-18 1.58248E-18
 -1       384 9.24481E-05-2.76252E-05-2.77771E-05-6.45231E-07 6.14601E-19 1.10716E-18
 -1       385 9.25483E-05-2.77334E-05-2.77762E-05-8.63610E-07 5.94384E-19 5.63223E-19
 -1       386 9.27823E-05-2.78485E-05-2.78284E-05-9.30466E-07 1.07330E-18 5.51755E-19
 -1       387 9.30796E-05-2.79617E-05-2.79079E-05-9.09877E-07 1.05044E-18 4.17242E-19
 -1       388 9.33965E-05-2.80670E-05-2.79989E-05-8.43028E-07 2.81469E-19 6.95213E-19
 -1       389 9.37085E-05-2.81616E-05-2.80922E-05-7.57442E-07 4.07879E-19 4.79471E-19
 -1       390 9.40040E-05-2.82446E-05-2.81832E-05-6.72085E-07 3.34185E-19 6.31604E-20
 -1       391 9.42809E-05-2.83173E-05-2.82705E-05-6.00517E-07 7.96561E-19-1.65326E-19
 -1       392 9.45438E-05-2.83820E-05-2.83553E-05-5.52991E-07 7.48161E-19-8.39372E-19
 -1       393 9.48027E-05-2.84421E-05-2.84402E-05-5.37963E-07 6.07042E-19-9.36282E-19
 -1       394 9.50720E-05-2.85020E-05-2.85296E-05-5.63171E-07 6.50437E-19-9.25404E-19
 -1       395 9.53700E-05-2.85668E-05-2.86291E-05-6.36403E-07 7.04753E-19-1.10905E-18
 -1       396 9.57187E-05-2.86427E-05-2.87456E-05-7.65957E-07 8.33820E-19-1.60736E-18
 -1       397 9.61437E-05-2.87370E-05-2.88867E-05-9.60747E-07-4.12940E-19-1.05964E-18
 -1       398 9.66740E-05-2.88583E-05-2.90615E-05-1.22991E-06-6.46861E-20-9.06645E-19
 -1       399 9.73421E-05-2.90169E-05-2.92792E-05-1.58167E-06-1.16257E-19-1.65270E-18
 -1       400 9.81822E-05-2.92253E-05-2.95494E-05-2.02107E-06 1.25031E-18-1.71806E-18
 -1       401 9.92287E-05-2.94983E-05-2.98805E-05-2.54578E-06 7.23718E-19-2.09494E-18
 -1       402 1.00513E-04-2.98545E-05-3.02781E-05-3.13918E-06-9.66053E-19-1.65300E-18
 -1       403 1.02056E-04-3.03164E-05-3.07421E-05-3.75933E-06-1.15305E-19-8.86388E-19
 -1       404 1.03862E-04-3.09115E-05-3.12630E-05-4.32303E-06 9.58752E-20-1.32045E-18
 -1       405 1.05904E-04-3.16697E-05-3.18166E-05-4.68564E-06-8.51565E-19 1.32665E-19
 -1       406 1.08106E-04-3.26152E-05-3.23596E-05-4.62237E-06-5.50867E-19 1.49517E-19
 -1       407 1.10313E-04-3.37408E-05-3.28288E-05-3.82791E-06 5.80338E-19 1.74189E-18
 -1       408 1.12257E-04-3.49528E-05-3.31480E-05-1.97028E-06 1.38345E-18 2.17412E-18
 -1       409 1.13517E-04-3.59809E-05-3.32500E-05 1.14506E-06 2.57698E-19-1.26141E-19
 -1       410 1.13525E-04-3.63019E-05-3.31119E-05 5.25943E-06 3.35892E-19-1.50545E-18
 -1       411 1.11744E-04-3.52512E-05-3.27913E-05 9.28294E-06-2.02479E-18-1.53590E-18
 -1       412 1.08154E-04-3.25170E-05-3.24129E-05 1.12698E-05-1.40807E-18-6.54492E-19
 -1       413 1.03856E-04-2.89046E-05-3.21201E-05 9.29881E-06 2.35722E-18 1.14469E-19
 -1       414 1.00996E-04-2.64119E-05-3.19629E-05 3.24612E-06 1.66940E-18 9.20521E-19
 -1       415 1.01305E-04-2.67870E-05-3.19292E-05-4.21368E-06-6.70652E-19-1.66290E-19
 -1       416 1.04427E-04-2.97056E-05-3.20101E-05-9.28249E-06 8.27313E-20-1.28153E-18
 -1       417 1.08273E-04-3.31350E-05-3.21955E-05-9.97694E-06-1.60508E-18 1.65784E-19
 -1       418 1.10880E-04-3.53041E-05-3.23997E-05-7.08196E-06-1.40647E-18 9.49860E-19
 -1       419 1.11504E-04-3.57524E-05-3.24867E-05-2.70660E-06 1.23341E-18 6.16719E-19
 -1       420 1.10408E-04-3.49641E-05-3.23573E-05 1.35236E-06 1.17536E-18 2.24857E-18
 -1       421 1.08207E-04-3.36033E-05-3.19923E-05 4.22270E-06 1.54103E-18 2.25456E-18
 -1       422 1.05470E-04-3.21224E-05-3.14458E-05 5.75291E-06 9.67609E-19 1.68873E-18
 -1       423 1.02615E-04-3.07257E-05-3.08121E-05 6.11676E-06 1.77783E-20 4.33170E-19
 -1       424 9.99305E-05-2.94749E-05-3.01918E-05 5.53212E-06 7.15704E-19 1.18138E-18
 -1       425 9.76098E-05-2.83860E-05-2.96611E-05 4.16983E-06 2.25615E-19 2.35737E-18
 -1       426 9.63566E-05-2.77285E-05-2.94049E-05 3.11044E-06 3.02092E-19 2.24177E-18
 -1       427 9.36567E-05-2.25389E-05-3.04772E-05 7.17122E-06-5.29272E-19-1.24483E-18
 -1       428 9.50115E-05-2.48495E-05-3.00609E-05 6.37994E-06-8.81440E-19 4.31728E-19
 -1       429 9.58052E-05-2.63799E-05-2.97427E-05 4.90850E-06-1.63173E-19 1.70673E-18
 -1       430 9.22815E-05-2.01985E-05-3.08965E-05 7.01403E-06-8.08355E-19-4.88033E-18
 -1       431 9.09708E-05-1.80092E-05-3.12778E-05 5.84090E-06 1.12718E-18-3.33792E-20
 -1       432 8.99582E-05-1.63473E-05-3.15597E-05 3.76321E-06 1.86659E-18-3.10049E-19
 -1       433 8.94462E-05-1.55087E-05-3.17014E-05 1.07585E-06-1.15647E-19 2.99352E-18
 -1       434 8.95489E-05-1.56544E-05-3.16827E-05-1.77149E-06-1.31777E-18-2.54815E-19
 -1       435 9.02352E-05-1.67465E-05-3.15065E-05-4.28887E-06-1.14487E-18-2.02342E-18
 -1       436 9.13181E-05-1.85266E-05-3.12036E-05-6.06274E-06 1.05000E-18-1.28690E-18
 -1       437 9.26210E-05-2.07422E-05-3.08076E-05-6.94829E-06 2.26137E-18 4.61272E-18
 -1       438 9.39406E-05-2.30518E-05-3.03777E-05-6.88422E-06 1.80773E-18 1.28843E-18
 -1       439 9.51588E-05-2.52090E-05-2.99684E-05-5.98543E-06-5.45050E-19-1.97160E-18
 -1       440 6.11175E-05-4.34296E-05-7.61110E-06 4.38605E-05-5.62536E-19 4.40415E-18
 -1       441 1.18024E-05-2.53901E-05 5.43758E-06-6.80706E-07 9.07907E-19-2.24358E-19
 -1       442 2.81171E-05-2.73885E-05-1.15421E-07 2.91292E-05 7.27601E-19 2.25628E-18
 -1       443 1.00125E-04-5.44334E-05-1.96813E-05 4.15047E-05-3.37754E-19 7.89805E-19
 -1       444 1.34521E-04-5.40659E-05-3.44283E-05 2.71946E-05 1.00061E-18-2.04251E-18
 -1       445 8.93407E-05-1.18601E-05-3.32799E-05-1.06895E-05-2.70264E-18-4.35519E-18
 -1       446 1.58683E-04-2.46869E-05-5.73094E-05-9.95065E-07 3.95384E-18-2.88298E-18
 -1       447 1.59513E-04-1.40610E-05-6.21749E-05-4.49990E-07 4.93651E-18-2.53295E-18
 -1       448 1.58789E-04-1.66550E-05-6.07895E-05 3.32242E-06 5.11375E-18-3.42450E-18
 -1       449 1.57980E-04-3.16150E-05-5.40387E-05-2.63431E-07 4.03855E-18-2.72586E-18
 -1       450 1.47463E-04-4.79778E-05-4.25830E-05-1.54156E-05 1.97054E-18-2.62104E-18
 -1       451 1.24083E-04-5.60343E-05-2.91893E-05-3.08637E-05 1.32539E-18-2.30478E-18
 -1       452 8.38438E-05-4.96042E-05-1.48966E-05-4.23958E-05 1.17812E-18-5.07706E-18
 -1       453 4.73503E-05-3.76841E-05-4.27200E-06-3.95978E-05 5.99488E-19-3.13090E-18
 -1       454 2.12108E-05-2.67958E-05 2.25079E-06-2.33417E-05-2.00059E-19-5.39507E-18
 -1       455 1.30272E-05-2.31519E-05 4.18428E-06 9.24107E-06 3.48475E-19-4.38530E-18
 -1       456 3.33226E-05-3.04333E-05-1.24322E-06 3.36642E-05 2.08360E-18-5.16658E-18
 -1       457 7.91257E-05-4.84600E-05-1.30281E-05 4.42297E-05 1.15366E-18-3.68191E-18
 -1       458 1.13107E-04-5.64836E-05-2.43778E-05 3.56899E-05-2.04950E-18 6.44010E-19
 -1       459 1.44151E-04-4.90627E-05-4.06573E-05 1.80407E-05-4.31868E-18 2.67249E-18
 -1       460 1.58045E-04-3.44677E-05-5.27260E-05 5.15467E-06-4.64179E-18 9.17337E-19
 -1       461 1.62818E-04-1.98983E-05-6.08848E-05-9.16433E-07-4.60574E-18-5.71112E-19
 -1       462 1.57129E-04-1.23078E-05-6.19549E-05-1.11351E-07-4.11256E-18-9.12877E-19
 -1       463 1.59915E-04-2.16621E-05-5.90353E-05 4.71168E-07-5.35113E-19 7.56930E-19
 -1       464 1.53953E-04-4.07983E-05-4.83949E-05-8.55508E-06 4.17984E-19 1.58618E-18
 -1       465 1.33601E-04-5.30788E-05-3.45027E-05-2.82085E-05 3.95247E-19 1.41433E-18
 -1       466 1.03239E-04-5.53135E-05-2.05721E-05-4.11114E-05 8.13681E-19 2.05797E-18
 -1       467 5.99297E-05-4.31279E-05-7.30424E-06-4.38679E-05 1.41444E-18 3.76522E-18
 -1       468 2.37467E-05-3.06334E-05 2.53780E-06-2.65771E-05 7.42107E-19-2.70691E-18
 -1       469 1.53486E-04-4.30495E-05-4.72087E-05 1.15887E-05 2.37359E-18-1.57485E-18
 -1       470 9.58124E-05-2.51469E-05-3.02710E-05 6.02566E-06 3.14119E-18 5.26381E-19
 -1       471 8.95508E-05-1.34070E-05-3.26521E-05-3.92896E-06-6.15108E-19-4.61550E-18
 -1       472 9.02530E-05-1.43669E-05-3.25429E-05-5.88930E-06-1.30538E-18-4.49484E-18
 -1       473 8.90559E-05-1.27280E-05-3.27297E-05 5.47827E-08 6.86914E-19-4.47259E-18
 -1       474 8.91905E-05-1.29113E-05-3.27091E-05 2.04763E-06 1.30901E-18-4.53208E-18
 -1       475 8.95833E-05-1.34481E-05-3.26485E-05 4.00240E-06 1.93450E-18-4.19600E-18
 -1       476 9.03039E-05-1.44335E-05-3.25369E-05 5.95815E-06 2.70734E-18-3.33907E-18
 -1       477 9.14473E-05-1.60103E-05-3.23532E-05 7.78711E-06 3.25052E-18-2.62425E-18
 -1       478 9.32310E-05-1.84795E-05-3.20565E-05 9.30298E-06 3.80953E-18-1.63859E-18
 -1       479 9.51037E-05-2.65756E-05-2.93513E-05 2.88278E-06 2.42178E-18 1.73532E-19
 -1       480 9.54580E-05-2.44134E-05-3.04343E-05-5.82576E-06-2.59632E-18-1.99159E-18
 -1       481 1.43557E-04-5.52726E-05-3.80649E-05 4.89828E-06 3.67675E-19-3.19638E-18
 -1       482 9.53065E-05-2.62802E-05-2.95798E-05-2.90870E-06-1.96445E-18-1.79191E-18
 -1       483 9.49105E-05-2.71600E-05-2.90317E-05-1.04211E-06-1.63460E-18-1.76084E-18
 -1       484 9.46339E-05-2.76905E-05-2.86883E-05 8.22292E-08-1.37119E-18-1.69744E-18
 -1       485 9.44779E-05-2.80150E-05-2.84835E-05 7.19780E-07-9.08620E-19-1.57615E-18
 -1       486 9.44239E-05-2.82239E-05-2.83714E-05 1.04238E-06-8.75736E-19-1.50628E-18
 -1       487 9.44422E-05-2.83610E-05-2.83207E-05 1.16666E-06-8.99699E-19-1.64680E-18
 -1       488 9.45065E-05-2.84500E-05-2.83102E-05 1.17225E-06-1.08009E-18-1.85049E-18
 -1       489 9.45971E-05-2.85046E-05-2.83256E-05 1.11432E-06-1.08214E-18-1.60109E-18
 -1       490 9.47015E-05-2.85338E-05-2.83579E-05 1.03170E-06-5.30702E-19-1.15996E-18
 -1       491 9.48126E-05-2.85436E-05-2.84012E-05 9.52293E-07-9.84380E-21-1.23706E-18
 -1       492 9.49281E-05-2.85384E-05-2.84529E-05 8.96821E-07-2.55087E-19-2.04487E-18
 -1       493 9.50488E-05-2.85212E-05-2.85119E-05 8.81534E-07-8.64919E-19-2.22764E-18
 -1       494 9.51787E-05-2.84944E-05-2.85789E-05 9.20130E-07-5.80797E-19-2.21384E-18
 -1       495 9.53236E-05-2.84600E-05-2.86556E-05 1.02509E-06-9.59066E-19-1.85858E-18
 -1       496 9.54917E-05-2.84200E-05-2.87446E-05 1.20843E-06-7.03704E-19-1.84847E-18
 -1       497 9.56926E-05-2.83772E-05-2.88488E-05 1.48195E-06-5.54515E-19-1.78944E-18
 -1       498 9.59379E-05-2.83361E-05-2.89713E-05 1.85666E-06-1.62944E-19-2.15065E-18
 -1       499 9.62412E-05-2.83040E-05-2.91149E-05 2.34141E-06 5.72127E-19-2.47693E-18
 -1       500 9.66190E-05-2.82935E-05-2.92810E-05 2.94028E-06 7.21327E-19-2.56833E-18
 -1       501 9.70915E-05-2.83254E-05-2.94697E-05 3.64817E-06 4.04661E-19-2.26385E-18
 -1       502 9.76857E-05-2.84335E-05-2.96780E-05 4.44424E-06 3.14178E-19-2.68342E-18
 -1       503 9.84395E-05-2.86713E-05-2.98993E-05 5.28211E-06-1.23249E-19-3.11097E-18
 -1       504 9.94083E-05-2.91190E-05-3.01231E-05 6.07655E-06 6.73770E-20-3.68077E-18
 -1       505 1.00672E-04-2.98887E-05-3.03361E-05 6.68635E-06 8.54400E-19-3.39541E-18
 -1       506 1.02340E-04-3.11174E-05-3.05261E-05 6.89508E-06 3.94619E-19-3.28561E-18
 -1       507 1.04533E-04-3.29301E-05-3.06918E-05 6.39614E-06 7.29543E-19-2.40481E-18
 -1       508 1.07323E-04-3.53370E-05-3.08592E-05 4.80226E-06 1.90818E-19-2.36767E-18
 -1       509 1.10588E-04-3.80383E-05-3.11037E-05 1.72455E-06-1.53059E-19-2.84566E-19
 -1       510 1.13760E-04-4.01430E-05-3.15617E-05-2.98221E-06-1.00778E-18-2.12188E-19
 -1       511 1.15659E-04-4.00763E-05-3.24002E-05-8.64732E-06-8.89594E-19-3.93296E-19
 -1       512 1.14926E-04-3.63324E-05-3.37129E-05-1.32598E-05-4.87995E-19 4.82781E-19
 -1       513 1.11323E-04-2.91444E-05-3.52688E-05-1.34001E-05-1.23594E-18 1.05357E-18
 -1       514 1.07324E-04-2.24263E-05-3.64521E-05-7.17660E-06-1.87123E-18 1.65124E-18
 -1       515 1.06621E-04-2.14242E-05-3.65902E-05 2.92228E-06-6.30418E-19 1.83518E-18
 -1       516 1.09770E-04-2.69280E-05-3.55671E-05 1.07552E-05-2.34606E-18 1.00961E-19
 -1       517 1.13648E-04-3.45112E-05-3.39461E-05 1.22618E-05-8.23373E-19-8.54073E-19
 -1       518 1.15079E-04-3.94184E-05-3.24382E-05 8.43667E-06-3.39616E-20 1.77530E-18
 -1       519 1.13586E-04-4.03803E-05-3.13843E-05 2.59903E-06 1.42000E-18 1.53243E-18
 -1       520 1.10377E-04-3.86135E-05-3.07654E-05-2.67980E-06 3.01120E-19 7.86805E-19
 -1       521 1.06777E-04-3.57946E-05-3.04295E-05-6.36256E-06 3.23229E-18 2.52789E-19
 -1       522 1.03502E-04-3.29700E-05-3.02333E-05-8.36071E-06 2.95016E-18 5.70600E-19
 -1       523 1.00771E-04-3.05497E-05-3.00965E-05-8.94044E-06 2.99233E-18-8.08932E-19
 -1       524 9.85478E-05-2.85550E-05-2.99947E-05-8.38556E-06-1.32879E-18-8.70520E-19
 -1       525 9.41321E-05-2.76831E-05-2.84746E-05-1.11128E-07 1.25353E-18-4.16350E-19
 -1       526 9.39555E-05-2.79284E-05-2.82960E-05-7.22048E-07 8.83504E-19-7.67490E-19
 -1       527 9.39261E-05-2.80979E-05-2.82118E-05-1.02337E-06 8.60999E-19-9.46806E-19
 -1       528 9.39921E-05-2.82215E-05-2.81875E-05-1.13320E-06 8.03836E-19-6.84204E-19
 -1       529 9.41135E-05-2.83132E-05-2.82005E-05-1.12951E-06 3.62588E-19-5.24837E-19
 -1       530 9.42631E-05-2.83805E-05-2.82359E-05-1.06520E-06 6.35281E-19-4.73413E-19
 -1       531 9.44243E-05-2.84287E-05-2.82843E-05-9.76901E-07 6.68197E-19-6.54173E-19
 -1       532 9.45883E-05-2.84614E-05-2.83405E-05-8.90637E-07 6.72529E-19-9.68604E-19
 -1       533 9.47524E-05-2.84818E-05-2.84019E-05-8.25554E-07 7.84481E-19-1.05891E-18
 -1       534 9.49188E-05-2.84928E-05-2.84684E-05-7.96582E-07 7.27278E-19-9.66602E-19
 -1       535 9.50931E-05-2.84969E-05-2.85411E-05-8.16337E-07 3.60323E-19-5.11372E-19
 -1       536 9.52840E-05-2.84966E-05-2.86228E-05-8.96476E-07 8.70375E-19-8.72039E-19
 -1       537 9.55029E-05-2.84948E-05-2.87172E-05-1.04859E-06 8.64276E-19-4.34808E-19
 -1       538 9.57633E-05-2.84947E-05-2.88285E-05-1.28458E-06-4.89943E-19-1.28922E-20
 -1       539 9.60809E-05-2.85008E-05-2.89616E-05-1.61653E-06-4.67547E-19-3.01794E-19
 -1       540 9.64737E-05-2.85195E-05-2.91216E-05-2.05568E-06 5.57305E-19-5.26892E-19
 -1       541 9.69616E-05-2.85603E-05-2.93128E-05-2.61039E-06 2.10158E-19-1.29477E-18
 -1       542 9.75670E-05-2.86385E-05-2.95384E-05-3.28234E-06 7.96868E-19-5.52089E-19
 -1       543 9.83155E-05-2.87780E-05-2.97992E-05-4.06025E-06-1.11717E-19-1.80509E-19
 -1       544 9.92376E-05-2.90172E-05-3.00920E-05-4.91016E-06-7.55257E-19-7.63382E-19
 -1       545 1.00372E-04-2.94157E-05-3.04081E-05-5.76092E-06 5.09951E-20-6.99908E-19
 -1       546 1.01771E-04-3.00614E-05-3.07326E-05-6.48457E-06-5.48749E-19-4.25135E-19
 -1       547 1.03504E-04-3.10714E-05-3.10450E-05-6.87282E-06-9.87255E-19-1.20028E-18
 -1       548 1.05650E-04-3.25722E-05-3.13253E-05-6.61674E-06-1.18720E-18-3.41744E-19
 -1       549 1.08258E-04-3.46282E-05-3.15668E-05-5.30964E-06 2.15198E-19-2.77393E-20
 -1       550 1.11239E-04-3.70791E-05-3.17989E-05-2.51889E-06 9.01709E-19 1.35660E-18
 -1       551 1.14156E-04-3.92778E-05-3.21107E-05 1.98279E-06 1.22482E-18 1.83734E-18
 -1       552 1.16043E-04-3.99097E-05-3.26431E-05 7.71317E-06-1.49261E-18 1.61709E-18
 -1       553 1.15572E-04-3.73757E-05-3.35325E-05 1.28473E-05-1.82430E-18 1.67876E-18
 -1       554 1.12360E-04-3.14533E-05-3.47030E-05 1.41271E-05-2.10302E-19 1.54158E-18
 -1       555 1.08057E-04-2.47529E-05-3.57559E-05 9.05560E-06 1.91745E-18 1.80715E-18
 -1       556 1.06442E-04-2.24576E-05-3.60552E-05-8.88576E-07 1.63077E-18 1.19246E-18
 -1       557 1.08863E-04-2.64251E-05-3.53768E-05-9.82024E-06 2.39614E-19-6.61407E-19
 -1       558 1.12917E-04-3.33680E-05-3.41149E-05-1.28305E-05-9.17618E-19-5.72514E-19
 -1       559 1.15107E-04-3.84001E-05-3.28953E-05-9.91876E-06-1.44324E-18-9.16434E-19
 -1       560 1.14438E-04-3.98004E-05-3.20081E-05-4.14876E-06-1.85546E-19-1.12446E-18
 -1       561 1.11766E-04-3.84225E-05-3.14526E-05 1.51744E-06 4.11930E-19 3.61894E-19
 -1       562 1.08378E-04-3.58763E-05-3.10881E-05 5.65865E-06 1.13610E-18 6.77916E-20
 -1       563 1.05085E-04-3.32619E-05-3.07908E-05 8.01842E-06 1.23060E-18 8.66143E-19
 -1       564 1.02204E-04-3.10208E-05-3.05082E-05 8.84379E-06 5.21364E-19 1.50104E-18
 -1       565 9.97511E-05-2.91728E-05-3.02437E-05 8.46728E-06 5.98365E-19 1.62319E-18
 -1       566 9.76194E-05-2.76244E-05-2.99919E-05 7.14633E-06-4.28065E-19 1.66772E-18
 -1       567 9.13186E-05-2.08694E-05-3.01954E-05 8.62971E-06 1.17159E-18-1.10097E-18
 -1       568 8.94627E-05-1.89046E-05-3.02439E-05 6.50563E-06 2.14662E-18 8.99772E-19
 -1       569 9.53336E-05-2.52029E-05-3.00574E-05 9.06735E-06-3.03794E-19-1.22532E-18
 -1       570 9.33753E-05-2.30791E-05-3.01228E-05 9.44172E-06-1.25328E-18-1.61415E-18
 -1       571 8.82072E-05-1.75842E-05-3.02729E-05 3.28330E-06 1.41852E-18-1.86063E-18
 -1       572 8.78765E-05-1.72343E-05-3.02815E-05-5.13500E-07-7.40273E-19 4.86216E-19
 -1       573 8.85589E-05-1.79446E-05-3.02690E-05-4.17939E-06-3.74287E-19-1.75285E-19
 -1       574 9.00169E-05-1.94848E-05-3.02322E-05-7.02007E-06-1.40512E-19-1.34074E-18
 -1       575 9.19262E-05-2.15375E-05-3.01687E-05-8.73937E-06 1.29921E-18 1.78981E-18
 -1       576 9.38788E-05-2.36956E-05-3.00779E-05-9.19845E-06-4.01379E-19 9.74774E-19
 -1       577 9.56545E-05-2.56809E-05-2.99891E-05-8.49128E-06-2.38062E-18-2.07990E-18
 -1       578 2.81854E-05-1.47089E-05-5.11423E-06 1.02708E-05 1.47470E-18 1.57866E-19
 -1       579 9.59736E-05-5.29364E-05-1.81400E-05 4.10893E-05-2.78552E-18 1.22289E-18
 -1       580 9.45104E-05-2.72911E-05-2.87997E-05 9.92812E-07 1.69255E-18-7.21996E-20
 -1       581 2.79556E-05-1.59913E-05-4.44985E-06-1.41323E-05 1.26983E-18-2.77139E-18
 -1       582 5.79364E-05-3.28125E-05-1.02360E-05 3.88715E-05-3.80371E-19 1.28527E-18
 -1       583 9.45910E-05-2.07028E-05-3.16853E-05-9.57559E-06-3.30856E-18-2.56205E-18
 -1       584 5.05030E-05-3.08808E-05-7.93418E-06-3.80935E-05-5.28337E-19 2.16687E-18
 -1       585 1.35892E-04-9.63852E-06-5.47024E-05-5.66947E-06-3.81112E-18 4.66398E-20
 -1       586 6.62969E-05-3.75489E-05-1.18823E-05 4.11694E-05 3.40174E-18-5.06340E-18
 -1       587 7.98647E-05-4.64689E-05-1.39849E-05-4.24717E-05 1.36055E-20-3.63713E-18
 -1       588 8.91707E-05-1.28862E-05-3.27115E-05-1.93895E-06 1.01982E-19-4.66680E-18
 -1       589 1.31338E-04-8.67859E-06-5.32284E-05 3.02633E-06 4.19027E-18-1.31921E-18
 -1       590 3.09642E-05-1.77169E-05-5.09548E-06 2.18078E-05 1.99058E-18-3.12566E-18
 -1       591 1.36620E-04-1.51402E-05-5.26712E-05-8.73533E-06 3.85241E-18-3.53226E-18
 -1       592 1.39340E-04-2.17901E-05-5.09198E-05 1.27847E-05 3.28003E-18-4.85773E-19
 -1       593 1.44530E-04-4.38267E-05-4.35517E-05 7.13760E-06 1.20850E-18-9.88435E-19
 -1       594 1.39565E-04-5.86523E-05-3.47834E-05-9.64927E-06-4.90750E-20-1.61868E-18
 -1       595 1.13396E-04-5.91274E-05-2.31845E-05-3.34220E-05-5.73282E-19-1.08967E-18
 -1       596 4.69414E-05-2.51653E-05-8.73762E-06-3.29763E-05-8.71041E-19-4.09112E-18
 -1       597 1.45666E-04-4.52411E-05-4.33393E-05-3.31659E-06-4.05768E-18 1.60904E-18
 -1       598 2.55035E-05-1.34232E-05-4.49770E-06-8.58465E-06-7.35860E-19-4.37037E-18
 -1       599 1.06786E-04-5.67536E-05-2.12433E-05 3.61000E-05 1.37315E-18 1.59269E-19
 -1       600 1.42506E-04-5.50374E-05-3.77940E-05-4.23290E-06 1.22691E-18 9.24272E-19
 -1       601 1.35283E-04-5.99992E-05-3.23264E-05 1.59833E-05-2.75691E-18 2.22950E-18
 -1       602 1.40641E-04-2.45809E-05-5.02455E-05-1.19948E-05-3.74611E-18 1.00956E-18
 -1       603 1.32675E-04-1.28172E-05-5.20396E-05 7.89690E-06-2.71199E-18-1.21938E-18
 -1       604 1.41704E-04-3.09693E-05-4.79413E-05 1.06044E-05 8.59209E-20 6.00811E-19
 -1       605 1.30561E-04-6.22690E-05-2.91814E-05-2.32915E-05 6.84800E-19 5.80826E-19
 -1       606 9.35328E-05-5.22483E-05-1.74051E-05-4.22785E-05 3.36801E-19 3.02134E-18
 -1       607 1.43719E-04-3.61453E-05-4.65610E-05-9.52709E-06 2.24850E-18-3.98084E-18
 -1       608 9.61523E-05-2.31883E-05-3.12738E-05 9.58979E-06 3.90343E-18 1.20966E-18
 -1       609 1.26972E-04-6.22922E-05-2.76993E-05 2.66194E-05-1.36933E-18-2.23336E-18
 -1       610 9.13602E-05-1.58627E-05-3.23784E-05-7.79501E-06-2.09398E-18-4.03395E-18
 -1       611 4.75721E-05-1.95109E-05-1.14801E-05 2.44214E-05-4.91941E-19 1.16996E-19
 -1       612 9.72697E-05-2.74097E-05-2.99357E-05-7.46849E-06-2.24954E-18-8.80275E-19
 -1       613 9.15676E-05-1.68571E-05-3.20244E-05 2.44365E-06 1.52677E-18-3.88185E-18
 -1       614 9.13101E-05-1.64558E-05-3.20859E-05 8.40519E-07 8.65145E-19-3.99613E-18
 -1       615 9.28968E-05-1.90020E-05-3.16749E-05 5.27186E-06 2.62495E-18-2.43179E-18
 -1       616 9.39866E-05-2.09322E-05-3.13170E-05 6.14928E-06 3.11596E-18-1.76235E-18
 -1       617 9.52699E-05-2.40960E-05-3.04928E-05 5.15756E-06 2.95411E-18-1.13401E-18
 -1       618 4.91188E-05-2.07974E-05-1.16156E-05-2.61815E-05-2.31240E-19 1.76305E-18
 -1       619 1.28550E-04-2.59427E-05-4.43766E-05-1.43408E-05 2.45433E-18-4.55465E-18
 -1       620 9.54407E-05-2.57340E-05-2.98689E-05-2.44503E-06-1.67672E-18-2.24122E-18
 -1       621 9.54733E-05-2.69450E-05-2.93687E-05-8.73957E-07-1.29624E-18-2.03177E-18
 -1       622 9.54200E-05-2.77036E-05-2.90211E-05 1.27936E-07-1.04951E-18-1.78398E-18
 -1       623 9.53445E-05-2.81716E-05-2.87884E-05 7.19964E-07-8.82284E-19-1.78723E-18
 -1       624 9.52811E-05-2.84565E-05-2.86392E-05 1.03006E-06-9.52935E-19-1.99186E-18
 -1       625 9.52375E-05-2.86213E-05-2.85499E-05 1.15630E-06-9.61932E-19-1.71549E-18
 -1       626 9.52124E-05-2.87048E-05-2.85034E-05 1.17122E-06-8.57355E-19-1.54868E-18
 -1       627 9.52019E-05-2.87318E-05-2.84873E-05 1.12770E-06-4.24872E-19-7.67846E-19
 -1       628 9.52022E-05-2.87185E-05-2.84931E-05 1.06438E-06-7.33080E-19-7.77504E-19
 -1       629 9.52105E-05-2.86751E-05-2.85153E-05 1.00985E-06-7.58304E-19-1.45985E-18
 -1       630 9.52249E-05-2.86079E-05-2.85501E-05 9.85955E-07-6.62961E-19-1.68740E-18
 -1       631 9.52442E-05-2.85204E-05-2.85959E-05 1.01030E-06-5.67615E-19-1.12621E-18
 -1       632 9.52684E-05-2.84140E-05-2.86518E-05 1.09801E-06-9.76968E-19-1.12828E-18
 -1       633 9.52977E-05-2.82890E-05-2.87179E-05 1.26301E-06-9.47269E-19-1.08579E-18
 -1       634 9.53334E-05-2.81457E-05-2.87946E-05 1.51856E-06-5.63307E-19-9.56354E-19
 -1       635 9.53773E-05-2.79854E-05-2.88820E-05 1.87738E-06-3.70633E-19-1.04665E-18
 -1       636 9.54332E-05-2.78124E-05-2.89800E-05 2.35090E-06-9.93293E-20-6.69270E-19
 -1       637 9.55075E-05-2.76365E-05-2.90872E-05 2.94774E-06 2.27455E-19-1.64074E-18
 -1       638 9.56118E-05-2.74769E-05-2.92002E-05 3.67123E-06 7.70298E-19-2.40897E-18
 -1       639 9.57675E-05-2.73681E-05-2.93135E-05 4.51552E-06 3.42923E-19-2.17625E-18
 -1       640 9.60127E-05-2.73682E-05-2.94185E-05 5.46011E-06-6.02766E-19-2.40570E-18
 -1       641 9.64138E-05-2.75699E-05-2.95040E-05 6.46209E-06-3.09579E-19-2.21457E-18
 -1       642 9.70816E-05-2.81123E-05-2.95580E-05 7.44491E-06 4.29201E-19-1.95483E-18
 -1       643 9.81910E-05-2.91887E-05-2.95725E-05 8.28126E-06 9.65348E-19-2.25611E-18
 -1       644 9.99944E-05-3.10363E-05-2.95544E-05 8.76540E-06 7.36449E-19-2.47724E-18
 -1       645 1.02807E-04-3.38745E-05-2.95444E-05 8.56754E-06 4.37165E-19-2.02932E-18
 -1       646 1.06897E-04-3.77251E-05-2.96472E-05 7.18403E-06 1.63842E-18-6.66621E-19
 -1       647 1.12236E-04-4.20784E-05-3.00739E-05 3.93867E-06 6.55044E-19 1.15446E-19
 -1       648 1.17962E-04-4.52830E-05-3.11574E-05-1.78448E-06 8.05695E-20 1.92384E-18
 -1       649 1.21679E-04-4.43600E-05-3.32004E-05-9.04890E-06-5.04716E-19 3.86883E-18
 -1       650 1.21024E-04-3.62971E-05-3.63811E-05-1.52335E-05-1.38328E-18 2.77921E-18
 -1       651 1.15601E-04-2.31965E-05-3.98860E-05-1.38749E-05-2.87625E-18 4.22196E-19
 -1       652 1.11920E-04-1.54305E-05-4.16447E-05-2.84423E-06-1.75957E-18-2.89430E-19
 -1       653 1.14140E-04-2.00273E-05-4.05639E-05 9.65909E-06-2.23078E-18-1.33799E-18
 -1       654 1.19634E-04-3.26901E-05-3.73945E-05 1.42442E-05-1.44499E-18-1.06071E-19
 -1       655 1.21990E-04-4.29755E-05-3.39151E-05 9.46849E-06 1.51188E-19 4.40077E-19
 -1       656 1.19181E-04-4.58332E-05-3.14520E-05 1.72933E-06 5.83769E-19 1.24235E-18
 -1       657 1.13701E-04-4.34705E-05-3.00968E-05-4.82022E-06 8.50886E-19 2.21470E-18
 -1       658 1.08070E-04-3.91475E-05-2.95401E-05-8.87047E-06 1.19578E-18 2.94090E-18
 -1       659 1.03475E-04-3.48200E-05-2.94263E-05-1.08005E-05 2.58551E-18 1.06198E-18
 -1       660 1.00139E-04-3.12552E-05-2.95215E-05-1.12078E-05 1.60395E-18 2.14986E-19
 -1       661 9.78125E-05-2.84966E-05-2.97061E-05-1.05630E-05 1.69870E-19-1.00398E-18
 -1       662 9.49808E-05-2.81095E-05-2.86589E-05-7.32259E-07 1.00927E-18-1.49816E-18
 -1       663 9.67824E-05-2.71852E-05-2.98256E-05 1.09287E-05-1.73010E-19-1.69062E-18
 -1       664 9.50906E-05-2.77060E-05-2.88785E-05-1.19319E-07 1.29834E-18-1.25868E-18
 -1       665 9.49023E-05-2.85114E-05-2.84534E-05-1.17325E-06 4.41532E-19-6.98946E-19
 -1       666 9.49149E-05-2.85969E-05-2.84222E-05-1.18316E-06 8.31454E-19-1.00171E-18
 -1       667 9.49479E-05-2.86361E-05-2.84195E-05-1.13213E-06 4.38491E-19-1.13050E-18
 -1       668 9.49936E-05-2.86421E-05-2.84365E-05-1.05915E-06 9.10149E-19-1.28203E-18
 -1       669 9.50477E-05-2.86232E-05-2.84678E-05-9.92802E-07 7.51601E-19-1.13169E-18
 -1       670 9.51081E-05-2.85847E-05-2.85101E-05-9.54721E-07 5.77879E-19-7.95849E-19
 -1       671 9.51747E-05-2.85298E-05-2.85621E-05-9.62267E-07 3.51382E-19-1.08125E-18
 -1       672 9.52490E-05-2.84601E-05-2.86238E-05-1.03041E-06 7.56773E-19-1.12389E-18
 -1       673 9.53340E-05-2.83762E-05-2.86960E-05-1.17307E-06 3.53294E-19-7.33040E-19
 -1       674 9.54335E-05-2.82786E-05-2.87804E-05-1.40393E-06 7.16408E-20-2.37162E-19
 -1       675 9.55523E-05-2.81679E-05-2.88786E-05-1.73662E-06 9.22915E-20-7.79090E-19
 -1       676 9.56965E-05-2.80468E-05-2.89922E-05-2.18429E-06-3.43707E-20-9.69218E-19
 -1       677 9.58740E-05-2.79216E-05-2.91218E-05-2.75827E-06 3.80185E-19-3.56499E-20
 -1       678 9.60958E-05-2.78051E-05-2.92666E-05-3.46566E-06 6.56055E-19-5.92163E-19
 -1       679 9.63787E-05-2.77217E-05-2.94235E-05-4.30530E-06 2.48201E-19-1.29744E-19
 -1       680 9.67512E-05-2.77146E-05-2.95861E-05-5.26177E-06-2.77572E-19 3.51730E-19
 -1       681 9.72620E-05-2.78567E-05-2.97442E-05-6.29638E-06 1.87399E-19-5.79326E-19
 -1       682 9.79954E-05-2.82642E-05-2.98841E-05-7.33434E-06-8.51837E-19-3.51208E-19
 -1       683 9.90903E-05-2.91094E-05-2.99918E-05-8.24618E-06-4.38102E-19 3.04428E-19
 -1       684 1.00760E-04-3.06217E-05-3.00604E-05-8.82122E-06-1.12866E-18 4.40584E-19
 -1       685 1.03290E-04-3.30478E-05-3.01069E-05-8.73003E-06-3.39554E-19 1.48685E-20
 -1       686 1.06970E-04-3.65137E-05-3.02017E-05-7.48307E-06 4.29029E-20 5.97477E-19
 -1       687 1.11867E-04-4.07064E-05-3.05090E-05-4.43722E-06-1.85970E-19 1.52164E-18
 -1       688 1.17381E-04-4.43433E-05-3.13222E-05 1.02023E-06-2.19835E-19 2.48407E-18
 -1       689 1.21610E-04-4.48966E-05-3.28880E-05 8.46323E-06-1.35973E-18 1.31035E-18
 -1       690 1.21559E-04-3.82314E-05-3.58114E-05 1.54442E-05-2.27481E-19 1.16510E-18
 -1       691 1.16961E-04-2.64176E-05-3.91065E-05 1.57972E-05 2.01999E-18-9.42820E-20
 -1       692 1.12528E-04-1.74056E-05-4.10236E-05 5.65451E-06 2.20088E-18-4.02099E-19
 -1       693 1.13336E-04-1.93202E-05-4.05749E-05-7.79122E-06 1.86165E-18-4.20338E-19
 -1       694 1.18423E-04-3.04830E-05-3.79132E-05-1.46738E-05 7.54865E-19-1.69068E-18
 -1       695 1.22017E-04-4.13818E-05-3.46090E-05-1.17775E-05-1.27041E-18-2.99881E-18
 -1       696 1.20208E-04-4.52789E-05-3.21437E-05-4.12298E-06-3.39119E-19-2.54131E-18
 -1       697 1.15214E-04-4.35702E-05-3.07171E-05 3.05478E-06-4.22243E-19-2.61109E-18
 -1       698 1.09632E-04-3.94755E-05-3.00745E-05 7.90938E-06 1.21845E-18-2.93913E-18
 -1       699 1.04904E-04-3.52334E-05-2.98629E-05 1.04589E-05 2.84548E-19-2.47979E-18
 -1       700 1.01381E-04-3.17469E-05-2.98445E-05 1.12719E-05 7.60494E-20-7.95837E-19
 -1       701 9.88083E-05-2.93320E-05-2.97732E-05 1.14530E-05 8.40379E-19-1.36982E-18
 -1       702 1.17580E-04-5.80939E-05-2.53560E-05 2.65775E-05-1.84418E-18-4.07106E-18
 -1       703 8.55024E-05-1.81297E-05-2.88764E-05 1.73748E-06 1.46640E-18-1.59769E-18
 -1       704 9.66452E-05-2.69903E-05-2.98485E-05-9.67423E-06-1.63383E-18-2.52108E-18
 -1       705 8.93357E-05-2.12443E-05-2.91835E-05 9.52605E-06 7.89135E-19 5.23242E-19
 -1       706 8.58104E-05-1.83966E-05-2.88940E-05-3.10061E-06 4.02132E-19-1.13388E-18
 -1       707 8.68177E-05-1.92008E-05-2.89802E-05 6.24159E-06 7.23789E-19-1.50245E-18
 -1       708 1.34683E-04-5.88045E-05-3.25865E-05-7.43742E-06 4.92986E-19 2.67347E-18
 -1       709 8.75870E-05-1.98773E-05-2.90201E-05-7.18591E-06-5.83957E-19-5.48486E-19
 -1       710 9.02997E-05-2.21162E-05-2.92238E-05-9.91280E-06 6.84457E-19 1.01662E-18
 -1       711 9.32655E-05-2.45138E-05-2.94651E-05-1.09625E-05-8.86537E-19-1.87614E-19
 -1       712 8.47823E-05-4.12534E-05-1.83636E-05 3.61707E-05-2.05282E-18 1.18656E-18
 -1       713 3.86294E-05-1.26759E-05-1.05651E-05-3.16100E-06 7.16054E-19-8.02405E-19
 -1       714 1.24138E-04-1.68713E-05-4.64705E-05-1.22777E-05-3.09702E-18 5.30203E-19
 -1       715 9.46086E-05-2.22027E-05-3.10289E-05-6.04113E-06-2.21602E-18-2.77407E-18
 -1       716 1.36335E-04-5.31883E-05-3.58083E-05-3.01586E-06-2.72099E-18 1.15022E-18
 -1       717 1.02568E-04-5.23236E-05-2.13329E-05-3.29414E-05-6.90914E-19-1.05031E-18
 -1       718 9.42356E-05-4.61966E-05-2.03134E-05 3.40454E-05 2.80805E-18-1.09189E-18
 -1       719 9.52302E-05-2.70417E-05-2.92216E-05 9.35001E-07 1.68578E-18-1.29530E-18
 -1       720 9.49204E-05-2.83597E-05-2.85260E-05-1.04821E-06 6.53448E-19-1.30093E-18
 -1       721 9.53328E-05-2.59398E-05-2.97363E-05 2.61322E-06 2.09809E-18-1.15403E-18
 -1       722 1.36809E-04-5.15977E-05-3.67435E-05 6.52935E-06-1.09671E-19-9.61449E-19
 -1       723 1.15897E-04-5.76396E-05-2.48246E-05-2.80343E-05 9.86793E-20-5.19883E-19
 -1       724 9.20891E-05-1.76829E-05-3.18942E-05 3.95493E-06 2.11289E-18-3.18971E-18
 -1       725 1.34697E-04-3.63867E-05-4.25323E-05-1.42840E-05-4.35756E-18 1.00768E-18
 -1       726 1.34731E-04-4.35164E-05-3.93734E-05 1.06690E-05-8.91396E-19 2.73017E-18
 -1       727 7.30272E-05-3.44532E-05-1.61239E-05-3.48974E-05-1.02179E-18-3.19194E-18
 -1       728 1.33192E-04-3.30958E-05-4.31119E-05 1.64697E-05 1.28873E-18-5.70900E-19
 -1       729 5.51796E-05-2.40987E-05-1.28857E-05 3.04803E-05 2.52146E-18-4.28096E-18
 -1       730 7.83809E-05-3.89563E-05-1.65554E-05-3.81515E-05-1.37034E-19 2.76114E-18
 -1       731 9.20540E-05-1.76370E-05-3.18993E-05-3.89332E-06-8.11711E-19-3.97302E-18
 -1       732 4.50104E-05-1.56796E-05-1.20768E-05-1.83438E-05 9.40604E-19-4.78904E-18
 -1       733 1.24459E-04-5.90962E-05-2.79857E-05 1.74765E-05 3.74031E-19 1.42725E-18
 -1       734 1.27608E-04-6.04612E-05-2.88162E-05-1.64345E-05-5.13209E-19-3.98966E-19
 -1       735 3.65181E-05-1.19540E-05-1.00036E-05 7.07987E-06 1.75727E-18-1.58803E-18
 -1       736 1.25240E-04-2.38147E-05-4.39232E-05 1.38145E-05-1.47948E-18-1.55960E-19
 -1       737 1.19562E-04-1.04443E-05-4.73010E-05 3.16224E-07-2.46550E-18-6.35953E-20
 -1       738 1.36671E-04-4.67314E-05-3.88209E-05-9.22367E-06-9.80705E-20-5.31286E-18
 -1       739 1.21407E-04-1.62929E-05-4.55813E-05 1.13327E-05 3.16258E-18 2.32934E-20
 -1       740 1.33201E-04-5.97290E-05-3.16040E-05 9.58973E-06-1.90595E-18-3.71184E-18
 -1       741 1.19547E-04-1.31689E-05-4.61189E-05-5.12300E-06 3.06965E-18-2.48931E-18
 -1       742 9.28275E-05-1.89066E-05-3.16909E-05-5.23213E-06-1.50697E-18-3.75126E-18
 -1       743 9.13032E-05-1.64482E-05-3.20865E-05-7.86294E-07 2.78368E-19-4.12265E-18
 -1       744 9.23437E-05-2.36643E-05-2.94351E-05 1.11814E-05 6.47265E-19-2.55374E-19
 -1       745 7.00737E-05-2.80897E-05-1.77141E-05 2.94438E-05-6.83331E-19-2.12817E-20
 -1       746 9.15477E-05-1.68320E-05-3.20268E-05-2.37989E-06-2.22218E-19-3.93336E-18
 -1       747 9.55298E-05-2.66392E-05-2.95229E-05-1.11867E-05-1.59865E-18-2.78311E-18
 -1       748 1.27811E-04-4.25865E-05-3.66844E-05-1.25672E-05-2.48028E-18 1.96818E-18
 -1       749 9.46341E-05-2.27304E-05-3.08187E-05 3.90518E-06 2.25796E-18-1.71405E-18
 -1       750 9.58755E-05-2.68855E-05-2.95675E-05-5.89789E-07-9.78055E-19-2.01442E-18
 -1       751 9.59682E-05-2.77688E-05-2.92284E-05 2.15992E-07-8.30662E-19-1.91517E-18
 -1       752 9.59568E-05-2.83226E-05-2.89861E-05 7.00726E-07-1.01337E-18-1.90797E-18
 -1       753 9.58953E-05-2.86522E-05-2.88185E-05 9.57748E-07-6.46033E-19-1.84199E-18
 -1       754 9.58124E-05-2.88279E-05-2.87077E-05 1.06399E-06-6.05130E-19-1.72683E-18
 -1       755 9.57230E-05-2.88970E-05-2.86398E-05 1.07953E-06-4.01720E-19-1.44388E-18
 -1       756 9.56341E-05-2.88910E-05-2.86042E-05 1.04999E-06-2.93154E-19-1.34966E-18
 -1       757 9.55482E-05-2.88308E-05-2.85932E-05 1.00964E-06-7.95541E-19-7.64118E-19
 -1       758 9.54650E-05-2.87291E-05-2.86011E-05 9.84576E-07-7.85327E-19-1.05032E-18
 -1       759 9.53823E-05-2.85932E-05-2.86239E-05 9.95278E-07-5.56784E-19-1.10214E-18
 -1       760 9.52966E-05-2.84261E-05-2.86588E-05 1.05867E-06-7.77031E-19-1.21736E-18
 -1       761 9.52034E-05-2.82280E-05-2.87037E-05 1.18962E-06-8.55055E-19-6.21997E-19
 -1       762 9.50973E-05-2.79977E-05-2.87570E-05 1.40194E-06-9.66379E-19-3.00666E-19
 -1       763 9.49728E-05-2.77340E-05-2.88166E-05 1.70889E-06-4.85306E-19-6.25226E-19
 -1       764 9.48249E-05-2.74377E-05-2.88801E-05 2.12315E-06-1.13138E-19-1.07705E-18
 -1       765 9.46502E-05-2.71144E-05-2.89438E-05 2.65630E-06-2.84314E-20-6.38976E-19
 -1       766 9.44497E-05-2.67780E-05-2.90020E-05 3.31791E-06 1.53132E-19-6.21348E-19
 -1       767 9.42327E-05-2.64567E-05-2.90467E-05 4.11424E-06 8.81428E-19-1.71869E-18
 -1       768 9.40234E-05-2.62005E-05-2.90668E-05 5.04669E-06 2.24709E-20-1.51072E-18
 -1       769 9.38729E-05-2.60926E-05-2.90485E-05 6.11007E-06-3.50037E-19-9.38666E-19
 -1       770 9.38755E-05-2.62638E-05-2.89762E-05 7.29001E-06-2.82118E-19-1.26935E-18
 -1       771 9.41947E-05-2.69089E-05-2.88365E-05 8.55719E-06 3.97684E-19-1.04718E-18
 -1       772 9.50958E-05-2.83009E-05-2.86261E-05 9.85159E-06 5.74174E-19-1.34373E-18
 -1       773 9.69826E-05-3.07884E-05-2.83687E-05 1.10416E-05 7.12350E-19-1.15681E-18
 -1       774 1.00425E-04-3.47453E-05-2.81459E-05 1.18215E-05 1.65177E-18-1.47828E-18
 -1       775 1.05988E-04-4.02628E-05-2.81472E-05 1.15329E-05 2.14923E-18-1.53773E-18
 -1       776 1.13977E-04-4.67540E-05-2.88211E-05 8.78343E-06 1.55862E-18 9.73194E-19
 -1       777 1.23779E-04-5.20343E-05-3.07651E-05 2.12511E-06 5.38527E-19 1.51753E-18
 -1       778 1.29552E-04-4.46149E-05-3.66920E-05 9.64713E-06-2.49438E-19 1.62798E-18
 -1       779 1.25693E-04-5.12302E-05-3.19556E-05 2.16199E-08 8.71832E-19 1.64591E-18
 -1       780 1.17388E-04-4.86498E-05-2.94668E-05-8.16431E-06 1.99679E-18 3.56553E-18
 -1       781 1.09316E-04-4.27224E-05-2.85475E-05-1.22671E-05-1.59413E-19 3.07527E-18
 -1       782 1.03132E-04-3.67763E-05-2.84436E-05-1.36595E-05 9.87612E-20 1.77681E-18
 -1       783 9.91162E-05-3.20792E-05-2.87306E-05-1.33872E-05 1.18343E-18-2.13184E-18
 -1       784 9.69553E-05-2.90190E-05-2.91146E-05-1.24450E-05 1.25183E-18-1.90078E-18
 -1       785 9.57349E-05-2.77454E-05-2.91384E-05-1.92559E-07 1.20844E-18-1.25981E-18
 -1       786 9.55096E-05-2.88168E-05-2.85827E-05-1.13007E-06 6.20130E-19-1.08469E-18
 -1       787 9.55708E-05-2.87411E-05-2.86413E-05-1.11573E-06 9.36766E-19-1.43072E-18
 -1       788 9.54077E-05-2.87869E-05-2.85518E-05-1.04282E-06 7.64761E-19-1.18795E-18
 -1       789 9.53657E-05-2.87117E-05-2.85660E-05-1.00502E-06 3.86961E-19-1.54558E-18
 -1       790 9.53272E-05-2.86069E-05-2.85944E-05-1.00159E-06 5.96656E-19-1.29220E-18
 -1       791 9.52897E-05-2.84753E-05-2.86347E-05-1.05010E-06 4.87437E-19-9.72655E-19
 -1       792 9.52503E-05-2.83173E-05-2.86855E-05-1.16596E-06 1.24222E-19-1.77052E-19
 -1       793 9.52057E-05-2.81315E-05-2.87460E-05-1.36358E-06 1.21675E-19-5.79505E-19
 -1       794 9.51524E-05-2.79161E-05-2.88155E-05-1.65704E-06-1.09756E-19-5.44416E-19
 -1       795 9.50869E-05-2.76702E-05-2.88928E-05-2.06005E-06-6.38617E-19 8.14356E-20
 -1       796 9.50062E-05-2.73959E-05-2.89757E-05-2.58555E-06-2.67224E-19 2.16302E-19
 -1       797 9.49100E-05-2.71017E-05-2.90605E-05-3.24453E-06 2.02778E-19 9.28865E-19
 -1       798 9.48031E-05-2.68067E-05-2.91411E-05-4.04433E-06-1.72555E-20 1.24520E-18
 -1       799 9.47011E-05-2.65485E-05-2.92080E-05-4.98633E-06-1.33559E-19 9.25070E-19
 -1       800 9.46406E-05-2.63938E-05-2.92483E-05-6.06297E-06-9.14300E-20 5.64918E-19
 -1       801 9.46946E-05-2.64539E-05-2.92456E-05-7.25381E-06 1.12053E-19 1.72093E-18
 -1       802 9.49981E-05-2.69043E-05-2.91827E-05-8.51897E-06-6.21707E-19 3.80339E-19
 -1       803 9.57827E-05-2.80037E-05-2.90479E-05-9.78519E-06-6.19047E-19-2.49967E-19
 -1       804 9.74159E-05-3.01007E-05-2.88492E-05-1.09136E-05-6.27445E-19-4.59651E-19
 -1       805 1.00433E-04-3.35959E-05-2.86425E-05-1.16219E-05-4.39671E-19-2.88123E-19
 -1       806 1.05438E-04-3.87239E-05-2.85881E-05-1.13090E-05-1.45323E-18-9.52602E-20
 -1       807 1.12897E-04-4.51561E-05-2.90356E-05-8.84147E-06-7.10964E-19-5.38127E-19
 -1       808 1.21847E-04-5.07269E-05-3.04756E-05-2.79138E-06-4.40854E-19-2.72794E-19
 -1       809 1.27712E-04-5.15531E-05-3.26948E-05-1.78010E-06-1.40013E-18-6.03906E-18
 -1       810 1.19471E-04-4.97830E-05-2.98516E-05 7.28795E-06-1.51273E-18-3.61839E-18
 -1       811 1.10744E-04-4.36507E-05-2.87430E-05 1.22559E-05 4.91062E-19-3.30025E-18
 -1       812 1.04075E-04-3.74000E-05-2.85716E-05 1.40054E-05-2.47596E-19-1.58052E-18
 -1       813 9.97337E-05-3.25029E-05-2.88096E-05 1.39819E-05-9.95349E-19-2.19144E-19
 -1       814 8.21170E-05-1.82787E-05-2.73645E-05-9.68979E-07-3.50700E-20-1.48309E-18
 -1       815 9.18321E-05-2.53181E-05-2.85068E-05-1.26226E-05 7.91365E-19-6.70022E-19
 -1       816 8.38182E-05-1.95536E-05-2.75414E-05-6.62530E-06 6.62142E-19-1.34896E-18
 -1       817 5.41305E-05-1.61101E-05-1.59996E-05-1.40239E-05-1.08553E-19 1.55706E-18
 -1       818 7.01046E-05-2.75602E-05-1.79958E-05-2.85200E-05-8.26175E-19 3.53263E-18
 -1       819 9.56957E-05-2.69112E-05-2.94791E-05 6.97692E-07 1.46157E-18-1.45875E-18
 -1       820 6.50946E-05-2.34752E-05-1.76379E-05-2.43134E-05 1.82407E-19-1.93002E-18
 -1       821 8.75020E-05-2.22702E-05-2.79539E-05-1.07575E-05 4.11538E-19 2.49749E-19
 -1       822 1.03956E-04-4.74401E-05-2.41450E-05 2.67902E-05-1.24838E-18-2.79026E-18
 -1       823 9.54553E-05-2.88258E-05-2.85555E-05-1.09363E-06 6.39236E-19-1.09680E-18
 -1       824 1.23784E-04-5.58364E-05-2.91256E-05-1.28772E-05 1.78810E-18 3.22128E-18
 -1       825 4.95711E-05-1.25215E-05-1.55969E-05-3.00738E-06 1.77696E-18-2.56554E-18
 -1       826 9.44874E-05-4.26834E-05-2.20713E-05-2.84198E-05-2.17027E-18-2.73512E-19
 -1       827 9.55849E-05-2.55100E-05-3.00315E-05-1.82347E-06-1.24827E-18-2.27279E-18
 -1       828 5.37264E-05-1.62021E-05-1.58062E-05 1.67591E-05 1.67872E-18-2.62429E-18
 -1       829 9.87813E-05-4.53680E-05-2.27120E-05-2.98909E-05-3.79941E-20 1.08692E-18
 -1       830 9.52129E-05-2.44674E-05-3.03176E-05 3.44839E-06 2.19343E-18-1.36714E-18
 -1       831 1.10463E-04-4.99751E-05-2.58925E-05 2.02002E-05 2.94877E-18-4.74808E-19
 -1       832 9.47363E-05-2.28994E-05-3.07867E-05-3.49715E-06-1.33807E-18-2.94035E-18
 -1       833 5.34706E-05-1.49730E-05-1.61812E-05 1.06441E-05-1.19659E-18-2.33665E-18
 -1       834 7.72676E-05-3.14789E-05-1.93987E-05 2.86786E-05 2.41795E-18-2.85094E-18
 -1       835 9.32199E-05-1.97837E-05-3.14739E-05 1.23484E-06 9.86841E-19-3.47789E-18
 -1       836 1.21744E-04-5.51208E-05-2.85295E-05 1.43766E-05-2.55089E-18-3.37244E-18
 -1       837 9.31136E-05-1.95900E-05-3.15113E-05 2.12769E-08 5.90153E-19-3.52593E-18
 -1       838 9.40338E-05-2.13560E-05-3.11482E-05 3.31383E-06 1.98925E-18-2.52173E-18
 -1       839 9.03371E-05-2.40823E-05-2.83936E-05 1.25585E-05-9.19007E-19-2.04855E-18
 -1       840 9.58918E-05-3.96452E-05-2.40404E-05 2.30166E-05 2.99607E-18-3.11351E-20
 -1       841 8.29713E-05-3.20124E-05-2.17481E-05-2.48290E-05-1.29392E-18 5.47349E-19
 -1       842 1.11464E-04-4.96022E-05-2.64759E-05-2.01331E-05 2.48219E-19-4.90647E-19
 -1       843 9.55254E-05-2.58997E-05-2.98396E-05 1.84151E-06 1.86113E-18-1.52312E-18
 -1       844 9.41578E-05-2.16209E-05-3.10873E-05-2.86436E-06-9.27523E-19-3.28594E-18
 -1       845 9.56362E-05-2.85702E-05-2.87426E-05-1.00169E-06 2.63521E-19-1.27348E-18
 -1       846 9.67238E-05-2.92064E-05-2.89478E-05 1.35337E-05-2.49556E-19 1.60276E-19
 -1       847 8.60529E-05-2.10965E-05-2.78395E-05 9.86891E-06-1.71145E-18 2.92530E-19
 -1       848 9.56977E-05-2.82606E-05-2.89016E-05-7.22535E-07 6.85385E-19-1.18269E-18
 -1       849 8.29326E-05-1.88483E-05-2.74647E-05 5.05459E-06-1.14127E-18-1.31181E-18
 -1       850 9.03155E-05-3.72384E-05-2.26141E-05 2.75141E-05-1.27082E-18-3.48976E-19
 -1       851 1.12641E-04-5.02698E-05-2.66348E-05-1.79535E-05-1.19521E-18-6.55041E-19
 -1       852 9.37416E-05-2.07665E-05-3.12760E-05-1.94832E-06-3.11794E-19-3.35166E-18
 -1       853 6.11923E-05-1.67430E-05-1.89030E-05-1.31451E-05 6.29157E-19-2.33731E-18
 -1       854 9.50541E-05-2.72025E-05-2.90825E-05 1.29619E-05 1.93209E-18 1.14382E-20
 -1       855 9.35338E-05-2.03693E-05-3.13575E-05 2.36820E-06 1.52175E-18-3.03344E-18
 -1       856 9.44796E-05-2.72967E-05-2.87938E-05-1.28767E-05 3.18544E-19-1.62123E-19
 -1       857 9.63755E-05-2.79124E-05-2.93414E-05 2.93254E-07-7.23703E-19-2.12087E-18
 -1       858 9.63932E-05-2.84914E-05-2.91008E-05 6.47216E-07-7.75211E-19-1.81399E-18
 -1       859 9.63237E-05-2.88264E-05-2.89274E-05 8.33674E-07-5.39079E-19-1.61662E-18
 -1       860 9.62057E-05-2.89888E-05-2.88072E-05 9.09523E-07-4.14550E-19-1.66887E-18
 -1       861 9.60627E-05-2.90287E-05-2.87289E-05 9.20829E-07-2.79271E-19-1.75589E-18
 -1       862 9.59080E-05-2.89809E-05-2.86831E-05 9.03407E-07-5.51953E-19-2.31348E-18
 -1       863 9.57472E-05-2.88680E-05-2.86625E-05 8.84841E-07-8.33331E-19-2.32743E-18
 -1       864 9.55806E-05-2.87034E-05-2.86616E-05 8.86627E-07-3.23014E-19-1.83689E-18
 -1       865 9.54044E-05-2.84941E-05-2.86759E-05 9.26067E-07-5.01111E-19-9.46577E-19
 -1       866 9.52120E-05-2.82419E-05-2.87015E-05 1.01788E-06-5.16384E-19-9.16462E-19
 -1       867 9.49943E-05-2.79455E-05-2.87352E-05 1.17525E-06-7.69514E-19-8.85854E-19
 -1       868 9.47402E-05-2.76020E-05-2.87735E-05 1.41073E-06-1.01300E-18-1.12833E-19
 -1       869 9.44379E-05-2.72095E-05-2.88122E-05 1.73668E-06-2.96092E-19-1.27447E-20
 -1       870 9.40759E-05-2.67688E-05-2.88459E-05 2.16528E-06 2.63342E-20 1.91525E-20
 -1       871 9.36443E-05-2.62873E-05-2.88673E-05 2.70875E-06 4.52362E-19-5.75765E-19
 -1       872 9.31383E-05-2.57831E-05-2.88666E-05 3.37959E-06-3.95920E-20-2.97875E-19
 -1       873 9.25630E-05-2.52917E-05-2.88306E-05 4.19153E-06 3.00365E-19-1.10796E-18
 -1       874 9.19406E-05-2.48744E-05-2.87426E-05 5.16179E-06 1.06902E-19-1.48033E-18
 -1       875 9.13229E-05-2.46303E-05-2.85825E-05 6.31524E-06-7.19833E-19-1.02292E-18
 -1       876 9.08112E-05-2.47122E-05-2.83281E-05 7.69030E-06-2.65643E-19-1.93977E-18
 -1       877 9.05865E-05-2.53483E-05-2.79591E-05 9.34339E-06 6.52476E-19-1.86597E-18
 -1       878 9.09605E-05-2.68695E-05-2.74671E-05 1.13435E-05 9.14582E-19-1.48213E-18
 -1       879 9.24471E-05-2.97298E-05-2.68759E-05 1.37189E-05 1.49603E-18-1.09926E-18
 -1       880 9.58732E-05-3.45736E-05-2.62751E-05 1.63675E-05 1.38977E-18-1.18885E-18
 -1       881 1.00039E-04-3.76701E-05-2.66963E-05-1.85207E-05-1.03704E-19-1.53610E-20
 -1       882 9.58915E-05-3.20434E-05-2.73823E-05-1.63514E-05-6.37471E-19 5.40012E-19
 -1       883 9.55412E-05-2.87202E-05-2.86376E-05-9.40616E-07 4.03514E-19-1.28000E-18
 -1       884 9.56706E-05-2.88570E-05-2.86344E-05-9.49569E-07 9.55461E-19-1.20474E-18
 -1       885 9.52618E-05-2.83269E-05-2.86864E-05-1.05211E-06-2.31878E-19-7.37437E-19
 -1       886 9.50984E-05-2.80709E-05-2.87261E-05-1.20257E-06 2.92472E-19-3.50895E-19
 -1       887 9.49073E-05-2.77716E-05-2.87724E-05-1.43426E-06 2.86407E-19-5.38462E-19
 -1       888 9.46777E-05-2.74255E-05-2.88223E-05-1.76017E-06-5.23914E-19-6.32304E-19
 -1       889 9.43982E-05-2.70309E-05-2.88717E-05-2.19298E-06-7.52723E-19-1.15458E-19
 -1       890 9.40580E-05-2.65907E-05-2.89145E-05-2.74485E-06-2.49964E-19 4.35295E-19
 -1       891 9.36491E-05-2.61162E-05-2.89426E-05-3.42724E-06 1.87854E-19 9.69711E-20
 -1       892 9.31704E-05-2.56336E-05-2.89443E-05-4.25099E-06 1.95770E-19 4.36573E-19
 -1       893 9.26343E-05-2.51918E-05-2.89038E-05-5.22743E-06 4.08917E-20 3.28706E-19
 -1       894 9.20788E-05-2.48757E-05-2.88012E-05-6.37123E-06-3.71252E-19-7.50523E-19
 -1       895 9.15868E-05-2.48230E-05-2.86128E-05-7.70539E-06-6.22182E-19-4.33991E-19
 -1       896 9.13174E-05-2.52492E-05-2.83147E-05-9.26609E-06-5.97340E-19 7.30040E-20
 -1       897 9.15546E-05-2.64759E-05-2.78905E-05-1.10997E-05-8.12819E-19 2.16470E-19
 -1       898 9.27768E-05-2.89563E-05-2.73492E-05-1.32285E-05-5.68034E-19 5.28688E-19
 -1       899 9.57313E-05-3.32925E-05-2.67528E-05-1.56150E-05-1.98778E-19 9.09402E-21
 -1       900 1.01948E-04-4.02348E-05-2.64089E-05-1.75399E-05-1.16997E-18-2.09309E-18
 -1       901 9.60961E-05-3.24070E-05-2.72844E-05 1.71510E-05-2.03880E-18-1.94778E-18
 -1       902 7.86540E-05-1.86038E-05-2.57391E-05-5.18203E-06-1.32306E-18-7.04018E-19
 -1       903 6.86877E-05-2.12885E-05-2.02046E-05-1.88730E-05-3.83120E-19 3.57709E-18
 -1       904 9.60669E-05-2.69520E-05-2.96207E-05 4.01393E-07 1.07140E-18-1.49658E-18
 -1       905 1.00746E-04-3.85401E-05-2.66297E-05 1.91806E-05-7.33446E-19-2.40330E-18
 -1       906 1.09400E-04-4.68129E-05-2.67913E-05 1.89770E-05-1.73060E-18-4.39363E-18
 -1       907 6.09713E-05-1.50846E-05-1.95988E-05-1.97710E-06-2.23576E-18-1.28001E-18
 -1       908 9.54068E-05-2.85428E-05-2.86560E-05-9.69523E-07-2.09448E-19-1.09992E-18
 -1       909 9.60424E-05-2.89224E-05-2.87657E-05-9.88460E-07 6.27929E-19-1.08792E-18
 -1       910 1.02835E-04-4.10407E-05-2.64215E-05 1.70724E-05 2.62694E-18-1.92559E-18
 -1       911 9.33568E-05-2.00332E-05-3.14252E-05-1.02795E-06 1.50997E-19-3.70592E-18
 -1       912 8.75193E-05-3.39369E-05-2.28721E-05-2.53833E-05-8.04258E-19 4.37969E-19
 -1       913 9.62092E-05-2.69905E-05-2.96654E-05-2.94819E-07-7.34341E-19-2.12482E-18
 -1       914 7.05562E-05-2.16706E-05-2.08558E-05 1.87126E-05-1.60511E-18 5.99375E-19
 -1       915 9.57969E-05-2.55808E-05-3.00926E-05-1.18173E-06-7.56672E-19-2.48543E-18
 -1       916 5.82191E-05-1.43048E-05-1.86889E-05 6.56483E-06 1.02166E-18-2.07290E-18
 -1       917 9.62022E-05-2.78549E-05-2.92918E-05-2.76486E-07 8.70505E-19-1.33630E-18
 -1       918 7.00519E-05-2.21367E-05-2.04157E-05 1.94079E-05 1.99924E-18-2.87703E-18
 -1       919 9.52571E-05-2.42238E-05-3.04431E-05 2.27530E-06 1.84494E-18-1.87554E-18
 -1       920 8.53554E-05-3.02006E-05-2.36230E-05 2.04798E-05 2.08346E-18-7.10023E-19
 -1       921 7.35054E-05-2.30628E-05-2.15318E-05-1.85672E-05-7.57726E-19 7.48039E-19
 -1       922 9.61441E-05-2.87540E-05-2.88815E-05-9.00657E-07 5.07162E-19-1.25352E-18
 -1       923 9.59235E-05-2.89755E-05-2.86920E-05-1.00061E-06 5.46908E-19-1.11484E-18
 -1       924 9.49973E-05-2.93647E-05-2.81297E-05-1.44991E-05 7.56516E-19 7.59586E-19
 -1       925 9.57484E-05-2.58300E-05-2.99634E-05 1.28989E-06 1.52729E-18-1.51475E-18
 -1       926 9.57980E-05-2.89464E-05-2.86507E-05-9.77412E-07 9.70259E-19-1.24047E-18
 -1       927 8.30276E-05-2.16437E-05-2.63136E-05-1.14158E-05-2.83512E-20 6.79446E-20
 -1       928 9.45651E-05-2.22804E-05-3.09789E-05 4.36332E-07 6.77788E-19-3.18824E-18
 -1       929 9.30269E-05-2.83757E-05-2.77015E-05 1.55138E-05-2.84075E-19-3.26605E-18
 -1       930 7.79002E-05-1.80246E-05-2.56621E-05 2.70431E-06-1.74584E-18-1.56332E-18
 -1       931 9.62089E-05-2.84215E-05-2.90518E-05-6.85184E-07 5.72584E-19-1.33679E-18
 -1       932 6.27304E-05-1.48392E-05-2.04568E-05-3.69169E-06 1.25284E-19-2.29182E-18
 -1       933 7.00271E-05-1.75605E-05-2.24278E-05 8.30481E-06-1.01346E-18 2.97371E-19
 -1       934 9.46942E-05-2.26082E-05-3.08955E-05 1.22026E-06 1.19945E-18-2.92447E-18
 -1       935 9.51688E-05-2.38651E-05-3.05590E-05-2.00486E-06-7.66838E-19-3.00212E-18
 -1       936 8.70034E-05-2.41660E-05-2.69392E-05 1.39628E-05-1.54981E-18-7.28299E-19
 -1       937 9.15151E-05-2.69191E-05-2.76998E-05-1.44260E-05 5.39055E-19-1.30925E-18
 -1       938 9.48994E-05-2.30809E-05-3.07793E-05-1.47879E-06-3.80102E-19-2.85231E-18
 -1       939 9.67343E-05-3.84633E-05-2.49231E-05 2.30532E-05-2.15329E-18-3.92432E-18
 -1       940 8.15372E-05-2.59062E-05-2.37943E-05-1.87755E-05-6.40530E-19 1.69646E-18
 -1       941 9.66920E-05-2.86751E-05-2.91501E-05 5.43180E-07-4.43821E-19-1.84001E-18
 -1       942 9.65987E-05-2.89785E-05-2.89801E-05 6.58881E-07-2.83966E-19-1.67058E-18
 -1       943 9.64431E-05-2.91036E-05-2.88597E-05 7.03827E-07-3.56042E-19-1.48493E-18
 -1       944 9.62520E-05-2.91004E-05-2.87793E-05 7.09942E-07-7.46996E-19-1.54420E-18
 -1       945 9.60405E-05-2.90031E-05-2.87303E-05 7.02316E-07-6.06817E-19-1.59930E-18
 -1       946 9.58142E-05-2.88336E-05-2.87060E-05 7.00868E-07-3.54570E-19-1.28729E-18
 -1       947 9.55724E-05-2.86047E-05-2.87004E-05 7.21201E-07 1.56794E-20-1.44437E-18
 -1       948 9.53086E-05-2.83213E-05-2.87088E-05 7.76499E-07-4.49460E-19-1.32694E-18
 -1       949 9.50125E-05-2.79838E-05-2.87266E-05 8.78111E-07-6.11469E-19-1.11696E-18
 -1       950 9.46701E-05-2.75892E-05-2.87490E-05 1.03650E-06-5.68168E-19-9.12156E-19
 -1       951 9.42652E-05-2.71331E-05-2.87710E-05 1.26228E-06 1.83996E-20-1.67083E-19
 -1       952 9.37800E-05-2.66129E-05-2.87860E-05 1.56608E-06 1.11050E-19 3.78624E-19
 -1       953 9.31964E-05-2.60297E-05-2.87858E-05 1.95933E-06 9.63848E-20-2.68371E-20
 -1       954 9.24974E-05-2.53919E-05-2.87596E-05 2.45516E-06-1.12242E-19 1.89559E-19
 -1       955 9.16701E-05-2.47199E-05-2.86931E-05 3.07005E-06-1.16096E-19-5.68301E-19
 -1       956 9.07088E-05-2.40513E-05-2.85677E-05 3.82737E-06 8.97413E-22 8.38541E-20
 -1       957 8.96202E-05-2.34479E-05-2.83599E-05 4.76379E-06-3.31722E-19-6.50525E-19
 -1       958 8.84316E-05-2.30051E-05-2.80404E-05 5.94041E-06-6.06914E-19-1.33165E-18
 -1       959 8.72056E-05-2.28666E-05-2.75748E-05 7.45970E-06-7.66523E-20-7.40011E-19
 -1       960 8.60677E-05-2.32472E-05-2.69241E-05 9.48345E-06 6.76846E-20-1.54963E-18
 -1       961 8.52399E-05-2.44686E-05-2.60470E-05 1.22691E-05 1.25479E-18-2.08486E-18
 -1       962 9.44704E-05-2.73231E-05-2.87774E-05-1.35393E-06-4.63313E-19 6.35314E-19
 -1       963 8.93395E-05-2.99813E-05-2.53962E-05-1.92846E-05-7.82350E-19-8.57073E-19
 -1       964 9.84286E-05-4.05275E-05-2.47410E-05-2.35160E-05 5.58625E-19-2.01034E-20
 -1       965 9.48155E-05-2.77388E-05-2.87472E-05-1.11953E-06-1.03809E-19-6.69495E-20
 -1       966 9.51065E-05-2.80957E-05-2.87190E-05-9.57579E-07-7.66625E-20-6.12817E-19
 -1       967 9.40538E-05-2.68441E-05-2.88042E-05-1.67152E-06-2.85098E-19 6.33170E-19
 -1       968 9.35471E-05-2.62998E-05-2.88203E-05-2.08306E-06-4.45613E-19-6.77563E-19
 -1       969 9.29317E-05-2.56940E-05-2.88162E-05-2.59969E-06-4.49582E-19-3.94583E-19
 -1       970 9.21912E-05-2.50406E-05-2.87789E-05-3.23398E-06-1.16190E-19 3.93351E-19
 -1       971 9.13147E-05-2.43691E-05-2.86910E-05-4.00243E-06-5.09452E-20 1.87208E-19
 -1       972 9.03019E-05-2.37323E-05-2.85299E-05-4.93075E-06 2.87621E-19-4.90236E-20
 -1       973 8.91719E-05-2.32162E-05-2.82668E-05-6.06390E-06-5.84952E-19-4.17411E-19
 -1       974 8.79779E-05-2.29565E-05-2.78666E-05-7.48300E-06-2.04584E-19-1.05741E-18
 -1       975 8.68367E-05-2.31636E-05-2.72893E-05-9.32670E-06-8.70903E-19-1.40921E-18
 -1       976 8.59782E-05-2.41623E-05-2.64942E-05-1.18093E-05-1.25147E-18-1.11605E-18
 -1       977 8.58468E-05-2.64734E-05-2.54426E-05-1.52616E-05-4.75055E-19-1.16215E-18
 -1       978 9.63809E-05-2.71397E-05-2.96750E-05 1.40651E-07 8.22982E-19-1.78408E-18
 -1       979 8.79402E-05-2.72046E-05-2.60197E-05 1.71376E-05-1.42491E-18-1.54050E-18
 -1       980 9.09190E-05-3.19169E-05-2.52786E-05 2.04098E-05-1.74794E-18-2.08549E-18
 -1       981 9.57938E-05-2.88528E-05-2.86890E-05-7.92372E-07 6.46143E-19-8.85440E-19
 -1       982 9.65533E-05-2.80381E-05-2.93636E-05-3.25459E-07 5.53260E-19-1.70572E-18
 -1       983 9.65045E-05-2.72365E-05-2.96864E-05-6.11927E-08-4.98481E-19-2.07794E-18
 -1       984 9.49590E-05-2.32753E-05-3.07210E-05 1.87144E-06 1.42910E-18-2.45093E-18
 -1       985 9.60754E-05-2.58928E-05-3.00792E-05-6.41661E-07-3.79784E-19-2.41725E-18
 -1       986 9.66807E-05-2.81244E-05-2.93813E-05 3.17851E-07-5.39570E-19-1.85699E-18
 -1       987 6.86470E-05-1.77081E-05-2.17845E-05 1.04312E-05 1.07255E-18-7.81328E-19
 -1       988 8.66541E-05-2.96384E-05-2.43997E-05-1.89390E-05 8.28724E-19-9.25806E-19
 -1       989 8.11703E-05-2.02418E-05-2.61194E-05 9.67673E-06-2.37773E-18 2.49349E-20
 -1       990 9.46771E-05-2.24993E-05-3.09331E-05-3.02365E-07 3.21196E-19-3.31296E-18
 -1       991 9.55833E-05-2.46188E-05-3.04114E-05-1.06029E-06-2.75615E-19-2.67143E-18
 -1       992 7.16323E-05-1.82428E-05-2.28125E-05-9.55439E-06-1.16176E-18 7.59971E-19
 -1       993 6.97357E-05-1.82220E-05-2.20329E-05-1.10973E-05-1.08196E-18-1.03384E-18
 -1       994 9.53587E-05-2.83988E-05-2.86971E-05-8.57003E-07-2.77040E-19-2.48761E-19
 -1       995 8.52246E-05-2.70696E-05-2.49212E-05 1.61513E-05 1.79750E-18-2.27808E-18
 -1       996 9.47509E-05-2.26888E-05-3.08835E-05-9.20925E-07-6.17345E-20-3.09485E-18
 -1       997 9.64862E-05-2.89166E-05-2.89584E-05-7.48326E-07 5.58748E-19-1.41546E-18
 -1       998 9.59917E-05-2.89981E-05-2.87115E-05-8.00677E-07 8.07455E-19-1.09752E-18
 -1       999 9.63482E-05-2.90585E-05-2.88384E-05-8.05313E-07 8.69709E-19-1.41291E-18
 -1      1000 9.59682E-05-2.57871E-05-3.00773E-05 8.34197E-07 1.17071E-18-2.02886E-18
 -1      1001 6.86335E-05-1.59523E-05-2.25468E-05 2.67365E-06 3.58326E-19-3.31514E-19
 -1      1002 7.17385E-05-1.72150E-05-2.33834E-05-1.78438E-06-1.39636E-18-1.83938E-19
 -1      1003 9.65683E-05-2.85998E-05-2.91294E-05-6.03921E-07 2.36102E-19-1.64601E-18
 -1      1004 7.96039E-05-2.30459E-05-2.42057E-05 1.57355E-05-9.73809E-19-8.39755E-19
 -1      1005 9.55847E-05-2.86512E-05-2.86858E-05-8.06172E-07-3.89640E-20-2.05191E-19
 -1      1006 9.56306E-05-2.44372E-05-3.05108E-05 7.86048E-08 4.37944E-19-2.73082E-18
 -1      1007 7.68441E-05-2.24510E-05-2.32973E-05 1.49897E-05 2.27958E-18-1.93759E-18
 -1      1008 9.56800E-05-2.46135E-05-3.04557E-05 5.44508E-07 9.56899E-19-2.72528E-18
 -1      1009 8.60987E-05-2.93411E-05-2.42898E-05 2.09303E-05-1.54568E-18 8.75753E-20
 -1      1010 9.68086E-05-2.82760E-05-2.93712E-05-3.06111E-07 5.44241E-19-1.85593E-18
 -1      1011 9.67380E-05-2.90990E-05-2.89882E-05 4.36422E-07-1.63120E-19-1.33515E-18
 -1      1012 9.65435E-05-2.91688E-05-2.88749E-05 4.56695E-07-4.58550E-19-1.29279E-18
 -1      1013 9.63104E-05-2.91133E-05-2.87988E-05 4.58844E-07-6.98651E-19-1.25139E-18
 -1      1014 9.60515E-05-2.89630E-05-2.87522E-05 4.58006E-07-3.59848E-19-8.56087E-19
 -1      1015 9.57711E-05-2.87380E-05-2.87285E-05 4.66118E-07-5.36770E-19-1.01049E-18
 -1      1016 9.54652E-05-2.84476E-05-2.87218E-05 4.92312E-07-1.12228E-19-1.63689E-18
 -1      1017 9.51242E-05-2.80949E-05-2.87269E-05 5.45298E-07-2.53621E-19-1.70915E-18
 -1      1018 9.47347E-05-2.76794E-05-2.87381E-05 6.31868E-07-1.03335E-19-1.16433E-18
 -1      1019 9.42765E-05-2.71938E-05-2.87499E-05 7.60347E-07-2.10344E-19-7.98687E-19
 -1      1020 9.37302E-05-2.66347E-05-2.87554E-05 9.37672E-07 5.36235E-20-7.66728E-19
 -1      1021 9.30716E-05-2.59982E-05-2.87460E-05 1.17220E-06-2.85921E-19-7.55808E-19
 -1      1022 9.22760E-05-2.52853E-05-2.87106E-05 1.47399E-06 5.45134E-20-4.96160E-19
 -1      1023 9.13183E-05-2.45044E-05-2.86349E-05 1.85594E-06-2.69254E-19-2.77078E-19
 -1      1024 9.01734E-05-2.36748E-05-2.85000E-05 2.33658E-06-4.40978E-20-3.99201E-20
 -1      1025 8.88164E-05-2.28289E-05-2.82811E-05 2.94498E-06-2.12632E-19-6.82811E-19
 -1      1026 8.72208E-05-2.20155E-05-2.79462E-05 3.72975E-06-7.78969E-19-3.41808E-19
 -1      1027 8.53550E-05-2.13016E-05-2.74532E-05 4.77509E-06-1.47373E-19-1.73916E-19
 -1      1028 8.31795E-05-2.07788E-05-2.67460E-05 6.22772E-06 1.15063E-19-2.53154E-19
 -1      1029 8.06537E-05-2.05958E-05-2.57398E-05 8.30866E-06 3.79256E-20 7.51119E-19
 -1      1030 9.33490E-05-2.62248E-05-2.87677E-05-1.36034E-06-2.04381E-20 7.99645E-19
 -1      1031 9.61784E-05-2.90740E-05-2.87590E-05-8.12495E-07 8.40871E-19-1.35245E-18
 -1      1032 9.68004E-05-2.87850E-05-2.91495E-05-4.66079E-07 3.73614E-19-2.20422E-18
 -1      1033 9.44420E-05-2.73527E-05-2.87526E-05-9.00412E-07-4.92554E-19 1.16059E-18
 -1      1034 9.62483E-05-2.61671E-05-3.00350E-05 4.02722E-07 7.40935E-19-2.33825E-18
 -1      1035 9.39476E-05-2.68275E-05-2.87659E-05-1.09892E-06-1.71522E-19 5.35247E-19
 -1      1036 9.48554E-05-2.78056E-05-2.87357E-05-7.57203E-07-7.11971E-19 3.00062E-19
 -1      1037 9.26208E-05-2.55427E-05-2.87480E-05-1.69251E-06-2.83229E-19 8.81105E-19
 -1      1038 9.17365E-05-2.47857E-05-2.86935E-05-2.10456E-06 9.55406E-20-2.78077E-19
 -1      1039 9.06692E-05-2.39682E-05-2.85865E-05-2.60880E-06 3.12473E-19-1.12962E-18
 -1      1040 8.93917E-05-2.31175E-05-2.84037E-05-3.22493E-06-4.90816E-19-1.21767E-18
 -1      1041 8.78768E-05-2.22782E-05-2.81143E-05-3.98817E-06-4.80459E-19 8.87815E-20
 -1      1042 8.60945E-05-2.15145E-05-2.76781E-05-4.96424E-06 1.53254E-19 4.75169E-19
 -1      1043 8.40079E-05-2.09164E-05-2.70412E-05-6.27946E-06-6.98231E-19 6.77955E-20
 -1      1044 8.16081E-05-2.06413E-05-2.61311E-05-8.15954E-06-8.02000E-19 1.29936E-19
 -1      1045 7.88427E-05-2.08877E-05-2.48393E-05-1.08835E-05-9.60000E-19-2.60669E-19
 -1      1046 7.62191E-05-2.15364E-05-2.34163E-05-1.40743E-05-8.49072E-19 3.31848E-20
 -1      1047 9.68919E-05-2.83779E-05-2.93633E-05 2.63721E-07-4.04382E-19-1.90002E-18
 -1      1048 7.86116E-05-2.10567E-05-2.46614E-05 1.10856E-05 9.16292E-19-4.99979E-19
 -1      1049 9.57964E-05-2.87822E-05-2.87204E-05-5.79968E-07-4.36803E-19-2.87474E-19
 -1      1050 9.66577E-05-2.74475E-05-2.96620E-05-2.67400E-08 5.38679E-19-1.92915E-18
 -1      1051 9.63734E-05-2.63599E-05-3.00066E-05-2.50714E-07-4.97633E-20-2.55771E-18
 -1      1052 9.56425E-05-2.44854E-05-3.04949E-05-3.14441E-07 5.19672E-20-3.00038E-18
 -1      1053 9.67490E-05-2.75730E-05-2.96467E-05 6.45516E-08-2.63523E-19-2.19428E-18
 -1      1054 9.68678E-05-2.88568E-05-2.91477E-05 3.80056E-07-1.93777E-19-1.54300E-18
 -1      1055 9.60536E-05-2.89835E-05-2.87443E-05-5.75814E-07 5.05693E-19-7.32605E-19
 -1      1056 9.52077E-05-2.81916E-05-2.87212E-05-6.61452E-07-4.34971E-19-7.79422E-19
 -1      1057 9.55970E-05-2.44802E-05-3.04770E-05-6.98835E-07-1.82562E-19-2.78700E-18
 -1      1058 9.66862E-05-2.90507E-05-2.89865E-05-5.45248E-07 6.45421E-19-1.89910E-18
 -1      1059 7.11156E-05-1.67396E-05-2.33037E-05-4.14202E-06-3.76381E-19-1.42775E-18
 -1      1060 9.55171E-05-2.85167E-05-2.87144E-05-6.05581E-07 1.58821E-19-6.57844E-19
 -1      1061 9.55645E-05-2.44628E-05-3.04711E-05 8.93220E-07 1.14029E-18-2.61087E-18
 -1      1062 7.30294E-05-1.81368E-05-2.35051E-05 8.02758E-06 4.62118E-19 1.61042E-19
 -1      1063 9.63139E-05-2.60328E-05-3.01212E-05-5.02712E-08 2.33347E-19-2.47049E-18
 -1      1064 9.63351E-05-2.61023E-05-3.00988E-05 1.63848E-07 3.99003E-19-2.48843E-18
 -1      1065 9.65251E-05-2.91821E-05-2.88613E-05 1.80263E-07-4.37020E-19-7.15900E-19
 -1      1066 9.62586E-05-2.90708E-05-2.87947E-05 1.79958E-07-1.39021E-19-2.21186E-19
 -1      1067 9.59678E-05-2.88720E-05-2.87553E-05 1.81805E-07-3.07946E-19-3.56459E-19
 -1      1068 9.56455E-05-2.85946E-05-2.87361E-05 1.89508E-07-7.47315E-19 3.14568E-20
 -1      1069 9.52930E-05-2.82545E-05-2.87307E-05 2.06132E-07-6.69587E-20-8.81128E-20
 -1      1070 9.48916E-05-2.78433E-05-2.87345E-05 2.38019E-07 1.13242E-19-3.01889E-19
 -1      1071 9.44194E-05-2.73567E-05-2.87410E-05 2.84251E-07-4.55115E-19-1.20184E-18
 -1      1072 9.38635E-05-2.67958E-05-2.87431E-05 3.48886E-07 3.10305E-20-1.44836E-18
 -1      1073 9.31944E-05-2.61504E-05-2.87329E-05 4.37668E-07 1.46415E-19-1.32980E-18
 -1      1074 9.23840E-05-2.54172E-05-2.86998E-05 5.55307E-07-9.06574E-20-9.04073E-19
 -1      1075 9.14011E-05-2.45972E-05-2.86299E-05 7.08604E-07 2.07900E-19-7.81321E-19
 -1      1076 9.02114E-05-2.36979E-05-2.85053E-05 9.07361E-07-1.59135E-19-8.38003E-19
 -1      1077 8.87748E-05-2.27346E-05-2.83023E-05 1.16646E-06-4.68253E-19-1.20450E-18
 -1      1078 8.70405E-05-2.17300E-05-2.79894E-05 1.50947E-06-6.11823E-19-1.32235E-18
 -1      1079 8.49352E-05-2.07098E-05-2.75241E-05 1.97446E-06-5.87041E-19-1.46707E-18
 -1      1080 8.23400E-05-1.96941E-05-2.68475E-05 2.62384E-06-6.34373E-19-1.22627E-18
 -1      1081 7.91026E-05-1.86896E-05-2.58909E-05 3.59661E-06 8.08296E-19-1.59863E-18
 -1      1082 9.17094E-05-2.48272E-05-2.86640E-05-9.98582E-07 7.98496E-19-1.34907E-18
 -1      1083 9.33979E-05-2.63298E-05-2.87436E-05-6.55169E-07-8.77227E-20-1.19930E-19
 -1      1084 9.45490E-05-2.74869E-05-2.87410E-05-4.43129E-07-8.27797E-19-5.32026E-19
 -1      1085 9.05831E-05-2.39475E-05-2.85585E-05-1.23061E-06 5.77554E-19-6.87851E-19
 -1      1086 8.92182E-05-2.29968E-05-2.83811E-05-1.51159E-06-4.76406E-19-1.19981E-19
 -1      1087 8.75663E-05-2.19962E-05-2.81022E-05-1.85499E-06-1.20640E-18 2.88902E-19
 -1      1088 8.55616E-05-2.09729E-05-2.76819E-05-2.28671E-06-4.03136E-19 5.16817E-19
 -1      1089 8.31027E-05-1.99533E-05-2.70655E-05-2.85463E-06-3.34770E-19 1.27216E-18
 -1      1090 8.00070E-05-1.89306E-05-2.61744E-05-3.63456E-06-3.28702E-19 1.36150E-18
 -1      1091 9.67536E-05-2.91738E-05-2.89627E-05 1.76318E-07-3.07177E-19-1.19604E-18
 -1      1092 9.69278E-05-2.79548E-05-2.95600E-05 6.46029E-08 3.10729E-20-1.92997E-18
 -1      1093 9.70033E-05-2.86293E-05-2.93028E-05 1.27938E-07-1.18828E-20-1.57481E-18
 -1      1094 9.26362E-05-2.56231E-05-2.87201E-05-8.08268E-07 3.22034E-19-7.84205E-19
 -1      1095 9.69251E-05-2.90081E-05-2.91071E-05 1.60960E-07 9.11128E-20-1.37046E-18
 -1      1096 9.67180E-05-2.71434E-05-2.98174E-05-7.43574E-09 2.24289E-19-2.37255E-18
 -1      1097 9.40255E-05-2.69486E-05-2.87473E-05-5.35795E-07-1.46667E-19-2.92913E-19
 -1      1098 7.48811E-05-1.85527E-05-2.41470E-05-8.01385E-06-7.92399E-20-4.51754E-19
 -1      1099 9.69698E-05-2.85296E-05-2.93315E-05-1.98335E-07 4.04324E-19-2.03510E-18
 -1      1100 9.49912E-05-2.79470E-05-2.87327E-05-3.82480E-07-1.20059E-18 9.13204E-20
 -1      1101 9.60052E-05-2.89105E-05-2.87548E-05-3.13446E-07-1.70928E-19-5.33538E-19
 -1      1102 9.69195E-05-2.89542E-05-2.91279E-05-2.68612E-07 2.37377E-19-1.94227E-18
 -1      1103 9.65117E-05-2.91458E-05-2.88711E-05-5.76071E-07 5.36817E-19-1.45129E-18
 -1      1104 9.57057E-05-2.86601E-05-2.87340E-05-3.20218E-07 4.93849E-20-4.80601E-19
 -1      1105 7.61058E-05-1.79617E-05-2.48950E-05-4.88309E-06 1.26746E-19-2.44557E-20
 -1      1106 7.21449E-05-1.67114E-05-2.37472E-05 1.46818E-06 7.47897E-19-4.22982E-19
 -1      1107 9.68670E-05-2.78084E-05-2.95964E-05-7.52374E-08 3.14587E-19-2.36996E-18
 -1      1108 9.62961E-05-2.91149E-05-2.87923E-05-5.80794E-07 5.96828E-19-1.15591E-18
 -1      1109 7.63767E-05-1.83155E-05-2.48716E-05 5.41330E-06 4.78139E-19-3.08344E-19
 -1      1110 9.61229E-05-2.89842E-05-2.87736E-05-1.08262E-07-1.50776E-19-4.86644E-19
 -1      1111 9.50936E-05-2.80532E-05-2.87322E-05-1.30181E-07-7.50868E-19-5.17328E-19
 -1      1112 9.62893E-05-2.90950E-05-2.87971E-05-3.07488E-07 2.46597E-19-1.07626E-18
 -1      1113 9.66621E-05-2.92031E-05-2.89113E-05-1.12108E-07 1.81840E-20-1.20003E-18
 -1      1114 9.63996E-05-2.91377E-05-2.88264E-05-1.12633E-07-1.47109E-21-6.93273E-19
 -1      1115 9.66113E-05-2.68610E-05-2.98955E-05 5.03877E-08 3.69336E-19-2.43466E-18
 -1      1116 9.53682E-05-2.83361E-05-2.87280E-05-3.43070E-07-4.87699E-19-3.03820E-19
 -1      1117 9.68222E-05-2.91384E-05-2.90075E-05-2.04649E-07 2.79221E-19-1.57717E-18
 -1      1118 9.54752E-05-2.84311E-05-2.87331E-05-1.18601E-07-4.33068E-19 4.10063E-19
 -1      1119 1.16849E-04 2.57546E-10-4.18527E-05-4.14675E-05-4.74338E-19 1.35629E-17
 -1      1120 8.86431E-05 7.19017E-11-3.72483E-05-2.41730E-05-2.53051E-19 1.12168E-18
 -1      1121 8.40728E-05 4.14460E-11-3.57647E-05-1.78852E-05-1.63213E-19-4.03472E-18
 -1      1122 8.23317E-05 3.20283E-11-3.50718E-05-1.38431E-05-1.11358E-19-6.37580E-18
 -1      1123 8.15317E-05 2.73323E-11-3.47386E-05-1.05406E-05-6.62274E-20-7.42860E-18
 -1      1124 8.11329E-05 2.46218E-11-3.45745E-05-7.64681E-06-3.33056E-20-7.87386E-18
 -1      1125 8.09266E-05 2.29687E-11-3.44923E-05-4.98394E-06-2.12387E-20-7.97825E-18
 -1      1126 8.08261E-05 2.20750E-11-3.44537E-05-2.43418E-06 4.57927E-21-7.85677E-18
 -1      1127 8.07975E-05 2.18049E-11-3.44428E-05 5.26415E-08 2.79885E-20-7.66896E-18
 -1      1128 8.08303E-05 2.21186E-11-3.44551E-05 2.54195E-06 4.42244E-20-7.43175E-18
 -1      1129 8.09352E-05 2.30665E-11-3.44952E-05 5.09982E-06 5.41671E-20-7.11960E-18
 -1      1130 8.11486E-05 2.47791E-11-3.45789E-05 7.77848E-06 8.51136E-20-6.47291E-18
 -1      1131 8.15544E-05 2.76469E-11-3.47450E-05 1.07003E-05 1.08486E-19-5.48964E-18
 -1      1132 8.23557E-05 3.24994E-11-3.50817E-05 1.40500E-05 1.45001E-19-3.73112E-18
 -1      1133 8.40683E-05 4.19165E-11-3.57846E-05 1.81361E-05 1.91112E-19-5.54873E-19
 -1      1134 8.83411E-05 6.67271E-11-3.73186E-05 2.40154E-05 2.16735E-19 5.33861E-18
 -1      1135 1.06613E-04 1.63901E-10-4.06314E-05 3.61945E-05 4.32622E-19 1.73739E-17
 -1      1136 1.30215E-04-2.57545E-05-4.02710E-05-2.61070E-05-1.89651E-18 2.14198E-17
 -1      1137 9.74449E-05-2.88590E-05-3.15740E-05-6.80911E-07-6.49039E-19 1.70596E-17
 -1      1138 9.01427E-05-2.70215E-05-2.78880E-05 3.86974E-07-2.87938E-19 1.09015E-17
 -1      1139 8.82270E-05-2.65656E-05-2.66369E-05 2.50614E-07-1.27339E-19 6.78510E-18
 -1      1140 8.78619E-05-2.64371E-05-2.63787E-05 1.65511E-07-1.38884E-19 3.89273E-18
 -1      1141 8.82139E-05-2.65115E-05-2.64615E-05 1.17819E-07-9.75990E-20 2.15692E-18
 -1      1142 8.88929E-05-2.66938E-05-2.66619E-05 8.70906E-08-1.01662E-19 5.35417E-19
 -1      1143 8.96990E-05-2.69231E-05-2.69019E-05 6.57007E-08-3.30432E-20-4.94482E-19
 -1      1144 9.05228E-05-2.71631E-05-2.71475E-05 4.98422E-08-3.60939E-20-1.33609E-18
 -1      1145 9.13031E-05-2.73931E-05-2.73809E-05 3.75918E-08-1.78594E-20-2.60177E-18
 -1      1146 9.20084E-05-2.76024E-05-2.75926E-05 2.79244E-08-6.32081E-20-3.90698E-18
 -1      1147 9.26264E-05-2.77867E-05-2.77788E-05 2.02434E-08 1.54637E-19-4.00341E-18
 -1      1148 9.31577E-05-2.79457E-05-2.79395E-05 1.41605E-08-5.38652E-20-4.60033E-18
 -1      1149 9.36118E-05-2.80822E-05-2.80774E-05 9.40542E-09-1.08727E-20-4.48966E-18
 -1      1150 9.40046E-05-2.82007E-05-2.81972E-05 5.79022E-09-1.37365E-19-4.62497E-18
 -1      1151 9.43573E-05-2.83076E-05-2.83052E-05 3.19741E-09-1.24572E-19-4.92560E-18
 -1      1152 9.46952E-05-2.84103E-05-2.84092E-05 1.58025E-09-1.32132E-19-5.87142E-18
 -1      1153 9.50483E-05-2.85178E-05-2.85181E-05 9.69344E-10-9.39377E-21-6.50663E-18
 -1      1154 9.54512E-05-2.86405E-05-2.86423E-05 1.48346E-09-7.65663E-20-7.37760E-18
 -1      1155 9.59442E-05-2.87905E-05-2.87942E-05 3.34252E-09 2.27781E-20-8.52815E-18
 -1      1156 9.65733E-05-2.89815E-05-2.89875E-05 6.88010E-09-4.35291E-20-8.22186E-18
 -1      1157 9.73909E-05-2.92291E-05-2.92379E-05 1.25491E-08 1.18650E-19-6.04217E-18
 -1      1158 9.84543E-05-2.95502E-05-2.95625E-05 2.09070E-08 3.94292E-20-5.25795E-18
 -1      1159 9.98231E-05-2.99624E-05-2.99786E-05 3.25521E-08-5.84693E-20-7.15772E-18
 -1      1160 1.01552E-04-3.04815E-05-3.05014E-05 4.79540E-08-3.99123E-20-6.72887E-18
 -1      1161 1.03678E-04-3.11179E-05-3.11402E-05 6.70804E-08-6.86295E-20-5.10130E-18
 -1      1162 1.06198E-04-3.18694E-05-3.18904E-05 8.86656E-08-3.62967E-20-4.49528E-18
 -1      1163 1.09032E-04-3.27110E-05-3.27229E-05 1.08943E-07-3.61935E-20-6.36132E-18
 -1      1164 1.11973E-04-3.35794E-05-3.35687E-05 1.19787E-07-8.97508E-20-6.69566E-18
 -1      1165 1.14623E-04-3.43555E-05-3.43033E-05 1.06804E-07-1.04863E-19-5.55979E-18
 -1      1166 1.16352E-04-3.48512E-05-3.47387E-05 4.92861E-08-1.17218E-19-4.90552E-18
 -1      1167 1.16319E-04-3.48200E-05-3.46424E-05-7.35756E-08 1.29268E-19-7.60724E-18
 -1      1168 1.13676E-04-3.40170E-05-3.38053E-05-2.64807E-07 3.17538E-20-7.60651E-18
 -1      1169 1.08011E-04-3.23325E-05-3.21644E-05-4.82993E-07 1.69585E-19-7.66475E-18
 -1      1170 9.99420E-05-2.99631E-05-2.99417E-05-6.27266E-07 2.12582E-19-7.76443E-18
 -1      1171 9.14766E-05-2.75026E-05-2.76910E-05-5.74316E-07 1.13618E-19-6.95546E-18
 -1      1172 8.55180E-05-2.57826E-05-2.61386E-05-2.78702E-07-1.66621E-19-8.33801E-18
 -1      1173 8.44247E-05-2.54643E-05-2.58441E-05 1.49798E-07 1.30072E-19-9.17584E-18
 -1      1174 8.85313E-05-2.66402E-05-2.68842E-05 5.00658E-07-5.13712E-20-1.04196E-17
 -1      1175 9.59105E-05-2.87721E-05-2.88039E-05 6.21854E-07-9.86603E-20-1.24954E-17
 -1      1176 1.03606E-04-3.10187E-05-3.08756E-05 5.17815E-07 1.21404E-19-1.30798E-17
 -1      1177 1.09228E-04-3.26804E-05-3.24619E-05 3.01033E-07 1.51937E-19-9.50228E-18
 -1      1178 1.11748E-04-3.34419E-05-3.32385E-05 8.60317E-08-3.32904E-19-8.57810E-18
 -1      1179 1.11347E-04-3.33433E-05-3.32006E-05-6.81065E-08 2.77827E-19-9.56104E-18
 -1      1180 1.08839E-04-3.26180E-05-3.25429E-05-1.53237E-07 3.64517E-19-7.18991E-18
 -1      1181 1.05184E-04-3.15474E-05-3.15315E-05-1.83949E-07 4.70685E-19-4.27098E-18
 -1      1182 1.01255E-04-3.03901E-05-3.04272E-05-1.74013E-07 2.15897E-19-3.15626E-19
 -1      1183 9.78142E-05-2.93741E-05-2.94587E-05-1.19787E-07 2.07192E-20 3.52854E-18
 -1      1184 9.56089E-05-2.87516E-05-2.87957E-05 8.45590E-09-3.99589E-19 1.27629E-18
 -1      1185 9.50107E-05-2.84921E-05-2.84264E-05 8.20521E-08 2.82811E-19 1.54323E-18
 -1      1186 1.31049E-04-3.77370E-05-3.86565E-05 1.21748E-05-2.82168E-19 2.71660E-17
 -1      1187 9.65465E-05-2.81857E-05-3.13266E-05 8.01660E-07 1.67765E-19 2.20776E-17
 -1      1188 9.03565E-05-2.69240E-05-2.78689E-05 1.20263E-07 1.34500E-19 1.71536E-17
 -1      1189 8.83128E-05-2.64927E-05-2.66731E-05 9.08995E-09 9.64162E-20 1.35459E-17
 -1      1190 8.79023E-05-2.63995E-05-2.64057E-05-2.51786E-08 8.23392E-20 1.10535E-17
 -1      1191 8.82361E-05-2.64943E-05-2.64772E-05-3.41556E-08 6.00053E-20 8.95375E-18
 -1      1192 8.89059E-05-2.66869E-05-2.66720E-05-3.52470E-08 5.90475E-20 7.83513E-18
 -1      1193 8.97070E-05-2.69217E-05-2.69092E-05-3.33962E-08-2.89890E-20 7.36708E-18
 -1      1194 9.05278E-05-2.71646E-05-2.71530E-05-3.01581E-08 1.56527E-20 6.17631E-18
 -1      1195 9.13062E-05-2.73960E-05-2.73850E-05-2.62260E-08 4.44344E-20 5.19495E-18
 -1      1196 9.20102E-05-2.76059E-05-2.75956E-05-2.20004E-08 1.48114E-19 3.90452E-18
 -1      1197 9.26272E-05-2.77902E-05-2.77809E-05-1.77272E-08-6.71524E-20 3.09097E-18
 -1      1198 9.31577E-05-2.79490E-05-2.79409E-05-1.35481E-08-6.26662E-21 2.82035E-18
 -1      1199 9.36110E-05-2.80849E-05-2.80781E-05-9.53083E-09 4.20495E-20 2.48705E-18
 -1      1200 9.40031E-05-2.82028E-05-2.81973E-05-5.69239E-09 1.99826E-20 2.13460E-18
 -1      1201 9.43550E-05-2.83088E-05-2.83049E-05-2.01979E-09 8.80432E-21 1.07789E-18
 -1      1202 9.46923E-05-2.84108E-05-2.84084E-05 1.51075E-09-1.49756E-19 8.49925E-19
 -1      1203 9.50449E-05-2.85176E-05-2.85171E-05 4.91308E-09 1.95949E-19 8.28164E-19
 -1      1204 9.54482E-05-2.86400E-05-2.86415E-05 8.16607E-09 6.13135E-20 2.57471E-19
 -1      1205 9.59432E-05-2.87901E-05-2.87942E-05 1.11806E-08 1.22397E-19-5.93918E-19
 -1      1206 9.65778E-05-2.89823E-05-2.89896E-05 1.37529E-08-1.46026E-20-4.97686E-19
 -1      1207 9.74071E-05-2.92332E-05-2.92444E-05 1.54974E-08-8.21498E-20 1.10037E-19
 -1      1208 9.84936E-05-2.95610E-05-2.95773E-05 1.57511E-08-1.33377E-19-6.08567E-19
 -1      1209 9.99044E-05-2.99857E-05-3.00081E-05 1.34439E-08 5.82931E-20-1.33373E-18
 -1      1210 1.01706E-04-3.05264E-05-3.05559E-05 6.94952E-09-4.22673E-20-1.49330E-18
 -1      1211 1.03953E-04-3.11984E-05-3.12351E-05-6.02197E-09-9.33060E-21-5.92592E-19
 -1      1212 1.06665E-04-3.20059E-05-3.20477E-05-2.83146E-08 7.47110E-20-1.40979E-18
 -1      1213 1.09787E-04-3.29313E-05-3.29718E-05-6.26046E-08-1.66090E-19-1.22478E-18
 -1      1214 1.13138E-04-3.39185E-05-3.39430E-05-1.09356E-07-8.80807E-20 4.09593E-19
 -1      1215 1.16325E-04-3.48515E-05-3.48342E-05-1.62575E-07 1.40824E-19-2.66339E-19
 -1      1216 1.18680E-04-3.55356E-05-3.54402E-05-2.03348E-07-3.73608E-19-3.07579E-19
 -1      1217 1.19245E-04-3.56974E-05-3.54902E-05-1.94815E-07 3.44107E-20 3.70233E-19
 -1      1218 1.16967E-04-3.50370E-05-3.47179E-05-8.96770E-08 2.83690E-20-3.94717E-19
 -1      1219 1.11185E-04-3.33622E-05-3.30087E-05 1.36305E-07-2.27078E-19 1.09585E-18
 -1      1220 1.02395E-04-3.07983E-05-3.05776E-05 4.30765E-07-3.90529E-19 2.82962E-18
 -1      1221 9.28105E-05-2.79555E-05-2.80563E-05 6.41057E-07-3.89397E-19 1.40120E-18
 -1      1222 8.59010E-05-2.58363E-05-2.63089E-05 6.01881E-07 6.43441E-19-2.23966E-18
 -1      1223 8.46205E-05-2.53618E-05-2.60092E-05 2.82666E-07-2.39803E-19-2.24252E-18
 -1      1224 8.94238E-05-2.67444E-05-2.72405E-05-1.48161E-07 3.36404E-19-2.43353E-18
 -1      1225 9.79153E-05-2.93000E-05-2.94381E-05-4.61788E-07 1.33547E-19-4.36953E-18
 -1      1226 1.06501E-04-3.19195E-05-3.17318E-05-5.45689E-07 6.19161E-20-2.35655E-18
 -1      1227 1.12435E-04-3.37371E-05-3.33964E-05-4.42327E-07-4.03562E-19 3.63578E-18
 -1      1228 1.14717E-04-3.44366E-05-3.41059E-05-2.61081E-07 1.22965E-19-1.61069E-20
 -1      1229 1.13754E-04-3.41470E-05-3.39088E-05-8.83897E-08-2.45640E-20-3.45243E-18
 -1      1230 1.10591E-04-3.31940E-05-3.30608E-05 3.96945E-08 7.21654E-19-4.80887E-18
 -1      1231 1.06332E-04-3.19159E-05-3.18705E-05 1.22485E-07-7.32295E-20-5.28707E-18
 -1      1232 1.01910E-04-3.05939E-05-3.06206E-05 1.70680E-07-9.09568E-21-5.16759E-18
 -1      1233 9.81040E-05-2.94589E-05-2.95475E-05 1.83201E-07 5.07846E-19-5.69565E-18
 -1      1234 9.56412E-05-2.87207E-05-2.88208E-05 1.16052E-07-7.36356E-20-5.94270E-18
 -1      1235 9.50227E-05-2.85012E-05-2.84205E-05-7.63928E-08-3.23290E-19-3.23080E-18
 -1      1236 9.53127E-05-2.87890E-05-2.84279E-05-6.92844E-08-3.53257E-18-5.32274E-19
 -1      1237 9.50567E-05-2.81162E-05-2.88376E-05-1.64350E-08-1.47084E-18-5.88440E-19
 -1      1238 9.43369E-05-2.56755E-05-2.95654E-05 1.32474E-07 1.40532E-18 1.26956E-19
 -1      1239 9.32346E-05-2.19469E-05-3.06201E-05 1.91869E-07 3.19146E-18-4.44720E-19
 -1      1240 9.19638E-05-1.76392E-05-3.18453E-05 2.06223E-07 4.65773E-18-8.24588E-19
 -1      1241 9.07316E-05-1.34530E-05-3.30397E-05 1.87262E-07-5.49478E-18-1.71936E-19
 -1      1242 8.97101E-05-9.97513E-06-3.40328E-05 1.42647E-07-8.14920E-18 5.50202E-19
 -1      1243 8.90469E-05-7.71516E-06-3.46772E-05 7.17503E-08-5.09729E-18-6.09645E-19
 -1      1244 8.88560E-05-7.06572E-06-3.48635E-05-1.10840E-08-2.29690E-18-6.07425E-19
 -1      1245 8.91640E-05-8.11810E-06-3.45662E-05-9.05688E-08 3.74439E-18 4.63473E-19
 -1      1246 8.99140E-05-1.06784E-05-3.38381E-05-1.52377E-07 1.39615E-18-1.19003E-18
 -1      1247 9.09770E-05-1.42894E-05-3.28076E-05-1.88102E-07-6.82997E-18-3.19119E-19
 -1      1248 9.21930E-05-1.84233E-05-3.16235E-05-1.95374E-07-1.48085E-18 1.15005E-18
 -1      1249 9.34084E-05-2.25376E-05-3.04497E-05-1.76808E-07 4.34936E-18-7.02226E-19
 -1      1250 9.44487E-05-2.60450E-05-2.94635E-05-1.42863E-07 2.08431E-18-8.82115E-19
 -1      1251 9.50215E-05-2.81249E-05-2.88031E-05 6.50486E-08-2.06397E-18-5.58062E-19
 -1      1252 9.53212E-05-2.87965E-05-2.84287E-05 7.07900E-08-1.67557E-18 3.89777E-19
 -1      1253 3.52953E-05-1.10603E-04 1.88317E-05-1.45139E-05 1.74955E-18 5.78656E-19
 -1      1254 1.79542E-05-6.75140E-05 1.01185E-05-2.61580E-05 2.93666E-18 2.04389E-18
 -1      1255 7.77462E-06-1.00845E-05-5.65534E-06-1.07738E-06 7.74866E-18 5.55823E-18
 -1      1256 3.39507E-05 2.40972E-05-2.57683E-05 5.24619E-05 1.06845E-17 1.12503E-17
 -1      1257 1.05593E-04 1.42699E-05-4.61711E-05 1.01247E-04 8.36106E-18 1.19415E-17
 -1      1258 2.04548E-04-3.10469E-05-6.38362E-05 1.10406E-04 3.28268E-18 5.16521E-18
 -1      1259 2.88992E-04-7.97384E-05-7.53810E-05 6.63374E-05 4.22669E-19-1.23836E-18
 -1      1260 3.11238E-04-9.32979E-05-7.82528E-05-1.38857E-05 1.21274E-18-9.03382E-18
 -1      1261 2.63262E-04-6.46595E-05-7.19042E-05-8.56400E-05 4.79251E-18-1.74116E-17
 -1      1262 1.69752E-04-1.41113E-05-5.80067E-05-1.11185E-04 1.02118E-17-2.05456E-17
 -1      1263 7.66314E-05 2.16810E-05-3.91754E-05-8.62166E-05 1.52762E-17-1.91141E-17
 -1      1264 1.97068E-05 1.79410E-05-1.89775E-05-3.32597E-05 1.56972E-17-1.35322E-17
 -1      1265 7.99155E-06-2.63682E-05-1.69034E-07 1.31932E-05 1.32679E-17-6.95160E-18
 -1      1266 2.33243E-05-8.20697E-05 1.32879E-05 2.59506E-05 1.16467E-17-3.71805E-18
 -1      1267 3.62196E-05-1.12211E-04 1.92168E-05 6.39830E-06 1.26144E-18-1.18669E-18
 -1      1268 3.06501E-05-9.95232E-05 1.66694E-05-2.02452E-05-9.29449E-18-2.18815E-18
 -1      1269 1.19761E-05-4.62480E-05 5.11011E-06-2.03313E-05-1.55549E-17-7.64913E-18
 -1      1270 1.24710E-05 7.58292E-06-1.31673E-05 1.76185E-05-2.21940E-17-1.65392E-17
 -1      1271 5.99361E-05 2.42747E-05-3.44813E-05 7.48625E-05-1.39125E-17-1.45944E-17
 -1      1272 1.48311E-04-3.97304E-06-5.44386E-05 1.10637E-04-7.32599E-18-1.26716E-17
 -1      1273 2.46908E-04-5.60801E-05-6.96342E-05 9.47005E-05-1.91662E-18-4.35883E-18
 -1      1274 3.06484E-04-9.06994E-05-7.76554E-05 2.72979E-05-1.88994E-19 4.19768E-18
 -1      1275 2.96051E-04-8.47339E-05-7.61826E-05-5.48486E-05-1.80979E-18 9.78492E-18
 -1      1276 2.16318E-04-3.76225E-05-6.55145E-05-1.07575E-04-3.29665E-18 9.98737E-18
 -1      1277 1.13038E-04 1.14617E-05-4.76075E-05-1.03140E-04-4.83656E-18 6.79320E-18
 -1      1278 3.53581E-05 2.48280E-05-2.64316E-05-5.44314E-05-6.34597E-18 4.59431E-18
 -1      1279 7.81641E-06-9.21406E-06-5.94555E-06 3.40849E-07-3.02391E-18 3.88026E-18
 -1      1280 1.81130E-05-6.74722E-05 1.01701E-05 2.60458E-05 4.03442E-18-9.93146E-19
 -1      1281 3.58709E-05-1.11235E-04 1.88585E-05 1.41687E-05 1.32307E-18-9.52303E-19
 -1      1282 1.04434E-04-2.20172E-05-3.78893E-05-1.72778E-05-7.12566E-19 1.07427E-17
 -1      1283 9.03111E-05-6.67946E-06-3.60143E-05-2.04779E-05-1.87035E-18-1.32921E-18
 -1      1284 9.26467E-05-6.73799E-06-3.72192E-05-2.57651E-05-2.44094E-18 1.38416E-18
 -1      1285 8.58993E-05-4.09597E-06-3.51279E-05-1.64410E-05-1.79031E-18-5.10316E-18
 -1      1286 8.71494E-05-4.08850E-06-3.55967E-05-1.88611E-05-2.06438E-18-3.50026E-18
 -1      1287 9.21253E-05-1.04608E-05-3.50907E-05-1.90422E-05-3.24080E-18-1.15964E-18
 -1      1288 8.40938E-05-3.19048E-06-3.46858E-05-1.28237E-05-1.41411E-18-6.85614E-18
 -1      1289 8.47045E-05-3.16118E-06-3.49097E-05-1.46386E-05-1.63469E-18-6.09430E-18
 -1      1290 8.78623E-05-7.39484E-06-3.45719E-05-1.54193E-05-2.81987E-18-4.28019E-18
 -1      1291 8.31854E-05-2.72774E-06-3.44702E-05-9.69419E-06-9.52191E-19-7.65478E-18
 -1      1292 8.34969E-05-2.70929E-06-3.45789E-05-1.12415E-05-1.14662E-18-7.28769E-18
 -1      1293 8.58648E-05-5.98254E-06-3.43045E-05-1.19621E-05-2.12231E-18-5.78672E-18
 -1      1294 8.26979E-05-2.45868E-06-3.43648E-05-6.92117E-06-5.85856E-19-7.97613E-18
 -1      1295 8.28656E-05-2.45022E-06-3.44187E-05-8.29306E-06-7.15783E-19-7.83858E-18
 -1      1296 8.48227E-05-5.21828E-06-3.41730E-05-8.95188E-06-1.38586E-18-6.42668E-18
 -1      1297 8.24247E-05-2.29342E-06-3.43129E-05-4.29885E-06-2.37134E-19-7.97519E-18
 -1      1298 8.25149E-05-2.28950E-06-3.43397E-05-5.60115E-06-3.56432E-19-7.98882E-18
 -1      1299 8.42408E-05-4.76435E-06-3.41107E-05-6.22186E-06-8.06008E-19-6.68823E-18
 -1      1300 8.22933E-05-2.20412E-06-3.42910E-05-1.79163E-06 7.87966E-20-7.86449E-18
 -1      1301 8.23319E-05-2.20256E-06-3.43019E-05-3.04384E-06-1.96406E-20-7.93459E-18
 -1      1302 8.39202E-05-4.50092E-06-3.40825E-05-3.64784E-06-2.16601E-19-6.66207E-18
 -1      1303 8.22675E-05-2.17665E-06-3.42884E-05 6.70565E-07 4.20496E-19-7.66708E-18
 -1      1304 8.22661E-05-2.17669E-06-3.42881E-05-5.66501E-07 3.20499E-19-7.77388E-18
 -1      1305 8.37798E-05-4.38146E-06-3.40720E-05-1.17154E-06 3.22115E-19-6.57951E-18
 -1      1306 8.23403E-05-2.20681E-06-3.43034E-05 3.15150E-06 7.43123E-19-7.45687E-18
 -1      1307 8.22989E-05-2.20845E-06-3.42918E-05 1.89672E-06 6.43697E-19-7.60776E-18
 -1      1308 8.37847E-05-4.38564E-06-3.40723E-05 1.27501E-06 8.70375E-19-6.43044E-18
 -1      1309 8.25317E-05-2.29961E-06-3.43424E-05 5.71790E-06 1.01743E-18-7.03270E-18
 -1      1310 8.24381E-05-2.30299E-06-3.43148E-05 4.40974E-06 9.19036E-19-7.29514E-18
 -1      1311 8.39355E-05-4.51430E-06-3.40836E-05 3.75560E-06 1.34963E-18-6.15336E-18
 -1      1312 8.28887E-05-2.46492E-06-3.44217E-05 8.40122E-06 1.36583E-18-6.32730E-18
 -1      1313 8.27173E-05-2.47363E-06-3.43672E-05 7.02075E-06 1.22773E-18-6.74675E-18
 -1      1314 8.42658E-05-4.78683E-06-3.41119E-05 6.31599E-06 1.84888E-18-5.66519E-18
 -1      1315 8.35436E-05-2.74168E-06-3.45840E-05 1.14025E-05 1.77988E-18-5.22940E-18
 -1      1316 8.32239E-05-2.75882E-06-3.44739E-05 9.83711E-06 1.62164E-18-5.89211E-18
 -1      1317 8.48656E-05-5.25917E-06-3.41741E-05 9.06044E-06 2.44178E-18-4.87187E-18
 -1      1318 8.47613E-05-3.20320E-06-3.49175E-05 1.48514E-05 2.15573E-18-3.34065E-18
 -1      1319 8.41505E-05-3.24000E-06-3.46914E-05 1.30111E-05 1.96776E-18-4.50911E-18
 -1      1320 8.59451E-05-6.06323E-06-3.43058E-05 1.21298E-05 3.05443E-18-3.69865E-18
 -1      1321 8.72486E-05-4.08952E-06-3.56183E-05 1.90980E-05 2.42961E-18 7.90123E-20
 -1      1322 8.59667E-05-4.15349E-06-3.51355E-05 1.67005E-05 2.18153E-18-1.96956E-18
 -1      1323 8.79864E-05-7.51646E-06-3.45740E-05 1.56576E-05 3.48541E-18-1.55311E-18
 -1      1324 9.34600E-05-6.79077E-06-3.71147E-05 2.51013E-05 2.07661E-18 6.42623E-18
 -1      1325 9.01267E-05-6.43646E-06-3.60370E-05 2.11550E-05 2.03478E-18 2.58271E-18
 -1      1326 9.23554E-05-1.06964E-05-3.50760E-05 1.96828E-05 3.57649E-18 2.22706E-18
 -1      1327 1.23621E-04-2.49221E-05-3.90131E-05 2.83691E-05 1.01909E-18 1.81807E-17
 -1      1328 1.00075E-04-1.44223E-05-3.73522E-05 2.40543E-05 1.05053E-18 1.00400E-17
 -1      1329 1.01672E-04-1.93402E-05-3.54004E-05 2.14036E-05 3.34239E-18 8.01823E-18
 -1      1330 1.02598E-04-2.78030E-05-3.47558E-05 7.33151E-06 1.82708E-18 1.75478E-17
 -1      1331 1.05140E-04-3.02281E-05-3.35231E-05-7.96218E-06-2.02494E-18 1.15180E-17
 -1      1332 9.82513E-05-2.78400E-05-3.07593E-05-4.99066E-06-1.84616E-18 9.21360E-18
 -1      1333 9.54920E-05-2.78458E-05-2.92513E-05-2.49157E-06-1.51179E-18 8.23086E-18
 -1      1334 9.32580E-05-2.75545E-05-2.82114E-05-2.04478E-06-1.41383E-18 5.98548E-18
 -1      1335 9.94754E-05-2.80488E-05-3.09801E-05-7.89096E-06-3.22444E-18 4.43604E-18
 -1      1336 9.15673E-05-2.71966E-05-2.75767E-05-8.40367E-07-1.12273E-18 5.20983E-18
 -1      1337 9.08485E-05-2.71006E-05-2.72738E-05-7.30506E-07-1.01271E-18 3.63562E-18
 -1      1338 9.47066E-05-2.77671E-05-2.88128E-05-3.12432E-06-2.46444E-18 3.00558E-18
 -1      1339 9.00964E-05-2.69169E-05-2.70301E-05-1.77092E-07-7.29994E-19 3.00808E-18
 -1      1340 9.00209E-05-2.69426E-05-2.69945E-05-1.18899E-07-6.94134E-19 1.87971E-18
 -1      1341 9.25046E-05-2.74950E-05-2.78911E-05-1.05864E-06-1.75459E-18 1.60593E-18
 -1      1342 8.97596E-05-2.68748E-05-2.69197E-05 1.51456E-07-5.45248E-19 1.55820E-18
 -1      1343 8.99713E-05-2.69641E-05-2.69804E-05 1.80082E-07-5.04223E-19 7.80461E-19
 -1      1344 9.15422E-05-2.73504E-05-2.75233E-05-7.58195E-08-1.19385E-18 7.48724E-19
 -1      1345 8.99733E-05-2.69667E-05-2.69863E-05 3.10884E-07-5.64415E-19 4.78818E-19
 -1      1346 9.03123E-05-2.70854E-05-2.70843E-05 3.22488E-07-4.65883E-19-2.16026E-19
 -1      1347 9.12856E-05-2.73375E-05-2.74142E-05 4.11210E-07-1.06978E-18 1.10578E-20
 -1      1348 9.04524E-05-2.71265E-05-2.71310E-05 3.76803E-07-2.79388E-19-3.81350E-19
 -1      1349 9.08364E-05-2.72536E-05-2.72419E-05 3.78426E-07-2.57859E-19-8.21397E-19
 -1      1350 9.14149E-05-2.74102E-05-2.74353E-05 6.38757E-07-7.42573E-19-2.99006E-19
 -1      1351 9.10429E-05-2.73134E-05-2.73078E-05 3.89121E-07-2.90944E-19-9.99393E-19
 -1      1352 9.14265E-05-2.74368E-05-2.74190E-05 3.84970E-07-3.01004E-19-1.41367E-18
 -1      1353 9.17441E-05-2.75278E-05-2.75233E-05 7.21105E-07-6.66286E-19-9.76459E-19
 -1      1354 9.16570E-05-2.75032E-05-2.74917E-05 3.71083E-07-3.44787E-19-1.66741E-18
 -1      1355 9.20155E-05-2.76165E-05-2.75960E-05 3.63877E-07-4.77661E-19-2.24717E-18
 -1      1356 9.21635E-05-2.76639E-05-2.76428E-05 7.20474E-07-6.93888E-19-1.23477E-18
 -1      1357 9.22455E-05-2.76825E-05-2.76682E-05 3.37362E-07-5.34654E-19-2.37936E-18
 -1      1358 9.25668E-05-2.77826E-05-2.77621E-05 3.28936E-07-2.28517E-19-2.79524E-18
 -1      1359 9.26079E-05-2.78020E-05-2.77729E-05 6.74270E-07-7.56782E-19-1.46223E-18
 -1      1360 9.27831E-05-2.78446E-05-2.78299E-05 2.97666E-07-4.91279E-20-3.22635E-18
 -1      1361 9.30636E-05-2.79310E-05-2.79122E-05 2.89275E-07-8.23072E-20-3.23188E-18
 -1      1362 9.30400E-05-2.79328E-05-2.79014E-05 6.06529E-07-4.86235E-19-2.05825E-18
 -1      1363 9.32608E-05-2.79874E-05-2.79738E-05 2.58602E-07-2.03790E-19-3.43591E-18
 -1      1364 9.35023E-05-2.80610E-05-2.80450E-05 2.51121E-07-2.31788E-19-3.71347E-18
 -1      1365 9.34414E-05-2.80519E-05-2.80223E-05 5.33320E-07-3.09957E-19-2.79086E-18
 -1      1366 9.36802E-05-2.81117E-05-2.81005E-05 2.24806E-07 2.41193E-19-3.73178E-18
 -1      1367 9.38888E-05-2.81745E-05-2.81622E-05 2.18867E-07 8.31096E-20-3.67293E-18
 -1      1368 9.38062E-05-2.81583E-05-2.81333E-05 4.65732E-07 6.44188E-21-2.97722E-18
 -1      1369 9.40510E-05-2.82206E-05-2.82128E-05 1.99702E-07-3.19502E-19-3.50384E-18
 -1      1370 9.42354E-05-2.82754E-05-2.82676E-05 1.95799E-07-2.45035E-19-3.69729E-18
 -1      1371 9.41375E-05-2.82533E-05-2.82350E-05 4.11746E-07-2.31449E-19-2.89052E-18
 -1      1372 9.43884E-05-2.83188E-05-2.83153E-05 1.86044E-07-2.59425E-19-3.65457E-18
 -1      1373 9.45600E-05-2.83693E-05-2.83665E-05 1.84611E-07-4.20024E-19-4.03121E-18
 -1      1374 9.44450E-05-2.83401E-05-2.83302E-05 3.77507E-07-2.99394E-19-2.49744E-18
 -1      1375 9.47127E-05-2.84125E-05-2.84141E-05 1.86309E-07-2.58644E-19-4.10587E-18
 -1      1376 9.48849E-05-2.84627E-05-2.84656E-05 1.87780E-07-3.04264E-19-4.61793E-18
 -1      1377 9.47436E-05-2.84233E-05-2.84233E-05 3.68240E-07-5.95006E-19-3.02057E-18
 -1      1378 9.50483E-05-2.85089E-05-2.85165E-05 2.02985E-07-4.87772E-19-4.54279E-18
 -1      1379 9.52370E-05-2.85637E-05-2.85731E-05 2.07830E-07-4.54386E-19-4.96911E-18
 -1      1380 9.50527E-05-2.85085E-05-2.85202E-05 3.88903E-07-6.77364E-19-3.22411E-18
 -1      1381 9.54243E-05-2.86166E-05-2.86314E-05 2.38740E-07-3.36924E-19-5.24312E-18
 -1      1382 9.56478E-05-2.86816E-05-2.86984E-05 2.47496E-07-2.34886E-19-5.89195E-18
 -1      1383 9.53958E-05-2.86027E-05-2.86280E-05 4.44625E-07-5.73728E-19-4.00332E-18
 -1      1384 9.58741E-05-2.87456E-05-2.87689E-05 2.96482E-07-1.25090E-19-5.96494E-18
 -1      1385 9.61535E-05-2.88273E-05-2.88525E-05 3.09744E-07-1.13248E-19-6.16301E-18
 -1      1386 9.58004E-05-2.87141E-05-2.87550E-05 5.40906E-07-5.28424E-19-4.07747E-18
 -1      1387 9.64361E-05-2.89074E-05-2.89405E-05 3.79240E-07 1.86328E-19-6.08739E-18
 -1      1388 9.67954E-05-2.90132E-05-2.90478E-05 3.97627E-07 2.40927E-19-5.52180E-18
 -1      1389 9.62981E-05-2.88520E-05-2.89107E-05 6.83519E-07 1.73691E-19-3.94767E-18
 -1      1390 9.71532E-05-2.91149E-05-2.91591E-05 4.89803E-07 2.85427E-19-5.07942E-18
 -1      1391 9.76192E-05-2.92532E-05-2.92979E-05 5.13865E-07 3.57563E-19-4.63149E-18
 -1      1392 9.69242E-05-2.90270E-05-2.91057E-05 8.78002E-07 6.82482E-19-4.22789E-18
 -1      1393 9.80724E-05-2.93824E-05-2.94389E-05 6.29965E-07-1.28194E-19-4.44714E-18
 -1      1394 9.86732E-05-2.95623E-05-2.96174E-05 6.59997E-07-3.74574E-19-5.01643E-18
 -1      1395 9.77172E-05-2.92512E-05-2.93512E-05 1.12849E-06 1.44684E-19-3.92903E-18
 -1      1396 9.92414E-05-2.97250E-05-2.97938E-05 7.99168E-07-9.89970E-20-4.69040E-18
 -1      1397 1.00005E-04-2.99555E-05-3.00199E-05 8.34874E-07 4.47306E-20-5.05227E-18
 -1      1398 9.87159E-05-2.95374E-05-2.96583E-05 1.43554E-06-1.55861E-19-3.12504E-18
 -1      1399 1.00704E-04-3.01573E-05-3.02367E-05 9.92199E-07 4.01317E-19-4.72920E-18
 -1      1400 1.01652E-04-3.04464E-05-3.05165E-05 1.03213E-06 3.18886E-19-4.02852E-18
 -1      1401 9.99566E-05-2.98985E-05-3.00368E-05 1.79247E-06 4.47197E-19-2.61008E-18
 -1      1402 1.02492E-04-3.06909E-05-3.07756E-05 1.19557E-06 1.02564E-19-3.99128E-18
 -1      1403 1.03631E-04-3.10427E-05-3.11105E-05 1.23622E-06 1.65027E-19-3.69036E-18
 -1      1404 1.01465E-04-3.03466E-05-3.04921E-05 2.17941E-06 3.29883E-19-2.47665E-18
 -1      1405 1.04604E-04-3.13303E-05-3.14086E-05 1.38224E-06 4.73106E-20-3.56134E-18
 -1      1406 1.05915E-04-3.17411E-05-3.17915E-05 1.41672E-06-2.22629E-19-3.60038E-18
 -1      1407 1.03247E-04-3.08898E-05-3.10222E-05 2.55453E-06 1.66840E-19-2.47525E-18
 -1      1408 1.06989E-04-3.20658E-05-3.21163E-05 1.50488E-06-3.28423E-19-3.66884E-18
 -1      1409 1.08400E-04-3.25176E-05-3.25251E-05 1.52128E-06-1.03902E-19-4.39592E-18
 -1      1410 1.05267E-04-3.15284E-05-3.16115E-05 2.84246E-06-4.79836E-19-2.29511E-18
 -1      1411 1.09503E-04-3.28632E-05-3.28512E-05 1.48954E-06 1.03468E-19-4.44085E-18
 -1      1412 1.10868E-04-3.33143E-05-3.32414E-05 1.46945E-06-2.09670E-19-4.69586E-18
 -1      1413 1.07432E-04-3.22474E-05-3.22242E-05 2.92199E-06-2.24714E-19-2.71203E-18
 -1      1414 1.11874E-04-3.36490E-05-3.35260E-05 1.23494E-06 6.48013E-20-4.33226E-18
 -1      1415 1.12947E-04-3.40237E-05-3.38244E-05 1.15391E-06 4.06361E-19-3.60479E-18
 -1      1416 1.09556E-04-3.30048E-05-3.27969E-05 2.62065E-06 4.01679E-20-2.76870E-18
 -1      1417 1.13665E-04-3.42944E-05-3.40068E-05 6.28921E-07 9.28229E-20-3.53921E-18
 -1      1418 1.14093E-04-3.44768E-05-3.41129E-05 4.62212E-07-2.58299E-19-3.80536E-18
 -1      1419 1.11338E-04-3.37140E-05-3.32364E-05 1.73261E-06 4.48438E-19-2.61531E-18
 -1      1420 1.14284E-04-3.46049E-05-3.41224E-05-4.01110E-07-5.72105E-19-3.41321E-18
 -1      1421 1.13660E-04-3.44486E-05-3.39268E-05-6.62386E-07-3.98582E-19-4.11780E-18
 -1      1422 1.12354E-04-3.42240E-05-3.34274E-05 8.76639E-08-6.53777E-19-1.65682E-18
 -1      1423 1.13080E-04-3.43366E-05-3.37048E-05-1.79138E-06-3.42949E-19-4.58512E-18
 -1      1424 1.11098E-04-3.37105E-05-3.31349E-05-2.11206E-06-4.60210E-19-4.98243E-18
 -1      1425 1.12109E-04-3.43108E-05-3.32605E-05-2.30154E-06-1.02723E-18-1.47750E-18
 -1      1426 1.09620E-04-3.32764E-05-3.26707E-05-3.22740E-06-1.25381E-19-5.29456E-18
 -1      1427 1.06317E-04-3.21570E-05-3.17558E-05-3.50369E-06-4.94323E-21-5.12233E-18
 -1      1428 1.10192E-04-3.37230E-05-3.26836E-05-5.03282E-06-3.47376E-19-2.70900E-18
 -1      1429 1.04091E-04-3.14058E-05-3.11225E-05-4.11882E-06 3.07362E-19-4.82237E-18
 -1      1430 1.00091E-04-2.99854E-05-3.00455E-05-4.19156E-06 4.34079E-19-4.42172E-18
 -1      1431 1.06569E-04-3.23254E-05-3.17599E-05-7.19036E-06 2.29592E-19-1.93898E-18
 -1      1432 9.76723E-05-2.90973E-05-2.94060E-05-3.81516E-06-5.18126E-19-4.95112E-18
 -1      1433 9.41646E-05-2.78129E-05-2.84811E-05-3.56317E-06-2.93159E-19-5.69248E-18
 -1      1434 1.01910E-04-3.03258E-05-3.06951E-05-7.55747E-06-2.18859E-19-2.95440E-18
 -1      1435 9.24122E-05-2.71396E-05-2.80384E-05-2.08838E-06-3.29549E-19-5.78386E-18
 -1      1436 9.06908E-05-2.65038E-05-2.75873E-05-1.55869E-06-5.27596E-19-6.04198E-18
 -1      1437 9.76618E-05-2.83964E-05-2.97941E-05-5.34126E-06-1.13232E-18-4.11756E-18
 -1      1438 9.03337E-05-2.63755E-05-2.74921E-05 4.89139E-07-5.92817E-19-7.62595E-18
 -1      1439 9.10667E-05-2.66639E-05-2.76755E-05 1.05946E-06-5.89376E-19-8.19631E-18
 -1      1440 9.55030E-05-2.74115E-05-2.93425E-05-1.02240E-06-1.20584E-18-5.23043E-18
 -1      1441 9.22106E-05-2.71315E-05-2.79476E-05 2.76840E-06-4.96924E-19-7.98223E-18
 -1      1442 9.50028E-05-2.81819E-05-2.86700E-05 3.11029E-06-1.60698E-19-8.85382E-18
 -1      1443 9.63287E-05-2.78585E-05-2.94748E-05 3.59441E-06-7.86602E-19-7.38038E-18
 -1      1444 9.70458E-05-2.89698E-05-2.91869E-05 3.79319E-06-4.01389E-19-8.78061E-18
 -1      1445 1.00693E-04-3.02989E-05-3.01519E-05 3.79889E-06-7.05309E-19-9.59657E-18
 -1      1446 9.96077E-05-2.94508E-05-3.01094E-05 6.48966E-06-6.28902E-19-6.78786E-18
 -1      1447 1.02748E-04-3.10309E-05-3.07127E-05 3.39053E-06 7.88601E-20-9.56316E-18
 -1      1448 1.05948E-04-3.21485E-05-3.15830E-05 3.14510E-06 5.52974E-19-9.05677E-18
 -1      1449 1.03759E-04-3.13551E-05-3.09864E-05 6.75324E-06-5.12875E-19-6.28420E-18
 -1      1450 1.07339E-04-3.25849E-05-3.20037E-05 2.07151E-06 5.91930E-19-9.34479E-18
 -1      1451 1.09277E-04-3.32197E-05-3.25492E-05 1.73703E-06 4.77376E-19-7.56054E-18
 -1      1452 1.07167E-04-3.27875E-05-3.17885E-05 4.88757E-06 7.62369E-19-6.70130E-18
 -1      1453 1.09741E-04-3.33110E-05-3.27284E-05 5.24812E-07-3.96517E-20-7.23852E-18
 -1      1454 1.10223E-04-3.34331E-05-3.28779E-05 2.27603E-07-1.73576E-19-7.75175E-18
 -1      1455 1.08910E-04-3.34012E-05-3.22710E-05 2.09282E-06 9.39717E-19-6.24482E-18
 -1      1456 1.09833E-04-3.32467E-05-3.28070E-05-7.66475E-07 1.43678E-19-6.28733E-18
 -1      1457 1.09106E-04-3.29695E-05-3.26142E-05-9.70459E-07 1.29391E-18-6.08773E-18
 -1      1458 1.08852E-04-3.32545E-05-3.23313E-05-5.62643E-07 1.08528E-18-4.46330E-18
 -1      1459 1.08101E-04-3.26071E-05-3.23483E-05-1.60512E-06 1.95964E-18-5.64885E-18
 -1      1460 1.06594E-04-3.20867E-05-3.19278E-05-1.71055E-06 1.39450E-18-3.88346E-18
 -1      1461 1.07353E-04-3.25884E-05-3.20023E-05-2.50040E-06 2.31839E-18-2.73751E-18
 -1      1462 1.05257E-04-3.16412E-05-3.15488E-05-1.98243E-06 1.01800E-18-3.02712E-18
 -1      1463 1.03409E-04-3.10216E-05-3.10265E-05-2.00379E-06 1.43136E-18-1.29597E-18
 -1      1464 1.04949E-04-3.16503E-05-3.14001E-05-3.56702E-06 2.35712E-18-4.82392E-19
 -1      1465 1.02000E-04-3.05660E-05-3.06186E-05-1.95786E-06 1.36436E-18-9.36818E-19
 -1      1466 1.00200E-04-2.99664E-05-3.01099E-05-1.90846E-06 8.47332E-19 5.58843E-19
 -1      1467 1.02177E-04-3.06285E-05-3.06712E-05-3.82427E-06 2.08697E-18-1.99013E-19
 -1      1468 9.89370E-05-2.95556E-05-2.97467E-05-1.58603E-06 7.73511E-19 3.20456E-19
 -1      1469 9.75300E-05-2.90828E-05-2.93486E-05-1.46755E-06 1.65089E-19 1.13516E-18
 -1      1470 9.94938E-05-2.96525E-05-2.99566E-05-3.37810E-06 1.35269E-18-1.11659E-18
 -1      1471 9.65573E-05-2.87446E-05-2.90786E-05-8.95776E-07-2.02163E-20 1.09674E-18
 -1      1472 9.58322E-05-2.85363E-05-2.88432E-05-7.24477E-07-4.80607E-19 1.27852E-18
 -1      1473 9.72477E-05-2.88086E-05-2.93648E-05-2.32812E-06 5.43214E-19-1.29455E-18
 -1      1474 9.52183E-05-2.84911E-05-2.85920E-05 2.25220E-08-1.67052E-18 1.57430E-18
 -1      1475 9.55804E-05-2.83003E-05-2.88509E-05-6.99034E-07-9.76447E-19-5.95692E-19
 -1      1476 9.65674E-05-2.83607E-05-2.97695E-05 2.99772E-06 1.56029E-18 1.40407E-17
 -1      1477 1.02529E-04-2.93962E-05-3.21535E-05 4.46492E-06 1.38199E-18 1.64869E-17
 -1      1478 1.02318E-04-2.67155E-05-3.27035E-05 1.27869E-05 2.73248E-18 1.08789E-17
 -1      1479 9.20172E-05-2.74252E-05-2.77577E-05 1.15397E-06 1.13181E-18 1.09580E-17
 -1      1480 9.39660E-05-2.75810E-05-2.86725E-05 1.47589E-06 1.12518E-18 1.27990E-17
 -1      1481 9.64764E-05-2.80271E-05-2.95306E-05 4.87139E-06 2.36484E-18 8.47508E-18
 -1      1482 9.01803E-05-2.69992E-05-2.70576E-05 3.33930E-07 7.87767E-19 8.56536E-18
 -1      1483 9.07976E-05-2.70175E-05-2.73309E-05 4.96724E-07 8.20338E-19 9.96825E-18
 -1      1484 9.30284E-05-2.75747E-05-2.80946E-05 1.85571E-06 1.82398E-18 6.51825E-18
 -1      1485 8.96583E-05-2.68796E-05-2.68804E-05-5.26603E-08 6.80025E-19 6.89161E-18
 -1      1486 8.96983E-05-2.68181E-05-2.69094E-05 3.63499E-08 6.17027E-19 7.91634E-18
 -1      1487 9.14714E-05-2.73025E-05-2.75097E-05 5.22160E-07 1.36805E-18 4.91726E-18
 -1      1488 8.97848E-05-2.69305E-05-2.69206E-05-2.39597E-07 4.16590E-19 5.78189E-18
 -1      1489 8.95593E-05-2.68239E-05-2.68565E-05-1.89499E-07 4.01374E-19 6.47218E-18
 -1      1490 9.09356E-05-2.72203E-05-2.73122E-05-1.27159E-07 9.30552E-19 4.03182E-18
 -1      1491 9.02313E-05-2.70710E-05-2.70571E-05-3.22453E-07 1.88280E-19 4.97466E-18
 -1      1492 8.98879E-05-2.69449E-05-2.69566E-05-2.94935E-07 2.32827E-19 5.39873E-18
 -1      1493 9.09486E-05-2.72620E-05-2.73000E-05-4.45348E-07 5.58201E-19 3.25400E-18
 -1      1494 9.08191E-05-2.72512E-05-2.72345E-05-3.46869E-07 3.05356E-19 4.53609E-18
 -1      1495 9.04354E-05-2.71221E-05-2.71221E-05-3.33296E-07 1.80140E-19 4.83383E-18
 -1      1496 9.12482E-05-2.73724E-05-2.73802E-05-5.85247E-07 3.64980E-19 2.92014E-18
 -1      1497 9.14463E-05-2.74415E-05-2.74234E-05-3.38006E-07 3.07520E-19 3.75703E-18
 -1      1498 9.10654E-05-2.73191E-05-2.73116E-05-3.33143E-07 3.34832E-19 4.20944E-18
 -1      1499 9.16843E-05-2.75147E-05-2.75048E-05-6.23998E-07 6.22157E-19 2.46994E-18
 -1      1500 9.20552E-05-2.76249E-05-2.76070E-05-3.11199E-07 3.96820E-19 2.78073E-18
 -1      1501 9.17006E-05-2.75143E-05-2.75025E-05-3.11627E-07 3.39871E-19 3.40796E-18
 -1      1502 9.21687E-05-2.76659E-05-2.76464E-05-6.05378E-07 7.62735E-19 1.71912E-18
 -1      1503 9.26154E-05-2.77928E-05-2.77762E-05-2.76354E-07 2.25525E-19 2.37367E-18
 -1      1504 9.22984E-05-2.76960E-05-2.76825E-05-2.79745E-07 2.42508E-19 2.72590E-18
 -1      1505 9.26504E-05-2.78127E-05-2.77890E-05-5.56427E-07 5.38589E-19 1.09164E-18
 -1      1506 9.31143E-05-2.79416E-05-2.79271E-05-2.40097E-07-2.73291E-20 1.86661E-18
 -1      1507 9.28382E-05-2.78587E-05-2.78452E-05-2.44811E-07 1.53894E-19 2.23824E-18
 -1      1508 9.31021E-05-2.79481E-05-2.79240E-05-4.94756E-07 3.24613E-19 1.39864E-18
 -1      1509 9.35515E-05-2.80715E-05-2.80597E-05-2.06985E-07 3.17685E-19 1.68172E-18
 -1      1510 9.33141E-05-2.80010E-05-2.79890E-05-2.11831E-07 9.68258E-20 1.71259E-18
 -1      1511 9.35125E-05-2.80694E-05-2.80475E-05-4.32249E-07 2.67422E-19 9.55825E-19
 -1      1512 9.39352E-05-2.81849E-05-2.81763E-05-1.80292E-07 1.41326E-19 1.39337E-18
 -1      1513 9.37303E-05-2.81246E-05-2.81150E-05-1.84356E-07 1.61191E-19 1.51761E-18
 -1      1514 9.38809E-05-2.81770E-05-2.81591E-05-3.77205E-07 2.89218E-19 6.51358E-19
 -1      1515 9.42797E-05-2.82863E-05-2.82812E-05-1.62544E-07 2.01510E-19 6.33148E-19
 -1      1516 9.40984E-05-2.82330E-05-2.82267E-05-1.65073E-07 2.04624E-19 1.07542E-18
 -1      1517 9.42146E-05-2.82734E-05-2.82609E-05-3.35726E-07 3.28048E-19 2.88422E-19
 -1      1518 9.46046E-05-2.83815E-05-2.83803E-05-1.55928E-07-6.41428E-20 5.51429E-19
 -1      1519 9.44355E-05-2.83314E-05-2.83292E-05-1.56229E-07 2.18935E-19 7.20055E-19
 -1      1520 9.45269E-05-2.83626E-05-2.83568E-05-3.12695E-07 4.48196E-19-7.79654E-20
 -1      1521 9.49339E-05-2.84777E-05-2.84808E-05-1.62583E-07 4.77360E-20 1.47389E-19
 -1      1522 9.47633E-05-2.84265E-05-2.84291E-05-1.59950E-07 9.98691E-20 1.95016E-19
 -1      1523 9.48359E-05-2.84502E-05-2.84521E-05-3.12485E-07 3.31721E-19-4.44650E-19
 -1      1524 9.52964E-05-2.85834E-05-2.85915E-05-1.84826E-07 3.05838E-19-3.19961E-19
 -1      1525 9.51082E-05-2.85259E-05-2.85344E-05-1.78473E-07 2.59076E-19 2.69214E-21
 -1      1526 9.51644E-05-2.85428E-05-2.85539E-05-3.39487E-07 2.87748E-19-9.36916E-19
 -1      1527 9.57260E-05-2.87089E-05-2.87225E-05-2.25285E-07 2.19851E-19-8.48338E-19
 -1      1528 9.55014E-05-2.86390E-05-2.86543E-05-2.14300E-07 3.66343E-19-3.73069E-19
 -1      1529 9.55394E-05-2.86484E-05-2.86702E-05-3.98464E-07 7.10114E-19-1.02616E-18
 -1      1530 9.62621E-05-2.88657E-05-2.88858E-05-2.86936E-07-4.85224E-20-8.69266E-19
 -1      1531 9.59792E-05-2.87765E-05-2.88000E-05-2.70254E-07 6.73007E-20-6.78202E-19
 -1      1532 9.59926E-05-2.87764E-05-2.88108E-05-4.94732E-07 2.02757E-19-9.24352E-19
 -1      1533 9.69501E-05-2.90675E-05-2.90951E-05-3.72987E-07-4.63785E-19-5.53157E-19
 -1      1534 9.65834E-05-2.89509E-05-2.89841E-05-3.49394E-07-2.77141E-19-7.91324E-19
 -1      1535 9.65607E-05-2.89377E-05-2.89867E-05-6.34091E-07-3.44059E-19-4.55338E-19
 -1      1536 9.78414E-05-2.93299E-05-2.93656E-05-4.86514E-07-3.59790E-20-5.69067E-20
 -1      1537 9.73620E-05-2.91765E-05-2.92210E-05-4.54717E-07-1.29852E-19-2.36566E-19
 -1      1538 9.72849E-05-2.91447E-05-2.92103E-05-8.22391E-07-4.11618E-19-4.51334E-19
 -1      1539 9.89919E-05-2.96697E-05-2.97141E-05-6.29688E-07 1.93875E-19-1.04215E-18
 -1      1540 9.83679E-05-2.94694E-05-2.95265E-05-5.88494E-07 2.28184E-19-5.01664E-19
 -1      1541 9.82107E-05-2.94112E-05-2.94951E-05-1.06448E-06 3.70805E-19-5.19084E-19
 -1      1542 1.00458E-04-3.01047E-05-3.01574E-05-8.02310E-07 2.94327E-19-1.97977E-18
 -1      1543 9.96572E-05-2.98470E-05-2.99173E-05-7.51007E-07 2.19952E-19-1.43023E-18
 -1      1544 9.93847E-05-2.97520E-05-2.98548E-05-1.36219E-06 7.34543E-19-1.72736E-18
 -1      1545 1.02291E-04-3.06512E-05-3.07096E-05-9.99230E-07-1.65978E-19-1.30489E-18
 -1      1546 1.01283E-04-3.03267E-05-3.04089E-05-9.38317E-07-2.31569E-19-1.92414E-18
 -1      1547 1.00851E-04-3.01819E-05-3.03017E-05-1.71064E-06-9.28097E-21-2.08639E-18
 -1      1548 1.04518E-04-3.13199E-05-3.13779E-05-1.20610E-06 1.20938E-19-1.13603E-18
 -1      1549 1.03287E-04-3.09234E-05-3.10124E-05-1.13857E-06 2.19649E-19-7.51199E-19
 -1      1550 1.02641E-04-3.07138E-05-3.08432E-05-2.09217E-06-4.26379E-20-1.38908E-18
 -1      1551 1.07122E-04-3.21095E-05-3.21545E-05-1.39295E-06-1.37892E-19-8.92614E-19
 -1      1552 1.05678E-04-3.16446E-05-3.17288E-05-1.32637E-06-6.56550E-20-7.55838E-19
 -1      1553 1.04760E-04-3.13549E-05-3.14775E-05-2.46673E-06 1.48067E-19-5.05950E-19
 -1      1554 1.10001E-04-3.29951E-05-3.30046E-05-1.50572E-06-4.79548E-19-4.03916E-19
 -1      1555 1.08405E-04-3.24823E-05-3.25389E-05-1.45517E-06-2.86664E-19-9.13803E-19
 -1      1556 1.07162E-04-3.21009E-05-3.21852E-05-2.75869E-06-1.59554E-19-4.27199E-19
 -1      1557 1.12916E-04-3.39117E-05-3.38506E-05-1.45816E-06-1.09827E-19 4.13842E-19
 -1      1558 1.11312E-04-3.34000E-05-3.33907E-05-1.44952E-06-4.27645E-19 2.14524E-19
 -1      1559 1.09720E-04-3.29261E-05-3.29197E-05-2.84187E-06-8.54439E-19 5.79622E-19
 -1      1560 1.15433E-04-3.47342E-05-3.45573E-05-1.13174E-06 1.41878E-20 3.51201E-19
 -1      1561 1.14083E-04-3.43136E-05-3.41835E-05-1.20299E-06 4.98307E-19 6.44354E-19
 -1      1562 1.12183E-04-3.37693E-05-3.35962E-05-2.53148E-06 1.90076E-19 9.16562E-19
 -1      1563 1.16891E-04-3.52601E-05-3.49286E-05-4.00108E-07 9.99234E-22-1.02400E-19
 -1      1564 1.16198E-04-3.50692E-05-3.47577E-05-5.95266E-07-2.97573E-19-7.79601E-19
 -1      1565 1.14140E-04-3.45140E-05-3.40873E-05-1.60351E-06 3.82528E-19-1.53419E-19
 -1      1566 1.16471E-04-3.52165E-05-3.47382E-05 7.97712E-07 1.46702E-19-8.40852E-19
 -1      1567 1.16929E-04-3.54285E-05-3.49043E-05 4.50671E-07 7.65903E-20-5.28893E-19
 -1      1568 1.15028E-04-3.49696E-05-3.42357E-05 1.22652E-07 1.89180E-19-1.28530E-18
 -1      1569 1.13453E-04-3.43292E-05-3.38153E-05 2.32443E-06-2.83293E-19-7.38824E-19
 -1      1570 1.15481E-04-3.50913E-05-3.44167E-05 1.85650E-06-2.58411E-19-5.73256E-19
 -1      1571 1.14220E-04-3.48739E-05-3.38987E-05 2.60434E-06-7.15743E-20-1.04204E-18
 -1      1572 1.07712E-04-3.24905E-05-3.21813E-05 3.71403E-06 2.60066E-19 3.98635E-19
 -1      1573 1.11340E-04-3.38062E-05-3.31961E-05 3.25857E-06-1.92720E-19 7.75565E-20
 -1      1574 1.11290E-04-3.39669E-05-3.30290E-05 5.32939E-06-5.51227E-19-1.14320E-18
 -1      1575 1.00289E-04-2.99942E-05-3.01677E-05 4.21527E-06-6.68115E-19 1.88232E-18
 -1      1576 1.04823E-04-3.15921E-05-3.13836E-05 3.99897E-06-1.75788E-19 1.57389E-18
 -1      1577 1.06431E-04-3.21754E-05-3.17595E-05 7.21045E-06-6.02914E-19 6.81544E-19
 -1      1578 9.35156E-05-2.76478E-05-2.83932E-05 3.20313E-06 4.50092E-19 1.28590E-19
 -1      1579 9.75055E-05-2.89738E-05-2.94285E-05 3.41625E-06 2.36382E-19 6.78209E-19
 -1      1580 1.00829E-04-2.98812E-05-3.04314E-05 6.94261E-06 8.42421E-19 6.24819E-19
 -1      1581 9.01259E-05-2.64754E-05-2.75057E-05 7.99913E-07 7.08675E-19-2.26748E-18
 -1      1582 9.19577E-05-2.69404E-05-2.79747E-05 1.41756E-06 1.01559E-18-4.90167E-19
 -1      1583 9.65103E-05-2.79743E-05-2.94816E-05 3.96347E-06 1.57833E-18-1.09775E-18
 -1      1584 9.16006E-05-2.70436E-05-2.78419E-05-1.92434E-06-5.41631E-19-1.19405E-18
 -1      1585 9.04862E-05-2.64292E-05-2.75640E-05-1.19406E-06-7.78754E-19-2.13633E-18
 -1      1586 9.53506E-05-2.74297E-05-2.92436E-05-7.21417E-07-3.57739E-19-8.33983E-19
 -1      1587 9.70751E-05-2.90006E-05-2.92148E-05-3.64871E-06 9.31753E-19-2.22177E-18
 -1      1588 9.36244E-05-2.76382E-05-2.83333E-05-3.15656E-06 6.40483E-19-9.74141E-19
 -1      1589 9.77865E-05-2.85385E-05-2.97736E-05-4.90232E-06 3.76400E-19-1.63011E-18
 -1      1590 1.03964E-04-3.13624E-05-3.10291E-05-3.77043E-06-3.83392E-19-1.80180E-18
 -1      1591 9.97518E-05-2.98827E-05-2.99209E-05-3.67393E-06-1.14502E-19-2.18063E-18
 -1      1592 1.02476E-04-3.06316E-05-3.08233E-05-6.73631E-06 4.06549E-19-5.77571E-19
 -1      1593 1.09640E-04-3.32080E-05-3.26138E-05-2.63922E-06-1.56766E-18 9.06749E-19
 -1      1594 1.06212E-04-3.21318E-05-3.16769E-05-2.85644E-06-8.01922E-19-1.16959E-18
 -1      1595 1.07275E-04-3.26417E-05-3.19695E-05-5.92011E-06-1.45913E-18 1.63716E-18
 -1      1596 1.12644E-04-3.41018E-05-3.35288E-05-1.03428E-06 1.17726E-18 1.45970E-18
 -1      1597 1.10832E-04-3.36363E-05-3.30052E-05-1.38089E-06-6.86692E-20 1.19538E-18
 -1      1598 1.10509E-04-3.38469E-05-3.28165E-05-3.45574E-06-2.66511E-19 1.21738E-18
 -1      1599 1.12820E-04-3.40681E-05-3.36627E-05 4.07523E-07 3.38310E-19-1.49697E-18
 -1      1600 1.12682E-04-3.41564E-05-3.35967E-05 8.04976E-08 1.03106E-18 2.22558E-19
 -1      1601 1.11532E-04-3.40972E-05-3.31453E-05-6.44378E-07 1.71058E-18 8.21662E-19
 -1      1602 1.10802E-04-3.33615E-05-3.31469E-05 1.39535E-06 8.12450E-19-2.70684E-18
 -1      1603 1.11939E-04-3.38282E-05-3.34478E-05 1.15746E-06 5.83123E-19-2.01266E-18
 -1      1604 1.10543E-04-3.36045E-05-3.29399E-05 1.63958E-06 1.05831E-18 6.47352E-20
 -1      1605 1.07470E-04-3.22767E-05-3.22190E-05 1.89854E-06 1.51467E-19-3.76255E-18
 -1      1606 1.09354E-04-3.29374E-05-3.27438E-05 1.76146E-06 3.65399E-19-2.58297E-18
 -1      1607 1.08146E-04-3.26725E-05-3.23227E-05 3.07295E-06 7.67915E-19-7.40188E-19
 -1      1608 1.03649E-04-3.10638E-05-3.11254E-05 1.99213E-06-1.55257E-19-3.20406E-18
 -1      1609 1.05794E-04-3.17686E-05-3.17327E-05 1.94545E-06-1.41164E-19-2.88534E-18
 -1      1610 1.05019E-04-3.15562E-05-3.14725E-05 3.67720E-06-1.46555E-19-2.82062E-19
 -1      1611 1.00027E-04-2.99204E-05-3.00825E-05 1.75053E-06 7.47440E-19-3.78200E-18
 -1      1612 1.02030E-04-3.05505E-05-3.06502E-05 1.78614E-06 2.93859E-19-3.68176E-18
 -1      1613 1.01758E-04-3.04348E-05-3.05697E-05 3.58344E-06 5.09532E-19-1.54223E-18
 -1      1614 9.71858E-05-2.90160E-05-2.92633E-05 1.20448E-06-2.98612E-19-4.32905E-18
 -1      1615 9.86935E-05-2.94611E-05-2.96935E-05 1.33148E-06 6.39586E-19-3.14604E-18
 -1      1616 9.88444E-05-2.94300E-05-2.97680E-05 2.89855E-06 7.96082E-19-1.25641E-18
 -1      1617 9.55955E-05-2.85200E-05-2.87511E-05 4.35738E-07-2.63610E-19-2.59302E-18
 -1      1618 9.62969E-05-2.86762E-05-2.89987E-05 6.28702E-07-5.81290E-19-3.87583E-18
 -1      1619 9.66375E-05-2.86506E-05-2.91652E-05 1.69631E-06-2.62898E-19-4.83687E-19
 -1      1620 9.52460E-05-2.84795E-05-2.86033E-05 1.88033E-08-1.26805E-18-1.36109E-18
 -1      1621 9.50018E-05-2.70545E-05-2.91440E-05 1.02252E-06 5.22298E-19 1.12707E-18
 -1      1622 9.52569E-05-2.78580E-05-2.88814E-05 8.12951E-07-1.66282E-18 1.46827E-18
 -1      1623 9.41502E-05-2.44865E-05-2.98682E-05 1.74300E-06 1.92234E-18 1.35414E-18
 -1      1624 9.46622E-05-2.60186E-05-2.94351E-05 1.61999E-06 1.00114E-18 6.10661E-19
 -1      1625 9.49711E-05-2.63374E-05-2.94471E-05 2.56775E-06 1.40682E-18 1.67855E-18
 -1      1626 9.30641E-05-2.11711E-05-3.08145E-05 2.15704E-06 1.42557E-18-5.88484E-19
 -1      1627 9.37114E-05-2.31307E-05-3.02596E-05 2.10109E-06 1.74971E-18 3.39134E-19
 -1      1628 9.40673E-05-2.39347E-05-3.00826E-05 3.71189E-06 1.43783E-18 9.92289E-19
 -1      1629 9.18987E-05-1.75796E-05-3.18494E-05 2.24075E-06 1.10076E-18-1.37193E-18
 -1      1630 9.25785E-05-1.96506E-05-3.12596E-05 2.25048E-06 1.24371E-18-1.16505E-19
 -1      1631 9.30431E-05-2.10646E-05-3.08554E-05 4.25103E-06 5.09874E-19-9.91429E-19
 -1      1632 9.08260E-05-1.42753E-05-3.28034E-05 2.00142E-06-3.79720E-18-1.64587E-18
 -1      1633 9.14326E-05-1.61228E-05-3.22765E-05 2.07289E-06-1.33983E-18-2.49839E-18
 -1      1634 9.19955E-05-1.80944E-05-3.16589E-05 4.15854E-06-6.59117E-19-4.34797E-18
 -1      1635 8.99661E-05-1.16356E-05-3.35643E-05 1.45688E-06-4.36912E-18 3.24242E-19
 -1      1636 9.04286E-05-1.30387E-05-3.31645E-05 1.58637E-06-4.14051E-18 1.43797E-19
 -1      1637 9.10493E-05-1.54084E-05-3.23853E-05 3.45869E-06-1.47026E-18-1.80403E-18
 -1      1638 8.94772E-05-1.01338E-05-3.39975E-05 6.83033E-07-3.09022E-18-1.27320E-20
 -1      1639 8.97102E-05-1.08410E-05-3.37959E-05 8.50369E-07-3.71237E-18 5.26765E-19
 -1      1640 9.03322E-05-1.33828E-05-3.29304E-05 2.22425E-06-1.96854E-18 8.01313E-19
 -1      1641 8.94382E-05-1.00039E-05-3.40371E-05-1.96578E-07 1.20239E-18 1.04955E-18
 -1      1642 8.94046E-05-9.90583E-06-3.40645E-05-1.94972E-08-1.76843E-18 1.77652E-18
 -1      1643 8.99714E-05-1.23624E-05-3.32051E-05 6.39858E-07-9.69274E-20 1.97097E-18
 -1      1644 8.98518E-05-1.12546E-05-3.36805E-05-1.03350E-06 1.93214E-18 1.28864E-18
 -1      1645 8.95603E-05-1.03760E-05-3.39301E-05-8.77420E-07 6.33184E-19 5.60984E-19
 -1      1646 9.00280E-05-1.25089E-05-3.31684E-05-1.03525E-06 8.55551E-19 1.71528E-18
 -1      1647 9.06415E-05-1.36669E-05-3.29882E-05-1.69300E-06-1.91296E-18-3.00190E-18
 -1      1648 9.01456E-05-1.21591E-05-3.34180E-05-1.58251E-06 2.27180E-18-3.01559E-18
 -1      1649 9.04863E-05-1.37865E-05-3.28284E-05-2.52244E-06-7.18148E-19-1.31306E-18
 -1      1650 9.16584E-05-1.67959E-05-3.20859E-05-2.08229E-06-2.02226E-18 1.61574E-18
 -1      1651 9.10471E-05-1.49296E-05-3.26189E-05-2.03038E-06-1.69719E-18-7.56551E-19
 -1      1652 9.12570E-05-1.59542E-05-3.22463E-05-3.58923E-06 1.49448E-19-2.85674E-18
 -1      1653 9.27863E-05-2.02840E-05-3.10778E-05-2.17899E-06 1.53522E-18 2.11594E-18
 -1      1654 9.21281E-05-1.82706E-05-3.16526E-05-2.18498E-06-1.62796E-18 3.32015E-18
 -1      1655 9.22108E-05-1.86795E-05-3.15062E-05-4.11756E-06 7.35463E-19 3.84644E-18
 -1      1656 9.38551E-05-2.35922E-05-3.01228E-05-1.98005E-06 2.06066E-18-1.51773E-19
 -1      1657 9.32488E-05-2.17450E-05-3.06477E-05-2.03923E-06 1.23934E-18 2.28632E-18
 -1      1658 9.32298E-05-2.16028E-05-3.07085E-05-4.07204E-06 1.06743E-18 2.45628E-18
 -1      1659 9.47249E-05-2.62351E-05-2.93547E-05-1.49542E-06-6.34944E-20-1.17642E-18
 -1      1660 9.42497E-05-2.48486E-05-2.97546E-05-1.60774E-06 2.41854E-18-1.99216E-18
 -1      1661 9.41909E-05-2.43249E-05-2.99680E-05-3.46056E-06 1.17432E-18-8.48032E-19
 -1      1662 9.53182E-05-2.77373E-05-2.89454E-05-1.09132E-06-1.14017E-18-1.53838E-18
 -1      1663 9.50834E-05-2.70037E-05-2.91856E-05-1.37245E-06 4.49999E-19-1.91525E-18
 -1      1664 9.50798E-05-2.63678E-05-2.94764E-05-2.77203E-06 5.23643E-19-1.91575E-18
 -1      1665 9.59630E-05-2.78041E-05-2.92174E-05-2.12317E-06 5.10429E-19-2.74903E-18
 -1      1666 2.09916E-05-6.84360E-05 1.43152E-05-6.28367E-06 1.23328E-18 8.86843E-19
 -1      1667 2.45280E-05-7.87947E-05 1.65010E-05 1.82750E-06 7.79059E-19 5.49724E-19
 -1      1668 2.03233E-05-4.04242E-05 4.29250E-06 2.62805E-06 3.51010E-18 3.61175E-18
 -1      1669 2.49292E-05-6.35130E-05 1.03287E-05-1.20110E-06 2.14130E-18 1.20715E-18
 -1      1670 3.58753E-05-1.28637E-05-1.17872E-05 2.84674E-05 6.05290E-18 6.75001E-18
 -1      1671 2.99614E-05-3.41027E-05-2.90066E-06 1.03004E-05 3.58295E-18 4.91321E-18
 -1      1672 7.80219E-05-3.46430E-06-3.10585E-05 5.99459E-05 6.97108E-18 8.33735E-18
 -1      1673 5.30721E-05-9.45345E-06-2.09538E-05 3.68432E-05 6.84487E-18 6.98209E-18
 -1      1674 1.39696E-04-1.54733E-05-4.96589E-05 7.86145E-05 5.86655E-18 5.29141E-18
 -1      1675 9.92990E-05-3.66360E-06-4.04130E-05 6.58172E-05 7.90875E-18 7.16420E-18
 -1      1676 2.08267E-04-4.31374E-05-6.50688E-05 6.61375E-05 3.06054E-18 3.98105E-19
 -1      1677 1.64482E-04-2.23044E-05-5.76340E-05 7.45041E-05 4.53904E-18 4.07084E-18
 -1      1678 2.52185E-04-6.35994E-05-7.40516E-05 2.69295E-05 1.69767E-18-3.15181E-18
 -1      1679 2.27156E-04-4.94313E-05-7.05225E-05 5.61367E-05 2.76217E-18 6.60686E-20
 -1      1680 2.46633E-04-5.97636E-05-7.40347E-05-2.51734E-05 3.50248E-18-8.47118E-18
 -1      1681 2.52826E-04-6.30138E-05-7.49111E-05 9.98471E-06 2.00874E-18-4.63507E-18
 -1      1682 2.05330E-04-3.98918E-05-6.63027E-05-6.32856E-05 6.47896E-18-1.27123E-17
 -1      1683 2.38607E-04-5.75775E-05-7.13499E-05-4.07020E-05 4.72464E-18-9.84549E-18
 -1      1684 1.41756E-04-1.54870E-05-5.18996E-05-7.23107E-05 8.62195E-18-1.42208E-17
 -1      1685 1.85305E-04-3.42139E-05-5.99715E-05-7.15984E-05 6.67928E-18-1.38058E-17
 -1      1686 7.97422E-05-2.55548E-06-3.36495E-05-5.60278E-05 1.19898E-17-1.20473E-17
 -1      1687 1.16498E-04-9.31228E-06-4.34023E-05-7.37854E-05 1.02305E-17-1.30164E-17
 -1      1688 4.09286E-05-1.35182E-05-1.49381E-05-2.68228E-05 9.76460E-18-9.69006E-18
 -1      1689 5.87813E-05-2.35417E-06-2.43779E-05-4.92354E-05 1.12969E-17-1.27487E-17
 -1      1690 2.52559E-05-4.28862E-05 2.11193E-06-2.69106E-06 9.00735E-18-4.91279E-18
 -1      1691 2.63555E-05-1.86258E-05-6.24046E-06-1.73010E-05 1.02305E-17-7.10618E-18
 -1      1692 2.41076E-05-6.88035E-05 1.27520E-05 2.35283E-06 5.89366E-18-2.45618E-18
 -1      1693 1.88141E-05-4.97413E-05 8.20710E-06 3.56814E-06 8.20436E-18-3.48491E-18
 -1      1694 2.25469E-05-7.45064E-05 1.60532E-05-3.64688E-06-1.61847E-18-3.16240E-18
 -1      1695 2.11229E-05-7.02850E-05 1.51010E-05 5.55451E-06 3.36971E-18-2.94640E-18
 -1      1696 1.89914E-05-5.90191E-05 1.17797E-05-5.28202E-06-6.91772E-18-4.23495E-18
 -1      1697 2.38734E-05-7.40542E-05 1.50998E-05 5.27782E-07-3.03577E-18-2.93137E-18
 -1      1698 2.44221E-05-2.85767E-05-1.41951E-06 1.25650E-05-1.13680E-17-8.95166E-18
 -1      1699 2.61258E-05-5.31358E-05 6.21204E-06 3.03056E-06-8.27382E-18-4.85435E-18
 -1      1700 4.62244E-05-4.03044E-06-1.89842E-05 4.03647E-05-1.39447E-17-1.04498E-17
 -1      1701 3.36288E-05-2.07320E-05-9.41087E-06 1.84479E-05-1.33018E-17-9.68286E-18
 -1      1702 1.05042E-04-8.59726E-06-3.93674E-05 6.86820E-05-8.94297E-18-8.23485E-18
 -1      1703 7.03614E-05-6.15427E-06-2.87735E-05 4.76368E-05-1.24802E-17-8.99125E-18
 -1      1704 1.70571E-04-2.71575E-05-5.68611E-05 7.68384E-05-5.26643E-18-5.48539E-18
 -1      1705 1.27672E-04-1.01663E-05-4.85834E-05 7.27468E-05-7.40730E-18-7.91637E-18
 -1      1706 2.33178E-04-5.50539E-05-7.00263E-05 4.97821E-05-2.20276E-18 4.82809E-20
 -1      1707 1.93739E-04-3.41939E-05-6.39380E-05 7.03933E-05-4.01504E-18-4.32156E-18
 -1      1708 2.52640E-04-6.34198E-05-7.46949E-05-8.84891E-07-2.27259E-18 4.60892E-18
 -1      1709 2.41889E-04-5.74480E-05-7.31466E-05 3.24577E-05-2.03478E-18 1.61317E-18
 -1      1710 2.33427E-04-5.25993E-05-7.15775E-05-5.09366E-05-2.57773E-18 7.61059E-18
 -1      1711 2.54781E-04-6.49421E-05-7.45687E-05-1.81719E-05-1.94140E-18 5.75728E-18
 -1      1712 1.71796E-04-2.49734E-05-5.93706E-05-7.37723E-05-2.04982E-18 6.21383E-18
 -1      1713 2.15151E-04-4.62895E-05-6.64771E-05-6.22935E-05-1.56293E-18 7.46067E-18
 -1      1714 1.03438E-04-5.16842E-06-4.14223E-05-6.58719E-05-2.82231E-18 4.01155E-18
 -1      1715 1.47029E-04-1.87853E-05-5.12005E-05-7.78206E-05-2.68552E-18 5.32191E-18
 -1      1716 5.15595E-05-6.81584E-06-2.14641E-05-3.76817E-05-3.32969E-18 2.04135E-18
 -1      1717 7.78208E-05-1.41408E-06-3.17516E-05-6.16140E-05-3.05017E-18 1.98375E-18
 -1      1718 3.00085E-05-3.38047E-05-3.01345E-06-1.05190E-05 2.03966E-18 2.58430E-18
 -1      1719 3.61156E-05-1.20438E-05-1.21411E-05-2.92519E-05-1.96427E-18 3.40761E-18
 -1      1720 2.49866E-05-6.38774E-05 1.04110E-05 1.07319E-06 2.75540E-18-1.05217E-18
 -1      1721 2.01492E-05-4.04088E-05 4.31842E-06-2.74528E-06 1.56532E-18 8.63550E-19
 -1      1722 2.48628E-05-8.01473E-05 1.67489E-05-1.77441E-06 2.34734E-19-1.65891E-18
 -1      1723 2.13143E-05-7.00857E-05 1.46022E-05 7.07712E-06 2.31367E-18-2.60272E-18
 -1      1724 1.15655E-04-3.16776E-05-3.50800E-05 4.61100E-05 4.31648E-18 2.98494E-18
 -1      1725 7.48286E-05-3.67639E-05-1.75269E-05 3.99510E-05 3.53382E-18 6.30828E-18
 -1      1726 9.54294E-05-2.83472E-05-2.87681E-05 4.20716E-07-1.60873E-18 3.99694E-21
 -1      1727 9.56038E-05-2.78421E-05-2.90547E-05 1.39055E-06-6.95182E-19 1.14609E-18
 -1      1728 1.94574E-05-4.95401E-05 8.62705E-06 1.46678E-05 1.19093E-18 1.69025E-18
 -1      1729 4.09716E-05-4.34932E-05-1.98748E-06 2.86917E-05 1.95072E-18 4.41288E-18
 -1      1730 1.26813E-05-5.36208E-05 1.26883E-05 2.66518E-07 3.89370E-19 1.66442E-19
 -1      1731 1.59113E-04-3.12658E-05-5.16729E-05 4.35034E-05 4.77282E-18 8.80067E-19
 -1      1732 1.95062E-04-3.36373E-05-6.43746E-05 2.96411E-05 3.88830E-18-8.21622E-19
 -1      1733 2.11268E-04-3.41084E-05-7.04177E-05 9.28961E-06 3.95607E-18-3.63547E-18
 -1      1734 2.05323E-04-3.30771E-05-6.86768E-05-1.36751E-05 5.09956E-18-5.88561E-18
 -1      1735 1.82807E-04-3.29766E-05-6.01062E-05-3.24931E-05 5.88307E-18-7.01682E-18
 -1      1736 1.44179E-04-3.11013E-05-4.60779E-05-4.42940E-05 6.14311E-18-8.96246E-18
 -1      1737 9.94085E-05-3.10685E-05-2.90988E-05-4.42686E-05 6.77880E-18-8.53470E-18
 -1      1738 5.96424E-05-3.62565E-05-1.19557E-05-3.48404E-05 6.17911E-18-7.71901E-18
 -1      1739 3.07300E-05-4.45055E-05 2.15670E-06-2.17974E-05 4.99919E-18-3.99037E-18
 -1      1740 1.50427E-05-4.91243E-05 1.02083E-05-9.00660E-06 1.86432E-18-4.64005E-18
 -1      1741 1.22032E-05-4.92859E-05 1.15263E-05 4.08209E-06-6.79956E-19-5.28972E-18
 -1      1742 2.49308E-05-4.55470E-05 5.27112E-06 2.07117E-05-3.70280E-18-5.99530E-18
 -1      1743 5.11646E-05-3.96010E-05-7.37826E-06 3.28463E-05-5.67681E-18-7.69053E-18
 -1      1744 9.02868E-05-3.37783E-05-2.45189E-05 4.24388E-05-8.58807E-18-4.50198E-18
 -1      1745 1.34787E-04-3.19248E-05-4.23705E-05 4.40958E-05-6.81099E-18-3.54653E-18
 -1      1746 1.76684E-04-3.23356E-05-5.79871E-05 3.90274E-05-5.10385E-18-7.98752E-19
 -1      1747 2.03502E-04-3.36428E-05-6.77594E-05 1.92934E-05-3.76083E-18 2.26793E-18
 -1      1748 2.11191E-04-3.39154E-05-7.05409E-05-5.74064E-06-3.29750E-18 3.56384E-18
 -1      1749 1.98536E-04-3.40242E-05-6.55635E-05-2.71271E-05-1.24726E-18 4.41092E-18
 -1      1750 1.62709E-04-3.15933E-05-5.29536E-05-4.11781E-05-9.12149E-19 4.14369E-18
 -1      1751 1.17502E-04-3.07901E-05-3.60330E-05-4.66652E-05-1.22650E-18 2.73507E-18
 -1      1752 7.39568E-05-3.52750E-05-1.78252E-05-4.00854E-05 6.70850E-19 1.23540E-18
 -1      1753 4.09241E-05-4.31744E-05-2.03367E-06-2.86810E-05 2.10234E-18 2.58732E-18
 -1      1754 1.96031E-05-5.05556E-05 8.90764E-06-1.41639E-05 1.25064E-18-1.89989E-18
 -1      1755 1.06044E-04-2.31680E-05-3.56015E-05-1.68567E-05-2.46823E-18 8.66769E-18
 -1      1756 8.91507E-05-1.05877E-05-3.37951E-05-1.33356E-05-2.95646E-18-3.75985E-18
 -1      1757 9.04779E-05-1.16306E-05-3.39341E-05-1.51443E-05-3.40671E-18-2.80548E-18
 -1      1758 9.24828E-05-1.38735E-05-3.38518E-05-1.60082E-05-3.44122E-18-1.51264E-18
 -1      1759 9.41988E-05-1.58192E-05-3.40954E-05-1.76689E-05-3.74878E-18 2.30816E-19
 -1      1760 9.34117E-05-1.63461E-05-3.30427E-05-1.37775E-05-3.62281E-18-1.96819E-18
 -1      1761 8.62162E-05-7.67715E-06-3.37305E-05-7.87107E-06-1.47267E-18-5.29443E-18
 -1      1762 8.66173E-05-7.97449E-06-3.37640E-05-9.26098E-06-1.81077E-18-5.10713E-18
 -1      1763 8.56026E-05-7.04033E-06-3.37288E-05-5.32527E-06-7.97506E-19-5.50266E-18
 -1      1764 8.58358E-05-7.21877E-06-3.37433E-05-6.63071E-06-1.09957E-18-5.46664E-18
 -1      1765 8.76009E-05-9.87143E-06-3.33442E-05-6.93561E-06-1.38911E-18-5.16484E-18
 -1      1766 8.52701E-05-6.68240E-06-3.37328E-05-2.89181E-06-8.87176E-20-5.37366E-18
 -1      1767 8.53900E-05-6.77691E-06-3.37384E-05-4.13256E-06-4.08808E-19-5.40701E-18
 -1      1768 8.69681E-05-9.16051E-06-3.33785E-05-4.54215E-06-6.59848E-19-5.28504E-18
 -1      1769 8.51403E-05-6.53462E-06-3.37365E-05-5.18042E-07 5.69709E-19-5.28599E-18
 -1      1770 8.51756E-05-6.56307E-06-3.37379E-05-1.72883E-06 2.40202E-19-5.35642E-18
 -1      1771 8.66383E-05-8.78251E-06-3.33992E-05-2.21972E-06 9.54016E-20-5.16356E-18
 -1      1772 8.51853E-05-6.57201E-06-3.37380E-05 1.84707E-06 1.17125E-18-5.11494E-18
 -1      1773 8.51439E-05-6.53916E-06-3.37364E-05 6.35289E-07 8.70743E-19-5.22879E-18
 -1      1774 8.65409E-05-8.66923E-06-3.34059E-05 6.55200E-08 7.68669E-19-5.08422E-18
 -1      1775 8.54148E-05-6.80178E-06-3.37385E-05 4.25533E-06 1.72889E-18-4.91196E-18
 -1      1776 8.52878E-05-6.70133E-06-3.37327E-05 3.01143E-06 1.47168E-18-5.07592E-18
 -1      1777 8.66558E-05-8.80208E-06-3.33984E-05 2.35192E-06 1.38802E-18-4.95046E-18
 -1      1778 8.58690E-05-7.25411E-06-3.37431E-05 6.71859E-06 2.31830E-18-4.33955E-18
 -1      1779 8.56325E-05-7.07228E-06-3.37287E-05 5.43048E-06 1.97737E-18-4.67620E-18
 -1      1780 8.70020E-05-9.19837E-06-3.33769E-05 4.65756E-06 1.96480E-18-4.62362E-18
 -1      1781 8.66787E-05-8.04255E-06-3.37628E-05 9.38167E-06 3.09607E-18-3.48649E-18
 -1      1782 8.62597E-05-7.72652E-06-3.37296E-05 7.96028E-06 2.65512E-18-3.93390E-18
 -1      1783 8.76509E-05-9.92969E-06-3.33418E-05 7.03470E-06 2.69924E-18-3.90869E-18
 -1      1784 8.80870E-05-9.38873E-06-3.38170E-05 1.22613E-05 3.70030E-18-2.33688E-18
 -1      1785 8.73489E-05-8.83146E-06-3.37455E-05 1.06680E-05 3.33200E-18-3.05628E-18
 -1      1786 8.87681E-05-1.11629E-05-3.32902E-05 9.51016E-06 3.42805E-18-3.02471E-18
 -1      1787 9.06269E-05-1.18393E-05-3.39260E-05 1.53095E-05 4.10898E-18-2.21976E-19
 -1      1788 8.92485E-05-1.07407E-05-3.37867E-05 1.35200E-05 3.79177E-18-1.47977E-18
 -1      1789 9.06611E-05-1.32236E-05-3.32061E-05 1.19826E-05 3.97080E-18-1.70862E-18
 -1      1790 9.58684E-05-1.70324E-05-3.39908E-05 1.76964E-05 3.93336E-18 3.67305E-18
 -1      1791 9.28503E-05-1.43416E-05-3.38249E-05 1.62001E-05 3.93684E-18 1.33699E-18
 -1      1792 9.39644E-05-1.68860E-05-3.30224E-05 1.39013E-05 4.19767E-18 6.68203E-19
 -1      1793 1.01916E-04-2.50917E-05-3.33566E-05 1.44271E-05 3.31148E-18 8.35662E-18
 -1      1794 9.80681E-05-1.96141E-05-3.36227E-05 1.69696E-05 3.63515E-18 5.27416E-18
 -1      1795 9.73209E-05-2.18519E-05-3.24251E-05 1.32544E-05 4.05337E-18 3.60757E-18
 -1      1796 9.87420E-05-2.61323E-05-3.13394E-05 9.43964E-06 3.34324E-18 7.26405E-18
 -1      1797 1.00147E-04-1.95603E-05-3.42154E-05-1.88743E-05-3.29467E-18 3.31042E-18
 -1      1798 9.52985E-05-2.72820E-05-2.91815E-05 4.07181E-06 2.61765E-18 5.52336E-18
 -1      1799 9.77305E-05-2.73876E-05-3.01910E-05 6.40567E-06 2.80008E-18 6.51717E-18
 -1      1800 9.75664E-05-2.56119E-05-3.08296E-05 8.76558E-06 3.38337E-18 4.41022E-18
 -1      1801 9.98065E-05-2.25392E-05-3.28335E-05-1.44733E-05-3.50582E-18 2.09249E-18
 -1      1802 9.69467E-05-2.69741E-05-2.98735E-05-5.70931E-06-2.83070E-18 1.64233E-18
 -1      1803 9.51381E-05-2.70305E-05-2.91623E-05-3.90177E-06-2.46790E-18 8.91065E-19
 -1      1804 9.43226E-05-2.72357E-05-2.86546E-05-2.42829E-06-2.09953E-18 7.94927E-19
 -1      1805 9.35473E-05-2.73138E-05-2.83492E-05-1.57877E-06-1.73139E-18 2.57101E-19
 -1      1806 9.54977E-05-2.65522E-05-2.95716E-05-4.47808E-06-2.73030E-18-3.87595E-19
 -1      1807 9.30183E-05-2.73603E-05-2.80803E-05-7.50064E-07-1.43813E-18 1.96667E-19
 -1      1808 9.27153E-05-2.74240E-05-2.79575E-05-3.11704E-07-1.21927E-18-2.21277E-19
 -1      1809 9.42837E-05-2.72210E-05-2.87632E-05-1.84035E-06-1.93883E-18-5.81670E-19
 -1      1810 9.24388E-05-2.74520E-05-2.78208E-05 1.42932E-07-1.19701E-18-3.51052E-19
 -1      1811 9.24050E-05-2.75275E-05-2.77901E-05 3.66363E-07-1.01706E-18-6.13983E-19
 -1      1812 9.35790E-05-2.75227E-05-2.83263E-05-3.73497E-07-1.50994E-18-8.81662E-19
 -1      1813 9.23000E-05-2.75582E-05-2.77314E-05 6.05301E-07-9.60756E-19-6.67488E-19
 -1      1814 9.24121E-05-2.76422E-05-2.77499E-05 7.08689E-07-7.79408E-19-8.90578E-19
 -1      1815 9.32554E-05-2.77073E-05-2.81043E-05 4.26996E-07-1.20087E-18-1.20286E-18
 -1      1816 9.24160E-05-2.76795E-05-2.77376E-05 8.19563E-07-7.90132E-19-1.01198E-18
 -1      1817 9.26009E-05-2.77649E-05-2.77817E-05 8.53179E-07-6.75559E-19-1.24089E-18
 -1      1818 9.31887E-05-2.78485E-05-2.80112E-05 8.37427E-07-9.65133E-19-1.25867E-18
 -1      1819 9.26688E-05-2.78057E-05-2.77964E-05 8.87327E-07-6.56477E-19-1.26455E-18
 -1      1820 9.28829E-05-2.78871E-05-2.78522E-05 8.80631E-07-6.57000E-19-1.30337E-18
 -1      1821 9.32811E-05-2.79701E-05-2.79956E-05 1.01372E-06-7.47866E-19-1.37958E-18
 -1      1822 9.29844E-05-2.79280E-05-2.78818E-05 8.70274E-07-8.10955E-19-1.29470E-18
 -1      1823 9.32020E-05-2.80021E-05-2.79410E-05 8.41879E-07-7.18505E-19-1.36984E-18
 -1      1824 9.34626E-05-2.80771E-05-2.80253E-05 1.05053E-06-7.43415E-19-1.56558E-18
 -1      1825 9.33181E-05-2.80407E-05-2.79778E-05 8.08139E-07-7.86471E-19-1.63697E-18
 -1      1826 9.35252E-05-2.81058E-05-2.80358E-05 7.70359E-07-7.98081E-19-2.11698E-18
 -1      1827 9.36869E-05-2.81702E-05-2.80801E-05 1.00855E-06-1.09765E-18-1.74433E-18
 -1      1828 9.36445E-05-2.81409E-05-2.80753E-05 7.27529E-07-6.35621E-19-2.33830E-18
 -1      1829 9.38349E-05-2.81971E-05-2.81298E-05 6.88771E-07-2.75471E-19-2.71941E-18
 -1      1830 9.39253E-05-2.82496E-05-2.81473E-05 9.28200E-07-9.30800E-19-1.95529E-18
 -1      1831 9.39519E-05-2.82283E-05-2.81696E-05 6.46797E-07-2.16411E-19-2.76679E-18
 -1      1832 9.41249E-05-2.82763E-05-2.82201E-05 6.12994E-07-1.82498E-19-2.88582E-18
 -1      1833 9.41620E-05-2.83161E-05-2.82199E-05 8.37189E-07-3.67133E-19-2.43655E-18
 -1      1834 9.42380E-05-2.83041E-05-2.82595E-05 5.79052E-07-9.80426E-21-2.84444E-18
 -1      1835 9.43969E-05-2.83456E-05-2.83066E-05 5.54598E-07-1.70178E-20-2.40599E-18
 -1      1836 9.43907E-05-2.83713E-05-2.82941E-05 7.55126E-07-1.74596E-19-2.70398E-18
 -1      1837 9.45075E-05-2.83708E-05-2.83460E-05 5.34168E-07-2.54267E-19-2.25226E-18
 -1      1838 9.46583E-05-2.84079E-05-2.83914E-05 5.22584E-07-4.58015E-19-2.21320E-18
 -1      1839 9.46117E-05-2.84174E-05-2.83692E-05 6.96506E-07-3.53275E-20-2.44962E-18
 -1      1840 9.47705E-05-2.84319E-05-2.84319E-05 5.20205E-07-7.68310E-19-2.42120E-18
 -1      1841 9.49217E-05-2.84674E-05-2.84780E-05 5.24608E-07-5.55902E-19-2.75119E-18
 -1      1842 9.48309E-05-2.84571E-05-2.84465E-05 6.72780E-07-7.77147E-19-2.44986E-18
 -1      1843 9.50412E-05-2.84918E-05-2.85216E-05 5.44418E-07-6.51651E-19-2.63786E-18
 -1      1844 9.52034E-05-2.85289E-05-2.85713E-05 5.67852E-07-8.18323E-19-2.88430E-18
 -1      1845 9.50579E-05-2.84938E-05-2.85285E-05 6.93822E-07-7.62906E-19-2.48340E-18
 -1      1846 9.53377E-05-2.85559E-05-2.86205E-05 6.13933E-07-8.57346E-19-2.80664E-18
 -1      1847 9.55237E-05-2.85983E-05-2.86776E-05 6.59564E-07-4.80072E-19-3.18982E-18
 -1      1848 9.53060E-05-2.85313E-05-2.86194E-05 7.68929E-07-9.35132E-19-2.27027E-18
 -1      1849 9.56817E-05-2.86304E-05-2.87352E-05 7.36100E-07-3.84318E-19-3.34340E-18
 -1      1850 9.59061E-05-2.86824E-05-2.88039E-05 8.07249E-07-4.83988E-19-3.42870E-18
 -1      1851 9.55917E-05-2.85743E-05-2.87242E-05 9.07388E-07-5.59681E-19-2.11307E-18
 -1      1852 9.60981E-05-2.87225E-05-2.88734E-05 9.18454E-07-2.55050E-19-3.07161E-18
 -1      1853 9.63777E-05-2.87894E-05-2.89584E-05 1.01844E-06 4.57818E-19-2.87614E-18
 -1      1854 9.59343E-05-2.86283E-05-2.88486E-05 1.11857E-06-2.01041E-19-2.42081E-18
 -1      1855 9.66151E-05-2.88412E-05-2.90434E-05 1.16817E-06 5.30317E-19-3.40199E-18
 -1      1856 9.69681E-05-2.89288E-05-2.91498E-05 1.29982E-06 6.13568E-19-3.45214E-18
 -1      1857 9.63555E-05-2.87002E-05-2.89992E-05 1.41145E-06 1.64995E-19-2.44685E-18
 -1      1858 9.72634E-05-2.89967E-05-2.92539E-05 1.49076E-06 6.77170E-19-3.65855E-18
 -1      1859 9.77093E-05-2.91121E-05-2.93870E-05 1.65552E-06 6.42049E-20-3.20099E-18
 -1      1860 9.68796E-05-2.87988E-05-2.91825E-05 1.79321E-06 6.68624E-19-2.74155E-18
 -1      1861 9.80753E-05-2.92015E-05-2.95136E-05 1.88765E-06-1.63274E-19-2.54311E-18
 -1      1862 9.86328E-05-2.93527E-05-2.96782E-05 2.08392E-06 4.21703E-19-2.11812E-18
 -1      1863 9.75325E-05-2.89356E-05-2.94046E-05 2.26671E-06 4.80264E-19-2.35380E-18
 -1      1864 9.90822E-05-2.94706E-05-2.98295E-05 2.35204E-06 4.55646E-19-1.95538E-18
 -1      1865 9.97671E-05-2.96667E-05-3.00292E-05 2.57259E-06 7.82128E-19-1.78572E-18
 -1      1866 9.83408E-05-2.91263E-05-2.96701E-05 2.82610E-06 6.18196E-19-1.49874E-18
 -1      1867 1.00311E-04-2.98219E-05-3.02057E-05 2.86244E-06 4.05629E-19-1.91114E-18
 -1      1868 1.01132E-04-3.00725E-05-3.04413E-05 3.09031E-06 3.30462E-19-1.95142E-18
 -1      1869 9.93304E-05-2.93919E-05-2.99810E-05 3.44993E-06 6.44200E-19-1.94298E-18
 -1      1870 1.01779E-04-3.02766E-05-3.06405E-05 3.37300E-06 2.89158E-19-2.14684E-18
 -1      1871 1.02729E-04-3.05908E-05-3.09078E-05 3.57588E-06-1.42919E-19-2.30180E-18
 -1      1872 1.00524E-04-2.97618E-05-3.03344E-05 4.09084E-06 3.95107E-19-2.27802E-18
 -1      1873 1.03484E-04-3.08585E-05-3.11228E-05 3.80045E-06-2.64037E-19-2.37919E-18
 -1      1874 1.04534E-04-3.12424E-05-3.14098E-05 3.92388E-06-1.54432E-19-2.38138E-18
 -1      1875 1.01937E-04-3.02749E-05-3.07203E-05 4.66167E-06 1.39149E-19-2.37056E-18
 -1      1876 1.05391E-04-3.15901E-05-3.16279E-05 4.00938E-06-3.84244E-19-1.78590E-18
 -1      1877 1.06473E-04-3.20410E-05-3.19118E-05 3.97104E-06-3.35581E-19-1.68006E-18
 -1      1878 1.03574E-04-3.09789E-05-3.11199E-05 5.01893E-06 1.59749E-19-1.51138E-18
 -1      1879 1.07414E-04-3.24816E-05-3.21143E-05 3.80188E-06-1.55957E-19-1.78640E-18
 -1      1880 1.08409E-04-3.29770E-05-3.23592E-05 3.49302E-06 3.47601E-19-1.39586E-18
 -1      1881 1.05416E-04-3.19210E-05-3.15044E-05 4.94914E-06-2.33262E-19-7.32730E-19
 -1      1882 1.09387E-04-3.35049E-05-3.25232E-05 2.92706E-06 4.20019E-19-1.47716E-18
 -1      1883 1.10116E-04-3.39831E-05-3.26813E-05 2.23304E-06 3.99843E-19-1.31073E-18
 -1      1884 1.07399E-04-3.31187E-05-3.18383E-05 4.17153E-06 1.73478E-19-8.37539E-19
 -1      1885 1.11032E-04-3.45448E-05-3.27854E-05 1.13967E-06-1.53478E-19-1.61839E-18
 -1      1886 1.11263E-04-3.48791E-05-3.28061E-05-4.05425E-09-1.07361E-18-1.54811E-18
 -1      1887 1.09377E-04-3.44967E-05-3.20888E-05 2.38476E-06-1.31621E-20-8.26992E-19
 -1      1888 1.11934E-04-3.53303E-05-3.28403E-05-1.65258E-06-1.18132E-18-1.48544E-18
 -1      1889 1.11423E-04-3.53160E-05-3.26887E-05-3.15866E-06-8.45921E-19-8.83503E-19
 -1      1890 1.11053E-04-3.57861E-05-3.22418E-05-6.00137E-07-9.53858E-19-1.49004E-18
 -1      1891 1.11570E-04-3.54001E-05-3.26643E-05-5.13436E-06-6.87414E-19-7.99098E-19
 -1      1892 1.10179E-04-3.48060E-05-3.23468E-05-6.64535E-06 3.12608E-20-7.36978E-19
 -1      1893 1.11929E-04-3.64356E-05-3.23193E-05-4.60123E-06-6.47626E-19 1.60758E-19
 -1      1894 1.09528E-04-3.42446E-05-3.22990E-05-8.33171E-06 2.66938E-19-9.38784E-19
 -1      1895 1.07389E-04-3.29777E-05-3.18804E-05-9.20912E-06 2.91252E-19-9.72142E-19
 -1      1896 1.11394E-04-3.57146E-05-3.23841E-05-8.73078E-06 3.35372E-20-2.71497E-19
 -1      1897 1.05920E-04-3.17080E-05-3.18460E-05-9.67978E-06-8.82247E-19-1.59070E-18
 -1      1898 1.03567E-04-3.00568E-05-3.14393E-05-9.23586E-06-1.07139E-18-2.10208E-18
 -1      1899 1.09106E-04-3.31723E-05-3.25037E-05-1.12925E-05-9.57152E-19-1.29270E-18
 -1      1900 1.01851E-04-2.85670E-05-3.14279E-05-7.77680E-06-1.32299E-18-2.37758E-18
 -1      1901 1.00134E-04-2.72619E-05-3.11518E-05-5.82734E-06-1.63657E-18-2.82659E-18
 -1      1902 1.05629E-04-2.94129E-05-3.26773E-05-1.03455E-05-1.47849E-18-6.49906E-19
 -1      1903 9.91645E-05-2.64442E-05-3.11378E-05-2.71477E-06-2.01226E-18-2.66734E-18
 -1      1904 9.88144E-05-2.62248E-05-3.10684E-05 3.62796E-08-2.01769E-18-3.29282E-18
 -1      1905 1.02686E-04-2.63068E-05-3.28103E-05-5.25542E-06-1.81831E-18-1.08133E-18
 -1      1906 9.92276E-05-2.66605E-05-3.10264E-05 3.38957E-06-9.66862E-19-3.31382E-18
 -1      1907 1.00350E-04-2.76455E-05-3.11719E-05 5.66616E-06-2.20890E-19-2.71806E-18
 -1      1908 1.02093E-04-2.58117E-05-3.27797E-05 2.07739E-06-1.60354E-18 1.73167E-19
 -1      1909 1.01771E-04-2.89947E-05-3.11143E-05 7.65519E-06-6.66582E-19-3.35088E-18
 -1      1910 1.03761E-04-3.05620E-05-3.14139E-05 8.51458E-06-6.19681E-19-3.35706E-18
 -1      1911 1.04143E-04-2.82490E-05-3.25605E-05 8.08022E-06-8.82807E-19-6.02960E-19
 -1      1912 1.05189E-04-3.19215E-05-3.13716E-05 8.50496E-06-8.95115E-19-3.03310E-18
 -1      1913 1.07169E-04-3.32701E-05-3.17128E-05 7.89852E-06-3.53147E-19-3.21304E-18
 -1      1914 1.07296E-04-3.19678E-05-3.22549E-05 1.01622E-05-1.13717E-18-1.16271E-18
 -1      1915 1.07865E-04-3.39946E-05-3.16882E-05 6.39331E-06 2.18548E-19-3.41089E-18
 -1      1916 1.09176E-04-3.46913E-05-3.19501E-05 4.92766E-06 1.15104E-18-3.82434E-18
 -1      1917 1.09635E-04-3.48883E-05-3.19821E-05 8.30374E-06-4.11473E-19-1.44944E-18
 -1      1918 1.09006E-04-3.47012E-05-3.19107E-05 2.87663E-06 4.90326E-19-3.97218E-18
 -1      1919 1.09405E-04-3.47490E-05-3.20115E-05 1.25599E-06 8.62941E-19-3.67603E-18
 -1      1920 1.10229E-04-3.60013E-05-3.17703E-05 4.25911E-06 5.37955E-19-1.62610E-18
 -1      1921 1.08608E-04-3.42935E-05-3.19205E-05-5.93348E-07 2.43329E-18-4.08157E-18
 -1      1922 1.08182E-04-3.39056E-05-3.18402E-05-1.90891E-06 2.96558E-18-2.65364E-18
 -1      1923 1.09220E-04-3.55173E-05-3.15654E-05-6.58617E-08 1.73170E-18-1.58426E-18
 -1      1924 1.07057E-04-3.32604E-05-3.16834E-05-3.20497E-06 2.80679E-18-1.27603E-18
 -1      1925 1.06048E-04-3.26572E-05-3.14541E-05-4.03857E-06 3.27380E-18 5.61831E-19
 -1      1926 1.07206E-04-3.41484E-05-3.13048E-05-3.50120E-06 3.42792E-18-8.37031E-19
 -1      1927 1.04815E-04-3.19943E-05-3.12430E-05-4.71953E-06 3.19982E-18 4.45685E-20
 -1      1928 1.03497E-04-3.13264E-05-3.09240E-05-5.06958E-06 3.10616E-18 5.33856E-19
 -1      1929 1.04750E-04-3.25058E-05-3.09653E-05-5.63492E-06 3.46233E-18 4.64970E-19
 -1      1930 1.02290E-04-3.07167E-05-3.06877E-05-5.20309E-06 1.31713E-18 4.49801E-19
 -1      1931 1.00906E-04-3.00685E-05-3.03451E-05-5.13052E-06 1.11404E-18-3.21461E-19
 -1      1932 1.02223E-04-3.09177E-05-3.05678E-05-6.49502E-06 2.33352E-18-6.12645E-19
 -1      1933 9.97978E-05-2.95235E-05-3.01167E-05-4.81228E-06 5.60426E-19-1.34772E-18
 -1      1934 9.85461E-05-2.89437E-05-2.98099E-05-4.37630E-06 2.61402E-19-1.89109E-18
 -1      1935 9.98435E-05-2.94957E-05-3.01594E-05-6.26338E-06-4.33563E-19-7.76779E-19
 -1      1936 9.76904E-05-2.85408E-05-2.96279E-05-3.71574E-06 6.31941E-19-2.79394E-18
 -1      1937 9.67122E-05-2.80868E-05-2.93839E-05-3.00636E-06 2.73974E-19-2.23853E-18
 -1      1938 9.62947E-05-2.75289E-05-2.94793E-05-3.54447E-06 2.07157E-19-3.33523E-18
 -1      1939 9.78303E-05-2.83112E-05-2.98038E-05-5.17323E-06-4.89873E-20-2.44427E-18
 -1      1940 9.31959E-05-2.73581E-05-2.81883E-05 1.61079E-06 2.04167E-18 4.20746E-18
 -1      1941 9.43923E-05-2.74640E-05-2.86254E-05 2.68147E-06 2.17273E-18 5.05815E-18
 -1      1942 9.52177E-05-2.70436E-05-2.92228E-05 4.06031E-06 2.69908E-18 3.34645E-18
 -1      1943 9.21403E-05-2.73436E-05-2.77455E-05 3.54806E-07 1.46835E-18 3.19974E-18
 -1      1944 9.26367E-05-2.73765E-05-2.79185E-05 9.02458E-07 1.62127E-18 3.81118E-18
 -1      1945 9.36106E-05-2.73641E-05-2.83982E-05 1.59244E-06 2.04018E-18 2.59614E-18
 -1      1946 9.17611E-05-2.73801E-05-2.75762E-05-2.97539E-07 8.83247E-19 2.57468E-18
 -1      1947 9.18784E-05-2.73541E-05-2.76238E-05-5.63937E-09 1.05963E-18 2.94242E-18
 -1      1948 9.27765E-05-2.74784E-05-2.79949E-05 2.80689E-07 1.43777E-18 1.92613E-18
 -1      1949 9.17803E-05-2.74692E-05-2.75518E-05-6.22318E-07 4.70405E-19 1.96716E-18
 -1      1950 9.16951E-05-2.74081E-05-2.75362E-05-4.70090E-07 6.99356E-19 2.40417E-18
 -1      1951 9.24593E-05-2.75703E-05-2.78196E-05-4.11675E-07 8.81171E-19 1.45961E-18
 -1      1952 9.20202E-05-2.75896E-05-2.76061E-05-7.59705E-07 4.91040E-19 1.69764E-18
 -1      1953 9.18321E-05-2.75118E-05-2.75582E-05-6.88822E-07 4.02771E-19 1.82486E-18
 -1      1954 9.24593E-05-2.76741E-05-2.77732E-05-7.55939E-07 5.45450E-19 8.20312E-19
 -1      1955 9.23694E-05-2.77221E-05-2.77008E-05-7.87722E-07 8.38762E-19 1.35054E-18
 -1      1956 9.21366E-05-2.76398E-05-2.76381E-05-7.65366E-07 6.84660E-19 1.62387E-18
 -1      1957 9.26410E-05-2.77880E-05-2.78002E-05-8.97225E-07 8.76024E-19 5.59293E-19
 -1      1958 9.27595E-05-2.78539E-05-2.78128E-05-7.53738E-07 9.38419E-19 6.01022E-19
 -1      1959 9.25162E-05-2.77741E-05-2.77455E-05-7.59718E-07 9.43239E-19 1.16177E-18
 -1      1960 9.29162E-05-2.79034E-05-2.78668E-05-9.19645E-07 1.09084E-18 4.79018E-19
 -1      1961 9.31502E-05-2.79771E-05-2.79284E-05-6.88244E-07 2.24572E-19 8.42613E-19
 -1      1962 9.29157E-05-2.79039E-05-2.78624E-05-7.09368E-07 5.02122E-19 7.37171E-19
 -1      1963 9.32295E-05-2.80134E-05-2.79526E-05-8.75524E-07 6.94691E-19 5.83315E-19
 -1      1964 9.35200E-05-2.80882E-05-2.80399E-05-6.11629E-07 3.26095E-19 8.37670E-19
 -1      1965 9.33038E-05-2.80231E-05-2.79783E-05-6.38927E-07 3.72583E-19 9.52766E-19
 -1      1966 9.35479E-05-2.81138E-05-2.80451E-05-7.99062E-07 3.20752E-19 6.96294E-19
 -1      1967 9.38604E-05-2.81863E-05-2.81442E-05-5.37952E-07 2.99747E-19 5.96914E-19
 -1      1968 9.36654E-05-2.81294E-05-2.80879E-05-5.65116E-07 2.71727E-19 6.30486E-19
 -1      1969 9.38538E-05-2.82028E-05-2.81375E-05-7.13416E-07 3.77055E-19 1.24579E-19
 -1      1970 9.41723E-05-2.82728E-05-2.82410E-05-4.77283E-07 5.85880E-19 1.26899E-19
 -1      1971 9.39966E-05-2.82230E-05-2.81897E-05-4.99682E-07 4.94937E-19 4.08856E-19
 -1      1972 9.41409E-05-2.82809E-05-2.82267E-05-6.34789E-07 5.65314E-19 3.93169E-20
 -1      1973 9.44632E-05-2.83506E-05-2.83323E-05-4.37295E-07 6.44468E-19-5.86343E-19
 -1      1974 9.43017E-05-2.83060E-05-2.82846E-05-4.51299E-07 3.38467E-19-2.45074E-19
 -1      1975 9.44107E-05-2.83496E-05-2.83127E-05-5.75042E-07 7.47249E-19-4.47725E-19
 -1      1976 9.47461E-05-2.84238E-05-2.84221E-05-4.24407E-07 3.11033E-19-7.15219E-19
 -1      1977 9.45909E-05-2.83818E-05-2.83755E-05-4.26887E-07 5.87817E-19-4.63472E-19
 -1      1978 9.46707E-05-2.84120E-05-2.83975E-05-5.43493E-07 7.52360E-19-8.30198E-19
 -1      1979 9.50385E-05-2.84976E-05-2.85154E-05-4.44617E-07 4.99566E-19-8.14502E-19
 -1      1980 9.48792E-05-2.84551E-05-2.84671E-05-4.32572E-07 4.23273E-19-7.52174E-19
 -1      1981 9.49333E-05-2.84720E-05-2.84845E-05-5.48207E-07 6.65454E-19-1.18035E-18
 -1      1982 9.53620E-05-2.85783E-05-2.86188E-05-5.04098E-07 5.87499E-19-1.14922E-18
 -1      1983 9.51861E-05-2.85315E-05-2.85651E-05-4.74382E-07 4.19994E-19-8.31370E-19
 -1      1984 9.52147E-05-2.85342E-05-2.85788E-05-5.96918E-07 6.30027E-19-7.76791E-19
 -1      1985 9.57423E-05-2.86733E-05-2.87403E-05-6.09551E-07 7.36099E-19-1.36213E-18
 -1      1986 9.55350E-05-2.86178E-05-2.86769E-05-5.58700E-07 8.15749E-19-1.39731E-18
 -1      1987 9.55351E-05-2.86045E-05-2.86865E-05-6.97649E-07 8.61302E-19-1.55921E-18
 -1      1988 9.62095E-05-2.87914E-05-2.88889E-05-7.68284E-07-3.47130E-19-1.03378E-18
 -1      1989 9.59536E-05-2.87219E-05-2.88107E-05-6.92458E-07 1.27706E-19-1.12026E-18
 -1      1990 9.59184E-05-2.86894E-05-2.88149E-05-8.58994E-07 2.13810E-19-1.22848E-18
 -1      1991 9.67978E-05-2.89428E-05-2.90749E-05-9.87881E-07-4.05246E-19-8.56939E-19
 -1      1992 9.64736E-05-2.88533E-05-2.89762E-05-8.82999E-07-2.83161E-19-7.33054E-19
 -1      1993 9.63920E-05-2.87972E-05-2.89725E-05-1.08998E-06-3.00397E-19-1.10820E-18
 -1      1994 9.75450E-05-2.91394E-05-2.93095E-05-1.27527E-06-2.06020E-19-1.06782E-18
 -1      1995 9.71307E-05-2.90228E-05-2.91841E-05-1.13742E-06-4.88894E-19-1.30993E-18
 -1      1996 9.69867E-05-2.89371E-05-2.91683E-05-1.39935E-06-3.91893E-20-1.11489E-18
 -1      1997 9.84915E-05-2.93946E-05-2.96045E-05-1.63478E-06 1.09947E-18-1.44578E-18
 -1      1998 9.79639E-05-2.92432E-05-2.94458E-05-1.46111E-06 5.57995E-19-7.70135E-19
 -1      1999 9.77359E-05-2.91206E-05-2.94117E-05-1.79385E-06 5.80184E-19-1.62971E-18
 -1      2000 9.96774E-05-2.97238E-05-2.99706E-05-2.06463E-06 6.69419E-19-2.64394E-18
 -1      2001 9.90136E-05-2.95289E-05-2.97724E-05-1.85504E-06 9.78872E-19-1.84408E-18
 -1      2002 9.86745E-05-2.93615E-05-2.97119E-05-2.27506E-06 1.09500E-18-2.00901E-18
 -1      2003 1.01137E-04-3.01436E-05-3.04159E-05-2.55095E-06-5.58981E-19-2.05762E-18
 -1      2004 1.00318E-04-2.98966E-05-3.01735E-05-2.31099E-06-4.04045E-19-2.31619E-18
 -1      2005 9.98358E-05-2.96765E-05-3.00759E-05-2.83395E-06-2.43641E-19-2.12816E-18
 -1      2006 1.02891E-04-3.06711E-05-3.09425E-05-3.05820E-06-4.43468E-20-1.07466E-18
 -1      2007 1.01908E-04-3.03644E-05-3.06546E-05-2.80389E-06-3.70067E-19-1.53551E-18
 -1      2008 1.01248E-04-3.00862E-05-3.05066E-05-3.44198E-06-5.95975E-19-1.10418E-18
 -1      2009 1.04929E-04-3.13216E-05-3.15410E-05-3.51519E-06 2.12010E-19-1.07729E-18
 -1      2010 1.03793E-04-3.09507E-05-3.12129E-05-3.28013E-06 9.82641E-20-7.95026E-19
 -1      2011 1.02924E-04-3.06157E-05-3.09994E-05-4.03772E-06 2.16666E-19-9.80340E-19
 -1      2012 1.07195E-04-3.21037E-05-3.21838E-05-3.79725E-06-8.76105E-19 5.04170E-19
 -1      2013 1.05949E-04-3.16717E-05-3.18315E-05-3.64200E-06-1.52641E-19-2.19127E-19
 -1      2014 1.04856E-04-3.12935E-05-3.15376E-05-4.50883E-06-4.80490E-19-8.08811E-19
 -1      2015 1.09553E-04-3.30082E-05-3.28174E-05-3.70989E-06-5.59994E-19 5.95683E-19
 -1      2016 1.08293E-04-3.25332E-05-3.24727E-05-3.73093E-06-9.29318E-19 3.51734E-19
 -1      2017 1.06995E-04-3.21466E-05-3.20879E-05-4.67224E-06-7.53949E-19 2.85075E-19
 -1      2018 1.11759E-04-3.39862E-05-3.33571E-05-2.98962E-06 5.79212E-19 1.42250E-18
 -1      2019 1.10652E-04-3.35136E-05-3.30711E-05-3.31996E-06 1.56423E-19 1.32578E-18
 -1      2020 1.09226E-04-3.31826E-05-3.25971E-05-4.26359E-06-1.26916E-19 8.79895E-19
 -1      2021 1.13436E-04-3.49096E-05-3.36915E-05-1.35522E-06 9.99115E-19 2.37351E-19
 -1      2022 1.12727E-04-3.45301E-05-3.35328E-05-2.13917E-06 8.42573E-19 9.07457E-19
 -1      2023 1.11340E-04-3.43501E-05-3.29953E-05-2.96132E-06 1.08473E-18 1.88122E-18
 -1      2024 1.14078E-04-3.55198E-05-3.37071E-05 1.34065E-06-1.12768E-19-9.19878E-19
 -1      2025 1.14063E-04-3.53839E-05-3.37472E-05 2.45612E-08 3.29244E-19-9.94531E-19
 -1      2026 1.12989E-04-3.54652E-05-3.32100E-05-4.91500E-07 8.31078E-19 1.18327E-18
 -1      2027 1.13136E-04-3.54063E-05-3.33370E-05 4.82925E-06 1.05628E-19-1.97721E-18
 -1      2028 1.14084E-04-3.57108E-05-3.36194E-05 3.11330E-06 2.53369E-19-1.13677E-18
 -1      2029 1.13665E-04-3.61307E-05-3.31948E-05 3.13566E-06 2.48095E-19-9.08124E-19
 -1      2030 1.10272E-04-3.41404E-05-3.26248E-05 8.12053E-06-1.14763E-18-8.74363E-19
 -1      2031 1.12255E-04-3.50321E-05-3.31242E-05 6.49744E-06-1.04455E-18-1.66168E-18
 -1      2032 1.12793E-04-3.57525E-05-3.29652E-05 7.27007E-06-8.55232E-19-1.42030E-18
 -1      2033 1.05792E-04-3.16486E-05-3.17522E-05 9.54143E-06-1.24041E-18 6.44036E-19
 -1      2034 1.08489E-04-3.30420E-05-3.23509E-05 8.83584E-06-1.24009E-18-9.34913E-20
 -1      2035 1.10071E-04-3.38615E-05-3.26122E-05 1.03885E-05-1.75372E-18-1.33314E-18
 -1      2036 1.01059E-04-2.87179E-05-3.09971E-05 7.57708E-06 2.00122E-18-2.57326E-19
 -1      2037 1.03653E-04-3.01261E-05-3.15093E-05 8.49297E-06 9.05551E-19 4.05094E-19
 -1      2038 1.06032E-04-3.07103E-05-3.22690E-05 1.04840E-05 5.07224E-19-2.69489E-19
 -1      2039 9.81874E-05-2.68832E-05-3.05942E-05 2.32466E-06 1.49917E-18-4.93102E-19
 -1      2040 9.96357E-05-2.75878E-05-3.08509E-05 4.75643E-06 1.77899E-18-7.10780E-20
 -1      2041 1.02351E-04-2.77097E-05-3.20369E-05 6.42940E-06 2.01189E-18 5.57146E-19
 -1      2042 9.87261E-05-2.73416E-05-3.06507E-05-3.88613E-06-1.08841E-18-1.69219E-18
 -1      2043 9.83658E-05-2.69264E-05-3.05711E-05-1.07540E-06 2.93550E-20-8.50765E-19
 -1      2044 1.01028E-04-2.66615E-05-3.19368E-05-5.04030E-07 6.22543E-19 6.17982E-19
 -1      2045 1.02266E-04-2.97439E-05-3.11146E-05-7.98086E-06 8.46183E-19-1.00320E-18
 -1      2046 1.00336E-04-2.84968E-05-3.07461E-05-6.16127E-06-4.55042E-19-1.46609E-18
 -1      2047 1.02773E-04-2.82626E-05-3.19609E-05-6.91791E-06-4.79156E-19-9.81844E-19
 -1      2048 1.06769E-04-3.25537E-05-3.17975E-05-8.44124E-06-9.84537E-19 4.66821E-19
 -1      2049 1.04238E-04-3.11885E-05-3.12936E-05-8.21679E-06-9.86512E-20-8.71531E-19
 -1      2050 1.06319E-04-3.13807E-05-3.20978E-05-9.80377E-06-3.10840E-19-5.61331E-19
 -1      2051 1.10185E-04-3.44280E-05-3.24311E-05-5.96054E-06-1.84431E-18 1.53582E-18
 -1      2052 1.08086E-04-3.35084E-05-3.19839E-05-6.99043E-06-1.47758E-18 1.68103E-18
 -1      2053 1.09596E-04-3.41715E-05-3.22975E-05-8.61140E-06-2.02958E-18 4.04591E-19
 -1      2054 1.11545E-04-3.49615E-05-3.27829E-05-2.29058E-06 1.85253E-18 5.80032E-19
 -1      2055 1.10467E-04-3.46528E-05-3.25358E-05-3.82562E-06 7.05420E-20 1.21114E-18
 -1      2056 1.11236E-04-3.54993E-05-3.24466E-05-4.88621E-06 3.05402E-19 5.71741E-19
 -1      2057 1.10917E-04-3.44515E-05-3.27457E-05 1.08538E-06 1.40304E-18 1.71011E-18
 -1      2058 1.10942E-04-3.46361E-05-3.27495E-05-3.39263E-07 1.48924E-18 1.47972E-18
 -1      2059 1.11008E-04-3.53526E-05-3.24273E-05-6.27049E-07 1.09691E-18 1.58068E-18
 -1      2060 1.08868E-04-3.33744E-05-3.23440E-05 3.45152E-06 1.47832E-18 6.45922E-19
 -1      2061 1.09762E-04-3.38557E-05-3.25687E-05 2.43546E-06 1.12456E-18 1.46297E-18
 -1      2062 1.09356E-04-3.42918E-05-3.21802E-05 2.84146E-06 1.37522E-18 2.38603E-18
 -1      2063 1.06035E-04-3.20959E-05-3.16873E-05 4.69327E-06 3.48812E-19 2.60840E-19
 -1      2064 1.07460E-04-3.27097E-05-3.20583E-05 4.14072E-06 1.42551E-18 3.91342E-19
 -1      2065 1.06875E-04-3.28750E-05-3.17232E-05 5.03042E-06 1.52018E-18 1.94731E-18
 -1      2066 1.02957E-04-3.08218E-05-3.09165E-05 4.96183E-06 2.60828E-19-4.58245E-19
 -1      2067 1.04587E-04-3.14601E-05-3.13477E-05 4.82193E-06-1.69326E-19 3.76440E-19
 -1      2068 1.04060E-04-3.14353E-05-3.11309E-05 5.96676E-06-5.23986E-20 1.89773E-18
 -1      2069 1.00046E-04-2.96549E-05-3.01679E-05 4.43731E-06 4.86118E-19 2.50265E-19
 -1      2070 1.01612E-04-3.02487E-05-3.05798E-05 4.64977E-06 7.19531E-19 5.40748E-19
 -1      2071 1.01268E-04-3.01105E-05-3.05013E-05 5.85069E-06 7.17836E-19-1.19508E-19
 -1      2072 9.76166E-05-2.86562E-05-2.95476E-05 3.24405E-06 5.30901E-20 1.27667E-18
 -1      2073 9.88944E-05-2.91557E-05-2.98787E-05 3.78022E-06 6.94034E-19 7.10088E-19
 -1      2074 9.87448E-05-2.89374E-05-2.99240E-05 4.88126E-06 3.80440E-19 1.65402E-18
 -1      2075 9.61124E-05-2.80180E-05-2.91663E-05 1.99224E-06-3.65589E-19 1.13701E-18
 -1      2076 9.70136E-05-2.83655E-05-2.94115E-05 2.74841E-06-3.43746E-19 1.21077E-18
 -1      2077 9.69667E-05-2.80822E-05-2.95321E-05 3.63923E-06 3.23399E-19 2.19028E-18
 -1      2078 9.58575E-05-2.74967E-05-2.92982E-05 2.47683E-06 3.67654E-19 2.00603E-18
 -1      2079 9.30218E-05-2.10475E-05-3.08534E-05 5.73982E-06-2.30393E-19-1.54243E-18
 -1      2080 9.36807E-05-2.25278E-05-3.04814E-05 5.61605E-06 4.28969E-19-9.03632E-19
 -1      2081 9.42433E-05-2.36710E-05-3.02425E-05 5.26380E-06-5.66453E-21-4.75606E-19
 -1      2082 9.48499E-05-2.50085E-05-2.99144E-05 4.77216E-06 7.39011E-19 5.90508E-19
 -1      2083 9.43313E-05-2.37187E-05-3.02690E-05 6.82902E-06-7.83062E-19 8.30804E-20
 -1      2084 9.51571E-05-2.57499E-05-2.97378E-05 4.08132E-06 7.42239E-19 1.88939E-18
 -1      2085 9.56264E-05-2.68148E-05-2.94731E-05 3.31831E-06 5.62639E-19 2.02522E-18
 -1      2086 9.61010E-05-2.70625E-05-2.95761E-05 3.98834E-06 5.78497E-19 1.55260E-18
 -1      2087 9.53788E-05-2.56145E-05-2.99027E-05 5.64700E-06-4.63684E-19 1.29603E-18
 -1      2088 9.18224E-05-1.84827E-05-3.14526E-05 5.43408E-06-9.97072E-19-5.22352E-18
 -1      2089 9.24598E-05-1.98990E-05-3.10961E-05 5.66622E-06-6.69821E-19-2.91483E-18
 -1      2090 9.29643E-05-2.13602E-05-3.06876E-05 7.13864E-06-7.38062E-19-3.07860E-18
 -1      2091 9.07390E-05-1.62095E-05-3.19745E-05 4.32832E-06 1.84068E-19-9.52085E-19
 -1      2092 9.12868E-05-1.74056E-05-3.16744E-05 4.90701E-06-2.89844E-19-1.64913E-18
 -1      2093 9.16272E-05-1.90531E-05-3.10903E-05 6.47461E-06 3.10582E-19-2.57692E-18
 -1      2094 8.99714E-05-1.46238E-05-3.23312E-05 2.54805E-06-3.81248E-21 7.32035E-19
 -1      2095 9.03280E-05-1.53934E-05-3.21388E-05 3.39582E-06 2.89374E-19-4.27540E-19
 -1      2096 9.04683E-05-1.70860E-05-3.14240E-05 4.84010E-06 1.56785E-18-9.43610E-19
 -1      2097 8.96647E-05-1.39914E-05-3.24696E-05 3.60277E-07 7.07978E-19 3.09263E-18
 -1      2098 8.97636E-05-1.42119E-05-3.24138E-05 1.34406E-06-4.94368E-19 1.90699E-18
 -1      2099 8.97088E-05-1.58071E-05-3.16373E-05 2.43907E-06 7.73289E-19 1.37864E-18
 -1      2100 8.98816E-05-1.44236E-05-3.23700E-05-1.86812E-06-3.53559E-19 2.67755E-19
 -1      2101 8.97054E-05-1.40625E-05-3.24586E-05-9.14796E-07 5.90950E-20 1.51882E-18
 -1      2102 8.95050E-05-1.54529E-05-3.16992E-05-3.52322E-07-8.09340E-19 1.73850E-18
 -1      2103 9.05701E-05-1.58361E-05-3.20490E-05-3.76295E-06-1.25797E-18-4.09870E-18
 -1      2104 9.01592E-05-1.49592E-05-3.22672E-05-2.99662E-06-5.72820E-19-1.41494E-19
 -1      2105 8.98966E-05-1.60863E-05-3.16010E-05-3.05728E-06-1.01020E-18-9.10077E-19
 -1      2106 9.15677E-05-1.79345E-05-3.15650E-05-5.02798E-06 8.87158E-19-9.33068E-19
 -1      2107 9.10103E-05-1.67100E-05-3.18733E-05-4.55910E-06 4.88698E-21-2.86778E-18
 -1      2108 9.07818E-05-1.75582E-05-3.13598E-05-5.21577E-06-1.45139E-19-1.85392E-18
 -1      2109 9.27335E-05-2.04540E-05-3.09732E-05-5.57033E-06 1.89328E-18 4.12628E-18
 -1      2110 9.21017E-05-1.90240E-05-3.13363E-05-5.42827E-06 1.45990E-18 2.83686E-18
 -1      2111 9.19683E-05-1.95954E-05-3.10082E-05-6.55164E-06 1.87202E-18 1.53572E-18
 -1      2112 9.38961E-05-2.30161E-05-3.03634E-05-5.35177E-06 1.96416E-18 1.42429E-18
 -1      2113 9.32758E-05-2.15902E-05-3.07258E-05-5.54281E-06 2.27296E-18 1.79269E-18
 -1      2114 9.32761E-05-2.18973E-05-3.05928E-05-6.95942E-06 2.01501E-18 3.06092E-18
 -1      2115 9.49708E-05-2.53677E-05-2.98188E-05-4.45559E-06 9.00452E-20-2.38472E-18
 -1      2116 9.43868E-05-2.40788E-05-3.01285E-05-4.93968E-06 4.44021E-19-5.22202E-19
 -1      2117 9.45401E-05-2.41600E-05-3.01709E-05-6.45937E-06 3.13957E-19-5.08559E-19
 -1      2118 5.92471E-05-4.12858E-05-8.09806E-06 4.07140E-05 1.00458E-18 5.45950E-18
 -1      2119 4.38239E-05-4.26694E-05-1.76545E-06 3.33527E-05 8.73291E-19 3.26002E-18
 -1      2120 1.20978E-05-3.60635E-05 8.77652E-06 4.51059E-06 7.90705E-19 1.05752E-18
 -1      2121 1.28118E-05-3.78525E-05 9.01922E-06-5.36514E-06 4.74974E-19-1.85627E-18
 -1      2122 2.83825E-05-3.56271E-05 2.36855E-06 2.76538E-05 1.34594E-18 2.03627E-18
 -1      2123 1.98488E-05-3.63275E-05 5.83766E-06 1.74640E-05 6.48192E-19 1.27563E-18
 -1      2124 9.73160E-05-4.40937E-05-2.27347E-05 4.30579E-05 1.57463E-18 2.62919E-18
 -1      2125 7.76628E-05-4.61831E-05-1.45856E-05 3.85669E-05 1.23709E-18 3.43091E-18
 -1      2126 1.34543E-04-4.20930E-05-3.89150E-05 3.71269E-05 3.44827E-18-7.51318E-19
 -1      2127 1.14596E-04-4.45238E-05-3.05983E-05 3.55043E-05 1.54965E-18 9.49524E-19
 -1      2128 8.72471E-05-8.72347E-06-3.37487E-05-1.05466E-05-2.24066E-18-4.81219E-18
 -1      2129 8.79530E-05-9.24307E-06-3.38204E-05-1.21024E-05-2.72136E-18-4.34676E-18
 -1      2130 9.04875E-05-1.30526E-05-3.32348E-05-1.18838E-05-2.99034E-18-3.72304E-18
 -1      2131 8.86877E-05-1.10580E-05-3.32949E-05-9.42134E-06-2.17316E-18-4.63770E-18
 -1      2132 1.79719E-04-2.95206E-05-6.30527E-05 1.09114E-05 3.91456E-18-1.82874E-18
 -1      2133 1.67251E-04-2.99397E-05-5.82871E-05 1.54710E-05 3.79894E-18-1.54584E-18
 -1      2134 1.80492E-04-2.31710E-05-6.64600E-05 4.53599E-07 4.52781E-18-2.83658E-18
 -1      2135 1.81586E-04-2.54254E-05-6.56880E-05 7.80246E-06 4.20467E-18-1.70804E-18
 -1      2136 1.76117E-04-2.61841E-05-6.33281E-05-8.05350E-06 4.86409E-18-4.60913E-18
 -1      2137 1.80092E-04-2.42860E-05-6.56905E-05-1.50579E-06 4.70781E-18-3.87083E-18
 -1      2138 1.60816E-04-3.35633E-05-5.41365E-05-1.77422E-05 4.82174E-18-4.86917E-18
 -1      2139 1.74121E-04-3.22826E-05-5.96935E-05-1.29075E-05 5.08559E-18-4.52570E-18
 -1      2140 1.34317E-04-4.04215E-05-4.04287E-05-3.01650E-05 4.08333E-18-5.71408E-18
 -1      2141 1.53653E-04-3.97604E-05-4.80173E-05-2.73670E-05 4.02203E-18-5.15335E-18
 -1      2142 1.01844E-04-4.52066E-05-2.50609E-05-3.61611E-05 3.46267E-18-5.07415E-18
 -1      2143 1.21989E-04-4.36109E-05-3.32081E-05-3.82704E-05 4.35926E-18-5.35240E-18
 -1      2144 6.26233E-05-4.34836E-05-9.58654E-06-3.57335E-05 3.83452E-18-5.23265E-18
 -1      2145 8.09743E-05-4.10028E-05-1.74200E-05-4.19637E-05 3.61005E-18-6.64497E-18
 -1      2146 3.34793E-05-4.03241E-05 1.45823E-06-2.76301E-05 1.83764E-18-3.23164E-18
 -1      2147 4.60709E-05-3.85948E-05-3.89908E-06-3.55266E-05 3.29665E-18-3.98254E-18
 -1      2148 1.51200E-05-3.47934E-05 7.13087E-06-1.24153E-05-4.23516E-20-5.21730E-18
 -1      2149 2.18948E-05-3.60885E-05 4.91737E-06-2.11359E-05 1.80122E-18-4.42511E-18
 -1      2150 3.43254E-05-3.33384E-05-1.02552E-06-3.15611E-05 2.04558E-19-4.08715E-18
 -1      2151 1.44462E-05-3.41701E-05 7.19672E-06 1.20112E-05-6.61533E-19-4.41770E-18
 -1      2152 1.15024E-05-3.34104E-05 8.10133E-06 1.62375E-06 3.28675E-19-4.53544E-18
 -1      2153 3.51273E-05-3.52218E-05-6.03286E-07 3.28034E-05-1.24090E-18-5.61435E-18
 -1      2154 2.39379E-05-3.71295E-05 4.29280E-06 2.20769E-05 1.69618E-19-4.93947E-18
 -1      2155 7.43374E-05-4.24327E-05-1.39350E-05 4.20579E-05-2.96038E-18-4.42088E-18
 -1      2156 5.76443E-05-4.35759E-05-6.90462E-06 3.70565E-05-1.39252E-18-5.49566E-18
 -1      2157 1.12620E-04-4.53409E-05-2.86753E-05 3.97116E-05-5.09321E-18-1.18119E-18
 -1      2158 9.08637E-05-4.60007E-05-2.01165E-05 3.74977E-05-4.66969E-18-2.17624E-18
 -1      2159 9.67936E-05-5.31364E-05-1.87130E-05 3.98854E-05-5.68783E-19-1.76395E-18
 -1      2160 1.48485E-04-3.97392E-05-4.56243E-05 3.10588E-05-5.25182E-18 4.49351E-19
 -1      2161 1.28623E-04-4.20719E-05-3.73831E-05 3.02791E-05-5.38649E-18-6.92026E-19
 -1      2162 1.72977E-04-3.37142E-05-5.83376E-05 1.90024E-05-4.36878E-18 7.64871E-19
 -1      2163 1.56689E-04-3.42322E-05-5.20852E-05 2.33094E-05-4.81946E-18-2.52839E-19
 -1      2164 1.81531E-04-2.59472E-05-6.55312E-05 4.03590E-06-3.92346E-18 1.10665E-18
 -1      2165 1.77398E-04-2.82588E-05-6.26846E-05 1.28693E-05-4.17015E-18 7.10237E-19
 -1      2166 1.81262E-04-2.45654E-05-6.59059E-05-6.11202E-06-3.33646E-18 1.90180E-18
 -1      2167 1.78835E-04-2.22909E-05-6.61118E-05 8.48636E-07-3.45124E-18 7.55818E-19
 -1      2168 1.69613E-04-2.81112E-05-5.99526E-05-1.51652E-05-4.81962E-19 2.75370E-18
 -1      2169 1.81699E-04-2.83431E-05-6.43555E-05-9.75778E-06-1.62969E-18 2.34501E-18
 -1      2170 1.60212E-04-1.61866E-05-6.05456E-05 2.81655E-07-2.45470E-18 1.18585E-19
 -1      2171 1.47599E-04-3.77730E-05-4.69398E-05-2.55748E-05-2.50298E-19 2.68255E-18
 -1      2172 1.64882E-04-3.60440E-05-5.41576E-05-2.22462E-05-2.21711E-19 2.95699E-18
 -1      2173 1.13298E-04-4.26067E-05-3.08525E-05-3.65008E-05-1.21126E-19 1.47299E-18
 -1      2174 1.35261E-04-4.15645E-05-3.95461E-05-3.69922E-05-5.19443E-19 2.78928E-18
 -1      2175 7.97081E-05-4.66075E-05-1.51854E-05-3.88324E-05 1.72498E-18 1.63859E-18
 -1      2176 9.87667E-05-4.39038E-05-2.33780E-05-4.32265E-05-4.82809E-20 1.93335E-18
 -1      2177 4.32242E-05-4.28204E-05-1.56769E-06-3.28575E-05 1.74446E-18 2.00609E-18
 -1      2178 5.85170E-05-4.09739E-05-8.06233E-06-4.07135E-05 1.89481E-18 3.28765E-18
 -1      2179 1.82453E-05-3.99253E-05 7.43336E-06-1.54593E-05 6.11346E-19-3.14673E-18
 -1      2180 2.58452E-05-3.72550E-05 3.68643E-06-2.54861E-05 1.25361E-18-1.59454E-18
 -1      2181 1.62795E-04-3.71997E-05-5.28564E-05 2.43598E-05 3.02344E-18-6.48827E-19
 -1      2182 1.45244E-04-3.82316E-05-4.57602E-05 2.84161E-05 3.96475E-18-7.31413E-19
 -1      2183 1.18187E-04-5.48430E-05-2.70372E-05 3.47213E-05 1.00797E-19-3.28649E-19
 -1      2184 9.71782E-05-2.43110E-05-3.13020E-05-1.00088E-05-3.31770E-18 1.27689E-18
 -1      2185 1.45395E-04-4.85917E-05-4.08670E-05 1.95038E-05 2.14490E-18-2.02864E-18
 -1      2186 1.58634E-04-3.39219E-05-5.25465E-05 5.58075E-06 3.30766E-18-2.00112E-18
 -1      2187 9.63379E-05-2.31015E-05-3.14525E-05-1.03939E-05-3.52522E-18-3.96517E-19
 -1      2188 4.42471E-05-3.68060E-05-3.57606E-06 3.66646E-05 8.68209E-20 2.91252E-18
 -1      2189 1.87937E-05-2.70090E-05 2.94877E-06 1.46914E-05 1.06874E-18 1.48654E-18
 -1      2190 9.54011E-05-2.61604E-05-2.96599E-05-4.27394E-06 1.98764E-19-1.98249E-18
 -1      2191 8.08406E-05-4.99652E-05-1.34780E-05 4.27597E-05-7.49624E-19 3.32629E-18
 -1      2192 1.72129E-05-2.92237E-05 4.20388E-06-1.38333E-05 6.92132E-19-2.41320E-18
 -1      2193 4.14894E-05-3.76019E-05-2.20460E-06-3.58450E-05 1.14815E-18 7.41789E-19
 -1      2194 8.21815E-05-5.02549E-05-1.38428E-05-4.30491E-05 1.28749E-18 2.79252E-18
 -1      2195 1.19012E-04-5.47419E-05-2.74038E-05-3.41374E-05 7.24001E-19 1.96406E-18
 -1      2196 1.59243E-04-3.10710E-05-5.40044E-05-3.93128E-06 1.94394E-19 1.26801E-18
 -1      2197 1.62650E-04-1.58202E-05-6.18584E-05-5.27442E-07-4.22585E-18-1.14709E-18
 -1      2198 1.62271E-04-2.66516E-05-5.69300E-05 2.04224E-06-4.94540E-18 1.99476E-19
 -1      2199 1.29722E-04-5.35329E-05-3.24342E-05 2.70032E-05-3.31169E-18 1.46706E-18
 -1      2200 5.60752E-05-4.04906E-05-6.85146E-06 3.97518E-05 1.32942E-18-5.01412E-18
 -1      2201 1.59002E-05-2.59499E-05 3.68571E-06-7.14217E-06 3.01755E-21-5.28887E-18
 -1      2202 6.54352E-05-4.47654E-05-9.30575E-06-4.08075E-05 1.37219E-18-4.43242E-18
 -1      2203 1.04860E-04-5.32011E-05-2.21237E-05-3.76357E-05 1.07616E-18-3.51455E-18
 -1      2204 1.36831E-04-5.22343E-05-3.58343E-05-2.29044E-05 1.62673E-18-2.90659E-18
 -1      2205 1.54892E-04-3.98239E-05-4.85191E-05-8.21511E-06 2.95842E-18-2.46614E-18
 -1      2206 1.60464E-04-2.37396E-05-5.75764E-05 1.61470E-06 4.62268E-18-3.65770E-18
 -1      2207 1.60987E-04-1.86668E-05-5.98491E-05-8.05653E-07 4.43591E-18-2.71813E-18
 -1      2208 1.61609E-04-1.47809E-05-6.18330E-05 1.49658E-06 5.21349E-18-3.30036E-18
 -1      2209 2.28969E-05-2.75340E-05 1.55358E-06 2.17477E-05 1.12062E-18-4.74084E-18
 -1      2210 1.52538E-04-4.16707E-05-4.68056E-05 1.16045E-05-4.51833E-18 1.63477E-18
 -1      2211 1.45885E-04-4.72784E-05-4.16318E-05-1.91546E-05 3.19014E-19 1.74870E-18
 -1      2212 9.52022E-05-2.63735E-05-2.94848E-05 4.20445E-06 2.69952E-18 1.65205E-18
 -1      2213 9.61782E-05-2.58593E-05-3.00631E-05 6.00927E-06 3.07133E-18 2.11450E-18
 -1      2214 8.81464E-05-1.11888E-05-3.30211E-05-3.66557E-06-4.28930E-19-4.94172E-18
 -1      2215 8.83788E-05-1.14583E-05-3.30028E-05-4.80762E-06-8.38968E-19-5.00761E-18
 -1      2216 8.87279E-05-1.19400E-05-3.29538E-05-5.82618E-06-1.10830E-18-4.92765E-18
 -1      2217 8.91350E-05-1.24136E-05-3.29249E-05-6.99875E-06-1.59911E-18-4.72787E-18
 -1      2218 8.98988E-05-1.38277E-05-3.26007E-05-4.91062E-06-9.19228E-19-4.60965E-18
 -1      2219 8.78031E-05-1.07313E-05-3.30648E-05 6.16309E-07 9.32898E-19-4.77471E-18
 -1      2220 8.77988E-05-1.07265E-05-3.30651E-05-4.95924E-07 5.74011E-19-4.84840E-18
 -1      2221 8.79830E-05-1.09559E-05-3.30460E-05 2.76098E-06 1.54251E-18-4.71196E-18
 -1      2222 8.78689E-05-1.08231E-05-3.30555E-05 1.64035E-06 1.18613E-18-4.78233E-18
 -1      2223 8.91214E-05-1.27782E-05-3.27217E-05 1.05112E-06 9.81822E-19-4.52819E-18
 -1      2224 8.84147E-05-1.15020E-05-3.30001E-05 4.89282E-06 2.16927E-18-4.34502E-18
 -1      2225 8.81767E-05-1.12258E-05-3.30186E-05 3.76852E-06 1.82115E-18-4.58389E-18
 -1      2226 8.93858E-05-1.31336E-05-3.26813E-05 3.02497E-06 1.61495E-18-4.37658E-18
 -1      2227 8.91899E-05-1.24828E-05-3.29203E-05 7.08231E-06 2.95360E-18-3.42704E-18
 -1      2228 8.87741E-05-1.19972E-05-3.29499E-05 5.90976E-06 2.54527E-18-3.90687E-18
 -1      2229 8.99399E-05-1.38802E-05-3.25960E-05 4.98176E-06 2.29740E-18-3.78554E-18
 -1      2230 9.04545E-05-1.40894E-05-3.27922E-05 9.23204E-06 3.59681E-18-2.67384E-18
 -1      2231 8.97766E-05-1.32796E-05-3.28381E-05 8.05279E-06 3.19013E-18-3.10944E-18
 -1      2232 9.08706E-05-1.51377E-05-3.24500E-05 6.87959E-06 2.92245E-18-2.97465E-18
 -1      2233 9.24468E-05-1.66590E-05-3.25810E-05 1.11166E-05 4.08049E-18-1.34752E-18
 -1      2234 9.13709E-05-1.53202E-05-3.26536E-05 1.00364E-05 3.76733E-18-2.10804E-18
 -1      2235 9.22885E-05-1.70892E-05-3.22076E-05 8.52585E-06 3.49368E-18-2.09353E-18
 -1      2236 9.42194E-05-2.71128E-05-2.87433E-05 1.77514E-06 2.04709E-18 1.16628E-18
 -1      2237 9.48215E-05-2.68898E-05-2.90422E-05 2.74770E-06 2.37809E-18 1.53015E-18
 -1      2238 9.53285E-05-2.58450E-05-2.97865E-05 4.37227E-06 2.79911E-18 4.07846E-19
 -1      2239 9.58847E-05-2.50764E-05-3.03008E-05-6.20503E-06-2.79052E-18-1.16918E-18
 -1      2240 9.52343E-05-2.58488E-05-2.97562E-05-4.26415E-06-2.40759E-18-1.28573E-18
 -1      2241 1.47324E-04-4.94147E-05-4.23399E-05 8.63809E-06 1.04648E-18-1.97443E-18
 -1      2242 1.39406E-04-5.46268E-05-3.64506E-05 1.50878E-05 8.38986E-19-2.87462E-18
 -1      2243 9.51486E-05-2.65405E-05-2.93402E-05-2.97655E-06-2.11172E-18-1.07495E-18
 -1      2244 9.46484E-05-2.68914E-05-2.90370E-05-1.89103E-06-1.76944E-18-1.35422E-18
 -1      2245 9.53466E-05-2.54431E-05-2.99923E-05-4.28429E-06-2.34975E-18-1.88106E-18
 -1      2246 9.44622E-05-2.72353E-05-2.87726E-05-1.03756E-06-1.63160E-18-1.30639E-18
 -1      2247 9.42007E-05-2.74479E-05-2.86057E-05-4.36351E-07-1.44210E-18-1.51258E-18
 -1      2248 9.50118E-05-2.66855E-05-2.92959E-05-1.92547E-06-1.85320E-18-1.77244E-18
 -1      2249 9.40512E-05-2.76278E-05-2.84445E-05 7.08031E-08-1.32724E-18-1.45494E-18
 -1      2250 9.39516E-05-2.77703E-05-2.83608E-05 4.00584E-07-1.16727E-18-1.57692E-18
 -1      2251 9.47180E-05-2.74254E-05-2.88524E-05-4.53990E-07-1.48435E-18-1.72058E-18
 -1      2252 9.38668E-05-2.78790E-05-2.82678E-05 6.84056E-07-9.21930E-19-1.51480E-18
 -1      2253 9.38718E-05-2.79848E-05-2.82350E-05 8.49081E-07-8.50169E-19-1.55093E-18
 -1      2254 9.45158E-05-2.78514E-05-2.85808E-05 4.17484E-07-1.18896E-18-1.63963E-18
 -1      2255 9.38407E-05-2.80559E-05-2.81869E-05 9.88278E-07-8.98479E-19-1.46203E-18
 -1      2256 9.39079E-05-2.81384E-05-2.81850E-05 1.05276E-06-7.29605E-19-1.40528E-18
 -1      2257 9.44233E-05-2.81182E-05-2.84240E-05 8.91540E-07-8.99782E-19-1.59345E-18
 -1      2258 9.39146E-05-2.81867E-05-2.81663E-05 1.10170E-06-7.19603E-19-1.55969E-18
 -1      2259 9.40150E-05-2.82517E-05-2.81827E-05 1.10649E-06-8.00234E-19-1.72564E-18
 -1      2260 9.44148E-05-2.82915E-05-2.83438E-05 1.11097E-06-9.27631E-19-1.54693E-18
 -1      2261 9.40457E-05-2.82847E-05-2.81827E-05 1.10192E-06-1.05244E-18-1.73863E-18
 -1      2262 9.41604E-05-2.83357E-05-2.82092E-05 1.07405E-06-1.16496E-18-1.71330E-18
 -1      2263 9.44627E-05-2.84048E-05-2.83140E-05 1.17315E-06-9.43847E-19-1.70711E-18
 -1      2264 9.42051E-05-2.83576E-05-2.82212E-05 1.04137E-06-1.09624E-18-1.62075E-18
 -1      2265 9.43230E-05-2.83968E-05-2.82528E-05 9.99257E-07-7.97581E-19-1.86050E-18
 -1      2266 9.45446E-05-2.84768E-05-2.83170E-05 1.14505E-06-1.16896E-18-1.81295E-18
 -1      2267 9.43750E-05-2.84103E-05-2.82721E-05 9.56279E-07-6.04759E-19-1.80141E-18
 -1      2268 9.44906E-05-2.84398E-05-2.83061E-05 9.12823E-07-3.13166E-19-1.85886E-18
 -1      2269 9.46448E-05-2.85188E-05-2.83411E-05 1.07340E-06-7.69206E-19-1.46272E-18
 -1      2270 9.45464E-05-2.84467E-05-2.83303E-05 8.72338E-07-1.29617E-19-1.86219E-18
 -1      2271 9.46582E-05-2.84683E-05-2.83654E-05 8.36864E-07 6.44742E-20-1.70477E-18
 -1      2272 9.47541E-05-2.85384E-05-2.83791E-05 9.91380E-07-3.46920E-19-1.12190E-18
 -1      2273 9.47163E-05-2.84701E-05-2.83931E-05 8.08368E-07 1.22442E-20-1.99915E-18
 -1      2274 9.48257E-05-2.84857E-05-2.84294E-05 7.87976E-07-2.90584E-19-2.14520E-18
 -1      2275 9.48679E-05-2.85408E-05-2.84267E-05 9.23175E-07-4.37395E-20-1.61922E-18
 -1      2276 9.48868E-05-2.84834E-05-2.84603E-05 7.78931E-07-8.57879E-19-2.23738E-18
 -1      2277 9.49977E-05-2.84949E-05-2.84986E-05 7.79439E-07-7.95267E-19-2.30490E-18
 -1      2278 9.49858E-05-2.85296E-05-2.84820E-05 8.87173E-07-7.21349E-19-2.21112E-18
 -1      2279 9.50634E-05-2.84895E-05-2.85332E-05 7.96172E-07-7.07798E-19-2.21038E-18
 -1      2280 9.51816E-05-2.84987E-05-2.85750E-05 8.22781E-07-7.06495E-19-2.21467E-18
 -1      2281 9.51104E-05-2.85077E-05-2.85450E-05 8.98280E-07-6.46952E-19-2.40750E-18
 -1      2282 9.52550E-05-2.84910E-05-2.86144E-05 8.71105E-07-9.50595E-19-1.97858E-18
 -1      2283 9.53878E-05-2.85002E-05-2.86618E-05 9.28817E-07-9.11611E-19-1.84949E-18
 -1      2284 9.52466E-05-2.84771E-05-2.86168E-05 9.69539E-07-7.97681E-19-2.02888E-18
 -1      2285 9.54730E-05-2.84913E-05-2.87075E-05 1.01440E-06-7.48740E-19-1.96388E-18
 -1      2286 9.56291E-05-2.85028E-05-2.87630E-05 1.10821E-06-4.45743E-19-1.93034E-18
 -1      2287 9.54016E-05-2.84399E-05-2.86995E-05 1.11318E-06-7.86983E-19-1.83516E-18
 -1      2288 9.57309E-05-2.84941E-05-2.88166E-05 1.23665E-06-4.00705E-19-1.93578E-18
 -1      2289 9.59208E-05-2.85112E-05-2.88830E-05 1.37146E-06-9.49008E-20-2.16232E-18
 -1      2290 9.55844E-05-2.83986E-05-2.87959E-05 1.34113E-06-5.86431E-19-1.94820E-18
 -1      2291 9.60448E-05-2.85045E-05-2.89464E-05 1.54808E-06 1.01429E-19-2.23053E-18
 -1      2292 9.62798E-05-2.85315E-05-2.90268E-05 1.72823E-06 1.75815E-19-2.51221E-18
 -1      2293 9.58056E-05-2.83567E-05-2.89092E-05 1.66480E-06-3.33060E-19-1.86592E-18
 -1      2294 9.64330E-05-2.85301E-05-2.91016E-05 1.95737E-06 4.12962E-19-2.42936E-18
 -1      2295 9.67256E-05-2.85725E-05-2.91988E-05 2.18567E-06 6.05535E-19-2.54616E-18
 -1      2296 9.60781E-05-2.83201E-05-2.90421E-05 2.09423E-06 6.50260E-20-2.34235E-18
 -1      2297 9.69159E-05-2.85816E-05-2.92862E-05 2.46943E-06 8.17301E-19-2.56312E-18
 -1      2298 9.72792E-05-2.86475E-05-2.94026E-05 2.74542E-06 5.69138E-19-2.22144E-18
 -1      2299 9.64169E-05-2.82989E-05-2.91969E-05 2.63603E-06 7.67398E-19-2.57393E-18
 -1      2300 9.75166E-05-2.86756E-05-2.95030E-05 3.08155E-06 3.12434E-19-2.05541E-18
 -1      2301 9.79638E-05-2.87763E-05-2.96400E-05 3.39872E-06 8.19942E-19-1.79819E-18
 -1      2302 9.68404E-05-2.83096E-05-2.93744E-05 3.28991E-06 5.62494E-19-2.36372E-18
 -1      2303 9.82615E-05-2.88372E-05-2.97524E-05 3.77728E-06 6.54794E-19-2.19105E-18
 -1      2304 9.88048E-05-2.89892E-05-2.99095E-05 4.11886E-06 5.35414E-19-2.39748E-18
 -1      2305 9.73724E-05-2.83796E-05-2.95730E-05 4.04326E-06 3.08741E-19-2.43145E-18
 -1      2306 9.91814E-05-2.91047E-05-3.00309E-05 4.51737E-06 2.15147E-19-2.68282E-18
 -1      2307 9.98309E-05-2.93308E-05-3.02048E-05 4.85030E-06 2.86429E-19-2.46941E-18
 -1      2308 9.80449E-05-2.85524E-05-2.97882E-05 4.86296E-06 8.42982E-20-2.88483E-18
 -1      2309 1.00313E-04-2.95338E-05-3.03302E-05 5.22689E-06 3.78569E-19-2.94198E-18
 -1      2310 1.01075E-04-2.98649E-05-3.05138E-05 5.49425E-06 3.37475E-19-2.71211E-18
 -1      2311 9.89040E-05-2.88948E-05-3.00113E-05 5.68389E-06-2.08967E-21-3.11953E-18
 -1      2312 1.01703E-04-3.02015E-05-3.06362E-05 5.77879E-06 5.88992E-19-2.65406E-18
 -1      2313 1.02576E-04-3.06744E-05-3.08183E-05 5.89176E-06 5.15069E-19-1.94852E-18
 -1      2314 1.00016E-04-2.95028E-05-3.02302E-05 6.39368E-06 4.90817E-19-3.92022E-18
 -1      2315 1.03402E-04-3.12016E-05-3.09307E-05 5.97599E-06 1.75571E-19-2.23644E-18
 -1      2316 1.04370E-04-3.18494E-05-3.10966E-05 5.80951E-06 1.19336E-19-2.15941E-18
 -1      2317 1.01475E-04-3.05013E-05-3.04318E-05 6.81442E-06 3.78203E-19-3.32046E-18
 -1      2318 1.05454E-04-3.26194E-05-3.11956E-05 5.53988E-06 4.36195E-19-1.76757E-18
 -1      2319 1.06470E-04-3.34446E-05-3.13306E-05 4.94075E-06 5.88349E-19-1.95172E-18
 -1      2320 1.03394E-04-3.20219E-05-3.06090E-05 6.68525E-06 7.88700E-19-2.76076E-18
 -1      2321 1.07847E-04-3.44622E-05-3.14247E-05 4.12540E-06 1.88074E-19-1.78801E-18
 -1      2322 1.08806E-04-3.53824E-05-3.15213E-05 2.94991E-06-3.83971E-19-1.75068E-18
 -1      2323 1.05874E-04-3.41334E-05-3.07732E-05 5.65822E-06 2.95600E-19-2.41445E-18
 -1      2324 1.10415E-04-3.65238E-05-3.16404E-05 1.40401E-06-7.45154E-19-1.26810E-18
 -1      2325 1.11116E-04-3.72901E-05-3.17084E-05-3.93595E-07-4.44421E-19-4.51662E-19
 -1      2326 1.08900E-04-3.66926E-05-3.09745E-05 3.34064E-06 1.27803E-19-1.26250E-18
 -1      2327 1.12680E-04-3.81913E-05-3.19099E-05-2.71545E-06-4.94469E-19-4.58555E-19
 -1      2328 1.12817E-04-3.83332E-05-3.19823E-05-4.92664E-06-5.98736E-19 2.25058E-19
 -1      2329 1.12147E-04-3.91054E-05-3.13198E-05-5.50975E-07-6.54479E-19-2.84292E-19
 -1      2330 1.13758E-04-3.83544E-05-3.23384E-05-7.65152E-06-6.10711E-19-1.45937E-19
 -1      2331 1.13035E-04-3.73328E-05-3.24632E-05-9.62829E-06-6.33614E-19-9.85392E-19
 -1      2332 1.14746E-04-4.01157E-05-3.19649E-05-5.79595E-06-1.00224E-18 6.28955E-20
 -1      2333 1.12710E-04-3.58825E-05-3.30132E-05-1.17426E-05-5.77527E-19-6.48364E-19
 -1      2334 1.11113E-04-3.35127E-05-3.32121E-05-1.24606E-05-9.22263E-19-4.63124E-19
 -1      2335 1.15420E-04-3.81976E-05-3.30449E-05-1.10721E-05-6.99164E-19-4.63929E-19
 -1      2336 1.09393E-04-3.06861E-05-3.38588E-05-1.23894E-05-1.44419E-18 4.55297E-19
 -1      2337 1.07544E-04-2.78627E-05-3.40701E-05-1.08868E-05-1.44712E-18 2.20695E-19
 -1      2338 1.13267E-04-3.27195E-05-3.45004E-05-1.36454E-05-7.18046E-19 8.92465E-19
 -1      2339 1.05645E-04-2.52356E-05-3.45569E-05-7.82644E-06-1.87974E-18 5.40351E-19
 -1      2340 1.04606E-04-2.36757E-05-3.46566E-05-4.31058E-06-2.26077E-18 5.48613E-19
 -1      2341 1.09405E-04-2.57712E-05-3.58910E-05-1.06416E-05-1.53457E-18 1.27566E-18
 -1      2342 1.04258E-04-2.32723E-05-3.47088E-05 5.14819E-07-1.59160E-18 7.08087E-19
 -1      2343 1.04719E-04-2.41440E-05-3.46074E-05 4.32206E-06-8.21040E-19 9.79696E-19
 -1      2344 1.06983E-04-2.19345E-05-3.65641E-05-2.17558E-06-1.33418E-18 1.61042E-18
 -1      2345 1.06213E-04-2.63004E-05-3.41770E-05 8.10949E-06-1.60114E-18 2.18465E-19
 -1      2346 1.07768E-04-2.89253E-05-3.39223E-05 1.02437E-05-1.72396E-18-8.39760E-19
 -1      2347 1.08246E-04-2.41885E-05-3.61155E-05 7.11760E-06-1.62633E-18 1.43391E-18
 -1      2348 1.09599E-04-3.18929E-05-3.32399E-05 1.11039E-05-9.05577E-19-1.71559E-18
 -1      2349 1.11169E-04-3.44950E-05-3.29645E-05 1.09089E-05-1.12800E-18-1.33648E-18
 -1      2350 1.11849E-04-3.07040E-05-3.47715E-05 1.18577E-05-1.61253E-18-8.48317E-19
 -1      2351 1.11832E-04-3.64084E-05-3.23233E-05 9.19246E-06-9.85903E-19-2.19343E-19
 -1      2352 1.12622E-04-3.77900E-05-3.21137E-05 7.38224E-06 2.60453E-19 3.54211E-19
 -1      2353 1.14505E-04-3.69502E-05-3.31850E-05 1.05260E-05-7.30303E-19 7.06048E-19
 -1      2354 1.11870E-04-3.81210E-05-3.16577E-05 4.59957E-06 4.87732E-19 3.29842E-19
 -1      2355 1.11726E-04-3.81930E-05-3.15109E-05 2.28434E-06 1.47076E-18 4.49112E-19
 -1      2356 1.14403E-04-3.99122E-05-3.18951E-05 5.52972E-06 8.01286E-19 1.94677E-18
 -1      2357 1.10142E-04-3.74242E-05-3.12324E-05-3.05532E-07 8.20874E-19 4.83177E-20
 -1      2358 1.09324E-04-3.66874E-05-3.11052E-05-2.33028E-06 1.59265E-18-8.72725E-20
 -1      2359 1.11968E-04-3.95095E-05-3.10595E-05-1.09363E-07 8.88514E-19 1.07770E-18
 -1      2360 1.07549E-04-3.54932E-05-3.09388E-05-4.17219E-06 2.95645E-18-5.40875E-19
 -1      2361 1.06380E-04-3.44553E-05-3.07965E-05-5.56503E-06 3.48440E-18-7.86224E-19
 -1      2362 1.08522E-04-3.72103E-05-3.05879E-05-4.60326E-06 1.69277E-18 5.17632E-19
 -1      2363 1.04765E-04-3.32641E-05-3.06826E-05-6.58554E-06 2.86161E-18-1.01028E-18
 -1      2364 1.03487E-04-3.22241E-05-3.05155E-05-7.29777E-06 3.32923E-18-6.34604E-19
 -1      2365 1.05077E-04-3.43831E-05-3.03265E-05-7.43350E-06 3.18456E-18 5.72974E-19
 -1      2366 1.02139E-04-3.12036E-05-3.04225E-05-7.61612E-06 3.67686E-18-1.78767E-18
 -1      2367 1.00893E-04-3.02727E-05-3.02427E-05-7.72703E-06 1.84114E-18-5.49922E-19
 -1      2368 1.02083E-04-3.17584E-05-3.01625E-05-8.70706E-06 2.81961E-18 3.84064E-20
 -1      2369 9.97858E-05-2.94266E-05-3.01621E-05-7.49059E-06-7.53644E-19-4.15265E-19
 -1      2370 9.86593E-05-2.86325E-05-2.99923E-05-7.09444E-06-1.36901E-18-7.55059E-19
 -1      2371 9.96149E-05-2.95525E-05-3.00419E-05-8.71428E-06 1.08995E-18-7.73576E-19
 -1      2372 9.33205E-05-2.76856E-05-2.81219E-05-3.99856E-07 8.70374E-19 2.62710E-19
 -1      2373 9.34000E-05-2.75813E-05-2.81836E-05-1.14221E-07 1.16951E-18 5.61618E-19
 -1      2374 9.32678E-05-2.78488E-05-2.80319E-05-8.07520E-07 6.49058E-19-2.21977E-19
 -1      2375 9.32238E-05-2.77585E-05-2.80435E-05-6.67612E-07 7.01469E-19 1.52780E-21
 -1      2376 9.39972E-05-2.78036E-05-2.83800E-05-4.32668E-07 1.08987E-18-6.49887E-19
 -1      2377 9.33614E-05-2.79830E-05-2.80161E-05-9.86625E-07 9.81044E-19-2.25344E-19
 -1      2378 9.32489E-05-2.79031E-05-2.79989E-05-9.34101E-07 7.21656E-19-2.99316E-19
 -1      2379 9.39101E-05-2.80114E-05-2.82505E-05-8.82758E-07 8.45221E-19-8.02705E-19
 -1      2380 9.35377E-05-2.80963E-05-2.80442E-05-1.02779E-06 8.67247E-19-5.06101E-20
 -1      2381 9.33924E-05-2.80264E-05-2.80114E-05-1.02672E-06 1.01348E-18-3.14024E-20
 -1      2382 9.39398E-05-2.81584E-05-2.81975E-05-1.08446E-06 8.83232E-19-7.76787E-19
 -1      2383 9.37540E-05-2.81915E-05-2.80967E-05-9.90253E-07 3.69677E-19 1.01683E-19
 -1      2384 9.35978E-05-2.81316E-05-2.80566E-05-1.01729E-06 6.80779E-19 8.09822E-20
 -1      2385 9.40412E-05-2.82664E-05-2.81927E-05-1.13491E-06 6.35012E-19-5.64778E-19
 -1      2386 9.39835E-05-2.82704E-05-2.81616E-05-9.13933E-07 4.66160E-19-3.15346E-21
 -1      2387 9.38290E-05-2.82202E-05-2.81190E-05-9.53370E-07 5.20748E-19 2.31808E-19
 -1      2388 9.41818E-05-2.83462E-05-2.82174E-05-1.09911E-06 4.76891E-19-5.38953E-19
 -1      2389 9.42115E-05-2.83347E-05-2.82319E-05-8.26438E-07 4.91663E-19-4.68966E-19
 -1      2390 9.40647E-05-2.82932E-05-2.81894E-05-8.67355E-07 6.60843E-19-1.56846E-19
 -1      2391 9.43402E-05-2.84041E-05-2.82596E-05-1.02152E-06 7.56195E-19-5.57328E-19
 -1      2392 9.44323E-05-2.83866E-05-2.83041E-05-7.47418E-07 7.65943E-19-7.36933E-19
 -1      2393 9.42945E-05-2.83526E-05-2.82626E-05-7.81966E-07 5.39482E-19-4.52716E-19
 -1      2394 9.45043E-05-2.84447E-05-2.83121E-05-9.33314E-07 5.44381E-19-7.90417E-19
 -1      2395 9.46468E-05-2.84286E-05-2.83777E-05-6.91491E-07 7.66095E-19-8.71788E-19
 -1      2396 9.45156E-05-2.84004E-05-2.83368E-05-7.13707E-07 8.32412E-19-6.38200E-19
 -1      2397 9.46688E-05-2.84713E-05-2.83710E-05-8.56934E-07 8.02701E-19-1.15380E-18
 -1      2398 9.48607E-05-2.84638E-05-2.84537E-05-6.70300E-07 7.46503E-19-7.93267E-19
 -1      2399 9.47315E-05-2.84394E-05-2.84123E-05-6.75275E-07 8.76263E-19-7.61659E-19
 -1      2400 9.48336E-05-2.84871E-05-2.84349E-05-8.09333E-07 7.29331E-19-1.03504E-18
 -1      2401 9.50842E-05-2.84954E-05-2.85351E-05-6.94000E-07 4.13075E-19-6.06318E-19
 -1      2402 9.49497E-05-2.84726E-05-2.84912E-05-6.77280E-07 5.33136E-19-7.20959E-19
 -1      2403 9.50028E-05-2.84947E-05-2.85044E-05-8.04216E-07 6.49753E-19-8.32821E-19
 -1      2404 9.53305E-05-2.85274E-05-2.86260E-05-7.72311E-07 7.52175E-19-8.11909E-19
 -1      2405 9.51817E-05-2.85036E-05-2.85769E-05-7.29470E-07 7.44815E-19-6.84839E-19
 -1      2406 9.51838E-05-2.84966E-05-2.85815E-05-8.53677E-07 4.98152E-19-7.49928E-19
 -1      2407 9.56163E-05-2.85641E-05-2.87314E-05-9.15178E-07 8.27442E-19-1.04184E-18
 -1      2408 9.54424E-05-2.85363E-05-2.86741E-05-8.41571E-07 9.46726E-19-8.05032E-19
 -1      2409 9.53866E-05-2.84956E-05-2.86693E-05-9.69307E-07 9.30546E-19-5.61644E-19
 -1      2410 9.59610E-05-2.86109E-05-2.88576E-05-1.13301E-06-3.93467E-19-4.63219E-19
 -1      2411 9.57494E-05-2.85754E-05-2.87884E-05-1.02372E-06 1.78409E-19-6.97103E-19
 -1      2412 9.56237E-05-2.84946E-05-2.87719E-05-1.16285E-06 1.64892E-19-3.94743E-19
 -1      2413 9.63872E-05-2.86744E-05-2.90114E-05-1.43636E-06-2.73519E-19-7.05917E-19
 -1      2414 9.61233E-05-2.86268E-05-2.89261E-05-1.28644E-06-3.97811E-19-5.17116E-19
 -1      2415 9.59100E-05-2.84977E-05-2.88940E-05-1.44633E-06-4.13991E-19-1.46093E-19
 -1      2416 9.69196E-05-2.87630E-05-2.91997E-05-1.83488E-06 2.88092E-19-1.07916E-18
 -1      2417 9.65876E-05-2.86978E-05-2.90941E-05-1.63996E-06 3.78352E-19-6.57198E-19
 -1      2418 9.62623E-05-2.85101E-05-2.90403E-05-1.83145E-06-5.54767E-20-3.67383E-19
 -1      2419 9.75852E-05-2.88881E-05-2.94296E-05-2.33506E-06 5.99061E-19-1.52934E-18
 -1      2420 9.71682E-05-2.87981E-05-2.92994E-05-2.09261E-06 1.91824E-19-1.50012E-18
 -1      2421 9.66998E-05-2.85400E-05-2.92157E-05-2.32816E-06 4.83759E-19-1.02639E-18
 -1      2422 9.84122E-05-2.90651E-05-2.97067E-05-2.93618E-06 7.87270E-19-8.29120E-19
 -1      2423 9.78930E-05-2.89410E-05-2.95482E-05-2.64778E-06 1.04691E-18-1.13745E-18
 -1      2424 9.72439E-05-2.85996E-05-2.94240E-05-2.94165E-06 3.55605E-19-9.68646E-19
 -1      2425 9.94284E-05-2.93159E-05-3.00340E-05-3.62367E-06-5.28946E-19-8.68786E-19
 -1      2426 9.87914E-05-2.91454E-05-2.98453E-05-3.29865E-06 1.20987E-19-8.83543E-19
 -1      2427 9.79188E-05-2.87085E-05-2.96673E-05-3.66747E-06 4.45314E-19-3.21811E-19
 -1      2428 1.00660E-04-2.96723E-05-3.04100E-05-4.35860E-06-4.13310E-19-7.64473E-19
 -1      2429 9.98936E-05-2.94385E-05-3.01915E-05-4.01986E-06-9.42169E-19-7.80650E-19
 -1      2430 9.87527E-05-2.88980E-05-2.99443E-05-4.48353E-06-6.80462E-19-5.58490E-19
 -1      2431 1.02127E-04-3.01791E-05-3.08255E-05-5.06241E-06 2.07081E-19-8.75027E-19
 -1      2432 1.01229E-04-2.98600E-05-3.05825E-05-4.75461E-06 1.88738E-19-5.56779E-19
 -1      2433 9.97806E-05-2.92169E-05-3.02493E-05-5.33801E-06-2.25383E-19-8.27946E-19
 -1      2434 1.03844E-04-3.08968E-05-3.12614E-05-5.59704E-06-8.38810E-19-4.56442E-19
 -1      2435 1.02824E-04-3.04657E-05-3.10056E-05-5.39675E-06-3.55280E-19-9.25448E-19
 -1      2436 1.01048E-04-2.97388E-05-3.05703E-05-6.13237E-06-1.98027E-19-5.11898E-19
 -1      2437 1.05805E-04-3.18969E-05-3.16868E-05-5.74412E-06-5.73969E-19-6.52565E-19
 -1      2438 1.04699E-04-3.13279E-05-3.14382E-05-5.76891E-06-7.26179E-19-7.02031E-19
 -1      2439 1.02614E-04-3.05663E-05-3.08895E-05-6.69959E-06-7.02451E-19-6.90750E-19
 -1      2440 1.07974E-04-3.32362E-05-3.20617E-05-5.19523E-06-5.62961E-19 7.62737E-19
 -1      2441 1.06855E-04-3.25223E-05-3.18479E-05-5.60325E-06-8.34940E-19 6.91142E-20
 -1      2442 1.04552E-04-3.18215E-05-3.11863E-05-6.78188E-06-1.13987E-18-7.91433E-19
 -1      2443 1.10240E-04-3.48894E-05-3.23476E-05-3.58149E-06 6.52460E-19 1.61338E-18
 -1      2444 1.09241E-04-3.40823E-05-3.21990E-05-4.54390E-06 3.00710E-19 9.11977E-19
 -1      2445 1.06928E-04-3.36005E-05-3.14465E-05-6.02077E-06-4.87357E-19-3.39457E-19
 -1      2446 1.12344E-04-3.66169E-05-3.25290E-05-5.93585E-07 1.01936E-18 1.32046E-18
 -1      2447 1.11679E-04-3.58954E-05-3.24673E-05-2.21277E-06 1.25680E-18 2.12959E-18
 -1      2448 1.09728E-04-3.58569E-05-3.16806E-05-3.99166E-06 4.59287E-19 5.42354E-19
 -1      2449 1.13782E-04-3.77976E-05-3.26402E-05 3.74200E-06 6.24766E-19-7.43486E-20
 -1      2450 1.13751E-04-3.75319E-05-3.26629E-05 1.58854E-06 9.54633E-19 1.07315E-18
 -1      2451 1.12701E-04-3.81870E-05-3.19478E-05-3.49681E-07 1.13234E-18 1.71971E-18
 -1      2452 1.13807E-04-3.74173E-05-3.27779E-05 8.60985E-06-1.89115E-18 3.57673E-21
 -1      2453 1.14696E-04-3.81036E-05-3.28460E-05 6.47278E-06-6.53668E-19 1.08458E-19
 -1      2454 1.15153E-04-3.96001E-05-3.23662E-05 4.80876E-06-2.77067E-19 1.59191E-18
 -1      2455 1.11794E-04-3.45918E-05-3.30593E-05 1.20907E-05-1.56095E-18 1.16639E-19
 -1      2456 1.13621E-04-3.64993E-05-3.31145E-05 1.09765E-05-2.08563E-18-6.53671E-20
 -1      2457 1.15927E-04-3.86346E-05-3.30766E-05 1.03739E-05-1.56062E-18 1.53401E-18
 -1      2458 1.08087E-04-2.97560E-05-3.34950E-05 1.16197E-05 9.97017E-19 9.94807E-19
 -1      2459 1.10300E-04-3.23298E-05-3.35045E-05 1.25760E-05-7.22185E-19 2.05267E-19
 -1      2460 1.14088E-04-3.44176E-05-3.41231E-05 1.37392E-05-1.03630E-18 1.87603E-18
 -1      2461 1.04643E-04-2.54445E-05-3.38960E-05 5.96206E-06 1.65338E-18 1.55078E-18
 -1      2462 1.06122E-04-2.72163E-05-3.38937E-05 9.11412E-06 2.33228E-18 1.19599E-18
 -1      2463 1.10239E-04-2.80675E-05-3.52493E-05 1.19640E-05 8.95446E-19 1.40519E-18
 -1      2464 1.04028E-04-2.48764E-05-3.39624E-05-2.64837E-06 1.72848E-19 1.25096E-18
 -1      2465 1.03900E-04-2.45539E-05-3.40051E-05 1.23353E-06 1.34496E-18 1.28789E-18
 -1      2466 1.07222E-04-2.36414E-05-3.59405E-05 4.20534E-06 1.63371E-18 1.44126E-18
 -1      2467 1.06737E-04-2.85241E-05-3.36177E-05-9.47852E-06-2.56135E-19-1.25603E-18
 -1      2468 1.05170E-04-2.63902E-05-3.36926E-05-6.92774E-06-1.39191E-19 5.46402E-20
 -1      2469 1.07646E-04-2.44551E-05-3.57468E-05-5.58006E-06 1.09421E-18 3.77072E-19
 -1      2470 1.10549E-04-3.35780E-05-3.30742E-05-1.12544E-05-1.22053E-18 3.44815E-19
 -1      2471 1.08604E-04-3.11571E-05-3.31229E-05-1.10297E-05-3.46417E-19-8.27836E-19
 -1      2472 1.10983E-04-2.98779E-05-3.47618E-05-1.17041E-05-6.32105E-19-7.94944E-19
 -1      2473 1.12874E-04-3.69543E-05-3.25829E-05-8.39518E-06-1.20141E-18-2.67609E-20
 -1      2474 1.11538E-04-3.54806E-05-3.25936E-05-9.96939E-06-1.87109E-18 1.93044E-19
 -1      2475 1.14141E-04-3.58571E-05-3.35030E-05-1.15919E-05-1.34354E-18-4.04384E-19
 -1      2476 1.12834E-04-3.76998E-05-3.22087E-05-3.39992E-06 8.13119E-20 6.97096E-21
 -1      2477 1.12500E-04-3.74312E-05-3.22284E-05-5.65443E-06-4.14054E-19-5.92294E-20
 -1      2478 1.14874E-04-3.91011E-05-3.24408E-05-7.07410E-06-7.48627E-19-1.95263E-18
 -1      2479 1.10979E-04-3.65466E-05-3.18899E-05 1.41954E-06 8.27909E-19 1.20944E-18
 -1      2480 1.11518E-04-3.70915E-05-3.19728E-05-6.29823E-07 5.76552E-19 3.80806E-19
 -1      2481 1.13133E-04-3.91200E-05-3.17196E-05-1.25553E-06 7.57515E-20-5.77397E-20
 -1      2482 1.08229E-04-3.45960E-05-3.15428E-05 4.91395E-06 1.38449E-18 1.57229E-18
 -1      2483 1.09328E-04-3.54844E-05-3.17130E-05 3.47887E-06 1.25815E-18 1.50791E-18
 -1      2484 1.10057E-04-3.71547E-05-3.12642E-05 3.67339E-06 7.99907E-19 4.44359E-19
 -1      2485 1.05254E-04-3.25782E-05-3.11324E-05 6.85953E-06 1.43761E-18 1.58871E-18
 -1      2486 1.06624E-04-3.35135E-05-3.13770E-05 6.10321E-06 1.41412E-18 1.93670E-18
 -1      2487 1.06698E-04-3.45697E-05-3.09370E-05 6.91461E-06 9.52793E-19 4.29859E-19
 -1      2488 1.02411E-04-3.07899E-05-3.06790E-05 7.45222E-06 4.20994E-19 1.39167E-18
 -1      2489 1.03841E-04-3.16505E-05-3.09613E-05 7.28649E-06 7.67060E-19 2.32811E-18
 -1      2490 1.03597E-04-3.21381E-05-3.06471E-05 8.49049E-06 1.11267E-18 1.32430E-18
 -1      2491 9.98492E-05-2.92630E-05-3.02331E-05 6.96035E-06 3.80832E-19 1.02889E-18
 -1      2492 1.01200E-04-3.00218E-05-3.05103E-05 7.28161E-06 4.48345E-19 8.78919E-19
 -1      2493 1.00916E-04-3.00854E-05-3.03729E-05 8.70010E-06 7.16882E-19 1.41099E-18
 -1      2494 9.76358E-05-2.79620E-05-2.98401E-05 5.61671E-06-3.44345E-19 1.39518E-18
 -1      2495 9.88202E-05-2.86203E-05-3.00805E-05 6.32644E-06 1.74141E-19 1.23069E-18
 -1      2496 9.86307E-05-2.83845E-05-3.01199E-05 7.83576E-06 8.70194E-21 1.62045E-18
 -1      2497 9.67455E-05-2.74331E-05-2.96949E-05 4.54987E-06 1.23885E-19 1.23385E-18
 -1      2498 9.10600E-05-1.94595E-05-3.07210E-05 7.19375E-06 1.11342E-18-4.41015E-19
 -1      2499 9.18853E-05-2.05495E-05-3.05600E-05 7.81003E-06 3.06114E-19-3.27151E-18
 -1      2500 8.96458E-05-1.76632E-05-3.08895E-05 5.07852E-06 2.41284E-18-1.98947E-19
 -1      2501 9.02916E-05-1.84913E-05-3.07707E-05 6.18150E-06 1.51143E-18 7.31469E-19
 -1      2502 9.03905E-05-1.98434E-05-3.02207E-05 7.62785E-06 1.21974E-18 1.54729E-19
 -1      2503 9.44046E-05-2.38385E-05-3.02526E-05 8.09093E-06-6.36778E-19-8.83021E-19
 -1      2504 9.52514E-05-2.50325E-05-3.00732E-05 7.69743E-06-5.02466E-19 4.03606E-20
 -1      2505 9.27568E-05-2.16447E-05-3.04985E-05 8.20188E-06-1.43038E-18-3.15004E-18
 -1      2506 9.36082E-05-2.28124E-05-3.03200E-05 8.26192E-06-1.25920E-18-1.63015E-18
 -1      2507 9.42833E-05-2.41160E-05-3.00829E-05 9.27227E-06-7.02146E-19-1.64406E-18
 -1      2508 9.23551E-05-2.19689E-05-3.01646E-05 9.11014E-06 6.23616E-20-1.65701E-18
 -1      2509 8.87995E-05-1.65957E-05-3.09801E-05 2.12211E-06 8.70708E-19 7.35087E-19
 -1      2510 8.91275E-05-1.70131E-05-3.09205E-05 3.55547E-06 1.70663E-18-7.94800E-19
 -1      2511 8.88392E-05-1.81691E-05-3.02600E-05 4.93662E-06 1.61411E-18-8.50962E-19
 -1      2512 8.87305E-05-1.64959E-05-3.09815E-05-1.18812E-06-1.20309E-18 5.39289E-19
 -1      2513 8.86632E-05-1.64234E-05-3.09892E-05 3.32382E-07-5.29223E-19 1.84137E-18
 -1      2514 8.80485E-05-1.73160E-05-3.02791E-05 1.39607E-06 7.36254E-19-4.04541E-19
 -1      2515 8.94521E-05-1.73892E-05-3.08933E-05-4.25807E-06-7.33216E-19-6.79661E-19
 -1      2516 8.90123E-05-1.68453E-05-3.09673E-05-2.91737E-06-8.46873E-19-4.60185E-19
 -1      2517 8.82225E-05-1.74993E-05-3.02771E-05-2.37026E-06-6.53549E-19 6.31089E-20
 -1      2518 9.07451E-05-1.90350E-05-3.07283E-05-6.54254E-06 3.94350E-19-1.31887E-18
 -1      2519 9.00555E-05-1.81481E-05-3.08566E-05-5.60227E-06-5.35663E-19-1.68761E-18
 -1      2520 8.92939E-05-1.86512E-05-3.02523E-05-5.64744E-06-2.78436E-19-6.06158E-19
 -1      2521 9.23572E-05-2.11529E-05-3.05018E-05-7.82602E-06 1.81855E-18 3.33274E-18
 -1      2522 9.15382E-05-2.00466E-05-3.06707E-05-7.36337E-06 1.04668E-18 6.25415E-19
 -1      2523 9.09697E-05-2.04780E-05-3.02016E-05-7.93990E-06 4.21831E-19 3.20992E-19
 -1      2524 9.39918E-05-2.33759E-05-3.02464E-05-8.00517E-06 5.96367E-19 1.85613E-18
 -1      2525 9.31746E-05-2.22143E-05-3.04307E-05-8.04420E-06 8.23699E-19 3.27587E-18
 -1      2526 9.29016E-05-2.26139E-05-3.01271E-05-9.01667E-06 4.79693E-19 1.43163E-18
 -1      2527 9.54627E-05-2.54280E-05-2.99929E-05-7.19966E-06-1.41163E-18-1.79972E-18
 -1      2528 9.47294E-05-2.43367E-05-3.01712E-05-7.67892E-06-6.43610E-19-6.76625E-19
 -1      2529 9.47654E-05-2.46928E-05-3.00319E-05-8.87736E-06-1.05338E-18-5.05963E-19
 -1      2530 2.74801E-05-2.05299E-05-2.57278E-06 1.91925E-05 1.15599E-18 1.18966E-18
 -1      2531 2.03956E-05-1.96592E-05-4.37864E-08 4.58621E-06 1.16805E-18 5.89958E-19
 -1      2532 9.77960E-05-5.40461E-05-1.87436E-05 4.18873E-05-1.28707E-18 4.37479E-19
 -1      2533 7.90523E-05-4.77413E-05-1.31963E-05 4.22582E-05-1.60343E-18 2.53072E-18
 -1      2534 9.36054E-05-2.74671E-05-2.83335E-05 3.80551E-07 1.36789E-18 7.52806E-19
 -1      2535 9.38895E-05-2.73317E-05-2.84810E-05 9.13957E-07 1.67159E-18 1.03104E-18
 -1      2536 9.42544E-05-2.74855E-05-2.86289E-05 4.15175E-07 1.53628E-18-1.78965E-19
 -1      2537 9.61088E-05-2.65993E-05-2.97878E-05-5.24985E-06-2.94239E-19-2.19072E-18
 -1      2538 1.99212E-05-1.99195E-05 2.68141E-07-7.02862E-06 1.20485E-18-1.64621E-18
 -1      2539 2.53514E-05-2.25854E-05-9.81944E-07-2.09070E-05 8.44704E-19-2.66477E-18
 -1      2540 2.84651E-05-1.60415E-05-4.71069E-06-1.54731E-06 1.59472E-18-7.27178E-19
 -1      2541 5.90405E-05-3.79765E-05-8.79886E-06 4.19851E-05-2.85238E-19 2.55846E-18
 -1      2542 4.29915E-05-2.95375E-05-5.36218E-06 3.39608E-05 2.46698E-19 2.21012E-18
 -1      2543 9.50639E-05-2.00225E-05-3.22098E-05-1.17569E-05-3.48570E-18-1.83486E-18
 -1      2544 9.54722E-05-2.33649E-05-3.09248E-05-7.97227E-06-3.20709E-18-1.47654E-18
 -1      2545 9.50650E-05-2.25737E-05-3.10483E-05-7.65283E-06-2.93001E-18-2.19282E-18
 -1      2546 9.32076E-05-1.76187E-05-3.24139E-05-1.14182E-05-3.39118E-18-2.77436E-18
 -1      2547 3.75070E-05-3.02047E-05-2.92302E-06-3.19476E-05 1.56701E-19-4.35375E-19
 -1      2548 5.42288E-05-3.67832E-05-7.49998E-06-4.14337E-05 1.08420E-19 2.69039E-18
 -1      2549 1.45709E-04-1.07735E-05-5.83248E-05-2.27076E-06-4.12674E-18-7.68848E-19
 -1      2550 1.48925E-04-1.47268E-05-5.77646E-05-4.44779E-06-3.98148E-18-5.72383E-19
 -1      2551 7.16340E-05-4.30552E-05-1.22687E-05 4.30412E-05 2.17179E-18-4.44481E-18
 -1      2552 5.04649E-05-3.36295E-05-6.79082E-06 3.71655E-05 2.85916E-18-5.26982E-18
 -1      2553 6.34336E-05-4.14410E-05-9.28118E-06-4.07511E-05 5.47819E-19-3.47665E-18
 -1      2554 8.17441E-05-4.83456E-05-1.43340E-05-4.28712E-05 8.52962E-19-4.56455E-18
 -1      2555 8.78549E-05-1.08057E-05-3.30568E-05-1.52014E-06 2.95484E-19-4.92571E-18
 -1      2556 8.79595E-05-1.09276E-05-3.30479E-05-2.63999E-06-9.66244E-20-4.97801E-18
 -1      2557 8.93587E-05-1.31004E-05-3.26843E-05-2.93421E-06-2.40766E-19-4.62775E-18
 -1      2558 8.91116E-05-1.27660E-05-3.27228E-05-9.42193E-07 3.78836E-19-4.60171E-18
 -1      2559 1.44174E-04-1.23757E-05-5.69520E-05 4.22379E-06 4.86028E-18-1.99349E-18
 -1      2560 1.44507E-04-1.12989E-05-5.75737E-05 3.11693E-07 4.77345E-18-2.36222E-18
 -1      2561 3.14379E-05-2.37122E-05-3.19332E-06 2.81028E-05 2.10530E-18-3.94230E-18
 -1      2562 2.24010E-05-2.00512E-05-7.02465E-07 1.49297E-05 1.27161E-18-3.31613E-18
 -1      2563 1.46865E-04-1.46402E-05-5.72071E-05-3.72155E-06 4.31309E-18-3.50799E-18
 -1      2564 1.47091E-04-1.96999E-05-5.49680E-05-5.86158E-06 3.57660E-18-3.39745E-18
 -1      2565 1.48291E-04-2.64506E-05-5.24947E-05 7.33499E-06 3.47411E-18-1.32794E-18
 -1      2566 1.47776E-04-1.92463E-05-5.56303E-05 7.26689E-06 4.34104E-18-1.57749E-18
 -1      2567 1.46345E-04-4.59383E-05-4.32221E-05-3.10638E-06 1.45957E-18-2.01467E-18
 -1      2568 1.49966E-04-3.78903E-05-4.85325E-05 2.99092E-06 2.48816E-18-1.79931E-18
 -1      2569 1.32288E-04-5.70975E-05-3.22081E-05-1.93845E-05 5.67724E-19-1.89333E-18
 -1      2570 1.42505E-04-5.36583E-05-3.83892E-05-1.29590E-05 8.54550E-19-2.42188E-18
 -1      2571 9.93744E-05-5.42654E-05-1.92977E-05-3.74357E-05-1.01644E-19-3.06615E-18
 -1      2572 1.17510E-04-5.75489E-05-2.59911E-05-3.26018E-05 6.17699E-19-1.59539E-18
 -1      2573 9.72711E-05-5.32587E-05-1.85572E-05-3.82372E-05-4.20975E-19-2.25687E-18
 -1      2574 3.47102E-05-2.53892E-05-3.61701E-06-2.79505E-05-5.52054E-19-4.61972E-18
 -1      2575 4.70924E-05-3.11940E-05-6.53687E-06-3.67856E-05-6.52215E-20-3.17193E-18
 -1      2576 1.50790E-04-4.00197E-05-4.78208E-05 1.50668E-06-4.23601E-18 1.25467E-18
 -1      2577 1.44900E-04-4.67770E-05-4.21712E-05 6.35841E-06-4.09134E-18 2.13304E-18
 -1      2578 1.88652E-05-1.75797E-05-2.31123E-07 5.95201E-07-4.08164E-20-4.69256E-18
 -1      2579 2.29214E-05-1.96240E-05-1.13901E-06-1.63890E-05-6.34639E-19-4.87129E-18
 -1      2580 3.62960E-05-1.96439E-05-6.51773E-06-2.14419E-05-9.87746E-19-4.63687E-18
 -1      2581 1.09152E-04-5.66787E-05-2.26871E-05 3.66147E-05-1.75336E-19 4.31828E-19
 -1      2582 9.34996E-05-5.22372E-05-1.73936E-05 3.92228E-05 1.38998E-18-1.47513E-18
 -1      2583 1.38813E-04-5.43150E-05-3.63610E-05-1.53958E-05 9.29460E-19 1.05583E-18
 -1      2584 1.46836E-04-4.82951E-05-4.27477E-05-6.82051E-06 7.82791E-19 1.19389E-18
 -1      2585 1.38907E-04-5.50116E-05-3.62238E-05 1.76130E-05-3.73256E-18 2.35729E-18
 -1      2586 1.24481E-04-5.76148E-05-2.86150E-05 2.53969E-05-2.13177E-18 1.44271E-18
 -1      2587 1.50206E-04-2.22633E-05-5.52611E-05-5.74688E-06-4.31224E-18-6.60686E-20
 -1      2588 1.49160E-04-2.95000E-05-5.15446E-05-4.53932E-06-4.17672E-18 7.62753E-19
 -1      2589 1.45500E-04-1.71911E-05-5.53668E-05 5.37255E-06-2.02526E-18-2.15146E-19
 -1      2590 1.43618E-04-1.25827E-05-5.67522E-05 3.11065E-06-3.92388E-18-1.04397E-18
 -1      2591 1.47749E-04-3.55123E-05-4.83158E-05 2.39646E-06-1.72795E-19 7.69318E-19
 -1      2592 1.49376E-04-2.63820E-05-5.32463E-05 4.81867E-06-1.97359E-19 6.36122E-19
 -1      2593 1.38187E-04-2.18273E-05-5.01174E-05 9.24186E-06-1.03762E-18-2.40134E-19
 -1      2594 1.17632E-04-5.85225E-05-2.52072E-05-3.15169E-05 5.23466E-19 1.10411E-18
 -1      2595 1.31621E-04-5.82571E-05-3.16122E-05-2.59477E-05 5.14573E-19 8.08281E-19
 -1      2596 1.37248E-04-5.88180E-05-3.34943E-05-1.36702E-05 9.71811E-19 1.32317E-18
 -1      2597 7.75441E-05-4.73549E-05-1.26271E-05-4.24806E-05 9.81923E-19 3.11322E-18
 -1      2598 9.73878E-05-5.39268E-05-1.88082E-05-4.22259E-05 6.71062E-19 2.28127E-18
 -1      2599 1.49970E-04-3.06024E-05-5.17059E-05-4.64741E-06 3.47051E-18-3.67316E-18
 -1      2600 1.48855E-04-3.96551E-05-4.70006E-05-9.97752E-08 2.43088E-18-2.82613E-18
 -1      2601 9.63229E-05-2.50923E-05-3.05533E-05 7.60115E-06 3.52310E-18 2.45094E-18
 -1      2602 9.74455E-05-2.37759E-05-3.15941E-05 1.07004E-05 3.75527E-18 2.98804E-18
 -1      2603 9.58810E-05-2.13009E-05-3.20188E-05 1.19028E-05 4.08944E-18 1.72339E-18
 -1      2604 9.58696E-05-2.41594E-05-3.07662E-05 7.69369E-06 3.61570E-18 9.34742E-19
 -1      2605 1.29906E-04-5.84225E-05-3.08259E-05 2.73256E-05-4.57821E-19-1.59645E-18
 -1      2606 1.13927E-04-5.80430E-05-2.39541E-05 3.35823E-05-6.75509E-19-4.92761E-19
 -1      2607 1.34895E-04-1.15958E-05-5.31211E-05-2.94661E-06 3.99863E-18-2.39710E-18
 -1      2608 9.08068E-05-1.50434E-05-3.24584E-05-6.81963E-06-1.68790E-18-4.23128E-18
 -1      2609 8.97038E-05-1.31901E-05-3.28447E-05-7.96447E-06-1.86008E-18-4.50160E-18
 -1      2610 9.03335E-05-1.39121E-05-3.28167E-05-9.17922E-06-2.46405E-18-4.27672E-18
 -1      2611 9.47212E-05-2.69363E-05-2.90633E-05 1.89542E-06 2.08826E-18 2.36987E-20
 -1      2612 9.42390E-05-1.90802E-05-3.22561E-05 1.16123E-05 4.03782E-18 1.24924E-19
 -1      2613 1.36451E-04-5.93867E-05-3.29443E-05 1.60705E-05-5.85406E-19-3.08066E-18
 -1      2614 3.86894E-05-2.35320E-05-5.94465E-06-2.63164E-05 1.22185E-19-5.56501E-19
 -1      2615 1.41329E-04-2.55054E-05-4.98341E-05-9.45931E-06 3.13275E-18-3.92833E-18
 -1      2616 1.43811E-04-4.35333E-05-4.30413E-05 3.56686E-06 3.27802E-19 7.70165E-19
 -1      2617 9.66919E-05-2.70072E-05-2.98597E-05 6.04864E-06-4.88894E-19 1.33650E-18
 -1      2618 1.12108E-04-5.82968E-05-2.27821E-05 3.38387E-05-1.84124E-18-6.49674E-19
 -1      2619 9.62419E-05-2.62516E-05-2.99946E-05 6.78050E-06-4.93322E-19 1.40440E-18
 -1      2620 5.23284E-05-2.60032E-05-1.08326E-05 3.07606E-05-5.23360E-19 7.16590E-19
 -1      2621 3.92948E-05-2.35036E-05-6.26064E-06 2.67284E-05 1.94818E-20 1.81456E-18
 -1      2622 3.78767E-05-1.71196E-05-8.34223E-06 1.80084E-05 5.96576E-19-2.64910E-19
 -1      2623 7.70471E-05-4.34592E-05-1.39950E-05 4.08468E-05-1.62884E-18 1.90085E-18
 -1      2624 1.39311E-04-1.69173E-05-5.26138E-05-9.26772E-06-3.84384E-18 3.59883E-19
 -1      2625 1.41545E-04-5.31480E-05-3.78653E-05 6.04113E-06-3.79217E-18 1.82959E-18
 -1      2626 9.47105E-05-2.06024E-05-3.17162E-05 9.67969E-06 3.81149E-18-2.75617E-19
 -1      2627 9.20527E-05-1.62361E-05-3.25328E-05-1.04039E-05-2.95965E-18-3.44590E-18
 -1      2628 1.13330E-04-5.83855E-05-2.32613E-05-3.32680E-05 4.45328E-19 1.50031E-18
 -1      2629 1.35025E-04-1.05404E-05-5.36755E-05 1.45550E-06-3.40444E-18-7.08437E-19
 -1      2630 2.77535E-05-1.55631E-05-4.58890E-06 6.63474E-06 7.87291E-19-3.38601E-18
 -1      2631 1.44411E-04-3.50343E-05-4.69874E-05-7.66919E-06-3.80455E-18 1.66717E-18
 -1      2632 1.27789E-04-5.96677E-05-2.90715E-05-2.21653E-05 2.85874E-20-1.24535E-18
 -1      2633 4.82861E-05-2.75910E-05-8.27950E-06 3.24291E-05 2.81829E-18-4.65868E-18
 -1      2634 1.43106E-04-5.16287E-05-3.92024E-05-9.86558E-07 4.25191E-19-1.53736E-18
 -1      2635 1.43061E-04-3.28398E-05-4.73970E-05 1.02573E-05 2.18884E-18-8.93620E-19
 -1      2636 6.31114E-05-3.63152E-05-1.10522E-05-3.78271E-05-4.63539E-19-3.90037E-18
 -1      2637 8.73154E-05-4.79300E-05-1.64347E-05 3.92334E-05 2.19678E-18-2.49674E-18
 -1      2638 7.21534E-05-4.18502E-05-1.25271E-05-4.12920E-05-2.03711E-19 2.93296E-18
 -1      2639 1.44950E-04-4.60659E-05-4.24117E-05-2.44397E-06 1.00723E-18-3.32227E-18
 -1      2640 1.36350E-04-1.49191E-05-5.23252E-05 8.09564E-06 3.94294E-18-1.20575E-18
 -1      2641 1.22055E-04-5.91803E-05-2.67210E-05 2.60410E-05-3.53319E-19 1.26695E-18
 -1      2642 9.71803E-05-2.75877E-05-2.98010E-05-5.94002E-06-1.06790E-18-2.00787E-18
 -1      2643 9.61508E-05-2.63001E-05-2.99373E-05-6.76701E-06-1.38222E-18-1.73057E-18
 -1      2644 9.64780E-05-2.65859E-05-2.99590E-05-7.99591E-06-2.42405E-18-9.91542E-19
 -1      2645 9.80519E-05-2.81624E-05-2.99498E-05-6.65023E-06-1.39766E-18-1.10645E-18
 -1      2646 9.65468E-05-2.64695E-05-3.00307E-05 8.14416E-06-6.88541E-20 3.24853E-19
 -1      2647 9.78852E-05-2.79807E-05-2.99663E-05-7.92668E-06-1.80009E-18-1.11439E-18
 -1      2648 9.05730E-05-1.51817E-05-3.23328E-05 3.19998E-06 1.74739E-18-3.98418E-18
 -1      2649 9.03839E-05-1.49105E-05-3.23659E-05 2.26485E-06 1.38322E-18-4.18860E-18
 -1      2650 9.02501E-05-1.47079E-05-3.23951E-05 1.42427E-06 1.12334E-18-4.28678E-18
 -1      2651 9.01850E-05-1.46156E-05-3.24063E-05 4.65879E-07 7.41750E-19-4.17372E-18
 -1      2652 9.14369E-05-1.66036E-05-3.20585E-05 1.64404E-06 1.19201E-18-4.01229E-18
 -1      2653 9.21469E-05-1.75557E-05-3.20055E-05 6.48310E-06 2.96811E-18-2.52659E-18
 -1      2654 9.16245E-05-1.67622E-05-3.21062E-05 5.64326E-06 2.64168E-18-2.89447E-18
 -1      2655 9.35615E-05-1.97778E-05-3.16638E-05 7.60658E-06 3.45758E-18-1.75241E-18
 -1      2656 9.27740E-05-1.85248E-05-3.18382E-05 7.02844E-06 3.15740E-18-2.16303E-18
 -1      2657 9.34405E-05-1.98712E-05-3.15070E-05 5.74393E-06 2.87273E-18-2.07020E-18
 -1      2658 9.52107E-05-2.54082E-05-2.99277E-05 3.98960E-06 2.65429E-18-4.90511E-19
 -1      2659 9.55485E-05-2.45589E-05-3.03916E-05 5.62159E-06 2.99664E-18-3.31341E-19
 -1      2660 9.28786E-05-1.80099E-05-3.20736E-05-8.84291E-06-2.69970E-18-3.29199E-18
 -1      2661 3.85584E-05-1.83450E-05-8.09581E-06-2.00505E-05 4.48186E-19-1.00013E-18
 -1      2662 4.91628E-05-2.57372E-05-9.76963E-06-3.22550E-05-1.70465E-19 2.08900E-18
 -1      2663 9.47017E-05-2.19070E-05-3.12045E-05 7.85241E-06 3.52522E-18-5.72349E-19
 -1      2664 1.31961E-04-2.09776E-05-4.83315E-05-1.11114E-05 3.25557E-18-3.69068E-18
 -1      2665 1.36196E-04-3.06033E-05-4.55243E-05-1.26633E-05 2.36926E-18-4.15088E-18
 -1      2666 9.54054E-05-2.59403E-05-2.97300E-05-2.69821E-06-1.77293E-18-2.00609E-18
 -1      2667 9.51968E-05-2.65054E-05-2.94535E-05-1.73276E-06-1.65382E-18-1.97429E-18
 -1      2668 9.52107E-05-2.70045E-05-2.92076E-05-9.91346E-07-1.47709E-18-1.85225E-18
 -1      2669 9.50768E-05-2.73593E-05-2.90281E-05-3.87678E-07-1.30780E-18-1.90812E-18
 -1      2670 9.54187E-05-2.63331E-05-2.96130E-05-1.63730E-06-1.54134E-18-2.05214E-18
 -1      2671 9.50446E-05-2.76643E-05-2.88612E-05 7.93658E-08-1.25084E-18-1.62410E-18
 -1      2672 9.49669E-05-2.78877E-05-2.87511E-05 4.30990E-07-1.00159E-18-1.57779E-18
 -1      2673 9.54159E-05-2.73251E-05-2.91891E-05-3.52511E-07-1.16449E-18-1.88897E-18
 -1      2674 9.49252E-05-2.80716E-05-2.86413E-05 7.01514E-07-9.01485E-19-1.46954E-18
 -1      2675 9.48973E-05-2.82166E-05-2.85783E-05 8.86587E-07-8.62530E-19-1.67038E-18
 -1      2676 9.53559E-05-2.79374E-05-2.89004E-05 4.38434E-07-9.82032E-19-1.76203E-18
 -1      2677 9.48628E-05-2.83263E-05-2.85096E-05 1.02363E-06-9.01189E-19-1.63743E-18
 -1      2678 9.48708E-05-2.84208E-05-2.84784E-05 1.10235E-06-9.23134E-19-1.76969E-18
 -1      2679 9.52924E-05-2.83136E-05-2.87107E-05 8.84653E-07-9.65103E-19-1.93826E-18
 -1      2680 9.48472E-05-2.84828E-05-2.84387E-05 1.15316E-06-9.43805E-19-1.64592E-18
 -1      2681 9.48782E-05-2.85427E-05-2.84286E-05 1.16724E-06-9.53899E-19-1.82308E-18
 -1      2682 9.52441E-05-2.85384E-05-2.85923E-05 1.09923E-06-9.08883E-19-1.94726E-18
 -1      2683 9.48645E-05-2.85729E-05-2.84094E-05 1.16644E-06-9.56696E-19-1.88338E-18
 -1      2684 9.49089E-05-2.86082E-05-2.84133E-05 1.14506E-06-1.01555E-18-1.62479E-18
 -1      2685 9.52139E-05-2.86626E-05-2.85251E-05 1.16720E-06-9.65876E-19-1.65793E-18
 -1      2686 9.49031E-05-2.86166E-05-2.84085E-05 1.11781E-06-8.14423E-19-1.10963E-18
 -1      2687 9.49545E-05-2.86338E-05-2.84215E-05 1.08164E-06-4.74285E-19-8.96814E-19
 -1      2688 9.51992E-05-2.87179E-05-2.84942E-05 1.15101E-06-6.49555E-19-1.14268E-18
 -1      2689 9.49544E-05-2.86266E-05-2.84270E-05 1.04623E-06-5.75039E-19-8.25685E-19
 -1      2690 9.50094E-05-2.86301E-05-2.84464E-05 1.01018E-06-3.57914E-19-1.07243E-18
 -1      2691 9.51963E-05-2.87249E-05-2.84894E-05 1.09621E-06-5.43663E-19-7.49685E-19
 -1      2692 9.50136E-05-2.86114E-05-2.84594E-05 9.80134E-07-3.95612E-19-1.57419E-18
 -1      2693 9.50709E-05-2.86043E-05-2.84834E-05 9.55299E-07-4.49881E-19-1.92175E-18
 -1      2694 9.52020E-05-2.86966E-05-2.85036E-05 1.03624E-06-8.09178E-19-1.12381E-18
 -1      2695 9.50783E-05-2.85764E-05-2.85025E-05 9.40946E-07-5.03863E-19-2.12853E-18
 -1      2696 9.51383E-05-2.85610E-05-2.85305E-05 9.36003E-07-7.01739E-19-2.08398E-18
 -1      2697 9.52141E-05-2.86413E-05-2.85322E-05 9.96214E-07-6.34640E-19-1.55498E-18
 -1      2698 9.51484E-05-2.85251E-05-2.85547E-05 9.45697E-07-7.35783E-19-1.69329E-18
 -1      2699 9.52130E-05-2.85028E-05-2.85870E-05 9.67912E-07-6.18755E-19-1.81807E-18
 -1      2700 9.52313E-05-2.85641E-05-2.85726E-05 9.95761E-07-6.15501E-19-1.41625E-18
 -1      2701 9.52257E-05-2.84594E-05-2.86162E-05 1.00889E-06-6.76242E-19-1.69045E-18
 -1      2702 9.52979E-05-2.84314E-05-2.86534E-05 1.06480E-06-7.36098E-19-1.62980E-18
 -1      2703 9.52532E-05-2.84671E-05-2.86234E-05 1.05119E-06-8.88737E-19-1.17438E-18
 -1      2704 9.53132E-05-2.83806E-05-2.86877E-05 1.14377E-06-9.66750E-19-1.63461E-18
 -1      2705 9.53969E-05-2.83479E-05-2.87309E-05 1.23960E-06-8.85262E-19-1.48785E-18
 -1      2706 9.52798E-05-2.83514E-05-2.86844E-05 1.17697E-06-9.31940E-19-1.16637E-18
 -1      2707 9.54155E-05-2.82898E-05-2.87707E-05 1.36304E-06-6.16035E-19-1.32667E-18
 -1      2708 9.55156E-05-2.82540E-05-2.88211E-05 1.50479E-06-5.70903E-19-1.54784E-18
 -1      2709 9.53120E-05-2.82173E-05-2.87558E-05 1.38670E-06-7.04456E-19-8.26277E-19
 -1      2710 9.55385E-05-2.81891E-05-2.88668E-05 1.67898E-06-6.76009E-19-1.32834E-18
 -1      2711 9.56607E-05-2.81526E-05-2.89258E-05 1.87218E-06-4.10436E-19-1.61760E-18
 -1      2712 9.53516E-05-2.80656E-05-2.88378E-05 1.69337E-06-4.50283E-19-1.05044E-18
 -1      2713 9.56895E-05-2.80825E-05-2.89775E-05 2.10283E-06-2.53745E-19-1.39565E-18
 -1      2714 9.58408E-05-2.80496E-05-2.90461E-05 2.35182E-06 3.06379E-19-1.63408E-18
 -1      2715 9.54013E-05-2.78990E-05-2.89306E-05 2.10911E-06-2.59887E-19-8.88459E-19
 -1      2716 9.58788E-05-2.79787E-05-2.91034E-05 2.64331E-06 5.83830E-19-2.01290E-18
 -1      2717 9.60672E-05-2.79565E-05-2.91821E-05 2.94999E-06 4.64177E-19-2.34176E-18
 -1      2718 9.54662E-05-2.77245E-05-2.90333E-05 2.64402E-06 1.14182E-19-1.06397E-18
 -1      2719 9.61202E-05-2.78930E-05-2.92437E-05 3.30402E-06 5.47704E-19-2.24198E-18
 -1      2720 9.63561E-05-2.78938E-05-2.93321E-05 3.66572E-06 5.05559E-19-2.50012E-18
 -1      2721 9.55553E-05-2.75567E-05-2.91435E-05 3.30423E-06 4.44798E-19-1.91916E-18
 -1      2722 9.64348E-05-2.78528E-05-2.93955E-05 4.07934E-06 2.79939E-19-2.38480E-18
 -1      2723 9.67320E-05-2.78961E-05-2.94917E-05 4.48565E-06 2.92610E-19-2.46109E-18
 -1      2724 9.56848E-05-2.74223E-05-2.92570E-05 4.08865E-06 7.00713E-19-2.69708E-18
 -1      2725 9.68553E-05-2.79034E-05-2.95530E-05 4.94818E-06-1.16620E-19-2.82248E-18
 -1      2726 9.72333E-05-2.80201E-05-2.96535E-05 5.37649E-06-3.80728E-19-3.19328E-18
 -1      2727 9.58837E-05-2.73676E-05-2.93665E-05 4.98439E-06-2.18466E-19-2.15327E-18
 -1      2728 9.74345E-05-2.81169E-05-2.97075E-05 5.86522E-06-3.54013E-19-3.26086E-18
 -1      2729 9.79219E-05-2.83535E-05-2.98067E-05 6.27458E-06-2.47699E-19-3.20806E-18
 -1      2730 9.62029E-05-2.74679E-05-2.94623E-05 5.96014E-06-5.05194E-19-2.49338E-18
 -1      2731 9.82564E-05-2.86021E-05-2.98475E-05 6.74837E-06 1.92272E-19-2.95451E-18
 -1      2732 9.88945E-05-2.90234E-05-2.99389E-05 7.07179E-06 8.58996E-19-2.91972E-18
 -1      2733 9.67287E-05-2.78388E-05-2.95324E-05 6.95672E-06-6.53317E-20-1.80585E-18
 -1      2734 9.94496E-05-2.95100E-05-2.99623E-05 7.46159E-06 9.58277E-19-2.89022E-18
 -1      2735 1.00294E-04-3.01969E-05-3.00406E-05 7.59746E-06 4.65424E-19-2.93760E-18
 -1      2736 9.76005E-05-2.86466E-05-2.95665E-05 7.87306E-06 8.99251E-19-2.41168E-18
 -1      2737 1.01196E-04-3.10260E-05-3.00491E-05 7.79160E-06 6.79542E-19-2.76588E-18
 -1      2738 1.02309E-04-3.20566E-05-3.01154E-05 7.59651E-06 6.95310E-19-2.50064E-18
 -1      2739 9.90278E-05-3.01068E-05-2.95635E-05 8.54417E-06 7.58395E-19-2.35176E-18
 -1      2740 1.03711E-04-3.33206E-05-3.01274E-05 7.41924E-06 4.97094E-19-2.11670E-18
 -1      2741 1.05129E-04-3.47155E-05-3.01979E-05 6.70945E-06 3.79193E-19-1.95954E-18
 -1      2742 1.01292E-04-3.24493E-05-2.95459E-05 8.70524E-06 6.01547E-19-2.57863E-18
 -1      2743 1.07161E-04-3.64138E-05-3.02620E-05 5.90287E-06 1.20523E-18-1.43700E-18
 -1      2744 1.08815E-04-3.80247E-05-3.03804E-05 4.48630E-06 9.59118E-19-4.22099E-19
 -1      2745 1.04693E-04-3.57984E-05-2.95853E-05 7.94125E-06 1.06081E-18-1.16033E-18
 -1      2746 1.11450E-04-3.99099E-05-3.05936E-05 2.72857E-06 2.02520E-19-4.39977E-20
 -1      2747 1.13044E-04-4.12403E-05-3.08387E-05 5.05255E-07-3.33748E-19 3.74713E-20
 -1      2748 1.09364E-04-3.99067E-05-2.98379E-05 5.66778E-06 9.19906E-19-5.38878E-19
 -1      2749 1.15847E-04-4.25941E-05-3.13507E-05-2.43791E-06-8.05582E-19 8.80009E-19
 -1      2750 1.16784E-04-4.26440E-05-3.18253E-05-5.24939E-06-6.49108E-19 1.26131E-18
 -1      2751 1.14922E-04-4.37224E-05-3.05779E-05 1.22825E-06 5.90412E-19 7.33077E-19
 -1      2752 1.18589E-04-4.22129E-05-3.27841E-05-8.79974E-06-6.59167E-19 1.70801E-18
 -1      2753 1.18280E-04-4.00425E-05-3.35498E-05-1.12282E-05-3.75351E-19 2.01997E-18
 -1      2754 1.19704E-04-4.46296E-05-3.21629E-05-5.45632E-06-4.80122E-19 2.95458E-18
 -1      2755 1.17810E-04-3.66188E-05-3.49985E-05-1.40597E-05-6.87314E-19 2.13869E-18
 -1      2756 1.15917E-04-3.19730E-05-3.59501E-05-1.43053E-05-1.10792E-18 2.19015E-18
 -1      2757 1.21644E-04-4.07099E-05-3.47534E-05-1.23749E-05-4.89453E-19 3.09538E-18
 -1      2758 1.13500E-04-2.69051E-05-3.74263E-05-1.32272E-05-1.99603E-18 1.12149E-18
 -1      2759 1.11455E-04-2.24180E-05-3.81766E-05-1.03517E-05-1.96369E-18 1.28723E-18
 -1      2760 1.18563E-04-2.96538E-05-3.81883E-05-1.51284E-05-2.37074E-18 1.87321E-18
 -1      2761 1.09531E-04-1.92030E-05-3.89506E-05-4.89061E-06-1.58136E-18 7.21857E-19
 -1      2762 1.09280E-04-1.85576E-05-3.90409E-05 9.38181E-08-9.45818E-19 1.02478E-18
 -1      2763 1.14069E-04-1.90727E-05-4.08574E-05-8.82454E-06-2.20324E-18-2.78462E-19
 -1      2764 1.10183E-04-2.03580E-05-3.85806E-05 6.18363E-06-1.15429E-18 3.02665E-19
 -1      2765 1.11969E-04-2.40782E-05-3.79421E-05 1.00625E-05-1.97578E-18-2.22475E-19
 -1      2766 1.13190E-04-1.75926E-05-4.12086E-05 3.42662E-06-2.02923E-18-1.01447E-18
 -1      2767 1.14539E-04-2.92611E-05-3.65395E-05 1.23006E-05-1.85802E-18-6.23946E-19
 -1      2768 1.16571E-04-3.41542E-05-3.55588E-05 1.28347E-05-1.00362E-18-3.46125E-20
 -1      2769 1.17318E-04-2.66974E-05-3.89701E-05 1.23166E-05-1.80212E-18-6.11081E-19
 -1      2770 1.17677E-04-3.83241E-05-3.40164E-05 1.09324E-05-3.46602E-19 2.98994E-19
 -1      2771 1.18448E-04-4.13318E-05-3.31350E-05 8.82956E-06 8.25195E-21 1.06442E-18
 -1      2772 1.21036E-04-3.79992E-05-3.56296E-05 1.21501E-05-6.18983E-19 7.27985E-19
 -1      2773 1.17120E-04-4.25682E-05-3.20038E-05 5.13377E-06 3.25767E-19 1.32292E-18
 -1      2774 1.16379E-04-4.30430E-05-3.14119E-05 2.20280E-06 1.18420E-18 1.15449E-18
 -1      2775 1.20647E-04-4.44577E-05-3.26429E-05 5.58868E-06 3.07519E-19 4.50304E-19
 -1      2776 1.13715E-04-4.20533E-05-3.07703E-05-1.10733E-06 1.10249E-18 7.73543E-19
 -1      2777 1.12087E-04-4.09114E-05-3.04411E-05-3.63998E-06 6.35629E-19 1.01646E-18
 -1      2778 1.16337E-04-4.46778E-05-3.07354E-05-1.66336E-06 5.95559E-19 1.56353E-18
 -1      2779 1.09317E-04-3.90410E-05-3.01616E-05-5.79600E-06 5.31664E-19 1.48473E-18
 -1      2780 1.07489E-04-3.73480E-05-2.99997E-05-7.51564E-06 2.06192E-18 1.92064E-18
 -1      2781 1.10708E-04-4.13127E-05-2.97927E-05-6.95096E-06 1.16362E-18 2.39725E-18
 -1      2782 1.05210E-04-3.54478E-05-2.99244E-05-8.60725E-06 2.89614E-18 9.60408E-19
 -1      2783 1.03547E-04-3.37990E-05-2.98453E-05-9.50566E-06 3.05240E-18 1.10815E-18
 -1      2784 1.05614E-04-3.69821E-05-2.94697E-05-9.91665E-06 1.87891E-18 2.17602E-18
 -1      2785 1.01881E-04-3.22218E-05-2.98669E-05-9.80385E-06 2.36296E-18 6.72934E-19
 -1      2786 1.00495E-04-3.08316E-05-2.98234E-05-1.00281E-05 2.06898E-18 1.64577E-19
 -1      2787 1.01691E-04-3.30300E-05-2.94665E-05-1.10551E-05 2.24330E-18 4.16351E-19
 -1      2788 9.93178E-05-2.95944E-05-2.98868E-05-9.77218E-06 1.42958E-18-6.96825E-19
 -1      2789 9.82081E-05-2.84811E-05-2.98631E-05-9.44848E-06-4.11169E-19-1.43706E-18
 -1      2790 9.88919E-05-2.98572E-05-2.96101E-05-1.09242E-05 8.14470E-19 4.85998E-20
 -1      2791 9.44682E-05-2.81229E-05-2.84334E-05-8.84153E-07 9.21546E-19-1.16300E-18
 -1      2792 9.44846E-05-2.79970E-05-2.84835E-05-7.06945E-07 9.86405E-19-9.84134E-19
 -1      2793 9.60408E-05-2.61655E-05-2.99394E-05 1.00031E-05-2.47854E-19-1.50881E-18
 -1      2794 9.73064E-05-2.73360E-05-2.99663E-05 8.98448E-06-3.16335E-19-6.82333E-20
 -1      2795 9.83434E-05-2.82388E-05-3.00434E-05 9.69529E-06 3.02097E-19 1.69713E-20
 -1      2796 9.45446E-05-2.78469E-05-2.85856E-05-4.29851E-07 1.05799E-18-1.00224E-18
 -1      2797 9.46334E-05-2.76611E-05-2.86840E-05-8.54898E-08 1.20105E-18-7.93220E-19
 -1      2798 9.50039E-05-2.79071E-05-2.87641E-05-4.41202E-07 1.21476E-18-1.41071E-18
 -1      2799 9.45140E-05-2.84192E-05-2.83252E-05-1.15418E-06 4.32148E-19-6.40074E-19
 -1      2800 9.44548E-05-2.83579E-05-2.83241E-05-1.14484E-06 6.62684E-19-7.38488E-19
 -1      2801 9.45928E-05-2.84921E-05-2.83275E-05-1.12609E-06 6.44242E-19-7.52143E-19
 -1      2802 9.45191E-05-2.84504E-05-2.83141E-05-1.15131E-06 5.04324E-19-6.32745E-19
 -1      2803 9.48973E-05-2.85536E-05-2.84362E-05-1.18178E-06 6.41033E-19-7.27746E-19
 -1      2804 9.46883E-05-2.85333E-05-2.83506E-05-1.05599E-06 5.52918E-19-8.03908E-19
 -1      2805 9.46086E-05-2.85064E-05-2.83298E-05-1.09587E-06 6.26509E-19-7.78694E-19
 -1      2806 9.49237E-05-2.86160E-05-2.84198E-05-1.15930E-06 6.39321E-19-1.16861E-18
 -1      2807 9.47924E-05-2.85508E-05-2.83875E-05-9.76277E-07 6.58320E-19-9.47491E-19
 -1      2808 9.47111E-05-2.85355E-05-2.83620E-05-1.01664E-06 6.86888E-19-7.27345E-19
 -1      2809 9.49654E-05-2.86388E-05-2.84273E-05-1.09590E-06 7.20702E-19-1.11353E-18
 -1      2810 9.49012E-05-2.85502E-05-2.84341E-05-9.10747E-07 7.71334E-19-1.03616E-18
 -1      2811 9.48196E-05-2.85439E-05-2.84053E-05-9.41133E-07 7.79026E-19-9.80907E-19
 -1      2812 9.50168E-05-2.86324E-05-2.84516E-05-1.02520E-06 8.16280E-19-1.41826E-18
 -1      2813 9.50146E-05-2.85353E-05-2.84887E-05-8.77639E-07 5.97198E-19-9.61805E-19
 -1      2814 9.49318E-05-2.85361E-05-2.84570E-05-8.89918E-07 7.30990E-19-8.53293E-19
 -1      2815 9.50747E-05-2.86037E-05-2.84885E-05-9.72180E-07 7.05141E-19-8.84524E-19
 -1      2816 9.51354E-05-2.85089E-05-2.85512E-05-8.91902E-07 4.29678E-19-7.26512E-19
 -1      2817 9.50485E-05-2.85152E-05-2.85160E-05-8.79254E-07 5.52017E-19-9.00951E-19
 -1      2818 9.51382E-05-2.85571E-05-2.85357E-05-9.56242E-07 5.09546E-19-1.14084E-18
 -1      2819 9.52686E-05-2.84730E-05-2.86230E-05-9.66818E-07 7.68618E-19-1.05346E-18
 -1      2820 9.51734E-05-2.84834E-05-2.85832E-05-9.23022E-07 5.37596E-19-7.10971E-19
 -1      2821 9.52084E-05-2.84948E-05-2.85925E-05-9.93486E-07 5.03416E-19-9.84519E-19
 -1      2822 9.54212E-05-2.84293E-05-2.87063E-05-1.11511E-06 5.18823E-19-5.14410E-19
 -1      2823 9.53120E-05-2.84423E-05-2.86603E-05-1.03408E-06 6.96966E-19-8.50261E-19
 -1      2824 9.52874E-05-2.84181E-05-2.86594E-05-1.09831E-06 6.15361E-19-1.01422E-18
 -1      2825 9.56019E-05-2.83795E-05-2.88041E-05-1.34953E-06-2.82743E-19-3.40111E-20
 -1      2826 9.54720E-05-2.83934E-05-2.87498E-05-1.22509E-06 3.73665E-19-3.33462E-19
 -1      2827 9.53788E-05-2.83274E-05-2.87376E-05-1.28450E-06 1.90475E-19-5.25238E-19
 -1      2828 9.58210E-05-2.83263E-05-2.89195E-05-1.68287E-06-1.15624E-19-6.67413E-19
 -1      2829 9.56625E-05-2.83390E-05-2.88549E-05-1.50888E-06-1.97055E-19-2.33305E-19
 -1      2830 9.54870E-05-2.82232E-05-2.88289E-05-1.56570E-06 7.07660E-20-4.26383E-19
 -1      2831 9.60903E-05-2.82744E-05-2.90559E-05-2.12723E-06 2.13357E-19-9.31649E-19
 -1      2832 9.58944E-05-2.82823E-05-2.89788E-05-1.89809E-06-1.59793E-19-8.01104E-19
 -1      2833 9.56177E-05-2.81074E-05-2.89347E-05-1.95535E-06 1.70140E-19-9.29322E-19
 -1      2834 9.64237E-05-2.82320E-05-2.92156E-05-2.69236E-06 2.41275E-19-5.27387E-19
 -1      2835 9.61804E-05-2.82294E-05-2.91242E-05-2.40402E-06 4.65882E-19-3.19493E-19
 -1      2836 9.57777E-05-2.79843E-05-2.90563E-05-2.46577E-06 9.31950E-20-6.24579E-19
 -1      2837 9.68380E-05-2.82133E-05-2.94000E-05-3.38246E-06 5.27808E-19-9.44587E-19
 -1      2838 9.65360E-05-2.81914E-05-2.92930E-05-3.03438E-06 4.18562E-19-8.62953E-19
 -1      2839 9.59767E-05-2.78635E-05-2.91936E-05-3.10630E-06 6.05459E-19-1.15418E-19
 -1      2840 9.73544E-05-2.82433E-05-2.96076E-05-4.19120E-06 3.36322E-19-2.58177E-19
 -1      2841 9.69808E-05-2.81874E-05-2.94852E-05-3.78935E-06 5.57230E-19-4.75120E-19
 -1      2842 9.62284E-05-2.77634E-05-2.93446E-05-3.88013E-06 3.24142E-19-4.49118E-19
 -1      2843 9.80028E-05-2.83636E-05-2.98338E-05-5.09377E-06-5.38005E-19-2.34611E-19
 -1      2844 9.75417E-05-2.82506E-05-2.96981E-05-4.65538E-06-2.09355E-19 1.51037E-19
 -1      2845 9.65553E-05-2.77180E-05-2.95047E-05-4.77929E-06-3.90777E-20 1.03466E-19
 -1      2846 9.88276E-05-2.86419E-05-3.00691E-05-6.03534E-06-7.09361E-20-8.08854E-19
 -1      2847 9.82588E-05-2.84355E-05-2.99247E-05-5.59566E-06-1.45596E-19-7.42964E-19
 -1      2848 9.69948E-05-2.77850E-05-2.96656E-05-5.77716E-06-8.41718E-20-1.98600E-19
 -1      2849 9.98981E-05-2.91819E-05-3.02994E-05-6.91494E-06-6.22842E-19-4.35584E-19
 -1      2850 9.91941E-05-2.88286E-05-3.01540E-05-6.53634E-06-2.87428E-19-7.00202E-19
 -1      2851 9.76118E-05-2.80589E-05-2.98151E-05-6.81767E-06-2.08161E-19-6.49812E-19
 -1      2852 1.01320E-04-3.01306E-05-3.05081E-05-7.56460E-06-6.75623E-19-3.67524E-19
 -1      2853 1.00444E-04-2.95585E-05-3.03712E-05-7.34721E-06-1.71316E-19-2.06158E-19
 -1      2854 9.85148E-05-2.86838E-05-2.99393E-05-7.79962E-06-7.46046E-19 3.36486E-20
 -1      2855 1.03240E-04-3.16674E-05-3.06824E-05-7.72578E-06-1.23537E-18-6.56149E-20
 -1      2856 1.02151E-04-3.07969E-05-3.05625E-05-7.81669E-06-1.29361E-18-4.66230E-19
 -1      2857 9.98759E-05-2.98607E-05-3.00270E-05-8.55431E-06-7.81142E-19 2.08269E-19
 -1      2858 1.05824E-04-3.39466E-05-3.08292E-05-7.03114E-06-8.15766E-20-1.35834E-19
 -1      2859 1.04498E-04-3.27293E-05-3.07259E-05-7.62394E-06-6.66061E-19-2.43302E-19
 -1      2860 1.01941E-04-3.18287E-05-3.00824E-05-8.81380E-06-7.23926E-19 2.25421E-19
 -1      2861 1.09164E-04-3.69402E-05-3.10006E-05-5.01759E-06 3.33135E-19 6.54870E-19
 -1      2862 1.07649E-04-3.54536E-05-3.08925E-05-6.32304E-06 4.52036E-19 2.30105E-19
 -1      2863 1.05001E-04-3.47765E-05-3.01476E-05-8.17114E-06-1.53018E-19 3.57989E-19
 -1      2864 1.13054E-04-4.01342E-05-3.13259E-05-1.24132E-06 5.80052E-19 1.51262E-18
 -1      2865 1.11583E-04-3.87469E-05-3.11572E-05-3.38822E-06 2.45877E-19 1.12756E-18
 -1      2866 1.09249E-04-3.86168E-05-3.03383E-05-6.05998E-06 1.05077E-20 7.94840E-19
 -1      2867 1.16684E-04-4.21357E-05-3.20233E-05 4.37185E-06-7.27007E-19 1.90911E-18
 -1      2868 1.15750E-04-4.16741E-05-3.17058E-05 1.55314E-06 6.67235E-19 2.47016E-18
 -1      2869 1.14451E-04-4.25497E-05-3.08830E-05-1.85196E-06-2.17982E-19 2.01145E-18
 -1      2870 1.18485E-04-4.08083E-05-3.33204E-05 1.05788E-05-1.37879E-18 1.35163E-18
 -1      2871 1.18697E-04-4.22820E-05-3.27746E-05 7.97076E-06-1.17530E-18 1.72124E-18
 -1      2872 1.19296E-04-4.45040E-05-3.21151E-05 4.71837E-06-7.07623E-19 1.92296E-18
 -1      2873 1.16703E-04-3.43572E-05-3.53061E-05 1.45072E-05-3.98582E-19 1.62107E-18
 -1      2874 1.18548E-04-3.82336E-05-3.45517E-05 1.38238E-05-1.28675E-18 1.64944E-18
 -1      2875 1.21939E-04-4.19682E-05-3.42655E-05 1.22621E-05-8.33891E-19 7.75617E-19
 -1      2876 1.12441E-04-2.52216E-05-3.73662E-05 1.19698E-05 1.73430E-18 6.38428E-19
 -1      2877 1.14818E-04-2.97751E-05-3.66644E-05 1.44216E-05 7.99086E-19 7.66750E-19
 -1      2878 1.19555E-04-3.23831E-05-3.75588E-05 1.60291E-05 1.09394E-18 8.59791E-19
 -1      2879 1.09352E-04-1.98848E-05-3.84875E-05 2.32186E-06 2.08113E-18 1.21524E-19
 -1      2880 1.10302E-04-2.14935E-05-3.82796E-05 7.32180E-06 2.13823E-18 4.97756E-19
 -1      2881 1.15113E-04-2.22336E-05-4.00048E-05 1.08129E-05 2.18921E-18-6.34745E-19
 -1      2882 1.11104E-04-2.34412E-05-3.78476E-05-8.55137E-06 1.29440E-18-8.07656E-19
 -1      2883 1.09890E-04-2.07131E-05-3.82845E-05-4.18237E-06 2.29136E-18 3.16711E-19
 -1      2884 1.13028E-04-1.80995E-05-4.09055E-05-1.28053E-06 2.03976E-18-1.69082E-19
 -1      2885 1.15718E-04-3.26200E-05-3.58719E-05-1.33233E-05-2.77019E-19-1.68272E-18
 -1      2886 1.13608E-04-2.79275E-05-3.66873E-05-1.20734E-05 6.22066E-19-1.06791E-18
 -1      2887 1.16264E-04-2.48111E-05-3.92761E-05-1.18127E-05 1.27206E-18-1.01469E-18
 -1      2888 1.18411E-04-4.00456E-05-3.36970E-05-1.06136E-05-1.41720E-18-1.75479E-18
 -1      2889 1.17228E-04-3.68008E-05-3.44535E-05-1.22371E-05-1.10912E-18-2.02774E-18
 -1      2890 1.20447E-04-3.58868E-05-3.62646E-05-1.37011E-05-2.95773E-19-2.66905E-18
 -1      2891 1.17274E-04-4.24880E-05-3.20523E-05-4.12489E-06-4.69298E-19-2.10466E-18
 -1      2892 1.17562E-04-4.16829E-05-3.25812E-05-7.04823E-06-1.01736E-18-1.94274E-18
 -1      2893 1.21128E-04-4.33700E-05-3.33512E-05-8.00432E-06-9.35330E-19-2.70426E-18
 -1      2894 1.13501E-04-4.08512E-05-3.10839E-05 2.20737E-06 2.40118E-20-1.62905E-18
 -1      2895 1.14832E-04-4.17632E-05-3.13929E-05-5.48583E-07-1.35833E-19-1.66332E-18
 -1      2896 1.17601E-04-4.44572E-05-3.13903E-05-4.20355E-07-4.23687E-19-2.22062E-18
 -1      2897 1.09039E-04-3.75273E-05-3.05907E-05 6.69294E-06 8.66765E-19-2.08648E-18
 -1      2898 1.10751E-04-3.90988E-05-3.07709E-05 4.72778E-06 7.29229E-19-1.63633E-18
 -1      2899 1.12248E-04-4.15427E-05-3.03682E-05 5.60705E-06 5.11407E-19-2.95508E-18
 -1      2900 1.05029E-04-3.41258E-05-3.03409E-05 9.16537E-06 4.33045E-19-1.18742E-18
 -1      2901 1.06699E-04-3.56949E-05-3.04696E-05 8.07197E-06 5.46038E-19-1.67998E-18
 -1      2902 1.07101E-04-3.73563E-05-2.99539E-05 9.27580E-06 5.87319E-19-2.56295E-18
 -1      2903 1.01842E-04-3.13064E-05-3.01906E-05 9.98959E-06 2.59611E-19 1.43418E-19
 -1      2904 1.03270E-04-3.26073E-05-3.03047E-05 9.64774E-06 8.24075E-19-1.87672E-19
 -1      2905 1.02997E-04-3.34680E-05-2.98465E-05 1.09348E-05 3.84816E-19-1.40657E-18
 -1      2906 9.93470E-05-2.92012E-05-3.00355E-05 9.90465E-06 8.26411E-19-1.54512E-19
 -1      2907 1.00550E-04-3.02661E-05-3.01304E-05 1.01523E-05 4.26190E-19-1.22212E-19
 -1      2908 9.99707E-05-3.05436E-05-2.97967E-05 1.14041E-05 4.66554E-19-9.76746E-19
 -1      2909 9.76584E-05-2.82216E-05-2.97975E-05 1.11779E-05 3.05429E-19-1.66830E-18
 -1      2910 1.21541E-04-6.03987E-05-2.63888E-05 2.70277E-05-1.46314E-18-3.56641E-18
 -1      2911 1.07327E-04-5.52261E-05-2.19670E-05 3.32482E-05-2.37635E-18-9.85926E-19
 -1      2912 8.66851E-05-1.77226E-05-2.95787E-05 5.66711E-07 6.35129E-19-5.12708E-19
 -1      2913 8.68916E-05-1.78966E-05-2.95792E-05 2.54062E-06 1.59682E-18-1.63913E-18
 -1      2914 9.76276E-05-2.78024E-05-2.99219E-05-9.01489E-06-1.39945E-18-1.24734E-18
 -1      2915 9.69832E-05-2.71649E-05-2.99085E-05-8.53697E-06-2.11425E-18-1.16850E-18
 -1      2916 9.71874E-05-2.77375E-05-2.97801E-05-1.01328E-05-6.42048E-19-1.82508E-18
 -1      2917 8.92972E-05-2.00931E-05-2.97016E-05 7.96724E-06 1.40124E-18 1.06690E-18
 -1      2918 9.04402E-05-2.10720E-05-2.97032E-05 9.05440E-06 1.04589E-18 2.81039E-19
 -1      2919 8.72406E-05-1.82079E-05-2.95876E-05-3.66031E-06-3.31853E-19-5.16636E-19
 -1      2920 8.68161E-05-1.78541E-05-2.95855E-05-1.75666E-06-1.27789E-19-5.18579E-19
 -1      2921 8.56613E-05-1.81837E-05-2.88813E-05-6.91226E-07 1.11621E-18-1.67256E-18
 -1      2922 8.74479E-05-1.84256E-05-2.96198E-05 4.70778E-06 7.57770E-19-1.83626E-18
 -1      2923 8.82278E-05-1.90819E-05-2.96224E-05 6.37458E-06 1.50333E-18 2.07674E-19
 -1      2924 8.80780E-05-2.01869E-05-2.90790E-05 7.95523E-06 6.91398E-19-2.52409E-19
 -1      2925 8.61670E-05-1.85976E-05-2.89245E-05 4.02935E-06 9.25714E-19-1.52389E-18
 -1      2926 1.32477E-04-5.97937E-05-3.09532E-05-1.45653E-05 6.48351E-19 1.63710E-18
 -1      2927 1.37404E-04-5.70862E-05-3.49999E-05-6.90066E-06 4.68264E-19 1.79889E-18
 -1      2928 8.88987E-05-1.97058E-05-2.96370E-05-7.09220E-06-4.18203E-19-1.23676E-18
 -1      2929 8.79954E-05-1.89401E-05-2.96366E-05-5.62739E-06-3.38139E-19-2.59817E-21
 -1      2930 8.67096E-05-1.90813E-05-2.89541E-05-5.19557E-06-1.74099E-19-2.58368E-19
 -1      2931 9.12226E-05-2.18349E-05-2.97100E-05-9.29861E-06 9.88663E-19 1.51939E-18
 -1      2932 9.00545E-05-2.08119E-05-2.97156E-05-8.42542E-06 3.91386E-19 1.74133E-19
 -1      2933 8.89385E-05-2.09755E-05-2.91198E-05-8.62459E-06-4.21949E-20-2.68343E-19
 -1      2934 9.36489E-05-2.40820E-05-2.97878E-05-1.00290E-05-5.65021E-19 2.76662E-20
 -1      2935 9.24909E-05-2.30196E-05-2.98012E-05-9.84151E-06 6.32232E-19 5.54725E-19
 -1      2936 9.17721E-05-2.33247E-05-2.93421E-05-1.05256E-05-3.06927E-19 6.50344E-19
 -1      2937 8.93285E-05-4.69569E-05-1.81021E-05 3.91143E-05-2.88383E-18 1.86517E-18
 -1      2938 7.17269E-05-3.68450E-05-1.44788E-05 3.73586E-05-1.45129E-18 9.85946E-19
 -1      2939 3.34070E-05-1.37714E-05-7.86079E-06 3.65146E-06 1.08413E-18-3.07896E-19
 -1      2940 3.36552E-05-1.45406E-05-7.64063E-06-8.70432E-06 1.33397E-18-1.50878E-18
 -1      2941 1.29345E-04-1.36560E-05-5.03572E-05-8.46939E-06-3.60645E-18 8.02881E-19
 -1      2942 1.32433E-04-2.04154E-05-4.83749E-05-1.29189E-05-3.53890E-18 6.60897E-19
 -1      2943 9.44538E-05-2.14309E-05-3.13375E-05-7.66114E-06-2.81370E-18-2.71541E-18
 -1      2944 9.50160E-05-2.31935E-05-3.07359E-05-6.00275E-06-2.41824E-18-2.40099E-18
 -1      2945 9.50447E-05-2.43891E-05-3.02994E-05-4.48098E-06-2.02613E-18-2.27979E-18
 -1      2946 9.30753E-05-1.90569E-05-3.17217E-05-7.06035E-06-2.14134E-18-3.30874E-18
 -1      2947 1.40219E-04-4.97249E-05-3.93402E-05-2.69956E-06-3.58541E-18 1.05381E-18
 -1      2948 1.36049E-04-5.58321E-05-3.43239E-05 5.63078E-06-2.83939E-18 1.40565E-18
 -1      2949 9.16209E-05-4.90456E-05-1.78769E-05-3.72710E-05-5.86253E-19-1.90090E-18
 -1      2950 1.06819E-04-5.57149E-05-2.21006E-05-3.37436E-05-6.58886E-19-1.27777E-18
 -1      2951 9.92760E-05-5.15520E-05-2.06207E-05 3.56852E-05 1.77146E-18-4.96679E-19
 -1      2952 8.15028E-05-4.17372E-05-1.63573E-05 3.70532E-05 3.01004E-18-3.01718E-18
 -1      2953 9.47153E-05-2.74119E-05-2.88472E-05 3.98643E-07 1.43981E-18-8.01713E-19
 -1      2954 9.48965E-05-2.71192E-05-2.90197E-05 1.00352E-06 1.68242E-18-6.73878E-19
 -1      2955 9.51256E-05-2.73801E-05-2.90434E-05 3.85724E-07 1.48081E-18-1.23403E-18
 -1      2956 9.44659E-05-2.83026E-05-2.83548E-05-1.09494E-06 6.73317E-19-1.04004E-18
 -1      2957 9.44346E-05-2.82148E-05-2.83736E-05-1.02252E-06 7.94441E-19-1.11801E-18
 -1      2958 9.49273E-05-2.82338E-05-2.85893E-05-9.00264E-07 8.48996E-19-1.42753E-18
 -1      2959 9.48949E-05-2.84349E-05-2.84875E-05-1.11698E-06 5.63692E-19-9.11241E-19
 -1      2960 9.49710E-05-2.66884E-05-2.92698E-05 1.79255E-06 1.93230E-18-6.37648E-19
 -1      2961 9.52392E-05-2.61916E-05-2.95549E-05 2.80035E-06 2.22537E-18-4.84404E-19
 -1      2962 9.52675E-05-2.50223E-05-3.01026E-05 3.83241E-06 2.53252E-18-1.09072E-18
 -1      2963 9.52496E-05-2.65015E-05-2.94702E-05 1.74648E-06 1.94768E-18-1.24110E-18
 -1      2964 1.38614E-04-5.46401E-05-3.58586E-05-1.07572E-06-2.10911E-19-5.96311E-19
 -1      2965 1.39792E-04-4.83659E-05-3.98864E-05 5.60362E-06 4.84476E-19-2.88626E-19
 -1      2966 1.06010E-04-5.47812E-05-2.13855E-05-3.43529E-05 2.00323E-19 8.47404E-19
 -1      2967 1.21827E-04-6.01677E-05-2.67596E-05-2.63628E-05 5.39878E-19-3.45404E-19
 -1      2968 9.11872E-05-1.60955E-05-3.22101E-05 4.92483E-06 2.44094E-18-3.30054E-18
 -1      2969 9.08464E-05-1.55973E-05-3.22713E-05 4.00142E-06 2.01438E-18-3.67911E-18
 -1      2970 9.18262E-05-1.72092E-05-3.19634E-05 3.20413E-06 1.82392E-18-3.55274E-18
 -1      2971 9.24904E-05-1.82676E-05-3.17900E-05 4.62425E-06 2.33369E-18-2.81815E-18
 -1      2972 1.36995E-04-3.08892E-05-4.62746E-05-1.23672E-05-3.87687E-18 1.12655E-18
 -1      2973 1.40312E-04-4.05048E-05-4.30115E-05-9.16213E-06-3.79090E-18 1.55208E-18
 -1      2974 1.38992E-04-4.87003E-05-3.87455E-05 3.87567E-06 3.49083E-19 1.44176E-18
 -1      2975 1.37408E-04-3.79801E-05-4.33552E-05 9.91114E-06-2.33040E-19 1.65182E-18
 -1      2976 6.01909E-05-2.97093E-05-1.25024E-05-3.37956E-05-9.33483E-19-3.45589E-18
 -1      2977 7.58202E-05-4.04371E-05-1.49443E-05-3.90665E-05-4.54116E-19-3.47305E-18
 -1      2978 8.78780E-05-4.36520E-05-1.85506E-05-3.44433E-05-8.97749E-19-2.11282E-18
 -1      2979 1.38528E-04-3.76780E-05-4.33707E-05 1.22728E-05 1.51524E-18-3.26319E-19
 -1      2980 1.35713E-04-2.79345E-05-4.67832E-05 1.41305E-05 2.27174E-18-3.88153E-19
 -1      2981 5.94846E-05-3.07710E-05-1.23145E-05 3.60346E-05 3.05673E-18-4.85646E-18
 -1      2982 4.37392E-05-2.08580E-05-9.13055E-06 2.59450E-05 2.30562E-18-3.83558E-18
 -1      2983 6.53611E-05-3.47473E-05-1.24758E-05-3.76855E-05-4.12929E-19 2.91760E-18
 -1      2984 8.43924E-05-4.55464E-05-1.68355E-05-4.06791E-05-1.67607E-19 3.35817E-18
 -1      2985 9.08109E-05-1.55484E-05-3.22766E-05-3.93733E-06-6.86089E-19-4.28516E-18
 -1      2986 9.11422E-05-1.60369E-05-3.22168E-05-4.86627E-06-1.07756E-18-4.24982E-18
 -1      2987 3.59252E-05-1.46093E-05-8.44069E-06-1.32933E-05-9.78058E-20-4.85053E-18
 -1      2988 4.50637E-05-2.02726E-05-1.03548E-05-2.56981E-05-2.06041E-19-4.66355E-18
 -1      2989 1.28978E-04-6.00550E-05-2.99492E-05 1.74021E-05-1.11597E-18 1.57400E-18
 -1      2990 1.16248E-04-5.74354E-05-2.48709E-05 2.60896E-05 1.03751E-18 4.13987E-19
 -1      2991 9.61477E-05-2.63455E-05-2.99164E-05-9.09397E-06-2.05178E-18-2.84382E-18
 -1      2992 1.21255E-04-5.93804E-05-2.62222E-05-2.43966E-05-5.16902E-19-9.98070E-19
 -1      2993 1.32397E-04-5.98084E-05-3.16374E-05-1.36931E-05-1.10114E-19-1.02337E-18
 -1      2994 1.16090E-04-5.70289E-05-2.50482E-05-2.52925E-05-4.67986E-19-1.06821E-18
 -1      2995 3.33986E-05-1.48045E-05-7.58623E-06 1.44935E-05 1.71990E-18-2.38355E-18
 -1      2996 3.08018E-05-1.27409E-05-7.30194E-06-7.94179E-07 6.86229E-19-2.82380E-18
 -1      2997 1.33267E-04-2.68480E-05-4.58950E-05 1.28458E-05-5.17008E-19 2.98791E-19
 -1      2998 1.28568E-04-1.87220E-05-4.78380E-05 1.04088E-05-1.67448E-18-6.14575E-19
 -1      2999 1.25697E-04-1.09480E-05-4.97270E-05 4.31277E-06-2.63808E-18-7.07484E-19
 -1      3000 1.27454E-04-1.02360E-05-5.08609E-05-3.22206E-06-3.37416E-18 1.66654E-19
 -1      3001 1.39297E-04-4.19604E-05-4.24788E-05-8.42765E-06 6.53221E-19-3.83155E-18
 -1      3002 1.40357E-04-5.05220E-05-3.85651E-05-2.66615E-06 5.76512E-20-3.82933E-18
 -1      3003 1.30222E-04-1.87516E-05-4.82144E-05 1.26117E-05 3.35213E-18-8.65350E-19
 -1      3004 1.25980E-04-1.25788E-05-4.92944E-05 6.86542E-06 3.82817E-18-7.71197E-19
 -1      3005 1.37470E-04-5.78729E-05-3.46070E-05 7.85286E-06-6.57483E-19-3.53297E-18
 -1      3006 1.30401E-04-6.04599E-05-2.98584E-05 1.74009E-05-1.79687E-18-3.20740E-18
 -1      3007 1.26002E-04-5.92774E-05-2.84805E-05 1.80982E-05-1.82128E-18-4.15576E-18
 -1      3008 1.24943E-04-1.09144E-05-4.95553E-05-7.57175E-07 3.38411E-18-2.06419E-18
 -1      3009 1.27864E-04-1.40750E-05-4.92724E-05-7.57618E-06 3.52853E-18-2.93253E-18
 -1      3010 9.15808E-05-1.66955E-05-3.21155E-05-5.58061E-06-1.38936E-18-4.09019E-18
 -1      3011 9.20591E-05-1.74614E-05-3.20244E-05-6.47407E-06-1.83983E-18-3.94300E-18
 -1      3012 9.24417E-05-1.81986E-05-3.17986E-05-4.55811E-06-1.17187E-18-3.83041E-18
 -1      3013 9.13029E-05-1.63990E-05-3.20896E-05 2.68137E-08 5.48247E-19-3.99467E-18
 -1      3014 9.01814E-05-1.46097E-05-3.24069E-05-3.83090E-07 5.05137E-19-4.25759E-18
 -1      3015 9.02376E-05-1.46918E-05-3.23968E-05-1.34292E-06 1.72556E-19-4.41061E-18
 -1      3016 1.33714E-04-5.72566E-05-3.27883E-05-5.61668E-06-3.83600E-19-5.47395E-19
 -1      3017 1.31495E-04-5.70584E-05-3.18817E-05 7.09082E-06-1.31491E-18 1.34864E-18
 -1      3018 4.38394E-05-1.66464E-05-1.09752E-05-1.45333E-05 4.27566E-19 3.98211E-19
 -1      3019 9.43522E-05-2.14252E-05-3.12587E-05 7.22671E-06 3.44351E-18-1.27035E-18
 -1      3020 1.36599E-04-4.52797E-05-3.91975E-05-8.97268E-06-3.55531E-18 1.70952E-18
 -1      3021 1.24560E-04-1.93590E-05-4.53670E-05-1.00732E-05 2.89833E-18-3.26049E-18
 -1      3022 9.08392E-05-2.24486E-05-2.93104E-05 1.03971E-05 3.84557E-19-4.76773E-19
 -1      3023 9.16945E-05-2.22477E-05-2.98032E-05 9.84181E-06 7.04230E-19-9.95819E-19
 -1      3024 9.29660E-05-2.33601E-05-2.97937E-05 1.03017E-05-1.00897E-19-1.05591E-18
 -1      3025 1.01571E-04-5.02802E-05-2.16940E-05 3.24313E-05-2.17169E-18-2.11652E-19
 -1      3026 1.36267E-04-5.41906E-05-3.52451E-05 3.69141E-07-9.00965E-19-4.58287E-18
 -1      3027 1.36017E-04-5.15376E-05-3.61411E-05 1.95281E-06-2.15835E-19 3.08013E-18
 -1      3028 1.25770E-04-5.89148E-05-2.85768E-05-1.81181E-05 6.24528E-19 1.19887E-18
 -1      3029 9.49158E-05-2.51527E-05-2.99209E-05 1.02421E-05-5.26370E-19-1.59365E-18
 -1      3030 1.27983E-04-2.51157E-05-4.44634E-05 1.38697E-05 2.27100E-18-5.53430E-19
 -1      3031 6.49450E-05-3.07246E-05-1.42337E-05 3.39304E-05-5.83394E-19 2.66074E-19
 -1      3032 5.88123E-05-2.38304E-05-1.46757E-05 2.71855E-05-6.81914E-19 1.01432E-19
 -1      3033 7.70529E-05-3.43320E-05-1.80165E-05 3.21238E-05-1.06843E-18-3.04350E-19
 -1      3034 9.52240E-05-2.53864E-05-2.99329E-05-9.47960E-06-6.57747E-19-1.66989E-18
 -1      3035 1.33628E-04-3.63702E-05-4.17780E-05-1.26917E-05 1.02952E-18-5.45330E-18
 -1      3036 9.46133E-05-2.24691E-05-3.09118E-05 5.70219E-06 3.05994E-18-1.45695E-18
 -1      3037 1.22475E-04-1.63822E-05-4.58852E-05 7.55328E-06-2.07756E-18-4.59251E-19
 -1      3038 1.30678E-04-3.39478E-05-4.16954E-05 1.24712E-05-1.19410E-18 1.24471E-18
 -1      3039 4.04135E-05-1.35521E-05-1.08815E-05-5.99298E-06 1.50031E-18-3.21121E-18
 -1      3040 6.38788E-05-2.98214E-05-1.39823E-05-3.26721E-05-2.88415E-19 2.77435E-18
 -1      3041 1.30367E-04-2.63450E-05-4.47778E-05-1.41029E-05-3.79630E-18 3.48978E-19
 -1      3042 9.50390E-05-2.40683E-05-3.04187E-05-4.15803E-06-1.95474E-18-2.47356E-18
 -1      3043 7.49371E-05-3.52991E-05-1.65091E-05 3.33421E-05 2.82178E-18-3.81790E-18
 -1      3044 5.81378E-05-2.47911E-05-1.38275E-05-2.74419E-05-3.15467E-19-3.96634E-18
 -1      3045 1.10018E-04-5.33485E-05-2.40499E-05 2.64682E-05 1.41751E-18 6.59918E-19
 -1      3046 1.22203E-04-1.34343E-05-4.69855E-05-6.32722E-06-2.68149E-18 3.82038E-19
 -1      3047 4.24842E-05-1.58959E-05-1.07440E-05 1.07461E-05 8.56562E-20-6.11558E-19
 -1      3048 1.35582E-04-4.22399E-05-4.01116E-05 1.21455E-05 6.26434E-19-1.16795E-18
 -1      3049 9.03627E-05-1.48804E-05-3.23691E-05-2.17942E-06-1.35232E-20-4.26621E-18
 -1      3050 9.05464E-05-1.51469E-05-3.23366E-05-3.13311E-06-4.47448E-19-4.24997E-18
 -1      3051 9.17969E-05-1.71680E-05-3.19677E-05-3.13929E-06-5.26082E-19-3.98320E-18
 -1      3052 9.14218E-05-1.65826E-05-3.20605E-05-1.58422E-06 3.44960E-20-4.10486E-18
 -1      3053 9.80477E-05-4.89029E-05-2.06419E-05-3.39767E-05 1.22290E-19 1.20256E-18
 -1      3054 4.55579E-05-1.76674E-05-1.12731E-05 1.91204E-05 2.04643E-18-2.39350E-18
 -1      3055 1.20557E-04-1.40204E-05-4.61003E-05 3.19447E-06 3.15488E-18-8.96290E-19
 -1      3056 9.61063E-05-2.67932E-05-2.96903E-05-1.04151E-05-1.80429E-18-2.48739E-18
 -1      3057 9.46220E-05-2.51503E-05-2.97869E-05-1.02188E-05-9.85209E-19-1.58698E-18
 -1      3058 9.44168E-05-2.56239E-05-2.94876E-05-1.11124E-05-7.25763E-19-1.78076E-18
 -1      3059 9.67174E-05-2.76160E-05-2.96109E-05-1.08647E-05-9.13282E-19-1.49268E-18
 -1      3060 1.30799E-04-3.98943E-05-3.93970E-05-1.31308E-05-3.73743E-18 1.45907E-18
 -1      3061 1.31811E-04-4.70417E-05-3.63850E-05-8.41538E-06-2.75434E-18 1.24622E-18
 -1      3062 9.42797E-05-2.18575E-05-3.10599E-05 4.97468E-06 2.67498E-18-1.74277E-18
 -1      3063 9.38140E-05-2.09114E-05-3.12463E-05 4.63004E-06 2.38552E-18-2.04601E-18
 -1      3064 9.56836E-05-2.68799E-05-2.94734E-05-7.54109E-07-1.11706E-18-2.03548E-18
 -1      3065 9.56608E-05-2.73264E-05-2.92944E-05-2.27845E-07-1.00755E-18-1.99246E-18
 -1      3066 9.57045E-05-2.77096E-05-2.91295E-05 1.54015E-07-9.72865E-19-1.92642E-18
 -1      3067 9.56678E-05-2.79934E-05-2.90079E-05 4.71447E-07-8.90511E-19-1.97635E-18
 -1      3068 9.59047E-05-2.73280E-05-2.93933E-05-1.70408E-07-9.33380E-19-1.88296E-18
 -1      3069 9.56600E-05-2.82285E-05-2.88914E-05 6.96480E-07-9.05093E-19-1.88625E-18
 -1      3070 9.56283E-05-2.84055E-05-2.88118E-05 8.68880E-07-9.45225E-19-1.98162E-18
 -1      3071 9.59457E-05-2.80459E-05-2.91036E-05 4.69983E-07-9.44230E-19-1.90528E-18
 -1      3072 9.55959E-05-2.85421E-05-2.87323E-05 9.83645E-07-8.00251E-19-1.90195E-18
 -1      3073 9.55737E-05-2.86470E-05-2.86833E-05 1.06027E-06-7.74708E-19-1.74602E-18
 -1      3074 9.59113E-05-2.84873E-05-2.88995E-05 8.37140E-07-8.48452E-19-1.85782E-18
 -1      3075 9.55311E-05-2.87172E-05-2.86316E-05 1.10282E-06-8.32739E-19-1.64231E-18
 -1      3076 9.55180E-05-2.87723E-05-2.86047E-05 1.12055E-06-7.20311E-19-1.54491E-18
 -1      3077 9.58417E-05-2.87399E-05-2.87610E-05 1.01584E-06-6.97327E-19-1.83084E-18
 -1      3078 9.54725E-05-2.87971E-05-2.85738E-05 1.12032E-06-6.86497E-19-1.41767E-18
 -1      3079 9.54666E-05-2.88172E-05-2.85628E-05 1.10631E-06-3.47033E-19-1.18206E-18
 -1      3080 9.57579E-05-2.88623E-05-2.86721E-05 1.07452E-06-4.85181E-19-1.55090E-18
 -1      3081 9.54217E-05-2.88103E-05-2.85475E-05 1.08550E-06-3.94069E-19-1.05946E-18
 -1      3082 9.54213E-05-2.88051E-05-2.85480E-05 1.05969E-06-6.31180E-19-1.14028E-18
 -1      3083 9.56708E-05-2.88938E-05-2.86208E-05 1.06586E-06-3.49443E-19-1.36786E-18
 -1      3084 9.53781E-05-2.87755E-05-2.85445E-05 1.03493E-06-8.72775E-19-8.39314E-19
 -1      3085 9.53817E-05-2.87515E-05-2.85537E-05 1.01215E-06-7.90601E-19-1.02611E-18
 -1      3086 9.55851E-05-2.88607E-05-2.85978E-05 1.02966E-06-5.66341E-19-1.03894E-18
 -1      3087 9.53400E-05-2.87045E-05-2.85593E-05 9.96067E-07-8.12924E-19-1.05912E-18
 -1      3088 9.53467E-05-2.86656E-05-2.85752E-05 9.87643E-07-7.49554E-19-1.10915E-18
 -1      3089 9.55019E-05-2.87798E-05-2.85964E-05 9.95998E-07-7.60955E-19-8.72687E-19
 -1      3090 9.53055E-05-2.86042E-05-2.85879E-05 9.90170E-07-6.28977E-19-1.12579E-18
 -1      3091 9.53147E-05-2.85527E-05-2.86095E-05 1.00521E-06-4.19374E-19-9.52599E-19
 -1      3092 9.54201E-05-2.86611E-05-2.86119E-05 9.88048E-07-6.74614E-19-1.27248E-18
 -1      3093 9.52720E-05-2.84780E-05-2.86282E-05 1.03458E-06-6.61660E-19-1.19873E-18
 -1      3094 9.52836E-05-2.84148E-05-2.86549E-05 1.08085E-06-9.58622E-19-1.19395E-18
 -1      3095 9.53369E-05-2.85096E-05-2.86409E-05 1.02444E-06-7.25145E-19-1.13799E-18
 -1      3096 9.52373E-05-2.83267E-05-2.86786E-05 1.14437E-06-1.15274E-18-9.37769E-19
 -1      3097 9.52514E-05-2.82523E-05-2.87104E-05 1.22892E-06-9.45779E-19-8.43591E-19
 -1      3098 9.52484E-05-2.83271E-05-2.86809E-05 1.12102E-06-7.45520E-19-1.08622E-18
 -1      3099 9.51987E-05-2.81500E-05-2.87383E-05 1.33346E-06-8.57056E-19-5.82058E-19
 -1      3100 9.52159E-05-2.80645E-05-2.87752E-05 1.46294E-06-7.97221E-19-5.56757E-19
 -1      3101 9.51496E-05-2.81129E-05-2.87300E-05 1.29209E-06-8.68605E-19-4.68908E-19
 -1      3102 9.51541E-05-2.79474E-05-2.88066E-05 1.61514E-06-5.96528E-19-7.20323E-19
 -1      3103 9.51754E-05-2.78516E-05-2.88484E-05 1.79584E-06-2.65013E-19-8.31722E-19
 -1      3104 9.50354E-05-2.78659E-05-2.87866E-05 1.55118E-06-8.42242E-19-3.68073E-19
 -1      3105 9.51018E-05-2.77198E-05-2.88824E-05 2.00214E-06-1.75892E-19-1.00135E-18
 -1      3106 9.51290E-05-2.76163E-05-2.89288E-05 2.23964E-06-8.33079E-21-8.29779E-19
 -1      3107 9.49003E-05-2.75860E-05-2.88483E-05 1.91128E-06-2.98635E-19-8.88892E-19
 -1      3108 9.50421E-05-2.74722E-05-2.89636E-05 2.50595E-06-1.53934E-19-6.31826E-19
 -1      3109 9.50784E-05-2.73662E-05-2.90136E-05 2.80440E-06-4.79950E-20-1.11697E-18
 -1      3110 9.47404E-05-2.72762E-05-2.89121E-05 2.38455E-06-5.20942E-21-9.54534E-19
 -1      3111 9.49787E-05-2.72163E-05-2.90467E-05 3.13561E-06 3.24531E-20-1.11171E-18
 -1      3112 9.50301E-05-2.71182E-05-2.90984E-05 3.49658E-06 5.13411E-19-1.57370E-18
 -1      3113 9.45542E-05-2.69463E-05-2.89734E-05 2.98161E-06-8.78669E-21-4.96519E-19
 -1      3114 9.49222E-05-2.69755E-05-2.91261E-05 3.89572E-06 8.91920E-19-2.07409E-18
 -1      3115 9.49996E-05-2.69040E-05-2.91764E-05 4.31652E-06 7.93507E-19-1.90093E-18
 -1      3116 9.43467E-05-2.66173E-05-2.90252E-05 3.71044E-06 5.00001E-19-1.30425E-18
 -1      3117 9.48960E-05-2.67918E-05-2.91935E-05 4.78372E-06-2.61609E-20-1.68942E-18
 -1      3118 9.50188E-05-2.67779E-05-2.92377E-05 5.25496E-06-4.87511E-19-1.51941E-18
 -1      3119 9.41338E-05-2.63282E-05-2.90581E-05 4.57493E-06 6.06943E-19-1.80886E-18
 -1      3120 9.49452E-05-2.67358E-05-2.92377E-05 5.78610E-06-5.01739E-19-1.44267E-18
 -1      3121 9.51474E-05-2.68286E-05-2.92700E-05 6.28854E-06-1.72267E-19-1.12508E-18
 -1      3122 9.39521E-05-2.61455E-05-2.90596E-05 5.57328E-06-2.97937E-19-1.44602E-18
 -1      3123 9.51516E-05-2.69184E-05-2.92454E-05 6.87300E-06-3.16078E-19-1.01414E-18
 -1      3124 9.54898E-05-2.71920E-05-2.92594E-05 7.37292E-06-1.94157E-19-1.23169E-18
 -1      3125 9.38718E-05-2.61760E-05-2.90149E-05 6.69579E-06-1.46550E-19-8.82126E-19
 -1      3126 9.56545E-05-2.75057E-05-2.92039E-05 7.98942E-06 4.65239E-19-1.32917E-18
 -1      3127 9.62179E-05-2.80642E-05-2.91957E-05 8.43159E-06 8.47390E-19-1.16747E-18
 -1      3128 9.40180E-05-2.65822E-05-2.89091E-05 7.92091E-06 4.19906E-20-1.38343E-18
 -1      3129 9.66764E-05-2.87288E-05-2.91080E-05 9.03843E-06 9.43694E-19-1.63694E-18
 -1      3130 9.75940E-05-2.97041E-05-2.90810E-05 9.33408E-06 7.84805E-19-1.80692E-18
 -1      3131 9.45988E-05-2.75979E-05-2.87334E-05 9.20482E-06 5.73168E-19-1.24333E-18
 -1      3132 9.85482E-05-3.08756E-05-2.89733E-05 9.84644E-06 5.44134E-19-1.81419E-18
 -1      3133 9.99810E-05-3.24030E-05-2.89484E-05 9.85230E-06 3.87001E-19-1.93772E-18
 -1      3134 9.59404E-05-2.95334E-05-2.84969E-05 1.04540E-05 6.53043E-19-1.07200E-18
 -1      3135 1.01708E-04-3.42319E-05-2.88616E-05 1.00890E-05 9.33727E-19-1.67226E-18
 -1      3136 1.03793E-04-3.63647E-05-2.88927E-05 9.57626E-06 1.68190E-18-1.02224E-18
 -1      3137 9.85172E-05-3.27490E-05-2.82503E-05 1.14582E-05 9.81601E-19-1.60307E-18
 -1      3138 1.06582E-04-3.88690E-05-2.89242E-05 9.16544E-06 1.51145E-18-1.02612E-18
 -1      3139 1.09303E-04-4.13938E-05-2.91216E-05 7.81223E-06 1.26308E-18-5.85713E-19
 -1      3140 1.02934E-04-3.75045E-05-2.81307E-05 1.17291E-05 1.86290E-18-1.61770E-18
 -1      3141 1.13209E-04-4.41722E-05-2.94700E-05 6.18200E-06 1.35798E-18 7.17093E-19
 -1      3142 1.16153E-04-4.62626E-05-3.00137E-05 3.70457E-06 1.00175E-18 1.68647E-18
 -1      3143 1.09536E-04-4.34741E-05-2.84262E-05 1.03550E-05 2.11244E-18-4.68760E-19
 -1      3144 1.20824E-04-4.83446E-05-3.10065E-05 3.22667E-09 4.34018E-19 1.75162E-18
 -1      3145 1.22854E-04-4.78590E-05-3.20950E-05-3.65335E-06-1.75901E-19 2.90507E-18
 -1      3146 1.18316E-04-4.93532E-05-2.97573E-05 5.76496E-06 6.58978E-19 1.25214E-18
 -1      3147 1.24896E-04-4.41722E-05-3.48014E-05-1.05480E-05-1.17237E-18 3.32431E-18
 -1      3148 1.24251E-04-3.89879E-05-3.65297E-05-1.35137E-05-2.06705E-18 2.46432E-18
 -1      3149 1.19419E-04-2.05644E-05-4.30426E-05-1.27388E-05-2.96901E-18-1.43228E-19
 -1      3150 1.17355E-04-1.52828E-05-4.40992E-05-7.45192E-06-2.41807E-18 3.60518E-20
 -1      3151 1.15579E-04-1.32900E-05-4.43444E-05-1.00619E-06-2.03034E-18-1.77281E-19
 -1      3152 1.16475E-04-1.51710E-05-4.38616E-05 5.15663E-06-2.26168E-18-8.77314E-19
 -1      3153 1.19428E-04-2.13676E-05-4.22526E-05 1.18338E-05-2.30366E-18-9.20354E-19
 -1      3154 1.22064E-04-2.89368E-05-4.04224E-05 1.35291E-05-1.41904E-18 1.88716E-19
 -1      3155 1.24955E-04-3.82547E-05-3.71820E-05 1.21958E-05-1.09124E-18 9.44442E-20
 -1      3156 1.25908E-04-4.41934E-05-3.51810E-05 9.44527E-06-9.91823E-20 6.25031E-19
 -1      3157 1.23850E-04-4.70331E-05-3.29960E-05 4.64035E-06 3.22680E-19 4.35018E-19
 -1      3158 1.22404E-04-4.84257E-05-3.16894E-05 8.43350E-07 9.45778E-19 1.26107E-18
 -1      3159 1.27705E-04-4.81375E-05-3.42140E-05 5.12467E-06 1.17685E-19 1.66569E-18
 -1      3160 1.18387E-04-4.74521E-05-3.04817E-05-3.32924E-06 1.36638E-18 2.44813E-18
 -1      3161 1.15639E-04-4.58770E-05-2.97944E-05-6.37868E-06 1.38330E-18 3.52995E-18
 -1      3162 1.21264E-04-4.99738E-05-3.06220E-05-4.17263E-06 1.86446E-18 2.51656E-18
 -1      3163 1.11568E-04-4.32426E-05-2.93198E-05-8.69590E-06 1.89444E-19 3.58308E-18
 -1      3164 1.08757E-04-4.07293E-05-2.90546E-05-1.04458E-05 8.48590E-19 2.86399E-18
 -1      3165 1.13000E-04-4.55353E-05-2.89857E-05-1.02630E-05 4.23303E-19 3.80214E-18
 -1      3166 1.05676E-04-3.80966E-05-2.89840E-05-1.13667E-05 4.98825E-19 2.99613E-18
 -1      3167 1.03370E-04-3.56722E-05-2.89502E-05-1.21201E-05 1.13300E-18 1.38193E-18
 -1      3168 1.05920E-04-3.97803E-05-2.84637E-05-1.30920E-05 3.61799E-19 2.54922E-18
 -1      3169 1.01351E-04-3.35424E-05-2.90652E-05-1.21604E-05 1.77543E-18-1.41745E-19
 -1      3170 9.96721E-05-3.15994E-05-2.91375E-05-1.22374E-05 1.45357E-18-1.38446E-18
 -1      3171 1.00937E-04-3.44120E-05-2.85730E-05-1.35704E-05 4.41977E-19-1.25591E-19
 -1      3172 9.85877E-05-3.01996E-05-2.93081E-05-1.18573E-05 1.12999E-18-7.42890E-19
 -1      3173 9.74147E-05-2.87092E-05-2.94231E-05-1.14693E-05 3.97892E-19-7.71469E-19
 -1      3174 9.61726E-05-2.78022E-05-2.93187E-05-1.18047E-05-4.62192E-19-2.17557E-18
 -1      3175 9.79289E-05-3.05387E-05-2.89168E-05-1.29248E-05 1.55590E-18-2.10722E-18
 -1      3176 9.53719E-05-2.79528E-05-2.88978E-05-4.67310E-07 1.09990E-18-1.46797E-18
 -1      3177 9.54261E-05-2.76966E-05-2.90138E-05-1.34793E-07 1.33206E-18-1.25810E-18
 -1      3178 9.52329E-05-2.87296E-05-2.85001E-05-1.13364E-06 4.44256E-19-1.22966E-18
 -1      3179 9.52172E-05-2.87028E-05-2.85048E-05-1.15145E-06 8.41744E-19-1.16901E-18
 -1      3180 9.52487E-05-2.86755E-05-2.85307E-05-1.15240E-06 8.91420E-19-1.22973E-18
 -1      3181 9.52432E-05-2.86184E-05-2.85504E-05-1.13674E-06 6.10459E-19-1.14211E-18
 -1      3182 9.55299E-05-2.87787E-05-2.86104E-05-1.12596E-06 8.29079E-19-1.27048E-18
 -1      3183 9.52300E-05-2.87038E-05-2.85092E-05-1.02003E-06 6.44247E-19-1.28894E-18
 -1      3184 9.52035E-05-2.87152E-05-2.84956E-05-1.04899E-06 9.38956E-19-1.45376E-18
 -1      3185 9.52387E-05-2.86455E-05-2.85375E-05-9.82148E-07 4.95436E-19-1.00039E-18
 -1      3186 9.52090E-05-2.86698E-05-2.85180E-05-9.97812E-07 5.41614E-19-1.17023E-18
 -1      3187 9.53821E-05-2.87492E-05-2.85582E-05-1.02288E-06 5.10487E-19-1.29835E-18
 -1      3188 9.52524E-05-2.85644E-05-2.85778E-05-9.84382E-07 4.48888E-19-1.17009E-18
 -1      3189 9.52196E-05-2.85994E-05-2.85532E-05-9.77662E-07 6.81079E-19-9.61180E-19
 -1      3190 9.53428E-05-2.86592E-05-2.85796E-05-1.00147E-06 5.68877E-19-1.72758E-18
 -1      3191 9.52708E-05-2.84626E-05-2.86289E-05-1.04297E-06 6.48382E-19-1.09170E-18
 -1      3192 9.52340E-05-2.85072E-05-2.85992E-05-1.00609E-06 3.96568E-19-1.04777E-18
 -1      3193 9.53054E-05-2.85410E-05-2.86141E-05-1.02333E-06 5.17294E-19-1.09674E-18
 -1      3194 9.52935E-05-2.83406E-05-2.86904E-05-1.17255E-06 2.42185E-19-4.12414E-19
 -1      3195 9.52515E-05-2.83944E-05-2.86555E-05-1.09836E-06 4.90295E-19-7.31842E-19
 -1      3196 9.52675E-05-2.83963E-05-2.86597E-05-1.10489E-06 2.80498E-19-6.77980E-19
 -1      3197 9.53210E-05-2.81978E-05-2.87627E-05-1.38713E-06-2.39204E-20-4.40064E-19
 -1      3198 9.52718E-05-2.82605E-05-2.87219E-05-1.26872E-06 1.36188E-19-5.63477E-19
 -1      3199 9.52260E-05-2.82244E-05-2.87154E-05-1.26104E-06 1.49223E-19-2.45690E-19
 -1      3200 9.53537E-05-2.80338E-05-2.88463E-05-1.70051E-06-1.09124E-19-5.08868E-19
 -1      3201 9.52949E-05-2.81049E-05-2.87991E-05-1.53107E-06 1.63479E-19-4.00355E-19
 -1      3202 9.51776E-05-2.80238E-05-2.87804E-05-1.50600E-06 4.19254E-20-8.11545E-19
 -1      3203 9.53930E-05-2.78495E-05-2.89414E-05-2.12606E-06-3.39076E-19-2.52522E-19
 -1      3204 9.53216E-05-2.79275E-05-2.88871E-05-1.89915E-06-2.94364E-19-1.66467E-19
 -1      3205 9.51189E-05-2.77932E-05-2.88538E-05-1.85367E-06-4.29052E-19 8.68818E-20
 -1      3206 9.54412E-05-2.76491E-05-2.90470E-05-2.67583E-06-5.09313E-20-1.37573E-20
 -1      3207 9.53533E-05-2.77306E-05-2.89857E-05-2.38600E-06-2.55334E-19-2.02450E-19
 -1      3208 9.50467E-05-2.75332E-05-2.89341E-05-2.31743E-06-3.92256E-19 1.11295E-19
 -1      3209 9.55038E-05-2.74435E-05-2.91611E-05-3.35883E-06 5.88416E-19 2.26157E-19
 -1      3210 9.53938E-05-2.75212E-05-2.90935E-05-3.00277E-06 4.79489E-19 2.87780E-19
 -1      3211 9.49594E-05-2.72489E-05-2.90181E-05-2.90928E-06-6.57170E-20 2.72847E-19
 -1      3212 9.55918E-05-2.72549E-05-2.92788E-05-4.17814E-06 1.04316E-19 7.04295E-19
 -1      3213 9.54511E-05-2.73152E-05-2.92068E-05-3.75658E-06 3.45022E-19 4.45961E-19
 -1      3214 9.48591E-05-2.69542E-05-2.91012E-05-3.63850E-06 1.55422E-19 1.09239E-18
 -1      3215 9.57276E-05-2.71241E-05-2.93922E-05-5.12689E-06-3.55186E-19 7.65284E-19
 -1      3216 9.55417E-05-2.71433E-05-2.93196E-05-4.64730E-06-1.22847E-19 6.43245E-19
 -1      3217 9.47556E-05-2.66774E-05-2.91754E-05-4.50955E-06-6.51736E-21 1.15023E-18
 -1      3218 9.59548E-05-2.71217E-05-2.94898E-05-6.18240E-06 2.07635E-19 2.21031E-19
 -1      3219 9.56985E-05-2.70600E-05-2.94220E-05-5.66291E-06 2.17164E-20 6.34287E-19
 -1      3220 9.46739E-05-2.64704E-05-2.92296E-05-5.51947E-06-1.70569E-19 5.27421E-19
 -1      3221 9.63536E-05-2.73625E-05-2.95567E-05-7.29795E-06-5.26680E-19 5.72316E-19
 -1      3222 9.59838E-05-2.71568E-05-2.95008E-05-6.77283E-06 3.76237E-19 5.56953E-19
 -1      3223 9.46669E-05-2.64222E-05-2.92491E-05-6.65445E-06 6.91007E-20 1.03892E-18
 -1      3224 9.70636E-05-2.80222E-05-2.95775E-05-8.39052E-06-7.63270E-19 2.79220E-19
 -1      3225 9.65088E-05-2.75785E-05-2.95407E-05-7.91788E-06-8.40443E-19 4.02587E-20
 -1      3226 9.48350E-05-2.66757E-05-2.92168E-05-7.88464E-06-3.01083E-19 1.05421E-18
 -1      3227 9.83105E-05-2.93481E-05-2.95435E-05-9.32054E-06-8.71977E-19-1.09295E-20
 -1      3228 9.74615E-05-2.85388E-05-2.95289E-05-8.99367E-06-6.01919E-19 2.56056E-19
 -1      3229 9.53560E-05-2.74478E-05-2.91179E-05-9.15420E-06-5.72702E-19 1.08076E-19
 -1      3230 1.00425E-04-3.16436E-05-2.94680E-05-9.85667E-06-5.39189E-19-2.11012E-19
 -1      3231 9.91350E-05-3.03231E-05-2.94663E-05-9.82077E-06-6.67418E-19 2.57068E-19
 -1      3232 9.65207E-05-2.90419E-05-2.89495E-05-1.03588E-05-6.47041E-19-5.55013E-19
 -1      3233 1.03817E-04-3.51781E-05-2.94158E-05-9.61305E-06-4.97036E-19 2.25673E-19
 -1      3234 1.01938E-04-3.32470E-05-2.93899E-05-1.00868E-05-3.15725E-19 1.67297E-19
 -1      3235 9.87695E-05-3.18328E-05-2.87418E-05-1.12932E-05-6.28095E-19-2.14547E-19
 -1      3236 1.08812E-04-3.99148E-05-2.95513E-05-7.96966E-06-7.57565E-19 1.19651E-18
 -1      3237 1.06316E-04-3.74892E-05-2.94141E-05-9.24925E-06-5.43894E-19 6.82116E-19
 -1      3238 1.02678E-04-3.61471E-05-2.85993E-05-1.15209E-05-9.11216E-19-1.98778E-19
 -1      3239 1.15308E-04-4.49664E-05-3.01979E-05-4.05802E-06-3.74551E-19 1.53265E-18
 -1      3240 1.12480E-04-4.27014E-05-2.97903E-05-6.46698E-06-5.53088E-19 1.43049E-18
 -1      3241 1.08773E-04-4.19493E-05-2.87705E-05-1.02288E-05-1.38446E-18-2.08893E-19
 -1      3242 1.21995E-04-4.80401E-05-3.16895E-05 2.52654E-06-7.82897E-19 8.44965E-19
 -1      3243 1.19795E-04-4.73060E-05-3.09658E-05-8.49388E-07-1.76166E-19 1.50659E-18
 -1      3244 1.16877E-04-4.78941E-05-2.97517E-05-5.98279E-06-2.11963E-19-6.45624E-19
 -1      3245 1.28899E-04-4.41320E-05-3.65620E-05 1.18071E-05 4.79474E-19-6.37181E-19
 -1      3246 1.28263E-04-4.82439E-05-3.43811E-05 7.53633E-06-7.44264E-19-3.00856E-19
 -1      3247 1.27806E-04-3.77200E-05-3.88155E-05 1.33737E-05 1.23656E-18-9.15166E-19
 -1      3248 1.16806E-04-1.66825E-05-4.32670E-05 8.63892E-06 2.41563E-18 2.59152E-19
 -1      3249 1.18689E-04-2.17089E-05-4.20578E-05 1.32218E-05 2.80654E-18-2.52058E-19
 -1      3250 1.16257E-04-1.67184E-05-4.32447E-05-6.17717E-06 2.41658E-18-9.93004E-19
 -1      3251 1.15674E-04-1.47780E-05-4.35970E-05 3.93631E-07 2.68086E-18-9.44945E-19
 -1      3252 1.24051E-04-4.83505E-05-3.24243E-05-2.96948E-06-8.72249E-19-4.15937E-18
 -1      3253 1.25011E-04-4.65076E-05-3.37268E-05-6.61374E-06-1.16481E-18-4.32923E-18
 -1      3254 1.17445E-04-4.64516E-05-3.03129E-05 4.93533E-06-6.75840E-19-2.69574E-18
 -1      3255 1.19994E-04-4.77119E-05-3.10527E-05 1.62137E-06-1.91019E-19-2.90422E-18
 -1      3256 1.23281E-04-5.08101E-05-3.11879E-05 2.96490E-06-1.71940E-18-4.70249E-18
 -1      3257 1.10319E-04-4.13797E-05-2.94372E-05 9.87170E-06 1.13250E-18-2.81703E-18
 -1      3258 1.13157E-04-4.38551E-05-2.97465E-05 7.74079E-06 8.95241E-20-2.70889E-18
 -1      3259 1.14704E-04-4.67559E-05-2.92392E-05 9.97513E-06-4.21356E-19-3.22101E-18
 -1      3260 1.04597E-04-3.61944E-05-2.92398E-05 1.20957E-05 1.36495E-19-1.59816E-18
 -1      3261 1.07003E-04-3.86167E-05-2.93203E-05 1.10396E-05 8.36553E-19-2.09387E-18
 -1      3262 1.07063E-04-4.05189E-05-2.86284E-05 1.32333E-05 3.51634E-19-3.47498E-18
 -1      3263 1.00665E-04-3.20529E-05-2.93459E-05 1.25386E-05-5.40166E-19-9.33680E-19
 -1      3264 1.02408E-04-3.39772E-05-2.93251E-05 1.22596E-05 2.39006E-20-1.71890E-18
 -1      3265 1.01632E-04-3.49094E-05-2.86760E-05 1.40466E-05-7.22845E-19-3.14855E-19
 -1      3266 1.29278E-04-5.33247E-05-3.29443E-05 3.54836E-07-6.74152E-19 1.47076E-18
 -1      3267 1.24315E-04-5.47134E-05-2.95602E-05 8.81511E-06 4.70699E-19 1.75423E-18
 -1      3268 8.40028E-05-1.83719E-05-2.81357E-05-2.06575E-06 5.91679E-19-1.68344E-18
 -1      3269 8.38169E-05-1.82384E-05-2.81243E-05 4.27947E-07 5.58761E-19-1.67781E-18
 -1      3270 9.26470E-05-2.49009E-05-2.90034E-05-1.17323E-05-5.98620E-19-4.15721E-19
 -1      3271 9.09085E-05-2.36799E-05-2.88503E-05-1.12752E-05 7.37602E-19-1.26976E-19
 -1      3272 8.58197E-05-1.97385E-05-2.82940E-05-6.89994E-06-6.84219E-20-7.84842E-19
 -1      3273 8.47424E-05-1.90099E-05-2.82148E-05-4.80857E-06 6.93389E-19-1.16570E-18
 -1      3274 8.29807E-05-1.88560E-05-2.74438E-05-3.84316E-06 7.39284E-19-1.63533E-18
 -1      3275 1.31672E-04-4.96304E-05-3.54169E-05-5.19515E-06-3.98900E-19-5.89609E-18
 -1      3276 1.30665E-04-5.51464E-05-3.22547E-05 3.20559E-06-1.55346E-18-4.93934E-18
 -1      3277 4.64240E-05-1.45160E-05-1.33610E-05-8.64286E-06 1.63927E-19 1.73218E-19
 -1      3278 5.14379E-05-1.84687E-05-1.38822E-05-1.99824E-05-1.60116E-19 1.49120E-18
 -1      3279 1.24703E-04-2.85058E-05-4.14695E-05-1.45739E-05-3.98984E-18 2.43337E-19
 -1      3280 1.20250E-04-2.16032E-05-4.25742E-05-1.09814E-05 2.15824E-18-2.29950E-18
 -1      3281 6.02194E-05-2.42364E-05-1.49526E-05-2.71097E-05-7.99943E-19 2.93455E-18
 -1      3282 7.29862E-05-3.30989E-05-1.72149E-05-3.33808E-05-2.61892E-19 2.32548E-18
 -1      3283 9.54123E-05-2.73463E-05-2.91781E-05 2.83175E-07 1.42997E-18-1.32895E-18
 -1      3284 9.54743E-05-2.69395E-05-2.93564E-05 8.43740E-07 1.54590E-18-1.36587E-18
 -1      3285 9.56958E-05-2.73339E-05-2.93031E-05 2.32591E-07 1.40019E-18-1.28935E-18
 -1      3286 5.54169E-05-1.97713E-05-1.49145E-05-2.17674E-05 5.51498E-19-3.50624E-18
 -1      3287 6.83542E-05-2.86257E-05-1.68056E-05-2.93935E-05-6.28207E-19-2.37942E-18
 -1      3288 9.37098E-05-2.04169E-05-3.13893E-05-5.72041E-06-1.91037E-18-3.26556E-18
 -1      3289 1.23018E-04-2.88586E-05-4.09807E-05-1.41104E-05 1.49035E-18-3.26027E-18
 -1      3290 8.90485E-05-2.21961E-05-2.86071E-05-1.02537E-05 4.80469E-19 3.91438E-19
 -1      3291 8.74273E-05-2.10870E-05-2.84794E-05-8.92716E-06-1.95814E-20-9.76454E-20
 -1      3292 8.56800E-05-2.08930E-05-2.77439E-05-8.82227E-06 5.48104E-19-6.57480E-19
 -1      3293 8.95444E-05-2.37731E-05-2.82180E-05-1.17872E-05 8.30853E-19-1.44035E-19
 -1      3294 1.24923E-04-5.51869E-05-2.97202E-05-8.49689E-06-8.48032E-19-2.42212E-19
 -1      3295 1.28370E-04-5.19422E-05-3.29753E-05 1.26379E-06-4.88341E-19-4.01507E-19
 -1      3296 1.10007E-04-5.28418E-05-2.46199E-05 2.70793E-05-1.74658E-18-3.38702E-18
 -1      3297 9.51110E-05-4.45083E-05-2.14119E-05 3.14287E-05-1.59036E-18 3.47998E-19
 -1      3298 9.45674E-05-2.54897E-05-2.96133E-05 1.11992E-05 6.84936E-19-1.18187E-18
 -1      3299 9.52275E-05-2.87346E-05-2.84952E-05-1.07870E-06 7.87811E-19-1.25181E-18
 -1      3300 9.52052E-05-2.87297E-05-2.84893E-05-1.10957E-06 4.84263E-19-1.17419E-18
 -1      3301 9.54746E-05-2.88211E-05-2.85679E-05-1.11313E-06 5.66987E-19-1.19271E-18
 -1      3302 9.54255E-05-2.88062E-05-2.85528E-05-1.06819E-06 7.91904E-19-1.06145E-18
 -1      3303 1.20100E-04-5.64728E-05-2.71308E-05-1.99189E-05 6.86176E-19 1.60622E-18
 -1      3304 1.28615E-04-5.74648E-05-3.06566E-05-1.05393E-05 1.23538E-18 2.86287E-18
 -1      3305 4.31957E-05-1.21629E-05-1.28832E-05 1.80332E-06 1.88279E-18-1.77284E-18
 -1      3306 4.67710E-05-1.39766E-05-1.38377E-05-1.01355E-05 1.63584E-18-3.04360E-18
 -1      3307 8.39966E-05-3.86279E-05-1.92094E-05-3.16445E-05-1.59539E-18-1.72631E-18
 -1      3308 9.78203E-05-4.74050E-05-2.16167E-05-3.07994E-05-1.40433E-18-5.39401E-19
 -1      3309 9.55039E-05-2.55771E-05-2.99577E-05-2.16923E-06-1.46755E-18-2.30364E-18
 -1      3310 9.55369E-05-2.62672E-05-2.97003E-05-1.33699E-06-1.25065E-18-2.25838E-18
 -1      3311 9.57199E-05-2.62055E-05-2.97928E-05-1.17973E-06-1.09092E-18-2.12502E-18
 -1      3312 5.35107E-05-1.99894E-05-1.43388E-05 2.34337E-05 1.93907E-18-3.05207E-18
 -1      3313 4.53449E-05-1.41204E-05-1.30140E-05 1.20209E-05 1.86331E-18-1.85479E-18
 -1      3314 5.14408E-05-1.40910E-05-1.55667E-05 6.75167E-06 1.86170E-18-2.44512E-18
 -1      3315 8.98017E-05-4.23542E-05-1.98087E-05-3.37849E-05 5.78894E-20 1.29413E-18
 -1      3316 1.06203E-04-5.13771E-05-2.36231E-05-2.92154E-05-2.58186E-19 4.56339E-19
 -1      3317 9.52107E-05-2.42759E-05-3.04015E-05 4.28541E-06 2.60023E-18-1.27878E-18
 -1      3318 9.46434E-05-2.27379E-05-3.08059E-05 4.78841E-06 2.64010E-18-1.46277E-18
 -1      3319 9.49326E-05-2.35951E-05-3.05709E-05 3.69382E-06 2.20233E-18-1.52975E-18
 -1      3320 9.52324E-05-2.52002E-05-3.00287E-05 3.01012E-06 2.18304E-18-1.30695E-18
 -1      3321 1.16562E-04-5.46058E-05-2.67934E-05 1.93661E-05 1.77085E-18 9.45236E-19
 -1      3322 1.02987E-04-4.80857E-05-2.32802E-05 2.65769E-05 2.93989E-18-1.76593E-19
 -1      3323 9.46263E-05-2.25345E-05-3.09047E-05-4.72171E-06-1.74571E-18-2.88493E-18
 -1      3324 9.50928E-05-2.43450E-05-3.03334E-05-2.98156E-06-1.54899E-18-2.67140E-18
 -1      3325 9.51785E-05-2.42181E-05-3.04036E-05-2.64737E-06-1.35494E-18-2.53522E-18
 -1      3326 9.38163E-05-2.09120E-05-3.12360E-05-4.42032E-06-1.35994E-18-3.25894E-18
 -1      3327 1.27260E-04-3.73948E-05-3.87029E-05-1.26159E-05 6.08699E-19-3.85448E-18
 -1      3328 5.00975E-05-1.70815E-05-1.37916E-05 1.73791E-05-8.39595E-19-1.06356E-18
 -1      3329 4.57503E-05-1.37077E-05-1.33993E-05 3.94267E-06-4.38345E-19-1.80291E-18
 -1      3330 8.43998E-05-3.84887E-05-1.97064E-05 3.13914E-05 3.17246E-18-2.32765E-18
 -1      3331 6.72585E-05-2.79216E-05-1.62943E-05 2.96358E-05 2.26039E-18-3.73573E-18
 -1      3332 9.23891E-05-1.83494E-05-3.17465E-05 1.81468E-06 1.30771E-18-3.72927E-18
 -1      3333 9.22698E-05-1.81479E-05-3.17786E-05 1.05923E-06 9.25845E-19-3.80362E-18
 -1      3334 1.26654E-04-5.74345E-05-2.99301E-05 1.24178E-05-2.31518E-18-3.17206E-18
 -1      3335 1.19848E-04-5.60611E-05-2.70610E-05 1.96646E-05-2.19085E-18-4.05187E-18
 -1      3336 1.13334E-04-5.17897E-05-2.62966E-05 2.09894E-05-1.76770E-18-3.79779E-18
 -1      3337 1.25447E-04-5.38351E-05-3.07048E-05 6.27458E-06-2.21720E-18-4.44826E-18
 -1      3338 1.28848E-04-4.41099E-05-3.65433E-05-1.06776E-05-4.72459E-19-4.36529E-18
 -1      3339 9.22128E-05-1.80491E-05-3.17971E-05 4.10128E-07 7.26560E-19-3.71704E-18
 -1      3340 9.22085E-05-1.80517E-05-3.17970E-05-3.62825E-07 3.86601E-19-3.76841E-18
 -1      3341 9.31621E-05-1.96291E-05-3.14967E-05 6.30227E-07 8.12465E-19-3.51717E-18
 -1      3342 9.43483E-05-2.19874E-05-3.09908E-05 3.63444E-06 2.12464E-18-2.10101E-18
 -1      3343 9.34406E-05-2.02165E-05-3.14062E-05 4.25213E-06 2.31076E-18-2.46046E-18
 -1      3344 9.30846E-05-1.95573E-05-3.15205E-05 3.65904E-06 2.00136E-18-2.82378E-18
 -1      3345 8.96810E-05-2.26554E-05-2.87751E-05 1.09985E-05-1.87926E-19-6.75854E-19
 -1      3346 9.15214E-05-2.38686E-05-2.89329E-05 1.17929E-05-3.18582E-19-3.79583E-19
 -1      3347 1.02989E-04-4.46432E-05-2.48902E-05 2.13682E-05 3.41639E-18-6.05390E-19
 -1      3348 9.54966E-05-4.29214E-05-2.23214E-05 2.79800E-05 3.20409E-18-2.78039E-19
 -1      3349 8.67247E-05-3.57318E-05-2.18119E-05 2.62022E-05 2.89304E-18-9.94046E-19
 -1      3350 1.26604E-04-4.83368E-05-3.35795E-05-5.45298E-06-7.01876E-19 1.69078E-18
 -1      3351 1.27152E-04-3.65851E-05-3.92014E-05-1.45508E-05-3.47527E-18 1.14230E-18
 -1      3352 6.24024E-05-2.17689E-05-1.69400E-05-2.13742E-05-6.54889E-19 3.15456E-18
 -1      3353 1.26605E-04-3.72019E-05-3.84825E-05 1.27633E-05-1.59041E-18 1.18473E-18
 -1      3354 7.42170E-05-2.79931E-05-1.97250E-05-2.49868E-05-6.74821E-19-5.82335E-20
 -1      3355 7.88452E-05-3.33537E-05-1.91794E-05-2.91717E-05-1.42299E-18-1.14217E-18
 -1      3356 8.81909E-05-3.70539E-05-2.18650E-05-2.65058E-05-1.89964E-18-3.26452E-19
 -1      3357 1.13804E-04-5.34975E-05-2.56945E-05-2.35393E-05-2.97520E-20-1.15517E-19
 -1      3358 1.17642E-04-5.28519E-05-2.77241E-05-1.62901E-05 9.29794E-19 1.50471E-18
 -1      3359 1.05197E-04-4.75388E-05-2.46673E-05-2.51623E-05 7.62594E-20 2.07219E-19
 -1      3360 9.53846E-05-2.65021E-05-2.95305E-05 1.38034E-06 1.80391E-18-1.43141E-18
 -1      3361 9.54306E-05-2.58856E-05-2.97903E-05 2.24444E-06 1.93912E-18-1.34973E-18
 -1      3362 9.53411E-05-2.51563E-05-3.00757E-05 2.62532E-06 2.03584E-18-1.43790E-18
 -1      3363 9.55863E-05-2.64007E-05-2.96542E-05 1.25126E-06 1.65908E-18-1.50072E-18
 -1      3364 1.25087E-04-5.37479E-05-3.06230E-05-6.63778E-06 1.46111E-18 2.58289E-18
 -1      3365 1.30169E-04-5.48985E-05-3.22844E-05-3.25064E-06 6.55579E-19 2.14040E-18
 -1      3366 9.31469E-05-1.96928E-05-3.14882E-05-3.40000E-06-8.24841E-19-3.53886E-18
 -1      3367 9.34719E-05-2.03184E-05-3.13779E-05-3.99092E-06-1.17916E-18-3.52664E-18
 -1      3368 9.44266E-05-2.21939E-05-3.09429E-05-3.19575E-06-1.13641E-18-3.14918E-18
 -1      3369 9.55901E-05-2.86553E-05-2.86898E-05-1.06416E-06 6.03287E-19-1.31317E-18
 -1      3370 9.52773E-05-2.85518E-05-2.85968E-05-1.09100E-06 2.20527E-19-1.00749E-18
 -1      3371 9.52871E-05-2.84520E-05-2.86381E-05-1.01373E-06 3.97264E-19-1.33309E-18
 -1      3372 1.24674E-04-2.92887E-05-4.12437E-05 1.63417E-05 1.64907E-18-8.17387E-19
 -1      3373 6.12581E-05-2.13254E-05-1.67237E-05 2.03802E-05-9.66173E-19-3.44213E-19
 -1      3374 5.30010E-05-1.49341E-05-1.58840E-05-1.75380E-06-8.06754E-19-8.83826E-19
 -1      3375 1.18130E-04-5.15593E-05-2.84646E-05 1.13937E-05 1.42017E-18 7.45945E-19
 -1      3376 9.91593E-05-3.05880E-05-2.93856E-05 1.24737E-05-4.71511E-19-4.54235E-19
 -1      3377 9.80815E-05-3.08622E-05-2.88660E-05 1.38117E-05-8.60126E-19-1.41427E-19
 -1      3378 9.79030E-05-2.92634E-05-2.93734E-05 1.24701E-05 3.94495E-19-3.78766E-19
 -1      3379 8.63105E-05-2.01629E-05-2.84008E-05 8.00092E-06-2.61472E-19-5.93179E-19
 -1      3380 8.78320E-05-2.11761E-05-2.85278E-05 9.65855E-06-5.19285E-19 1.04084E-18
 -1      3381 8.81923E-05-2.26030E-05-2.81110E-05 1.13123E-05-1.32869E-18-5.80856E-19
 -1      3382 9.53199E-05-2.83274E-05-2.87127E-05-8.89608E-07 6.75901E-19-1.29359E-18
 -1      3383 9.53504E-05-2.81651E-05-2.87849E-05-7.11709E-07 8.15591E-19-1.37679E-18
 -1      3384 9.56499E-05-2.84152E-05-2.88192E-05-8.70763E-07 4.85634E-19-1.28022E-18
 -1      3385 8.41730E-05-1.85282E-05-2.81697E-05 3.34105E-06-1.74275E-19-1.49485E-18
 -1      3386 8.49749E-05-1.90572E-05-2.82347E-05 5.65285E-06-1.24951E-19-1.86428E-18
 -1      3387 8.44963E-05-1.99344E-05-2.76433E-05 7.55695E-06-9.82834E-19-1.10978E-18
 -1      3388 8.25339E-05-1.84925E-05-2.74040E-05 2.06399E-06-1.04310E-18-1.18452E-18
 -1      3389 8.82248E-05-3.95166E-05-2.06524E-05 3.15633E-05-1.14164E-18-1.02504E-19
 -1      3390 8.02066E-05-3.28381E-05-2.02151E-05 2.86667E-05-7.56745E-19-3.77512E-19
 -1      3391 9.71737E-05-4.22529E-05-2.33779E-05 2.68119E-05-1.17423E-18-1.41034E-18
 -1      3392 1.18812E-04-5.51943E-05-2.74708E-05-1.74582E-05-1.04079E-18-8.76150E-20
 -1      3393 1.18107E-04-5.10300E-05-2.86613E-05-1.05275E-05-8.27280E-19-1.20068E-18
 -1      3394 1.13122E-04-4.75208E-05-2.79044E-05-1.30219E-05-6.93469E-19-1.24302E-18
 -1      3395 1.08308E-04-5.10969E-05-2.41964E-05-2.47102E-05-1.15314E-18-4.49510E-19
 -1      3396 9.56958E-05-2.80031E-05-2.90161E-05-4.70466E-07 9.39226E-19-1.27971E-18
 -1      3397 9.28920E-05-1.92498E-05-3.15816E-05-2.88258E-06-5.60336E-19-3.71682E-18
 -1      3398 9.39420E-05-2.11313E-05-3.11874E-05-2.40989E-06-6.73888E-19-3.38737E-18
 -1      3399 9.26732E-05-1.88505E-05-3.16474E-05-2.18278E-06-2.38810E-19-3.59615E-18
 -1      3400 1.04485E-04-4.70174E-05-2.44196E-05-2.34869E-05-1.77745E-18-3.12502E-19
 -1      3401 5.42185E-05-1.65009E-05-1.57722E-05-1.54857E-05 1.01308E-18-3.39136E-18
 -1      3402 6.28584E-05-1.99701E-05-1.82381E-05-1.82767E-05 5.35920E-19-2.39726E-18
 -1      3403 5.53442E-05-1.46389E-05-1.72803E-05-8.64714E-06 1.02623E-18-2.48758E-18
 -1      3404 9.34923E-05-2.54063E-05-2.92317E-05 1.21246E-05 1.71972E-18 2.09162E-19
 -1      3405 9.60654E-05-2.71716E-05-2.94749E-05 1.18880E-05 1.07533E-18-9.07150E-19
 -1      3406 9.70350E-05-2.83341E-05-2.94274E-05 1.22396E-05 1.41092E-18-5.67684E-19
 -1      3407 9.26671E-05-2.56704E-05-2.87292E-05 1.28927E-05 3.24617E-19-1.43313E-18
 -1      3408 8.49949E-05-3.68222E-05-2.02659E-05-2.99800E-05-1.54584E-19 1.56341E-18
 -1      3409 9.27988E-05-1.90588E-05-3.16220E-05 3.13072E-06 1.85320E-18-3.07735E-18
 -1      3410 9.25625E-05-1.86444E-05-3.16900E-05 2.42797E-06 1.52417E-18-3.44221E-18
 -1      3411 9.33759E-05-2.00196E-05-3.14199E-05 1.80682E-06 1.22881E-18-3.31462E-18
 -1      3412 9.37822E-05-2.07995E-05-3.12580E-05 2.85242E-06 1.77183E-18-2.76129E-18
 -1      3413 6.55891E-05-2.38473E-05-1.74772E-05 2.34740E-05 1.56709E-18-3.13741E-18
 -1      3414 1.32681E-04-5.13984E-05-3.49557E-05 1.85324E-06 1.62008E-19 2.68070E-18
 -1      3415 1.31659E-04-4.40548E-05-3.80313E-05 9.80092E-06-7.02111E-19 2.63843E-18
 -1      3416 9.50395E-05-2.69285E-05-2.91712E-05-1.19878E-05-5.16297E-19-1.36918E-18
 -1      3417 9.37755E-05-2.58625E-05-2.91217E-05-1.19078E-05-5.51736E-19 3.60310E-19
 -1      3418 9.32130E-05-2.63444E-05-2.86514E-05-1.27398E-05 1.73529E-19 2.77006E-20
 -1      3419 9.57791E-05-2.81972E-05-2.89510E-05-1.26732E-05 1.12891E-18-1.84764E-18
 -1      3420 9.61778E-05-2.78203E-05-2.92886E-05 2.42697E-07-8.01336E-19-1.96470E-18
 -1      3421 9.61733E-05-2.81350E-05-2.91637E-05 4.98499E-07-9.05086E-19-2.01312E-18
 -1      3422 9.61812E-05-2.83926E-05-2.90467E-05 6.63942E-07-8.94358E-19-1.87710E-18
 -1      3423 9.61509E-05-2.85840E-05-2.89594E-05 8.04864E-07-6.80631E-19-1.80848E-18
 -1      3424 9.63738E-05-2.82023E-05-2.92179E-05 4.78760E-07-7.05464E-19-2.00643E-18
 -1      3425 9.61152E-05-2.87298E-05-2.88757E-05 8.87746E-07-6.87121E-19-1.70188E-18
 -1      3426 9.60738E-05-2.88350E-05-2.88172E-05 9.51600E-07-6.56427E-19-1.70022E-18
 -1      3427 9.63478E-05-2.86591E-05-2.90116E-05 7.46276E-07-6.90777E-19-1.61146E-18
 -1      3428 9.60141E-05-2.89027E-05-2.87597E-05 9.80688E-07-5.16833E-19-1.75756E-18
 -1      3429 9.59691E-05-2.89473E-05-2.87231E-05 9.97406E-07-3.68634E-19-1.72440E-18
 -1      3430 9.62549E-05-2.89076E-05-2.88653E-05 8.75217E-07-4.74793E-19-1.63195E-18
 -1      3431 9.58971E-05-2.89602E-05-2.86861E-05 9.95743E-07-3.37693E-19-1.67414E-18
 -1      3432 9.58523E-05-2.89616E-05-2.86662E-05 9.88226E-07-1.57128E-19-1.62515E-18
 -1      3433 9.61257E-05-2.90087E-05-2.87665E-05 9.17068E-07-3.57204E-19-1.73219E-18
 -1      3434 9.57745E-05-2.89355E-05-2.86451E-05 9.73626E-07-3.87617E-19-1.68627E-18
 -1      3435 9.57311E-05-2.89056E-05-2.86378E-05 9.59190E-07-7.22838E-19-1.46935E-18
 -1      3436 9.59784E-05-2.90048E-05-2.87047E-05 9.12691E-07-3.50769E-19-1.94749E-18
 -1      3437 9.56504E-05-2.88507E-05-2.86290E-05 9.45314E-07-7.91175E-19-1.66728E-18
 -1      3438 9.56083E-05-2.87967E-05-2.86315E-05 9.37180E-07-7.39068E-19-1.61362E-18
 -1      3439 9.58221E-05-2.89244E-05-2.86718E-05 8.93679E-07-7.43864E-19-2.40232E-18
 -1      3440 9.55248E-05-2.87189E-05-2.86323E-05 9.34660E-07-5.17070E-19-1.62718E-18
 -1      3441 9.54829E-05-2.86452E-05-2.86425E-05 9.43195E-07-3.67104E-19-1.60220E-18
 -1      3442 9.56599E-05-2.87857E-05-2.86613E-05 8.84492E-07-5.60475E-19-2.07641E-18
 -1      3443 9.53948E-05-2.85475E-05-2.86507E-05 9.60615E-07-6.37862E-19-1.16705E-18
 -1      3444 9.53513E-05-2.84558E-05-2.86670E-05 9.94356E-07-7.99758E-19-1.07252E-18
 -1      3445 9.54900E-05-2.85988E-05-2.86682E-05 9.04443E-07-2.69862E-19-1.27057E-18
 -1      3446 9.52551E-05-2.83388E-05-2.86809E-05 1.03906E-06-6.30910E-19-1.02969E-18
 -1      3447 9.52078E-05-2.82296E-05-2.87022E-05 1.10544E-06-4.75676E-19-7.87663E-19
 -1      3448 9.53073E-05-2.83680E-05-2.86883E-05 9.69495E-07-6.17184E-19-9.91548E-19
 -1      3449 9.50989E-05-2.80925E-05-2.87202E-05 1.18408E-06-8.52358E-19-6.84420E-19
 -1      3450 9.50451E-05-2.79653E-05-2.87455E-05 1.28991E-06-9.80901E-19-5.40950E-19
 -1      3451 9.51040E-05-2.80937E-05-2.87181E-05 1.09356E-06-5.21535E-19-1.07546E-18
 -1      3452 9.49180E-05-2.78065E-05-2.87660E-05 1.40890E-06-1.10255E-18-2.45653E-19
 -1      3453 9.48549E-05-2.76608E-05-2.87943E-05 1.56065E-06-8.37516E-19-5.21947E-19
 -1      3454 9.48700E-05-2.77739E-05-2.87543E-05 1.28946E-06-9.95874E-19-4.20972E-19
 -1      3455 9.47038E-05-2.74792E-05-2.88153E-05 1.72636E-06-4.14254E-19-5.15720E-19
 -1      3456 9.46288E-05-2.73155E-05-2.88450E-05 1.93014E-06-1.99083E-19-7.74201E-19
 -1      3457 9.45941E-05-2.74059E-05-2.87930E-05 1.56967E-06-6.71882E-19-3.51259E-20
 -1      3458 9.44478E-05-2.71115E-05-2.88641E-05 2.14892E-06-1.13638E-19-6.37929E-19
 -1      3459 9.43593E-05-2.69327E-05-2.88932E-05 2.41024E-06 1.38138E-19-5.16157E-19
 -1      3460 9.42645E-05-2.69893E-05-2.88294E-05 1.94645E-06-1.15459E-19-8.21408E-20
 -1      3461 9.41436E-05-2.67097E-05-2.89069E-05 2.68845E-06 2.28678E-19-5.88951E-19
 -1      3462 9.40421E-05-2.65231E-05-2.89323E-05 3.01188E-06 2.18353E-19-5.88746E-19
 -1      3463 9.38706E-05-2.65282E-05-2.88574E-05 2.43200E-06 3.47090E-19-2.77435E-19
 -1      3464 9.37893E-05-2.62900E-05-2.89360E-05 3.35590E-06 1.37059E-19-4.89796E-19
 -1      3465 9.36796E-05-2.61098E-05-2.89534E-05 3.74455E-06 4.32806E-19-9.53274E-19
 -1      3466 9.34050E-05-2.60352E-05-2.88682E-05 3.03865E-06 1.38747E-19-5.26169E-19
 -1      3467 9.33925E-05-2.58842E-05-2.89407E-05 4.16108E-06 6.67255E-19-1.49948E-18
 -1      3468 9.32869E-05-2.57356E-05-2.89444E-05 4.61611E-06 5.08471E-19-1.39678E-18
 -1      3469 9.28673E-05-2.55373E-05-2.88505E-05 3.77947E-06 9.59854E-20-6.20233E-19
 -1      3470 9.29770E-05-2.55481E-05-2.89074E-05 5.11291E-06 4.77368E-20-1.49227E-18
 -1      3471 9.29014E-05-2.54728E-05-2.88899E-05 5.63313E-06-2.12280E-19-1.42619E-18
 -1      3472 9.22704E-05-2.50826E-05-2.87893E-05 4.66979E-06 1.05152E-19-1.26640E-18
 -1      3473 9.25954E-05-2.53731E-05-2.88189E-05 6.22046E-06-5.73148E-19-1.04633E-18
 -1      3474 9.25976E-05-2.54364E-05-2.87722E-05 6.80194E-06-4.04114E-19-1.54297E-18
 -1      3475 9.16500E-05-2.47512E-05-2.86662E-05 5.73040E-06-1.76235E-19-1.35285E-18
 -1      3476 9.23475E-05-2.55010E-05-2.86567E-05 7.49432E-06-2.70694E-19-1.91899E-18
 -1      3477 9.25105E-05-2.58008E-05-2.85734E-05 8.12883E-06-2.34778E-20-1.91334E-18
 -1      3478 9.10798E-05-2.46687E-05-2.84597E-05 6.99261E-06-5.24951E-19-1.34335E-18
 -1      3479 9.24088E-05-2.61430E-05-2.84044E-05 8.94535E-06 4.04145E-19-1.67488E-18
 -1      3480 9.28675E-05-2.68191E-05-2.82820E-05 9.61475E-06 3.75730E-19-1.84930E-18
 -1      3481 9.06961E-05-2.50252E-05-2.81485E-05 8.50357E-06 2.23914E-19-1.92764E-18
 -1      3482 9.30727E-05-2.75981E-05-2.80567E-05 1.05726E-05 4.29525E-19-1.27765E-18
 -1      3483 9.40335E-05-2.88376E-05-2.79059E-05 1.12321E-05 1.06583E-18-1.00445E-18
 -1      3484 9.07361E-05-2.60990E-05-2.77175E-05 1.03262E-05 7.94086E-19-1.85570E-18
 -1      3485 9.48051E-05-3.02615E-05-2.76386E-05 1.23168E-05 1.07810E-18-1.08155E-18
 -1      3486 9.65614E-05-3.22831E-05-2.74980E-05 1.28504E-05 1.57291E-18-1.03262E-18
 -1      3487 9.15995E-05-2.82829E-05-2.71728E-05 1.25127E-05 1.09819E-18-1.39048E-18
 -1      3488 9.83150E-05-3.46230E-05-2.72407E-05 1.39496E-05 1.54973E-18-1.26505E-18
 -1      3489 1.01123E-04-3.75743E-05-2.72006E-05 1.40842E-05 1.98687E-18-1.28542E-18
 -1      3490 9.39126E-05-3.20830E-05-2.65705E-05 1.50205E-05 1.51251E-18-9.47138E-19
 -1      3491 1.12862E-04-4.83179E-05-2.74820E-05 1.41052E-05 1.86803E-18 4.01960E-20
 -1      3492 1.20877E-04-5.22992E-05-2.92938E-05-1.04258E-05 2.11478E-18 3.22131E-18
 -1      3493 1.14837E-04-4.93514E-05-2.80692E-05-1.41035E-05 6.60355E-19 1.47486E-18
 -1      3494 1.10556E-04-4.58911E-05-2.76000E-05-1.57295E-05-5.12753E-20 1.18190E-18
 -1      3495 1.04945E-04-4.04724E-05-2.76195E-05-1.56170E-05-1.71776E-19 1.09905E-18
 -1      3496 1.01860E-04-3.71518E-05-2.76254E-05-1.58682E-05 4.79015E-19 9.49595E-19
 -1      3497 9.96981E-05-3.45473E-05-2.79005E-05-1.51330E-05-6.38294E-19 7.27320E-19
 -1      3498 9.76724E-05-3.20669E-05-2.80831E-05-1.48365E-05-1.07777E-19-6.84169E-19
 -1      3499 9.77944E-05-3.49477E-05-2.70355E-05-1.74323E-05-3.94767E-19 4.60564E-19
 -1      3500 9.54359E-05-2.86604E-05-2.86157E-05-9.73475E-07 3.69843E-19-1.31254E-18
 -1      3501 9.54557E-05-2.87186E-05-2.86028E-05-9.71764E-07 3.46555E-19-1.46316E-18
 -1      3502 9.55205E-05-2.87826E-05-2.85998E-05-9.79786E-07 6.20080E-19-1.22041E-18
 -1      3503 9.55420E-05-2.88231E-05-2.85944E-05-9.94185E-07 7.91871E-19-1.11518E-18
 -1      3504 9.56016E-05-2.87885E-05-2.86353E-05-9.43865E-07 6.38176E-19-1.17340E-18
 -1      3505 9.52566E-05-2.83167E-05-2.86856E-05-1.11115E-06-5.53052E-20-4.45516E-19
 -1      3506 9.52769E-05-2.84060E-05-2.86613E-05-1.05157E-06 1.20856E-19-6.97935E-19
 -1      3507 9.51520E-05-2.80947E-05-2.87356E-05-1.28502E-06 2.48907E-19-3.49446E-19
 -1      3508 9.51750E-05-2.82000E-05-2.87066E-05-1.18543E-06 1.38237E-19-2.54629E-19
 -1      3509 9.51799E-05-2.81989E-05-2.87059E-05-1.12421E-06 3.19724E-20-6.67874E-19
 -1      3510 9.50292E-05-2.78364E-05-2.87933E-05-1.54733E-06-1.37458E-19-8.02215E-19
 -1      3511 9.50566E-05-2.79583E-05-2.87601E-05-1.40084E-06 2.71093E-19-7.14991E-19
 -1      3512 9.50042E-05-2.79213E-05-2.87491E-05-1.31474E-06 3.48737E-19-4.29830E-19
 -1      3513 9.48808E-05-2.75395E-05-2.88565E-05-1.91139E-06-6.97345E-19-5.61945E-19
 -1      3514 9.49145E-05-2.76785E-05-2.88199E-05-1.71135E-06-4.42842E-19-7.70057E-19
 -1      3515 9.47957E-05-2.75987E-05-2.87974E-05-1.59301E-06-1.81474E-19-6.78066E-19
 -1      3516 9.46997E-05-2.72042E-05-2.89221E-05-2.38995E-06-4.73879E-19 1.27791E-19
 -1      3517 9.47411E-05-2.73591E-05-2.88834E-05-2.13022E-06-6.36700E-19-2.51484E-19
 -1      3518 9.45434E-05-2.72284E-05-2.88472E-05-1.97186E-06-5.75312E-19-3.77656E-19
 -1      3519 9.44804E-05-2.68363E-05-2.89853E-05-2.99456E-06-2.57973E-19 7.47237E-19
 -1      3520 9.45298E-05-2.70025E-05-2.89467E-05-2.67000E-06-2.26948E-19 3.44356E-19
 -1      3521 9.42362E-05-2.68110E-05-2.88936E-05-2.46372E-06-5.39200E-19 2.92292E-19
 -1      3522 9.42214E-05-2.64511E-05-2.90387E-05-3.73465E-06-2.72664E-20 5.20385E-19
 -1      3523 9.42762E-05-2.66187E-05-2.90035E-05-3.34188E-06 9.87267E-20 8.41177E-19
 -1      3524 9.38648E-05-2.63536E-05-2.89295E-05-3.08043E-06 1.47826E-20 2.93393E-19
 -1      3525 9.39302E-05-2.60806E-05-2.90718E-05-4.61650E-06 2.69561E-19 6.35093E-19
 -1      3526 9.39824E-05-2.62301E-05-2.90451E-05-4.15481E-06 6.43439E-20 7.48044E-19
 -1      3527 9.34242E-05-2.58750E-05-2.89450E-05-3.83310E-06 1.84007E-19 4.06535E-20
 -1      3528 9.36320E-05-2.57827E-05-2.90703E-05-5.64245E-06-3.33958E-19 2.55448E-19
 -1      3529 9.36630E-05-2.58803E-05-2.90590E-05-5.11484E-06 9.58754E-20 3.75961E-19
 -1      3530 9.29196E-05-2.54125E-05-2.89263E-05-4.73275E-06 1.98324E-19 4.01099E-19
 -1      3531 9.33837E-05-2.56557E-05-2.90160E-05-6.81052E-06-2.75831E-19 4.52308E-19
 -1      3532 9.33563E-05-2.56449E-05-2.90286E-05-6.22486E-06-5.17959E-19-5.49641E-21
 -1      3533 9.23749E-05-2.50329E-05-2.88557E-05-5.79219E-06-3.60423E-19-7.93259E-20
 -1      3534 9.32966E-05-2.58566E-05-2.88885E-05-8.11393E-06-5.99223E-19 1.27281E-19
 -1      3535 9.31421E-05-2.56487E-05-2.89342E-05-7.48483E-06-1.83483E-19 7.03851E-19
 -1      3536 9.18481E-05-2.48472E-05-2.87112E-05-7.02995E-06-2.66150E-19-7.95499E-19
 -1      3537 9.35701E-05-2.66245E-05-2.86702E-05-9.53683E-06-5.28528E-19 4.27673E-20
 -1      3538 9.31704E-05-2.60867E-05-2.87555E-05-8.89042E-06-5.38825E-19 4.97943E-19
 -1      3539 9.14554E-05-2.50316E-05-2.84687E-05-8.47532E-06-7.22585E-19-3.76622E-19
 -1      3540 9.45362E-05-2.82993E-05-2.83572E-05-1.10368E-05-7.92529E-19-2.22142E-19
 -1      3541 9.37038E-05-2.72475E-05-2.84789E-05-1.04236E-05-7.36406E-19 1.28116E-19
 -1      3542 9.14101E-05-2.58538E-05-2.81075E-05-1.01698E-05-6.92317E-19 3.28119E-19
 -1      3543 9.67135E-05-3.13173E-05-2.79824E-05-1.24879E-05-5.43042E-19 2.35215E-19
 -1      3544 9.51720E-05-2.95269E-05-2.81141E-05-1.20195E-05-6.18589E-19 3.01267E-19
 -1      3545 9.20804E-05-2.77005E-05-2.76226E-05-1.21514E-05-6.00724E-19 3.36677E-19
 -1      3546 1.00830E-04-3.61596E-05-2.76634E-05-1.35393E-05-8.56959E-19-4.97363E-19
 -1      3547 9.82467E-05-3.34319E-05-2.77262E-05-1.34853E-05-2.61835E-19-6.59031E-20
 -1      3548 9.40574E-05-3.10753E-05-2.70506E-05-1.44015E-05-6.05915E-19 6.43411E-19
 -1      3549 1.07669E-04-4.29381E-05-2.76970E-05-1.33657E-05-1.16954E-18-1.95143E-18
 -1      3550 1.03804E-04-3.92813E-05-2.75196E-05-1.41703E-05-1.46782E-18-1.45654E-18
 -1      3551 9.83675E-05-3.66076E-05-2.65274E-05-1.66529E-05-4.64796E-19-9.95297E-19
 -1      3552 1.20960E-04-5.21827E-05-2.92432E-05 1.05046E-05-2.42581E-18-3.62966E-18
 -1      3553 9.80924E-05-3.24236E-05-2.80713E-05 1.54601E-05-1.41266E-18-1.02371E-18
 -1      3554 1.00233E-04-3.50078E-05-2.79131E-05 1.56690E-05-1.27250E-18-1.22528E-18
 -1      3555 8.13557E-05-1.91177E-05-2.66493E-05-5.89873E-06-2.22450E-19-1.21953E-18
 -1      3556 8.02982E-05-1.84483E-05-2.65470E-05-3.02340E-06-6.64577E-19-1.16873E-18
 -1      3557 6.17526E-05-1.89067E-05-1.81710E-05-1.63725E-05-1.62789E-21 3.15128E-18
 -1      3558 6.88441E-05-2.44790E-05-1.91031E-05-2.36025E-05-6.46141E-19 4.45725E-18
 -1      3559 9.59096E-05-2.73745E-05-2.93794E-05 1.03353E-07 1.16300E-18-1.39239E-18
 -1      3560 9.58873E-05-2.69039E-05-2.95539E-05 5.63491E-07 1.30049E-18-1.50122E-18
 -1      3561 1.02658E-04-3.79061E-05-2.76478E-05 1.63938E-05-8.52421E-19-1.78948E-18
 -1      3562 1.06026E-04-4.13516E-05-2.76845E-05 1.58873E-05-4.89757E-19-3.14383E-18
 -1      3563 9.80814E-05-3.53935E-05-2.69486E-05 1.81568E-05-1.50326E-18-1.49853E-18
 -1      3564 1.10389E-04-4.50382E-05-2.78277E-05 1.53468E-05-4.01331E-19-3.32602E-18
 -1      3565 1.14825E-04-4.87300E-05-2.83344E-05 1.33869E-05-1.58166E-18-4.30880E-18
 -1      3566 1.14973E-04-5.10328E-05-2.75604E-05 1.69891E-05-1.97651E-18-4.22967E-18
 -1      3567 1.04593E-04-4.26082E-05-2.66675E-05 1.92225E-05-1.05344E-18-3.81379E-18
 -1      3568 5.71215E-05-1.49853E-05-1.79267E-05 3.83374E-06-1.44474E-18-1.91834E-18
 -1      3569 5.73311E-05-1.55308E-05-1.78047E-05-7.70190E-06-1.33229E-18 1.32137E-19
 -1      3570 9.53493E-05-2.85048E-05-2.86450E-05-1.01206E-06 9.58110E-20-1.05730E-18
 -1      3571 9.53686E-05-2.85787E-05-2.86261E-05-9.85307E-07 1.61849E-19-1.27292E-18
 -1      3572 9.54710E-05-2.86315E-05-2.86462E-05-9.53131E-07 1.64804E-19-1.18240E-18
 -1      3573 9.53327E-05-2.84349E-05-2.86708E-05-1.00826E-06-1.77360E-19-7.86831E-19
 -1      3574 9.57811E-05-2.88747E-05-2.86736E-05-1.06216E-06 6.44070E-19-1.10743E-18
 -1      3575 9.58121E-05-2.88253E-05-2.87060E-05-1.04550E-06 8.64072E-19-1.09278E-18
 -1      3576 1.08702E-04-4.41066E-05-2.76161E-05 1.29120E-05 2.40647E-18-6.43758E-19
 -1      3577 1.06037E-04-4.52869E-05-2.61105E-05 1.87364E-05 2.68308E-18-1.63329E-18
 -1      3578 9.94310E-05-4.02223E-05-2.52196E-05 1.99167E-05 2.62793E-18-1.42396E-18
 -1      3579 1.04655E-04-4.05373E-05-2.73149E-05 1.40119E-05 2.87554E-18-1.63362E-18
 -1      3580 9.23437E-05-1.82755E-05-3.17536E-05-9.28189E-07 2.42565E-19-3.92966E-18
 -1      3581 9.24496E-05-1.84720E-05-3.17226E-05-1.67902E-06-3.64262E-20-3.86611E-18
 -1      3582 9.35506E-05-2.03476E-05-3.13547E-05-1.49254E-06-8.16352E-20-3.51984E-18
 -1      3583 9.32387E-05-1.97622E-05-3.14716E-05-5.07601E-07 3.34166E-19-3.65105E-18
 -1      3584 7.95898E-05-3.08758E-05-2.05527E-05-2.70097E-05-5.77954E-19 2.20345E-18
 -1      3585 9.23662E-05-3.96369E-05-2.26979E-05-2.77465E-05-3.89331E-19 1.00164E-18
 -1      3586 9.60465E-05-2.69126E-05-2.96203E-05-4.55160E-07-8.21729E-19-2.01303E-18
 -1      3587 9.60956E-05-2.74030E-05-2.94473E-05-3.91686E-08-7.48031E-19-2.01438E-18
 -1      3588 9.62834E-05-2.74520E-05-2.94996E-05 1.13292E-08-8.39313E-19-2.06675E-18
 -1      3589 6.99064E-05-2.45633E-05-1.92314E-05 2.39013E-05-1.29813E-18 2.69674E-19
 -1      3590 6.21528E-05-1.84850E-05-1.86022E-05 1.50523E-05-1.43293E-18-7.48089E-19
 -1      3591 9.56849E-05-2.55262E-05-3.00654E-05-1.51272E-06-9.95354E-19-2.33133E-18
 -1      3592 9.58413E-05-2.62618E-05-2.98301E-05-8.84075E-07-8.49346E-19-2.26142E-18
 -1      3593 9.60047E-05-2.62970E-05-2.98733E-05-7.19711E-07-7.08979E-19-2.22779E-18
 -1      3594 9.91248E-05-4.15648E-05-2.43960E-05-2.24615E-05-1.64214E-18-1.21480E-18
 -1      3595 1.06277E-04-4.50009E-05-2.64426E-05-1.76848E-05-1.07043E-18-1.40427E-18
 -1      3596 5.56456E-05-1.52239E-05-1.72412E-05 1.14727E-05 1.26311E-18-2.22537E-18
 -1      3597 5.37623E-05-1.35233E-05-1.71252E-05 1.96945E-06 1.58248E-18-2.76890E-18
 -1      3598 9.59588E-05-2.80776E-05-2.90964E-05-5.01863E-07 8.47189E-19-1.26146E-18
 -1      3599 9.59765E-05-2.77775E-05-2.92191E-05-2.20290E-07 1.05339E-18-1.21693E-18
 -1      3600 9.61218E-05-2.74051E-05-2.94517E-05 4.79700E-08 9.69629E-19-1.40352E-18
 -1      3601 7.29326E-05-2.66813E-05-1.98419E-05 2.39289E-05 1.86530E-18-2.94595E-18
 -1      3602 6.24140E-05-1.92439E-05-1.81900E-05 1.82864E-05 1.68422E-18-3.03055E-18
 -1      3603 9.49074E-05-2.34612E-05-3.06285E-05 3.06426E-06 2.11002E-18-1.77541E-18
 -1      3604 9.46735E-05-2.28233E-05-3.07923E-05 2.82281E-06 1.85398E-18-2.20843E-18
 -1      3605 7.84615E-05-2.77407E-05-2.15005E-05-2.25943E-05-5.26246E-19 2.50191E-18
 -1      3606 1.04915E-04-4.31690E-05-2.64853E-05-1.94606E-05 2.18176E-19-4.34157E-19
 -1      3607 9.00771E-05-3.48429E-05-2.37796E-05 2.18237E-05 2.42864E-18-7.95946E-20
 -1      3608 8.20762E-05-3.09388E-05-2.16805E-05 2.40129E-05 2.30141E-18-1.46688E-18
 -1      3609 7.78394E-05-2.63296E-05-2.20650E-05 2.02195E-05 1.87514E-18-1.70054E-18
 -1      3610 9.90417E-05-3.78950E-05-2.63263E-05 1.68158E-05 2.02477E-18-1.51194E-18
 -1      3611 6.98953E-05-2.32819E-05-1.96742E-05-2.13318E-05-3.29966E-19-7.40916E-19
 -1      3612 7.77764E-05-2.73146E-05-2.15622E-05-2.14515E-05-8.95588E-19 8.10531E-19
 -1      3613 6.72400E-05-2.00615E-05-2.01814E-05-1.61906E-05-1.99708E-19-1.12593E-18
 -1      3614 9.60825E-05-2.88381E-05-2.88216E-05-9.48757E-07 5.77019E-19-1.05740E-18
 -1      3615 9.58638E-05-2.87564E-05-2.87608E-05-1.01114E-06 7.59422E-19-1.32941E-18
 -1      3616 9.58967E-05-2.86514E-05-2.88151E-05-9.42276E-07 4.98373E-19-1.25009E-18
 -1      3617 9.57210E-05-2.88930E-05-2.86393E-05-1.06064E-06 5.35667E-19-9.76570E-19
 -1      3618 9.59739E-05-2.89488E-05-2.87273E-05-9.96786E-07 6.63419E-19-1.25473E-18
 -1      3619 9.56934E-05-2.89029E-05-2.86232E-05-1.04989E-06 4.88907E-19-1.13713E-18
 -1      3620 9.71566E-05-3.07662E-05-2.84294E-05-1.39407E-05 1.00617E-18-9.11468E-19
 -1      3621 9.60385E-05-2.91756E-05-2.86397E-05-1.34155E-05 1.07580E-18-9.13941E-19
 -1      3622 9.46875E-05-2.83320E-05-2.84652E-05-1.36735E-05 5.62032E-19-3.74601E-19
 -1      3623 9.53842E-05-3.06626E-05-2.77539E-05-1.54044E-05 1.74844E-19 8.03318E-19
 -1      3624 9.57267E-05-2.63942E-05-2.97223E-05 9.89521E-07 1.45926E-18-1.56359E-18
 -1      3625 9.56412E-05-2.58536E-05-2.99061E-05 1.58365E-06 1.65145E-18-1.58927E-18
 -1      3626 9.58964E-05-2.63892E-05-2.97887E-05 8.23331E-07 1.31716E-18-1.41676E-18
 -1      3627 9.57285E-05-2.89016E-05-2.86416E-05-9.63160E-07 1.02150E-18-1.34471E-18
 -1      3628 9.56060E-05-2.88666E-05-2.86008E-05-1.01276E-06 8.78390E-19-9.95619E-19
 -1      3629 9.56302E-05-2.88854E-05-2.86047E-05-1.03233E-06 8.84988E-19-1.03220E-18
 -1      3630 8.31918E-05-2.05926E-05-2.69034E-05-8.91320E-06 4.57570E-19-6.32982E-19
 -1      3631 8.09394E-05-2.01218E-05-2.60097E-05-8.33430E-06-7.14194E-19-5.08189E-19
 -1      3632 8.54609E-05-2.19351E-05-2.71448E-05-1.11054E-05 2.36684E-19 2.43537E-19
 -1      3633 9.38880E-05-2.10581E-05-3.12245E-05 8.10234E-07 8.30556E-19-3.26691E-18
 -1      3634 9.38384E-05-2.09631E-05-3.12434E-05 2.47500E-07 5.73626E-19-3.37840E-18
 -1      3635 9.64763E-05-3.05448E-05-2.82419E-05 1.48670E-05-7.93000E-19-1.29254E-18
 -1      3636 9.43465E-05-3.04226E-05-2.74776E-05 1.63539E-05-9.46313E-19-2.60751E-18
 -1      3637 9.50484E-05-2.88167E-05-2.83506E-05 1.45062E-05-3.76654E-19-1.78916E-18
 -1      3638 7.81527E-05-1.81254E-05-2.56612E-05-1.25218E-06-1.51192E-18-1.32623E-18
 -1      3639 7.99680E-05-1.81726E-05-2.65110E-05 8.33325E-07-1.03594E-18-1.29628E-18
 -1      3640 8.04888E-05-1.84749E-05-2.65687E-05 3.90070E-06-1.21018E-18-9.71508E-19
 -1      3641 9.58030E-05-2.81806E-05-2.90187E-05 1.31774E-05 9.50551E-19 3.87762E-19
 -1      3642 9.59302E-05-2.85097E-05-2.88967E-05-8.46220E-07 3.95790E-19-1.34640E-18
 -1      3643 9.59607E-05-2.83249E-05-2.89803E-05-6.92276E-07 5.49292E-19-1.24807E-18
 -1      3644 9.61643E-05-2.85878E-05-2.89640E-05-7.99635E-07 5.42391E-19-1.31362E-18
 -1      3645 7.98906E-05-2.92247E-05-2.15461E-05 2.37507E-05-1.36419E-18 4.53692E-19
 -1      3646 5.68938E-05-1.38538E-05-1.81653E-05-3.34650E-06 8.89421E-19-2.68933E-18
 -1      3647 6.15455E-05-1.57618E-05-1.96302E-05-8.15543E-06 4.13954E-19-2.16787E-18
 -1      3648 6.04530E-05-1.45140E-05-1.95696E-05 9.40557E-07 7.60450E-19-2.21613E-18
 -1      3649 6.39966E-05-1.80807E-05-1.94454E-05 1.33630E-05 1.22812E-18-2.31820E-18
 -1      3650 7.01284E-05-1.96181E-05-2.16726E-05 1.30790E-05-8.83568E-19 7.87291E-19
 -1      3651 6.30855E-05-1.68861E-05-1.95893E-05 9.41903E-06-8.12255E-19-1.08026E-18
 -1      3652 6.53688E-05-1.63211E-05-2.10411E-05 3.59273E-06-1.21702E-18-1.05720E-18
 -1      3653 6.48078E-05-1.79333E-05-1.98014E-05-1.04612E-05-1.56662E-18 1.04399E-18
 -1      3654 9.61925E-05-2.81385E-05-2.91684E-05-4.90784E-07 7.80361E-19-1.38364E-18
 -1      3655 9.39731E-05-2.12284E-05-3.11833E-05 1.25161E-06 1.02811E-18-3.17906E-18
 -1      3656 9.46316E-05-2.23954E-05-3.09416E-05 8.35289E-07 9.29814E-19-3.04947E-18
 -1      3657 9.41078E-05-2.15185E-05-3.11239E-05 1.77315E-06 1.37357E-18-3.04054E-18
 -1      3658 9.30411E-05-3.66122E-05-2.41494E-05-2.15796E-05-1.10375E-18-1.20861E-18
 -1      3659 9.49303E-05-2.33873E-05-3.06711E-05-2.72014E-06-1.06329E-18-3.03727E-18
 -1      3660 9.53738E-05-2.46798E-05-3.03007E-05-1.93155E-06-1.00303E-18-2.58758E-18
 -1      3661 9.54870E-05-2.47159E-05-3.03238E-05-1.59994E-06-7.46285E-19-2.66891E-18
 -1      3662 9.46759E-05-2.27444E-05-3.08216E-05-2.45564E-06-8.42636E-19-3.13152E-18
 -1      3663 8.62848E-05-2.25957E-05-2.73667E-05 1.18705E-05-1.96526E-18-3.54942E-19
 -1      3664 8.88200E-05-2.40915E-05-2.76776E-05 1.31779E-05-9.52101E-19-1.36444E-18
 -1      3665 1.07018E-04-4.69499E-05-2.55292E-05 2.25982E-05-1.70323E-18-3.93483E-18
 -1      3666 9.29837E-05-2.70565E-05-2.82448E-05-1.35858E-05 4.28791E-19-9.24139E-19
 -1      3667 9.16509E-05-2.60637E-05-2.80802E-05-1.34781E-05 8.19980E-19-8.55821E-19
 -1      3668 9.31343E-05-2.80778E-05-2.78803E-05-1.45008E-05 8.78928E-19-5.33395E-19
 -1      3669 9.43305E-05-2.19366E-05-3.10265E-05-1.73428E-06-3.18895E-19-3.07668E-18
 -1      3670 9.45078E-05-2.23580E-05-3.09339E-05-2.15037E-06-6.63527E-19-3.15347E-18
 -1      3671 9.50234E-05-2.34392E-05-3.06734E-05-1.74365E-06-5.96738E-19-2.97695E-18
 -1      3672 8.99995E-05-2.62729E-05-2.72960E-05 1.48453E-05-4.92418E-19-2.00010E-18
 -1      3673 9.14006E-05-2.61306E-05-2.80255E-05 1.39976E-05-7.68693E-19-3.14955E-18
 -1      3674 8.92220E-05-2.46010E-05-2.77642E-05-1.26889E-05 4.50319E-19-4.62228E-19
 -1      3675 1.03243E-04-4.27965E-05-2.58317E-05 2.11696E-05-2.26403E-18-4.72768E-18
 -1      3676 9.99626E-05-4.28407E-05-2.45111E-05 2.49725E-05-1.55999E-18-3.87979E-18
 -1      3677 9.33637E-05-3.77189E-05-2.38010E-05 2.49302E-05-1.73435E-18-2.24700E-18
 -1      3678 9.89130E-05-3.84087E-05-2.58019E-05 2.09564E-05-1.15349E-18-3.19405E-18
 -1      3679 7.53818E-05-2.36262E-05-2.20425E-05-1.89372E-05-8.25915E-19 2.34872E-18
 -1      3680 8.39416E-05-2.98235E-05-2.32671E-05-2.19557E-05-4.49402E-19 1.16538E-18
 -1      3681 9.65468E-05-2.85731E-05-2.91280E-05 5.88097E-07-6.14823E-19-1.77567E-18
 -1      3682 9.65126E-05-2.87592E-05-2.90389E-05 6.90423E-07-4.36193E-19-1.70880E-18
 -1      3683 9.64656E-05-2.88959E-05-2.89559E-05 7.40240E-07-2.94400E-19-1.61847E-18
 -1      3684 9.64067E-05-2.89890E-05-2.88936E-05 7.86813E-07-3.19443E-19-1.60245E-18
 -1      3685 9.66373E-05-2.88270E-05-2.90628E-05 6.04822E-07-3.90110E-19-1.73400E-18
 -1      3686 9.63285E-05-2.90425E-05-2.88353E-05 8.01796E-07-3.46038E-19-1.48642E-18
 -1      3687 9.62569E-05-2.90690E-05-2.87942E-05 8.15157E-07-3.45814E-19-1.56048E-18
 -1      3688 9.65128E-05-2.90412E-05-2.89180E-05 6.83613E-07-3.24898E-19-1.55834E-18
 -1      3689 9.61611E-05-2.90630E-05-2.87555E-05 8.11666E-07-6.41665E-19-1.62736E-18
 -1      3690 9.60834E-05-2.90415E-05-2.87311E-05 8.09439E-07-6.40558E-19-2.14152E-18
 -1      3691 9.63403E-05-2.91021E-05-2.88180E-05 7.07949E-07-6.03748E-19-1.48218E-18
 -1      3692 9.59773E-05-2.89922E-05-2.87079E-05 8.00263E-07-5.04788E-19-2.12717E-18
 -1      3693 9.58964E-05-2.89348E-05-2.86963E-05 7.96107E-07-7.18311E-19-2.01339E-18
 -1      3694 9.61401E-05-2.90518E-05-2.87536E-05 7.06253E-07-6.49480E-19-1.53670E-18
 -1      3695 9.57830E-05-2.88524E-05-2.86852E-05 7.91309E-07-6.01251E-19-1.82942E-18
 -1      3696 9.56991E-05-2.87665E-05-2.86836E-05 7.95899E-07-4.13105E-19-1.62162E-18
 -1      3697 9.59227E-05-2.89184E-05-2.87172E-05 7.00970E-07-4.99358E-19-1.45904E-18
 -1      3698 9.55779E-05-2.86567E-05-2.86818E-05 8.03428E-07-2.07488E-19-1.40556E-18
 -1      3699 9.54892E-05-2.85463E-05-2.86880E-05 8.25306E-07-7.74407E-20-1.01298E-18
 -1      3700 9.56904E-05-2.87192E-05-2.87025E-05 7.09837E-07-1.70672E-19-1.25620E-18
 -1      3701 9.53570E-05-2.84113E-05-2.86930E-05 8.51845E-07-4.82618E-19-9.79086E-19
 -1      3702 9.52601E-05-2.82776E-05-2.87049E-05 8.98277E-07-6.15275E-19-9.78933E-19
 -1      3703 9.54396E-05-2.84630E-05-2.87042E-05 7.47128E-07-2.27341E-19-1.46409E-18
 -1      3704 9.51117E-05-2.81172E-05-2.87146E-05 9.49680E-07-6.23653E-19-9.00095E-19
 -1      3705 9.50020E-05-2.79597E-05-2.87305E-05 1.02705E-06-5.69825E-19-8.53431E-19
 -1      3706 9.51619E-05-2.81527E-05-2.87174E-05 8.25159E-07-5.47840E-19-1.33284E-18
 -1      3707 9.48305E-05-2.77725E-05-2.87427E-05 1.10879E-06-5.44133E-19-8.54110E-19
 -1      3708 9.47025E-05-2.75898E-05-2.87606E-05 1.22314E-06-6.89945E-19-3.50054E-19
 -1      3709 9.48452E-05-2.77866E-05-2.87377E-05 9.54707E-07-5.94313E-19-1.12599E-18
 -1      3710 9.44997E-05-2.73735E-05-2.87728E-05 1.34080E-06-3.98310E-19-2.42147E-19
 -1      3711 9.43474E-05-2.71647E-05-2.87906E-05 1.49797E-06-1.69475E-19 1.49009E-19
 -1      3712 9.44745E-05-2.73613E-05-2.87602E-05 1.14635E-06-3.07122E-19-5.55896E-19
 -1      3713 9.41044E-05-2.69179E-05-2.87997E-05 1.65725E-06-5.84512E-20 3.73533E-19
 -1      3714 9.39221E-05-2.66833E-05-2.88146E-05 1.86294E-06 1.51661E-19 4.76240E-19
 -1      3715 9.40329E-05-2.68732E-05-2.87790E-05 1.41071E-06-1.26514E-20 1.50872E-19
 -1      3716 9.36298E-05-2.64068E-05-2.88166E-05 2.06998E-06 1.09108E-19 1.96596E-19
 -1      3717 9.34125E-05-2.61499E-05-2.88246E-05 2.32987E-06 4.33485E-19-9.49951E-20
 -1      3718 9.35026E-05-2.63215E-05-2.87869E-05 1.75875E-06 1.72971E-19 1.53111E-19
 -1      3719 9.30626E-05-2.58481E-05-2.88143E-05 2.59165E-06 1.44226E-19-1.28056E-19
 -1      3720 9.28079E-05-2.55778E-05-2.88104E-05 2.91161E-06-9.52087E-20-3.07444E-19
 -1      3721 9.28658E-05-2.57110E-05-2.87743E-05 2.20271E-06-1.09898E-19 2.27222E-19
 -1      3722 9.23940E-05-2.52612E-05-2.87808E-05 3.23675E-06 4.92598E-20-4.60890E-19
 -1      3723 9.21044E-05-2.49946E-05-2.87582E-05 3.62344E-06 1.03197E-19-5.48354E-19
 -1      3724 9.21079E-05-2.50562E-05-2.87286E-05 2.75732E-06 2.94714E-21-3.70178E-19
 -1      3725 9.16240E-05-2.46831E-05-2.87004E-05 4.02374E-06-2.57131E-20-4.42660E-19
 -1      3726 9.13106E-05-2.44494E-05-2.86503E-05 4.48595E-06 6.56348E-20-5.62060E-19
 -1      3727 9.12192E-05-2.43858E-05-2.86336E-05 3.44230E-06-5.82202E-20-1.44436E-19
 -1      3728 9.07675E-05-2.41759E-05-2.85528E-05 4.97936E-06 1.66234E-19-8.93388E-19
 -1      3729 9.04565E-05-2.40219E-05-2.84648E-05 5.53054E-06-2.36759E-19-8.19873E-19
 -1      3730 9.02000E-05-2.37496E-05-2.84681E-05 4.28730E-06-1.36833E-19-1.98524E-19
 -1      3731 8.98656E-05-2.38378E-05-2.83137E-05 6.14615E-06-7.85886E-19-1.24202E-18
 -1      3732 8.96075E-05-2.38357E-05-2.81760E-05 6.80809E-06-4.23092E-19-1.21915E-18
 -1      3733 8.90665E-05-2.32261E-05-2.82058E-05 5.34056E-06-4.38742E-19-1.40198E-18
 -1      3734 8.90020E-05-2.38182E-05-2.79549E-05 7.59346E-06-1.00063E-19-1.26466E-18
 -1      3735 8.88880E-05-2.40762E-05-2.77562E-05 8.40008E-06 3.23261E-19-7.72109E-19
 -1      3736 8.78616E-05-2.29344E-05-2.78148E-05 6.68293E-06-2.41173E-19-1.10086E-18
 -1      3737 8.83340E-05-2.43392E-05-2.74474E-05 9.42900E-06 3.43285E-19-1.45489E-18
 -1      3738 8.85209E-05-2.50157E-05-2.71817E-05 1.04253E-05 5.43586E-19-1.73050E-18
 -1      3739 8.66755E-05-2.30540E-05-2.72581E-05 8.44669E-06-1.80222E-19-7.86172E-19
 -1      3740 8.81472E-05-2.57333E-05-2.67697E-05 1.18107E-05 9.17758E-19-1.74776E-18
 -1      3741 8.88960E-05-2.70555E-05-2.64456E-05 1.30267E-05 1.42288E-18-1.76799E-18
 -1      3742 8.56768E-05-2.38488E-05-2.64970E-05 1.08386E-05 6.66942E-19-1.94661E-18
 -1      3743 9.45708E-05-2.73674E-05-2.87990E-05-1.55645E-06-3.78280E-19 3.14089E-19
 -1      3744 9.46867E-05-2.75537E-05-2.87756E-05-1.39775E-06 2.14379E-19 2.75768E-19
 -1      3745 9.46941E-05-3.39984E-05-2.60019E-05-1.91867E-05-9.29870E-19-3.79932E-19
 -1      3746 9.26678E-05-3.09982E-05-2.64234E-05-1.77065E-05-4.31112E-19 5.22960E-20
 -1      3747 9.89051E-05-4.28872E-05-2.37858E-05-2.62432E-05 4.29684E-19 1.01218E-18
 -1      3748 1.04899E-04-4.53053E-05-2.55539E-05-2.21128E-05 4.11023E-19-4.63036E-19
 -1      3749 8.74560E-05-2.44047E-05-2.70023E-05-1.32929E-05 3.45943E-19-4.78746E-19
 -1      3750 9.48595E-05-2.77491E-05-2.87592E-05-1.27717E-06 2.84511E-20-2.16189E-19
 -1      3751 9.49560E-05-2.79103E-05-2.87373E-05-1.16347E-06-3.91683E-21-2.64604E-19
 -1      3752 9.46483E-05-2.75311E-05-2.87624E-05-1.23349E-06-1.75902E-19 1.64910E-19
 -1      3753 9.51017E-05-2.80781E-05-2.87221E-05-1.08103E-06 1.49397E-19-6.06340E-19
 -1      3754 9.51842E-05-2.82159E-05-2.87034E-05-1.00615E-06-2.62582E-19-8.90601E-19
 -1      3755 9.49637E-05-2.79173E-05-2.87329E-05-1.03576E-06-1.10715E-19-2.94090E-19
 -1      3756 9.42211E-05-2.69297E-05-2.88366E-05-1.93053E-06-6.83750E-19 2.83631E-19
 -1      3757 9.43622E-05-2.71419E-05-2.88140E-05-1.72092E-06-4.80413E-19 4.27421E-19
 -1      3758 9.42706E-05-2.70839E-05-2.87911E-05-1.50904E-06-5.14129E-19 7.80197E-19
 -1      3759 9.37958E-05-2.64365E-05-2.88655E-05-2.41086E-06-4.33203E-19-1.75254E-19
 -1      3760 9.39674E-05-2.66732E-05-2.88469E-05-2.14476E-06-6.50708E-19-3.40727E-19
 -1      3761 9.38127E-05-2.65722E-05-2.88130E-05-1.87316E-06-2.95866E-19-2.78650E-20
 -1      3762 9.32815E-05-2.58955E-05-2.88768E-05-3.00872E-06-1.15718E-19-3.26782E-20
 -1      3763 9.34877E-05-2.61509E-05-2.88665E-05-2.68094E-06-2.18443E-19-1.65036E-20
 -1      3764 9.32562E-05-2.59972E-05-2.88195E-05-2.33680E-06-4.46009E-19-7.58685E-19
 -1      3765 9.26696E-05-2.53264E-05-2.88579E-05-3.73591E-06 1.03891E-20 4.18042E-19
 -1      3766 9.29110E-05-2.55878E-05-2.88621E-05-3.34148E-06 2.09909E-19 1.94528E-19
 -1      3767 9.25834E-05-2.53676E-05-2.87995E-05-2.91173E-06-3.03011E-19 3.30222E-20
 -1      3768 9.19610E-05-2.47683E-05-2.87925E-05-4.60658E-06 1.02116E-19 2.02809E-19
 -1      3769 9.22313E-05-2.50120E-05-2.88193E-05-4.13997E-06 5.69470E-20 5.06872E-19
 -1      3770 9.17808E-05-2.47051E-05-2.87377E-05-3.61235E-06-3.97177E-20 5.51565E-19
 -1      3771 9.11754E-05-2.42893E-05-2.86591E-05-5.64149E-06 9.99887E-20-5.56730E-19
 -1      3772 9.14554E-05-2.44748E-05-2.87189E-05-5.09478E-06 2.54832E-19 3.31852E-19
 -1      3773 9.08423E-05-2.40508E-05-2.86144E-05-4.45945E-06-6.07215E-20 8.40748E-20
 -1      3774 9.03647E-05-2.40007E-05-2.84314E-05-6.87564E-06-7.19536E-19-4.43304E-19
 -1      3775 9.06129E-05-2.40626E-05-2.85367E-05-6.23530E-06-3.72184E-19-6.01884E-19
 -1      3776 8.97767E-05-2.34740E-05-2.84037E-05-5.48778E-06-6.56563E-20-4.34226E-19
 -1      3777 8.96377E-05-2.40774E-05-2.80799E-05-8.36975E-06-5.54319E-19-1.05571E-18
 -1      3778 8.97739E-05-2.39133E-05-2.82435E-05-7.61253E-06-3.95773E-19-7.14009E-19
 -1      3779 8.86182E-05-2.30851E-05-2.80736E-05-6.75937E-06-2.86448E-19-4.34071E-19
 -1      3780 8.91996E-05-2.47863E-05-2.75761E-05-1.02197E-05-8.22098E-19-7.71417E-19
 -1      3781 8.90802E-05-2.42408E-05-2.78077E-05-9.31157E-06-7.75642E-19-7.64373E-19
 -1      3782 8.74479E-05-2.30568E-05-2.75864E-05-8.38307E-06-7.10272E-19-1.61175E-18
 -1      3783 8.94125E-05-2.65199E-05-2.69042E-05-1.25513E-05-8.48693E-19-4.99044E-19
 -1      3784 8.87967E-05-2.53682E-05-2.72022E-05-1.14588E-05-9.68385E-19-4.66367E-19
 -1      3785 8.64306E-05-2.36548E-05-2.69014E-05-1.05353E-05-1.10141E-18-1.24670E-18
 -1      3786 9.08560E-05-2.98378E-05-2.60782E-05-1.54867E-05-2.29142E-19-5.43477E-19
 -1      3787 8.94029E-05-2.77843E-05-2.64189E-05-1.41946E-05-3.97921E-19-1.47726E-19
 -1      3788 8.58910E-05-2.52881E-05-2.59816E-05-1.34816E-05-9.59723E-19-7.33274E-19
 -1      3789 9.62962E-05-2.75159E-05-2.94839E-05-6.66774E-08 7.54735E-19-1.62228E-18
 -1      3790 9.62280E-05-2.70263E-05-2.96508E-05 2.79368E-07 8.63251E-19-1.67691E-18
 -1      3791 9.06493E-05-2.77930E-05-2.68787E-05 1.62536E-05-6.55458E-19-2.70536E-18
 -1      3792 9.21258E-05-2.98817E-05-2.66397E-05 1.72594E-05-1.70464E-18-2.37218E-18
 -1      3793 8.73035E-05-2.56973E-05-2.64830E-05 1.55475E-05-1.49027E-18-1.26758E-18
 -1      3794 9.37093E-05-3.21210E-05-2.63200E-05 1.86729E-05-2.11294E-18-2.15285E-18
 -1      3795 9.59552E-05-3.52982E-05-2.59389E-05 1.98992E-05-1.03841E-18-2.19741E-18
 -1      3796 9.35828E-05-3.50934E-05-2.50789E-05 2.17455E-05-1.95327E-18-2.42372E-18
 -1      3797 8.92383E-05-2.94652E-05-2.56436E-05 1.86734E-05-1.52019E-18-1.68968E-18
 -1      3798 9.27899E-05-3.73041E-05-2.37928E-05-2.47445E-05-3.38469E-19 1.54081E-19
 -1      3799 9.40558E-05-3.57230E-05-2.49595E-05 1.91963E-05 2.18955E-18-1.23046E-18
 -1      3800 9.41651E-05-2.77581E-05-2.84267E-05 1.41298E-05 2.93223E-19-1.94165E-18
 -1      3801 9.56695E-05-2.87845E-05-2.86631E-05-8.68812E-07 5.06006E-19-1.19629E-18
 -1      3802 9.57347E-05-2.88564E-05-2.86628E-05-8.69247E-07 8.32980E-19-1.09824E-18
 -1      3803 9.63865E-05-2.82442E-05-2.92078E-05-5.06279E-07 6.08380E-19-1.46362E-18
 -1      3804 9.63820E-05-2.79296E-05-2.93308E-05-2.91574E-07 6.78284E-19-1.54744E-18
 -1      3805 9.64604E-05-2.75891E-05-2.95158E-05-1.01679E-07 7.52730E-19-1.68264E-18
 -1      3806 9.63579E-05-2.70950E-05-2.96789E-05-1.84930E-07-6.62060E-19-2.25926E-18
 -1      3807 9.64432E-05-2.75901E-05-2.95145E-05 1.14829E-07-5.58973E-19-2.17843E-18
 -1      3808 9.44805E-05-2.23496E-05-3.09313E-05 2.56347E-06 1.75697E-18-2.53387E-18
 -1      3809 9.42671E-05-2.18549E-05-3.10380E-05 2.13909E-06 1.45396E-18-2.68398E-18
 -1      3810 9.48170E-05-2.28861E-05-3.08140E-05 1.54859E-06 1.32645E-18-2.63556E-18
 -1      3811 9.59327E-05-2.57221E-05-3.00884E-05-9.11695E-07-5.25478E-19-2.43444E-18
 -1      3812 9.61415E-05-2.64572E-05-2.98728E-05-4.70873E-07-5.44400E-19-2.28361E-18
 -1      3813 9.62895E-05-2.65653E-05-2.98785E-05-3.39008E-07-5.02898E-19-2.23992E-18
 -1      3814 9.65314E-05-2.80042E-05-2.93642E-05 2.97667E-07-5.17870E-19-2.06271E-18
 -1      3815 9.65416E-05-2.83201E-05-2.92414E-05 4.83271E-07-6.83615E-19-1.93787E-18
 -1      3816 9.65879E-05-2.76813E-05-2.95305E-05 1.35531E-07-4.66695E-19-1.82116E-18
 -1      3817 6.89823E-05-1.98370E-05-2.10657E-05 1.47412E-05 1.56208E-18-1.94161E-18
 -1      3818 6.36488E-05-1.60712E-05-2.02789E-05 8.75975E-06 7.46307E-19-1.16925E-18
 -1      3819 8.50232E-05-3.07610E-05-2.31081E-05-2.17647E-05-8.92429E-20-2.36150E-19
 -1      3820 9.41718E-05-3.49546E-05-2.53347E-05-1.85082E-05-4.90684E-21-1.65161E-18
 -1      3821 9.12170E-05-3.15316E-05-2.55867E-05-1.71884E-05 4.14092E-19-7.74320E-19
 -1      3822 7.99597E-05-2.64740E-05-2.29745E-05-1.89684E-05 2.44184E-20 2.15001E-19
 -1      3823 9.52139E-05-2.42888E-05-3.03913E-05 2.88837E-06 2.03925E-18-1.63010E-18
 -1      3824 8.18775E-05-1.95662E-05-2.67704E-05 7.29416E-06-1.75937E-18-6.14677E-19
 -1      3825 8.37661E-05-2.06762E-05-2.69858E-05 9.73497E-06-2.05002E-18-6.92868E-19
 -1      3826 8.40641E-05-2.21616E-05-2.65076E-05 1.19905E-05-1.98120E-18-6.21939E-19
 -1      3827 7.96109E-05-1.91095E-05-2.58771E-05 6.26600E-06-2.02074E-18-2.40483E-19
 -1      3828 9.46229E-05-2.23428E-05-3.09594E-05 6.44617E-08 4.76553E-19-3.23016E-18
 -1      3829 9.39022E-05-2.10707E-05-3.12197E-05-1.63831E-07 5.04276E-19-3.39013E-18
 -1      3830 9.40099E-05-2.12919E-05-3.11774E-05-6.47494E-07 1.84153E-19-3.46678E-18
 -1      3831 9.08690E-05-3.24645E-05-2.49716E-05 1.84292E-05 1.76471E-18-1.19638E-18
 -1      3832 9.53665E-05-2.42479E-05-3.04858E-05-1.51779E-06-4.85128E-19-2.89295E-18
 -1      3833 9.56809E-05-2.50874E-05-3.02567E-05-1.12565E-06-4.87090E-19-2.62077E-18
 -1      3834 9.58259E-05-2.52485E-05-3.02443E-05-8.51193E-07-3.27903E-19-2.48531E-18
 -1      3835 9.52506E-05-2.38622E-05-3.05933E-05-1.27909E-06-3.15431E-19-2.71922E-18
 -1      3836 6.63443E-05-1.66435E-05-2.12089E-05-5.98382E-06-1.62702E-18 3.10491E-19
 -1      3837 6.97886E-05-1.97293E-05-2.15243E-05-1.40505E-05-1.25770E-18 1.74851E-18
 -1      3838 9.51116E-05-2.37131E-05-3.05850E-05 2.08354E-06 1.59922E-18-2.24126E-18
 -1      3839 9.54061E-05-2.50645E-05-3.01499E-05 2.08098E-06 1.90887E-18-1.69075E-18
 -1      3840 9.55120E-05-2.50515E-05-3.01996E-05 1.77895E-06 1.70485E-18-1.66244E-18
 -1      3841 6.58388E-05-1.74820E-05-2.04929E-05-1.20608E-05-2.28343E-19-1.75464E-18
 -1      3842 7.13467E-05-2.05512E-05-2.17427E-05-1.47039E-05-1.14321E-18-2.83650E-19
 -1      3843 6.60860E-05-1.65644E-05-2.12044E-05-7.68767E-06-2.31412E-19-1.65455E-18
 -1      3844 9.52331E-05-2.82473E-05-2.87077E-05-9.04950E-07-2.83708E-19-4.25074E-19
 -1      3845 9.53105E-05-2.83586E-05-2.86915E-05-9.56063E-07-3.33113E-19-6.66790E-19
 -1      3846 9.53837E-05-2.84746E-05-2.86773E-05-9.13562E-07-1.96300E-19-7.33761E-19
 -1      3847 8.89755E-05-2.85028E-05-2.59257E-05 1.49030E-05 1.60204E-18-1.75127E-18
 -1      3848 9.07005E-05-3.08052E-05-2.55819E-05 1.63094E-05 1.35663E-18-1.65365E-18
 -1      3849 9.40619E-05-2.13822E-05-3.11528E-05-9.95758E-07 8.89634E-20-3.34824E-18
 -1      3850 9.42333E-05-2.17456E-05-3.10793E-05-1.42122E-06-1.52653E-19-3.18989E-18
 -1      3851 9.48223E-05-2.28487E-05-3.08338E-05-1.19981E-06-2.39325E-19-2.92846E-18
 -1      3852 9.47159E-05-2.25527E-05-3.09111E-05-6.12157E-07 6.42382E-20-3.26592E-18
 -1      3853 9.62693E-05-2.89259E-05-2.88619E-05-8.71107E-07 4.68167E-19-1.09314E-18
 -1      3854 9.63201E-05-2.88274E-05-2.89224E-05-8.17701E-07 4.75916E-19-1.20056E-18
 -1      3855 8.71324E-05-2.65805E-05-2.59121E-05-1.63290E-05-1.54014E-19 3.38419E-19
 -1      3856 8.20167E-05-2.37016E-05-2.50651E-05-1.49428E-05-3.88110E-19 6.68941E-19
 -1      3857 9.58535E-05-2.89608E-05-2.86701E-05-9.89782E-07 6.83896E-19-1.19841E-18
 -1      3858 9.35808E-05-2.93687E-05-2.75056E-05-1.53016E-05 1.71511E-19-5.60192E-19
 -1      3859 9.58338E-05-2.89268E-05-2.86728E-05-8.77691E-07 9.07738E-19-1.19595E-18
 -1      3860 9.58979E-05-2.89721E-05-2.86824E-05-8.86202E-07 9.00401E-19-1.29287E-18
 -1      3861 9.58876E-05-2.89254E-05-2.86993E-05-7.95852E-07 7.69455E-19-9.79558E-19
 -1      3862 9.61401E-05-2.90203E-05-2.87650E-05-9.05783E-07 7.73544E-19-1.29110E-18
 -1      3863 9.61997E-05-2.89858E-05-2.88040E-05-8.91569E-07 7.10093E-19-1.31194E-18
 -1      3864 9.64083E-05-2.89877E-05-2.88965E-05-7.79781E-07 6.72728E-19-1.39372E-18
 -1      3865 9.61678E-05-2.64620E-05-2.98726E-05 4.82811E-07 9.88432E-19-1.91787E-18
 -1      3866 9.60206E-05-2.63876E-05-2.98512E-05 6.32941E-07 1.09416E-18-1.74788E-18
 -1      3867 8.62464E-05-2.80486E-05-2.49232E-05-1.70146E-05 2.74756E-19-1.19443E-18
 -1      3868 6.87045E-05-1.68447E-05-2.21603E-05 6.32240E-06 7.34318E-19-4.74954E-19
 -1      3869 6.39001E-05-1.52182E-05-2.07417E-05 4.54268E-06 7.79800E-19-1.24437E-18
 -1      3870 6.54976E-05-1.54070E-05-2.15097E-05-3.00455E-07 1.68020E-19-1.33639E-18
 -1      3871 8.86338E-05-3.17419E-05-2.41720E-05-2.18754E-05-6.42384E-19-6.08074E-19
 -1      3872 9.32424E-05-3.49693E-05-2.49943E-05-2.14985E-05-1.31067E-19-8.75369E-19
 -1      3873 8.52425E-05-2.85643E-05-2.42746E-05 1.81911E-05 1.96988E-18-1.83649E-18
 -1      3874 7.52292E-05-1.79852E-05-2.45922E-05-3.49698E-06-1.33098E-18-3.81430E-19
 -1      3875 7.48035E-05-1.76738E-05-2.45471E-05 4.75376E-07-2.02711E-18-1.33686E-18
 -1      3876 9.63617E-05-2.86870E-05-2.90054E-05-7.54395E-07 3.74643E-19-1.20770E-18
 -1      3877 9.63936E-05-2.84987E-05-2.90934E-05-6.36301E-07 5.13256E-19-1.41164E-18
 -1      3878 9.65182E-05-2.87583E-05-2.90415E-05-6.80779E-07 4.30443E-19-1.49043E-18
 -1      3879 7.66807E-05-2.20500E-05-2.32485E-05-1.44799E-05-1.71671E-18 1.08805E-18
 -1      3880 7.56204E-05-2.24734E-05-2.26096E-05 1.71228E-05-1.32547E-18-1.74108E-19
 -1      3881 7.48223E-05-2.04061E-05-2.32859E-05 1.24372E-05-9.09608E-19-1.23533E-19
 -1      3882 8.52223E-05-2.57284E-05-2.54979E-05 1.41369E-05 1.72262E-18-2.10995E-18
 -1      3883 9.65522E-05-2.83191E-05-2.92435E-05-4.71519E-07 3.92966E-19-1.76957E-18
 -1      3884 9.05027E-05-2.85415E-05-2.66300E-05-1.65867E-05-4.56147E-19-8.14223E-19
 -1      3885 6.97477E-05-1.72309E-05-2.24190E-05-6.53120E-07-6.42210E-19-4.17693E-20
 -1      3886 9.54969E-05-2.85939E-05-2.86706E-05-8.89816E-07-7.72420E-20-7.38609E-19
 -1      3887 9.55647E-05-2.86884E-05-2.86625E-05-8.72705E-07 3.62777E-19-8.82111E-19
 -1      3888 9.54701E-05-2.85251E-05-2.86909E-05-8.29770E-07-1.38640E-19-2.27924E-19
 -1      3889 8.36048E-05-2.36946E-05-2.56316E-05 1.46665E-05-1.57696E-18-8.93118E-19
 -1      3890 8.38298E-05-2.52175E-05-2.51119E-05 1.65465E-05-1.20864E-18-8.73175E-19
 -1      3891 9.56859E-05-2.87520E-05-2.86866E-05-7.98012E-07 3.08729E-19-5.62911E-19
 -1      3892 9.50975E-05-2.33812E-05-3.07424E-05 2.35398E-07 6.26701E-19-2.95021E-18
 -1      3893 9.51504E-05-2.34921E-05-3.07207E-05-9.46899E-08 3.98096E-19-3.03437E-18
 -1      3894 8.07781E-05-2.61440E-05-2.34128E-05 1.76519E-05 2.20553E-18-1.72203E-18
 -1      3895 7.39342E-05-2.23608E-05-2.19394E-05 1.69791E-05 2.36571E-18-2.43599E-18
 -1      3896 7.26458E-05-2.01629E-05-2.25323E-05 1.30102E-05 1.68806E-18-1.54732E-18
 -1      3897 8.08103E-05-2.47937E-05-2.40976E-05 1.56430E-05 2.14782E-18-2.01180E-18
 -1      3898 9.66794E-05-2.84002E-05-2.92629E-05 4.36117E-07-5.36600E-19-1.85827E-18
 -1      3899 7.77699E-05-2.01895E-05-2.46531E-05-1.05040E-05-1.05557E-18 2.54791E-19
 -1      3900 7.54545E-05-1.86855E-05-2.43512E-05-7.29625E-06-1.10882E-18-1.14308E-19
 -1      3901 9.51825E-05-2.36325E-05-3.06722E-05 8.62479E-07 1.09504E-18-2.81575E-18
 -1      3902 9.51266E-05-2.34702E-05-3.07163E-05 5.19249E-07 8.77136E-19-2.93435E-18
 -1      3903 9.56536E-05-2.44787E-05-3.04880E-05 3.18211E-07 6.87531E-19-2.69061E-18
 -1      3904 8.78121E-05-3.30032E-05-2.34124E-05 2.41916E-05-1.81337E-18-2.79316E-19
 -1      3905 7.85391E-05-2.57967E-05-2.25965E-05 2.01837E-05-1.64555E-18 1.34599E-19
 -1      3906 8.01186E-05-2.16233E-05-2.51639E-05 1.26308E-05-1.76620E-18-3.75216E-19
 -1      3907 9.55976E-05-2.50208E-05-3.02544E-05 1.49689E-06 1.48700E-18-1.94404E-18
 -1      3908 9.54885E-05-2.45682E-05-3.03918E-05 1.35486E-06 1.25859E-18-2.20131E-18
 -1      3909 8.25925E-05-2.60692E-05-2.42235E-05 1.82534E-05-9.40941E-19-2.23425E-19
 -1      3910 9.66916E-05-2.84469E-05-2.92507E-05-4.55768E-07 3.10061E-19-1.88445E-18
 -1      3911 9.66837E-05-2.81453E-05-2.93699E-05-3.10144E-07 5.43914E-19-1.80984E-18
 -1      3912 9.66718E-05-2.90348E-05-2.89858E-05 5.42962E-07-1.68116E-19-1.67970E-18
 -1      3913 9.65942E-05-2.91042E-05-2.89243E-05 5.72669E-07-2.37508E-19-1.49694E-18
 -1      3914 9.64968E-05-2.91342E-05-2.88687E-05 5.76289E-07-4.24718E-19-1.54891E-18
 -1      3915 9.64012E-05-2.91360E-05-2.88273E-05 5.86046E-07-4.65517E-19-1.37996E-18
 -1      3916 9.66337E-05-2.91341E-05-2.89297E-05 4.47544E-07-3.45471E-19-1.25707E-18
 -1      3917 9.62844E-05-2.91063E-05-2.87902E-05 5.81374E-07-6.38239E-19-1.20339E-18
 -1      3918 9.61782E-05-2.90582E-05-2.87647E-05 5.83154E-07-7.24790E-19-1.15863E-18
 -1      3919 9.64206E-05-2.91411E-05-2.88354E-05 4.58196E-07-5.34067E-19-1.26589E-18
 -1      3920 9.60484E-05-2.89836E-05-2.87422E-05 5.78080E-07-5.35863E-19-1.33642E-18
 -1      3921 9.59348E-05-2.88973E-05-2.87292E-05 5.81598E-07-2.62091E-19-1.06323E-18
 -1      3922 9.61758E-05-2.90382E-05-2.87744E-05 4.58297E-07-5.98700E-19-1.13302E-18
 -1      3923 9.57942E-05-2.87872E-05-2.87180E-05 5.82475E-07-4.06485E-19-1.17168E-18
 -1      3924 9.56728E-05-2.86695E-05-2.87145E-05 5.95168E-07-3.15755E-19-1.33974E-18
 -1      3925 9.59078E-05-2.88505E-05-2.87395E-05 4.61469E-07-3.14398E-19-7.99487E-19
 -1      3926 9.55193E-05-2.85283E-05-2.87117E-05 6.06760E-07-1.68005E-19-1.65791E-18
 -1      3927 9.53867E-05-2.83818E-05-2.87152E-05 6.35140E-07-2.22819E-19-1.57357E-18
 -1      3928 9.56168E-05-2.85930E-05-2.87246E-05 4.78192E-07-4.27173E-19-1.26100E-18
 -1      3929 9.52159E-05-2.82111E-05-2.87183E-05 6.62132E-07-3.58571E-19-1.65599E-18
 -1      3930 9.50670E-05-2.80362E-05-2.87265E-05 7.11529E-07-4.21294E-19-1.48795E-18
 -1      3931 9.52959E-05-2.82714E-05-2.87240E-05 5.17416E-07-1.67590E-19-1.90390E-18
 -1      3932 9.48715E-05-2.78350E-05-2.87327E-05 7.57704E-07-3.55264E-19-1.27975E-18
 -1      3933 9.46994E-05-2.76302E-05-2.87431E-05 8.32936E-07-3.77939E-19-1.15264E-18
 -1      3934 9.49334E-05-2.78871E-05-2.87324E-05 5.87226E-07-1.71901E-19-1.45582E-18
 -1      3935 9.44697E-05-2.73956E-05-2.87498E-05 9.02578E-07-3.79205E-19-8.39228E-19
 -1      3936 9.42662E-05-2.71588E-05-2.87598E-05 1.00870E-06-1.00245E-19-6.87932E-19
 -1      3937 9.45127E-05-2.74367E-05-2.87442E-05 6.94011E-07-7.94280E-20-8.63931E-19
 -1      3938 9.39922E-05-2.68887E-05-2.87634E-05 1.10594E-06 5.61602E-20-4.82088E-19
 -1      3939 9.37484E-05-2.66184E-05-2.87697E-05 1.24769E-06 5.21685E-20-3.33656E-19
 -1      3940 9.40146E-05-2.69145E-05-2.87532E-05 8.46662E-07-1.51253E-19-8.77687E-19
 -1      3941 9.34181E-05-2.63111E-05-2.87662E-05 1.37719E-06-2.26117E-19-3.25572E-19
 -1      3942 9.31248E-05-2.60077E-05-2.87644E-05 1.55974E-06-1.17524E-19-7.38513E-19
 -1      3943 9.34168E-05-2.63168E-05-2.87517E-05 1.05217E-06-2.07237E-19-7.64519E-19
 -1      3944 9.27260E-05-2.56640E-05-2.87484E-05 1.72714E-06-2.92064E-20-4.43228E-19
 -1      3945 9.23747E-05-2.53313E-05-2.87330E-05 1.95639E-06 1.32088E-20-2.31034E-19
 -1      3946 9.26953E-05-2.56421E-05-2.87298E-05 1.31984E-06-3.11668E-20-5.87262E-19
 -1      3947 9.18947E-05-2.49559E-05-2.86974E-05 2.16891E-06-2.27818E-19-9.66981E-20
 -1      3948 9.14789E-05-2.46034E-05-2.86611E-05 2.45237E-06-4.03254E-19-5.62277E-19
 -1      3949 9.18253E-05-2.48953E-05-2.86751E-05 1.66105E-06-1.15285E-19-5.36557E-19
 -1      3950 9.09053E-05-2.42071E-05-2.85966E-05 2.72012E-06-1.87887E-19-4.55117E-19
 -1      3951 9.04219E-05-2.38519E-05-2.85299E-05 3.06866E-06 4.14231E-20-4.81925E-20
 -1      3952 9.07822E-05-2.40902E-05-2.85707E-05 2.09137E-06-9.40094E-20-1.42962E-20
 -1      3953 8.97425E-05-2.34532E-05-2.84244E-05 3.40717E-06-1.42529E-19-1.78359E-19
 -1      3954 8.91944E-05-2.31233E-05-2.83152E-05 3.83823E-06-4.87585E-19-4.98509E-19
 -1      3955 8.95413E-05-2.32526E-05-2.83950E-05 2.63431E-06-5.31517E-20-3.40899E-19
 -1      3956 8.83964E-05-2.27504E-05-2.81530E-05 4.27300E-06-8.90241E-19-5.22134E-19
 -1      3957 8.77969E-05-2.24882E-05-2.79862E-05 4.81614E-06-6.50542E-19-9.71378E-19
 -1      3958 8.80776E-05-2.24233E-05-2.81197E-05 3.32819E-06-6.46877E-19-5.05398E-19
 -1      3959 8.68655E-05-2.21817E-05-2.77470E-05 5.39067E-06-2.77901E-19-8.37951E-19
 -1      3960 8.62448E-05-2.20503E-05-2.75044E-05 6.09633E-06 1.32127E-19-5.70180E-19
 -1      3961 8.63634E-05-2.16601E-05-2.77079E-05 4.23844E-06-4.79750E-19-3.10564E-19
 -1      3962 8.51622E-05-2.18663E-05-2.71613E-05 6.88569E-06-8.74216E-21-7.04191E-19
 -1      3963 8.45817E-05-2.19613E-05-2.68213E-05 7.83778E-06 1.17166E-19-5.67920E-19
 -1      3964 8.43637E-05-2.10422E-05-2.71107E-05 5.47877E-06 1.17301E-19-5.59698E-19
 -1      3965 8.33340E-05-2.19810E-05-2.63382E-05 8.95966E-06 2.82831E-19-4.98067E-19
 -1      3966 8.28781E-05-2.24367E-05-2.58729E-05 1.03010E-05 8.14069E-19-8.95605E-19
 -1      3967 8.20386E-05-2.06979E-05-2.62606E-05 7.23836E-06 5.28149E-20 4.77947E-19
 -1      3968 9.34398E-05-2.62559E-05-2.87925E-05-1.71660E-06-2.83513E-19 8.77666E-20
 -1      3969 9.36948E-05-2.65403E-05-2.87863E-05-1.52322E-06 7.63752E-20 3.61851E-19
 -1      3970 9.92336E-05-3.88592E-05-2.57352E-05-2.07643E-05 1.88971E-19-2.33861E-19
 -1      3971 9.59917E-05-2.90113E-05-2.87046E-05-8.97699E-07 8.12704E-19-1.47212E-18
 -1      3972 9.60549E-05-2.90227E-05-2.87271E-05-9.02595E-07 7.78356E-19-1.28871E-18
 -1      3973 9.62555E-05-2.90664E-05-2.87971E-05-8.10264E-07 8.87408E-19-1.28812E-18
 -1      3974 9.60784E-05-2.90360E-05-2.87340E-05-8.06955E-07 8.03210E-19-1.35737E-18
 -1      3975 9.66470E-05-2.88567E-05-2.90542E-05-6.09008E-07 5.28510E-19-1.97197E-18
 -1      3976 9.66876E-05-2.86841E-05-2.91416E-05-5.29218E-07 2.56435E-19-2.00776E-18
 -1      3977 9.67978E-05-2.85308E-05-2.92577E-05-3.90323E-07 4.24714E-19-1.96355E-18
 -1      3978 9.44521E-05-2.73328E-05-2.87643E-05-1.12532E-06-6.12548E-19 5.65046E-19
 -1      3979 9.46258E-05-2.75502E-05-2.87504E-05-1.01364E-06-6.26946E-21 3.63146E-19
 -1      3980 9.63104E-05-2.66655E-05-2.98559E-05 2.66213E-07 8.07961E-19-2.12279E-18
 -1      3981 9.61035E-05-2.59577E-05-3.00597E-05 6.27249E-07 9.51356E-19-2.25630E-18
 -1      3982 9.39947E-05-2.68301E-05-2.87840E-05-1.38191E-06-2.46727E-19 4.40313E-19
 -1      3983 9.42044E-05-2.70805E-05-2.87721E-05-1.23177E-06-5.69480E-19 4.37065E-19
 -1      3984 9.36625E-05-2.65265E-05-2.87676E-05-1.22683E-06-8.20840E-20 4.52311E-19
 -1      3985 9.48330E-05-2.77677E-05-2.87410E-05-9.37666E-07-2.37060E-19 1.90490E-19
 -1      3986 9.49795E-05-2.79544E-05-2.87278E-05-8.59675E-07-4.00650E-19 5.15041E-20
 -1      3987 9.46546E-05-2.75793E-05-2.87442E-05-8.26620E-07-3.97641E-19 6.60432E-19
 -1      3988 9.27652E-05-2.56112E-05-2.87800E-05-2.13883E-06-3.79521E-19 1.14195E-19
 -1      3989 9.30749E-05-2.59278E-05-2.87846E-05-1.89738E-06-3.12529E-19 6.26755E-21
 -1      3990 9.30045E-05-2.58842E-05-2.87591E-05-1.52327E-06-2.03594E-19 8.94621E-19
 -1      3991 9.19496E-05-2.49050E-05-2.87332E-05-2.65945E-06-2.23776E-19-2.24963E-19
 -1      3992 9.23221E-05-2.52473E-05-2.87553E-05-2.36445E-06-3.01489E-19-3.04728E-19
 -1      3993 9.22048E-05-2.51647E-05-2.87227E-05-1.89495E-06-5.59927E-20 5.10938E-19
 -1      3994 9.09737E-05-2.41589E-05-2.86348E-05-3.29287E-06 3.43148E-20-5.45386E-19
 -1      3995 9.14149E-05-2.45132E-05-2.86831E-05-2.93701E-06 8.81787E-20-5.25787E-19
 -1      3996 9.12369E-05-2.43776E-05-2.86429E-05-2.35247E-06 2.43109E-19-9.12978E-19
 -1      3997 8.98240E-05-2.34122E-05-2.84614E-05-4.06193E-06-2.66893E-19-3.77806E-19
 -1      3998 9.03341E-05-2.37545E-05-2.85478E-05-3.63329E-06-3.26910E-19-7.38598E-19
 -1      3999 9.00742E-05-2.35436E-05-2.84992E-05-2.91160E-06-7.79736E-20-1.25457E-18
 -1      4000 8.84961E-05-2.27291E-05-2.81834E-05-5.00694E-06-4.99795E-19 1.42200E-19
 -1      4001 8.90662E-05-2.30207E-05-2.83226E-05-4.48401E-06-2.28819E-19 1.30160E-19
 -1      4002 8.86903E-05-2.26989E-05-2.82646E-05-3.59932E-06-6.03265E-19-7.25051E-19
 -1      4003 8.70019E-05-2.22073E-05-2.77628E-05-6.20176E-06-7.88378E-20-1.68200E-19
 -1      4004 8.76062E-05-2.23889E-05-2.79732E-05-5.54496E-06-1.27113E-19 7.69330E-21
 -1      4005 8.70575E-05-2.18980E-05-2.79039E-05-4.46528E-06-4.20054E-20 5.46985E-19
 -1      4006 8.53828E-05-2.19959E-05-2.71522E-05-7.78099E-06-8.79899E-19-6.20378E-19
 -1      4007 8.59644E-05-2.19747E-05-2.74552E-05-6.92007E-06-6.04972E-19-6.04820E-19
 -1      4008 8.51438E-05-2.12177E-05-2.73702E-05-5.60315E-06-3.53589E-19 6.10616E-20
 -1      4009 8.37445E-05-2.23293E-05-2.62941E-05-9.97010E-06-9.14346E-19-5.96037E-19
 -1      4010 8.41895E-05-2.19573E-05-2.67132E-05-8.79021E-06-6.56405E-19-2.69343E-19
 -1      4011 8.29186E-05-2.07773E-05-2.66002E-05-7.19037E-06-7.78986E-19 9.17641E-20
 -1      4012 8.22361E-05-2.35431E-05-2.51120E-05-1.31389E-05-8.33260E-19-8.24802E-19
 -1      4013 8.23881E-05-2.26004E-05-2.56778E-05-1.14291E-05-9.17077E-19-6.17805E-19
 -1      4014 8.03684E-05-2.07773E-05-2.55083E-05-9.47443E-06-9.55275E-19-1.46679E-19
 -1      4015 8.12352E-05-2.54565E-05-2.38525E-05-1.66572E-05-1.01892E-19-8.67779E-20
 -1      4016 8.09627E-05-2.41241E-05-2.44263E-05-1.48383E-05-6.93723E-19-6.76961E-19
 -1      4017 7.77315E-05-2.12118E-05-2.41517E-05-1.23604E-05-9.20925E-19-3.38331E-19
 -1      4018 7.50295E-05-2.22582E-05-2.24874E-05-1.62035E-05-7.50345E-19 7.98415E-19
 -1      4019 8.57542E-05-2.81518E-05-2.46270E-05-1.90896E-05-4.13028E-19 6.66780E-19
 -1      4020 9.67881E-05-2.82422E-05-2.93745E-05 2.85867E-07-5.10343E-19-1.88619E-18
 -1      4021 9.67949E-05-2.85333E-05-2.92573E-05 4.04429E-07-4.41135E-19-1.90870E-18
 -1      4022 8.18515E-05-2.28404E-05-2.53562E-05 1.17503E-05 9.14528E-19-1.50203E-18
 -1      4023 8.17405E-05-2.38952E-05-2.47563E-05 1.36468E-05 1.49893E-18-1.71936E-18
 -1      4024 7.78757E-05-2.16886E-05-2.39920E-05 1.29268E-05 1.69979E-18-1.31387E-18
 -1      4025 7.97670E-05-2.08233E-05-2.52162E-05 9.63420E-06 3.40370E-19 2.66484E-19
 -1      4026 9.56918E-05-2.87147E-05-2.87030E-05-6.94871E-07-2.70082E-19-1.25996E-20
 -1      4027 9.57970E-05-2.88191E-05-2.87055E-05-6.84978E-07 8.46141E-20-3.69030E-19
 -1      4028 9.66030E-05-2.77500E-05-2.95137E-05-1.75809E-07 5.71563E-19-1.83003E-18
 -1      4029 9.65210E-05-2.72763E-05-2.96713E-05 6.32332E-08 7.46129E-19-1.81916E-18
 -1      4030 9.64527E-05-2.68128E-05-2.98455E-05 1.69998E-07 6.04158E-19-2.12376E-18
 -1      4031 9.67234E-05-2.78545E-05-2.95137E-05-1.74630E-07 5.87077E-19-1.82272E-18
 -1      4032 9.13439E-05-3.38263E-05-2.45615E-05 2.20350E-05-1.87305E-18-1.52713E-18
 -1      4033 9.62248E-05-2.61126E-05-3.00441E-05-4.46605E-07-2.20617E-19-2.50468E-18
 -1      4034 9.64360E-05-2.68049E-05-2.98473E-05-1.56529E-07-2.71012E-19-2.28104E-18
 -1      4035 7.60212E-05-1.90834E-05-2.43649E-05 9.02119E-06-2.12114E-18 6.91470E-19
 -1      4036 9.56354E-05-2.44174E-05-3.05054E-05-1.19391E-07 2.06909E-19-2.83280E-18
 -1      4037 9.51563E-05-2.35082E-05-3.07124E-05-3.19075E-07 2.21007E-19-3.16472E-18
 -1      4038 9.51873E-05-2.36018E-05-3.06880E-05-5.93866E-07-5.55245E-21-3.07158E-18
 -1      4039 9.58441E-05-2.57641E-05-3.00244E-05 1.06083E-06 1.39801E-18-1.77370E-18
 -1      4040 9.66258E-05-2.73946E-05-2.96685E-05-4.41432E-09-3.40750E-19-2.14545E-18
 -1      4041 9.67171E-05-2.78589E-05-2.95145E-05 1.90635E-07-3.84103E-19-1.99657E-18
 -1      4042 9.65589E-05-2.69668E-05-2.98231E-05-8.51759E-08-1.21243E-19-2.29332E-18
 -1      4043 7.41347E-05-1.79089E-05-2.41012E-05 5.28962E-06-2.07670E-18-5.34158E-19
 -1      4044 9.67828E-05-2.87595E-05-2.91508E-05 4.56568E-07-2.71650E-19-1.79362E-18
 -1      4045 9.67369E-05-2.89225E-05-2.90643E-05 5.21372E-07-2.40511E-19-1.67499E-18
 -1      4046 9.67959E-05-2.89784E-05-2.90657E-05 4.09972E-07-1.66069E-19-1.39997E-18
 -1      4047 9.59213E-05-2.88834E-05-2.87315E-05-5.77386E-07-3.01156E-21-4.49874E-19
 -1      4048 9.59259E-05-2.89173E-05-2.87166E-05-6.86417E-07 6.31941E-19-7.93530E-19
 -1      4049 9.60254E-05-2.89913E-05-2.87289E-05-6.85751E-07 7.66570E-19-8.36799E-19
 -1      4050 9.51561E-05-2.81400E-05-2.87198E-05-8.09911E-07-1.66859E-19-6.40783E-19
 -1      4051 9.52831E-05-2.82984E-05-2.87097E-05-7.60261E-07-2.39828E-19-3.37820E-19
 -1      4052 9.50344E-05-2.79989E-05-2.87283E-05-7.07616E-07-7.47229E-19-2.20940E-19
 -1      4053 9.51785E-05-2.36040E-05-3.06787E-05-8.17100E-07-1.17424E-19-2.92045E-18
 -1      4054 9.52390E-05-2.37930E-05-3.06269E-05-1.07231E-06-3.24411E-19-2.80914E-18
 -1      4055 9.55839E-05-2.45271E-05-3.04459E-05-8.85099E-07-2.89352E-19-2.72198E-18
 -1      4056 9.56245E-05-2.44561E-05-3.04875E-05-5.05318E-07-2.96521E-21-2.96353E-18
 -1      4057 9.42045E-05-2.70904E-05-2.87596E-05-9.97142E-07-3.28229E-19 7.72323E-19
 -1      4058 9.65893E-05-2.89785E-05-2.89740E-05-6.42299E-07 6.46059E-19-1.74774E-18
 -1      4059 9.67345E-05-2.89182E-05-2.90655E-05-5.08059E-07 5.23954E-19-2.15022E-18
 -1      4060 9.65208E-05-2.90590E-05-2.89123E-05-6.79409E-07 7.06606E-19-1.60983E-18
 -1      4061 7.28183E-05-1.99458E-05-2.27201E-05-1.26546E-05-1.06905E-18-5.12773E-19
 -1      4062 9.68187E-05-2.79795E-05-2.95017E-05 1.68800E-07-3.58123E-19-1.95204E-18
 -1      4063 7.15543E-05-1.75742E-05-2.30512E-05-5.46212E-06-5.65608E-19-1.91363E-19
 -1      4064 6.72347E-05-1.57974E-05-2.19250E-05-3.86258E-06-3.58206E-19-1.80187E-18
 -1      4065 7.02747E-05-1.74348E-05-2.26635E-05-7.47867E-06-7.17017E-19-9.52591E-19
 -1      4066 6.96863E-05-1.62850E-05-2.28916E-05-8.97273E-07-2.17019E-20-9.44693E-19
 -1      4067 9.55517E-05-2.85863E-05-2.87008E-05-7.05691E-07-8.14723E-20-1.19711E-19
 -1      4068 9.56545E-05-2.86494E-05-2.87168E-05-5.91752E-07-1.32739E-19-3.51169E-19
 -1      4069 9.54381E-05-2.84548E-05-2.87056E-05-7.32428E-07-1.22622E-19-3.36197E-19
 -1      4070 9.68738E-05-2.86178E-05-2.92529E-05 3.24754E-07-3.16338E-19-1.77713E-18
 -1      4071 9.57688E-05-2.51220E-05-3.02774E-05 8.74551E-07 1.13606E-18-2.32621E-18
 -1      4072 9.52512E-05-2.38805E-05-3.05962E-05 1.37088E-06 1.25036E-18-2.54387E-18
 -1      4073 7.47485E-05-2.01665E-05-2.33681E-05 1.14482E-05 1.33866E-18-9.90612E-19
 -1      4074 7.10668E-05-1.78603E-05-2.26637E-05 9.15272E-06 8.98437E-19-3.89423E-19
 -1      4075 7.06661E-05-1.71442E-05-2.29959E-05 5.50444E-06 3.40264E-19 1.96386E-19
 -1      4076 7.56758E-05-1.96489E-05-2.40837E-05 9.63344E-06 9.47276E-19-6.17093E-20
 -1      4077 9.58364E-05-2.51959E-05-3.02800E-05-6.82677E-07-2.86928E-19-2.62052E-18
 -1      4078 9.59934E-05-2.54438E-05-3.02364E-05-4.68530E-07-1.29276E-19-2.61665E-18
 -1      4079 9.59778E-05-2.52639E-05-3.03127E-05 3.62229E-10 3.67204E-19-2.62081E-18
 -1      4080 9.59854E-05-2.52897E-05-3.03055E-05-1.72366E-07 9.56053E-20-2.73270E-18
 -1      4081 9.51351E-05-2.35554E-05-3.06815E-05 1.06766E-06 1.16420E-18-2.74876E-18
 -1      4082 8.71363E-05-2.82070E-05-2.51756E-05 1.89067E-05-1.39058E-18-2.51433E-19
 -1      4083 9.59964E-05-2.53654E-05-3.02767E-05 3.28233E-07 6.91907E-19-2.58728E-18
 -1      4084 9.59795E-05-2.52846E-05-3.03041E-05 1.36372E-07 4.37688E-19-2.57910E-18
 -1      4085 9.63177E-05-2.60270E-05-3.01146E-05 6.17709E-08 3.36746E-19-2.40364E-18
 -1      4086 9.56257E-05-2.45139E-05-3.04636E-05 7.15791E-07 1.04877E-18-2.71448E-18
 -1      4087 9.59067E-05-2.53168E-05-3.02499E-05 6.42186E-07 1.00444E-18-2.45476E-18
 -1      4088 9.60178E-05-2.54501E-05-3.02488E-05-3.11105E-07-1.26286E-20-2.82630E-18
 -1      4089 9.65373E-05-2.91746E-05-2.88691E-05 3.15303E-07-5.51943E-19-1.02749E-18
 -1      4090 9.64207E-05-2.91480E-05-2.88304E-05 3.22115E-07-5.60947E-19-1.14796E-18
 -1      4091 9.62872E-05-2.90921E-05-2.87976E-05 3.16813E-07-4.25963E-19-8.65173E-19
 -1      4092 9.61574E-05-2.90166E-05-2.87738E-05 3.21288E-07-3.05921E-19-5.66036E-19
 -1      4093 9.63864E-05-2.91271E-05-2.88267E-05 1.79931E-07-2.62945E-19-4.50426E-19
 -1      4094 9.60103E-05-2.89172E-05-2.87543E-05 3.18774E-07-3.72829E-19-4.17178E-19
 -1      4095 9.58708E-05-2.88038E-05-2.87420E-05 3.26526E-07-4.31485E-19-4.63318E-19
 -1      4096 9.61073E-05-2.89704E-05-2.87739E-05 1.80681E-07-1.89407E-19-2.93609E-19
 -1      4097 9.57091E-05-2.86681E-05-2.87326E-05 3.26307E-07-6.86895E-19-4.01281E-19
 -1      4098 9.55557E-05-2.85202E-05-2.87288E-05 3.41511E-07-4.17241E-19-5.51729E-19
 -1      4099 9.58049E-05-2.87340E-05-2.87451E-05 1.84250E-07-5.08786E-19-2.13429E-19
 -1      4100 9.53788E-05-2.83524E-05-2.87267E-05 3.49795E-07-5.28938E-20-9.75754E-19
 -1      4101 9.52074E-05-2.81729E-05-2.87288E-05 3.75156E-07-9.68183E-20-9.60999E-19
 -1      4102 9.54692E-05-2.84252E-05-2.87327E-05 1.97649E-07-5.50535E-19-1.05660E-19
 -1      4103 9.50073E-05-2.79722E-05-2.87311E-05 3.91545E-07-3.92815E-20-7.52769E-19
 -1      4104 9.48111E-05-2.77604E-05-2.87362E-05 4.30510E-07-1.09363E-20-5.81244E-19
 -1      4105 9.50975E-05-2.80499E-05-2.87325E-05 2.21202E-07 1.73016E-19-9.97037E-20
 -1      4106 9.45761E-05-2.75231E-05-2.87400E-05 4.58855E-07-1.97066E-19-8.31559E-19
 -1      4107 9.43474E-05-2.72756E-05-2.87454E-05 5.16420E-07-2.63715E-19-6.51323E-19
 -1      4108 9.46637E-05-2.75982E-05-2.87380E-05 2.59807E-07-2.43134E-19-8.59157E-19
 -1      4109 9.40690E-05-2.70020E-05-2.87472E-05 5.57107E-07-2.25379E-19-8.06983E-19
 -1      4110 9.37963E-05-2.67167E-05-2.87493E-05 6.34768E-07 4.23935E-20-8.43479E-19
 -1      4111 9.41605E-05-2.70768E-05-2.87428E-05 3.15786E-07-3.53937E-19-1.22112E-18
 -1      4112 9.34611E-05-2.64020E-05-2.87451E-05 6.91783E-07-1.42243E-19-5.97624E-19
 -1      4113 9.31323E-05-2.60768E-05-2.87396E-05 7.92992E-07-2.12169E-19-5.57997E-19
 -1      4114 9.35569E-05-2.64735E-05-2.87395E-05 3.93044E-07 2.32050E-19-1.43041E-18
 -1      4115 9.27263E-05-2.57198E-05-2.87242E-05 8.69819E-07-1.24798E-19-4.35449E-19
 -1      4116 9.23291E-05-2.53550E-05-2.87054E-05 9.98520E-07-3.11136E-20-5.13966E-19
 -1      4117 9.28279E-05-2.57842E-05-2.87187E-05 4.96874E-07 6.00086E-20-1.12572E-18
 -1      4118 9.18371E-05-2.49567E-05-2.86721E-05 1.09972E-06 9.30030E-20-5.21340E-19
 -1      4119 9.13586E-05-2.45560E-05-2.86328E-05 1.26098E-06 8.03112E-20-4.58562E-19
 -1      4120 9.19444E-05-2.50076E-05-2.86683E-05 6.33179E-07 2.60744E-20-7.62273E-19
 -1      4121 9.07635E-05-2.41211E-05-2.85726E-05 1.39291E-06-1.00770E-19-4.96374E-19
 -1      4122 9.01912E-05-2.36930E-05-2.85031E-05 1.59417E-06-1.69435E-19-5.76347E-19
 -1      4123 9.08746E-05-2.41479E-05-2.85726E-05 8.10297E-07 3.08547E-20-8.61792E-19
 -1      4124 8.94732E-05-2.32310E-05-2.84045E-05 1.76620E-06-3.56380E-19-6.92341E-19
 -1      4125 8.87945E-05-2.27899E-05-2.82924E-05 2.01942E-06-2.04543E-19-1.05760E-18
 -1      4126 8.95829E-05-2.32165E-05-2.84108E-05 1.04058E-06-2.98182E-19-1.15153E-18
 -1      4127 8.79285E-05-2.23152E-05-2.81398E-05 2.24608E-06-2.08852E-19-1.34846E-18
 -1      4128 8.71295E-05-2.18820E-05-2.79687E-05 2.57177E-06-4.54216E-19-7.16859E-19
 -1      4129 8.80263E-05-2.22325E-05-2.81554E-05 1.34324E-06-4.66182E-19-1.44189E-18
 -1      4130 8.60794E-05-2.14127E-05-2.77415E-05 2.87660E-06-4.73001E-19-8.72980E-19
 -1      4131 8.51435E-05-2.10150E-05-2.74898E-05 3.31086E-06-4.19802E-19-5.28802E-19
 -1      4132 8.61471E-05-2.12203E-05-2.77699E-05 1.74908E-06-6.83968E-19-1.29959E-18
 -1      4133 8.38509E-05-2.05694E-05-2.71593E-05 3.73442E-06-5.96849E-19-6.29192E-19
 -1      4134 8.27582E-05-2.02435E-05-2.67980E-05 4.34146E-06-3.40817E-19-6.81962E-19
 -1      4135 8.38562E-05-2.02038E-05-2.72041E-05 2.30780E-06-6.49651E-19-1.40468E-18
 -1      4136 8.11200E-05-1.98180E-05-2.63216E-05 4.96697E-06 3.34158E-19-6.92155E-19
 -1      4137 7.98380E-05-1.96446E-05-2.58022E-05 5.87461E-06 3.27555E-19-4.23102E-19
 -1      4138 8.09915E-05-1.91989E-05-2.63856E-05 3.09507E-06-5.81243E-20-1.31067E-18
 -1      4139 9.17188E-05-2.48098E-05-2.86786E-05-1.53992E-06 5.48175E-19-4.05789E-19
 -1      4140 9.21640E-05-2.51980E-05-2.87077E-05-1.36154E-06 1.71331E-19-2.92691E-20
 -1      4141 9.63398E-05-2.61604E-05-3.00696E-05-1.56458E-07 7.75101E-20-2.67125E-18
 -1      4142 9.33707E-05-2.62782E-05-2.87555E-05-1.00180E-06-1.85661E-19 6.21463E-19
 -1      4143 9.36722E-05-2.65871E-05-2.87557E-05-8.85579E-07-6.76674E-20 4.14558E-19
 -1      4144 9.44926E-05-2.74175E-05-2.87466E-05-6.70633E-07-7.90674E-19 8.35850E-19
 -1      4145 9.47018E-05-2.76503E-05-2.87388E-05-6.04084E-07-7.42438E-19 7.69643E-20
 -1      4146 9.06212E-05-2.39626E-05-2.85723E-05-1.90401E-06 5.30572E-19-8.16968E-19
 -1      4147 9.11584E-05-2.43830E-05-2.86283E-05-1.68858E-06 5.29990E-19-6.00840E-19
 -1      4148 9.12073E-05-2.43881E-05-2.86159E-05-1.11004E-06 7.41631E-19-1.13931E-18
 -1      4149 8.92990E-05-2.30632E-05-2.83922E-05-2.34740E-06-3.49775E-19-8.41705E-19
 -1      4150 8.99421E-05-2.35035E-05-2.84869E-05-2.08746E-06 1.11682E-19-7.09439E-19
 -1      4151 8.99808E-05-2.34729E-05-2.84763E-05-1.36468E-06 1.37485E-19-4.25851E-19
 -1      4152 8.77143E-05-2.21440E-05-2.81082E-05-2.89400E-06-7.33159E-19-2.57310E-19
 -1      4153 8.84776E-05-2.25848E-05-2.82571E-05-2.57535E-06-6.89339E-19-4.02319E-19
 -1      4154 8.84978E-05-2.24974E-05-2.82507E-05-1.67408E-06-8.11596E-19 2.50667E-19
 -1      4155 8.58183E-05-2.12499E-05-2.76799E-05-3.58894E-06-1.36487E-19 6.07894E-19
 -1      4156 8.67181E-05-2.16644E-05-2.79038E-05-3.18389E-06-4.24631E-19 3.40983E-19
 -1      4157 8.67047E-05-2.14860E-05-2.79045E-05-2.05736E-06-9.20232E-19 1.05491E-19
 -1      4158 8.35396E-05-2.04363E-05-2.70530E-05-4.51805E-06-3.50549E-19 8.33758E-19
 -1      4159 8.45973E-05-2.07899E-05-2.73795E-05-3.97228E-06 1.36106E-19 9.27363E-19
 -1      4160 8.45239E-05-2.04663E-05-2.73910E-05-2.55059E-06-2.52391E-19 1.02765E-18
 -1      4161 8.07831E-05-1.97668E-05-2.61509E-05-5.84403E-06-7.51417E-19 6.07209E-19
 -1      4162 8.20023E-05-2.00060E-05-2.66182E-05-5.05557E-06-4.07881E-19 9.83594E-19
 -1      4163 8.18258E-05-1.94575E-05-2.66442E-05-3.21745E-06-3.68620E-19 1.28588E-18
 -1      4164 9.67485E-05-2.91352E-05-2.89763E-05 3.01106E-07-2.83239E-19-1.11569E-18
 -1      4165 9.66510E-05-2.91723E-05-2.89190E-05 3.18650E-07-3.96941E-19-1.11618E-18
 -1      4166 9.66318E-05-2.91784E-05-2.89100E-05 1.78780E-07-3.49893E-19-9.98877E-19
 -1      4167 8.84895E-05-3.06403E-05-2.47808E-05 2.06582E-05-1.48546E-18-8.67739E-19
 -1      4168 9.68347E-05-2.77620E-05-2.96035E-05 6.00904E-08-1.74869E-19-2.05194E-18
 -1      4169 9.69105E-05-2.81716E-05-2.94604E-05 1.66252E-07-2.11597E-19-1.91347E-18
 -1      4170 9.69442E-05-2.84990E-05-2.93331E-05 1.88520E-07-1.83602E-19-1.65617E-18
 -1      4171 9.69362E-05-2.87457E-05-2.92244E-05 2.57229E-07-1.14391E-19-1.54046E-18
 -1      4172 9.69577E-05-2.82976E-05-2.94270E-05 9.20380E-08 4.26259E-21-1.63919E-18
 -1      4173 9.26251E-05-2.55849E-05-2.87339E-05-1.24193E-06-1.00599E-19 4.94623E-19
 -1      4174 9.29918E-05-2.59344E-05-2.87452E-05-1.09623E-06 1.09777E-19 5.57855E-19
 -1      4175 9.22189E-05-2.52260E-05-2.86953E-05-9.00156E-07 4.69614E-19-1.06087E-18
 -1      4176 9.59677E-05-2.54111E-05-3.02447E-05 4.88243E-07 8.67782E-19-2.53627E-18
 -1      4177 9.68970E-05-2.89309E-05-2.91277E-05 2.63194E-07 2.21914E-20-1.34491E-18
 -1      4178 9.68331E-05-2.90557E-05-2.90472E-05 3.01046E-07-6.22935E-20-1.27046E-18
 -1      4179 9.69564E-05-2.88240E-05-2.92017E-05 1.41907E-07 9.32086E-20-1.49373E-18
 -1      4180 9.65421E-05-2.67488E-05-2.99141E-05-1.11597E-07 7.30614E-20-2.50585E-18
 -1      4181 9.67313E-05-2.73519E-05-2.97341E-05 3.16924E-08-7.22270E-20-2.32909E-18
 -1      4182 9.68127E-05-2.75425E-05-2.96865E-05 1.79855E-08 1.36049E-19-2.12416E-18
 -1      4183 9.65121E-05-2.65864E-05-2.99668E-05-4.01194E-08 2.49635E-19-2.35265E-18
 -1      4184 9.39843E-05-2.68879E-05-2.87564E-05-8.13320E-07-9.23679E-20 4.06530E-19
 -1      4185 9.42333E-05-2.71572E-05-2.87506E-05-7.23657E-07-3.74291E-19 6.24012E-19
 -1      4186 9.43017E-05-2.72175E-05-2.87448E-05-4.90345E-07-4.52914E-19-5.18805E-19
 -1      4187 9.37359E-05-2.66402E-05-2.87468E-05-5.93861E-07-1.03433E-19-1.28916E-19
 -1      4188 7.25704E-05-1.84017E-05-2.31263E-05-9.40962E-06-5.98066E-19-7.21485E-19
 -1      4189 7.54276E-05-1.99253E-05-2.37759E-05-1.08636E-05-6.67504E-19-4.15473E-19
 -1      4190 7.30513E-05-1.77175E-05-2.37225E-05-6.19572E-06 3.57524E-20-1.00155E-18
 -1      4191 9.68821E-05-2.86611E-05-2.92394E-05-3.38736E-07 4.33248E-19-2.02608E-18
 -1      4192 9.68893E-05-2.83956E-05-2.93515E-05-2.47569E-07 5.09929E-19-1.93853E-18
 -1      4193 9.62879E-05-2.60972E-05-3.00726E-05 2.95922E-07 4.86587E-19-2.42097E-18
 -1      4194 9.49200E-05-2.78735E-05-2.87340E-05-5.70123E-07-1.00101E-18 1.83117E-19
 -1      4195 9.50975E-05-2.80711E-05-2.87274E-05-5.23716E-07-9.28638E-19-2.36684E-19
 -1      4196 9.47777E-05-2.77239E-05-2.87370E-05-4.10504E-07-8.82682E-19-2.18228E-19
 -1      4197 9.59036E-05-2.88469E-05-2.87379E-05-4.48938E-07-3.32353E-19-5.09599E-19
 -1      4198 9.60327E-05-2.89486E-05-2.87506E-05-4.42656E-07 1.12824E-19-7.56347E-19
 -1      4199 9.68608E-05-2.88647E-05-2.91387E-05-3.60909E-07 2.79396E-19-1.99358E-18
 -1      4200 9.69314E-05-2.87437E-05-2.92259E-05-2.42463E-07 3.35883E-19-1.92358E-18
 -1      4201 9.68036E-05-2.90045E-05-2.90564E-05-4.08376E-07 3.78610E-19-1.93639E-18
 -1      4202 7.05933E-05-1.70864E-05-2.28161E-05 2.91237E-06-1.56053E-18 1.27452E-20
 -1      4203 9.64320E-05-2.90991E-05-2.88556E-05-6.86135E-07 7.61978E-19-1.44830E-18
 -1      4204 9.65892E-05-2.90996E-05-2.89265E-05-5.63287E-07 5.87681E-19-1.68705E-18
 -1      4205 9.63473E-05-2.91120E-05-2.88144E-05-6.98445E-07 6.82241E-19-1.30964E-18
 -1      4206 9.53626E-05-2.83543E-05-2.87174E-05-6.31991E-07-1.11197E-19-8.03595E-19
 -1      4207 9.57521E-05-2.87212E-05-2.87277E-05-4.48634E-07-1.24733E-19-5.95563E-19
 -1      4208 9.58545E-05-2.87893E-05-2.87431E-05-3.16757E-07-1.30718E-19-3.12643E-19
 -1      4209 9.56105E-05-2.85853E-05-2.87241E-05-4.64176E-07 2.87393E-19-7.34382E-19
 -1      4210 9.68309E-05-2.90937E-05-2.90322E-05 1.68692E-07-1.63258E-19-1.25037E-18
 -1      4211 7.73716E-05-1.94096E-05-2.48412E-05-7.91222E-06-5.06485E-19-1.56618E-19
 -1      4212 7.87923E-05-1.94142E-05-2.55183E-05-6.73514E-06-3.87460E-19 3.47930E-19
 -1      4213 7.66753E-05-1.97440E-05-2.44755E-05-9.47698E-06-6.31824E-19-2.06463E-19
 -1      4214 7.05064E-05-1.62587E-05-2.31289E-05 2.01854E-06 5.04755E-19 3.37887E-20
 -1      4215 7.12882E-05-1.66651E-05-2.34874E-05-1.31374E-06 1.57757E-19-7.92714E-19
 -1      4216 7.25458E-05-1.74465E-05-2.36028E-05 4.69754E-06 6.06499E-19 9.65121E-20
 -1      4217 9.69097E-05-2.81687E-05-2.94613E-05-1.47164E-07 3.85016E-19-2.11457E-18
 -1      4218 9.68341E-05-2.80497E-05-2.94841E-05-1.99571E-07 5.07195E-19-2.13602E-18
 -1      4219 9.67627E-05-2.76198E-05-2.96297E-05-5.16025E-08 4.25439E-19-2.16805E-18
 -1      4220 9.61444E-05-2.90545E-05-2.87516E-05-6.91710E-07 6.74569E-19-1.13980E-18
 -1      4221 9.62400E-05-2.90922E-05-2.87766E-05-6.90276E-07 7.35107E-19-1.13099E-18
 -1      4222 9.61655E-05-2.90471E-05-2.87669E-05-5.78421E-07 5.54732E-19-9.31126E-19
 -1      4223 9.65104E-05-2.67995E-05-2.98809E-05 9.05060E-08 3.65918E-19-2.29438E-18
 -1      4224 9.30511E-05-2.59773E-05-2.87340E-05-7.29384E-07 8.14814E-20-3.47915E-19
 -1      4225 7.82913E-05-1.84135E-05-2.55617E-05-4.20891E-06-2.32705E-19 8.29689E-19
 -1      4226 7.83759E-05-1.94847E-05-2.52949E-05 6.88421E-06-6.55028E-20 3.02584E-19
 -1      4227 7.73766E-05-1.96046E-05-2.47438E-05 8.16430E-06 7.05968E-19-1.53425E-20
 -1      4228 7.48806E-05-1.82121E-05-2.42067E-05 6.65512E-06 5.79836E-19-7.50203E-20
 -1      4229 7.78937E-05-1.85682E-05-2.54148E-05 4.46186E-06 6.44702E-19-1.04843E-18
 -1      4230 9.61938E-05-2.90271E-05-2.87850E-05 3.31365E-08-1.68189E-19-3.56510E-19
 -1      4231 9.60487E-05-2.89291E-05-2.87651E-05 3.77431E-08-9.27600E-20-5.54598E-19
 -1      4232 9.58411E-05-2.87664E-05-2.87461E-05-7.00197E-08-1.94803E-19-3.98519E-19
 -1      4233 9.56793E-05-2.86243E-05-2.87373E-05-6.48733E-08-3.53272E-19-2.10334E-19
 -1      4234 9.51906E-05-2.81525E-05-2.87317E-05 3.89857E-08-2.26428E-19-6.88948E-20
 -1      4235 9.49875E-05-2.79467E-05-2.87332E-05 5.56742E-08-1.71745E-19-4.96598E-19
 -1      4236 9.47076E-05-2.76590E-05-2.87372E-05-9.71205E-08-4.67734E-19-8.78475E-19
 -1      4237 9.44668E-05-2.74127E-05-2.87403E-05-8.36576E-08-6.61704E-19-1.37008E-18
 -1      4238 9.42031E-05-2.71481E-05-2.87428E-05-1.16768E-07-3.79928E-19-1.15688E-18
 -1      4239 9.39174E-05-2.68605E-05-2.87433E-05-9.74465E-08-6.17789E-20-1.22083E-18
 -1      4240 9.36005E-05-2.65554E-05-2.87409E-05-1.40873E-07 1.09070E-19-1.25127E-18
 -1      4241 9.32571E-05-2.62245E-05-2.87349E-05-1.14714E-07 3.37900E-19-1.25872E-18
 -1      4242 9.28725E-05-2.58762E-05-2.87226E-05-1.69303E-07 4.31654E-19-1.68161E-18
 -1      4243 9.24566E-05-2.54999E-05-2.87048E-05-1.34937E-07 2.83748E-19-1.41663E-18
 -1      4244 9.19883E-05-2.51078E-05-2.86762E-05-2.01330E-07 3.89299E-19-1.26748E-18
 -1      4245 9.14838E-05-2.46866E-05-2.86395E-05-1.56570E-07 6.20864E-19-1.21249E-18
 -1      4246 9.09140E-05-2.42529E-05-2.85862E-05-2.35616E-07 2.57192E-19-7.33361E-19
 -1      4247 9.03029E-05-2.37904E-05-2.85213E-05-1.77173E-07 1.08665E-19-4.21200E-19
 -1      4248 8.96108E-05-2.33212E-05-2.84322E-05-2.70496E-07-4.15199E-19-1.38616E-19
 -1      4249 8.88718E-05-2.28246E-05-2.83270E-05-1.93258E-07-6.09448E-19-4.27799E-19
 -1      4250 8.80317E-05-2.23302E-05-2.81872E-05-3.04502E-07-9.53500E-19-2.43566E-19
 -1      4251 8.71367E-05-2.18098E-05-2.80255E-05-2.00376E-07-1.17295E-18-3.80994E-19
 -1      4252 8.61131E-05-2.13033E-05-2.78150E-05-3.37333E-07-6.98858E-19-3.32312E-19
 -1      4253 8.50216E-05-2.07700E-05-2.75749E-05-1.93693E-07-4.22978E-19-5.38782E-19
 -1      4254 8.37611E-05-2.02648E-05-2.72663E-05-3.70965E-07-6.48086E-19-1.93306E-19
 -1      4255 8.24107E-05-1.97264E-05-2.69173E-05-1.70077E-07-4.08767E-19-1.29565E-19
 -1      4256 8.08300E-05-1.92259E-05-2.64715E-05-4.04032E-07-2.67509E-19 1.67593E-19
 -1      4257 7.91391E-05-1.86961E-05-2.59705E-05-1.18220E-07 2.65674E-19-9.66635E-20
 -1      4258 9.61438E-05-2.90031E-05-2.87753E-05-3.09922E-07 4.48544E-20-8.85037E-19
 -1      4259 9.61754E-05-2.90391E-05-2.87714E-05-4.45424E-07 2.91586E-19-9.82107E-19
 -1      4260 9.62994E-05-2.91072E-05-2.87960E-05-4.43276E-07 4.74038E-19-1.18077E-18
 -1      4261 9.67111E-05-2.91870E-05-2.89379E-05 3.14967E-08-1.68168E-19-1.32957E-18
 -1      4262 9.65960E-05-2.91906E-05-2.88866E-05 3.94496E-08-1.34285E-19-9.01159E-19
 -1      4263 9.69676E-05-2.82511E-05-2.94509E-05-5.20828E-08 2.14577E-19-2.07475E-18
 -1      4264 9.69984E-05-2.85687E-05-2.93241E-05-2.56422E-08 1.60001E-19-1.95182E-18
 -1      4265 9.67984E-05-2.74683E-05-2.97132E-05-2.91848E-08 2.77781E-19-2.40486E-18
 -1      4266 9.69019E-05-2.78572E-05-2.95875E-05 1.99399E-09 1.84839E-19-2.19015E-18
 -1      4267 9.69798E-05-2.87994E-05-2.92198E-05-6.32985E-08 1.54187E-19-1.84914E-18
 -1      4268 9.64671E-05-2.91622E-05-2.88448E-05 3.03165E-08-2.12018E-19-6.50947E-19
 -1      4269 9.63333E-05-2.91054E-05-2.88114E-05 3.64575E-08-7.13555E-20-5.10752E-19
 -1      4270 9.62579E-05-2.90611E-05-2.87992E-05-1.08891E-07-9.27143E-20-5.13228E-19
 -1      4271 9.65263E-05-2.91755E-05-2.88660E-05-1.12996E-07 4.94080E-20-8.81587E-19
 -1      4272 9.69338E-05-2.89739E-05-2.91234E-05-4.71570E-08 1.72031E-19-1.75076E-18
 -1      4273 9.64617E-05-2.64485E-05-3.00101E-05 8.54715E-09 3.26270E-19-2.38023E-18
 -1      4274 9.66682E-05-2.69948E-05-2.98589E-05 2.29303E-08 3.35001E-19-2.34443E-18
 -1      4275 9.52871E-05-2.82616E-05-2.87246E-05-5.02699E-07-5.60435E-19-6.05991E-19
 -1      4276 9.54426E-05-2.84278E-05-2.87218E-05-4.74576E-07-5.38302E-20-6.98763E-19
 -1      4277 9.51817E-05-2.81425E-05-2.87301E-05-3.61580E-07-8.77888E-19 6.34049E-21
 -1      4278 9.68843E-05-2.90768E-05-2.90594E-05-1.91020E-08 1.39451E-19-1.56332E-18
 -1      4279 9.67929E-05-2.91534E-05-2.89872E-05-8.50941E-09-6.30263E-20-1.49834E-18
 -1      4280 9.67316E-05-2.91689E-05-2.89583E-05-1.63250E-07 3.99348E-20-1.46616E-18
 -1      4281 9.68579E-05-2.90445E-05-2.90659E-05-2.45033E-07 2.89774E-19-1.82910E-18
 -1      4282 9.64720E-05-2.64839E-05-2.99947E-05 9.09780E-08 4.30024E-19-2.49507E-18
 -1      4283 7.72014E-05-1.81738E-05-2.53460E-05-4.11749E-07 5.07651E-19-6.51532E-19
 -1      4284 9.55611E-05-2.85135E-05-2.87352E-05 3.63150E-08-5.83695E-19 9.03554E-20
 -1      4285 9.53832E-05-2.83424E-05-2.87320E-05 4.42014E-08-2.40875E-19 3.45549E-19
 -1      4286 9.63972E-05-2.91322E-05-2.88304E-05-5.81768E-07 5.35435E-19-1.21997E-18
 -1      4287 9.60618E-05-2.89436E-05-2.87640E-05-2.10939E-07-2.16386E-19-5.26873E-19
 -1      4288 9.62060E-05-2.90415E-05-2.87855E-05-2.07844E-07-3.10441E-21-7.36485E-19
 -1      4289 7.44275E-05-1.76433E-05-2.43260E-05 3.60882E-06 7.46435E-19-6.62264E-19
 -1      4290 7.56234E-05-1.83010E-05-2.45233E-05-6.40975E-06 6.75939E-20-5.69843E-19
 -1      4291 7.39616E-05-1.74122E-05-2.41229E-05-4.50023E-06 5.84684E-20-1.11626E-18
 -1      4292 7.38061E-05-1.72422E-05-2.43022E-05-1.77897E-06 4.58746E-19-2.05452E-19
 -1      4293 9.52852E-05-2.82422E-05-2.87323E-05-1.24205E-07-4.85584E-19 1.40039E-19
 -1      4294 9.55898E-05-2.85457E-05-2.87339E-05-2.21693E-07-1.95709E-19-2.49449E-19
 -1      4295 9.67380E-05-2.73419E-05-2.97417E-05-6.49651E-09 2.88865E-19-2.41319E-18
 -1      4296 9.48267E-05-2.77716E-05-2.87362E-05-2.79311E-07-8.08214E-19-7.47574E-19
 -1      4297 7.59990E-05-1.77656E-05-2.48831E-05 2.65308E-06 8.27155E-19-1.27312E-18
 -1      4298 9.67590E-05-2.90891E-05-2.89994E-05-3.69016E-07 4.93885E-19-1.70168E-18
 -1      4299 9.66755E-05-2.91461E-05-2.89400E-05-3.89667E-07 3.82530E-19-1.49315E-18
 -1      4300 9.66180E-05-2.70007E-05-2.98369E-05 3.88797E-08 3.50410E-19-2.44883E-18
 -1      4301 9.59114E-05-2.88242E-05-2.87522E-05-2.12739E-07-1.29587E-19-4.58364E-19
 -1      4302 9.64902E-05-2.91624E-05-2.88539E-05-3.49958E-07 2.92493E-19-1.23308E-18
 -1      4303 9.65978E-05-2.91696E-05-2.88961E-05-3.40088E-07 2.33130E-19-1.36111E-18
 -1      4304 9.63414E-05-2.91116E-05-2.88113E-05-2.09754E-07 1.24373E-19-8.81494E-19
 -1      4305 9.55344E-05-2.84969E-05-2.87303E-05-3.31094E-07-7.64848E-20-5.14553E-19
 -1      4306 9.54219E-05-2.83822E-05-2.87305E-05-2.30825E-07-5.12073E-19 4.67503E-20
 -1      4307 9.52323E-05-2.81982E-05-2.87302E-05-2.39201E-07-6.79780E-19-3.40606E-19
 -1      4308 9.64691E-05-2.91535E-05-2.88510E-05-2.10451E-07 1.85859E-19-1.04198E-18
 -1      4309 9.50447E-05-2.79999E-05-2.87324E-05-2.55601E-07-1.14548E-18-3.20299E-19
 -3
    1PSTEP                         4           1           1          
  100CL  101 1.000000000        4309                     0    1           1
 -4  ERROR       1    1
 -5  STR(%)      1    1    0    0
 -1         1 1.24701E+01
 -1         2 2.43551E+01
 -1         3 1.16880E-01
 -1         4 1.29587E-01
 -1         5 1.40411E+01
 -1         6 1.31454E+01
 -1         7 1.31454E+01
 -1         8 3.66336E+00
 -1         9 1.82288E+00
 -1        10 1.29148E+00
 -1        11 1.04538E+00
 -1        12 8.99036E-01
 -1        13 8.08879E-01
 -1        14 7.54353E-01
 -1        15 7.56280E-01
 -1        16 8.13158E-01
 -1        17 9.00606E-01
 -1        18 1.05213E+00
 -1        19 1.30713E+00
 -1        20 1.83488E+00
 -1        21 3.50520E+00
 -1        22 8.64282E+00
 -1        23 1.31454E+01
 -1        24 4.31947E+00
 -1        25 3.34304E+00
 -1        26 2.11391E+00
 -1        27 1.36601E+00
 -1        28 1.01650E+00
 -1        29 7.78265E-01
 -1        30 5.99595E-01
 -1        31 4.61039E-01
 -1        32 3.54719E-01
 -1        33 2.78168E-01
 -1        34 2.17679E-01
 -1        35 1.71262E-01
 -1        36 1.36980E-01
 -1        37 1.13025E-01
 -1        38 9.77198E-02
 -1        39 9.98375E-02
 -1        40 1.15251E-01
 -1        41 1.45458E-01
 -1        42 1.86742E-01
 -1        43 2.39633E-01
 -1        44 3.03729E-01
 -1        45 3.76942E-01
 -1        46 4.54423E-01
 -1        47 5.28226E-01
 -1        48 6.84932E-01
 -1        49 8.53219E-01
 -1        50 1.06217E+00
 -1        51 1.23059E+00
 -1        52 1.28196E+00
 -1        53 1.29872E+00
 -1        54 1.29872E+00
 -1        55 1.49062E+00
 -1        56 1.93266E+00
 -1        57 3.30112E+00
 -1        58 3.95556E+00
 -1        59 3.95556E+00
 -1        60 3.87652E+00
 -1        61 3.56072E+00
 -1        62 2.34996E+00
 -1        63 1.50022E+00
 -1        64 1.10769E+00
 -1        65 1.17644E+00
 -1        66 1.17644E+00
 -1        67 1.08800E+00
 -1        68 8.57586E-01
 -1        69 8.57586E-01
 -1        70 7.39818E-01
 -1        71 5.93526E-01
 -1        72 1.40411E+01
 -1        73 3.39581E+00
 -1        74 2.41469E+00
 -1        75 1.66782E+00
 -1        76 1.14710E+00
 -1        77 9.07130E-01
 -1        78 7.33137E-01
 -1        79 5.90741E-01
 -1        80 4.72749E-01
 -1        81 3.75470E-01
 -1        82 3.02616E-01
 -1        83 2.44112E-01
 -1        84 1.97438E-01
 -1        85 1.62031E-01
 -1        86 1.37139E-01
 -1        87 1.21975E-01
 -1        88 1.30531E-01
 -1        89 1.48268E-01
 -1        90 1.73647E-01
 -1        91 2.05225E-01
 -1        92 2.44690E-01
 -1        93 3.12610E-01
 -1        94 3.91794E-01
 -1        95 4.78147E-01
 -1        96 5.63367E-01
 -1        97 6.33088E-01
 -1        98 6.65055E-01
 -1        99 7.68955E-01
 -1       100 9.97404E-01
 -1       101 1.17740E+00
 -1       102 1.30919E+00
 -1       103 1.61958E+00
 -1       104 1.61958E+00
 -1       105 1.98279E+00
 -1       106 2.60996E+00
 -1       107 3.57149E+00
 -1       108 3.92942E+00
 -1       109 3.93893E+00
 -1       110 3.93893E+00
 -1       111 2.76371E+00
 -1       112 1.55639E+00
 -1       113 1.08037E+00
 -1       114 1.37982E+00
 -1       115 1.38967E+00
 -1       116 1.38967E+00
 -1       117 1.16093E+00
 -1       118 9.45635E-01
 -1       119 8.04959E-01
 -1       120 4.55904E-01
 -1       121 2.34422E-01
 -1       122 2.34422E-01
 -1       123 1.87497E-01
 -1       124 1.10484E-01
 -1       125 8.28521E-02
 -1       126 1.68214E-01
 -1       127 2.26386E-01
 -1       128 2.40524E-01
 -1       129 2.40524E-01
 -1       130 2.10679E-01
 -1       131 1.40976E-01
 -1       132 5.85628E-02
 -1       133 1.16969E-01
 -1       134 1.78158E-01
 -1       135 2.94833E-01
 -1       136 3.36843E-01
 -1       137 2.46704E+01
 -1       138 4.75458E+01
 -1       139 4.75458E+01
 -1       140 2.02903E+01
 -1       141 1.21794E+01
 -1       142 1.21794E+01
 -1       143 1.23945E+01
 -1       144 1.25711E+01
 -1       145 1.25711E+01
 -1       146 1.27786E+01
 -1       147 2.75001E+01
 -1       148 2.98493E+01
 -1       149 2.97883E+01
 -1       150 2.49072E+01
 -1       151 2.50752E+01
 -1       152 2.51292E+01
 -1       153 3.91667E+01
 -1       154 3.91667E+01
 -1       155 1.48909E+01
 -1       156 1.21594E+01
 -1       157 1.24701E+01
 -1       158 1.22738E+01
 -1       159 1.22738E+01
 -1       160 2.00574E+01
 -1       161 4.74195E+01
 -1       162 4.74195E+01
 -1       163 2.44873E+01
 -1       164 6.07786E+00
 -1       165 2.29731E+00
 -1       166 1.50782E+00
 -1       167 1.15708E+00
 -1       168 9.72855E-01
 -1       169 8.64092E-01
 -1       170 7.96317E-01
 -1       171 7.56280E-01
 -1       172 7.99690E-01
 -1       173 8.67218E-01
 -1       174 9.80710E-01
 -1       175 1.17195E+00
 -1       176 1.52685E+00
 -1       177 2.26010E+00
 -1       178 3.93110E+00
 -1       179 1.40411E+01
 -1       180 4.31947E+00
 -1       181 3.34304E+00
 -1       182 2.11391E+00
 -1       183 1.45007E+00
 -1       184 1.02904E+00
 -1       185 7.78265E-01
 -1       186 5.99595E-01
 -1       187 4.73159E-01
 -1       188 3.74801E-01
 -1       189 2.97024E-01
 -1       190 2.41995E-01
 -1       191 1.95784E-01
 -1       192 1.58146E-01
 -1       193 1.28311E-01
 -1       194 1.05202E-01
 -1       195 9.52846E-02
 -1       196 9.98375E-02
 -1       197 1.20898E-01
 -1       198 1.51625E-01
 -1       199 1.91077E-01
 -1       200 2.39633E-01
 -1       201 3.03729E-01
 -1       202 3.98184E-01
 -1       203 5.14276E-01
 -1       204 6.37816E-01
 -1       205 7.53940E-01
 -1       206 8.81239E-01
 -1       207 1.06217E+00
 -1       208 1.23059E+00
 -1       209 1.28196E+00
 -1       210 1.29872E+00
 -1       211 1.29673E+00
 -1       212 1.49062E+00
 -1       213 2.09689E+00
 -1       214 3.30112E+00
 -1       215 3.95556E+00
 -1       216 3.87652E+00
 -1       217 3.56072E+00
 -1       218 2.34996E+00
 -1       219 1.50022E+00
 -1       220 1.06547E+00
 -1       221 1.10769E+00
 -1       222 1.17644E+00
 -1       223 1.08800E+00
 -1       224 8.50555E-01
 -1       225 8.57586E-01
 -1       226 7.39818E-01
 -1       227 5.93526E-01
 -1       228 3.39581E+00
 -1       229 2.41469E+00
 -1       230 1.66782E+00
 -1       231 1.14710E+00
 -1       232 9.07130E-01
 -1       233 7.33137E-01
 -1       234 5.90741E-01
 -1       235 4.72749E-01
 -1       236 3.75470E-01
 -1       237 3.02616E-01
 -1       238 2.44112E-01
 -1       239 1.98016E-01
 -1       240 1.63213E-01
 -1       241 1.37157E-01
 -1       242 1.21975E-01
 -1       243 1.21400E-01
 -1       244 1.30531E-01
 -1       245 1.48268E-01
 -1       246 1.73647E-01
 -1       247 2.19827E-01
 -1       248 2.76281E-01
 -1       249 3.40913E-01
 -1       250 4.10055E-01
 -1       251 4.78147E-01
 -1       252 5.63367E-01
 -1       253 6.33088E-01
 -1       254 6.86304E-01
 -1       255 8.40918E-01
 -1       256 9.97404E-01
 -1       257 1.17740E+00
 -1       258 1.30919E+00
 -1       259 1.61958E+00
 -1       260 1.56197E+00
 -1       261 1.98279E+00
 -1       262 2.60996E+00
 -1       263 3.57149E+00
 -1       264 3.92942E+00
 -1       265 3.93893E+00
 -1       266 2.76371E+00
 -1       267 1.55639E+00
 -1       268 9.16455E-01
 -1       269 1.08037E+00
 -1       270 1.37982E+00
 -1       271 1.38967E+00
 -1       272 1.16093E+00
 -1       273 9.45635E-01
 -1       274 8.04959E-01
 -1       275 4.95256E-01
 -1       276 2.93602E-01
 -1       277 2.97554E-01
 -1       278 2.97554E-01
 -1       279 1.67071E-01
 -1       280 2.80136E-01
 -1       281 4.05297E-01
 -1       282 4.58205E-01
 -1       283 4.58205E-01
 -1       284 4.51153E-01
 -1       285 3.65563E-01
 -1       286 2.35840E-01
 -1       287 1.86735E-01
 -1       288 2.87221E-01
 -1       289 2.87221E-01
 -1       290 3.48825E-01
 -1       291 2.84612E+01
 -1       292 2.90503E+01
 -1       293 4.75458E+01
 -1       294 2.19933E+01
 -1       295 1.10210E+01
 -1       296 1.21794E+01
 -1       297 1.21181E+01
 -1       298 1.23945E+01
 -1       299 1.25711E+01
 -1       300 1.17766E+01
 -1       301 1.27786E+01
 -1       302 2.98493E+01
 -1       303 2.98493E+01
 -1       304 2.46616E+01
 -1       305 2.82569E+01
 -1       306 2.82569E+01
 -1       307 3.44273E+01
 -1       308 3.91667E+01
 -1       309 1.48909E+01
 -1       310 1.10836E+01
 -1       311 1.21594E+01
 -1       312 1.24701E+01
 -1       313 1.19784E+01
 -1       314 1.22738E+01
 -1       315 1.13313E+01
 -1       316 2.10593E+01
 -1       317 4.74195E+01
 -1       318 2.89733E+01
 -1       319 2.84612E+01
 -1       320 1.04540E+00
 -1       321 2.47951E+00
 -1       322 7.90813E-01
 -1       323 6.93750E-01
 -1       324 6.31665E-01
 -1       325 5.87747E-01
 -1       326 5.90954E-01
 -1       327 6.34455E-01
 -1       328 7.00952E-01
 -1       329 7.95947E-01
 -1       330 9.31230E-01
 -1       331 1.15915E+00
 -1       332 1.32824E+00
 -1       333 2.20172E+00
 -1       334 1.91545E+00
 -1       335 1.73126E+00
 -1       336 1.27021E+00
 -1       337 9.10034E-01
 -1       338 6.59881E-01
 -1       339 5.42119E-01
 -1       340 4.46140E-01
 -1       341 3.62089E-01
 -1       342 2.97024E-01
 -1       343 2.43153E-01
 -1       344 1.97311E-01
 -1       345 1.59426E-01
 -1       346 1.30035E-01
 -1       347 1.05202E-01
 -1       348 8.95527E-02
 -1       349 8.35882E-02
 -1       350 9.84689E-02
 -1       351 1.20898E-01
 -1       352 1.51625E-01
 -1       353 2.04534E-01
 -1       354 2.79665E-01
 -1       355 3.69329E-01
 -1       356 4.71719E-01
 -1       357 5.81295E-01
 -1       358 6.87013E-01
 -1       359 7.71877E-01
 -1       360 8.65938E-01
 -1       361 9.59053E-01
 -1       362 9.60430E-01
 -1       363 8.02826E-01
 -1       364 7.57746E-01
 -1       365 8.60615E-01
 -1       366 1.45615E+00
 -1       367 1.93530E+00
 -1       368 2.39636E+00
 -1       369 2.33208E+00
 -1       370 2.38478E+00
 -1       371 2.10077E+00
 -1       372 1.63032E+00
 -1       373 1.14024E+00
 -1       374 8.02923E-01
 -1       375 7.48434E-01
 -1       376 7.31214E-01
 -1       377 6.79106E-01
 -1       378 6.13946E-01
 -1       379 6.16544E-01
 -1       380 5.10332E-01
 -1       381 1.13194E+00
 -1       382 8.93781E-01
 -1       383 7.06774E-01
 -1       384 5.48595E-01
 -1       385 4.41462E-01
 -1       386 3.76007E-01
 -1       387 3.13542E-01
 -1       388 2.58306E-01
 -1       389 2.14129E-01
 -1       390 1.76112E-01
 -1       391 1.47262E-01
 -1       392 1.24955E-01
 -1       393 1.09060E-01
 -1       394 1.03261E-01
 -1       395 1.05532E-01
 -1       396 1.16612E-01
 -1       397 1.45838E-01
 -1       398 1.84582E-01
 -1       399 2.60038E-01
 -1       400 3.53469E-01
 -1       401 4.64892E-01
 -1       402 5.90916E-01
 -1       403 7.22580E-01
 -1       404 8.42806E-01
 -1       405 9.46479E-01
 -1       406 1.01524E+00
 -1       407 1.01524E+00
 -1       408 9.74291E-01
 -1       409 7.58394E-01
 -1       410 7.21332E-01
 -1       411 1.23445E+00
 -1       412 1.92234E+00
 -1       413 2.11632E+00
 -1       414 2.12220E+00
 -1       415 2.16918E+00
 -1       416 2.34679E+00
 -1       417 1.91399E+00
 -1       418 1.17146E+00
 -1       419 6.90590E-01
 -1       420 7.39062E-01
 -1       421 8.67325E-01
 -1       422 9.64185E-01
 -1       423 8.80626E-01
 -1       424 7.55771E-01
 -1       425 6.85611E-01
 -1       426 4.95256E-01
 -1       427 3.37724E-01
 -1       428 5.19327E-01
 -1       429 5.19327E-01
 -1       430 3.44067E-01
 -1       431 5.40430E-01
 -1       432 6.61428E-01
 -1       433 6.61428E-01
 -1       434 6.58037E-01
 -1       435 6.31472E-01
 -1       436 4.78313E-01
 -1       437 2.93723E-01
 -1       438 3.39971E-01
 -1       439 4.55897E-01
 -1       440 2.90503E+01
 -1       441 3.25924E+01
 -1       442 3.25924E+01
 -1       443 1.66706E+01
 -1       444 9.41608E+00
 -1       445 9.19248E-01
 -1       446 1.02273E+01
 -1       447 1.05322E+01
 -1       448 1.02460E+01
 -1       449 9.00772E+00
 -1       450 6.97166E+00
 -1       451 1.15740E+01
 -1       452 2.05510E+01
 -1       453 2.19474E+01
 -1       454 3.58815E+01
 -1       455 3.58815E+01
 -1       456 2.53393E+01
 -1       457 2.37919E+01
 -1       458 1.36226E+01
 -1       459 7.67268E+00
 -1       460 8.59617E+00
 -1       461 9.49253E+00
 -1       462 1.09074E+01
 -1       463 1.02464E+01
 -1       464 7.64529E+00
 -1       465 9.24632E+00
 -1       466 1.64192E+01
 -1       467 2.89733E+01
 -1       468 3.16703E+01
 -1       469 7.23473E+00
 -1       470 1.04992E+00
 -1       471 4.85922E-01
 -1       472 5.09398E-01
 -1       473 4.31730E-01
 -1       474 4.57491E-01
 -1       475 4.86879E-01
 -1       476 5.10731E-01
 -1       477 5.10731E-01
 -1       478 6.07319E-01
 -1       479 8.93781E-01
 -1       480 8.04087E-01
 -1       481 5.24759E+00
 -1       482 7.07338E-01
 -1       483 5.91923E-01
 -1       484 4.79969E-01
 -1       485 3.81748E-01
 -1       486 3.27788E-01
 -1       487 2.78888E-01
 -1       488 2.32841E-01
 -1       489 1.92704E-01
 -1       490 1.59245E-01
 -1       491 1.30035E-01
 -1       492 1.04845E-01
 -1       493 8.50560E-02
 -1       494 6.90680E-02
 -1       495 7.45306E-02
 -1       496 8.91518E-02
 -1       497 1.23291E-01
 -1       498 1.77541E-01
 -1       499 2.43711E-01
 -1       500 3.23059E-01
 -1       501 4.15592E-01
 -1       502 5.19172E-01
 -1       503 6.28297E-01
 -1       504 7.32669E-01
 -1       505 8.16623E-01
 -1       506 9.10938E-01
 -1       507 1.02878E+00
 -1       508 1.10328E+00
 -1       509 1.10336E+00
 -1       510 1.40819E+00
 -1       511 1.41055E+00
 -1       512 1.64575E+00
 -1       513 2.02644E+00
 -1       514 2.90071E+00
 -1       515 2.76525E+00
 -1       516 2.40179E+00
 -1       517 1.70605E+00
 -1       518 1.70114E+00
 -1       519 1.40145E+00
 -1       520 1.18570E+00
 -1       521 8.87245E-01
 -1       522 7.80254E-01
 -1       523 6.43872E-01
 -1       524 5.17064E-01
 -1       525 5.48595E-01
 -1       526 4.41462E-01
 -1       527 3.76007E-01
 -1       528 3.13542E-01
 -1       529 2.58306E-01
 -1       530 2.14129E-01
 -1       531 1.75787E-01
 -1       532 1.42980E-01
 -1       533 1.15967E-01
 -1       534 9.38943E-02
 -1       535 7.96016E-02
 -1       536 7.91910E-02
 -1       537 9.46200E-02
 -1       538 1.16612E-01
 -1       539 1.68932E-01
 -1       540 2.36565E-01
 -1       541 3.19487E-01
 -1       542 4.18531E-01
 -1       543 5.32374E-01
 -1       544 6.56047E-01
 -1       545 7.79044E-01
 -1       546 8.83383E-01
 -1       547 9.66085E-01
 -1       548 1.06905E+00
 -1       549 1.14309E+00
 -1       550 1.12177E+00
 -1       551 1.24551E+00
 -1       552 1.25923E+00
 -1       553 1.73045E+00
 -1       554 2.06747E+00
 -1       555 2.80551E+00
 -1       556 2.77654E+00
 -1       557 2.63409E+00
 -1       558 1.90998E+00
 -1       559 1.67899E+00
 -1       560 1.35939E+00
 -1       561 1.20003E+00
 -1       562 9.12320E-01
 -1       563 8.61854E-01
 -1       564 7.90341E-01
 -1       565 6.78069E-01
 -1       566 5.72083E-01
 -1       567 6.27497E-01
 -1       568 8.71544E-01
 -1       569 6.91212E-01
 -1       570 6.99133E-01
 -1       571 9.20841E-01
 -1       572 9.28008E-01
 -1       573 9.28008E-01
 -1       574 7.98597E-01
 -1       575 5.20799E-01
 -1       576 5.46427E-01
 -1       577 4.96646E-01
 -1       578 3.25924E+01
 -1       579 1.27967E+01
 -1       580 7.06774E-01
 -1       581 3.16703E+01
 -1       582 1.96290E+01
 -1       583 8.74688E-01
 -1       584 2.18066E+01
 -1       585 7.96827E+00
 -1       586 1.80288E+01
 -1       587 1.53793E+01
 -1       588 4.57432E-01
 -1       589 8.47837E+00
 -1       590 2.53393E+01
 -1       591 7.46894E+00
 -1       592 6.53215E+00
 -1       593 4.30293E+00
 -1       594 7.31326E+00
 -1       595 9.54500E+00
 -1       596 2.19474E+01
 -1       597 4.07708E+00
 -1       598 3.58815E+01
 -1       599 1.13737E+01
 -1       600 4.26437E+00
 -1       601 7.26099E+00
 -1       602 6.59492E+00
 -1       603 7.97107E+00
 -1       604 5.95491E+00
 -1       605 9.24317E+00
 -1       606 1.42969E+01
 -1       607 5.17823E+00
 -1       608 1.32887E+00
 -1       609 8.09064E+00
 -1       610 7.24311E-01
 -1       611 1.62057E+01
 -1       612 4.55897E-01
 -1       613 3.58663E-01
 -1       614 3.43211E-01
 -1       615 3.61699E-01
 -1       616 3.37560E-01
 -1       617 5.44461E-01
 -1       618 1.57502E+01
 -1       619 4.40066E+00
 -1       620 4.00423E-01
 -1       621 3.86282E-01
 -1       622 3.46114E-01
 -1       623 2.96712E-01
 -1       624 2.47083E-01
 -1       625 2.15169E-01
 -1       626 1.82105E-01
 -1       627 1.51567E-01
 -1       628 1.24910E-01
 -1       629 1.00926E-01
 -1       630 7.92957E-02
 -1       631 5.92319E-02
 -1       632 4.80442E-02
 -1       633 5.66066E-02
 -1       634 9.34263E-02
 -1       635 1.39134E-01
 -1       636 1.94748E-01
 -1       637 2.62256E-01
 -1       638 3.43418E-01
 -1       639 4.39469E-01
 -1       640 5.50649E-01
 -1       641 6.75425E-01
 -1       642 8.09158E-01
 -1       643 9.41730E-01
 -1       644 1.08833E+00
 -1       645 1.33661E+00
 -1       646 1.58512E+00
 -1       647 1.76423E+00
 -1       648 2.28560E+00
 -1       649 1.98329E+00
 -1       650 2.57631E+00
 -1       651 4.44379E+00
 -1       652 4.46828E+00
 -1       653 3.60490E+00
 -1       654 3.11628E+00
 -1       655 2.08613E+00
 -1       656 2.13284E+00
 -1       657 1.80554E+00
 -1       658 1.24498E+00
 -1       659 1.00351E+00
 -1       660 7.80254E-01
 -1       661 6.43872E-01
 -1       662 3.31307E-01
 -1       663 1.11194E+00
 -1       664 3.99596E-01
 -1       665 2.39067E-01
 -1       666 2.02743E-01
 -1       667 1.69074E-01
 -1       668 1.39198E-01
 -1       669 1.13335E-01
 -1       670 9.10853E-02
 -1       671 7.16082E-02
 -1       672 5.68231E-02
 -1       673 6.66071E-02
 -1       674 9.07167E-02
 -1       675 1.37617E-01
 -1       676 1.95275E-01
 -1       677 2.65959E-01
 -1       678 3.51633E-01
 -1       679 4.53552E-01
 -1       680 5.71606E-01
 -1       681 7.03342E-01
 -1       682 8.42502E-01
 -1       683 9.77014E-01
 -1       684 1.09675E+00
 -1       685 1.31815E+00
 -1       686 1.54715E+00
 -1       687 1.72586E+00
 -1       688 2.09062E+00
 -1       689 3.36090E+00
 -1       690 2.49263E+00
 -1       691 4.03826E+00
 -1       692 3.62189E+00
 -1       693 4.40066E+00
 -1       694 3.45988E+00
 -1       695 2.79764E+00
 -1       696 2.28850E+00
 -1       697 1.92424E+00
 -1       698 1.45992E+00
 -1       699 1.23285E+00
 -1       700 1.10888E+00
 -1       701 9.49167E-01
 -1       702 7.69107E+00
 -1       703 1.27736E+00
 -1       704 5.46427E-01
 -1       705 1.03626E+00
 -1       706 1.24741E+00
 -1       707 1.27736E+00
 -1       708 5.20762E+00
 -1       709 1.22687E+00
 -1       710 8.47214E-01
 -1       711 7.86437E-01
 -1       712 1.04532E+01
 -1       713 1.23977E+01
 -1       714 5.15301E+00
 -1       715 4.63527E-01
 -1       716 4.21754E+00
 -1       717 8.04639E+00
 -1       718 1.19446E+01
 -1       719 4.66815E-01
 -1       720 2.76297E-01
 -1       721 5.17503E-01
 -1       722 4.46526E+00
 -1       723 9.49582E+00
 -1       724 3.61699E-01
 -1       725 4.44379E+00
 -1       726 3.11628E+00
 -1       727 1.18353E+01
 -1       728 4.03826E+00
 -1       729 1.48289E+01
 -1       730 1.14776E+01
 -1       731 3.65350E-01
 -1       732 1.46714E+01
 -1       733 7.18394E+00
 -1       734 6.47890E+00
 -1       735 1.40902E+01
 -1       736 4.69740E+00
 -1       737 5.93018E+00
 -1       738 3.45988E+00
 -1       739 5.57117E+00
 -1       740 4.40608E+00
 -1       741 5.95033E+00
 -1       742 4.63527E-01
 -1       743 3.42957E-01
 -1       744 1.11194E+00
 -1       745 1.02598E+01
 -1       746 3.57809E-01
 -1       747 5.46427E-01
 -1       748 2.68340E+00
 -1       749 2.39713E-01
 -1       750 2.58299E-01
 -1       751 2.50897E-01
 -1       752 2.28905E-01
 -1       753 2.00173E-01
 -1       754 1.73080E-01
 -1       755 1.50938E-01
 -1       756 1.27034E-01
 -1       757 1.02979E-01
 -1       758 7.94232E-02
 -1       759 5.63063E-02
 -1       760 3.59012E-02
 -1       761 3.81279E-02
 -1       762 6.61747E-02
 -1       763 1.04489E-01
 -1       764 1.53918E-01
 -1       765 2.14244E-01
 -1       766 2.86911E-01
 -1       767 3.72463E-01
 -1       768 4.69688E-01
 -1       769 5.84775E-01
 -1       770 7.44293E-01
 -1       771 9.34178E-01
 -1       772 1.18306E+00
 -1       773 1.46825E+00
 -1       774 1.81058E+00
 -1       775 2.36762E+00
 -1       776 2.75546E+00
 -1       777 3.91355E+00
 -1       778 2.08613E+00
 -1       779 2.69968E+00
 -1       780 3.01724E+00
 -1       781 2.38163E+00
 -1       782 1.64290E+00
 -1       783 1.21416E+00
 -1       784 7.38459E-01
 -1       785 2.89088E-01
 -1       786 1.64073E-01
 -1       787 1.90571E-01
 -1       788 1.10283E-01
 -1       789 8.49626E-02
 -1       790 6.34180E-02
 -1       791 4.26324E-02
 -1       792 3.69638E-02
 -1       793 6.06218E-02
 -1       794 9.84204E-02
 -1       795 1.44296E-01
 -1       796 2.00532E-01
 -1       797 2.69725E-01
 -1       798 3.55020E-01
 -1       799 4.64339E-01
 -1       800 5.97555E-01
 -1       801 7.56889E-01
 -1       802 9.41215E-01
 -1       803 1.16801E+00
 -1       804 1.42659E+00
 -1       805 1.72242E+00
 -1       806 2.24453E+00
 -1       807 2.92217E+00
 -1       808 3.72877E+00
 -1       809 2.79764E+00
 -1       810 2.84172E+00
 -1       811 2.48039E+00
 -1       812 1.86579E+00
 -1       813 1.61886E+00
 -1       814 1.78526E+00
 -1       815 1.21442E+00
 -1       816 1.78526E+00
 -1       817 8.98678E+00
 -1       818 8.91208E+00
 -1       819 3.07859E-01
 -1       820 9.63504E+00
 -1       821 1.64300E+00
 -1       822 6.24275E+00
 -1       823 1.36815E-01
 -1       824 3.73930E+00
 -1       825 1.01771E+01
 -1       826 7.16661E+00
 -1       827 2.33944E-01
 -1       828 1.01771E+01
 -1       829 7.97132E+00
 -1       830 2.83248E-01
 -1       831 5.40934E+00
 -1       832 2.54822E-01
 -1       833 8.98678E+00
 -1       834 8.66601E+00
 -1       835 2.88889E-01
 -1       836 4.24799E+00
 -1       837 3.06246E-01
 -1       838 2.80522E-01
 -1       839 1.29542E+00
 -1       840 5.45721E+00
 -1       841 5.73145E+00
 -1       842 4.14635E+00
 -1       843 2.72298E-01
 -1       844 2.99414E-01
 -1       845 2.19648E-01
 -1       846 1.17163E+00
 -1       847 1.63221E+00
 -1       848 2.56588E-01
 -1       849 1.75685E+00
 -1       850 6.41771E+00
 -1       851 4.92921E+00
 -1       852 3.23334E-01
 -1       853 6.74876E+00
 -1       854 1.23399E+00
 -1       855 2.88889E-01
 -1       856 7.78404E-01
 -1       857 1.83979E-01
 -1       858 1.76460E-01
 -1       859 1.60110E-01
 -1       860 1.39327E-01
 -1       861 1.22782E-01
 -1       862 1.04679E-01
 -1       863 8.54794E-02
 -1       864 6.59206E-02
 -1       865 5.21696E-02
 -1       866 5.52129E-02
 -1       867 6.37031E-02
 -1       868 1.00123E-01
 -1       869 1.46043E-01
 -1       870 2.02830E-01
 -1       871 2.72748E-01
 -1       872 3.58087E-01
 -1       873 4.60975E-01
 -1       874 5.82945E-01
 -1       875 7.23938E-01
 -1       876 8.86822E-01
 -1       877 1.14325E+00
 -1       878 1.54803E+00
 -1       879 2.14784E+00
 -1       880 3.24350E+00
 -1       881 2.65417E+00
 -1       882 2.05902E+00
 -1       883 7.14699E-02
 -1       884 9.28707E-02
 -1       885 4.69983E-02
 -1       886 5.29633E-02
 -1       887 8.70927E-02
 -1       888 1.32224E-01
 -1       889 1.88303E-01
 -1       890 2.57826E-01
 -1       891 3.43336E-01
 -1       892 4.47180E-01
 -1       893 5.71032E-01
 -1       894 7.14842E-01
 -1       895 8.74562E-01
 -1       896 1.11603E+00
 -1       897 1.46771E+00
 -1       898 2.03509E+00
 -1       899 3.10513E+00
 -1       900 5.15824E+00
 -1       901 2.07376E+00
 -1       902 3.60949E+00
 -1       903 6.34934E+00
 -1       904 2.09956E-01
 -1       905 2.48039E+00
 -1       906 2.93506E+00
 -1       907 6.45486E+00
 -1       908 5.00395E-02
 -1       909 1.52901E-01
 -1       910 4.29178E+00
 -1       911 3.23334E-01
 -1       912 5.74071E+00
 -1       913 1.76094E-01
 -1       914 6.67691E+00
 -1       915 1.39540E-01
 -1       916 6.75831E+00
 -1       917 2.11433E-01
 -1       918 6.75831E+00
 -1       919 1.65543E-01
 -1       920 4.71835E+00
 -1       921 4.85952E+00
 -1       922 1.76870E-01
 -1       923 1.34733E-01
 -1       924 9.83632E-01
 -1       925 1.69155E-01
 -1       926 1.14192E-01
 -1       927 3.60949E+00
 -1       928 2.30850E-01
 -1       929 1.61886E+00
 -1       930 3.76581E+00
 -1       931 1.98156E-01
 -1       932 6.03085E+00
 -1       933 6.45486E+00
 -1       934 2.17729E-01
 -1       935 1.41778E-01
 -1       936 2.30376E+00
 -1       937 2.93086E+00
 -1       938 1.74277E-01
 -1       939 3.20391E+00
 -1       940 4.31191E+00
 -1       941 1.35921E-01
 -1       942 1.26407E-01
 -1       943 1.11992E-01
 -1       944 9.76382E-02
 -1       945 8.39811E-02
 -1       946 6.91878E-02
 -1       947 6.28189E-02
 -1       948 6.56663E-02
 -1       949 7.21155E-02
 -1       950 8.69327E-02
 -1       951 1.25790E-01
 -1       952 1.74554E-01
 -1       953 2.35790E-01
 -1       954 3.12675E-01
 -1       955 4.09343E-01
 -1       956 5.31434E-01
 -1       957 6.86895E-01
 -1       958 8.86822E-01
 -1       959 1.14325E+00
 -1       960 1.47282E+00
 -1       961 1.84426E+00
 -1       962 1.18004E-01
 -1       963 2.65417E+00
 -1       964 3.21561E+00
 -1       965 7.87985E-02
 -1       966 6.52405E-02
 -1       967 1.67097E-01
 -1       968 2.28665E-01
 -1       969 3.05846E-01
 -1       970 4.02539E-01
 -1       971 5.23826E-01
 -1       972 6.76605E-01
 -1       973 8.70247E-01
 -1       974 1.11603E+00
 -1       975 1.42326E+00
 -1       976 1.92161E+00
 -1       977 2.77471E+00
 -1       978 1.46361E-01
 -1       979 2.44954E+00
 -1       980 2.36493E+00
 -1       981 7.59521E-02
 -1       982 1.56626E-01
 -1       983 1.24554E-01
 -1       984 2.03842E-01
 -1       985 9.16865E-02
 -1       986 1.36947E-01
 -1       987 4.17509E+00
 -1       988 3.91268E+00
 -1       989 3.76581E+00
 -1       990 2.30850E-01
 -1       991 1.07555E-01
 -1       992 4.39288E+00
 -1       993 3.62513E+00
 -1       994 6.01339E-02
 -1       995 2.48251E+00
 -1       996 2.08141E-01
 -1       997 1.40671E-01
 -1       998 9.28336E-02
 -1       999 1.23631E-01
 -1      1000 1.16886E-01
 -1      1001 4.17509E+00
 -1      1002 2.44455E+00
 -1      1003 1.52989E-01
 -1      1004 3.66596E+00
 -1      1005 5.86845E-02
 -1      1006 1.56432E-01
 -1      1007 3.42575E+00
 -1      1008 1.56432E-01
 -1      1009 5.09250E+00
 -1      1010 1.17238E-01
 -1      1011 9.77081E-02
 -1      1012 8.75873E-02
 -1      1013 7.51852E-02
 -1      1014 6.85833E-02
 -1      1015 6.91198E-02
 -1      1016 6.99430E-02
 -1      1017 7.45907E-02
 -1      1018 8.68644E-02
 -1      1019 1.07793E-01
 -1      1020 1.36303E-01
 -1      1021 1.84148E-01
 -1      1022 2.45413E-01
 -1      1023 3.24388E-01
 -1      1024 4.27577E-01
 -1      1025 5.65487E-01
 -1      1026 7.55908E-01
 -1      1027 1.02997E+00
 -1      1028 1.43038E+00
 -1      1029 1.76732E+00
 -1      1030 1.84105E-01
 -1      1031 1.08502E-01
 -1      1032 1.17547E-01
 -1      1033 9.71693E-02
 -1      1034 9.35309E-02
 -1      1035 1.34927E-01
 -1      1036 7.87816E-02
 -1      1037 2.46539E-01
 -1      1038 3.26161E-01
 -1      1039 4.28722E-01
 -1      1040 5.63266E-01
 -1      1041 7.44918E-01
 -1      1042 1.00056E+00
 -1      1043 1.37250E+00
 -1      1044 1.92161E+00
 -1      1045 2.45377E+00
 -1      1046 3.21473E+00
 -1      1047 1.02435E-01
 -1      1048 2.11416E+00
 -1      1049 6.40277E-02
 -1      1050 1.05710E-01
 -1      1051 9.19248E-02
 -1      1052 1.40721E-01
 -1      1053 9.04720E-02
 -1      1054 1.03566E-01
 -1      1055 7.18460E-02
 -1      1056 7.10531E-02
 -1      1057 1.31345E-01
 -1      1058 1.10054E-01
 -1      1059 3.41844E+00
 -1      1060 6.72196E-02
 -1      1061 1.50631E-01
 -1      1062 2.37452E+00
 -1      1063 9.64708E-02
 -1      1064 9.64708E-02
 -1      1065 7.45557E-02
 -1      1066 7.03698E-02
 -1      1067 9.11382E-02
 -1      1068 6.99430E-02
 -1      1069 7.45907E-02
 -1      1070 9.85449E-02
 -1      1071 1.07793E-01
 -1      1072 1.35059E-01
 -1      1073 1.70952E-01
 -1      1074 2.20301E-01
 -1      1075 2.86428E-01
 -1      1076 3.73312E-01
 -1      1077 4.90066E-01
 -1      1078 6.52202E-01
 -1      1079 8.85142E-01
 -1      1080 1.21775E+00
 -1      1081 2.39196E+00
 -1      1082 2.52588E-01
 -1      1083 1.54964E-01
 -1      1084 9.91212E-02
 -1      1085 3.22777E-01
 -1      1086 4.13270E-01
 -1      1087 5.32417E-01
 -1      1088 7.18462E-01
 -1      1089 1.00205E+00
 -1      1090 1.55105E+00
 -1      1091 7.26349E-02
 -1      1092 6.73370E-02
 -1      1093 8.16560E-02
 -1      1094 1.97715E-01
 -1      1095 7.66294E-02
 -1      1096 5.34228E-02
 -1      1097 1.22081E-01
 -1      1098 1.95674E+00
 -1      1099 8.75679E-02
 -1      1100 9.91212E-02
 -1      1101 8.96663E-02
 -1      1102 8.96744E-02
 -1      1103 1.10880E-01
 -1      1104 9.11382E-02
 -1      1105 2.39196E+00
 -1      1106 2.39196E+00
 -1      1107 7.68731E-02
 -1      1108 1.10880E-01
 -1      1109 2.03289E+00
 -1      1110 9.11382E-02
 -1      1111 9.91212E-02
 -1      1112 9.77485E-02
 -1      1113 1.10880E-01
 -1      1114 9.77485E-02
 -1      1115 5.14804E-02
 -1      1116 7.41242E-02
 -1      1117 1.04854E-01
 -1      1118 7.41242E-02
 -1      1119 1.31454E+01
 -1      1120 8.40437E+00
 -1      1121 2.74312E+00
 -1      1122 1.55718E+00
 -1      1123 1.16843E+00
 -1      1124 9.72207E-01
 -1      1125 8.53957E-01
 -1      1126 7.81616E-01
 -1      1127 7.55316E-01
 -1      1128 7.84719E-01
 -1      1129 8.56882E-01
 -1      1130 9.76367E-01
 -1      1131 1.17963E+00
 -1      1132 1.57100E+00
 -1      1133 2.67004E+00
 -1      1134 6.07401E+00
 -1      1135 1.13420E+01
 -1      1136 1.31454E+01
 -1      1137 8.73243E+00
 -1      1138 3.83126E+00
 -1      1139 2.72848E+00
 -1      1140 1.73996E+00
 -1      1141 1.19125E+00
 -1      1142 8.97382E-01
 -1      1143 6.88930E-01
 -1      1144 5.30317E-01
 -1      1145 4.07879E-01
 -1      1146 3.16443E-01
 -1      1147 2.47924E-01
 -1      1148 1.94470E-01
 -1      1149 1.54121E-01
 -1      1150 1.25002E-01
 -1      1151 1.05372E-01
 -1      1152 9.87786E-02
 -1      1153 1.07544E-01
 -1      1154 1.30355E-01
 -1      1155 1.66100E-01
 -1      1156 2.13187E-01
 -1      1157 2.71681E-01
 -1      1158 3.40336E-01
 -1      1159 4.15683E-01
 -1      1160 4.91325E-01
 -1      1161 6.06579E-01
 -1      1162 7.69075E-01
 -1      1163 9.57694E-01
 -1      1164 1.14638E+00
 -1      1165 1.25628E+00
 -1      1166 1.29034E+00
 -1      1167 1.29872E+00
 -1      1168 1.39467E+00
 -1      1169 1.71164E+00
 -1      1170 2.61689E+00
 -1      1171 3.62834E+00
 -1      1172 3.95556E+00
 -1      1173 3.91604E+00
 -1      1174 3.71862E+00
 -1      1175 2.95534E+00
 -1      1176 1.92509E+00
 -1      1177 1.30395E+00
 -1      1178 1.14206E+00
 -1      1179 1.17644E+00
 -1      1180 1.13222E+00
 -1      1181 9.72795E-01
 -1      1182 8.57586E-01
 -1      1183 7.98702E-01
 -1      1184 6.66672E-01
 -1      1185 3.61557E-01
 -1      1186 1.40411E+01
 -1      1187 8.71848E+00
 -1      1188 2.90525E+00
 -1      1189 2.04125E+00
 -1      1190 1.40746E+00
 -1      1191 1.02711E+00
 -1      1192 8.20134E-01
 -1      1193 6.61939E-01
 -1      1194 5.31745E-01
 -1      1195 4.24110E-01
 -1      1196 3.39043E-01
 -1      1197 2.73364E-01
 -1      1198 2.20775E-01
 -1      1199 1.79734E-01
 -1      1200 1.49585E-01
 -1      1201 1.29557E-01
 -1      1202 1.26253E-01
 -1      1203 1.39399E-01
 -1      1204 1.60957E-01
 -1      1205 1.89436E-01
 -1      1206 2.24958E-01
 -1      1207 2.78650E-01
 -1      1208 3.52202E-01
 -1      1209 4.34971E-01
 -1      1210 5.20757E-01
 -1      1211 5.98227E-01
 -1      1212 6.49071E-01
 -1      1213 7.17005E-01
 -1      1214 8.83179E-01
 -1      1215 1.08740E+00
 -1      1216 1.24329E+00
 -1      1217 1.46438E+00
 -1      1218 1.61958E+00
 -1      1219 1.80118E+00
 -1      1220 2.29637E+00
 -1      1221 3.09072E+00
 -1      1222 3.75046E+00
 -1      1223 3.93417E+00
 -1      1224 3.93893E+00
 -1      1225 3.35132E+00
 -1      1226 2.16005E+00
 -1      1227 1.31838E+00
 -1      1228 1.23010E+00
 -1      1229 1.38474E+00
 -1      1230 1.38967E+00
 -1      1231 1.27530E+00
 -1      1232 1.05328E+00
 -1      1233 8.75297E-01
 -1      1234 6.30431E-01
 -1      1235 2.86392E-01
 -1      1236 1.75651E-01
 -1      1237 2.34422E-01
 -1      1238 2.10959E-01
 -1      1239 1.48990E-01
 -1      1240 9.66681E-02
 -1      1241 1.25533E-01
 -1      1242 1.97300E-01
 -1      1243 2.33455E-01
 -1      1244 2.40524E-01
 -1      1245 2.25602E-01
 -1      1246 1.75828E-01
 -1      1247 9.97694E-02
 -1      1248 8.77661E-02
 -1      1249 1.47564E-01
 -1      1250 2.36495E-01
 -1      1251 3.15838E-01
 -1      1252 2.33215E-01
 -1      1253 2.45127E+01
 -1      1254 3.61081E+01
 -1      1255 4.75458E+01
 -1      1256 3.39180E+01
 -1      1257 1.62349E+01
 -1      1258 1.21794E+01
 -1      1259 1.22870E+01
 -1      1260 1.24828E+01
 -1      1261 1.25711E+01
 -1      1262 1.26749E+01
 -1      1263 2.01394E+01
 -1      1264 2.86747E+01
 -1      1265 2.98188E+01
 -1      1266 2.73477E+01
 -1      1267 2.49912E+01
 -1      1268 2.51022E+01
 -1      1269 3.21480E+01
 -1      1270 3.91667E+01
 -1      1271 2.70288E+01
 -1      1272 1.35251E+01
 -1      1273 1.23147E+01
 -1      1274 1.24701E+01
 -1      1275 1.23720E+01
 -1      1276 1.22738E+01
 -1      1277 1.61656E+01
 -1      1278 3.37385E+01
 -1      1279 4.74195E+01
 -1      1280 3.59534E+01
 -1      1281 2.44212E+01
 -1      1282 1.31454E+01
 -1      1283 4.87061E+00
 -1      1284 9.61162E+00
 -1      1285 2.06010E+00
 -1      1286 2.98034E+00
 -1      1287 4.18759E+00
 -1      1288 1.39965E+00
 -1      1289 1.66535E+00
 -1      1290 1.90257E+00
 -1      1291 1.10123E+00
 -1      1292 1.22428E+00
 -1      1293 1.33245E+00
 -1      1294 9.35945E-01
 -1      1295 1.00912E+00
 -1      1296 1.06497E+00
 -1      1297 8.36485E-01
 -1      1298 8.81564E-01
 -1      1299 9.18474E-01
 -1      1300 7.75335E-01
 -1      1301 8.02598E-01
 -1      1302 8.30205E-01
 -1      1303 7.56280E-01
 -1      1304 7.55316E-01
 -1      1305 7.76298E-01
 -1      1306 8.06424E-01
 -1      1307 7.77985E-01
 -1      1308 7.77985E-01
 -1      1309 8.83912E-01
 -1      1310 8.40188E-01
 -1      1311 8.33454E-01
 -1      1312 1.01642E+00
 -1      1313 9.40658E-01
 -1      1314 9.23964E-01
 -1      1315 1.23954E+00
 -1      1316 1.11204E+00
 -1      1317 1.07633E+00
 -1      1318 1.68087E+00
 -1      1319 1.41699E+00
 -1      1320 1.34940E+00
 -1      1321 2.88265E+00
 -1      1322 2.04749E+00
 -1      1323 1.89348E+00
 -1      1324 6.28696E+00
 -1      1325 3.71815E+00
 -1      1326 3.09560E+00
 -1      1327 1.40411E+01
 -1      1328 1.13420E+01
 -1      1329 8.98612E+00
 -1      1330 1.40411E+01
 -1      1331 8.73243E+00
 -1      1332 4.31947E+00
 -1      1333 3.83126E+00
 -1      1334 3.34304E+00
 -1      1335 3.83126E+00
 -1      1336 2.72848E+00
 -1      1337 2.11391E+00
 -1      1338 2.72848E+00
 -1      1339 1.78199E+00
 -1      1340 1.40804E+00
 -1      1341 1.78199E+00
 -1      1342 1.19752E+00
 -1      1343 1.02277E+00
 -1      1344 1.23955E+00
 -1      1345 8.97382E-01
 -1      1346 7.78265E-01
 -1      1347 9.03652E-01
 -1      1348 6.88930E-01
 -1      1349 5.99595E-01
 -1      1350 6.88930E-01
 -1      1351 5.36377E-01
 -1      1352 4.67099E-01
 -1      1353 5.36377E-01
 -1      1354 4.17920E-01
 -1      1355 3.64760E-01
 -1      1356 4.23980E-01
 -1      1357 3.25872E-01
 -1      1358 2.87596E-01
 -1      1359 3.35913E-01
 -1      1360 2.60082E-01
 -1      1361 2.29837E-01
 -1      1362 2.69510E-01
 -1      1363 2.06732E-01
 -1      1364 1.83523E-01
 -1      1365 2.18890E-01
 -1      1366 1.64704E-01
 -1      1367 1.47563E-01
 -1      1368 1.76965E-01
 -1      1369 1.32646E-01
 -1      1370 1.20668E-01
 -1      1371 1.43229E-01
 -1      1372 1.09113E-01
 -1      1373 1.01461E-01
 -1      1374 1.16757E-01
 -1      1375 9.65022E-02
 -1      1376 9.75610E-02
 -1      1377 1.00243E-01
 -1      1378 9.98375E-02
 -1      1379 1.07544E-01
 -1      1380 9.75610E-02
 -1      1381 1.18075E-01
 -1      1382 1.33178E-01
 -1      1383 1.10368E-01
 -1      1384 1.48542E-01
 -1      1385 1.69184E-01
 -1      1386 1.36262E-01
 -1      1387 1.88909E-01
 -1      1388 2.15355E-01
 -1      1389 1.71351E-01
 -1      1390 2.39633E-01
 -1      1391 2.71681E-01
 -1      1392 2.15355E-01
 -1      1393 3.03729E-01
 -1      1394 3.40336E-01
 -1      1395 2.71681E-01
 -1      1396 3.87563E-01
 -1      1397 4.26303E-01
 -1      1398 3.50957E-01
 -1      1399 4.84350E-01
 -1      1400 5.21251E-01
 -1      1401 4.56230E-01
 -1      1402 5.83021E-01
 -1      1403 6.61374E-01
 -1      1404 5.76046E-01
 -1      1405 7.19436E-01
 -1      1406 8.03580E-01
 -1      1407 6.95878E-01
 -1      1408 8.67229E-01
 -1      1409 9.71704E-01
 -1      1410 8.17590E-01
 -1      1411 1.06217E+00
 -1      1412 1.14638E+00
 -1      1413 9.71704E-01
 -1      1414 1.23059E+00
 -1      1415 1.25628E+00
 -1      1416 1.14638E+00
 -1      1417 1.28196E+00
 -1      1418 1.29034E+00
 -1      1419 1.25628E+00
 -1      1420 1.29872E+00
 -1      1421 1.29872E+00
 -1      1422 1.29034E+00
 -1      1423 1.29772E+00
 -1      1424 1.39367E+00
 -1      1425 1.29772E+00
 -1      1426 1.49062E+00
 -1      1427 1.71164E+00
 -1      1428 1.39367E+00
 -1      1429 2.01477E+00
 -1      1430 2.69900E+00
 -1      1431 1.79375E+00
 -1      1432 3.30112E+00
 -1      1433 3.62834E+00
 -1      1434 2.69900E+00
 -1      1435 3.95556E+00
 -1      1436 3.95556E+00
 -1      1437 3.62834E+00
 -1      1438 3.91604E+00
 -1      1439 3.87652E+00
 -1      1440 3.91604E+00
 -1      1441 3.71862E+00
 -1      1442 3.56072E+00
 -1      1443 3.71862E+00
 -1      1444 2.95534E+00
 -1      1445 2.34996E+00
 -1      1446 2.95534E+00
 -1      1447 1.92509E+00
 -1      1448 1.50022E+00
 -1      1449 1.92509E+00
 -1      1450 1.28284E+00
 -1      1451 1.08658E+00
 -1      1452 1.28284E+00
 -1      1453 1.10769E+00
 -1      1454 1.14206E+00
 -1      1455 1.08658E+00
 -1      1456 1.17644E+00
 -1      1457 1.17644E+00
 -1      1458 1.14206E+00
 -1      1459 1.13222E+00
 -1      1460 1.08800E+00
 -1      1461 1.13222E+00
 -1      1462 9.69280E-01
 -1      1463 8.54071E-01
 -1      1464 9.69280E-01
 -1      1465 8.57586E-01
 -1      1466 8.57586E-01
 -1      1467 8.54071E-01
 -1      1468 7.98702E-01
 -1      1469 7.39818E-01
 -1      1470 7.98702E-01
 -1      1471 6.66672E-01
 -1      1472 5.93526E-01
 -1      1473 6.66672E-01
 -1      1474 4.65185E-01
 -1      1475 4.65185E-01
 -1      1476 3.39581E+00
 -1      1477 8.71848E+00
 -1      1478 8.71848E+00
 -1      1479 2.41469E+00
 -1      1480 2.90525E+00
 -1      1481 2.90525E+00
 -1      1482 1.66782E+00
 -1      1483 2.04125E+00
 -1      1484 2.04125E+00
 -1      1485 1.14710E+00
 -1      1486 1.40746E+00
 -1      1487 1.40746E+00
 -1      1488 9.07130E-01
 -1      1489 1.02711E+00
 -1      1490 1.02711E+00
 -1      1491 7.33137E-01
 -1      1492 8.20134E-01
 -1      1493 8.20134E-01
 -1      1494 5.90741E-01
 -1      1495 6.61939E-01
 -1      1496 6.61939E-01
 -1      1497 4.72749E-01
 -1      1498 5.31745E-01
 -1      1499 5.31745E-01
 -1      1500 3.75470E-01
 -1      1501 4.24110E-01
 -1      1502 4.24110E-01
 -1      1503 3.02616E-01
 -1      1504 3.39043E-01
 -1      1505 3.39043E-01
 -1      1506 2.44112E-01
 -1      1507 2.73364E-01
 -1      1508 2.73364E-01
 -1      1509 1.97727E-01
 -1      1510 2.21064E-01
 -1      1511 2.21064E-01
 -1      1512 1.62622E-01
 -1      1513 1.80326E-01
 -1      1514 1.80614E-01
 -1      1515 1.37148E-01
 -1      1516 1.49594E-01
 -1      1517 1.50185E-01
 -1      1518 1.21975E-01
 -1      1519 1.29557E-01
 -1      1520 1.29566E-01
 -1      1521 1.25965E-01
 -1      1522 1.21688E-01
 -1      1523 1.21688E-01
 -1      1524 1.39399E-01
 -1      1525 1.30531E-01
 -1      1526 1.25965E-01
 -1      1527 1.60957E-01
 -1      1528 1.48268E-01
 -1      1529 1.39399E-01
 -1      1530 1.89436E-01
 -1      1531 1.73647E-01
 -1      1532 1.60957E-01
 -1      1533 2.32258E-01
 -1      1534 2.12526E-01
 -1      1535 1.96737E-01
 -1      1536 2.94445E-01
 -1      1537 2.60486E-01
 -1      1538 2.48054E-01
 -1      1539 3.66353E-01
 -1      1540 3.26761E-01
 -1      1541 3.08597E-01
 -1      1542 4.44101E-01
 -1      1543 4.00925E-01
 -1      1544 3.75484E-01
 -1      1545 5.20757E-01
 -1      1546 4.78147E-01
 -1      1547 4.44101E-01
 -1      1548 5.98227E-01
 -1      1549 5.63367E-01
 -1      1550 5.20757E-01
 -1      1551 6.49071E-01
 -1      1552 6.33088E-01
 -1      1553 5.98227E-01
 -1      1554 7.27629E-01
 -1      1555 6.75680E-01
 -1      1556 6.59696E-01
 -1      1557 9.19161E-01
 -1      1558 8.04936E-01
 -1      1559 7.63611E-01
 -1      1560 1.08740E+00
 -1      1561 9.97404E-01
 -1      1562 9.19161E-01
 -1      1563 1.24329E+00
 -1      1564 1.17740E+00
 -1      1565 1.08740E+00
 -1      1566 1.46438E+00
 -1      1567 1.30919E+00
 -1      1568 1.24329E+00
 -1      1569 1.61958E+00
 -1      1570 1.61958E+00
 -1      1571 1.46438E+00
 -1      1572 1.77238E+00
 -1      1573 1.59078E+00
 -1      1574 1.59078E+00
 -1      1575 2.29637E+00
 -1      1576 1.98279E+00
 -1      1577 1.77238E+00
 -1      1578 3.09072E+00
 -1      1579 2.60996E+00
 -1      1580 2.29637E+00
 -1      1581 3.75046E+00
 -1      1582 3.57149E+00
 -1      1583 3.09072E+00
 -1      1584 3.93417E+00
 -1      1585 3.92942E+00
 -1      1586 3.75046E+00
 -1      1587 3.93893E+00
 -1      1588 3.93893E+00
 -1      1589 3.93417E+00
 -1      1590 2.76371E+00
 -1      1591 3.35132E+00
 -1      1592 3.35132E+00
 -1      1593 1.55639E+00
 -1      1594 2.16005E+00
 -1      1595 2.16005E+00
 -1      1596 9.98414E-01
 -1      1597 1.23643E+00
 -1      1598 1.23643E+00
 -1      1599 1.23010E+00
 -1      1600 1.08037E+00
 -1      1601 9.98414E-01
 -1      1602 1.38474E+00
 -1      1603 1.37982E+00
 -1      1604 1.23010E+00
 -1      1605 1.38967E+00
 -1      1606 1.38967E+00
 -1      1607 1.38474E+00
 -1      1608 1.16093E+00
 -1      1609 1.27530E+00
 -1      1610 1.27530E+00
 -1      1611 9.45635E-01
 -1      1612 1.05328E+00
 -1      1613 1.05328E+00
 -1      1614 8.04959E-01
 -1      1615 8.75297E-01
 -1      1616 8.75297E-01
 -1      1617 4.75580E-01
 -1      1618 6.50107E-01
 -1      1619 6.50107E-01
 -1      1620 3.45163E-01
 -1      1621 2.64012E-01
 -1      1622 2.64012E-01
 -1      1623 2.42526E-01
 -1      1624 2.65988E-01
 -1      1625 2.95578E-01
 -1      1626 2.04019E-01
 -1      1627 2.42526E-01
 -1      1628 2.97554E-01
 -1      1629 1.24961E-01
 -1      1630 1.38777E-01
 -1      1631 2.32313E-01
 -1      1632 2.24175E-01
 -1      1633 1.81494E-01
 -1      1634 2.23604E-01
 -1      1635 3.15841E-01
 -1      1636 2.86756E-01
 -1      1637 3.42717E-01
 -1      1638 3.49365E-01
 -1      1639 3.42296E-01
 -1      1640 4.31751E-01
 -1      1641 3.49365E-01
 -1      1642 3.49365E-01
 -1      1643 4.58205E-01
 -1      1644 3.30916E-01
 -1      1645 3.45839E-01
 -1      1646 4.54679E-01
 -1      1647 2.53269E-01
 -1      1648 2.88121E-01
 -1      1649 4.08358E-01
 -1      1650 1.47201E-01
 -1      1651 1.88408E-01
 -1      1652 3.00701E-01
 -1      1653 1.51852E-01
 -1      1654 1.22649E-01
 -1      1655 2.11288E-01
 -1      1656 2.32689E-01
 -1      1657 2.02095E-01
 -1      1658 2.36978E-01
 -1      1659 2.91027E-01
 -1      1660 2.32689E-01
 -1      1661 2.87221E-01
 -1      1662 3.42834E-01
 -1      1663 3.21829E-01
 -1      1664 3.18023E-01
 -1      1665 4.71176E-01
 -1      1666 2.65658E+01
 -1      1667 2.64081E+01
 -1      1668 3.82980E+01
 -1      1669 2.68603E+01
 -1      1670 4.75458E+01
 -1      1671 4.75458E+01
 -1      1672 2.11418E+01
 -1      1673 3.47696E+01
 -1      1674 1.16002E+01
 -1      1675 1.56556E+01
 -1      1676 1.21794E+01
 -1      1677 1.21794E+01
 -1      1678 1.22563E+01
 -1      1679 1.21488E+01
 -1      1680 1.24828E+01
 -1      1681 1.23945E+01
 -1      1682 1.25711E+01
 -1      1683 1.25711E+01
 -1      1684 1.22776E+01
 -1      1685 1.21739E+01
 -1      1686 2.01394E+01
 -1      1687 1.27786E+01
 -1      1688 2.98493E+01
 -1      1689 2.86747E+01
 -1      1690 2.98188E+01
 -1      1691 2.98493E+01
 -1      1692 2.47844E+01
 -1      1693 2.72249E+01
 -1      1694 2.66660E+01
 -1      1695 2.65820E+01
 -1      1696 2.66931E+01
 -1      1697 2.66660E+01
 -1      1698 3.67970E+01
 -1      1699 2.97782E+01
 -1      1700 3.91667E+01
 -1      1701 3.91667E+01
 -1      1702 1.48909E+01
 -1      1703 2.70288E+01
 -1      1704 1.16215E+01
 -1      1705 1.29872E+01
 -1      1706 1.23147E+01
 -1      1707 1.21594E+01
 -1      1708 1.24701E+01
 -1      1709 1.24701E+01
 -1      1710 1.21261E+01
 -1      1711 1.22242E+01
 -1      1712 1.22738E+01
 -1      1713 1.22738E+01
 -1      1714 1.56944E+01
 -1      1715 1.18026E+01
 -1      1716 3.42394E+01
 -1      1717 2.05584E+01
 -1      1718 4.74195E+01
 -1      1719 4.74195E+01
 -1      1720 2.67303E+01
 -1      1721 3.81964E+01
 -1      1722 2.64081E+01
 -1      1723 2.64742E+01
 -1      1724 1.65071E+01
 -1      1725 3.47696E+01
 -1      1726 3.64839E-01
 -1      1727 3.94429E-01
 -1      1728 2.87557E+01
 -1      1729 3.82980E+01
 -1      1730 2.84612E+01
 -1      1731 1.16002E+01
 -1      1732 1.21488E+01
 -1      1733 1.22563E+01
 -1      1734 1.24828E+01
 -1      1735 1.21739E+01
 -1      1736 1.22776E+01
 -1      1737 2.13139E+01
 -1      1738 2.98493E+01
 -1      1739 2.72554E+01
 -1      1740 2.64592E+01
 -1      1741 2.82569E+01
 -1      1742 3.13421E+01
 -1      1743 3.67970E+01
 -1      1744 2.70288E+01
 -1      1745 1.29872E+01
 -1      1746 1.16215E+01
 -1      1747 1.23147E+01
 -1      1748 1.22242E+01
 -1      1749 1.21261E+01
 -1      1750 1.18026E+01
 -1      1751 1.61953E+01
 -1      1752 3.42394E+01
 -1      1753 3.81964E+01
 -1      1754 2.87172E+01
 -1      1755 9.61162E+00
 -1      1756 1.27661E+00
 -1      1757 1.67136E+00
 -1      1758 2.38841E+00
 -1      1759 4.27868E+00
 -1      1760 1.76246E+00
 -1      1761 8.81834E-01
 -1      1762 9.73949E-01
 -1      1763 7.78921E-01
 -1      1764 8.33302E-01
 -1      1765 7.42282E-01
 -1      1766 7.13991E-01
 -1      1767 7.47879E-01
 -1      1768 6.62707E-01
 -1      1769 6.72013E-01
 -1      1770 6.92032E-01
 -1      1771 6.09706E-01
 -1      1772 6.95322E-01
 -1      1773 6.73617E-01
 -1      1774 5.89351E-01
 -1      1775 7.50836E-01
 -1      1776 7.17072E-01
 -1      1777 6.12705E-01
 -1      1778 8.40831E-01
 -1      1779 7.84085E-01
 -1      1780 6.67703E-01
 -1      1781 9.83947E-01
 -1      1782 8.88329E-01
 -1      1783 7.48450E-01
 -1      1784 1.22904E+00
 -1      1785 1.05159E+00
 -1      1786 8.63589E-01
 -1      1787 1.70963E+00
 -1      1788 1.34300E+00
 -1      1789 1.04519E+00
 -1      1790 2.62967E+00
 -1      1791 1.79417E+00
 -1      1792 1.24369E+00
 -1      1793 8.12143E+00
 -1      1794 3.06641E+00
 -1      1795 1.76498E+00
 -1      1796 2.79877E+00
 -1      1797 5.19867E+00
 -1      1798 2.16507E+00
 -1      1799 2.65563E+00
 -1      1800 2.05859E+00
 -1      1801 3.39949E+00
 -1      1802 2.53715E+00
 -1      1803 1.92258E+00
 -1      1804 1.69206E+00
 -1      1805 1.36014E+00
 -1      1806 1.50074E+00
 -1      1807 1.18005E+00
 -1      1808 9.69536E-01
 -1      1809 1.09012E+00
 -1      1810 8.44459E-01
 -1      1811 7.19073E-01
 -1      1812 7.84957E-01
 -1      1813 6.60192E-01
 -1      1814 5.70857E-01
 -1      1815 6.01000E-01
 -1      1816 5.22868E-01
 -1      1817 4.59650E-01
 -1      1818 4.94129E-01
 -1      1819 4.17624E-01
 -1      1820 3.68445E-01
 -1      1821 4.04115E-01
 -1      1822 3.35913E-01
 -1      1823 2.97024E-01
 -1      1824 3.29557E-01
 -1      1825 2.70089E-01
 -1      1826 2.42574E-01
 -1      1827 2.70089E-01
 -1      1828 2.19653E-01
 -1      1829 1.96547E-01
 -1      1830 2.20232E-01
 -1      1831 1.77605E-01
 -1      1832 1.58786E-01
 -1      1833 1.78368E-01
 -1      1834 1.44090E-01
 -1      1835 1.29173E-01
 -1      1836 1.44730E-01
 -1      1837 1.16757E-01
 -1      1838 1.05202E-01
 -1      1839 1.17618E-01
 -1      1840 9.73774E-02
 -1      1841 9.24186E-02
 -1      1842 9.73774E-02
 -1      1843 8.94364E-02
 -1      1844 9.17128E-02
 -1      1845 8.65704E-02
 -1      1846 9.91532E-02
 -1      1847 1.09683E-01
 -1      1848 9.10286E-02
 -1      1849 1.20898E-01
 -1      1850 1.36262E-01
 -1      1851 1.09683E-01
 -1      1852 1.51625E-01
 -1      1853 1.71351E-01
 -1      1854 1.36262E-01
 -1      1855 1.97806E-01
 -1      1856 2.22084E-01
 -1      1857 1.78080E-01
 -1      1858 2.59649E-01
 -1      1859 2.91697E-01
 -1      1860 2.42100E-01
 -1      1861 3.36529E-01
 -1      1862 3.83756E-01
 -1      1863 3.24497E-01
 -1      1864 4.34951E-01
 -1      1865 4.92997E-01
 -1      1866 4.20524E-01
 -1      1867 5.47786E-01
 -1      1868 6.09556E-01
 -1      1869 5.26507E-01
 -1      1870 6.62415E-01
 -1      1871 7.20476E-01
 -1      1872 6.34154E-01
 -1      1873 7.62909E-01
 -1      1874 8.26558E-01
 -1      1875 7.29445E-01
 -1      1876 8.73589E-01
 -1      1877 9.64053E-01
 -1      1878 8.18908E-01
 -1      1879 1.01061E+00
 -1      1880 1.09482E+00
 -1      1881 9.12495E-01
 -1      1882 1.09551E+00
 -1      1883 1.12120E+00
 -1      1884 9.59741E-01
 -1      1885 1.04239E+00
 -1      1886 1.05077E+00
 -1      1887 8.81628E-01
 -1      1888 1.02823E+00
 -1      1889 1.02724E+00
 -1      1890 7.80286E-01
 -1      1891 1.07867E+00
 -1      1892 1.17562E+00
 -1      1893 8.09181E-01
 -1      1894 1.47338E+00
 -1      1895 1.77652E+00
 -1      1896 1.15838E+00
 -1      1897 2.01609E+00
 -1      1898 2.61821E+00
 -1      1899 1.69573E+00
 -1      1900 2.84874E+00
 -1      1901 3.17596E+00
 -1      1902 2.16583E+00
 -1      1903 3.14382E+00
 -1      1904 3.10430E+00
 -1      1905 2.36422E+00
 -1      1906 3.13065E+00
 -1      1907 2.97275E+00
 -1      1908 2.35843E+00
 -1      1909 2.83074E+00
 -1      1910 2.22536E+00
 -1      1911 2.24277E+00
 -1      1912 1.99014E+00
 -1      1913 1.56527E+00
 -1      1914 1.86554E+00
 -1      1915 1.32023E+00
 -1      1916 1.10286E+00
 -1      1917 1.38528E+00
 -1      1918 9.34197E-01
 -1      1919 9.55307E-01
 -1      1920 9.71583E-01
 -1      1921 9.28062E-01
 -1      1922 9.62436E-01
 -1      1923 7.75679E-01
 -1      1924 9.53826E-01
 -1      1925 9.09609E-01
 -1      1926 7.39824E-01
 -1      1927 8.83556E-01
 -1      1928 7.64831E-01
 -1      1929 7.05160E-01
 -1      1930 7.32251E-01
 -1      1931 7.35766E-01
 -1      1932 6.46526E-01
 -1      1933 7.37065E-01
 -1      1934 6.78181E-01
 -1      1935 6.15245E-01
 -1      1936 6.25075E-01
 -1      1937 5.51929E-01
 -1      1938 4.29579E-01
 -1      1939 5.63438E-01
 -1      1940 1.39988E+00
 -1      1941 1.77332E+00
 -1      1942 1.52370E+00
 -1      1943 1.02044E+00
 -1      1944 1.28080E+00
 -1      1945 1.01286E+00
 -1      1946 8.06952E-01
 -1      1947 9.26936E-01
 -1      1948 8.00277E-01
 -1      1949 6.40866E-01
 -1      1950 7.27862E-01
 -1      1951 6.27684E-01
 -1      1952 5.16102E-01
 -1      1953 5.87300E-01
 -1      1954 4.95028E-01
 -1      1955 4.24378E-01
 -1      1956 4.83374E-01
 -1      1957 4.08735E-01
 -1      1958 3.44506E-01
 -1      1959 3.93146E-01
 -1      1960 3.44774E-01
 -1      1961 2.80461E-01
 -1      1962 3.16888E-01
 -1      1963 2.85924E-01
 -1      1964 2.29121E-01
 -1      1965 2.58373E-01
 -1      1966 2.36218E-01
 -1      1967 1.87064E-01
 -1      1968 2.10112E-01
 -1      1969 1.95121E-01
 -1      1970 1.55237E-01
 -1      1971 1.72639E-01
 -1      1972 1.61687E-01
 -1      1973 1.31056E-01
 -1      1974 1.44084E-01
 -1      1975 1.36108E-01
 -1      1976 1.15518E-01
 -1      1977 1.23108E-01
 -1      1978 1.17007E-01
 -1      1979 1.12331E-01
 -1      1980 1.12618E-01
 -1      1981 1.06160E-01
 -1      1982 1.18031E-01
 -1      1983 1.13466E-01
 -1      1984 1.04396E-01
 -1      1985 1.32440E-01
 -1      1986 1.23571E-01
 -1      1987 1.11072E-01
 -1      1988 1.59742E-01
 -1      1989 1.47053E-01
 -1      1990 1.31225E-01
 -1      1991 2.02204E-01
 -1      1992 1.79114E-01
 -1      1993 1.65210E-01
 -1      1994 2.68160E-01
 -1      1995 2.39932E-01
 -1      1996 2.22310E-01
 -1      1997 3.47191E-01
 -1      1998 3.14875E-01
 -1      1999 3.06754E-01
 -1      2000 4.37474E-01
 -1      2001 4.02902E-01
 -1      2002 4.09181E-01
 -1      2003 5.34532E-01
 -1      2004 5.00486E-01
 -1      2005 5.27904E-01
 -1      2006 6.42974E-01
 -1      2007 6.00364E-01
 -1      2008 6.56748E-01
 -1      2009 7.37947E-01
 -1      2010 7.03086E-01
 -1      2011 7.82693E-01
 -1      2012 8.16392E-01
 -1      2013 7.89783E-01
 -1      2014 8.94642E-01
 -1      2015 9.28077E-01
 -1      2016 8.50771E-01
 -1      2017 9.80858E-01
 -1      2018 1.00632E+00
 -1      2019 9.28077E-01
 -1      2020 1.01524E+00
 -1      2021 1.07584E+00
 -1      2022 9.85847E-01
 -1      2023 9.94764E-01
 -1      2024 1.03379E+00
 -1      2025 9.67895E-01
 -1      2026 8.66342E-01
 -1      2027 1.17045E+00
 -1      2028 1.01526E+00
 -1      2029 7.39863E-01
 -1      2030 1.39821E+00
 -1      2031 1.42702E+00
 -1      2032 9.77893E-01
 -1      2033 1.95257E+00
 -1      2034 1.74216E+00
 -1      2035 1.57840E+00
 -1      2036 2.36314E+00
 -1      2037 2.04955E+00
 -1      2038 2.01933E+00
 -1      2039 2.84684E+00
 -1      2040 2.36608E+00
 -1      2041 2.11926E+00
 -1      2042 3.04930E+00
 -1      2043 2.87033E+00
 -1      2044 2.14569E+00
 -1      2045 3.14286E+00
 -1      2046 3.13811E+00
 -1      2047 2.25799E+00
 -1      2048 2.33885E+00
 -1      2049 2.92646E+00
 -1      2050 2.13039E+00
 -1      2051 1.36393E+00
 -1      2052 1.96758E+00
 -1      2053 1.54272E+00
 -1      2054 8.03523E-01
 -1      2055 1.12349E+00
 -1      2056 9.31024E-01
 -1      2057 9.09717E-01
 -1      2058 8.27759E-01
 -1      2059 7.14826E-01
 -1      2060 1.12357E+00
 -1      2061 9.73848E-01
 -1      2062 8.03194E-01
 -1      2063 1.17693E+00
 -1      2064 1.17200E+00
 -1      2065 9.15755E-01
 -1      2066 1.02078E+00
 -1      2067 1.13515E+00
 -1      2068 9.22406E-01
 -1      2069 8.50703E-01
 -1      2070 9.58349E-01
 -1      2071 8.18199E-01
 -1      2072 7.45285E-01
 -1      2073 8.15623E-01
 -1      2074 7.20691E-01
 -1      2075 4.95256E-01
 -1      2076 6.50107E-01
 -1      2077 5.90433E-01
 -1      2078 3.94429E-01
 -1      2079 2.52397E-01
 -1      2080 3.17639E-01
 -1      2081 4.08441E-01
 -1      2082 4.08441E-01
 -1      2083 4.28525E-01
 -1      2084 4.08441E-01
 -1      2085 4.06464E-01
 -1      2086 5.07291E-01
 -1      2087 5.19327E-01
 -1      2088 3.12101E-01
 -1      2089 2.55569E-01
 -1      2090 3.40895E-01
 -1      2091 4.72864E-01
 -1      2092 4.10283E-01
 -1      2093 4.42249E-01
 -1      2094 5.59817E-01
 -1      2095 5.33363E-01
 -1      2096 6.00929E-01
 -1      2097 5.59817E-01
 -1      2098 5.59817E-01
 -1      2099 6.61428E-01
 -1      2100 5.54595E-01
 -1      2101 5.58121E-01
 -1      2102 6.59732E-01
 -1      2103 4.98517E-01
 -1      2104 5.41313E-01
 -1      2105 6.44754E-01
 -1      2106 3.57077E-01
 -1      2107 4.21938E-01
 -1      2108 5.54893E-01
 -1      2109 2.40229E-01
 -1      2110 2.64782E-01
 -1      2111 3.86018E-01
 -1      2112 3.13596E-01
 -1      2113 2.63353E-01
 -1      2114 3.16847E-01
 -1      2115 3.71559E-01
 -1      2116 3.71559E-01
 -1      2117 3.97934E-01
 -1      2118 3.82980E+01
 -1      2119 2.90503E+01
 -1      2120 3.05268E+01
 -1      2121 3.05268E+01
 -1      2122 3.08213E+01
 -1      2123 3.05268E+01
 -1      2124 1.93320E+01
 -1      2125 3.21082E+01
 -1      2126 1.02185E+01
 -1      2127 1.57047E+01
 -1      2128 1.03817E+00
 -1      2129 1.21353E+00
 -1      2130 9.82326E-01
 -1      2131 8.55030E-01
 -1      2132 1.11727E+01
 -1      2133 1.12034E+01
 -1      2134 1.14634E+01
 -1      2135 1.13252E+01
 -1      2136 1.14086E+01
 -1      2137 1.13203E+01
 -1      2138 1.03922E+01
 -1      2139 1.07894E+01
 -1      2140 9.87512E+00
 -1      2141 9.37413E+00
 -1      2142 2.07116E+01
 -1      2143 1.21763E+01
 -1      2144 2.52002E+01
 -1      2145 2.52002E+01
 -1      2146 2.33045E+01
 -1      2147 2.58984E+01
 -1      2148 3.20692E+01
 -1      2149 3.02715E+01
 -1      2150 2.89145E+01
 -1      2151 3.20692E+01
 -1      2152 3.20692E+01
 -1      2153 2.98833E+01
 -1      2154 2.67981E+01
 -1      2155 3.14793E+01
 -1      2156 2.91096E+01
 -1      2157 1.42567E+01
 -1      2158 2.63947E+01
 -1      2159 1.87072E+01
 -1      2160 9.37815E+00
 -1      2161 1.12818E+01
 -1      2162 1.03778E+01
 -1      2163 9.83990E+00
 -1      2164 1.09813E+01
 -1      2165 1.08260E+01
 -1      2166 1.14429E+01
 -1      2167 1.16887E+01
 -1      2168 1.12601E+01
 -1      2169 1.11124E+01
 -1      2170 1.05769E+01
 -1      2171 9.48832E+00
 -1      2172 9.95956E+00
 -1      2173 1.51528E+01
 -1      2174 1.02888E+01
 -1      2175 3.19194E+01
 -1      2176 1.87393E+01
 -1      2177 2.89733E+01
 -1      2178 3.81964E+01
 -1      2179 3.00657E+01
 -1      2180 3.03218E+01
 -1      2181 9.70709E+00
 -1      2182 9.12785E+00
 -1      2183 1.30433E+01
 -1      2184 2.91128E+00
 -1      2185 8.32541E+00
 -1      2186 8.73103E+00
 -1      2187 2.10538E+00
 -1      2188 3.08213E+01
 -1      2189 3.25924E+01
 -1      2190 4.02361E-01
 -1      2191 2.28604E+01
 -1      2192 3.21313E+01
 -1      2193 3.03218E+01
 -1      2194 2.26963E+01
 -1      2195 1.28328E+01
 -1      2196 8.94585E+00
 -1      2197 1.02000E+01
 -1      2198 9.04435E+00
 -1      2199 1.06476E+01
 -1      2200 2.45656E+01
 -1      2201 3.58815E+01
 -1      2202 2.12492E+01
 -1      2203 1.60625E+01
 -1      2204 9.27282E+00
 -1      2205 7.98969E+00
 -1      2206 9.62684E+00
 -1      2207 1.03798E+01
 -1      2208 1.03891E+01
 -1      2209 3.06104E+01
 -1      2210 8.13443E+00
 -1      2211 8.44580E+00
 -1      2212 1.09093E+00
 -1      2213 1.48269E+00
 -1      2214 5.58794E-01
 -1      2215 5.89836E-01
 -1      2216 6.01574E-01
 -1      2217 6.50106E-01
 -1      2218 4.97660E-01
 -1      2219 5.11342E-01
 -1      2220 5.09739E-01
 -1      2221 5.45973E-01
 -1      2222 5.24222E-01
 -1      2223 4.44610E-01
 -1      2224 5.93916E-01
 -1      2225 5.60667E-01
 -1      2226 4.72185E-01
 -1      2227 6.53339E-01
 -1      2228 6.05841E-01
 -1      2229 4.98805E-01
 -1      2230 7.20980E-01
 -1      2231 6.53339E-01
 -1      2232 5.10731E-01
 -1      2233 8.83233E-01
 -1      2234 7.69275E-01
 -1      2235 5.59025E-01
 -1      2236 8.93781E-01
 -1      2237 1.01286E+00
 -1      2238 9.71849E-01
 -1      2239 1.26767E+00
 -1      2240 1.03715E+00
 -1      2241 6.24116E+00
 -1      2242 7.33184E+00
 -1      2243 9.88776E-01
 -1      2244 8.08686E-01
 -1      2245 7.55712E-01
 -1      2246 7.50979E-01
 -1      2247 6.25902E-01
 -1      2248 6.49631E-01
 -1      2249 5.69925E-01
 -1      2250 5.11044E-01
 -1      2251 5.35946E-01
 -1      2252 4.61933E-01
 -1      2253 4.13944E-01
 -1      2254 4.30858E-01
 -1      2255 3.86964E-01
 -1      2256 3.44939E-01
 -1      2257 3.54768E-01
 -1      2258 3.20489E-01
 -1      2259 2.87956E-01
 -1      2260 3.03338E-01
 -1      2261 2.64933E-01
 -1      2262 2.37997E-01
 -1      2263 2.55865E-01
 -1      2264 2.17928E-01
 -1      2265 1.95007E-01
 -1      2266 2.12772E-01
 -1      2267 1.78278E-01
 -1      2268 1.59335E-01
 -1      2269 1.75974E-01
 -1      2270 1.44730E-01
 -1      2271 1.30035E-01
 -1      2272 1.44640E-01
 -1      2273 1.17440E-01
 -1      2274 1.05024E-01
 -1      2275 1.17440E-01
 -1      2276 9.51290E-02
 -1      2277 8.73043E-02
 -1      2278 9.49505E-02
 -1      2279 7.93103E-02
 -1      2280 7.63281E-02
 -1      2281 7.70620E-02
 -1      2282 7.90594E-02
 -1      2283 8.64998E-02
 -1      2284 7.17993E-02
 -1      2285 9.38104E-02
 -1      2286 1.05025E-01
 -1      2287 8.18412E-02
 -1      2288 1.22094E-01
 -1      2289 1.37458E-01
 -1      2290 1.06221E-01
 -1      2291 1.64583E-01
 -1      2292 1.91038E-01
 -1      2293 1.50416E-01
 -1      2294 2.24123E-01
 -1      2295 2.61688E-01
 -1      2296 2.10626E-01
 -1      2297 3.01362E-01
 -1      2298 3.46194E-01
 -1      2299 2.83385E-01
 -1      2300 3.92461E-01
 -1      2301 4.43656E-01
 -1      2302 3.69326E-01
 -1      2303 4.95445E-01
 -1      2304 5.50234E-01
 -1      2305 4.67382E-01
 -1      2306 6.04796E-01
 -1      2307 6.57655E-01
 -1      2308 5.73735E-01
 -1      2309 7.09841E-01
 -1      2310 7.52273E-01
 -1      2311 6.80483E-01
 -1      2312 7.94250E-01
 -1      2313 8.41280E-01
 -1      2314 7.74646E-01
 -1      2315 8.88438E-01
 -1      2316 9.34996E-01
 -1      2317 8.63780E-01
 -1      2318 9.93915E-01
 -1      2319 9.94604E-01
 -1      2320 9.69858E-01
 -1      2321 1.03185E+00
 -1      2322 9.53052E-01
 -1      2323 1.06603E+00
 -1      2324 9.53093E-01
 -1      2325 9.30553E-01
 -1      2326 1.10332E+00
 -1      2327 1.08297E+00
 -1      2328 1.13440E+00
 -1      2329 1.25577E+00
 -1      2330 1.13558E+00
 -1      2331 1.43335E+00
 -1      2332 1.40937E+00
 -1      2333 1.55095E+00
 -1      2334 1.79053E+00
 -1      2335 1.52815E+00
 -1      2336 1.98087E+00
 -1      2337 2.21140E+00
 -1      2338 1.83610E+00
 -1      2339 2.64854E+00
 -1      2340 2.61639E+00
 -1      2341 2.46358E+00
 -1      2342 2.54866E+00
 -1      2343 2.57502E+00
 -1      2344 2.83298E+00
 -1      2345 2.39329E+00
 -1      2346 2.25128E+00
 -1      2347 2.58352E+00
 -1      2348 1.90341E+00
 -1      2349 1.66819E+00
 -1      2350 2.05392E+00
 -1      2351 1.66573E+00
 -1      2352 1.42069E+00
 -1      2353 1.70360E+00
 -1      2354 1.27085E+00
 -1      2355 1.10218E+00
 -1      2356 1.55129E+00
 -1      2357 9.94310E-01
 -1      2358 9.67065E-01
 -1      2359 1.29357E+00
 -1      2360 8.17839E-01
 -1      2361 8.09230E-01
 -1      2362 1.03647E+00
 -1      2363 7.55734E-01
 -1      2364 7.29680E-01
 -1      2365 8.33750E-01
 -1      2366 6.61489E-01
 -1      2367 6.28909E-01
 -1      2368 7.12063E-01
 -1      2369 5.65505E-01
 -1      2370 5.66804E-01
 -1      2371 5.80468E-01
 -1      2372 5.48595E-01
 -1      2373 6.27684E-01
 -1      2374 4.41462E-01
 -1      2375 4.95028E-01
 -1      2376 4.95028E-01
 -1      2377 3.76007E-01
 -1      2378 4.08735E-01
 -1      2379 4.08735E-01
 -1      2380 3.13542E-01
 -1      2381 3.44774E-01
 -1      2382 3.44774E-01
 -1      2383 2.58306E-01
 -1      2384 2.85924E-01
 -1      2385 2.85924E-01
 -1      2386 2.14129E-01
 -1      2387 2.36218E-01
 -1      2388 2.36218E-01
 -1      2389 1.75950E-01
 -1      2390 1.94958E-01
 -1      2391 1.94958E-01
 -1      2392 1.45121E-01
 -1      2393 1.59546E-01
 -1      2394 1.59383E-01
 -1      2395 1.20461E-01
 -1      2396 1.31614E-01
 -1      2397 1.29473E-01
 -1      2398 1.01477E-01
 -1      2399 1.09424E-01
 -1      2400 1.04931E-01
 -1      2401 9.14313E-02
 -1      2402 9.43307E-02
 -1      2403 8.67479E-02
 -1      2404 9.23614E-02
 -1      2405 9.12260E-02
 -1      2406 7.93963E-02
 -1      2407 1.05616E-01
 -1      2408 1.00076E-01
 -1      2409 8.69055E-02
 -1      2410 1.31225E-01
 -1      2411 1.16612E-01
 -1      2412 1.05616E-01
 -1      2413 1.76757E-01
 -1      2414 1.57385E-01
 -1      2415 1.42772E-01
 -1      2416 2.48302E-01
 -1      2417 2.10573E-01
 -1      2418 2.02749E-01
 -1      2419 3.36478E-01
 -1      2420 2.89762E-01
 -1      2421 2.78026E-01
 -1      2422 4.41712E-01
 -1      2423 3.86000E-01
 -1      2424 3.69009E-01
 -1      2425 5.61645E-01
 -1      2426 4.98633E-01
 -1      2427 4.75453E-01
 -1      2428 6.89314E-01
 -1      2429 6.23482E-01
 -1      2430 5.94211E-01
 -1      2431 8.10925E-01
 -1      2432 7.50812E-01
 -1      2433 7.17546E-01
 -1      2434 9.14931E-01
 -1      2435 8.63094E-01
 -1      2436 8.31214E-01
 -1      2437 9.90661E-01
 -1      2438 9.56282E-01
 -1      2439 9.24734E-01
 -1      2440 1.04214E+00
 -1      2441 1.04214E+00
 -1      2442 1.01757E+00
 -1      2443 1.05869E+00
 -1      2444 1.07917E+00
 -1      2445 1.10607E+00
 -1      2446 9.40081E-01
 -1      2447 1.04803E+00
 -1      2448 1.13243E+00
 -1      2449 9.83422E-01
 -1      2450 1.00195E+00
 -1      2451 1.18364E+00
 -1      2452 1.24684E+00
 -1      2453 9.90281E-01
 -1      2454 1.25237E+00
 -1      2455 1.82640E+00
 -1      2456 1.48245E+00
 -1      2457 1.49484E+00
 -1      2458 2.09189E+00
 -1      2459 1.99490E+00
 -1      2460 1.89896E+00
 -1      2461 2.46386E+00
 -1      2462 2.46091E+00
 -1      2463 2.43649E+00
 -1      2464 2.47286E+00
 -1      2465 2.44937E+00
 -1      2466 2.79102E+00
 -1      2467 2.49044E+00
 -1      2468 2.40163E+00
 -1      2469 2.70531E+00
 -1      2470 1.91198E+00
 -1      2471 2.12839E+00
 -1      2472 2.27204E+00
 -1      2473 1.42522E+00
 -1      2474 1.79649E+00
 -1      2475 1.79448E+00
 -1      2476 1.02499E+00
 -1      2477 1.26542E+00
 -1      2478 1.51919E+00
 -1      2479 9.69548E-01
 -1      2480 9.45312E-01
 -1      2481 1.27971E+00
 -1      2482 8.89822E-01
 -1      2483 8.25691E-01
 -1      2484 1.05618E+00
 -1      2485 9.13019E-01
 -1      2486 8.64589E-01
 -1      2487 8.87087E-01
 -1      2488 8.35484E-01
 -1      2489 8.77263E-01
 -1      2490 8.26097E-01
 -1      2491 7.16920E-01
 -1      2492 7.79348E-01
 -1      2493 7.34205E-01
 -1      2494 6.28847E-01
 -1      2495 6.63927E-01
 -1      2496 6.25076E-01
 -1      2497 6.02469E-01
 -1      2498 5.83964E-01
 -1      2499 4.85782E-01
 -1      2500 7.66486E-01
 -1      2501 7.05987E-01
 -1      2502 7.49521E-01
 -1      2503 5.14468E-01
 -1      2504 6.05270E-01
 -1      2505 5.21600E-01
 -1      2506 5.18428E-01
 -1      2507 6.95173E-01
 -1      2508 6.63315E-01
 -1      2509 7.91134E-01
 -1      2510 7.91134E-01
 -1      2511 8.96192E-01
 -1      2512 7.93022E-01
 -1      2513 7.94718E-01
 -1      2514 9.24424E-01
 -1      2515 7.79740E-01
 -1      2516 7.93022E-01
 -1      2517 9.28008E-01
 -1      2518 6.38455E-01
 -1      2519 7.15035E-01
 -1      2520 8.63303E-01
 -1      2521 4.07261E-01
 -1      2522 4.99556E-01
 -1      2523 6.59698E-01
 -1      2524 4.43199E-01
 -1      2525 4.20075E-01
 -1      2526 5.33613E-01
 -1      2527 4.76271E-01
 -1      2528 4.18309E-01
 -1      2529 5.21536E-01
 -1      2530 3.25924E+01
 -1      2531 3.25924E+01
 -1      2532 1.47336E+01
 -1      2533 2.09235E+01
 -1      2534 7.06774E-01
 -1      2535 8.00277E-01
 -1      2536 6.27684E-01
 -1      2537 4.83114E-01
 -1      2538 3.21313E+01
 -1      2539 3.16703E+01
 -1      2540 3.21313E+01
 -1      2541 2.43396E+01
 -1      2542 2.61107E+01
 -1      2543 1.67710E+00
 -1      2544 1.30297E+00
 -1      2545 8.39388E-01
 -1      2546 9.60046E-01
 -1      2547 2.67385E+01
 -1      2548 2.53900E+01
 -1      2549 9.43784E+00
 -1      2550 8.73040E+00
 -1      2551 2.09103E+01
 -1      2552 2.16841E+01
 -1      2553 1.86634E+01
 -1      2554 1.79652E+01
 -1      2555 5.22590E-01
 -1      2556 5.44549E-01
 -1      2557 4.71677E-01
 -1      2558 4.44581E-01
 -1      2559 9.36217E+00
 -1      2560 9.50529E+00
 -1      2561 2.53393E+01
 -1      2562 3.06104E+01
 -1      2563 9.00057E+00
 -1      2564 8.84813E+00
 -1      2565 7.76994E+00
 -1      2566 8.38906E+00
 -1      2567 5.63730E+00
 -1      2568 6.65533E+00
 -1      2569 9.44362E+00
 -1      2570 7.14246E+00
 -1      2571 1.50480E+01
 -1      2572 1.05595E+01
 -1      2573 1.24622E+01
 -1      2574 2.89145E+01
 -1      2575 2.19474E+01
 -1      2576 6.33663E+00
 -1      2577 5.87488E+00
 -1      2578 3.58815E+01
 -1      2579 3.58815E+01
 -1      2580 2.89145E+01
 -1      2581 1.24981E+01
 -1      2582 1.75828E+01
 -1      2583 6.75534E+00
 -1      2584 5.95483E+00
 -1      2585 7.46683E+00
 -1      2586 1.04418E+01
 -1      2587 8.04372E+00
 -1      2588 7.59555E+00
 -1      2589 9.10874E+00
 -1      2590 9.43924E+00
 -1      2591 6.80010E+00
 -1      2592 8.10066E+00
 -1      2593 6.96299E+00
 -1      2594 1.28312E+01
 -1      2595 9.24474E+00
 -1      2596 6.75377E+00
 -1      2597 2.16351E+01
 -1      2598 1.53581E+01
 -1      2599 7.70278E+00
 -1      2600 6.20648E+00
 -1      2601 1.62216E+00
 -1      2602 1.76530E+00
 -1      2603 1.32855E+00
 -1      2604 1.18939E+00
 -1      2605 8.75336E+00
 -1      2606 1.23806E+01
 -1      2607 7.97365E+00
 -1      2608 6.16855E-01
 -1      2609 7.57562E-01
 -1      2610 8.21779E-01
 -1      2611 8.00277E-01
 -1      2612 1.24401E+00
 -1      2613 6.66911E+00
 -1      2614 2.67385E+01
 -1      2615 6.32358E+00
 -1      2616 5.10964E+00
 -1      2617 5.45705E-01
 -1      2618 1.04436E+01
 -1      2619 5.45705E-01
 -1      2620 1.79173E+01
 -1      2621 2.43991E+01
 -1      2622 2.43991E+01
 -1      2623 1.62128E+01
 -1      2624 7.28159E+00
 -1      2625 5.66904E+00
 -1      2626 9.68094E-01
 -1      2627 8.96968E-01
 -1      2628 1.17700E+01
 -1      2629 7.96967E+00
 -1      2630 3.06104E+01
 -1      2631 5.33600E+00
 -1      2632 8.42913E+00
 -1      2633 2.16841E+01
 -1      2634 5.80810E+00
 -1      2635 5.41754E+00
 -1      2636 1.86634E+01
 -1      2637 1.47012E+01
 -1      2638 1.80518E+01
 -1      2639 5.21291E+00
 -1      2640 7.50526E+00
 -1      2641 9.31733E+00
 -1      2642 4.83114E-01
 -1      2643 4.55897E-01
 -1      2644 4.76271E-01
 -1      2645 5.36220E-01
 -1      2646 6.31648E-01
 -1      2647 4.86480E-01
 -1      2648 4.22771E-01
 -1      2649 4.08077E-01
 -1      2650 4.00351E-01
 -1      2651 3.87471E-01
 -1      2652 3.50937E-01
 -1      2653 4.36215E-01
 -1      2654 4.36215E-01
 -1      2655 4.72440E-01
 -1      2656 4.24145E-01
 -1      2657 3.49629E-01
 -1      2658 7.19121E-01
 -1      2659 7.97189E-01
 -1      2660 7.99500E-01
 -1      2661 2.37103E+01
 -1      2662 1.87784E+01
 -1      2663 8.28618E-01
 -1      2664 5.93480E+00
 -1      2665 4.78945E+00
 -1      2666 5.53880E-01
 -1      2667 4.96173E-01
 -1      2668 4.89103E-01
 -1      2669 4.33126E-01
 -1      2670 3.93353E-01
 -1      2671 4.13042E-01
 -1      2672 3.63931E-01
 -1      2673 3.66198E-01
 -1      2674 3.39230E-01
 -1      2675 3.12250E-01
 -1      2676 3.21413E-01
 -1      2677 2.87436E-01
 -1      2678 2.62986E-01
 -1      2679 2.71897E-01
 -1      2680 2.47029E-01
 -1      2681 2.24005E-01
 -1      2682 2.31126E-01
 -1      2683 2.07473E-01
 -1      2684 1.87404E-01
 -1      2685 1.98637E-01
 -1      2686 1.72135E-01
 -1      2687 1.55406E-01
 -1      2688 1.66836E-01
 -1      2689 1.42077E-01
 -1      2690 1.27472E-01
 -1      2691 1.38238E-01
 -1      2692 1.15480E-01
 -1      2693 1.02885E-01
 -1      2694 1.12918E-01
 -1      2695 9.20704E-02
 -1      2696 8.21758E-02
 -1      2697 9.01107E-02
 -1      2698 7.21439E-02
 -1      2699 6.41499E-02
 -1      2700 6.92638E-02
 -1      2701 5.85561E-02
 -1      2702 6.12874E-02
 -1      2703 5.36381E-02
 -1      2704 6.55686E-02
 -1      2705 7.28792E-02
 -1      2706 5.23254E-02
 -1      2707 9.12891E-02
 -1      2708 1.08359E-01
 -1      2709 7.50165E-02
 -1      2710 1.31213E-01
 -1      2711 1.58338E-01
 -1      2712 1.16280E-01
 -1      2713 1.86144E-01
 -1      2714 2.19229E-01
 -1      2715 1.66941E-01
 -1      2716 2.52984E-01
 -1      2717 2.92657E-01
 -1      2718 2.28502E-01
 -1      2719 3.33239E-01
 -1      2720 3.79505E-01
 -1      2721 3.02837E-01
 -1      2722 4.27531E-01
 -1      2723 4.79321E-01
 -1      2724 3.91444E-01
 -1      2725 5.34911E-01
 -1      2726 5.89473E-01
 -1      2727 4.95059E-01
 -1      2728 6.51861E-01
 -1      2729 7.04047E-01
 -1      2730 6.13037E-01
 -1      2731 7.70914E-01
 -1      2732 8.12890E-01
 -1      2733 7.42292E-01
 -1      2734 8.79176E-01
 -1      2735 9.26334E-01
 -1      2736 8.75444E-01
 -1      2737 9.99636E-01
 -1      2738 1.05856E+00
 -1      2739 1.01503E+00
 -1      2740 1.18269E+00
 -1      2741 1.21994E+00
 -1      2742 1.21247E+00
 -1      2743 1.34420E+00
 -1      2744 1.34424E+00
 -1      2745 1.46087E+00
 -1      2746 1.43379E+00
 -1      2747 1.58621E+00
 -1      2748 1.67467E+00
 -1      2749 1.84689E+00
 -1      2750 1.84807E+00
 -1      2751 2.02491E+00
 -1      2752 1.69692E+00
 -1      2753 1.81452E+00
 -1      2754 2.13444E+00
 -1      2755 2.11103E+00
 -1      2756 2.30138E+00
 -1      2757 2.27980E+00
 -1      2758 3.23512E+00
 -1      2759 3.67225E+00
 -1      2760 3.51005E+00
 -1      2761 3.68450E+00
 -1      2762 3.61677E+00
 -1      2763 4.45604E+00
 -1      2764 3.18507E+00
 -1      2765 3.00335E+00
 -1      2766 4.03659E+00
 -1      2767 2.75904E+00
 -1      2768 2.41117E+00
 -1      2769 3.36059E+00
 -1      2770 1.89609E+00
 -1      2771 1.89363E+00
 -1      2772 2.60121E+00
 -1      2773 1.91699E+00
 -1      2774 1.76714E+00
 -1      2775 2.10948E+00
 -1      2776 1.60349E+00
 -1      2777 1.49562E+00
 -1      2778 1.96919E+00
 -1      2779 1.21534E+00
 -1      2780 1.06611E+00
 -1      2781 1.52526E+00
 -1      2782 9.45378E-01
 -1      2783 8.91883E-01
 -1      2784 1.12425E+00
 -1      2785 7.80254E-01
 -1      2786 7.12063E-01
 -1      2787 8.91883E-01
 -1      2788 6.43872E-01
 -1      2789 5.80468E-01
 -1      2790 7.12063E-01
 -1      2791 3.53657E-01
 -1      2792 3.86385E-01
 -1      2793 9.01575E-01
 -1      2794 8.42011E-01
 -1      2795 8.95004E-01
 -1      2796 4.20529E-01
 -1      2797 4.74095E-01
 -1      2798 3.65452E-01
 -1      2799 2.48686E-01
 -1      2800 2.76304E-01
 -1      2801 2.08436E-01
 -1      2802 2.30525E-01
 -1      2803 2.20905E-01
 -1      2804 1.72431E-01
 -1      2805 1.91602E-01
 -1      2806 1.85909E-01
 -1      2807 1.41089E-01
 -1      2808 1.57493E-01
 -1      2809 1.54136E-01
 -1      2810 1.14651E-01
 -1      2811 1.28157E-01
 -1      2812 1.26266E-01
 -1      2813 9.24898E-02
 -1      2814 1.03526E-01
 -1      2815 1.02210E-01
 -1      2816 7.56049E-02
 -1      2817 8.27512E-02
 -1      2818 8.13467E-02
 -1      2819 6.80070E-02
 -1      2820 6.82123E-02
 -1      2821 6.42156E-02
 -1      2822 8.06135E-02
 -1      2823 7.28991E-02
 -1      2824 6.17151E-02
 -1      2825 1.03664E-01
 -1      2826 9.26683E-02
 -1      2827 7.86619E-02
 -1      2828 1.53275E-01
 -1      2829 1.27115E-01
 -1      2830 1.14167E-01
 -1      2831 2.15920E-01
 -1      2832 1.82104E-01
 -1      2833 1.66446E-01
 -1      2834 2.92723E-01
 -1      2835 2.51262E-01
 -1      2836 2.30617E-01
 -1      2837 3.85082E-01
 -1      2838 3.35560E-01
 -1      2839 3.08796E-01
 -1      2840 4.92963E-01
 -1      2841 4.36042E-01
 -1      2842 4.02593E-01
 -1      2843 6.13827E-01
 -1      2844 5.51990E-01
 -1      2845 5.12579E-01
 -1      2846 7.41193E-01
 -1      2847 6.79695E-01
 -1      2848 6.37474E-01
 -1      2849 8.62943E-01
 -1      2850 8.10773E-01
 -1      2851 7.72922E-01
 -1      2852 9.71550E-01
 -1      2853 9.30199E-01
 -1      2854 9.09758E-01
 -1      2855 1.08290E+00
 -1      2856 1.03142E+00
 -1      2857 1.03688E+00
 -1      2858 1.23062E+00
 -1      2859 1.19360E+00
 -1      2860 1.20745E+00
 -1      2861 1.33446E+00
 -1      2862 1.34512E+00
 -1      2863 1.43265E+00
 -1      2864 1.48569E+00
 -1      2865 1.42381E+00
 -1      2866 1.63650E+00
 -1      2867 1.67493E+00
 -1      2868 1.66807E+00
 -1      2869 1.90824E+00
 -1      2870 2.54568E+00
 -1      2871 2.31007E+00
 -1      2872 2.72576E+00
 -1      2873 2.28005E+00
 -1      2874 2.11154E+00
 -1      2875 2.92677E+00
 -1      2876 3.42189E+00
 -1      2877 3.05287E+00
 -1      2878 3.26545E+00
 -1      2879 3.19921E+00
 -1      2880 3.21370E+00
 -1      2881 3.83008E+00
 -1      2882 3.51738E+00
 -1      2883 3.58860E+00
 -1      2884 4.01128E+00
 -1      2885 2.68493E+00
 -1      2886 3.04698E+00
 -1      2887 3.93027E+00
 -1      2888 2.23832E+00
 -1      2889 2.35381E+00
 -1      2890 3.12876E+00
 -1      2891 1.82394E+00
 -1      2892 1.98374E+00
 -1      2893 2.54307E+00
 -1      2894 1.56214E+00
 -1      2895 1.64181E+00
 -1      2896 2.10637E+00
 -1      2897 1.18612E+00
 -1      2898 1.32998E+00
 -1      2899 1.69208E+00
 -1      2900 1.04735E+00
 -1      2901 1.07258E+00
 -1      2902 1.34638E+00
 -1      2903 9.49610E-01
 -1      2904 9.85367E-01
 -1      2905 1.17086E+00
 -1      2906 8.13618E-01
 -1      2907 8.69754E-01
 -1      2908 1.02902E+00
 -1      2909 1.03055E+00
 -1      2910 7.89086E+00
 -1      2911 1.02439E+01
 -1      2912 1.10268E+00
 -1      2913 1.09910E+00
 -1      2914 5.31745E-01
 -1      2915 5.01162E-01
 -1      2916 5.95149E-01
 -1      2917 9.53901E-01
 -1      2918 8.31878E-01
 -1      2919 1.08771E+00
 -1      2920 1.08771E+00
 -1      2921 1.26238E+00
 -1      2922 1.09910E+00
 -1      2923 1.07445E+00
 -1      2924 1.15681E+00
 -1      2925 1.27736E+00
 -1      2926 7.22539E+00
 -1      2927 4.73599E+00
 -1      2928 1.01273E+00
 -1      2929 1.07744E+00
 -1      2930 1.23714E+00
 -1      2931 6.84007E-01
 -1      2932 8.22906E-01
 -1      2933 1.03704E+00
 -1      2934 6.66432E-01
 -1      2935 6.53618E-01
 -1      2936 8.16826E-01
 -1      2937 1.16249E+01
 -1      2938 1.50411E+01
 -1      2939 2.24950E+01
 -1      2940 2.20340E+01
 -1      2941 6.56064E+00
 -1      2942 5.87396E+00
 -1      2943 6.69108E-01
 -1      2944 6.33807E-01
 -1      2945 5.85433E-01
 -1      2946 5.93919E-01
 -1      2947 4.14731E+00
 -1      2948 5.73926E+00
 -1      2949 1.17129E+01
 -1      2950 8.79570E+00
 -1      2951 1.16591E+01
 -1      2952 1.49867E+01
 -1      2953 5.07705E-01
 -1      2954 5.86794E-01
 -1      2955 4.33205E-01
 -1      2956 2.94919E-01
 -1      2957 3.26152E-01
 -1      2958 3.03802E-01
 -1      2959 2.57682E-01
 -1      2960 6.12138E-01
 -1      2961 7.05642E-01
 -1      2962 5.30982E-01
 -1      2963 4.92159E-01
 -1      2964 5.88926E+00
 -1      2965 4.38410E+00
 -1      2966 1.18964E+01
 -1      2967 9.36949E+00
 -1      2968 4.36215E-01
 -1      2969 4.24289E-01
 -1      2970 3.60181E-01
 -1      2971 3.61699E-01
 -1      2972 5.51935E+00
 -1      2973 4.26044E+00
 -1      2974 3.69033E+00
 -1      2975 4.53559E+00
 -1      2976 1.68914E+01
 -1      2977 1.36073E+01
 -1      2978 9.94083E+00
 -1      2979 4.17060E+00
 -1      2980 5.28521E+00
 -1      2981 1.64288E+01
 -1      2982 2.00841E+01
 -1      2983 1.66421E+01
 -1      2984 1.28872E+01
 -1      2985 4.25636E-01
 -1      2986 4.37374E-01
 -1      2987 2.52764E+01
 -1      2988 1.83094E+01
 -1      2989 7.22246E+00
 -1      2990 9.27881E+00
 -1      2991 5.21536E-01
 -1      2992 8.01195E+00
 -1      2993 6.89608E+00
 -1      2994 7.26265E+00
 -1      2995 1.97148E+01
 -1      2996 2.49858E+01
 -1      2997 5.32615E+00
 -1      2998 6.33423E+00
 -1      2999 6.95063E+00
 -1      3000 6.94922E+00
 -1      3001 4.31905E+00
 -1      3002 4.35373E+00
 -1      3003 6.05166E+00
 -1      3004 7.02477E+00
 -1      3005 4.82684E+00
 -1      3006 6.24836E+00
 -1      3007 6.04858E+00
 -1      3008 7.21435E+00
 -1      3009 6.70963E+00
 -1      3010 4.86463E-01
 -1      3011 5.93919E-01
 -1      3012 4.14438E-01
 -1      3013 3.43084E-01
 -1      3014 3.87344E-01
 -1      3015 4.00194E-01
 -1      3016 5.47208E+00
 -1      3017 5.70074E+00
 -1      3018 1.40739E+01
 -1      3019 5.75890E-01
 -1      3020 4.33066E+00
 -1      3021 5.17550E+00
 -1      3022 1.07410E+00
 -1      3023 8.69718E-01
 -1      3024 9.05536E-01
 -1      3025 9.07213E+00
 -1      3026 3.93298E+00
 -1      3027 4.16195E+00
 -1      3028 7.35172E+00
 -1      3029 9.05536E-01
 -1      3030 4.80472E+00
 -1      3031 1.49444E+01
 -1      3032 1.32327E+01
 -1      3033 1.03565E+01
 -1      3034 5.46427E-01
 -1      3035 3.93027E+00
 -1      3036 4.41011E-01
 -1      3037 5.31379E+00
 -1      3038 3.90684E+00
 -1      3039 1.43808E+01
 -1      3040 1.36139E+01
 -1      3041 4.79840E+00
 -1      3042 4.31975E-01
 -1      3043 1.33867E+01
 -1      3044 1.32533E+01
 -1      3045 9.56425E+00
 -1      3046 5.54160E+00
 -1      3047 1.43017E+01
 -1      3048 4.25176E+00
 -1      3049 4.07621E-01
 -1      3050 4.21866E-01
 -1      3051 3.61580E-01
 -1      3052 3.50383E-01
 -1      3053 1.04867E+01
 -1      3054 1.44595E+01
 -1      3055 5.76075E+00
 -1      3056 5.46427E-01
 -1      3057 5.46427E-01
 -1      3058 6.66432E-01
 -1      3059 5.95149E-01
 -1      3060 3.56359E+00
 -1      3061 3.45047E+00
 -1      3062 2.88636E-01
 -1      3063 3.00706E-01
 -1      3064 3.22291E-01
 -1      3065 3.02207E-01
 -1      3066 2.98506E-01
 -1      3067 2.73804E-01
 -1      3068 2.54598E-01
 -1      3069 2.62808E-01
 -1      3070 2.37994E-01
 -1      3071 2.39901E-01
 -1      3072 2.23628E-01
 -1      3073 2.07671E-01
 -1      3074 2.14539E-01
 -1      3075 1.94125E-01
 -1      3076 1.77593E-01
 -1      3077 1.86627E-01
 -1      3078 1.66522E-01
 -1      3079 1.51252E-01
 -1      3080 1.62009E-01
 -1      3081 1.39300E-01
 -1      3082 1.25972E-01
 -1      3083 1.38986E-01
 -1      3084 1.13945E-01
 -1      3085 1.01952E-01
 -1      3086 1.15006E-01
 -1      3087 9.01745E-02
 -1      3088 7.93594E-02
 -1      3089 9.12012E-02
 -1      3090 6.78010E-02
 -1      3091 5.77691E-02
 -1      3092 6.78648E-02
 -1      3093 4.75666E-02
 -1      3094 4.19727E-02
 -1      3095 4.61037E-02
 -1      3096 4.30860E-02
 -1      3097 4.73672E-02
 -1      3098 3.70145E-02
 -1      3099 6.13907E-02
 -1      3100 7.98005E-02
 -1      3101 5.21513E-02
 -1      3102 9.89576E-02
 -1      3103 1.21812E-01
 -1      3104 8.53318E-02
 -1      3105 1.46526E-01
 -1      3106 1.74333E-01
 -1      3107 1.29203E-01
 -1      3108 2.04496E-01
 -1      3109 2.38250E-01
 -1      3110 1.84081E-01
 -1      3111 2.74583E-01
 -1      3112 3.15165E-01
 -1      3113 2.50577E-01
 -1      3114 3.57941E-01
 -1      3115 4.05966E-01
 -1      3116 3.29687E-01
 -1      3117 4.54579E-01
 -1      3118 5.10168E-01
 -1      3119 4.21075E-01
 -1      3120 5.67712E-01
 -1      3121 6.30100E-01
 -1      3122 5.27231E-01
 -1      3123 7.09859E-01
 -1      3124 7.76725E-01
 -1      3125 6.64534E-01
 -1      3126 8.71668E-01
 -1      3127 9.37954E-01
 -1      3128 8.39235E-01
 -1      3129 1.06240E+00
 -1      3130 1.13570E+00
 -1      3131 1.05862E+00
 -1      3132 1.27829E+00
 -1      3133 1.40243E+00
 -1      3134 1.32566E+00
 -1      3135 1.57360E+00
 -1      3136 1.69785E+00
 -1      3137 1.63941E+00
 -1      3138 1.97637E+00
 -1      3139 2.06592E+00
 -1      3140 2.08910E+00
 -1      3141 2.25985E+00
 -1      3142 2.52053E+00
 -1      3143 2.56154E+00
 -1      3144 3.09957E+00
 -1      3145 2.94842E+00
 -1      3146 3.33451E+00
 -1      3147 2.33334E+00
 -1      3148 2.62985E+00
 -1      3149 4.79840E+00
 -1      3150 4.81065E+00
 -1      3151 5.19923E+00
 -1      3152 4.76754E+00
 -1      3153 4.15115E+00
 -1      3154 3.90684E+00
 -1      3155 2.60121E+00
 -1      3156 2.08613E+00
 -1      3157 2.39290E+00
 -1      3158 2.41626E+00
 -1      3159 2.39290E+00
 -1      3160 2.57504E+00
 -1      3161 2.41139E+00
 -1      3162 2.85846E+00
 -1      3163 2.09358E+00
 -1      3164 1.81330E+00
 -1      3165 2.69943E+00
 -1      3166 1.44394E+00
 -1      3167 1.32321E+00
 -1      3168 2.01227E+00
 -1      3169 1.10884E+00
 -1      3170 9.97207E-01
 -1      3171 1.42853E+00
 -1      3172 7.59357E-01
 -1      3173 6.91165E-01
 -1      3174 6.42443E-01
 -1      3175 9.76309E-01
 -1      3176 3.10198E-01
 -1      3177 3.44342E-01
 -1      3178 1.66574E-01
 -1      3179 1.83408E-01
 -1      3180 1.96657E-01
 -1      3181 2.14819E-01
 -1      3182 1.77322E-01
 -1      3183 1.11809E-01
 -1      3184 1.24741E-01
 -1      3185 8.80239E-02
 -1      3186 9.91487E-02
 -1      3187 9.76230E-02
 -1      3188 6.75131E-02
 -1      3189 7.72516E-02
 -1      3190 7.41903E-02
 -1      3191 4.97277E-02
 -1      3192 5.71203E-02
 -1      3193 5.30252E-02
 -1      3194 5.17855E-02
 -1      3195 4.68934E-02
 -1      3196 3.97981E-02
 -1      3197 7.56692E-02
 -1      3198 6.36145E-02
 -1      3199 4.87928E-02
 -1      3200 1.18019E-01
 -1      3201 9.45685E-02
 -1      3202 7.95211E-02
 -1      3203 1.69786E-01
 -1      3204 1.40957E-01
 -1      3205 1.21358E-01
 -1      3206 2.33245E-01
 -1      3207 1.97904E-01
 -1      3208 1.72414E-01
 -1      3209 3.10679E-01
 -1      3210 2.67842E-01
 -1      3211 2.35128E-01
 -1      3212 4.04286E-01
 -1      3213 3.53327E-01
 -1      3214 3.12372E-01
 -1      3215 5.17973E-01
 -1      3216 4.58946E-01
 -1      3217 4.09680E-01
 -1      3218 6.50448E-01
 -1      3219 5.84580E-01
 -1      3220 5.30947E-01
 -1      3221 7.99696E-01
 -1      3222 7.30115E-01
 -1      3223 6.77222E-01
 -1      3224 9.59114E-01
 -1      3225 8.91858E-01
 -1      3226 8.49052E-01
 -1      3227 1.13238E+00
 -1      3228 1.07251E+00
 -1      3229 1.05461E+00
 -1      3230 1.37237E+00
 -1      3231 1.26167E+00
 -1      3232 1.29730E+00
 -1      3233 1.63478E+00
 -1      3234 1.52028E+00
 -1      3235 1.57451E+00
 -1      3236 1.98520E+00
 -1      3237 1.89584E+00
 -1      3238 1.98348E+00
 -1      3239 2.50640E+00
 -1      3240 2.32402E+00
 -1      3241 2.58335E+00
 -1      3242 3.54484E+00
 -1      3243 2.90970E+00
 -1      3244 3.32547E+00
 -1      3245 3.47895E+00
 -1      3246 3.91308E+00
 -1      3247 4.25176E+00
 -1      3248 4.59653E+00
 -1      3249 4.80472E+00
 -1      3250 5.17550E+00
 -1      3251 4.78611E+00
 -1      3252 2.54307E+00
 -1      3253 2.79764E+00
 -1      3254 2.38298E+00
 -1      3255 2.56511E+00
 -1      3256 2.81968E+00
 -1      3257 1.97015E+00
 -1      3258 2.20231E+00
 -1      3259 2.66105E+00
 -1      3260 1.54932E+00
 -1      3261 1.66285E+00
 -1      3262 2.17309E+00
 -1      3263 1.36387E+00
 -1      3264 1.42585E+00
 -1      3265 1.74232E+00
 -1      3266 4.06554E+00
 -1      3267 5.54875E+00
 -1      3268 1.51634E+00
 -1      3269 1.53131E+00
 -1      3270 1.00043E+00
 -1      3271 1.03082E+00
 -1      3272 1.50607E+00
 -1      3273 1.51634E+00
 -1      3274 1.78526E+00
 -1      3275 3.12876E+00
 -1      3276 3.60186E+00
 -1      3277 1.06922E+01
 -1      3278 1.23685E+01
 -1      3279 4.44379E+00
 -1      3280 4.40066E+00
 -1      3281 1.23312E+01
 -1      3282 1.01948E+01
 -1      3283 3.53727E-01
 -1      3284 3.87337E-01
 -1      3285 2.98473E-01
 -1      3286 1.21532E+01
 -1      3287 1.07352E+01
 -1      3288 4.63527E-01
 -1      3289 3.93027E+00
 -1      3290 1.24511E+00
 -1      3291 1.43494E+00
 -1      3292 1.71413E+00
 -1      3293 1.42871E+00
 -1      3294 5.10384E+00
 -1      3295 4.09702E+00
 -1      3296 6.96691E+00
 -1      3297 8.34797E+00
 -1      3298 1.11194E+00
 -1      3299 1.38006E-01
 -1      3300 1.52944E-01
 -1      3301 1.50444E-01
 -1      3302 1.23549E-01
 -1      3303 6.61756E+00
 -1      3304 4.47346E+00
 -1      3305 1.21336E+01
 -1      3306 1.24242E+01
 -1      3307 9.50094E+00
 -1      3308 7.60650E+00
 -1      3309 3.17183E-01
 -1      3310 3.10113E-01
 -1      3311 2.46122E-01
 -1      3312 1.25030E+01
 -1      3313 1.21336E+01
 -1      3314 1.01771E+01
 -1      3315 9.72445E+00
 -1      3316 8.73357E+00
 -1      3317 4.13854E-01
 -1      3318 3.10404E-01
 -1      3319 2.61480E-01
 -1      3320 4.00375E-01
 -1      3321 6.29664E+00
 -1      3322 8.67695E+00
 -1      3323 3.59174E-01
 -1      3324 3.27622E-01
 -1      3325 2.44383E-01
 -1      3326 3.59174E-01
 -1      3327 3.45988E+00
 -1      3328 1.25962E+01
 -1      3329 1.06922E+01
 -1      3330 1.03053E+01
 -1      3331 1.17474E+01
 -1      3332 3.23776E-01
 -1      3333 3.16050E-01
 -1      3334 4.32703E+00
 -1      3335 5.96953E+00
 -1      3336 5.24537E+00
 -1      3337 3.52281E+00
 -1      3338 3.12876E+00
 -1      3339 3.24729E-01
 -1      3340 3.24602E-01
 -1      3341 2.97568E-01
 -1      3342 2.60117E-01
 -1      3343 3.21110E-01
 -1      3344 3.21110E-01
 -1      3345 1.16584E+00
 -1      3346 1.20368E+00
 -1      3347 5.43327E+00
 -1      3348 8.70089E+00
 -1      3349 7.06161E+00
 -1      3350 3.29847E+00
 -1      3351 3.51005E+00
 -1      3352 8.94943E+00
 -1      3353 3.11628E+00
 -1      3354 7.68325E+00
 -1      3355 8.78336E+00
 -1      3356 6.44903E+00
 -1      3357 6.82108E+00
 -1      3358 3.94282E+00
 -1      3359 6.05883E+00
 -1      3360 3.69556E-01
 -1      3361 3.94900E-01
 -1      3362 2.77773E-01
 -1      3363 2.90078E-01
 -1      3364 3.21949E+00
 -1      3365 3.95365E+00
 -1      3366 3.32382E-01
 -1      3367 3.81470E-01
 -1      3368 2.77118E-01
 -1      3369 2.05110E-01
 -1      3370 2.29357E-01
 -1      3371 2.47972E-01
 -1      3372 4.03826E+00
 -1      3373 9.62326E+00
 -1      3374 8.98678E+00
 -1      3375 4.66144E+00
 -1      3376 1.14025E+00
 -1      3377 1.39524E+00
 -1      3378 1.06040E+00
 -1      3379 1.45478E+00
 -1      3380 1.33423E+00
 -1      3381 1.46381E+00
 -1      3382 2.66442E-01
 -1      3383 2.93948E-01
 -1      3384 2.38118E-01
 -1      3385 1.51710E+00
 -1      3386 1.51710E+00
 -1      3387 1.69453E+00
 -1      3388 1.77106E+00
 -1      3389 8.43545E+00
 -1      3390 8.33873E+00
 -1      3391 6.33023E+00
 -1      3392 5.70406E+00
 -1      3393 4.32899E+00
 -1      3394 3.92569E+00
 -1      3395 6.48780E+00
 -1      3396 2.72838E-01
 -1      3397 3.44342E-01
 -1      3398 3.11374E-01
 -1      3399 3.40571E-01
 -1      3400 6.04791E+00
 -1      3401 1.07101E+01
 -1      3402 8.19190E+00
 -1      3403 8.46294E+00
 -1      3404 1.17296E+00
 -1      3405 1.17296E+00
 -1      3406 1.09158E+00
 -1      3407 1.26470E+00
 -1      3408 8.44170E+00
 -1      3409 3.25294E-01
 -1      3410 3.23776E-01
 -1      3411 2.88889E-01
 -1      3412 2.84706E-01
 -1      3413 9.42156E+00
 -1      3414 3.64687E+00
 -1      3415 2.60121E+00
 -1      3416 6.62415E-01
 -1      3417 7.82420E-01
 -1      3418 9.96410E-01
 -1      3419 7.58431E-01
 -1      3420 2.17438E-01
 -1      3421 2.06442E-01
 -1      3422 2.02683E-01
 -1      3423 1.88317E-01
 -1      3424 1.80220E-01
 -1      3425 1.80142E-01
 -1      3426 1.66595E-01
 -1      3427 1.68285E-01
 -1      3428 1.56203E-01
 -1      3429 1.45132E-01
 -1      3430 1.49718E-01
 -1      3431 1.36860E-01
 -1      3432 1.24908E-01
 -1      3433 1.31054E-01
 -1      3434 1.15856E-01
 -1      3435 1.03829E-01
 -1      3436 1.13730E-01
 -1      3437 9.42293E-02
 -1      3438 8.24514E-02
 -1      3439 9.50791E-02
 -1      3440 7.26719E-02
 -1      3441 6.11134E-02
 -1      3442 7.57000E-02
 -1      3443 5.42379E-02
 -1      3444 4.40354E-02
 -1      3445 5.90451E-02
 -1      3446 4.55571E-02
 -1      3447 4.66704E-02
 -1      3448 5.36913E-02
 -1      3449 5.09155E-02
 -1      3450 6.49389E-02
 -1      3451 5.94580E-02
 -1      3452 8.31489E-02
 -1      3453 1.02306E-01
 -1      3454 8.19131E-02
 -1      3455 1.25266E-01
 -1      3456 1.49980E-01
 -1      3457 1.23083E-01
 -1      3458 1.78374E-01
 -1      3459 2.08537E-01
 -1      3460 1.74437E-01
 -1      3461 2.43496E-01
 -1      3462 2.79829E-01
 -1      3463 2.37789E-01
 -1      3464 3.22499E-01
 -1      3465 3.65275E-01
 -1      3466 3.15417E-01
 -1      3467 4.16719E-01
 -1      3468 4.65332E-01
 -1      3469 4.09531E-01
 -1      3470 5.26316E-01
 -1      3471 5.83860E-01
 -1      3472 5.21960E-01
 -1      3473 6.54357E-01
 -1      3474 7.34116E-01
 -1      3475 6.53442E-01
 -1      3476 8.15557E-01
 -1      3477 9.10500E-01
 -1      3478 8.05380E-01
 -1      3479 1.03872E+00
 -1      3480 1.16316E+00
 -1      3481 1.01504E+00
 -1      3482 1.36555E+00
 -1      3483 1.50814E+00
 -1      3484 1.34564E+00
 -1      3485 1.80805E+00
 -1      3486 1.97921E+00
 -1      3487 1.84794E+00
 -1      3488 2.52704E+00
 -1      3489 2.80556E+00
 -1      3490 2.69567E+00
 -1      3491 4.08240E+00
 -1      3492 3.37827E+00
 -1      3493 3.58179E+00
 -1      3494 3.26399E+00
 -1      3495 2.51790E+00
 -1      3496 2.14854E+00
 -1      3497 1.85096E+00
 -1      3498 1.63659E+00
 -1      3499 2.35659E+00
 -1      3500 6.74439E-02
 -1      3501 7.82162E-02
 -1      3502 8.89166E-02
 -1      3503 1.01577E-01
 -1      3504 8.21703E-02
 -1      3505 4.19811E-02
 -1      3506 4.48154E-02
 -1      3507 5.67925E-02
 -1      3508 4.49635E-02
 -1      3509 4.99808E-02
 -1      3510 9.27565E-02
 -1      3511 7.38573E-02
 -1      3512 7.00280E-02
 -1      3513 1.38260E-01
 -1      3514 1.15322E-01
 -1      3515 1.09658E-01
 -1      3516 1.94418E-01
 -1      3517 1.66300E-01
 -1      3518 1.60263E-01
 -1      3519 2.63775E-01
 -1      3520 2.29179E-01
 -1      3521 2.23065E-01
 -1      3522 3.49178E-01
 -1      3523 3.06530E-01
 -1      3524 3.00581E-01
 -1      3525 4.55760E-01
 -1      3526 4.01100E-01
 -1      3527 3.95258E-01
 -1      3528 5.84294E-01
 -1      3529 5.17686E-01
 -1      3530 5.09106E-01
 -1      3531 7.35866E-01
 -1      3532 6.56199E-01
 -1      3533 6.42937E-01
 -1      3534 9.07888E-01
 -1      3535 8.15726E-01
 -1      3536 7.94702E-01
 -1      3537 1.14202E+00
 -1      3538 1.02862E+00
 -1      3539 9.95298E-01
 -1      3540 1.44715E+00
 -1      3541 1.31786E+00
 -1      3542 1.29187E+00
 -1      3543 1.87876E+00
 -1      3544 1.73084E+00
 -1      3545 1.75140E+00
 -1      3546 2.67483E+00
 -1      3547 2.41378E+00
 -1      3548 2.57011E+00
 -1      3549 4.04020E+00
 -1      3550 3.70138E+00
 -1      3551 4.13168E+00
 -1      3552 3.54485E+00
 -1      3553 1.84631E+00
 -1      3554 1.96977E+00
 -1      3555 2.69738E+00
 -1      3556 2.69738E+00
 -1      3557 7.66806E+00
 -1      3558 7.63071E+00
 -1      3559 2.49522E-01
 -1      3560 2.58907E-01
 -1      3561 2.17309E+00
 -1      3562 2.48039E+00
 -1      3563 2.27707E+00
 -1      3564 2.70772E+00
 -1      3565 2.88839E+00
 -1      3566 3.59152E+00
 -1      3567 2.70772E+00
 -1      3568 7.72082E+00
 -1      3569 7.72082E+00
 -1      3570 4.63359E-02
 -1      3571 5.67287E-02
 -1      3572 6.07547E-02
 -1      3573 4.85189E-02
 -1      3574 1.58487E-01
 -1      3575 1.71736E-01
 -1      3576 3.52362E+00
 -1      3577 4.85056E+00
 -1      3578 4.87450E+00
 -1      3579 3.32970E+00
 -1      3580 3.33145E-01
 -1      3581 3.40571E-01
 -1      3582 3.23334E-01
 -1      3583 3.14790E-01
 -1      3584 7.32639E+00
 -1      3585 6.85601E+00
 -1      3586 2.17196E-01
 -1      3587 2.13495E-01
 -1      3588 1.80036E-01
 -1      3589 8.46833E+00
 -1      3590 7.83184E+00
 -1      3591 1.86742E-01
 -1      3592 1.98919E-01
 -1      3593 1.57817E-01
 -1      3594 6.16242E+00
 -1      3595 5.04372E+00
 -1      3596 8.46771E+00
 -1      3597 8.46771E+00
 -1      3598 2.34010E-01
 -1      3599 2.50261E-01
 -1      3600 2.10695E-01
 -1      3601 7.71216E+00
 -1      3602 8.46771E+00
 -1      3603 2.02628E-01
 -1      3604 2.23032E-01
 -1      3605 6.04502E+00
 -1      3606 3.40026E+00
 -1      3607 5.08778E+00
 -1      3608 6.69218E+00
 -1      3609 5.73833E+00
 -1      3610 3.76764E+00
 -1      3611 7.24728E+00
 -1      3612 5.29549E+00
 -1      3613 5.80414E+00
 -1      3614 1.64885E-01
 -1      3615 1.83720E-01
 -1      3616 1.98259E-01
 -1      3617 1.49403E-01
 -1      3618 1.43817E-01
 -1      3619 1.35774E-01
 -1      3620 1.09890E+00
 -1      3621 8.61046E-01
 -1      3622 8.81018E-01
 -1      3623 1.52132E+00
 -1      3624 2.38507E-01
 -1      3625 2.20726E-01
 -1      3626 1.89555E-01
 -1      3627 1.03531E-01
 -1      3628 1.12238E-01
 -1      3629 1.25503E-01
 -1      3630 2.69738E+00
 -1      3631 3.60949E+00
 -1      3632 2.62625E+00
 -1      3633 2.59870E-01
 -1      3634 2.68548E-01
 -1      3635 1.61886E+00
 -1      3636 1.84631E+00
 -1      3637 1.39524E+00
 -1      3638 3.68765E+00
 -1      3639 2.77553E+00
 -1      3640 2.76133E+00
 -1      3641 1.20281E+00
 -1      3642 2.08902E-01
 -1      3643 2.27372E-01
 -1      3644 1.87513E-01
 -1      3645 6.54731E+00
 -1      3646 8.10398E+00
 -1      3647 6.38981E+00
 -1      3648 6.39458E+00
 -1      3649 6.75831E+00
 -1      3650 6.56589E+00
 -1      3651 7.72082E+00
 -1      3652 6.45486E+00
 -1      3653 6.40210E+00
 -1      3654 2.04795E-01
 -1      3655 2.53309E-01
 -1      3656 2.24290E-01
 -1      3657 2.53309E-01
 -1      3658 5.44484E+00
 -1      3659 1.98300E-01
 -1      3660 1.87861E-01
 -1      3661 1.40659E-01
 -1      3662 2.20596E-01
 -1      3663 1.96798E+00
 -1      3664 1.79959E+00
 -1      3665 4.58890E+00
 -1      3666 1.85463E+00
 -1      3667 2.07264E+00
 -1      3668 1.95724E+00
 -1      3669 2.48805E-01
 -1      3670 2.36845E-01
 -1      3671 1.58027E-01
 -1      3672 1.96131E+00
 -1      3673 1.45714E+00
 -1      3674 2.28693E+00
 -1      3675 3.06948E+00
 -1      3676 4.72333E+00
 -1      3677 4.81081E+00
 -1      3678 2.84215E+00
 -1      3679 5.33062E+00
 -1      3680 5.02631E+00
 -1      3681 1.56191E-01
 -1      3682 1.48015E-01
 -1      3683 1.43259E-01
 -1      3684 1.32867E-01
 -1      3685 1.31164E-01
 -1      3686 1.25659E-01
 -1      3687 1.17387E-01
 -1      3688 1.19200E-01
 -1      3689 1.10210E-01
 -1      3690 1.01158E-01
 -1      3691 1.04815E-01
 -1      3692 9.43299E-02
 -1      3693 8.47303E-02
 -1      3694 9.08096E-02
 -1      3695 7.73336E-02
 -1      3696 6.75542E-02
 -1      3697 7.65844E-02
 -1      3698 6.43697E-02
 -1      3699 5.74942E-02
 -1      3700 6.60033E-02
 -1      3701 5.89180E-02
 -1      3702 6.04396E-02
 -1      3703 6.42426E-02
 -1      3704 6.36643E-02
 -1      3705 6.79093E-02
 -1      3706 6.88909E-02
 -1      3707 7.53179E-02
 -1      3708 9.35280E-02
 -1      3709 7.95241E-02
 -1      3710 1.12956E-01
 -1      3711 1.35916E-01
 -1      3712 1.06361E-01
 -1      3713 1.60298E-01
 -1      3714 1.88692E-01
 -1      3715 1.50172E-01
 -1      3716 2.19310E-01
 -1      3717 2.54269E-01
 -1      3718 2.05172E-01
 -1      3719 2.92712E-01
 -1      3720 3.35381E-01
 -1      3721 2.74233E-01
 -1      3722 3.83715E-01
 -1      3723 4.35159E-01
 -1      3724 3.61009E-01
 -1      3725 4.96205E-01
 -1      3726 5.57189E-01
 -1      3727 4.70388E-01
 -1      3728 6.34920E-01
 -1      3729 7.05417E-01
 -1      3730 6.09164E-01
 -1      3731 8.05380E-01
 -1      3732 8.86822E-01
 -1      3733 7.86858E-01
 -1      3734 1.01504E+00
 -1      3735 1.14325E+00
 -1      3736 1.01504E+00
 -1      3737 1.30804E+00
 -1      3738 1.51043E+00
 -1      3739 1.30804E+00
 -1      3740 1.69614E+00
 -1      3741 1.99605E+00
 -1      3742 1.65854E+00
 -1      3743 1.25114E-01
 -1      3744 1.02548E-01
 -1      3745 2.65417E+00
 -1      3746 2.35659E+00
 -1      3747 5.59346E+00
 -1      3748 3.68098E+00
 -1      3749 3.27017E+00
 -1      3750 8.29456E-02
 -1      3751 6.58809E-02
 -1      3752 9.84012E-02
 -1      3753 5.91019E-02
 -1      3754 5.61194E-02
 -1      3755 7.20195E-02
 -1      3756 1.77700E-01
 -1      3757 1.49660E-01
 -1      3758 1.42550E-01
 -1      3759 2.43246E-01
 -1      3760 2.08484E-01
 -1      3761 1.97881E-01
 -1      3762 3.24591E-01
 -1      3763 2.81836E-01
 -1      3764 2.67256E-01
 -1      3765 4.24860E-01
 -1      3766 3.72938E-01
 -1      3767 3.54192E-01
 -1      3768 5.47429E-01
 -1      3769 4.85503E-01
 -1      3770 4.63182E-01
 -1      3771 6.95724E-01
 -1      3772 6.23819E-01
 -1      3773 6.00215E-01
 -1      3774 8.72404E-01
 -1      3775 7.92545E-01
 -1      3776 7.73426E-01
 -1      3777 1.11603E+00
 -1      3778 9.95298E-01
 -1      3779 9.93141E-01
 -1      3780 1.44548E+00
 -1      3781 1.26965E+00
 -1      3782 1.26965E+00
 -1      3783 1.97835E+00
 -1      3784 1.69466E+00
 -1      3785 1.67243E+00
 -1      3786 2.93992E+00
 -1      3787 2.40490E+00
 -1      3788 2.34816E+00
 -1      3789 1.78897E-01
 -1      3790 1.78158E-01
 -1      3791 2.03420E+00
 -1      3792 2.26165E+00
 -1      3793 2.37665E+00
 -1      3794 2.21934E+00
 -1      3795 2.42266E+00
 -1      3796 2.78442E+00
 -1      3797 2.40723E+00
 -1      3798 4.47816E+00
 -1      3799 4.50507E+00
 -1      3800 1.42642E+00
 -1      3801 7.37110E-02
 -1      3802 8.44114E-02
 -1      3803 1.77391E-01
 -1      3804 1.84029E-01
 -1      3805 1.51493E-01
 -1      3806 1.50324E-01
 -1      3807 1.54266E-01
 -1      3808 2.42182E-01
 -1      3809 2.46365E-01
 -1      3810 2.10785E-01
 -1      3811 1.15613E-01
 -1      3812 1.33890E-01
 -1      3813 1.08120E-01
 -1      3814 1.60463E-01
 -1      3815 1.56704E-01
 -1      3816 1.30751E-01
 -1      3817 5.46670E+00
 -1      3818 5.46670E+00
 -1      3819 4.82206E+00
 -1      3820 4.53546E+00
 -1      3821 3.50891E+00
 -1      3822 4.38610E+00
 -1      3823 2.24395E-01
 -1      3824 2.76133E+00
 -1      3825 2.69901E+00
 -1      3826 3.03479E+00
 -1      3827 3.76581E+00
 -1      3828 2.30850E-01
 -1      3829 2.68548E-01
 -1      3830 2.77092E-01
 -1      3831 3.98093E+00
 -1      3832 1.24667E-01
 -1      3833 1.23548E-01
 -1      3834 9.96209E-02
 -1      3835 1.40916E-01
 -1      3836 5.42387E+00
 -1      3837 5.37111E+00
 -1      3838 1.84692E-01
 -1      3839 2.18920E-01
 -1      3840 1.67349E-01
 -1      3841 5.18694E+00
 -1      3842 4.24233E+00
 -1      3843 4.82799E+00
 -1      3844 6.26872E-02
 -1      3845 5.35661E-02
 -1      3846 5.50867E-02
 -1      3847 2.31518E+00
 -1      3848 2.86301E+00
 -1      3849 2.65737E-01
 -1      3850 2.65737E-01
 -1      3851 1.91209E-01
 -1      3852 2.19495E-01
 -1      3853 1.46786E-01
 -1      3854 1.58771E-01
 -1      3855 3.62138E+00
 -1      3856 3.96070E+00
 -1      3857 1.24462E-01
 -1      3858 2.49494E+00
 -1      3859 9.28521E-02
 -1      3860 1.03513E-01
 -1      3861 8.43929E-02
 -1      3862 1.29182E-01
 -1      3863 1.38266E-01
 -1      3864 1.32151E-01
 -1      3865 1.31623E-01
 -1      3866 1.63421E-01
 -1      3867 3.34369E+00
 -1      3868 4.17509E+00
 -1      3869 5.46670E+00
 -1      3870 5.10297E+00
 -1      3871 4.19744E+00
 -1      3872 2.93489E+00
 -1      3873 3.60043E+00
 -1      3874 3.02702E+00
 -1      3875 3.10518E+00
 -1      3876 1.64929E-01
 -1      3877 1.75572E-01
 -1      3878 1.46830E-01
 -1      3879 4.35239E+00
 -1      3880 5.17143E+00
 -1      3881 5.06041E+00
 -1      3882 2.16339E+00
 -1      3883 1.54807E-01
 -1      3884 2.79251E+00
 -1      3885 5.42387E+00
 -1      3886 5.43620E-02
 -1      3887 6.50772E-02
 -1      3888 5.94092E-02
 -1      3889 2.98486E+00
 -1      3890 3.05775E+00
 -1      3891 6.73183E-02
 -1      3892 1.93641E-01
 -1      3893 1.93641E-01
 -1      3894 4.07205E+00
 -1      3895 5.09203E+00
 -1      3896 3.80042E+00
 -1      3897 2.95413E+00
 -1      3898 1.36434E-01
 -1      3899 4.00118E+00
 -1      3900 4.00118E+00
 -1      3901 1.87081E-01
 -1      3902 1.93641E-01
 -1      3903 1.56432E-01
 -1      3904 5.75510E+00
 -1      3905 5.88470E+00
 -1      3906 3.71588E+00
 -1      3907 1.41214E-01
 -1      3908 1.60364E-01
 -1      3909 4.37923E+00
 -1      3910 1.35113E-01
 -1      3911 1.36932E-01
 -1      3912 1.12058E-01
 -1      3913 1.04850E-01
 -1      3914 9.97897E-02
 -1      3915 9.26127E-02
 -1      3916 9.26477E-02
 -1      3917 8.64117E-02
 -1      3918 7.95832E-02
 -1      3919 8.13863E-02
 -1      3920 7.62822E-02
 -1      3921 6.88855E-02
 -1      3922 7.18843E-02
 -1      3923 6.91538E-02
 -1      3924 6.59694E-02
 -1      3925 6.88516E-02
 -1      3926 6.63809E-02
 -1      3927 6.78047E-02
 -1      3928 6.95314E-02
 -1      3929 7.01285E-02
 -1      3930 7.33531E-02
 -1      3931 7.22668E-02
 -1      3932 7.94900E-02
 -1      3933 8.68986E-02
 -1      3934 8.07275E-02
 -1      3935 9.73627E-02
 -1      3936 1.16791E-01
 -1      3937 9.73286E-02
 -1      3938 1.31047E-01
 -1      3939 1.55429E-01
 -1      3940 1.22048E-01
 -1      3941 1.79351E-01
 -1      3942 2.09969E-01
 -1      3943 1.60226E-01
 -1      3944 2.40601E-01
 -1      3945 2.79044E-01
 -1      3946 2.14780E-01
 -1      3947 3.18532E-01
 -1      3948 3.66865E-01
 -1      3949 2.84900E-01
 -1      3950 4.18460E-01
 -1      3951 4.79505E-01
 -1      3952 3.75982E-01
 -1      3953 5.48461E-01
 -1      3954 6.26191E-01
 -1      3955 4.96532E-01
 -1      3956 7.21402E-01
 -1      3957 8.21365E-01
 -1      3958 6.60698E-01
 -1      3959 9.58397E-01
 -1      3960 1.08661E+00
 -1      3961 8.92940E-01
 -1      3962 1.28682E+00
 -1      3963 1.45160E+00
 -1      3964 1.23018E+00
 -1      3965 1.62007E+00
 -1      3966 1.80579E+00
 -1      3967 1.59885E+00
 -1      3968 2.06385E-01
 -1      3969 1.75601E-01
 -1      3970 2.93489E+00
 -1      3971 1.11347E-01
 -1      3972 1.21617E-01
 -1      3973 1.16066E-01
 -1      3974 1.00668E-01
 -1      3975 1.29109E-01
 -1      3976 1.35268E-01
 -1      3977 1.17392E-01
 -1      3978 1.07587E-01
 -1      3979 8.79839E-02
 -1      3980 1.19946E-01
 -1      3981 1.05208E-01
 -1      3982 1.51012E-01
 -1      3983 1.26465E-01
 -1      3984 1.59516E-01
 -1      3985 7.87900E-02
 -1      3986 7.20111E-02
 -1      3987 8.79755E-02
 -1      3988 2.76193E-01
 -1      3989 2.37602E-01
 -1      3990 2.15322E-01
 -1      3991 3.64350E-01
 -1      3992 3.16003E-01
 -1      3993 2.86350E-01
 -1      3994 4.76274E-01
 -1      3995 4.15631E-01
 -1      3996 3.77441E-01
 -1      3997 6.19935E-01
 -1      3998 5.43546E-01
 -1      3999 4.95994E-01
 -1      4000 8.07582E-01
 -1      4001 7.10761E-01
 -1      4002 6.54092E-01
 -1      4003 1.05830E+00
 -1      4004 9.35403E-01
 -1      4005 8.72738E-01
 -1      4006 1.39788E+00
 -1      4007 1.24427E+00
 -1      4008 1.18653E+00
 -1      4009 1.92161E+00
 -1      4010 1.67243E+00
 -1      4011 1.64706E+00
 -1      4012 2.61424E+00
 -1      4013 2.18769E+00
 -1      4014 2.18769E+00
 -1      4015 3.56370E+00
 -1      4016 2.99472E+00
 -1      4017 2.83425E+00
 -1      4018 4.03713E+00
 -1      4019 3.48304E+00
 -1      4020 1.19691E-01
 -1      4021 1.19178E-01
 -1      4022 1.97921E+00
 -1      4023 2.29833E+00
 -1      4024 2.76995E+00
 -1      4025 1.94074E+00
 -1      4026 6.13561E-02
 -1      4027 6.99899E-02
 -1      4028 1.31168E-01
 -1      4029 1.26035E-01
 -1      4030 9.96207E-02
 -1      4031 1.11474E-01
 -1      4032 4.14820E+00
 -1      4033 9.18057E-02
 -1      4034 1.08239E-01
 -1      4035 5.11034E+00
 -1      4036 1.48576E-01
 -1      4037 1.85785E-01
 -1      4038 1.74431E-01
 -1      4039 1.43020E-01
 -1      4040 1.07513E-01
 -1      4041 1.13710E-01
 -1      4042 9.11984E-02
 -1      4043 5.11034E+00
 -1      4044 1.19743E-01
 -1      4045 1.14987E-01
 -1      4046 1.00637E-01
 -1      4047 6.79369E-02
 -1      4048 7.38991E-02
 -1      4049 8.23398E-02
 -1      4050 6.81468E-02
 -1      4051 6.55935E-02
 -1      4052 7.49173E-02
 -1      4053 1.69743E-01
 -1      4054 1.52811E-01
 -1      4055 1.19450E-01
 -1      4056 1.36033E-01
 -1      4057 1.16048E-01
 -1      4058 1.25363E-01
 -1      4059 1.13800E-01
 -1      4060 1.16842E-01
 -1      4061 3.41993E+00
 -1      4062 9.64535E-02
 -1      4063 3.41871E+00
 -1      4064 4.72465E+00
 -1      4065 3.52178E+00
 -1      4066 3.79676E+00
 -1      4067 6.29521E-02
 -1      4068 6.56237E-02
 -1      4069 6.36768E-02
 -1      4070 1.03000E-01
 -1      4071 1.33759E-01
 -1      4072 1.77236E-01
 -1      4073 2.90014E+00
 -1      4074 3.27481E+00
 -1      4075 3.27481E+00
 -1      4076 2.24434E+00
 -1      4077 1.11516E-01
 -1      4078 1.11635E-01
 -1      4079 1.26451E-01
 -1      4080 1.18596E-01
 -1      4081 1.84180E-01
 -1      4082 3.77102E+00
 -1      4083 1.26451E-01
 -1      4084 1.26451E-01
 -1      4085 9.64708E-02
 -1      4086 1.53532E-01
 -1      4087 1.22081E-01
 -1      4088 1.16323E-01
 -1      4089 8.10715E-02
 -1      4090 7.48705E-02
 -1      4091 7.27775E-02
 -1      4092 6.94766E-02
 -1      4093 7.24628E-02
 -1      4094 7.98607E-02
 -1      4095 8.01290E-02
 -1      4096 8.07540E-02
 -1      4097 6.95314E-02
 -1      4098 6.99430E-02
 -1      4099 8.05406E-02
 -1      4100 7.22668E-02
 -1      4101 7.45907E-02
 -1      4102 7.22668E-02
 -1      4103 8.65678E-02
 -1      4104 9.27047E-02
 -1      4105 8.65678E-02
 -1      4106 9.73286E-02
 -1      4107 1.07793E-01
 -1      4108 1.03169E-01
 -1      4109 1.21426E-01
 -1      4110 1.35681E-01
 -1      4111 1.21426E-01
 -1      4112 1.53628E-01
 -1      4113 1.77550E-01
 -1      4114 1.53005E-01
 -1      4115 2.02224E-01
 -1      4116 2.32857E-01
 -1      4117 1.95626E-01
 -1      4118 2.65920E-01
 -1      4119 3.05408E-01
 -1      4120 2.53364E-01
 -1      4121 3.48850E-01
 -1      4122 4.00444E-01
 -1      4123 3.29870E-01
 -1      4124 4.58821E-01
 -1      4125 5.27777E-01
 -1      4126 4.31689E-01
 -1      4127 6.08845E-01
 -1      4128 7.04055E-01
 -1      4129 5.71134E-01
 -1      4130 8.20525E-01
 -1      4131 9.57557E-01
 -1      4132 7.68672E-01
 -1      4133 1.12386E+00
 -1      4134 1.32407E+00
 -1      4135 1.05145E+00
 -1      4136 1.91117E+00
 -1      4137 2.07964E+00
 -1      4138 1.80486E+00
 -1      4139 2.89374E-01
 -1      4140 2.49564E-01
 -1      4141 9.41978E-02
 -1      4142 1.69534E-01
 -1      4143 1.44945E-01
 -1      4144 9.81453E-02
 -1      4145 8.89514E-02
 -1      4146 3.75750E-01
 -1      4147 3.24469E-01
 -1      4148 2.87683E-01
 -1      4149 4.88268E-01
 -1      4150 4.20996E-01
 -1      4151 3.68024E-01
 -1      4152 6.38667E-01
 -1      4153 5.47841E-01
 -1      4154 4.72843E-01
 -1      4155 8.59510E-01
 -1      4156 7.31690E-01
 -1      4157 6.25440E-01
 -1      4158 1.18728E+00
 -1      4159 1.00130E+00
 -1      4160 8.60256E-01
 -1      4161 1.73633E+00
 -1      4162 1.46177E+00
 -1      4163 1.27655E+00
 -1      4164 8.51715E-02
 -1      4165 8.01111E-02
 -1      4166 7.35953E-02
 -1      4167 3.72871E+00
 -1      4168 7.89045E-02
 -1      4169 8.48860E-02
 -1      4170 9.20455E-02
 -1      4171 9.26110E-02
 -1      4172 7.44965E-02
 -1      4173 2.22127E-01
 -1      4174 1.90910E-01
 -1      4175 2.25152E-01
 -1      4176 1.24981E-01
 -1      4177 9.00977E-02
 -1      4178 8.71688E-02
 -1      4179 7.91427E-02
 -1      4180 7.26738E-02
 -1      4181 7.19474E-02
 -1      4182 6.03799E-02
 -1      4183 7.49468E-02
 -1      4184 1.28504E-01
 -1      4185 1.09625E-01
 -1      4186 1.10601E-01
 -1      4187 1.38522E-01
 -1      4188 2.79093E+00
 -1      4189 2.58573E+00
 -1      4190 2.68759E+00
 -1      4191 1.02557E-01
 -1      4192 1.02403E-01
 -1      4193 9.50008E-02
 -1      4194 8.89514E-02
 -1      4195 8.50872E-02
 -1      4196 9.91212E-02
 -1      4197 7.68470E-02
 -1      4198 8.07562E-02
 -1      4199 1.03611E-01
 -1      4200 8.86211E-02
 -1      4201 9.98642E-02
 -1      4202 4.44971E+00
 -1      4203 1.17256E-01
 -1      4204 1.10467E-01
 -1      4205 1.09691E-01
 -1      4206 6.91364E-02
 -1      4207 7.75829E-02
 -1      4208 9.04022E-02
 -1      4209 7.91789E-02
 -1      4210 7.46321E-02
 -1      4211 2.42287E+00
 -1      4212 2.15679E+00
 -1      4213 2.20525E+00
 -1      4214 3.28353E+00
 -1      4215 2.90520E+00
 -1      4216 2.38324E+00
 -1      4217 8.22205E-02
 -1      4218 9.70556E-02
 -1      4219 9.12918E-02
 -1      4220 1.01857E-01
 -1      4221 1.09691E-01
 -1      4222 9.13632E-02
 -1      4223 1.01091E-01
 -1      4224 1.76339E-01
 -1      4225 1.97151E+00
 -1      4226 1.90010E+00
 -1      4227 2.07352E+00
 -1      4228 2.20370E+00
 -1      4229 2.21242E+00
 -1      4230 8.07540E-02
 -1      4231 9.11382E-02
 -1      4232 9.11382E-02
 -1      4233 8.05406E-02
 -1      4234 8.68559E-02
 -1      4235 9.88331E-02
 -1      4236 9.88331E-02
 -1      4237 1.03457E-01
 -1      4238 1.14937E-01
 -1      4239 1.28570E-01
 -1      4240 1.45011E-01
 -1      4241 1.62958E-01
 -1      4242 1.84334E-01
 -1      4243 2.09008E-01
 -1      4244 2.36444E-01
 -1      4245 2.69508E-01
 -1      4246 3.04602E-01
 -1      4247 3.48044E-01
 -1      4248 3.93291E-01
 -1      4249 4.51668E-01
 -1      4250 5.11241E-01
 -1      4251 5.92309E-01
 -1      4252 6.85332E-01
 -1      4253 8.01802E-01
 -1      4254 9.43596E-01
 -1      4255 1.10990E+00
 -1      4256 1.38440E+00
 -1      4257 1.97151E+00
 -1      4258 9.37074E-02
 -1      4259 8.47973E-02
 -1      4260 1.04314E-01
 -1      4261 9.17577E-02
 -1      4262 9.27180E-02
 -1      4263 7.74524E-02
 -1      4264 8.46120E-02
 -1      4265 6.51480E-02
 -1      4266 7.21051E-02
 -1      4267 8.56652E-02
 -1      4268 8.61521E-02
 -1      4269 8.40592E-02
 -1      4270 9.44433E-02
 -1      4271 1.04314E-01
 -1      4272 8.31519E-02
 -1      4273 7.39756E-02
 -1      4274 5.24516E-02
 -1      4275 7.25886E-02
 -1      4276 7.06719E-02
 -1      4277 8.66227E-02
 -1      4278 9.07419E-02
 -1      4279 8.87446E-02
 -1      4280 1.07867E-01
 -1      4281 9.72644E-02
 -1      4282 7.39756E-02
 -1      4283 2.39196E+00
 -1      4284 7.20336E-02
 -1      4285 7.43574E-02
 -1      4286 1.10880E-01
 -1      4287 9.04022E-02
 -1      4288 9.44433E-02
 -1      4289 2.21242E+00
 -1      4290 2.17435E+00
 -1      4291 2.90520E+00
 -1      4292 2.39196E+00
 -1      4293 8.66227E-02
 -1      4294 8.26312E-02
 -1      4295 6.41767E-02
 -1      4296 9.91212E-02
 -1      4297 2.39196E+00
 -1      4298 1.07454E-01
 -1      4299 1.07867E-01
 -1      4300 8.66720E-02
 -1      4301 9.11382E-02
 -1      4302 1.10880E-01
 -1      4303 1.10880E-01
 -1      4304 9.77485E-02
 -1      4305 8.26312E-02
 -1      4306 7.41242E-02
 -1      4307 8.66227E-02
 -1      4308 1.04314E-01
 -1      4309 9.91212E-02
 -3
 9999
